Node Numbers,X Locations (inches),Y Locations (inches),Z Locations (inches),Equivalent Elastic Strains (in/in),Equivalent Stress (psi),Max Principal Elastic Strain (in/in),Max Principal Stress (psi),Middle Principal Elastic Strain (in/in),Middle Principal Stress (psi),Min Principal Elastic Strain (in/in),Min Principal Stress (psi),Total Deformation (in)
1,16.9,2.1818,0,0.00059716,5967.5,0.00026006,814.81,0.00016226,80.002,-0.00057854,-5486.1,1.2968
2,16.9,2.3636,0,0.00047015,4698.3,0.00020556,607.03,0.00012287,-14.236,-0.00045698,-4371,1.2973
3,16.9,2.5455,0,0.00041508,4147.9,0.00017876,509.49,0.00011098,0.24249,-0.00040406,-3869.6,1.2976
4,16.9,2.7273,0,0.00038654,3862.7,0.00016528,458.69,0.00010402,-1.6155,-0.0003767,-3613.6,1.2978
5,16.9,2.9091,0,0.00037438,3741.2,0.0001594,436.18,0.00010123,-0.87084,-0.00036505,-3504.3,1.2979
6,16.9,3.0909,0,0.00037438,3741.2,0.0001594,436.18,0.00010123,-0.87084,-0.00036505,-3504.3,1.2979
7,16.9,3.2727,0,0.00038654,3862.7,0.00016528,458.69,0.00010402,-1.6155,-0.0003767,-3613.6,1.2978
8,16.9,3.4545,0,0.00041508,4147.9,0.00017876,509.49,0.00011098,0.24249,-0.00040406,-3869.6,1.2976
9,16.9,3.6364,0,0.00047015,4698.3,0.00020556,607.03,0.00012287,-14.236,-0.00045698,-4371,1.2973
10,16.9,3.8182,0,0.00059716,5967.5,0.00026006,814.81,0.00016226,80.002,-0.00057854,-5486.1,1.2968
11,17.067,2.1818,0,0.00058413,5837.3,0.00023863,562.05,0.00016503,9.0484,-0.00057245,-5532.1,1.3189
12,17.067,2.3636,0,0.00046578,4654.6,0.00019781,527.82,0.00012544,-15.945,-0.00045468,-4374.7,1.3194
13,17.067,2.5455,0,0.00040983,4095.5,0.00017277,456.99,0.00011203,0.63634,-0.00040013,-3847.6,1.3197
14,17.067,2.7273,0,0.00038116,3809,0.00016022,417.95,0.00010437,-1.6565,-0.00037234,-3583.5,1.3199
15,17.067,2.9091,0,0.0003689,3686.4,0.00015462,399.55,0.00010134,-0.78211,-0.00036048,-3470.7,1.32
16,17.067,3.0909,0,0.0003689,3686.4,0.00015462,399.55,0.00010134,-0.78211,-0.00036048,-3470.7,1.32
17,17.067,3.2727,0,0.00038116,3809,0.00016022,417.95,0.00010437,-1.6565,-0.00037234,-3583.5,1.3199
18,17.067,3.4545,0,0.00040983,4095.5,0.00017277,456.99,0.00011203,0.63635,-0.00040013,-3847.6,1.3197
19,17.067,3.6364,0,0.00046578,4654.6,0.00019781,527.82,0.00012544,-15.945,-0.00045468,-4374.7,1.3194
20,17.067,3.8182,0,0.00058413,5837.3,0.00023863,562.05,0.00016503,9.0485,-0.00057245,-5532.1,1.3189
21,16.716,5.8182,0,3.4243e-05,342.19,1.6214e-05,56.257,7.759e-06,-7.2709,-3.2964e-05,-313.25,1.2639
22,16.716,5.6364,0,5.0528e-05,504.94,2.745e-05,132.5,9.3787e-06,-3.2767,-4.6941e-05,-426.44,1.2648
23,16.716,5.4545,0,7.1307e-05,712.57,4.3103e-05,245.86,1.0041e-05,-2.5512,-6.384e-05,-557.67,1.2657
24,16.716,5.2727,0,9.4873e-05,948.08,6.1269e-05,380.91,1.0268e-05,-2.2945,-8.243e-05,-698.79,1.2666
25,16.716,5.0909,0,0.00012171,1216.3,8.2112e-05,537.61,1.026e-05,-2.2564,-0.00010325,-855.14,1.2674
26,16.716,4.9091,0,0.00015307,1529.7,0.00010645,720.78,1.0127e-05,-2.9766,-0.00012742,-1036.5,1.2683
27,16.716,4.7273,0,0.00019123,1910.9,0.00013577,940.86,1.029e-05,-1.9145,-0.00015692,-1258.3,1.2691
28,16.716,4.5455,0,0.00024037,2402.1,0.00017278,1209.6,1.0566e-05,-9.2079,-0.0001955,-1557.5,1.27
29,16.716,4.3636,0,0.00030955,3093.4,0.00022317,1578,1.4367e-05,9.1134,-0.00025109,-1985.5,1.2708
30,16.716,4.1818,0,0.00041169,4114.1,0.000283,1869.6,2.7398e-05,-50.927,-0.00034561,-2853.6,1.2716
31,16.716,4,0,0.00048191,4815.8,0.00028188,1420.8,6.2473e-05,-227.73,-0.00043995,-4002.7,1.2722
32,16.716,3.8182,0,0.00044761,4473,0.00020648,727.43,0.00011124,11.807,-0.00043072,-4060.3,1.2728
33,16.716,3.6364,0,0.00041753,4172.4,0.00018371,556.8,0.00010867,-6.9822,-0.00040531,-3868.8,1.2732
34,16.716,3.4545,0,0.00038818,3879.1,0.00016668,471.39,0.00010423,2.1633,-0.00037799,-3621,1.2735
35,16.716,3.2727,0,0.00037122,3709.7,0.0001583,435.18,0.00010019,-1.4233,-0.00036191,-3473.5,1.2737
36,16.716,3.0909,0,0.00036317,3629.2,0.00015421,418.18,9.8504e-05,-0.34619,-0.00035425,-3402.1,1.2738
37,16.716,2.9091,0,0.00036317,3629.2,0.00015421,418.18,9.8504e-05,-0.34619,-0.00035425,-3402.1,1.2738
38,16.716,2.7273,0,0.00037122,3709.7,0.0001583,435.18,0.00010019,-1.4233,-0.00036191,-3473.5,1.2737
39,16.716,2.5455,0,0.00038818,3879.1,0.00016668,471.39,0.00010423,2.1633,-0.00037799,-3621,1.2735
40,16.716,2.3636,0,0.00041753,4172.4,0.00018371,556.8,0.00010867,-6.9822,-0.00040531,-3868.8,1.2732
41,16.716,2.1818,0,0.00044761,4473,0.00020648,727.43,0.00011124,11.807,-0.00043072,-4060.3,1.2728
42,16.716,2,0,0.00048191,4815.8,0.00028188,1420.8,6.2473e-05,-227.73,-0.00043995,-4002.7,1.2722
43,16.716,1.8182,0,0.00041169,4114.1,0.000283,1869.6,2.7398e-05,-50.927,-0.00034561,-2853.6,1.2716
44,16.716,1.6364,0,0.00030955,3093.4,0.00022317,1578,1.4367e-05,9.1135,-0.00025109,-1985.5,1.2708
45,16.716,1.4545,0,0.00024037,2402.1,0.00017278,1209.6,1.0566e-05,-9.2079,-0.0001955,-1557.5,1.27
46,16.716,1.2727,0,0.00019123,1910.9,0.00013577,940.86,1.029e-05,-1.9145,-0.00015692,-1258.3,1.2691
47,16.716,1.0909,0,0.00015307,1529.7,0.00010645,720.78,1.0127e-05,-2.9766,-0.00012742,-1036.5,1.2683
48,16.716,0.90909,0,0.00012171,1216.3,8.2112e-05,537.61,1.026e-05,-2.2564,-0.00010325,-855.14,1.2674
49,16.716,0.72727,0,9.4873e-05,948.07,6.1269e-05,380.91,1.0268e-05,-2.2945,-8.243e-05,-698.79,1.2666
50,16.716,0.54545,0,7.1307e-05,712.57,4.3103e-05,245.86,1.0041e-05,-2.5512,-6.384e-05,-557.67,1.2657
51,16.716,0.36364,0,5.0528e-05,504.94,2.745e-05,132.5,9.3787e-06,-3.2767,-4.6941e-05,-426.44,1.2648
52,16.716,0.18182,0,3.4243e-05,342.19,1.6214e-05,56.257,7.759e-06,-7.2709,-3.2964e-05,-313.25,1.2639
53,16.533,5.8182,0,5.3292e-05,532.55,2.106e-05,41.646,1.5421e-05,-0.72745,-5.2469e-05,-510.83,1.241
54,16.533,5.6364,0,6.2531e-05,624.88,2.7784e-05,87.34,1.6153e-05,-0.047024,-6.0586e-05,-576.64,1.2418
55,16.533,5.4545,0,7.7558e-05,775.04,3.9246e-05,169.03,1.6784e-05,0.26522,-7.3286e-05,-676.49,1.2427
56,16.533,5.2727,0,9.6643e-05,965.77,5.3792e-05,274.04,1.7385e-05,0.49705,-8.902e-05,-798.99,1.2435
57,16.533,5.0909,0,0.00011938,1193,7.0884e-05,397.17,1.8103e-05,0.59285,-0.00010756,-943.56,1.2443
58,16.533,4.9091,0,0.00014613,1460.3,9.0526e-05,536.63,1.9204e-05,0.746,-0.00012941,-1115.9,1.2452
59,16.533,4.7273,0,0.00017798,1778.6,0.00011308,691.81,2.1095e-05,0.66393,-0.00015582,-1328.6,1.2459
60,16.533,4.5455,0,0.00021564,2154.9,0.00013792,850.47,2.4798e-05,0.55116,-0.00018819,-1599.7,1.2467
61,16.533,4.3636,0,0.00026055,2603.7,0.00016371,988.74,3.2475e-05,2.6968,-0.00022927,-1964,1.2474
62,16.533,4.1818,0,0.00030489,3046.8,0.00018014,1005.6,4.7281e-05,7.3484,-0.00027512,-2415.1,1.248
63,16.533,4,0,0.00033051,3302.8,0.0001703,774.47,7.0897e-05,27.573,-0.00031046,-2837.8,1.2486
64,16.533,3.8182,0,0.00034661,3463.7,0.00015791,541.38,8.7773e-05,14.423,-0.00033413,-3155.6,1.2491
65,16.533,3.6364,0,0.00035027,3500.3,0.00015071,426.94,9.361e-05,-2.1242,-0.00034106,-3268.1,1.2494
66,16.533,3.4545,0,0.00034756,3473.2,0.00014647,387.03,9.5036e-05,0.53862,-0.00033935,-3263.3,1.2497
67,16.533,3.2727,0,0.00034297,3427.4,0.00014337,367.07,9.4503e-05,-0.086161,-0.00033525,-3229.1,1.2499
68,16.533,3.0909,0,0.00034016,3399.3,0.00014179,359,9.3991e-05,-0.1188,-0.00033263,-3205.6,1.25
69,16.533,2.9091,0,0.00034016,3399.3,0.00014179,359,9.3991e-05,-0.1188,-0.00033263,-3205.6,1.25
70,16.533,2.7273,0,0.00034297,3427.4,0.00014337,367.07,9.4503e-05,-0.086161,-0.00033525,-3229.1,1.2499
71,16.533,2.5455,0,0.00034756,3473.2,0.00014647,387.03,9.5036e-05,0.53862,-0.00033935,-3263.3,1.2497
72,16.533,2.3636,0,0.00035027,3500.3,0.00015071,426.94,9.361e-05,-2.1242,-0.00034106,-3268.1,1.2494
73,16.533,2.1818,0,0.00034661,3463.7,0.00015791,541.38,8.7773e-05,14.423,-0.00033413,-3155.6,1.2491
74,16.533,2,0,0.00033051,3302.8,0.0001703,774.47,7.0897e-05,27.573,-0.00031046,-2837.8,1.2486
75,16.533,1.8182,0,0.00030489,3046.8,0.00018014,1005.6,4.7281e-05,7.3485,-0.00027512,-2415.1,1.248
76,16.533,1.6364,0,0.00026055,2603.7,0.00016371,988.74,3.2475e-05,2.6968,-0.00022927,-1964,1.2474
77,16.533,1.4545,0,0.00021564,2154.9,0.00013792,850.47,2.4798e-05,0.55116,-0.00018819,-1599.7,1.2467
78,16.533,1.2727,0,0.00017798,1778.6,0.00011308,691.81,2.1095e-05,0.66393,-0.00015582,-1328.6,1.2459
79,16.533,1.0909,0,0.00014613,1460.3,9.0526e-05,536.63,1.9204e-05,0.746,-0.00012941,-1115.9,1.2452
80,16.533,0.90909,0,0.00011938,1193,7.0884e-05,397.17,1.8103e-05,0.59285,-0.00010756,-943.56,1.2443
81,16.533,0.72727,0,9.6643e-05,965.77,5.3792e-05,274.04,1.7385e-05,0.49705,-8.902e-05,-798.99,1.2435
82,16.533,0.54545,0,7.7558e-05,775.04,3.9246e-05,169.03,1.6784e-05,0.26522,-7.3286e-05,-676.49,1.2427
83,16.533,0.36364,0,6.2531e-05,624.88,2.7784e-05,87.34,1.6153e-05,-0.047024,-6.0586e-05,-576.64,1.2418
84,16.533,0.18182,0,5.3292e-05,532.55,2.106e-05,41.646,1.5421e-05,-0.72744,-5.2469e-05,-510.83,1.241
85,16.349,5.8182,0,7.4018e-05,739.67,2.7878e-05,41.66,2.2332e-05,-0.011243,-7.3221e-05,-717.96,1.2181
86,16.349,5.6364,0,8.1303e-05,812.47,3.3609e-05,82.263,2.2636e-05,-0.18205,-7.9592e-05,-768.28,1.2189
87,16.349,5.4545,0,9.306e-05,929.96,4.2607e-05,145.7,2.3195e-05,-0.15915,-8.9721e-05,-848.57,1.2197
88,16.349,5.2727,0,0.00010874,1086.6,5.4309e-05,227.53,2.4e-05,-0.2029,-0.00010306,-954.92,1.2205
89,16.349,5.0909,0,0.00012798,1279,6.8218e-05,323.07,2.5186e-05,-0.25972,-0.00011939,-1086.5,1.2213
90,16.349,4.9091,0,0.00015067,1505.7,8.3919e-05,427.3,2.6989e-05,-0.44469,-0.00013878,-1245.9,1.2221
91,16.349,4.7273,0,0.0001767,1765.8,0.00010079,532.35,2.9868e-05,-0.55381,-0.00016151,-1438.5,1.2228
92,16.349,4.5455,0,0.0002057,2055.6,0.00011768,624.3,3.452e-05,-0.52962,-0.00018784,-1671.2,1.2235
93,16.349,4.3636,0,0.0002351,2349.4,0.0001314,671.12,4.1593e-05,-3.679,-0.00021635,-1941.8,1.2241
94,16.349,4.1818,0,0.00026116,2609.8,0.00013748,636.19,5.2568e-05,-1.7945,-0.00024445,-2233.5,1.2246
95,16.349,4,0,0.00028088,2806.8,0.00013565,526.27,6.4953e-05,-4.9512,-0.00026821,-2508.2,1.2251
96,16.349,3.8182,0,0.00029475,2945.5,0.00013059,405.05,7.6195e-05,-3.6395,-0.00028579,-2723.4,1.2255
97,16.349,3.6364,0,0.00030517,3049.6,0.000128,333.29,8.3932e-05,2.1575,-0.00029811,-2868.4,1.2259
98,16.349,3.4545,0,0.00031074,3105.2,0.00012754,303.67,8.7158e-05,0.28335,-0.00030445,-2942.1,1.2261
99,16.349,3.2727,0,0.00031297,3127.5,0.00012734,292.15,8.8493e-05,0.28105,-0.00030697,-2971.1,1.2263
100,16.349,3.0909,0,0.00031359,3133.8,0.00012724,288.28,8.8891e-05,0.16707,-0.00030769,-2979.6,1.2264
101,16.349,2.9091,0,0.00031359,3133.8,0.00012724,288.28,8.8891e-05,0.16707,-0.00030769,-2979.6,1.2264
102,16.349,2.7273,0,0.00031297,3127.5,0.00012734,292.15,8.8493e-05,0.28105,-0.00030697,-2971.1,1.2263
103,16.349,2.5455,0,0.00031074,3105.2,0.00012754,303.67,8.7158e-05,0.28335,-0.00030445,-2942.1,1.2261
104,16.349,2.3636,0,0.00030517,3049.6,0.000128,333.29,8.3932e-05,2.1575,-0.00029811,-2868.4,1.2259
105,16.349,2.1818,0,0.00029475,2945.5,0.00013059,405.05,7.6195e-05,-3.6395,-0.00028579,-2723.4,1.2255
106,16.349,2,0,0.00028088,2806.8,0.00013565,526.27,6.4953e-05,-4.9512,-0.00026821,-2508.2,1.2251
107,16.349,1.8182,0,0.00026116,2609.8,0.00013748,636.19,5.2568e-05,-1.7945,-0.00024445,-2233.5,1.2246
108,16.349,1.6364,0,0.0002351,2349.4,0.0001314,671.12,4.1593e-05,-3.679,-0.00021635,-1941.8,1.2241
109,16.349,1.4545,0,0.0002057,2055.6,0.00011768,624.3,3.452e-05,-0.52962,-0.00018784,-1671.2,1.2235
110,16.349,1.2727,0,0.0001767,1765.8,0.00010079,532.35,2.9868e-05,-0.55381,-0.00016151,-1438.5,1.2228
111,16.349,1.0909,0,0.00015067,1505.7,8.3919e-05,427.3,2.6989e-05,-0.44469,-0.00013878,-1245.9,1.2221
112,16.349,0.90909,0,0.00012798,1279,6.8218e-05,323.07,2.5186e-05,-0.25972,-0.00011939,-1086.5,1.2213
113,16.349,0.72727,0,0.00010874,1086.6,5.4309e-05,227.53,2.4e-05,-0.2029,-0.00010306,-954.92,1.2205
114,16.349,0.54545,0,9.306e-05,929.96,4.2607e-05,145.7,2.3195e-05,-0.15914,-8.9721e-05,-848.57,1.2197
115,16.349,0.36364,0,8.1303e-05,812.47,3.3609e-05,82.263,2.2636e-05,-0.18205,-7.9592e-05,-768.28,1.2189
116,16.349,0.18182,0,7.4018e-05,739.67,2.7878e-05,41.66,2.2332e-05,-0.011242,-7.3221e-05,-717.96,1.2181
117,16.165,5.8182,0,9.3677e-05,936.13,3.4397e-05,42.226,2.8835e-05,0.43374,-9.2882e-05,-914.1,1.1952
118,16.165,5.6364,0,0.0001003,1002.3,3.9956e-05,83.138,2.8902e-05,0.083464,-9.8623e-05,-958.09,1.196
119,16.165,5.4545,0,0.00011012,1100.5,4.75e-05,136.09,2.9397e-05,0.06787,-0.00010718,-1026.1,1.1968
120,16.165,5.2727,0,0.0001231,1230.1,5.6943e-05,200.17,3.03e-05,-0.017845,-0.00011846,-1117.8,1.1976
121,16.165,5.0909,0,0.00013903,1389.4,6.7973e-05,272.31,3.1719e-05,-0.089178,-0.00013238,-1233.1,1.1983
122,16.165,4.9091,0,0.00015761,1575,8.0067e-05,347.13,3.3845e-05,-0.15931,-0.0001488,-1372.5,1.199
123,16.165,4.7273,0,0.00017827,1781.5,9.2412e-05,416.3,3.6965e-05,-0.30217,-0.0001675,-1536.6,1.1997
124,16.165,4.5455,0,0.00020003,1998.9,0.00010371,467.32,4.1454e-05,-0.44886,-0.00018793,-1724,1.2003
125,16.165,4.3636,0,0.0002212,2210.5,0.00011208,483.77,4.7732e-05,0.26013,-0.00020896,-1928.4,1.2009
126,16.165,4.1818,0,0.00023958,2394.1,0.00011587,453.23,5.5527e-05,-0.16386,-0.00022863,-2135.2,1.2014
127,16.165,4,0,0.00025454,2543.6,0.0001156,387.41,6.415e-05,0.87121,-0.00024572,-2327.4,1.2018
128,16.165,3.8182,0,0.00026651,2663.3,0.00011383,316.15,7.1949e-05,1.4591,-0.00025971,-2490.5,1.2022
129,16.165,3.6364,0,0.00027598,2757.9,0.00011289,265.04,7.7647e-05,0.21035,-0.00027051,-2615.7,1.2025
130,16.165,3.4545,0,0.00028296,2827.7,0.00011308,239.04,8.1318e-05,0.37087,-0.00027813,-2700.4,1.2027
131,16.165,3.2727,0,0.00028726,2870.6,0.00011365,228.58,8.3275e-05,0.3247,-0.00028268,-2749.3,1.2029
132,16.165,3.0909,0,0.00028922,2890.2,0.00011403,225.15,8.4096e-05,0.2662,-0.00028473,-2771,1.2029
133,16.165,2.9091,0,0.00028922,2890.2,0.00011403,225.15,8.4096e-05,0.2662,-0.00028473,-2771,1.2029
134,16.165,2.7273,0,0.00028726,2870.6,0.00011365,228.58,8.3275e-05,0.32469,-0.00028268,-2749.3,1.2029
135,16.165,2.5455,0,0.00028296,2827.7,0.00011308,239.04,8.1318e-05,0.37087,-0.00027813,-2700.4,1.2027
136,16.165,2.3636,0,0.00027598,2757.9,0.00011289,265.04,7.7647e-05,0.21035,-0.00027051,-2615.7,1.2025
137,16.165,2.1818,0,0.00026651,2663.3,0.00011383,316.15,7.1949e-05,1.4591,-0.00025971,-2490.5,1.2022
138,16.165,2,0,0.00025454,2543.6,0.0001156,387.41,6.415e-05,0.87121,-0.00024572,-2327.4,1.2018
139,16.165,1.8182,0,0.00023958,2394.1,0.00011587,453.23,5.5527e-05,-0.16386,-0.00022863,-2135.2,1.2014
140,16.165,1.6364,0,0.0002212,2210.5,0.00011208,483.77,4.7732e-05,0.26013,-0.00020896,-1928.4,1.2009
141,16.165,1.4545,0,0.00020003,1998.9,0.00010371,467.32,4.1454e-05,-0.44886,-0.00018793,-1724,1.2003
142,16.165,1.2727,0,0.00017827,1781.5,9.2412e-05,416.3,3.6965e-05,-0.30216,-0.0001675,-1536.6,1.1997
143,16.165,1.0909,0,0.00015761,1575,8.0067e-05,347.13,3.3845e-05,-0.15931,-0.0001488,-1372.5,1.199
144,16.165,0.90909,0,0.00013903,1389.4,6.7973e-05,272.31,3.1719e-05,-0.089175,-0.00013238,-1233.1,1.1983
145,16.165,0.72727,0,0.0001231,1230.1,5.6943e-05,200.17,3.03e-05,-0.017843,-0.00011846,-1117.8,1.1976
146,16.165,0.54545,0,0.00011012,1100.5,4.75e-05,136.09,2.9397e-05,0.06787,-0.00010718,-1026.1,1.1968
147,16.165,0.36364,0,0.0001003,1002.3,3.9956e-05,83.138,2.8902e-05,0.083464,-9.8623e-05,-958.09,1.196
148,16.165,0.18182,0,9.3677e-05,936.13,3.4397e-05,42.226,2.8835e-05,0.43374,-9.2882e-05,-914.1,1.1952
149,15.982,5.8182,0,0.00011177,1117,4.0323e-05,41.575,3.4837e-05,0.35872,-0.000111,-1095.4,1.1724
150,15.982,5.6364,0,0.000118,1179.2,4.5808e-05,83.075,3.4756e-05,0.030559,-0.00011637,-1135.5,1.1732
151,15.982,5.4545,0,0.0001265,1264.1,5.2379e-05,129.27,3.5181e-05,0.054952,-0.0001238,-1194.5,1.174
152,15.982,5.2727,0,0.00013733,1372.4,6.0102e-05,180.42,3.6085e-05,-0.037231,-0.00013337,-1273.3,1.1747
153,15.982,5.0909,0,0.00015039,1502.9,6.878e-05,234.59,3.7544e-05,-0.10284,-0.00014502,-1371.8,1.1754
154,15.982,4.9091,0,0.00016531,1652,7.7951e-05,287.39,3.9679e-05,-0.1709,-0.00015853,-1489.5,1.1761
155,15.982,4.7273,0,0.00018148,1813.5,8.6899e-05,332.23,4.2653e-05,-0.21549,-0.00017353,-1624.5,1.1767
156,15.982,4.5455,0,0.00019797,1978.3,9.4656e-05,360.63,4.6623e-05,-0.27387,-0.00018935,-1773.3,1.1773
157,15.982,4.3636,0,0.00021361,2134.6,0.00010018,364.35,5.163e-05,-0.42311,-0.00020506,-1929.1,1.1778
158,15.982,4.1818,0,0.00022743,2272.7,0.00010293,341.04,5.7496e-05,-0.29682,-0.0002197,-2083,1.1783
159,15.982,4,0,0.00023905,2388.8,0.00010335,298.12,6.3624e-05,-0.38729,-0.00023258,-2226,1.1787
160,15.982,3.8182,0,0.00024875,2485.8,0.00010278,251.22,6.9299e-05,-0.33287,-0.00024352,-2350.7,1.179
161,15.982,3.6364,0,0.0002568,2566.2,0.00010241,214.16,7.3923e-05,0.11489,-0.00025248,-2452.4,1.1793
162,15.982,3.4545,0,0.00026307,2628.9,0.00010262,191.43,7.7178e-05,0.23979,-0.00025928,-2527.8,1.1795
163,15.982,3.2727,0,0.00026732,2671.4,0.00010311,180.24,7.9159e-05,0.24764,-0.0002638,-2576.6,1.1796
164,15.982,3.0909,0,0.00026945,2692.7,0.00010347,176.01,8.008e-05,0.25994,-0.00026602,-2600.2,1.1797
165,15.982,2.9091,0,0.00026945,2692.7,0.00010347,176.01,8.008e-05,0.25994,-0.00026602,-2600.2,1.1797
166,15.982,2.7273,0,0.00026732,2671.4,0.00010311,180.24,7.9159e-05,0.24764,-0.0002638,-2576.6,1.1796
167,15.982,2.5455,0,0.00026307,2628.9,0.00010262,191.43,7.7178e-05,0.23979,-0.00025928,-2527.8,1.1795
168,15.982,2.3636,0,0.0002568,2566.2,0.00010241,214.16,7.3923e-05,0.11489,-0.00025248,-2452.4,1.1793
169,15.982,2.1818,0,0.00024875,2485.8,0.00010278,251.22,6.9299e-05,-0.33287,-0.00024352,-2350.7,1.179
170,15.982,2,0,0.00023905,2388.8,0.00010335,298.12,6.3624e-05,-0.38729,-0.00023258,-2226,1.1787
171,15.982,1.8182,0,0.00022743,2272.7,0.00010293,341.04,5.7496e-05,-0.29682,-0.0002197,-2083,1.1783
172,15.982,1.6364,0,0.00021361,2134.6,0.00010018,364.35,5.163e-05,-0.42311,-0.00020506,-1929.1,1.1778
173,15.982,1.4545,0,0.00019797,1978.3,9.4656e-05,360.63,4.6623e-05,-0.27387,-0.00018935,-1773.3,1.1773
174,15.982,1.2727,0,0.00018148,1813.5,8.6899e-05,332.23,4.2653e-05,-0.21549,-0.00017353,-1624.5,1.1767
175,15.982,1.0909,0,0.00016531,1652,7.7951e-05,287.39,3.9679e-05,-0.1709,-0.00015853,-1489.5,1.1761
176,15.982,0.90909,0,0.00015039,1502.9,6.878e-05,234.59,3.7544e-05,-0.10284,-0.00014502,-1371.8,1.1754
177,15.982,0.72727,0,0.00013733,1372.4,6.0102e-05,180.42,3.6085e-05,-0.037231,-0.00013337,-1273.3,1.1747
178,15.982,0.54545,0,0.0001265,1264.1,5.2379e-05,129.27,3.5181e-05,0.054953,-0.0001238,-1194.5,1.174
179,15.982,0.36364,0,0.000118,1179.2,4.5808e-05,83.075,3.4756e-05,0.030559,-0.00011637,-1135.5,1.1732
180,15.982,0.18182,0,0.00011177,1117,4.0323e-05,41.575,3.4837e-05,0.35872,-0.000111,-1095.4,1.1724
181,15.798,5.8182,0,0.00012818,1281,4.5618e-05,40.019,4.0322e-05,0.2284,-0.00012745,-1260.4,1.1497
182,15.798,5.6364,0,0.000134,1339.1,5.0933e-05,81.036,4.0145e-05,-0.01461,-0.00013244,-1296.8,1.1505
183,15.798,5.4545,0,0.00014141,1413.2,5.6737e-05,122.12,4.0492e-05,0.059385,-0.00013894,-1348.1,1.1512
184,15.798,5.2727,0,0.0001505,1504,6.3133e-05,163.82,4.1328e-05,-0.0164,-0.00014704,-1415.4,1.152
185,15.798,5.0909,0,0.00016115,1610.4,6.9982e-05,204.92,4.2702e-05,-0.059659,-0.00015669,-1498.2,1.1526
186,15.798,4.9091,0,0.00017305,1729.3,7.6931e-05,242.27,4.4674e-05,-0.10258,-0.00016765,-1595.4,1.1533
187,15.798,4.7273,0,0.00018565,1855.2,8.345e-05,271.36,4.7316e-05,-0.13675,-0.00017953,-1704.6,1.1539
188,15.798,4.5455,0,0.00019825,1981.2,8.8906e-05,287.15,5.0669e-05,-0.1501,-0.0001918,-1822,1.1544
189,15.798,4.3636,0,0.00021013,2099.9,9.2755e-05,285.9,5.4686e-05,-0.1376,-0.0002038,-1942.3,1.1549
190,15.798,4.1818,0,0.00022072,2205.7,9.4803e-05,267.62,5.9164e-05,-0.15385,-0.00021494,-2059.7,1.1553
191,15.798,4,0,0.00022983,2296.7,9.5393e-05,237.56,6.3762e-05,-0.096566,-0.00022486,-2168.7,1.1557
192,15.798,3.8182,0,0.00023755,2373.9,9.5253e-05,204.39,6.8047e-05,-0.019237,-0.00023341,-2265.1,1.156
193,15.798,3.6364,0,0.000244,2438.3,9.507e-05,176.01,7.1646e-05,0.019504,-0.00024053,-2345.6,1.1563
194,15.798,3.4545,0,0.00024912,2489.5,9.5144e-05,156.31,7.4355e-05,0.10539,-0.00024609,-2407.6,1.1565
195,15.798,3.2727,0,0.0002527,2525.2,9.5395e-05,145.02,7.6119e-05,0.17995,-0.00024991,-2449.5,1.1566
196,15.798,3.0909,0,0.00025453,2543.6,9.5599e-05,140.13,7.6977e-05,0.2076,-0.00025186,-2470.5,1.1567
197,15.798,2.9091,0,0.00025453,2543.6,9.5599e-05,140.13,7.6977e-05,0.2076,-0.00025186,-2470.5,1.1567
198,15.798,2.7273,0,0.0002527,2525.2,9.5395e-05,145.02,7.6119e-05,0.17995,-0.00024991,-2449.5,1.1566
199,15.798,2.5455,0,0.00024912,2489.5,9.5144e-05,156.31,7.4355e-05,0.10539,-0.00024609,-2407.6,1.1565
200,15.798,2.3636,0,0.000244,2438.3,9.507e-05,176.01,7.1646e-05,0.019505,-0.00024053,-2345.6,1.1563
201,15.798,2.1818,0,0.00023755,2373.9,9.5253e-05,204.39,6.8047e-05,-0.019238,-0.00023341,-2265.1,1.156
202,15.798,2,0,0.00022983,2296.7,9.5393e-05,237.56,6.3762e-05,-0.096564,-0.00022486,-2168.7,1.1557
203,15.798,1.8182,0,0.00022072,2205.7,9.4803e-05,267.62,5.9164e-05,-0.15385,-0.00021494,-2059.7,1.1553
204,15.798,1.6364,0,0.00021013,2099.9,9.2755e-05,285.9,5.4686e-05,-0.1376,-0.0002038,-1942.3,1.1549
205,15.798,1.4545,0,0.00019825,1981.2,8.8906e-05,287.15,5.0669e-05,-0.1501,-0.0001918,-1822,1.1544
206,15.798,1.2727,0,0.00018565,1855.2,8.345e-05,271.36,4.7316e-05,-0.13675,-0.00017953,-1704.6,1.1539
207,15.798,1.0909,0,0.00017305,1729.3,7.6931e-05,242.27,4.4674e-05,-0.10258,-0.00016765,-1595.4,1.1533
208,15.798,0.90909,0,0.00016115,1610.4,6.9982e-05,204.92,4.2702e-05,-0.059656,-0.00015669,-1498.2,1.1526
209,15.798,0.72727,0,0.0001505,1504,6.3133e-05,163.82,4.1328e-05,-0.016396,-0.00014704,-1415.4,1.152
210,15.798,0.54545,0,0.00014141,1413.2,5.6737e-05,122.12,4.0492e-05,0.059386,-0.00013894,-1348.1,1.1512
211,15.798,0.36364,0,0.000134,1339.1,5.0933e-05,81.036,4.0145e-05,-0.014611,-0.00013244,-1296.8,1.1505
212,15.798,0.18182,0,0.00012818,1281,4.5618e-05,40.019,4.0322e-05,0.2284,-0.00012745,-1260.4,1.1497
213,15.614,5.8182,0,0.00014292,1428.2,5.0312e-05,37.877,4.5283e-05,0.091018,-0.00014224,-1408.9,1.127
214,15.614,5.6364,0,0.00014826,1481.6,5.5334e-05,77.242,4.5045e-05,-0.061791,-0.0001468,-1441.5,1.1278
215,15.614,5.4545,0,0.00015471,1546,6.0472e-05,113.98,4.5309e-05,0.048619,-0.00015246,-1485.9,1.1286
216,15.614,5.2727,0,0.00016233,1622.1,6.5816e-05,148.6,4.6037e-05,-0.007361,-0.00015929,-1542.7,1.1293
217,15.614,5.0909,0,0.000171,1708.8,7.1268e-05,180.38,4.7257e-05,-0.034531,-0.00016722,-1611.5,1.1299
218,15.614,4.9091,0,0.00018046,1803.4,7.6576e-05,207.23,4.8987e-05,-0.063228,-0.00017604,-1690.8,1.1306
219,15.614,4.7273,0,0.0001903,1901.7,8.1382e-05,226.36,5.1245e-05,-0.084867,-0.00018544,-1778.4,1.1311
220,15.614,4.5455,0,0.00020002,1998.8,8.5302e-05,234.99,5.4013e-05,-0.10471,-0.00019498,-1870.9,1.1317
221,15.614,4.3636,0,0.00020913,2089.9,8.8049e-05,231.54,5.7216e-05,-0.12505,-0.00020423,-1964.5,1.1321
222,15.614,4.1818,0,0.00021732,2171.7,8.9571e-05,216.84,6.0694e-05,-0.13492,-0.00021282,-2055.2,1.1325
223,15.614,4,0,0.00022444,2242.8,9.0106e-05,194.41,6.4213e-05,-0.13832,-0.0002205,-2139.3,1.1329
224,15.614,3.8182,0,0.00023051,2303.5,9.0086e-05,169.54,6.7507e-05,-0.10558,-0.00022716,-2214.1,1.1332
225,15.614,3.6364,0,0.00023558,2354.2,8.9928e-05,147.19,7.0335e-05,-0.026647,-0.00023273,-2277.2,1.1334
226,15.614,3.4545,0,0.0002396,2394.3,8.9863e-05,130.3,7.2529e-05,0.055544,-0.00023711,-2326.5,1.1336
227,15.614,3.2727,0,0.00024241,2422.4,8.991e-05,119.61,7.4006e-05,0.11879,-0.00024015,-2360.3,1.1337
228,15.614,3.0909,0,0.00024386,2436.9,8.9974e-05,114.59,7.4743e-05,0.15356,-0.0002417,-2377.5,1.1338
229,15.614,2.9091,0,0.00024386,2436.9,8.9974e-05,114.59,7.4743e-05,0.15355,-0.0002417,-2377.5,1.1338
230,15.614,2.7273,0,0.00024241,2422.4,8.991e-05,119.61,7.4006e-05,0.11879,-0.00024015,-2360.3,1.1337
231,15.614,2.5455,0,0.0002396,2394.3,8.9863e-05,130.3,7.2529e-05,0.055543,-0.00023711,-2326.5,1.1336
232,15.614,2.3636,0,0.00023558,2354.2,8.9928e-05,147.19,7.0335e-05,-0.026647,-0.00023273,-2277.2,1.1334
233,15.614,2.1818,0,0.00023051,2303.5,9.0086e-05,169.54,6.7507e-05,-0.10558,-0.00022716,-2214.1,1.1332
234,15.614,2,0,0.00022444,2242.8,9.0106e-05,194.41,6.4213e-05,-0.13832,-0.0002205,-2139.3,1.1329
235,15.614,1.8182,0,0.00021732,2171.7,8.9571e-05,216.84,6.0694e-05,-0.13492,-0.00021282,-2055.2,1.1325
236,15.614,1.6364,0,0.00020913,2089.9,8.8049e-05,231.54,5.7216e-05,-0.12505,-0.00020423,-1964.5,1.1321
237,15.614,1.4545,0,0.00020002,1998.8,8.5302e-05,234.99,5.4013e-05,-0.10471,-0.00019498,-1870.9,1.1317
238,15.614,1.2727,0,0.0001903,1901.7,8.1382e-05,226.36,5.1245e-05,-0.084867,-0.00018544,-1778.4,1.1311
239,15.614,1.0909,0,0.00018046,1803.4,7.6576e-05,207.23,4.8987e-05,-0.063228,-0.00017604,-1690.8,1.1306
240,15.614,0.90909,0,0.000171,1708.8,7.1268e-05,180.38,4.7257e-05,-0.034529,-0.00016722,-1611.5,1.1299
241,15.614,0.72727,0,0.00016233,1622.1,6.5816e-05,148.6,4.6037e-05,-0.0073587,-0.00015929,-1542.7,1.1293
242,15.614,0.54545,0,0.00015471,1546,6.0472e-05,113.98,4.5309e-05,0.04862,-0.00015246,-1485.9,1.1286
243,15.614,0.36364,0,0.00014826,1481.6,5.5334e-05,77.242,4.5045e-05,-0.061792,-0.0001468,-1441.5,1.1278
244,15.614,0.18182,0,0.00014292,1428.2,5.0312e-05,37.877,4.5283e-05,0.091018,-0.00014224,-1408.9,1.127
245,15.43,5.8182,0,0.00015609,1559.9,5.4464e-05,35.455,4.9744e-05,-0.010648,-0.00015546,-1541.8,1.1045
246,15.43,5.6364,0,0.0001609,1607.9,5.9099e-05,72.267,4.9469e-05,-0.091251,-0.00015955,-1570.6,1.1052
247,15.43,5.4545,0,0.00016647,1663.6,6.3632e-05,105.07,4.9653e-05,0.040937,-0.00016444,-1608.5,1.106
248,15.43,5.2727,0,0.00017284,1727.2,6.8127e-05,134.26,5.0259e-05,0.0020788,-0.00017017,-1656.2,1.1067
249,15.43,5.0909,0,0.00017991,1797.8,7.2512e-05,159.39,5.1297e-05,-0.012678,-0.00017666,-1712.8,1.1073
250,15.43,4.9091,0,0.00018744,1873.1,7.6617e-05,179.19,5.2764e-05,-0.03273,-0.00018375,-1777.1,1.108
251,15.43,4.7273,0,0.00019515,1950.1,8.0214e-05,192.06,5.4646e-05,-0.049055,-0.00019117,-1847,1.1085
252,15.43,4.5455,0,0.00020268,2025.4,8.3078e-05,196.6,5.6904e-05,-0.064642,-0.00019862,-1920,1.109
253,15.43,4.3636,0,0.00020973,2095.9,8.5065e-05,192.3,5.946e-05,-0.079276,-0.0002058,-1993.1,1.1095
254,15.43,4.1818,0,0.00021608,2159.3,8.6177e-05,180.16,6.2188e-05,-0.091401,-0.00021245,-2063.6,1.1099
255,15.43,4,0,0.00022162,2214.7,8.6584e-05,162.66,6.4922e-05,-0.090284,-0.00021841,-2128.9,1.1102
256,15.43,3.8182,0,0.00022636,2262,8.6559e-05,143.25,6.7484e-05,-0.070118,-0.00022358,-2187,1.1105
257,15.43,3.6364,0,0.00023029,2301.3,8.6374e-05,125.22,6.9705e-05,-0.029791,-0.0002279,-2236.1,1.1107
258,15.43,3.4545,0,0.00023337,2332.1,8.6208e-05,110.86,7.1457e-05,0.026213,-0.00023128,-2274.7,1.1109
259,15.43,3.2727,0,0.00023551,2353.5,8.6119e-05,101.22,7.2659e-05,0.078947,-0.00023363,-2301.2,1.111
260,15.43,3.0909,0,0.00023662,2364.6,8.609e-05,96.455,7.3267e-05,0.10992,-0.00023483,-2314.8,1.1111
261,15.43,2.9091,0,0.00023662,2364.6,8.609e-05,96.455,7.3267e-05,0.10992,-0.00023483,-2314.8,1.1111
262,15.43,2.7273,0,0.00023551,2353.5,8.6119e-05,101.22,7.2659e-05,0.078946,-0.00023363,-2301.2,1.111
263,15.43,2.5455,0,0.00023337,2332.1,8.6208e-05,110.86,7.1457e-05,0.026212,-0.00023128,-2274.7,1.1109
264,15.43,2.3636,0,0.00023029,2301.3,8.6374e-05,125.22,6.9705e-05,-0.029789,-0.0002279,-2236.1,1.1107
265,15.43,2.1818,0,0.00022636,2262,8.6559e-05,143.25,6.7484e-05,-0.070119,-0.00022358,-2187,1.1105
266,15.43,2,0,0.00022162,2214.7,8.6584e-05,162.66,6.4922e-05,-0.090284,-0.00021841,-2128.9,1.1102
267,15.43,1.8182,0,0.00021608,2159.3,8.6177e-05,180.16,6.2188e-05,-0.0914,-0.00021245,-2063.6,1.1099
268,15.43,1.6364,0,0.00020973,2095.9,8.5065e-05,192.3,5.946e-05,-0.079277,-0.0002058,-1993.1,1.1095
269,15.43,1.4545,0,0.00020268,2025.4,8.3078e-05,196.6,5.6904e-05,-0.06464,-0.00019862,-1920,1.109
270,15.43,1.2727,0,0.00019515,1950.1,8.0214e-05,192.06,5.4646e-05,-0.049054,-0.00019117,-1847,1.1085
271,15.43,1.0909,0,0.00018744,1873.1,7.6617e-05,179.19,5.2764e-05,-0.032728,-0.00018375,-1777.1,1.108
272,15.43,0.90909,0,0.00017991,1797.8,7.2512e-05,159.39,5.1297e-05,-0.012677,-0.00017666,-1712.8,1.1073
273,15.43,0.72727,0,0.00017284,1727.2,6.8127e-05,134.26,5.0259e-05,0.0020816,-0.00017017,-1656.2,1.1067
274,15.43,0.54545,0,0.00016647,1663.6,6.3632e-05,105.07,4.9653e-05,0.040938,-0.00016444,-1608.5,1.106
275,15.43,0.36364,0,0.0001609,1607.9,5.9099e-05,72.267,4.9469e-05,-0.091251,-0.00015955,-1570.6,1.1052
276,15.43,0.18182,0,0.00015609,1559.9,5.4464e-05,35.456,4.9744e-05,-0.010649,-0.00015546,-1541.8,1.1045
277,15.247,5.8182,0,0.00016786,1677.4,5.8145e-05,32.974,5.3746e-05,-0.075371,-0.00016728,-1660.8,1.082
278,15.247,5.6364,0,0.00017211,1719.9,6.2339e-05,66.666,5.3452e-05,-0.10728,-0.00017088,-1685.6,1.0828
279,15.247,5.4545,0,0.00017689,1767.7,6.6317e-05,95.851,5.3564e-05,0.033882,-0.00017506,-1717.8,1.0835
280,15.247,5.2727,0,0.00018221,1820.8,7.0116e-05,120.73,5.4049e-05,0.0081361,-0.00017985,-1757.4,1.0842
281,15.247,5.0909,0,0.00018796,1878.3,7.3681e-05,141.06,5.4907e-05,0.0017222,-0.00018516,-1803.8,1.0849
282,15.247,4.9091,0,0.00019397,1938.4,7.6901e-05,156.13,5.612e-05,-0.012451,-0.00019084,-1855.6,1.0855
283,15.247,4.7273,0,0.00020003,1998.9,7.9636e-05,165.07,5.7663e-05,-0.025584,-0.00019671,-1911.3,1.086
284,15.247,4.5455,0,0.0002059,2057.6,8.176e-05,167.29,5.9489e-05,-0.039687,-0.00020255,-1968.9,1.0865
285,15.247,4.3636,0,0.00021137,2112.3,8.3206e-05,162.83,6.1527e-05,-0.053867,-0.00020813,-2026.2,1.087
286,15.247,4.1818,0,0.0002163,2161.5,8.4003e-05,152.65,6.3678e-05,-0.065063,-0.0002133,-2081.1,1.0873
287,15.247,4,0,0.0002206,2204.5,8.4274e-05,138.58,6.5821e-05,-0.068021,-0.00021792,-2132,1.0877
288,15.247,3.8182,0,0.00022427,2241.1,8.4206e-05,123.01,6.7826e-05,-0.055903,-0.00022192,-2177.1,1.088
289,15.247,3.6364,0,0.00022728,2271.3,8.3988e-05,108.27,6.9575e-05,-0.026349,-0.00022525,-2215.2,1.0882
290,15.247,3.4545,0,0.00022963,2294.7,8.376e-05,96.146,7.0966e-05,0.014222,-0.00022784,-2245.1,1.0883
291,15.247,3.2727,0,0.00023124,2310.8,8.3595e-05,87.709,7.1929e-05,0.053705,-0.00022963,-2265.7,1.0885
292,15.247,3.0909,0,0.00023207,2319.1,8.3513e-05,83.425,7.242e-05,0.078151,-0.00023054,-2276.2,1.0885
293,15.247,2.9091,0,0.00023207,2319.1,8.3513e-05,83.425,7.242e-05,0.078152,-0.00023054,-2276.2,1.0885
294,15.247,2.7273,0,0.00023124,2310.8,8.3595e-05,87.709,7.1929e-05,0.053704,-0.00022963,-2265.7,1.0885
295,15.247,2.5455,0,0.00022963,2294.7,8.376e-05,96.146,7.0966e-05,0.014221,-0.00022784,-2245.1,1.0883
296,15.247,2.3636,0,0.00022728,2271.3,8.3988e-05,108.27,6.9575e-05,-0.026349,-0.00022525,-2215.2,1.0882
297,15.247,2.1818,0,0.00022427,2241.1,8.4206e-05,123.01,6.7826e-05,-0.055902,-0.00022192,-2177.1,1.088
298,15.247,2,0,0.0002206,2204.5,8.4274e-05,138.58,6.5821e-05,-0.068022,-0.00021792,-2132,1.0877
299,15.247,1.8182,0,0.0002163,2161.5,8.4003e-05,152.65,6.3678e-05,-0.065062,-0.0002133,-2081.1,1.0873
300,15.247,1.6364,0,0.00021137,2112.3,8.3206e-05,162.83,6.1527e-05,-0.053867,-0.00020813,-2026.2,1.087
301,15.247,1.4545,0,0.0002059,2057.6,8.176e-05,167.29,5.9489e-05,-0.039686,-0.00020255,-1968.9,1.0865
302,15.247,1.2727,0,0.00020003,1998.9,7.9636e-05,165.07,5.7663e-05,-0.025583,-0.00019671,-1911.3,1.086
303,15.247,1.0909,0,0.00019397,1938.4,7.6901e-05,156.13,5.612e-05,-0.012451,-0.00019084,-1855.6,1.0855
304,15.247,0.90909,0,0.00018796,1878.3,7.3681e-05,141.06,5.4907e-05,0.0017228,-0.00018516,-1803.7,1.0849
305,15.247,0.72727,0,0.00018221,1820.8,7.0116e-05,120.73,5.4049e-05,0.0081373,-0.00017985,-1757.4,1.0842
306,15.247,0.54545,0,0.00017689,1767.7,6.6317e-05,95.851,5.3564e-05,0.033884,-0.00017506,-1717.8,1.0835
307,15.247,0.36364,0,0.00017211,1719.9,6.2339e-05,66.666,5.3452e-05,-0.10728,-0.00017088,-1685.6,1.0828
308,15.247,0.18182,0,0.00016786,1677.4,5.8145e-05,32.974,5.3746e-05,-0.075372,-0.00016728,-1660.8,1.082
309,15.063,5.8182,0,0.0001784,1782.8,6.1426e-05,30.579,5.7342e-05,-0.10871,-0.00017786,-1767.3,1.0597
310,15.063,5.6364,0,0.0001821,1819.7,6.5159e-05,60.881,5.7041e-05,-0.11289,-0.00018099,-1788.6,1.0605
311,15.063,5.4545,0,0.00018617,1860.4,6.8632e-05,86.722,5.7094e-05,0.027986,-0.00018455,-1815.6,1.0612
312,15.063,5.2727,0,0.0001906,1904.7,7.1853e-05,108.1,5.7467e-05,0.011867,-0.00018853,-1848.3,1.0619
313,15.063,5.0909,0,0.00019528,1951.5,7.4781e-05,124.91,5.8158e-05,0.010975,-0.00019286,-1886,1.0625
314,15.063,4.9091,0,0.0002001,1999.6,7.7342e-05,136.74,5.9143e-05,0.0010016,-0.00019742,-1927.7,1.0631
315,15.063,4.7273,0,0.00020488,2047.4,7.9454e-05,143.21,6.0392e-05,-0.009293,-0.00020207,-1972,1.0637
316,15.063,4.5455,0,0.00020947,2093.3,8.1051e-05,144.18,6.186e-05,-0.021046,-0.00020665,-2017.5,1.0641
317,15.063,4.3636,0,0.00021373,2135.8,8.2111e-05,139.93,6.3483e-05,-0.032743,-0.00021101,-2062.4,1.0646
318,15.063,4.1818,0,0.00021755,2174,8.267e-05,131.34,6.5184e-05,-0.04202,-0.00021502,-2105.4,1.065
319,15.063,4,0,0.00022088,2207.3,8.2826e-05,119.84,6.6871e-05,-0.044842,-0.0002186,-2145,1.0653
320,15.063,3.8182,0,0.0002237,2235.5,8.2714e-05,107.15,6.8448e-05,-0.037423,-0.00022169,-2180,1.0656
321,15.063,3.6364,0,0.00022601,2258.5,8.2472e-05,95.002,6.9826e-05,-0.018264,-0.00022424,-2209.5,1.0658
322,15.063,3.4545,0,0.00022778,2276.2,8.2215e-05,84.823,7.0927e-05,0.0096816,-0.00022622,-2232.6,1.0659
323,15.063,3.2727,0,0.00022899,2288.3,8.2015e-05,77.591,7.1693e-05,0.038046,-0.00022757,-2248.5,1.066
324,15.063,3.0909,0,0.0002296,2294.4,8.1908e-05,73.86,7.2085e-05,0.056064,-0.00022826,-2256.6,1.0661
325,15.063,2.9091,0,0.0002296,2294.4,8.1908e-05,73.86,7.2085e-05,0.056065,-0.00022826,-2256.6,1.0661
326,15.063,2.7273,0,0.00022899,2288.3,8.2015e-05,77.591,7.1693e-05,0.038046,-0.00022757,-2248.5,1.066
327,15.063,2.5455,0,0.00022778,2276.2,8.2215e-05,84.823,7.0927e-05,0.0096828,-0.00022622,-2232.6,1.0659
328,15.063,2.3636,0,0.00022601,2258.5,8.2472e-05,95.002,6.9826e-05,-0.018264,-0.00022424,-2209.5,1.0658
329,15.063,2.1818,0,0.0002237,2235.5,8.2714e-05,107.15,6.8448e-05,-0.037423,-0.00022169,-2180,1.0656
330,15.063,2,0,0.00022088,2207.3,8.2826e-05,119.84,6.6871e-05,-0.044842,-0.0002186,-2145,1.0653
331,15.063,1.8182,0,0.00021755,2174,8.267e-05,131.34,6.5184e-05,-0.042019,-0.00021502,-2105.4,1.065
332,15.063,1.6364,0,0.00021373,2135.8,8.2111e-05,139.93,6.3483e-05,-0.032741,-0.00021101,-2062.4,1.0646
333,15.063,1.4545,0,0.00020947,2093.3,8.1051e-05,144.18,6.186e-05,-0.021046,-0.00020665,-2017.5,1.0641
334,15.063,1.2727,0,0.00020488,2047.4,7.9454e-05,143.21,6.0392e-05,-0.0092925,-0.00020207,-1972,1.0637
335,15.063,1.0909,0,0.0002001,1999.6,7.7342e-05,136.74,5.9143e-05,0.0010021,-0.00019742,-1927.7,1.0631
336,15.063,0.90909,0,0.00019528,1951.5,7.4781e-05,124.91,5.8158e-05,0.010978,-0.00019286,-1886,1.0625
337,15.063,0.72727,0,0.0001906,1904.7,7.1853e-05,108.1,5.7467e-05,0.011868,-0.00018853,-1848.3,1.0619
338,15.063,0.54545,0,0.00018617,1860.4,6.8632e-05,86.722,5.7094e-05,0.027986,-0.00018455,-1815.6,1.0612
339,15.063,0.36364,0,0.0001821,1819.7,6.5159e-05,60.881,5.7041e-05,-0.11289,-0.00018099,-1788.6,1.0605
340,15.063,0.18182,0,0.0001784,1782.8,6.1426e-05,30.579,5.7342e-05,-0.10871,-0.00017786,-1767.3,1.0597
341,14.879,5.8182,0,0.00018789,1877.6,6.4374e-05,28.353,6.0584e-05,-0.11964,-0.00018739,-1863.3,1.0375
342,14.879,5.6364,0,0.00019107,1909.4,6.7652e-05,55.224,6.0288e-05,-0.11173,-0.00019007,-1881.2,1.0382
343,14.879,5.4545,0,0.00019452,1943.9,7.0669e-05,77.991,6.0292e-05,0.022828,-0.00019308,-1903.7,1.039
344,14.879,5.2727,0,0.0001982,1980.6,7.3408e-05,96.47,6.057e-05,0.013579,-0.00019638,-1930.6,1.0397
345,14.879,5.0909,0,0.00020202,2018.8,7.5832e-05,110.6,6.1115e-05,0.016287,-0.00019991,-1961.2,1.0403
346,14.879,4.9091,0,0.00020588,2057.4,7.7896e-05,120.18,6.1903e-05,0.0094993,-0.00020358,-1994.7,1.0409
347,14.879,4.7273,0,0.00020967,2095.3,7.9552e-05,125.09,6.2903e-05,0.0016009,-0.00020726,-2029.9,1.0414
348,14.879,4.5455,0,0.00021327,2131.3,8.077e-05,125.43,6.4075e-05,-0.0079435,-0.00021086,-2065.8,1.0419
349,14.879,4.3636,0,0.00021659,2164.4,8.1552e-05,121.59,6.5366e-05,-0.017498,-0.00021427,-2101.1,1.0423
350,14.879,4.1818,0,0.00021956,2194,8.1937e-05,114.37,6.6712e-05,-0.0251,-0.00021739,-2134.6,1.0427
351,14.879,4,0,0.00022213,2219.7,8.2006e-05,104.88,6.8043e-05,-0.027972,-0.00022016,-2165.5,1.043
352,14.879,3.8182,0,0.00022429,2241.4,8.1861e-05,94.46,6.9286e-05,-0.023459,-0.00022254,-2192.7,1.0433
353,14.879,3.6364,0,0.00022604,2258.9,8.1611e-05,84.424,7.0373e-05,-0.010548,-0.00022449,-2215.5,1.0435
354,14.879,3.4545,0,0.00022738,2272.2,8.1347e-05,75.923,7.1243e-05,0.0086075,-0.00022599,-2233.3,1.0437
355,14.879,3.2727,0,0.00022828,2281.2,8.1138e-05,69.81,7.185e-05,0.028322,-0.00022701,-2245.5,1.0438
356,14.879,3.0909,0,0.00022874,2285.8,8.1024e-05,66.627,7.2162e-05,0.041,-0.00022753,-2251.7,1.0439
357,14.879,2.9091,0,0.00022874,2285.8,8.1024e-05,66.627,7.2162e-05,0.040999,-0.00022753,-2251.7,1.0439
358,14.879,2.7273,0,0.00022828,2281.2,8.1138e-05,69.81,7.185e-05,0.028323,-0.00022701,-2245.5,1.0438
359,14.879,2.5455,0,0.00022738,2272.2,8.1347e-05,75.923,7.1243e-05,0.0086073,-0.00022599,-2233.3,1.0437
360,14.879,2.3636,0,0.00022604,2258.9,8.1611e-05,84.424,7.0373e-05,-0.010548,-0.00022449,-2215.5,1.0435
361,14.879,2.1818,0,0.00022429,2241.4,8.1861e-05,94.46,6.9286e-05,-0.023459,-0.00022254,-2192.7,1.0433
362,14.879,2,0,0.00022213,2219.7,8.2006e-05,104.88,6.8043e-05,-0.027972,-0.00022016,-2165.5,1.043
363,14.879,1.8182,0,0.00021956,2194,8.1937e-05,114.37,6.6712e-05,-0.0251,-0.00021739,-2134.6,1.0427
364,14.879,1.6364,0,0.00021659,2164.4,8.1552e-05,121.59,6.5366e-05,-0.017497,-0.00021427,-2101.1,1.0423
365,14.879,1.4545,0,0.00021327,2131.3,8.077e-05,125.43,6.4075e-05,-0.0079427,-0.00021086,-2065.8,1.0419
366,14.879,1.2727,0,0.00020967,2095.3,7.9552e-05,125.09,6.2903e-05,0.0016014,-0.00020726,-2029.9,1.0414
367,14.879,1.0909,0,0.00020588,2057.4,7.7896e-05,120.18,6.1903e-05,0.0095005,-0.00020358,-1994.7,1.0409
368,14.879,0.90909,0,0.00020202,2018.8,7.5832e-05,110.6,6.1115e-05,0.016289,-0.00019991,-1961.2,1.0403
369,14.879,0.72727,0,0.0001982,1980.6,7.3408e-05,96.47,6.057e-05,0.01358,-0.00019638,-1930.6,1.0397
370,14.879,0.54545,0,0.00019452,1943.9,7.0669e-05,77.991,6.0292e-05,0.022828,-0.00019308,-1903.7,1.039
371,14.879,0.36364,0,0.00019107,1909.4,6.7652e-05,55.224,6.0288e-05,-0.11173,-0.00019007,-1881.2,1.0382
372,14.879,0.18182,0,0.00018789,1877.6,6.4374e-05,28.353,6.0584e-05,-0.11964,-0.00018739,-1863.3,1.0375
373,14.696,5.8182,0,0.0001965,1963.7,6.7048e-05,26.334,6.3528e-05,-0.11625,-0.00019604,-1950.4,1.0154
374,14.696,5.6364,0,0.0001992,1990.7,6.9895e-05,49.887,6.3241e-05,-0.1064,-0.00019831,-1965.3,1.0162
375,14.696,5.4545,0,0.00020212,2019.8,7.2504e-05,69.853,6.321e-05,0.018341,-0.00020084,-1983.9,1.0169
376,14.696,5.2727,0,0.00020517,2050.3,7.4836e-05,85.878,6.3408e-05,0.013917,-0.00020357,-2006,1.0176
377,14.696,5.0909,0,0.00020829,2081.4,7.6858e-05,97.914,6.3829e-05,0.018908,-0.00020645,-2030.7,1.0182
378,14.696,4.9091,0,0.00021139,2112.5,7.854e-05,105.88,6.445e-05,0.014595,-0.00020939,-2057.5,1.0188
379,14.696,4.7273,0,0.0002144,2142.6,7.9858e-05,109.8,6.5245e-05,0.0087739,-0.00021232,-2085.5,1.0193
380,14.696,4.5455,0,0.00021724,2170.9,8.0801e-05,109.89,6.6176e-05,0.0012769,-0.00021516,-2113.8,1.0198
381,14.696,4.3636,0,0.00021983,2196.7,8.1383e-05,106.56,6.7199e-05,-0.006301,-0.00021782,-2141.5,1.0203
382,14.696,4.1818,0,0.00022212,2219.7,8.1645e-05,100.52,6.8264e-05,-0.012397,-0.00022024,-2167.7,1.0206
383,14.696,4,0,0.00022411,2239.5,8.1653e-05,92.691,6.9315e-05,-0.015016,-0.00022239,-2191.7,1.021
384,14.696,3.8182,0,0.00022576,2256.1,8.1491e-05,84.106,7.0296e-05,-0.012423,-0.00022421,-2212.8,1.0212
385,14.696,3.6364,0,0.00022709,2269.4,8.1244e-05,75.816,7.1153e-05,-0.0039907,-0.00022571,-2230.5,1.0214
386,14.696,3.4545,0,0.00022809,2279.4,8.0989e-05,68.751,7.184e-05,0.008837,-0.00022685,-2244.2,1.0216
387,14.696,3.2727,0,0.00022876,2286.1,8.0787e-05,63.637,7.232e-05,0.022177,-0.00022762,-2253.6,1.0217
388,14.696,3.0909,0,0.0002291,2289.4,8.0676e-05,60.959,7.2567e-05,0.030794,-0.000228,-2258.3,1.0218
389,14.696,2.9091,0,0.0002291,2289.4,8.0676e-05,60.959,7.2567e-05,0.030794,-0.000228,-2258.3,1.0218
390,14.696,2.7273,0,0.00022876,2286.1,8.0787e-05,63.637,7.232e-05,0.022178,-0.00022762,-2253.6,1.0217
391,14.696,2.5455,0,0.00022809,2279.4,8.0989e-05,68.751,7.184e-05,0.0088374,-0.00022685,-2244.2,1.0216
392,14.696,2.3636,0,0.00022709,2269.4,8.1244e-05,75.816,7.1153e-05,-0.0039919,-0.00022571,-2230.5,1.0214
393,14.696,2.1818,0,0.00022576,2256.1,8.1491e-05,84.106,7.0296e-05,-0.012423,-0.00022421,-2212.8,1.0212
394,14.696,2,0,0.00022411,2239.5,8.1653e-05,92.691,6.9315e-05,-0.015016,-0.00022239,-2191.7,1.021
395,14.696,1.8182,0,0.00022212,2219.7,8.1645e-05,100.52,6.8264e-05,-0.012395,-0.00022024,-2167.7,1.0206
396,14.696,1.6364,0,0.00021983,2196.7,8.1383e-05,106.56,6.7199e-05,-0.0063001,-0.00021782,-2141.5,1.0203
397,14.696,1.4545,0,0.00021724,2170.9,8.0801e-05,109.89,6.6176e-05,0.0012776,-0.00021516,-2113.8,1.0198
398,14.696,1.2727,0,0.0002144,2142.6,7.9858e-05,109.8,6.5245e-05,0.008774,-0.00021232,-2085.5,1.0193
399,14.696,1.0909,0,0.00021139,2112.5,7.854e-05,105.88,6.445e-05,0.014595,-0.00020939,-2057.5,1.0188
400,14.696,0.90909,0,0.00020829,2081.4,7.6858e-05,97.915,6.3829e-05,0.018911,-0.00020645,-2030.7,1.0182
401,14.696,0.72727,0,0.00020517,2050.3,7.4836e-05,85.878,6.3408e-05,0.013918,-0.00020357,-2006,1.0176
402,14.696,0.54545,0,0.00020212,2019.8,7.2504e-05,69.853,6.321e-05,0.018342,-0.00020084,-1983.9,1.0169
403,14.696,0.36364,0,0.0001992,1990.7,6.9895e-05,49.887,6.3241e-05,-0.1064,-0.00019831,-1965.3,1.0162
404,14.696,0.18182,0,0.0001965,1963.7,6.7048e-05,26.334,6.3528e-05,-0.11625,-0.00019604,-1950.4,1.0154
405,14.512,5.8182,0,0.00020439,2042.5,6.95e-05,24.534,6.6221e-05,-0.10492,-0.00020396,-2030.2,0.99342
406,14.512,5.6364,0,0.00020666,2065.2,7.1949e-05,44.978,6.5949e-05,-0.098795,-0.00020586,-2042.4,0.99421
407,14.512,5.4545,0,0.00020911,2089.6,7.4196e-05,62.412,6.5892e-05,0.014445,-0.00020797,-2057.7,0.99495
408,14.512,5.2727,0,0.00021163,2114.9,7.6183e-05,76.332,6.6025e-05,0.013345,-0.00021023,-2075.7,0.99564
409,14.512,5.0909,0,0.00021418,2140.3,7.7879e-05,86.689,6.6344e-05,0.01972,-0.00021257,-2095.7,0.99628
410,14.512,4.9091,0,0.00021669,2165.4,7.9265e-05,93.459,6.6828e-05,0.017318,-0.00021494,-2117.1,0.99687
411,14.512,4.7273,0,0.00021908,2189.3,8.0327e-05,96.738,6.7454e-05,0.013228,-0.00021728,-2139.3,0.9974
412,14.512,4.5455,0,0.00022132,2211.6,8.1068e-05,96.774,6.8189e-05,0.0074862,-0.00021951,-2161.7,0.99789
413,14.512,4.3636,0,0.00022334,2231.9,8.1507e-05,93.991,6.8998e-05,0.001555,-0.00022159,-2183.4,0.99832
414,14.512,4.1818,0,0.00022512,2249.7,8.1684e-05,88.996,6.9839e-05,-0.0033203,-0.00022348,-2203.9,0.99869
415,14.512,4,0,0.00022665,2264.9,8.1655e-05,82.547,7.0668e-05,-0.0056965,-0.00022513,-2222.5,0.99902
416,14.512,3.8182,0,0.00022792,2277.6,8.1489e-05,75.486,7.1442e-05,-0.0043895,-0.00022654,-2238.9,0.99928
417,14.512,3.6364,0,0.00022892,2287.6,8.1255e-05,68.655,7.2118e-05,0.00098142,-0.00022768,-2252.5,0.9995
418,14.512,3.4545,0,0.00022967,2295.1,8.1019e-05,62.812,7.266e-05,0.0093841,-0.00022854,-2263.1,0.99966
419,14.512,3.2727,0,0.00023017,2300.1,8.0831e-05,58.566,7.3039e-05,0.018179,-0.00022912,-2270.3,0.99976
420,14.512,3.0909,0,0.00023042,2302.6,8.0728e-05,56.336,7.3234e-05,0.023868,-0.00022941,-2273.9,0.99982
421,14.512,2.9091,0,0.00023042,2302.6,8.0728e-05,56.336,7.3234e-05,0.023869,-0.00022941,-2273.9,0.99982
422,14.512,2.7273,0,0.00023017,2300.1,8.0831e-05,58.566,7.3039e-05,0.018178,-0.00022912,-2270.3,0.99976
423,14.512,2.5455,0,0.00022967,2295.1,8.1019e-05,62.812,7.266e-05,0.0093836,-0.00022854,-2263.1,0.99966
424,14.512,2.3636,0,0.00022892,2287.6,8.1255e-05,68.655,7.2118e-05,0.00098279,-0.00022768,-2252.5,0.9995
425,14.512,2.1818,0,0.00022792,2277.6,8.1489e-05,75.486,7.1442e-05,-0.0043892,-0.00022654,-2238.9,0.99928
426,14.512,2,0,0.00022665,2264.9,8.1655e-05,82.547,7.0668e-05,-0.0056968,-0.00022513,-2222.5,0.99902
427,14.512,1.8182,0,0.00022512,2249.7,8.1684e-05,88.996,6.9839e-05,-0.0033215,-0.00022348,-2203.9,0.99869
428,14.512,1.6364,0,0.00022334,2231.9,8.1507e-05,93.991,6.8998e-05,0.0015565,-0.00022159,-2183.4,0.99832
429,14.512,1.4545,0,0.00022132,2211.6,8.1068e-05,96.774,6.8189e-05,0.0074876,-0.00021951,-2161.7,0.99789
430,14.512,1.2727,0,0.00021908,2189.3,8.0327e-05,96.738,6.7454e-05,0.013228,-0.00021728,-2139.3,0.9974
431,14.512,1.0909,0,0.00021669,2165.4,7.9265e-05,93.459,6.6828e-05,0.017318,-0.00021494,-2117.1,0.99687
432,14.512,0.90909,0,0.00021418,2140.3,7.7879e-05,86.689,6.6344e-05,0.019722,-0.00021257,-2095.7,0.99628
433,14.512,0.72727,0,0.00021163,2114.9,7.6183e-05,76.332,6.6025e-05,0.013346,-0.00021023,-2075.7,0.99564
434,14.512,0.54545,0,0.00020911,2089.6,7.4196e-05,62.412,6.5892e-05,0.014445,-0.00020797,-2057.7,0.99495
435,14.512,0.36364,0,0.00020666,2065.2,7.1949e-05,44.978,6.5949e-05,-0.098796,-0.00020586,-2042.4,0.99421
436,14.512,0.18182,0,0.00020439,2042.5,6.95e-05,24.534,6.6221e-05,-0.10492,-0.00020396,-2030.2,0.99342
437,14.328,5.8182,0,0.00021168,2115.3,7.1773e-05,22.944,6.8707e-05,-0.09011,-0.00021128,-2103.8,0.9716
438,14.328,5.6364,0,0.00021357,2134.2,7.3861e-05,40.541,6.8453e-05,-0.090202,-0.00021285,-2113.7,0.9724
439,14.328,5.4545,0,0.00021562,2154.7,7.579e-05,55.703,6.8378e-05,0.011072,-0.00021462,-2126.3,0.97314
440,14.328,5.2727,0,0.00021771,2175.6,7.7483e-05,67.8,6.8461e-05,0.012207,-0.00021648,-2140.9,0.97383
441,14.328,5.0909,0,0.00021979,2196.4,7.8912e-05,76.773,6.8697e-05,0.019338,-0.00021839,-2157,0.97448
442,14.328,4.9091,0,0.00022181,2216.6,8.0063e-05,82.621,6.9069e-05,0.018394,-0.00022029,-2174.1,0.97507
443,14.328,4.7273,0,0.00022373,2235.7,8.093e-05,85.468,6.9557e-05,0.015711,-0.00022215,-2191.8,0.97561
444,14.328,4.5455,0,0.00022549,2253.4,8.1521e-05,85.567,7.0135e-05,0.011428,-0.00022391,-2209.4,0.97609
445,14.328,4.3636,0,0.00022708,2269.2,8.1858e-05,83.312,7.0771e-05,0.0068426,-0.00022554,-2226.4,0.97653
446,14.328,4.1818,0,0.00022846,2283,8.1978e-05,79.23,7.1434e-05,0.0029483,-0.00022701,-2242.4,0.9769
447,14.328,4,0,0.00022964,2294.8,8.1929e-05,73.951,7.2087e-05,0.00081481,-0.00022829,-2256.9,0.97723
448,14.328,3.8182,0,0.0002306,2304.4,8.1769e-05,68.165,7.2697e-05,0.0012536,-0.00022937,-2269.6,0.97749
449,14.328,3.6364,0,0.00023136,2312,8.1555e-05,62.558,7.323e-05,0.0044983,-0.00023023,-2280.1,0.97771
450,14.328,3.4545,0,0.00023192,2317.6,8.1342e-05,57.75,7.3657e-05,0.0098236,-0.00023089,-2288.2,0.97787
451,14.328,3.2727,0,0.0002323,2321.3,8.1174e-05,54.248,7.3956e-05,0.015458,-0.00023132,-2293.7,0.97798
452,14.328,3.0909,0,0.00023248,2323.2,8.1082e-05,52.406,7.4109e-05,0.019109,-0.00023154,-2296.5,0.97803
453,14.328,2.9091,0,0.00023248,2323.2,8.1082e-05,52.406,7.4109e-05,0.019109,-0.00023154,-2296.5,0.97803
454,14.328,2.7273,0,0.0002323,2321.3,8.1174e-05,54.248,7.3956e-05,0.015458,-0.00023132,-2293.7,0.97798
455,14.328,2.5455,0,0.00023192,2317.6,8.1342e-05,57.75,7.3657e-05,0.0098235,-0.00023089,-2288.2,0.97787
456,14.328,2.3636,0,0.00023136,2312,8.1555e-05,62.558,7.323e-05,0.0044976,-0.00023023,-2280.1,0.97771
457,14.328,2.1818,0,0.0002306,2304.4,8.1769e-05,68.165,7.2697e-05,0.0012536,-0.00022937,-2269.6,0.97749
458,14.328,2,0,0.00022964,2294.8,8.1929e-05,73.951,7.2087e-05,0.0008148,-0.00022829,-2256.9,0.97723
459,14.328,1.8182,0,0.00022846,2283,8.1978e-05,79.23,7.1434e-05,0.0029494,-0.00022701,-2242.4,0.9769
460,14.328,1.6364,0,0.00022708,2269.2,8.1858e-05,83.312,7.0771e-05,0.0068433,-0.00022554,-2226.4,0.97653
461,14.328,1.4545,0,0.00022549,2253.4,8.1521e-05,85.567,7.0135e-05,0.011428,-0.00022391,-2209.4,0.97609
462,14.328,1.2727,0,0.00022373,2235.7,8.093e-05,85.468,6.9557e-05,0.015713,-0.00022215,-2191.8,0.97561
463,14.328,1.0909,0,0.00022181,2216.6,8.0063e-05,82.621,6.9069e-05,0.018393,-0.00022029,-2174.1,0.97507
464,14.328,0.90909,0,0.00021979,2196.4,7.8912e-05,76.773,6.8697e-05,0.01934,-0.00021839,-2157,0.97448
465,14.328,0.72727,0,0.00021771,2175.6,7.7483e-05,67.8,6.8461e-05,0.012208,-0.00021648,-2140.9,0.97383
466,14.328,0.54545,0,0.00021562,2154.7,7.579e-05,55.703,6.8378e-05,0.011071,-0.00021462,-2126.3,0.97314
467,14.328,0.36364,0,0.00021357,2134.2,7.3861e-05,40.541,6.8453e-05,-0.090202,-0.00021285,-2113.7,0.9724
468,14.328,0.18182,0,0.00021168,2115.3,7.1773e-05,22.944,6.8707e-05,-0.090109,-0.00021128,-2103.8,0.9716
469,14.145,5.8182,0,0.00021849,2183.4,7.3903e-05,21.547,7.1025e-05,-0.074704,-0.00021811,-2172.6,0.94992
470,14.145,5.6364,0,0.00022005,2199,7.5669e-05,36.579,7.079e-05,-0.08146,-0.00021941,-2180.5,0.95073
471,14.145,5.4545,0,0.00022176,2216,7.7319e-05,49.717,7.0704e-05,0.0081303,-0.00022087,-2190.7,0.95148
472,14.145,5.2727,0,0.00022348,2233.3,7.8761e-05,60.225,7.0747e-05,0.010718,-0.0002224,-2202.6,0.95218
473,14.145,5.0909,0,0.00022519,2250.3,7.9969e-05,68.029,7.0917e-05,0.01817,-0.00022395,-2215.5,0.95283
474,14.145,4.9091,0,0.00022682,2266.6,8.0932e-05,73.139,7.12e-05,0.018314,-0.00022549,-2229.2,0.95342
475,14.145,4.7273,0,0.00022835,2281.9,8.1647e-05,75.68,7.1577e-05,0.016745,-0.00022697,-2243.1,0.95396
476,14.145,4.5455,0,0.00022975,2295.9,8.2126e-05,75.891,7.2027e-05,0.013638,-0.00022836,-2257,0.95445
477,14.145,4.3636,0,0.00023099,2308.3,8.239e-05,74.125,7.2526e-05,0.010131,-0.00022964,-2270.3,0.95489
478,14.145,4.1818,0,0.00023206,2319,8.2473e-05,70.833,7.3046e-05,0.0070209,-0.00023078,-2282.8,0.95527
479,14.145,4,0,0.00023297,2328.1,8.2416e-05,66.545,7.356e-05,0.0051075,-0.00023177,-2294.1,0.95559
480,14.145,3.8182,0,0.0002337,2335.4,8.2268e-05,61.829,7.404e-05,0.0049745,-0.00023259,-2303.9,0.95586
481,14.145,3.6364,0,0.00023428,2341.2,8.2078e-05,57.248,7.4459e-05,0.0067681,-0.00023325,-2312,0.95608
482,14.145,3.4545,0,0.0002347,2345.4,8.189e-05,53.313,7.4796e-05,0.0099926,-0.00023375,-2318.3,0.95624
483,14.145,3.2727,0,0.00023498,2348.1,8.1743e-05,50.441,7.5031e-05,0.013476,-0.00023408,-2322.5,0.95635
484,14.145,3.0909,0,0.00023511,2349.5,8.1662e-05,48.928,7.5152e-05,0.015747,-0.00023424,-2324.6,0.9564
485,14.145,2.9091,0,0.00023511,2349.5,8.1662e-05,48.929,7.5152e-05,0.015748,-0.00023424,-2324.6,0.9564
486,14.145,2.7273,0,0.00023498,2348.1,8.1743e-05,50.441,7.5031e-05,0.013478,-0.00023408,-2322.5,0.95635
487,14.145,2.5455,0,0.0002347,2345.4,8.189e-05,53.313,7.4796e-05,0.0099918,-0.00023375,-2318.3,0.95624
488,14.145,2.3636,0,0.00023428,2341.2,8.2078e-05,57.248,7.4459e-05,0.0067685,-0.00023325,-2312,0.95608
489,14.145,2.1818,0,0.0002337,2335.4,8.2268e-05,61.829,7.404e-05,0.0049736,-0.00023259,-2303.9,0.95586
490,14.145,2,0,0.00023297,2328.1,8.2416e-05,66.545,7.356e-05,0.0051085,-0.00023177,-2294.1,0.95559
491,14.145,1.8182,0,0.00023206,2319,8.2473e-05,70.833,7.3046e-05,0.0070206,-0.00023078,-2282.8,0.95527
492,14.145,1.6364,0,0.00023099,2308.3,8.239e-05,74.125,7.2526e-05,0.010131,-0.00022964,-2270.3,0.95489
493,14.145,1.4545,0,0.00022975,2295.9,8.2126e-05,75.892,7.2027e-05,0.013639,-0.00022836,-2257,0.95445
494,14.145,1.2727,0,0.00022835,2281.9,8.1647e-05,75.68,7.1577e-05,0.016744,-0.00022697,-2243.1,0.95396
495,14.145,1.0909,0,0.00022682,2266.6,8.0932e-05,73.139,7.12e-05,0.018315,-0.00022549,-2229.2,0.95342
496,14.145,0.90909,0,0.00022519,2250.3,7.9969e-05,68.029,7.0917e-05,0.018171,-0.00022395,-2215.5,0.95283
497,14.145,0.72727,0,0.00022348,2233.3,7.8761e-05,60.225,7.0747e-05,0.01072,-0.0002224,-2202.6,0.95218
498,14.145,0.54545,0,0.00022176,2216,7.7319e-05,49.717,7.0704e-05,0.0081315,-0.00022087,-2190.7,0.95148
499,14.145,0.36364,0,0.00022005,2199,7.5669e-05,36.579,7.079e-05,-0.081461,-0.00021941,-2180.5,0.95073
500,14.145,0.18182,0,0.00021849,2183.4,7.3903e-05,21.547,7.1025e-05,-0.074704,-0.00021811,-2172.6,0.94992
501,13.961,5.8182,0,0.00022491,2247.5,7.5918e-05,20.321,7.3205e-05,-0.060277,-0.00022456,-2237.3,0.92839
502,13.961,5.6364,0,0.00022618,2260.3,7.7401e-05,33.07,7.299e-05,-0.072998,-0.0002256,-2243.6,0.9292
503,13.961,5.4545,0,0.0002276,2274.4,7.8808e-05,44.415,7.2898e-05,0.0056313,-0.00022681,-2251.9,0.92996
504,13.961,5.2727,0,0.00022903,2288.7,8.0035e-05,53.53,7.2912e-05,0.0091081,-0.00022807,-2261.4,0.93067
505,13.961,5.0909,0,0.00023042,2302.6,8.1058e-05,60.332,7.3031e-05,0.01658,-0.00022933,-2271.8,0.93132
506,13.961,4.9091,0,0.00023174,2315.8,8.1867e-05,64.829,7.3241e-05,0.017517,-0.00023057,-2282.7,0.93192
507,13.961,4.7273,0,0.00023296,2328,8.2463e-05,67.136,7.353e-05,0.016808,-0.00023175,-2293.7,0.93247
508,13.961,4.5455,0,0.00023407,2339.1,8.2856e-05,67.469,7.3879e-05,0.014638,-0.00023285,-2304.6,0.93296
509,13.961,4.3636,0,0.00023505,2348.8,8.3068e-05,66.135,7.4268e-05,0.011987,-0.00023385,-2315.1,0.9334
510,13.961,4.1818,0,0.00023588,2357.2,8.3127e-05,63.519,7.4675e-05,0.0095028,-0.00023474,-2324.8,0.93378
511,13.961,4,0,0.00023658,2364.2,8.3071e-05,60.067,7.5077e-05,0.0078016,-0.0002355,-2333.5,0.93411
512,13.961,3.8182,0,0.00023714,2369.8,8.2939e-05,56.248,7.5454e-05,0.0073074,-0.00023613,-2341.1,0.93438
513,13.961,3.6364,0,0.00023757,2374.1,8.2773e-05,52.526,7.5783e-05,0.0081315,-0.00023664,-2347.4,0.9346
514,13.961,3.4545,0,0.00023789,2377.2,8.2611e-05,49.321,7.6048e-05,0.0099492,-0.00023701,-2352.2,0.93477
515,13.961,3.2727,0,0.00023809,2379.3,8.2484e-05,46.978,7.6233e-05,0.012003,-0.00023726,-2355.4,0.93488
516,13.961,3.0909,0,0.00023819,2380.3,8.2414e-05,45.744,7.6328e-05,0.013358,-0.00023738,-2357.1,0.93493
517,13.961,2.9091,0,0.00023819,2380.3,8.2414e-05,45.744,7.6328e-05,0.013358,-0.00023738,-2357.1,0.93493
518,13.961,2.7273,0,0.00023809,2379.3,8.2484e-05,46.979,7.6233e-05,0.012003,-0.00023726,-2355.4,0.93488
519,13.961,2.5455,0,0.00023789,2377.2,8.2611e-05,49.321,7.6048e-05,0.0099492,-0.00023701,-2352.2,0.93477
520,13.961,2.3636,0,0.00023757,2374.1,8.2773e-05,52.526,7.5783e-05,0.0081327,-0.00023664,-2347.4,0.9346
521,13.961,2.1818,0,0.00023714,2369.8,8.2939e-05,56.248,7.5454e-05,0.0073078,-0.00023613,-2341.1,0.93438
522,13.961,2,0,0.00023658,2364.2,8.3071e-05,60.067,7.5077e-05,0.0078023,-0.0002355,-2333.5,0.93411
523,13.961,1.8182,0,0.00023588,2357.2,8.3127e-05,63.519,7.4675e-05,0.0095033,-0.00023474,-2324.8,0.93378
524,13.961,1.6364,0,0.00023505,2348.8,8.3068e-05,66.135,7.4268e-05,0.011987,-0.00023385,-2315.1,0.9334
525,13.961,1.4545,0,0.00023407,2339.1,8.2856e-05,67.469,7.3879e-05,0.014638,-0.00023285,-2304.6,0.93296
526,13.961,1.2727,0,0.00023296,2328,8.2463e-05,67.136,7.353e-05,0.016807,-0.00023175,-2293.7,0.93247
527,13.961,1.0909,0,0.00023174,2315.8,8.1867e-05,64.829,7.3241e-05,0.017519,-0.00023057,-2282.7,0.93192
528,13.961,0.90909,0,0.00023042,2302.6,8.1058e-05,60.332,7.3031e-05,0.016582,-0.00022933,-2271.8,0.93132
529,13.961,0.72727,0,0.00022903,2288.7,8.0035e-05,53.53,7.2912e-05,0.0091086,-0.00022807,-2261.4,0.93067
530,13.961,0.54545,0,0.0002276,2274.4,7.8808e-05,44.415,7.2898e-05,0.0056329,-0.00022681,-2251.9,0.92996
531,13.961,0.36364,0,0.00022618,2260.3,7.7401e-05,33.07,7.299e-05,-0.072999,-0.0002256,-2243.6,0.9292
532,13.961,0.18182,0,0.00022491,2247.5,7.5918e-05,20.321,7.3205e-05,-0.060277,-0.00022456,-2237.3,0.92839
533,13.777,5.8182,0,0.00023101,2308.6,7.7843e-05,19.245,7.5276e-05,-0.047549,-0.00023068,-2298.9,0.90701
534,13.777,5.6364,0,0.00023204,2318.8,7.9078e-05,29.978,7.508e-05,-0.065012,-0.00023152,-2303.7,0.90783
535,13.777,5.4545,0,0.00023322,2330.6,8.0274e-05,39.74,7.4985e-05,0.003597,-0.00023252,-2310.4,0.9086
536,13.777,5.2727,0,0.00023439,2342.3,8.1316e-05,47.631,7.4978e-05,0.0075645,-0.00023354,-2318.1,0.90931
537,13.777,5.0909,0,0.00023553,2353.6,8.2183e-05,53.561,7.5057e-05,0.014858,-0.00023457,-2326.4,0.90998
538,13.777,4.9091,0,0.0002366,2364.3,8.2866e-05,57.532,7.5211e-05,0.016352,-0.00023556,-2335,0.91058
539,13.777,4.7273,0,0.00023758,2374.2,8.3365e-05,59.644,7.5429e-05,0.016294,-0.00023651,-2343.8,0.91113
540,13.777,4.5455,0,0.00023846,2382.9,8.3692e-05,60.086,7.5697e-05,0.014858,-0.00023738,-2352.3,0.91163
541,13.777,4.3636,0,0.00023922,2390.6,8.3865e-05,59.12,7.5999e-05,0.012888,-0.00023816,-2360.5,0.91207
542,13.777,4.1818,0,0.00023988,2397.1,8.3911e-05,57.075,7.6316e-05,0.010909,-0.00023885,-2368,0.91246
543,13.777,4,0,0.00024041,2402.4,8.3859e-05,54.321,7.663e-05,0.0094101,-0.00023944,-2374.8,0.91279
544,13.777,3.8182,0,0.00024084,2406.7,8.3745e-05,51.25,7.6925e-05,0.0087118,-0.00023992,-2380.7,0.91307
545,13.777,3.6364,0,0.00024116,2410,8.3603e-05,48.243,7.7183e-05,0.0089126,-0.00024031,-2385.5,0.91329
546,13.777,3.4545,0,0.0002414,2412.3,8.3465e-05,45.646,7.7391e-05,0.0098116,-0.00024059,-2389.2,0.91345
547,13.777,3.2727,0,0.00024155,2413.8,8.3357e-05,43.746,7.7536e-05,0.010931,-0.00024078,-2391.7,0.91356
548,13.777,3.0909,0,0.00024162,2414.6,8.3298e-05,42.743,7.761e-05,0.011694,-0.00024087,-2392.9,0.91362
549,13.777,2.9091,0,0.00024162,2414.6,8.3298e-05,42.743,7.761e-05,0.011693,-0.00024087,-2392.9,0.91362
550,13.777,2.7273,0,0.00024155,2413.8,8.3357e-05,43.746,7.7536e-05,0.010932,-0.00024078,-2391.7,0.91356
551,13.777,2.5455,0,0.0002414,2412.3,8.3465e-05,45.646,7.7391e-05,0.0098112,-0.00024059,-2389.2,0.91345
552,13.777,2.3636,0,0.00024116,2410,8.3603e-05,48.243,7.7183e-05,0.0089125,-0.00024031,-2385.5,0.91329
553,13.777,2.1818,0,0.00024084,2406.7,8.3745e-05,51.25,7.6925e-05,0.0087116,-0.00023992,-2380.7,0.91307
554,13.777,2,0,0.00024041,2402.4,8.3859e-05,54.322,7.663e-05,0.0094106,-0.00023944,-2374.8,0.91279
555,13.777,1.8182,0,0.00023988,2397.1,8.3911e-05,57.075,7.6316e-05,0.01091,-0.00023885,-2368,0.91246
556,13.777,1.6364,0,0.00023922,2390.6,8.3865e-05,59.12,7.5999e-05,0.012888,-0.00023816,-2360.5,0.91207
557,13.777,1.4545,0,0.00023846,2382.9,8.3692e-05,60.086,7.5697e-05,0.014858,-0.00023738,-2352.3,0.91163
558,13.777,1.2727,0,0.00023758,2374.2,8.3365e-05,59.644,7.5429e-05,0.016294,-0.00023651,-2343.8,0.91113
559,13.777,1.0909,0,0.0002366,2364.3,8.2866e-05,57.532,7.5211e-05,0.016353,-0.00023556,-2335,0.91058
560,13.777,0.90909,0,0.00023553,2353.6,8.2183e-05,53.561,7.5057e-05,0.014859,-0.00023457,-2326.4,0.90998
561,13.777,0.72727,0,0.00023439,2342.3,8.1316e-05,47.631,7.4978e-05,0.0075656,-0.00023354,-2318.1,0.90931
562,13.777,0.54545,0,0.00023322,2330.6,8.0274e-05,39.74,7.4985e-05,0.0035969,-0.00023252,-2310.4,0.9086
563,13.777,0.36364,0,0.00023204,2318.8,7.9078e-05,29.979,7.508e-05,-0.065012,-0.00023152,-2303.7,0.90783
564,13.777,0.18182,0,0.00023101,2308.6,7.7843e-05,19.245,7.5276e-05,-0.047549,-0.00023068,-2298.9,0.90701
565,13.593,5.8182,0,0.00023688,2367.1,7.9698e-05,18.295,7.7258e-05,-0.036811,-0.00023656,-2357.9,0.88579
566,13.593,5.6364,0,0.0002377,2375.3,8.0717e-05,27.262,7.7081e-05,-0.057652,-0.00023722,-2361.6,0.88662
567,13.593,5.4545,0,0.00023866,2385,8.1729e-05,35.628,7.6987e-05,0.0019543,-0.00023804,-2367,0.88739
568,13.593,5.2727,0,0.00023962,2394.6,8.2613e-05,42.441,7.6965e-05,0.0061343,-0.00023887,-2373.1,0.88812
569,13.593,5.0909,0,0.00024055,2403.8,8.3347e-05,47.603,7.7013e-05,0.013117,-0.00023971,-2379.7,0.88879
570,13.593,4.9091,0,0.00024142,2412.5,8.3924e-05,51.11,7.7123e-05,0.014987,-0.00024051,-2386.5,0.8894
571,13.593,4.7273,0,0.0002422,2420.4,8.4344e-05,53.047,7.7286e-05,0.01541,-0.00024126,-2393.4,0.88996
572,13.593,4.5455,0,0.0002429,2427.3,8.4618e-05,53.572,7.749e-05,0.014545,-0.00024195,-2400.1,0.89046
573,13.593,4.3636,0,0.0002435,2433.4,8.4763e-05,52.911,7.7722e-05,0.013114,-0.00024256,-2406.5,0.89091
574,13.593,4.1818,0,0.00024401,2438.4,8.4799e-05,51.337,7.7968e-05,0.011551,-0.0002431,-2412.3,0.8913
575,13.593,4,0,0.00024442,2442.5,8.4754e-05,49.161,7.8213e-05,0.010247,-0.00024355,-2417.6,0.89163
576,13.593,3.8182,0,0.00024475,2445.8,8.4658e-05,46.707,7.8443e-05,0.0094575,-0.00024392,-2422.1,0.89191
577,13.593,3.6364,0,0.00024499,2448.2,8.4538e-05,44.291,7.8644e-05,0.0092772,-0.00024421,-2425.8,0.89214
578,13.593,3.4545,0,0.00024517,2450,8.4422e-05,42.199,7.8807e-05,0.0095962,-0.00024442,-2428.6,0.8923
579,13.593,3.2727,0,0.00024528,2451.1,8.4331e-05,40.664,7.892e-05,0.010125,-0.00024456,-2430.5,0.89241
580,13.593,3.0909,0,0.00024533,2451.6,8.4281e-05,39.853,7.8979e-05,0.010511,-0.00024463,-2431.5,0.89247
581,13.593,2.9091,0,0.00024533,2451.6,8.4281e-05,39.853,7.8979e-05,0.010511,-0.00024463,-2431.5,0.89247
582,13.593,2.7273,0,0.00024528,2451.1,8.4331e-05,40.664,7.892e-05,0.010125,-0.00024456,-2430.5,0.89241
583,13.593,2.5455,0,0.00024517,2450,8.4422e-05,42.199,7.8807e-05,0.0095971,-0.00024442,-2428.6,0.8923
584,13.593,2.3636,0,0.00024499,2448.2,8.4538e-05,44.291,7.8644e-05,0.0092777,-0.00024421,-2425.8,0.89214
585,13.593,2.1818,0,0.00024475,2445.8,8.4658e-05,46.707,7.8443e-05,0.009457,-0.00024392,-2422.1,0.89191
586,13.593,2,0,0.00024442,2442.5,8.4754e-05,49.161,7.8213e-05,0.010247,-0.00024355,-2417.6,0.89163
587,13.593,1.8182,0,0.00024401,2438.4,8.4799e-05,51.337,7.7968e-05,0.011552,-0.0002431,-2412.3,0.8913
588,13.593,1.6364,0,0.0002435,2433.4,8.4763e-05,52.911,7.7722e-05,0.013115,-0.00024256,-2406.5,0.89091
589,13.593,1.4545,0,0.0002429,2427.3,8.4618e-05,53.572,7.749e-05,0.014546,-0.00024195,-2400.1,0.89046
590,13.593,1.2727,0,0.0002422,2420.4,8.4344e-05,53.047,7.7286e-05,0.015411,-0.00024126,-2393.4,0.88996
591,13.593,1.0909,0,0.00024142,2412.5,8.3924e-05,51.11,7.7123e-05,0.014987,-0.00024051,-2386.5,0.8894
592,13.593,0.90909,0,0.00024055,2403.8,8.3347e-05,47.603,7.7013e-05,0.013119,-0.00023971,-2379.7,0.88879
593,13.593,0.72727,0,0.00023962,2394.6,8.2613e-05,42.441,7.6965e-05,0.0061356,-0.00023887,-2373.1,0.88812
594,13.593,0.54545,0,0.00023866,2385,8.1729e-05,35.628,7.6987e-05,0.0019547,-0.00023804,-2367,0.88739
595,13.593,0.36364,0,0.0002377,2375.3,8.0717e-05,27.262,7.7081e-05,-0.057653,-0.00023722,-2361.6,0.88662
596,13.593,0.18182,0,0.00023688,2367.1,7.9698e-05,18.295,7.7258e-05,-0.036811,-0.00023656,-2357.9,0.88579
597,13.41,5.8182,0,0.00024254,2423.8,8.1497e-05,17.453,7.9171e-05,-0.028106,-0.00024224,-2415,0.86472
598,13.41,5.6364,0,0.00024318,2430.2,8.2328e-05,24.875,7.9011e-05,-0.051044,-0.00024275,-2417.7,0.86556
599,13.41,5.4545,0,0.00024397,2438.1,8.3182e-05,32.015,7.8921e-05,0.00057244,-0.00024341,-2421.9,0.86635
600,13.41,5.2727,0,0.00024476,2445.9,8.3929e-05,37.874,7.8888e-05,0.0047753,-0.0002441,-2426.8,0.86708
601,13.41,5.0909,0,0.00024551,2453.4,8.4549e-05,42.353,7.8914e-05,0.011367,-0.00024477,-2432,0.86776
602,13.41,4.9091,0,0.00024621,2460.4,8.5036e-05,45.442,7.899e-05,0.013472,-0.00024541,-2437.4,0.86838
603,13.41,4.7273,0,0.00024684,2466.7,8.5391e-05,47.209,7.9109e-05,0.014243,-0.00024601,-2442.8,0.86894
604,13.41,4.5455,0,0.0002474,2472.3,8.5622e-05,47.789,7.9263e-05,0.013819,-0.00024655,-2448,0.86945
605,13.41,4.3636,0,0.00024787,2477,8.5743e-05,47.368,7.944e-05,0.012816,-0.00024703,-2453,0.8699
606,13.41,4.1818,0,0.00024826,2480.9,8.5774e-05,46.176,7.963e-05,0.011596,-0.00024744,-2457.5,0.8703
607,13.41,4,0,0.00024858,2484.1,8.5737e-05,44.472,7.9819e-05,0.010478,-0.00024779,-2461.5,0.87064
608,13.41,3.8182,0,0.00024883,2486.5,8.5656e-05,42.524,7.9998e-05,0.009678,-0.00024807,-2465,0.87092
609,13.41,3.6364,0,0.00024901,2488.4,8.5556e-05,40.592,8.0155e-05,0.0092868,-0.00024829,-2467.8,0.87115
610,13.41,3.4545,0,0.00024914,2489.7,8.5459e-05,38.913,8.0281e-05,0.0092569,-0.00024845,-2470,0.87132
611,13.41,3.2727,0,0.00024922,2490.5,8.5383e-05,37.678,8.037e-05,0.0094232,-0.00024856,-2471.4,0.87143
612,13.41,3.0909,0,0.00024926,2490.9,8.5342e-05,37.026,8.0416e-05,0.0095777,-0.00024861,-2472.1,0.87149
613,13.41,2.9091,0,0.00024926,2490.9,8.5342e-05,37.026,8.0416e-05,0.0095779,-0.00024861,-2472.1,0.87149
614,13.41,2.7273,0,0.00024922,2490.5,8.5383e-05,37.678,8.037e-05,0.0094224,-0.00024856,-2471.4,0.87143
615,13.41,2.5455,0,0.00024914,2489.7,8.5459e-05,38.913,8.0281e-05,0.0092567,-0.00024845,-2470,0.87132
616,13.41,2.3636,0,0.00024901,2488.4,8.5556e-05,40.592,8.0155e-05,0.0092859,-0.00024829,-2467.8,0.87115
617,13.41,2.1818,0,0.00024883,2486.5,8.5656e-05,42.524,7.9998e-05,0.0096778,-0.00024807,-2465,0.87092
618,13.41,2,0,0.00024858,2484.1,8.5737e-05,44.472,7.9819e-05,0.010479,-0.00024779,-2461.5,0.87064
619,13.41,1.8182,0,0.00024826,2480.9,8.5774e-05,46.176,7.963e-05,0.011595,-0.00024744,-2457.5,0.8703
620,13.41,1.6364,0,0.00024787,2477,8.5743e-05,47.368,7.944e-05,0.012815,-0.00024703,-2453,0.8699
621,13.41,1.4545,0,0.0002474,2472.3,8.5622e-05,47.789,7.9263e-05,0.013819,-0.00024655,-2448,0.86945
622,13.41,1.2727,0,0.00024684,2466.7,8.5391e-05,47.209,7.9109e-05,0.014243,-0.00024601,-2442.8,0.86894
623,13.41,1.0909,0,0.00024621,2460.4,8.5036e-05,45.442,7.899e-05,0.013472,-0.00024541,-2437.4,0.86838
624,13.41,0.90909,0,0.00024551,2453.4,8.4549e-05,42.353,7.8914e-05,0.011368,-0.00024477,-2432,0.86776
625,13.41,0.72727,0,0.00024476,2445.9,8.3929e-05,37.874,7.8888e-05,0.0047764,-0.0002441,-2426.8,0.86708
626,13.41,0.54545,0,0.00024397,2438.1,8.3182e-05,32.015,7.8921e-05,0.0005728,-0.00024341,-2421.9,0.86635
627,13.41,0.36364,0,0.00024318,2430.2,8.2328e-05,24.875,7.9011e-05,-0.051043,-0.00024275,-2417.7,0.86556
628,13.41,0.18182,0,0.00024254,2423.8,8.1497e-05,17.453,7.9171e-05,-0.028105,-0.00024224,-2415,0.86472
629,13.226,5.8182,0,0.00024806,2478.9,8.3254e-05,16.699,8.1029e-05,-0.021189,-0.00024777,-2470.5,0.84382
630,13.226,5.6364,0,0.00024855,2483.7,8.3923e-05,22.774,8.0886e-05,-0.045118,-0.00024815,-2472.3,0.84467
631,13.226,5.4545,0,0.00024919,2490.2,8.4638e-05,28.835,8.08e-05,-0.00053741,-0.00024869,-2475.6,0.84547
632,13.226,5.2727,0,0.00024983,2496.6,8.5266e-05,33.85,8.0761e-05,0.0035593,-0.00024924,-2479.5,0.84621
633,13.226,5.0909,0,0.00025044,2502.6,8.5788e-05,37.716,8.077e-05,0.0097177,-0.00024977,-2483.6,0.84689
634,13.226,4.9091,0,0.000251,2508.2,8.6198e-05,40.421,8.082e-05,0.01195,-0.00025029,-2487.8,0.84752
635,13.226,4.7273,0,0.0002515,2513.3,8.6497e-05,42.019,8.0906e-05,0.012967,-0.00025076,-2492,0.84809
636,13.226,4.5455,0,0.00025194,2517.6,8.6691e-05,42.62,8.1021e-05,0.01288,-0.00025119,-2496.1,0.84861
637,13.226,4.3636,0,0.00025231,2521.3,8.6794e-05,42.38,8.1155e-05,0.012218,-0.00025156,-2499.9,0.84907
638,13.226,4.1818,0,0.00025261,2524.4,8.682e-05,41.49,8.13e-05,0.011284,-0.00025188,-2503.4,0.84947
639,13.226,4,0,0.00025285,2526.8,8.679e-05,40.164,8.1446e-05,0.010348,-0.00025215,-2506.5,0.84981
640,13.226,3.8182,0,0.00025304,2528.7,8.6723e-05,38.625,8.1584e-05,0.0095873,-0.00025236,-2509.1,0.8501
641,13.226,3.6364,0,0.00025318,2530,8.664e-05,37.086,8.1706e-05,0.0090988,-0.00025253,-2511.3,0.85033
642,13.226,3.4545,0,0.00025327,2531,8.656e-05,35.742,8.1804e-05,0.0088758,-0.00025265,-2512.9,0.8505
643,13.226,3.2727,0,0.00025333,2531.6,8.6497e-05,34.752,8.1873e-05,0.0088307,-0.00025272,-2514,0.85061
644,13.226,3.0909,0,0.00025336,2531.9,8.6463e-05,34.228,8.1908e-05,0.0088501,-0.00025276,-2514.6,0.85067
645,13.226,2.9091,0,0.00025336,2531.9,8.6463e-05,34.228,8.1908e-05,0.0088493,-0.00025276,-2514.6,0.85067
646,13.226,2.7273,0,0.00025333,2531.6,8.6497e-05,34.752,8.1873e-05,0.0088315,-0.00025272,-2514,0.85061
647,13.226,2.5455,0,0.00025327,2531,8.656e-05,35.742,8.1804e-05,0.0088751,-0.00025265,-2512.9,0.8505
648,13.226,2.3636,0,0.00025318,2530,8.664e-05,37.086,8.1706e-05,0.0090993,-0.00025253,-2511.3,0.85033
649,13.226,2.1818,0,0.00025304,2528.7,8.6723e-05,38.625,8.1584e-05,0.0095879,-0.00025236,-2509.1,0.8501
650,13.226,2,0,0.00025285,2526.8,8.679e-05,40.164,8.1446e-05,0.010347,-0.00025215,-2506.5,0.84981
651,13.226,1.8182,0,0.00025261,2524.4,8.682e-05,41.49,8.13e-05,0.011285,-0.00025188,-2503.4,0.84947
652,13.226,1.6364,0,0.00025231,2521.3,8.6794e-05,42.38,8.1155e-05,0.012218,-0.00025156,-2499.9,0.84907
653,13.226,1.4545,0,0.00025194,2517.6,8.6691e-05,42.62,8.1021e-05,0.012881,-0.00025119,-2496.1,0.84861
654,13.226,1.2727,0,0.0002515,2513.3,8.6497e-05,42.019,8.0906e-05,0.012968,-0.00025076,-2492,0.84809
655,13.226,1.0909,0,0.000251,2508.2,8.6198e-05,40.421,8.082e-05,0.011951,-0.00025029,-2487.8,0.84752
656,13.226,0.90909,0,0.00025044,2502.6,8.5788e-05,37.716,8.077e-05,0.0097181,-0.00024977,-2483.6,0.84689
657,13.226,0.72727,0,0.00024983,2496.6,8.5266e-05,33.85,8.0761e-05,0.003561,-0.00024924,-2479.5,0.84621
658,13.226,0.54545,0,0.00024919,2490.2,8.4638e-05,28.835,8.08e-05,-0.000536,-0.00024869,-2475.6,0.84547
659,13.226,0.36364,0,0.00024855,2483.7,8.3923e-05,22.774,8.0886e-05,-0.045118,-0.00024815,-2472.3,0.84467
660,13.226,0.18182,0,0.00024806,2478.9,8.3254e-05,16.699,8.1029e-05,-0.021189,-0.00024777,-2470.5,0.84382
661,13.042,5.8182,0,0.00025345,2532.8,8.4978e-05,16.018,8.2844e-05,-0.015752,-0.00025318,-2524.8,0.82308
662,13.042,5.6364,0,0.00025381,2536.4,8.5506e-05,20.918,8.2716e-05,-0.039778,-0.00025345,-2525.9,0.82395
663,13.042,5.4545,0,0.00025433,2541.5,8.6101e-05,26.029,8.2636e-05,-0.0013646,-0.00025388,-2528.4,0.82475
664,13.042,5.2727,0,0.00025485,2546.7,8.6625e-05,30.291,8.2594e-05,0.0025463,-0.00025432,-2531.4,0.8255
665,13.042,5.0909,0,0.00025533,2551.6,8.7062e-05,33.604,8.2591e-05,0.0082516,-0.00025475,-2534.6,0.8262
666,13.042,4.9091,0,0.00025578,2556.1,8.7405e-05,35.951,8.2622e-05,0.010537,-0.00025515,-2537.9,0.82684
667,13.042,4.7273,0,0.00025618,2560,8.7655e-05,37.376,8.2682e-05,0.011717,-0.00025552,-2541.1,0.82742
668,13.042,4.5455,0,0.00025652,2563.5,8.7818e-05,37.967,8.2766e-05,0.011887,-0.00025586,-2544.3,0.82794
669,13.042,4.3636,0,0.00025681,2566.4,8.7904e-05,37.855,8.2867e-05,0.011497,-0.00025615,-2547.2,0.8284
670,13.042,4.1818,0,0.00025705,2568.7,8.7926e-05,37.195,8.2977e-05,0.010805,-0.00025639,-2549.9,0.82881
671,13.042,4,0,0.00025723,2570.5,8.7901e-05,36.167,8.3089e-05,0.010038,-0.0002566,-2552.2,0.82916
672,13.042,3.8182,0,0.00025737,2571.9,8.7846e-05,34.952,8.3195e-05,0.0093525,-0.00025676,-2554.3,0.82944
673,13.042,3.6364,0,0.00025747,2572.9,8.7777e-05,33.728,8.3289e-05,0.0088397,-0.00025688,-2555.9,0.82968
674,13.042,3.4545,0,0.00025754,2573.6,8.771e-05,32.654,8.3366e-05,0.0085236,-0.00025697,-2557.1,0.82985
675,13.042,3.2727,0,0.00025758,2574,8.7658e-05,31.86,8.3419e-05,0.0083674,-0.00025702,-2557.9,0.82997
676,13.042,3.0909,0,0.0002576,2574.2,8.763e-05,31.439,8.3447e-05,0.0083107,-0.00025705,-2558.4,0.83002
677,13.042,2.9091,0,0.0002576,2574.2,8.763e-05,31.439,8.3447e-05,0.0083111,-0.00025705,-2558.4,0.83002
678,13.042,2.7273,0,0.00025758,2574,8.7658e-05,31.86,8.3419e-05,0.0083677,-0.00025702,-2557.9,0.82997
679,13.042,2.5455,0,0.00025754,2573.6,8.771e-05,32.654,8.3366e-05,0.0085235,-0.00025697,-2557.1,0.82985
680,13.042,2.3636,0,0.00025747,2572.9,8.7777e-05,33.728,8.3289e-05,0.0088403,-0.00025688,-2555.9,0.82968
681,13.042,2.1818,0,0.00025737,2571.9,8.7846e-05,34.952,8.3195e-05,0.0093522,-0.00025676,-2554.3,0.82944
682,13.042,2,0,0.00025723,2570.5,8.7901e-05,36.167,8.3089e-05,0.010038,-0.0002566,-2552.2,0.82916
683,13.042,1.8182,0,0.00025705,2568.7,8.7926e-05,37.195,8.2977e-05,0.010805,-0.00025639,-2549.9,0.82881
684,13.042,1.6364,0,0.00025681,2566.4,8.7904e-05,37.855,8.2867e-05,0.011498,-0.00025615,-2547.2,0.8284
685,13.042,1.4545,0,0.00025652,2563.5,8.7818e-05,37.967,8.2766e-05,0.011887,-0.00025586,-2544.3,0.82794
686,13.042,1.2727,0,0.00025618,2560,8.7655e-05,37.376,8.2682e-05,0.011718,-0.00025552,-2541.1,0.82742
687,13.042,1.0909,0,0.00025578,2556.1,8.7405e-05,35.951,8.2622e-05,0.010538,-0.00025515,-2537.9,0.82684
688,13.042,0.90909,0,0.00025533,2551.6,8.7062e-05,33.604,8.2591e-05,0.0082532,-0.00025475,-2534.6,0.8262
689,13.042,0.72727,0,0.00025485,2546.7,8.6625e-05,30.291,8.2594e-05,0.0025483,-0.00025432,-2531.4,0.8255
690,13.042,0.54545,0,0.00025433,2541.5,8.6101e-05,26.029,8.2636e-05,-0.001364,-0.00025388,-2528.4,0.82475
691,13.042,0.36364,0,0.00025381,2536.4,8.5506e-05,20.918,8.2716e-05,-0.039778,-0.00025345,-2525.9,0.82395
692,13.042,0.18182,0,0.00025345,2532.8,8.4978e-05,16.018,8.2844e-05,-0.015752,-0.00025318,-2524.8,0.82308
693,12.859,5.8182,0,0.00025876,2585.8,8.6677e-05,15.396,8.4627e-05,-0.011533,-0.0002585,-2578.1,0.80252
694,12.859,5.6364,0,0.00025901,2588.3,8.7083e-05,19.269,8.4513e-05,-0.034963,-0.00025868,-2578.6,0.80339
695,12.859,5.4545,0,0.00025942,2592.4,8.7573e-05,23.541,8.4439e-05,-0.0019432,-0.00025901,-2580.5,0.80421
696,12.859,5.2727,0,0.00025983,2596.5,8.8007e-05,27.13,8.4396e-05,0.0017332,-0.00025936,-2582.8,0.80497
697,12.859,5.0909,0,0.00026022,2600.4,8.8369e-05,29.939,8.4385e-05,0.0069842,-0.00025969,-2585.3,0.80568
698,12.859,4.9091,0,0.00026057,2603.9,8.8653e-05,31.949,8.4402e-05,0.0092644,-0.00026001,-2587.8,0.80632
699,12.859,4.7273,0,0.00026088,2607,8.8859e-05,33.195,8.4443e-05,0.010549,-0.0002603,-2590.3,0.80691
700,12.859,4.5455,0,0.00026115,2609.7,8.8994e-05,33.748,8.4504e-05,0.010912,-0.00026056,-2592.7,0.80744
701,12.859,4.3636,0,0.00026137,2611.9,8.9064e-05,33.714,8.4578e-05,0.010739,-0.00026078,-2594.9,0.80791
702,12.859,4.1818,0,0.00026155,2613.7,8.9082e-05,33.223,8.4661e-05,0.010251,-0.00026097,-2596.9,0.80832
703,12.859,4,0,0.00026169,2615.1,8.906e-05,32.421,8.4747e-05,0.0096401,-0.00026112,-2598.7,0.80867
704,12.859,3.8182,0,0.00026179,2616.1,8.9014e-05,31.458,8.4828e-05,0.009046,-0.00026124,-2600.2,0.80897
705,12.859,3.6364,0,0.00026186,2616.8,8.8956e-05,30.481,8.49e-05,0.0085576,-0.00026133,-2601.4,0.8092
706,12.859,3.4545,0,0.00026191,2617.3,8.89e-05,29.621,8.4959e-05,0.0082126,-0.00026139,-2602.3,0.80938
707,12.859,3.2727,0,0.00026194,2617.6,8.8857e-05,28.983,8.5001e-05,0.008006,-0.00026143,-2603,0.80949
708,12.859,3.0909,0,0.00026195,2617.7,8.8833e-05,28.645,8.5022e-05,0.0079137,-0.00026145,-2603.3,0.80955
709,12.859,2.9091,0,0.00026195,2617.7,8.8833e-05,28.645,8.5022e-05,0.0079138,-0.00026145,-2603.3,0.80955
710,12.859,2.7273,0,0.00026194,2617.6,8.8857e-05,28.983,8.5001e-05,0.0080064,-0.00026143,-2603,0.80949
711,12.859,2.5455,0,0.00026191,2617.3,8.89e-05,29.621,8.4959e-05,0.0082132,-0.00026139,-2602.3,0.80938
712,12.859,2.3636,0,0.00026186,2616.8,8.8956e-05,30.481,8.49e-05,0.0085576,-0.00026133,-2601.4,0.8092
713,12.859,2.1818,0,0.00026179,2616.1,8.9014e-05,31.459,8.4828e-05,0.0090466,-0.00026124,-2600.2,0.80897
714,12.859,2,0,0.00026169,2615.1,8.906e-05,32.421,8.4747e-05,0.009641,-0.00026112,-2598.7,0.80867
715,12.859,1.8182,0,0.00026155,2613.7,8.9082e-05,33.223,8.4661e-05,0.010251,-0.00026097,-2596.9,0.80832
716,12.859,1.6364,0,0.00026137,2611.9,8.9064e-05,33.714,8.4578e-05,0.010739,-0.00026078,-2594.9,0.80791
717,12.859,1.4545,0,0.00026115,2609.7,8.8994e-05,33.748,8.4504e-05,0.010912,-0.00026056,-2592.7,0.80744
718,12.859,1.2727,0,0.00026088,2607,8.8859e-05,33.195,8.4443e-05,0.010549,-0.0002603,-2590.3,0.80691
719,12.859,1.0909,0,0.00026057,2603.9,8.8653e-05,31.949,8.4402e-05,0.0092652,-0.00026001,-2587.8,0.80632
720,12.859,0.90909,0,0.00026022,2600.4,8.8369e-05,29.939,8.4385e-05,0.0069849,-0.00025969,-2585.3,0.80568
721,12.859,0.72727,0,0.00025983,2596.5,8.8007e-05,27.13,8.4396e-05,0.0017348,-0.00025936,-2582.8,0.80497
722,12.859,0.54545,0,0.00025942,2592.4,8.7573e-05,23.541,8.4439e-05,-0.0019427,-0.00025901,-2580.5,0.80421
723,12.859,0.36364,0,0.00025901,2588.3,8.7083e-05,19.269,8.4513e-05,-0.034962,-0.00025868,-2578.6,0.80339
724,12.859,0.18182,0,0.00025876,2585.8,8.6677e-05,15.396,8.4627e-05,-0.011532,-0.0002585,-2578.1,0.80252
725,12.675,5.8182,0,0.000264,2638.2,8.8358e-05,14.821,8.6384e-05,-0.0083249,-0.00026375,-2630.7,0.78212
726,12.675,5.6364,0,0.00026415,2639.7,8.8657e-05,17.795,8.6285e-05,-0.030644,-0.00026384,-2630.8,0.78301
727,12.675,5.4545,0,0.00026447,2642.9,8.9055e-05,21.321,8.6217e-05,-0.0023426,-0.0002641,-2632.2,0.78384
728,12.675,5.2727,0,0.00026479,2646.1,8.9409e-05,24.304,8.6175e-05,0.0010738,-0.00026437,-2633.9,0.78461
729,12.675,5.0909,0,0.00026509,2649.1,8.9705e-05,26.65,8.6158e-05,0.005878,-0.00026463,-2635.7,0.78533
730,12.675,4.9091,0,0.00026537,2651.9,8.9936e-05,28.341,8.6165e-05,0.0081145,-0.00026488,-2637.6,0.78598
731,12.675,4.7273,0,0.00026561,2654.3,9.0104e-05,29.401,8.6192e-05,0.0094556,-0.0002651,-2639.4,0.78658
732,12.675,4.5455,0,0.00026582,2656.3,9.0212e-05,29.889,8.6235e-05,0.0099627,-0.00026529,-2641.2,0.78711
733,12.675,4.3636,0,0.00026598,2658,9.0267e-05,29.891,8.629e-05,0.0099629,-0.00026546,-2642.9,0.78759
734,12.675,4.1818,0,0.00026611,2659.3,9.0279e-05,29.515,8.6352e-05,0.0096467,-0.0002656,-2644.4,0.78801
735,12.675,4,0,0.00026621,2660.3,9.0259e-05,28.878,8.6417e-05,0.0091794,-0.00026571,-2645.7,0.78836
736,12.675,3.8182,0,0.00026629,2661,9.0219e-05,28.107,8.6479e-05,0.0086832,-0.0002658,-2646.8,0.78866
737,12.675,3.6364,0,0.00026633,2661.5,9.0169e-05,27.319,8.6534e-05,0.008245,-0.00026586,-2647.7,0.7889
738,12.675,3.4545,0,0.00026637,2661.8,9.0122e-05,26.624,8.658e-05,0.0079103,-0.0002659,-2648.4,0.78908
739,12.675,3.2727,0,0.00026639,2662,9.0085e-05,26.108,8.6611e-05,0.007692,-0.00026593,-2648.9,0.7892
740,12.675,3.0909,0,0.00026639,2662.1,9.0065e-05,25.834,8.6628e-05,0.0075864,-0.00026595,-2649.1,0.78926
741,12.675,2.9091,0,0.00026639,2662.1,9.0065e-05,25.834,8.6628e-05,0.0075866,-0.00026595,-2649.1,0.78926
742,12.675,2.7273,0,0.00026639,2662,9.0085e-05,26.108,8.6611e-05,0.0076923,-0.00026593,-2648.9,0.7892
743,12.675,2.5455,0,0.00026637,2661.8,9.0122e-05,26.624,8.658e-05,0.0079103,-0.0002659,-2648.4,0.78908
744,12.675,2.3636,0,0.00026633,2661.5,9.0169e-05,27.319,8.6534e-05,0.0082453,-0.00026586,-2647.7,0.7889
745,12.675,2.1818,0,0.00026629,2661,9.0219e-05,28.107,8.6479e-05,0.0086836,-0.0002658,-2646.8,0.78866
746,12.675,2,0,0.00026621,2660.3,9.0259e-05,28.878,8.6417e-05,0.0091797,-0.00026571,-2645.7,0.78836
747,12.675,1.8182,0,0.00026611,2659.3,9.0279e-05,29.515,8.6352e-05,0.0096467,-0.0002656,-2644.4,0.78801
748,12.675,1.6364,0,0.00026598,2658,9.0267e-05,29.891,8.629e-05,0.0099633,-0.00026546,-2642.9,0.78759
749,12.675,1.4545,0,0.00026582,2656.3,9.0212e-05,29.889,8.6235e-05,0.0099631,-0.00026529,-2641.2,0.78711
750,12.675,1.2727,0,0.00026561,2654.3,9.0104e-05,29.401,8.6192e-05,0.0094565,-0.0002651,-2639.4,0.78658
751,12.675,1.0909,0,0.00026537,2651.9,8.9936e-05,28.341,8.6165e-05,0.0081134,-0.00026488,-2637.6,0.78598
752,12.675,0.90909,0,0.00026509,2649.1,8.9705e-05,26.65,8.6158e-05,0.0058808,-0.00026463,-2635.7,0.78533
753,12.675,0.72727,0,0.00026479,2646.1,8.9409e-05,24.304,8.6175e-05,0.0010747,-0.00026437,-2633.9,0.78461
754,12.675,0.54545,0,0.00026447,2642.9,8.9055e-05,21.321,8.6217e-05,-0.0023423,-0.0002641,-2632.2,0.78384
755,12.675,0.36364,0,0.00026415,2639.7,8.8657e-05,17.795,8.6285e-05,-0.030644,-0.00026384,-2630.8,0.78301
756,12.675,0.18182,0,0.000264,2638.2,8.8358e-05,14.821,8.6384e-05,-0.0083244,-0.00026375,-2630.7,0.78212
757,12.491,5.8182,0,0.00026919,2690,9.0025e-05,14.282,8.8124e-05,-0.005985,-0.00026894,-2682.9,0.76191
758,12.491,5.6364,0,0.00026926,2690.7,9.0231e-05,16.464,8.8036e-05,-0.026818,-0.00026897,-2682.5,0.76281
759,12.491,5.4545,0,0.0002695,2693.1,9.0548e-05,19.324,8.7976e-05,-0.0026531,-0.00026917,-2683.4,0.76365
760,12.491,5.2727,0,0.00026974,2695.6,9.0831e-05,21.759,8.7935e-05,0.00048957,-0.00026937,-2684.6,0.76443
761,12.491,5.0909,0,0.00026997,2697.9,9.1067e-05,23.677,8.7916e-05,0.0048643,-0.00026956,-2686,0.76516
762,12.491,4.9091,0,0.00027018,2700,9.1251e-05,25.061,8.7916e-05,0.0070263,-0.00026975,-2687.3,0.76582
763,12.491,4.7273,0,0.00027036,2701.8,9.1383e-05,25.929,8.7933e-05,0.0083907,-0.00026991,-2688.7,0.76642
764,12.491,4.5455,0,0.00027051,2703.3,9.1466e-05,26.329,8.7963e-05,0.0090023,-0.00027006,-2690,0.76697
765,12.491,4.3636,0,0.00027064,2704.5,9.1506e-05,26.33,8.8003e-05,0.0091464,-0.00027018,-2691.2,0.76745
766,12.491,4.1818,0,0.00027073,2705.4,9.1511e-05,26.02,8.8049e-05,0.0089686,-0.00027028,-2692.3,0.76787
767,12.491,4,0,0.0002708,2706.1,9.149e-05,25.497,8.8098e-05,0.0086294,-0.00027035,-2693.3,0.76824
768,12.491,3.8182,0,0.00027085,2706.6,9.1453e-05,24.864,8.8145e-05,0.0082315,-0.00027041,-2694.1,0.76854
769,12.491,3.6364,0,0.00027088,2706.9,9.141e-05,24.218,8.8188e-05,0.0078566,-0.00027046,-2694.7,0.76878
770,12.491,3.4545,0,0.0002709,2707.1,9.1369e-05,23.647,8.8223e-05,0.0075536,-0.00027049,-2695.2,0.76896
771,12.491,3.2727,0,0.00027091,2707.2,9.1337e-05,23.224,8.8247e-05,0.007346,-0.0002705,-2695.5,0.76908
772,12.491,3.0909,0,0.00027091,2707.2,9.132e-05,22.999,8.826e-05,0.0072413,-0.00027051,-2695.7,0.76914
773,12.491,2.9091,0,0.00027091,2707.2,9.132e-05,22.999,8.826e-05,0.0072414,-0.00027051,-2695.7,0.76914
774,12.491,2.7273,0,0.00027091,2707.2,9.1337e-05,23.224,8.8247e-05,0.007346,-0.0002705,-2695.5,0.76908
775,12.491,2.5455,0,0.0002709,2707.1,9.1369e-05,23.647,8.8223e-05,0.0075538,-0.00027049,-2695.2,0.76896
776,12.491,2.3636,0,0.00027088,2706.9,9.141e-05,24.218,8.8188e-05,0.0078559,-0.00027046,-2694.7,0.76878
777,12.491,2.1818,0,0.00027085,2706.6,9.1453e-05,24.864,8.8145e-05,0.0082323,-0.00027041,-2694.1,0.76854
778,12.491,2,0,0.0002708,2706.1,9.149e-05,25.497,8.8098e-05,0.0086294,-0.00027035,-2693.3,0.76824
779,12.491,1.8182,0,0.00027073,2705.4,9.1511e-05,26.02,8.8049e-05,0.0089688,-0.00027028,-2692.3,0.76787
780,12.491,1.6364,0,0.00027064,2704.5,9.1506e-05,26.33,8.8003e-05,0.0091464,-0.00027018,-2691.2,0.76745
781,12.491,1.4545,0,0.00027051,2703.3,9.1466e-05,26.329,8.7963e-05,0.0090032,-0.00027006,-2690,0.76697
782,12.491,1.2727,0,0.00027036,2701.8,9.1383e-05,25.929,8.7933e-05,0.0083914,-0.00026991,-2688.7,0.76642
783,12.491,1.0909,0,0.00027018,2700,9.1251e-05,25.061,8.7916e-05,0.007027,-0.00026975,-2687.3,0.76582
784,12.491,0.90909,0,0.00026997,2697.9,9.1067e-05,23.677,8.7916e-05,0.0048651,-0.00026956,-2686,0.76516
785,12.491,0.72727,0,0.00026974,2695.6,9.0831e-05,21.759,8.7935e-05,0.00049131,-0.00026937,-2684.6,0.76443
786,12.491,0.54545,0,0.0002695,2693.1,9.0548e-05,19.324,8.7976e-05,-0.0026526,-0.00026917,-2683.4,0.76365
787,12.491,0.36364,0,0.00026926,2690.7,9.0231e-05,16.464,8.8036e-05,-0.026818,-0.00026897,-2682.5,0.76281
788,12.491,0.18182,0,0.00026919,2690,9.0025e-05,14.282,8.8124e-05,-0.0059845,-0.00026894,-2682.9,0.76191
789,12.308,5.8182,0,0.00027434,2741.5,9.1683e-05,13.77,8.985e-05,-0.0042825,-0.00027411,-2734.6,0.74187
790,12.308,5.6364,0,0.00027434,2741.5,9.1807e-05,15.251,8.9774e-05,-0.023362,-0.00027408,-2733.9,0.74279
791,12.308,5.4545,0,0.00027451,2743.2,9.2051e-05,17.511,8.972e-05,-0.0028381,-0.00027421,-2734.4,0.74364
792,12.308,5.2727,0,0.00027469,2745,9.2271e-05,19.445,8.9683e-05,3.1223e-05,-0.00027435,-2735.2,0.74443
793,12.308,5.0909,0,0.00027486,2746.7,9.2453e-05,20.964,8.9663e-05,0.0039922,-0.0002745,-2736.1,0.74517
794,12.308,4.9091,0,0.00027501,2748.2,9.2593e-05,22.052,8.9659e-05,0.0060611,-0.00027463,-2737.1,0.74584
795,12.308,4.7273,0,0.00027514,2749.5,9.2692e-05,22.722,8.9669e-05,0.0074229,-0.00027474,-2738.1,0.74645
796,12.308,4.5455,0,0.00027524,2750.5,9.2751e-05,23.012,8.9689e-05,0.0081092,-0.00027485,-2739,0.747
797,12.308,4.3636,0,0.00027533,2751.4,9.2776e-05,22.98,8.9718e-05,0.008356,-0.00027493,-2739.8,0.74749
798,12.308,4.1818,0,0.00027539,2752,9.2772e-05,22.696,8.9753e-05,0.0083042,-0.000275,-2740.6,0.74792
799,12.308,4,0,0.00027543,2752.4,9.2749e-05,22.243,8.9789e-05,0.0080779,-0.00027505,-2741.2,0.74829
800,12.308,3.8182,0,0.00027546,2752.7,9.2713e-05,21.702,8.9825e-05,0.0077738,-0.00027508,-2741.8,0.7486
801,12.308,3.6364,0,0.00027548,2752.9,9.2673e-05,21.156,8.9858e-05,0.0074657,-0.00027511,-2742.2,0.74884
802,12.308,3.4545,0,0.00027549,2753,9.2635e-05,20.675,8.9885e-05,0.0072063,-0.00027513,-2742.6,0.74902
803,12.308,3.2727,0,0.00027549,2753,9.2607e-05,20.32,8.9904e-05,0.0070207,-0.00027514,-2742.8,0.74915
804,12.308,3.0909,0,0.00027549,2753,9.2592e-05,20.132,8.9913e-05,0.0069249,-0.00027514,-2742.9,0.74921
805,12.308,2.9091,0,0.00027549,2753,9.2592e-05,20.132,8.9913e-05,0.0069247,-0.00027514,-2742.9,0.74921
806,12.308,2.7273,0,0.00027549,2753,9.2607e-05,20.32,8.9904e-05,0.0070204,-0.00027514,-2742.8,0.74915
807,12.308,2.5455,0,0.00027549,2753,9.2635e-05,20.675,8.9885e-05,0.0072064,-0.00027513,-2742.6,0.74902
808,12.308,2.3636,0,0.00027548,2752.9,9.2673e-05,21.156,8.9858e-05,0.0074668,-0.00027511,-2742.2,0.74884
809,12.308,2.1818,0,0.00027546,2752.7,9.2713e-05,21.703,8.9825e-05,0.0077739,-0.00027508,-2741.8,0.7486
810,12.308,2,0,0.00027543,2752.4,9.2749e-05,22.243,8.9789e-05,0.0080781,-0.00027505,-2741.2,0.74829
811,12.308,1.8182,0,0.00027539,2752,9.2772e-05,22.696,8.9753e-05,0.0083043,-0.000275,-2740.6,0.74792
812,12.308,1.6364,0,0.00027533,2751.4,9.2776e-05,22.98,8.9718e-05,0.0083571,-0.00027493,-2739.8,0.74749
813,12.308,1.4545,0,0.00027524,2750.5,9.2751e-05,23.012,8.9689e-05,0.0081095,-0.00027485,-2739,0.747
814,12.308,1.2727,0,0.00027514,2749.5,9.2692e-05,22.722,8.9669e-05,0.0074236,-0.00027474,-2738.1,0.74645
815,12.308,1.0909,0,0.00027501,2748.2,9.2593e-05,22.052,8.9659e-05,0.0060614,-0.00027463,-2737.1,0.74584
816,12.308,0.90909,0,0.00027486,2746.7,9.2453e-05,20.964,8.9663e-05,0.0039932,-0.0002745,-2736.1,0.74517
817,12.308,0.72727,0,0.00027469,2745,9.2271e-05,19.445,8.9683e-05,3.2926e-05,-0.00027435,-2735.2,0.74443
818,12.308,0.54545,0,0.00027451,2743.2,9.2051e-05,17.511,8.972e-05,-0.0028389,-0.00027421,-2734.4,0.74364
819,12.308,0.36364,0,0.00027434,2741.5,9.1807e-05,15.251,8.9774e-05,-0.023362,-0.00027408,-2733.9,0.74279
820,12.308,0.18182,0,0.00027434,2741.5,9.1683e-05,13.77,8.985e-05,-0.0042809,-0.00027411,-2734.6,0.74187
821,12.124,5.8182,0,0.00027947,2792.8,9.3334e-05,13.277,9.1566e-05,-0.0030401,-0.00027924,-2786.1,0.72202
822,12.124,5.6364,0,0.00027941,2792.1,9.3385e-05,14.132,9.1501e-05,-0.020173,-0.00027916,-2785.1,0.72295
823,12.124,5.4545,0,0.00027952,2793.3,9.3564e-05,15.849,9.1455e-05,-0.0028761,-0.00027925,-2785.3,0.72381
824,12.124,5.2727,0,0.00027964,2794.5,9.3727e-05,17.321,9.1422e-05,-0.00027539,-0.00027934,-2785.8,0.72462
825,12.124,5.0909,0,0.00027975,2795.6,9.386e-05,18.464,9.1403e-05,0.0032887,-0.00027943,-2786.3,0.72536
826,12.124,4.9091,0,0.00027985,2796.6,9.3959e-05,19.263,9.1396e-05,0.0052511,-0.00027952,-2786.9,0.72605
827,12.124,4.7273,0,0.00027994,2797.5,9.4026e-05,19.728,9.1401e-05,0.0065904,-0.0002796,-2787.5,0.72667
828,12.124,4.5455,0,0.00028001,2798.1,9.4062e-05,19.891,9.1415e-05,0.007327,-0.00027966,-2788.1,0.72723
829,12.124,4.3636,0,0.00028006,2798.6,9.407e-05,19.797,9.1437e-05,0.0076604,-0.00027971,-2788.7,0.72772
830,12.124,4.1818,0,0.00028009,2799,9.4057e-05,19.506,9.1462e-05,0.0077083,-0.00027975,-2789.2,0.72816
831,12.124,4,0,0.00028011,2799.2,9.4029e-05,19.083,9.149e-05,0.0075806,-0.00027978,-2789.6,0.72853
832,12.124,3.8182,0,0.00028012,2799.3,9.3992e-05,18.598,9.1518e-05,0.0073621,-0.0002798,-2789.9,0.72884
833,12.124,3.6364,0,0.00028012,2799.3,9.3953e-05,18.116,9.1543e-05,0.0071215,-0.00027981,-2790.2,0.72909
834,12.124,3.4545,0,0.00028012,2799.3,9.3918e-05,17.696,9.1563e-05,0.0069074,-0.00027982,-2790.4,0.72927
835,12.124,3.2727,0,0.00028012,2799.3,9.3891e-05,17.388,9.1578e-05,0.0067496,-0.00027982,-2790.5,0.7294
836,12.124,3.0909,0,0.00028012,2799.3,9.3877e-05,17.225,9.1586e-05,0.0066672,-0.00027982,-2790.6,0.72946
837,12.124,2.9091,0,0.00028012,2799.3,9.3877e-05,17.225,9.1586e-05,0.0066668,-0.00027982,-2790.6,0.72946
838,12.124,2.7273,0,0.00028012,2799.3,9.3891e-05,17.388,9.1578e-05,0.0067501,-0.00027982,-2790.5,0.7294
839,12.124,2.5455,0,0.00028012,2799.3,9.3918e-05,17.696,9.1563e-05,0.0069077,-0.00027982,-2790.4,0.72927
840,12.124,2.3636,0,0.00028012,2799.3,9.3953e-05,18.116,9.1543e-05,0.0071216,-0.00027981,-2790.2,0.72909
841,12.124,2.1818,0,0.00028012,2799.3,9.3992e-05,18.598,9.1518e-05,0.0073627,-0.0002798,-2789.9,0.72884
842,12.124,2,0,0.00028011,2799.2,9.4029e-05,19.083,9.149e-05,0.0075813,-0.00027978,-2789.6,0.72853
843,12.124,1.8182,0,0.00028009,2799,9.4057e-05,19.506,9.1462e-05,0.0077083,-0.00027975,-2789.2,0.72816
844,12.124,1.6364,0,0.00028006,2798.6,9.407e-05,19.797,9.1437e-05,0.0076604,-0.00027971,-2788.7,0.72772
845,12.124,1.4545,0,0.00028001,2798.1,9.4062e-05,19.891,9.1415e-05,0.0073277,-0.00027966,-2788.1,0.72723
846,12.124,1.2727,0,0.00027994,2797.5,9.4026e-05,19.728,9.1401e-05,0.0065907,-0.0002796,-2787.5,0.72667
847,12.124,1.0909,0,0.00027985,2796.6,9.3959e-05,19.263,9.1396e-05,0.0052517,-0.00027952,-2786.9,0.72605
848,12.124,0.90909,0,0.00027975,2795.6,9.386e-05,18.464,9.1403e-05,0.0032906,-0.00027943,-2786.3,0.72536
849,12.124,0.72727,0,0.00027964,2794.5,9.3727e-05,17.321,9.1422e-05,-0.00027389,-0.00027934,-2785.8,0.72462
850,12.124,0.54545,0,0.00027952,2793.3,9.3564e-05,15.849,9.1455e-05,-0.0028768,-0.00027925,-2785.3,0.72382
851,12.124,0.36364,0,0.00027941,2792.1,9.3385e-05,14.132,9.1501e-05,-0.020172,-0.00027916,-2785.1,0.72295
852,12.124,0.18182,0,0.00027947,2792.8,9.3334e-05,13.277,9.1566e-05,-0.0030388,-0.00027924,-2786.1,0.72202
853,11.94,5.8182,0,0.00028458,2843.9,9.4981e-05,12.797,9.3277e-05,-0.0021471,-0.00028436,-2837.4,0.70236
854,11.94,5.6364,0,0.00028446,2842.7,9.4967e-05,13.087,9.3223e-05,-0.01719,-0.00028424,-2836.1,0.7033
855,11.94,5.4545,0,0.00028452,2843.3,9.5087e-05,14.306,9.3183e-05,-0.0027757,-0.00028428,-2836.1,0.70418
856,11.94,5.2727,0,0.00028459,2844,9.5197e-05,15.348,9.3154e-05,-0.00043936,-0.00028433,-2836.3,0.70499
857,11.94,5.0909,0,0.00028466,2844.6,9.5284e-05,16.134,9.3137e-05,0.0027445,-0.00028438,-2836.5,0.70575
858,11.94,4.9091,0,0.00028472,2845.2,9.5346e-05,16.65,9.3131e-05,0.0045879,-0.00028443,-2836.8,0.70644
859,11.94,4.7273,0,0.00028476,2845.6,9.5382e-05,16.905,9.3133e-05,0.0058902,-0.00028447,-2837.2,0.70707
860,11.94,4.5455,0,0.00028479,2846,9.5395e-05,16.923,9.3143e-05,0.0066582,-0.0002845,-2837.5,0.70764
861,11.94,4.3636,0,0.00028482,2846.2,9.5387e-05,16.744,9.3159e-05,0.0070583,-0.00028453,-2837.8,0.70814
862,11.94,4.1818,0,0.00028483,2846.3,9.5362e-05,16.415,9.3179e-05,0.0071907,-0.00028454,-2838,0.70858
863,11.94,4,0,0.00028483,2846.3,9.5327e-05,15.99,9.32e-05,0.0071482,-0.00028455,-2838.3,0.70896
864,11.94,3.8182,0,0.00028482,2846.3,9.5287e-05,15.527,9.3222e-05,0.007008,-0.00028455,-2838.5,0.70927
865,11.94,3.6364,0,0.00028481,2846.2,9.5247e-05,15.08,9.3241e-05,0.0068302,-0.00028455,-2838.6,0.70952
866,11.94,3.4545,0,0.0002848,2846.1,9.5212e-05,14.696,9.3257e-05,0.0066626,-0.00028455,-2838.7,0.70971
867,11.94,3.2727,0,0.0002848,2846,9.5187e-05,14.417,9.3269e-05,0.006534,-0.00028455,-2838.8,0.70984
868,11.94,3.0909,0,0.00028479,2846,9.5173e-05,14.27,9.3275e-05,0.0064656,-0.00028455,-2838.8,0.7099
869,11.94,2.9091,0,0.00028479,2846,9.5173e-05,14.27,9.3275e-05,0.0064655,-0.00028455,-2838.8,0.7099
870,11.94,2.7273,0,0.0002848,2846,9.5187e-05,14.417,9.3269e-05,0.0065347,-0.00028455,-2838.8,0.70984
871,11.94,2.5455,0,0.0002848,2846.1,9.5212e-05,14.696,9.3257e-05,0.0066623,-0.00028455,-2838.7,0.70971
872,11.94,2.3636,0,0.00028481,2846.2,9.5247e-05,15.08,9.3241e-05,0.0068302,-0.00028455,-2838.6,0.70952
873,11.94,2.1818,0,0.00028482,2846.3,9.5287e-05,15.527,9.3222e-05,0.0070082,-0.00028455,-2838.5,0.70927
874,11.94,2,0,0.00028483,2846.3,9.5327e-05,15.991,9.32e-05,0.0071488,-0.00028455,-2838.3,0.70896
875,11.94,1.8182,0,0.00028483,2846.3,9.5362e-05,16.415,9.3179e-05,0.0071909,-0.00028454,-2838,0.70858
876,11.94,1.6364,0,0.00028482,2846.2,9.5387e-05,16.744,9.3159e-05,0.0070591,-0.00028453,-2837.8,0.70814
877,11.94,1.4545,0,0.00028479,2846,9.5395e-05,16.923,9.3143e-05,0.0066598,-0.0002845,-2837.5,0.70764
878,11.94,1.2727,0,0.00028476,2845.6,9.5382e-05,16.905,9.3133e-05,0.0058905,-0.00028447,-2837.2,0.70707
879,11.94,1.0909,0,0.00028472,2845.2,9.5346e-05,16.65,9.3131e-05,0.0045883,-0.00028443,-2836.8,0.70644
880,11.94,0.90909,0,0.00028466,2844.6,9.5284e-05,16.134,9.3137e-05,0.0027449,-0.00028438,-2836.5,0.70575
881,11.94,0.72727,0,0.00028459,2844,9.5197e-05,15.348,9.3154e-05,-0.00043737,-0.00028433,-2836.3,0.70499
882,11.94,0.54545,0,0.00028452,2843.3,9.5087e-05,14.306,9.3183e-05,-0.0027749,-0.00028428,-2836.1,0.70418
883,11.94,0.36364,0,0.00028446,2842.7,9.4967e-05,13.087,9.3223e-05,-0.017191,-0.00028424,-2836.1,0.7033
884,11.94,0.18182,0,0.00028458,2843.9,9.4981e-05,12.797,9.3277e-05,-0.0021469,-0.00028436,-2837.4,0.70236
885,11.757,5.8182,0,0.00028969,2894.9,9.6626e-05,12.323,9.4985e-05,-0.0015807,-0.00028947,-2888.7,0.68288
886,11.757,5.6364,0,0.00028952,2893.2,9.6553e-05,12.099,9.494e-05,-0.014425,-0.00028931,-2887.1,0.68384
887,11.757,5.4545,0,0.00028953,2893.3,9.6619e-05,12.856,9.4908e-05,-0.002611,-0.00028931,-2886.9,0.68473
888,11.757,5.2727,0,0.00028956,2893.6,9.668e-05,13.494,9.4884e-05,-0.00053377,-0.00028932,-2886.8,0.68556
889,11.757,5.0909,0,0.00028958,2893.8,9.6725e-05,13.937,9.487e-05,0.002279,-0.00028934,-2886.8,0.68632
890,11.757,4.9091,0,0.0002896,2894,9.675e-05,14.174,9.4864e-05,0.0039958,-0.00028935,-2886.8,0.68703
891,11.757,4.7273,0,0.00028961,2894.1,9.6757e-05,14.212,9.4866e-05,0.0052478,-0.00028936,-2886.9,0.68766
892,11.757,4.5455,0,0.00028961,2894.1,9.6746e-05,14.071,9.4874e-05,0.0060339,-0.00028937,-2887,0.68824
893,11.757,4.3636,0,0.0002896,2894,9.672e-05,13.785,9.4886e-05,0.0064857,-0.00028937,-2887.1,0.68875
894,11.757,4.1818,0,0.00028959,2893.9,9.6683e-05,13.392,9.4902e-05,0.0066894,-0.00028936,-2887.2,0.68919
895,11.757,4,0,0.00028958,2893.8,9.664e-05,12.938,9.4919e-05,0.0067225,-0.00028935,-2887.3,0.68958
896,11.757,3.8182,0,0.00028956,2893.6,9.6595e-05,12.47,9.4936e-05,0.0066511,-0.00028934,-2887.3,0.6899
897,11.757,3.6364,0,0.00028954,2893.4,9.6552e-05,12.031,9.4952e-05,0.0065333,-0.00028933,-2887.3,0.69015
898,11.757,3.4545,0,0.00028952,2893.2,9.6516e-05,11.663,9.4964e-05,0.0064097,-0.00028932,-2887.4,0.69034
899,11.757,3.2727,0,0.00028951,2893.1,9.649e-05,11.398,9.4974e-05,0.0063109,-0.00028931,-2887.4,0.69047
900,11.757,3.0909,0,0.0002895,2893,9.6476e-05,11.26,9.4978e-05,0.0062564,-0.00028931,-2887.4,0.69053
901,11.757,2.9091,0,0.0002895,2893,9.6476e-05,11.26,9.4978e-05,0.0062566,-0.00028931,-2887.4,0.69053
902,11.757,2.7273,0,0.00028951,2893.1,9.649e-05,11.398,9.4974e-05,0.0063108,-0.00028931,-2887.4,0.69047
903,11.757,2.5455,0,0.00028952,2893.2,9.6516e-05,11.663,9.4964e-05,0.0064101,-0.00028932,-2887.4,0.69034
904,11.757,2.3636,0,0.00028954,2893.4,9.6552e-05,12.031,9.4952e-05,0.0065328,-0.00028933,-2887.3,0.69015
905,11.757,2.1818,0,0.00028956,2893.6,9.6595e-05,12.47,9.4936e-05,0.0066523,-0.00028934,-2887.3,0.6899
906,11.757,2,0,0.00028958,2893.8,9.664e-05,12.938,9.4919e-05,0.0067231,-0.00028935,-2887.3,0.68958
907,11.757,1.8182,0,0.00028959,2893.9,9.6683e-05,13.392,9.4902e-05,0.0066895,-0.00028936,-2887.2,0.68919
908,11.757,1.6364,0,0.0002896,2894,9.672e-05,13.785,9.4886e-05,0.0064864,-0.00028937,-2887.1,0.68875
909,11.757,1.4545,0,0.00028961,2894.1,9.6746e-05,14.071,9.4874e-05,0.0060345,-0.00028937,-2887,0.68824
910,11.757,1.2727,0,0.00028961,2894.1,9.6757e-05,14.212,9.4866e-05,0.0052481,-0.00028936,-2886.9,0.68766
911,11.757,1.0909,0,0.0002896,2894,9.675e-05,14.174,9.4864e-05,0.0039967,-0.00028935,-2886.8,0.68703
912,11.757,0.90909,0,0.00028958,2893.8,9.6725e-05,13.937,9.487e-05,0.00228,-0.00028934,-2886.8,0.68632
913,11.757,0.72727,0,0.00028956,2893.6,9.668e-05,13.494,9.4884e-05,-0.00053297,-0.00028932,-2886.8,0.68556
914,11.757,0.54545,0,0.00028953,2893.3,9.6619e-05,12.856,9.4908e-05,-0.0026112,-0.00028931,-2886.9,0.68473
915,11.757,0.36364,0,0.00028952,2893.2,9.6553e-05,12.099,9.494e-05,-0.014425,-0.00028931,-2887.1,0.68384
916,11.757,0.18182,0,0.00028969,2894.9,9.6626e-05,12.323,9.4985e-05,-0.0015803,-0.00028947,-2888.7,0.68288
917,11.573,5.8182,0,0.00029479,2945.8,9.827e-05,11.85,9.6692e-05,-0.0013473,-0.00029458,-2939.9,0.66361
918,11.573,5.6364,0,0.00029458,2943.7,9.8143e-05,11.153,9.6657e-05,-0.011898,-0.00029439,-2938.2,0.66457
919,11.573,5.4545,0,0.00029455,2943.4,9.8159e-05,11.476,9.6631e-05,-0.0024582,-0.00029435,-2937.7,0.66548
920,11.573,5.2727,0,0.00029453,2943.3,9.8174e-05,11.729,9.6613e-05,-0.00063983,-0.00029433,-2937.4,0.66632
921,11.573,5.0909,0,0.00029451,2943.1,9.8178e-05,11.84,9.6602e-05,0.0018052,-0.00029431,-2937.2,0.66709
922,11.573,4.9091,0,0.0002945,2942.9,9.8169e-05,11.799,9.6599e-05,0.0033834,-0.00029429,-2937,0.66781
923,11.573,4.7273,0,0.00029447,2942.7,9.8146e-05,11.614,9.6601e-05,0.0045731,-0.00029427,-2936.9,0.66845
924,11.573,4.5455,0,0.00029445,2942.4,9.8111e-05,11.301,9.6608e-05,0.0053649,-0.00029425,-2936.8,0.66903
925,11.573,4.3636,0,0.00029442,2942.1,9.8067e-05,10.889,9.6619e-05,0.0058593,-0.00029423,-2936.7,0.66955
926,11.573,4.1818,0,0.00029439,2941.8,9.8017e-05,10.41,9.6632e-05,0.0061244,-0.00029421,-2936.6,0.67
927,11.573,4,0,0.00029435,2941.5,9.7963e-05,9.9025,9.6646e-05,0.0062267,-0.00029418,-2936.5,0.67039
928,11.573,3.8182,0,0.00029432,2941.2,9.7911e-05,9.4042,9.666e-05,0.0062226,-0.00029416,-2936.5,0.67072
929,11.573,3.6364,0,0.00029429,2940.9,9.7864e-05,8.9529,9.6673e-05,0.0061603,-0.00029414,-2936.4,0.67097
930,11.573,3.4545,0,0.00029427,2940.7,9.7826e-05,8.582,9.6684e-05,0.0060804,-0.00029412,-2936.4,0.67117
931,11.573,3.2727,0,0.00029425,2940.5,9.7798e-05,8.3186,9.6692e-05,0.0060108,-0.00029411,-2936.3,0.6713
932,11.573,3.0909,0,0.00029424,2940.4,9.7784e-05,8.182,9.6696e-05,0.0059707,-0.0002941,-2936.3,0.67136
933,11.573,2.9091,0,0.00029424,2940.4,9.7784e-05,8.182,9.6696e-05,0.005971,-0.0002941,-2936.3,0.67136
934,11.573,2.7273,0,0.00029425,2940.5,9.7798e-05,8.3186,9.6692e-05,0.0060105,-0.00029411,-2936.3,0.6713
935,11.573,2.5455,0,0.00029427,2940.7,9.7826e-05,8.582,9.6684e-05,0.0060802,-0.00029412,-2936.4,0.67117
936,11.573,2.3636,0,0.00029429,2940.9,9.7864e-05,8.9529,9.6673e-05,0.0061601,-0.00029414,-2936.4,0.67097
937,11.573,2.1818,0,0.00029432,2941.2,9.7911e-05,9.4042,9.666e-05,0.0062216,-0.00029416,-2936.5,0.67072
938,11.573,2,0,0.00029435,2941.5,9.7963e-05,9.9025,9.6646e-05,0.0062272,-0.00029418,-2936.5,0.67039
939,11.573,1.8182,0,0.00029439,2941.8,9.8017e-05,10.41,9.6632e-05,0.0061245,-0.00029421,-2936.6,0.67
940,11.573,1.6364,0,0.00029442,2942.1,9.8067e-05,10.889,9.6619e-05,0.0058595,-0.00029423,-2936.7,0.66955
941,11.573,1.4545,0,0.00029445,2942.4,9.8111e-05,11.301,9.6608e-05,0.0053656,-0.00029425,-2936.8,0.66903
942,11.573,1.2727,0,0.00029447,2942.7,9.8146e-05,11.614,9.6601e-05,0.0045737,-0.00029427,-2936.9,0.66845
943,11.573,1.0909,0,0.0002945,2942.9,9.8169e-05,11.799,9.6599e-05,0.0033837,-0.00029429,-2937,0.66781
944,11.573,0.90909,0,0.00029451,2943.1,9.8178e-05,11.84,9.6602e-05,0.0018074,-0.00029431,-2937.2,0.66709
945,11.573,0.72727,0,0.00029453,2943.3,9.8174e-05,11.729,9.6613e-05,-0.00063956,-0.00029433,-2937.4,0.66632
946,11.573,0.54545,0,0.00029455,2943.4,9.8159e-05,11.476,9.6631e-05,-0.0024578,-0.00029435,-2937.7,0.66548
947,11.573,0.36364,0,0.00029458,2943.7,9.8143e-05,11.153,9.6657e-05,-0.011897,-0.00029439,-2938.2,0.66457
948,11.573,0.18182,0,0.00029479,2945.8,9.827e-05,11.85,9.6692e-05,-0.001346,-0.00029458,-2939.9,0.66361
949,11.389,5.8182,0,0.00029989,2996.8,9.9914e-05,11.374,9.84e-05,-0.0013062,-0.0002997,-2991.1,0.64453
950,11.389,5.6364,0,0.00029964,2994.4,9.9737e-05,10.234,9.8374e-05,-0.0094645,-0.00029947,-2989.2,0.64551
951,11.389,5.4545,0,0.00029957,2993.6,9.9706e-05,10.145,9.8355e-05,-0.0022208,-0.0002994,-2988.6,0.64643
952,11.389,5.2727,0,0.00029952,2993.1,9.9678e-05,10.029,9.8343e-05,-0.00067069,-0.00029934,-2988.1,0.64728
953,11.389,5.0909,0,0.00029946,2992.6,9.9643e-05,9.8143,9.8337e-05,0.0013995,-0.0002993,-2987.6,0.64806
954,11.389,4.9091,0,0.00029941,2992.1,9.9599e-05,9.4958,9.8336e-05,0.0028168,-0.00029925,-2987.3,0.64878
955,11.389,4.7273,0,0.00029936,2991.5,9.9547e-05,9.0802,9.8339e-05,0.0039278,-0.00029921,-2987,0.64944
956,11.389,4.5455,0,0.00029931,2991,9.9489e-05,8.5832,9.8347e-05,0.0047107,-0.00029916,-2986.7,0.65003
957,11.389,4.3636,0,0.00029926,2990.5,9.9425e-05,8.0281,9.8357e-05,0.0052403,-0.00029912,-2986.5,0.65055
958,11.389,4.1818,0,0.00029921,2990,9.9359e-05,7.4433,9.8369e-05,0.0055652,-0.00029908,-2986.3,0.65101
959,11.389,4,0,0.00029916,2989.5,9.9295e-05,6.8603,9.8382e-05,0.0057368,-0.00029904,-2986.1,0.65141
960,11.389,3.8182,0,0.00029911,2989.1,9.9234e-05,6.3118,9.8395e-05,0.0058013,-0.00029901,-2985.9,0.65173
961,11.389,3.6364,0,0.00029908,2988.7,9.9181e-05,5.8289,9.8406e-05,0.0058014,-0.00029898,-2985.8,0.652
962,11.389,3.4545,0,0.00029905,2988.4,9.9139e-05,5.4398,9.8416e-05,0.005771,-0.00029895,-2985.7,0.65219
963,11.389,3.2727,0,0.00029902,2988.2,9.9109e-05,5.1669,9.8422e-05,0.0057348,-0.00029894,-2985.6,0.65232
964,11.389,3.0909,0,0.00029901,2988.1,9.9094e-05,5.0263,9.8426e-05,0.0057121,-0.00029893,-2985.6,0.65239
965,11.389,2.9091,0,0.00029901,2988.1,9.9094e-05,5.0263,9.8426e-05,0.0057119,-0.00029893,-2985.6,0.65239
966,11.389,2.7273,0,0.00029902,2988.2,9.9109e-05,5.1669,9.8422e-05,0.0057352,-0.00029894,-2985.6,0.65232
967,11.389,2.5455,0,0.00029905,2988.4,9.9139e-05,5.4398,9.8416e-05,0.0057718,-0.00029895,-2985.7,0.65219
968,11.389,2.3636,0,0.00029908,2988.7,9.9181e-05,5.829,9.8406e-05,0.0058009,-0.00029898,-2985.8,0.652
969,11.389,2.1818,0,0.00029911,2989.1,9.9234e-05,6.3118,9.8395e-05,0.0058027,-0.00029901,-2985.9,0.65173
970,11.389,2,0,0.00029916,2989.5,9.9295e-05,6.8603,9.8382e-05,0.0057374,-0.00029904,-2986.1,0.65141
971,11.389,1.8182,0,0.00029921,2990,9.9359e-05,7.4433,9.8369e-05,0.0055657,-0.00029908,-2986.3,0.65101
972,11.389,1.6364,0,0.00029926,2990.5,9.9425e-05,8.0281,9.8357e-05,0.0052407,-0.00029912,-2986.5,0.65055
973,11.389,1.4545,0,0.00029931,2991,9.9489e-05,8.5832,9.8347e-05,0.0047122,-0.00029916,-2986.7,0.65003
974,11.389,1.2727,0,0.00029936,2991.5,9.9547e-05,9.0802,9.8339e-05,0.0039281,-0.00029921,-2987,0.64944
975,11.389,1.0909,0,0.00029941,2992.1,9.9599e-05,9.4959,9.8336e-05,0.0028174,-0.00029925,-2987.3,0.64878
976,11.389,0.90909,0,0.00029946,2992.6,9.9643e-05,9.8144,9.8337e-05,0.0014005,-0.0002993,-2987.6,0.64806
977,11.389,0.72727,0,0.00029952,2993.1,9.9678e-05,10.029,9.8343e-05,-0.00066913,-0.00029934,-2988.1,0.64728
978,11.389,0.54545,0,0.00029957,2993.6,9.9706e-05,10.145,9.8355e-05,-0.0022203,-0.0002994,-2988.6,0.64643
979,11.389,0.36364,0,0.00029964,2994.4,9.9737e-05,10.234,9.8374e-05,-0.0094638,-0.00029947,-2989.2,0.64551
980,11.389,0.18182,0,0.00029989,2996.8,9.9914e-05,11.374,9.84e-05,-0.0013058,-0.0002997,-2991.1,0.64453
981,11.205,5.8182,0,0.000305,3047.9,0.00010156,10.89,0.00010011,-0.0013888,-0.00030481,-3042.4,0.62565
982,11.205,5.6364,0,0.00030472,3045,0.00010134,9.3311,0.00010009,-0.0070454,-0.00030456,-3040.4,0.62664
983,11.205,5.4545,0,0.00030461,3044,0.00010126,8.8466,0.00010008,-0.0018632,-0.00030446,-3039.5,0.62757
984,11.205,5.2727,0,0.00030452,3043.1,0.00010119,8.3696,0.00010008,-0.00060333,-0.00030437,-3038.9,0.62844
985,11.205,5.0909,0,0.00030443,3042.2,0.00010112,7.8339,0.00010007,0.0010538,-0.0003043,-3038.3,0.62923
986,11.205,4.9091,0,0.00030435,3041.4,0.00010104,7.2356,0.00010008,0.0022653,-0.00030422,-3037.7,0.62996
987,11.205,4.7273,0,0.00030427,3040.6,0.00010096,6.5823,0.00010008,0.0032555,-0.00030416,-3037.3,0.63063
988,11.205,4.5455,0,0.00030419,3039.8,0.00010087,5.8886,0.00010009,0.0039991,-0.00030409,-3036.9,0.63123
989,11.205,4.3636,0,0.00030412,3039.1,0.00010079,5.1751,0.0001001,0.0045421,-0.00030403,-3036.5,0.63176
990,11.205,4.1818,0,0.00030405,3038.4,0.00010071,4.4664,0.00010011,0.004919,-0.00030397,-3036.1,0.63222
991,11.205,4,0,0.00030398,3037.7,0.00010063,3.7896,0.00010013,0.0051669,-0.00030392,-3035.8,0.63262
992,11.205,3.8182,0,0.00030393,3037.2,0.00010056,3.1726,0.00010014,0.0053197,-0.00030387,-3035.6,0.63295
993,11.205,3.6364,0,0.00030388,3036.7,0.0001005,2.6418,0.00010015,0.0054123,-0.00030384,-3035.4,0.63322
994,11.205,3.4545,0,0.00030384,3036.3,0.00010045,2.2209,0.00010016,0.0054689,-0.00030381,-3035.2,0.63342
995,11.205,3.2727,0,0.00030382,3036.1,0.00010042,1.929,0.00010017,0.0055024,-0.00030379,-3035.1,0.63355
996,11.205,3.0909,0,0.00030381,3036,0.0001004,1.7795,0.00010017,0.0055198,-0.00030378,-3035.1,0.63362
997,11.205,2.9091,0,0.00030381,3036,0.0001004,1.7795,0.00010017,0.0055199,-0.00030378,-3035.1,0.63362
998,11.205,2.7273,0,0.00030382,3036.1,0.00010042,1.929,0.00010017,0.0055028,-0.00030379,-3035.1,0.63355
999,11.205,2.5455,0,0.00030384,3036.3,0.00010045,2.2209,0.00010016,0.0054687,-0.00030381,-3035.2,0.63342
1000,11.205,2.3636,0,0.00030388,3036.7,0.0001005,2.6418,0.00010015,0.0054128,-0.00030384,-3035.4,0.63322
1001,11.205,2.1818,0,0.00030393,3037.2,0.00010056,3.1726,0.00010014,0.00532,-0.00030387,-3035.6,0.63295
1002,11.205,2,0,0.00030398,3037.7,0.00010063,3.7896,0.00010013,0.0051671,-0.00030392,-3035.8,0.63262
1003,11.205,1.8182,0,0.00030405,3038.4,0.00010071,4.4664,0.00010011,0.004919,-0.00030397,-3036.1,0.63222
1004,11.205,1.6364,0,0.00030412,3039.1,0.00010079,5.1751,0.0001001,0.004543,-0.00030403,-3036.5,0.63176
1005,11.205,1.4545,0,0.00030419,3039.8,0.00010087,5.8886,0.00010009,0.0039998,-0.00030409,-3036.9,0.63123
1006,11.205,1.2727,0,0.00030427,3040.6,0.00010096,6.5823,0.00010008,0.0032564,-0.00030416,-3037.3,0.63063
1007,11.205,1.0909,0,0.00030435,3041.4,0.00010104,7.2356,0.00010008,0.002266,-0.00030422,-3037.7,0.62996
1008,11.205,0.90909,0,0.00030443,3042.2,0.00010112,7.8339,0.00010007,0.0010546,-0.0003043,-3038.3,0.62923
1009,11.205,0.72727,0,0.00030452,3043.1,0.00010119,8.3696,0.00010008,-0.000602,-0.00030437,-3038.9,0.62844
1010,11.205,0.54545,0,0.00030461,3044,0.00010126,8.8466,0.00010008,-0.0018638,-0.00030446,-3039.5,0.62757
1011,11.205,0.36364,0,0.00030472,3045,0.00010134,9.3311,0.00010009,-0.0070441,-0.00030456,-3040.4,0.62664
1012,11.205,0.18182,0,0.000305,3047.9,0.00010156,10.89,0.00010011,-0.0013879,-0.00030481,-3042.4,0.62565
1013,11.022,5.8182,0,0.00031012,3099.1,0.00010321,10.394,0.00010182,-0.0016701,-0.00030994,-3093.8,0.60697
1014,11.022,5.6364,0,0.0003098,3095.9,0.00010294,8.4336,0.00010182,-0.0046925,-0.00030965,-3091.6,0.60798
1015,11.022,5.4545,0,0.00030966,3094.4,0.00010282,7.5635,0.00010181,-0.0014789,-0.00030953,-3090.6,0.60893
1016,11.022,5.2727,0,0.00030953,3093.2,0.00010271,6.7317,0.00010181,-0.0005636,-0.00030942,-3089.8,0.6098
1017,11.022,5.0909,0,0.00030941,3092,0.0001026,5.8754,0.00010181,0.000583,-0.00030931,-3089,0.61061
1018,11.022,4.9091,0,0.0003093,3090.9,0.00010249,4.9935,0.00010182,0.0014489,-0.00030921,-3088.4,0.61135
1019,11.022,4.7273,0,0.00030919,3089.8,0.00010238,4.0943,0.00010183,0.002147,-0.00030912,-3087.8,0.61202
1020,11.022,4.5455,0,0.00030909,3088.8,0.00010227,3.1922,0.00010184,0.0026389,-0.00030904,-3087.2,0.61263
1021,11.022,4.3636,0,0.000309,3087.8,0.00010216,2.3059,0.00010186,0.0029084,-0.00030896,-3086.7,0.61317
1022,11.022,4.1818,0,0.00030891,3087,0.00010206,1.4574,0.00010187,0.0028538,-0.00030889,-3086.2,0.61364
1023,11.022,4,0,0.00030883,3086.2,0.00010197,0.67133,0.00010188,0.0018684,-0.00030882,-3085.9,0.61404
1024,11.022,3.8182,0,0.00030876,3085.5,0.0001019,0.028566,0.00010189,-0.056913,-0.00030876,-3085.5,0.61438
1025,11.022,3.6364,0,0.00030871,3084.9,0.00010191,0.0066709,0.00010182,-0.62811,-0.00030872,-3085.3,0.61465
1026,11.022,3.4545,0,0.00030866,3084.5,0.00010191,0.0057201,0.00010177,-1.0915,-0.00030868,-3085,0.61485
1027,11.022,3.2727,0,0.00030863,3084.2,0.00010192,0.0054329,0.00010173,-1.4105,-0.00030866,-3084.9,0.61498
1028,11.022,3.0909,0,0.00030862,3084.1,0.00010192,0.0053315,0.00010171,-1.5729,-0.00030864,-3084.8,0.61505
1029,11.022,2.9091,0,0.00030862,3084.1,0.00010192,0.0053315,0.00010171,-1.5729,-0.00030864,-3084.8,0.61505
1030,11.022,2.7273,0,0.00030863,3084.2,0.00010192,0.0054331,0.00010173,-1.4105,-0.00030866,-3084.9,0.61498
1031,11.022,2.5455,0,0.00030866,3084.5,0.00010191,0.0057198,0.00010177,-1.0915,-0.00030868,-3085,0.61485
1032,11.022,2.3636,0,0.00030871,3084.9,0.00010191,0.0066711,0.00010182,-0.62811,-0.00030872,-3085.3,0.61465
1033,11.022,2.1818,0,0.00030876,3085.5,0.0001019,0.028568,0.00010189,-0.05691,-0.00030876,-3085.5,0.61438
1034,11.022,2,0,0.00030883,3086.2,0.00010197,0.67133,0.00010188,0.0018687,-0.00030882,-3085.9,0.61404
1035,11.022,1.8182,0,0.00030891,3087,0.00010206,1.4574,0.00010187,0.0028547,-0.00030889,-3086.2,0.61364
1036,11.022,1.6364,0,0.000309,3087.8,0.00010216,2.3059,0.00010186,0.0029087,-0.00030896,-3086.7,0.61317
1037,11.022,1.4545,0,0.00030909,3088.8,0.00010227,3.1922,0.00010184,0.0026397,-0.00030904,-3087.2,0.61263
1038,11.022,1.2727,0,0.00030919,3089.8,0.00010238,4.0944,0.00010183,0.0021476,-0.00030912,-3087.8,0.61202
1039,11.022,1.0909,0,0.0003093,3090.9,0.00010249,4.9935,0.00010182,0.0014489,-0.00030921,-3088.4,0.61135
1040,11.022,0.90909,0,0.00030941,3092,0.0001026,5.8754,0.00010181,0.00058408,-0.00030931,-3089,0.61061
1041,11.022,0.72727,0,0.00030953,3093.2,0.00010271,6.7317,0.00010181,-0.00056217,-0.00030942,-3089.8,0.6098
1042,11.022,0.54545,0,0.00030966,3094.4,0.00010282,7.5635,0.00010181,-0.0014793,-0.00030953,-3090.6,0.60893
1043,11.022,0.36364,0,0.0003098,3095.9,0.00010294,8.4336,0.00010182,-0.0046918,-0.00030965,-3091.6,0.60798
1044,11.022,0.18182,0,0.00031012,3099.1,0.00010321,10.394,0.00010182,-0.0016692,-0.00030994,-3093.8,0.60697
1045,10.838,5.8182,0,0.00031525,3150.3,0.00010486,9.8828,0.00010354,-0.0022202,-0.00031508,-3145.4,0.58851
1046,10.838,5.6364,0,0.0003149,3146.8,0.00010454,7.5316,0.00010354,-0.0024473,-0.00031477,-3143,0.58953
1047,10.838,5.4545,0,0.00031472,3145,0.00010438,6.2813,0.00010355,-0.0011449,-0.00031461,-3141.9,0.59049
1048,10.838,5.2727,0,0.00031456,3143.4,0.00010423,5.0964,0.00010355,-0.00070071,-0.00031447,-3140.9,0.59137
1049,10.838,5.0909,0,0.00031441,3141.9,0.00010408,3.9177,0.00010356,-0.00037287,-0.00031434,-3140,0.59219
1050,10.838,4.9091,0,0.00031427,3140.5,0.00010394,2.7468,0.00010357,-0.00051601,-0.00031422,-3139.2,0.59294
1051,10.838,4.7273,0,0.00031414,3139.2,0.0001038,1.5942,0.00010359,-0.001807,-0.00031411,-3138.4,0.59363
1052,10.838,4.5455,0,0.00031401,3138,0.00010367,0.48124,0.0001036,-0.011329,-0.000314,-3137.7,0.59424
1053,10.838,4.3636,0,0.0003139,3136.8,0.00010362,0.014076,0.00010353,-0.61749,-0.00031391,-3137.1,0.59479
1054,10.838,4.1818,0,0.00031379,3135.8,0.00010363,0.0075549,0.00010342,-1.6149,-0.00031382,-3136.6,0.59526
1055,10.838,4,0,0.0003137,3134.8,0.00010365,0.0061912,0.00010331,-2.5268,-0.00031374,-3136.1,0.59567
1056,10.838,3.8182,0,0.00031362,3134,0.00010366,0.005639,0.00010322,-3.3272,-0.00031367,-3135.7,0.59601
1057,10.838,3.6364,0,0.00031355,3133.4,0.00010367,0.0053514,0.00010314,-3.9955,-0.00031362,-3135.3,0.59628
1058,10.838,3.4545,0,0.0003135,3132.8,0.00010368,0.0051845,0.00010308,-4.5137,-0.00031358,-3135.1,0.59649
1059,10.838,3.2727,0,0.00031347,3132.5,0.00010369,0.0050867,0.00010304,-4.8677,-0.00031355,-3134.9,0.59663
1060,10.838,3.0909,0,0.00031345,3132.3,0.00010369,0.0050402,0.00010302,-5.0472,-0.00031353,-3134.8,0.59669
1061,10.838,2.9091,0,0.00031345,3132.3,0.00010369,0.0050407,0.00010302,-5.0472,-0.00031353,-3134.8,0.59669
1062,10.838,2.7273,0,0.00031347,3132.5,0.00010369,0.0050864,0.00010304,-4.8677,-0.00031355,-3134.9,0.59663
1063,10.838,2.5455,0,0.0003135,3132.8,0.00010368,0.0051848,0.00010308,-4.5137,-0.00031358,-3135.1,0.59649
1064,10.838,2.3636,0,0.00031355,3133.4,0.00010367,0.0053516,0.00010314,-3.9955,-0.00031362,-3135.3,0.59628
1065,10.838,2.1818,0,0.00031362,3134,0.00010366,0.0056392,0.00010322,-3.3272,-0.00031367,-3135.7,0.59601
1066,10.838,2,0,0.0003137,3134.8,0.00010365,0.0061917,0.00010331,-2.5268,-0.00031374,-3136.1,0.59567
1067,10.838,1.8182,0,0.00031379,3135.8,0.00010363,0.0075557,0.00010342,-1.6149,-0.00031382,-3136.6,0.59526
1068,10.838,1.6364,0,0.0003139,3136.8,0.00010362,0.014077,0.00010353,-0.61748,-0.00031391,-3137.1,0.59479
1069,10.838,1.4545,0,0.00031401,3138,0.00010366,0.48126,0.0001036,-0.011329,-0.000314,-3137.7,0.59424
1070,10.838,1.2727,0,0.00031414,3139.2,0.0001038,1.5942,0.00010359,-0.0018063,-0.00031411,-3138.4,0.59363
1071,10.838,1.0909,0,0.00031427,3140.5,0.00010394,2.7468,0.00010357,-0.00051509,-0.00031422,-3139.2,0.59294
1072,10.838,0.90909,0,0.00031441,3141.9,0.00010408,3.9177,0.00010356,-0.00037147,-0.00031434,-3140,0.59219
1073,10.838,0.72727,0,0.00031456,3143.4,0.00010423,5.0964,0.00010355,-0.00070003,-0.00031447,-3140.9,0.59137
1074,10.838,0.54545,0,0.00031472,3145,0.00010438,6.2814,0.00010355,-0.0011447,-0.00031461,-3141.9,0.59049
1075,10.838,0.36364,0,0.0003149,3146.8,0.00010454,7.5316,0.00010354,-0.0024469,-0.00031477,-3143,0.58953
1076,10.838,0.18182,0,0.00031525,3150.3,0.00010486,9.8828,0.00010354,-0.0022201,-0.00031508,-3145.4,0.58851
1077,10.654,5.8182,0,0.00032039,3201.7,0.00010651,9.3532,0.00010527,-0.0029931,-0.00032023,-3197,0.57025
1078,10.654,5.6364,0,0.00032001,3197.9,0.00010616,6.6166,0.00010527,-0.00021682,-0.00031989,-3194.6,0.57129
1079,10.654,5.4545,0,0.0003198,3195.8,0.00010595,4.9871,0.00010529,-0.00081107,-0.00031971,-3193.3,0.57226
1080,10.654,5.2727,0,0.00031961,3193.9,0.00010576,3.4473,0.0001053,-0.0011833,-0.00031955,-3192.1,0.57316
1081,10.654,5.0909,0,0.00031943,3192.1,0.00010557,1.9426,0.00010531,-0.0032198,-0.00031939,-3191.1,0.57399
1082,10.654,4.9091,0,0.00031926,3190.4,0.0001054,0.4899,0.00010533,-0.019406,-0.00031925,-3190.1,0.57475
1083,10.654,4.7273,0,0.0003191,3188.8,0.00010535,0.014095,0.00010522,-0.96337,-0.00031911,-3189.3,0.57544
1084,10.654,4.5455,0,0.00031895,3187.3,0.00010537,0.0078186,0.00010506,-2.313,-0.00031899,-3188.5,0.57606
1085,10.654,4.3636,0,0.00031881,3185.9,0.00010539,0.0063214,0.00010491,-3.5861,-0.00031887,-3187.7,0.57661
1086,10.654,4.1818,0,0.00031869,3184.7,0.0001054,0.0056835,0.00010477,-4.7596,-0.00031877,-3187.1,0.5771
1087,10.654,4,0,0.00031858,3183.6,0.00010542,0.0053326,0.00010465,-5.8132,-0.00031868,-3186.5,0.57751
1088,10.654,3.8182,0,0.00031849,3182.7,0.00010543,0.0051083,0.00010454,-6.7271,-0.0003186,-3186,0.57786
1089,10.654,3.6364,0,0.00031841,3181.9,0.00010545,0.0049541,0.00010445,-7.483,-0.00031854,-3185.7,0.57813
1090,10.654,3.4545,0,0.00031835,3181.3,0.00010546,0.0048463,0.00010438,-8.0651,-0.00031849,-3185.4,0.57834
1091,10.654,3.2727,0,0.00031831,3181,0.00010546,0.0047762,0.00010434,-8.4606,-0.00031846,-3185.2,0.57848
1092,10.654,3.0909,0,0.00031829,3180.8,0.00010547,0.0047411,0.00010431,-8.6607,-0.00031844,-3185.1,0.57855
1093,10.654,2.9091,0,0.00031829,3180.8,0.00010547,0.0047415,0.00010431,-8.6607,-0.00031844,-3185.1,0.57855
1094,10.654,2.7273,0,0.00031831,3181,0.00010546,0.0047761,0.00010434,-8.4606,-0.00031846,-3185.2,0.57848
1095,10.654,2.5455,0,0.00031835,3181.3,0.00010546,0.0048466,0.00010438,-8.0651,-0.00031849,-3185.4,0.57834
1096,10.654,2.3636,0,0.00031841,3181.9,0.00010545,0.0049548,0.00010445,-7.483,-0.00031854,-3185.7,0.57813
1097,10.654,2.1818,0,0.00031849,3182.7,0.00010543,0.0051091,0.00010454,-6.7271,-0.0003186,-3186,0.57786
1098,10.654,2,0,0.00031858,3183.6,0.00010542,0.005334,0.00010465,-5.8132,-0.00031868,-3186.5,0.57751
1099,10.654,1.8182,0,0.00031869,3184.7,0.0001054,0.0056833,0.00010477,-4.7596,-0.00031877,-3187.1,0.5771
1100,10.654,1.6364,0,0.00031881,3185.9,0.00010539,0.0063229,0.00010491,-3.586,-0.00031887,-3187.7,0.57661
1101,10.654,1.4545,0,0.00031895,3187.3,0.00010537,0.0078195,0.00010506,-2.3129,-0.00031899,-3188.5,0.57606
1102,10.654,1.2727,0,0.0003191,3188.8,0.00010535,0.014096,0.00010522,-0.96335,-0.00031911,-3189.3,0.57544
1103,10.654,1.0909,0,0.00031926,3190.4,0.0001054,0.48992,0.00010533,-0.019405,-0.00031925,-3190.1,0.57475
1104,10.654,0.90909,0,0.00031943,3192.1,0.00010557,1.9426,0.00010531,-0.0032179,-0.00031939,-3191.1,0.57399
1105,10.654,0.72727,0,0.00031961,3193.9,0.00010576,3.4473,0.0001053,-0.001183,-0.00031955,-3192.1,0.57316
1106,10.654,0.54545,0,0.0003198,3195.8,0.00010595,4.9871,0.00010529,-0.00081085,-0.00031971,-3193.3,0.57226
1107,10.654,0.36364,0,0.00032001,3197.9,0.00010616,6.6167,0.00010527,-0.00021648,-0.00031989,-3194.6,0.57129
1108,10.654,0.18182,0,0.00032039,3201.7,0.00010651,9.3533,0.00010527,-0.0029928,-0.00032023,-3197,0.57025
1109,10.471,5.8182,0,0.00032555,3253.3,0.00010817,8.8021,0.00010699,-0.0039807,-0.0003254,-3248.8,0.55221
1110,10.471,5.6364,0,0.00032513,3249.1,0.00010777,5.6806,0.00010701,0.0020682,-0.00032504,-3246.3,0.55327
1111,10.471,5.4545,0,0.00032489,3246.7,0.00010752,3.6685,0.00010703,-0.00047464,-0.00032483,-3244.8,0.55425
1112,10.471,5.2727,0,0.00032467,3244.4,0.00010729,1.7699,0.00010705,-0.0031137,-0.00032464,-3243.6,0.55516
1113,10.471,5.0909,0,0.00032446,3242.3,0.00010709,0.074951,0.00010705,-0.151,-0.00032446,-3242.4,0.556
1114,10.471,4.9091,0,0.00032426,3240.4,0.0001071,0.0094083,0.00010685,-1.8621,-0.00032429,-3241.3,0.55677
1115,10.471,4.7273,0,0.00032407,3238.5,0.00010712,0.00671,0.00010665,-3.5569,-0.00032414,-3240.3,0.55747
1116,10.471,4.5455,0,0.0003239,3236.8,0.00010714,0.0058292,0.00010646,-5.1585,-0.00032399,-3239.4,0.5581
1117,10.471,4.3636,0,0.00032375,3235.2,0.00010717,0.0053904,0.00010628,-6.6481,-0.00032386,-3238.5,0.55866
1118,10.471,4.1818,0,0.0003236,3233.8,0.00010719,0.0051185,0.00010612,-8.0068,-0.00032374,-3237.8,0.55915
1119,10.471,4,0,0.00032348,3232.6,0.0001072,0.0049251,0.00010598,-9.2153,-0.00032364,-3237.2,0.55957
1120,10.471,3.8182,0,0.00032337,3231.5,0.00010722,0.0047741,0.00010586,-10.256,-0.00032355,-3236.6,0.55992
1121,10.471,3.6364,0,0.00032329,3230.6,0.00010723,0.004657,0.00010576,-11.11,-0.00032347,-3236.2,0.5602
1122,10.471,3.4545,0,0.00032322,3230,0.00010725,0.0045693,0.00010568,-11.765,-0.00032342,-3235.8,0.56041
1123,10.471,3.2727,0,0.00032318,3229.5,0.00010725,0.0045088,0.00010563,-12.209,-0.00032338,-3235.6,0.56055
1124,10.471,3.0909,0,0.00032315,3229.3,0.00010726,0.0044779,0.0001056,-12.432,-0.00032336,-3235.5,0.56062
1125,10.471,2.9091,0,0.00032315,3229.3,0.00010726,0.0044779,0.0001056,-12.432,-0.00032336,-3235.5,0.56062
1126,10.471,2.7273,0,0.00032318,3229.5,0.00010725,0.0045093,0.00010563,-12.209,-0.00032338,-3235.6,0.56055
1127,10.471,2.5455,0,0.00032322,3230,0.00010725,0.0045694,0.00010568,-11.765,-0.00032342,-3235.8,0.56041
1128,10.471,2.3636,0,0.00032329,3230.6,0.00010723,0.0046566,0.00010576,-11.11,-0.00032347,-3236.2,0.5602
1129,10.471,2.1818,0,0.00032337,3231.5,0.00010722,0.0047749,0.00010586,-10.255,-0.00032355,-3236.6,0.55992
1130,10.471,2,0,0.00032348,3232.6,0.0001072,0.004925,0.00010598,-9.2153,-0.00032364,-3237.2,0.55957
1131,10.471,1.8182,0,0.0003236,3233.8,0.00010719,0.0051191,0.00010612,-8.0068,-0.00032374,-3237.8,0.55915
1132,10.471,1.6364,0,0.00032375,3235.2,0.00010717,0.0053907,0.00010628,-6.6481,-0.00032386,-3238.5,0.55866
1133,10.471,1.4545,0,0.0003239,3236.8,0.00010714,0.0058297,0.00010646,-5.1585,-0.00032399,-3239.4,0.5581
1134,10.471,1.2727,0,0.00032407,3238.5,0.00010712,0.0067104,0.00010665,-3.5568,-0.00032414,-3240.3,0.55747
1135,10.471,1.0909,0,0.00032426,3240.4,0.0001071,0.0094091,0.00010685,-1.8621,-0.00032429,-3241.3,0.55677
1136,10.471,0.90909,0,0.00032446,3242.3,0.00010709,0.074957,0.00010705,-0.151,-0.00032446,-3242.4,0.556
1137,10.471,0.72727,0,0.00032467,3244.4,0.00010729,1.7699,0.00010705,-0.0031123,-0.00032464,-3243.6,0.55516
1138,10.471,0.54545,0,0.00032489,3246.7,0.00010752,3.6686,0.00010703,-0.00047457,-0.00032483,-3244.8,0.55425
1139,10.471,0.36364,0,0.00032513,3249.1,0.00010777,5.6806,0.00010701,0.0020689,-0.00032504,-3246.3,0.55327
1140,10.471,0.18182,0,0.00032555,3253.3,0.00010817,8.8021,0.00010699,-0.0039799,-0.0003254,-3248.8,0.55221
1141,10.287,5.8182,0,0.00033072,3305,0.00010983,8.2263,0.00010873,-0.0052474,-0.00033058,-3300.8,0.53439
1142,10.287,5.6364,0,0.00033028,3300.5,0.00010939,4.716,0.00010876,0.0044177,-0.0003302,-3298.1,0.53546
1143,10.287,5.4545,0,0.00033,3297.7,0.00010909,2.3145,0.00010879,-0.00029093,-0.00032996,-3296.6,0.53645
1144,10.287,5.2727,0,0.00032975,3295.2,0.00010883,0.1157,0.0001088,-0.072779,-0.00032975,-3295.2,0.53738
1145,10.287,5.0909,0,0.00032951,3292.8,0.00010884,0.0080287,0.00010856,-2.1544,-0.00032954,-3293.9,0.53823
1146,10.287,4.9091,0,0.00032928,3290.5,0.00010887,0.0061587,0.00010831,-4.2489,-0.00032935,-3292.6,0.53901
1147,10.287,4.7273,0,0.00032907,3288.4,0.0001089,0.0055276,0.00010807,-6.2368,-0.00032917,-3291.5,0.53972
1148,10.287,4.5455,0,0.00032887,3286.4,0.00010893,0.005202,0.00010785,-8.0999,-0.00032901,-3290.5,0.54036
1149,10.287,4.3636,0,0.00032869,3284.6,0.00010895,0.0049774,0.00010765,-9.8199,-0.00032886,-3289.5,0.54092
1150,10.287,4.1818,0,0.00032853,3283,0.00010898,0.0048024,0.00010746,-11.378,-0.00032872,-3288.7,0.54142
1151,10.287,4,0,0.00032839,3281.6,0.000109,0.0046547,0.0001073,-12.755,-0.00032861,-3288,0.54184
1152,10.287,3.8182,0,0.00032827,3280.4,0.00010902,0.0045265,0.00010716,-13.934,-0.00032851,-3287.4,0.54219
1153,10.287,3.6364,0,0.00032817,3279.5,0.00010903,0.0044205,0.00010705,-14.899,-0.00032842,-3286.9,0.54248
1154,10.287,3.4545,0,0.0003281,3278.7,0.00010905,0.0043387,0.00010697,-15.636,-0.00032836,-3286.5,0.54269
1155,10.287,3.2727,0,0.00032805,3278.2,0.00010905,0.0042816,0.00010691,-16.133,-0.00032832,-3286.3,0.54283
1156,10.287,3.0909,0,0.00032802,3278,0.00010906,0.0042516,0.00010688,-16.383,-0.0003283,-3286.1,0.5429
1157,10.287,2.9091,0,0.00032802,3278,0.00010906,0.0042518,0.00010688,-16.383,-0.0003283,-3286.1,0.5429
1158,10.287,2.7273,0,0.00032805,3278.2,0.00010905,0.0042813,0.00010691,-16.133,-0.00032832,-3286.3,0.54283
1159,10.287,2.5455,0,0.0003281,3278.7,0.00010905,0.0043391,0.00010697,-15.636,-0.00032836,-3286.5,0.54269
1160,10.287,2.3636,0,0.00032817,3279.5,0.00010903,0.0044212,0.00010705,-14.899,-0.00032842,-3286.9,0.54248
1161,10.287,2.1818,0,0.00032827,3280.4,0.00010902,0.0045272,0.00010716,-13.934,-0.00032851,-3287.4,0.54219
1162,10.287,2,0,0.00032839,3281.6,0.000109,0.0046553,0.0001073,-12.755,-0.00032861,-3288,0.54184
1163,10.287,1.8182,0,0.00032853,3283,0.00010898,0.0048031,0.00010746,-11.378,-0.00032872,-3288.7,0.54142
1164,10.287,1.6364,0,0.00032869,3284.6,0.00010895,0.004978,0.00010765,-9.8199,-0.00032886,-3289.5,0.54092
1165,10.287,1.4545,0,0.00032887,3286.4,0.00010893,0.0052024,0.00010785,-8.0999,-0.00032901,-3290.5,0.54036
1166,10.287,1.2727,0,0.00032907,3288.4,0.0001089,0.0055284,0.00010807,-6.2368,-0.00032917,-3291.5,0.53972
1167,10.287,1.0909,0,0.00032928,3290.5,0.00010887,0.0061583,0.00010831,-4.2489,-0.00032935,-3292.6,0.53901
1168,10.287,0.90909,0,0.00032951,3292.8,0.00010884,0.0080305,0.00010856,-2.1544,-0.00032954,-3293.9,0.53823
1169,10.287,0.72727,0,0.00032975,3295.2,0.00010883,0.11571,0.0001088,-0.072771,-0.00032975,-3295.2,0.53738
1170,10.287,0.54545,0,0.00033,3297.7,0.00010909,2.3145,0.00010879,-0.00029099,-0.00032996,-3296.6,0.53645
1171,10.287,0.36364,0,0.00033028,3300.5,0.00010939,4.716,0.00010876,0.0044186,-0.0003302,-3298.1,0.53546
1172,10.287,0.18182,0,0.00033072,3305,0.00010983,8.2264,0.00010873,-0.0052467,-0.00033058,-3300.8,0.53439
1173,10.103,5.8182,0,0.00033592,3356.8,0.00011149,7.623,0.00011047,-0.0069592,-0.00033579,-3353,0.5168
1174,10.103,5.6364,0,0.00033544,3352.1,0.00011101,3.7155,0.00011051,0.0067625,-0.00033538,-3350.2,0.51788
1175,10.103,5.4545,0,0.00033513,3349,0.00011067,0.91514,0.00011055,-0.001481,-0.00033511,-3348.5,0.51888
1176,10.103,5.2727,0,0.00033484,3346.1,0.00011058,0.0076144,0.00011035,-1.7472,-0.00033487,-3347,0.51982
1177,10.103,5.0909,0,0.00033457,3343.4,0.00011062,0.0057256,0.00011005,-4.2943,-0.00033464,-3345.5,0.52068
1178,10.103,4.9091,0,0.00033431,3340.8,0.00011066,0.0053148,0.00010976,-6.7242,-0.00033443,-3344.2,0.52147
1179,10.103,4.7273,0,0.00033407,3338.4,0.00011069,0.0050528,0.00010949,-9.0183,-0.00033423,-3342.9,0.52219
1180,10.103,4.5455,0,0.00033385,3336.2,0.00011072,0.004866,0.00010924,-11.158,-0.00033404,-3341.8,0.52283
1181,10.103,4.3636,0,0.00033365,3334.2,0.00011075,0.0046983,0.00010901,-13.124,-0.00033387,-3340.7,0.52341
1182,10.103,4.1818,0,0.00033347,3332.4,0.00011078,0.0045455,0.0001088,-14.896,-0.00033372,-3339.8,0.52391
1183,10.103,4,0,0.00033331,3330.8,0.00011081,0.004406,0.00010862,-16.456,-0.00033359,-3339,0.52434
1184,10.103,3.8182,0,0.00033318,3329.5,0.00011083,0.0042791,0.00010846,-17.787,-0.00033348,-3338.3,0.52469
1185,10.103,3.6364,0,0.00033307,3328.4,0.00011085,0.0041714,0.00010833,-18.872,-0.00033339,-3337.8,0.52498
1186,10.103,3.4545,0,0.00033299,3327.6,0.00011086,0.0040873,0.00010824,-19.699,-0.00033332,-3337.4,0.5252
1187,10.103,3.2727,0,0.00033293,3327,0.00011087,0.0040276,0.00010817,-20.256,-0.00033327,-3337.1,0.52534
1188,10.103,3.0909,0,0.0003329,3326.7,0.00011087,0.003997,0.00010814,-20.536,-0.00033325,-3337,0.52541
1189,10.103,2.9091,0,0.0003329,3326.7,0.00011087,0.0039975,0.00010814,-20.536,-0.00033325,-3337,0.52541
1190,10.103,2.7273,0,0.00033293,3327,0.00011087,0.0040276,0.00010817,-20.256,-0.00033327,-3337.1,0.52534
1191,10.103,2.5455,0,0.00033299,3327.6,0.00011086,0.004087,0.00010824,-19.699,-0.00033332,-3337.4,0.5252
1192,10.103,2.3636,0,0.00033307,3328.4,0.00011085,0.0041716,0.00010833,-18.872,-0.00033339,-3337.8,0.52498
1193,10.103,2.1818,0,0.00033318,3329.5,0.00011083,0.0042791,0.00010846,-17.787,-0.00033348,-3338.3,0.52469
1194,10.103,2,0,0.00033331,3330.8,0.00011081,0.004406,0.00010862,-16.456,-0.00033359,-3339,0.52434
1195,10.103,1.8182,0,0.00033347,3332.4,0.00011078,0.004547,0.0001088,-14.896,-0.00033372,-3339.8,0.52391
1196,10.103,1.6364,0,0.00033365,3334.2,0.00011075,0.0046985,0.00010901,-13.124,-0.00033387,-3340.7,0.52341
1197,10.103,1.4545,0,0.00033385,3336.2,0.00011072,0.0048673,0.00010924,-11.158,-0.00033404,-3341.8,0.52283
1198,10.103,1.2727,0,0.00033407,3338.4,0.00011069,0.0050536,0.00010949,-9.0183,-0.00033423,-3342.9,0.52219
1199,10.103,1.0909,0,0.00033431,3340.8,0.00011066,0.0053157,0.00010976,-6.7241,-0.00033443,-3344.2,0.52147
1200,10.103,0.90909,0,0.00033457,3343.4,0.00011062,0.0057275,0.00011005,-4.2943,-0.00033464,-3345.5,0.52068
1201,10.103,0.72727,0,0.00033484,3346.1,0.00011058,0.0076152,0.00011035,-1.7472,-0.00033487,-3347,0.51982
1202,10.103,0.54545,0,0.00033513,3349,0.00011067,0.91516,0.00011055,-0.0014813,-0.00033511,-3348.5,0.51888
1203,10.103,0.36364,0,0.00033544,3352.1,0.00011101,3.7155,0.00011051,0.006764,-0.00033538,-3350.2,0.51788
1204,10.103,0.18182,0,0.00033592,3356.8,0.00011149,7.6231,0.00011047,-0.0069588,-0.00033579,-3353,0.5168
1205,9.9196,5.8182,0,0.00034113,3408.9,0.00011316,6.9892,0.00011222,-0.0093263,-0.00034101,-3405.4,0.49942
1206,9.9196,5.6364,0,0.00034062,3403.8,0.00011263,2.6721,0.00011227,0.0089933,-0.00034057,-3402.5,0.50052
1207,9.9196,5.4545,0,0.00034027,3400.4,0.00011232,0.0072573,0.00011224,-0.55162,-0.00034028,-3400.7,0.50154
1208,9.9196,5.2727,0,0.00033995,3397.2,0.00011236,0.0056377,0.00011188,-3.6004,-0.00034001,-3399,0.50248
1209,9.9196,5.0909,0,0.00033965,3394.1,0.00011241,0.005081,0.00011154,-6.5243,-0.00033976,-3397.4,0.50336
1210,9.9196,4.9091,0,0.00033936,3391.3,0.00011245,0.0049462,0.00011121,-9.3047,-0.00033952,-3395.9,0.50416
1211,9.9196,4.7273,0,0.00033909,3388.6,0.00011249,0.0047596,0.0001109,-11.922,-0.00033929,-3394.5,0.50488
1212,9.9196,4.5455,0,0.00033885,3386.1,0.00011253,0.0045941,0.00011062,-14.354,-0.00033909,-3393.3,0.50554
1213,9.9196,4.3636,0,0.00033862,3383.9,0.00011257,0.004425,0.00011036,-16.582,-0.0003389,-3392.1,0.50612
1214,9.9196,4.1818,0,0.00033842,3381.9,0.0001126,0.0042626,0.00011012,-18.584,-0.00033873,-3391.1,0.50662
1215,9.9196,4,0,0.00033824,3380.1,0.00011263,0.0041096,0.00010992,-20.342,-0.00033859,-3390.2,0.50706
1216,9.9196,3.8182,0,0.0003381,3378.6,0.00011265,0.0039709,0.00010974,-21.837,-0.00033846,-3389.5,0.50742
1217,9.9196,3.6364,0,0.00033797,3377.4,0.00011267,0.0038526,0.0001096,-23.054,-0.00033836,-3388.9,0.50771
1218,9.9196,3.4545,0,0.00033788,3376.5,0.00011269,0.0037603,0.0001095,-23.979,-0.00033828,-3388.4,0.50793
1219,9.9196,3.2727,0,0.00033782,3375.9,0.0001127,0.0036959,0.00010942,-24.602,-0.00033823,-3388.1,0.50807
1220,9.9196,3.0909,0,0.00033779,3375.6,0.0001127,0.0036626,0.00010939,-24.915,-0.00033821,-3388,0.50814
1221,9.9196,2.9091,0,0.00033779,3375.6,0.0001127,0.0036629,0.00010939,-24.915,-0.00033821,-3388,0.50814
1222,9.9196,2.7273,0,0.00033782,3375.9,0.0001127,0.0036961,0.00010942,-24.602,-0.00033823,-3388.1,0.50807
1223,9.9196,2.5455,0,0.00033788,3376.5,0.00011269,0.003761,0.0001095,-23.979,-0.00033828,-3388.4,0.50793
1224,9.9196,2.3636,0,0.00033797,3377.4,0.00011267,0.0038527,0.0001096,-23.054,-0.00033836,-3388.9,0.50771
1225,9.9196,2.1818,0,0.0003381,3378.6,0.00011265,0.0039714,0.00010974,-21.837,-0.00033846,-3389.5,0.50742
1226,9.9196,2,0,0.00033824,3380.1,0.00011263,0.0041101,0.00010992,-20.342,-0.00033859,-3390.2,0.50706
1227,9.9196,1.8182,0,0.00033842,3381.9,0.0001126,0.0042632,0.00011012,-18.584,-0.00033873,-3391.1,0.50662
1228,9.9196,1.6364,0,0.00033862,3383.9,0.00011257,0.0044256,0.00011036,-16.582,-0.0003389,-3392.1,0.50612
1229,9.9196,1.4545,0,0.00033885,3386.1,0.00011253,0.0045944,0.00011062,-14.354,-0.00033909,-3393.3,0.50554
1230,9.9196,1.2727,0,0.00033909,3388.6,0.00011249,0.0047603,0.0001109,-11.922,-0.00033929,-3394.5,0.50488
1231,9.9196,1.0909,0,0.00033936,3391.3,0.00011245,0.004946,0.00011121,-9.3047,-0.00033952,-3395.9,0.50416
1232,9.9196,0.90909,0,0.00033965,3394.1,0.00011241,0.005082,0.00011154,-6.5243,-0.00033976,-3397.4,0.50336
1233,9.9196,0.72727,0,0.00033995,3397.2,0.00011236,0.0056389,0.00011188,-3.6003,-0.00034001,-3399,0.50248
1234,9.9196,0.54545,0,0.00034027,3400.4,0.00011232,0.0072576,0.00011224,-0.5516,-0.00034028,-3400.7,0.50154
1235,9.9196,0.36364,0,0.00034062,3403.8,0.00011263,2.6721,0.00011227,0.0089944,-0.00034057,-3402.5,0.50052
1236,9.9196,0.18182,0,0.00034113,3408.9,0.00011316,6.9892,0.00011222,-0.0093251,-0.00034101,-3405.4,0.49942
1237,9.7359,5.8182,0,0.00034636,3461.2,0.00011483,6.3223,0.00011398,-0.012503,-0.00034625,-3458,0.48228
1238,9.7359,5.6364,0,0.00034582,3455.8,0.00011425,1.5796,0.00011404,0.010916,-0.00034579,-3455,0.48339
1239,9.7359,5.4545,0,0.00034544,3452,0.0001141,0.0042845,0.00011382,-2.074,-0.00034547,-3453,0.48442
1240,9.7359,5.2727,0,0.00034508,3448.4,0.00011415,0.0054228,0.00011341,-5.5409,-0.00034517,-3451.2,0.48538
1241,9.7359,5.0909,0,0.00034474,3445,0.0001142,0.0049462,0.00011302,-8.8591,-0.00034489,-3449.4,0.48626
1242,9.7359,4.9091,0,0.00034442,3441.8,0.00011425,0.0048365,0.00011266,-12.009,-0.00034462,-3447.8,0.48707
1243,9.7359,4.7273,0,0.00034412,3438.9,0.0001143,0.0046253,0.00011231,-14.967,-0.00034438,-3446.3,0.48781
1244,9.7359,4.5455,0,0.00034385,3436.1,0.00011435,0.0044303,0.00011199,-17.711,-0.00034415,-3445,0.48847
1245,9.7359,4.3636,0,0.0003436,3433.6,0.00011439,0.0042291,0.0001117,-20.218,-0.00034394,-3443.7,0.48905
1246,9.7359,4.1818,0,0.00034338,3431.4,0.00011443,0.0040379,0.00011144,-22.467,-0.00034376,-3442.6,0.48957
1247,9.7359,4,0,0.00034318,3429.5,0.00011446,0.0038589,0.00011121,-24.438,-0.00034359,-3441.6,0.49001
1248,9.7359,3.8182,0,0.00034302,3427.8,0.00011449,0.0036985,0.00011101,-26.111,-0.00034346,-3440.8,0.49037
1249,9.7359,3.6364,0,0.00034289,3426.5,0.00011451,0.0035633,0.00011085,-27.47,-0.00034334,-3440.1,0.49067
1250,9.7359,3.4545,0,0.00034278,3425.5,0.00011453,0.0034588,0.00011073,-28.502,-0.00034326,-3439.6,0.49089
1251,9.7359,3.2727,0,0.00034272,3424.8,0.00011454,0.0033861,0.00011065,-29.196,-0.0003432,-3439.3,0.49103
1252,9.7359,3.0909,0,0.00034268,3424.5,0.00011455,0.0033484,0.00011061,-29.545,-0.00034318,-3439.1,0.4911
1253,9.7359,2.9091,0,0.00034268,3424.5,0.00011455,0.0033487,0.00011061,-29.545,-0.00034318,-3439.1,0.4911
1254,9.7359,2.7273,0,0.00034272,3424.8,0.00011454,0.0033864,0.00011065,-29.196,-0.0003432,-3439.3,0.49103
1255,9.7359,2.5455,0,0.00034278,3425.5,0.00011453,0.0034587,0.00011073,-28.502,-0.00034326,-3439.6,0.49089
1256,9.7359,2.3636,0,0.00034289,3426.5,0.00011451,0.0035636,0.00011085,-27.47,-0.00034334,-3440.1,0.49067
1257,9.7359,2.1818,0,0.00034302,3427.8,0.00011449,0.0036994,0.00011101,-26.111,-0.00034346,-3440.8,0.49037
1258,9.7359,2,0,0.00034318,3429.5,0.00011446,0.0038591,0.00011121,-24.438,-0.00034359,-3441.6,0.49001
1259,9.7359,1.8182,0,0.00034338,3431.4,0.00011443,0.0040381,0.00011144,-22.467,-0.00034376,-3442.6,0.48957
1260,9.7359,1.6364,0,0.0003436,3433.6,0.00011439,0.0042297,0.0001117,-20.218,-0.00034394,-3443.7,0.48905
1261,9.7359,1.4545,0,0.00034385,3436.1,0.00011435,0.0044311,0.00011199,-17.711,-0.00034415,-3445,0.48847
1262,9.7359,1.2727,0,0.00034412,3438.9,0.0001143,0.0046262,0.00011231,-14.967,-0.00034438,-3446.3,0.48781
1263,9.7359,1.0909,0,0.00034442,3441.8,0.00011425,0.0048373,0.00011266,-12.009,-0.00034462,-3447.8,0.48707
1264,9.7359,0.90909,0,0.00034474,3445,0.0001142,0.0049478,0.00011302,-8.8591,-0.00034489,-3449.4,0.48626
1265,9.7359,0.72727,0,0.00034508,3448.4,0.00011415,0.0054233,0.00011341,-5.5409,-0.00034517,-3451.2,0.48538
1266,9.7359,0.54545,0,0.00034544,3452,0.0001141,0.0042853,0.00011382,-2.074,-0.00034547,-3453,0.48442
1267,9.7359,0.36364,0,0.00034582,3455.8,0.00011425,1.5796,0.00011404,0.010917,-0.00034579,-3455,0.48339
1268,9.7359,0.18182,0,0.00034636,3461.2,0.00011483,6.3224,0.00011398,-0.012502,-0.00034625,-3458,0.48228
1269,9.5522,5.8182,0,0.00035161,3513.7,0.0001165,5.6197,0.00011575,-0.016924,-0.00035151,-3510.9,0.46537
1270,9.5522,5.6364,0,0.00035103,3507.9,0.00011588,0.43485,0.00011582,0.0086436,-0.00035103,-3507.7,0.46649
1271,9.5522,5.4545,0,0.00035061,3503.7,0.00011589,0.0044983,0.0001154,-3.6774,-0.00035068,-3505.6,0.46754
1272,9.5522,5.2727,0,0.00035022,3499.8,0.00011595,0.0056949,0.00011494,-7.5813,-0.00035035,-3503.6,0.46851
1273,9.5522,5.0909,0,0.00034985,3496.1,0.00011601,0.0050515,0.0001145,-11.315,-0.00035004,-3501.7,0.4694
1274,9.5522,4.9091,0,0.0003495,3492.6,0.00011607,0.0048743,0.00011409,-14.855,-0.00034975,-3500,0.47022
1275,9.5522,4.7273,0,0.00034917,3489.3,0.00011613,0.0045893,0.00011371,-18.175,-0.00034947,-3498.3,0.47096
1276,9.5522,4.5455,0,0.00034887,3486.2,0.00011618,0.0043358,0.00011335,-21.251,-0.00034922,-3496.8,0.47163
1277,9.5522,4.3636,0,0.00034859,3483.5,0.00011622,0.0040837,0.00011302,-24.057,-0.00034899,-3495.5,0.47222
1278,9.5522,4.1818,0,0.00034834,3481,0.00011627,0.0038483,0.00011273,-26.571,-0.00034879,-3494.2,0.47274
1279,9.5522,4,0,0.00034813,3478.9,0.00011631,0.0036351,0.00011248,-28.77,-0.00034861,-3493.2,0.47319
1280,9.5522,3.8182,0,0.00034795,3477.1,0.00011634,0.0034452,0.00011226,-30.635,-0.00034846,-3492.3,0.47356
1281,9.5522,3.6364,0,0.0003478,3475.6,0.00011636,0.0032873,0.00011208,-32.148,-0.00034834,-3491.6,0.47385
1282,9.5522,3.4545,0,0.00034769,3474.5,0.00011638,0.0031663,0.00011195,-33.296,-0.00034824,-3491,0.47408
1283,9.5522,3.2727,0,0.00034762,3473.8,0.0001164,0.0030822,0.00011186,-34.068,-0.00034818,-3490.7,0.47422
1284,9.5522,3.0909,0,0.00034758,3473.4,0.0001164,0.0030396,0.00011182,-34.456,-0.00034815,-3490.5,0.4743
1285,9.5522,2.9091,0,0.00034758,3473.4,0.0001164,0.0030395,0.00011182,-34.456,-0.00034815,-3490.5,0.4743
1286,9.5522,2.7273,0,0.00034762,3473.8,0.0001164,0.0030824,0.00011186,-34.068,-0.00034818,-3490.7,0.47422
1287,9.5522,2.5455,0,0.00034769,3474.5,0.00011638,0.0031659,0.00011195,-33.296,-0.00034824,-3491,0.47408
1288,9.5522,2.3636,0,0.0003478,3475.6,0.00011636,0.0032875,0.00011208,-32.148,-0.00034834,-3491.6,0.47385
1289,9.5522,2.1818,0,0.00034795,3477.1,0.00011634,0.0034458,0.00011226,-30.635,-0.00034846,-3492.3,0.47356
1290,9.5522,2,0,0.00034813,3478.9,0.00011631,0.0036341,0.00011248,-28.77,-0.00034861,-3493.2,0.47319
1291,9.5522,1.8182,0,0.00034834,3481,0.00011627,0.0038495,0.00011273,-26.571,-0.00034879,-3494.2,0.47274
1292,9.5522,1.6364,0,0.00034859,3483.5,0.00011622,0.0040839,0.00011302,-24.057,-0.00034899,-3495.5,0.47222
1293,9.5522,1.4545,0,0.00034887,3486.2,0.00011618,0.0043363,0.00011335,-21.251,-0.00034922,-3496.8,0.47163
1294,9.5522,1.2727,0,0.00034917,3489.3,0.00011612,0.00459,0.00011371,-18.175,-0.00034947,-3498.3,0.47096
1295,9.5522,1.0909,0,0.0003495,3492.6,0.00011607,0.0048749,0.00011409,-14.855,-0.00034975,-3500,0.47022
1296,9.5522,0.90909,0,0.00034985,3496.1,0.00011601,0.0050522,0.0001145,-11.315,-0.00035004,-3501.7,0.4694
1297,9.5522,0.72727,0,0.00035022,3499.8,0.00011595,0.0056964,0.00011494,-7.5813,-0.00035035,-3503.6,0.46851
1298,9.5522,0.54545,0,0.00035061,3503.7,0.00011589,0.0044998,0.0001154,-3.6774,-0.00035068,-3505.6,0.46754
1299,9.5522,0.36364,0,0.00035103,3507.9,0.00011588,0.43488,0.00011582,0.0086453,-0.00035103,-3507.7,0.46649
1300,9.5522,0.18182,0,0.00035161,3513.7,0.0001165,5.6198,0.00011575,-0.016923,-0.00035151,-3510.9,0.46537
1301,9.3685,5.8182,0,0.00035688,3566.3,0.00011818,4.8792,0.00011753,-0.023361,-0.0003568,-3563.9,0.4487
1302,9.3685,5.6364,0,0.00035627,3560.2,0.00011761,0.022273,0.0001175,-0.78894,-0.00035628,-3560.6,0.44983
1303,9.3685,5.4545,0,0.00035581,3555.7,0.00011768,0.0051038,0.00011697,-5.3693,-0.0003559,-3558.3,0.45089
1304,9.3685,5.2727,0,0.00035538,3551.3,0.00011776,0.0061744,0.00011646,-9.7346,-0.00035554,-3556.2,0.45187
1305,9.3685,5.0909,0,0.00035497,3547.2,0.00011783,0.005273,0.00011598,-13.908,-0.0003552,-3554.2,0.45278
1306,9.3685,4.9091,0,0.00035458,3543.4,0.0001179,0.0049819,0.00011552,-17.862,-0.00035488,-3552.3,0.4536
1307,9.3685,4.7273,0,0.00035422,3539.8,0.00011796,0.0045944,0.00011509,-21.568,-0.00035458,-3550.5,0.45435
1308,9.3685,4.5455,0,0.00035389,3536.4,0.00011802,0.0042626,0.00011469,-24.997,-0.00035431,-3548.9,0.45503
1309,9.3685,4.3636,0,0.00035359,3533.4,0.00011807,0.0039446,0.00011433,-28.123,-0.00035406,-3547.4,0.45563
1310,9.3685,4.1818,0,0.00035332,3530.7,0.00011812,0.0036559,0.00011401,-30.92,-0.00035383,-3546.1,0.45615
1311,9.3685,4,0,0.00035308,3528.4,0.00011817,0.003397,0.00011372,-33.365,-0.00035364,-3544.9,0.4566
1312,9.3685,3.8182,0,0.00035288,3526.4,0.0001182,0.0031724,0.00011349,-35.437,-0.00035347,-3544,0.45698
1313,9.3685,3.6364,0,0.00035272,3524.8,0.00011823,0.0029862,0.00011329,-37.117,-0.00035334,-3543.2,0.45728
1314,9.3685,3.4545,0,0.0003526,3523.5,0.00011825,0.0028456,0.00011314,-38.391,-0.00035324,-3542.6,0.4575
1315,9.3685,3.2727,0,0.00035252,3522.7,0.00011827,0.0027477,0.00011305,-39.247,-0.00035317,-3542.2,0.45765
1316,9.3685,3.0909,0,0.00035247,3522.3,0.00011828,0.0026984,0.000113,-39.677,-0.00035313,-3542,0.45773
1317,9.3685,2.9091,0,0.00035247,3522.3,0.00011828,0.0026986,0.000113,-39.677,-0.00035313,-3542,0.45773
1318,9.3685,2.7273,0,0.00035252,3522.7,0.00011827,0.002748,0.00011305,-39.247,-0.00035317,-3542.2,0.45765
1319,9.3685,2.5455,0,0.0003526,3523.5,0.00011825,0.0028449,0.00011314,-38.391,-0.00035324,-3542.6,0.4575
1320,9.3685,2.3636,0,0.00035272,3524.8,0.00011823,0.0029869,0.00011329,-37.117,-0.00035334,-3543.2,0.45728
1321,9.3685,2.1818,0,0.00035288,3526.4,0.0001182,0.0031722,0.00011349,-35.437,-0.00035347,-3544,0.45698
1322,9.3685,2,0,0.00035308,3528.4,0.00011817,0.0033979,0.00011372,-33.365,-0.00035364,-3544.9,0.4566
1323,9.3685,1.8182,0,0.00035332,3530.7,0.00011812,0.0036563,0.00011401,-30.92,-0.00035383,-3546.1,0.45615
1324,9.3685,1.6364,0,0.00035359,3533.4,0.00011807,0.0039452,0.00011433,-28.123,-0.00035406,-3547.4,0.45563
1325,9.3685,1.4545,0,0.00035389,3536.4,0.00011802,0.0042632,0.00011469,-24.997,-0.00035431,-3548.9,0.45503
1326,9.3685,1.2727,0,0.00035422,3539.8,0.00011796,0.0045953,0.00011509,-21.568,-0.00035458,-3550.5,0.45435
1327,9.3685,1.0909,0,0.00035458,3543.4,0.0001179,0.0049817,0.00011552,-17.862,-0.00035488,-3552.3,0.4536
1328,9.3685,0.90909,0,0.00035497,3547.2,0.00011783,0.0052743,0.00011598,-13.908,-0.0003552,-3554.2,0.45278
1329,9.3685,0.72727,0,0.00035538,3551.3,0.00011776,0.0061753,0.00011646,-9.7346,-0.00035554,-3556.2,0.45187
1330,9.3685,0.54545,0,0.00035581,3555.7,0.00011768,0.0051049,0.00011697,-5.3693,-0.0003559,-3558.3,0.45089
1331,9.3685,0.36364,0,0.00035627,3560.2,0.00011761,0.022275,0.0001175,-0.78891,-0.00035628,-3560.6,0.44983
1332,9.3685,0.18182,0,0.00035688,3566.3,0.00011818,4.8792,0.00011753,-0.02336,-0.0003568,-3563.9,0.4487
1333,9.1848,5.8182,0,0.00036217,3619.2,0.00011986,4.0989,0.00011931,-0.033189,-0.0003621,-3617.2,0.43226
1334,9.1848,5.6364,0,0.00036153,3612.8,0.00011941,0.023234,0.00011913,-2.0701,-0.00036156,-3613.8,0.43341
1335,9.1848,5.4545,0,0.00036103,3607.8,0.00011949,0.0058896,0.00011854,-7.1599,-0.00036115,-3611.3,0.43448
1336,9.1848,5.2727,0,0.00036055,3603.1,0.00011958,0.0068032,0.00011798,-12.015,-0.00036076,-3609,0.43547
1337,9.1848,5.0909,0,0.0003601,3598.6,0.00011966,0.0055965,0.00011744,-16.655,-0.00036039,-3606.9,0.43639
1338,9.1848,4.9091,0,0.00035968,3594.3,0.00011974,0.0051623,0.00011693,-21.05,-0.00036003,-3604.8,0.43723
1339,9.1848,4.7273,0,0.00035929,3590.4,0.00011981,0.0046514,0.00011646,-25.167,-0.00035971,-3602.9,0.43799
1340,9.1848,4.5455,0,0.00035892,3586.7,0.00011988,0.0042245,0.00011602,-28.974,-0.0003594,-3601.1,0.43867
1341,9.1848,4.3636,0,0.00035859,3583.4,0.00011994,0.0038289,0.00011562,-32.443,-0.00035913,-3599.5,0.43927
1342,9.1848,4.1818,0,0.00035829,3580.5,0.00011999,0.0034765,0.00011526,-35.544,-0.00035888,-3598.1,0.4398
1343,9.1848,4,0,0.00035803,3577.9,0.00012004,0.0031661,0.00011495,-38.254,-0.00035867,-3596.8,0.44026
1344,9.1848,3.8182,0,0.00035782,3575.7,0.00012008,0.0028991,0.00011469,-40.548,-0.00035849,-3595.8,0.44064
1345,9.1848,3.6364,0,0.00035764,3573.9,0.00012012,0.0026813,0.00011447,-42.408,-0.00035834,-3594.9,0.44094
1346,9.1848,3.4545,0,0.00035751,3572.6,0.00012014,0.0025157,0.00011431,-43.818,-0.00035823,-3594.3,0.44117
1347,9.1848,3.2727,0,0.00035742,3571.7,0.00012016,0.0024028,0.0001142,-44.765,-0.00035816,-3593.9,0.44132
1348,9.1848,3.0909,0,0.00035737,3571.2,0.00012017,0.002346,0.00011414,-45.24,-0.00035812,-3593.6,0.44139
1349,9.1848,2.9091,0,0.00035737,3571.2,0.00012017,0.0023457,0.00011414,-45.24,-0.00035812,-3593.6,0.44139
1350,9.1848,2.7273,0,0.00035742,3571.7,0.00012016,0.0024031,0.0001142,-44.765,-0.00035816,-3593.9,0.44132
1351,9.1848,2.5455,0,0.00035751,3572.6,0.00012014,0.002516,0.00011431,-43.818,-0.00035823,-3594.3,0.44117
1352,9.1848,2.3636,0,0.00035764,3573.9,0.00012012,0.0026815,0.00011447,-42.408,-0.00035834,-3594.9,0.44094
1353,9.1848,2.1818,0,0.00035782,3575.7,0.00012008,0.0028995,0.00011469,-40.548,-0.00035849,-3595.8,0.44064
1354,9.1848,2,0,0.00035803,3577.9,0.00012004,0.0031661,0.00011495,-38.254,-0.00035867,-3596.8,0.44026
1355,9.1848,1.8182,0,0.00035829,3580.5,0.00011999,0.0034768,0.00011526,-35.544,-0.00035888,-3598.1,0.4398
1356,9.1848,1.6364,0,0.00035859,3583.4,0.00011994,0.0038294,0.00011562,-32.443,-0.00035913,-3599.5,0.43927
1357,9.1848,1.4545,0,0.00035892,3586.7,0.00011988,0.0042254,0.00011602,-28.974,-0.0003594,-3601.1,0.43867
1358,9.1848,1.2727,0,0.00035929,3590.4,0.00011981,0.0046516,0.00011646,-25.167,-0.00035971,-3602.9,0.43799
1359,9.1848,1.0909,0,0.00035968,3594.3,0.00011974,0.0051631,0.00011693,-21.05,-0.00036003,-3604.8,0.43723
1360,9.1848,0.90909,0,0.0003601,3598.6,0.00011966,0.0055976,0.00011744,-16.655,-0.00036039,-3606.9,0.43639
1361,9.1848,0.72727,0,0.00036055,3603.1,0.00011958,0.0068045,0.00011798,-12.015,-0.00036076,-3609,0.43547
1362,9.1848,0.54545,0,0.00036103,3607.8,0.00011949,0.0058902,0.00011854,-7.1599,-0.00036115,-3611.3,0.43448
1363,9.1848,0.36364,0,0.00036153,3612.8,0.00011941,0.023235,0.00011913,-2.07,-0.00036156,-3613.8,0.43341
1364,9.1848,0.18182,0,0.00036217,3619.2,0.00011986,4.0989,0.00011931,-0.033187,-0.0003621,-3617.2,0.43226
1365,9.0011,5.8182,0,0.00036749,3672.4,0.00012155,3.2788,0.00012111,-0.049387,-0.00036744,-3670.8,0.41608
1366,9.0011,5.6364,0,0.0003668,3665.5,0.00012122,0.026079,0.00012076,-3.4301,-0.00036686,-3667.2,0.41724
1367,9.0011,5.4545,0,0.00036626,3660.1,0.00012131,0.0067929,0.00012011,-9.0599,-0.00036641,-3664.6,0.41832
1368,9.0011,5.2727,0,0.00036574,3654.9,0.00012141,0.0075432,0.00011949,-14.436,-0.00036599,-3662.1,0.41932
1369,9.0011,5.0909,0,0.00036525,3650,0.0001215,0.0059968,0.0001189,-19.574,-0.00036558,-3659.8,0.42025
1370,9.0011,4.9091,0,0.00036479,3645.4,0.00012159,0.0053977,0.00011834,-24.439,-0.0003652,-3657.5,0.42109
1371,9.0011,4.7273,0,0.00036436,3641.1,0.00012167,0.004744,0.00011781,-28.996,-0.00036484,-3655.5,0.42186
1372,9.0011,4.5455,0,0.00036396,3637.1,0.00012175,0.0042104,0.00011733,-33.208,-0.00036451,-3653.6,0.42255
1373,9.0011,4.3636,0,0.0003636,3633.4,0.00012182,0.0037258,0.00011689,-37.044,-0.00036421,-3651.8,0.42316
1374,9.0011,4.1818,0,0.00036327,3630.2,0.00012188,0.0033005,0.00011649,-40.473,-0.00036394,-3650.3,0.4237
1375,9.0011,4,0,0.00036299,3627.4,0.00012193,0.0029301,0.00011615,-43.467,-0.00036371,-3648.9,0.42416
1376,9.0011,3.8182,0,0.00036275,3625,0.00012198,0.0026162,0.00011586,-46.001,-0.00036351,-3647.8,0.42454
1377,9.0011,3.6364,0,0.00036256,3623.1,0.00012202,0.002361,0.00011562,-48.055,-0.00036335,-3646.9,0.42484
1378,9.0011,3.4545,0,0.00036241,3621.6,0.00012204,0.0021678,0.00011544,-49.611,-0.00036323,-3646.2,0.42507
1379,9.0011,3.2727,0,0.00036231,3620.6,0.00012206,0.0020374,0.00011532,-50.656,-0.00036315,-3645.7,0.42522
1380,9.0011,3.0909,0,0.00036226,3620.1,0.00012207,0.0019713,0.00011526,-51.181,-0.00036311,-3645.5,0.4253
1381,9.0011,2.9091,0,0.00036226,3620.1,0.00012207,0.001972,0.00011526,-51.181,-0.00036311,-3645.5,0.4253
1382,9.0011,2.7273,0,0.00036231,3620.6,0.00012206,0.0020377,0.00011532,-50.656,-0.00036315,-3645.7,0.42522
1383,9.0011,2.5455,0,0.00036241,3621.6,0.00012204,0.0021683,0.00011544,-49.611,-0.00036323,-3646.2,0.42507
1384,9.0011,2.3636,0,0.00036256,3623.1,0.00012202,0.0023613,0.00011562,-48.055,-0.00036335,-3646.9,0.42484
1385,9.0011,2.1818,0,0.00036275,3625,0.00012198,0.0026167,0.00011586,-46.001,-0.00036351,-3647.8,0.42454
1386,9.0011,2,0,0.00036299,3627.4,0.00012193,0.0029314,0.00011615,-43.467,-0.00036371,-3648.9,0.42416
1387,9.0011,1.8182,0,0.00036327,3630.2,0.00012188,0.003301,0.00011649,-40.473,-0.00036394,-3650.3,0.4237
1388,9.0011,1.6364,0,0.0003636,3633.4,0.00012182,0.0037263,0.00011689,-37.044,-0.00036421,-3651.8,0.42316
1389,9.0011,1.4545,0,0.00036396,3637.1,0.00012175,0.0042107,0.00011733,-33.208,-0.00036451,-3653.6,0.42255
1390,9.0011,1.2727,0,0.00036436,3641.1,0.00012167,0.0047452,0.00011781,-28.996,-0.00036484,-3655.5,0.42186
1391,9.0011,1.0909,0,0.00036479,3645.4,0.00012159,0.0053981,0.00011834,-24.439,-0.0003652,-3657.5,0.42109
1392,9.0011,0.90909,0,0.00036525,3650,0.0001215,0.0059981,0.0001189,-19.574,-0.00036558,-3659.8,0.42025
1393,9.0011,0.72727,0,0.00036574,3654.9,0.00012141,0.0075446,0.00011949,-14.436,-0.00036599,-3662.1,0.41932
1394,9.0011,0.54545,0,0.00036626,3660.1,0.00012131,0.0067936,0.00012011,-9.0599,-0.00036641,-3664.6,0.41832
1395,9.0011,0.36364,0,0.0003668,3665.5,0.00012122,0.02608,0.00012076,-3.4301,-0.00036686,-3667.2,0.41724
1396,9.0011,0.18182,0,0.00036749,3672.4,0.00012155,3.2788,0.00012111,-0.049385,-0.00036744,-3670.8,0.41608
1397,8.8174,5.8182,0,0.00037283,3725.7,0.00012324,2.423,0.00012291,-0.079402,-0.00037279,-3724.6,0.40013
1398,8.8174,5.6364,0,0.0003721,3718.4,0.00012304,0.029458,0.00012238,-4.8749,-0.00037218,-3720.8,0.40131
1399,8.8174,5.4545,0,0.00037151,3712.5,0.00012315,0.0077961,0.00012167,-11.08,-0.0003717,-3718,0.4024
1400,8.8174,5.2727,0,0.00037095,3706.9,0.00012326,0.0083806,0.00012099,-17.012,-0.00037123,-3715.4,0.40341
1401,8.8174,5.0909,0,0.00037041,3701.6,0.00012336,0.0064647,0.00012034,-22.683,-0.00037079,-3712.9,0.40435
1402,8.8174,4.9091,0,0.00036991,3696.5,0.00012346,0.0056807,0.00011972,-28.051,-0.00037038,-3710.5,0.4052
1403,8.8174,4.7273,0,0.00036944,3691.8,0.00012355,0.0048697,0.00011915,-33.078,-0.00036999,-3708.2,0.40598
1404,8.8174,4.5455,0,0.000369,3687.5,0.00012363,0.0042145,0.00011861,-37.725,-0.00036963,-3706.2,0.40668
1405,8.8174,4.3636,0,0.0003686,3683.5,0.00012371,0.0036305,0.00011813,-41.955,-0.0003693,-3704.3,0.40729
1406,8.8174,4.1818,0,0.00036825,3680,0.00012378,0.0031245,0.00011769,-45.736,-0.00036901,-3702.6,0.40783
1407,8.8174,4,0,0.00036794,3676.9,0.00012384,0.0026877,0.00011732,-49.037,-0.00036875,-3701.2,0.4083
1408,8.8174,3.8182,0,0.00036768,3674.3,0.00012389,0.0023197,0.000117,-51.83,-0.00036854,-3699.9,0.40868
1409,8.8174,3.6364,0,0.00036747,3672.2,0.00012394,0.0020226,0.00011674,-54.093,-0.00036836,-3698.9,0.40899
1410,8.8174,3.4545,0,0.00036731,3670.6,0.00012397,0.0017995,0.00011654,-55.808,-0.00036823,-3698.2,0.40922
1411,8.8174,3.2727,0,0.0003672,3669.5,0.00012399,0.0016484,0.00011641,-56.959,-0.00036814,-3697.7,0.40938
1412,8.8174,3.0909,0,0.00036715,3669,0.000124,0.0015724,0.00011634,-57.537,-0.0003681,-3697.4,0.40945
1413,8.8174,2.9091,0,0.00036715,3669,0.000124,0.0015725,0.00011634,-57.537,-0.0003681,-3697.4,0.40945
1414,8.8174,2.7273,0,0.0003672,3669.5,0.00012399,0.0016486,0.00011641,-56.959,-0.00036814,-3697.7,0.40938
1415,8.8174,2.5455,0,0.00036731,3670.6,0.00012397,0.0017996,0.00011654,-55.808,-0.00036823,-3698.2,0.40922
1416,8.8174,2.3636,0,0.00036747,3672.2,0.00012394,0.0020231,0.00011674,-54.093,-0.00036836,-3698.9,0.40899
1417,8.8174,2.1818,0,0.00036768,3674.3,0.00012389,0.00232,0.000117,-51.83,-0.00036854,-3699.9,0.40868
1418,8.8174,2,0,0.00036794,3676.9,0.00012384,0.0026878,0.00011732,-49.037,-0.00036875,-3701.2,0.4083
1419,8.8174,1.8182,0,0.00036825,3680,0.00012378,0.0031248,0.00011769,-45.736,-0.00036901,-3702.6,0.40783
1420,8.8174,1.6364,0,0.0003686,3683.5,0.00012371,0.0036311,0.00011813,-41.955,-0.0003693,-3704.3,0.40729
1421,8.8174,1.4545,0,0.000369,3687.5,0.00012363,0.0042153,0.00011861,-37.725,-0.00036963,-3706.2,0.40668
1422,8.8174,1.2727,0,0.00036944,3691.8,0.00012355,0.0048701,0.00011915,-33.078,-0.00036999,-3708.2,0.40598
1423,8.8174,1.0909,0,0.00036991,3696.5,0.00012346,0.0056815,0.00011972,-28.051,-0.00037038,-3710.5,0.4052
1424,8.8174,0.90909,0,0.00037041,3701.6,0.00012336,0.0064664,0.00012034,-22.683,-0.00037079,-3712.9,0.40435
1425,8.8174,0.72727,0,0.00037095,3706.9,0.00012326,0.0083818,0.00012099,-17.012,-0.00037123,-3715.4,0.40341
1426,8.8174,0.54545,0,0.00037151,3712.5,0.00012315,0.0077958,0.00012167,-11.08,-0.0003717,-3718,0.4024
1427,8.8174,0.36364,0,0.0003721,3718.4,0.00012304,0.029458,0.00012238,-4.8749,-0.00037218,-3720.8,0.40131
1428,8.8174,0.18182,0,0.00037283,3725.7,0.00012324,2.423,0.00012291,-0.0794,-0.00037279,-3724.6,0.40013
1429,8.6337,5.8182,0,0.0003782,3779.3,0.00012494,1.5522,0.00012472,-0.14709,-0.00037817,-3778.6,0.38444
1430,8.6337,5.6364,0,0.00037742,3771.6,0.00012487,0.033209,0.00012401,-6.4117,-0.00037753,-3774.8,0.38563
1431,8.6337,5.4545,0,0.00037678,3765.2,0.00012499,0.0089035,0.00012323,-13.232,-0.000377,-3771.8,0.38673
1432,8.6337,5.2727,0,0.00037617,3759.1,0.00012511,0.009319,0.00012248,-19.759,-0.0003765,-3768.9,0.38776
1433,8.6337,5.0909,0,0.00037559,3753.3,0.00012523,0.0070039,0.00012177,-26,-0.00037602,-3766.2,0.3887
1434,8.6337,4.9091,0,0.00037504,3747.8,0.00012534,0.0060174,0.00012109,-31.908,-0.00037557,-3763.6,0.38956
1435,8.6337,4.7273,0,0.00037452,3742.6,0.00012544,0.0050321,0.00012046,-37.44,-0.00037514,-3761.2,0.39035
1436,8.6337,4.5455,0,0.00037405,3737.9,0.00012554,0.0042439,0.00011987,-42.554,-0.00037475,-3759,0.39105
1437,8.6337,4.3636,0,0.00037362,3733.6,0.00012562,0.0035497,0.00011934,-47.209,-0.0003744,-3757,0.39168
1438,8.6337,4.1818,0,0.00037323,3729.7,0.0001257,0.0029531,0.00011886,-51.368,-0.00037408,-3755.1,0.39222
1439,8.6337,4,0,0.00037289,3726.4,0.00012577,0.002443,0.00011845,-54.999,-0.0003738,-3753.6,0.39269
1440,8.6337,3.8182,0,0.00037261,3723.5,0.00012583,0.0020153,0.0001181,-58.072,-0.00037356,-3752.2,0.39308
1441,8.6337,3.6364,0,0.00037238,3721.2,0.00012587,0.001672,0.00011781,-60.561,-0.00037337,-3751.1,0.39339
1442,8.6337,3.4545,0,0.00037221,3719.5,0.00012591,0.0014145,0.0001176,-62.447,-0.00037323,-3750.3,0.39362
1443,8.6337,3.2727,0,0.00037209,3718.3,0.00012593,0.0012412,0.00011745,-63.712,-0.00037313,-3749.8,0.39378
1444,8.6337,3.0909,0,0.00037203,3717.7,0.00012594,0.0011537,0.00011738,-64.348,-0.00037308,-3749.5,0.39385
1445,8.6337,2.9091,0,0.00037203,3717.7,0.00012594,0.0011536,0.00011738,-64.348,-0.00037308,-3749.5,0.39385
1446,8.6337,2.7273,0,0.00037209,3718.3,0.00012593,0.0012412,0.00011745,-63.712,-0.00037313,-3749.8,0.39378
1447,8.6337,2.5455,0,0.00037221,3719.5,0.00012591,0.0014144,0.0001176,-62.447,-0.00037323,-3750.3,0.39362
1448,8.6337,2.3636,0,0.00037238,3721.2,0.00012587,0.0016722,0.00011781,-60.561,-0.00037337,-3751.1,0.39339
1449,8.6337,2.1818,0,0.00037261,3723.5,0.00012583,0.0020156,0.0001181,-58.072,-0.00037356,-3752.2,0.39308
1450,8.6337,2,0,0.00037289,3726.4,0.00012577,0.0024436,0.00011845,-54.999,-0.0003738,-3753.6,0.39269
1451,8.6337,1.8182,0,0.00037323,3729.7,0.0001257,0.0029537,0.00011886,-51.368,-0.00037408,-3755.1,0.39222
1452,8.6337,1.6364,0,0.00037362,3733.6,0.00012562,0.0035503,0.00011934,-47.209,-0.0003744,-3757,0.39168
1453,8.6337,1.4545,0,0.00037405,3737.9,0.00012554,0.0042445,0.00011987,-42.554,-0.00037475,-3759,0.39105
1454,8.6337,1.2727,0,0.00037452,3742.6,0.00012544,0.0050328,0.00012046,-37.44,-0.00037514,-3761.2,0.39035
1455,8.6337,1.0909,0,0.00037504,3747.8,0.00012534,0.0060181,0.00012109,-31.908,-0.00037557,-3763.6,0.38956
1456,8.6337,0.90909,0,0.00037559,3753.3,0.00012523,0.0070057,0.00012177,-26,-0.00037602,-3766.2,0.3887
1457,8.6337,0.72727,0,0.00037617,3759.1,0.00012511,0.0093202,0.00012248,-19.759,-0.0003765,-3768.9,0.38776
1458,8.6337,0.54545,0,0.00037678,3765.2,0.00012499,0.0089037,0.00012323,-13.232,-0.000377,-3771.8,0.38673
1459,8.6337,0.36364,0,0.00037742,3771.6,0.00012487,0.03321,0.00012401,-6.4117,-0.00037753,-3774.8,0.38563
1460,8.6337,0.18182,0,0.0003782,3779.3,0.00012494,1.5522,0.00012472,-0.14709,-0.00037817,-3778.6,0.38444
1461,8.45,5.8182,0,0.00038358,3833.2,0.00012666,0.76478,0.00012652,-0.35411,-0.00038358,-3833,0.36901
1462,8.45,5.6364,0,0.00038276,3824.9,0.00012671,0.037302,0.00012564,-8.0482,-0.00038289,-3828.9,0.3702
1463,8.45,5.4545,0,0.00038206,3818,0.00012685,0.010116,0.00012478,-15.528,-0.00038232,-3825.7,0.37132
1464,8.45,5.2727,0,0.0003814,3811.4,0.00012699,0.010356,0.00012396,-22.693,-0.00038178,-3822.7,0.37236
1465,8.45,5.0909,0,0.00038077,3805.1,0.00012711,0.0076119,0.00012318,-29.545,-0.00038126,-3819.7,0.37331
1466,8.45,4.9091,0,0.00038017,3799.1,0.00012724,0.0064046,0.00012244,-36.033,-0.00038077,-3817,0.37418
1467,8.45,4.7273,0,0.00037961,3793.5,0.00012735,0.0052287,0.00012175,-42.109,-0.00038031,-3814.4,0.37497
1468,8.45,4.5455,0,0.0003791,3788.3,0.00012746,0.0042942,0.00012111,-47.724,-0.00037988,-3812,0.37568
1469,8.45,4.3636,0,0.00037863,3783.6,0.00012755,0.0034791,0.00012052,-52.836,-0.0003795,-3809.8,0.37631
1470,8.45,4.1818,0,0.00037821,3779.5,0.00012764,0.0027835,0.00012,-57.404,-0.00037915,-3807.8,0.37686
1471,8.45,4,0,0.00037784,3775.8,0.00012772,0.002192,0.00011955,-61.392,-0.00037885,-3806.1,0.37733
1472,8.45,3.8182,0,0.00037753,3772.7,0.00012778,0.001699,0.00011916,-64.766,-0.00037859,-3804.7,0.37772
1473,8.45,3.6364,0,0.00037728,3770.2,0.00012783,0.0013042,0.00011885,-67.499,-0.00037838,-3803.5,0.37804
1474,8.45,3.4545,0,0.00037709,3768.3,0.00012787,0.0010089,0.00011861,-69.57,-0.00037823,-3802.6,0.37827
1475,8.45,3.2727,0,0.00037696,3767,0.0001279,0.00081028,0.00011845,-70.96,-0.00037812,-3802,0.37843
1476,8.45,3.0909,0,0.0003769,3766.4,0.00012791,0.00071072,0.00011837,-71.658,-0.00037807,-3801.7,0.37851
1477,8.45,2.9091,0,0.0003769,3766.4,0.00012791,0.0007109,0.00011837,-71.658,-0.00037807,-3801.7,0.37851
1478,8.45,2.7273,0,0.00037696,3767,0.0001279,0.00081058,0.00011845,-70.96,-0.00037812,-3802,0.37843
1479,8.45,2.5455,0,0.00037709,3768.3,0.00012787,0.0010089,0.00011861,-69.57,-0.00037823,-3802.6,0.37827
1480,8.45,2.3636,0,0.00037728,3770.2,0.00012783,0.0013047,0.00011885,-67.499,-0.00037838,-3803.5,0.37804
1481,8.45,2.1818,0,0.00037753,3772.7,0.00012778,0.0016993,0.00011916,-64.766,-0.00037859,-3804.7,0.37772
1482,8.45,2,0,0.00037784,3775.8,0.00012772,0.0021926,0.00011955,-61.392,-0.00037885,-3806.1,0.37733
1483,8.45,1.8182,0,0.00037821,3779.5,0.00012764,0.0027842,0.00012,-57.404,-0.00037915,-3807.8,0.37686
1484,8.45,1.6364,0,0.00037863,3783.6,0.00012755,0.0034797,0.00012052,-52.836,-0.0003795,-3809.8,0.37631
1485,8.45,1.4545,0,0.0003791,3788.3,0.00012746,0.0042952,0.00012111,-47.724,-0.00037988,-3812,0.37568
1486,8.45,1.2727,0,0.00037961,3793.5,0.00012735,0.0052293,0.00012175,-42.109,-0.00038031,-3814.4,0.37497
1487,8.45,1.0909,0,0.00038017,3799.1,0.00012724,0.0064053,0.00012244,-36.033,-0.00038077,-3817,0.37418
1488,8.45,0.90909,0,0.00038077,3805.1,0.00012711,0.0076136,0.00012318,-29.545,-0.00038126,-3819.7,0.37331
1489,8.45,0.72727,0,0.0003814,3811.4,0.00012699,0.010357,0.00012396,-22.693,-0.00038178,-3822.7,0.37236
1490,8.45,0.54545,0,0.00038206,3818,0.00012685,0.010116,0.00012478,-15.528,-0.00038232,-3825.7,0.37132
1491,8.45,0.36364,0,0.00038276,3824.9,0.00012671,0.037303,0.00012564,-8.0482,-0.00038289,-3828.9,0.3702
1492,8.45,0.18182,0,0.00038358,3833.2,0.00012666,0.7648,0.00012652,-0.3541,-0.00038358,-3833,0.36901
1493,8.2663,5.8182,0,0.000389,3887.3,0.00012845,0.33008,0.00012827,-0.97316,-0.00038901,-3887.6,0.35383
1494,8.2663,5.6364,0,0.00038812,3878.5,0.00012857,0.04174,0.00012726,-9.7923,-0.00038829,-3883.4,0.35504
1495,8.2663,5.4545,0,0.00038737,3871,0.00012872,0.011435,0.00012633,-17.98,-0.00038767,-3880,0.35617
1496,8.2663,5.2727,0,0.00038665,3863.8,0.00012887,0.011492,0.00012543,-25.831,-0.00038708,-3876.7,0.35721
1497,8.2663,5.0909,0,0.00038596,3857,0.00012902,0.0082853,0.00012458,-33.34,-0.00038652,-3873.5,0.35817
1498,8.2663,4.9091,0,0.00038531,3850.5,0.00012915,0.0068378,0.00012377,-40.452,-0.00038599,-3870.5,0.35905
1499,8.2663,4.7273,0,0.00038471,3844.4,0.00012928,0.0054549,0.00012301,-47.112,-0.00038549,-3867.7,0.35985
1500,8.2663,4.5455,0,0.00038414,3838.8,0.0001294,0.0043601,0.00012231,-53.269,-0.00038502,-3865.1,0.36056
1501,8.2663,4.3636,0,0.00038363,3833.7,0.0001295,0.003413,0.00012167,-58.874,-0.0003846,-3862.8,0.3612
1502,8.2663,4.1818,0,0.00038318,3829.1,0.0001296,0.0026093,0.0001211,-63.882,-0.00038422,-3860.7,0.36175
1503,8.2663,4,0,0.00038278,3825.2,0.00012968,0.0019285,0.0001206,-68.255,-0.00038389,-3858.8,0.36223
1504,8.2663,3.8182,0,0.00038244,3821.8,0.00012975,0.0013629,0.00012018,-71.955,-0.00038362,-3857.3,0.36263
1505,8.2663,3.6364,0,0.00038217,3819.1,0.00012981,0.0009123,0.00011983,-74.952,-0.00038339,-3856,0.36294
1506,8.2663,3.4545,0,0.00038196,3817,0.00012985,0.00057516,0.00011958,-77.223,-0.00038322,-3855,0.36318
1507,8.2663,3.2727,0,0.00038182,3815.6,0.00012988,0.00034929,0.0001194,-78.747,-0.0003831,-3854.4,0.36334
1508,8.2663,3.0909,0,0.00038176,3814.9,0.0001299,0.00023606,0.00011931,-79.512,-0.00038305,-3854.1,0.36342
1509,8.2663,2.9091,0,0.00038176,3814.9,0.0001299,0.00023606,0.00011931,-79.512,-0.00038305,-3854.1,0.36342
1510,8.2663,2.7273,0,0.00038182,3815.6,0.00012988,0.00034977,0.0001194,-78.747,-0.0003831,-3854.4,0.36334
1511,8.2663,2.5455,0,0.00038196,3817,0.00012985,0.00057534,0.00011958,-77.223,-0.00038322,-3855,0.36318
1512,8.2663,2.3636,0,0.00038217,3819.1,0.00012981,0.00091259,0.00011983,-74.952,-0.00038339,-3856,0.36294
1513,8.2663,2.1818,0,0.00038244,3821.8,0.00012975,0.0013637,0.00012018,-71.955,-0.00038362,-3857.3,0.36263
1514,8.2663,2,0,0.00038278,3825.2,0.00012968,0.0019288,0.0001206,-68.255,-0.00038389,-3858.8,0.36223
1515,8.2663,1.8182,0,0.00038318,3829.1,0.0001296,0.0026097,0.0001211,-63.882,-0.00038422,-3860.7,0.36175
1516,8.2663,1.6364,0,0.00038363,3833.7,0.0001295,0.0034137,0.00012167,-58.874,-0.0003846,-3862.8,0.3612
1517,8.2663,1.4545,0,0.00038414,3838.8,0.0001294,0.0043607,0.00012231,-53.269,-0.00038502,-3865.1,0.36056
1518,8.2663,1.2727,0,0.00038471,3844.4,0.00012928,0.0054551,0.00012301,-47.112,-0.00038549,-3867.7,0.35985
1519,8.2663,1.0909,0,0.00038531,3850.5,0.00012915,0.0068385,0.00012377,-40.452,-0.00038599,-3870.5,0.35905
1520,8.2663,0.90909,0,0.00038596,3857,0.00012902,0.0082864,0.00012458,-33.34,-0.00038652,-3873.5,0.35817
1521,8.2663,0.72727,0,0.00038665,3863.8,0.00012887,0.011493,0.00012543,-25.831,-0.00038708,-3876.7,0.35721
1522,8.2663,0.54545,0,0.00038737,3871,0.00012872,0.011435,0.00012633,-17.98,-0.00038767,-3880,0.35617
1523,8.2663,0.36364,0,0.00038812,3878.5,0.00012857,0.041742,0.00012726,-9.7923,-0.00038829,-3883.4,0.35504
1524,8.2663,0.18182,0,0.000389,3887.3,0.00012845,0.33009,0.00012827,-0.97313,-0.00038901,-3887.6,0.35383
1525,8.0826,5.8182,0,0.00039444,3941.7,0.00013028,0.19502,0.00012999,-1.9545,-0.00039447,-3942.6,0.33891
1526,8.0826,5.6364,0,0.00039351,3932.3,0.00013044,0.046551,0.00012888,-11.652,-0.0003937,-3938.1,0.34013
1527,8.0826,5.4545,0,0.00039269,3924.2,0.00013061,0.012873,0.00012786,-20.601,-0.00039304,-3934.5,0.34127
1528,8.0826,5.2727,0,0.00039191,3916.4,0.00013078,0.012737,0.00012689,-29.189,-0.0003924,-3930.9,0.34233
1529,8.0826,5.0909,0,0.00039117,3909,0.00013093,0.0090319,0.00012595,-37.406,-0.00039179,-3927.5,0.3433
1530,8.0826,4.9091,0,0.00039046,3901.9,0.00013108,0.0073243,0.00012507,-45.19,-0.00039121,-3924.3,0.34418
1531,8.0826,4.7273,0,0.0003898,3895.3,0.00013123,0.005716,0.00012424,-52.48,-0.00039067,-3921.3,0.34499
1532,8.0826,4.5455,0,0.00038919,3889.2,0.00013136,0.0044481,0.00012347,-59.221,-0.00039017,-3918.5,0.34571
1533,8.0826,4.3636,0,0.00038864,3883.7,0.00013147,0.0033565,0.00012278,-65.358,-0.00038971,-3916,0.34635
1534,8.0826,4.1818,0,0.00038814,3878.7,0.00013158,0.002434,0.00012215,-70.843,-0.0003893,-3913.7,0.34691
1535,8.0826,4,0,0.00038771,3874.4,0.00013167,0.0016559,0.00012161,-75.632,-0.00038894,-3911.7,0.34739
1536,8.0826,3.8182,0,0.00038734,3870.8,0.00013175,0.0010117,0.00012114,-79.684,-0.00038864,-3910,0.34779
1537,8.0826,3.6364,0,0.00038705,3867.8,0.00013181,0.00049909,0.00012077,-82.968,-0.00038839,-3908.6,0.34811
1538,8.0826,3.4545,0,0.00038682,3865.5,0.00013186,0.00011645,0.00012049,-85.455,-0.0003882,-3907.6,0.34834
1539,8.0826,3.2727,0,0.00038667,3864,0.00013189,-0.00013967,0.0001203,-87.124,-0.00038808,-3906.9,0.3485
1540,8.0826,3.0909,0,0.0003866,3863.3,0.00013191,-0.0002678,0.0001202,-87.963,-0.00038802,-3906.5,0.34858
1541,8.0826,2.9091,0,0.0003866,3863.3,0.00013191,-0.00026798,0.0001202,-87.963,-0.00038802,-3906.5,0.34858
1542,8.0826,2.7273,0,0.00038667,3864,0.00013189,-0.00013919,0.0001203,-87.124,-0.00038808,-3906.9,0.3485
1543,8.0826,2.5455,0,0.00038682,3865.5,0.00013186,0.00011639,0.00012049,-85.455,-0.0003882,-3907.6,0.34834
1544,8.0826,2.3636,0,0.00038705,3867.8,0.00013181,0.00049957,0.00012077,-82.968,-0.00038839,-3908.6,0.34811
1545,8.0826,2.1818,0,0.00038734,3870.8,0.00013175,0.001012,0.00012114,-79.684,-0.00038864,-3910,0.34779
1546,8.0826,2,0,0.00038771,3874.4,0.00013167,0.0016562,0.00012161,-75.632,-0.00038894,-3911.7,0.34739
1547,8.0826,1.8182,0,0.00038814,3878.7,0.00013158,0.002435,0.00012215,-70.843,-0.0003893,-3913.7,0.34691
1548,8.0826,1.6364,0,0.00038864,3883.7,0.00013147,0.0033573,0.00012278,-65.358,-0.00038971,-3916,0.34635
1549,8.0826,1.4545,0,0.00038919,3889.2,0.00013136,0.0044483,0.00012347,-59.221,-0.00039017,-3918.5,0.34571
1550,8.0826,1.2727,0,0.0003898,3895.3,0.00013123,0.0057168,0.00012424,-52.48,-0.00039067,-3921.3,0.34499
1551,8.0826,1.0909,0,0.00039046,3901.9,0.00013108,0.007325,0.00012507,-45.19,-0.00039121,-3924.3,0.34418
1552,8.0826,0.90909,0,0.00039117,3909,0.00013093,0.0090334,0.00012595,-37.406,-0.00039179,-3927.5,0.3433
1553,8.0826,0.72727,0,0.00039191,3916.4,0.00013078,0.012737,0.00012689,-29.189,-0.0003924,-3930.9,0.34233
1554,8.0826,0.54545,0,0.00039269,3924.2,0.00013061,0.012874,0.00012786,-20.601,-0.00039304,-3934.5,0.34127
1555,8.0826,0.36364,0,0.00039351,3932.3,0.00013044,0.046552,0.00012888,-11.652,-0.0003937,-3938.1,0.34013
1556,8.0826,0.18182,0,0.00039444,3941.7,0.00013028,0.19502,0.00012999,-1.9544,-0.00039447,-3942.6,0.33891
1557,7.8989,5.8182,0,0.00039991,3996.4,0.00013214,0.14656,0.00013171,-3.0882,-0.00039996,-3997.8,0.32426
1558,7.8989,5.6364,0,0.00039891,3986.4,0.00013232,0.051766,0.0001305,-13.637,-0.00039914,-3993.2,0.32549
1559,7.8989,5.4545,0,0.00039803,3977.6,0.00013251,0.014445,0.00012939,-23.405,-0.00039842,-3989.2,0.32664
1560,7.8989,5.2727,0,0.00039719,3969.1,0.00013269,0.0141,0.00012833,-32.787,-0.00039774,-3985.4,0.32771
1561,7.8989,5.0909,0,0.00039638,3961.1,0.00013287,0.0098597,0.00012731,-41.767,-0.00039707,-3981.8,0.32868
1562,7.8989,4.9091,0,0.00039562,3953.4,0.00013304,0.0078696,0.00012634,-50.276,-0.00039645,-3978.3,0.32958
1563,7.8989,4.7273,0,0.0003949,3946.3,0.00013319,0.0060172,0.00012544,-58.247,-0.00039586,-3975.1,0.33039
1564,7.8989,4.5455,0,0.00039424,3939.7,0.00013334,0.0045596,0.0001246,-65.618,-0.00039531,-3972,0.33112
1565,7.8989,4.3636,0,0.00039363,3933.6,0.00013347,0.0033113,0.00012384,-72.33,-0.00039482,-3969.3,0.33176
1566,7.8989,4.1818,0,0.0003931,3928.2,0.00013358,0.0022602,0.00012316,-78.33,-0.00039437,-3966.8,0.33233
1567,7.8989,4,0,0.00039263,3923.6,0.00013368,0.0013754,0.00012256,-83.569,-0.00039398,-3964.7,0.33281
1568,7.8989,3.8182,0,0.00039223,3919.6,0.00013377,0.00064543,0.00012206,-88.003,-0.00039365,-3962.8,0.33321
1569,7.8989,3.6364,0,0.00039191,3916.4,0.00013384,6.5626e-05,0.00012165,-91.596,-0.00039338,-3961.4,0.33353
1570,7.8989,3.4545,0,0.00039166,3913.9,0.00013389,-0.0003669,0.00012134,-94.318,-0.00039318,-3960.2,0.33377
1571,7.8989,3.2727,0,0.0003915,3912.3,0.00013393,-0.000656,0.00012113,-96.145,-0.00039305,-3959.5,0.33393
1572,7.8989,3.0909,0,0.00039142,3911.5,0.00013395,-0.00080076,0.00012103,-97.062,-0.00039298,-3959.1,0.33401
1573,7.8989,2.9091,0,0.00039142,3911.5,0.00013395,-0.00080064,0.00012103,-97.062,-0.00039298,-3959.1,0.33401
1574,7.8989,2.7273,0,0.0003915,3912.3,0.00013393,-0.00065601,0.00012113,-96.145,-0.00039305,-3959.5,0.33393
1575,7.8989,2.5455,0,0.00039166,3913.9,0.00013389,-0.0003666,0.00012134,-94.318,-0.00039318,-3960.2,0.33377
1576,7.8989,2.3636,0,0.00039191,3916.4,0.00013384,6.5563e-05,0.00012165,-91.596,-0.00039338,-3961.4,0.33353
1577,7.8989,2.1818,0,0.00039223,3919.6,0.00013377,0.00064602,0.00012206,-88.003,-0.00039365,-3962.8,0.33321
1578,7.8989,2,0,0.00039263,3923.6,0.00013368,0.0013761,0.00012256,-83.569,-0.00039398,-3964.7,0.33281
1579,7.8989,1.8182,0,0.0003931,3928.2,0.00013358,0.0022604,0.00012316,-78.33,-0.00039437,-3966.8,0.33233
1580,7.8989,1.6364,0,0.00039363,3933.6,0.00013347,0.0033119,0.00012384,-72.33,-0.00039482,-3969.3,0.33176
1581,7.8989,1.4545,0,0.00039424,3939.7,0.00013334,0.0045607,0.0001246,-65.618,-0.00039531,-3972,0.33112
1582,7.8989,1.2727,0,0.0003949,3946.3,0.00013319,0.006018,0.00012544,-58.247,-0.00039586,-3975.1,0.33039
1583,7.8989,1.0909,0,0.00039562,3953.4,0.00013304,0.0078702,0.00012634,-50.276,-0.00039645,-3978.3,0.32958
1584,7.8989,0.90909,0,0.00039638,3961.1,0.00013287,0.0098613,0.00012731,-41.767,-0.00039707,-3981.8,0.32868
1585,7.8989,0.72727,0,0.00039719,3969.1,0.00013269,0.014101,0.00012833,-32.787,-0.00039773,-3985.4,0.32771
1586,7.8989,0.54545,0,0.00039803,3977.6,0.00013251,0.014445,0.00012939,-23.405,-0.00039842,-3989.2,0.32664
1587,7.8989,0.36364,0,0.00039891,3986.4,0.00013232,0.051768,0.0001305,-13.637,-0.00039914,-3993.2,0.32549
1588,7.8989,0.18182,0,0.00039991,3996.4,0.00013214,0.14656,0.00013171,-3.0882,-0.00039996,-3997.8,0.32426
1589,7.7152,5.8182,0,0.00040541,4051.3,0.00013401,0.12459,0.00013342,-4.3176,-0.00040548,-4053.4,0.30988
1590,7.7152,5.6364,0,0.00040435,4040.7,0.00013422,0.057413,0.00013211,-15.754,-0.00040461,-4048.5,0.31112
1591,7.7152,5.4545,0,0.00040339,4031.1,0.00013443,0.016151,0.00013091,-26.406,-0.00040383,-4044.3,0.31228
1592,7.7152,5.2727,0,0.00040248,4022,0.00013463,0.015584,0.00012975,-36.645,-0.00040309,-4040.2,0.31335
1593,7.7152,5.0909,0,0.0004016,4013.3,0.00013482,0.010765,0.00012864,-46.448,-0.00040237,-4036.3,0.31434
1594,7.7152,4.9091,0,0.00040077,4005,0.00013501,0.0084695,0.00012759,-55.738,-0.00040169,-4032.5,0.31524
1595,7.7152,4.7273,0,0.0004,3997.2,0.00013518,0.0063518,0.0001266,-64.445,-0.00040105,-4029,0.31606
1596,7.7152,4.5455,0,0.00039928,3990,0.00013534,0.0046888,0.00012569,-72.498,-0.00040046,-4025.8,0.31679
1597,7.7152,4.3636,0,0.00039862,3983.5,0.00013548,0.0032702,0.00012486,-79.833,-0.00039992,-4022.8,0.31744
1598,7.7152,4.1818,0,0.00039804,3977.6,0.00013561,0.0020782,0.00012411,-86.39,-0.00039944,-4020.1,0.31801
1599,7.7152,4,0,0.00039753,3972.5,0.00013572,0.0010776,0.00012346,-92.117,-0.00039902,-4017.8,0.31849
1600,7.7152,3.8182,0,0.0003971,3968.2,0.00013582,0.00025429,0.00012291,-96.964,-0.00039866,-4015.8,0.3189
1601,7.7152,3.6364,0,0.00039675,3964.7,0.00013589,-0.00039964,0.00012246,-100.89,-0.00039837,-4014.2,0.31922
1602,7.7152,3.4545,0,0.00039648,3962.1,0.00013595,-0.00088652,0.00012213,-103.87,-0.00039815,-4013,0.31946
1603,7.7152,3.2727,0,0.0003963,3960.3,0.00013599,-0.0012113,0.0001219,-105.87,-0.000398,-4012.2,0.31962
1604,7.7152,3.0909,0,0.00039621,3959.4,0.00013601,-0.001374,0.00012179,-106.87,-0.00039792,-4011.8,0.3197
1605,7.7152,2.9091,0,0.00039621,3959.4,0.00013601,-0.0013738,0.00012179,-106.87,-0.00039792,-4011.8,0.3197
1606,7.7152,2.7273,0,0.0003963,3960.3,0.00013599,-0.0012114,0.0001219,-105.87,-0.000398,-4012.2,0.31962
1607,7.7152,2.5455,0,0.00039648,3962.1,0.00013595,-0.00088634,0.00012213,-103.87,-0.00039815,-4013,0.31946
1608,7.7152,2.3636,0,0.00039675,3964.7,0.00013589,-0.00039922,0.00012246,-100.89,-0.00039837,-4014.2,0.31922
1609,7.7152,2.1818,0,0.0003971,3968.2,0.00013582,0.00025429,0.00012291,-96.964,-0.00039866,-4015.8,0.3189
1610,7.7152,2,0,0.00039753,3972.5,0.00013572,0.0010783,0.00012346,-92.117,-0.00039902,-4017.8,0.31849
1611,7.7152,1.8182,0,0.00039804,3977.6,0.00013561,0.0020788,0.00012411,-86.39,-0.00039944,-4020.1,0.31801
1612,7.7152,1.6364,0,0.00039862,3983.5,0.00013548,0.0032708,0.00012486,-79.833,-0.00039992,-4022.8,0.31744
1613,7.7152,1.4545,0,0.00039928,3990,0.00013534,0.0046893,0.00012569,-72.498,-0.00040046,-4025.8,0.31679
1614,7.7152,1.2727,0,0.0004,3997.2,0.00013518,0.0063527,0.0001266,-64.445,-0.00040105,-4029,0.31606
1615,7.7152,1.0909,0,0.00040077,4005,0.00013501,0.0084701,0.00012759,-55.738,-0.00040169,-4032.5,0.31524
1616,7.7152,0.90909,0,0.0004016,4013.3,0.00013482,0.010766,0.00012864,-46.448,-0.00040237,-4036.3,0.31434
1617,7.7152,0.72727,0,0.00040248,4022,0.00013463,0.015585,0.00012975,-36.645,-0.00040309,-4040.2,0.31335
1618,7.7152,0.54545,0,0.00040339,4031.1,0.00013443,0.016152,0.00013091,-26.406,-0.00040383,-4044.3,0.31228
1619,7.7152,0.36364,0,0.00040434,4040.7,0.00013422,0.057415,0.00013211,-15.754,-0.00040461,-4048.5,0.31112
1620,7.7152,0.18182,0,0.00040541,4051.3,0.00013401,0.1246,0.00013342,-4.3176,-0.00040548,-4053.4,0.30988
1621,7.5315,5.8182,0,0.00041094,4106.6,0.0001359,0.11369,0.00013513,-5.6302,-0.00041103,-4109.3,0.29577
1622,7.5315,5.6364,0,0.0004098,4095.2,0.00013613,0.063535,0.00013373,-18.014,-0.0004101,-4104.1,0.29703
1623,7.5315,5.4545,0,0.00040877,4084.9,0.00013636,0.018011,0.00013242,-29.619,-0.00040927,-4099.6,0.29819
1624,7.5315,5.2727,0,0.00040778,4075,0.00013658,0.017201,0.00013115,-40.782,-0.00040846,-4095.2,0.29927
1625,7.5315,5.0909,0,0.00040683,4065.5,0.0001368,0.011757,0.00012995,-51.474,-0.00040768,-4091,0.30027
1626,7.5315,4.9091,0,0.00040593,4056.5,0.000137,0.0091306,0.0001288,-61.61,-0.00040695,-4087,0.30118
1627,7.5315,4.7273,0,0.00040509,4048.1,0.00013719,0.0067258,0.00012772,-71.111,-0.00040625,-4083.2,0.302
1628,7.5315,4.5455,0,0.00040431,4040.3,0.00013736,0.0048396,0.00012673,-79.902,-0.00040561,-4079.7,0.30274
1629,7.5315,4.3636,0,0.0004036,4033.2,0.00013752,0.0032354,0.00012582,-87.911,-0.00040503,-4076.5,0.30339
1630,7.5315,4.1818,0,0.00040297,4026.9,0.00013766,0.0018907,0.00012501,-95.073,-0.0004045,-4073.6,0.30396
1631,7.5315,4,0,0.00040241,4021.4,0.00013778,0.00076442,0.0001243,-101.33,-0.00040404,-4071.1,0.30445
1632,7.5315,3.8182,0,0.00040195,4016.7,0.00013789,-0.00016172,0.0001237,-106.62,-0.00040365,-4068.9,0.30486
1633,7.5315,3.6364,0,0.00040157,4012.9,0.00013797,-0.00089494,0.00012321,-110.92,-0.00040334,-4067.2,0.30518
1634,7.5315,3.4545,0,0.00040128,4010,0.00013804,-0.0014416,0.00012284,-114.17,-0.0004031,-4065.9,0.30542
1635,7.5315,3.2727,0,0.00040108,4008.1,0.00013808,-0.0018054,0.00012259,-116.35,-0.00040294,-4065,0.30559
1636,7.5315,3.0909,0,0.00040099,4007.1,0.0001381,-0.0019877,0.00012247,-117.45,-0.00040286,-4064.5,0.30567
1637,7.5315,2.9091,0,0.00040099,4007.1,0.0001381,-0.0019877,0.00012247,-117.45,-0.00040286,-4064.5,0.30567
1638,7.5315,2.7273,0,0.00040108,4008.1,0.00013808,-0.0018055,0.00012259,-116.35,-0.00040294,-4065,0.30559
1639,7.5315,2.5455,0,0.00040128,4010,0.00013804,-0.0014412,0.00012284,-114.17,-0.0004031,-4065.9,0.30542
1640,7.5315,2.3636,0,0.00040157,4012.9,0.00013797,-0.00089506,0.00012321,-110.92,-0.00040334,-4067.2,0.30518
1641,7.5315,2.1818,0,0.00040195,4016.7,0.00013789,-0.00016094,0.0001237,-106.62,-0.00040365,-4068.9,0.30486
1642,7.5315,2,0,0.00040241,4021.4,0.00013778,0.0007646,0.0001243,-101.33,-0.00040404,-4071.1,0.30445
1643,7.5315,1.8182,0,0.00040297,4026.9,0.00013766,0.0018913,0.00012501,-95.073,-0.0004045,-4073.6,0.30396
1644,7.5315,1.6364,0,0.0004036,4033.2,0.00013752,0.003236,0.00012582,-87.911,-0.00040503,-4076.5,0.30339
1645,7.5315,1.4545,0,0.00040431,4040.3,0.00013736,0.0048403,0.00012673,-79.902,-0.00040561,-4079.7,0.30274
1646,7.5315,1.2727,0,0.00040509,4048.1,0.00013719,0.0067267,0.00012772,-71.111,-0.00040625,-4083.2,0.302
1647,7.5315,1.0909,0,0.00040593,4056.5,0.000137,0.0091313,0.0001288,-61.61,-0.00040695,-4087,0.30118
1648,7.5315,0.90909,0,0.00040683,4065.5,0.0001368,0.011758,0.00012995,-51.474,-0.00040768,-4091,0.30027
1649,7.5315,0.72727,0,0.00040778,4075,0.00013658,0.017202,0.00013115,-40.782,-0.00040846,-4095.2,0.29927
1650,7.5315,0.54545,0,0.00040877,4084.9,0.00013636,0.018011,0.00013242,-29.619,-0.00040927,-4099.6,0.29819
1651,7.5315,0.36364,0,0.0004098,4095.2,0.00013613,0.063536,0.00013373,-18.014,-0.0004101,-4104.1,0.29703
1652,7.5315,0.18182,0,0.00041094,4106.6,0.0001359,0.11369,0.00013513,-5.6302,-0.00041103,-4109.3,0.29577
1653,7.3478,5.8182,0,0.0004165,4162.1,0.0001378,0.10858,0.00013685,-7.0237,-0.00041662,-4165.6,0.28194
1654,7.3478,5.6364,0,0.00041528,4150,0.00013806,0.07018,0.00013533,-20.426,-0.00041563,-4160.1,0.28321
1655,7.3478,5.4545,0,0.00041417,4138.8,0.00013831,0.020042,0.00013391,-33.06,-0.00041472,-4155.3,0.28438
1656,7.3478,5.2727,0,0.0004131,4128.1,0.00013856,0.018968,0.00013254,-45.221,-0.00041385,-4150.5,0.28547
1657,7.3478,5.0909,0,0.00041207,4117.9,0.00013879,0.012848,0.00013122,-56.874,-0.00041301,-4146,0.28647
1658,7.3478,4.9091,0,0.0004111,4108.1,0.00013901,0.0098624,0.00012997,-67.924,-0.00041221,-4141.7,0.28738
1659,7.3478,4.7273,0,0.00041018,4099,0.00013922,0.007146,0.0001288,-78.286,-0.00041146,-4137.6,0.28821
1660,7.3478,4.5455,0,0.00040934,4090.6,0.00013941,0.0050172,0.00012772,-87.876,-0.00041076,-4133.8,0.28895
1661,7.3478,4.3636,0,0.00040857,4082.9,0.00013959,0.0032122,0.00012673,-96.615,-0.00041013,-4130.3,0.28961
1662,7.3478,4.1818,0,0.00040788,4076,0.00013974,0.0017014,0.00012584,-104.43,-0.00040956,-4127.2,0.29019
1663,7.3478,4,0,0.00040728,4070,0.00013988,0.00043787,0.00012507,-111.26,-0.00040906,-4124.5,0.29068
1664,7.3478,3.8182,0,0.00040677,4064.9,0.00013999,-0.00059902,0.00012441,-117.04,-0.00040864,-4122.2,0.29109
1665,7.3478,3.6364,0,0.00040636,4060.8,0.00014008,-0.00142,0.00012388,-121.73,-0.00040829,-4120.3,0.29141
1666,7.3478,3.4545,0,0.00040605,4057.7,0.00014015,-0.002031,0.00012348,-125.28,-0.00040803,-4118.8,0.29166
1667,7.3478,3.2727,0,0.00040584,4055.6,0.0001402,-0.0024377,0.00012321,-127.67,-0.00040786,-4117.9,0.29182
1668,7.3478,3.0909,0,0.00040573,4054.5,0.00014022,-0.0026411,0.00012307,-128.87,-0.00040777,-4117.4,0.2919
1669,7.3478,2.9091,0,0.00040573,4054.5,0.00014022,-0.0026411,0.00012307,-128.87,-0.00040777,-4117.4,0.2919
1670,7.3478,2.7273,0,0.00040584,4055.6,0.0001402,-0.0024375,0.00012321,-127.67,-0.00040786,-4117.9,0.29182
1671,7.3478,2.5455,0,0.00040605,4057.7,0.00014015,-0.0020307,0.00012348,-125.28,-0.00040803,-4118.8,0.29166
1672,7.3478,2.3636,0,0.00040636,4060.8,0.00014008,-0.0014197,0.00012388,-121.73,-0.00040829,-4120.3,0.29141
1673,7.3478,2.1818,0,0.00040677,4064.9,0.00013999,-0.00059866,0.00012441,-117.04,-0.00040864,-4122.2,0.29109
1674,7.3478,2,0,0.00040728,4070,0.00013988,0.0004381,0.00012507,-111.26,-0.00040906,-4124.5,0.29068
1675,7.3478,1.8182,0,0.00040788,4076,0.00013974,0.0017022,0.00012584,-104.43,-0.00040956,-4127.2,0.29019
1676,7.3478,1.6364,0,0.00040857,4082.9,0.00013959,0.0032126,0.00012673,-96.615,-0.00041013,-4130.3,0.28961
1677,7.3478,1.4545,0,0.00040934,4090.6,0.00013941,0.005018,0.00012772,-87.876,-0.00041076,-4133.8,0.28895
1678,7.3478,1.2727,0,0.00041018,4099,0.00013922,0.0071468,0.0001288,-78.286,-0.00041146,-4137.6,0.28821
1679,7.3478,1.0909,0,0.0004111,4108.1,0.00013901,0.0098631,0.00012997,-67.924,-0.00041221,-4141.7,0.28738
1680,7.3478,0.90909,0,0.00041207,4117.9,0.00013879,0.012849,0.00013122,-56.874,-0.00041301,-4146,0.28647
1681,7.3478,0.72727,0,0.0004131,4128.1,0.00013856,0.018969,0.00013254,-45.221,-0.00041385,-4150.5,0.28547
1682,7.3478,0.54545,0,0.00041417,4138.8,0.00013831,0.020042,0.00013391,-33.06,-0.00041472,-4155.3,0.28438
1683,7.3478,0.36364,0,0.00041528,4150,0.00013806,0.070182,0.00013533,-20.426,-0.00041563,-4160.1,0.28321
1684,7.3478,0.18182,0,0.0004165,4162.1,0.0001378,0.10858,0.00013685,-7.0237,-0.00041662,-4165.6,0.28194
1685,7.1641,5.8182,0,0.00042209,4218,0.00013972,0.10705,0.00013858,-8.4984,-0.00042223,-4222.2,0.26839
1686,7.1641,5.6364,0,0.00042079,4205,0.00014001,0.077393,0.00013693,-23,-0.00042118,-4216.4,0.26967
1687,7.1641,5.4545,0,0.00041959,4193,0.00014028,0.022256,0.00013539,-36.744,-0.0004202,-4211.2,0.27085
1688,7.1641,5.2727,0,0.00041843,4181.4,0.00014055,0.020892,0.0001339,-49.985,-0.00041925,-4206.1,0.27194
1689,7.1641,5.0909,0,0.00041731,4170.3,0.00014081,0.014041,0.00013246,-62.676,-0.00041835,-4201.2,0.27295
1690,7.1641,4.9091,0,0.00041626,4159.7,0.00014105,0.010666,0.00013111,-74.716,-0.00041748,-4196.6,0.27387
1691,7.1641,4.7273,0,0.00041527,4149.8,0.00014128,0.0076114,0.00012983,-86.01,-0.00041667,-4192.2,0.2747
1692,7.1641,4.5455,0,0.00041435,4140.7,0.00014149,0.0052197,0.00012865,-96.466,-0.00041591,-4188.1,0.27545
1693,7.1641,4.3636,0,0.00041352,4132.3,0.00014168,0.0031958,0.00012757,-106,-0.00041522,-4184.3,0.27611
1694,7.1641,4.1818,0,0.00041277,4124.9,0.00014185,0.0015044,0.00012661,-114.53,-0.0004146,-4181,0.27669
1695,7.1641,4,0,0.00041212,4118.4,0.000142,9.1938e-05,0.00012576,-121.98,-0.00041406,-4178,0.27718
1696,7.1641,3.8182,0,0.00041157,4112.9,0.00014212,-0.0010658,0.00012505,-128.29,-0.0004136,-4175.5,0.27759
1697,7.1641,3.6364,0,0.00041112,4108.4,0.00014222,-0.0019816,0.00012447,-133.41,-0.00041323,-4173.5,0.27792
1698,7.1641,3.4545,0,0.00041078,4105,0.0001423,-0.0026629,0.00012403,-137.29,-0.00041295,-4171.9,0.27817
1699,7.1641,3.2727,0,0.00041055,4102.7,0.00014235,-0.0031163,0.00012373,-139.89,-0.00041275,-4170.9,0.27833
1700,7.1641,3.0909,0,0.00041044,4101.6,0.00014238,-0.0033427,0.00012359,-141.2,-0.00041266,-4170.3,0.27841
1701,7.1641,2.9091,0,0.00041044,4101.6,0.00014238,-0.0033426,0.00012359,-141.2,-0.00041266,-4170.3,0.27841
1702,7.1641,2.7273,0,0.00041055,4102.7,0.00014235,-0.0031162,0.00012373,-139.89,-0.00041275,-4170.9,0.27833
1703,7.1641,2.5455,0,0.00041078,4105,0.0001423,-0.0026627,0.00012403,-137.29,-0.00041295,-4171.9,0.27817
1704,7.1641,2.3636,0,0.00041112,4108.4,0.00014222,-0.0019814,0.00012447,-133.41,-0.00041323,-4173.5,0.27792
1705,7.1641,2.1818,0,0.00041157,4112.9,0.00014212,-0.0010655,0.00012505,-128.29,-0.0004136,-4175.5,0.27759
1706,7.1641,2,0,0.00041212,4118.4,0.000142,9.2525e-05,0.00012576,-121.98,-0.00041406,-4178,0.27718
1707,7.1641,1.8182,0,0.00041277,4124.9,0.00014185,0.0015048,0.00012661,-114.53,-0.0004146,-4181,0.27669
1708,7.1641,1.6364,0,0.00041352,4132.3,0.00014168,0.0031965,0.00012757,-106,-0.00041522,-4184.3,0.27611
1709,7.1641,1.4545,0,0.00041435,4140.7,0.00014149,0.0052207,0.00012865,-96.466,-0.00041591,-4188.1,0.27545
1710,7.1641,1.2727,0,0.00041527,4149.8,0.00014128,0.007612,0.00012983,-86.01,-0.00041667,-4192.2,0.2747
1711,7.1641,1.0909,0,0.00041626,4159.7,0.00014105,0.010666,0.00013111,-74.716,-0.00041748,-4196.6,0.27387
1712,7.1641,0.90909,0,0.00041731,4170.3,0.00014081,0.014042,0.00013246,-62.676,-0.00041835,-4201.2,0.27295
1713,7.1641,0.72727,0,0.00041843,4181.4,0.00014055,0.020893,0.0001339,-49.985,-0.00041925,-4206.1,0.27194
1714,7.1641,0.54545,0,0.00041959,4193,0.00014028,0.022257,0.00013539,-36.744,-0.0004202,-4211.2,0.27085
1715,7.1641,0.36364,0,0.00042079,4205,0.00014001,0.077395,0.00013693,-23,-0.00042118,-4216.4,0.26967
1716,7.1641,0.18182,0,0.00042209,4218,0.00013972,0.10705,0.00013858,-8.4983,-0.00042223,-4222.2,0.26839
1717,6.9804,5.8182,0,0.00042772,4274.3,0.00014165,0.10809,0.0001403,-10.055,-0.00042789,-4279.2,0.25513
1718,6.9804,5.6364,0,0.00042633,4260.3,0.00014197,0.085233,0.00013853,-25.745,-0.00042676,-4273.1,0.25641
1719,6.9804,5.4545,0,0.00042502,4247.3,0.00014227,0.024677,0.00013685,-40.689,-0.0004257,-4267.5,0.2576
1720,6.9804,5.2727,0,0.00042377,4234.8,0.00014257,0.022993,0.00013523,-55.097,-0.00042468,-4262,0.2587
1721,6.9804,5.0909,0,0.00042256,4222.7,0.00014285,0.015349,0.00013367,-68.912,-0.00042369,-4256.8,0.25972
1722,6.9804,4.9091,0,0.00042142,4211.3,0.00014311,0.011551,0.0001322,-82.025,-0.00042276,-4251.7,0.26064
1723,6.9804,4.7273,0,0.00042035,4200.6,0.00014336,0.0081301,0.00013081,-94.329,-0.00042188,-4247,0.26148
1724,6.9804,4.5455,0,0.00041936,4190.7,0.00014359,0.0054531,0.00012952,-105.72,-0.00042106,-4242.6,0.26223
1725,6.9804,4.3636,0,0.00041845,4181.7,0.0001438,0.0031914,0.00012835,-116.12,-0.00042031,-4238.5,0.26289
1726,6.9804,4.1818,0,0.00041764,4173.6,0.00014399,0.0013041,0.0001273,-125.42,-0.00041964,-4234.9,0.26347
1727,6.9804,4,0,0.00041694,4166.5,0.00014415,-0.00027079,0.00012638,-133.55,-0.00041905,-4231.7,0.26397
1728,6.9804,3.8182,0,0.00041634,4160.5,0.00014429,-0.0015597,0.0001256,-140.43,-0.00041855,-4228.9,0.26438
1729,6.9804,3.6364,0,0.00041585,4155.6,0.0001444,-0.002579,0.00012497,-146.02,-0.00041814,-4226.7,0.26471
1730,6.9804,3.4545,0,0.00041548,4152,0.00014448,-0.0033365,0.00012449,-150.25,-0.00041784,-4225.1,0.26495
1731,6.9804,3.2727,0,0.00041524,4149.5,0.00014454,-0.0038404,0.00012417,-153.09,-0.00041763,-4223.9,0.26512
1732,6.9804,3.0909,0,0.00041511,4148.3,0.00014457,-0.0040921,0.000124,-154.52,-0.00041752,-4223.4,0.2652
1733,6.9804,2.9091,0,0.00041511,4148.3,0.00014457,-0.0040921,0.000124,-154.52,-0.00041752,-4223.4,0.2652
1734,6.9804,2.7273,0,0.00041524,4149.5,0.00014454,-0.0038405,0.00012417,-153.09,-0.00041763,-4223.9,0.26512
1735,6.9804,2.5455,0,0.00041548,4152,0.00014448,-0.0033362,0.00012449,-150.25,-0.00041784,-4225.1,0.26495
1736,6.9804,2.3636,0,0.00041585,4155.6,0.0001444,-0.0025787,0.00012497,-146.02,-0.00041814,-4226.7,0.26471
1737,6.9804,2.1818,0,0.00041634,4160.5,0.00014429,-0.0015595,0.0001256,-140.43,-0.00041855,-4228.9,0.26438
1738,6.9804,2,0,0.00041694,4166.5,0.00014415,-0.00027026,0.00012638,-133.55,-0.00041905,-4231.7,0.26397
1739,6.9804,1.8182,0,0.00041764,4173.6,0.00014399,0.0013048,0.0001273,-125.42,-0.00041964,-4234.9,0.26347
1740,6.9804,1.6364,0,0.00041845,4181.6,0.0001438,0.0031923,0.00012835,-116.12,-0.00042031,-4238.5,0.26289
1741,6.9804,1.4545,0,0.00041936,4190.7,0.00014359,0.0054538,0.00012952,-105.72,-0.00042106,-4242.6,0.26223
1742,6.9804,1.2727,0,0.00042035,4200.6,0.00014336,0.0081308,0.00013081,-94.329,-0.00042188,-4247,0.26148
1743,6.9804,1.0909,0,0.00042142,4211.3,0.00014311,0.011552,0.0001322,-82.025,-0.00042276,-4251.7,0.26064
1744,6.9804,0.90909,0,0.00042256,4222.7,0.00014285,0.01535,0.00013367,-68.912,-0.00042369,-4256.8,0.25972
1745,6.9804,0.72727,0,0.00042377,4234.8,0.00014257,0.022994,0.00013523,-55.097,-0.00042468,-4262,0.2587
1746,6.9804,0.54545,0,0.00042502,4247.3,0.00014227,0.024677,0.00013685,-40.689,-0.0004257,-4267.5,0.2576
1747,6.9804,0.36364,0,0.00042633,4260.3,0.00014197,0.085234,0.00013853,-25.745,-0.00042676,-4273.1,0.25641
1748,6.9804,0.18182,0,0.00042772,4274.3,0.00014165,0.10809,0.0001403,-10.055,-0.00042789,-4279.2,0.25513
1749,6.7967,5.8182,0,0.00043338,4330.8,0.0001436,0.11117,0.00014203,-11.696,-0.00043358,-4336.6,0.24215
1750,6.7967,5.6364,0,0.00043189,4315.9,0.00014395,0.093762,0.00014012,-28.671,-0.00043237,-4330.1,0.24344
1751,6.7967,5.4545,0,0.00043048,4301.8,0.00014428,0.027328,0.0001383,-44.913,-0.00043123,-4324.1,0.24464
1752,6.7967,5.2727,0,0.00042912,4288.3,0.0001446,0.025292,0.00013654,-60.583,-0.00043012,-4318.2,0.24575
1753,6.7967,5.0909,0,0.00042782,4275.3,0.00014491,0.016788,0.00013485,-75.616,-0.00042906,-4312.5,0.24676
1754,6.7967,4.9091,0,0.00042658,4262.9,0.0001452,0.01253,0.00013324,-89.889,-0.00042804,-4307.1,0.24769
1755,6.7967,4.7273,0,0.00042542,4251.3,0.00014548,0.0087114,0.00013173,-103.29,-0.00042709,-4302,0.24853
1756,6.7967,4.5455,0,0.00042435,4240.5,0.00014573,0.0057237,0.00013033,-115.7,-0.0004262,-4297.2,0.24929
1757,6.7967,4.3636,0,0.00042337,4230.7,0.00014596,0.0032044,0.00012905,-127.03,-0.00042538,-4292.8,0.24995
1758,6.7967,4.1818,0,0.00042249,4222,0.00014616,0.0011036,0.0001279,-137.17,-0.00042466,-4288.9,0.25053
1759,6.7967,4,0,0.00042172,4214.3,0.00014634,-0.00064714,0.0001269,-146.03,-0.00042402,-4285.4,0.25103
1760,6.7967,3.8182,0,0.00042107,4207.8,0.00014649,-0.0020791,0.00012605,-153.55,-0.00042347,-4282.5,0.25145
1761,6.7967,3.6364,0,0.00042054,4202.5,0.00014661,-0.0032105,0.00012537,-159.64,-0.00042303,-4280.1,0.25178
1762,6.7967,3.4545,0,0.00042015,4198.6,0.0001467,-0.0040514,0.00012484,-164.26,-0.0004227,-4278.3,0.25202
1763,6.7967,3.2727,0,0.00041988,4195.9,0.00014677,-0.0046103,0.00012449,-167.37,-0.00042247,-4277.1,0.25219
1764,6.7967,3.0909,0,0.00041974,4194.5,0.0001468,-0.0048894,0.00012432,-168.92,-0.00042236,-4276.4,0.25227
1765,6.7967,2.9091,0,0.00041974,4194.5,0.0001468,-0.0048893,0.00012432,-168.92,-0.00042236,-4276.4,0.25227
1766,6.7967,2.7273,0,0.00041988,4195.9,0.00014677,-0.00461,0.00012449,-167.37,-0.00042247,-4277.1,0.25219
1767,6.7967,2.5455,0,0.00042015,4198.6,0.0001467,-0.0040512,0.00012484,-164.26,-0.0004227,-4278.3,0.25202
1768,6.7967,2.3636,0,0.00042054,4202.5,0.00014661,-0.0032105,0.00012537,-159.64,-0.00042303,-4280.1,0.25178
1769,6.7967,2.1818,0,0.00042107,4207.8,0.00014649,-0.0020784,0.00012605,-153.55,-0.00042347,-4282.5,0.25145
1770,6.7967,2,0,0.00042172,4214.3,0.00014634,-0.00064673,0.0001269,-146.03,-0.00042402,-4285.4,0.25103
1771,6.7967,1.8182,0,0.00042249,4222,0.00014616,0.0011042,0.0001279,-137.17,-0.00042466,-4288.9,0.25053
1772,6.7967,1.6364,0,0.00042337,4230.7,0.00014596,0.0032048,0.00012905,-127.03,-0.00042538,-4292.8,0.24995
1773,6.7967,1.4545,0,0.00042435,4240.5,0.00014573,0.0057248,0.00013033,-115.7,-0.0004262,-4297.2,0.24929
1774,6.7967,1.2727,0,0.00042542,4251.3,0.00014548,0.0087119,0.00013173,-103.29,-0.00042709,-4302,0.24853
1775,6.7967,1.0909,0,0.00042658,4262.9,0.0001452,0.012531,0.00013324,-89.889,-0.00042804,-4307.1,0.24769
1776,6.7967,0.90909,0,0.00042782,4275.3,0.00014491,0.016789,0.00013485,-75.616,-0.00042906,-4312.5,0.24676
1777,6.7967,0.72727,0,0.00042912,4288.3,0.0001446,0.025292,0.00013654,-60.583,-0.00043012,-4318.2,0.24575
1778,6.7967,0.54545,0,0.00043048,4301.8,0.00014428,0.027328,0.0001383,-44.913,-0.00043123,-4324.1,0.24464
1779,6.7967,0.36364,0,0.00043189,4315.9,0.00014395,0.093763,0.00014012,-28.671,-0.00043237,-4330.1,0.24344
1780,6.7967,0.18182,0,0.00043338,4330.8,0.0001436,0.11118,0.00014203,-11.696,-0.00043358,-4336.6,0.24215
1781,6.613,5.8182,0,0.00043909,4387.8,0.00014557,0.11607,0.00014377,-13.421,-0.00043931,-4394.5,0.22946
1782,6.613,5.6364,0,0.00043748,4371.8,0.00014595,0.10304,0.0001417,-31.789,-0.00043801,-4387.5,0.23076
1783,6.613,5.4545,0,0.00043596,4356.6,0.00014631,0.030225,0.00013973,-49.434,-0.00043678,-4381.1,0.23197
1784,6.613,5.2727,0,0.00043449,4341.9,0.00014666,0.027796,0.00013781,-66.469,-0.00043558,-4374.7,0.23308
1785,6.613,5.0909,0,0.00043308,4327.8,0.000147,0.01836,0.00013598,-82.821,-0.00043443,-4368.6,0.2341
1786,6.613,4.9091,0,0.00043174,4314.4,0.00014732,0.013603,0.00013423,-98.354,-0.00043333,-4362.8,0.23504
1787,6.613,4.7273,0,0.00043048,4301.9,0.00014762,0.0093512,0.00013259,-112.94,-0.00043229,-4357.2,0.23588
1788,6.613,4.5455,0,0.00042932,4290.2,0.00014789,0.006027,0.00013106,-126.46,-0.00043133,-4352.1,0.23663
1789,6.613,4.3636,0,0.00042826,4279.6,0.00014814,0.0032273,0.00012967,-138.81,-0.00043045,-4347.3,0.2373
1790,6.613,4.1818,0,0.00042731,4270.1,0.00014837,0.00089489,0.00012842,-149.86,-0.00042966,-4343.1,0.23789
1791,6.613,4,0,0.00042647,4261.8,0.00014856,-0.0010475,0.00012733,-159.52,-0.00042896,-4339.3,0.23838
1792,6.613,3.8182,0,0.00042577,4254.7,0.00014873,-0.0026347,0.00012641,-167.72,-0.00042837,-4336.1,0.2388
1793,6.613,3.6364,0,0.0004252,4249,0.00014886,-0.0038881,0.00012566,-174.37,-0.00042789,-4333.5,0.23913
1794,6.613,3.4545,0,0.00042476,4244.7,0.00014896,-0.0048193,0.00012509,-179.41,-0.00042753,-4331.6,0.23938
1795,6.613,3.2727,0,0.00042447,4241.8,0.00014903,-0.0054377,0.0001247,-182.8,-0.00042729,-4330.2,0.23954
1796,6.613,3.0909,0,0.00042433,4240.3,0.00014907,-0.0057468,0.00012451,-184.5,-0.00042716,-4329.6,0.23962
1797,6.613,2.9091,0,0.00042433,4240.3,0.00014907,-0.0057468,0.00012451,-184.5,-0.00042716,-4329.6,0.23962
1798,6.613,2.7273,0,0.00042447,4241.8,0.00014903,-0.0054374,0.0001247,-182.8,-0.00042729,-4330.2,0.23954
1799,6.613,2.5455,0,0.00042476,4244.7,0.00014896,-0.0048191,0.00012509,-179.41,-0.00042753,-4331.6,0.23938
1800,6.613,2.3636,0,0.0004252,4249,0.00014886,-0.0038878,0.00012566,-174.37,-0.00042789,-4333.5,0.23913
1801,6.613,2.1818,0,0.00042577,4254.7,0.00014873,-0.0026343,0.00012641,-167.72,-0.00042837,-4336.1,0.2388
1802,6.613,2,0,0.00042647,4261.8,0.00014856,-0.0010469,0.00012733,-159.52,-0.00042896,-4339.3,0.23838
1803,6.613,1.8182,0,0.00042731,4270.1,0.00014837,0.00089505,0.00012842,-149.86,-0.00042966,-4343.1,0.23789
1804,6.613,1.6364,0,0.00042826,4279.6,0.00014814,0.0032276,0.00012967,-138.81,-0.00043045,-4347.3,0.2373
1805,6.613,1.4545,0,0.00042932,4290.2,0.00014789,0.0060278,0.00013106,-126.46,-0.00043133,-4352.1,0.23663
1806,6.613,1.2727,0,0.00043048,4301.9,0.00014762,0.0093522,0.00013259,-112.94,-0.00043229,-4357.2,0.23588
1807,6.613,1.0909,0,0.00043174,4314.4,0.00014732,0.013603,0.00013423,-98.354,-0.00043333,-4362.8,0.23504
1808,6.613,0.90909,0,0.00043308,4327.8,0.000147,0.018361,0.00013598,-82.821,-0.00043443,-4368.6,0.2341
1809,6.613,0.72727,0,0.00043449,4341.9,0.00014666,0.027797,0.00013781,-66.469,-0.00043558,-4374.7,0.23308
1810,6.613,0.54545,0,0.00043596,4356.6,0.00014631,0.030225,0.00013973,-49.434,-0.00043678,-4381.1,0.23197
1811,6.613,0.36364,0,0.00043748,4371.8,0.00014595,0.10304,0.0001417,-31.789,-0.00043801,-4387.5,0.23076
1812,6.613,0.18182,0,0.00043909,4387.8,0.00014557,0.11607,0.00014377,-13.421,-0.00043931,-4394.5,0.22946
1813,6.4293,5.8182,0,0.00044483,4445.2,0.00014756,0.1227,0.00014551,-15.231,-0.00044508,-4452.7,0.21708
1814,6.4293,5.6364,0,0.0004431,4428,0.00014797,0.11314,0.00014328,-35.107,-0.00044369,-4445.4,0.21838
1815,6.4293,5.4545,0,0.00044146,4411.5,0.00014836,0.033398,0.00014114,-54.271,-0.00044236,-4438.4,0.21959
1816,6.4293,5.2727,0,0.00043987,4395.7,0.00014875,0.030532,0.00013906,-72.784,-0.00044106,-4431.6,0.22071
1817,6.4293,5.0909,0,0.00043834,4380.4,0.00014912,0.020082,0.00013706,-90.564,-0.00043981,-4425,0.22174
1818,6.4293,4.9091,0,0.0004369,4365.9,0.00014947,0.014782,0.00013516,-107.46,-0.00043862,-4418.7,0.22267
1819,6.4293,4.7273,0,0.00043553,4352.3,0.00014979,0.010061,0.00013338,-123.34,-0.0004375,-4412.7,0.22352
1820,6.4293,4.5455,0,0.00043427,4339.7,0.0001501,0.0063705,0.00013172,-138.07,-0.00043646,-4407.1,0.22427
1821,6.4293,4.3636,0,0.00043312,4328.2,0.00015037,0.0032658,0.0001302,-151.51,-0.0004355,-4402,0.22494
1822,6.4293,4.1818,0,0.00043209,4317.9,0.00015061,0.00068178,0.00012885,-163.56,-0.00043464,-4397.4,0.22553
1823,6.4293,4,0,0.00043119,4308.9,0.00015083,-0.0014682,0.00012766,-174.1,-0.00043389,-4393.3,0.22603
1824,6.4293,3.8182,0,0.00043042,4301.3,0.00015101,-0.0032243,0.00012665,-183.04,-0.00043324,-4389.9,0.22644
1825,6.4293,3.6364,0,0.0004298,4295.1,0.00015116,-0.0046103,0.00012583,-190.29,-0.00043272,-4387.1,0.22677
1826,6.4293,3.4545,0,0.00042933,4290.4,0.00015127,-0.0056394,0.00012521,-195.79,-0.00043233,-4384.9,0.22702
1827,6.4293,3.2727,0,0.00042902,4287.2,0.00015134,-0.0063231,0.00012479,-199.48,-0.00043206,-4383.5,0.22718
1828,6.4293,3.0909,0,0.00042886,4285.6,0.00015138,-0.0066642,0.00012458,-201.34,-0.00043193,-4382.8,0.22727
1829,6.4293,2.9091,0,0.00042886,4285.6,0.00015138,-0.0066641,0.00012458,-201.34,-0.00043193,-4382.8,0.22727
1830,6.4293,2.7273,0,0.00042902,4287.2,0.00015134,-0.0063229,0.00012479,-199.48,-0.00043206,-4383.5,0.22718
1831,6.4293,2.5455,0,0.00042933,4290.4,0.00015127,-0.0056393,0.00012521,-195.79,-0.00043233,-4384.9,0.22702
1832,6.4293,2.3636,0,0.0004298,4295.1,0.00015116,-0.0046099,0.00012583,-190.29,-0.00043272,-4387.1,0.22677
1833,6.4293,2.1818,0,0.00043042,4301.3,0.00015101,-0.003224,0.00012665,-183.04,-0.00043324,-4389.9,0.22644
1834,6.4293,2,0,0.00043119,4308.9,0.00015083,-0.0014678,0.00012766,-174.1,-0.00043389,-4393.3,0.22603
1835,6.4293,1.8182,0,0.00043209,4317.9,0.00015061,0.00068227,0.00012885,-163.56,-0.00043464,-4397.4,0.22553
1836,6.4293,1.6364,0,0.00043312,4328.2,0.00015037,0.0032664,0.0001302,-151.51,-0.0004355,-4402,0.22494
1837,6.4293,1.4545,0,0.00043427,4339.7,0.0001501,0.006371,0.00013172,-138.07,-0.00043646,-4407.1,0.22427
1838,6.4293,1.2727,0,0.00043553,4352.3,0.00014979,0.010062,0.00013338,-123.34,-0.0004375,-4412.7,0.22352
1839,6.4293,1.0909,0,0.0004369,4365.9,0.00014947,0.014783,0.00013516,-107.46,-0.00043862,-4418.7,0.22267
1840,6.4293,0.90909,0,0.00043834,4380.4,0.00014912,0.020084,0.00013706,-90.564,-0.00043981,-4425,0.22174
1841,6.4293,0.72727,0,0.00043987,4395.7,0.00014875,0.030533,0.00013906,-72.784,-0.00044106,-4431.6,0.22071
1842,6.4293,0.54545,0,0.00044146,4411.5,0.00014836,0.033398,0.00014114,-54.271,-0.00044236,-4438.4,0.21959
1843,6.4293,0.36364,0,0.0004431,4428,0.00014797,0.11314,0.00014328,-35.107,-0.00044369,-4445.4,0.21838
1844,6.4293,0.18182,0,0.00044483,4445.2,0.00014756,0.1227,0.00014551,-15.231,-0.00044508,-4452.7,0.21708
1845,6.2457,5.8182,0,0.00045061,4503,0.00014956,0.13111,0.00014726,-17.125,-0.0004509,-4511.5,0.20499
1846,6.2457,5.6364,0,0.00044876,4484.5,0.00015001,0.12415,0.00014485,-38.637,-0.0004494,-4503.6,0.2063
1847,6.2457,5.4545,0,0.00044698,4466.7,0.00015044,0.036881,0.00014252,-59.442,-0.00044796,-4496.1,0.20752
1848,6.2457,5.2727,0,0.00044526,4449.5,0.00015086,0.033526,0.00014027,-79.556,-0.00044656,-4488.8,0.20864
1849,6.2457,5.0909,0,0.00044361,4433.1,0.00015126,0.021975,0.0001381,-98.885,-0.00044521,-4481.7,0.20966
1850,6.2457,4.9091,0,0.00044204,4417.4,0.00015165,0.016083,0.00013604,-117.27,-0.00044392,-4474.8,0.2106
1851,6.2457,4.7273,0,0.00044057,4402.7,0.000152,0.010851,0.00013409,-134.55,-0.0004427,-4468.4,0.21145
1852,6.2457,4.5455,0,0.0004392,4389,0.00015233,0.0067623,0.00013229,-150.58,-0.00044157,-4462.4,0.21221
1853,6.2457,4.3636,0,0.00043796,4376.5,0.00015263,0.0033266,0.00013064,-165.23,-0.00044053,-4456.8,0.21288
1854,6.2457,4.1818,0,0.00043684,4365.4,0.0001529,0.00046893,0.00012916,-178.35,-0.0004396,-4451.8,0.21346
1855,6.2457,4,0,0.00043586,4355.6,0.00015314,-0.0019068,0.00012787,-189.84,-0.00043878,-4447.4,0.21396
1856,6.2457,3.8182,0,0.00043503,4347.3,0.00015333,-0.003846,0.00012677,-199.59,-0.00043808,-4443.7,0.21438
1857,6.2457,3.6364,0,0.00043436,4340.6,0.00015349,-0.0053757,0.00012588,-207.5,-0.00043752,-4440.6,0.21471
1858,6.2457,3.4545,0,0.00043385,4335.5,0.00015362,-0.0065114,0.0001252,-213.5,-0.00043709,-4438.3,0.21495
1859,6.2457,3.2727,0,0.00043351,4332.1,0.0001537,-0.0072654,0.00012475,-217.54,-0.0004368,-4436.8,0.21512
1860,6.2457,3.0909,0,0.00043334,4330.4,0.00015374,-0.0076415,0.00012452,-219.56,-0.00043665,-4436,0.2152
1861,6.2457,2.9091,0,0.00043334,4330.4,0.00015374,-0.0076416,0.00012452,-219.56,-0.00043665,-4436,0.2152
1862,6.2457,2.7273,0,0.00043351,4332.1,0.0001537,-0.0072651,0.00012475,-217.54,-0.0004368,-4436.8,0.21512
1863,6.2457,2.5455,0,0.00043385,4335.5,0.00015362,-0.0065111,0.0001252,-213.5,-0.00043709,-4438.3,0.21495
1864,6.2457,2.3636,0,0.00043436,4340.6,0.00015349,-0.0053755,0.00012588,-207.5,-0.00043752,-4440.6,0.21471
1865,6.2457,2.1818,0,0.00043503,4347.3,0.00015333,-0.0038456,0.00012677,-199.59,-0.00043808,-4443.7,0.21438
1866,6.2457,2,0,0.00043586,4355.6,0.00015314,-0.0019064,0.00012787,-189.84,-0.00043878,-4447.4,0.21396
1867,6.2457,1.8182,0,0.00043684,4365.4,0.0001529,0.00046964,0.00012916,-178.35,-0.0004396,-4451.8,0.21346
1868,6.2457,1.6364,0,0.00043796,4376.5,0.00015263,0.0033272,0.00013064,-165.23,-0.00044053,-4456.8,0.21288
1869,6.2457,1.4545,0,0.0004392,4389,0.00015233,0.006763,0.00013229,-150.58,-0.00044157,-4462.4,0.21221
1870,6.2457,1.2727,0,0.00044057,4402.7,0.000152,0.010852,0.00013409,-134.55,-0.0004427,-4468.4,0.21145
1871,6.2457,1.0909,0,0.00044204,4417.4,0.00015165,0.016084,0.00013604,-117.27,-0.00044392,-4474.8,0.2106
1872,6.2457,0.90909,0,0.00044361,4433.1,0.00015126,0.021976,0.0001381,-98.885,-0.00044521,-4481.7,0.20966
1873,6.2457,0.72727,0,0.00044526,4449.5,0.00015086,0.033526,0.00014027,-79.556,-0.00044656,-4488.8,0.20864
1874,6.2457,0.54545,0,0.00044698,4466.7,0.00015044,0.036881,0.00014252,-59.442,-0.00044796,-4496.1,0.20752
1875,6.2457,0.36364,0,0.00044876,4484.5,0.00015001,0.12415,0.00014485,-38.637,-0.0004494,-4503.6,0.2063
1876,6.2457,0.18182,0,0.00045061,4503,0.00014956,0.13111,0.00014726,-17.125,-0.0004509,-4511.5,0.20499
1877,6.062,5.8182,0,0.00045644,4561.2,0.00015158,0.1414,0.00014902,-19.102,-0.00045676,-4570.7,0.19321
1878,6.062,5.6364,0,0.00045444,4541.3,0.00015207,0.13616,0.00014641,-42.387,-0.00045515,-4562.3,0.19452
1879,6.062,5.4545,0,0.00045252,4522.1,0.00015254,0.040706,0.00014389,-64.969,-0.00045359,-4554.2,0.19574
1880,6.062,5.2727,0,0.00045067,4503.6,0.000153,0.036803,0.00014144,-86.816,-0.00045208,-4546.3,0.19686
1881,6.062,5.0909,0,0.00044888,4485.7,0.00015344,0.024054,0.00013909,-107.82,-0.00045062,-4538.6,0.19789
1882,6.062,4.9091,0,0.00044718,4468.8,0.00015386,0.017518,0.00013685,-127.81,-0.00044922,-4531.3,0.19883
1883,6.062,4.7273,0,0.00044559,4452.8,0.00015425,0.01173,0.00013473,-146.62,-0.0004479,-4524.3,0.19968
1884,6.062,4.5455,0,0.00044411,4438,0.00015461,0.0072085,0.00013277,-164.07,-0.00044667,-4517.8,0.20044
1885,6.062,4.3636,0,0.00044276,4424.5,0.00015494,0.0034131,0.00013098,-180.03,-0.00044555,-4511.8,0.20111
1886,6.062,4.1818,0,0.00044155,4412.4,0.00015523,0.00025863,0.00012937,-194.33,-0.00044453,-4506.4,0.20169
1887,6.062,4,0,0.00044049,4401.9,0.00015549,-0.0023625,0.00012796,-206.86,-0.00044364,-4501.6,0.20219
1888,6.062,3.8182,0,0.00043959,4392.9,0.0001557,-0.0045004,0.00012676,-217.49,-0.00044289,-4497.6,0.20261
1889,6.062,3.6364,0,0.00043886,4385.6,0.00015588,-0.0061859,0.00012579,-226.12,-0.00044227,-4494.3,0.20294
1890,6.062,3.4545,0,0.00043831,4380.1,0.00015601,-0.0074369,0.00012505,-232.67,-0.00044181,-4491.8,0.20318
1891,6.062,3.2727,0,0.00043794,4376.4,0.0001561,-0.0082669,0.00012455,-237.07,-0.00044149,-4490.1,0.20335
1892,6.062,3.0909,0,0.00043775,4374.5,0.00015615,-0.0086814,0.0001243,-239.28,-0.00044133,-4489.3,0.20343
1893,6.062,2.9091,0,0.00043775,4374.5,0.00015615,-0.0086811,0.0001243,-239.28,-0.00044133,-4489.3,0.20343
1894,6.062,2.7273,0,0.00043794,4376.4,0.0001561,-0.008267,0.00012455,-237.07,-0.00044149,-4490.1,0.20335
1895,6.062,2.5455,0,0.00043831,4380.1,0.00015601,-0.0074369,0.00012505,-232.67,-0.00044181,-4491.8,0.20318
1896,6.062,2.3636,0,0.00043886,4385.6,0.00015588,-0.0061855,0.00012579,-226.12,-0.00044227,-4494.3,0.20294
1897,6.062,2.1818,0,0.00043959,4392.9,0.0001557,-0.0045001,0.00012676,-217.49,-0.00044289,-4497.6,0.20261
1898,6.062,2,0,0.00044049,4401.9,0.00015549,-0.002362,0.00012796,-206.86,-0.00044364,-4501.6,0.20219
1899,6.062,1.8182,0,0.00044155,4412.4,0.00015523,0.00025901,0.00012937,-194.33,-0.00044453,-4506.4,0.20169
1900,6.062,1.6364,0,0.00044276,4424.5,0.00015494,0.0034138,0.00013098,-180.03,-0.00044555,-4511.8,0.20111
1901,6.062,1.4545,0,0.00044411,4438,0.00015461,0.0072094,0.00013277,-164.07,-0.00044667,-4517.8,0.20044
1902,6.062,1.2727,0,0.00044559,4452.8,0.00015425,0.011731,0.00013473,-146.62,-0.0004479,-4524.3,0.19968
1903,6.062,1.0909,0,0.00044718,4468.8,0.00015386,0.017519,0.00013685,-127.81,-0.00044922,-4531.3,0.19883
1904,6.062,0.90909,0,0.00044888,4485.7,0.00015344,0.024055,0.00013909,-107.82,-0.00045062,-4538.6,0.19789
1905,6.062,0.72727,0,0.00045067,4503.6,0.000153,0.036804,0.00014144,-86.816,-0.00045208,-4546.3,0.19686
1906,6.062,0.54545,0,0.00045252,4522.1,0.00015254,0.040706,0.00014389,-64.969,-0.00045359,-4554.2,0.19574
1907,6.062,0.36364,0,0.00045444,4541.3,0.00015207,0.13616,0.00014641,-42.387,-0.00045515,-4562.3,0.19452
1908,6.062,0.18182,0,0.00045644,4561.2,0.00015158,0.1414,0.00014902,-19.102,-0.00045676,-4570.7,0.19321
1909,5.8783,5.8182,0,0.00046231,4620,0.00015362,0.15376,0.00015079,-21.157,-0.00046267,-4630.4,0.18173
1910,5.8783,5.6364,0,0.00046017,4598.5,0.00015416,0.14926,0.00014797,-46.367,-0.00046093,-4621.4,0.18305
1911,5.8783,5.4545,0,0.00045809,4577.8,0.00015467,0.044909,0.00014523,-70.87,-0.00045926,-4612.8,0.18427
1912,5.8783,5.2727,0,0.00045608,4557.7,0.00015517,0.040392,0.00014258,-94.595,-0.00045762,-4604.2,0.1854
1913,5.8783,5.0909,0,0.00045415,4538.4,0.00015565,0.026338,0.00014002,-117.42,-0.00045604,-4596,0.18643
1914,5.8783,4.9091,0,0.00045232,4520.1,0.00015611,0.019099,0.00013758,-139.16,-0.00045452,-4588,0.18737
1915,5.8783,4.7273,0,0.00045059,4502.8,0.00015653,0.012707,0.00013529,-159.62,-0.00045309,-4580.5,0.18821
1916,5.8783,4.5455,0,0.00044899,4486.8,0.00015693,0.0077138,0.00013315,-178.62,-0.00045176,-4573.4,0.18897
1917,5.8783,4.3636,0,0.00044753,4472.2,0.00015729,0.0035275,0.0001312,-196,-0.00045054,-4567,0.18964
1918,5.8783,4.1818,0,0.00044622,4459.1,0.00015761,5.0086e-05,0.00012945,-211.59,-0.00044944,-4561.1,0.19022
1919,5.8783,4,0,0.00044507,4447.6,0.00015789,-0.0028369,0.00012791,-225.25,-0.00044847,-4556,0.19072
1920,5.8783,3.8182,0,0.0004441,4437.9,0.00015813,-0.0051899,0.00012661,-236.84,-0.00044765,-4551.6,0.19114
1921,5.8783,3.6364,0,0.00044331,4430,0.00015832,-0.0070442,0.00012555,-246.26,-0.00044698,-4548,0.19147
1922,5.8783,3.4545,0,0.00044271,4424,0.00015847,-0.0084201,0.00012474,-253.41,-0.00044648,-4545.3,0.19171
1923,5.8783,3.2727,0,0.00044231,4420,0.00015856,-0.0093324,0.0001242,-258.21,-0.00044613,-4543.5,0.19188
1924,5.8783,3.0909,0,0.00044211,4418,0.00015861,-0.0097875,0.00012393,-260.62,-0.00044596,-4542.6,0.19196
1925,5.8783,2.9091,0,0.00044211,4418,0.00015861,-0.0097874,0.00012393,-260.62,-0.00044596,-4542.6,0.19196
1926,5.8783,2.7273,0,0.00044231,4420,0.00015856,-0.0093323,0.0001242,-258.21,-0.00044613,-4543.5,0.19188
1927,5.8783,2.5455,0,0.00044271,4424,0.00015847,-0.0084197,0.00012474,-253.41,-0.00044648,-4545.3,0.19171
1928,5.8783,2.3636,0,0.00044331,4430,0.00015832,-0.007044,0.00012555,-246.26,-0.00044698,-4548,0.19147
1929,5.8783,2.1818,0,0.0004441,4437.9,0.00015813,-0.0051896,0.00012661,-236.84,-0.00044765,-4551.6,0.19114
1930,5.8783,2,0,0.00044507,4447.6,0.00015789,-0.0028362,0.00012791,-225.25,-0.00044847,-4556,0.19072
1931,5.8783,1.8182,0,0.00044622,4459.1,0.00015761,5.0673e-05,0.00012945,-211.59,-0.00044944,-4561.1,0.19022
1932,5.8783,1.6364,0,0.00044753,4472.2,0.00015729,0.0035281,0.0001312,-196,-0.00045054,-4567,0.18964
1933,5.8783,1.4545,0,0.00044899,4486.8,0.00015693,0.0077147,0.00013315,-178.62,-0.00045176,-4573.4,0.18897
1934,5.8783,1.2727,0,0.00045059,4502.8,0.00015653,0.012707,0.00013529,-159.62,-0.00045309,-4580.5,0.18821
1935,5.8783,1.0909,0,0.00045232,4520.1,0.00015611,0.0191,0.00013758,-139.16,-0.00045452,-4588,0.18737
1936,5.8783,0.90909,0,0.00045415,4538.4,0.00015565,0.026339,0.00014002,-117.42,-0.00045604,-4596,0.18643
1937,5.8783,0.72727,0,0.00045608,4557.7,0.00015517,0.040392,0.00014258,-94.595,-0.00045762,-4604.2,0.1854
1938,5.8783,0.54545,0,0.00045809,4577.8,0.00015467,0.044909,0.00014523,-70.87,-0.00045926,-4612.8,0.18427
1939,5.8783,0.36364,0,0.00046017,4598.5,0.00015416,0.14926,0.00014797,-46.367,-0.00046093,-4621.4,0.18305
1940,5.8783,0.18182,0,0.00046231,4620,0.00015362,0.15376,0.00015079,-21.157,-0.00046267,-4630.4,0.18173
1941,5.6946,5.8182,0,0.00046824,4679.2,0.00015569,0.16846,0.00015256,-23.287,-0.00046863,-4690.7,0.17057
1942,5.6946,5.6364,0,0.00046592,4656,0.00015627,0.16357,0.00014951,-50.584,-0.00046676,-4681,0.17189
1943,5.6946,5.4545,0,0.00046368,4633.6,0.00015683,0.04953,0.00014655,-77.167,-0.00046495,-4671.7,0.17311
1944,5.6946,5.2727,0,0.00046151,4611.9,0.00015737,0.044319,0.00014367,-102.93,-0.00046318,-4662.5,0.17424
1945,5.6946,5.0909,0,0.00045943,4591.1,0.0001579,0.028844,0.00014089,-127.73,-0.00046147,-4653.6,0.17527
1946,5.6946,4.9091,0,0.00045744,4571.3,0.00015839,0.020838,0.00013824,-151.36,-0.00045983,-4645,0.17621
1947,5.6946,4.7273,0,0.00045557,4552.6,0.00015886,0.013787,0.00013575,-173.62,-0.00045828,-4636.9,0.17705
1948,5.6946,4.5455,0,0.00045384,4535.3,0.00015929,0.0082823,0.00013343,-194.31,-0.00045683,-4629.3,0.17781
1949,5.6946,4.3636,0,0.00045226,4519.5,0.00015968,0.0036708,0.0001313,-213.24,-0.00045551,-4622.3,0.17848
1950,5.6946,4.1818,0,0.00045084,4505.3,0.00016004,-0.00015664,0.00012939,-230.24,-0.00045431,-4616,0.17906
1951,5.6946,4,0,0.0004496,4492.9,0.00016034,-0.0033317,0.00012772,-245.13,-0.00045326,-4610.4,0.17956
1952,5.6946,3.8182,0,0.00044854,4482.3,0.0001606,-0.0059177,0.0001263,-257.77,-0.00045237,-4605.7,0.17997
1953,5.6946,3.6364,0,0.00044769,4473.8,0.00016082,-0.0079543,0.00012514,-268.05,-0.00045165,-4601.8,0.1803
1954,5.6946,3.4545,0,0.00044704,4467.3,0.00016098,-0.0094645,0.00012426,-275.85,-0.00045109,-4598.9,0.18054
1955,5.6946,3.2727,0,0.00044661,4463,0.00016108,-0.010466,0.00012367,-281.09,-0.00045072,-4596.9,0.1807
1956,5.6946,3.0909,0,0.00044639,4460.8,0.00016114,-0.010965,0.00012338,-283.73,-0.00045054,-4595.9,0.18079
1957,5.6946,2.9091,0,0.00044639,4460.8,0.00016114,-0.010965,0.00012338,-283.73,-0.00045054,-4595.9,0.18079
1958,5.6946,2.7273,0,0.00044661,4463,0.00016108,-0.010466,0.00012367,-281.09,-0.00045072,-4596.9,0.1807
1959,5.6946,2.5455,0,0.00044704,4467.3,0.00016098,-0.0094644,0.00012426,-275.85,-0.00045109,-4598.9,0.18054
1960,5.6946,2.3636,0,0.00044769,4473.8,0.00016082,-0.007954,0.00012514,-268.05,-0.00045165,-4601.8,0.1803
1961,5.6946,2.1818,0,0.00044854,4482.3,0.0001606,-0.0059173,0.0001263,-257.77,-0.00045237,-4605.7,0.17997
1962,5.6946,2,0,0.0004496,4492.9,0.00016034,-0.0033313,0.00012772,-245.13,-0.00045326,-4610.4,0.17956
1963,5.6946,1.8182,0,0.00045084,4505.3,0.00016004,-0.00015597,0.00012939,-230.24,-0.00045431,-4616,0.17906
1964,5.6946,1.6364,0,0.00045226,4519.5,0.00015968,0.0036713,0.0001313,-213.24,-0.00045551,-4622.3,0.17848
1965,5.6946,1.4545,0,0.00045384,4535.3,0.00015929,0.0082829,0.00013343,-194.31,-0.00045683,-4629.3,0.17781
1966,5.6946,1.2727,0,0.00045557,4552.6,0.00015886,0.013788,0.00013575,-173.62,-0.00045828,-4636.9,0.17705
1967,5.6946,1.0909,0,0.00045744,4571.3,0.00015839,0.020839,0.00013824,-151.36,-0.00045983,-4645,0.17621
1968,5.6946,0.90909,0,0.00045943,4591.1,0.0001579,0.028845,0.00014089,-127.73,-0.00046147,-4653.6,0.17527
1969,5.6946,0.72727,0,0.00046151,4611.9,0.00015737,0.04432,0.00014367,-102.93,-0.00046318,-4662.5,0.17424
1970,5.6946,0.54545,0,0.00046368,4633.6,0.00015683,0.04953,0.00014655,-77.167,-0.00046495,-4671.7,0.17311
1971,5.6946,0.36364,0,0.00046592,4656,0.00015627,0.16357,0.00014951,-50.584,-0.00046676,-4681,0.17189
1972,5.6946,0.18182,0,0.00046824,4679.2,0.00015569,0.16846,0.00015256,-23.287,-0.00046863,-4690.7,0.17057
1973,5.5109,5.8182,0,0.00047422,4738.9,0.00015777,0.18583,0.00015435,-25.484,-0.00047464,-4751.5,0.15972
1974,5.5109,5.6364,0,0.00047172,4714,0.0001584,0.17922,0.00015105,-55.046,-0.00047263,-4741.1,0.16104
1975,5.5109,5.4545,0,0.0004693,4689.8,0.00015901,0.054627,0.00014784,-83.88,-0.00047067,-4731.1,0.16227
1976,5.5109,5.2727,0,0.00046696,4666.3,0.00015961,0.048633,0.00014471,-111.84,-0.00046876,-4721.2,0.16339
1977,5.5109,5.0909,0,0.0004647,4643.8,0.00016018,0.031607,0.0001417,-138.79,-0.0004669,-4711.6,0.16442
1978,5.5109,4.9091,0,0.00046255,4622.3,0.00016072,0.022763,0.00013882,-164.48,-0.00046513,-4702.4,0.16536
1979,5.5109,4.7273,0,0.00046053,4602.2,0.00016123,0.014996,0.00013611,-188.7,-0.00046345,-4693.6,0.1662
1980,5.5109,4.5455,0,0.00045866,4583.4,0.0001617,0.0089326,0.00013359,-211.23,-0.00046189,-4685.4,0.16696
1981,5.5109,4.3636,0,0.00045695,4566.3,0.00016213,0.0038599,0.00013127,-231.85,-0.00046045,-4677.8,0.16762
1982,5.5109,4.1818,0,0.00045541,4551,0.00016252,-0.00034711,0.00012919,-250.37,-0.00045915,-4671,0.1682
1983,5.5109,4,0,0.00045407,4537.5,0.00016285,-0.003834,0.00012737,-266.61,-0.00045801,-4665,0.16869
1984,5.5109,3.8182,0,0.00045293,4526.1,0.00016314,-0.0066719,0.00012582,-280.4,-0.00045705,-4659.8,0.1691
1985,5.5109,3.6364,0,0.000452,4516.9,0.00016337,-0.0089047,0.00012456,-291.62,-0.00045626,-4655.7,0.16943
1986,5.5109,3.4545,0,0.0004513,4509.9,0.00016355,-0.010559,0.0001236,-300.13,-0.00045566,-4652.5,0.16967
1987,5.5109,3.2727,0,0.00045083,4505.2,0.00016367,-0.011656,0.00012296,-305.85,-0.00045525,-4650.3,0.16984
1988,5.5109,3.0909,0,0.00045059,4502.8,0.00016373,-0.012202,0.00012264,-308.73,-0.00045505,-4649.2,0.16992
1989,5.5109,2.9091,0,0.00045059,4502.8,0.00016373,-0.012202,0.00012264,-308.73,-0.00045505,-4649.2,0.16992
1990,5.5109,2.7273,0,0.00045083,4505.2,0.00016367,-0.011656,0.00012296,-305.85,-0.00045525,-4650.3,0.16984
1991,5.5109,2.5455,0,0.0004513,4509.9,0.00016355,-0.010559,0.0001236,-300.13,-0.00045566,-4652.5,0.16967
1992,5.5109,2.3636,0,0.000452,4516.9,0.00016337,-0.0089044,0.00012456,-291.62,-0.00045626,-4655.7,0.16943
1993,5.5109,2.1818,0,0.00045293,4526.1,0.00016314,-0.0066714,0.00012582,-280.4,-0.00045705,-4659.8,0.1691
1994,5.5109,2,0,0.00045407,4537.5,0.00016285,-0.0038336,0.00012737,-266.61,-0.00045801,-4665,0.16869
1995,5.5109,1.8182,0,0.00045541,4551,0.00016252,-0.00034661,0.00012919,-250.37,-0.00045915,-4671,0.1682
1996,5.5109,1.6364,0,0.00045695,4566.3,0.00016213,0.0038603,0.00013127,-231.85,-0.00046045,-4677.8,0.16762
1997,5.5109,1.4545,0,0.00045866,4583.4,0.0001617,0.0089334,0.00013359,-211.23,-0.00046189,-4685.4,0.16696
1998,5.5109,1.2727,0,0.00046053,4602.2,0.00016123,0.014996,0.00013611,-188.7,-0.00046345,-4693.6,0.1662
1999,5.5109,1.0909,0,0.00046255,4622.3,0.00016072,0.022764,0.00013882,-164.48,-0.00046513,-4702.4,0.16536
2000,5.5109,0.90909,0,0.0004647,4643.8,0.00016018,0.031609,0.0001417,-138.79,-0.0004669,-4711.6,0.16442
2001,5.5109,0.72727,0,0.00046696,4666.3,0.00015961,0.048634,0.00014471,-111.84,-0.00046876,-4721.2,0.16339
2002,5.5109,0.54545,0,0.0004693,4689.8,0.00015901,0.054627,0.00014784,-83.88,-0.00047067,-4731.1,0.16227
2003,5.5109,0.36364,0,0.00047172,4714,0.0001584,0.17922,0.00015105,-55.046,-0.00047263,-4741.1,0.16104
2004,5.5109,0.18182,0,0.00047422,4738.9,0.00015777,0.18583,0.00015435,-25.484,-0.00047464,-4751.5,0.15972
2005,5.3272,5.8182,0,0.00048025,4799.2,0.00015987,0.20632,0.00015615,-27.739,-0.00048072,-4812.9,0.14919
2006,5.3272,5.6364,0,0.00047756,4772.3,0.00016056,0.19635,0.00015258,-59.759,-0.00047854,-4801.8,0.15052
2007,5.3272,5.4545,0,0.00047494,4746.2,0.00016122,0.060251,0.0001491,-91.028,-0.00047643,-4791,0.15174
2008,5.3272,5.2727,0,0.00047241,4720.8,0.00016187,0.05337,0.00014571,-121.38,-0.00047436,-4780.3,0.15286
2009,5.3272,5.0909,0,0.00046997,4696.5,0.0001625,0.034652,0.00014244,-150.65,-0.00047235,-4770,0.15389
2010,5.3272,4.9091,0,0.00046765,4673.3,0.00016309,0.024892,0.00013932,-178.59,-0.00047043,-4760,0.15482
2011,5.3272,4.7273,0,0.00046547,4651.5,0.00016365,0.016342,0.00013637,-204.94,-0.00046862,-4750.5,0.15566
2012,5.3272,4.5455,0,0.00046344,4631.2,0.00016416,0.0096724,0.00013362,-229.46,-0.00046692,-4741.7,0.15641
2013,5.3272,4.3636,0,0.00046159,4612.7,0.00016463,0.0040984,0.0001311,-251.93,-0.00046536,-4733.5,0.15708
2014,5.3272,4.1818,0,0.00045993,4596.1,0.00016506,-0.00051978,0.00012884,-272.12,-0.00046395,-4726.1,0.15765
2015,5.3272,4,0,0.00045848,4581.6,0.00016543,-0.0043435,0.00012685,-289.83,-0.00046272,-4719.6,0.15814
2016,5.3272,3.8182,0,0.00045724,4569.3,0.00016574,-0.0074515,0.00012516,-304.88,-0.00046167,-4714.1,0.15855
2017,5.3272,3.6364,0,0.00045624,4559.3,0.00016599,-0.0098953,0.00012379,-317.11,-0.00046081,-4709.6,0.15887
2018,5.3272,3.4545,0,0.00045549,4551.7,0.00016619,-0.011705,0.00012275,-326.41,-0.00046016,-4706.1,0.15912
2019,5.3272,3.2727,0,0.00045498,4546.6,0.00016632,-0.012903,0.00012205,-332.66,-0.00045972,-4703.8,0.15928
2020,5.3272,3.0909,0,0.00045472,4544.1,0.00016638,-0.0135,0.00012169,-335.8,-0.0004595,-4702.7,0.15936
2021,5.3272,2.9091,0,0.00045472,4544.1,0.00016638,-0.0135,0.00012169,-335.8,-0.0004595,-4702.7,0.15936
2022,5.3272,2.7273,0,0.00045498,4546.6,0.00016632,-0.012903,0.00012205,-332.66,-0.00045972,-4703.8,0.15928
2023,5.3272,2.5455,0,0.00045549,4551.7,0.00016619,-0.011705,0.00012275,-326.41,-0.00046016,-4706.1,0.15912
2024,5.3272,2.3636,0,0.00045624,4559.3,0.00016599,-0.0098951,0.00012379,-317.11,-0.00046081,-4709.6,0.15887
2025,5.3272,2.1818,0,0.00045724,4569.3,0.00016574,-0.0074515,0.00012516,-304.88,-0.00046167,-4714.1,0.15855
2026,5.3272,2,0,0.00045848,4581.6,0.00016543,-0.0043431,0.00012685,-289.83,-0.00046272,-4719.6,0.15814
2027,5.3272,1.8182,0,0.00045993,4596.1,0.00016506,-0.00051926,0.00012884,-272.12,-0.00046395,-4726.1,0.15765
2028,5.3272,1.6364,0,0.00046159,4612.7,0.00016463,0.0040989,0.0001311,-251.93,-0.00046536,-4733.5,0.15708
2029,5.3272,1.4545,0,0.00046344,4631.2,0.00016416,0.0096733,0.00013362,-229.46,-0.00046692,-4741.7,0.15641
2030,5.3272,1.2727,0,0.00046547,4651.5,0.00016365,0.016343,0.00013637,-204.94,-0.00046862,-4750.5,0.15566
2031,5.3272,1.0909,0,0.00046765,4673.3,0.00016309,0.024893,0.00013932,-178.59,-0.00047043,-4760,0.15482
2032,5.3272,0.90909,0,0.00046997,4696.5,0.0001625,0.034654,0.00014244,-150.65,-0.00047235,-4770,0.15389
2033,5.3272,0.72727,0,0.00047241,4720.8,0.00016187,0.053371,0.00014571,-121.38,-0.00047436,-4780.3,0.15286
2034,5.3272,0.54545,0,0.00047494,4746.2,0.00016122,0.060251,0.0001491,-91.028,-0.00047643,-4791,0.15174
2035,5.3272,0.36364,0,0.00047756,4772.3,0.00016056,0.19635,0.00015258,-59.759,-0.00047854,-4801.8,0.15052
2036,5.3272,0.18182,0,0.00048025,4799.2,0.00015987,0.20632,0.00015615,-27.739,-0.00048071,-4812.9,0.14919
2037,5.1435,5.8182,0,0.00048635,4860.1,0.000162,0.23046,0.00015797,-30.041,-0.00048685,-4874.9,0.13899
2038,5.1435,5.6364,0,0.00048343,4831,0.00016275,0.21511,0.0001541,-64.728,-0.0004845,-4862.9,0.14031
2039,5.1435,5.4545,0,0.00048061,4802.8,0.00016347,0.066461,0.00015033,-98.633,-0.00048221,-4851.3,0.14153
2040,5.1435,5.2727,0,0.00047788,4775.5,0.00016418,0.058572,0.00014666,-131.57,-0.00047998,-4839.9,0.14265
2041,5.1435,5.0909,0,0.00047524,4749.1,0.00016486,0.038005,0.00014311,-163.37,-0.00047781,-4828.7,0.14368
2042,5.1435,4.9091,0,0.00047274,4724.1,0.0001655,0.027242,0.00013971,-193.74,-0.00047573,-4818,0.1446
2043,5.1435,4.7273,0,0.00047038,4700.5,0.00016611,0.01784,0.00013651,-222.41,-0.00047376,-4807.8,0.14544
2044,5.1435,4.5455,0,0.00046819,4678.6,0.00016668,0.010509,0.00013352,-249.12,-0.00047193,-4798.2,0.14619
2045,5.1435,4.3636,0,0.00046619,4658.6,0.00016719,0.004391,0.00013078,-273.6,-0.00047024,-4789.4,0.14684
2046,5.1435,4.1818,0,0.00046439,4640.7,0.00016766,-0.00067157,0.00012832,-295.6,-0.00046871,-4781.4,0.14742
2047,5.1435,4,0,0.00046282,4625,0.00016806,-0.0048579,0.00012615,-314.92,-0.00046737,-4774.4,0.1479
2048,5.1435,3.8182,0,0.00046149,4611.7,0.00016841,-0.0082565,0.00012431,-331.34,-0.00046623,-4768.5,0.14831
2049,5.1435,3.6364,0,0.00046041,4600.9,0.00016869,-0.010925,0.00012281,-344.7,-0.0004653,-4763.6,0.14863
2050,5.1435,3.4545,0,0.00045959,4592.7,0.0001689,-0.0129,0.00012168,-354.84,-0.0004646,-4759.9,0.14887
2051,5.1435,3.2727,0,0.00045904,4587.2,0.00016904,-0.014206,0.00012091,-361.66,-0.00046412,-4757.4,0.14903
2052,5.1435,3.0909,0,0.00045876,4584.5,0.00016912,-0.014856,0.00012053,-365.1,-0.00046388,-4756.1,0.14911
2053,5.1435,2.9091,0,0.00045876,4584.5,0.00016912,-0.014856,0.00012053,-365.1,-0.00046388,-4756.1,0.14911
2054,5.1435,2.7273,0,0.00045904,4587.2,0.00016904,-0.014206,0.00012091,-361.66,-0.00046412,-4757.4,0.14903
2055,5.1435,2.5455,0,0.00045959,4592.7,0.0001689,-0.0129,0.00012168,-354.84,-0.0004646,-4759.9,0.14887
2056,5.1435,2.3636,0,0.00046041,4600.9,0.00016869,-0.010925,0.00012281,-344.7,-0.0004653,-4763.6,0.14863
2057,5.1435,2.1818,0,0.00046149,4611.7,0.00016841,-0.008256,0.00012431,-331.34,-0.00046623,-4768.5,0.14831
2058,5.1435,2,0,0.00046282,4625,0.00016806,-0.0048575,0.00012615,-314.92,-0.00046737,-4774.4,0.1479
2059,5.1435,1.8182,0,0.00046439,4640.7,0.00016766,-0.00067114,0.00012832,-295.6,-0.00046871,-4781.4,0.14742
2060,5.1435,1.6364,0,0.00046619,4658.6,0.00016719,0.0043916,0.00013078,-273.6,-0.00047024,-4789.4,0.14684
2061,5.1435,1.4545,0,0.00046819,4678.6,0.00016668,0.01051,0.00013352,-249.12,-0.00047193,-4798.2,0.14619
2062,5.1435,1.2727,0,0.00047038,4700.5,0.00016611,0.01784,0.00013651,-222.41,-0.00047376,-4807.8,0.14544
2063,5.1435,1.0909,0,0.00047274,4724.1,0.0001655,0.027243,0.00013971,-193.74,-0.00047573,-4818,0.1446
2064,5.1435,0.90909,0,0.00047524,4749.1,0.00016486,0.038007,0.00014311,-163.37,-0.00047781,-4828.7,0.14368
2065,5.1435,0.72727,0,0.00047788,4775.5,0.00016418,0.058573,0.00014666,-131.57,-0.00047998,-4839.9,0.14265
2066,5.1435,0.54545,0,0.00048061,4802.8,0.00016347,0.066462,0.00015033,-98.633,-0.00048221,-4851.3,0.14153
2067,5.1435,0.36364,0,0.00048343,4831,0.00016275,0.21511,0.0001541,-64.728,-0.0004845,-4862.9,0.14031
2068,5.1435,0.18182,0,0.00048635,4860.1,0.000162,0.23046,0.00015797,-30.041,-0.00048685,-4874.9,0.13899
2069,4.9598,5.8182,0,0.0004925,4921.6,0.00016415,0.25892,0.0001598,-32.374,-0.00049304,-4937.6,0.12912
2070,4.9598,5.6364,0,0.00048936,4890.2,0.00016496,0.23568,0.00015562,-69.955,-0.0004905,-4924.7,0.13044
2071,4.9598,5.4545,0,0.00048631,4859.7,0.00016574,0.073334,0.00015153,-106.71,-0.00048803,-4912.2,0.13165
2072,4.9598,5.2727,0,0.00048335,4830.2,0.00016652,0.064298,0.00014755,-142.46,-0.00048562,-4899.8,0.13277
2073,4.9598,5.0909,0,0.00048051,4801.8,0.00016726,0.041708,0.0001437,-177,-0.00048328,-4887.8,0.13378
2074,4.9598,4.9091,0,0.0004778,4774.7,0.00016797,0.029844,0.00014001,-210.02,-0.00048103,-4876.3,0.13471
2075,4.9598,4.7273,0,0.00047526,4749.3,0.00016863,0.019511,0.00013653,-241.22,-0.0004789,-4865.3,0.13554
2076,4.9598,4.5455,0,0.00047289,4725.6,0.00016925,0.011462,0.00013328,-270.3,-0.00047691,-4855,0.13628
2077,4.9598,4.3636,0,0.00047073,4704.1,0.00016982,0.0047544,0.00013029,-296.97,-0.00047508,-4845.5,0.13693
2078,4.9598,4.1818,0,0.00046879,4684.7,0.00017033,-0.00078811,0.00012761,-320.97,-0.00047343,-4836.9,0.1375
2079,4.9598,4,0,0.0004671,4667.8,0.00017077,-0.0053636,0.00012525,-342.04,-0.00047198,-4829.4,0.13798
2080,4.9598,3.8182,0,0.00046566,4653.4,0.00017115,-0.009072,0.00012325,-359.96,-0.00047074,-4822.9,0.13838
2081,4.9598,3.6364,0,0.0004645,4641.8,0.00017146,-0.01198,0.00012162,-374.53,-0.00046973,-4817.7,0.1387
2082,4.9598,3.4545,0,0.00046361,4632.9,0.00017169,-0.014128,0.00012037,-385.61,-0.00046897,-4813.7,0.13893
2083,4.9598,3.2727,0,0.00046302,4627,0.00017185,-0.015548,0.00011954,-393.06,-0.00046845,-4811,0.13909
2084,4.9598,3.0909,0,0.00046272,4624,0.00017193,-0.016255,0.00011912,-396.81,-0.00046819,-4809.6,0.13917
2085,4.9598,2.9091,0,0.00046272,4624,0.00017193,-0.016255,0.00011912,-396.81,-0.00046819,-4809.6,0.13917
2086,4.9598,2.7273,0,0.00046302,4627,0.00017185,-0.015548,0.00011954,-393.06,-0.00046845,-4811,0.13909
2087,4.9598,2.5455,0,0.00046361,4632.9,0.00017169,-0.014128,0.00012037,-385.61,-0.00046897,-4813.7,0.13893
2088,4.9598,2.3636,0,0.0004645,4641.8,0.00017146,-0.011979,0.00012162,-374.53,-0.00046973,-4817.7,0.1387
2089,4.9598,2.1818,0,0.00046566,4653.4,0.00017115,-0.0090716,0.00012325,-359.96,-0.00047074,-4822.9,0.13838
2090,4.9598,2,0,0.0004671,4667.8,0.00017077,-0.005363,0.00012525,-342.04,-0.00047198,-4829.4,0.13798
2091,4.9598,1.8182,0,0.00046879,4684.7,0.00017033,-0.00078749,0.00012761,-320.97,-0.00047343,-4836.9,0.1375
2092,4.9598,1.6364,0,0.00047073,4704.1,0.00016982,0.0047549,0.00013029,-296.97,-0.00047508,-4845.5,0.13693
2093,4.9598,1.4545,0,0.00047289,4725.6,0.00016925,0.011463,0.00013328,-270.3,-0.00047691,-4855,0.13628
2094,4.9598,1.2727,0,0.00047526,4749.3,0.00016863,0.019512,0.00013653,-241.22,-0.0004789,-4865.3,0.13554
2095,4.9598,1.0909,0,0.0004778,4774.7,0.00016797,0.029845,0.00014001,-210.02,-0.00048103,-4876.3,0.13471
2096,4.9598,0.90909,0,0.00048051,4801.8,0.00016726,0.041709,0.0001437,-177,-0.00048328,-4887.8,0.13378
2097,4.9598,0.72727,0,0.00048335,4830.2,0.00016652,0.064298,0.00014755,-142.46,-0.00048562,-4899.8,0.13277
2098,4.9598,0.54545,0,0.00048631,4859.7,0.00016574,0.073334,0.00015153,-106.71,-0.00048803,-4912.2,0.13165
2099,4.9598,0.36364,0,0.00048936,4890.2,0.00016496,0.23568,0.00015562,-69.955,-0.0004905,-4924.7,0.13044
2100,4.9598,0.18182,0,0.0004925,4921.6,0.00016415,0.25892,0.0001598,-32.374,-0.00049304,-4937.6,0.12912
2101,4.7761,5.8182,0,0.00049872,4983.7,0.00016632,0.29255,0.00016166,-34.718,-0.00049929,-5000.9,0.11958
2102,4.7761,5.6364,0,0.00049532,4949.8,0.0001672,0.25826,0.00015712,-75.443,-0.00049656,-4986.9,0.12089
2103,4.7761,5.4545,0,0.00049203,4916.9,0.00016805,0.080946,0.0001527,-115.29,-0.00049389,-4973.5,0.1221
2104,4.7761,5.2727,0,0.00048884,4885.1,0.0001689,0.070599,0.00014838,-154.08,-0.00049128,-4960.2,0.12321
2105,4.7761,5.0909,0,0.00048577,4854.4,0.00016971,0.045792,0.0001442,-191.6,-0.00048875,-4947.3,0.12422
2106,4.7761,4.9091,0,0.00048285,4825.2,0.00017048,0.032722,0.0001402,-227.51,-0.00048632,-4934.9,0.12513
2107,4.7761,4.7273,0,0.0004801,4797.7,0.00017121,0.021373,0.00013641,-261.46,-0.00048402,-4923.1,0.12596
2108,4.7761,4.5455,0,0.00047755,4772.2,0.00017189,0.012541,0.00013288,-293.13,-0.00048186,-4912,0.12669
2109,4.7761,4.3636,0,0.00047522,4748.9,0.00017251,0.0051953,0.00012963,-322.19,-0.00047988,-4901.8,0.12734
2110,4.7761,4.1818,0,0.00047313,4728.1,0.00017307,-0.00086286,0.00012671,-348.35,-0.0004781,-4892.6,0.1279
2111,4.7761,4,0,0.00047131,4709.8,0.00017356,-0.0058541,0.00012414,-371.34,-0.00047652,-4884.5,0.12837
2112,4.7761,3.8182,0,0.00046976,4694.3,0.00017398,-0.009891,0.00012196,-390.89,-0.00047519,-4877.6,0.12877
2113,4.7761,3.6364,0,0.0004685,4681.8,0.00017432,-0.01305,0.00012018,-406.8,-0.0004741,-4871.9,0.12908
2114,4.7761,3.4545,0,0.00046755,4672.3,0.00017457,-0.015381,0.00011883,-418.89,-0.00047327,-4867.6,0.12931
2115,4.7761,3.2727,0,0.00046691,4665.9,0.00017475,-0.01692,0.00011792,-427.03,-0.00047271,-4864.7,0.12947
2116,4.7761,3.0909,0,0.00046659,4662.7,0.00017483,-0.017684,0.00011746,-431.12,-0.00047243,-4863.3,0.12955
2117,4.7761,2.9091,0,0.00046659,4662.7,0.00017483,-0.017684,0.00011746,-431.12,-0.00047243,-4863.3,0.12955
2118,4.7761,2.7273,0,0.00046691,4665.9,0.00017475,-0.016919,0.00011792,-427.03,-0.00047271,-4864.7,0.12947
2119,4.7761,2.5455,0,0.00046755,4672.3,0.00017457,-0.015381,0.00011883,-418.89,-0.00047327,-4867.6,0.12931
2120,4.7761,2.3636,0,0.0004685,4681.8,0.00017432,-0.01305,0.00012018,-406.8,-0.0004741,-4871.9,0.12908
2121,4.7761,2.1818,0,0.00046976,4694.3,0.00017398,-0.0098906,0.00012196,-390.89,-0.00047519,-4877.6,0.12877
2122,4.7761,2,0,0.00047131,4709.8,0.00017356,-0.0058538,0.00012414,-371.34,-0.00047652,-4884.5,0.12837
2123,4.7761,1.8182,0,0.00047313,4728.1,0.00017307,-0.00086239,0.00012671,-348.35,-0.0004781,-4892.6,0.1279
2124,4.7761,1.6364,0,0.00047522,4748.9,0.00017251,0.0051959,0.00012963,-322.19,-0.00047988,-4901.8,0.12734
2125,4.7761,1.4545,0,0.00047755,4772.2,0.00017189,0.012542,0.00013288,-293.13,-0.00048186,-4912,0.12669
2126,4.7761,1.2727,0,0.0004801,4797.7,0.00017121,0.021374,0.00013641,-261.46,-0.00048402,-4923.1,0.12596
2127,4.7761,1.0909,0,0.00048285,4825.2,0.00017048,0.032723,0.0001402,-227.51,-0.00048632,-4934.9,0.12513
2128,4.7761,0.90909,0,0.00048577,4854.4,0.00016971,0.045793,0.0001442,-191.6,-0.00048875,-4947.3,0.12422
2129,4.7761,0.72727,0,0.00048884,4885.1,0.0001689,0.070599,0.00014838,-154.08,-0.00049128,-4960.2,0.12321
2130,4.7761,0.54545,0,0.00049203,4916.9,0.00016805,0.080946,0.0001527,-115.29,-0.00049389,-4973.5,0.1221
2131,4.7761,0.36364,0,0.00049532,4949.8,0.0001672,0.25826,0.00015712,-75.443,-0.00049656,-4986.9,0.12089
2132,4.7761,0.18182,0,0.00049872,4983.7,0.00016632,0.29256,0.00016166,-34.718,-0.00049929,-5000.9,0.11958
2133,4.5924,5.8182,0,0.000505,5046.6,0.00016851,0.33241,0.00016354,-37.051,-0.00050562,-5064.8,0.11037
2134,4.5924,5.6364,0,0.00050133,5009.8,0.00016947,0.28309,0.00015862,-81.189,-0.00050265,-5049.8,0.11168
2135,4.5924,5.4545,0,0.00049778,4974.4,0.0001704,0.089385,0.00015383,-124.38,-0.00049978,-5035.3,0.11288
2136,4.5924,5.2727,0,0.00049434,4940,0.00017132,0.077536,0.00014915,-166.48,-0.00049696,-5021.1,0.11398
2137,4.5924,5.0909,0,0.00049103,4906.9,0.0001722,0.050299,0.00014461,-207.23,-0.00049423,-5007.2,0.11498
2138,4.5924,4.9091,0,0.00048788,4875.4,0.00017305,0.035902,0.00014027,-246.28,-0.0004916,-4993.9,0.11589
2139,4.5924,4.7273,0,0.00048492,4845.8,0.00017385,0.023442,0.00013615,-283.23,-0.00048911,-4981.2,0.1167
2140,4.5924,4.5455,0,0.00048217,4818.3,0.00017459,0.013759,0.00013231,-317.72,-0.00048678,-4969.3,0.11743
2141,4.5924,4.3636,0,0.00047966,4793.3,0.00017528,0.0057239,0.00012878,-349.39,-0.00048464,-4958.4,0.11807
2142,4.5924,4.1818,0,0.00047741,4770.8,0.00017589,-0.00088705,0.0001256,-377.92,-0.00048271,-4948.5,0.11862
2143,4.5924,4,0,0.00047544,4751.1,0.00017643,-0.0063195,0.0001228,-402.99,-0.00048101,-4939.8,0.11909
2144,4.5924,3.8182,0,0.00047378,4734.5,0.00017689,-0.010702,0.00012042,-424.33,-0.00047957,-4932.4,0.11948
2145,4.5924,3.6364,0,0.00047243,4721,0.00017727,-0.014123,0.00011848,-441.69,-0.00047839,-4926.3,0.11978
2146,4.5924,3.4545,0,0.0004714,4710.8,0.00017755,-0.016642,0.00011701,-454.89,-0.00047749,-4921.7,0.12002
2147,4.5924,3.2727,0,0.00047072,4703.9,0.00017774,-0.018302,0.00011602,-463.77,-0.00047689,-4918.6,0.12017
2148,4.5924,3.0909,0,0.00047037,4700.5,0.00017784,-0.019126,0.00011552,-468.24,-0.00047658,-4917.1,0.12024
2149,4.5924,2.9091,0,0.00047037,4700.5,0.00017784,-0.019126,0.00011552,-468.24,-0.00047658,-4917.1,0.12024
2150,4.5924,2.7273,0,0.00047072,4703.9,0.00017774,-0.018302,0.00011602,-463.77,-0.00047689,-4918.6,0.12017
2151,4.5924,2.5455,0,0.0004714,4710.8,0.00017755,-0.016642,0.00011701,-454.89,-0.00047749,-4921.7,0.12002
2152,4.5924,2.3636,0,0.00047243,4721,0.00017727,-0.014123,0.00011848,-441.69,-0.00047839,-4926.3,0.11978
2153,4.5924,2.1818,0,0.00047378,4734.5,0.00017689,-0.010702,0.00012042,-424.33,-0.00047957,-4932.4,0.11948
2154,4.5924,2,0,0.00047544,4751.1,0.00017643,-0.0063192,0.0001228,-402.99,-0.00048101,-4939.8,0.11909
2155,4.5924,1.8182,0,0.00047741,4770.8,0.00017589,-0.00088652,0.0001256,-377.92,-0.00048271,-4948.5,0.11862
2156,4.5924,1.6364,0,0.00047966,4793.3,0.00017528,0.0057246,0.00012878,-349.39,-0.00048464,-4958.4,0.11807
2157,4.5924,1.4545,0,0.00048217,4818.3,0.00017459,0.01376,0.00013231,-317.72,-0.00048678,-4969.3,0.11743
2158,4.5924,1.2727,0,0.00048492,4845.8,0.00017385,0.023443,0.00013615,-283.23,-0.00048911,-4981.2,0.1167
2159,4.5924,1.0909,0,0.00048788,4875.4,0.00017305,0.035903,0.00014027,-246.28,-0.0004916,-4993.9,0.11589
2160,4.5924,0.90909,0,0.00049103,4906.9,0.0001722,0.0503,0.00014461,-207.23,-0.00049423,-5007.2,0.11498
2161,4.5924,0.72727,0,0.00049434,4940,0.00017132,0.077537,0.00014915,-166.48,-0.00049696,-5021.1,0.11398
2162,4.5924,0.54545,0,0.00049778,4974.4,0.0001704,0.089385,0.00015383,-124.38,-0.00049978,-5035.3,0.11288
2163,4.5924,0.36364,0,0.00050133,5009.8,0.00016947,0.28309,0.00015862,-81.189,-0.00050265,-5049.8,0.11168
2164,4.5924,0.18182,0,0.000505,5046.6,0.00016851,0.33241,0.00016354,-37.051,-0.00050562,-5064.8,0.11037
2165,4.4087,5.8182,0,0.00051136,5110,0.00017072,0.37985,0.00016544,-39.345,-0.00051201,-5129.4,0.10151
2166,4.4087,5.6364,0,0.00050738,5070.3,0.00017176,0.31043,0.00016012,-87.19,-0.0005088,-5113.2,0.10281
2167,4.4087,5.4545,0,0.00050355,5032.1,0.00017277,0.098768,0.00015493,-134.01,-0.0005057,-5097.7,0.104
2168,4.4087,5.2727,0,0.00049985,4995,0.00017378,0.085194,0.00014985,-179.69,-0.00050266,-5082.4,0.10509
2169,4.4087,5.0909,0,0.00049628,4959.4,0.00017475,0.055284,0.00014493,-223.97,-0.00049971,-5067.5,0.10608
2170,4.4087,4.9091,0,0.00049288,4925.4,0.00017567,0.039427,0.00014021,-266.42,-0.00049687,-5053.2,0.10698
2171,4.4087,4.7273,0,0.00048969,4893.5,0.00017655,0.025752,0.00013574,-306.64,-0.00049419,-5039.6,0.10778
2172,4.4087,4.5455,0,0.00048673,4864,0.00017737,0.015144,0.00013156,-344.21,-0.00049167,-5026.9,0.1085
2173,4.4087,4.3636,0,0.00048403,4837,0.00017812,0.0063661,0.00012772,-378.74,-0.00048936,-5015.2,0.10912
2174,4.4087,4.1818,0,0.00048161,4812.8,0.0001788,-0.00083477,0.00012425,-409.84,-0.00048728,-5004.6,0.10967
2175,4.4087,4,0,0.0004795,4791.7,0.0001794,-0.0067323,0.00012121,-437.19,-0.00048544,-4995.3,0.11013
2176,4.4087,3.8182,0,0.00047772,4773.9,0.0001799,-0.011474,0.00011862,-460.46,-0.00048388,-4987.4,0.11051
2177,4.4087,3.6364,0,0.00047627,4759.4,0.00018032,-0.015164,0.00011651,-479.41,-0.00048261,-4981,0.11081
2178,4.4087,3.4545,0,0.00047517,4748.4,0.00018063,-0.017874,0.00011491,-493.82,-0.00048164,-4976.1,0.11104
2179,4.4087,3.2727,0,0.00047443,4741.1,0.00018084,-0.019655,0.00011383,-503.51,-0.00048099,-4972.7,0.11119
2180,4.4087,3.0909,0,0.00047407,4737.4,0.00018095,-0.020538,0.00011329,-508.39,-0.00048066,-4971.1,0.11126
2181,4.4087,2.9091,0,0.00047407,4737.4,0.00018095,-0.020538,0.00011329,-508.39,-0.00048066,-4971.1,0.11126
2182,4.4087,2.7273,0,0.00047443,4741.1,0.00018084,-0.019655,0.00011383,-503.51,-0.00048099,-4972.7,0.11119
2183,4.4087,2.5455,0,0.00047517,4748.4,0.00018063,-0.017874,0.00011491,-493.82,-0.00048164,-4976.1,0.11104
2184,4.4087,2.3636,0,0.00047627,4759.4,0.00018032,-0.015164,0.00011651,-479.41,-0.00048261,-4981,0.11081
2185,4.4087,2.1818,0,0.00047772,4773.9,0.0001799,-0.011474,0.00011862,-460.46,-0.00048388,-4987.4,0.11051
2186,4.4087,2,0,0.0004795,4791.7,0.0001794,-0.0067319,0.00012121,-437.19,-0.00048544,-4995.3,0.11013
2187,4.4087,1.8182,0,0.00048161,4812.8,0.0001788,-0.00083408,0.00012425,-409.84,-0.00048728,-5004.6,0.10967
2188,4.4087,1.6364,0,0.00048403,4837,0.00017812,0.0063664,0.00012772,-378.74,-0.00048936,-5015.2,0.10912
2189,4.4087,1.4545,0,0.00048673,4864,0.00017737,0.015145,0.00013156,-344.21,-0.00049167,-5026.9,0.1085
2190,4.4087,1.2727,0,0.00048969,4893.5,0.00017655,0.025753,0.00013574,-306.64,-0.00049419,-5039.6,0.10778
2191,4.4087,1.0909,0,0.00049288,4925.4,0.00017567,0.039428,0.00014021,-266.42,-0.00049687,-5053.2,0.10698
2192,4.4087,0.90909,0,0.00049628,4959.4,0.00017475,0.055285,0.00014493,-223.97,-0.00049971,-5067.5,0.10608
2193,4.4087,0.72727,0,0.00049985,4995,0.00017378,0.085194,0.00014985,-179.69,-0.00050266,-5082.4,0.10509
2194,4.4087,0.54545,0,0.00050355,5032.1,0.00017277,0.098768,0.00015493,-134.01,-0.0005057,-5097.7,0.104
2195,4.4087,0.36364,0,0.00050738,5070.3,0.00017176,0.31043,0.00016012,-87.19,-0.0005088,-5113.2,0.10281
2196,4.4087,0.18182,0,0.00051136,5110,0.00017072,0.37985,0.00016544,-39.345,-0.00051201,-5129.4,0.10151
2197,4.225,5.8182,0,0.00051778,5174.2,0.00017296,0.43656,0.00016737,-41.566,-0.00051847,-5194.7,0.092991
2198,4.225,5.6364,0,0.00051348,5131.2,0.00017408,0.34059,0.0001616,-93.44,-0.000515,-5177.1,0.094278
2199,4.225,5.4545,0,0.00050935,5090,0.00017519,0.10921,0.00015598,-144.18,-0.00051165,-5160.5,0.095459
2200,4.225,5.2727,0,0.00050536,5050.1,0.00017628,0.093648,0.00015048,-193.76,-0.00050837,-5144.1,0.096537
2201,4.225,5.0909,0,0.00050151,5011.7,0.00017734,0.060797,0.00014514,-241.87,-0.00050519,-5128.2,0.097516
2202,4.225,4.9091,0,0.00049786,4975.2,0.00017836,0.043328,0.00014002,-288.05,-0.00050213,-5112.9,0.0984
2203,4.225,4.7273,0,0.00049443,4940.8,0.00017932,0.028324,0.00013516,-331.83,-0.00049923,-5098.4,0.099191
2204,4.225,4.5455,0,0.00049124,4909.1,0.00018023,0.016712,0.00013061,-372.76,-0.00049652,-5084.8,0.099894
2205,4.225,4.3636,0,0.00048834,4880.1,0.00018105,0.0071353,0.00012643,-410.39,-0.00049403,-5072.3,0.10051
2206,4.225,4.1818,0,0.00048575,4854.2,0.0001818,-0.00068968,0.00012267,-444.3,-0.00049178,-5061,0.10104
2207,4.225,4,0,0.00048349,4831.6,0.00018246,-0.0070723,0.00011936,-474.12,-0.00048981,-5051.2,0.1015
2208,4.225,3.8182,0,0.00048158,4812.4,0.00018302,-0.012182,0.00011654,-499.51,-0.00048813,-5042.7,0.10187
2209,4.225,3.6364,0,0.00048003,4797,0.00018347,-0.016142,0.00011425,-520.18,-0.00048676,-5035.9,0.10217
2210,4.225,3.4545,0,0.00047886,4785.3,0.00018382,-0.019041,0.0001125,-535.89,-0.00048572,-5030.7,0.10239
2211,4.225,3.2727,0,0.00047807,4777.4,0.00018405,-0.020941,0.00011133,-546.46,-0.00048502,-5027.2,0.10253
2212,4.225,3.0909,0,0.00047768,4773.5,0.00018417,-0.021881,0.00011074,-551.78,-0.00048466,-5025.4,0.10261
2213,4.225,2.9091,0,0.00047768,4773.5,0.00018417,-0.021881,0.00011074,-551.78,-0.00048466,-5025.4,0.10261
2214,4.225,2.7273,0,0.00047807,4777.4,0.00018405,-0.020941,0.00011133,-546.46,-0.00048502,-5027.2,0.10253
2215,4.225,2.5455,0,0.00047886,4785.3,0.00018382,-0.01904,0.0001125,-535.89,-0.00048572,-5030.7,0.10239
2216,4.225,2.3636,0,0.00048003,4797,0.00018347,-0.016142,0.00011425,-520.18,-0.00048676,-5035.9,0.10217
2217,4.225,2.1818,0,0.00048158,4812.4,0.00018302,-0.012181,0.00011654,-499.51,-0.00048813,-5042.7,0.10187
2218,4.225,2,0,0.00048349,4831.6,0.00018246,-0.0070719,0.00011936,-474.12,-0.00048981,-5051.2,0.1015
2219,4.225,1.8182,0,0.00048575,4854.2,0.0001818,-0.00068939,0.00012267,-444.3,-0.00049178,-5061,0.10104
2220,4.225,1.6364,0,0.00048834,4880.1,0.00018105,0.0071359,0.00012643,-410.39,-0.00049403,-5072.3,0.10051
2221,4.225,1.4545,0,0.00049124,4909.1,0.00018023,0.016712,0.00013061,-372.76,-0.00049652,-5084.8,0.099894
2222,4.225,1.2727,0,0.00049443,4940.8,0.00017932,0.028325,0.00013516,-331.83,-0.00049923,-5098.4,0.099191
2223,4.225,1.0909,0,0.00049786,4975.2,0.00017836,0.043329,0.00014002,-288.05,-0.00050213,-5112.9,0.0984
2224,4.225,0.90909,0,0.00050151,5011.7,0.00017734,0.060798,0.00014514,-241.87,-0.00050519,-5128.2,0.097516
2225,4.225,0.72727,0,0.00050536,5050.1,0.00017628,0.093649,0.00015048,-193.76,-0.00050837,-5144.1,0.096537
2226,4.225,0.54545,0,0.00050935,5090,0.00017519,0.10921,0.00015598,-144.18,-0.00051165,-5160.5,0.095459
2227,4.225,0.36364,0,0.00051348,5131.2,0.00017408,0.34059,0.0001616,-93.44,-0.000515,-5177.1,0.094278
2228,4.225,0.18182,0,0.00051778,5174.2,0.00017296,0.43657,0.00016737,-41.566,-0.00051847,-5194.7,0.092991
2229,4.0413,5.8182,0,0.00052427,5239.1,0.00017521,0.50476,0.00016933,-43.674,-0.00052499,-5260.5,0.084823
2230,4.0413,5.6364,0,0.00051961,5192.5,0.00017643,0.37391,0.00016308,-99.929,-0.00052123,-5241.6,0.086097
2231,4.0413,5.4545,0,0.00051517,5148.1,0.00017763,0.12085,0.000157,-154.93,-0.00051763,-5223.8,0.087264
2232,4.0413,5.2727,0,0.00051086,5105.1,0.00017883,0.10298,0.00015103,-208.74,-0.00051409,-5206.2,0.088327
2233,4.0413,5.0909,0,0.00050673,5063.8,0.00017999,0.066886,0.00014524,-261.03,-0.00051066,-5189.2,0.089292
2234,4.0413,4.9091,0,0.0005028,5024.5,0.00018111,0.047636,0.00013967,-311.26,-0.00050737,-5172.9,0.09016
2235,4.0413,4.7273,0,0.00049911,4987.7,0.00018217,0.031176,0.00013439,-358.93,-0.00050425,-5157.4,0.090938
2236,4.0413,4.5455,0,0.0004957,4953.6,0.00018316,0.018474,0.00012946,-403.52,-0.00050133,-5143,0.091626
2237,4.0413,4.3636,0,0.00049259,4922.5,0.00018408,0.0080442,0.00012491,-444.52,-0.00049865,-5129.7,0.09223
2238,4.0413,4.1818,0,0.00048982,4894.8,0.0001849,-0.00043684,0.00012082,-481.49,-0.00049623,-5117.8,0.092751
2239,4.0413,4,0,0.0004874,4870.7,0.00018563,-0.0073176,0.00011722,-514,-0.00049411,-5107.3,0.093193
2240,4.0413,3.8182,0,0.00048536,4850.3,0.00018625,-0.012796,0.00011416,-541.68,-0.0004923,-5098.4,0.093558
2241,4.0413,3.6364,0,0.00048371,4833.8,0.00018675,-0.017021,0.00011166,-564.21,-0.00049084,-5091.2,0.093847
2242,4.0413,3.4545,0,0.00048247,4821.3,0.00018714,-0.020099,0.00010977,-581.34,-0.00048972,-5085.7,0.094063
2243,4.0413,3.2727,0,0.00048163,4813,0.0001874,-0.02211,0.00010849,-592.86,-0.00048897,-5082,0.094206
2244,4.0413,3.0909,0,0.00048121,4808.8,0.00018753,-0.023104,0.00010785,-598.66,-0.00048859,-5080.1,0.094277
2245,4.0413,2.9091,0,0.00048121,4808.8,0.00018753,-0.023104,0.00010785,-598.66,-0.00048859,-5080.1,0.094277
2246,4.0413,2.7273,0,0.00048163,4813,0.0001874,-0.02211,0.00010849,-592.86,-0.00048897,-5082,0.094206
2247,4.0413,2.5455,0,0.00048247,4821.3,0.00018714,-0.020099,0.00010977,-581.34,-0.00048972,-5085.7,0.094063
2248,4.0413,2.3636,0,0.00048371,4833.8,0.00018675,-0.017021,0.00011166,-564.21,-0.00049084,-5091.2,0.093847
2249,4.0413,2.1818,0,0.00048536,4850.3,0.00018625,-0.012796,0.00011416,-541.68,-0.0004923,-5098.4,0.093558
2250,4.0413,2,0,0.0004874,4870.7,0.00018563,-0.0073173,0.00011722,-514,-0.00049411,-5107.3,0.093193
2251,4.0413,1.8182,0,0.00048982,4894.8,0.0001849,-0.00043633,0.00012082,-481.49,-0.00049623,-5117.8,0.092751
2252,4.0413,1.6364,0,0.00049259,4922.5,0.00018408,0.0080448,0.00012491,-444.52,-0.00049865,-5129.7,0.09223
2253,4.0413,1.4545,0,0.0004957,4953.6,0.00018316,0.018475,0.00012946,-403.52,-0.00050133,-5143,0.091626
2254,4.0413,1.2727,0,0.00049911,4987.7,0.00018217,0.031176,0.00013439,-358.93,-0.00050425,-5157.4,0.090938
2255,4.0413,1.0909,0,0.0005028,5024.5,0.00018111,0.047637,0.00013967,-311.26,-0.00050737,-5172.9,0.09016
2256,4.0413,0.90909,0,0.00050673,5063.8,0.00017999,0.066887,0.00014524,-261.03,-0.00051066,-5189.2,0.089292
2257,4.0413,0.72727,0,0.00051086,5105.1,0.00017883,0.10298,0.00015103,-208.74,-0.00051409,-5206.2,0.088327
2258,4.0413,0.54545,0,0.00051517,5148.1,0.00017763,0.12085,0.000157,-154.93,-0.00051763,-5223.8,0.087264
2259,4.0413,0.36364,0,0.00051961,5192.5,0.00017643,0.37392,0.00016308,-99.929,-0.00052123,-5241.6,0.086097
2260,4.0413,0.18182,0,0.00052427,5239.1,0.00017521,0.50476,0.00016933,-43.674,-0.00052499,-5260.5,0.084823
2261,3.8576,5.8182,0,0.00053083,5304.6,0.00017748,0.58733,0.00017133,-45.624,-0.00053158,-5327,0.077008
2262,3.8576,5.6364,0,0.00052578,5254.2,0.0001788,0.41083,0.00016455,-106.65,-0.00052751,-5306.5,0.078267
2263,3.8576,5.4545,0,0.00052099,5206.3,0.00018011,0.13384,0.00015796,-166.28,-0.00052362,-5287.4,0.079417
2264,3.8576,5.2727,0,0.00051637,5160.1,0.00018142,0.11331,0.0001515,-224.69,-0.00051982,-5268.7,0.080464
2265,3.8576,5.0909,0,0.00051192,5115.7,0.00018269,0.07362,0.00014521,-281.53,-0.00051613,-5250.6,0.081411
2266,3.8576,4.9091,0,0.0005077,5073.5,0.00018392,0.052396,0.00013917,-336.19,-0.00051258,-5233.2,0.082263
2267,3.8576,4.7273,0,0.00050375,5034,0.00018509,0.03434,0.00013344,-388.09,-0.00050922,-5216.8,0.083024
2268,3.8576,4.5455,0,0.0005001,4997.5,0.00018619,0.020458,0.00012807,-436.66,-0.00050609,-5201.5,0.083697
2269,3.8576,4.3636,0,0.00049678,4964.3,0.0001872,0.0091214,0.00012314,-481.35,-0.00050321,-5187.5,0.084286
2270,3.8576,4.1818,0,0.00049382,4934.8,0.00018812,-4.0808e-05,0.00011869,-521.64,-0.00050062,-5174.9,0.084794
2271,3.8576,4,0,0.00049125,4909.1,0.00018892,-0.0074244,0.00011478,-557.06,-0.00049835,-5163.9,0.085224
2272,3.8576,3.8182,0,0.00048908,4887.4,0.00018961,-0.013263,0.00011146,-587.22,-0.00049642,-5154.5,0.085579
2273,3.8576,3.6364,0,0.00048733,4870,0.00019017,-0.017736,0.00010875,-611.76,-0.00049485,-5147,0.08586
2274,3.8576,3.4545,0,0.00048601,4856.8,0.00019059,-0.020976,0.00010669,-630.41,-0.00049366,-5141.2,0.086069
2275,3.8576,3.2727,0,0.00048513,4847.9,0.00019088,-0.023084,0.00010531,-642.95,-0.00049286,-5137.3,0.086208
2276,3.8576,3.0909,0,0.00048469,4843.5,0.00019102,-0.024122,0.00010462,-649.26,-0.00049245,-5135.4,0.086277
2277,3.8576,2.9091,0,0.00048469,4843.5,0.00019102,-0.024122,0.00010462,-649.26,-0.00049245,-5135.4,0.086277
2278,3.8576,2.7273,0,0.00048513,4847.9,0.00019088,-0.023084,0.00010531,-642.95,-0.00049286,-5137.3,0.086208
2279,3.8576,2.5455,0,0.00048601,4856.8,0.00019059,-0.020976,0.00010669,-630.41,-0.00049366,-5141.2,0.086069
2280,3.8576,2.3636,0,0.00048733,4870,0.00019017,-0.017736,0.00010875,-611.76,-0.00049485,-5147,0.08586
2281,3.8576,2.1818,0,0.00048908,4887.4,0.00018961,-0.013262,0.00011146,-587.22,-0.00049642,-5154.5,0.085579
2282,3.8576,2,0,0.00049125,4909.1,0.00018892,-0.007424,0.00011478,-557.06,-0.00049835,-5163.9,0.085224
2283,3.8576,1.8182,0,0.00049382,4934.8,0.00018812,-4.0355e-05,0.00011869,-521.64,-0.00050062,-5174.9,0.084794
2284,3.8576,1.6364,0,0.00049678,4964.3,0.0001872,0.0091221,0.00012314,-481.35,-0.00050321,-5187.5,0.084286
2285,3.8576,1.4545,0,0.0005001,4997.5,0.00018619,0.020459,0.00012807,-436.66,-0.00050609,-5201.5,0.083697
2286,3.8576,1.2727,0,0.00050375,5034,0.00018509,0.03434,0.00013344,-388.09,-0.00050922,-5216.8,0.083024
2287,3.8576,1.0909,0,0.0005077,5073.5,0.00018392,0.052397,0.00013917,-336.19,-0.00051258,-5233.2,0.082263
2288,3.8576,0.90909,0,0.00051192,5115.7,0.00018269,0.073621,0.00014521,-281.53,-0.00051613,-5250.6,0.081411
2289,3.8576,0.72727,0,0.00051637,5160.1,0.00018142,0.11331,0.0001515,-224.69,-0.00051982,-5268.7,0.080464
2290,3.8576,0.54545,0,0.00052099,5206.3,0.00018011,0.13384,0.00015796,-166.28,-0.00052362,-5287.4,0.079417
2291,3.8576,0.36364,0,0.00052578,5254.2,0.0001788,0.41083,0.00016455,-106.65,-0.00052751,-5306.5,0.078267
2292,3.8576,0.18182,0,0.00053083,5304.6,0.00017748,0.58733,0.00017133,-45.624,-0.00053158,-5327,0.077008
2293,3.6739,5.8182,0,0.00053745,5370.8,0.00017976,0.68808,0.00017336,-47.361,-0.00053823,-5394,0.069552
2294,3.6739,5.6364,0,0.00053198,5316.1,0.00018119,0.45182,0.00016601,-113.58,-0.00053381,-5371.8,0.070792
2295,3.6739,5.4545,0,0.00052682,5264.6,0.00018262,0.14838,0.00015888,-178.24,-0.00052963,-5351.4,0.071923
2296,3.6739,5.2727,0,0.00052185,5214.9,0.00018405,0.12474,0.00015187,-241.67,-0.00052554,-5331.4,0.07295
2297,3.6739,5.0909,0,0.00051708,5167.2,0.00018545,0.081066,0.00014505,-303.47,-0.00052157,-5312.2,0.073878
2298,3.6739,4.9091,0,0.00051255,5122,0.00018681,0.05765,0.00013849,-362.97,-0.00051776,-5293.8,0.074711
2299,3.6739,4.7273,0,0.00050832,5079.7,0.0001881,0.037843,0.00013226,-419.5,-0.00051416,-5276.4,0.075453
2300,3.6739,4.5455,0,0.00050443,5040.8,0.00018931,0.022688,0.00012644,-472.41,-0.0005108,-5260.3,0.076108
2301,3.6739,4.3636,0,0.00050089,5005.5,0.00019043,0.010395,0.00012108,-521.09,-0.00050772,-5245.6,0.076681
2302,3.6739,4.1818,0,0.00049775,4974.1,0.00019145,0.00053582,0.00011625,-564.97,-0.00050495,-5232.5,0.077174
2303,3.6739,4,0,0.00049503,4946.9,0.00019234,-0.0073416,0.00011202,-603.54,-0.00050253,-5221,0.077591
2304,3.6739,3.8182,0,0.00049274,4924,0.0001931,-0.013516,0.00010841,-636.36,-0.00050047,-5211.3,0.077935
2305,3.6739,3.6364,0,0.0004909,4905.6,0.00019372,-0.018207,0.00010548,-663.06,-0.0004988,-5203.4,0.078206
2306,3.6739,3.4545,0,0.00048951,4891.7,0.0001942,-0.021581,0.00010325,-683.34,-0.00049754,-5197.5,0.078409
2307,3.6739,3.2727,0,0.00048858,4882.4,0.00019452,-0.023762,0.00010176,-696.98,-0.00049669,-5193.5,0.078543
2308,3.6739,3.0909,0,0.00048811,4877.8,0.00019468,-0.024832,0.00010101,-703.84,-0.00049626,-5191.5,0.07861
2309,3.6739,2.9091,0,0.00048811,4877.8,0.00019468,-0.024832,0.00010101,-703.84,-0.00049626,-5191.5,0.07861
2310,3.6739,2.7273,0,0.00048858,4882.4,0.00019452,-0.023762,0.00010176,-696.98,-0.00049669,-5193.5,0.078543
2311,3.6739,2.5455,0,0.00048951,4891.7,0.0001942,-0.02158,0.00010325,-683.34,-0.00049754,-5197.5,0.078409
2312,3.6739,2.3636,0,0.0004909,4905.6,0.00019372,-0.018207,0.00010548,-663.06,-0.0004988,-5203.4,0.078206
2313,3.6739,2.1818,0,0.00049274,4924,0.0001931,-0.013516,0.00010841,-636.36,-0.00050047,-5211.3,0.077935
2314,3.6739,2,0,0.00049503,4946.9,0.00019234,-0.0073412,0.00011202,-603.54,-0.00050253,-5221,0.077591
2315,3.6739,1.8182,0,0.00049775,4974.1,0.00019145,0.00053621,0.00011625,-564.97,-0.00050495,-5232.5,0.077174
2316,3.6739,1.6364,0,0.00050089,5005.5,0.00019043,0.010395,0.00012108,-521.09,-0.00050772,-5245.6,0.076681
2317,3.6739,1.4545,0,0.00050443,5040.8,0.00018931,0.022689,0.00012644,-472.41,-0.0005108,-5260.3,0.076108
2318,3.6739,1.2727,0,0.00050832,5079.7,0.0001881,0.037843,0.00013226,-419.5,-0.00051416,-5276.4,0.075453
2319,3.6739,1.0909,0,0.00051255,5122,0.00018681,0.05765,0.00013849,-362.97,-0.00051776,-5293.8,0.074711
2320,3.6739,0.90909,0,0.00051708,5167.2,0.00018545,0.081067,0.00014505,-303.47,-0.00052157,-5312.2,0.073878
2321,3.6739,0.72727,0,0.00052185,5214.9,0.00018405,0.12474,0.00015187,-241.67,-0.00052554,-5331.4,0.07295
2322,3.6739,0.54545,0,0.00052682,5264.6,0.00018262,0.14838,0.00015888,-178.24,-0.00052963,-5351.4,0.071923
2323,3.6739,0.36364,0,0.00053198,5316.1,0.00018119,0.45182,0.00016601,-113.58,-0.00053381,-5371.8,0.070792
2324,3.6739,0.18182,0,0.00053745,5370.8,0.00017976,0.68808,0.00017336,-47.361,-0.00053823,-5394,0.069552
2325,3.4902,5.8182,0,0.00054412,5437.5,0.00018204,0.81215,0.00017543,-48.824,-0.00054492,-5461.3,0.062458
2326,3.4902,5.6364,0,0.00053819,5378.2,0.00018359,0.49746,0.00016746,-120.71,-0.00054013,-5437.3,0.063677
2327,3.4902,5.4545,0,0.00053264,5322.8,0.00018515,0.16467,0.00015973,-190.85,-0.00053563,-5415.5,0.064786
2328,3.4902,5.2727,0,0.0005273,5269.3,0.00018673,0.1374,0.00015214,-259.77,-0.00053123,-5394.3,0.06579
2329,3.4902,5.0909,0,0.00052218,5218.2,0.00018827,0.089284,0.00014474,-327,-0.00052697,-5374,0.066696
2330,3.4902,4.9091,0,0.00051734,5169.9,0.00018977,0.063424,0.00013762,-391.77,-0.00052289,-5354.6,0.067507
2331,3.4902,4.7273,0,0.00051283,5124.8,0.0001912,0.041697,0.00013085,-453.34,-0.00051903,-5336.4,0.068228
2332,3.4902,4.5455,0,0.00050869,5083.3,0.00019254,0.025173,0.00012453,-510.98,-0.00051545,-5319.5,0.068864
2333,3.4902,4.3636,0,0.00050494,5045.9,0.00019379,0.01188,0.00011872,-563.99,-0.00051216,-5304.2,0.069418
2334,3.4902,4.1818,0,0.00050162,5012.8,0.00019491,0.0013249,0.00011349,-611.75,-0.00050922,-5290.6,0.069895
2335,3.4902,4,0,0.00049876,4984.1,0.0001959,-0.0070187,0.0001089,-653.7,-0.00050665,-5278.7,0.070297
2336,3.4902,3.8182,0,0.00049635,4960.1,0.00019675,-0.013486,0.000105,-689.37,-0.00050447,-5268.8,0.070628
2337,3.4902,3.6364,0,0.00049443,4940.8,0.00019744,-0.018347,0.00010184,-718.37,-0.00050271,-5260.7,0.070889
2338,3.4902,3.4545,0,0.00049297,4926.3,0.00019797,-0.02181,9.9435e-05,-740.38,-0.00050138,-5254.6,0.071084
2339,3.4902,3.2727,0,0.00049201,4916.7,0.00019832,-0.024033,9.782e-05,-755.18,-0.00050048,-5250.6,0.071213
2340,3.4902,3.0909,0,0.00049152,4911.8,0.0001985,-0.025118,9.7009e-05,-762.62,-0.00050003,-5248.6,0.071277
2341,3.4902,2.9091,0,0.00049152,4911.8,0.0001985,-0.025118,9.7009e-05,-762.62,-0.00050003,-5248.6,0.071277
2342,3.4902,2.7273,0,0.00049201,4916.7,0.00019832,-0.024033,9.782e-05,-755.18,-0.00050048,-5250.6,0.071213
2343,3.4902,2.5455,0,0.00049297,4926.3,0.00019797,-0.02181,9.9435e-05,-740.38,-0.00050138,-5254.6,0.071084
2344,3.4902,2.3636,0,0.00049443,4940.8,0.00019744,-0.018347,0.00010184,-718.37,-0.00050271,-5260.7,0.070889
2345,3.4902,2.1818,0,0.00049635,4960.1,0.00019675,-0.013486,0.000105,-689.37,-0.00050447,-5268.8,0.070628
2346,3.4902,2,0,0.00049876,4984.1,0.0001959,-0.0070184,0.0001089,-653.7,-0.00050665,-5278.7,0.070297
2347,3.4902,1.8182,0,0.00050162,5012.8,0.00019491,0.0013253,0.00011349,-611.75,-0.00050922,-5290.6,0.069895
2348,3.4902,1.6364,0,0.00050494,5045.9,0.00019379,0.011881,0.00011872,-563.99,-0.00051216,-5304.2,0.069418
2349,3.4902,1.4545,0,0.00050868,5083.3,0.00019254,0.025174,0.00012453,-510.98,-0.00051545,-5319.5,0.068864
2350,3.4902,1.2727,0,0.00051283,5124.8,0.0001912,0.041697,0.00013085,-453.34,-0.00051903,-5336.4,0.068228
2351,3.4902,1.0909,0,0.00051734,5169.9,0.00018977,0.063425,0.00013762,-391.77,-0.00052289,-5354.6,0.067507
2352,3.4902,0.90909,0,0.00052218,5218.2,0.00018827,0.089285,0.00014474,-327,-0.00052697,-5374,0.066696
2353,3.4902,0.72727,0,0.0005273,5269.3,0.00018673,0.1374,0.00015214,-259.77,-0.00053123,-5394.3,0.06579
2354,3.4902,0.54545,0,0.00053264,5322.8,0.00018515,0.16467,0.00015973,-190.85,-0.00053563,-5415.5,0.064786
2355,3.4902,0.36364,0,0.00053819,5378.2,0.00018359,0.49747,0.00016746,-120.71,-0.00054013,-5437.3,0.063677
2356,3.4902,0.18182,0,0.00054412,5437.5,0.00018204,0.81215,0.00017543,-48.824,-0.00054492,-5461.3,0.062458
2357,3.3065,5.8182,0,0.00055083,5504.5,0.00018432,0.96661,0.00017755,-49.943,-0.00055165,-5528.8,0.05573
2358,3.3065,5.6364,0,0.0005444,5440.2,0.000186,0.54845,0.00016889,-128.02,-0.00054645,-5502.8,0.056924
2359,3.3065,5.4545,0,0.00053843,5380.6,0.00018771,0.18297,0.00016052,-204.15,-0.00054161,-5479.7,0.058008
2360,3.3065,5.2727,0,0.0005327,5323.3,0.00018944,0.15143,0.00015228,-279.07,-0.00053689,-5457.3,0.058988
2361,3.3065,5.0909,0,0.00052722,5268.5,0.00019115,0.098348,0.00014425,-352.24,-0.00053232,-5435.8,0.059868
2362,3.3065,4.9091,0,0.00052206,5217,0.0001928,0.069759,0.00013652,-422.8,-0.00052796,-5415.4,0.060655
2363,3.3065,4.7273,0,0.00051726,5169,0.00019439,0.045924,0.00012918,-489.87,-0.00052384,-5396.5,0.061353
2364,3.3065,4.5455,0,0.00051287,5125.1,0.00019588,0.027936,0.00012233,-552.64,-0.00052003,-5379,0.061966
2365,3.3065,4.3636,0,0.00050892,5085.7,0.00019727,0.013616,0.00011603,-610.33,-0.00051654,-5363.3,0.0625
2366,3.3065,4.1818,0,0.00050544,5050.9,0.00019852,0.0023844,0.00011038,-662.26,-0.00051343,-5349.3,0.062958
2367,3.3065,4,0,0.00050244,5020.9,0.00019963,-0.0063732,0.00010542,-707.83,-0.00051072,-5337.3,0.063344
2368,3.3065,3.8182,0,0.00049994,4996,0.00020057,-0.013065,0.00010122,-746.53,-0.00050844,-5327.2,0.063661
2369,3.3065,3.6364,0,0.00049794,4976,0.00020134,-0.018027,9.7805e-05,-777.95,-0.00050659,-5319.1,0.063912
2370,3.3065,3.4545,0,0.00049644,4961,0.00020193,-0.021518,9.522e-05,-801.78,-0.0005052,-5313.1,0.064097
2371,3.3065,3.2727,0,0.00049544,4951,0.00020232,-0.023736,9.3484e-05,-817.79,-0.00050426,-5309,0.06422
2372,3.3065,3.0909,0,0.00049495,4946,0.00020252,-0.024813,9.2612e-05,-825.83,-0.00050379,-5307,0.064282
2373,3.3065,2.9091,0,0.00049495,4946,0.00020252,-0.024813,9.2612e-05,-825.83,-0.00050379,-5307,0.064282
2374,3.3065,2.7273,0,0.00049544,4951,0.00020232,-0.023736,9.3484e-05,-817.79,-0.00050426,-5309,0.06422
2375,3.3065,2.5455,0,0.00049644,4961,0.00020193,-0.021518,9.522e-05,-801.78,-0.0005052,-5313.1,0.064097
2376,3.3065,2.3636,0,0.00049794,4976,0.00020134,-0.018027,9.7805e-05,-777.95,-0.00050659,-5319.1,0.063912
2377,3.3065,2.1818,0,0.00049994,4996,0.00020057,-0.013065,0.00010122,-746.53,-0.00050844,-5327.2,0.063661
2378,3.3065,2,0,0.00050244,5020.9,0.00019963,-0.0063729,0.00010542,-707.83,-0.00051072,-5337.3,0.063344
2379,3.3065,1.8182,0,0.00050544,5050.9,0.00019852,0.0023849,0.00011038,-662.26,-0.00051343,-5349.3,0.062958
2380,3.3065,1.6364,0,0.00050892,5085.7,0.00019727,0.013617,0.00011603,-610.33,-0.00051654,-5363.3,0.0625
2381,3.3065,1.4545,0,0.00051287,5125.1,0.00019588,0.027937,0.00012233,-552.64,-0.00052003,-5379,0.061966
2382,3.3065,1.2727,0,0.00051726,5169,0.00019439,0.045925,0.00012918,-489.87,-0.00052384,-5396.5,0.061353
2383,3.3065,1.0909,0,0.00052206,5217,0.0001928,0.069759,0.00013652,-422.8,-0.00052796,-5415.4,0.060655
2384,3.3065,0.90909,0,0.00052722,5268.5,0.00019115,0.098349,0.00014425,-352.24,-0.00053232,-5435.8,0.059868
2385,3.3065,0.72727,0,0.0005327,5323.3,0.00018944,0.15143,0.00015228,-279.07,-0.00053689,-5457.3,0.058988
2386,3.3065,0.54545,0,0.00053843,5380.6,0.00018771,0.18297,0.00016052,-204.15,-0.00054161,-5479.7,0.058008
2387,3.3065,0.36364,0,0.0005444,5440.2,0.000186,0.54845,0.00016889,-128.02,-0.00054645,-5502.8,0.056924
2388,3.3065,0.18182,0,0.00055083,5504.5,0.00018432,0.96661,0.00017755,-49.943,-0.00055165,-5528.8,0.05573
2389,3.1228,5.8182,0,0.00055756,5571.8,0.00018659,1.1614,0.0001797,-50.641,-0.00055838,-5596.3,0.049373
2390,3.1228,5.6364,0,0.00055058,5502,0.00018841,0.60562,0.0001703,-135.5,-0.00055275,-5568.2,0.05054
2391,3.1228,5.4545,0,0.00054417,5437.9,0.00019029,0.20357,0.00016122,-218.19,-0.00054754,-5543.6,0.051595
2392,3.1228,5.2727,0,0.00053802,5376.5,0.0001922,0.16699,0.00015229,-299.7,-0.00054248,-5519.9,0.052546
2393,3.1228,5.0909,0,0.00053216,5318,0.00019408,0.10834,0.00014357,-379.4,-0.0005376,-5497.4,0.053398
2394,3.1228,4.9091,0,0.00052667,5263.1,0.00019592,0.076689,0.00013518,-456.29,-0.00053294,-5476.3,0.054158
2395,3.1228,4.7273,0,0.00052159,5212.3,0.00019768,0.050545,0.00012722,-529.37,-0.00052857,-5456.7,0.054829
2396,3.1228,4.5455,0,0.00051696,5166,0.00019935,0.031004,0.00011979,-597.7,-0.00052453,-5438.9,0.055418
2397,3.1228,4.3636,0,0.00051282,5124.7,0.00020089,0.015649,0.00011299,-660.44,-0.00052086,-5422.9,0.05593
2398,3.1228,4.1818,0,0.0005092,5088.5,0.00020229,0.0037913,0.00010688,-716.83,-0.00051759,-5408.9,0.056367
2399,3.1228,4,0,0.0005061,5057.5,0.00020352,-0.0052956,0.00010155,-766.22,-0.00051476,-5396.9,0.056736
2400,3.1228,3.8182,0,0.00050353,5031.8,0.00020458,-0.012114,9.7026e-05,-808.1,-0.00051238,-5386.9,0.057037
2401,3.1228,3.6364,0,0.00050148,5011.3,0.00020544,-0.01708,9.3367e-05,-842.05,-0.00051046,-5379,0.057275
2402,3.1228,3.4545,0,0.00049995,4996,0.00020609,-0.020517,9.0598e-05,-867.77,-0.00050902,-5373.1,0.057452
2403,3.1228,3.2727,0,0.00049893,4985.9,0.00020653,-0.022673,8.8741e-05,-885.03,-0.00050806,-5369.2,0.057568
2404,3.1228,3.0909,0,0.00049843,4980.9,0.00020675,-0.023711,8.781e-05,-893.7,-0.00050758,-5367.2,0.057627
2405,3.1228,2.9091,0,0.00049843,4980.9,0.00020675,-0.023711,8.781e-05,-893.7,-0.00050758,-5367.2,0.057627
2406,3.1228,2.7273,0,0.00049893,4985.9,0.00020653,-0.022673,8.8741e-05,-885.03,-0.00050806,-5369.2,0.057568
2407,3.1228,2.5455,0,0.00049995,4996,0.00020609,-0.020517,9.0598e-05,-867.77,-0.00050902,-5373.1,0.057452
2408,3.1228,2.3636,0,0.00050148,5011.3,0.00020544,-0.01708,9.3367e-05,-842.05,-0.00051046,-5379,0.057275
2409,3.1228,2.1818,0,0.00050353,5031.8,0.00020458,-0.012114,9.7026e-05,-808.1,-0.00051238,-5386.9,0.057037
2410,3.1228,2,0,0.0005061,5057.5,0.00020352,-0.0052953,0.00010155,-766.22,-0.00051476,-5396.9,0.056736
2411,3.1228,1.8182,0,0.0005092,5088.5,0.00020229,0.0037917,0.00010688,-716.83,-0.00051759,-5408.9,0.056367
2412,3.1228,1.6364,0,0.00051282,5124.7,0.00020089,0.015649,0.00011299,-660.44,-0.00052086,-5422.9,0.05593
2413,3.1228,1.4545,0,0.00051696,5166,0.00019935,0.031005,0.00011979,-597.7,-0.00052453,-5438.9,0.055418
2414,3.1228,1.2727,0,0.00052159,5212.3,0.00019768,0.050546,0.00012722,-529.37,-0.00052857,-5456.7,0.054829
2415,3.1228,1.0909,0,0.00052667,5263.1,0.00019592,0.07669,0.00013518,-456.29,-0.00053294,-5476.3,0.054158
2416,3.1228,0.90909,0,0.00053216,5318,0.00019408,0.10834,0.00014357,-379.4,-0.0005376,-5497.4,0.053398
2417,3.1228,0.72727,0,0.00053802,5376.5,0.0001922,0.16699,0.00015229,-299.7,-0.00054248,-5519.9,0.052546
2418,3.1228,0.54545,0,0.00054417,5437.9,0.00019029,0.20357,0.00016122,-218.19,-0.00054754,-5543.6,0.051595
2419,3.1228,0.36364,0,0.00055058,5502,0.00018841,0.60563,0.0001703,-135.5,-0.00055275,-5568.2,0.05054
2420,3.1228,0.18182,0,0.00055756,5571.8,0.00018659,1.1614,0.0001797,-50.641,-0.00055838,-5596.3,0.049373
2421,2.9391,5.8182,0,0.00056428,5638.9,0.00018884,1.4108,0.00018189,-50.83,-0.0005651,-5663.4,0.043391
2422,2.9391,5.6364,0,0.0005567,5563.1,0.00019081,0.66999,0.00017167,-143.14,-0.00055898,-5633,0.044526
2423,2.9391,5.4545,0,0.0005498,5494.3,0.00019288,0.2268,0.00016183,-233.05,-0.00055339,-5607,0.045549
2424,2.9391,5.2727,0,0.00054322,5428.5,0.00019498,0.18427,0.00015213,-321.83,-0.00054798,-5582.1,0.046468
2425,2.9391,5.0909,0,0.00053698,5366.1,0.00019707,0.11932,0.00014266,-408.72,-0.00054276,-5558.7,0.047289
2426,2.9391,4.9091,0,0.00053116,5307.9,0.00019912,0.084232,0.00013355,-492.55,-0.00053781,-5536.9,0.048018
2427,2.9391,4.7273,0,0.0005258,5254.4,0.00020109,0.055562,0.00012493,-572.18,-0.00053319,-5517,0.048661
2428,2.9391,4.5455,0,0.00052096,5206,0.00020295,0.034392,0.00011689,-646.54,-0.00052893,-5499,0.049223
2429,2.9391,4.3636,0,0.00051666,5163,0.00020467,0.018026,0.00010955,-714.69,-0.00052509,-5483.1,0.049709
2430,2.9391,4.1818,0,0.00051293,5125.7,0.00020623,0.0056332,0.00010298,-775.8,-0.0005217,-5469.4,0.050125
2431,2.9391,4,0,0.00050975,5094,0.00020761,-0.0036579,9.7253e-05,-829.21,-0.00051877,-5457.8,0.050473
2432,2.9391,3.8182,0,0.00050714,5067.9,0.00020879,-0.010468,9.2417e-05,-874.39,-0.00051632,-5448.2,0.050758
2433,2.9391,3.6364,0,0.00050508,5047.3,0.00020975,-0.015312,8.8512e-05,-910.94,-0.00051437,-5440.7,0.050983
2434,2.9391,3.4545,0,0.00050355,5032,0.00021048,-0.018593,8.5564e-05,-938.57,-0.0005129,-5435.2,0.051149
2435,2.9391,3.2727,0,0.00050253,5021.9,0.00021097,-0.020615,8.359e-05,-957.1,-0.00051192,-5431.5,0.051259
2436,2.9391,3.0909,0,0.00050203,5016.8,0.00021122,-0.021576,8.26e-05,-966.39,-0.00051144,-5429.7,0.051314
2437,2.9391,2.9091,0,0.00050203,5016.8,0.00021122,-0.021576,8.26e-05,-966.39,-0.00051144,-5429.7,0.051314
2438,2.9391,2.7273,0,0.00050253,5021.9,0.00021097,-0.020615,8.359e-05,-957.1,-0.00051192,-5431.5,0.051259
2439,2.9391,2.5455,0,0.00050355,5032,0.00021048,-0.018593,8.5564e-05,-938.57,-0.0005129,-5435.2,0.051149
2440,2.9391,2.3636,0,0.00050508,5047.3,0.00020975,-0.015312,8.8512e-05,-910.94,-0.00051437,-5440.7,0.050983
2441,2.9391,2.1818,0,0.00050714,5067.9,0.00020879,-0.010468,9.2417e-05,-874.39,-0.00051632,-5448.2,0.050758
2442,2.9391,2,0,0.00050975,5094,0.00020761,-0.0036575,9.7253e-05,-829.21,-0.00051877,-5457.8,0.050473
2443,2.9391,1.8182,0,0.00051293,5125.7,0.00020623,0.0056335,0.00010298,-775.8,-0.0005217,-5469.4,0.050125
2444,2.9391,1.6364,0,0.00051666,5163,0.00020467,0.018026,0.00010955,-714.69,-0.00052509,-5483.1,0.049709
2445,2.9391,1.4545,0,0.00052096,5206,0.00020295,0.034392,0.00011689,-646.55,-0.00052893,-5499,0.049223
2446,2.9391,1.2727,0,0.0005258,5254.4,0.00020109,0.055562,0.00012493,-572.18,-0.00053319,-5517,0.048661
2447,2.9391,1.0909,0,0.00053116,5307.9,0.00019912,0.084232,0.00013355,-492.55,-0.00053781,-5536.9,0.048018
2448,2.9391,0.90909,0,0.00053698,5366.1,0.00019707,0.11932,0.00014266,-408.72,-0.00054276,-5558.7,0.047289
2449,2.9391,0.72727,0,0.00054322,5428.5,0.00019498,0.18427,0.00015213,-321.83,-0.00054798,-5582.1,0.046468
2450,2.9391,0.54545,0,0.0005498,5494.3,0.00019288,0.2268,0.00016183,-233.05,-0.00055339,-5607,0.045549
2451,2.9391,0.36364,0,0.0005567,5563.1,0.00019081,0.67,0.00017167,-143.14,-0.00055898,-5633,0.044526
2452,2.9391,0.18182,0,0.00056428,5638.9,0.00018884,1.4108,0.00018189,-50.83,-0.0005651,-5663.4,0.043391
2453,2.7554,5.8182,0,0.00057095,5705.5,0.00019105,1.736,0.00018411,-50.417,-0.00057176,-5729.7,0.037788
2454,2.7554,5.6364,0,0.0005627,5623.1,0.00019318,0.74282,0.00017299,-150.94,-0.0005651,-5696.7,0.038887
2455,2.7554,5.4545,0,0.0005553,5549.2,0.00019546,0.25309,0.00016231,-248.84,-0.00055911,-5669.3,0.039875
2456,2.7554,5.2727,0,0.00054826,5478.9,0.0001978,0.20346,0.00015176,-345.66,-0.00055332,-5643.4,0.040758
2457,2.7554,5.0909,0,0.00054163,5412.6,0.00020012,0.13138,0.00014148,-440.51,-0.00054777,-5619.3,0.041544
2458,2.7554,4.9091,0,0.00053548,5351.1,0.00020241,0.092417,0.0001316,-531.98,-0.00054254,-5597.1,0.042239
2459,2.7554,4.7273,0,0.00052987,5295,0.00020461,0.060996,0.00012225,-618.75,-0.00053767,-5577.2,0.04285
2460,2.7554,4.5455,0,0.00052484,5244.8,0.0002067,0.03815,0.00011358,-699.61,-0.00053323,-5559.5,0.043383
2461,2.7554,4.3636,0,0.00052043,5200.7,0.00020863,0.020844,0.00010568,-773.5,-0.00052925,-5544.1,0.043842
2462,2.7554,4.1818,0,0.00051663,5162.7,0.00021038,0.0080583,9.8636e-05,-839.57,-0.00052576,-5531.1,0.044233
2463,2.7554,4,0,0.00051344,5130.9,0.00021192,-0.0012626,9.252e-05,-897.13,-0.00052278,-5520.3,0.044561
2464,2.7554,3.8182,0,0.00051084,5104.8,0.00021323,-0.0078891,8.7375e-05,-945.67,-0.00052031,-5511.6,0.044828
2465,2.7554,3.6364,0,0.0005088,5084.5,0.00021431,-0.012457,8.3235e-05,-984.83,-0.00051834,-5504.8,0.045038
2466,2.7554,3.4545,0,0.0005073,5069.5,0.00021512,-0.015459,8.0117e-05,-1014.4,-0.00051688,-5500,0.045193
2467,2.7554,3.2727,0,0.00050631,5059.6,0.00021567,-0.017263,7.8035e-05,-1034.1,-0.00051591,-5496.8,0.045295
2468,2.7554,3.0909,0,0.00050582,5054.7,0.00021594,-0.018105,7.6992e-05,-1044,-0.00051542,-5495.2,0.045346
2469,2.7554,2.9091,0,0.00050582,5054.7,0.00021594,-0.018105,7.6992e-05,-1044,-0.00051542,-5495.2,0.045346
2470,2.7554,2.7273,0,0.00050631,5059.6,0.00021567,-0.017263,7.8035e-05,-1034.1,-0.00051591,-5496.8,0.045295
2471,2.7554,2.5455,0,0.0005073,5069.5,0.00021512,-0.015459,8.0117e-05,-1014.4,-0.00051688,-5500,0.045193
2472,2.7554,2.3636,0,0.0005088,5084.5,0.00021431,-0.012457,8.3235e-05,-984.83,-0.00051834,-5504.8,0.045038
2473,2.7554,2.1818,0,0.00051084,5104.8,0.00021323,-0.0078888,8.7375e-05,-945.67,-0.00052031,-5511.6,0.044828
2474,2.7554,2,0,0.00051344,5130.9,0.00021192,-0.0012622,9.252e-05,-897.13,-0.00052278,-5520.3,0.044561
2475,2.7554,1.8182,0,0.00051663,5162.7,0.00021038,0.0080586,9.8636e-05,-839.57,-0.00052576,-5531.1,0.044233
2476,2.7554,1.6364,0,0.00052043,5200.7,0.00020863,0.020844,0.00010568,-773.5,-0.00052925,-5544.1,0.043842
2477,2.7554,1.4545,0,0.00052484,5244.8,0.0002067,0.03815,0.00011358,-699.61,-0.00053323,-5559.5,0.043383
2478,2.7554,1.2727,0,0.00052987,5295,0.00020461,0.060997,0.00012225,-618.75,-0.00053767,-5577.2,0.04285
2479,2.7554,1.0909,0,0.00053548,5351.1,0.00020241,0.092417,0.0001316,-531.98,-0.00054254,-5597.1,0.042239
2480,2.7554,0.90909,0,0.00054163,5412.6,0.00020012,0.13138,0.00014148,-440.51,-0.00054777,-5619.3,0.041544
2481,2.7554,0.72727,0,0.00054826,5478.9,0.0001978,0.20346,0.00015176,-345.66,-0.00055332,-5643.4,0.040758
2482,2.7554,0.54545,0,0.0005553,5549.2,0.00019546,0.25309,0.00016231,-248.84,-0.00055911,-5669.3,0.039875
2483,2.7554,0.36364,0,0.0005627,5623.1,0.00019318,0.74282,0.00017299,-150.94,-0.0005651,-5696.7,0.038887
2484,2.7554,0.18182,0,0.00057095,5705.5,0.00019105,1.736,0.00018411,-50.417,-0.00057176,-5729.7,0.037788
2485,2.5717,5.8182,0,0.0005775,5771,0.00019319,2.1695,0.00018634,-49.302,-0.00057829,-5794.4,0.032567
2486,2.5717,5.6364,0,0.00056853,5681.4,0.0001955,0.82565,0.00017424,-158.91,-0.00057105,-5758.8,0.033626
2487,2.5717,5.4545,0,0.00056059,5602,0.00019802,0.28291,0.00016262,-265.7,-0.00056463,-5730,0.034574
2488,2.5717,5.2727,0,0.00055308,5526.9,0.00020063,0.22477,0.00015115,-371.5,-0.00055845,-5703.2,0.035418
2489,2.5717,5.0909,0,0.00054605,5456.7,0.00020323,0.14456,0.00013997,-475.17,-0.00055257,-5678.7,0.036166
2490,2.5717,4.9091,0,0.00053958,5392.1,0.0002058,0.10123,0.00012925,-575.06,-0.00054706,-5656.5,0.036824
2491,2.5717,4.7273,0,0.00053375,5333.9,0.00020827,0.066838,0.00011914,-669.61,-0.00054198,-5637,0.0374
2492,2.5717,4.5455,0,0.0005286,5282.3,0.00021061,0.042312,0.00010979,-757.44,-0.00053739,-5620.1,0.0379
2493,2.5717,4.3636,0,0.00052413,5237.7,0.00021278,0.024201,0.00010132,-837.4,-0.00053332,-5605.9,0.03833
2494,2.5717,4.1818,0,0.00052034,5199.8,0.00021474,0.01123,9.3813e-05,-908.59,-0.0005298,-5594.2,0.038695
2495,2.5717,4,0,0.00051719,5168.4,0.00021647,0.0021077,8.7322e-05,-970.35,-0.00052682,-5584.8,0.038999
2496,2.5717,3.8182,0,0.00051467,5143.1,0.00021794,-0.0041212,8.189e-05,-1022.2,-0.00052437,-5577.5,0.039247
2497,2.5717,3.6364,0,0.00051271,5123.5,0.00021914,-0.0082335,7.7536e-05,-1063.9,-0.00052245,-5572,0.039442
2498,2.5717,3.4545,0,0.00051128,5109.3,0.00022004,-0.010821,7.4269e-05,-1095.3,-0.00052103,-5568.1,0.039585
2499,2.5717,3.2727,0,0.00051035,5100,0.00022065,-0.012317,7.2093e-05,-1116.2,-0.00052009,-5565.7,0.03968
2500,2.5717,3.0909,0,0.00050989,5095.4,0.00022096,-0.012996,7.1005e-05,-1126.7,-0.00051962,-5564.5,0.039727
2501,2.5717,2.9091,0,0.00050989,5095.4,0.00022096,-0.012996,7.1005e-05,-1126.7,-0.00051962,-5564.5,0.039727
2502,2.5717,2.7273,0,0.00051035,5100,0.00022065,-0.012317,7.2093e-05,-1116.2,-0.00052009,-5565.7,0.03968
2503,2.5717,2.5455,0,0.00051128,5109.3,0.00022004,-0.010821,7.4269e-05,-1095.3,-0.00052103,-5568.1,0.039585
2504,2.5717,2.3636,0,0.00051271,5123.5,0.00021914,-0.0082334,7.7536e-05,-1063.9,-0.00052245,-5572,0.039442
2505,2.5717,2.1818,0,0.00051467,5143.1,0.00021794,-0.004121,8.189e-05,-1022.2,-0.00052437,-5577.5,0.039247
2506,2.5717,2,0,0.00051719,5168.4,0.00021647,0.0021079,8.7322e-05,-970.35,-0.00052682,-5584.8,0.038999
2507,2.5717,1.8182,0,0.00052034,5199.8,0.00021474,0.01123,9.3813e-05,-908.59,-0.0005298,-5594.2,0.038695
2508,2.5717,1.6364,0,0.00052413,5237.7,0.00021278,0.024201,0.00010132,-837.4,-0.00053332,-5605.9,0.03833
2509,2.5717,1.4545,0,0.0005286,5282.3,0.00021061,0.042313,0.00010979,-757.44,-0.00053739,-5620.1,0.0379
2510,2.5717,1.2727,0,0.00053375,5333.9,0.00020827,0.066838,0.00011914,-669.61,-0.00054198,-5637,0.0374
2511,2.5717,1.0909,0,0.00053958,5392.1,0.0002058,0.10123,0.00012925,-575.06,-0.00054706,-5656.5,0.036824
2512,2.5717,0.90909,0,0.00054605,5456.7,0.00020323,0.14456,0.00013997,-475.17,-0.00055257,-5678.7,0.036166
2513,2.5717,0.72727,0,0.00055308,5526.9,0.00020063,0.22477,0.00015115,-371.5,-0.00055845,-5703.2,0.035418
2514,2.5717,0.54545,0,0.00056059,5602,0.00019802,0.28291,0.00016262,-265.7,-0.00056463,-5730,0.034574
2515,2.5717,0.36364,0,0.00056853,5681.4,0.0001955,0.82565,0.00017424,-158.91,-0.00057105,-5758.8,0.033626
2516,2.5717,0.18182,0,0.0005775,5771,0.00019319,2.1695,0.00018634,-49.302,-0.00057829,-5794.4,0.032567
2517,2.388,5.8182,0,0.00058387,5834.7,0.00019525,2.7632,0.00018858,-47.387,-0.00058462,-5856.8,0.027733
2518,2.388,5.6364,0,0.0005741,5737,0.00019774,0.92046,0.00017538,-167.09,-0.00057674,-5818.2,0.028747
2519,2.388,5.4545,0,0.00056557,5651.8,0.00020055,0.31694,0.00016273,-283.87,-0.00056986,-5788.2,0.029651
2520,2.388,5.2727,0,0.00055757,5571.9,0.00020346,0.24858,0.00015023,-399.75,-0.00056329,-5760.8,0.030451
2521,2.388,5.0909,0,0.00055015,5497.7,0.00020639,0.15904,0.00013806,-513.28,-0.00055708,-5736.3,0.031157
2522,2.388,4.9091,0,0.00054341,5430.4,0.00020928,0.1108,0.00012642,-622.47,-0.00055132,-5714.7,0.031775
2523,2.388,4.7273,0,0.00053742,5370.5,0.00021207,0.073246,0.00011551,-725.46,-0.00054607,-5696.3,0.032313
2524,2.388,4.5455,0,0.00053221,5318.4,0.00021471,0.047117,0.00010547,-820.71,-0.00054139,-5681,0.032778
2525,2.388,4.3636,0,0.00052777,5274.1,0.00021715,0.028424,9.6435e-05,-906.97,-0.00053731,-5668.7,0.033176
2526,2.388,4.1818,0,0.00052407,5237.1,0.00021935,0.015554,8.8475e-05,-983.36,-0.00053383,-5659.1,0.033513
2527,2.388,4,0,0.00052107,5207.1,0.00022129,0.0069131,8.1641e-05,-1049.3,-0.00053093,-5651.9,0.033793
2528,2.388,3.8182,0,0.0005187,5183.4,0.00022293,0.0013265,7.5957e-05,-1104.3,-0.00052858,-5646.6,0.03402
2529,2.388,3.6364,0,0.0005169,5165.4,0.00022427,-0.002139,7.1426e-05,-1148.4,-0.00052676,-5642.9,0.034198
2530,2.388,3.4545,0,0.0005156,5152.4,0.00022528,-0.004177,6.8042e-05,-1181.4,-0.00052543,-5640.5,0.034329
2531,2.388,3.2727,0,0.00051476,5144.1,0.00022596,-0.0052791,6.5795e-05,-1203.4,-0.00052456,-5639.1,0.034415
2532,2.388,3.0909,0,0.00051435,5140,0.0002263,-0.0057553,6.4674e-05,-1214.4,-0.00052413,-5638.5,0.034458
2533,2.388,2.9091,0,0.00051435,5140,0.0002263,-0.0057553,6.4674e-05,-1214.4,-0.00052413,-5638.5,0.034458
2534,2.388,2.7273,0,0.00051476,5144.1,0.00022596,-0.0052791,6.5795e-05,-1203.4,-0.00052456,-5639.1,0.034415
2535,2.388,2.5455,0,0.0005156,5152.4,0.00022528,-0.004177,6.8042e-05,-1181.4,-0.00052543,-5640.5,0.034329
2536,2.388,2.3636,0,0.0005169,5165.4,0.00022427,-0.0021388,7.1426e-05,-1148.4,-0.00052676,-5642.9,0.034198
2537,2.388,2.1818,0,0.0005187,5183.4,0.00022293,0.0013267,7.5957e-05,-1104.3,-0.00052858,-5646.6,0.03402
2538,2.388,2,0,0.00052107,5207.1,0.00022129,0.0069135,8.1641e-05,-1049.3,-0.00053093,-5651.9,0.033793
2539,2.388,1.8182,0,0.00052407,5237.1,0.00021935,0.015554,8.8475e-05,-983.36,-0.00053383,-5659.1,0.033513
2540,2.388,1.6364,0,0.00052777,5274.1,0.00021715,0.028424,9.6435e-05,-906.98,-0.00053731,-5668.7,0.033176
2541,2.388,1.4545,0,0.00053221,5318.4,0.00021471,0.047117,0.00010547,-820.71,-0.00054139,-5681,0.032778
2542,2.388,1.2727,0,0.00053742,5370.5,0.00021207,0.073246,0.00011551,-725.46,-0.00054607,-5696.3,0.032313
2543,2.388,1.0909,0,0.00054341,5430.4,0.00020928,0.1108,0.00012642,-622.47,-0.00055132,-5714.7,0.031775
2544,2.388,0.90909,0,0.00055015,5497.7,0.00020639,0.15904,0.00013806,-513.28,-0.00055708,-5736.3,0.031157
2545,2.388,0.72727,0,0.00055757,5571.9,0.00020346,0.24858,0.00015023,-399.75,-0.00056329,-5760.8,0.030451
2546,2.388,0.54545,0,0.00056557,5651.8,0.00020055,0.31694,0.00016273,-283.87,-0.00056986,-5788.2,0.029651
2547,2.388,0.36364,0,0.0005741,5737,0.00019774,0.92046,0.00017538,-167.09,-0.00057674,-5818.2,0.028747
2548,2.388,0.18182,0,0.00058387,5834.7,0.00019525,2.7632,0.00018858,-47.388,-0.00058462,-5856.8,0.027733
2549,2.2043,5.8182,0,0.00058995,5895.4,0.00019719,3.603,0.00019077,-44.588,-0.00059063,-5915.7,0.023288
2550,2.2043,5.6364,0,0.00057927,5788.7,0.00019988,1.0295,0.00017637,-175.58,-0.00058204,-5874,0.024253
2551,2.2043,5.4545,0,0.00057013,5697.3,0.00020301,0.35555,0.00016255,-303.69,-0.00057468,-5842.9,0.025108
2552,2.2043,5.2727,0,0.00056163,5612.4,0.0002063,0.27475,0.0001489,-430.97,-0.00056771,-5815.3,0.02586
2553,2.2043,5.0909,0,0.00055384,5534.6,0.00020961,0.17445,0.00013564,-555.58,-0.00056119,-5791.4,0.026519
2554,2.2043,4.9091,0,0.00054689,5465.1,0.00021288,0.12069,0.00012303,-675.04,-0.00055523,-5771.2,0.027094
2555,2.2043,4.7273,0,0.00054082,5404.4,0.00021604,0.079834,0.00011127,-787.18,-0.00054989,-5754.8,0.027591
2556,2.2043,4.5455,0,0.00053565,5352.8,0.00021902,0.052277,0.00010053,-890.24,-0.00054521,-5742.1,0.028018
2557,2.2043,4.3636,0,0.00053137,5310,0.00022177,0.033326,9.0951e-05,-982.93,-0.00054122,-5732.8,0.028383
2558,2.2043,4.1818,0,0.00052789,5275.3,0.00022425,0.020914,8.2584e-05,-1064.4,-0.00053788,-5726.3,0.028689
2559,2.2043,4,0,0.00052515,5247.8,0.00022642,0.013071,7.5461e-05,-1134.2,-0.00053516,-5722.2,0.028943
2560,2.2043,3.8182,0,0.00052304,5226.8,0.00022826,0.0083721,6.9583e-05,-1192.2,-0.00053301,-5719.9,0.029148
2561,2.2043,3.6364,0,0.00052147,5211.1,0.00022974,0.005724,6.4929e-05,-1238.3,-0.00053138,-5718.7,0.029309
2562,2.2043,3.4545,0,0.00052037,5200.1,0.00023087,0.004344,6.1473e-05,-1272.7,-0.0005302,-5718.4,0.029427
2563,2.2043,3.2727,0,0.00051968,5193.2,0.00023162,0.0036952,5.9187e-05,-1295.6,-0.00052944,-5718.3,0.029504
2564,2.2043,3.0909,0,0.00051934,5189.8,0.000232,0.003449,5.805e-05,-1307,-0.00052907,-5718.4,0.029543
2565,2.2043,2.9091,0,0.00051934,5189.8,0.000232,0.003449,5.805e-05,-1307,-0.00052907,-5718.4,0.029543
2566,2.2043,2.7273,0,0.00051968,5193.2,0.00023162,0.0036952,5.9187e-05,-1295.6,-0.00052944,-5718.3,0.029504
2567,2.2043,2.5455,0,0.00052037,5200.1,0.00023087,0.004344,6.1473e-05,-1272.7,-0.0005302,-5718.4,0.029427
2568,2.2043,2.3636,0,0.00052147,5211.1,0.00022974,0.0057242,6.4929e-05,-1238.3,-0.00053138,-5718.7,0.029309
2569,2.2043,2.1818,0,0.00052304,5226.8,0.00022826,0.0083723,6.9583e-05,-1192.2,-0.00053301,-5719.9,0.029148
2570,2.2043,2,0,0.00052515,5247.8,0.00022642,0.013071,7.5461e-05,-1134.2,-0.00053516,-5722.2,0.028943
2571,2.2043,1.8182,0,0.00052789,5275.3,0.00022425,0.020914,8.2584e-05,-1064.4,-0.00053788,-5726.3,0.028689
2572,2.2043,1.6364,0,0.00053137,5310,0.00022177,0.033327,9.095e-05,-982.93,-0.00054122,-5732.8,0.028383
2573,2.2043,1.4545,0,0.00053565,5352.8,0.00021902,0.052277,0.00010053,-890.24,-0.00054521,-5742.1,0.028018
2574,2.2043,1.2727,0,0.00054082,5404.4,0.00021604,0.079835,0.00011126,-787.18,-0.00054989,-5754.8,0.027591
2575,2.2043,1.0909,0,0.00054689,5465.1,0.00021288,0.12069,0.00012303,-675.04,-0.00055523,-5771.2,0.027094
2576,2.2043,0.90909,0,0.00055384,5534.6,0.00020961,0.17445,0.00013564,-555.58,-0.00056119,-5791.4,0.026519
2577,2.2043,0.72727,0,0.00056163,5612.4,0.0002063,0.27475,0.0001489,-430.97,-0.00056771,-5815.3,0.02586
2578,2.2043,0.54545,0,0.00057013,5697.3,0.00020301,0.35555,0.00016255,-303.69,-0.00057468,-5842.9,0.025108
2579,2.2043,0.36364,0,0.00057927,5788.7,0.00019988,1.0295,0.00017637,-175.58,-0.00058204,-5874,0.024253
2580,2.2043,0.18182,0,0.00058995,5895.4,0.00019719,3.603,0.00019077,-44.588,-0.00059063,-5915.7,0.023288
2581,2.0207,5.8182,0,0.00059557,5951.6,0.00019896,4.8394,0.00019288,-40.854,-0.00059617,-5969.5,0.019235
2582,2.0207,5.6364,0,0.0005839,5835,0.00020185,1.1569,0.00017714,-184.5,-0.0005868,-5924.4,0.020146
2583,2.0207,5.4545,0,0.00057409,5736.9,0.00020538,0.40118,0.00016199,-325.63,-0.00057893,-5892.6,0.020947
2584,2.0207,5.2727,0,0.00056509,5647,0.00020911,0.30542,0.00014705,-465.99,-0.00057157,-5865.4,0.021647
2585,2.0207,5.0909,0,0.00055699,5566,0.00021289,0.19278,0.00013259,-603.12,-0.00056478,-5842.9,0.022256
2586,2.0207,4.9091,0,0.0005499,5495.2,0.00021661,0.13299,0.00011892,-733.94,-0.00055869,-5825.2,0.022783
2587,2.0207,4.7273,0,0.00054388,5435.1,0.00022021,0.088869,0.00010628,-855.88,-0.00055336,-5812.2,0.023236
2588,2.0207,4.5455,0,0.00053892,5385.5,0.00022359,0.060265,9.4876e-05,-967.01,-0.00054882,-5803.5,0.023624
2589,2.0207,4.3636,0,0.00053495,5345.8,0.00022669,0.04154,8.4801e-05,-1066.1,-0.00054505,-5798.5,0.023952
2590,2.0207,4.1818,0,0.00053186,5314.9,0.00022947,0.030027,7.6102e-05,-1152.3,-0.000542,-5796.5,0.024226
2591,2.0207,4,0,0.00052951,5291.5,0.0002319,0.023319,6.8777e-05,-1225.6,-0.0005396,-5796.7,0.024453
2592,2.0207,3.8182,0,0.00052779,5274.3,0.00023395,0.019726,6.2789e-05,-1286,-0.00053777,-5798.3,0.024636
2593,2.0207,3.6364,0,0.00052657,5262.1,0.0002356,0.018015,5.8088e-05,-1333.7,-0.00053642,-5800.6,0.024778
2594,2.0207,3.4545,0,0.00052575,5253.9,0.00023684,0.017347,5.462e-05,-1369.1,-0.00053548,-5802.9,0.024882
2595,2.0207,3.2727,0,0.00052525,5248.8,0.00023767,0.017168,5.2338e-05,-1392.5,-0.00053488,-5804.7,0.024951
2596,2.0207,3.0909,0,0.00052501,5246.5,0.00023809,0.017155,5.1206e-05,-1404.1,-0.0005346,-5805.6,0.024985
2597,2.0207,2.9091,0,0.00052501,5246.5,0.00023809,0.017155,5.1206e-05,-1404.1,-0.0005346,-5805.6,0.024985
2598,2.0207,2.7273,0,0.00052525,5248.8,0.00023767,0.017168,5.2338e-05,-1392.5,-0.00053488,-5804.7,0.024951
2599,2.0207,2.5455,0,0.00052575,5253.9,0.00023684,0.017347,5.462e-05,-1369.1,-0.00053548,-5802.9,0.024882
2600,2.0207,2.3636,0,0.00052657,5262.1,0.0002356,0.018016,5.8088e-05,-1333.7,-0.00053642,-5800.6,0.024778
2601,2.0207,2.1818,0,0.00052779,5274.3,0.00023395,0.019726,6.2789e-05,-1286,-0.00053777,-5798.3,0.024636
2602,2.0207,2,0,0.00052951,5291.5,0.0002319,0.023319,6.8777e-05,-1225.6,-0.0005396,-5796.7,0.024453
2603,2.0207,1.8182,0,0.00053186,5314.9,0.00022947,0.030028,7.6102e-05,-1152.3,-0.000542,-5796.5,0.024226
2604,2.0207,1.6364,0,0.00053495,5345.8,0.00022669,0.041541,8.4801e-05,-1066.1,-0.00054505,-5798.5,0.023952
2605,2.0207,1.4545,0,0.00053892,5385.5,0.00022359,0.060265,9.4876e-05,-967.01,-0.00054882,-5803.5,0.023624
2606,2.0207,1.2727,0,0.00054388,5435.1,0.00022021,0.088869,0.00010628,-855.88,-0.00055336,-5812.2,0.023236
2607,2.0207,1.0909,0,0.0005499,5495.2,0.00021661,0.13299,0.00011892,-733.94,-0.00055869,-5825.2,0.022783
2608,2.0207,0.90909,0,0.00055699,5566,0.00021289,0.19278,0.00013259,-603.12,-0.00056478,-5842.9,0.022256
2609,2.0207,0.72727,0,0.00056509,5647,0.00020911,0.30542,0.00014705,-465.99,-0.00057157,-5865.4,0.021647
2610,2.0207,0.54545,0,0.00057409,5736.9,0.00020538,0.40118,0.00016199,-325.63,-0.00057893,-5892.6,0.020947
2611,2.0207,0.36364,0,0.0005839,5835,0.00020185,1.1569,0.00017714,-184.5,-0.0005868,-5924.4,0.020146
2612,2.0207,0.18182,0,0.00059557,5951.6,0.00019896,4.8394,0.00019288,-40.854,-0.00059617,-5969.5,0.019235
2613,1.837,5.8182,0,0.00060054,6001.2,0.00020053,6.741,0.00019481,-36.229,-0.00060103,-6015.9,0.015578
2614,1.837,5.6364,0,0.00058774,5873.4,0.0002036,1.3024,0.00017759,-194.13,-0.00059078,-5967.3,0.016429
2615,1.837,5.4545,0,0.00057723,5768.3,0.00020762,0.44918,0.00016092,-350.45,-0.00058238,-5935.3,0.017171
2616,1.837,5.2727,0,0.00056775,5673.6,0.00021189,0.33438,0.0001445,-505.96,-0.00057465,-5909.4,0.017814
2617,1.837,5.0909,0,0.00055941,5590.2,0.00021622,0.20703,0.00012871,-657.32,-0.00056768,-5889.7,0.018368
2618,1.837,4.9091,0,0.00055233,5519.5,0.0002205,0.1404,0.00011392,-800.66,-0.00056157,-5876,0.018844
2619,1.837,4.7273,0,0.00054656,5461.8,0.0002246,0.093026,0.00010042,-932.98,-0.00055641,-5868.1,0.019251
2620,1.837,4.5455,0,0.00054201,5416.4,0.00022844,0.063759,8.8389e-05,-1052.2,-0.00055218,-5865.2,0.019595
2621,1.837,4.3636,0,0.00053857,5382,0.00023195,0.045695,7.7918e-05,-1157.3,-0.00054883,-5866.4,0.019885
2622,1.837,4.1818,0,0.00053606,5356.9,0.00023507,0.035404,6.9005e-05,-1247.7,-0.00054626,-5870.6,0.020127
2623,1.837,4,0,0.0005343,5339.3,0.00023778,0.029992,6.1598e-05,-1323.7,-0.00054436,-5876.6,0.020326
2624,1.837,3.8182,0,0.00053312,5327.5,0.00024005,0.02753,5.5615e-05,-1385.7,-0.00054299,-5883.4,0.020485
2625,1.837,3.6364,0,0.00053236,5319.9,0.00024187,0.026695,5.0966e-05,-1434.4,-0.00054204,-5890,0.020608
2626,1.837,3.4545,0,0.0005319,5315.3,0.00024324,0.026641,4.7564e-05,-1470.2,-0.00054142,-5895.6,0.020699
2627,1.837,3.2727,0,0.00053164,5312.7,0.00024416,0.026844,4.5338e-05,-1493.8,-0.00054105,-5899.7,0.020758
2628,1.837,3.0909,0,0.00053153,5311.6,0.00024462,0.027012,4.4238e-05,-1505.5,-0.00054088,-5901.9,0.020787
2629,1.837,2.9091,0,0.00053153,5311.6,0.00024462,0.027012,4.4238e-05,-1505.5,-0.00054088,-5901.9,0.020787
2630,1.837,2.7273,0,0.00053164,5312.7,0.00024416,0.026845,4.5338e-05,-1493.8,-0.00054105,-5899.7,0.020758
2631,1.837,2.5455,0,0.0005319,5315.3,0.00024324,0.026641,4.7564e-05,-1470.2,-0.00054142,-5895.6,0.020699
2632,1.837,2.3636,0,0.00053236,5319.9,0.00024187,0.026695,5.0966e-05,-1434.4,-0.00054204,-5890,0.020608
2633,1.837,2.1818,0,0.00053312,5327.5,0.00024005,0.02753,5.5615e-05,-1385.7,-0.00054299,-5883.4,0.020485
2634,1.837,2,0,0.0005343,5339.3,0.00023778,0.029992,6.1598e-05,-1323.7,-0.00054436,-5876.6,0.020326
2635,1.837,1.8182,0,0.00053606,5356.9,0.00023507,0.035404,6.9005e-05,-1247.7,-0.00054626,-5870.6,0.020127
2636,1.837,1.6364,0,0.00053857,5382,0.00023195,0.045695,7.7918e-05,-1157.3,-0.00054883,-5866.4,0.019885
2637,1.837,1.4545,0,0.00054201,5416.4,0.00022844,0.06376,8.8389e-05,-1052.2,-0.00055218,-5865.2,0.019595
2638,1.837,1.2727,0,0.00054656,5461.8,0.0002246,0.093027,0.00010042,-932.98,-0.00055641,-5868.1,0.019251
2639,1.837,1.0909,0,0.00055233,5519.5,0.0002205,0.1404,0.00011392,-800.66,-0.00056157,-5876,0.018844
2640,1.837,0.90909,0,0.00055941,5590.2,0.00021622,0.20703,0.00012871,-657.32,-0.00056768,-5889.7,0.018368
2641,1.837,0.72727,0,0.00056775,5673.6,0.00021189,0.33438,0.0001445,-505.97,-0.00057465,-5909.4,0.017814
2642,1.837,0.54545,0,0.00057723,5768.3,0.00020762,0.44918,0.00016092,-350.45,-0.00058238,-5935.3,0.017171
2643,1.837,0.36364,0,0.00058774,5873.4,0.0002036,1.3024,0.00017759,-194.13,-0.00059078,-5967.3,0.016429
2644,1.837,0.18182,0,0.00060054,6001.2,0.00020053,6.741,0.00019481,-36.229,-0.00060103,-6015.9,0.015578
2645,1.6533,5.8182,0,0.00060455,6041.3,0.00020185,9.8091,0.00019643,-30.935,-0.0006049,-6051.8,0.012317
2646,1.6533,5.6364,0,0.00059048,5900.7,0.00020504,1.4889,0.00017758,-204.88,-0.00059367,-5999.7,0.013102
2647,1.6533,5.4545,0,0.00057923,5788.3,0.00020967,0.52495,0.00015912,-379.26,-0.00058474,-5968.3,0.013779
2648,1.6533,5.2727,0,0.00056933,5689.3,0.00021461,0.38938,0.00014102,-552.58,-0.0005767,-5945.2,0.01436
2649,1.6533,5.0909,0,0.00056089,5605.1,0.00021964,0.24672,0.00012376,-720.18,-0.00056965,-5930.2,0.014857
2650,1.6533,4.9091,0,0.00055406,5536.7,0.00022458,0.17405,0.0001078,-877.22,-0.00056373,-5922.9,0.015278
2651,1.6533,4.7273,0,0.00054879,5484.1,0.00022928,0.12471,9.3479e-05,-1020.2,-0.00055897,-5922.5,0.015635
2652,1.6533,4.5455,0,0.00054495,5445.8,0.00023365,0.096087,8.095e-05,-1147.2,-0.00055532,-5927.9,0.015936
2653,1.6533,4.3636,0,0.00054232,5419.5,0.00023761,0.079688,7.0241e-05,-1257.5,-0.00055265,-5937.6,0.016187
2654,1.6533,4.1818,0,0.00054064,5402.7,0.00024111,0.071235,6.1286e-05,-1351,-0.0005508,-5950,0.016394
2655,1.6533,4,0,0.00053968,5393,0.00024412,0.067394,5.3963e-05,-1428.7,-0.00054958,-5963.5,0.016564
2656,1.6533,3.8182,0,0.0005392,5388.3,0.00024662,0.066103,4.8133e-05,-1491.3,-0.00054885,-5976.8,0.016699
2657,1.6533,3.6364,0,0.00053902,5386.5,0.00024863,0.066056,4.3656e-05,-1540,-0.00054844,-5988.8,0.016804
2658,1.6533,3.4545,0,0.00053901,5386.4,0.00025013,0.066485,4.0411e-05,-1575.7,-0.00054823,-5998.5,0.01688
2659,1.6533,3.2727,0,0.00053906,5386.9,0.00025112,0.066955,3.8302e-05,-1599,-0.00054815,-6005.3,0.01693
2660,1.6533,3.0909,0,0.00053911,5387.3,0.00025162,0.067237,3.7265e-05,-1610.5,-0.00054812,-6008.9,0.016955
2661,1.6533,2.9091,0,0.00053911,5387.3,0.00025162,0.067237,3.7265e-05,-1610.5,-0.00054812,-6008.9,0.016955
2662,1.6533,2.7273,0,0.00053906,5386.9,0.00025112,0.066955,3.8302e-05,-1599,-0.00054815,-6005.3,0.01693
2663,1.6533,2.5455,0,0.00053901,5386.4,0.00025013,0.066485,4.0411e-05,-1575.7,-0.00054823,-5998.5,0.01688
2664,1.6533,2.3636,0,0.00053902,5386.5,0.00024863,0.066056,4.3656e-05,-1540,-0.00054844,-5988.8,0.016804
2665,1.6533,2.1818,0,0.0005392,5388.3,0.00024662,0.066103,4.8133e-05,-1491.3,-0.00054885,-5976.8,0.016699
2666,1.6533,2,0,0.00053968,5393,0.00024412,0.067395,5.3963e-05,-1428.7,-0.00054958,-5963.5,0.016564
2667,1.6533,1.8182,0,0.00054064,5402.7,0.00024111,0.071235,6.1286e-05,-1351,-0.0005508,-5950,0.016394
2668,1.6533,1.6364,0,0.00054232,5419.5,0.00023761,0.079688,7.0241e-05,-1257.5,-0.00055265,-5937.6,0.016187
2669,1.6533,1.4545,0,0.00054495,5445.8,0.00023365,0.096087,8.095e-05,-1147.2,-0.00055532,-5927.9,0.015936
2670,1.6533,1.2727,0,0.00054879,5484.1,0.00022928,0.12471,9.3479e-05,-1020.2,-0.00055897,-5922.5,0.015635
2671,1.6533,1.0909,0,0.00055406,5536.7,0.00022458,0.17405,0.0001078,-877.22,-0.00056373,-5922.9,0.015278
2672,1.6533,0.90909,0,0.00056089,5605.1,0.00021964,0.24672,0.00012376,-720.18,-0.00056965,-5930.2,0.014857
2673,1.6533,0.72727,0,0.00056933,5689.3,0.00021461,0.38938,0.00014102,-552.58,-0.0005767,-5945.2,0.01436
2674,1.6533,0.54545,0,0.00057923,5788.3,0.00020967,0.52495,0.00015912,-379.26,-0.00058474,-5968.3,0.013779
2675,1.6533,0.36364,0,0.00059048,5900.7,0.00020504,1.4889,0.00017758,-204.88,-0.00059367,-5999.7,0.013102
2676,1.6533,0.18182,0,0.00060455,6041.3,0.00020185,9.8091,0.00019643,-30.935,-0.0006049,-6051.8,0.012317
2677,1.4696,5.8182,0,0.00060718,6067.6,0.00020287,14.859,0.0001975,-25.525,-0.00060735,-6072.8,0.0094532
2678,1.4696,5.6364,0,0.00059166,5912.5,0.00020606,1.6542,0.00017689,-217.5,-0.00059503,-6017.4,0.010166
2679,1.4696,5.4545,0,0.00057966,5792.6,0.00021146,0.53772,0.00015631,-413.84,-0.00058558,-5988.1,0.010773
2680,1.4696,5.2727,0,0.00056944,5690.5,0.00021727,0.36593,0.00013626,-608.37,-0.00057734,-5970,0.011288
2681,1.4696,5.0909,0,0.00056117,5607.8,0.00022316,0.1993,0.00011739,-794.53,-0.00057044,-5962.6,0.011722
2682,1.4696,4.9091,0,0.00055492,5545.4,0.0002289,0.11623,0.00010028,-966.27,-0.000565,-5964.9,0.012087
2683,1.4696,4.7273,0,0.00055057,5501.9,0.00023432,0.062533,8.5269e-05,-1119.8,-0.000561,-5975.6,0.012392
2684,1.4696,4.5455,0,0.00054783,5474.5,0.00023929,0.032887,7.2445e-05,-1253.6,-0.00055827,-5992.6,0.012646
2685,1.4696,4.3636,0,0.00054636,5459.8,0.00024375,0.016602,6.1737e-05,-1367.5,-0.00055662,-6013.6,0.012857
2686,1.4696,4.1818,0,0.00054581,5454.3,0.00024764,0.0084177,5.2976e-05,-1462.7,-0.00055577,-6036.5,0.013031
2687,1.4696,4,0,0.00054586,5454.9,0.00025097,0.0046122,4.5951e-05,-1540.4,-0.00055549,-6059.4,0.013171
2688,1.4696,3.8182,0,0.00054626,5458.8,0.00025372,0.0030887,4.0452e-05,-1602.4,-0.00055557,-6080.7,0.013283
2689,1.4696,3.6364,0,0.00054679,5464.2,0.0002559,0.0026437,3.6286e-05,-1650.1,-0.00055583,-6099,0.013369
2690,1.4696,3.4545,0,0.00054732,5469.4,0.00025752,0.0026411,3.33e-05,-1684.7,-0.00055614,-6113.6,0.013432
2691,1.4696,3.2727,0,0.00054772,5473.4,0.0002586,0.002758,3.1374e-05,-1707.3,-0.0005564,-6123.6,0.013473
2692,1.4696,3.0909,0,0.00054794,5475.6,0.00025913,0.0028453,3.0431e-05,-1718.4,-0.00055655,-6128.7,0.013493
2693,1.4696,2.9091,0,0.00054794,5475.6,0.00025913,0.0028452,3.0431e-05,-1718.4,-0.00055655,-6128.7,0.013493
2694,1.4696,2.7273,0,0.00054772,5473.4,0.0002586,0.002758,3.1374e-05,-1707.3,-0.0005564,-6123.6,0.013473
2695,1.4696,2.5455,0,0.00054732,5469.4,0.00025752,0.0026411,3.33e-05,-1684.7,-0.00055614,-6113.6,0.013432
2696,1.4696,2.3636,0,0.00054679,5464.2,0.0002559,0.0026437,3.6286e-05,-1650.1,-0.00055583,-6099,0.013369
2697,1.4696,2.1818,0,0.00054626,5458.8,0.00025372,0.0030887,4.0452e-05,-1602.4,-0.00055557,-6080.7,0.013283
2698,1.4696,2,0,0.00054586,5454.9,0.00025097,0.0046123,4.5951e-05,-1540.4,-0.00055549,-6059.4,0.013171
2699,1.4696,1.8182,0,0.00054581,5454.3,0.00024764,0.0084179,5.2976e-05,-1462.7,-0.00055577,-6036.5,0.013031
2700,1.4696,1.6364,0,0.00054636,5459.8,0.00024375,0.016602,6.1737e-05,-1367.5,-0.00055662,-6013.6,0.012857
2701,1.4696,1.4545,0,0.00054783,5474.5,0.00023929,0.032887,7.2445e-05,-1253.6,-0.00055827,-5992.6,0.012646
2702,1.4696,1.2727,0,0.00055057,5501.9,0.00023432,0.062533,8.5269e-05,-1119.8,-0.000561,-5975.6,0.012392
2703,1.4696,1.0909,0,0.00055492,5545.4,0.0002289,0.11623,0.00010028,-966.27,-0.000565,-5964.9,0.012087
2704,1.4696,0.90909,0,0.00056117,5607.8,0.00022316,0.1993,0.00011739,-794.53,-0.00057044,-5962.6,0.011722
2705,1.4696,0.72727,0,0.00056944,5690.5,0.00021727,0.36593,0.00013626,-608.37,-0.00057734,-5970,0.011288
2706,1.4696,0.54545,0,0.00057966,5792.6,0.00021146,0.53771,0.00015631,-413.84,-0.00058558,-5988.1,0.010773
2707,1.4696,0.36364,0,0.00059166,5912.5,0.00020606,1.6542,0.00017689,-217.5,-0.00059503,-6017.4,0.010166
2708,1.4696,0.18182,0,0.00060718,6067.6,0.00020287,14.859,0.0001975,-25.525,-0.00060735,-6072.8,0.0094532
2709,1.2859,5.8182,0,0.0006078,6073.8,0.00020353,23.134,0.00019769,-20.704,-0.00060774,-6072.4,0.0069864
2710,1.2859,5.6364,0,0.00059063,5902.2,0.00020652,2.0863,0.00017521,-233.17,-0.00059421,-6014.2,0.0076203
2711,1.2859,5.4545,0,0.00057791,5775.1,0.00021296,0.86489,0.00015204,-456.87,-0.00058431,-5989.5,0.0081519
2712,1.2859,5.2727,0,0.00056764,5672.5,0.00021991,0.68872,0.00012972,-676.97,-0.0005761,-5980.2,0.0085953
2713,1.2859,5.0909,0,0.00055997,5595.8,0.00022689,0.52018,0.00010915,-884.11,-0.00056973,-5984.9,0.0089636
2714,1.2859,4.9091,0,0.00055486,5544.8,0.00023361,0.4441,9.1015e-05,-1071,-0.00056525,-6001.9,0.0092689
2715,1.2859,4.7273,0,0.00055199,5516.1,0.00023986,0.39912,7.5581e-05,-1233.9,-0.00056251,-6028.3,0.0095213
2716,1.2859,4.5455,0,0.00055087,5504.9,0.00024551,0.37798,6.2798e-05,-1372.5,-0.00056121,-6061,0.0097294
2717,1.2859,4.3636,0,0.00055099,5506.1,0.0002505,0.36843,5.2433e-05,-1487.9,-0.00056098,-6096.8,0.0099003
2718,1.2859,4.1818,0,0.00055188,5515,0.00025482,0.36504,4.4174e-05,-1582.3,-0.00056148,-6132.9,0.01004
2719,1.2859,4,0,0.00055319,5528,0.00025845,0.36437,3.7702e-05,-1658.3,-0.00056239,-6167.1,0.010152
2720,1.2859,3.8182,0,0.00055461,5542.3,0.00026143,0.36476,3.2731e-05,-1718,-0.00056347,-6197.6,0.010241
2721,1.2859,3.6364,0,0.00055596,5555.8,0.00026378,0.3654,2.9025e-05,-1763.5,-0.00056453,-6223.2,0.010309
2722,1.2859,3.4545,0,0.00055708,5566.9,0.00026552,0.36598,2.6399e-05,-1796.3,-0.00056543,-6243,0.010359
2723,1.2859,3.2727,0,0.00055787,5574.9,0.00026666,0.36638,2.472e-05,-1817.5,-0.00056608,-6256.5,0.010391
2724,1.2859,3.0909,0,0.00055828,5579,0.00026723,0.36658,2.3901e-05,-1827.9,-0.00056642,-6263.4,0.010407
2725,1.2859,2.9091,0,0.00055828,5579,0.00026723,0.36658,2.3901e-05,-1827.9,-0.00056642,-6263.4,0.010407
2726,1.2859,2.7273,0,0.00055787,5574.9,0.00026666,0.36638,2.472e-05,-1817.5,-0.00056608,-6256.5,0.010391
2727,1.2859,2.5455,0,0.00055708,5566.9,0.00026552,0.36598,2.6399e-05,-1796.3,-0.00056543,-6243,0.010359
2728,1.2859,2.3636,0,0.00055596,5555.8,0.00026378,0.3654,2.9025e-05,-1763.5,-0.00056453,-6223.2,0.010309
2729,1.2859,2.1818,0,0.00055461,5542.3,0.00026143,0.36476,3.2731e-05,-1718,-0.00056347,-6197.6,0.010241
2730,1.2859,2,0,0.00055319,5528,0.00025845,0.36437,3.7702e-05,-1658.3,-0.00056239,-6167.1,0.010152
2731,1.2859,1.8182,0,0.00055188,5515,0.00025482,0.36504,4.4174e-05,-1582.3,-0.00056148,-6132.9,0.01004
2732,1.2859,1.6364,0,0.00055099,5506.1,0.0002505,0.36843,5.2433e-05,-1487.9,-0.00056098,-6096.8,0.0099003
2733,1.2859,1.4545,0,0.00055087,5504.9,0.00024551,0.37798,6.2798e-05,-1372.5,-0.00056121,-6061,0.0097294
2734,1.2859,1.2727,0,0.00055199,5516.1,0.00023986,0.39912,7.5581e-05,-1233.9,-0.00056251,-6028.3,0.0095213
2735,1.2859,1.0909,0,0.00055486,5544.8,0.00023361,0.4441,9.1015e-05,-1071,-0.00056525,-6001.9,0.0092689
2736,1.2859,0.90909,0,0.00055997,5595.8,0.00022689,0.52018,0.00010915,-884.11,-0.00056973,-5984.9,0.0089636
2737,1.2859,0.72727,0,0.00056764,5672.5,0.00021991,0.68872,0.00012972,-676.97,-0.0005761,-5980.2,0.0085953
2738,1.2859,0.54545,0,0.00057791,5775.1,0.00021296,0.86489,0.00015204,-456.87,-0.00058431,-5989.5,0.0081519
2739,1.2859,0.36364,0,0.00059063,5902.2,0.00020652,2.0863,0.00017521,-233.17,-0.00059421,-6014.2,0.0076203
2740,1.2859,0.18182,0,0.0006078,6073.8,0.00020353,23.134,0.00019769,-20.704,-0.00060774,-6072.4,0.0069864
2741,1.1022,5.8182,0,0.0006054,6049.8,0.0002036,35.334,0.00019656,-17.512,-0.00060508,-6040.7,0.004914
2742,1.1022,5.6364,0,0.00058633,5859.3,0.0002061,1.6962,0.000172,-254.56,-0.00059021,-5981.5,0.0054619
2743,1.1022,5.4545,0,0.00057304,5726.5,0.00021397,0.040209,0.00014562,-513.55,-0.00058005,-5965.9,0.0059122
2744,1.1022,5.2727,0,0.00056321,5628.2,0.00022243,-0.30038,0.00012069,-764.73,-0.00057232,-5971.7,0.0062803
2745,1.1022,5.0909,0,0.00055691,5565.2,0.0002308,-0.56995,9.8464e-05,-994.89,-0.00056714,-5996,0.0065804
2746,1.1022,4.9091,0,0.0005538,5534.2,0.00023871,-0.70671,7.9638e-05,-1195.9,-0.00056439,-6034.8,0.006825
2747,1.1022,4.7273,0,0.0005532,5528.2,0.00024591,-0.79247,6.4269e-05,-1365.6,-0.00056365,-6083.5,0.0070243
2748,1.1022,4.5455,0,0.00055432,5539.4,0.0002523,-0.84357,5.2038e-05,-1505.5,-0.00056439,-6137.1,0.0071867
2749,1.1022,4.3636,0,0.00055648,5561,0.00025784,-0.87684,4.2469e-05,-1619.1,-0.00056608,-6191.5,0.0073187
2750,1.1022,4.1818,0,0.00055913,5587.5,0.00026255,-0.89963,3.5077e-05,-1710.1,-0.00056826,-6243.3,0.0074254
2751,1.1022,4,0,0.00056188,5614.9,0.00026648,-0.91619,2.9434e-05,-1782,-0.00057059,-6290.4,0.0075109
2752,1.1022,3.8182,0,0.00056445,5640.6,0.00026967,-0.92857,2.5191e-05,-1837.8,-0.00057282,-6331,0.0075781
2753,1.1022,3.6364,0,0.00056667,5662.8,0.00027215,-0.93783,2.208e-05,-1879.9,-0.00057476,-6364.4,0.0076294
2754,1.1022,3.4545,0,0.00056841,5680.2,0.00027399,-0.94449,1.9904e-05,-1910,-0.00057631,-6389.7,0.0076665
2755,1.1022,3.2727,0,0.0005696,5692.1,0.00027519,-0.94882,1.8524e-05,-1929.4,-0.00057737,-6406.8,0.0076906
2756,1.1022,3.0909,0,0.00057021,5698.2,0.00027579,-0.95096,1.7855e-05,-1938.9,-0.00057791,-6415.3,0.0077025
2757,1.1022,2.9091,0,0.00057021,5698.2,0.00027579,-0.95096,1.7855e-05,-1938.9,-0.00057791,-6415.3,0.0077025
2758,1.1022,2.7273,0,0.0005696,5692.1,0.00027519,-0.94882,1.8524e-05,-1929.4,-0.00057737,-6406.8,0.0076906
2759,1.1022,2.5455,0,0.00056841,5680.2,0.00027399,-0.94449,1.9904e-05,-1910,-0.00057631,-6389.7,0.0076665
2760,1.1022,2.3636,0,0.00056667,5662.8,0.00027215,-0.93783,2.208e-05,-1879.9,-0.00057476,-6364.4,0.0076294
2761,1.1022,2.1818,0,0.00056445,5640.6,0.00026967,-0.92857,2.5191e-05,-1837.8,-0.00057282,-6331,0.0075781
2762,1.1022,2,0,0.00056188,5614.9,0.00026648,-0.91619,2.9434e-05,-1782,-0.00057059,-6290.4,0.0075109
2763,1.1022,1.8182,0,0.00055913,5587.5,0.00026255,-0.89963,3.5077e-05,-1710.1,-0.00056826,-6243.3,0.0074254
2764,1.1022,1.6364,0,0.00055648,5561,0.00025784,-0.87684,4.2469e-05,-1619.1,-0.00056608,-6191.5,0.0073187
2765,1.1022,1.4545,0,0.00055432,5539.4,0.0002523,-0.84357,5.2038e-05,-1505.5,-0.00056439,-6137.1,0.0071867
2766,1.1022,1.2727,0,0.0005532,5528.2,0.00024591,-0.79247,6.4269e-05,-1365.6,-0.00056365,-6083.5,0.0070243
2767,1.1022,1.0909,0,0.0005538,5534.2,0.00023871,-0.70671,7.9638e-05,-1195.9,-0.00056439,-6034.8,0.006825
2768,1.1022,0.90909,0,0.00055691,5565.2,0.0002308,-0.56995,9.8464e-05,-994.89,-0.00056714,-5996,0.0065804
2769,1.1022,0.72727,0,0.00056321,5628.2,0.00022243,-0.30039,0.00012069,-764.73,-0.00057232,-5971.7,0.0062803
2770,1.1022,0.54545,0,0.00057304,5726.5,0.00021397,0.040209,0.00014562,-513.55,-0.00058005,-5965.9,0.0059122
2771,1.1022,0.36364,0,0.00058633,5859.3,0.0002061,1.6962,0.000172,-254.56,-0.00059021,-5981.5,0.0054619
2772,1.1022,0.18182,0,0.0006054,6049.8,0.0002036,35.334,0.00019656,-17.512,-0.00060508,-6040.7,0.004914
2773,0.91848,5.8182,0,0.0005985,5980.8,0.00020263,52.949,0.00019367,-14.355,-0.00059781,-5961.2,0.0032306
2774,0.91848,5.6364,0,0.00057746,5770.6,0.00020489,4.9324,0.00016636,-284.54,-0.00058167,-5905,0.0036856
2775,0.91848,5.4545,0,0.00056416,5637.7,0.00021494,3.9623,0.00013592,-589.81,-0.00057177,-5907.1,0.0040495
2776,0.91848,5.2727,0,0.00055588,5555,0.00022552,4.0225,0.00010814,-877.95,-0.00056547,-5939.2,0.0043392
2777,0.91848,5.0909,0,0.00055234,5519.6,0.00023572,4.0192,8.4648e-05,-1131.1,-0.00056268,-5994.9,0.00457
2778,0.91848,4.9091,0,0.00055255,5521.7,0.00024506,4.0805,6.5866e-05,-1342.3,-0.00056286,-6066.3,0.0047543
2779,0.91848,4.7273,0,0.00055526,5548.8,0.00025333,4.1421,5.1365e-05,-1513.4,-0.00056514,-6145.5,0.0049021
2780,0.91848,4.5455,0,0.00055935,5589.7,0.00026048,4.2013,4.0385e-05,-1649.5,-0.00056867,-6225.7,0.0050208
2781,0.91848,4.3636,0,0.000564,5636.1,0.00026656,4.2508,3.2154e-05,-1757,-0.00057277,-6302.2,0.0051163
2782,0.91848,4.1818,0,0.00056865,5682.6,0.00027164,4.2906,2.6014e-05,-1841.3,-0.00057694,-6371.6,0.0051928
2783,0.91848,4,0,0.00057295,5725.6,0.00027582,4.3215,2.1458e-05,-1906.8,-0.00058086,-6432.4,0.0052536
2784,0.91848,3.8182,0,0.0005767,5763,0.00027916,4.3451,1.8109e-05,-1957.1,-0.0005843,-6483.4,0.0053012
2785,0.91848,3.6364,0,0.00057978,5793.8,0.00028176,4.3624,1.5695e-05,-1994.7,-0.00058715,-6524.3,0.0053374
2786,0.91848,3.4545,0,0.00058212,5817.2,0.00028365,4.3746,1.4028e-05,-2021.5,-0.00058933,-6554.9,0.0053634
2787,0.91848,3.2727,0,0.00058369,5832.9,0.00028489,4.3824,1.298e-05,-2038.7,-0.0005908,-6575.2,0.0053803
2788,0.91848,3.0909,0,0.00058448,5840.8,0.00028551,4.3862,1.2474e-05,-2047.1,-0.00059154,-6585.4,0.0053886
2789,0.91848,2.9091,0,0.00058448,5840.8,0.00028551,4.3862,1.2474e-05,-2047.1,-0.00059154,-6585.4,0.0053886
2790,0.91848,2.7273,0,0.00058369,5832.9,0.00028489,4.3824,1.298e-05,-2038.7,-0.0005908,-6575.2,0.0053803
2791,0.91848,2.5455,0,0.00058212,5817.2,0.00028365,4.3746,1.4028e-05,-2021.5,-0.00058933,-6554.9,0.0053634
2792,0.91848,2.3636,0,0.00057978,5793.8,0.00028176,4.3624,1.5695e-05,-1994.7,-0.00058715,-6524.3,0.0053374
2793,0.91848,2.1818,0,0.0005767,5763,0.00027916,4.3451,1.8109e-05,-1957.1,-0.0005843,-6483.4,0.0053012
2794,0.91848,2,0,0.00057295,5725.6,0.00027582,4.3216,2.1458e-05,-1906.8,-0.00058086,-6432.4,0.0052536
2795,0.91848,1.8182,0,0.00056865,5682.6,0.00027164,4.2906,2.6014e-05,-1841.3,-0.00057694,-6371.6,0.0051928
2796,0.91848,1.6364,0,0.000564,5636.1,0.00026656,4.2508,3.2154e-05,-1757,-0.00057277,-6302.2,0.0051163
2797,0.91848,1.4545,0,0.00055935,5589.7,0.00026048,4.2013,4.0385e-05,-1649.5,-0.00056867,-6225.7,0.0050208
2798,0.91848,1.2727,0,0.00055526,5548.8,0.00025333,4.1421,5.1365e-05,-1513.4,-0.00056514,-6145.5,0.0049021
2799,0.91848,1.0909,0,0.00055255,5521.7,0.00024506,4.0805,6.5866e-05,-1342.3,-0.00056286,-6066.3,0.0047543
2800,0.91848,0.90909,0,0.00055234,5519.6,0.00023572,4.0192,8.4648e-05,-1131.1,-0.00056268,-5994.9,0.00457
2801,0.91848,0.72727,0,0.00055588,5555,0.00022552,4.0225,0.00010814,-877.95,-0.00056547,-5939.2,0.0043392
2802,0.91848,0.54545,0,0.00056416,5637.7,0.00021494,3.9623,0.00013592,-589.81,-0.00057177,-5907.1,0.0040495
2803,0.91848,0.36364,0,0.00057746,5770.6,0.00020489,4.9324,0.00016636,-284.54,-0.00058167,-5905,0.0036856
2804,0.91848,0.18182,0,0.0005985,5980.8,0.00020263,52.949,0.00019367,-14.355,-0.00059781,-5961.2,0.0032306
2805,0.73478,5.8182,0,0.00058398,5835.8,0.00019964,72.129,0.00018758,-18.45,-0.00058302,-5808.4,0.0019274
2806,0.73478,5.6364,0,0.00056053,5601.4,0.00020101,-5.7404,0.00015674,-338.34,-0.00056564,-5766.1,0.0022826
2807,0.73478,5.4545,0,0.00054821,5478.3,0.000214,-10.627,0.00012115,-708.33,-0.0005571,-5804.4,0.0025562
2808,0.73478,5.2727,0,0.00054355,5431.7,0.00022737,-12.433,9.0766e-05,-1038.8,-0.0005541,-5884.1,0.0027666
2809,0.73478,5.0909,0,0.00054496,5445.8,0.00023974,-13.678,6.7159e-05,-1310.4,-0.00055577,-5990.8,0.0029293
2810,0.73478,4.9091,0,0.0005502,5498.2,0.00025062,-14.469,4.9781e-05,-1523.5,-0.00056059,-6109.6,0.0030562
2811,0.73478,4.7273,0,0.00055729,5569,0.00025992,-15.033,3.7304e-05,-1687.7,-0.00056707,-6228.7,0.003156
2812,0.73478,4.5455,0,0.0005649,5645.1,0.00026773,-15.445,2.8405e-05,-1813.6,-0.0005741,-6340.6,0.0032351
2813,0.73478,4.3636,0,0.00057225,5718.6,0.00027422,-15.76,2.2045e-05,-1910.5,-0.00058096,-6441.2,0.003298
2814,0.73478,4.1818,0,0.00057892,5785.2,0.00027955,-16.002,1.7475e-05,-1985.1,-0.00058724,-6528.7,0.0033479
2815,0.73478,4,0,0.00058469,5842.9,0.00028386,-16.19,1.4181e-05,-2042.5,-0.00059272,-6602.5,0.0033873
2816,0.73478,3.8182,0,0.0005895,5891,0.00028728,-16.334,1.1812e-05,-2086.1,-0.00059732,-6662.9,0.003418
2817,0.73478,3.6364,0,0.00059333,5929.2,0.00028991,-16.441,1.0132e-05,-2118.6,-0.00060099,-6710.3,0.0034412
2818,0.73478,3.4545,0,0.00059617,5957.6,0.00029181,-16.518,8.9862e-06,-2141.6,-0.00060372,-6745.2,0.0034579
2819,0.73478,3.2727,0,0.00059805,5976.4,0.00029306,-16.568,8.2719e-06,-2156.3,-0.00060554,-6768.3,0.0034687
2820,0.73478,3.0909,0,0.00059899,5985.7,0.00029367,-16.592,7.9289e-06,-2163.5,-0.00060644,-6779.7,0.003474
2821,0.73478,2.9091,0,0.00059899,5985.7,0.00029367,-16.592,7.9289e-06,-2163.5,-0.00060644,-6779.7,0.003474
2822,0.73478,2.7273,0,0.00059805,5976.4,0.00029306,-16.568,8.2719e-06,-2156.3,-0.00060554,-6768.3,0.0034687
2823,0.73478,2.5455,0,0.00059617,5957.6,0.00029181,-16.518,8.9862e-06,-2141.6,-0.00060372,-6745.2,0.0034579
2824,0.73478,2.3636,0,0.00059333,5929.2,0.00028991,-16.441,1.0132e-05,-2118.6,-0.00060099,-6710.3,0.0034412
2825,0.73478,2.1818,0,0.0005895,5891,0.00028728,-16.334,1.1812e-05,-2086.1,-0.00059732,-6662.9,0.003418
2826,0.73478,2,0,0.00058469,5842.9,0.00028386,-16.19,1.4181e-05,-2042.5,-0.00059272,-6602.5,0.0033873
2827,0.73478,1.8182,0,0.00057892,5785.2,0.00027955,-16.002,1.7475e-05,-1985.1,-0.00058724,-6528.7,0.0033479
2828,0.73478,1.6364,0,0.00057225,5718.6,0.00027422,-15.76,2.2045e-05,-1910.5,-0.00058096,-6441.2,0.003298
2829,0.73478,1.4545,0,0.0005649,5645.1,0.00026773,-15.445,2.8405e-05,-1813.6,-0.0005741,-6340.6,0.0032351
2830,0.73478,1.2727,0,0.00055729,5569,0.00025992,-15.033,3.7304e-05,-1687.7,-0.00056707,-6228.7,0.003156
2831,0.73478,1.0909,0,0.0005502,5498.2,0.00025062,-14.469,4.9781e-05,-1523.5,-0.00056059,-6109.6,0.0030562
2832,0.73478,0.90909,0,0.00054496,5445.8,0.00023974,-13.678,6.7159e-05,-1310.4,-0.00055577,-5990.8,0.0029293
2833,0.73478,0.72727,0,0.00054355,5431.7,0.00022737,-12.433,9.0766e-05,-1038.8,-0.0005541,-5884.1,0.0027666
2834,0.73478,0.54545,0,0.00054821,5478.3,0.000214,-10.627,0.00012115,-708.33,-0.0005571,-5804.4,0.0025562
2835,0.73478,0.36364,0,0.00056053,5601.4,0.00020101,-5.7404,0.00015674,-338.34,-0.00056564,-5766.1,0.0022826
2836,0.73478,0.18182,0,0.00058398,5835.8,0.00019964,72.129,0.00018758,-18.45,-0.00058302,-5808.4,0.0019274
2837,0.55109,5.8182,0,0.00055801,5576.2,0.00019284,103.89,0.00017891,-0.80313,-0.00055618,-5523.9,0.00098908
2838,0.55109,5.6364,0,0.00053515,5347.8,0.00019997,40.533,0.0001396,-413.06,-0.00054004,-5519.6,0.0012394
2839,0.55109,5.4545,0,0.00052891,5285.4,0.00021938,49.25,9.8142e-05,-861.72,-0.00053681,-5632.5,0.0014217
2840,0.55109,5.2727,0,0.00053333,5329.6,0.00023734,53.902,6.7137e-05,-1224.9,-0.00054161,-5798.8,0.0015554
2841,0.55109,5.0909,0,0.00054385,5434.7,0.00025276,57.141,4.6066e-05,-1495.9,-0.00055141,-5985,0.001655
2842,0.55109,4.9091,0,0.00055654,5561.5,0.00026554,59.529,3.2224e-05,-1693.6,-0.0005632,-6167.3,0.0017307
2843,0.55109,4.7273,0,0.00056917,5687.8,0.00027599,61.307,2.3128e-05,-1838.6,-0.00057507,-6333.2,0.0017891
2844,0.55109,4.5455,0,0.00058071,5803.1,0.00028448,62.659,1.7056e-05,-1946.7,-0.00058604,-6478.1,0.0018347
2845,0.55109,4.3636,0,0.0005908,5903.9,0.00029135,63.702,1.2922e-05,-2028.3,-0.00059571,-6601.3,0.0018706
2846,0.55109,4.1818,0,0.00059934,5989.3,0.00029688,64.509,1.0057e-05,-2090.5,-0.00060396,-6704.1,0.0018988
2847,0.55109,4,0,0.0006064,6059.8,0.00030129,65.135,8.0467e-06,-2138.2,-0.00061082,-6788.1,0.0019209
2848,0.55109,3.8182,0,0.00061208,6116.6,0.00030475,65.616,6.629e-06,-2174.3,-0.00061636,-6855.2,0.0019381
2849,0.55109,3.6364,0,0.00061649,6160.6,0.00030738,65.975,5.6385e-06,-2201.2,-0.00062066,-6907,0.001951
2850,0.55109,3.4545,0,0.00061971,6192.8,0.00030928,66.231,4.9693e-06,-2220.2,-0.00062382,-6944.7,0.0019603
2851,0.55109,3.2727,0,0.00062181,6213.8,0.00031051,66.396,4.5552e-06,-2232.4,-0.00062588,-6969.3,0.0019662
2852,0.55109,3.0909,0,0.00062285,6224.2,0.00031112,66.476,4.3571e-06,-2238.4,-0.00062691,-6981.5,0.0019692
2853,0.55109,2.9091,0,0.00062285,6224.2,0.00031112,66.476,4.3571e-06,-2238.4,-0.00062691,-6981.5,0.0019692
2854,0.55109,2.7273,0,0.00062181,6213.8,0.00031051,66.396,4.5552e-06,-2232.4,-0.00062588,-6969.3,0.0019662
2855,0.55109,2.5455,0,0.00061971,6192.8,0.00030928,66.231,4.9693e-06,-2220.2,-0.00062382,-6944.7,0.0019603
2856,0.55109,2.3636,0,0.00061649,6160.6,0.00030738,65.975,5.6385e-06,-2201.2,-0.00062066,-6907,0.001951
2857,0.55109,2.1818,0,0.00061208,6116.6,0.00030475,65.616,6.629e-06,-2174.3,-0.00061636,-6855.2,0.0019381
2858,0.55109,2,0,0.0006064,6059.8,0.00030129,65.135,8.0467e-06,-2138.2,-0.00061082,-6788.1,0.0019209
2859,0.55109,1.8182,0,0.00059934,5989.3,0.00029688,64.509,1.0057e-05,-2090.5,-0.00060396,-6704.1,0.0018988
2860,0.55109,1.6364,0,0.0005908,5903.9,0.00029135,63.702,1.2922e-05,-2028.3,-0.00059571,-6601.3,0.0018706
2861,0.55109,1.4545,0,0.00058071,5803.1,0.00028448,62.659,1.7056e-05,-1946.7,-0.00058604,-6478.1,0.0018347
2862,0.55109,1.2727,0,0.00056917,5687.8,0.00027599,61.307,2.3128e-05,-1838.6,-0.00057507,-6333.2,0.0017891
2863,0.55109,1.0909,0,0.00055654,5561.5,0.00026554,59.529,3.2224e-05,-1693.6,-0.0005632,-6167.3,0.0017307
2864,0.55109,0.90909,0,0.00054385,5434.7,0.00025276,57.141,4.6066e-05,-1495.9,-0.00055141,-5985,0.001655
2865,0.55109,0.72727,0,0.00053333,5329.6,0.00023734,53.902,6.7137e-05,-1224.9,-0.00054161,-5798.8,0.0015554
2866,0.55109,0.54545,0,0.00052891,5285.4,0.00021938,49.25,9.8142e-05,-861.72,-0.00053681,-5632.5,0.0014217
2867,0.55109,0.36364,0,0.00053515,5347.8,0.00019997,40.533,0.0001396,-413.06,-0.00054004,-5519.6,0.0012394
2868,0.55109,0.18182,0,0.00055801,5576.2,0.00019284,103.89,0.00017891,-0.80315,-0.00055618,-5523.9,0.00098908
2869,0.36739,5.8182,0,0.00050384,5034.9,0.00017796,92.382,0.00015478,-81.824,-0.00050343,-5027.4,0.00039037
2870,0.36739,5.6364,0,0.00047841,4780.8,0.00017838,-137.98,0.00010876,-661.05,-0.00048985,-5158.8,0.00053448
2871,0.36739,5.4545,0,0.00048391,4835.8,0.000202,-183.84,6.4071e-05,-1220.2,-0.00049939,-5453.8,0.00063085
2872,0.36739,5.2727,0,0.00050299,5026.5,0.0002228,-207,3.8323e-05,-1593.1,-0.00051906,-5781.1,0.00069711
2873,0.36739,5.0909,0,0.00052446,5241,0.0002394,-221.91,2.3945e-05,-1840.8,-0.00054044,-6081.3,0.00074447
2874,0.36739,4.9091,0,0.00054421,5438.3,0.00025241,-232.38,1.5753e-05,-2010.5,-0.00056009,-6337.2,0.00077947
2875,0.36739,4.7273,0,0.00056113,5607.4,0.00026264,-240.03,1.0848e-05,-2131.9,-0.00057699,-6548.7,0.00080597
2876,0.36739,4.5455,0,0.00057521,5748.1,0.00027071,-245.79,7.7759e-06,-2221.4,-0.00059111,-6721.2,0.00082638
2877,0.36739,4.3636,0,0.00058675,5863.5,0.00027712,-250.21,5.7732e-06,-2289,-0.00060271,-6860.9,0.00084227
2878,0.36739,4.1818,0,0.00059611,5957,0.00028219,-253.62,4.4269e-06,-2340.7,-0.00061215,-6973.3,0.0008547
2879,0.36739,4,0,0.00060361,6031.9,0.0002862,-256.26,3.5023e-06,-2380.3,-0.00061971,-7062.9,0.0008644
2880,0.36739,3.8182,0,0.0006095,6090.8,0.00028931,-258.29,2.8605e-06,-2410.5,-0.00062566,-7133,0.00087188
2881,0.36739,3.6364,0,0.00061399,6135.7,0.00029166,-259.8,2.417e-06,-2433.1,-0.0006302,-7186.3,0.00087749
2882,0.36739,3.4545,0,0.00061723,6168.1,0.00029335,-260.87,2.1199e-06,-2449.1,-0.00063348,-7224.7,0.00088151
2883,0.36739,3.2727,0,0.00061934,6189.1,0.00029444,-261.57,1.9369e-06,-2459.3,-0.00063561,-7249.6,0.0008841
2884,0.36739,3.0909,0,0.00062037,6199.4,0.00029498,-261.9,1.8496e-06,-2464.4,-0.00063666,-7261.9,0.00088537
2885,0.36739,2.9091,0,0.00062037,6199.4,0.00029498,-261.9,1.8496e-06,-2464.4,-0.00063666,-7261.9,0.00088537
2886,0.36739,2.7273,0,0.00061934,6189.1,0.00029444,-261.57,1.9369e-06,-2459.3,-0.00063561,-7249.6,0.0008841
2887,0.36739,2.5455,0,0.00061723,6168.1,0.00029335,-260.87,2.1199e-06,-2449.1,-0.00063348,-7224.7,0.00088151
2888,0.36739,2.3636,0,0.00061399,6135.7,0.00029166,-259.8,2.417e-06,-2433.1,-0.0006302,-7186.3,0.00087749
2889,0.36739,2.1818,0,0.0006095,6090.8,0.00028931,-258.29,2.8605e-06,-2410.5,-0.00062566,-7133,0.00087188
2890,0.36739,2,0,0.00060361,6031.9,0.0002862,-256.26,3.5023e-06,-2380.3,-0.00061971,-7062.9,0.0008644
2891,0.36739,1.8182,0,0.00059611,5957,0.00028219,-253.62,4.4269e-06,-2340.7,-0.00061215,-6973.3,0.0008547
2892,0.36739,1.6364,0,0.00058675,5863.5,0.00027712,-250.21,5.7732e-06,-2289,-0.00060271,-6860.9,0.00084227
2893,0.36739,1.4545,0,0.00057521,5748.1,0.00027071,-245.79,7.7758e-06,-2221.4,-0.00059111,-6721.2,0.00082638
2894,0.36739,1.2727,0,0.00056113,5607.4,0.00026264,-240.03,1.0848e-05,-2131.9,-0.00057699,-6548.7,0.00080597
2895,0.36739,1.0909,0,0.00054421,5438.3,0.00025241,-232.38,1.5753e-05,-2010.5,-0.00056009,-6337.2,0.00077947
2896,0.36739,0.90909,0,0.00052446,5241,0.0002394,-221.91,2.3945e-05,-1840.8,-0.00054044,-6081.3,0.00074447
2897,0.36739,0.72727,0,0.00050299,5026.5,0.0002228,-207,3.8323e-05,-1593.1,-0.00051906,-5781.1,0.00069711
2898,0.36739,0.54545,0,0.00048391,4835.8,0.000202,-183.84,6.4071e-05,-1220.2,-0.00049939,-5453.8,0.00063085
2899,0.36739,0.36364,0,0.00047841,4780.8,0.00017838,-137.98,0.00010876,-661.05,-0.00048985,-5158.8,0.00053448
2900,0.36739,0.18182,0,0.00050384,5034.9,0.00017796,92.382,0.00015478,-81.824,-0.00050343,-5027.4,0.00039037
2901,0.1837,5.8182,0,0.00040563,4053.5,0.00015985,314.4,0.00011795,-0.3805,-0.00039937,-3887.3,8.8274e-05
2902,0.1837,5.6364,0,0.00045578,4554.6,0.00023647,610.67,4.5774e-05,-822.12,-0.00044214,-4488.1,0.00013888
2903,0.1837,5.4545,0,0.00052248,5221.2,0.00028707,743.45,2.0703e-05,-1258,-0.00050161,-5182.4,0.00016833
2904,0.1837,5.2727,0,0.00057461,5742.2,0.0003214,828.94,1.0436e-05,-1507.5,-0.0005493,-5713.1,0.000187
2905,0.1837,5.0909,0,0.00061366,6132.4,0.00034525,883.78,6.0598e-06,-1664.7,-0.00058583,-6111.9,0.00019983
2906,0.1837,4.9091,0,0.00064311,6426.6,0.00036271,923.38,3.8174e-06,-1773.2,-0.0006136,-6412.2,0.00020909
2907,0.1837,4.7273,0,0.00066562,6651.6,0.00037581,952.46,2.5721e-06,-1851.9,-0.00063497,-6642.1,0.000216
2908,0.1837,4.5455,0,0.00068307,6826,0.00038585,974.53,1.8198e-06,-1910.9,-0.00065158,-6820.4,0.00022128
2909,0.1837,4.3636,0,0.00069671,6962.3,0.00039364,991.5,1.3413e-06,-1956.1,-0.0006646,-6959.7,0.00022536
2910,0.1837,4.1818,0,0.0007074,7069.1,0.00039972,1004.7,1.0242e-06,-1991,-0.00067482,-7069.1,0.00022853
2911,0.1837,4,0,0.00071576,7152.6,0.00040446,1014.8,8.0841e-07,-2018,-0.00068282,-7154.5,0.00023099
2912,0.1837,3.8182,0,0.00072221,7217.1,0.0004081,1022.7,6.5954e-07,-2038.7,-0.000689,-7220.5,0.00023289
2913,0.1837,3.6364,0,0.00072706,7265.6,0.00041084,1028.5,5.5708e-07,-2054.2,-0.00069365,-7270.2,0.00023431
2914,0.1837,3.4545,0,0.00073053,7300.3,0.00041279,1032.7,4.8857e-07,-2065.2,-0.00069698,-7305.7,0.00023532
2915,0.1837,3.2727,0,0.00073277,7322.7,0.00041405,1035.4,4.4646e-07,-2072.3,-0.00069913,-7328.6,0.00023597
2916,0.1837,3.0909,0,0.00073387,7333.6,0.00041467,1036.7,4.2639e-07,-2075.8,-0.00070018,-7339.9,0.00023629
2917,0.1837,2.9091,0,0.00073387,7333.6,0.00041467,1036.7,4.2639e-07,-2075.8,-0.00070018,-7339.9,0.00023629
2918,0.1837,2.7273,0,0.00073277,7322.7,0.00041405,1035.4,4.4646e-07,-2072.3,-0.00069913,-7328.6,0.00023597
2919,0.1837,2.5455,0,0.00073053,7300.3,0.00041279,1032.7,4.8857e-07,-2065.2,-0.00069698,-7305.7,0.00023532
2920,0.1837,2.3636,0,0.00072706,7265.6,0.00041084,1028.5,5.5708e-07,-2054.2,-0.00069365,-7270.2,0.00023431
2921,0.1837,2.1818,0,0.00072221,7217.1,0.0004081,1022.7,6.5954e-07,-2038.7,-0.000689,-7220.5,0.00023289
2922,0.1837,2,0,0.00071576,7152.6,0.00040446,1014.8,8.0841e-07,-2018,-0.00068282,-7154.5,0.00023099
2923,0.1837,1.8182,0,0.0007074,7069.1,0.00039972,1004.7,1.0242e-06,-1991,-0.00067482,-7069.1,0.00022853
2924,0.1837,1.6364,0,0.00069671,6962.3,0.00039364,991.5,1.3413e-06,-1956.1,-0.0006646,-6959.7,0.00022536
2925,0.1837,1.4545,0,0.00068307,6826,0.00038585,974.53,1.8198e-06,-1910.9,-0.00065158,-6820.4,0.00022128
2926,0.1837,1.2727,0,0.00066562,6651.6,0.00037581,952.46,2.5721e-06,-1851.9,-0.00063497,-6642.1,0.000216
2927,0.1837,1.0909,0,0.00064311,6426.6,0.00036271,923.38,3.8174e-06,-1773.2,-0.0006136,-6412.2,0.00020909
2928,0.1837,0.90909,0,0.00061366,6132.4,0.00034525,883.78,6.0598e-06,-1664.7,-0.00058583,-6111.9,0.00019983
2929,0.1837,0.72727,0,0.00057461,5742.2,0.0003214,828.94,1.0436e-05,-1507.5,-0.0005493,-5713.1,0.000187
2930,0.1837,0.54545,0,0.00052248,5221.2,0.00028707,743.45,2.0703e-05,-1258,-0.00050161,-5182.4,0.00016833
2931,0.1837,0.36364,0,0.00045578,4554.6,0.00023647,610.67,4.5774e-05,-822.12,-0.00044214,-4488.1,0.00013888
2932,0.1837,0.18182,0,0.00040563,4053.5,0.00015985,314.4,0.00011795,-0.38063,-0.00039937,-3887.3,8.8274e-05
2933,17.249,0.18182,0,2.6852e-05,268.34,1.255e-05,40.318,6.0249e-06,-8.7074,-2.5976e-05,-249.15,1.3387
2934,17.249,0.36364,0,3.9216e-05,391.89,1.9311e-05,76.049,8.5944e-06,-4.4679,-3.7373e-05,-349.85,1.3391
2935,17.249,0.54545,0,5.4833e-05,547.95,2.9134e-05,135.38,1.0665e-05,-3.3949,-5.1252e-05,-468.62,1.3395
2936,17.249,0.72727,0,7.2494e-05,724.44,4.0545e-05,206.24,1.2693e-05,-3.0262,-6.6731e-05,-599.79,1.3399
2937,17.249,0.90909,0,9.2823e-05,927.59,5.373e-05,288.45,1.4931e-05,-3.0631,-8.4464e-05,-749.88,1.3403
2938,17.249,1.0909,0,0.00011706,1169.8,6.9357e-05,385.03,1.7603e-05,-3.8323,-0.00010562,-929.7,1.3407
2939,17.249,1.2727,0,0.00014738,1472.8,8.8605e-05,502.6,2.1236e-05,-3.5795,-0.00013221,-1156.5,1.3412
2940,17.249,1.4545,0,0.00018738,1872.6,0.00011328,644.51,2.6183e-05,-9.9164,-0.0001678,-1467.4,1.3416
2941,17.249,1.6364,0,0.00024626,2460.9,0.00014856,850.76,3.5548e-05,1.6355,-0.00022051,-1922.3,1.3421
2942,17.249,1.8182,0,0.00033485,3346.2,0.00018609,910.13,5.6642e-05,-62.456,-0.00030965,-2814.6,1.3426
2943,17.249,2,0,0.0004172,4169.1,0.0001924,550.81,9.1051e-05,-210.71,-0.00040616,-3946.6,1.343
2944,17.249,2.1818,0,0.00042302,4227.2,0.0001645,288.73,0.00012322,-21.406,-0.00041761,-4085,1.3435
2945,17.249,2.3636,0,0.00040136,4010.8,0.00016013,331,0.00011505,-7.7296,-0.00039479,-3838.5,1.3439
2946,17.249,2.5455,0,0.00037171,3714.6,0.00014868,316.2,0.0001068,1.5861,-0.00036531,-3545.7,1.3441
2947,17.249,2.7273,0,0.00035429,3540.5,0.00014248,309.34,0.00010116,-1.1928,-0.00034802,-3376.2,1.3443
2948,17.249,2.9091,0,0.00034603,3457.9,0.00013928,304.16,9.8783e-05,-0.094474,-0.00033985,-3295.8,1.3444
2949,17.249,3.0909,0,0.00034603,3457.9,0.00013928,304.16,9.8783e-05,-0.094474,-0.00033985,-3295.8,1.3444
2950,17.249,3.2727,0,0.00035429,3540.5,0.00014248,309.34,0.00010116,-1.1928,-0.00034802,-3376.2,1.3443
2951,17.249,3.4545,0,0.00037171,3714.6,0.00014868,316.2,0.0001068,1.5861,-0.00036531,-3545.7,1.3441
2952,17.249,3.6364,0,0.00040136,4010.8,0.00016013,331,0.00011505,-7.7296,-0.00039479,-3838.5,1.3439
2953,17.249,3.8182,0,0.00042302,4227.2,0.0001645,288.73,0.00012322,-21.406,-0.00041761,-4085,1.3435
2954,17.249,4,0,0.0004172,4169.1,0.0001924,550.81,9.1051e-05,-210.71,-0.00040616,-3946.6,1.343
2955,17.249,4.1818,0,0.00033485,3346.2,0.00018609,910.13,5.6642e-05,-62.456,-0.00030965,-2814.6,1.3426
2956,17.249,4.3636,0,0.00024626,2460.9,0.00014856,850.76,3.5548e-05,1.6355,-0.00022051,-1922.3,1.3421
2957,17.249,4.5455,0,0.00018738,1872.6,0.00011328,644.51,2.6183e-05,-9.9164,-0.0001678,-1467.4,1.3416
2958,17.249,4.7273,0,0.00014738,1472.8,8.8605e-05,502.6,2.1236e-05,-3.5795,-0.00013221,-1156.5,1.3412
2959,17.249,4.9091,0,0.00011706,1169.8,6.9357e-05,385.03,1.7603e-05,-3.8323,-0.00010562,-929.7,1.3407
2960,17.249,5.0909,0,9.2823e-05,927.59,5.373e-05,288.45,1.4931e-05,-3.0631,-8.4464e-05,-749.88,1.3403
2961,17.249,5.2727,0,7.2494e-05,724.44,4.0545e-05,206.24,1.2693e-05,-3.0262,-6.6731e-05,-599.79,1.3399
2962,17.249,5.4545,0,5.4833e-05,547.95,2.9134e-05,135.38,1.0665e-05,-3.3949,-5.1252e-05,-468.62,1.3395
2963,17.249,5.6364,0,3.9216e-05,391.89,1.9311e-05,76.049,8.5944e-06,-4.4679,-3.7373e-05,-349.85,1.3391
2964,17.249,5.8182,0,2.6852e-05,268.34,1.255e-05,40.318,6.0249e-06,-8.7074,-2.5976e-05,-249.15,1.3387
2965,17.432,0.18182,0,3.9494e-05,394.67,1.5696e-05,30.281,1.1214e-05,-3.3881,-3.8929e-05,-380.15,1.3642
2966,17.432,0.36364,0,4.564e-05,456.08,1.8324e-05,37.885,1.2899e-05,-2.8782,-4.4907e-05,-437.21,1.3646
2967,17.432,0.54545,0,5.6567e-05,565.28,2.4482e-05,69.878,1.4942e-05,-1.8035,-5.5067e-05,-527.82,1.3649
2968,17.432,0.72727,0,7.0521e-05,704.73,3.2684e-05,114.78,1.725e-05,-1.1777,-6.7869e-05,-640.73,1.3653
2969,17.432,0.90909,0,8.7251e-05,871.91,4.2422e-05,167.39,2.0014e-05,-0.97078,-8.3191e-05,-776.42,1.3657
2970,17.432,1.0909,0,0.0001072,1071.2,5.363e-05,225.06,2.3558e-05,-0.88741,-0.00010158,-941.14,1.3661
2971,17.432,1.2727,0,0.00013137,1312.8,6.6454e-05,285.15,2.8355e-05,-1.1089,-0.00012417,-1147.1,1.3665
2972,17.432,1.4545,0,0.00016072,1606.1,8.0277e-05,335.52,3.5384e-05,-1.7835,-0.00015236,-1412.4,1.3668
2973,17.432,1.6364,0,0.00019646,1963.2,9.3461e-05,351.39,4.6541e-05,-1.1503,-0.00018811,-1764.2,1.3672
2974,17.432,1.8182,0,0.0002385,2383.4,0.00010306,297.45,6.3587e-05,0.87883,-0.00023204,-2220.3,1.3676
2975,17.432,2,0,0.00027481,2746.2,9.9504e-05,124.35,8.7077e-05,30.976,-0.00027205,-2667.4,1.368
2976,17.432,2.1818,0,0.0003073,3070.9,0.00010739,78.018,9.8396e-05,10.427,-0.00030574,-3026.1,1.3683
2977,17.432,2.3636,0,0.00031895,3187.3,0.00011505,114.15,9.9013e-05,-6.3262,-0.00031694,-3131.7,1.3686
2978,17.432,2.5455,0,0.00031855,3183.3,0.0001179,153.7,9.738e-05,-0.44,-0.00031567,-3103.9,1.3688
2979,17.432,2.7273,0,0.00031417,3139.5,0.00011787,171.22,9.5069e-05,-0.10994,-0.00031091,-3050.5,1.3689
2980,17.432,2.9091,0,0.00031133,3111.1,0.00011755,178.85,9.3754e-05,0.03767,-0.0003079,-3017.8,1.369
2981,17.432,3.0909,0,0.00031133,3111.1,0.00011755,178.85,9.3754e-05,0.037668,-0.0003079,-3017.8,1.369
2982,17.432,3.2727,0,0.00031417,3139.5,0.00011787,171.22,9.5069e-05,-0.10994,-0.00031091,-3050.5,1.3689
2983,17.432,3.4545,0,0.00031855,3183.3,0.0001179,153.7,9.738e-05,-0.44,-0.00031567,-3103.9,1.3688
2984,17.432,3.6364,0,0.00031895,3187.3,0.00011505,114.15,9.9013e-05,-6.3262,-0.00031694,-3131.7,1.3686
2985,17.432,3.8182,0,0.0003073,3070.9,0.00010739,78.018,9.8396e-05,10.427,-0.00030574,-3026.1,1.3683
2986,17.432,4,0,0.00027481,2746.2,9.9504e-05,124.35,8.7077e-05,30.976,-0.00027205,-2667.4,1.368
2987,17.432,4.1818,0,0.0002385,2383.4,0.00010306,297.45,6.3587e-05,0.87884,-0.00023204,-2220.3,1.3676
2988,17.432,4.3636,0,0.00019646,1963.2,9.3461e-05,351.39,4.6541e-05,-1.1503,-0.00018811,-1764.2,1.3672
2989,17.432,4.5455,0,0.00016072,1606.1,8.0277e-05,335.53,3.5384e-05,-1.7835,-0.00015236,-1412.4,1.3668
2990,17.432,4.7273,0,0.00013137,1312.8,6.6454e-05,285.15,2.8355e-05,-1.1088,-0.00012417,-1147.1,1.3665
2991,17.432,4.9091,0,0.0001072,1071.2,5.363e-05,225.06,2.3558e-05,-0.8874,-0.00010158,-941.14,1.3661
2992,17.432,5.0909,0,8.7251e-05,871.91,4.2422e-05,167.39,2.0014e-05,-0.97078,-8.3191e-05,-776.42,1.3657
2993,17.432,5.2727,0,7.0521e-05,704.73,3.2684e-05,114.79,1.725e-05,-1.1777,-6.7869e-05,-640.73,1.3653
2994,17.432,5.4545,0,5.6567e-05,565.28,2.4482e-05,69.879,1.4942e-05,-1.8035,-5.5067e-05,-527.82,1.3649
2995,17.432,5.6364,0,4.564e-05,456.08,1.8324e-05,37.885,1.2899e-05,-2.8782,-4.4907e-05,-437.21,1.3646
2996,17.432,5.8182,0,3.9494e-05,394.67,1.5696e-05,30.281,1.1214e-05,-3.3881,-3.8929e-05,-380.15,1.3642
2997,17.614,0.18182,0,5.2538e-05,525.02,2.0012e-05,31.271,1.5616e-05,-1.7552,-5.1958e-05,-509.48,1.3897
2998,17.614,0.36364,0,5.652e-05,564.81,2.1362e-05,31.451,1.6888e-05,-2.1605,-5.5947e-05,-549.41,1.3901
2999,17.614,0.54545,0,6.444e-05,643.95,2.5264e-05,47.233,1.8712e-05,-1.9988,-6.3529e-05,-619.92,1.3904
3000,17.614,0.72727,0,7.5387e-05,753.35,3.0924e-05,72.408,2.1055e-05,-1.7396,-7.391e-05,-715.27,1.3908
3001,17.614,0.90909,0,8.9042e-05,889.81,3.7866e-05,102.34,2.4025e-05,-1.6634,-8.6872e-05,-834.9,1.3911
3002,17.614,1.0909,0,0.00010538,1053.1,4.5705e-05,132.23,2.7862e-05,-1.8298,-0.00010252,-981.5,1.3915
3003,17.614,1.2727,0,0.00012453,1244.4,5.3932e-05,155.35,3.2974e-05,-2.1212,-0.00012117,-1160.3,1.3918
3004,17.614,1.4545,0,0.00014658,1464.8,6.1773e-05,161.61,3.9926e-05,-2.5418,-0.00014318,-1378.4,1.3921
3005,17.614,1.6364,0,0.00017056,1704.4,6.7556e-05,133.27,4.9077e-05,-5.5785,-0.00016796,-1636.3,1.3924
3006,17.614,1.8182,0,0.00019577,1956.4,7.0307e-05,65.08,6.0851e-05,-5.9685,-0.00019467,-1925.9,1.3927
3007,17.614,2,0,0.00022114,2209.9,7.3964e-05,1.2143,7.1418e-05,-17.914,-0.00022142,-2218.2,1.393
3008,17.614,2.1818,0,0.0002439,2437.3,8.2257e-05,-2.4568,7.7257e-05,-40.024,-0.0002446,-2458.3,1.3933
3009,17.614,2.3636,0,0.00026069,2605.1,8.7615e-05,6.6559,8.395e-05,-20.879,-0.00026092,-2612.1,1.3935
3010,17.614,2.5455,0,0.00026911,2689.3,9.0831e-05,22.491,8.7441e-05,-2.9817,-0.00026877,-2679.4,1.3937
3011,17.614,2.7273,0,0.00027239,2722,9.3677e-05,45.403,8.7625e-05,-0.072268,-0.00027159,-2699.1,1.3938
3012,17.614,2.9091,0,0.0002733,2731.1,9.4946e-05,57.336,8.7369e-05,0.40812,-0.00027228,-2701.8,1.3938
3013,17.614,3.0909,0,0.0002733,2731.1,9.4946e-05,57.336,8.7369e-05,0.40812,-0.00027228,-2701.8,1.3938
3014,17.614,3.2727,0,0.00027239,2722,9.3677e-05,45.403,8.7625e-05,-0.072264,-0.00027159,-2699.1,1.3938
3015,17.614,3.4545,0,0.00026911,2689.3,9.0831e-05,22.491,8.7441e-05,-2.9817,-0.00026877,-2679.4,1.3937
3016,17.614,3.6364,0,0.00026069,2605.1,8.7615e-05,6.6558,8.395e-05,-20.879,-0.00026092,-2612.1,1.3935
3017,17.614,3.8182,0,0.0002439,2437.3,8.2257e-05,-2.4568,7.7257e-05,-40.024,-0.0002446,-2458.3,1.3933
3018,17.614,4,0,0.00022114,2209.9,7.3964e-05,1.2144,7.1418e-05,-17.914,-0.00022142,-2218.2,1.393
3019,17.614,4.1818,0,0.00019577,1956.4,7.0307e-05,65.08,6.0851e-05,-5.9685,-0.00019467,-1925.9,1.3927
3020,17.614,4.3636,0,0.00017056,1704.4,6.7556e-05,133.27,4.9077e-05,-5.5785,-0.00016796,-1636.3,1.3924
3021,17.614,4.5455,0,0.00014658,1464.8,6.1773e-05,161.61,3.9926e-05,-2.5418,-0.00014318,-1378.4,1.3921
3022,17.614,4.7273,0,0.00012453,1244.4,5.3932e-05,155.35,3.2974e-05,-2.1212,-0.00012117,-1160.3,1.3918
3023,17.614,4.9091,0,0.00010538,1053.1,4.5705e-05,132.23,2.7862e-05,-1.8298,-0.00010252,-981.5,1.3915
3024,17.614,5.0909,0,8.9042e-05,889.81,3.7867e-05,102.34,2.4025e-05,-1.6634,-8.6872e-05,-834.9,1.3911
3025,17.614,5.2727,0,7.5387e-05,753.35,3.0924e-05,72.408,2.1055e-05,-1.7396,-7.391e-05,-715.27,1.3908
3026,17.614,5.4545,0,6.444e-05,643.95,2.5264e-05,47.233,1.8712e-05,-1.9988,-6.3529e-05,-619.92,1.3904
3027,17.614,5.6364,0,5.652e-05,564.81,2.1362e-05,31.451,1.6888e-05,-2.1605,-5.5947e-05,-549.41,1.3901
3028,17.614,5.8182,0,5.2538e-05,525.02,2.0012e-05,31.271,1.5616e-05,-1.7552,-5.1958e-05,-509.48,1.3897
3029,17.796,0.18182,0,6.3783e-05,637.39,2.3748e-05,32.121,1.9375e-05,-0.73908,-6.3186e-05,-621.06,1.4152
3030,17.796,0.36364,0,6.6883e-05,668.37,2.4696e-05,30.963,2.0422e-05,-1.1529,-6.6318e-05,-652.88,1.4156
3031,17.796,0.54545,0,7.2931e-05,728.8,2.7273e-05,37.838,2.2047e-05,-1.4304,-7.2232e-05,-709.81,1.4159
3032,17.796,0.72727,0,8.1448e-05,813.92,3.1011e-05,49.024,2.4284e-05,-1.5183,-8.0522e-05,-788.99,1.4163
3033,17.796,0.90909,0,9.2248e-05,921.84,3.5611e-05,61.555,2.7204e-05,-1.6124,-9.1066e-05,-890.25,1.4166
3034,17.796,1.0909,0,0.00010515,1050.8,4.0676e-05,71.2,3.096e-05,-1.8047,-0.00010378,-1014.2,1.4169
3035,17.796,1.2727,0,0.00011995,1198.6,4.5681e-05,72.332,3.5752e-05,-2.2675,-0.00011858,-1161.9,1.4172
3036,17.796,1.4545,0,0.00013628,1361.8,4.9994e-05,58.561,4.1759e-05,-3.3091,-0.00013523,-1333.2,1.4175
3037,17.796,1.6364,0,0.00015367,1535.6,5.3304e-05,27.18,4.8794e-05,-6.7039,-0.00015329,-1525.1,1.4177
3038,17.796,1.8182,0,0.00017146,1713.4,5.8674e-05,4.1299,5.3396e-05,-35.525,-0.00017196,-1728.7,1.418
3039,17.796,2,0,0.0001894,1892.7,6.6577e-05,2.2708,5.5721e-05,-79.3,-0.00019058,-1929.9,1.4182
3040,17.796,2.1818,0,0.00020625,2061.1,7.3095e-05,1.8161,5.9577e-05,-99.752,-0.00020773,-2108.2,1.4184
3041,17.796,2.3636,0,0.00022014,2199.9,7.7238e-05,0.67373,6.483e-05,-92.556,-0.00022155,-2244.3,1.4186
3042,17.796,2.5455,0,0.00022989,2297.3,7.9449e-05,1.0133,6.9829e-05,-71.269,-0.000231,-2331.6,1.4187
3043,17.796,2.7273,0,0.00023552,2353.6,8.0317e-05,0.84422,7.3383e-05,-51.259,-0.00023634,-2378.4,1.4188
3044,17.796,2.9091,0,0.000238,2378.3,8.0567e-05,0.60373,7.5151e-05,-40.09,-0.00023864,-2397.8,1.4188
3045,17.796,3.0909,0,0.000238,2378.3,8.0567e-05,0.60373,7.5151e-05,-40.09,-0.00023864,-2397.8,1.4188
3046,17.796,3.2727,0,0.00023552,2353.6,8.0317e-05,0.84422,7.3383e-05,-51.259,-0.00023634,-2378.4,1.4188
3047,17.796,3.4545,0,0.00022989,2297.3,7.9449e-05,1.0133,6.9829e-05,-71.269,-0.000231,-2331.6,1.4187
3048,17.796,3.6364,0,0.00022014,2199.9,7.7238e-05,0.67373,6.483e-05,-92.555,-0.00022155,-2244.3,1.4186
3049,17.796,3.8182,0,0.00020625,2061.1,7.3095e-05,1.8161,5.9577e-05,-99.752,-0.00020773,-2108.2,1.4184
3050,17.796,4,0,0.0001894,1892.7,6.6577e-05,2.2708,5.5721e-05,-79.299,-0.00019058,-1929.9,1.4182
3051,17.796,4.1818,0,0.00017146,1713.4,5.8674e-05,4.1299,5.3396e-05,-35.525,-0.00017196,-1728.7,1.418
3052,17.796,4.3636,0,0.00015367,1535.6,5.3304e-05,27.181,4.8794e-05,-6.7039,-0.00015329,-1525.1,1.4177
3053,17.796,4.5455,0,0.00013628,1361.8,4.9994e-05,58.562,4.1759e-05,-3.3091,-0.00013523,-1333.2,1.4175
3054,17.796,4.7273,0,0.00011995,1198.6,4.5681e-05,72.332,3.5752e-05,-2.2675,-0.00011858,-1161.9,1.4172
3055,17.796,4.9091,0,0.00010515,1050.8,4.0676e-05,71.201,3.096e-05,-1.8047,-0.00010378,-1014.2,1.4169
3056,17.796,5.0909,0,9.2248e-05,921.84,3.5611e-05,61.555,2.7204e-05,-1.6123,-9.1066e-05,-890.25,1.4166
3057,17.796,5.2727,0,8.1448e-05,813.92,3.1011e-05,49.024,2.4284e-05,-1.5183,-8.0522e-05,-788.99,1.4163
3058,17.796,5.4545,0,7.2931e-05,728.8,2.7273e-05,37.838,2.2047e-05,-1.4304,-7.2232e-05,-709.81,1.4159
3059,17.796,5.6364,0,6.6883e-05,668.37,2.4696e-05,30.963,2.0422e-05,-1.1529,-6.6318e-05,-652.88,1.4156
3060,17.796,5.8182,0,6.3783e-05,637.39,2.3748e-05,32.121,1.9375e-05,-0.73908,-6.3186e-05,-621.06,1.4152
3061,17.979,0.18182,0,7.2956e-05,729.06,2.6698e-05,31.384,2.2475e-05,-0.34887,-7.2376e-05,-713.02,1.4408
3062,17.979,0.36364,0,7.5566e-05,755.14,2.7515e-05,30.636,2.3346e-05,-0.68931,-7.5008e-05,-739.68,1.4412
3063,17.979,0.54545,0,8.0348e-05,802.93,2.9274e-05,32.622,2.4795e-05,-1.0331,-7.9758e-05,-786.61,1.4415
3064,17.979,0.72727,0,8.6985e-05,869.25,3.1672e-05,34.918,2.6842e-05,-1.3712,-8.6357e-05,-851.9,1.4418
3065,17.979,0.90909,0,9.5372e-05,953.06,3.4538e-05,35.86,2.953e-05,-1.7654,-9.4736e-05,-935.46,1.4421
3066,17.979,1.0909,0,0.00010532,1052.5,3.7599e-05,32.749,3.2918e-05,-2.4214,-0.00010476,-1036.9,1.4424
3067,17.979,1.2727,0,0.00011657,1164.9,4.0567e-05,22.758,3.699e-05,-4.1117,-0.00011623,-1155.4,1.4426
3068,17.979,1.4545,0,0.00012877,1286.8,4.379e-05,8.1821,4.1045e-05,-12.441,-0.00012883,-1288.8,1.4429
3069,17.979,1.6364,0,0.00014154,1414.4,4.8925e-05,2.2856,4.3131e-05,-41.244,-0.00014215,-1433.4,1.4431
3070,17.979,1.8182,0,0.00015462,1545.1,5.5033e-05,0.95005,4.4207e-05,-80.391,-0.00015581,-1583.2,1.4433
3071,17.979,2,0,0.00016771,1675.9,6.097e-05,0.27286,4.5613e-05,-115.11,-0.00016936,-1730.4,1.4435
3072,17.979,2.1818,0,0.00018024,1801.2,6.6022e-05,0.16867,4.8124e-05,-134.31,-0.00018215,-1864.5,1.4436
3073,17.979,2.3636,0,0.00019123,1911,6.9761e-05,0.51283,5.16e-05,-135.94,-0.00019317,-1975,1.4438
3074,17.979,2.5455,0,0.0001997,1995.6,7.2123e-05,0.58107,5.519e-05,-126.65,-0.00020154,-2055.6,1.4439
3075,17.979,2.7273,0,0.00020526,2051.2,7.3413e-05,0.56814,5.7998e-05,-115.25,-0.00020697,-2106.1,1.444
3076,17.979,2.9091,0,0.00020797,2078.2,7.3961e-05,0.55148,5.9495e-05,-108.14,-0.00020958,-2129.9,1.444
3077,17.979,3.0909,0,0.00020797,2078.2,7.3961e-05,0.55148,5.9495e-05,-108.14,-0.00020958,-2129.9,1.444
3078,17.979,3.2727,0,0.00020526,2051.2,7.3413e-05,0.56814,5.7998e-05,-115.25,-0.00020697,-2106.1,1.444
3079,17.979,3.4545,0,0.0001997,1995.6,7.2123e-05,0.58107,5.519e-05,-126.65,-0.00020154,-2055.6,1.4439
3080,17.979,3.6364,0,0.00019123,1911,6.9761e-05,0.51283,5.16e-05,-135.94,-0.00019317,-1975,1.4438
3081,17.979,3.8182,0,0.00018024,1801.2,6.6022e-05,0.16867,4.8124e-05,-134.31,-0.00018215,-1864.5,1.4436
3082,17.979,4,0,0.00016771,1675.9,6.097e-05,0.27286,4.5613e-05,-115.11,-0.00016936,-1730.4,1.4435
3083,17.979,4.1818,0,0.00015462,1545.1,5.5033e-05,0.95006,4.4207e-05,-80.39,-0.00015581,-1583.2,1.4433
3084,17.979,4.3636,0,0.00014154,1414.4,4.8925e-05,2.2856,4.3131e-05,-41.244,-0.00014215,-1433.4,1.4431
3085,17.979,4.5455,0,0.00012877,1286.8,4.379e-05,8.1822,4.1045e-05,-12.441,-0.00012883,-1288.8,1.4429
3086,17.979,4.7273,0,0.00011657,1164.9,4.0567e-05,22.758,3.699e-05,-4.1117,-0.00011623,-1155.4,1.4426
3087,17.979,4.9091,0,0.00010532,1052.5,3.7599e-05,32.749,3.2918e-05,-2.4214,-0.00010476,-1036.9,1.4424
3088,17.979,5.0909,0,9.5372e-05,953.06,3.4538e-05,35.86,2.953e-05,-1.7654,-9.4736e-05,-935.46,1.4421
3089,17.979,5.2727,0,8.6985e-05,869.25,3.1672e-05,34.918,2.6842e-05,-1.3712,-8.6357e-05,-851.9,1.4418
3090,17.979,5.4545,0,8.0348e-05,802.93,2.9274e-05,32.622,2.4795e-05,-1.0331,-7.9758e-05,-786.61,1.4415
3091,17.979,5.6364,0,7.5566e-05,755.14,2.7515e-05,30.636,2.3346e-05,-0.68931,-7.5008e-05,-739.68,1.4412
3092,17.979,5.8182,0,7.2956e-05,729.06,2.6698e-05,31.384,2.2475e-05,-0.34886,-7.2376e-05,-713.02,1.4408
3093,18.161,0.18182,0,8.0104e-05,800.49,2.8891e-05,29.476,2.4948e-05,-0.15608,-7.9564e-05,-785.42,1.4665
3094,18.161,0.36364,0,8.2333e-05,822.76,2.9626e-05,29.295,2.5669e-05,-0.43448,-8.1802e-05,-807.93,1.4668
3095,18.161,0.54545,0,8.616e-05,861,3.0841e-05,28.538,2.6946e-05,-0.73138,-8.565e-05,-846.73,1.4671
3096,18.161,0.72727,0,9.1327e-05,912.64,3.2321e-05,25.541,2.8763e-05,-1.1945,-9.0883e-05,-900.17,1.4674
3097,18.161,0.90909,0,9.7771e-05,977.03,3.4009e-05,19.743,3.111e-05,-2.0361,-9.7451e-05,-968,1.4676
3098,18.161,1.0909,0,0.00010534,1052.7,3.5894e-05,10.87,3.3842e-05,-4.5506,-0.00010523,-1049.5,1.4679
3099,18.161,1.2727,0,0.00011382,1137.4,3.8629e-05,3.7297,3.609e-05,-15.345,-0.00011401,-1143.1,1.4681
3100,18.161,1.4545,0,0.00012294,1228.6,4.2607e-05,1.6042,3.7239e-05,-38.725,-0.00012352,-1246.6,1.4683
3101,18.161,1.6364,0,0.00013247,1323.8,4.7206e-05,0.89639,3.778e-05,-69.928,-0.0001335,-1356.9,1.4685
3102,18.161,1.8182,0,0.0001422,1421,5.2008e-05,0.55345,3.8152e-05,-103.56,-0.00014367,-1469.7,1.4687
3103,18.161,2,0,0.00015194,1518.3,5.6603e-05,0.42903,3.8884e-05,-132.71,-0.00015375,-1580.1,1.4689
3104,18.161,2.1818,0,0.00016128,1611.7,6.0593e-05,0.3801,4.0348e-05,-151.73,-0.00016332,-1682,1.469
3105,18.161,2.3636,0,0.00016965,1695.3,6.3714e-05,0.35164,4.2476e-05,-159.22,-0.00017179,-1769.1,1.4691
3106,18.161,2.5455,0,0.0001764,1762.8,6.5908e-05,0.40088,4.4792e-05,-158.26,-0.00017855,-1836.4,1.4692
3107,18.161,2.7273,0,0.00018107,1809.5,6.7253e-05,0.44597,4.6707e-05,-153.93,-0.00018319,-1881.3,1.4693
3108,18.161,2.9091,0,0.00018344,1833.1,6.7879e-05,0.45917,4.7773e-05,-150.61,-0.00018552,-1903.5,1.4693
3109,18.161,3.0909,0,0.00018344,1833.1,6.7879e-05,0.45917,4.7773e-05,-150.61,-0.00018552,-1903.5,1.4693
3110,18.161,3.2727,0,0.00018107,1809.5,6.7253e-05,0.44597,4.6707e-05,-153.93,-0.00018319,-1881.3,1.4693
3111,18.161,3.4545,0,0.0001764,1762.8,6.5908e-05,0.40088,4.4792e-05,-158.26,-0.00017855,-1836.4,1.4692
3112,18.161,3.6364,0,0.00016965,1695.3,6.3714e-05,0.35164,4.2476e-05,-159.22,-0.00017179,-1769.1,1.4691
3113,18.161,3.8182,0,0.00016128,1611.7,6.0593e-05,0.3801,4.0348e-05,-151.73,-0.00016332,-1682,1.469
3114,18.161,4,0,0.00015194,1518.3,5.6603e-05,0.42903,3.8884e-05,-132.71,-0.00015375,-1580.1,1.4689
3115,18.161,4.1818,0,0.0001422,1421,5.2008e-05,0.55345,3.8152e-05,-103.56,-0.00014367,-1469.7,1.4687
3116,18.161,4.3636,0,0.00013247,1323.8,4.7206e-05,0.89639,3.778e-05,-69.928,-0.0001335,-1356.9,1.4685
3117,18.161,4.5455,0,0.00012294,1228.6,4.2607e-05,1.6042,3.724e-05,-38.725,-0.00012352,-1246.6,1.4683
3118,18.161,4.7273,0,0.00011382,1137.4,3.8629e-05,3.7298,3.609e-05,-15.344,-0.00011401,-1143.1,1.4681
3119,18.161,4.9091,0,0.00010534,1052.7,3.5894e-05,10.87,3.3842e-05,-4.5506,-0.00010523,-1049.5,1.4679
3120,18.161,5.0909,0,9.7771e-05,977.03,3.4009e-05,19.743,3.111e-05,-2.036,-9.7451e-05,-968,1.4676
3121,18.161,5.2727,0,9.1327e-05,912.64,3.2321e-05,25.541,2.8763e-05,-1.1945,-9.0883e-05,-900.17,1.4674
3122,18.161,5.4545,0,8.616e-05,861.01,3.0841e-05,28.538,2.6946e-05,-0.73138,-8.565e-05,-846.73,1.4671
3123,18.161,5.6364,0,8.2333e-05,822.76,2.9626e-05,29.295,2.5669e-05,-0.43448,-8.1802e-05,-807.93,1.4668
3124,18.161,5.8182,0,8.0104e-05,800.49,2.8891e-05,29.476,2.4948e-05,-0.15608,-7.9564e-05,-785.42,1.4665
3125,18.344,0.18182,0,8.5381e-05,853.22,3.0413e-05,26.865,2.6828e-05,-0.072479,-8.4893e-05,-839.5,1.4921
3126,18.344,0.36364,0,8.7255e-05,871.95,3.105e-05,26.945,2.7424e-05,-0.29845,-8.677e-05,-858.31,1.4924
3127,18.344,0.54545,0,9.0308e-05,902.45,3.1875e-05,24.597,2.853e-05,-0.53627,-8.9872e-05,-890.16,1.4927
3128,18.344,0.72727,0,9.431e-05,942.45,3.2727e-05,18.642,3.0105e-05,-1.0602,-9.3996e-05,-933.51,1.493
3129,18.344,0.90909,0,9.922e-05,991.51,3.3687e-05,9.7251,3.2034e-05,-2.6949,-9.9094e-05,-987.94,1.4933
3130,18.344,1.0909,0,0.00010493,1048.6,3.5417e-05,2.9015,3.3553e-05,-11.11,-0.00010506,-1052.6,1.4935
3131,18.344,1.2727,0,0.00011128,1112.1,3.83e-05,1.2448,3.4147e-05,-29.965,-0.00011174,-1126.1,1.4937
3132,18.344,1.4545,0,0.0001181,1180.2,4.1731e-05,0.73505,3.4297e-05,-55.119,-0.00011892,-1206.4,1.4939
3133,18.344,1.6364,0,0.00012521,1251.2,4.5457e-05,0.48616,3.4193e-05,-84.148,-0.00012642,-1290.9,1.4941
3134,18.344,1.8182,0,0.00013247,1323.8,4.9254e-05,0.34044,3.4079e-05,-113.68,-0.00013403,-1376.8,1.4942
3135,18.344,2,0,0.00013972,1396.3,5.287e-05,0.25215,3.4261e-05,-139.57,-0.00014157,-1460.7,1.4944
3136,18.344,2.1818,0,0.00014669,1465.9,5.6063e-05,0.23128,3.4942e-05,-158.46,-0.00014874,-1538.5,1.4945
3137,18.344,2.3636,0,0.00015298,1528.7,5.8659e-05,0.26582,3.6088e-05,-169.33,-0.00015515,-1606.2,1.4946
3138,18.344,2.5455,0,0.00015814,1580.3,6.0575e-05,0.30873,3.7428e-05,-173.61,-0.00016037,-1659.8,1.4947
3139,18.344,2.7273,0,0.0001618,1616.8,6.1813e-05,0.34382,3.8592e-05,-174.13,-0.00016404,-1696.7,1.4947
3140,18.344,2.9091,0,0.00016368,1635.7,6.2415e-05,0.36355,3.9262e-05,-173.6,-0.00016593,-1715.4,1.4947
3141,18.344,3.0909,0,0.00016368,1635.7,6.2415e-05,0.36355,3.9262e-05,-173.6,-0.00016593,-1715.4,1.4947
3142,18.344,3.2727,0,0.0001618,1616.8,6.1813e-05,0.34381,3.8592e-05,-174.13,-0.00016404,-1696.7,1.4947
3143,18.344,3.4545,0,0.00015814,1580.3,6.0575e-05,0.30872,3.7428e-05,-173.61,-0.00016037,-1659.8,1.4947
3144,18.344,3.6364,0,0.00015298,1528.7,5.8659e-05,0.26582,3.6088e-05,-169.33,-0.00015515,-1606.2,1.4946
3145,18.344,3.8182,0,0.00014669,1465.9,5.6063e-05,0.23128,3.4942e-05,-158.46,-0.00014874,-1538.5,1.4945
3146,18.344,4,0,0.00013972,1396.3,5.287e-05,0.25215,3.4261e-05,-139.57,-0.00014157,-1460.7,1.4944
3147,18.344,4.1818,0,0.00013247,1323.8,4.9254e-05,0.34045,3.4079e-05,-113.68,-0.00013403,-1376.8,1.4942
3148,18.344,4.3636,0,0.00012521,1251.2,4.5457e-05,0.48616,3.4193e-05,-84.148,-0.00012642,-1290.9,1.4941
3149,18.344,4.5455,0,0.0001181,1180.2,4.1731e-05,0.73505,3.4297e-05,-55.118,-0.00011892,-1206.4,1.4939
3150,18.344,4.7273,0,0.00011128,1112.1,3.83e-05,1.2448,3.4147e-05,-29.964,-0.00011174,-1126.1,1.4937
3151,18.344,4.9091,0,0.00010493,1048.6,3.5417e-05,2.9015,3.3553e-05,-11.11,-0.00010506,-1052.6,1.4935
3152,18.344,5.0909,0,9.922e-05,991.51,3.3687e-05,9.7252,3.2034e-05,-2.6949,-9.9094e-05,-987.94,1.4933
3153,18.344,5.2727,0,9.431e-05,942.45,3.2728e-05,18.642,3.0105e-05,-1.0602,-9.3996e-05,-933.51,1.493
3154,18.344,5.4545,0,9.0308e-05,902.45,3.1875e-05,24.597,2.853e-05,-0.53627,-8.9872e-05,-890.16,1.4927
3155,18.344,5.6364,0,8.7255e-05,871.95,3.105e-05,26.945,2.7424e-05,-0.29845,-8.677e-05,-858.31,1.4924
3156,18.344,5.8182,0,8.5381e-05,853.22,3.0413e-05,26.865,2.6828e-05,-0.072478,-8.4893e-05,-839.5,1.4921
3157,18.526,0.18182,0,8.8996e-05,889.35,3.1366e-05,23.974,2.817e-05,-0.034643,-8.8565e-05,-877.14,1.5179
3158,18.526,0.36364,0,9.0528e-05,904.66,3.1879e-05,23.954,2.8662e-05,-0.21504,-9.01e-05,-892.55,1.5182
3159,18.526,0.54545,0,9.2935e-05,928.71,3.2408e-05,20.647,2.9606e-05,-0.40482,-9.2573e-05,-918.41,1.5184
3160,18.526,0.72727,0,9.6009e-05,959.42,3.2832e-05,13.208,3.0944e-05,-0.97558,-9.5793e-05,-953.23,1.5187
3161,18.526,0.90909,0,9.9717e-05,996.48,3.3458e-05,4.1054,3.2349e-05,-4.232,-9.9717e-05,-996.52,1.5189
3162,18.526,1.0909,0,0.00010399,1039.2,3.5307e-05,1.198,3.2744e-05,-18.063,-0.00010426,-1047.5,1.5192
3163,18.526,1.2727,0,0.00010872,1086.5,3.7824e-05,0.65788,3.2608e-05,-38.53,-0.00010931,-1104.9,1.5194
3164,18.526,1.4545,0,0.00011379,1137.1,4.0663e-05,0.44555,3.2225e-05,-62.954,-0.00011472,-1167,1.5195
3165,18.526,1.6364,0,0.00011908,1190,4.3679e-05,0.32756,3.171e-05,-89.601,-0.00012035,-1232.1,1.5197
3166,18.526,1.8182,0,0.00012449,1244.1,4.6718e-05,0.25388,3.1237e-05,-116.06,-0.00012605,-1297.9,1.5198
3167,18.526,2,0,0.00012988,1297.9,4.9606e-05,0.21435,3.0994e-05,-139.63,-0.00013168,-1361.9,1.52
3168,18.526,2.1818,0,0.00013504,1349.5,5.2183e-05,0.20233,3.1108e-05,-158.15,-0.00013703,-1421.4,1.5201
3169,18.526,2.3636,0,0.00013971,1396.1,5.432e-05,0.21255,3.1563e-05,-170.77,-0.00014182,-1473.5,1.5201
3170,18.526,2.5455,0,0.00014356,1434.6,5.5942e-05,0.23839,3.2208e-05,-178.09,-0.00014575,-1515.2,1.5202
3171,18.526,2.7273,0,0.00014632,1462.2,5.7021e-05,0.26468,3.2817e-05,-181.6,-0.00014855,-1544.3,1.5202
3172,18.526,2.9091,0,0.00014775,1476.5,5.7557e-05,0.28013,3.3181e-05,-182.87,-0.00015,-1559.2,1.5203
3173,18.526,3.0909,0,0.00014775,1476.5,5.7557e-05,0.28014,3.3181e-05,-182.87,-0.00015,-1559.2,1.5203
3174,18.526,3.2727,0,0.00014632,1462.2,5.7021e-05,0.26468,3.2817e-05,-181.6,-0.00014855,-1544.3,1.5202
3175,18.526,3.4545,0,0.00014356,1434.6,5.5942e-05,0.23839,3.2208e-05,-178.09,-0.00014575,-1515.2,1.5202
3176,18.526,3.6364,0,0.00013971,1396.1,5.432e-05,0.21255,3.1563e-05,-170.77,-0.00014182,-1473.5,1.5201
3177,18.526,3.8182,0,0.00013504,1349.5,5.2183e-05,0.20233,3.1108e-05,-158.15,-0.00013703,-1421.4,1.5201
3178,18.526,4,0,0.00012988,1297.9,4.9607e-05,0.21435,3.0994e-05,-139.63,-0.00013168,-1361.9,1.52
3179,18.526,4.1818,0,0.00012449,1244.1,4.6718e-05,0.25388,3.1237e-05,-116.06,-0.00012605,-1297.9,1.5198
3180,18.526,4.3636,0,0.00011908,1190,4.3679e-05,0.32756,3.171e-05,-89.601,-0.00012035,-1232.1,1.5197
3181,18.526,4.5455,0,0.00011379,1137.1,4.0663e-05,0.44555,3.2225e-05,-62.954,-0.00011472,-1167,1.5195
3182,18.526,4.7273,0,0.00010872,1086.5,3.7824e-05,0.65788,3.2608e-05,-38.53,-0.00010931,-1104.9,1.5194
3183,18.526,4.9091,0,0.00010399,1039.2,3.5307e-05,1.198,3.2744e-05,-18.063,-0.00010426,-1047.5,1.5192
3184,18.526,5.0909,0,9.9717e-05,996.48,3.3458e-05,4.1055,3.2349e-05,-4.2319,-9.9717e-05,-996.52,1.5189
3185,18.526,5.2727,0,9.6009e-05,959.42,3.2832e-05,13.209,3.0944e-05,-0.97558,-9.5793e-05,-953.23,1.5187
3186,18.526,5.4545,0,9.2935e-05,928.71,3.2408e-05,20.647,2.9606e-05,-0.40482,-9.2573e-05,-918.41,1.5184
3187,18.526,5.6364,0,9.0528e-05,904.66,3.1879e-05,23.954,2.8662e-05,-0.21504,-9.01e-05,-892.55,1.5182
3188,18.526,5.8182,0,8.8996e-05,889.35,3.1366e-05,23.974,2.817e-05,-0.034642,-8.8565e-05,-877.14,1.5179
3189,18.709,0.18182,0,9.1179e-05,911.16,3.1848e-05,21.106,2.9036e-05,-0.018715,-9.0802e-05,-900.43,1.5437
3190,18.709,0.36364,0,9.2386e-05,923.23,3.222e-05,20.71,2.9442e-05,-0.15984,-9.2019e-05,-912.77,1.5439
3191,18.709,0.54545,0,9.4252e-05,941.87,3.2519e-05,16.808,3.024e-05,-0.31561,-9.396e-05,-933.51,1.5442
3192,18.709,0.72727,0,9.6583e-05,965.17,3.2655e-05,8.8087,3.1355e-05,-0.95906,-9.6446e-05,-961.2,1.5445
3193,18.709,0.90909,0,9.9356e-05,992.87,3.3266e-05,1.7242,3.2136e-05,-6.7681,-9.9439e-05,-995.37,1.5447
3194,18.709,1.0909,0,0.00010252,1024.5,3.4999e-05,0.65697,3.1909e-05,-22.557,-0.00010288,-1035.3,1.5449
3195,18.709,1.2727,0,0.00010602,1059.5,3.7113e-05,0.4136,3.1378e-05,-42.678,-0.00010667,-1079.9,1.5451
3196,18.709,1.4545,0,0.00010976,1096.9,3.9448e-05,0.30283,3.0675e-05,-65.615,-0.00011073,-1128,1.5452
3197,18.709,1.6364,0,0.00011368,1136,4.1899e-05,0.23641,2.9897e-05,-89.943,-0.00011493,-1178.1,1.5454
3198,18.709,1.8182,0,0.00011767,1175.9,4.435e-05,0.19321,2.917e-05,-113.86,-0.00011919,-1228.6,1.5455
3199,18.709,2,0,0.00012164,1215.5,4.6678e-05,0.16827,2.8623e-05,-135.49,-0.00012337,-1277.5,1.5456
3200,18.709,2.1818,0,0.00012543,1253.5,4.8767e-05,0.16155,2.8342e-05,-153.3,-0.00012733,-1323,1.5457
3201,18.709,2.3636,0,0.00012886,1287.7,5.052e-05,0.17017,2.8328e-05,-166.57,-0.00013088,-1362.8,1.5458
3202,18.709,2.5455,0,0.00013169,1316,5.1873e-05,0.18679,2.8499e-05,-175.44,-0.00013379,-1394.8,1.5459
3203,18.709,2.7273,0,0.00013372,1336.3,5.2787e-05,0.20363,2.8723e-05,-180.6,-0.00013587,-1417.3,1.5459
3204,18.709,2.9091,0,0.00013478,1346.9,5.3246e-05,0.21399,2.8874e-05,-182.91,-0.00013695,-1428.8,1.5459
3205,18.709,3.0909,0,0.00013478,1346.9,5.3246e-05,0.21399,2.8874e-05,-182.91,-0.00013695,-1428.8,1.5459
3206,18.709,3.2727,0,0.00013372,1336.3,5.2787e-05,0.20363,2.8723e-05,-180.6,-0.00013587,-1417.3,1.5459
3207,18.709,3.4545,0,0.00013169,1316,5.1873e-05,0.18679,2.8499e-05,-175.44,-0.00013379,-1394.8,1.5459
3208,18.709,3.6364,0,0.00012886,1287.7,5.052e-05,0.17017,2.8328e-05,-166.57,-0.00013088,-1362.8,1.5458
3209,18.709,3.8182,0,0.00012543,1253.5,4.8767e-05,0.16155,2.8342e-05,-153.3,-0.00012733,-1323,1.5457
3210,18.709,4,0,0.00012164,1215.5,4.6678e-05,0.16827,2.8623e-05,-135.49,-0.00012337,-1277.5,1.5456
3211,18.709,4.1818,0,0.00011767,1175.9,4.435e-05,0.19321,2.917e-05,-113.86,-0.00011919,-1228.6,1.5455
3212,18.709,4.3636,0,0.00011368,1136,4.1899e-05,0.23641,2.9897e-05,-89.942,-0.00011493,-1178.1,1.5454
3213,18.709,4.5455,0,0.00010976,1096.9,3.9448e-05,0.30283,3.0675e-05,-65.614,-0.00011073,-1128,1.5452
3214,18.709,4.7273,0,0.00010602,1059.5,3.7113e-05,0.4136,3.1378e-05,-42.678,-0.00010667,-1079.9,1.5451
3215,18.709,4.9091,0,0.00010252,1024.5,3.4999e-05,0.65698,3.1909e-05,-22.557,-0.00010288,-1035.3,1.5449
3216,18.709,5.0909,0,9.9356e-05,992.87,3.3266e-05,1.7243,3.2136e-05,-6.768,-9.9439e-05,-995.37,1.5447
3217,18.709,5.2727,0,9.6583e-05,965.17,3.2655e-05,8.8088,3.1355e-05,-0.95906,-9.6446e-05,-961.2,1.5445
3218,18.709,5.4545,0,9.4252e-05,941.87,3.2519e-05,16.808,3.024e-05,-0.31561,-9.396e-05,-933.51,1.5442
3219,18.709,5.6364,0,9.2386e-05,923.23,3.222e-05,20.71,2.9442e-05,-0.15983,-9.2019e-05,-912.77,1.5439
3220,18.709,5.8182,0,9.1179e-05,911.16,3.1848e-05,21.106,2.9036e-05,-0.018716,-9.0802e-05,-900.43,1.5437
3221,18.891,0.18182,0,9.2153e-05,920.89,3.1949e-05,18.46,2.949e-05,-0.012088,-9.1825e-05,-911.53,1.5695
3222,18.891,0.36364,0,9.3062e-05,929.98,3.2177e-05,17.524,2.9828e-05,-0.12005,-9.2753e-05,-921.15,1.5698
3223,18.891,0.54545,0,9.4477e-05,944.12,3.2294e-05,13.247,3.0498e-05,-0.25335,-9.4249e-05,-937.55,1.57
3224,18.891,0.72727,0,9.6216e-05,961.5,3.2245e-05,5.2958,3.1401e-05,-1.0489,-9.6142e-05,-959.36,1.5703
3225,18.891,0.90909,0,9.8261e-05,981.94,3.2957e-05,0.85132,3.1606e-05,-9.2958,-9.8401e-05,-986.12,1.5705
3226,18.891,1.0909,0,0.00010058,1005.1,3.446e-05,0.41077,3.107e-05,-25.061,-0.00010098,-1017.2,1.5707
3227,18.891,1.2727,0,0.00010314,1030.7,3.6218e-05,0.28394,3.0316e-05,-44.062,-0.00010381,-1051.8,1.5709
3228,18.891,1.4545,0,0.00010587,1058,3.8136e-05,0.22027,2.9429e-05,-65.203,-0.00010683,-1089,1.571
3229,18.891,1.6364,0,0.00010873,1086.6,4.0133e-05,0.1803,2.8491e-05,-87.293,-0.00010995,-1127.5,1.5712
3230,18.891,1.8182,0,0.00011165,1115.7,4.2121e-05,0.15388,2.7601e-05,-108.94,-0.0001131,-1166.1,1.5713
3231,18.891,2,0,0.00011454,1144.6,4.4008e-05,0.13866,2.6853e-05,-128.75,-0.00011618,-1203.5,1.5714
3232,18.891,2.1818,0,0.0001173,1172.2,4.5706e-05,0.13383,2.6313e-05,-145.58,-0.00011909,-1238.1,1.5715
3233,18.891,2.3636,0,0.00011978,1197,4.7142e-05,0.1378,2.5993e-05,-158.77,-0.00012169,-1268.4,1.5715
3234,18.891,2.5455,0,0.00012183,1217.5,4.826e-05,0.14726,2.5854e-05,-168.2,-0.00012382,-1292.8,1.5716
3235,18.891,2.7273,0,0.0001233,1232.2,4.9021e-05,0.15738,2.5826e-05,-174.12,-0.00012533,-1309.9,1.5716
3236,18.891,2.9091,0,0.00012407,1239.8,4.9407e-05,0.16372,2.5834e-05,-176.95,-0.00012612,-1318.7,1.5716
3237,18.891,3.0909,0,0.00012407,1239.8,4.9407e-05,0.16372,2.5834e-05,-176.95,-0.00012612,-1318.7,1.5716
3238,18.891,3.2727,0,0.0001233,1232.2,4.9021e-05,0.15738,2.5826e-05,-174.12,-0.00012533,-1309.9,1.5716
3239,18.891,3.4545,0,0.00012183,1217.5,4.826e-05,0.14726,2.5854e-05,-168.2,-0.00012382,-1292.8,1.5716
3240,18.891,3.6364,0,0.00011978,1197,4.7142e-05,0.1378,2.5993e-05,-158.77,-0.00012169,-1268.4,1.5715
3241,18.891,3.8182,0,0.0001173,1172.2,4.5706e-05,0.13383,2.6313e-05,-145.58,-0.00011909,-1238.1,1.5715
3242,18.891,4,0,0.00011454,1144.6,4.4008e-05,0.13866,2.6854e-05,-128.75,-0.00011618,-1203.5,1.5714
3243,18.891,4.1818,0,0.00011165,1115.7,4.2121e-05,0.15388,2.7601e-05,-108.94,-0.0001131,-1166.1,1.5713
3244,18.891,4.3636,0,0.00010873,1086.6,4.0133e-05,0.1803,2.8491e-05,-87.293,-0.00010995,-1127.5,1.5712
3245,18.891,4.5455,0,0.00010587,1058,3.8136e-05,0.22027,2.9429e-05,-65.203,-0.00010683,-1089,1.571
3246,18.891,4.7273,0,0.00010314,1030.7,3.6218e-05,0.28394,3.0316e-05,-44.062,-0.00010381,-1051.8,1.5709
3247,18.891,4.9091,0,0.00010058,1005.1,3.446e-05,0.41077,3.107e-05,-25.06,-0.00010098,-1017.2,1.5707
3248,18.891,5.0909,0,9.8261e-05,981.94,3.2957e-05,0.85133,3.1606e-05,-9.2957,-9.8401e-05,-986.12,1.5705
3249,18.891,5.2727,0,9.6216e-05,961.5,3.2245e-05,5.2959,3.1401e-05,-1.0489,-9.6143e-05,-959.36,1.5703
3250,18.891,5.4545,0,9.4477e-05,944.12,3.2295e-05,13.247,3.0498e-05,-0.25335,-9.4249e-05,-937.55,1.57
3251,18.891,5.6364,0,9.3062e-05,929.98,3.2177e-05,17.524,2.9828e-05,-0.12005,-9.2753e-05,-921.15,1.5698
3252,18.891,5.8182,0,9.2153e-05,920.89,3.1949e-05,18.46,2.949e-05,-0.012088,-9.1825e-05,-911.53,1.5695
3253,19.074,0.18182,0,9.2123e-05,920.59,3.1747e-05,16.149,2.9596e-05,-0.00934,-9.1837e-05,-912.41,1.5954
3254,19.074,0.36364,0,9.2767e-05,927.03,3.1835e-05,14.608,2.9879e-05,-0.08975,-9.2511e-05,-919.68,1.5957
3255,19.074,0.54545,0,9.381e-05,937.46,3.1811e-05,10.104,3.0438e-05,-0.20892,-9.3638e-05,-932.47,1.5959
3256,19.074,0.72727,0,9.508e-05,950.15,3.1669e-05,2.7028,3.1129e-05,-1.3538,-9.5057e-05,-949.47,1.5962
3257,19.074,0.90909,0,9.6561e-05,964.95,3.2459e-05,0.48189,3.0902e-05,-11.219,-9.6739e-05,-970.26,1.5964
3258,19.074,1.0909,0,9.8235e-05,981.67,3.3728e-05,0.2761,3.0208e-05,-26.169,-9.8648e-05,-994.35,1.5966
3259,19.074,1.2727,0,0.00010007,1000,3.5182e-05,0.20526,2.9337e-05,-43.711,-0.00010074,-1021.1,1.5967
3260,19.074,1.4545,0,0.00010204,1019.7,3.6757e-05,0.16679,2.8357e-05,-62.951,-0.00010296,-1049.6,1.5969
3261,19.074,1.6364,0,0.0001041,1040.3,3.8388e-05,0.1416,2.7337e-05,-82.889,-0.00010526,-1079.1,1.597
3262,19.074,1.8182,0,0.0001062,1061.2,4.0006e-05,0.12446,2.6358e-05,-102.42,-0.00010756,-1108.7,1.5971
3263,19.074,2,0,0.00010827,1082,4.154e-05,0.11415,2.5493e-05,-120.46,-0.00010982,-1137.1,1.5972
3264,19.074,2.1818,0,0.00011025,1101.7,4.2924e-05,0.11033,2.4796e-05,-136.1,-0.00011193,-1163.4,1.5973
3265,19.074,2.3636,0,0.00011202,1119.5,4.4099e-05,0.11202,2.4288e-05,-148.73,-0.00011381,-1186.3,1.5974
3266,19.074,2.5455,0,0.00011349,1134.1,4.5017e-05,0.11708,2.3959e-05,-158.11,-0.00011534,-1204.8,1.5974
3267,19.074,2.7273,0,0.00011453,1144.5,4.5647e-05,0.12272,2.3773e-05,-164.23,-0.00011643,-1217.7,1.5974
3268,19.074,2.9091,0,0.00011508,1150,4.5967e-05,0.12634,2.3692e-05,-167.23,-0.000117,-1224.3,1.5974
3269,19.074,3.0909,0,0.00011508,1150,4.5967e-05,0.12634,2.3692e-05,-167.23,-0.000117,-1224.3,1.5974
3270,19.074,3.2727,0,0.00011453,1144.5,4.5647e-05,0.12272,2.3773e-05,-164.23,-0.00011643,-1217.7,1.5974
3271,19.074,3.4545,0,0.00011349,1134.1,4.5017e-05,0.11708,2.3959e-05,-158.11,-0.00011534,-1204.8,1.5974
3272,19.074,3.6364,0,0.00011202,1119.5,4.4099e-05,0.11202,2.4288e-05,-148.73,-0.00011381,-1186.3,1.5974
3273,19.074,3.8182,0,0.00011025,1101.7,4.2924e-05,0.11033,2.4796e-05,-136.1,-0.00011193,-1163.4,1.5973
3274,19.074,4,0,0.00010827,1082,4.154e-05,0.11415,2.5493e-05,-120.46,-0.00010982,-1137.1,1.5972
3275,19.074,4.1818,0,0.0001062,1061.2,4.0006e-05,0.12446,2.6358e-05,-102.42,-0.00010756,-1108.7,1.5971
3276,19.074,4.3636,0,0.0001041,1040.3,3.8388e-05,0.1416,2.7337e-05,-82.889,-0.00010526,-1079.1,1.597
3277,19.074,4.5455,0,0.00010204,1019.7,3.6757e-05,0.1668,2.8357e-05,-62.95,-0.00010296,-1049.6,1.5969
3278,19.074,4.7273,0,0.00010007,1000,3.5182e-05,0.20526,2.9337e-05,-43.711,-0.00010074,-1021.1,1.5967
3279,19.074,4.9091,0,9.8235e-05,981.67,3.3728e-05,0.2761,3.0208e-05,-26.168,-9.8648e-05,-994.35,1.5966
3280,19.074,5.0909,0,9.6561e-05,964.95,3.2459e-05,0.4819,3.0902e-05,-11.218,-9.6739e-05,-970.26,1.5964
3281,19.074,5.2727,0,9.508e-05,950.15,3.1669e-05,2.7028,3.1129e-05,-1.3538,-9.5057e-05,-949.47,1.5962
3282,19.074,5.4545,0,9.381e-05,937.46,3.1811e-05,10.104,3.0438e-05,-0.20892,-9.3638e-05,-932.47,1.5959
3283,19.074,5.6364,0,9.2767e-05,927.03,3.1835e-05,14.608,2.9879e-05,-0.089748,-9.2511e-05,-919.68,1.5957
3284,19.074,5.8182,0,9.2123e-05,920.59,3.1747e-05,16.149,2.9596e-05,-0.0093378,-9.1837e-05,-912.42,1.5954
3285,19.256,0.18182,0,9.1272e-05,912.09,3.1306e-05,14.223,2.9412e-05,-0.0079884,-9.1021e-05,-904.9,1.6214
3286,19.256,0.36364,0,9.1687e-05,916.23,3.1268e-05,12.089,2.965e-05,-0.065648,-9.1476e-05,-910.16,1.6217
3287,19.256,0.54545,0,9.2427e-05,923.63,3.1133e-05,7.4691,3.0115e-05,-0.17599,-9.23e-05,-919.96,1.6219
3288,19.256,0.72727,0,9.3326e-05,932.62,3.0997e-05,1.1741,3.0568e-05,-2.0541,-9.3341e-05,-933.06,1.6221
3289,19.256,0.90909,0,9.4372e-05,943.07,3.1782e-05,0.29836,3.0085e-05,-12.452,-9.4572e-05,-949.08,1.6223
3290,19.256,1.0909,0,9.555e-05,954.84,3.284e-05,0.19463,2.9318e-05,-26.272,-9.5967e-05,-967.61,1.6225
3291,19.256,1.2727,0,9.6844e-05,967.77,3.404e-05,0.15377,2.8399e-05,-42.229,-9.749e-05,-988.12,1.6226
3292,19.256,1.4545,0,9.8231e-05,981.63,3.5333e-05,0.13,2.7387e-05,-59.569,-9.9105e-05,-1010,1.6228
3293,19.256,1.6364,0,9.9681e-05,996.12,3.6666e-05,0.11373,2.6342e-05,-77.453,-0.00010077,-1032.5,1.6229
3294,19.256,1.8182,0,0.00010116,1010.9,3.7986e-05,0.10228,2.5331e-05,-94.984,-0.00010244,-1055,1.623
3295,19.256,2,0,0.00010262,1025.5,3.9236e-05,0.09502,2.4412e-05,-111.29,-0.00010406,-1076.6,1.6231
3296,19.256,2.1818,0,0.00010401,1039.4,4.0365e-05,0.091718,2.3636e-05,-125.61,-0.00010558,-1096.5,1.6232
3297,19.256,2.3636,0,0.00010526,1051.8,4.1325e-05,0.091795,2.3026e-05,-137.4,-0.00010692,-1113.7,1.6232
3298,19.256,2.5455,0,0.00010628,1062.1,4.2078e-05,0.094067,2.2589e-05,-146.34,-0.00010801,-1127.6,1.6233
3299,19.256,2.7273,0,0.00010701,1069.4,4.2596e-05,0.096919,2.2312e-05,-152.31,-0.00010878,-1137.3,1.6233
3300,19.256,2.9091,0,0.00010739,1073.2,4.2859e-05,0.098812,2.218e-05,-155.28,-0.00010918,-1142.3,1.6233
3301,19.256,3.0909,0,0.00010739,1073.2,4.2859e-05,0.09881,2.218e-05,-155.28,-0.00010918,-1142.3,1.6233
3302,19.256,3.2727,0,0.00010701,1069.4,4.2596e-05,0.09692,2.2312e-05,-152.31,-0.00010878,-1137.3,1.6233
3303,19.256,3.4545,0,0.00010628,1062.1,4.2078e-05,0.094066,2.2589e-05,-146.34,-0.00010801,-1127.6,1.6233
3304,19.256,3.6364,0,0.00010526,1051.8,4.1325e-05,0.091795,2.3026e-05,-137.4,-0.00010692,-1113.7,1.6232
3305,19.256,3.8182,0,0.00010401,1039.4,4.0365e-05,0.091718,2.3636e-05,-125.61,-0.00010558,-1096.5,1.6232
3306,19.256,4,0,0.00010262,1025.5,3.9236e-05,0.09502,2.4412e-05,-111.29,-0.00010406,-1076.6,1.6231
3307,19.256,4.1818,0,0.00010116,1010.9,3.7986e-05,0.10228,2.5331e-05,-94.984,-0.00010244,-1055,1.623
3308,19.256,4.3636,0,9.9681e-05,996.12,3.6666e-05,0.11373,2.6342e-05,-77.453,-0.00010077,-1032.5,1.6229
3309,19.256,4.5455,0,9.8231e-05,981.63,3.5333e-05,0.13,2.7387e-05,-59.569,-9.9105e-05,-1010,1.6228
3310,19.256,4.7273,0,9.6844e-05,967.77,3.404e-05,0.15377,2.8399e-05,-42.229,-9.749e-05,-988.12,1.6226
3311,19.256,4.9091,0,9.555e-05,954.85,3.284e-05,0.19463,2.9318e-05,-26.272,-9.5967e-05,-967.61,1.6225
3312,19.256,5.0909,0,9.4372e-05,943.07,3.1782e-05,0.29836,3.0085e-05,-12.452,-9.4572e-05,-949.08,1.6223
3313,19.256,5.2727,0,9.3326e-05,932.62,3.0997e-05,1.1741,3.0568e-05,-2.054,-9.3341e-05,-933.06,1.6221
3314,19.256,5.4545,0,9.2427e-05,923.63,3.1133e-05,7.4692,3.0115e-05,-0.17599,-9.23e-05,-919.96,1.6219
3315,19.256,5.6364,0,9.1687e-05,916.23,3.1268e-05,12.089,2.965e-05,-0.065646,-9.1476e-05,-910.16,1.6217
3316,19.256,5.8182,0,9.1272e-05,912.09,3.1306e-05,14.223,2.9412e-05,-0.0079884,-9.1021e-05,-904.9,1.6214
3317,19.439,0.18182,0,8.9756e-05,896.94,3.0678e-05,12.695,2.8988e-05,-0.0070239,-8.9533e-05,-890.53,1.6474
3318,19.439,0.36364,0,8.9977e-05,899.15,3.0531e-05,10.031,2.919e-05,-0.045912,-8.9803e-05,-894.11,1.6477
3319,19.439,0.54545,0,9.0473e-05,904.11,3.0313e-05,5.3846,2.9576e-05,-0.14942,-9.0383e-05,-901.47,1.6479
3320,19.439,0.72727,0,9.1083e-05,910.2,3.025e-05,0.52973,2.9781e-05,-2.9964,-9.1125e-05,-911.43,1.6481
3321,19.439,0.90909,0,9.1794e-05,917.31,3.0952e-05,0.19679,2.9191e-05,-13.033,-9.2006e-05,-923.66,1.6483
3322,19.439,1.0909,0,9.2597e-05,925.33,3.1829e-05,0.14224,2.8401e-05,-25.611,-9.3004e-05,-937.8,1.6485
3323,19.439,1.2727,0,9.3481e-05,934.16,3.2817e-05,0.11842,2.7482e-05,-39.968,-9.4094e-05,-953.44,1.6486
3324,19.439,1.4545,0,9.4429e-05,943.64,3.3877e-05,0.10361,2.6481e-05,-55.467,-9.5248e-05,-970.09,1.6488
3325,19.439,1.6364,0,9.5423e-05,953.57,3.4968e-05,0.092952,2.5452e-05,-71.405,-9.6435e-05,-987.22,1.6489
3326,19.439,1.8182,0,9.6439e-05,963.72,3.6046e-05,0.085082,2.445e-05,-87.039,-9.7622e-05,-1004.2,1.649
3327,19.439,2,0,9.7443e-05,973.76,3.7066e-05,0.079725,2.3527e-05,-101.65,-9.8771e-05,-1020.5,1.6491
3328,19.439,2.1818,0,9.8395e-05,983.27,3.7987e-05,0.076799,2.2725e-05,-114.6,-9.984e-05,-1035.5,1.6492
3329,19.439,2.3636,0,9.9246e-05,991.78,3.8772e-05,0.075989,2.2073e-05,-125.39,-0.00010078,-1048.5,1.6492
3330,19.439,2.5455,0,9.9946e-05,998.77,3.9388e-05,0.076629,2.1585e-05,-133.69,-0.00010154,-1058.8,1.6493
3331,19.439,2.7273,0,0.00010044,1003.7,3.9812e-05,0.077812,2.1263e-05,-139.29,-0.00010208,-1066.1,1.6493
3332,19.439,2.9091,0,0.0001007,1006.3,4.0028e-05,0.078668,2.1104e-05,-142.11,-0.00010236,-1069.8,1.6493
3333,19.439,3.0909,0,0.0001007,1006.3,4.0028e-05,0.078669,2.1104e-05,-142.11,-0.00010236,-1069.8,1.6493
3334,19.439,3.2727,0,0.00010044,1003.7,3.9812e-05,0.077812,2.1263e-05,-139.29,-0.00010208,-1066.1,1.6493
3335,19.439,3.4545,0,9.9946e-05,998.77,3.9388e-05,0.07663,2.1585e-05,-133.69,-0.00010154,-1058.8,1.6493
3336,19.439,3.6364,0,9.9246e-05,991.78,3.8772e-05,0.075989,2.2073e-05,-125.39,-0.00010078,-1048.5,1.6492
3337,19.439,3.8182,0,9.8395e-05,983.27,3.7987e-05,0.076798,2.2725e-05,-114.6,-9.984e-05,-1035.5,1.6492
3338,19.439,4,0,9.7443e-05,973.76,3.7066e-05,0.079725,2.3527e-05,-101.65,-9.8771e-05,-1020.5,1.6491
3339,19.439,4.1818,0,9.6439e-05,963.72,3.6046e-05,0.085082,2.445e-05,-87.039,-9.7622e-05,-1004.2,1.649
3340,19.439,4.3636,0,9.5423e-05,953.57,3.4968e-05,0.092954,2.5452e-05,-71.405,-9.6435e-05,-987.22,1.6489
3341,19.439,4.5455,0,9.4429e-05,943.64,3.3877e-05,0.10361,2.6481e-05,-55.467,-9.5248e-05,-970.09,1.6488
3342,19.439,4.7273,0,9.3481e-05,934.16,3.2817e-05,0.11842,2.7482e-05,-39.968,-9.4094e-05,-953.44,1.6486
3343,19.439,4.9091,0,9.2597e-05,925.33,3.1829e-05,0.14224,2.8401e-05,-25.611,-9.3004e-05,-937.8,1.6485
3344,19.439,5.0909,0,9.1794e-05,917.31,3.0952e-05,0.19679,2.9191e-05,-13.033,-9.2006e-05,-923.66,1.6483
3345,19.439,5.2727,0,9.1083e-05,910.21,3.025e-05,0.52974,2.9781e-05,-2.9963,-9.1125e-05,-911.43,1.6481
3346,19.439,5.4545,0,9.0473e-05,904.11,3.0313e-05,5.3846,2.9576e-05,-0.14942,-9.0383e-05,-901.48,1.6479
3347,19.439,5.6364,0,8.9977e-05,899.15,3.0531e-05,10.031,2.919e-05,-0.045912,-8.9803e-05,-894.11,1.6477
3348,19.439,5.8182,0,8.9756e-05,896.94,3.0678e-05,12.695,2.8988e-05,-0.0070231,-8.9533e-05,-890.53,1.6474
3349,19.621,0.18182,0,8.7707e-05,876.47,2.9907e-05,11.552,2.8369e-05,-0.006077,-8.7505e-05,-870.64,1.6735
3350,19.621,0.36364,0,8.7767e-05,877.07,2.967e-05,8.4509,2.8541e-05,-0.029537,-8.7621e-05,-872.82,1.6738
3351,19.621,0.54545,0,8.807e-05,880.1,2.9391e-05,3.8564,2.8862e-05,-0.12383,-8.8006e-05,-878.22,1.674
3352,19.621,0.72727,0,8.8457e-05,883.96,2.9398e-05,0.27935,2.8866e-05,-3.7206,-8.8515e-05,-885.67,1.6742
3353,19.621,0.90909,0,8.8914e-05,888.52,2.9995e-05,0.13638,2.8245e-05,-13.012,-8.9126e-05,-894.89,1.6744
3354,19.621,1.0909,0,8.9434e-05,893.72,3.0719e-05,0.10717,2.7467e-05,-24.331,-8.9821e-05,-905.59,1.6745
3355,19.621,1.2727,0,9.001e-05,899.48,3.1531e-05,0.093387,2.6577e-05,-37.134,-9.0582e-05,-917.42,1.6747
3356,19.621,1.4545,0,9.0632e-05,905.69,3.24e-05,0.084217,2.5617e-05,-50.884,-9.1388e-05,-930.02,1.6748
3357,19.621,1.6364,0,9.1286e-05,912.23,3.3293e-05,0.077194,2.4633e-05,-64.992,-9.2216e-05,-942.95,1.6749
3358,19.621,1.8182,0,9.1957e-05,918.93,3.4173e-05,0.071685,2.3671e-05,-78.838,-9.3042e-05,-955.77,1.675
3359,19.621,2,0,9.2621e-05,925.57,3.5006e-05,0.067629,2.2776e-05,-91.822,-9.3839e-05,-968.02,1.6751
3360,19.621,2.1818,0,9.3251e-05,931.87,3.5758e-05,0.06503,2.1987e-05,-103.4,-9.4577e-05,-979.22,1.6752
3361,19.621,2.3636,0,9.3815e-05,937.5,3.6398e-05,0.063767,2.1334e-05,-113.13,-9.5224e-05,-988.89,1.6752
3362,19.621,2.5455,0,9.4278e-05,942.13,3.6902e-05,0.063491,2.0834e-05,-120.66,-9.5747e-05,-996.61,1.6753
3363,19.621,2.7273,0,9.4608e-05,945.43,3.7249e-05,0.063721,2.0498e-05,-125.79,-9.6116e-05,-1002,1.6753
3364,19.621,2.9091,0,9.478e-05,947.14,3.7426e-05,0.063982,2.033e-05,-128.39,-9.6307e-05,-1004.8,1.6753
3365,19.621,3.0909,0,9.478e-05,947.14,3.7426e-05,0.063981,2.033e-05,-128.39,-9.6307e-05,-1004.8,1.6753
3366,19.621,3.2727,0,9.4608e-05,945.43,3.7249e-05,0.063721,2.0498e-05,-125.79,-9.6116e-05,-1002,1.6753
3367,19.621,3.4545,0,9.4278e-05,942.13,3.6902e-05,0.063491,2.0834e-05,-120.66,-9.5747e-05,-996.61,1.6753
3368,19.621,3.6364,0,9.3815e-05,937.5,3.6398e-05,0.063765,2.1334e-05,-113.13,-9.5224e-05,-988.9,1.6752
3369,19.621,3.8182,0,9.3251e-05,931.87,3.5758e-05,0.065029,2.1987e-05,-103.4,-9.4577e-05,-979.22,1.6752
3370,19.621,4,0,9.2621e-05,925.57,3.5006e-05,0.067626,2.2776e-05,-91.822,-9.3839e-05,-968.02,1.6751
3371,19.621,4.1818,0,9.1957e-05,918.93,3.4173e-05,0.071685,2.3671e-05,-78.838,-9.3042e-05,-955.77,1.675
3372,19.621,4.3636,0,9.1286e-05,912.23,3.3293e-05,0.077192,2.4633e-05,-64.991,-9.2216e-05,-942.95,1.6749
3373,19.621,4.5455,0,9.0632e-05,905.69,3.24e-05,0.084216,2.5617e-05,-50.884,-9.1388e-05,-930.02,1.6748
3374,19.621,4.7273,0,9.001e-05,899.48,3.1531e-05,0.093389,2.6577e-05,-37.134,-9.0582e-05,-917.42,1.6747
3375,19.621,4.9091,0,8.9434e-05,893.72,3.0719e-05,0.10717,2.7467e-05,-24.331,-8.9821e-05,-905.59,1.6745
3376,19.621,5.0909,0,8.8914e-05,888.52,2.9995e-05,0.13638,2.8245e-05,-13.012,-8.9126e-05,-894.89,1.6744
3377,19.621,5.2727,0,8.8457e-05,883.96,2.9398e-05,0.27935,2.8866e-05,-3.7205,-8.8515e-05,-885.67,1.6742
3378,19.621,5.4545,0,8.807e-05,880.1,2.9391e-05,3.8564,2.8862e-05,-0.12383,-8.8006e-05,-878.22,1.674
3379,19.621,5.6364,0,8.7767e-05,877.07,2.967e-05,8.4509,2.8541e-05,-0.029534,-8.7621e-05,-872.82,1.6738
3380,19.621,5.8182,0,8.7707e-05,876.47,2.9907e-05,11.552,2.8369e-05,-0.0060782,-8.7505e-05,-870.64,1.6735
3381,19.804,0.18182,0,8.5235e-05,851.76,2.9026e-05,10.768,2.7592e-05,-0.0050428,-8.5047e-05,-846.33,1.6997
3382,19.804,0.36364,0,8.5165e-05,851.06,2.8717e-05,7.3386,2.7739e-05,-0.016096,-8.5038e-05,-847.37,1.6999
3383,19.804,0.54545,0,8.5317e-05,852.59,2.8398e-05,2.8633,2.8005e-05,-0.093254,-8.527e-05,-851.2,1.7001
3384,19.804,0.72727,0,8.5534e-05,854.75,2.8438e-05,0.16769,2.7883e-05,-4.0084,-8.5598e-05,-856.66,1.7003
3385,19.804,0.90909,0,8.58e-05,857.41,2.8936e-05,0.098587,2.7267e-05,-12.442,-8.6003e-05,-863.51,1.7005
3386,19.804,1.0909,0,8.611e-05,860.51,2.9532e-05,0.083046,2.6522e-05,-22.531,-8.647e-05,-871.51,1.7007
3387,19.804,1.2727,0,8.6459e-05,864,3.0198e-05,0.07532,2.5683e-05,-33.853,-8.6984e-05,-880.39,1.7008
3388,19.804,1.4545,0,8.6841e-05,867.81,3.091e-05,0.069761,2.4783e-05,-45.961,-8.753e-05,-889.84,1.7009
3389,19.804,1.6364,0,8.7246e-05,871.85,3.1639e-05,0.065156,2.3863e-05,-58.359,-8.809e-05,-899.53,1.701
3390,19.804,1.8182,0,8.7663e-05,876.03,3.2357e-05,0.061262,2.2962e-05,-70.532,-8.8649e-05,-909.13,1.7011
3391,19.804,2,0,8.808e-05,880.19,3.3037e-05,0.058137,2.2119e-05,-81.973,-8.9186e-05,-918.27,1.7012
3392,19.804,2.1818,0,8.8476e-05,884.15,3.365e-05,0.055867,2.1369e-05,-92.216,-8.9682e-05,-926.61,1.7013
3393,19.804,2.3636,0,8.8831e-05,887.7,3.4173e-05,0.054434,2.0741e-05,-100.86,-9.0115e-05,-933.79,1.7013
3394,19.804,2.5455,0,8.9124e-05,890.62,3.4584e-05,0.053699,2.0255e-05,-107.6,-9.0464e-05,-939.5,1.7014
3395,19.804,2.7273,0,8.9332e-05,892.71,3.4867e-05,0.053418,1.9925e-05,-112.21,-9.0709e-05,-943.48,1.7014
3396,19.804,2.9091,0,8.9441e-05,893.79,3.5012e-05,0.053355,1.9759e-05,-114.55,-9.0836e-05,-945.51,1.7014
3397,19.804,3.0909,0,8.9441e-05,893.79,3.5012e-05,0.053354,1.9759e-05,-114.55,-9.0836e-05,-945.51,1.7014
3398,19.804,3.2727,0,8.9332e-05,892.71,3.4867e-05,0.053418,1.9925e-05,-112.21,-9.0709e-05,-943.48,1.7014
3399,19.804,3.4545,0,8.9124e-05,890.62,3.4584e-05,0.053699,2.0255e-05,-107.6,-9.0464e-05,-939.5,1.7014
3400,19.804,3.6364,0,8.8831e-05,887.7,3.4173e-05,0.054436,2.0741e-05,-100.86,-9.0115e-05,-933.79,1.7013
3401,19.804,3.8182,0,8.8476e-05,884.15,3.365e-05,0.055867,2.1369e-05,-92.216,-8.9682e-05,-926.61,1.7013
3402,19.804,4,0,8.808e-05,880.19,3.3037e-05,0.058137,2.2119e-05,-81.973,-8.9186e-05,-918.27,1.7012
3403,19.804,4.1818,0,8.7663e-05,876.03,3.2357e-05,0.061261,2.2962e-05,-70.532,-8.8649e-05,-909.13,1.7011
3404,19.804,4.3636,0,8.7246e-05,871.85,3.1639e-05,0.065157,2.3863e-05,-58.359,-8.809e-05,-899.53,1.701
3405,19.804,4.5455,0,8.6841e-05,867.81,3.091e-05,0.069761,2.4783e-05,-45.961,-8.753e-05,-889.84,1.7009
3406,19.804,4.7273,0,8.6459e-05,864,3.0198e-05,0.075319,2.5683e-05,-33.853,-8.6984e-05,-880.39,1.7008
3407,19.804,4.9091,0,8.611e-05,860.51,2.9532e-05,0.083048,2.6522e-05,-22.531,-8.647e-05,-871.51,1.7007
3408,19.804,5.0909,0,8.58e-05,857.41,2.8936e-05,0.098586,2.7267e-05,-12.442,-8.6003e-05,-863.51,1.7005
3409,19.804,5.2727,0,8.5534e-05,854.75,2.8438e-05,0.16769,2.7883e-05,-4.0084,-8.5598e-05,-856.66,1.7003
3410,19.804,5.4545,0,8.5317e-05,852.59,2.8399e-05,2.8633,2.8005e-05,-0.093254,-8.527e-05,-851.2,1.7001
3411,19.804,5.6364,0,8.5165e-05,851.06,2.8718e-05,7.3386,2.7739e-05,-0.016095,-8.5038e-05,-847.37,1.6999
3412,19.804,5.8182,0,8.5235e-05,851.76,2.9026e-05,10.768,2.7592e-05,-0.00504,-8.5047e-05,-846.33,1.6997
3413,19.986,0.18182,0,8.2428e-05,823.71,2.8061e-05,10.308,2.6689e-05,-0.0039369,-8.2248e-05,-818.51,1.7259
3414,19.986,0.36364,0,8.2255e-05,821.98,2.7701e-05,6.6654,2.6813e-05,-0.0056544,-8.2139e-05,-818.63,1.7261
3415,19.986,0.54545,0,8.2294e-05,822.37,2.7358e-05,2.3704,2.7035e-05,-0.055165,-8.2254e-05,-821.21,1.7263
3416,19.986,0.72727,0,8.2383e-05,823.26,2.7385e-05,0.11084,2.6862e-05,-3.8196,-8.2445e-05,-825.11,1.7265
3417,19.986,0.90909,0,8.2509e-05,824.52,2.7795e-05,0.074039,2.6272e-05,-11.371,-8.2695e-05,-830.11,1.7267
3418,19.986,1.0909,0,8.2666e-05,826.09,2.8284e-05,0.066133,2.5576e-05,-20.279,-8.2992e-05,-836.01,1.7268
3419,19.986,1.2727,0,8.2851e-05,827.94,2.8829e-05,0.062131,2.48e-05,-30.208,-8.3323e-05,-842.6,1.727
3420,19.986,1.4545,0,8.3059e-05,830.02,2.941e-05,0.058936,2.3974e-05,-40.784,-8.3676e-05,-849.62,1.7271
3421,19.986,1.6364,0,8.3284e-05,832.27,3.0005e-05,0.055978,2.313e-05,-51.596,-8.4041e-05,-856.84,1.7272
3422,19.986,1.8182,0,8.3521e-05,834.63,3.059e-05,0.053229,2.2303e-05,-62.212,-8.4403e-05,-863.96,1.7273
3423,19.986,2,0,8.3759e-05,837.01,3.1144e-05,0.050817,2.1527e-05,-72.204,-8.4752e-05,-870.75,1.7274
3424,19.986,2.1818,0,8.3988e-05,839.3,3.1644e-05,0.048869,2.0833e-05,-81.174,-8.5073e-05,-876.91,1.7274
3425,19.986,2.3636,0,8.4195e-05,841.37,3.2069e-05,0.047445,2.0248e-05,-88.773,-8.5352e-05,-882.21,1.7275
3426,19.986,2.5455,0,8.4366e-05,843.08,3.2404e-05,0.046516,1.9792e-05,-94.717,-8.5576e-05,-886.41,1.7275
3427,19.986,2.7273,0,8.4489e-05,844.3,3.2635e-05,0.045992,1.948e-05,-98.795,-8.5733e-05,-889.33,1.7276
3428,19.986,2.9091,0,8.4553e-05,844.94,3.2753e-05,0.045765,1.9322e-05,-100.87,-8.5814e-05,-890.82,1.7276
3429,19.986,3.0909,0,8.4553e-05,844.94,3.2753e-05,0.045767,1.9322e-05,-100.87,-8.5814e-05,-890.82,1.7276
3430,19.986,3.2727,0,8.4489e-05,844.3,3.2635e-05,0.045992,1.948e-05,-98.795,-8.5733e-05,-889.33,1.7276
3431,19.986,3.4545,0,8.4366e-05,843.08,3.2404e-05,0.046517,1.9792e-05,-94.717,-8.5576e-05,-886.41,1.7275
3432,19.986,3.6364,0,8.4195e-05,841.37,3.2069e-05,0.047444,2.0248e-05,-88.773,-8.5352e-05,-882.21,1.7275
3433,19.986,3.8182,0,8.3988e-05,839.3,3.1644e-05,0.048869,2.0833e-05,-81.174,-8.5073e-05,-876.91,1.7274
3434,19.986,4,0,8.3759e-05,837.01,3.1144e-05,0.050818,2.1527e-05,-72.204,-8.4752e-05,-870.75,1.7274
3435,19.986,4.1818,0,8.3521e-05,834.63,3.059e-05,0.053229,2.2303e-05,-62.212,-8.4404e-05,-863.97,1.7273
3436,19.986,4.3636,0,8.3284e-05,832.27,3.0005e-05,0.055978,2.313e-05,-51.596,-8.4041e-05,-856.84,1.7272
3437,19.986,4.5455,0,8.3059e-05,830.02,2.941e-05,0.058936,2.3974e-05,-40.784,-8.3676e-05,-849.62,1.7271
3438,19.986,4.7273,0,8.2851e-05,827.94,2.8829e-05,0.06213,2.48e-05,-30.207,-8.3323e-05,-842.6,1.727
3439,19.986,4.9091,0,8.2666e-05,826.09,2.8284e-05,0.066133,2.5576e-05,-20.279,-8.2992e-05,-836.01,1.7268
3440,19.986,5.0909,0,8.2509e-05,824.52,2.7795e-05,0.074037,2.6272e-05,-11.371,-8.2695e-05,-830.11,1.7267
3441,19.986,5.2727,0,8.2383e-05,823.26,2.7385e-05,0.11084,2.6862e-05,-3.8195,-8.2445e-05,-825.11,1.7265
3442,19.986,5.4545,0,8.2294e-05,822.37,2.7358e-05,2.3704,2.7035e-05,-0.055166,-8.2254e-05,-821.21,1.7263
3443,19.986,5.6364,0,8.2255e-05,821.98,2.7701e-05,6.6654,2.6813e-05,-0.005653,-8.2139e-05,-818.63,1.7261
3444,19.986,5.8182,0,8.2428e-05,823.71,2.8061e-05,10.308,2.6689e-05,-0.0039351,-8.2248e-05,-818.51,1.7259
3445,20.168,0.18182,0,7.936e-05,793.05,2.7034e-05,10.137,2.5685e-05,-0.0028814,-7.9183e-05,-787.94,1.7521
3446,20.168,0.36364,0,7.9107e-05,790.53,2.6639e-05,6.3935,2.5788e-05,0.0015226,-7.8996e-05,-787.31,1.7523
3447,20.168,0.54545,0,7.9062e-05,790.08,2.6287e-05,2.3437,2.5973e-05,-0.017965,-7.9022e-05,-788.91,1.7525
3448,20.168,0.72727,0,7.906e-05,790.05,2.6253e-05,0.079513,2.5821e-05,-3.1723,-7.9112e-05,-791.6,1.7527
3449,20.168,0.90909,0,7.9086e-05,790.32,2.6589e-05,0.057622,2.5271e-05,-9.8469,-7.9248e-05,-795.16,1.7529
3450,20.168,1.0909,0,7.9136e-05,790.81,2.6988e-05,0.054107,2.4634e-05,-17.631,-7.942e-05,-799.45,1.7531
3451,20.168,1.2727,0,7.9205e-05,791.5,2.7432e-05,0.052441,2.393e-05,-26.254,-7.9618e-05,-804.27,1.7532
3452,20.168,1.4545,0,7.9291e-05,792.36,2.7904e-05,0.050828,2.3185e-05,-35.409,-7.9833e-05,-809.44,1.7533
3453,20.168,1.6364,0,7.939e-05,793.36,2.8388e-05,0.049023,2.2426e-05,-44.754,-8.0056e-05,-814.76,1.7534
3454,20.168,1.8182,0,7.95e-05,794.45,2.8865e-05,0.047117,2.1681e-05,-53.929,-8.0278e-05,-820.01,1.7535
3455,20.168,2,0,7.9614e-05,795.59,2.9315e-05,0.04527,2.0981e-05,-62.574,-8.0492e-05,-825,1.7536
3456,20.168,2.1818,0,7.9726e-05,796.71,2.9721e-05,0.043637,2.0352e-05,-70.349,-8.0688e-05,-829.53,1.7537
3457,20.168,2.3636,0,7.983e-05,797.75,3.0067e-05,0.04232,1.982e-05,-76.951,-8.0859e-05,-833.41,1.7537
3458,20.168,2.5455,0,7.9917e-05,798.61,3.0339e-05,0.041359,1.9403e-05,-82.128,-8.0995e-05,-836.48,1.7537
3459,20.168,2.7273,0,7.9979e-05,799.24,3.0527e-05,0.040746,1.9117e-05,-85.687,-8.1091e-05,-838.61,1.7538
3460,20.168,2.9091,0,8.0012e-05,799.57,3.0623e-05,0.040454,1.8972e-05,-87.499,-8.114e-05,-839.7,1.7538
3461,20.168,3.0909,0,8.0012e-05,799.57,3.0623e-05,0.040454,1.8972e-05,-87.499,-8.114e-05,-839.7,1.7538
3462,20.168,3.2727,0,7.9979e-05,799.24,3.0527e-05,0.040748,1.9117e-05,-85.687,-8.1091e-05,-838.61,1.7538
3463,20.168,3.4545,0,7.9917e-05,798.61,3.0339e-05,0.041359,1.9403e-05,-82.128,-8.0995e-05,-836.48,1.7537
3464,20.168,3.6364,0,7.983e-05,797.75,3.0067e-05,0.042319,1.982e-05,-76.951,-8.0859e-05,-833.41,1.7537
3465,20.168,3.8182,0,7.9726e-05,796.71,2.9721e-05,0.043637,2.0352e-05,-70.349,-8.0688e-05,-829.53,1.7537
3466,20.168,4,0,7.9614e-05,795.59,2.9315e-05,0.045269,2.0981e-05,-62.574,-8.0492e-05,-825,1.7536
3467,20.168,4.1818,0,7.95e-05,794.45,2.8865e-05,0.047117,2.1681e-05,-53.929,-8.0278e-05,-820.01,1.7535
3468,20.168,4.3636,0,7.939e-05,793.36,2.8388e-05,0.049023,2.2426e-05,-44.754,-8.0056e-05,-814.76,1.7534
3469,20.168,4.5455,0,7.9291e-05,792.36,2.7904e-05,0.050825,2.3185e-05,-35.409,-7.9833e-05,-809.44,1.7533
3470,20.168,4.7273,0,7.9205e-05,791.5,2.7432e-05,0.052443,2.393e-05,-26.254,-7.9618e-05,-804.28,1.7532
3471,20.168,4.9091,0,7.9136e-05,790.81,2.6988e-05,0.054106,2.4634e-05,-17.631,-7.942e-05,-799.45,1.7531
3472,20.168,5.0909,0,7.9086e-05,790.32,2.6589e-05,0.057622,2.5271e-05,-9.8469,-7.9248e-05,-795.16,1.7529
3473,20.168,5.2727,0,7.906e-05,790.05,2.6253e-05,0.079514,2.5821e-05,-3.1722,-7.9112e-05,-791.6,1.7527
3474,20.168,5.4545,0,7.9062e-05,790.08,2.6287e-05,2.3437,2.5973e-05,-0.017968,-7.9022e-05,-788.91,1.7525
3475,20.168,5.6364,0,7.9107e-05,790.53,2.6639e-05,6.3935,2.5788e-05,0.001523,-7.8996e-05,-787.31,1.7523
3476,20.168,5.8182,0,7.936e-05,793.05,2.7034e-05,10.137,2.5685e-05,-0.0028822,-7.9183e-05,-787.94,1.7521
3477,20.351,0.18182,0,7.6089e-05,760.36,2.5961e-05,10.218,2.4601e-05,-0.0020086,-7.591e-05,-755.2,1.7784
3478,20.351,0.36364,0,7.5777e-05,757.25,2.5547e-05,6.4803,2.4685e-05,0.0054127,-7.5665e-05,-753.98,1.7786
3479,20.351,0.54545,0,7.5673e-05,756.21,2.5201e-05,2.7488,2.4836e-05,0.0057377,-7.5626e-05,-754.83,1.7788
3480,20.351,0.72727,0,7.5608e-05,755.56,2.506e-05,0.062819,2.4772e-05,-2.1049,-7.5643e-05,-756.58,1.779
3481,20.351,0.90909,0,7.5567e-05,755.15,2.5332e-05,0.046429,2.4272e-05,-7.9174,-7.5698e-05,-759.05,1.7792
3482,20.351,1.0909,0,7.5544e-05,754.92,2.5655e-05,0.045488,2.3701e-05,-14.634,-7.5781e-05,-762.1,1.7793
3483,20.351,1.2727,0,7.5535e-05,754.83,2.6014e-05,0.045334,2.3075e-05,-22.035,-7.5885e-05,-765.59,1.7795
3484,20.351,1.4545,0,7.554e-05,754.88,2.6397e-05,0.044799,2.2415e-05,-29.872,-7.6003e-05,-769.35,1.7796
3485,20.351,1.6364,0,7.5555e-05,755.03,2.6789e-05,0.043833,2.1743e-05,-37.864,-7.6127e-05,-773.22,1.7797
3486,20.351,1.8182,0,7.5579e-05,755.26,2.7174e-05,0.042567,2.1085e-05,-45.711,-7.6251e-05,-777.06,1.7798
3487,20.351,2,0,7.5609e-05,755.57,2.7539e-05,0.041183,2.0465e-05,-53.111,-7.6371e-05,-780.7,1.7799
3488,20.351,2.1818,0,7.5643e-05,755.91,2.7868e-05,0.039851,1.9907e-05,-59.776,-7.6481e-05,-784,1.7799
3489,20.351,2.3636,0,7.5677e-05,756.25,2.8148e-05,0.038691,1.9433e-05,-65.446,-7.6576e-05,-786.82,1.78
3490,20.351,2.5455,0,7.5707e-05,756.55,2.8369e-05,0.037787,1.9061e-05,-69.899,-7.6653e-05,-789.05,1.78
3491,20.351,2.7273,0,7.573e-05,756.77,2.8521e-05,0.037177,1.8805e-05,-72.966,-7.6706e-05,-790.59,1.78
3492,20.351,2.9091,0,7.5742e-05,756.9,2.8598e-05,0.036869,1.8674e-05,-74.529,-7.6733e-05,-791.38,1.7801
3493,20.351,3.0909,0,7.5742e-05,756.9,2.8598e-05,0.03687,1.8674e-05,-74.529,-7.6733e-05,-791.38,1.7801
3494,20.351,3.2727,0,7.573e-05,756.77,2.8521e-05,0.037175,1.8805e-05,-72.966,-7.6706e-05,-790.59,1.78
3495,20.351,3.4545,0,7.5707e-05,756.55,2.8369e-05,0.037786,1.9061e-05,-69.899,-7.6653e-05,-789.05,1.78
3496,20.351,3.6364,0,7.5677e-05,756.25,2.8148e-05,0.038691,1.9433e-05,-65.446,-7.6576e-05,-786.82,1.78
3497,20.351,3.8182,0,7.5643e-05,755.91,2.7868e-05,0.039851,1.9907e-05,-59.776,-7.6481e-05,-784,1.7799
3498,20.351,4,0,7.5609e-05,755.57,2.7539e-05,0.041184,2.0465e-05,-53.111,-7.6371e-05,-780.7,1.7799
3499,20.351,4.1818,0,7.5579e-05,755.26,2.7174e-05,0.042568,2.1085e-05,-45.711,-7.6251e-05,-777.06,1.7798
3500,20.351,4.3636,0,7.5555e-05,755.03,2.6789e-05,0.043833,2.1743e-05,-37.864,-7.6127e-05,-773.22,1.7797
3501,20.351,4.5455,0,7.554e-05,754.88,2.6397e-05,0.0448,2.2415e-05,-29.872,-7.6003e-05,-769.35,1.7796
3502,20.351,4.7273,0,7.5535e-05,754.83,2.6014e-05,0.045333,2.3075e-05,-22.035,-7.5885e-05,-765.59,1.7795
3503,20.351,4.9091,0,7.5544e-05,754.92,2.5655e-05,0.045489,2.3701e-05,-14.634,-7.5781e-05,-762.1,1.7793
3504,20.351,5.0909,0,7.5567e-05,755.15,2.5332e-05,0.046429,2.4272e-05,-7.9174,-7.5698e-05,-759.05,1.7792
3505,20.351,5.2727,0,7.5608e-05,755.56,2.506e-05,0.062819,2.4772e-05,-2.1048,-7.5643e-05,-756.58,1.779
3506,20.351,5.4545,0,7.5673e-05,756.21,2.5201e-05,2.7488,2.4836e-05,0.0057372,-7.5626e-05,-754.83,1.7788
3507,20.351,5.6364,0,7.5777e-05,757.25,2.5547e-05,6.4803,2.4685e-05,0.0054111,-7.5665e-05,-753.98,1.7786
3508,20.351,5.8182,0,7.6089e-05,760.36,2.5961e-05,10.218,2.4601e-05,-0.0020065,-7.591e-05,-755.2,1.7784
3509,20.533,0.18182,0,7.2662e-05,726.11,2.4855e-05,10.516,2.3455e-05,-0.0014293,-7.2477e-05,-720.8,1.8048
3510,20.533,0.36364,0,7.2308e-05,722.58,2.4436e-05,6.8826,2.3521e-05,0.0064373,-7.2189e-05,-719.12,1.805
3511,20.533,0.54545,0,7.2167e-05,721.17,2.411e-05,3.5391,2.3641e-05,0.01509,-7.2106e-05,-719.39,1.8052
3512,20.533,0.72727,0,7.2063e-05,720.13,2.382e-05,0.068316,2.3721e-05,-0.67341,-7.2073e-05,-720.43,1.8054
3513,20.533,0.90909,0,7.1979e-05,719.3,2.4035e-05,0.038766,2.3281e-05,-5.6266,-7.2073e-05,-722.07,1.8055
3514,20.533,1.0909,0,7.1911e-05,718.62,2.4293e-05,0.039323,2.278e-05,-11.327,-7.2097e-05,-724.19,1.8057
3515,20.533,1.2727,0,7.1855e-05,718.06,2.4581e-05,0.04017,2.2235e-05,-17.585,-7.2137e-05,-726.67,1.8058
3516,20.533,1.4545,0,7.1809e-05,717.59,2.4889e-05,0.040405,2.1663e-05,-24.201,-7.2189e-05,-729.36,1.8059
3517,20.533,1.6364,0,7.1771e-05,717.21,2.5204e-05,0.040064,2.108e-05,-30.944,-7.2246e-05,-732.16,1.806
3518,20.533,1.8182,0,7.1741e-05,716.91,2.5514e-05,0.039301,2.0509e-05,-37.569,-7.2305e-05,-734.94,1.8061
3519,20.533,2,0,7.1718e-05,716.69,2.5808e-05,0.038307,1.997e-05,-43.824,-7.2362e-05,-737.57,1.8062
3520,20.533,2.1818,0,7.1702e-05,716.53,2.6073e-05,0.037251,1.9484e-05,-49.466,-7.2415e-05,-739.96,1.8062
3521,20.533,2.3636,0,7.1692e-05,716.42,2.6299e-05,0.036274,1.9071e-05,-54.272,-7.246e-05,-742,1.8063
3522,20.533,2.5455,0,7.1686e-05,716.36,2.6477e-05,0.03547,1.8745e-05,-58.053,-7.2496e-05,-743.6,1.8063
3523,20.533,2.7273,0,7.1683e-05,716.33,2.6599e-05,0.034904,1.8521e-05,-60.66,-7.2521e-05,-744.71,1.8064
3524,20.533,2.9091,0,7.1681e-05,716.32,2.6662e-05,0.034614,1.8407e-05,-61.99,-7.2534e-05,-745.28,1.8064
3525,20.533,3.0909,0,7.1681e-05,716.32,2.6662e-05,0.034613,1.8407e-05,-61.99,-7.2534e-05,-745.28,1.8064
3526,20.533,3.2727,0,7.1683e-05,716.33,2.6599e-05,0.034905,1.8521e-05,-60.66,-7.2521e-05,-744.71,1.8064
3527,20.533,3.4545,0,7.1686e-05,716.36,2.6477e-05,0.03547,1.8745e-05,-58.053,-7.2496e-05,-743.6,1.8063
3528,20.533,3.6364,0,7.1692e-05,716.42,2.6299e-05,0.036273,1.9071e-05,-54.272,-7.246e-05,-742,1.8063
3529,20.533,3.8182,0,7.1702e-05,716.53,2.6073e-05,0.037252,1.9484e-05,-49.466,-7.2415e-05,-739.96,1.8062
3530,20.533,4,0,7.1718e-05,716.69,2.5808e-05,0.038307,1.997e-05,-43.824,-7.2362e-05,-737.57,1.8062
3531,20.533,4.1818,0,7.1741e-05,716.91,2.5514e-05,0.039301,2.0509e-05,-37.569,-7.2305e-05,-734.94,1.8061
3532,20.533,4.3636,0,7.1771e-05,717.21,2.5204e-05,0.040063,2.108e-05,-30.944,-7.2246e-05,-732.16,1.806
3533,20.533,4.5455,0,7.1809e-05,717.59,2.4889e-05,0.040405,2.1663e-05,-24.201,-7.2189e-05,-729.36,1.8059
3534,20.533,4.7273,0,7.1855e-05,718.06,2.4581e-05,0.04017,2.2235e-05,-17.585,-7.2137e-05,-726.67,1.8058
3535,20.533,4.9091,0,7.1911e-05,718.62,2.4293e-05,0.039321,2.278e-05,-11.327,-7.2097e-05,-724.19,1.8057
3536,20.533,5.0909,0,7.1979e-05,719.3,2.4035e-05,0.038764,2.3281e-05,-5.6266,-7.2073e-05,-722.07,1.8055
3537,20.533,5.2727,0,7.2063e-05,720.13,2.382e-05,0.068321,2.3721e-05,-0.67339,-7.2073e-05,-720.43,1.8054
3538,20.533,5.4545,0,7.2167e-05,721.17,2.411e-05,3.5391,2.3641e-05,0.01509,-7.2106e-05,-719.39,1.8052
3539,20.533,5.6364,0,7.2308e-05,722.58,2.4436e-05,6.8826,2.3521e-05,0.0064394,-7.2189e-05,-719.12,1.805
3540,20.533,5.8182,0,7.2662e-05,726.12,2.4855e-05,10.516,2.3455e-05,-0.0014286,-7.2477e-05,-720.8,1.8048
3541,20.716,0.18182,0,6.9116e-05,690.68,2.3725e-05,10.998,2.2261e-05,-0.0012415,-6.8922e-05,-685.12,1.8312
3542,20.716,0.36364,0,6.8736e-05,686.88,2.3313e-05,7.5581,2.2308e-05,0.0053095,-6.8604e-05,-683.07,1.8314
3543,20.716,0.54545,0,6.8574e-05,685.27,2.3018e-05,4.6621,2.2399e-05,0.016594,-6.8493e-05,-682.92,1.8316
3544,20.716,0.72727,0,6.8449e-05,684.02,2.2684e-05,1.157,2.2532e-05,0.015424,-6.8429e-05,-683.44,1.8317
3545,20.716,0.90909,0,6.8345e-05,682.98,2.2706e-05,0.033855,2.23e-05,-3.0158,-6.8395e-05,-684.46,1.8319
3546,20.716,1.0909,0,6.8254e-05,682.07,2.2909e-05,0.034987,2.1874e-05,-7.7461,-6.8382e-05,-685.89,1.832
3547,20.716,1.2727,0,6.8173e-05,681.26,2.3138e-05,0.036513,2.1412e-05,-12.93,-6.8383e-05,-687.62,1.8322
3548,20.716,1.4545,0,6.81e-05,680.53,2.3382e-05,0.03732,2.0927e-05,-18.411,-6.8394e-05,-689.53,1.8323
3549,20.716,1.6364,0,6.8034e-05,679.87,2.3633e-05,0.037458,2.0433e-05,-24.003,-6.8409e-05,-691.53,1.8324
3550,20.716,1.8182,0,6.7974e-05,679.27,2.388e-05,0.037103,1.9948e-05,-29.504,-6.8427e-05,-693.52,1.8325
3551,20.716,2,0,6.7921e-05,678.75,2.4114e-05,0.036441,1.949e-05,-34.707,-6.8445e-05,-695.41,1.8326
3552,20.716,2.1818,0,6.7877e-05,678.3,2.4326e-05,0.035637,1.9076e-05,-39.409,-6.8461e-05,-697.13,1.8326
3553,20.716,2.3636,0,6.7841e-05,677.94,2.4507e-05,0.034838,1.8723e-05,-43.422,-6.8474e-05,-698.59,1.8327
3554,20.716,2.5455,0,6.7813e-05,677.67,2.4649e-05,0.034151,1.8444e-05,-46.584,-6.8485e-05,-699.74,1.8327
3555,20.716,2.7273,0,6.7795e-05,677.48,2.4747e-05,0.033654,1.8252e-05,-48.767,-6.8492e-05,-700.53,1.8327
3556,20.716,2.9091,0,6.7786e-05,677.39,2.4797e-05,0.033394,1.8154e-05,-49.881,-6.8496e-05,-700.93,1.8327
3557,20.716,3.0909,0,6.7786e-05,677.39,2.4797e-05,0.033395,1.8154e-05,-49.881,-6.8496e-05,-700.93,1.8327
3558,20.716,3.2727,0,6.7795e-05,677.48,2.4747e-05,0.033654,1.8252e-05,-48.767,-6.8492e-05,-700.53,1.8327
3559,20.716,3.4545,0,6.7813e-05,677.67,2.4649e-05,0.034151,1.8444e-05,-46.584,-6.8485e-05,-699.74,1.8327
3560,20.716,3.6364,0,6.7841e-05,677.94,2.4507e-05,0.034838,1.8723e-05,-43.422,-6.8474e-05,-698.59,1.8327
3561,20.716,3.8182,0,6.7877e-05,678.3,2.4326e-05,0.035637,1.9076e-05,-39.409,-6.8461e-05,-697.13,1.8326
3562,20.716,4,0,6.7921e-05,678.75,2.4114e-05,0.03644,1.949e-05,-34.707,-6.8445e-05,-695.41,1.8326
3563,20.716,4.1818,0,6.7974e-05,679.27,2.388e-05,0.037104,1.9948e-05,-29.504,-6.8427e-05,-693.52,1.8325
3564,20.716,4.3636,0,6.8034e-05,679.87,2.3633e-05,0.037459,2.0433e-05,-24.002,-6.8409e-05,-691.53,1.8324
3565,20.716,4.5455,0,6.81e-05,680.53,2.3382e-05,0.03732,2.0927e-05,-18.411,-6.8394e-05,-689.53,1.8323
3566,20.716,4.7273,0,6.8173e-05,681.26,2.3138e-05,0.036513,2.1412e-05,-12.93,-6.8383e-05,-687.62,1.8322
3567,20.716,4.9091,0,6.8254e-05,682.07,2.2909e-05,0.034987,2.1874e-05,-7.7461,-6.8382e-05,-685.89,1.832
3568,20.716,5.0909,0,6.8345e-05,682.98,2.2706e-05,0.033853,2.23e-05,-3.0158,-6.8395e-05,-684.46,1.8319
3569,20.716,5.2727,0,6.8449e-05,684.02,2.2684e-05,1.157,2.2532e-05,0.015423,-6.8429e-05,-683.44,1.8317
3570,20.716,5.4545,0,6.8574e-05,685.27,2.3018e-05,4.6621,2.2399e-05,0.016596,-6.8493e-05,-682.92,1.8316
3571,20.716,5.6364,0,6.8736e-05,686.88,2.3313e-05,7.5581,2.2308e-05,0.0053131,-6.8604e-05,-683.07,1.8314
3572,20.716,5.8182,0,6.9116e-05,690.68,2.3725e-05,10.998,2.2261e-05,-0.0012429,-6.8922e-05,-685.12,1.8312
3573,20.898,0.18182,0,6.5481e-05,654.35,2.2578e-05,11.635,2.103e-05,-0.0014802,-6.5275e-05,-648.46,1.8576
3574,20.898,0.36364,0,6.5086e-05,650.42,2.2185e-05,8.468,2.1058e-05,0.0027577,-6.4938e-05,-646.14,1.8578
3575,20.898,0.54545,0,6.4919e-05,648.74,2.1929e-05,6.0707,2.1123e-05,0.015142,-6.4813e-05,-645.68,1.858
3576,20.898,0.72727,0,6.479e-05,647.45,2.1649e-05,3.2283,2.1222e-05,0.020771,-6.4734e-05,-645.82,1.8582
3577,20.898,0.90909,0,6.4681e-05,646.36,2.1356e-05,0.053021,2.133e-05,-0.14328,-6.4682e-05,-646.41,1.8583
3578,20.898,1.0909,0,6.4585e-05,645.4,2.151e-05,0.032243,2.0983e-05,-3.9204,-6.465e-05,-647.34,1.8585
3579,20.898,1.2727,0,6.4497e-05,644.53,2.1686e-05,0.034133,2.0605e-05,-8.0915,-6.463e-05,-648.52,1.8586
3580,20.898,1.4545,0,6.4416e-05,643.71,2.1877e-05,0.035357,2.0207e-05,-12.513,-6.4619e-05,-649.86,1.8587
3581,20.898,1.6364,0,6.4339e-05,642.95,2.2073e-05,0.035873,1.9801e-05,-17.039,-6.4611e-05,-651.28,1.8588
3582,20.898,1.8182,0,6.4268e-05,642.24,2.2268e-05,0.035849,1.9401e-05,-21.506,-6.4606e-05,-652.7,1.8589
3583,20.898,2,0,6.4203e-05,641.59,2.2452e-05,0.03546,1.9021e-05,-25.745,-6.4601e-05,-654.05,1.859
3584,20.898,2.1818,0,6.4145e-05,641.01,2.2619e-05,0.034878,1.8677e-05,-29.586,-6.4597e-05,-655.27,1.859
3585,20.898,2.3636,0,6.4097e-05,640.53,2.2762e-05,0.034244,1.8383e-05,-32.873,-6.4592e-05,-656.32,1.8591
3586,20.898,2.5455,0,6.406e-05,640.16,2.2875e-05,0.033675,1.815e-05,-35.467,-6.4589e-05,-657.13,1.8591
3587,20.898,2.7273,0,6.4034e-05,639.9,2.2953e-05,0.033248,1.7989e-05,-37.261,-6.4586e-05,-657.7,1.8591
3588,20.898,2.9091,0,6.4021e-05,639.77,2.2993e-05,0.033023,1.7907e-05,-38.178,-6.4584e-05,-657.98,1.8591
3589,20.898,3.0909,0,6.4021e-05,639.77,2.2993e-05,0.033024,1.7907e-05,-38.178,-6.4584e-05,-657.98,1.8591
3590,20.898,3.2727,0,6.4034e-05,639.9,2.2953e-05,0.033249,1.7989e-05,-37.261,-6.4586e-05,-657.7,1.8591
3591,20.898,3.4545,0,6.406e-05,640.16,2.2875e-05,0.033674,1.815e-05,-35.467,-6.4589e-05,-657.13,1.8591
3592,20.898,3.6364,0,6.4097e-05,640.53,2.2762e-05,0.034245,1.8383e-05,-32.872,-6.4592e-05,-656.32,1.8591
3593,20.898,3.8182,0,6.4145e-05,641.01,2.2619e-05,0.034877,1.8677e-05,-29.586,-6.4597e-05,-655.27,1.859
3594,20.898,4,0,6.4203e-05,641.59,2.2452e-05,0.03546,1.9021e-05,-25.745,-6.4601e-05,-654.05,1.859
3595,20.898,4.1818,0,6.4268e-05,642.24,2.2268e-05,0.035847,1.9401e-05,-21.506,-6.4606e-05,-652.7,1.8589
3596,20.898,4.3636,0,6.4339e-05,642.95,2.2073e-05,0.035874,1.9801e-05,-17.039,-6.4611e-05,-651.28,1.8588
3597,20.898,4.5455,0,6.4416e-05,643.71,2.1877e-05,0.035356,2.0207e-05,-12.513,-6.4619e-05,-649.86,1.8587
3598,20.898,4.7273,0,6.4497e-05,644.53,2.1686e-05,0.034133,2.0605e-05,-8.0914,-6.463e-05,-648.52,1.8586
3599,20.898,4.9091,0,6.4585e-05,645.4,2.151e-05,0.032244,2.0983e-05,-3.9204,-6.465e-05,-647.34,1.8585
3600,20.898,5.0909,0,6.4681e-05,646.36,2.1356e-05,0.053025,2.133e-05,-0.14326,-6.4682e-05,-646.41,1.8583
3601,20.898,5.2727,0,6.479e-05,647.45,2.1649e-05,3.2283,2.1222e-05,0.020768,-6.4734e-05,-645.82,1.8582
3602,20.898,5.4545,0,6.4919e-05,648.74,2.1929e-05,6.0707,2.1123e-05,0.015142,-6.4813e-05,-645.68,1.858
3603,20.898,5.6364,0,6.5086e-05,650.42,2.2185e-05,8.468,2.1058e-05,0.0027606,-6.4938e-05,-646.14,1.8578
3604,20.898,5.8182,0,6.5481e-05,654.35,2.2578e-05,11.635,2.103e-05,-0.0014778,-6.5275e-05,-648.46,1.8576
3605,21.081,0.18182,0,6.1779e-05,617.37,2.142e-05,12.399,1.977e-05,-0.0021581,-6.1559e-05,-611.08,1.8841
3606,21.081,0.36364,0,6.1382e-05,613.4,2.1054e-05,9.5772,1.978e-05,-0.00068013,-6.1213e-05,-608.55,1.8843
3607,21.081,0.54545,0,6.1221e-05,611.79,2.0847e-05,7.7251,1.982e-05,0.012929,-6.1086e-05,-607.88,1.8845
3608,21.081,0.72727,0,6.11e-05,610.58,2.0627e-05,5.5694,1.9888e-05,0.019242,-6.1003e-05,-607.77,1.8847
3609,21.081,0.90909,0,6.1e-05,609.58,2.0382e-05,3.0315,1.9982e-05,0.024566,-6.0948e-05,-608.05,1.8848
3610,21.081,1.0909,0,6.0913e-05,608.71,2.0114e-05,0.1513,2.0094e-05,0.006069,-6.091e-05,-608.63,1.8849
3611,21.081,1.2727,0,6.0833e-05,607.91,2.023e-05,0.033283,1.9815e-05,-3.0829,-6.0884e-05,-609.43,1.8851
3612,21.081,1.4545,0,6.0757e-05,607.16,2.0375e-05,0.034534,1.9503e-05,-6.5114,-6.0865e-05,-610.37,1.8852
3613,21.081,1.6364,0,6.0685e-05,606.43,2.0525e-05,0.035281,1.9183e-05,-10.047,-6.0849e-05,-611.37,1.8853
3614,21.081,1.8182,0,6.0616e-05,605.74,2.0674e-05,0.035488,1.8865e-05,-13.561,-6.0834e-05,-612.39,1.8854
3615,21.081,2,0,6.0551e-05,605.09,2.0817e-05,0.035307,1.8561e-05,-16.913,-6.082e-05,-613.35,1.8854
3616,21.081,2.1818,0,6.0492e-05,604.51,2.0946e-05,0.034898,1.8284e-05,-19.966,-6.0807e-05,-614.22,1.8855
3617,21.081,2.3636,0,6.0442e-05,604.01,2.1057e-05,0.034398,1.8046e-05,-22.589,-6.0794e-05,-614.97,1.8855
3618,21.081,2.5455,0,6.0403e-05,603.61,2.1145e-05,0.033924,1.7858e-05,-24.666,-6.0784e-05,-615.55,1.8856
3619,21.081,2.7273,0,6.0375e-05,603.33,2.1206e-05,0.033562,1.7727e-05,-26.105,-6.0776e-05,-615.95,1.8856
3620,21.081,2.9091,0,6.0361e-05,603.19,2.1237e-05,0.033365,1.766e-05,-26.841,-6.0772e-05,-616.15,1.8856
3621,21.081,3.0909,0,6.0361e-05,603.19,2.1237e-05,0.033366,1.766e-05,-26.841,-6.0772e-05,-616.15,1.8856
3622,21.081,3.2727,0,6.0375e-05,603.33,2.1206e-05,0.03356,1.7727e-05,-26.105,-6.0776e-05,-615.95,1.8856
3623,21.081,3.4545,0,6.0403e-05,603.61,2.1145e-05,0.033925,1.7858e-05,-24.666,-6.0784e-05,-615.55,1.8856
3624,21.081,3.6364,0,6.0442e-05,604.01,2.1057e-05,0.034399,1.8046e-05,-22.589,-6.0794e-05,-614.97,1.8855
3625,21.081,3.8182,0,6.0492e-05,604.51,2.0946e-05,0.034898,1.8284e-05,-19.966,-6.0807e-05,-614.22,1.8855
3626,21.081,4,0,6.0551e-05,605.09,2.0817e-05,0.035307,1.8561e-05,-16.913,-6.082e-05,-613.35,1.8854
3627,21.081,4.1818,0,6.0616e-05,605.74,2.0674e-05,0.035488,1.8865e-05,-13.56,-6.0834e-05,-612.39,1.8854
3628,21.081,4.3636,0,6.0685e-05,606.43,2.0525e-05,0.035282,1.9183e-05,-10.047,-6.0849e-05,-611.37,1.8853
3629,21.081,4.5455,0,6.0757e-05,607.16,2.0375e-05,0.034534,1.9503e-05,-6.5114,-6.0865e-05,-610.37,1.8852
3630,21.081,4.7273,0,6.0833e-05,607.91,2.023e-05,0.033283,1.9815e-05,-3.0829,-6.0884e-05,-609.43,1.8851
3631,21.081,4.9091,0,6.0913e-05,608.71,2.0114e-05,0.15132,2.0094e-05,0.0060771,-6.091e-05,-608.63,1.8849
3632,21.081,5.0909,0,6.1e-05,609.58,2.0382e-05,3.0315,1.9982e-05,0.024563,-6.0948e-05,-608.05,1.8848
3633,21.081,5.2727,0,6.11e-05,610.58,2.0627e-05,5.5694,1.9888e-05,0.01924,-6.1003e-05,-607.77,1.8847
3634,21.081,5.4545,0,6.1221e-05,611.79,2.0847e-05,7.7251,1.982e-05,0.012928,-6.1086e-05,-607.88,1.8845
3635,21.081,5.6364,0,6.1382e-05,613.4,2.1054e-05,9.5772,1.978e-05,-0.00067825,-6.1213e-05,-608.55,1.8843
3636,21.081,5.8182,0,6.1779e-05,617.37,2.142e-05,12.399,1.977e-05,-0.002158,-6.1559e-05,-611.08,1.8841
3637,21.263,0.18182,0,5.803e-05,579.9,2.0255e-05,13.266,1.8489e-05,-0.0032971,-5.7793e-05,-573.16,1.9107
3638,21.263,0.36364,0,5.7639e-05,575.99,1.9926e-05,10.855,1.848e-05,-0.0046657,-5.7447e-05,-570.49,1.9108
3639,21.263,0.54545,0,5.7495e-05,574.55,1.9772e-05,9.5924,1.8497e-05,0.010774,-5.7326e-05,-569.69,1.911
3640,21.263,0.72727,0,5.7394e-05,573.54,1.9618e-05,8.1438,1.8537e-05,0.017503,-5.7251e-05,-569.42,1.9112
3641,21.263,0.90909,0,5.7314e-05,572.74,1.9447e-05,6.4086,1.8597e-05,0.023639,-5.7202e-05,-569.5,1.9113
3642,21.263,1.0909,0,5.7247e-05,572.07,1.9256e-05,4.3808,1.8676e-05,0.0277,-5.717e-05,-569.85,1.9114
3643,21.263,1.2727,0,5.7185e-05,571.46,1.9044e-05,2.0916,1.877e-05,0.029562,-5.7149e-05,-570.4,1.9116
3644,21.263,1.4545,0,5.7127e-05,570.88,1.8876e-05,0.045101,1.8815e-05,-0.41493,-5.7133e-05,-571.06,1.9117
3645,21.263,1.6364,0,5.7069e-05,570.3,1.8985e-05,0.036733,1.8579e-05,-3.0174,-5.7119e-05,-571.78,1.9118
3646,21.263,1.8182,0,5.7012e-05,569.73,1.9096e-05,0.036435,1.834e-05,-5.6468,-5.7106e-05,-572.52,1.9118
3647,21.263,2,0,5.6957e-05,569.18,1.9203e-05,0.036168,1.8109e-05,-8.1836,-5.7092e-05,-573.21,1.9119
3648,21.263,2.1818,0,5.6906e-05,568.67,1.93e-05,0.035769,1.7896e-05,-10.514,-5.7077e-05,-573.84,1.912
3649,21.263,2.3636,0,5.6862e-05,568.22,1.9385e-05,0.035301,1.7712e-05,-12.53,-5.7064e-05,-574.37,1.912
3650,21.263,2.5455,0,5.6826e-05,567.86,1.9451e-05,0.03486,1.7565e-05,-14.135,-5.7052e-05,-574.78,1.9121
3651,21.263,2.7273,0,5.68e-05,567.61,1.9497e-05,0.034521,1.7463e-05,-15.25,-5.7044e-05,-575.06,1.9121
3652,21.263,2.9091,0,5.6787e-05,567.48,1.9521e-05,0.034337,1.7411e-05,-15.822,-5.7039e-05,-575.21,1.9121
3653,21.263,3.0909,0,5.6787e-05,567.48,1.9521e-05,0.034339,1.7411e-05,-15.822,-5.7039e-05,-575.21,1.9121
3654,21.263,3.2727,0,5.68e-05,567.61,1.9497e-05,0.034521,1.7463e-05,-15.25,-5.7044e-05,-575.06,1.9121
3655,21.263,3.4545,0,5.6826e-05,567.86,1.9451e-05,0.034861,1.7565e-05,-14.135,-5.7052e-05,-574.78,1.9121
3656,21.263,3.6364,0,5.6862e-05,568.22,1.9385e-05,0.035299,1.7712e-05,-12.53,-5.7064e-05,-574.37,1.912
3657,21.263,3.8182,0,5.6906e-05,568.67,1.93e-05,0.035767,1.7896e-05,-10.514,-5.7077e-05,-573.84,1.912
3658,21.263,4,0,5.6957e-05,569.18,1.9203e-05,0.03617,1.8109e-05,-8.1836,-5.7092e-05,-573.21,1.9119
3659,21.263,4.1818,0,5.7012e-05,569.73,1.9096e-05,0.036435,1.834e-05,-5.6467,-5.7106e-05,-572.52,1.9118
3660,21.263,4.3636,0,5.7069e-05,570.3,1.8985e-05,0.036733,1.8579e-05,-3.0174,-5.7119e-05,-571.78,1.9118
3661,21.263,4.5455,0,5.7127e-05,570.88,1.8876e-05,0.045104,1.8815e-05,-0.4149,-5.7133e-05,-571.06,1.9117
3662,21.263,4.7273,0,5.7185e-05,571.46,1.9044e-05,2.0916,1.877e-05,0.02956,-5.7149e-05,-570.4,1.9116
3663,21.263,4.9091,0,5.7247e-05,572.07,1.9256e-05,4.3808,1.8676e-05,0.0277,-5.717e-05,-569.85,1.9114
3664,21.263,5.0909,0,5.7314e-05,572.74,1.9447e-05,6.4086,1.8597e-05,0.023638,-5.7202e-05,-569.5,1.9113
3665,21.263,5.2727,0,5.7394e-05,573.54,1.9618e-05,8.1438,1.8537e-05,0.017501,-5.7251e-05,-569.42,1.9112
3666,21.263,5.4545,0,5.7495e-05,574.55,1.9772e-05,9.5924,1.8497e-05,0.010776,-5.7326e-05,-569.69,1.911
3667,21.263,5.6364,0,5.7639e-05,575.99,1.9926e-05,10.855,1.848e-05,-0.0046645,-5.7447e-05,-570.49,1.9108
3668,21.263,5.8182,0,5.803e-05,579.9,2.0255e-05,13.266,1.8489e-05,-0.0032977,-5.7793e-05,-573.16,1.9107
3669,21.446,0.18182,0,5.4248e-05,542.1,1.9085e-05,14.212,1.7193e-05,-0.0049029,-5.3992e-05,-534.86,1.9372
3670,21.446,0.36364,0,5.3871e-05,538.34,1.88e-05,12.276,1.7165e-05,-0.0089992,-5.3652e-05,-532.1,1.9374
3671,21.446,0.54545,0,5.3753e-05,537.16,1.8708e-05,11.646,1.7159e-05,0.0089593,-5.3545e-05,-531.24,1.9376
3672,21.446,0.72727,0,5.368e-05,536.43,1.8624e-05,10.927,1.7172e-05,0.016217,-5.3486e-05,-530.88,1.9377
3673,21.446,0.90909,0,5.363e-05,535.93,1.853e-05,9.9978,1.7202e-05,0.023031,-5.3453e-05,-530.85,1.9379
3674,21.446,1.0909,0,5.3592e-05,535.55,1.842e-05,8.8274,1.7249e-05,0.027671,-5.3436e-05,-531.07,1.938
3675,21.446,1.2727,0,5.3559e-05,535.22,1.8292e-05,7.4226,1.7308e-05,0.030858,-5.3428e-05,-531.46,1.9381
3676,21.446,1.4545,0,5.3526e-05,534.89,1.8147e-05,5.8185,1.7377e-05,0.032694,-5.3424e-05,-531.95,1.9382
3677,21.446,1.6364,0,5.3492e-05,534.55,1.7991e-05,4.074,1.7453e-05,0.033317,-5.3421e-05,-532.48,1.9383
3678,21.446,1.8182,0,5.3455e-05,534.18,1.7828e-05,2.2668,1.753e-05,0.032275,-5.3415e-05,-533.03,1.9384
3679,21.446,2,0,5.3417e-05,533.8,1.7668e-05,0.49591,1.7604e-05,0.018907,-5.3408e-05,-533.54,1.9385
3680,21.446,2.1818,0,5.3379e-05,533.42,1.7678e-05,0.041905,1.7513e-05,-1.1948,-5.3399e-05,-534,1.9385
3681,21.446,2.3636,0,5.3345e-05,533.08,1.7738e-05,0.038119,1.738e-05,-2.6524,-5.3389e-05,-534.38,1.9386
3682,21.446,2.5455,0,5.3317e-05,532.8,1.7787e-05,0.036866,1.7273e-05,-3.8256,-5.338e-05,-534.68,1.9386
3683,21.446,2.7273,0,5.3297e-05,532.6,1.7821e-05,0.036215,1.7197e-05,-4.6469,-5.3373e-05,-534.89,1.9386
3684,21.446,2.9091,0,5.3286e-05,532.49,1.7838e-05,0.035914,1.7158e-05,-5.0695,-5.337e-05,-534.99,1.9386
3685,21.446,3.0909,0,5.3286e-05,532.49,1.7838e-05,0.035913,1.7158e-05,-5.0695,-5.337e-05,-534.99,1.9386
3686,21.446,3.2727,0,5.3297e-05,532.6,1.7821e-05,0.036216,1.7197e-05,-4.6469,-5.3373e-05,-534.89,1.9386
3687,21.446,3.4545,0,5.3317e-05,532.8,1.7787e-05,0.036866,1.7273e-05,-3.8256,-5.338e-05,-534.68,1.9386
3688,21.446,3.6364,0,5.3345e-05,533.08,1.7738e-05,0.038117,1.738e-05,-2.6524,-5.3389e-05,-534.38,1.9386
3689,21.446,3.8182,0,5.3379e-05,533.42,1.7678e-05,0.041909,1.7513e-05,-1.1948,-5.3399e-05,-534,1.9385
3690,21.446,4,0,5.3417e-05,533.8,1.7668e-05,0.49594,1.7604e-05,0.018904,-5.3408e-05,-533.54,1.9385
3691,21.446,4.1818,0,5.3455e-05,534.18,1.7828e-05,2.2668,1.753e-05,0.032274,-5.3415e-05,-533.03,1.9384
3692,21.446,4.3636,0,5.3492e-05,534.55,1.7991e-05,4.0741,1.7453e-05,0.033316,-5.3421e-05,-532.48,1.9383
3693,21.446,4.5455,0,5.3526e-05,534.89,1.8147e-05,5.8185,1.7377e-05,0.032695,-5.3425e-05,-531.95,1.9382
3694,21.446,4.7273,0,5.3559e-05,535.22,1.8292e-05,7.4226,1.7308e-05,0.030858,-5.3428e-05,-531.46,1.9381
3695,21.446,4.9091,0,5.3592e-05,535.55,1.842e-05,8.8274,1.7249e-05,0.027671,-5.3436e-05,-531.07,1.938
3696,21.446,5.0909,0,5.363e-05,535.93,1.853e-05,9.9978,1.7202e-05,0.023028,-5.3453e-05,-530.85,1.9379
3697,21.446,5.2727,0,5.368e-05,536.43,1.8624e-05,10.927,1.7172e-05,0.016213,-5.3486e-05,-530.88,1.9377
3698,21.446,5.4545,0,5.3753e-05,537.16,1.8708e-05,11.646,1.7159e-05,0.0089606,-5.3545e-05,-531.24,1.9376
3699,21.446,5.6364,0,5.3871e-05,538.34,1.88e-05,12.275,1.7165e-05,-0.0089963,-5.3652e-05,-532.1,1.9374
3700,21.446,5.8182,0,5.4248e-05,542.1,1.9085e-05,14.212,1.7193e-05,-0.0049026,-5.3992e-05,-534.86,1.9372
3701,21.628,0.18182,0,5.0442e-05,504.07,1.7912e-05,15.217,1.5886e-05,-0.0070148,-5.0166e-05,-496.29,1.9638
3702,21.628,0.36364,0,5.0087e-05,500.53,1.7679e-05,13.817,1.5839e-05,-0.013582,-4.9838e-05,-493.48,1.964
3703,21.628,0.54545,0,5.0004e-05,499.69,1.7655e-05,13.865,1.581e-05,0.0075524,-4.9753e-05,-492.61,1.9642
3704,21.628,0.72727,0,4.9968e-05,499.34,1.7646e-05,13.904,1.5797e-05,0.015472,-4.9717e-05,-492.24,1.9643
3705,21.628,0.90909,0,4.9956e-05,499.22,1.7632e-05,13.789,1.58e-05,0.023029,-4.9707e-05,-492.17,1.9644
3706,21.628,1.0909,0,4.9956e-05,499.21,1.7605e-05,13.466,1.5816e-05,0.028143,-4.9712e-05,-492.33,1.9646
3707,21.628,1.2727,0,4.9958e-05,499.23,1.756e-05,12.921,1.5845e-05,0.031791,-4.9725e-05,-492.63,1.9647
3708,21.628,1.4545,0,4.9958e-05,499.23,1.7497e-05,12.166,1.5883e-05,0.034173,-4.9739e-05,-493.02,1.9648
3709,21.628,1.6364,0,4.9953e-05,499.18,1.7419e-05,11.238,1.5928e-05,0.035654,-4.9751e-05,-493.45,1.9649
3710,21.628,1.8182,0,4.9941e-05,499.07,1.7328e-05,10.196,1.5976e-05,0.036506,-4.9759e-05,-493.87,1.965
3711,21.628,2,0,4.9925e-05,498.91,1.7232e-05,9.1082,1.6025e-05,0.03697,-4.9763e-05,-494.27,1.965
3712,21.628,2.1818,0,4.9906e-05,498.71,1.7138e-05,8.0502,1.6072e-05,0.037234,-4.9763e-05,-494.62,1.9651
3713,21.628,2.3636,0,4.9886e-05,498.51,1.7052e-05,7.0965,1.6113e-05,0.037437,-4.9761e-05,-494.91,1.9651
3714,21.628,2.5455,0,4.9868e-05,498.34,1.6981e-05,6.3146,1.6146e-05,0.037647,-4.9757e-05,-495.13,1.9652
3715,21.628,2.7273,0,4.9855e-05,498.2,1.6931e-05,5.7601,1.6169e-05,0.037858,-4.9754e-05,-495.28,1.9652
3716,21.628,2.9091,0,4.9848e-05,498.13,1.6904e-05,5.4726,1.6181e-05,0.037996,-4.9752e-05,-495.36,1.9652
3717,21.628,3.0909,0,4.9848e-05,498.13,1.6904e-05,5.4726,1.6181e-05,0.037996,-4.9752e-05,-495.36,1.9652
3718,21.628,3.2727,0,4.9855e-05,498.2,1.6931e-05,5.7601,1.6169e-05,0.037856,-4.9754e-05,-495.28,1.9652
3719,21.628,3.4545,0,4.9868e-05,498.34,1.6981e-05,6.3146,1.6146e-05,0.037647,-4.9757e-05,-495.13,1.9652
3720,21.628,3.6364,0,4.9886e-05,498.51,1.7052e-05,7.0965,1.6113e-05,0.037438,-4.9761e-05,-494.91,1.9651
3721,21.628,3.8182,0,4.9906e-05,498.71,1.7138e-05,8.0503,1.6072e-05,0.037234,-4.9763e-05,-494.62,1.9651
3722,21.628,4,0,4.9925e-05,498.91,1.7232e-05,9.1082,1.6025e-05,0.036971,-4.9763e-05,-494.27,1.965
3723,21.628,4.1818,0,4.9941e-05,499.07,1.7328e-05,10.196,1.5976e-05,0.036506,-4.9759e-05,-493.87,1.965
3724,21.628,4.3636,0,4.9953e-05,499.18,1.7419e-05,11.238,1.5928e-05,0.035656,-4.9751e-05,-493.45,1.9649
3725,21.628,4.5455,0,4.9958e-05,499.23,1.7497e-05,12.166,1.5883e-05,0.034173,-4.9739e-05,-493.02,1.9648
3726,21.628,4.7273,0,4.9958e-05,499.23,1.756e-05,12.921,1.5845e-05,0.03179,-4.9725e-05,-492.63,1.9647
3727,21.628,4.9091,0,4.9956e-05,499.21,1.7605e-05,13.466,1.5816e-05,0.028147,-4.9713e-05,-492.33,1.9646
3728,21.628,5.0909,0,4.9956e-05,499.22,1.7632e-05,13.789,1.58e-05,0.023026,-4.9707e-05,-492.17,1.9644
3729,21.628,5.2727,0,4.9968e-05,499.34,1.7646e-05,13.904,1.5797e-05,0.015472,-4.9717e-05,-492.24,1.9643
3730,21.628,5.4545,0,5.0004e-05,499.69,1.7655e-05,13.865,1.581e-05,0.0075543,-4.9753e-05,-492.61,1.9642
3731,21.628,5.6364,0,5.0087e-05,500.53,1.7679e-05,13.817,1.5839e-05,-0.013581,-4.9838e-05,-493.48,1.964
3732,21.628,5.8182,0,5.0442e-05,504.07,1.7912e-05,15.217,1.5886e-05,-0.0070169,-5.0166e-05,-496.29,1.9638
3733,21.811,0.18182,0,4.6622e-05,465.9,1.6738e-05,16.263,1.4572e-05,-0.0097026,-4.6324e-05,-457.56,1.9905
3734,21.811,0.36364,0,4.6297e-05,462.65,1.6565e-05,15.462,1.4504e-05,-0.018373,-4.6015e-05,-454.74,1.9906
3735,21.811,0.54545,0,4.6256e-05,462.24,1.6614e-05,16.237,1.4454e-05,0.0065918,-4.5958e-05,-453.9,1.9908
3736,21.811,0.72727,0,4.6265e-05,462.33,1.6685e-05,17.066,1.4416e-05,0.015307,-4.5951e-05,-453.56,1.9909
3737,21.811,0.90909,0,4.6299e-05,462.67,1.6755e-05,17.78,1.4391e-05,0.023686,-4.597e-05,-453.51,1.9911
3738,21.811,1.0909,0,4.6342e-05,463.1,1.6812e-05,18.303,1.438e-05,0.029283,-4.6003e-05,-453.67,1.9912
3739,21.811,1.2727,0,4.6386e-05,463.54,1.6851e-05,18.598,1.438e-05,0.033318,-4.6042e-05,-453.95,1.9913
3740,21.811,1.4545,0,4.6425e-05,463.92,1.6868e-05,18.66,1.439e-05,0.036035,-4.6078e-05,-454.3,1.9914
3741,21.811,1.6364,0,4.6453e-05,464.21,1.6865e-05,18.508,1.4407e-05,0.037832,-4.611e-05,-454.66,1.9915
3742,21.811,1.8182,0,4.6472e-05,464.4,1.6844e-05,18.184,1.443e-05,0.038976,-4.6135e-05,-455.02,1.9916
3743,21.811,2,0,4.6481e-05,464.49,1.6811e-05,17.742,1.4455e-05,0.039689,-4.6153e-05,-455.35,1.9916
3744,21.811,2.1818,0,4.6483e-05,464.51,1.6771e-05,17.246,1.4481e-05,0.04013,-4.6165e-05,-455.63,1.9917
3745,21.811,2.3636,0,4.648e-05,464.48,1.6729e-05,16.757,1.4504e-05,0.040406,-4.6171e-05,-455.85,1.9917
3746,21.811,2.5455,0,4.6475e-05,464.42,1.6692e-05,16.334,1.4524e-05,0.040585,-4.6175e-05,-456.02,1.9918
3747,21.811,2.7273,0,4.647e-05,464.37,1.6665e-05,16.023,1.4538e-05,0.040694,-4.6176e-05,-456.14,1.9918
3748,21.811,2.9091,0,4.6467e-05,464.35,1.665e-05,15.858,1.4545e-05,0.040748,-4.6176e-05,-456.19,1.9918
3749,21.811,3.0909,0,4.6467e-05,464.35,1.665e-05,15.858,1.4545e-05,0.040749,-4.6176e-05,-456.19,1.9918
3750,21.811,3.2727,0,4.647e-05,464.37,1.6665e-05,16.023,1.4538e-05,0.040695,-4.6176e-05,-456.14,1.9918
3751,21.811,3.4545,0,4.6475e-05,464.42,1.6692e-05,16.334,1.4524e-05,0.040585,-4.6175e-05,-456.02,1.9918
3752,21.811,3.6364,0,4.648e-05,464.48,1.6729e-05,16.757,1.4504e-05,0.040405,-4.6171e-05,-455.85,1.9917
3753,21.811,3.8182,0,4.6483e-05,464.51,1.6771e-05,17.246,1.4481e-05,0.040128,-4.6165e-05,-455.63,1.9917
3754,21.811,4,0,4.6481e-05,464.49,1.6811e-05,17.743,1.4455e-05,0.039691,-4.6153e-05,-455.35,1.9916
3755,21.811,4.1818,0,4.6472e-05,464.4,1.6844e-05,18.184,1.443e-05,0.038975,-4.6135e-05,-455.02,1.9916
3756,21.811,4.3636,0,4.6453e-05,464.21,1.6865e-05,18.508,1.4407e-05,0.037831,-4.611e-05,-454.66,1.9915
3757,21.811,4.5455,0,4.6425e-05,463.92,1.6868e-05,18.66,1.439e-05,0.036034,-4.6078e-05,-454.3,1.9914
3758,21.811,4.7273,0,4.6386e-05,463.54,1.6851e-05,18.598,1.438e-05,0.033317,-4.6042e-05,-453.95,1.9913
3759,21.811,4.9091,0,4.6342e-05,463.1,1.6812e-05,18.303,1.438e-05,0.029282,-4.6004e-05,-453.67,1.9912
3760,21.811,5.0909,0,4.6299e-05,462.67,1.6755e-05,17.78,1.4391e-05,0.023682,-4.597e-05,-453.51,1.9911
3761,21.811,5.2727,0,4.6265e-05,462.33,1.6685e-05,17.066,1.4416e-05,0.015307,-4.5951e-05,-453.56,1.9909
3762,21.811,5.4545,0,4.6256e-05,462.24,1.6614e-05,16.237,1.4454e-05,0.0065922,-4.5958e-05,-453.9,1.9908
3763,21.811,5.6364,0,4.6297e-05,462.65,1.6565e-05,15.462,1.4504e-05,-0.01837,-4.6015e-05,-454.74,1.9906
3764,21.811,5.8182,0,4.6622e-05,465.9,1.6738e-05,16.263,1.4572e-05,-0.0097014,-4.6324e-05,-457.56,1.9905
3765,21.993,0.18182,0,4.2795e-05,427.65,1.5563e-05,17.333,1.3254e-05,-0.013036,-4.2474e-05,-418.73,2.0171
3766,21.993,0.36364,0,4.2507e-05,424.78,1.5457e-05,17.199,1.3165e-05,-0.023313,-4.2189e-05,-415.93,2.0173
3767,21.993,0.54545,0,4.2515e-05,424.86,1.5587e-05,18.754,1.3091e-05,0.0061452,-4.2165e-05,-415.17,2.0174
3768,21.993,0.72727,0,4.2578e-05,425.48,1.5743e-05,20.414,1.3029e-05,0.015796,-4.2193e-05,-414.9,2.0176
3769,21.993,0.90909,0,4.2664e-05,426.35,1.59e-05,21.98,1.2978e-05,0.025084,-4.2247e-05,-414.92,2.0177
3770,21.993,1.0909,0,4.2758e-05,427.29,1.6044e-05,23.353,1.294e-05,0.031188,-4.2313e-05,-415.12,2.0178
3771,21.993,1.2727,0,4.2849e-05,428.2,1.6166e-05,24.475,1.2914e-05,0.035602,-4.238e-05,-415.42,2.0179
3772,21.993,1.4545,0,4.293e-05,429.01,1.6263e-05,25.326,1.2897e-05,0.038613,-4.2443e-05,-415.76,2.018
3773,21.993,1.6364,0,4.2997e-05,429.67,1.6333e-05,25.913,1.289e-05,0.04065,-4.2497e-05,-416.11,2.0181
3774,21.993,1.8182,0,4.3048e-05,430.19,1.6379e-05,26.263,1.2889e-05,0.041999,-4.2541e-05,-416.43,2.0182
3775,21.993,2,0,4.3086e-05,430.56,1.6404e-05,26.423,1.2893e-05,0.042876,-4.2575e-05,-416.72,2.0183
3776,21.993,2.1818,0,4.311e-05,430.81,1.6414e-05,26.444,1.29e-05,0.043436,-4.2599e-05,-416.96,2.0183
3777,21.993,2.3636,0,4.3126e-05,430.96,1.6414e-05,26.381,1.2908e-05,0.043787,-4.2616e-05,-417.14,2.0184
3778,21.993,2.5455,0,4.3134e-05,431.04,1.6408e-05,26.284,1.2916e-05,0.044003,-4.2626e-05,-417.28,2.0184
3779,21.993,2.7273,0,4.3138e-05,431.08,1.6402e-05,26.194,1.2922e-05,0.044129,-4.2632e-05,-417.37,2.0184
3780,21.993,2.9091,0,4.314e-05,431.1,1.6399e-05,26.141,1.2925e-05,0.044187,-4.2635e-05,-417.41,2.0184
3781,21.993,3.0909,0,4.314e-05,431.1,1.6399e-05,26.141,1.2925e-05,0.044188,-4.2635e-05,-417.41,2.0184
3782,21.993,3.2727,0,4.3138e-05,431.08,1.6402e-05,26.194,1.2922e-05,0.044129,-4.2632e-05,-417.37,2.0184
3783,21.993,3.4545,0,4.3134e-05,431.04,1.6408e-05,26.284,1.2916e-05,0.044003,-4.2626e-05,-417.28,2.0184
3784,21.993,3.6364,0,4.3126e-05,430.96,1.6414e-05,26.381,1.2908e-05,0.043789,-4.2616e-05,-417.14,2.0184
3785,21.993,3.8182,0,4.311e-05,430.81,1.6414e-05,26.444,1.29e-05,0.043435,-4.2599e-05,-416.96,2.0183
3786,21.993,4,0,4.3086e-05,430.56,1.6404e-05,26.423,1.2893e-05,0.042877,-4.2575e-05,-416.72,2.0183
3787,21.993,4.1818,0,4.3048e-05,430.19,1.6379e-05,26.263,1.2889e-05,0.042,-4.2541e-05,-416.43,2.0182
3788,21.993,4.3636,0,4.2997e-05,429.67,1.6333e-05,25.913,1.289e-05,0.040652,-4.2497e-05,-416.11,2.0181
3789,21.993,4.5455,0,4.293e-05,429.01,1.6263e-05,25.326,1.2897e-05,0.03861,-4.2443e-05,-415.76,2.018
3790,21.993,4.7273,0,4.2849e-05,428.2,1.6166e-05,24.475,1.2914e-05,0.035603,-4.238e-05,-415.42,2.0179
3791,21.993,4.9091,0,4.2758e-05,427.29,1.6044e-05,23.353,1.294e-05,0.031185,-4.2313e-05,-415.12,2.0178
3792,21.993,5.0909,0,4.2664e-05,426.35,1.59e-05,21.98,1.2978e-05,0.025087,-4.2247e-05,-414.92,2.0177
3793,21.993,5.2727,0,4.2578e-05,425.48,1.5743e-05,20.414,1.3029e-05,0.015794,-4.2194e-05,-414.9,2.0176
3794,21.993,5.4545,0,4.2515e-05,424.86,1.5587e-05,18.754,1.3091e-05,0.0061427,-4.2165e-05,-415.17,2.0174
3795,21.993,5.6364,0,4.2507e-05,424.78,1.5457e-05,17.199,1.3165e-05,-0.023314,-4.2189e-05,-415.93,2.0173
3796,21.993,5.8182,0,4.2795e-05,427.65,1.5563e-05,17.333,1.3254e-05,-0.013035,-4.2474e-05,-418.73,2.0171
3797,22.175,0.18182,0,3.8965e-05,389.38,1.4387e-05,18.412,1.1934e-05,-0.017143,-3.8619e-05,-379.85,2.0438
3798,22.175,0.36364,0,3.8723e-05,386.96,1.4358e-05,19.02,1.1822e-05,-0.028362,-3.8364e-05,-377.11,2.044
3799,22.175,0.54545,0,3.8789e-05,387.62,1.4575e-05,21.42,1.1725e-05,0.0063035,-3.838e-05,-376.46,2.0441
3800,22.175,0.72727,0,3.8912e-05,388.85,1.4824e-05,23.958,1.1637e-05,0.017055,-3.8449e-05,-376.31,2.0443
3801,22.175,0.90909,0,3.9059e-05,390.32,1.5072e-05,26.406,1.1562e-05,0.027366,-3.8542e-05,-376.43,2.0444
3802,22.175,1.0909,0,3.921e-05,391.83,1.5305e-05,28.639,1.1498e-05,0.034004,-3.8644e-05,-376.71,2.0445
3803,22.175,1.2727,0,3.9353e-05,393.26,1.551e-05,30.581,1.1445e-05,0.038802,-3.8743e-05,-377.06,2.0446
3804,22.175,1.4545,0,3.948e-05,394.53,1.5684e-05,32.198,1.1405e-05,0.042085,-3.8833e-05,-377.42,2.0447
3805,22.175,1.6364,0,3.9588e-05,395.6,1.5825e-05,33.488,1.1374e-05,0.044342,-3.8911e-05,-377.77,2.0448
3806,22.175,1.8182,0,3.9674e-05,396.47,1.5934e-05,34.473,1.1352e-05,0.045863,-3.8975e-05,-378.09,2.0449
3807,22.175,2,0,3.9741e-05,397.13,1.6014e-05,35.191,1.1337e-05,0.046879,-3.9024e-05,-378.35,2.0449
3808,22.175,2.1818,0,3.979e-05,397.62,1.6071e-05,35.688,1.1327e-05,0.047546,-3.9062e-05,-378.56,2.045
3809,22.175,2.3636,0,3.9824e-05,397.97,1.6109e-05,36.014,1.1322e-05,0.047976,-3.9089e-05,-378.72,2.045
3810,22.175,2.5455,0,3.9847e-05,398.2,1.6132e-05,36.212,1.1319e-05,0.048247,-3.9107e-05,-378.83,2.0451
3811,22.175,2.7273,0,3.9861e-05,398.33,1.6146e-05,36.322,1.1318e-05,0.048403,-3.9118e-05,-378.91,2.0451
3812,22.175,2.9091,0,3.9867e-05,398.39,1.6152e-05,36.37,1.1318e-05,0.048475,-3.9123e-05,-378.94,2.0451
3813,22.175,3.0909,0,3.9867e-05,398.39,1.6152e-05,36.37,1.1318e-05,0.048474,-3.9123e-05,-378.94,2.0451
3814,22.175,3.2727,0,3.9861e-05,398.33,1.6146e-05,36.322,1.1318e-05,0.048403,-3.9118e-05,-378.91,2.0451
3815,22.175,3.4545,0,3.9847e-05,398.2,1.6132e-05,36.212,1.1319e-05,0.048245,-3.9107e-05,-378.83,2.0451
3816,22.175,3.6364,0,3.9824e-05,397.97,1.6109e-05,36.014,1.1322e-05,0.047979,-3.9089e-05,-378.72,2.045
3817,22.175,3.8182,0,3.979e-05,397.62,1.6071e-05,35.688,1.1327e-05,0.047545,-3.9062e-05,-378.56,2.045
3818,22.175,4,0,3.9741e-05,397.13,1.6014e-05,35.191,1.1337e-05,0.046878,-3.9024e-05,-378.35,2.0449
3819,22.175,4.1818,0,3.9674e-05,396.47,1.5934e-05,34.473,1.1352e-05,0.045863,-3.8975e-05,-378.09,2.0449
3820,22.175,4.3636,0,3.9588e-05,395.6,1.5825e-05,33.488,1.1374e-05,0.04434,-3.8911e-05,-377.77,2.0448
3821,22.175,4.5455,0,3.948e-05,394.53,1.5684e-05,32.198,1.1405e-05,0.042086,-3.8833e-05,-377.42,2.0447
3822,22.175,4.7273,0,3.9353e-05,393.26,1.551e-05,30.581,1.1445e-05,0.038801,-3.8743e-05,-377.06,2.0446
3823,22.175,4.9091,0,3.921e-05,391.83,1.5305e-05,28.639,1.1498e-05,0.034003,-3.8644e-05,-376.71,2.0445
3824,22.175,5.0909,0,3.9059e-05,390.32,1.5072e-05,26.406,1.1562e-05,0.027365,-3.8542e-05,-376.43,2.0444
3825,22.175,5.2727,0,3.8912e-05,388.85,1.4824e-05,23.958,1.1637e-05,0.017055,-3.8449e-05,-376.31,2.0443
3826,22.175,5.4545,0,3.8789e-05,387.62,1.4575e-05,21.42,1.1725e-05,0.0063035,-3.838e-05,-376.46,2.0441
3827,22.175,5.6364,0,3.8723e-05,386.96,1.4358e-05,19.02,1.1822e-05,-0.02836,-3.8364e-05,-377.11,2.044
3828,22.175,5.8182,0,3.8965e-05,389.38,1.4387e-05,18.411,1.1934e-05,-0.017139,-3.8619e-05,-379.85,2.0438
3829,22.358,0.18182,0,3.5136e-05,351.12,1.3211e-05,19.483,1.0615e-05,-0.022215,-3.4765e-05,-340.98,2.0706
3830,22.358,0.36364,0,3.4949e-05,349.25,1.3268e-05,20.924,1.0478e-05,-0.033461,-3.4547e-05,-338.34,2.0707
3831,22.358,0.54545,0,3.5083e-05,350.59,1.3582e-05,24.244,1.0356e-05,0.0072479,-3.4608e-05,-337.83,2.0708
3832,22.358,0.72727,0,3.5277e-05,352.52,1.393e-05,27.722,1.0243e-05,0.019285,-3.4723e-05,-337.83,2.071
3833,22.358,0.90909,0,3.5491e-05,354.66,1.4275e-05,31.09,1.0141e-05,0.030728,-3.4859e-05,-338.08,2.0711
3834,22.358,1.0909,0,3.5705e-05,356.8,1.4598e-05,34.197,1.0051e-05,0.037938,-3.4999e-05,-338.46,2.0712
3835,22.358,1.2727,0,3.5904e-05,358.8,1.4887e-05,36.953,9.9745e-06,0.043128,-3.5132e-05,-338.87,2.0713
3836,22.358,1.4545,0,3.6081e-05,360.56,1.5136e-05,39.314,9.9102e-06,0.046676,-3.5251e-05,-339.28,2.0714
3837,22.358,1.6364,0,3.6231e-05,362.06,1.5344e-05,41.274,9.8577e-06,0.049133,-3.5352e-05,-339.64,2.0715
3838,22.358,1.8182,0,3.6354e-05,363.29,1.5513e-05,42.853,9.8159e-06,0.050813,-3.5435e-05,-339.95,2.0716
3839,22.358,2,0,3.6452e-05,364.26,1.5644e-05,44.087,9.7834e-06,0.051954,-3.55e-05,-340.19,2.0716
3840,22.358,2.1818,0,3.6526e-05,365,1.5744e-05,45.02,9.759e-06,0.052724,-3.555e-05,-340.38,2.0717
3841,22.358,2.3636,0,3.658e-05,365.54,1.5816e-05,45.698,9.7413e-06,0.053231,-3.5587e-05,-340.52,2.0717
3842,22.358,2.5455,0,3.6617e-05,365.92,1.5866e-05,46.164,9.7292e-06,0.053556,-3.5612e-05,-340.62,2.0717
3843,22.358,2.7273,0,3.664e-05,366.15,1.5897e-05,46.453,9.7217e-06,0.053746,-3.5628e-05,-340.68,2.0718
3844,22.358,2.9091,0,3.6651e-05,366.26,1.5912e-05,46.592,9.7181e-06,0.053836,-3.5635e-05,-340.71,2.0718
3845,22.358,3.0909,0,3.6651e-05,366.26,1.5912e-05,46.592,9.7181e-06,0.053836,-3.5635e-05,-340.71,2.0718
3846,22.358,3.2727,0,3.664e-05,366.15,1.5897e-05,46.453,9.7217e-06,0.053748,-3.5628e-05,-340.68,2.0718
3847,22.358,3.4545,0,3.6617e-05,365.92,1.5866e-05,46.164,9.7292e-06,0.053553,-3.5612e-05,-340.62,2.0717
3848,22.358,3.6364,0,3.658e-05,365.54,1.5816e-05,45.698,9.7413e-06,0.053231,-3.5587e-05,-340.52,2.0717
3849,22.358,3.8182,0,3.6526e-05,365,1.5744e-05,45.02,9.759e-06,0.052723,-3.555e-05,-340.38,2.0717
3850,22.358,4,0,3.6452e-05,364.26,1.5644e-05,44.087,9.7834e-06,0.051955,-3.55e-05,-340.19,2.0716
3851,22.358,4.1818,0,3.6354e-05,363.29,1.5513e-05,42.853,9.8159e-06,0.050812,-3.5435e-05,-339.95,2.0716
3852,22.358,4.3636,0,3.6231e-05,362.06,1.5344e-05,41.274,9.8577e-06,0.049133,-3.5352e-05,-339.64,2.0715
3853,22.358,4.5455,0,3.6081e-05,360.56,1.5136e-05,39.314,9.9102e-06,0.046679,-3.5251e-05,-339.28,2.0714
3854,22.358,4.7273,0,3.5904e-05,358.8,1.4887e-05,36.953,9.9745e-06,0.043129,-3.5132e-05,-338.87,2.0713
3855,22.358,4.9091,0,3.5705e-05,356.8,1.4598e-05,34.197,1.0051e-05,0.037938,-3.4999e-05,-338.46,2.0712
3856,22.358,5.0909,0,3.5491e-05,354.66,1.4275e-05,31.09,1.0141e-05,0.030724,-3.4859e-05,-338.08,2.0711
3857,22.358,5.2727,0,3.5277e-05,352.52,1.393e-05,27.722,1.0243e-05,0.019285,-3.4723e-05,-337.83,2.071
3858,22.358,5.4545,0,3.5083e-05,350.59,1.3582e-05,24.244,1.0356e-05,0.0072465,-3.4608e-05,-337.83,2.0708
3859,22.358,5.6364,0,3.4949e-05,349.25,1.3268e-05,20.924,1.0478e-05,-0.033462,-3.4547e-05,-338.34,2.0707
3860,22.358,5.8182,0,3.5136e-05,351.12,1.3211e-05,19.482,1.0615e-05,-0.022214,-3.4765e-05,-340.98,2.0706
3861,22.54,0.18182,0,3.1313e-05,312.91,1.2034e-05,20.532,9.2971e-06,-0.028494,-3.0913e-05,-302.15,2.0973
3862,22.54,0.36364,0,3.1193e-05,311.72,1.219e-05,22.917,9.1344e-06,-0.038463,-3.074e-05,-299.64,2.0974
3863,22.54,0.54545,0,3.1406e-05,313.84,1.2611e-05,27.254,8.9854e-06,0.0093015,-3.0853e-05,-299.32,2.0976
3864,22.54,0.72727,0,3.168e-05,316.58,1.3066e-05,31.745,8.8444e-06,0.022856,-3.102e-05,-299.5,2.0977
3865,22.54,0.90909,0,3.1971e-05,319.49,1.3513e-05,36.078,8.7157e-06,0.035554,-3.1203e-05,-299.9,2.0978
3866,22.54,1.0909,0,3.2254e-05,322.31,1.3928e-05,40.076,8.6004e-06,0.043375,-3.1384e-05,-300.38,2.0979
3867,22.54,1.2727,0,3.2514e-05,324.91,1.4301e-05,43.638,8.4994e-06,0.04897,-3.155e-05,-300.87,2.098
3868,22.54,1.4545,0,3.2743e-05,327.2,1.4623e-05,46.718,8.4126e-06,0.052777,-3.1696e-05,-301.31,2.0981
3869,22.54,1.6364,0,3.2937e-05,329.15,1.4895e-05,49.313,8.3396e-06,0.055425,-3.182e-05,-301.69,2.0982
3870,22.54,1.8182,0,3.3098e-05,330.75,1.5119e-05,51.444,8.2794e-06,0.057254,-3.192e-05,-301.99,2.0983
3871,22.54,2,0,3.3225e-05,332.03,1.5297e-05,53.151,8.2308e-06,0.058516,-3.2e-05,-302.22,2.0983
3872,22.54,2.1818,0,3.3325e-05,333.02,1.5436e-05,54.479,8.1928e-06,0.059382,-3.2061e-05,-302.39,2.0984
3873,22.54,2.3636,0,3.3398e-05,333.75,1.5539e-05,55.475,8.164e-06,0.059964,-3.2106e-05,-302.52,2.0984
3874,22.54,2.5455,0,3.345e-05,334.27,1.5612e-05,56.18,8.1434e-06,0.060349,-3.2138e-05,-302.6,2.0984
3875,22.54,2.7273,0,3.3483e-05,334.6,1.5659e-05,56.629,8.1302e-06,0.060574,-3.2158e-05,-302.65,2.0985
3876,22.54,2.9091,0,3.3499e-05,334.76,1.5682e-05,56.848,8.1238e-06,0.060684,-3.2167e-05,-302.67,2.0985
3877,22.54,3.0909,0,3.3499e-05,334.76,1.5682e-05,56.848,8.1238e-06,0.060682,-3.2167e-05,-302.67,2.0985
3878,22.54,3.2727,0,3.3483e-05,334.6,1.5659e-05,56.629,8.1302e-06,0.060574,-3.2158e-05,-302.65,2.0985
3879,22.54,3.4545,0,3.345e-05,334.27,1.5612e-05,56.18,8.1434e-06,0.060348,-3.2138e-05,-302.6,2.0984
3880,22.54,3.6364,0,3.3398e-05,333.75,1.5539e-05,55.475,8.164e-06,0.059964,-3.2106e-05,-302.52,2.0984
3881,22.54,3.8182,0,3.3325e-05,333.02,1.5436e-05,54.479,8.1928e-06,0.059381,-3.2061e-05,-302.39,2.0984
3882,22.54,4,0,3.3225e-05,332.03,1.5297e-05,53.151,8.2308e-06,0.058516,-3.2e-05,-302.22,2.0983
3883,22.54,4.1818,0,3.3098e-05,330.75,1.5119e-05,51.444,8.2794e-06,0.057256,-3.192e-05,-301.99,2.0983
3884,22.54,4.3636,0,3.2937e-05,329.15,1.4895e-05,49.313,8.3396e-06,0.055425,-3.182e-05,-301.69,2.0982
3885,22.54,4.5455,0,3.2743e-05,327.2,1.4623e-05,46.719,8.4126e-06,0.052777,-3.1696e-05,-301.31,2.0981
3886,22.54,4.7273,0,3.2514e-05,324.91,1.4301e-05,43.638,8.4994e-06,0.048969,-3.155e-05,-300.87,2.098
3887,22.54,4.9091,0,3.2254e-05,322.31,1.3929e-05,40.077,8.6004e-06,0.043376,-3.1384e-05,-300.38,2.0979
3888,22.54,5.0909,0,3.1971e-05,319.49,1.3513e-05,36.078,8.7157e-06,0.035554,-3.1203e-05,-299.9,2.0978
3889,22.54,5.2727,0,3.168e-05,316.58,1.3066e-05,31.745,8.8444e-06,0.022852,-3.102e-05,-299.5,2.0977
3890,22.54,5.4545,0,3.1406e-05,313.84,1.2611e-05,27.254,8.9854e-06,0.0093067,-3.0853e-05,-299.32,2.0976
3891,22.54,5.6364,0,3.1193e-05,311.72,1.219e-05,22.917,9.1344e-06,-0.03846,-3.074e-05,-299.64,2.0974
3892,22.54,5.8182,0,3.1313e-05,312.91,1.2034e-05,20.532,9.2971e-06,-0.028494,-3.0913e-05,-302.15,2.0973
3893,22.723,0.18182,0,2.7498e-05,274.79,1.0855e-05,21.545,7.9831e-06,-0.036452,-2.7068e-05,-263.4,2.1241
3894,22.723,0.36364,0,2.7461e-05,274.42,1.1126e-05,25.018,7.7908e-06,-0.043252,-2.695e-05,-261.07,2.1242
3895,22.723,0.54545,0,2.7767e-05,277.48,1.1669e-05,30.493,7.6123e-06,0.012835,-2.7123e-05,-260.97,2.1243
3896,22.723,0.72727,0,2.8135e-05,281.15,1.2241e-05,36.086,7.4419e-06,0.02815,-2.7346e-05,-261.36,2.1244
3897,22.723,0.90909,0,2.8512e-05,284.92,1.2794e-05,41.435,7.2851e-06,0.042248,-2.7579e-05,-261.92,2.1246
3898,22.723,1.0909,0,2.887e-05,288.5,1.3304e-05,46.338,7.1436e-06,0.050718,-2.7801e-05,-262.51,2.1247
3899,22.723,1.2727,0,2.9195e-05,291.74,1.3758e-05,50.693,7.0184e-06,0.056723,-2.8e-05,-263.05,2.1248
3900,22.723,1.4545,0,2.9478e-05,294.57,1.415e-05,54.461,6.9098e-06,0.060794,-2.8171e-05,-263.52,2.1248
3901,22.723,1.6364,0,2.9717e-05,296.97,1.4481e-05,57.648,6.8172e-06,0.063635,-2.8314e-05,-263.9,2.1249
3902,22.723,1.8182,0,2.9915e-05,298.95,1.4755e-05,60.287,6.7398e-06,0.065614,-2.843e-05,-264.18,2.125
3903,22.723,2,0,3.0074e-05,300.53,1.4975e-05,62.421,6.6765e-06,0.067,-2.8521e-05,-264.4,2.1251
3904,22.723,2.1818,0,3.0198e-05,301.77,1.5149e-05,64.103,6.626e-06,0.067966,-2.8592e-05,-264.55,2.1251
3905,22.723,2.3636,0,3.0291e-05,302.7,1.528e-05,65.38,6.5872e-06,0.068629,-2.8644e-05,-264.65,2.1252
3906,22.723,2.5455,0,3.0357e-05,303.36,1.5373e-05,66.296,6.5591e-06,0.06907,-2.8681e-05,-264.71,2.1252
3907,22.723,2.7273,0,3.04e-05,303.79,1.5434e-05,66.886,6.5409e-06,0.069336,-2.8704e-05,-264.75,2.1252
3908,22.723,2.9091,0,3.042e-05,303.99,1.5463e-05,67.175,6.5319e-06,0.069463,-2.8715e-05,-264.76,2.1252
3909,22.723,3.0909,0,3.042e-05,303.99,1.5463e-05,67.175,6.5319e-06,0.069463,-2.8715e-05,-264.76,2.1252
3910,22.723,3.2727,0,3.04e-05,303.79,1.5434e-05,66.886,6.5409e-06,0.069338,-2.8704e-05,-264.75,2.1252
3911,22.723,3.4545,0,3.0357e-05,303.36,1.5373e-05,66.296,6.5591e-06,0.069068,-2.8681e-05,-264.71,2.1252
3912,22.723,3.6364,0,3.0291e-05,302.7,1.528e-05,65.38,6.5872e-06,0.06863,-2.8644e-05,-264.65,2.1252
3913,22.723,3.8182,0,3.0198e-05,301.77,1.5149e-05,64.103,6.626e-06,0.067966,-2.8592e-05,-264.55,2.1251
3914,22.723,4,0,3.0074e-05,300.53,1.4975e-05,62.421,6.6765e-06,0.067,-2.8521e-05,-264.4,2.1251
3915,22.723,4.1818,0,2.9915e-05,298.95,1.4755e-05,60.287,6.7398e-06,0.065614,-2.843e-05,-264.18,2.125
3916,22.723,4.3636,0,2.9717e-05,296.97,1.4481e-05,57.648,6.8172e-06,0.063635,-2.8314e-05,-263.9,2.1249
3917,22.723,4.5455,0,2.9478e-05,294.57,1.415e-05,54.461,6.9098e-06,0.060793,-2.8171e-05,-263.52,2.1248
3918,22.723,4.7273,0,2.9195e-05,291.74,1.3758e-05,50.693,7.0184e-06,0.056723,-2.8e-05,-263.05,2.1248
3919,22.723,4.9091,0,2.887e-05,288.5,1.3304e-05,46.338,7.1436e-06,0.050718,-2.7801e-05,-262.51,2.1247
3920,22.723,5.0909,0,2.8512e-05,284.92,1.2794e-05,41.435,7.2851e-06,0.042248,-2.7579e-05,-261.92,2.1246
3921,22.723,5.2727,0,2.8135e-05,281.15,1.2241e-05,36.086,7.4419e-06,0.028148,-2.7346e-05,-261.36,2.1244
3922,22.723,5.4545,0,2.7767e-05,277.48,1.1669e-05,30.493,7.6123e-06,0.012838,-2.7123e-05,-260.97,2.1243
3923,22.723,5.6364,0,2.7461e-05,274.42,1.1126e-05,25.018,7.7908e-06,-0.043252,-2.695e-05,-261.07,2.1242
3924,22.723,5.8182,0,2.7498e-05,274.79,1.0855e-05,21.545,7.9831e-06,-0.036455,-2.7068e-05,-263.4,2.1241
3925,22.905,0.18182,0,2.3696e-05,236.79,9.6759e-06,22.509,6.6741e-06,-0.046208,-2.3233e-05,-224.75,2.1508
3926,22.905,0.36364,0,2.3763e-05,237.46,1.0083e-05,27.263,6.4484e-06,-0.046836,-2.3182e-05,-222.68,2.151
3927,22.905,0.54545,0,2.4183e-05,241.66,1.0764e-05,34.034,6.2367e-06,0.019281,-2.3424e-05,-222.84,2.1511
3928,22.905,0.72727,0,2.466e-05,246.43,1.1464e-05,40.834,6.034e-06,0.036682,-2.371e-05,-223.45,2.1512
3929,22.905,0.90909,0,2.5133e-05,251.16,1.2129e-05,47.247,5.8474e-06,0.052334,-2.3993e-05,-224.16,2.1513
3930,22.905,1.0909,0,2.5573e-05,255.55,1.2732e-05,53.06,5.6787e-06,0.061491,-2.4254e-05,-224.84,2.1514
3931,22.905,1.2727,0,2.5965e-05,259.47,1.3264e-05,58.182,5.5295e-06,0.067935,-2.4481e-05,-225.42,2.1515
3932,22.905,1.4545,0,2.6304e-05,262.86,1.3721e-05,62.595,5.3996e-06,0.072283,-2.4674e-05,-225.89,2.1516
3933,22.905,1.6364,0,2.6589e-05,265.71,1.4106e-05,66.325,5.2884e-06,0.075336,-2.4833e-05,-226.24,2.1517
3934,22.905,1.8182,0,2.6825e-05,268.06,1.4424e-05,69.418,5.1951e-06,0.077484,-2.4961e-05,-226.5,2.1518
3935,22.905,2,0,2.7014e-05,269.96,1.4681e-05,71.932,5.1181e-06,0.079006,-2.5062e-05,-226.68,2.1518
3936,22.905,2.1818,0,2.7163e-05,271.44,1.4884e-05,73.923,5.0564e-06,0.080083,-2.5139e-05,-226.8,2.1519
3937,22.905,2.3636,0,2.7276e-05,272.57,1.5039e-05,75.445,5.0087e-06,0.080832,-2.5197e-05,-226.87,2.1519
3938,22.905,2.5455,0,2.7356e-05,273.37,1.515e-05,76.544,4.9739e-06,0.081336,-2.5238e-05,-226.92,2.1519
3939,22.905,2.7273,0,2.7408e-05,273.89,1.5222e-05,77.256,4.9512e-06,0.081647,-2.5264e-05,-226.94,2.152
3940,22.905,2.9091,0,2.7433e-05,274.14,1.5258e-05,77.605,4.94e-06,0.081794,-2.5276e-05,-226.95,2.152
3941,22.905,3.0909,0,2.7433e-05,274.14,1.5258e-05,77.605,4.94e-06,0.081795,-2.5276e-05,-226.95,2.152
3942,22.905,3.2727,0,2.7408e-05,273.89,1.5222e-05,77.256,4.9512e-06,0.081646,-2.5264e-05,-226.94,2.152
3943,22.905,3.4545,0,2.7356e-05,273.37,1.515e-05,76.544,4.9739e-06,0.081339,-2.5238e-05,-226.92,2.1519
3944,22.905,3.6364,0,2.7276e-05,272.57,1.5039e-05,75.445,5.0087e-06,0.080833,-2.5197e-05,-226.87,2.1519
3945,22.905,3.8182,0,2.7163e-05,271.44,1.4884e-05,73.923,5.0564e-06,0.080081,-2.5139e-05,-226.8,2.1519
3946,22.905,4,0,2.7014e-05,269.96,1.4681e-05,71.932,5.1181e-06,0.079008,-2.5062e-05,-226.68,2.1518
3947,22.905,4.1818,0,2.6825e-05,268.06,1.4424e-05,69.418,5.1951e-06,0.077483,-2.4961e-05,-226.5,2.1518
3948,22.905,4.3636,0,2.6589e-05,265.71,1.4106e-05,66.325,5.2884e-06,0.075337,-2.4833e-05,-226.24,2.1517
3949,22.905,4.5455,0,2.6304e-05,262.86,1.3721e-05,62.595,5.3996e-06,0.072287,-2.4674e-05,-225.89,2.1516
3950,22.905,4.7273,0,2.5965e-05,259.47,1.3264e-05,58.182,5.5295e-06,0.067934,-2.4481e-05,-225.42,2.1515
3951,22.905,4.9091,0,2.5573e-05,255.55,1.2732e-05,53.06,5.6787e-06,0.061492,-2.4254e-05,-224.84,2.1514
3952,22.905,5.0909,0,2.5133e-05,251.16,1.2129e-05,47.247,5.8474e-06,0.052332,-2.3993e-05,-224.16,2.1513
3953,22.905,5.2727,0,2.466e-05,246.43,1.1464e-05,40.834,6.034e-06,0.036679,-2.371e-05,-223.45,2.1512
3954,22.905,5.4545,0,2.4183e-05,241.66,1.0764e-05,34.034,6.2367e-06,0.019284,-2.3424e-05,-222.84,2.1511
3955,22.905,5.6364,0,2.3763e-05,237.46,1.0083e-05,27.263,6.4484e-06,-0.046833,-2.3182e-05,-222.68,2.151
3956,22.905,5.8182,0,2.3696e-05,236.79,9.6759e-06,22.509,6.6741e-06,-0.046208,-2.3233e-05,-224.75,2.1508
3957,23.088,0.18182,0,1.9911e-05,198.97,8.4953e-06,23.411,5.3716e-06,-0.060091,-1.9409e-05,-186.26,2.1776
3958,23.088,0.36364,0,2.0115e-05,201.01,9.069e-06,29.721,5.1068e-06,-0.050271,-1.9444e-05,-184.52,2.1777
3959,23.088,0.54545,0,2.0677e-05,206.62,9.9095e-06,37.992,4.8568e-06,0.027951,-1.9767e-05,-184.98,2.1779
3960,23.088,0.72727,0,2.1282e-05,212.67,1.0749e-05,46.115,4.6181e-06,0.0477,-2.0119e-05,-185.82,2.178
3961,23.088,0.90909,0,2.1863e-05,218.48,1.1528e-05,53.627,4.3994e-06,0.0651,-2.0451e-05,-186.65,2.1781
3962,23.088,1.0909,0,2.239e-05,223.75,1.2222e-05,60.33,4.2029e-06,0.074999,-2.0745e-05,-187.37,2.1782
3963,23.088,1.2727,0,2.2852e-05,228.36,1.2826e-05,66.171,4.0296e-06,0.081932,-2.0996e-05,-187.95,2.1783
3964,23.088,1.4545,0,2.3247e-05,232.31,1.334e-05,71.17,3.8792e-06,0.086613,-2.1204e-05,-188.38,2.1784
3965,23.088,1.6364,0,2.3579e-05,235.62,1.3771e-05,75.381,3.7507e-06,0.089918,-2.1374e-05,-188.69,2.1785
3966,23.088,1.8182,0,2.3852e-05,238.35,1.4127e-05,78.872,3.6426e-06,0.092269,-2.151e-05,-188.9,2.1785
3967,23.088,2,0,2.4072e-05,240.55,1.4416e-05,81.711,3.5535e-06,0.093956,-2.1618e-05,-189.03,2.1786
3968,23.088,2.1818,0,2.4246e-05,242.29,1.4644e-05,83.967,3.4818e-06,0.095162,-2.17e-05,-189.11,2.1786
3969,23.088,2.3636,0,2.4378e-05,243.61,1.4819e-05,85.696,3.4262e-06,0.096014,-2.1762e-05,-189.16,2.1787
3970,23.088,2.5455,0,2.4473e-05,244.56,1.4945e-05,86.949,3.3856e-06,0.096592,-2.1806e-05,-189.18,2.1787
3971,23.088,2.7273,0,2.4534e-05,245.17,1.5027e-05,87.763,3.3591e-06,0.096951,-2.1833e-05,-189.19,2.1787
3972,23.088,2.9091,0,2.4564e-05,245.47,1.5067e-05,88.163,3.3459e-06,0.097124,-2.1847e-05,-189.19,2.1787
3973,23.088,3.0909,0,2.4564e-05,245.47,1.5067e-05,88.163,3.3459e-06,0.097124,-2.1847e-05,-189.19,2.1787
3974,23.088,3.2727,0,2.4534e-05,245.17,1.5027e-05,87.763,3.3591e-06,0.096951,-2.1833e-05,-189.19,2.1787
3975,23.088,3.4545,0,2.4473e-05,244.56,1.4945e-05,86.949,3.3856e-06,0.096592,-2.1806e-05,-189.18,2.1787
3976,23.088,3.6364,0,2.4378e-05,243.61,1.4819e-05,85.696,3.4262e-06,0.096013,-2.1762e-05,-189.16,2.1787
3977,23.088,3.8182,0,2.4246e-05,242.29,1.4644e-05,83.967,3.4818e-06,0.095163,-2.17e-05,-189.11,2.1786
3978,23.088,4,0,2.4072e-05,240.55,1.4416e-05,81.711,3.5535e-06,0.093954,-2.1618e-05,-189.03,2.1786
3979,23.088,4.1818,0,2.3852e-05,238.35,1.4127e-05,78.872,3.6426e-06,0.092267,-2.151e-05,-188.9,2.1785
3980,23.088,4.3636,0,2.3579e-05,235.62,1.3771e-05,75.381,3.7507e-06,0.089918,-2.1374e-05,-188.69,2.1785
3981,23.088,4.5455,0,2.3247e-05,232.31,1.334e-05,71.171,3.8792e-06,0.086613,-2.1204e-05,-188.38,2.1784
3982,23.088,4.7273,0,2.2852e-05,228.36,1.2826e-05,66.171,4.0296e-06,0.081932,-2.0996e-05,-187.95,2.1783
3983,23.088,4.9091,0,2.239e-05,223.75,1.2222e-05,60.33,4.2029e-06,0.074999,-2.0745e-05,-187.37,2.1782
3984,23.088,5.0909,0,2.1863e-05,218.48,1.1528e-05,53.627,4.3994e-06,0.065101,-2.0451e-05,-186.65,2.1781
3985,23.088,5.2727,0,2.1282e-05,212.67,1.0749e-05,46.115,4.6181e-06,0.047699,-2.0119e-05,-185.82,2.178
3986,23.088,5.4545,0,2.0677e-05,206.62,9.9095e-06,37.992,4.8568e-06,0.02795,-1.9767e-05,-184.98,2.1779
3987,23.088,5.6364,0,2.0115e-05,201.01,9.069e-06,29.72,5.1068e-06,-0.050269,-1.9444e-05,-184.52,2.1777
3988,23.088,5.8182,0,1.9911e-05,198.97,8.4953e-06,23.41,5.3716e-06,-0.060094,-1.9409e-05,-186.26,2.1776
3989,23.27,0.18182,0,1.6154e-05,161.43,7.3151e-06,24.25,4.078e-06,-0.072774,-1.5605e-05,-147.96,2.2044
3990,23.27,0.36364,0,1.6547e-05,165.36,8.1003e-06,32.525,3.7658e-06,-0.043382,-1.5752e-05,-146.69,2.2045
3991,23.27,0.54545,0,1.7289e-05,172.77,9.128e-06,42.56,3.4704e-06,0.051101,-1.6167e-05,-147.5,2.2047
3992,23.27,0.72727,0,1.8045e-05,180.33,1.0116e-05,52.107,3.191e-06,0.073719,-1.6585e-05,-148.52,2.2048
3993,23.27,0.90909,0,1.8744e-05,187.31,1.1006e-05,60.713,2.9381e-06,0.093174,-1.6958e-05,-149.4,2.2049
3994,23.27,1.0909,0,1.9362e-05,193.49,1.1783e-05,68.248,2.7132e-06,0.10403,-1.7277e-05,-150.09,2.205
3995,23.27,1.2727,0,1.9896e-05,198.82,1.2448e-05,74.733,2.5165e-06,0.11163,-1.7542e-05,-150.6,2.2051
3996,23.27,1.4545,0,2.0348e-05,203.34,1.301e-05,80.238,2.3469e-06,0.11676,-1.7759e-05,-150.95,2.2052
3997,23.27,1.6364,0,2.0725e-05,207.11,1.348e-05,84.856,2.2025e-06,0.12042,-1.7935e-05,-151.19,2.2052
3998,23.27,1.8182,0,2.1036e-05,210.22,1.3867e-05,88.677,2.0813e-06,0.12304,-1.8076e-05,-151.33,2.2053
3999,23.27,2,0,2.1288e-05,212.73,1.4181e-05,91.786,1.9815e-06,0.12494,-1.8187e-05,-151.41,2.2054
4000,23.27,2.1818,0,2.1487e-05,214.72,1.4429e-05,94.258,1.9013e-06,0.12631,-1.8272e-05,-151.45,2.2054
4001,23.27,2.3636,0,2.1638e-05,216.24,1.462e-05,96.157,1.839e-06,0.12729,-1.8336e-05,-151.46,2.2055
4002,23.27,2.5455,0,2.1748e-05,217.33,1.4758e-05,97.535,1.7935e-06,0.12795,-1.8381e-05,-151.46,2.2055
4003,23.27,2.7273,0,2.1819e-05,218.04,1.4847e-05,98.432,1.7637e-06,0.12837,-1.841e-05,-151.45,2.2055
4004,23.27,2.9091,0,2.1854e-05,218.39,1.4891e-05,98.874,1.749e-06,0.12856,-1.8425e-05,-151.45,2.2055
4005,23.27,3.0909,0,2.1854e-05,218.39,1.4891e-05,98.874,1.749e-06,0.12856,-1.8425e-05,-151.45,2.2055
4006,23.27,3.2727,0,2.1819e-05,218.04,1.4847e-05,98.432,1.7637e-06,0.12837,-1.841e-05,-151.45,2.2055
4007,23.27,3.4545,0,2.1748e-05,217.33,1.4758e-05,97.535,1.7935e-06,0.12795,-1.8381e-05,-151.46,2.2055
4008,23.27,3.6364,0,2.1638e-05,216.24,1.462e-05,96.157,1.839e-06,0.12729,-1.8336e-05,-151.46,2.2055
4009,23.27,3.8182,0,2.1487e-05,214.72,1.4429e-05,94.258,1.9013e-06,0.12631,-1.8272e-05,-151.45,2.2054
4010,23.27,4,0,2.1288e-05,212.73,1.4181e-05,91.786,1.9815e-06,0.12494,-1.8187e-05,-151.41,2.2054
4011,23.27,4.1818,0,2.1036e-05,210.22,1.3867e-05,88.677,2.0813e-06,0.12305,-1.8076e-05,-151.33,2.2053
4012,23.27,4.3636,0,2.0725e-05,207.11,1.348e-05,84.856,2.2025e-06,0.12042,-1.7935e-05,-151.19,2.2052
4013,23.27,4.5455,0,2.0348e-05,203.34,1.301e-05,80.238,2.3469e-06,0.11676,-1.7759e-05,-150.95,2.2052
4014,23.27,4.7273,0,1.9896e-05,198.82,1.2448e-05,74.733,2.5165e-06,0.11163,-1.7542e-05,-150.6,2.2051
4015,23.27,4.9091,0,1.9362e-05,193.49,1.1783e-05,68.248,2.7132e-06,0.10404,-1.7277e-05,-150.09,2.205
4016,23.27,5.0909,0,1.8744e-05,187.31,1.1006e-05,60.713,2.9381e-06,0.093175,-1.6958e-05,-149.4,2.2049
4017,23.27,5.2727,0,1.8045e-05,180.33,1.0116e-05,52.107,3.191e-06,0.073717,-1.6585e-05,-148.52,2.2048
4018,23.27,5.4545,0,1.7289e-05,172.77,9.128e-06,42.56,3.4704e-06,0.051104,-1.6167e-05,-147.5,2.2047
4019,23.27,5.6364,0,1.6547e-05,165.36,8.1003e-06,32.525,3.7658e-06,-0.043382,-1.5752e-05,-146.69,2.2045
4020,23.27,5.8182,0,1.6154e-05,161.43,7.3151e-06,24.25,4.078e-06,-0.072776,-1.5605e-05,-147.96,2.2044
4021,23.453,0.18182,0,1.2446e-05,124.37,6.142e-06,25.049,2.7937e-06,-0.10898,-1.1829e-05,-109.98,2.2312
4022,23.453,0.36364,0,1.3116e-05,131.07,7.2088e-06,35.929,2.42e-06,-0.052137,-1.2129e-05,-109.37,2.2314
4023,23.453,0.54545,0,1.409e-05,140.8,8.4526e-06,48.023,2.0688e-06,0.058328,-1.2645e-05,-110.5,2.2315
4024,23.453,0.72727,0,1.5018e-05,150.08,9.5883e-06,59.025,1.7439e-06,0.085506,-1.3117e-05,-111.58,2.2316
4025,23.453,0.90909,0,1.5841e-05,158.3,1.0576e-05,68.639,1.4553e-06,0.10737,-1.3516e-05,-112.38,2.2317
4026,23.453,1.0909,0,1.6552e-05,165.4,1.142e-05,76.892,1.2026e-06,0.11936,-1.3846e-05,-112.95,2.2318
4027,23.453,1.2727,0,1.7156e-05,171.45,1.2134e-05,83.906,9.8417e-07,0.12786,-1.4115e-05,-113.32,2.2319
4028,23.453,1.4545,0,1.7666e-05,176.54,1.2734e-05,89.818,7.9725e-07,0.13364,-1.4334e-05,-113.56,2.232
4029,23.453,1.6364,0,1.809e-05,180.78,1.3232e-05,94.757,6.3903e-07,0.13781,-1.4511e-05,-113.69,2.232
4030,23.453,1.8182,0,1.844e-05,184.27,1.3643e-05,98.837,5.0681e-07,0.14083,-1.4652e-05,-113.76,2.2321
4031,23.453,2,0,1.8723e-05,187.1,1.3975e-05,102.16,3.9816e-07,0.14304,-1.4764e-05,-113.78,2.2322
4032,23.453,2.1818,0,1.8948e-05,189.34,1.4239e-05,104.8,3.1094e-07,0.14464,-1.4851e-05,-113.77,2.2322
4033,23.453,2.3636,0,1.912e-05,191.06,1.4442e-05,106.83,2.4336e-07,0.14579,-1.4916e-05,-113.76,2.2322
4034,23.453,2.5455,0,1.9244e-05,192.31,1.4589e-05,108.3,1.9395e-07,0.14659,-1.4962e-05,-113.73,2.2323
4035,23.453,2.7273,0,1.9325e-05,193.12,1.4684e-05,109.26,1.6162e-07,0.14708,-1.4992e-05,-113.71,2.2323
4036,23.453,2.9091,0,1.9365e-05,193.52,1.4731e-05,109.74,1.4565e-07,0.14732,-1.5007e-05,-113.7,2.2323
4037,23.453,3.0909,0,1.9365e-05,193.52,1.4731e-05,109.74,1.4565e-07,0.14732,-1.5007e-05,-113.7,2.2323
4038,23.453,3.2727,0,1.9325e-05,193.12,1.4684e-05,109.26,1.6162e-07,0.14708,-1.4992e-05,-113.71,2.2323
4039,23.453,3.4545,0,1.9244e-05,192.31,1.4589e-05,108.3,1.9395e-07,0.14659,-1.4962e-05,-113.73,2.2323
4040,23.453,3.6364,0,1.912e-05,191.06,1.4442e-05,106.83,2.4336e-07,0.14579,-1.4916e-05,-113.76,2.2322
4041,23.453,3.8182,0,1.8948e-05,189.34,1.4239e-05,104.8,3.1094e-07,0.14464,-1.4851e-05,-113.77,2.2322
4042,23.453,4,0,1.8723e-05,187.1,1.3975e-05,102.16,3.9816e-07,0.14303,-1.4764e-05,-113.78,2.2322
4043,23.453,4.1818,0,1.844e-05,184.27,1.3643e-05,98.837,5.0681e-07,0.14083,-1.4652e-05,-113.76,2.2321
4044,23.453,4.3636,0,1.809e-05,180.78,1.3232e-05,94.757,6.3903e-07,0.13781,-1.4511e-05,-113.69,2.232
4045,23.453,4.5455,0,1.7666e-05,176.54,1.2734e-05,89.818,7.9725e-07,0.13364,-1.4334e-05,-113.56,2.232
4046,23.453,4.7273,0,1.7157e-05,171.45,1.2134e-05,83.906,9.8417e-07,0.12785,-1.4115e-05,-113.32,2.2319
4047,23.453,4.9091,0,1.6552e-05,165.4,1.142e-05,76.892,1.2026e-06,0.11936,-1.3846e-05,-112.95,2.2318
4048,23.453,5.0909,0,1.5841e-05,158.3,1.0576e-05,68.639,1.4553e-06,0.10737,-1.3516e-05,-112.38,2.2317
4049,23.453,5.2727,0,1.5018e-05,150.08,9.5883e-06,59.025,1.7439e-06,0.085503,-1.3117e-05,-111.58,2.2316
4050,23.453,5.4545,0,1.409e-05,140.8,8.4526e-06,48.023,2.0688e-06,0.058326,-1.2645e-05,-110.5,2.2315
4051,23.453,5.6364,0,1.3116e-05,131.07,7.2088e-06,35.929,2.42e-06,-0.052134,-1.2129e-05,-109.37,2.2314
4052,23.453,5.8182,0,1.2446e-05,124.37,6.142e-06,25.049,2.7937e-06,-0.10898,-1.1829e-05,-109.98,2.2312
4053,23.635,0.18182,0,8.8465e-06,88.404,4.9977e-06,25.984,1.5288e-06,-0.079725,-8.1126e-06,-72.522,2.2581
4054,23.635,0.36364,0,9.9603e-06,99.535,6.4622e-06,40.561,1.0721e-06,0.06189,-8.6304e-06,-72.839,2.2582
4055,23.635,0.54545,0,1.1217e-05,112.1,7.9306e-06,54.884,6.5504e-07,0.21823,-9.2306e-06,-74.059,2.2583
4056,23.635,0.72727,0,1.2323e-05,123.15,9.1889e-06,67.179,2.8124e-07,0.24974,-9.7257e-06,-74.938,2.2584
4057,23.635,0.90909,0,1.3267e-05,132.58,1.0249e-05,77.596,-4.1795e-08,0.27769,-1.0126e-05,-75.489,2.2585
4058,23.635,1.0909,0,1.4066e-05,140.56,1.1139e-05,86.385,-3.1956e-07,0.29287,-1.045e-05,-75.821,2.2586
4059,23.635,1.2727,0,1.474e-05,147.29,1.1885e-05,93.783,-5.5662e-07,0.30365,-1.0713e-05,-76.007,2.2587
4060,23.635,1.4545,0,1.5304e-05,152.94,1.2508e-05,99.986,-7.577e-07,0.311,-1.0927e-05,-76.099,2.2588
4061,23.635,1.6364,0,1.5775e-05,157.64,1.3026e-05,105.15,-9.2684e-07,0.31626,-1.1101e-05,-76.129,2.2588
4062,23.635,1.8182,0,1.6162e-05,161.51,1.3453e-05,109.42,-1.0676e-06,0.32002,-1.1241e-05,-76.121,2.2589
4063,23.635,2,0,1.6477e-05,164.66,1.3799e-05,112.89,-1.1828e-06,0.32274,-1.1353e-05,-76.091,2.259
4064,23.635,2.1818,0,1.6727e-05,167.15,1.4074e-05,115.65,-1.2752e-06,0.32468,-1.144e-05,-76.05,2.259
4065,23.635,2.3636,0,1.6919e-05,169.08,1.4285e-05,117.78,-1.3466e-06,0.32605,-1.1506e-05,-76.008,2.2591
4066,23.635,2.5455,0,1.7059e-05,170.47,1.4438e-05,119.32,-1.3988e-06,0.32698,-1.1554e-05,-75.972,2.2591
4067,23.635,2.7273,0,1.715e-05,171.38,1.4538e-05,120.33,-1.4329e-06,0.32755,-1.1584e-05,-75.945,2.2591
4068,23.635,2.9091,0,1.7194e-05,171.83,1.4588e-05,120.83,-1.4498e-06,0.32782,-1.1599e-05,-75.931,2.2591
4069,23.635,3.0909,0,1.7194e-05,171.83,1.4588e-05,120.83,-1.4498e-06,0.32782,-1.1599e-05,-75.931,2.2591
4070,23.635,3.2727,0,1.715e-05,171.38,1.4538e-05,120.33,-1.4329e-06,0.32755,-1.1584e-05,-75.945,2.2591
4071,23.635,3.4545,0,1.7059e-05,170.47,1.4438e-05,119.32,-1.3988e-06,0.32698,-1.1554e-05,-75.972,2.2591
4072,23.635,3.6364,0,1.6919e-05,169.08,1.4285e-05,117.78,-1.3466e-06,0.32605,-1.1506e-05,-76.008,2.2591
4073,23.635,3.8182,0,1.6727e-05,167.15,1.4074e-05,115.65,-1.2752e-06,0.32469,-1.144e-05,-76.05,2.259
4074,23.635,4,0,1.6477e-05,164.66,1.3799e-05,112.89,-1.1828e-06,0.32274,-1.1353e-05,-76.091,2.259
4075,23.635,4.1818,0,1.6162e-05,161.51,1.3453e-05,109.42,-1.0676e-06,0.32003,-1.1241e-05,-76.121,2.2589
4076,23.635,4.3636,0,1.5775e-05,157.64,1.3026e-05,105.15,-9.2684e-07,0.31626,-1.1101e-05,-76.129,2.2588
4077,23.635,4.5455,0,1.5304e-05,152.94,1.2508e-05,99.986,-7.577e-07,0.311,-1.0927e-05,-76.099,2.2588
4078,23.635,4.7273,0,1.474e-05,147.29,1.1885e-05,93.783,-5.5662e-07,0.30365,-1.0713e-05,-76.007,2.2587
4079,23.635,4.9091,0,1.4066e-05,140.56,1.1139e-05,86.385,-3.1956e-07,0.29286,-1.045e-05,-75.821,2.2586
4080,23.635,5.0909,0,1.3267e-05,132.58,1.0249e-05,77.596,-4.1796e-08,0.27769,-1.0126e-05,-75.489,2.2585
4081,23.635,5.2727,0,1.2323e-05,123.15,9.1889e-06,67.179,2.8124e-07,0.24974,-9.7257e-06,-74.938,2.2584
4082,23.635,5.4545,0,1.1217e-05,112.1,7.9306e-06,54.884,6.5504e-07,0.21822,-9.2306e-06,-74.059,2.2583
4083,23.635,5.6364,0,9.9603e-06,99.535,6.4622e-06,40.561,1.0721e-06,0.061891,-8.6304e-06,-72.839,2.2582
4084,23.635,5.8182,0,8.8465e-06,88.404,4.9977e-06,25.984,1.5288e-06,-0.079723,-8.1126e-06,-72.522,2.2581
4085,23.818,0.18182,0,5.6431e-06,56.393,4.0489e-06,28.174,2.3989e-07,-0.44622,-4.5972e-06,-36.79,2.2849
4086,23.818,0.36364,0,7.4008e-06,73.957,6.0031e-06,47.482,-3.4122e-07,-0.18677,-5.3359e-06,-37.715,2.285
4087,23.818,0.54545,0,8.9173e-06,89.111,7.6231e-06,63.545,-8.2906e-07,0.03822,-5.9346e-06,-38.323,2.2851
4088,23.818,0.72727,0,1.0169e-05,101.62,8.9434e-06,76.647,-1.2465e-06,0.084768,-6.4011e-06,-38.645,2.2852
4089,23.818,0.90909,0,1.121e-05,112.02,1.0034e-05,87.516,-1.597e-06,0.1275,-6.7739e-06,-38.77,2.2853
4090,23.818,1.0909,0,1.2081e-05,120.72,1.0942e-05,96.593,-1.8933e-06,0.15241,-7.0772e-06,-38.798,2.2854
4091,23.818,1.2727,0,1.2811e-05,128.02,1.1701e-05,104.2,-2.1434e-06,0.1708,-7.3263e-06,-38.772,2.2855
4092,23.818,1.4545,0,1.3421e-05,134.12,1.2336e-05,110.55,-2.3538e-06,0.18392,-7.5313e-06,-38.718,2.2856
4093,23.818,1.6364,0,1.393e-05,139.2,1.2863e-05,115.85,-2.5299e-06,0.19365,-7.6998e-06,-38.651,2.2857
4094,23.818,1.8182,0,1.4349e-05,143.39,1.3297e-05,120.21,-2.6757e-06,0.20088,-7.8371e-06,-38.58,2.2857
4095,23.818,2,0,1.469e-05,146.8,1.365e-05,123.77,-2.7948e-06,0.20625,-7.9478e-06,-38.512,2.2858
4096,23.818,2.1818,0,1.4962e-05,149.52,1.3932e-05,126.6,-2.89e-06,0.21022,-8.0353e-06,-38.45,2.2858
4097,23.818,2.3636,0,1.5171e-05,151.61,1.4148e-05,128.78,-2.9635e-06,0.21307,-8.1022e-06,-38.397,2.2859
4098,23.818,2.5455,0,1.5323e-05,153.13,1.4306e-05,130.37,-3.0171e-06,0.21505,-8.1506e-06,-38.356,2.2859
4099,23.818,2.7273,0,1.5423e-05,154.12,1.4408e-05,131.41,-3.0521e-06,0.21629,-8.182e-06,-38.328,2.2859
4100,23.818,2.9091,0,1.5472e-05,154.61,1.4459e-05,131.92,-3.0694e-06,0.21688,-8.1975e-06,-38.314,2.2859
4101,23.818,3.0909,0,1.5472e-05,154.61,1.4459e-05,131.92,-3.0694e-06,0.21688,-8.1975e-06,-38.314,2.2859
4102,23.818,3.2727,0,1.5423e-05,154.12,1.4408e-05,131.41,-3.0521e-06,0.21629,-8.182e-06,-38.328,2.2859
4103,23.818,3.4545,0,1.5323e-05,153.13,1.4306e-05,130.37,-3.0171e-06,0.21505,-8.1506e-06,-38.356,2.2859
4104,23.818,3.6364,0,1.5171e-05,151.61,1.4148e-05,128.78,-2.9635e-06,0.21307,-8.1022e-06,-38.397,2.2859
4105,23.818,3.8182,0,1.4962e-05,149.52,1.3932e-05,126.6,-2.89e-06,0.21021,-8.0353e-06,-38.45,2.2858
4106,23.818,4,0,1.469e-05,146.8,1.365e-05,123.77,-2.7948e-06,0.20625,-7.9478e-06,-38.512,2.2858
4107,23.818,4.1818,0,1.4349e-05,143.39,1.3297e-05,120.21,-2.6757e-06,0.20087,-7.8371e-06,-38.58,2.2857
4108,23.818,4.3636,0,1.393e-05,139.2,1.2863e-05,115.85,-2.5299e-06,0.19365,-7.6998e-06,-38.651,2.2857
4109,23.818,4.5455,0,1.3421e-05,134.12,1.2336e-05,110.55,-2.3538e-06,0.18391,-7.5313e-06,-38.718,2.2856
4110,23.818,4.7273,0,1.2811e-05,128.02,1.1701e-05,104.2,-2.1434e-06,0.1708,-7.3263e-06,-38.772,2.2855
4111,23.818,4.9091,0,1.2081e-05,120.72,1.0942e-05,96.593,-1.8933e-06,0.15241,-7.0772e-06,-38.798,2.2854
4112,23.818,5.0909,0,1.121e-05,112.02,1.0034e-05,87.516,-1.597e-06,0.1275,-6.7739e-06,-38.77,2.2853
4113,23.818,5.2727,0,1.0169e-05,101.62,8.9434e-06,76.647,-1.2465e-06,0.084768,-6.4011e-06,-38.645,2.2852
4114,23.818,5.4545,0,8.9173e-06,89.111,7.6231e-06,63.545,-8.2906e-07,0.038221,-5.9346e-06,-38.323,2.2851
4115,23.818,5.6364,0,7.4008e-06,73.957,6.0031e-06,47.482,-3.4122e-07,-0.18677,-5.3359e-06,-37.715,2.285
4116,23.818,5.8182,0,5.6431e-06,56.393,4.0489e-06,28.174,2.3989e-07,-0.44622,-4.5972e-06,-36.79,2.2849
4117,23.818,5.8182,0.1,5.6431e-06,56.393,4.5972e-06,36.79,-2.3989e-07,0.44622,-4.0489e-06,-28.173,2.2849
4118,23.818,5.6364,0.1,7.4008e-06,73.957,5.3359e-06,37.715,3.4121e-07,0.18677,-6.0031e-06,-47.482,2.285
4119,23.818,5.4545,0.1,8.9173e-06,89.111,5.9346e-06,38.323,8.2906e-07,-0.038219,-7.6231e-06,-63.544,2.2851
4120,23.818,5.2727,0.1,1.0169e-05,101.62,6.4011e-06,38.645,1.2465e-06,-0.084768,-8.9434e-06,-76.647,2.2852
4121,23.818,5.0909,0.1,1.121e-05,112.02,6.7739e-06,38.77,1.597e-06,-0.1275,-1.0034e-05,-87.516,2.2853
4122,23.818,4.9091,0.1,1.2081e-05,120.72,7.0772e-06,38.798,1.8933e-06,-0.15241,-1.0942e-05,-96.593,2.2854
4123,23.818,4.7273,0.1,1.2811e-05,128.02,7.3263e-06,38.772,2.1434e-06,-0.1708,-1.1701e-05,-104.2,2.2855
4124,23.818,4.5455,0.1,1.3421e-05,134.12,7.5313e-06,38.718,2.3538e-06,-0.18391,-1.2336e-05,-110.55,2.2856
4125,23.818,4.3636,0.1,1.393e-05,139.2,7.6998e-06,38.651,2.5299e-06,-0.19365,-1.2863e-05,-115.85,2.2857
4126,23.818,4.1818,0.1,1.4349e-05,143.39,7.8371e-06,38.58,2.6757e-06,-0.20088,-1.3297e-05,-120.21,2.2857
4127,23.818,4,0.1,1.469e-05,146.8,7.9478e-06,38.512,2.7948e-06,-0.20625,-1.365e-05,-123.77,2.2858
4128,23.818,3.8182,0.1,1.4962e-05,149.52,8.0353e-06,38.45,2.89e-06,-0.21022,-1.3932e-05,-126.6,2.2858
4129,23.818,3.6364,0.1,1.5171e-05,151.61,8.1022e-06,38.397,2.9635e-06,-0.21307,-1.4148e-05,-128.78,2.2859
4130,23.818,3.4545,0.1,1.5323e-05,153.13,8.1506e-06,38.356,3.0171e-06,-0.21505,-1.4306e-05,-130.37,2.2859
4131,23.818,3.2727,0.1,1.5423e-05,154.12,8.182e-06,38.328,3.0521e-06,-0.21629,-1.4408e-05,-131.41,2.2859
4132,23.818,3.0909,0.1,1.5472e-05,154.61,8.1975e-06,38.314,3.0694e-06,-0.21688,-1.4459e-05,-131.92,2.2859
4133,23.818,2.9091,0.1,1.5472e-05,154.61,8.1975e-06,38.314,3.0694e-06,-0.21688,-1.4459e-05,-131.92,2.2859
4134,23.818,2.7273,0.1,1.5423e-05,154.12,8.182e-06,38.328,3.0521e-06,-0.21629,-1.4408e-05,-131.41,2.2859
4135,23.818,2.5455,0.1,1.5323e-05,153.13,8.1506e-06,38.356,3.0171e-06,-0.21505,-1.4306e-05,-130.37,2.2859
4136,23.818,2.3636,0.1,1.5171e-05,151.61,8.1022e-06,38.397,2.9635e-06,-0.21307,-1.4148e-05,-128.78,2.2859
4137,23.818,2.1818,0.1,1.4962e-05,149.52,8.0353e-06,38.45,2.89e-06,-0.21021,-1.3932e-05,-126.6,2.2858
4138,23.818,2,0.1,1.469e-05,146.8,7.9478e-06,38.512,2.7948e-06,-0.20625,-1.365e-05,-123.77,2.2858
4139,23.818,1.8182,0.1,1.4349e-05,143.39,7.8371e-06,38.58,2.6757e-06,-0.20088,-1.3297e-05,-120.21,2.2857
4140,23.818,1.6364,0.1,1.393e-05,139.2,7.6998e-06,38.651,2.5299e-06,-0.19365,-1.2863e-05,-115.85,2.2857
4141,23.818,1.4545,0.1,1.3421e-05,134.12,7.5313e-06,38.718,2.3538e-06,-0.18392,-1.2336e-05,-110.55,2.2856
4142,23.818,1.2727,0.1,1.2811e-05,128.02,7.3263e-06,38.772,2.1434e-06,-0.1708,-1.1701e-05,-104.2,2.2855
4143,23.818,1.0909,0.1,1.2081e-05,120.72,7.0772e-06,38.798,1.8933e-06,-0.15241,-1.0942e-05,-96.593,2.2854
4144,23.818,0.90909,0.1,1.121e-05,112.02,6.7739e-06,38.77,1.597e-06,-0.1275,-1.0034e-05,-87.516,2.2853
4145,23.818,0.72727,0.1,1.0169e-05,101.62,6.4011e-06,38.645,1.2465e-06,-0.084768,-8.9434e-06,-76.647,2.2852
4146,23.818,0.54545,0.1,8.9173e-06,89.111,5.9346e-06,38.323,8.2906e-07,-0.038221,-7.6231e-06,-63.545,2.2851
4147,23.818,0.36364,0.1,7.4008e-06,73.957,5.3359e-06,37.715,3.4122e-07,0.18677,-6.0031e-06,-47.482,2.285
4148,23.818,0.18182,0.1,5.6431e-06,56.393,4.5972e-06,36.79,-2.3989e-07,0.44622,-4.0489e-06,-28.174,2.2849
4149,23.635,5.8182,0.1,8.8465e-06,88.404,8.1126e-06,72.522,-1.5288e-06,0.079724,-4.9977e-06,-25.984,2.2581
4150,23.635,5.6364,0.1,9.9603e-06,99.535,8.6304e-06,72.839,-1.0721e-06,-0.061892,-6.4622e-06,-40.561,2.2582
4151,23.635,5.4545,0.1,1.1217e-05,112.1,9.2306e-06,74.059,-6.5504e-07,-0.21822,-7.9306e-06,-54.884,2.2583
4152,23.635,5.2727,0.1,1.2323e-05,123.15,9.7257e-06,74.939,-2.8124e-07,-0.24974,-9.1889e-06,-67.179,2.2584
4153,23.635,5.0909,0.1,1.3267e-05,132.58,1.0126e-05,75.489,4.1795e-08,-0.27769,-1.0249e-05,-77.596,2.2585
4154,23.635,4.9091,0.1,1.4066e-05,140.56,1.045e-05,75.821,3.1956e-07,-0.29286,-1.1139e-05,-86.385,2.2586
4155,23.635,4.7273,0.1,1.474e-05,147.29,1.0713e-05,76.007,5.5662e-07,-0.30365,-1.1885e-05,-93.783,2.2587
4156,23.635,4.5455,0.1,1.5304e-05,152.94,1.0927e-05,76.099,7.577e-07,-0.311,-1.2508e-05,-99.986,2.2588
4157,23.635,4.3636,0.1,1.5775e-05,157.64,1.1101e-05,76.129,9.2684e-07,-0.31626,-1.3026e-05,-105.15,2.2588
4158,23.635,4.1818,0.1,1.6162e-05,161.51,1.1241e-05,76.121,1.0676e-06,-0.32002,-1.3453e-05,-109.42,2.2589
4159,23.635,4,0.1,1.6477e-05,164.66,1.1353e-05,76.091,1.1828e-06,-0.32274,-1.3799e-05,-112.89,2.259
4160,23.635,3.8182,0.1,1.6727e-05,167.15,1.144e-05,76.05,1.2752e-06,-0.32469,-1.4074e-05,-115.65,2.259
4161,23.635,3.6364,0.1,1.6919e-05,169.08,1.1506e-05,76.008,1.3466e-06,-0.32605,-1.4285e-05,-117.78,2.2591
4162,23.635,3.4545,0.1,1.7059e-05,170.47,1.1554e-05,75.972,1.3988e-06,-0.32698,-1.4438e-05,-119.32,2.2591
4163,23.635,3.2727,0.1,1.715e-05,171.38,1.1584e-05,75.945,1.4329e-06,-0.32755,-1.4538e-05,-120.33,2.2591
4164,23.635,3.0909,0.1,1.7194e-05,171.83,1.1599e-05,75.931,1.4498e-06,-0.32782,-1.4588e-05,-120.83,2.2591
4165,23.635,2.9091,0.1,1.7194e-05,171.83,1.1599e-05,75.931,1.4498e-06,-0.32782,-1.4588e-05,-120.83,2.2591
4166,23.635,2.7273,0.1,1.715e-05,171.38,1.1584e-05,75.945,1.4329e-06,-0.32755,-1.4538e-05,-120.33,2.2591
4167,23.635,2.5455,0.1,1.7059e-05,170.47,1.1554e-05,75.972,1.3988e-06,-0.32698,-1.4438e-05,-119.32,2.2591
4168,23.635,2.3636,0.1,1.6919e-05,169.08,1.1506e-05,76.008,1.3466e-06,-0.32605,-1.4285e-05,-117.78,2.2591
4169,23.635,2.1818,0.1,1.6727e-05,167.15,1.144e-05,76.05,1.2752e-06,-0.32468,-1.4074e-05,-115.65,2.259
4170,23.635,2,0.1,1.6477e-05,164.66,1.1353e-05,76.091,1.1828e-06,-0.32274,-1.3799e-05,-112.89,2.259
4171,23.635,1.8182,0.1,1.6162e-05,161.51,1.1241e-05,76.121,1.0676e-06,-0.32002,-1.3453e-05,-109.42,2.2589
4172,23.635,1.6364,0.1,1.5775e-05,157.64,1.1101e-05,76.129,9.2684e-07,-0.31626,-1.3026e-05,-105.15,2.2588
4173,23.635,1.4545,0.1,1.5304e-05,152.94,1.0927e-05,76.099,7.577e-07,-0.311,-1.2508e-05,-99.986,2.2588
4174,23.635,1.2727,0.1,1.474e-05,147.29,1.0713e-05,76.007,5.5662e-07,-0.30365,-1.1885e-05,-93.783,2.2587
4175,23.635,1.0909,0.1,1.4066e-05,140.56,1.045e-05,75.821,3.1956e-07,-0.29287,-1.1139e-05,-86.385,2.2586
4176,23.635,0.90909,0.1,1.3267e-05,132.58,1.0126e-05,75.489,4.1795e-08,-0.27769,-1.0249e-05,-77.596,2.2585
4177,23.635,0.72727,0.1,1.2323e-05,123.15,9.7257e-06,74.939,-2.8124e-07,-0.24974,-9.1889e-06,-67.179,2.2584
4178,23.635,0.54545,0.1,1.1217e-05,112.1,9.2306e-06,74.059,-6.5504e-07,-0.21823,-7.9306e-06,-54.884,2.2583
4179,23.635,0.36364,0.1,9.9603e-06,99.535,8.6304e-06,72.839,-1.0721e-06,-0.061889,-6.4622e-06,-40.561,2.2582
4180,23.635,0.18182,0.1,8.8465e-06,88.404,8.1126e-06,72.522,-1.5288e-06,0.079723,-4.9977e-06,-25.984,2.2581
4181,23.453,5.8182,0.1,1.2446e-05,124.37,1.1829e-05,109.98,-2.7937e-06,0.10898,-6.142e-06,-25.049,2.2312
4182,23.453,5.6364,0.1,1.3116e-05,131.07,1.2129e-05,109.37,-2.42e-06,0.052135,-7.2088e-06,-35.929,2.2314
4183,23.453,5.4545,0.1,1.409e-05,140.8,1.2645e-05,110.5,-2.0688e-06,-0.058327,-8.4526e-06,-48.023,2.2315
4184,23.453,5.2727,0.1,1.5018e-05,150.08,1.3117e-05,111.58,-1.7439e-06,-0.085502,-9.5883e-06,-59.025,2.2316
4185,23.453,5.0909,0.1,1.5841e-05,158.3,1.3516e-05,112.38,-1.4553e-06,-0.10737,-1.0576e-05,-68.639,2.2317
4186,23.453,4.9091,0.1,1.6552e-05,165.4,1.3846e-05,112.95,-1.2026e-06,-0.11935,-1.142e-05,-76.892,2.2318
4187,23.453,4.7273,0.1,1.7156e-05,171.45,1.4115e-05,113.32,-9.8417e-07,-0.12785,-1.2134e-05,-83.906,2.2319
4188,23.453,4.5455,0.1,1.7666e-05,176.54,1.4334e-05,113.56,-7.9725e-07,-0.13364,-1.2734e-05,-89.818,2.232
4189,23.453,4.3636,0.1,1.809e-05,180.78,1.4511e-05,113.69,-6.3903e-07,-0.13781,-1.3232e-05,-94.757,2.232
4190,23.453,4.1818,0.1,1.844e-05,184.27,1.4652e-05,113.76,-5.0681e-07,-0.14083,-1.3643e-05,-98.837,2.2321
4191,23.453,4,0.1,1.8723e-05,187.1,1.4764e-05,113.78,-3.9816e-07,-0.14303,-1.3975e-05,-102.16,2.2322
4192,23.453,3.8182,0.1,1.8948e-05,189.34,1.4851e-05,113.77,-3.1094e-07,-0.14464,-1.4239e-05,-104.8,2.2322
4193,23.453,3.6364,0.1,1.912e-05,191.06,1.4916e-05,113.76,-2.4336e-07,-0.14579,-1.4442e-05,-106.83,2.2322
4194,23.453,3.4545,0.1,1.9244e-05,192.31,1.4962e-05,113.73,-1.9395e-07,-0.14658,-1.4589e-05,-108.3,2.2323
4195,23.453,3.2727,0.1,1.9325e-05,193.12,1.4992e-05,113.71,-1.6163e-07,-0.14708,-1.4684e-05,-109.26,2.2323
4196,23.453,3.0909,0.1,1.9365e-05,193.52,1.5007e-05,113.7,-1.4565e-07,-0.14732,-1.4731e-05,-109.74,2.2323
4197,23.453,2.9091,0.1,1.9365e-05,193.52,1.5007e-05,113.7,-1.4565e-07,-0.14732,-1.4731e-05,-109.74,2.2323
4198,23.453,2.7273,0.1,1.9325e-05,193.12,1.4992e-05,113.71,-1.6163e-07,-0.14708,-1.4684e-05,-109.26,2.2323
4199,23.453,2.5455,0.1,1.9244e-05,192.31,1.4962e-05,113.73,-1.9395e-07,-0.14658,-1.4589e-05,-108.3,2.2323
4200,23.453,2.3636,0.1,1.912e-05,191.06,1.4916e-05,113.76,-2.4336e-07,-0.14579,-1.4442e-05,-106.83,2.2322
4201,23.453,2.1818,0.1,1.8948e-05,189.34,1.4851e-05,113.77,-3.1094e-07,-0.14464,-1.4239e-05,-104.8,2.2322
4202,23.453,2,0.1,1.8723e-05,187.1,1.4764e-05,113.78,-3.9816e-07,-0.14303,-1.3975e-05,-102.16,2.2322
4203,23.453,1.8182,0.1,1.844e-05,184.27,1.4652e-05,113.76,-5.0681e-07,-0.14083,-1.3643e-05,-98.837,2.2321
4204,23.453,1.6364,0.1,1.809e-05,180.78,1.4511e-05,113.69,-6.3903e-07,-0.13781,-1.3232e-05,-94.757,2.232
4205,23.453,1.4545,0.1,1.7666e-05,176.54,1.4334e-05,113.56,-7.9725e-07,-0.13364,-1.2734e-05,-89.818,2.232
4206,23.453,1.2727,0.1,1.7156e-05,171.45,1.4115e-05,113.32,-9.8417e-07,-0.12786,-1.2134e-05,-83.906,2.2319
4207,23.453,1.0909,0.1,1.6552e-05,165.4,1.3846e-05,112.95,-1.2026e-06,-0.11936,-1.142e-05,-76.892,2.2318
4208,23.453,0.90909,0.1,1.5841e-05,158.3,1.3516e-05,112.38,-1.4553e-06,-0.10737,-1.0576e-05,-68.639,2.2317
4209,23.453,0.72727,0.1,1.5018e-05,150.08,1.3117e-05,111.58,-1.7439e-06,-0.085506,-9.5883e-06,-59.025,2.2316
4210,23.453,0.54545,0.1,1.409e-05,140.8,1.2645e-05,110.5,-2.0688e-06,-0.058327,-8.4526e-06,-48.023,2.2315
4211,23.453,0.36364,0.1,1.3116e-05,131.07,1.2129e-05,109.37,-2.42e-06,0.052138,-7.2088e-06,-35.929,2.2314
4212,23.453,0.18182,0.1,1.2446e-05,124.37,1.1829e-05,109.98,-2.7937e-06,0.10897,-6.142e-06,-25.049,2.2312
4213,23.27,5.8182,0.1,1.6154e-05,161.43,1.5605e-05,147.96,-4.078e-06,0.072777,-7.3151e-06,-24.25,2.2044
4214,23.27,5.6364,0.1,1.6547e-05,165.36,1.5752e-05,146.69,-3.7658e-06,0.043382,-8.1003e-06,-32.525,2.2045
4215,23.27,5.4545,0.1,1.7289e-05,172.77,1.6167e-05,147.5,-3.4704e-06,-0.051103,-9.128e-06,-42.56,2.2047
4216,23.27,5.2727,0.1,1.8045e-05,180.33,1.6585e-05,148.52,-3.191e-06,-0.073717,-1.0116e-05,-52.107,2.2048
4217,23.27,5.0909,0.1,1.8744e-05,187.31,1.6958e-05,149.4,-2.9381e-06,-0.093175,-1.1006e-05,-60.713,2.2049
4218,23.27,4.9091,0.1,1.9362e-05,193.49,1.7277e-05,150.09,-2.7132e-06,-0.10404,-1.1783e-05,-68.248,2.205
4219,23.27,4.7273,0.1,1.9896e-05,198.82,1.7542e-05,150.6,-2.5165e-06,-0.11163,-1.2448e-05,-74.733,2.2051
4220,23.27,4.5455,0.1,2.0348e-05,203.34,1.7759e-05,150.95,-2.3469e-06,-0.11676,-1.301e-05,-80.238,2.2052
4221,23.27,4.3636,0.1,2.0725e-05,207.11,1.7935e-05,151.19,-2.2025e-06,-0.12042,-1.348e-05,-84.856,2.2052
4222,23.27,4.1818,0.1,2.1036e-05,210.22,1.8076e-05,151.33,-2.0813e-06,-0.12304,-1.3867e-05,-88.677,2.2053
4223,23.27,4,0.1,2.1288e-05,212.73,1.8187e-05,151.41,-1.9815e-06,-0.12494,-1.4181e-05,-91.786,2.2054
4224,23.27,3.8182,0.1,2.1487e-05,214.72,1.8272e-05,151.45,-1.9013e-06,-0.12631,-1.4429e-05,-94.258,2.2054
4225,23.27,3.6364,0.1,2.1638e-05,216.24,1.8336e-05,151.46,-1.839e-06,-0.12729,-1.462e-05,-96.157,2.2055
4226,23.27,3.4545,0.1,2.1748e-05,217.33,1.8381e-05,151.46,-1.7935e-06,-0.12795,-1.4758e-05,-97.535,2.2055
4227,23.27,3.2727,0.1,2.1819e-05,218.04,1.841e-05,151.45,-1.7637e-06,-0.12837,-1.4847e-05,-98.432,2.2055
4228,23.27,3.0909,0.1,2.1854e-05,218.39,1.8425e-05,151.45,-1.749e-06,-0.12857,-1.4891e-05,-98.874,2.2055
4229,23.27,2.9091,0.1,2.1854e-05,218.39,1.8425e-05,151.45,-1.749e-06,-0.12856,-1.4891e-05,-98.874,2.2055
4230,23.27,2.7273,0.1,2.1819e-05,218.04,1.841e-05,151.45,-1.7637e-06,-0.12837,-1.4847e-05,-98.432,2.2055
4231,23.27,2.5455,0.1,2.1748e-05,217.33,1.8381e-05,151.46,-1.7935e-06,-0.12795,-1.4758e-05,-97.535,2.2055
4232,23.27,2.3636,0.1,2.1638e-05,216.24,1.8336e-05,151.46,-1.839e-06,-0.12729,-1.462e-05,-96.157,2.2055
4233,23.27,2.1818,0.1,2.1487e-05,214.72,1.8272e-05,151.45,-1.9013e-06,-0.12631,-1.4429e-05,-94.258,2.2054
4234,23.27,2,0.1,2.1288e-05,212.73,1.8187e-05,151.41,-1.9815e-06,-0.12494,-1.4181e-05,-91.786,2.2054
4235,23.27,1.8182,0.1,2.1036e-05,210.22,1.8076e-05,151.33,-2.0813e-06,-0.12304,-1.3867e-05,-88.677,2.2053
4236,23.27,1.6364,0.1,2.0725e-05,207.11,1.7935e-05,151.19,-2.2025e-06,-0.12042,-1.348e-05,-84.856,2.2052
4237,23.27,1.4545,0.1,2.0348e-05,203.34,1.7759e-05,150.95,-2.3469e-06,-0.11677,-1.301e-05,-80.238,2.2052
4238,23.27,1.2727,0.1,1.9896e-05,198.82,1.7542e-05,150.6,-2.5165e-06,-0.11163,-1.2448e-05,-74.733,2.2051
4239,23.27,1.0909,0.1,1.9362e-05,193.49,1.7277e-05,150.09,-2.7132e-06,-0.10404,-1.1783e-05,-68.248,2.205
4240,23.27,0.90909,0.1,1.8744e-05,187.31,1.6958e-05,149.4,-2.9381e-06,-0.093173,-1.1006e-05,-60.713,2.2049
4241,23.27,0.72727,0.1,1.8045e-05,180.33,1.6585e-05,148.52,-3.191e-06,-0.07372,-1.0116e-05,-52.107,2.2048
4242,23.27,0.54545,0.1,1.7289e-05,172.77,1.6167e-05,147.5,-3.4704e-06,-0.0511,-9.128e-06,-42.56,2.2047
4243,23.27,0.36364,0.1,1.6547e-05,165.36,1.5752e-05,146.69,-3.7658e-06,0.043383,-8.1003e-06,-32.525,2.2045
4244,23.27,0.18182,0.1,1.6154e-05,161.43,1.5605e-05,147.96,-4.078e-06,0.072773,-7.3151e-06,-24.25,2.2044
4245,23.088,5.8182,0.1,1.9911e-05,198.97,1.9409e-05,186.26,-5.3716e-06,0.060093,-8.4953e-06,-23.41,2.1776
4246,23.088,5.6364,0.1,2.0115e-05,201.01,1.9444e-05,184.52,-5.1068e-06,0.05027,-9.069e-06,-29.72,2.1777
4247,23.088,5.4545,0.1,2.0677e-05,206.62,1.9767e-05,184.98,-4.8568e-06,-0.02795,-9.9095e-06,-37.992,2.1779
4248,23.088,5.2727,0.1,2.1282e-05,212.67,2.0119e-05,185.82,-4.6181e-06,-0.047699,-1.0749e-05,-46.115,2.178
4249,23.088,5.0909,0.1,2.1863e-05,218.48,2.0451e-05,186.65,-4.3994e-06,-0.0651,-1.1528e-05,-53.627,2.1781
4250,23.088,4.9091,0.1,2.239e-05,223.75,2.0745e-05,187.37,-4.2029e-06,-0.075,-1.2222e-05,-60.33,2.1782
4251,23.088,4.7273,0.1,2.2852e-05,228.36,2.0996e-05,187.95,-4.0296e-06,-0.081932,-1.2826e-05,-66.171,2.1783
4252,23.088,4.5455,0.1,2.3247e-05,232.31,2.1204e-05,188.38,-3.8792e-06,-0.086612,-1.334e-05,-71.17,2.1784
4253,23.088,4.3636,0.1,2.3579e-05,235.62,2.1374e-05,188.69,-3.7507e-06,-0.089918,-1.3771e-05,-75.381,2.1785
4254,23.088,4.1818,0.1,2.3852e-05,238.35,2.151e-05,188.9,-3.6426e-06,-0.092267,-1.4127e-05,-78.872,2.1785
4255,23.088,4,0.1,2.4072e-05,240.55,2.1618e-05,189.03,-3.5535e-06,-0.093955,-1.4416e-05,-81.711,2.1786
4256,23.088,3.8182,0.1,2.4246e-05,242.29,2.17e-05,189.11,-3.4818e-06,-0.095162,-1.4644e-05,-83.967,2.1786
4257,23.088,3.6364,0.1,2.4378e-05,243.61,2.1762e-05,189.16,-3.4262e-06,-0.096013,-1.4819e-05,-85.696,2.1787
4258,23.088,3.4545,0.1,2.4473e-05,244.56,2.1806e-05,189.18,-3.3856e-06,-0.096593,-1.4945e-05,-86.949,2.1787
4259,23.088,3.2727,0.1,2.4534e-05,245.17,2.1833e-05,189.19,-3.3591e-06,-0.096952,-1.5027e-05,-87.763,2.1787
4260,23.088,3.0909,0.1,2.4564e-05,245.47,2.1847e-05,189.19,-3.3459e-06,-0.097124,-1.5067e-05,-88.163,2.1787
4261,23.088,2.9091,0.1,2.4564e-05,245.47,2.1847e-05,189.19,-3.3459e-06,-0.097124,-1.5067e-05,-88.163,2.1787
4262,23.088,2.7273,0.1,2.4534e-05,245.17,2.1833e-05,189.19,-3.3591e-06,-0.096951,-1.5027e-05,-87.763,2.1787
4263,23.088,2.5455,0.1,2.4473e-05,244.56,2.1806e-05,189.18,-3.3856e-06,-0.096593,-1.4945e-05,-86.949,2.1787
4264,23.088,2.3636,0.1,2.4378e-05,243.61,2.1762e-05,189.16,-3.4262e-06,-0.096013,-1.4819e-05,-85.696,2.1787
4265,23.088,2.1818,0.1,2.4246e-05,242.29,2.17e-05,189.11,-3.4818e-06,-0.095162,-1.4644e-05,-83.967,2.1786
4266,23.088,2,0.1,2.4072e-05,240.55,2.1618e-05,189.03,-3.5535e-06,-0.093955,-1.4416e-05,-81.711,2.1786
4267,23.088,1.8182,0.1,2.3852e-05,238.35,2.151e-05,188.9,-3.6426e-06,-0.092269,-1.4127e-05,-78.872,2.1785
4268,23.088,1.6364,0.1,2.3579e-05,235.62,2.1374e-05,188.69,-3.7507e-06,-0.089918,-1.3771e-05,-75.381,2.1785
4269,23.088,1.4545,0.1,2.3247e-05,232.31,2.1204e-05,188.38,-3.8792e-06,-0.086613,-1.334e-05,-71.17,2.1784
4270,23.088,1.2727,0.1,2.2852e-05,228.36,2.0996e-05,187.95,-4.0296e-06,-0.081933,-1.2826e-05,-66.171,2.1783
4271,23.088,1.0909,0.1,2.239e-05,223.75,2.0745e-05,187.37,-4.2029e-06,-0.074999,-1.2222e-05,-60.33,2.1782
4272,23.088,0.90909,0.1,2.1863e-05,218.48,2.0451e-05,186.65,-4.3994e-06,-0.065101,-1.1528e-05,-53.627,2.1781
4273,23.088,0.72727,0.1,2.1282e-05,212.67,2.0119e-05,185.82,-4.6181e-06,-0.047701,-1.0749e-05,-46.115,2.178
4274,23.088,0.54545,0.1,2.0677e-05,206.62,1.9767e-05,184.98,-4.8568e-06,-0.02795,-9.9095e-06,-37.992,2.1779
4275,23.088,0.36364,0.1,2.0115e-05,201.01,1.9444e-05,184.52,-5.1068e-06,0.050273,-9.069e-06,-29.721,2.1777
4276,23.088,0.18182,0.1,1.9911e-05,198.97,1.9409e-05,186.26,-5.3716e-06,0.060091,-8.4953e-06,-23.411,2.1776
4277,22.905,5.8182,0.1,2.3696e-05,236.79,2.3233e-05,224.75,-6.6741e-06,0.046211,-9.6759e-06,-22.509,2.1508
4278,22.905,5.6364,0.1,2.3763e-05,237.46,2.3182e-05,222.68,-6.4484e-06,0.046834,-1.0083e-05,-27.263,2.151
4279,22.905,5.4545,0.1,2.4183e-05,241.66,2.3424e-05,222.84,-6.2367e-06,-0.019283,-1.0764e-05,-34.034,2.1511
4280,22.905,5.2727,0.1,2.466e-05,246.43,2.371e-05,223.45,-6.034e-06,-0.036679,-1.1464e-05,-40.834,2.1512
4281,22.905,5.0909,0.1,2.5133e-05,251.16,2.3993e-05,224.16,-5.8474e-06,-0.052332,-1.2129e-05,-47.247,2.1513
4282,22.905,4.9091,0.1,2.5573e-05,255.55,2.4254e-05,224.84,-5.6787e-06,-0.061491,-1.2732e-05,-53.06,2.1514
4283,22.905,4.7273,0.1,2.5965e-05,259.47,2.4481e-05,225.42,-5.5295e-06,-0.067932,-1.3264e-05,-58.182,2.1515
4284,22.905,4.5455,0.1,2.6304e-05,262.86,2.4674e-05,225.89,-5.3996e-06,-0.072288,-1.3721e-05,-62.595,2.1516
4285,22.905,4.3636,0.1,2.6589e-05,265.71,2.4833e-05,226.24,-5.2885e-06,-0.075336,-1.4106e-05,-66.325,2.1517
4286,22.905,4.1818,0.1,2.6825e-05,268.06,2.4961e-05,226.5,-5.1951e-06,-0.077484,-1.4424e-05,-69.418,2.1518
4287,22.905,4,0.1,2.7014e-05,269.96,2.5062e-05,226.68,-5.1181e-06,-0.079005,-1.4681e-05,-71.932,2.1518
4288,22.905,3.8182,0.1,2.7163e-05,271.44,2.5139e-05,226.8,-5.0564e-06,-0.080081,-1.4884e-05,-73.923,2.1519
4289,22.905,3.6364,0.1,2.7276e-05,272.57,2.5197e-05,226.87,-5.0087e-06,-0.080831,-1.5039e-05,-75.445,2.1519
4290,22.905,3.4545,0.1,2.7356e-05,273.37,2.5238e-05,226.92,-4.9739e-06,-0.081336,-1.515e-05,-76.544,2.1519
4291,22.905,3.2727,0.1,2.7408e-05,273.89,2.5264e-05,226.94,-4.9512e-06,-0.081646,-1.5222e-05,-77.256,2.152
4292,22.905,3.0909,0.1,2.7433e-05,274.14,2.5276e-05,226.95,-4.94e-06,-0.081794,-1.5258e-05,-77.605,2.152
4293,22.905,2.9091,0.1,2.7433e-05,274.14,2.5276e-05,226.95,-4.94e-06,-0.081794,-1.5258e-05,-77.605,2.152
4294,22.905,2.7273,0.1,2.7408e-05,273.89,2.5264e-05,226.94,-4.9512e-06,-0.081647,-1.5222e-05,-77.256,2.152
4295,22.905,2.5455,0.1,2.7356e-05,273.37,2.5238e-05,226.92,-4.9739e-06,-0.081336,-1.515e-05,-76.544,2.1519
4296,22.905,2.3636,0.1,2.7276e-05,272.57,2.5197e-05,226.87,-5.0087e-06,-0.080833,-1.5039e-05,-75.445,2.1519
4297,22.905,2.1818,0.1,2.7163e-05,271.44,2.5139e-05,226.8,-5.0564e-06,-0.080083,-1.4884e-05,-73.923,2.1519
4298,22.905,2,0.1,2.7014e-05,269.96,2.5062e-05,226.68,-5.1181e-06,-0.079006,-1.4681e-05,-71.932,2.1518
4299,22.905,1.8182,0.1,2.6825e-05,268.06,2.4961e-05,226.5,-5.1951e-06,-0.077482,-1.4424e-05,-69.418,2.1518
4300,22.905,1.6364,0.1,2.6589e-05,265.71,2.4833e-05,226.24,-5.2885e-06,-0.075336,-1.4106e-05,-66.325,2.1517
4301,22.905,1.4545,0.1,2.6304e-05,262.86,2.4674e-05,225.89,-5.3996e-06,-0.072285,-1.3721e-05,-62.595,2.1516
4302,22.905,1.2727,0.1,2.5965e-05,259.47,2.4481e-05,225.42,-5.5295e-06,-0.067934,-1.3264e-05,-58.182,2.1515
4303,22.905,1.0909,0.1,2.5573e-05,255.55,2.4254e-05,224.84,-5.6787e-06,-0.061492,-1.2732e-05,-53.06,2.1514
4304,22.905,0.90909,0.1,2.5133e-05,251.16,2.3993e-05,224.16,-5.8474e-06,-0.052332,-1.2129e-05,-47.247,2.1513
4305,22.905,0.72727,0.1,2.466e-05,246.43,2.371e-05,223.45,-6.034e-06,-0.036682,-1.1464e-05,-40.834,2.1512
4306,22.905,0.54545,0.1,2.4183e-05,241.66,2.3424e-05,222.84,-6.2367e-06,-0.01928,-1.0764e-05,-34.034,2.1511
4307,22.905,0.36364,0.1,2.3763e-05,237.46,2.3182e-05,222.68,-6.4484e-06,0.046835,-1.0083e-05,-27.263,2.151
4308,22.905,0.18182,0.1,2.3696e-05,236.79,2.3233e-05,224.75,-6.6741e-06,0.046209,-9.6759e-06,-22.509,2.1508
4309,22.723,5.8182,0.1,2.7498e-05,274.79,2.7068e-05,263.4,-7.9831e-06,0.036456,-1.0855e-05,-21.545,2.1241
4310,22.723,5.6364,0.1,2.7461e-05,274.42,2.695e-05,261.07,-7.7908e-06,0.043252,-1.1126e-05,-25.018,2.1242
4311,22.723,5.4545,0.1,2.7767e-05,277.48,2.7123e-05,260.97,-7.6123e-06,-0.012838,-1.1669e-05,-30.493,2.1243
4312,22.723,5.2727,0.1,2.8135e-05,281.15,2.7346e-05,261.36,-7.4419e-06,-0.02815,-1.2241e-05,-36.086,2.1244
4313,22.723,5.0909,0.1,2.8512e-05,284.92,2.7579e-05,261.92,-7.2851e-06,-0.042249,-1.2794e-05,-41.435,2.1246
4314,22.723,4.9091,0.1,2.887e-05,288.5,2.7801e-05,262.51,-7.1436e-06,-0.050718,-1.3304e-05,-46.338,2.1247
4315,22.723,4.7273,0.1,2.9195e-05,291.74,2.8e-05,263.05,-7.0184e-06,-0.056722,-1.3758e-05,-50.693,2.1248
4316,22.723,4.5455,0.1,2.9478e-05,294.57,2.8171e-05,263.52,-6.9098e-06,-0.060792,-1.415e-05,-54.461,2.1248
4317,22.723,4.3636,0.1,2.9717e-05,296.97,2.8314e-05,263.9,-6.8172e-06,-0.063634,-1.4481e-05,-57.648,2.1249
4318,22.723,4.1818,0.1,2.9915e-05,298.95,2.843e-05,264.18,-6.7398e-06,-0.065613,-1.4755e-05,-60.287,2.125
4319,22.723,4,0.1,3.0074e-05,300.53,2.8521e-05,264.4,-6.6765e-06,-0.067001,-1.4975e-05,-62.421,2.1251
4320,22.723,3.8182,0.1,3.0198e-05,301.77,2.8592e-05,264.55,-6.626e-06,-0.067967,-1.5149e-05,-64.103,2.1251
4321,22.723,3.6364,0.1,3.0291e-05,302.7,2.8644e-05,264.65,-6.5872e-06,-0.06863,-1.528e-05,-65.38,2.1252
4322,22.723,3.4545,0.1,3.0357e-05,303.36,2.8681e-05,264.71,-6.5591e-06,-0.069069,-1.5373e-05,-66.296,2.1252
4323,22.723,3.2727,0.1,3.04e-05,303.79,2.8704e-05,264.75,-6.5409e-06,-0.069338,-1.5434e-05,-66.886,2.1252
4324,22.723,3.0909,0.1,3.042e-05,303.99,2.8715e-05,264.76,-6.5319e-06,-0.069464,-1.5463e-05,-67.175,2.1252
4325,22.723,2.9091,0.1,3.042e-05,303.99,2.8715e-05,264.76,-6.5319e-06,-0.069462,-1.5463e-05,-67.175,2.1252
4326,22.723,2.7273,0.1,3.04e-05,303.79,2.8704e-05,264.75,-6.5409e-06,-0.069337,-1.5434e-05,-66.886,2.1252
4327,22.723,2.5455,0.1,3.0357e-05,303.36,2.8681e-05,264.71,-6.5591e-06,-0.069068,-1.5373e-05,-66.296,2.1252
4328,22.723,2.3636,0.1,3.0291e-05,302.7,2.8644e-05,264.65,-6.5872e-06,-0.068629,-1.528e-05,-65.38,2.1252
4329,22.723,2.1818,0.1,3.0198e-05,301.77,2.8592e-05,264.55,-6.626e-06,-0.067966,-1.5149e-05,-64.103,2.1251
4330,22.723,2,0.1,3.0074e-05,300.53,2.8521e-05,264.4,-6.6765e-06,-0.067001,-1.4975e-05,-62.421,2.1251
4331,22.723,1.8182,0.1,2.9915e-05,298.95,2.843e-05,264.18,-6.7398e-06,-0.065615,-1.4755e-05,-60.287,2.125
4332,22.723,1.6364,0.1,2.9717e-05,296.97,2.8314e-05,263.9,-6.8172e-06,-0.063634,-1.4481e-05,-57.648,2.1249
4333,22.723,1.4545,0.1,2.9478e-05,294.57,2.8171e-05,263.52,-6.9098e-06,-0.060793,-1.415e-05,-54.461,2.1248
4334,22.723,1.2727,0.1,2.9195e-05,291.74,2.8e-05,263.05,-7.0184e-06,-0.056723,-1.3758e-05,-50.693,2.1248
4335,22.723,1.0909,0.1,2.887e-05,288.5,2.7801e-05,262.51,-7.1436e-06,-0.050719,-1.3304e-05,-46.338,2.1247
4336,22.723,0.90909,0.1,2.8512e-05,284.92,2.7579e-05,261.92,-7.2851e-06,-0.042248,-1.2794e-05,-41.435,2.1246
4337,22.723,0.72727,0.1,2.8135e-05,281.15,2.7346e-05,261.36,-7.4419e-06,-0.02815,-1.2241e-05,-36.086,2.1244
4338,22.723,0.54545,0.1,2.7767e-05,277.48,2.7123e-05,260.97,-7.6123e-06,-0.012835,-1.1669e-05,-30.493,2.1243
4339,22.723,0.36364,0.1,2.7461e-05,274.42,2.695e-05,261.07,-7.7908e-06,0.043254,-1.1126e-05,-25.018,2.1242
4340,22.723,0.18182,0.1,2.7498e-05,274.79,2.7068e-05,263.4,-7.9831e-06,0.036453,-1.0855e-05,-21.545,2.1241
4341,22.54,5.8182,0.1,3.1313e-05,312.91,3.0913e-05,302.15,-9.2971e-06,0.028494,-1.2034e-05,-20.532,2.0973
4342,22.54,5.6364,0.1,3.1193e-05,311.72,3.074e-05,299.64,-9.1344e-06,0.03846,-1.219e-05,-22.917,2.0974
4343,22.54,5.4545,0.1,3.1406e-05,313.84,3.0853e-05,299.32,-8.9854e-06,-0.0093056,-1.2611e-05,-27.254,2.0976
4344,22.54,5.2727,0.1,3.168e-05,316.58,3.102e-05,299.5,-8.8444e-06,-0.022852,-1.3066e-05,-31.745,2.0977
4345,22.54,5.0909,0.1,3.1971e-05,319.49,3.1203e-05,299.9,-8.7157e-06,-0.035554,-1.3513e-05,-36.078,2.0978
4346,22.54,4.9091,0.1,3.2254e-05,322.31,3.1384e-05,300.38,-8.6004e-06,-0.043376,-1.3928e-05,-40.077,2.0979
4347,22.54,4.7273,0.1,3.2514e-05,324.91,3.155e-05,300.87,-8.4994e-06,-0.048968,-1.4301e-05,-43.638,2.098
4348,22.54,4.5455,0.1,3.2743e-05,327.2,3.1696e-05,301.31,-8.4126e-06,-0.052778,-1.4623e-05,-46.719,2.0981
4349,22.54,4.3636,0.1,3.2937e-05,329.15,3.182e-05,301.69,-8.3396e-06,-0.055424,-1.4895e-05,-49.313,2.0982
4350,22.54,4.1818,0.1,3.3098e-05,330.75,3.192e-05,301.99,-8.2794e-06,-0.057255,-1.5119e-05,-51.444,2.0983
4351,22.54,4,0.1,3.3225e-05,332.03,3.2e-05,302.22,-8.2309e-06,-0.058517,-1.5297e-05,-53.151,2.0983
4352,22.54,3.8182,0.1,3.3325e-05,333.02,3.2061e-05,302.39,-8.1928e-06,-0.059381,-1.5436e-05,-54.479,2.0984
4353,22.54,3.6364,0.1,3.3398e-05,333.75,3.2106e-05,302.52,-8.164e-06,-0.059965,-1.5539e-05,-55.475,2.0984
4354,22.54,3.4545,0.1,3.345e-05,334.27,3.2138e-05,302.6,-8.1434e-06,-0.060347,-1.5612e-05,-56.18,2.0984
4355,22.54,3.2727,0.1,3.3483e-05,334.6,3.2158e-05,302.65,-8.1302e-06,-0.060575,-1.5659e-05,-56.629,2.0985
4356,22.54,3.0909,0.1,3.3499e-05,334.76,3.2167e-05,302.67,-8.1238e-06,-0.060682,-1.5682e-05,-56.848,2.0985
4357,22.54,2.9091,0.1,3.3499e-05,334.76,3.2167e-05,302.67,-8.1238e-06,-0.060684,-1.5682e-05,-56.848,2.0985
4358,22.54,2.7273,0.1,3.3483e-05,334.6,3.2158e-05,302.65,-8.1302e-06,-0.060575,-1.5659e-05,-56.629,2.0985
4359,22.54,2.5455,0.1,3.345e-05,334.27,3.2138e-05,302.6,-8.1434e-06,-0.060349,-1.5612e-05,-56.18,2.0984
4360,22.54,2.3636,0.1,3.3398e-05,333.75,3.2106e-05,302.52,-8.164e-06,-0.059965,-1.5539e-05,-55.475,2.0984
4361,22.54,2.1818,0.1,3.3325e-05,333.02,3.2061e-05,302.39,-8.1928e-06,-0.059382,-1.5436e-05,-54.479,2.0984
4362,22.54,2,0.1,3.3225e-05,332.03,3.2e-05,302.22,-8.2309e-06,-0.058517,-1.5297e-05,-53.151,2.0983
4363,22.54,1.8182,0.1,3.3098e-05,330.75,3.192e-05,301.99,-8.2794e-06,-0.057253,-1.5119e-05,-51.444,2.0983
4364,22.54,1.6364,0.1,3.2937e-05,329.15,3.182e-05,301.69,-8.3396e-06,-0.055425,-1.4895e-05,-49.313,2.0982
4365,22.54,1.4545,0.1,3.2743e-05,327.2,3.1696e-05,301.31,-8.4126e-06,-0.052776,-1.4623e-05,-46.718,2.0981
4366,22.54,1.2727,0.1,3.2514e-05,324.91,3.155e-05,300.87,-8.4994e-06,-0.048969,-1.4301e-05,-43.638,2.098
4367,22.54,1.0909,0.1,3.2254e-05,322.31,3.1384e-05,300.38,-8.6004e-06,-0.043377,-1.3928e-05,-40.076,2.0979
4368,22.54,0.90909,0.1,3.1971e-05,319.49,3.1203e-05,299.9,-8.7157e-06,-0.035554,-1.3513e-05,-36.078,2.0978
4369,22.54,0.72727,0.1,3.168e-05,316.58,3.102e-05,299.5,-8.8444e-06,-0.022855,-1.3066e-05,-31.745,2.0977
4370,22.54,0.54545,0.1,3.1406e-05,313.84,3.0853e-05,299.32,-8.9854e-06,-0.0093042,-1.2611e-05,-27.254,2.0976
4371,22.54,0.36364,0.1,3.1193e-05,311.72,3.074e-05,299.64,-9.1344e-06,0.038463,-1.219e-05,-22.917,2.0974
4372,22.54,0.18182,0.1,3.1313e-05,312.91,3.0913e-05,302.15,-9.2971e-06,0.028495,-1.2034e-05,-20.532,2.0973
4373,22.358,5.8182,0.1,3.5136e-05,351.12,3.4765e-05,340.98,-1.0615e-05,0.022214,-1.3211e-05,-19.482,2.0706
4374,22.358,5.6364,0.1,3.4949e-05,349.25,3.4547e-05,338.34,-1.0478e-05,0.033463,-1.3268e-05,-20.924,2.0707
4375,22.358,5.4545,0.1,3.5083e-05,350.59,3.4608e-05,337.83,-1.0356e-05,-0.0072477,-1.3582e-05,-24.244,2.0708
4376,22.358,5.2727,0.1,3.5277e-05,352.52,3.4723e-05,337.83,-1.0243e-05,-0.019284,-1.393e-05,-27.722,2.071
4377,22.358,5.0909,0.1,3.5491e-05,354.66,3.4859e-05,338.08,-1.0141e-05,-0.030725,-1.4275e-05,-31.09,2.0711
4378,22.358,4.9091,0.1,3.5705e-05,356.8,3.4999e-05,338.46,-1.0051e-05,-0.037939,-1.4598e-05,-34.197,2.0712
4379,22.358,4.7273,0.1,3.5904e-05,358.8,3.5132e-05,338.87,-9.9745e-06,-0.043129,-1.4887e-05,-36.953,2.0713
4380,22.358,4.5455,0.1,3.6081e-05,360.56,3.5251e-05,339.28,-9.9102e-06,-0.046678,-1.5136e-05,-39.314,2.0714
4381,22.358,4.3636,0.1,3.6231e-05,362.06,3.5352e-05,339.64,-9.8577e-06,-0.049133,-1.5344e-05,-41.274,2.0715
4382,22.358,4.1818,0.1,3.6354e-05,363.29,3.5435e-05,339.95,-9.8159e-06,-0.050812,-1.5513e-05,-42.853,2.0716
4383,22.358,4,0.1,3.6452e-05,364.26,3.55e-05,340.19,-9.7834e-06,-0.051955,-1.5644e-05,-44.087,2.0716
4384,22.358,3.8182,0.1,3.6526e-05,365,3.555e-05,340.38,-9.759e-06,-0.052723,-1.5744e-05,-45.02,2.0717
4385,22.358,3.6364,0.1,3.658e-05,365.54,3.5587e-05,340.52,-9.7413e-06,-0.053231,-1.5816e-05,-45.698,2.0717
4386,22.358,3.4545,0.1,3.6617e-05,365.92,3.5612e-05,340.62,-9.7292e-06,-0.053555,-1.5866e-05,-46.164,2.0717
4387,22.358,3.2727,0.1,3.664e-05,366.15,3.5628e-05,340.68,-9.7217e-06,-0.053748,-1.5897e-05,-46.453,2.0718
4388,22.358,3.0909,0.1,3.6651e-05,366.26,3.5635e-05,340.71,-9.7181e-06,-0.053836,-1.5912e-05,-46.592,2.0718
4389,22.358,2.9091,0.1,3.6651e-05,366.26,3.5635e-05,340.71,-9.7181e-06,-0.053836,-1.5912e-05,-46.592,2.0718
4390,22.358,2.7273,0.1,3.664e-05,366.15,3.5628e-05,340.68,-9.7217e-06,-0.053748,-1.5897e-05,-46.453,2.0718
4391,22.358,2.5455,0.1,3.6617e-05,365.92,3.5612e-05,340.62,-9.7292e-06,-0.053555,-1.5866e-05,-46.164,2.0717
4392,22.358,2.3636,0.1,3.658e-05,365.54,3.5587e-05,340.52,-9.7413e-06,-0.05323,-1.5816e-05,-45.698,2.0717
4393,22.358,2.1818,0.1,3.6526e-05,365,3.555e-05,340.38,-9.759e-06,-0.052724,-1.5744e-05,-45.02,2.0717
4394,22.358,2,0.1,3.6452e-05,364.26,3.55e-05,340.19,-9.7834e-06,-0.051954,-1.5644e-05,-44.087,2.0716
4395,22.358,1.8182,0.1,3.6354e-05,363.29,3.5435e-05,339.95,-9.8159e-06,-0.050813,-1.5513e-05,-42.853,2.0716
4396,22.358,1.6364,0.1,3.6231e-05,362.06,3.5352e-05,339.64,-9.8577e-06,-0.049134,-1.5344e-05,-41.274,2.0715
4397,22.358,1.4545,0.1,3.6081e-05,360.56,3.5251e-05,339.28,-9.9102e-06,-0.046678,-1.5136e-05,-39.314,2.0714
4398,22.358,1.2727,0.1,3.5904e-05,358.8,3.5132e-05,338.87,-9.9745e-06,-0.04313,-1.4887e-05,-36.953,2.0713
4399,22.358,1.0909,0.1,3.5705e-05,356.8,3.4999e-05,338.46,-1.0051e-05,-0.037938,-1.4598e-05,-34.197,2.0712
4400,22.358,0.90909,0.1,3.5491e-05,354.66,3.4859e-05,338.08,-1.0141e-05,-0.030727,-1.4275e-05,-31.09,2.0711
4401,22.358,0.72727,0.1,3.5277e-05,352.52,3.4723e-05,337.83,-1.0243e-05,-0.019286,-1.393e-05,-27.722,2.071
4402,22.358,0.54545,0.1,3.5083e-05,350.59,3.4608e-05,337.83,-1.0356e-05,-0.0072463,-1.3582e-05,-24.244,2.0708
4403,22.358,0.36364,0.1,3.4949e-05,349.25,3.4547e-05,338.34,-1.0478e-05,0.033462,-1.3268e-05,-20.924,2.0707
4404,22.358,0.18182,0.1,3.5136e-05,351.12,3.4765e-05,340.98,-1.0615e-05,0.022216,-1.3211e-05,-19.483,2.0706
4405,22.175,5.8182,0.1,3.8965e-05,389.38,3.8619e-05,379.85,-1.1934e-05,0.017141,-1.4387e-05,-18.411,2.0438
4406,22.175,5.6364,0.1,3.8723e-05,386.96,3.8364e-05,377.11,-1.1822e-05,0.028361,-1.4358e-05,-19.02,2.044
4407,22.175,5.4545,0.1,3.8789e-05,387.62,3.838e-05,376.46,-1.1725e-05,-0.0063032,-1.4575e-05,-21.419,2.0441
4408,22.175,5.2727,0.1,3.8912e-05,388.85,3.8449e-05,376.31,-1.1637e-05,-0.017054,-1.4824e-05,-23.958,2.0443
4409,22.175,5.0909,0.1,3.9059e-05,390.32,3.8542e-05,376.43,-1.1562e-05,-0.027365,-1.5072e-05,-26.406,2.0444
4410,22.175,4.9091,0.1,3.921e-05,391.83,3.8644e-05,376.71,-1.1498e-05,-0.034002,-1.5305e-05,-28.639,2.0445
4411,22.175,4.7273,0.1,3.9353e-05,393.26,3.8743e-05,377.06,-1.1445e-05,-0.038802,-1.551e-05,-30.581,2.0446
4412,22.175,4.5455,0.1,3.948e-05,394.53,3.8833e-05,377.42,-1.1405e-05,-0.042085,-1.5684e-05,-32.198,2.0447
4413,22.175,4.3636,0.1,3.9588e-05,395.6,3.8911e-05,377.77,-1.1374e-05,-0.044341,-1.5825e-05,-33.488,2.0448
4414,22.175,4.1818,0.1,3.9674e-05,396.47,3.8975e-05,378.09,-1.1352e-05,-0.045864,-1.5934e-05,-34.473,2.0449
4415,22.175,4,0.1,3.9741e-05,397.13,3.9024e-05,378.35,-1.1337e-05,-0.046879,-1.6014e-05,-35.191,2.0449
4416,22.175,3.8182,0.1,3.979e-05,397.62,3.9062e-05,378.56,-1.1327e-05,-0.047547,-1.6071e-05,-35.688,2.045
4417,22.175,3.6364,0.1,3.9824e-05,397.97,3.9089e-05,378.72,-1.1322e-05,-0.047976,-1.6109e-05,-36.014,2.045
4418,22.175,3.4545,0.1,3.9847e-05,398.2,3.9107e-05,378.83,-1.1319e-05,-0.048246,-1.6132e-05,-36.212,2.0451
4419,22.175,3.2727,0.1,3.9861e-05,398.33,3.9118e-05,378.91,-1.1318e-05,-0.048404,-1.6146e-05,-36.322,2.0451
4420,22.175,3.0909,0.1,3.9867e-05,398.39,3.9123e-05,378.94,-1.1318e-05,-0.048475,-1.6152e-05,-36.37,2.0451
4421,22.175,2.9091,0.1,3.9867e-05,398.39,3.9123e-05,378.94,-1.1318e-05,-0.048475,-1.6152e-05,-36.37,2.0451
4422,22.175,2.7273,0.1,3.9861e-05,398.33,3.9118e-05,378.91,-1.1318e-05,-0.048403,-1.6146e-05,-36.322,2.0451
4423,22.175,2.5455,0.1,3.9847e-05,398.2,3.9107e-05,378.83,-1.1319e-05,-0.048248,-1.6132e-05,-36.212,2.0451
4424,22.175,2.3636,0.1,3.9824e-05,397.97,3.9089e-05,378.72,-1.1322e-05,-0.047976,-1.6109e-05,-36.014,2.045
4425,22.175,2.1818,0.1,3.979e-05,397.62,3.9062e-05,378.56,-1.1327e-05,-0.047545,-1.6071e-05,-35.688,2.045
4426,22.175,2,0.1,3.9741e-05,397.13,3.9024e-05,378.35,-1.1337e-05,-0.046879,-1.6014e-05,-35.191,2.0449
4427,22.175,1.8182,0.1,3.9674e-05,396.47,3.8975e-05,378.09,-1.1352e-05,-0.045864,-1.5934e-05,-34.473,2.0449
4428,22.175,1.6364,0.1,3.9588e-05,395.6,3.8911e-05,377.77,-1.1374e-05,-0.04434,-1.5825e-05,-33.488,2.0448
4429,22.175,1.4545,0.1,3.948e-05,394.53,3.8833e-05,377.42,-1.1405e-05,-0.042085,-1.5684e-05,-32.198,2.0447
4430,22.175,1.2727,0.1,3.9353e-05,393.26,3.8743e-05,377.06,-1.1445e-05,-0.038803,-1.551e-05,-30.581,2.0446
4431,22.175,1.0909,0.1,3.921e-05,391.83,3.8644e-05,376.71,-1.1498e-05,-0.034005,-1.5305e-05,-28.639,2.0445
4432,22.175,0.90909,0.1,3.9059e-05,390.32,3.8542e-05,376.43,-1.1562e-05,-0.027366,-1.5072e-05,-26.406,2.0444
4433,22.175,0.72727,0.1,3.8912e-05,388.85,3.8449e-05,376.31,-1.1637e-05,-0.017055,-1.4824e-05,-23.958,2.0443
4434,22.175,0.54545,0.1,3.8789e-05,387.62,3.838e-05,376.46,-1.1725e-05,-0.0063046,-1.4575e-05,-21.42,2.0441
4435,22.175,0.36364,0.1,3.8723e-05,386.96,3.8364e-05,377.11,-1.1822e-05,0.028362,-1.4358e-05,-19.02,2.044
4436,22.175,0.18182,0.1,3.8965e-05,389.38,3.8619e-05,379.85,-1.1934e-05,0.017142,-1.4387e-05,-18.412,2.0438
4437,21.993,5.8182,0.1,4.2795e-05,427.65,4.2474e-05,418.73,-1.3254e-05,0.013035,-1.5563e-05,-17.333,2.0171
4438,21.993,5.6364,0.1,4.2507e-05,424.78,4.2189e-05,415.93,-1.3165e-05,0.023312,-1.5457e-05,-17.199,2.0173
4439,21.993,5.4545,0.1,4.2515e-05,424.86,4.2165e-05,415.17,-1.3091e-05,-0.006142,-1.5587e-05,-18.754,2.0174
4440,21.993,5.2727,0.1,4.2578e-05,425.48,4.2194e-05,414.9,-1.3029e-05,-0.015796,-1.5743e-05,-20.414,2.0176
4441,21.993,5.0909,0.1,4.2664e-05,426.35,4.2247e-05,414.92,-1.2978e-05,-0.025087,-1.59e-05,-21.98,2.0177
4442,21.993,4.9091,0.1,4.2758e-05,427.29,4.2313e-05,415.12,-1.294e-05,-0.031187,-1.6044e-05,-23.353,2.0178
4443,21.993,4.7273,0.1,4.2849e-05,428.2,4.238e-05,415.42,-1.2914e-05,-0.035602,-1.6166e-05,-24.475,2.0179
4444,21.993,4.5455,0.1,4.293e-05,429.01,4.2443e-05,415.76,-1.2897e-05,-0.038611,-1.6263e-05,-25.326,2.018
4445,21.993,4.3636,0.1,4.2997e-05,429.67,4.2497e-05,416.11,-1.289e-05,-0.040652,-1.6333e-05,-25.913,2.0181
4446,21.993,4.1818,0.1,4.3048e-05,430.19,4.2541e-05,416.43,-1.2889e-05,-0.042,-1.6379e-05,-26.263,2.0182
4447,21.993,4,0.1,4.3086e-05,430.56,4.2575e-05,416.72,-1.2893e-05,-0.042877,-1.6404e-05,-26.423,2.0183
4448,21.993,3.8182,0.1,4.311e-05,430.81,4.2599e-05,416.96,-1.29e-05,-0.043435,-1.6414e-05,-26.444,2.0183
4449,21.993,3.6364,0.1,4.3126e-05,430.96,4.2616e-05,417.14,-1.2908e-05,-0.043789,-1.6414e-05,-26.381,2.0184
4450,21.993,3.4545,0.1,4.3134e-05,431.04,4.2626e-05,417.28,-1.2916e-05,-0.044006,-1.6408e-05,-26.284,2.0184
4451,21.993,3.2727,0.1,4.3138e-05,431.08,4.2632e-05,417.37,-1.2922e-05,-0.044129,-1.6402e-05,-26.194,2.0184
4452,21.993,3.0909,0.1,4.314e-05,431.1,4.2635e-05,417.41,-1.2925e-05,-0.044189,-1.6399e-05,-26.141,2.0184
4453,21.993,2.9091,0.1,4.314e-05,431.1,4.2635e-05,417.41,-1.2925e-05,-0.044188,-1.6399e-05,-26.141,2.0184
4454,21.993,2.7273,0.1,4.3138e-05,431.08,4.2632e-05,417.37,-1.2922e-05,-0.04413,-1.6402e-05,-26.194,2.0184
4455,21.993,2.5455,0.1,4.3134e-05,431.04,4.2626e-05,417.28,-1.2916e-05,-0.044004,-1.6408e-05,-26.284,2.0184
4456,21.993,2.3636,0.1,4.3126e-05,430.96,4.2616e-05,417.14,-1.2908e-05,-0.04379,-1.6414e-05,-26.381,2.0184
4457,21.993,2.1818,0.1,4.311e-05,430.81,4.2599e-05,416.96,-1.29e-05,-0.043436,-1.6414e-05,-26.444,2.0183
4458,21.993,2,0.1,4.3086e-05,430.56,4.2575e-05,416.72,-1.2893e-05,-0.042876,-1.6404e-05,-26.423,2.0183
4459,21.993,1.8182,0.1,4.3048e-05,430.19,4.2541e-05,416.43,-1.2889e-05,-0.042001,-1.6379e-05,-26.263,2.0182
4460,21.993,1.6364,0.1,4.2997e-05,429.67,4.2497e-05,416.11,-1.289e-05,-0.040651,-1.6333e-05,-25.913,2.0181
4461,21.993,1.4545,0.1,4.293e-05,429.01,4.2443e-05,415.76,-1.2897e-05,-0.038613,-1.6263e-05,-25.326,2.018
4462,21.993,1.2727,0.1,4.2849e-05,428.2,4.238e-05,415.42,-1.2914e-05,-0.035602,-1.6166e-05,-24.475,2.0179
4463,21.993,1.0909,0.1,4.2758e-05,427.29,4.2313e-05,415.12,-1.294e-05,-0.031188,-1.6044e-05,-23.353,2.0178
4464,21.993,0.90909,0.1,4.2664e-05,426.35,4.2247e-05,414.92,-1.2978e-05,-0.025084,-1.59e-05,-21.98,2.0177
4465,21.993,0.72727,0.1,4.2578e-05,425.48,4.2193e-05,414.9,-1.3029e-05,-0.015795,-1.5743e-05,-20.414,2.0176
4466,21.993,0.54545,0.1,4.2515e-05,424.86,4.2165e-05,415.17,-1.3091e-05,-0.0061438,-1.5587e-05,-18.754,2.0174
4467,21.993,0.36364,0.1,4.2507e-05,424.78,4.2189e-05,415.93,-1.3165e-05,0.023313,-1.5457e-05,-17.199,2.0173
4468,21.993,0.18182,0.1,4.2795e-05,427.65,4.2474e-05,418.73,-1.3254e-05,0.013036,-1.5563e-05,-17.333,2.0171
4469,21.811,5.8182,0.1,4.6622e-05,465.9,4.6324e-05,457.56,-1.4572e-05,0.0097016,-1.6738e-05,-16.263,1.9905
4470,21.811,5.6364,0.1,4.6297e-05,462.65,4.6015e-05,454.74,-1.4504e-05,0.018371,-1.6565e-05,-15.462,1.9906
4471,21.811,5.4545,0.1,4.6256e-05,462.24,4.5958e-05,453.9,-1.4454e-05,-0.0065923,-1.6614e-05,-16.237,1.9908
4472,21.811,5.2727,0.1,4.6265e-05,462.33,4.5951e-05,453.56,-1.4416e-05,-0.015306,-1.6685e-05,-17.066,1.9909
4473,21.811,5.0909,0.1,4.6299e-05,462.67,4.597e-05,453.51,-1.4391e-05,-0.023684,-1.6755e-05,-17.78,1.9911
4474,21.811,4.9091,0.1,4.6342e-05,463.1,4.6004e-05,453.67,-1.438e-05,-0.029282,-1.6812e-05,-18.303,1.9912
4475,21.811,4.7273,0.1,4.6386e-05,463.54,4.6042e-05,453.95,-1.438e-05,-0.033316,-1.6851e-05,-18.598,1.9913
4476,21.811,4.5455,0.1,4.6425e-05,463.92,4.6078e-05,454.3,-1.439e-05,-0.036033,-1.6868e-05,-18.66,1.9914
4477,21.811,4.3636,0.1,4.6453e-05,464.21,4.611e-05,454.66,-1.4407e-05,-0.037831,-1.6865e-05,-18.508,1.9915
4478,21.811,4.1818,0.1,4.6472e-05,464.4,4.6135e-05,455.02,-1.443e-05,-0.038975,-1.6844e-05,-18.184,1.9916
4479,21.811,4,0.1,4.6481e-05,464.49,4.6153e-05,455.35,-1.4455e-05,-0.03969,-1.6811e-05,-17.743,1.9916
4480,21.811,3.8182,0.1,4.6483e-05,464.51,4.6165e-05,455.63,-1.4481e-05,-0.040129,-1.6771e-05,-17.246,1.9917
4481,21.811,3.6364,0.1,4.648e-05,464.48,4.6171e-05,455.85,-1.4504e-05,-0.040407,-1.6729e-05,-16.757,1.9917
4482,21.811,3.4545,0.1,4.6475e-05,464.42,4.6175e-05,456.02,-1.4524e-05,-0.040583,-1.6692e-05,-16.334,1.9918
4483,21.811,3.2727,0.1,4.647e-05,464.37,4.6176e-05,456.14,-1.4538e-05,-0.040695,-1.6665e-05,-16.023,1.9918
4484,21.811,3.0909,0.1,4.6467e-05,464.35,4.6176e-05,456.19,-1.4545e-05,-0.040749,-1.665e-05,-15.858,1.9918
4485,21.811,2.9091,0.1,4.6467e-05,464.35,4.6176e-05,456.19,-1.4545e-05,-0.040748,-1.665e-05,-15.858,1.9918
4486,21.811,2.7273,0.1,4.647e-05,464.37,4.6176e-05,456.14,-1.4538e-05,-0.040695,-1.6665e-05,-16.023,1.9918
4487,21.811,2.5455,0.1,4.6475e-05,464.42,4.6175e-05,456.02,-1.4524e-05,-0.040583,-1.6692e-05,-16.334,1.9918
4488,21.811,2.3636,0.1,4.648e-05,464.48,4.6171e-05,455.85,-1.4504e-05,-0.040405,-1.6729e-05,-16.757,1.9917
4489,21.811,2.1818,0.1,4.6483e-05,464.51,4.6165e-05,455.63,-1.4481e-05,-0.04013,-1.6771e-05,-17.246,1.9917
4490,21.811,2,0.1,4.6481e-05,464.49,4.6153e-05,455.35,-1.4455e-05,-0.039689,-1.6811e-05,-17.742,1.9916
4491,21.811,1.8182,0.1,4.6472e-05,464.4,4.6135e-05,455.02,-1.443e-05,-0.038976,-1.6844e-05,-18.184,1.9916
4492,21.811,1.6364,0.1,4.6453e-05,464.21,4.611e-05,454.66,-1.4407e-05,-0.037832,-1.6865e-05,-18.508,1.9915
4493,21.811,1.4545,0.1,4.6425e-05,463.92,4.6078e-05,454.3,-1.439e-05,-0.036035,-1.6868e-05,-18.66,1.9914
4494,21.811,1.2727,0.1,4.6386e-05,463.54,4.6042e-05,453.95,-1.438e-05,-0.033317,-1.6851e-05,-18.598,1.9913
4495,21.811,1.0909,0.1,4.6342e-05,463.1,4.6003e-05,453.67,-1.438e-05,-0.029284,-1.6812e-05,-18.303,1.9912
4496,21.811,0.90909,0.1,4.6299e-05,462.67,4.597e-05,453.51,-1.4391e-05,-0.023686,-1.6755e-05,-17.78,1.9911
4497,21.811,0.72727,0.1,4.6265e-05,462.33,4.5951e-05,453.56,-1.4416e-05,-0.015307,-1.6685e-05,-17.066,1.9909
4498,21.811,0.54545,0.1,4.6256e-05,462.24,4.5958e-05,453.9,-1.4454e-05,-0.0065937,-1.6614e-05,-16.237,1.9908
4499,21.811,0.36364,0.1,4.6297e-05,462.65,4.6015e-05,454.74,-1.4504e-05,0.018374,-1.6565e-05,-15.462,1.9906
4500,21.811,0.18182,0.1,4.6622e-05,465.9,4.6324e-05,457.56,-1.4572e-05,0.0097007,-1.6738e-05,-16.263,1.9905
4501,21.628,5.8182,0.1,5.0442e-05,504.07,5.0166e-05,496.29,-1.5886e-05,0.0070171,-1.7912e-05,-15.217,1.9638
4502,21.628,5.6364,0.1,5.0087e-05,500.53,4.9838e-05,493.48,-1.5839e-05,0.013582,-1.7679e-05,-13.817,1.964
4503,21.628,5.4545,0.1,5.0004e-05,499.69,4.9753e-05,492.61,-1.581e-05,-0.0075543,-1.7655e-05,-13.865,1.9642
4504,21.628,5.2727,0.1,4.9968e-05,499.34,4.9717e-05,492.24,-1.5797e-05,-0.01547,-1.7646e-05,-13.904,1.9643
4505,21.628,5.0909,0.1,4.9956e-05,499.22,4.9707e-05,492.17,-1.58e-05,-0.023026,-1.7632e-05,-13.789,1.9644
4506,21.628,4.9091,0.1,4.9956e-05,499.21,4.9713e-05,492.33,-1.5816e-05,-0.028145,-1.7605e-05,-13.466,1.9646
4507,21.628,4.7273,0.1,4.9958e-05,499.23,4.9725e-05,492.63,-1.5845e-05,-0.031789,-1.756e-05,-12.921,1.9647
4508,21.628,4.5455,0.1,4.9958e-05,499.23,4.9739e-05,493.02,-1.5883e-05,-0.034173,-1.7497e-05,-12.166,1.9648
4509,21.628,4.3636,0.1,4.9953e-05,499.18,4.9751e-05,493.45,-1.5928e-05,-0.035652,-1.7419e-05,-11.238,1.9649
4510,21.628,4.1818,0.1,4.9941e-05,499.07,4.9759e-05,493.87,-1.5976e-05,-0.036507,-1.7328e-05,-10.196,1.965
4511,21.628,4,0.1,4.9925e-05,498.91,4.9763e-05,494.27,-1.6025e-05,-0.036969,-1.7232e-05,-9.1082,1.965
4512,21.628,3.8182,0.1,4.9906e-05,498.71,4.9763e-05,494.62,-1.6072e-05,-0.037234,-1.7138e-05,-8.0502,1.9651
4513,21.628,3.6364,0.1,4.9886e-05,498.51,4.9761e-05,494.91,-1.6113e-05,-0.037436,-1.7052e-05,-7.0965,1.9651
4514,21.628,3.4545,0.1,4.9868e-05,498.34,4.9757e-05,495.13,-1.6146e-05,-0.037647,-1.6981e-05,-6.3146,1.9652
4515,21.628,3.2727,0.1,4.9855e-05,498.2,4.9754e-05,495.28,-1.6169e-05,-0.037856,-1.6931e-05,-5.7601,1.9652
4516,21.628,3.0909,0.1,4.9848e-05,498.13,4.9752e-05,495.36,-1.6181e-05,-0.037994,-1.6904e-05,-5.4726,1.9652
4517,21.628,2.9091,0.1,4.9848e-05,498.13,4.9752e-05,495.36,-1.6181e-05,-0.037995,-1.6904e-05,-5.4726,1.9652
4518,21.628,2.7273,0.1,4.9855e-05,498.2,4.9754e-05,495.28,-1.6169e-05,-0.037856,-1.6931e-05,-5.7601,1.9652
4519,21.628,2.5455,0.1,4.9868e-05,498.34,4.9757e-05,495.13,-1.6146e-05,-0.037646,-1.6981e-05,-6.3145,1.9652
4520,21.628,2.3636,0.1,4.9886e-05,498.51,4.9761e-05,494.91,-1.6113e-05,-0.037437,-1.7052e-05,-7.0965,1.9651
4521,21.628,2.1818,0.1,4.9906e-05,498.71,4.9763e-05,494.62,-1.6072e-05,-0.037233,-1.7138e-05,-8.0502,1.9651
4522,21.628,2,0.1,4.9925e-05,498.91,4.9763e-05,494.27,-1.6025e-05,-0.036969,-1.7232e-05,-9.1082,1.965
4523,21.628,1.8182,0.1,4.9941e-05,499.07,4.9759e-05,493.87,-1.5976e-05,-0.036506,-1.7328e-05,-10.196,1.965
4524,21.628,1.6364,0.1,4.9953e-05,499.18,4.9751e-05,493.45,-1.5928e-05,-0.035653,-1.7419e-05,-11.238,1.9649
4525,21.628,1.4545,0.1,4.9958e-05,499.23,4.9739e-05,493.02,-1.5883e-05,-0.034172,-1.7497e-05,-12.166,1.9648
4526,21.628,1.2727,0.1,4.9958e-05,499.23,4.9725e-05,492.63,-1.5845e-05,-0.031789,-1.756e-05,-12.921,1.9647
4527,21.628,1.0909,0.1,4.9956e-05,499.21,4.9712e-05,492.33,-1.5816e-05,-0.028145,-1.7605e-05,-13.466,1.9646
4528,21.628,0.90909,0.1,4.9956e-05,499.22,4.9707e-05,492.17,-1.58e-05,-0.023028,-1.7632e-05,-13.789,1.9644
4529,21.628,0.72727,0.1,4.9968e-05,499.34,4.9717e-05,492.24,-1.5797e-05,-0.015472,-1.7646e-05,-13.904,1.9643
4530,21.628,0.54545,0.1,5.0004e-05,499.69,4.9753e-05,492.61,-1.581e-05,-0.0075507,-1.7655e-05,-13.865,1.9642
4531,21.628,0.36364,0.1,5.0087e-05,500.53,4.9838e-05,493.48,-1.5839e-05,0.013585,-1.7679e-05,-13.817,1.964
4532,21.628,0.18182,0.1,5.0442e-05,504.07,5.0166e-05,496.29,-1.5886e-05,0.0070147,-1.7912e-05,-15.217,1.9638
4533,21.446,5.8182,0.1,5.4248e-05,542.1,5.3992e-05,534.86,-1.7193e-05,0.0049024,-1.9085e-05,-14.212,1.9372
4534,21.446,5.6364,0.1,5.3871e-05,538.34,5.3652e-05,532.1,-1.7165e-05,0.0089966,-1.88e-05,-12.275,1.9374
4535,21.446,5.4545,0.1,5.3753e-05,537.16,5.3545e-05,531.24,-1.7159e-05,-0.0089599,-1.8708e-05,-11.646,1.9376
4536,21.446,5.2727,0.1,5.368e-05,536.43,5.3486e-05,530.88,-1.7172e-05,-0.016213,-1.8624e-05,-10.927,1.9377
4537,21.446,5.0909,0.1,5.363e-05,535.93,5.3453e-05,530.85,-1.7202e-05,-0.023028,-1.853e-05,-9.9978,1.9379
4538,21.446,4.9091,0.1,5.3592e-05,535.55,5.3436e-05,531.07,-1.7249e-05,-0.027671,-1.842e-05,-8.8274,1.938
4539,21.446,4.7273,0.1,5.3559e-05,535.22,5.3428e-05,531.46,-1.7308e-05,-0.030858,-1.8292e-05,-7.4226,1.9381
4540,21.446,4.5455,0.1,5.3526e-05,534.89,5.3425e-05,531.95,-1.7377e-05,-0.032694,-1.8147e-05,-5.8185,1.9382
4541,21.446,4.3636,0.1,5.3492e-05,534.55,5.3421e-05,532.48,-1.7453e-05,-0.033317,-1.7991e-05,-4.074,1.9383
4542,21.446,4.1818,0.1,5.3455e-05,534.18,5.3415e-05,533.03,-1.753e-05,-0.032275,-1.7828e-05,-2.2668,1.9384
4543,21.446,4,0.1,5.3417e-05,533.8,5.3408e-05,533.54,-1.7604e-05,-0.018906,-1.7668e-05,-0.49593,1.9385
4544,21.446,3.8182,0.1,5.3379e-05,533.42,5.3399e-05,534,-1.7513e-05,1.1948,-1.7678e-05,-0.041909,1.9385
4545,21.446,3.6364,0.1,5.3345e-05,533.08,5.3389e-05,534.39,-1.738e-05,2.6524,-1.7738e-05,-0.038118,1.9386
4546,21.446,3.4545,0.1,5.3317e-05,532.8,5.338e-05,534.68,-1.7273e-05,3.8256,-1.7787e-05,-0.036866,1.9386
4547,21.446,3.2727,0.1,5.3297e-05,532.6,5.3373e-05,534.89,-1.7197e-05,4.6469,-1.7821e-05,-0.036215,1.9386
4548,21.446,3.0909,0.1,5.3286e-05,532.49,5.337e-05,534.99,-1.7158e-05,5.0695,-1.7838e-05,-0.035915,1.9386
4549,21.446,2.9091,0.1,5.3286e-05,532.49,5.337e-05,534.99,-1.7158e-05,5.0695,-1.7838e-05,-0.035915,1.9386
4550,21.446,2.7273,0.1,5.3297e-05,532.6,5.3373e-05,534.89,-1.7197e-05,4.6469,-1.7821e-05,-0.036215,1.9386
4551,21.446,2.5455,0.1,5.3317e-05,532.8,5.338e-05,534.68,-1.7273e-05,3.8256,-1.7787e-05,-0.036865,1.9386
4552,21.446,2.3636,0.1,5.3345e-05,533.08,5.3389e-05,534.38,-1.738e-05,2.6524,-1.7738e-05,-0.038119,1.9386
4553,21.446,2.1818,0.1,5.3379e-05,533.42,5.3399e-05,534,-1.7513e-05,1.1948,-1.7678e-05,-0.041907,1.9385
4554,21.446,2,0.1,5.3417e-05,533.8,5.3408e-05,533.54,-1.7604e-05,-0.018907,-1.7668e-05,-0.4959,1.9385
4555,21.446,1.8182,0.1,5.3455e-05,534.18,5.3415e-05,533.03,-1.753e-05,-0.032275,-1.7828e-05,-2.2668,1.9384
4556,21.446,1.6364,0.1,5.3492e-05,534.55,5.3421e-05,532.48,-1.7453e-05,-0.033317,-1.7991e-05,-4.074,1.9383
4557,21.446,1.4545,0.1,5.3526e-05,534.89,5.3424e-05,531.95,-1.7377e-05,-0.032693,-1.8147e-05,-5.8185,1.9382
4558,21.446,1.2727,0.1,5.3559e-05,535.22,5.3428e-05,531.46,-1.7308e-05,-0.030858,-1.8292e-05,-7.4226,1.9381
4559,21.446,1.0909,0.1,5.3592e-05,535.55,5.3436e-05,531.07,-1.7249e-05,-0.027671,-1.842e-05,-8.8274,1.938
4560,21.446,0.90909,0.1,5.363e-05,535.93,5.3453e-05,530.85,-1.7202e-05,-0.023031,-1.853e-05,-9.9978,1.9379
4561,21.446,0.72727,0.1,5.368e-05,536.43,5.3486e-05,530.88,-1.7172e-05,-0.016215,-1.8624e-05,-10.927,1.9377
4562,21.446,0.54545,0.1,5.3753e-05,537.16,5.3545e-05,531.24,-1.7159e-05,-0.0089581,-1.8708e-05,-11.646,1.9376
4563,21.446,0.36364,0.1,5.3871e-05,538.34,5.3652e-05,532.1,-1.7165e-05,0.009,-1.88e-05,-12.276,1.9374
4564,21.446,0.18182,0.1,5.4248e-05,542.1,5.3992e-05,534.86,-1.7193e-05,0.0049022,-1.9085e-05,-14.212,1.9372
4565,21.263,5.8182,0.1,5.803e-05,579.9,5.7793e-05,573.16,-1.8489e-05,0.0032951,-2.0255e-05,-13.266,1.9107
4566,21.263,5.6364,0.1,5.7639e-05,575.99,5.7447e-05,570.49,-1.848e-05,0.0046646,-1.9926e-05,-10.855,1.9108
4567,21.263,5.4545,0.1,5.7495e-05,574.55,5.7326e-05,569.69,-1.8497e-05,-0.010777,-1.9772e-05,-9.5924,1.911
4568,21.263,5.2727,0.1,5.7394e-05,573.54,5.7251e-05,569.42,-1.8537e-05,-0.017502,-1.9618e-05,-8.1438,1.9112
4569,21.263,5.0909,0.1,5.7314e-05,572.74,5.7202e-05,569.5,-1.8597e-05,-0.023637,-1.9447e-05,-6.4086,1.9113
4570,21.263,4.9091,0.1,5.7247e-05,572.07,5.717e-05,569.85,-1.8676e-05,-0.0277,-1.9256e-05,-4.3808,1.9114
4571,21.263,4.7273,0.1,5.7185e-05,571.46,5.7149e-05,570.4,-1.877e-05,-0.029561,-1.9044e-05,-2.0916,1.9116
4572,21.263,4.5455,0.1,5.7127e-05,570.88,5.7133e-05,571.06,-1.8815e-05,0.4149,-1.8876e-05,-0.045103,1.9117
4573,21.263,4.3636,0.1,5.7069e-05,570.3,5.7119e-05,571.78,-1.8579e-05,3.0174,-1.8985e-05,-0.036733,1.9118
4574,21.263,4.1818,0.1,5.7012e-05,569.73,5.7106e-05,572.52,-1.834e-05,5.6467,-1.9096e-05,-0.036435,1.9118
4575,21.263,4,0.1,5.6957e-05,569.18,5.7092e-05,573.21,-1.8109e-05,8.1836,-1.9203e-05,-0.03617,1.9119
4576,21.263,3.8182,0.1,5.6906e-05,568.67,5.7077e-05,573.84,-1.7896e-05,10.514,-1.93e-05,-0.035769,1.912
4577,21.263,3.6364,0.1,5.6862e-05,568.22,5.7064e-05,574.37,-1.7712e-05,12.53,-1.9385e-05,-0.035301,1.912
4578,21.263,3.4545,0.1,5.6826e-05,567.86,5.7052e-05,574.78,-1.7565e-05,14.135,-1.9451e-05,-0.034859,1.9121
4579,21.263,3.2727,0.1,5.68e-05,567.61,5.7044e-05,575.06,-1.7463e-05,15.25,-1.9497e-05,-0.034522,1.9121
4580,21.263,3.0909,0.1,5.6787e-05,567.48,5.7039e-05,575.21,-1.7411e-05,15.822,-1.9521e-05,-0.034339,1.9121
4581,21.263,2.9091,0.1,5.6787e-05,567.48,5.7039e-05,575.21,-1.7411e-05,15.822,-1.9521e-05,-0.034338,1.9121
4582,21.263,2.7273,0.1,5.68e-05,567.61,5.7044e-05,575.06,-1.7463e-05,15.25,-1.9497e-05,-0.034522,1.9121
4583,21.263,2.5455,0.1,5.6826e-05,567.86,5.7052e-05,574.78,-1.7565e-05,14.135,-1.9451e-05,-0.03486,1.9121
4584,21.263,2.3636,0.1,5.6862e-05,568.22,5.7064e-05,574.37,-1.7712e-05,12.53,-1.9385e-05,-0.035301,1.912
4585,21.263,2.1818,0.1,5.6906e-05,568.67,5.7077e-05,573.84,-1.7896e-05,10.514,-1.93e-05,-0.035768,1.912
4586,21.263,2,0.1,5.6957e-05,569.18,5.7092e-05,573.21,-1.8109e-05,8.1836,-1.9203e-05,-0.03617,1.9119
4587,21.263,1.8182,0.1,5.7012e-05,569.73,5.7106e-05,572.52,-1.834e-05,5.6468,-1.9096e-05,-0.036435,1.9118
4588,21.263,1.6364,0.1,5.7069e-05,570.3,5.7119e-05,571.78,-1.8579e-05,3.0175,-1.8985e-05,-0.036733,1.9118
4589,21.263,1.4545,0.1,5.7127e-05,570.88,5.7133e-05,571.06,-1.8815e-05,0.41493,-1.8876e-05,-0.045102,1.9117
4590,21.263,1.2727,0.1,5.7185e-05,571.46,5.7149e-05,570.4,-1.877e-05,-0.029562,-1.9044e-05,-2.0916,1.9116
4591,21.263,1.0909,0.1,5.7247e-05,572.07,5.717e-05,569.85,-1.8676e-05,-0.027701,-1.9256e-05,-4.3808,1.9114
4592,21.263,0.90909,0.1,5.7314e-05,572.74,5.7202e-05,569.5,-1.8597e-05,-0.023639,-1.9447e-05,-6.4086,1.9113
4593,21.263,0.72727,0.1,5.7394e-05,573.54,5.7251e-05,569.42,-1.8537e-05,-0.017504,-1.9618e-05,-8.1438,1.9112
4594,21.263,0.54545,0.1,5.7495e-05,574.55,5.7326e-05,569.69,-1.8497e-05,-0.010776,-1.9772e-05,-9.5924,1.911
4595,21.263,0.36364,0.1,5.7639e-05,575.99,5.7447e-05,570.49,-1.848e-05,0.0046656,-1.9926e-05,-10.855,1.9108
4596,21.263,0.18182,0.1,5.803e-05,579.9,5.7793e-05,573.16,-1.8489e-05,0.0032962,-2.0255e-05,-13.266,1.9107
4597,21.081,5.8182,0.1,6.1779e-05,617.37,6.1559e-05,611.08,-1.977e-05,0.0021578,-2.142e-05,-12.399,1.8841
4598,21.081,5.6364,0.1,6.1382e-05,613.4,6.1213e-05,608.55,-1.978e-05,0.00067829,-2.1054e-05,-9.5772,1.8843
4599,21.081,5.4545,0.1,6.1221e-05,611.79,6.1086e-05,607.88,-1.982e-05,-0.012929,-2.0847e-05,-7.7251,1.8845
4600,21.081,5.2727,0.1,6.11e-05,610.58,6.1003e-05,607.77,-1.9888e-05,-0.019239,-2.0627e-05,-5.5694,1.8847
4601,21.081,5.0909,0.1,6.1e-05,609.58,6.0948e-05,608.05,-1.9982e-05,-0.024565,-2.0382e-05,-3.0315,1.8848
4602,21.081,4.9091,0.1,6.0913e-05,608.71,6.091e-05,608.63,-2.0094e-05,-0.006071,-2.0114e-05,-0.15132,1.8849
4603,21.081,4.7273,0.1,6.0833e-05,607.91,6.0884e-05,609.43,-1.9815e-05,3.0829,-2.023e-05,-0.033283,1.8851
4604,21.081,4.5455,0.1,6.0757e-05,607.16,6.0865e-05,610.37,-1.9503e-05,6.5114,-2.0375e-05,-0.034535,1.8852
4605,21.081,4.3636,0.1,6.0685e-05,606.43,6.0849e-05,611.37,-1.9183e-05,10.047,-2.0525e-05,-0.035282,1.8853
4606,21.081,4.1818,0.1,6.0616e-05,605.74,6.0834e-05,612.39,-1.8865e-05,13.561,-2.0674e-05,-0.035489,1.8854
4607,21.081,4,0.1,6.0551e-05,605.09,6.082e-05,613.35,-1.8561e-05,16.913,-2.0817e-05,-0.035308,1.8854
4608,21.081,3.8182,0.1,6.0492e-05,604.51,6.0807e-05,614.22,-1.8284e-05,19.966,-2.0946e-05,-0.034898,1.8855
4609,21.081,3.6364,0.1,6.0442e-05,604.01,6.0794e-05,614.97,-1.8046e-05,22.589,-2.1057e-05,-0.034399,1.8855
4610,21.081,3.4545,0.1,6.0403e-05,603.61,6.0784e-05,615.55,-1.7858e-05,24.666,-2.1145e-05,-0.033925,1.8856
4611,21.081,3.2727,0.1,6.0375e-05,603.33,6.0776e-05,615.95,-1.7727e-05,26.105,-2.1206e-05,-0.033561,1.8856
4612,21.081,3.0909,0.1,6.0361e-05,603.19,6.0772e-05,616.15,-1.766e-05,26.841,-2.1237e-05,-0.033366,1.8856
4613,21.081,2.9091,0.1,6.0361e-05,603.19,6.0772e-05,616.15,-1.766e-05,26.841,-2.1237e-05,-0.033366,1.8856
4614,21.081,2.7273,0.1,6.0375e-05,603.33,6.0776e-05,615.95,-1.7727e-05,26.105,-2.1206e-05,-0.033562,1.8856
4615,21.081,2.5455,0.1,6.0403e-05,603.61,6.0784e-05,615.55,-1.7858e-05,24.666,-2.1145e-05,-0.033925,1.8856
4616,21.081,2.3636,0.1,6.0442e-05,604.01,6.0794e-05,614.97,-1.8046e-05,22.589,-2.1057e-05,-0.034398,1.8855
4617,21.081,2.1818,0.1,6.0492e-05,604.51,6.0807e-05,614.22,-1.8284e-05,19.966,-2.0946e-05,-0.034898,1.8855
4618,21.081,2,0.1,6.0551e-05,605.09,6.082e-05,613.35,-1.8561e-05,16.913,-2.0817e-05,-0.035307,1.8854
4619,21.081,1.8182,0.1,6.0616e-05,605.74,6.0834e-05,612.39,-1.8865e-05,13.561,-2.0674e-05,-0.035489,1.8854
4620,21.081,1.6364,0.1,6.0685e-05,606.43,6.0849e-05,611.37,-1.9183e-05,10.047,-2.0525e-05,-0.035284,1.8853
4621,21.081,1.4545,0.1,6.0757e-05,607.16,6.0865e-05,610.37,-1.9503e-05,6.5114,-2.0375e-05,-0.034535,1.8852
4622,21.081,1.2727,0.1,6.0833e-05,607.91,6.0884e-05,609.43,-1.9815e-05,3.0829,-2.023e-05,-0.033281,1.8851
4623,21.081,1.0909,0.1,6.0913e-05,608.71,6.091e-05,608.63,-2.0094e-05,-0.0060727,-2.0114e-05,-0.1513,1.8849
4624,21.081,0.90909,0.1,6.1e-05,609.58,6.0948e-05,608.05,-1.9982e-05,-0.024566,-2.0382e-05,-3.0315,1.8848
4625,21.081,0.72727,0.1,6.11e-05,610.58,6.1003e-05,607.77,-1.9888e-05,-0.019241,-2.0627e-05,-5.5694,1.8847
4626,21.081,0.54545,0.1,6.1221e-05,611.79,6.1086e-05,607.88,-1.982e-05,-0.012928,-2.0847e-05,-7.7251,1.8845
4627,21.081,0.36364,0.1,6.1382e-05,613.4,6.1213e-05,608.55,-1.978e-05,0.00068001,-2.1054e-05,-9.5772,1.8843
4628,21.081,0.18182,0.1,6.1779e-05,617.37,6.1559e-05,611.08,-1.977e-05,0.0021583,-2.142e-05,-12.399,1.8841
4629,20.898,5.8182,0.1,6.5481e-05,654.35,6.5275e-05,648.46,-2.103e-05,0.0014774,-2.2578e-05,-11.635,1.8576
4630,20.898,5.6364,0.1,6.5086e-05,650.42,6.4938e-05,646.14,-2.1058e-05,-0.0027604,-2.2185e-05,-8.468,1.8578
4631,20.898,5.4545,0.1,6.4919e-05,648.74,6.4813e-05,645.68,-2.1123e-05,-0.015141,-2.1929e-05,-6.0706,1.858
4632,20.898,5.2727,0.1,6.479e-05,647.45,6.4734e-05,645.82,-2.1222e-05,-0.020768,-2.1649e-05,-3.2283,1.8582
4633,20.898,5.0909,0.1,6.4681e-05,646.36,6.4682e-05,646.41,-2.133e-05,0.14326,-2.1356e-05,-0.053023,1.8583
4634,20.898,4.9091,0.1,6.4585e-05,645.4,6.465e-05,647.34,-2.0983e-05,3.9204,-2.151e-05,-0.032244,1.8585
4635,20.898,4.7273,0.1,6.4497e-05,644.53,6.463e-05,648.52,-2.0605e-05,8.0915,-2.1686e-05,-0.034133,1.8586
4636,20.898,4.5455,0.1,6.4416e-05,643.71,6.4619e-05,649.86,-2.0207e-05,12.513,-2.1877e-05,-0.035354,1.8587
4637,20.898,4.3636,0.1,6.4339e-05,642.95,6.4611e-05,651.28,-1.9801e-05,17.039,-2.2073e-05,-0.035873,1.8588
4638,20.898,4.1818,0.1,6.4268e-05,642.24,6.4606e-05,652.7,-1.9401e-05,21.506,-2.2268e-05,-0.035847,1.8589
4639,20.898,4,0.1,6.4203e-05,641.59,6.4601e-05,654.05,-1.9021e-05,25.745,-2.2452e-05,-0.03546,1.859
4640,20.898,3.8182,0.1,6.4145e-05,641.01,6.4597e-05,655.27,-1.8677e-05,29.586,-2.2619e-05,-0.034877,1.859
4641,20.898,3.6364,0.1,6.4097e-05,640.53,6.4592e-05,656.32,-1.8383e-05,32.872,-2.2762e-05,-0.034244,1.8591
4642,20.898,3.4545,0.1,6.406e-05,640.16,6.4589e-05,657.13,-1.815e-05,35.467,-2.2875e-05,-0.033673,1.8591
4643,20.898,3.2727,0.1,6.4034e-05,639.9,6.4586e-05,657.7,-1.7989e-05,37.261,-2.2953e-05,-0.03325,1.8591
4644,20.898,3.0909,0.1,6.4021e-05,639.77,6.4584e-05,657.98,-1.7907e-05,38.178,-2.2993e-05,-0.033024,1.8591
4645,20.898,2.9091,0.1,6.4021e-05,639.77,6.4584e-05,657.98,-1.7907e-05,38.178,-2.2993e-05,-0.033024,1.8591
4646,20.898,2.7273,0.1,6.4034e-05,639.9,6.4586e-05,657.7,-1.7989e-05,37.261,-2.2953e-05,-0.033248,1.8591
4647,20.898,2.5455,0.1,6.406e-05,640.16,6.4589e-05,657.13,-1.815e-05,35.467,-2.2875e-05,-0.033674,1.8591
4648,20.898,2.3636,0.1,6.4097e-05,640.53,6.4592e-05,656.32,-1.8383e-05,32.873,-2.2762e-05,-0.034245,1.8591
4649,20.898,2.1818,0.1,6.4145e-05,641.01,6.4597e-05,655.27,-1.8677e-05,29.586,-2.2619e-05,-0.034878,1.859
4650,20.898,2,0.1,6.4203e-05,641.59,6.4601e-05,654.05,-1.9021e-05,25.745,-2.2452e-05,-0.035459,1.859
4651,20.898,1.8182,0.1,6.4268e-05,642.24,6.4606e-05,652.7,-1.9401e-05,21.506,-2.2268e-05,-0.035846,1.8589
4652,20.898,1.6364,0.1,6.4339e-05,642.95,6.4611e-05,651.28,-1.9801e-05,17.039,-2.2073e-05,-0.035872,1.8588
4653,20.898,1.4545,0.1,6.4416e-05,643.71,6.4619e-05,649.86,-2.0207e-05,12.513,-2.1877e-05,-0.035356,1.8587
4654,20.898,1.2727,0.1,6.4497e-05,644.53,6.463e-05,648.52,-2.0605e-05,8.0915,-2.1686e-05,-0.034133,1.8586
4655,20.898,1.0909,0.1,6.4585e-05,645.4,6.465e-05,647.34,-2.0983e-05,3.9205,-2.151e-05,-0.032244,1.8585
4656,20.898,0.90909,0.1,6.4681e-05,646.36,6.4682e-05,646.41,-2.133e-05,0.14328,-2.1356e-05,-0.053021,1.8583
4657,20.898,0.72727,0.1,6.479e-05,647.45,6.4734e-05,645.82,-2.1222e-05,-0.020771,-2.1649e-05,-3.2283,1.8582
4658,20.898,0.54545,0.1,6.4919e-05,648.74,6.4813e-05,645.68,-2.1123e-05,-0.015143,-2.1929e-05,-6.0707,1.858
4659,20.898,0.36364,0.1,6.5086e-05,650.42,6.4938e-05,646.14,-2.1058e-05,-0.0027575,-2.2185e-05,-8.468,1.8578
4660,20.898,0.18182,0.1,6.5481e-05,654.35,6.5275e-05,648.46,-2.103e-05,0.0014807,-2.2578e-05,-11.635,1.8576
4661,20.716,5.8182,0.1,6.9116e-05,690.68,6.8922e-05,685.12,-2.2261e-05,0.001241,-2.3725e-05,-10.998,1.8312
4662,20.716,5.6364,0.1,6.8736e-05,686.88,6.8604e-05,683.07,-2.2308e-05,-0.0053124,-2.3313e-05,-7.5581,1.8314
4663,20.716,5.4545,0.1,6.8574e-05,685.27,6.8493e-05,682.92,-2.2399e-05,-0.016597,-2.3018e-05,-4.662,1.8316
4664,20.716,5.2727,0.1,6.8449e-05,684.02,6.8429e-05,683.44,-2.2532e-05,-0.015422,-2.2684e-05,-1.157,1.8317
4665,20.716,5.0909,0.1,6.8345e-05,682.98,6.8395e-05,684.46,-2.23e-05,3.0158,-2.2706e-05,-0.033854,1.8319
4666,20.716,4.9091,0.1,6.8254e-05,682.07,6.8382e-05,685.89,-2.1874e-05,7.7461,-2.2909e-05,-0.034986,1.832
4667,20.716,4.7273,0.1,6.8173e-05,681.26,6.8383e-05,687.62,-2.1412e-05,12.93,-2.3138e-05,-0.036514,1.8322
4668,20.716,4.5455,0.1,6.81e-05,680.53,6.8394e-05,689.53,-2.0927e-05,18.411,-2.3382e-05,-0.037319,1.8323
4669,20.716,4.3636,0.1,6.8034e-05,679.87,6.8409e-05,691.53,-2.0433e-05,24.002,-2.3633e-05,-0.037459,1.8324
4670,20.716,4.1818,0.1,6.7974e-05,679.27,6.8427e-05,693.52,-1.9948e-05,29.504,-2.388e-05,-0.037104,1.8325
4671,20.716,4,0.1,6.7921e-05,678.75,6.8445e-05,695.41,-1.949e-05,34.707,-2.4114e-05,-0.03644,1.8326
4672,20.716,3.8182,0.1,6.7877e-05,678.3,6.8461e-05,697.13,-1.9076e-05,39.409,-2.4326e-05,-0.035638,1.8326
4673,20.716,3.6364,0.1,6.7841e-05,677.94,6.8474e-05,698.59,-1.8723e-05,43.422,-2.4507e-05,-0.034837,1.8327
4674,20.716,3.4545,0.1,6.7813e-05,677.67,6.8485e-05,699.74,-1.8444e-05,46.584,-2.4649e-05,-0.034152,1.8327
4675,20.716,3.2727,0.1,6.7795e-05,677.48,6.8492e-05,700.53,-1.8252e-05,48.767,-2.4747e-05,-0.033654,1.8327
4676,20.716,3.0909,0.1,6.7786e-05,677.39,6.8496e-05,700.93,-1.8154e-05,49.881,-2.4797e-05,-0.033394,1.8327
4677,20.716,2.9091,0.1,6.7786e-05,677.39,6.8496e-05,700.93,-1.8154e-05,49.881,-2.4797e-05,-0.033396,1.8327
4678,20.716,2.7273,0.1,6.7795e-05,677.48,6.8492e-05,700.53,-1.8252e-05,48.767,-2.4747e-05,-0.033655,1.8327
4679,20.716,2.5455,0.1,6.7813e-05,677.67,6.8485e-05,699.74,-1.8444e-05,46.584,-2.4649e-05,-0.034151,1.8327
4680,20.716,2.3636,0.1,6.7841e-05,677.94,6.8474e-05,698.59,-1.8723e-05,43.422,-2.4507e-05,-0.034838,1.8327
4681,20.716,2.1818,0.1,6.7877e-05,678.3,6.8461e-05,697.13,-1.9076e-05,39.409,-2.4326e-05,-0.035638,1.8326
4682,20.716,2,0.1,6.7921e-05,678.75,6.8445e-05,695.41,-1.949e-05,34.707,-2.4114e-05,-0.036441,1.8326
4683,20.716,1.8182,0.1,6.7974e-05,679.27,6.8427e-05,693.52,-1.9948e-05,29.504,-2.388e-05,-0.037104,1.8325
4684,20.716,1.6364,0.1,6.8034e-05,679.87,6.8409e-05,691.53,-2.0433e-05,24.003,-2.3633e-05,-0.03746,1.8324
4685,20.716,1.4545,0.1,6.81e-05,680.53,6.8394e-05,689.53,-2.0927e-05,18.411,-2.3382e-05,-0.037319,1.8323
4686,20.716,1.2727,0.1,6.8173e-05,681.26,6.8383e-05,687.62,-2.1412e-05,12.93,-2.3138e-05,-0.036514,1.8322
4687,20.716,1.0909,0.1,6.8254e-05,682.07,6.8382e-05,685.89,-2.1874e-05,7.7461,-2.2909e-05,-0.034986,1.832
4688,20.716,0.90909,0.1,6.8345e-05,682.98,6.8395e-05,684.46,-2.23e-05,3.0158,-2.2706e-05,-0.033856,1.8319
4689,20.716,0.72727,0.1,6.8449e-05,684.02,6.8429e-05,683.44,-2.2532e-05,-0.015424,-2.2684e-05,-1.157,1.8317
4690,20.716,0.54545,0.1,6.8574e-05,685.27,6.8493e-05,682.92,-2.2399e-05,-0.016594,-2.3018e-05,-4.6621,1.8316
4691,20.716,0.36364,0.1,6.8736e-05,686.88,6.8604e-05,683.07,-2.2308e-05,-0.0053101,-2.3313e-05,-7.5581,1.8314
4692,20.716,0.18182,0.1,6.9116e-05,690.68,6.8922e-05,685.12,-2.2261e-05,0.0012409,-2.3725e-05,-10.998,1.8312
4693,20.533,5.8182,0.1,7.2662e-05,726.12,7.2477e-05,720.8,-2.3455e-05,0.0014304,-2.4855e-05,-10.516,1.8048
4694,20.533,5.6364,0.1,7.2308e-05,722.58,7.2189e-05,719.12,-2.3521e-05,-0.0064393,-2.4436e-05,-6.8825,1.805
4695,20.533,5.4545,0.1,7.2167e-05,721.17,7.2106e-05,719.39,-2.3641e-05,-0.01509,-2.411e-05,-3.5391,1.8052
4696,20.533,5.2727,0.1,7.2063e-05,720.13,7.2073e-05,720.43,-2.3721e-05,0.67341,-2.382e-05,-0.068318,1.8054
4697,20.533,5.0909,0.1,7.1979e-05,719.3,7.2073e-05,722.07,-2.3281e-05,5.6266,-2.4035e-05,-0.038764,1.8055
4698,20.533,4.9091,0.1,7.1911e-05,718.62,7.2097e-05,724.19,-2.278e-05,11.327,-2.4293e-05,-0.03932,1.8057
4699,20.533,4.7273,0.1,7.1855e-05,718.06,7.2137e-05,726.67,-2.2235e-05,17.585,-2.4581e-05,-0.04017,1.8058
4700,20.533,4.5455,0.1,7.1809e-05,717.59,7.2189e-05,729.36,-2.1663e-05,24.201,-2.4889e-05,-0.040406,1.8059
4701,20.533,4.3636,0.1,7.1771e-05,717.21,7.2246e-05,732.16,-2.108e-05,30.944,-2.5204e-05,-0.040063,1.806
4702,20.533,4.1818,0.1,7.1741e-05,716.91,7.2305e-05,734.94,-2.0509e-05,37.569,-2.5514e-05,-0.039302,1.8061
4703,20.533,4,0.1,7.1718e-05,716.69,7.2362e-05,737.57,-1.997e-05,43.824,-2.5808e-05,-0.038307,1.8062
4704,20.533,3.8182,0.1,7.1702e-05,716.53,7.2415e-05,739.96,-1.9484e-05,49.466,-2.6073e-05,-0.037251,1.8062
4705,20.533,3.6364,0.1,7.1692e-05,716.42,7.246e-05,742,-1.9071e-05,54.272,-2.6299e-05,-0.036273,1.8063
4706,20.533,3.4545,0.1,7.1686e-05,716.36,7.2496e-05,743.6,-1.8745e-05,58.053,-2.6477e-05,-0.035467,1.8063
4707,20.533,3.2727,0.1,7.1683e-05,716.33,7.2521e-05,744.71,-1.8521e-05,60.66,-2.6599e-05,-0.034904,1.8064
4708,20.533,3.0909,0.1,7.1681e-05,716.32,7.2534e-05,745.28,-1.8407e-05,61.99,-2.6662e-05,-0.034614,1.8064
4709,20.533,2.9091,0.1,7.1681e-05,716.32,7.2534e-05,745.28,-1.8407e-05,61.99,-2.6662e-05,-0.034614,1.8064
4710,20.533,2.7273,0.1,7.1683e-05,716.33,7.2521e-05,744.71,-1.8521e-05,60.66,-2.6599e-05,-0.034904,1.8064
4711,20.533,2.5455,0.1,7.1686e-05,716.36,7.2496e-05,743.6,-1.8745e-05,58.053,-2.6477e-05,-0.035468,1.8063
4712,20.533,2.3636,0.1,7.1692e-05,716.42,7.246e-05,742,-1.9071e-05,54.272,-2.6299e-05,-0.036272,1.8063
4713,20.533,2.1818,0.1,7.1702e-05,716.53,7.2415e-05,739.96,-1.9484e-05,49.466,-2.6073e-05,-0.037252,1.8062
4714,20.533,2,0.1,7.1718e-05,716.69,7.2362e-05,737.57,-1.997e-05,43.824,-2.5808e-05,-0.038307,1.8062
4715,20.533,1.8182,0.1,7.1741e-05,716.91,7.2305e-05,734.94,-2.0509e-05,37.569,-2.5514e-05,-0.039301,1.8061
4716,20.533,1.6364,0.1,7.1771e-05,717.21,7.2246e-05,732.16,-2.108e-05,30.944,-2.5204e-05,-0.040064,1.806
4717,20.533,1.4545,0.1,7.1809e-05,717.59,7.2189e-05,729.36,-2.1663e-05,24.201,-2.4889e-05,-0.040406,1.8059
4718,20.533,1.2727,0.1,7.1855e-05,718.06,7.2137e-05,726.67,-2.2235e-05,17.585,-2.4581e-05,-0.040169,1.8058
4719,20.533,1.0909,0.1,7.1911e-05,718.62,7.2097e-05,724.19,-2.278e-05,11.327,-2.4293e-05,-0.039324,1.8057
4720,20.533,0.90909,0.1,7.1979e-05,719.3,7.2073e-05,722.07,-2.3281e-05,5.6266,-2.4035e-05,-0.038766,1.8055
4721,20.533,0.72727,0.1,7.2063e-05,720.13,7.2073e-05,720.43,-2.3721e-05,0.67342,-2.382e-05,-0.068319,1.8054
4722,20.533,0.54545,0.1,7.2167e-05,721.17,7.2106e-05,719.39,-2.3641e-05,-0.015089,-2.411e-05,-3.5391,1.8052
4723,20.533,0.36364,0.1,7.2308e-05,722.58,7.2189e-05,719.12,-2.3521e-05,-0.0064362,-2.4436e-05,-6.8826,1.805
4724,20.533,0.18182,0.1,7.2662e-05,726.12,7.2477e-05,720.8,-2.3455e-05,0.0014287,-2.4855e-05,-10.516,1.8048
4725,20.351,5.8182,0.1,7.6089e-05,760.36,7.591e-05,755.2,-2.4601e-05,0.0020075,-2.5961e-05,-10.218,1.7784
4726,20.351,5.6364,0.1,7.5777e-05,757.25,7.5665e-05,753.98,-2.4685e-05,-0.0054113,-2.5547e-05,-6.4803,1.7786
4727,20.351,5.4545,0.1,7.5673e-05,756.21,7.5626e-05,754.83,-2.4836e-05,-0.0057357,-2.5201e-05,-2.7488,1.7788
4728,20.351,5.2727,0.1,7.5608e-05,755.56,7.5643e-05,756.58,-2.4772e-05,2.1049,-2.506e-05,-0.062818,1.779
4729,20.351,5.0909,0.1,7.5567e-05,755.15,7.5698e-05,759.05,-2.4272e-05,7.9174,-2.5332e-05,-0.046427,1.7792
4730,20.351,4.9091,0.1,7.5544e-05,754.92,7.5781e-05,762.1,-2.3701e-05,14.634,-2.5655e-05,-0.045488,1.7793
4731,20.351,4.7273,0.1,7.5535e-05,754.83,7.5885e-05,765.59,-2.3075e-05,22.035,-2.6014e-05,-0.045332,1.7795
4732,20.351,4.5455,0.1,7.554e-05,754.88,7.6003e-05,769.35,-2.2415e-05,29.872,-2.6397e-05,-0.0448,1.7796
4733,20.351,4.3636,0.1,7.5555e-05,755.03,7.6127e-05,773.22,-2.1743e-05,37.864,-2.6789e-05,-0.043831,1.7797
4734,20.351,4.1818,0.1,7.5579e-05,755.26,7.6251e-05,777.06,-2.1085e-05,45.711,-2.7174e-05,-0.042565,1.7798
4735,20.351,4,0.1,7.5609e-05,755.57,7.6371e-05,780.7,-2.0465e-05,53.111,-2.7539e-05,-0.041184,1.7799
4736,20.351,3.8182,0.1,7.5643e-05,755.91,7.6481e-05,784,-1.9907e-05,59.776,-2.7868e-05,-0.03985,1.7799
4737,20.351,3.6364,0.1,7.5677e-05,756.25,7.6576e-05,786.82,-1.9433e-05,65.446,-2.8148e-05,-0.038689,1.78
4738,20.351,3.4545,0.1,7.5707e-05,756.55,7.6653e-05,789.05,-1.9061e-05,69.899,-2.8369e-05,-0.037786,1.78
4739,20.351,3.2727,0.1,7.573e-05,756.78,7.6706e-05,790.59,-1.8805e-05,72.966,-2.8521e-05,-0.037175,1.78
4740,20.351,3.0909,0.1,7.5742e-05,756.9,7.6733e-05,791.38,-1.8674e-05,74.529,-2.8598e-05,-0.036868,1.7801
4741,20.351,2.9091,0.1,7.5742e-05,756.9,7.6733e-05,791.38,-1.8674e-05,74.529,-2.8598e-05,-0.036867,1.7801
4742,20.351,2.7273,0.1,7.573e-05,756.78,7.6706e-05,790.59,-1.8805e-05,72.966,-2.8521e-05,-0.037175,1.78
4743,20.351,2.5455,0.1,7.5707e-05,756.55,7.6653e-05,789.05,-1.9061e-05,69.899,-2.8369e-05,-0.037787,1.78
4744,20.351,2.3636,0.1,7.5677e-05,756.25,7.6576e-05,786.82,-1.9433e-05,65.446,-2.8148e-05,-0.03869,1.78
4745,20.351,2.1818,0.1,7.5643e-05,755.91,7.6481e-05,784,-1.9907e-05,59.776,-2.7868e-05,-0.039849,1.7799
4746,20.351,2,0.1,7.5609e-05,755.57,7.6371e-05,780.7,-2.0465e-05,53.111,-2.7539e-05,-0.041183,1.7799
4747,20.351,1.8182,0.1,7.5579e-05,755.26,7.6251e-05,777.06,-2.1085e-05,45.711,-2.7174e-05,-0.042567,1.7798
4748,20.351,1.6364,0.1,7.5555e-05,755.03,7.6127e-05,773.22,-2.1743e-05,37.864,-2.6789e-05,-0.043832,1.7797
4749,20.351,1.4545,0.1,7.554e-05,754.88,7.6003e-05,769.35,-2.2415e-05,29.872,-2.6397e-05,-0.044799,1.7796
4750,20.351,1.2727,0.1,7.5535e-05,754.83,7.5885e-05,765.59,-2.3075e-05,22.035,-2.6014e-05,-0.045332,1.7795
4751,20.351,1.0909,0.1,7.5544e-05,754.92,7.5781e-05,762.1,-2.3701e-05,14.634,-2.5655e-05,-0.045488,1.7793
4752,20.351,0.90909,0.1,7.5567e-05,755.15,7.5698e-05,759.05,-2.4272e-05,7.9174,-2.5332e-05,-0.046428,1.7792
4753,20.351,0.72727,0.1,7.5608e-05,755.56,7.5643e-05,756.58,-2.4772e-05,2.1049,-2.506e-05,-0.062818,1.779
4754,20.351,0.54545,0.1,7.5673e-05,756.21,7.5626e-05,754.83,-2.4836e-05,-0.0057367,-2.5201e-05,-2.7488,1.7788
4755,20.351,0.36364,0.1,7.5777e-05,757.25,7.5665e-05,753.98,-2.4685e-05,-0.0054103,-2.5547e-05,-6.4803,1.7786
4756,20.351,0.18182,0.1,7.6089e-05,760.36,7.591e-05,755.2,-2.4601e-05,0.0020093,-2.5961e-05,-10.218,1.7784
4757,20.168,5.8182,0.1,7.936e-05,793.05,7.9183e-05,787.94,-2.5685e-05,0.0028816,-2.7034e-05,-10.137,1.7521
4758,20.168,5.6364,0.1,7.9107e-05,790.53,7.8996e-05,787.31,-2.5788e-05,-0.0015221,-2.6639e-05,-6.3934,1.7523
4759,20.168,5.4545,0.1,7.9062e-05,790.08,7.9022e-05,788.91,-2.5973e-05,0.017968,-2.6287e-05,-2.3437,1.7525
4760,20.168,5.2727,0.1,7.906e-05,790.05,7.9112e-05,791.6,-2.5821e-05,3.1722,-2.6253e-05,-0.079513,1.7527
4761,20.168,5.0909,0.1,7.9086e-05,790.32,7.9248e-05,795.16,-2.5271e-05,9.8469,-2.6589e-05,-0.057622,1.7529
4762,20.168,4.9091,0.1,7.9136e-05,790.81,7.942e-05,799.45,-2.4634e-05,17.631,-2.6988e-05,-0.054105,1.7531
4763,20.168,4.7273,0.1,7.9205e-05,791.5,7.9618e-05,804.28,-2.393e-05,26.254,-2.7432e-05,-0.052443,1.7532
4764,20.168,4.5455,0.1,7.9291e-05,792.36,7.9833e-05,809.44,-2.3185e-05,35.409,-2.7904e-05,-0.050825,1.7533
4765,20.168,4.3636,0.1,7.939e-05,793.36,8.0056e-05,814.76,-2.2426e-05,44.754,-2.8388e-05,-0.049022,1.7534
4766,20.168,4.1818,0.1,7.95e-05,794.45,8.0278e-05,820.01,-2.1681e-05,53.929,-2.8865e-05,-0.047117,1.7535
4767,20.168,4,0.1,7.9614e-05,795.59,8.0492e-05,825,-2.0981e-05,62.574,-2.9315e-05,-0.045269,1.7536
4768,20.168,3.8182,0.1,7.9726e-05,796.71,8.0688e-05,829.53,-2.0352e-05,70.349,-2.9721e-05,-0.043636,1.7537
4769,20.168,3.6364,0.1,7.983e-05,797.75,8.0859e-05,833.41,-1.982e-05,76.951,-3.0067e-05,-0.04232,1.7537
4770,20.168,3.4545,0.1,7.9917e-05,798.61,8.0995e-05,836.48,-1.9403e-05,82.128,-3.0339e-05,-0.041358,1.7537
4771,20.168,3.2727,0.1,7.9979e-05,799.24,8.1091e-05,838.61,-1.9117e-05,85.687,-3.0527e-05,-0.040747,1.7538
4772,20.168,3.0909,0.1,8.0012e-05,799.57,8.114e-05,839.7,-1.8972e-05,87.499,-3.0623e-05,-0.040454,1.7538
4773,20.168,2.9091,0.1,8.0012e-05,799.57,8.114e-05,839.7,-1.8972e-05,87.499,-3.0623e-05,-0.040453,1.7538
4774,20.168,2.7273,0.1,7.9979e-05,799.24,8.1091e-05,838.61,-1.9117e-05,85.687,-3.0527e-05,-0.040747,1.7538
4775,20.168,2.5455,0.1,7.9917e-05,798.61,8.0995e-05,836.48,-1.9403e-05,82.128,-3.0339e-05,-0.041358,1.7537
4776,20.168,2.3636,0.1,7.983e-05,797.75,8.0859e-05,833.41,-1.982e-05,76.951,-3.0067e-05,-0.042318,1.7537
4777,20.168,2.1818,0.1,7.9726e-05,796.71,8.0688e-05,829.53,-2.0352e-05,70.349,-2.9721e-05,-0.043636,1.7537
4778,20.168,2,0.1,7.9614e-05,795.59,8.0492e-05,825,-2.0981e-05,62.574,-2.9315e-05,-0.045269,1.7536
4779,20.168,1.8182,0.1,7.95e-05,794.45,8.0278e-05,820.01,-2.1681e-05,53.929,-2.8865e-05,-0.047116,1.7535
4780,20.168,1.6364,0.1,7.939e-05,793.36,8.0056e-05,814.76,-2.2426e-05,44.754,-2.8388e-05,-0.049023,1.7534
4781,20.168,1.4545,0.1,7.9291e-05,792.36,7.9833e-05,809.44,-2.3185e-05,35.409,-2.7904e-05,-0.050827,1.7533
4782,20.168,1.2727,0.1,7.9205e-05,791.5,7.9618e-05,804.28,-2.393e-05,26.254,-2.7432e-05,-0.052443,1.7532
4783,20.168,1.0909,0.1,7.9136e-05,790.81,7.942e-05,799.45,-2.4634e-05,17.631,-2.6988e-05,-0.054105,1.7531
4784,20.168,0.90909,0.1,7.9086e-05,790.32,7.9248e-05,795.16,-2.5271e-05,9.8469,-2.6589e-05,-0.057621,1.7529
4785,20.168,0.72727,0.1,7.906e-05,790.05,7.9112e-05,791.6,-2.5821e-05,3.1723,-2.6253e-05,-0.079514,1.7527
4786,20.168,0.54545,0.1,7.9062e-05,790.08,7.9022e-05,788.91,-2.5973e-05,0.017965,-2.6287e-05,-2.3436,1.7525
4787,20.168,0.36364,0.1,7.9107e-05,790.53,7.8996e-05,787.31,-2.5788e-05,-0.001523,-2.6639e-05,-6.3935,1.7523
4788,20.168,0.18182,0.1,7.936e-05,793.05,7.9183e-05,787.94,-2.5685e-05,0.0028838,-2.7034e-05,-10.137,1.7521
4789,19.986,5.8182,0.1,8.2428e-05,823.71,8.2248e-05,818.51,-2.6689e-05,0.0039345,-2.8061e-05,-10.308,1.7259
4790,19.986,5.6364,0.1,8.2255e-05,821.98,8.2139e-05,818.63,-2.6813e-05,0.005654,-2.7701e-05,-6.6654,1.7261
4791,19.986,5.4545,0.1,8.2294e-05,822.37,8.2254e-05,821.21,-2.7035e-05,0.055166,-2.7358e-05,-2.3704,1.7263
4792,19.986,5.2727,0.1,8.2383e-05,823.26,8.2445e-05,825.11,-2.6862e-05,3.8195,-2.7385e-05,-0.11084,1.7265
4793,19.986,5.0909,0.1,8.2509e-05,824.52,8.2695e-05,830.11,-2.6272e-05,11.371,-2.7795e-05,-0.074037,1.7267
4794,19.986,4.9091,0.1,8.2666e-05,826.09,8.2992e-05,836.01,-2.5576e-05,20.279,-2.8284e-05,-0.066134,1.7268
4795,19.986,4.7273,0.1,8.2851e-05,827.94,8.3323e-05,842.6,-2.48e-05,30.207,-2.8829e-05,-0.062131,1.727
4796,19.986,4.5455,0.1,8.3059e-05,830.02,8.3676e-05,849.62,-2.3974e-05,40.784,-2.941e-05,-0.058937,1.7271
4797,19.986,4.3636,0.1,8.3284e-05,832.27,8.4041e-05,856.84,-2.313e-05,51.596,-3.0005e-05,-0.055978,1.7272
4798,19.986,4.1818,0.1,8.3521e-05,834.63,8.4404e-05,863.97,-2.2303e-05,62.212,-3.059e-05,-0.05323,1.7273
4799,19.986,4,0.1,8.3759e-05,837.01,8.4752e-05,870.75,-2.1527e-05,72.204,-3.1144e-05,-0.050819,1.7274
4800,19.986,3.8182,0.1,8.3988e-05,839.3,8.5073e-05,876.91,-2.0833e-05,81.174,-3.1644e-05,-0.048869,1.7274
4801,19.986,3.6364,0.1,8.4195e-05,841.37,8.5352e-05,882.21,-2.0248e-05,88.773,-3.2069e-05,-0.047445,1.7275
4802,19.986,3.4545,0.1,8.4366e-05,843.08,8.5576e-05,886.41,-1.9792e-05,94.717,-3.2404e-05,-0.046517,1.7275
4803,19.986,3.2727,0.1,8.4489e-05,844.3,8.5733e-05,889.33,-1.948e-05,98.795,-3.2635e-05,-0.045994,1.7276
4804,19.986,3.0909,0.1,8.4553e-05,844.94,8.5814e-05,890.82,-1.9322e-05,100.87,-3.2753e-05,-0.045766,1.7276
4805,19.986,2.9091,0.1,8.4553e-05,844.94,8.5814e-05,890.82,-1.9322e-05,100.87,-3.2753e-05,-0.045767,1.7276
4806,19.986,2.7273,0.1,8.4489e-05,844.3,8.5733e-05,889.33,-1.948e-05,98.795,-3.2635e-05,-0.045993,1.7276
4807,19.986,2.5455,0.1,8.4366e-05,843.08,8.5576e-05,886.41,-1.9792e-05,94.717,-3.2404e-05,-0.046516,1.7275
4808,19.986,2.3636,0.1,8.4195e-05,841.37,8.5352e-05,882.21,-2.0248e-05,88.773,-3.2069e-05,-0.047445,1.7275
4809,19.986,2.1818,0.1,8.3988e-05,839.3,8.5073e-05,876.91,-2.0833e-05,81.174,-3.1644e-05,-0.048871,1.7274
4810,19.986,2,0.1,8.3759e-05,837.01,8.4752e-05,870.75,-2.1527e-05,72.204,-3.1144e-05,-0.050817,1.7274
4811,19.986,1.8182,0.1,8.3521e-05,834.63,8.4404e-05,863.97,-2.2303e-05,62.212,-3.059e-05,-0.05323,1.7273
4812,19.986,1.6364,0.1,8.3284e-05,832.27,8.4041e-05,856.84,-2.313e-05,51.596,-3.0005e-05,-0.055979,1.7272
4813,19.986,1.4545,0.1,8.3059e-05,830.02,8.3676e-05,849.62,-2.3974e-05,40.784,-2.941e-05,-0.058936,1.7271
4814,19.986,1.2727,0.1,8.2851e-05,827.94,8.3323e-05,842.6,-2.48e-05,30.208,-2.8829e-05,-0.062132,1.727
4815,19.986,1.0909,0.1,8.2666e-05,826.09,8.2992e-05,836.01,-2.5576e-05,20.279,-2.8284e-05,-0.066134,1.7268
4816,19.986,0.90909,0.1,8.2509e-05,824.52,8.2695e-05,830.11,-2.6272e-05,11.371,-2.7795e-05,-0.074039,1.7267
4817,19.986,0.72727,0.1,8.2383e-05,823.26,8.2445e-05,825.11,-2.6862e-05,3.8196,-2.7385e-05,-0.11084,1.7265
4818,19.986,0.54545,0.1,8.2294e-05,822.37,8.2254e-05,821.21,-2.7035e-05,0.055165,-2.7358e-05,-2.3704,1.7263
4819,19.986,0.36364,0.1,8.2255e-05,821.98,8.2139e-05,818.63,-2.6813e-05,0.0056547,-2.7701e-05,-6.6654,1.7261
4820,19.986,0.18182,0.1,8.2428e-05,823.71,8.2248e-05,818.51,-2.6689e-05,0.0039364,-2.8061e-05,-10.308,1.7259
4821,19.804,5.8182,0.1,8.5235e-05,851.76,8.5047e-05,846.33,-2.7592e-05,0.0050399,-2.9026e-05,-10.768,1.6997
4822,19.804,5.6364,0.1,8.5165e-05,851.06,8.5038e-05,847.37,-2.7739e-05,0.016094,-2.8717e-05,-7.3386,1.6999
4823,19.804,5.4545,0.1,8.5317e-05,852.59,8.527e-05,851.2,-2.8005e-05,0.093255,-2.8399e-05,-2.8633,1.7001
4824,19.804,5.2727,0.1,8.5534e-05,854.75,8.5598e-05,856.66,-2.7883e-05,4.0084,-2.8438e-05,-0.16769,1.7003
4825,19.804,5.0909,0.1,8.58e-05,857.41,8.6003e-05,863.51,-2.7267e-05,12.442,-2.8936e-05,-0.098587,1.7005
4826,19.804,4.9091,0.1,8.611e-05,860.51,8.647e-05,871.51,-2.6522e-05,22.531,-2.9532e-05,-0.083048,1.7007
4827,19.804,4.7273,0.1,8.6459e-05,864,8.6984e-05,880.39,-2.5683e-05,33.853,-3.0198e-05,-0.075319,1.7008
4828,19.804,4.5455,0.1,8.6841e-05,867.81,8.753e-05,889.84,-2.4783e-05,45.961,-3.091e-05,-0.069761,1.7009
4829,19.804,4.3636,0.1,8.7246e-05,871.85,8.809e-05,899.53,-2.3863e-05,58.359,-3.1639e-05,-0.065156,1.701
4830,19.804,4.1818,0.1,8.7663e-05,876.03,8.8649e-05,909.13,-2.2962e-05,70.532,-3.2357e-05,-0.061262,1.7011
4831,19.804,4,0.1,8.808e-05,880.19,8.9186e-05,918.27,-2.2119e-05,81.973,-3.3037e-05,-0.058138,1.7012
4832,19.804,3.8182,0.1,8.8476e-05,884.15,8.9682e-05,926.61,-2.1369e-05,92.216,-3.365e-05,-0.055867,1.7013
4833,19.804,3.6364,0.1,8.8831e-05,887.7,9.0115e-05,933.79,-2.0741e-05,100.86,-3.4173e-05,-0.054435,1.7013
4834,19.804,3.4545,0.1,8.9124e-05,890.62,9.0464e-05,939.5,-2.0255e-05,107.6,-3.4584e-05,-0.053697,1.7014
4835,19.804,3.2727,0.1,8.9332e-05,892.71,9.0709e-05,943.48,-1.9925e-05,112.21,-3.4867e-05,-0.053418,1.7014
4836,19.804,3.0909,0.1,8.9441e-05,893.79,9.0836e-05,945.51,-1.9759e-05,114.55,-3.5012e-05,-0.053353,1.7014
4837,19.804,2.9091,0.1,8.9441e-05,893.79,9.0836e-05,945.51,-1.9759e-05,114.55,-3.5012e-05,-0.053353,1.7014
4838,19.804,2.7273,0.1,8.9332e-05,892.71,9.0709e-05,943.48,-1.9925e-05,112.21,-3.4867e-05,-0.053418,1.7014
4839,19.804,2.5455,0.1,8.9124e-05,890.62,9.0464e-05,939.5,-2.0255e-05,107.6,-3.4584e-05,-0.053698,1.7014
4840,19.804,2.3636,0.1,8.8831e-05,887.7,9.0115e-05,933.79,-2.0741e-05,100.86,-3.4173e-05,-0.054436,1.7013
4841,19.804,2.1818,0.1,8.8476e-05,884.15,8.9682e-05,926.61,-2.1369e-05,92.216,-3.365e-05,-0.055867,1.7013
4842,19.804,2,0.1,8.808e-05,880.19,8.9186e-05,918.27,-2.2119e-05,81.973,-3.3037e-05,-0.058137,1.7012
4843,19.804,1.8182,0.1,8.7663e-05,876.03,8.8649e-05,909.13,-2.2962e-05,70.532,-3.2357e-05,-0.061261,1.7011
4844,19.804,1.6364,0.1,8.7246e-05,871.85,8.809e-05,899.53,-2.3863e-05,58.359,-3.1639e-05,-0.065156,1.701
4845,19.804,1.4545,0.1,8.6841e-05,867.81,8.753e-05,889.84,-2.4783e-05,45.961,-3.091e-05,-0.069762,1.7009
4846,19.804,1.2727,0.1,8.6459e-05,864,8.6984e-05,880.39,-2.5683e-05,33.853,-3.0198e-05,-0.075319,1.7008
4847,19.804,1.0909,0.1,8.611e-05,860.51,8.647e-05,871.51,-2.6522e-05,22.531,-2.9532e-05,-0.083047,1.7007
4848,19.804,0.90909,0.1,8.58e-05,857.41,8.6003e-05,863.51,-2.7267e-05,12.442,-2.8936e-05,-0.098588,1.7005
4849,19.804,0.72727,0.1,8.5534e-05,854.75,8.5598e-05,856.66,-2.7883e-05,4.0084,-2.8438e-05,-0.16769,1.7003
4850,19.804,0.54545,0.1,8.5317e-05,852.59,8.527e-05,851.2,-2.8005e-05,0.093253,-2.8398e-05,-2.8633,1.7001
4851,19.804,0.36364,0.1,8.5165e-05,851.06,8.5038e-05,847.37,-2.7739e-05,0.016096,-2.8717e-05,-7.3386,1.6999
4852,19.804,0.18182,0.1,8.5235e-05,851.76,8.5047e-05,846.33,-2.7592e-05,0.0050416,-2.9026e-05,-10.768,1.6997
4853,19.621,5.8182,0.1,8.7707e-05,876.47,8.7505e-05,870.64,-2.8369e-05,0.006078,-2.9907e-05,-11.552,1.6735
4854,19.621,5.6364,0.1,8.7767e-05,877.07,8.7621e-05,872.82,-2.8541e-05,0.029534,-2.967e-05,-8.4509,1.6738
4855,19.621,5.4545,0.1,8.807e-05,880.1,8.8006e-05,878.22,-2.8862e-05,0.12383,-2.9391e-05,-3.8564,1.674
4856,19.621,5.2727,0.1,8.8457e-05,883.96,8.8515e-05,885.67,-2.8866e-05,3.7205,-2.9398e-05,-0.27935,1.6742
4857,19.621,5.0909,0.1,8.8914e-05,888.52,8.9126e-05,894.89,-2.8245e-05,13.012,-2.9995e-05,-0.13638,1.6744
4858,19.621,4.9091,0.1,8.9434e-05,893.72,8.9821e-05,905.59,-2.7467e-05,24.331,-3.0719e-05,-0.10717,1.6745
4859,19.621,4.7273,0.1,9.001e-05,899.48,9.0582e-05,917.42,-2.6577e-05,37.134,-3.1531e-05,-0.093388,1.6747
4860,19.621,4.5455,0.1,9.0632e-05,905.69,9.1388e-05,930.02,-2.5617e-05,50.884,-3.24e-05,-0.084217,1.6748
4861,19.621,4.3636,0.1,9.1286e-05,912.23,9.2216e-05,942.95,-2.4633e-05,64.991,-3.3293e-05,-0.077193,1.6749
4862,19.621,4.1818,0.1,9.1957e-05,918.93,9.3042e-05,955.77,-2.3671e-05,78.838,-3.4173e-05,-0.071686,1.675
4863,19.621,4,0.1,9.2621e-05,925.57,9.3839e-05,968.02,-2.2776e-05,91.822,-3.5006e-05,-0.067626,1.6751
4864,19.621,3.8182,0.1,9.3251e-05,931.87,9.4577e-05,979.22,-2.1987e-05,103.4,-3.5758e-05,-0.065031,1.6752
4865,19.621,3.6364,0.1,9.3815e-05,937.5,9.5224e-05,988.9,-2.1334e-05,113.13,-3.6398e-05,-0.063765,1.6752
4866,19.621,3.4545,0.1,9.4278e-05,942.13,9.5747e-05,996.61,-2.0834e-05,120.66,-3.6902e-05,-0.063492,1.6753
4867,19.621,3.2727,0.1,9.4608e-05,945.43,9.6116e-05,1002,-2.0498e-05,125.79,-3.7249e-05,-0.063721,1.6753
4868,19.621,3.0909,0.1,9.478e-05,947.14,9.6307e-05,1004.8,-2.033e-05,128.39,-3.7426e-05,-0.063981,1.6753
4869,19.621,2.9091,0.1,9.478e-05,947.14,9.6307e-05,1004.8,-2.033e-05,128.39,-3.7426e-05,-0.063982,1.6753
4870,19.621,2.7273,0.1,9.4608e-05,945.43,9.6116e-05,1002,-2.0498e-05,125.79,-3.7249e-05,-0.063723,1.6753
4871,19.621,2.5455,0.1,9.4278e-05,942.13,9.5747e-05,996.61,-2.0834e-05,120.66,-3.6902e-05,-0.063491,1.6753
4872,19.621,2.3636,0.1,9.3815e-05,937.5,9.5224e-05,988.9,-2.1334e-05,113.13,-3.6398e-05,-0.063767,1.6752
4873,19.621,2.1818,0.1,9.3251e-05,931.87,9.4577e-05,979.22,-2.1987e-05,103.4,-3.5758e-05,-0.06503,1.6752
4874,19.621,2,0.1,9.2621e-05,925.57,9.3839e-05,968.02,-2.2776e-05,91.822,-3.5006e-05,-0.067628,1.6751
4875,19.621,1.8182,0.1,9.1957e-05,918.93,9.3042e-05,955.77,-2.3671e-05,78.838,-3.4173e-05,-0.071685,1.675
4876,19.621,1.6364,0.1,9.1286e-05,912.23,9.2216e-05,942.95,-2.4633e-05,64.992,-3.3293e-05,-0.077194,1.6749
4877,19.621,1.4545,0.1,9.0632e-05,905.69,9.1388e-05,930.02,-2.5617e-05,50.884,-3.2401e-05,-0.084217,1.6748
4878,19.621,1.2727,0.1,9.001e-05,899.48,9.0582e-05,917.42,-2.6577e-05,37.134,-3.1531e-05,-0.093389,1.6747
4879,19.621,1.0909,0.1,8.9434e-05,893.72,8.9821e-05,905.59,-2.7467e-05,24.331,-3.0719e-05,-0.10717,1.6745
4880,19.621,0.90909,0.1,8.8914e-05,888.52,8.9126e-05,894.89,-2.8245e-05,13.012,-2.9995e-05,-0.13638,1.6744
4881,19.621,0.72727,0.1,8.8457e-05,883.96,8.8515e-05,885.67,-2.8866e-05,3.7206,-2.9398e-05,-0.27935,1.6742
4882,19.621,0.54545,0.1,8.807e-05,880.1,8.8006e-05,878.22,-2.8862e-05,0.12383,-2.9391e-05,-3.8564,1.674
4883,19.621,0.36364,0.1,8.7767e-05,877.07,8.7621e-05,872.82,-2.8541e-05,0.029536,-2.967e-05,-8.4509,1.6738
4884,19.621,0.18182,0.1,8.7707e-05,876.47,8.7505e-05,870.64,-2.8369e-05,0.0060761,-2.9907e-05,-11.552,1.6735
4885,19.439,5.8182,0.1,8.9756e-05,896.94,8.9533e-05,890.53,-2.8988e-05,0.0070223,-3.0678e-05,-12.695,1.6474
4886,19.439,5.6364,0.1,8.9977e-05,899.15,8.9803e-05,894.11,-2.919e-05,0.04591,-3.0531e-05,-10.031,1.6477
4887,19.439,5.4545,0.1,9.0473e-05,904.11,9.0383e-05,901.47,-2.9576e-05,0.14942,-3.0313e-05,-5.3846,1.6479
4888,19.439,5.2727,0.1,9.1083e-05,910.21,9.1125e-05,911.43,-2.9781e-05,2.9963,-3.025e-05,-0.52974,1.6481
4889,19.439,5.0909,0.1,9.1794e-05,917.31,9.2006e-05,923.66,-2.9191e-05,13.033,-3.0952e-05,-0.19679,1.6483
4890,19.439,4.9091,0.1,9.2597e-05,925.33,9.3004e-05,937.8,-2.8401e-05,25.611,-3.1829e-05,-0.14224,1.6485
4891,19.439,4.7273,0.1,9.3481e-05,934.16,9.4094e-05,953.44,-2.7482e-05,39.968,-3.2817e-05,-0.11842,1.6486
4892,19.439,4.5455,0.1,9.4429e-05,943.64,9.5248e-05,970.09,-2.6481e-05,55.467,-3.3877e-05,-0.10361,1.6488
4893,19.439,4.3636,0.1,9.5423e-05,953.57,9.6435e-05,987.22,-2.5452e-05,71.405,-3.4968e-05,-0.092954,1.6489
4894,19.439,4.1818,0.1,9.6439e-05,963.72,9.7622e-05,1004.2,-2.445e-05,87.039,-3.6046e-05,-0.085082,1.649
4895,19.439,4,0.1,9.7443e-05,973.76,9.8771e-05,1020.5,-2.3527e-05,101.65,-3.7066e-05,-0.079726,1.6491
4896,19.439,3.8182,0.1,9.8395e-05,983.27,9.984e-05,1035.5,-2.2725e-05,114.6,-3.7987e-05,-0.076799,1.6492
4897,19.439,3.6364,0.1,9.9246e-05,991.78,0.00010078,1048.5,-2.2073e-05,125.39,-3.8772e-05,-0.07599,1.6492
4898,19.439,3.4545,0.1,9.9946e-05,998.77,0.00010154,1058.8,-2.1585e-05,133.69,-3.9388e-05,-0.076629,1.6493
4899,19.439,3.2727,0.1,0.00010044,1003.8,0.00010208,1066.1,-2.1263e-05,139.29,-3.9812e-05,-0.077813,1.6493
4900,19.439,3.0909,0.1,0.0001007,1006.3,0.00010236,1069.8,-2.1104e-05,142.11,-4.0028e-05,-0.07867,1.6493
4901,19.439,2.9091,0.1,0.0001007,1006.3,0.00010236,1069.8,-2.1104e-05,142.11,-4.0028e-05,-0.07867,1.6493
4902,19.439,2.7273,0.1,0.00010044,1003.8,0.00010208,1066.1,-2.1263e-05,139.29,-3.9812e-05,-0.077813,1.6493
4903,19.439,2.5455,0.1,9.9946e-05,998.77,0.00010154,1058.8,-2.1585e-05,133.69,-3.9388e-05,-0.07663,1.6493
4904,19.439,2.3636,0.1,9.9246e-05,991.78,0.00010078,1048.5,-2.2073e-05,125.39,-3.8772e-05,-0.07599,1.6492
4905,19.439,2.1818,0.1,9.8395e-05,983.27,9.984e-05,1035.5,-2.2725e-05,114.6,-3.7987e-05,-0.076799,1.6492
4906,19.439,2,0.1,9.7443e-05,973.76,9.8771e-05,1020.5,-2.3527e-05,101.65,-3.7066e-05,-0.079726,1.6491
4907,19.439,1.8182,0.1,9.6439e-05,963.72,9.7622e-05,1004.2,-2.445e-05,87.039,-3.6046e-05,-0.085083,1.649
4908,19.439,1.6364,0.1,9.5423e-05,953.57,9.6435e-05,987.22,-2.5452e-05,71.405,-3.4968e-05,-0.092953,1.6489
4909,19.439,1.4545,0.1,9.4429e-05,943.64,9.5248e-05,970.09,-2.6481e-05,55.467,-3.3877e-05,-0.10361,1.6488
4910,19.439,1.2727,0.1,9.3481e-05,934.16,9.4094e-05,953.44,-2.7482e-05,39.968,-3.2817e-05,-0.11842,1.6486
4911,19.439,1.0909,0.1,9.2597e-05,925.33,9.3004e-05,937.8,-2.8401e-05,25.611,-3.1829e-05,-0.14224,1.6485
4912,19.439,0.90909,0.1,9.1794e-05,917.31,9.2006e-05,923.66,-2.9191e-05,13.033,-3.0952e-05,-0.19679,1.6483
4913,19.439,0.72727,0.1,9.1083e-05,910.21,9.1125e-05,911.43,-2.9781e-05,2.9964,-3.025e-05,-0.52973,1.6481
4914,19.439,0.54545,0.1,9.0473e-05,904.11,9.0383e-05,901.47,-2.9576e-05,0.14942,-3.0313e-05,-5.3846,1.6479
4915,19.439,0.36364,0.1,8.9977e-05,899.15,8.9803e-05,894.11,-2.919e-05,0.045911,-3.0531e-05,-10.031,1.6477
4916,19.439,0.18182,0.1,8.9756e-05,896.94,8.9533e-05,890.53,-2.8988e-05,0.007024,-3.0678e-05,-12.695,1.6474
4917,19.256,5.8182,0.1,9.1272e-05,912.09,9.1021e-05,904.9,-2.9412e-05,0.0079893,-3.1306e-05,-14.223,1.6214
4918,19.256,5.6364,0.1,9.1687e-05,916.23,9.1476e-05,910.16,-2.965e-05,0.065646,-3.1268e-05,-12.089,1.6217
4919,19.256,5.4545,0.1,9.2427e-05,923.63,9.23e-05,919.96,-3.0115e-05,0.17599,-3.1133e-05,-7.4691,1.6219
4920,19.256,5.2727,0.1,9.3326e-05,932.62,9.3341e-05,933.06,-3.0568e-05,2.0541,-3.0997e-05,-1.1741,1.6221
4921,19.256,5.0909,0.1,9.4372e-05,943.07,9.4572e-05,949.08,-3.0085e-05,12.452,-3.1782e-05,-0.29836,1.6223
4922,19.256,4.9091,0.1,9.555e-05,954.85,9.5967e-05,967.61,-2.9318e-05,26.272,-3.284e-05,-0.19463,1.6225
4923,19.256,4.7273,0.1,9.6844e-05,967.77,9.749e-05,988.12,-2.8399e-05,42.229,-3.404e-05,-0.15377,1.6226
4924,19.256,4.5455,0.1,9.8231e-05,981.63,9.9105e-05,1010,-2.7387e-05,59.569,-3.5333e-05,-0.13,1.6228
4925,19.256,4.3636,0.1,9.9681e-05,996.12,0.00010077,1032.5,-2.6342e-05,77.453,-3.6666e-05,-0.11373,1.6229
4926,19.256,4.1818,0.1,0.00010116,1010.9,0.00010244,1055,-2.5331e-05,94.984,-3.7986e-05,-0.10228,1.623
4927,19.256,4,0.1,0.00010262,1025.5,0.00010406,1076.6,-2.4412e-05,111.29,-3.9236e-05,-0.09502,1.6231
4928,19.256,3.8182,0.1,0.00010401,1039.4,0.00010558,1096.5,-2.3636e-05,125.61,-4.0365e-05,-0.091717,1.6232
4929,19.256,3.6364,0.1,0.00010526,1051.8,0.00010692,1113.7,-2.3026e-05,137.4,-4.1325e-05,-0.091795,1.6232
4930,19.256,3.4545,0.1,0.00010628,1062.1,0.00010801,1127.6,-2.2589e-05,146.34,-4.2078e-05,-0.094067,1.6233
4931,19.256,3.2727,0.1,0.00010701,1069.4,0.00010878,1137.3,-2.2312e-05,152.31,-4.2596e-05,-0.096919,1.6233
4932,19.256,3.0909,0.1,0.00010739,1073.2,0.00010918,1142.3,-2.218e-05,155.28,-4.2859e-05,-0.098811,1.6233
4933,19.256,2.9091,0.1,0.00010739,1073.2,0.00010918,1142.3,-2.218e-05,155.28,-4.2859e-05,-0.098811,1.6233
4934,19.256,2.7273,0.1,0.00010701,1069.4,0.00010878,1137.3,-2.2312e-05,152.31,-4.2596e-05,-0.096919,1.6233
4935,19.256,2.5455,0.1,0.00010628,1062.1,0.00010801,1127.6,-2.2589e-05,146.34,-4.2078e-05,-0.094066,1.6233
4936,19.256,2.3636,0.1,0.00010526,1051.8,0.00010692,1113.7,-2.3026e-05,137.4,-4.1325e-05,-0.091794,1.6232
4937,19.256,2.1818,0.1,0.00010401,1039.4,0.00010558,1096.5,-2.3636e-05,125.61,-4.0365e-05,-0.091717,1.6232
4938,19.256,2,0.1,0.00010262,1025.5,0.00010406,1076.6,-2.4412e-05,111.29,-3.9236e-05,-0.095021,1.6231
4939,19.256,1.8182,0.1,0.00010116,1010.9,0.00010244,1055,-2.5331e-05,94.984,-3.7986e-05,-0.10228,1.623
4940,19.256,1.6364,0.1,9.9681e-05,996.12,0.00010077,1032.5,-2.6342e-05,77.453,-3.6666e-05,-0.11373,1.6229
4941,19.256,1.4545,0.1,9.8231e-05,981.63,9.9105e-05,1010,-2.7387e-05,59.569,-3.5333e-05,-0.13,1.6228
4942,19.256,1.2727,0.1,9.6844e-05,967.77,9.749e-05,988.12,-2.8399e-05,42.229,-3.404e-05,-0.15377,1.6226
4943,19.256,1.0909,0.1,9.555e-05,954.85,9.5967e-05,967.61,-2.9318e-05,26.272,-3.284e-05,-0.19463,1.6225
4944,19.256,0.90909,0.1,9.4372e-05,943.07,9.4572e-05,949.08,-3.0085e-05,12.452,-3.1782e-05,-0.29836,1.6223
4945,19.256,0.72727,0.1,9.3326e-05,932.62,9.3341e-05,933.06,-3.0568e-05,2.0541,-3.0997e-05,-1.1741,1.6221
4946,19.256,0.54545,0.1,9.2427e-05,923.63,9.23e-05,919.96,-3.0115e-05,0.176,-3.1133e-05,-7.4691,1.6219
4947,19.256,0.36364,0.1,9.1687e-05,916.23,9.1476e-05,910.16,-2.965e-05,0.065647,-3.1268e-05,-12.089,1.6217
4948,19.256,0.18182,0.1,9.1272e-05,912.09,9.1021e-05,904.9,-2.9412e-05,0.0079898,-3.1306e-05,-14.223,1.6214
4949,19.074,5.8182,0.1,9.2123e-05,920.59,9.1837e-05,912.42,-2.9596e-05,0.0093387,-3.1747e-05,-16.149,1.5954
4950,19.074,5.6364,0.1,9.2767e-05,927.03,9.2511e-05,919.68,-2.9879e-05,0.089748,-3.1835e-05,-14.608,1.5957
4951,19.074,5.4545,0.1,9.381e-05,937.46,9.3638e-05,932.47,-3.0438e-05,0.20892,-3.1811e-05,-10.104,1.5959
4952,19.074,5.2727,0.1,9.508e-05,950.15,9.5057e-05,949.47,-3.1129e-05,1.3538,-3.1669e-05,-2.7028,1.5962
4953,19.074,5.0909,0.1,9.6561e-05,964.95,9.6739e-05,970.26,-3.0902e-05,11.218,-3.2459e-05,-0.4819,1.5964
4954,19.074,4.9091,0.1,9.8235e-05,981.67,9.8648e-05,994.35,-3.0208e-05,26.168,-3.3728e-05,-0.2761,1.5966
4955,19.074,4.7273,0.1,0.00010007,1000,0.00010074,1021.1,-2.9337e-05,43.711,-3.5182e-05,-0.20526,1.5967
4956,19.074,4.5455,0.1,0.00010204,1019.7,0.00010296,1049.6,-2.8357e-05,62.951,-3.6757e-05,-0.16679,1.5969
4957,19.074,4.3636,0.1,0.0001041,1040.3,0.00010526,1079.1,-2.7337e-05,82.889,-3.8388e-05,-0.1416,1.597
4958,19.074,4.1818,0.1,0.0001062,1061.2,0.00010756,1108.7,-2.6358e-05,102.42,-4.0006e-05,-0.12446,1.5971
4959,19.074,4,0.1,0.00010827,1082,0.00010982,1137.1,-2.5493e-05,120.46,-4.154e-05,-0.11415,1.5972
4960,19.074,3.8182,0.1,0.00011025,1101.7,0.00011193,1163.4,-2.4796e-05,136.1,-4.2924e-05,-0.11033,1.5973
4961,19.074,3.6364,0.1,0.00011202,1119.5,0.00011381,1186.3,-2.4288e-05,148.73,-4.4099e-05,-0.11202,1.5974
4962,19.074,3.4545,0.1,0.00011349,1134.1,0.00011534,1204.8,-2.3959e-05,158.11,-4.5017e-05,-0.11708,1.5974
4963,19.074,3.2727,0.1,0.00011453,1144.5,0.00011643,1217.7,-2.3773e-05,164.23,-4.5647e-05,-0.12272,1.5974
4964,19.074,3.0909,0.1,0.00011508,1150,0.000117,1224.3,-2.3692e-05,167.23,-4.5967e-05,-0.12634,1.5974
4965,19.074,2.9091,0.1,0.00011508,1150,0.000117,1224.3,-2.3692e-05,167.23,-4.5967e-05,-0.12633,1.5974
4966,19.074,2.7273,0.1,0.00011453,1144.5,0.00011643,1217.7,-2.3773e-05,164.23,-4.5647e-05,-0.12272,1.5974
4967,19.074,2.5455,0.1,0.00011349,1134.1,0.00011534,1204.8,-2.3959e-05,158.11,-4.5017e-05,-0.11708,1.5974
4968,19.074,2.3636,0.1,0.00011202,1119.5,0.00011381,1186.3,-2.4288e-05,148.73,-4.4099e-05,-0.11202,1.5974
4969,19.074,2.1818,0.1,0.00011025,1101.7,0.00011193,1163.4,-2.4796e-05,136.1,-4.2924e-05,-0.11033,1.5973
4970,19.074,2,0.1,0.00010827,1082,0.00010982,1137.1,-2.5493e-05,120.46,-4.154e-05,-0.11415,1.5972
4971,19.074,1.8182,0.1,0.0001062,1061.2,0.00010756,1108.7,-2.6358e-05,102.42,-4.0006e-05,-0.12446,1.5971
4972,19.074,1.6364,0.1,0.0001041,1040.3,0.00010526,1079.1,-2.7337e-05,82.889,-3.8388e-05,-0.14159,1.597
4973,19.074,1.4545,0.1,0.00010204,1019.7,0.00010296,1049.6,-2.8357e-05,62.951,-3.6757e-05,-0.16679,1.5969
4974,19.074,1.2727,0.1,0.00010007,1000,0.00010074,1021.1,-2.9337e-05,43.711,-3.5182e-05,-0.20526,1.5967
4975,19.074,1.0909,0.1,9.8235e-05,981.67,9.8648e-05,994.35,-3.0208e-05,26.169,-3.3728e-05,-0.2761,1.5966
4976,19.074,0.90909,0.1,9.6561e-05,964.95,9.6739e-05,970.26,-3.0902e-05,11.219,-3.2459e-05,-0.48189,1.5964
4977,19.074,0.72727,0.1,9.508e-05,950.15,9.5057e-05,949.47,-3.1129e-05,1.3538,-3.1669e-05,-2.7028,1.5962
4978,19.074,0.54545,0.1,9.381e-05,937.46,9.3638e-05,932.47,-3.0438e-05,0.20892,-3.1811e-05,-10.104,1.5959
4979,19.074,0.36364,0.1,9.2767e-05,927.03,9.2511e-05,919.68,-2.9879e-05,0.08975,-3.1835e-05,-14.608,1.5957
4980,19.074,0.18182,0.1,9.2123e-05,920.59,9.1837e-05,912.42,-2.9596e-05,0.0093396,-3.1747e-05,-16.149,1.5954
4981,18.891,5.8182,0.1,9.2153e-05,920.89,9.1825e-05,911.53,-2.949e-05,0.012087,-3.1949e-05,-18.46,1.5695
4982,18.891,5.6364,0.1,9.3062e-05,929.98,9.2753e-05,921.15,-2.9828e-05,0.12005,-3.2177e-05,-17.524,1.5698
4983,18.891,5.4545,0.1,9.4477e-05,944.12,9.4249e-05,937.55,-3.0498e-05,0.25335,-3.2294e-05,-13.247,1.57
4984,18.891,5.2727,0.1,9.6216e-05,961.5,9.6143e-05,959.36,-3.1401e-05,1.0489,-3.2245e-05,-5.2959,1.5703
4985,18.891,5.0909,0.1,9.8261e-05,981.94,9.8401e-05,986.12,-3.1606e-05,9.2957,-3.2957e-05,-0.85132,1.5705
4986,18.891,4.9091,0.1,0.00010058,1005.1,0.00010098,1017.2,-3.107e-05,25.06,-3.446e-05,-0.41077,1.5707
4987,18.891,4.7273,0.1,0.00010314,1030.7,0.00010381,1051.8,-3.0316e-05,44.062,-3.6218e-05,-0.28394,1.5709
4988,18.891,4.5455,0.1,0.00010587,1058,0.00010683,1089,-2.9429e-05,65.203,-3.8136e-05,-0.22027,1.571
4989,18.891,4.3636,0.1,0.00010873,1086.6,0.00010995,1127.5,-2.8491e-05,87.293,-4.0133e-05,-0.1803,1.5712
4990,18.891,4.1818,0.1,0.00011165,1115.7,0.0001131,1166.1,-2.7601e-05,108.94,-4.2121e-05,-0.15388,1.5713
4991,18.891,4,0.1,0.00011454,1144.6,0.00011618,1203.5,-2.6854e-05,128.75,-4.4008e-05,-0.13866,1.5714
4992,18.891,3.8182,0.1,0.0001173,1172.2,0.00011909,1238.1,-2.6313e-05,145.58,-4.5706e-05,-0.13383,1.5715
4993,18.891,3.6364,0.1,0.00011978,1197,0.00012169,1268.4,-2.5993e-05,158.77,-4.7142e-05,-0.1378,1.5715
4994,18.891,3.4545,0.1,0.00012183,1217.5,0.00012382,1292.8,-2.5854e-05,168.2,-4.826e-05,-0.14726,1.5716
4995,18.891,3.2727,0.1,0.0001233,1232.2,0.00012533,1309.9,-2.5826e-05,174.12,-4.9021e-05,-0.15738,1.5716
4996,18.891,3.0909,0.1,0.00012407,1239.8,0.00012612,1318.7,-2.5834e-05,176.95,-4.9407e-05,-0.16372,1.5716
4997,18.891,2.9091,0.1,0.00012407,1239.8,0.00012612,1318.7,-2.5834e-05,176.95,-4.9407e-05,-0.16372,1.5716
4998,18.891,2.7273,0.1,0.0001233,1232.2,0.00012533,1309.9,-2.5826e-05,174.12,-4.9021e-05,-0.15738,1.5716
4999,18.891,2.5455,0.1,0.00012183,1217.5,0.00012382,1292.8,-2.5854e-05,168.2,-4.826e-05,-0.14726,1.5716
5000,18.891,2.3636,0.1,0.00011978,1197,0.00012169,1268.4,-2.5993e-05,158.77,-4.7142e-05,-0.1378,1.5715
5001,18.891,2.1818,0.1,0.0001173,1172.2,0.00011909,1238.1,-2.6313e-05,145.58,-4.5706e-05,-0.13383,1.5715
5002,18.891,2,0.1,0.00011454,1144.6,0.00011618,1203.5,-2.6854e-05,128.75,-4.4008e-05,-0.13866,1.5714
5003,18.891,1.8182,0.1,0.00011165,1115.7,0.0001131,1166.1,-2.7601e-05,108.94,-4.2121e-05,-0.15388,1.5713
5004,18.891,1.6364,0.1,0.00010873,1086.6,0.00010995,1127.5,-2.8491e-05,87.293,-4.0133e-05,-0.18031,1.5712
5005,18.891,1.4545,0.1,0.00010587,1058,0.00010683,1089,-2.9429e-05,65.203,-3.8136e-05,-0.22027,1.571
5006,18.891,1.2727,0.1,0.00010314,1030.7,0.00010381,1051.8,-3.0316e-05,44.062,-3.6218e-05,-0.28394,1.5709
5007,18.891,1.0909,0.1,0.00010058,1005.1,0.00010098,1017.2,-3.107e-05,25.061,-3.446e-05,-0.41077,1.5707
5008,18.891,0.90909,0.1,9.8261e-05,981.94,9.8401e-05,986.12,-3.1606e-05,9.2958,-3.2957e-05,-0.85132,1.5705
5009,18.891,0.72727,0.1,9.6216e-05,961.5,9.6143e-05,959.36,-3.1401e-05,1.0489,-3.2245e-05,-5.2958,1.5703
5010,18.891,0.54545,0.1,9.4477e-05,944.12,9.4249e-05,937.55,-3.0498e-05,0.25335,-3.2294e-05,-13.247,1.57
5011,18.891,0.36364,0.1,9.3062e-05,929.98,9.2753e-05,921.15,-2.9828e-05,0.12005,-3.2177e-05,-17.524,1.5698
5012,18.891,0.18182,0.1,9.2153e-05,920.89,9.1825e-05,911.53,-2.949e-05,0.012088,-3.1949e-05,-18.46,1.5695
5013,18.709,5.8182,0.1,9.1179e-05,911.16,9.0802e-05,900.43,-2.9036e-05,0.018714,-3.1848e-05,-21.106,1.5437
5014,18.709,5.6364,0.1,9.2386e-05,923.23,9.2019e-05,912.77,-2.9442e-05,0.15983,-3.222e-05,-20.71,1.5439
5015,18.709,5.4545,0.1,9.4252e-05,941.87,9.396e-05,933.51,-3.024e-05,0.31561,-3.2519e-05,-16.808,1.5442
5016,18.709,5.2727,0.1,9.6583e-05,965.17,9.6446e-05,961.2,-3.1355e-05,0.95906,-3.2655e-05,-8.8088,1.5445
5017,18.709,5.0909,0.1,9.9356e-05,992.87,9.9439e-05,995.37,-3.2136e-05,6.768,-3.3266e-05,-1.7243,1.5447
5018,18.709,4.9091,0.1,0.00010252,1024.5,0.00010288,1035.3,-3.1909e-05,22.557,-3.4999e-05,-0.65698,1.5449
5019,18.709,4.7273,0.1,0.00010602,1059.5,0.00010667,1079.9,-3.1378e-05,42.678,-3.7113e-05,-0.4136,1.5451
5020,18.709,4.5455,0.1,0.00010976,1096.9,0.00011073,1128,-3.0675e-05,65.614,-3.9448e-05,-0.30283,1.5452
5021,18.709,4.3636,0.1,0.00011368,1136,0.00011493,1178.1,-2.9897e-05,89.942,-4.1899e-05,-0.23641,1.5454
5022,18.709,4.1818,0.1,0.00011767,1175.9,0.00011919,1228.6,-2.917e-05,113.86,-4.435e-05,-0.19321,1.5455
5023,18.709,4,0.1,0.00012164,1215.5,0.00012337,1277.5,-2.8623e-05,135.49,-4.6678e-05,-0.16827,1.5456
5024,18.709,3.8182,0.1,0.00012543,1253.5,0.00012733,1323,-2.8342e-05,153.3,-4.8767e-05,-0.16155,1.5457
5025,18.709,3.6364,0.1,0.00012886,1287.7,0.00013088,1362.8,-2.8328e-05,166.57,-5.052e-05,-0.17017,1.5458
5026,18.709,3.4545,0.1,0.00013169,1316,0.00013379,1394.8,-2.8499e-05,175.44,-5.1873e-05,-0.18679,1.5459
5027,18.709,3.2727,0.1,0.00013372,1336.3,0.00013587,1417.3,-2.8723e-05,180.6,-5.2787e-05,-0.20363,1.5459
5028,18.709,3.0909,0.1,0.00013478,1346.9,0.00013695,1428.8,-2.8874e-05,182.91,-5.3246e-05,-0.21399,1.5459
5029,18.709,2.9091,0.1,0.00013478,1346.9,0.00013695,1428.8,-2.8874e-05,182.91,-5.3246e-05,-0.21399,1.5459
5030,18.709,2.7273,0.1,0.00013372,1336.3,0.00013587,1417.3,-2.8723e-05,180.6,-5.2787e-05,-0.20363,1.5459
5031,18.709,2.5455,0.1,0.00013169,1316,0.00013379,1394.8,-2.8499e-05,175.44,-5.1873e-05,-0.18679,1.5459
5032,18.709,2.3636,0.1,0.00012886,1287.7,0.00013088,1362.8,-2.8328e-05,166.57,-5.052e-05,-0.17017,1.5458
5033,18.709,2.1818,0.1,0.00012543,1253.5,0.00012733,1323,-2.8342e-05,153.3,-4.8767e-05,-0.16155,1.5457
5034,18.709,2,0.1,0.00012164,1215.5,0.00012337,1277.5,-2.8623e-05,135.49,-4.6678e-05,-0.16827,1.5456
5035,18.709,1.8182,0.1,0.00011767,1175.9,0.00011919,1228.6,-2.917e-05,113.86,-4.435e-05,-0.19322,1.5455
5036,18.709,1.6364,0.1,0.00011368,1136,0.00011493,1178.1,-2.9897e-05,89.943,-4.1899e-05,-0.23641,1.5454
5037,18.709,1.4545,0.1,0.00010976,1096.9,0.00011073,1128,-3.0675e-05,65.615,-3.9448e-05,-0.30283,1.5452
5038,18.709,1.2727,0.1,0.00010602,1059.5,0.00010667,1079.9,-3.1378e-05,42.678,-3.7113e-05,-0.4136,1.5451
5039,18.709,1.0909,0.1,0.00010252,1024.5,0.00010288,1035.3,-3.1909e-05,22.557,-3.4999e-05,-0.65697,1.5449
5040,18.709,0.90909,0.1,9.9356e-05,992.87,9.9439e-05,995.37,-3.2136e-05,6.7681,-3.3266e-05,-1.7242,1.5447
5041,18.709,0.72727,0.1,9.6583e-05,965.17,9.6446e-05,961.2,-3.1355e-05,0.95906,-3.2655e-05,-8.8087,1.5445
5042,18.709,0.54545,0.1,9.4252e-05,941.87,9.396e-05,933.51,-3.024e-05,0.31561,-3.2519e-05,-16.808,1.5442
5043,18.709,0.36364,0.1,9.2386e-05,923.23,9.2019e-05,912.77,-2.9442e-05,0.15983,-3.222e-05,-20.71,1.5439
5044,18.709,0.18182,0.1,9.1179e-05,911.16,9.0802e-05,900.43,-2.9036e-05,0.018714,-3.1848e-05,-21.106,1.5437
5045,18.526,5.8182,0.1,8.8996e-05,889.35,8.8565e-05,877.14,-2.817e-05,0.034641,-3.1366e-05,-23.974,1.5179
5046,18.526,5.6364,0.1,9.0528e-05,904.66,9.01e-05,892.55,-2.8662e-05,0.21504,-3.1879e-05,-23.954,1.5182
5047,18.526,5.4545,0.1,9.2935e-05,928.71,9.2573e-05,918.41,-2.9606e-05,0.40482,-3.2408e-05,-20.647,1.5184
5048,18.526,5.2727,0.1,9.6009e-05,959.42,9.5793e-05,953.23,-3.0944e-05,0.97558,-3.2832e-05,-13.209,1.5187
5049,18.526,5.0909,0.1,9.9717e-05,996.48,9.9717e-05,996.52,-3.2349e-05,4.2319,-3.3458e-05,-4.1055,1.5189
5050,18.526,4.9091,0.1,0.00010399,1039.2,0.00010426,1047.5,-3.2744e-05,18.063,-3.5307e-05,-1.198,1.5192
5051,18.526,4.7273,0.1,0.00010872,1086.5,0.00010931,1104.9,-3.2608e-05,38.53,-3.7824e-05,-0.65788,1.5194
5052,18.526,4.5455,0.1,0.00011379,1137.1,0.00011472,1167,-3.2225e-05,62.954,-4.0663e-05,-0.44555,1.5195
5053,18.526,4.3636,0.1,0.00011908,1190,0.00012035,1232.1,-3.171e-05,89.601,-4.3679e-05,-0.32756,1.5197
5054,18.526,4.1818,0.1,0.00012449,1244.1,0.00012605,1297.9,-3.1237e-05,116.06,-4.6718e-05,-0.25388,1.5198
5055,18.526,4,0.1,0.00012988,1297.9,0.00013168,1361.9,-3.0994e-05,139.63,-4.9606e-05,-0.21435,1.52
5056,18.526,3.8182,0.1,0.00013504,1349.5,0.00013703,1421.4,-3.1108e-05,158.15,-5.2183e-05,-0.20233,1.5201
5057,18.526,3.6364,0.1,0.00013971,1396.1,0.00014182,1473.5,-3.1563e-05,170.77,-5.432e-05,-0.21255,1.5201
5058,18.526,3.4545,0.1,0.00014356,1434.6,0.00014575,1515.2,-3.2208e-05,178.09,-5.5942e-05,-0.23839,1.5202
5059,18.526,3.2727,0.1,0.00014632,1462.2,0.00014855,1544.3,-3.2817e-05,181.6,-5.7021e-05,-0.26468,1.5202
5060,18.526,3.0909,0.1,0.00014775,1476.5,0.00015,1559.2,-3.3181e-05,182.87,-5.7557e-05,-0.28014,1.5203
5061,18.526,2.9091,0.1,0.00014775,1476.5,0.00015,1559.2,-3.3181e-05,182.87,-5.7557e-05,-0.28014,1.5203
5062,18.526,2.7273,0.1,0.00014632,1462.2,0.00014855,1544.3,-3.2817e-05,181.6,-5.7021e-05,-0.26468,1.5202
5063,18.526,2.5455,0.1,0.00014356,1434.6,0.00014575,1515.2,-3.2208e-05,178.09,-5.5942e-05,-0.23839,1.5202
5064,18.526,2.3636,0.1,0.00013971,1396.1,0.00014182,1473.5,-3.1563e-05,170.77,-5.432e-05,-0.21255,1.5201
5065,18.526,2.1818,0.1,0.00013504,1349.5,0.00013703,1421.4,-3.1108e-05,158.15,-5.2183e-05,-0.20233,1.5201
5066,18.526,2,0.1,0.00012988,1297.9,0.00013168,1361.9,-3.0994e-05,139.63,-4.9607e-05,-0.21435,1.52
5067,18.526,1.8182,0.1,0.00012449,1244.1,0.00012605,1297.9,-3.1237e-05,116.06,-4.6718e-05,-0.25388,1.5198
5068,18.526,1.6364,0.1,0.00011908,1190,0.00012035,1232.1,-3.171e-05,89.601,-4.3679e-05,-0.32756,1.5197
5069,18.526,1.4545,0.1,0.00011379,1137.1,0.00011472,1167,-3.2225e-05,62.954,-4.0663e-05,-0.44555,1.5195
5070,18.526,1.2727,0.1,0.00010872,1086.5,0.00010931,1104.9,-3.2608e-05,38.53,-3.7824e-05,-0.65788,1.5194
5071,18.526,1.0909,0.1,0.00010399,1039.2,0.00010426,1047.5,-3.2744e-05,18.063,-3.5307e-05,-1.198,1.5192
5072,18.526,0.90909,0.1,9.9717e-05,996.48,9.9717e-05,996.52,-3.2349e-05,4.232,-3.3458e-05,-4.1054,1.5189
5073,18.526,0.72727,0.1,9.6009e-05,959.42,9.5793e-05,953.23,-3.0944e-05,0.97559,-3.2832e-05,-13.208,1.5187
5074,18.526,0.54545,0.1,9.2935e-05,928.71,9.2573e-05,918.41,-2.9606e-05,0.40482,-3.2408e-05,-20.647,1.5184
5075,18.526,0.36364,0.1,9.0528e-05,904.66,9.01e-05,892.55,-2.8662e-05,0.21504,-3.1879e-05,-23.954,1.5182
5076,18.526,0.18182,0.1,8.8996e-05,889.35,8.8565e-05,877.14,-2.817e-05,0.034644,-3.1366e-05,-23.974,1.5179
5077,18.344,5.8182,0.1,8.5381e-05,853.22,8.4893e-05,839.5,-2.6828e-05,0.072478,-3.0413e-05,-26.865,1.4921
5078,18.344,5.6364,0.1,8.7255e-05,871.95,8.677e-05,858.31,-2.7424e-05,0.29845,-3.105e-05,-26.945,1.4924
5079,18.344,5.4545,0.1,9.0308e-05,902.45,8.9872e-05,890.16,-2.853e-05,0.53627,-3.1875e-05,-24.597,1.4927
5080,18.344,5.2727,0.1,9.431e-05,942.45,9.3996e-05,933.51,-3.0105e-05,1.0602,-3.2728e-05,-18.642,1.493
5081,18.344,5.0909,0.1,9.922e-05,991.51,9.9094e-05,987.94,-3.2034e-05,2.6949,-3.3687e-05,-9.7252,1.4933
5082,18.344,4.9091,0.1,0.00010493,1048.6,0.00010506,1052.6,-3.3553e-05,11.11,-3.5417e-05,-2.9015,1.4935
5083,18.344,4.7273,0.1,0.00011128,1112.1,0.00011174,1126.1,-3.4147e-05,29.965,-3.83e-05,-1.2448,1.4937
5084,18.344,4.5455,0.1,0.0001181,1180.2,0.00011892,1206.4,-3.4297e-05,55.118,-4.1731e-05,-0.73506,1.4939
5085,18.344,4.3636,0.1,0.00012521,1251.2,0.00012642,1290.9,-3.4193e-05,84.148,-4.5457e-05,-0.48616,1.4941
5086,18.344,4.1818,0.1,0.00013247,1323.8,0.00013403,1376.8,-3.4079e-05,113.68,-4.9254e-05,-0.34045,1.4942
5087,18.344,4,0.1,0.00013972,1396.3,0.00014157,1460.7,-3.4261e-05,139.57,-5.287e-05,-0.25215,1.4944
5088,18.344,3.8182,0.1,0.00014669,1465.9,0.00014874,1538.5,-3.4942e-05,158.46,-5.6063e-05,-0.23128,1.4945
5089,18.344,3.6364,0.1,0.00015298,1528.7,0.00015515,1606.2,-3.6088e-05,169.33,-5.8659e-05,-0.26582,1.4946
5090,18.344,3.4545,0.1,0.00015814,1580.3,0.00016037,1659.8,-3.7428e-05,173.61,-6.0575e-05,-0.30872,1.4947
5091,18.344,3.2727,0.1,0.0001618,1616.8,0.00016404,1696.7,-3.8592e-05,174.13,-6.1813e-05,-0.34382,1.4947
5092,18.344,3.0909,0.1,0.00016368,1635.7,0.00016593,1715.4,-3.9262e-05,173.6,-6.2415e-05,-0.36355,1.4947
5093,18.344,2.9091,0.1,0.00016368,1635.7,0.00016593,1715.4,-3.9262e-05,173.6,-6.2415e-05,-0.36355,1.4947
5094,18.344,2.7273,0.1,0.0001618,1616.8,0.00016404,1696.7,-3.8592e-05,174.13,-6.1813e-05,-0.34382,1.4947
5095,18.344,2.5455,0.1,0.00015814,1580.3,0.00016037,1659.8,-3.7428e-05,173.61,-6.0575e-05,-0.30872,1.4947
5096,18.344,2.3636,0.1,0.00015298,1528.7,0.00015515,1606.2,-3.6088e-05,169.33,-5.8659e-05,-0.26582,1.4946
5097,18.344,2.1818,0.1,0.00014669,1465.9,0.00014874,1538.5,-3.4942e-05,158.46,-5.6063e-05,-0.23128,1.4945
5098,18.344,2,0.1,0.00013972,1396.3,0.00014157,1460.7,-3.4261e-05,139.57,-5.287e-05,-0.25215,1.4944
5099,18.344,1.8182,0.1,0.00013247,1323.8,0.00013403,1376.8,-3.4079e-05,113.68,-4.9254e-05,-0.34045,1.4942
5100,18.344,1.6364,0.1,0.00012521,1251.2,0.00012642,1290.9,-3.4193e-05,84.148,-4.5457e-05,-0.48616,1.4941
5101,18.344,1.4545,0.1,0.0001181,1180.2,0.00011892,1206.4,-3.4297e-05,55.119,-4.1731e-05,-0.73505,1.4939
5102,18.344,1.2727,0.1,0.00011128,1112.1,0.00011174,1126.1,-3.4147e-05,29.965,-3.83e-05,-1.2448,1.4937
5103,18.344,1.0909,0.1,0.00010493,1048.6,0.00010506,1052.6,-3.3553e-05,11.11,-3.5417e-05,-2.9015,1.4935
5104,18.344,0.90909,0.1,9.922e-05,991.51,9.9094e-05,987.94,-3.2034e-05,2.6949,-3.3687e-05,-9.7251,1.4933
5105,18.344,0.72727,0.1,9.431e-05,942.45,9.3996e-05,933.51,-3.0105e-05,1.0602,-3.2727e-05,-18.642,1.493
5106,18.344,0.54545,0.1,9.0308e-05,902.45,8.9872e-05,890.16,-2.853e-05,0.53627,-3.1875e-05,-24.597,1.4927
5107,18.344,0.36364,0.1,8.7255e-05,871.95,8.677e-05,858.31,-2.7424e-05,0.29845,-3.105e-05,-26.945,1.4924
5108,18.344,0.18182,0.1,8.5381e-05,853.22,8.4893e-05,839.5,-2.6828e-05,0.07248,-3.0413e-05,-26.865,1.4921
5109,18.161,5.8182,0.1,8.0104e-05,800.49,7.9564e-05,785.42,-2.4948e-05,0.15608,-2.8891e-05,-29.476,1.4665
5110,18.161,5.6364,0.1,8.2333e-05,822.76,8.1802e-05,807.93,-2.5669e-05,0.43448,-2.9626e-05,-29.295,1.4668
5111,18.161,5.4545,0.1,8.616e-05,861.01,8.565e-05,846.73,-2.6946e-05,0.73137,-3.0841e-05,-28.538,1.4671
5112,18.161,5.2727,0.1,9.1327e-05,912.64,9.0883e-05,900.17,-2.8763e-05,1.1945,-3.2321e-05,-25.541,1.4674
5113,18.161,5.0909,0.1,9.7771e-05,977.03,9.7451e-05,968,-3.111e-05,2.0361,-3.4009e-05,-19.743,1.4676
5114,18.161,4.9091,0.1,0.00010534,1052.7,0.00010523,1049.5,-3.3842e-05,4.5506,-3.5894e-05,-10.87,1.4679
5115,18.161,4.7273,0.1,0.00011382,1137.4,0.00011401,1143.1,-3.609e-05,15.344,-3.8629e-05,-3.7298,1.4681
5116,18.161,4.5455,0.1,0.00012294,1228.6,0.00012352,1246.6,-3.724e-05,38.725,-4.2607e-05,-1.6042,1.4683
5117,18.161,4.3636,0.1,0.00013247,1323.8,0.0001335,1356.9,-3.778e-05,69.928,-4.7206e-05,-0.89639,1.4685
5118,18.161,4.1818,0.1,0.0001422,1421,0.00014367,1469.7,-3.8152e-05,103.56,-5.2008e-05,-0.55345,1.4687
5119,18.161,4,0.1,0.00015194,1518.3,0.00015375,1580.1,-3.8884e-05,132.71,-5.6603e-05,-0.42903,1.4689
5120,18.161,3.8182,0.1,0.00016128,1611.7,0.00016332,1682,-4.0348e-05,151.73,-6.0593e-05,-0.3801,1.469
5121,18.161,3.6364,0.1,0.00016965,1695.3,0.00017179,1769.1,-4.2476e-05,159.22,-6.3714e-05,-0.35164,1.4691
5122,18.161,3.4545,0.1,0.0001764,1762.8,0.00017855,1836.4,-4.4792e-05,158.26,-6.5908e-05,-0.40088,1.4692
5123,18.161,3.2727,0.1,0.00018107,1809.5,0.00018319,1881.3,-4.6707e-05,153.93,-6.7253e-05,-0.44597,1.4693
5124,18.161,3.0909,0.1,0.00018344,1833.1,0.00018552,1903.5,-4.7773e-05,150.61,-6.7879e-05,-0.45917,1.4693
5125,18.161,2.9091,0.1,0.00018344,1833.1,0.00018552,1903.5,-4.7773e-05,150.61,-6.7879e-05,-0.45917,1.4693
5126,18.161,2.7273,0.1,0.00018107,1809.5,0.00018319,1881.3,-4.6707e-05,153.93,-6.7253e-05,-0.44597,1.4693
5127,18.161,2.5455,0.1,0.0001764,1762.8,0.00017855,1836.4,-4.4792e-05,158.26,-6.5908e-05,-0.40088,1.4692
5128,18.161,2.3636,0.1,0.00016965,1695.3,0.00017179,1769.1,-4.2476e-05,159.22,-6.3714e-05,-0.35164,1.4691
5129,18.161,2.1818,0.1,0.00016128,1611.7,0.00016332,1682,-4.0348e-05,151.73,-6.0593e-05,-0.3801,1.469
5130,18.161,2,0.1,0.00015194,1518.3,0.00015375,1580.1,-3.8884e-05,132.71,-5.6603e-05,-0.42903,1.4689
5131,18.161,1.8182,0.1,0.0001422,1421,0.00014367,1469.7,-3.8152e-05,103.56,-5.2008e-05,-0.55345,1.4687
5132,18.161,1.6364,0.1,0.00013247,1323.8,0.0001335,1356.9,-3.778e-05,69.928,-4.7206e-05,-0.89639,1.4685
5133,18.161,1.4545,0.1,0.00012294,1228.6,0.00012352,1246.6,-3.724e-05,38.725,-4.2607e-05,-1.6042,1.4683
5134,18.161,1.2727,0.1,0.00011382,1137.4,0.00011401,1143.1,-3.609e-05,15.345,-3.8629e-05,-3.7297,1.4681
5135,18.161,1.0909,0.1,0.00010534,1052.7,0.00010523,1049.5,-3.3842e-05,4.5506,-3.5894e-05,-10.87,1.4679
5136,18.161,0.90909,0.1,9.7771e-05,977.03,9.7451e-05,968,-3.111e-05,2.0361,-3.4009e-05,-19.743,1.4676
5137,18.161,0.72727,0.1,9.1327e-05,912.64,9.0883e-05,900.17,-2.8763e-05,1.1945,-3.2321e-05,-25.541,1.4674
5138,18.161,0.54545,0.1,8.616e-05,861,8.565e-05,846.73,-2.6946e-05,0.73138,-3.0841e-05,-28.538,1.4671
5139,18.161,0.36364,0.1,8.2333e-05,822.76,8.1802e-05,807.93,-2.5669e-05,0.43448,-2.9626e-05,-29.295,1.4668
5140,18.161,0.18182,0.1,8.0104e-05,800.49,7.9564e-05,785.42,-2.4948e-05,0.15608,-2.8891e-05,-29.476,1.4665
5141,17.979,5.8182,0.1,7.2956e-05,729.06,7.2376e-05,713.02,-2.2475e-05,0.34886,-2.6698e-05,-31.384,1.4408
5142,17.979,5.6364,0.1,7.5566e-05,755.14,7.5008e-05,739.68,-2.3346e-05,0.68931,-2.7515e-05,-30.636,1.4412
5143,17.979,5.4545,0.1,8.0348e-05,802.93,7.9758e-05,786.61,-2.4795e-05,1.0331,-2.9274e-05,-32.622,1.4415
5144,17.979,5.2727,0.1,8.6985e-05,869.25,8.6357e-05,851.9,-2.6842e-05,1.3712,-3.1672e-05,-34.918,1.4418
5145,17.979,5.0909,0.1,9.5372e-05,953.06,9.4736e-05,935.46,-2.953e-05,1.7654,-3.4538e-05,-35.86,1.4421
5146,17.979,4.9091,0.1,0.00010532,1052.5,0.00010476,1036.9,-3.2918e-05,2.4214,-3.7599e-05,-32.749,1.4424
5147,17.979,4.7273,0.1,0.00011657,1164.9,0.00011623,1155.4,-3.699e-05,4.1117,-4.0567e-05,-22.758,1.4426
5148,17.979,4.5455,0.1,0.00012877,1286.8,0.00012883,1288.8,-4.1045e-05,12.441,-4.379e-05,-8.1822,1.4429
5149,17.979,4.3636,0.1,0.00014154,1414.4,0.00014215,1433.4,-4.3131e-05,41.244,-4.8925e-05,-2.2856,1.4431
5150,17.979,4.1818,0.1,0.00015462,1545.1,0.00015581,1583.2,-4.4207e-05,80.391,-5.5033e-05,-0.95005,1.4433
5151,17.979,4,0.1,0.00016771,1675.9,0.00016936,1730.4,-4.5613e-05,115.11,-6.097e-05,-0.27286,1.4435
5152,17.979,3.8182,0.1,0.00018024,1801.2,0.00018215,1864.5,-4.8124e-05,134.31,-6.6022e-05,-0.16867,1.4436
5153,17.979,3.6364,0.1,0.00019123,1911,0.00019317,1975,-5.16e-05,135.94,-6.9761e-05,-0.51283,1.4438
5154,17.979,3.4545,0.1,0.0001997,1995.6,0.00020154,2055.6,-5.519e-05,126.65,-7.2123e-05,-0.58107,1.4439
5155,17.979,3.2727,0.1,0.00020526,2051.2,0.00020697,2106.1,-5.7998e-05,115.25,-7.3413e-05,-0.56814,1.444
5156,17.979,3.0909,0.1,0.00020797,2078.2,0.00020958,2129.9,-5.9495e-05,108.14,-7.3961e-05,-0.55148,1.444
5157,17.979,2.9091,0.1,0.00020797,2078.2,0.00020958,2129.9,-5.9495e-05,108.14,-7.3961e-05,-0.55148,1.444
5158,17.979,2.7273,0.1,0.00020526,2051.2,0.00020697,2106.1,-5.7998e-05,115.25,-7.3413e-05,-0.56814,1.444
5159,17.979,2.5455,0.1,0.0001997,1995.6,0.00020154,2055.6,-5.519e-05,126.65,-7.2123e-05,-0.58107,1.4439
5160,17.979,2.3636,0.1,0.00019123,1911,0.00019317,1975,-5.16e-05,135.94,-6.9761e-05,-0.51283,1.4438
5161,17.979,2.1818,0.1,0.00018024,1801.2,0.00018215,1864.5,-4.8124e-05,134.31,-6.6023e-05,-0.16867,1.4436
5162,17.979,2,0.1,0.00016771,1675.9,0.00016936,1730.4,-4.5613e-05,115.11,-6.097e-05,-0.27286,1.4435
5163,17.979,1.8182,0.1,0.00015462,1545.1,0.00015581,1583.2,-4.4207e-05,80.391,-5.5033e-05,-0.95005,1.4433
5164,17.979,1.6364,0.1,0.00014154,1414.4,0.00014215,1433.4,-4.3131e-05,41.244,-4.8925e-05,-2.2856,1.4431
5165,17.979,1.4545,0.1,0.00012877,1286.8,0.00012883,1288.8,-4.1045e-05,12.441,-4.379e-05,-8.1821,1.4429
5166,17.979,1.2727,0.1,0.00011657,1164.9,0.00011623,1155.4,-3.699e-05,4.1117,-4.0567e-05,-22.758,1.4426
5167,17.979,1.0909,0.1,0.00010532,1052.5,0.00010476,1036.9,-3.2918e-05,2.4214,-3.7599e-05,-32.749,1.4424
5168,17.979,0.90909,0.1,9.5372e-05,953.06,9.4736e-05,935.46,-2.953e-05,1.7654,-3.4538e-05,-35.86,1.4421
5169,17.979,0.72727,0.1,8.6985e-05,869.25,8.6357e-05,851.9,-2.6842e-05,1.3712,-3.1672e-05,-34.918,1.4418
5170,17.979,0.54545,0.1,8.0348e-05,802.93,7.9758e-05,786.61,-2.4795e-05,1.0331,-2.9274e-05,-32.621,1.4415
5171,17.979,0.36364,0.1,7.5566e-05,755.14,7.5008e-05,739.68,-2.3346e-05,0.68931,-2.7515e-05,-30.636,1.4412
5172,17.979,0.18182,0.1,7.2956e-05,729.06,7.2376e-05,713.02,-2.2475e-05,0.34887,-2.6698e-05,-31.384,1.4408
5173,17.796,5.8182,0.1,6.3783e-05,637.39,6.3186e-05,621.06,-1.9375e-05,0.73908,-2.3748e-05,-32.121,1.4152
5174,17.796,5.6364,0.1,6.6883e-05,668.37,6.6318e-05,652.88,-2.0422e-05,1.1529,-2.4696e-05,-30.963,1.4156
5175,17.796,5.4545,0.1,7.2931e-05,728.8,7.2232e-05,709.81,-2.2047e-05,1.4304,-2.7273e-05,-37.838,1.4159
5176,17.796,5.2727,0.1,8.1448e-05,813.92,8.0522e-05,788.99,-2.4284e-05,1.5183,-3.1011e-05,-49.024,1.4163
5177,17.796,5.0909,0.1,9.2248e-05,921.84,9.1066e-05,890.25,-2.7204e-05,1.6123,-3.5611e-05,-61.555,1.4166
5178,17.796,4.9091,0.1,0.00010515,1050.8,0.00010378,1014.2,-3.096e-05,1.8047,-4.0676e-05,-71.201,1.4169
5179,17.796,4.7273,0.1,0.00011995,1198.6,0.00011858,1161.9,-3.5752e-05,2.2675,-4.5681e-05,-72.332,1.4172
5180,17.796,4.5455,0.1,0.00013628,1361.8,0.00013523,1333.2,-4.1759e-05,3.3091,-4.9994e-05,-58.562,1.4175
5181,17.796,4.3636,0.1,0.00015367,1535.6,0.00015329,1525.1,-4.8794e-05,6.7039,-5.3304e-05,-27.181,1.4177
5182,17.796,4.1818,0.1,0.00017146,1713.4,0.00017196,1728.7,-5.3396e-05,35.525,-5.8674e-05,-4.1299,1.418
5183,17.796,4,0.1,0.0001894,1892.7,0.00019058,1929.9,-5.5721e-05,79.299,-6.6577e-05,-2.2708,1.4182
5184,17.796,3.8182,0.1,0.00020625,2061.1,0.00020773,2108.2,-5.9577e-05,99.752,-7.3095e-05,-1.8161,1.4184
5185,17.796,3.6364,0.1,0.00022014,2199.9,0.00022155,2244.3,-6.483e-05,92.555,-7.7238e-05,-0.67373,1.4186
5186,17.796,3.4545,0.1,0.00022989,2297.3,0.000231,2331.6,-6.9829e-05,71.269,-7.9449e-05,-1.0133,1.4187
5187,17.796,3.2727,0.1,0.00023552,2353.6,0.00023634,2378.4,-7.3383e-05,51.259,-8.0317e-05,-0.84422,1.4188
5188,17.796,3.0909,0.1,0.000238,2378.3,0.00023864,2397.8,-7.5151e-05,40.09,-8.0567e-05,-0.60373,1.4188
5189,17.796,2.9091,0.1,0.000238,2378.3,0.00023864,2397.8,-7.5151e-05,40.09,-8.0567e-05,-0.60373,1.4188
5190,17.796,2.7273,0.1,0.00023552,2353.6,0.00023634,2378.4,-7.3383e-05,51.259,-8.0317e-05,-0.84422,1.4188
5191,17.796,2.5455,0.1,0.00022989,2297.3,0.000231,2331.6,-6.9829e-05,71.269,-7.9449e-05,-1.0133,1.4187
5192,17.796,2.3636,0.1,0.00022014,2199.9,0.00022155,2244.3,-6.483e-05,92.556,-7.7238e-05,-0.67373,1.4186
5193,17.796,2.1818,0.1,0.00020625,2061.1,0.00020773,2108.2,-5.9577e-05,99.752,-7.3095e-05,-1.8161,1.4184
5194,17.796,2,0.1,0.0001894,1892.7,0.00019058,1929.9,-5.5721e-05,79.3,-6.6577e-05,-2.2708,1.4182
5195,17.796,1.8182,0.1,0.00017146,1713.4,0.00017196,1728.7,-5.3396e-05,35.525,-5.8674e-05,-4.1299,1.418
5196,17.796,1.6364,0.1,0.00015367,1535.6,0.00015329,1525.1,-4.8794e-05,6.7039,-5.3304e-05,-27.18,1.4177
5197,17.796,1.4545,0.1,0.00013628,1361.8,0.00013523,1333.2,-4.1759e-05,3.3091,-4.9994e-05,-58.561,1.4175
5198,17.796,1.2727,0.1,0.00011995,1198.6,0.00011858,1161.9,-3.5752e-05,2.2675,-4.5681e-05,-72.332,1.4172
5199,17.796,1.0909,0.1,0.00010515,1050.8,0.00010378,1014.2,-3.096e-05,1.8047,-4.0676e-05,-71.2,1.4169
5200,17.796,0.90909,0.1,9.2248e-05,921.84,9.1066e-05,890.25,-2.7204e-05,1.6124,-3.5611e-05,-61.555,1.4166
5201,17.796,0.72727,0.1,8.1448e-05,813.92,8.0522e-05,788.99,-2.4284e-05,1.5183,-3.1011e-05,-49.024,1.4163
5202,17.796,0.54545,0.1,7.2931e-05,728.8,7.2232e-05,709.81,-2.2047e-05,1.4304,-2.7273e-05,-37.838,1.4159
5203,17.796,0.36364,0.1,6.6883e-05,668.37,6.6318e-05,652.88,-2.0422e-05,1.1529,-2.4696e-05,-30.963,1.4156
5204,17.796,0.18182,0.1,6.3783e-05,637.39,6.3186e-05,621.06,-1.9375e-05,0.73908,-2.3748e-05,-32.121,1.4152
5205,17.614,5.8182,0.1,5.2538e-05,525.02,5.1958e-05,509.48,-1.5616e-05,1.7552,-2.0012e-05,-31.271,1.3897
5206,17.614,5.6364,0.1,5.652e-05,564.81,5.5947e-05,549.41,-1.6888e-05,2.1605,-2.1362e-05,-31.451,1.3901
5207,17.614,5.4545,0.1,6.444e-05,643.95,6.3529e-05,619.92,-1.8712e-05,1.9988,-2.5264e-05,-47.233,1.3904
5208,17.614,5.2727,0.1,7.5387e-05,753.35,7.391e-05,715.27,-2.1055e-05,1.7396,-3.0924e-05,-72.408,1.3908
5209,17.614,5.0909,0.1,8.9042e-05,889.81,8.6872e-05,834.9,-2.4025e-05,1.6634,-3.7867e-05,-102.34,1.3911
5210,17.614,4.9091,0.1,0.00010538,1053.1,0.00010252,981.5,-2.7862e-05,1.8298,-4.5705e-05,-132.23,1.3915
5211,17.614,4.7273,0.1,0.00012453,1244.4,0.00012117,1160.3,-3.2974e-05,2.1212,-5.3932e-05,-155.35,1.3918
5212,17.614,4.5455,0.1,0.00014658,1464.8,0.00014318,1378.4,-3.9926e-05,2.5418,-6.1773e-05,-161.61,1.3921
5213,17.614,4.3636,0.1,0.00017056,1704.4,0.00016796,1636.3,-4.9077e-05,5.5785,-6.7556e-05,-133.27,1.3924
5214,17.614,4.1818,0.1,0.00019577,1956.4,0.00019467,1925.9,-6.0851e-05,5.9685,-7.0307e-05,-65.08,1.3927
5215,17.614,4,0.1,0.00022114,2209.9,0.00022142,2218.2,-7.1418e-05,17.914,-7.3964e-05,-1.2144,1.393
5216,17.614,3.8182,0.1,0.0002439,2437.3,0.0002446,2458.3,-7.7257e-05,40.024,-8.2257e-05,2.4568,1.3933
5217,17.614,3.6364,0.1,0.00026069,2605.1,0.00026092,2612.1,-8.395e-05,20.879,-8.7615e-05,-6.6558,1.3935
5218,17.614,3.4545,0.1,0.00026911,2689.3,0.00026877,2679.4,-8.7441e-05,2.9817,-9.0831e-05,-22.491,1.3937
5219,17.614,3.2727,0.1,0.00027239,2722,0.00027159,2699.1,-8.7625e-05,0.072264,-9.3677e-05,-45.403,1.3938
5220,17.614,3.0909,0.1,0.0002733,2731.1,0.00027228,2701.8,-8.7369e-05,-0.40812,-9.4946e-05,-57.336,1.3938
5221,17.614,2.9091,0.1,0.0002733,2731.1,0.00027228,2701.8,-8.7369e-05,-0.40812,-9.4946e-05,-57.336,1.3938
5222,17.614,2.7273,0.1,0.00027239,2722,0.00027159,2699.1,-8.7625e-05,0.072267,-9.3677e-05,-45.403,1.3938
5223,17.614,2.5455,0.1,0.00026911,2689.3,0.00026877,2679.4,-8.7441e-05,2.9817,-9.0831e-05,-22.491,1.3937
5224,17.614,2.3636,0.1,0.00026069,2605.1,0.00026092,2612.1,-8.395e-05,20.879,-8.7615e-05,-6.6558,1.3935
5225,17.614,2.1818,0.1,0.0002439,2437.3,0.0002446,2458.3,-7.7257e-05,40.024,-8.2257e-05,2.4568,1.3933
5226,17.614,2,0.1,0.00022114,2209.9,0.00022142,2218.2,-7.1418e-05,17.914,-7.3964e-05,-1.2143,1.393
5227,17.614,1.8182,0.1,0.00019577,1956.4,0.00019467,1925.9,-6.0851e-05,5.9685,-7.0307e-05,-65.08,1.3927
5228,17.614,1.6364,0.1,0.00017056,1704.4,0.00016796,1636.3,-4.9077e-05,5.5785,-6.7556e-05,-133.27,1.3924
5229,17.614,1.4545,0.1,0.00014658,1464.8,0.00014318,1378.4,-3.9926e-05,2.5418,-6.1773e-05,-161.61,1.3921
5230,17.614,1.2727,0.1,0.00012453,1244.4,0.00012117,1160.3,-3.2974e-05,2.1212,-5.3932e-05,-155.35,1.3918
5231,17.614,1.0909,0.1,0.00010538,1053.1,0.00010252,981.5,-2.7862e-05,1.8298,-4.5705e-05,-132.23,1.3915
5232,17.614,0.90909,0.1,8.9042e-05,889.81,8.6872e-05,834.9,-2.4025e-05,1.6634,-3.7866e-05,-102.34,1.3911
5233,17.614,0.72727,0.1,7.5387e-05,753.35,7.391e-05,715.27,-2.1055e-05,1.7396,-3.0924e-05,-72.408,1.3908
5234,17.614,0.54545,0.1,6.444e-05,643.95,6.3529e-05,619.92,-1.8712e-05,1.9988,-2.5264e-05,-47.233,1.3904
5235,17.614,0.36364,0.1,5.652e-05,564.81,5.5947e-05,549.41,-1.6888e-05,2.1605,-2.1362e-05,-31.451,1.3901
5236,17.614,0.18182,0.1,5.2538e-05,525.02,5.1958e-05,509.48,-1.5616e-05,1.7552,-2.0012e-05,-31.271,1.3897
5237,17.432,5.8182,0.1,3.9494e-05,394.67,3.8929e-05,380.15,-1.1214e-05,3.3881,-1.5696e-05,-30.281,1.3642
5238,17.432,5.6364,0.1,4.564e-05,456.08,4.4907e-05,437.21,-1.2899e-05,2.8782,-1.8324e-05,-37.885,1.3646
5239,17.432,5.4545,0.1,5.6567e-05,565.28,5.5067e-05,527.82,-1.4942e-05,1.8035,-2.4482e-05,-69.879,1.3649
5240,17.432,5.2727,0.1,7.0521e-05,704.73,6.7869e-05,640.73,-1.725e-05,1.1777,-3.2684e-05,-114.79,1.3653
5241,17.432,5.0909,0.1,8.7251e-05,871.91,8.3191e-05,776.42,-2.0014e-05,0.97078,-4.2422e-05,-167.39,1.3657
5242,17.432,4.9091,0.1,0.0001072,1071.2,0.00010158,941.14,-2.3558e-05,0.88741,-5.363e-05,-225.06,1.3661
5243,17.432,4.7273,0.1,0.00013137,1312.8,0.00012417,1147.1,-2.8355e-05,1.1088,-6.6454e-05,-285.15,1.3665
5244,17.432,4.5455,0.1,0.00016072,1606.1,0.00015236,1412.4,-3.5384e-05,1.7835,-8.0277e-05,-335.53,1.3668
5245,17.432,4.3636,0.1,0.00019646,1963.2,0.00018811,1764.2,-4.6541e-05,1.1503,-9.3461e-05,-351.39,1.3672
5246,17.432,4.1818,0.1,0.0002385,2383.4,0.00023204,2220.3,-6.3587e-05,-0.87884,-0.00010306,-297.45,1.3676
5247,17.432,4,0.1,0.00027481,2746.2,0.00027205,2667.4,-8.7077e-05,-30.976,-9.9504e-05,-124.35,1.368
5248,17.432,3.8182,0.1,0.0003073,3070.9,0.00030574,3026.1,-9.8396e-05,-10.427,-0.00010739,-78.018,1.3683
5249,17.432,3.6364,0.1,0.00031895,3187.3,0.00031694,3131.7,-9.9013e-05,6.3262,-0.00011505,-114.15,1.3686
5250,17.432,3.4545,0.1,0.00031855,3183.3,0.00031567,3103.9,-9.738e-05,0.44,-0.0001179,-153.7,1.3688
5251,17.432,3.2727,0.1,0.00031417,3139.5,0.00031091,3050.5,-9.5069e-05,0.10994,-0.00011787,-171.22,1.3689
5252,17.432,3.0909,0.1,0.00031133,3111.1,0.0003079,3017.8,-9.3754e-05,-0.037669,-0.00011755,-178.85,1.369
5253,17.432,2.9091,0.1,0.00031133,3111.1,0.0003079,3017.8,-9.3754e-05,-0.03767,-0.00011755,-178.85,1.369
5254,17.432,2.7273,0.1,0.00031417,3139.5,0.00031091,3050.5,-9.5069e-05,0.10994,-0.00011787,-171.22,1.3689
5255,17.432,2.5455,0.1,0.00031855,3183.3,0.00031567,3103.9,-9.738e-05,0.44001,-0.0001179,-153.7,1.3688
5256,17.432,2.3636,0.1,0.00031895,3187.3,0.00031694,3131.7,-9.9013e-05,6.3262,-0.00011505,-114.15,1.3686
5257,17.432,2.1818,0.1,0.0003073,3070.9,0.00030574,3026.1,-9.8396e-05,-10.427,-0.00010739,-78.018,1.3683
5258,17.432,2,0.1,0.00027481,2746.2,0.00027205,2667.4,-8.7077e-05,-30.976,-9.9504e-05,-124.35,1.368
5259,17.432,1.8182,0.1,0.0002385,2383.4,0.00023204,2220.3,-6.3587e-05,-0.87883,-0.00010306,-297.45,1.3676
5260,17.432,1.6364,0.1,0.00019646,1963.2,0.00018811,1764.2,-4.6541e-05,1.1503,-9.3461e-05,-351.39,1.3672
5261,17.432,1.4545,0.1,0.00016072,1606.1,0.00015236,1412.4,-3.5384e-05,1.7835,-8.0277e-05,-335.52,1.3668
5262,17.432,1.2727,0.1,0.00013137,1312.8,0.00012417,1147.1,-2.8355e-05,1.1089,-6.6454e-05,-285.15,1.3665
5263,17.432,1.0909,0.1,0.0001072,1071.2,0.00010158,941.14,-2.3558e-05,0.88741,-5.363e-05,-225.06,1.3661
5264,17.432,0.90909,0.1,8.7251e-05,871.91,8.3191e-05,776.42,-2.0014e-05,0.97078,-4.2422e-05,-167.39,1.3657
5265,17.432,0.72727,0.1,7.0521e-05,704.73,6.7869e-05,640.73,-1.725e-05,1.1777,-3.2684e-05,-114.78,1.3653
5266,17.432,0.54545,0.1,5.6567e-05,565.28,5.5067e-05,527.82,-1.4942e-05,1.8035,-2.4482e-05,-69.878,1.3649
5267,17.432,0.36364,0.1,4.564e-05,456.08,4.4907e-05,437.21,-1.2899e-05,2.8782,-1.8324e-05,-37.885,1.3646
5268,17.432,0.18182,0.1,3.9494e-05,394.67,3.8929e-05,380.15,-1.1214e-05,3.3881,-1.5696e-05,-30.281,1.3642
5269,17.249,5.8182,0.1,2.6852e-05,268.34,2.5976e-05,249.15,-6.0249e-06,8.7074,-1.255e-05,-40.318,1.3387
5270,17.249,5.6364,0.1,3.9216e-05,391.89,3.7373e-05,349.85,-8.5944e-06,4.4679,-1.9311e-05,-76.049,1.3391
5271,17.249,5.4545,0.1,5.4833e-05,547.95,5.1252e-05,468.62,-1.0665e-05,3.3949,-2.9134e-05,-135.38,1.3395
5272,17.249,5.2727,0.1,7.2494e-05,724.44,6.6731e-05,599.79,-1.2693e-05,3.0262,-4.0545e-05,-206.24,1.3399
5273,17.249,5.0909,0.1,9.2823e-05,927.59,8.4464e-05,749.88,-1.4931e-05,3.0631,-5.373e-05,-288.45,1.3403
5274,17.249,4.9091,0.1,0.00011706,1169.8,0.00010562,929.7,-1.7603e-05,3.8323,-6.9357e-05,-385.03,1.3407
5275,17.249,4.7273,0.1,0.00014738,1472.8,0.00013221,1156.5,-2.1236e-05,3.5795,-8.8605e-05,-502.6,1.3412
5276,17.249,4.5455,0.1,0.00018738,1872.6,0.0001678,1467.4,-2.6183e-05,9.9164,-0.00011328,-644.51,1.3416
5277,17.249,4.3636,0.1,0.00024626,2460.9,0.00022051,1922.3,-3.5548e-05,-1.6355,-0.00014856,-850.76,1.3421
5278,17.249,4.1818,0.1,0.00033485,3346.2,0.00030965,2814.6,-5.6642e-05,62.456,-0.00018609,-910.13,1.3426
5279,17.249,4,0.1,0.0004172,4169.1,0.00040616,3946.6,-9.1051e-05,210.71,-0.0001924,-550.81,1.343
5280,17.249,3.8182,0.1,0.00042302,4227.2,0.00041761,4085,-0.00012322,21.406,-0.0001645,-288.73,1.3435
5281,17.249,3.6364,0.1,0.00040136,4010.8,0.00039479,3838.5,-0.00011505,7.7296,-0.00016013,-331,1.3439
5282,17.249,3.4545,0.1,0.00037171,3714.6,0.00036531,3545.7,-0.0001068,-1.5861,-0.00014868,-316.2,1.3441
5283,17.249,3.2727,0.1,0.00035429,3540.5,0.00034802,3376.2,-0.00010116,1.1928,-0.00014248,-309.34,1.3443
5284,17.249,3.0909,0.1,0.00034603,3457.9,0.00033985,3295.8,-9.8783e-05,0.094474,-0.00013928,-304.16,1.3444
5285,17.249,2.9091,0.1,0.00034603,3457.9,0.00033985,3295.8,-9.8783e-05,0.094475,-0.00013928,-304.16,1.3444
5286,17.249,2.7273,0.1,0.00035429,3540.5,0.00034802,3376.2,-0.00010116,1.1928,-0.00014248,-309.34,1.3443
5287,17.249,2.5455,0.1,0.00037171,3714.6,0.00036531,3545.7,-0.0001068,-1.5861,-0.00014868,-316.2,1.3441
5288,17.249,2.3636,0.1,0.00040136,4010.8,0.00039479,3838.5,-0.00011505,7.7296,-0.00016013,-331,1.3439
5289,17.249,2.1818,0.1,0.00042302,4227.2,0.00041761,4085,-0.00012322,21.406,-0.0001645,-288.73,1.3435
5290,17.249,2,0.1,0.0004172,4169.1,0.00040616,3946.6,-9.1051e-05,210.71,-0.0001924,-550.81,1.343
5291,17.249,1.8182,0.1,0.00033485,3346.2,0.00030965,2814.6,-5.6642e-05,62.456,-0.00018609,-910.13,1.3426
5292,17.249,1.6364,0.1,0.00024626,2460.9,0.00022051,1922.3,-3.5548e-05,-1.6355,-0.00014856,-850.76,1.3421
5293,17.249,1.4545,0.1,0.00018738,1872.6,0.0001678,1467.4,-2.6183e-05,9.9164,-0.00011328,-644.51,1.3416
5294,17.249,1.2727,0.1,0.00014738,1472.8,0.00013221,1156.5,-2.1236e-05,3.5795,-8.8605e-05,-502.6,1.3412
5295,17.249,1.0909,0.1,0.00011706,1169.8,0.00010562,929.7,-1.7603e-05,3.8323,-6.9357e-05,-385.03,1.3407
5296,17.249,0.90909,0.1,9.2823e-05,927.59,8.4464e-05,749.88,-1.4931e-05,3.0631,-5.373e-05,-288.45,1.3403
5297,17.249,0.72727,0.1,7.2494e-05,724.44,6.6731e-05,599.79,-1.2693e-05,3.0262,-4.0545e-05,-206.24,1.3399
5298,17.249,0.54545,0.1,5.4833e-05,547.95,5.1252e-05,468.62,-1.0665e-05,3.3949,-2.9134e-05,-135.38,1.3395
5299,17.249,0.36364,0.1,3.9216e-05,391.89,3.7373e-05,349.85,-8.5944e-06,4.4679,-1.9311e-05,-76.049,1.3391
5300,17.249,0.18182,0.1,2.6852e-05,268.34,2.5976e-05,249.15,-6.0249e-06,8.7074,-1.255e-05,-40.318,1.3387
5301,0.1837,0.18182,0.1,0.00040563,4053.5,0.00039937,3887.3,-0.00011795,0.38068,-0.00015985,-314.4,8.8274e-05
5302,0.1837,0.36364,0.1,0.00045578,4554.6,0.00044214,4488.1,-4.5774e-05,822.13,-0.00023647,-610.67,0.00013888
5303,0.1837,0.54545,0.1,0.00052248,5221.2,0.00050161,5182.4,-2.0703e-05,1258,-0.00028707,-743.45,0.00016833
5304,0.1837,0.72727,0.1,0.00057461,5742.2,0.0005493,5713.1,-1.0436e-05,1507.5,-0.0003214,-828.94,0.000187
5305,0.1837,0.90909,0.1,0.00061366,6132.4,0.00058583,6111.9,-6.0598e-06,1664.7,-0.00034525,-883.78,0.00019983
5306,0.1837,1.0909,0.1,0.00064311,6426.6,0.0006136,6412.2,-3.8174e-06,1773.2,-0.00036271,-923.38,0.00020909
5307,0.1837,1.2727,0.1,0.00066562,6651.6,0.00063497,6642.1,-2.5721e-06,1851.9,-0.00037581,-952.46,0.000216
5308,0.1837,1.4545,0.1,0.00068307,6826,0.00065158,6820.4,-1.8198e-06,1910.9,-0.00038585,-974.53,0.00022128
5309,0.1837,1.6364,0.1,0.00069671,6962.3,0.0006646,6959.7,-1.3413e-06,1956.1,-0.00039364,-991.5,0.00022536
5310,0.1837,1.8182,0.1,0.0007074,7069.1,0.00067482,7069.1,-1.0242e-06,1991,-0.00039972,-1004.7,0.00022853
5311,0.1837,2,0.1,0.00071576,7152.6,0.00068282,7154.5,-8.0841e-07,2018,-0.00040446,-1014.8,0.00023099
5312,0.1837,2.1818,0.1,0.00072221,7217.1,0.000689,7220.5,-6.5954e-07,2038.7,-0.0004081,-1022.7,0.00023289
5313,0.1837,2.3636,0.1,0.00072706,7265.6,0.00069365,7270.2,-5.5708e-07,2054.2,-0.00041084,-1028.5,0.00023431
5314,0.1837,2.5455,0.1,0.00073053,7300.3,0.00069698,7305.7,-4.8857e-07,2065.2,-0.00041279,-1032.7,0.00023532
5315,0.1837,2.7273,0.1,0.00073277,7322.7,0.00069913,7328.6,-4.4646e-07,2072.3,-0.00041405,-1035.4,0.00023597
5316,0.1837,2.9091,0.1,0.00073387,7333.6,0.00070018,7339.9,-4.2639e-07,2075.8,-0.00041467,-1036.7,0.00023629
5317,0.1837,3.0909,0.1,0.00073387,7333.6,0.00070018,7339.9,-4.2639e-07,2075.8,-0.00041467,-1036.7,0.00023629
5318,0.1837,3.2727,0.1,0.00073277,7322.7,0.00069913,7328.6,-4.4646e-07,2072.3,-0.00041405,-1035.4,0.00023597
5319,0.1837,3.4545,0.1,0.00073053,7300.3,0.00069698,7305.7,-4.8857e-07,2065.2,-0.00041279,-1032.7,0.00023532
5320,0.1837,3.6364,0.1,0.00072706,7265.6,0.00069365,7270.2,-5.5708e-07,2054.2,-0.00041084,-1028.5,0.00023431
5321,0.1837,3.8182,0.1,0.00072221,7217.1,0.000689,7220.5,-6.5954e-07,2038.7,-0.0004081,-1022.7,0.00023289
5322,0.1837,4,0.1,0.00071576,7152.6,0.00068282,7154.5,-8.0841e-07,2018,-0.00040446,-1014.8,0.00023099
5323,0.1837,4.1818,0.1,0.0007074,7069.1,0.00067482,7069.1,-1.0242e-06,1991,-0.00039972,-1004.7,0.00022853
5324,0.1837,4.3636,0.1,0.00069671,6962.3,0.0006646,6959.7,-1.3413e-06,1956.1,-0.00039364,-991.5,0.00022536
5325,0.1837,4.5455,0.1,0.00068307,6826,0.00065158,6820.4,-1.8198e-06,1910.9,-0.00038585,-974.53,0.00022128
5326,0.1837,4.7273,0.1,0.00066562,6651.6,0.00063497,6642.1,-2.5721e-06,1851.9,-0.00037581,-952.46,0.000216
5327,0.1837,4.9091,0.1,0.00064311,6426.6,0.0006136,6412.2,-3.8174e-06,1773.2,-0.00036271,-923.38,0.00020909
5328,0.1837,5.0909,0.1,0.00061366,6132.4,0.00058583,6111.9,-6.0598e-06,1664.7,-0.00034525,-883.78,0.00019983
5329,0.1837,5.2727,0.1,0.00057461,5742.2,0.0005493,5713.1,-1.0436e-05,1507.5,-0.0003214,-828.94,0.000187
5330,0.1837,5.4545,0.1,0.00052248,5221.2,0.00050161,5182.4,-2.0703e-05,1258,-0.00028707,-743.45,0.00016833
5331,0.1837,5.6364,0.1,0.00045578,4554.6,0.00044214,4488.1,-4.5774e-05,822.12,-0.00023647,-610.67,0.00013888
5332,0.1837,5.8182,0.1,0.00040563,4053.5,0.00039937,3887.3,-0.00011795,0.38044,-0.00015985,-314.4,8.8274e-05
5333,0.36739,0.18182,0.1,0.00050384,5034.9,0.00050343,5027.4,-0.00015478,81.824,-0.00017796,-92.381,0.00039037
5334,0.36739,0.36364,0.1,0.00047841,4780.8,0.00048985,5158.8,-0.00010876,661.05,-0.00017838,137.98,0.00053448
5335,0.36739,0.54545,0.1,0.00048391,4835.8,0.00049939,5453.8,-6.4071e-05,1220.2,-0.000202,183.84,0.00063085
5336,0.36739,0.72727,0.1,0.00050299,5026.5,0.00051906,5781.1,-3.8323e-05,1593.1,-0.0002228,207,0.00069711
5337,0.36739,0.90909,0.1,0.00052446,5241,0.00054044,6081.3,-2.3945e-05,1840.8,-0.0002394,221.91,0.00074447
5338,0.36739,1.0909,0.1,0.00054421,5438.3,0.00056009,6337.2,-1.5753e-05,2010.5,-0.00025241,232.38,0.00077947
5339,0.36739,1.2727,0.1,0.00056113,5607.4,0.00057699,6548.7,-1.0848e-05,2131.9,-0.00026264,240.03,0.00080597
5340,0.36739,1.4545,0.1,0.00057521,5748.1,0.00059111,6721.2,-7.7759e-06,2221.4,-0.00027071,245.79,0.00082638
5341,0.36739,1.6364,0.1,0.00058675,5863.5,0.00060271,6860.9,-5.7732e-06,2289,-0.00027712,250.21,0.00084227
5342,0.36739,1.8182,0.1,0.00059611,5957,0.00061215,6973.3,-4.4269e-06,2340.7,-0.00028219,253.62,0.0008547
5343,0.36739,2,0.1,0.00060361,6031.9,0.00061971,7062.9,-3.5023e-06,2380.3,-0.0002862,256.26,0.0008644
5344,0.36739,2.1818,0.1,0.0006095,6090.8,0.00062566,7133,-2.8605e-06,2410.5,-0.00028931,258.29,0.00087188
5345,0.36739,2.3636,0.1,0.00061399,6135.7,0.0006302,7186.3,-2.417e-06,2433.1,-0.00029166,259.8,0.00087749
5346,0.36739,2.5455,0.1,0.00061723,6168.1,0.00063348,7224.7,-2.1199e-06,2449.1,-0.00029335,260.87,0.00088151
5347,0.36739,2.7273,0.1,0.00061934,6189.1,0.00063561,7249.6,-1.9369e-06,2459.3,-0.00029444,261.57,0.0008841
5348,0.36739,2.9091,0.1,0.00062037,6199.4,0.00063666,7261.9,-1.8496e-06,2464.4,-0.00029498,261.9,0.00088537
5349,0.36739,3.0909,0.1,0.00062037,6199.4,0.00063666,7261.9,-1.8496e-06,2464.4,-0.00029498,261.9,0.00088537
5350,0.36739,3.2727,0.1,0.00061934,6189.1,0.00063561,7249.6,-1.9369e-06,2459.3,-0.00029444,261.57,0.0008841
5351,0.36739,3.4545,0.1,0.00061723,6168.1,0.00063348,7224.7,-2.1199e-06,2449.1,-0.00029335,260.87,0.00088151
5352,0.36739,3.6364,0.1,0.00061399,6135.7,0.0006302,7186.3,-2.417e-06,2433.1,-0.00029166,259.8,0.00087749
5353,0.36739,3.8182,0.1,0.0006095,6090.8,0.00062566,7133,-2.8605e-06,2410.5,-0.00028931,258.29,0.00087188
5354,0.36739,4,0.1,0.00060361,6031.9,0.00061971,7062.9,-3.5023e-06,2380.3,-0.0002862,256.26,0.0008644
5355,0.36739,4.1818,0.1,0.00059611,5957,0.00061215,6973.3,-4.4269e-06,2340.7,-0.00028219,253.62,0.0008547
5356,0.36739,4.3636,0.1,0.00058675,5863.5,0.00060271,6860.9,-5.7732e-06,2289,-0.00027712,250.21,0.00084227
5357,0.36739,4.5455,0.1,0.00057521,5748.1,0.00059111,6721.2,-7.7759e-06,2221.4,-0.00027071,245.79,0.00082638
5358,0.36739,4.7273,0.1,0.00056113,5607.4,0.00057699,6548.7,-1.0848e-05,2131.9,-0.00026264,240.03,0.00080597
5359,0.36739,4.9091,0.1,0.00054421,5438.3,0.00056009,6337.2,-1.5753e-05,2010.5,-0.00025241,232.38,0.00077947
5360,0.36739,5.0909,0.1,0.00052446,5241,0.00054044,6081.3,-2.3945e-05,1840.8,-0.0002394,221.91,0.00074447
5361,0.36739,5.2727,0.1,0.00050299,5026.5,0.00051906,5781.1,-3.8323e-05,1593.1,-0.0002228,207,0.00069711
5362,0.36739,5.4545,0.1,0.00048391,4835.8,0.00049939,5453.8,-6.4071e-05,1220.2,-0.000202,183.84,0.00063085
5363,0.36739,5.6364,0.1,0.00047841,4780.8,0.00048985,5158.8,-0.00010876,661.05,-0.00017838,137.98,0.00053448
5364,0.36739,5.8182,0.1,0.00050384,5034.9,0.00050343,5027.4,-0.00015478,81.824,-0.00017796,-92.382,0.00039037
5365,0.55109,0.18182,0.1,0.00055801,5576.2,0.00055618,5523.9,-0.00017891,0.80315,-0.00019284,-103.89,0.00098908
5366,0.55109,0.36364,0.1,0.00053515,5347.8,0.00054004,5519.6,-0.0001396,413.06,-0.00019997,-40.533,0.0012394
5367,0.55109,0.54545,0.1,0.00052891,5285.4,0.00053681,5632.5,-9.8142e-05,861.72,-0.00021938,-49.25,0.0014217
5368,0.55109,0.72727,0.1,0.00053333,5329.6,0.00054161,5798.8,-6.7137e-05,1224.9,-0.00023734,-53.902,0.0015554
5369,0.55109,0.90909,0.1,0.00054385,5434.7,0.00055141,5985,-4.6066e-05,1495.9,-0.00025276,-57.141,0.001655
5370,0.55109,1.0909,0.1,0.00055654,5561.5,0.0005632,6167.3,-3.2224e-05,1693.6,-0.00026554,-59.529,0.0017307
5371,0.55109,1.2727,0.1,0.00056917,5687.8,0.00057507,6333.2,-2.3128e-05,1838.6,-0.00027599,-61.307,0.0017891
5372,0.55109,1.4545,0.1,0.00058071,5803.1,0.00058604,6478.1,-1.7056e-05,1946.7,-0.00028448,-62.659,0.0018347
5373,0.55109,1.6364,0.1,0.0005908,5903.9,0.00059571,6601.3,-1.2922e-05,2028.3,-0.00029135,-63.702,0.0018706
5374,0.55109,1.8182,0.1,0.00059934,5989.3,0.00060396,6704.1,-1.0057e-05,2090.5,-0.00029688,-64.509,0.0018988
5375,0.55109,2,0.1,0.0006064,6059.8,0.00061082,6788.1,-8.0467e-06,2138.2,-0.00030129,-65.135,0.0019209
5376,0.55109,2.1818,0.1,0.00061208,6116.6,0.00061636,6855.2,-6.629e-06,2174.3,-0.00030475,-65.616,0.0019381
5377,0.55109,2.3636,0.1,0.00061649,6160.6,0.00062066,6907,-5.6385e-06,2201.2,-0.00030738,-65.975,0.001951
5378,0.55109,2.5455,0.1,0.00061971,6192.8,0.00062382,6944.7,-4.9693e-06,2220.2,-0.00030928,-66.231,0.0019603
5379,0.55109,2.7273,0.1,0.00062181,6213.8,0.00062588,6969.3,-4.5552e-06,2232.4,-0.00031051,-66.396,0.0019662
5380,0.55109,2.9091,0.1,0.00062285,6224.2,0.00062691,6981.5,-4.3571e-06,2238.4,-0.00031112,-66.476,0.0019692
5381,0.55109,3.0909,0.1,0.00062285,6224.2,0.00062691,6981.5,-4.3571e-06,2238.4,-0.00031112,-66.476,0.0019692
5382,0.55109,3.2727,0.1,0.00062181,6213.8,0.00062588,6969.3,-4.5552e-06,2232.4,-0.00031051,-66.396,0.0019662
5383,0.55109,3.4545,0.1,0.00061971,6192.8,0.00062382,6944.7,-4.9693e-06,2220.2,-0.00030928,-66.231,0.0019603
5384,0.55109,3.6364,0.1,0.00061649,6160.6,0.00062066,6907,-5.6385e-06,2201.2,-0.00030738,-65.975,0.001951
5385,0.55109,3.8182,0.1,0.00061208,6116.6,0.00061636,6855.2,-6.629e-06,2174.3,-0.00030475,-65.616,0.0019381
5386,0.55109,4,0.1,0.0006064,6059.8,0.00061082,6788.1,-8.0467e-06,2138.2,-0.00030129,-65.135,0.0019209
5387,0.55109,4.1818,0.1,0.00059934,5989.3,0.00060396,6704.1,-1.0057e-05,2090.5,-0.00029688,-64.509,0.0018988
5388,0.55109,4.3636,0.1,0.0005908,5903.9,0.00059571,6601.3,-1.2922e-05,2028.3,-0.00029135,-63.702,0.0018706
5389,0.55109,4.5455,0.1,0.00058071,5803.1,0.00058604,6478.1,-1.7056e-05,1946.7,-0.00028448,-62.659,0.0018347
5390,0.55109,4.7273,0.1,0.00056917,5687.8,0.00057507,6333.2,-2.3128e-05,1838.6,-0.00027599,-61.307,0.0017891
5391,0.55109,4.9091,0.1,0.00055654,5561.5,0.0005632,6167.3,-3.2224e-05,1693.6,-0.00026554,-59.529,0.0017307
5392,0.55109,5.0909,0.1,0.00054385,5434.7,0.00055141,5985,-4.6066e-05,1495.9,-0.00025276,-57.141,0.001655
5393,0.55109,5.2727,0.1,0.00053333,5329.6,0.00054161,5798.8,-6.7137e-05,1224.9,-0.00023734,-53.902,0.0015554
5394,0.55109,5.4545,0.1,0.00052891,5285.4,0.00053681,5632.5,-9.8142e-05,861.72,-0.00021938,-49.25,0.0014217
5395,0.55109,5.6364,0.1,0.00053515,5347.8,0.00054004,5519.6,-0.0001396,413.06,-0.00019997,-40.533,0.0012394
5396,0.55109,5.8182,0.1,0.00055801,5576.2,0.00055618,5523.9,-0.00017891,0.80312,-0.00019284,-103.89,0.00098908
5397,0.73478,0.18182,0.1,0.00058398,5835.8,0.00058302,5808.4,-0.00018758,18.45,-0.00019964,-72.129,0.0019274
5398,0.73478,0.36364,0.1,0.00056053,5601.4,0.00056564,5766.1,-0.00015674,338.34,-0.00020101,5.7404,0.0022826
5399,0.73478,0.54545,0.1,0.00054821,5478.3,0.0005571,5804.4,-0.00012115,708.33,-0.000214,10.627,0.0025562
5400,0.73478,0.72727,0.1,0.00054355,5431.7,0.0005541,5884.1,-9.0766e-05,1038.8,-0.00022737,12.433,0.0027666
5401,0.73478,0.90909,0.1,0.00054496,5445.8,0.00055577,5990.8,-6.7159e-05,1310.4,-0.00023974,13.678,0.0029293
5402,0.73478,1.0909,0.1,0.0005502,5498.2,0.00056059,6109.6,-4.9781e-05,1523.5,-0.00025062,14.469,0.0030562
5403,0.73478,1.2727,0.1,0.00055729,5569,0.00056707,6228.7,-3.7304e-05,1687.7,-0.00025992,15.033,0.003156
5404,0.73478,1.4545,0.1,0.0005649,5645.1,0.0005741,6340.6,-2.8405e-05,1813.6,-0.00026773,15.445,0.0032351
5405,0.73478,1.6364,0.1,0.00057225,5718.6,0.00058096,6441.2,-2.2045e-05,1910.5,-0.00027422,15.76,0.003298
5406,0.73478,1.8182,0.1,0.00057892,5785.2,0.00058724,6528.7,-1.7475e-05,1985.1,-0.00027955,16.002,0.0033479
5407,0.73478,2,0.1,0.00058469,5842.9,0.00059272,6602.5,-1.4181e-05,2042.5,-0.00028386,16.19,0.0033873
5408,0.73478,2.1818,0.1,0.0005895,5891,0.00059732,6662.9,-1.1812e-05,2086.1,-0.00028728,16.334,0.003418
5409,0.73478,2.3636,0.1,0.00059333,5929.2,0.00060099,6710.3,-1.0132e-05,2118.6,-0.00028991,16.441,0.0034412
5410,0.73478,2.5455,0.1,0.00059617,5957.6,0.00060372,6745.2,-8.9862e-06,2141.6,-0.00029181,16.518,0.0034579
5411,0.73478,2.7273,0.1,0.00059805,5976.4,0.00060554,6768.3,-8.2719e-06,2156.3,-0.00029306,16.568,0.0034687
5412,0.73478,2.9091,0.1,0.00059899,5985.7,0.00060644,6779.7,-7.9289e-06,2163.5,-0.00029367,16.592,0.003474
5413,0.73478,3.0909,0.1,0.00059899,5985.7,0.00060644,6779.7,-7.9289e-06,2163.5,-0.00029367,16.592,0.003474
5414,0.73478,3.2727,0.1,0.00059805,5976.4,0.00060554,6768.3,-8.2719e-06,2156.3,-0.00029306,16.568,0.0034687
5415,0.73478,3.4545,0.1,0.00059617,5957.6,0.00060372,6745.2,-8.9862e-06,2141.6,-0.00029181,16.518,0.0034579
5416,0.73478,3.6364,0.1,0.00059333,5929.2,0.00060099,6710.3,-1.0132e-05,2118.6,-0.00028991,16.441,0.0034412
5417,0.73478,3.8182,0.1,0.0005895,5891,0.00059732,6662.9,-1.1812e-05,2086.1,-0.00028728,16.334,0.003418
5418,0.73478,4,0.1,0.00058469,5842.9,0.00059272,6602.5,-1.4181e-05,2042.5,-0.00028386,16.19,0.0033873
5419,0.73478,4.1818,0.1,0.00057892,5785.2,0.00058724,6528.7,-1.7475e-05,1985.1,-0.00027955,16.002,0.0033479
5420,0.73478,4.3636,0.1,0.00057225,5718.6,0.00058096,6441.2,-2.2045e-05,1910.5,-0.00027422,15.76,0.003298
5421,0.73478,4.5455,0.1,0.0005649,5645.1,0.0005741,6340.6,-2.8405e-05,1813.6,-0.00026773,15.445,0.0032351
5422,0.73478,4.7273,0.1,0.00055729,5569,0.00056707,6228.7,-3.7304e-05,1687.7,-0.00025992,15.033,0.003156
5423,0.73478,4.9091,0.1,0.0005502,5498.2,0.00056059,6109.6,-4.9781e-05,1523.5,-0.00025062,14.469,0.0030562
5424,0.73478,5.0909,0.1,0.00054496,5445.8,0.00055577,5990.8,-6.7159e-05,1310.4,-0.00023974,13.678,0.0029293
5425,0.73478,5.2727,0.1,0.00054355,5431.7,0.0005541,5884.1,-9.0766e-05,1038.8,-0.00022737,12.433,0.0027666
5426,0.73478,5.4545,0.1,0.00054821,5478.3,0.0005571,5804.4,-0.00012115,708.33,-0.000214,10.627,0.0025562
5427,0.73478,5.6364,0.1,0.00056053,5601.4,0.00056564,5766.1,-0.00015674,338.34,-0.00020101,5.7404,0.0022826
5428,0.73478,5.8182,0.1,0.00058398,5835.8,0.00058302,5808.4,-0.00018758,18.45,-0.00019964,-72.129,0.0019274
5429,0.91848,0.18182,0.1,0.0005985,5980.8,0.00059781,5961.2,-0.00019367,14.355,-0.00020263,-52.949,0.0032306
5430,0.91848,0.36364,0.1,0.00057746,5770.6,0.00058167,5905,-0.00016636,284.54,-0.00020489,-4.9324,0.0036856
5431,0.91848,0.54545,0.1,0.00056416,5637.7,0.00057177,5907.1,-0.00013592,589.81,-0.00021494,-3.9623,0.0040495
5432,0.91848,0.72727,0.1,0.00055588,5555,0.00056547,5939.2,-0.00010814,877.95,-0.00022552,-4.0225,0.0043392
5433,0.91848,0.90909,0.1,0.00055234,5519.6,0.00056268,5994.9,-8.4648e-05,1131.1,-0.00023572,-4.0192,0.00457
5434,0.91848,1.0909,0.1,0.00055255,5521.7,0.00056286,6066.3,-6.5866e-05,1342.3,-0.00024506,-4.0805,0.0047543
5435,0.91848,1.2727,0.1,0.00055526,5548.8,0.00056514,6145.5,-5.1365e-05,1513.4,-0.00025333,-4.1421,0.0049021
5436,0.91848,1.4545,0.1,0.00055935,5589.7,0.00056867,6225.7,-4.0385e-05,1649.5,-0.00026048,-4.2013,0.0050208
5437,0.91848,1.6364,0.1,0.000564,5636.1,0.00057277,6302.2,-3.2154e-05,1757,-0.00026656,-4.2508,0.0051163
5438,0.91848,1.8182,0.1,0.00056865,5682.6,0.00057694,6371.6,-2.6014e-05,1841.3,-0.00027164,-4.2906,0.0051928
5439,0.91848,2,0.1,0.00057295,5725.6,0.00058086,6432.4,-2.1458e-05,1906.8,-0.00027582,-4.3216,0.0052536
5440,0.91848,2.1818,0.1,0.0005767,5763,0.0005843,6483.4,-1.8109e-05,1957.1,-0.00027916,-4.3451,0.0053012
5441,0.91848,2.3636,0.1,0.00057978,5793.8,0.00058715,6524.3,-1.5695e-05,1994.7,-0.00028176,-4.3624,0.0053374
5442,0.91848,2.5455,0.1,0.00058212,5817.2,0.00058933,6554.9,-1.4028e-05,2021.5,-0.00028365,-4.3746,0.0053634
5443,0.91848,2.7273,0.1,0.00058369,5832.9,0.0005908,6575.2,-1.298e-05,2038.7,-0.00028489,-4.3824,0.0053803
5444,0.91848,2.9091,0.1,0.00058448,5840.8,0.00059154,6585.4,-1.2474e-05,2047.1,-0.00028551,-4.3862,0.0053886
5445,0.91848,3.0909,0.1,0.00058448,5840.8,0.00059154,6585.4,-1.2474e-05,2047.1,-0.00028551,-4.3862,0.0053886
5446,0.91848,3.2727,0.1,0.00058369,5832.9,0.0005908,6575.2,-1.298e-05,2038.7,-0.00028489,-4.3824,0.0053803
5447,0.91848,3.4545,0.1,0.00058212,5817.2,0.00058933,6554.9,-1.4028e-05,2021.5,-0.00028365,-4.3746,0.0053634
5448,0.91848,3.6364,0.1,0.00057978,5793.8,0.00058715,6524.3,-1.5695e-05,1994.7,-0.00028176,-4.3624,0.0053374
5449,0.91848,3.8182,0.1,0.0005767,5763,0.0005843,6483.4,-1.8109e-05,1957.1,-0.00027916,-4.3451,0.0053012
5450,0.91848,4,0.1,0.00057295,5725.6,0.00058086,6432.4,-2.1458e-05,1906.8,-0.00027582,-4.3215,0.0052536
5451,0.91848,4.1818,0.1,0.00056865,5682.6,0.00057694,6371.6,-2.6014e-05,1841.3,-0.00027164,-4.2906,0.0051928
5452,0.91848,4.3636,0.1,0.000564,5636.1,0.00057277,6302.2,-3.2154e-05,1757,-0.00026656,-4.2508,0.0051163
5453,0.91848,4.5455,0.1,0.00055935,5589.7,0.00056867,6225.7,-4.0385e-05,1649.5,-0.00026048,-4.2013,0.0050208
5454,0.91848,4.7273,0.1,0.00055526,5548.8,0.00056514,6145.5,-5.1365e-05,1513.4,-0.00025333,-4.1421,0.0049021
5455,0.91848,4.9091,0.1,0.00055255,5521.7,0.00056286,6066.3,-6.5866e-05,1342.3,-0.00024506,-4.0805,0.0047543
5456,0.91848,5.0909,0.1,0.00055234,5519.6,0.00056268,5994.9,-8.4648e-05,1131.1,-0.00023572,-4.0192,0.00457
5457,0.91848,5.2727,0.1,0.00055588,5555,0.00056547,5939.2,-0.00010814,877.95,-0.00022552,-4.0225,0.0043392
5458,0.91848,5.4545,0.1,0.00056416,5637.7,0.00057177,5907.1,-0.00013592,589.81,-0.00021494,-3.9623,0.0040495
5459,0.91848,5.6364,0.1,0.00057746,5770.6,0.00058167,5905,-0.00016636,284.54,-0.00020489,-4.9324,0.0036856
5460,0.91848,5.8182,0.1,0.0005985,5980.8,0.00059781,5961.2,-0.00019367,14.355,-0.00020263,-52.949,0.0032306
5461,1.1022,0.18182,0.1,0.0006054,6049.8,0.00060508,6040.7,-0.00019656,17.512,-0.0002036,-35.334,0.004914
5462,1.1022,0.36364,0.1,0.00058633,5859.3,0.00059021,5981.5,-0.000172,254.56,-0.0002061,-1.6962,0.0054619
5463,1.1022,0.54545,0.1,0.00057304,5726.5,0.00058005,5965.9,-0.00014562,513.55,-0.00021397,-0.040209,0.0059122
5464,1.1022,0.72727,0.1,0.00056321,5628.2,0.00057232,5971.7,-0.00012069,764.73,-0.00022243,0.30039,0.0062803
5465,1.1022,0.90909,0.1,0.00055691,5565.2,0.00056714,5996,-9.8464e-05,994.89,-0.0002308,0.56995,0.0065804
5466,1.1022,1.0909,0.1,0.0005538,5534.2,0.00056439,6034.8,-7.9638e-05,1195.9,-0.00023871,0.70671,0.006825
5467,1.1022,1.2727,0.1,0.0005532,5528.2,0.00056365,6083.5,-6.4269e-05,1365.6,-0.00024591,0.79247,0.0070243
5468,1.1022,1.4545,0.1,0.00055432,5539.4,0.00056439,6137.1,-5.2038e-05,1505.5,-0.0002523,0.84357,0.0071867
5469,1.1022,1.6364,0.1,0.00055648,5561,0.00056608,6191.5,-4.2469e-05,1619.1,-0.00025784,0.87684,0.0073187
5470,1.1022,1.8182,0.1,0.00055913,5587.5,0.00056826,6243.3,-3.5077e-05,1710.1,-0.00026255,0.89963,0.0074254
5471,1.1022,2,0.1,0.00056188,5614.9,0.00057059,6290.4,-2.9434e-05,1782,-0.00026648,0.91619,0.0075109
5472,1.1022,2.1818,0.1,0.00056445,5640.6,0.00057282,6331,-2.5191e-05,1837.8,-0.00026967,0.92857,0.0075781
5473,1.1022,2.3636,0.1,0.00056667,5662.8,0.00057476,6364.4,-2.208e-05,1879.9,-0.00027215,0.93783,0.0076294
5474,1.1022,2.5455,0.1,0.00056841,5680.2,0.00057631,6389.7,-1.9904e-05,1910,-0.00027399,0.94449,0.0076665
5475,1.1022,2.7273,0.1,0.0005696,5692.1,0.00057737,6406.8,-1.8524e-05,1929.4,-0.00027519,0.94882,0.0076906
5476,1.1022,2.9091,0.1,0.00057021,5698.2,0.00057791,6415.3,-1.7855e-05,1938.9,-0.00027579,0.95096,0.0077025
5477,1.1022,3.0909,0.1,0.00057021,5698.2,0.00057791,6415.3,-1.7855e-05,1938.9,-0.00027579,0.95096,0.0077025
5478,1.1022,3.2727,0.1,0.0005696,5692.1,0.00057737,6406.8,-1.8524e-05,1929.4,-0.00027519,0.94882,0.0076906
5479,1.1022,3.4545,0.1,0.00056841,5680.2,0.00057631,6389.7,-1.9904e-05,1910,-0.00027399,0.94449,0.0076665
5480,1.1022,3.6364,0.1,0.00056667,5662.8,0.00057476,6364.4,-2.208e-05,1879.9,-0.00027215,0.93783,0.0076294
5481,1.1022,3.8182,0.1,0.00056445,5640.6,0.00057282,6331,-2.5191e-05,1837.8,-0.00026967,0.92857,0.0075781
5482,1.1022,4,0.1,0.00056188,5614.9,0.00057059,6290.4,-2.9434e-05,1782,-0.00026648,0.91619,0.0075109
5483,1.1022,4.1818,0.1,0.00055913,5587.5,0.00056826,6243.3,-3.5077e-05,1710.1,-0.00026255,0.89963,0.0074254
5484,1.1022,4.3636,0.1,0.00055648,5561,0.00056608,6191.5,-4.2469e-05,1619.1,-0.00025784,0.87684,0.0073187
5485,1.1022,4.5455,0.1,0.00055432,5539.4,0.00056439,6137.1,-5.2038e-05,1505.5,-0.0002523,0.84357,0.0071867
5486,1.1022,4.7273,0.1,0.0005532,5528.2,0.00056365,6083.5,-6.4269e-05,1365.6,-0.00024591,0.79247,0.0070243
5487,1.1022,4.9091,0.1,0.0005538,5534.2,0.00056439,6034.8,-7.9638e-05,1195.9,-0.00023871,0.70671,0.006825
5488,1.1022,5.0909,0.1,0.00055691,5565.2,0.00056714,5996,-9.8464e-05,994.89,-0.0002308,0.56995,0.0065804
5489,1.1022,5.2727,0.1,0.00056321,5628.2,0.00057232,5971.7,-0.00012069,764.73,-0.00022243,0.30038,0.0062803
5490,1.1022,5.4545,0.1,0.00057304,5726.5,0.00058005,5965.9,-0.00014562,513.55,-0.00021397,-0.040209,0.0059122
5491,1.1022,5.6364,0.1,0.00058633,5859.3,0.00059021,5981.5,-0.000172,254.56,-0.0002061,-1.6962,0.0054619
5492,1.1022,5.8182,0.1,0.0006054,6049.8,0.00060508,6040.7,-0.00019656,17.512,-0.0002036,-35.334,0.004914
5493,1.2859,0.18182,0.1,0.0006078,6073.8,0.00060774,6072.4,-0.00019769,20.704,-0.00020353,-23.134,0.0069864
5494,1.2859,0.36364,0.1,0.00059063,5902.2,0.00059421,6014.2,-0.00017521,233.17,-0.00020652,-2.0863,0.0076203
5495,1.2859,0.54545,0.1,0.00057791,5775.1,0.00058431,5989.5,-0.00015204,456.87,-0.00021296,-0.86489,0.0081519
5496,1.2859,0.72727,0.1,0.00056764,5672.5,0.0005761,5980.2,-0.00012972,676.97,-0.00021991,-0.68872,0.0085953
5497,1.2859,0.90909,0.1,0.00055997,5595.8,0.00056973,5984.9,-0.00010915,884.11,-0.00022689,-0.52018,0.0089636
5498,1.2859,1.0909,0.1,0.00055486,5544.8,0.00056525,6001.9,-9.1015e-05,1071,-0.00023361,-0.4441,0.0092689
5499,1.2859,1.2727,0.1,0.00055199,5516.1,0.00056251,6028.3,-7.5581e-05,1233.9,-0.00023986,-0.39912,0.0095213
5500,1.2859,1.4545,0.1,0.00055087,5504.9,0.00056121,6061,-6.2798e-05,1372.5,-0.00024551,-0.37798,0.0097294
5501,1.2859,1.6364,0.1,0.00055099,5506.1,0.00056098,6096.8,-5.2433e-05,1487.9,-0.0002505,-0.36843,0.0099003
5502,1.2859,1.8182,0.1,0.00055188,5515,0.00056148,6132.9,-4.4174e-05,1582.3,-0.00025482,-0.36504,0.01004
5503,1.2859,2,0.1,0.00055319,5528,0.00056239,6167.1,-3.7702e-05,1658.3,-0.00025845,-0.36437,0.010152
5504,1.2859,2.1818,0.1,0.00055461,5542.3,0.00056347,6197.6,-3.2731e-05,1718,-0.00026143,-0.36476,0.010241
5505,1.2859,2.3636,0.1,0.00055596,5555.8,0.00056453,6223.2,-2.9025e-05,1763.5,-0.00026378,-0.3654,0.010309
5506,1.2859,2.5455,0.1,0.00055708,5566.9,0.00056543,6243,-2.6399e-05,1796.3,-0.00026552,-0.36598,0.010359
5507,1.2859,2.7273,0.1,0.00055787,5574.9,0.00056608,6256.5,-2.472e-05,1817.5,-0.00026666,-0.36638,0.010391
5508,1.2859,2.9091,0.1,0.00055828,5579,0.00056642,6263.4,-2.3901e-05,1827.9,-0.00026723,-0.36658,0.010407
5509,1.2859,3.0909,0.1,0.00055828,5579,0.00056642,6263.4,-2.3901e-05,1827.9,-0.00026723,-0.36658,0.010407
5510,1.2859,3.2727,0.1,0.00055787,5574.9,0.00056608,6256.5,-2.472e-05,1817.5,-0.00026666,-0.36638,0.010391
5511,1.2859,3.4545,0.1,0.00055708,5566.9,0.00056543,6243,-2.6399e-05,1796.3,-0.00026552,-0.36598,0.010359
5512,1.2859,3.6364,0.1,0.00055596,5555.8,0.00056453,6223.2,-2.9025e-05,1763.5,-0.00026378,-0.3654,0.010309
5513,1.2859,3.8182,0.1,0.00055461,5542.3,0.00056347,6197.6,-3.2731e-05,1718,-0.00026143,-0.36476,0.010241
5514,1.2859,4,0.1,0.00055319,5528,0.00056239,6167.1,-3.7702e-05,1658.3,-0.00025845,-0.36437,0.010152
5515,1.2859,4.1818,0.1,0.00055188,5515,0.00056148,6132.9,-4.4174e-05,1582.3,-0.00025482,-0.36504,0.01004
5516,1.2859,4.3636,0.1,0.00055099,5506.1,0.00056098,6096.8,-5.2433e-05,1487.9,-0.0002505,-0.36843,0.0099003
5517,1.2859,4.5455,0.1,0.00055087,5504.9,0.00056121,6061,-6.2798e-05,1372.5,-0.00024551,-0.37798,0.0097294
5518,1.2859,4.7273,0.1,0.00055199,5516.1,0.00056251,6028.3,-7.5581e-05,1233.9,-0.00023986,-0.39912,0.0095213
5519,1.2859,4.9091,0.1,0.00055486,5544.8,0.00056525,6001.9,-9.1015e-05,1071,-0.00023361,-0.4441,0.0092689
5520,1.2859,5.0909,0.1,0.00055997,5595.8,0.00056973,5984.9,-0.00010915,884.11,-0.00022689,-0.52018,0.0089636
5521,1.2859,5.2727,0.1,0.00056764,5672.5,0.0005761,5980.2,-0.00012972,676.97,-0.00021991,-0.68872,0.0085953
5522,1.2859,5.4545,0.1,0.00057791,5775.1,0.00058431,5989.5,-0.00015204,456.87,-0.00021296,-0.86489,0.0081519
5523,1.2859,5.6364,0.1,0.00059063,5902.2,0.00059421,6014.2,-0.00017521,233.17,-0.00020652,-2.0863,0.0076203
5524,1.2859,5.8182,0.1,0.0006078,6073.8,0.00060774,6072.4,-0.00019769,20.704,-0.00020353,-23.134,0.0069864
5525,1.4696,0.18182,0.1,0.00060718,6067.6,0.00060735,6072.8,-0.0001975,25.525,-0.00020287,-14.859,0.0094532
5526,1.4696,0.36364,0.1,0.00059166,5912.5,0.00059503,6017.4,-0.00017689,217.5,-0.00020606,-1.6542,0.010166
5527,1.4696,0.54545,0.1,0.00057966,5792.6,0.00058558,5988.1,-0.00015631,413.84,-0.00021146,-0.53772,0.010773
5528,1.4696,0.72727,0.1,0.00056944,5690.5,0.00057734,5970,-0.00013626,608.37,-0.00021727,-0.36593,0.011288
5529,1.4696,0.90909,0.1,0.00056117,5607.8,0.00057044,5962.6,-0.00011739,794.53,-0.00022316,-0.1993,0.011722
5530,1.4696,1.0909,0.1,0.00055492,5545.4,0.000565,5964.9,-0.00010028,966.27,-0.0002289,-0.11623,0.012087
5531,1.4696,1.2727,0.1,0.00055057,5501.9,0.000561,5975.6,-8.5269e-05,1119.8,-0.00023432,-0.062533,0.012392
5532,1.4696,1.4545,0.1,0.00054783,5474.5,0.00055827,5992.6,-7.2445e-05,1253.6,-0.00023929,-0.032887,0.012646
5533,1.4696,1.6364,0.1,0.00054636,5459.8,0.00055662,6013.6,-6.1737e-05,1367.5,-0.00024375,-0.016602,0.012857
5534,1.4696,1.8182,0.1,0.00054581,5454.3,0.00055577,6036.5,-5.2976e-05,1462.7,-0.00024764,-0.0084179,0.013031
5535,1.4696,2,0.1,0.00054586,5454.9,0.00055549,6059.4,-4.5951e-05,1540.4,-0.00025097,-0.0046123,0.013171
5536,1.4696,2.1818,0.1,0.00054626,5458.8,0.00055557,6080.7,-4.0452e-05,1602.4,-0.00025372,-0.0030887,0.013283
5537,1.4696,2.3636,0.1,0.00054679,5464.2,0.00055583,6099,-3.6286e-05,1650.1,-0.0002559,-0.0026437,0.013369
5538,1.4696,2.5455,0.1,0.00054732,5469.4,0.00055614,6113.6,-3.33e-05,1684.7,-0.00025752,-0.0026411,0.013432
5539,1.4696,2.7273,0.1,0.00054772,5473.4,0.0005564,6123.6,-3.1374e-05,1707.3,-0.0002586,-0.002758,0.013473
5540,1.4696,2.9091,0.1,0.00054794,5475.6,0.00055655,6128.7,-3.0431e-05,1718.4,-0.00025913,-0.0028452,0.013493
5541,1.4696,3.0909,0.1,0.00054794,5475.6,0.00055655,6128.7,-3.0431e-05,1718.4,-0.00025913,-0.0028453,0.013493
5542,1.4696,3.2727,0.1,0.00054772,5473.4,0.0005564,6123.6,-3.1374e-05,1707.3,-0.0002586,-0.002758,0.013473
5543,1.4696,3.4545,0.1,0.00054732,5469.4,0.00055614,6113.6,-3.33e-05,1684.7,-0.00025752,-0.0026411,0.013432
5544,1.4696,3.6364,0.1,0.00054679,5464.2,0.00055583,6099,-3.6286e-05,1650.1,-0.0002559,-0.0026437,0.013369
5545,1.4696,3.8182,0.1,0.00054626,5458.8,0.00055557,6080.7,-4.0452e-05,1602.4,-0.00025372,-0.0030887,0.013283
5546,1.4696,4,0.1,0.00054586,5454.9,0.00055549,6059.4,-4.5951e-05,1540.4,-0.00025097,-0.0046122,0.013171
5547,1.4696,4.1818,0.1,0.00054581,5454.3,0.00055577,6036.5,-5.2976e-05,1462.7,-0.00024764,-0.0084177,0.013031
5548,1.4696,4.3636,0.1,0.00054636,5459.8,0.00055662,6013.6,-6.1737e-05,1367.5,-0.00024375,-0.016602,0.012857
5549,1.4696,4.5455,0.1,0.00054783,5474.5,0.00055827,5992.6,-7.2445e-05,1253.6,-0.00023929,-0.032887,0.012646
5550,1.4696,4.7273,0.1,0.00055057,5501.9,0.000561,5975.6,-8.5269e-05,1119.8,-0.00023432,-0.062533,0.012392
5551,1.4696,4.9091,0.1,0.00055492,5545.4,0.000565,5964.9,-0.00010028,966.27,-0.0002289,-0.11623,0.012087
5552,1.4696,5.0909,0.1,0.00056117,5607.8,0.00057044,5962.6,-0.00011739,794.53,-0.00022316,-0.1993,0.011722
5553,1.4696,5.2727,0.1,0.00056944,5690.5,0.00057734,5970,-0.00013626,608.37,-0.00021727,-0.36593,0.011288
5554,1.4696,5.4545,0.1,0.00057966,5792.6,0.00058558,5988.1,-0.00015631,413.84,-0.00021146,-0.53772,0.010773
5555,1.4696,5.6364,0.1,0.00059166,5912.5,0.00059503,6017.4,-0.00017689,217.5,-0.00020606,-1.6542,0.010166
5556,1.4696,5.8182,0.1,0.00060718,6067.6,0.00060735,6072.8,-0.0001975,25.525,-0.00020287,-14.859,0.0094532
5557,1.6533,0.18182,0.1,0.00060455,6041.3,0.0006049,6051.8,-0.00019643,30.935,-0.00020185,-9.8091,0.012317
5558,1.6533,0.36364,0.1,0.00059048,5900.7,0.00059367,5999.7,-0.00017758,204.88,-0.00020504,-1.4889,0.013102
5559,1.6533,0.54545,0.1,0.00057923,5788.3,0.00058474,5968.3,-0.00015912,379.26,-0.00020967,-0.52495,0.013779
5560,1.6533,0.72727,0.1,0.00056933,5689.3,0.0005767,5945.2,-0.00014102,552.58,-0.00021461,-0.38938,0.01436
5561,1.6533,0.90909,0.1,0.00056089,5605.1,0.00056965,5930.2,-0.00012376,720.18,-0.00021964,-0.24672,0.014857
5562,1.6533,1.0909,0.1,0.00055406,5536.7,0.00056373,5922.9,-0.0001078,877.22,-0.00022458,-0.17405,0.015278
5563,1.6533,1.2727,0.1,0.00054879,5484.1,0.00055897,5922.5,-9.3479e-05,1020.2,-0.00022928,-0.12471,0.015635
5564,1.6533,1.4545,0.1,0.00054495,5445.8,0.00055532,5927.9,-8.095e-05,1147.2,-0.00023365,-0.096087,0.015936
5565,1.6533,1.6364,0.1,0.00054232,5419.5,0.00055265,5937.6,-7.0241e-05,1257.5,-0.00023761,-0.079688,0.016187
5566,1.6533,1.8182,0.1,0.00054064,5402.7,0.0005508,5950,-6.1286e-05,1351,-0.00024111,-0.071235,0.016394
5567,1.6533,2,0.1,0.00053968,5393,0.00054958,5963.5,-5.3963e-05,1428.7,-0.00024412,-0.067395,0.016564
5568,1.6533,2.1818,0.1,0.0005392,5388.3,0.00054885,5976.8,-4.8133e-05,1491.3,-0.00024662,-0.066103,0.016699
5569,1.6533,2.3636,0.1,0.00053902,5386.5,0.00054844,5988.8,-4.3656e-05,1540,-0.00024863,-0.066056,0.016804
5570,1.6533,2.5455,0.1,0.00053901,5386.4,0.00054823,5998.5,-4.0411e-05,1575.7,-0.00025013,-0.066485,0.01688
5571,1.6533,2.7273,0.1,0.00053906,5386.9,0.00054815,6005.3,-3.8302e-05,1599,-0.00025112,-0.066955,0.01693
5572,1.6533,2.9091,0.1,0.00053911,5387.3,0.00054812,6008.9,-3.7265e-05,1610.5,-0.00025162,-0.067237,0.016955
5573,1.6533,3.0909,0.1,0.00053911,5387.3,0.00054812,6008.9,-3.7265e-05,1610.5,-0.00025162,-0.067237,0.016955
5574,1.6533,3.2727,0.1,0.00053906,5386.9,0.00054815,6005.3,-3.8302e-05,1599,-0.00025112,-0.066955,0.01693
5575,1.6533,3.4545,0.1,0.00053901,5386.4,0.00054823,5998.5,-4.0411e-05,1575.7,-0.00025013,-0.066485,0.01688
5576,1.6533,3.6364,0.1,0.00053902,5386.5,0.00054844,5988.8,-4.3656e-05,1540,-0.00024863,-0.066056,0.016804
5577,1.6533,3.8182,0.1,0.0005392,5388.3,0.00054885,5976.8,-4.8133e-05,1491.3,-0.00024662,-0.066103,0.016699
5578,1.6533,4,0.1,0.00053968,5393,0.00054958,5963.5,-5.3963e-05,1428.7,-0.00024412,-0.067394,0.016564
5579,1.6533,4.1818,0.1,0.00054064,5402.7,0.0005508,5950,-6.1286e-05,1351,-0.00024111,-0.071235,0.016394
5580,1.6533,4.3636,0.1,0.00054232,5419.5,0.00055265,5937.6,-7.0241e-05,1257.5,-0.00023761,-0.079688,0.016187
5581,1.6533,4.5455,0.1,0.00054495,5445.8,0.00055532,5927.9,-8.095e-05,1147.2,-0.00023365,-0.096087,0.015936
5582,1.6533,4.7273,0.1,0.00054879,5484.1,0.00055897,5922.5,-9.3479e-05,1020.2,-0.00022928,-0.12471,0.015635
5583,1.6533,4.9091,0.1,0.00055406,5536.7,0.00056373,5922.9,-0.0001078,877.22,-0.00022458,-0.17405,0.015278
5584,1.6533,5.0909,0.1,0.00056089,5605.1,0.00056965,5930.2,-0.00012376,720.18,-0.00021964,-0.24672,0.014857
5585,1.6533,5.2727,0.1,0.00056933,5689.3,0.0005767,5945.2,-0.00014102,552.58,-0.00021461,-0.38938,0.01436
5586,1.6533,5.4545,0.1,0.00057923,5788.3,0.00058474,5968.3,-0.00015912,379.26,-0.00020967,-0.52495,0.013779
5587,1.6533,5.6364,0.1,0.00059048,5900.7,0.00059367,5999.7,-0.00017758,204.88,-0.00020504,-1.4889,0.013102
5588,1.6533,5.8182,0.1,0.00060455,6041.3,0.0006049,6051.8,-0.00019643,30.935,-0.00020185,-9.8091,0.012317
5589,1.837,0.18182,0.1,0.00060054,6001.2,0.00060103,6015.9,-0.00019481,36.229,-0.00020053,-6.741,0.015578
5590,1.837,0.36364,0.1,0.00058774,5873.4,0.00059078,5967.3,-0.00017759,194.13,-0.0002036,-1.3024,0.016429
5591,1.837,0.54545,0.1,0.00057723,5768.3,0.00058238,5935.3,-0.00016092,350.45,-0.00020762,-0.44918,0.017171
5592,1.837,0.72727,0.1,0.00056775,5673.6,0.00057465,5909.4,-0.0001445,505.97,-0.00021189,-0.33438,0.017814
5593,1.837,0.90909,0.1,0.00055941,5590.2,0.00056768,5889.7,-0.00012871,657.32,-0.00021622,-0.20703,0.018368
5594,1.837,1.0909,0.1,0.00055233,5519.5,0.00056157,5876,-0.00011392,800.66,-0.0002205,-0.1404,0.018844
5595,1.837,1.2727,0.1,0.00054656,5461.8,0.00055641,5868.1,-0.00010042,932.98,-0.0002246,-0.093027,0.019251
5596,1.837,1.4545,0.1,0.00054201,5416.4,0.00055218,5865.2,-8.8389e-05,1052.2,-0.00022844,-0.06376,0.019595
5597,1.837,1.6364,0.1,0.00053857,5382,0.00054883,5866.4,-7.7918e-05,1157.3,-0.00023195,-0.045695,0.019885
5598,1.837,1.8182,0.1,0.00053606,5356.9,0.00054626,5870.6,-6.9005e-05,1247.7,-0.00023507,-0.035404,0.020127
5599,1.837,2,0.1,0.0005343,5339.3,0.00054436,5876.6,-6.1598e-05,1323.7,-0.00023778,-0.029992,0.020326
5600,1.837,2.1818,0.1,0.00053312,5327.5,0.00054299,5883.4,-5.5615e-05,1385.7,-0.00024005,-0.02753,0.020485
5601,1.837,2.3636,0.1,0.00053236,5319.9,0.00054204,5890,-5.0966e-05,1434.4,-0.00024187,-0.026695,0.020608
5602,1.837,2.5455,0.1,0.0005319,5315.3,0.00054142,5895.6,-4.7564e-05,1470.2,-0.00024324,-0.026641,0.020699
5603,1.837,2.7273,0.1,0.00053164,5312.7,0.00054105,5899.7,-4.5338e-05,1493.8,-0.00024416,-0.026845,0.020758
5604,1.837,2.9091,0.1,0.00053153,5311.6,0.00054088,5901.9,-4.4238e-05,1505.5,-0.00024462,-0.027012,0.020787
5605,1.837,3.0909,0.1,0.00053153,5311.6,0.00054088,5901.9,-4.4238e-05,1505.5,-0.00024462,-0.027012,0.020787
5606,1.837,3.2727,0.1,0.00053164,5312.7,0.00054105,5899.7,-4.5338e-05,1493.8,-0.00024416,-0.026844,0.020758
5607,1.837,3.4545,0.1,0.0005319,5315.3,0.00054142,5895.6,-4.7564e-05,1470.2,-0.00024324,-0.026641,0.020699
5608,1.837,3.6364,0.1,0.00053236,5319.9,0.00054204,5890,-5.0966e-05,1434.4,-0.00024187,-0.026695,0.020608
5609,1.837,3.8182,0.1,0.00053312,5327.5,0.00054299,5883.4,-5.5615e-05,1385.7,-0.00024005,-0.02753,0.020485
5610,1.837,4,0.1,0.0005343,5339.3,0.00054436,5876.6,-6.1598e-05,1323.7,-0.00023778,-0.029992,0.020326
5611,1.837,4.1818,0.1,0.00053606,5356.9,0.00054626,5870.6,-6.9005e-05,1247.7,-0.00023507,-0.035404,0.020127
5612,1.837,4.3636,0.1,0.00053857,5382,0.00054883,5866.4,-7.7918e-05,1157.3,-0.00023195,-0.045695,0.019885
5613,1.837,4.5455,0.1,0.00054201,5416.4,0.00055218,5865.2,-8.8389e-05,1052.2,-0.00022844,-0.063759,0.019595
5614,1.837,4.7273,0.1,0.00054656,5461.8,0.00055641,5868.1,-0.00010042,932.98,-0.0002246,-0.093026,0.019251
5615,1.837,4.9091,0.1,0.00055233,5519.5,0.00056157,5876,-0.00011392,800.66,-0.0002205,-0.1404,0.018844
5616,1.837,5.0909,0.1,0.00055941,5590.2,0.00056768,5889.7,-0.00012871,657.32,-0.00021622,-0.20703,0.018368
5617,1.837,5.2727,0.1,0.00056775,5673.6,0.00057465,5909.4,-0.0001445,505.96,-0.00021189,-0.33438,0.017814
5618,1.837,5.4545,0.1,0.00057723,5768.3,0.00058238,5935.3,-0.00016092,350.45,-0.00020762,-0.44918,0.017171
5619,1.837,5.6364,0.1,0.00058774,5873.4,0.00059078,5967.3,-0.00017759,194.13,-0.0002036,-1.3024,0.016429
5620,1.837,5.8182,0.1,0.00060054,6001.2,0.00060103,6015.9,-0.00019481,36.229,-0.00020053,-6.741,0.015578
5621,2.0207,0.18182,0.1,0.00059557,5951.6,0.00059617,5969.5,-0.00019288,40.854,-0.00019896,-4.8394,0.019235
5622,2.0207,0.36364,0.1,0.0005839,5835,0.0005868,5924.4,-0.00017714,184.5,-0.00020185,-1.1569,0.020146
5623,2.0207,0.54545,0.1,0.00057409,5736.9,0.00057893,5892.6,-0.00016199,325.63,-0.00020538,-0.40118,0.020947
5624,2.0207,0.72727,0.1,0.00056509,5647,0.00057157,5865.4,-0.00014705,465.99,-0.00020911,-0.30543,0.021647
5625,2.0207,0.90909,0.1,0.00055699,5566,0.00056478,5842.9,-0.00013259,603.12,-0.00021289,-0.19278,0.022256
5626,2.0207,1.0909,0.1,0.0005499,5495.2,0.00055869,5825.2,-0.00011892,733.94,-0.00021661,-0.13299,0.022783
5627,2.0207,1.2727,0.1,0.00054388,5435.1,0.00055336,5812.2,-0.00010628,855.88,-0.00022021,-0.088869,0.023236
5628,2.0207,1.4545,0.1,0.00053892,5385.5,0.00054882,5803.5,-9.4876e-05,967.01,-0.00022359,-0.060265,0.023624
5629,2.0207,1.6364,0.1,0.00053495,5345.8,0.00054505,5798.5,-8.4801e-05,1066.1,-0.00022669,-0.041541,0.023952
5630,2.0207,1.8182,0.1,0.00053186,5314.9,0.000542,5796.5,-7.6102e-05,1152.3,-0.00022947,-0.030028,0.024226
5631,2.0207,2,0.1,0.00052951,5291.5,0.0005396,5796.7,-6.8777e-05,1225.6,-0.0002319,-0.023319,0.024453
5632,2.0207,2.1818,0.1,0.00052779,5274.3,0.00053777,5798.3,-6.2789e-05,1286,-0.00023395,-0.019726,0.024636
5633,2.0207,2.3636,0.1,0.00052657,5262.1,0.00053642,5800.6,-5.8088e-05,1333.7,-0.0002356,-0.018016,0.024778
5634,2.0207,2.5455,0.1,0.00052575,5253.9,0.00053548,5802.9,-5.462e-05,1369.1,-0.00023684,-0.017347,0.024882
5635,2.0207,2.7273,0.1,0.00052525,5248.8,0.00053488,5804.7,-5.2338e-05,1392.5,-0.00023767,-0.017168,0.024951
5636,2.0207,2.9091,0.1,0.00052501,5246.5,0.0005346,5805.6,-5.1206e-05,1404.1,-0.00023809,-0.017155,0.024985
5637,2.0207,3.0909,0.1,0.00052501,5246.5,0.0005346,5805.6,-5.1206e-05,1404.1,-0.00023809,-0.017155,0.024985
5638,2.0207,3.2727,0.1,0.00052525,5248.8,0.00053488,5804.7,-5.2338e-05,1392.5,-0.00023767,-0.017168,0.024951
5639,2.0207,3.4545,0.1,0.00052575,5253.9,0.00053548,5802.9,-5.462e-05,1369.1,-0.00023684,-0.017347,0.024882
5640,2.0207,3.6364,0.1,0.00052657,5262.1,0.00053642,5800.6,-5.8088e-05,1333.7,-0.0002356,-0.018015,0.024778
5641,2.0207,3.8182,0.1,0.00052779,5274.3,0.00053777,5798.3,-6.2789e-05,1286,-0.00023395,-0.019726,0.024636
5642,2.0207,4,0.1,0.00052951,5291.5,0.0005396,5796.7,-6.8777e-05,1225.6,-0.0002319,-0.023319,0.024453
5643,2.0207,4.1818,0.1,0.00053186,5314.9,0.000542,5796.5,-7.6102e-05,1152.3,-0.00022947,-0.030027,0.024226
5644,2.0207,4.3636,0.1,0.00053495,5345.8,0.00054505,5798.5,-8.4801e-05,1066.1,-0.00022669,-0.04154,0.023952
5645,2.0207,4.5455,0.1,0.00053892,5385.5,0.00054882,5803.5,-9.4876e-05,967.01,-0.00022359,-0.060265,0.023624
5646,2.0207,4.7273,0.1,0.00054388,5435.1,0.00055336,5812.2,-0.00010628,855.88,-0.00022021,-0.088869,0.023236
5647,2.0207,4.9091,0.1,0.0005499,5495.2,0.00055869,5825.2,-0.00011892,733.94,-0.00021661,-0.13299,0.022783
5648,2.0207,5.0909,0.1,0.00055699,5566,0.00056478,5842.9,-0.00013259,603.12,-0.00021289,-0.19278,0.022256
5649,2.0207,5.2727,0.1,0.00056509,5647,0.00057157,5865.4,-0.00014705,465.99,-0.00020911,-0.30542,0.021647
5650,2.0207,5.4545,0.1,0.00057409,5736.9,0.00057893,5892.6,-0.00016199,325.63,-0.00020538,-0.40118,0.020947
5651,2.0207,5.6364,0.1,0.0005839,5835,0.0005868,5924.4,-0.00017714,184.5,-0.00020185,-1.1569,0.020146
5652,2.0207,5.8182,0.1,0.00059557,5951.6,0.00059617,5969.5,-0.00019288,40.854,-0.00019896,-4.8394,0.019235
5653,2.2043,0.18182,0.1,0.00058995,5895.4,0.00059063,5915.7,-0.00019077,44.588,-0.00019719,-3.603,0.023288
5654,2.2043,0.36364,0.1,0.00057927,5788.7,0.00058204,5874,-0.00017637,175.58,-0.00019988,-1.0295,0.024253
5655,2.2043,0.54545,0.1,0.00057013,5697.3,0.00057468,5842.9,-0.00016255,303.69,-0.00020301,-0.35555,0.025108
5656,2.2043,0.72727,0.1,0.00056163,5612.4,0.00056771,5815.3,-0.0001489,430.97,-0.0002063,-0.27475,0.02586
5657,2.2043,0.90909,0.1,0.00055384,5534.6,0.00056119,5791.4,-0.00013564,555.58,-0.00020961,-0.17445,0.026519
5658,2.2043,1.0909,0.1,0.00054689,5465.1,0.00055523,5771.2,-0.00012303,675.04,-0.00021288,-0.12069,0.027094
5659,2.2043,1.2727,0.1,0.00054082,5404.4,0.00054989,5754.8,-0.00011126,787.18,-0.00021604,-0.079835,0.027591
5660,2.2043,1.4545,0.1,0.00053565,5352.8,0.00054521,5742.1,-0.00010053,890.24,-0.00021902,-0.052277,0.028018
5661,2.2043,1.6364,0.1,0.00053137,5310,0.00054122,5732.8,-9.0951e-05,982.93,-0.00022177,-0.033327,0.028383
5662,2.2043,1.8182,0.1,0.00052789,5275.3,0.00053788,5726.3,-8.2584e-05,1064.4,-0.00022425,-0.020914,0.028689
5663,2.2043,2,0.1,0.00052515,5247.8,0.00053516,5722.2,-7.5461e-05,1134.2,-0.00022642,-0.013071,0.028943
5664,2.2043,2.1818,0.1,0.00052304,5226.8,0.00053301,5719.9,-6.9583e-05,1192.2,-0.00022826,-0.0083723,0.029148
5665,2.2043,2.3636,0.1,0.00052147,5211.1,0.00053138,5718.7,-6.4929e-05,1238.3,-0.00022974,-0.0057241,0.029309
5666,2.2043,2.5455,0.1,0.00052037,5200.1,0.0005302,5718.4,-6.1473e-05,1272.7,-0.00023087,-0.004344,0.029427
5667,2.2043,2.7273,0.1,0.00051968,5193.2,0.00052944,5718.3,-5.9187e-05,1295.6,-0.00023162,-0.0036953,0.029504
5668,2.2043,2.9091,0.1,0.00051934,5189.8,0.00052907,5718.4,-5.805e-05,1307,-0.000232,-0.003449,0.029543
5669,2.2043,3.0909,0.1,0.00051934,5189.8,0.00052907,5718.4,-5.805e-05,1307,-0.000232,-0.003449,0.029543
5670,2.2043,3.2727,0.1,0.00051968,5193.2,0.00052944,5718.3,-5.9187e-05,1295.6,-0.00023162,-0.0036952,0.029504
5671,2.2043,3.4545,0.1,0.00052037,5200.1,0.0005302,5718.4,-6.1473e-05,1272.7,-0.00023087,-0.004344,0.029427
5672,2.2043,3.6364,0.1,0.00052147,5211.1,0.00053138,5718.7,-6.4929e-05,1238.3,-0.00022974,-0.005724,0.029309
5673,2.2043,3.8182,0.1,0.00052304,5226.8,0.00053301,5719.9,-6.9583e-05,1192.2,-0.00022826,-0.0083721,0.029148
5674,2.2043,4,0.1,0.00052515,5247.8,0.00053516,5722.2,-7.5461e-05,1134.2,-0.00022642,-0.013071,0.028943
5675,2.2043,4.1818,0.1,0.00052789,5275.3,0.00053788,5726.3,-8.2584e-05,1064.4,-0.00022425,-0.020914,0.028689
5676,2.2043,4.3636,0.1,0.00053137,5310,0.00054122,5732.8,-9.0951e-05,982.93,-0.00022177,-0.033326,0.028383
5677,2.2043,4.5455,0.1,0.00053565,5352.8,0.00054521,5742.1,-0.00010053,890.24,-0.00021902,-0.052277,0.028018
5678,2.2043,4.7273,0.1,0.00054082,5404.4,0.00054989,5754.8,-0.00011126,787.18,-0.00021604,-0.079834,0.027591
5679,2.2043,4.9091,0.1,0.00054689,5465.1,0.00055523,5771.2,-0.00012303,675.04,-0.00021288,-0.12069,0.027094
5680,2.2043,5.0909,0.1,0.00055384,5534.6,0.00056119,5791.4,-0.00013564,555.58,-0.00020961,-0.17445,0.026519
5681,2.2043,5.2727,0.1,0.00056163,5612.4,0.00056771,5815.3,-0.0001489,430.97,-0.0002063,-0.27475,0.02586
5682,2.2043,5.4545,0.1,0.00057013,5697.3,0.00057468,5842.9,-0.00016255,303.69,-0.00020301,-0.35555,0.025108
5683,2.2043,5.6364,0.1,0.00057927,5788.7,0.00058204,5874,-0.00017637,175.58,-0.00019988,-1.0295,0.024253
5684,2.2043,5.8182,0.1,0.00058995,5895.4,0.00059063,5915.7,-0.00019077,44.588,-0.00019719,-3.603,0.023288
5685,2.388,0.18182,0.1,0.00058387,5834.7,0.00058462,5856.8,-0.00018858,47.388,-0.00019525,-2.7632,0.027733
5686,2.388,0.36364,0.1,0.0005741,5737,0.00057674,5818.2,-0.00017538,167.09,-0.00019774,-0.92046,0.028747
5687,2.388,0.54545,0.1,0.00056557,5651.8,0.00056986,5788.2,-0.00016273,283.87,-0.00020055,-0.31694,0.029651
5688,2.388,0.72727,0.1,0.00055757,5571.9,0.00056329,5760.8,-0.00015023,399.75,-0.00020346,-0.24858,0.030451
5689,2.388,0.90909,0.1,0.00055015,5497.7,0.00055708,5736.3,-0.00013806,513.28,-0.00020639,-0.15904,0.031157
5690,2.388,1.0909,0.1,0.00054341,5430.4,0.00055132,5714.7,-0.00012642,622.47,-0.00020928,-0.1108,0.031775
5691,2.388,1.2727,0.1,0.00053742,5370.5,0.00054607,5696.3,-0.00011551,725.46,-0.00021207,-0.073246,0.032313
5692,2.388,1.4545,0.1,0.00053221,5318.4,0.00054139,5681,-0.00010547,820.71,-0.00021471,-0.047117,0.032778
5693,2.388,1.6364,0.1,0.00052777,5274.1,0.00053731,5668.7,-9.6435e-05,906.98,-0.00021715,-0.028424,0.033176
5694,2.388,1.8182,0.1,0.00052407,5237.1,0.00053383,5659.1,-8.8475e-05,983.36,-0.00021935,-0.015554,0.033513
5695,2.388,2,0.1,0.00052107,5207.1,0.00053093,5651.9,-8.1641e-05,1049.3,-0.00022129,-0.0069135,0.033793
5696,2.388,2.1818,0.1,0.0005187,5183.4,0.00052858,5646.6,-7.5957e-05,1104.3,-0.00022293,-0.0013267,0.03402
5697,2.388,2.3636,0.1,0.0005169,5165.4,0.00052676,5642.9,-7.1426e-05,1148.4,-0.00022427,0.0021388,0.034198
5698,2.388,2.5455,0.1,0.0005156,5152.4,0.00052543,5640.5,-6.8042e-05,1181.4,-0.00022528,0.0041769,0.034329
5699,2.388,2.7273,0.1,0.00051476,5144.1,0.00052456,5639.1,-6.5795e-05,1203.4,-0.00022596,0.0052791,0.034415
5700,2.388,2.9091,0.1,0.00051435,5140,0.00052413,5638.5,-6.4674e-05,1214.4,-0.0002263,0.0057553,0.034458
5701,2.388,3.0909,0.1,0.00051435,5140,0.00052413,5638.5,-6.4674e-05,1214.4,-0.0002263,0.0057553,0.034458
5702,2.388,3.2727,0.1,0.00051476,5144.1,0.00052456,5639.1,-6.5795e-05,1203.4,-0.00022596,0.0052791,0.034415
5703,2.388,3.4545,0.1,0.0005156,5152.4,0.00052543,5640.5,-6.8042e-05,1181.4,-0.00022528,0.004177,0.034329
5704,2.388,3.6364,0.1,0.0005169,5165.4,0.00052676,5642.9,-7.1426e-05,1148.4,-0.00022427,0.002139,0.034198
5705,2.388,3.8182,0.1,0.0005187,5183.4,0.00052858,5646.6,-7.5957e-05,1104.3,-0.00022293,-0.0013265,0.03402
5706,2.388,4,0.1,0.00052107,5207.1,0.00053093,5651.9,-8.1641e-05,1049.3,-0.00022129,-0.0069131,0.033793
5707,2.388,4.1818,0.1,0.00052407,5237.1,0.00053383,5659.1,-8.8475e-05,983.36,-0.00021935,-0.015554,0.033513
5708,2.388,4.3636,0.1,0.00052777,5274.1,0.00053731,5668.7,-9.6435e-05,906.97,-0.00021715,-0.028424,0.033176
5709,2.388,4.5455,0.1,0.00053221,5318.4,0.00054139,5681,-0.00010547,820.71,-0.00021471,-0.047117,0.032778
5710,2.388,4.7273,0.1,0.00053742,5370.5,0.00054607,5696.3,-0.00011551,725.46,-0.00021207,-0.073246,0.032313
5711,2.388,4.9091,0.1,0.00054341,5430.4,0.00055132,5714.7,-0.00012642,622.47,-0.00020928,-0.1108,0.031775
5712,2.388,5.0909,0.1,0.00055015,5497.7,0.00055708,5736.3,-0.00013806,513.28,-0.00020639,-0.15904,0.031157
5713,2.388,5.2727,0.1,0.00055757,5571.9,0.00056329,5760.8,-0.00015023,399.75,-0.00020346,-0.24858,0.030451
5714,2.388,5.4545,0.1,0.00056557,5651.8,0.00056986,5788.2,-0.00016273,283.87,-0.00020055,-0.31694,0.029651
5715,2.388,5.6364,0.1,0.0005741,5737,0.00057674,5818.2,-0.00017538,167.09,-0.00019774,-0.92046,0.028747
5716,2.388,5.8182,0.1,0.00058387,5834.7,0.00058462,5856.8,-0.00018858,47.387,-0.00019525,-2.7632,0.027733
5717,2.5717,0.18182,0.1,0.0005775,5771,0.00057829,5794.4,-0.00018634,49.302,-0.00019319,-2.1695,0.032567
5718,2.5717,0.36364,0.1,0.00056853,5681.4,0.00057105,5758.8,-0.00017424,158.91,-0.0001955,-0.82565,0.033626
5719,2.5717,0.54545,0.1,0.00056059,5602,0.00056463,5730,-0.00016262,265.7,-0.00019802,-0.28291,0.034574
5720,2.5717,0.72727,0.1,0.00055308,5526.9,0.00055845,5703.2,-0.00015115,371.5,-0.00020063,-0.22477,0.035418
5721,2.5717,0.90909,0.1,0.00054605,5456.7,0.00055257,5678.7,-0.00013997,475.17,-0.00020323,-0.14456,0.036166
5722,2.5717,1.0909,0.1,0.00053958,5392.1,0.00054706,5656.5,-0.00012925,575.06,-0.0002058,-0.10123,0.036824
5723,2.5717,1.2727,0.1,0.00053375,5333.9,0.00054198,5637,-0.00011914,669.61,-0.00020827,-0.066838,0.0374
5724,2.5717,1.4545,0.1,0.0005286,5282.3,0.00053739,5620.1,-0.00010979,757.44,-0.00021061,-0.042313,0.0379
5725,2.5717,1.6364,0.1,0.00052413,5237.7,0.00053332,5605.9,-0.00010132,837.4,-0.00021278,-0.024201,0.03833
5726,2.5717,1.8182,0.1,0.00052034,5199.8,0.0005298,5594.2,-9.3813e-05,908.59,-0.00021474,-0.01123,0.038695
5727,2.5717,2,0.1,0.00051719,5168.4,0.00052682,5584.8,-8.7322e-05,970.35,-0.00021647,-0.0021079,0.038999
5728,2.5717,2.1818,0.1,0.00051467,5143.1,0.00052437,5577.5,-8.189e-05,1022.2,-0.00021794,0.004121,0.039247
5729,2.5717,2.3636,0.1,0.00051271,5123.5,0.00052245,5572,-7.7536e-05,1063.9,-0.00021914,0.0082334,0.039442
5730,2.5717,2.5455,0.1,0.00051128,5109.3,0.00052103,5568.1,-7.4269e-05,1095.3,-0.00022004,0.010821,0.039585
5731,2.5717,2.7273,0.1,0.00051035,5100,0.00052009,5565.7,-7.2093e-05,1116.2,-0.00022065,0.012317,0.03968
5732,2.5717,2.9091,0.1,0.00050989,5095.4,0.00051962,5564.5,-7.1005e-05,1126.7,-0.00022096,0.012996,0.039727
5733,2.5717,3.0909,0.1,0.00050989,5095.4,0.00051962,5564.5,-7.1005e-05,1126.7,-0.00022096,0.012996,0.039727
5734,2.5717,3.2727,0.1,0.00051035,5100,0.00052009,5565.7,-7.2093e-05,1116.2,-0.00022065,0.012317,0.03968
5735,2.5717,3.4545,0.1,0.00051128,5109.3,0.00052103,5568.1,-7.4269e-05,1095.3,-0.00022004,0.010821,0.039585
5736,2.5717,3.6364,0.1,0.00051271,5123.5,0.00052245,5572,-7.7536e-05,1063.9,-0.00021914,0.0082336,0.039442
5737,2.5717,3.8182,0.1,0.00051467,5143.1,0.00052437,5577.5,-8.189e-05,1022.2,-0.00021794,0.0041212,0.039247
5738,2.5717,4,0.1,0.00051719,5168.4,0.00052682,5584.8,-8.7322e-05,970.35,-0.00021647,-0.0021077,0.038999
5739,2.5717,4.1818,0.1,0.00052034,5199.8,0.0005298,5594.2,-9.3813e-05,908.59,-0.00021474,-0.01123,0.038695
5740,2.5717,4.3636,0.1,0.00052413,5237.7,0.00053332,5605.9,-0.00010132,837.4,-0.00021278,-0.024201,0.03833
5741,2.5717,4.5455,0.1,0.0005286,5282.3,0.00053739,5620.1,-0.00010979,757.44,-0.00021061,-0.042312,0.0379
5742,2.5717,4.7273,0.1,0.00053375,5333.9,0.00054198,5637,-0.00011914,669.61,-0.00020827,-0.066838,0.0374
5743,2.5717,4.9091,0.1,0.00053958,5392.1,0.00054706,5656.5,-0.00012925,575.06,-0.0002058,-0.10123,0.036824
5744,2.5717,5.0909,0.1,0.00054605,5456.7,0.00055257,5678.7,-0.00013997,475.17,-0.00020323,-0.14456,0.036166
5745,2.5717,5.2727,0.1,0.00055308,5526.9,0.00055845,5703.2,-0.00015115,371.5,-0.00020063,-0.22477,0.035418
5746,2.5717,5.4545,0.1,0.00056059,5602,0.00056463,5730,-0.00016262,265.7,-0.00019802,-0.28291,0.034574
5747,2.5717,5.6364,0.1,0.00056853,5681.4,0.00057105,5758.8,-0.00017424,158.91,-0.0001955,-0.82565,0.033626
5748,2.5717,5.8182,0.1,0.0005775,5771,0.00057829,5794.4,-0.00018634,49.302,-0.00019319,-2.1695,0.032567
5749,2.7554,0.18182,0.1,0.00057095,5705.5,0.00057176,5729.7,-0.00018411,50.417,-0.00019105,-1.736,0.037788
5750,2.7554,0.36364,0.1,0.0005627,5623.1,0.0005651,5696.7,-0.00017299,150.94,-0.00019318,-0.74282,0.038887
5751,2.7554,0.54545,0.1,0.0005553,5549.2,0.00055911,5669.3,-0.00016231,248.84,-0.00019546,-0.25309,0.039875
5752,2.7554,0.72727,0.1,0.00054826,5478.9,0.00055332,5643.4,-0.00015176,345.66,-0.0001978,-0.20346,0.040758
5753,2.7554,0.90909,0.1,0.00054163,5412.6,0.00054777,5619.3,-0.00014148,440.51,-0.00020012,-0.13138,0.041544
5754,2.7554,1.0909,0.1,0.00053548,5351.1,0.00054254,5597.1,-0.0001316,531.98,-0.00020241,-0.092417,0.042239
5755,2.7554,1.2727,0.1,0.00052987,5295,0.00053767,5577.2,-0.00012225,618.75,-0.00020461,-0.060997,0.04285
5756,2.7554,1.4545,0.1,0.00052484,5244.8,0.00053323,5559.5,-0.00011358,699.61,-0.0002067,-0.03815,0.043383
5757,2.7554,1.6364,0.1,0.00052043,5200.7,0.00052925,5544.1,-0.00010568,773.5,-0.00020863,-0.020844,0.043842
5758,2.7554,1.8182,0.1,0.00051663,5162.7,0.00052576,5531.1,-9.8636e-05,839.57,-0.00021038,-0.0080586,0.044233
5759,2.7554,2,0.1,0.00051344,5130.9,0.00052278,5520.3,-9.252e-05,897.13,-0.00021192,0.0012622,0.044561
5760,2.7554,2.1818,0.1,0.00051084,5104.8,0.00052031,5511.6,-8.7375e-05,945.67,-0.00021323,0.0078889,0.044828
5761,2.7554,2.3636,0.1,0.0005088,5084.5,0.00051834,5504.8,-8.3235e-05,984.83,-0.00021431,0.012457,0.045038
5762,2.7554,2.5455,0.1,0.0005073,5069.5,0.00051688,5500,-8.0117e-05,1014.4,-0.00021512,0.015459,0.045193
5763,2.7554,2.7273,0.1,0.00050631,5059.6,0.00051591,5496.8,-7.8035e-05,1034.1,-0.00021567,0.017263,0.045295
5764,2.7554,2.9091,0.1,0.00050582,5054.7,0.00051542,5495.2,-7.6992e-05,1044,-0.00021594,0.018105,0.045346
5765,2.7554,3.0909,0.1,0.00050582,5054.7,0.00051542,5495.2,-7.6992e-05,1044,-0.00021594,0.018105,0.045346
5766,2.7554,3.2727,0.1,0.00050631,5059.6,0.00051591,5496.8,-7.8035e-05,1034.1,-0.00021567,0.017263,0.045295
5767,2.7554,3.4545,0.1,0.0005073,5069.5,0.00051688,5500,-8.0117e-05,1014.4,-0.00021512,0.015459,0.045193
5768,2.7554,3.6364,0.1,0.0005088,5084.5,0.00051834,5504.8,-8.3235e-05,984.83,-0.00021431,0.012457,0.045038
5769,2.7554,3.8182,0.1,0.00051084,5104.8,0.00052031,5511.6,-8.7375e-05,945.67,-0.00021323,0.0078891,0.044828
5770,2.7554,4,0.1,0.00051344,5130.9,0.00052278,5520.3,-9.252e-05,897.13,-0.00021192,0.0012626,0.044561
5771,2.7554,4.1818,0.1,0.00051663,5162.7,0.00052576,5531.1,-9.8636e-05,839.57,-0.00021038,-0.0080584,0.044233
5772,2.7554,4.3636,0.1,0.00052043,5200.7,0.00052925,5544.1,-0.00010568,773.5,-0.00020863,-0.020844,0.043842
5773,2.7554,4.5455,0.1,0.00052484,5244.8,0.00053323,5559.5,-0.00011358,699.61,-0.0002067,-0.03815,0.043383
5774,2.7554,4.7273,0.1,0.00052987,5295,0.00053767,5577.2,-0.00012225,618.75,-0.00020461,-0.060996,0.04285
5775,2.7554,4.9091,0.1,0.00053548,5351.1,0.00054254,5597.1,-0.0001316,531.98,-0.00020241,-0.092417,0.042239
5776,2.7554,5.0909,0.1,0.00054163,5412.6,0.00054777,5619.3,-0.00014148,440.51,-0.00020012,-0.13138,0.041544
5777,2.7554,5.2727,0.1,0.00054826,5478.9,0.00055332,5643.4,-0.00015176,345.66,-0.0001978,-0.20346,0.040758
5778,2.7554,5.4545,0.1,0.0005553,5549.2,0.00055911,5669.3,-0.00016231,248.84,-0.00019546,-0.25309,0.039875
5779,2.7554,5.6364,0.1,0.0005627,5623.1,0.0005651,5696.7,-0.00017299,150.94,-0.00019318,-0.74282,0.038887
5780,2.7554,5.8182,0.1,0.00057095,5705.5,0.00057176,5729.7,-0.00018411,50.417,-0.00019105,-1.736,0.037788
5781,2.9391,0.18182,0.1,0.00056428,5638.9,0.0005651,5663.4,-0.00018189,50.83,-0.00018884,-1.4108,0.043391
5782,2.9391,0.36364,0.1,0.0005567,5563.1,0.00055898,5633,-0.00017167,143.14,-0.00019081,-0.67,0.044526
5783,2.9391,0.54545,0.1,0.0005498,5494.3,0.00055339,5607,-0.00016183,233.05,-0.00019288,-0.2268,0.045549
5784,2.9391,0.72727,0.1,0.00054322,5428.5,0.00054798,5582.1,-0.00015213,321.83,-0.00019498,-0.18427,0.046468
5785,2.9391,0.90909,0.1,0.00053698,5366.1,0.00054276,5558.7,-0.00014266,408.72,-0.00019707,-0.11932,0.047289
5786,2.9391,1.0909,0.1,0.00053116,5307.9,0.00053781,5536.9,-0.00013355,492.55,-0.00019912,-0.084232,0.048018
5787,2.9391,1.2727,0.1,0.0005258,5254.4,0.00053319,5517,-0.00012493,572.18,-0.00020109,-0.055562,0.048661
5788,2.9391,1.4545,0.1,0.00052096,5206,0.00052893,5499,-0.00011689,646.55,-0.00020295,-0.034392,0.049223
5789,2.9391,1.6364,0.1,0.00051666,5163,0.00052509,5483.1,-0.00010955,714.69,-0.00020467,-0.018026,0.049709
5790,2.9391,1.8182,0.1,0.00051293,5125.7,0.0005217,5469.4,-0.00010298,775.8,-0.00020623,-0.0056336,0.050125
5791,2.9391,2,0.1,0.00050975,5094,0.00051877,5457.8,-9.7253e-05,829.21,-0.00020761,0.0036576,0.050473
5792,2.9391,2.1818,0.1,0.00050714,5067.9,0.00051632,5448.2,-9.2417e-05,874.39,-0.00020879,0.010468,0.050758
5793,2.9391,2.3636,0.1,0.00050508,5047.3,0.00051437,5440.7,-8.8512e-05,910.94,-0.00020975,0.015312,0.050983
5794,2.9391,2.5455,0.1,0.00050355,5032,0.0005129,5435.2,-8.5564e-05,938.57,-0.00021048,0.018593,0.051149
5795,2.9391,2.7273,0.1,0.00050253,5021.9,0.00051192,5431.5,-8.359e-05,957.1,-0.00021097,0.020615,0.051259
5796,2.9391,2.9091,0.1,0.00050203,5016.8,0.00051144,5429.7,-8.26e-05,966.39,-0.00021122,0.021576,0.051314
5797,2.9391,3.0909,0.1,0.00050203,5016.8,0.00051144,5429.7,-8.26e-05,966.39,-0.00021122,0.021576,0.051314
5798,2.9391,3.2727,0.1,0.00050253,5021.9,0.00051192,5431.5,-8.359e-05,957.1,-0.00021097,0.020615,0.051259
5799,2.9391,3.4545,0.1,0.00050355,5032,0.0005129,5435.2,-8.5564e-05,938.57,-0.00021048,0.018593,0.051149
5800,2.9391,3.6364,0.1,0.00050508,5047.3,0.00051437,5440.7,-8.8512e-05,910.94,-0.00020975,0.015312,0.050983
5801,2.9391,3.8182,0.1,0.00050714,5067.9,0.00051632,5448.2,-9.2417e-05,874.39,-0.00020879,0.010468,0.050758
5802,2.9391,4,0.1,0.00050975,5094,0.00051877,5457.8,-9.7253e-05,829.21,-0.00020761,0.0036579,0.050473
5803,2.9391,4.1818,0.1,0.00051293,5125.7,0.0005217,5469.4,-0.00010298,775.8,-0.00020623,-0.0056332,0.050125
5804,2.9391,4.3636,0.1,0.00051666,5163,0.00052509,5483.1,-0.00010955,714.69,-0.00020467,-0.018026,0.049709
5805,2.9391,4.5455,0.1,0.00052096,5206,0.00052893,5499,-0.00011689,646.54,-0.00020295,-0.034392,0.049223
5806,2.9391,4.7273,0.1,0.0005258,5254.4,0.00053319,5517,-0.00012493,572.18,-0.00020109,-0.055562,0.048661
5807,2.9391,4.9091,0.1,0.00053116,5307.9,0.00053781,5536.9,-0.00013355,492.55,-0.00019912,-0.084232,0.048018
5808,2.9391,5.0909,0.1,0.00053698,5366.1,0.00054276,5558.7,-0.00014266,408.72,-0.00019707,-0.11932,0.047289
5809,2.9391,5.2727,0.1,0.00054322,5428.5,0.00054798,5582.1,-0.00015213,321.83,-0.00019498,-0.18427,0.046468
5810,2.9391,5.4545,0.1,0.0005498,5494.3,0.00055339,5607,-0.00016183,233.05,-0.00019288,-0.2268,0.045549
5811,2.9391,5.6364,0.1,0.0005567,5563.1,0.00055898,5633,-0.00017167,143.14,-0.00019081,-0.66999,0.044526
5812,2.9391,5.8182,0.1,0.00056428,5638.9,0.0005651,5663.4,-0.00018189,50.83,-0.00018884,-1.4108,0.043391
5813,3.1228,0.18182,0.1,0.00055756,5571.8,0.00055838,5596.3,-0.0001797,50.641,-0.00018659,-1.1614,0.049373
5814,3.1228,0.36364,0.1,0.00055058,5502,0.00055275,5568.2,-0.0001703,135.5,-0.00018841,-0.60563,0.05054
5815,3.1228,0.54545,0.1,0.00054417,5437.9,0.00054754,5543.6,-0.00016122,218.19,-0.00019029,-0.20357,0.051595
5816,3.1228,0.72727,0.1,0.00053802,5376.5,0.00054248,5519.9,-0.00015229,299.7,-0.0001922,-0.167,0.052546
5817,3.1228,0.90909,0.1,0.00053216,5318,0.0005376,5497.4,-0.00014357,379.4,-0.00019408,-0.10834,0.053398
5818,3.1228,1.0909,0.1,0.00052667,5263.1,0.00053294,5476.3,-0.00013518,456.29,-0.00019592,-0.07669,0.054158
5819,3.1228,1.2727,0.1,0.00052159,5212.3,0.00052857,5456.7,-0.00012722,529.37,-0.00019768,-0.050546,0.054829
5820,3.1228,1.4545,0.1,0.00051696,5166,0.00052453,5438.9,-0.00011979,597.7,-0.00019935,-0.031004,0.055418
5821,3.1228,1.6364,0.1,0.00051282,5124.7,0.00052086,5422.9,-0.00011299,660.44,-0.00020089,-0.015649,0.05593
5822,3.1228,1.8182,0.1,0.0005092,5088.5,0.00051759,5408.9,-0.00010688,716.83,-0.00020229,-0.0037917,0.056367
5823,3.1228,2,0.1,0.0005061,5057.5,0.00051476,5396.9,-0.00010155,766.22,-0.00020352,0.0052953,0.056736
5824,3.1228,2.1818,0.1,0.00050353,5031.8,0.00051238,5386.9,-9.7026e-05,808.1,-0.00020458,0.012114,0.057037
5825,3.1228,2.3636,0.1,0.00050148,5011.3,0.00051046,5379,-9.3367e-05,842.05,-0.00020544,0.01708,0.057275
5826,3.1228,2.5455,0.1,0.00049995,4996,0.00050902,5373.1,-9.0598e-05,867.77,-0.00020609,0.020517,0.057452
5827,3.1228,2.7273,0.1,0.00049893,4985.9,0.00050806,5369.2,-8.8741e-05,885.03,-0.00020653,0.022673,0.057568
5828,3.1228,2.9091,0.1,0.00049843,4980.9,0.00050758,5367.2,-8.781e-05,893.7,-0.00020675,0.023711,0.057627
5829,3.1228,3.0909,0.1,0.00049843,4980.9,0.00050758,5367.2,-8.781e-05,893.7,-0.00020675,0.023711,0.057627
5830,3.1228,3.2727,0.1,0.00049893,4985.9,0.00050806,5369.2,-8.8741e-05,885.03,-0.00020653,0.022673,0.057568
5831,3.1228,3.4545,0.1,0.00049995,4996,0.00050902,5373.1,-9.0598e-05,867.77,-0.00020609,0.020517,0.057452
5832,3.1228,3.6364,0.1,0.00050148,5011.3,0.00051046,5379,-9.3367e-05,842.05,-0.00020544,0.01708,0.057275
5833,3.1228,3.8182,0.1,0.00050353,5031.8,0.00051238,5386.9,-9.7026e-05,808.1,-0.00020458,0.012114,0.057037
5834,3.1228,4,0.1,0.0005061,5057.5,0.00051476,5396.9,-0.00010155,766.22,-0.00020352,0.0052956,0.056736
5835,3.1228,4.1818,0.1,0.0005092,5088.5,0.00051759,5408.9,-0.00010688,716.83,-0.00020229,-0.0037913,0.056367
5836,3.1228,4.3636,0.1,0.00051282,5124.7,0.00052086,5422.9,-0.00011299,660.44,-0.00020089,-0.015649,0.05593
5837,3.1228,4.5455,0.1,0.00051696,5166,0.00052453,5438.9,-0.00011979,597.7,-0.00019935,-0.031004,0.055418
5838,3.1228,4.7273,0.1,0.00052159,5212.3,0.00052857,5456.7,-0.00012722,529.37,-0.00019768,-0.050545,0.054829
5839,3.1228,4.9091,0.1,0.00052667,5263.1,0.00053294,5476.3,-0.00013518,456.29,-0.00019592,-0.076689,0.054158
5840,3.1228,5.0909,0.1,0.00053216,5318,0.0005376,5497.4,-0.00014357,379.4,-0.00019408,-0.10834,0.053398
5841,3.1228,5.2727,0.1,0.00053802,5376.5,0.00054248,5519.9,-0.00015229,299.7,-0.0001922,-0.16699,0.052546
5842,3.1228,5.4545,0.1,0.00054417,5437.9,0.00054754,5543.6,-0.00016122,218.19,-0.00019029,-0.20357,0.051595
5843,3.1228,5.6364,0.1,0.00055058,5502,0.00055275,5568.2,-0.0001703,135.5,-0.00018841,-0.60562,0.05054
5844,3.1228,5.8182,0.1,0.00055756,5571.8,0.00055838,5596.3,-0.0001797,50.641,-0.00018659,-1.1614,0.049373
5845,3.3065,0.18182,0.1,0.00055083,5504.5,0.00055165,5528.8,-0.00017755,49.943,-0.00018432,-0.96661,0.05573
5846,3.3065,0.36364,0.1,0.0005444,5440.2,0.00054645,5502.8,-0.00016889,128.02,-0.000186,-0.54845,0.056924
5847,3.3065,0.54545,0.1,0.00053843,5380.6,0.00054161,5479.7,-0.00016052,204.15,-0.00018771,-0.18297,0.058008
5848,3.3065,0.72727,0.1,0.0005327,5323.3,0.00053689,5457.3,-0.00015228,279.07,-0.00018944,-0.15143,0.058988
5849,3.3065,0.90909,0.1,0.00052722,5268.5,0.00053232,5435.8,-0.00014425,352.24,-0.00019115,-0.098349,0.059868
5850,3.3065,1.0909,0.1,0.00052206,5217,0.00052796,5415.4,-0.00013652,422.8,-0.0001928,-0.069759,0.060655
5851,3.3065,1.2727,0.1,0.00051726,5169,0.00052384,5396.5,-0.00012918,489.87,-0.00019439,-0.045925,0.061353
5852,3.3065,1.4545,0.1,0.00051287,5125.1,0.00052003,5379,-0.00012233,552.64,-0.00019588,-0.027937,0.061966
5853,3.3065,1.6364,0.1,0.00050892,5085.7,0.00051654,5363.3,-0.00011603,610.33,-0.00019727,-0.013617,0.0625
5854,3.3065,1.8182,0.1,0.00050544,5050.9,0.00051343,5349.3,-0.00011038,662.26,-0.00019852,-0.0023849,0.062958
5855,3.3065,2,0.1,0.00050244,5020.9,0.00051072,5337.3,-0.00010542,707.83,-0.00019963,0.0063729,0.063344
5856,3.3065,2.1818,0.1,0.00049994,4996,0.00050844,5327.2,-0.00010122,746.53,-0.00020057,0.013065,0.063661
5857,3.3065,2.3636,0.1,0.00049794,4976,0.00050659,5319.1,-9.7805e-05,777.95,-0.00020134,0.018027,0.063912
5858,3.3065,2.5455,0.1,0.00049644,4961,0.0005052,5313.1,-9.522e-05,801.78,-0.00020193,0.021518,0.064097
5859,3.3065,2.7273,0.1,0.00049544,4951,0.00050426,5309,-9.3484e-05,817.79,-0.00020232,0.023736,0.06422
5860,3.3065,2.9091,0.1,0.00049495,4946,0.00050379,5307,-9.2612e-05,825.83,-0.00020252,0.024813,0.064282
5861,3.3065,3.0909,0.1,0.00049495,4946,0.00050379,5307,-9.2612e-05,825.83,-0.00020252,0.024813,0.064282
5862,3.3065,3.2727,0.1,0.00049544,4951,0.00050426,5309,-9.3484e-05,817.79,-0.00020232,0.023736,0.06422
5863,3.3065,3.4545,0.1,0.00049644,4961,0.0005052,5313.1,-9.522e-05,801.78,-0.00020193,0.021518,0.064097
5864,3.3065,3.6364,0.1,0.00049794,4976,0.00050659,5319.1,-9.7805e-05,777.95,-0.00020134,0.018027,0.063912
5865,3.3065,3.8182,0.1,0.00049994,4996,0.00050844,5327.2,-0.00010122,746.53,-0.00020057,0.013065,0.063661
5866,3.3065,4,0.1,0.00050244,5020.9,0.00051072,5337.3,-0.00010542,707.83,-0.00019963,0.0063732,0.063344
5867,3.3065,4.1818,0.1,0.00050544,5050.9,0.00051343,5349.3,-0.00011038,662.26,-0.00019852,-0.0023844,0.062958
5868,3.3065,4.3636,0.1,0.00050892,5085.7,0.00051654,5363.3,-0.00011603,610.33,-0.00019727,-0.013616,0.0625
5869,3.3065,4.5455,0.1,0.00051287,5125.1,0.00052003,5379,-0.00012233,552.64,-0.00019588,-0.027936,0.061966
5870,3.3065,4.7273,0.1,0.00051726,5169,0.00052384,5396.5,-0.00012918,489.87,-0.00019439,-0.045924,0.061353
5871,3.3065,4.9091,0.1,0.00052206,5217,0.00052796,5415.4,-0.00013652,422.8,-0.0001928,-0.069759,0.060655
5872,3.3065,5.0909,0.1,0.00052722,5268.5,0.00053232,5435.8,-0.00014425,352.24,-0.00019115,-0.098348,0.059868
5873,3.3065,5.2727,0.1,0.0005327,5323.3,0.00053689,5457.3,-0.00015228,279.07,-0.00018944,-0.15143,0.058988
5874,3.3065,5.4545,0.1,0.00053843,5380.6,0.00054161,5479.7,-0.00016052,204.15,-0.00018771,-0.18297,0.058008
5875,3.3065,5.6364,0.1,0.0005444,5440.2,0.00054645,5502.8,-0.00016889,128.02,-0.000186,-0.54845,0.056924
5876,3.3065,5.8182,0.1,0.00055083,5504.5,0.00055165,5528.8,-0.00017755,49.943,-0.00018432,-0.96661,0.05573
5877,3.4902,0.18182,0.1,0.00054412,5437.5,0.00054492,5461.3,-0.00017543,48.824,-0.00018204,-0.81215,0.062458
5878,3.4902,0.36364,0.1,0.00053819,5378.2,0.00054013,5437.3,-0.00016746,120.71,-0.00018359,-0.49747,0.063677
5879,3.4902,0.54545,0.1,0.00053264,5322.8,0.00053563,5415.5,-0.00015973,190.85,-0.00018516,-0.16467,0.064786
5880,3.4902,0.72727,0.1,0.0005273,5269.3,0.00053123,5394.3,-0.00015214,259.77,-0.00018673,-0.1374,0.06579
5881,3.4902,0.90909,0.1,0.00052218,5218.2,0.00052697,5374,-0.00014474,327,-0.00018827,-0.089285,0.066696
5882,3.4902,1.0909,0.1,0.00051734,5169.9,0.00052289,5354.6,-0.00013762,391.77,-0.00018977,-0.063425,0.067507
5883,3.4902,1.2727,0.1,0.00051283,5124.8,0.00051903,5336.4,-0.00013085,453.34,-0.0001912,-0.041697,0.068228
5884,3.4902,1.4545,0.1,0.00050869,5083.3,0.00051545,5319.5,-0.00012453,510.98,-0.00019254,-0.025174,0.068864
5885,3.4902,1.6364,0.1,0.00050494,5045.9,0.00051216,5304.2,-0.00011872,563.99,-0.00019379,-0.011881,0.069418
5886,3.4902,1.8182,0.1,0.00050162,5012.8,0.00050922,5290.6,-0.00011349,611.75,-0.00019491,-0.0013253,0.069895
5887,3.4902,2,0.1,0.00049876,4984.1,0.00050665,5278.7,-0.0001089,653.7,-0.0001959,0.0070184,0.070297
5888,3.4902,2.1818,0.1,0.00049635,4960.1,0.00050447,5268.8,-0.000105,689.37,-0.00019675,0.013486,0.070628
5889,3.4902,2.3636,0.1,0.00049443,4940.8,0.00050271,5260.7,-0.00010184,718.37,-0.00019744,0.018347,0.070889
5890,3.4902,2.5455,0.1,0.00049297,4926.3,0.00050138,5254.6,-9.9435e-05,740.38,-0.00019797,0.02181,0.071084
5891,3.4902,2.7273,0.1,0.00049201,4916.7,0.00050048,5250.6,-9.782e-05,755.18,-0.00019832,0.024032,0.071213
5892,3.4902,2.9091,0.1,0.00049152,4911.8,0.00050003,5248.6,-9.7009e-05,762.62,-0.0001985,0.025118,0.071277
5893,3.4902,3.0909,0.1,0.00049152,4911.8,0.00050003,5248.6,-9.7009e-05,762.62,-0.0001985,0.025118,0.071277
5894,3.4902,3.2727,0.1,0.00049201,4916.7,0.00050048,5250.6,-9.782e-05,755.18,-0.00019832,0.024033,0.071213
5895,3.4902,3.4545,0.1,0.00049297,4926.3,0.00050138,5254.6,-9.9435e-05,740.38,-0.00019797,0.02181,0.071084
5896,3.4902,3.6364,0.1,0.00049443,4940.8,0.00050271,5260.7,-0.00010184,718.37,-0.00019744,0.018347,0.070889
5897,3.4902,3.8182,0.1,0.00049635,4960.1,0.00050447,5268.8,-0.000105,689.37,-0.00019675,0.013486,0.070628
5898,3.4902,4,0.1,0.00049876,4984.1,0.00050665,5278.7,-0.0001089,653.7,-0.0001959,0.0070187,0.070297
5899,3.4902,4.1818,0.1,0.00050162,5012.8,0.00050922,5290.6,-0.00011349,611.75,-0.00019491,-0.0013249,0.069895
5900,3.4902,4.3636,0.1,0.00050494,5045.9,0.00051216,5304.2,-0.00011872,563.99,-0.00019379,-0.01188,0.069418
5901,3.4902,4.5455,0.1,0.00050868,5083.3,0.00051545,5319.5,-0.00012453,510.98,-0.00019254,-0.025173,0.068864
5902,3.4902,4.7273,0.1,0.00051283,5124.8,0.00051903,5336.4,-0.00013085,453.34,-0.0001912,-0.041697,0.068228
5903,3.4902,4.9091,0.1,0.00051734,5169.9,0.00052289,5354.6,-0.00013762,391.77,-0.00018977,-0.063424,0.067507
5904,3.4902,5.0909,0.1,0.00052218,5218.2,0.00052697,5374,-0.00014474,327,-0.00018827,-0.089284,0.066696
5905,3.4902,5.2727,0.1,0.0005273,5269.3,0.00053123,5394.3,-0.00015214,259.77,-0.00018673,-0.1374,0.06579
5906,3.4902,5.4545,0.1,0.00053264,5322.8,0.00053563,5415.5,-0.00015973,190.85,-0.00018515,-0.16467,0.064786
5907,3.4902,5.6364,0.1,0.00053819,5378.2,0.00054013,5437.3,-0.00016746,120.71,-0.00018359,-0.49746,0.063677
5908,3.4902,5.8182,0.1,0.00054412,5437.5,0.00054492,5461.3,-0.00017543,48.824,-0.00018204,-0.81215,0.062458
5909,3.6739,0.18182,0.1,0.00053745,5370.8,0.00053823,5394,-0.00017336,47.361,-0.00017976,-0.68808,0.069552
5910,3.6739,0.36364,0.1,0.00053198,5316.1,0.00053381,5371.8,-0.00016601,113.58,-0.00018119,-0.45182,0.070792
5911,3.6739,0.54545,0.1,0.00052682,5264.6,0.00052963,5351.4,-0.00015888,178.24,-0.00018262,-0.14838,0.071923
5912,3.6739,0.72727,0.1,0.00052185,5214.9,0.00052554,5331.4,-0.00015187,241.67,-0.00018405,-0.12474,0.07295
5913,3.6739,0.90909,0.1,0.00051708,5167.2,0.00052157,5312.2,-0.00014505,303.47,-0.00018545,-0.081067,0.073878
5914,3.6739,1.0909,0.1,0.00051255,5122,0.00051776,5293.8,-0.00013849,362.97,-0.00018681,-0.057651,0.074711
5915,3.6739,1.2727,0.1,0.00050832,5079.7,0.00051416,5276.4,-0.00013226,419.5,-0.0001881,-0.037844,0.075453
5916,3.6739,1.4545,0.1,0.00050443,5040.8,0.0005108,5260.3,-0.00012644,472.41,-0.00018931,-0.022689,0.076108
5917,3.6739,1.6364,0.1,0.00050089,5005.5,0.00050772,5245.6,-0.00012108,521.09,-0.00019043,-0.010395,0.076681
5918,3.6739,1.8182,0.1,0.00049775,4974.1,0.00050495,5232.5,-0.00011625,564.97,-0.00019145,-0.00053622,0.077174
5919,3.6739,2,0.1,0.00049503,4946.9,0.00050253,5221,-0.00011202,603.54,-0.00019234,0.0073411,0.077591
5920,3.6739,2.1818,0.1,0.00049274,4924,0.00050047,5211.3,-0.00010841,636.36,-0.0001931,0.013516,0.077935
5921,3.6739,2.3636,0.1,0.0004909,4905.6,0.0004988,5203.4,-0.00010548,663.06,-0.00019372,0.018207,0.078206
5922,3.6739,2.5455,0.1,0.00048951,4891.7,0.00049754,5197.5,-0.00010325,683.34,-0.0001942,0.02158,0.078409
5923,3.6739,2.7273,0.1,0.00048858,4882.4,0.00049669,5193.5,-0.00010176,696.98,-0.00019452,0.023762,0.078543
5924,3.6739,2.9091,0.1,0.00048811,4877.8,0.00049626,5191.5,-0.00010101,703.84,-0.00019468,0.024832,0.07861
5925,3.6739,3.0909,0.1,0.00048811,4877.8,0.00049626,5191.5,-0.00010101,703.84,-0.00019468,0.024832,0.07861
5926,3.6739,3.2727,0.1,0.00048858,4882.4,0.00049669,5193.5,-0.00010176,696.98,-0.00019452,0.023762,0.078543
5927,3.6739,3.4545,0.1,0.00048951,4891.7,0.00049754,5197.5,-0.00010325,683.34,-0.0001942,0.021581,0.078409
5928,3.6739,3.6364,0.1,0.0004909,4905.6,0.0004988,5203.4,-0.00010548,663.06,-0.00019372,0.018207,0.078206
5929,3.6739,3.8182,0.1,0.00049274,4924,0.00050047,5211.3,-0.00010841,636.36,-0.0001931,0.013516,0.077935
5930,3.6739,4,0.1,0.00049503,4946.9,0.00050253,5221,-0.00011202,603.54,-0.00019234,0.0073415,0.077591
5931,3.6739,4.1818,0.1,0.00049775,4974.1,0.00050495,5232.5,-0.00011625,564.97,-0.00019145,-0.0005358,0.077174
5932,3.6739,4.3636,0.1,0.00050089,5005.5,0.00050772,5245.6,-0.00012108,521.09,-0.00019043,-0.010395,0.076681
5933,3.6739,4.5455,0.1,0.00050443,5040.8,0.0005108,5260.3,-0.00012644,472.41,-0.00018931,-0.022688,0.076108
5934,3.6739,4.7273,0.1,0.00050832,5079.7,0.00051416,5276.4,-0.00013226,419.5,-0.0001881,-0.037843,0.075453
5935,3.6739,4.9091,0.1,0.00051255,5122,0.00051776,5293.8,-0.00013849,362.97,-0.00018681,-0.05765,0.074711
5936,3.6739,5.0909,0.1,0.00051708,5167.2,0.00052157,5312.2,-0.00014505,303.47,-0.00018545,-0.081066,0.073878
5937,3.6739,5.2727,0.1,0.00052185,5214.9,0.00052554,5331.4,-0.00015187,241.67,-0.00018405,-0.12474,0.07295
5938,3.6739,5.4545,0.1,0.00052682,5264.6,0.00052963,5351.4,-0.00015888,178.24,-0.00018262,-0.14838,0.071923
5939,3.6739,5.6364,0.1,0.00053198,5316.1,0.00053381,5371.8,-0.00016601,113.58,-0.00018119,-0.45182,0.070792
5940,3.6739,5.8182,0.1,0.00053745,5370.8,0.00053823,5394,-0.00017336,47.361,-0.00017976,-0.68808,0.069552
5941,3.8576,0.18182,0.1,0.00053083,5304.6,0.00053158,5327,-0.00017133,45.624,-0.00017748,-0.58733,0.077008
5942,3.8576,0.36364,0.1,0.00052578,5254.2,0.00052751,5306.5,-0.00016455,106.65,-0.0001788,-0.41083,0.078267
5943,3.8576,0.54545,0.1,0.00052099,5206.3,0.00052362,5287.4,-0.00015796,166.28,-0.00018011,-0.13384,0.079417
5944,3.8576,0.72727,0.1,0.00051637,5160.1,0.00051982,5268.7,-0.0001515,224.69,-0.00018142,-0.11331,0.080464
5945,3.8576,0.90909,0.1,0.00051192,5115.7,0.00051613,5250.6,-0.00014521,281.53,-0.00018269,-0.073621,0.081411
5946,3.8576,1.0909,0.1,0.0005077,5073.5,0.00051258,5233.2,-0.00013917,336.19,-0.00018392,-0.052397,0.082263
5947,3.8576,1.2727,0.1,0.00050375,5034,0.00050922,5216.8,-0.00013344,388.09,-0.00018509,-0.03434,0.083024
5948,3.8576,1.4545,0.1,0.0005001,4997.5,0.00050609,5201.5,-0.00012807,436.66,-0.00018619,-0.020459,0.083697
5949,3.8576,1.6364,0.1,0.00049678,4964.3,0.00050321,5187.5,-0.00012314,481.35,-0.0001872,-0.0091221,0.084286
5950,3.8576,1.8182,0.1,0.00049382,4934.8,0.00050062,5174.9,-0.00011869,521.64,-0.00018812,4.0354e-05,0.084794
5951,3.8576,2,0.1,0.00049125,4909.1,0.00049835,5163.9,-0.00011478,557.06,-0.00018892,0.007424,0.085224
5952,3.8576,2.1818,0.1,0.00048908,4887.4,0.00049642,5154.5,-0.00011146,587.22,-0.00018961,0.013262,0.085579
5953,3.8576,2.3636,0.1,0.00048733,4870,0.00049485,5147,-0.00010875,611.76,-0.00019017,0.017736,0.08586
5954,3.8576,2.5455,0.1,0.00048601,4856.8,0.00049366,5141.2,-0.00010669,630.41,-0.00019059,0.020976,0.086069
5955,3.8576,2.7273,0.1,0.00048513,4847.9,0.00049286,5137.3,-0.00010531,642.95,-0.00019088,0.023084,0.086208
5956,3.8576,2.9091,0.1,0.00048469,4843.5,0.00049245,5135.4,-0.00010462,649.26,-0.00019102,0.024122,0.086277
5957,3.8576,3.0909,0.1,0.00048469,4843.5,0.00049245,5135.4,-0.00010462,649.26,-0.00019102,0.024122,0.086277
5958,3.8576,3.2727,0.1,0.00048513,4847.9,0.00049286,5137.3,-0.00010531,642.95,-0.00019088,0.023084,0.086208
5959,3.8576,3.4545,0.1,0.00048601,4856.8,0.00049366,5141.2,-0.00010669,630.41,-0.00019059,0.020976,0.086069
5960,3.8576,3.6364,0.1,0.00048733,4870,0.00049485,5147,-0.00010875,611.76,-0.00019017,0.017736,0.08586
5961,3.8576,3.8182,0.1,0.00048908,4887.4,0.00049642,5154.5,-0.00011146,587.22,-0.00018961,0.013263,0.085579
5962,3.8576,4,0.1,0.00049125,4909.1,0.00049835,5163.9,-0.00011478,557.06,-0.00018892,0.0074244,0.085224
5963,3.8576,4.1818,0.1,0.00049382,4934.8,0.00050062,5174.9,-0.00011869,521.64,-0.00018812,4.0812e-05,0.084794
5964,3.8576,4.3636,0.1,0.00049678,4964.3,0.00050321,5187.5,-0.00012314,481.35,-0.0001872,-0.0091214,0.084286
5965,3.8576,4.5455,0.1,0.0005001,4997.5,0.00050609,5201.5,-0.00012807,436.66,-0.00018619,-0.020458,0.083697
5966,3.8576,4.7273,0.1,0.00050375,5034,0.00050922,5216.8,-0.00013344,388.09,-0.00018509,-0.03434,0.083024
5967,3.8576,4.9091,0.1,0.0005077,5073.5,0.00051258,5233.2,-0.00013917,336.19,-0.00018392,-0.052396,0.082263
5968,3.8576,5.0909,0.1,0.00051192,5115.7,0.00051613,5250.6,-0.00014521,281.53,-0.00018269,-0.07362,0.081411
5969,3.8576,5.2727,0.1,0.00051637,5160.1,0.00051982,5268.7,-0.0001515,224.69,-0.00018142,-0.11331,0.080464
5970,3.8576,5.4545,0.1,0.00052099,5206.3,0.00052362,5287.4,-0.00015796,166.28,-0.00018011,-0.13384,0.079417
5971,3.8576,5.6364,0.1,0.00052578,5254.2,0.00052751,5306.5,-0.00016455,106.65,-0.0001788,-0.41083,0.078267
5972,3.8576,5.8182,0.1,0.00053083,5304.6,0.00053158,5327,-0.00017133,45.624,-0.00017748,-0.58733,0.077008
5973,4.0413,0.18182,0.1,0.00052427,5239.1,0.00052499,5260.5,-0.00016933,43.674,-0.00017521,-0.50476,0.084823
5974,4.0413,0.36364,0.1,0.00051961,5192.5,0.00052123,5241.6,-0.00016308,99.929,-0.00017643,-0.37392,0.086097
5975,4.0413,0.54545,0.1,0.00051517,5148.1,0.00051763,5223.8,-0.000157,154.93,-0.00017763,-0.12085,0.087264
5976,4.0413,0.72727,0.1,0.00051086,5105.1,0.00051409,5206.2,-0.00015103,208.74,-0.00017883,-0.10298,0.088327
5977,4.0413,0.90909,0.1,0.00050673,5063.8,0.00051066,5189.2,-0.00014524,261.03,-0.00017999,-0.066887,0.089292
5978,4.0413,1.0909,0.1,0.0005028,5024.5,0.00050737,5172.9,-0.00013967,311.26,-0.00018111,-0.047637,0.09016
5979,4.0413,1.2727,0.1,0.00049911,4987.7,0.00050425,5157.4,-0.00013439,358.93,-0.00018217,-0.031176,0.090938
5980,4.0413,1.4545,0.1,0.0004957,4953.6,0.00050133,5143,-0.00012946,403.52,-0.00018316,-0.018475,0.091626
5981,4.0413,1.6364,0.1,0.00049259,4922.5,0.00049865,5129.7,-0.00012491,444.52,-0.00018408,-0.0080448,0.09223
5982,4.0413,1.8182,0.1,0.00048982,4894.8,0.00049623,5117.8,-0.00012082,481.49,-0.0001849,0.00043635,0.092751
5983,4.0413,2,0.1,0.0004874,4870.7,0.00049411,5107.3,-0.00011722,514,-0.00018563,0.0073173,0.093193
5984,4.0413,2.1818,0.1,0.00048536,4850.3,0.0004923,5098.4,-0.00011416,541.68,-0.00018625,0.012796,0.093558
5985,4.0413,2.3636,0.1,0.00048371,4833.8,0.00049084,5091.2,-0.00011166,564.21,-0.00018675,0.017021,0.093847
5986,4.0413,2.5455,0.1,0.00048247,4821.3,0.00048972,5085.7,-0.00010977,581.34,-0.00018714,0.020099,0.094063
5987,4.0413,2.7273,0.1,0.00048163,4813,0.00048897,5082,-0.00010849,592.86,-0.0001874,0.02211,0.094206
5988,4.0413,2.9091,0.1,0.00048121,4808.8,0.00048859,5080.1,-0.00010785,598.66,-0.00018753,0.023104,0.094277
5989,4.0413,3.0909,0.1,0.00048121,4808.8,0.00048859,5080.1,-0.00010785,598.66,-0.00018753,0.023104,0.094277
5990,4.0413,3.2727,0.1,0.00048163,4813,0.00048897,5082,-0.00010849,592.86,-0.0001874,0.02211,0.094206
5991,4.0413,3.4545,0.1,0.00048247,4821.3,0.00048972,5085.7,-0.00010977,581.34,-0.00018714,0.020099,0.094063
5992,4.0413,3.6364,0.1,0.00048371,4833.8,0.00049084,5091.2,-0.00011166,564.21,-0.00018675,0.017021,0.093847
5993,4.0413,3.8182,0.1,0.00048536,4850.3,0.0004923,5098.4,-0.00011416,541.68,-0.00018625,0.012796,0.093558
5994,4.0413,4,0.1,0.0004874,4870.7,0.00049411,5107.3,-0.00011722,514,-0.00018563,0.0073177,0.093193
5995,4.0413,4.1818,0.1,0.00048982,4894.8,0.00049623,5117.8,-0.00012082,481.49,-0.0001849,0.00043681,0.092751
5996,4.0413,4.3636,0.1,0.00049259,4922.5,0.00049865,5129.7,-0.00012491,444.52,-0.00018408,-0.0080442,0.09223
5997,4.0413,4.5455,0.1,0.0004957,4953.6,0.00050133,5143,-0.00012946,403.52,-0.00018316,-0.018474,0.091626
5998,4.0413,4.7273,0.1,0.00049911,4987.7,0.00050425,5157.4,-0.00013439,358.93,-0.00018217,-0.031176,0.090938
5999,4.0413,4.9091,0.1,0.0005028,5024.5,0.00050737,5172.9,-0.00013967,311.26,-0.00018111,-0.047636,0.09016
6000,4.0413,5.0909,0.1,0.00050673,5063.8,0.00051066,5189.2,-0.00014524,261.03,-0.00017999,-0.066886,0.089292
6001,4.0413,5.2727,0.1,0.00051086,5105.1,0.00051409,5206.2,-0.00015103,208.74,-0.00017883,-0.10298,0.088327
6002,4.0413,5.4545,0.1,0.00051517,5148.1,0.00051763,5223.8,-0.000157,154.93,-0.00017763,-0.12085,0.087264
6003,4.0413,5.6364,0.1,0.00051961,5192.5,0.00052123,5241.6,-0.00016308,99.929,-0.00017643,-0.37391,0.086097
6004,4.0413,5.8182,0.1,0.00052427,5239.1,0.00052499,5260.5,-0.00016933,43.674,-0.00017521,-0.50476,0.084823
6005,4.225,0.18182,0.1,0.00051778,5174.2,0.00051847,5194.7,-0.00016737,41.566,-0.00017296,-0.43657,0.092991
6006,4.225,0.36364,0.1,0.00051348,5131.2,0.000515,5177.1,-0.0001616,93.44,-0.00017408,-0.34059,0.094278
6007,4.225,0.54545,0.1,0.00050935,5090,0.00051165,5160.5,-0.00015598,144.18,-0.00017519,-0.10921,0.095459
6008,4.225,0.72727,0.1,0.00050536,5050.1,0.00050837,5144.1,-0.00015048,193.76,-0.00017628,-0.093649,0.096537
6009,4.225,0.90909,0.1,0.00050151,5011.7,0.00050519,5128.2,-0.00014514,241.87,-0.00017734,-0.060798,0.097516
6010,4.225,1.0909,0.1,0.00049786,4975.2,0.00050213,5112.9,-0.00014002,288.05,-0.00017836,-0.043329,0.0984
6011,4.225,1.2727,0.1,0.00049443,4940.8,0.00049923,5098.4,-0.00013516,331.83,-0.00017932,-0.028325,0.099191
6012,4.225,1.4545,0.1,0.00049124,4909.1,0.00049652,5084.8,-0.00013061,372.76,-0.00018023,-0.016712,0.099894
6013,4.225,1.6364,0.1,0.00048834,4880.1,0.00049403,5072.3,-0.00012643,410.39,-0.00018105,-0.0071359,0.10051
6014,4.225,1.8182,0.1,0.00048575,4854.2,0.00049178,5061,-0.00012267,444.3,-0.0001818,0.00068936,0.10104
6015,4.225,2,0.1,0.00048349,4831.6,0.00048981,5051.2,-0.00011936,474.12,-0.00018246,0.0070718,0.1015
6016,4.225,2.1818,0.1,0.00048158,4812.4,0.00048813,5042.7,-0.00011654,499.51,-0.00018302,0.012181,0.10187
6017,4.225,2.3636,0.1,0.00048003,4797,0.00048676,5035.9,-0.00011425,520.18,-0.00018347,0.016142,0.10217
6018,4.225,2.5455,0.1,0.00047886,4785.3,0.00048572,5030.7,-0.0001125,535.89,-0.00018382,0.01904,0.10239
6019,4.225,2.7273,0.1,0.00047807,4777.4,0.00048502,5027.2,-0.00011133,546.46,-0.00018405,0.020941,0.10253
6020,4.225,2.9091,0.1,0.00047768,4773.5,0.00048466,5025.4,-0.00011074,551.78,-0.00018417,0.021881,0.10261
6021,4.225,3.0909,0.1,0.00047768,4773.5,0.00048466,5025.4,-0.00011074,551.78,-0.00018417,0.021881,0.10261
6022,4.225,3.2727,0.1,0.00047807,4777.4,0.00048502,5027.2,-0.00011133,546.46,-0.00018405,0.020941,0.10253
6023,4.225,3.4545,0.1,0.00047886,4785.3,0.00048572,5030.7,-0.0001125,535.89,-0.00018382,0.019041,0.10239
6024,4.225,3.6364,0.1,0.00048003,4797,0.00048676,5035.9,-0.00011425,520.18,-0.00018347,0.016142,0.10217
6025,4.225,3.8182,0.1,0.00048158,4812.4,0.00048813,5042.7,-0.00011654,499.51,-0.00018302,0.012182,0.10187
6026,4.225,4,0.1,0.00048349,4831.6,0.00048981,5051.2,-0.00011936,474.12,-0.00018246,0.0070723,0.1015
6027,4.225,4.1818,0.1,0.00048575,4854.2,0.00049178,5061,-0.00012267,444.3,-0.0001818,0.00068968,0.10104
6028,4.225,4.3636,0.1,0.00048834,4880.1,0.00049403,5072.3,-0.00012643,410.39,-0.00018105,-0.0071353,0.10051
6029,4.225,4.5455,0.1,0.00049124,4909.1,0.00049652,5084.8,-0.00013061,372.76,-0.00018023,-0.016712,0.099894
6030,4.225,4.7273,0.1,0.00049443,4940.8,0.00049923,5098.4,-0.00013516,331.83,-0.00017932,-0.028324,0.099191
6031,4.225,4.9091,0.1,0.00049786,4975.2,0.00050213,5112.9,-0.00014002,288.05,-0.00017836,-0.043328,0.0984
6032,4.225,5.0909,0.1,0.00050151,5011.7,0.00050519,5128.2,-0.00014514,241.87,-0.00017734,-0.060797,0.097516
6033,4.225,5.2727,0.1,0.00050536,5050.1,0.00050837,5144.1,-0.00015048,193.76,-0.00017628,-0.093649,0.096537
6034,4.225,5.4545,0.1,0.00050935,5090,0.00051165,5160.5,-0.00015598,144.18,-0.00017519,-0.10921,0.095459
6035,4.225,5.6364,0.1,0.00051348,5131.2,0.000515,5177.1,-0.0001616,93.44,-0.00017408,-0.34059,0.094278
6036,4.225,5.8182,0.1,0.00051778,5174.2,0.00051847,5194.7,-0.00016737,41.566,-0.00017296,-0.43656,0.092991
6037,4.4087,0.18182,0.1,0.00051136,5110,0.00051201,5129.4,-0.00016544,39.345,-0.00017072,-0.37985,0.10151
6038,4.4087,0.36364,0.1,0.00050738,5070.3,0.0005088,5113.2,-0.00016012,87.19,-0.00017176,-0.31043,0.10281
6039,4.4087,0.54545,0.1,0.00050355,5032.1,0.0005057,5097.7,-0.00015493,134.01,-0.00017277,-0.098768,0.104
6040,4.4087,0.72727,0.1,0.00049985,4995,0.00050266,5082.4,-0.00014985,179.69,-0.00017378,-0.085194,0.10509
6041,4.4087,0.90909,0.1,0.00049628,4959.4,0.00049971,5067.5,-0.00014493,223.97,-0.00017475,-0.055285,0.10608
6042,4.4087,1.0909,0.1,0.00049288,4925.4,0.00049687,5053.2,-0.00014021,266.42,-0.00017567,-0.039428,0.10698
6043,4.4087,1.2727,0.1,0.00048969,4893.5,0.00049419,5039.6,-0.00013574,306.64,-0.00017655,-0.025753,0.10778
6044,4.4087,1.4545,0.1,0.00048673,4864,0.00049167,5026.9,-0.00013156,344.21,-0.00017737,-0.015145,0.1085
6045,4.4087,1.6364,0.1,0.00048403,4837,0.00048936,5015.2,-0.00012772,378.74,-0.00017812,-0.0063665,0.10912
6046,4.4087,1.8182,0.1,0.00048161,4812.8,0.00048728,5004.6,-0.00012425,409.84,-0.0001788,0.00083411,0.10967
6047,4.4087,2,0.1,0.0004795,4791.7,0.00048544,4995.3,-0.00012121,437.19,-0.0001794,0.0067318,0.11013
6048,4.4087,2.1818,0.1,0.00047772,4773.9,0.00048388,4987.4,-0.00011862,460.46,-0.0001799,0.011473,0.11051
6049,4.4087,2.3636,0.1,0.00047627,4759.4,0.00048261,4981,-0.00011651,479.41,-0.00018032,0.015164,0.11081
6050,4.4087,2.5455,0.1,0.00047517,4748.4,0.00048164,4976.1,-0.00011491,493.82,-0.00018063,0.017874,0.11104
6051,4.4087,2.7273,0.1,0.00047443,4741.1,0.00048099,4972.7,-0.00011383,503.51,-0.00018084,0.019655,0.11119
6052,4.4087,2.9091,0.1,0.00047407,4737.4,0.00048066,4971.1,-0.00011329,508.39,-0.00018095,0.020538,0.11126
6053,4.4087,3.0909,0.1,0.00047407,4737.4,0.00048066,4971.1,-0.00011329,508.39,-0.00018095,0.020538,0.11126
6054,4.4087,3.2727,0.1,0.00047443,4741.1,0.00048099,4972.7,-0.00011383,503.51,-0.00018084,0.019655,0.11119
6055,4.4087,3.4545,0.1,0.00047517,4748.4,0.00048164,4976.1,-0.00011491,493.82,-0.00018063,0.017874,0.11104
6056,4.4087,3.6364,0.1,0.00047627,4759.4,0.00048261,4981,-0.00011651,479.41,-0.00018032,0.015164,0.11081
6057,4.4087,3.8182,0.1,0.00047772,4773.9,0.00048388,4987.4,-0.00011862,460.46,-0.0001799,0.011474,0.11051
6058,4.4087,4,0.1,0.0004795,4791.7,0.00048544,4995.3,-0.00012121,437.19,-0.0001794,0.0067323,0.11013
6059,4.4087,4.1818,0.1,0.00048161,4812.8,0.00048728,5004.6,-0.00012425,409.84,-0.0001788,0.00083461,0.10967
6060,4.4087,4.3636,0.1,0.00048403,4837,0.00048936,5015.2,-0.00012772,378.74,-0.00017812,-0.0063661,0.10912
6061,4.4087,4.5455,0.1,0.00048673,4864,0.00049167,5026.9,-0.00013156,344.21,-0.00017737,-0.015144,0.1085
6062,4.4087,4.7273,0.1,0.00048969,4893.5,0.00049419,5039.6,-0.00013574,306.64,-0.00017655,-0.025752,0.10778
6063,4.4087,4.9091,0.1,0.00049288,4925.4,0.00049687,5053.2,-0.00014021,266.42,-0.00017567,-0.039427,0.10698
6064,4.4087,5.0909,0.1,0.00049628,4959.4,0.00049971,5067.5,-0.00014493,223.97,-0.00017475,-0.055284,0.10608
6065,4.4087,5.2727,0.1,0.00049985,4995,0.00050266,5082.4,-0.00014985,179.69,-0.00017378,-0.085194,0.10509
6066,4.4087,5.4545,0.1,0.00050355,5032.1,0.0005057,5097.7,-0.00015493,134.01,-0.00017277,-0.098768,0.104
6067,4.4087,5.6364,0.1,0.00050738,5070.3,0.0005088,5113.2,-0.00016012,87.19,-0.00017176,-0.31043,0.10281
6068,4.4087,5.8182,0.1,0.00051136,5110,0.00051201,5129.4,-0.00016544,39.345,-0.00017072,-0.37985,0.10151
6069,4.5924,0.18182,0.1,0.000505,5046.6,0.00050562,5064.8,-0.00016354,37.051,-0.00016851,-0.33241,0.11037
6070,4.5924,0.36364,0.1,0.00050133,5009.8,0.00050265,5049.8,-0.00015862,81.189,-0.00016947,-0.28309,0.11168
6071,4.5924,0.54545,0.1,0.00049778,4974.4,0.00049978,5035.3,-0.00015383,124.38,-0.0001704,-0.089385,0.11288
6072,4.5924,0.72727,0.1,0.00049434,4940,0.00049696,5021.1,-0.00014915,166.48,-0.00017132,-0.077537,0.11398
6073,4.5924,0.90909,0.1,0.00049103,4906.9,0.00049423,5007.2,-0.00014461,207.23,-0.0001722,-0.0503,0.11498
6074,4.5924,1.0909,0.1,0.00048788,4875.4,0.0004916,4993.9,-0.00014027,246.28,-0.00017305,-0.035903,0.11589
6075,4.5924,1.2727,0.1,0.00048492,4845.8,0.00048911,4981.2,-0.00013615,283.23,-0.00017385,-0.023443,0.1167
6076,4.5924,1.4545,0.1,0.00048217,4818.3,0.00048678,4969.3,-0.00013231,317.72,-0.00017459,-0.01376,0.11743
6077,4.5924,1.6364,0.1,0.00047966,4793.3,0.00048464,4958.4,-0.00012878,349.39,-0.00017528,-0.0057246,0.11807
6078,4.5924,1.8182,0.1,0.00047741,4770.8,0.00048271,4948.5,-0.0001256,377.92,-0.00017589,0.00088657,0.11862
6079,4.5924,2,0.1,0.00047544,4751.1,0.00048101,4939.8,-0.0001228,402.99,-0.00017643,0.0063192,0.11909
6080,4.5924,2.1818,0.1,0.00047378,4734.5,0.00047957,4932.4,-0.00012042,424.33,-0.00017689,0.010702,0.11948
6081,4.5924,2.3636,0.1,0.00047243,4721,0.00047839,4926.3,-0.00011848,441.69,-0.00017727,0.014123,0.11978
6082,4.5924,2.5455,0.1,0.0004714,4710.8,0.00047749,4921.7,-0.00011701,454.89,-0.00017755,0.016642,0.12002
6083,4.5924,2.7273,0.1,0.00047072,4703.9,0.00047689,4918.6,-0.00011602,463.77,-0.00017774,0.018302,0.12017
6084,4.5924,2.9091,0.1,0.00047037,4700.5,0.00047658,4917.1,-0.00011552,468.24,-0.00017784,0.019126,0.12024
6085,4.5924,3.0909,0.1,0.00047037,4700.5,0.00047658,4917.1,-0.00011552,468.24,-0.00017784,0.019126,0.12024
6086,4.5924,3.2727,0.1,0.00047072,4703.9,0.00047689,4918.6,-0.00011602,463.77,-0.00017774,0.018302,0.12017
6087,4.5924,3.4545,0.1,0.0004714,4710.8,0.00047749,4921.7,-0.00011701,454.89,-0.00017755,0.016642,0.12002
6088,4.5924,3.6364,0.1,0.00047243,4721,0.00047839,4926.3,-0.00011848,441.69,-0.00017727,0.014123,0.11978
6089,4.5924,3.8182,0.1,0.00047378,4734.5,0.00047957,4932.4,-0.00012042,424.33,-0.00017689,0.010702,0.11948
6090,4.5924,4,0.1,0.00047544,4751.1,0.00048101,4939.8,-0.0001228,402.99,-0.00017643,0.0063195,0.11909
6091,4.5924,4.1818,0.1,0.00047741,4770.8,0.00048271,4948.5,-0.0001256,377.92,-0.00017589,0.00088705,0.11862
6092,4.5924,4.3636,0.1,0.00047966,4793.3,0.00048464,4958.4,-0.00012878,349.39,-0.00017528,-0.0057239,0.11807
6093,4.5924,4.5455,0.1,0.00048217,4818.3,0.00048678,4969.3,-0.00013231,317.72,-0.00017459,-0.013759,0.11743
6094,4.5924,4.7273,0.1,0.00048492,4845.8,0.00048911,4981.2,-0.00013615,283.23,-0.00017385,-0.023442,0.1167
6095,4.5924,4.9091,0.1,0.00048788,4875.4,0.0004916,4993.9,-0.00014027,246.28,-0.00017305,-0.035902,0.11589
6096,4.5924,5.0909,0.1,0.00049103,4906.9,0.00049423,5007.2,-0.00014461,207.23,-0.0001722,-0.050299,0.11498
6097,4.5924,5.2727,0.1,0.00049434,4940,0.00049696,5021.1,-0.00014915,166.48,-0.00017132,-0.077536,0.11398
6098,4.5924,5.4545,0.1,0.00049778,4974.4,0.00049978,5035.3,-0.00015383,124.38,-0.0001704,-0.089385,0.11288
6099,4.5924,5.6364,0.1,0.00050133,5009.8,0.00050265,5049.8,-0.00015862,81.189,-0.00016947,-0.28309,0.11168
6100,4.5924,5.8182,0.1,0.000505,5046.6,0.00050562,5064.8,-0.00016354,37.051,-0.00016851,-0.33241,0.11037
6101,4.7761,0.18182,0.1,0.00049872,4983.7,0.00049929,5000.9,-0.00016166,34.718,-0.00016632,-0.29256,0.11958
6102,4.7761,0.36364,0.1,0.00049532,4949.8,0.00049656,4986.9,-0.00015712,75.443,-0.0001672,-0.25826,0.12089
6103,4.7761,0.54545,0.1,0.00049203,4916.9,0.00049389,4973.5,-0.0001527,115.29,-0.00016805,-0.080946,0.1221
6104,4.7761,0.72727,0.1,0.00048884,4885.1,0.00049128,4960.2,-0.00014838,154.08,-0.0001689,-0.070599,0.12321
6105,4.7761,0.90909,0.1,0.00048577,4854.4,0.00048875,4947.3,-0.0001442,191.6,-0.00016971,-0.045794,0.12422
6106,4.7761,1.0909,0.1,0.00048285,4825.2,0.00048632,4934.9,-0.0001402,227.51,-0.00017048,-0.032723,0.12513
6107,4.7761,1.2727,0.1,0.0004801,4797.7,0.00048402,4923.1,-0.00013641,261.46,-0.00017121,-0.021374,0.12596
6108,4.7761,1.4545,0.1,0.00047755,4772.2,0.00048186,4912,-0.00013288,293.13,-0.00017189,-0.012542,0.12669
6109,4.7761,1.6364,0.1,0.00047522,4748.9,0.00047988,4901.8,-0.00012963,322.19,-0.00017251,-0.0051958,0.12734
6110,4.7761,1.8182,0.1,0.00047313,4728.1,0.0004781,4892.6,-0.00012671,348.35,-0.00017307,0.00086239,0.1279
6111,4.7761,2,0.1,0.00047131,4709.8,0.00047652,4884.5,-0.00012414,371.34,-0.00017356,0.0058537,0.12837
6112,4.7761,2.1818,0.1,0.00046976,4694.3,0.00047519,4877.6,-0.00012196,390.89,-0.00017398,0.0098907,0.12877
6113,4.7761,2.3636,0.1,0.0004685,4681.8,0.0004741,4871.9,-0.00012018,406.8,-0.00017432,0.01305,0.12908
6114,4.7761,2.5455,0.1,0.00046755,4672.3,0.00047327,4867.6,-0.00011883,418.89,-0.00017457,0.015381,0.12931
6115,4.7761,2.7273,0.1,0.00046691,4665.9,0.00047271,4864.7,-0.00011792,427.03,-0.00017475,0.016919,0.12947
6116,4.7761,2.9091,0.1,0.00046659,4662.7,0.00047243,4863.3,-0.00011746,431.12,-0.00017483,0.017684,0.12955
6117,4.7761,3.0909,0.1,0.00046659,4662.7,0.00047243,4863.3,-0.00011746,431.12,-0.00017483,0.017684,0.12955
6118,4.7761,3.2727,0.1,0.00046691,4665.9,0.00047271,4864.7,-0.00011792,427.03,-0.00017475,0.01692,0.12947
6119,4.7761,3.4545,0.1,0.00046755,4672.3,0.00047327,4867.6,-0.00011883,418.89,-0.00017457,0.015381,0.12931
6120,4.7761,3.6364,0.1,0.0004685,4681.8,0.0004741,4871.9,-0.00012018,406.8,-0.00017432,0.01305,0.12908
6121,4.7761,3.8182,0.1,0.00046976,4694.3,0.00047519,4877.6,-0.00012196,390.89,-0.00017398,0.0098911,0.12877
6122,4.7761,4,0.1,0.00047131,4709.8,0.00047652,4884.5,-0.00012414,371.34,-0.00017356,0.0058541,0.12837
6123,4.7761,4.1818,0.1,0.00047313,4728.1,0.0004781,4892.6,-0.00012671,348.35,-0.00017307,0.00086284,0.1279
6124,4.7761,4.3636,0.1,0.00047522,4748.9,0.00047988,4901.8,-0.00012963,322.19,-0.00017251,-0.0051953,0.12734
6125,4.7761,4.5455,0.1,0.00047755,4772.2,0.00048186,4912,-0.00013288,293.13,-0.00017189,-0.012541,0.12669
6126,4.7761,4.7273,0.1,0.0004801,4797.7,0.00048402,4923.1,-0.00013641,261.46,-0.00017121,-0.021373,0.12596
6127,4.7761,4.9091,0.1,0.00048285,4825.2,0.00048632,4934.9,-0.0001402,227.51,-0.00017048,-0.032722,0.12513
6128,4.7761,5.0909,0.1,0.00048577,4854.4,0.00048875,4947.3,-0.0001442,191.6,-0.00016971,-0.045792,0.12422
6129,4.7761,5.2727,0.1,0.00048884,4885.1,0.00049128,4960.2,-0.00014838,154.08,-0.0001689,-0.070599,0.12321
6130,4.7761,5.4545,0.1,0.00049203,4916.9,0.00049389,4973.5,-0.0001527,115.29,-0.00016805,-0.080946,0.1221
6131,4.7761,5.6364,0.1,0.00049532,4949.8,0.00049656,4986.9,-0.00015712,75.443,-0.0001672,-0.25826,0.12089
6132,4.7761,5.8182,0.1,0.00049872,4983.7,0.00049929,5000.9,-0.00016166,34.718,-0.00016632,-0.29255,0.11958
6133,4.9598,0.18182,0.1,0.0004925,4921.6,0.00049304,4937.6,-0.0001598,32.374,-0.00016415,-0.25892,0.12912
6134,4.9598,0.36364,0.1,0.00048936,4890.2,0.0004905,4924.7,-0.00015562,69.955,-0.00016496,-0.23568,0.13044
6135,4.9598,0.54545,0.1,0.00048631,4859.7,0.00048803,4912.2,-0.00015153,106.71,-0.00016574,-0.073335,0.13165
6136,4.9598,0.72727,0.1,0.00048335,4830.2,0.00048562,4899.8,-0.00014755,142.46,-0.00016652,-0.064298,0.13277
6137,4.9598,0.90909,0.1,0.00048051,4801.8,0.00048328,4887.8,-0.0001437,177,-0.00016726,-0.041709,0.13378
6138,4.9598,1.0909,0.1,0.0004778,4774.7,0.00048103,4876.3,-0.00014001,210.02,-0.00016797,-0.029845,0.13471
6139,4.9598,1.2727,0.1,0.00047526,4749.3,0.0004789,4865.3,-0.00013653,241.22,-0.00016863,-0.019512,0.13554
6140,4.9598,1.4545,0.1,0.00047289,4725.6,0.00047691,4855,-0.00013328,270.3,-0.00016925,-0.011463,0.13628
6141,4.9598,1.6364,0.1,0.00047073,4704.1,0.00047508,4845.5,-0.00013029,296.97,-0.00016982,-0.0047549,0.13693
6142,4.9598,1.8182,0.1,0.00046879,4684.7,0.00047343,4836.9,-0.00012761,320.97,-0.00017033,0.00078755,0.1375
6143,4.9598,2,0.1,0.0004671,4667.8,0.00047198,4829.4,-0.00012525,342.04,-0.00017077,0.0053631,0.13798
6144,4.9598,2.1818,0.1,0.00046566,4653.4,0.00047074,4822.9,-0.00012325,359.96,-0.00017115,0.0090715,0.13838
6145,4.9598,2.3636,0.1,0.0004645,4641.8,0.00046973,4817.7,-0.00012162,374.53,-0.00017146,0.011979,0.1387
6146,4.9598,2.5455,0.1,0.00046361,4632.9,0.00046897,4813.7,-0.00012037,385.61,-0.00017169,0.014128,0.13893
6147,4.9598,2.7273,0.1,0.00046302,4627,0.00046845,4811,-0.00011954,393.06,-0.00017185,0.015548,0.13909
6148,4.9598,2.9091,0.1,0.00046272,4624,0.00046819,4809.6,-0.00011912,396.81,-0.00017193,0.016255,0.13917
6149,4.9598,3.0909,0.1,0.00046272,4624,0.00046819,4809.6,-0.00011912,396.81,-0.00017193,0.016255,0.13917
6150,4.9598,3.2727,0.1,0.00046302,4627,0.00046845,4811,-0.00011954,393.06,-0.00017185,0.015548,0.13909
6151,4.9598,3.4545,0.1,0.00046361,4632.9,0.00046897,4813.7,-0.00012037,385.61,-0.00017169,0.014128,0.13893
6152,4.9598,3.6364,0.1,0.0004645,4641.8,0.00046973,4817.7,-0.00012162,374.53,-0.00017146,0.01198,0.1387
6153,4.9598,3.8182,0.1,0.00046566,4653.4,0.00047074,4822.9,-0.00012325,359.96,-0.00017115,0.0090718,0.13838
6154,4.9598,4,0.1,0.0004671,4667.8,0.00047198,4829.4,-0.00012525,342.04,-0.00017077,0.0053636,0.13798
6155,4.9598,4.1818,0.1,0.00046879,4684.7,0.00047343,4836.9,-0.00012761,320.97,-0.00017033,0.00078796,0.1375
6156,4.9598,4.3636,0.1,0.00047073,4704.1,0.00047508,4845.5,-0.00013029,296.97,-0.00016982,-0.0047542,0.13693
6157,4.9598,4.5455,0.1,0.00047289,4725.6,0.00047691,4855,-0.00013328,270.3,-0.00016925,-0.011462,0.13628
6158,4.9598,4.7273,0.1,0.00047526,4749.3,0.0004789,4865.3,-0.00013653,241.22,-0.00016863,-0.019512,0.13554
6159,4.9598,4.9091,0.1,0.0004778,4774.7,0.00048103,4876.3,-0.00014001,210.02,-0.00016797,-0.029844,0.13471
6160,4.9598,5.0909,0.1,0.00048051,4801.8,0.00048328,4887.8,-0.0001437,177,-0.00016726,-0.041708,0.13378
6161,4.9598,5.2727,0.1,0.00048335,4830.2,0.00048562,4899.8,-0.00014755,142.46,-0.00016652,-0.064298,0.13277
6162,4.9598,5.4545,0.1,0.00048631,4859.7,0.00048803,4912.2,-0.00015153,106.71,-0.00016574,-0.073334,0.13165
6163,4.9598,5.6364,0.1,0.00048936,4890.2,0.0004905,4924.7,-0.00015562,69.955,-0.00016496,-0.23568,0.13044
6164,4.9598,5.8182,0.1,0.0004925,4921.6,0.00049304,4937.6,-0.0001598,32.374,-0.00016415,-0.25892,0.12912
6165,5.1435,0.18182,0.1,0.00048635,4860.1,0.00048685,4874.9,-0.00015797,30.041,-0.000162,-0.23046,0.13899
6166,5.1435,0.36364,0.1,0.00048343,4831,0.0004845,4862.9,-0.0001541,64.728,-0.00016275,-0.21511,0.14031
6167,5.1435,0.54545,0.1,0.00048061,4802.8,0.00048221,4851.3,-0.00015033,98.633,-0.00016347,-0.066462,0.14153
6168,5.1435,0.72727,0.1,0.00047788,4775.5,0.00047998,4839.9,-0.00014666,131.57,-0.00016418,-0.058573,0.14265
6169,5.1435,0.90909,0.1,0.00047524,4749.1,0.00047781,4828.7,-0.00014311,163.37,-0.00016486,-0.038007,0.14368
6170,5.1435,1.0909,0.1,0.00047274,4724.1,0.00047573,4818,-0.00013971,193.74,-0.0001655,-0.027243,0.1446
6171,5.1435,1.2727,0.1,0.00047038,4700.5,0.00047376,4807.8,-0.00013651,222.41,-0.00016611,-0.01784,0.14544
6172,5.1435,1.4545,0.1,0.00046819,4678.6,0.00047193,4798.2,-0.00013352,249.12,-0.00016668,-0.01051,0.14619
6173,5.1435,1.6364,0.1,0.00046619,4658.6,0.00047024,4789.4,-0.00013078,273.6,-0.00016719,-0.0043916,0.14684
6174,5.1435,1.8182,0.1,0.00046439,4640.7,0.00046871,4781.4,-0.00012832,295.6,-0.00016766,0.0006712,0.14742
6175,5.1435,2,0.1,0.00046282,4625,0.00046737,4774.4,-0.00012615,314.92,-0.00016806,0.0048575,0.1479
6176,5.1435,2.1818,0.1,0.00046149,4611.7,0.00046623,4768.5,-0.00012431,331.34,-0.00016841,0.008256,0.14831
6177,5.1435,2.3636,0.1,0.00046041,4600.9,0.0004653,4763.6,-0.00012281,344.7,-0.00016869,0.010925,0.14863
6178,5.1435,2.5455,0.1,0.00045959,4592.7,0.0004646,4759.9,-0.00012168,354.84,-0.0001689,0.0129,0.14887
6179,5.1435,2.7273,0.1,0.00045904,4587.2,0.00046412,4757.4,-0.00012091,361.66,-0.00016904,0.014206,0.14903
6180,5.1435,2.9091,0.1,0.00045876,4584.5,0.00046388,4756.1,-0.00012053,365.1,-0.00016912,0.014856,0.14911
6181,5.1435,3.0909,0.1,0.00045876,4584.5,0.00046388,4756.1,-0.00012053,365.1,-0.00016912,0.014856,0.14911
6182,5.1435,3.2727,0.1,0.00045904,4587.2,0.00046412,4757.4,-0.00012091,361.66,-0.00016904,0.014206,0.14903
6183,5.1435,3.4545,0.1,0.00045959,4592.7,0.0004646,4759.9,-0.00012168,354.84,-0.0001689,0.0129,0.14887
6184,5.1435,3.6364,0.1,0.00046041,4600.9,0.0004653,4763.6,-0.00012281,344.7,-0.00016869,0.010925,0.14863
6185,5.1435,3.8182,0.1,0.00046149,4611.7,0.00046623,4768.5,-0.00012431,331.34,-0.00016841,0.0082566,0.14831
6186,5.1435,4,0.1,0.00046282,4625,0.00046737,4774.4,-0.00012615,314.92,-0.00016806,0.0048581,0.1479
6187,5.1435,4.1818,0.1,0.00046439,4640.7,0.00046871,4781.4,-0.00012832,295.6,-0.00016766,0.0006716,0.14742
6188,5.1435,4.3636,0.1,0.00046619,4658.6,0.00047024,4789.4,-0.00013078,273.6,-0.00016719,-0.004391,0.14684
6189,5.1435,4.5455,0.1,0.00046819,4678.6,0.00047193,4798.2,-0.00013352,249.12,-0.00016668,-0.010509,0.14619
6190,5.1435,4.7273,0.1,0.00047038,4700.5,0.00047376,4807.8,-0.00013651,222.41,-0.00016611,-0.01784,0.14544
6191,5.1435,4.9091,0.1,0.00047274,4724.1,0.00047573,4818,-0.00013971,193.74,-0.0001655,-0.027242,0.1446
6192,5.1435,5.0909,0.1,0.00047524,4749.1,0.00047781,4828.7,-0.00014311,163.37,-0.00016486,-0.038005,0.14368
6193,5.1435,5.2727,0.1,0.00047788,4775.5,0.00047998,4839.9,-0.00014666,131.57,-0.00016418,-0.058572,0.14265
6194,5.1435,5.4545,0.1,0.00048061,4802.8,0.00048221,4851.3,-0.00015033,98.633,-0.00016347,-0.066461,0.14153
6195,5.1435,5.6364,0.1,0.00048343,4831,0.0004845,4862.9,-0.0001541,64.728,-0.00016275,-0.21511,0.14031
6196,5.1435,5.8182,0.1,0.00048635,4860.1,0.00048685,4874.9,-0.00015797,30.041,-0.000162,-0.23046,0.13899
6197,5.3272,0.18182,0.1,0.00048025,4799.2,0.00048072,4812.9,-0.00015615,27.739,-0.00015987,-0.20632,0.14919
6198,5.3272,0.36364,0.1,0.00047756,4772.3,0.00047854,4801.8,-0.00015258,59.759,-0.00016056,-0.19635,0.15052
6199,5.3272,0.54545,0.1,0.00047494,4746.2,0.00047643,4791,-0.0001491,91.028,-0.00016122,-0.060251,0.15174
6200,5.3272,0.72727,0.1,0.00047241,4720.8,0.00047436,4780.3,-0.00014571,121.38,-0.00016187,-0.053371,0.15286
6201,5.3272,0.90909,0.1,0.00046997,4696.5,0.00047235,4770,-0.00014244,150.65,-0.0001625,-0.034654,0.15389
6202,5.3272,1.0909,0.1,0.00046765,4673.3,0.00047043,4760,-0.00013932,178.59,-0.00016309,-0.024893,0.15482
6203,5.3272,1.2727,0.1,0.00046547,4651.5,0.00046862,4750.5,-0.00013637,204.94,-0.00016365,-0.016343,0.15566
6204,5.3272,1.4545,0.1,0.00046344,4631.2,0.00046692,4741.7,-0.00013362,229.46,-0.00016416,-0.0096733,0.15641
6205,5.3272,1.6364,0.1,0.00046159,4612.7,0.00046536,4733.5,-0.0001311,251.93,-0.00016463,-0.0040988,0.15708
6206,5.3272,1.8182,0.1,0.00045993,4596.1,0.00046395,4726.1,-0.00012884,272.12,-0.00016506,0.0005192,0.15765
6207,5.3272,2,0.1,0.00045848,4581.6,0.00046272,4719.6,-0.00012685,289.83,-0.00016543,0.0043431,0.15814
6208,5.3272,2.1818,0.1,0.00045724,4569.3,0.00046167,4714.1,-0.00012516,304.88,-0.00016574,0.0074513,0.15855
6209,5.3272,2.3636,0.1,0.00045624,4559.3,0.00046081,4709.6,-0.00012379,317.11,-0.00016599,0.0098951,0.15887
6210,5.3272,2.5455,0.1,0.00045549,4551.7,0.00046016,4706.1,-0.00012275,326.41,-0.00016619,0.011705,0.15912
6211,5.3272,2.7273,0.1,0.00045498,4546.6,0.00045972,4703.8,-0.00012205,332.66,-0.00016632,0.012903,0.15928
6212,5.3272,2.9091,0.1,0.00045472,4544.1,0.0004595,4702.7,-0.00012169,335.8,-0.00016638,0.0135,0.15936
6213,5.3272,3.0909,0.1,0.00045472,4544.1,0.0004595,4702.7,-0.00012169,335.8,-0.00016638,0.0135,0.15936
6214,5.3272,3.2727,0.1,0.00045498,4546.6,0.00045972,4703.8,-0.00012205,332.66,-0.00016632,0.012903,0.15928
6215,5.3272,3.4545,0.1,0.00045549,4551.7,0.00046016,4706.1,-0.00012275,326.41,-0.00016619,0.011705,0.15912
6216,5.3272,3.6364,0.1,0.00045624,4559.3,0.00046081,4709.6,-0.00012379,317.11,-0.00016599,0.0098953,0.15887
6217,5.3272,3.8182,0.1,0.00045724,4569.3,0.00046167,4714.1,-0.00012516,304.88,-0.00016574,0.0074516,0.15855
6218,5.3272,4,0.1,0.00045848,4581.6,0.00046272,4719.6,-0.00012685,289.83,-0.00016543,0.0043435,0.15814
6219,5.3272,4.1818,0.1,0.00045993,4596.1,0.00046395,4726.1,-0.00012884,272.12,-0.00016506,0.00051978,0.15765
6220,5.3272,4.3636,0.1,0.00046159,4612.7,0.00046536,4733.5,-0.0001311,251.93,-0.00016463,-0.0040983,0.15708
6221,5.3272,4.5455,0.1,0.00046344,4631.2,0.00046692,4741.7,-0.00013362,229.46,-0.00016416,-0.0096726,0.15641
6222,5.3272,4.7273,0.1,0.00046547,4651.5,0.00046862,4750.5,-0.00013637,204.94,-0.00016365,-0.016342,0.15566
6223,5.3272,4.9091,0.1,0.00046765,4673.3,0.00047043,4760,-0.00013932,178.59,-0.00016309,-0.024892,0.15482
6224,5.3272,5.0909,0.1,0.00046997,4696.5,0.00047235,4770,-0.00014244,150.65,-0.0001625,-0.034653,0.15389
6225,5.3272,5.2727,0.1,0.00047241,4720.8,0.00047436,4780.3,-0.00014571,121.38,-0.00016187,-0.05337,0.15286
6226,5.3272,5.4545,0.1,0.00047494,4746.2,0.00047643,4791,-0.0001491,91.028,-0.00016122,-0.060251,0.15174
6227,5.3272,5.6364,0.1,0.00047756,4772.3,0.00047854,4801.8,-0.00015258,59.759,-0.00016056,-0.19635,0.15052
6228,5.3272,5.8182,0.1,0.00048025,4799.2,0.00048071,4812.9,-0.00015615,27.739,-0.00015987,-0.20632,0.14919
6229,5.5109,0.18182,0.1,0.00047422,4738.9,0.00047464,4751.5,-0.00015435,25.484,-0.00015777,-0.18583,0.15972
6230,5.5109,0.36364,0.1,0.00047172,4714,0.00047263,4741.1,-0.00015105,55.046,-0.0001584,-0.17922,0.16104
6231,5.5109,0.54545,0.1,0.0004693,4689.8,0.00047067,4731.1,-0.00014784,83.88,-0.00015901,-0.054627,0.16227
6232,5.5109,0.72727,0.1,0.00046696,4666.3,0.00046876,4721.2,-0.00014471,111.84,-0.00015961,-0.048633,0.16339
6233,5.5109,0.90909,0.1,0.0004647,4643.8,0.0004669,4711.6,-0.0001417,138.79,-0.00016018,-0.031608,0.16442
6234,5.5109,1.0909,0.1,0.00046255,4622.3,0.00046513,4702.4,-0.00013882,164.48,-0.00016072,-0.022764,0.16536
6235,5.5109,1.2727,0.1,0.00046053,4602.2,0.00046345,4693.6,-0.00013611,188.7,-0.00016123,-0.014996,0.1662
6236,5.5109,1.4545,0.1,0.00045866,4583.4,0.00046189,4685.4,-0.00013359,211.23,-0.0001617,-0.0089336,0.16696
6237,5.5109,1.6364,0.1,0.00045695,4566.3,0.00046045,4677.8,-0.00013127,231.85,-0.00016213,-0.0038604,0.16762
6238,5.5109,1.8182,0.1,0.00045541,4551,0.00045915,4671,-0.00012919,250.37,-0.00016252,0.00034661,0.1682
6239,5.5109,2,0.1,0.00045407,4537.5,0.00045801,4665,-0.00012737,266.61,-0.00016285,0.0038337,0.16869
6240,5.5109,2.1818,0.1,0.00045293,4526.1,0.00045705,4659.8,-0.00012582,280.4,-0.00016314,0.0066715,0.1691
6241,5.5109,2.3636,0.1,0.000452,4516.9,0.00045626,4655.7,-0.00012456,291.62,-0.00016337,0.0089044,0.16943
6242,5.5109,2.5455,0.1,0.0004513,4509.9,0.00045566,4652.5,-0.0001236,300.13,-0.00016355,0.010559,0.16967
6243,5.5109,2.7273,0.1,0.00045083,4505.2,0.00045525,4650.3,-0.00012296,305.85,-0.00016367,0.011656,0.16984
6244,5.5109,2.9091,0.1,0.00045059,4502.8,0.00045505,4649.2,-0.00012264,308.73,-0.00016373,0.012202,0.16992
6245,5.5109,3.0909,0.1,0.00045059,4502.8,0.00045505,4649.2,-0.00012264,308.73,-0.00016373,0.012202,0.16992
6246,5.5109,3.2727,0.1,0.00045083,4505.2,0.00045525,4650.3,-0.00012296,305.85,-0.00016367,0.011656,0.16984
6247,5.5109,3.4545,0.1,0.0004513,4509.9,0.00045566,4652.5,-0.0001236,300.13,-0.00016355,0.01056,0.16967
6248,5.5109,3.6364,0.1,0.000452,4516.9,0.00045626,4655.7,-0.00012456,291.62,-0.00016337,0.0089046,0.16943
6249,5.5109,3.8182,0.1,0.00045293,4526.1,0.00045705,4659.8,-0.00012582,280.4,-0.00016314,0.0066718,0.1691
6250,5.5109,4,0.1,0.00045407,4537.5,0.00045801,4665,-0.00012737,266.61,-0.00016285,0.0038341,0.16869
6251,5.5109,4.1818,0.1,0.00045541,4551,0.00045915,4671,-0.00012919,250.37,-0.00016252,0.00034717,0.1682
6252,5.5109,4.3636,0.1,0.00045695,4566.3,0.00046045,4677.8,-0.00013127,231.85,-0.00016213,-0.0038598,0.16762
6253,5.5109,4.5455,0.1,0.00045866,4583.4,0.00046189,4685.4,-0.00013359,211.23,-0.0001617,-0.0089328,0.16696
6254,5.5109,4.7273,0.1,0.00046053,4602.2,0.00046345,4693.6,-0.00013611,188.7,-0.00016123,-0.014996,0.1662
6255,5.5109,4.9091,0.1,0.00046255,4622.3,0.00046513,4702.4,-0.00013882,164.48,-0.00016072,-0.022764,0.16536
6256,5.5109,5.0909,0.1,0.0004647,4643.8,0.0004669,4711.6,-0.0001417,138.79,-0.00016018,-0.031607,0.16442
6257,5.5109,5.2727,0.1,0.00046696,4666.3,0.00046876,4721.2,-0.00014471,111.84,-0.00015961,-0.048633,0.16339
6258,5.5109,5.4545,0.1,0.0004693,4689.8,0.00047067,4731.1,-0.00014784,83.88,-0.00015901,-0.054627,0.16227
6259,5.5109,5.6364,0.1,0.00047172,4714,0.00047263,4741.1,-0.00015105,55.046,-0.0001584,-0.17922,0.16104
6260,5.5109,5.8182,0.1,0.00047422,4738.9,0.00047464,4751.5,-0.00015435,25.484,-0.00015777,-0.18583,0.15972
6261,5.6946,0.18182,0.1,0.00046824,4679.2,0.00046863,4690.7,-0.00015256,23.287,-0.00015569,-0.16846,0.17057
6262,5.6946,0.36364,0.1,0.00046592,4656,0.00046676,4681,-0.00014951,50.584,-0.00015627,-0.16357,0.17189
6263,5.6946,0.54545,0.1,0.00046368,4633.6,0.00046495,4671.7,-0.00014655,77.167,-0.00015683,-0.04953,0.17311
6264,5.6946,0.72727,0.1,0.00046151,4611.9,0.00046318,4662.5,-0.00014367,102.93,-0.00015737,-0.04432,0.17424
6265,5.6946,0.90909,0.1,0.00045943,4591.1,0.00046147,4653.6,-0.00014089,127.73,-0.0001579,-0.028845,0.17527
6266,5.6946,1.0909,0.1,0.00045744,4571.3,0.00045983,4645,-0.00013824,151.36,-0.00015839,-0.020839,0.17621
6267,5.6946,1.2727,0.1,0.00045557,4552.6,0.00045828,4636.9,-0.00013575,173.62,-0.00015886,-0.013788,0.17705
6268,5.6946,1.4545,0.1,0.00045384,4535.3,0.00045683,4629.3,-0.00013343,194.31,-0.00015929,-0.0082829,0.17781
6269,5.6946,1.6364,0.1,0.00045226,4519.5,0.00045551,4622.3,-0.0001313,213.24,-0.00015968,-0.0036713,0.17848
6270,5.6946,1.8182,0.1,0.00045084,4505.3,0.00045431,4616,-0.00012939,230.24,-0.00016004,0.00015597,0.17906
6271,5.6946,2,0.1,0.0004496,4492.9,0.00045326,4610.4,-0.00012772,245.13,-0.00016034,0.0033313,0.17956
6272,5.6946,2.1818,0.1,0.00044854,4482.3,0.00045237,4605.7,-0.0001263,257.77,-0.0001606,0.0059174,0.17997
6273,5.6946,2.3636,0.1,0.00044769,4473.8,0.00045165,4601.8,-0.00012514,268.05,-0.00016082,0.0079541,0.1803
6274,5.6946,2.5455,0.1,0.00044704,4467.3,0.00045109,4598.9,-0.00012426,275.85,-0.00016098,0.0094643,0.18054
6275,5.6946,2.7273,0.1,0.00044661,4463,0.00045072,4596.9,-0.00012367,281.09,-0.00016108,0.010466,0.1807
6276,5.6946,2.9091,0.1,0.00044639,4460.8,0.00045054,4595.9,-0.00012338,283.73,-0.00016114,0.010965,0.18079
6277,5.6946,3.0909,0.1,0.00044639,4460.8,0.00045054,4595.9,-0.00012338,283.73,-0.00016114,0.010965,0.18079
6278,5.6946,3.2727,0.1,0.00044661,4463,0.00045072,4596.9,-0.00012367,281.09,-0.00016108,0.010466,0.1807
6279,5.6946,3.4545,0.1,0.00044704,4467.3,0.00045109,4598.9,-0.00012426,275.85,-0.00016098,0.0094645,0.18054
6280,5.6946,3.6364,0.1,0.00044769,4473.8,0.00045165,4601.8,-0.00012514,268.05,-0.00016082,0.0079543,0.1803
6281,5.6946,3.8182,0.1,0.00044854,4482.3,0.00045237,4605.7,-0.0001263,257.77,-0.0001606,0.0059177,0.17997
6282,5.6946,4,0.1,0.0004496,4492.9,0.00045326,4610.4,-0.00012772,245.13,-0.00016034,0.0033316,0.17956
6283,5.6946,4.1818,0.1,0.00045084,4505.3,0.00045431,4616,-0.00012939,230.24,-0.00016004,0.00015664,0.17906
6284,5.6946,4.3636,0.1,0.00045226,4519.5,0.00045551,4622.3,-0.0001313,213.24,-0.00015968,-0.0036709,0.17848
6285,5.6946,4.5455,0.1,0.00045384,4535.3,0.00045683,4629.3,-0.00013343,194.31,-0.00015929,-0.0082822,0.17781
6286,5.6946,4.7273,0.1,0.00045557,4552.6,0.00045828,4636.9,-0.00013575,173.62,-0.00015886,-0.013787,0.17705
6287,5.6946,4.9091,0.1,0.00045744,4571.3,0.00045983,4645,-0.00013824,151.36,-0.00015839,-0.020838,0.17621
6288,5.6946,5.0909,0.1,0.00045943,4591.1,0.00046147,4653.6,-0.00014089,127.73,-0.0001579,-0.028844,0.17527
6289,5.6946,5.2727,0.1,0.00046151,4611.9,0.00046318,4662.5,-0.00014367,102.93,-0.00015737,-0.044319,0.17424
6290,5.6946,5.4545,0.1,0.00046368,4633.6,0.00046495,4671.7,-0.00014655,77.167,-0.00015683,-0.04953,0.17311
6291,5.6946,5.6364,0.1,0.00046592,4656,0.00046676,4681,-0.00014951,50.584,-0.00015627,-0.16357,0.17189
6292,5.6946,5.8182,0.1,0.00046824,4679.2,0.00046863,4690.7,-0.00015256,23.287,-0.00015569,-0.16846,0.17057
6293,5.8783,0.18182,0.1,0.00046231,4620,0.00046267,4630.4,-0.00015079,21.157,-0.00015362,-0.15376,0.18173
6294,5.8783,0.36364,0.1,0.00046017,4598.5,0.00046093,4621.4,-0.00014797,46.367,-0.00015416,-0.14926,0.18305
6295,5.8783,0.54545,0.1,0.00045809,4577.8,0.00045926,4612.8,-0.00014523,70.87,-0.00015467,-0.044909,0.18427
6296,5.8783,0.72727,0.1,0.00045608,4557.7,0.00045762,4604.2,-0.00014258,94.595,-0.00015517,-0.040392,0.1854
6297,5.8783,0.90909,0.1,0.00045415,4538.4,0.00045604,4596,-0.00014002,117.42,-0.00015565,-0.026339,0.18643
6298,5.8783,1.0909,0.1,0.00045232,4520.1,0.00045452,4588,-0.00013758,139.16,-0.00015611,-0.0191,0.18737
6299,5.8783,1.2727,0.1,0.00045059,4502.8,0.00045309,4580.5,-0.00013529,159.62,-0.00015653,-0.012707,0.18821
6300,5.8783,1.4545,0.1,0.00044899,4486.8,0.00045176,4573.4,-0.00013315,178.62,-0.00015693,-0.0077146,0.18897
6301,5.8783,1.6364,0.1,0.00044753,4472.2,0.00045054,4567,-0.0001312,196,-0.00015729,-0.003528,0.18964
6302,5.8783,1.8182,0.1,0.00044622,4459.1,0.00044944,4561.1,-0.00012945,211.59,-0.00015761,-5.0673e-05,0.19022
6303,5.8783,2,0.1,0.00044507,4447.6,0.00044847,4556,-0.00012791,225.25,-0.00015789,0.0028365,0.19072
6304,5.8783,2.1818,0.1,0.0004441,4437.9,0.00044765,4551.6,-0.00012661,236.84,-0.00015813,0.0051896,0.19114
6305,5.8783,2.3636,0.1,0.00044331,4430,0.00044698,4548,-0.00012555,246.26,-0.00015832,0.007044,0.19147
6306,5.8783,2.5455,0.1,0.00044271,4424,0.00044648,4545.3,-0.00012474,253.41,-0.00015847,0.0084199,0.19171
6307,5.8783,2.7273,0.1,0.00044231,4420,0.00044613,4543.5,-0.0001242,258.21,-0.00015856,0.0093323,0.19188
6308,5.8783,2.9091,0.1,0.00044211,4418,0.00044596,4542.6,-0.00012393,260.62,-0.00015861,0.0097875,0.19196
6309,5.8783,3.0909,0.1,0.00044211,4418,0.00044596,4542.6,-0.00012393,260.62,-0.00015861,0.0097875,0.19196
6310,5.8783,3.2727,0.1,0.00044231,4420,0.00044613,4543.5,-0.0001242,258.21,-0.00015856,0.0093325,0.19188
6311,5.8783,3.4545,0.1,0.00044271,4424,0.00044648,4545.3,-0.00012474,253.41,-0.00015847,0.00842,0.19171
6312,5.8783,3.6364,0.1,0.00044331,4430,0.00044698,4548,-0.00012555,246.26,-0.00015832,0.0070443,0.19147
6313,5.8783,3.8182,0.1,0.0004441,4437.9,0.00044765,4551.6,-0.00012661,236.84,-0.00015813,0.00519,0.19114
6314,5.8783,4,0.1,0.00044507,4447.6,0.00044847,4556,-0.00012791,225.25,-0.00015789,0.0028368,0.19072
6315,5.8783,4.1818,0.1,0.00044622,4459.1,0.00044944,4561.1,-0.00012945,211.59,-0.00015761,-5.0264e-05,0.19022
6316,5.8783,4.3636,0.1,0.00044753,4472.2,0.00045054,4567,-0.0001312,196,-0.00015729,-0.0035274,0.18964
6317,5.8783,4.5455,0.1,0.00044899,4486.8,0.00045176,4573.4,-0.00013315,178.62,-0.00015693,-0.0077138,0.18897
6318,5.8783,4.7273,0.1,0.00045059,4502.8,0.00045309,4580.5,-0.00013529,159.62,-0.00015653,-0.012707,0.18821
6319,5.8783,4.9091,0.1,0.00045232,4520.1,0.00045452,4588,-0.00013758,139.16,-0.00015611,-0.019099,0.18737
6320,5.8783,5.0909,0.1,0.00045415,4538.4,0.00045604,4596,-0.00014002,117.42,-0.00015565,-0.026338,0.18643
6321,5.8783,5.2727,0.1,0.00045608,4557.7,0.00045762,4604.2,-0.00014258,94.595,-0.00015517,-0.040391,0.1854
6322,5.8783,5.4545,0.1,0.00045809,4577.8,0.00045926,4612.8,-0.00014523,70.87,-0.00015467,-0.044909,0.18427
6323,5.8783,5.6364,0.1,0.00046017,4598.5,0.00046093,4621.4,-0.00014797,46.367,-0.00015416,-0.14926,0.18305
6324,5.8783,5.8182,0.1,0.00046231,4620,0.00046267,4630.4,-0.00015079,21.157,-0.00015362,-0.15376,0.18173
6325,6.062,0.18182,0.1,0.00045644,4561.2,0.00045676,4570.7,-0.00014902,19.102,-0.00015158,-0.1414,0.19321
6326,6.062,0.36364,0.1,0.00045444,4541.3,0.00045515,4562.3,-0.00014641,42.387,-0.00015207,-0.13616,0.19452
6327,6.062,0.54545,0.1,0.00045252,4522.1,0.00045359,4554.2,-0.00014389,64.969,-0.00015254,-0.040706,0.19574
6328,6.062,0.72727,0.1,0.00045067,4503.6,0.00045208,4546.3,-0.00014144,86.816,-0.000153,-0.036804,0.19686
6329,6.062,0.90909,0.1,0.00044888,4485.7,0.00045062,4538.6,-0.00013909,107.82,-0.00015344,-0.024055,0.19789
6330,6.062,1.0909,0.1,0.00044718,4468.8,0.00044922,4531.3,-0.00013685,127.81,-0.00015386,-0.017519,0.19883
6331,6.062,1.2727,0.1,0.00044559,4452.8,0.0004479,4524.3,-0.00013473,146.62,-0.00015425,-0.011731,0.19968
6332,6.062,1.4545,0.1,0.00044411,4438,0.00044667,4517.8,-0.00013277,164.07,-0.00015461,-0.0072092,0.20044
6333,6.062,1.6364,0.1,0.00044276,4424.5,0.00044555,4511.8,-0.00013098,180.03,-0.00015494,-0.0034138,0.20111
6334,6.062,1.8182,0.1,0.00044155,4412.4,0.00044453,4506.4,-0.00012937,194.33,-0.00015523,-0.0002591,0.20169
6335,6.062,2,0.1,0.00044049,4401.9,0.00044364,4501.6,-0.00012796,206.86,-0.00015549,0.002362,0.20219
6336,6.062,2.1818,0.1,0.00043959,4392.9,0.00044289,4497.6,-0.00012676,217.49,-0.0001557,0.0044999,0.20261
6337,6.062,2.3636,0.1,0.00043886,4385.6,0.00044227,4494.3,-0.00012579,226.12,-0.00015588,0.0061857,0.20294
6338,6.062,2.5455,0.1,0.00043831,4380.1,0.00044181,4491.8,-0.00012505,232.67,-0.00015601,0.0074366,0.20318
6339,6.062,2.7273,0.1,0.00043794,4376.4,0.00044149,4490.1,-0.00012455,237.07,-0.0001561,0.0082669,0.20335
6340,6.062,2.9091,0.1,0.00043775,4374.5,0.00044133,4489.3,-0.0001243,239.28,-0.00015615,0.0086812,0.20343
6341,6.062,3.0909,0.1,0.00043775,4374.5,0.00044133,4489.3,-0.0001243,239.28,-0.00015615,0.0086811,0.20343
6342,6.062,3.2727,0.1,0.00043794,4376.4,0.00044149,4490.1,-0.00012455,237.07,-0.0001561,0.0082671,0.20335
6343,6.062,3.4545,0.1,0.00043831,4380.1,0.00044181,4491.8,-0.00012505,232.67,-0.00015601,0.0074369,0.20318
6344,6.062,3.6364,0.1,0.00043886,4385.6,0.00044227,4494.3,-0.00012579,226.12,-0.00015588,0.006186,0.20294
6345,6.062,3.8182,0.1,0.00043959,4392.9,0.00044289,4497.6,-0.00012676,217.49,-0.0001557,0.0045003,0.20261
6346,6.062,4,0.1,0.00044049,4401.9,0.00044364,4501.6,-0.00012796,206.86,-0.00015549,0.0023624,0.20219
6347,6.062,4.1818,0.1,0.00044155,4412.4,0.00044453,4506.4,-0.00012937,194.33,-0.00015523,-0.00025857,0.20169
6348,6.062,4.3636,0.1,0.00044276,4424.5,0.00044555,4511.8,-0.00013098,180.03,-0.00015494,-0.0034133,0.20111
6349,6.062,4.5455,0.1,0.00044411,4438,0.00044667,4517.8,-0.00013277,164.07,-0.00015461,-0.0072087,0.20044
6350,6.062,4.7273,0.1,0.00044559,4452.8,0.0004479,4524.3,-0.00013473,146.62,-0.00015425,-0.01173,0.19968
6351,6.062,4.9091,0.1,0.00044718,4468.8,0.00044922,4531.3,-0.00013685,127.81,-0.00015386,-0.017518,0.19883
6352,6.062,5.0909,0.1,0.00044888,4485.7,0.00045062,4538.6,-0.00013909,107.82,-0.00015344,-0.024054,0.19789
6353,6.062,5.2727,0.1,0.00045067,4503.6,0.00045208,4546.3,-0.00014144,86.816,-0.000153,-0.036803,0.19686
6354,6.062,5.4545,0.1,0.00045252,4522.1,0.00045359,4554.2,-0.00014389,64.969,-0.00015254,-0.040706,0.19574
6355,6.062,5.6364,0.1,0.00045444,4541.3,0.00045515,4562.3,-0.00014641,42.387,-0.00015207,-0.13616,0.19452
6356,6.062,5.8182,0.1,0.00045644,4561.2,0.00045676,4570.7,-0.00014902,19.102,-0.00015158,-0.1414,0.19321
6357,6.2457,0.18182,0.1,0.00045061,4503,0.0004509,4511.5,-0.00014726,17.125,-0.00014956,-0.13111,0.20499
6358,6.2457,0.36364,0.1,0.00044876,4484.5,0.0004494,4503.6,-0.00014485,38.637,-0.00015001,-0.12415,0.2063
6359,6.2457,0.54545,0.1,0.00044698,4466.7,0.00044796,4496.1,-0.00014252,59.442,-0.00015044,-0.036881,0.20752
6360,6.2457,0.72727,0.1,0.00044526,4449.5,0.00044656,4488.8,-0.00014027,79.556,-0.00015086,-0.033526,0.20864
6361,6.2457,0.90909,0.1,0.00044361,4433.1,0.00044521,4481.7,-0.0001381,98.885,-0.00015126,-0.021976,0.20966
6362,6.2457,1.0909,0.1,0.00044204,4417.4,0.00044392,4474.8,-0.00013604,117.27,-0.00015165,-0.016084,0.2106
6363,6.2457,1.2727,0.1,0.00044057,4402.7,0.0004427,4468.4,-0.00013409,134.55,-0.000152,-0.010852,0.21145
6364,6.2457,1.4545,0.1,0.0004392,4389,0.00044157,4462.4,-0.00013229,150.58,-0.00015233,-0.0067629,0.21221
6365,6.2457,1.6364,0.1,0.00043796,4376.5,0.00044053,4456.8,-0.00013064,165.23,-0.00015263,-0.0033273,0.21288
6366,6.2457,1.8182,0.1,0.00043684,4365.4,0.0004396,4451.8,-0.00012916,178.35,-0.0001529,-0.00046963,0.21346
6367,6.2457,2,0.1,0.00043586,4355.6,0.00043878,4447.4,-0.00012787,189.84,-0.00015314,0.0019064,0.21396
6368,6.2457,2.1818,0.1,0.00043503,4347.3,0.00043808,4443.7,-0.00012677,199.59,-0.00015333,0.0038457,0.21438
6369,6.2457,2.3636,0.1,0.00043436,4340.6,0.00043752,4440.6,-0.00012588,207.5,-0.00015349,0.0053754,0.21471
6370,6.2457,2.5455,0.1,0.00043385,4335.5,0.00043709,4438.3,-0.0001252,213.5,-0.00015362,0.0065111,0.21495
6371,6.2457,2.7273,0.1,0.00043351,4332.1,0.0004368,4436.8,-0.00012475,217.54,-0.0001537,0.0072652,0.21512
6372,6.2457,2.9091,0.1,0.00043334,4330.4,0.00043665,4436,-0.00012452,219.56,-0.00015374,0.0076416,0.2152
6373,6.2457,3.0909,0.1,0.00043334,4330.4,0.00043665,4436,-0.00012452,219.56,-0.00015374,0.0076413,0.2152
6374,6.2457,3.2727,0.1,0.00043351,4332.1,0.0004368,4436.8,-0.00012475,217.54,-0.0001537,0.0072652,0.21512
6375,6.2457,3.4545,0.1,0.00043385,4335.5,0.00043709,4438.3,-0.0001252,213.5,-0.00015362,0.0065114,0.21495
6376,6.2457,3.6364,0.1,0.00043436,4340.6,0.00043752,4440.6,-0.00012588,207.5,-0.00015349,0.0053758,0.21471
6377,6.2457,3.8182,0.1,0.00043503,4347.3,0.00043808,4443.7,-0.00012677,199.59,-0.00015333,0.0038461,0.21438
6378,6.2457,4,0.1,0.00043586,4355.6,0.00043878,4447.4,-0.00012787,189.84,-0.00015314,0.0019067,0.21396
6379,6.2457,4.1818,0.1,0.00043684,4365.4,0.0004396,4451.8,-0.00012916,178.35,-0.0001529,-0.00046908,0.21346
6380,6.2457,4.3636,0.1,0.00043796,4376.5,0.00044053,4456.8,-0.00013064,165.23,-0.00015263,-0.0033266,0.21288
6381,6.2457,4.5455,0.1,0.0004392,4389,0.00044157,4462.4,-0.00013229,150.58,-0.00015233,-0.0067622,0.21221
6382,6.2457,4.7273,0.1,0.00044057,4402.7,0.0004427,4468.4,-0.00013409,134.55,-0.000152,-0.010851,0.21145
6383,6.2457,4.9091,0.1,0.00044204,4417.4,0.00044392,4474.8,-0.00013604,117.27,-0.00015165,-0.016083,0.2106
6384,6.2457,5.0909,0.1,0.00044361,4433.1,0.00044521,4481.7,-0.0001381,98.885,-0.00015126,-0.021975,0.20966
6385,6.2457,5.2727,0.1,0.00044526,4449.5,0.00044656,4488.8,-0.00014027,79.556,-0.00015086,-0.033526,0.20864
6386,6.2457,5.4545,0.1,0.00044698,4466.7,0.00044796,4496.1,-0.00014252,59.442,-0.00015044,-0.036881,0.20752
6387,6.2457,5.6364,0.1,0.00044876,4484.5,0.0004494,4503.6,-0.00014485,38.637,-0.00015001,-0.12415,0.2063
6388,6.2457,5.8182,0.1,0.00045061,4503,0.0004509,4511.5,-0.00014726,17.125,-0.00014956,-0.13111,0.20499
6389,6.4293,0.18182,0.1,0.00044483,4445.2,0.00044508,4452.7,-0.00014551,15.231,-0.00014756,-0.1227,0.21708
6390,6.4293,0.36364,0.1,0.0004431,4428,0.00044369,4445.4,-0.00014328,35.107,-0.00014797,-0.11314,0.21838
6391,6.4293,0.54545,0.1,0.00044146,4411.5,0.00044236,4438.4,-0.00014114,54.271,-0.00014836,-0.033398,0.21959
6392,6.4293,0.72727,0.1,0.00043987,4395.7,0.00044106,4431.6,-0.00013906,72.784,-0.00014875,-0.030533,0.22071
6393,6.4293,0.90909,0.1,0.00043834,4380.4,0.00043981,4425,-0.00013706,90.564,-0.00014912,-0.020084,0.22174
6394,6.4293,1.0909,0.1,0.0004369,4365.9,0.00043862,4418.7,-0.00013516,107.46,-0.00014947,-0.014783,0.22267
6395,6.4293,1.2727,0.1,0.00043553,4352.3,0.0004375,4412.7,-0.00013338,123.34,-0.00014979,-0.010062,0.22352
6396,6.4293,1.4545,0.1,0.00043427,4339.7,0.00043646,4407.1,-0.00013172,138.07,-0.0001501,-0.0063712,0.22427
6397,6.4293,1.6364,0.1,0.00043312,4328.2,0.0004355,4402,-0.0001302,151.51,-0.00015037,-0.0032664,0.22494
6398,6.4293,1.8182,0.1,0.00043209,4317.9,0.00043464,4397.4,-0.00012885,163.56,-0.00015061,-0.00068239,0.22553
6399,6.4293,2,0.1,0.00043119,4308.9,0.00043389,4393.3,-0.00012766,174.1,-0.00015083,0.0014677,0.22603
6400,6.4293,2.1818,0.1,0.00043042,4301.3,0.00043324,4389.9,-0.00012665,183.04,-0.00015101,0.0032237,0.22644
6401,6.4293,2.3636,0.1,0.0004298,4295.1,0.00043272,4387.1,-0.00012583,190.29,-0.00015116,0.0046099,0.22677
6402,6.4293,2.5455,0.1,0.00042933,4290.4,0.00043233,4384.9,-0.00012521,195.79,-0.00015127,0.0056393,0.22702
6403,6.4293,2.7273,0.1,0.00042902,4287.2,0.00043206,4383.5,-0.00012479,199.48,-0.00015134,0.0063228,0.22718
6404,6.4293,2.9091,0.1,0.00042886,4285.6,0.00043193,4382.8,-0.00012458,201.34,-0.00015138,0.0066641,0.22727
6405,6.4293,3.0909,0.1,0.00042886,4285.6,0.00043193,4382.8,-0.00012458,201.34,-0.00015138,0.0066641,0.22727
6406,6.4293,3.2727,0.1,0.00042902,4287.2,0.00043206,4383.5,-0.00012479,199.48,-0.00015134,0.006323,0.22718
6407,6.4293,3.4545,0.1,0.00042933,4290.4,0.00043233,4384.9,-0.00012521,195.79,-0.00015127,0.0056393,0.22702
6408,6.4293,3.6364,0.1,0.0004298,4295.1,0.00043272,4387.1,-0.00012583,190.29,-0.00015116,0.0046103,0.22677
6409,6.4293,3.8182,0.1,0.00043042,4301.3,0.00043324,4389.9,-0.00012665,183.04,-0.00015101,0.0032243,0.22644
6410,6.4293,4,0.1,0.00043119,4308.9,0.00043389,4393.3,-0.00012766,174.1,-0.00015083,0.0014682,0.22603
6411,6.4293,4.1818,0.1,0.00043209,4317.9,0.00043464,4397.4,-0.00012885,163.56,-0.00015061,-0.00068181,0.22553
6412,6.4293,4.3636,0.1,0.00043312,4328.2,0.0004355,4402,-0.0001302,151.51,-0.00015037,-0.003266,0.22494
6413,6.4293,4.5455,0.1,0.00043427,4339.7,0.00043646,4407.1,-0.00013172,138.07,-0.0001501,-0.0063704,0.22427
6414,6.4293,4.7273,0.1,0.00043553,4352.3,0.0004375,4412.7,-0.00013338,123.34,-0.00014979,-0.010061,0.22352
6415,6.4293,4.9091,0.1,0.0004369,4365.9,0.00043862,4418.7,-0.00013516,107.46,-0.00014947,-0.014782,0.22267
6416,6.4293,5.0909,0.1,0.00043834,4380.4,0.00043981,4425,-0.00013706,90.564,-0.00014912,-0.020082,0.22174
6417,6.4293,5.2727,0.1,0.00043987,4395.7,0.00044106,4431.6,-0.00013906,72.784,-0.00014875,-0.030532,0.22071
6418,6.4293,5.4545,0.1,0.00044146,4411.5,0.00044236,4438.4,-0.00014114,54.271,-0.00014836,-0.033398,0.21959
6419,6.4293,5.6364,0.1,0.0004431,4428,0.00044369,4445.4,-0.00014328,35.107,-0.00014797,-0.11314,0.21838
6420,6.4293,5.8182,0.1,0.00044483,4445.2,0.00044508,4452.7,-0.00014551,15.231,-0.00014756,-0.1227,0.21708
6421,6.613,0.18182,0.1,0.00043909,4387.8,0.00043931,4394.5,-0.00014377,13.421,-0.00014557,-0.11607,0.22946
6422,6.613,0.36364,0.1,0.00043748,4371.8,0.00043801,4387.5,-0.0001417,31.789,-0.00014595,-0.10304,0.23076
6423,6.613,0.54545,0.1,0.00043596,4356.6,0.00043678,4381.1,-0.00013973,49.434,-0.00014631,-0.030225,0.23197
6424,6.613,0.72727,0.1,0.00043449,4341.9,0.00043558,4374.7,-0.00013781,66.469,-0.00014666,-0.027797,0.23308
6425,6.613,0.90909,0.1,0.00043308,4327.8,0.00043443,4368.6,-0.00013598,82.821,-0.000147,-0.018361,0.2341
6426,6.613,1.0909,0.1,0.00043174,4314.4,0.00043333,4362.8,-0.00013423,98.354,-0.00014732,-0.013603,0.23504
6427,6.613,1.2727,0.1,0.00043048,4301.9,0.00043229,4357.2,-0.00013259,112.94,-0.00014762,-0.0093522,0.23588
6428,6.613,1.4545,0.1,0.00042932,4290.2,0.00043133,4352.1,-0.00013106,126.46,-0.00014789,-0.0060278,0.23663
6429,6.613,1.6364,0.1,0.00042826,4279.6,0.00043045,4347.3,-0.00012967,138.81,-0.00014814,-0.0032277,0.2373
6430,6.613,1.8182,0.1,0.00042731,4270.1,0.00042966,4343.1,-0.00012842,149.86,-0.00014837,-0.00089511,0.23789
6431,6.613,2,0.1,0.00042647,4261.8,0.00042896,4339.3,-0.00012733,159.52,-0.00014856,0.0010469,0.23838
6432,6.613,2.1818,0.1,0.00042577,4254.7,0.00042837,4336.1,-0.00012641,167.72,-0.00014873,0.0026343,0.2388
6433,6.613,2.3636,0.1,0.0004252,4249,0.00042789,4333.5,-0.00012566,174.37,-0.00014886,0.0038879,0.23913
6434,6.613,2.5455,0.1,0.00042476,4244.7,0.00042753,4331.6,-0.00012509,179.41,-0.00014896,0.004819,0.23938
6435,6.613,2.7273,0.1,0.00042447,4241.8,0.00042729,4330.2,-0.0001247,182.8,-0.00014903,0.0054377,0.23954
6436,6.613,2.9091,0.1,0.00042433,4240.3,0.00042716,4329.6,-0.00012451,184.5,-0.00014907,0.0057467,0.23962
6437,6.613,3.0909,0.1,0.00042433,4240.3,0.00042716,4329.6,-0.00012451,184.5,-0.00014907,0.0057468,0.23962
6438,6.613,3.2727,0.1,0.00042447,4241.8,0.00042729,4330.2,-0.0001247,182.8,-0.00014903,0.0054379,0.23954
6439,6.613,3.4545,0.1,0.00042476,4244.7,0.00042753,4331.6,-0.00012509,179.41,-0.00014896,0.0048192,0.23938
6440,6.613,3.6364,0.1,0.0004252,4249,0.00042789,4333.5,-0.00012566,174.37,-0.00014886,0.0038882,0.23913
6441,6.613,3.8182,0.1,0.00042577,4254.7,0.00042837,4336.1,-0.00012641,167.72,-0.00014873,0.0026346,0.2388
6442,6.613,4,0.1,0.00042647,4261.8,0.00042896,4339.3,-0.00012733,159.52,-0.00014856,0.0010474,0.23838
6443,6.613,4.1818,0.1,0.00042731,4270.1,0.00042966,4343.1,-0.00012842,149.86,-0.00014837,-0.00089488,0.23789
6444,6.613,4.3636,0.1,0.00042826,4279.6,0.00043045,4347.3,-0.00012967,138.81,-0.00014814,-0.0032271,0.2373
6445,6.613,4.5455,0.1,0.00042932,4290.2,0.00043133,4352.1,-0.00013106,126.46,-0.00014789,-0.006027,0.23663
6446,6.613,4.7273,0.1,0.00043048,4301.9,0.00043229,4357.2,-0.00013259,112.94,-0.00014762,-0.0093513,0.23588
6447,6.613,4.9091,0.1,0.00043174,4314.4,0.00043333,4362.8,-0.00013423,98.354,-0.00014732,-0.013603,0.23504
6448,6.613,5.0909,0.1,0.00043308,4327.8,0.00043443,4368.6,-0.00013598,82.821,-0.000147,-0.018359,0.2341
6449,6.613,5.2727,0.1,0.00043449,4341.9,0.00043558,4374.7,-0.00013781,66.469,-0.00014666,-0.027796,0.23308
6450,6.613,5.4545,0.1,0.00043596,4356.6,0.00043678,4381.1,-0.00013973,49.434,-0.00014631,-0.030225,0.23197
6451,6.613,5.6364,0.1,0.00043748,4371.8,0.00043801,4387.5,-0.0001417,31.789,-0.00014595,-0.10304,0.23076
6452,6.613,5.8182,0.1,0.00043909,4387.8,0.00043931,4394.5,-0.00014377,13.421,-0.00014557,-0.11607,0.22946
6453,6.7967,0.18182,0.1,0.00043338,4330.8,0.00043358,4336.6,-0.00014203,11.696,-0.0001436,-0.11117,0.24215
6454,6.7967,0.36364,0.1,0.00043189,4315.9,0.00043237,4330.1,-0.00014012,28.671,-0.00014395,-0.093763,0.24344
6455,6.7967,0.54545,0.1,0.00043048,4301.8,0.00043123,4324.1,-0.0001383,44.913,-0.00014428,-0.027328,0.24464
6456,6.7967,0.72727,0.1,0.00042912,4288.3,0.00043012,4318.2,-0.00013654,60.583,-0.0001446,-0.025292,0.24575
6457,6.7967,0.90909,0.1,0.00042782,4275.3,0.00042906,4312.5,-0.00013485,75.616,-0.00014491,-0.016789,0.24676
6458,6.7967,1.0909,0.1,0.00042658,4262.9,0.00042804,4307.1,-0.00013324,89.889,-0.0001452,-0.012531,0.24769
6459,6.7967,1.2727,0.1,0.00042542,4251.3,0.00042709,4302,-0.00013173,103.29,-0.00014548,-0.0087119,0.24853
6460,6.7967,1.4545,0.1,0.00042435,4240.5,0.0004262,4297.2,-0.00013033,115.7,-0.00014573,-0.0057247,0.24929
6461,6.7967,1.6364,0.1,0.00042337,4230.7,0.00042538,4292.8,-0.00012905,127.03,-0.00014596,-0.003205,0.24995
6462,6.7967,1.8182,0.1,0.00042249,4222,0.00042466,4288.9,-0.0001279,137.17,-0.00014616,-0.001104,0.25053
6463,6.7967,2,0.1,0.00042172,4214.3,0.00042402,4285.4,-0.0001269,146.03,-0.00014634,0.00064673,0.25103
6464,6.7967,2.1818,0.1,0.00042107,4207.8,0.00042347,4282.5,-0.00012605,153.55,-0.00014649,0.0020787,0.25145
6465,6.7967,2.3636,0.1,0.00042054,4202.5,0.00042303,4280.1,-0.00012537,159.64,-0.00014661,0.0032104,0.25178
6466,6.7967,2.5455,0.1,0.00042015,4198.6,0.0004227,4278.3,-0.00012484,164.26,-0.0001467,0.0040513,0.25202
6467,6.7967,2.7273,0.1,0.00041988,4195.9,0.00042247,4277.1,-0.00012449,167.37,-0.00014677,0.0046102,0.25219
6468,6.7967,2.9091,0.1,0.00041974,4194.5,0.00042236,4276.4,-0.00012432,168.92,-0.0001468,0.0048893,0.25227
6469,6.7967,3.0909,0.1,0.00041974,4194.5,0.00042236,4276.4,-0.00012432,168.92,-0.0001468,0.0048893,0.25227
6470,6.7967,3.2727,0.1,0.00041988,4195.9,0.00042247,4277.1,-0.00012449,167.37,-0.00014677,0.0046102,0.25219
6471,6.7967,3.4545,0.1,0.00042015,4198.6,0.0004227,4278.3,-0.00012484,164.26,-0.0001467,0.0040515,0.25202
6472,6.7967,3.6364,0.1,0.00042054,4202.5,0.00042303,4280.1,-0.00012537,159.64,-0.00014661,0.0032104,0.25178
6473,6.7967,3.8182,0.1,0.00042107,4207.8,0.00042347,4282.5,-0.00012605,153.55,-0.00014649,0.0020792,0.25145
6474,6.7967,4,0.1,0.00042172,4214.3,0.00042402,4285.4,-0.0001269,146.03,-0.00014634,0.00064702,0.25103
6475,6.7967,4.1818,0.1,0.00042249,4222,0.00042466,4288.9,-0.0001279,137.17,-0.00014616,-0.0011036,0.25053
6476,6.7967,4.3636,0.1,0.00042337,4230.7,0.00042538,4292.8,-0.00012905,127.03,-0.00014596,-0.0032042,0.24995
6477,6.7967,4.5455,0.1,0.00042435,4240.5,0.0004262,4297.2,-0.00013033,115.7,-0.00014573,-0.0057237,0.24929
6478,6.7967,4.7273,0.1,0.00042542,4251.3,0.00042709,4302,-0.00013173,103.29,-0.00014548,-0.0087112,0.24853
6479,6.7967,4.9091,0.1,0.00042658,4262.9,0.00042804,4307.1,-0.00013324,89.889,-0.0001452,-0.01253,0.24769
6480,6.7967,5.0909,0.1,0.00042782,4275.3,0.00042906,4312.5,-0.00013485,75.616,-0.00014491,-0.016788,0.24676
6481,6.7967,5.2727,0.1,0.00042912,4288.3,0.00043012,4318.2,-0.00013654,60.583,-0.0001446,-0.025291,0.24575
6482,6.7967,5.4545,0.1,0.00043048,4301.8,0.00043123,4324.1,-0.0001383,44.913,-0.00014428,-0.027328,0.24464
6483,6.7967,5.6364,0.1,0.00043189,4315.9,0.00043237,4330.1,-0.00014012,28.671,-0.00014395,-0.093762,0.24344
6484,6.7967,5.8182,0.1,0.00043338,4330.8,0.00043358,4336.6,-0.00014203,11.696,-0.0001436,-0.11117,0.24215
6485,6.9804,0.18182,0.1,0.00042772,4274.3,0.00042789,4279.2,-0.0001403,10.055,-0.00014165,-0.10809,0.25513
6486,6.9804,0.36364,0.1,0.00042633,4260.3,0.00042676,4273.1,-0.00013853,25.745,-0.00014197,-0.085234,0.25641
6487,6.9804,0.54545,0.1,0.00042502,4247.3,0.0004257,4267.5,-0.00013685,40.689,-0.00014227,-0.024677,0.2576
6488,6.9804,0.72727,0.1,0.00042377,4234.8,0.00042468,4262,-0.00013523,55.097,-0.00014257,-0.022994,0.2587
6489,6.9804,0.90909,0.1,0.00042256,4222.7,0.00042369,4256.8,-0.00013367,68.912,-0.00014285,-0.015351,0.25972
6490,6.9804,1.0909,0.1,0.00042142,4211.3,0.00042276,4251.7,-0.0001322,82.025,-0.00014311,-0.011552,0.26064
6491,6.9804,1.2727,0.1,0.00042035,4200.6,0.00042188,4247,-0.00013081,94.329,-0.00014336,-0.0081309,0.26148
6492,6.9804,1.4545,0.1,0.00041936,4190.7,0.00042106,4242.6,-0.00012952,105.72,-0.00014359,-0.0054538,0.26223
6493,6.9804,1.6364,0.1,0.00041845,4181.7,0.00042031,4238.5,-0.00012835,116.12,-0.0001438,-0.0031921,0.26289
6494,6.9804,1.8182,0.1,0.00041764,4173.6,0.00041964,4234.9,-0.0001273,125.42,-0.00014399,-0.0013046,0.26347
6495,6.9804,2,0.1,0.00041694,4166.5,0.00041905,4231.7,-0.00012638,133.55,-0.00014415,0.00027008,0.26397
6496,6.9804,2.1818,0.1,0.00041634,4160.5,0.00041855,4228.9,-0.0001256,140.43,-0.00014429,0.0015595,0.26438
6497,6.9804,2.3636,0.1,0.00041585,4155.6,0.00041814,4226.7,-0.00012497,146.02,-0.0001444,0.0025788,0.26471
6498,6.9804,2.5455,0.1,0.00041548,4152,0.00041784,4225.1,-0.00012449,150.25,-0.00014448,0.0033363,0.26495
6499,6.9804,2.7273,0.1,0.00041524,4149.5,0.00041763,4223.9,-0.00012417,153.09,-0.00014454,0.0038402,0.26512
6500,6.9804,2.9091,0.1,0.00041511,4148.3,0.00041752,4223.4,-0.000124,154.52,-0.00014457,0.0040921,0.2652
6501,6.9804,3.0909,0.1,0.00041511,4148.3,0.00041752,4223.4,-0.000124,154.52,-0.00014457,0.0040922,0.2652
6502,6.9804,3.2727,0.1,0.00041524,4149.5,0.00041763,4223.9,-0.00012417,153.09,-0.00014454,0.0038403,0.26512
6503,6.9804,3.4545,0.1,0.00041548,4152,0.00041784,4225.1,-0.00012449,150.25,-0.00014448,0.0033366,0.26495
6504,6.9804,3.6364,0.1,0.00041585,4155.6,0.00041814,4226.7,-0.00012497,146.02,-0.0001444,0.0025789,0.26471
6505,6.9804,3.8182,0.1,0.00041634,4160.5,0.00041855,4228.9,-0.0001256,140.43,-0.00014429,0.0015597,0.26438
6506,6.9804,4,0.1,0.00041694,4166.5,0.00041905,4231.7,-0.00012638,133.55,-0.00014415,0.00027067,0.26397
6507,6.9804,4.1818,0.1,0.00041764,4173.6,0.00041964,4234.9,-0.0001273,125.42,-0.00014399,-0.001304,0.26347
6508,6.9804,4.3636,0.1,0.00041845,4181.6,0.00042031,4238.5,-0.00012835,116.12,-0.0001438,-0.0031917,0.26289
6509,6.9804,4.5455,0.1,0.00041936,4190.7,0.00042106,4242.6,-0.00012952,105.72,-0.00014359,-0.005453,0.26223
6510,6.9804,4.7273,0.1,0.00042035,4200.6,0.00042188,4247,-0.00013081,94.329,-0.00014336,-0.0081301,0.26148
6511,6.9804,4.9091,0.1,0.00042142,4211.3,0.00042276,4251.7,-0.0001322,82.025,-0.00014311,-0.011551,0.26064
6512,6.9804,5.0909,0.1,0.00042256,4222.7,0.00042369,4256.8,-0.00013367,68.912,-0.00014285,-0.015349,0.25972
6513,6.9804,5.2727,0.1,0.00042377,4234.8,0.00042468,4262,-0.00013523,55.097,-0.00014257,-0.022993,0.2587
6514,6.9804,5.4545,0.1,0.00042502,4247.3,0.0004257,4267.5,-0.00013685,40.689,-0.00014227,-0.024676,0.2576
6515,6.9804,5.6364,0.1,0.00042633,4260.3,0.00042676,4273.1,-0.00013853,25.745,-0.00014197,-0.085232,0.25641
6516,6.9804,5.8182,0.1,0.00042772,4274.3,0.00042789,4279.2,-0.0001403,10.055,-0.00014165,-0.10809,0.25513
6517,7.1641,0.18182,0.1,0.00042209,4218,0.00042224,4222.2,-0.00013858,8.4983,-0.00013972,-0.10705,0.26839
6518,7.1641,0.36364,0.1,0.00042079,4205,0.00042118,4216.4,-0.00013693,23,-0.00014001,-0.077395,0.26967
6519,7.1641,0.54545,0.1,0.00041959,4193,0.0004202,4211.2,-0.00013539,36.744,-0.00014028,-0.022257,0.27085
6520,7.1641,0.72727,0.1,0.00041843,4181.4,0.00041925,4206.1,-0.0001339,49.985,-0.00014055,-0.020893,0.27194
6521,7.1641,0.90909,0.1,0.00041731,4170.3,0.00041835,4201.2,-0.00013246,62.676,-0.00014081,-0.014042,0.27295
6522,7.1641,1.0909,0.1,0.00041626,4159.7,0.00041748,4196.6,-0.00013111,74.716,-0.00014105,-0.010666,0.27387
6523,7.1641,1.2727,0.1,0.00041527,4149.8,0.00041667,4192.2,-0.00012983,86.01,-0.00014128,-0.0076122,0.2747
6524,7.1641,1.4545,0.1,0.00041435,4140.7,0.00041591,4188.1,-0.00012865,96.466,-0.00014149,-0.0052206,0.27545
6525,7.1641,1.6364,0.1,0.00041352,4132.3,0.00041522,4184.3,-0.00012757,106,-0.00014168,-0.0031963,0.27611
6526,7.1641,1.8182,0.1,0.00041277,4124.9,0.0004146,4181,-0.00012661,114.53,-0.00014185,-0.0015049,0.27669
6527,7.1641,2,0.1,0.00041212,4118.4,0.00041406,4178,-0.00012576,121.98,-0.000142,-9.2587e-05,0.27718
6528,7.1641,2.1818,0.1,0.00041157,4112.9,0.0004136,4175.5,-0.00012505,128.29,-0.00014212,0.0010654,0.27759
6529,7.1641,2.3636,0.1,0.00041112,4108.4,0.00041323,4173.5,-0.00012447,133.41,-0.00014222,0.0019816,0.27792
6530,7.1641,2.5455,0.1,0.00041078,4105,0.00041295,4171.9,-0.00012403,137.29,-0.0001423,0.0026628,0.27817
6531,7.1641,2.7273,0.1,0.00041055,4102.7,0.00041275,4170.9,-0.00012373,139.89,-0.00014235,0.0031161,0.27833
6532,7.1641,2.9091,0.1,0.00041044,4101.6,0.00041266,4170.3,-0.00012359,141.2,-0.00014238,0.0033426,0.27841
6533,7.1641,3.0909,0.1,0.00041044,4101.6,0.00041266,4170.3,-0.00012359,141.2,-0.00014238,0.0033428,0.27841
6534,7.1641,3.2727,0.1,0.00041055,4102.7,0.00041275,4170.9,-0.00012373,139.89,-0.00014235,0.0031163,0.27833
6535,7.1641,3.4545,0.1,0.00041078,4105,0.00041295,4171.9,-0.00012403,137.29,-0.0001423,0.0026629,0.27817
6536,7.1641,3.6364,0.1,0.00041112,4108.4,0.00041323,4173.5,-0.00012447,133.41,-0.00014222,0.0019818,0.27792
6537,7.1641,3.8182,0.1,0.00041157,4112.9,0.0004136,4175.5,-0.00012505,128.29,-0.00014212,0.0010657,0.27759
6538,7.1641,4,0.1,0.00041212,4118.4,0.00041406,4178,-0.00012576,121.98,-0.000142,-9.1876e-05,0.27718
6539,7.1641,4.1818,0.1,0.00041277,4124.9,0.0004146,4181,-0.00012661,114.53,-0.00014185,-0.0015046,0.27669
6540,7.1641,4.3636,0.1,0.00041352,4132.3,0.00041522,4184.3,-0.00012757,106,-0.00014168,-0.0031958,0.27611
6541,7.1641,4.5455,0.1,0.00041435,4140.7,0.00041591,4188.1,-0.00012865,96.466,-0.00014149,-0.00522,0.27545
6542,7.1641,4.7273,0.1,0.00041527,4149.8,0.00041667,4192.2,-0.00012983,86.01,-0.00014128,-0.0076113,0.2747
6543,7.1641,4.9091,0.1,0.00041626,4159.7,0.00041748,4196.6,-0.00013111,74.716,-0.00014105,-0.010666,0.27387
6544,7.1641,5.0909,0.1,0.00041731,4170.3,0.00041835,4201.2,-0.00013246,62.676,-0.00014081,-0.014041,0.27295
6545,7.1641,5.2727,0.1,0.00041843,4181.4,0.00041925,4206.1,-0.0001339,49.985,-0.00014055,-0.020892,0.27194
6546,7.1641,5.4545,0.1,0.00041959,4193,0.0004202,4211.2,-0.00013539,36.744,-0.00014028,-0.022256,0.27085
6547,7.1641,5.6364,0.1,0.00042079,4205,0.00042118,4216.4,-0.00013693,23,-0.00014001,-0.077393,0.26967
6548,7.1641,5.8182,0.1,0.00042209,4218,0.00042223,4222.2,-0.00013858,8.4984,-0.00013972,-0.10705,0.26839
6549,7.3478,0.18182,0.1,0.0004165,4162.1,0.00041662,4165.6,-0.00013685,7.0237,-0.0001378,-0.10858,0.28194
6550,7.3478,0.36364,0.1,0.00041528,4150,0.00041563,4160.1,-0.00013533,20.426,-0.00013806,-0.070182,0.28321
6551,7.3478,0.54545,0.1,0.00041417,4138.8,0.00041472,4155.3,-0.00013391,33.06,-0.00013831,-0.020042,0.28438
6552,7.3478,0.72727,0.1,0.0004131,4128.1,0.00041385,4150.5,-0.00013254,45.221,-0.00013856,-0.018969,0.28547
6553,7.3478,0.90909,0.1,0.00041207,4117.9,0.00041301,4146,-0.00013122,56.874,-0.00013879,-0.012849,0.28647
6554,7.3478,1.0909,0.1,0.0004111,4108.1,0.00041221,4141.7,-0.00012997,67.924,-0.00013901,-0.009863,0.28738
6555,7.3478,1.2727,0.1,0.00041018,4099,0.00041146,4137.6,-0.0001288,78.286,-0.00013922,-0.0071468,0.28821
6556,7.3478,1.4545,0.1,0.00040934,4090.6,0.00041076,4133.8,-0.00012772,87.876,-0.00013941,-0.005018,0.28895
6557,7.3478,1.6364,0.1,0.00040857,4082.9,0.00041013,4130.3,-0.00012673,96.615,-0.00013959,-0.0032129,0.28961
6558,7.3478,1.8182,0.1,0.00040788,4076,0.00040956,4127.2,-0.00012584,104.43,-0.00013974,-0.0017019,0.29019
6559,7.3478,2,0.1,0.00040728,4070,0.00040906,4124.5,-0.00012507,111.26,-0.00013988,-0.00043828,0.29068
6560,7.3478,2.1818,0.1,0.00040677,4064.9,0.00040864,4122.2,-0.00012441,117.04,-0.00013999,0.00059861,0.29109
6561,7.3478,2.3636,0.1,0.00040636,4060.8,0.00040829,4120.3,-0.00012388,121.73,-0.00014008,0.0014198,0.29141
6562,7.3478,2.5455,0.1,0.00040605,4057.7,0.00040803,4118.8,-0.00012348,125.28,-0.00014015,0.0020307,0.29166
6563,7.3478,2.7273,0.1,0.00040584,4055.6,0.00040786,4117.9,-0.00012321,127.67,-0.0001402,0.0024375,0.29182
6564,7.3478,2.9091,0.1,0.00040573,4054.5,0.00040777,4117.4,-0.00012307,128.87,-0.00014022,0.0026412,0.2919
6565,7.3478,3.0909,0.1,0.00040573,4054.5,0.00040777,4117.4,-0.00012307,128.87,-0.00014022,0.0026409,0.2919
6566,7.3478,3.2727,0.1,0.00040584,4055.6,0.00040786,4117.9,-0.00012321,127.67,-0.0001402,0.0024376,0.29182
6567,7.3478,3.4545,0.1,0.00040605,4057.7,0.00040803,4118.8,-0.00012348,125.28,-0.00014015,0.0020309,0.29166
6568,7.3478,3.6364,0.1,0.00040636,4060.8,0.00040829,4120.3,-0.00012388,121.73,-0.00014008,0.0014201,0.29141
6569,7.3478,3.8182,0.1,0.00040677,4064.9,0.00040864,4122.2,-0.00012441,117.04,-0.00013999,0.00059914,0.29109
6570,7.3478,4,0.1,0.00040728,4070,0.00040906,4124.5,-0.00012507,111.26,-0.00013988,-0.00043799,0.29068
6571,7.3478,4.1818,0.1,0.00040788,4076,0.00040956,4127.2,-0.00012584,104.43,-0.00013974,-0.0017014,0.29019
6572,7.3478,4.3636,0.1,0.00040857,4082.9,0.00041013,4130.3,-0.00012673,96.615,-0.00013959,-0.0032124,0.28961
6573,7.3478,4.5455,0.1,0.00040934,4090.6,0.00041076,4133.8,-0.00012772,87.876,-0.00013941,-0.0050173,0.28895
6574,7.3478,4.7273,0.1,0.00041018,4099,0.00041146,4137.6,-0.0001288,78.286,-0.00013922,-0.0071462,0.28821
6575,7.3478,4.9091,0.1,0.0004111,4108.1,0.00041221,4141.7,-0.00012997,67.924,-0.00013901,-0.0098624,0.28738
6576,7.3478,5.0909,0.1,0.00041207,4117.9,0.00041301,4146,-0.00013122,56.874,-0.00013879,-0.012848,0.28647
6577,7.3478,5.2727,0.1,0.0004131,4128.1,0.00041385,4150.5,-0.00013254,45.221,-0.00013856,-0.018968,0.28547
6578,7.3478,5.4545,0.1,0.00041417,4138.8,0.00041472,4155.3,-0.00013391,33.06,-0.00013831,-0.020042,0.28438
6579,7.3478,5.6364,0.1,0.00041528,4150,0.00041563,4160.1,-0.00013533,20.426,-0.00013806,-0.07018,0.28321
6580,7.3478,5.8182,0.1,0.0004165,4162.1,0.00041662,4165.6,-0.00013685,7.0237,-0.0001378,-0.10858,0.28194
6581,7.5315,0.18182,0.1,0.00041094,4106.6,0.00041103,4109.3,-0.00013513,5.6302,-0.0001359,-0.11369,0.29577
6582,7.5315,0.36364,0.1,0.0004098,4095.2,0.0004101,4104.1,-0.00013373,18.014,-0.00013613,-0.063536,0.29703
6583,7.5315,0.54545,0.1,0.00040877,4084.9,0.00040927,4099.6,-0.00013242,29.619,-0.00013636,-0.018011,0.29819
6584,7.5315,0.72727,0.1,0.00040778,4075,0.00040846,4095.2,-0.00013115,40.782,-0.00013658,-0.017202,0.29927
6585,7.5315,0.90909,0.1,0.00040683,4065.5,0.00040768,4091,-0.00012995,51.474,-0.0001368,-0.011758,0.30027
6586,7.5315,1.0909,0.1,0.00040593,4056.5,0.00040695,4087,-0.0001288,61.61,-0.000137,-0.0091313,0.30118
6587,7.5315,1.2727,0.1,0.00040509,4048.1,0.00040625,4083.2,-0.00012772,71.111,-0.00013719,-0.0067265,0.302
6588,7.5315,1.4545,0.1,0.00040431,4040.3,0.00040561,4079.7,-0.00012673,79.902,-0.00013736,-0.0048403,0.30274
6589,7.5315,1.6364,0.1,0.0004036,4033.2,0.00040503,4076.5,-0.00012582,87.911,-0.00013752,-0.0032361,0.30339
6590,7.5315,1.8182,0.1,0.00040297,4026.9,0.0004045,4073.6,-0.00012501,95.073,-0.00013766,-0.0018914,0.30396
6591,7.5315,2,0.1,0.00040241,4021.4,0.00040404,4071.1,-0.0001243,101.33,-0.00013778,-0.0007646,0.30445
6592,7.5315,2.1818,0.1,0.00040195,4016.7,0.00040365,4068.9,-0.0001237,106.62,-0.00013789,0.00016095,0.30486
6593,7.5315,2.3636,0.1,0.00040157,4012.9,0.00040334,4067.2,-0.00012321,110.92,-0.00013797,0.000895,0.30518
6594,7.5315,2.5455,0.1,0.00040128,4010,0.0004031,4065.9,-0.00012284,114.17,-0.00013804,0.0014413,0.30542
6595,7.5315,2.7273,0.1,0.00040108,4008.1,0.00040294,4065,-0.00012259,116.35,-0.00013808,0.0018056,0.30559
6596,7.5315,2.9091,0.1,0.00040099,4007.1,0.00040286,4064.5,-0.00012247,117.45,-0.0001381,0.0019876,0.30567
6597,7.5315,3.0909,0.1,0.00040099,4007.1,0.00040286,4064.5,-0.00012247,117.45,-0.0001381,0.0019878,0.30567
6598,7.5315,3.2727,0.1,0.00040108,4008.1,0.00040294,4065,-0.00012259,116.35,-0.00013808,0.0018054,0.30559
6599,7.5315,3.4545,0.1,0.00040128,4010,0.0004031,4065.9,-0.00012284,114.17,-0.00013804,0.0014417,0.30542
6600,7.5315,3.6364,0.1,0.00040157,4012.9,0.00040334,4067.2,-0.00012321,110.92,-0.00013797,0.00089512,0.30518
6601,7.5315,3.8182,0.1,0.00040195,4016.7,0.00040365,4068.9,-0.0001237,106.62,-0.00013789,0.0001616,0.30486
6602,7.5315,4,0.1,0.00040241,4021.4,0.00040404,4071.1,-0.0001243,101.33,-0.00013778,-0.00076436,0.30445
6603,7.5315,4.1818,0.1,0.00040297,4026.9,0.0004045,4073.6,-0.00012501,95.073,-0.00013766,-0.0018908,0.30396
6604,7.5315,4.3636,0.1,0.0004036,4033.2,0.00040503,4076.5,-0.00012582,87.911,-0.00013752,-0.0032353,0.30339
6605,7.5315,4.5455,0.1,0.00040431,4040.3,0.00040561,4079.7,-0.00012673,79.902,-0.00013736,-0.0048395,0.30274
6606,7.5315,4.7273,0.1,0.00040509,4048.1,0.00040625,4083.2,-0.00012772,71.111,-0.00013719,-0.0067258,0.302
6607,7.5315,4.9091,0.1,0.00040593,4056.5,0.00040695,4087,-0.0001288,61.61,-0.000137,-0.0091305,0.30118
6608,7.5315,5.0909,0.1,0.00040683,4065.5,0.00040768,4091,-0.00012995,51.474,-0.0001368,-0.011757,0.30027
6609,7.5315,5.2727,0.1,0.00040778,4075,0.00040846,4095.2,-0.00013115,40.782,-0.00013658,-0.017201,0.29927
6610,7.5315,5.4545,0.1,0.00040877,4084.9,0.00040927,4099.6,-0.00013242,29.619,-0.00013636,-0.018011,0.29819
6611,7.5315,5.6364,0.1,0.0004098,4095.2,0.0004101,4104.1,-0.00013373,18.014,-0.00013613,-0.063535,0.29703
6612,7.5315,5.8182,0.1,0.00041094,4106.6,0.00041103,4109.3,-0.00013513,5.6302,-0.0001359,-0.11369,0.29577
6613,7.7152,0.18182,0.1,0.00040541,4051.3,0.00040548,4053.4,-0.00013342,4.3176,-0.00013401,-0.1246,0.30988
6614,7.7152,0.36364,0.1,0.00040435,4040.7,0.00040461,4048.5,-0.00013211,15.754,-0.00013422,-0.057414,0.31112
6615,7.7152,0.54545,0.1,0.00040339,4031.1,0.00040383,4044.3,-0.00013091,26.406,-0.00013443,-0.016152,0.31228
6616,7.7152,0.72727,0.1,0.00040248,4022,0.00040309,4040.2,-0.00012975,36.645,-0.00013463,-0.015585,0.31335
6617,7.7152,0.90909,0.1,0.0004016,4013.3,0.00040237,4036.3,-0.00012864,46.448,-0.00013482,-0.010766,0.31434
6618,7.7152,1.0909,0.1,0.00040077,4005,0.00040169,4032.5,-0.00012759,55.738,-0.00013501,-0.00847,0.31524
6619,7.7152,1.2727,0.1,0.0004,3997.2,0.00040105,4029,-0.0001266,64.445,-0.00013518,-0.0063525,0.31606
6620,7.7152,1.4545,0.1,0.00039928,3990,0.00040046,4025.8,-0.00012569,72.498,-0.00013534,-0.0046896,0.31679
6621,7.7152,1.6364,0.1,0.00039862,3983.5,0.00039992,4022.8,-0.00012486,79.833,-0.00013548,-0.0032707,0.31744
6622,7.7152,1.8182,0.1,0.00039804,3977.6,0.00039944,4020.1,-0.00012411,86.39,-0.00013561,-0.0020787,0.31801
6623,7.7152,2,0.1,0.00039753,3972.5,0.00039902,4017.8,-0.00012346,92.117,-0.00013572,-0.0010783,0.31849
6624,7.7152,2.1818,0.1,0.0003971,3968.2,0.00039866,4015.8,-0.00012291,96.964,-0.00013582,-0.00025434,0.3189
6625,7.7152,2.3636,0.1,0.00039675,3964.7,0.00039837,4014.2,-0.00012246,100.89,-0.00013589,0.00039934,0.31922
6626,7.7152,2.5455,0.1,0.00039648,3962.1,0.00039815,4013,-0.00012213,103.87,-0.00013595,0.00088628,0.31946
6627,7.7152,2.7273,0.1,0.0003963,3960.3,0.000398,4012.2,-0.0001219,105.87,-0.00013599,0.0012111,0.31962
6628,7.7152,2.9091,0.1,0.00039621,3959.4,0.00039792,4011.8,-0.00012179,106.87,-0.00013601,0.0013739,0.3197
6629,7.7152,3.0909,0.1,0.00039621,3959.4,0.00039792,4011.8,-0.00012179,106.87,-0.00013601,0.0013739,0.3197
6630,7.7152,3.2727,0.1,0.0003963,3960.3,0.000398,4012.2,-0.0001219,105.87,-0.00013599,0.0012113,0.31962
6631,7.7152,3.4545,0.1,0.00039648,3962.1,0.00039815,4013,-0.00012213,103.87,-0.00013595,0.00088652,0.31946
6632,7.7152,3.6364,0.1,0.00039675,3964.7,0.00039837,4014.2,-0.00012246,100.89,-0.00013589,0.00039958,0.31922
6633,7.7152,3.8182,0.1,0.0003971,3968.2,0.00039866,4015.8,-0.00012291,96.964,-0.00013582,-0.00025411,0.3189
6634,7.7152,4,0.1,0.00039753,3972.5,0.00039902,4017.8,-0.00012346,92.117,-0.00013572,-0.0010777,0.31849
6635,7.7152,4.1818,0.1,0.00039804,3977.6,0.00039944,4020.1,-0.00012411,86.39,-0.00013561,-0.0020783,0.31801
6636,7.7152,4.3636,0.1,0.00039862,3983.5,0.00039992,4022.8,-0.00012486,79.833,-0.00013548,-0.0032701,0.31744
6637,7.7152,4.5455,0.1,0.00039928,3990,0.00040046,4025.8,-0.00012569,72.498,-0.00013534,-0.0046887,0.31679
6638,7.7152,4.7273,0.1,0.0004,3997.2,0.00040105,4029,-0.0001266,64.445,-0.00013518,-0.0063521,0.31606
6639,7.7152,4.9091,0.1,0.00040077,4005,0.00040169,4032.5,-0.00012759,55.738,-0.00013501,-0.0084694,0.31524
6640,7.7152,5.0909,0.1,0.0004016,4013.3,0.00040237,4036.3,-0.00012864,46.448,-0.00013482,-0.010765,0.31434
6641,7.7152,5.2727,0.1,0.00040248,4022,0.00040309,4040.2,-0.00012975,36.645,-0.00013463,-0.015584,0.31335
6642,7.7152,5.4545,0.1,0.00040339,4031.1,0.00040383,4044.3,-0.00013091,26.406,-0.00013443,-0.016151,0.31228
6643,7.7152,5.6364,0.1,0.00040434,4040.7,0.00040461,4048.5,-0.00013211,15.754,-0.00013422,-0.057413,0.31112
6644,7.7152,5.8182,0.1,0.00040541,4051.3,0.00040548,4053.4,-0.00013342,4.3176,-0.00013401,-0.12459,0.30988
6645,7.8989,0.18182,0.1,0.00039991,3996.4,0.00039996,3997.8,-0.00013171,3.0882,-0.00013214,-0.14656,0.32426
6646,7.8989,0.36364,0.1,0.00039891,3986.4,0.00039914,3993.2,-0.0001305,13.637,-0.00013232,-0.051767,0.32549
6647,7.8989,0.54545,0.1,0.00039803,3977.6,0.00039842,3989.2,-0.00012939,23.405,-0.00013251,-0.014445,0.32664
6648,7.8989,0.72727,0.1,0.00039719,3969.1,0.00039774,3985.4,-0.00012833,32.787,-0.00013269,-0.014101,0.32771
6649,7.8989,0.90909,0.1,0.00039638,3961.1,0.00039707,3981.8,-0.00012731,41.767,-0.00013287,-0.0098609,0.32868
6650,7.8989,1.0909,0.1,0.00039562,3953.4,0.00039645,3978.3,-0.00012634,50.276,-0.00013304,-0.0078704,0.32958
6651,7.8989,1.2727,0.1,0.0003949,3946.3,0.00039586,3975.1,-0.00012544,58.247,-0.00013319,-0.0060178,0.33039
6652,7.8989,1.4545,0.1,0.00039424,3939.7,0.00039531,3972,-0.0001246,65.618,-0.00013334,-0.0045607,0.33112
6653,7.8989,1.6364,0.1,0.00039363,3933.6,0.00039482,3969.3,-0.00012384,72.33,-0.00013347,-0.003312,0.33176
6654,7.8989,1.8182,0.1,0.0003931,3928.2,0.00039437,3966.8,-0.00012316,78.33,-0.00013358,-0.0022606,0.33233
6655,7.8989,2,0.1,0.00039263,3923.6,0.00039398,3964.7,-0.00012256,83.569,-0.00013368,-0.0013758,0.33281
6656,7.8989,2.1818,0.1,0.00039223,3919.6,0.00039365,3962.8,-0.00012206,88.003,-0.00013377,-0.0006459,0.33321
6657,7.8989,2.3636,0.1,0.00039191,3916.4,0.00039338,3961.4,-0.00012165,91.596,-0.00013384,-6.5801e-05,0.33353
6658,7.8989,2.5455,0.1,0.00039166,3913.9,0.00039318,3960.2,-0.00012134,94.318,-0.00013389,0.00036672,0.33377
6659,7.8989,2.7273,0.1,0.0003915,3912.3,0.00039305,3959.5,-0.00012113,96.145,-0.00013393,0.00065577,0.33393
6660,7.8989,2.9091,0.1,0.00039142,3911.5,0.00039298,3959.1,-0.00012103,97.062,-0.00013395,0.00080064,0.33401
6661,7.8989,3.0909,0.1,0.00039142,3911.5,0.00039298,3959.1,-0.00012103,97.062,-0.00013395,0.00080076,0.33401
6662,7.8989,3.2727,0.1,0.0003915,3912.3,0.00039305,3959.5,-0.00012113,96.145,-0.00013393,0.00065594,0.33393
6663,7.8989,3.4545,0.1,0.00039166,3913.9,0.00039318,3960.2,-0.00012134,94.318,-0.00013389,0.0003669,0.33377
6664,7.8989,3.6364,0.1,0.00039191,3916.4,0.00039338,3961.4,-0.00012165,91.596,-0.00013384,-6.5386e-05,0.33353
6665,7.8989,3.8182,0.1,0.00039223,3919.6,0.00039365,3962.8,-0.00012206,88.003,-0.00013377,-0.00064536,0.33321
6666,7.8989,4,0.1,0.00039263,3923.6,0.00039398,3964.7,-0.00012256,83.569,-0.00013368,-0.0013756,0.33281
6667,7.8989,4.1818,0.1,0.0003931,3928.2,0.00039437,3966.8,-0.00012316,78.33,-0.00013358,-0.0022603,0.33233
6668,7.8989,4.3636,0.1,0.00039363,3933.6,0.00039482,3969.3,-0.00012384,72.33,-0.00013347,-0.0033116,0.33176
6669,7.8989,4.5455,0.1,0.00039424,3939.7,0.00039531,3972,-0.0001246,65.618,-0.00013334,-0.0045597,0.33112
6670,7.8989,4.7273,0.1,0.0003949,3946.3,0.00039586,3975.1,-0.00012544,58.247,-0.00013319,-0.0060172,0.33039
6671,7.8989,4.9091,0.1,0.00039562,3953.4,0.00039645,3978.3,-0.00012634,50.276,-0.00013304,-0.0078697,0.32958
6672,7.8989,5.0909,0.1,0.00039638,3961.1,0.00039707,3981.8,-0.00012731,41.767,-0.00013287,-0.0098596,0.32868
6673,7.8989,5.2727,0.1,0.00039719,3969.1,0.00039774,3985.4,-0.00012833,32.787,-0.00013269,-0.0141,0.32771
6674,7.8989,5.4545,0.1,0.00039803,3977.6,0.00039842,3989.2,-0.00012939,23.405,-0.00013251,-0.014445,0.32664
6675,7.8989,5.6364,0.1,0.00039891,3986.4,0.00039914,3993.2,-0.0001305,13.637,-0.00013232,-0.051766,0.32549
6676,7.8989,5.8182,0.1,0.00039991,3996.4,0.00039996,3997.8,-0.00013171,3.0882,-0.00013214,-0.14656,0.32426
6677,8.0826,0.18182,0.1,0.00039444,3941.7,0.00039447,3942.6,-0.00012999,1.9544,-0.00013028,-0.19502,0.33891
6678,8.0826,0.36364,0.1,0.00039351,3932.3,0.0003937,3938.1,-0.00012888,11.652,-0.00013044,-0.046552,0.34013
6679,8.0826,0.54545,0.1,0.00039269,3924.2,0.00039304,3934.5,-0.00012786,20.601,-0.00013061,-0.012874,0.34127
6680,8.0826,0.72727,0.1,0.00039191,3916.4,0.0003924,3930.9,-0.00012689,29.189,-0.00013078,-0.012737,0.34233
6681,8.0826,0.90909,0.1,0.00039117,3909,0.00039179,3927.5,-0.00012595,37.406,-0.00013093,-0.0090333,0.3433
6682,8.0826,1.0909,0.1,0.00039046,3901.9,0.00039121,3924.3,-0.00012507,45.19,-0.00013108,-0.0073251,0.34418
6683,8.0826,1.2727,0.1,0.0003898,3895.3,0.00039067,3921.3,-0.00012424,52.48,-0.00013123,-0.0057167,0.34499
6684,8.0826,1.4545,0.1,0.00038919,3889.2,0.00039017,3918.5,-0.00012347,59.221,-0.00013136,-0.0044485,0.34571
6685,8.0826,1.6364,0.1,0.00038864,3883.7,0.00038971,3916,-0.00012278,65.358,-0.00013147,-0.0033571,0.34635
6686,8.0826,1.8182,0.1,0.00038814,3878.7,0.0003893,3913.7,-0.00012215,70.843,-0.00013158,-0.0024348,0.34691
6687,8.0826,2,0.1,0.00038771,3874.4,0.00038894,3911.7,-0.00012161,75.632,-0.00013167,-0.0016563,0.34739
6688,8.0826,2.1818,0.1,0.00038734,3870.8,0.00038864,3910,-0.00012114,79.684,-0.00013175,-0.001012,0.34779
6689,8.0826,2.3636,0.1,0.00038705,3867.8,0.00038839,3908.6,-0.00012077,82.968,-0.00013181,-0.00049975,0.34811
6690,8.0826,2.5455,0.1,0.00038682,3865.5,0.0003882,3907.6,-0.00012049,85.455,-0.00013186,-0.00011675,0.34834
6691,8.0826,2.7273,0.1,0.00038667,3864,0.00038808,3906.9,-0.0001203,87.124,-0.00013189,0.00013907,0.3485
6692,8.0826,2.9091,0.1,0.0003866,3863.3,0.00038802,3906.5,-0.0001202,87.963,-0.00013191,0.00026798,0.34858
6693,8.0826,3.0909,0.1,0.0003866,3863.3,0.00038802,3906.5,-0.0001202,87.963,-0.00013191,0.00026775,0.34858
6694,8.0826,3.2727,0.1,0.00038667,3864,0.00038808,3906.9,-0.0001203,87.124,-0.00013189,0.00013937,0.3485
6695,8.0826,3.4545,0.1,0.00038682,3865.5,0.0003882,3907.6,-0.00012049,85.455,-0.00013186,-0.00011675,0.34834
6696,8.0826,3.6364,0.1,0.00038705,3867.8,0.00038839,3908.6,-0.00012077,82.968,-0.00013181,-0.00049933,0.34811
6697,8.0826,3.8182,0.1,0.00038734,3870.8,0.00038864,3910,-0.00012114,79.684,-0.00013175,-0.0010119,0.34779
6698,8.0826,4,0.1,0.00038771,3874.4,0.00038894,3911.7,-0.00012161,75.632,-0.00013167,-0.0016558,0.34739
6699,8.0826,4.1818,0.1,0.00038814,3878.7,0.0003893,3913.7,-0.00012215,70.843,-0.00013158,-0.0024342,0.34691
6700,8.0826,4.3636,0.1,0.00038864,3883.7,0.00038971,3916,-0.00012278,65.358,-0.00013147,-0.0033564,0.34635
6701,8.0826,4.5455,0.1,0.00038919,3889.2,0.00039017,3918.5,-0.00012347,59.221,-0.00013136,-0.004448,0.34571
6702,8.0826,4.7273,0.1,0.0003898,3895.3,0.00039067,3921.3,-0.00012424,52.48,-0.00013123,-0.0057162,0.34499
6703,8.0826,4.9091,0.1,0.00039046,3901.9,0.00039121,3924.3,-0.00012507,45.19,-0.00013108,-0.0073245,0.34418
6704,8.0826,5.0909,0.1,0.00039117,3909,0.00039179,3927.5,-0.00012595,37.406,-0.00013093,-0.0090323,0.3433
6705,8.0826,5.2727,0.1,0.00039191,3916.4,0.0003924,3930.9,-0.00012689,29.189,-0.00013078,-0.012737,0.34233
6706,8.0826,5.4545,0.1,0.00039269,3924.2,0.00039304,3934.5,-0.00012786,20.601,-0.00013061,-0.012873,0.34127
6707,8.0826,5.6364,0.1,0.00039351,3932.3,0.0003937,3938.1,-0.00012888,11.652,-0.00013044,-0.046551,0.34013
6708,8.0826,5.8182,0.1,0.00039444,3941.7,0.00039447,3942.6,-0.00012999,1.9545,-0.00013028,-0.19502,0.33891
6709,8.2663,0.18182,0.1,0.000389,3887.3,0.00038901,3887.6,-0.00012827,0.97313,-0.00012845,-0.33009,0.35383
6710,8.2663,0.36364,0.1,0.00038812,3878.5,0.00038829,3883.4,-0.00012726,9.7923,-0.00012857,-0.041742,0.35504
6711,8.2663,0.54545,0.1,0.00038737,3871,0.00038767,3880,-0.00012633,17.98,-0.00012872,-0.011435,0.35617
6712,8.2663,0.72727,0.1,0.00038665,3863.8,0.00038708,3876.7,-0.00012543,25.831,-0.00012887,-0.011493,0.35721
6713,8.2663,0.90909,0.1,0.00038596,3857,0.00038652,3873.5,-0.00012458,33.34,-0.00012902,-0.0082867,0.35817
6714,8.2663,1.0909,0.1,0.00038531,3850.5,0.00038599,3870.5,-0.00012377,40.452,-0.00012915,-0.0068384,0.35905
6715,8.2663,1.2727,0.1,0.00038471,3844.4,0.00038549,3867.7,-0.00012301,47.112,-0.00012928,-0.0054554,0.35985
6716,8.2663,1.4545,0.1,0.00038414,3838.8,0.00038502,3865.1,-0.00012231,53.269,-0.0001294,-0.004361,0.36056
6717,8.2663,1.6364,0.1,0.00038363,3833.7,0.0003846,3862.8,-0.00012167,58.874,-0.0001295,-0.0034137,0.3612
6718,8.2663,1.8182,0.1,0.00038318,3829.1,0.00038422,3860.7,-0.0001211,63.882,-0.0001296,-0.0026097,0.36175
6719,8.2663,2,0.1,0.00038278,3825.2,0.00038389,3858.8,-0.0001206,68.255,-0.00012968,-0.0019286,0.36223
6720,8.2663,2.1818,0.1,0.00038244,3821.8,0.00038362,3857.3,-0.00012018,71.955,-0.00012975,-0.0013637,0.36263
6721,8.2663,2.3636,0.1,0.00038217,3819.1,0.00038339,3856,-0.00011983,74.952,-0.00012981,-0.00091271,0.36294
6722,8.2663,2.5455,0.1,0.00038196,3817,0.00038322,3855,-0.00011958,77.223,-0.00012985,-0.00057551,0.36318
6723,8.2663,2.7273,0.1,0.00038182,3815.6,0.0003831,3854.4,-0.0001194,78.747,-0.00012988,-0.00034965,0.36334
6724,8.2663,2.9091,0.1,0.00038176,3814.9,0.00038305,3854.1,-0.00011931,79.512,-0.0001299,-0.00023612,0.36342
6725,8.2663,3.0909,0.1,0.00038176,3814.9,0.00038305,3854.1,-0.00011931,79.512,-0.0001299,-0.000236,0.36342
6726,8.2663,3.2727,0.1,0.00038182,3815.6,0.0003831,3854.4,-0.0001194,78.747,-0.00012988,-0.00034941,0.36334
6727,8.2663,3.4545,0.1,0.00038196,3817,0.00038322,3855,-0.00011958,77.223,-0.00012985,-0.00057522,0.36318
6728,8.2663,3.6364,0.1,0.00038217,3819.1,0.00038339,3856,-0.00011983,74.952,-0.00012981,-0.00091212,0.36294
6729,8.2663,3.8182,0.1,0.00038244,3821.8,0.00038362,3857.3,-0.00012018,71.955,-0.00012975,-0.0013632,0.36263
6730,8.2663,4,0.1,0.00038278,3825.2,0.00038389,3858.8,-0.0001206,68.255,-0.00012968,-0.0019285,0.36223
6731,8.2663,4.1818,0.1,0.00038318,3829.1,0.00038422,3860.7,-0.0001211,63.882,-0.0001296,-0.0026094,0.36175
6732,8.2663,4.3636,0.1,0.00038363,3833.7,0.0003846,3862.8,-0.00012167,58.874,-0.0001295,-0.0034131,0.3612
6733,8.2663,4.5455,0.1,0.00038414,3838.8,0.00038502,3865.1,-0.00012231,53.269,-0.0001294,-0.0043605,0.36056
6734,8.2663,4.7273,0.1,0.00038471,3844.4,0.00038549,3867.7,-0.00012301,47.112,-0.00012928,-0.0054549,0.35985
6735,8.2663,4.9091,0.1,0.00038531,3850.5,0.00038599,3870.5,-0.00012377,40.452,-0.00012915,-0.0068377,0.35905
6736,8.2663,5.0909,0.1,0.00038596,3857,0.00038652,3873.5,-0.00012458,33.34,-0.00012902,-0.0082853,0.35817
6737,8.2663,5.2727,0.1,0.00038665,3863.8,0.00038708,3876.7,-0.00012543,25.831,-0.00012887,-0.011492,0.35721
6738,8.2663,5.4545,0.1,0.00038737,3871,0.00038767,3880,-0.00012633,17.98,-0.00012872,-0.011435,0.35617
6739,8.2663,5.6364,0.1,0.00038812,3878.5,0.00038829,3883.4,-0.00012726,9.7923,-0.00012857,-0.04174,0.35504
6740,8.2663,5.8182,0.1,0.000389,3887.3,0.00038901,3887.6,-0.00012827,0.97316,-0.00012845,-0.33008,0.35383
6741,8.45,0.18182,0.1,0.00038358,3833.2,0.00038358,3833,-0.00012652,0.3541,-0.00012666,-0.7648,0.36901
6742,8.45,0.36364,0.1,0.00038276,3824.9,0.00038289,3828.9,-0.00012564,8.0482,-0.00012671,-0.037304,0.3702
6743,8.45,0.54545,0.1,0.00038206,3818,0.00038232,3825.7,-0.00012478,15.528,-0.00012685,-0.010116,0.37132
6744,8.45,0.72727,0.1,0.0003814,3811.4,0.00038178,3822.7,-0.00012396,22.693,-0.00012699,-0.010357,0.37236
6745,8.45,0.90909,0.1,0.00038077,3805.1,0.00038126,3819.7,-0.00012318,29.545,-0.00012711,-0.0076138,0.37331
6746,8.45,1.0909,0.1,0.00038017,3799.1,0.00038077,3817,-0.00012244,36.033,-0.00012724,-0.0064054,0.37418
6747,8.45,1.2727,0.1,0.00037961,3793.5,0.00038031,3814.4,-0.00012175,42.109,-0.00012735,-0.0052293,0.37497
6748,8.45,1.4545,0.1,0.0003791,3788.3,0.00037988,3812,-0.00012111,47.724,-0.00012746,-0.0042951,0.37568
6749,8.45,1.6364,0.1,0.00037863,3783.6,0.0003795,3809.8,-0.00012052,52.836,-0.00012755,-0.0034798,0.37631
6750,8.45,1.8182,0.1,0.00037821,3779.5,0.00037915,3807.8,-0.00012,57.404,-0.00012764,-0.0027845,0.37686
6751,8.45,2,0.1,0.00037784,3775.8,0.00037885,3806.1,-0.00011955,61.392,-0.00012772,-0.0021927,0.37733
6752,8.45,2.1818,0.1,0.00037753,3772.7,0.00037859,3804.7,-0.00011916,64.766,-0.00012778,-0.0016993,0.37772
6753,8.45,2.3636,0.1,0.00037728,3770.2,0.00037838,3803.5,-0.00011885,67.499,-0.00012783,-0.0013046,0.37804
6754,8.45,2.5455,0.1,0.00037709,3768.3,0.00037823,3802.6,-0.00011861,69.57,-0.00012787,-0.0010089,0.37827
6755,8.45,2.7273,0.1,0.00037696,3767,0.00037812,3802,-0.00011845,70.96,-0.0001279,-0.00081058,0.37843
6756,8.45,2.9091,0.1,0.0003769,3766.4,0.00037807,3801.7,-0.00011837,71.658,-0.00012791,-0.00071108,0.37851
6757,8.45,3.0909,0.1,0.0003769,3766.4,0.00037807,3801.7,-0.00011837,71.658,-0.00012791,-0.00071072,0.37851
6758,8.45,3.2727,0.1,0.00037696,3767,0.00037812,3802,-0.00011845,70.96,-0.0001279,-0.00081064,0.37843
6759,8.45,3.4545,0.1,0.00037709,3768.3,0.00037823,3802.6,-0.00011861,69.57,-0.00012787,-0.001009,0.37827
6760,8.45,3.6364,0.1,0.00037728,3770.2,0.00037838,3803.5,-0.00011885,67.499,-0.00012783,-0.0013041,0.37804
6761,8.45,3.8182,0.1,0.00037753,3772.7,0.00037859,3804.7,-0.00011916,64.766,-0.00012778,-0.0016993,0.37772
6762,8.45,4,0.1,0.00037784,3775.8,0.00037885,3806.1,-0.00011955,61.392,-0.00012772,-0.0021922,0.37733
6763,8.45,4.1818,0.1,0.00037821,3779.5,0.00037915,3807.8,-0.00012,57.404,-0.00012764,-0.0027838,0.37686
6764,8.45,4.3636,0.1,0.00037863,3783.6,0.0003795,3809.8,-0.00012052,52.836,-0.00012755,-0.0034794,0.37631
6765,8.45,4.5455,0.1,0.0003791,3788.3,0.00037988,3812,-0.00012111,47.724,-0.00012746,-0.0042943,0.37568
6766,8.45,4.7273,0.1,0.00037961,3793.5,0.00038031,3814.4,-0.00012175,42.109,-0.00012735,-0.0052289,0.37497
6767,8.45,4.9091,0.1,0.00038017,3799.1,0.00038077,3817,-0.00012244,36.033,-0.00012724,-0.0064046,0.37418
6768,8.45,5.0909,0.1,0.00038077,3805.1,0.00038126,3819.7,-0.00012318,29.545,-0.00012711,-0.0076121,0.37331
6769,8.45,5.2727,0.1,0.0003814,3811.4,0.00038178,3822.7,-0.00012396,22.693,-0.00012699,-0.010357,0.37236
6770,8.45,5.4545,0.1,0.00038206,3818,0.00038232,3825.7,-0.00012478,15.528,-0.00012685,-0.010116,0.37132
6771,8.45,5.6364,0.1,0.00038276,3824.9,0.00038289,3828.9,-0.00012564,8.0482,-0.00012671,-0.037302,0.3702
6772,8.45,5.8182,0.1,0.00038358,3833.2,0.00038358,3833,-0.00012652,0.35411,-0.00012666,-0.76478,0.36901
6773,8.6337,0.18182,0.1,0.0003782,3779.3,0.00037817,3778.6,-0.00012472,0.14709,-0.00012494,-1.5522,0.38444
6774,8.6337,0.36364,0.1,0.00037742,3771.6,0.00037753,3774.8,-0.00012401,6.4117,-0.00012487,-0.03321,0.38563
6775,8.6337,0.54545,0.1,0.00037678,3765.2,0.000377,3771.8,-0.00012323,13.232,-0.00012499,-0.0089037,0.38673
6776,8.6337,0.72727,0.1,0.00037617,3759.1,0.0003765,3768.9,-0.00012248,19.759,-0.00012511,-0.00932,0.38776
6777,8.6337,0.90909,0.1,0.00037559,3753.3,0.00037602,3766.2,-0.00012177,26,-0.00012523,-0.0070056,0.3887
6778,8.6337,1.0909,0.1,0.00037504,3747.8,0.00037557,3763.6,-0.00012109,31.908,-0.00012534,-0.0060181,0.38956
6779,8.6337,1.2727,0.1,0.00037452,3742.6,0.00037514,3761.2,-0.00012046,37.44,-0.00012544,-0.0050328,0.39035
6780,8.6337,1.4545,0.1,0.00037405,3737.9,0.00037475,3759,-0.00011987,42.554,-0.00012554,-0.0042444,0.39105
6781,8.6337,1.6364,0.1,0.00037362,3733.6,0.0003744,3757,-0.00011934,47.209,-0.00012562,-0.00355,0.39168
6782,8.6337,1.8182,0.1,0.00037323,3729.7,0.00037408,3755.1,-0.00011886,51.368,-0.0001257,-0.0029536,0.39222
6783,8.6337,2,0.1,0.00037289,3726.4,0.0003738,3753.6,-0.00011845,54.999,-0.00012577,-0.0024435,0.39269
6784,8.6337,2.1818,0.1,0.00037261,3723.5,0.00037356,3752.2,-0.0001181,58.072,-0.00012583,-0.0020158,0.39308
6785,8.6337,2.3636,0.1,0.00037238,3721.2,0.00037337,3751.1,-0.00011781,60.561,-0.00012587,-0.0016723,0.39339
6786,8.6337,2.5455,0.1,0.00037221,3719.5,0.00037323,3750.3,-0.0001176,62.447,-0.00012591,-0.0014145,0.39362
6787,8.6337,2.7273,0.1,0.00037209,3718.3,0.00037313,3749.8,-0.00011745,63.712,-0.00012593,-0.0012412,0.39378
6788,8.6337,2.9091,0.1,0.00037203,3717.7,0.00037308,3749.5,-0.00011738,64.348,-0.00012594,-0.0011536,0.39385
6789,8.6337,3.0909,0.1,0.00037203,3717.7,0.00037308,3749.5,-0.00011738,64.348,-0.00012594,-0.0011537,0.39385
6790,8.6337,3.2727,0.1,0.00037209,3718.3,0.00037313,3749.8,-0.00011745,63.712,-0.00012593,-0.0012412,0.39378
6791,8.6337,3.4545,0.1,0.00037221,3719.5,0.00037323,3750.3,-0.0001176,62.447,-0.00012591,-0.0014145,0.39362
6792,8.6337,3.6364,0.1,0.00037238,3721.2,0.00037337,3751.1,-0.00011781,60.561,-0.00012587,-0.0016721,0.39339
6793,8.6337,3.8182,0.1,0.00037261,3723.5,0.00037356,3752.2,-0.0001181,58.072,-0.00012583,-0.0020153,0.39308
6794,8.6337,4,0.1,0.00037289,3726.4,0.0003738,3753.6,-0.00011845,54.999,-0.00012577,-0.0024428,0.39269
6795,8.6337,4.1818,0.1,0.00037323,3729.7,0.00037408,3755.1,-0.00011886,51.368,-0.0001257,-0.0029533,0.39222
6796,8.6337,4.3636,0.1,0.00037362,3733.6,0.0003744,3757,-0.00011934,47.209,-0.00012562,-0.0035495,0.39168
6797,8.6337,4.5455,0.1,0.00037405,3737.9,0.00037475,3759,-0.00011987,42.554,-0.00012554,-0.0042434,0.39105
6798,8.6337,4.7273,0.1,0.00037452,3742.6,0.00037514,3761.2,-0.00012046,37.44,-0.00012544,-0.005032,0.39035
6799,8.6337,4.9091,0.1,0.00037504,3747.8,0.00037557,3763.6,-0.00012109,31.908,-0.00012534,-0.0060174,0.38956
6800,8.6337,5.0909,0.1,0.00037559,3753.3,0.00037602,3766.2,-0.00012177,26,-0.00012523,-0.007004,0.3887
6801,8.6337,5.2727,0.1,0.00037617,3759.1,0.0003765,3768.9,-0.00012248,19.759,-0.00012511,-0.0093192,0.38776
6802,8.6337,5.4545,0.1,0.00037678,3765.2,0.000377,3771.8,-0.00012323,13.232,-0.00012499,-0.0089034,0.38673
6803,8.6337,5.6364,0.1,0.00037742,3771.6,0.00037753,3774.8,-0.00012401,6.4117,-0.00012487,-0.033209,0.38563
6804,8.6337,5.8182,0.1,0.0003782,3779.3,0.00037817,3778.6,-0.00012472,0.14709,-0.00012494,-1.5522,0.38444
6805,8.8174,0.18182,0.1,0.00037283,3725.7,0.00037279,3724.6,-0.00012291,0.0794,-0.00012324,-2.423,0.40013
6806,8.8174,0.36364,0.1,0.0003721,3718.4,0.00037218,3720.8,-0.00012238,4.8749,-0.00012304,-0.029458,0.40131
6807,8.8174,0.54545,0.1,0.00037151,3712.5,0.0003717,3718,-0.00012167,11.08,-0.00012315,-0.0077958,0.4024
6808,8.8174,0.72727,0.1,0.00037095,3706.9,0.00037123,3715.4,-0.00012099,17.012,-0.00012326,-0.0083815,0.40341
6809,8.8174,0.90909,0.1,0.00037041,3701.6,0.00037079,3712.9,-0.00012034,22.683,-0.00012336,-0.0064664,0.40435
6810,8.8174,1.0909,0.1,0.00036991,3696.5,0.00037038,3710.5,-0.00011972,28.051,-0.00012346,-0.0056813,0.4052
6811,8.8174,1.2727,0.1,0.00036944,3691.8,0.00036999,3708.2,-0.00011915,33.078,-0.00012355,-0.0048701,0.40598
6812,8.8174,1.4545,0.1,0.000369,3687.5,0.00036963,3706.2,-0.00011861,37.725,-0.00012363,-0.0042154,0.40668
6813,8.8174,1.6364,0.1,0.0003686,3683.5,0.0003693,3704.3,-0.00011813,41.955,-0.00012371,-0.0036311,0.40729
6814,8.8174,1.8182,0.1,0.00036825,3680,0.00036901,3702.6,-0.00011769,45.736,-0.00012378,-0.0031248,0.40783
6815,8.8174,2,0.1,0.00036794,3676.9,0.00036875,3701.2,-0.00011732,49.037,-0.00012384,-0.002688,0.4083
6816,8.8174,2.1818,0.1,0.00036768,3674.3,0.00036854,3699.9,-0.000117,51.83,-0.00012389,-0.0023202,0.40868
6817,8.8174,2.3636,0.1,0.00036747,3672.2,0.00036836,3698.9,-0.00011674,54.093,-0.00012394,-0.002023,0.40899
6818,8.8174,2.5455,0.1,0.00036731,3670.6,0.00036823,3698.2,-0.00011654,55.808,-0.00012397,-0.0017994,0.40922
6819,8.8174,2.7273,0.1,0.0003672,3669.5,0.00036814,3697.7,-0.00011641,56.959,-0.00012399,-0.0016486,0.40938
6820,8.8174,2.9091,0.1,0.00036715,3669,0.0003681,3697.4,-0.00011634,57.537,-0.000124,-0.0015724,0.40945
6821,8.8174,3.0909,0.1,0.00036715,3669,0.0003681,3697.4,-0.00011634,57.537,-0.000124,-0.0015722,0.40945
6822,8.8174,3.2727,0.1,0.0003672,3669.5,0.00036814,3697.7,-0.00011641,56.959,-0.00012399,-0.0016485,0.40938
6823,8.8174,3.4545,0.1,0.00036731,3670.6,0.00036823,3698.2,-0.00011654,55.808,-0.00012397,-0.0017993,0.40922
6824,8.8174,3.6364,0.1,0.00036747,3672.2,0.00036836,3698.9,-0.00011674,54.093,-0.00012394,-0.0020227,0.40899
6825,8.8174,3.8182,0.1,0.00036768,3674.3,0.00036854,3699.9,-0.000117,51.83,-0.00012389,-0.0023199,0.40868
6826,8.8174,4,0.1,0.00036794,3676.9,0.00036875,3701.2,-0.00011732,49.037,-0.00012384,-0.0026877,0.4083
6827,8.8174,4.1818,0.1,0.00036825,3680,0.00036901,3702.6,-0.00011769,45.736,-0.00012378,-0.0031243,0.40783
6828,8.8174,4.3636,0.1,0.0003686,3683.5,0.0003693,3704.3,-0.00011813,41.955,-0.00012371,-0.0036304,0.40729
6829,8.8174,4.5455,0.1,0.000369,3687.5,0.00036963,3706.2,-0.00011861,37.725,-0.00012363,-0.0042149,0.40668
6830,8.8174,4.7273,0.1,0.00036944,3691.8,0.00036999,3708.2,-0.00011915,33.078,-0.00012355,-0.0048697,0.40598
6831,8.8174,4.9091,0.1,0.00036991,3696.5,0.00037038,3710.5,-0.00011972,28.051,-0.00012346,-0.0056809,0.4052
6832,8.8174,5.0909,0.1,0.00037041,3701.6,0.00037079,3712.9,-0.00012034,22.683,-0.00012336,-0.0064647,0.40435
6833,8.8174,5.2727,0.1,0.00037095,3706.9,0.00037123,3715.4,-0.00012099,17.012,-0.00012326,-0.0083808,0.40341
6834,8.8174,5.4545,0.1,0.00037151,3712.5,0.0003717,3718,-0.00012167,11.08,-0.00012315,-0.0077958,0.4024
6835,8.8174,5.6364,0.1,0.0003721,3718.4,0.00037218,3720.8,-0.00012238,4.8749,-0.00012304,-0.029457,0.40131
6836,8.8174,5.8182,0.1,0.00037283,3725.7,0.00037279,3724.6,-0.00012291,0.079402,-0.00012324,-2.423,0.40013
6837,9.0011,0.18182,0.1,0.00036749,3672.4,0.00036744,3670.8,-0.00012111,0.049385,-0.00012155,-3.2788,0.41608
6838,9.0011,0.36364,0.1,0.0003668,3665.5,0.00036686,3667.2,-0.00012076,3.4301,-0.00012122,-0.02608,0.41724
6839,9.0011,0.54545,0.1,0.00036626,3660.1,0.00036641,3664.6,-0.00012011,9.0599,-0.00012131,-0.0067934,0.41832
6840,9.0011,0.72727,0.1,0.00036574,3654.9,0.00036599,3662.1,-0.00011949,14.436,-0.00012141,-0.0075445,0.41932
6841,9.0011,0.90909,0.1,0.00036525,3650,0.00036558,3659.8,-0.0001189,19.574,-0.0001215,-0.005998,0.42025
6842,9.0011,1.0909,0.1,0.00036479,3645.4,0.0003652,3657.5,-0.00011834,24.439,-0.00012159,-0.0053982,0.42109
6843,9.0011,1.2727,0.1,0.00036436,3641.1,0.00036484,3655.5,-0.00011781,28.996,-0.00012167,-0.0047452,0.42186
6844,9.0011,1.4545,0.1,0.00036396,3637.1,0.00036451,3653.6,-0.00011733,33.208,-0.00012175,-0.0042109,0.42255
6845,9.0011,1.6364,0.1,0.0003636,3633.4,0.00036421,3651.8,-0.00011689,37.044,-0.00012182,-0.0037262,0.42316
6846,9.0011,1.8182,0.1,0.00036327,3630.2,0.00036394,3650.3,-0.00011649,40.473,-0.00012188,-0.003301,0.4237
6847,9.0011,2,0.1,0.00036299,3627.4,0.00036371,3648.9,-0.00011615,43.467,-0.00012193,-0.0029314,0.42416
6848,9.0011,2.1818,0.1,0.00036275,3625,0.00036351,3647.8,-0.00011586,46.001,-0.00012198,-0.0026163,0.42454
6849,9.0011,2.3636,0.1,0.00036256,3623.1,0.00036335,3646.9,-0.00011562,48.055,-0.00012202,-0.0023613,0.42484
6850,9.0011,2.5455,0.1,0.00036241,3621.6,0.00036323,3646.2,-0.00011544,49.611,-0.00012204,-0.0021685,0.42507
6851,9.0011,2.7273,0.1,0.00036231,3620.6,0.00036315,3645.7,-0.00011532,50.656,-0.00012206,-0.0020375,0.42522
6852,9.0011,2.9091,0.1,0.00036226,3620.1,0.00036311,3645.5,-0.00011526,51.181,-0.00012207,-0.0019716,0.4253
6853,9.0011,3.0909,0.1,0.00036226,3620.1,0.00036311,3645.5,-0.00011526,51.181,-0.00012207,-0.0019715,0.4253
6854,9.0011,3.2727,0.1,0.00036231,3620.6,0.00036315,3645.7,-0.00011532,50.656,-0.00012206,-0.0020375,0.42522
6855,9.0011,3.4545,0.1,0.00036241,3621.6,0.00036323,3646.2,-0.00011544,49.611,-0.00012204,-0.0021682,0.42507
6856,9.0011,3.6364,0.1,0.00036256,3623.1,0.00036335,3646.9,-0.00011562,48.055,-0.00012202,-0.0023611,0.42484
6857,9.0011,3.8182,0.1,0.00036275,3625,0.00036351,3647.8,-0.00011586,46.001,-0.00012198,-0.0026159,0.42454
6858,9.0011,4,0.1,0.00036299,3627.4,0.00036371,3648.9,-0.00011615,43.467,-0.00012193,-0.0029306,0.42416
6859,9.0011,4.1818,0.1,0.00036327,3630.2,0.00036394,3650.3,-0.00011649,40.473,-0.00012188,-0.0033007,0.4237
6860,9.0011,4.3636,0.1,0.0003636,3633.4,0.00036421,3651.8,-0.00011689,37.044,-0.00012182,-0.0037258,0.42316
6861,9.0011,4.5455,0.1,0.00036396,3637.1,0.00036451,3653.6,-0.00011733,33.208,-0.00012175,-0.0042099,0.42255
6862,9.0011,4.7273,0.1,0.00036436,3641.1,0.00036484,3655.5,-0.00011781,28.996,-0.00012167,-0.0047445,0.42186
6863,9.0011,4.9091,0.1,0.00036479,3645.4,0.0003652,3657.5,-0.00011834,24.439,-0.00012159,-0.0053976,0.42109
6864,9.0011,5.0909,0.1,0.00036525,3650,0.00036558,3659.8,-0.0001189,19.574,-0.0001215,-0.0059968,0.42025
6865,9.0011,5.2727,0.1,0.00036574,3654.9,0.00036599,3662.1,-0.00011949,14.436,-0.00012141,-0.0075432,0.41932
6866,9.0011,5.4545,0.1,0.00036626,3660.1,0.00036641,3664.6,-0.00012011,9.0599,-0.00012131,-0.0067928,0.41832
6867,9.0011,5.6364,0.1,0.0003668,3665.5,0.00036686,3667.2,-0.00012076,3.4301,-0.00012122,-0.026079,0.41724
6868,9.0011,5.8182,0.1,0.00036749,3672.4,0.00036744,3670.8,-0.00012111,0.049387,-0.00012155,-3.2788,0.41608
6869,9.1848,0.18182,0.1,0.00036217,3619.2,0.0003621,3617.2,-0.00011931,0.033188,-0.00011986,-4.0989,0.43226
6870,9.1848,0.36364,0.1,0.00036153,3612.8,0.00036156,3613.8,-0.00011913,2.07,-0.00011941,-0.023235,0.43341
6871,9.1848,0.54545,0.1,0.00036103,3607.8,0.00036115,3611.3,-0.00011854,7.1599,-0.00011949,-0.0058901,0.43448
6872,9.1848,0.72727,0.1,0.00036055,3603.1,0.00036076,3609,-0.00011798,12.015,-0.00011958,-0.0068044,0.43547
6873,9.1848,0.90909,0.1,0.0003601,3598.6,0.00036039,3606.9,-0.00011744,16.655,-0.00011966,-0.005598,0.43639
6874,9.1848,1.0909,0.1,0.00035968,3594.3,0.00036003,3604.8,-0.00011693,21.05,-0.00011974,-0.0051629,0.43723
6875,9.1848,1.2727,0.1,0.00035929,3590.4,0.00035971,3602.9,-0.00011646,25.167,-0.00011981,-0.0046515,0.43799
6876,9.1848,1.4545,0.1,0.00035892,3586.7,0.0003594,3601.1,-0.00011602,28.974,-0.00011988,-0.0042258,0.43867
6877,9.1848,1.6364,0.1,0.00035859,3583.4,0.00035913,3599.5,-0.00011562,32.443,-0.00011994,-0.0038295,0.43927
6878,9.1848,1.8182,0.1,0.00035829,3580.5,0.00035888,3598.1,-0.00011526,35.544,-0.00011999,-0.0034771,0.4398
6879,9.1848,2,0.1,0.00035803,3577.9,0.00035867,3596.8,-0.00011495,38.254,-0.00012004,-0.0031662,0.44026
6880,9.1848,2.1818,0.1,0.00035782,3575.7,0.00035849,3595.8,-0.00011469,40.548,-0.00012008,-0.0028994,0.44064
6881,9.1848,2.3636,0.1,0.00035764,3573.9,0.00035834,3594.9,-0.00011447,42.408,-0.00012012,-0.0026815,0.44094
6882,9.1848,2.5455,0.1,0.00035751,3572.6,0.00035823,3594.3,-0.00011431,43.818,-0.00012014,-0.0025159,0.44117
6883,9.1848,2.7273,0.1,0.00035742,3571.7,0.00035816,3593.9,-0.0001142,44.765,-0.00012016,-0.0024029,0.44132
6884,9.1848,2.9091,0.1,0.00035737,3571.2,0.00035812,3593.6,-0.00011414,45.24,-0.00012017,-0.0023458,0.44139
6885,9.1848,3.0909,0.1,0.00035737,3571.2,0.00035812,3593.6,-0.00011414,45.24,-0.00012017,-0.0023459,0.44139
6886,9.1848,3.2727,0.1,0.00035742,3571.7,0.00035816,3593.9,-0.0001142,44.765,-0.00012016,-0.002403,0.44132
6887,9.1848,3.4545,0.1,0.00035751,3572.6,0.00035823,3594.3,-0.00011431,43.818,-0.00012014,-0.0025156,0.44117
6888,9.1848,3.6364,0.1,0.00035764,3573.9,0.00035834,3594.9,-0.00011447,42.408,-0.00012012,-0.0026812,0.44094
6889,9.1848,3.8182,0.1,0.00035782,3575.7,0.00035849,3595.8,-0.00011469,40.548,-0.00012008,-0.002899,0.44064
6890,9.1848,4,0.1,0.00035803,3577.9,0.00035867,3596.8,-0.00011495,38.254,-0.00012004,-0.0031657,0.44026
6891,9.1848,4.1818,0.1,0.00035829,3580.5,0.00035888,3598.1,-0.00011526,35.544,-0.00011999,-0.0034767,0.4398
6892,9.1848,4.3636,0.1,0.00035859,3583.4,0.00035913,3599.5,-0.00011562,32.443,-0.00011994,-0.003829,0.43927
6893,9.1848,4.5455,0.1,0.00035892,3586.7,0.0003594,3601.1,-0.00011602,28.974,-0.00011988,-0.0042248,0.43867
6894,9.1848,4.7273,0.1,0.00035929,3590.4,0.00035971,3602.9,-0.00011646,25.167,-0.00011981,-0.0046509,0.43799
6895,9.1848,4.9091,0.1,0.00035968,3594.3,0.00036003,3604.8,-0.00011693,21.05,-0.00011974,-0.0051623,0.43723
6896,9.1848,5.0909,0.1,0.0003601,3598.6,0.00036039,3606.9,-0.00011744,16.655,-0.00011966,-0.0055967,0.43639
6897,9.1848,5.2727,0.1,0.00036055,3603.1,0.00036076,3609,-0.00011798,12.015,-0.00011958,-0.0068032,0.43547
6898,9.1848,5.4545,0.1,0.00036103,3607.8,0.00036115,3611.3,-0.00011854,7.1599,-0.00011949,-0.0058896,0.43448
6899,9.1848,5.6364,0.1,0.00036153,3612.8,0.00036156,3613.8,-0.00011913,2.0701,-0.00011941,-0.023234,0.43341
6900,9.1848,5.8182,0.1,0.00036217,3619.2,0.0003621,3617.2,-0.00011931,0.033189,-0.00011986,-4.0989,0.43226
6901,9.3685,0.18182,0.1,0.00035688,3566.3,0.0003568,3563.9,-0.00011753,0.02336,-0.00011818,-4.8792,0.4487
6902,9.3685,0.36364,0.1,0.00035627,3560.2,0.00035628,3560.6,-0.0001175,0.78891,-0.00011761,-0.022274,0.44983
6903,9.3685,0.54545,0.1,0.00035581,3555.7,0.0003559,3558.3,-0.00011697,5.3693,-0.00011768,-0.0051049,0.45089
6904,9.3685,0.72727,0.1,0.00035538,3551.3,0.00035554,3556.2,-0.00011646,9.7346,-0.00011776,-0.0061753,0.45187
6905,9.3685,0.90909,0.1,0.00035497,3547.2,0.0003552,3554.2,-0.00011598,13.908,-0.00011783,-0.0052743,0.45278
6906,9.3685,1.0909,0.1,0.00035458,3543.4,0.00035488,3552.3,-0.00011552,17.862,-0.0001179,-0.0049823,0.4536
6907,9.3685,1.2727,0.1,0.00035422,3539.8,0.00035458,3550.5,-0.00011509,21.568,-0.00011796,-0.0045953,0.45435
6908,9.3685,1.4545,0.1,0.00035389,3536.4,0.00035431,3548.9,-0.00011469,24.997,-0.00011802,-0.0042633,0.45503
6909,9.3685,1.6364,0.1,0.00035359,3533.4,0.00035406,3547.4,-0.00011433,28.123,-0.00011807,-0.0039452,0.45563
6910,9.3685,1.8182,0.1,0.00035332,3530.7,0.00035383,3546.1,-0.00011401,30.92,-0.00011812,-0.0036564,0.45615
6911,9.3685,2,0.1,0.00035308,3528.4,0.00035364,3544.9,-0.00011372,33.365,-0.00011817,-0.0033978,0.4566
6912,9.3685,2.1818,0.1,0.00035288,3526.4,0.00035347,3544,-0.00011349,35.437,-0.0001182,-0.0031726,0.45698
6913,9.3685,2.3636,0.1,0.00035272,3524.8,0.00035334,3543.2,-0.00011329,37.117,-0.00011823,-0.0029869,0.45728
6914,9.3685,2.5455,0.1,0.0003526,3523.5,0.00035324,3542.6,-0.00011314,38.391,-0.00011825,-0.0028451,0.4575
6915,9.3685,2.7273,0.1,0.00035252,3522.7,0.00035317,3542.2,-0.00011305,39.247,-0.00011827,-0.0027481,0.45765
6916,9.3685,2.9091,0.1,0.00035247,3522.3,0.00035313,3542,-0.000113,39.677,-0.00011828,-0.0026985,0.45773
6917,9.3685,3.0909,0.1,0.00035247,3522.3,0.00035313,3542,-0.000113,39.677,-0.00011828,-0.0026985,0.45773
6918,9.3685,3.2727,0.1,0.00035252,3522.7,0.00035317,3542.2,-0.00011305,39.247,-0.00011827,-0.0027476,0.45765
6919,9.3685,3.4545,0.1,0.0003526,3523.5,0.00035324,3542.6,-0.00011314,38.391,-0.00011825,-0.0028455,0.4575
6920,9.3685,3.6364,0.1,0.00035272,3524.8,0.00035334,3543.2,-0.00011329,37.117,-0.00011823,-0.0029866,0.45728
6921,9.3685,3.8182,0.1,0.00035288,3526.4,0.00035347,3544,-0.00011349,35.437,-0.0001182,-0.0031723,0.45698
6922,9.3685,4,0.1,0.00035308,3528.4,0.00035364,3544.9,-0.00011372,33.365,-0.00011817,-0.0033972,0.4566
6923,9.3685,4.1818,0.1,0.00035332,3530.7,0.00035383,3546.1,-0.00011401,30.92,-0.00011812,-0.0036559,0.45615
6924,9.3685,4.3636,0.1,0.00035359,3533.4,0.00035406,3547.4,-0.00011433,28.123,-0.00011807,-0.0039445,0.45563
6925,9.3685,4.5455,0.1,0.00035389,3536.4,0.00035431,3548.9,-0.00011469,24.997,-0.00011802,-0.0042626,0.45503
6926,9.3685,4.7273,0.1,0.00035422,3539.8,0.00035458,3550.5,-0.00011509,21.568,-0.00011796,-0.0045945,0.45435
6927,9.3685,4.9091,0.1,0.00035458,3543.4,0.00035488,3552.3,-0.00011552,17.862,-0.0001179,-0.0049818,0.4536
6928,9.3685,5.0909,0.1,0.00035497,3547.2,0.0003552,3554.2,-0.00011598,13.908,-0.00011783,-0.0052729,0.45278
6929,9.3685,5.2727,0.1,0.00035538,3551.3,0.00035554,3556.2,-0.00011646,9.7346,-0.00011776,-0.0061741,0.45187
6930,9.3685,5.4545,0.1,0.00035581,3555.7,0.0003559,3558.3,-0.00011697,5.3693,-0.00011768,-0.0051039,0.45089
6931,9.3685,5.6364,0.1,0.00035627,3560.2,0.00035628,3560.6,-0.0001175,0.78894,-0.00011761,-0.022274,0.44983
6932,9.3685,5.8182,0.1,0.00035688,3566.3,0.0003568,3563.9,-0.00011753,0.023361,-0.00011818,-4.8792,0.4487
6933,9.5522,0.18182,0.1,0.00035161,3513.7,0.00035151,3510.9,-0.00011575,0.016924,-0.0001165,-5.6198,0.46537
6934,9.5522,0.36364,0.1,0.00035103,3507.9,0.00035103,3507.7,-0.00011582,-0.0086456,-0.00011588,-0.43488,0.46649
6935,9.5522,0.54545,0.1,0.00035061,3503.7,0.00035068,3505.6,-0.0001154,3.6774,-0.00011589,-0.0044994,0.46754
6936,9.5522,0.72727,0.1,0.00035022,3499.8,0.00035035,3503.6,-0.00011494,7.5813,-0.00011595,-0.0056963,0.46851
6937,9.5522,0.90909,0.1,0.00034985,3496.1,0.00035004,3501.7,-0.0001145,11.315,-0.00011601,-0.0050525,0.4694
6938,9.5522,1.0909,0.1,0.0003495,3492.6,0.00034975,3500,-0.00011409,14.855,-0.00011607,-0.0048749,0.47022
6939,9.5522,1.2727,0.1,0.00034917,3489.3,0.00034947,3498.3,-0.00011371,18.175,-0.00011613,-0.00459,0.47096
6940,9.5522,1.4545,0.1,0.00034887,3486.2,0.00034922,3496.8,-0.00011335,21.251,-0.00011618,-0.0043366,0.47163
6941,9.5522,1.6364,0.1,0.00034859,3483.5,0.00034899,3495.5,-0.00011302,24.057,-0.00011622,-0.004084,0.47222
6942,9.5522,1.8182,0.1,0.00034834,3481,0.00034879,3494.2,-0.00011273,26.571,-0.00011627,-0.0038491,0.47274
6943,9.5522,2,0.1,0.00034813,3478.9,0.00034861,3493.2,-0.00011248,28.77,-0.00011631,-0.0036348,0.47319
6944,9.5522,2.1818,0.1,0.00034795,3477.1,0.00034846,3492.3,-0.00011226,30.635,-0.00011634,-0.0034455,0.47356
6945,9.5522,2.3636,0.1,0.0003478,3475.6,0.00034834,3491.6,-0.00011208,32.148,-0.00011636,-0.0032876,0.47385
6946,9.5522,2.5455,0.1,0.00034769,3474.5,0.00034824,3491,-0.00011195,33.296,-0.00011638,-0.0031663,0.47408
6947,9.5522,2.7273,0.1,0.00034762,3473.8,0.00034818,3490.7,-0.00011186,34.068,-0.0001164,-0.0030826,0.47422
6948,9.5522,2.9091,0.1,0.00034758,3473.4,0.00034815,3490.5,-0.00011182,34.456,-0.0001164,-0.0030395,0.4743
6949,9.5522,3.0909,0.1,0.00034758,3473.4,0.00034815,3490.5,-0.00011182,34.456,-0.0001164,-0.0030396,0.4743
6950,9.5522,3.2727,0.1,0.00034762,3473.8,0.00034818,3490.7,-0.00011186,34.068,-0.0001164,-0.0030825,0.47422
6951,9.5522,3.4545,0.1,0.00034769,3474.5,0.00034824,3491,-0.00011195,33.296,-0.00011638,-0.003166,0.47408
6952,9.5522,3.6364,0.1,0.0003478,3475.6,0.00034834,3491.6,-0.00011208,32.148,-0.00011636,-0.0032873,0.47385
6953,9.5522,3.8182,0.1,0.00034795,3477.1,0.00034846,3492.3,-0.00011226,30.635,-0.00011634,-0.0034452,0.47356
6954,9.5522,4,0.1,0.00034813,3478.9,0.00034861,3493.2,-0.00011248,28.77,-0.00011631,-0.0036348,0.47319
6955,9.5522,4.1818,0.1,0.00034834,3481,0.00034879,3494.2,-0.00011273,26.571,-0.00011627,-0.0038489,0.47274
6956,9.5522,4.3636,0.1,0.00034859,3483.5,0.00034899,3495.5,-0.00011302,24.057,-0.00011622,-0.0040836,0.47222
6957,9.5522,4.5455,0.1,0.00034887,3486.2,0.00034922,3496.8,-0.00011335,21.251,-0.00011618,-0.004336,0.47163
6958,9.5522,4.7273,0.1,0.00034917,3489.3,0.00034947,3498.3,-0.00011371,18.175,-0.00011612,-0.0045897,0.47096
6959,9.5522,4.9091,0.1,0.0003495,3492.6,0.00034975,3500,-0.00011409,14.855,-0.00011607,-0.0048743,0.47022
6960,9.5522,5.0909,0.1,0.00034985,3496.1,0.00035004,3501.7,-0.0001145,11.315,-0.00011601,-0.0050514,0.4694
6961,9.5522,5.2727,0.1,0.00035022,3499.8,0.00035035,3503.6,-0.00011494,7.5813,-0.00011595,-0.0056951,0.46851
6962,9.5522,5.4545,0.1,0.00035061,3503.7,0.00035068,3505.6,-0.0001154,3.6774,-0.00011589,-0.0044989,0.46754
6963,9.5522,5.6364,0.1,0.00035103,3507.9,0.00035103,3507.7,-0.00011582,-0.0086437,-0.00011588,-0.43484,0.46649
6964,9.5522,5.8182,0.1,0.00035161,3513.7,0.00035151,3510.9,-0.00011575,0.016924,-0.0001165,-5.6197,0.46537
6965,9.7359,0.18182,0.1,0.00034636,3461.2,0.00034625,3458,-0.00011398,0.012502,-0.00011483,-6.3224,0.48228
6966,9.7359,0.36364,0.1,0.00034582,3455.8,0.00034579,3455,-0.00011404,-0.010917,-0.00011425,-1.5796,0.48339
6967,9.7359,0.54545,0.1,0.00034544,3452,0.00034547,3453,-0.00011382,2.074,-0.0001141,-0.0042851,0.48442
6968,9.7359,0.72727,0.1,0.00034508,3448.4,0.00034517,3451.2,-0.00011341,5.5409,-0.00011415,-0.0054234,0.48538
6969,9.7359,0.90909,0.1,0.00034474,3445,0.00034489,3449.4,-0.00011302,8.8591,-0.0001142,-0.0049472,0.48626
6970,9.7359,1.0909,0.1,0.00034442,3441.8,0.00034462,3447.8,-0.00011266,12.009,-0.00011425,-0.0048374,0.48707
6971,9.7359,1.2727,0.1,0.00034412,3438.9,0.00034438,3446.3,-0.00011231,14.967,-0.0001143,-0.0046257,0.48781
6972,9.7359,1.4545,0.1,0.00034385,3436.1,0.00034415,3445,-0.00011199,17.711,-0.00011435,-0.0044309,0.48847
6973,9.7359,1.6364,0.1,0.0003436,3433.6,0.00034394,3443.7,-0.0001117,20.218,-0.00011439,-0.0042295,0.48905
6974,9.7359,1.8182,0.1,0.00034338,3431.4,0.00034376,3442.6,-0.00011144,22.467,-0.00011443,-0.004038,0.48957
6975,9.7359,2,0.1,0.00034318,3429.5,0.00034359,3441.6,-0.00011121,24.438,-0.00011446,-0.0038593,0.49001
6976,9.7359,2.1818,0.1,0.00034302,3427.8,0.00034346,3440.8,-0.00011101,26.111,-0.00011449,-0.0036987,0.49037
6977,9.7359,2.3636,0.1,0.00034289,3426.5,0.00034334,3440.1,-0.00011085,27.47,-0.00011451,-0.0035634,0.49067
6978,9.7359,2.5455,0.1,0.00034278,3425.5,0.00034326,3439.6,-0.00011073,28.502,-0.00011453,-0.0034589,0.49089
6979,9.7359,2.7273,0.1,0.00034272,3424.8,0.0003432,3439.3,-0.00011065,29.196,-0.00011454,-0.0033858,0.49103
6980,9.7359,2.9091,0.1,0.00034268,3424.5,0.00034318,3439.1,-0.00011061,29.545,-0.00011455,-0.0033487,0.4911
6981,9.7359,3.0909,0.1,0.00034268,3424.5,0.00034318,3439.1,-0.00011061,29.545,-0.00011455,-0.0033486,0.4911
6982,9.7359,3.2727,0.1,0.00034272,3424.8,0.0003432,3439.3,-0.00011065,29.196,-0.00011454,-0.0033857,0.49103
6983,9.7359,3.4545,0.1,0.00034278,3425.5,0.00034326,3439.6,-0.00011073,28.502,-0.00011453,-0.0034587,0.49089
6984,9.7359,3.6364,0.1,0.00034289,3426.5,0.00034334,3440.1,-0.00011085,27.47,-0.00011451,-0.0035632,0.49067
6985,9.7359,3.8182,0.1,0.00034302,3427.8,0.00034346,3440.8,-0.00011101,26.111,-0.00011449,-0.0036987,0.49037
6986,9.7359,4,0.1,0.00034318,3429.5,0.00034359,3441.6,-0.00011121,24.438,-0.00011446,-0.003859,0.49001
6987,9.7359,4.1818,0.1,0.00034338,3431.4,0.00034376,3442.6,-0.00011144,22.467,-0.00011443,-0.0040377,0.48957
6988,9.7359,4.3636,0.1,0.0003436,3433.6,0.00034394,3443.7,-0.0001117,20.218,-0.00011439,-0.0042291,0.48905
6989,9.7359,4.5455,0.1,0.00034385,3436.1,0.00034415,3445,-0.00011199,17.711,-0.00011435,-0.0044304,0.48847
6990,9.7359,4.7273,0.1,0.00034412,3438.9,0.00034438,3446.3,-0.00011231,14.967,-0.0001143,-0.0046251,0.48781
6991,9.7359,4.9091,0.1,0.00034442,3441.8,0.00034462,3447.8,-0.00011266,12.009,-0.00011425,-0.0048366,0.48707
6992,9.7359,5.0909,0.1,0.00034474,3445,0.00034489,3449.4,-0.00011302,8.8591,-0.0001142,-0.004946,0.48626
6993,9.7359,5.2727,0.1,0.00034508,3448.4,0.00034517,3451.2,-0.00011341,5.5409,-0.00011415,-0.0054224,0.48538
6994,9.7359,5.4545,0.1,0.00034544,3452,0.00034547,3453,-0.00011382,2.074,-0.0001141,-0.0042843,0.48442
6995,9.7359,5.6364,0.1,0.00034582,3455.8,0.00034579,3455,-0.00011404,-0.010916,-0.00011425,-1.5796,0.48339
6996,9.7359,5.8182,0.1,0.00034636,3461.2,0.00034625,3458,-0.00011398,0.012503,-0.00011483,-6.3223,0.48228
6997,9.9196,0.18182,0.1,0.00034113,3408.9,0.00034101,3405.4,-0.00011222,0.0093246,-0.00011316,-6.9892,0.49942
6998,9.9196,0.36364,0.1,0.00034062,3403.8,0.00034057,3402.5,-0.00011227,-0.0089943,-0.00011263,-2.6721,0.50052
6999,9.9196,0.54545,0.1,0.00034027,3400.4,0.00034028,3400.7,-0.00011224,0.55161,-0.00011232,-0.0072582,0.50154
7000,9.9196,0.72727,0.1,0.00033995,3397.2,0.00034001,3399,-0.00011188,3.6004,-0.00011236,-0.0056389,0.50248
7001,9.9196,0.90909,0.1,0.00033965,3394.1,0.00033976,3397.4,-0.00011154,6.5243,-0.00011241,-0.005082,0.50336
7002,9.9196,1.0909,0.1,0.00033936,3391.3,0.00033952,3395.9,-0.00011121,9.3047,-0.00011245,-0.0049466,0.50416
7003,9.9196,1.2727,0.1,0.00033909,3388.6,0.00033929,3394.5,-0.0001109,11.922,-0.00011249,-0.00476,0.50488
7004,9.9196,1.4545,0.1,0.00033885,3386.1,0.00033909,3393.3,-0.00011062,14.354,-0.00011253,-0.0045951,0.50554
7005,9.9196,1.6364,0.1,0.00033862,3383.9,0.0003389,3392.1,-0.00011036,16.582,-0.00011257,-0.0044256,0.50612
7006,9.9196,1.8182,0.1,0.00033842,3381.9,0.00033873,3391.1,-0.00011012,18.584,-0.0001126,-0.0042629,0.50662
7007,9.9196,2,0.1,0.00033824,3380.1,0.00033859,3390.2,-0.00010992,20.342,-0.00011263,-0.0041104,0.50706
7008,9.9196,2.1818,0.1,0.0003381,3378.6,0.00033846,3389.5,-0.00010974,21.837,-0.00011265,-0.0039715,0.50742
7009,9.9196,2.3636,0.1,0.00033797,3377.4,0.00033836,3388.9,-0.0001096,23.054,-0.00011267,-0.0038531,0.50771
7010,9.9196,2.5455,0.1,0.00033788,3376.5,0.00033828,3388.4,-0.0001095,23.979,-0.00011269,-0.0037606,0.50793
7011,9.9196,2.7273,0.1,0.00033782,3375.9,0.00033823,3388.1,-0.00010942,24.602,-0.0001127,-0.0036964,0.50807
7012,9.9196,2.9091,0.1,0.00033779,3375.6,0.00033821,3388,-0.00010939,24.915,-0.0001127,-0.0036627,0.50814
7013,9.9196,3.0909,0.1,0.00033779,3375.6,0.00033821,3388,-0.00010939,24.915,-0.0001127,-0.0036627,0.50814
7014,9.9196,3.2727,0.1,0.00033782,3375.9,0.00033823,3388.1,-0.00010942,24.602,-0.0001127,-0.0036962,0.50807
7015,9.9196,3.4545,0.1,0.00033788,3376.5,0.00033828,3388.4,-0.0001095,23.979,-0.00011269,-0.0037608,0.50793
7016,9.9196,3.6364,0.1,0.00033797,3377.4,0.00033836,3388.9,-0.0001096,23.054,-0.00011267,-0.0038528,0.50771
7017,9.9196,3.8182,0.1,0.0003381,3378.6,0.00033846,3389.5,-0.00010974,21.837,-0.00011265,-0.0039707,0.50742
7018,9.9196,4,0.1,0.00033824,3380.1,0.00033859,3390.2,-0.00010992,20.342,-0.00011263,-0.0041099,0.50706
7019,9.9196,4.1818,0.1,0.00033842,3381.9,0.00033873,3391.1,-0.00011012,18.584,-0.0001126,-0.0042624,0.50662
7020,9.9196,4.3636,0.1,0.00033862,3383.9,0.0003389,3392.1,-0.00011036,16.582,-0.00011257,-0.0044251,0.50612
7021,9.9196,4.5455,0.1,0.00033885,3386.1,0.00033909,3393.3,-0.00011062,14.354,-0.00011253,-0.004594,0.50554
7022,9.9196,4.7273,0.1,0.00033909,3388.6,0.00033929,3394.5,-0.0001109,11.922,-0.00011249,-0.0047596,0.50488
7023,9.9196,4.9091,0.1,0.00033936,3391.3,0.00033952,3395.9,-0.00011121,9.3047,-0.00011245,-0.0049462,0.50416
7024,9.9196,5.0909,0.1,0.00033965,3394.1,0.00033976,3397.4,-0.00011154,6.5243,-0.00011241,-0.0050811,0.50336
7025,9.9196,5.2727,0.1,0.00033995,3397.2,0.00034001,3399,-0.00011188,3.6004,-0.00011236,-0.0056381,0.50248
7026,9.9196,5.4545,0.1,0.00034027,3400.4,0.00034028,3400.7,-0.00011224,0.55162,-0.00011232,-0.0072572,0.50154
7027,9.9196,5.6364,0.1,0.00034062,3403.8,0.00034057,3402.5,-0.00011227,-0.0089935,-0.00011263,-2.6721,0.50052
7028,9.9196,5.8182,0.1,0.00034113,3408.9,0.00034101,3405.4,-0.00011222,0.0093259,-0.00011316,-6.9892,0.49942
7029,10.103,0.18182,0.1,0.00033592,3356.8,0.00033579,3353,-0.00011047,0.0069587,-0.00011149,-7.6231,0.5168
7030,10.103,0.36364,0.1,0.00033544,3352.1,0.00033538,3350.2,-0.00011051,-0.0067639,-0.00011101,-3.7155,0.51788
7031,10.103,0.54545,0.1,0.00033513,3349,0.00033511,3348.5,-0.00011055,0.0014813,-0.00011067,-0.91515,0.51888
7032,10.103,0.72727,0.1,0.00033484,3346.1,0.00033487,3347,-0.00011035,1.7472,-0.00011058,-0.0076153,0.51982
7033,10.103,0.90909,0.1,0.00033457,3343.4,0.00033464,3345.5,-0.00011005,4.2943,-0.00011062,-0.0057273,0.52068
7034,10.103,1.0909,0.1,0.00033431,3340.8,0.00033443,3344.2,-0.00010976,6.7242,-0.00011066,-0.0053156,0.52147
7035,10.103,1.2727,0.1,0.00033407,3338.4,0.00033423,3342.9,-0.00010949,9.0183,-0.00011069,-0.0050538,0.52219
7036,10.103,1.4545,0.1,0.00033385,3336.2,0.00033404,3341.8,-0.00010924,11.158,-0.00011072,-0.0048667,0.52283
7037,10.103,1.6364,0.1,0.00033365,3334.2,0.00033387,3340.7,-0.00010901,13.124,-0.00011075,-0.0046989,0.52341
7038,10.103,1.8182,0.1,0.00033347,3332.4,0.00033372,3339.8,-0.0001088,14.896,-0.00011078,-0.0045467,0.52391
7039,10.103,2,0.1,0.00033331,3330.8,0.00033359,3339,-0.00010862,16.456,-0.00011081,-0.0044061,0.52434
7040,10.103,2.1818,0.1,0.00033318,3329.5,0.00033348,3338.3,-0.00010846,17.787,-0.00011083,-0.0042791,0.52469
7041,10.103,2.3636,0.1,0.00033307,3328.4,0.00033339,3337.8,-0.00010833,18.872,-0.00011085,-0.0041716,0.52498
7042,10.103,2.5455,0.1,0.00033299,3327.6,0.00033332,3337.4,-0.00010824,19.699,-0.00011086,-0.004087,0.5252
7043,10.103,2.7273,0.1,0.00033293,3327,0.00033327,3337.1,-0.00010817,20.256,-0.00011087,-0.0040275,0.52534
7044,10.103,2.9091,0.1,0.0003329,3326.7,0.00033325,3337,-0.00010814,20.536,-0.00011087,-0.0039971,0.52541
7045,10.103,3.0909,0.1,0.0003329,3326.7,0.00033325,3337,-0.00010814,20.536,-0.00011087,-0.0039969,0.52541
7046,10.103,3.2727,0.1,0.00033293,3327,0.00033327,3337.1,-0.00010817,20.256,-0.00011087,-0.0040276,0.52534
7047,10.103,3.4545,0.1,0.00033299,3327.6,0.00033332,3337.4,-0.00010824,19.699,-0.00011086,-0.004087,0.5252
7048,10.103,3.6364,0.1,0.00033307,3328.4,0.00033339,3337.8,-0.00010833,18.872,-0.00011085,-0.004171,0.52498
7049,10.103,3.8182,0.1,0.00033318,3329.5,0.00033348,3338.3,-0.00010846,17.787,-0.00011083,-0.0042793,0.52469
7050,10.103,4,0.1,0.00033331,3330.8,0.00033359,3339,-0.00010862,16.456,-0.00011081,-0.0044058,0.52434
7051,10.103,4.1818,0.1,0.00033347,3332.4,0.00033372,3339.8,-0.0001088,14.896,-0.00011078,-0.0045461,0.52391
7052,10.103,4.3636,0.1,0.00033365,3334.2,0.00033387,3340.7,-0.00010901,13.124,-0.00011075,-0.0046983,0.52341
7053,10.103,4.5455,0.1,0.00033385,3336.2,0.00033404,3341.8,-0.00010924,11.158,-0.00011072,-0.0048659,0.52283
7054,10.103,4.7273,0.1,0.00033407,3338.4,0.00033423,3342.9,-0.00010949,9.0183,-0.00011069,-0.005053,0.52219
7055,10.103,4.9091,0.1,0.00033431,3340.8,0.00033443,3344.2,-0.00010976,6.7242,-0.00011066,-0.0053147,0.52147
7056,10.103,5.0909,0.1,0.00033457,3343.4,0.00033464,3345.5,-0.00011005,4.2943,-0.00011062,-0.0057258,0.52068
7057,10.103,5.2727,0.1,0.00033484,3346.1,0.00033487,3347,-0.00011035,1.7472,-0.00011058,-0.0076144,0.51982
7058,10.103,5.4545,0.1,0.00033513,3349,0.00033511,3348.5,-0.00011055,0.0014814,-0.00011067,-0.91513,0.51888
7059,10.103,5.6364,0.1,0.00033544,3352.1,0.00033538,3350.2,-0.00011051,-0.0067626,-0.00011101,-3.7155,0.51788
7060,10.103,5.8182,0.1,0.00033592,3356.8,0.00033579,3353,-0.00011047,0.0069597,-0.00011149,-7.623,0.5168
7061,10.287,0.18182,0.1,0.00033072,3305,0.00033058,3300.8,-0.00010873,0.0052468,-0.00010983,-8.2264,0.53439
7062,10.287,0.36364,0.1,0.00033028,3300.5,0.0003302,3298.1,-0.00010876,-0.0044187,-0.00010939,-4.716,0.53546
7063,10.287,0.54545,0.1,0.00033,3297.7,0.00032996,3296.6,-0.00010879,0.00029088,-0.00010909,-2.3145,0.53645
7064,10.287,0.72727,0.1,0.00032975,3295.2,0.00032975,3295.2,-0.0001088,0.072774,-0.00010883,-0.11571,0.53738
7065,10.287,0.90909,0.1,0.00032951,3292.8,0.00032954,3293.9,-0.00010856,2.1544,-0.00010884,-0.0080304,0.53823
7066,10.287,1.0909,0.1,0.00032928,3290.5,0.00032935,3292.6,-0.00010831,4.2489,-0.00010887,-0.006159,0.53901
7067,10.287,1.2727,0.1,0.00032907,3288.4,0.00032917,3291.5,-0.00010807,6.2368,-0.0001089,-0.0055282,0.53972
7068,10.287,1.4545,0.1,0.00032887,3286.4,0.00032901,3290.5,-0.00010785,8.0999,-0.00010893,-0.0052025,0.54036
7069,10.287,1.6364,0.1,0.00032869,3284.6,0.00032886,3289.5,-0.00010765,9.8199,-0.00010895,-0.0049781,0.54092
7070,10.287,1.8182,0.1,0.00032853,3283,0.00032872,3288.7,-0.00010746,11.378,-0.00010898,-0.0048028,0.54142
7071,10.287,2,0.1,0.00032839,3281.6,0.00032861,3288,-0.0001073,12.755,-0.000109,-0.004655,0.54184
7072,10.287,2.1818,0.1,0.00032827,3280.4,0.00032851,3287.4,-0.00010716,13.934,-0.00010902,-0.0045274,0.54219
7073,10.287,2.3636,0.1,0.00032817,3279.5,0.00032842,3286.9,-0.00010705,14.899,-0.00010903,-0.0044206,0.54248
7074,10.287,2.5455,0.1,0.0003281,3278.7,0.00032836,3286.5,-0.00010697,15.636,-0.00010905,-0.0043388,0.54269
7075,10.287,2.7273,0.1,0.00032805,3278.2,0.00032832,3286.3,-0.00010691,16.133,-0.00010905,-0.0042814,0.54283
7076,10.287,2.9091,0.1,0.00032802,3278,0.0003283,3286.1,-0.00010688,16.383,-0.00010906,-0.0042519,0.5429
7077,10.287,3.0909,0.1,0.00032802,3278,0.0003283,3286.1,-0.00010688,16.383,-0.00010906,-0.0042515,0.5429
7078,10.287,3.2727,0.1,0.00032805,3278.2,0.00032832,3286.3,-0.00010691,16.133,-0.00010905,-0.0042812,0.54283
7079,10.287,3.4545,0.1,0.0003281,3278.7,0.00032836,3286.5,-0.00010697,15.636,-0.00010905,-0.0043385,0.54269
7080,10.287,3.6364,0.1,0.00032817,3279.5,0.00032842,3286.9,-0.00010705,14.899,-0.00010903,-0.0044206,0.54248
7081,10.287,3.8182,0.1,0.00032827,3280.4,0.00032851,3287.4,-0.00010716,13.934,-0.00010902,-0.0045265,0.54219
7082,10.287,4,0.1,0.00032839,3281.6,0.00032861,3288,-0.0001073,12.755,-0.000109,-0.0046543,0.54184
7083,10.287,4.1818,0.1,0.00032853,3283,0.00032872,3288.7,-0.00010746,11.378,-0.00010898,-0.0048026,0.54142
7084,10.287,4.3636,0.1,0.00032869,3284.6,0.00032886,3289.5,-0.00010765,9.8199,-0.00010895,-0.0049776,0.54092
7085,10.287,4.5455,0.1,0.00032887,3286.4,0.00032901,3290.5,-0.00010785,8.0999,-0.00010893,-0.0052019,0.54036
7086,10.287,4.7273,0.1,0.00032907,3288.4,0.00032917,3291.5,-0.00010807,6.2368,-0.0001089,-0.0055278,0.53972
7087,10.287,4.9091,0.1,0.00032928,3290.5,0.00032935,3292.6,-0.00010831,4.2489,-0.00010887,-0.0061585,0.53901
7088,10.287,5.0909,0.1,0.00032951,3292.8,0.00032954,3293.9,-0.00010856,2.1544,-0.00010884,-0.0080286,0.53823
7089,10.287,5.2727,0.1,0.00032975,3295.2,0.00032975,3295.2,-0.0001088,0.072778,-0.00010883,-0.1157,0.53738
7090,10.287,5.4545,0.1,0.00033,3297.7,0.00032996,3296.6,-0.00010879,0.00029089,-0.00010909,-2.3145,0.53645
7091,10.287,5.6364,0.1,0.00033028,3300.5,0.0003302,3298.1,-0.00010876,-0.0044175,-0.00010939,-4.716,0.53546
7092,10.287,5.8182,0.1,0.00033072,3305,0.00033058,3300.8,-0.00010873,0.0052474,-0.00010983,-8.2263,0.53439
7093,10.471,0.18182,0.1,0.00032555,3253.3,0.0003254,3248.8,-0.00010699,0.0039798,-0.00010817,-8.8021,0.55221
7094,10.471,0.36364,0.1,0.00032513,3249.1,0.00032504,3246.3,-0.00010701,-0.0020689,-0.00010777,-5.6806,0.55327
7095,10.471,0.54545,0.1,0.00032489,3246.7,0.00032483,3244.8,-0.00010703,0.0004745,-0.00010752,-3.6686,0.55425
7096,10.471,0.72727,0.1,0.00032467,3244.4,0.00032464,3243.6,-0.00010705,0.0031125,-0.00010729,-1.7699,0.55516
7097,10.471,0.90909,0.1,0.00032446,3242.3,0.00032446,3242.4,-0.00010705,0.151,-0.00010709,-0.074955,0.556
7098,10.471,1.0909,0.1,0.00032426,3240.4,0.00032429,3241.3,-0.00010685,1.8621,-0.0001071,-0.0094091,0.55677
7099,10.471,1.2727,0.1,0.00032407,3238.5,0.00032414,3240.3,-0.00010665,3.5568,-0.00010712,-0.0067103,0.55747
7100,10.471,1.4545,0.1,0.0003239,3236.8,0.00032399,3239.4,-0.00010646,5.1585,-0.00010714,-0.0058292,0.5581
7101,10.471,1.6364,0.1,0.00032375,3235.2,0.00032386,3238.5,-0.00010628,6.6481,-0.00010717,-0.0053906,0.55866
7102,10.471,1.8182,0.1,0.0003236,3233.8,0.00032374,3237.8,-0.00010612,8.0068,-0.00010719,-0.0051188,0.55915
7103,10.471,2,0.1,0.00032348,3232.6,0.00032364,3237.2,-0.00010598,9.2153,-0.0001072,-0.0049249,0.55957
7104,10.471,2.1818,0.1,0.00032337,3231.5,0.00032355,3236.6,-0.00010586,10.256,-0.00010722,-0.0047748,0.55992
7105,10.471,2.3636,0.1,0.00032329,3230.6,0.00032347,3236.2,-0.00010576,11.11,-0.00010723,-0.0046571,0.5602
7106,10.471,2.5455,0.1,0.00032322,3230,0.00032342,3235.8,-0.00010568,11.765,-0.00010725,-0.0045692,0.56041
7107,10.471,2.7273,0.1,0.00032318,3229.5,0.00032338,3235.6,-0.00010563,12.209,-0.00010725,-0.0045089,0.56055
7108,10.471,2.9091,0.1,0.00032315,3229.3,0.00032336,3235.5,-0.0001056,12.432,-0.00010726,-0.004478,0.56062
7109,10.471,3.0909,0.1,0.00032315,3229.3,0.00032336,3235.5,-0.0001056,12.432,-0.00010726,-0.0044784,0.56062
7110,10.471,3.2727,0.1,0.00032318,3229.5,0.00032338,3235.6,-0.00010563,12.209,-0.00010725,-0.0045088,0.56055
7111,10.471,3.4545,0.1,0.00032322,3230,0.00032342,3235.8,-0.00010568,11.765,-0.00010725,-0.0045693,0.56041
7112,10.471,3.6364,0.1,0.00032329,3230.6,0.00032347,3236.2,-0.00010576,11.11,-0.00010723,-0.0046565,0.5602
7113,10.471,3.8182,0.1,0.00032337,3231.5,0.00032355,3236.6,-0.00010586,10.256,-0.00010722,-0.0047744,0.55992
7114,10.471,4,0.1,0.00032348,3232.6,0.00032364,3237.2,-0.00010598,9.2153,-0.0001072,-0.0049249,0.55957
7115,10.471,4.1818,0.1,0.0003236,3233.8,0.00032374,3237.8,-0.00010612,8.0068,-0.00010719,-0.0051187,0.55915
7116,10.471,4.3636,0.1,0.00032375,3235.2,0.00032386,3238.5,-0.00010628,6.6481,-0.00010717,-0.0053901,0.55866
7117,10.471,4.5455,0.1,0.0003239,3236.8,0.00032399,3239.4,-0.00010646,5.1585,-0.00010714,-0.0058293,0.5581
7118,10.471,4.7273,0.1,0.00032407,3238.5,0.00032414,3240.3,-0.00010665,3.5569,-0.00010712,-0.0067097,0.55747
7119,10.471,4.9091,0.1,0.00032426,3240.4,0.00032429,3241.3,-0.00010685,1.8621,-0.0001071,-0.0094081,0.55677
7120,10.471,5.0909,0.1,0.00032446,3242.3,0.00032446,3242.4,-0.00010705,0.151,-0.00010709,-0.074951,0.556
7121,10.471,5.2727,0.1,0.00032467,3244.4,0.00032464,3243.6,-0.00010705,0.0031137,-0.00010729,-1.7699,0.55516
7122,10.471,5.4545,0.1,0.00032489,3246.7,0.00032483,3244.8,-0.00010703,0.00047473,-0.00010752,-3.6685,0.55425
7123,10.471,5.6364,0.1,0.00032513,3249.1,0.00032504,3246.3,-0.00010701,-0.0020677,-0.00010777,-5.6806,0.55327
7124,10.471,5.8182,0.1,0.00032555,3253.3,0.0003254,3248.8,-0.00010699,0.0039808,-0.00010817,-8.8021,0.55221
7125,10.654,0.18182,0.1,0.00032039,3201.7,0.00032023,3197,-0.00010527,0.0029925,-0.00010651,-9.3533,0.57025
7126,10.654,0.36364,0.1,0.00032001,3197.9,0.00031989,3194.6,-0.00010527,0.00021644,-0.00010616,-6.6166,0.57129
7127,10.654,0.54545,0.1,0.0003198,3195.8,0.00031971,3193.3,-0.00010529,0.00081067,-0.00010595,-4.9871,0.57226
7128,10.654,0.72727,0.1,0.00031961,3193.9,0.00031955,3192.1,-0.0001053,0.0011826,-0.00010576,-3.4473,0.57316
7129,10.654,0.90909,0.1,0.00031943,3192.1,0.00031939,3191.1,-0.00010531,0.0032181,-0.00010557,-1.9426,0.57399
7130,10.654,1.0909,0.1,0.00031926,3190.4,0.00031925,3190.1,-0.00010533,0.019405,-0.0001054,-0.48991,0.57475
7131,10.654,1.2727,0.1,0.0003191,3188.8,0.00031911,3189.3,-0.00010522,0.96336,-0.00010535,-0.014096,0.57544
7132,10.654,1.4545,0.1,0.00031895,3187.3,0.00031899,3188.5,-0.00010506,2.313,-0.00010537,-0.0078191,0.57606
7133,10.654,1.6364,0.1,0.00031881,3185.9,0.00031887,3187.7,-0.00010491,3.5861,-0.00010539,-0.0063224,0.57661
7134,10.654,1.8182,0.1,0.00031869,3184.7,0.00031877,3187.1,-0.00010477,4.7596,-0.0001054,-0.005684,0.5771
7135,10.654,2,0.1,0.00031858,3183.6,0.00031868,3186.5,-0.00010465,5.8132,-0.00010542,-0.0053339,0.57751
7136,10.654,2.1818,0.1,0.00031849,3182.7,0.0003186,3186,-0.00010454,6.7271,-0.00010543,-0.0051088,0.57786
7137,10.654,2.3636,0.1,0.00031841,3181.9,0.00031854,3185.7,-0.00010445,7.483,-0.00010545,-0.0049543,0.57813
7138,10.654,2.5455,0.1,0.00031835,3181.3,0.00031849,3185.4,-0.00010438,8.0651,-0.00010546,-0.0048465,0.57834
7139,10.654,2.7273,0.1,0.00031831,3181,0.00031846,3185.2,-0.00010434,8.4606,-0.00010546,-0.0047761,0.57848
7140,10.654,2.9091,0.1,0.00031829,3180.8,0.00031844,3185.1,-0.00010431,8.6607,-0.00010547,-0.0047411,0.57855
7141,10.654,3.0909,0.1,0.00031829,3180.8,0.00031844,3185.1,-0.00010431,8.6607,-0.00010547,-0.0047413,0.57855
7142,10.654,3.2727,0.1,0.00031831,3181,0.00031846,3185.2,-0.00010434,8.4606,-0.00010546,-0.004776,0.57848
7143,10.654,3.4545,0.1,0.00031835,3181.3,0.00031849,3185.4,-0.00010438,8.0651,-0.00010546,-0.0048461,0.57834
7144,10.654,3.6364,0.1,0.00031841,3181.9,0.00031854,3185.7,-0.00010445,7.483,-0.00010545,-0.0049538,0.57813
7145,10.654,3.8182,0.1,0.00031849,3182.7,0.0003186,3186,-0.00010454,6.7271,-0.00010543,-0.0051087,0.57786
7146,10.654,4,0.1,0.00031858,3183.6,0.00031868,3186.5,-0.00010465,5.8132,-0.00010542,-0.005333,0.57751
7147,10.654,4.1818,0.1,0.00031869,3184.7,0.00031877,3187.1,-0.00010477,4.7596,-0.0001054,-0.0056837,0.5771
7148,10.654,4.3636,0.1,0.00031881,3185.9,0.00031887,3187.7,-0.00010491,3.5861,-0.00010539,-0.0063216,0.57661
7149,10.654,4.5455,0.1,0.00031895,3187.3,0.00031899,3188.5,-0.00010506,2.313,-0.00010537,-0.0078185,0.57606
7150,10.654,4.7273,0.1,0.0003191,3188.8,0.00031911,3189.3,-0.00010522,0.96337,-0.00010535,-0.014095,0.57544
7151,10.654,4.9091,0.1,0.00031926,3190.4,0.00031925,3190.1,-0.00010533,0.019406,-0.0001054,-0.4899,0.57475
7152,10.654,5.0909,0.1,0.00031943,3192.1,0.00031939,3191.1,-0.00010531,0.0032196,-0.00010557,-1.9426,0.57399
7153,10.654,5.2727,0.1,0.00031961,3193.9,0.00031955,3192.1,-0.0001053,0.0011834,-0.00010576,-3.4473,0.57316
7154,10.654,5.4545,0.1,0.0003198,3195.8,0.00031971,3193.3,-0.00010529,0.00081128,-0.00010595,-4.9871,0.57226
7155,10.654,5.6364,0.1,0.00032001,3197.9,0.00031989,3194.6,-0.00010527,0.00021695,-0.00010616,-6.6166,0.57129
7156,10.654,5.8182,0.1,0.00032039,3201.7,0.00032023,3197,-0.00010527,0.0029934,-0.00010651,-9.3532,0.57025
7157,10.838,0.18182,0.1,0.00031525,3150.3,0.00031508,3145.4,-0.00010354,0.0022193,-0.00010486,-9.8828,0.58851
7158,10.838,0.36364,0.1,0.0003149,3146.8,0.00031477,3143,-0.00010354,0.0024469,-0.00010455,-7.5316,0.58953
7159,10.838,0.54545,0.1,0.00031472,3145,0.00031461,3141.9,-0.00010355,0.0011446,-0.00010438,-6.2814,0.59049
7160,10.838,0.72727,0.1,0.00031456,3143.4,0.00031447,3140.9,-0.00010355,0.00069997,-0.00010423,-5.0964,0.59137
7161,10.838,0.90909,0.1,0.00031441,3141.9,0.00031434,3140,-0.00010356,0.00037124,-0.00010408,-3.9177,0.59219
7162,10.838,1.0909,0.1,0.00031427,3140.5,0.00031422,3139.2,-0.00010357,0.00051485,-0.00010394,-2.7468,0.59294
7163,10.838,1.2727,0.1,0.00031414,3139.2,0.00031411,3138.4,-0.00010359,0.0018066,-0.0001038,-1.5942,0.59363
7164,10.838,1.4545,0.1,0.00031401,3138,0.000314,3137.7,-0.0001036,0.011329,-0.00010367,-0.48125,0.59424
7165,10.838,1.6364,0.1,0.0003139,3136.8,0.00031391,3137.1,-0.00010353,0.61748,-0.00010362,-0.014077,0.59479
7166,10.838,1.8182,0.1,0.00031379,3135.8,0.00031382,3136.6,-0.00010342,1.6149,-0.00010363,-0.0075557,0.59526
7167,10.838,2,0.1,0.0003137,3134.8,0.00031374,3136.1,-0.00010331,2.5268,-0.00010365,-0.0061916,0.59567
7168,10.838,2.1818,0.1,0.00031362,3134,0.00031367,3135.7,-0.00010322,3.3272,-0.00010366,-0.0056391,0.59601
7169,10.838,2.3636,0.1,0.00031355,3133.4,0.00031362,3135.3,-0.00010314,3.9955,-0.00010367,-0.0053511,0.59628
7170,10.838,2.5455,0.1,0.0003135,3132.8,0.00031358,3135.1,-0.00010308,4.5137,-0.00010368,-0.0051845,0.59649
7171,10.838,2.7273,0.1,0.00031347,3132.5,0.00031355,3134.9,-0.00010304,4.8677,-0.00010369,-0.0050869,0.59663
7172,10.838,2.9091,0.1,0.00031345,3132.3,0.00031353,3134.8,-0.00010302,5.0472,-0.00010369,-0.0050405,0.59669
7173,10.838,3.0909,0.1,0.00031345,3132.3,0.00031353,3134.8,-0.00010302,5.0472,-0.00010369,-0.0050406,0.59669
7174,10.838,3.2727,0.1,0.00031347,3132.5,0.00031355,3134.9,-0.00010304,4.8677,-0.00010369,-0.0050865,0.59663
7175,10.838,3.4545,0.1,0.0003135,3132.8,0.00031358,3135.1,-0.00010308,4.5137,-0.00010368,-0.0051845,0.59649
7176,10.838,3.6364,0.1,0.00031355,3133.4,0.00031362,3135.3,-0.00010314,3.9955,-0.00010367,-0.0053513,0.59628
7177,10.838,3.8182,0.1,0.00031362,3134,0.00031367,3135.7,-0.00010322,3.3272,-0.00010366,-0.0056388,0.59601
7178,10.838,4,0.1,0.0003137,3134.8,0.00031374,3136.1,-0.00010331,2.5268,-0.00010365,-0.0061911,0.59567
7179,10.838,4.1818,0.1,0.00031379,3135.8,0.00031382,3136.6,-0.00010342,1.6149,-0.00010363,-0.007555,0.59526
7180,10.838,4.3636,0.1,0.0003139,3136.8,0.00031391,3137.1,-0.00010353,0.61749,-0.00010362,-0.014076,0.59479
7181,10.838,4.5455,0.1,0.00031401,3138,0.000314,3137.7,-0.0001036,0.01133,-0.00010366,-0.48125,0.59424
7182,10.838,4.7273,0.1,0.00031414,3139.2,0.00031411,3138.4,-0.00010359,0.0018068,-0.0001038,-1.5942,0.59363
7183,10.838,4.9091,0.1,0.00031427,3140.5,0.00031422,3139.2,-0.00010357,0.00051577,-0.00010394,-2.7468,0.59294
7184,10.838,5.0909,0.1,0.00031441,3141.9,0.00031434,3140,-0.00010356,0.00037297,-0.00010408,-3.9177,0.59219
7185,10.838,5.2727,0.1,0.00031456,3143.4,0.00031447,3140.9,-0.00010355,0.00070077,-0.00010423,-5.0964,0.59137
7186,10.838,5.4545,0.1,0.00031472,3145,0.00031461,3141.9,-0.00010355,0.0011453,-0.00010438,-6.2813,0.59049
7187,10.838,5.6364,0.1,0.0003149,3146.8,0.00031477,3143,-0.00010354,0.0024478,-0.00010454,-7.5316,0.58953
7188,10.838,5.8182,0.1,0.00031525,3150.3,0.00031508,3145.4,-0.00010354,0.0022203,-0.00010486,-9.8827,0.58851
7189,11.022,0.18182,0.1,0.00031012,3099.1,0.00030994,3093.8,-0.00010182,0.0016689,-0.00010321,-10.394,0.60697
7190,11.022,0.36364,0.1,0.0003098,3095.9,0.00030965,3091.6,-0.00010182,0.0046918,-0.00010294,-8.4336,0.60798
7191,11.022,0.54545,0.1,0.00030966,3094.4,0.00030953,3090.6,-0.00010181,0.0014792,-0.00010282,-7.5635,0.60893
7192,11.022,0.72727,0.1,0.00030953,3093.2,0.00030942,3089.8,-0.00010181,0.00056203,-0.00010271,-6.7317,0.6098
7193,11.022,0.90909,0.1,0.00030941,3092,0.00030931,3089,-0.00010181,-0.00058422,-0.0001026,-5.8754,0.61061
7194,11.022,1.0909,0.1,0.0003093,3090.9,0.00030921,3088.4,-0.00010182,-0.0014489,-0.00010249,-4.9935,0.61135
7195,11.022,1.2727,0.1,0.00030919,3089.8,0.00030912,3087.8,-0.00010183,-0.0021477,-0.00010238,-4.0944,0.61202
7196,11.022,1.4545,0.1,0.00030909,3088.8,0.00030904,3087.2,-0.00010184,-0.0026397,-0.00010227,-3.1922,0.61263
7197,11.022,1.6364,0.1,0.000309,3087.8,0.00030896,3086.7,-0.00010186,-0.002909,-0.00010216,-2.3059,0.61317
7198,11.022,1.8182,0.1,0.00030891,3087,0.00030889,3086.2,-0.00010187,-0.0028546,-0.00010206,-1.4574,0.61364
7199,11.022,2,0.1,0.00030883,3086.2,0.00030882,3085.9,-0.00010188,-0.0018685,-0.00010197,-0.67133,0.61404
7200,11.022,2.1818,0.1,0.00030876,3085.5,0.00030876,3085.5,-0.00010189,0.05691,-0.0001019,-0.028569,0.61438
7201,11.022,2.3636,0.1,0.00030871,3084.9,0.00030872,3085.3,-0.00010182,0.62811,-0.00010191,-0.0066709,0.61465
7202,11.022,2.5455,0.1,0.00030866,3084.5,0.00030868,3085,-0.00010177,1.0915,-0.00010191,-0.0057198,0.61485
7203,11.022,2.7273,0.1,0.00030863,3084.2,0.00030866,3084.9,-0.00010173,1.4105,-0.00010192,-0.0054333,0.61498
7204,11.022,2.9091,0.1,0.00030862,3084.1,0.00030864,3084.8,-0.00010171,1.5729,-0.00010192,-0.0053312,0.61505
7205,11.022,3.0909,0.1,0.00030862,3084.1,0.00030864,3084.8,-0.00010171,1.5729,-0.00010192,-0.0053313,0.61505
7206,11.022,3.2727,0.1,0.00030863,3084.2,0.00030866,3084.9,-0.00010173,1.4105,-0.00010192,-0.0054329,0.61498
7207,11.022,3.4545,0.1,0.00030866,3084.5,0.00030868,3085,-0.00010177,1.0915,-0.00010191,-0.0057199,0.61485
7208,11.022,3.6364,0.1,0.00030871,3084.9,0.00030872,3085.3,-0.00010182,0.62811,-0.00010191,-0.0066707,0.61465
7209,11.022,3.8182,0.1,0.00030876,3085.5,0.00030876,3085.5,-0.00010189,0.056912,-0.0001019,-0.028567,0.61438
7210,11.022,4,0.1,0.00030883,3086.2,0.00030882,3085.9,-0.00010188,-0.0018685,-0.00010197,-0.67133,0.61404
7211,11.022,4.1818,0.1,0.00030891,3087,0.00030889,3086.2,-0.00010187,-0.0028538,-0.00010206,-1.4574,0.61364
7212,11.022,4.3636,0.1,0.000309,3087.8,0.00030896,3086.7,-0.00010186,-0.0029084,-0.00010216,-2.3059,0.61317
7213,11.022,4.5455,0.1,0.00030909,3088.8,0.00030904,3087.2,-0.00010184,-0.0026395,-0.00010227,-3.1922,0.61263
7214,11.022,4.7273,0.1,0.00030919,3089.8,0.00030912,3087.8,-0.00010183,-0.0021468,-0.00010238,-4.0943,0.61202
7215,11.022,4.9091,0.1,0.0003093,3090.9,0.00030921,3088.4,-0.00010182,-0.0014489,-0.00010249,-4.9935,0.61135
7216,11.022,5.0909,0.1,0.00030941,3092,0.00030931,3089,-0.00010181,-0.00058292,-0.0001026,-5.8754,0.61061
7217,11.022,5.2727,0.1,0.00030953,3093.2,0.00030942,3089.8,-0.00010181,0.00056336,-0.00010271,-6.7317,0.6098
7218,11.022,5.4545,0.1,0.00030966,3094.4,0.00030953,3090.6,-0.00010181,0.0014786,-0.00010282,-7.5635,0.60893
7219,11.022,5.6364,0.1,0.0003098,3095.9,0.00030965,3091.6,-0.00010182,0.0046926,-0.00010294,-8.4336,0.60798
7220,11.022,5.8182,0.1,0.00031012,3099.1,0.00030994,3093.8,-0.00010182,0.0016703,-0.00010321,-10.394,0.60697
7221,11.205,0.18182,0.1,0.000305,3047.9,0.00030481,3042.4,-0.00010011,0.0013881,-0.00010156,-10.89,0.62565
7222,11.205,0.36364,0.1,0.00030472,3045,0.00030456,3040.4,-0.00010009,0.0070441,-0.00010134,-9.3311,0.62664
7223,11.205,0.54545,0.1,0.00030461,3044,0.00030446,3039.5,-0.00010008,0.0018639,-0.00010126,-8.8466,0.62757
7224,11.205,0.72727,0.1,0.00030452,3043.1,0.00030437,3038.9,-0.00010008,0.00060237,-0.00010119,-8.3696,0.62844
7225,11.205,0.90909,0.1,0.00030443,3042.2,0.0003043,3038.3,-0.00010007,-0.0010544,-0.00010112,-7.8339,0.62923
7226,11.205,1.0909,0.1,0.00030435,3041.4,0.00030422,3037.7,-0.00010008,-0.0022659,-0.00010104,-7.2356,0.62996
7227,11.205,1.2727,0.1,0.00030427,3040.6,0.00030416,3037.3,-0.00010008,-0.0032558,-0.00010096,-6.5823,0.63063
7228,11.205,1.4545,0.1,0.00030419,3039.8,0.00030409,3036.9,-0.00010009,-0.0039998,-0.00010087,-5.8886,0.63123
7229,11.205,1.6364,0.1,0.00030412,3039.1,0.00030403,3036.5,-0.0001001,-0.0045424,-0.00010079,-5.1751,0.63176
7230,11.205,1.8182,0.1,0.00030405,3038.4,0.00030397,3036.1,-0.00010011,-0.0049188,-0.00010071,-4.4664,0.63222
7231,11.205,2,0.1,0.00030398,3037.7,0.00030392,3035.8,-0.00010013,-0.0051671,-0.00010063,-3.7896,0.63262
7232,11.205,2.1818,0.1,0.00030393,3037.2,0.00030387,3035.6,-0.00010014,-0.0053203,-0.00010056,-3.1726,0.63295
7233,11.205,2.3636,0.1,0.00030388,3036.7,0.00030384,3035.4,-0.00010015,-0.0054126,-0.0001005,-2.6418,0.63322
7234,11.205,2.5455,0.1,0.00030384,3036.3,0.00030381,3035.2,-0.00010016,-0.0054685,-0.00010045,-2.2209,0.63342
7235,11.205,2.7273,0.1,0.00030382,3036.1,0.00030379,3035.1,-0.00010017,-0.0055027,-0.00010042,-1.929,0.63355
7236,11.205,2.9091,0.1,0.00030381,3036,0.00030378,3035.1,-0.00010017,-0.0055201,-0.0001004,-1.7795,0.63362
7237,11.205,3.0909,0.1,0.00030381,3036,0.00030378,3035.1,-0.00010017,-0.0055198,-0.0001004,-1.7795,0.63362
7238,11.205,3.2727,0.1,0.00030382,3036.1,0.00030379,3035.1,-0.00010017,-0.0055023,-0.00010042,-1.929,0.63355
7239,11.205,3.4545,0.1,0.00030384,3036.3,0.00030381,3035.2,-0.00010016,-0.0054686,-0.00010045,-2.2209,0.63342
7240,11.205,3.6364,0.1,0.00030388,3036.7,0.00030384,3035.4,-0.00010015,-0.0054123,-0.0001005,-2.6418,0.63322
7241,11.205,3.8182,0.1,0.00030393,3037.2,0.00030387,3035.6,-0.00010014,-0.0053203,-0.00010056,-3.1726,0.63295
7242,11.205,4,0.1,0.00030398,3037.7,0.00030392,3035.8,-0.00010013,-0.0051669,-0.00010063,-3.7896,0.63262
7243,11.205,4.1818,0.1,0.00030405,3038.4,0.00030397,3036.1,-0.00010011,-0.0049185,-0.00010071,-4.4664,0.63222
7244,11.205,4.3636,0.1,0.00030412,3039.1,0.00030403,3036.5,-0.0001001,-0.0045423,-0.00010079,-5.1751,0.63176
7245,11.205,4.5455,0.1,0.00030419,3039.8,0.00030409,3036.9,-0.00010009,-0.003999,-0.00010087,-5.8886,0.63123
7246,11.205,4.7273,0.1,0.00030427,3040.6,0.00030416,3037.3,-0.00010008,-0.0032558,-0.00010096,-6.5823,0.63063
7247,11.205,4.9091,0.1,0.00030435,3041.4,0.00030422,3037.7,-0.00010008,-0.0022654,-0.00010104,-7.2356,0.62996
7248,11.205,5.0909,0.1,0.00030443,3042.2,0.0003043,3038.3,-0.00010007,-0.0010537,-0.00010112,-7.8339,0.62923
7249,11.205,5.2727,0.1,0.00030452,3043.1,0.00030437,3038.9,-0.00010008,0.00060347,-0.00010119,-8.3696,0.62844
7250,11.205,5.4545,0.1,0.00030461,3044,0.00030446,3039.5,-0.00010008,0.0018637,-0.00010126,-8.8466,0.62757
7251,11.205,5.6364,0.1,0.00030472,3045,0.00030456,3040.4,-0.00010009,0.0070451,-0.00010134,-9.3311,0.62664
7252,11.205,5.8182,0.1,0.000305,3047.9,0.00030481,3042.4,-0.00010011,0.0013891,-0.00010156,-10.89,0.62565
7253,11.389,0.18182,0.1,0.00029989,2996.8,0.0002997,2991.1,-9.84e-05,0.0013053,-9.9914e-05,-11.374,0.64453
7254,11.389,0.36364,0.1,0.00029964,2994.4,0.00029947,2989.2,-9.8374e-05,0.0094641,-9.9737e-05,-10.234,0.64551
7255,11.389,0.54545,0.1,0.00029957,2993.6,0.0002994,2988.6,-9.8355e-05,0.0022205,-9.9706e-05,-10.145,0.64643
7256,11.389,0.72727,0.1,0.00029952,2993.1,0.00029934,2988.1,-9.8343e-05,0.00066875,-9.9678e-05,-10.029,0.64728
7257,11.389,0.90909,0.1,0.00029946,2992.6,0.0002993,2987.6,-9.8337e-05,-0.0014005,-9.9643e-05,-9.8144,0.64806
7258,11.389,1.0909,0.1,0.00029941,2992.1,0.00029925,2987.3,-9.8336e-05,-0.0028175,-9.9599e-05,-9.4959,0.64878
7259,11.389,1.2727,0.1,0.00029936,2991.5,0.00029921,2987,-9.8339e-05,-0.0039282,-9.9547e-05,-9.0802,0.64944
7260,11.389,1.4545,0.1,0.00029931,2991,0.00029916,2986.7,-9.8347e-05,-0.0047117,-9.9489e-05,-8.5832,0.65003
7261,11.389,1.6364,0.1,0.00029926,2990.5,0.00029912,2986.5,-9.8357e-05,-0.0052404,-9.9425e-05,-8.0281,0.65055
7262,11.389,1.8182,0.1,0.00029921,2990,0.00029908,2986.3,-9.8369e-05,-0.0055656,-9.9359e-05,-7.4433,0.65101
7263,11.389,2,0.1,0.00029916,2989.5,0.00029904,2986.1,-9.8382e-05,-0.0057369,-9.9295e-05,-6.8603,0.65141
7264,11.389,2.1818,0.1,0.00029911,2989.1,0.00029901,2985.9,-9.8395e-05,-0.0058021,-9.9234e-05,-6.3118,0.65173
7265,11.389,2.3636,0.1,0.00029908,2988.7,0.00029898,2985.8,-9.8406e-05,-0.0058013,-9.9181e-05,-5.829,0.652
7266,11.389,2.5455,0.1,0.00029905,2988.4,0.00029895,2985.7,-9.8416e-05,-0.0057714,-9.9139e-05,-5.4398,0.65219
7267,11.389,2.7273,0.1,0.00029902,2988.2,0.00029894,2985.6,-9.8422e-05,-0.0057351,-9.9109e-05,-5.1669,0.65232
7268,11.389,2.9091,0.1,0.00029901,2988.1,0.00029893,2985.6,-9.8426e-05,-0.0057119,-9.9094e-05,-5.0263,0.65239
7269,11.389,3.0909,0.1,0.00029901,2988.1,0.00029893,2985.6,-9.8426e-05,-0.0057118,-9.9094e-05,-5.0263,0.65239
7270,11.389,3.2727,0.1,0.00029902,2988.2,0.00029894,2985.6,-9.8422e-05,-0.0057351,-9.9109e-05,-5.1669,0.65232
7271,11.389,3.4545,0.1,0.00029905,2988.4,0.00029895,2985.7,-9.8416e-05,-0.0057709,-9.9139e-05,-5.4398,0.65219
7272,11.389,3.6364,0.1,0.00029908,2988.7,0.00029898,2985.8,-9.8406e-05,-0.0058011,-9.9181e-05,-5.8289,0.652
7273,11.389,3.8182,0.1,0.00029911,2989.1,0.00029901,2985.9,-9.8395e-05,-0.0058013,-9.9234e-05,-6.3118,0.65173
7274,11.389,4,0.1,0.00029916,2989.5,0.00029904,2986.1,-9.8382e-05,-0.0057367,-9.9295e-05,-6.8603,0.65141
7275,11.389,4.1818,0.1,0.00029921,2990,0.00029908,2986.3,-9.8369e-05,-0.005565,-9.9359e-05,-7.4433,0.65101
7276,11.389,4.3636,0.1,0.00029926,2990.5,0.00029912,2986.5,-9.8357e-05,-0.0052399,-9.9425e-05,-8.0281,0.65055
7277,11.389,4.5455,0.1,0.00029931,2991,0.00029916,2986.7,-9.8347e-05,-0.0047109,-9.9489e-05,-8.5832,0.65003
7278,11.389,4.7273,0.1,0.00029936,2991.5,0.00029921,2987,-9.8339e-05,-0.0039274,-9.9547e-05,-9.0802,0.64944
7279,11.389,4.9091,0.1,0.00029941,2992.1,0.00029925,2987.3,-9.8336e-05,-0.002817,-9.9599e-05,-9.4958,0.64878
7280,11.389,5.0909,0.1,0.00029946,2992.6,0.0002993,2987.6,-9.8337e-05,-0.0013991,-9.9643e-05,-9.8143,0.64806
7281,11.389,5.2727,0.1,0.00029952,2993.1,0.00029934,2988.1,-9.8343e-05,0.00067,-9.9678e-05,-10.029,0.64728
7282,11.389,5.4545,0.1,0.00029957,2993.6,0.0002994,2988.6,-9.8355e-05,0.0022211,-9.9706e-05,-10.145,0.64643
7283,11.389,5.6364,0.1,0.00029964,2994.4,0.00029947,2989.2,-9.8374e-05,0.0094644,-9.9737e-05,-10.234,0.64551
7284,11.389,5.8182,0.1,0.00029989,2996.8,0.0002997,2991.1,-9.84e-05,0.0013065,-9.9914e-05,-11.374,0.64453
7285,11.573,0.18182,0.1,0.00029479,2945.8,0.00029458,2939.9,-9.6692e-05,0.0013462,-9.827e-05,-11.85,0.66361
7286,11.573,0.36364,0.1,0.00029458,2943.7,0.00029439,2938.2,-9.6657e-05,0.011897,-9.8143e-05,-11.153,0.66457
7287,11.573,0.54545,0.1,0.00029455,2943.4,0.00029435,2937.7,-9.6631e-05,0.0024584,-9.8159e-05,-11.476,0.66548
7288,11.573,0.72727,0.1,0.00029453,2943.3,0.00029433,2937.4,-9.6613e-05,0.00063991,-9.8174e-05,-11.729,0.66632
7289,11.573,0.90909,0.1,0.00029451,2943.1,0.00029431,2937.2,-9.6602e-05,-0.0018073,-9.8178e-05,-11.84,0.66709
7290,11.573,1.0909,0.1,0.0002945,2942.9,0.00029429,2937,-9.6599e-05,-0.0033838,-9.8169e-05,-11.799,0.66781
7291,11.573,1.2727,0.1,0.00029447,2942.7,0.00029427,2936.9,-9.6601e-05,-0.0045739,-9.8146e-05,-11.614,0.66845
7292,11.573,1.4545,0.1,0.00029445,2942.4,0.00029425,2936.8,-9.6608e-05,-0.0053654,-9.8111e-05,-11.301,0.66903
7293,11.573,1.6364,0.1,0.00029442,2942.1,0.00029423,2936.7,-9.6619e-05,-0.0058594,-9.8067e-05,-10.889,0.66955
7294,11.573,1.8182,0.1,0.00029439,2941.8,0.00029421,2936.6,-9.6632e-05,-0.0061243,-9.8017e-05,-10.41,0.67
7295,11.573,2,0.1,0.00029435,2941.5,0.00029418,2936.5,-9.6646e-05,-0.0062272,-9.7963e-05,-9.9025,0.67039
7296,11.573,2.1818,0.1,0.00029432,2941.2,0.00029416,2936.5,-9.666e-05,-0.006222,-9.7911e-05,-9.4042,0.67072
7297,11.573,2.3636,0.1,0.00029429,2940.9,0.00029414,2936.4,-9.6673e-05,-0.00616,-9.7864e-05,-8.9529,0.67097
7298,11.573,2.5455,0.1,0.00029427,2940.7,0.00029412,2936.4,-9.6684e-05,-0.0060803,-9.7826e-05,-8.582,0.67117
7299,11.573,2.7273,0.1,0.00029425,2940.5,0.00029411,2936.3,-9.6692e-05,-0.0060104,-9.7798e-05,-8.3186,0.6713
7300,11.573,2.9091,0.1,0.00029424,2940.4,0.0002941,2936.3,-9.6696e-05,-0.0059707,-9.7784e-05,-8.182,0.67136
7301,11.573,3.0909,0.1,0.00029424,2940.4,0.0002941,2936.3,-9.6696e-05,-0.005971,-9.7784e-05,-8.182,0.67136
7302,11.573,3.2727,0.1,0.00029425,2940.5,0.00029411,2936.3,-9.6692e-05,-0.0060105,-9.7798e-05,-8.3186,0.6713
7303,11.573,3.4545,0.1,0.00029427,2940.7,0.00029412,2936.4,-9.6684e-05,-0.0060804,-9.7826e-05,-8.582,0.67117
7304,11.573,3.6364,0.1,0.00029429,2940.9,0.00029414,2936.4,-9.6673e-05,-0.00616,-9.7864e-05,-8.9529,0.67097
7305,11.573,3.8182,0.1,0.00029432,2941.2,0.00029416,2936.5,-9.666e-05,-0.006222,-9.7911e-05,-9.4042,0.67072
7306,11.573,4,0.1,0.00029435,2941.5,0.00029418,2936.5,-9.6646e-05,-0.0062266,-9.7963e-05,-9.9025,0.67039
7307,11.573,4.1818,0.1,0.00029439,2941.8,0.00029421,2936.6,-9.6632e-05,-0.0061244,-9.8017e-05,-10.41,0.67
7308,11.573,4.3636,0.1,0.00029442,2942.1,0.00029423,2936.7,-9.6619e-05,-0.0058591,-9.8067e-05,-10.889,0.66955
7309,11.573,4.5455,0.1,0.00029445,2942.4,0.00029425,2936.8,-9.6608e-05,-0.0053647,-9.8111e-05,-11.301,0.66903
7310,11.573,4.7273,0.1,0.00029447,2942.7,0.00029427,2936.9,-9.6601e-05,-0.0045732,-9.8146e-05,-11.614,0.66845
7311,11.573,4.9091,0.1,0.0002945,2942.9,0.00029429,2937,-9.6599e-05,-0.0033833,-9.8169e-05,-11.799,0.66781
7312,11.573,5.0909,0.1,0.00029451,2943.1,0.00029431,2937.2,-9.6602e-05,-0.0018055,-9.8178e-05,-11.84,0.66709
7313,11.573,5.2727,0.1,0.00029453,2943.3,0.00029433,2937.4,-9.6613e-05,0.00063994,-9.8174e-05,-11.729,0.66632
7314,11.573,5.4545,0.1,0.00029455,2943.4,0.00029435,2937.7,-9.6631e-05,0.0024583,-9.8159e-05,-11.476,0.66548
7315,11.573,5.6364,0.1,0.00029458,2943.7,0.00029439,2938.2,-9.6657e-05,0.011898,-9.8143e-05,-11.153,0.66457
7316,11.573,5.8182,0.1,0.00029479,2945.8,0.00029458,2939.9,-9.6692e-05,0.0013478,-9.827e-05,-11.85,0.66361
7317,11.757,0.18182,0.1,0.00028969,2894.9,0.00028947,2888.7,-9.4985e-05,0.0015798,-9.6626e-05,-12.323,0.68288
7318,11.757,0.36364,0.1,0.00028952,2893.2,0.00028931,2887.1,-9.494e-05,0.014425,-9.6553e-05,-12.099,0.68384
7319,11.757,0.54545,0.1,0.00028953,2893.3,0.00028931,2886.9,-9.4908e-05,0.0026104,-9.6619e-05,-12.856,0.68473
7320,11.757,0.72727,0.1,0.00028956,2893.6,0.00028932,2886.8,-9.4884e-05,0.00053256,-9.668e-05,-13.494,0.68556
7321,11.757,0.90909,0.1,0.00028958,2893.8,0.00028934,2886.8,-9.487e-05,-0.0022797,-9.6725e-05,-13.937,0.68632
7322,11.757,1.0909,0.1,0.0002896,2894,0.00028935,2886.8,-9.4864e-05,-0.0039967,-9.675e-05,-14.174,0.68703
7323,11.757,1.2727,0.1,0.00028961,2894.1,0.00028936,2886.9,-9.4866e-05,-0.005248,-9.6757e-05,-14.212,0.68766
7324,11.757,1.4545,0.1,0.00028961,2894.1,0.00028937,2887,-9.4874e-05,-0.0060346,-9.6746e-05,-14.071,0.68824
7325,11.757,1.6364,0.1,0.0002896,2894,0.00028937,2887.1,-9.4886e-05,-0.0064863,-9.672e-05,-13.785,0.68875
7326,11.757,1.8182,0.1,0.00028959,2893.9,0.00028936,2887.2,-9.4902e-05,-0.0066894,-9.6683e-05,-13.392,0.68919
7327,11.757,2,0.1,0.00028958,2893.8,0.00028935,2887.3,-9.4919e-05,-0.0067228,-9.664e-05,-12.938,0.68958
7328,11.757,2.1818,0.1,0.00028956,2893.6,0.00028934,2887.3,-9.4936e-05,-0.0066519,-9.6595e-05,-12.47,0.6899
7329,11.757,2.3636,0.1,0.00028954,2893.4,0.00028933,2887.3,-9.4952e-05,-0.0065334,-9.6552e-05,-12.031,0.69015
7330,11.757,2.5455,0.1,0.00028952,2893.2,0.00028932,2887.4,-9.4964e-05,-0.0064098,-9.6516e-05,-11.663,0.69034
7331,11.757,2.7273,0.1,0.00028951,2893.1,0.00028931,2887.4,-9.4974e-05,-0.0063109,-9.649e-05,-11.398,0.69047
7332,11.757,2.9091,0.1,0.0002895,2893,0.00028931,2887.4,-9.4978e-05,-0.0062563,-9.6476e-05,-11.26,0.69053
7333,11.757,3.0909,0.1,0.0002895,2893,0.00028931,2887.4,-9.4978e-05,-0.0062561,-9.6476e-05,-11.26,0.69053
7334,11.757,3.2727,0.1,0.00028951,2893.1,0.00028931,2887.4,-9.4974e-05,-0.0063107,-9.649e-05,-11.398,0.69047
7335,11.757,3.4545,0.1,0.00028952,2893.2,0.00028932,2887.4,-9.4964e-05,-0.0064095,-9.6516e-05,-11.663,0.69034
7336,11.757,3.6364,0.1,0.00028954,2893.4,0.00028933,2887.3,-9.4952e-05,-0.0065328,-9.6552e-05,-12.031,0.69015
7337,11.757,3.8182,0.1,0.00028956,2893.6,0.00028934,2887.3,-9.4936e-05,-0.0066512,-9.6595e-05,-12.47,0.6899
7338,11.757,4,0.1,0.00028958,2893.8,0.00028935,2887.3,-9.4919e-05,-0.0067224,-9.664e-05,-12.938,0.68958
7339,11.757,4.1818,0.1,0.00028959,2893.9,0.00028936,2887.2,-9.4902e-05,-0.006689,-9.6683e-05,-13.392,0.68919
7340,11.757,4.3636,0.1,0.0002896,2894,0.00028937,2887.1,-9.4886e-05,-0.006486,-9.672e-05,-13.785,0.68875
7341,11.757,4.5455,0.1,0.00028961,2894.1,0.00028937,2887,-9.4874e-05,-0.0060334,-9.6746e-05,-14.071,0.68824
7342,11.757,4.7273,0.1,0.00028961,2894.1,0.00028936,2886.9,-9.4866e-05,-0.0052479,-9.6757e-05,-14.212,0.68766
7343,11.757,4.9091,0.1,0.0002896,2894,0.00028935,2886.8,-9.4864e-05,-0.0039956,-9.675e-05,-14.174,0.68703
7344,11.757,5.0909,0.1,0.00028958,2893.8,0.00028934,2886.8,-9.487e-05,-0.0022787,-9.6725e-05,-13.937,0.68632
7345,11.757,5.2727,0.1,0.00028956,2893.6,0.00028932,2886.8,-9.4884e-05,0.00053395,-9.668e-05,-13.494,0.68556
7346,11.757,5.4545,0.1,0.00028953,2893.3,0.00028931,2886.9,-9.4908e-05,0.0026113,-9.6619e-05,-12.856,0.68473
7347,11.757,5.6364,0.1,0.00028952,2893.2,0.00028931,2887.1,-9.494e-05,0.014425,-9.6553e-05,-12.099,0.68384
7348,11.757,5.8182,0.1,0.00028969,2894.9,0.00028947,2888.7,-9.4985e-05,0.0015811,-9.6626e-05,-12.323,0.68288
7349,11.94,0.18182,0.1,0.00028458,2843.9,0.00028436,2837.4,-9.3277e-05,0.0021464,-9.4981e-05,-12.797,0.70236
7350,11.94,0.36364,0.1,0.00028446,2842.7,0.00028424,2836.1,-9.3223e-05,0.01719,-9.4967e-05,-13.087,0.7033
7351,11.94,0.54545,0.1,0.00028452,2843.3,0.00028428,2836.1,-9.3183e-05,0.0027749,-9.5087e-05,-14.306,0.70418
7352,11.94,0.72727,0.1,0.00028459,2844,0.00028433,2836.3,-9.3154e-05,0.00043754,-9.5197e-05,-15.348,0.70499
7353,11.94,0.90909,0.1,0.00028466,2844.6,0.00028438,2836.5,-9.3137e-05,-0.0027451,-9.5284e-05,-16.134,0.70575
7354,11.94,1.0909,0.1,0.00028472,2845.2,0.00028443,2836.8,-9.3131e-05,-0.0045887,-9.5346e-05,-16.65,0.70644
7355,11.94,1.2727,0.1,0.00028476,2845.6,0.00028447,2837.2,-9.3133e-05,-0.0058906,-9.5382e-05,-16.905,0.70707
7356,11.94,1.4545,0.1,0.00028479,2846,0.0002845,2837.5,-9.3143e-05,-0.0066596,-9.5395e-05,-16.923,0.70764
7357,11.94,1.6364,0.1,0.00028482,2846.2,0.00028453,2837.8,-9.3159e-05,-0.0070594,-9.5387e-05,-16.744,0.70814
7358,11.94,1.8182,0.1,0.00028483,2846.3,0.00028454,2838,-9.3179e-05,-0.007191,-9.5362e-05,-16.415,0.70858
7359,11.94,2,0.1,0.00028483,2846.3,0.00028455,2838.3,-9.32e-05,-0.0071494,-9.5327e-05,-15.991,0.70896
7360,11.94,2.1818,0.1,0.00028482,2846.3,0.00028455,2838.5,-9.3222e-05,-0.0070079,-9.5287e-05,-15.527,0.70927
7361,11.94,2.3636,0.1,0.00028481,2846.2,0.00028455,2838.6,-9.3241e-05,-0.0068306,-9.5247e-05,-15.08,0.70952
7362,11.94,2.5455,0.1,0.0002848,2846.1,0.00028455,2838.7,-9.3257e-05,-0.0066625,-9.5212e-05,-14.696,0.70971
7363,11.94,2.7273,0.1,0.0002848,2846,0.00028455,2838.8,-9.3269e-05,-0.0065349,-9.5187e-05,-14.417,0.70984
7364,11.94,2.9091,0.1,0.00028479,2846,0.00028455,2838.8,-9.3275e-05,-0.0064653,-9.5173e-05,-14.27,0.7099
7365,11.94,3.0909,0.1,0.00028479,2846,0.00028455,2838.8,-9.3275e-05,-0.0064653,-9.5173e-05,-14.27,0.7099
7366,11.94,3.2727,0.1,0.0002848,2846,0.00028455,2838.8,-9.3269e-05,-0.0065344,-9.5187e-05,-14.417,0.70984
7367,11.94,3.4545,0.1,0.0002848,2846.1,0.00028455,2838.7,-9.3257e-05,-0.0066625,-9.5212e-05,-14.696,0.70971
7368,11.94,3.6364,0.1,0.00028481,2846.2,0.00028455,2838.6,-9.3241e-05,-0.00683,-9.5247e-05,-15.08,0.70952
7369,11.94,3.8182,0.1,0.00028482,2846.3,0.00028455,2838.5,-9.3222e-05,-0.007008,-9.5287e-05,-15.527,0.70927
7370,11.94,4,0.1,0.00028483,2846.3,0.00028455,2838.3,-9.32e-05,-0.0071486,-9.5327e-05,-15.99,0.70896
7371,11.94,4.1818,0.1,0.00028483,2846.3,0.00028454,2838,-9.3179e-05,-0.0071908,-9.5362e-05,-16.415,0.70858
7372,11.94,4.3636,0.1,0.00028482,2846.2,0.00028453,2837.8,-9.3159e-05,-0.0070585,-9.5387e-05,-16.744,0.70814
7373,11.94,4.5455,0.1,0.00028479,2846,0.0002845,2837.5,-9.3143e-05,-0.0066594,-9.5395e-05,-16.923,0.70764
7374,11.94,4.7273,0.1,0.00028476,2845.6,0.00028447,2837.2,-9.3133e-05,-0.0058901,-9.5382e-05,-16.905,0.70707
7375,11.94,4.9091,0.1,0.00028472,2845.2,0.00028443,2836.8,-9.3131e-05,-0.0045881,-9.5346e-05,-16.65,0.70644
7376,11.94,5.0909,0.1,0.00028466,2844.6,0.00028438,2836.5,-9.3137e-05,-0.0027442,-9.5284e-05,-16.134,0.70575
7377,11.94,5.2727,0.1,0.00028459,2844,0.00028433,2836.3,-9.3154e-05,0.00043953,-9.5197e-05,-15.348,0.70499
7378,11.94,5.4545,0.1,0.00028452,2843.3,0.00028428,2836.1,-9.3183e-05,0.0027759,-9.5087e-05,-14.306,0.70418
7379,11.94,5.6364,0.1,0.00028446,2842.7,0.00028424,2836.1,-9.3223e-05,0.017191,-9.4967e-05,-13.087,0.7033
7380,11.94,5.8182,0.1,0.00028458,2843.9,0.00028436,2837.4,-9.3277e-05,0.0021472,-9.4981e-05,-12.797,0.70236
7381,12.124,0.18182,0.1,0.00027947,2792.8,0.00027924,2786.1,-9.1566e-05,0.0030393,-9.3334e-05,-13.277,0.72202
7382,12.124,0.36364,0.1,0.00027941,2792.1,0.00027916,2785.1,-9.1501e-05,0.020172,-9.3385e-05,-14.132,0.72295
7383,12.124,0.54545,0.1,0.00027952,2793.3,0.00027925,2785.3,-9.1455e-05,0.0028762,-9.3564e-05,-15.849,0.72382
7384,12.124,0.72727,0.1,0.00027964,2794.5,0.00027934,2785.8,-9.1422e-05,0.00027403,-9.3727e-05,-17.321,0.72462
7385,12.124,0.90909,0.1,0.00027975,2795.6,0.00027943,2786.3,-9.1403e-05,-0.00329,-9.386e-05,-18.464,0.72536
7386,12.124,1.0909,0.1,0.00027985,2796.6,0.00027952,2786.9,-9.1396e-05,-0.0052515,-9.3959e-05,-19.263,0.72605
7387,12.124,1.2727,0.1,0.00027994,2797.5,0.0002796,2787.5,-9.1401e-05,-0.006591,-9.4026e-05,-19.728,0.72667
7388,12.124,1.4545,0.1,0.00028001,2798.1,0.00027966,2788.1,-9.1415e-05,-0.0073275,-9.4062e-05,-19.891,0.72723
7389,12.124,1.6364,0.1,0.00028006,2798.6,0.00027971,2788.7,-9.1437e-05,-0.0076605,-9.407e-05,-19.797,0.72772
7390,12.124,1.8182,0.1,0.00028009,2799,0.00027975,2789.2,-9.1462e-05,-0.0077084,-9.4057e-05,-19.506,0.72816
7391,12.124,2,0.1,0.00028011,2799.2,0.00027978,2789.6,-9.149e-05,-0.0075809,-9.4029e-05,-19.083,0.72853
7392,12.124,2.1818,0.1,0.00028012,2799.3,0.0002798,2789.9,-9.1518e-05,-0.0073621,-9.3992e-05,-18.598,0.72884
7393,12.124,2.3636,0.1,0.00028012,2799.3,0.00027981,2790.2,-9.1543e-05,-0.0071215,-9.3953e-05,-18.116,0.72909
7394,12.124,2.5455,0.1,0.00028012,2799.3,0.00027982,2790.4,-9.1563e-05,-0.0069077,-9.3918e-05,-17.696,0.72927
7395,12.124,2.7273,0.1,0.00028012,2799.3,0.00027982,2790.5,-9.1578e-05,-0.0067495,-9.3891e-05,-17.388,0.7294
7396,12.124,2.9091,0.1,0.00028012,2799.3,0.00027982,2790.6,-9.1586e-05,-0.0066673,-9.3877e-05,-17.225,0.72946
7397,12.124,3.0909,0.1,0.00028012,2799.3,0.00027982,2790.6,-9.1586e-05,-0.0066671,-9.3877e-05,-17.225,0.72946
7398,12.124,3.2727,0.1,0.00028012,2799.3,0.00027982,2790.5,-9.1578e-05,-0.0067501,-9.3891e-05,-17.388,0.7294
7399,12.124,3.4545,0.1,0.00028012,2799.3,0.00027982,2790.4,-9.1563e-05,-0.0069071,-9.3918e-05,-17.696,0.72927
7400,12.124,3.6364,0.1,0.00028012,2799.3,0.00027981,2790.2,-9.1543e-05,-0.0071214,-9.3953e-05,-18.116,0.72909
7401,12.124,3.8182,0.1,0.00028012,2799.3,0.0002798,2789.9,-9.1518e-05,-0.0073619,-9.3992e-05,-18.598,0.72884
7402,12.124,4,0.1,0.00028011,2799.2,0.00027978,2789.6,-9.149e-05,-0.0075807,-9.4029e-05,-19.083,0.72853
7403,12.124,4.1818,0.1,0.00028009,2799,0.00027975,2789.2,-9.1462e-05,-0.007708,-9.4057e-05,-19.506,0.72816
7404,12.124,4.3636,0.1,0.00028006,2798.6,0.00027971,2788.7,-9.1437e-05,-0.0076596,-9.407e-05,-19.797,0.72772
7405,12.124,4.5455,0.1,0.00028001,2798.1,0.00027966,2788.1,-9.1415e-05,-0.007327,-9.4062e-05,-19.891,0.72723
7406,12.124,4.7273,0.1,0.00027994,2797.5,0.0002796,2787.5,-9.1401e-05,-0.0065904,-9.4026e-05,-19.728,0.72667
7407,12.124,4.9091,0.1,0.00027985,2796.6,0.00027952,2786.9,-9.1396e-05,-0.0052511,-9.3959e-05,-19.263,0.72605
7408,12.124,5.0909,0.1,0.00027975,2795.6,0.00027943,2786.3,-9.1403e-05,-0.0032888,-9.386e-05,-18.464,0.72536
7409,12.124,5.2727,0.1,0.00027964,2794.5,0.00027934,2785.8,-9.1422e-05,0.0002749,-9.3727e-05,-17.321,0.72462
7410,12.124,5.4545,0.1,0.00027952,2793.3,0.00027925,2785.3,-9.1455e-05,0.0028761,-9.3564e-05,-15.849,0.72381
7411,12.124,5.6364,0.1,0.00027941,2792.1,0.00027916,2785.1,-9.1501e-05,0.020173,-9.3385e-05,-14.132,0.72295
7412,12.124,5.8182,0.1,0.00027947,2792.8,0.00027924,2786.1,-9.1566e-05,0.0030406,-9.3334e-05,-13.277,0.72202
7413,12.308,0.18182,0.1,0.00027434,2741.5,0.00027411,2734.6,-8.985e-05,0.0042811,-9.1683e-05,-13.77,0.74187
7414,12.308,0.36364,0.1,0.00027434,2741.5,0.00027408,2733.9,-8.9774e-05,0.023362,-9.1807e-05,-15.251,0.74279
7415,12.308,0.54545,0.1,0.00027451,2743.2,0.00027421,2734.4,-8.972e-05,0.0028385,-9.2051e-05,-17.511,0.74364
7416,12.308,0.72727,0.1,0.00027469,2745,0.00027435,2735.2,-8.9683e-05,-3.2964e-05,-9.2271e-05,-19.445,0.74443
7417,12.308,0.90909,0.1,0.00027486,2746.7,0.0002745,2736.1,-8.9663e-05,-0.003993,-9.2453e-05,-20.964,0.74517
7418,12.308,1.0909,0.1,0.00027501,2748.2,0.00027463,2737.1,-8.9659e-05,-0.0060615,-9.2593e-05,-22.052,0.74584
7419,12.308,1.2727,0.1,0.00027514,2749.5,0.00027474,2738.1,-8.9669e-05,-0.0074236,-9.2692e-05,-22.722,0.74645
7420,12.308,1.4545,0.1,0.00027524,2750.5,0.00027485,2739,-8.9689e-05,-0.0081092,-9.2751e-05,-23.012,0.747
7421,12.308,1.6364,0.1,0.00027533,2751.4,0.00027493,2739.8,-8.9718e-05,-0.008357,-9.2776e-05,-22.98,0.74749
7422,12.308,1.8182,0.1,0.00027539,2752,0.000275,2740.6,-8.9753e-05,-0.0083047,-9.2772e-05,-22.696,0.74792
7423,12.308,2,0.1,0.00027543,2752.4,0.00027505,2741.2,-8.9789e-05,-0.0080782,-9.2749e-05,-22.243,0.74829
7424,12.308,2.1818,0.1,0.00027546,2752.7,0.00027508,2741.8,-8.9825e-05,-0.0077741,-9.2713e-05,-21.703,0.7486
7425,12.308,2.3636,0.1,0.00027548,2752.9,0.00027511,2742.2,-8.9858e-05,-0.0074665,-9.2673e-05,-21.156,0.74884
7426,12.308,2.5455,0.1,0.00027549,2753,0.00027513,2742.6,-8.9885e-05,-0.0072063,-9.2635e-05,-20.675,0.74902
7427,12.308,2.7273,0.1,0.00027549,2753,0.00027514,2742.8,-8.9904e-05,-0.0070205,-9.2607e-05,-20.32,0.74915
7428,12.308,2.9091,0.1,0.00027549,2753,0.00027514,2742.9,-8.9913e-05,-0.0069247,-9.2592e-05,-20.132,0.74921
7429,12.308,3.0909,0.1,0.00027549,2753,0.00027514,2742.9,-8.9913e-05,-0.0069247,-9.2592e-05,-20.132,0.74921
7430,12.308,3.2727,0.1,0.00027549,2753,0.00027514,2742.8,-8.9904e-05,-0.0070203,-9.2607e-05,-20.32,0.74915
7431,12.308,3.4545,0.1,0.00027549,2753,0.00027513,2742.6,-8.9885e-05,-0.0072057,-9.2635e-05,-20.675,0.74902
7432,12.308,3.6364,0.1,0.00027548,2752.9,0.00027511,2742.2,-8.9858e-05,-0.007466,-9.2673e-05,-21.156,0.74884
7433,12.308,3.8182,0.1,0.00027546,2752.7,0.00027508,2741.8,-8.9825e-05,-0.0077735,-9.2713e-05,-21.702,0.7486
7434,12.308,4,0.1,0.00027543,2752.4,0.00027505,2741.2,-8.9789e-05,-0.008078,-9.2749e-05,-22.243,0.74829
7435,12.308,4.1818,0.1,0.00027539,2752,0.000275,2740.6,-8.9753e-05,-0.0083042,-9.2772e-05,-22.696,0.74792
7436,12.308,4.3636,0.1,0.00027533,2751.4,0.00027493,2739.8,-8.9718e-05,-0.0083562,-9.2776e-05,-22.98,0.74749
7437,12.308,4.5455,0.1,0.00027524,2750.5,0.00027485,2739,-8.9689e-05,-0.0081086,-9.2751e-05,-23.012,0.747
7438,12.308,4.7273,0.1,0.00027514,2749.5,0.00027474,2738.1,-8.9669e-05,-0.0074229,-9.2692e-05,-22.722,0.74645
7439,12.308,4.9091,0.1,0.00027501,2748.2,0.00027463,2737.1,-8.9659e-05,-0.0060607,-9.2593e-05,-22.052,0.74584
7440,12.308,5.0909,0.1,0.00027486,2746.7,0.0002745,2736.1,-8.9663e-05,-0.0039922,-9.2453e-05,-20.964,0.74517
7441,12.308,5.2727,0.1,0.00027469,2745,0.00027435,2735.2,-8.9683e-05,-3.1309e-05,-9.2271e-05,-19.445,0.74443
7442,12.308,5.4545,0.1,0.00027451,2743.2,0.00027421,2734.4,-8.972e-05,0.0028384,-9.2051e-05,-17.511,0.74364
7443,12.308,5.6364,0.1,0.00027434,2741.5,0.00027408,2733.9,-8.9774e-05,0.023362,-9.1807e-05,-15.251,0.74279
7444,12.308,5.8182,0.1,0.00027434,2741.5,0.00027411,2734.6,-8.985e-05,0.0042826,-9.1683e-05,-13.77,0.74187
7445,12.491,0.18182,0.1,0.00026919,2690,0.00026894,2682.9,-8.8124e-05,0.0059849,-9.0025e-05,-14.282,0.76191
7446,12.491,0.36364,0.1,0.00026926,2690.7,0.00026897,2682.5,-8.8036e-05,0.026818,-9.0231e-05,-16.464,0.76281
7447,12.491,0.54545,0.1,0.0002695,2693.1,0.00026917,2683.4,-8.7976e-05,0.0026529,-9.0548e-05,-19.324,0.76365
7448,12.491,0.72727,0.1,0.00026974,2695.6,0.00026937,2684.6,-8.7935e-05,-0.0004914,-9.0831e-05,-21.759,0.76443
7449,12.491,0.90909,0.1,0.00026997,2697.9,0.00026956,2686,-8.7916e-05,-0.0048646,-9.1067e-05,-23.677,0.76516
7450,12.491,1.0909,0.1,0.00027018,2700,0.00026975,2687.3,-8.7916e-05,-0.0070275,-9.1251e-05,-25.061,0.76582
7451,12.491,1.2727,0.1,0.00027036,2701.8,0.00026991,2688.7,-8.7933e-05,-0.0083912,-9.1383e-05,-25.929,0.76642
7452,12.491,1.4545,0.1,0.00027051,2703.3,0.00027006,2690,-8.7963e-05,-0.0090032,-9.1466e-05,-26.329,0.76697
7453,12.491,1.6364,0.1,0.00027064,2704.5,0.00027018,2691.2,-8.8003e-05,-0.0091464,-9.1506e-05,-26.33,0.76745
7454,12.491,1.8182,0.1,0.00027073,2705.4,0.00027028,2692.3,-8.8049e-05,-0.0089683,-9.1511e-05,-26.02,0.76787
7455,12.491,2,0.1,0.0002708,2706.1,0.00027035,2693.3,-8.8098e-05,-0.0086295,-9.149e-05,-25.497,0.76824
7456,12.491,2.1818,0.1,0.00027085,2706.6,0.00027041,2694.1,-8.8145e-05,-0.0082316,-9.1453e-05,-24.864,0.76854
7457,12.491,2.3636,0.1,0.00027088,2706.9,0.00027046,2694.7,-8.8188e-05,-0.0078559,-9.141e-05,-24.218,0.76878
7458,12.491,2.5455,0.1,0.0002709,2707.1,0.00027049,2695.2,-8.8223e-05,-0.0075538,-9.1369e-05,-23.647,0.76896
7459,12.491,2.7273,0.1,0.00027091,2707.2,0.0002705,2695.5,-8.8247e-05,-0.0073457,-9.1337e-05,-23.224,0.76908
7460,12.491,2.9091,0.1,0.00027091,2707.2,0.00027051,2695.7,-8.826e-05,-0.0072414,-9.132e-05,-22.999,0.76914
7461,12.491,3.0909,0.1,0.00027091,2707.2,0.00027051,2695.7,-8.826e-05,-0.007241,-9.132e-05,-22.999,0.76914
7462,12.491,3.2727,0.1,0.00027091,2707.2,0.0002705,2695.5,-8.8247e-05,-0.0073456,-9.1337e-05,-23.224,0.76908
7463,12.491,3.4545,0.1,0.0002709,2707.1,0.00027049,2695.2,-8.8223e-05,-0.0075533,-9.1369e-05,-23.647,0.76896
7464,12.491,3.6364,0.1,0.00027088,2706.9,0.00027046,2694.7,-8.8188e-05,-0.0078563,-9.141e-05,-24.218,0.76878
7465,12.491,3.8182,0.1,0.00027085,2706.6,0.00027041,2694.1,-8.8145e-05,-0.0082312,-9.1453e-05,-24.864,0.76854
7466,12.491,4,0.1,0.0002708,2706.1,0.00027035,2693.3,-8.8098e-05,-0.0086287,-9.149e-05,-25.497,0.76824
7467,12.491,4.1818,0.1,0.00027073,2705.4,0.00027028,2692.3,-8.8049e-05,-0.0089683,-9.1511e-05,-26.02,0.76787
7468,12.491,4.3636,0.1,0.00027064,2704.5,0.00027018,2691.2,-8.8003e-05,-0.0091464,-9.1506e-05,-26.33,0.76745
7469,12.491,4.5455,0.1,0.00027051,2703.3,0.00027006,2690,-8.7963e-05,-0.009003,-9.1466e-05,-26.329,0.76697
7470,12.491,4.7273,0.1,0.00027036,2701.8,0.00026991,2688.7,-8.7933e-05,-0.0083912,-9.1383e-05,-25.929,0.76642
7471,12.491,4.9091,0.1,0.00027018,2700,0.00026975,2687.3,-8.7916e-05,-0.0070264,-9.1251e-05,-25.061,0.76582
7472,12.491,5.0909,0.1,0.00026997,2697.9,0.00026956,2686,-8.7916e-05,-0.0048638,-9.1067e-05,-23.677,0.76516
7473,12.491,5.2727,0.1,0.00026974,2695.6,0.00026937,2684.6,-8.7935e-05,-0.00049007,-9.0831e-05,-21.759,0.76443
7474,12.491,5.4545,0.1,0.0002695,2693.1,0.00026917,2683.4,-8.7976e-05,0.0026537,-9.0548e-05,-19.324,0.76365
7475,12.491,5.6364,0.1,0.00026926,2690.7,0.00026897,2682.5,-8.8036e-05,0.026819,-9.0231e-05,-16.464,0.76281
7476,12.491,5.8182,0.1,0.00026919,2690,0.00026894,2682.9,-8.8124e-05,0.0059849,-9.0025e-05,-14.282,0.76191
7477,12.675,0.18182,0.1,0.000264,2638.2,0.00026375,2630.7,-8.6384e-05,0.0083245,-8.8358e-05,-14.821,0.78212
7478,12.675,0.36364,0.1,0.00026415,2639.7,0.00026384,2630.8,-8.6285e-05,0.030643,-8.8657e-05,-17.795,0.78301
7479,12.675,0.54545,0.1,0.00026447,2642.9,0.0002641,2632.2,-8.6217e-05,0.0023427,-8.9055e-05,-21.321,0.78384
7480,12.675,0.72727,0.1,0.00026479,2646.1,0.00026437,2633.9,-8.6175e-05,-0.0010749,-8.9409e-05,-24.304,0.78461
7481,12.675,0.90909,0.1,0.00026509,2649.1,0.00026463,2635.7,-8.6158e-05,-0.0058805,-8.9705e-05,-26.65,0.78533
7482,12.675,1.0909,0.1,0.00026537,2651.9,0.00026488,2637.6,-8.6165e-05,-0.0081142,-8.9936e-05,-28.341,0.78598
7483,12.675,1.2727,0.1,0.00026561,2654.3,0.0002651,2639.4,-8.6192e-05,-0.0094566,-9.0104e-05,-29.401,0.78658
7484,12.675,1.4545,0.1,0.00026582,2656.3,0.00026529,2641.2,-8.6235e-05,-0.0099633,-9.0212e-05,-29.889,0.78711
7485,12.675,1.6364,0.1,0.00026598,2658,0.00026546,2642.9,-8.629e-05,-0.0099638,-9.0267e-05,-29.891,0.78759
7486,12.675,1.8182,0.1,0.00026611,2659.3,0.0002656,2644.4,-8.6352e-05,-0.009647,-9.0279e-05,-29.515,0.78801
7487,12.675,2,0.1,0.00026621,2660.3,0.00026571,2645.7,-8.6417e-05,-0.0091794,-9.0259e-05,-28.878,0.78836
7488,12.675,2.1818,0.1,0.00026629,2661,0.0002658,2646.8,-8.6479e-05,-0.0086839,-9.0219e-05,-28.107,0.78866
7489,12.675,2.3636,0.1,0.00026633,2661.5,0.00026586,2647.7,-8.6534e-05,-0.0082452,-9.0169e-05,-27.319,0.7889
7490,12.675,2.5455,0.1,0.00026637,2661.8,0.0002659,2648.4,-8.658e-05,-0.0079107,-9.0122e-05,-26.624,0.78908
7491,12.675,2.7273,0.1,0.00026639,2662,0.00026593,2648.9,-8.6611e-05,-0.0076923,-9.0085e-05,-26.108,0.7892
7492,12.675,2.9091,0.1,0.00026639,2662.1,0.00026595,2649.1,-8.6628e-05,-0.0075866,-9.0065e-05,-25.834,0.78926
7493,12.675,3.0909,0.1,0.00026639,2662.1,0.00026595,2649.1,-8.6628e-05,-0.0075863,-9.0065e-05,-25.834,0.78926
7494,12.675,3.2727,0.1,0.00026639,2662,0.00026593,2648.9,-8.6611e-05,-0.0076924,-9.0085e-05,-26.108,0.7892
7495,12.675,3.4545,0.1,0.00026637,2661.8,0.0002659,2648.4,-8.658e-05,-0.0079107,-9.0122e-05,-26.624,0.78908
7496,12.675,3.6364,0.1,0.00026633,2661.5,0.00026586,2647.7,-8.6534e-05,-0.0082453,-9.0169e-05,-27.319,0.7889
7497,12.675,3.8182,0.1,0.00026629,2661,0.0002658,2646.8,-8.6479e-05,-0.0086836,-9.0219e-05,-28.107,0.78866
7498,12.675,4,0.1,0.00026621,2660.3,0.00026571,2645.7,-8.6417e-05,-0.0091793,-9.0259e-05,-28.878,0.78836
7499,12.675,4.1818,0.1,0.00026611,2659.3,0.0002656,2644.4,-8.6352e-05,-0.0096465,-9.0279e-05,-29.515,0.78801
7500,12.675,4.3636,0.1,0.00026598,2658,0.00026546,2642.9,-8.629e-05,-0.0099634,-9.0267e-05,-29.891,0.78759
7501,12.675,4.5455,0.1,0.00026582,2656.3,0.00026529,2641.2,-8.6235e-05,-0.0099626,-9.0212e-05,-29.889,0.78711
7502,12.675,4.7273,0.1,0.00026561,2654.3,0.0002651,2639.4,-8.6192e-05,-0.0094554,-9.0104e-05,-29.401,0.78658
7503,12.675,4.9091,0.1,0.00026537,2651.9,0.00026488,2637.6,-8.6165e-05,-0.0081145,-8.9936e-05,-28.341,0.78598
7504,12.675,5.0909,0.1,0.00026509,2649.1,0.00026463,2635.7,-8.6158e-05,-0.0058781,-8.9705e-05,-26.65,0.78533
7505,12.675,5.2727,0.1,0.00026479,2646.1,0.00026437,2633.9,-8.6175e-05,-0.0010733,-8.9409e-05,-24.304,0.78461
7506,12.675,5.4545,0.1,0.00026447,2642.9,0.0002641,2632.2,-8.6217e-05,0.0023419,-8.9055e-05,-21.321,0.78384
7507,12.675,5.6364,0.1,0.00026415,2639.7,0.00026384,2630.8,-8.6285e-05,0.030644,-8.8657e-05,-17.795,0.78301
7508,12.675,5.8182,0.1,0.000264,2638.2,0.00026375,2630.7,-8.6384e-05,0.0083253,-8.8358e-05,-14.821,0.78212
7509,12.859,0.18182,0.1,0.00025876,2585.8,0.0002585,2578.1,-8.4627e-05,0.011533,-8.6677e-05,-15.396,0.80252
7510,12.859,0.36364,0.1,0.00025901,2588.3,0.00025868,2578.6,-8.4513e-05,0.034963,-8.7083e-05,-19.269,0.80339
7511,12.859,0.54545,0.1,0.00025942,2592.4,0.00025901,2580.5,-8.4439e-05,0.0019425,-8.7573e-05,-23.541,0.80421
7512,12.859,0.72727,0.1,0.00025983,2596.5,0.00025936,2582.8,-8.4396e-05,-0.0017353,-8.8007e-05,-27.13,0.80497
7513,12.859,0.90909,0.1,0.00026022,2600.4,0.00025969,2585.3,-8.4385e-05,-0.0069852,-8.8369e-05,-29.939,0.80568
7514,12.859,1.0909,0.1,0.00026057,2603.9,0.00026001,2587.8,-8.4402e-05,-0.0092653,-8.8653e-05,-31.949,0.80632
7515,12.859,1.2727,0.1,0.00026088,2607,0.0002603,2590.3,-8.4443e-05,-0.010549,-8.8859e-05,-33.195,0.80691
7516,12.859,1.4545,0.1,0.00026115,2609.7,0.00026056,2592.7,-8.4504e-05,-0.010912,-8.8994e-05,-33.748,0.80744
7517,12.859,1.6364,0.1,0.00026137,2611.9,0.00026078,2594.9,-8.4578e-05,-0.01074,-8.9064e-05,-33.714,0.80791
7518,12.859,1.8182,0.1,0.00026155,2613.7,0.00026097,2596.9,-8.4661e-05,-0.010251,-8.9082e-05,-33.223,0.80832
7519,12.859,2,0.1,0.00026169,2615.1,0.00026112,2598.7,-8.4747e-05,-0.0096406,-8.906e-05,-32.421,0.80867
7520,12.859,2.1818,0.1,0.00026179,2616.1,0.00026124,2600.2,-8.4828e-05,-0.0090462,-8.9014e-05,-31.459,0.80897
7521,12.859,2.3636,0.1,0.00026186,2616.8,0.00026133,2601.4,-8.49e-05,-0.0085571,-8.8956e-05,-30.481,0.8092
7522,12.859,2.5455,0.1,0.00026191,2617.3,0.00026139,2602.3,-8.4959e-05,-0.0082131,-8.89e-05,-29.621,0.80938
7523,12.859,2.7273,0.1,0.00026194,2617.6,0.00026143,2603,-8.5001e-05,-0.0080065,-8.8857e-05,-28.983,0.80949
7524,12.859,2.9091,0.1,0.00026195,2617.7,0.00026145,2603.3,-8.5022e-05,-0.0079135,-8.8833e-05,-28.645,0.80955
7525,12.859,3.0909,0.1,0.00026195,2617.7,0.00026145,2603.3,-8.5022e-05,-0.0079137,-8.8833e-05,-28.645,0.80955
7526,12.859,3.2727,0.1,0.00026194,2617.6,0.00026143,2603,-8.5001e-05,-0.0080057,-8.8857e-05,-28.983,0.80949
7527,12.859,3.4545,0.1,0.00026191,2617.3,0.00026139,2602.3,-8.4959e-05,-0.0082133,-8.89e-05,-29.621,0.80938
7528,12.859,3.6364,0.1,0.00026186,2616.8,0.00026133,2601.4,-8.49e-05,-0.0085574,-8.8956e-05,-30.481,0.8092
7529,12.859,3.8182,0.1,0.00026179,2616.1,0.00026124,2600.2,-8.4828e-05,-0.0090455,-8.9014e-05,-31.458,0.80897
7530,12.859,4,0.1,0.00026169,2615.1,0.00026112,2598.7,-8.4747e-05,-0.0096407,-8.906e-05,-32.421,0.80867
7531,12.859,4.1818,0.1,0.00026155,2613.7,0.00026097,2596.9,-8.4661e-05,-0.010251,-8.9082e-05,-33.223,0.80832
7532,12.859,4.3636,0.1,0.00026137,2611.9,0.00026078,2594.9,-8.4578e-05,-0.010739,-8.9064e-05,-33.714,0.80791
7533,12.859,4.5455,0.1,0.00026115,2609.7,0.00026056,2592.7,-8.4504e-05,-0.010912,-8.8994e-05,-33.748,0.80744
7534,12.859,4.7273,0.1,0.00026088,2607,0.0002603,2590.3,-8.4443e-05,-0.010549,-8.8859e-05,-33.195,0.80691
7535,12.859,4.9091,0.1,0.00026057,2603.9,0.00026001,2587.8,-8.4402e-05,-0.0092647,-8.8653e-05,-31.949,0.80632
7536,12.859,5.0909,0.1,0.00026022,2600.4,0.00025969,2585.3,-8.4385e-05,-0.0069841,-8.8369e-05,-29.939,0.80568
7537,12.859,5.2727,0.1,0.00025983,2596.5,0.00025936,2582.8,-8.4396e-05,-0.0017334,-8.8007e-05,-27.13,0.80497
7538,12.859,5.4545,0.1,0.00025942,2592.4,0.00025901,2580.5,-8.4439e-05,0.0019434,-8.7573e-05,-23.541,0.80421
7539,12.859,5.6364,0.1,0.00025901,2588.3,0.00025868,2578.6,-8.4513e-05,0.034963,-8.7083e-05,-19.269,0.80339
7540,12.859,5.8182,0.1,0.00025876,2585.8,0.0002585,2578.1,-8.4627e-05,0.011533,-8.6677e-05,-15.396,0.80252
7541,13.042,0.18182,0.1,0.00025345,2532.8,0.00025318,2524.8,-8.2844e-05,0.015753,-8.4978e-05,-16.018,0.82308
7542,13.042,0.36364,0.1,0.00025381,2536.4,0.00025345,2525.9,-8.2716e-05,0.039778,-8.5506e-05,-20.918,0.82395
7543,13.042,0.54545,0.1,0.00025433,2541.5,0.00025388,2528.4,-8.2636e-05,0.001364,-8.6101e-05,-26.029,0.82475
7544,13.042,0.72727,0.1,0.00025485,2546.7,0.00025432,2531.4,-8.2594e-05,-0.0025476,-8.6625e-05,-30.291,0.8255
7545,13.042,0.90909,0.1,0.00025533,2551.6,0.00025475,2534.6,-8.2591e-05,-0.0082529,-8.7062e-05,-33.604,0.8262
7546,13.042,1.0909,0.1,0.00025578,2556.1,0.00025515,2537.9,-8.2622e-05,-0.010537,-8.7405e-05,-35.951,0.82684
7547,13.042,1.2727,0.1,0.00025618,2560,0.00025552,2541.1,-8.2682e-05,-0.011718,-8.7655e-05,-37.376,0.82742
7548,13.042,1.4545,0.1,0.00025652,2563.5,0.00025586,2544.3,-8.2766e-05,-0.011887,-8.7818e-05,-37.967,0.82794
7549,13.042,1.6364,0.1,0.00025681,2566.4,0.00025615,2547.2,-8.2867e-05,-0.011497,-8.7904e-05,-37.855,0.8284
7550,13.042,1.8182,0.1,0.00025705,2568.7,0.00025639,2549.9,-8.2977e-05,-0.010805,-8.7926e-05,-37.196,0.82881
7551,13.042,2,0.1,0.00025723,2570.5,0.0002566,2552.2,-8.3089e-05,-0.010038,-8.7901e-05,-36.167,0.82916
7552,13.042,2.1818,0.1,0.00025737,2571.9,0.00025676,2554.3,-8.3195e-05,-0.0093517,-8.7846e-05,-34.952,0.82944
7553,13.042,2.3636,0.1,0.00025747,2572.9,0.00025688,2555.9,-8.3289e-05,-0.0088396,-8.7777e-05,-33.728,0.82968
7554,13.042,2.5455,0.1,0.00025754,2573.6,0.00025697,2557.1,-8.3366e-05,-0.0085237,-8.771e-05,-32.654,0.82985
7555,13.042,2.7273,0.1,0.00025758,2574,0.00025702,2557.9,-8.3419e-05,-0.0083672,-8.7658e-05,-31.86,0.82997
7556,13.042,2.9091,0.1,0.0002576,2574.2,0.00025705,2558.4,-8.3447e-05,-0.0083106,-8.763e-05,-31.439,0.83002
7557,13.042,3.0909,0.1,0.0002576,2574.2,0.00025705,2558.4,-8.3447e-05,-0.0083107,-8.763e-05,-31.439,0.83002
7558,13.042,3.2727,0.1,0.00025758,2574,0.00025702,2557.9,-8.3419e-05,-0.0083674,-8.7658e-05,-31.86,0.82997
7559,13.042,3.4545,0.1,0.00025754,2573.6,0.00025697,2557.1,-8.3366e-05,-0.0085233,-8.771e-05,-32.654,0.82985
7560,13.042,3.6364,0.1,0.00025747,2572.9,0.00025688,2555.9,-8.3289e-05,-0.0088398,-8.7777e-05,-33.728,0.82968
7561,13.042,3.8182,0.1,0.00025737,2571.9,0.00025676,2554.3,-8.3195e-05,-0.0093516,-8.7846e-05,-34.952,0.82944
7562,13.042,4,0.1,0.00025723,2570.5,0.0002566,2552.2,-8.3089e-05,-0.010037,-8.7901e-05,-36.167,0.82916
7563,13.042,4.1818,0.1,0.00025705,2568.7,0.00025639,2549.9,-8.2977e-05,-0.010805,-8.7926e-05,-37.195,0.82881
7564,13.042,4.3636,0.1,0.00025681,2566.4,0.00025615,2547.2,-8.2867e-05,-0.011497,-8.7904e-05,-37.855,0.8284
7565,13.042,4.5455,0.1,0.00025652,2563.5,0.00025586,2544.3,-8.2766e-05,-0.011887,-8.7818e-05,-37.967,0.82794
7566,13.042,4.7273,0.1,0.00025618,2560,0.00025552,2541.1,-8.2682e-05,-0.011717,-8.7655e-05,-37.376,0.82742
7567,13.042,4.9091,0.1,0.00025578,2556.1,0.00025515,2537.9,-8.2622e-05,-0.010537,-8.7405e-05,-35.951,0.82684
7568,13.042,5.0909,0.1,0.00025533,2551.6,0.00025475,2534.6,-8.2591e-05,-0.0082514,-8.7062e-05,-33.604,0.8262
7569,13.042,5.2727,0.1,0.00025485,2546.7,0.00025432,2531.4,-8.2594e-05,-0.0025464,-8.6625e-05,-30.291,0.8255
7570,13.042,5.4545,0.1,0.00025433,2541.5,0.00025388,2528.4,-8.2636e-05,0.0013654,-8.6101e-05,-26.029,0.82475
7571,13.042,5.6364,0.1,0.00025381,2536.4,0.00025345,2525.9,-8.2716e-05,0.039778,-8.5506e-05,-20.918,0.82395
7572,13.042,5.8182,0.1,0.00025345,2532.8,0.00025318,2524.8,-8.2844e-05,0.015753,-8.4978e-05,-16.018,0.82308
7573,13.226,0.18182,0.1,0.00024806,2478.9,0.00024777,2470.5,-8.1029e-05,0.021189,-8.3254e-05,-16.699,0.84382
7574,13.226,0.36364,0.1,0.00024855,2483.7,0.00024815,2472.3,-8.0886e-05,0.045118,-8.3923e-05,-22.774,0.84467
7575,13.226,0.54545,0.1,0.00024919,2490.2,0.00024869,2475.6,-8.08e-05,0.00053652,-8.4638e-05,-28.835,0.84547
7576,13.226,0.72727,0.1,0.00024983,2496.6,0.00024924,2479.5,-8.0761e-05,-0.0035617,-8.5266e-05,-33.85,0.84621
7577,13.226,0.90909,0.1,0.00025044,2502.6,0.00024977,2483.6,-8.077e-05,-0.0097186,-8.5788e-05,-37.716,0.84689
7578,13.226,1.0909,0.1,0.000251,2508.2,0.00025029,2487.8,-8.082e-05,-0.011951,-8.6198e-05,-40.421,0.84752
7579,13.226,1.2727,0.1,0.0002515,2513.3,0.00025076,2492,-8.0906e-05,-0.012967,-8.6497e-05,-42.019,0.84809
7580,13.226,1.4545,0.1,0.00025194,2517.6,0.00025119,2496.1,-8.1021e-05,-0.012881,-8.6691e-05,-42.62,0.84861
7581,13.226,1.6364,0.1,0.00025231,2521.3,0.00025156,2499.9,-8.1155e-05,-0.012218,-8.6794e-05,-42.38,0.84907
7582,13.226,1.8182,0.1,0.00025261,2524.4,0.00025188,2503.4,-8.13e-05,-0.011285,-8.682e-05,-41.49,0.84947
7583,13.226,2,0.1,0.00025285,2526.8,0.00025215,2506.5,-8.1446e-05,-0.010348,-8.679e-05,-40.164,0.84981
7584,13.226,2.1818,0.1,0.00025304,2528.7,0.00025236,2509.1,-8.1584e-05,-0.0095883,-8.6723e-05,-38.625,0.8501
7585,13.226,2.3636,0.1,0.00025318,2530,0.00025253,2511.3,-8.1706e-05,-0.0090993,-8.664e-05,-37.086,0.85033
7586,13.226,2.5455,0.1,0.00025327,2531,0.00025265,2512.9,-8.1804e-05,-0.0088754,-8.656e-05,-35.743,0.8505
7587,13.226,2.7273,0.1,0.00025333,2531.6,0.00025272,2514,-8.1873e-05,-0.0088312,-8.6497e-05,-34.752,0.85061
7588,13.226,2.9091,0.1,0.00025336,2531.9,0.00025276,2514.6,-8.1908e-05,-0.0088493,-8.6463e-05,-34.228,0.85067
7589,13.226,3.0909,0.1,0.00025336,2531.9,0.00025276,2514.6,-8.1908e-05,-0.0088486,-8.6463e-05,-34.228,0.85067
7590,13.226,3.2727,0.1,0.00025333,2531.6,0.00025272,2514,-8.1873e-05,-0.008831,-8.6497e-05,-34.752,0.85061
7591,13.226,3.4545,0.1,0.00025327,2531,0.00025265,2512.9,-8.1804e-05,-0.0088755,-8.656e-05,-35.742,0.8505
7592,13.226,3.6364,0.1,0.00025318,2530,0.00025253,2511.3,-8.1706e-05,-0.0090987,-8.664e-05,-37.086,0.85033
7593,13.226,3.8182,0.1,0.00025304,2528.7,0.00025236,2509.1,-8.1584e-05,-0.0095876,-8.6723e-05,-38.625,0.8501
7594,13.226,4,0.1,0.00025285,2526.8,0.00025215,2506.5,-8.1446e-05,-0.010348,-8.679e-05,-40.164,0.84981
7595,13.226,4.1818,0.1,0.00025261,2524.4,0.00025188,2503.4,-8.13e-05,-0.011284,-8.682e-05,-41.49,0.84947
7596,13.226,4.3636,0.1,0.00025231,2521.3,0.00025156,2499.9,-8.1155e-05,-0.012218,-8.6794e-05,-42.38,0.84907
7597,13.226,4.5455,0.1,0.00025194,2517.6,0.00025119,2496.1,-8.1021e-05,-0.012879,-8.6691e-05,-42.62,0.84861
7598,13.226,4.7273,0.1,0.0002515,2513.3,0.00025076,2492,-8.0906e-05,-0.012967,-8.6497e-05,-42.019,0.84809
7599,13.226,4.9091,0.1,0.000251,2508.2,0.00025029,2487.8,-8.082e-05,-0.011951,-8.6198e-05,-40.421,0.84752
7600,13.226,5.0909,0.1,0.00025044,2502.6,0.00024977,2483.6,-8.077e-05,-0.0097173,-8.5788e-05,-37.716,0.84689
7601,13.226,5.2727,0.1,0.00024983,2496.6,0.00024924,2479.5,-8.0761e-05,-0.0035598,-8.5266e-05,-33.85,0.84621
7602,13.226,5.4545,0.1,0.00024919,2490.2,0.00024869,2475.6,-8.08e-05,0.00053752,-8.4638e-05,-28.835,0.84547
7603,13.226,5.6364,0.1,0.00024855,2483.7,0.00024815,2472.3,-8.0886e-05,0.045118,-8.3923e-05,-22.774,0.84467
7604,13.226,5.8182,0.1,0.00024806,2478.9,0.00024777,2470.5,-8.1029e-05,0.021189,-8.3254e-05,-16.699,0.84382
7605,13.41,0.18182,0.1,0.00024254,2423.8,0.00024224,2415,-7.9171e-05,0.028105,-8.1497e-05,-17.453,0.86472
7606,13.41,0.36364,0.1,0.00024318,2430.2,0.00024275,2417.7,-7.9011e-05,0.051044,-8.2328e-05,-24.875,0.86556
7607,13.41,0.54545,0.1,0.00024397,2438.1,0.00024341,2421.9,-7.8921e-05,-0.00057235,-8.3182e-05,-32.015,0.86635
7608,13.41,0.72727,0.1,0.00024476,2445.9,0.0002441,2426.8,-7.8888e-05,-0.0047764,-8.3929e-05,-37.874,0.86708
7609,13.41,0.90909,0.1,0.00024551,2453.4,0.00024477,2432,-7.8914e-05,-0.011368,-8.4549e-05,-42.353,0.86776
7610,13.41,1.0909,0.1,0.00024621,2460.4,0.00024541,2437.4,-7.899e-05,-0.013472,-8.5036e-05,-45.442,0.86838
7611,13.41,1.2727,0.1,0.00024684,2466.7,0.00024601,2442.8,-7.911e-05,-0.014243,-8.5391e-05,-47.209,0.86894
7612,13.41,1.4545,0.1,0.0002474,2472.3,0.00024655,2448,-7.9263e-05,-0.013819,-8.5622e-05,-47.789,0.86945
7613,13.41,1.6364,0.1,0.00024787,2477,0.00024703,2453,-7.944e-05,-0.012815,-8.5743e-05,-47.368,0.8699
7614,13.41,1.8182,0.1,0.00024826,2480.9,0.00024744,2457.5,-7.963e-05,-0.011596,-8.5774e-05,-46.176,0.8703
7615,13.41,2,0.1,0.00024858,2484.1,0.00024779,2461.5,-7.9819e-05,-0.010479,-8.5737e-05,-44.472,0.87064
7616,13.41,2.1818,0.1,0.00024883,2486.5,0.00024807,2465,-7.9998e-05,-0.0096778,-8.5656e-05,-42.524,0.87092
7617,13.41,2.3636,0.1,0.00024901,2488.4,0.00024829,2467.8,-8.0155e-05,-0.0092859,-8.5556e-05,-40.592,0.87115
7618,13.41,2.5455,0.1,0.00024914,2489.7,0.00024845,2470,-8.0281e-05,-0.0092567,-8.5459e-05,-38.913,0.87132
7619,13.41,2.7273,0.1,0.00024922,2490.5,0.00024856,2471.4,-8.037e-05,-0.009423,-8.5383e-05,-37.678,0.87143
7620,13.41,2.9091,0.1,0.00024926,2490.9,0.00024861,2472.1,-8.0416e-05,-0.009578,-8.5342e-05,-37.026,0.87149
7621,13.41,3.0909,0.1,0.00024926,2490.9,0.00024861,2472.1,-8.0416e-05,-0.0095782,-8.5342e-05,-37.026,0.87149
7622,13.41,3.2727,0.1,0.00024922,2490.5,0.00024856,2471.4,-8.037e-05,-0.0094228,-8.5383e-05,-37.678,0.87143
7623,13.41,3.4545,0.1,0.00024914,2489.7,0.00024845,2470,-8.0281e-05,-0.0092573,-8.5459e-05,-38.913,0.87132
7624,13.41,3.6364,0.1,0.00024901,2488.4,0.00024829,2467.8,-8.0155e-05,-0.0092861,-8.5556e-05,-40.592,0.87115
7625,13.41,3.8182,0.1,0.00024883,2486.5,0.00024807,2465,-7.9998e-05,-0.0096776,-8.5656e-05,-42.524,0.87092
7626,13.41,4,0.1,0.00024858,2484.1,0.00024779,2461.5,-7.9819e-05,-0.010478,-8.5737e-05,-44.472,0.87064
7627,13.41,4.1818,0.1,0.00024826,2480.9,0.00024744,2457.5,-7.963e-05,-0.011595,-8.5774e-05,-46.176,0.8703
7628,13.41,4.3636,0.1,0.00024787,2477,0.00024703,2453,-7.944e-05,-0.012815,-8.5743e-05,-47.368,0.8699
7629,13.41,4.5455,0.1,0.0002474,2472.3,0.00024655,2448,-7.9263e-05,-0.013819,-8.5622e-05,-47.789,0.86945
7630,13.41,4.7273,0.1,0.00024684,2466.7,0.00024601,2442.8,-7.9109e-05,-0.014243,-8.5391e-05,-47.209,0.86894
7631,13.41,4.9091,0.1,0.00024621,2460.4,0.00024541,2437.4,-7.899e-05,-0.013471,-8.5036e-05,-45.442,0.86838
7632,13.41,5.0909,0.1,0.00024551,2453.4,0.00024477,2432,-7.8914e-05,-0.011367,-8.4549e-05,-42.353,0.86776
7633,13.41,5.2727,0.1,0.00024476,2445.9,0.0002441,2426.8,-7.8888e-05,-0.0047753,-8.3929e-05,-37.874,0.86708
7634,13.41,5.4545,0.1,0.00024397,2438.1,0.00024341,2421.9,-7.8921e-05,-0.00057227,-8.3182e-05,-32.015,0.86635
7635,13.41,5.6364,0.1,0.00024318,2430.2,0.00024275,2417.7,-7.9011e-05,0.051044,-8.2328e-05,-24.875,0.86556
7636,13.41,5.8182,0.1,0.00024254,2423.8,0.00024224,2415,-7.9171e-05,0.028106,-8.1497e-05,-17.453,0.86472
7637,13.593,0.18182,0.1,0.00023688,2367.1,0.00023656,2357.9,-7.7258e-05,0.03681,-7.9698e-05,-18.295,0.88579
7638,13.593,0.36364,0.1,0.0002377,2375.3,0.00023722,2361.6,-7.7081e-05,0.057653,-8.0717e-05,-27.262,0.88662
7639,13.593,0.54545,0.1,0.00023866,2385,0.00023804,2367,-7.6987e-05,-0.0019546,-8.1729e-05,-35.628,0.88739
7640,13.593,0.72727,0.1,0.00023962,2394.6,0.00023887,2373.1,-7.6965e-05,-0.0061366,-8.2613e-05,-42.441,0.88812
7641,13.593,0.90909,0.1,0.00024055,2403.8,0.00023971,2379.7,-7.7013e-05,-0.013119,-8.3347e-05,-47.603,0.88879
7642,13.593,1.0909,0.1,0.00024142,2412.5,0.00024051,2386.5,-7.7123e-05,-0.014988,-8.3924e-05,-51.11,0.8894
7643,13.593,1.2727,0.1,0.0002422,2420.4,0.00024126,2393.4,-7.7286e-05,-0.015411,-8.4344e-05,-53.047,0.88996
7644,13.593,1.4545,0.1,0.0002429,2427.3,0.00024195,2400.1,-7.749e-05,-0.014546,-8.4618e-05,-53.572,0.89046
7645,13.593,1.6364,0.1,0.0002435,2433.4,0.00024256,2406.5,-7.7722e-05,-0.013115,-8.4763e-05,-52.911,0.89091
7646,13.593,1.8182,0.1,0.00024401,2438.4,0.0002431,2412.3,-7.7968e-05,-0.011552,-8.4799e-05,-51.337,0.8913
7647,13.593,2,0.1,0.00024442,2442.5,0.00024355,2417.6,-7.8213e-05,-0.010247,-8.4754e-05,-49.161,0.89163
7648,13.593,2.1818,0.1,0.00024475,2445.8,0.00024392,2422.1,-7.8443e-05,-0.0094576,-8.4658e-05,-46.707,0.89191
7649,13.593,2.3636,0.1,0.00024499,2448.2,0.00024421,2425.8,-7.8644e-05,-0.0092785,-8.4538e-05,-44.291,0.89214
7650,13.593,2.5455,0.1,0.00024517,2450,0.00024442,2428.6,-7.8807e-05,-0.009597,-8.4422e-05,-42.199,0.8923
7651,13.593,2.7273,0.1,0.00024528,2451.1,0.00024456,2430.5,-7.892e-05,-0.010125,-8.4331e-05,-40.664,0.89241
7652,13.593,2.9091,0.1,0.00024533,2451.6,0.00024463,2431.5,-7.8979e-05,-0.010511,-8.4281e-05,-39.853,0.89247
7653,13.593,3.0909,0.1,0.00024533,2451.6,0.00024463,2431.5,-7.8979e-05,-0.010511,-8.4281e-05,-39.853,0.89247
7654,13.593,3.2727,0.1,0.00024528,2451.1,0.00024456,2430.5,-7.892e-05,-0.010125,-8.4331e-05,-40.664,0.89241
7655,13.593,3.4545,0.1,0.00024517,2450,0.00024442,2428.6,-7.8807e-05,-0.009597,-8.4422e-05,-42.199,0.8923
7656,13.593,3.6364,0.1,0.00024499,2448.2,0.00024421,2425.8,-7.8644e-05,-0.0092773,-8.4538e-05,-44.291,0.89214
7657,13.593,3.8182,0.1,0.00024475,2445.8,0.00024392,2422.1,-7.8443e-05,-0.0094573,-8.4658e-05,-46.707,0.89191
7658,13.593,4,0.1,0.00024442,2442.5,0.00024355,2417.6,-7.8213e-05,-0.010247,-8.4754e-05,-49.161,0.89163
7659,13.593,4.1818,0.1,0.00024401,2438.4,0.0002431,2412.3,-7.7968e-05,-0.011551,-8.4799e-05,-51.337,0.8913
7660,13.593,4.3636,0.1,0.0002435,2433.4,0.00024256,2406.5,-7.7722e-05,-0.013114,-8.4762e-05,-52.911,0.89091
7661,13.593,4.5455,0.1,0.0002429,2427.3,0.00024195,2400.1,-7.749e-05,-0.014546,-8.4618e-05,-53.572,0.89046
7662,13.593,4.7273,0.1,0.0002422,2420.4,0.00024126,2393.4,-7.7286e-05,-0.01541,-8.4344e-05,-53.047,0.88996
7663,13.593,4.9091,0.1,0.00024142,2412.5,0.00024051,2386.5,-7.7123e-05,-0.014987,-8.3924e-05,-51.11,0.8894
7664,13.593,5.0909,0.1,0.00024055,2403.8,0.00023971,2379.7,-7.7013e-05,-0.013118,-8.3347e-05,-47.603,0.88879
7665,13.593,5.2727,0.1,0.00023962,2394.6,0.00023887,2373.1,-7.6965e-05,-0.0061345,-8.2613e-05,-42.441,0.88812
7666,13.593,5.4545,0.1,0.00023866,2385,0.00023804,2367,-7.6987e-05,-0.0019548,-8.1729e-05,-35.628,0.88739
7667,13.593,5.6364,0.1,0.0002377,2375.3,0.00023722,2361.6,-7.7081e-05,0.057653,-8.0717e-05,-27.262,0.88662
7668,13.593,5.8182,0.1,0.00023688,2367.1,0.00023656,2357.9,-7.7258e-05,0.036811,-7.9698e-05,-18.295,0.88579
7669,13.777,0.18182,0.1,0.00023101,2308.6,0.00023068,2298.9,-7.5276e-05,0.047548,-7.7843e-05,-19.245,0.90701
7670,13.777,0.36364,0.1,0.00023204,2318.8,0.00023152,2303.7,-7.508e-05,0.065012,-7.9078e-05,-29.979,0.90783
7671,13.777,0.54545,0.1,0.00023322,2330.6,0.00023252,2310.4,-7.4985e-05,-0.0035976,-8.0274e-05,-39.74,0.9086
7672,13.777,0.72727,0.1,0.00023439,2342.3,0.00023354,2318.1,-7.4978e-05,-0.0075657,-8.1317e-05,-47.631,0.90931
7673,13.777,0.90909,0.1,0.00023553,2353.6,0.00023457,2326.4,-7.5057e-05,-0.014859,-8.2183e-05,-53.561,0.90998
7674,13.777,1.0909,0.1,0.0002366,2364.3,0.00023556,2335,-7.5211e-05,-0.016353,-8.2866e-05,-57.532,0.91058
7675,13.777,1.2727,0.1,0.00023758,2374.2,0.00023651,2343.8,-7.5429e-05,-0.016294,-8.3365e-05,-59.644,0.91113
7676,13.777,1.4545,0.1,0.00023846,2382.9,0.00023738,2352.3,-7.5697e-05,-0.014859,-8.3692e-05,-60.086,0.91163
7677,13.777,1.6364,0.1,0.00023922,2390.6,0.00023816,2360.5,-7.5999e-05,-0.012888,-8.3865e-05,-59.12,0.91207
7678,13.777,1.8182,0.1,0.00023988,2397.1,0.00023885,2368,-7.6316e-05,-0.01091,-8.3911e-05,-57.075,0.91246
7679,13.777,2,0.1,0.00024041,2402.4,0.00023944,2374.8,-7.663e-05,-0.0094106,-8.3859e-05,-54.322,0.91279
7680,13.777,2.1818,0.1,0.00024084,2406.7,0.00023992,2380.7,-7.6925e-05,-0.0087119,-8.3745e-05,-51.25,0.91307
7681,13.777,2.3636,0.1,0.00024116,2410,0.00024031,2385.5,-7.7183e-05,-0.0089124,-8.3603e-05,-48.243,0.91329
7682,13.777,2.5455,0.1,0.0002414,2412.3,0.00024059,2389.2,-7.7391e-05,-0.0098118,-8.3465e-05,-45.646,0.91345
7683,13.777,2.7273,0.1,0.00024155,2413.8,0.00024078,2391.7,-7.7536e-05,-0.010932,-8.3357e-05,-43.746,0.91356
7684,13.777,2.9091,0.1,0.00024162,2414.6,0.00024087,2392.9,-7.761e-05,-0.011694,-8.3298e-05,-42.743,0.91362
7685,13.777,3.0909,0.1,0.00024162,2414.6,0.00024087,2392.9,-7.761e-05,-0.011694,-8.3298e-05,-42.743,0.91362
7686,13.777,3.2727,0.1,0.00024155,2413.8,0.00024078,2391.7,-7.7536e-05,-0.010932,-8.3357e-05,-43.746,0.91356
7687,13.777,3.4545,0.1,0.0002414,2412.3,0.00024059,2389.2,-7.7391e-05,-0.0098118,-8.3465e-05,-45.646,0.91345
7688,13.777,3.6364,0.1,0.00024116,2410,0.00024031,2385.5,-7.7183e-05,-0.0089127,-8.3603e-05,-48.243,0.91329
7689,13.777,3.8182,0.1,0.00024084,2406.7,0.00023992,2380.7,-7.6925e-05,-0.0087117,-8.3745e-05,-51.25,0.91307
7690,13.777,4,0.1,0.00024041,2402.4,0.00023944,2374.8,-7.663e-05,-0.0094099,-8.3859e-05,-54.321,0.91279
7691,13.777,4.1818,0.1,0.00023988,2397.1,0.00023885,2368,-7.6316e-05,-0.01091,-8.391e-05,-57.075,0.91246
7692,13.777,4.3636,0.1,0.00023922,2390.6,0.00023816,2360.5,-7.5999e-05,-0.012888,-8.3865e-05,-59.12,0.91207
7693,13.777,4.5455,0.1,0.00023846,2382.9,0.00023738,2352.3,-7.5697e-05,-0.014858,-8.3692e-05,-60.086,0.91163
7694,13.777,4.7273,0.1,0.00023758,2374.2,0.00023651,2343.8,-7.5429e-05,-0.016294,-8.3365e-05,-59.644,0.91113
7695,13.777,4.9091,0.1,0.0002366,2364.3,0.00023556,2335,-7.5211e-05,-0.016352,-8.2866e-05,-57.532,0.91058
7696,13.777,5.0909,0.1,0.00023553,2353.6,0.00023457,2326.4,-7.5057e-05,-0.014858,-8.2183e-05,-53.561,0.90998
7697,13.777,5.2727,0.1,0.00023439,2342.3,0.00023354,2318.1,-7.4978e-05,-0.0075643,-8.1316e-05,-47.631,0.90931
7698,13.777,5.4545,0.1,0.00023322,2330.6,0.00023252,2310.4,-7.4985e-05,-0.0035972,-8.0274e-05,-39.74,0.9086
7699,13.777,5.6364,0.1,0.00023204,2318.8,0.00023152,2303.7,-7.508e-05,0.065012,-7.9078e-05,-29.978,0.90783
7700,13.777,5.8182,0.1,0.00023101,2308.6,0.00023068,2298.9,-7.5276e-05,0.047549,-7.7843e-05,-19.245,0.90701
7701,13.961,0.18182,0.1,0.00022491,2247.5,0.00022456,2237.3,-7.3205e-05,0.060277,-7.5918e-05,-20.321,0.92839
7702,13.961,0.36364,0.1,0.00022618,2260.3,0.0002256,2243.6,-7.299e-05,0.072999,-7.7401e-05,-33.07,0.9292
7703,13.961,0.54545,0.1,0.0002276,2274.4,0.00022681,2251.9,-7.2898e-05,-0.0056323,-7.8808e-05,-44.415,0.92996
7704,13.961,0.72727,0.1,0.00022903,2288.7,0.00022807,2261.4,-7.2912e-05,-0.0091094,-8.0035e-05,-53.53,0.93067
7705,13.961,0.90909,0.1,0.00023042,2302.6,0.00022933,2271.8,-7.3031e-05,-0.016582,-8.1058e-05,-60.332,0.93132
7706,13.961,1.0909,0.1,0.00023174,2315.8,0.00023057,2282.7,-7.3241e-05,-0.017518,-8.1867e-05,-64.829,0.93192
7707,13.961,1.2727,0.1,0.00023296,2328,0.00023175,2293.7,-7.353e-05,-0.016809,-8.2463e-05,-67.136,0.93247
7708,13.961,1.4545,0.1,0.00023407,2339.1,0.00023285,2304.6,-7.3879e-05,-0.014639,-8.2856e-05,-67.469,0.93296
7709,13.961,1.6364,0.1,0.00023505,2348.8,0.00023385,2315.1,-7.4268e-05,-0.011988,-8.3068e-05,-66.135,0.9334
7710,13.961,1.8182,0.1,0.00023588,2357.2,0.00023474,2324.8,-7.4675e-05,-0.0095032,-8.3127e-05,-63.519,0.93378
7711,13.961,2,0.1,0.00023658,2364.2,0.0002355,2333.5,-7.5077e-05,-0.0078016,-8.3071e-05,-60.067,0.93411
7712,13.961,2.1818,0.1,0.00023714,2369.8,0.00023613,2341.1,-7.5454e-05,-0.0073071,-8.2939e-05,-56.248,0.93438
7713,13.961,2.3636,0.1,0.00023757,2374.1,0.00023664,2347.4,-7.5783e-05,-0.0081325,-8.2773e-05,-52.526,0.9346
7714,13.961,2.5455,0.1,0.00023789,2377.2,0.00023701,2352.2,-7.6048e-05,-0.0099494,-8.2611e-05,-49.321,0.93477
7715,13.961,2.7273,0.1,0.00023809,2379.3,0.00023726,2355.4,-7.6233e-05,-0.012003,-8.2484e-05,-46.979,0.93488
7716,13.961,2.9091,0.1,0.00023819,2380.3,0.00023738,2357.1,-7.6328e-05,-0.013358,-8.2414e-05,-45.744,0.93493
7717,13.961,3.0909,0.1,0.00023819,2380.3,0.00023738,2357.1,-7.6328e-05,-0.013358,-8.2414e-05,-45.744,0.93493
7718,13.961,3.2727,0.1,0.00023809,2379.3,0.00023726,2355.4,-7.6233e-05,-0.012003,-8.2484e-05,-46.978,0.93488
7719,13.961,3.4545,0.1,0.00023789,2377.2,0.00023701,2352.2,-7.6048e-05,-0.0099494,-8.2611e-05,-49.321,0.93477
7720,13.961,3.6364,0.1,0.00023757,2374.1,0.00023664,2347.4,-7.5783e-05,-0.0081317,-8.2773e-05,-52.526,0.9346
7721,13.961,3.8182,0.1,0.00023714,2369.8,0.00023613,2341.1,-7.5454e-05,-0.0073076,-8.2939e-05,-56.248,0.93438
7722,13.961,4,0.1,0.00023658,2364.2,0.0002355,2333.5,-7.5077e-05,-0.0078014,-8.3071e-05,-60.067,0.93411
7723,13.961,4.1818,0.1,0.00023588,2357.2,0.00023474,2324.8,-7.4675e-05,-0.0095027,-8.3127e-05,-63.519,0.93378
7724,13.961,4.3636,0.1,0.00023505,2348.8,0.00023385,2315.1,-7.4268e-05,-0.011988,-8.3068e-05,-66.134,0.9334
7725,13.961,4.5455,0.1,0.00023407,2339.1,0.00023285,2304.6,-7.3879e-05,-0.014638,-8.2856e-05,-67.469,0.93296
7726,13.961,4.7273,0.1,0.00023296,2328,0.00023175,2293.7,-7.353e-05,-0.016808,-8.2463e-05,-67.136,0.93247
7727,13.961,4.9091,0.1,0.00023174,2315.8,0.00023057,2282.7,-7.3241e-05,-0.017517,-8.1867e-05,-64.829,0.93192
7728,13.961,5.0909,0.1,0.00023042,2302.6,0.00022933,2271.8,-7.3031e-05,-0.01658,-8.1058e-05,-60.332,0.93132
7729,13.961,5.2727,0.1,0.00022903,2288.7,0.00022807,2261.4,-7.2912e-05,-0.0091076,-8.0035e-05,-53.53,0.93067
7730,13.961,5.4545,0.1,0.0002276,2274.4,0.00022681,2251.9,-7.2898e-05,-0.0056311,-7.8808e-05,-44.415,0.92996
7731,13.961,5.6364,0.1,0.00022618,2260.3,0.0002256,2243.6,-7.299e-05,0.072999,-7.7401e-05,-33.07,0.9292
7732,13.961,5.8182,0.1,0.00022491,2247.5,0.00022456,2237.3,-7.3205e-05,0.060277,-7.5918e-05,-20.321,0.92839
7733,14.145,0.18182,0.1,0.00021849,2183.4,0.00021811,2172.6,-7.1025e-05,0.074705,-7.3903e-05,-21.547,0.94992
7734,14.145,0.36364,0.1,0.00022005,2199,0.00021941,2180.5,-7.079e-05,0.08146,-7.5669e-05,-36.579,0.95073
7735,14.145,0.54545,0.1,0.00022176,2216,0.00022087,2190.7,-7.0704e-05,-0.0081312,-7.7319e-05,-49.717,0.95148
7736,14.145,0.72727,0.1,0.00022348,2233.3,0.0002224,2202.6,-7.0747e-05,-0.01072,-7.8761e-05,-60.225,0.95218
7737,14.145,0.90909,0.1,0.00022519,2250.3,0.00022395,2215.5,-7.0917e-05,-0.018171,-7.9969e-05,-68.029,0.95283
7738,14.145,1.0909,0.1,0.00022682,2266.6,0.00022549,2229.2,-7.12e-05,-0.018314,-8.0932e-05,-73.139,0.95342
7739,14.145,1.2727,0.1,0.00022835,2281.9,0.00022697,2243.1,-7.1577e-05,-0.016745,-8.1647e-05,-75.68,0.95396
7740,14.145,1.4545,0.1,0.00022975,2295.9,0.00022836,2257,-7.2027e-05,-0.013639,-8.2126e-05,-75.892,0.95445
7741,14.145,1.6364,0.1,0.00023099,2308.3,0.00022964,2270.3,-7.2526e-05,-0.010131,-8.239e-05,-74.125,0.95489
7742,14.145,1.8182,0.1,0.00023206,2319,0.00023078,2282.8,-7.3046e-05,-0.0070196,-8.2473e-05,-70.833,0.95527
7743,14.145,2,0.1,0.00023297,2328.1,0.00023177,2294.1,-7.356e-05,-0.0051086,-8.2416e-05,-66.545,0.95559
7744,14.145,2.1818,0.1,0.0002337,2335.4,0.00023259,2303.9,-7.404e-05,-0.0049734,-8.2268e-05,-61.83,0.95586
7745,14.145,2.3636,0.1,0.00023428,2341.2,0.00023325,2312,-7.4459e-05,-0.0067674,-8.2078e-05,-57.249,0.95608
7746,14.145,2.5455,0.1,0.0002347,2345.4,0.00023375,2318.3,-7.4796e-05,-0.0099921,-8.189e-05,-53.313,0.95624
7747,14.145,2.7273,0.1,0.00023498,2348.1,0.00023408,2322.5,-7.5031e-05,-0.013477,-8.1743e-05,-50.441,0.95635
7748,14.145,2.9091,0.1,0.00023511,2349.5,0.00023424,2324.6,-7.5152e-05,-0.015747,-8.1662e-05,-48.929,0.9564
7749,14.145,3.0909,0.1,0.00023511,2349.5,0.00023424,2324.6,-7.5152e-05,-0.015747,-8.1662e-05,-48.929,0.9564
7750,14.145,3.2727,0.1,0.00023498,2348.1,0.00023408,2322.5,-7.5031e-05,-0.013477,-8.1743e-05,-50.441,0.95635
7751,14.145,3.4545,0.1,0.0002347,2345.4,0.00023375,2318.3,-7.4796e-05,-0.0099925,-8.189e-05,-53.313,0.95624
7752,14.145,3.6364,0.1,0.00023428,2341.2,0.00023325,2312,-7.4459e-05,-0.0067671,-8.2078e-05,-57.248,0.95608
7753,14.145,3.8182,0.1,0.0002337,2335.4,0.00023259,2303.9,-7.404e-05,-0.0049732,-8.2268e-05,-61.829,0.95586
7754,14.145,4,0.1,0.00023297,2328.1,0.00023177,2294.1,-7.356e-05,-0.005108,-8.2416e-05,-66.545,0.95559
7755,14.145,4.1818,0.1,0.00023206,2319,0.00023078,2282.8,-7.3046e-05,-0.0070204,-8.2473e-05,-70.833,0.95527
7756,14.145,4.3636,0.1,0.00023099,2308.3,0.00022964,2270.3,-7.2526e-05,-0.010131,-8.239e-05,-74.125,0.95489
7757,14.145,4.5455,0.1,0.00022975,2295.9,0.00022836,2257,-7.2027e-05,-0.013638,-8.2126e-05,-75.891,0.95445
7758,14.145,4.7273,0.1,0.00022835,2281.9,0.00022697,2243.1,-7.1577e-05,-0.016744,-8.1647e-05,-75.68,0.95396
7759,14.145,4.9091,0.1,0.00022682,2266.6,0.00022549,2229.2,-7.12e-05,-0.018314,-8.0932e-05,-73.139,0.95342
7760,14.145,5.0909,0.1,0.00022519,2250.3,0.00022395,2215.5,-7.0917e-05,-0.018169,-7.9969e-05,-68.029,0.95283
7761,14.145,5.2727,0.1,0.00022348,2233.3,0.0002224,2202.6,-7.0747e-05,-0.010717,-7.8761e-05,-60.225,0.95218
7762,14.145,5.4545,0.1,0.00022176,2216,0.00022087,2190.7,-7.0704e-05,-0.0081301,-7.7319e-05,-49.717,0.95148
7763,14.145,5.6364,0.1,0.00022005,2199,0.00021941,2180.5,-7.079e-05,0.08146,-7.5669e-05,-36.579,0.95073
7764,14.145,5.8182,0.1,0.00021849,2183.4,0.00021811,2172.6,-7.1025e-05,0.074705,-7.3903e-05,-21.547,0.94992
7765,14.328,0.18182,0.1,0.00021168,2115.3,0.00021128,2103.8,-6.8707e-05,0.090109,-7.1773e-05,-22.944,0.9716
7766,14.328,0.36364,0.1,0.00021357,2134.2,0.00021285,2113.7,-6.8453e-05,0.090203,-7.3861e-05,-40.541,0.9724
7767,14.328,0.54545,0.1,0.00021562,2154.7,0.00021462,2126.3,-6.8378e-05,-0.01107,-7.579e-05,-55.703,0.97314
7768,14.328,0.72727,0.1,0.00021771,2175.6,0.00021648,2140.9,-6.8461e-05,-0.012208,-7.7483e-05,-67.8,0.97383
7769,14.328,0.90909,0.1,0.00021979,2196.4,0.00021839,2157,-6.8697e-05,-0.01934,-7.8912e-05,-76.773,0.97448
7770,14.328,1.0909,0.1,0.00022181,2216.6,0.00022029,2174.1,-6.9069e-05,-0.018393,-8.0063e-05,-82.621,0.97507
7771,14.328,1.2727,0.1,0.00022373,2235.7,0.00022215,2191.8,-6.9557e-05,-0.015712,-8.093e-05,-85.468,0.97561
7772,14.328,1.4545,0.1,0.00022549,2253.4,0.00022391,2209.4,-7.0135e-05,-0.011428,-8.1521e-05,-85.567,0.97609
7773,14.328,1.6364,0.1,0.00022708,2269.2,0.00022554,2226.4,-7.0771e-05,-0.0068429,-8.1858e-05,-83.312,0.97653
7774,14.328,1.8182,0.1,0.00022846,2283,0.00022701,2242.4,-7.1434e-05,-0.0029493,-8.1978e-05,-79.23,0.9769
7775,14.328,2,0.1,0.00022964,2294.8,0.00022829,2256.9,-7.2087e-05,-0.00081428,-8.1929e-05,-73.951,0.97723
7776,14.328,2.1818,0.1,0.0002306,2304.4,0.00022937,2269.6,-7.2697e-05,-0.0012538,-8.1769e-05,-68.165,0.97749
7777,14.328,2.3636,0.1,0.00023136,2312,0.00023023,2280.1,-7.323e-05,-0.0044981,-8.1555e-05,-62.558,0.97771
7778,14.328,2.5455,0.1,0.00023192,2317.6,0.00023089,2288.2,-7.3657e-05,-0.0098229,-8.1342e-05,-57.75,0.97787
7779,14.328,2.7273,0.1,0.0002323,2321.3,0.00023132,2293.7,-7.3956e-05,-0.015457,-8.1174e-05,-54.248,0.97798
7780,14.328,2.9091,0.1,0.00023248,2323.2,0.00023154,2296.5,-7.4109e-05,-0.019109,-8.1082e-05,-52.406,0.97803
7781,14.328,3.0909,0.1,0.00023248,2323.2,0.00023154,2296.5,-7.4109e-05,-0.019108,-8.1082e-05,-52.406,0.97803
7782,14.328,3.2727,0.1,0.0002323,2321.3,0.00023132,2293.7,-7.3956e-05,-0.015458,-8.1174e-05,-54.248,0.97798
7783,14.328,3.4545,0.1,0.00023192,2317.6,0.00023089,2288.2,-7.3657e-05,-0.0098233,-8.1342e-05,-57.75,0.97787
7784,14.328,3.6364,0.1,0.00023136,2312,0.00023023,2280.1,-7.323e-05,-0.0044977,-8.1555e-05,-62.558,0.97771
7785,14.328,3.8182,0.1,0.0002306,2304.4,0.00022937,2269.6,-7.2697e-05,-0.0012538,-8.1769e-05,-68.165,0.97749
7786,14.328,4,0.1,0.00022964,2294.8,0.00022829,2256.9,-7.2087e-05,-0.00081434,-8.1929e-05,-73.951,0.97723
7787,14.328,4.1818,0.1,0.00022846,2283,0.00022701,2242.4,-7.1434e-05,-0.002948,-8.1978e-05,-79.23,0.9769
7788,14.328,4.3636,0.1,0.00022708,2269.2,0.00022554,2226.4,-7.0771e-05,-0.006843,-8.1858e-05,-83.312,0.97653
7789,14.328,4.5455,0.1,0.00022549,2253.4,0.00022391,2209.4,-7.0135e-05,-0.011427,-8.1521e-05,-85.567,0.97609
7790,14.328,4.7273,0.1,0.00022373,2235.7,0.00022215,2191.8,-6.9557e-05,-0.015711,-8.093e-05,-85.468,0.97561
7791,14.328,4.9091,0.1,0.00022181,2216.6,0.00022029,2174.1,-6.9069e-05,-0.018394,-8.0063e-05,-82.621,0.97507
7792,14.328,5.0909,0.1,0.00021979,2196.4,0.00021839,2157,-6.8697e-05,-0.019338,-7.8912e-05,-76.772,0.97448
7793,14.328,5.2727,0.1,0.00021771,2175.6,0.00021648,2140.9,-6.8461e-05,-0.012207,-7.7483e-05,-67.8,0.97383
7794,14.328,5.4545,0.1,0.00021562,2154.7,0.00021462,2126.3,-6.8378e-05,-0.011071,-7.579e-05,-55.703,0.97314
7795,14.328,5.6364,0.1,0.00021357,2134.2,0.00021285,2113.7,-6.8453e-05,0.090202,-7.3861e-05,-40.541,0.9724
7796,14.328,5.8182,0.1,0.00021168,2115.3,0.00021128,2103.8,-6.8707e-05,0.09011,-7.1773e-05,-22.944,0.9716
7797,14.512,0.18182,0.1,0.00020439,2042.5,0.00020396,2030.2,-6.6221e-05,0.10492,-6.95e-05,-24.534,0.99342
7798,14.512,0.36364,0.1,0.00020666,2065.2,0.00020586,2042.4,-6.5949e-05,0.098795,-7.1949e-05,-44.978,0.99421
7799,14.512,0.54545,0.1,0.00020911,2089.6,0.00020797,2057.7,-6.5892e-05,-0.014445,-7.4196e-05,-62.412,0.99495
7800,14.512,0.72727,0.1,0.00021163,2114.9,0.00021023,2075.7,-6.6025e-05,-0.013347,-7.6183e-05,-76.332,0.99564
7801,14.512,0.90909,0.1,0.00021418,2140.3,0.00021257,2095.7,-6.6344e-05,-0.019723,-7.7879e-05,-86.689,0.99628
7802,14.512,1.0909,0.1,0.00021669,2165.4,0.00021494,2117.1,-6.6828e-05,-0.017318,-7.9265e-05,-93.459,0.99687
7803,14.512,1.2727,0.1,0.00021908,2189.3,0.00021728,2139.3,-6.7454e-05,-0.013228,-8.0327e-05,-96.738,0.9974
7804,14.512,1.4545,0.1,0.00022132,2211.6,0.00021951,2161.7,-6.8189e-05,-0.0074877,-8.1068e-05,-96.774,0.99789
7805,14.512,1.6364,0.1,0.00022334,2231.9,0.00022159,2183.4,-6.8998e-05,-0.0015564,-8.1507e-05,-93.991,0.99832
7806,14.512,1.8182,0.1,0.00022512,2249.7,0.00022348,2203.9,-6.9839e-05,0.0033209,-8.1684e-05,-88.996,0.99869
7807,14.512,2,0.1,0.00022665,2264.9,0.00022513,2222.5,-7.0668e-05,0.0056967,-8.1655e-05,-82.547,0.99902
7808,14.512,2.1818,0.1,0.00022792,2277.6,0.00022654,2238.9,-7.1442e-05,0.004389,-8.1489e-05,-75.486,0.99928
7809,14.512,2.3636,0.1,0.00022892,2287.6,0.00022768,2252.5,-7.2118e-05,-0.00098285,-8.1255e-05,-68.655,0.9995
7810,14.512,2.5455,0.1,0.00022967,2295.1,0.00022854,2263.1,-7.266e-05,-0.0093849,-8.1019e-05,-62.812,0.99966
7811,14.512,2.7273,0.1,0.00023017,2300.1,0.00022912,2270.3,-7.3039e-05,-0.018178,-8.0831e-05,-58.566,0.99976
7812,14.512,2.9091,0.1,0.00023042,2302.6,0.00022941,2273.9,-7.3234e-05,-0.023868,-8.0728e-05,-56.336,0.99982
7813,14.512,3.0909,0.1,0.00023042,2302.6,0.00022941,2273.9,-7.3234e-05,-0.023867,-8.0728e-05,-56.336,0.99982
7814,14.512,3.2727,0.1,0.00023017,2300.1,0.00022912,2270.3,-7.3039e-05,-0.018179,-8.0831e-05,-58.566,0.99976
7815,14.512,3.4545,0.1,0.00022967,2295.1,0.00022854,2263.1,-7.266e-05,-0.0093841,-8.1019e-05,-62.812,0.99966
7816,14.512,3.6364,0.1,0.00022892,2287.6,0.00022768,2252.5,-7.2118e-05,-0.00098195,-8.1255e-05,-68.655,0.9995
7817,14.512,3.8182,0.1,0.00022792,2277.6,0.00022654,2238.9,-7.1442e-05,0.0043886,-8.1489e-05,-75.486,0.99928
7818,14.512,4,0.1,0.00022665,2264.9,0.00022513,2222.5,-7.0668e-05,0.0056965,-8.1655e-05,-82.547,0.99902
7819,14.512,4.1818,0.1,0.00022512,2249.7,0.00022348,2203.9,-6.9839e-05,0.0033206,-8.1684e-05,-88.996,0.99869
7820,14.512,4.3636,0.1,0.00022334,2231.9,0.00022159,2183.4,-6.8998e-05,-0.0015557,-8.1507e-05,-93.991,0.99832
7821,14.512,4.5455,0.1,0.00022132,2211.6,0.00021951,2161.7,-6.8189e-05,-0.0074869,-8.1068e-05,-96.774,0.99789
7822,14.512,4.7273,0.1,0.00021908,2189.3,0.00021728,2139.3,-6.7454e-05,-0.013228,-8.0327e-05,-96.738,0.9974
7823,14.512,4.9091,0.1,0.00021669,2165.4,0.00021494,2117.1,-6.6828e-05,-0.017318,-7.9265e-05,-93.459,0.99687
7824,14.512,5.0909,0.1,0.00021418,2140.3,0.00021257,2095.7,-6.6344e-05,-0.019721,-7.7879e-05,-86.689,0.99628
7825,14.512,5.2727,0.1,0.00021163,2114.9,0.00021023,2075.7,-6.6025e-05,-0.013346,-7.6183e-05,-76.332,0.99564
7826,14.512,5.4545,0.1,0.00020911,2089.6,0.00020797,2057.7,-6.5892e-05,-0.014446,-7.4196e-05,-62.412,0.99495
7827,14.512,5.6364,0.1,0.00020666,2065.2,0.00020586,2042.4,-6.5949e-05,0.098795,-7.1949e-05,-44.978,0.99421
7828,14.512,5.8182,0.1,0.00020439,2042.5,0.00020396,2030.2,-6.6221e-05,0.10492,-6.95e-05,-24.534,0.99342
7829,14.696,0.18182,0.1,0.0001965,1963.7,0.00019604,1950.4,-6.3528e-05,0.11625,-6.7048e-05,-26.334,1.0154
7830,14.696,0.36364,0.1,0.0001992,1990.7,0.00019831,1965.3,-6.3241e-05,0.1064,-6.9895e-05,-49.887,1.0162
7831,14.696,0.54545,0.1,0.00020212,2019.8,0.00020084,1983.9,-6.321e-05,-0.018343,-7.2504e-05,-69.853,1.0169
7832,14.696,0.72727,0.1,0.00020517,2050.3,0.00020357,2006,-6.3408e-05,-0.013917,-7.4836e-05,-85.878,1.0176
7833,14.696,0.90909,0.1,0.00020829,2081.4,0.00020645,2030.7,-6.3829e-05,-0.01891,-7.6858e-05,-97.915,1.0182
7834,14.696,1.0909,0.1,0.00021139,2112.5,0.00020939,2057.5,-6.445e-05,-0.014595,-7.854e-05,-105.88,1.0188
7835,14.696,1.2727,0.1,0.0002144,2142.6,0.00021232,2085.5,-6.5245e-05,-0.008774,-7.9858e-05,-109.8,1.0193
7836,14.696,1.4545,0.1,0.00021724,2170.9,0.00021516,2113.8,-6.6176e-05,-0.0012774,-8.0801e-05,-109.89,1.0198
7837,14.696,1.6364,0.1,0.00021983,2196.7,0.00021782,2141.5,-6.7199e-05,0.0062998,-8.1383e-05,-106.56,1.0203
7838,14.696,1.8182,0.1,0.00022212,2219.7,0.00022024,2167.7,-6.8264e-05,0.012396,-8.1645e-05,-100.52,1.0206
7839,14.696,2,0.1,0.00022411,2239.5,0.00022239,2191.7,-6.9315e-05,0.015016,-8.1653e-05,-92.691,1.021
7840,14.696,2.1818,0.1,0.00022576,2256.1,0.00022421,2212.8,-7.0296e-05,0.012423,-8.1491e-05,-84.106,1.0212
7841,14.696,2.3636,0.1,0.00022709,2269.4,0.00022571,2230.5,-7.1153e-05,0.0039918,-8.1244e-05,-75.816,1.0214
7842,14.696,2.5455,0.1,0.00022809,2279.4,0.00022685,2244.2,-7.184e-05,-0.0088374,-8.0989e-05,-68.751,1.0216
7843,14.696,2.7273,0.1,0.00022876,2286.1,0.00022762,2253.6,-7.232e-05,-0.022178,-8.0787e-05,-63.637,1.0217
7844,14.696,2.9091,0.1,0.0002291,2289.4,0.000228,2258.3,-7.2567e-05,-0.030794,-8.0676e-05,-60.959,1.0218
7845,14.696,3.0909,0.1,0.0002291,2289.4,0.000228,2258.3,-7.2567e-05,-0.030795,-8.0676e-05,-60.959,1.0218
7846,14.696,3.2727,0.1,0.00022876,2286.1,0.00022762,2253.6,-7.232e-05,-0.022177,-8.0787e-05,-63.637,1.0217
7847,14.696,3.4545,0.1,0.00022809,2279.4,0.00022685,2244.2,-7.184e-05,-0.0088377,-8.0989e-05,-68.751,1.0216
7848,14.696,3.6364,0.1,0.00022709,2269.4,0.00022571,2230.5,-7.1153e-05,0.0039917,-8.1244e-05,-75.816,1.0214
7849,14.696,3.8182,0.1,0.00022576,2256.1,0.00022421,2212.8,-7.0296e-05,0.012423,-8.1491e-05,-84.106,1.0212
7850,14.696,4,0.1,0.00022411,2239.5,0.00022239,2191.7,-6.9315e-05,0.015016,-8.1653e-05,-92.691,1.021
7851,14.696,4.1818,0.1,0.00022212,2219.7,0.00022024,2167.7,-6.8264e-05,0.012397,-8.1645e-05,-100.52,1.0206
7852,14.696,4.3636,0.1,0.00021983,2196.7,0.00021782,2141.5,-6.7199e-05,0.0063003,-8.1383e-05,-106.56,1.0203
7853,14.696,4.5455,0.1,0.00021724,2170.9,0.00021516,2113.8,-6.6176e-05,-0.0012769,-8.0801e-05,-109.89,1.0198
7854,14.696,4.7273,0.1,0.0002144,2142.6,0.00021232,2085.5,-6.5245e-05,-0.0087727,-7.9858e-05,-109.8,1.0193
7855,14.696,4.9091,0.1,0.00021139,2112.5,0.00020939,2057.5,-6.445e-05,-0.014595,-7.854e-05,-105.88,1.0188
7856,14.696,5.0909,0.1,0.00020829,2081.4,0.00020645,2030.7,-6.3829e-05,-0.018909,-7.6858e-05,-97.914,1.0182
7857,14.696,5.2727,0.1,0.00020517,2050.3,0.00020357,2006,-6.3408e-05,-0.013917,-7.4836e-05,-85.878,1.0176
7858,14.696,5.4545,0.1,0.00020212,2019.8,0.00020084,1983.9,-6.321e-05,-0.018341,-7.2504e-05,-69.853,1.0169
7859,14.696,5.6364,0.1,0.0001992,1990.7,0.00019831,1965.3,-6.3241e-05,0.1064,-6.9895e-05,-49.887,1.0162
7860,14.696,5.8182,0.1,0.0001965,1963.7,0.00019604,1950.4,-6.3528e-05,0.11625,-6.7048e-05,-26.334,1.0154
7861,14.879,0.18182,0.1,0.00018789,1877.6,0.00018739,1863.3,-6.0584e-05,0.11964,-6.4374e-05,-28.353,1.0375
7862,14.879,0.36364,0.1,0.00019107,1909.4,0.00019007,1881.2,-6.0288e-05,0.11173,-6.7652e-05,-55.224,1.0382
7863,14.879,0.54545,0.1,0.00019452,1943.9,0.00019308,1903.7,-6.0292e-05,-0.022828,-7.0669e-05,-77.991,1.039
7864,14.879,0.72727,0.1,0.0001982,1980.6,0.00019638,1930.6,-6.057e-05,-0.013581,-7.3408e-05,-96.47,1.0397
7865,14.879,0.90909,0.1,0.00020202,2018.8,0.00019991,1961.2,-6.1115e-05,-0.016288,-7.5832e-05,-110.6,1.0403
7866,14.879,1.0909,0.1,0.00020588,2057.4,0.00020358,1994.7,-6.1903e-05,-0.0095006,-7.7896e-05,-120.18,1.0409
7867,14.879,1.2727,0.1,0.00020967,2095.3,0.00020726,2029.9,-6.2903e-05,-0.001601,-7.9552e-05,-125.09,1.0414
7868,14.879,1.4545,0.1,0.00021327,2131.3,0.00021086,2065.8,-6.4075e-05,0.0079431,-8.077e-05,-125.43,1.0419
7869,14.879,1.6364,0.1,0.00021659,2164.4,0.00021427,2101.1,-6.5366e-05,0.017497,-8.1552e-05,-121.59,1.0423
7870,14.879,1.8182,0.1,0.00021956,2194,0.00021739,2134.6,-6.6712e-05,0.0251,-8.1937e-05,-114.37,1.0427
7871,14.879,2,0.1,0.00022213,2219.7,0.00022016,2165.5,-6.8043e-05,0.027972,-8.2006e-05,-104.88,1.043
7872,14.879,2.1818,0.1,0.00022429,2241.4,0.00022254,2192.7,-6.9286e-05,0.023459,-8.1861e-05,-94.46,1.0433
7873,14.879,2.3636,0.1,0.00022604,2258.9,0.00022449,2215.5,-7.0373e-05,0.010548,-8.1611e-05,-84.424,1.0435
7874,14.879,2.5455,0.1,0.00022738,2272.2,0.00022599,2233.3,-7.1243e-05,-0.0086074,-8.1347e-05,-75.923,1.0437
7875,14.879,2.7273,0.1,0.00022828,2281.2,0.00022701,2245.5,-7.185e-05,-0.028322,-8.1138e-05,-69.81,1.0438
7876,14.879,2.9091,0.1,0.00022874,2285.8,0.00022753,2251.7,-7.2162e-05,-0.040999,-8.1024e-05,-66.627,1.0439
7877,14.879,3.0909,0.1,0.00022874,2285.8,0.00022753,2251.7,-7.2162e-05,-0.041,-8.1024e-05,-66.627,1.0439
7878,14.879,3.2727,0.1,0.00022828,2281.2,0.00022701,2245.5,-7.185e-05,-0.028322,-8.1138e-05,-69.81,1.0438
7879,14.879,3.4545,0.1,0.00022738,2272.2,0.00022599,2233.3,-7.1243e-05,-0.0086066,-8.1347e-05,-75.923,1.0437
7880,14.879,3.6364,0.1,0.00022604,2258.9,0.00022449,2215.5,-7.0373e-05,0.010549,-8.161e-05,-84.424,1.0435
7881,14.879,3.8182,0.1,0.00022429,2241.4,0.00022254,2192.7,-6.9286e-05,0.023459,-8.1861e-05,-94.459,1.0433
7882,14.879,4,0.1,0.00022213,2219.7,0.00022016,2165.5,-6.8043e-05,0.027972,-8.2006e-05,-104.88,1.043
7883,14.879,4.1818,0.1,0.00021956,2194,0.00021739,2134.6,-6.6712e-05,0.0251,-8.1937e-05,-114.37,1.0427
7884,14.879,4.3636,0.1,0.00021659,2164.4,0.00021427,2101.1,-6.5366e-05,0.017497,-8.1552e-05,-121.59,1.0423
7885,14.879,4.5455,0.1,0.00021327,2131.3,0.00021086,2065.8,-6.4075e-05,0.0079434,-8.077e-05,-125.43,1.0419
7886,14.879,4.7273,0.1,0.00020967,2095.3,0.00020726,2029.9,-6.2903e-05,-0.0016015,-7.9552e-05,-125.09,1.0414
7887,14.879,4.9091,0.1,0.00020588,2057.4,0.00020358,1994.7,-6.1903e-05,-0.0094991,-7.7896e-05,-120.18,1.0409
7888,14.879,5.0909,0.1,0.00020202,2018.8,0.00019991,1961.2,-6.1115e-05,-0.016287,-7.5832e-05,-110.6,1.0403
7889,14.879,5.2727,0.1,0.0001982,1980.6,0.00019638,1930.6,-6.057e-05,-0.013578,-7.3408e-05,-96.47,1.0397
7890,14.879,5.4545,0.1,0.00019452,1943.9,0.00019308,1903.7,-6.0292e-05,-0.022827,-7.0669e-05,-77.991,1.039
7891,14.879,5.6364,0.1,0.00019107,1909.4,0.00019007,1881.2,-6.0288e-05,0.11173,-6.7652e-05,-55.224,1.0382
7892,14.879,5.8182,0.1,0.00018789,1877.6,0.00018739,1863.3,-6.0584e-05,0.11964,-6.4374e-05,-28.353,1.0375
7893,15.063,0.18182,0.1,0.0001784,1782.8,0.00017786,1767.3,-5.7342e-05,0.10871,-6.1426e-05,-30.579,1.0597
7894,15.063,0.36364,0.1,0.0001821,1819.7,0.00018099,1788.6,-5.7041e-05,0.11289,-6.5159e-05,-60.881,1.0605
7895,15.063,0.54545,0.1,0.00018617,1860.4,0.00018455,1815.6,-5.7094e-05,-0.027986,-6.8632e-05,-86.722,1.0612
7896,15.063,0.72727,0.1,0.0001906,1904.7,0.00018853,1848.3,-5.7467e-05,-0.011868,-7.1853e-05,-108.1,1.0619
7897,15.063,0.90909,0.1,0.00019528,1951.5,0.00019286,1886,-5.8158e-05,-0.010978,-7.4781e-05,-124.91,1.0625
7898,15.063,1.0909,0.1,0.0002001,1999.6,0.00019742,1927.7,-5.9143e-05,-0.001002,-7.7342e-05,-136.74,1.0631
7899,15.063,1.2727,0.1,0.00020488,2047.4,0.00020207,1972,-6.0392e-05,0.009293,-7.9454e-05,-143.21,1.0637
7900,15.063,1.4545,0.1,0.00020947,2093.3,0.00020665,2017.5,-6.186e-05,0.021046,-8.1051e-05,-144.18,1.0641
7901,15.063,1.6364,0.1,0.00021373,2135.8,0.00021101,2062.4,-6.3483e-05,0.032742,-8.2111e-05,-139.93,1.0646
7902,15.063,1.8182,0.1,0.00021755,2174,0.00021502,2105.4,-6.5184e-05,0.042019,-8.267e-05,-131.34,1.065
7903,15.063,2,0.1,0.00022088,2207.3,0.0002186,2145,-6.6871e-05,0.044842,-8.2826e-05,-119.84,1.0653
7904,15.063,2.1818,0.1,0.0002237,2235.5,0.00022169,2180,-6.8448e-05,0.037424,-8.2714e-05,-107.15,1.0656
7905,15.063,2.3636,0.1,0.00022601,2258.5,0.00022424,2209.5,-6.9826e-05,0.018264,-8.2472e-05,-95.002,1.0658
7906,15.063,2.5455,0.1,0.00022778,2276.2,0.00022622,2232.6,-7.0927e-05,-0.0096819,-8.2215e-05,-84.823,1.0659
7907,15.063,2.7273,0.1,0.00022899,2288.3,0.00022757,2248.5,-7.1693e-05,-0.038046,-8.2015e-05,-77.591,1.066
7908,15.063,2.9091,0.1,0.0002296,2294.4,0.00022826,2256.6,-7.2085e-05,-0.056064,-8.1908e-05,-73.86,1.0661
7909,15.063,3.0909,0.1,0.0002296,2294.4,0.00022826,2256.6,-7.2085e-05,-0.056064,-8.1908e-05,-73.86,1.0661
7910,15.063,3.2727,0.1,0.00022899,2288.3,0.00022757,2248.5,-7.1693e-05,-0.038046,-8.2015e-05,-77.591,1.066
7911,15.063,3.4545,0.1,0.00022778,2276.2,0.00022622,2232.6,-7.0927e-05,-0.0096826,-8.2215e-05,-84.823,1.0659
7912,15.063,3.6364,0.1,0.00022601,2258.5,0.00022424,2209.5,-6.9826e-05,0.018264,-8.2472e-05,-95.002,1.0658
7913,15.063,3.8182,0.1,0.0002237,2235.5,0.00022169,2180,-6.8448e-05,0.037424,-8.2714e-05,-107.15,1.0656
7914,15.063,4,0.1,0.00022088,2207.3,0.0002186,2145,-6.6871e-05,0.044843,-8.2826e-05,-119.84,1.0653
7915,15.063,4.1818,0.1,0.00021755,2174,0.00021502,2105.4,-6.5184e-05,0.04202,-8.267e-05,-131.34,1.065
7916,15.063,4.3636,0.1,0.00021373,2135.8,0.00021101,2062.4,-6.3483e-05,0.032743,-8.2111e-05,-139.93,1.0646
7917,15.063,4.5455,0.1,0.00020947,2093.3,0.00020665,2017.5,-6.186e-05,0.021047,-8.1051e-05,-144.18,1.0641
7918,15.063,4.7273,0.1,0.00020488,2047.4,0.00020207,1972,-6.0392e-05,0.0092933,-7.9454e-05,-143.21,1.0637
7919,15.063,4.9091,0.1,0.0002001,1999.6,0.00019742,1927.7,-5.9143e-05,-0.0010014,-7.7342e-05,-136.74,1.0631
7920,15.063,5.0909,0.1,0.00019528,1951.5,0.00019286,1886,-5.8158e-05,-0.010976,-7.4781e-05,-124.91,1.0625
7921,15.063,5.2727,0.1,0.0001906,1904.7,0.00018853,1848.3,-5.7467e-05,-0.011867,-7.1853e-05,-108.1,1.0619
7922,15.063,5.4545,0.1,0.00018617,1860.4,0.00018455,1815.6,-5.7094e-05,-0.027986,-6.8632e-05,-86.722,1.0612
7923,15.063,5.6364,0.1,0.0001821,1819.7,0.00018099,1788.6,-5.7041e-05,0.11289,-6.5159e-05,-60.881,1.0605
7924,15.063,5.8182,0.1,0.0001784,1782.8,0.00017786,1767.3,-5.7342e-05,0.10871,-6.1426e-05,-30.579,1.0597
7925,15.247,0.18182,0.1,0.00016786,1677.4,0.00016728,1660.8,-5.3746e-05,0.075372,-5.8145e-05,-32.974,1.082
7926,15.247,0.36364,0.1,0.00017211,1719.9,0.00017088,1685.6,-5.3452e-05,0.10728,-6.2339e-05,-66.666,1.0828
7927,15.247,0.54545,0.1,0.00017689,1767.7,0.00017506,1717.8,-5.3564e-05,-0.033884,-6.6317e-05,-95.851,1.0835
7928,15.247,0.72727,0.1,0.00018221,1820.8,0.00017985,1757.4,-5.4049e-05,-0.0081374,-7.0116e-05,-120.73,1.0842
7929,15.247,0.90909,0.1,0.00018796,1878.3,0.00018516,1803.8,-5.4907e-05,-0.0017227,-7.3681e-05,-141.06,1.0849
7930,15.247,1.0909,0.1,0.00019397,1938.4,0.00019084,1855.6,-5.612e-05,0.012451,-7.6901e-05,-156.13,1.0855
7931,15.247,1.2727,0.1,0.00020003,1998.9,0.00019671,1911.3,-5.7663e-05,0.025583,-7.9636e-05,-165.07,1.086
7932,15.247,1.4545,0.1,0.0002059,2057.6,0.00020255,1968.9,-5.9489e-05,0.039688,-8.176e-05,-167.29,1.0865
7933,15.247,1.6364,0.1,0.00021137,2112.3,0.00020813,2026.2,-6.1527e-05,0.053867,-8.3206e-05,-162.83,1.087
7934,15.247,1.8182,0.1,0.0002163,2161.5,0.0002133,2081.1,-6.3678e-05,0.065062,-8.4003e-05,-152.65,1.0873
7935,15.247,2,0.1,0.0002206,2204.5,0.00021792,2132,-6.5821e-05,0.068023,-8.4274e-05,-138.58,1.0877
7936,15.247,2.1818,0.1,0.00022427,2241.1,0.00022192,2177.1,-6.7826e-05,0.055902,-8.4206e-05,-123.01,1.088
7937,15.247,2.3636,0.1,0.00022728,2271.3,0.00022525,2215.2,-6.9575e-05,0.026349,-8.3988e-05,-108.27,1.0882
7938,15.247,2.5455,0.1,0.00022963,2294.7,0.00022784,2245.1,-7.0966e-05,-0.014221,-8.376e-05,-96.146,1.0883
7939,15.247,2.7273,0.1,0.00023124,2310.8,0.00022963,2265.7,-7.1929e-05,-0.053704,-8.3595e-05,-87.709,1.0885
7940,15.247,2.9091,0.1,0.00023207,2319.1,0.00023054,2276.2,-7.242e-05,-0.078151,-8.3513e-05,-83.425,1.0885
7941,15.247,3.0909,0.1,0.00023207,2319.1,0.00023054,2276.2,-7.242e-05,-0.078151,-8.3513e-05,-83.425,1.0885
7942,15.247,3.2727,0.1,0.00023124,2310.8,0.00022963,2265.7,-7.1929e-05,-0.053704,-8.3595e-05,-87.709,1.0885
7943,15.247,3.4545,0.1,0.00022963,2294.7,0.00022784,2245.1,-7.0966e-05,-0.014221,-8.376e-05,-96.146,1.0883
7944,15.247,3.6364,0.1,0.00022728,2271.3,0.00022525,2215.2,-6.9575e-05,0.026349,-8.3988e-05,-108.27,1.0882
7945,15.247,3.8182,0.1,0.00022427,2241.1,0.00022192,2177.1,-6.7826e-05,0.055903,-8.4206e-05,-123.01,1.088
7946,15.247,4,0.1,0.0002206,2204.5,0.00021792,2132,-6.5821e-05,0.068022,-8.4274e-05,-138.58,1.0877
7947,15.247,4.1818,0.1,0.0002163,2161.5,0.0002133,2081.1,-6.3678e-05,0.065063,-8.4003e-05,-152.65,1.0873
7948,15.247,4.3636,0.1,0.00021137,2112.3,0.00020813,2026.2,-6.1527e-05,0.053867,-8.3206e-05,-162.83,1.087
7949,15.247,4.5455,0.1,0.0002059,2057.6,0.00020255,1968.9,-5.9489e-05,0.039687,-8.176e-05,-167.29,1.0865
7950,15.247,4.7273,0.1,0.00020003,1998.9,0.00019671,1911.3,-5.7663e-05,0.025584,-7.9636e-05,-165.07,1.086
7951,15.247,4.9091,0.1,0.00019397,1938.4,0.00019084,1855.6,-5.612e-05,0.012451,-7.6901e-05,-156.13,1.0855
7952,15.247,5.0909,0.1,0.00018796,1878.3,0.00018516,1803.7,-5.4907e-05,-0.0017214,-7.3681e-05,-141.06,1.0849
7953,15.247,5.2727,0.1,0.00018221,1820.8,0.00017985,1757.4,-5.4049e-05,-0.0081356,-7.0116e-05,-120.73,1.0842
7954,15.247,5.4545,0.1,0.00017689,1767.7,0.00017506,1717.8,-5.3564e-05,-0.033882,-6.6317e-05,-95.851,1.0835
7955,15.247,5.6364,0.1,0.00017211,1719.9,0.00017088,1685.6,-5.3452e-05,0.10728,-6.2339e-05,-66.666,1.0828
7956,15.247,5.8182,0.1,0.00016786,1677.4,0.00016728,1660.8,-5.3746e-05,0.075371,-5.8145e-05,-32.974,1.082
7957,15.43,0.18182,0.1,0.00015609,1559.9,0.00015546,1541.8,-4.9744e-05,0.01065,-5.4464e-05,-35.455,1.1045
7958,15.43,0.36364,0.1,0.0001609,1607.9,0.00015955,1570.6,-4.9469e-05,0.091252,-5.9099e-05,-72.267,1.1052
7959,15.43,0.54545,0.1,0.00016647,1663.6,0.00016444,1608.5,-4.9653e-05,-0.040937,-6.3632e-05,-105.07,1.106
7960,15.43,0.72727,0.1,0.00017284,1727.2,0.00017017,1656.2,-5.0259e-05,-0.0020807,-6.8127e-05,-134.26,1.1067
7961,15.43,0.90909,0.1,0.00017991,1797.8,0.00017666,1712.8,-5.1297e-05,0.012677,-7.2512e-05,-159.39,1.1073
7962,15.43,1.0909,0.1,0.00018744,1873.1,0.00018375,1777.1,-5.2764e-05,0.032729,-7.6617e-05,-179.19,1.108
7963,15.43,1.2727,0.1,0.00019515,1950.1,0.00019117,1847,-5.4646e-05,0.049055,-8.0214e-05,-192.06,1.1085
7964,15.43,1.4545,0.1,0.00020268,2025.4,0.00019862,1920,-5.6904e-05,0.064641,-8.3078e-05,-196.6,1.109
7965,15.43,1.6364,0.1,0.00020973,2095.9,0.0002058,1993.1,-5.946e-05,0.079277,-8.5065e-05,-192.3,1.1095
7966,15.43,1.8182,0.1,0.00021608,2159.3,0.00021245,2063.6,-6.2188e-05,0.091401,-8.6177e-05,-180.16,1.1099
7967,15.43,2,0.1,0.00022162,2214.7,0.00021841,2128.9,-6.4922e-05,0.090284,-8.6584e-05,-162.66,1.1102
7968,15.43,2.1818,0.1,0.00022636,2262,0.00022358,2187,-6.7484e-05,0.070119,-8.6559e-05,-143.25,1.1105
7969,15.43,2.3636,0.1,0.00023029,2301.3,0.0002279,2236.1,-6.9705e-05,0.029791,-8.6374e-05,-125.22,1.1107
7970,15.43,2.5455,0.1,0.00023337,2332.1,0.00023128,2274.7,-7.1457e-05,-0.026213,-8.6208e-05,-110.86,1.1109
7971,15.43,2.7273,0.1,0.00023551,2353.5,0.00023363,2301.2,-7.2659e-05,-0.078945,-8.6119e-05,-101.22,1.111
7972,15.43,2.9091,0.1,0.00023662,2364.6,0.00023483,2314.8,-7.3267e-05,-0.10992,-8.609e-05,-96.455,1.1111
7973,15.43,3.0909,0.1,0.00023662,2364.6,0.00023483,2314.8,-7.3267e-05,-0.10992,-8.609e-05,-96.455,1.1111
7974,15.43,3.2727,0.1,0.00023551,2353.5,0.00023363,2301.2,-7.2659e-05,-0.078946,-8.6119e-05,-101.22,1.111
7975,15.43,3.4545,0.1,0.00023337,2332.1,0.00023128,2274.7,-7.1457e-05,-0.026212,-8.6208e-05,-110.86,1.1109
7976,15.43,3.6364,0.1,0.00023029,2301.3,0.0002279,2236.1,-6.9705e-05,0.029791,-8.6374e-05,-125.22,1.1107
7977,15.43,3.8182,0.1,0.00022636,2262,0.00022358,2187,-6.7484e-05,0.07012,-8.6559e-05,-143.25,1.1105
7978,15.43,4,0.1,0.00022162,2214.7,0.00021841,2128.9,-6.4922e-05,0.090285,-8.6584e-05,-162.66,1.1102
7979,15.43,4.1818,0.1,0.00021608,2159.3,0.00021245,2063.6,-6.2188e-05,0.091401,-8.6177e-05,-180.16,1.1099
7980,15.43,4.3636,0.1,0.00020973,2095.9,0.0002058,1993.1,-5.946e-05,0.079277,-8.5065e-05,-192.3,1.1095
7981,15.43,4.5455,0.1,0.00020268,2025.4,0.00019862,1920,-5.6904e-05,0.064642,-8.3078e-05,-196.6,1.109
7982,15.43,4.7273,0.1,0.00019515,1950.1,0.00019117,1847,-5.4646e-05,0.049055,-8.0214e-05,-192.06,1.1085
7983,15.43,4.9091,0.1,0.00018744,1873.1,0.00018375,1777.1,-5.2764e-05,0.03273,-7.6617e-05,-179.19,1.108
7984,15.43,5.0909,0.1,0.00017991,1797.8,0.00017666,1712.8,-5.1297e-05,0.012678,-7.2512e-05,-159.39,1.1073
7985,15.43,5.2727,0.1,0.00017284,1727.2,0.00017017,1656.2,-5.0259e-05,-0.0020786,-6.8127e-05,-134.26,1.1067
7986,15.43,5.4545,0.1,0.00016647,1663.6,0.00016444,1608.5,-4.9653e-05,-0.040937,-6.3632e-05,-105.07,1.106
7987,15.43,5.6364,0.1,0.0001609,1607.9,0.00015955,1570.6,-4.9469e-05,0.091252,-5.9099e-05,-72.266,1.1052
7988,15.43,5.8182,0.1,0.00015609,1559.9,0.00015546,1541.8,-4.9744e-05,0.010649,-5.4464e-05,-35.455,1.1045
7989,15.614,0.18182,0.1,0.00014292,1428.2,0.00014224,1408.9,-4.5283e-05,-0.091018,-5.0312e-05,-37.877,1.127
7990,15.614,0.36364,0.1,0.00014826,1481.6,0.0001468,1441.5,-4.5045e-05,0.061792,-5.5334e-05,-77.242,1.1278
7991,15.614,0.54545,0.1,0.00015471,1546,0.00015246,1485.9,-4.5309e-05,-0.04862,-6.0472e-05,-113.98,1.1286
7992,15.614,0.72727,0.1,0.00016233,1622.1,0.00015929,1542.7,-4.6037e-05,0.0073591,-6.5816e-05,-148.6,1.1293
7993,15.614,0.90909,0.1,0.000171,1708.8,0.00016722,1611.5,-4.7257e-05,0.03453,-7.1268e-05,-180.38,1.1299
7994,15.614,1.0909,0.1,0.00018046,1803.4,0.00017604,1690.8,-4.8987e-05,0.063227,-7.6576e-05,-207.23,1.1306
7995,15.614,1.2727,0.1,0.0001903,1901.7,0.00018544,1778.4,-5.1245e-05,0.084867,-8.1382e-05,-226.36,1.1311
7996,15.614,1.4545,0.1,0.00020002,1998.8,0.00019498,1870.9,-5.4013e-05,0.10471,-8.5302e-05,-234.99,1.1317
7997,15.614,1.6364,0.1,0.00020913,2089.9,0.00020423,1964.5,-5.7216e-05,0.12505,-8.8049e-05,-231.54,1.1321
7998,15.614,1.8182,0.1,0.00021732,2171.7,0.00021282,2055.2,-6.0694e-05,0.13492,-8.9571e-05,-216.84,1.1325
7999,15.614,2,0.1,0.00022444,2242.8,0.0002205,2139.3,-6.4213e-05,0.13832,-9.0106e-05,-194.41,1.1329
8000,15.614,2.1818,0.1,0.00023051,2303.5,0.00022716,2214.1,-6.7507e-05,0.10558,-9.0086e-05,-169.54,1.1332
8001,15.614,2.3636,0.1,0.00023558,2354.2,0.00023273,2277.2,-7.0335e-05,0.026646,-8.9928e-05,-147.19,1.1334
8002,15.614,2.5455,0.1,0.0002396,2394.3,0.00023711,2326.5,-7.2529e-05,-0.055544,-8.9863e-05,-130.3,1.1336
8003,15.614,2.7273,0.1,0.00024241,2422.4,0.00024015,2360.3,-7.4006e-05,-0.11879,-8.991e-05,-119.61,1.1337
8004,15.614,2.9091,0.1,0.00024386,2436.9,0.0002417,2377.5,-7.4743e-05,-0.15355,-8.9974e-05,-114.59,1.1338
8005,15.614,3.0909,0.1,0.00024386,2436.9,0.0002417,2377.5,-7.4743e-05,-0.15356,-8.9974e-05,-114.59,1.1338
8006,15.614,3.2727,0.1,0.00024241,2422.4,0.00024015,2360.3,-7.4006e-05,-0.11879,-8.991e-05,-119.61,1.1337
8007,15.614,3.4545,0.1,0.0002396,2394.3,0.00023711,2326.5,-7.2529e-05,-0.055544,-8.9863e-05,-130.3,1.1336
8008,15.614,3.6364,0.1,0.00023558,2354.2,0.00023273,2277.2,-7.0335e-05,0.026647,-8.9928e-05,-147.19,1.1334
8009,15.614,3.8182,0.1,0.00023051,2303.5,0.00022716,2214.1,-6.7507e-05,0.10558,-9.0086e-05,-169.54,1.1332
8010,15.614,4,0.1,0.00022444,2242.8,0.0002205,2139.3,-6.4213e-05,0.13832,-9.0106e-05,-194.41,1.1329
8011,15.614,4.1818,0.1,0.00021732,2171.7,0.00021282,2055.2,-6.0694e-05,0.13492,-8.9571e-05,-216.84,1.1325
8012,15.614,4.3636,0.1,0.00020913,2089.9,0.00020423,1964.5,-5.7216e-05,0.12505,-8.8049e-05,-231.54,1.1321
8013,15.614,4.5455,0.1,0.00020002,1998.8,0.00019498,1870.9,-5.4013e-05,0.10471,-8.5302e-05,-234.99,1.1317
8014,15.614,4.7273,0.1,0.0001903,1901.7,0.00018544,1778.4,-5.1245e-05,0.084868,-8.1382e-05,-226.36,1.1311
8015,15.614,4.9091,0.1,0.00018046,1803.4,0.00017604,1690.8,-4.8987e-05,0.063227,-7.6576e-05,-207.23,1.1306
8016,15.614,5.0909,0.1,0.000171,1708.8,0.00016722,1611.5,-4.7257e-05,0.034532,-7.1268e-05,-180.38,1.1299
8017,15.614,5.2727,0.1,0.00016233,1622.1,0.00015929,1542.7,-4.6037e-05,0.0073604,-6.5816e-05,-148.6,1.1293
8018,15.614,5.4545,0.1,0.00015471,1546,0.00015246,1485.9,-4.5309e-05,-0.048619,-6.0471e-05,-113.98,1.1286
8019,15.614,5.6364,0.1,0.00014826,1481.6,0.0001468,1441.5,-4.5045e-05,0.061792,-5.5334e-05,-77.242,1.1278
8020,15.614,5.8182,0.1,0.00014292,1428.2,0.00014224,1408.9,-4.5283e-05,-0.091018,-5.0312e-05,-37.877,1.127
8021,15.798,0.18182,0.1,0.00012818,1281,0.00012745,1260.4,-4.0322e-05,-0.2284,-4.5618e-05,-40.019,1.1497
8022,15.798,0.36364,0.1,0.000134,1339.1,0.00013244,1296.8,-4.0145e-05,0.01461,-5.0933e-05,-81.036,1.1505
8023,15.798,0.54545,0.1,0.00014141,1413.2,0.00013894,1348.1,-4.0492e-05,-0.059385,-5.6737e-05,-122.12,1.1512
8024,15.798,0.72727,0.1,0.0001505,1504,0.00014704,1415.4,-4.1328e-05,0.016397,-6.3133e-05,-163.82,1.152
8025,15.798,0.90909,0.1,0.00016115,1610.4,0.00015669,1498.2,-4.2702e-05,0.059656,-6.9982e-05,-204.92,1.1526
8026,15.798,1.0909,0.1,0.00017305,1729.3,0.00016765,1595.4,-4.4674e-05,0.10258,-7.6931e-05,-242.27,1.1533
8027,15.798,1.2727,0.1,0.00018565,1855.2,0.00017953,1704.6,-4.7316e-05,0.13675,-8.345e-05,-271.36,1.1539
8028,15.798,1.4545,0.1,0.00019825,1981.2,0.0001918,1822,-5.0669e-05,0.1501,-8.8906e-05,-287.15,1.1544
8029,15.798,1.6364,0.1,0.00021013,2099.9,0.0002038,1942.3,-5.4686e-05,0.1376,-9.2755e-05,-285.9,1.1549
8030,15.798,1.8182,0.1,0.00022072,2205.7,0.00021494,2059.7,-5.9164e-05,0.15385,-9.4803e-05,-267.62,1.1553
8031,15.798,2,0.1,0.00022983,2296.7,0.00022486,2168.7,-6.3762e-05,0.096564,-9.5393e-05,-237.56,1.1557
8032,15.798,2.1818,0.1,0.00023755,2373.9,0.00023341,2265.1,-6.8047e-05,0.019237,-9.5253e-05,-204.39,1.156
8033,15.798,2.3636,0.1,0.000244,2438.3,0.00024053,2345.6,-7.1646e-05,-0.019505,-9.507e-05,-176.01,1.1563
8034,15.798,2.5455,0.1,0.00024912,2489.5,0.00024609,2407.6,-7.4355e-05,-0.10539,-9.5144e-05,-156.31,1.1565
8035,15.798,2.7273,0.1,0.0002527,2525.2,0.00024991,2449.5,-7.6119e-05,-0.17995,-9.5395e-05,-145.02,1.1566
8036,15.798,2.9091,0.1,0.00025453,2543.6,0.00025186,2470.5,-7.6977e-05,-0.2076,-9.5599e-05,-140.13,1.1567
8037,15.798,3.0909,0.1,0.00025453,2543.6,0.00025186,2470.5,-7.6977e-05,-0.2076,-9.5599e-05,-140.13,1.1567
8038,15.798,3.2727,0.1,0.0002527,2525.2,0.00024991,2449.5,-7.6119e-05,-0.17995,-9.5395e-05,-145.02,1.1566
8039,15.798,3.4545,0.1,0.00024912,2489.5,0.00024609,2407.6,-7.4355e-05,-0.10539,-9.5144e-05,-156.31,1.1565
8040,15.798,3.6364,0.1,0.000244,2438.3,0.00024053,2345.6,-7.1646e-05,-0.019505,-9.507e-05,-176.01,1.1563
8041,15.798,3.8182,0.1,0.00023755,2373.9,0.00023341,2265.1,-6.8047e-05,0.019238,-9.5253e-05,-204.39,1.156
8042,15.798,4,0.1,0.00022983,2296.7,0.00022486,2168.7,-6.3762e-05,0.096565,-9.5393e-05,-237.56,1.1557
8043,15.798,4.1818,0.1,0.00022072,2205.7,0.00021494,2059.7,-5.9164e-05,0.15385,-9.4803e-05,-267.62,1.1553
8044,15.798,4.3636,0.1,0.00021013,2099.9,0.0002038,1942.3,-5.4686e-05,0.1376,-9.2755e-05,-285.9,1.1549
8045,15.798,4.5455,0.1,0.00019825,1981.2,0.0001918,1822,-5.0669e-05,0.1501,-8.8906e-05,-287.15,1.1544
8046,15.798,4.7273,0.1,0.00018565,1855.2,0.00017953,1704.6,-4.7316e-05,0.13675,-8.345e-05,-271.36,1.1539
8047,15.798,4.9091,0.1,0.00017305,1729.3,0.00016765,1595.4,-4.4674e-05,0.10258,-7.6931e-05,-242.27,1.1533
8048,15.798,5.0909,0.1,0.00016115,1610.4,0.00015669,1498.2,-4.2702e-05,0.059658,-6.9982e-05,-204.92,1.1526
8049,15.798,5.2727,0.1,0.0001505,1504,0.00014704,1415.4,-4.1328e-05,0.016399,-6.3133e-05,-163.82,1.152
8050,15.798,5.4545,0.1,0.00014141,1413.2,0.00013894,1348.1,-4.0492e-05,-0.059386,-5.6737e-05,-122.12,1.1512
8051,15.798,5.6364,0.1,0.000134,1339.1,0.00013244,1296.8,-4.0145e-05,0.01461,-5.0933e-05,-81.036,1.1505
8052,15.798,5.8182,0.1,0.00012818,1281,0.00012745,1260.4,-4.0322e-05,-0.2284,-4.5618e-05,-40.019,1.1497
8053,15.982,0.18182,0.1,0.00011177,1117,0.000111,1095.4,-3.4837e-05,-0.35872,-4.0323e-05,-41.575,1.1724
8054,15.982,0.36364,0.1,0.000118,1179.2,0.00011637,1135.5,-3.4756e-05,-0.030559,-4.5808e-05,-83.075,1.1732
8055,15.982,0.54545,0.1,0.0001265,1264.1,0.0001238,1194.5,-3.5181e-05,-0.054953,-5.2379e-05,-129.27,1.174
8056,15.982,0.72727,0.1,0.00013733,1372.4,0.00013337,1273.3,-3.6085e-05,0.03723,-6.0102e-05,-180.42,1.1747
8057,15.982,0.90909,0.1,0.00015039,1502.9,0.00014502,1371.8,-3.7544e-05,0.10284,-6.878e-05,-234.59,1.1754
8058,15.982,1.0909,0.1,0.00016531,1652,0.00015853,1489.5,-3.9679e-05,0.1709,-7.7951e-05,-287.39,1.1761
8059,15.982,1.2727,0.1,0.00018148,1813.5,0.00017353,1624.5,-4.2653e-05,0.21549,-8.6899e-05,-332.23,1.1767
8060,15.982,1.4545,0.1,0.00019797,1978.3,0.00018935,1773.3,-4.6623e-05,0.27387,-9.4656e-05,-360.63,1.1773
8061,15.982,1.6364,0.1,0.00021361,2134.6,0.00020506,1929.1,-5.163e-05,0.42311,-0.00010018,-364.35,1.1778
8062,15.982,1.8182,0.1,0.00022743,2272.7,0.0002197,2083,-5.7496e-05,0.29682,-0.00010293,-341.04,1.1783
8063,15.982,2,0.1,0.00023905,2388.8,0.00023258,2226,-6.3624e-05,0.38729,-0.00010335,-298.12,1.1787
8064,15.982,2.1818,0.1,0.00024875,2485.8,0.00024352,2350.7,-6.9299e-05,0.33287,-0.00010278,-251.22,1.179
8065,15.982,2.3636,0.1,0.0002568,2566.2,0.00025248,2452.4,-7.3923e-05,-0.11489,-0.00010241,-214.16,1.1793
8066,15.982,2.5455,0.1,0.00026307,2628.9,0.00025928,2527.8,-7.7178e-05,-0.23979,-0.00010262,-191.43,1.1795
8067,15.982,2.7273,0.1,0.00026732,2671.4,0.0002638,2576.6,-7.9159e-05,-0.24764,-0.00010311,-180.24,1.1796
8068,15.982,2.9091,0.1,0.00026945,2692.7,0.00026602,2600.2,-8.008e-05,-0.25994,-0.00010347,-176.01,1.1797
8069,15.982,3.0909,0.1,0.00026945,2692.7,0.00026602,2600.2,-8.008e-05,-0.25994,-0.00010347,-176.01,1.1797
8070,15.982,3.2727,0.1,0.00026732,2671.4,0.0002638,2576.6,-7.9159e-05,-0.24764,-0.00010311,-180.24,1.1796
8071,15.982,3.4545,0.1,0.00026307,2628.9,0.00025928,2527.8,-7.7178e-05,-0.23979,-0.00010262,-191.43,1.1795
8072,15.982,3.6364,0.1,0.0002568,2566.2,0.00025248,2452.4,-7.3923e-05,-0.11489,-0.00010241,-214.16,1.1793
8073,15.982,3.8182,0.1,0.00024875,2485.8,0.00024352,2350.7,-6.9299e-05,0.33287,-0.00010278,-251.22,1.179
8074,15.982,4,0.1,0.00023905,2388.8,0.00023258,2226,-6.3624e-05,0.38729,-0.00010335,-298.12,1.1787
8075,15.982,4.1818,0.1,0.00022743,2272.7,0.0002197,2083,-5.7496e-05,0.29682,-0.00010293,-341.04,1.1783
8076,15.982,4.3636,0.1,0.00021361,2134.6,0.00020506,1929.1,-5.163e-05,0.42311,-0.00010018,-364.35,1.1778
8077,15.982,4.5455,0.1,0.00019797,1978.3,0.00018935,1773.3,-4.6623e-05,0.27387,-9.4656e-05,-360.63,1.1773
8078,15.982,4.7273,0.1,0.00018148,1813.5,0.00017353,1624.5,-4.2653e-05,0.21549,-8.6899e-05,-332.23,1.1767
8079,15.982,4.9091,0.1,0.00016531,1652,0.00015853,1489.5,-3.9679e-05,0.1709,-7.7951e-05,-287.39,1.1761
8080,15.982,5.0909,0.1,0.00015039,1502.9,0.00014502,1371.8,-3.7544e-05,0.10284,-6.878e-05,-234.59,1.1754
8081,15.982,5.2727,0.1,0.00013733,1372.4,0.00013337,1273.3,-3.6085e-05,0.037231,-6.0102e-05,-180.42,1.1747
8082,15.982,5.4545,0.1,0.0001265,1264.1,0.0001238,1194.5,-3.5181e-05,-0.054952,-5.2379e-05,-129.27,1.174
8083,15.982,5.6364,0.1,0.000118,1179.2,0.00011637,1135.5,-3.4756e-05,-0.030558,-4.5808e-05,-83.075,1.1732
8084,15.982,5.8182,0.1,0.00011177,1117,0.000111,1095.4,-3.4837e-05,-0.35872,-4.0323e-05,-41.575,1.1724
8085,16.165,0.18182,0.1,9.3677e-05,936.13,9.2882e-05,914.1,-2.8835e-05,-0.43374,-3.4397e-05,-42.226,1.1952
8086,16.165,0.36364,0.1,0.0001003,1002.3,9.8623e-05,958.09,-2.8902e-05,-0.083463,-3.9956e-05,-83.138,1.196
8087,16.165,0.54545,0.1,0.00011012,1100.5,0.00010718,1026.1,-2.9397e-05,-0.06787,-4.75e-05,-136.09,1.1968
8088,16.165,0.72727,0.1,0.0001231,1230.1,0.00011846,1117.8,-3.03e-05,0.017844,-5.6943e-05,-200.17,1.1976
8089,16.165,0.90909,0.1,0.00013903,1389.4,0.00013238,1233.1,-3.1719e-05,0.089176,-6.7973e-05,-272.31,1.1983
8090,16.165,1.0909,0.1,0.00015761,1575,0.0001488,1372.5,-3.3845e-05,0.15931,-8.0067e-05,-347.13,1.199
8091,16.165,1.2727,0.1,0.00017827,1781.5,0.0001675,1536.6,-3.6965e-05,0.30217,-9.2412e-05,-416.3,1.1997
8092,16.165,1.4545,0.1,0.00020003,1998.9,0.00018793,1724,-4.1454e-05,0.44886,-0.00010371,-467.32,1.2003
8093,16.165,1.6364,0.1,0.0002212,2210.5,0.00020896,1928.4,-4.7732e-05,-0.26013,-0.00011208,-483.77,1.2009
8094,16.165,1.8182,0.1,0.00023958,2394.1,0.00022863,2135.2,-5.5527e-05,0.16386,-0.00011587,-453.23,1.2014
8095,16.165,2,0.1,0.00025454,2543.6,0.00024572,2327.4,-6.415e-05,-0.87121,-0.0001156,-387.41,1.2018
8096,16.165,2.1818,0.1,0.00026651,2663.3,0.00025971,2490.5,-7.1949e-05,-1.4591,-0.00011383,-316.15,1.2022
8097,16.165,2.3636,0.1,0.00027598,2757.9,0.00027051,2615.7,-7.7647e-05,-0.21035,-0.00011289,-265.04,1.2025
8098,16.165,2.5455,0.1,0.00028296,2827.7,0.00027813,2700.4,-8.1318e-05,-0.37087,-0.00011308,-239.04,1.2027
8099,16.165,2.7273,0.1,0.00028726,2870.6,0.00028268,2749.3,-8.3275e-05,-0.32469,-0.00011365,-228.58,1.2029
8100,16.165,2.9091,0.1,0.00028922,2890.2,0.00028473,2771,-8.4096e-05,-0.2662,-0.00011403,-225.15,1.2029
8101,16.165,3.0909,0.1,0.00028922,2890.2,0.00028473,2771,-8.4096e-05,-0.2662,-0.00011403,-225.15,1.2029
8102,16.165,3.2727,0.1,0.00028726,2870.6,0.00028268,2749.3,-8.3275e-05,-0.32469,-0.00011365,-228.58,1.2029
8103,16.165,3.4545,0.1,0.00028296,2827.7,0.00027813,2700.4,-8.1318e-05,-0.37087,-0.00011308,-239.04,1.2027
8104,16.165,3.6364,0.1,0.00027598,2757.9,0.00027051,2615.7,-7.7647e-05,-0.21035,-0.00011289,-265.04,1.2025
8105,16.165,3.8182,0.1,0.00026651,2663.3,0.00025971,2490.5,-7.1949e-05,-1.4591,-0.00011383,-316.15,1.2022
8106,16.165,4,0.1,0.00025454,2543.6,0.00024572,2327.4,-6.415e-05,-0.87121,-0.0001156,-387.41,1.2018
8107,16.165,4.1818,0.1,0.00023958,2394.1,0.00022863,2135.2,-5.5527e-05,0.16386,-0.00011587,-453.23,1.2014
8108,16.165,4.3636,0.1,0.0002212,2210.5,0.00020896,1928.4,-4.7732e-05,-0.26013,-0.00011208,-483.77,1.2009
8109,16.165,4.5455,0.1,0.00020003,1998.9,0.00018793,1724,-4.1454e-05,0.44886,-0.00010371,-467.32,1.2003
8110,16.165,4.7273,0.1,0.00017827,1781.5,0.0001675,1536.6,-3.6965e-05,0.30216,-9.2412e-05,-416.3,1.1997
8111,16.165,4.9091,0.1,0.00015761,1575,0.0001488,1372.5,-3.3845e-05,0.15931,-8.0067e-05,-347.13,1.199
8112,16.165,5.0909,0.1,0.00013903,1389.4,0.00013238,1233.1,-3.1719e-05,0.089178,-6.7973e-05,-272.31,1.1983
8113,16.165,5.2727,0.1,0.0001231,1230.1,0.00011846,1117.8,-3.03e-05,0.017845,-5.6943e-05,-200.17,1.1976
8114,16.165,5.4545,0.1,0.00011012,1100.5,0.00010718,1026.1,-2.9397e-05,-0.067869,-4.75e-05,-136.09,1.1968
8115,16.165,5.6364,0.1,0.0001003,1002.3,9.8623e-05,958.09,-2.8902e-05,-0.083464,-3.9956e-05,-83.138,1.196
8116,16.165,5.8182,0.1,9.3677e-05,936.13,9.2882e-05,914.1,-2.8835e-05,-0.43374,-3.4397e-05,-42.226,1.1952
8117,16.349,0.18182,0.1,7.4018e-05,739.67,7.3221e-05,717.96,-2.2332e-05,0.011242,-2.7878e-05,-41.66,1.2181
8118,16.349,0.36364,0.1,8.1303e-05,812.47,7.9592e-05,768.28,-2.2636e-05,0.18205,-3.3609e-05,-82.263,1.2189
8119,16.349,0.54545,0.1,9.306e-05,929.96,8.9721e-05,848.57,-2.3195e-05,0.15914,-4.2607e-05,-145.7,1.2197
8120,16.349,0.72727,0.1,0.00010874,1086.6,0.00010306,954.92,-2.4e-05,0.2029,-5.4309e-05,-227.53,1.2205
8121,16.349,0.90909,0.1,0.00012798,1279,0.00011939,1086.5,-2.5186e-05,0.25972,-6.8218e-05,-323.07,1.2213
8122,16.349,1.0909,0.1,0.00015067,1505.7,0.00013878,1245.9,-2.6989e-05,0.44469,-8.3919e-05,-427.3,1.2221
8123,16.349,1.2727,0.1,0.0001767,1765.8,0.00016151,1438.5,-2.9868e-05,0.55381,-0.00010079,-532.35,1.2228
8124,16.349,1.4545,0.1,0.0002057,2055.6,0.00018784,1671.2,-3.452e-05,0.52962,-0.00011768,-624.3,1.2235
8125,16.349,1.6364,0.1,0.0002351,2349.4,0.00021635,1941.8,-4.1593e-05,3.679,-0.0001314,-671.12,1.2241
8126,16.349,1.8182,0.1,0.00026117,2609.8,0.00024445,2233.5,-5.2568e-05,1.7945,-0.00013748,-636.19,1.2246
8127,16.349,2,0.1,0.00028088,2806.8,0.00026821,2508.2,-6.4953e-05,4.9512,-0.00013565,-526.27,1.2251
8128,16.349,2.1818,0.1,0.00029475,2945.5,0.00028579,2723.4,-7.6195e-05,3.6395,-0.00013059,-405.05,1.2255
8129,16.349,2.3636,0.1,0.00030517,3049.6,0.00029811,2868.4,-8.3932e-05,-2.1575,-0.000128,-333.29,1.2259
8130,16.349,2.5455,0.1,0.00031074,3105.2,0.00030445,2942.1,-8.7158e-05,-0.28335,-0.00012754,-303.67,1.2261
8131,16.349,2.7273,0.1,0.00031297,3127.5,0.00030697,2971.1,-8.8493e-05,-0.28105,-0.00012734,-292.15,1.2263
8132,16.349,2.9091,0.1,0.00031359,3133.8,0.00030769,2979.6,-8.8891e-05,-0.16707,-0.00012724,-288.28,1.2264
8133,16.349,3.0909,0.1,0.00031359,3133.8,0.00030769,2979.6,-8.8891e-05,-0.16707,-0.00012724,-288.28,1.2264
8134,16.349,3.2727,0.1,0.00031297,3127.5,0.00030697,2971.1,-8.8493e-05,-0.28105,-0.00012734,-292.15,1.2263
8135,16.349,3.4545,0.1,0.00031074,3105.2,0.00030445,2942.1,-8.7158e-05,-0.28335,-0.00012754,-303.67,1.2261
8136,16.349,3.6364,0.1,0.00030517,3049.6,0.00029811,2868.4,-8.3932e-05,-2.1575,-0.000128,-333.29,1.2259
8137,16.349,3.8182,0.1,0.00029475,2945.5,0.00028579,2723.4,-7.6195e-05,3.6395,-0.00013059,-405.05,1.2255
8138,16.349,4,0.1,0.00028088,2806.8,0.00026821,2508.2,-6.4953e-05,4.9512,-0.00013565,-526.27,1.2251
8139,16.349,4.1818,0.1,0.00026116,2609.8,0.00024445,2233.5,-5.2568e-05,1.7945,-0.00013748,-636.19,1.2246
8140,16.349,4.3636,0.1,0.0002351,2349.4,0.00021635,1941.8,-4.1593e-05,3.679,-0.0001314,-671.12,1.2241
8141,16.349,4.5455,0.1,0.0002057,2055.6,0.00018784,1671.2,-3.452e-05,0.52962,-0.00011768,-624.3,1.2235
8142,16.349,4.7273,0.1,0.0001767,1765.8,0.00016151,1438.5,-2.9868e-05,0.55381,-0.00010079,-532.35,1.2228
8143,16.349,4.9091,0.1,0.00015067,1505.7,0.00013878,1245.9,-2.6989e-05,0.44469,-8.3919e-05,-427.3,1.2221
8144,16.349,5.0909,0.1,0.00012798,1279,0.00011939,1086.5,-2.5186e-05,0.25972,-6.8218e-05,-323.07,1.2213
8145,16.349,5.2727,0.1,0.00010874,1086.6,0.00010306,954.92,-2.4e-05,0.2029,-5.4309e-05,-227.53,1.2205
8146,16.349,5.4545,0.1,9.306e-05,929.96,8.9721e-05,848.57,-2.3195e-05,0.15915,-4.2607e-05,-145.7,1.2197
8147,16.349,5.6364,0.1,8.1303e-05,812.47,7.9592e-05,768.28,-2.2636e-05,0.18205,-3.3609e-05,-82.263,1.2189
8148,16.349,5.8182,0.1,7.4018e-05,739.67,7.3221e-05,717.96,-2.2332e-05,0.011244,-2.7878e-05,-41.66,1.2181
8149,16.533,0.18182,0.1,5.3292e-05,532.55,5.2469e-05,510.83,-1.5421e-05,0.72744,-2.106e-05,-41.646,1.241
8150,16.533,0.36364,0.1,6.2531e-05,624.88,6.0586e-05,576.64,-1.6153e-05,0.047024,-2.7784e-05,-87.34,1.2418
8151,16.533,0.54545,0.1,7.7558e-05,775.04,7.3286e-05,676.49,-1.6784e-05,-0.26522,-3.9246e-05,-169.03,1.2427
8152,16.533,0.72727,0.1,9.6643e-05,965.77,8.902e-05,798.99,-1.7385e-05,-0.49705,-5.3792e-05,-274.04,1.2435
8153,16.533,0.90909,0.1,0.00011938,1193,0.00010756,943.56,-1.8103e-05,-0.59286,-7.0884e-05,-397.17,1.2443
8154,16.533,1.0909,0.1,0.00014613,1460.3,0.00012941,1115.9,-1.9204e-05,-0.746,-9.0526e-05,-536.63,1.2452
8155,16.533,1.2727,0.1,0.00017798,1778.6,0.00015582,1328.6,-2.1095e-05,-0.66393,-0.00011308,-691.81,1.2459
8156,16.533,1.4545,0.1,0.00021564,2154.9,0.00018819,1599.7,-2.4798e-05,-0.55116,-0.00013792,-850.47,1.2467
8157,16.533,1.6364,0.1,0.00026055,2603.7,0.00022927,1964,-3.2475e-05,-2.6968,-0.00016371,-988.74,1.2474
8158,16.533,1.8182,0.1,0.00030489,3046.8,0.00027512,2415.1,-4.7281e-05,-7.3484,-0.00018014,-1005.6,1.248
8159,16.533,2,0.1,0.00033051,3302.8,0.00031046,2837.8,-7.0897e-05,-27.573,-0.0001703,-774.47,1.2486
8160,16.533,2.1818,0.1,0.00034661,3463.7,0.00033413,3155.6,-8.7773e-05,-14.423,-0.00015791,-541.38,1.2491
8161,16.533,2.3636,0.1,0.00035027,3500.3,0.00034106,3268.1,-9.361e-05,2.1242,-0.00015071,-426.94,1.2494
8162,16.533,2.5455,0.1,0.00034756,3473.2,0.00033935,3263.3,-9.5036e-05,-0.53862,-0.00014647,-387.03,1.2497
8163,16.533,2.7273,0.1,0.00034297,3427.4,0.00033525,3229.1,-9.4503e-05,0.086161,-0.00014337,-367.07,1.2499
8164,16.533,2.9091,0.1,0.00034016,3399.3,0.00033263,3205.6,-9.3991e-05,0.1188,-0.00014179,-359,1.25
8165,16.533,3.0909,0.1,0.00034016,3399.3,0.00033263,3205.6,-9.3991e-05,0.1188,-0.00014179,-359,1.25
8166,16.533,3.2727,0.1,0.00034297,3427.4,0.00033525,3229.1,-9.4503e-05,0.086161,-0.00014337,-367.07,1.2499
8167,16.533,3.4545,0.1,0.00034756,3473.2,0.00033935,3263.3,-9.5036e-05,-0.53862,-0.00014647,-387.03,1.2497
8168,16.533,3.6364,0.1,0.00035027,3500.3,0.00034106,3268.1,-9.361e-05,2.1242,-0.00015071,-426.94,1.2494
8169,16.533,3.8182,0.1,0.00034661,3463.7,0.00033413,3155.6,-8.7773e-05,-14.423,-0.00015791,-541.38,1.2491
8170,16.533,4,0.1,0.00033051,3302.8,0.00031046,2837.8,-7.0897e-05,-27.573,-0.0001703,-774.47,1.2486
8171,16.533,4.1818,0.1,0.00030489,3046.8,0.00027512,2415.1,-4.7281e-05,-7.3484,-0.00018014,-1005.6,1.248
8172,16.533,4.3636,0.1,0.00026055,2603.7,0.00022927,1964,-3.2475e-05,-2.6968,-0.00016371,-988.74,1.2474
8173,16.533,4.5455,0.1,0.00021564,2154.9,0.00018819,1599.7,-2.4798e-05,-0.55116,-0.00013792,-850.47,1.2467
8174,16.533,4.7273,0.1,0.00017798,1778.6,0.00015582,1328.6,-2.1095e-05,-0.66393,-0.00011308,-691.81,1.2459
8175,16.533,4.9091,0.1,0.00014613,1460.3,0.00012941,1115.9,-1.9204e-05,-0.746,-9.0526e-05,-536.63,1.2452
8176,16.533,5.0909,0.1,0.00011938,1193,0.00010756,943.56,-1.8103e-05,-0.59285,-7.0884e-05,-397.17,1.2443
8177,16.533,5.2727,0.1,9.6643e-05,965.77,8.902e-05,798.99,-1.7385e-05,-0.49705,-5.3792e-05,-274.04,1.2435
8178,16.533,5.4545,0.1,7.7558e-05,775.04,7.3286e-05,676.49,-1.6784e-05,-0.26522,-3.9246e-05,-169.03,1.2427
8179,16.533,5.6364,0.1,6.2531e-05,624.88,6.0586e-05,576.64,-1.6153e-05,0.047025,-2.7784e-05,-87.34,1.2418
8180,16.533,5.8182,0.1,5.3292e-05,532.55,5.2469e-05,510.83,-1.5421e-05,0.72745,-2.106e-05,-41.646,1.241
8181,16.716,0.18182,0.1,3.4243e-05,342.19,3.2964e-05,313.25,-7.759e-06,7.2709,-1.6214e-05,-56.257,1.2639
8182,16.716,0.36364,0.1,5.0528e-05,504.94,4.6941e-05,426.44,-9.3787e-06,3.2767,-2.745e-05,-132.5,1.2648
8183,16.716,0.54545,0.1,7.1307e-05,712.57,6.384e-05,557.67,-1.0041e-05,2.5512,-4.3103e-05,-245.86,1.2657
8184,16.716,0.72727,0.1,9.4873e-05,948.07,8.243e-05,698.79,-1.0268e-05,2.2945,-6.1269e-05,-380.91,1.2666
8185,16.716,0.90909,0.1,0.00012171,1216.3,0.00010325,855.14,-1.026e-05,2.2564,-8.2112e-05,-537.61,1.2674
8186,16.716,1.0909,0.1,0.00015307,1529.7,0.00012742,1036.5,-1.0127e-05,2.9766,-0.00010645,-720.78,1.2683
8187,16.716,1.2727,0.1,0.00019123,1910.9,0.00015692,1258.3,-1.029e-05,1.9145,-0.00013577,-940.86,1.2691
8188,16.716,1.4545,0.1,0.00024037,2402.1,0.0001955,1557.5,-1.0566e-05,9.2079,-0.00017278,-1209.6,1.27
8189,16.716,1.6364,0.1,0.00030955,3093.4,0.00025109,1985.5,-1.4367e-05,-9.1135,-0.00022317,-1578,1.2708
8190,16.716,1.8182,0.1,0.00041169,4114.1,0.00034561,2853.6,-2.7398e-05,50.927,-0.000283,-1869.6,1.2716
8191,16.716,2,0.1,0.00048191,4815.8,0.00043995,4002.7,-6.2473e-05,227.73,-0.00028188,-1420.8,1.2722
8192,16.716,2.1818,0.1,0.00044761,4473,0.00043072,4060.3,-0.00011124,-11.807,-0.00020648,-727.43,1.2728
8193,16.716,2.3636,0.1,0.00041753,4172.4,0.00040531,3868.8,-0.00010867,6.9822,-0.00018371,-556.8,1.2732
8194,16.716,2.5455,0.1,0.00038818,3879.1,0.00037799,3621,-0.00010423,-2.1633,-0.00016668,-471.39,1.2735
8195,16.716,2.7273,0.1,0.00037122,3709.7,0.00036191,3473.5,-0.00010019,1.4233,-0.0001583,-435.18,1.2737
8196,16.716,2.9091,0.1,0.00036317,3629.2,0.00035425,3402.1,-9.8504e-05,0.34619,-0.00015421,-418.18,1.2738
8197,16.716,3.0909,0.1,0.00036317,3629.2,0.00035425,3402.1,-9.8504e-05,0.34619,-0.00015421,-418.18,1.2738
8198,16.716,3.2727,0.1,0.00037122,3709.7,0.00036191,3473.5,-0.00010019,1.4233,-0.0001583,-435.18,1.2737
8199,16.716,3.4545,0.1,0.00038818,3879.1,0.00037799,3621,-0.00010423,-2.1633,-0.00016668,-471.39,1.2735
8200,16.716,3.6364,0.1,0.00041753,4172.4,0.00040531,3868.8,-0.00010867,6.9822,-0.00018371,-556.8,1.2732
8201,16.716,3.8182,0.1,0.00044761,4473,0.00043072,4060.3,-0.00011124,-11.807,-0.00020648,-727.43,1.2728
8202,16.716,4,0.1,0.00048191,4815.8,0.00043995,4002.7,-6.2473e-05,227.73,-0.00028188,-1420.8,1.2722
8203,16.716,4.1818,0.1,0.00041169,4114.1,0.00034561,2853.6,-2.7398e-05,50.927,-0.000283,-1869.6,1.2716
8204,16.716,4.3636,0.1,0.00030955,3093.4,0.00025109,1985.5,-1.4367e-05,-9.1134,-0.00022317,-1578,1.2708
8205,16.716,4.5455,0.1,0.00024037,2402.1,0.0001955,1557.5,-1.0566e-05,9.2079,-0.00017278,-1209.6,1.27
8206,16.716,4.7273,0.1,0.00019123,1910.9,0.00015692,1258.3,-1.029e-05,1.9145,-0.00013577,-940.86,1.2691
8207,16.716,4.9091,0.1,0.00015307,1529.7,0.00012742,1036.5,-1.0127e-05,2.9766,-0.00010645,-720.78,1.2683
8208,16.716,5.0909,0.1,0.00012171,1216.3,0.00010325,855.14,-1.026e-05,2.2564,-8.2112e-05,-537.61,1.2674
8209,16.716,5.2727,0.1,9.4873e-05,948.08,8.243e-05,698.79,-1.0268e-05,2.2945,-6.1269e-05,-380.91,1.2666
8210,16.716,5.4545,0.1,7.1307e-05,712.57,6.384e-05,557.67,-1.0041e-05,2.5512,-4.3103e-05,-245.86,1.2657
8211,16.716,5.6364,0.1,5.0528e-05,504.94,4.6941e-05,426.44,-9.3787e-06,3.2767,-2.745e-05,-132.5,1.2648
8212,16.716,5.8182,0.1,3.4243e-05,342.19,3.2964e-05,313.25,-7.759e-06,7.2709,-1.6214e-05,-56.257,1.2639
8213,17.067,3.8182,0.1,0.00058413,5837.3,0.00057245,5532.1,-0.00016503,-9.0485,-0.00023863,-562.05,1.3189
8214,17.067,3.6364,0.1,0.00046578,4654.6,0.00045468,4374.7,-0.00012544,15.945,-0.00019781,-527.82,1.3194
8215,17.067,3.4545,0.1,0.00040983,4095.5,0.00040013,3847.6,-0.00011203,-0.63635,-0.00017277,-456.99,1.3197
8216,17.067,3.2727,0.1,0.00038116,3809,0.00037234,3583.5,-0.00010437,1.6565,-0.00016022,-417.95,1.3199
8217,17.067,3.0909,0.1,0.0003689,3686.4,0.00036048,3470.7,-0.00010134,0.78211,-0.00015462,-399.55,1.32
8218,17.067,2.9091,0.1,0.0003689,3686.4,0.00036048,3470.7,-0.00010134,0.78211,-0.00015462,-399.55,1.32
8219,17.067,2.7273,0.1,0.00038116,3809,0.00037234,3583.5,-0.00010437,1.6565,-0.00016022,-417.95,1.3199
8220,17.067,2.5455,0.1,0.00040983,4095.5,0.00040013,3847.6,-0.00011203,-0.63635,-0.00017277,-456.99,1.3197
8221,17.067,2.3636,0.1,0.00046578,4654.6,0.00045468,4374.7,-0.00012544,15.945,-0.00019781,-527.82,1.3194
8222,17.067,2.1818,0.1,0.00058413,5837.3,0.00057245,5532.1,-0.00016503,-9.0484,-0.00023863,-562.05,1.3189
8223,16.9,3.8182,0.1,0.00059716,5967.5,0.00057854,5486.1,-0.00016226,-80.002,-0.00026006,-814.81,1.2968
8224,16.9,3.6364,0.1,0.00047015,4698.3,0.00045698,4371,-0.00012287,14.236,-0.00020556,-607.03,1.2973
8225,16.9,3.4545,0.1,0.00041508,4147.9,0.00040406,3869.6,-0.00011098,-0.24249,-0.00017876,-509.49,1.2976
8226,16.9,3.2727,0.1,0.00038654,3862.7,0.0003767,3613.6,-0.00010402,1.6155,-0.00016528,-458.69,1.2978
8227,16.9,3.0909,0.1,0.00037438,3741.2,0.00036505,3504.3,-0.00010123,0.87084,-0.0001594,-436.18,1.2979
8228,16.9,2.9091,0.1,0.00037438,3741.2,0.00036505,3504.3,-0.00010123,0.87084,-0.0001594,-436.18,1.2979
8229,16.9,2.7273,0.1,0.00038654,3862.7,0.0003767,3613.6,-0.00010402,1.6155,-0.00016528,-458.69,1.2978
8230,16.9,2.5455,0.1,0.00041508,4147.9,0.00040406,3869.6,-0.00011098,-0.24249,-0.00017876,-509.49,1.2976
8231,16.9,2.3636,0.1,0.00047015,4698.3,0.00045698,4371,-0.00012287,14.236,-0.00020556,-607.03,1.2973
8232,16.9,2.1818,0.1,0.00059716,5967.5,0.00057854,5486.1,-0.00016226,-80.002,-0.00026006,-814.81,1.2968
8233,17.067,5.8182,0.1,1.504e-05,150.3,1.4475e-05,135.71,-4.0334e-06,-3.3548,-6.7463e-06,-23.738,1.3132
8234,17.067,5.6364,0.1,2.7683e-05,276.64,2.6227e-05,241.26,-6.5629e-06,-5.1079,-1.3603e-05,-58.001,1.3136
8235,17.067,5.4545,0.1,3.9663e-05,396.36,3.7075e-05,336.36,-8.3843e-06,-5.2037,-2.0766e-05,-98.237,1.314
8236,17.067,5.2727,0.1,5.2384e-05,523.48,4.8402e-05,433.82,-1.0115e-05,-5.8515,-2.8667e-05,-145.24,1.3145
8237,17.067,5.0909,0.1,6.6715e-05,666.69,6.1018e-05,541.12,-1.1919e-05,-6.9012,-3.7766e-05,-201.1,1.3149
8238,17.067,4.9091,0.1,8.3761e-05,837.04,7.5906e-05,666.92,-1.3903e-05,-7.8671,-4.8757e-05,-269.75,1.3154
8239,17.067,4.7273,0.1,0.00010524,1051.7,9.4587e-05,823.24,-1.6535e-05,-11.688,-6.2619e-05,-357.94,1.3159
8240,17.067,4.5455,0.1,0.00013534,1352.4,0.00012035,1038,-1.9209e-05,-10.641,-8.2812e-05,-488.53,1.3164
8241,17.067,4.3636,0.1,0.00017316,1730.4,0.000155,1334.2,-2.8178e-05,-42.079,-0.00010356,-608.45,1.317
8242,17.067,4.1818,0.1,0.00030192,3017.1,0.00025056,2033.5,-1.8915e-05,8.7884,-0.00021095,-1434.1,1.3176
8243,17.067,4,0.1,0.00082921,8286.4,0.00081423,8033.1,-0.00017897,570.6,-0.00037263,-884.47,1.3183
8244,16.9,4,0.1,0.00089316,8925.4,0.0008379,7765.1,-0.00016058,262.92,-0.00047583,-2105.7,1.2962
8245,16.9,4.1818,0.1,0.00036627,3660.2,0.00025861,1787.1,2.1685e-05,6.9702,-0.00030168,-2422.6,1.2952
8246,16.9,4.3636,0.1,0.00021223,2120.8,0.00016225,1190,-2.575e-06,-48.471,-0.00016367,-1258.9,1.2943
8247,16.9,4.5455,0.1,0.00016619,1660.7,0.00012765,953.27,-8.8534e-07,-12.497,-0.00012757,-964.33,1.2933
8248,16.9,4.7273,0.1,0.00012993,1298.4,0.00010225,779.75,-3.4975e-06,-14.775,-9.7172e-05,-718.61,1.2924
8249,16.9,4.9091,0.1,0.00010352,1034.5,8.3383e-05,651.41,-4.6824e-06,-10.272,-7.5284e-05,-540.75,1.2914
8250,16.9,5.0909,0.1,8.2229e-05,821.72,6.7967e-05,544.09,-5.6906e-06,-9.3476,-5.7696e-05,-400.09,1.2905
8251,16.9,5.2727,0.1,6.4176e-05,641.32,5.4566e-05,448.73,-6.2429e-06,-8.1682,-4.3011e-05,-284.43,1.2896
8252,16.9,5.4545,0.1,4.8181e-05,481.48,4.2262e-05,357.96,-6.3709e-06,-7.452,-3.0349e-05,-187.62,1.2887
8253,16.9,5.6364,0.1,3.3347e-05,333.24,3.0275e-05,264.92,-5.955e-06,-7.2981,-1.9186e-05,-106.71,1.2878
8254,16.9,5.8182,0.1,1.813e-05,181.18,1.7082e-05,155.37,-4.347e-06,-5.6381,-9.0291e-06,-40.817,1.2869
8255,17.067,0.18182,0.1,1.504e-05,150.3,1.4475e-05,135.71,-4.0334e-06,-3.3548,-6.7463e-06,-23.738,1.3132
8256,17.067,0.36364,0.1,2.7683e-05,276.64,2.6227e-05,241.26,-6.5629e-06,-5.1079,-1.3603e-05,-58.001,1.3136
8257,17.067,0.54545,0.1,3.9663e-05,396.36,3.7075e-05,336.36,-8.3843e-06,-5.2037,-2.0766e-05,-98.237,1.314
8258,17.067,0.72727,0.1,5.2384e-05,523.48,4.8402e-05,433.82,-1.0115e-05,-5.8515,-2.8667e-05,-145.24,1.3145
8259,17.067,0.90909,0.1,6.6715e-05,666.69,6.1018e-05,541.12,-1.1919e-05,-6.9012,-3.7766e-05,-201.1,1.3149
8260,17.067,1.0909,0.1,8.3761e-05,837.04,7.5906e-05,666.92,-1.3903e-05,-7.8671,-4.8757e-05,-269.75,1.3154
8261,17.067,1.2727,0.1,0.00010524,1051.7,9.4587e-05,823.24,-1.6535e-05,-11.688,-6.2619e-05,-357.94,1.3159
8262,17.067,1.4545,0.1,0.00013534,1352.4,0.00012035,1038,-1.9209e-05,-10.641,-8.2812e-05,-488.53,1.3164
8263,17.067,1.6364,0.1,0.00017316,1730.4,0.000155,1334.2,-2.8178e-05,-42.079,-0.00010356,-608.45,1.317
8264,17.067,1.8182,0.1,0.00030192,3017.1,0.00025056,2033.5,-1.8915e-05,8.7883,-0.00021095,-1434.1,1.3176
8265,17.067,2,0.1,0.00082921,8286.4,0.00081423,8033.1,-0.00017897,570.6,-0.00037263,-884.47,1.3183
8266,16.9,2,0.1,0.00089316,8925.4,0.0008379,7765.1,-0.00016058,262.92,-0.00047583,-2105.7,1.2962
8267,16.9,1.8182,0.1,0.00036627,3660.2,0.00025861,1787.1,2.1685e-05,6.9701,-0.00030168,-2422.6,1.2952
8268,16.9,1.6364,0.1,0.00021223,2120.8,0.00016225,1190,-2.575e-06,-48.471,-0.00016367,-1258.9,1.2943
8269,16.9,1.4545,0.1,0.00016619,1660.7,0.00012765,953.27,-8.8532e-07,-12.497,-0.00012757,-964.33,1.2933
8270,16.9,1.2727,0.1,0.00012993,1298.4,0.00010225,779.75,-3.4975e-06,-14.775,-9.7172e-05,-718.61,1.2924
8271,16.9,1.0909,0.1,0.00010352,1034.5,8.3382e-05,651.41,-4.6824e-06,-10.272,-7.5284e-05,-540.75,1.2914
8272,16.9,0.90909,0.1,8.2229e-05,821.72,6.7967e-05,544.09,-5.6905e-06,-9.3476,-5.7696e-05,-400.09,1.2905
8273,16.9,0.72727,0.1,6.4176e-05,641.32,5.4566e-05,448.73,-6.2429e-06,-8.1682,-4.3011e-05,-284.43,1.2896
8274,16.9,0.54545,0.1,4.8181e-05,481.48,4.2262e-05,357.96,-6.3709e-06,-7.452,-3.0349e-05,-187.62,1.2887
8275,16.9,0.36364,0.1,3.3347e-05,333.24,3.0275e-05,264.92,-5.955e-06,-7.2981,-1.9186e-05,-106.71,1.2878
8276,16.9,0.18182,0.1,1.813e-05,181.18,1.7082e-05,155.37,-4.347e-06,-5.6381,-9.0291e-06,-40.817,1.2869
8277,17.067,6,0.1,1.8628e-06,18.615,1.4283e-06,16.77,7.2463e-07,11.483,-1.3249e-06,-3.9163,1.3128
8278,17.249,6,0.1,1.7525e-05,175.13,1.7408e-05,171.97,-5.3402e-06,1.0483,-6.4223e-06,-7.0827,1.3383
8279,17.432,6,0.1,3.3733e-05,337.1,3.3552e-05,331.9,-1.0784e-05,-1.22,-1.1825e-05,-9.0417,1.3638
8280,17.614,6,0.1,4.7512e-05,474.79,4.732e-05,469.29,-1.52e-05,-0.45914,-1.6522e-05,-10.39,1.3893
8281,17.796,6,0.1,5.9233e-05,591.92,5.9039e-05,586.36,-1.9035e-05,-0.26511,-2.0428e-05,-10.732,1.4149
8282,17.979,6,0.1,6.8878e-05,688.3,6.8695e-05,683.05,-2.2216e-05,-0.023971,-2.3593e-05,-10.37,1.4405
8283,18.161,6,0.1,7.6515e-05,764.62,7.6347e-05,759.78,-2.476e-05,0.10537,-2.6063e-05,-9.6844,1.4661
8284,18.344,6,0.1,8.2274e-05,822.18,8.2123e-05,817.79,-2.6695e-05,0.17713,-2.79e-05,-8.8732,1.4918
8285,18.526,6,0.1,8.6343e-05,862.84,8.6206e-05,858.87,-2.8076e-05,0.20041,-2.9176e-05,-8.0671,1.5176
8286,18.709,6,0.1,8.8933e-05,888.72,8.881e-05,885.13,-2.8968e-05,0.19429,-2.997e-05,-7.336,1.5434
8287,18.891,6,0.1,9.0261e-05,901.98,9.0147e-05,898.69,-2.9438e-05,0.17127,-3.0355e-05,-6.715,1.5692
8288,19.074,6,0.1,9.0529e-05,904.66,9.0424e-05,901.61,-2.9554e-05,0.14076,-3.04e-05,-6.2165,1.5951
8289,19.256,6,0.1,8.9922e-05,898.6,8.9823e-05,895.72,-2.9375e-05,0.10888,-3.0167e-05,-5.8403,1.6211
8290,19.439,6,0.1,8.8602e-05,885.4,8.8507e-05,882.64,-2.8955e-05,0.07938,-2.9708e-05,-5.5794,1.6472
8291,19.621,6,0.1,8.6703e-05,866.43,8.6611e-05,863.74,-2.8338e-05,0.054351,-2.9068e-05,-5.4236,1.6732
8292,19.804,6,0.1,8.4342e-05,842.84,8.425e-05,840.16,-2.7564e-05,0.034731,-2.8282e-05,-5.3618,1.6994
8293,19.986,6,0.1,8.1613e-05,815.56,8.152e-05,812.87,-2.6663e-05,0.020753,-2.7382e-05,-5.3829,1.7256
8294,20.168,6,0.1,7.8592e-05,785.38,7.8498e-05,782.64,-2.5663e-05,0.012252,-2.6393e-05,-5.4762,1.7519
8295,20.351,6,0.1,7.5345e-05,752.93,7.5247e-05,750.1,-2.4583e-05,0.0088322,-2.5334e-05,-5.6319,1.7782
8296,20.533,6,0.1,7.192e-05,718.7,7.1819e-05,715.77,-2.3443e-05,0.010003,-2.4222e-05,-5.8409,1.8046
8297,20.716,6,0.1,6.8359e-05,683.12,6.8254e-05,680.06,-2.2255e-05,0.015271,-2.3068e-05,-6.0949,1.831
8298,20.898,6,0.1,6.4695e-05,646.51,6.4585e-05,643.3,-2.103e-05,0.024151,-2.1883e-05,-6.3862,1.8574
8299,21.081,6,0.1,6.0954e-05,609.12,6.0838e-05,605.76,-1.9779e-05,0.036225,-2.0676e-05,-6.7078,1.8839
8300,21.263,6,0.1,5.7156e-05,571.17,5.7034e-05,567.64,-1.8507e-05,0.051152,-1.9452e-05,-7.0532,1.9105
8301,21.446,6,0.1,5.3318e-05,532.82,5.319e-05,529.1,-1.7221e-05,0.068666,-1.8217e-05,-7.4162,1.937
8302,21.628,6,0.1,4.9453e-05,494.19,4.9318e-05,490.29,-1.5925e-05,0.088608,-1.6973e-05,-7.7909,1.9637
8303,21.811,6,0.1,4.5572e-05,455.4,4.5429e-05,451.32,-1.4623e-05,0.1109,-1.5725e-05,-8.1718,1.9903
8304,21.993,6,0.1,4.1682e-05,416.53,4.1532e-05,412.25,-1.3318e-05,0.13557,-1.4474e-05,-8.5531,2.017
8305,22.175,6,0.1,3.779e-05,377.64,3.7633e-05,373.18,-1.2012e-05,0.16274,-1.3222e-05,-8.9291,2.0437
8306,22.358,6,0.1,3.3903e-05,338.8,3.3738e-05,334.15,-1.0708e-05,0.19271,-1.1971e-05,-9.2935,2.0704
8307,22.54,6,0.1,3.0026e-05,300.05,2.9854e-05,295.23,-9.4082e-06,0.22591,-1.0721e-05,-9.6395,2.0971
8308,22.723,6,0.1,2.6164e-05,261.46,2.5984e-05,256.46,-8.114e-06,0.26314,-9.4744e-06,-9.9585,2.1239
8309,22.905,6,0.1,2.2324e-05,223.08,2.2136e-05,217.93,-6.8279e-06,0.30523,-8.2314e-06,-10.24,2.1507
8310,23.088,6,0.1,1.8512e-05,184.99,1.8316e-05,179.7,-5.5529e-06,0.35491,-6.9934e-06,-10.469,2.1775
8311,23.27,6,0.1,1.474e-05,147.3,1.4535e-05,141.88,-4.2934e-06,0.41048,-5.7622e-06,-10.626,2.2043
8312,23.453,6,0.1,1.1025e-05,110.17,1.081e-05,104.68,-3.0554e-06,0.49647,-4.5386e-06,-10.648,2.2311
8313,23.635,6,0.1,7.4115e-06,74.064,7.178e-06,68.424,-1.8541e-06,0.56107,-3.3367e-06,-10.579,2.2579
8314,23.818,6,0.1,3.9218e-06,39.191,3.6795e-06,34.021,-7.2479e-07,0.92938,-2.0805e-06,-9.2566,2.2848
8315,24,6,0.1,9.4742e-07,9.4676,7.6197e-07,5.4795,-1.1343e-07,-1.0979,-6.8222e-07,-5.3716,2.3116
8316,24,5.8182,0.1,3.5099e-06,35.075,1.7976e-06,6.6616,6.1257e-07,-2.2424,-3.3488e-06,-32.007,2.3117
8317,24,5.6364,0.1,5.782e-06,57.78,2.5793e-06,6.9047,1.3582e-06,-2.2707,-5.6482e-06,-54.914,2.3118
8318,24,5.4545,0.1,7.4672e-06,74.62,3.1525e-06,6.9651,1.9002e-06,-2.4438,-7.3456e-06,-71.913,2.3119
8319,24,5.2727,0.1,8.8216e-06,88.155,3.6033e-06,6.9721,2.3472e-06,-2.4663,-8.707e-06,-85.523,2.312
8320,24,5.0909,0.1,9.9353e-06,99.284,3.9709e-06,6.9408,2.7154e-06,-2.4926,-9.8259e-06,-96.723,2.3121
8321,24,4.9091,0.1,1.0863e-05,108.55,4.2754e-06,6.9021,3.0233e-06,-2.5055,-1.0757e-05,-106.05,2.3122
8322,24,4.7273,0.1,1.1638e-05,116.3,4.529e-06,6.8608,3.2812e-06,-2.5148,-1.1536e-05,-113.84,2.3123
8323,24,4.5455,0.1,1.2286e-05,122.78,4.7404e-06,6.8214,3.4971e-06,-2.5205,-1.2186e-05,-120.36,2.3124
8324,24,4.3636,0.1,1.2825e-05,128.17,4.916e-06,6.7854,3.677e-06,-2.5242,-1.2727e-05,-125.78,2.3125
8325,24,4.1818,0.1,1.327e-05,132.61,5.0606e-06,6.7539,3.8255e-06,-2.5263,-1.3174e-05,-130.25,2.3125
8326,24,4,0.1,1.3632e-05,136.23,5.1782e-06,6.7269,3.9465e-06,-2.5275,-1.3537e-05,-133.89,2.3126
8327,24,3.8182,0.1,1.3921e-05,139.11,5.2718e-06,6.7047,4.043e-06,-2.5281,-1.3827e-05,-136.8,2.3126
8328,24,3.6364,0.1,1.4143e-05,141.34,5.3438e-06,6.6871,4.1174e-06,-2.5283,-1.405e-05,-139.03,2.3127
8329,24,3.4545,0.1,1.4305e-05,142.95,5.3963e-06,6.674,4.1715e-06,-2.5283,-1.4212e-05,-140.66,2.3127
8330,24,3.2727,0.1,1.4411e-05,144.01,5.4305e-06,6.6653,4.2069e-06,-2.5282,-1.4318e-05,-141.72,2.3127
8331,24,3.0909,0.1,1.4463e-05,144.53,5.4474e-06,6.661,4.2244e-06,-2.5281,-1.4371e-05,-142.24,2.3127
8332,24,2.9091,0.1,1.4463e-05,144.53,5.4474e-06,6.661,4.2244e-06,-2.5281,-1.4371e-05,-142.24,2.3127
8333,24,2.7273,0.1,1.4411e-05,144.01,5.4305e-06,6.6653,4.2069e-06,-2.5282,-1.4318e-05,-141.72,2.3127
8334,24,2.5455,0.1,1.4305e-05,142.95,5.3963e-06,6.674,4.1715e-06,-2.5283,-1.4212e-05,-140.66,2.3127
8335,24,2.3636,0.1,1.4143e-05,141.34,5.3438e-06,6.6871,4.1174e-06,-2.5283,-1.405e-05,-139.03,2.3127
8336,24,2.1818,0.1,1.3921e-05,139.11,5.2718e-06,6.7047,4.043e-06,-2.5281,-1.3827e-05,-136.8,2.3126
8337,24,2,0.1,1.3632e-05,136.23,5.1782e-06,6.7269,3.9465e-06,-2.5275,-1.3537e-05,-133.89,2.3126
8338,24,1.8182,0.1,1.327e-05,132.61,5.0606e-06,6.7539,3.8255e-06,-2.5263,-1.3174e-05,-130.25,2.3125
8339,24,1.6364,0.1,1.2825e-05,128.17,4.916e-06,6.7854,3.677e-06,-2.5242,-1.2727e-05,-125.78,2.3125
8340,24,1.4545,0.1,1.2286e-05,122.78,4.7404e-06,6.8214,3.4971e-06,-2.5205,-1.2186e-05,-120.36,2.3124
8341,24,1.2727,0.1,1.1638e-05,116.3,4.529e-06,6.8608,3.2812e-06,-2.5148,-1.1536e-05,-113.84,2.3123
8342,24,1.0909,0.1,1.0863e-05,108.55,4.2754e-06,6.9021,3.0233e-06,-2.5055,-1.0757e-05,-106.05,2.3122
8343,24,0.90909,0.1,9.9353e-06,99.284,3.9709e-06,6.9408,2.7154e-06,-2.4926,-9.8259e-06,-96.723,2.3121
8344,24,0.72727,0.1,8.8216e-06,88.155,3.6033e-06,6.9721,2.3472e-06,-2.4663,-8.707e-06,-85.523,2.312
8345,24,0.54545,0.1,7.4672e-06,74.62,3.1525e-06,6.9651,1.9002e-06,-2.4438,-7.3456e-06,-71.913,2.3119
8346,24,0.36364,0.1,5.782e-06,57.78,2.5793e-06,6.9047,1.3582e-06,-2.2707,-5.6482e-06,-54.914,2.3118
8347,24,0.18182,0.1,3.5099e-06,35.075,1.7976e-06,6.6616,6.1257e-07,-2.2424,-3.3488e-06,-32.007,2.3117
8348,1.5894e-15,0.18182,0.1,0.0001376,1375,0.00017547,2497.5,1.9425e-06,1193.7,-1.5731e-05,1060.9,0
8349,3.1789e-15,0.36364,0.1,0.00023644,2362.8,0.00031377,4637,3.7716e-06,2307.7,-4.9824e-06,2242,0
8350,4.7683e-15,0.54545,0.1,0.00028841,2882.1,0.00038382,5686.8,2.872e-06,2824.5,-2.343e-06,2785.3,0
8351,6.3578e-15,0.72727,0.1,0.00032129,3210.7,0.00042749,6332.3,1.7867e-06,3133.7,-1.4126e-06,3109.6,0
8352,7.9472e-15,0.90909,0.1,0.00034325,3430.1,0.00045665,6763,1.2022e-06,3341,-9.5006e-07,3324.8,0
8353,9.5366e-15,1.0909,0.1,0.00035892,3586.7,0.00047745,7070.6,8.5925e-07,3489.6,-6.7952e-07,3478.1,0
8354,1.1126e-14,1.2727,0.1,0.00037052,3702.6,0.00049285,7298.2,6.3399e-07,3599.9,-5.0429e-07,3591.3,0
8355,1.2716e-14,1.4545,0.1,0.00037931,3790.5,0.00050453,7470.9,4.7961e-07,3683.7,-3.8254e-07,3677.2,0
8356,1.4305e-14,1.6364,0.1,0.00038608,3858.2,0.00051353,7603.9,3.685e-07,3748.3,-2.9357e-07,3743.3,0
8357,1.5894e-14,1.8182,0.1,0.00039133,3910.6,0.0005205,7707.1,2.8541e-07,3798.4,-2.2587e-07,3794.5,0
8358,1.7484e-14,2,0.1,0.0003954,3951.2,0.0005259,7787,2.2115e-07,3837.2,-1.7249e-07,3834.3,0
8359,1.9073e-14,2.1818,0.1,0.00039852,3982.4,0.00053005,7848.3,1.6989e-07,3867,-1.2897e-07,3864.8,0
8360,2.0663e-14,2.3636,0.1,0.00040085,4005.7,0.00053315,7894.2,1.2775e-07,3889.3,-9.2293e-08,3887.6,0
8361,2.2252e-14,2.5455,0.1,0.00040251,4022.4,0.00053536,7926.9,9.2107e-08,3905.1,-6.0378e-08,3904,0
8362,2.3842e-14,2.7273,0.1,0.00040359,4033.1,0.00053678,7947.9,6.1409e-08,3915.2,-3.1999e-08,3914.5,0
8363,2.5431e-14,2.9091,0.1,0.00040411,4038.3,0.00053748,7958.2,3.6904e-08,3920.1,-8.6079e-09,3919.8,0
8364,2.702e-14,3.0909,0.1,0.00040411,4038.3,0.00053748,7958.2,3.6904e-08,3920.1,-8.6079e-09,3919.8,0
8365,2.861e-14,3.2727,0.1,0.00040359,4033.1,0.00053678,7947.9,6.1409e-08,3915.2,-3.1999e-08,3914.5,0
8366,3.0199e-14,3.4545,0.1,0.00040251,4022.4,0.00053536,7926.9,9.2108e-08,3905.1,-6.0378e-08,3904,0
8367,3.1789e-14,3.6364,0.1,0.00040085,4005.7,0.00053315,7894.2,1.2775e-07,3889.3,-9.2293e-08,3887.6,0
8368,3.3378e-14,3.8182,0.1,0.00039852,3982.4,0.00053005,7848.3,1.6989e-07,3867,-1.2897e-07,3864.8,0
8369,3.4968e-14,4,0.1,0.0003954,3951.2,0.0005259,7787,2.2115e-07,3837.2,-1.7249e-07,3834.3,0
8370,3.6557e-14,4.1818,0.1,0.00039133,3910.6,0.0005205,7707.1,2.8541e-07,3798.4,-2.2587e-07,3794.5,0
8371,3.8147e-14,4.3636,0.1,0.00038608,3858.2,0.00051353,7603.9,3.685e-07,3748.3,-2.9357e-07,3743.3,0
8372,3.9736e-14,4.5455,0.1,0.00037931,3790.5,0.00050453,7470.9,4.7961e-07,3683.7,-3.8254e-07,3677.2,0
8373,4.1325e-14,4.7273,0.1,0.00037052,3702.6,0.00049285,7298.2,6.3399e-07,3599.9,-5.0429e-07,3591.3,0
8374,4.2915e-14,4.9091,0.1,0.00035892,3586.7,0.00047745,7070.6,8.5925e-07,3489.6,-6.7952e-07,3478.1,0
8375,4.4504e-14,5.0909,0.1,0.00034325,3430.1,0.00045665,6763,1.2022e-06,3341,-9.5006e-07,3324.8,0
8376,4.6094e-14,5.2727,0.1,0.00032129,3210.7,0.00042749,6332.3,1.7867e-06,3133.7,-1.4126e-06,3109.6,0
8377,4.7683e-14,5.4545,0.1,0.00028841,2882.1,0.00038382,5686.8,2.872e-06,2824.5,-2.343e-06,2785.3,0
8378,4.9273e-14,5.6364,0.1,0.00023644,2362.8,0.00031377,4637,3.7716e-06,2307.7,-4.9824e-06,2242,0
8379,5.0862e-14,5.8182,0.1,0.0001376,1375,0.00017547,2497.5,1.9425e-06,1193.7,-1.5731e-05,1060.9,0
8380,24,0,0.1,9.4742e-07,9.4676,7.6197e-07,5.4795,-1.1343e-07,-1.0979,-6.8222e-07,-5.3716,2.3116
8381,23.818,0,0.1,3.9218e-06,39.191,3.6795e-06,34.021,-7.2479e-07,0.92938,-2.0805e-06,-9.2566,2.2848
8382,23.635,0,0.1,7.4115e-06,74.064,7.178e-06,68.424,-1.8541e-06,0.56108,-3.3367e-06,-10.579,2.2579
8383,23.453,0,0.1,1.1025e-05,110.17,1.081e-05,104.68,-3.0554e-06,0.49647,-4.5386e-06,-10.648,2.2311
8384,23.27,0,0.1,1.474e-05,147.3,1.4535e-05,141.88,-4.2934e-06,0.41049,-5.7622e-06,-10.626,2.2043
8385,23.088,0,0.1,1.8512e-05,184.99,1.8316e-05,179.7,-5.5529e-06,0.35491,-6.9934e-06,-10.469,2.1775
8386,22.905,0,0.1,2.2324e-05,223.08,2.2136e-05,217.93,-6.8279e-06,0.30523,-8.2314e-06,-10.24,2.1507
8387,22.723,0,0.1,2.6164e-05,261.46,2.5984e-05,256.46,-8.114e-06,0.26314,-9.4744e-06,-9.9585,2.1239
8388,22.54,0,0.1,3.0026e-05,300.05,2.9854e-05,295.23,-9.4082e-06,0.22591,-1.0721e-05,-9.6395,2.0971
8389,22.358,0,0.1,3.3903e-05,338.8,3.3738e-05,334.15,-1.0708e-05,0.19271,-1.1971e-05,-9.2936,2.0704
8390,22.175,0,0.1,3.779e-05,377.64,3.7633e-05,373.18,-1.2012e-05,0.16274,-1.3222e-05,-8.9291,2.0437
8391,21.993,0,0.1,4.1682e-05,416.53,4.1532e-05,412.25,-1.3318e-05,0.13557,-1.4474e-05,-8.5531,2.017
8392,21.811,0,0.1,4.5572e-05,455.4,4.5429e-05,451.32,-1.4623e-05,0.11091,-1.5725e-05,-8.1718,1.9903
8393,21.628,0,0.1,4.9453e-05,494.19,4.9318e-05,490.29,-1.5925e-05,0.08861,-1.6973e-05,-7.791,1.9637
8394,21.446,0,0.1,5.3318e-05,532.82,5.319e-05,529.1,-1.7221e-05,0.068667,-1.8217e-05,-7.4162,1.937
8395,21.263,0,0.1,5.7156e-05,571.17,5.7034e-05,567.64,-1.8507e-05,0.051154,-1.9452e-05,-7.0532,1.9105
8396,21.081,0,0.1,6.0954e-05,609.12,6.0838e-05,605.76,-1.9779e-05,0.036226,-2.0676e-05,-6.7078,1.8839
8397,20.898,0,0.1,6.4695e-05,646.51,6.4585e-05,643.3,-2.103e-05,0.024152,-2.1883e-05,-6.3862,1.8574
8398,20.716,0,0.1,6.8359e-05,683.12,6.8254e-05,680.06,-2.2255e-05,0.015272,-2.3068e-05,-6.0949,1.831
8399,20.533,0,0.1,7.192e-05,718.7,7.1819e-05,715.77,-2.3443e-05,0.010004,-2.4222e-05,-5.8409,1.8046
8400,20.351,0,0.1,7.5345e-05,752.93,7.5247e-05,750.1,-2.4583e-05,0.008833,-2.5334e-05,-5.6319,1.7782
8401,20.168,0,0.1,7.8592e-05,785.38,7.8498e-05,782.63,-2.5663e-05,0.012255,-2.6393e-05,-5.4762,1.7519
8402,19.986,0,0.1,8.1612e-05,815.56,8.152e-05,812.87,-2.6663e-05,0.020755,-2.7382e-05,-5.3829,1.7256
8403,19.804,0,0.1,8.4342e-05,842.84,8.425e-05,840.16,-2.7564e-05,0.034733,-2.8282e-05,-5.3618,1.6994
8404,19.621,0,0.1,8.6703e-05,866.43,8.6611e-05,863.74,-2.8338e-05,0.05435,-2.9068e-05,-5.4236,1.6732
8405,19.439,0,0.1,8.8602e-05,885.4,8.8507e-05,882.64,-2.8955e-05,0.079381,-2.9708e-05,-5.5794,1.6472
8406,19.256,0,0.1,8.9922e-05,898.6,8.9823e-05,895.72,-2.9375e-05,0.10888,-3.0167e-05,-5.8403,1.6211
8407,19.074,0,0.1,9.0529e-05,904.66,9.0424e-05,901.61,-2.9554e-05,0.14077,-3.04e-05,-6.2165,1.5951
8408,18.891,0,0.1,9.0261e-05,901.98,9.0147e-05,898.69,-2.9438e-05,0.17127,-3.0355e-05,-6.715,1.5692
8409,18.709,0,0.1,8.8933e-05,888.72,8.881e-05,885.13,-2.8968e-05,0.19429,-2.997e-05,-7.336,1.5434
8410,18.526,0,0.1,8.6343e-05,862.84,8.6206e-05,858.87,-2.8076e-05,0.20041,-2.9176e-05,-8.0671,1.5176
8411,18.344,0,0.1,8.2274e-05,822.18,8.2123e-05,817.79,-2.6695e-05,0.17713,-2.79e-05,-8.8733,1.4918
8412,18.161,0,0.1,7.6515e-05,764.62,7.6347e-05,759.78,-2.476e-05,0.10537,-2.6063e-05,-9.6844,1.4661
8413,17.979,0,0.1,6.8878e-05,688.3,6.8695e-05,683.05,-2.2216e-05,-0.023971,-2.3593e-05,-10.37,1.4405
8414,17.796,0,0.1,5.9233e-05,591.92,5.9039e-05,586.36,-1.9035e-05,-0.26511,-2.0428e-05,-10.732,1.4149
8415,17.614,0,0.1,4.7512e-05,474.79,4.732e-05,469.29,-1.52e-05,-0.45914,-1.6522e-05,-10.39,1.3893
8416,17.432,0,0.1,3.3733e-05,337.1,3.3552e-05,331.9,-1.0784e-05,-1.22,-1.1825e-05,-9.0418,1.3638
8417,17.249,0,0.1,1.7525e-05,175.13,1.7408e-05,171.97,-5.3402e-06,1.0483,-6.4223e-06,-7.0827,1.3383
8418,17.067,0,0.1,1.8628e-06,18.615,1.4283e-06,16.77,7.2463e-07,11.483,-1.3249e-06,-3.9163,1.3128
8419,16.9,0,0.1,2.3408e-06,23.391,1.8249e-06,21.197,8.5842e-07,13.935,-1.6569e-06,-4.9645,1.286
8420,16.716,-6.96e-30,0.1,2.3144e-05,231.28,2.3067e-05,229.2,-7.1845e-06,1.9017,-8.2193e-06,-5.8731,1.2631
8421,16.533,-6.8835e-30,0.1,4.6618e-05,465.86,4.6508e-05,462.67,-1.5158e-05,-0.66104,-1.5824e-05,-5.6705,1.2401
8422,16.349,-6.807e-30,0.1,6.8358e-05,683.11,6.8267e-05,680.46,-2.2254e-05,0.32308,-2.3041e-05,-5.5876,1.2172
8423,16.165,-6.7305e-30,0.1,8.8626e-05,885.64,8.8545e-05,883.31,-2.8939e-05,0.5782,-2.971e-05,-5.2117,1.1944
8424,15.982,-6.6541e-30,0.1,0.00010724,1071.6,0.00010717,1069.7,-3.508e-05,0.89988,-3.5825e-05,-4.6947,1.1716
8425,15.798,-6.5776e-30,0.1,0.00012412,1240.4,0.00012407,1238.7,-4.0659e-05,1.0672,-4.137e-05,-4.2746,1.1488
8426,15.614,-6.5011e-30,0.1,0.00013929,1392,0.00013924,1390.5,-4.5673e-05,1.1481,-4.6358e-05,-3.9988,1.1262
8427,15.43,-6.4246e-30,0.1,0.00015286,1527.5,0.00015281,1526.1,-5.0154e-05,1.1524,-5.0823e-05,-3.8764,1.1037
8428,15.247,-6.3481e-30,0.1,0.00016497,1648.5,0.00016492,1647.1,-5.4154e-05,1.1061,-5.4818e-05,-3.8819,1.0812
8429,15.063,-6.2716e-30,0.1,0.0001758,1756.8,0.00017575,1755.3,-5.7731e-05,1.0283,-5.8398e-05,-3.9829,1.0589
8430,14.879,-6.1952e-30,0.1,0.00018555,1854.2,0.00018549,1852.6,-6.0947e-05,0.93459,-6.1623e-05,-4.1465,1.0366
8431,14.696,-6.1187e-30,0.1,0.00019437,1942.4,0.00019431,1940.6,-6.3858e-05,0.83571,-6.4548e-05,-4.3451,1.0146
8432,14.512,-6.0422e-30,0.1,0.00020244,2023,0.00020238,2021.1,-6.6518e-05,0.73874,-6.7223e-05,-4.5567,0.99259
8433,14.328,-5.9657e-30,0.1,0.00020989,2097.4,0.00020981,2095.3,-6.8972e-05,0.64781,-6.9692e-05,-4.7656,0.97076
8434,14.145,-5.8892e-30,0.1,0.00021682,2166.7,0.00021675,2164.5,-7.1258e-05,0.56499,-7.1994e-05,-4.9609,0.94908
8435,13.961,-5.8127e-30,0.1,0.00022335,2232,0.00022327,2229.6,-7.341e-05,0.49098,-7.4159e-05,-5.1361,0.92753
8436,13.777,-5.7363e-30,0.1,0.00022955,2294,0.00022947,2291.5,-7.5455e-05,0.42562,-7.6216e-05,-5.2879,0.90614
8437,13.593,-5.6598e-30,0.1,0.0002355,2353.3,0.00023541,2350.8,-7.7415e-05,0.36838,-7.8185e-05,-5.4149,0.88491
8438,13.41,-5.5833e-30,0.1,0.00024123,2410.7,0.00024115,2408.1,-7.9307e-05,0.31859,-8.0084e-05,-5.5171,0.86383
8439,13.226,-5.5068e-30,0.1,0.00024681,2466.4,0.00024672,2463.8,-8.1148e-05,0.27532,-8.1929e-05,-5.5955,0.84291
8440,13.042,-5.4303e-30,0.1,0.00025226,2520.9,0.00025217,2518.2,-8.2947e-05,0.2377,-8.3731e-05,-5.6517,0.82216
8441,12.859,-5.3538e-30,0.1,0.00025762,2574.4,0.00025753,2571.7,-8.4716e-05,0.2049,-8.55e-05,-5.6873,0.80158
8442,12.675,-5.2774e-30,0.1,0.00026291,2627.3,0.00026281,2624.5,-8.6462e-05,0.17622,-8.7244e-05,-5.7041,0.78118
8443,12.491,-5.2009e-30,0.1,0.00026814,2679.5,0.00026804,2676.8,-8.819e-05,0.15105,-8.897e-05,-5.7035,0.76095
8444,12.308,-5.1244e-30,0.1,0.00027333,2731.4,0.00027324,2728.6,-8.9907e-05,0.12876,-9.0681e-05,-5.6873,0.7409
8445,12.124,-5.0479e-30,0.1,0.0002785,2783.1,0.0002784,2780.3,-9.1615e-05,0.10881,-9.2382e-05,-5.6567,0.72103
8446,11.94,-4.9714e-30,0.1,0.00028365,2834.5,0.00028355,2831.8,-9.3318e-05,0.090742,-9.4077e-05,-5.6129,0.70135
8447,11.757,-4.8949e-30,0.1,0.00028879,2885.9,0.00028869,2883.1,-9.5018e-05,0.074234,-9.5768e-05,-5.5568,0.68187
8448,11.573,-4.8185e-30,0.1,0.00029393,2937.2,0.00029383,2934.5,-9.6719e-05,0.05901,-9.7457e-05,-5.4891,0.66257
8449,11.389,-4.742e-30,0.1,0.00029907,2988.6,0.00029897,2985.9,-9.842e-05,0.044692,-9.9146e-05,-5.4105,0.64348
8450,11.205,-4.6655e-30,0.1,0.00030421,3040,0.00030412,3037.4,-0.00010012,0.031006,-0.00010084,-5.3216,0.62458
8451,11.022,-4.589e-30,0.1,0.00030937,3091.6,0.00030928,3089,-0.00010183,0.017794,-0.00010253,-5.2227,0.60589
8452,10.838,-4.5125e-30,0.1,0.00031454,3143.2,0.00031445,3140.7,-0.00010354,0.0049295,-0.00010423,-5.1139,0.58741
8453,10.654,-4.436e-30,0.1,0.00031972,3195,0.00031964,3192.5,-0.00010526,-0.0078214,-0.00010593,-4.9955,0.56914
8454,10.471,-4.3596e-30,0.1,0.00032492,3247,0.00032484,3244.5,-0.00010699,-0.02065,-0.00010763,-4.8675,0.55109
8455,10.287,-4.2831e-30,0.1,0.00033014,3299.1,0.00033006,3296.8,-0.00010872,-0.033699,-0.00010934,-4.73,0.53326
8456,10.103,-4.2066e-30,0.1,0.00033538,3351.5,0.0003353,3349.2,-0.00011045,-0.047047,-0.00011106,-4.5827,0.51564
8457,9.9196,-4.1301e-30,0.1,0.00034064,3404.1,0.00034056,3401.8,-0.0001122,-0.060775,-0.00011278,-4.4256,0.49826
8458,9.7359,-4.0536e-30,0.1,0.00034592,3456.8,0.00034585,3454.7,-0.00011395,-0.075087,-0.00011451,-4.2585,0.4811
8459,9.5522,-3.9771e-30,0.1,0.00035123,3509.9,0.00035116,3507.8,-0.00011571,-0.090088,-0.00011624,-4.0812,0.46417
8460,9.3685,-3.9007e-30,0.1,0.00035656,3563.1,0.00035649,3561.1,-0.00011748,-0.10586,-0.00011798,-3.8934,0.44749
8461,9.1848,-3.8242e-30,0.1,0.00036191,3616.6,0.00036185,3614.7,-0.00011926,-0.12255,-0.00011973,-3.6949,0.43104
8462,9.0011,-3.7477e-30,0.1,0.00036729,3670.4,0.00036723,3668.6,-0.00012105,-0.14026,-0.00012149,-3.4854,0.41483
8463,8.8174,-3.6712e-30,0.1,0.0003727,3724.4,0.00037264,3722.7,-0.00012284,-0.15912,-0.00012326,-3.2646,0.39888
8464,8.6337,-3.5947e-30,0.1,0.00037814,3778.8,0.00037808,3777.2,-0.00012465,-0.17926,-0.00012503,-3.0323,0.38317
8465,8.45,-3.5182e-30,0.1,0.0003836,3833.4,0.00038355,3831.9,-0.00012647,-0.2008,-0.00012681,-2.7884,0.36772
8466,8.2663,-3.4418e-30,0.1,0.0003891,3888.3,0.00038905,3886.9,-0.0001283,-0.2239,-0.0001286,-2.5325,0.35253
8467,8.0826,-3.3653e-30,0.1,0.00039463,3943.6,0.00039458,3942.3,-0.00013014,-0.2487,-0.0001304,-2.2646,0.3376
8468,7.8989,-3.2888e-30,0.1,0.00040019,3999.1,0.00040015,3998,-0.00013199,-0.27536,-0.00013221,-1.9848,0.32294
8469,7.7152,-3.2123e-30,0.1,0.00040578,4055,0.00040575,4054,-0.00013385,-0.30405,-0.00013403,-1.6931,0.30855
8470,7.5315,-3.1358e-30,0.1,0.00041141,4111.3,0.00041138,4110.4,-0.00013573,-0.33494,-0.00013587,-1.3898,0.29443
8471,7.3478,-3.0593e-30,0.1,0.00041708,4167.9,0.00041706,4167.2,-0.00013761,-0.36821,-0.00013771,-1.0754,0.28059
8472,7.1641,-2.9829e-30,0.1,0.00042279,4224.9,0.00042277,4224.4,-0.00013952,-0.40402,-0.00013956,-0.75066,0.26703
8473,6.9804,-2.9064e-30,0.1,0.00042853,4282.4,0.00042852,4281.9,-0.00014143,-0.41324,-0.00014143,-0.44584,0.25375
8474,6.7967,-2.8299e-30,0.1,0.00043432,4340.2,0.00043431,4339.9,-0.00014331,-0.073346,-0.00014336,-0.48507,0.24076
8475,6.613,-2.7534e-30,0.1,0.00044015,4398.5,0.00044015,4398.3,-0.0001452,0.27552,-0.00014531,-0.53014,0.22807
8476,6.4293,-2.6769e-30,0.1,0.00044603,4457.2,0.00044603,4457.2,-0.00014711,0.62869,-0.00014727,-0.57889,0.21568
8477,6.2457,-2.6004e-30,0.1,0.00045195,4516.4,0.00045196,4516.6,-0.00014903,0.98333,-0.00014925,-0.63155,0.20358
8478,6.062,-2.524e-30,0.1,0.00045793,4576.1,0.00045794,4576.4,-0.00015097,1.336,-0.00015124,-0.68846,0.19179
8479,5.8783,-2.4475e-30,0.1,0.00046396,4636.4,0.00046397,4636.8,-0.00015293,1.6823,-0.00015325,-0.74994,0.18031
8480,5.6946,-2.371e-30,0.1,0.00047004,4697.1,0.00047006,4697.7,-0.0001549,2.0172,-0.00015528,-0.81638,0.16914
8481,5.5109,-2.2945e-30,0.1,0.00047617,4758.5,0.0004762,4759.2,-0.0001569,2.3344,-0.00015733,-0.88819,0.1583
8482,5.3272,-2.218e-30,0.1,0.00048237,4820.4,0.0004824,4821.2,-0.00015892,2.6261,-0.00015939,-0.96582,0.14777
8483,5.1435,-2.1415e-30,0.1,0.00048863,4882.9,0.00048866,4883.8,-0.00016095,2.8834,-0.00016148,-1.0498,0.13757
8484,4.9598,-2.0651e-30,0.1,0.00049494,4946,0.00049498,4947,-0.00016302,3.0955,-0.00016358,-1.1406,0.12769
8485,4.7761,-1.9886e-30,0.1,0.00050132,5009.8,0.00050136,5010.8,-0.0001651,3.2497,-0.0001657,-1.239,0.11816
8486,4.5924,-1.9121e-30,0.1,0.00050776,5074.1,0.0005078,5075.1,-0.00016722,3.3309,-0.00016784,-1.3458,0.10896
8487,4.4087,-1.8356e-30,0.1,0.00051427,5139.1,0.0005143,5140,-0.00016936,3.3216,-0.00016999,-1.4618,0.1001
8488,4.225,-1.7591e-30,0.1,0.00052083,5204.7,0.00052085,5205.5,-0.00017153,3.2013,-0.00017216,-1.5884,0.091594
8489,4.0413,-1.6826e-30,0.1,0.00052744,5270.8,0.00052746,5271.4,-0.00017372,2.9465,-0.00017435,-1.7273,0.083437
8490,3.8576,-1.6062e-30,0.1,0.0005341,5337.3,0.00053411,5337.7,-0.00017595,2.5301,-0.00017654,-1.8814,0.075638
8491,3.6739,-1.5297e-30,0.1,0.0005408,5404.3,0.0005408,5404.2,-0.0001782,1.9227,-0.00017873,-2.0558,0.068199
8492,3.4902,-1.4532e-30,0.1,0.00054752,5471.4,0.0005475,5470.8,-0.00018048,1.0949,-0.00018093,-2.2618,0.061125
8493,3.3065,-1.3767e-30,0.1,0.00055424,5538.6,0.0005542,5537.3,-0.00018277,0.032309,-0.00018311,-2.5327,0.054421
8494,3.1228,-1.3002e-30,0.1,0.00056093,5605.5,0.00056086,5603.4,-0.00018506,-1.1841,-0.0001853,-3.0056,0.048091
8495,2.9391,-1.2237e-30,0.1,0.00056756,5671.7,0.00056746,5668.6,-0.00018727,-2.1258,-0.00018754,-4.1758,0.042139
8496,2.7554,-1.1473e-30,0.1,0.00057407,5736.8,0.00057392,5732.3,-0.00018935,-2.6054,-0.00018984,-6.31,0.036571
8497,2.5717,-1.0708e-30,0.1,0.00058039,5799.9,0.00058019,5793.9,-0.00019132,-2.9389,-0.00019215,-9.1881,0.031389
8498,2.388,-9.9428e-31,0.1,0.00058644,5860.3,0.00058616,5852.3,-0.00019316,-3.2467,-0.00019443,-12.807,0.026598
8499,2.2043,-9.178e-31,0.1,0.00059208,5916.7,0.00059172,5906.2,-0.00019483,-3.5622,-0.00019665,-17.279,0.022202
8500,2.0207,-8.4132e-31,0.1,0.00059714,5967.3,0.00059668,5953.9,-0.00019625,-3.9006,-0.00019877,-22.775,0.018204
8501,1.837,-7.6483e-31,0.1,0.0006014,6009.8,0.00060082,5992.9,-0.00019735,-4.2718,-0.00020072,-29.525,0.014607
8502,1.6533,-6.8835e-31,0.1,0.00060453,6041.1,0.0006038,6019.8,-0.00019801,-4.6903,-0.00020242,-37.845,0.011412
8503,1.4696,-6.1187e-31,0.1,0.00060607,6056.5,0.00060515,6029.7,-0.00019804,-5.1565,-0.00020377,-48.166,0.0086224
8504,1.2859,-5.3538e-31,0.1,0.00060535,6049.3,0.00060419,6015.7,-0.00019721,-5.7334,-0.00020459,-61.164,0.0062368
8505,1.1022,-4.589e-31,0.1,0.00060133,6009.2,0.00059987,5966.8,-0.0001951,-6.2916,-0.00020461,-77.739,0.0042536
8506,0.91848,-3.8242e-31,0.1,0.00059239,5919.8,0.00059051,5865.6,-0.00019114,-7.3598,-0.00020345,-99.893,0.0026685
8507,0.73478,-3.0593e-31,0.1,0.00057569,5752.9,0.00057325,5683.2,-0.00018414,-7.5235,-0.00020043,-129.91,0.0014733
8508,0.55109,-2.2945e-31,0.1,0.0005457,5453.2,0.00054233,5358,-0.00017213,-10.26,-0.00019426,-176.47,0.00065406
8509,0.36739,-1.5297e-31,0.1,0.00049258,4922.4,0.00048749,4781.3,-0.00015106,-16.518,-0.00018305,-256.82,0.00018936
8510,0.1837,-7.6483e-32,0.1,0.00037901,3787.5,0.00036993,3567.7,-9.8e-05,51.869,-0.00016384,-442.87,4.9302e-05
8511,0,0,0.1,0.00022464,2244.9,0.00014803,760.44,-3.6913e-07,-354.55,-0.0001959,-1823.7,0
8512,3.937e-14,6,0.1,0.00022464,2244.9,0.00014803,760.44,-3.6912e-07,-354.55,-0.0001959,-1823.7,0
8513,0.1837,6,0.1,0.00037901,3787.5,0.00036993,3567.7,-9.8e-05,51.869,-0.00016384,-442.87,4.9302e-05
8514,0.36739,6,0.1,0.00049258,4922.4,0.00048748,4781.3,-0.00015106,-16.518,-0.00018305,-256.82,0.00018936
8515,0.55109,6,0.1,0.0005457,5453.2,0.00054233,5358,-0.00017213,-10.26,-0.00019426,-176.47,0.00065406
8516,0.73478,6,0.1,0.00057569,5752.9,0.00057325,5683.2,-0.00018414,-7.5235,-0.00020043,-129.91,0.0014733
8517,0.91848,6,0.1,0.00059239,5919.8,0.00059051,5865.6,-0.00019114,-7.3598,-0.00020345,-99.893,0.0026685
8518,1.1022,6,0.1,0.00060133,6009.2,0.00059987,5966.8,-0.0001951,-6.2916,-0.00020461,-77.739,0.0042536
8519,1.2859,6,0.1,0.00060535,6049.3,0.00060419,6015.7,-0.00019721,-5.7334,-0.00020459,-61.164,0.0062368
8520,1.4696,6,0.1,0.00060607,6056.5,0.00060515,6029.7,-0.00019804,-5.1565,-0.00020377,-48.166,0.0086224
8521,1.6533,6,0.1,0.00060453,6041.1,0.0006038,6019.8,-0.00019801,-4.6903,-0.00020242,-37.845,0.011412
8522,1.837,6,0.1,0.0006014,6009.8,0.00060082,5992.9,-0.00019735,-4.2718,-0.00020072,-29.525,0.014607
8523,2.0207,6,0.1,0.00059714,5967.3,0.00059668,5953.9,-0.00019625,-3.9006,-0.00019877,-22.775,0.018204
8524,2.2043,6,0.1,0.00059208,5916.7,0.00059172,5906.2,-0.00019483,-3.5621,-0.00019665,-17.279,0.022202
8525,2.388,6,0.1,0.00058644,5860.3,0.00058616,5852.3,-0.00019316,-3.2467,-0.00019443,-12.807,0.026598
8526,2.5717,6,0.1,0.00058039,5799.9,0.00058019,5793.9,-0.00019132,-2.9389,-0.00019215,-9.1881,0.031389
8527,2.7554,6,0.1,0.00057407,5736.8,0.00057392,5732.3,-0.00018935,-2.6054,-0.00018984,-6.3101,0.036571
8528,2.9391,6,0.1,0.00056756,5671.7,0.00056746,5668.6,-0.00018727,-2.1258,-0.00018754,-4.1758,0.042139
8529,3.1228,6,0.1,0.00056093,5605.5,0.00056086,5603.4,-0.00018506,-1.1842,-0.0001853,-3.0056,0.048091
8530,3.3065,6,0.1,0.00055424,5538.6,0.0005542,5537.3,-0.00018277,0.032293,-0.00018311,-2.5327,0.054421
8531,3.4902,6,0.1,0.00054752,5471.4,0.0005475,5470.8,-0.00018048,1.0949,-0.00018093,-2.2618,0.061125
8532,3.6739,6,0.1,0.0005408,5404.3,0.0005408,5404.2,-0.0001782,1.9227,-0.00017873,-2.0557,0.068199
8533,3.8576,6,0.1,0.0005341,5337.3,0.00053411,5337.7,-0.00017595,2.5301,-0.00017654,-1.8814,0.075638
8534,4.0413,6,0.1,0.00052744,5270.8,0.00052746,5271.4,-0.00017372,2.9465,-0.00017435,-1.7273,0.083437
8535,4.225,6,0.1,0.00052083,5204.7,0.00052085,5205.5,-0.00017153,3.2013,-0.00017216,-1.5884,0.091594
8536,4.4087,6,0.1,0.00051427,5139.1,0.0005143,5140,-0.00016936,3.3216,-0.00016999,-1.4618,0.1001
8537,4.5924,6,0.1,0.00050776,5074.1,0.0005078,5075.1,-0.00016722,3.3309,-0.00016784,-1.3458,0.10896
8538,4.7761,6,0.1,0.00050132,5009.8,0.00050136,5010.8,-0.0001651,3.2497,-0.0001657,-1.239,0.11816
8539,4.9598,6,0.1,0.00049494,4946,0.00049498,4947,-0.00016302,3.0955,-0.00016358,-1.1406,0.12769
8540,5.1435,6,0.1,0.00048863,4882.9,0.00048866,4883.8,-0.00016095,2.8834,-0.00016148,-1.0498,0.13757
8541,5.3272,6,0.1,0.00048237,4820.4,0.0004824,4821.2,-0.00015891,2.6261,-0.00015939,-0.96582,0.14777
8542,5.5109,6,0.1,0.00047617,4758.5,0.0004762,4759.2,-0.0001569,2.3344,-0.00015733,-0.88819,0.1583
8543,5.6946,6,0.1,0.00047004,4697.1,0.00047006,4697.7,-0.0001549,2.0172,-0.00015528,-0.81638,0.16914
8544,5.8783,6,0.1,0.00046396,4636.4,0.00046397,4636.8,-0.00015293,1.6824,-0.00015325,-0.74994,0.18031
8545,6.062,6,0.1,0.00045793,4576.1,0.00045794,4576.4,-0.00015097,1.336,-0.00015124,-0.68846,0.19179
8546,6.2457,6,0.1,0.00045195,4516.4,0.00045196,4516.6,-0.00014903,0.98334,-0.00014925,-0.63155,0.20358
8547,6.4293,6,0.1,0.00044603,4457.2,0.00044603,4457.2,-0.00014711,0.6287,-0.00014727,-0.57889,0.21568
8548,6.613,6,0.1,0.00044015,4398.5,0.00044015,4398.3,-0.0001452,0.27553,-0.00014531,-0.53014,0.22807
8549,6.7967,6,0.1,0.00043432,4340.2,0.00043431,4339.9,-0.00014331,-0.073336,-0.00014336,-0.48507,0.24076
8550,6.9804,6,0.1,0.00042853,4282.4,0.00042852,4281.9,-0.00014143,-0.41323,-0.00014143,-0.44584,0.25375
8551,7.1641,6,0.1,0.00042279,4224.9,0.00042277,4224.4,-0.00013952,-0.40402,-0.00013956,-0.75065,0.26703
8552,7.3478,6,0.1,0.00041708,4167.9,0.00041706,4167.2,-0.00013761,-0.36821,-0.00013771,-1.0754,0.28059
8553,7.5315,6,0.1,0.00041141,4111.3,0.00041138,4110.4,-0.00013573,-0.33494,-0.00013587,-1.3898,0.29443
8554,7.7152,6,0.1,0.00040578,4055,0.00040575,4054,-0.00013385,-0.30405,-0.00013403,-1.6931,0.30855
8555,7.8989,6,0.1,0.00040019,3999.1,0.00040015,3998,-0.00013199,-0.27536,-0.00013221,-1.9848,0.32294
8556,8.0826,6,0.1,0.00039463,3943.6,0.00039458,3942.3,-0.00013014,-0.2487,-0.0001304,-2.2646,0.3376
8557,8.2663,6,0.1,0.0003891,3888.3,0.00038905,3886.9,-0.0001283,-0.2239,-0.0001286,-2.5325,0.35253
8558,8.45,6,0.1,0.0003836,3833.4,0.00038355,3831.9,-0.00012647,-0.2008,-0.00012681,-2.7883,0.36772
8559,8.6337,6,0.1,0.00037814,3778.8,0.00037808,3777.2,-0.00012465,-0.17926,-0.00012503,-3.0323,0.38317
8560,8.8174,6,0.1,0.0003727,3724.4,0.00037264,3722.7,-0.00012284,-0.15912,-0.00012326,-3.2646,0.39888
8561,9.0011,6,0.1,0.00036729,3670.4,0.00036723,3668.6,-0.00012105,-0.14026,-0.00012149,-3.4854,0.41483
8562,9.1848,6,0.1,0.00036191,3616.6,0.00036185,3614.7,-0.00011926,-0.12255,-0.00011973,-3.6949,0.43104
8563,9.3685,6,0.1,0.00035656,3563.1,0.00035649,3561.1,-0.00011748,-0.10586,-0.00011798,-3.8934,0.44749
8564,9.5522,6,0.1,0.00035123,3509.9,0.00035116,3507.8,-0.00011571,-0.090087,-0.00011624,-4.0812,0.46417
8565,9.7359,6,0.1,0.00034592,3456.8,0.00034585,3454.7,-0.00011395,-0.075087,-0.00011451,-4.2585,0.4811
8566,9.9196,6,0.1,0.00034064,3404.1,0.00034056,3401.8,-0.0001122,-0.060774,-0.00011278,-4.4256,0.49826
8567,10.103,6,0.1,0.00033538,3351.5,0.0003353,3349.2,-0.00011045,-0.047047,-0.00011106,-4.5827,0.51564
8568,10.287,6,0.1,0.00033014,3299.1,0.00033006,3296.8,-0.00010872,-0.033698,-0.00010934,-4.7299,0.53326
8569,10.471,6,0.1,0.00032492,3247,0.00032484,3244.5,-0.00010699,-0.020649,-0.00010763,-4.8675,0.55109
8570,10.654,6,0.1,0.00031972,3195,0.00031964,3192.5,-0.00010526,-0.0078206,-0.00010593,-4.9955,0.56914
8571,10.838,6,0.1,0.00031454,3143.2,0.00031445,3140.7,-0.00010354,0.0049298,-0.00010423,-5.1139,0.58741
8572,11.022,6,0.1,0.00030937,3091.6,0.00030928,3089,-0.00010183,0.017795,-0.00010253,-5.2227,0.60589
8573,11.205,6,0.1,0.00030421,3040,0.00030412,3037.4,-0.00010012,0.031006,-0.00010084,-5.3216,0.62458
8574,11.389,6,0.1,0.00029907,2988.6,0.00029897,2985.9,-9.842e-05,0.044693,-9.9146e-05,-5.4105,0.64348
8575,11.573,6,0.1,0.00029393,2937.2,0.00029383,2934.5,-9.6719e-05,0.059009,-9.7457e-05,-5.489,0.66257
8576,11.757,6,0.1,0.00028879,2885.9,0.00028869,2883.1,-9.5018e-05,0.074234,-9.5768e-05,-5.5568,0.68187
8577,11.94,6,0.1,0.00028365,2834.5,0.00028355,2831.8,-9.3318e-05,0.090742,-9.4077e-05,-5.6129,0.70135
8578,12.124,6,0.1,0.0002785,2783.1,0.0002784,2780.3,-9.1615e-05,0.10881,-9.2382e-05,-5.6567,0.72103
8579,12.308,6,0.1,0.00027333,2731.4,0.00027324,2728.6,-8.9907e-05,0.12876,-9.0681e-05,-5.6873,0.7409
8580,12.491,6,0.1,0.00026814,2679.5,0.00026804,2676.8,-8.819e-05,0.15105,-8.897e-05,-5.7035,0.76095
8581,12.675,6,0.1,0.00026291,2627.3,0.00026281,2624.5,-8.6462e-05,0.17622,-8.7244e-05,-5.704,0.78118
8582,12.859,6,0.1,0.00025762,2574.4,0.00025753,2571.7,-8.4716e-05,0.2049,-8.55e-05,-5.6873,0.80158
8583,13.042,6,0.1,0.00025226,2520.9,0.00025217,2518.2,-8.2947e-05,0.2377,-8.3731e-05,-5.6516,0.82216
8584,13.226,6,0.1,0.00024681,2466.4,0.00024672,2463.8,-8.1148e-05,0.27532,-8.1929e-05,-5.5955,0.84291
8585,13.41,6,0.1,0.00024123,2410.7,0.00024115,2408.1,-7.9307e-05,0.31859,-8.0084e-05,-5.5171,0.86383
8586,13.593,6,0.1,0.0002355,2353.3,0.00023541,2350.8,-7.7415e-05,0.36838,-7.8185e-05,-5.4149,0.88491
8587,13.777,6,0.1,0.00022955,2294,0.00022947,2291.5,-7.5455e-05,0.42562,-7.6216e-05,-5.2879,0.90614
8588,13.961,6,0.1,0.00022335,2232,0.00022327,2229.6,-7.341e-05,0.49098,-7.4159e-05,-5.1361,0.92753
8589,14.145,6,0.1,0.00021682,2166.7,0.00021675,2164.5,-7.1258e-05,0.56499,-7.1994e-05,-4.9608,0.94908
8590,14.328,6,0.1,0.00020989,2097.4,0.00020981,2095.3,-6.8972e-05,0.64781,-6.9692e-05,-4.7655,0.97076
8591,14.512,6,0.1,0.00020244,2023,0.00020238,2021.1,-6.6518e-05,0.73874,-6.7223e-05,-4.5567,0.99259
8592,14.696,6,0.1,0.00019437,1942.4,0.00019431,1940.6,-6.3858e-05,0.83571,-6.4548e-05,-4.3451,1.0146
8593,14.879,6,0.1,0.00018555,1854.2,0.00018549,1852.6,-6.0947e-05,0.93459,-6.1623e-05,-4.1465,1.0366
8594,15.063,6,0.1,0.0001758,1756.8,0.00017575,1755.3,-5.7731e-05,1.0283,-5.8398e-05,-3.9828,1.0589
8595,15.247,6,0.1,0.00016497,1648.5,0.00016492,1647.1,-5.4154e-05,1.1061,-5.4818e-05,-3.8819,1.0812
8596,15.43,6,0.1,0.00015286,1527.5,0.00015281,1526.1,-5.0154e-05,1.1524,-5.0823e-05,-3.8764,1.1037
8597,15.614,6,0.1,0.00013929,1392,0.00013924,1390.5,-4.5673e-05,1.1481,-4.6358e-05,-3.9988,1.1262
8598,15.798,6,0.1,0.00012412,1240.4,0.00012407,1238.7,-4.0659e-05,1.0672,-4.137e-05,-4.2746,1.1488
8599,15.982,6,0.1,0.00010724,1071.6,0.00010717,1069.7,-3.508e-05,0.89988,-3.5825e-05,-4.6947,1.1716
8600,16.165,6,0.1,8.8626e-05,885.64,8.8545e-05,883.31,-2.8939e-05,0.57819,-2.971e-05,-5.2117,1.1944
8601,16.349,6,0.1,6.8358e-05,683.11,6.8267e-05,680.46,-2.2254e-05,0.32308,-2.3041e-05,-5.5876,1.2172
8602,16.533,6,0.1,4.6618e-05,465.86,4.6508e-05,462.67,-1.5158e-05,-0.66104,-1.5824e-05,-5.6705,1.2401
8603,16.716,6,0.1,2.3144e-05,231.28,2.3067e-05,229.2,-7.1845e-06,1.9017,-8.2193e-06,-5.8731,1.2631
8604,16.9,6,0.1,2.3408e-06,23.392,1.8249e-06,21.197,8.5842e-07,13.935,-1.6569e-06,-4.9645,1.286
8605,16.716,6,0,2.3144e-05,231.28,8.2193e-06,5.8731,7.1845e-06,-1.9017,-2.3067e-05,-229.2,1.2631
8606,16.533,6,0,4.6618e-05,465.86,1.5824e-05,5.6705,1.5158e-05,0.66104,-4.6508e-05,-462.67,1.2401
8607,16.349,6,0,6.8358e-05,683.11,2.3041e-05,5.5876,2.2254e-05,-0.32307,-6.8267e-05,-680.46,1.2172
8608,16.165,6,0,8.8626e-05,885.64,2.971e-05,5.2117,2.8939e-05,-0.5782,-8.8545e-05,-883.31,1.1944
8609,15.982,6,0,0.00010724,1071.6,3.5825e-05,4.6947,3.508e-05,-0.89988,-0.00010717,-1069.7,1.1716
8610,15.798,6,0,0.00012412,1240.4,4.137e-05,4.2746,4.0659e-05,-1.0672,-0.00012407,-1238.7,1.1488
8611,15.614,6,0,0.00013929,1392,4.6358e-05,3.9988,4.5673e-05,-1.1481,-0.00013924,-1390.5,1.1262
8612,15.43,6,0,0.00015286,1527.5,5.0823e-05,3.8764,5.0154e-05,-1.1524,-0.00015281,-1526.1,1.1037
8613,15.247,6,0,0.00016497,1648.5,5.4818e-05,3.8819,5.4154e-05,-1.1061,-0.00016492,-1647.1,1.0812
8614,15.063,6,0,0.0001758,1756.8,5.8398e-05,3.9829,5.7731e-05,-1.0283,-0.00017575,-1755.3,1.0589
8615,14.879,6,0,0.00018555,1854.2,6.1623e-05,4.1465,6.0947e-05,-0.93459,-0.00018549,-1852.6,1.0366
8616,14.696,6,0,0.00019437,1942.4,6.4548e-05,4.3451,6.3858e-05,-0.83571,-0.00019431,-1940.6,1.0146
8617,14.512,6,0,0.00020244,2023,6.7223e-05,4.5567,6.6518e-05,-0.73874,-0.00020238,-2021.1,0.99259
8618,14.328,6,0,0.00020989,2097.4,6.9692e-05,4.7655,6.8972e-05,-0.64781,-0.00020981,-2095.3,0.97076
8619,14.145,6,0,0.00021682,2166.7,7.1994e-05,4.9608,7.1258e-05,-0.56499,-0.00021675,-2164.5,0.94908
8620,13.961,6,0,0.00022335,2232,7.4159e-05,5.1361,7.341e-05,-0.49098,-0.00022327,-2229.6,0.92753
8621,13.777,6,0,0.00022955,2294,7.6216e-05,5.2879,7.5455e-05,-0.42561,-0.00022947,-2291.5,0.90614
8622,13.593,6,0,0.0002355,2353.3,7.8185e-05,5.4149,7.7415e-05,-0.36838,-0.00023541,-2350.8,0.88491
8623,13.41,6,0,0.00024123,2410.7,8.0084e-05,5.5171,7.9307e-05,-0.31859,-0.00024115,-2408.1,0.86383
8624,13.226,6,0,0.00024681,2466.4,8.1929e-05,5.5955,8.1148e-05,-0.27532,-0.00024672,-2463.8,0.84291
8625,13.042,6,0,0.00025226,2520.9,8.3731e-05,5.6516,8.2947e-05,-0.2377,-0.00025217,-2518.2,0.82216
8626,12.859,6,0,0.00025762,2574.4,8.55e-05,5.6873,8.4716e-05,-0.2049,-0.00025753,-2571.7,0.80158
8627,12.675,6,0,0.00026291,2627.3,8.7244e-05,5.7041,8.6462e-05,-0.17622,-0.00026281,-2624.5,0.78118
8628,12.491,6,0,0.00026814,2679.5,8.897e-05,5.7035,8.819e-05,-0.15105,-0.00026804,-2676.8,0.76095
8629,12.308,6,0,0.00027333,2731.4,9.0681e-05,5.6873,8.9907e-05,-0.12876,-0.00027324,-2728.6,0.7409
8630,12.124,6,0,0.0002785,2783.1,9.2382e-05,5.6567,9.1615e-05,-0.10881,-0.0002784,-2780.3,0.72103
8631,11.94,6,0,0.00028365,2834.5,9.4077e-05,5.6129,9.3318e-05,-0.090741,-0.00028355,-2831.8,0.70135
8632,11.757,6,0,0.00028879,2885.9,9.5768e-05,5.5568,9.5018e-05,-0.074233,-0.00028869,-2883.1,0.68187
8633,11.573,6,0,0.00029393,2937.2,9.7457e-05,5.489,9.6719e-05,-0.059009,-0.00029383,-2934.5,0.66257
8634,11.389,6,0,0.00029907,2988.6,9.9146e-05,5.4105,9.842e-05,-0.044692,-0.00029897,-2985.9,0.64348
8635,11.205,6,0,0.00030421,3040,0.00010084,5.3216,0.00010012,-0.031005,-0.00030412,-3037.4,0.62458
8636,11.022,6,0,0.00030937,3091.6,0.00010253,5.2227,0.00010183,-0.017795,-0.00030928,-3089,0.60589
8637,10.838,6,0,0.00031454,3143.2,0.00010423,5.1139,0.00010354,-0.0049297,-0.00031445,-3140.7,0.58741
8638,10.654,6,0,0.00031972,3195,0.00010593,4.9955,0.00010526,0.0078212,-0.00031964,-3192.5,0.56914
8639,10.471,6,0,0.00032492,3247,0.00010763,4.8675,0.00010699,0.02065,-0.00032484,-3244.5,0.55109
8640,10.287,6,0,0.00033014,3299.1,0.00010934,4.7299,0.00010872,0.033698,-0.00033006,-3296.8,0.53326
8641,10.103,6,0,0.00033538,3351.5,0.00011106,4.5827,0.00011045,0.047047,-0.0003353,-3349.2,0.51564
8642,9.9196,6,0,0.00034064,3404.1,0.00011278,4.4256,0.0001122,0.060774,-0.00034056,-3401.8,0.49826
8643,9.7359,6,0,0.00034592,3456.8,0.00011451,4.2585,0.00011395,0.075087,-0.00034585,-3454.7,0.4811
8644,9.5522,6,0,0.00035123,3509.9,0.00011624,4.0812,0.00011571,0.090088,-0.00035116,-3507.8,0.46417
8645,9.3685,6,0,0.00035656,3563.1,0.00011798,3.8934,0.00011748,0.10586,-0.00035649,-3561.1,0.44749
8646,9.1848,6,0,0.00036191,3616.6,0.00011973,3.6949,0.00011926,0.12255,-0.00036185,-3614.7,0.43104
8647,9.0011,6,0,0.00036729,3670.4,0.00012149,3.4854,0.00012105,0.14026,-0.00036723,-3668.6,0.41483
8648,8.8174,6,0,0.0003727,3724.4,0.00012326,3.2646,0.00012284,0.15912,-0.00037264,-3722.7,0.39888
8649,8.6337,6,0,0.00037814,3778.8,0.00012503,3.0323,0.00012465,0.17926,-0.00037808,-3777.2,0.38317
8650,8.45,6,0,0.0003836,3833.4,0.00012681,2.7883,0.00012647,0.2008,-0.00038355,-3831.9,0.36772
8651,8.2663,6,0,0.0003891,3888.3,0.0001286,2.5325,0.0001283,0.2239,-0.00038905,-3886.9,0.35253
8652,8.0826,6,0,0.00039463,3943.6,0.0001304,2.2646,0.00013014,0.2487,-0.00039458,-3942.3,0.3376
8653,7.8989,6,0,0.00040019,3999.1,0.00013221,1.9848,0.00013199,0.27536,-0.00040015,-3998,0.32294
8654,7.7152,6,0,0.00040578,4055,0.00013403,1.6931,0.00013385,0.30405,-0.00040575,-4054,0.30855
8655,7.5315,6,0,0.00041141,4111.3,0.00013587,1.3898,0.00013573,0.33494,-0.00041138,-4110.4,0.29443
8656,7.3478,6,0,0.00041708,4167.9,0.00013771,1.0754,0.00013761,0.36821,-0.00041706,-4167.2,0.28059
8657,7.1641,6,0,0.00042279,4224.9,0.00013956,0.75065,0.00013952,0.40402,-0.00042277,-4224.4,0.26703
8658,6.9804,6,0,0.00042853,4282.4,0.00014143,0.44584,0.00014143,0.41324,-0.00042852,-4281.9,0.25375
8659,6.7967,6,0,0.00043432,4340.2,0.00014336,0.48507,0.00014331,0.073338,-0.00043431,-4339.9,0.24076
8660,6.613,6,0,0.00044015,4398.5,0.00014531,0.53014,0.0001452,-0.27553,-0.00044015,-4398.3,0.22807
8661,6.4293,6,0,0.00044603,4457.2,0.00014727,0.57889,0.00014711,-0.6287,-0.00044603,-4457.2,0.21568
8662,6.2457,6,0,0.00045195,4516.4,0.00014925,0.63155,0.00014903,-0.98334,-0.00045196,-4516.6,0.20358
8663,6.062,6,0,0.00045793,4576.1,0.00015124,0.68846,0.00015097,-1.336,-0.00045794,-4576.4,0.19179
8664,5.8783,6,0,0.00046396,4636.4,0.00015325,0.74994,0.00015293,-1.6823,-0.00046397,-4636.8,0.18031
8665,5.6946,6,0,0.00047004,4697.1,0.00015528,0.81638,0.0001549,-2.0172,-0.00047006,-4697.7,0.16914
8666,5.5109,6,0,0.00047617,4758.5,0.00015733,0.88819,0.0001569,-2.3344,-0.0004762,-4759.2,0.1583
8667,5.3272,6,0,0.00048237,4820.4,0.00015939,0.96582,0.00015892,-2.6261,-0.0004824,-4821.2,0.14777
8668,5.1435,6,0,0.00048863,4882.9,0.00016148,1.0498,0.00016095,-2.8834,-0.00048866,-4883.8,0.13757
8669,4.9598,6,0,0.00049494,4946,0.00016358,1.1406,0.00016302,-3.0955,-0.00049498,-4947,0.12769
8670,4.7761,6,0,0.00050132,5009.8,0.0001657,1.239,0.0001651,-3.2497,-0.00050136,-5010.8,0.11816
8671,4.5924,6,0,0.00050776,5074.1,0.00016784,1.3458,0.00016722,-3.3309,-0.0005078,-5075.1,0.10896
8672,4.4087,6,0,0.00051427,5139.1,0.00016999,1.4618,0.00016936,-3.3216,-0.0005143,-5140,0.1001
8673,4.225,6,0,0.00052083,5204.7,0.00017216,1.5884,0.00017153,-3.2013,-0.00052085,-5205.5,0.091594
8674,4.0413,6,0,0.00052744,5270.8,0.00017435,1.7273,0.00017372,-2.9465,-0.00052746,-5271.4,0.083437
8675,3.8576,6,0,0.0005341,5337.3,0.00017654,1.8814,0.00017595,-2.5301,-0.00053411,-5337.7,0.075638
8676,3.6739,6,0,0.0005408,5404.3,0.00017873,2.0557,0.0001782,-1.9227,-0.0005408,-5404.2,0.068199
8677,3.4902,6,0,0.00054752,5471.4,0.00018093,2.2618,0.00018048,-1.0949,-0.0005475,-5470.8,0.061125
8678,3.3065,6,0,0.00055424,5538.6,0.00018311,2.5327,0.00018277,-0.032293,-0.0005542,-5537.3,0.054421
8679,3.1228,6,0,0.00056093,5605.5,0.0001853,3.0056,0.00018506,1.1842,-0.00056086,-5603.4,0.048091
8680,2.9391,6,0,0.00056756,5671.7,0.00018754,4.1758,0.00018727,2.1258,-0.00056746,-5668.6,0.042139
8681,2.7554,6,0,0.00057407,5736.8,0.00018984,6.3101,0.00018935,2.6054,-0.00057392,-5732.3,0.036571
8682,2.5717,6,0,0.00058039,5799.9,0.00019215,9.1881,0.00019132,2.9389,-0.00058019,-5793.9,0.031389
8683,2.388,6,0,0.00058644,5860.3,0.00019443,12.807,0.00019316,3.2467,-0.00058616,-5852.3,0.026598
8684,2.2043,6,0,0.00059208,5916.7,0.00019665,17.279,0.00019483,3.5621,-0.00059172,-5906.2,0.022202
8685,2.0207,6,0,0.00059714,5967.3,0.00019877,22.775,0.00019625,3.9006,-0.00059668,-5953.9,0.018204
8686,1.837,6,0,0.0006014,6009.8,0.00020072,29.525,0.00019735,4.2718,-0.00060082,-5992.9,0.014607
8687,1.6533,6,0,0.00060453,6041.1,0.00020242,37.845,0.00019801,4.6903,-0.0006038,-6019.8,0.011412
8688,1.4696,6,0,0.00060607,6056.5,0.00020377,48.166,0.00019804,5.1565,-0.00060515,-6029.7,0.0086224
8689,1.2859,6,0,0.00060535,6049.3,0.00020459,61.164,0.00019721,5.7334,-0.00060419,-6015.7,0.0062368
8690,1.1022,6,0,0.00060133,6009.2,0.00020461,77.739,0.0001951,6.2916,-0.00059987,-5966.8,0.0042536
8691,0.91848,6,0,0.00059239,5919.8,0.00020345,99.893,0.00019114,7.3598,-0.00059051,-5865.6,0.0026685
8692,0.73478,6,0,0.00057569,5752.9,0.00020043,129.91,0.00018414,7.5235,-0.00057325,-5683.2,0.0014733
8693,0.55109,6,0,0.0005457,5453.2,0.00019426,176.47,0.00017213,10.26,-0.00054233,-5358,0.00065406
8694,0.36739,6,0,0.00049258,4922.4,0.00018305,256.82,0.00015106,16.518,-0.00048748,-4781.3,0.00018936
8695,0.1837,6,0,0.00037901,3787.5,0.00016384,442.87,9.8e-05,-51.869,-0.00036993,-3567.7,4.9302e-05
8696,16.9,6,0,2.3408e-06,23.391,1.6569e-06,4.9645,-8.5842e-07,-13.935,-1.8249e-06,-21.197,1.286
8697,3.937e-14,6,0,0.00022464,2244.9,0.0001959,1823.7,3.6913e-07,354.55,-0.00014803,-760.44,0
8698,0.1837,-7.6483e-32,0,0.00037901,3787.5,0.00016384,442.87,9.8e-05,-51.869,-0.00036993,-3567.7,4.9302e-05
8699,0.36739,-1.5297e-31,0,0.00049258,4922.4,0.00018305,256.82,0.00015106,16.518,-0.00048748,-4781.3,0.00018936
8700,0.55109,-2.2945e-31,0,0.0005457,5453.2,0.00019426,176.47,0.00017213,10.26,-0.00054233,-5358,0.00065406
8701,0.73478,-3.0593e-31,0,0.00057569,5752.9,0.00020043,129.91,0.00018414,7.5235,-0.00057325,-5683.2,0.0014733
8702,0.91848,-3.8242e-31,0,0.00059239,5919.8,0.00020345,99.893,0.00019114,7.3598,-0.00059051,-5865.6,0.0026685
8703,1.1022,-4.589e-31,0,0.00060133,6009.2,0.00020461,77.739,0.0001951,6.2916,-0.00059987,-5966.8,0.0042536
8704,1.2859,-5.3538e-31,0,0.00060535,6049.3,0.00020459,61.164,0.00019721,5.7334,-0.00060419,-6015.7,0.0062368
8705,1.4696,-6.1187e-31,0,0.00060607,6056.5,0.00020377,48.166,0.00019804,5.1565,-0.00060515,-6029.7,0.0086224
8706,1.6533,-6.8835e-31,0,0.00060453,6041.1,0.00020242,37.845,0.00019801,4.6903,-0.0006038,-6019.8,0.011412
8707,1.837,-7.6483e-31,0,0.0006014,6009.8,0.00020072,29.525,0.00019735,4.2718,-0.00060082,-5992.9,0.014607
8708,2.0207,-8.4132e-31,0,0.00059714,5967.3,0.00019877,22.775,0.00019625,3.9006,-0.00059668,-5953.9,0.018204
8709,2.2043,-9.178e-31,0,0.00059208,5916.7,0.00019665,17.279,0.00019483,3.5621,-0.00059172,-5906.2,0.022202
8710,2.388,-9.9428e-31,0,0.00058644,5860.3,0.00019443,12.807,0.00019316,3.2467,-0.00058616,-5852.3,0.026598
8711,2.5717,-1.0708e-30,0,0.00058039,5799.9,0.00019215,9.1881,0.00019132,2.9389,-0.00058019,-5793.9,0.031389
8712,2.7554,-1.1473e-30,0,0.00057407,5736.8,0.00018984,6.31,0.00018935,2.6054,-0.00057392,-5732.3,0.036571
8713,2.9391,-1.2237e-30,0,0.00056756,5671.7,0.00018754,4.1758,0.00018727,2.1258,-0.00056746,-5668.6,0.042139
8714,3.1228,-1.3002e-30,0,0.00056093,5605.5,0.0001853,3.0056,0.00018506,1.1841,-0.00056086,-5603.4,0.048091
8715,3.3065,-1.3767e-30,0,0.00055424,5538.6,0.00018311,2.5327,0.00018277,-0.032308,-0.0005542,-5537.3,0.054421
8716,3.4902,-1.4532e-30,0,0.00054752,5471.4,0.00018093,2.2618,0.00018048,-1.0949,-0.0005475,-5470.8,0.061125
8717,3.6739,-1.5297e-30,0,0.0005408,5404.3,0.00017873,2.0558,0.0001782,-1.9227,-0.0005408,-5404.2,0.068199
8718,3.8576,-1.6062e-30,0,0.0005341,5337.3,0.00017654,1.8814,0.00017595,-2.5301,-0.00053411,-5337.7,0.075638
8719,4.0413,-1.6826e-30,0,0.00052744,5270.8,0.00017435,1.7273,0.00017372,-2.9465,-0.00052746,-5271.4,0.083437
8720,4.225,-1.7591e-30,0,0.00052083,5204.7,0.00017216,1.5884,0.00017153,-3.2013,-0.00052085,-5205.5,0.091594
8721,4.4087,-1.8356e-30,0,0.00051427,5139.1,0.00016999,1.4618,0.00016936,-3.3216,-0.0005143,-5140,0.1001
8722,4.5924,-1.9121e-30,0,0.00050776,5074.1,0.00016784,1.3458,0.00016722,-3.3309,-0.0005078,-5075.1,0.10896
8723,4.7761,-1.9886e-30,0,0.00050132,5009.8,0.0001657,1.239,0.0001651,-3.2497,-0.00050136,-5010.8,0.11816
8724,4.9598,-2.0651e-30,0,0.00049494,4946,0.00016358,1.1406,0.00016302,-3.0955,-0.00049498,-4947,0.12769
8725,5.1435,-2.1415e-30,0,0.00048863,4882.9,0.00016148,1.0498,0.00016095,-2.8834,-0.00048866,-4883.8,0.13757
8726,5.3272,-2.218e-30,0,0.00048237,4820.4,0.00015939,0.96582,0.00015891,-2.6261,-0.0004824,-4821.2,0.14777
8727,5.5109,-2.2945e-30,0,0.00047617,4758.5,0.00015733,0.88819,0.0001569,-2.3343,-0.0004762,-4759.2,0.1583
8728,5.6946,-2.371e-30,0,0.00047004,4697.1,0.00015528,0.81638,0.0001549,-2.0172,-0.00047006,-4697.7,0.16914
8729,5.8783,-2.4475e-30,0,0.00046396,4636.4,0.00015325,0.74994,0.00015293,-1.6823,-0.00046397,-4636.8,0.18031
8730,6.062,-2.524e-30,0,0.00045793,4576.1,0.00015124,0.68846,0.00015097,-1.336,-0.00045794,-4576.4,0.19179
8731,6.2457,-2.6004e-30,0,0.00045195,4516.4,0.00014925,0.63156,0.00014903,-0.98333,-0.00045196,-4516.6,0.20358
8732,6.4293,-2.6769e-30,0,0.00044603,4457.2,0.00014727,0.57889,0.00014711,-0.62869,-0.00044603,-4457.2,0.21568
8733,6.613,-2.7534e-30,0,0.00044015,4398.5,0.00014531,0.53014,0.0001452,-0.27552,-0.00044015,-4398.3,0.22807
8734,6.7967,-2.8299e-30,0,0.00043432,4340.2,0.00014336,0.48507,0.00014331,0.073348,-0.00043431,-4339.9,0.24076
8735,6.9804,-2.9064e-30,0,0.00042853,4282.4,0.00014143,0.44584,0.00014143,0.41325,-0.00042852,-4281.9,0.25375
8736,7.1641,-2.9829e-30,0,0.00042279,4224.9,0.00013956,0.75066,0.00013952,0.40402,-0.00042277,-4224.4,0.26703
8737,7.3478,-3.0593e-30,0,0.00041708,4167.9,0.00013771,1.0754,0.00013761,0.36821,-0.00041706,-4167.2,0.28059
8738,7.5315,-3.1358e-30,0,0.00041141,4111.3,0.00013587,1.3898,0.00013573,0.33494,-0.00041138,-4110.4,0.29443
8739,7.7152,-3.2123e-30,0,0.00040578,4055,0.00013403,1.6931,0.00013385,0.30405,-0.00040575,-4054,0.30855
8740,7.8989,-3.2888e-30,0,0.00040019,3999.1,0.00013221,1.9848,0.00013199,0.27536,-0.00040015,-3998,0.32294
8741,8.0826,-3.3653e-30,0,0.00039463,3943.6,0.0001304,2.2646,0.00013014,0.2487,-0.00039458,-3942.3,0.3376
8742,8.2663,-3.4418e-30,0,0.0003891,3888.3,0.0001286,2.5325,0.0001283,0.2239,-0.00038905,-3886.9,0.35253
8743,8.45,-3.5182e-30,0,0.0003836,3833.4,0.00012681,2.7884,0.00012647,0.2008,-0.00038355,-3831.9,0.36772
8744,8.6337,-3.5947e-30,0,0.00037814,3778.8,0.00012503,3.0323,0.00012465,0.17926,-0.00037808,-3777.2,0.38317
8745,8.8174,-3.6712e-30,0,0.0003727,3724.4,0.00012326,3.2646,0.00012284,0.15912,-0.00037264,-3722.7,0.39888
8746,9.0011,-3.7477e-30,0,0.00036729,3670.4,0.00012149,3.4854,0.00012105,0.14026,-0.00036723,-3668.6,0.41483
8747,9.1848,-3.8242e-30,0,0.00036191,3616.6,0.00011973,3.6949,0.00011926,0.12255,-0.00036185,-3614.7,0.43104
8748,9.3685,-3.9007e-30,0,0.00035656,3563.1,0.00011798,3.8934,0.00011748,0.10587,-0.00035649,-3561.1,0.44749
8749,9.5522,-3.9771e-30,0,0.00035123,3509.9,0.00011624,4.0812,0.00011571,0.090088,-0.00035116,-3507.8,0.46417
8750,9.7359,-4.0536e-30,0,0.00034592,3456.8,0.00011451,4.2585,0.00011395,0.075088,-0.00034585,-3454.7,0.4811
8751,9.9196,-4.1301e-30,0,0.00034064,3404.1,0.00011278,4.4256,0.0001122,0.060775,-0.00034056,-3401.8,0.49826
8752,10.103,-4.2066e-30,0,0.00033538,3351.5,0.00011106,4.5827,0.00011045,0.047047,-0.0003353,-3349.2,0.51564
8753,10.287,-4.2831e-30,0,0.00033014,3299.1,0.00010934,4.73,0.00010872,0.033699,-0.00033006,-3296.8,0.53326
8754,10.471,-4.3596e-30,0,0.00032492,3247,0.00010763,4.8675,0.00010699,0.02065,-0.00032484,-3244.5,0.55109
8755,10.654,-4.436e-30,0,0.00031972,3195,0.00010593,4.9955,0.00010526,0.0078217,-0.00031964,-3192.5,0.56914
8756,10.838,-4.5125e-30,0,0.00031454,3143.2,0.00010423,5.1139,0.00010354,-0.0049288,-0.00031445,-3140.7,0.58741
8757,11.022,-4.589e-30,0,0.00030937,3091.6,0.00010253,5.2227,0.00010183,-0.017794,-0.00030928,-3089,0.60589
8758,11.205,-4.6655e-30,0,0.00030421,3040,0.00010084,5.3216,0.00010012,-0.031005,-0.00030412,-3037.4,0.62458
8759,11.389,-4.742e-30,0,0.00029907,2988.6,9.9146e-05,5.4105,9.842e-05,-0.044692,-0.00029897,-2985.9,0.64348
8760,11.573,-4.8185e-30,0,0.00029393,2937.2,9.7457e-05,5.4891,9.6719e-05,-0.059009,-0.00029383,-2934.5,0.66257
8761,11.757,-4.8949e-30,0,0.00028879,2885.9,9.5768e-05,5.5568,9.5018e-05,-0.074233,-0.00028869,-2883.1,0.68187
8762,11.94,-4.9714e-30,0,0.00028365,2834.5,9.4077e-05,5.6129,9.3318e-05,-0.090742,-0.00028355,-2831.8,0.70135
8763,12.124,-5.0479e-30,0,0.0002785,2783.1,9.2382e-05,5.6567,9.1615e-05,-0.10881,-0.0002784,-2780.3,0.72103
8764,12.308,-5.1244e-30,0,0.00027333,2731.4,9.0681e-05,5.6873,8.9907e-05,-0.12876,-0.00027324,-2728.6,0.7409
8765,12.491,-5.2009e-30,0,0.00026814,2679.5,8.897e-05,5.7035,8.819e-05,-0.15105,-0.00026804,-2676.8,0.76095
8766,12.675,-5.2774e-30,0,0.00026291,2627.3,8.7244e-05,5.7041,8.6462e-05,-0.17622,-0.00026281,-2624.5,0.78118
8767,12.859,-5.3538e-30,0,0.00025762,2574.4,8.55e-05,5.6873,8.4716e-05,-0.2049,-0.00025753,-2571.7,0.80158
8768,13.042,-5.4303e-30,0,0.00025226,2520.9,8.3731e-05,5.6517,8.2947e-05,-0.2377,-0.00025217,-2518.2,0.82216
8769,13.226,-5.5068e-30,0,0.00024681,2466.4,8.1929e-05,5.5955,8.1148e-05,-0.27532,-0.00024672,-2463.8,0.84291
8770,13.41,-5.5833e-30,0,0.00024123,2410.7,8.0084e-05,5.5171,7.9307e-05,-0.31859,-0.00024115,-2408.1,0.86383
8771,13.593,-5.6598e-30,0,0.0002355,2353.3,7.8185e-05,5.4149,7.7415e-05,-0.36838,-0.00023541,-2350.8,0.88491
8772,13.777,-5.7363e-30,0,0.00022955,2294,7.6216e-05,5.2879,7.5455e-05,-0.42561,-0.00022947,-2291.5,0.90614
8773,13.961,-5.8127e-30,0,0.00022335,2232,7.4159e-05,5.1361,7.341e-05,-0.49097,-0.00022327,-2229.6,0.92753
8774,14.145,-5.8892e-30,0,0.00021682,2166.7,7.1994e-05,4.9609,7.1258e-05,-0.56499,-0.00021675,-2164.5,0.94908
8775,14.328,-5.9657e-30,0,0.00020989,2097.4,6.9692e-05,4.7656,6.8972e-05,-0.64781,-0.00020981,-2095.3,0.97076
8776,14.512,-6.0422e-30,0,0.00020244,2023,6.7223e-05,4.5567,6.6518e-05,-0.73874,-0.00020238,-2021.1,0.99259
8777,14.696,-6.1187e-30,0,0.00019437,1942.4,6.4548e-05,4.3451,6.3858e-05,-0.83571,-0.00019431,-1940.6,1.0146
8778,14.879,-6.1952e-30,0,0.00018555,1854.2,6.1623e-05,4.1465,6.0947e-05,-0.93459,-0.00018549,-1852.6,1.0366
8779,15.063,-6.2716e-30,0,0.0001758,1756.8,5.8398e-05,3.9829,5.7731e-05,-1.0283,-0.00017575,-1755.3,1.0589
8780,15.247,-6.3481e-30,0,0.00016497,1648.5,5.4818e-05,3.8819,5.4154e-05,-1.1061,-0.00016492,-1647.1,1.0812
8781,15.43,-6.4246e-30,0,0.00015286,1527.5,5.0823e-05,3.8764,5.0154e-05,-1.1524,-0.00015281,-1526.1,1.1037
8782,15.614,-6.5011e-30,0,0.00013929,1392,4.6358e-05,3.9988,4.5673e-05,-1.1481,-0.00013924,-1390.5,1.1262
8783,15.798,-6.5776e-30,0,0.00012412,1240.4,4.137e-05,4.2746,4.0659e-05,-1.0672,-0.00012407,-1238.7,1.1488
8784,15.982,-6.6541e-30,0,0.00010724,1071.6,3.5825e-05,4.6947,3.508e-05,-0.89988,-0.00010717,-1069.7,1.1716
8785,16.165,-6.7305e-30,0,8.8626e-05,885.64,2.971e-05,5.2117,2.8939e-05,-0.5782,-8.8545e-05,-883.31,1.1944
8786,16.349,-6.807e-30,0,6.8358e-05,683.11,2.3041e-05,5.5876,2.2254e-05,-0.32308,-6.8267e-05,-680.46,1.2172
8787,16.533,-6.8835e-30,0,4.6618e-05,465.86,1.5824e-05,5.6705,1.5158e-05,0.66104,-4.6508e-05,-462.67,1.2401
8788,16.716,-6.96e-30,0,2.3144e-05,231.28,8.2193e-06,5.8731,7.1845e-06,-1.9017,-2.3067e-05,-229.2,1.2631
8789,16.9,0,0,2.3408e-06,23.391,1.6569e-06,4.9645,-8.5842e-07,-13.935,-1.8249e-06,-21.197,1.286
8790,0,0,0,0.00022464,2244.9,0.0001959,1823.7,3.6913e-07,354.55,-0.00014803,-760.44,0
8791,17.249,0,0,1.7525e-05,175.13,6.4223e-06,7.0827,5.3402e-06,-1.0483,-1.7408e-05,-171.97,1.3383
8792,17.432,0,0,3.3733e-05,337.1,1.1825e-05,9.0418,1.0784e-05,1.22,-3.3552e-05,-331.9,1.3638
8793,17.614,0,0,4.7512e-05,474.79,1.6522e-05,10.39,1.52e-05,0.45914,-4.732e-05,-469.29,1.3893
8794,17.796,0,0,5.9233e-05,591.92,2.0428e-05,10.732,1.9035e-05,0.26511,-5.9039e-05,-586.36,1.4149
8795,17.979,0,0,6.8878e-05,688.3,2.3593e-05,10.37,2.2216e-05,0.023973,-6.8695e-05,-683.05,1.4405
8796,18.161,0,0,7.6515e-05,764.62,2.6063e-05,9.6844,2.476e-05,-0.10537,-7.6347e-05,-759.78,1.4661
8797,18.344,0,0,8.2274e-05,822.18,2.79e-05,8.8733,2.6695e-05,-0.17713,-8.2123e-05,-817.79,1.4918
8798,18.526,0,0,8.6343e-05,862.84,2.9176e-05,8.0671,2.8076e-05,-0.20041,-8.6206e-05,-858.87,1.5176
8799,18.709,0,0,8.8933e-05,888.72,2.997e-05,7.336,2.8968e-05,-0.19429,-8.881e-05,-885.13,1.5434
8800,18.891,0,0,9.0261e-05,901.98,3.0355e-05,6.715,2.9438e-05,-0.17127,-9.0147e-05,-898.69,1.5692
8801,19.074,0,0,9.0529e-05,904.66,3.04e-05,6.2165,2.9554e-05,-0.14076,-9.0424e-05,-901.61,1.5951
8802,19.256,0,0,8.9922e-05,898.6,3.0167e-05,5.8403,2.9375e-05,-0.10888,-8.9823e-05,-895.72,1.6211
8803,19.439,0,0,8.8602e-05,885.4,2.9708e-05,5.5794,2.8955e-05,-0.07938,-8.8507e-05,-882.64,1.6472
8804,19.621,0,0,8.6703e-05,866.43,2.9068e-05,5.4236,2.8338e-05,-0.05435,-8.6611e-05,-863.74,1.6732
8805,19.804,0,0,8.4342e-05,842.84,2.8282e-05,5.3618,2.7564e-05,-0.034732,-8.425e-05,-840.16,1.6994
8806,19.986,0,0,8.1612e-05,815.56,2.7382e-05,5.3829,2.6663e-05,-0.020754,-8.152e-05,-812.87,1.7256
8807,20.168,0,0,7.8592e-05,785.38,2.6393e-05,5.4762,2.5663e-05,-0.012252,-7.8498e-05,-782.63,1.7519
8808,20.351,0,0,7.5345e-05,752.93,2.5334e-05,5.6319,2.4583e-05,-0.0088324,-7.5247e-05,-750.1,1.7782
8809,20.533,0,0,7.192e-05,718.7,2.4222e-05,5.8409,2.3443e-05,-0.010004,-7.1819e-05,-715.77,1.8046
8810,20.716,0,0,6.8359e-05,683.12,2.3068e-05,6.0949,2.2255e-05,-0.015269,-6.8254e-05,-680.06,1.831
8811,20.898,0,0,6.4695e-05,646.51,2.1883e-05,6.3862,2.103e-05,-0.024151,-6.4585e-05,-643.3,1.8574
8812,21.081,0,0,6.0954e-05,609.12,2.0676e-05,6.7078,1.9779e-05,-0.036228,-6.0838e-05,-605.76,1.8839
8813,21.263,0,0,5.7156e-05,571.17,1.9452e-05,7.0532,1.8507e-05,-0.051155,-5.7034e-05,-567.64,1.9105
8814,21.446,0,0,5.3318e-05,532.82,1.8217e-05,7.4162,1.7221e-05,-0.068663,-5.319e-05,-529.1,1.937
8815,21.628,0,0,4.9453e-05,494.19,1.6973e-05,7.791,1.5925e-05,-0.088603,-4.9318e-05,-490.29,1.9637
8816,21.811,0,0,4.5572e-05,455.4,1.5725e-05,8.1718,1.4623e-05,-0.1109,-4.5429e-05,-451.32,1.9903
8817,21.993,0,0,4.1682e-05,416.53,1.4474e-05,8.5531,1.3318e-05,-0.13557,-4.1532e-05,-412.25,2.017
8818,22.175,0,0,3.779e-05,377.64,1.3222e-05,8.9291,1.2012e-05,-0.16274,-3.7633e-05,-373.18,2.0437
8819,22.358,0,0,3.3903e-05,338.8,1.1971e-05,9.2936,1.0708e-05,-0.1927,-3.3738e-05,-334.15,2.0704
8820,22.54,0,0,3.0026e-05,300.05,1.0721e-05,9.6395,9.4082e-06,-0.22591,-2.9854e-05,-295.23,2.0971
8821,22.723,0,0,2.6164e-05,261.46,9.4744e-06,9.9585,8.114e-06,-0.26314,-2.5984e-05,-256.46,2.1239
8822,22.905,0,0,2.2324e-05,223.08,8.2314e-06,10.24,6.8279e-06,-0.30522,-2.2136e-05,-217.93,2.1507
8823,23.088,0,0,1.8512e-05,184.99,6.9934e-06,10.469,5.5529e-06,-0.35491,-1.8316e-05,-179.7,2.1775
8824,23.27,0,0,1.474e-05,147.3,5.7622e-06,10.626,4.2934e-06,-0.41048,-1.4535e-05,-141.88,2.2043
8825,23.453,0,0,1.1025e-05,110.17,4.5386e-06,10.648,3.0554e-06,-0.49647,-1.081e-05,-104.68,2.2311
8826,23.635,0,0,7.4115e-06,74.064,3.3367e-06,10.579,1.8541e-06,-0.56107,-7.178e-06,-68.424,2.2579
8827,23.818,0,0,3.9218e-06,39.19,2.0805e-06,9.2566,7.2479e-07,-0.92938,-3.6795e-06,-34.021,2.2848
8828,17.067,0,0,1.8628e-06,18.615,1.3249e-06,3.9163,-7.2463e-07,-11.483,-1.4283e-06,-16.77,1.3128
8829,24,0,0,9.4741e-07,9.4676,6.8222e-07,5.3716,1.1343e-07,1.098,-7.6196e-07,-5.4794,2.3116
8830,5.0862e-14,5.8182,0,0.0001376,1375,1.5731e-05,-1060.9,-1.9425e-06,-1193.7,-0.00017547,-2497.5,0
8831,4.9273e-14,5.6364,0,0.00023644,2362.8,4.9824e-06,-2242,-3.7716e-06,-2307.7,-0.00031377,-4637,0
8832,4.7683e-14,5.4545,0,0.00028841,2882.1,2.343e-06,-2785.3,-2.872e-06,-2824.5,-0.00038382,-5686.8,0
8833,4.6094e-14,5.2727,0,0.00032129,3210.7,1.4126e-06,-3109.6,-1.7867e-06,-3133.7,-0.00042749,-6332.3,0
8834,4.4504e-14,5.0909,0,0.00034325,3430.1,9.5006e-07,-3324.8,-1.2022e-06,-3341,-0.00045665,-6763,0
8835,4.2915e-14,4.9091,0,0.00035892,3586.7,6.7952e-07,-3478.1,-8.5925e-07,-3489.6,-0.00047745,-7070.6,0
8836,4.1325e-14,4.7273,0,0.00037052,3702.6,5.0429e-07,-3591.3,-6.3399e-07,-3599.9,-0.00049285,-7298.2,0
8837,3.9736e-14,4.5455,0,0.00037931,3790.5,3.8254e-07,-3677.2,-4.7961e-07,-3683.7,-0.00050453,-7470.9,0
8838,3.8147e-14,4.3636,0,0.00038608,3858.2,2.9357e-07,-3743.3,-3.685e-07,-3748.3,-0.00051353,-7603.9,0
8839,3.6557e-14,4.1818,0,0.00039133,3910.6,2.2587e-07,-3794.5,-2.8541e-07,-3798.4,-0.0005205,-7707.1,0
8840,3.4968e-14,4,0,0.0003954,3951.2,1.7249e-07,-3834.3,-2.2115e-07,-3837.2,-0.0005259,-7787,0
8841,3.3378e-14,3.8182,0,0.00039852,3982.4,1.2897e-07,-3864.8,-1.6989e-07,-3867,-0.00053005,-7848.3,0
8842,3.1789e-14,3.6364,0,0.00040085,4005.7,9.2293e-08,-3887.6,-1.2775e-07,-3889.3,-0.00053315,-7894.2,0
8843,3.0199e-14,3.4545,0,0.00040251,4022.4,6.0378e-08,-3904,-9.2108e-08,-3905.1,-0.00053536,-7926.9,0
8844,2.861e-14,3.2727,0,0.00040359,4033.1,3.1999e-08,-3914.5,-6.1409e-08,-3915.2,-0.00053678,-7947.9,0
8845,2.702e-14,3.0909,0,0.00040411,4038.3,8.608e-09,-3919.8,-3.6904e-08,-3920.1,-0.00053748,-7958.2,0
8846,2.5431e-14,2.9091,0,0.00040411,4038.3,8.6078e-09,-3919.8,-3.6904e-08,-3920.1,-0.00053748,-7958.2,0
8847,2.3842e-14,2.7273,0,0.00040359,4033.1,3.1999e-08,-3914.5,-6.1409e-08,-3915.2,-0.00053678,-7947.9,0
8848,2.2252e-14,2.5455,0,0.00040251,4022.4,6.0378e-08,-3904,-9.2107e-08,-3905.1,-0.00053536,-7926.9,0
8849,2.0663e-14,2.3636,0,0.00040085,4005.7,9.2293e-08,-3887.6,-1.2775e-07,-3889.3,-0.00053315,-7894.2,0
8850,1.9073e-14,2.1818,0,0.00039852,3982.4,1.2897e-07,-3864.8,-1.6989e-07,-3867,-0.00053005,-7848.3,0
8851,1.7484e-14,2,0,0.0003954,3951.2,1.7249e-07,-3834.3,-2.2115e-07,-3837.2,-0.0005259,-7787,0
8852,1.5894e-14,1.8182,0,0.00039133,3910.6,2.2587e-07,-3794.5,-2.8541e-07,-3798.4,-0.0005205,-7707.1,0
8853,1.4305e-14,1.6364,0,0.00038608,3858.2,2.9357e-07,-3743.3,-3.685e-07,-3748.3,-0.00051353,-7603.9,0
8854,1.2716e-14,1.4545,0,0.00037931,3790.5,3.8254e-07,-3677.2,-4.7961e-07,-3683.7,-0.00050453,-7470.9,0
8855,1.1126e-14,1.2727,0,0.00037052,3702.6,5.0429e-07,-3591.3,-6.3399e-07,-3599.9,-0.00049285,-7298.2,0
8856,9.5366e-15,1.0909,0,0.00035892,3586.7,6.7952e-07,-3478.1,-8.5925e-07,-3489.6,-0.00047745,-7070.6,0
8857,7.9472e-15,0.90909,0,0.00034325,3430.1,9.5006e-07,-3324.8,-1.2022e-06,-3341,-0.00045665,-6763,0
8858,6.3578e-15,0.72727,0,0.00032129,3210.7,1.4126e-06,-3109.6,-1.7867e-06,-3133.7,-0.00042749,-6332.3,0
8859,4.7683e-15,0.54545,0,0.00028841,2882.1,2.343e-06,-2785.3,-2.872e-06,-2824.5,-0.00038382,-5686.8,0
8860,3.1789e-15,0.36364,0,0.00023644,2362.8,4.9824e-06,-2242,-3.7716e-06,-2307.7,-0.00031377,-4637,0
8861,1.5894e-15,0.18182,0,0.0001376,1375,1.5731e-05,-1060.9,-1.9425e-06,-1193.7,-0.00017547,-2497.5,0
8862,24,0.18182,0,3.5099e-06,35.075,3.3488e-06,32.007,-6.1257e-07,2.2424,-1.7976e-06,-6.6616,2.3117
8863,24,0.36364,0,5.782e-06,57.78,5.6482e-06,54.914,-1.3582e-06,2.2707,-2.5793e-06,-6.9047,2.3118
8864,24,0.54545,0,7.4672e-06,74.62,7.3456e-06,71.913,-1.9002e-06,2.4438,-3.1525e-06,-6.9651,2.3119
8865,24,0.72727,0,8.8216e-06,88.155,8.707e-06,85.523,-2.3472e-06,2.4663,-3.6033e-06,-6.9721,2.312
8866,24,0.90909,0,9.9353e-06,99.284,9.8259e-06,96.723,-2.7154e-06,2.4926,-3.9709e-06,-6.9408,2.3121
8867,24,1.0909,0,1.0863e-05,108.55,1.0757e-05,106.05,-3.0233e-06,2.5055,-4.2754e-06,-6.9021,2.3122
8868,24,1.2727,0,1.1638e-05,116.3,1.1536e-05,113.84,-3.2812e-06,2.5148,-4.529e-06,-6.8608,2.3123
8869,24,1.4545,0,1.2286e-05,122.78,1.2186e-05,120.36,-3.4971e-06,2.5205,-4.7404e-06,-6.8213,2.3124
8870,24,1.6364,0,1.2825e-05,128.17,1.2727e-05,125.78,-3.677e-06,2.5242,-4.916e-06,-6.7854,2.3125
8871,24,1.8182,0,1.327e-05,132.61,1.3174e-05,130.25,-3.8255e-06,2.5263,-5.0606e-06,-6.7538,2.3125
8872,24,2,0,1.3632e-05,136.23,1.3537e-05,133.89,-3.9465e-06,2.5275,-5.1782e-06,-6.7269,2.3126
8873,24,2.1818,0,1.3921e-05,139.11,1.3827e-05,136.8,-4.043e-06,2.5281,-5.2718e-06,-6.7047,2.3126
8874,24,2.3636,0,1.4143e-05,141.34,1.405e-05,139.03,-4.1174e-06,2.5283,-5.3438e-06,-6.687,2.3127
8875,24,2.5455,0,1.4305e-05,142.95,1.4212e-05,140.66,-4.1715e-06,2.5283,-5.3963e-06,-6.674,2.3127
8876,24,2.7273,0,1.4411e-05,144.01,1.4318e-05,141.72,-4.2069e-06,2.5282,-5.4305e-06,-6.6653,2.3127
8877,24,2.9091,0,1.4463e-05,144.53,1.4371e-05,142.24,-4.2244e-06,2.5281,-5.4474e-06,-6.661,2.3127
8878,24,3.0909,0,1.4463e-05,144.53,1.4371e-05,142.24,-4.2244e-06,2.5281,-5.4474e-06,-6.661,2.3127
8879,24,3.2727,0,1.4411e-05,144.01,1.4318e-05,141.72,-4.2069e-06,2.5282,-5.4305e-06,-6.6653,2.3127
8880,24,3.4545,0,1.4305e-05,142.95,1.4212e-05,140.66,-4.1715e-06,2.5283,-5.3963e-06,-6.674,2.3127
8881,24,3.6364,0,1.4143e-05,141.34,1.405e-05,139.03,-4.1174e-06,2.5283,-5.3438e-06,-6.687,2.3127
8882,24,3.8182,0,1.3921e-05,139.11,1.3827e-05,136.8,-4.043e-06,2.5281,-5.2718e-06,-6.7047,2.3126
8883,24,4,0,1.3632e-05,136.23,1.3537e-05,133.89,-3.9465e-06,2.5275,-5.1782e-06,-6.7269,2.3126
8884,24,4.1818,0,1.327e-05,132.61,1.3174e-05,130.25,-3.8255e-06,2.5263,-5.0606e-06,-6.7538,2.3125
8885,24,4.3636,0,1.2825e-05,128.17,1.2727e-05,125.78,-3.677e-06,2.5242,-4.916e-06,-6.7854,2.3125
8886,24,4.5455,0,1.2286e-05,122.78,1.2186e-05,120.36,-3.4971e-06,2.5205,-4.7404e-06,-6.8213,2.3124
8887,24,4.7273,0,1.1638e-05,116.3,1.1536e-05,113.84,-3.2812e-06,2.5148,-4.529e-06,-6.8608,2.3123
8888,24,4.9091,0,1.0863e-05,108.55,1.0757e-05,106.05,-3.0233e-06,2.5055,-4.2754e-06,-6.9021,2.3122
8889,24,5.0909,0,9.9353e-06,99.284,9.8259e-06,96.723,-2.7154e-06,2.4926,-3.9709e-06,-6.9408,2.3121
8890,24,5.2727,0,8.8216e-06,88.155,8.707e-06,85.523,-2.3472e-06,2.4663,-3.6033e-06,-6.9721,2.312
8891,24,5.4545,0,7.4672e-06,74.62,7.3456e-06,71.913,-1.9002e-06,2.4438,-3.1525e-06,-6.9651,2.3119
8892,24,5.6364,0,5.782e-06,57.78,5.6482e-06,54.914,-1.3582e-06,2.2707,-2.5793e-06,-6.9047,2.3118
8893,24,5.8182,0,3.5099e-06,35.075,3.3488e-06,32.007,-6.1257e-07,2.2424,-1.7976e-06,-6.6616,2.3117
8894,24,6,0,9.4741e-07,9.4676,6.8222e-07,5.3716,1.1343e-07,1.098,-7.6196e-07,-5.4794,2.3116
8895,23.818,6,0,3.9218e-06,39.19,2.0805e-06,9.2566,7.2479e-07,-0.92938,-3.6795e-06,-34.021,2.2848
8896,23.635,6,0,7.4115e-06,74.064,3.3367e-06,10.579,1.8541e-06,-0.56107,-7.178e-06,-68.424,2.2579
8897,23.453,6,0,1.1025e-05,110.17,4.5386e-06,10.648,3.0554e-06,-0.49647,-1.081e-05,-104.68,2.2311
8898,23.27,6,0,1.474e-05,147.3,5.7622e-06,10.626,4.2934e-06,-0.41048,-1.4535e-05,-141.88,2.2043
8899,23.088,6,0,1.8512e-05,184.99,6.9934e-06,10.469,5.5529e-06,-0.35491,-1.8316e-05,-179.7,2.1775
8900,22.905,6,0,2.2324e-05,223.08,8.2314e-06,10.24,6.8279e-06,-0.30523,-2.2136e-05,-217.93,2.1507
8901,22.723,6,0,2.6164e-05,261.46,9.4744e-06,9.9585,8.114e-06,-0.26314,-2.5984e-05,-256.46,2.1239
8902,22.54,6,0,3.0026e-05,300.05,1.0721e-05,9.6395,9.4083e-06,-0.22591,-2.9854e-05,-295.23,2.0971
8903,22.358,6,0,3.3903e-05,338.8,1.1971e-05,9.2936,1.0708e-05,-0.19271,-3.3738e-05,-334.15,2.0704
8904,22.175,6,0,3.779e-05,377.64,1.3222e-05,8.9291,1.2012e-05,-0.16274,-3.7633e-05,-373.18,2.0437
8905,21.993,6,0,4.1682e-05,416.53,1.4474e-05,8.5531,1.3318e-05,-0.13557,-4.1532e-05,-412.25,2.017
8906,21.811,6,0,4.5572e-05,455.4,1.5725e-05,8.1718,1.4623e-05,-0.1109,-4.5429e-05,-451.32,1.9903
8907,21.628,6,0,4.9453e-05,494.19,1.6973e-05,7.7909,1.5925e-05,-0.088607,-4.9318e-05,-490.29,1.9637
8908,21.446,6,0,5.3318e-05,532.82,1.8217e-05,7.4162,1.7221e-05,-0.068665,-5.319e-05,-529.1,1.937
8909,21.263,6,0,5.7156e-05,571.17,1.9452e-05,7.0532,1.8507e-05,-0.051151,-5.7034e-05,-567.64,1.9105
8910,21.081,6,0,6.0954e-05,609.12,2.0676e-05,6.7078,1.9779e-05,-0.036222,-6.0838e-05,-605.76,1.8839
8911,20.898,6,0,6.4695e-05,646.51,2.1884e-05,6.3862,2.103e-05,-0.024149,-6.4585e-05,-643.3,1.8574
8912,20.716,6,0,6.8359e-05,683.12,2.3068e-05,6.0949,2.2255e-05,-0.015271,-6.8254e-05,-680.06,1.831
8913,20.533,6,0,7.192e-05,718.7,2.4222e-05,5.8409,2.3443e-05,-0.010002,-7.1819e-05,-715.77,1.8046
8914,20.351,6,0,7.5345e-05,752.93,2.5334e-05,5.6319,2.4583e-05,-0.0088302,-7.5247e-05,-750.1,1.7782
8915,20.168,6,0,7.8592e-05,785.38,2.6393e-05,5.4762,2.5663e-05,-0.012252,-7.8498e-05,-782.64,1.7519
8916,19.986,6,0,8.1613e-05,815.56,2.7382e-05,5.3829,2.6663e-05,-0.020753,-8.152e-05,-812.87,1.7256
8917,19.804,6,0,8.4342e-05,842.84,2.8282e-05,5.3618,2.7564e-05,-0.034729,-8.425e-05,-840.16,1.6994
8918,19.621,6,0,8.6703e-05,866.43,2.9068e-05,5.4236,2.8338e-05,-0.05435,-8.6611e-05,-863.74,1.6732
8919,19.439,6,0,8.8602e-05,885.4,2.9708e-05,5.5794,2.8955e-05,-0.079381,-8.8507e-05,-882.64,1.6472
8920,19.256,6,0,8.9922e-05,898.6,3.0167e-05,5.8403,2.9375e-05,-0.10888,-8.9823e-05,-895.72,1.6211
8921,19.074,6,0,9.0529e-05,904.66,3.04e-05,6.2165,2.9554e-05,-0.14077,-9.0424e-05,-901.61,1.5951
8922,18.891,6,0,9.0261e-05,901.98,3.0355e-05,6.715,2.9438e-05,-0.17127,-9.0147e-05,-898.69,1.5692
8923,18.709,6,0,8.8933e-05,888.72,2.997e-05,7.336,2.8968e-05,-0.19429,-8.881e-05,-885.13,1.5434
8924,18.526,6,0,8.6343e-05,862.84,2.9176e-05,8.0671,2.8076e-05,-0.20041,-8.6206e-05,-858.87,1.5176
8925,18.344,6,0,8.2274e-05,822.18,2.79e-05,8.8733,2.6695e-05,-0.17713,-8.2123e-05,-817.79,1.4918
8926,18.161,6,0,7.6515e-05,764.62,2.6063e-05,9.6844,2.476e-05,-0.10537,-7.6347e-05,-759.78,1.4661
8927,17.979,6,0,6.8878e-05,688.3,2.3593e-05,10.37,2.2216e-05,0.023972,-6.8695e-05,-683.05,1.4405
8928,17.796,6,0,5.9233e-05,591.92,2.0428e-05,10.732,1.9035e-05,0.26511,-5.9039e-05,-586.36,1.4149
8929,17.614,6,0,4.7512e-05,474.79,1.6522e-05,10.39,1.52e-05,0.45914,-4.732e-05,-469.29,1.3893
8930,17.432,6,0,3.3733e-05,337.1,1.1825e-05,9.0418,1.0784e-05,1.22,-3.3552e-05,-331.9,1.3638
8931,17.249,6,0,1.7525e-05,175.13,6.4223e-06,7.0827,5.3402e-06,-1.0483,-1.7408e-05,-171.97,1.3383
8932,17.067,6,0,1.8628e-06,18.615,1.3249e-06,3.9163,-7.2463e-07,-11.483,-1.4283e-06,-16.77,1.3128
8933,16.9,1.8182,0,0.00036627,3660.2,0.00030168,2422.6,-2.1685e-05,-6.9702,-0.00025861,-1787.1,1.2952
8934,16.9,1.6364,0,0.00021223,2120.8,0.00016367,1258.9,2.575e-06,48.471,-0.00016225,-1190,1.2943
8935,16.9,1.4545,0,0.00016619,1660.7,0.00012757,964.33,8.8532e-07,12.497,-0.00012765,-953.27,1.2933
8936,16.9,1.2727,0,0.00012993,1298.4,9.7172e-05,718.61,3.4975e-06,14.775,-0.00010225,-779.75,1.2924
8937,16.9,1.0909,0,0.00010352,1034.5,7.5284e-05,540.75,4.6824e-06,10.272,-8.3382e-05,-651.41,1.2914
8938,16.9,0.90909,0,8.2229e-05,821.72,5.7696e-05,400.09,5.6905e-06,9.3476,-6.7967e-05,-544.09,1.2905
8939,16.9,0.72727,0,6.4176e-05,641.32,4.3011e-05,284.43,6.2429e-06,8.1682,-5.4566e-05,-448.73,1.2896
8940,16.9,0.54545,0,4.8181e-05,481.48,3.0349e-05,187.62,6.3709e-06,7.452,-4.2262e-05,-357.96,1.2887
8941,16.9,0.36364,0,3.3347e-05,333.24,1.9186e-05,106.71,5.955e-06,7.2981,-3.0275e-05,-264.92,1.2878
8942,16.9,0.18182,0,1.813e-05,181.18,9.0291e-06,40.817,4.347e-06,5.6381,-1.7082e-05,-155.37,1.2869
8943,16.9,2,0,0.00089316,8925.4,0.00047583,2105.7,0.00016058,-262.92,-0.0008379,-7765.1,1.2962
8944,17.067,0.18182,0,1.504e-05,150.3,6.7463e-06,23.738,4.0334e-06,3.3548,-1.4475e-05,-135.71,1.3132
8945,17.067,0.36364,0,2.7683e-05,276.64,1.3603e-05,58.001,6.5629e-06,5.1079,-2.6227e-05,-241.26,1.3136
8946,17.067,0.54545,0,3.9663e-05,396.36,2.0766e-05,98.237,8.3843e-06,5.2037,-3.7075e-05,-336.36,1.314
8947,17.067,0.72727,0,5.2384e-05,523.48,2.8667e-05,145.24,1.0115e-05,5.8515,-4.8402e-05,-433.82,1.3145
8948,17.067,0.90909,0,6.6715e-05,666.69,3.7766e-05,201.1,1.1919e-05,6.9012,-6.1018e-05,-541.12,1.3149
8949,17.067,1.0909,0,8.3761e-05,837.04,4.8757e-05,269.75,1.3903e-05,7.8671,-7.5906e-05,-666.92,1.3154
8950,17.067,1.2727,0,0.00010524,1051.7,6.2619e-05,357.94,1.6535e-05,11.688,-9.4587e-05,-823.24,1.3159
8951,17.067,1.4545,0,0.00013534,1352.4,8.2812e-05,488.53,1.9209e-05,10.641,-0.00012035,-1038,1.3164
8952,17.067,1.6364,0,0.00017316,1730.4,0.00010356,608.45,2.8178e-05,42.079,-0.000155,-1334.2,1.317
8953,17.067,1.8182,0,0.00030192,3017.1,0.00021095,1434.1,1.8915e-05,-8.7884,-0.00025056,-2033.5,1.3176
8954,17.067,2,0,0.00082921,8286.4,0.00037263,884.47,0.00017897,-570.6,-0.00081423,-8033.1,1.3183
8955,16.9,4.1818,0,0.00036627,3660.2,0.00030168,2422.6,-2.1685e-05,-6.9701,-0.00025861,-1787.1,1.2952
8956,16.9,4.3636,0,0.00021223,2120.8,0.00016367,1258.9,2.575e-06,48.471,-0.00016225,-1190,1.2943
8957,16.9,4.5455,0,0.00016619,1660.7,0.00012757,964.33,8.8534e-07,12.497,-0.00012765,-953.27,1.2933
8958,16.9,4.7273,0,0.00012993,1298.4,9.7172e-05,718.61,3.4975e-06,14.775,-0.00010225,-779.75,1.2924
8959,16.9,4.9091,0,0.00010352,1034.5,7.5284e-05,540.75,4.6824e-06,10.272,-8.3383e-05,-651.41,1.2914
8960,16.9,5.0909,0,8.2229e-05,821.72,5.7696e-05,400.09,5.6906e-06,9.3476,-6.7967e-05,-544.09,1.2905
8961,16.9,5.2727,0,6.4176e-05,641.32,4.3011e-05,284.43,6.2429e-06,8.1682,-5.4566e-05,-448.73,1.2896
8962,16.9,5.4545,0,4.8181e-05,481.48,3.0349e-05,187.62,6.3709e-06,7.452,-4.2262e-05,-357.96,1.2887
8963,16.9,5.6364,0,3.3347e-05,333.24,1.9186e-05,106.71,5.955e-06,7.2981,-3.0275e-05,-264.92,1.2878
8964,16.9,5.8182,0,1.813e-05,181.18,9.0291e-06,40.817,4.347e-06,5.6381,-1.7082e-05,-155.37,1.2869
8965,16.9,4,0,0.00089316,8925.4,0.00047583,2105.7,0.00016058,-262.92,-0.0008379,-7765.1,1.2962
8966,17.067,5.8182,0,1.504e-05,150.3,6.7463e-06,23.738,4.0334e-06,3.3548,-1.4475e-05,-135.71,1.3132
8967,17.067,5.6364,0,2.7683e-05,276.64,1.3603e-05,58.001,6.5629e-06,5.1079,-2.6227e-05,-241.26,1.3136
8968,17.067,5.4545,0,3.9663e-05,396.36,2.0766e-05,98.237,8.3843e-06,5.2037,-3.7075e-05,-336.36,1.314
8969,17.067,5.2727,0,5.2384e-05,523.48,2.8667e-05,145.24,1.0115e-05,5.8515,-4.8402e-05,-433.82,1.3145
8970,17.067,5.0909,0,6.6715e-05,666.69,3.7766e-05,201.1,1.1919e-05,6.9012,-6.1018e-05,-541.12,1.3149
8971,17.067,4.9091,0,8.3761e-05,837.04,4.8757e-05,269.75,1.3903e-05,7.8671,-7.5906e-05,-666.92,1.3154
8972,17.067,4.7273,0,0.00010524,1051.7,6.2619e-05,357.94,1.6535e-05,11.688,-9.4587e-05,-823.24,1.3159
8973,17.067,4.5455,0,0.00013534,1352.4,8.2812e-05,488.53,1.9209e-05,10.641,-0.00012035,-1038,1.3164
8974,17.067,4.3636,0,0.00017316,1730.4,0.00010356,608.45,2.8178e-05,42.079,-0.000155,-1334.2,1.317
8975,17.067,4.1818,0,0.00030192,3017.1,0.00021095,1434.1,1.8915e-05,-8.7883,-0.00025056,-2033.5,1.3176
8976,17.067,4,0,0.00082921,8286.4,0.00037263,884.47,0.00017897,-570.6,-0.00081423,-8033.1,1.3183
8977,16.9,2.2727,0,0.00053346,5330.9,0.0002328,710.82,0.00014239,31.577,-0.00051757,-4927.1,1.2971
8978,16.983,2.1818,0,0.00058211,5817.1,0.00024154,629.81,0.00016433,49.67,-0.00056838,-5455.6,1.3078
8979,16.808,2.1818,0,0.00051621,5158.5,0.00022816,732.74,0.00013675,45.91,-0.00049952,-4734.8,1.2848
8980,16.9,2.1818,0.05,3.7806e-05,377.8,2.9031e-05,218.13,2.467e-11,0.00042162,-2.9031e-05,-218.12,1.2968
8981,16.9,2.0909,0,0.00072625,7257.5,0.00035528,1365.1,0.00015943,-106.44,-0.00069356,-6515.4,1.2965
8982,16.9,2.4545,0,0.00044259,4422.8,0.00019213,558.03,0.00011694,-6.9159,-0.0004305,-4120.1,1.2975
8983,16.983,2.3636,0,0.00046542,4651,0.00019954,551.33,0.00012417,-14.981,-0.0004537,-4356.9,1.3083
8984,16.808,2.3636,0,0.00044232,4420.1,0.00019335,572.29,0.00011578,-10.58,-0.00042987,-4110.3,1.2852
8985,16.9,2.3636,0.05,5.9052e-06,59.012,4.5345e-06,34.071,1.9696e-11,0.00030345,-4.5345e-06,-34.07,1.2973
8986,16.9,2.6364,0,0.00040081,4005.3,0.00017202,484.08,0.0001075,-0.68645,-0.00039038,-3741.6,1.2977
8987,16.983,2.5455,0,0.00041179,4115,0.00017521,479.06,0.0001115,0.42803,-0.00040154,-3854.4,1.3086
8988,16.808,2.5455,0,0.00040112,4008.4,0.00017229,487.2,0.0001076,1.195,-0.00039059,-3742,1.2855
8989,16.9,2.5455,0.05,2.8091e-06,28.071,2.157e-06,16.207,1.2957e-11,0.00018938,-2.157e-06,-16.207,1.2976
8990,16.9,2.8182,0,0.00038046,3802,0.00016234,447.43,0.00010263,-1.2364,-0.00037088,-3559,1.2979
8991,16.983,2.7273,0,0.00038368,3834.1,0.0001626,437.23,0.00010419,-1.6442,-0.00037438,-3597.4,1.3088
8992,16.808,2.7273,0,0.00037874,3784.8,0.00016168,446.07,0.0001021,-1.5263,-0.00036919,-3542.6,1.2858
8993,16.9,2.7273,0.05,1.4063e-06,14.054,1.0799e-06,8.114,9.0854e-12,0.00013238,-1.0799e-06,-8.1139,1.2978
8994,16.9,3,0,0.00037438,3741.2,0.0001594,436.17,0.00010123,-0.86597,-0.00036505,-3504.3,1.298
8995,16.983,2.9091,0,0.00037162,3713.6,0.000157,417.77,0.00010128,-0.83434,-0.00036275,-3487.4,1.309
8996,16.808,2.9091,0,0.00036876,3685.1,0.00015679,427.09,9.9867e-05,-0.6148,-0.00035964,-3453.2,1.2859
8997,16.9,2.9091,0.05,7.4606e-07,7.4555,5.7289e-07,4.3044,4.8925e-12,5.7297e-05,-5.7288e-07,-4.3044,1.2979
8998,16.9,3.1818,0,0.00038046,3802,0.00016234,447.43,0.00010263,-1.2364,-0.00037088,-3559,1.2979
8999,16.983,3.0909,0,0.00037162,3713.6,0.000157,417.77,0.00010128,-0.83434,-0.00036275,-3487.4,1.309
9000,16.808,3.0909,0,0.00036876,3685.1,0.00015679,427.09,9.9867e-05,-0.61481,-0.00035964,-3453.2,1.2859
9001,16.9,3.0909,0.05,7.4606e-07,7.4555,5.7289e-07,4.3044,3.8228e-13,-3.4203e-06,-5.7288e-07,-4.3044,1.2979
9002,16.9,3.3636,0,0.00040081,4005.3,0.00017202,484.08,0.0001075,-0.68645,-0.00039038,-3741.6,1.2977
9003,16.983,3.2727,0,0.00038368,3834.1,0.0001626,437.23,0.00010419,-1.6442,-0.00037438,-3597.4,1.3088
9004,16.808,3.2727,0,0.00037874,3784.8,0.00016168,446.06,0.0001021,-1.5263,-0.00036919,-3542.6,1.2858
9005,16.9,3.2727,0.05,1.4063e-06,14.054,1.0799e-06,8.1139,-5.6325e-12,-4.5661e-05,-1.0799e-06,-8.1139,1.2978
9006,16.9,3.5455,0,0.00044259,4422.8,0.00019213,558.03,0.00011694,-6.9159,-0.0004305,-4120.1,1.2975
9007,16.983,3.4545,0,0.00041179,4115,0.00017521,479.06,0.0001115,0.42804,-0.00040154,-3854.4,1.3086
9008,16.808,3.4545,0,0.00040112,4008.4,0.00017229,487.2,0.0001076,1.195,-0.00039059,-3742,1.2855
9009,16.9,3.4545,0.05,2.8091e-06,28.071,2.157e-06,16.207,-9.2082e-12,-0.00011413,-2.157e-06,-16.207,1.2976
9010,16.9,3.7273,0,0.00053346,5330.9,0.0002328,710.82,0.00014239,31.577,-0.00051757,-4927.1,1.2971
9011,16.983,3.6364,0,0.00046542,4651,0.00019954,551.33,0.00012417,-14.981,-0.0004537,-4356.9,1.3083
9012,16.808,3.6364,0,0.00044232,4420.1,0.00019335,572.29,0.00011578,-10.58,-0.00042987,-4110.3,1.2852
9013,16.9,3.6364,0.05,5.9052e-06,59.012,4.5345e-06,34.07,-1.1264e-11,-0.0001743,-4.5345e-06,-34.07,1.2973
9014,16.983,3.8182,0,0.00058211,5817.1,0.00024154,629.81,0.00016433,49.669,-0.00056838,-5455.6,1.3078
9015,16.808,3.8182,0,0.00051621,5158.5,0.00022816,732.73,0.00013675,45.91,-0.00049952,-4734.8,1.2848
9016,16.9,3.8182,0.05,3.7806e-05,377.8,2.9031e-05,218.12,-2.1249e-11,-0.00032366,-2.9031e-05,-218.12,1.2968
9017,16.9,3.9091,0,0.00072625,7257.5,0.00035528,1365.1,0.00015943,-106.44,-0.00069356,-6515.4,1.2965
9018,17.067,2.2727,0,0.00052393,5235.7,0.0002169,535.05,0.00014576,0.4761,-0.00051277,-4947.4,1.3192
9019,17.158,2.1818,0,0.00049872,4983.8,0.00019754,395.15,0.00014402,-6.97,-0.0004909,-4777.5,1.3312
9020,17.067,2.1818,0.05,3.126e-05,312.38,2.4004e-05,180.35,7.8278e-12,0.0003056,-2.4004e-05,-180.35,1.3189
9021,17.067,2.0909,0,0.00068964,6891.6,0.00029275,626.53,0.00017085,-289.38,-0.00067932,-6677.2,1.3187
9022,17.067,2.4545,0,0.0004375,4372,0.00018501,490.32,0.00011876,-7.4658,-0.00042715,-4109.3,1.3196
9023,17.158,2.3636,0,0.00043188,4315.8,0.00017756,418.77,0.00012027,-11.668,-0.00042334,-4096.1,1.3316
9024,17.067,2.3636,0.05,6.6544e-06,66.498,5.1098e-06,38.393,1.6538e-11,0.00023681,-5.1098e-06,-38.393,1.3194
9025,17.067,2.6364,0,0.00039539,3951.1,0.0001664,436.75,0.0001082,-0.49269,-0.00038615,-3714.8,1.3198
9026,17.158,2.5455,0,0.00039016,3898.9,0.00016021,382.78,0.00010943,1.2288,-0.00038223,-3692.9,1.3319
9027,17.067,2.5455,0.05,3.16e-06,31.578,2.4265e-06,18.232,1.5404e-12,0.00014432,-2.4265e-06,-18.231,1.3197
9028,17.067,2.8182,0,0.00037496,3747,0.00015735,408.28,0.00010286,-1.2063,-0.00036635,-3526.6,1.32
9029,17.158,2.7273,0,0.00036755,3673,0.00015122,362.65,0.00010276,-1.4242,-0.00036005,-3478.8,1.3321
9030,17.067,2.7273,0.05,1.7815e-06,17.803,1.368e-06,10.279,7.1037e-13,5.4075e-05,-1.368e-06,-10.278,1.3199
9031,17.067,3,0,0.00036883,3685.8,0.00015457,399.15,0.00010134,-0.77285,-0.00036042,-3470.3,1.32
9032,17.158,2.9091,0,0.00035743,3571.8,0.00014694,351.76,0.00010006,-0.4459,-0.00035015,-3383.1,1.3322
9033,17.067,2.9091,0.05,1.2079e-06,12.071,9.2755e-07,6.9693,-3.1011e-12,2.7289e-05,-9.2755e-07,-6.9692,1.32
9034,17.067,3.1818,0,0.00037496,3747,0.00015735,408.28,0.00010286,-1.2063,-0.00036635,-3526.6,1.32
9035,17.158,3.0909,0,0.00035743,3571.8,0.00014694,351.76,0.00010006,-0.4459,-0.00035015,-3383.1,1.3322
9036,17.067,3.0909,0.05,1.2079e-06,12.071,9.2755e-07,6.9693,4.5817e-12,3.4503e-05,-9.2755e-07,-6.9693,1.32
9037,17.067,3.3636,0,0.00039539,3951.1,0.0001664,436.75,0.0001082,-0.49269,-0.00038615,-3714.8,1.3198
9038,17.158,3.2727,0,0.00036755,3673,0.00015122,362.65,0.00010276,-1.4242,-0.00036005,-3478.8,1.3321
9039,17.067,3.2727,0.05,1.7815e-06,17.803,1.368e-06,10.278,-9.3288e-13,1.5847e-05,-1.368e-06,-10.279,1.3199
9040,17.067,3.5455,0,0.0004375,4372,0.00018501,490.31,0.00011876,-7.4658,-0.00042715,-4109.3,1.3196
9041,17.158,3.4545,0,0.00039016,3898.9,0.00016021,382.78,0.00010943,1.2288,-0.00038223,-3692.9,1.3319
9042,17.067,3.4545,0.05,3.16e-06,31.578,2.4265e-06,18.231,1.7854e-12,-4.7105e-05,-2.4265e-06,-18.232,1.3197
9043,17.067,3.7273,0,0.00052393,5235.7,0.0002169,535.05,0.00014576,0.47611,-0.00051277,-4947.4,1.3192
9044,17.158,3.6364,0,0.00043188,4315.8,0.00017756,418.77,0.00012027,-11.668,-0.00042334,-4096.1,1.3316
9045,17.067,3.6364,0.05,6.6544e-06,66.498,5.1098e-06,38.393,-1.3115e-11,-0.00018226,-5.1098e-06,-38.393,1.3194
9046,17.158,3.8182,0,0.00049872,4983.8,0.00019754,395.15,0.00014402,-6.9699,-0.0004909,-4777.5,1.3312
9047,17.067,3.8182,0.05,3.126e-05,312.38,2.4004e-05,180.35,-3.5705e-12,-0.00022503,-2.4004e-05,-180.35,1.3189
9048,17.067,3.9091,0,0.00068964,6891.6,0.00029275,626.53,0.00017085,-289.38,-0.00067932,-6677.2,1.3187
9049,16.716,5.7273,0,4.2109e-05,420.8,2.1573e-05,92.435,8.6414e-06,-4.7285,-3.9766e-05,-368.44,1.2644
9050,16.624,5.8182,0,4.2783e-05,427.54,1.7868e-05,43.169,1.1566e-05,-4.1813,-4.1923e-05,-406.07,1.2525
9051,16.716,5.8182,0.05,4.5701e-06,45.67,3.5093e-06,26.368,4.4987e-13,5.4817e-06,-3.5093e-06,-26.368,1.2639
9052,16.716,5.9091,0,2.7122e-05,271.04,1.0975e-05,21.732,7.4356e-06,-4.8584,-2.6737e-05,-261.62,1.2635
9053,16.808,5.8182,0,2.3454e-05,234.38,1.0135e-05,29.854,6.3113e-06,1.1242,-2.2795e-05,-217.57,1.2754
9054,16.716,5.5455,0,6.0844e-05,608.02,3.5234e-05,188.86,9.73e-06,-2.7636,-5.5368e-05,-491.88,1.2652
9055,16.624,5.6364,0,5.4975e-05,549.37,2.6433e-05,101.03,1.2746e-05,-1.8155,-5.256e-05,-492.49,1.2533
9056,16.716,5.6364,0.05,4.1384e-06,41.356,3.1778e-06,23.877,3.2385e-13,5.3495e-06,-3.1778e-06,-23.877,1.2648
9057,16.808,5.6364,0,3.8892e-05,388.65,2.0952e-05,101.83,7.5743e-06,1.3154,-3.6149e-05,-327.21,1.2763
9058,16.716,5.3636,0,8.3059e-05,830.02,5.2179e-05,313.33,1.016e-05,-2.3814,-7.3134e-05,-628.22,1.2661
9059,16.624,5.4545,0,7.2796e-05,727.46,3.9974e-05,198.43,1.3405e-05,-1.1993,-6.7355e-05,-608,1.2542
9060,16.716,5.4545,0.05,4.3549e-06,43.519,3.344e-06,25.126,1.5173e-13,2.5226e-06,-3.344e-06,-25.126,1.2657
9061,16.808,5.4545,0,5.6238e-05,561.99,3.412e-05,197.16,7.9955e-06,0.86819,-5.0234e-05,-436.65,1.2772
9062,16.716,5.1818,0,0.00010827,1082,7.1687e-05,459.23,1.0266e-05,-2.2602,-9.284e-05,-776.96,1.267
9063,16.624,5.2727,0,9.4111e-05,940.46,5.6348e-05,318.59,1.3824e-05,-0.91642,-8.4541e-05,-739.99,1.255
9064,16.716,5.2727,0.05,4.8081e-06,48.048,3.692e-06,27.741,-3.4605e-13,-4.0439e-07,-3.692e-06,-27.741,1.2665
9065,16.808,5.2727,0,7.5365e-05,753.13,4.9087e-05,309.73,7.9775e-06,0.84926,-6.5167e-05,-548.73,1.2781
9066,16.716,5,0,0.00013737,1372.8,9.4275e-05,629.14,1.0194e-05,-2.6099,-0.00011533,-945.75,1.2679
9067,16.624,5.0909,0,0.00011882,1187.3,7.5271e-05,458.17,1.4182e-05,-0.82639,-0.00010418,-890.14,1.2559
9068,16.716,5.0909,0.05,5.4981e-06,54.943,4.2219e-06,31.721,-7.1302e-13,-1.3076e-05,-4.2219e-06,-31.721,1.2674
9069,16.808,5.0909,0,9.6978e-05,969.11,6.6256e-05,441.44,7.6376e-06,1.0092,-8.1624e-05,-669.67,1.279
9070,16.716,4.8182,0,0.00017212,1720,0.00012109,830.69,1.0209e-05,-2.4444,-0.00014215,-1147.2,1.2687
9071,16.624,4.9091,0,0.00014766,1475.6,9.7121e-05,618.43,1.4669e-05,-1.09,-0.00012705,-1065.9,1.2567
9072,16.716,4.9091,0.05,6.4843e-06,64.799,4.9792e-06,37.411,-2.9422e-12,-1.4108e-05,-4.9792e-06,-37.411,1.2683
9073,16.808,4.9091,0,0.00012226,1221.7,8.6484e-05,597.82,6.9633e-06,0.3317,-0.00010058,-807.68,1.2799
9074,16.716,4.6364,0,0.00021572,2155.7,0.00015422,1074.8,1.0428e-05,-5.562,-0.00017615,-1407.5,1.2696
9075,16.624,4.7273,0,0.00018222,1821,0.00012275,803.75,1.5701e-05,-0.5606,-0.0001547,-1280.9,1.2575
9076,16.716,4.7273,0.05,8.027e-06,80.215,6.1638e-06,46.312,-3.8463e-12,-3.2209e-05,-6.1638e-06,-46.312,1.2691
9077,16.808,4.7273,0,0.00015318,1530.7,0.00011108,789.21,6.4101e-06,2.7963,-0.00012371,-974.85,1.2808
9078,16.716,4.4545,0,0.00027482,2746.3,0.00019787,1393,1.2468e-05,-0.035828,-0.00022319,-1770.7,1.2704
9079,16.624,4.5455,0,0.00022486,2247.1,0.00015316,1013.6,1.769e-05,-4.2712,-0.00018966,-1562.3,1.2583
9080,16.716,4.5455,0.05,9.9754e-06,99.685,7.6599e-06,57.553,-5.1313e-12,-7.4256e-05,-7.6599e-06,-57.553,1.27
9081,16.808,4.5455,0,0.00019395,1938.1,0.00014373,1038.5,4.5217e-06,-7.4016,-0.00015392,-1197.9,1.2817
9082,16.716,4.2727,0,0.00035853,3582.8,0.00025155,1712.3,2.0837e-05,-21.252,-0.00029677,-2407.6,1.2712
9083,16.624,4.3636,0,0.00027988,2796.8,0.00018982,1256.1,2.3448e-05,6.1043,-0.00023659,-1947.7,1.2591
9084,16.716,4.3636,0.05,1.5117e-05,151.06,1.1608e-05,87.217,-1.4873e-11,-0.00012976,-1.1608e-05,-87.217,1.2708
9085,16.808,4.3636,0,0.00024831,2481.4,0.00018375,1345.8,8.6552e-06,30.176,-0.00019718,-1516.4,1.2825
9086,16.716,4.0909,0,0.00043992,4396.1,0.00027793,1611.3,4.4506e-05,-142.55,-0.00038784,-3391,1.2719
9087,16.624,4.1818,0,0.00035371,3534.7,0.0002286,1415.3,3.7288e-05,-22.18,-0.00030735,-2611.7,1.2598
9088,16.716,4.1818,0.05,2.9235e-05,292.15,2.2449e-05,168.67,-3.1162e-11,-0.00034633,-2.2449e-05,-168.67,1.2715
9089,16.808,4.1818,0,0.00035688,3566.3,0.00027599,2023.3,-1.1035e-05,-133.33,-0.00027187,-2093.1,1.2834
9090,16.716,3.9091,0,0.00045698,4566.7,0.00023854,1031.7,8.7647e-05,-102.03,-0.00043048,-3995,1.2725
9091,16.624,4,0,0.00040394,4036.6,0.00022473,1087.4,6.6654e-05,-100.3,-0.00037381,-3409.8,1.2604
9092,16.716,4,0.05,5.2756e-05,527.19,4.051e-05,304.37,-2.0443e-11,-0.00025834,-4.051e-05,-304.37,1.2722
9093,16.808,4,0,0.0006752,6747.3,0.00035828,1608.7,0.00012617,-135.26,-0.000633,-5839.4,1.2842
9094,16.716,3.7273,0,0.0004314,4311,0.00019415,634.97,0.00010996,2.3995,-0.00041706,-3957.4,1.273
9095,16.624,3.8182,0,0.00039706,3967.8,0.00018207,633.46,9.9604e-05,13.844,-0.0003824,-3607.7,1.2609
9096,16.716,3.8182,0.05,2.2056e-05,220.41,1.6936e-05,127.25,4.438e-12,-9.1619e-05,-1.6936e-05,-127.25,1.2728
9097,16.716,3.5455,0,0.00040249,4022.1,0.00017489,511.85,0.00010645,-2.4358,-0.00039135,-3742.7,1.2734
9098,16.624,3.6364,0,0.00038378,3835.1,0.00016711,491.1,0.00010115,-4.526,-0.00037309,-3567.7,1.2613
9099,16.716,3.6364,0.05,9.6172e-06,96.105,7.3848e-06,55.486,-4.951e-13,-0.00010154,-7.3848e-06,-55.487,1.2732
9100,16.716,3.3636,0,0.00037957,3793.1,0.00016237,452.42,0.00010221,0.38102,-0.00036984,-3546.4,1.2737
9101,16.624,3.4545,0,0.00036777,3675.2,0.00015649,428.6,9.9633e-05,1.3643,-0.00035859,-3441.6,1.2616
9102,16.716,3.4545,0.05,5.2339e-06,52.303,4.019e-06,30.197,-4.7762e-13,-5.4224e-05,-4.019e-06,-30.197,1.2735
9103,16.716,3.1818,0,0.00036713,3668.7,0.00015619,426.24,9.9348e-05,-0.88216,-0.00035802,-3437.4,1.2738
9104,16.624,3.2727,0,0.00035706,3568.1,0.0001508,400.88,9.7347e-05,-0.75663,-0.00034855,-3351,1.2618
9105,16.716,3.2727,0.05,3.0628e-06,30.607,2.3518e-06,17.671,2.5162e-13,-2.5416e-05,-2.3519e-06,-17.671,1.2737
9106,16.716,3,0,0.00036312,3628.7,0.00015416,417.84,9.8504e-05,-0.34256,-0.0003542,-3401.8,1.2739
9107,16.624,3.0909,0,0.00035166,3514.2,0.00014799,388.56,9.6247e-05,-0.23486,-0.00034344,-3303.8,1.2619
9108,16.716,3.0909,0.05,2.302e-06,23.004,1.7677e-06,13.282,1.0039e-12,1.135e-05,-1.7677e-06,-13.282,1.2738
9109,16.716,2.8182,0,0.00036713,3668.7,0.00015619,426.24,9.9348e-05,-0.88216,-0.00035802,-3437.4,1.2738
9110,16.624,2.9091,0,0.00035166,3514.2,0.00014799,388.56,9.6247e-05,-0.23486,-0.00034344,-3303.8,1.2619
9111,16.716,2.9091,0.05,2.302e-06,23.004,1.7677e-06,13.282,8.3937e-13,3.8419e-05,-1.7677e-06,-13.282,1.2738
9112,16.716,2.6364,0,0.00037957,3793.1,0.00016237,452.42,0.00010221,0.38102,-0.00036984,-3546.4,1.2737
9113,16.624,2.7273,0,0.00035706,3568.1,0.0001508,400.88,9.7347e-05,-0.75663,-0.00034855,-3351,1.2618
9114,16.716,2.7273,0.05,3.0628e-06,30.607,2.3519e-06,17.671,-2.0991e-12,8.2731e-05,-2.3518e-06,-17.671,1.2737
9115,16.716,2.4545,0,0.00040249,4022.1,0.00017489,511.85,0.00010645,-2.4358,-0.00039135,-3742.7,1.2734
9116,16.624,2.5455,0,0.00036777,3675.2,0.00015649,428.6,9.9633e-05,1.3643,-0.00035859,-3441.6,1.2616
9117,16.716,2.5455,0.05,5.2339e-06,52.303,4.019e-06,30.197,3.9223e-12,0.00011459,-4.019e-06,-30.197,1.2735
9118,16.716,2.2727,0,0.0004314,4311,0.00019415,634.97,0.00010996,2.3995,-0.00041706,-3957.4,1.273
9119,16.624,2.3636,0,0.00038378,3835.1,0.00016711,491.1,0.00010115,-4.526,-0.00037309,-3567.7,1.2613
9120,16.716,2.3636,0.05,9.6172e-06,96.105,7.3848e-06,55.487,4.1071e-12,0.00015376,-7.3848e-06,-55.486,1.2732
9121,16.716,2.0909,0,0.00045698,4566.7,0.00023854,1031.7,8.7646e-05,-102.03,-0.00043048,-3995,1.2725
9122,16.624,2.1818,0,0.00039706,3967.8,0.00018207,633.46,9.9604e-05,13.844,-0.0003824,-3607.7,1.2609
9123,16.716,2.1818,0.05,2.2056e-05,220.41,1.6936e-05,127.25,-4.6488e-12,0.00012512,-1.6936e-05,-127.25,1.2728
9124,16.716,1.9091,0,0.00043992,4396.1,0.00027793,1611.3,4.4506e-05,-142.55,-0.00038784,-3391,1.2719
9125,16.624,2,0,0.00040394,4036.6,0.00022473,1087.4,6.6654e-05,-100.3,-0.00037381,-3409.8,1.2604
9126,16.716,2,0.05,5.2756e-05,527.19,4.051e-05,304.37,2.5262e-11,0.00034073,-4.051e-05,-304.37,1.2722
9127,16.808,2,0,0.0006752,6747.3,0.00035828,1608.7,0.00012617,-135.26,-0.000633,-5839.4,1.2842
9128,16.716,1.7273,0,0.00035853,3582.8,0.00025155,1712.3,2.0837e-05,-21.252,-0.00029677,-2407.6,1.2712
9129,16.624,1.8182,0,0.00035371,3534.7,0.0002286,1415.3,3.7288e-05,-22.18,-0.00030735,-2611.7,1.2598
9130,16.716,1.8182,0.05,2.9235e-05,292.15,2.2449e-05,168.67,3.7661e-11,0.00041937,-2.2449e-05,-168.67,1.2715
9131,16.808,1.8182,0,0.00035688,3566.3,0.00027599,2023.3,-1.1035e-05,-133.33,-0.00027187,-2093.1,1.2834
9132,16.716,1.5455,0,0.00027482,2746.3,0.00019787,1393,1.2468e-05,-0.035824,-0.00022319,-1770.7,1.2704
9133,16.624,1.6364,0,0.00027988,2796.8,0.00018982,1256.1,2.3448e-05,6.1043,-0.00023659,-1947.7,1.2591
9134,16.716,1.6364,0.05,1.5117e-05,151.06,1.1608e-05,87.217,1.9883e-11,0.00015632,-1.1608e-05,-87.217,1.2708
9135,16.808,1.6364,0,0.00024831,2481.4,0.00018375,1345.8,8.6552e-06,30.176,-0.00019718,-1516.4,1.2825
9136,16.716,1.3636,0,0.00021572,2155.7,0.00015422,1074.8,1.0428e-05,-5.562,-0.00017615,-1407.5,1.2696
9137,16.624,1.4545,0,0.00022486,2247.1,0.00015316,1013.6,1.769e-05,-4.2712,-0.00018966,-1562.3,1.2583
9138,16.716,1.4545,0.05,9.9754e-06,99.685,7.6599e-06,57.553,8.5733e-12,0.00010203,-7.6599e-06,-57.553,1.27
9139,16.808,1.4545,0,0.00019395,1938.1,0.00014373,1038.5,4.5217e-06,-7.4016,-0.00015392,-1197.9,1.2817
9140,16.716,1.1818,0,0.00017212,1720,0.00012109,830.69,1.0209e-05,-2.4444,-0.00014215,-1147.2,1.2687
9141,16.624,1.2727,0,0.00018222,1821,0.00012275,803.75,1.5701e-05,-0.5606,-0.0001547,-1280.9,1.2575
9142,16.716,1.2727,0.05,8.027e-06,80.215,6.1638e-06,46.312,4.5855e-12,4.2581e-05,-6.1638e-06,-46.312,1.2691
9143,16.808,1.2727,0,0.00015318,1530.7,0.00011108,789.21,6.4101e-06,2.7963,-0.00012371,-974.85,1.2808
9144,16.716,1,0,0.00013737,1372.8,9.4275e-05,629.14,1.0194e-05,-2.6099,-0.00011533,-945.75,1.2679
9145,16.624,1.0909,0,0.00014766,1475.6,9.7121e-05,618.43,1.4669e-05,-1.09,-0.00012705,-1065.9,1.2567
9146,16.716,1.0909,0.05,6.4843e-06,64.798,4.9792e-06,37.411,4.494e-12,3.0889e-05,-4.9792e-06,-37.411,1.2683
9147,16.808,1.0909,0,0.00012226,1221.7,8.6484e-05,597.82,6.9632e-06,0.3317,-0.00010058,-807.68,1.2799
9148,16.716,0.81818,0,0.00010827,1082,7.1687e-05,459.23,1.0266e-05,-2.2602,-9.284e-05,-776.96,1.267
9149,16.624,0.90909,0,0.00011881,1187.3,7.5271e-05,458.17,1.4182e-05,-0.82639,-0.00010418,-890.14,1.2559
9150,16.716,0.90909,0.05,5.4981e-06,54.943,4.2219e-06,31.721,3.5355e-12,2.7481e-05,-4.2219e-06,-31.721,1.2674
9151,16.808,0.90909,0,9.6978e-05,969.11,6.6256e-05,441.44,7.6376e-06,1.0092,-8.1624e-05,-669.67,1.279
9152,16.716,0.63636,0,8.3059e-05,830.02,5.2179e-05,313.33,1.016e-05,-2.3814,-7.3134e-05,-628.22,1.2661
9153,16.624,0.72727,0,9.4111e-05,940.46,5.6348e-05,318.59,1.3824e-05,-0.91642,-8.4541e-05,-739.99,1.255
9154,16.716,0.72727,0.05,4.8081e-06,48.048,3.692e-06,27.741,5.8113e-13,1.2195e-05,-3.692e-06,-27.741,1.2665
9155,16.808,0.72727,0,7.5365e-05,753.13,4.9087e-05,309.73,7.9775e-06,0.84926,-6.5167e-05,-548.73,1.2781
9156,16.716,0.45455,0,6.0844e-05,608.02,3.5234e-05,188.86,9.73e-06,-2.7636,-5.5368e-05,-491.88,1.2652
9157,16.624,0.54545,0,7.2796e-05,727.46,3.9974e-05,198.43,1.3405e-05,-1.1993,-6.7355e-05,-608,1.2542
9158,16.716,0.54545,0.05,4.3549e-06,43.519,3.344e-06,25.126,1.2207e-13,7.7524e-06,-3.344e-06,-25.126,1.2657
9159,16.808,0.54545,0,5.6238e-05,561.99,3.412e-05,197.16,7.9955e-06,0.86819,-5.0234e-05,-436.65,1.2772
9160,16.716,0.27273,0,4.2109e-05,420.8,2.1573e-05,92.435,8.6414e-06,-4.7285,-3.9766e-05,-368.44,1.2644
9161,16.624,0.36364,0,5.4975e-05,549.37,2.6433e-05,101.03,1.2746e-05,-1.8155,-5.256e-05,-492.49,1.2533
9162,16.716,0.36364,0.05,4.1384e-06,41.356,3.1778e-06,23.877,-1.6944e-13,3.1509e-06,-3.1778e-06,-23.877,1.2648
9163,16.808,0.36364,0,3.8892e-05,388.65,2.0952e-05,101.83,7.5743e-06,1.3154,-3.6149e-05,-327.21,1.2763
9164,16.624,0.18182,0,4.2783e-05,427.54,1.7868e-05,43.169,1.1566e-05,-4.1813,-4.1923e-05,-406.07,1.2525
9165,16.716,0.18182,0.05,4.5701e-06,45.67,3.5093e-06,26.368,1.6336e-13,4.5817e-06,-3.5093e-06,-26.368,1.2639
9166,16.716,0.090909,0,2.7122e-05,271.04,1.0975e-05,21.732,7.4356e-06,-4.8584,-2.6737e-05,-261.62,1.2635
9167,16.808,0.18182,0,2.3454e-05,234.38,1.0135e-05,29.854,6.3113e-06,1.1242,-2.2795e-05,-217.57,1.2754
9168,16.533,5.7273,0,5.765e-05,576.1,2.4208e-05,62.887,1.5798e-05,-0.30867,-5.6324e-05,-542.2,1.2414
9169,16.441,5.8182,0,6.338e-05,633.36,2.4217e-05,39.76,1.8896e-05,-0.22581,-6.2612e-05,-612.65,1.2295
9170,16.533,5.8182,0.05,4.2626e-06,42.596,3.2731e-06,24.593,2.6356e-13,4.6924e-06,-3.2731e-06,-24.593,1.241
9171,16.533,5.9091,0,4.9051e-05,490.17,1.7665e-05,17.815,1.5301e-05,0.052341,-4.8722e-05,-480.99,1.2406
9172,16.533,5.5455,0,6.987e-05,698.21,3.3398e-05,127.31,1.6476e-05,0.16478,-6.6827e-05,-625.74,1.2423
9173,16.441,5.6364,0,7.1342e-05,712.93,3.0215e-05,81.184,1.9401e-05,-0.066089,-6.9614e-05,-668.89,1.2304
9174,16.533,5.6364,0.05,3.8054e-06,38.028,2.9221e-06,21.955,-6.1982e-22,1.4128e-06,-2.9221e-06,-21.955,1.2418
9175,16.533,5.3636,0,8.7019e-05,869.59,4.648e-05,221.25,1.7087e-05,0.40082,-8.1117e-05,-737.47,1.2431
9176,16.441,5.4545,0,8.4482e-05,844.24,4.027e-05,152.43,1.9991e-05,0.069352,-8.0849e-05,-757.61,1.2312
9177,16.533,5.4545,0.05,3.8611e-06,38.584,2.9649e-06,22.277,-1.1303e-13,-2.0457e-06,-2.9649e-06,-22.277,1.2427
9178,16.533,5.1818,0,0.00010798,1079,6.2331e-05,335.55,1.7745e-05,0.55277,-9.8282e-05,-871.23,1.2439
9179,16.441,5.2727,0,0.0001017,1016.3,5.3292e-05,245.09,2.0694e-05,0.15593,-9.5286e-05,-871.27,1.232
9180,16.533,5.2727,0.05,4.076e-06,40.732,3.1299e-06,23.517,-1.3971e-12,-1.0718e-05,-3.1299e-06,-23.517,1.2435
9181,16.533,5,0,0.00013274,1326.5,8.0704e-05,466.9,1.8654e-05,0.6727,-0.00011848,-1029.7,1.2448
9182,16.441,5.0909,0,0.00012255,1224.7,6.8714e-05,353.83,2.1645e-05,0.17299,-0.00011264,-1008.8,1.2328
9183,16.533,5.0909,0.05,4.439e-06,44.36,3.4086e-06,25.611,-1.8109e-12,-1.8155e-05,-3.4086e-06,-25.611,1.2443
9184,16.533,4.8182,0,0.00016203,1619.2,0.00010179,614.11,2.015e-05,0.70684,-0.0001426,-1222.1,1.2455
9185,16.441,4.9091,0,0.00014712,1470.2,8.6292e-05,474.98,2.3097e-05,0.15579,-0.00013317,-1173.9,1.2336
9186,16.533,4.9091,0.05,4.9717e-06,49.683,3.8176e-06,28.684,-1.8078e-12,-3.0424e-05,-3.8176e-06,-28.684,1.2451
9187,16.533,4.6364,0,0.00019672,1965.8,0.00012543,770.61,2.2947e-05,0.60764,-0.00017193,-1463.6,1.2463
9188,16.441,4.7273,0,0.00017587,1757.5,0.00010589,604.19,2.5481e-05,0.055743,-0.00015761,-1375.7,1.2343
9189,16.533,4.7273,0.05,5.6524e-06,56.485,4.3403e-06,32.611,-3.7446e-12,-4.8576e-05,-4.3403e-06,-32.611,1.2459
9190,16.533,4.4545,0,0.00023772,2375.6,0.00015053,917.47,2.8634e-05,1.6051,-0.00020844,-1779.7,1.247
9191,16.441,4.5455,0,0.000209,2088.5,0.00012662,728.56,2.9658e-05,0.0032326,-0.00018684,-1626.7,1.2351
9192,16.533,4.5455,0.05,6.8981e-06,68.933,5.2969e-06,39.799,-6.6803e-12,-7.6158e-05,-5.2969e-06,-39.799,1.2467
9193,16.533,4.2727,0,0.00028192,2817.3,0.00017135,992.83,3.9893e-05,5.1321,-0.00025164,-2185.3,1.2477
9194,16.441,4.3636,0,0.00024624,2460.7,0.00014648,821.82,3.7034e-05,-0.49071,-0.00022174,-1944.8,1.2357
9195,16.533,4.3636,0.05,6.4458e-06,64.414,4.9496e-06,37.189,-1.6129e-11,-0.00014286,-4.9496e-06,-37.189,1.2474
9196,16.533,4.0909,0,0.00031603,3158.1,0.00017415,881.96,5.9088e-05,17.452,-0.00029172,-2618.4,1.2483
9197,16.441,4.1818,0,0.00028176,2815.7,0.00015795,814.44,4.9934e-05,2.8454,-0.00025894,-2317.9,1.2363
9198,16.533,4.1818,0.05,9.1076e-06,91.013,6.9935e-06,52.547,-2.4721e-11,-0.00025557,-6.9935e-06,-52.547,1.248
9199,16.533,3.9091,0,0.0003377,3374.6,0.00016354,653.71,7.9335e-05,20.997,-0.00032174,-2992.5,1.2488
9200,16.441,4,0,0.00030534,3051.3,0.00015273,648.5,6.7921e-05,11.281,-0.00028908,-2671.1,1.2368
9201,16.533,4,0.05,7.6542e-06,76.489,5.8774e-06,44.161,-4.4256e-12,-9.0683e-05,-5.8774e-06,-44.161,1.2486
9202,16.533,3.7273,0,0.00034787,3476.3,0.00015386,480.74,9.0698e-05,6.2008,-0.00033715,-3208.5,1.2493
9203,16.441,3.8182,0,0.00032057,3203.5,0.00014417,472.61,8.1975e-05,5.3259,-0.00030987,-2938.9,1.2373
9204,16.533,3.8182,0.05,1.0633e-05,106.26,8.1648e-06,61.347,2.7128e-12,-5.7936e-05,-8.1648e-06,-61.347,1.249
9205,16.533,3.5455,0,0.00034857,3483.3,0.00014831,404.86,9.4322e-05,-0.79719,-0.00033992,-3263.6,1.2496
9206,16.441,3.6364,0,0.0003277,3274.8,0.00013935,380.03,8.8774e-05,0.038339,-0.00031958,-3068.2,1.2376
9207,16.533,3.6364,0.05,7.2068e-06,72.019,5.5339e-06,41.58,3.3442e-12,-4.3922e-05,-5.534e-06,-41.58,1.2494
9208,16.533,3.3636,0,0.00034506,3448.2,0.00014475,375.75,9.4769e-05,0.22206,-0.00033713,-3244.9,1.2498
9209,16.441,3.4545,0,0.00032914,3289.2,0.000137,345.34,9.1098e-05,0.42202,-0.0003219,-3102.7,1.2379
9210,16.533,3.4545,0.05,5.341e-06,53.374,4.1013e-06,30.815,2.3124e-12,-2.7083e-05,-4.1013e-06,-30.815,1.2497
9211,16.533,3.1818,0,0.00034143,3411.9,0.00014246,362.13,9.4247e-05,-0.10124,-0.00033382,-3216.4,1.25
9212,16.441,3.2727,0,0.00032796,3277.4,0.00013535,329.6,9.1499e-05,0.10026,-0.00032111,-3100.1,1.2381
9213,16.533,3.2727,0.05,3.7825e-06,37.799,2.9045e-06,21.823,1.3701e-12,-5.1948e-06,-2.9045e-06,-21.823,1.2499
9214,16.533,3,0,0.00034004,3398.1,0.00014168,358.22,9.3991e-05,-0.11705,-0.00033253,-3204.8,1.25
9215,16.441,3.0909,0,0.00032687,3266.5,0.00013451,323.64,9.1441e-05,0.024068,-0.00032016,-3092.6,1.2382
9216,16.533,3.0909,0.05,3.1209e-06,31.187,2.3964e-06,18.006,5.8729e-13,1.5855e-05,-2.3964e-06,-18.006,1.25
9217,16.533,2.8182,0,0.00034143,3411.9,0.00014246,362.13,9.4247e-05,-0.10124,-0.00033382,-3216.4,1.25
9218,16.441,2.9091,0,0.00032687,3266.5,0.00013451,323.64,9.1441e-05,0.024069,-0.00032016,-3092.6,1.2382
9219,16.533,2.9091,0.05,3.1209e-06,31.187,2.3964e-06,18.006,1.2237e-12,3.7544e-05,-2.3964e-06,-18.006,1.25
9220,16.533,2.6364,0,0.00034506,3448.2,0.00014475,375.75,9.4769e-05,0.22206,-0.00033713,-3244.9,1.2498
9221,16.441,2.7273,0,0.00032796,3277.4,0.00013535,329.6,9.1499e-05,0.10026,-0.00032111,-3100.1,1.2381
9222,16.533,2.7273,0.05,3.7825e-06,37.799,2.9045e-06,21.823,-1.3536e-12,5.0788e-05,-2.9045e-06,-21.823,1.2499
9223,16.533,2.4545,0,0.00034857,3483.3,0.00014831,404.86,9.4322e-05,-0.79718,-0.00033992,-3263.5,1.2496
9224,16.441,2.5455,0,0.00032914,3289.2,0.000137,345.34,9.1098e-05,0.42202,-0.0003219,-3102.7,1.2379
9225,16.533,2.5455,0.05,5.341e-06,53.374,4.1013e-06,30.815,-5.0378e-13,6.8912e-05,-4.1013e-06,-30.815,1.2497
9226,16.533,2.2727,0,0.00034787,3476.3,0.00015386,480.74,9.0698e-05,6.2008,-0.00033715,-3208.5,1.2493
9227,16.441,2.3636,0,0.0003277,3274.8,0.00013935,380.03,8.8774e-05,0.038339,-0.00031958,-3068.2,1.2376
9228,16.533,2.3636,0.05,7.2068e-06,72.019,5.534e-06,41.58,-3.0146e-12,8.2613e-05,-5.5339e-06,-41.58,1.2494
9229,16.533,2.0909,0,0.0003377,3374.6,0.00016354,653.71,7.9335e-05,20.997,-0.00032174,-2992.5,1.2488
9230,16.441,2.1818,0,0.00032057,3203.5,0.00014417,472.61,8.1975e-05,5.3259,-0.00030987,-2938.9,1.2373
9231,16.533,2.1818,0.05,1.0633e-05,106.26,8.1648e-06,61.347,-5.2059e-12,8.5348e-05,-8.1648e-06,-61.347,1.249
9232,16.533,1.9091,0,0.00031603,3158.1,0.00017415,881.96,5.9088e-05,17.452,-0.00029172,-2618.4,1.2483
9233,16.441,2,0,0.00030534,3051.3,0.00015273,648.5,6.7921e-05,11.281,-0.00028908,-2671.1,1.2368
9234,16.533,2,0.05,7.6542e-06,76.489,5.8774e-06,44.161,3.3771e-12,0.00014953,-5.8774e-06,-44.161,1.2486
9235,16.533,1.7273,0,0.00028192,2817.3,0.00017135,992.83,3.9893e-05,5.1321,-0.00025164,-2185.3,1.2477
9236,16.441,1.8182,0,0.00028176,2815.7,0.00015795,814.44,4.9934e-05,2.8454,-0.00025894,-2317.9,1.2363
9237,16.533,1.8182,0.05,9.1076e-06,91.013,6.9935e-06,52.547,3.4732e-11,0.0003446,-6.9935e-06,-52.547,1.248
9238,16.533,1.5455,0,0.00023772,2375.6,0.00015053,917.47,2.8634e-05,1.6051,-0.00020844,-1779.7,1.247
9239,16.441,1.6364,0,0.00024624,2460.7,0.00014648,821.82,3.7034e-05,-0.49071,-0.00022174,-1944.8,1.2357
9240,16.533,1.6364,0.05,6.4458e-06,64.414,4.9496e-06,37.189,1.7433e-11,0.00017969,-4.9496e-06,-37.189,1.2474
9241,16.533,1.3636,0,0.00019672,1965.8,0.00012543,770.61,2.2947e-05,0.60764,-0.00017193,-1463.6,1.2463
9242,16.441,1.4545,0,0.000209,2088.5,0.00012662,728.56,2.9658e-05,0.003235,-0.00018684,-1626.7,1.2351
9243,16.533,1.4545,0.05,6.8981e-06,68.933,5.2969e-06,39.799,9.448e-12,0.0001106,-5.2969e-06,-39.799,1.2467
9244,16.533,1.1818,0,0.00016203,1619.2,0.00010179,614.11,2.0149e-05,0.70685,-0.0001426,-1222.1,1.2455
9245,16.441,1.2727,0,0.00017587,1757.5,0.00010589,604.19,2.5481e-05,0.055744,-0.00015761,-1375.7,1.2343
9246,16.533,1.2727,0.05,5.6524e-06,56.485,4.3403e-06,32.611,5.5848e-12,6.5564e-05,-4.3403e-06,-32.611,1.2459
9247,16.533,1,0,0.00013274,1326.5,8.0704e-05,466.9,1.8654e-05,0.67271,-0.00011848,-1029.7,1.2448
9248,16.441,1.0909,0,0.00014712,1470.2,8.6292e-05,474.98,2.3097e-05,0.15579,-0.00013317,-1173.9,1.2336
9249,16.533,1.0909,0.05,4.9717e-06,49.683,3.8176e-06,28.684,4.0778e-12,4.4729e-05,-3.8176e-06,-28.684,1.2451
9250,16.533,0.81818,0,0.00010798,1079,6.2331e-05,335.55,1.7745e-05,0.55277,-9.8282e-05,-871.23,1.2439
9251,16.441,0.90909,0,0.00012255,1224.7,6.8714e-05,353.83,2.1645e-05,0.17299,-0.00011264,-1008.8,1.2328
9252,16.533,0.90909,0.05,4.439e-06,44.36,3.4086e-06,25.611,2.7204e-12,3.1201e-05,-3.4086e-06,-25.611,1.2443
9253,16.533,0.63636,0,8.7019e-05,869.59,4.648e-05,221.25,1.7087e-05,0.40082,-8.1117e-05,-737.47,1.2431
9254,16.441,0.72727,0,0.0001017,1016.3,5.3292e-05,245.09,2.0694e-05,0.15593,-9.5286e-05,-871.27,1.232
9255,16.533,0.72727,0.05,4.076e-06,40.732,3.1299e-06,23.517,1.6081e-12,1.9847e-05,-3.1299e-06,-23.517,1.2435
9256,16.533,0.45455,0,6.987e-05,698.21,3.3398e-05,127.31,1.6476e-05,0.16478,-6.6827e-05,-625.74,1.2423
9257,16.441,0.54545,0,8.4482e-05,844.24,4.027e-05,152.43,1.9991e-05,0.069354,-8.0849e-05,-757.61,1.2312
9258,16.533,0.54545,0.05,3.8611e-06,38.584,2.9649e-06,22.277,9.7087e-13,1.3032e-05,-2.9649e-06,-22.277,1.2427
9259,16.533,0.27273,0,5.765e-05,576.1,2.4208e-05,62.887,1.5798e-05,-0.30866,-5.6324e-05,-542.2,1.2414
9260,16.441,0.36364,0,7.1342e-05,712.93,3.0215e-05,81.184,1.9401e-05,-0.066088,-6.9614e-05,-668.89,1.2304
9261,16.533,0.36364,0.05,3.8054e-06,38.028,2.9221e-06,21.955,5.6989e-13,8.0018e-06,-2.9221e-06,-21.955,1.2418
9262,16.441,0.18182,0,6.338e-05,633.36,2.4217e-05,39.76,1.8896e-05,-0.2258,-6.2612e-05,-612.65,1.2295
9263,16.533,0.18182,0.05,4.2626e-06,42.596,3.2731e-06,24.593,3.8238e-13,2.9413e-06,-3.2731e-06,-24.593,1.241
9264,16.533,0.090909,0,4.9051e-05,490.17,1.7665e-05,17.815,1.5301e-05,0.052343,-4.8722e-05,-480.99,1.2406
9265,16.349,5.7273,0,7.7508e-05,774.55,3.0626e-05,61.077,2.2484e-05,-0.094679,-7.6289e-05,-742.24,1.2185
9266,16.257,5.8182,0,8.3707e-05,836.5,3.101e-05,40.986,2.5591e-05,0.26604,-8.2931e-05,-815.13,1.2066
9267,16.349,5.8182,0.05,4.062e-06,40.592,3.1191e-06,23.436,6.4892e-15,3.4841e-06,-3.1191e-06,-23.436,1.2181
9268,16.349,5.9091,0,7.0605e-05,705.56,2.4953e-05,19.822,2.2303e-05,-0.089733,-7.0248e-05,-695.49,1.2177
9269,16.349,5.5455,0,8.7033e-05,869.73,3.8005e-05,113.2,2.2916e-05,-0.16435,-8.4554e-05,-807.65,1.2193
9270,16.257,5.6364,0,9.0528e-05,904.66,3.655e-05,80.956,2.5772e-05,-0.022831,-8.8879e-05,-861.47,1.2075
9271,16.349,5.6364,0.05,3.6493e-06,36.468,2.8022e-06,21.055,-2.3228e-13,3.4627e-07,-2.8022e-06,-21.055,1.2189
9272,16.349,5.3636,0,0.00010081,1007.4,4.8405e-05,186.22,2.3598e-05,-0.1771,-9.6341e-05,-901.35,1.2201
9273,16.257,5.4545,0,0.00010116,1010.9,4.4697e-05,138.22,2.6297e-05,-0.034033,-9.8093e-05,-934.65,1.2083
9274,16.349,5.4545,0.05,3.6766e-06,36.741,2.8232e-06,21.212,-2.1352e-13,-2.7448e-06,-2.8232e-06,-21.212,1.2197
9275,16.349,5.1818,0,0.00011832,1182.4,6.1247e-05,275.17,2.4593e-05,-0.22945,-0.00011121,-1020.6,1.2209
9276,16.257,5.2727,0,0.00011533,1152.5,5.5164e-05,210.37,2.7151e-05,-0.10526,-0.0001103,-1032.9,1.2091
9277,16.349,5.2727,0.05,3.8012e-06,37.986,2.9188e-06,21.931,-8.5374e-13,-1.1546e-05,-2.9188e-06,-21.931,1.2205
9278,16.349,5,0,0.00013931,1392.2,7.6067e-05,375.18,2.6087e-05,-0.35157,-0.00012908,-1166.2,1.2217
9279,16.257,5.0909,0,0.0001328,1327,6.755e-05,293.59,2.8452e-05,-0.17243,-0.00012534,-1155.7,1.2098
9280,16.349,5.0909,0.05,3.9918e-06,39.89,3.0652e-06,23.031,-1.7703e-12,-2.0708e-05,-3.0652e-06,-23.031,1.2213
9281,16.349,4.8182,0,0.00016367,1635.5,9.2347e-05,479.76,2.8428e-05,-0.50017,-0.00015013,-1342.1,1.2224
9282,16.257,4.9091,0,0.00015332,1532.1,8.1383e-05,382.64,3.0417e-05,-0.30221,-0.00014318,-1304.6,1.2105
9283,16.349,4.9091,0.05,4.2272e-06,42.243,3.246e-06,24.389,-2.8352e-12,-2.7418e-05,-3.246e-06,-24.389,1.222
9284,16.349,4.6364,0,0.00019113,1910,0.00010918,577.93,3.2193e-05,-0.5446,-0.00017462,-1554.5,1.2231
9285,16.257,4.7273,0,0.00017659,1764.7,9.5953e-05,469.45,3.3416e-05,-0.42947,-0.00016386,-1482.7,1.2112
9286,16.349,4.7273,0.05,4.4207e-06,44.176,3.3945e-06,25.505,-4.5006e-12,-4.8509e-05,-3.3945e-06,-25.505,1.2228
9287,16.349,4.4545,0,0.00022021,2200.6,0.00012439,646.6,3.8056e-05,-2.1058,-0.00020195,-1805.4,1.2238
9288,16.257,4.5455,0,0.00020197,2018.3,0.00011006,541.02,3.7987e-05,-0.491,-0.00018725,-1692.8,1.2119
9289,16.349,4.5455,0.05,4.3385e-06,43.355,3.3314e-06,25.031,-5.0607e-12,-7.1463e-05,-3.3314e-06,-25.031,1.2234
9290,16.349,4.2727,0,0.00024774,2475.7,0.00013417,651.6,4.7078e-05,-2.756,-0.00023013,-2085.6,1.2244
9291,16.257,4.3636,0,0.00022737,2272.2,0.00012121,573.4,4.4663e-05,-1.7114,-0.00021212,-1931.1,1.2125
9292,16.349,4.3636,0.05,4.2055e-06,42.026,3.2293e-06,24.264,-1.0949e-11,-0.00012466,-3.2293e-06,-24.264,1.2241
9293,16.349,4.0909,0,0.0002706,2704.2,0.00013629,579.18,5.876e-05,-3.3807,-0.00025606,-2368.8,1.2249
9294,16.257,4.1818,0,0.00024987,2497,0.00012633,542.12,5.4047e-05,-0.98267,-0.0002362,-2181.8,1.213
9295,16.349,4.1818,0.05,3.7078e-06,37.052,2.8471e-06,21.392,-1.8475e-11,-0.00016844,-2.8471e-06,-21.392,1.2246
9296,16.349,3.9091,0,0.00028748,2872.8,0.0001329,464,7.0574e-05,-4.295,-0.00027678,-2614.2,1.2253
9297,16.257,4,0,0.00026744,2672.5,0.00012543,455.41,6.455e-05,-2.0562,-0.00025677,-2416.3,1.2135
9298,16.349,4,0.05,4.7234e-06,47.202,3.627e-06,27.252,-9.332e-12,-0.00013932,-3.627e-06,-27.252,1.2251
9299,16.349,3.7273,0,0.00029972,2995.2,0.00012911,367.79,8.0069e-05,-0.69947,-0.00029177,-2794.6,1.2257
9300,16.257,3.8182,0,0.00028051,2803.1,0.00012212,359.9,7.407e-05,-1.1033,-0.00027265,-2606.3,1.2138
9301,16.349,3.8182,0.05,5.0872e-06,50.837,3.9063e-06,29.351,-6.466e-12,-9.1399e-05,-3.9063e-06,-29.351,1.2255
9302,16.349,3.5455,0,0.00030776,3075.5,0.0001276,317.24,8.5546e-05,1.2276,-0.00030112,-2904,1.226
9303,16.257,3.6364,0,0.00029052,2903.2,0.00012041,298.86,8.0789e-05,1.1833,-0.00028427,-2741.7,1.2142
9304,16.349,3.6364,0.05,4.9621e-06,49.587,3.8103e-06,28.629,1.952e-12,-3.2348e-05,-3.8103e-06,-28.629,1.2258
9305,16.349,3.3636,0,0.00031169,3114.7,0.0001273,296.85,8.7825e-05,0.28199,-0.00030557,-2955.5,1.2262
9306,16.257,3.4545,0,0.00029683,2966.3,0.0001203,271.26,8.4239e-05,0.33157,-0.00029128,-2821.2,1.2144
9307,16.349,3.4545,0.05,4.1688e-06,41.659,3.2011e-06,24.052,2.4522e-12,-1.5968e-05,-3.2011e-06,-24.052,1.2261
9308,16.349,3.1818,0,0.00031314,3129.2,0.00012717,289.31,8.8692e-05,0.22371,-0.00030721,-2974.4,1.2263
9309,16.257,3.2727,0,0.0003001,2999,0.00012049,260.34,8.5884e-05,0.30483,-0.00029482,-2860.2,1.2145
9310,16.349,3.2727,0.05,3.5438e-06,35.414,2.7212e-06,20.446,4.5005e-12,4.6923e-07,-2.7212e-06,-20.446,1.2263
9311,16.349,3,0,0.00031346,3132.4,0.00012712,287.43,8.8891e-05,0.16724,-0.00030758,-2978.7,1.2264
9312,16.257,3.0909,0,0.0003014,3011.9,0.00012063,256.71,8.6494e-05,0.2168,-0.00029621,-2875.3,1.2146
9313,16.349,3.0909,0.05,3.185e-06,31.828,2.4457e-06,18.376,1.6747e-12,1.4186e-05,-2.4457e-06,-18.376,1.2263
9314,16.349,2.8182,0,0.00031314,3129.2,0.00012717,289.31,8.8692e-05,0.22371,-0.00030721,-2974.4,1.2263
9315,16.257,2.9091,0,0.0003014,3011.9,0.00012063,256.71,8.6494e-05,0.2168,-0.00029621,-2875.3,1.2146
9316,16.349,2.9091,0.05,3.185e-06,31.828,2.4457e-06,18.376,1.4487e-13,1.6347e-05,-2.4457e-06,-18.376,1.2263
9317,16.349,2.6364,0,0.00031169,3114.7,0.0001273,296.85,8.7825e-05,0.28199,-0.00030557,-2955.5,1.2262
9318,16.257,2.7273,0,0.0003001,2999,0.00012049,260.34,8.5884e-05,0.30483,-0.00029482,-2860.2,1.2145
9319,16.349,2.7273,0.05,3.5438e-06,35.414,2.7212e-06,20.446,-8.388e-13,3.42e-05,-2.7212e-06,-20.446,1.2263
9320,16.349,2.4545,0,0.00030776,3075.5,0.0001276,317.24,8.5546e-05,1.2276,-0.00030112,-2904,1.226
9321,16.257,2.5455,0,0.00029683,2966.3,0.0001203,271.26,8.4239e-05,0.33157,-0.00029128,-2821.2,1.2144
9322,16.349,2.5455,0.05,4.1688e-06,41.659,3.2011e-06,24.052,-4.241e-12,3.8553e-05,-3.2011e-06,-24.052,1.2261
9323,16.349,2.2727,0,0.00029972,2995.2,0.00012911,367.79,8.0069e-05,-0.69947,-0.00029177,-2794.6,1.2257
9324,16.257,2.3636,0,0.00029052,2903.2,0.00012041,298.86,8.0789e-05,1.1833,-0.00028427,-2741.7,1.2142
9325,16.349,2.3636,0.05,4.9621e-06,49.587,3.8103e-06,28.629,-1.5712e-12,6.6578e-05,-3.8103e-06,-28.629,1.2258
9326,16.349,2.0909,0,0.00028748,2872.8,0.0001329,464,7.0574e-05,-4.295,-0.00027678,-2614.2,1.2253
9327,16.257,2.1818,0,0.00028051,2803.1,0.00012212,359.9,7.407e-05,-1.1033,-0.00027265,-2606.3,1.2138
9328,16.349,2.1818,0.05,5.0872e-06,50.837,3.9063e-06,29.351,5.0855e-12,0.00012362,-3.9063e-06,-29.351,1.2255
9329,16.349,1.9091,0,0.0002706,2704.2,0.00013629,579.18,5.876e-05,-3.3807,-0.00025606,-2368.8,1.2249
9330,16.257,2,0,0.00026744,2672.5,0.00012543,455.41,6.455e-05,-2.0563,-0.00025677,-2416.3,1.2135
9331,16.349,2,0.05,4.7234e-06,47.202,3.627e-06,27.252,1.1838e-11,0.00016447,-3.627e-06,-27.252,1.2251
9332,16.349,1.7273,0,0.00024774,2475.7,0.00013417,651.6,4.7078e-05,-2.756,-0.00023013,-2085.6,1.2244
9333,16.257,1.8182,0,0.00024987,2497,0.00012633,542.12,5.4047e-05,-0.98266,-0.0002362,-2181.8,1.213
9334,16.349,1.8182,0.05,3.7078e-06,37.052,2.8471e-06,21.392,2.5749e-11,0.0002844,-2.8471e-06,-21.392,1.2246
9335,16.349,1.5455,0,0.00022021,2200.6,0.00012439,646.6,3.8056e-05,-2.1058,-0.00020195,-1805.4,1.2238
9336,16.257,1.6364,0,0.00022737,2272.2,0.00012121,573.4,4.4662e-05,-1.7114,-0.00021212,-1931.1,1.2125
9337,16.349,1.6364,0.05,4.2055e-06,42.026,3.2293e-06,24.264,1.6972e-11,0.00018165,-3.2293e-06,-24.264,1.2241
9338,16.349,1.3636,0,0.00019113,1910,0.00010918,577.93,3.2193e-05,-0.5446,-0.00017462,-1554.5,1.2231
9339,16.257,1.4545,0,0.00020197,2018.3,0.00011006,541.02,3.7986e-05,-0.491,-0.00018725,-1692.8,1.2119
9340,16.349,1.4545,0.05,4.3385e-06,43.355,3.3314e-06,25.031,1.0198e-11,0.00011233,-3.3314e-06,-25.031,1.2234
9341,16.349,1.1818,0,0.00016367,1635.5,9.2347e-05,479.76,2.8428e-05,-0.50017,-0.00015013,-1342.1,1.2224
9342,16.257,1.2727,0,0.00017659,1764.7,9.5953e-05,469.45,3.3416e-05,-0.42946,-0.00016386,-1482.7,1.2112
9343,16.349,1.2727,0.05,4.4207e-06,44.176,3.3945e-06,25.505,5.8563e-12,7.0684e-05,-3.3945e-06,-25.505,1.2228
9344,16.349,1,0,0.00013931,1392.2,7.6067e-05,375.18,2.6087e-05,-0.35157,-0.00012908,-1166.2,1.2217
9345,16.257,1.0909,0,0.00015332,1532.1,8.1383e-05,382.64,3.0417e-05,-0.30221,-0.00014318,-1304.6,1.2105
9346,16.349,1.0909,0.05,4.2272e-06,42.243,3.246e-06,24.389,3.3116e-12,4.8942e-05,-3.246e-06,-24.389,1.222
9347,16.349,0.81818,0,0.00011832,1182.4,6.1247e-05,275.17,2.4593e-05,-0.22945,-0.00011121,-1020.6,1.2209
9348,16.257,0.90909,0,0.0001328,1327,6.755e-05,293.59,2.8452e-05,-0.17243,-0.00012534,-1155.7,1.2098
9349,16.349,0.90909,0.05,3.9918e-06,39.89,3.0652e-06,23.031,3.5729e-12,3.6717e-05,-3.0652e-06,-23.031,1.2213
9350,16.349,0.63636,0,0.00010081,1007.4,4.8405e-05,186.22,2.3598e-05,-0.1771,-9.6341e-05,-901.35,1.2201
9351,16.257,0.72727,0,0.00011533,1152.5,5.5164e-05,210.37,2.7151e-05,-0.10525,-0.0001103,-1032.9,1.2091
9352,16.349,0.72727,0.05,3.8012e-06,37.986,2.9188e-06,21.931,1.7745e-12,2.5376e-05,-2.9188e-06,-21.931,1.2205
9353,16.349,0.45455,0,8.7033e-05,869.73,3.8005e-05,113.2,2.2916e-05,-0.16435,-8.4554e-05,-807.65,1.2193
9354,16.257,0.54545,0,0.00010116,1010.9,4.4697e-05,138.22,2.6297e-05,-0.034032,-9.8093e-05,-934.65,1.2083
9355,16.349,0.54545,0.05,3.6766e-06,36.741,2.8232e-06,21.212,1.123e-12,1.725e-05,-2.8232e-06,-21.212,1.2197
9356,16.349,0.27273,0,7.7508e-05,774.55,3.0626e-05,61.077,2.2484e-05,-0.094678,-7.6289e-05,-742.24,1.2185
9357,16.257,0.36364,0,9.0528e-05,904.66,3.655e-05,80.956,2.5772e-05,-0.022831,-8.8879e-05,-861.47,1.2075
9358,16.349,0.36364,0.05,3.6493e-06,36.468,2.8022e-06,21.055,4.5599e-13,9.0449e-06,-2.8022e-06,-21.055,1.2189
9359,16.257,0.18182,0,8.3707e-05,836.5,3.101e-05,40.986,2.5591e-05,0.26605,-8.2931e-05,-815.13,1.2066
9360,16.349,0.18182,0.05,4.062e-06,40.592,3.1191e-06,23.436,2.2736e-13,4.0805e-06,-3.1191e-06,-23.436,1.2181
9361,16.349,0.090909,0,7.0605e-05,705.56,2.4953e-05,19.822,2.2303e-05,-0.089733,-7.0248e-05,-695.49,1.2177
9362,16.165,5.7273,0,9.6894e-05,968.27,3.7108e-05,62.17,2.8868e-05,0.25244,-9.5684e-05,-935.58,1.1956
9363,16.073,5.8182,0,0.00010264,1025.7,3.7283e-05,41.319,3.1839e-05,0.4148,-0.00010187,-1004.2,1.1838
9364,16.165,5.8182,0.05,3.765e-06,37.624,2.891e-06,21.722,8.5707e-14,4.3426e-06,-2.891e-06,-21.722,1.1952
9365,16.165,5.9091,0,9.078e-05,907.17,3.1716e-05,21.18,2.8911e-05,0.10605,-9.0399e-05,-896.34,1.1948
9366,16.165,5.5455,0,0.00010511,1050.4,4.3658e-05,109.09,2.9149e-05,0.074048,-0.00010283,-991.56,1.1964
9367,16.073,5.6364,0,0.000109,1089.2,4.2752e-05,82.129,3.183e-05,0.065952,-0.00010737,-1045.8,1.1846
9368,16.165,5.6364,0.05,3.3884e-06,33.86,2.6018e-06,19.549,6.2471e-14,1.0003e-06,-2.6018e-06,-19.549,1.196
9369,16.165,5.3636,0,0.00011654,1164.6,5.2179e-05,167.8,2.9848e-05,0.024263,-0.00011278,-1071.6,1.1972
9370,16.073,5.4545,0,0.00011807,1179.8,4.9736e-05,131.15,3.229e-05,0.066175,-0.00011528,-1108.8,1.1854
9371,16.165,5.4545,0.05,3.3807e-06,33.784,2.596e-06,19.505,6.5308e-14,-2.3072e-06,-2.596e-06,-19.505,1.1968
9372,16.165,5.1818,0,0.00013103,1309.4,6.2441e-05,236.11,3.101e-05,-0.054155,-0.00012541,-1175.3,1.198
9373,16.073,5.2727,0,0.00012987,1297.8,5.8247e-05,188.22,3.3193e-05,-0.025468,-0.00012564,-1193.5,1.1862
9374,16.165,5.2727,0.05,3.4177e-06,34.154,2.6244e-06,19.719,-8.9927e-13,-1.0405e-05,-2.6244e-06,-19.719,1.1976
9375,16.165,5,0,0.00014831,1482.1,7.4018e-05,309.71,3.2782e-05,-0.12523,-0.00014059,-1302.8,1.1987
9376,16.073,5.0909,0,0.00014428,1441.8,6.804e-05,250.92,3.4632e-05,-0.095542,-0.00013837,-1299.9,1.1869
9377,16.165,5.0909,0.05,3.4604e-06,34.58,2.6571e-06,19.965,-1.5422e-12,-1.6744e-05,-2.6571e-06,-19.965,1.1983
9378,16.165,4.8182,0,0.00016793,1678.2,8.6236e-05,381.69,3.5405e-05,-0.2323,-0.00015815,-1454.5,1.1994
9379,16.073,4.9091,0,0.00016097,1608.5,7.8633e-05,314.43,3.6762e-05,-0.16549,-0.00015329,-1428.2,1.1876
9380,16.165,4.9091,0.05,3.4672e-06,34.649,2.6624e-06,20.004,-1.2871e-12,-2.9184e-05,-2.6624e-06,-20.004,1.199
9381,16.165,4.6364,0,0.00018912,1889.9,9.8033e-05,441.61,3.9209e-05,-0.37768,-0.00017769,-1630.1,1.2
9382,16.073,4.7273,0,0.00017936,1792.3,8.9268e-05,371.35,3.9809e-05,-0.25946,-0.00017013,-1577.6,1.1882
9383,16.165,4.7273,0.05,3.3705e-06,33.682,2.5881e-06,19.446,-6.0977e-12,-4.7449e-05,-2.5881e-06,-19.446,1.1997
9384,16.165,4.4545,0,0.00021052,2103.8,0.00010783,475.02,4.4593e-05,-0.097023,-0.00019838,-1825.7,1.2006
9385,16.073,4.5455,0,0.0001985,1983.7,9.8822e-05,411.27,4.4038e-05,-0.36159,-0.00018828,-1745.9,1.1888
9386,16.165,4.5455,0.05,3.1163e-06,31.142,2.3929e-06,17.98,-6.6332e-12,-6.9213e-05,-2.3929e-06,-17.98,1.2003
9387,16.165,4.2727,0,0.00023024,2300.8,0.00011387,467.68,5.1629e-05,0.046782,-0.00021869,-2031,1.2012
9388,16.073,4.3636,0,0.000217,2168.5,0.00010584,421.87,4.9681e-05,-0.081712,-0.00020672,-1926.6,1.1894
9389,16.165,4.3636,0.05,2.7203e-06,27.184,2.0889e-06,15.695,-1.2234e-11,-0.00012921,-2.0888e-06,-15.695,1.2009
9390,16.165,4.0909,0,0.00024689,2467.2,0.00011562,419.46,5.9839e-05,0.35297,-0.00023706,-2230.4,1.2016
9391,16.073,4.1818,0,0.00023322,2330.6,0.00010919,395.61,5.6511e-05,-0.23235,-0.00022396,-2107.6,1.1898
9392,16.165,4.1818,0.05,2.5986e-06,25.968,1.9954e-06,14.993,-1.7094e-11,-0.00019063,-1.9954e-06,-14.993,1.2014
9393,16.165,3.9091,0,0.00026038,2602,0.00011462,351.05,6.805e-05,1.1651,-0.00025262,-2408.2,1.202
9394,16.073,4,0,0.00024663,2464.6,0.00010935,341.81,6.3886e-05,0.23686,-0.00023902,-2275.7,1.1902
9395,16.165,4,0.05,2.9007e-06,28.987,2.2274e-06,16.736,-9.8038e-12,-7.8441e-05,-2.2274e-06,-16.736,1.2018
9396,16.165,3.7273,0,0.00027113,2709.4,0.00011328,289.95,7.4799e-05,0.84058,-0.00026502,-2552.5,1.2024
9397,16.073,3.8182,0,0.00025753,2573.6,0.00010823,283.12,7.0623e-05,0.55657,-0.00025154,-2420.1,1.1906
9398,16.165,3.8182,0.05,3.1495e-06,31.473,2.4184e-06,18.171,-3.9834e-12,-8.1934e-05,-2.4184e-06,-18.171,1.2022
9399,16.165,3.5455,0,0.00027936,2791.7,0.0001129,251.38,7.9484e-05,0.2994,-0.00027423,-2657.4,1.2026
9400,16.073,3.6364,0,0.00026633,2661.5,0.00010761,239.28,7.5784e-05,0.15909,-0.00026145,-2533.7,1.1909
9401,16.165,3.6364,0.05,3.2177e-06,32.155,2.4708e-06,18.565,-1.454e-12,-3.615e-05,-2.4708e-06,-18.565,1.2025
9402,16.165,3.3636,0,0.00028501,2848.1,0.00011328,233.14,8.2297e-05,0.35093,-0.00028032,-2724.2,1.2028
9403,16.073,3.4545,0,0.00027299,2728,0.00010783,215.09,7.9248e-05,0.30552,-0.00026869,-2614,1.1911
9404,16.165,3.4545,0.05,3.0958e-06,30.937,2.3772e-06,17.861,-9.4864e-13,-1.8683e-05,-2.3772e-06,-17.861,1.2027
9405,16.165,3.1818,0,0.00028814,2879.4,0.00011375,226.2,8.3686e-05,0.2962,-0.00028362,-2759.5,1.2029
9406,16.073,3.2727,0,0.00027728,2770.9,0.00010838,204.36,8.1217e-05,0.2866,-0.00027323,-2662.9,1.1912
9407,16.165,3.2727,0.05,2.9122e-06,29.102,2.2362e-06,16.802,-7.7804e-14,-5.9188e-06,-2.2362e-06,-16.802,1.2028
9408,16.165,3,0,0.00028912,2889.2,0.00011394,224.5,8.4096e-05,0.26657,-0.00028464,-2770.3,1.203
9409,16.073,3.0909,0,0.00027933,2791.4,0.00010875,200.58,8.2088e-05,0.26272,-0.00027538,-2685.6,1.1913
9410,16.165,3.0909,0.05,2.7865e-06,27.846,2.1397e-06,16.077,1.878e-12,7.0023e-06,-2.1397e-06,-16.077,1.2029
9411,16.165,2.8182,0,0.00028814,2879.4,0.00011375,226.2,8.3686e-05,0.2962,-0.00028362,-2759.5,1.2029
9412,16.073,2.9091,0,0.00027933,2791.4,0.00010875,200.58,8.2088e-05,0.26272,-0.00027538,-2685.6,1.1913
9413,16.165,2.9091,0.05,2.7865e-06,27.846,2.1397e-06,16.077,8.4389e-13,1.5969e-05,-2.1397e-06,-16.077,1.2029
9414,16.165,2.6364,0,0.00028501,2848.1,0.00011328,233.14,8.2297e-05,0.35093,-0.00028032,-2724.2,1.2028
9415,16.073,2.7273,0,0.00027728,2770.9,0.00010838,204.36,8.1217e-05,0.2866,-0.00027323,-2662.9,1.1912
9416,16.165,2.7273,0.05,2.9122e-06,29.102,2.2362e-06,16.802,-1.5639e-12,2.7457e-05,-2.2362e-06,-16.802,1.2028
9417,16.165,2.4545,0,0.00027936,2791.7,0.0001129,251.38,7.9484e-05,0.2994,-0.00027423,-2657.4,1.2026
9418,16.073,2.5455,0,0.00027299,2728,0.00010783,215.09,7.9248e-05,0.30552,-0.00026869,-2614,1.1911
9419,16.165,2.5455,0.05,3.0958e-06,30.937,2.3772e-06,17.861,-1.4727e-12,3.6829e-05,-2.3772e-06,-17.861,1.2027
9420,16.165,2.2727,0,0.00027113,2709.4,0.00011328,289.95,7.4799e-05,0.84058,-0.00026502,-2552.5,1.2024
9421,16.073,2.3636,0,0.00026633,2661.5,0.00010761,239.28,7.5784e-05,0.15909,-0.00026145,-2533.7,1.1909
9422,16.165,2.3636,0.05,3.2177e-06,32.155,2.4708e-06,18.565,3.0728e-12,6.1543e-05,-2.4708e-06,-18.565,1.2025
9423,16.165,2.0909,0,0.00026038,2602,0.00011462,351.05,6.805e-05,1.1651,-0.00025262,-2408.2,1.202
9424,16.073,2.1818,0,0.00025753,2573.6,0.00010823,283.12,7.0623e-05,0.55657,-0.00025154,-2420.1,1.1906
9425,16.165,2.1818,0.05,3.1495e-06,31.473,2.4184e-06,18.171,7.0838e-12,9.1197e-05,-2.4184e-06,-18.171,1.2022
9426,16.165,1.9091,0,0.00024689,2467.2,0.00011562,419.46,5.9839e-05,0.35297,-0.00023706,-2230.4,1.2016
9427,16.073,2,0,0.00024663,2464.6,0.00010935,341.81,6.3886e-05,0.23686,-0.00023902,-2275.7,1.1902
9428,16.165,2,0.05,2.9007e-06,28.987,2.2274e-06,16.736,1.5274e-11,0.0001769,-2.2274e-06,-16.736,1.2018
9429,16.165,1.7273,0,0.00023024,2300.8,0.00011387,467.68,5.1629e-05,0.046784,-0.00021869,-2031,1.2012
9430,16.073,1.8182,0,0.00023322,2330.6,0.00010919,395.61,5.6511e-05,-0.23235,-0.00022396,-2107.6,1.1898
9431,16.165,1.8182,0.05,2.5986e-06,25.968,1.9954e-06,14.993,2.1726e-11,0.0002431,-1.9954e-06,-14.993,1.2014
9432,16.165,1.5455,0,0.00021052,2103.8,0.00010783,475.02,4.4593e-05,-0.097022,-0.00019838,-1825.7,1.2006
9433,16.073,1.6364,0,0.000217,2168.5,0.00010584,421.87,4.9681e-05,-0.081711,-0.00020672,-1926.6,1.1894
9434,16.165,1.6364,0.05,2.7203e-06,27.184,2.0888e-06,15.695,1.9472e-11,0.00019008,-2.0889e-06,-15.695,1.2009
9435,16.165,1.3636,0,0.00018912,1889.9,9.8033e-05,441.61,3.9209e-05,-0.37768,-0.00017769,-1630.1,1.2
9436,16.073,1.4545,0,0.0001985,1983.7,9.8822e-05,411.27,4.4038e-05,-0.36159,-0.00018828,-1745.9,1.1888
9437,16.165,1.4545,0.05,3.1163e-06,31.142,2.3929e-06,17.98,9.8524e-12,0.00011447,-2.3929e-06,-17.98,1.2003
9438,16.165,1.1818,0,0.00016793,1678.2,8.6236e-05,381.69,3.5405e-05,-0.2323,-0.00015815,-1454.5,1.1994
9439,16.073,1.2727,0,0.00017936,1792.3,8.9268e-05,371.35,3.9809e-05,-0.25946,-0.00017013,-1577.6,1.1882
9440,16.165,1.2727,0.05,3.3705e-06,33.682,2.5881e-06,19.446,3.8503e-12,6.6859e-05,-2.5881e-06,-19.446,1.1997
9441,16.165,1,0,0.00014831,1482.1,7.4018e-05,309.71,3.2782e-05,-0.12523,-0.00014059,-1302.8,1.1987
9442,16.073,1.0909,0,0.00016097,1608.5,7.8633e-05,314.43,3.6762e-05,-0.16548,-0.00015329,-1428.2,1.1876
9443,16.165,1.0909,0.05,3.4672e-06,34.649,2.6624e-06,20.004,2.9183e-12,4.5596e-05,-2.6624e-06,-20.004,1.199
9444,16.165,0.81818,0,0.00013103,1309.4,6.2441e-05,236.11,3.101e-05,-0.054152,-0.00012541,-1175.3,1.198
9445,16.073,0.90909,0,0.00014428,1441.8,6.804e-05,250.93,3.4632e-05,-0.09554,-0.00013837,-1299.9,1.1869
9446,16.165,0.90909,0.05,3.4604e-06,34.58,2.6571e-06,19.965,2.4739e-12,3.2377e-05,-2.6571e-06,-19.965,1.1983
9447,16.165,0.63636,0,0.00011654,1164.6,5.2179e-05,167.8,2.9848e-05,0.024264,-0.00011278,-1071.6,1.1972
9448,16.073,0.72727,0,0.00012987,1297.8,5.8247e-05,188.22,3.3193e-05,-0.025467,-0.00012564,-1193.5,1.1862
9449,16.165,0.72727,0.05,3.4177e-06,34.154,2.6244e-06,19.719,1.3523e-12,2.2802e-05,-2.6244e-06,-19.719,1.1976
9450,16.165,0.45455,0,0.00010511,1050.4,4.3658e-05,109.09,2.9149e-05,0.074048,-0.00010283,-991.56,1.1964
9451,16.073,0.54545,0,0.00011807,1179.8,4.9736e-05,131.15,3.229e-05,0.066175,-0.00011528,-1108.8,1.1854
9452,16.165,0.54545,0.05,3.3807e-06,33.784,2.596e-06,19.505,8.6036e-13,1.3753e-05,-2.596e-06,-19.505,1.1968
9453,16.165,0.27273,0,9.6894e-05,968.27,3.7108e-05,62.17,2.8868e-05,0.25244,-9.5684e-05,-935.58,1.1956
9454,16.073,0.36364,0,0.000109,1089.2,4.2752e-05,82.129,3.183e-05,0.065951,-0.00010737,-1045.8,1.1846
9455,16.165,0.36364,0.05,3.3884e-06,33.86,2.6018e-06,19.549,8.448e-13,7.7056e-06,-2.6018e-06,-19.549,1.196
9456,16.073,0.18182,0,0.00010264,1025.7,3.7283e-05,41.319,3.1839e-05,0.4148,-0.00010187,-1004.2,1.1838
9457,16.165,0.18182,0.05,3.765e-06,37.624,2.891e-06,21.722,4.2438e-13,5.6087e-06,-2.891e-06,-21.722,1.1952
9458,16.165,0.090909,0,9.078e-05,907.17,3.1716e-05,21.18,2.8911e-05,0.10605,-9.0399e-05,-896.34,1.1948
9459,15.982,5.7273,0,0.00011483,1147.5,4.3022e-05,61.998,3.4797e-05,0.19713,-0.00011364,-1115.1,1.1728
9460,15.89,5.8182,0,0.00011992,1198.4,4.292e-05,40.416,3.758e-05,0.29741,-0.00011918,-1177.5,1.161
9461,15.982,5.8182,0.05,3.4054e-06,34.031,2.6149e-06,19.648,6.0953e-13,4.377e-06,-2.6149e-06,-19.648,1.1724
9462,15.982,5.9091,0,0.00010928,1092,3.7842e-05,21.395,3.5002e-05,0.0558,-0.0001089,-1081.2,1.172
9463,15.982,5.5455,0,0.00012219,1221,4.9049e-05,105.84,3.4969e-05,0.042367,-0.00012004,-1164.6,1.1736
9464,15.89,5.6364,0,0.00012591,1258.2,4.8291e-05,81.458,3.7451e-05,0.010026,-0.00012433,-1215.5,1.1618
9465,15.982,5.6364,0.05,3.0858e-06,30.837,2.3695e-06,17.804,1.1363e-12,1.9493e-06,-2.3695e-06,-17.804,1.1732
9466,15.982,5.3636,0,0.00013187,1317.8,5.6212e-05,154.63,3.5633e-05,0.0080235,-0.00012856,-1233.6,1.1744
9467,15.89,5.4545,0,0.00013381,1337.2,5.4437e-05,124.78,3.7837e-05,0.058416,-0.00013125,-1270.4,1.1626
9468,15.982,5.4545,0.05,3.0456e-06,30.435,2.3386e-06,17.572,1.0241e-12,1.9873e-09,-2.3386e-06,-17.572,1.174
9469,15.982,5.1818,0,0.00014384,1437.4,6.4429e-05,207.41,3.6815e-05,-0.070961,-0.00013918,-1322.5,1.1751
9470,15.89,5.2727,0,0.00014371,1436.2,6.1453e-05,170.88,3.8707e-05,-0.026321,-0.00014004,-1343.1,1.1633
9471,15.982,5.2727,0.05,3.0165e-06,30.144,2.3163e-06,17.404,-5.9432e-14,-8.0672e-06,-2.3163e-06,-17.404,1.1747
9472,15.982,5,0,0.00015784,1577.3,7.3364e-05,260.98,3.8612e-05,-0.13794,-0.00015178,-1430.6,1.1758
9473,15.89,5.0909,0,0.00015552,1554.1,6.9179e-05,218.24,4.0123e-05,-0.081269,-0.00015065,-1433.5,1.164
9474,15.982,5.0909,0.05,2.9625e-06,29.605,2.2749e-06,17.092,-5.3079e-13,-1.919e-05,-2.2749e-06,-17.092,1.1754
9475,15.982,4.8182,0,0.00017339,1732.7,8.2423e-05,309.8,4.1166e-05,-0.19446,-0.00016603,-1557,1.1764
9476,15.89,4.9091,0,0.00016889,1687.7,7.7217e-05,263.14,4.2177e-05,-0.13695,-0.00016287,-1540.7,1.1647
9477,15.982,4.9091,0.05,2.8514e-06,28.494,2.1895e-06,16.451,-1.4387e-12,-2.7585e-05,-2.1895e-06,-16.451,1.1761
9478,15.982,4.6364,0,0.00018971,1895.8,9.0765e-05,346.33,4.4638e-05,-0.24598,-0.00018143,-1698.8,1.177
9479,15.89,4.7273,0,0.00018326,1831.4,8.4947e-05,300.08,4.4985e-05,-0.17625,-0.0001763,-1662.8,1.1653
9480,15.982,4.7273,0.05,2.6521e-06,26.503,2.0365e-06,15.301,-2.7283e-12,-4.2524e-05,-2.0365e-06,-15.301,1.1767
9481,15.982,4.4545,0,0.00020575,2056,9.7386e-05,362.26,4.9126e-05,-0.34926,-0.00019718,-1851,1.1776
9482,15.89,4.5455,0,0.00019783,1977,9.1574e-05,322.33,4.8646e-05,-0.21199,-0.00019037,-1796.1,1.1659
9483,15.982,4.5455,0.05,2.3568e-06,23.552,1.8097e-06,13.598,-6.3491e-12,-7.7584e-05,-1.8097e-06,-13.598,1.1773
9484,15.982,4.2727,0,0.00022045,2203,0.00010151,352.35,5.4563e-05,-0.35992,-0.00021233,-2005.7,1.1781
9485,15.89,4.3636,0,0.00021164,2114.9,9.6299e-05,323.86,5.3158e-05,-0.28068,-0.00020426,-1934.4,1.1664
9486,15.982,4.3636,0.05,2.058e-06,20.566,1.5803e-06,11.874,-1.1052e-11,-0.00011105,-1.5803e-06,-11.874,1.1778
9487,15.982,4.0909,0,0.00023317,2330,0.00010309,319.2,6.056e-05,-0.34219,-0.00022609,-2154.1,1.1785
9488,15.89,4.1818,0,0.00022391,2237.5,9.8741e-05,303.41,5.833e-05,-0.22676,-0.0002172,-2070.4,1.1668
9489,15.982,4.1818,0.05,1.9371e-06,19.358,1.4875e-06,11.176,-1.4596e-11,-0.00013546,-1.4875e-06,-11.176,1.1783
9490,15.982,3.9091,0,0.00024383,2436.6,0.00010302,274.32,6.6461e-05,-0.36044,-0.00023801,-2288,1.1789
9491,15.89,4,0,0.00023433,2341.7,9.9289e-05,267.21,6.3693e-05,-0.24462,-0.00022864,-2196.7,1.1672
9492,15.982,4,0.05,2.0122e-06,20.108,1.5451e-06,11.609,-1.3569e-11,-0.0001317,-1.5451e-06,-11.609,1.1787
9493,15.982,3.7273,0,0.00025271,2525.4,0.00010255,232.35,7.1611e-05,-0.10686,-0.00024796,-2401.2,1.1792
9494,15.89,3.8182,0,0.00024308,2429.1,9.8961e-05,227.39,6.8673e-05,-0.1793,-0.00023841,-2307.5,1.1675
9495,15.982,3.8182,0.05,2.1277e-06,21.262,1.6338e-06,12.276,-7.5371e-12,-9.3454e-05,-1.6338e-06,-12.276,1.179
9496,15.982,3.5455,0,0.00025988,2597,0.00010247,202.44,7.5551e-05,0.18207,-0.00025584,-2489.7,1.1794
9497,15.89,3.6364,0,0.00025036,2501.8,9.8707e-05,194.83,7.2784e-05,0.06463,-0.00024647,-2398.7,1.1678
9498,15.982,3.6364,0.05,2.2035e-06,22.02,1.692e-06,12.713,-5.0027e-12,-5.1979e-05,-1.692e-06,-12.713,1.1793
9499,15.982,3.3636,0,0.00026514,2649.5,0.00010282,185.44,7.8169e-05,0.24763,-0.00026149,-2551.8,1.1796
9500,15.89,3.4545,0,0.00025607,2558.9,9.8866e-05,173.74,7.5766e-05,0.17146,-0.00025267,-2467.6,1.168
9501,15.982,3.4545,0.05,2.2387e-06,22.371,1.719e-06,12.916,-4.1452e-13,-2.1338e-05,-1.719e-06,-12.916,1.1795
9502,15.982,3.1818,0,0.00026832,2681.4,0.00010324,177.71,7.962e-05,0.25613,-0.00026486,-2588,1.1797
9503,15.89,3.2727,0,0.00026,2598.2,9.9249e-05,162.58,7.7639e-05,0.21328,-0.00025685,-2513,1.1681
9504,15.982,3.2727,0.05,2.2329e-06,22.314,1.7146e-06,12.883,-1.5059e-12,-9.9547e-06,-1.7146e-06,-12.883,1.1796
9505,15.982,3,0,0.00026939,2692,0.00010342,175.59,8.008e-05,0.26174,-0.00026597,-2599.8,1.1797
9506,15.89,3.0909,0,0.00026199,2618.1,9.9534e-05,158.06,7.8528e-05,0.23311,-0.00025894,-2535.4,1.1682
9507,15.982,3.0909,0.05,2.2183e-06,22.168,1.7034e-06,12.799,-1.3066e-12,1.6403e-06,-1.7034e-06,-12.799,1.1797
9508,15.982,2.8182,0,0.00026832,2681.4,0.00010324,177.71,7.962e-05,0.25613,-0.00026486,-2588,1.1797
9509,15.89,2.9091,0,0.00026199,2618.1,9.9534e-05,158.06,7.8528e-05,0.23311,-0.00025894,-2535.4,1.1682
9510,15.982,2.9091,0.05,2.2183e-06,22.168,1.7034e-06,12.799,-1.4023e-12,1.1857e-05,-1.7034e-06,-12.799,1.1797
9511,15.982,2.6364,0,0.00026514,2649.5,0.00010282,185.44,7.8169e-05,0.24763,-0.00026149,-2551.8,1.1796
9512,15.89,2.7273,0,0.00026,2598.2,9.9249e-05,162.58,7.7639e-05,0.21328,-0.00025685,-2513,1.1681
9513,15.982,2.7273,0.05,2.2329e-06,22.314,1.7146e-06,12.883,-1.1276e-12,2.5301e-05,-1.7146e-06,-12.883,1.1796
9514,15.982,2.4545,0,0.00025988,2597,0.00010247,202.44,7.5551e-05,0.18207,-0.00025584,-2489.7,1.1794
9515,15.89,2.5455,0,0.00025607,2558.9,9.8866e-05,173.74,7.5766e-05,0.17146,-0.00025267,-2467.6,1.168
9516,15.982,2.5455,0.05,2.2387e-06,22.371,1.719e-06,12.916,3.8706e-13,4.4962e-05,-1.719e-06,-12.916,1.1795
9517,15.982,2.2727,0,0.00025271,2525.4,0.00010255,232.35,7.1611e-05,-0.10687,-0.00024796,-2401.2,1.1792
9518,15.89,2.3636,0,0.00025036,2501.8,9.8707e-05,194.83,7.2784e-05,0.06463,-0.00024647,-2398.7,1.1678
9519,15.982,2.3636,0.05,2.2035e-06,22.02,1.692e-06,12.713,4.8253e-12,7.4077e-05,-1.692e-06,-12.713,1.1793
9520,15.982,2.0909,0,0.00024383,2436.6,0.00010302,274.32,6.6461e-05,-0.36044,-0.00023801,-2288,1.1789
9521,15.89,2.1818,0,0.00024308,2429.1,9.8961e-05,227.39,6.8673e-05,-0.1793,-0.00023841,-2307.5,1.1675
9522,15.982,2.1818,0.05,2.1277e-06,21.262,1.6338e-06,12.276,9.2136e-12,0.00014024,-1.6338e-06,-12.276,1.179
9523,15.982,1.9091,0,0.00023317,2330,0.00010309,319.2,6.056e-05,-0.34219,-0.00022609,-2154.1,1.1785
9524,15.89,2,0,0.00023433,2341.7,9.9289e-05,267.21,6.3693e-05,-0.24462,-0.00022864,-2196.7,1.1672
9525,15.982,2,0.05,2.0122e-06,20.108,1.5451e-06,11.609,1.7306e-11,0.00020818,-1.5451e-06,-11.609,1.1787
9526,15.982,1.7273,0,0.00022045,2203,0.00010151,352.35,5.4563e-05,-0.35992,-0.00021233,-2005.7,1.1781
9527,15.89,1.8182,0,0.00022391,2237.5,9.8741e-05,303.41,5.833e-05,-0.22676,-0.0002172,-2070.4,1.1668
9528,15.982,1.8182,0.05,1.9371e-06,19.358,1.4875e-06,11.176,2.1217e-11,0.00020738,-1.4875e-06,-11.176,1.1783
9529,15.982,1.5455,0,0.00020575,2056,9.7386e-05,362.26,4.9126e-05,-0.34926,-0.00019718,-1851,1.1776
9530,15.89,1.6364,0,0.00021164,2114.9,9.6299e-05,323.86,5.3158e-05,-0.28068,-0.00020426,-1934.4,1.1664
9531,15.982,1.6364,0.05,2.058e-06,20.566,1.5803e-06,11.874,1.7218e-11,0.00016701,-1.5803e-06,-11.874,1.1778
9532,15.982,1.3636,0,0.00018971,1895.8,9.0765e-05,346.33,4.4638e-05,-0.24598,-0.00018143,-1698.8,1.177
9533,15.89,1.4545,0,0.00019783,1977,9.1574e-05,322.33,4.8646e-05,-0.21198,-0.00019037,-1796.1,1.1659
9534,15.982,1.4545,0.05,2.3568e-06,23.552,1.8097e-06,13.598,9.3118e-12,0.00010538,-1.8097e-06,-13.598,1.1773
9535,15.982,1.1818,0,0.00017339,1732.7,8.2423e-05,309.8,4.1166e-05,-0.19446,-0.00016603,-1557,1.1764
9536,15.89,1.2727,0,0.00018326,1831.4,8.4947e-05,300.08,4.4985e-05,-0.17624,-0.0001763,-1662.8,1.1653
9537,15.982,1.2727,0.05,2.6521e-06,26.503,2.0365e-06,15.301,4.7053e-12,6.6333e-05,-2.0365e-06,-15.301,1.1767
9538,15.982,1,0,0.00015784,1577.3,7.3364e-05,260.98,3.8612e-05,-0.13794,-0.00015178,-1430.6,1.1758
9539,15.89,1.0909,0,0.00016889,1687.7,7.7217e-05,263.14,4.2176e-05,-0.13695,-0.00016287,-1540.7,1.1647
9540,15.982,1.0909,0.05,2.8514e-06,28.494,2.1895e-06,16.451,2.7771e-12,4.3031e-05,-2.1895e-06,-16.451,1.1761
9541,15.982,0.81818,0,0.00014384,1437.4,6.4429e-05,207.41,3.6815e-05,-0.07096,-0.00013918,-1322.5,1.1751
9542,15.89,0.90909,0,0.00015552,1554.1,6.9179e-05,218.24,4.0123e-05,-0.081267,-0.00015065,-1433.5,1.164
9543,15.982,0.90909,0.05,2.9625e-06,29.605,2.2749e-06,17.092,2.0204e-12,2.7647e-05,-2.2749e-06,-17.092,1.1754
9544,15.982,0.63636,0,0.00013187,1317.8,5.6212e-05,154.63,3.5633e-05,0.0080238,-0.00012856,-1233.6,1.1744
9545,15.89,0.72727,0,0.00014371,1436.2,6.1453e-05,170.88,3.8707e-05,-0.026319,-0.00014004,-1343.1,1.1633
9546,15.982,0.72727,0.05,3.0165e-06,30.144,2.3163e-06,17.404,5.9553e-14,1.8621e-05,-2.3163e-06,-17.404,1.1747
9547,15.982,0.45455,0,0.00012219,1221,4.9049e-05,105.84,3.4969e-05,0.042367,-0.00012004,-1164.6,1.1736
9548,15.89,0.54545,0,0.00013381,1337.2,5.4437e-05,124.78,3.7837e-05,0.058416,-0.00013125,-1270.4,1.1626
9549,15.982,0.54545,0.05,3.0456e-06,30.435,2.3386e-06,17.572,2.7492e-13,1.025e-05,-2.3386e-06,-17.572,1.174
9550,15.982,0.27273,0,0.00011483,1147.5,4.3022e-05,61.998,3.4797e-05,0.19713,-0.00011364,-1115.1,1.1728
9551,15.89,0.36364,0,0.00012591,1258.2,4.8291e-05,81.458,3.7451e-05,0.010026,-0.00012433,-1215.5,1.1618
9552,15.982,0.36364,0.05,3.0858e-06,30.837,2.3695e-06,17.804,1.7127e-13,5.4495e-06,-2.3695e-06,-17.804,1.1732
9553,15.89,0.18182,0,0.00011992,1198.4,4.292e-05,40.416,3.758e-05,0.29741,-0.00011918,-1177.5,1.161
9554,15.982,0.18182,0.05,3.4054e-06,34.031,2.6149e-06,19.648,2.5443e-13,3.7839e-06,-2.6149e-06,-19.648,1.1724
9555,15.982,0.090909,0,0.00010928,1092,3.7842e-05,21.395,3.5002e-05,0.055801,-0.0001089,-1081.2,1.172
9556,15.798,5.7273,0,0.00013105,1309.6,4.8244e-05,60.294,4.0236e-05,0.12274,-0.00012992,-1278.4,1.1501
9557,15.706,5.8182,0,0.00013551,1354.2,4.7931e-05,38.69,4.2802e-05,0.15812,-0.00013481,-1334.4,1.1383
9558,15.798,5.8182,0.05,3.018e-06,30.159,2.3174e-06,17.412,1.1347e-12,4.803e-06,-2.3174e-06,-17.412,1.1497
9559,15.798,5.9091,0,0.00012603,1259.4,4.333e-05,20.914,4.0551e-05,0.037258,-0.00012566,-1248.8,1.1493
9560,15.798,5.5455,0,0.00013767,1375.7,5.3807e-05,101.37,4.0319e-05,0.024278,-0.00013566,-1322.2,1.1508
9561,15.706,5.6364,0,0.00014107,1409.8,5.3082e-05,78.758,4.2595e-05,-0.038404,-0.00013957,-1368.7,1.1391
9562,15.798,5.6364,0.05,2.7734e-06,27.715,2.1297e-06,16.001,2.1529e-12,4.355e-06,-2.1297e-06,-16.001,1.1504
9563,15.798,5.3636,0,0.00014593,1458.3,5.9917e-05,142.83,4.091e-05,0.021596,-0.00014297,-1381.6,1.1516
9564,15.706,5.4545,0,0.00014797,1478.7,5.853e-05,117.49,4.29e-05,0.053974,-0.00014562,-1416.4,1.1399
9565,15.798,5.4545,0.05,2.7111e-06,27.092,2.0818e-06,15.642,1.1497e-12,2.5173e-06,-2.0818e-06,-15.642,1.1512
9566,15.798,5.1818,0,0.00015581,1557.1,6.6549e-05,184.31,4.2015e-05,-0.038431,-0.00015186,-1456.7,1.1523
9567,15.706,5.2727,0,0.00015629,1561.8,6.4375e-05,155.46,4.3683e-05,-0.011941,-0.00015307,-1478.3,1.1406
9568,15.798,5.2727,0.05,2.6414e-06,26.396,2.0283e-06,15.239,3.4815e-13,-1.8469e-06,-2.0283e-06,-15.24,1.1519
9569,15.798,5,0,0.0001671,1669.8,7.3455e-05,223.58,4.3688e-05,-0.081717,-0.00016217,-1546.8,1.153
9570,15.706,5.0909,0,0.00016593,1658.1,7.0505e-05,191.74,4.4979e-05,-0.047193,-0.00016183,-1553.9,1.1413
9571,15.798,5.0909,0.05,2.5373e-06,25.356,1.9483e-06,14.639,1.0452e-12,-1.3581e-05,-1.9483e-06,-14.639,1.1526
9572,15.798,4.8182,0,0.00017934,1792.2,8.019e-05,256.81,4.5995e-05,-0.12032,-0.00017359,-1650,1.1536
9573,15.706,4.9091,0,0.00017659,1764.6,7.6621e-05,223.75,4.683e-05,-0.082965,-0.00017171,-1642.1,1.1419
9574,15.798,4.9091,0.05,2.3812e-06,23.796,1.8285e-06,13.739,-2.0286e-12,-2.1883e-05,-1.8285e-06,-13.739,1.1533
9575,15.798,4.6364,0,0.00019194,1918.1,8.6173e-05,279.21,4.8993e-05,-0.14391,-0.00018566,-1763.3,1.1542
9576,15.706,4.7273,0,0.0001878,1876.7,8.2283e-05,247.86,4.928e-05,-0.11079,-0.00018235,-1740.5,1.1425
9577,15.798,4.7273,0.05,2.1634e-06,21.619,1.6612e-06,12.482,-1.7075e-12,-4.0429e-05,-1.6612e-06,-12.482,1.1539
9578,15.798,4.4545,0,0.00020417,2040.3,9.0817e-05,286.42,5.2677e-05,-0.14395,-0.00019779,-1882,1.1547
9579,15.706,4.5455,0,0.00019898,1988.4,8.6983e-05,260.16,5.2341e-05,-0.12741,-0.00019327,-1845.6,1.143
9580,15.798,4.5455,0.05,1.9019e-06,19.006,1.4604e-06,10.973,-4.8951e-12,-5.7752e-05,-1.4604e-06,-10.973,1.1544
9581,15.798,4.2727,0,0.0002154,2152.5,9.3758e-05,276.61,5.6925e-05,-0.14549,-0.00020935,-2000.9,1.1551
9582,15.706,4.3636,0,0.0002095,2093.6,9.0302e-05,257.97,5.5951e-05,-0.1316,-0.00020392,-1952.7,1.1435
9583,15.798,4.3636,0.05,1.6578e-06,16.567,1.273e-06,9.5649,-9.0804e-12,-9.9884e-05,-1.273e-06,-9.5649,1.1549
9584,15.798,4.0909,0,0.00022524,2250.8,9.5074e-05,252.42,6.1463e-05,-0.12516,-0.00021988,-2114,1.1555
9585,15.706,4.1818,0,0.00021892,2187.7,9.2112e-05,241.66,5.9929e-05,-0.14518,-0.00021381,-2056.9,1.1439
9586,15.798,4.1818,0.05,1.5121e-06,15.11,1.1611e-06,8.7241,-9.0041e-12,-0.00011463,-1.1611e-06,-8.724,1.1553
9587,15.798,3.9091,0,0.00023365,2334.9,9.53e-05,220.8,6.5905e-05,-0.058155,-0.00022911,-2216.7,1.1559
9588,15.706,4,0,0.00022706,2269.1,9.2695e-05,215.58,6.3987e-05,-0.11879,-0.00022263,-2153.6,1.1443
9589,15.798,4,0.05,1.4762e-06,14.752,1.1335e-06,8.5169,-1.035e-11,-0.00011732,-1.1335e-06,-8.5169,1.1557
9590,15.798,3.7273,0,0.00024074,2405.8,9.5138e-05,190.03,6.9847e-05,0.00077519,-0.00023695,-2305.1,1.1562
9591,15.706,3.8182,0,0.00023398,2338.2,9.2632e-05,186.69,6.7777e-05,-0.064119,-0.00023025,-2239.3,1.1446
9592,15.798,3.8182,0.05,1.4976e-06,14.965,1.15e-06,8.6403,-9.3963e-12,-9.6213e-05,-1.1499e-06,-8.6403,1.156
9593,15.798,3.5455,0,0.00024653,2463.6,9.5082e-05,165.97,7.3001e-05,0.064886,-0.00024329,-2376.4,1.1564
9594,15.706,3.6364,0,0.00023976,2396,9.2476e-05,161.42,7.0991e-05,-0.0052113,-0.00023661,-2311.2,1.1448
9595,15.798,3.6364,0.05,1.54e-06,15.39,1.1826e-06,8.8853,-5.4319e-12,-6.0141e-05,-1.1826e-06,-8.8853,1.1563
9596,15.798,3.3636,0,0.00025088,2507,9.5241e-05,150.45,7.5237e-05,0.14607,-0.00024798,-2428.4,1.1565
9597,15.706,3.4545,0,0.00024434,2441.7,9.2491e-05,143.21,7.3442e-05,0.079305,-0.00024159,-2366.9,1.145
9598,15.798,3.4545,0.05,1.5898e-06,15.887,1.2207e-06,9.1722,-4.4195e-12,-2.6191e-05,-1.2207e-06,-9.1721,1.1565
9599,15.798,3.1818,0,0.00025358,2534,9.5466e-05,142.34,7.6548e-05,0.19703,-0.00025086,-2459.8,1.1566
9600,15.706,3.2727,0,0.00024754,2473.7,9.2648e-05,132.28,7.5062e-05,0.14861,-0.00024503,-2404.9,1.1451
9601,15.798,3.2727,0.05,1.6291e-06,16.28,1.251e-06,9.3994,-9.6486e-13,-1.6948e-05,-1.251e-06,-9.3994,1.1566
9602,15.798,3,0,0.0002545,2543.2,9.5567e-05,139.89,7.6977e-05,0.21065,-0.00025183,-2470.3,1.1567
9603,15.706,3.0909,0,0.00024919,2490.2,9.2786e-05,127.36,7.586e-05,0.1799,-0.00024678,-2424,1.1452
9604,15.798,3.0909,0.05,1.6491e-06,16.48,1.2663e-06,9.5148,-1.5655e-12,-4.1282e-06,-1.2663e-06,-9.5148,1.1566
9605,15.798,2.8182,0,0.00025358,2534,9.5466e-05,142.34,7.6548e-05,0.19703,-0.00025086,-2459.8,1.1566
9606,15.706,2.9091,0,0.00024919,2490.2,9.2786e-05,127.36,7.586e-05,0.1799,-0.00024678,-2424,1.1452
9607,15.798,2.9091,0.05,1.6491e-06,16.48,1.2663e-06,9.5148,-2.1032e-13,1.175e-05,-1.2663e-06,-9.5148,1.1566
9608,15.798,2.6364,0,0.00025088,2507,9.5241e-05,150.45,7.5237e-05,0.14607,-0.00024798,-2428.3,1.1565
9609,15.706,2.7273,0,0.00024754,2473.7,9.2648e-05,132.28,7.5062e-05,0.14861,-0.00024503,-2404.9,1.1451
9610,15.798,2.7273,0.05,1.6291e-06,16.28,1.251e-06,9.3994,7.9116e-13,2.3521e-05,-1.251e-06,-9.3994,1.1566
9611,15.798,2.4545,0,0.00024653,2463.6,9.5082e-05,165.97,7.3001e-05,0.064886,-0.00024329,-2376.4,1.1564
9612,15.706,2.5455,0,0.00024434,2441.7,9.2491e-05,143.21,7.3442e-05,0.079304,-0.00024159,-2366.9,1.145
9613,15.798,2.5455,0.05,1.5898e-06,15.887,1.2207e-06,9.1722,1.329e-12,4.0818e-05,-1.2207e-06,-9.1721,1.1565
9614,15.798,2.2727,0,0.00024074,2405.8,9.5138e-05,190.03,6.9847e-05,0.00077484,-0.00023695,-2305.1,1.1562
9615,15.706,2.3636,0,0.00023976,2396,9.2476e-05,161.42,7.0991e-05,-0.005211,-0.00023661,-2311.2,1.1448
9616,15.798,2.3636,0.05,1.54e-06,15.39,1.1826e-06,8.8853,5.5554e-12,7.0667e-05,-1.1826e-06,-8.8853,1.1563
9617,15.798,2.0909,0,0.00023365,2334.9,9.53e-05,220.8,6.5905e-05,-0.058155,-0.00022911,-2216.7,1.1559
9618,15.706,2.1818,0,0.00023398,2338.2,9.2632e-05,186.69,6.7777e-05,-0.06412,-0.00023025,-2239.3,1.1446
9619,15.798,2.1818,0.05,1.4976e-06,14.965,1.1499e-06,8.6403,1.1142e-11,0.00012771,-1.15e-06,-8.6403,1.156
9620,15.798,1.9091,0,0.00022524,2250.8,9.5074e-05,252.42,6.1463e-05,-0.12516,-0.00021988,-2114,1.1555
9621,15.706,2,0,0.00022706,2269.1,9.2695e-05,215.58,6.3987e-05,-0.11879,-0.00022263,-2153.6,1.1443
9622,15.798,2,0.05,1.4762e-06,14.752,1.1335e-06,8.5169,1.6776e-11,0.00014324,-1.1335e-06,-8.5169,1.1557
9623,15.798,1.7273,0,0.0002154,2152.5,9.3758e-05,276.61,5.6925e-05,-0.14549,-0.00020935,-2000.9,1.1551
9624,15.706,1.8182,0,0.00021892,2187.7,9.2112e-05,241.66,5.9929e-05,-0.14518,-0.00021381,-2056.9,1.1439
9625,15.798,1.8182,0.05,1.5121e-06,15.11,1.1611e-06,8.724,2.3282e-11,0.00015602,-1.1611e-06,-8.7241,1.1553
9626,15.798,1.5455,0,0.00020417,2040.3,9.0817e-05,286.42,5.2677e-05,-0.14395,-0.00019779,-1882,1.1547
9627,15.706,1.6364,0,0.0002095,2093.6,9.0303e-05,257.97,5.5951e-05,-0.1316,-0.00020392,-1952.7,1.1435
9628,15.798,1.6364,0.05,1.6578e-06,16.567,1.273e-06,9.5649,1.5527e-11,0.00013745,-1.273e-06,-9.5649,1.1549
9629,15.798,1.3636,0,0.00019194,1918.1,8.6173e-05,279.21,4.8993e-05,-0.14391,-0.00018566,-1763.3,1.1542
9630,15.706,1.4545,0,0.00019898,1988.4,8.6983e-05,260.16,5.2341e-05,-0.12741,-0.00019327,-1845.6,1.143
9631,15.798,1.4545,0.05,1.9019e-06,19.006,1.4604e-06,10.973,8.1074e-12,0.00010091,-1.4604e-06,-10.973,1.1544
9632,15.798,1.1818,0,0.00017934,1792.2,8.019e-05,256.81,4.5995e-05,-0.12031,-0.00017359,-1650,1.1536
9633,15.706,1.2727,0,0.0001878,1876.7,8.2283e-05,247.86,4.928e-05,-0.11079,-0.00018235,-1740.5,1.1425
9634,15.798,1.2727,0.05,2.1634e-06,21.619,1.6612e-06,12.482,4.5785e-12,5.8209e-05,-1.6612e-06,-12.482,1.1539
9635,15.798,1,0,0.0001671,1669.8,7.3455e-05,223.58,4.3688e-05,-0.081715,-0.00016217,-1546.8,1.153
9636,15.706,1.0909,0,0.00017659,1764.6,7.6621e-05,223.75,4.683e-05,-0.082964,-0.00017171,-1642.1,1.1419
9637,15.798,1.0909,0.05,2.3812e-06,23.796,1.8285e-06,13.739,1.8514e-12,3.5656e-05,-1.8285e-06,-13.739,1.1533
9638,15.798,0.81818,0,0.00015581,1557.1,6.6549e-05,184.31,4.2015e-05,-0.038428,-0.00015186,-1456.7,1.1523
9639,15.706,0.90909,0,0.00016593,1658.1,7.0505e-05,191.74,4.4979e-05,-0.04719,-0.00016183,-1553.9,1.1413
9640,15.798,0.90909,0.05,2.5373e-06,25.356,1.9483e-06,14.639,1.0265e-12,2.0771e-05,-1.9483e-06,-14.639,1.1526
9641,15.798,0.63636,0,0.00014593,1458.3,5.9917e-05,142.83,4.091e-05,0.021598,-0.00014297,-1381.6,1.1516
9642,15.706,0.72727,0,0.00015629,1561.8,6.4375e-05,155.47,4.3683e-05,-0.011938,-0.00015307,-1478.3,1.1406
9643,15.798,0.72727,0.05,2.6414e-06,26.396,2.0283e-06,15.24,-7.5654e-13,1.5365e-05,-2.0283e-06,-15.239,1.1519
9644,15.798,0.45455,0,0.00013767,1375.7,5.3807e-05,101.37,4.0319e-05,0.024278,-0.00013566,-1322.2,1.1508
9645,15.706,0.54545,0,0.00014797,1478.7,5.853e-05,117.49,4.29e-05,0.053974,-0.00014562,-1416.4,1.1399
9646,15.798,0.54545,0.05,2.7111e-06,27.092,2.0818e-06,15.642,-2.9394e-13,5.6365e-06,-2.0818e-06,-15.642,1.1512
9647,15.798,0.27273,0,0.00013105,1309.6,4.8244e-05,60.294,4.0236e-05,0.12274,-0.00012992,-1278.4,1.1501
9648,15.706,0.36364,0,0.00014107,1409.8,5.3082e-05,78.758,4.2595e-05,-0.038404,-0.00013957,-1368.7,1.1391
9649,15.798,0.36364,0.05,2.7734e-06,27.715,2.1297e-06,16.001,-3.7418e-13,1.8091e-06,-2.1297e-06,-16.001,1.1504
9650,15.706,0.18182,0,0.00013551,1354.2,4.7931e-05,38.69,4.2802e-05,0.15812,-0.00013481,-1334.4,1.1383
9651,15.798,0.18182,0.05,3.018e-06,30.159,2.3174e-06,17.412,-3.9248e-13,1.1688e-06,-2.3174e-06,-17.412,1.1497
9652,15.798,0.090909,0,0.00012603,1259.4,4.333e-05,20.914,4.0551e-05,0.037259,-0.00012566,-1248.8,1.1493
9653,15.614,5.7273,0,0.00014556,1454.6,5.2799e-05,57.378,4.5168e-05,0.041937,-0.0001445,-1425,1.1274
9654,15.522,5.8182,0,0.00014948,1493.8,5.2365e-05,36.49,4.7513e-05,0.037049,-0.00014883,-1475.2,1.1157
9655,15.614,5.8182,0.05,2.6309e-06,26.291,2.0202e-06,15.179,2.124e-12,7.265e-06,-2.0202e-06,-15.179,1.127
9656,15.614,5.9091,0,0.00014104,1409.5,4.8213e-05,20.02,4.555e-05,0.013753,-0.00014069,-1399.3,1.1266
9657,15.614,5.5455,0,0.00015146,1513.5,5.7885e-05,95.474,4.5177e-05,-0.0029038,-0.00014961,-1463.5,1.1282
9658,15.522,5.6364,0,0.00015454,1544.3,5.7183e-05,74.506,4.7257e-05,-0.077295,-0.00015314,-1505.8,1.1165
9659,15.614,5.6364,0.05,2.4739e-06,24.722,1.8996e-06,14.273,1.8205e-12,6.9539e-06,-1.8996e-06,-14.273,1.1278
9660,15.614,5.3636,0,0.0001585,1583.9,6.3132e-05,131.2,4.5673e-05,0.021597,-0.00015586,-1514.2,1.1289
9661,15.522,5.4545,0,0.00016054,1604.2,6.2005e-05,109.17,4.7481e-05,0.044414,-0.0001584,-1546.9,1.1173
9662,15.614,5.4545,0.05,2.4018e-06,24.002,1.8443e-06,13.857,1.6511e-12,5.7227e-06,-1.8443e-06,-13.858,1.1285
9663,15.614,5.1818,0,0.00016665,1665.4,6.8537e-05,164.45,4.6647e-05,-0.020767,-0.00016325,-1577.1,1.1296
9664,15.522,5.2727,0,0.00016751,1674,6.6911e-05,140.97,4.8148e-05,-0.002826,-0.00016467,-1599,1.118
9665,15.614,5.2727,0.05,2.3127e-06,23.111,1.7759e-06,13.343,2.6079e-12,-2.9164e-06,-1.7759e-06,-13.343,1.1293
9666,15.614,5,0,0.00017573,1756.1,7.3921e-05,193.79,4.8122e-05,-0.048977,-0.00017163,-1651.2,1.1303
9667,15.522,5.0909,0,0.00017536,1752.4,7.1818e-05,169.34,4.9277e-05,-0.023678,-0.00017187,-1661.6,1.1186
9668,15.614,5.0909,0.05,2.1906e-06,21.891,1.6821e-06,12.639,1.8396e-12,-7.1708e-06,-1.6821e-06,-12.639,1.1299
9669,15.614,4.8182,0,0.00018538,1852.5,7.8979e-05,216.79,5.0116e-05,-0.074203,-0.00018074,-1734.6,1.1309
9670,15.522,4.9091,0,0.00018385,1837.3,7.6518e-05,192.62,5.0875e-05,-0.047963,-0.00017982,-1733.4,1.1192
9671,15.614,4.9091,0.05,2.0277e-06,20.263,1.557e-06,11.699,-2.5315e-13,-1.7382e-05,-1.557e-06,-11.699,1.1305
9672,15.614,4.6364,0,0.00019515,1950.2,8.334e-05,230.65,5.2629e-05,-0.094845,-0.00019021,-1824.7,1.1314
9673,15.522,4.7273,0,0.00019262,1924.9,8.072e-05,208.62,5.2945e-05,-0.066891,-0.00018822,-1812.1,1.1198
9674,15.614,4.7273,0.05,1.8254e-06,18.241,1.4017e-06,10.531,-2.4986e-12,-2.7783e-05,-1.4017e-06,-10.531,1.1311
9675,15.614,4.4545,0,0.00020457,2044.3,8.667e-05,233.22,5.5615e-05,-0.11474,-0.0001996,-1917.7,1.1319
9676,15.522,4.5455,0,0.00020126,2011.2,8.4119e-05,215.26,5.5459e-05,-0.084644,-0.00019673,-1894.9,1.1203
9677,15.614,4.5455,0.05,1.6009e-06,15.998,1.2293e-06,9.2367,-3.6981e-12,-4.7222e-05,-1.2293e-06,-9.2367,1.1316
9678,15.614,4.2727,0,0.00021321,2130.7,8.8801e-05,224.12,5.8955e-05,-0.12975,-0.00020852,-2009.8,1.1323
9679,15.522,4.3636,0,0.00020936,2092.1,8.6498e-05,211.48,5.8338e-05,-0.10229,-0.00020496,-1978.4,1.1208
9680,15.614,4.3636,0.05,1.3908e-06,13.898,1.068e-06,8.0243,-7.5117e-12,-7.5976e-05,-1.068e-06,-8.0243,1.1321
9681,15.614,4.0909,0,0.00022086,2207.1,8.9828e-05,205.54,6.2454e-05,-0.13656,-0.00021665,-2097.2,1.1327
9682,15.522,4.1818,0,0.00021664,2164.9,8.7828e-05,198.15,6.1441e-05,-0.11354,-0.00021259,-2059.1,1.1212
9683,15.614,4.1818,0.05,1.2317e-06,12.309,9.4583e-07,7.1066,-8.9601e-12,-0.00010289,-9.4582e-07,-7.1065,1.1325
9684,15.614,3.9091,0,0.00022746,2273,9.0085e-05,181.89,6.586e-05,-0.12211,-0.00022382,-2176.6,1.133
9685,15.522,4,0,0.00022299,2228.3,8.8311e-05,178.28,6.4568e-05,-0.11496,-0.00021942,-2133.9,1.1215
9686,15.614,4,0.05,1.1352e-06,11.344,8.7167e-07,6.5494,-1.278e-11,-0.00012222,-8.7166e-07,-6.5493,1.1329
9687,15.614,3.7273,0,0.00023303,2328.7,8.9995e-05,158.28,6.8921e-05,-0.065927,-0.00022994,-2245.6,1.1333
9688,15.522,3.8182,0,0.0002284,2282.5,8.8299e-05,156.22,6.7495e-05,-0.088723,-0.00022535,-2200.4,1.1218
9689,15.614,3.8182,0.05,1.0884e-06,10.876,8.3573e-07,6.2793,-8.5308e-12,-0.0001136,-8.3572e-07,-6.2793,1.1332
9690,15.614,3.5455,0,0.00023757,2374.1,8.9883e-05,138.64,7.1432e-05,0.015797,-0.00023491,-2301.7,1.1335
9691,15.522,3.6364,0,0.00023292,2327.5,8.8136e-05,136.09,7.002e-05,-0.029165,-0.0002303,-2256.5,1.1221
9692,15.614,3.6364,0.05,1.0801e-06,10.794,8.2942e-07,6.232,-8.6847e-12,-7.1543e-05,-8.2942e-07,-6.2319,1.1334
9693,15.614,3.3636,0,0.00024098,2408.2,8.9872e-05,124.85,7.3268e-05,0.089801,-0.00023862,-2343.3,1.1337
9694,15.522,3.4545,0,0.00023647,2363.1,8.8027e-05,120.52,7.1993e-05,0.040048,-0.00023419,-2300.5,1.1222
9695,15.614,3.4545,0.05,1.0998e-06,10.991,8.4453e-07,6.3455,-3.6483e-12,-2.4548e-05,-8.4453e-07,-6.3455,1.1336
9696,15.614,3.1818,0,0.00024311,2429.5,8.9926e-05,116.98,7.4375e-05,0.13954,-0.00024091,-2368.8,1.1338
9697,15.522,3.2727,0,0.00023895,2387.9,8.8011e-05,110.39,7.3332e-05,0.098222,-0.00023688,-2330.7,1.1223
9698,15.614,3.2727,0.05,1.1293e-06,11.285,8.6717e-07,6.5156,-2.4174e-12,-2.2643e-05,-8.6717e-07,-6.5156,1.1337
9699,15.614,3,0,0.00024384,2436.7,8.9957e-05,114.47,7.4744e-05,0.15711,-0.00024169,-2377.4,1.1338
9700,15.522,3.0909,0,0.00024024,2400.7,8.8032e-05,105.52,7.4005e-05,0.13119,-0.00023827,-2346.2,1.1224
9701,15.614,3.0909,0.05,1.1492e-06,11.484,8.8245e-07,6.6304,-1.655e-12,-5.9705e-06,-8.8244e-07,-6.6303,1.1338
9702,15.614,2.8182,0,0.00024311,2429.5,8.9926e-05,116.98,7.4375e-05,0.13953,-0.00024091,-2368.8,1.1338
9703,15.522,2.9091,0,0.00024024,2400.7,8.8032e-05,105.52,7.4005e-05,0.13119,-0.00023827,-2346.2,1.1224
9704,15.614,2.9091,0.05,1.1492e-06,11.484,8.8244e-07,6.6304,-5.5087e-14,6.6066e-06,-8.8244e-07,-6.6303,1.1338
9705,15.614,2.6364,0,0.00024098,2408.2,8.9872e-05,124.85,7.3268e-05,0.089801,-0.00023862,-2343.3,1.1337
9706,15.522,2.7273,0,0.00023895,2387.9,8.8011e-05,110.39,7.3332e-05,0.098222,-0.00023688,-2330.7,1.1223
9707,15.614,2.7273,0.05,1.1293e-06,11.285,8.6717e-07,6.5156,1.6023e-12,2.77e-05,-8.6717e-07,-6.5156,1.1337
9708,15.614,2.4545,0,0.00023757,2374.1,8.9883e-05,138.64,7.1432e-05,0.015796,-0.00023491,-2301.7,1.1335
9709,15.522,2.5455,0,0.00023647,2363.1,8.8027e-05,120.52,7.1993e-05,0.040047,-0.00023419,-2300.5,1.1222
9710,15.614,2.5455,0.05,1.0998e-06,10.991,8.4453e-07,6.3455,4.1228e-12,5.1146e-05,-8.4453e-07,-6.3455,1.1336
9711,15.614,2.2727,0,0.00023303,2328.7,8.9995e-05,158.28,6.8921e-05,-0.065927,-0.00022994,-2245.6,1.1333
9712,15.522,2.3636,0,0.00023292,2327.5,8.8136e-05,136.09,7.002e-05,-0.029164,-0.0002303,-2256.5,1.1221
9713,15.614,2.3636,0.05,1.0802e-06,10.794,8.2942e-07,6.232,8.3026e-12,9.6637e-05,-8.2942e-07,-6.2319,1.1334
9714,15.614,2.0909,0,0.00022746,2273,9.0085e-05,181.89,6.586e-05,-0.12211,-0.00022382,-2176.6,1.133
9715,15.522,2.1818,0,0.0002284,2282.5,8.8299e-05,156.22,6.7495e-05,-0.088723,-0.00022535,-2200.4,1.1218
9716,15.614,2.1818,0.05,1.0884e-06,10.876,8.3572e-07,6.2793,1.4988e-11,0.00015812,-8.3573e-07,-6.2793,1.1332
9717,15.614,1.9091,0,0.00022086,2207.1,8.9828e-05,205.54,6.2454e-05,-0.13656,-0.00021665,-2097.2,1.1327
9718,15.522,2,0,0.00022299,2228.3,8.8311e-05,178.28,6.4568e-05,-0.11496,-0.00021942,-2133.9,1.1215
9719,15.614,2,0.05,1.1352e-06,11.344,8.7166e-07,6.5493,1.4902e-11,0.0001553,-8.7167e-07,-6.5494,1.1329
9720,15.614,1.7273,0,0.00021321,2130.7,8.8801e-05,224.12,5.8955e-05,-0.12975,-0.00020852,-2009.8,1.1323
9721,15.522,1.8182,0,0.00021664,2164.9,8.7828e-05,198.15,6.1441e-05,-0.11354,-0.00021259,-2059.1,1.1212
9722,15.614,1.8182,0.05,1.2317e-06,12.309,9.4582e-07,7.1065,1.5388e-11,0.00015547,-9.4583e-07,-7.1066,1.1325
9723,15.614,1.5455,0,0.00020457,2044.3,8.667e-05,233.22,5.5615e-05,-0.11474,-0.0001996,-1917.7,1.1319
9724,15.522,1.6364,0,0.00020936,2092.1,8.6498e-05,211.48,5.8338e-05,-0.10229,-0.00020496,-1978.4,1.1208
9725,15.614,1.6364,0.05,1.3908e-06,13.898,1.068e-06,8.0243,1.1402e-11,0.0001283,-1.068e-06,-8.0243,1.1321
9726,15.614,1.3636,0,0.00019515,1950.2,8.334e-05,230.65,5.2629e-05,-0.094845,-0.00019021,-1824.7,1.1314
9727,15.522,1.4545,0,0.00020126,2011.2,8.4119e-05,215.26,5.5459e-05,-0.084643,-0.00019673,-1894.9,1.1203
9728,15.614,1.4545,0.05,1.6009e-06,15.998,1.2293e-06,9.2367,6.9855e-12,7.8583e-05,-1.2293e-06,-9.2367,1.1316
9729,15.614,1.1818,0,0.00018538,1852.5,7.8979e-05,216.79,5.0116e-05,-0.074203,-0.00018074,-1734.6,1.1309
9730,15.522,1.2727,0,0.00019262,1924.9,8.072e-05,208.62,5.2945e-05,-0.066891,-0.00018822,-1812.1,1.1198
9731,15.614,1.2727,0.05,1.8254e-06,18.241,1.4017e-06,10.531,3.4158e-12,4.3789e-05,-1.4017e-06,-10.531,1.1311
9732,15.614,1,0,0.00017573,1756.1,7.3921e-05,193.79,4.8122e-05,-0.048975,-0.00017163,-1651.2,1.1303
9733,15.522,1.0909,0,0.00018385,1837.3,7.6518e-05,192.62,5.0875e-05,-0.047961,-0.00017982,-1733.4,1.1192
9734,15.614,1.0909,0.05,2.0277e-06,20.263,1.557e-06,11.699,2.0284e-12,2.9972e-05,-1.557e-06,-11.699,1.1305
9735,15.614,0.81818,0,0.00016665,1665.4,6.8537e-05,164.45,4.6647e-05,-0.020765,-0.00016325,-1577.1,1.1296
9736,15.522,0.90909,0,0.00017536,1752.4,7.1818e-05,169.34,4.9277e-05,-0.023677,-0.00017187,-1661.6,1.1186
9737,15.614,0.90909,0.05,2.1906e-06,21.891,1.6821e-06,12.639,-1.6001e-12,1.6136e-05,-1.6821e-06,-12.639,1.1299
9738,15.614,0.63636,0,0.0001585,1583.9,6.3132e-05,131.2,4.5673e-05,0.021598,-0.00015586,-1514.2,1.1289
9739,15.522,0.72727,0,0.00016751,1674,6.6911e-05,140.97,4.8148e-05,-0.0028234,-0.00016467,-1599,1.118
9740,15.614,0.72727,0.05,2.3127e-06,23.111,1.7759e-06,13.343,-7.5174e-13,8.824e-06,-1.7759e-06,-13.343,1.1293
9741,15.614,0.45455,0,0.00015146,1513.5,5.7885e-05,95.474,4.5177e-05,-0.0029038,-0.00014961,-1463.5,1.1282
9742,15.522,0.54545,0,0.00016054,1604.2,6.2005e-05,109.17,4.7481e-05,0.044415,-0.0001584,-1546.9,1.1173
9743,15.614,0.54545,0.05,2.4018e-06,24.002,1.8443e-06,13.857,-1.2632e-12,3.2044e-06,-1.8443e-06,-13.857,1.1285
9744,15.614,0.27273,0,0.00014556,1454.6,5.2799e-05,57.378,4.5168e-05,0.041937,-0.0001445,-1425,1.1274
9745,15.522,0.36364,0,0.00015454,1544.3,5.7183e-05,74.506,4.7257e-05,-0.077295,-0.00015314,-1505.8,1.1165
9746,15.614,0.36364,0.05,2.4739e-06,24.722,1.8996e-06,14.273,-1.8977e-12,-2.4948e-06,-1.8996e-06,-14.273,1.1278
9747,15.522,0.18182,0,0.00014948,1493.8,5.2365e-05,36.49,4.7513e-05,0.037048,-0.00014883,-1475.2,1.1157
9748,15.614,0.18182,0.05,2.6309e-06,26.291,2.0202e-06,15.179,-4.2022e-13,-6.5147e-07,-2.0202e-06,-15.179,1.127
9749,15.614,0.090909,0,0.00014104,1409.5,4.8213e-05,20.02,4.555e-05,0.013753,-0.00014069,-1399.3,1.1266
9750,15.43,5.7273,0,0.00015847,1583.6,5.6762e-05,53.71,4.9611e-05,-0.01682,-0.00015749,-1556.1,1.1049
9751,15.339,5.8182,0,0.00016196,1618.5,5.6288e-05,34.094,5.1745e-05,-0.046101,-0.00016135,-1601.2,1.0932
9752,15.43,5.8182,0.05,2.2644e-06,22.628,1.7387e-06,13.064,2.1695e-12,7.4786e-06,-1.7387e-06,-13.064,1.1044
9753,15.43,5.9091,0,0.00015445,1543.4,5.2546e-05,18.931,5.0026e-05,0.00014627,-0.00015411,-1533.8,1.1041
9754,15.43,5.5455,0,0.00016367,1635.5,6.1353e-05,88.578,4.9561e-05,-0.020392,-0.00016198,-1589.5,1.1056
9755,15.339,5.6364,0,0.00016648,1663.6,6.0697e-05,69.302,5.146e-05,-0.10005,-0.00016519,-1627.9,1.094
9756,15.43,5.6364,0.05,2.2004e-06,21.988,1.6896e-06,12.695,2.3304e-12,9.2172e-06,-1.6896e-06,-12.695,1.1052
9757,15.43,5.3636,0,0.00016965,1695.3,6.5872e-05,119.61,4.9956e-05,0.023037,-0.00016729,-1632.3,1.1063
9758,15.339,5.4545,0,0.00017165,1715.3,6.4945e-05,100.24,5.1608e-05,0.037034,-0.00016972,-1662.9,1.0947
9759,15.43,5.4545,0.05,2.1288e-06,21.274,1.6347e-06,12.282,2.1769e-12,9.2632e-06,-1.6347e-06,-12.282,1.106
9760,15.43,5.1818,0,0.00017637,1762.5,7.0316e-05,146.79,5.0778e-05,-0.0047113,-0.00017341,-1684.5,1.107
9761,15.339,5.2727,0,0.00017748,1773.6,6.9084e-05,127.21,5.2154e-05,0.0049369,-0.00017497,-1706.5,1.0954
9762,15.43,5.2727,0.05,2.0351e-06,20.337,1.5627e-06,11.741,-1.0349e-13,2.9634e-06,-1.5627e-06,-11.742,1.1067
9763,15.43,5,0,0.00018367,1835.4,7.4564e-05,169.28,5.2031e-05,-0.022453,-0.0001802,-1745,1.1077
9764,15.339,5.0909,0,0.00018388,1837.5,7.3053e-05,149.9,5.3102e-05,-0.0055154,-0.00018087,-1758,1.0961
9765,15.43,5.0909,0.05,1.9132e-06,19.119,1.4691e-06,11.038,9.1908e-13,8.2127e-07,-1.4691e-06,-11.038,1.1073
9766,15.43,4.8182,0,0.00019129,1911.6,7.8416e-05,185.63,5.3705e-05,-0.040748,-0.00018746,-1812.1,1.1082
9767,15.339,4.9091,0,0.00019065,1905.2,7.6713e-05,167.31,5.4442e-05,-0.022538,-0.00018725,-1816,1.0967
9768,15.43,4.9091,0.05,1.7611e-06,17.599,1.3523e-06,10.161,5.741e-13,-8.9739e-06,-1.3523e-06,-10.161,1.1079
9769,15.43,4.6364,0,0.00019891,1987.8,8.1646e-05,194.32,5.5775e-05,-0.05669,-0.00019489,-1883.5,1.1088
9770,15.339,4.7273,0,0.00019753,1973.9,7.9879e-05,178.22,5.6154e-05,-0.037224,-0.00019389,-1878.8,1.0972
9771,15.43,4.7273,0.05,1.5832e-06,15.821,1.2157e-06,9.134,-1.1121e-12,-1.9571e-05,-1.2157e-06,-9.1341,1.1085
9772,15.43,4.4545,0,0.0002062,2060.6,8.4069e-05,194.43,5.8182e-05,-0.071748,-0.00020221,-1956.5,1.1093
9773,15.339,4.5455,0,0.00020424,2041,8.2377e-05,181.63,5.8197e-05,-0.052087,-0.00020054,-1944.1,1.0978
9774,15.43,4.5455,0.05,1.3922e-06,13.912,1.069e-06,8.0322,-2.5715e-12,-3.034e-05,-1.069e-06,-8.0322,1.109
9775,15.43,4.2727,0,0.0002129,2127.5,8.5617e-05,186.2,6.0824e-05,-0.085142,-0.00020912,-2028.3,1.1097
9776,15.339,4.3636,0,0.00021051,2103.6,8.41e-05,177.3,6.0494e-05,-0.066574,-0.00020693,-2009.4,1.0982
9777,15.43,4.3636,0.05,1.2074e-06,12.065,9.2712e-07,6.966,-4.3197e-12,-4.2821e-05,-9.2711e-07,-6.966,1.1095
9778,15.43,4.0909,0,0.00021884,2186.9,8.6375e-05,171.37,6.3555e-05,-0.090795,-0.00021542,-2096.2,1.11
9779,15.339,4.1818,0,0.00021615,2160,8.5062e-05,166.19,6.2933e-05,-0.078359,-0.00021285,-2072.2,1.0986
9780,15.43,4.1818,0.05,1.0464e-06,10.457,8.0349e-07,6.0371,-6.9027e-12,-9.6453e-05,-8.0349e-07,-6.0371,1.1099
9781,15.43,3.9091,0,0.00022398,2238.3,8.6566e-05,152.92,6.6203e-05,-0.080316,-0.00022099,-2157.9,1.1104
9782,15.339,4,0,0.00022109,2209.3,8.5408e-05,150.47,6.5371e-05,-0.079418,-0.00021814,-2130.3,1.0989
9783,15.43,4,0.05,9.1718e-07,9.1655,7.0428e-07,5.2917,-6.7601e-12,-8.6057e-05,-7.0428e-07,-5.2917,1.1102
9784,15.43,3.7273,0,0.00022831,2281.6,8.6461e-05,134.19,6.8594e-05,-0.049908,-0.00022573,-2211.5,1.1106
9785,15.339,3.8182,0,0.00022529,2251.4,8.5368e-05,133.02,6.7655e-05,-0.063403,-0.00022274,-2182,1.0992
9786,15.43,3.8182,0.05,8.2084e-07,8.2028,6.3031e-07,4.7359,-9.2429e-12,-6.2333e-05,-6.303e-07,-4.7359,1.1105
9787,15.43,3.5455,0,0.00023182,2316.6,8.6285e-05,117.99,7.0581e-05,-0.00098756,-0.00022959,-2255.3,1.1108
9788,15.339,3.6364,0,0.00022877,2286.2,8.5172e-05,116.67,6.964e-05,-0.028549,-0.00022657,-2225.6,1.0994
9789,15.43,3.6364,0.05,7.5937e-07,7.5884,5.831e-07,4.3812,-6.0336e-12,-3.9795e-05,-5.831e-07,-4.3812,1.1107
9790,15.43,3.3636,0,0.00023443,2342.7,8.6156e-05,105.98,7.2058e-05,0.054549,-0.00023245,-2287.9,1.111
9791,15.339,3.4545,0,0.00023149,2313.3,8.4979e-05,103.46,7.1211e-05,0.019728,-0.00022956,-2259.8,1.0996
9792,15.43,3.4545,0.05,7.3288e-07,7.3237,5.6276e-07,4.2284,-4.972e-12,-5.3905e-05,-5.6276e-07,-4.2284,1.1109
9793,15.43,3.1818,0,0.00023606,2358.9,8.6097e-05,98.776,7.2963e-05,0.097418,-0.00023422,-2308,1.111
9794,15.339,3.2727,0,0.00023338,2332.1,8.4855e-05,94.448,7.2294e-05,0.065888,-0.00023162,-2283.5,1.0997
9795,15.43,3.2727,0.05,7.3079e-07,7.3029,5.6116e-07,4.2163,-2.8337e-12,-2.3741e-05,-5.6116e-07,-4.2163,1.111
9796,15.43,3,0,0.00023661,2364.5,8.6082e-05,96.394,7.3268e-05,0.1133,-0.00023482,-2314.7,1.1111
9797,15.339,3.0909,0,0.00023434,2341.8,8.4801e-05,89.938,7.2844e-05,0.093647,-0.00023268,-2295.5,1.0998
9798,15.43,3.0909,0.05,7.3582e-07,7.3531,5.6502e-07,4.2454,-2.7424e-12,-6.7874e-06,-5.6502e-07,-4.2453,1.111
9799,15.43,2.8182,0,0.00023606,2358.9,8.6097e-05,98.776,7.2963e-05,0.097418,-0.00023422,-2308,1.111
9800,15.339,2.9091,0,0.00023434,2341.8,8.4801e-05,89.938,7.2844e-05,0.093648,-0.00023268,-2295.5,1.0998
9801,15.43,2.9091,0.05,7.3582e-07,7.3531,5.6502e-07,4.2454,1.4532e-13,1.1718e-05,-5.6502e-07,-4.2453,1.111
9802,15.43,2.6364,0,0.00023443,2342.7,8.6156e-05,105.98,7.2058e-05,0.054548,-0.00023245,-2287.9,1.111
9803,15.339,2.7273,0,0.00023338,2332.1,8.4855e-05,94.448,7.2294e-05,0.065887,-0.00023162,-2283.5,1.0997
9804,15.43,2.7273,0.05,7.3079e-07,7.3029,5.6116e-07,4.2163,3.2085e-12,3.5857e-05,-5.6116e-07,-4.2163,1.111
9805,15.43,2.4545,0,0.00023182,2316.6,8.6285e-05,117.99,7.0581e-05,-0.00098698,-0.00022959,-2255.3,1.1108
9806,15.339,2.5455,0,0.00023149,2313.3,8.4979e-05,103.46,7.1211e-05,0.019727,-0.00022956,-2259.8,1.0996
9807,15.43,2.5455,0.05,7.3288e-07,7.3237,5.6276e-07,4.2284,6.21e-12,5.9306e-05,-5.6276e-07,-4.2284,1.1109
9808,15.43,2.2727,0,0.00022831,2281.6,8.6461e-05,134.19,6.8594e-05,-0.049908,-0.00022573,-2211.5,1.1106
9809,15.339,2.3636,0,0.00022877,2286.2,8.5172e-05,116.67,6.964e-05,-0.028548,-0.00022657,-2225.6,1.0994
9810,15.43,2.3636,0.05,7.5937e-07,7.5884,5.831e-07,4.3812,1.1223e-11,0.00010415,-5.831e-07,-4.3812,1.1107
9811,15.43,2.0909,0,0.00022398,2238.3,8.6566e-05,152.92,6.6203e-05,-0.080316,-0.00022099,-2157.9,1.1104
9812,15.339,2.1818,0,0.00022529,2251.4,8.5368e-05,133.02,6.7655e-05,-0.063403,-0.00022274,-2182,1.0992
9813,15.43,2.1818,0.05,8.2085e-07,8.2028,6.303e-07,4.7359,1.6036e-11,0.00014991,-6.3031e-07,-4.7359,1.1105
9814,15.43,1.9091,0,0.00021884,2186.9,8.6375e-05,171.37,6.3555e-05,-0.090794,-0.00021542,-2096.2,1.11
9815,15.339,2,0,0.00022109,2209.3,8.5408e-05,150.47,6.5371e-05,-0.079418,-0.00021814,-2130.3,1.0989
9816,15.43,2,0.05,9.1718e-07,9.1655,7.0428e-07,5.2917,1.9799e-11,0.00015274,-7.0429e-07,-5.2917,1.1102
9817,15.43,1.7273,0,0.0002129,2127.5,8.5617e-05,186.2,6.0824e-05,-0.085142,-0.00020912,-2028.3,1.1097
9818,15.339,1.8182,0,0.00021615,2160,8.5062e-05,166.19,6.2933e-05,-0.078358,-0.00021285,-2072.2,1.0986
9819,15.43,1.8182,0.05,1.0464e-06,10.457,8.0349e-07,6.0371,1.2996e-11,0.00011483,-8.035e-07,-6.0371,1.1099
9820,15.43,1.5455,0,0.0002062,2060.6,8.4069e-05,194.43,5.8182e-05,-0.071747,-0.00020221,-1956.5,1.1093
9821,15.339,1.6364,0,0.00021051,2103.6,8.41e-05,177.3,6.0494e-05,-0.066575,-0.00020693,-2009.4,1.0982
9822,15.43,1.6364,0.05,1.2074e-06,12.065,9.2711e-07,6.966,9.252e-12,0.0001018,-9.2712e-07,-6.966,1.1095
9823,15.43,1.3636,0,0.00019891,1987.8,8.1646e-05,194.32,5.5775e-05,-0.056688,-0.00019489,-1883.5,1.1088
9824,15.339,1.4545,0,0.00020424,2041,8.2377e-05,181.63,5.8197e-05,-0.052085,-0.00020054,-1944.1,1.0978
9825,15.43,1.4545,0.05,1.3922e-06,13.912,1.069e-06,8.0322,4.9564e-12,6.3529e-05,-1.069e-06,-8.0322,1.109
9826,15.43,1.1818,0,0.00019129,1911.6,7.8416e-05,185.63,5.3705e-05,-0.040747,-0.00018746,-1812.1,1.1082
9827,15.339,1.2727,0,0.00019753,1973.9,7.9879e-05,178.22,5.6154e-05,-0.037223,-0.00019389,-1878.8,1.0972
9828,15.43,1.2727,0.05,1.5832e-06,15.821,1.2157e-06,9.1341,2.5452e-12,3.5654e-05,-1.2157e-06,-9.134,1.1085
9829,15.43,1,0,0.00018367,1835.4,7.4564e-05,169.28,5.2031e-05,-0.022451,-0.0001802,-1745,1.1077
9830,15.339,1.0909,0,0.00019065,1905.2,7.6713e-05,167.31,5.4442e-05,-0.022537,-0.00018725,-1816,1.0967
9831,15.43,1.0909,0.05,1.7611e-06,17.599,1.3523e-06,10.161,-5.2021e-13,2.3804e-05,-1.3523e-06,-10.161,1.1079
9832,15.43,0.81818,0,0.00017637,1762.5,7.0316e-05,146.79,5.0778e-05,-0.0047093,-0.00017341,-1684.5,1.107
9833,15.339,0.90909,0,0.00018388,1837.5,7.3053e-05,149.9,5.3102e-05,-0.0055145,-0.00018087,-1758,1.0961
9834,15.43,0.90909,0.05,1.9132e-06,19.119,1.4691e-06,11.038,-1.4669e-12,1.3062e-05,-1.4691e-06,-11.038,1.1073
9835,15.43,0.63636,0,0.00016965,1695.3,6.5872e-05,119.61,4.9956e-05,0.023039,-0.00016729,-1632.3,1.1063
9836,15.339,0.72727,0,0.00017748,1773.6,6.9084e-05,127.21,5.2154e-05,0.0049388,-0.00017497,-1706.5,1.0954
9837,15.43,0.72727,0.05,2.0351e-06,20.337,1.5627e-06,11.742,-1.6867e-12,5.8278e-06,-1.5627e-06,-11.741,1.1067
9838,15.43,0.45455,0,0.00016367,1635.5,6.1353e-05,88.578,4.9561e-05,-0.020391,-0.00016198,-1589.5,1.1056
9839,15.339,0.54545,0,0.00017165,1715.3,6.4945e-05,100.24,5.1608e-05,0.037036,-0.00016972,-1662.9,1.0947
9840,15.43,0.54545,0.05,2.1288e-06,21.274,1.6347e-06,12.282,-1.3366e-12,3.3109e-06,-1.6347e-06,-12.282,1.106
9841,15.43,0.27273,0,0.00015847,1583.6,5.6762e-05,53.71,4.9611e-05,-0.016821,-0.00015749,-1556.1,1.1049
9842,15.339,0.36364,0,0.00016648,1663.6,6.0697e-05,69.302,5.146e-05,-0.10005,-0.00016519,-1627.9,1.094
9843,15.43,0.36364,0.05,2.2004e-06,21.988,1.6896e-06,12.695,-1.0438e-12,-2.972e-07,-1.6896e-06,-12.695,1.1052
9844,15.339,0.18182,0,0.00016196,1618.5,5.6288e-05,34.094,5.1745e-05,-0.046102,-0.00016135,-1601.2,1.0932
9845,15.43,0.18182,0.05,2.2644e-06,22.628,1.7387e-06,13.064,-9.2387e-13,1.3379e-06,-1.7387e-06,-13.064,1.1044
9846,15.43,0.090909,0,0.00015445,1543.4,5.2546e-05,18.931,5.0026e-05,0.00014626,-0.00015411,-1533.8,1.1041
9847,15.247,5.7273,0,0.00016996,1698.5,6.0225e-05,49.691,5.3604e-05,-0.055315,-0.00016906,-1673.1,1.0824
9848,15.155,5.8182,0,0.00017312,1730,5.9774e-05,31.694,5.5544e-05,-0.094529,-0.00017256,-1714,1.0708
9849,15.247,5.8182,0.05,1.9301e-06,19.287,1.482e-06,11.135,1.6707e-12,6.0066e-06,-1.482e-06,-11.136,1.082
9850,15.247,5.9091,0,0.0001664,1662.8,5.6396e-05,17.79,5.4028e-05,-0.0080613,-0.00016609,-1653.9,1.0816
9851,15.247,5.5455,0,0.00017449,1743.7,6.4319e-05,81.193,5.3509e-05,-0.031464,-0.00017296,-1701.7,1.0832
9852,15.155,5.6364,0,0.00017708,1769.6,6.3735e-05,63.665,5.5247e-05,-0.11072,-0.00017592,-1737,1.0716
9853,15.247,5.6364,0.05,1.959e-06,19.577,1.5043e-06,11.303,2.3768e-12,9.9941e-06,-1.5043e-06,-11.303,1.0828
9854,15.247,5.3636,0,0.00017954,1794.2,6.8211e-05,108.25,5.3807e-05,0.02282,-0.00017745,-1737.6,1.0839
9855,15.155,5.4545,0,0.00018151,1813.8,6.7456e-05,91.145,5.5329e-05,0.030633,-0.00017979,-1766.5,1.0723
9856,15.247,5.4545,0.05,1.8949e-06,18.936,1.455e-06,10.932,3.1147e-12,1.0417e-05,-1.455e-06,-10.932,1.0835
9857,15.247,5.1818,0,0.00018508,1849.5,7.1896e-05,130.88,5.4478e-05,0.0057407,-0.0001825,-1780.6,1.0846
9858,15.155,5.2727,0,0.00018637,1862.4,7.0962e-05,114.24,5.5758e-05,0.0098759,-0.00018417,-1802.7,1.073
9859,15.247,5.2727,0.05,1.8054e-06,18.041,1.3863e-06,10.416,1.7619e-12,5.3148e-06,-1.3863e-06,-10.416,1.0842
9860,15.247,5,0,0.00019096,1908.3,7.529e-05,148.59,5.5513e-05,-0.0049233,-0.000188,-1829.7,1.0852
9861,15.155,5.0909,0,0.00019159,1914.5,7.4205e-05,132.79,5.6532e-05,0.0063381,-0.00018898,-1844.7,1.0737
9862,15.247,5.0909,0.05,1.6929e-06,16.917,1.2999e-06,9.767,2.8329e-12,3.3972e-06,-1.2999e-06,-9.767,1.0849
9863,15.247,4.8182,0,0.000197,1968.7,7.8268e-05,160.6,5.6891e-05,-0.018723,-0.00019378,-1883.4,1.0858
9864,15.155,4.9091,0,0.000197,1968.6,7.7094e-05,146.22,5.7632e-05,-0.0056586,-0.0001941,-1891.4,1.0743
9865,15.247,4.9091,0.05,1.5581e-06,15.57,1.1964e-06,8.9896,8.4756e-13,-7.247e-06,-1.1964e-06,-8.9896,1.0855
9866,15.247,4.6364,0,0.00020297,2028.3,8.0698e-05,166.18,5.8576e-05,-0.032391,-0.00019963,-1940.1,1.0863
9867,15.155,4.7273,0,0.00020242,2022.8,7.9518e-05,153.94,5.9028e-05,-0.017333,-0.00019936,-1941.5,1.0748
9868,15.247,4.7273,0.05,1.4054e-06,14.044,1.0792e-06,8.1085,-8.0198e-13,-1.2026e-05,-1.0792e-06,-8.1086,1.086
9869,15.247,4.4545,0,0.00020864,2084.9,8.2482e-05,165.06,6.0508e-05,-0.046557,-0.00020534,-1997.5,1.0867
9870,15.155,4.5455,0,0.00020766,2075.1,8.1381e-05,155.55,6.0674e-05,-0.03026,-0.00020457,-1993,1.0753
9871,15.247,4.5455,0.05,1.243e-06,12.421,9.5447e-07,7.1715,-1.5176e-12,-2.7973e-05,-9.5447e-07,-7.1716,1.0865
9872,15.247,4.2727,0,0.00021383,2136.9,8.3603e-05,157.73,6.2603e-05,-0.059306,-0.00021071,-2053.6,1.0872
9873,15.155,4.3636,0,0.00021252,2123.8,8.2638e-05,151.22,6.2505e-05,-0.043231,-0.00020955,-2044.1,1.0758
9874,15.247,4.3636,0.05,1.081e-06,10.803,8.3008e-07,6.2369,-2.7282e-12,-4.1501e-05,-8.3008e-07,-6.2369,1.0869
9875,15.247,4.0909,0,0.00021845,2183,8.4136e-05,145.6,6.4749e-05,-0.066509,-0.00021561,-2106.5,1.0875
9876,15.155,4.1818,0,0.0002169,2167.5,8.332e-05,141.87,6.4431e-05,-0.053523,-0.00021414,-2093.1,1.0761
9877,15.247,4.1818,0.05,9.2755e-07,9.2691,7.1225e-07,5.3515,-4.1736e-12,-3.8503e-05,-7.1224e-07,-5.3515,1.0873
9878,15.247,3.9091,0,0.00022243,2222.8,8.4238e-05,130.78,6.6824e-05,-0.062048,-0.00021992,-2154.5,1.0878
9879,15.155,4,0,0.00022073,2205.7,8.3538e-05,129.12,6.6346e-05,-0.056481,-0.00021825,-2138.4,1.0765
9880,15.247,4,0.05,7.8661e-07,7.8607,6.0403e-07,4.5384,-6.6178e-12,-6.8854e-05,-6.0402e-07,-4.5384,1.0877
9881,15.247,3.7273,0,0.00022577,2256.2,8.4095e-05,115.62,6.8701e-05,-0.041123,-0.00022358,-2196.1,1.0881
9882,15.155,3.8182,0,0.00022397,2238.2,8.3451e-05,115.02,6.8137e-05,-0.046785,-0.0002218,-2178.5,1.0767
9883,15.247,3.8182,0.05,6.6035e-07,6.5989,5.0707e-07,3.8099,-6.4037e-12,-5.4803e-05,-5.0706e-07,-3.8099,1.0879
9884,15.247,3.5455,0,0.00022845,2282.9,8.3871e-05,102.19,7.027e-05,-0.0055458,-0.00022654,-2230.1,1.0883
9885,15.155,3.6364,0,0.00022664,2264.8,8.3224e-05,101.59,6.97e-05,-0.022497,-0.00022474,-2212.3,1.077
9886,15.247,3.6364,0.05,5.5353e-07,5.5315,4.2505e-07,3.1936,-6.058e-12,-6.5152e-05,-4.2504e-07,-3.1936,1.0882
9887,15.247,3.3636,0,0.00023043,2302.7,8.3674e-05,91.904,7.1448e-05,0.035418,-0.00022873,-2255.4,1.0884
9888,15.155,3.4545,0,0.0002287,2285.4,8.2984e-05,90.462,7.0946e-05,0.011713,-0.00022703,-2238.8,1.0771
9889,15.247,3.4545,0.05,4.7379e-07,4.7346,3.6381e-07,2.7336,-4.2256e-12,-2.1535e-05,-3.6381e-07,-2.7335,1.0883
9890,15.247,3.1818,0,0.00023165,2314.9,8.3551e-05,85.541,7.2175e-05,0.068346,-0.00023008,-2270.9,1.0885
9891,15.155,3.2727,0,0.00023011,2299.5,8.2804e-05,82.642,7.1811e-05,0.045619,-0.0002286,-2257.1,1.0772
9892,15.247,3.2727,0.05,4.2544e-07,4.2514,3.2669e-07,2.4546,-3.0299e-12,-2.8457e-05,-3.2668e-07,-2.4546,1.0884
9893,15.247,3,0,0.00023207,2319.1,8.351e-05,83.398,7.2421e-05,0.080983,-0.00023053,-2276.2,1.0885
9894,15.155,3.0909,0,0.00023084,2306.8,8.271e-05,78.641,7.2253e-05,0.066852,-0.0002294,-2266.4,1.0773
9895,15.247,3.0909,0.05,4.046e-07,4.0432,3.1068e-07,2.3344,-2.0511e-12,-1.1666e-05,-3.1068e-07,-2.3343,1.0885
9896,15.247,2.8182,0,0.00023165,2314.9,8.3551e-05,85.541,7.2175e-05,0.068346,-0.00023008,-2270.9,1.0885
9897,15.155,2.9091,0,0.00023084,2306.8,8.271e-05,78.641,7.2253e-05,0.066853,-0.0002294,-2266.4,1.0773
9898,15.247,2.9091,0.05,4.046e-07,4.0432,3.1068e-07,2.3343,6.2584e-13,1.1881e-05,-3.1068e-07,-2.3343,1.0885
9899,15.247,2.6364,0,0.00023043,2302.7,8.3674e-05,91.904,7.1448e-05,0.035417,-0.00022873,-2255.4,1.0884
9900,15.155,2.7273,0,0.00023011,2299.5,8.2804e-05,82.642,7.1811e-05,0.045619,-0.0002286,-2257.1,1.0772
9901,15.247,2.7273,0.05,4.2544e-07,4.2514,3.2668e-07,2.4546,5.67e-12,6.498e-05,-3.2668e-07,-2.4546,1.0884
9902,15.247,2.4545,0,0.00022845,2282.9,8.3871e-05,102.19,7.027e-05,-0.0055467,-0.00022654,-2230.1,1.0883
9903,15.155,2.5455,0,0.0002287,2285.4,8.2984e-05,90.462,7.0946e-05,0.011713,-0.00022703,-2238.8,1.0771
9904,15.247,2.5455,0.05,4.7379e-07,4.7346,3.6381e-07,2.7335,9.4338e-12,0.00010531,-3.6382e-07,-2.7335,1.0883
9905,15.247,2.2727,0,0.00022577,2256.2,8.4095e-05,115.62,6.8701e-05,-0.041123,-0.00022358,-2196.1,1.0881
9906,15.155,2.3636,0,0.00022664,2264.8,8.3224e-05,101.59,6.97e-05,-0.022497,-0.00022474,-2212.3,1.077
9907,15.247,2.3636,0.05,5.5353e-07,5.5315,4.2504e-07,3.1936,1.2647e-11,0.00012134,-4.2505e-07,-3.1936,1.0882
9908,15.247,2.0909,0,0.00022243,2222.8,8.4238e-05,130.78,6.6824e-05,-0.062048,-0.00021992,-2154.5,1.0878
9909,15.155,2.1818,0,0.00022397,2238.2,8.3451e-05,115.02,6.8137e-05,-0.046785,-0.0002218,-2178.5,1.0767
9910,15.247,2.1818,0.05,6.6035e-07,6.5989,5.0706e-07,3.8099,1.4152e-11,0.00011922,-5.0707e-07,-3.8099,1.0879
9911,15.247,1.9091,0,0.00021845,2183,8.4136e-05,145.6,6.4749e-05,-0.06651,-0.00021561,-2106.5,1.0875
9912,15.155,2,0,0.00022073,2205.7,8.3538e-05,129.12,6.6346e-05,-0.056482,-0.00021825,-2138.4,1.0765
9913,15.247,2,0.05,7.8661e-07,7.8607,6.0402e-07,4.5384,1.234e-11,0.00010776,-6.0403e-07,-4.5384,1.0877
9914,15.247,1.7273,0,0.00021383,2136.9,8.3603e-05,157.73,6.2603e-05,-0.059306,-0.00021071,-2053.6,1.0872
9915,15.155,1.8182,0,0.0002169,2167.5,8.332e-05,141.87,6.4431e-05,-0.053522,-0.00021414,-2093.1,1.0761
9916,15.247,1.8182,0.05,9.2755e-07,9.2691,7.1224e-07,5.3515,8.8438e-12,9.1378e-05,-7.1225e-07,-5.3515,1.0873
9917,15.247,1.5455,0,0.00020864,2084.9,8.2482e-05,165.06,6.0508e-05,-0.046556,-0.00020534,-1997.5,1.0867
9918,15.155,1.6364,0,0.00021252,2123.8,8.2638e-05,151.22,6.2505e-05,-0.04323,-0.00020955,-2044.1,1.0758
9919,15.247,1.6364,0.05,1.081e-06,10.803,8.3008e-07,6.2369,6.5479e-12,7.1103e-05,-8.3008e-07,-6.2369,1.0869
9920,15.247,1.3636,0,0.00020297,2028.3,8.0698e-05,166.18,5.8576e-05,-0.03239,-0.00019963,-1940.1,1.0863
9921,15.155,1.4545,0,0.00020766,2075.1,8.1381e-05,155.55,6.0674e-05,-0.03026,-0.00020457,-1993,1.0753
9922,15.247,1.4545,0.05,1.243e-06,12.421,9.5447e-07,7.1716,4.2255e-12,5.0763e-05,-9.5447e-07,-7.1715,1.0865
9923,15.247,1.1818,0,0.000197,1968.7,7.8268e-05,160.6,5.6891e-05,-0.018723,-0.00019378,-1883.4,1.0858
9924,15.155,1.2727,0,0.00020242,2022.8,7.9518e-05,153.94,5.9028e-05,-0.017332,-0.00019936,-1941.5,1.0748
9925,15.247,1.2727,0.05,1.4054e-06,14.044,1.0792e-06,8.1086,9.6737e-13,2.9256e-05,-1.0792e-06,-8.1085,1.086
9926,15.247,1,0,0.00019096,1908.3,7.529e-05,148.59,5.5513e-05,-0.0049227,-0.000188,-1829.7,1.0852
9927,15.155,1.0909,0,0.000197,1968.6,7.7094e-05,146.23,5.7632e-05,-0.0056581,-0.0001941,-1891.4,1.0743
9928,15.247,1.0909,0.05,1.5581e-06,15.57,1.1964e-06,8.9896,-8.1358e-13,1.7887e-05,-1.1964e-06,-8.9895,1.0855
9929,15.247,0.81818,0,0.00018508,1849.5,7.1896e-05,130.88,5.4478e-05,0.0057416,-0.0001825,-1780.6,1.0846
9930,15.155,0.90909,0,0.00019159,1914.5,7.4205e-05,132.79,5.6532e-05,0.0063398,-0.00018898,-1844.7,1.0737
9931,15.247,0.90909,0.05,1.6929e-06,16.917,1.2999e-06,9.767,-2.4717e-12,8.662e-06,-1.2999e-06,-9.767,1.0849
9932,15.247,0.63636,0,0.00017954,1794.2,6.8211e-05,108.25,5.3807e-05,0.022822,-0.00017745,-1737.6,1.0839
9933,15.155,0.72727,0,0.00018637,1862.4,7.0962e-05,114.24,5.5758e-05,0.0098768,-0.00018417,-1802.7,1.073
9934,15.247,0.72727,0.05,1.8054e-06,18.041,1.3863e-06,10.416,-1.7412e-12,5.7984e-07,-1.3863e-06,-10.416,1.0842
9935,15.247,0.45455,0,0.00017449,1743.7,6.4319e-05,81.193,5.3509e-05,-0.031463,-0.00017296,-1701.7,1.0832
9936,15.155,0.54545,0,0.00018151,1813.8,6.7456e-05,91.145,5.5329e-05,0.030635,-0.00017979,-1766.5,1.0723
9937,15.247,0.54545,0.05,1.8949e-06,18.936,1.455e-06,10.932,-5.2922e-13,-2.5432e-07,-1.455e-06,-10.932,1.0835
9938,15.247,0.27273,0,0.00016996,1698.5,6.0225e-05,49.691,5.3604e-05,-0.055315,-0.00016906,-1673.1,1.0824
9939,15.155,0.36364,0,0.00017708,1769.6,6.3735e-05,63.665,5.5247e-05,-0.11072,-0.00017592,-1737,1.0716
9940,15.247,0.36364,0.05,1.959e-06,19.577,1.5043e-06,11.303,-2.4433e-12,-1.2012e-06,-1.5043e-06,-11.303,1.0828
9941,15.155,0.18182,0,0.00017312,1730,5.9774e-05,31.694,5.5544e-05,-0.09453,-0.00017256,-1714,1.0708
9942,15.247,0.18182,0.05,1.9301e-06,19.287,1.482e-06,11.136,-1.3839e-12,-2.5185e-07,-1.482e-06,-11.135,1.082
9943,15.247,0.090909,0,0.0001664,1662.8,5.6396e-05,17.79,5.4028e-05,-0.0080622,-0.00016609,-1653.9,1.0816
9944,15.063,5.7273,0,0.00018023,1801.1,6.3277e-05,45.618,5.7196e-05,-0.076788,-0.00017941,-1777.9,1.0601
9945,14.971,5.8182,0,0.00018314,1830.1,6.2892e-05,29.41,5.8963e-05,-0.11597,-0.00018262,-1815.3,1.0486
9946,15.063,5.8182,0.05,1.6334e-06,16.323,1.2543e-06,9.4242,2.1081e-12,5.1733e-06,-1.2543e-06,-9.4242,1.0597
9947,15.063,5.9091,0,0.00017709,1769.7,5.9832e-05,16.682,5.761e-05,-0.011953,-0.0001768,-1761.3,1.0593
9948,15.063,5.5455,0,0.00018412,1840,6.6889e-05,73.753,5.7068e-05,-0.037206,-0.00018276,-1802,1.0608
9949,14.971,5.6364,0,0.00018657,1864.4,6.6396e-05,57.981,5.8664e-05,-0.11278,-0.00018552,-1834.8,1.0493
9950,15.063,5.6364,0.05,1.7512e-06,17.5,1.3447e-06,10.104,2.3506e-12,9.8484e-06,-1.3447e-06,-10.104,1.0604
9951,15.063,5.3636,0,0.00018838,1882.5,7.0239e-05,97.384,5.7281e-05,0.021814,-0.00018653,-1831.9,1.0615
9952,14.971,5.4545,0,0.00019033,1902,6.9638e-05,82.266,5.8693e-05,0.025189,-0.0001888,-1859.5,1.0501
9953,15.063,5.4545,0.05,1.6982e-06,16.971,1.304e-06,9.7981,4.0333e-12,1.0661e-05,-1.304e-06,-9.7981,1.0612
9954,15.063,5.1818,0,0.00019294,1928,7.3315e-05,116.49,5.7813e-05,0.012318,-0.00019069,-1867.2,1.0622
9955,14.971,5.2727,0,0.00019438,1942.5,7.2616e-05,102.18,5.9019e-05,0.012639,-0.00019244,-1889.4,1.0508
9956,15.063,5.2727,0.05,1.6176e-06,16.165,1.2421e-06,9.3327,2.7359e-12,6.731e-06,-1.2421e-06,-9.3328,1.0619
9957,15.063,5,0,0.00019769,1975.5,7.6061e-05,130.82,5.8651e-05,0.0065062,-0.00019514,-1906.9,1.0628
9958,14.971,5.0909,0,0.00019863,1984.9,7.529e-05,117.63,5.9636e-05,0.013638,-0.00019637,-1923.5,1.0514
9959,15.063,5.0909,0.05,1.5183e-06,15.172,1.1658e-06,8.7596,2.944e-12,3.499e-06,-1.1658e-06,-8.7597,1.0625
9960,15.063,4.8182,0,0.00020249,2023.5,7.8398e-05,139.97,5.9768e-05,-0.003797,-0.00019975,-1949.9,1.0634
9961,14.971,4.9091,0,0.00020297,2028.3,7.7602e-05,128.33,6.0523e-05,0.0053187,-0.00020048,-1961.1,1.052
9962,15.063,4.9091,0.05,1.4022e-06,14.012,1.0767e-06,8.0901,1.1615e-12,-6.7496e-07,-1.0767e-06,-8.0901,1.0631
9963,15.063,4.6364,0,0.00020718,2070.4,8.0253e-05,143.7,6.1126e-05,-0.014905,-0.00020436,-1994.8,1.0639
9964,14.971,4.7273,0,0.00020726,2071.1,7.9487e-05,134.03,6.1648e-05,-0.0037418,-0.00020465,-2000.9,1.0525
9965,15.063,4.7273,0.05,1.2729e-06,12.72,9.7742e-07,7.344,7.8355e-13,-5.9709e-06,-9.7743e-07,-7.344,1.0636
9966,15.063,4.4545,0,0.0002116,2114.6,8.1581e-05,142.05,6.2672e-05,-0.026692,-0.00020883,-2040,1.0644
9967,14.971,4.5455,0,0.00021136,2112.1,8.0896e-05,134.69,6.2968e-05,-0.014378,-0.00020874,-2041.5,1.053
9968,15.063,4.5455,0.05,1.1354e-06,11.347,8.7187e-07,6.5509,-5.6297e-13,-1.0328e-05,-8.7188e-07,-6.551,1.0641
9969,15.063,4.2727,0,0.00021564,2154.9,8.239e-05,135.63,6.4334e-05,-0.037256,-0.00021301,-2083.9,1.0648
9970,14.971,4.3636,0,0.00021514,2150,8.1819e-05,130.67,6.4425e-05,-0.02501,-0.00021262,-2081.7,1.0534
9971,15.063,4.3636,0.05,9.9518e-07,9.945,7.6418e-07,5.7417,-1.7981e-12,-1.8593e-05,-7.6418e-07,-5.7417,1.0646
9972,15.063,4.0909,0,0.00021922,2190.6,8.2747e-05,125.58,6.6027e-05,-0.043411,-0.00021681,-2125.2,1.0651
9973,14.971,4.1818,0,0.00021854,2183.9,8.2294e-05,122.78,6.5948e-05,-0.033469,-0.00021619,-2119.9,1.0538
9974,15.063,4.1818,0.05,8.5587e-07,8.5528,6.5721e-07,4.938,-1.7729e-12,-2.5294e-05,-6.572e-07,-4.938,1.0649
9975,15.063,3.9091,0,0.00022229,2221.4,8.2769e-05,113.49,6.7659e-05,-0.041199,-0.00022014,-2162.5,1.0654
9976,14.971,4,0,0.0002215,2213.4,8.2409e-05,112.3,6.7457e-05,-0.036347,-0.00021937,-2155.2,1.0541
9977,15.063,4,0.05,7.1898e-07,7.1848,5.5208e-07,4.1481,-3.3992e-12,-2.9381e-05,-5.5209e-07,-4.1482,1.0653
9978,15.063,3.7273,0,0.00022485,2247,8.2592e-05,101.07,6.9137e-05,-0.027851,-0.00022296,-2194.8,1.0657
9979,14.971,3.8182,0,0.00022399,2238.4,8.2282e-05,100.76,6.8867e-05,-0.030421,-0.00022211,-2186.3,1.0544
9980,15.063,3.8182,0.05,5.8488e-07,5.8448,4.4912e-07,3.3745,-3.8433e-12,1.013e-05,-4.4912e-07,-3.3745,1.0655
9981,15.063,3.5455,0,0.00022689,2267.3,8.2342e-05,89.904,7.0376e-05,-0.0039339,-0.00022523,-2221.1,1.0659
9982,14.971,3.6364,0,0.00022602,2258.7,8.2038e-05,89.688,7.0099e-05,-0.014436,-0.00022436,-2212.5,1.0546
9983,15.063,3.6364,0.05,4.5495e-07,4.5464,3.4935e-07,2.6248,-4.1911e-13,-0.00010449,-3.4934e-07,-2.6248,1.0658
9984,15.063,3.3636,0,0.00022838,2282.2,8.2113e-05,81.198,7.131e-05,0.024929,-0.00022689,-2240.5,1.066
9985,14.971,3.4545,0,0.00022758,2274.2,8.1779e-05,80.359,7.1085e-05,0.0090593,-0.0002261,-2232.9,1.0548
9986,15.063,3.4545,0.05,3.3267e-07,3.3244,2.5545e-07,1.9194,-5.5238e-12,-3.1028e-05,-2.5545e-07,-1.9194,1.0659
9987,15.063,3.1818,0,0.00022929,2291.3,8.196e-05,75.715,7.1889e-05,0.048901,-0.00022791,-2252.5,1.0661
9988,14.971,3.2727,0,0.00022863,2284.7,8.1575e-05,73.696,7.1771e-05,0.033052,-0.00022729,-2247,1.0549
9989,15.063,3.2727,0.05,2.2466e-07,2.2451,1.7252e-07,1.2962,-1.0252e-12,6.9901e-06,-1.7251e-07,-1.2962,1.066
9990,15.063,3,0,0.0002296,2294.4,8.1907e-05,73.849,7.2086e-05,0.05826,-0.00022825,-2256.6,1.0661
9991,14.971,3.0909,0,0.00022917,2290.1,8.1466e-05,70.243,7.2124e-05,0.048373,-0.00022789,-2254.1,1.055
9992,15.063,3.0909,0.05,1.4855e-07,1.4845,1.1407e-07,0.85709,-2.9338e-12,-2.3544e-05,-1.1407e-07,-0.85707,1.0661
9993,15.063,2.8182,0,0.00022929,2291.3,8.196e-05,75.715,7.1889e-05,0.048901,-0.00022791,-2252.5,1.0661
9994,14.971,2.9091,0,0.00022917,2290.1,8.1466e-05,70.243,7.2124e-05,0.048373,-0.00022789,-2254.1,1.055
9995,15.063,2.9091,0.05,1.4855e-07,1.4845,1.1407e-07,0.85709,1.841e-12,3.3494e-05,-1.1407e-07,-0.85707,1.0661
9996,15.063,2.6364,0,0.00022838,2282.2,8.2113e-05,81.198,7.131e-05,0.02493,-0.00022689,-2240.5,1.066
9997,14.971,2.7273,0,0.00022863,2284.7,8.1575e-05,73.696,7.1771e-05,0.033052,-0.00022729,-2247,1.0549
9998,15.063,2.7273,0.05,2.2466e-07,2.2451,1.7251e-07,1.2962,7.8444e-12,9.2502e-05,-1.7252e-07,-1.2962,1.066
9999,15.063,2.4545,0,0.00022689,2267.3,8.2342e-05,89.904,7.0376e-05,-0.0039333,-0.00022523,-2221.1,1.0659
10000,14.971,2.5455,0,0.00022758,2274.2,8.1779e-05,80.359,7.1085e-05,0.0090598,-0.0002261,-2232.9,1.0548
10001,15.063,2.5455,0.05,3.3267e-07,3.3244,2.5545e-07,1.9194,9.1353e-12,0.00012237,-2.5546e-07,-1.9194,1.0659
10002,15.063,2.2727,0,0.00022485,2247,8.2592e-05,101.07,6.9137e-05,-0.027851,-0.00022296,-2194.8,1.0657
10003,14.971,2.3636,0,0.00022602,2258.7,8.2038e-05,89.688,7.0099e-05,-0.014436,-0.00022436,-2212.5,1.0546
10004,15.063,2.3636,0.05,4.5495e-07,4.5464,3.4934e-07,2.6248,7.7309e-12,0.00011012,-3.4935e-07,-2.6249,1.0658
10005,15.063,2.0909,0,0.00022229,2221.4,8.2769e-05,113.49,6.7659e-05,-0.041199,-0.00022014,-2162.5,1.0654
10006,14.971,2.1818,0,0.00022399,2238.4,8.2282e-05,100.76,6.8867e-05,-0.030421,-0.00022211,-2186.3,1.0544
10007,15.063,2.1818,0.05,5.8488e-07,5.8448,4.4912e-07,3.3745,1.0686e-11,9.6127e-05,-4.4912e-07,-3.3745,1.0655
10008,15.063,1.9091,0,0.00021922,2190.6,8.2747e-05,125.58,6.6027e-05,-0.04341,-0.00021681,-2125.2,1.0651
10009,14.971,2,0,0.0002215,2213.4,8.2409e-05,112.3,6.7457e-05,-0.036347,-0.00021937,-2155.2,1.0541
10010,15.063,2,0.05,7.1898e-07,7.1848,5.5208e-07,4.1482,7.312e-12,8.2372e-05,-5.5209e-07,-4.1481,1.0653
10011,15.063,1.7273,0,0.00021564,2154.9,8.239e-05,135.63,6.4334e-05,-0.037254,-0.00021301,-2083.9,1.0648
10012,14.971,1.8182,0,0.00021854,2183.9,8.2294e-05,122.78,6.5948e-05,-0.033469,-0.00021619,-2119.9,1.0538
10013,15.063,1.8182,0.05,8.5587e-07,8.5528,6.572e-07,4.938,5.1679e-12,5.425e-05,-6.572e-07,-4.938,1.0649
10014,15.063,1.5455,0,0.0002116,2114.6,8.1581e-05,142.05,6.2672e-05,-0.02669,-0.00020883,-2040,1.0644
10015,14.971,1.6364,0,0.00021514,2150,8.1819e-05,130.67,6.4425e-05,-0.025009,-0.00021262,-2081.7,1.0534
10016,15.063,1.6364,0.05,9.9518e-07,9.945,7.6418e-07,5.7418,4.0091e-12,5.2931e-05,-7.6418e-07,-5.7417,1.0646
10017,15.063,1.3636,0,0.00020718,2070.4,8.0253e-05,143.7,6.1126e-05,-0.014905,-0.00020436,-1994.8,1.0639
10018,14.971,1.4545,0,0.00021136,2112.1,8.0896e-05,134.69,6.2968e-05,-0.014377,-0.00020874,-2041.5,1.053
10019,15.063,1.4545,0.05,1.1354e-06,11.347,8.7188e-07,6.551,2.7912e-12,3.28e-05,-8.7188e-07,-6.5509,1.0641
10020,15.063,1.1818,0,0.00020249,2023.5,7.8398e-05,139.97,5.9768e-05,-0.0037965,-0.00019975,-1949.9,1.0634
10021,14.971,1.2727,0,0.00020726,2071.1,7.9487e-05,134.03,6.1648e-05,-0.0037413,-0.00020465,-2000.9,1.0525
10022,15.063,1.2727,0.05,1.2729e-06,12.72,9.7743e-07,7.344,6.5458e-13,2.1397e-05,-9.7742e-07,-7.3439,1.0636
10023,15.063,1,0,0.00019769,1975.5,7.6061e-05,130.82,5.8651e-05,0.0065079,-0.00019514,-1906.9,1.0628
10024,14.971,1.0909,0,0.00020297,2028.3,7.7602e-05,128.33,6.0523e-05,0.0053195,-0.00020048,-1961.1,1.052
10025,15.063,1.0909,0.05,1.4022e-06,14.012,1.0767e-06,8.0902,-1.235e-12,1.3275e-05,-1.0767e-06,-8.0901,1.0631
10026,15.063,0.81818,0,0.00019294,1928,7.3315e-05,116.49,5.7813e-05,0.012319,-0.00019069,-1867.2,1.0622
10027,14.971,0.90909,0,0.00019863,1984.9,7.529e-05,117.63,5.9636e-05,0.01364,-0.00019637,-1923.5,1.0514
10028,15.063,0.90909,0.05,1.5183e-06,15.172,1.1658e-06,8.7597,-2.6351e-12,5.3919e-06,-1.1658e-06,-8.7596,1.0625
10029,15.063,0.63636,0,0.00018838,1882.5,7.0239e-05,97.384,5.7281e-05,0.021815,-0.00018653,-1831.9,1.0615
10030,14.971,0.72727,0,0.00019438,1942.5,7.2616e-05,102.18,5.9019e-05,0.012641,-0.00019244,-1889.4,1.0508
10031,15.063,0.72727,0.05,1.6176e-06,16.165,1.2421e-06,9.3328,-3.6488e-12,-8.1845e-08,-1.2421e-06,-9.3327,1.0619
10032,15.063,0.45455,0,0.00018412,1840,6.6889e-05,73.753,5.7068e-05,-0.037206,-0.00018276,-1802,1.0608
10033,14.971,0.54545,0,0.00019033,1902,6.9638e-05,82.266,5.8693e-05,0.025189,-0.0001888,-1859.5,1.0501
10034,15.063,0.54545,0.05,1.6982e-06,16.971,1.304e-06,9.7981,-2.38e-12,-1.3864e-06,-1.304e-06,-9.798,1.0612
10035,15.063,0.27273,0,0.00018023,1801.1,6.3277e-05,45.618,5.7196e-05,-0.076788,-0.00017941,-1777.9,1.0601
10036,14.971,0.36364,0,0.00018657,1864.4,6.6396e-05,57.981,5.8664e-05,-0.11278,-0.00018552,-1834.8,1.0493
10037,15.063,0.36364,0.05,1.7512e-06,17.5,1.3447e-06,10.104,-2.492e-12,-2.0993e-06,-1.3447e-06,-10.104,1.0604
10038,14.971,0.18182,0,0.00018314,1830.1,6.2892e-05,29.41,5.8963e-05,-0.11597,-0.00018262,-1815.3,1.0486
10039,15.063,0.18182,0.05,1.6334e-06,16.323,1.2543e-06,9.4242,-2.1433e-12,5.4393e-07,-1.2543e-06,-9.4241,1.0597
10040,15.063,0.090909,0,0.00017709,1769.7,5.9832e-05,16.682,5.761e-05,-0.011953,-0.0001768,-1761.3,1.0593
10041,14.879,5.7273,0,0.00018947,1893.3,6.6e-05,41.69,6.044e-05,-0.086107,-0.00018872,-1872.2,1.0379
10042,14.788,5.8182,0,0.00019219,1920.6,6.5706e-05,27.306,6.2056e-05,-0.11913,-0.00019171,-1906.9,1.0264
10043,14.879,5.8182,0.05,1.3755e-06,13.746,1.0562e-06,7.9361,3.3976e-12,3.8414e-06,-1.0562e-06,-7.9362,1.0374
10044,14.879,5.9091,0,0.0001867,1865.7,6.2919e-05,15.655,6.0834e-05,-0.013256,-0.00018643,-1857.9,1.0371
10045,14.879,5.5455,0,0.00019279,1926.5,6.9156e-05,66.569,6.0291e-05,-0.039487,-0.00019157,-1892.4,1.0386
10046,14.788,5.6364,0,0.00019513,1949.9,6.8767e-05,52.509,6.1764e-05,-0.1094,-0.00019418,-1923.2,1.0272
10047,14.879,5.6364,0.05,1.5755e-06,15.744,1.2098e-06,9.09,2.2903e-12,8.4091e-06,-1.2098e-06,-9.0901,1.0382
10048,14.879,5.3636,0,0.00019636,1962.2,7.2035e-05,87.209,6.0431e-05,0.020038,-0.00019473,-1917.1,1.0393
10049,14.788,5.4545,0,0.00019831,1981.7,7.1579e-05,73.864,6.1751e-05,0.020434,-0.00019695,-1943.8,1.0279
10050,14.879,5.4545,0.05,1.5353e-06,15.342,1.1789e-06,8.8578,3.1145e-12,1.1516e-05,-1.1789e-06,-8.8579,1.039
10051,14.879,5.1818,0,0.00020011,1999.7,7.4618e-05,103.52,6.0842e-05,0.015827,-0.00019814,-1945.9,1.04
10052,14.788,5.2727,0,0.00020167,2015.3,7.4113e-05,91.107,6.1989e-05,0.013697,-0.00019997,-1968.2,1.0286
10053,14.879,5.2727,0.05,1.4653e-06,14.643,1.1252e-06,8.4542,3.7064e-12,8.1433e-06,-1.1252e-06,-8.4543,1.0396
10054,14.879,5,0,0.00020395,2038.1,7.6863e-05,115.38,6.1509e-05,0.01342,-0.00020174,-1978,1.0406
10055,14.788,5.0909,0,0.00020514,2050,7.6335e-05,104.18,6.2472e-05,0.017615,-0.00020317,-1995.9,1.0292
10056,14.879,5.0909,0.05,1.38e-06,13.791,1.0597e-06,7.9621,3.1278e-12,5.7676e-06,-1.0597e-06,-7.9621,1.0403
10057,14.879,4.8182,0,0.00020778,2076.3,7.8724e-05,122.63,6.2403e-05,0.005901,-0.00020542,-2012.3,1.0412
10058,14.788,4.9091,0,0.00020863,2084.8,7.8208e-05,112.95,6.3177e-05,0.012112,-0.00020647,-2026,1.0298
10059,14.879,4.9091,0.05,1.2818e-06,12.809,9.8428e-07,7.3955,1.5558e-12,3.6799e-06,-9.8429e-07,-7.3956,1.0409
10060,14.879,4.6364,0,0.00021147,2113.3,8.0161e-05,125.26,6.3489e-05,-0.0029197,-0.00020906,-2047.9,1.0417
10061,14.788,4.7273,0,0.00021203,2118.8,7.9695e-05,117.38,6.4074e-05,0.0052837,-0.00020978,-2057.7,1.0304
10062,14.879,4.7273,0.05,1.1733e-06,11.725,9.0098e-07,6.7696,1.3975e-12,-3.1758e-06,-9.0098e-07,-6.7696,1.0414
10063,14.879,4.4545,0,0.00021493,2147.8,8.1161e-05,123.51,6.4721e-05,-0.012544,-0.00021257,-2083.4,1.0421
10064,14.788,4.5455,0,0.00021524,2151,8.0777e-05,117.59,6.5126e-05,-0.0032193,-0.000213,-2089.7,1.0309
10065,14.879,4.5455,0.05,1.0578e-06,10.571,8.1228e-07,6.1031,6.601e-13,-9.7903e-06,-8.1228e-07,-6.1032,1.0419
10066,14.879,4.2727,0,0.00021807,2179.2,8.1744e-05,117.98,6.6039e-05,-0.021201,-0.00021583,-2117.9,1.0425
10067,14.788,4.3636,0,0.0002182,2180.5,8.146e-05,114.02,6.6283e-05,-0.011779,-0.00021604,-2121.2,1.0313
10068,14.879,4.3636,0.05,9.3829e-07,9.3764,7.2049e-07,5.4134,6.0086e-14,-1.6815e-05,-7.2049e-07,-5.4135,1.0423
10069,14.879,4.0909,0,0.00022084,2206.9,8.1971e-05,109.63,6.7378e-05,-0.026525,-0.00021877,-2150,1.0429
10070,14.788,4.1818,0,0.00022083,2206.8,8.1785e-05,107.4,6.7488e-05,-0.01863,-0.00021881,-2151.1,1.0317
10071,14.879,4.1818,0.05,8.1669e-07,8.1612,6.2711e-07,4.7119,-4.3922e-13,-1.3624e-05,-6.2712e-07,-4.7119,1.0427
10072,14.879,3.9091,0,0.00022321,2230.6,8.1933e-05,99.67,6.8665e-05,-0.025768,-0.00022135,-2179.1,1.0432
10073,14.788,4,0,0.00022311,2229.6,8.1825e-05,98.754,6.8679e-05,-0.021388,-0.00022127,-2178.6,1.032
10074,14.879,4,0.05,6.9377e-07,6.9329,5.3273e-07,4.0027,7.0258e-13,9.1511e-06,-5.3273e-07,-4.0027,1.043
10075,14.879,3.7273,0,0.00022517,2250.1,8.1736e-05,89.44,6.983e-05,-0.01701,-0.00022351,-2204.1,1.0434
10076,14.788,3.8182,0,0.00022502,2248.7,8.1673e-05,89.259,6.9791e-05,-0.017857,-0.00022337,-2202.7,1.0323
10077,14.879,3.8182,0.05,5.697e-07,5.693,4.3746e-07,3.2869,-6.1732e-13,-1.7714e-05,-4.3745e-07,-3.2869,1.0433
10078,14.879,3.5455,0,0.00022671,2265.5,8.1478e-05,80.171,7.0808e-05,-0.00071285,-0.00022524,-2224.4,1.0436
10079,14.788,3.6364,0,0.00022657,2264.1,8.1425e-05,80.106,7.0763e-05,-0.0072222,-0.0002251,-2223,1.0325
10080,14.879,3.6364,0.05,4.4499e-07,4.4468,3.417e-07,2.5674,-1.2881e-12,-2.0159e-05,-3.417e-07,-2.5674,1.0435
10081,14.879,3.3636,0,0.00022783,2276.7,8.1242e-05,72.864,7.1547e-05,0.019238,-0.0002265,-2239.4,1.0438
10082,14.788,3.4545,0,0.00022773,2275.8,8.1167e-05,72.329,7.1542e-05,0.008718,-0.00022642,-2238.7,1.0326
10083,14.879,3.4545,0.05,3.2106e-07,3.2084,2.4653e-07,1.8524,1.6291e-12,2.0272e-05,-2.4654e-07,-1.8524,1.0437
10084,14.879,3.1818,0,0.00022851,2283.5,8.108e-05,68.215,7.2006e-05,0.036011,-0.00022727,-2248.6,1.0438
10085,14.788,3.2727,0,0.00022852,2283.6,8.0962e-05,66.721,7.2085e-05,0.025191,-0.00022731,-2249.5,1.0327
10086,14.879,3.2727,0.05,2.0078e-07,2.0064,1.5417e-07,1.1584,2.841e-12,2.1629e-05,-1.5417e-07,-1.1584,1.0438
10087,14.879,3,0,0.00022873,2285.8,8.1023e-05,66.623,7.2162e-05,0.042612,-0.00022753,-2251.7,1.0439
10088,14.788,3.0909,0,0.00022892,2287.6,8.085e-05,63.793,7.2364e-05,0.035802,-0.00022777,-2255,1.0328
10089,14.879,3.0909,0.05,9.6241e-08,0.96174,7.3901e-08,0.55526,3.5286e-12,3.1479e-05,-7.39e-08,-0.55526,1.0438
10090,14.879,2.8182,0,0.00022851,2283.5,8.108e-05,68.215,7.2006e-05,0.036011,-0.00022727,-2248.6,1.0438
10091,14.788,2.9091,0,0.00022892,2287.6,8.085e-05,63.793,7.2364e-05,0.035801,-0.00022777,-2255,1.0328
10092,14.879,2.9091,0.05,9.6241e-08,0.96174,7.3904e-08,0.55528,-2.4435e-12,-1.3201e-05,-7.3898e-08,-0.55524,1.0438
10093,14.879,2.6364,0,0.00022783,2276.7,8.1242e-05,72.864,7.1547e-05,0.019238,-0.0002265,-2239.4,1.0438
10094,14.788,2.7273,0,0.00022852,2283.6,8.0962e-05,66.721,7.2085e-05,0.025191,-0.00022731,-2249.5,1.0327
10095,14.879,2.7273,0.05,2.0078e-07,2.0064,1.5417e-07,1.1584,1.918e-12,2.402e-06,-1.5417e-07,-1.1584,1.0438
10096,14.879,2.4545,0,0.00022671,2265.5,8.1478e-05,80.171,7.0808e-05,-0.00071264,-0.00022524,-2224.4,1.0436
10097,14.788,2.5455,0,0.00022773,2275.8,8.1167e-05,72.329,7.1542e-05,0.0087182,-0.00022642,-2238.7,1.0326
10098,14.879,2.5455,0.05,3.2106e-07,3.2084,2.4653e-07,1.8524,3.7804e-12,2.8752e-05,-2.4654e-07,-1.8524,1.0437
10099,14.879,2.2727,0,0.00022517,2250.1,8.1736e-05,89.44,6.983e-05,-0.01701,-0.00022351,-2204.1,1.0434
10100,14.788,2.3636,0,0.00022657,2264.1,8.1425e-05,80.106,7.0763e-05,-0.0072225,-0.0002251,-2223,1.0325
10101,14.879,2.3636,0.05,4.4499e-07,4.4468,3.417e-07,2.5674,3.5659e-12,4.8041e-05,-3.417e-07,-2.5674,1.0435
10102,14.879,2.0909,0,0.00022321,2230.6,8.1933e-05,99.67,6.8665e-05,-0.025767,-0.00022135,-2179.1,1.0432
10103,14.788,2.1818,0,0.00022502,2248.7,8.1673e-05,89.26,6.9791e-05,-0.017856,-0.00022337,-2202.7,1.0323
10104,14.879,2.1818,0.05,5.697e-07,5.693,4.3746e-07,3.2869,4.4306e-12,4.4773e-05,-4.3746e-07,-3.2869,1.0433
10105,14.879,1.9091,0,0.00022084,2206.9,8.1971e-05,109.63,6.7378e-05,-0.026525,-0.00021877,-2150,1.0429
10106,14.788,2,0,0.00022311,2229.6,8.1825e-05,98.754,6.8679e-05,-0.021387,-0.00022127,-2178.6,1.032
10107,14.879,2,0.05,6.9377e-07,6.9329,5.3273e-07,4.0027,3.1244e-12,4.0931e-05,-5.3273e-07,-4.0027,1.043
10108,14.879,1.7273,0,0.00021807,2179.2,8.1744e-05,117.98,6.6039e-05,-0.021201,-0.00021583,-2117.9,1.0425
10109,14.788,1.8182,0,0.00022083,2206.8,8.1785e-05,107.4,6.7488e-05,-0.018629,-0.00021881,-2151.1,1.0317
10110,14.879,1.8182,0.05,8.1669e-07,8.1612,6.2711e-07,4.7119,2.2069e-12,4.5415e-05,-6.2712e-07,-4.7119,1.0427
10111,14.879,1.5455,0,0.00021493,2147.8,8.1161e-05,123.51,6.4721e-05,-0.012544,-0.00021257,-2083.4,1.0421
10112,14.788,1.6364,0,0.0002182,2180.5,8.146e-05,114.02,6.6283e-05,-0.011778,-0.00021604,-2121.2,1.0313
10113,14.879,1.6364,0.05,9.3829e-07,9.3764,7.2049e-07,5.4135,2.4729e-12,3.6204e-05,-7.2049e-07,-5.4134,1.0423
10114,14.879,1.3636,0,0.00021147,2113.3,8.0161e-05,125.26,6.3489e-05,-0.0029191,-0.00020906,-2047.9,1.0417
10115,14.788,1.4545,0,0.00021524,2151,8.0777e-05,117.59,6.5126e-05,-0.0032185,-0.000213,-2089.7,1.0309
10116,14.879,1.4545,0.05,1.0578e-06,10.571,8.1228e-07,6.1032,-4.4311e-13,2.2081e-05,-8.1228e-07,-6.1031,1.0419
10117,14.879,1.1818,0,0.00020778,2076.3,7.8724e-05,122.63,6.2403e-05,0.0059019,-0.00020542,-2012.3,1.0412
10118,14.788,1.2727,0,0.00021203,2118.8,7.9695e-05,117.38,6.4074e-05,0.005284,-0.00020978,-2057.7,1.0304
10119,14.879,1.2727,0.05,1.1733e-06,11.725,9.0098e-07,6.7696,-1.8384e-13,1.3096e-05,-9.0098e-07,-6.7696,1.0414
10120,14.879,1,0,0.00020395,2038.1,7.6863e-05,115.38,6.1509e-05,0.013421,-0.00020174,-1978,1.0406
10121,14.788,1.0909,0,0.00020863,2084.8,7.8208e-05,112.95,6.3176e-05,0.012113,-0.00020647,-2026,1.0298
10122,14.879,1.0909,0.05,1.2818e-06,12.809,9.8429e-07,7.3956,-1.7295e-12,7.1232e-06,-9.8428e-07,-7.3955,1.0409
10123,14.879,0.81818,0,0.00020011,1999.7,7.4618e-05,103.52,6.0842e-05,0.015828,-0.00019814,-1945.9,1.04
10124,14.788,0.90909,0,0.00020514,2050,7.6335e-05,104.18,6.2472e-05,0.017616,-0.00020317,-1995.9,1.0292
10125,14.879,0.90909,0.05,1.38e-06,13.791,1.0597e-06,7.9621,-2.9016e-12,7.8567e-07,-1.0597e-06,-7.9621,1.0403
10126,14.879,0.63636,0,0.00019636,1962.2,7.2035e-05,87.209,6.0431e-05,0.020039,-0.00019473,-1917.1,1.0393
10127,14.788,0.72727,0,0.00020167,2015.3,7.4113e-05,91.107,6.1989e-05,0.013698,-0.00019997,-1968.2,1.0286
10128,14.879,0.72727,0.05,1.4653e-06,14.643,1.1252e-06,8.4543,-3.7356e-12,-2.6428e-06,-1.1252e-06,-8.4542,1.0396
10129,14.879,0.45455,0,0.00019279,1926.5,6.9156e-05,66.569,6.0291e-05,-0.039487,-0.00019157,-1892.4,1.0386
10130,14.788,0.54545,0,0.00019831,1981.7,7.1579e-05,73.864,6.1751e-05,0.020434,-0.00019695,-1943.8,1.0279
10131,14.879,0.54545,0.05,1.5353e-06,15.342,1.1789e-06,8.8579,-2.4139e-12,-2.5244e-06,-1.1789e-06,-8.8578,1.039
10132,14.879,0.27273,0,0.00018947,1893.3,6.6e-05,41.69,6.044e-05,-0.086107,-0.00018872,-1872.2,1.0379
10133,14.788,0.36364,0,0.00019513,1949.9,6.8767e-05,52.509,6.1764e-05,-0.1094,-0.00019418,-1923.2,1.0272
10134,14.879,0.36364,0.05,1.5755e-06,15.744,1.2098e-06,9.0901,-4.2923e-12,-2.2609e-06,-1.2098e-06,-9.09,1.0382
10135,14.788,0.18182,0,0.00019219,1920.6,6.5706e-05,27.306,6.2056e-05,-0.11913,-0.00019171,-1906.9,1.0264
10136,14.879,0.18182,0.05,1.3755e-06,13.746,1.0562e-06,7.9362,-2.1969e-12,2.0823e-06,-1.0562e-06,-7.9361,1.0374
10137,14.879,0.090909,0,0.0001867,1865.7,6.2919e-05,15.655,6.0834e-05,-0.013256,-0.00018643,-1857.9,1.0371
10138,14.696,5.7273,0,0.00019784,1977,6.846e-05,38.025,6.3388e-05,-0.087306,-0.00019717,-1957.8,1.0158
10139,14.604,5.8182,0,0.00020044,2003,6.8271e-05,25.409,6.4874e-05,-0.11131,-0.0002,-1990.3,1.0044
10140,14.696,5.8182,0.05,1.1546e-06,11.538,8.8656e-07,6.6613,2.4151e-12,2.1365e-06,-8.8657e-07,-6.6613,1.0154
10141,14.696,5.9091,0,0.00019541,1952.8,6.5717e-05,14.728,6.3755e-05,-0.013038,-0.00019516,-1945.4,1.015
10142,14.696,5.5455,0,0.00020065,2005.2,7.1196e-05,59.839,6.3226e-05,-0.039521,-0.00019957,-1974.6,1.0165
10143,14.604,5.6364,0,0.00020293,2027.9,7.0918e-05,47.402,6.4595e-05,-0.10283,-0.00020208,-2003.8,1.0052
10144,14.696,5.6364,0.05,1.4289e-06,14.279,1.0972e-06,8.2441,3.0928e-12,6.8328e-06,-1.0972e-06,-8.2442,1.0161
10145,14.696,5.3636,0,0.00020364,2035,7.3668e-05,77.848,6.3309e-05,0.017835,-0.0002022,-1994.9,1.0172
10146,14.604,5.4545,0,0.00020561,2054.6,7.3345e-05,66.095,6.4551e-05,0.016292,-0.0002044,-2020.8,1.0059
10147,14.696,5.4545,0.05,1.4015e-06,14.006,1.0762e-06,8.0861,3.0821e-12,1.0377e-05,-1.0762e-06,-8.0862,1.0169
10148,14.696,5.1818,0,0.00020672,2065.8,7.5845e-05,91.886,6.3618e-05,0.017255,-0.00020501,-2018.3,1.0179
10149,14.604,5.2727,0,0.00020839,2082.5,7.5503e-05,81.063,6.4716e-05,0.013602,-0.0002069,-2040.8,1.0066
10150,14.696,5.2727,0.05,1.3425e-06,13.416,1.0309e-06,7.7456,3.7525e-12,7.536e-06,-1.0309e-06,-7.7456,1.0176
10151,14.696,5,0,0.00020984,2096.9,7.7698e-05,101.89,6.414e-05,0.017249,-0.00020792,-2044.1,1.0185
10152,14.604,5.0909,0,0.00021123,2110.8,7.7362e-05,92.257,6.5086e-05,0.019336,-0.0002095,-2063.2,1.0072
10153,14.696,5.0909,0.05,1.2706e-06,12.698,9.7569e-07,7.331,3.2915e-12,8.9587e-06,-9.757e-07,-7.331,1.0182
10154,14.696,4.8182,0,0.0002129,2127.5,7.9199e-05,107.84,6.4848e-05,0.012012,-0.00021086,-2071.5,1.0191
10155,14.604,4.9091,0,0.00021403,2138.8,7.8896e-05,99.624,6.5639e-05,0.016015,-0.00021216,-2087.3,1.0078
10156,14.696,4.9091,0.05,1.1886e-06,11.878,9.1267e-07,6.8574,2.6999e-12,3.8292e-06,-9.1268e-07,-6.8575,1.0188
10157,14.696,4.6364,0,0.00021582,2156.7,8.0329e-05,109.84,6.571e-05,0.0052506,-0.00021374,-2099.7,1.0196
10158,14.604,4.7273,0,0.00021674,2165.9,8.0087e-05,103.23,6.6349e-05,0.011086,-0.00021479,-2112.4,1.0084
10159,14.696,4.7273,0.05,1.0983e-06,10.975,8.4336e-07,6.3367,1.0955e-12,-6.95e-07,-8.4337e-07,-6.3367,1.0193
10160,14.696,4.4545,0,0.00021853,2183.8,8.1092e-05,108.22,6.6688e-05,-0.0023639,-0.00021649,-2127.7,1.0201
10161,14.604,4.5455,0,0.00021927,2191.2,8.0929e-05,103.29,6.7182e-05,0.0044851,-0.00021733,-2137.7,1.0088
10162,14.696,4.5455,0.05,1.002e-06,10.013,7.6944e-07,5.7812,1.3086e-12,-3.4647e-06,-7.6944e-07,-5.7813,1.0198
10163,14.696,4.2727,0,0.00022097,2208.2,8.1514e-05,103.54,6.7732e-05,-0.0092735,-0.00021903,-2154.6,1.0205
10164,14.604,4.3636,0,0.00022158,2214.2,8.144e-05,100.24,6.8099e-05,-0.0022582,-0.0002197,-2162.4,1.0093
10165,14.696,4.3636,0.05,9.0171e-07,9.0109,6.924e-07,5.2024,1.0157e-12,-1.2321e-05,-6.9241e-07,-5.2025,1.0202
10166,14.696,4.0909,0,0.00022311,2229.6,8.1649e-05,96.607,6.879e-05,-0.013702,-0.00022131,-2179.7,1.0208
10167,14.604,4.1818,0,0.00022362,2234.7,8.1661e-05,94.734,6.9051e-05,-0.0077387,-0.00022186,-2185.8,1.0096
10168,14.696,4.1818,0.05,7.9872e-07,7.9817,6.1332e-07,4.6082,4.1762e-13,4.9837e-07,-6.1332e-07,-4.6083,1.0206
10169,14.696,3.9091,0,0.00022493,2247.8,8.1572e-05,88.398,6.9805e-05,-0.01376,-0.0002233,-2202.3,1.0211
10170,14.604,4,0,0.00022538,2252.2,8.1652e-05,87.599,6.9992e-05,-0.010239,-0.00022376,-2207.1,1.01
10171,14.696,4,0.05,6.9399e-07,6.9351,5.329e-07,4.004,3.0307e-13,-5.4441e-06,-5.329e-07,-4.004,1.0209
10172,14.696,3.7273,0,0.00022643,2262.7,8.1368e-05,79.961,7.0724e-05,-0.0082099,-0.00022496,-2221.7,1.0213
10173,14.604,3.8182,0,0.00022684,2266.8,8.1488e-05,79.782,7.0869e-05,-0.0083021,-0.00022537,-2225.9,1.0102
10174,14.696,3.8182,0.05,5.8852e-07,5.8812,4.5191e-07,3.3955,1.031e-12,4.7135e-06,-4.5191e-07,-3.3955,1.0212
10175,14.696,3.5455,0,0.00022759,2274.4,8.1117e-05,72.283,7.1497e-05,0.0026123,-0.00022628,-2237.3,1.0215
10176,14.604,3.6364,0,0.00022801,2278.5,8.1249e-05,72.227,7.1635e-05,-0.0014287,-0.00022669,-2241.5,1.0104
10177,14.696,3.6364,0.05,4.8427e-07,4.8393,3.7185e-07,2.794,2.1261e-12,1.717e-05,-3.7186e-07,-2.794,1.0214
10178,14.696,3.3636,0,0.00022843,2282.7,8.0888e-05,66.193,7.208e-05,0.016061,-0.00022723,-2248.9,1.0217
10179,14.604,3.4545,0,0.00022888,2287.2,8.1003e-05,65.777,7.225e-05,0.0091418,-0.00022769,-2253.6,1.0106
10180,14.696,3.4545,0.05,3.8533e-07,3.8506,2.9588e-07,2.2232,2.7114e-12,1.8238e-05,-2.9589e-07,-2.2232,1.0216
10181,14.696,3.1818,0,0.00022893,2287.8,8.0731e-05,62.297,7.2443e-05,0.027442,-0.00022781,-2256,1.0217
10182,14.604,3.2727,0,0.00022947,2293.1,8.0809e-05,61.1,7.2679e-05,0.020158,-0.00022837,-2261.9,1.0107
10183,14.696,3.2727,0.05,3.0032e-07,3.0011,2.306e-07,1.7327,2.3006e-12,1.6378e-05,-2.3061e-07,-1.7327,1.0217
10184,14.696,3,0,0.0002291,2289.4,8.0675e-05,60.958,7.2567e-05,0.031933,-0.000228,-2258.3,1.0218
10185,14.604,3.0909,0,0.00022976,2296,8.0702e-05,58.648,7.29e-05,0.027275,-0.00022871,-2266.1,1.0108
10186,14.696,3.0909,0.05,2.466e-07,2.4643,1.8936e-07,1.4227,-9.4692e-13,5.6138e-06,-1.8935e-07,-1.4227,1.0217
10187,14.696,2.8182,0,0.00022893,2287.8,8.0731e-05,62.297,7.2443e-05,0.027443,-0.00022781,-2256,1.0217
10188,14.604,2.9091,0,0.00022976,2296,8.0702e-05,58.648,7.29e-05,0.027276,-0.00022871,-2266.1,1.0108
10189,14.696,2.9091,0.05,2.466e-07,2.4643,1.8936e-07,1.4227,-3.19e-12,-9.71e-06,-1.8935e-07,-1.4227,1.0217
10190,14.696,2.6364,0,0.00022843,2282.7,8.0888e-05,66.193,7.208e-05,0.016061,-0.00022723,-2248.9,1.0217
10191,14.604,2.7273,0,0.00022947,2293.1,8.0809e-05,61.1,7.2679e-05,0.020158,-0.00022837,-2261.9,1.0107
10192,14.696,2.7273,0.05,3.0032e-07,3.0011,2.3061e-07,1.7327,-1.4834e-12,-4.5853e-06,-2.3061e-07,-1.7327,1.0217
10193,14.696,2.4545,0,0.00022759,2274.4,8.1117e-05,72.283,7.1497e-05,0.002612,-0.00022628,-2237.3,1.0215
10194,14.604,2.5455,0,0.00022888,2287.2,8.1003e-05,65.777,7.225e-05,0.0091418,-0.00022769,-2253.6,1.0106
10195,14.696,2.5455,0.05,3.8533e-07,3.8506,2.9589e-07,2.2232,-9.2246e-13,2.2115e-05,-2.9588e-07,-2.2231,1.0216
10196,14.696,2.2727,0,0.00022643,2262.7,8.1368e-05,79.961,7.0724e-05,-0.0082102,-0.00022496,-2221.7,1.0213
10197,14.604,2.3636,0,0.00022801,2278.5,8.1249e-05,72.227,7.1635e-05,-0.0014286,-0.00022669,-2241.5,1.0104
10198,14.696,2.3636,0.05,4.8427e-07,4.8393,3.7186e-07,2.794,3.0457e-13,8.6337e-06,-3.7186e-07,-2.794,1.0214
10199,14.696,2.0909,0,0.00022493,2247.8,8.1572e-05,88.398,6.9805e-05,-0.01376,-0.0002233,-2202.3,1.0211
10200,14.604,2.1818,0,0.00022684,2266.8,8.1488e-05,79.782,7.0869e-05,-0.0083016,-0.00022537,-2225.9,1.0102
10201,14.696,2.1818,0.05,5.8852e-07,5.8812,4.5191e-07,3.3955,8.2327e-13,1.3063e-05,-4.5191e-07,-3.3955,1.0212
10202,14.696,1.9091,0,0.00022311,2229.6,8.1649e-05,96.607,6.879e-05,-0.013701,-0.00022131,-2179.7,1.0208
10203,14.604,2,0,0.00022538,2252.2,8.1652e-05,87.599,6.9992e-05,-0.010239,-0.00022376,-2207.1,1.01
10204,14.696,2,0.05,6.9399e-07,6.9351,5.329e-07,4.004,1.8303e-12,1.5161e-05,-5.329e-07,-4.004,1.0209
10205,14.696,1.7273,0,0.00022097,2208.2,8.1514e-05,103.54,6.7732e-05,-0.009272,-0.00021903,-2154.6,1.0205
10206,14.604,1.8182,0,0.00022362,2234.7,8.1661e-05,94.734,6.9051e-05,-0.0077382,-0.00022186,-2185.8,1.0096
10207,14.696,1.8182,0.05,7.9872e-07,7.9817,6.1332e-07,4.6083,-3.0272e-13,2.7174e-05,-6.1332e-07,-4.6082,1.0206
10208,14.696,1.5455,0,0.00021853,2183.8,8.1092e-05,108.22,6.6688e-05,-0.002363,-0.00021649,-2127.7,1.0201
10209,14.604,1.6364,0,0.00022158,2214.2,8.144e-05,100.24,6.8099e-05,-0.002257,-0.0002197,-2162.4,1.0093
10210,14.696,1.6364,0.05,9.0171e-07,9.0109,6.9241e-07,5.2025,3.4712e-13,2.1136e-05,-6.924e-07,-5.2024,1.0202
10211,14.696,1.3636,0,0.00021582,2156.7,8.0329e-05,109.84,6.571e-05,0.0052511,-0.00021374,-2099.7,1.0196
10212,14.604,1.4545,0,0.00021927,2191.2,8.0929e-05,103.29,6.7182e-05,0.0044862,-0.00021733,-2137.7,1.0088
10213,14.696,1.4545,0.05,1.002e-06,10.013,7.6944e-07,5.7813,-4.0905e-13,1.4417e-05,-7.6944e-07,-5.7812,1.0198
10214,14.696,1.1818,0,0.0002129,2127.5,7.9199e-05,107.84,6.4848e-05,0.012012,-0.00021086,-2071.5,1.0191
10215,14.604,1.2727,0,0.00021674,2165.9,8.0087e-05,103.23,6.6349e-05,0.011086,-0.00021479,-2112.4,1.0084
10216,14.696,1.2727,0.05,1.0983e-06,10.975,8.4337e-07,6.3368,-1.0406e-12,9.1184e-06,-8.4336e-07,-6.3367,1.0193
10217,14.696,1,0,0.00020984,2096.9,7.7698e-05,101.89,6.414e-05,0.01725,-0.00020792,-2044.1,1.0185
10218,14.604,1.0909,0,0.00021403,2138.8,7.8896e-05,99.624,6.5639e-05,0.016015,-0.00021216,-2087.3,1.0078
10219,14.696,1.0909,0.05,1.1886e-06,11.878,9.1268e-07,6.8575,-2.1637e-12,3.2806e-06,-9.1267e-07,-6.8574,1.0188
10220,14.696,0.81818,0,0.00020672,2065.8,7.5845e-05,91.886,6.3618e-05,0.017257,-0.00020501,-2018.3,1.0179
10221,14.604,0.90909,0,0.00021123,2110.8,7.7362e-05,92.257,6.5086e-05,0.019338,-0.0002095,-2063.2,1.0072
10222,14.696,0.90909,0.05,1.2706e-06,12.698,9.757e-07,7.331,-3.1161e-12,1.2048e-07,-9.7569e-07,-7.3309,1.0182
10223,14.696,0.63636,0,0.00020364,2035,7.3668e-05,77.848,6.3309e-05,0.017836,-0.0002022,-1994.9,1.0172
10224,14.604,0.72727,0,0.00020839,2082.5,7.5503e-05,81.063,6.4716e-05,0.013604,-0.0002069,-2040.8,1.0066
10225,14.696,0.72727,0.05,1.3425e-06,13.416,1.0309e-06,7.7456,-1.994e-12,-1.2973e-06,-1.0309e-06,-7.7456,1.0176
10226,14.696,0.45455,0,0.00020065,2005.2,7.1196e-05,59.839,6.3226e-05,-0.03952,-0.00019957,-1974.6,1.0165
10227,14.604,0.54545,0,0.00020561,2054.6,7.3345e-05,66.095,6.4551e-05,0.016293,-0.0002044,-2020.8,1.0059
10228,14.696,0.54545,0.05,1.4015e-06,14.006,1.0762e-06,8.0862,-4.1737e-12,-3.2827e-06,-1.0762e-06,-8.0861,1.0169
10229,14.696,0.27273,0,0.00019784,1977,6.846e-05,38.025,6.3388e-05,-0.087307,-0.00019717,-1957.8,1.0158
10230,14.604,0.36364,0,0.00020293,2027.9,7.0918e-05,47.402,6.4595e-05,-0.10283,-0.00020208,-2003.8,1.0052
10231,14.696,0.36364,0.05,1.4289e-06,14.279,1.0972e-06,8.2442,-3.279e-12,-2.3529e-06,-1.0972e-06,-8.2441,1.0161
10232,14.604,0.18182,0,0.00020044,2003,6.8271e-05,25.409,6.4874e-05,-0.11131,-0.0002,-1990.3,1.0044
10233,14.696,0.18182,0.05,1.1546e-06,11.538,8.8656e-07,6.6613,-2.6101e-12,4.2264e-06,-8.8656e-07,-6.6612,1.0154
10234,14.696,0.090909,0,0.00019541,1952.8,6.5717e-05,14.728,6.3755e-05,-0.013037,-0.00019516,-1945.4,1.015
10235,14.512,5.7273,0,0.00020551,2053.7,7.0714e-05,34.68,6.6088e-05,-0.08353,-0.0002049,-2036.2,0.99382
10236,14.42,5.8182,0,0.00020803,2078.9,7.0634e-05,23.722,6.7464e-05,-0.097909,-0.00020762,-2067,0.98249
10237,14.512,5.8182,0.05,9.6731e-07,9.6664,7.4277e-07,5.5809,2.2598e-12,9.2733e-07,-7.4278e-07,-5.5809,0.9934
10238,14.512,5.9091,0,0.00020338,2032.4,6.8276e-05,13.906,6.6424e-05,-0.012062,-0.00020314,-2025.4,0.99301
10239,14.512,5.5455,0,0.00020788,2077.4,7.3069e-05,53.668,6.5921e-05,-0.038202,-0.00020691,-2050,0.99458
10240,14.42,5.6364,0,0.00021011,2099.7,7.2902e-05,42.74,6.7201e-05,-0.094658,-0.00020935,-2078,0.98328
10241,14.512,5.6364,0.05,1.3078e-06,13.069,1.0043e-06,7.5456,2.9752e-12,5.3821e-06,-1.0043e-06,-7.5457,0.99419
10242,14.512,5.3636,0,0.00021037,2102.2,7.5187e-05,69.356,6.5959e-05,0.015436,-0.0002091,-2066.7,0.9953
10243,14.42,5.4545,0,0.00021236,2122.1,7.499e-05,59.034,6.7135e-05,0.012692,-0.00021129,-2092,0.98403
10244,14.512,5.4545,0.05,1.2926e-06,12.917,9.9252e-07,7.4574,3.051e-12,1.0249e-05,-9.9252e-07,-7.4574,0.99493
10245,14.512,5.1818,0,0.00021291,2127.6,7.703e-05,81.501,6.6185e-05,0.017299,-0.0002114,-2085.7,0.99597
10246,14.42,5.2727,0,0.00021467,2145.2,7.6829e-05,72.04,6.7243e-05,0.012762,-0.00021335,-2108.3,0.98472
10247,14.512,5.2727,0.05,1.2438e-06,12.43,9.551e-07,7.1762,3.7817e-12,5.7969e-06,-9.5511e-07,-7.1763,0.99562
10248,14.512,5,0,0.00021543,2152.8,7.8571e-05,90.069,6.6586e-05,0.018971,-0.00021376,-2106.4,0.99658
10249,14.42,5.0909,0,0.00021698,2168.3,7.8392e-05,81.703,6.7521e-05,0.019553,-0.00021548,-2126.3,0.98536
10250,14.512,5.0909,0.05,1.1841e-06,11.833,9.0927e-07,6.8319,2.531e-12,6.1043e-06,-9.0927e-07,-6.8319,0.99626
10251,14.512,4.8182,0,0.00021788,2177.3,7.9796e-05,95.096,6.7141e-05,0.015565,-0.00021611,-2128.2,0.99714
10252,14.42,4.9091,0,0.00021924,2190.9,7.966e-05,88.012,6.7949e-05,0.017907,-0.00021761,-2145.6,0.98595
10253,14.512,4.9091,0.05,1.1162e-06,11.155,8.5712e-07,6.4401,2.9774e-12,4.9386e-06,-8.5713e-07,-6.4401,0.99685
10254,14.512,4.6364,0,0.0002202,2200.5,8.0697e-05,96.755,6.7821e-05,0.010552,-0.00021839,-2150.5,0.99765
10255,14.42,4.7273,0,0.0002214,2212.5,8.0625e-05,91.077,6.8506e-05,0.014543,-0.00021971,-2165.5,0.98649
10256,14.512,4.7273,0.05,1.0417e-06,10.41,7.9989e-07,6.01,2.4318e-12,1.0311e-06,-7.9989e-07,-6.0101,0.99738
10257,14.512,4.4545,0,0.00022233,2221.7,8.1287e-05,95.382,6.8593e-05,0.0046429,-0.00022055,-2172.5,0.99811
10258,14.42,4.5455,0,0.0002234,2232.5,8.1292e-05,91.148,6.9162e-05,0.0095469,-0.00022171,-2185.5,0.98697
10259,14.512,4.5455,0.05,9.6215e-07,9.6149,7.3881e-07,5.5511,2.0914e-12,-3.6928e-07,-7.3882e-07,-5.5512,0.99787
10260,14.512,4.2727,0,0.00022423,2240.8,8.1595e-05,91.493,6.9418e-05,-0.00082455,-0.00022254,-2193.6,0.99851
10261,14.42,4.3636,0,0.0002252,2250.5,8.168e-05,88.632,6.9884e-05,0.0043008,-0.00022357,-2204.9,0.9874
10262,14.512,4.3636,0.05,8.7908e-07,8.7847,6.7502e-07,5.0718,9.7715e-13,-3.8173e-06,-6.7503e-07,-5.0719,0.9983
10263,14.512,4.0909,0,0.00022589,2257.3,8.1669e-05,85.771,7.0253e-05,-0.0045069,-0.00022431,-2213.2,0.99886
10264,14.42,4.1818,0,0.00022679,2266.3,8.1829e-05,84.098,7.0636e-05,-7.6808e-05,-0.00022524,-2223.1,0.98778
10265,14.512,4.1818,0.05,7.9375e-07,7.932,6.095e-07,4.5795,6.4092e-13,2.5632e-06,-6.095e-07,-4.5795,0.99867
10266,14.512,3.9091,0,0.00022728,2271.3,8.1572e-05,79.016,7.1055e-05,-0.0050732,-0.00022584,-2230.7,0.99916
10267,14.42,4,0,0.00022814,2279.8,8.1791e-05,78.238,7.1378e-05,-0.0023307,-0.00022671,-2239.7,0.9881
10268,14.512,4,0.05,7.074e-07,7.0691,5.4319e-07,4.0813,2.3747e-13,-1.7308e-06,-5.432e-07,-4.0814,0.999
10269,14.512,3.7273,0,0.00022842,2282.6,8.1372e-05,72.07,7.178e-05,-0.0017034,-0.00022711,-2245.7,0.9994
10270,14.42,3.8182,0,0.00022926,2291,8.1628e-05,71.818,7.2069e-05,-0.0014667,-0.00022795,-2254.2,0.98837
10271,14.512,3.8182,0.05,6.2172e-07,6.213,4.7741e-07,3.587,1.6174e-12,-4.2587e-06,-4.7741e-07,-3.5871,0.99926
10272,14.512,3.5455,0,0.0002293,2291.4,8.1137e-05,65.733,7.2389e-05,0.0053217,-0.00022811,-2257.8,0.99958
10273,14.42,3.6364,0,0.00023014,2299.8,8.1404e-05,65.601,7.2674e-05,0.0028186,-0.00022895,-2266.3,0.98858
10274,14.512,3.6364,0.05,5.3953e-07,5.3915,4.1429e-07,3.1128,1.962e-12,1.2895e-05,-4.1429e-07,-3.1128,0.99948
10275,14.512,3.3636,0,0.00022992,2297.6,8.0925e-05,60.688,7.285e-05,0.014172,-0.00022883,-2266.7,0.99972
10276,14.42,3.4545,0,0.0002308,2306.4,8.118e-05,60.278,7.3159e-05,0.0096455,-0.00022971,-2275.6,0.98875
10277,14.512,3.4545,0.05,4.6552e-07,4.652,3.5746e-07,2.6858,6.9925e-13,8.1882e-06,-3.5747e-07,-2.6859,0.99964
10278,14.512,3.1818,0,0.0002303,2301.4,8.078e-05,57.45,7.3136e-05,0.021684,-0.00022927,-2272.1,0.9998
10279,14.42,3.2727,0,0.00023123,2310.7,8.1002e-05,56.406,7.3497e-05,0.016817,-0.00023022,-2282,0.98885
10280,14.512,3.2727,0.05,4.0711e-07,4.0683,3.1261e-07,2.3488,6.6778e-13,1.0707e-05,-3.1261e-07,-2.3488,0.99975
10281,14.512,3,0,0.00023042,2302.6,8.0728e-05,56.335,7.3234e-05,0.02465,-0.00022941,-2273.9,0.99982
10282,14.42,3.0909,0,0.00023145,2312.9,8.0905e-05,54.371,7.3671e-05,0.021457,-0.00023048,-2285.2,0.98891
10283,14.512,3.0909,0.05,3.7394e-07,3.7368,2.8714e-07,2.1574,-5.8569e-13,1.0298e-06,-2.8713e-07,-2.1574,0.9998
10284,14.512,2.8182,0,0.0002303,2301.4,8.078e-05,57.45,7.3136e-05,0.021685,-0.00022927,-2272.1,0.9998
10285,14.42,2.9091,0,0.00023145,2312.9,8.0905e-05,54.371,7.3671e-05,0.021457,-0.00023048,-2285.2,0.98891
10286,14.512,2.9091,0.05,3.7394e-07,3.7368,2.8714e-07,2.1574,-1.0614e-12,-6.9221e-06,-2.8713e-07,-2.1574,0.9998
10287,14.512,2.6364,0,0.00022992,2297.6,8.0925e-05,60.688,7.285e-05,0.014171,-0.00022883,-2266.7,0.99972
10288,14.42,2.7273,0,0.00023123,2310.7,8.1002e-05,56.406,7.3497e-05,0.016817,-0.00023022,-2282,0.98885
10289,14.512,2.7273,0.05,4.0711e-07,4.0683,3.1261e-07,2.3488,-3.5342e-12,-9.7577e-06,-3.1261e-07,-2.3488,0.99975
10290,14.512,2.4545,0,0.0002293,2291.4,8.1137e-05,65.733,7.2389e-05,0.0053222,-0.00022811,-2257.8,0.99958
10291,14.42,2.5455,0,0.0002308,2306.4,8.118e-05,60.278,7.3159e-05,0.0096453,-0.00022971,-2275.6,0.98875
10292,14.512,2.5455,0.05,4.6552e-07,4.652,3.5747e-07,2.6859,-2.2814e-12,2.8146e-06,-3.5746e-07,-2.6858,0.99964
10293,14.512,2.2727,0,0.00022842,2282.6,8.1372e-05,72.07,7.178e-05,-0.0017026,-0.00022711,-2245.7,0.9994
10294,14.42,2.3636,0,0.00023014,2299.8,8.1404e-05,65.601,7.2674e-05,0.0028189,-0.00022895,-2266.3,0.98858
10295,14.512,2.3636,0.05,5.3953e-07,5.3915,4.1429e-07,3.1128,-6.9549e-13,4.1164e-06,-4.1428e-07,-3.1128,0.99948
10296,14.512,2.0909,0,0.00022728,2271.3,8.1572e-05,79.016,7.1055e-05,-0.0050732,-0.00022584,-2230.7,0.99916
10297,14.42,2.1818,0,0.00022926,2291,8.1628e-05,71.818,7.2069e-05,-0.0014665,-0.00022795,-2254.2,0.98837
10298,14.512,2.1818,0.05,6.2172e-07,6.213,4.7741e-07,3.5871,-1.3742e-12,1.1667e-05,-4.774e-07,-3.587,0.99926
10299,14.512,1.9091,0,0.00022589,2257.3,8.1669e-05,85.771,7.0253e-05,-0.0045076,-0.00022431,-2213.2,0.99886
10300,14.42,2,0,0.00022814,2279.8,8.1791e-05,78.238,7.1378e-05,-0.0023309,-0.00022671,-2239.7,0.9881
10301,14.512,2,0.05,7.074e-07,7.0691,5.4319e-07,4.0814,-1.0179e-12,1.0828e-05,-5.4319e-07,-4.0813,0.999
10302,14.512,1.7273,0,0.00022423,2240.8,8.1595e-05,91.493,6.9418e-05,-0.00082437,-0.00022254,-2193.6,0.99851
10303,14.42,1.8182,0,0.00022679,2266.3,8.1829e-05,84.098,7.0636e-05,-7.6857e-05,-0.00022524,-2223.1,0.98778
10304,14.512,1.8182,0.05,7.9375e-07,7.932,6.095e-07,4.5796,-7.9411e-13,6.216e-06,-6.095e-07,-4.5795,0.99867
10305,14.512,1.5455,0,0.00022233,2221.7,8.1287e-05,95.382,6.8593e-05,0.0046444,-0.00022055,-2172.5,0.99811
10306,14.42,1.6364,0,0.0002252,2250.5,8.168e-05,88.632,6.9884e-05,0.0043019,-0.00022357,-2204.9,0.9874
10307,14.512,1.6364,0.05,8.7908e-07,8.7847,6.7503e-07,5.0719,-1.2034e-12,8.5131e-06,-6.7502e-07,-5.0718,0.9983
10308,14.512,1.3636,0,0.0002202,2200.5,8.0697e-05,96.755,6.7821e-05,0.010553,-0.00021839,-2150.5,0.99765
10309,14.42,1.4545,0,0.0002234,2232.5,8.1292e-05,91.148,6.9162e-05,0.0095476,-0.00022171,-2185.5,0.98697
10310,14.512,1.4545,0.05,9.6215e-07,9.6149,7.3882e-07,5.5512,-1.7614e-12,6.8893e-06,-7.3881e-07,-5.5511,0.99787
10311,14.512,1.1818,0,0.00021788,2177.3,7.9796e-05,95.096,6.7141e-05,0.015565,-0.00021611,-2128.2,0.99714
10312,14.42,1.2727,0,0.0002214,2212.5,8.0625e-05,91.077,6.8506e-05,0.014544,-0.00021971,-2165.5,0.98649
10313,14.512,1.2727,0.05,1.0417e-06,10.41,7.9989e-07,6.0101,-2.6209e-12,1.6481e-06,-7.9989e-07,-6.01,0.99738
10314,14.512,1,0,0.00021543,2152.8,7.8571e-05,90.069,6.6586e-05,0.018972,-0.00021376,-2106.4,0.99658
10315,14.42,1.0909,0,0.00021924,2190.9,7.966e-05,88.012,6.7949e-05,0.017907,-0.00021761,-2145.6,0.98595
10316,14.512,1.0909,0.05,1.1162e-06,11.155,8.5713e-07,6.4401,-2.6071e-12,-2.0123e-06,-8.5712e-07,-6.4401,0.99685
10317,14.512,0.81818,0,0.00021291,2127.6,7.703e-05,81.501,6.6185e-05,0.017301,-0.0002114,-2085.7,0.99597
10318,14.42,0.90909,0,0.00021698,2168.3,7.8392e-05,81.703,6.7521e-05,0.019555,-0.00021548,-2126.3,0.98536
10319,14.512,0.90909,0.05,1.1841e-06,11.833,9.0927e-07,6.8319,-3.33e-12,-5.2953e-06,-9.0926e-07,-6.8318,0.99626
10320,14.512,0.63636,0,0.00021037,2102.2,7.5187e-05,69.356,6.5959e-05,0.015436,-0.0002091,-2066.7,0.9953
10321,14.42,0.72727,0,0.00021467,2145.2,7.6829e-05,72.04,6.7243e-05,0.012764,-0.00021335,-2108.3,0.98472
10322,14.512,0.72727,0.05,1.2438e-06,12.43,9.5511e-07,7.1763,-2.9447e-12,-4.379e-06,-9.551e-07,-7.1762,0.99562
10323,14.512,0.45455,0,0.00020788,2077.4,7.3069e-05,53.668,6.5921e-05,-0.038203,-0.00020691,-2050,0.99458
10324,14.42,0.54545,0,0.00021236,2122.1,7.499e-05,59.034,6.7135e-05,0.012692,-0.00021129,-2092,0.98403
10325,14.512,0.54545,0.05,1.2926e-06,12.917,9.9253e-07,7.4575,-4.1337e-12,-3.3563e-06,-9.9252e-07,-7.4574,0.99493
10326,14.512,0.27273,0,0.00020551,2053.7,7.0714e-05,34.68,6.6088e-05,-0.08353,-0.0002049,-2036.2,0.99382
10327,14.42,0.36364,0,0.00021011,2099.7,7.2902e-05,42.74,6.7201e-05,-0.094658,-0.00020935,-2078,0.98328
10328,14.512,0.36364,0.05,1.3078e-06,13.069,1.0043e-06,7.5457,-4.0732e-12,-2.1222e-06,-1.0043e-06,-7.5456,0.99419
10329,14.42,0.18182,0,0.00020803,2078.9,7.0634e-05,23.722,6.7464e-05,-0.097909,-0.00020762,-2067,0.98249
10330,14.512,0.18182,0.05,9.6731e-07,9.6664,7.4278e-07,5.581,-2.1644e-12,3.3515e-06,-7.4277e-07,-5.5809,0.9934
10331,14.512,0.090909,0,0.00020338,2032.4,6.8276e-05,13.906,6.6424e-05,-0.012062,-0.00020314,-2025.4,0.99301
10332,14.328,5.7273,0,0.00021262,2124.7,7.2808e-05,31.675,6.8582e-05,-0.077034,-0.00021206,-2108.7,0.972
10333,14.236,5.8182,0,0.00021508,2149.3,7.2836e-05,22.235,6.9866e-05,-0.082588,-0.0002147,-2138.2,0.96075
10334,14.328,5.8182,0.05,8.0989e-07,8.0933,6.2189e-07,4.6726,1.8874e-12,2.0889e-06,-6.219e-07,-4.6727,0.97158
10335,14.328,5.9091,0,0.00021073,2105.9,7.0643e-05,13.182,6.8887e-05,-0.01082,-0.00021051,-2099.3,0.97119
10336,14.328,5.5455,0,0.00021459,2144.4,7.4823e-05,48.099,6.8416e-05,-0.036146,-0.00021373,-2120,0.97277
10337,14.236,5.6364,0,0.00021681,2166.6,7.4763e-05,38.547,6.9622e-05,-0.085938,-0.00021613,-2147.1,0.96154
10338,14.328,5.6364,0.05,1.2087e-06,12.079,9.2814e-07,6.9736,2.9054e-12,4.7257e-06,-9.2815e-07,-6.9737,0.97238
10339,14.328,5.3636,0,0.00021666,2165.1,7.6635e-05,61.738,6.842e-05,0.013003,-0.00021555,-2133.6,0.97349
10340,14.236,5.4545,0,0.00021868,2185.3,7.6553e-05,52.695,6.9541e-05,0.0095586,-0.00021774,-2158.5,0.96229
10341,14.328,5.4545,0.05,1.2043e-06,12.035,9.2477e-07,6.9483,2.9796e-12,8.0414e-06,-9.2477e-07,-6.9484,0.97312
10342,14.328,5.1818,0,0.00021875,2186,7.8196e-05,72.277,6.8579e-05,0.016455,-0.00021743,-2148.9,0.97416
10343,14.236,5.2727,0,0.00022059,2204.4,7.812e-05,63.996,6.9604e-05,0.011458,-0.00021944,-2171.7,0.96299
10344,14.328,5.2727,0.05,1.1648e-06,11.64,8.9443e-07,6.7204,2.8802e-12,6.9328e-06,-8.9444e-07,-6.7205,0.97382
10345,14.328,5,0,0.0002208,2206.5,7.9487e-05,79.691,6.8883e-05,0.019267,-0.00021934,-2165.6,0.97478
10346,14.236,5.0909,0,0.00022249,2223.3,7.9438e-05,72.384,6.9807e-05,0.018777,-0.00022117,-2186.2,0.96363
10347,14.328,5.0909,0.05,1.1158e-06,11.15,8.568e-07,6.4376,3.5356e-12,7.8211e-06,-8.568e-07,-6.4377,0.97446
10348,14.328,4.8182,0,0.00022277,2226.2,8.0496e-05,84.041,6.9313e-05,0.017308,-0.00022122,-2182.9,0.97535
10349,14.236,4.9091,0,0.00022431,2241.6,8.0495e-05,77.863,7.0135e-05,0.018399,-0.00022289,-2201.6,0.96423
10350,14.328,4.9091,0.05,1.0601e-06,10.594,8.1401e-07,6.1162,2.2917e-12,6.5034e-06,-8.1401e-07,-6.1162,0.97505
10351,14.328,4.6364,0,0.00022461,2244.5,8.1226e-05,85.515,6.9846e-05,0.013735,-0.00022303,-2200.6,0.97586
10352,14.236,4.7273,0,0.00022604,2258.8,8.1287e-05,80.559,7.0567e-05,0.01629,-0.00022456,-2217.4,0.96477
10353,14.328,4.7273,0.05,9.9898e-07,9.9829,7.6709e-07,5.7636,1.9662e-12,4.4977e-06,-7.6709e-07,-5.7637,0.97559
10354,14.328,4.4545,0,0.00022628,2261.3,8.169e-05,84.438,7.0453e-05,0.0092355,-0.00022473,-2217.9,0.97632
10355,14.236,4.5455,0,0.00022762,2274.6,8.1822e-05,80.716,7.1081e-05,0.012609,-0.00022614,-2233.2,0.96525
10356,14.328,4.5455,0.05,9.3379e-07,9.3314,7.1703e-07,5.3875,2.4792e-12,5.2075e-06,-7.1704e-07,-5.3875,0.97607
10357,14.328,4.2727,0,0.00022777,2276.1,8.1918e-05,81.27,7.1102e-05,0.0049408,-0.00022628,-2234.4,0.97672
10358,14.236,4.3636,0,0.00022903,2288.7,8.2123e-05,78.707,7.1649e-05,0.0085734,-0.00022759,-2248.4,0.96569
10359,14.328,4.3636,0.05,8.6576e-07,8.6516,6.648e-07,4.995,1.6093e-12,2.3976e-06,-6.648e-07,-4.9951,0.97651
10360,14.328,4.0909,0,0.00022905,2288.9,8.1954e-05,76.589,7.176e-05,0.0018821,-0.00022765,-2249.6,0.97707
10361,14.236,4.1818,0,0.00023026,2301,8.2224e-05,75.023,7.224e-05,0.0050781,-0.00022889,-2262.6,0.96606
10362,14.328,4.1818,0.05,7.9614e-07,7.9559,6.1133e-07,4.5933,1.4502e-12,6.0287e-06,-6.1134e-07,-4.5933,0.97688
10363,14.328,3.9091,0,0.00023012,2299.6,8.1849e-05,71.057,7.2392e-05,0.0010122,-0.00022883,-2263.2,0.97737
10364,14.236,4,0,0.0002313,2311.4,8.2172e-05,70.242,7.2824e-05,0.003056,-0.00023003,-2275.5,0.96639
10365,14.328,4,0.05,7.2633e-07,7.2583,5.5773e-07,4.1906,1.8982e-12,6.2634e-06,-5.5773e-07,-4.1906,0.97721
10366,14.328,3.7273,0,0.00023098,2308.2,8.1662e-05,65.36,7.2963e-05,0.0028785,-0.0002298,-2274.8,0.97761
10367,14.236,3.8182,0,0.00023215,2319.9,8.2018e-05,64.993,7.3368e-05,0.003202,-0.00023098,-2286.7,0.96666
10368,14.328,3.8182,0.05,6.5826e-07,6.578,5.0546e-07,3.7978,-2.4984e-14,6.4077e-06,-5.0546e-07,-3.7978,0.97748
10369,14.328,3.5455,0,0.00023164,2314.8,8.1448e-05,60.153,7.3444e-05,0.0072615,-0.00023056,-2284.2,0.9778
10370,14.236,3.6364,0,0.00023282,2326.6,8.1816e-05,59.9,7.3845e-05,0.0057029,-0.00023174,-2296.1,0.96687
10371,14.328,3.6364,0.05,5.9469e-07,5.9428,4.5665e-07,3.4311,4.6144e-13,1.1007e-05,-4.5665e-07,-3.4311,0.97769
10372,14.328,3.3636,0,0.00023211,2319.5,8.1258e-05,55.997,7.3807e-05,0.012911,-0.00023111,-2291,0.97793
10373,14.236,3.4545,0,0.00023331,2331.5,8.1616e-05,55.53,7.4227e-05,0.0099481,-0.00023232,-2303.2,0.96704
10374,14.328,3.4545,0.05,5.3962e-07,5.3925,4.1436e-07,3.1134,1.9738e-12,9.1811e-06,-4.1436e-07,-3.1134,0.97785
10375,14.328,3.1818,0,0.00023239,2322.3,8.1127e-05,53.325,7.4033e-05,0.01773,-0.00023143,-2295.1,0.97801
10376,14.236,3.2727,0,0.00023364,2334.7,8.1458e-05,52.344,7.4494e-05,0.014473,-0.0002327,-2308.1,0.96714
10377,14.328,3.2727,0.05,4.9813e-07,4.9779,3.8251e-07,2.874,4.1258e-13,4.2274e-06,-3.825e-07,-2.874,0.97796
10378,14.328,3,0,0.00023248,2323.2,8.1081e-05,52.404,7.411e-05,0.019633,-0.00023154,-2296.5,0.97804
10379,14.236,3.0909,0,0.0002338,2336.3,8.1372e-05,50.667,7.4631e-05,0.017411,-0.00023289,-2310.6,0.9672
10380,14.328,3.0909,0.05,4.7557e-07,4.7525,3.6518e-07,2.7439,-2.619e-12,-2.7889e-08,-3.6518e-07,-2.7438,0.97801
10381,14.328,2.8182,0,0.00023239,2322.3,8.1127e-05,53.325,7.4033e-05,0.01773,-0.00023143,-2295.1,0.97801
10382,14.236,2.9091,0,0.0002338,2336.3,8.1372e-05,50.667,7.4631e-05,0.017411,-0.00023289,-2310.6,0.9672
10383,14.328,2.9091,0.05,4.7557e-07,4.7525,3.6518e-07,2.7439,-2.7778e-12,-5.0699e-06,-3.6518e-07,-2.7438,0.97801
10384,14.328,2.6364,0,0.00023211,2319.5,8.1258e-05,55.997,7.3807e-05,0.012911,-0.00023111,-2291,0.97793
10385,14.236,2.7273,0,0.00023364,2334.7,8.1458e-05,52.344,7.4494e-05,0.014474,-0.0002327,-2308.1,0.96714
10386,14.328,2.7273,0.05,4.9813e-07,4.9779,3.8251e-07,2.874,-1.6451e-12,-6.3229e-06,-3.825e-07,-2.874,0.97796
10387,14.328,2.4545,0,0.00023164,2314.8,8.1448e-05,60.153,7.3444e-05,0.0072612,-0.00023056,-2284.2,0.9778
10388,14.236,2.5455,0,0.00023331,2331.5,8.1616e-05,55.53,7.4227e-05,0.0099477,-0.00023232,-2303.2,0.96704
10389,14.328,2.5455,0.05,5.3962e-07,5.3925,4.1437e-07,3.1134,-1.9805e-12,-4.4012e-06,-4.1436e-07,-3.1133,0.97785
10390,14.328,2.2727,0,0.00023098,2308.2,8.1662e-05,65.36,7.2963e-05,0.0028781,-0.0002298,-2274.8,0.97761
10391,14.236,2.3636,0,0.00023282,2326.6,8.1816e-05,59.9,7.3845e-05,0.0057027,-0.00023174,-2296.1,0.96687
10392,14.328,2.3636,0.05,5.9469e-07,5.9428,4.5665e-07,3.4312,-2.1745e-12,6.3816e-07,-4.5665e-07,-3.431,0.97769
10393,14.328,2.0909,0,0.00023012,2299.6,8.1849e-05,71.057,7.2392e-05,0.0010122,-0.00022883,-2263.2,0.97737
10394,14.236,2.1818,0,0.00023215,2319.9,8.2018e-05,64.993,7.3368e-05,0.0032015,-0.00023098,-2286.7,0.96666
10395,14.328,2.1818,0.05,6.5826e-07,6.578,5.0546e-07,3.7978,-3.2524e-12,-5.4908e-06,-5.0546e-07,-3.7978,0.97748
10396,14.328,1.9091,0,0.00022905,2288.9,8.1954e-05,76.589,7.176e-05,0.0018826,-0.00022765,-2249.6,0.97707
10397,14.236,2,0,0.0002313,2311.4,8.2172e-05,70.242,7.2824e-05,0.0030566,-0.00023003,-2275.5,0.96639
10398,14.328,2,0.05,7.2633e-07,7.2583,5.5774e-07,4.1906,-1.6121e-12,2.9073e-06,-5.5773e-07,-4.1906,0.97721
10399,14.328,1.7273,0,0.00022777,2276.1,8.1918e-05,81.27,7.1102e-05,0.0049417,-0.00022628,-2234.4,0.97672
10400,14.236,1.8182,0,0.00023026,2301,8.2224e-05,75.023,7.224e-05,0.0050785,-0.00022889,-2262.6,0.96606
10401,14.328,1.8182,0.05,7.9614e-07,7.9559,6.1134e-07,4.5934,-1.8019e-12,6.2114e-06,-6.1133e-07,-4.5933,0.97688
10402,14.328,1.5455,0,0.00022628,2261.3,8.169e-05,84.438,7.0453e-05,0.0092358,-0.00022473,-2217.9,0.97632
10403,14.236,1.6364,0,0.00022903,2288.7,8.2123e-05,78.708,7.1649e-05,0.0085739,-0.00022759,-2248.4,0.96569
10404,14.328,1.6364,0.05,8.6576e-07,8.6516,6.648e-07,4.995,-3.1386e-12,1.0624e-06,-6.648e-07,-4.995,0.97651
10405,14.328,1.3636,0,0.00022461,2244.5,8.1226e-05,85.515,6.9846e-05,0.013736,-0.00022303,-2200.6,0.97586
10406,14.236,1.4545,0,0.00022762,2274.6,8.1822e-05,80.716,7.1081e-05,0.012609,-0.00022614,-2233.2,0.96525
10407,14.328,1.4545,0.05,9.3379e-07,9.3314,7.1703e-07,5.3876,-1.8123e-12,2.2417e-06,-7.1703e-07,-5.3875,0.97607
10408,14.328,1.1818,0,0.00022277,2226.2,8.0496e-05,84.041,6.9313e-05,0.017308,-0.00022122,-2182.9,0.97535
10409,14.236,1.2727,0,0.00022604,2258.8,8.1287e-05,80.559,7.0567e-05,0.016291,-0.00022456,-2217.4,0.96477
10410,14.328,1.2727,0.05,9.9898e-07,9.9829,7.671e-07,5.7637,-2.2724e-12,1.4106e-06,-7.6709e-07,-5.7636,0.97559
10411,14.328,1,0,0.0002208,2206.5,7.9487e-05,79.691,6.8883e-05,0.019267,-0.00021934,-2165.6,0.97478
10412,14.236,1.0909,0,0.00022431,2241.6,8.0495e-05,77.863,7.0135e-05,0.018399,-0.00022289,-2201.6,0.96423
10413,14.328,1.0909,0.05,1.0601e-06,10.594,8.1402e-07,6.1162,-2.9176e-12,-2.4633e-06,-8.1401e-07,-6.1161,0.97505
10414,14.328,0.81818,0,0.00021875,2186,7.8196e-05,72.277,6.8579e-05,0.016457,-0.00021743,-2148.9,0.97416
10415,14.236,0.90909,0,0.00022249,2223.3,7.9438e-05,72.384,6.9807e-05,0.018779,-0.00022117,-2186.2,0.96363
10416,14.328,0.90909,0.05,1.1158e-06,11.15,8.568e-07,6.4377,-3.4756e-12,-3.5381e-06,-8.568e-07,-6.4376,0.97446
10417,14.328,0.63636,0,0.00021666,2165.1,7.6635e-05,61.738,6.842e-05,0.013003,-0.00021555,-2133.6,0.97349
10418,14.236,0.72727,0,0.00022059,2204.4,7.812e-05,63.996,6.9604e-05,0.01146,-0.00021944,-2171.7,0.96299
10419,14.328,0.72727,0.05,1.1648e-06,11.64,8.9444e-07,6.7205,-2.9541e-12,-1.7371e-06,-8.9443e-07,-6.7204,0.97382
10420,14.328,0.45455,0,0.00021459,2144.4,7.4823e-05,48.099,6.8416e-05,-0.036147,-0.00021373,-2120,0.97277
10421,14.236,0.54545,0,0.00021868,2185.3,7.6553e-05,52.695,6.9541e-05,0.0095587,-0.00021774,-2158.5,0.96229
10422,14.328,0.54545,0.05,1.2043e-06,12.035,9.2477e-07,6.9484,-1.3181e-12,1.2544e-06,-9.2477e-07,-6.9483,0.97312
10423,14.328,0.27273,0,0.00021262,2124.7,7.2808e-05,31.675,6.8582e-05,-0.077034,-0.00021206,-2108.7,0.972
10424,14.236,0.36364,0,0.00021681,2166.6,7.4763e-05,38.547,6.9622e-05,-0.085939,-0.00021613,-2147.1,0.96154
10425,14.328,0.36364,0.05,1.2087e-06,12.079,9.2815e-07,6.9738,-2.8425e-12,7.1832e-07,-9.2814e-07,-6.9736,0.97238
10426,14.236,0.18182,0,0.00021508,2149.3,7.2836e-05,22.235,6.9866e-05,-0.082587,-0.0002147,-2138.2,0.96075
10427,14.328,0.18182,0.05,8.0989e-07,8.0933,6.2189e-07,4.6727,-1.226e-12,4.6117e-06,-6.2189e-07,-4.6726,0.97158
10428,14.328,0.090909,0,0.00021073,2105.9,7.0643e-05,13.182,6.8887e-05,-0.010819,-0.00021051,-2099.3,0.97119
10429,14.145,5.7273,0,0.00021926,2191.1,7.4778e-05,29.001,7.0909e-05,-0.069362,-0.00021875,-2176.5,0.95033
10430,14.053,5.8182,0,0.0002217,2215.4,7.4909e-05,20.927,7.2115e-05,-0.067539,-0.00022133,-2204.9,0.93914
10431,14.145,5.8182,0.05,6.7833e-07,6.7787,5.2087e-07,3.9136,1.0482e-12,-5.3426e-06,-5.2088e-07,-3.9137,0.9499
10432,14.145,5.9091,0,0.00021759,2174.4,7.2854e-05,12.546,7.1183e-05,-0.0096128,-0.00021738,-2168.1,0.94951
10433,14.145,5.5455,0,0.0002209,2207.5,7.6492e-05,43.127,7.0747e-05,-0.033777,-0.00022013,-2185.6,0.95111
10434,14.053,5.6364,0,0.00022311,2229.6,7.6534e-05,34.816,7.189e-05,-0.077301,-0.0002225,-2212,0.93995
10435,14.145,5.6364,0.05,1.1281e-06,11.274,8.6627e-07,6.5088,1.9512e-12,5.4165e-06,-8.6627e-07,-6.5089,0.95071
10436,14.145,5.3636,0,0.00022262,2224.6,7.8039e-05,54.958,7.0726e-05,0.010613,-0.00022163,-2196.6,0.95183
10437,14.053,5.4545,0,0.00022468,2245.2,7.8063e-05,47.057,7.1801e-05,0.0068544,-0.00022384,-2221.3,0.9407
10438,14.145,5.4545,0.05,1.1333e-06,11.325,8.7021e-07,6.5384,3.8418e-12,8.9962e-06,-8.7022e-07,-6.5385,0.95146
10439,14.145,5.1818,0,0.00022433,2241.8,7.9364e-05,64.118,7.0832e-05,0.015044,-0.00022317,-2209,0.95251
10440,14.053,5.2727,0,0.00022625,2261,7.9397e-05,56.867,7.183e-05,0.0099149,-0.00022523,-2232,0.9414
10441,14.145,5.2727,0.05,1.1018e-06,11.01,8.4603e-07,6.3568,2.879e-12,7.4273e-06,-8.4604e-07,-6.3568,0.95216
10442,14.145,5,0,0.000226,2258.5,8.045e-05,70.578,7.1059e-05,0.018593,-0.00022472,-2222.3,0.95313
10443,14.053,5.0909,0,0.0002278,2276.4,8.0512e-05,64.17,7.1974e-05,0.017397,-0.00022664,-2243.6,0.94205
10444,14.145,5.0909,0.05,1.0619e-06,10.612,8.1543e-07,6.1268,3.6047e-12,7.3801e-06,-8.1543e-07,-6.1269,0.95281
10445,14.145,4.8182,0,0.00022758,2274.3,8.1289e-05,74.405,7.1389e-05,0.01775,-0.00022623,-2236.1,0.9537
10446,14.053,4.9091,0,0.00022928,2291.2,8.1398e-05,68.974,7.2221e-05,0.017954,-0.00022803,-2255.9,0.94265
10447,14.145,4.9091,0.05,1.0165e-06,10.158,7.8058e-07,5.8649,6.324e-13,5.4798e-06,-7.8059e-07,-5.865,0.9534
10448,14.145,4.6364,0,0.00022905,2288.9,8.1886e-05,75.783,7.1802e-05,0.015332,-0.00022766,-2250.1,0.95421
10449,14.053,4.7273,0,0.00023066,2305,8.2054e-05,71.399,7.2554e-05,0.016828,-0.00022936,-2268.4,0.9432
10450,14.145,4.7273,0.05,9.6679e-07,9.6612,7.4237e-07,5.5779,3.0711e-12,6.7345e-06,-7.4238e-07,-5.5779,0.95394
10451,14.145,4.4545,0,0.00023037,2302.1,8.2258e-05,75.006,7.2277e-05,0.011967,-0.000229,-2263.7,0.95468
10452,14.053,4.5455,0,0.00023191,2317.5,8.249e-05,71.672,7.2953e-05,0.014201,-0.00023061,-2280.8,0.94369
10453,14.145,4.5455,0.05,9.1375e-07,9.1312,7.0164e-07,5.2719,2.8513e-12,5.7219e-06,-7.0165e-07,-5.2719,0.95443
10454,14.145,4.2727,0,0.00023153,2313.7,8.2431e-05,72.477,7.2786e-05,0.0086122,-0.00023021,-2276.6,0.95508
10455,14.053,4.3636,0,0.00023302,2328.6,8.2728e-05,70.123,7.3397e-05,0.011131,-0.00023174,-2292.7,0.94412
10456,14.145,4.3636,0.05,8.5853e-07,8.5794,6.5924e-07,4.9533,2.752e-12,5.9796e-06,-6.5925e-07,-4.9533,0.95487
10457,14.145,4.0909,0,0.00023252,2323.6,8.2444e-05,68.687,7.3303e-05,0.006065,-0.00023127,-2288.5,0.95543
10458,14.053,4.1818,0,0.00023397,2338.1,8.2799e-05,67.171,7.3861e-05,0.0083388,-0.00023276,-2303.8,0.9445
10459,14.145,4.1818,0.05,8.0233e-07,8.0178,6.1609e-07,4.6291,1.1347e-13,5.2891e-06,-6.1609e-07,-4.6291,0.95525
10460,14.145,3.9091,0,0.00023334,2331.8,8.2342e-05,64.185,7.38e-05,0.0050255,-0.00023218,-2299,0.95573
10461,14.053,4,0,0.00023477,2346.1,8.2743e-05,63.302,7.4319e-05,0.0065322,-0.00023363,-2313.8,0.94483
10462,14.145,4,0.05,7.4654e-07,7.4603,5.7325e-07,4.3072,1.1609e-12,8.2832e-06,-5.7325e-07,-4.3072,0.95557
10463,14.145,3.7273,0,0.00023399,2338.3,8.2173e-05,59.537,7.425e-05,0.0058743,-0.00023292,-2308,0.95598
10464,14.053,3.8182,0,0.00023542,2352.6,8.2603e-05,59.036,7.4747e-05,0.0062127,-0.00023436,-2322.5,0.9451
10465,14.145,3.8182,0.05,6.9298e-07,6.925,5.3212e-07,3.9982,-1.9655e-13,7.6807e-06,-5.3212e-07,-3.9982,0.95584
10466,14.145,3.5455,0,0.00023449,2343.3,8.1984e-05,55.278,7.4628e-05,0.0084514,-0.0002335,-2315.1,0.95617
10467,14.053,3.6364,0,0.00023593,2357.6,8.2425e-05,54.886,7.5121e-05,0.0075067,-0.00023494,-2329.7,0.94532
10468,14.145,3.6364,0.05,6.4404e-07,6.4359,4.9454e-07,3.7158,1.6081e-12,6.1986e-06,-4.9454e-07,-3.7158,0.95606
10469,14.145,3.3636,0,0.00023484,2346.8,8.1816e-05,51.874,7.4914e-05,0.011918,-0.00023391,-2320.4,0.9563
10470,14.053,3.4545,0,0.00023629,2361.3,8.225e-05,51.316,7.5422e-05,0.010005,-0.00023538,-2335.2,0.94548
10471,14.145,3.4545,0.05,6.0273e-07,6.0231,4.6282e-07,3.4775,4.5123e-14,6.8557e-06,-4.6282e-07,-3.4774,0.95622
10472,14.145,3.1818,0,0.00023504,2348.8,8.1702e-05,49.682,7.5092e-05,0.014909,-0.00023416,-2323.6,0.95638
10473,14.053,3.2727,0,0.00023653,2363.7,8.2113e-05,48.709,7.5632e-05,0.012748,-0.00023567,-2339,0.94559
10474,14.145,3.2727,0.05,5.7244e-07,5.7205,4.3957e-07,3.3027,1.1804e-13,2.3717e-06,-4.3956e-07,-3.3027,0.95633
10475,14.145,3,0,0.00023511,2349.5,8.1662e-05,48.925,7.5152e-05,0.016093,-0.00023424,-2324.6,0.95641
10476,14.053,3.0909,0,0.00023665,2364.9,8.2038e-05,47.336,7.574e-05,0.014544,-0.00023581,-2340.9,0.94565
10477,14.145,3.0909,0.05,5.5633e-07,5.5595,4.2719e-07,3.2098,-1.7883e-12,-3.101e-07,-4.2719e-07,-3.2098,0.95638
10478,14.145,2.8182,0,0.00023504,2348.8,8.1702e-05,49.682,7.5092e-05,0.014909,-0.00023416,-2323.6,0.95638
10479,14.053,2.9091,0,0.00023665,2364.9,8.2038e-05,47.336,7.574e-05,0.014544,-0.00023581,-2340.9,0.94565
10480,14.145,2.9091,0.05,5.5633e-07,5.5595,4.2719e-07,3.2098,-1.8162e-12,-3.4064e-06,-4.2719e-07,-3.2098,0.95638
10481,14.145,2.6364,0,0.00023484,2346.8,8.1816e-05,51.874,7.4914e-05,0.011918,-0.00023391,-2320.4,0.9563
10482,14.053,2.7273,0,0.00023653,2363.7,8.2113e-05,48.709,7.5632e-05,0.012749,-0.00023567,-2339,0.94559
10483,14.145,2.7273,0.05,5.7244e-07,5.7205,4.3957e-07,3.3027,-1.6544e-12,-7.2275e-06,-4.3956e-07,-3.3027,0.95633
10484,14.145,2.4545,0,0.00023449,2343.3,8.1984e-05,55.278,7.4628e-05,0.0084512,-0.0002335,-2315.1,0.95617
10485,14.053,2.5455,0,0.00023629,2361.3,8.225e-05,51.316,7.5422e-05,0.010004,-0.00023538,-2335.2,0.94548
10486,14.145,2.5455,0.05,6.0273e-07,6.0231,4.6282e-07,3.4775,-3.0865e-12,-5.1918e-06,-4.6282e-07,-3.4774,0.95622
10487,14.145,2.2727,0,0.00023399,2338.3,8.2173e-05,59.537,7.425e-05,0.005874,-0.00023292,-2308,0.95598
10488,14.053,2.3636,0,0.00023593,2357.6,8.2425e-05,54.886,7.5121e-05,0.0075075,-0.00023494,-2329.7,0.94532
10489,14.145,2.3636,0.05,6.4404e-07,6.4359,4.9455e-07,3.7158,-1.7993e-12,-3.9487e-06,-4.9454e-07,-3.7158,0.95606
10490,14.145,2.0909,0,0.00023334,2331.8,8.2342e-05,64.185,7.38e-05,0.0050256,-0.00023218,-2299,0.95573
10491,14.053,2.1818,0,0.00023542,2352.6,8.2603e-05,59.036,7.4747e-05,0.0062124,-0.00023436,-2322.5,0.9451
10492,14.145,2.1818,0.05,6.9298e-07,6.925,5.3213e-07,3.9982,-3.1217e-12,-2.3985e-06,-5.3212e-07,-3.9981,0.95584
10493,14.145,1.9091,0,0.00023252,2323.6,8.2444e-05,68.687,7.3303e-05,0.0060654,-0.00023127,-2288.5,0.95543
10494,14.053,2,0,0.00023477,2346.1,8.2743e-05,63.302,7.4319e-05,0.0065332,-0.00023363,-2313.8,0.94483
10495,14.145,2,0.05,7.4654e-07,7.4603,5.7325e-07,4.3072,-2.7913e-12,-1.7208e-06,-5.7325e-07,-4.3072,0.95557
10496,14.145,1.7273,0,0.00023153,2313.7,8.2431e-05,72.477,7.2786e-05,0.0086122,-0.00023021,-2276.6,0.95508
10497,14.053,1.8182,0,0.00023397,2338.1,8.2799e-05,67.171,7.3861e-05,0.0083389,-0.00023276,-2303.8,0.9445
10498,14.145,1.8182,0.05,8.0233e-07,8.0178,6.1609e-07,4.6291,-3.4937e-12,2.5003e-06,-6.1609e-07,-4.629,0.95525
10499,14.145,1.5455,0,0.00023037,2302.1,8.2258e-05,75.006,7.2277e-05,0.011968,-0.000229,-2263.7,0.95468
10500,14.053,1.6364,0,0.00023302,2328.6,8.2728e-05,70.123,7.3397e-05,0.011131,-0.00023174,-2292.7,0.94412
10501,14.145,1.6364,0.05,8.5853e-07,8.5794,6.5925e-07,4.9534,-2.8988e-12,-2.3056e-08,-6.5925e-07,-4.9533,0.95487
10502,14.145,1.3636,0,0.00022905,2288.9,8.1886e-05,75.783,7.1802e-05,0.015332,-0.00022766,-2250.1,0.95421
10503,14.053,1.4545,0,0.00023191,2317.5,8.249e-05,71.672,7.2953e-05,0.014202,-0.00023061,-2280.8,0.94369
10504,14.145,1.4545,0.05,9.1375e-07,9.1312,7.0165e-07,5.2719,-3.1145e-12,1.1642e-06,-7.0164e-07,-5.2718,0.95443
10505,14.145,1.1818,0,0.00022758,2274.3,8.1289e-05,74.405,7.1389e-05,0.01775,-0.00022623,-2236.1,0.9537
10506,14.053,1.2727,0,0.00023066,2305,8.2054e-05,71.399,7.2554e-05,0.016828,-0.00022936,-2268.4,0.9432
10507,14.145,1.2727,0.05,9.6679e-07,9.6612,7.4238e-07,5.578,-2.699e-12,-3.4619e-06,-7.4237e-07,-5.5779,0.95394
10508,14.145,1,0,0.000226,2258.5,8.045e-05,70.578,7.1059e-05,0.018594,-0.00022472,-2222.3,0.95313
10509,14.053,1.0909,0,0.00022928,2291.2,8.1398e-05,68.974,7.2221e-05,0.017955,-0.00022803,-2255.9,0.94265
10510,14.145,1.0909,0.05,1.0165e-06,10.158,7.8059e-07,5.865,-4.0901e-12,-2.7034e-07,-7.8058e-07,-5.8649,0.9534
10511,14.145,0.81818,0,0.00022433,2241.8,7.9364e-05,64.118,7.0832e-05,0.015045,-0.00022317,-2209,0.95251
10512,14.053,0.90909,0,0.0002278,2276.4,8.0512e-05,64.17,7.1974e-05,0.017399,-0.00022664,-2243.6,0.94205
10513,14.145,0.90909,0.05,1.0619e-06,10.612,8.1544e-07,6.1269,-3.5832e-12,-3.4126e-06,-8.1542e-07,-6.1268,0.95281
10514,14.145,0.63636,0,0.00022262,2224.6,7.8039e-05,54.958,7.0726e-05,0.010615,-0.00022163,-2196.6,0.95183
10515,14.053,0.72727,0,0.00022625,2261,7.9397e-05,56.867,7.183e-05,0.009916,-0.00022523,-2232,0.9414
10516,14.145,0.72727,0.05,1.1018e-06,11.01,8.4604e-07,6.3568,-3.8697e-12,-3.3217e-06,-8.4603e-07,-6.3567,0.95216
10517,14.145,0.45455,0,0.0002209,2207.5,7.6492e-05,43.127,7.0747e-05,-0.033777,-0.00022013,-2185.6,0.95111
10518,14.053,0.54545,0,0.00022468,2245.2,7.8063e-05,47.057,7.1801e-05,0.0068558,-0.00022384,-2221.3,0.9407
10519,14.145,0.54545,0.05,1.1333e-06,11.325,8.7022e-07,6.5385,-3.9557e-12,-1.489e-06,-8.7021e-07,-6.5384,0.95146
10520,14.145,0.27273,0,0.00021926,2191.1,7.4778e-05,29.001,7.0909e-05,-0.069362,-0.00021875,-2176.5,0.95033
10521,14.053,0.36364,0,0.00022311,2229.6,7.6534e-05,34.816,7.189e-05,-0.077302,-0.0002225,-2212,0.93995
10522,14.145,0.36364,0.05,1.1281e-06,11.274,8.6627e-07,6.5089,-3.8982e-12,7.092e-07,-8.6627e-07,-6.5088,0.95071
10523,14.053,0.18182,0,0.0002217,2215.4,7.4909e-05,20.927,7.2115e-05,-0.067539,-0.00022133,-2204.9,0.93914
10524,14.145,0.18182,0.05,6.7833e-07,6.7787,5.2088e-07,3.9137,-1.6141e-12,1.4068e-05,-5.2087e-07,-3.9136,0.9499
10525,14.145,0.090909,0,0.00021759,2174.4,7.2854e-05,12.546,7.1183e-05,-0.0096131,-0.00021738,-2168.1,0.94951
10526,13.961,5.7273,0,0.00022554,2253.8,7.6652e-05,26.639,7.3098e-05,-0.06142,-0.00022507,-2240.4,0.9288
10527,13.869,5.8182,0,0.00022796,2278,7.688e-05,19.779,7.424e-05,-0.053887,-0.00022762,-2268.1,0.91768
10528,13.961,5.8182,0.05,5.6889e-07,5.6849,4.3683e-07,3.2822,1.0362e-12,-2.244e-06,-4.3683e-07,-3.2822,0.92837
10529,13.961,5.9091,0,0.00022406,2239,7.494e-05,11.988,7.3343e-05,-0.0085269,-0.00022385,-2233,0.92797
10530,13.961,5.5455,0,0.00022689,2267.3,7.8102e-05,38.723,7.2944e-05,-0.031284,-0.00022621,-2247.7,0.92959
10531,13.869,5.6364,0,0.00022911,2289.5,7.8239e-05,31.519,7.4035e-05,-0.069053,-0.00022856,-2273.7,0.9185
10532,13.961,5.6364,0.05,1.0631e-06,10.624,8.1633e-07,6.1335,1.8902e-12,4.2164e-06,-8.1633e-07,-6.1336,0.92918
10533,13.961,5.3636,0,0.00022831,2281.5,7.942e-05,48.96,7.2905e-05,0.0083952,-0.00022744,-2256.7,0.93032
10534,13.869,5.4545,0,0.00023041,2302.5,7.954e-05,42.071,7.3941e-05,0.0045981,-0.00022966,-2281.2,0.91926
10535,13.961,5.4545,0.05,1.0764e-06,10.756,8.2653e-07,6.2102,2.8957e-12,7.5715e-06,-8.2653e-07,-6.2102,0.92994
10536,13.961,5.1818,0,0.00022972,2295.6,8.0545e-05,56.922,7.2971e-05,0.013366,-0.0002287,-2266.6,0.931
10537,13.869,5.2727,0,0.00023171,2315.5,8.0675e-05,50.574,7.3945e-05,0.0083414,-0.0002308,-2289.8,0.91997
10538,13.961,5.2727,0.05,1.0517e-06,10.51,8.0757e-07,6.0677,1.9624e-12,6.5287e-06,-8.0757e-07,-6.0678,0.93065
10539,13.961,5,0,0.00023108,2309.2,8.1462e-05,62.574,7.3136e-05,0.017353,-0.00022995,-2277.2,0.93163
10540,13.869,5.0909,0,0.00023297,2328.1,8.162e-05,56.94,7.4044e-05,0.01574,-0.00023195,-2299.1,0.92063
10541,13.961,5.0909,0.05,1.0196e-06,10.189,7.829e-07,5.8824,2.7392e-12,6.76e-06,-7.829e-07,-5.8824,0.9313
10542,13.961,4.8182,0,0.00023235,2321.9,8.2164e-05,65.978,7.3386e-05,0.017352,-0.00023116,-2288.2,0.9322
10543,13.869,4.9091,0,0.00023417,2340,8.2366e-05,61.174,7.4226e-05,0.016967,-0.00023307,-2308.9,0.92123
10544,13.961,4.9091,0.05,9.8286e-07,9.8218,7.5471e-07,5.6706,2.5627e-12,6.4843e-06,-7.5472e-07,-5.6706,0.9319
10545,13.961,4.6364,0,0.00023352,2333.6,8.2659e-05,67.299,7.3704e-05,0.015842,-0.0002323,-2299.2,0.93272
10546,13.869,4.7273,0,0.00023527,2351.1,8.2914e-05,63.385,7.448e-05,0.016594,-0.00023413,-2318.7,0.92178
10547,13.961,4.7273,0.05,9.4259e-07,9.4194,7.2379e-07,5.4383,2.3571e-12,4.9041e-06,-7.238e-07,-5.4383,0.93245
10548,13.961,4.4545,0,0.00023456,2344,8.2962e-05,66.798,7.4073e-05,0.013381,-0.00023335,-2309.9,0.93319
10549,13.869,4.5455,0,0.00023626,2361,8.3274e-05,63.773,7.4788e-05,0.0148,-0.00023511,-2328.5,0.92228
10550,13.961,4.5455,0.05,8.9972e-07,8.991,6.9087e-07,5.1909,3.0944e-12,6.9499e-06,-6.9087e-07,-5.1909,0.93294
10551,13.961,4.2727,0,0.00023546,2353,8.3097e-05,64.824,7.4471e-05,0.010775,-0.00023429,-2319.9,0.9336
10552,13.869,4.3636,0,0.00023714,2369.7,8.3466e-05,62.624,7.5133e-05,0.012495,-0.00023601,-2337.8,0.92272
10553,13.961,4.3636,0.05,8.5521e-07,8.5462,6.567e-07,4.9342,3.0415e-12,5.1634e-06,-6.567e-07,-4.9342,0.93338
10554,13.961,4.0909,0,0.00023623,2360.7,8.3099e-05,61.79,7.4876e-05,0.0086539,-0.00023512,-2329.2,0.93395
10555,13.869,4.1818,0,0.00023788,2377.1,8.3519e-05,60.295,7.5495e-05,0.010268,-0.0002368,-2346.4,0.9231
10556,13.961,4.1818,0.05,8.1018e-07,8.0962,6.2211e-07,4.6743,2.9917e-12,4.7055e-06,-6.2212e-07,-4.6743,0.93376
10557,13.961,3.9091,0,0.00023686,2367,8.3005e-05,58.154,7.5266e-05,0.0075439,-0.00023582,-2337.3,0.93426
10558,13.869,4,0,0.00023849,2383.3,8.3465e-05,57.192,7.5854e-05,0.0086674,-0.00023747,-2354.2,0.92343
10559,13.961,4,0.05,7.6589e-07,7.6536,5.8811e-07,4.4188,3.1142e-12,4.2874e-06,-5.8811e-07,-4.4188,0.93409
10560,13.961,3.7273,0,0.00023736,2371.9,8.2856e-05,54.384,7.5619e-05,0.0077219,-0.00023638,-2344.3,0.9345
10561,13.869,3.8182,0,0.00023899,2388.2,8.3342e-05,53.748,7.619e-05,0.0080657,-0.00023803,-2360.9,0.92371
10562,13.961,3.8182,0.05,7.2392e-07,7.2342,5.5588e-07,4.1767,-2.3035e-13,4.5576e-06,-5.5588e-07,-4.1767,0.93436
10563,13.961,3.5455,0,0.00023773,2375.7,8.2692e-05,50.92,7.5916e-05,0.0090889,-0.00023682,-2349.8,0.93469
10564,13.869,3.6364,0,0.00023937,2392,8.3188e-05,50.383,7.6483e-05,0.0085662,-0.00023847,-2366.4,0.92393
10565,13.961,3.6364,0.05,6.862e-07,6.8572,5.2691e-07,3.959,-2.4161e-13,5.8181e-06,-5.2692e-07,-3.959,0.93458
10566,13.961,3.3636,0,0.00023799,2378.2,8.2547e-05,48.146,7.614e-05,0.011097,-0.00023713,-2353.8,0.93483
10567,13.869,3.4545,0,0.00023964,2394.8,8.3038e-05,47.483,7.6719e-05,0.0099071,-0.0002388,-2370.7,0.92409
10568,13.961,3.4545,0.05,6.5493e-07,6.5447,5.029e-07,3.7786,-6.621e-14,3.663e-06,-5.029e-07,-3.7786,0.93475
10569,13.961,3.1818,0,0.00023814,2379.8,8.2448e-05,46.357,7.628e-05,0.012874,-0.00023732,-2356.3,0.93491
10570,13.869,3.2727,0,0.00023982,2396.6,8.292e-05,45.362,7.6884e-05,0.011475,-0.00023902,-2373.5,0.9242
10571,13.961,3.2727,0.05,6.3239e-07,6.3195,4.856e-07,3.6486,-9.3661e-13,4.3131e-07,-4.856e-07,-3.6486,0.93486
10572,13.961,3,0,0.00023819,2380.3,8.2414e-05,45.74,7.6328e-05,0.013582,-0.00023738,-2357.1,0.93494
10573,13.869,3.0909,0,0.00023991,2397.4,8.2856e-05,44.243,7.6969e-05,0.012522,-0.00023912,-2375,0.92425
10574,13.961,3.0909,0.05,6.2055e-07,6.2012,4.7651e-07,3.5803,-1.1298e-14,-1.0335e-06,-4.765e-07,-3.5803,0.93491
10575,13.961,2.8182,0,0.00023814,2379.8,8.2448e-05,46.357,7.628e-05,0.012874,-0.00023732,-2356.3,0.93491
10576,13.869,2.9091,0,0.00023991,2397.4,8.2856e-05,44.243,7.6969e-05,0.012521,-0.00023912,-2375,0.92425
10577,13.961,2.9091,0.05,6.2055e-07,6.2012,4.7651e-07,3.5803,-8.8192e-13,-3.1465e-06,-4.765e-07,-3.5803,0.93491
10578,13.961,2.6364,0,0.00023799,2378.2,8.2547e-05,48.146,7.614e-05,0.011098,-0.00023713,-2353.8,0.93483
10579,13.869,2.7273,0,0.00023982,2396.6,8.292e-05,45.362,7.6884e-05,0.011475,-0.00023902,-2373.5,0.9242
10580,13.961,2.7273,0.05,6.3239e-07,6.3195,4.856e-07,3.6486,-1.6654e-12,-5.187e-06,-4.8559e-07,-3.6486,0.93486
10581,13.961,2.4545,0,0.00023773,2375.7,8.2692e-05,50.92,7.5916e-05,0.0090895,-0.00023682,-2349.8,0.93469
10582,13.869,2.5455,0,0.00023964,2394.8,8.3038e-05,47.483,7.6719e-05,0.0099069,-0.0002388,-2370.7,0.92409
10583,13.961,2.5455,0.05,6.5493e-07,6.5447,5.029e-07,3.7786,-2.3079e-12,-6.5137e-06,-5.029e-07,-3.7786,0.93475
10584,13.961,2.2727,0,0.00023736,2371.9,8.2856e-05,54.384,7.5619e-05,0.0077227,-0.00023638,-2344.3,0.9345
10585,13.869,2.3636,0,0.00023937,2392,8.3188e-05,50.383,7.6483e-05,0.0085668,-0.00023847,-2366.4,0.92393
10586,13.961,2.3636,0.05,6.862e-07,6.8572,5.2692e-07,3.9591,-2.9223e-12,-5.8607e-06,-5.2691e-07,-3.959,0.93458
10587,13.961,2.0909,0,0.00023686,2367,8.3005e-05,58.154,7.5266e-05,0.0075445,-0.00023582,-2337.3,0.93426
10588,13.869,2.1818,0,0.00023899,2388.2,8.3342e-05,53.748,7.619e-05,0.0080658,-0.00023803,-2360.9,0.92371
10589,13.961,2.1818,0.05,7.2392e-07,7.2342,5.5589e-07,4.1767,-2.667e-12,-4.359e-06,-5.5588e-07,-4.1767,0.93436
10590,13.961,1.9091,0,0.00023623,2360.7,8.3099e-05,61.79,7.4876e-05,0.0086545,-0.00023512,-2329.2,0.93395
10591,13.869,2,0,0.00023849,2383.3,8.3465e-05,57.192,7.5854e-05,0.008668,-0.00023747,-2354.2,0.92343
10592,13.961,2,0.05,7.6589e-07,7.6536,5.8811e-07,4.4189,-2.4091e-12,-3.6641e-06,-5.881e-07,-4.4188,0.93409
10593,13.961,1.7273,0,0.00023546,2353,8.3097e-05,64.824,7.4471e-05,0.010775,-0.00023429,-2319.9,0.9336
10594,13.869,1.8182,0,0.00023788,2377.1,8.3519e-05,60.295,7.5495e-05,0.010268,-0.0002368,-2346.4,0.9231
10595,13.961,1.8182,0.05,8.1018e-07,8.0962,6.2212e-07,4.6744,-2.3894e-12,-1.7219e-06,-6.2211e-07,-4.6743,0.93376
10596,13.961,1.5455,0,0.00023456,2344,8.2962e-05,66.798,7.4073e-05,0.013381,-0.00023335,-2309.9,0.93319
10597,13.869,1.6364,0,0.00023714,2369.7,8.3466e-05,62.624,7.5133e-05,0.012496,-0.00023601,-2337.8,0.92272
10598,13.961,1.6364,0.05,8.5521e-07,8.5462,6.567e-07,4.9342,-2.445e-12,-2.3056e-06,-6.5669e-07,-4.9341,0.93338
10599,13.961,1.3636,0,0.00023352,2333.6,8.2659e-05,67.299,7.3704e-05,0.015841,-0.0002323,-2299.2,0.93272
10600,13.869,1.4545,0,0.00023626,2361,8.3274e-05,63.773,7.4788e-05,0.014799,-0.00023511,-2328.5,0.92228
10601,13.961,1.4545,0.05,8.9972e-07,8.991,6.9087e-07,5.1909,-3.6048e-12,-2.7695e-06,-6.9087e-07,-5.1909,0.93294
10602,13.961,1.1818,0,0.00023235,2321.9,8.2164e-05,65.978,7.3386e-05,0.017353,-0.00023116,-2288.2,0.9322
10603,13.869,1.2727,0,0.00023527,2351.1,8.2914e-05,63.385,7.448e-05,0.016594,-0.00023413,-2318.7,0.92178
10604,13.961,1.2727,0.05,9.4259e-07,9.4194,7.238e-07,5.4384,-3.9161e-12,-1.8788e-06,-7.2379e-07,-5.4383,0.93245
10605,13.961,1,0,0.00023108,2309.2,8.1462e-05,62.574,7.3136e-05,0.017355,-0.00022995,-2277.2,0.93163
10606,13.869,1.0909,0,0.00023417,2340,8.2366e-05,61.174,7.4226e-05,0.016969,-0.00023307,-2308.9,0.92123
10607,13.961,1.0909,0.05,9.8286e-07,9.8218,7.5472e-07,5.6707,-3.3311e-12,-2.6276e-06,-7.5471e-07,-5.6706,0.9319
10608,13.961,0.81818,0,0.00022972,2295.6,8.0545e-05,56.922,7.2971e-05,0.013367,-0.0002287,-2266.6,0.931
10609,13.869,0.90909,0,0.00023297,2328.1,8.162e-05,56.94,7.4044e-05,0.015741,-0.00023195,-2299.1,0.92063
10610,13.961,0.90909,0.05,1.0196e-06,10.189,7.829e-07,5.8824,-3.6568e-12,-3.4787e-06,-7.829e-07,-5.8824,0.9313
10611,13.961,0.63636,0,0.00022831,2281.5,7.942e-05,48.96,7.2905e-05,0.0083962,-0.00022744,-2256.7,0.93032
10612,13.869,0.72727,0,0.00023171,2315.5,8.0675e-05,50.574,7.3945e-05,0.0083422,-0.0002308,-2289.8,0.91997
10613,13.961,0.72727,0.05,1.0517e-06,10.51,8.0758e-07,6.0678,-3.8632e-12,-3.7361e-06,-8.0757e-07,-6.0677,0.93065
10614,13.961,0.45455,0,0.00022689,2267.3,7.8102e-05,38.723,7.2944e-05,-0.031284,-0.00022621,-2247.7,0.92959
10615,13.869,0.54545,0,0.00023041,2302.5,7.954e-05,42.071,7.3941e-05,0.0045988,-0.00022966,-2281.2,0.91926
10616,13.961,0.54545,0.05,1.0764e-06,10.756,8.2653e-07,6.2103,-3.957e-12,-3.8284e-06,-8.2653e-07,-6.2102,0.92994
10617,13.961,0.27273,0,0.00022554,2253.8,7.6652e-05,26.639,7.3098e-05,-0.061421,-0.00022507,-2240.4,0.9288
10618,13.869,0.36364,0,0.00022911,2289.5,7.8239e-05,31.519,7.4035e-05,-0.069053,-0.00022856,-2273.7,0.9185
10619,13.961,0.36364,0.05,1.0631e-06,10.624,8.1633e-07,6.1336,-2.8624e-12,-1.0465e-06,-8.1632e-07,-6.1335,0.92918
10620,13.869,0.18182,0,0.00022796,2278,7.688e-05,19.779,7.424e-05,-0.053887,-0.00022762,-2268.1,0.91768
10621,13.961,0.18182,0.05,5.6888e-07,5.6849,4.3684e-07,3.2822,-6.1331e-13,1.4066e-05,-4.3683e-07,-3.2821,0.92837
10622,13.961,0.090909,0,0.00022406,2239,7.494e-05,11.988,7.3343e-05,-0.0085264,-0.00022385,-2233,0.92797
10623,13.777,5.7273,0,0.00023152,2313.6,7.8454e-05,24.559,7.5178e-05,-0.053708,-0.0002311,-2301.3,0.90743
10624,13.685,5.8182,0,0.00023394,2337.8,7.877e-05,18.767,7.6267e-05,-0.042118,-0.00023362,-2328.4,0.89638
10625,13.777,5.8182,0.05,4.7811e-07,4.7778,3.6712e-07,2.7584,1.8708e-12,9.5207e-07,-3.6713e-07,-2.7585,0.90699
10626,13.777,5.9091,0,0.0002302,2300.4,7.6927e-05,11.496,7.5396e-05,-0.0075443,-0.00023,-2294.7,0.90658
10627,13.777,5.5455,0,0.00023263,2324.7,7.9674e-05,34.841,7.5033e-05,-0.028742,-0.00023202,-2307.1,0.90822
10628,13.685,5.6364,0,0.00023487,2347.1,7.9897e-05,28.617,7.608e-05,-0.061363,-0.00023437,-2332.7,0.89721
10629,13.777,5.6364,0.05,1.0109e-06,10.102,7.7626e-07,5.8325,3.65e-12,3.7838e-06,-7.7627e-07,-5.8326,0.90781
10630,13.777,5.3636,0,0.0002338,2336.4,8.0794e-05,43.673,7.4982e-05,0.0064573,-0.00023303,-2314.3,0.90896
10631,13.685,5.4545,0,0.00023594,2357.8,8.1001e-05,37.68,7.5986e-05,0.0027663,-0.00023528,-2338.7,0.89798
10632,13.777,5.4545,0.05,1.0311e-06,10.304,7.9174e-07,5.9488,3.7949e-12,6.8983e-06,-7.9174e-07,-5.9489,0.90858
10633,13.777,5.1818,0,0.00023496,2348,8.1749e-05,50.587,7.5018e-05,0.011663,-0.00023406,-2322.2,0.90965
10634,13.685,5.2727,0,0.00023701,2368.4,8.1964e-05,45.032,7.5972e-05,0.0068562,-0.00023621,-2345.6,0.8987
10635,13.777,5.2727,0.05,1.0121e-06,10.114,7.7714e-07,5.8391,2.853e-12,5.8418e-06,-7.7714e-07,-5.8391,0.90929
10636,13.777,5,0,0.00023606,2359,8.2524e-05,55.539,7.5134e-05,0.015868,-0.00023507,-2330.7,0.91029
10637,13.685,5.0909,0,0.00023804,2378.7,8.2765e-05,50.578,7.6035e-05,0.014006,-0.00023714,-2353,0.89936
10638,13.777,5.0909,0.05,9.8637e-07,9.8568,7.574e-07,5.6908,3.6792e-12,5.5273e-06,-7.5741e-07,-5.6909,0.90995
10639,13.777,4.8182,0,0.00023709,2369.2,8.3115e-05,58.582,7.532e-05,0.016486,-0.00023604,-2339.4,0.91086
10640,13.685,4.9091,0,0.00023901,2388.4,8.3394e-05,54.317,7.6167e-05,0.015697,-0.00023803,-2360.8,0.89997
10641,13.777,4.9091,0.05,9.5687e-07,9.5621,7.3475e-07,5.5206,3.5382e-12,5.3677e-06,-7.3476e-07,-5.5207,0.91056
10642,13.777,4.6364,0,0.00023802,2378.5,8.3528e-05,59.86,7.5563e-05,0.015677,-0.00023694,-2348,0.91139
10643,13.685,4.7273,0,0.00023989,2397.2,8.3855e-05,56.342,7.6358e-05,0.015887,-0.00023888,-2368.6,0.90053
10644,13.777,4.7273,0.05,9.2447e-07,9.2384,7.0988e-07,5.3337,-2.5922e-13,3.8138e-06,-7.0988e-07,-5.3338,0.91111
10645,13.777,4.4545,0,0.00023884,2386.8,8.3778e-05,59.599,7.5848e-05,0.013931,-0.00023777,-2356.4,0.91186
10646,13.685,4.5455,0,0.00024068,2405.1,8.4155e-05,56.827,7.6594e-05,0.014743,-0.00023966,-2376.2,0.90103
10647,13.777,4.5455,0.05,8.9001e-07,8.8939,6.8342e-07,5.1349,2.3795e-12,4.499e-06,-6.8342e-07,-5.135,0.91161
10648,13.777,4.2727,0,0.00023955,2393.8,8.3887e-05,58.094,7.6157e-05,0.011924,-0.00023851,-2364.3,0.91227
10649,13.685,4.3636,0,0.00024136,2412,8.4314e-05,56.013,7.686e-05,0.013047,-0.00024036,-2383.5,0.90147
10650,13.777,4.3636,0.05,8.5434e-07,8.5375,6.5603e-07,4.9291,3.2061e-12,3.5826e-06,-6.5603e-07,-4.9292,0.91205
10651,13.777,4.0909,0,0.00024014,2399.8,8.3884e-05,55.694,7.6473e-05,0.010163,-0.00023915,-2371.4,0.91263
10652,13.685,4.1818,0,0.00024194,2417.8,8.4354e-05,54.205,7.7142e-05,0.011278,-0.00024097,-2390.2,0.90186
10653,13.777,4.1818,0.05,8.1845e-07,8.1788,6.2846e-07,4.722,1.4166e-12,2.9092e-06,-6.2846e-07,-4.7221,0.91244
10654,13.777,3.9091,0,0.00024062,2404.6,8.3801e-05,52.782,7.6778e-05,0.009054,-0.00023968,-2377.7,0.91294
10655,13.685,4,0,0.00024242,2422.5,8.4306e-05,51.74,7.7422e-05,0.0098759,-0.00024149,-2396.2,0.90219
10656,13.777,4,0.05,7.8343e-07,7.8289,6.0158e-07,4.52,1.4373e-12,2.0868e-06,-6.0157e-07,-4.52,0.91277
10657,13.777,3.7273,0,0.000241,2408.3,8.3673e-05,49.742,7.7054e-05,0.0088137,-0.00024012,-2383.1,0.91318
10658,13.685,3.8182,0,0.00024279,2426.2,8.4201e-05,48.978,7.7684e-05,0.0091274,-0.00024192,-2401.4,0.90247
10659,13.777,3.8182,0.05,7.506e-07,7.5008,5.7636e-07,4.3306,5.9985e-13,2.6674e-06,-5.7637e-07,-4.3306,0.91305
10660,13.777,3.5455,0,0.00024128,2411.1,8.3533e-05,46.94,7.7287e-05,0.0093939,-0.00024045,-2387.3,0.91338
10661,13.685,3.6364,0,0.00024308,2429.1,8.407e-05,46.267,7.7914e-05,0.0091281,-0.00024226,-2405.6,0.90269
10662,13.777,3.6364,0.05,7.2144e-07,7.2095,5.5398e-07,4.1624,-2.1192e-13,3.7878e-06,-5.5398e-07,-4.1624,0.91327
10663,13.777,3.3636,0,0.00024147,2413.1,8.341e-05,44.691,7.7463e-05,0.01045,-0.00024068,-2390.4,0.91352
10664,13.685,3.4545,0,0.00024328,2431.1,8.3943e-05,43.922,7.8099e-05,0.009724,-0.00024251,-2408.9,0.90286
10665,13.777,3.4545,0.05,6.9758e-07,6.971,5.3566e-07,4.0247,-1.2567e-13,2.2984e-06,-5.3566e-07,-4.0247,0.91343
10666,13.777,3.1818,0,0.00024159,2414.2,8.3326e-05,43.239,7.7573e-05,0.011436,-0.00024082,-2392.3,0.9136
10667,13.685,3.2727,0,0.00024341,2432.5,8.3844e-05,42.205,7.8228e-05,0.010535,-0.00024267,-2411.1,0.90297
10668,13.777,3.2727,0.05,6.8059e-07,6.8012,5.2261e-07,3.9267,-7.773e-14,-5.7795e-07,-5.2261e-07,-3.9267,0.91354
10669,13.777,3,0,0.00024162,2414.6,8.3297e-05,42.738,7.761e-05,0.011835,-0.00024087,-2392.9,0.91363
10670,13.685,3.0909,0,0.00024348,2433.1,8.3789e-05,41.298,7.8294e-05,0.011101,-0.00024275,-2412.2,0.90302
10671,13.777,3.0909,0.05,6.7173e-07,6.7127,5.1581e-07,3.8756,-2.5917e-14,-2.1053e-06,-5.158e-07,-3.8755,0.9136
10672,13.777,2.8182,0,0.00024159,2414.2,8.3326e-05,43.239,7.7573e-05,0.011435,-0.00024082,-2392.3,0.9136
10673,13.685,2.9091,0,0.00024348,2433.1,8.3789e-05,41.298,7.8294e-05,0.0111,-0.00024275,-2412.2,0.90302
10674,13.777,2.9091,0.05,6.7173e-07,6.7127,5.1581e-07,3.8756,3.587e-14,-4.0239e-06,-5.158e-07,-3.8755,0.9136
10675,13.777,2.6364,0,0.00024147,2413.1,8.341e-05,44.691,7.7463e-05,0.01045,-0.00024068,-2390.4,0.91352
10676,13.685,2.7273,0,0.00024341,2432.5,8.3844e-05,42.205,7.8228e-05,0.010535,-0.00024267,-2411.1,0.90297
10677,13.777,2.7273,0.05,6.8059e-07,6.8012,5.2261e-07,3.9267,-1.6706e-12,-5.0341e-06,-5.2261e-07,-3.9266,0.91354
10678,13.777,2.4545,0,0.00024128,2411.1,8.3533e-05,46.94,7.7287e-05,0.0093936,-0.00024045,-2387.3,0.91338
10679,13.685,2.5455,0,0.00024328,2431.1,8.3943e-05,43.922,7.8099e-05,0.0097243,-0.00024251,-2408.9,0.90286
10680,13.777,2.5455,0.05,6.9758e-07,6.971,5.3566e-07,4.0247,-2.3948e-12,-5.4402e-06,-5.3566e-07,-4.0247,0.91343
10681,13.777,2.2727,0,0.000241,2408.3,8.3673e-05,49.742,7.7054e-05,0.0088135,-0.00024012,-2383.1,0.91318
10682,13.685,2.3636,0,0.00024308,2429.1,8.407e-05,46.267,7.7914e-05,0.0091283,-0.00024226,-2405.6,0.90269
10683,13.777,2.3636,0.05,7.2144e-07,7.2095,5.5398e-07,4.1624,-3.1267e-12,-7.0483e-06,-5.5398e-07,-4.1624,0.91327
10684,13.777,2.0909,0,0.00024062,2404.6,8.3801e-05,52.782,7.6778e-05,0.0090541,-0.00023968,-2377.7,0.91294
10685,13.685,2.1818,0,0.00024279,2426.2,8.4201e-05,48.978,7.7684e-05,0.009127,-0.00024192,-2401.4,0.90247
10686,13.777,2.1818,0.05,7.506e-07,7.5008,5.7637e-07,4.3306,-2.949e-12,-6.2069e-06,-5.7636e-07,-4.3306,0.91305
10687,13.777,1.9091,0,0.00024014,2399.8,8.3884e-05,55.694,7.6473e-05,0.010163,-0.00023915,-2371.4,0.91263
10688,13.685,2,0,0.00024242,2422.5,8.4306e-05,51.74,7.7422e-05,0.0098763,-0.00024149,-2396.2,0.90219
10689,13.777,2,0.05,7.8343e-07,7.8289,6.0158e-07,4.52,-2.8205e-12,-4.7591e-06,-6.0157e-07,-4.52,0.91277
10690,13.777,1.7273,0,0.00023955,2393.8,8.3887e-05,58.094,7.6157e-05,0.011925,-0.00023851,-2364.3,0.91227
10691,13.685,1.8182,0,0.00024194,2417.8,8.4354e-05,54.205,7.7142e-05,0.011279,-0.00024097,-2390.2,0.90186
10692,13.777,1.8182,0.05,8.1845e-07,8.1788,6.2847e-07,4.7221,-2.7395e-12,-3.1305e-06,-6.2846e-07,-4.722,0.91244
10693,13.777,1.5455,0,0.00023884,2386.8,8.3778e-05,59.599,7.5848e-05,0.013931,-0.00023777,-2356.4,0.91186
10694,13.685,1.6364,0,0.00024136,2412,8.4314e-05,56.014,7.686e-05,0.013048,-0.00024036,-2383.5,0.90147
10695,13.777,1.6364,0.05,8.5434e-07,8.5375,6.5603e-07,4.9292,-2.8239e-12,-3.9433e-06,-6.5603e-07,-4.9291,0.91205
10696,13.777,1.3636,0,0.00023802,2378.5,8.3528e-05,59.86,7.5563e-05,0.015677,-0.00023694,-2348,0.91139
10697,13.685,1.4545,0,0.00024068,2405.1,8.4155e-05,56.827,7.6594e-05,0.014744,-0.00023966,-2376.2,0.90103
10698,13.777,1.4545,0.05,8.9001e-07,8.8939,6.8342e-07,5.135,-2.9763e-12,-3.8129e-06,-6.8341e-07,-5.1349,0.91161
10699,13.777,1.1818,0,0.00023709,2369.2,8.3115e-05,58.582,7.532e-05,0.016487,-0.00023604,-2339.4,0.91086
10700,13.685,1.2727,0,0.00023989,2397.2,8.3855e-05,56.342,7.6358e-05,0.015888,-0.00023888,-2368.6,0.90053
10701,13.777,1.2727,0.05,9.2447e-07,9.2384,7.0988e-07,5.3338,-3.2423e-12,-4.5658e-06,-7.0988e-07,-5.3337,0.91111
10702,13.777,1,0,0.00023606,2359,8.2524e-05,55.539,7.5134e-05,0.015869,-0.00023507,-2330.7,0.91029
10703,13.685,1.0909,0,0.00023901,2388.4,8.3394e-05,54.317,7.6167e-05,0.015698,-0.00023803,-2360.8,0.89997
10704,13.777,1.0909,0.05,9.5687e-07,9.5621,7.3476e-07,5.5207,-3.4747e-12,-2.5224e-06,-7.3475e-07,-5.5206,0.91056
10705,13.777,0.81818,0,0.00023496,2348,8.1749e-05,50.587,7.5018e-05,0.011664,-0.00023406,-2322.2,0.90965
10706,13.685,0.90909,0,0.00023804,2378.7,8.2765e-05,50.578,7.6035e-05,0.014007,-0.00023714,-2353,0.89936
10707,13.777,0.90909,0.05,9.8637e-07,9.8568,7.5741e-07,5.6909,-3.703e-12,-2.8683e-06,-7.574e-07,-5.6908,0.90995
10708,13.777,0.63636,0,0.0002338,2336.4,8.0794e-05,43.673,7.4982e-05,0.0064578,-0.00023303,-2314.3,0.90896
10709,13.685,0.72727,0,0.00023701,2368.4,8.1964e-05,45.032,7.5972e-05,0.0068573,-0.00023621,-2345.6,0.8987
10710,13.777,0.72727,0.05,1.0121e-06,10.114,7.7714e-07,5.8392,-2.9708e-12,-3.7212e-06,-7.7713e-07,-5.8391,0.90929
10711,13.777,0.45455,0,0.00023263,2324.7,7.9674e-05,34.841,7.5033e-05,-0.028742,-0.00023202,-2307.1,0.90822
10712,13.685,0.54545,0,0.00023594,2357.8,8.1001e-05,37.68,7.5986e-05,0.0027665,-0.00023528,-2338.7,0.89798
10713,13.777,0.54545,0.05,1.0311e-06,10.304,7.9174e-07,5.9489,-3.9036e-12,-4.3096e-06,-7.9174e-07,-5.9488,0.90858
10714,13.777,0.27273,0,0.00023152,2313.6,7.8454e-05,24.559,7.5178e-05,-0.053707,-0.0002311,-2301.3,0.90743
10715,13.685,0.36364,0,0.00023487,2347.1,7.9897e-05,28.617,7.608e-05,-0.061364,-0.00023437,-2332.7,0.89721
10716,13.777,0.36364,0.05,1.0109e-06,10.102,7.7627e-07,5.8326,-3.8622e-12,-2.2462e-06,-7.7627e-07,-5.8325,0.90781
10717,13.685,0.18182,0,0.00023394,2337.8,7.877e-05,18.767,7.6267e-05,-0.042117,-0.00023362,-2328.4,0.89638
10718,13.777,0.18182,0.05,4.781e-07,4.7778,3.6713e-07,2.7585,-2.0854e-12,1.4956e-05,-3.6712e-07,-2.7584,0.90699
10719,13.777,0.090909,0,0.0002302,2300.4,7.6927e-05,11.496,7.5396e-05,-0.0075446,-0.00023,-2294.7,0.90658
10720,13.593,5.7273,0,0.00023728,2371.1,8.0201e-05,22.728,7.7169e-05,-0.046558,-0.00023688,-2359.7,0.88621
10721,13.502,5.8182,0,0.00023971,2395.4,8.0597e-05,17.872,7.8214e-05,-0.032382,-0.0002394,-2386.5,0.87524
10722,13.593,5.8182,0.05,4.0296e-07,4.0268,3.0942e-07,2.3249,-6.8112e-14,-1.0314e-05,-3.0943e-07,-2.3249,0.88577
10723,13.593,5.9091,0,0.0002361,2359.3,7.8835e-05,11.059,7.7363e-05,-0.0066944,-0.00023591,-2353.8,0.88535
10724,13.593,5.5455,0,0.00023818,2380.1,8.122e-05,31.428,7.7034e-05,-0.02626,-0.00023763,-2364.3,0.88701
10725,13.502,5.6364,0,0.00024044,2402.7,8.1522e-05,26.066,7.8046e-05,-0.054369,-0.00023999,-2389.6,0.87607
10726,13.593,5.6364,0.05,9.6934e-07,9.6867,7.4433e-07,5.5926,2.6848e-12,3.04e-06,-7.4434e-07,-5.5927,0.8866
10727,13.593,5.3636,0,0.00023914,2389.8,8.2169e-05,39.023,7.6976e-05,0.0047881,-0.00023845,-2370,0.88776
10728,13.502,5.4545,0,0.00024132,2411.5,8.2455e-05,33.82,7.7954e-05,0.0012583,-0.00024073,-2394.4,0.87685
10729,13.593,5.4545,0.05,9.952e-07,9.9451,7.6419e-07,5.7418,2.83e-12,6.0078e-06,-7.6419e-07,-5.7419,0.88737
10730,13.593,5.1818,0,0.00024009,2399.2,8.2979e-05,45.013,7.6989e-05,0.010014,-0.00023929,-2376.4,0.88846
10731,13.502,5.2727,0,0.00024219,2420.3,8.327e-05,40.156,7.7927e-05,0.0054622,-0.00024148,-2399.9,0.87758
10732,13.593,5.2727,0.05,9.8085e-07,9.8018,7.5317e-07,5.659,2.8313e-12,4.2371e-06,-7.5317e-07,-5.6591,0.8881
10733,13.593,5,0,0.00024098,2408.2,8.3634e-05,49.349,7.7068e-05,0.014279,-0.0002401,-2383.1,0.8891
10734,13.502,5.0909,0,0.00024303,2428.6,8.3948e-05,44.976,7.7963e-05,0.012259,-0.00024224,-2405.8,0.87825
10735,13.593,5.0909,0.05,9.6046e-07,9.5979,7.3751e-07,5.5413,2.7836e-12,5.6332e-06,-7.3751e-07,-5.5414,0.88876
10736,13.593,4.8182,0,0.00024181,2416.4,8.4133e-05,52.072,7.7205e-05,0.015339,-0.00024088,-2390,0.88969
10737,13.502,4.9091,0,0.00024381,2436.5,8.448e-05,48.274,7.8057e-05,0.014253,-0.00024296,-2411.9,0.87887
10738,13.593,4.9091,0.05,9.369e-07,9.3625,7.1942e-07,5.4054,2.6809e-12,3.9188e-06,-7.1942e-07,-5.4055,0.88938
10739,13.593,4.6364,0,0.00024255,2423.8,8.4481e-05,53.304,7.7388e-05,0.015064,-0.0002416,-2396.7,0.89022
10740,13.502,4.7273,0,0.00024452,2443.5,8.4867e-05,50.126,7.8198e-05,0.014855,-0.00024363,-2418.1,0.87943
10741,13.593,4.7273,0.05,9.1098e-07,9.1035,6.9951e-07,5.2559,2.5559e-12,2.7251e-06,-6.9952e-07,-5.2559,0.88994
10742,13.593,4.4545,0,0.0002432,2430.3,8.469e-05,53.236,7.7606e-05,0.013879,-0.00024225,-2403.3,0.89069
10743,13.502,4.5455,0,0.00024515,2449.8,8.512e-05,50.679,7.8377e-05,0.014215,-0.00024425,-2424.1,0.87994
10744,13.593,4.5455,0.05,8.8341e-07,8.828,6.7835e-07,5.0968,1.5801e-12,3.4045e-06,-6.7835e-07,-5.0969,0.89044
10745,13.593,4.2727,0,0.00024376,2435.9,8.478e-05,52.119,7.7845e-05,0.012355,-0.00024283,-2409.4,0.89111
10746,13.502,4.3636,0,0.00024569,2455.2,8.5253e-05,50.138,7.8581e-05,0.013001,-0.00024479,-2429.7,0.88039
10747,13.593,4.3636,0.05,8.5497e-07,8.5438,6.5651e-07,4.9328,1.4843e-12,2.3588e-06,-6.5651e-07,-4.9327,0.89089
10748,13.593,4.0909,0,0.00024422,2440.5,8.4776e-05,50.244,7.809e-05,0.010903,-0.00024332,-2415,0.89147
10749,13.502,4.1818,0,0.00024614,2459.7,8.5286e-05,48.756,7.8799e-05,0.011611,-0.00024527,-2434.9,0.88078
10750,13.593,4.1818,0.05,8.2647e-07,8.259,6.3462e-07,4.7683,2.3934e-12,1.646e-06,-6.3463e-07,-4.7684,0.89128
10751,13.593,3.9091,0,0.00024458,2444.1,8.4705e-05,47.929,7.8328e-05,0.0098477,-0.00024373,-2419.8,0.89178
10752,13.502,4,0,0.0002465,2463.3,8.5245e-05,46.816,7.9016e-05,0.010399,-0.00024567,-2439.6,0.88112
10753,13.593,4,0.05,7.9885e-07,7.983,6.1342e-07,4.609,2.3954e-12,1.5326e-06,-6.1342e-07,-4.609,0.89161
10754,13.593,3.7273,0,0.00024487,2447,8.4597e-05,45.494,7.8543e-05,0.0093678,-0.00024406,-2423.9,0.89203
10755,13.502,3.8182,0,0.00024679,2466.2,8.5157e-05,44.615,7.922e-05,0.0095996,-0.000246,-2443.5,0.8814
10756,13.593,3.8182,0.05,7.7318e-07,7.7264,5.937e-07,4.4608,2.4408e-12,5.3157e-07,-5.9371e-07,-4.4609,0.89189
10757,13.593,3.5455,0,0.00024508,2449.1,8.4479e-05,43.24,7.8725e-05,0.0094564,-0.00024431,-2427.2,0.89223
10758,13.502,3.6364,0,0.000247,2468.3,8.5047e-05,42.442,7.94e-05,0.0093064,-0.00024625,-2446.8,0.88162
10759,13.593,3.6364,0.05,7.5059e-07,7.5007,5.7636e-07,4.3306,-1.8112e-13,2.4371e-06,-5.7636e-07,-4.3306,0.89211
10760,13.593,3.3636,0,0.00024522,2450.5,8.4375e-05,41.425,7.8863e-05,0.0099098,-0.00024449,-2429.5,0.89237
10761,13.502,3.4545,0,0.00024715,2469.8,8.494e-05,40.556,7.9544e-05,0.0094413,-0.00024644,-2449.3,0.88179
10762,13.593,3.4545,0.05,7.3228e-07,7.3177,5.623e-07,4.2249,-1.3914e-13,4.6184e-07,-5.623e-07,-4.2249,0.89228
10763,13.593,3.1818,0,0.0002453,2451.4,8.4305e-05,40.253,7.8949e-05,0.010395,-0.00024459,-2431,0.89245
10764,13.502,3.2727,0,0.00024725,2470.8,8.4857e-05,39.171,7.9645e-05,0.0097797,-0.00024656,-2451,0.8819
10765,13.593,3.2727,0.05,7.1934e-07,7.1884,5.5236e-07,4.1502,-1.8875e-12,-1.558e-06,-5.5236e-07,-4.1502,0.89239
10766,13.593,3,0,0.00024533,2451.6,8.428e-05,39.847,7.8979e-05,0.010599,-0.00024463,-2431.5,0.89248
10767,13.502,3.0909,0,0.0002473,2471.3,8.4812e-05,38.439,7.9697e-05,0.010044,-0.00024662,-2451.8,0.88196
10768,13.593,3.0909,0.05,7.1263e-07,7.1214,5.4721e-07,4.1115,-9.3896e-13,-2.1322e-06,-5.4721e-07,-4.1115,0.89245
10769,13.593,2.8182,0,0.0002453,2451.4,8.4305e-05,40.253,7.8949e-05,0.010395,-0.00024459,-2431,0.89245
10770,13.502,2.9091,0,0.0002473,2471.3,8.4812e-05,38.439,7.9697e-05,0.010044,-0.00024662,-2451.8,0.88196
10771,13.593,2.9091,0.05,7.1263e-07,7.1214,5.4721e-07,4.1115,-8.7617e-13,-3.5646e-06,-5.4721e-07,-4.1115,0.89245
10772,13.593,2.6364,0,0.00024522,2450.5,8.4375e-05,41.426,7.8863e-05,0.0099103,-0.00024449,-2429.5,0.89237
10773,13.502,2.7273,0,0.00024725,2470.8,8.4857e-05,39.171,7.9645e-05,0.0097792,-0.00024656,-2451,0.8819
10774,13.593,2.7273,0.05,7.1934e-07,7.1884,5.5237e-07,4.1502,-2.598e-12,-4.8719e-06,-5.5236e-07,-4.1502,0.89239
10775,13.593,2.4545,0,0.00024508,2449.1,8.4479e-05,43.24,7.8725e-05,0.0094572,-0.00024431,-2427.2,0.89223
10776,13.502,2.5455,0,0.00024715,2469.8,8.494e-05,40.556,7.9544e-05,0.0094417,-0.00024644,-2449.3,0.88179
10777,13.593,2.5455,0.05,7.3228e-07,7.3177,5.623e-07,4.2249,-1.5575e-12,-6.0105e-06,-5.6229e-07,-4.2249,0.89228
10778,13.593,2.2727,0,0.00024487,2447,8.4597e-05,45.494,7.8543e-05,0.0093678,-0.00024406,-2423.9,0.89203
10779,13.502,2.3636,0,0.000247,2468.3,8.5047e-05,42.442,7.94e-05,0.0093062,-0.00024625,-2446.8,0.88162
10780,13.593,2.3636,0.05,7.5059e-07,7.5007,5.7636e-07,4.3306,-1.4781e-12,-5.657e-06,-5.7636e-07,-4.3305,0.89211
10781,13.593,2.0909,0,0.00024458,2444.1,8.4705e-05,47.929,7.8328e-05,0.0098475,-0.00024373,-2419.8,0.89178
10782,13.502,2.1818,0,0.00024679,2466.2,8.5157e-05,44.615,7.922e-05,0.0095992,-0.000246,-2443.5,0.8814
10783,13.593,2.1818,0.05,7.7318e-07,7.7264,5.9371e-07,4.4609,-1.3283e-12,-5.9234e-06,-5.937e-07,-4.4608,0.89189
10784,13.593,1.9091,0,0.00024422,2440.5,8.4776e-05,50.244,7.809e-05,0.010903,-0.00024332,-2415,0.89147
10785,13.502,2,0,0.0002465,2463.3,8.5245e-05,46.816,7.9016e-05,0.010399,-0.00024567,-2439.6,0.88112
10786,13.593,2,0.05,7.9885e-07,7.983,6.1342e-07,4.609,-2.1403e-12,-5.5908e-06,-6.1342e-07,-4.609,0.89161
10787,13.593,1.7273,0,0.00024376,2435.9,8.478e-05,52.119,7.7845e-05,0.012355,-0.00024283,-2409.4,0.89111
10788,13.502,1.8182,0,0.00024614,2459.7,8.5286e-05,48.756,7.8799e-05,0.011611,-0.00024527,-2434.9,0.88078
10789,13.593,1.8182,0.05,8.2647e-07,8.259,6.3463e-07,4.7684,-2.1308e-12,-4.731e-06,-6.3462e-07,-4.7683,0.89128
10790,13.593,1.5455,0,0.0002432,2430.3,8.469e-05,53.236,7.7606e-05,0.01388,-0.00024225,-2403.3,0.89069
10791,13.502,1.6364,0,0.00024569,2455.2,8.5253e-05,50.138,7.8581e-05,0.013001,-0.00024479,-2429.7,0.88039
10792,13.593,1.6364,0.05,8.5497e-07,8.5438,6.5651e-07,4.9328,-3.1024e-12,-4.669e-06,-6.5651e-07,-4.9327,0.89089
10793,13.593,1.3636,0,0.00024255,2423.8,8.4481e-05,53.304,7.7388e-05,0.015065,-0.0002416,-2396.7,0.89022
10794,13.502,1.4545,0,0.00024515,2449.8,8.512e-05,50.679,7.8377e-05,0.014216,-0.00024425,-2424.1,0.87994
10795,13.593,1.4545,0.05,8.8341e-07,8.828,6.7835e-07,5.0969,-3.1978e-12,-4.4949e-06,-6.7835e-07,-5.0968,0.89044
10796,13.593,1.1818,0,0.00024181,2416.4,8.4133e-05,52.072,7.7205e-05,0.015339,-0.00024088,-2390,0.88969
10797,13.502,1.2727,0,0.00024452,2443.5,8.4867e-05,50.126,7.8198e-05,0.014856,-0.00024363,-2418.1,0.87943
10798,13.593,1.2727,0.05,9.1098e-07,9.1035,6.9952e-07,5.256,-3.3864e-12,-4.1844e-06,-6.9951e-07,-5.2558,0.88994
10799,13.593,1,0,0.00024098,2408.2,8.3634e-05,49.349,7.7068e-05,0.01428,-0.0002401,-2383.1,0.8891
10800,13.502,1.0909,0,0.00024381,2436.5,8.448e-05,48.274,7.8057e-05,0.014253,-0.00024296,-2411.9,0.87887
10801,13.593,1.0909,0.05,9.369e-07,9.3625,7.1942e-07,5.4055,-3.5647e-12,-3.2762e-06,-7.1941e-07,-5.4054,0.88938
10802,13.593,0.81818,0,0.00024009,2399.2,8.2979e-05,45.013,7.6989e-05,0.010016,-0.00023929,-2376.4,0.88846
10803,13.502,0.90909,0,0.00024303,2428.6,8.3948e-05,44.976,7.7963e-05,0.01226,-0.00024224,-2405.8,0.87825
10804,13.593,0.90909,0.05,9.6046e-07,9.5979,7.3751e-07,5.5414,-3.7173e-12,-3.4499e-06,-7.3751e-07,-5.5413,0.88876
10805,13.593,0.63636,0,0.00023914,2389.8,8.2169e-05,39.023,7.6976e-05,0.004789,-0.00023845,-2370,0.88776
10806,13.502,0.72727,0,0.00024219,2420.3,8.327e-05,40.156,7.7927e-05,0.0054633,-0.00024148,-2399.9,0.87758
10807,13.593,0.72727,0.05,9.8085e-07,9.8018,7.5318e-07,5.6591,-3.7994e-12,-2.3878e-06,-7.5317e-07,-5.659,0.8881
10808,13.593,0.45455,0,0.00023818,2380.1,8.122e-05,31.428,7.7034e-05,-0.026261,-0.00023763,-2364.3,0.88701
10809,13.502,0.54545,0,0.00024132,2411.5,8.2455e-05,33.82,7.7954e-05,0.0012587,-0.00024073,-2394.4,0.87685
10810,13.593,0.54545,0.05,9.952e-07,9.9451,7.6419e-07,5.7419,-3.8428e-12,-1.3165e-06,-7.6419e-07,-5.7418,0.88737
10811,13.593,0.27273,0,0.00023728,2371.1,8.0201e-05,22.728,7.7169e-05,-0.046558,-0.00023688,-2359.7,0.88621
10812,13.502,0.36364,0,0.00024044,2402.7,8.1522e-05,26.066,7.8046e-05,-0.054369,-0.00023999,-2389.6,0.87607
10813,13.593,0.36364,0.05,9.6934e-07,9.6867,7.4434e-07,5.5927,-3.8055e-12,-1.8744e-06,-7.4433e-07,-5.5926,0.8866
10814,13.502,0.18182,0,0.00023971,2395.4,8.0597e-05,17.872,7.8214e-05,-0.032381,-0.0002394,-2386.5,0.87524
10815,13.593,0.18182,0.05,4.0296e-07,4.0268,3.0943e-07,2.3249,-2.5711e-12,1.4608e-05,-3.0942e-07,-2.3248,0.88577
10816,13.593,0.090909,0,0.0002361,2359.3,7.8835e-05,11.059,7.7362e-05,-0.0066937,-0.00023591,-2353.8,0.88535
10817,13.41,5.7273,0,0.00024286,2426.9,8.1906e-05,21.115,7.9091e-05,-0.040193,-0.00024249,-2416.3,0.86515
10818,13.318,5.8182,0,0.0002453,2451.3,8.2376e-05,17.075,8.01e-05,-0.02457,-0.00024501,-2442.7,0.85425
10819,13.41,5.8182,0.05,3.4086e-07,3.4063,2.6174e-07,1.9666,1.8137e-12,-1.6562e-05,-2.6174e-07,-1.9667,0.8647
10820,13.41,5.9091,0,0.00024179,2416.2,8.0682e-05,10.667,7.9261e-05,-0.0060377,-0.00024161,-2410.9,0.86428
10821,13.41,5.5455,0,0.00024358,2434.1,8.2753e-05,28.429,7.8966e-05,-0.023968,-0.00024308,-2419.8,0.86596
10822,13.318,5.6364,0,0.00024586,2456.9,8.3125e-05,23.823,7.9948e-05,-0.048094,-0.00024545,-2445,0.8551
10823,13.41,5.6364,0.05,9.3642e-07,9.3577,7.1905e-07,5.4026,1.8548e-12,4.2476e-06,-7.1905e-07,-5.4027,0.86554
10824,13.41,5.3636,0,0.00024437,2442,8.3554e-05,34.933,7.8905e-05,0.003301,-0.00024375,-2424.3,0.86672
10825,13.318,5.4545,0,0.00024658,2464.1,8.3909e-05,30.424,7.986e-05,1.505e-05,-0.00024605,-2448.8,0.85589
10826,13.41,5.4545,0.05,9.67e-07,9.6633,7.4253e-07,5.5791,2.8282e-12,5.2135e-06,-7.4253e-07,-5.5791,0.86633
10827,13.41,5.1818,0,0.00024514,2449.7,8.4237e-05,40.104,7.8901e-05,0.0084049,-0.00024443,-2429.4,0.86743
10828,13.318,5.2727,0,0.00024729,2471.2,8.4597e-05,35.861,7.9825e-05,0.0041746,-0.00024667,-2453.1,0.85662
10829,13.41,5.2727,0.05,9.5645e-07,9.5579,7.3443e-07,5.5182,3.7165e-12,4.6263e-06,-7.3444e-07,-5.5183,0.86706
10830,13.41,5,0,0.00024586,2456.9,8.4791e-05,43.89,7.8952e-05,0.012616,-0.00024509,-2434.7,0.86807
10831,13.318,5.0909,0,0.00024797,2478,8.5168e-05,40.033,7.9842e-05,0.010557,-0.00024727,-2457.8,0.8573
10832,13.41,5.0909,0.05,9.4038e-07,9.3973,7.2209e-07,5.4255,2.7913e-12,4.3078e-06,-7.221e-07,-5.4256,0.86774
10833,13.41,4.8182,0,0.00024653,2463.6,8.5212e-05,46.319,7.905e-05,0.013978,-0.00024571,-2440.1,0.86867
10834,13.318,4.9091,0,0.0002486,2484.3,8.5617e-05,42.93,7.9905e-05,0.012731,-0.00024785,-2462.6,0.85793
10835,13.41,4.9091,0.05,9.2167e-07,9.2103,7.0772e-07,5.3176,1.8062e-12,3.2544e-06,-7.0773e-07,-5.3176,0.86836
10836,13.41,4.6364,0,0.00024712,2469.5,8.5505e-05,47.493,7.9186e-05,0.014105,-0.00024628,-2445.4,0.8692
10837,13.318,4.7273,0,0.00024917,2490,8.5944e-05,44.613,8.0008e-05,0.013629,-0.00024838,-2467.4,0.8585
10838,13.41,4.7273,0.05,9.0104e-07,9.0042,6.9188e-07,5.1985,2.6404e-12,2.6927e-06,-6.9189e-07,-5.1986,0.86892
10839,13.41,4.4545,0,0.00024763,2474.6,8.5682e-05,47.572,7.9352e-05,0.01336,-0.00024679,-2450.5,0.86969
10840,13.318,4.5455,0,0.00024967,2494.9,8.6156e-05,45.203,8.0142e-05,0.013376,-0.00024887,-2472,0.85901
10841,13.41,4.5455,0.05,8.7911e-07,8.785,6.7504e-07,5.072,1.6811e-12,3.5638e-06,-6.7504e-07,-5.072,0.86943
10842,13.41,4.2727,0,0.00024806,2478.9,8.5758e-05,46.766,7.9535e-05,0.012226,-0.00024724,-2455.2,0.87011
10843,13.318,4.3636,0,0.00025009,2499.2,8.6268e-05,44.873,8.0298e-05,0.012545,-0.0002493,-2476.4,0.85947
10844,13.41,4.3636,0.05,8.5651e-07,8.5592,6.5769e-07,4.9416,2.4796e-12,1.988e-06,-6.577e-07,-4.9417,0.86988
10845,13.41,4.0909,0,0.00024842,2482.5,8.5754e-05,45.318,7.9724e-05,0.011042,-0.00024762,-2459.5,0.87048
10846,13.318,4.1818,0,0.00025044,2502.6,8.6297e-05,43.833,8.0465e-05,0.011469,-0.00024966,-2480.4,0.85986
10847,13.41,4.1818,0.05,8.3396e-07,8.3338,6.4038e-07,4.8115,2.5073e-12,1.1613e-06,-6.4038e-07,-4.8116,0.87028
10848,13.41,3.9091,0,0.0002487,2485.3,8.5696e-05,43.492,7.9908e-05,0.010076,-0.00024793,-2463.3,0.87079
10849,13.318,4,0,0.00025072,2505.4,8.6263e-05,42.318,8.0632e-05,0.01044,-0.00024997,-2484,0.8602
10850,13.41,4,0.05,8.1222e-07,8.1166,6.2369e-07,4.6861,6.8119e-13,1.3232e-06,-6.2369e-07,-4.6861,0.87062
10851,13.41,3.7273,0,0.00024892,2487.4,8.5605e-05,41.552,8.0076e-05,0.0094821,-0.00024818,-2466.4,0.87104
10852,13.318,3.8182,0,0.00025093,2507.6,8.6189e-05,40.574,8.0791e-05,0.0096561,-0.00025022,-2487.1,0.86049
10853,13.41,3.8182,0.05,7.9215e-07,7.916,6.0827e-07,4.5703,7.1901e-13,4.9182e-07,-6.0827e-07,-4.5703,0.8709
10854,13.41,3.5455,0,0.00024907,2489,8.5507e-05,39.746,8.0218e-05,0.0092832,-0.00024837,-2468.9,0.87124
10855,13.318,3.6364,0,0.00025109,2509.2,8.6098e-05,38.839,8.093e-05,0.0092105,-0.00025041,-2489.5,0.86072
10856,13.41,3.6364,0.05,7.7461e-07,7.7408,5.9481e-07,4.4691,-1.6039e-13,2.1078e-06,-5.9481e-07,-4.4691,0.87113
10857,13.41,3.3636,0,0.00024918,2490.1,8.542e-05,38.289,8.0326e-05,0.0093694,-0.0002485,-2470.7,0.87138
10858,13.318,3.4545,0,0.00025121,2510.3,8.6009e-05,37.328,8.1043e-05,0.009077,-0.00025055,-2491.4,0.86089
10859,13.41,3.4545,0.05,7.6049e-07,7.5997,5.8396e-07,4.3877,-1.1705e-13,-4.2893e-07,-5.8396e-07,-4.3877,0.8713
10860,13.41,3.1818,0,0.00024924,2490.7,8.5362e-05,37.345,8.0393e-05,0.0095465,-0.00024858,-2471.8,0.87146
10861,13.318,3.2727,0,0.00025128,2511,8.594e-05,36.215,8.1121e-05,0.009131,-0.00025064,-2492.7,0.861
10862,13.41,3.2727,0.05,7.5057e-07,7.5005,5.7634e-07,4.3304,-7.7851e-14,-2.0074e-06,-5.7634e-07,-4.3304,0.87141
10863,13.41,3,0,0.00024926,2490.9,8.5341e-05,37.019,8.0416e-05,0.0096307,-0.00024861,-2472.1,0.87149
10864,13.318,3.0909,0,0.00025131,2511.4,8.5902e-05,35.627,8.1162e-05,0.0092138,-0.00025068,-2493.4,0.86106
10865,13.41,3.0909,0.05,7.4545e-07,7.4493,5.7241e-07,4.3009,-9.3683e-13,-3.0726e-06,-5.7241e-07,-4.3009,0.87147
10866,13.41,2.8182,0,0.00024924,2490.7,8.5362e-05,37.345,8.0393e-05,0.0095462,-0.00024858,-2471.8,0.87146
10867,13.318,2.9091,0,0.00025131,2511.4,8.5902e-05,35.627,8.1162e-05,0.0092135,-0.00025068,-2493.4,0.86106
10868,13.41,2.9091,0.05,7.4545e-07,7.4493,5.7241e-07,4.3009,-8.7883e-13,-3.1112e-06,-5.7241e-07,-4.3009,0.87147
10869,13.41,2.6364,0,0.00024918,2490.1,8.542e-05,38.289,8.0326e-05,0.0093689,-0.0002485,-2470.7,0.87138
10870,13.318,2.7273,0,0.00025128,2511,8.594e-05,36.215,8.1121e-05,0.009131,-0.00025064,-2492.7,0.861
10871,13.41,2.7273,0.05,7.5057e-07,7.5005,5.7634e-07,4.3304,-2.6286e-12,-3.9984e-06,-5.7634e-07,-4.3304,0.87141
10872,13.41,2.4545,0,0.00024907,2489,8.5507e-05,39.746,8.0218e-05,0.0092827,-0.00024837,-2468.9,0.87124
10873,13.318,2.5455,0,0.00025121,2510.3,8.6009e-05,37.328,8.1043e-05,0.0090766,-0.00025055,-2491.4,0.86089
10874,13.41,2.5455,0.05,7.6049e-07,7.5997,5.8397e-07,4.3877,-3.4364e-12,-4.7089e-06,-5.8396e-07,-4.3876,0.8713
10875,13.41,2.2727,0,0.00024892,2487.4,8.5605e-05,41.552,8.0076e-05,0.0094815,-0.00024818,-2466.4,0.87104
10876,13.318,2.3636,0,0.00025109,2509.2,8.6098e-05,38.839,8.093e-05,0.0092103,-0.00025041,-2489.5,0.86072
10877,13.41,2.3636,0.05,7.7461e-07,7.7408,5.9481e-07,4.4692,-2.469e-12,-5.4321e-06,-5.9481e-07,-4.4691,0.87113
10878,13.41,2.0909,0,0.0002487,2485.3,8.5696e-05,43.492,7.9908e-05,0.010076,-0.00024793,-2463.3,0.87079
10879,13.318,2.1818,0,0.00025093,2507.6,8.6189e-05,40.574,8.0791e-05,0.0096563,-0.00025022,-2487.1,0.86049
10880,13.41,2.1818,0.05,7.9215e-07,7.916,6.0827e-07,4.5703,-3.2989e-12,-5.3239e-06,-6.0827e-07,-4.5703,0.8709
10881,13.41,1.9091,0,0.00024842,2482.5,8.5754e-05,45.318,7.9724e-05,0.011042,-0.00024762,-2459.5,0.87048
10882,13.318,2,0,0.00025072,2505.4,8.6263e-05,42.318,8.0632e-05,0.01044,-0.00024997,-2484,0.8602
10883,13.41,2,0.05,8.1222e-07,8.1166,6.2369e-07,4.6862,-3.215e-12,-5.4791e-06,-6.2368e-07,-4.6861,0.87062
10884,13.41,1.7273,0,0.00024806,2478.9,8.5758e-05,46.766,7.9535e-05,0.012225,-0.00024724,-2455.2,0.87011
10885,13.318,1.8182,0,0.00025044,2502.6,8.6297e-05,43.833,8.0465e-05,0.011469,-0.00024966,-2480.4,0.85986
10886,13.41,1.8182,0.05,8.3396e-07,8.3338,6.4037e-07,4.8116,-3.266e-12,-5.0525e-06,-6.4038e-07,-4.8115,0.87028
10887,13.41,1.5455,0,0.00024763,2474.6,8.5682e-05,47.572,7.9352e-05,0.01336,-0.00024679,-2450.5,0.86969
10888,13.318,1.6364,0,0.00025009,2499.2,8.6268e-05,44.873,8.0298e-05,0.012545,-0.0002493,-2476.4,0.85947
10889,13.41,1.6364,0.05,8.5651e-07,8.5592,6.5769e-07,4.9417,-2.3763e-12,-4.6726e-06,-6.5769e-07,-4.9416,0.86988
10890,13.41,1.3636,0,0.00024712,2469.5,8.5505e-05,47.493,7.9186e-05,0.014106,-0.00024628,-2445.4,0.8692
10891,13.318,1.4545,0,0.00024967,2494.9,8.6156e-05,45.203,8.0142e-05,0.013376,-0.00024887,-2472,0.85901
10892,13.41,1.4545,0.05,8.7911e-07,8.785,6.7505e-07,5.072,-3.3646e-12,-4.1711e-06,-6.7504e-07,-5.072,0.86943
10893,13.41,1.1818,0,0.00024653,2463.6,8.5212e-05,46.319,7.905e-05,0.013979,-0.00024571,-2440.1,0.86867
10894,13.318,1.2727,0,0.00024917,2490,8.5944e-05,44.613,8.0008e-05,0.013629,-0.00024838,-2467.4,0.8585
10895,13.41,1.2727,0.05,9.0104e-07,9.0042,6.9189e-07,5.1986,-3.4719e-12,-4.1423e-06,-6.9188e-07,-5.1985,0.86892
10896,13.41,1,0,0.00024586,2456.9,8.4791e-05,43.89,7.8952e-05,0.012616,-0.00024509,-2434.7,0.86807
10897,13.318,1.0909,0,0.0002486,2484.3,8.5617e-05,42.93,7.9905e-05,0.012731,-0.00024785,-2462.6,0.85793
10898,13.41,1.0909,0.05,9.2167e-07,9.2103,7.0774e-07,5.3176,-3.6179e-12,-3.6629e-06,-7.0772e-07,-5.3176,0.86836
10899,13.41,0.81818,0,0.00024514,2449.7,8.4237e-05,40.104,7.8901e-05,0.0084059,-0.00024443,-2429.4,0.86743
10900,13.318,0.90909,0,0.00024797,2478,8.5168e-05,40.033,7.9842e-05,0.010558,-0.00024727,-2457.8,0.8573
10901,13.41,0.90909,0.05,9.4038e-07,9.3973,7.2209e-07,5.4256,-3.7318e-12,-3.63e-06,-7.2209e-07,-5.4255,0.86774
10902,13.41,0.63636,0,0.00024437,2442,8.3554e-05,34.933,7.8905e-05,0.0033017,-0.00024375,-2424.3,0.86672
10903,13.318,0.72727,0,0.00024729,2471.2,8.4597e-05,35.861,7.9825e-05,0.004176,-0.00024666,-2453.1,0.85662
10904,13.41,0.72727,0.05,9.5645e-07,9.5579,7.3444e-07,5.5183,-3.7987e-12,-1.0935e-06,-7.3443e-07,-5.5182,0.86706
10905,13.41,0.45455,0,0.00024358,2434.1,8.2753e-05,28.429,7.8966e-05,-0.023968,-0.00024308,-2419.8,0.86596
10906,13.318,0.54545,0,0.00024658,2464.1,8.3909e-05,30.424,7.986e-05,1.5934e-05,-0.00024605,-2448.8,0.85589
10907,13.41,0.54545,0.05,9.67e-07,9.6633,7.4254e-07,5.5791,-2.8715e-12,8.8171e-07,-7.4253e-07,-5.5791,0.86633
10908,13.41,0.27273,0,0.00024286,2426.9,8.1906e-05,21.115,7.9091e-05,-0.040193,-0.00024249,-2416.3,0.86515
10909,13.318,0.36364,0,0.00024586,2456.9,8.3125e-05,23.823,7.9948e-05,-0.048094,-0.00024545,-2445,0.8551
10910,13.41,0.36364,0.05,9.3642e-07,9.3577,7.1906e-07,5.4027,-3.6778e-12,1.6827e-06,-7.1905e-07,-5.4026,0.86554
10911,13.318,0.18182,0,0.0002453,2451.3,8.2376e-05,17.075,8.01e-05,-0.024569,-0.00024501,-2442.7,0.85425
10912,13.41,0.18182,0.05,3.4086e-07,3.4063,2.6174e-07,1.9667,-1.8459e-12,2.1064e-05,-2.6174e-07,-1.9666,0.8647
10913,13.41,0.090909,0,0.00024179,2416.2,8.0682e-05,10.667,7.9261e-05,-0.0060366,-0.00024161,-2410.9,0.86428
10914,13.226,5.7273,0,0.00024829,2481.2,8.3582e-05,19.689,8.0957e-05,-0.034593,-0.00024795,-2471.3,0.84425
10915,13.134,5.8182,0,0.00025076,2505.8,8.4116e-05,16.358,8.1936e-05,-0.018398,-0.00025047,-2497.6,0.83343
10916,13.226,5.8182,0.05,2.8962e-07,2.8942,2.2239e-07,1.6709,2.2118e-12,-1.4793e-05,-2.224e-07,-1.671,0.8438
10917,13.226,5.9091,0,0.00024733,2471.6,8.248e-05,10.311,8.1107e-05,-0.0054989,-0.00024715,-2466.4,0.84337
10918,13.226,5.5455,0,0.00024886,2486.9,8.4278e-05,25.789,8.0843e-05,-0.02183,-0.00024842,-2473.9,0.84508
10919,13.134,5.6364,0,0.00025118,2510.1,8.4714e-05,21.845,8.1801e-05,-0.042456,-0.0002508,-2499.1,0.83429
10920,13.226,5.6364,0.05,9.1058e-07,9.0995,6.9921e-07,5.2536,3.6288e-12,3.2788e-06,-6.9922e-07,-5.2537,0.84465
10921,13.226,5.3636,0,0.00024951,2493.3,8.495e-05,31.331,8.0781e-05,0.0020363,-0.00024896,-2477.5,0.84585
10922,13.134,5.4545,0,0.00025176,2515.9,8.5369e-05,27.432,8.1718e-05,-0.00095187,-0.00025128,-2502,0.83509
10923,13.226,5.4545,0.05,9.4503e-07,9.4438,7.2566e-07,5.4523,2.7669e-12,4.8939e-06,-7.2567e-07,-5.4524,0.84545
10924,13.226,5.1818,0,0.00025013,2499.6,8.5526e-05,35.773,8.0765e-05,0.0069241,-0.0002495,-2481.5,0.84656
10925,13.134,5.2727,0,0.00025234,2521.6,8.5946e-05,32.07,8.1678e-05,0.0030598,-0.00025178,-2505.4,0.83584
10926,13.226,5.2727,0.05,9.3755e-07,9.369,7.1991e-07,5.4092,2.7853e-12,3.086e-06,-7.1992e-07,-5.4092,0.84619
10927,13.226,5,0,0.00025072,2505.4,8.5992e-05,39.06,8.0795e-05,0.011004,-0.00025003,-2485.7,0.84722
10928,13.134,5.0909,0,0.00025289,2527.1,8.6425e-05,35.659,8.168e-05,0.0089972,-0.00025226,-2509.1,0.83653
10929,13.226,5.0909,0.05,9.2498e-07,9.2434,7.1027e-07,5.3367,1.8862e-12,3.552e-06,-7.1027e-07,-5.3367,0.84687
10930,13.226,4.8182,0,0.00025125,2510.7,8.6346e-05,41.212,8.0863e-05,0.012564,-0.00025052,-2489.9,0.84782
10931,13.134,4.9091,0,0.00025339,2532.1,8.6802e-05,38.185,8.1721e-05,0.01126,-0.00025272,-2512.8,0.83716
10932,13.226,4.9091,0.05,9.1022e-07,9.0959,6.9894e-07,5.2515,2.7379e-12,3.881e-06,-6.9894e-07,-5.2516,0.8475
10933,13.226,4.6364,0,0.00025172,2515.4,8.6593e-05,42.312,8.0963e-05,0.012989,-0.00025097,-2494,0.84836
10934,13.134,4.7273,0,0.00025384,2536.7,8.7076e-05,39.697,8.1794e-05,0.012362,-0.00025314,-2516.6,0.83773
10935,13.226,4.7273,0.05,8.9389e-07,8.9327,6.8639e-07,5.1572,8.572e-13,1.9618e-06,-6.8639e-07,-5.1573,0.84807
10936,13.226,4.4545,0,0.00025212,2519.5,8.6742e-05,42.493,8.1088e-05,0.012587,-0.00025137,-2498,0.84885
10937,13.134,4.5455,0,0.00025423,2540.6,8.7255e-05,40.293,8.1894e-05,0.012405,-0.00025352,-2520.2,0.83825
10938,13.226,4.5455,0.05,8.7651e-07,8.759,6.7305e-07,5.057,3.5109e-12,2.4723e-06,-6.7305e-07,-5.0571,0.84859
10939,13.226,4.2727,0,0.00025246,2522.9,8.6806e-05,41.929,8.1227e-05,0.011769,-0.00025172,-2501.6,0.84928
10940,13.134,4.3636,0,0.00025456,2543.8,8.7349e-05,40.117,8.2011e-05,0.011879,-0.00025385,-2523.5,0.83871
10941,13.226,4.3636,0.05,8.5863e-07,8.5804,6.5932e-07,4.9539,2.5728e-12,1.3073e-06,-6.5932e-07,-4.9539,0.84905
10942,13.226,4.0909,0,0.00025273,2525.6,8.6804e-05,40.821,8.1373e-05,0.010821,-0.00025201,-2504.9,0.84965
10943,13.134,4.1818,0,0.00025483,2546.5,8.7373e-05,39.343,8.2138e-05,0.011066,-0.00025414,-2526.6,0.83912
10944,13.226,4.1818,0.05,8.4084e-07,8.4026,6.4566e-07,4.8512,1.654e-12,8.2493e-07,-6.4566e-07,-4.8512,0.84945
10945,13.226,3.9091,0,0.00025295,2527.7,8.6756e-05,39.388,8.1515e-05,0.0099665,-0.00025225,-2507.8,0.84996
10946,13.134,4,0,0.00025504,2548.7,8.7345e-05,38.165,8.2267e-05,0.010213,-0.00025437,-2529.4,0.83946
10947,13.226,4,0.05,8.2376e-07,8.2319,6.3255e-07,4.7527,-1.7034e-13,-1.9613e-07,-6.3255e-07,-4.7527,0.84979
10948,13.226,3.7273,0,0.00025311,2529.3,8.6681e-05,37.849,8.1645e-05,0.0093423,-0.00025244,-2510.2,0.85022
10949,13.134,3.8182,0,0.0002552,2550.3,8.7284e-05,36.788,8.2389e-05,0.009487,-0.00025456,-2531.7,0.83975
10950,13.226,3.8182,0.05,8.0807e-07,8.0751,6.2049e-07,4.6622,7.2227e-13,2.5239e-07,-6.205e-07,-4.6622,0.85008
10951,13.226,3.5455,0,0.00025322,2530.5,8.6599e-05,36.408,8.1755e-05,0.0089932,-0.00025258,-2512.1,0.85042
10952,13.134,3.6364,0,0.00025532,2551.5,8.7209e-05,35.407,8.2497e-05,0.008982,-0.0002547,-2533.6,0.83998
10953,13.226,3.6364,0.05,7.9443e-07,7.9389,6.1003e-07,4.5835,7.7696e-13,9.5989e-07,-6.1003e-07,-4.5835,0.85031
10954,13.226,3.3636,0,0.0002533,2531.3,8.6527e-05,35.24,8.1838e-05,0.0088699,-0.00025268,-2513.5,0.85056
10955,13.134,3.4545,0,0.0002554,2552.3,8.7135e-05,34.198,8.2585e-05,0.0087073,-0.00025481,-2535,0.84015
10956,13.226,3.4545,0.05,7.8351e-07,7.8297,6.0164e-07,4.5205,-1.0224e-13,-7.7967e-07,-6.0164e-07,-4.5205,0.85048
10957,13.226,3.1818,0,0.00025334,2531.7,8.6479e-05,34.483,8.1891e-05,0.0088671,-0.00025274,-2514.3,0.85065
10958,13.134,3.2727,0,0.00025546,2552.8,8.7078e-05,33.306,8.2646e-05,0.008602,-0.00025487,-2536,0.84027
10959,13.226,3.2727,0.05,7.7587e-07,7.7533,5.9577e-07,4.4764,-9.7492e-13,-1.4448e-06,-5.9577e-07,-4.4764,0.85059
10960,13.226,3,0,0.00025336,2531.8,8.6462e-05,34.221,8.1908e-05,0.0088804,-0.00025276,-2514.6,0.85068
10961,13.134,3.0909,0,0.00025548,2553,8.7046e-05,32.834,8.2677e-05,0.0085806,-0.00025491,-2536.5,0.84033
10962,13.226,3.0909,0.05,7.7193e-07,7.714,5.9275e-07,4.4537,-9.3315e-13,-2.0848e-06,-5.9275e-07,-4.4537,0.85065
10963,13.226,2.8182,0,0.00025334,2531.7,8.6479e-05,34.483,8.1891e-05,0.0088671,-0.00025274,-2514.3,0.85065
10964,13.134,2.9091,0,0.00025548,2553,8.7046e-05,32.834,8.2677e-05,0.0085804,-0.00025491,-2536.5,0.84033
10965,13.226,2.9091,0.05,7.7193e-07,7.714,5.9275e-07,4.4537,-8.8416e-13,-3.1482e-06,-5.9275e-07,-4.4537,0.85065
10966,13.226,2.6364,0,0.0002533,2531.3,8.6527e-05,35.24,8.1838e-05,0.00887,-0.00025268,-2513.5,0.85056
10967,13.134,2.7273,0,0.00025546,2552.8,8.7078e-05,33.306,8.2646e-05,0.0086026,-0.00025487,-2536,0.84027
10968,13.226,2.7273,0.05,7.7587e-07,7.7533,5.9577e-07,4.4764,-1.7366e-12,-4.1529e-06,-5.9577e-07,-4.4764,0.85059
10969,13.226,2.4545,0,0.00025322,2530.5,8.6599e-05,36.408,8.1755e-05,0.0089931,-0.00025258,-2512.1,0.85042
10970,13.134,2.5455,0,0.0002554,2552.3,8.7135e-05,34.198,8.2585e-05,0.0087069,-0.00025481,-2535,0.84015
10971,13.226,2.5455,0.05,7.8351e-07,7.8297,6.0164e-07,4.5205,-2.5831e-12,-4.5967e-06,-6.0164e-07,-4.5205,0.85048
10972,13.226,2.2727,0,0.00025311,2529.3,8.6681e-05,37.849,8.1645e-05,0.0093428,-0.00025244,-2510.2,0.85022
10973,13.134,2.3636,0,0.00025532,2551.5,8.7209e-05,35.407,8.2497e-05,0.0089825,-0.0002547,-2533.6,0.83998
10974,13.226,2.3636,0.05,7.9443e-07,7.9389,6.1002e-07,4.5835,-2.5319e-12,-4.9711e-06,-6.1003e-07,-4.5835,0.85031
10975,13.226,2.0909,0,0.00025295,2527.7,8.6756e-05,39.388,8.1515e-05,0.0099667,-0.00025225,-2507.8,0.84996
10976,13.134,2.1818,0,0.0002552,2550.3,8.7284e-05,36.788,8.2389e-05,0.0094872,-0.00025456,-2531.7,0.83975
10977,13.226,2.1818,0.05,8.0807e-07,8.0751,6.205e-07,4.6622,-2.4359e-12,-5.6611e-06,-6.2049e-07,-4.6621,0.85008
10978,13.226,1.9091,0,0.00025273,2525.6,8.6804e-05,40.821,8.1373e-05,0.010822,-0.00025201,-2504.9,0.84965
10979,13.134,2,0,0.00025504,2548.7,8.7345e-05,38.165,8.2267e-05,0.010213,-0.00025437,-2529.4,0.83946
10980,13.226,2,0.05,8.2376e-07,8.2319,6.3255e-07,4.7527,-3.3392e-12,-5.5463e-06,-6.3254e-07,-4.7527,0.84979
10981,13.226,1.7273,0,0.00025246,2522.9,8.6806e-05,41.929,8.1227e-05,0.01177,-0.00025172,-2501.6,0.84928
10982,13.134,1.8182,0,0.00025483,2546.5,8.7373e-05,39.343,8.2138e-05,0.011067,-0.00025414,-2526.6,0.83912
10983,13.226,1.8182,0.05,8.4084e-07,8.4026,6.4567e-07,4.8513,-2.4102e-12,-5.4188e-06,-6.4565e-07,-4.8512,0.84945
10984,13.226,1.5455,0,0.00025212,2519.5,8.6742e-05,42.493,8.1088e-05,0.012587,-0.00025137,-2498,0.84885
10985,13.134,1.6364,0,0.00025456,2543.8,8.7349e-05,40.117,8.2011e-05,0.01188,-0.00025385,-2523.5,0.83871
10986,13.226,1.6364,0.05,8.5863e-07,8.5804,6.5932e-07,4.9539,-3.3851e-12,-4.3606e-06,-6.5932e-07,-4.9539,0.84905
10987,13.226,1.3636,0,0.00025172,2515.4,8.6593e-05,42.312,8.0963e-05,0.012989,-0.00025097,-2494,0.84836
10988,13.134,1.4545,0,0.00025423,2540.6,8.7255e-05,40.293,8.1894e-05,0.012405,-0.00025352,-2520.2,0.83825
10989,13.226,1.4545,0.05,8.7651e-07,8.759,6.7305e-07,5.0571,-2.5555e-12,-3.8445e-06,-6.7305e-07,-5.057,0.84859
10990,13.226,1.1818,0,0.00025125,2510.7,8.6346e-05,41.212,8.0863e-05,0.012565,-0.00025052,-2489.9,0.84782
10991,13.134,1.2727,0,0.00025384,2536.7,8.7076e-05,39.697,8.1794e-05,0.012363,-0.00025314,-2516.6,0.83773
10992,13.226,1.2727,0.05,8.9389e-07,8.9327,6.864e-07,5.1573,-3.5553e-12,-4.1152e-06,-6.8639e-07,-5.1572,0.84807
10993,13.226,1,0,0.00025072,2505.4,8.5992e-05,39.06,8.0795e-05,0.011004,-0.00025003,-2485.7,0.84722
10994,13.134,1.0909,0,0.00025339,2532.1,8.6802e-05,38.185,8.1721e-05,0.011261,-0.00025272,-2512.8,0.83716
10995,13.226,1.0909,0.05,9.1022e-07,9.0959,6.9894e-07,5.2516,-3.6525e-12,-2.0101e-06,-6.9893e-07,-5.2515,0.8475
10996,13.226,0.81818,0,0.00025013,2499.6,8.5526e-05,35.773,8.0765e-05,0.0069252,-0.0002495,-2481.5,0.84656
10997,13.134,0.90909,0,0.00025288,2527.1,8.6425e-05,35.659,8.168e-05,0.0089983,-0.00025226,-2509.1,0.83653
10998,13.226,0.90909,0.05,9.2498e-07,9.2434,7.1028e-07,5.3368,-3.7345e-12,-3.0935e-06,-7.1027e-07,-5.3366,0.84687
10999,13.226,0.63636,0,0.00024951,2493.3,8.495e-05,31.331,8.0781e-05,0.0020378,-0.00024896,-2477.5,0.84585
11000,13.134,0.72727,0,0.00025234,2521.6,8.5946e-05,32.07,8.1678e-05,0.0030617,-0.00025178,-2505.4,0.83584
11001,13.226,0.72727,0.05,9.3755e-07,9.369,7.1992e-07,5.4092,-3.7839e-12,-1.7273e-06,-7.1991e-07,-5.4091,0.84619
11002,13.226,0.45455,0,0.00024886,2486.9,8.4278e-05,25.789,8.0843e-05,-0.02183,-0.00024842,-2473.9,0.84508
11003,13.134,0.54545,0,0.00025176,2515.9,8.5369e-05,27.432,8.1718e-05,-0.0009509,-0.00025128,-2502,0.83509
11004,13.226,0.54545,0.05,9.4503e-07,9.4438,7.2567e-07,5.4524,-3.7397e-12,6.4589e-08,-7.2566e-07,-5.4523,0.84545
11005,13.226,0.27273,0,0.00024829,2481.2,8.3582e-05,19.689,8.0957e-05,-0.034593,-0.00024795,-2471.3,0.84425
11006,13.134,0.36364,0,0.00025118,2510.1,8.4714e-05,21.845,8.1801e-05,-0.042457,-0.0002508,-2499.1,0.83429
11007,13.226,0.36364,0.05,9.1058e-07,9.0995,6.9922e-07,5.2537,-3.676e-12,1.6316e-06,-6.9921e-07,-5.2536,0.84465
11008,13.134,0.18182,0,0.00025076,2505.8,8.4116e-05,16.358,8.1936e-05,-0.018398,-0.00025047,-2497.6,0.83343
11009,13.226,0.18182,0.05,2.8962e-07,2.8942,2.2239e-07,1.671,-1.3881e-12,2.1395e-05,-2.2239e-07,-1.6709,0.8438
11010,13.226,0.090909,0,0.00024733,2471.6,8.248e-05,10.311,8.1107e-05,-0.0054987,-0.00024715,-2466.4,0.84337
11011,13.042,5.7273,0,0.00025363,2534.5,8.5236e-05,18.421,8.278e-05,-0.029677,-0.00025331,-2525.3,0.82352
11012,12.951,5.8182,0,0.00025611,2559.3,8.5828e-05,15.707,8.3735e-05,-0.013578,-0.00025584,-2551.4,0.81278
11013,13.042,5.8182,0.05,2.4737e-07,2.472,1.8995e-07,1.4272,1.1247e-12,-1.9042e-05,-1.8995e-07,-1.4273,0.82306
11014,13.042,5.9091,0,0.00025275,2525.8,8.4242e-05,9.9855,8.2912e-05,-0.0050046,-0.00025258,-2520.8,0.82263
11015,13.042,5.5455,0,0.00025407,2538.9,8.5801e-05,23.458,8.2676e-05,-0.019798,-0.00025366,-2527.1,0.82436
11016,12.951,5.6364,0,0.00025641,2562.3,8.6294e-05,20.093,8.3615e-05,-0.037376,-0.00025606,-2552.2,0.81365
11017,13.042,5.6364,0.05,8.905e-07,8.8988,6.8378e-07,5.1377,3.4772e-12,2.9433e-06,-6.838e-07,-5.1378,0.82393
11018,13.042,5.3636,0,0.00025459,2544.1,8.6361e-05,28.148,8.2615e-05,0.001028,-0.0002541,-2529.9,0.82514
11019,12.951,5.4545,0,0.00025687,2567,8.6837e-05,24.785,8.3538e-05,-0.0016538,-0.00025644,-2554.5,0.81446
11020,13.042,5.4545,0.05,9.2811e-07,9.2747,7.1267e-07,5.3547,2.8062e-12,4.687e-06,-7.1267e-07,-5.3548,0.82473
11021,13.042,5.1818,0,0.00025509,2549.1,8.6842e-05,31.938,8.2593e-05,0.0056189,-0.00025453,-2533,0.82586
11022,12.951,5.2727,0,0.00025734,2571.6,8.7316e-05,28.71,8.3495e-05,0.0021462,-0.00025684,-2557.1,0.81522
11023,13.042,5.2727,0.05,9.2308e-07,9.2244,7.0881e-07,5.3257,3.7302e-12,3.4452e-06,-7.0881e-07,-5.3257,0.82548
11024,13.042,5,0,0.00025556,2553.8,8.7232e-05,34.769,8.2606e-05,0.0095411,-0.00025495,-2536.2,0.82652
11025,12.951,5.0909,0,0.00025778,2576,8.7715e-05,31.771,8.3488e-05,0.0076289,-0.00025722,-2559.9,0.81592
11026,13.042,5.0909,0.05,9.1334e-07,9.1271,7.0133e-07,5.2695,2.7897e-12,3.7609e-06,-7.0133e-07,-5.2696,0.82618
11027,13.042,4.8182,0,0.00025598,2558,8.7529e-05,36.656,8.2652e-05,0.011219,-0.00025534,-2539.5,0.82713
11028,12.951,4.9091,0,0.00025818,2580,8.8029e-05,33.95,8.3512e-05,0.0099149,-0.00025758,-2562.8,0.81656
11029,13.042,4.9091,0.05,9.0176e-07,9.0114,6.9244e-07,5.2027,3.6604e-12,3.9664e-06,-6.9244e-07,-5.2028,0.82682
11030,13.042,4.6364,0,0.00025635,2561.7,8.7736e-05,37.664,8.2724e-05,0.011859,-0.00025569,-2542.7,0.82768
11031,12.951,4.7273,0,0.00025853,2583.5,8.8257e-05,35.285,8.3563e-05,0.011149,-0.00025791,-2565.7,0.81714
11032,13.042,4.7273,0.05,8.889e-07,8.8828,6.8256e-07,5.1285,8.8293e-13,2.1908e-06,-6.8256e-07,-5.1286,0.82739
11033,13.042,4.4545,0,0.00025667,2564.9,8.786e-05,37.904,8.2817e-05,0.011726,-0.000256,-2545.7,0.82818
11034,12.951,4.5455,0,0.00025884,2586.6,8.8406e-05,35.857,8.3635e-05,0.011417,-0.00025821,-2568.5,0.81767
11035,13.042,4.5455,0.05,8.7519e-07,8.7459,6.7204e-07,5.0494,1.7524e-12,3.2905e-06,-6.7204e-07,-5.0495,0.82792
11036,13.042,4.2727,0,0.00025693,2567.5,8.7914e-05,37.518,8.2922e-05,0.011168,-0.00025627,-2548.5,0.82861
11037,12.951,4.3636,0,0.00025909,2589.1,8.8484e-05,35.784,8.3723e-05,0.011135,-0.00025847,-2571.1,0.81813
11038,13.042,4.3636,0.05,8.611e-07,8.6051,6.6122e-07,4.9681,1.7065e-12,1.0449e-06,-6.6122e-07,-4.9682,0.82838
11039,13.042,4.0909,0,0.00025714,2569.6,8.7913e-05,36.674,8.3033e-05,0.010428,-0.00025649,-2551.1,0.82899
11040,12.951,4.1818,0,0.0002593,2591.2,8.8504e-05,35.209,8.3819e-05,0.010545,-0.00025868,-2573.4,0.81854
11041,13.042,4.1818,0.05,8.4711e-07,8.4652,6.5047e-07,4.8874,7.7181e-13,4.5909e-07,-6.5048e-07,-4.8874,0.82879
11042,13.042,3.9091,0,0.0002573,2571.2,8.7873e-05,35.552,8.3142e-05,0.0096954,-0.00025667,-2553.2,0.82931
11043,12.951,4,0,0.00025946,2592.8,8.8481e-05,34.294,8.3918e-05,0.0098539,-0.00025886,-2575.5,0.81889
11044,13.042,4,0.05,8.3372e-07,8.3314,6.4019e-07,4.8101,1.6874e-12,7.7072e-09,-6.4019e-07,-4.8101,0.82913
11045,13.042,3.7273,0,0.00025742,2572.4,8.781e-05,34.333,8.3242e-05,0.0090953,-0.00025682,-2555.1,0.82957
11046,12.951,3.8182,0,0.00025958,2594,8.843e-05,33.205,8.4012e-05,0.0092118,-0.000259,-2577.2,0.81918
11047,13.042,3.8182,0.05,8.2146e-07,8.2089,6.3077e-07,4.7394,1.678e-12,1.631e-07,-6.3078e-07,-4.7394,0.82942
11048,13.042,3.5455,0,0.0002575,2573.2,8.7743e-05,33.183,8.3327e-05,0.0086843,-0.00025692,-2556.5,0.82977
11049,12.951,3.6364,0,0.00025966,2594.9,8.8367e-05,32.104,8.4095e-05,0.0087078,-0.0002591,-2578.7,0.81942
11050,13.042,3.6364,0.05,8.1085e-07,8.1029,6.2263e-07,4.6782,-1.1149e-13,1.0814e-06,-6.2263e-07,-4.6782,0.82966
11051,13.042,3.3636,0,0.00025756,2573.8,8.7683e-05,32.249,8.3392e-05,0.0084542,-0.00025699,-2557.5,0.82992
11052,12.951,3.4545,0,0.00025972,2595.4,8.8305e-05,31.137,8.4162e-05,0.0083735,-0.00025918,-2579.7,0.81959
11053,13.042,3.4545,0.05,8.0238e-07,8.0183,6.1613e-07,4.6294,-8.9423e-14,-1.855e-07,-6.1613e-07,-4.6294,0.82983
11054,13.042,3.1818,0,0.00025759,2574.1,8.7643e-05,31.642,8.3433e-05,0.0083536,-0.00025704,-2558.1,0.83
11055,12.951,3.2727,0,0.00025976,2595.8,8.8258e-05,30.422,8.421e-05,0.0081888,-0.00025923,-2580.4,0.81971
11056,13.042,3.2727,0.05,7.9648e-07,7.9593,6.116e-07,4.5953,-9.6483e-13,-1.3735e-06,-6.1159e-07,-4.5953,0.82995
11057,13.042,3,0,0.0002576,2574.2,8.7629e-05,31.432,8.3447e-05,0.0083279,-0.00025705,-2558.3,0.83003
11058,12.951,3.0909,0,0.00025978,2596,8.8232e-05,30.042,8.4234e-05,0.0081124,-0.00025925,-2580.8,0.81977
11059,13.042,3.0909,0.05,7.9344e-07,7.929,6.0927e-07,4.5778,-9.2985e-13,-1.8238e-06,-6.0927e-07,-4.5778,0.83
11060,13.042,2.8182,0,0.00025759,2574.1,8.7643e-05,31.642,8.3433e-05,0.008354,-0.00025704,-2558.1,0.83
11061,12.951,2.9091,0,0.00025978,2596,8.8232e-05,30.042,8.4234e-05,0.0081127,-0.00025925,-2580.8,0.81977
11062,13.042,2.9091,0.05,7.9344e-07,7.929,6.0927e-07,4.5778,-1.7974e-12,-1.7453e-06,-6.0927e-07,-4.5778,0.83
11063,13.042,2.6364,0,0.00025756,2573.8,8.7683e-05,32.249,8.3392e-05,0.0084543,-0.00025699,-2557.5,0.82992
11064,12.951,2.7273,0,0.00025976,2595.8,8.8258e-05,30.422,8.421e-05,0.0081892,-0.00025923,-2580.4,0.81971
11065,13.042,2.7273,0.05,7.9648e-07,7.9593,6.116e-07,4.5953,-2.6597e-12,-3.0534e-06,-6.1159e-07,-4.5953,0.82995
11066,13.042,2.4545,0,0.0002575,2573.2,8.7743e-05,33.183,8.3327e-05,0.0086845,-0.00025692,-2556.5,0.82977
11067,12.951,2.5455,0,0.00025972,2595.4,8.8305e-05,31.137,8.4162e-05,0.0083737,-0.00025918,-2579.7,0.81959
11068,13.042,2.5455,0.05,8.0238e-07,8.0183,6.1613e-07,4.6294,-3.5258e-12,-3.882e-06,-6.1613e-07,-4.6293,0.82983
11069,13.042,2.2727,0,0.00025742,2572.4,8.781e-05,34.333,8.3242e-05,0.0090955,-0.00025682,-2555.1,0.82957
11070,12.951,2.3636,0,0.00025966,2594.9,8.8367e-05,32.105,8.4095e-05,0.008708,-0.0002591,-2578.7,0.81942
11071,13.042,2.3636,0.05,8.1085e-07,8.1029,6.2263e-07,4.6782,-2.5715e-12,-4.2118e-06,-6.2263e-07,-4.6782,0.82966
11072,13.042,2.0909,0,0.0002573,2571.2,8.7873e-05,35.552,8.3142e-05,0.0096952,-0.00025667,-2553.2,0.82931
11073,12.951,2.1818,0,0.00025958,2594,8.843e-05,33.205,8.4012e-05,0.0092119,-0.000259,-2577.2,0.81918
11074,13.042,2.1818,0.05,8.2146e-07,8.2089,6.3078e-07,4.7394,-2.5285e-12,-3.5919e-06,-6.3077e-07,-4.7394,0.82942
11075,13.042,1.9091,0,0.00025714,2569.6,8.7913e-05,36.674,8.3033e-05,0.010428,-0.00025649,-2551.1,0.82899
11076,12.951,2,0,0.00025946,2592.8,8.8481e-05,34.294,8.3918e-05,0.0098544,-0.00025886,-2575.5,0.81889
11077,13.042,2,0.05,8.3372e-07,8.3314,6.4019e-07,4.8102,-3.4362e-12,-4.1706e-06,-6.4019e-07,-4.8101,0.82913
11078,13.042,1.7273,0,0.00025693,2567.5,8.7914e-05,37.518,8.2922e-05,0.011169,-0.00025627,-2548.5,0.82861
11079,12.951,1.8182,0,0.0002593,2591.2,8.8504e-05,35.209,8.3819e-05,0.010545,-0.00025868,-2573.4,0.81854
11080,13.042,1.8182,0.05,8.4711e-07,8.4652,6.5048e-07,4.8874,-2.5148e-12,-3.7759e-06,-6.5047e-07,-4.8874,0.82879
11081,13.042,1.5455,0,0.00025667,2564.9,8.786e-05,37.904,8.2817e-05,0.011726,-0.000256,-2545.7,0.82818
11082,12.951,1.6364,0,0.00025909,2589.1,8.8484e-05,35.784,8.3723e-05,0.011136,-0.00025846,-2571.1,0.81813
11083,13.042,1.6364,0.05,8.611e-07,8.6051,6.6122e-07,4.9682,-3.4685e-12,-4.5563e-06,-6.6122e-07,-4.9681,0.82838
11084,13.042,1.3636,0,0.00025635,2561.7,8.7736e-05,37.664,8.2724e-05,0.01186,-0.00025569,-2542.7,0.82768
11085,12.951,1.4545,0,0.00025884,2586.6,8.8406e-05,35.857,8.3635e-05,0.011417,-0.00025821,-2568.5,0.81767
11086,13.042,1.4545,0.05,8.7519e-07,8.7459,6.7204e-07,5.0495,-2.6171e-12,-2.9184e-06,-6.7204e-07,-5.0494,0.82792
11087,13.042,1.1818,0,0.00025598,2558,8.7529e-05,36.656,8.2652e-05,0.011219,-0.00025534,-2539.5,0.82713
11088,12.951,1.2727,0,0.00025853,2583.5,8.8257e-05,35.285,8.3563e-05,0.01115,-0.00025791,-2565.7,0.81714
11089,13.042,1.2727,0.05,8.889e-07,8.8828,6.8256e-07,5.1286,-3.5988e-12,-2.7538e-06,-6.8256e-07,-5.1285,0.82739
11090,13.042,1,0,0.00025556,2553.8,8.7232e-05,34.769,8.2606e-05,0.009542,-0.00025495,-2536.2,0.82652
11091,12.951,1.0909,0,0.00025818,2580,8.8029e-05,33.95,8.3512e-05,0.0099154,-0.00025758,-2562.8,0.81656
11092,13.042,1.0909,0.05,9.0176e-07,9.0114,6.9244e-07,5.2028,-3.6736e-12,-2.1678e-06,-6.9244e-07,-5.2027,0.82682
11093,13.042,0.81818,0,0.00025509,2549.1,8.6842e-05,31.938,8.2593e-05,0.0056445,-0.00025453,-2533,0.82586
11094,12.951,0.90909,0,0.00025778,2576,8.7715e-05,31.771,8.3488e-05,0.00763,-0.00025722,-2559.9,0.81592
11095,13.042,0.90909,0.05,9.1334e-07,9.1271,7.0134e-07,5.2696,-3.7305e-12,-1.118e-06,-7.0133e-07,-5.2695,0.82618
11096,13.042,0.63636,0,0.00025459,2544.1,8.6361e-05,28.148,8.2615e-05,0.0010293,-0.0002541,-2529.9,0.82514
11097,12.951,0.72727,0,0.00025734,2571.6,8.7316e-05,28.71,8.3495e-05,0.002148,-0.00025684,-2557.1,0.81522
11098,13.042,0.72727,0.05,9.2308e-07,9.2244,7.0881e-07,5.3258,-3.7679e-12,-9.073e-07,-7.0881e-07,-5.3257,0.82548
11099,13.042,0.45455,0,0.00025407,2538.9,8.5801e-05,23.458,8.2676e-05,-0.019798,-0.00025366,-2527.1,0.82436
11100,12.951,0.54545,0,0.00025687,2567,8.6837e-05,24.785,8.3538e-05,-0.0016533,-0.00025644,-2554.5,0.81446
11101,13.042,0.54545,0.05,9.2811e-07,9.2747,7.1267e-07,5.3548,-4.6618e-12,2.1679e-07,-7.1267e-07,-5.3547,0.82473
11102,13.042,0.27273,0,0.00025363,2534.5,8.5236e-05,18.421,8.278e-05,-0.029677,-0.00025331,-2525.3,0.82352
11103,12.951,0.36364,0,0.00025641,2562.3,8.6294e-05,20.093,8.3615e-05,-0.037376,-0.00025606,-2552.2,0.81365
11104,13.042,0.36364,0.05,8.905e-07,8.8988,6.838e-07,5.1378,-3.6474e-12,2.014e-06,-6.8379e-07,-5.1377,0.82393
11105,12.951,0.18182,0,0.00025611,2559.3,8.5828e-05,15.707,8.3735e-05,-0.013578,-0.00025584,-2551.4,0.81278
11106,13.042,0.18182,0.05,2.4737e-07,2.472,1.8995e-07,1.4273,-6.2879e-13,2.3634e-05,-1.8995e-07,-1.4272,0.82306
11107,13.042,0.090909,0,0.00025275,2525.8,8.4242e-05,9.9855,8.2912e-05,-0.0050038,-0.00025258,-2520.8,0.82263
11108,12.859,5.7273,0,0.00025888,2587,8.6874e-05,17.287,8.457e-05,-0.025381,-0.00025858,-2578.3,0.80296
11109,12.767,5.8182,0,0.00026138,2612,8.7518e-05,15.108,8.5506e-05,-0.0098734,-0.00026112,-2604.4,0.7923
11110,12.859,5.8182,0.05,2.1257e-07,2.1243,1.6323e-07,1.2264,1.7614e-12,-1.2097e-05,-1.6323e-07,-1.2265,0.80249
11111,12.859,5.9091,0,0.00025808,2579,8.5975e-05,9.6826,8.4685e-05,-0.0045307,-0.00025791,-2574.1,0.80206
11112,12.859,5.5455,0,0.00025921,2590.3,8.7326e-05,21.39,8.4476e-05,-0.017864,-0.00025884,-2579.6,0.80381
11113,12.767,5.6364,0,0.00026158,2614,8.787e-05,18.532,8.5399e-05,-0.032806,-0.00026126,-2604.7,0.79318
11114,12.859,5.6364,0.05,8.7506e-07,8.7446,6.7194e-07,5.0486,3.6751e-12,2.833e-06,-6.7194e-07,-5.0487,0.80337
11115,12.859,5.3636,0,0.00025962,2594.4,8.7788e-05,25.324,8.4418e-05,0.00025588,-0.00025918,-2581.7,0.8046
11116,12.767,5.4545,0,0.00026194,2617.6,8.8314e-05,22.431,8.5328e-05,-0.0021423,-0.00026156,-2606.4,0.794
11117,12.859,5.4545,0.05,9.1525e-07,9.1462,7.028e-07,5.2805,3.7378e-12,4.1558e-06,-7.028e-07,-5.2806,0.80419
11118,12.859,5.1818,0,0.00026002,2598.4,8.8186e-05,28.524,8.4391e-05,0.0045658,-0.00025952,-2584,0.80533
11119,12.767,5.2727,0,0.00026231,2621.3,8.8708e-05,25.717,8.5286e-05,0.0014094,-0.00026186,-2608.3,0.79477
11120,12.859,5.2727,0.05,9.1218e-07,9.1155,7.0044e-07,5.2628,3.7152e-12,2.5273e-06,-7.0044e-07,-5.2628,0.80495
11121,12.859,5,0,0.00026039,2602.1,8.8509e-05,30.935,8.4393e-05,0.008251,-0.00025985,-2586.5,0.80601
11122,12.767,5.0909,0,0.00026266,2624.7,8.9037e-05,28.294,8.5272e-05,0.0064408,-0.00026216,-2610.5,0.79548
11123,12.859,5.0909,0.05,9.047e-07,9.0408,6.947e-07,5.2197,2.7747e-12,2.8939e-06,-6.947e-07,-5.2197,0.80565
11124,12.859,4.8182,0,0.00026073,2605.5,8.8755e-05,32.564,8.4422e-05,0.0099868,-0.00026016,-2589,0.80662
11125,12.767,4.9091,0,0.00026297,2627.9,8.9294e-05,30.145,8.5283e-05,0.0087015,-0.00026244,-2612.7,0.79613
11126,12.859,4.9091,0.05,8.9568e-07,8.9506,6.8777e-07,5.1676,3.6656e-12,2.1166e-06,-6.8777e-07,-5.1677,0.8063
11127,12.859,4.6364,0,0.00026102,2608.4,8.8926e-05,33.464,8.4473e-05,0.010781,-0.00026043,-2591.5,0.80718
11128,12.767,4.7273,0,0.00026325,2630.7,8.9482e-05,31.298,8.5317e-05,0.010016,-0.0002627,-2614.9,0.79672
11129,12.859,4.7273,0.05,8.8561e-07,8.85,6.8004e-07,5.1095,1.8108e-12,4.1832e-07,-6.8004e-07,-5.1096,0.80689
11130,12.859,4.4545,0,0.00026126,2610.8,8.9028e-05,33.723,8.4541e-05,0.010856,-0.00026067,-2593.8,0.80768
11131,12.767,4.5455,0,0.00026348,2633,8.9603e-05,31.819,8.5369e-05,0.010451,-0.00026293,-2617,0.79725
11132,12.859,4.5455,0.05,8.7486e-07,8.7425,6.7178e-07,5.0474,8.6708e-13,2.3179e-06,-6.7178e-07,-5.0475,0.80742
11133,12.859,4.2727,0,0.00026146,2612.8,8.9072e-05,33.461,8.462e-05,0.010512,-0.00026087,-2595.9,0.80812
11134,12.767,4.3636,0,0.00026368,2635,8.9666e-05,31.803,8.5434e-05,0.010365,-0.00026312,-2618.9,0.79773
11135,12.859,4.3636,0.05,8.6379e-07,8.632,6.6329e-07,4.9837,1.7365e-12,1.7052e-07,-6.6329e-07,-4.9837,0.80789
11136,12.859,4.0909,0,0.00026162,2614.4,8.907e-05,32.815,8.4704e-05,0.0099527,-0.00026104,-2597.8,0.8085
11137,12.767,4.1818,0,0.00026383,2636.5,8.968e-05,31.369,8.5507e-05,0.0099618,-0.00026328,-2620.7,0.79814
11138,12.859,4.1818,0.05,8.5282e-07,8.5223,6.5486e-07,4.9204,1.7135e-12,-6.9692e-07,-6.5486e-07,-4.9204,0.8083
11139,12.859,3.9091,0,0.00026174,2615.6,8.9036e-05,31.932,8.4787e-05,0.0093445,-0.00026118,-2599.4,0.80883
11140,12.767,4,0,0.00026395,2637.7,8.966e-05,30.65,8.5582e-05,0.009421,-0.00026342,-2622.2,0.7985
11141,12.859,4,0.05,8.4234e-07,8.4176,6.4681e-07,4.8599,-1.0665e-13,-8.0125e-07,-6.4682e-07,-4.86,0.80865
11142,12.859,3.7273,0,0.00026182,2616.4,8.8984e-05,30.963,8.4864e-05,0.0088013,-0.00026128,-2600.8,0.80909
11143,12.767,3.8182,0,0.00026404,2638.5,8.9616e-05,29.783,8.5653e-05,0.0088737,-0.00026352,-2623.5,0.79879
11144,12.859,3.8182,0.05,8.3278e-07,8.322,6.3947e-07,4.8047,-9.7868e-14,-9.9429e-07,-6.3947e-07,-4.8047,0.80894
11145,12.859,3.5455,0,0.00026188,2617,8.8927e-05,30.044,8.493e-05,0.0083859,-0.00026136,-2601.9,0.8093
11146,12.767,3.6364,0,0.0002641,2639.2,8.9563e-05,28.9,8.5717e-05,0.0084078,-0.00026359,-2624.6,0.79903
11147,12.859,3.6364,0.05,8.2452e-07,8.2395,6.3313e-07,4.7571,-9.0421e-14,-4.5146e-07,-6.3313e-07,-4.7571,0.80918
11148,12.859,3.3636,0,0.00026192,2617.4,8.8878e-05,29.294,8.498e-05,0.0081134,-0.00026141,-2602.6,0.80944
11149,12.767,3.4545,0,0.00026414,2639.6,8.9511e-05,28.122,8.5769e-05,0.0080653,-0.00026365,-2625.4,0.79921
11150,12.859,3.4545,0.05,8.1795e-07,8.1739,6.2809e-07,4.7192,-7.2719e-14,-1.2583e-06,-6.2809e-07,-4.7192,0.80936
11151,12.859,3.1818,0,0.00026194,2617.6,8.8844e-05,28.806,8.5011e-05,0.0079671,-0.00026144,-2603.1,0.80953
11152,12.767,3.2727,0,0.00026416,2639.8,8.9471e-05,27.546,8.5806e-05,0.0078505,-0.00026368,-2625.9,0.79932
11153,12.859,3.2727,0.05,8.1338e-07,8.1282,6.2458e-07,4.6929,-9.5661e-13,-2.4965e-06,-6.2458e-07,-4.6928,0.80947
11154,12.859,3,0,0.00026195,2617.7,8.8832e-05,28.637,8.5022e-05,0.0079224,-0.00026145,-2603.3,0.80956
11155,12.767,3.0909,0,0.00026417,2639.9,8.9449e-05,27.24,8.5825e-05,0.0077502,-0.0002637,-2626.2,0.79938
11156,12.859,3.0909,0.05,8.1104e-07,8.1048,6.2278e-07,4.6793,-9.263e-13,-2.0346e-06,-6.2278e-07,-4.6793,0.80953
11157,12.859,2.8182,0,0.00026194,2617.6,8.8844e-05,28.806,8.5011e-05,0.0079674,-0.00026144,-2603.1,0.80953
11158,12.767,2.9091,0,0.00026417,2639.9,8.9449e-05,27.24,8.5825e-05,0.0077504,-0.0002637,-2626.2,0.79938
11159,12.859,2.9091,0.05,8.1104e-07,8.1048,6.2278e-07,4.6793,-8.917e-13,-2.7281e-06,-6.2277e-07,-4.6793,0.80953
11160,12.859,2.6364,0,0.00026192,2617.4,8.8878e-05,29.294,8.498e-05,0.0081139,-0.00026141,-2602.6,0.80944
11161,12.767,2.7273,0,0.00026416,2639.8,8.9471e-05,27.546,8.5806e-05,0.0078508,-0.00026368,-2625.9,0.79932
11162,12.859,2.7273,0.05,8.1338e-07,8.1282,6.2458e-07,4.6929,-2.6722e-12,-3.1682e-06,-6.2457e-07,-4.6928,0.80947
11163,12.859,2.4545,0,0.00026188,2617,8.8927e-05,30.044,8.493e-05,0.0083862,-0.00026136,-2601.9,0.8093
11164,12.767,2.5455,0,0.00026414,2639.6,8.9511e-05,28.122,8.5769e-05,0.0080656,-0.00026365,-2625.4,0.79921
11165,12.859,2.5455,0.05,8.1795e-07,8.1739,6.2809e-07,4.7192,-2.6397e-12,-3.6348e-06,-6.2809e-07,-4.7192,0.80936
11166,12.859,2.2727,0,0.00026182,2616.4,8.8984e-05,30.963,8.4864e-05,0.0088016,-0.00026128,-2600.8,0.80909
11167,12.767,2.3636,0,0.0002641,2639.2,8.9563e-05,28.9,8.5717e-05,0.0084079,-0.00026359,-2624.6,0.79903
11168,12.859,2.3636,0.05,8.2452e-07,8.2395,6.3313e-07,4.7571,-2.599e-12,-3.6001e-06,-6.3313e-07,-4.7571,0.80918
11169,12.859,2.0909,0,0.00026174,2615.6,8.9036e-05,31.932,8.4787e-05,0.0093452,-0.00026118,-2599.4,0.80883
11170,12.767,2.1818,0,0.00026404,2638.5,8.9616e-05,29.783,8.5653e-05,0.0088742,-0.00026352,-2623.5,0.79879
11171,12.859,2.1818,0.05,8.3278e-07,8.322,6.3947e-07,4.8048,-7.5761e-13,-3.9246e-06,-6.3947e-07,-4.8047,0.80894
11172,12.859,1.9091,0,0.00026162,2614.4,8.907e-05,32.815,8.4704e-05,0.0099529,-0.00026104,-2597.8,0.8085
11173,12.767,2,0,0.00026395,2637.7,8.966e-05,30.65,8.5582e-05,0.0094216,-0.00026342,-2622.2,0.7985
11174,12.859,2,0.05,8.4234e-07,8.4176,6.4682e-07,4.86,-2.5729e-12,-3.8471e-06,-6.4681e-07,-4.8599,0.80865
11175,12.859,1.7273,0,0.00026146,2612.8,8.9072e-05,33.461,8.462e-05,0.010512,-0.00026087,-2595.9,0.80812
11176,12.767,1.8182,0,0.00026383,2636.5,8.968e-05,31.369,8.5507e-05,0.0099616,-0.00026328,-2620.7,0.79814
11177,12.859,1.8182,0.05,8.5282e-07,8.5223,6.5486e-07,4.9204,-1.6755e-12,-3.2418e-06,-6.5486e-07,-4.9204,0.8083
11178,12.859,1.5455,0,0.00026126,2610.8,8.9028e-05,33.723,8.4541e-05,0.010856,-0.00026067,-2593.8,0.80768
11179,12.767,1.6364,0,0.00026368,2635,8.9666e-05,31.803,8.5434e-05,0.010365,-0.00026312,-2618.9,0.79773
11180,12.859,1.6364,0.05,8.6379e-07,8.632,6.6329e-07,4.9837,-3.5171e-12,-3.4956e-06,-6.6328e-07,-4.9836,0.80789
11181,12.859,1.3636,0,0.00026102,2608.4,8.8926e-05,33.464,8.4473e-05,0.010781,-0.00026043,-2591.5,0.80718
11182,12.767,1.4545,0,0.00026348,2633,8.9603e-05,31.819,8.5369e-05,0.010451,-0.00026293,-2617,0.79725
11183,12.859,1.4545,0.05,8.7486e-07,8.7425,6.7178e-07,5.0475,-2.6612e-12,-3.7595e-06,-6.7178e-07,-5.0474,0.80742
11184,12.859,1.1818,0,0.00026073,2605.5,8.8755e-05,32.564,8.4422e-05,0.0099873,-0.00026016,-2589,0.80662
11185,12.767,1.2727,0,0.00026325,2630.7,8.9482e-05,31.298,8.5317e-05,0.010016,-0.0002627,-2614.9,0.79672
11186,12.859,1.2727,0.05,8.8561e-07,8.85,6.8004e-07,5.1096,-3.6265e-12,-2.7708e-06,-6.8003e-07,-5.1095,0.80689
11187,12.859,1,0,0.00026039,2602.1,8.8509e-05,30.935,8.4393e-05,0.0082517,-0.00025985,-2586.5,0.80601
11188,12.767,1.0909,0,0.00026297,2627.9,8.9294e-05,30.145,8.5283e-05,0.0087013,-0.00026244,-2612.7,0.79613
11189,12.859,1.0909,0.05,8.9568e-07,8.9506,6.8777e-07,5.1677,-3.6815e-12,-2.9607e-06,-6.8777e-07,-5.1676,0.8063
11190,12.859,0.81818,0,0.00026002,2598.4,8.8186e-05,28.524,8.4391e-05,0.0045669,-0.00025952,-2584,0.80533
11191,12.767,0.90909,0,0.00026266,2624.7,8.9037e-05,28.294,8.5272e-05,0.0064425,-0.00026216,-2610.5,0.79548
11192,12.859,0.90909,0.05,9.047e-07,9.0408,6.947e-07,5.2197,-3.7214e-12,-2.1526e-06,-6.947e-07,-5.2197,0.80565
11193,12.859,0.63636,0,0.00025962,2594.4,8.7788e-05,25.324,8.4418e-05,0.00025691,-0.00025918,-2581.7,0.8046
11194,12.767,0.72727,0,0.00026231,2621.3,8.8708e-05,25.717,8.5286e-05,0.0014107,-0.00026186,-2608.3,0.79477
11195,12.859,0.72727,0.05,9.1218e-07,9.1155,7.0044e-07,5.2629,-3.7283e-12,-9.0972e-07,-7.0044e-07,-5.2628,0.80495
11196,12.859,0.45455,0,0.00025921,2590.3,8.7326e-05,21.39,8.4476e-05,-0.017864,-0.00025884,-2579.6,0.80381
11197,12.767,0.54545,0,0.00026194,2617.6,8.8314e-05,22.431,8.5328e-05,-0.0021419,-0.00026156,-2606.4,0.794
11198,12.859,0.54545,0.05,9.1525e-07,9.1462,7.028e-07,5.2806,-3.7519e-12,-3.5813e-07,-7.028e-07,-5.2805,0.80419
11199,12.859,0.27273,0,0.00025888,2587,8.6874e-05,17.287,8.457e-05,-0.02538,-0.00025858,-2578.3,0.80296
11200,12.767,0.36364,0,0.00026158,2614,8.787e-05,18.532,8.5399e-05,-0.032806,-0.00026126,-2604.7,0.79318
11201,12.859,0.36364,0.05,8.7506e-07,8.7446,6.7194e-07,5.0487,-3.6875e-12,6.4969e-07,-6.7193e-07,-5.0486,0.80337
11202,12.767,0.18182,0,0.00026138,2612,8.7518e-05,15.108,8.5506e-05,-0.0098729,-0.00026112,-2604.4,0.7923
11203,12.859,0.18182,0.05,2.1257e-07,2.1243,1.6323e-07,1.2265,-1.4321e-12,2.3059e-05,-1.6323e-07,-1.2264,0.80249
11204,12.859,0.090909,0,0.00025808,2579,8.5975e-05,9.6826,8.4685e-05,-0.0045308,-0.00025791,-2574.1,0.80206
11205,12.675,5.7273,0,0.00026407,2638.9,8.8501e-05,16.262,8.6334e-05,-0.021665,-0.00026379,-2630.7,0.78257
11206,12.583,5.8182,0,0.0002666,2664.1,8.9192e-05,14.551,8.7254e-05,-0.0071075,-0.00026634,-2656.8,0.77199
11207,12.675,5.8182,0.05,1.8395e-07,1.8382,1.4125e-07,1.0613,1.943e-12,-1.4875e-05,-1.4125e-07,-1.0613,0.7821
11208,12.675,5.9091,0,0.00026334,2631.6,8.7686e-05,9.3971,8.6435e-05,-0.0040958,-0.00026318,-2626.8,0.78166
11209,12.675,5.5455,0,0.00026431,2641.3,8.8854e-05,19.543,8.6251e-05,-0.016055,-0.00026397,-2631.5,0.78343
11210,12.583,5.6364,0,0.00026671,2665.2,8.9444e-05,17.13,8.716e-05,-0.028733,-0.00026641,-2656.6,0.77289
11211,12.675,5.6364,0.05,8.6337e-07,8.6278,6.6296e-07,4.9812,3.6384e-12,2.57e-06,-6.6297e-07,-4.9813,0.78299
11212,12.675,5.3636,0,0.00026463,2644.5,8.9231e-05,22.801,8.6196e-05,-0.00033936,-0.00026423,-2633,0.78424
11213,12.583,5.4545,0,0.00026698,2668,8.9801e-05,20.322,8.7096e-05,-0.002497,-0.00026663,-2657.8,0.77372
11214,12.675,5.4545,0.05,9.0566e-07,9.0504,6.9543e-07,5.2252,3.6569e-12,3.6058e-06,-6.9544e-07,-5.2253,0.78382
11215,12.675,5.1818,0,0.00026494,2647.6,8.9556e-05,25.467,8.6167e-05,0.0036509,-0.0002645,-2634.8,0.78498
11216,12.583,5.2727,0,0.00026727,2670.8,9.012e-05,23.032,8.7055e-05,0.00078717,-0.00026687,-2659.2,0.7745
11217,12.675,5.2727,0.05,9.0414e-07,9.0352,6.9427e-07,5.2165,3.6883e-12,2.4836e-06,-6.9427e-07,-5.2165,0.78459
11218,12.675,5,0,0.00026523,2650.5,8.9819e-05,27.487,8.6162e-05,0.0071056,-0.00026475,-2636.6,0.78566
11219,12.583,5.0909,0,0.00026753,2673.5,9.0386e-05,25.164,8.7037e-05,0.0053606,-0.0002671,-2660.8,0.77522
11220,12.675,5.0909,0.05,8.9847e-07,8.9785,6.8991e-07,5.1837,3.6941e-12,2.3543e-06,-6.8991e-07,-5.1838,0.78531
11221,12.675,4.8182,0,0.00026549,2653.1,9.0019e-05,28.863,8.6179e-05,0.0088552,-0.00026499,-2638.5,0.78629
11222,12.583,4.9091,0,0.00026778,2675.9,9.0593e-05,26.701,8.7041e-05,0.0075809,-0.00026731,-2662.5,0.77588
11223,12.675,4.9091,0.05,8.915e-07,8.9088,6.8456e-07,5.1435,3.6735e-12,1.7082e-06,-6.8456e-07,-5.1435,0.78596
11224,12.675,4.6364,0,0.00026571,2655.3,9.0157e-05,29.637,8.6214e-05,0.0097541,-0.00026519,-2640.3,0.78685
11225,12.583,4.7273,0,0.00026799,2678,9.0743e-05,27.665,8.7062e-05,0.0089346,-0.00026751,-2664.1,0.77648
11226,12.675,4.7273,0.05,8.8366e-07,8.8305,6.7854e-07,5.0982,3.6419e-12,2.7121e-07,-6.7854e-07,-5.0984,0.78656
11227,12.675,4.4545,0,0.0002659,2657.1,9.0238e-05,29.883,8.6263e-05,0.0099907,-0.00026538,-2642.1,0.78736
11228,12.583,4.5455,0,0.00026816,2679.8,9.0839e-05,28.109,8.7099e-05,0.009494,-0.00026768,-2665.6,0.77702
11229,12.675,4.5455,0.05,8.7527e-07,8.7467,6.7209e-07,5.0499,8.8308e-13,1.4668e-06,-6.721e-07,-5.0499,0.78709
11230,12.675,4.2727,0,0.00026605,2658.6,9.0272e-05,29.695,8.6321e-05,0.0098206,-0.00026553,-2643.7,0.78781
11231,12.583,4.3636,0,0.00026831,2681.2,9.0887e-05,28.111,8.7147e-05,0.009563,-0.00026782,-2667.1,0.7775
11232,12.675,4.3636,0.05,8.6663e-07,8.6603,6.6546e-07,5,8.5534e-13,-3.8878e-07,-6.6546e-07,-5,0.78757
11233,12.675,4.0909,0,0.00026616,2659.8,9.0268e-05,29.189,8.6384e-05,0.0094206,-0.00026565,-2645.1,0.78819
11234,12.583,4.1818,0,0.00026842,2682.4,9.0895e-05,27.767,8.7201e-05,0.0093177,-0.00026794,-2668.4,0.77792
11235,12.675,4.1818,0.05,8.5805e-07,8.5746,6.5888e-07,4.9506,1.7482e-12,-4.8187e-07,-6.5888e-07,-4.9506,0.78798
11236,12.675,3.9091,0,0.00026625,2660.6,9.0238e-05,28.485,8.6448e-05,0.0089585,-0.00026575,-2646.3,0.78852
11237,12.583,4,0,0.00026851,2683.2,9.0875e-05,27.188,8.7257e-05,0.008913,-0.00026803,-2669.5,0.77828
11238,12.675,4,0.05,8.4988e-07,8.4929,6.526e-07,4.9034,8.305e-13,-1.064e-06,-6.526e-07,-4.9034,0.78834
11239,12.675,3.7273,0,0.00026631,2661.3,9.0193e-05,27.705,8.6507e-05,0.0084641,-0.00026583,-2647.3,0.78879
11240,12.583,3.8182,0,0.00026857,2683.8,9.0836e-05,26.485,8.7312e-05,0.0084641,-0.0002681,-2670.5,0.77858
11241,12.675,3.8182,0.05,8.4243e-07,8.4185,6.4688e-07,4.8604,-8.4068e-14,-1.0877e-06,-6.4688e-07,-4.8604,0.78864
11242,12.675,3.5455,0,0.00026635,2661.7,9.0145e-05,26.964,8.6557e-05,0.0080777,-0.00026588,-2648.1,0.789
11243,12.583,3.6364,0,0.00026861,2684.2,9.079e-05,25.768,8.7361e-05,0.0080555,-0.00026816,-2671.2,0.77882
11244,12.675,3.6364,0.05,8.3601e-07,8.3543,6.4195e-07,4.8234,-7.3081e-14,-7.8793e-07,-6.4195e-07,-4.8234,0.78888
11245,12.675,3.3636,0,0.00026638,2661.9,9.0103e-05,26.358,8.6596e-05,0.0078027,-0.00026592,-2648.6,0.78915
11246,12.583,3.4545,0,0.00026863,2684.5,9.0745e-05,25.135,8.7401e-05,0.0077346,-0.00026819,-2671.8,0.779
11247,12.675,3.4545,0.05,8.3092e-07,8.3034,6.3804e-07,4.794,-5.8788e-14,-1.158e-06,-6.3804e-07,-4.794,0.78906
11248,12.675,3.1818,0,0.00026639,2662,9.0074e-05,25.963,8.662e-05,0.0076424,-0.00026594,-2649,0.78923
11249,12.583,3.2727,0,0.00026865,2684.6,9.0711e-05,24.666,8.7429e-05,0.0075201,-0.00026822,-2672.2,0.77912
11250,12.675,3.2727,0.05,8.2738e-07,8.2681,6.3532e-07,4.7736,-3.782e-14,-2.1961e-06,-6.3532e-07,-4.7736,0.78918
11251,12.675,3,0,0.00026639,2662.1,9.0064e-05,25.826,8.6628e-05,0.0075904,-0.00026594,-2649.1,0.78926
11252,12.583,3.0909,0,0.00026865,2684.7,9.0693e-05,24.417,8.7444e-05,0.007414,-0.00026823,-2672.4,0.77918
11253,12.675,3.0909,0.05,8.2556e-07,8.2499,6.3393e-07,4.7631,-1.3556e-14,-2.247e-06,-6.3393e-07,-4.7631,0.78924
11254,12.675,2.8182,0,0.00026639,2662,9.0074e-05,25.963,8.662e-05,0.0076426,-0.00026594,-2649,0.78923
11255,12.583,2.9091,0,0.00026865,2684.7,9.0693e-05,24.417,8.7444e-05,0.0074141,-0.00026823,-2672.4,0.77918
11256,12.675,2.9091,0.05,8.2556e-07,8.2499,6.3393e-07,4.7631,-1.8048e-12,-2.5162e-06,-6.3393e-07,-4.7631,0.78924
11257,12.675,2.6364,0,0.00026638,2661.9,9.0103e-05,26.358,8.6596e-05,0.0078028,-0.00026592,-2648.6,0.78915
11258,12.583,2.7273,0,0.00026865,2684.6,9.0711e-05,24.666,8.7429e-05,0.0075202,-0.00026822,-2672.2,0.77912
11259,12.675,2.7273,0.05,8.2738e-07,8.2681,6.3532e-07,4.7736,4.2565e-14,-2.528e-06,-6.3532e-07,-4.7735,0.78918
11260,12.675,2.4545,0,0.00026635,2661.7,9.0145e-05,26.964,8.6557e-05,0.0080778,-0.00026588,-2648.1,0.789
11261,12.583,2.5455,0,0.00026863,2684.5,9.0745e-05,25.135,8.7401e-05,0.0077347,-0.00026819,-2671.8,0.779
11262,12.675,2.5455,0.05,8.3092e-07,8.3034,6.3804e-07,4.794,-2.6547e-12,-3.2849e-06,-6.3804e-07,-4.794,0.78906
11263,12.675,2.2727,0,0.00026631,2661.3,9.0193e-05,27.705,8.6507e-05,0.0084645,-0.00026583,-2647.3,0.78879
11264,12.583,2.3636,0,0.00026861,2684.2,9.079e-05,25.769,8.7361e-05,0.0080553,-0.00026816,-2671.2,0.77882
11265,12.675,2.3636,0.05,8.3601e-07,8.3543,6.4196e-07,4.8234,-1.722e-12,-3.3385e-06,-6.4195e-07,-4.8234,0.78888
11266,12.675,2.0909,0,0.00026625,2660.6,9.0238e-05,28.485,8.6448e-05,0.0089585,-0.00026575,-2646.3,0.78852
11267,12.583,2.1818,0,0.00026857,2683.8,9.0836e-05,26.485,8.7312e-05,0.0084647,-0.0002681,-2670.5,0.77858
11268,12.675,2.1818,0.05,8.4243e-07,8.4185,6.4688e-07,4.8604,-1.7148e-12,-3.7379e-06,-6.4688e-07,-4.8604,0.78864
11269,12.675,1.9091,0,0.00026616,2659.8,9.0268e-05,29.189,8.6384e-05,0.0094207,-0.00026565,-2645.1,0.78819
11270,12.583,2,0,0.00026851,2683.2,9.0875e-05,27.188,8.7257e-05,0.0089132,-0.00026803,-2669.5,0.77828
11271,12.675,2,0.05,8.4988e-07,8.4929,6.526e-07,4.9034,-3.5265e-12,-3.7146e-06,-6.526e-07,-4.9034,0.78834
11272,12.675,1.7273,0,0.00026605,2658.6,9.0272e-05,29.695,8.6321e-05,0.0098208,-0.00026553,-2643.7,0.78781
11273,12.583,1.8182,0,0.00026842,2682.4,9.0895e-05,27.767,8.7201e-05,0.0093178,-0.00026794,-2668.4,0.77792
11274,12.675,1.8182,0.05,8.5805e-07,8.5746,6.5888e-07,4.9506,-2.6252e-12,-3.3179e-06,-6.5887e-07,-4.9506,0.78798
11275,12.675,1.5455,0,0.0002659,2657.1,9.0238e-05,29.883,8.6263e-05,0.009991,-0.00026538,-2642.1,0.78736
11276,12.583,1.6364,0,0.00026831,2681.2,9.0887e-05,28.111,8.7147e-05,0.0095635,-0.00026782,-2667.1,0.7775
11277,12.675,1.6364,0.05,8.6663e-07,8.6603,6.6546e-07,5.0001,-3.5642e-12,-3.4879e-06,-6.6546e-07,-5,0.78757
11278,12.675,1.3636,0,0.00026571,2655.3,9.0157e-05,29.637,8.6214e-05,0.0097548,-0.00026519,-2640.3,0.78685
11279,12.583,1.4545,0,0.00026816,2679.8,9.0839e-05,28.109,8.7099e-05,0.0094947,-0.00026767,-2665.6,0.77702
11280,12.675,1.4545,0.05,8.7527e-07,8.7467,6.721e-07,5.0499,-8.709e-13,-3.0621e-06,-6.7209e-07,-5.0498,0.78709
11281,12.675,1.1818,0,0.00026549,2653.1,9.0019e-05,28.863,8.6179e-05,0.0088551,-0.00026499,-2638.5,0.78629
11282,12.583,1.2727,0,0.00026799,2678,9.0743e-05,27.665,8.7062e-05,0.0089353,-0.00026751,-2664.1,0.77648
11283,12.675,1.2727,0.05,8.8366e-07,8.8305,6.7855e-07,5.0984,-3.6435e-12,-2.6664e-06,-6.7854e-07,-5.0982,0.78656
11284,12.675,1,0,0.00026523,2650.5,8.9819e-05,27.487,8.6162e-05,0.0071064,-0.00026475,-2636.6,0.78566
11285,12.583,1.0909,0,0.00026778,2675.9,9.0593e-05,26.701,8.7041e-05,0.0075807,-0.00026731,-2662.5,0.77588
11286,12.675,1.0909,0.05,8.915e-07,8.9088,6.8456e-07,5.1436,-3.6845e-12,-2.0127e-06,-6.8456e-07,-5.1435,0.78596
11287,12.675,0.81818,0,0.00026494,2647.6,8.9556e-05,25.467,8.6167e-05,0.0036528,-0.0002645,-2634.8,0.78498
11288,12.583,0.90909,0,0.00026753,2673.5,9.0386e-05,25.164,8.7037e-05,0.0053606,-0.0002671,-2660.8,0.77522
11289,12.675,0.90909,0.05,8.9847e-07,8.9785,6.8992e-07,5.1838,-3.7195e-12,-1.8749e-06,-6.8991e-07,-5.1837,0.78531
11290,12.675,0.63636,0,0.00026463,2644.5,8.9231e-05,22.801,8.6196e-05,-0.00033874,-0.00026423,-2633,0.78424
11291,12.583,0.72727,0,0.00026727,2670.8,9.012e-05,23.032,8.7055e-05,0.00078849,-0.00026687,-2659.2,0.7745
11292,12.675,0.72727,0.05,9.0414e-07,9.0352,6.9428e-07,5.2165,-3.7386e-12,-1.5047e-06,-6.9427e-07,-5.2164,0.78459
11293,12.675,0.45455,0,0.00026431,2641.3,8.8854e-05,19.543,8.6251e-05,-0.016055,-0.00026397,-2631.5,0.78343
11294,12.583,0.54545,0,0.00026698,2668,8.9801e-05,20.322,8.7096e-05,-0.0024966,-0.00026663,-2657.8,0.77372
11295,12.675,0.54545,0.05,9.0566e-07,9.0504,6.9544e-07,5.2253,-3.6825e-12,1.2312e-07,-6.9543e-07,-5.2252,0.78382
11296,12.675,0.27273,0,0.00026407,2638.9,8.8501e-05,16.262,8.6334e-05,-0.021665,-0.00026379,-2630.7,0.78257
11297,12.583,0.36364,0,0.0002667,2665.2,8.9444e-05,17.13,8.716e-05,-0.028733,-0.00026641,-2656.6,0.77289
11298,12.675,0.36364,0.05,8.6337e-07,8.6278,6.6297e-07,4.9813,-3.6384e-12,1.8338e-06,-6.6296e-07,-4.9812,0.78299
11299,12.583,0.18182,0,0.0002666,2664.1,8.9192e-05,14.551,8.7254e-05,-0.007107,-0.00026634,-2656.8,0.77199
11300,12.675,0.18182,0.05,1.8395e-07,1.8382,1.4125e-07,1.0614,-1.2596e-12,2.7766e-05,-1.4125e-07,-1.0612,0.7821
11301,12.675,0.090909,0,0.00026334,2631.6,8.7686e-05,9.3971,8.6435e-05,-0.0040948,-0.00026318,-2626.8,0.78166
11302,12.491,5.7273,0,0.00026922,2690.3,9.0122e-05,15.328,8.808e-05,-0.018515,-0.00026895,-2682.6,0.76237
11303,12.399,5.8182,0,0.00027177,2715.8,9.0854e-05,14.026,8.8987e-05,-0.0050932,-0.00027152,-2708.7,0.75187
11304,12.491,5.8182,0.05,1.6049e-07,1.6038,1.2323e-07,0.92588,3.1349e-13,-1.8888e-05,-1.2324e-07,-0.92598,0.76189
11305,12.491,5.9091,0,0.00026854,2683.6,8.9382e-05,9.1242,8.8167e-05,-0.0037479,-0.00026839,-2679,0.76143
11306,12.491,5.5455,0,0.00026938,2691.9,9.0388e-05,17.88,8.8006e-05,-0.014419,-0.00026907,-2682.9,0.76324
11307,12.399,5.6364,0,0.0002718,2716.1,9.1019e-05,15.857,8.8905e-05,-0.025091,-0.00027153,-2708.2,0.75277
11308,12.491,5.6364,0.05,8.5473e-07,8.5414,6.5632e-07,4.9313,3.6507e-12,2.5286e-06,-6.5633e-07,-4.9314,0.76279
11309,12.491,5.3636,0,0.00026962,2694.3,9.0688e-05,20.53,8.7956e-05,-0.00084368,-0.00026926,-2684,0.76405
11310,12.399,5.4545,0,0.00027201,2718.2,9.1299e-05,18.418,8.8848e-05,-0.0027446,-0.00027169,-2708.9,0.75362
11311,12.491,5.4545,0.05,8.9873e-07,8.9811,6.9011e-07,5.1852,1.878e-12,3.8335e-06,-6.9011e-07,-5.1853,0.76363
11312,12.491,5.1818,0,0.00026986,2696.7,9.0948e-05,22.708,8.7926e-05,0.0028236,-0.00026946,-2685.3,0.7648
11313,12.399,5.2727,0,0.00027222,2720.3,9.1551e-05,20.602,8.8809e-05,0.00026552,-0.00027186,-2709.9,0.75441
11314,12.491,5.2727,0.05,8.9844e-07,8.9782,6.8989e-07,5.1835,3.696e-12,2.4241e-06,-6.8989e-07,-5.1836,0.76441
11315,12.491,5,0,0.00027008,2698.9,9.1158e-05,24.36,8.7916e-05,0.0060391,-0.00026965,-2686.6,0.7655
11316,12.399,5.0909,0,0.00027242,2722.3,9.176e-05,22.321,8.879e-05,0.0044362,-0.00027203,-2711.1,0.75514
11317,12.491,5.0909,0.05,8.942e-07,8.9358,6.8663e-07,5.159,3.6865e-12,2.2841e-06,-6.8664e-07,-5.1591,0.76514
11318,12.491,4.8182,0,0.00027027,2700.8,9.1316e-05,25.486,8.7925e-05,0.0077464,-0.00026983,-2688,0.76613
11319,12.399,4.9091,0,0.0002726,2724.1,9.1922e-05,23.556,8.8788e-05,0.0065532,-0.00027219,-2712.2,0.75581
11320,12.491,4.9091,0.05,8.8886e-07,8.8824,6.8253e-07,5.1282,9.4262e-13,1.4774e-06,-6.8254e-07,-5.1283,0.7658
11321,12.491,4.6364,0,0.00027044,2702.5,9.1423e-05,26.121,8.7948e-05,0.0087367,-0.00026998,-2689.3,0.7667
11322,12.399,4.7273,0,0.00027275,2725.6,9.2037e-05,24.325,8.8801e-05,0.0079169,-0.00027233,-2713.4,0.75642
11323,12.491,4.7273,0.05,8.8281e-07,8.822,6.7789e-07,5.0933,1.8301e-12,3.1506e-07,-6.7789e-07,-5.0934,0.7664
11324,12.491,4.4545,0,0.00027057,2703.9,9.1485e-05,26.321,8.7983e-05,0.0090972,-0.00027012,-2690.6,0.76722
11325,12.399,4.5455,0,0.00027288,2726.9,9.2108e-05,24.67,8.8826e-05,0.0085657,-0.00027245,-2714.5,0.75696
11326,12.491,4.5455,0.05,8.763e-07,8.7569,6.7289e-07,5.0558,8.9638e-13,8.5167e-07,-6.7289e-07,-5.0558,0.76695
11327,12.491,4.2727,0,0.00027068,2704.9,9.1508e-05,26.167,8.8026e-05,0.00907,-0.00027023,-2691.8,0.76767
11328,12.399,4.3636,0,0.00027298,2727.9,9.2141e-05,24.655,8.8861e-05,0.0087577,-0.00027255,-2715.5,0.75745
11329,12.491,4.3636,0.05,8.6958e-07,8.6898,6.6773e-07,5.0171,8.7364e-13,-4.9219e-07,-6.6773e-07,-5.0171,0.76743
11330,12.491,4.0909,0,0.00027076,2705.8,9.15e-05,25.751,8.8074e-05,0.008807,-0.00027031,-2692.8,0.76806
11331,12.399,4.1818,0,0.00027306,2728.7,9.2142e-05,24.358,8.8901e-05,0.0086446,-0.00027264,-2716.4,0.75787
11332,12.491,4.1818,0.05,8.6291e-07,8.6232,6.6261e-07,4.9786,8.6294e-13,-8.504e-07,-6.6261e-07,-4.9786,0.76785
11333,12.491,3.9091,0,0.00027082,2706.3,9.1471e-05,25.173,8.8122e-05,0.0084337,-0.00027038,-2693.7,0.76839
11334,12.399,4,0,0.00027312,2729.3,9.212e-05,23.87,8.8944e-05,0.0083604,-0.0002727,-2717.2,0.75824
11335,12.491,4,0.05,8.5656e-07,8.5597,6.5773e-07,4.9419,8.4718e-13,-9.1794e-07,-6.5773e-07,-4.9419,0.76821
11336,12.491,3.7273,0,0.00027086,2706.7,9.1431e-05,24.533,8.8167e-05,0.0080447,-0.00027043,-2694.4,0.76867
11337,12.399,3.8182,0,0.00027315,2729.6,9.2083e-05,23.283,8.8985e-05,0.0080078,-0.00027275,-2717.9,0.75854
11338,12.491,3.8182,0.05,8.5077e-07,8.5018,6.5328e-07,4.9085,-5.9677e-14,-1.4364e-06,-6.5329e-07,-4.9085,0.76852
11339,12.491,3.5455,0,0.00027089,2707,9.1388e-05,23.924,8.8205e-05,0.007705,-0.00027047,-2694.9,0.76888
11340,12.399,3.6364,0,0.00027318,2729.9,9.2041e-05,22.687,8.9023e-05,0.0076646,-0.00027278,-2718.5,0.75879
11341,12.491,3.6364,0.05,8.4579e-07,8.4521,6.4946e-07,4.8798,-5.6779e-14,-4.3713e-07,-6.4946e-07,-4.8798,0.76876
11342,12.491,3.3636,0,0.0002709,2707.1,9.1352e-05,23.427,8.8235e-05,0.0074501,-0.00027049,-2695.3,0.76903
11343,12.399,3.4545,0,0.00027319,2730,9.2002e-05,22.161,8.9054e-05,0.0073819,-0.00027281,-2718.9,0.75897
11344,12.491,3.4545,0.05,8.4184e-07,8.4126,6.4643e-07,4.857,-4.5859e-14,-1.3183e-06,-6.4643e-07,-4.857,0.76894
11345,12.491,3.1818,0,0.00027091,2707.2,9.1327e-05,23.103,8.8253e-05,0.0072947,-0.00027051,-2695.6,0.76912
11346,12.399,3.2727,0,0.0002732,2730.1,9.1972e-05,21.772,8.9075e-05,0.0071841,-0.00027282,-2719.1,0.75909
11347,12.491,3.2727,0.05,8.391e-07,8.3852,6.4433e-07,4.8412,-9.4031e-13,-1.8951e-06,-6.4433e-07,-4.8412,0.76906
11348,12.491,3,0,0.00027091,2707.2,9.1319e-05,22.991,8.826e-05,0.0072428,-0.00027051,-2695.7,0.76915
11349,12.399,3.0909,0,0.0002732,2730.1,9.1956e-05,21.565,8.9086e-05,0.0070831,-0.00027283,-2719.3,0.75915
11350,12.491,3.0909,0.05,8.377e-07,8.3712,6.4325e-07,4.8331,-9.2027e-13,-2.2274e-06,-6.4325e-07,-4.8331,0.76912
11351,12.491,2.8182,0,0.00027091,2707.2,9.1327e-05,23.103,8.8253e-05,0.0072948,-0.00027051,-2695.6,0.76912
11352,12.399,2.9091,0,0.0002732,2730.1,9.1956e-05,21.565,8.9086e-05,0.0070831,-0.00027283,-2719.3,0.75915
11353,12.491,2.9091,0.05,8.377e-07,8.3712,6.4325e-07,4.8331,-8.9825e-13,-2.0618e-06,-6.4325e-07,-4.8331,0.76912
11354,12.491,2.6364,0,0.0002709,2707.1,9.1352e-05,23.427,8.8235e-05,0.0074502,-0.00027049,-2695.3,0.76903
11355,12.399,2.7273,0,0.0002732,2730.1,9.1972e-05,21.772,8.9075e-05,0.0071839,-0.00027282,-2719.1,0.75909
11356,12.491,2.7273,0.05,8.391e-07,8.3852,6.4432e-07,4.8413,-1.7858e-12,-2.1305e-06,-6.4433e-07,-4.8412,0.76906
11357,12.491,2.4545,0,0.00027089,2707,9.1388e-05,23.924,8.8205e-05,0.0077047,-0.00027047,-2694.9,0.76888
11358,12.399,2.5455,0,0.00027319,2730,9.2002e-05,22.161,8.9054e-05,0.007382,-0.00027281,-2718.9,0.75897
11359,12.491,2.5455,0.05,8.4184e-07,8.4126,6.4643e-07,4.857,-8.5596e-13,-3.173e-06,-6.4643e-07,-4.857,0.76894
11360,12.491,2.2727,0,0.00027086,2706.7,9.1431e-05,24.533,8.8167e-05,0.0080447,-0.00027043,-2694.4,0.76867
11361,12.399,2.3636,0,0.00027318,2729.9,9.2041e-05,22.687,8.9023e-05,0.0076648,-0.00027278,-2718.5,0.75879
11362,12.491,2.3636,0.05,8.4579e-07,8.4521,6.4947e-07,4.8799,-1.7483e-12,-2.7792e-06,-6.4946e-07,-4.8797,0.76876
11363,12.491,2.0909,0,0.00027082,2706.3,9.1471e-05,25.173,8.8122e-05,0.008434,-0.00027038,-2693.7,0.76839
11364,12.399,2.1818,0,0.00027315,2729.6,9.2083e-05,23.283,8.8985e-05,0.0080083,-0.00027275,-2717.9,0.75854
11365,12.491,2.1818,0.05,8.5077e-07,8.5018,6.5329e-07,4.9086,-1.7399e-12,-2.7383e-06,-6.5328e-07,-4.9085,0.76852
11366,12.491,1.9091,0,0.00027076,2705.8,9.15e-05,25.751,8.8074e-05,0.008807,-0.00027031,-2692.8,0.76806
11367,12.399,2,0,0.00027312,2729.3,9.212e-05,23.87,8.8944e-05,0.0083605,-0.0002727,-2717.2,0.75824
11368,12.491,2,0.05,8.5656e-07,8.5597,6.5773e-07,4.942,-3.5571e-12,-2.9686e-06,-6.5773e-07,-4.9419,0.76821
11369,12.491,1.7273,0,0.00027068,2704.9,9.1508e-05,26.167,8.8026e-05,0.0090704,-0.00027023,-2691.8,0.76767
11370,12.399,1.8182,0,0.00027306,2728.7,9.2142e-05,24.358,8.8901e-05,0.0086447,-0.00027264,-2716.4,0.75787
11371,12.491,1.8182,0.05,8.6291e-07,8.6232,6.6261e-07,4.9786,-2.6592e-12,-2.8288e-06,-6.6261e-07,-4.9786,0.76785
11372,12.491,1.5455,0,0.00027057,2703.9,9.1485e-05,26.321,8.7983e-05,0.009098,-0.00027012,-2690.6,0.76722
11373,12.399,1.6364,0,0.00027298,2727.9,9.2141e-05,24.655,8.8861e-05,0.0087586,-0.00027255,-2715.5,0.75745
11374,12.491,1.6364,0.05,8.6958e-07,8.6898,6.6773e-07,5.0171,-2.6793e-12,-2.5148e-06,-6.6773e-07,-5.017,0.76743
11375,12.491,1.3636,0,0.00027044,2702.5,9.1423e-05,26.121,8.7948e-05,0.0087374,-0.00026998,-2689.3,0.7667
11376,12.399,1.4545,0,0.00027288,2726.9,9.2108e-05,24.67,8.8826e-05,0.0085663,-0.00027245,-2714.5,0.75696
11377,12.491,1.4545,0.05,8.763e-07,8.7569,6.7289e-07,5.0558,-2.7102e-12,-1.78e-06,-6.7289e-07,-5.0558,0.76695
11378,12.491,1.1818,0,0.00027027,2700.8,9.1316e-05,25.486,8.7925e-05,0.0077463,-0.00026983,-2688,0.76613
11379,12.399,1.2727,0,0.00027275,2725.6,9.2037e-05,24.325,8.8801e-05,0.0079176,-0.00027233,-2713.4,0.75642
11380,12.491,1.2727,0.05,8.8281e-07,8.822,6.7789e-07,5.0934,-3.6528e-12,-1.5306e-06,-6.7789e-07,-5.0933,0.7664
11381,12.491,1,0,0.00027008,2698.9,9.1158e-05,24.36,8.7916e-05,0.0060399,-0.00026965,-2686.6,0.7655
11382,12.399,1.0909,0,0.0002726,2724.1,9.1922e-05,23.556,8.8788e-05,0.0065537,-0.00027219,-2712.2,0.75581
11383,12.491,1.0909,0.05,8.8886e-07,8.8824,6.8254e-07,5.1283,-3.686e-12,-1.2538e-06,-6.8253e-07,-5.1282,0.7658
11384,12.491,0.81818,0,0.00026986,2696.7,9.0948e-05,22.708,8.7926e-05,0.0028249,-0.00026946,-2685.3,0.7648
11385,12.399,0.90909,0,0.00027242,2722.3,9.176e-05,22.321,8.879e-05,0.0044371,-0.00027203,-2711.1,0.75514
11386,12.491,0.90909,0.05,8.942e-07,8.9358,6.8664e-07,5.1591,-3.6981e-12,-1.2385e-06,-6.8663e-07,-5.159,0.76514
11387,12.491,0.63636,0,0.00026962,2694.3,9.0688e-05,20.53,8.7955e-05,-0.00084256,-0.00026926,-2684,0.76405
11388,12.399,0.72727,0,0.00027222,2720.3,9.1551e-05,20.602,8.8809e-05,0.00026724,-0.00027186,-2709.9,0.75441
11389,12.491,0.72727,0.05,8.9844e-07,8.9782,6.8989e-07,5.1836,-3.7028e-12,-1.2578e-06,-6.8988e-07,-5.1835,0.76441
11390,12.491,0.45455,0,0.00026938,2691.9,9.0387e-05,17.88,8.8006e-05,-0.014419,-0.00026907,-2682.9,0.76324
11391,12.399,0.54545,0,0.00027201,2718.2,9.1299e-05,18.418,8.8848e-05,-0.0027447,-0.00027169,-2708.9,0.75362
11392,12.491,0.54545,0.05,8.9873e-07,8.9811,6.9011e-07,5.1853,-3.6925e-12,-4.5709e-07,-6.9011e-07,-5.1852,0.76363
11393,12.491,0.27273,0,0.00026922,2690.3,9.0122e-05,15.328,8.808e-05,-0.018514,-0.00026895,-2682.6,0.76237
11394,12.399,0.36364,0,0.0002718,2716.1,9.1019e-05,15.857,8.8905e-05,-0.025091,-0.00027153,-2708.2,0.75277
11395,12.491,0.36364,0.05,8.5473e-07,8.5414,6.5633e-07,4.9315,-4.5549e-12,6.5393e-07,-6.5632e-07,-4.9313,0.76279
11396,12.399,0.18182,0,0.00027177,2715.8,9.0854e-05,14.026,8.8987e-05,-0.0050922,-0.00027152,-2708.7,0.75187
11397,12.491,0.18182,0.05,1.6048e-07,1.6037,1.2323e-07,0.92597,-1.2324e-12,2.1128e-05,-1.2323e-07,-0.92587,0.76189
11398,12.491,0.090909,0,0.00026854,2683.6,8.9382e-05,9.1243,8.8167e-05,-0.0037478,-0.00026839,-2679,0.76143
11399,12.308,5.7273,0,0.00027433,2741.4,9.1739e-05,14.465,8.9811e-05,-0.015793,-0.00027409,-2734.2,0.74234
11400,12.216,5.8182,0,0.00027691,2767.2,9.2508e-05,13.523,9.0708e-05,-0.0036264,-0.00027667,-2760.4,0.73192
11401,12.308,5.8182,0.05,1.4137e-07,1.4127,1.0855e-07,0.81558,1.305e-12,-1.2304e-05,-1.0855e-07,-0.81566,0.74185
11402,12.308,5.9091,0,0.00027372,2735.3,9.1066e-05,8.8601,8.9887e-05,-0.00342,-0.00027356,-2730.8,0.74139
11403,12.308,5.5455,0,0.00027442,2742.3,9.1927e-05,16.367,8.9747e-05,-0.012881,-0.00027414,-2734.1,0.74322
11404,12.216,5.6364,0,0.00027687,2766.8,9.2596e-05,14.691,9.0638e-05,-0.021768,-0.00027662,-2759.5,0.73284
11405,12.308,5.6364,0.05,8.4856e-07,8.4798,6.5159e-07,4.8958,3.6684e-12,2.7737e-06,-6.516e-07,-4.8959,0.74276
11406,12.308,5.3636,0,0.0002746,2744.1,9.216e-05,18.467,8.9702e-05,-0.0012147,-0.00027428,-2734.8,0.74405
11407,12.216,5.4545,0,0.00027702,2768.2,9.2808e-05,16.68,9.0587e-05,-0.002856,-0.00027673,-2759.9,0.7337
11408,12.308,5.4545,0.05,8.9395e-07,8.9333,6.8644e-07,5.1576,3.6628e-12,4.1805e-06,-6.8645e-07,-5.1577,0.74362
11409,12.308,5.1818,0,0.00027477,2745.8,9.2361e-05,20.195,8.9673e-05,0.0021331,-0.00027442,-2735.7,0.74481
11410,12.216,5.2727,0,0.00027717,2769.7,9.2999e-05,18.383,9.0552e-05,-0.00011716,-0.00027685,-2760.5,0.7345
11411,12.308,5.2727,0.05,8.9463e-07,8.9401,6.8696e-07,5.1615,2.7699e-12,2.3336e-06,-6.8697e-07,-5.1616,0.74441
11412,12.308,5,0,0.00027493,2747.4,9.2522e-05,21.498,8.9661e-05,0.0051065,-0.00027456,-2736.6,0.74551
11413,12.216,5.0909,0,0.00027731,2771.1,9.3156e-05,19.714,9.0533e-05,0.0036481,-0.00027697,-2761.2,0.73524
11414,12.308,5.0909,0.05,8.9152e-07,8.9091,6.8458e-07,5.1436,1.8724e-12,2.495e-06,-6.8458e-07,-5.1437,0.74515
11415,12.308,4.8182,0,0.00027507,2748.8,9.2641e-05,22.378,8.9664e-05,0.0067955,-0.00027468,-2737.6,0.74615
11416,12.216,4.9091,0,0.00027743,2772.4,9.3276e-05,20.657,9.0528e-05,0.0056651,-0.00027707,-2762,0.73592
11417,12.308,4.9091,0.05,8.8748e-07,8.8687,6.8147e-07,5.1203,2.7652e-12,1.922e-06,-6.8148e-07,-5.1204,0.74582
11418,12.308,4.6364,0,0.00027519,2750,9.272e-05,22.858,8.9679e-05,0.0078019,-0.00027479,-2738.5,0.74674
11419,12.216,4.7273,0,0.00027754,2773.5,9.3359e-05,21.225,9.0535e-05,0.0070161,-0.00027717,-2762.8,0.73654
11420,12.308,4.7273,0.05,8.8285e-07,8.8224,6.7792e-07,5.0936,3.6537e-12,8.2747e-07,-6.7793e-07,-5.0937,0.74643
11421,12.308,4.4545,0,0.00027529,2751,9.2762e-05,22.987,8.9704e-05,0.0082561,-0.00027489,-2739.4,0.74726
11422,12.216,4.5455,0,0.00027763,2774.3,9.3406e-05,21.451,9.0552e-05,0.0077272,-0.00027725,-2763.5,0.73709
11423,12.308,4.5455,0.05,8.7785e-07,8.7724,6.7408e-07,5.0647,3.6335e-12,1.3926e-06,-6.7408e-07,-5.0648,0.74698
11424,12.308,4.2727,0,0.00027536,2751.7,9.2773e-05,22.83,8.9736e-05,0.0083447,-0.00027496,-2740.2,0.74772
11425,12.216,4.3636,0,0.00027769,2775,9.3423e-05,21.388,9.0577e-05,0.0080164,-0.00027732,-2764.2,0.73758
11426,12.308,4.3636,0.05,8.7266e-07,8.7206,6.7009e-07,5.0348,2.7065e-12,-1.7984e-07,-6.701e-07,-5.0348,0.74747
11427,12.308,4.0909,0,0.00027541,2752.2,9.2759e-05,22.462,8.9771e-05,0.0081994,-0.00027502,-2740.9,0.74811
11428,12.216,4.1818,0,0.00027774,2775.5,9.3415e-05,21.101,9.0608e-05,0.0080133,-0.00027737,-2764.9,0.73802
11429,12.308,4.1818,0.05,8.675e-07,8.669,6.6613e-07,5.005,8.7385e-13,-5.1212e-07,-6.6613e-07,-5.0051,0.7479
11430,12.308,3.9091,0,0.00027545,2752.6,9.273e-05,21.965,8.9807e-05,0.0079298,-0.00027506,-2741.5,0.74845
11431,12.216,4,0,0.00027777,2775.8,9.3389e-05,20.663,9.064e-05,0.0078349,-0.00027741,-2765.4,0.73839
11432,12.308,4,0.05,8.6258e-07,8.6199,6.6235e-07,4.9767,8.6545e-13,-8.4492e-07,-6.6235e-07,-4.9767,0.74827
11433,12.308,3.7273,0,0.00027547,2752.8,9.2692e-05,21.421,8.9842e-05,0.0076211,-0.0002751,-2742,0.74873
11434,12.216,3.8182,0,0.00027779,2776,9.3352e-05,20.15,9.0672e-05,0.0075721,-0.00027744,-2765.9,0.73869
11435,12.308,3.8182,0.05,8.581e-07,8.5751,6.5892e-07,4.9508,8.5935e-13,-8.3042e-07,-6.5891e-07,-4.9508,0.74857
11436,12.308,3.5455,0,0.00027548,2752.9,9.2653e-05,20.907,8.9871e-05,0.0073362,-0.00027512,-2742.4,0.74894
11437,12.216,3.6364,0,0.0002778,2776.1,9.3313e-05,19.636,9.07e-05,0.0072963,-0.00027746,-2766.2,0.73894
11438,12.308,3.6364,0.05,8.5425e-07,8.5366,6.5596e-07,4.9286,-4.4859e-14,-1.0914e-07,-6.5596e-07,-4.9286,0.74882
11439,12.308,3.3636,0,0.00027549,2753,9.262e-05,20.49,8.9894e-05,0.0071135,-0.00027513,-2742.7,0.74909
11440,12.216,3.4545,0,0.0002778,2776.1,9.3277e-05,19.186,9.0724e-05,0.0070583,-0.00027747,-2766.5,0.73913
11441,12.308,3.4545,0.05,8.512e-07,8.5061,6.5361e-07,4.911,-3.7643e-14,-3.9103e-08,-6.5361e-07,-4.911,0.749
11442,12.308,3.1818,0,0.00027549,2753,9.2598e-05,20.218,8.9908e-05,0.006973,-0.00027514,-2742.8,0.74918
11443,12.216,3.2727,0,0.00027781,2776.1,9.3249e-05,18.854,9.0741e-05,0.0068856,-0.00027748,-2766.7,0.73925
11444,12.308,3.2727,0.05,8.4908e-07,8.485,6.5199e-07,4.8988,-2.4413e-14,-1.614e-06,-6.5199e-07,-4.8988,0.74912
11445,12.308,3,0,0.00027549,2753,9.2591e-05,20.123,8.9913e-05,0.0069251,-0.00027514,-2742.9,0.74922
11446,12.216,3.0909,0,0.00027781,2776.1,9.3234e-05,18.678,9.0749e-05,0.006796,-0.00027748,-2766.7,0.73931
11447,12.308,3.0909,0.05,8.48e-07,8.4741,6.5116e-07,4.8925,-8.7498e-15,-1.0193e-06,-6.5116e-07,-4.8925,0.74919
11448,12.308,2.8182,0,0.00027549,2753,9.2598e-05,20.218,8.9908e-05,0.0069727,-0.00027514,-2742.8,0.74918
11449,12.216,2.9091,0,0.00027781,2776.1,9.3234e-05,18.678,9.0749e-05,0.0067957,-0.00027748,-2766.7,0.73931
11450,12.308,2.9091,0.05,8.48e-07,8.4741,6.5116e-07,4.8925,-9.0061e-13,-1.1252e-06,-6.5116e-07,-4.8925,0.74919
11451,12.308,2.6364,0,0.00027549,2753,9.262e-05,20.49,8.9894e-05,0.0071134,-0.00027513,-2742.7,0.74909
11452,12.216,2.7273,0,0.00027781,2776.1,9.3249e-05,18.854,9.0741e-05,0.0068857,-0.00027748,-2766.7,0.73925
11453,12.308,2.7273,0.05,8.4908e-07,8.485,6.5199e-07,4.8988,2.6584e-14,-1.4692e-06,-6.5199e-07,-4.8988,0.74912
11454,12.308,2.4545,0,0.00027548,2752.9,9.2653e-05,20.908,8.9871e-05,0.0073368,-0.00027512,-2742.4,0.74894
11455,12.216,2.5455,0,0.0002778,2776.1,9.3277e-05,19.186,9.0724e-05,0.0070585,-0.00027747,-2766.5,0.73913
11456,12.308,2.5455,0.05,8.512e-07,8.5061,6.5362e-07,4.911,-8.6683e-13,-1.8315e-06,-6.5361e-07,-4.911,0.749
11457,12.308,2.2727,0,0.00027547,2752.8,9.2692e-05,21.421,8.9842e-05,0.0076218,-0.0002751,-2742,0.74873
11458,12.216,2.3636,0,0.0002778,2776.1,9.3313e-05,19.636,9.07e-05,0.0072969,-0.00027746,-2766.2,0.73894
11459,12.308,2.3636,0.05,8.5425e-07,8.5366,6.5596e-07,4.9286,-3.5814e-12,-1.7452e-06,-6.5595e-07,-4.9286,0.74882
11460,12.308,2.0909,0,0.00027545,2752.6,9.273e-05,21.965,8.9807e-05,0.00793,-0.00027506,-2741.5,0.74845
11461,12.216,2.1818,0,0.00027779,2776,9.3352e-05,20.15,9.0672e-05,0.0075725,-0.00027744,-2765.9,0.73869
11462,12.308,2.1818,0.05,8.581e-07,8.5751,6.5891e-07,4.9508,-3.5788e-12,-1.9384e-06,-6.5891e-07,-4.9508,0.74857
11463,12.308,1.9091,0,0.00027541,2752.2,9.2759e-05,22.462,8.9771e-05,0.0081995,-0.00027502,-2740.9,0.74811
11464,12.216,2,0,0.00027777,2775.8,9.3389e-05,20.663,9.064e-05,0.0078353,-0.00027741,-2765.4,0.73839
11465,12.308,2,0.05,8.6258e-07,8.6199,6.6236e-07,4.9767,-8.5054e-13,-1.7083e-06,-6.6235e-07,-4.9767,0.74827
11466,12.308,1.7273,0,0.00027536,2751.7,9.2773e-05,22.83,8.9736e-05,0.0083454,-0.00027496,-2740.2,0.74772
11467,12.216,1.8182,0,0.00027774,2775.5,9.3415e-05,21.101,9.0608e-05,0.0080133,-0.00027737,-2764.9,0.73802
11468,12.308,1.8182,0.05,8.675e-07,8.669,6.6614e-07,5.0051,-3.5905e-12,-1.7828e-06,-6.6613e-07,-5.005,0.7479
11469,12.308,1.5455,0,0.00027529,2751,9.2762e-05,22.987,8.9704e-05,0.0082568,-0.00027489,-2739.4,0.74726
11470,12.216,1.6364,0,0.00027769,2775,9.3423e-05,21.388,9.0577e-05,0.008017,-0.00027732,-2764.2,0.73758
11471,12.308,1.6364,0.05,8.7266e-07,8.7206,6.701e-07,5.0348,-3.6061e-12,-1.6843e-06,-6.7009e-07,-5.0348,0.74747
11472,12.308,1.3636,0,0.00027519,2750,9.272e-05,22.858,8.9679e-05,0.0078024,-0.00027479,-2738.5,0.74674
11473,12.216,1.4545,0,0.00027763,2774.3,9.3406e-05,21.451,9.0552e-05,0.0077277,-0.00027725,-2763.5,0.73709
11474,12.308,1.4545,0.05,8.7784e-07,8.7724,6.7408e-07,5.0648,-3.6316e-12,-1.1447e-06,-6.7408e-07,-5.0647,0.74698
11475,12.308,1.1818,0,0.00027507,2748.8,9.2641e-05,22.378,8.9664e-05,0.006796,-0.00027468,-2737.6,0.74615
11476,12.216,1.2727,0,0.00027754,2773.5,9.3359e-05,21.225,9.0535e-05,0.0070165,-0.00027717,-2762.8,0.73654
11477,12.308,1.2727,0.05,8.8285e-07,8.8224,6.7793e-07,5.0937,-3.6561e-12,-8.5883e-07,-6.7792e-07,-5.0936,0.74643
11478,12.308,1,0,0.00027493,2747.4,9.2522e-05,21.498,8.9661e-05,0.0051072,-0.00027456,-2736.6,0.74551
11479,12.216,1.0909,0,0.00027743,2772.4,9.3276e-05,20.657,9.0528e-05,0.0056656,-0.00027707,-2762,0.73592
11480,12.308,1.0909,0.05,8.8748e-07,8.8687,6.8148e-07,5.1204,-3.6833e-12,-4.7279e-07,-6.8147e-07,-5.1203,0.74582
11481,12.308,0.81818,0,0.00027477,2745.8,9.2361e-05,20.195,8.9673e-05,0.0021344,-0.00027442,-2735.7,0.74481
11482,12.216,0.90909,0,0.00027731,2771.1,9.3156e-05,19.714,9.0533e-05,0.0036495,-0.00027697,-2761.2,0.73524
11483,12.308,0.90909,0.05,8.9152e-07,8.9091,6.8458e-07,5.1437,-3.699e-12,-7.2209e-07,-6.8458e-07,-5.1436,0.74515
11484,12.308,0.63636,0,0.0002746,2744.1,9.216e-05,18.467,8.9702e-05,-0.0012142,-0.00027428,-2734.8,0.74405
11485,12.216,0.72727,0,0.00027717,2769.7,9.2999e-05,18.383,9.0552e-05,-0.00011556,-0.00027685,-2760.5,0.7345
11486,12.308,0.72727,0.05,8.9463e-07,8.9401,6.8697e-07,5.1616,-4.6172e-12,-6.7465e-07,-6.8696e-07,-5.1615,0.74441
11487,12.308,0.45455,0,0.00027442,2742.3,9.1927e-05,16.367,8.9747e-05,-0.012881,-0.00027414,-2734.1,0.74322
11488,12.216,0.54545,0,0.00027702,2768.2,9.2808e-05,16.68,9.0587e-05,-0.0028567,-0.00027673,-2759.9,0.7337
11489,12.308,0.54545,0.05,8.9395e-07,8.9333,6.8645e-07,5.1577,-3.6827e-12,-9.8048e-07,-6.8644e-07,-5.1576,0.74362
11490,12.308,0.27273,0,0.00027433,2741.4,9.1739e-05,14.465,8.9811e-05,-0.015792,-0.00027409,-2734.2,0.74234
11491,12.216,0.36364,0,0.00027687,2766.8,9.2596e-05,14.691,9.0638e-05,-0.021768,-0.00027662,-2759.5,0.73284
11492,12.308,0.36364,0.05,8.4856e-07,8.4798,6.516e-07,4.8959,-3.6053e-12,4.5748e-07,-6.5159e-07,-4.8957,0.74276
11493,12.216,0.18182,0,0.00027691,2767.2,9.2508e-05,13.523,9.0708e-05,-0.003625,-0.00027667,-2760.4,0.73192
11494,12.308,0.18182,0.05,1.4137e-07,1.4127,1.0855e-07,0.81567,-5.071e-13,2.7013e-05,-1.0855e-07,-0.81555,0.74185
11495,12.308,0.090909,0,0.00027372,2735.3,9.1066e-05,8.8601,8.9887e-05,-0.0034189,-0.00027356,-2730.8,0.74139
11496,12.124,5.7273,0,0.00027943,2792.4,9.3353e-05,13.66,9.1534e-05,-0.013389,-0.0002792,-2785.5,0.72249
11497,12.032,5.8182,0,0.00028203,2818.3,9.4157e-05,13.037,9.2422e-05,-0.0025631,-0.0002818,-2811.8,0.71217
11498,12.124,5.8182,0.05,1.2593e-07,1.2584,9.6695e-08,0.7265,1.3761e-12,-1.5738e-05,-9.67e-08,-0.7266,0.722
11499,12.124,5.9091,0,0.00027886,2786.7,9.2743e-05,8.6011,9.1598e-05,-0.0030688,-0.00027871,-2782.4,0.72153
11500,12.124,5.5455,0,0.00027946,2792.7,9.3473e-05,14.977,9.1478e-05,-0.011383,-0.0002792,-2785.2,0.72339
11501,12.032,5.6364,0,0.00028194,2817.4,9.4176e-05,13.609,9.2362e-05,-0.018682,-0.0002817,-2810.6,0.7131
11502,12.124,5.6364,0.05,8.4439e-07,8.4381,6.4839e-07,4.8717,3.6258e-12,2.6221e-06,-6.4839e-07,-4.8718,0.72293
11503,12.124,5.3636,0,0.00027958,2793.8,9.3644e-05,16.573,9.1438e-05,-0.00143,-0.00027929,-2785.5,0.72423
11504,12.032,5.4545,0,0.00028202,2818.3,9.4326e-05,15.077,9.2319e-05,-0.0028247,-0.00028176,-2810.7,0.71397
11505,12.124,5.4545,0.05,8.909e-07,8.9029,6.841e-07,5.14,3.6687e-12,4.0318e-06,-6.8411e-07,-5.1402,0.72379
11506,12.124,5.1818,0,0.00027969,2795,9.3792e-05,17.882,9.1412e-05,0.0016051,-0.00027939,-2786,0.725
11507,12.032,5.2727,0,0.00028212,2819.2,9.4462e-05,16.334,9.2288e-05,-0.00035245,-0.00028183,-2811,0.71478
11508,12.124,5.2727,0.05,8.9235e-07,8.9173,6.8521e-07,5.1484,2.7728e-12,2.1517e-06,-6.8521e-07,-5.1485,0.7246
11509,12.124,5,0,0.0002798,2796.1,9.3908e-05,18.854,9.1399e-05,0.004337,-0.00027948,-2786.6,0.72571
11510,12.032,5.0909,0,0.00028221,2820.1,9.4572e-05,17.299,9.227e-05,0.0030243,-0.00028191,-2811.4,0.71553
11511,12.124,5.0909,0.05,8.9014e-07,8.8953,6.8351e-07,5.1356,1.862e-12,1.8643e-06,-6.8352e-07,-5.1357,0.72534
11512,12.124,4.8182,0,0.00027989,2797,9.3991e-05,19.486,9.1399e-05,0.0059669,-0.00027956,-2787.2,0.72636
11513,12.032,4.9091,0,0.00028228,2820.9,9.4653e-05,17.956,9.2263e-05,0.0049286,-0.00028197,-2811.9,0.71622
11514,12.124,4.9091,0.05,8.8713e-07,8.8652,6.812e-07,5.1183,2.7618e-12,1.5701e-06,-6.8121e-07,-5.1183,0.72602
11515,12.124,4.6364,0,0.00027997,2797.8,9.4043e-05,19.801,9.1408e-05,0.0069905,-0.00027963,-2787.8,0.72695
11516,12.032,4.7273,0,0.00028235,2821.5,9.4704e-05,18.316,9.2267e-05,0.0062497,-0.00028203,-2812.3,0.71684
11517,12.124,4.7273,0.05,8.8363e-07,8.8302,6.7852e-07,5.0981,1.8372e-12,6.2019e-07,-6.7852e-07,-5.0981,0.72664
11518,12.124,4.4545,0,0.00028003,2798.4,9.4065e-05,19.835,9.1426e-05,0.0075152,-0.00027969,-2788.4,0.72748
11519,12.032,4.5455,0,0.0002824,2822.1,9.4728e-05,18.407,9.2279e-05,0.0070016,-0.00028208,-2812.8,0.71741
11520,12.124,4.5455,0.05,8.7982e-07,8.7921,6.7559e-07,5.0761,9.0914e-13,1.3085e-06,-6.7559e-07,-5.0761,0.7272
11521,12.124,4.2727,0,0.00028007,2798.8,9.4063e-05,19.643,9.145e-05,0.0076984,-0.00027973,-2788.9,0.72795
11522,12.032,4.3636,0,0.00028244,2822.4,9.4728e-05,18.27,9.2298e-05,0.0073673,-0.00028212,-2813.2,0.71791
11523,12.124,4.3636,0.05,8.7584e-07,8.7524,6.7254e-07,5.0532,3.6216e-12,2.4727e-07,-6.7254e-07,-5.0532,0.7277
11524,12.124,4.0909,0,0.0002801,2799.1,9.4042e-05,19.286,9.1476e-05,0.007653,-0.00027977,-2789.4,0.72835
11525,12.032,4.1818,0,0.00028246,2822.6,9.471e-05,17.96,9.2321e-05,0.0074561,-0.00028215,-2813.6,0.71834
11526,12.124,4.1818,0.05,8.7188e-07,8.7128,6.695e-07,5.0303,-2.9664e-14,-6.9279e-07,-6.695e-07,-5.0303,0.72813
11527,12.124,3.9091,0,0.00028011,2799.2,9.401e-05,18.832,9.1504e-05,0.007476,-0.00027979,-2789.7,0.72869
11528,12.032,4,0,0.00028247,2822.7,9.4678e-05,17.537,9.2345e-05,0.0073696,-0.00028217,-2813.9,0.71872
11529,12.124,4,0.05,8.681e-07,8.675,6.6659e-07,5.0085,1.7837e-12,-7.3923e-07,-6.6659e-07,-5.0085,0.72851
11530,12.124,3.7273,0,0.00028012,2799.3,9.3971e-05,18.349,9.153e-05,0.007244,-0.0002798,-2790.1,0.72897
11531,12.032,3.8182,0,0.00028247,2822.8,9.464e-05,17.063,9.237e-05,0.0071887,-0.00028218,-2814.2,0.71903
11532,12.124,3.8182,0.05,8.6465e-07,8.6405,6.6394e-07,4.9886,1.7785e-12,-7.7517e-07,-6.6394e-07,-4.9886,0.72882
11533,12.124,3.5455,0,0.00028012,2799.3,9.3934e-05,17.898,9.1553e-05,0.0070152,-0.00027981,-2790.3,0.72919
11534,12.032,3.6364,0,0.00028247,2822.7,9.46e-05,16.598,9.2392e-05,0.0069782,-0.00028218,-2814.4,0.71928
11535,12.124,3.6364,0.05,8.6168e-07,8.6109,6.6166e-07,4.9715,-3.718e-14,-4.8794e-08,-6.6166e-07,-4.9715,0.72907
11536,12.124,3.3636,0,0.00028012,2799.3,9.3903e-05,17.534,9.1571e-05,0.0068287,-0.00027982,-2790.5,0.72934
11537,12.032,3.4545,0,0.00028246,2822.7,9.4565e-05,16.196,9.241e-05,0.0067862,-0.00028219,-2814.6,0.71947
11538,12.124,3.4545,0.05,8.5933e-07,8.5874,6.5986e-07,4.9579,-3.0702e-14,-2.3915e-07,-6.5986e-07,-4.9579,0.72925
11539,12.124,3.1818,0,0.00028012,2799.3,9.3883e-05,17.298,9.1582e-05,0.0067084,-0.00027982,-2790.6,0.72944
11540,12.032,3.2727,0,0.00028246,2822.6,9.4539e-05,15.902,9.2423e-05,0.0066421,-0.00028219,-2814.7,0.71959
11541,12.124,3.2727,0.05,8.577e-07,8.5711,6.5861e-07,4.9485,-9.2957e-13,-1.4644e-06,-6.5861e-07,-4.9485,0.72938
11542,12.124,3,0,0.00028012,2799.3,9.3876e-05,17.216,9.1586e-05,0.006667,-0.00027982,-2790.6,0.72947
11543,12.032,3.0909,0,0.00028246,2822.6,9.4525e-05,15.747,9.243e-05,0.0065663,-0.00028219,-2814.7,0.71966
11544,12.124,3.0909,0.05,8.5687e-07,8.5628,6.5797e-07,4.9438,-1.8262e-12,-6.5008e-07,-6.5797e-07,-4.9437,0.72944
11545,12.124,2.8182,0,0.00028012,2799.3,9.3883e-05,17.298,9.1582e-05,0.0067085,-0.00027982,-2790.6,0.72944
11546,12.032,2.9091,0,0.00028246,2822.6,9.4525e-05,15.747,9.243e-05,0.0065661,-0.00028219,-2814.7,0.71966
11547,12.124,2.9091,0.05,8.5687e-07,8.5628,6.5797e-07,4.9438,-1.8116e-12,-6.5986e-07,-6.5797e-07,-4.9437,0.72944
11548,12.124,2.6364,0,0.00028012,2799.3,9.3903e-05,17.534,9.1571e-05,0.0068291,-0.00027982,-2790.5,0.72934
11549,12.032,2.7273,0,0.00028246,2822.6,9.4539e-05,15.902,9.2423e-05,0.0066428,-0.00028219,-2814.7,0.71959
11550,12.124,2.7273,0.05,8.577e-07,8.5711,6.5861e-07,4.9485,-2.7069e-12,-1.0299e-06,-6.5861e-07,-4.9485,0.72938
11551,12.124,2.4545,0,0.00028012,2799.3,9.3934e-05,17.898,9.1553e-05,0.0070154,-0.00027981,-2790.3,0.72919
11552,12.032,2.5455,0,0.00028246,2822.7,9.4565e-05,16.196,9.241e-05,0.0067862,-0.00028219,-2814.6,0.71947
11553,12.124,2.5455,0.05,8.5933e-07,8.5874,6.5986e-07,4.9579,-2.6941e-12,-1.1711e-06,-6.5986e-07,-4.9579,0.72925
11554,12.124,2.2727,0,0.00028012,2799.3,9.3971e-05,18.349,9.153e-05,0.0072443,-0.0002798,-2790.1,0.72897
11555,12.032,2.3636,0,0.00028247,2822.7,9.46e-05,16.598,9.2392e-05,0.0069782,-0.00028218,-2814.4,0.71928
11556,12.124,2.3636,0.05,8.6168e-07,8.6109,6.6167e-07,4.9715,-1.7758e-12,-1.1157e-06,-6.6166e-07,-4.9715,0.72907
11557,12.124,2.0909,0,0.00028011,2799.2,9.401e-05,18.832,9.1504e-05,0.0074767,-0.00027979,-2789.7,0.72869
11558,12.032,2.1818,0,0.00028247,2822.8,9.464e-05,17.063,9.237e-05,0.0071891,-0.00028218,-2814.2,0.71903
11559,12.124,2.1818,0.05,8.6465e-07,8.6405,6.6394e-07,4.9886,-2.6827e-12,-1.5557e-06,-6.6394e-07,-4.9886,0.72882
11560,12.124,1.9091,0,0.0002801,2799.1,9.4042e-05,19.286,9.1476e-05,0.0076533,-0.00027977,-2789.4,0.72835
11561,12.032,2,0,0.00028247,2822.7,9.4678e-05,17.537,9.2345e-05,0.0073702,-0.00028217,-2813.9,0.71872
11562,12.124,2,0.05,8.681e-07,8.675,6.6659e-07,5.0085,-3.5927e-12,-1.5782e-06,-6.6659e-07,-5.0085,0.72851
11563,12.124,1.7273,0,0.00028007,2798.8,9.4063e-05,19.643,9.145e-05,0.0076983,-0.00027973,-2788.9,0.72795
11564,12.032,1.8182,0,0.00028246,2822.6,9.471e-05,17.96,9.2321e-05,0.0074562,-0.00028215,-2813.6,0.71834
11565,12.124,1.8182,0.05,8.7188e-07,8.7128,6.695e-07,5.0304,-1.7832e-12,-1.1719e-06,-6.6949e-07,-5.0303,0.72813
11566,12.124,1.5455,0,0.00028003,2798.4,9.4065e-05,19.835,9.1426e-05,0.0075155,-0.00027969,-2788.4,0.72748
11567,12.032,1.6364,0,0.00028244,2822.4,9.4728e-05,18.27,9.2298e-05,0.0073677,-0.00028212,-2813.2,0.71791
11568,12.124,1.6364,0.05,8.7584e-07,8.7524,6.7254e-07,5.0532,-3.618e-12,-1.0445e-06,-6.7254e-07,-5.0532,0.7277
11569,12.124,1.3636,0,0.00027997,2797.8,9.4043e-05,19.801,9.1408e-05,0.006991,-0.00027963,-2787.8,0.72695
11570,12.032,1.4545,0,0.0002824,2822.1,9.4728e-05,18.407,9.2279e-05,0.0070027,-0.00028208,-2812.8,0.71741
11571,12.124,1.4545,0.05,8.7982e-07,8.7921,6.7559e-07,5.0762,-2.728e-12,-8.3127e-07,-6.7559e-07,-5.0761,0.7272
11572,12.124,1.1818,0,0.00027989,2797,9.3991e-05,19.486,9.1399e-05,0.0059674,-0.00027956,-2787.2,0.72636
11573,12.032,1.2727,0,0.00028235,2821.5,9.4704e-05,18.316,9.2267e-05,0.00625,-0.00028203,-2812.3,0.71684
11574,12.124,1.2727,0.05,8.8363e-07,8.8302,6.7852e-07,5.0982,-3.6587e-12,-6.4034e-07,-6.7852e-07,-5.0981,0.72664
11575,12.124,1,0,0.0002798,2796.1,9.3908e-05,18.854,9.1399e-05,0.0043382,-0.00027948,-2786.6,0.72571
11576,12.032,1.0909,0,0.00028228,2820.9,9.4653e-05,17.956,9.2263e-05,0.0049291,-0.00028197,-2811.9,0.71622
11577,12.124,1.0909,0.05,8.8713e-07,8.8652,6.8121e-07,5.1184,-3.6799e-12,-1.7869e-07,-6.812e-07,-5.1182,0.72602
11578,12.124,0.81818,0,0.00027969,2795,9.3792e-05,17.882,9.1412e-05,0.0016068,-0.00027939,-2786,0.725
11579,12.032,0.90909,0,0.00028221,2820.1,9.4572e-05,17.299,9.227e-05,0.0030254,-0.00028191,-2811.4,0.71553
11580,12.124,0.90909,0.05,8.9014e-07,8.8953,6.8352e-07,5.1357,-3.6896e-12,1.5891e-08,-6.8351e-07,-5.1356,0.72534
11581,12.124,0.63636,0,0.00027958,2793.8,9.3644e-05,16.573,9.1438e-05,-0.0014295,-0.00027929,-2785.5,0.72423
11582,12.032,0.72727,0,0.00028212,2819.2,9.4462e-05,16.335,9.2288e-05,-0.00035071,-0.00028183,-2811,0.71478
11583,12.124,0.72727,0.05,8.9235e-07,8.9173,6.8522e-07,5.1485,-3.7149e-12,-6.243e-07,-6.8521e-07,-5.1483,0.7246
11584,12.124,0.45455,0,0.00027946,2792.7,9.3473e-05,14.977,9.1478e-05,-0.011383,-0.0002792,-2785.2,0.72339
11585,12.032,0.54545,0,0.00028202,2818.3,9.4326e-05,15.077,9.2319e-05,-0.0028246,-0.00028176,-2810.7,0.71397
11586,12.124,0.54545,0.05,8.909e-07,8.9029,6.8411e-07,5.1402,-4.6282e-12,-1.2589e-06,-6.841e-07,-5.14,0.72379
11587,12.124,0.27273,0,0.00027943,2792.4,9.3353e-05,13.66,9.1534e-05,-0.013388,-0.0002792,-2785.5,0.72249
11588,12.032,0.36364,0,0.00028194,2817.4,9.4176e-05,13.61,9.2362e-05,-0.018681,-0.0002817,-2810.6,0.7131
11589,12.124,0.36364,0.05,8.4439e-07,8.4381,6.4839e-07,4.8718,-3.6833e-12,1.3863e-06,-6.4838e-07,-4.8717,0.72293
11590,12.032,0.18182,0,0.00028203,2818.3,9.4157e-05,13.037,9.2422e-05,-0.0025623,-0.0002818,-2811.8,0.71217
11591,12.124,0.18182,0.05,1.2593e-07,1.2584,9.67e-08,0.72659,-2.5115e-12,1.8597e-05,-9.6692e-08,-0.72649,0.722
11592,12.124,0.090909,0,0.00027886,2786.7,9.2743e-05,8.6011,9.1598e-05,-0.0030678,-0.00027871,-2782.4,0.72153
11593,11.94,5.7273,0,0.00028452,2843.2,9.4968e-05,12.897,9.325e-05,-0.011237,-0.0002843,-2836.7,0.70284
11594,11.848,5.8182,0,0.00028713,2869.4,9.5803e-05,12.56,9.4131e-05,-0.0018367,-0.00028692,-2863.1,0.6926
11595,11.94,5.8182,0.05,1.1365e-07,1.1357,8.7271e-08,0.65567,2.342e-12,-1.2792e-05,-8.7273e-08,-0.65578,0.70233
11596,11.94,5.9091,0,0.00028399,2838,9.4414e-05,8.3442,9.3303e-05,-0.0026871,-0.00028385,-2833.8,0.70186
11597,11.94,5.5455,0,0.00028449,2843,9.5025e-05,13.683,9.3203e-05,-0.0099029,-0.00028426,-2836.1,0.70375
11598,11.848,5.6364,0,0.00028699,2867.9,9.576e-05,12.593,9.4082e-05,-0.015808,-0.00028678,-2861.6,0.69354
11599,11.94,5.6364,0.05,8.4183e-07,8.4125,6.4642e-07,4.8569,3.6384e-12,3.1163e-06,-6.4642e-07,-4.857,0.70328
11600,11.94,5.3636,0,0.00028456,2843.6,9.5141e-05,14.816,9.3169e-05,-0.0014993,-0.0002843,-2836.2,0.70459
11601,11.848,5.4545,0,0.00028703,2868.3,9.5853e-05,13.58,9.4045e-05,-0.0026921,-0.00028679,-2861.5,0.69443
11602,11.94,5.4545,0.05,8.8925e-07,8.8864,6.8283e-07,5.1305,3.6809e-12,3.6063e-06,-6.8284e-07,-5.1306,0.70415
11603,11.94,5.1818,0,0.00028462,2844.3,9.5239e-05,15.731,9.3146e-05,0.00123,-0.00028435,-2836.4,0.70538
11604,11.848,5.2727,0,0.00028707,2868.8,9.5939e-05,14.421,9.4019e-05,-0.00048138,-0.00028683,-2861.5,0.69525
11605,11.94,5.2727,0.05,8.913e-07,8.9068,6.844e-07,5.1423,2.7759e-12,1.8439e-06,-6.8441e-07,-5.1424,0.70497
11606,11.94,5,0,0.00028469,2844.9,9.5314e-05,16.382,9.3134e-05,0.0037211,-0.0002844,-2836.7,0.7061
11607,11.848,5.0909,0,0.00028712,2869.2,9.6004e-05,15.036,9.4004e-05,0.00252,-0.00028686,-2861.7,0.69601
11608,11.94,5.0909,0.05,8.898e-07,8.8919,6.8326e-07,5.1337,3.6796e-12,1.7032e-06,-6.8326e-07,-5.1338,0.70573
11609,11.94,4.8182,0,0.00028474,2845.4,9.5363e-05,16.768,9.3132e-05,0.0052781,-0.00028445,-2837,0.70676
11610,11.848,4.9091,0,0.00028716,2869.6,9.6048e-05,15.412,9.3997e-05,0.0043019,-0.00028689,-2861.8,0.69671
11611,11.94,4.9091,0.05,8.8761e-07,8.8699,6.8157e-07,5.121,3.6669e-12,1.0597e-06,-6.8157e-07,-5.1211,0.70642
11612,11.94,4.6364,0,0.00028478,2845.8,9.5387e-05,16.905,9.3138e-05,0.006302,-0.00028448,-2837.3,0.70736
11613,11.848,4.7273,0,0.00028718,2869.9,9.6069e-05,15.558,9.3999e-05,0.0055794,-0.00028692,-2862,0.69734
11614,11.94,4.7273,0.05,8.8501e-07,8.844,6.7958e-07,5.106,1.8346e-12,1.2933e-07,-6.7958e-07,-5.1061,0.70705
11615,11.94,4.4545,0,0.0002848,2846.1,9.5389e-05,16.825,9.3151e-05,0.0068777,-0.00028451,-2837.6,0.7079
11616,11.848,4.5455,0,0.0002872,2870,9.607e-05,15.497,9.4008e-05,0.006356,-0.00028693,-2862.3,0.69791
11617,11.94,4.5455,0.05,8.8214e-07,8.8153,6.7737e-07,5.0895,9.1084e-13,8.4652e-07,-6.7737e-07,-5.0895,0.70761
11618,11.94,4.2727,0,0.00028482,2846.2,9.5373e-05,16.571,9.3169e-05,0.0071378,-0.00028453,-2837.9,0.70837
11619,11.848,4.3636,0,0.00028721,2870.1,9.6053e-05,15.264,9.4023e-05,0.0067807,-0.00028695,-2862.4,0.69842
11620,11.94,4.3636,0.05,8.7913e-07,8.7852,6.7506e-07,5.0722,8.9844e-13,-4.43e-07,-6.7506e-07,-5.0722,0.70812
11621,11.94,4.0909,0,0.00028482,2846.3,9.5344e-05,16.194,9.3189e-05,0.0071781,-0.00028455,-2838.1,0.70878
11622,11.848,4.1818,0,0.00028721,2870.1,9.6023e-05,14.904,9.404e-05,0.0069472,-0.00028695,-2862.6,0.69886
11623,11.94,4.1818,0.05,8.7612e-07,8.7551,6.7275e-07,5.0547,1.7963e-12,-7.692e-07,-6.7275e-07,-5.0548,0.70856
11624,11.94,3.9091,0,0.00028482,2846.3,9.5306e-05,15.751,9.3211e-05,0.0070834,-0.00028455,-2838.4,0.70912
11625,11.848,4,0,0.0002872,2870,9.5984e-05,14.464,9.4059e-05,0.0069408,-0.00028695,-2862.8,0.69924
11626,11.94,4,0.05,8.7323e-07,8.7262,6.7053e-07,5.0381,8.8038e-13,-9.2944e-07,-6.7053e-07,-5.0381,0.70893
11627,11.94,3.7273,0,0.00028482,2846.2,9.5266e-05,15.295,9.3231e-05,0.006922,-0.00028455,-2838.5,0.70941
11628,11.848,3.8182,0,0.00028719,2869.9,9.5941e-05,13.998,9.4079e-05,0.0068334,-0.00028695,-2862.9,0.69956
11629,11.94,3.8182,0.05,8.7059e-07,8.6999,6.685e-07,5.0229,-3.3478e-14,-9.5908e-07,-6.685e-07,-5.0229,0.70925
11630,11.94,3.5455,0,0.00028481,2846.1,9.5229e-05,14.88,9.3249e-05,0.0067479,-0.00028455,-2838.6,0.70963
11631,11.848,3.6364,0,0.00028718,2869.8,9.59e-05,13.555,9.4096e-05,0.0066841,-0.00028694,-2863,0.69981
11632,11.94,3.6364,0.05,8.6832e-07,8.6772,6.6676e-07,5.0098,8.793e-13,1.3362e-07,-6.6676e-07,-5.0098,0.7095
11633,11.94,3.3636,0,0.0002848,2846,9.5198e-05,14.549,9.3263e-05,0.0065989,-0.00028455,-2838.7,0.70978
11634,11.848,3.4545,0,0.00028716,2869.7,9.5864e-05,13.18,9.4111e-05,0.0065373,-0.00028694,-2863,0.7
11635,11.94,3.4545,0.05,8.6652e-07,8.6592,6.6538e-07,4.9994,-2.5277e-14,-1.917e-07,-6.6538e-07,-4.9994,0.70969
11636,11.94,3.1818,0,0.00028479,2846,9.5179e-05,14.336,9.3272e-05,0.0065001,-0.00028455,-2838.8,0.70988
11637,11.848,3.2727,0,0.00028715,2869.6,9.5838e-05,12.908,9.4121e-05,0.0064227,-0.00028693,-2863.1,0.70013
11638,11.94,3.2727,0.05,8.6527e-07,8.6467,6.6442e-07,4.9922,-1.6777e-14,-1.3178e-06,-6.6442e-07,-4.9922,0.70982
11639,11.94,3,0,0.00028479,2846,9.5172e-05,14.262,9.3275e-05,0.0064658,-0.00028455,-2838.8,0.70991
11640,11.848,3.0909,0,0.00028715,2869.5,9.5825e-05,12.765,9.4126e-05,0.0063608,-0.00028693,-2863.1,0.70019
11641,11.94,3.0909,0.05,8.6463e-07,8.6404,6.6393e-07,4.9885,-9.154e-13,-8.7903e-07,-6.6393e-07,-4.9885,0.70988
11642,11.94,2.8182,0,0.00028479,2846,9.5179e-05,14.336,9.3272e-05,0.0065004,-0.00028455,-2838.8,0.70988
11643,11.848,2.9091,0,0.00028715,2869.5,9.5825e-05,12.765,9.4126e-05,0.0063609,-0.00028693,-2863.1,0.70019
11644,11.94,2.9091,0.05,8.6463e-07,8.6404,6.6393e-07,4.9885,-9.0352e-13,-5.51e-07,-6.6393e-07,-4.9885,0.70988
11645,11.94,2.6364,0,0.0002848,2846,9.5198e-05,14.549,9.3263e-05,0.0065992,-0.00028455,-2838.7,0.70978
11646,11.848,2.7273,0,0.00028715,2869.6,9.5838e-05,12.908,9.4121e-05,0.0064231,-0.00028693,-2863.1,0.70013
11647,11.94,2.7273,0.05,8.6527e-07,8.6467,6.6442e-07,4.9922,1.7504e-14,-8.2231e-07,-6.6442e-07,-4.9922,0.70982
11648,11.94,2.4545,0,0.00028481,2846.1,9.5229e-05,14.88,9.3249e-05,0.0067477,-0.00028455,-2838.6,0.70963
11649,11.848,2.5455,0,0.00028716,2869.7,9.5864e-05,13.18,9.4111e-05,0.0065374,-0.00028694,-2863,0.7
11650,11.94,2.5455,0.05,8.6652e-07,8.6592,6.6538e-07,4.9994,2.7835e-14,-8.6258e-07,-6.6538e-07,-4.9994,0.70969
11651,11.94,2.2727,0,0.00028482,2846.2,9.5266e-05,15.295,9.3231e-05,0.0069221,-0.00028455,-2838.5,0.70941
11652,11.848,2.3636,0,0.00028718,2869.8,9.59e-05,13.555,9.4096e-05,0.0066838,-0.00028694,-2863,0.69981
11653,11.94,2.3636,0.05,8.6832e-07,8.6772,6.6676e-07,5.0098,-8.7499e-13,-1.2967e-06,-6.6676e-07,-5.0098,0.7095
11654,11.94,2.0909,0,0.00028482,2846.3,9.5306e-05,15.751,9.3211e-05,0.0070837,-0.00028455,-2838.4,0.70912
11655,11.848,2.1818,0,0.00028719,2869.9,9.5941e-05,13.998,9.4079e-05,0.006834,-0.00028695,-2862.9,0.69956
11656,11.94,2.1818,0.05,8.7059e-07,8.6999,6.6851e-07,5.0229,-8.7337e-13,-1.2667e-06,-6.685e-07,-5.0229,0.70925
11657,11.94,1.9091,0,0.00028482,2846.3,9.5344e-05,16.194,9.3189e-05,0.0071785,-0.00028455,-2838.1,0.70878
11658,11.848,2,0,0.0002872,2870,9.5984e-05,14.464,9.4059e-05,0.0069415,-0.00028695,-2862.8,0.69924
11659,11.94,2,0.05,8.7323e-07,8.7262,6.7053e-07,5.0381,-2.6935e-12,-1.4066e-06,-6.7053e-07,-5.0381,0.70893
11660,11.94,1.7273,0,0.00028482,2846.2,9.5373e-05,16.571,9.3169e-05,0.0071383,-0.00028453,-2837.9,0.70837
11661,11.848,1.8182,0,0.00028721,2870.1,9.6023e-05,14.904,9.404e-05,0.0069474,-0.00028695,-2862.6,0.69886
11662,11.94,1.8182,0.05,8.7612e-07,8.7551,6.7275e-07,5.0548,-1.7931e-12,-1.1063e-06,-6.7274e-07,-5.0547,0.70856
11663,11.94,1.5455,0,0.0002848,2846.1,9.5389e-05,16.825,9.3151e-05,0.0068789,-0.00028451,-2837.6,0.7079
11664,11.848,1.6364,0,0.00028721,2870.1,9.6053e-05,15.264,9.4023e-05,0.0067815,-0.00028695,-2862.4,0.69842
11665,11.94,1.6364,0.05,8.7913e-07,8.7852,6.7507e-07,5.0722,-2.7142e-12,-1.2051e-06,-6.7506e-07,-5.0721,0.70812
11666,11.94,1.3636,0,0.00028478,2845.8,9.5387e-05,16.905,9.3138e-05,0.0063029,-0.00028448,-2837.3,0.70736
11667,11.848,1.4545,0,0.0002872,2870,9.607e-05,15.497,9.4008e-05,0.0063571,-0.00028693,-2862.3,0.69791
11668,11.94,1.4545,0.05,8.8214e-07,8.8153,6.7737e-07,5.0896,-2.7301e-12,-4.8889e-07,-6.7737e-07,-5.0895,0.70761
11669,11.94,1.1818,0,0.00028474,2845.4,9.5363e-05,16.768,9.3132e-05,0.0052785,-0.00028445,-2837,0.70676
11670,11.848,1.2727,0,0.00028718,2869.9,9.6069e-05,15.558,9.3999e-05,0.0055798,-0.00028692,-2862,0.69734
11671,11.94,1.2727,0.05,8.8501e-07,8.844,6.7958e-07,5.1061,-3.657e-12,-3.8717e-07,-6.7957e-07,-5.106,0.70705
11672,11.94,1,0,0.00028469,2844.9,9.5314e-05,16.382,9.3134e-05,0.0037215,-0.0002844,-2836.7,0.7061
11673,11.848,1.0909,0,0.00028716,2869.6,9.6048e-05,15.412,9.3997e-05,0.0043025,-0.00028689,-2861.8,0.69671
11674,11.94,1.0909,0.05,8.8761e-07,8.8699,6.8157e-07,5.1211,-3.6745e-12,-3.831e-07,-6.8157e-07,-5.121,0.70642
11675,11.94,0.81818,0,0.00028462,2844.3,9.5239e-05,15.731,9.3146e-05,0.0012312,-0.00028435,-2836.4,0.70538
11676,11.848,0.90909,0,0.00028712,2869.2,9.6004e-05,15.036,9.4004e-05,0.0025208,-0.00028686,-2861.7,0.69601
11677,11.94,0.90909,0.05,8.898e-07,8.8919,6.8326e-07,5.1338,-3.6894e-12,1.748e-08,-6.8325e-07,-5.1337,0.70573
11678,11.94,0.63636,0,0.00028456,2843.6,9.5141e-05,14.816,9.3169e-05,-0.0014979,-0.0002843,-2836.2,0.70459
11679,11.848,0.72727,0,0.00028707,2868.8,9.5939e-05,14.421,9.4019e-05,-0.00047998,-0.00028683,-2861.5,0.69525
11680,11.94,0.72727,0.05,8.913e-07,8.9068,6.8441e-07,5.1424,-3.6827e-12,3.6826e-07,-6.844e-07,-5.1423,0.70497
11681,11.94,0.45455,0,0.00028449,2843,9.5025e-05,13.683,9.3203e-05,-0.0099026,-0.00028426,-2836.1,0.70375
11682,11.848,0.54545,0,0.00028703,2868.3,9.5853e-05,13.581,9.4045e-05,-0.0026918,-0.00028679,-2861.5,0.69443
11683,11.94,0.54545,0.05,8.8925e-07,8.8864,6.8284e-07,5.1306,-4.5859e-12,7.7105e-07,-6.8283e-07,-5.1305,0.70415
11684,11.94,0.27273,0,0.00028452,2843.2,9.4968e-05,12.897,9.325e-05,-0.011237,-0.0002843,-2836.7,0.70284
11685,11.848,0.36364,0,0.00028699,2867.9,9.576e-05,12.593,9.4082e-05,-0.015807,-0.00028678,-2861.6,0.69354
11686,11.94,0.36364,0.05,8.4183e-07,8.4125,6.4643e-07,4.857,-5.4978e-12,9.416e-07,-6.4642e-07,-4.8569,0.70328
11687,11.848,0.18182,0,0.00028713,2869.4,9.5803e-05,12.56,9.4131e-05,-0.0018363,-0.00028692,-2863.1,0.6926
11688,11.94,0.18182,0.05,1.1365e-07,1.1357,8.7275e-08,0.65577,-2.4724e-12,1.3691e-05,-8.7266e-08,-0.65566,0.70233
11689,11.94,0.090909,0,0.00028399,2838,9.4414e-05,8.3442,9.3303e-05,-0.0026872,-0.00028385,-2833.8,0.70186
11690,11.757,5.7273,0,0.0002896,2894,9.6583e-05,12.167,9.4963e-05,-0.0093439,-0.00028939,-2887.9,0.68337
11691,11.665,5.8182,0,0.00029224,2920.4,9.7448e-05,12.086,9.5839e-05,-0.0014389,-0.00029203,-2914.3,0.67322
11692,11.757,5.8182,0.05,1.0415e-07,1.0407,7.9967e-08,0.60083,1.8566e-12,-4.2361e-06,-7.9976e-08,-0.60092,0.68286
11693,11.757,5.9091,0,0.00028911,2889.1,9.6083e-05,8.0866,9.5007e-05,-0.0023305,-0.00028898,-2885.1,0.68238
11694,11.757,5.5455,0,0.00028952,2893.2,9.6584e-05,12.464,9.4924e-05,-0.0084851,-0.00028931,-2887,0.68429
11695,11.665,5.6364,0,0.00029205,2918.5,9.7348e-05,11.626,9.5799e-05,-0.013161,-0.00029185,-2912.7,0.67418
11696,11.757,5.6364,0.05,8.4056e-07,8.3998,6.4545e-07,4.8496,3.6561e-12,2.6788e-06,-6.4545e-07,-4.8497,0.68382
11697,11.757,5.3636,0,0.00028954,2893.4,9.6648e-05,13.164,9.4896e-05,-0.0014972,-0.00028932,-2886.8,0.68515
11698,11.665,5.4545,0,0.00029204,2918.4,9.7389e-05,12.165,9.577e-05,-0.0025332,-0.00029183,-2912.3,0.67508
11699,11.757,5.4545,0.05,8.8872e-07,8.8811,6.8243e-07,5.1275,3.6775e-12,3.6675e-06,-6.8243e-07,-5.1276,0.68471
11700,11.757,5.1818,0,0.00028957,2893.7,9.6701e-05,13.705,9.4877e-05,0.00093033,-0.00028933,-2886.8,0.68595
11701,11.665,5.2727,0,0.00029204,2918.4,9.7427e-05,12.611,9.5749e-05,-0.00058093,-0.00029183,-2912.1,0.67591
11702,11.757,5.2727,0.05,8.9124e-07,8.9063,6.8436e-07,5.142,2.7696e-12,2.0319e-06,-6.8436e-07,-5.1421,0.68554
11703,11.757,5,0,0.00028959,2893.9,9.6736e-05,14.046,9.4867e-05,0.0031803,-0.00028934,-2886.8,0.68668
11704,11.665,5.0909,0,0.00029205,2918.4,9.7451e-05,12.888,9.5736e-05,0.002052,-0.00029182,-2912,0.67668
11705,11.757,5.0909,0.05,8.903e-07,8.8969,6.8364e-07,5.1366,3.6719e-12,1.9796e-06,-6.8365e-07,-5.1367,0.6863
11706,11.757,4.8182,0,0.0002896,2894,9.6752e-05,14.183,9.4865e-05,0.0046536,-0.00028936,-2886.9,0.68735
11707,11.665,4.9091,0,0.00029205,2918.4,9.7459e-05,12.986,9.5731e-05,0.0037019,-0.00029182,-2911.9,0.67739
11708,11.757,4.9091,0.05,8.8876e-07,8.8815,6.8245e-07,5.1277,1.8424e-12,1.2513e-06,-6.8246e-07,-5.1278,0.687
11709,11.757,4.6364,0,0.00028961,2894.1,9.675e-05,14.132,9.487e-05,0.0056643,-0.00028936,-2887,0.68796
11710,11.665,4.7273,0,0.00029204,2918.4,9.7451e-05,12.913,9.5733e-05,0.0049236,-0.00029182,-2911.9,0.67803
11711,11.757,4.7273,0.05,8.8687e-07,8.8626,6.81e-07,5.1168,2.7415e-12,2.2044e-07,-6.8101e-07,-5.1168,0.68764
11712,11.757,4.4545,0,0.0002896,2894.1,9.6732e-05,13.919,9.488e-05,0.0062769,-0.00028937,-2887.1,0.6885
11713,11.665,4.5455,0,0.00029203,2918.3,9.7428e-05,12.686,9.5741e-05,0.0057122,-0.00029181,-2911.9,0.67861
11714,11.757,4.5455,0.05,8.8475e-07,8.8414,6.7938e-07,5.1046,2.7289e-12,1.1951e-06,-6.7938e-07,-5.1046,0.68822
11715,11.757,4.2727,0,0.0002896,2894,9.67e-05,13.58,9.4894e-05,0.0065998,-0.00028936,-2887.1,0.68898
11716,11.665,4.3636,0,0.00029201,2918.1,9.7393e-05,12.337,9.5752e-05,0.006184,-0.0002918,-2911.9,0.67913
11717,11.757,4.3636,0.05,8.8251e-07,8.819,6.7765e-07,5.0916,8.985e-13,-3.1916e-07,-6.7766e-07,-5.0917,0.68873
11718,11.757,4.0909,0,0.00028958,2893.8,9.666e-05,13.157,9.491e-05,0.0067144,-0.00028936,-2887.2,0.68939
11719,11.665,4.1818,0,0.00029199,2917.9,9.735e-05,11.901,9.5767e-05,0.0064164,-0.00029178,-2911.9,0.67957
11720,11.757,4.1818,0.05,8.8024e-07,8.7964,6.7592e-07,5.0786,1.7999e-12,-4.9752e-07,-6.7592e-07,-5.0786,0.68917
11721,11.757,3.9091,0,0.00028956,2893.6,9.6616e-05,12.696,9.4927e-05,0.0066924,-0.00028935,-2887.3,0.68974
11722,11.665,4,0,0.00029196,2917.6,9.7302e-05,11.42,9.5783e-05,0.0064819,-0.00029177,-2911.9,0.67996
11723,11.757,4,0.05,8.7806e-07,8.7746,6.7424e-07,5.066,8.845e-13,-3.1012e-07,-6.7424e-07,-5.066,0.68955
11724,11.757,3.7273,0,0.00028955,2893.5,9.6572e-05,12.242,9.4944e-05,0.0065957,-0.00028934,-2887.3,0.69003
11725,11.665,3.8182,0,0.00029194,2917.4,9.7253e-05,10.937,9.5798e-05,0.006442,-0.00029175,-2911.9,0.68028
11726,11.757,3.8182,0.05,8.7606e-07,8.7546,6.7271e-07,5.0545,8.8231e-13,-4.3886e-07,-6.7271e-07,-5.0545,0.68987
11727,11.757,3.5455,0,0.00028953,2893.3,9.6533e-05,11.839,9.4958e-05,0.0064736,-0.00028933,-2887.3,0.69025
11728,11.665,3.6364,0,0.00029192,2917.1,9.7208e-05,10.492,9.5812e-05,0.00635,-0.00029174,-2911.9,0.68054
11729,11.757,3.6364,0.05,8.7434e-07,8.7374,6.7139e-07,5.0445,-2.5613e-14,2.7987e-07,-6.7139e-07,-5.0445,0.69013
11730,11.757,3.3636,0,0.00028951,2893.1,9.6502e-05,11.522,9.4969e-05,0.0063616,-0.00028932,-2887.4,0.69041
11731,11.665,3.4545,0,0.0002919,2916.9,9.7171e-05,10.122,9.5824e-05,0.0062466,-0.00029172,-2911.9,0.68073
11732,11.757,3.4545,0.05,8.7297e-07,8.7237,6.7034e-07,5.0366,-2.1689e-14,1.9483e-07,-6.7034e-07,-5.0366,0.69032
11733,11.757,3.1818,0,0.00028951,2893.1,9.6482e-05,11.321,9.4976e-05,0.0062845,-0.00028931,-2887.4,0.69051
11734,11.665,3.2727,0,0.00029188,2916.8,9.7144e-05,9.8583,9.5833e-05,0.0061613,-0.00029171,-2911.9,0.68086
11735,11.757,3.2727,0.05,8.7203e-07,8.7142,6.6961e-07,5.0312,-1.8333e-12,-4.631e-07,-6.6961e-07,-5.0312,0.69045
11736,11.757,3,0,0.0002895,2893,9.6475e-05,11.251,9.4978e-05,0.0062572,-0.00028931,-2887.4,0.69054
11737,11.665,3.0909,0,0.00029187,2916.7,9.713e-05,9.7208,9.5837e-05,0.0061134,-0.00029171,-2911.9,0.68092
11738,11.757,3.0909,0.05,8.7154e-07,8.7094,6.6924e-07,5.0284,-5.0009e-15,-3.7381e-08,-6.6923e-07,-5.0283,0.69051
11739,11.757,2.8182,0,0.00028951,2893.1,9.6482e-05,11.321,9.4976e-05,0.0062845,-0.00028931,-2887.4,0.69051
11740,11.665,2.9091,0,0.00029187,2916.7,9.713e-05,9.7208,9.5837e-05,0.0061137,-0.00029171,-2911.9,0.68092
11741,11.757,2.9091,0.05,8.7154e-07,8.7094,6.6924e-07,5.0284,-9.0445e-13,2.7649e-07,-6.6923e-07,-5.0283,0.69051
11742,11.757,2.6364,0,0.00028951,2893.1,9.6502e-05,11.522,9.4969e-05,0.0063617,-0.00028932,-2887.4,0.69041
11743,11.665,2.7273,0,0.00029188,2916.8,9.7144e-05,9.8583,9.5833e-05,0.0061611,-0.00029171,-2911.9,0.68086
11744,11.757,2.7273,0.05,8.7203e-07,8.7142,6.6961e-07,5.0312,-2.7137e-12,-8.9068e-09,-6.6961e-07,-5.0311,0.69045
11745,11.757,2.4545,0,0.00028953,2893.3,9.6533e-05,11.839,9.4958e-05,0.0064736,-0.00028933,-2887.3,0.69025
11746,11.665,2.5455,0,0.0002919,2916.9,9.7171e-05,10.122,9.5824e-05,0.0062467,-0.00029172,-2911.9,0.68073
11747,11.757,2.5455,0.05,8.7297e-07,8.7237,6.7034e-07,5.0367,-8.8617e-13,-3.0369e-07,-6.7033e-07,-5.0366,0.69032
11748,11.757,2.2727,0,0.00028955,2893.5,9.6572e-05,12.242,9.4944e-05,0.0065961,-0.00028934,-2887.3,0.69003
11749,11.665,2.3636,0,0.00029192,2917.1,9.7208e-05,10.492,9.5812e-05,0.0063496,-0.00029174,-2911.9,0.68054
11750,11.757,2.3636,0.05,8.7434e-07,8.7374,6.7139e-07,5.0446,-2.6995e-12,-6.1838e-07,-6.7138e-07,-5.0445,0.69013
11751,11.757,2.0909,0,0.00028956,2893.6,9.6616e-05,12.696,9.4927e-05,0.0066933,-0.00028935,-2887.3,0.68974
11752,11.665,2.1818,0,0.00029194,2917.4,9.7253e-05,10.937,9.5798e-05,0.0064421,-0.00029175,-2911.9,0.68028
11753,11.757,2.1818,0.05,8.7606e-07,8.7546,6.7271e-07,5.0545,-2.6974e-12,-3.6043e-07,-6.7271e-07,-5.0544,0.68987
11754,11.757,1.9091,0,0.00028958,2893.8,9.666e-05,13.157,9.491e-05,0.0067148,-0.00028936,-2887.2,0.68939
11755,11.665,2,0,0.00029196,2917.6,9.7302e-05,11.42,9.5783e-05,0.0064825,-0.00029177,-2911.9,0.67996
11756,11.757,2,0.05,8.7806e-07,8.7746,6.7425e-07,5.066,-2.6987e-12,-6.1634e-07,-6.7424e-07,-5.066,0.68955
11757,11.757,1.7273,0,0.0002896,2894,9.67e-05,13.58,9.4894e-05,0.0066002,-0.00028936,-2887.1,0.68898
11758,11.665,1.8182,0,0.00029199,2917.9,9.735e-05,11.901,9.5767e-05,0.0064165,-0.00029178,-2911.9,0.67957
11759,11.757,1.8182,0.05,8.8024e-07,8.7964,6.7592e-07,5.0786,-3.6163e-12,-1.8294e-07,-6.7591e-07,-5.0786,0.68917
11760,11.757,1.5455,0,0.0002896,2894.1,9.6732e-05,13.919,9.488e-05,0.0062776,-0.00028937,-2887.1,0.6885
11761,11.665,1.6364,0,0.00029201,2918.1,9.7393e-05,12.337,9.5752e-05,0.0061844,-0.0002918,-2911.9,0.67913
11762,11.757,1.6364,0.05,8.8251e-07,8.819,6.7766e-07,5.0917,-1.8052e-12,-2.6515e-07,-6.7765e-07,-5.0916,0.68873
11763,11.757,1.3636,0,0.00028961,2894.1,9.675e-05,14.132,9.487e-05,0.0056648,-0.00028936,-2887,0.68796
11764,11.665,1.4545,0,0.00029203,2918.3,9.7428e-05,12.686,9.5741e-05,0.0057129,-0.00029181,-2911.9,0.67861
11765,11.757,1.4545,0.05,8.8475e-07,8.8414,6.7938e-07,5.1046,-3.6385e-12,-1.2302e-07,-6.7938e-07,-5.1046,0.68822
11766,11.757,1.1818,0,0.0002896,2894,9.6752e-05,14.183,9.4865e-05,0.0046542,-0.00028936,-2886.9,0.68735
11767,11.665,1.2727,0,0.00029204,2918.4,9.7451e-05,12.913,9.5733e-05,0.0049241,-0.00029182,-2911.9,0.67803
11768,11.757,1.2727,0.05,8.8687e-07,8.8626,6.8101e-07,5.1169,-3.6527e-12,2.7575e-09,-6.81e-07,-5.1168,0.68764
11769,11.757,1,0,0.00028959,2893.9,9.6736e-05,14.046,9.4867e-05,0.0031812,-0.00028934,-2886.8,0.68668
11770,11.665,1.0909,0,0.00029205,2918.4,9.7459e-05,12.986,9.5731e-05,0.0037025,-0.00029182,-2911.9,0.67739
11771,11.757,1.0909,0.05,8.8876e-07,8.8815,6.8246e-07,5.1278,-3.6647e-12,2.2423e-07,-6.8245e-07,-5.1276,0.687
11772,11.757,0.81818,0,0.00028957,2893.7,9.6701e-05,13.705,9.4877e-05,0.00093121,-0.00028933,-2886.8,0.68595
11773,11.665,0.90909,0,0.00029205,2918.4,9.7451e-05,12.888,9.5736e-05,0.0020535,-0.00029182,-2912,0.67668
11774,11.757,0.90909,0.05,8.903e-07,8.8969,6.8365e-07,5.1367,-3.6737e-12,7.3471e-07,-6.8364e-07,-5.1366,0.6863
11775,11.757,0.63636,0,0.00028954,2893.4,9.6648e-05,13.164,9.4896e-05,-0.0014969,-0.00028932,-2886.8,0.68515
11776,11.665,0.72727,0,0.00029204,2918.4,9.7427e-05,12.611,9.5749e-05,-0.00058039,-0.00029183,-2912.1,0.67591
11777,11.757,0.72727,0.05,8.9124e-07,8.9063,6.8437e-07,5.1421,-3.6863e-12,2.1885e-06,-6.8436e-07,-5.142,0.68554
11778,11.757,0.45455,0,0.00028952,2893.2,9.6584e-05,12.464,9.4924e-05,-0.0084849,-0.00028931,-2887,0.68429
11779,11.665,0.54545,0,0.00029204,2918.4,9.7389e-05,12.165,9.577e-05,-0.0025331,-0.00029183,-2912.3,0.67508
11780,11.757,0.54545,0.05,8.8872e-07,8.8811,6.8243e-07,5.1276,-3.6868e-12,2.7857e-06,-6.8243e-07,-5.1274,0.68471
11781,11.757,0.27273,0,0.0002896,2894,9.6583e-05,12.167,9.4963e-05,-0.0093434,-0.00028939,-2887.9,0.68337
11782,11.665,0.36364,0,0.00029205,2918.5,9.7348e-05,11.626,9.5799e-05,-0.013161,-0.00029185,-2912.7,0.67418
11783,11.757,0.36364,0.05,8.4056e-07,8.3998,6.4545e-07,4.8497,-6.4037e-12,1.7086e-06,-6.4545e-07,-4.8496,0.68382
11784,11.665,0.18182,0,0.00029224,2920.4,9.7448e-05,12.086,9.5839e-05,-0.0014381,-0.00029203,-2914.3,0.67322
11785,11.757,0.18182,0.05,1.0414e-07,1.0407,7.9973e-08,0.60093,-1.8566e-12,1.6226e-05,-7.9967e-08,-0.6008,0.68286
11786,11.757,0.090909,0,0.00028911,2889.1,9.6083e-05,8.0867,9.5007e-05,-0.0023299,-0.00028898,-2885.1,0.68238
11787,11.573,5.7273,0,0.00029468,2944.7,9.82e-05,11.457,9.6674e-05,-0.00773,-0.00029448,-2939,0.6641
11788,11.481,5.8182,0,0.00029734,2971.3,9.9092e-05,11.611,9.7546e-05,-0.0013029,-0.00029714,-2965.5,0.65404
11789,11.573,5.8182,0.05,9.7145e-08,0.97078,7.4592e-08,0.56043,2.7749e-12,-5.3119e-06,-7.4599e-08,-0.56054,0.66358
11790,11.573,5.9091,0,0.00029423,2940.3,9.7751e-05,7.8259,9.6709e-05,-0.0020643,-0.0002941,-2936.4,0.6631
11791,11.573,5.5455,0,0.00029456,2943.6,9.8149e-05,11.301,9.6644e-05,-0.0071799,-0.00029437,-2937.9,0.66503
11792,11.481,5.6364,0,0.00029711,2969.1,9.894e-05,10.693,9.7515e-05,-0.010681,-0.00029693,-2963.7,0.65502
11793,11.573,5.6364,0.05,8.4038e-07,8.398,6.4531e-07,4.8485,3.6518e-12,2.1931e-06,-6.4531e-07,-4.8487,0.66455
11794,11.573,5.3636,0,0.00029454,2943.3,9.8165e-05,11.591,9.6622e-05,-0.0015029,-0.00029434,-2937.5,0.66591
11795,11.481,5.4545,0,0.00029706,2968.5,9.8932e-05,10.81,9.7493e-05,-0.0023378,-0.00029687,-2963.1,0.65593
11796,11.573,5.4545,0.05,8.8913e-07,8.8851,6.8274e-07,5.1298,3.6684e-12,2.8862e-06,-6.8274e-07,-5.1299,0.66546
11797,11.573,5.1818,0,0.00029452,2943.2,9.8175e-05,11.774,9.6608e-05,0.00062156,-0.00029432,-2937.3,0.66672
11798,11.481,5.2727,0,0.00029702,2968.2,9.8926e-05,10.879,9.7478e-05,-0.00064801,-0.00029684,-2962.7,0.65677
11799,11.573,5.2727,0.05,8.9202e-07,8.914,6.8496e-07,5.1465,2.7536e-12,1.4745e-06,-6.8496e-07,-5.1465,0.6663
11800,11.573,5,0,0.0002945,2943,9.8172e-05,11.81,9.6601e-05,0.002625,-0.0002943,-2937.1,0.66746
11801,11.481,5.0909,0,0.00029699,2967.8,9.891e-05,10.827,9.7469e-05,0.0016155,-0.0002968,-2962.4,0.65755
11802,11.573,5.0909,0.05,8.9153e-07,8.9091,6.8458e-07,5.1436,3.6661e-12,1.5602e-06,-6.8458e-07,-5.1437,0.66707
11803,11.573,4.8182,0,0.00029448,2942.8,9.8156e-05,11.697,9.66e-05,0.0040021,-0.00029428,-2936.9,0.66814
11804,11.481,4.9091,0,0.00029695,2967.5,9.8884e-05,10.647,9.7467e-05,0.0031176,-0.00029677,-2962.1,0.65827
11805,11.573,4.9091,0.05,8.9049e-07,8.8988,6.8378e-07,5.1377,2.7448e-12,9.0071e-07,-6.8379e-07,-5.1378,0.66778
11806,11.573,4.6364,0,0.00029446,2942.6,9.8127e-05,11.449,9.6604e-05,0.0049874,-0.00029426,-2936.8,0.66875
11807,11.481,4.7273,0,0.00029692,2967.1,9.8846e-05,10.347,9.747e-05,0.0042704,-0.00029674,-2961.9,0.65892
11808,11.573,4.7273,0.05,8.8917e-07,8.8856,6.8277e-07,5.13,3.646e-12,1.1308e-07,-6.8277e-07,-5.1301,0.66843
11809,11.573,4.4545,0,0.00029443,2942.3,9.8088e-05,11.087,9.6613e-05,0.0056262,-0.00029424,-2936.7,0.6693
11810,11.481,4.5455,0,0.00029688,2966.7,9.88e-05,9.9422,9.7477e-05,0.0050582,-0.00029671,-2961.7,0.65951
11811,11.573,4.5455,0.05,8.8765e-07,8.8703,6.816e-07,5.1213,9.0684e-13,6.9622e-07,-6.8161e-07,-5.1213,0.66901
11812,11.573,4.2727,0,0.0002944,2942,9.8041e-05,10.641,9.6625e-05,0.0060025,-0.00029422,-2936.6,0.66979
11813,11.481,4.3636,0,0.00029684,2966.3,9.8746e-05,9.4586,9.7488e-05,0.0055692,-0.00029668,-2961.6,0.66003
11814,11.573,4.3636,0.05,8.8601e-07,8.854,6.8034e-07,5.1118,1.8069e-12,-3.8065e-07,-6.8035e-07,-5.1119,0.66953
11815,11.573,4.0909,0,0.00029437,2941.7,9.7989e-05,10.148,9.6639e-05,0.0061835,-0.00029419,-2936.6,0.67021
11816,11.481,4.1818,0,0.0002968,2965.9,9.8688e-05,8.9268,9.7501e-05,0.0058617,-0.00029664,-2961.4,0.66048
11817,11.573,4.1818,0.05,8.8434e-07,8.8373,6.7906e-07,5.1022,8.8984e-13,-6.1608e-07,-6.7906e-07,-5.1022,0.66998
11818,11.573,3.9091,0,0.00029434,2941.3,9.7936e-05,9.6451,9.6653e-05,0.0062304,-0.00029417,-2936.5,0.67056
11819,11.481,4,0,0.00029676,2965.5,9.8629e-05,8.3813,9.7514e-05,0.0059955,-0.00029661,-2961.3,0.66087
11820,11.573,4,0.05,8.8271e-07,8.8211,6.7781e-07,5.0928,8.8578e-13,-7.0013e-07,-6.7782e-07,-5.0928,0.67037
11821,11.573,3.7273,0,0.00029431,2941,9.7887e-05,9.1704,9.6667e-05,0.0061956,-0.00029415,-2936.4,0.67085
11822,11.481,3.8182,0,0.00029672,2965.1,9.8573e-05,7.858,9.7528e-05,0.0060221,-0.00029658,-2961.2,0.6612
11823,11.573,3.8182,0.05,8.8122e-07,8.8061,6.7667e-07,5.0842,-2.4837e-14,-4.7855e-07,-6.7667e-07,-5.0842,0.67069
11824,11.573,3.5455,0,0.00029428,2940.8,9.7844e-05,8.7594,9.6679e-05,0.0061232,-0.00029413,-2936.4,0.67108
11825,11.481,3.6364,0,0.00029668,2964.8,9.8523e-05,7.3909,9.754e-05,0.0059874,-0.00029656,-2961.1,0.66146
11826,11.573,3.6364,0.05,8.7993e-07,8.7932,6.7568e-07,5.0768,-2.3239e-14,3.669e-07,-6.7568e-07,-5.0768,0.67095
11827,11.573,3.3636,0,0.00029426,2940.6,9.7811e-05,8.4422,9.6688e-05,0.0060477,-0.00029412,-2936.3,0.67124
11828,11.481,3.4545,0,0.00029666,2964.5,9.8482e-05,7.0109,9.755e-05,0.0059291,-0.00029654,-2961,0.66166
11829,11.573,3.4545,0.05,8.789e-07,8.783,6.7489e-07,5.0709,-1.9488e-14,3.629e-08,-6.7489e-07,-5.0709,0.67115
11830,11.573,3.1818,0,0.00029425,2940.4,9.779e-05,8.2422,9.6694e-05,0.0059924,-0.00029411,-2936.3,0.67134
11831,11.481,3.2727,0,0.00029664,2964.3,9.8454e-05,6.7427,9.7557e-05,0.005874,-0.00029652,-2961,0.66179
11832,11.573,3.2727,0.05,8.7819e-07,8.7758,6.7434e-07,5.0667,-1.2192e-14,-5.6901e-07,-6.7434e-07,-5.0667,0.67128
11833,11.573,3,0,0.00029424,2940.4,9.7783e-05,8.1739,9.6696e-05,0.0059724,-0.0002941,-2936.3,0.67137
11834,11.481,3.0909,0,0.00029663,2964.2,9.8439e-05,6.6041,9.7561e-05,0.0058413,-0.00029652,-2960.9,0.66185
11835,11.573,3.0909,0.05,8.7782e-07,8.7722,6.7406e-07,5.0647,-9.1382e-13,-1.5148e-07,-6.7406e-07,-5.0646,0.67134
11836,11.573,2.8182,0,0.00029425,2940.4,9.779e-05,8.2423,9.6694e-05,0.0059924,-0.00029411,-2936.3,0.67134
11837,11.481,2.9091,0,0.00029663,2964.2,9.8439e-05,6.6041,9.7561e-05,0.0058414,-0.00029652,-2960.9,0.66185
11838,11.573,2.9091,0.05,8.7782e-07,8.7722,6.7406e-07,5.0647,-1.8146e-12,2.7104e-07,-6.7406e-07,-5.0646,0.67134
11839,11.573,2.6364,0,0.00029426,2940.6,9.7811e-05,8.4423,9.6688e-05,0.0060475,-0.00029412,-2936.3,0.67124
11840,11.481,2.7273,0,0.00029664,2964.3,9.8454e-05,6.7427,9.7557e-05,0.005874,-0.00029652,-2961,0.66179
11841,11.573,2.7273,0.05,8.7819e-07,8.7758,6.7434e-07,5.0668,-8.9695e-13,-2.2939e-08,-6.7434e-07,-5.0667,0.67128
11842,11.573,2.4545,0,0.00029428,2940.8,9.7844e-05,8.7594,9.6679e-05,0.006123,-0.00029413,-2936.4,0.67108
11843,11.481,2.5455,0,0.00029666,2964.5,9.8482e-05,7.0109,9.755e-05,0.0059295,-0.00029654,-2961,0.66166
11844,11.573,2.5455,0.05,8.789e-07,8.783,6.7489e-07,5.0709,-2.7089e-12,-2.6993e-07,-6.7489e-07,-5.0708,0.67115
11845,11.573,2.2727,0,0.00029431,2941,9.7887e-05,9.1704,9.6667e-05,0.0061949,-0.00029415,-2936.4,0.67085
11846,11.481,2.3636,0,0.00029668,2964.8,9.8523e-05,7.3909,9.754e-05,0.0059871,-0.00029656,-2961.1,0.66146
11847,11.573,2.3636,0.05,8.7993e-07,8.7932,6.7568e-07,5.0768,-1.7943e-12,7.326e-08,-6.7568e-07,-5.0767,0.67095
11848,11.573,2.0909,0,0.00029434,2941.3,9.7936e-05,9.6451,9.6653e-05,0.0062301,-0.00029417,-2936.5,0.67056
11849,11.481,2.1818,0,0.00029672,2965.1,9.8573e-05,7.858,9.7528e-05,0.0060223,-0.00029658,-2961.2,0.6612
11850,11.573,2.1818,0.05,8.8122e-07,8.8061,6.7668e-07,5.0843,-8.8202e-13,-3.9122e-07,-6.7666e-07,-5.0842,0.67069
11851,11.573,1.9091,0,0.00029437,2941.7,9.7989e-05,10.148,9.6639e-05,0.0061838,-0.00029419,-2936.6,0.67021
11852,11.481,2,0,0.00029676,2965.5,9.8629e-05,8.3813,9.7514e-05,0.005996,-0.00029661,-2961.3,0.66087
11853,11.573,2,0.05,8.8271e-07,8.8211,6.7782e-07,5.0929,-2.7027e-12,-4.0867e-07,-6.7781e-07,-5.0928,0.67037
11854,11.573,1.7273,0,0.0002944,2942,9.8041e-05,10.641,9.6625e-05,0.0060027,-0.00029422,-2936.6,0.66979
11855,11.481,1.8182,0,0.0002968,2965.9,9.8688e-05,8.9268,9.7501e-05,0.0058621,-0.00029664,-2961.4,0.66048
11856,11.573,1.8182,0.05,8.8434e-07,8.8373,6.7907e-07,5.1022,-1.7969e-12,-8.4069e-08,-6.7905e-07,-5.1022,0.66998
11857,11.573,1.5455,0,0.00029443,2942.3,9.8088e-05,11.087,9.6613e-05,0.0056267,-0.00029424,-2936.7,0.6693
11858,11.481,1.6364,0,0.00029684,2966.3,9.8746e-05,9.4586,9.7488e-05,0.0055694,-0.00029668,-2961.6,0.66003
11859,11.573,1.6364,0.05,8.8601e-07,8.854,6.8035e-07,5.1119,-2.7148e-12,-1.9647e-07,-6.8034e-07,-5.1118,0.66953
11860,11.573,1.3636,0,0.00029446,2942.6,9.8127e-05,11.449,9.6604e-05,0.0049881,-0.00029426,-2936.8,0.66875
11861,11.481,1.4545,0,0.00029688,2966.7,9.88e-05,9.9423,9.7477e-05,0.0050594,-0.00029671,-2961.7,0.65951
11862,11.573,1.4545,0.05,8.8765e-07,8.8703,6.8161e-07,5.1213,-2.7253e-12,2.066e-08,-6.816e-07,-5.1212,0.66901
11863,11.573,1.1818,0,0.00029448,2942.8,9.8156e-05,11.697,9.66e-05,0.0040026,-0.00029428,-2936.9,0.66814
11864,11.481,1.2727,0,0.00029692,2967.1,9.8846e-05,10.347,9.747e-05,0.0042709,-0.00029674,-2961.9,0.65892
11865,11.573,1.2727,0.05,8.8917e-07,8.8856,6.8277e-07,5.1301,-3.6454e-12,6.1228e-08,-6.8277e-07,-5.13,0.66843
11866,11.573,1,0,0.0002945,2943,9.8172e-05,11.81,9.6601e-05,0.0026262,-0.0002943,-2937.1,0.66746
11867,11.481,1.0909,0,0.00029695,2967.5,9.8884e-05,10.647,9.7467e-05,0.0031181,-0.00029677,-2962.1,0.65827
11868,11.573,1.0909,0.05,8.9049e-07,8.8988,6.8379e-07,5.1378,-3.6555e-12,1.0193e-07,-6.8378e-07,-5.1377,0.66778
11869,11.573,0.81818,0,0.00029452,2943.2,9.8175e-05,11.774,9.6608e-05,0.00062275,-0.00029432,-2937.3,0.66672
11870,11.481,0.90909,0,0.00029699,2967.8,9.891e-05,10.827,9.7469e-05,0.001617,-0.0002968,-2962.4,0.65755
11871,11.573,0.90909,0.05,8.9153e-07,8.9091,6.8458e-07,5.1437,-3.6606e-12,1.0255e-06,-6.8458e-07,-5.1436,0.66707
11872,11.573,0.63636,0,0.00029454,2943.3,9.8165e-05,11.591,9.6622e-05,-0.0015025,-0.00029434,-2937.5,0.66591
11873,11.481,0.72727,0,0.00029702,2968.2,9.8926e-05,10.879,9.7478e-05,-0.00064709,-0.00029684,-2962.7,0.65677
11874,11.573,0.72727,0.05,8.9202e-07,8.914,6.8496e-07,5.1466,-4.5859e-12,2.5458e-06,-6.8496e-07,-5.1464,0.6663
11875,11.573,0.45455,0,0.00029456,2943.6,9.8149e-05,11.301,9.6644e-05,-0.0071793,-0.00029437,-2937.9,0.66503
11876,11.481,0.54545,0,0.00029706,2968.5,9.8932e-05,10.81,9.7493e-05,-0.0023374,-0.00029687,-2963.1,0.65593
11877,11.573,0.54545,0.05,8.8913e-07,8.8851,6.8274e-07,5.1299,-3.6594e-12,2.6627e-06,-6.8274e-07,-5.1298,0.66546
11878,11.573,0.27273,0,0.00029468,2944.7,9.82e-05,11.457,9.6674e-05,-0.007729,-0.00029448,-2939,0.6641
11879,11.481,0.36364,0,0.00029711,2969.1,9.894e-05,10.693,9.7515e-05,-0.01068,-0.00029693,-2963.7,0.65502
11880,11.573,0.36364,0.05,8.4038e-07,8.398,6.4531e-07,4.8487,-5.4553e-12,2.0485e-06,-6.453e-07,-4.8485,0.66455
11881,11.481,0.18182,0,0.00029734,2971.3,9.9092e-05,11.611,9.7546e-05,-0.001302,-0.00029714,-2965.5,0.65404
11882,11.573,0.18182,0.05,9.7144e-08,0.97077,7.4597e-08,0.56055,-4.0595e-12,1.0322e-05,-7.4591e-08,-0.5604,0.66358
11883,11.573,0.090909,0,0.00029423,2940.3,9.7751e-05,7.8259,9.6709e-05,-0.0020637,-0.0002941,-2936.4,0.6631
11884,11.389,5.7273,0,0.00029976,2995.5,9.982e-05,10.76,9.8387e-05,-0.0062585,-0.00029958,-2990.1,0.64503
11885,11.297,5.8182,0,0.00030245,3022.4,0.00010074,11.131,9.9255e-05,-0.0013239,-0.00030226,-3016.8,0.63506
11886,11.389,5.8182,0.05,9.2457e-08,0.92393,7.0992e-08,0.53337,3.1465e-12,-3.1694e-06,-7.0999e-08,-0.53349,0.6445
11887,11.389,5.9091,0,0.00029936,2991.5,9.9419e-05,7.56,9.8413e-05,-0.0017936,-0.00029923,-2987.7,0.64401
11888,11.389,5.5455,0,0.0002996,2994,9.972e-05,10.177,9.8365e-05,-0.005868,-0.00029943,-2988.9,0.64597
11889,11.297,5.6364,0,0.00030218,3019.7,0.00010054,9.7822,9.9233e-05,-0.0082541,-0.00030201,-3014.8,0.63605
11890,11.389,5.6364,0.05,8.411e-07,8.4052,6.4586e-07,4.8527,3.6487e-12,2.1135e-06,-6.4587e-07,-4.8528,0.64549
11891,11.389,5.3636,0,0.00029954,2993.4,9.969e-05,10.076,9.8349e-05,-0.0014247,-0.00029937,-2988.3,0.64686
11892,11.297,5.4545,0,0.00030209,3018.8,0.00010048,9.4957,9.9219e-05,-0.00204,-0.00030193,-3014,0.63697
11893,11.389,5.4545,0.05,8.9031e-07,8.8969,6.8364e-07,5.1366,3.6609e-12,2.7181e-06,-6.8365e-07,-5.1367,0.6464
11894,11.389,5.1818,0,0.00029949,2992.8,9.9659e-05,9.9112,9.834e-05,0.00038495,-0.00029932,-2987.8,0.64768
11895,11.297,5.2727,0,0.00030202,3018.1,0.00010043,9.1989,9.9209e-05,-0.00062701,-0.00030186,-3013.5,0.63783
11896,11.389,5.2727,0.05,8.935e-07,8.9288,6.8609e-07,5.155,1.7527e-14,1.1327e-06,-6.861e-07,-5.1551,0.64725
11897,11.389,5,0,0.00029944,2992.3,9.9619e-05,9.6453,9.8336e-05,0.0021257,-0.00029927,-2987.5,0.64843
11898,11.297,5.0909,0,0.00030195,3017.4,0.00010038,8.8239,9.9205e-05,0.0012469,-0.0003018,-3013,0.63862
11899,11.389,5.0909,0.05,8.9336e-07,8.9274,6.8598e-07,5.1542,3.6494e-12,1.4011e-06,-6.8599e-07,-5.1543,0.64804
11900,11.389,4.8182,0,0.00029938,2991.8,9.9572e-05,9.2786,9.8337e-05,0.0033868,-0.00029923,-2987.1,0.64912
11901,11.297,4.9091,0,0.00030188,3016.7,0.00010032,8.3656,9.9206e-05,0.0025713,-0.00030174,-3012.5,0.63935
11902,11.389,4.9091,0.05,8.9273e-07,8.9211,6.8551e-07,5.1506,1.8267e-12,6.3109e-07,-6.8551e-07,-5.1507,0.64876
11903,11.389,4.6364,0,0.00029933,2991.3,9.9517e-05,8.8227,9.8343e-05,0.0043311,-0.00029918,-2986.8,0.64974
11904,11.297,4.7273,0,0.00030181,3016.1,0.00010025,7.8311,9.9211e-05,0.0036303,-0.00030168,-3012.1,0.64001
11905,11.389,4.7273,0.05,8.9186e-07,8.9124,6.8483e-07,5.1456,2.7288e-12,2.7056e-09,-6.8484e-07,-5.1456,0.64942
11906,11.389,4.4545,0,0.00029928,2990.7,9.9456e-05,8.2969,9.8352e-05,0.0049851,-0.00029914,-2986.6,0.6503
11907,11.297,4.5455,0,0.00030175,3015.4,0.00010018,7.2358,9.9219e-05,0.0043997,-0.00030163,-3011.8,0.6406
11908,11.389,4.5455,0.05,8.9081e-07,8.9019,6.8402e-07,5.1395,1.8109e-12,5.6266e-07,-6.8404e-07,-5.1395,0.65001
11909,11.389,4.2727,0,0.00029923,2990.2,9.9391e-05,7.7272,9.8363e-05,0.0054105,-0.0002991,-2986.4,0.65079
11910,11.297,4.3636,0,0.00030169,3014.8,0.00010011,6.6015,9.923e-05,0.0049396,-0.00030157,-3011.5,0.64113
11911,11.389,4.3636,0.05,8.8965e-07,8.8903,6.8314e-07,5.1328,-1.3499e-14,-5.0011e-07,-6.8314e-07,-5.1328,0.65053
11912,11.389,4.0909,0,0.00029918,2989.7,9.9326e-05,7.1435,9.8376e-05,0.0056573,-0.00029906,-2986.2,0.65122
11913,11.297,4.1818,0,0.00030163,3014.2,0.00010003,5.9547,9.9242e-05,0.0052913,-0.00030153,-3011.2,0.64159
11914,11.389,4.1818,0.05,8.8844e-07,8.8783,6.8221e-07,5.1259,8.8958e-13,-7.7192e-07,-6.8222e-07,-5.1259,0.65099
11915,11.389,3.9091,0,0.00029913,2989.3,9.9263e-05,6.5778,9.8389e-05,0.0057743,-0.00029902,-2986,0.65158
11916,11.297,4,0,0.00030157,3013.6,9.9963e-05,5.3249,9.9255e-05,0.0054988,-0.00030148,-3011,0.64199
11917,11.389,4,0.05,8.8727e-07,8.8665,6.8131e-07,5.1191,8.8752e-13,-7.6971e-07,-6.8131e-07,-5.1191,0.65138
11918,11.389,3.7273,0,0.00029909,2988.9,9.9207e-05,6.0623,9.8401e-05,0.0058056,-0.00029899,-2985.8,0.65187
11919,11.297,3.8182,0,0.00030152,3013.1,9.9898e-05,4.7421,9.9267e-05,0.0056019,-0.00030144,-3010.8,0.64232
11920,11.389,3.8182,0.05,8.8617e-07,8.8556,6.8047e-07,5.1128,8.8659e-13,-5.9216e-07,-6.8047e-07,-5.1128,0.65171
11921,11.389,3.5455,0,0.00029906,2988.5,9.9159e-05,5.6263,9.8411e-05,0.0057898,-0.00029896,-2985.7,0.6521
11922,11.297,3.6364,0,0.00030148,3012.7,9.9841e-05,4.2353,9.9278e-05,0.0056393,-0.00030141,-3010.6,0.64258
11923,11.389,3.6364,0.05,8.8522e-07,8.8461,6.7974e-07,5.1073,-2.2152e-14,3.4591e-07,-6.7974e-07,-5.1073,0.65197
11924,11.389,3.3636,0,0.00029903,2988.3,9.9123e-05,5.2953,9.8419e-05,0.005756,-0.00029894,-2985.6,0.65227
11925,11.297,3.4545,0,0.00030144,3012.4,9.9796e-05,3.8303,9.9287e-05,0.0056407,-0.00030138,-3010.4,0.64278
11926,11.389,3.4545,0.05,8.8446e-07,8.8385,6.7916e-07,5.1029,-1.738e-14,4.6811e-08,-6.7916e-07,-5.1029,0.65217
11927,11.389,3.1818,0,0.00029902,2988.1,9.9101e-05,5.0886,9.8424e-05,0.0057263,-0.00029893,-2985.6,0.65236
11928,11.297,3.2727,0,0.00030142,3012.1,9.9765e-05,3.5479,9.9294e-05,0.0056274,-0.00030136,-3010.4,0.64291
11929,11.389,3.2727,0.05,8.8393e-07,8.8332,6.7875e-07,5.0999,-1.1367e-14,-5.6278e-07,-6.7875e-07,-5.0999,0.6523
11930,11.389,3,0,0.00029901,2988.1,9.9093e-05,5.0184,9.8426e-05,0.0057148,-0.00029893,-2985.5,0.6524
11931,11.297,3.0909,0,0.00030141,3012,9.9749e-05,3.4029,9.9297e-05,0.0056168,-0.00030135,-3010.3,0.64298
11932,11.389,3.0909,0.05,8.8366e-07,8.8305,6.7854e-07,5.0983,-4.0001e-15,-3.0136e-08,-6.7854e-07,-5.0983,0.65237
11933,11.389,2.8182,0,0.00029902,2988.1,9.9101e-05,5.0886,9.8424e-05,0.0057264,-0.00029893,-2985.6,0.65236
11934,11.297,2.9091,0,0.00030141,3012,9.9749e-05,3.4029,9.9297e-05,0.0056168,-0.00030135,-3010.3,0.64298
11935,11.389,2.9091,0.05,8.8366e-07,8.8305,6.7854e-07,5.0983,4.0319e-15,4.4748e-07,-6.7854e-07,-5.0983,0.65237
11936,11.389,2.6364,0,0.00029903,2988.3,9.9123e-05,5.2953,9.8419e-05,0.0057566,-0.00029894,-2985.6,0.65227
11937,11.297,2.7273,0,0.00030142,3012.1,9.9765e-05,3.5479,9.9294e-05,0.0056278,-0.00030136,-3010.4,0.64291
11938,11.389,2.7273,0.05,8.8393e-07,8.8332,6.7875e-07,5.0999,-1.8073e-12,2.9644e-07,-6.7875e-07,-5.0999,0.6523
11939,11.389,2.4545,0,0.00029906,2988.5,9.9159e-05,5.6263,9.8411e-05,0.00579,-0.00029896,-2985.7,0.6521
11940,11.297,2.5455,0,0.00030144,3012.4,9.9796e-05,3.8303,9.9287e-05,0.0056411,-0.00030138,-3010.4,0.64278
11941,11.389,2.5455,0.05,8.8446e-07,8.8385,6.7916e-07,5.103,-2.71e-12,1.4093e-07,-6.7915e-07,-5.1029,0.65217
11942,11.389,2.2727,0,0.00029909,2988.9,9.9207e-05,6.0623,9.8401e-05,0.0058061,-0.00029899,-2985.8,0.65187
11943,11.297,2.3636,0,0.00030148,3012.7,9.9841e-05,4.2353,9.9278e-05,0.0056393,-0.00030141,-3010.6,0.64258
11944,11.389,2.3636,0.05,8.8522e-07,8.8461,6.7974e-07,5.1074,-8.8592e-13,2.9314e-08,-6.7974e-07,-5.1073,0.65197
11945,11.389,2.0909,0,0.00029913,2989.3,9.9263e-05,6.5779,9.8389e-05,0.0057752,-0.00029902,-2986,0.65158
11946,11.297,2.1818,0,0.00030152,3013.1,9.9898e-05,4.7421,9.9267e-05,0.0056027,-0.00030144,-3010.8,0.64232
11947,11.389,2.1818,0.05,8.8617e-07,8.8556,6.8047e-07,5.1128,-2.704e-12,1.6268e-08,-6.8047e-07,-5.1127,0.65171
11948,11.389,1.9091,0,0.00029918,2989.7,9.9326e-05,7.1435,9.8376e-05,0.0056579,-0.00029906,-2986.2,0.65122
11949,11.297,2,0,0.00030157,3013.6,9.9963e-05,5.3249,9.9255e-05,0.0054992,-0.00030148,-3011,0.64199
11950,11.389,2,0.05,8.8727e-07,8.8665,6.8131e-07,5.1192,-2.703e-12,-1.3478e-07,-6.8131e-07,-5.119,0.65138
11951,11.389,1.7273,0,0.00029923,2990.2,9.9391e-05,7.7272,9.8363e-05,0.005411,-0.0002991,-2986.4,0.65079
11952,11.297,1.8182,0,0.00030163,3014.2,0.00010003,5.9547,9.9242e-05,0.0052915,-0.00030153,-3011.2,0.64159
11953,11.389,1.8182,0.05,8.8844e-07,8.8783,6.8222e-07,5.1259,-2.7059e-12,7.8328e-08,-6.8221e-07,-5.1259,0.65099
11954,11.389,1.5455,0,0.00029928,2990.7,9.9456e-05,8.297,9.8352e-05,0.0049861,-0.00029914,-2986.6,0.6503
11955,11.297,1.6364,0,0.00030169,3014.8,0.00010011,6.6015,9.923e-05,0.0049402,-0.00030157,-3011.5,0.64113
11956,11.389,1.6364,0.05,8.8965e-07,8.8903,6.8314e-07,5.1329,-1.8034e-12,2.1232e-07,-6.8313e-07,-5.1328,0.65053
11957,11.389,1.3636,0,0.00029933,2991.3,9.9517e-05,8.8227,9.8343e-05,0.004332,-0.00029918,-2986.8,0.64974
11958,11.297,1.4545,0,0.00030175,3015.4,0.00010018,7.2358,9.9219e-05,0.0044008,-0.00030163,-3011.8,0.6406
11959,11.389,1.4545,0.05,8.9081e-07,8.9019,6.8404e-07,5.1396,-2.7198e-12,2.1237e-07,-6.8402e-07,-5.1395,0.65001
11960,11.389,1.1818,0,0.00029938,2991.8,9.9572e-05,9.2786,9.8337e-05,0.0033873,-0.00029923,-2987.1,0.64912
11961,11.297,1.2727,0,0.00030181,3016.1,0.00010025,7.8311,9.9211e-05,0.0036309,-0.00030168,-3012.1,0.64001
11962,11.389,1.2727,0.05,8.9186e-07,8.9124,6.8484e-07,5.1456,-3.6384e-12,4.4388e-07,-6.8483e-07,-5.1455,0.64942
11963,11.389,1,0,0.00029944,2992.3,9.9619e-05,9.6453,9.8336e-05,0.0021265,-0.00029927,-2987.5,0.64843
11964,11.297,1.0909,0,0.00030188,3016.7,0.00010032,8.3656,9.9206e-05,0.002572,-0.00030174,-3012.5,0.63935
11965,11.389,1.0909,0.05,8.9273e-07,8.9211,6.8551e-07,5.1507,-3.6471e-12,2.5761e-07,-6.8551e-07,-5.1506,0.64876
11966,11.389,0.81818,0,0.00029949,2992.8,9.9659e-05,9.9112,9.834e-05,0.0003862,-0.00029932,-2987.8,0.64768
11967,11.297,0.90909,0,0.00030195,3017.4,0.00010038,8.8239,9.9205e-05,0.0012478,-0.0003018,-3013,0.63862
11968,11.389,0.90909,0.05,8.9336e-07,8.9274,6.8599e-07,5.1543,-3.6493e-12,6.3025e-07,-6.8598e-07,-5.1542,0.64804
11969,11.389,0.63636,0,0.00029954,2993.4,9.969e-05,10.076,9.8349e-05,-0.0014237,-0.00029937,-2988.3,0.64686
11970,11.297,0.72727,0,0.00030202,3018.1,0.00010043,9.1989,9.9209e-05,-0.00062557,-0.00030186,-3013.5,0.63783
11971,11.389,0.72727,0.05,8.935e-07,8.9288,6.861e-07,5.1551,-3.6594e-12,1.4058e-06,-6.8609e-07,-5.155,0.64725
11972,11.389,0.45455,0,0.0002996,2994,9.972e-05,10.177,9.8365e-05,-0.0058673,-0.00029943,-2988.9,0.64597
11973,11.297,0.54545,0,0.00030209,3018.8,0.00010048,9.4957,9.9219e-05,-0.00204,-0.00030193,-3014,0.63697
11974,11.389,0.54545,0.05,8.9031e-07,8.8969,6.8365e-07,5.1367,-4.5702e-12,1.562e-06,-6.8364e-07,-5.1366,0.6464
11975,11.389,0.27273,0,0.00029976,2995.5,9.982e-05,10.76,9.8387e-05,-0.0062579,-0.00029958,-2990.1,0.64503
11976,11.297,0.36364,0,0.00030218,3019.7,0.00010054,9.7822,9.9233e-05,-0.0082531,-0.00030201,-3014.8,0.63605
11977,11.389,0.36364,0.05,8.411e-07,8.4052,6.4587e-07,4.8528,-4.5665e-12,1.4918e-06,-6.4586e-07,-4.8527,0.64549
11978,11.297,0.18182,0,0.00030245,3022.4,0.00010074,11.131,9.9255e-05,-0.0013232,-0.00030226,-3016.8,0.63506
11979,11.389,0.18182,0.05,9.2455e-08,0.92391,7.1001e-08,0.53348,-2.7082e-12,7.5839e-06,-7.0987e-08,-0.53336,0.6445
11980,11.389,0.090909,0,0.00029936,2991.5,9.9419e-05,7.56,9.8413e-05,-0.001793,-0.00029923,-2987.7,0.64401
11981,11.205,5.7273,0,0.00030485,3046.4,0.00010144,10.067,0.0001001,-0.0048585,-0.00030468,-3041.4,0.62615
11982,11.114,5.8182,0,0.00030756,3073.5,0.00010238,10.641,0.00010097,-0.0015051,-0.00030738,-3068.1,0.61628
11983,11.205,5.8182,0.05,8.9903e-08,0.89841,6.9031e-08,0.51864,4.1933e-12,-1.0639e-06,-6.9038e-08,-0.51875,0.62562
11984,11.205,5.9091,0,0.00030449,3042.8,0.00010109,7.287,0.00010012,-0.0014863,-0.00030436,-3039.1,0.62512
11985,11.205,5.5455,0,0.00030466,3044.5,0.0001013,9.076,0.00010009,-0.0044917,-0.0003045,-3039.9,0.62712
11986,11.114,5.6364,0,0.00030726,3070.5,0.00010214,8.8819,0.00010095,-0.0058679,-0.00030711,-3066,0.61729
11987,11.205,5.6364,0.05,8.4256e-07,8.4198,6.4698e-07,4.8611,3.647e-12,1.9843e-06,-6.4699e-07,-4.8612,0.62662
11988,11.205,5.3636,0,0.00030456,3043.5,0.00010122,8.5972,0.00010008,-0.0012327,-0.00030441,-3039.2,0.62801
11989,11.114,5.4545,0,0.00030713,3069.2,0.00010204,8.2047,0.00010095,-0.0016684,-0.00030699,-3065.1,0.61822
11990,11.205,5.4545,0.05,8.9212e-07,8.915,6.8503e-07,5.1471,3.6524e-12,2.7668e-06,-6.8504e-07,-5.1471,0.62755
11991,11.205,5.1818,0,0.00030447,3042.6,0.00010115,8.0915,0.00010007,0.00022831,-0.00030433,-3038.6,0.62884
11992,11.114,5.2727,0,0.00030702,3068.1,0.00010195,7.5503,0.00010094,-0.00056757,-0.00030689,-3064.3,0.61909
11993,11.205,5.2727,0.05,8.9554e-07,8.9492,6.8766e-07,5.1668,3.6474e-12,1.2519e-06,-6.8767e-07,-5.1669,0.62841
11994,11.205,5,0,0.00030439,3041.8,0.00010108,7.525,0.00010007,0.0016626,-0.00030426,-3038,0.62961
11995,11.114,5.0909,0,0.00030692,3067.1,0.00010186,6.8544,0.00010094,0.00085677,-0.0003068,-3063.7,0.6199
11996,11.205,5.0909,0.05,8.9568e-07,8.9506,6.8777e-07,5.1676,2.7328e-12,1.1839e-06,-6.8777e-07,-5.1677,0.62921
11997,11.205,4.8182,0,0.00030431,3041,0.000101,6.8996,0.00010008,0.002763,-0.00030419,-3037.5,0.63031
11998,11.114,4.9091,0,0.00030682,3066.1,0.00010176,6.1143,0.00010095,0.0019269,-0.00030672,-3063.1,0.62063
11999,11.205,4.9091,0.05,8.9538e-07,8.9476,6.8754e-07,5.1659,3.6374e-12,5.5468e-07,-6.8754e-07,-5.166,0.62994
12000,11.205,4.6364,0,0.00030423,3040.2,0.00010092,6.2265,0.00010009,0.0036293,-0.00030412,-3037.1,0.63094
12001,11.114,4.7273,0,0.00030673,3065.2,0.00010167,5.338,0.00010096,0.0028136,-0.00030664,-3062.5,0.6213
12002,11.205,4.7273,0.05,8.9486e-07,8.9424,6.8714e-07,5.1629,9.0141e-13,-2.3698e-07,-6.8714e-07,-5.1629,0.63061
12003,11.205,4.4545,0,0.00030415,3039.4,0.00010083,5.5232,0.0001001,0.0042721,-0.00030406,-3036.7,0.6315
12004,11.114,4.5455,0,0.00030664,3064.3,0.00010157,4.5401,0.00010097,0.0034921,-0.00030656,-3062,0.6219
12005,11.205,4.5455,0.05,8.9419e-07,8.9357,6.8662e-07,5.159,1.804e-12,6.5933e-07,-6.8663e-07,-5.1591,0.6312
12006,11.205,4.2727,0,0.00030408,3038.7,0.00010075,4.8123,0.00010011,0.0047317,-0.000304,-3036.3,0.632
12007,11.114,4.3636,0,0.00030656,3063.5,0.00010148,3.7401,0.00010098,0.0039959,-0.00030649,-3061.6,0.62244
12008,11.205,4.3636,0.05,8.9341e-07,8.9279,6.8602e-07,5.1545,1.7982e-12,-4.8682e-07,-6.8603e-07,-5.1545,0.63174
12009,11.205,4.0909,0,0.00030402,3038.1,0.00010067,4.1198,0.00010012,0.005044,-0.00030394,-3036,0.63243
12010,11.114,4.1818,0,0.00030648,3062.7,0.00010139,2.9613,0.00010099,0.0043515,-0.00030643,-3061.2,0.62291
12011,11.205,4.1818,0.05,8.9258e-07,8.9196,6.8539e-07,5.1497,2.705e-12,-7.0457e-07,-6.8539e-07,-5.1498,0.6322
12012,11.205,3.9091,0,0.00030396,3037.5,0.0001006,3.473,0.00010013,0.0052445,-0.0003039,-3035.7,0.6328
12013,11.114,4,0,0.00030641,3062,0.0001013,2.2293,0.000101,0.00459,-0.00030637,-3060.9,0.62331
12014,11.205,4,0.05,8.9175e-07,8.9114,6.8475e-07,5.145,-2.5418e-14,-6.8186e-07,-6.8475e-07,-5.145,0.6326
12015,11.205,3.7273,0,0.0003039,3036.9,0.00010053,2.8992,0.00010014,0.0053677,-0.00030385,-3035.5,0.63309
12016,11.114,3.8182,0,0.00030635,3061.3,0.00010123,1.57,0.00010102,0.0047395,-0.00030632,-3060.6,0.62364
12017,11.205,3.8182,0.05,8.9097e-07,8.9036,6.8416e-07,5.1404,-2.563e-14,-5.7357e-07,-6.8416e-07,-5.1405,0.63293
12018,11.205,3.5455,0,0.00030386,3036.5,0.00010048,2.4234,0.00010015,0.0054434,-0.00030382,-3035.3,0.63333
12019,11.114,3.6364,0,0.00030629,3060.8,0.00010116,1.008,0.00010103,0.0048337,-0.00030628,-3060.3,0.62391
12020,11.205,3.6364,0.05,8.9029e-07,8.8968,6.8363e-07,5.1366,-2.2707e-14,2.6738e-07,-6.8363e-07,-5.1366,0.6332
12021,11.205,3.3636,0,0.00030383,3036.2,0.00010044,2.0671,0.00010016,0.0054902,-0.00030379,-3035.2,0.63349
12022,11.114,3.4545,0,0.00030625,3060.4,0.00010111,0.56536,0.00010104,0.0049072,-0.00030624,-3060.1,0.62411
12023,11.205,3.4545,0.05,8.8974e-07,8.8913,6.8321e-07,5.1334,-1.758e-14,2.0223e-07,-6.8321e-07,-5.1334,0.6334
12024,11.205,3.1818,0,0.00030381,3036,0.00010041,1.8464,0.00010017,0.0055176,-0.00030378,-3035.1,0.63359
12025,11.114,3.2727,0,0.00030623,3060.1,0.00010108,0.25969,0.00010104,0.0050177,-0.00030622,-3060,0.62424
12026,11.205,3.2727,0.05,8.8936e-07,8.8875,6.8292e-07,5.1312,-1.1342e-14,-3.397e-07,-6.8292e-07,-5.1312,0.63353
12027,11.205,3,0,0.0003038,3035.9,0.0001004,1.7717,0.00010017,0.0055273,-0.00030377,-3035.1,0.63363
12028,11.114,3.0909,0,0.00030621,3060,0.00010106,0.1034,0.00010105,0.0053046,-0.00030621,-3060,0.62431
12029,11.205,3.0909,0.05,8.8916e-07,8.8855,6.8277e-07,5.13,-3.9754e-15,1.3409e-07,-6.8277e-07,-5.13,0.63359
12030,11.205,2.8182,0,0.00030381,3036,0.00010041,1.8464,0.00010017,0.0055179,-0.00030378,-3035.1,0.63359
12031,11.114,2.9091,0,0.00030621,3060,0.00010106,0.1034,0.00010105,0.0053046,-0.00030621,-3060,0.62431
12032,11.205,2.9091,0.05,8.8916e-07,8.8855,6.8276e-07,5.1301,-1.815e-12,5.3659e-07,-6.8277e-07,-5.13,0.63359
12033,11.205,2.6364,0,0.00030383,3036.2,0.00010044,2.0671,0.00010016,0.0054903,-0.00030379,-3035.2,0.63349
12034,11.114,2.7273,0,0.00030623,3060.1,0.00010108,0.25969,0.00010104,0.0050179,-0.00030622,-3060,0.62424
12035,11.205,2.7273,0.05,8.8936e-07,8.8875,6.8292e-07,5.1312,-8.9767e-13,6.0297e-07,-6.8292e-07,-5.1312,0.63353
12036,11.205,2.4545,0,0.00030386,3036.5,0.00010048,2.4235,0.00010015,0.0054436,-0.00030382,-3035.3,0.63333
12037,11.114,2.5455,0,0.00030625,3060.4,0.00010111,0.56536,0.00010104,0.0049069,-0.00030624,-3060.1,0.62411
12038,11.205,2.5455,0.05,8.8974e-07,8.8913,6.8321e-07,5.1334,-1.8004e-12,3.0944e-07,-6.8321e-07,-5.1334,0.6334
12039,11.205,2.2727,0,0.0003039,3036.9,0.00010053,2.8992,0.00010014,0.0053682,-0.00030385,-3035.5,0.63309
12040,11.114,2.3636,0,0.00030629,3060.8,0.00010116,1.008,0.00010103,0.004834,-0.00030628,-3060.3,0.62391
12041,11.205,2.3636,0.05,8.9029e-07,8.8968,6.8364e-07,5.1366,-1.7954e-12,4.1718e-07,-6.8363e-07,-5.1365,0.6332
12042,11.205,2.0909,0,0.00030396,3037.5,0.0001006,3.473,0.00010013,0.0052448,-0.0003039,-3035.7,0.6328
12043,11.114,2.1818,0,0.00030635,3061.3,0.00010123,1.57,0.00010102,0.0047394,-0.00030632,-3060.6,0.62364
12044,11.205,2.1818,0.05,8.9097e-07,8.9036,6.8416e-07,5.1405,-8.8156e-13,2.1142e-07,-6.8416e-07,-5.1404,0.63293
12045,11.205,1.9091,0,0.00030402,3038.1,0.00010067,4.1198,0.00010012,0.0050441,-0.00030394,-3036,0.63243
12046,11.114,2,0,0.00030641,3062,0.0001013,2.2294,0.000101,0.0045903,-0.00030637,-3060.9,0.62331
12047,11.205,2,0.05,8.9175e-07,8.9114,6.8475e-07,5.145,-2.7005e-12,2.8409e-07,-6.8475e-07,-5.1449,0.6326
12048,11.205,1.7273,0,0.00030408,3038.7,0.00010075,4.8123,0.00010011,0.0047321,-0.000304,-3036.3,0.632
12049,11.114,1.8182,0,0.00030648,3062.7,0.00010139,2.9614,0.00010099,0.004352,-0.00030643,-3061.2,0.62291
12050,11.205,1.8182,0.05,8.9258e-07,8.9196,6.8539e-07,5.1498,-3.6112e-12,5.3661e-07,-6.8539e-07,-5.1497,0.6322
12051,11.205,1.5455,0,0.00030415,3039.4,0.00010083,5.5232,0.0001001,0.0042729,-0.00030406,-3036.7,0.6315
12052,11.114,1.6364,0,0.00030656,3063.5,0.00010148,3.7401,0.00010098,0.0039965,-0.00030649,-3061.6,0.62244
12053,11.205,1.6364,0.05,8.9341e-07,8.9279,6.8603e-07,5.1545,-2.7076e-12,6.6813e-07,-6.8602e-07,-5.1545,0.63174
12054,11.205,1.3636,0,0.00030423,3040.2,0.00010092,6.2265,0.00010009,0.0036301,-0.00030412,-3037.1,0.63094
12055,11.114,1.4545,0,0.00030664,3064.3,0.00010157,4.5401,0.00010097,0.0034928,-0.00030656,-3062,0.6219
12056,11.205,1.4545,0.05,8.9419e-07,8.9357,6.8663e-07,5.1591,-3.6218e-12,7.4361e-07,-6.8662e-07,-5.159,0.6312
12057,11.205,1.1818,0,0.00030431,3041,0.000101,6.8997,0.00010008,0.0027638,-0.00030419,-3037.5,0.63031
12058,11.114,1.2727,0,0.00030673,3065.2,0.00010167,5.3381,0.00010096,0.0028144,-0.00030664,-3062.5,0.6213
12059,11.205,1.2727,0.05,8.9486e-07,8.9424,6.8715e-07,5.163,-3.6287e-12,9.5724e-07,-6.8714e-07,-5.1629,0.63061
12060,11.205,1,0,0.00030439,3041.8,0.00010108,7.525,0.00010007,0.0016634,-0.00030426,-3038,0.62961
12061,11.114,1.0909,0,0.00030682,3066.1,0.00010176,6.1143,0.00010095,0.0019273,-0.00030672,-3063.1,0.62063
12062,11.205,1.0909,0.05,8.9538e-07,8.9476,6.8754e-07,5.166,-3.6372e-12,8.474e-07,-6.8754e-07,-5.1658,0.62994
12063,11.205,0.81818,0,0.00030447,3042.6,0.00010115,8.0915,0.00010007,0.00022935,-0.00030433,-3038.6,0.62884
12064,11.114,0.90909,0,0.00030692,3067.1,0.00010186,6.8544,0.00010094,0.00085769,-0.0003068,-3063.7,0.6199
12065,11.205,0.90909,0.05,8.9568e-07,8.9506,6.8778e-07,5.1677,-3.6423e-12,3.8373e-07,-6.8777e-07,-5.1676,0.62921
12066,11.205,0.63636,0,0.00030456,3043.5,0.00010122,8.5972,0.00010008,-0.0012324,-0.00030441,-3039.2,0.62801
12067,11.114,0.72727,0,0.00030702,3068.1,0.00010195,7.5504,0.00010094,-0.00056619,-0.00030689,-3064.3,0.61909
12068,11.205,0.72727,0.05,8.9554e-07,8.9492,6.8767e-07,5.1669,-4.5591e-12,-8.8733e-08,-6.8766e-07,-5.1668,0.62841
12069,11.205,0.45455,0,0.00030466,3044.5,0.0001013,9.0761,0.00010009,-0.0044914,-0.0003045,-3039.9,0.62712
12070,11.114,0.54545,0,0.00030713,3069.2,0.00010204,8.2048,0.00010095,-0.0016689,-0.00030699,-3065.1,0.61822
12071,11.205,0.54545,0.05,8.9212e-07,8.915,6.8504e-07,5.1472,-3.6522e-12,-4.3391e-07,-6.8503e-07,-5.147,0.62755
12072,11.205,0.27273,0,0.00030485,3046.4,0.00010144,10.067,0.0001001,-0.0048573,-0.00030468,-3041.4,0.62615
12073,11.114,0.36364,0,0.00030726,3070.5,0.00010214,8.882,0.00010095,-0.0058669,-0.00030711,-3066,0.61729
12074,11.205,0.36364,0.05,8.4256e-07,8.4198,6.4699e-07,4.8613,-3.6408e-12,1.1303e-06,-6.4698e-07,-4.8611,0.62662
12075,11.114,0.18182,0,0.00030756,3073.5,0.00010238,10.641,0.00010097,-0.0015042,-0.00030738,-3068.1,0.61628
12076,11.205,0.18182,0.05,8.9901e-08,0.89839,6.9036e-08,0.51876,-4.9986e-12,5.5895e-06,-6.9029e-08,-0.51861,0.62562
12077,11.205,0.090909,0,0.00030449,3042.8,0.00010109,7.287,0.00010012,-0.0014854,-0.00030436,-3039.1,0.62512
12078,11.022,5.7273,0,0.00030995,3097.4,0.00010307,9.3702,0.00010182,-0.0035962,-0.00030979,-3092.7,0.60749
12079,10.93,5.8182,0,0.00031268,3124.7,0.00010403,10.138,0.00010268,-0.0019189,-0.00031251,-3119.6,0.59771
12080,11.022,5.8182,0.05,8.9344e-08,0.89282,6.86e-08,0.51541,6.2621e-12,6.238e-07,-6.861e-08,-0.51553,0.60695
12081,11.022,5.9091,0,0.00030962,3094.1,0.00010276,7.005,0.00010183,-0.0012315,-0.00030951,-3090.6,0.60644
12082,11.022,5.5455,0,0.00030973,3095.1,0.00010288,7.9859,0.00010181,-0.0031223,-0.00030959,-3091.1,0.60846
12083,10.93,5.6364,0,0.00031235,3121.3,0.00010374,7.9821,0.00010268,-0.0035685,-0.00031221,-3117.3,0.59873
12084,11.022,5.6364,0.05,8.4462e-07,8.4404,6.4856e-07,4.873,3.6453e-12,1.5674e-06,-6.4857e-07,-4.8731,0.60796
12085,11.022,5.3636,0,0.00030959,3093.8,0.00010276,7.1368,0.00010181,-0.0010335,-0.00030947,-3090.2,0.60937
12086,10.93,5.4545,0,0.00031219,3119.7,0.0001036,6.922,0.00010268,-0.0013059,-0.00031207,-3116.3,0.59968
12087,11.022,5.4545,0.05,8.9443e-07,8.9382,6.8681e-07,5.1604,3.6405e-12,2.0582e-06,-6.8682e-07,-5.1605,0.6089
12088,11.022,5.1818,0,0.00030947,3092.6,0.00010265,6.2934,0.00010181,-4.9075e-07,-0.00030936,-3089.4,0.61021
12089,10.93,5.2727,0,0.00031205,3118.3,0.00010347,5.9137,0.00010268,-0.00060142,-0.00031194,-3115.3,0.60056
12090,11.022,5.2727,0.05,8.9805e-07,8.9743,6.8959e-07,5.1812,3.6387e-12,6.0121e-07,-6.8959e-07,-5.1814,0.60978
12091,11.022,5,0,0.00030935,3091.4,0.00010254,5.4248,0.00010182,0.0010062,-0.00030926,-3088.7,0.61099
12092,10.93,5.0909,0,0.00031191,3117,0.00010334,4.8962,0.00010269,0.00020511,-0.00031183,-3114.5,0.60138
12093,11.022,5.0909,0.05,8.9841e-07,8.9779,6.8987e-07,5.1834,2.7233e-12,5.8215e-07,-6.8987e-07,-5.1834,0.61059
12094,11.022,4.8182,0,0.00030925,3090.3,0.00010243,4.5347,0.00010183,0.0017888,-0.00030917,-3088.1,0.6117
12095,10.93,4.9091,0,0.00031179,3115.7,0.00010321,3.8696,0.0001027,0.00074012,-0.00031172,-3113.8,0.60212
12096,11.022,4.9091,0.05,8.9837e-07,8.9775,6.8983e-07,5.1831,2.7195e-12,1.459e-08,-6.8984e-07,-5.1832,0.61133
12097,11.022,4.6364,0,0.00030914,3089.3,0.00010232,3.6344,0.00010184,0.0023856,-0.00030908,-3087.5,0.61233
12098,10.93,4.7273,0,0.00031167,3114.5,0.00010309,2.8432,0.00010271,0.001001,-0.00031162,-3113.1,0.6028
12099,11.022,4.7273,0.05,8.9814e-07,8.9752,6.8966e-07,5.1818,1.8025e-12,-7.8902e-07,-6.8966e-07,-5.1819,0.612
12100,11.022,4.4545,0,0.00030904,3088.3,0.00010221,2.7405,0.00010185,0.0027721,-0.000309,-3086.9,0.61291
12101,10.93,4.5455,0,0.00031155,3113.4,0.00010297,1.8315,0.00010272,0.00072565,-0.00031152,-3112.5,0.60341
12102,11.022,4.5455,0.05,8.9776e-07,8.9714,6.8937e-07,5.1796,8.8954e-13,-1.5839e-07,-6.8937e-07,-5.1797,0.61261
12103,11.022,4.2727,0,0.00030895,3087.4,0.00010211,1.8733,0.00010186,0.002903,-0.00030892,-3086.5,0.61341
12104,10.93,4.3636,0,0.00031145,3112.3,0.00010285,0.85393,0.00010274,-0.0013911,-0.00031143,-3111.9,0.60395
12105,11.022,4.3636,0.05,8.9729e-07,8.9667,6.8901e-07,5.1769,8.8556e-13,-1.1539e-06,-6.89e-07,-5.1769,0.61314
12106,11.022,4.0909,0,0.00030887,3086.6,0.00010202,1.0561,0.00010188,0.0025502,-0.00030885,-3086,0.61385
12107,10.93,4.1818,0,0.00031135,3111.4,0.00010275,0.037983,0.00010273,-0.11164,-0.00031135,-3111.4,0.60442
12108,11.022,4.1818,0.05,8.9675e-07,8.9614,6.886e-07,5.1738,8.8091e-13,-1.3197e-06,-6.886e-07,-5.1739,0.61362
12109,11.022,3.9091,0,0.0003088,3085.8,0.00010193,0.31512,0.00010189,-0.00067217,-0.00030879,-3085.7,0.61422
12110,10.93,4,0,0.00031127,3110.5,0.00010276,0.0079754,0.00010264,-0.93174,-0.00031128,-3111,0.60483
12111,11.022,4,0.05,8.962e-07,8.9559,6.8817e-07,5.1707,8.81e-13,-1.2174e-06,-6.8817e-07,-5.1707,0.61402
12112,11.022,3.7273,0,0.00030873,3085.2,0.0001019,0.0086123,0.00010185,-0.34135,-0.00030874,-3085.4,0.61452
12113,10.93,3.8182,0,0.00031119,3109.8,0.00010278,0.0062088,0.00010255,-1.6812,-0.00031122,-3110.6,0.60517
12114,11.022,3.8182,0.05,8.9568e-07,8.9506,6.8777e-07,5.1676,-2.6933e-14,-1.0242e-06,-6.8777e-07,-5.1676,0.61436
12115,11.022,3.5455,0,0.00030868,3084.7,0.00010191,0.0060524,0.00010179,-0.86743,-0.0003087,-3085.1,0.61476
12116,10.93,3.6364,0,0.00031113,3109.1,0.00010279,0.0056388,0.00010248,-2.3115,-0.00031117,-3110.3,0.60544
12117,11.022,3.6364,0.05,8.9521e-07,8.9459,6.8741e-07,5.1649,-2.3294e-14,-1.7866e-07,-6.8741e-07,-5.1649,0.61462
12118,11.022,3.3636,0,0.00030865,3084.3,0.00010192,0.0055501,0.00010175,-1.2587,-0.00030867,-3085,0.61493
12119,10.93,3.4545,0,0.00031108,3108.7,0.0001028,0.0053777,0.00010242,-2.8026,-0.00031113,-3110.1,0.60564
12120,11.022,3.4545,0.05,8.9483e-07,8.9421,6.8711e-07,5.1627,-1.894e-14,-3.4631e-07,-6.8711e-07,-5.1627,0.61483
12121,11.022,3.1818,0,0.00030862,3084.1,0.00010192,0.0053725,0.00010172,-1.4994,-0.00030865,-3084.9,0.61503
12122,10.93,3.2727,0,0.00031105,3108.4,0.0001028,0.0052434,0.00010238,-3.1391,-0.0003111,-3109.9,0.60578
12123,11.022,3.2727,0.05,8.9456e-07,8.9394,6.8691e-07,5.1612,-1.182e-14,-7.5913e-07,-6.8691e-07,-5.1612,0.61496
12124,11.022,3,0,0.00030862,3084,0.00010192,0.0053247,0.00010171,-1.5806,-0.00030864,-3084.8,0.61506
12125,10.93,3.0909,0,0.00031103,3108.2,0.00010281,0.0051842,0.00010236,-3.3101,-0.00031109,-3109.8,0.60585
12126,11.022,3.0909,0.05,8.9442e-07,8.938,6.868e-07,5.1604,-9.1362e-13,-2.8419e-07,-6.868e-07,-5.1603,0.61503
12127,11.022,2.8182,0,0.00030862,3084.1,0.00010192,0.0053726,0.00010172,-1.4994,-0.00030865,-3084.9,0.61503
12128,10.93,2.9091,0,0.00031103,3108.2,0.00010281,0.0051844,0.00010236,-3.3101,-0.00031109,-3109.8,0.60585
12129,11.022,2.9091,0.05,8.9442e-07,8.938,6.8681e-07,5.1604,-9.0535e-13,2.6956e-07,-6.868e-07,-5.1603,0.61503
12130,11.022,2.6364,0,0.00030865,3084.3,0.00010192,0.00555,0.00010175,-1.2587,-0.00030867,-3085,0.61493
12131,10.93,2.7273,0,0.00031105,3108.4,0.0001028,0.0052433,0.00010238,-3.1391,-0.0003111,-3109.9,0.60578
12132,11.022,2.7273,0.05,8.9456e-07,8.9394,6.8691e-07,5.1612,-8.9732e-13,9.2541e-08,-6.8691e-07,-5.1612,0.61496
12133,11.022,2.4545,0,0.00030868,3084.7,0.00010191,0.0060524,0.00010179,-0.86742,-0.0003087,-3085.1,0.61476
12134,10.93,2.5455,0,0.00031108,3108.7,0.0001028,0.0053776,0.00010242,-2.8026,-0.00031113,-3110.1,0.60564
12135,11.022,2.5455,0.05,8.9483e-07,8.9421,6.8712e-07,5.1627,1.9588e-14,-7.4024e-08,-6.8711e-07,-5.1627,0.61483
12136,11.022,2.2727,0,0.00030873,3085.2,0.0001019,0.0086124,0.00010185,-0.34135,-0.00030874,-3085.4,0.61452
12137,10.93,2.3636,0,0.00031113,3109.1,0.00010279,0.0056389,0.00010248,-2.3114,-0.00031117,-3110.3,0.60544
12138,11.022,2.3636,0.05,8.9521e-07,8.9459,6.8741e-07,5.1649,-1.7935e-12,1.1263e-07,-6.8741e-07,-5.1649,0.61462
12139,11.022,2.0909,0,0.0003088,3085.8,0.00010193,0.31513,0.00010189,-0.00067229,-0.00030879,-3085.7,0.61422
12140,10.93,2.1818,0,0.00031119,3109.8,0.00010278,0.0062087,0.00010255,-1.6812,-0.00031122,-3110.6,0.60517
12141,11.022,2.1818,0.05,8.9568e-07,8.9506,6.8777e-07,5.1677,-2.6981e-12,-1.1532e-07,-6.8776e-07,-5.1676,0.61436
12142,11.022,1.9091,0,0.00030887,3086.6,0.00010202,1.0561,0.00010188,0.0025508,-0.00030885,-3086,0.61385
12143,10.93,2,0,0.00031127,3110.5,0.00010276,0.0079759,0.00010264,-0.93173,-0.00031128,-3111,0.60483
12144,11.022,2,0.05,8.962e-07,8.9559,6.8818e-07,5.1707,-8.7821e-13,-9.1187e-08,-6.8817e-07,-5.1706,0.61402
12145,11.022,1.7273,0,0.00030895,3087.4,0.00010211,1.8733,0.00010186,0.0029036,-0.00030892,-3086.5,0.61341
12146,10.93,1.8182,0,0.00031135,3111.4,0.00010275,0.037987,0.00010273,-0.11164,-0.00031135,-3111.4,0.60442
12147,11.022,1.8182,0.05,8.9675e-07,8.9614,6.886e-07,5.1739,-2.698e-12,2.3377e-07,-6.886e-07,-5.1738,0.61362
12148,11.022,1.5455,0,0.00030904,3088.3,0.00010221,2.7405,0.00010185,0.0027726,-0.000309,-3086.9,0.61291
12149,10.93,1.6364,0,0.00031145,3112.3,0.00010285,0.85394,0.00010274,-0.0013907,-0.00031143,-3111.9,0.60395
12150,11.022,1.6364,0.05,8.9729e-07,8.9667,6.8901e-07,5.1769,-3.6099e-12,1.8944e-07,-6.89e-07,-5.1769,0.61314
12151,11.022,1.3636,0,0.00030914,3089.3,0.00010232,3.6344,0.00010184,0.0023863,-0.00030908,-3087.5,0.61233
12152,10.93,1.4545,0,0.00031155,3113.4,0.00010297,1.8315,0.00010272,0.00072594,-0.00031152,-3112.5,0.60341
12153,11.022,1.4545,0.05,8.9776e-07,8.9714,6.8937e-07,5.1797,-3.6131e-12,3.6633e-07,-6.8937e-07,-5.1796,0.61261
12154,11.022,1.1818,0,0.00030925,3090.3,0.00010243,4.5347,0.00010183,0.0017892,-0.00030917,-3088.1,0.6117
12155,10.93,1.2727,0,0.00031167,3114.5,0.00010309,2.8433,0.00010271,0.0010017,-0.00031162,-3113.1,0.6028
12156,11.022,1.2727,0.05,8.9814e-07,8.9752,6.8966e-07,5.1819,-3.6202e-12,5.7257e-07,-6.8966e-07,-5.1818,0.612
12157,11.022,1,0,0.00030935,3091.4,0.00010254,5.4248,0.00010182,0.0010068,-0.00030926,-3088.7,0.61099
12158,10.93,1.0909,0,0.00031179,3115.7,0.00010321,3.8696,0.0001027,0.00074061,-0.00031172,-3113.8,0.60212
12159,11.022,1.0909,0.05,8.9837e-07,8.9775,6.8984e-07,5.1832,-3.6271e-12,4.4028e-07,-6.8983e-07,-5.1831,0.61133
12160,11.022,0.81818,0,0.00030947,3092.6,0.00010265,6.2934,0.00010181,7.6349e-07,-0.00030936,-3089.4,0.61021
12161,10.93,0.90909,0,0.00031191,3117,0.00010334,4.8962,0.00010269,0.00020635,-0.00031183,-3114.5,0.60138
12162,11.022,0.90909,0.05,8.9841e-07,8.9779,6.8987e-07,5.1835,-3.6328e-12,-8.6502e-08,-6.8987e-07,-5.1834,0.61059
12163,11.022,0.63636,0,0.00030959,3093.8,0.00010276,7.1368,0.00010181,-0.0010329,-0.00030947,-3090.2,0.60937
12164,10.93,0.72727,0,0.00031205,3118.3,0.00010347,5.9137,0.00010268,-0.00060037,-0.00031194,-3115.3,0.60056
12165,11.022,0.72727,0.05,8.9805e-07,8.9743,6.8959e-07,5.1814,-3.6387e-12,-7.5171e-07,-6.8959e-07,-5.1812,0.60978
12166,11.022,0.45455,0,0.00030973,3095.1,0.00010288,7.9859,0.00010181,-0.0031222,-0.00030959,-3091.1,0.60846
12167,10.93,0.54545,0,0.00031219,3119.7,0.0001036,6.9221,0.00010268,-0.0013059,-0.00031207,-3116.3,0.59968
12168,11.022,0.54545,0.05,8.9443e-07,8.9382,6.8682e-07,5.1605,-4.5525e-12,-1.6855e-06,-6.8681e-07,-5.1604,0.6089
12169,11.022,0.27273,0,0.00030995,3097.4,0.00010307,9.3703,0.00010182,-0.0035953,-0.00030979,-3092.7,0.60749
12170,10.93,0.36364,0,0.00031235,3121.3,0.00010374,7.9822,0.00010268,-0.0035679,-0.00031221,-3117.3,0.59873
12171,11.022,0.36364,0.05,8.4462e-07,8.4404,6.4857e-07,4.8731,-4.5545e-12,-3.9482e-08,-6.4856e-07,-4.873,0.60796
12172,10.93,0.18182,0,0.00031268,3124.7,0.00010403,10.138,0.00010268,-0.0019183,-0.00031251,-3119.6,0.59771
12173,11.022,0.18182,0.05,8.9342e-08,0.8928,6.8607e-08,0.51555,-7.24e-12,2.6439e-06,-6.86e-08,-0.51537,0.60695
12174,11.022,0.090909,0,0.00030962,3094.1,0.00010276,7.005,0.00010183,-0.0012305,-0.00030951,-3090.6,0.60644
12175,10.838,5.7273,0,0.00031507,3148.5,0.0001047,8.6641,0.00010354,-0.0025312,-0.00031492,-3144.1,0.58903
12176,10.746,5.8182,0,0.00031782,3176,0.00010568,9.6173,0.0001044,-0.002577,-0.00031766,-3171.2,0.57935
12177,10.838,5.8182,0.05,9.0685e-08,0.90622,6.9633e-08,0.52315,3.6421e-12,1.6474e-06,-6.9636e-08,-0.52327,0.58848
12178,10.838,5.9091,0,0.00031478,3145.6,0.00010444,6.7122,0.00010354,-0.0011093,-0.00031466,-3142.2,0.58797
12179,10.838,5.5455,0,0.00031481,3145.9,0.00010446,6.894,0.00010354,-0.0018148,-0.00031469,-3142.4,0.59002
12180,10.746,5.6364,0,0.00031745,3172.3,0.00010535,7.0736,0.00010441,-0.0013301,-0.00031733,-3168.8,0.58038
12181,10.838,5.6364,0.05,8.4722e-07,8.4663,6.5055e-07,4.888,3.6372e-12,1.6059e-06,-6.5056e-07,-4.8881,0.58951
12182,10.838,5.3636,0,0.00031464,3144.2,0.00010431,5.6782,0.00010355,-0.00092911,-0.00031454,-3141.4,0.59094
12183,10.746,5.4545,0,0.00031726,3170.4,0.00010517,5.6338,0.00010442,-0.00097079,-0.00031716,-3167.6,0.58135
12184,10.838,5.4545,0.05,8.972e-07,8.9658,6.8894e-07,5.1764,3.634e-12,2.202e-06,-6.8894e-07,-5.1765,0.59046
12185,10.838,5.1818,0,0.00031448,3142.7,0.00010416,4.497,0.00010356,-0.00053326,-0.00031441,-3140.4,0.59179
12186,10.746,5.2727,0,0.00031708,3168.6,0.00010499,4.2714,0.00010443,-0.0008617,-0.00031701,-3166.5,0.58224
12187,10.838,5.2727,0.05,9.0097e-07,9.0035,6.9183e-07,5.1981,3.6292e-12,7.0932e-07,-6.9183e-07,-5.1982,0.59135
12188,10.838,5,0,0.00031434,3141.2,0.00010401,3.3226,0.00010357,-0.0004092,-0.00031428,-3139.6,0.59258
12189,10.746,5.0909,0,0.00031692,3167,0.00010483,2.9293,0.00010444,-0.0013019,-0.00031687,-3165.5,0.58306
12190,10.838,5.0909,0.05,9.0152e-07,9.0089,6.9225e-07,5.2013,2.7137e-12,6.1304e-07,-6.9225e-07,-5.2014,0.59217
12191,10.838,4.8182,0,0.0003142,3139.9,0.00010387,2.1611,0.00010358,-0.00097023,-0.00031417,-3138.8,0.59329
12192,10.746,4.9091,0,0.00031676,3165.5,0.00010467,1.6115,0.00010445,-0.0034024,-0.00031674,-3164.6,0.58382
12193,10.838,4.9091,0.05,9.0168e-07,9.0106,6.9238e-07,5.2022,1.7992e-12,2.3299e-08,-6.9238e-07,-5.2023,0.59292
12194,10.838,4.6364,0,0.00031407,3138.6,0.00010373,1.0264,0.00010359,-0.0040358,-0.00031406,-3138.1,0.59394
12195,10.746,4.7273,0,0.00031662,3164,0.00010451,0.3454,0.00010446,-0.024076,-0.00031661,-3163.8,0.58451
12196,10.838,4.7273,0.05,9.0168e-07,9.0106,6.9237e-07,5.2022,1.7917e-12,-8.1547e-07,-6.9238e-07,-5.2023,0.5936
12197,10.838,4.4545,0,0.00031395,3137.4,0.00010362,0.054513,0.00010359,-0.12974,-0.00031396,-3137.4,0.59452
12198,10.746,4.5455,0,0.00031648,3162.6,0.00010449,0.012796,0.00010436,-0.9306,-0.0003165,-3163.1,0.58512
12199,10.838,4.5455,0.05,9.0154e-07,9.0092,6.9227e-07,5.2014,2.6996e-12,2.2937e-08,-6.9228e-07,-5.2015,0.59422
12200,10.838,4.2727,0,0.00031384,3136.3,0.00010362,0.0093188,0.00010347,-1.1229,-0.00031386,-3136.8,0.59503
12201,10.746,4.3636,0,0.00031636,3161.4,0.0001045,0.0075558,0.00010422,-2.0993,-0.00031639,-3162.4,0.58567
12202,10.838,4.3636,0.05,9.0131e-07,9.0069,6.9209e-07,5.2001,2.6944e-12,-1.1746e-06,-6.9209e-07,-5.2002,0.59476
12203,10.838,4.0909,0,0.00031374,3135.3,0.00010364,0.0067122,0.00010336,-2.0787,-0.00031378,-3136.3,0.59548
12204,10.746,4.1818,0,0.00031624,3160.2,0.00010452,0.006225,0.00010409,-3.187,-0.0003163,-3161.8,0.58615
12205,10.838,4.1818,0.05,9.0101e-07,9.0039,6.9186e-07,5.1984,-3.2905e-14,-1.2009e-06,-6.9187e-07,-5.1984,0.59524
12206,10.838,3.9091,0,0.00031366,3134.4,0.00010365,0.0058743,0.00010326,-2.9348,-0.00031371,-3135.9,0.59585
12207,10.746,4,0,0.00031614,3159.2,0.00010453,0.0056494,0.00010398,-4.1699,-0.00031621,-3161.3,0.58656
12208,10.838,4,0.05,9.0068e-07,9.0006,6.9161e-07,5.1965,-3.5163e-14,-1.1833e-06,-6.9161e-07,-5.1965,0.59565
12209,10.838,3.7273,0,0.00031358,3133.7,0.00010366,0.0054811,0.00010318,-3.669,-0.00031365,-3135.5,0.59616
12210,10.746,3.8182,0,0.00031605,3158.4,0.00010455,0.0053338,0.00010388,-5.0271,-0.00031614,-3160.9,0.58691
12211,10.838,3.8182,0.05,9.0035e-07,8.9973,6.9136e-07,5.1946,-3.2507e-14,-8.9992e-07,-6.9136e-07,-5.1946,0.59599
12212,10.838,3.5455,0,0.00031353,3133.1,0.00010367,0.0052622,0.00010311,-4.2622,-0.0003136,-3135.2,0.5964
12213,10.746,3.6364,0,0.00031598,3157.6,0.00010456,0.0051375,0.00010379,-5.7393,-0.00031608,-3160.5,0.58718
12214,10.838,3.6364,0.05,9.0005e-07,8.9943,6.9113e-07,5.1929,8.831e-13,-8.7969e-08,-6.9113e-07,-5.1929,0.59626
12215,10.838,3.3636,0,0.00031348,3132.7,0.00010368,0.0051328,0.00010306,-4.6982,-0.00031356,-3135,0.59657
12216,10.746,3.4545,0,0.00031593,3157.1,0.00010457,0.0050097,0.00010373,-6.2894,-0.00031603,-3160.2,0.58739
12217,10.838,3.4545,0.05,8.998e-07,8.9918,6.9094e-07,5.1914,-2.1284e-14,-1.574e-07,-6.9094e-07,-5.1914,0.59647
12218,10.838,3.1818,0,0.00031346,3132.4,0.00010369,0.0050618,0.00010303,-4.9649,-0.00031354,-3134.9,0.59667
12219,10.746,3.2727,0,0.00031589,3156.7,0.00010457,0.0049297,0.00010369,-6.6642,-0.000316,-3160,0.58752
12220,10.838,3.2727,0.05,8.9962e-07,8.99,6.908e-07,5.1904,-1.3341e-14,-6.0765e-07,-6.908e-07,-5.1904,0.5966
12221,10.838,3,0,0.00031345,3132.3,0.00010369,0.0050391,0.00010302,-5.0547,-0.00031353,-3134.8,0.5967
12222,10.746,3.0909,0,0.00031587,3156.5,0.00010458,0.0048903,0.00010366,-6.8539,-0.00031599,-3160,0.58759
12223,10.838,3.0909,0.05,8.9953e-07,8.9891,6.9073e-07,5.1899,-1.8236e-12,-2.1325e-07,-6.9073e-07,-5.1899,0.59667
12224,10.838,2.8182,0,0.00031346,3132.4,0.00010369,0.0050619,0.00010303,-4.9649,-0.00031354,-3134.9,0.59667
12225,10.746,2.9091,0,0.00031587,3156.5,0.00010458,0.0048907,0.00010366,-6.8539,-0.00031599,-3160,0.58759
12226,10.838,2.9091,0.05,8.9953e-07,8.9891,6.9073e-07,5.1899,-1.8144e-12,4.8175e-07,-6.9073e-07,-5.1898,0.59667
12227,10.838,2.6364,0,0.00031348,3132.7,0.00010368,0.0051328,0.00010306,-4.6982,-0.00031356,-3135,0.59657
12228,10.746,2.7273,0,0.00031589,3156.7,0.00010457,0.0049294,0.00010369,-6.6642,-0.000316,-3160,0.58752
12229,10.838,2.7273,0.05,8.9962e-07,8.99,6.908e-07,5.1904,-1.8055e-12,4.0049e-07,-6.908e-07,-5.1904,0.5966
12230,10.838,2.4545,0,0.00031353,3133.1,0.00010367,0.0052624,0.00010311,-4.2622,-0.0003136,-3135.2,0.5964
12231,10.746,2.5455,0,0.00031593,3157.1,0.00010457,0.00501,0.00010373,-6.2894,-0.00031603,-3160.2,0.58739
12232,10.838,2.5455,0.05,8.998e-07,8.9918,6.9094e-07,5.1915,-8.8754e-13,2.5534e-07,-6.9093e-07,-5.1914,0.59647
12233,10.838,2.2727,0,0.00031358,3133.7,0.00010366,0.0054813,0.00010318,-3.669,-0.00031365,-3135.5,0.59616
12234,10.746,2.3636,0,0.00031598,3157.6,0.00010456,0.0051379,0.00010379,-5.7393,-0.00031608,-3160.5,0.58718
12235,10.838,2.3636,0.05,9.0005e-07,8.9943,6.9113e-07,5.1929,-1.7898e-12,4.9921e-07,-6.9112e-07,-5.1928,0.59626
12236,10.838,2.0909,0,0.00031366,3134.4,0.00010365,0.0058747,0.00010326,-2.9348,-0.00031371,-3135.9,0.59585
12237,10.746,2.1818,0,0.00031605,3158.4,0.00010455,0.0053343,0.00010388,-5.0271,-0.00031614,-3160.9,0.58691
12238,10.838,2.1818,0.05,9.0035e-07,8.9973,6.9136e-07,5.1946,-1.7852e-12,2.5189e-07,-6.9136e-07,-5.1946,0.59599
12239,10.838,1.9091,0,0.00031374,3135.3,0.00010364,0.0067129,0.00010336,-2.0787,-0.00031378,-3136.3,0.59548
12240,10.746,2,0,0.00031614,3159.2,0.00010453,0.0056503,0.00010398,-4.1699,-0.00031621,-3161.3,0.58656
12241,10.838,2,0.05,9.0068e-07,9.0006,6.9161e-07,5.1965,-3.6005e-12,3.5348e-07,-6.9161e-07,-5.1965,0.59565
12242,10.838,1.7273,0,0.00031384,3136.3,0.00010362,0.0093196,0.00010347,-1.1229,-0.00031386,-3136.8,0.59503
12243,10.746,1.8182,0,0.00031624,3160.2,0.00010452,0.0062253,0.00010409,-3.187,-0.0003163,-3161.8,0.58615
12244,10.838,1.8182,0.05,9.0101e-07,9.0039,6.9187e-07,5.1985,-8.715e-13,6.7715e-07,-6.9186e-07,-5.1983,0.59524
12245,10.838,1.5455,0,0.00031395,3137.4,0.00010362,0.054518,0.00010359,-0.12973,-0.00031396,-3137.4,0.59452
12246,10.746,1.6364,0,0.00031636,3161.4,0.0001045,0.0075569,0.00010422,-2.0993,-0.00031639,-3162.4,0.58567
12247,10.838,1.6364,0.05,9.0131e-07,9.0069,6.921e-07,5.2002,-2.6918e-12,6.2519e-07,-6.9209e-07,-5.2001,0.59476
12248,10.838,1.3636,0,0.00031407,3138.6,0.00010373,1.0264,0.00010359,-0.0040355,-0.00031406,-3138.1,0.59394
12249,10.746,1.4545,0,0.00031648,3162.6,0.00010449,0.012796,0.00010436,-0.93059,-0.0003165,-3163.1,0.58512
12250,10.838,1.4545,0.05,9.0154e-07,9.0092,6.9228e-07,5.2015,-2.6928e-12,6.9073e-07,-6.9227e-07,-5.2014,0.59422
12251,10.838,1.1818,0,0.0003142,3139.9,0.00010387,2.1612,0.00010358,-0.00096942,-0.00031417,-3138.8,0.59329
12252,10.746,1.2727,0,0.00031662,3164,0.00010451,0.34541,0.00010446,-0.024075,-0.00031661,-3163.8,0.58451
12253,10.838,1.2727,0.05,9.0168e-07,9.0106,6.9238e-07,5.2023,-3.6065e-12,7.4762e-07,-6.9237e-07,-5.2022,0.5936
12254,10.838,1,0,0.00031434,3141.2,0.00010401,3.3226,0.00010357,-0.00040804,-0.00031428,-3139.6,0.59258
12255,10.746,1.0909,0,0.00031676,3165.5,0.00010467,1.6115,0.00010445,-0.0034018,-0.00031674,-3164.6,0.58382
12256,10.838,1.0909,0.05,9.0168e-07,9.0106,6.9238e-07,5.2023,-4.5236e-12,6.3203e-07,-6.9238e-07,-5.2022,0.59292
12257,10.838,0.81818,0,0.00031448,3142.7,0.00010416,4.497,0.00010356,-0.00053222,-0.00031441,-3140.4,0.59179
12258,10.746,0.90909,0,0.00031692,3167,0.00010483,2.9293,0.00010444,-0.0013002,-0.00031687,-3165.5,0.58306
12259,10.838,0.90909,0.05,9.0152e-07,9.0089,6.9226e-07,5.2014,-3.6258e-12,3.3511e-07,-6.9225e-07,-5.2013,0.59217
12260,10.838,0.63636,0,0.00031464,3144.2,0.0001043,5.6782,0.00010355,-0.00092867,-0.00031454,-3141.4,0.59094
12261,10.746,0.72727,0,0.00031708,3168.6,0.00010499,4.2714,0.00010443,-0.00086123,-0.00031701,-3166.5,0.58224
12262,10.838,0.72727,0.05,9.0097e-07,9.0035,6.9184e-07,5.1982,-4.5385e-12,1.7288e-07,-6.9183e-07,-5.1981,0.59135
12263,10.838,0.45455,0,0.00031481,3145.9,0.00010446,6.894,0.00010354,-0.0018145,-0.00031469,-3142.4,0.59002
12264,10.746,0.54545,0,0.00031726,3170.4,0.00010517,5.6338,0.00010442,-0.00097058,-0.00031716,-3167.6,0.58135
12265,10.838,0.54545,0.05,8.972e-07,8.9658,6.8894e-07,5.1765,-4.5434e-12,8.223e-08,-6.8893e-07,-5.1764,0.59046
12266,10.838,0.27273,0,0.00031507,3148.5,0.0001047,8.6641,0.00010354,-0.0025308,-0.00031492,-3144.1,0.58903
12267,10.746,0.36364,0,0.00031745,3172.3,0.00010535,7.0736,0.00010441,-0.0013298,-0.00031733,-3168.8,0.58038
12268,10.838,0.36364,0.05,8.4722e-07,8.4663,6.5057e-07,4.8881,-5.4562e-12,2.7836e-07,-6.5055e-07,-4.8879,0.58951
12269,10.746,0.18182,0,0.00031782,3176,0.00010568,9.6173,0.0001044,-0.0025767,-0.00031766,-3171.2,0.57935
12270,10.838,0.18182,0.05,9.0683e-08,0.9062,6.9639e-08,0.52326,-4.5495e-12,8.8343e-07,-6.9628e-08,-0.52314,0.58848
12271,10.838,0.090909,0,0.00031478,3145.6,0.00010444,6.7122,0.00010354,-0.0011086,-0.00031466,-3142.2,0.58797
12272,10.654,5.7273,0,0.00032019,3199.7,0.00010633,7.9423,0.00010527,-0.0016006,-0.00032006,-3195.7,0.57078
12273,10.563,5.8182,0,0.00032297,3227.5,0.00010734,9.0769,0.00010613,-0.0034518,-0.00032282,-3222.9,0.56121
12274,10.654,5.8182,0.05,9.3837e-08,0.93772,7.205e-08,0.54133,4.4707e-12,1.3046e-06,-7.2061e-08,-0.54145,0.57023
12275,10.654,5.9091,0,0.00031994,3197.2,0.00010612,6.407,0.00010526,-0.0010752,-0.00031983,-3194,0.56971
12276,10.654,5.5455,0,0.0003199,3196.8,0.00010605,5.7894,0.00010528,-0.00048773,-0.0003198,-3193.9,0.57178
12277,10.563,5.6364,0,0.00032257,3223.5,0.00010696,6.148,0.00010614,0.00092865,-0.00032247,-3220.4,0.56225
12278,10.654,5.6364,0.05,8.503e-07,8.4971,6.5292e-07,4.9058,3.6239e-12,1.9034e-06,-6.5293e-07,-4.9059,0.57127
12279,10.654,5.3636,0,0.0003197,3194.8,0.00010585,4.2066,0.00010529,-0.0009328,-0.00031963,-3192.7,0.57272
12280,10.563,5.4545,0,0.00032234,3221.2,0.00010674,4.3273,0.00010616,-0.00062695,-0.00032227,-3219.1,0.56323
12281,10.654,5.4545,0.05,9.0037e-07,8.9975,6.9137e-07,5.1947,3.633e-12,2.4555e-06,-6.9138e-07,-5.1948,0.57224
12282,10.654,5.1818,0,0.00031952,3192.9,0.00010566,2.6847,0.00010531,-0.0019056,-0.00031947,-3191.6,0.57358
12283,10.563,5.2727,0,0.00032214,3219.2,0.00010652,2.6078,0.00010618,-0.0017678,-0.00032209,-3217.9,0.56413
12284,10.654,5.2727,0.05,9.0427e-07,9.0364,6.9436e-07,5.2171,3.6181e-12,8.7508e-07,-6.9437e-07,-5.2172,0.57314
12285,10.654,5,0,0.00031934,3191.2,0.00010548,1.202,0.00010532,-0.006525,-0.00031932,-3190.6,0.57438
12286,10.563,5.0909,0,0.00032194,3217.2,0.00010632,0.94053,0.00010619,-0.0092455,-0.00032193,-3216.7,0.56497
12287,10.654,5.0909,0.05,9.0496e-07,9.0434,6.949e-07,5.2212,8.779e-13,7.2289e-07,-6.949e-07,-5.2212,0.57397
12288,10.654,4.8182,0,0.00031918,3189.6,0.00010535,0.039989,0.0001053,-0.2884,-0.00031918,-3189.7,0.5751
12289,10.563,4.9091,0,0.00032176,3215.4,0.00010622,0.018981,0.00010612,-0.71039,-0.00032177,-3215.7,0.56573
12290,10.654,4.9091,0.05,9.053e-07,9.0468,6.9516e-07,5.2231,2.6941e-12,1.4327e-07,-6.9516e-07,-5.2232,0.57473
12291,10.654,4.6364,0,0.00031902,3188,0.00010536,0.0096278,0.00010514,-1.6455,-0.00031905,-3188.8,0.57576
12292,10.563,4.7273,0,0.00032159,3213.6,0.00010624,0.0083058,0.00010593,-2.2583,-0.00032162,-3214.8,0.56643
12293,10.654,4.7273,0.05,9.0548e-07,9.0486,6.9529e-07,5.2241,1.7804e-12,-6.5259e-07,-6.953e-07,-5.2243,0.57542
12294,10.654,4.4545,0,0.00031888,3186.6,0.00010538,0.0068991,0.00010498,-2.9577,-0.00031893,-3188.1,0.57635
12295,10.563,4.5455,0,0.00032143,3212,0.00010626,0.0064688,0.00010576,-3.7356,-0.00032149,-3213.9,0.56705
12296,10.654,4.5455,0.05,9.0554e-07,9.0491,6.9534e-07,5.2245,1.7725e-12,1.1647e-07,-6.9534e-07,-5.2245,0.57604
12297,10.654,4.2727,0,0.00031875,3185.3,0.0001054,0.0059557,0.00010484,-4.1809,-0.00031882,-3187.4,0.57686
12298,10.563,4.3636,0,0.00032128,3210.6,0.00010628,0.0057424,0.00010559,-5.1172,-0.00032137,-3213.1,0.56761
12299,10.654,4.3636,0.05,9.055e-07,9.0487,6.9531e-07,5.2243,8.6356e-13,-1.0776e-06,-6.9531e-07,-5.2243,0.57659
12300,10.654,4.0909,0,0.00031864,3184.2,0.00010541,0.0054912,0.00010471,-5.2942,-0.00031872,-3186.8,0.57731
12301,10.563,4.1818,0,0.00032115,3209.3,0.0001063,0.0053555,0.00010544,-6.3833,-0.00032126,-3212.4,0.5681
12302,10.654,4.1818,0.05,9.0539e-07,9.0476,6.9522e-07,5.2236,2.6848e-12,-1.2354e-06,-6.9523e-07,-5.2237,0.57707
12303,10.654,3.9091,0,0.00031853,3183.1,0.00010543,0.0052135,0.00010459,-6.2778,-0.00031864,-3186.3,0.57769
12304,10.563,4,0,0.00032103,3208.1,0.00010631,0.0051086,0.00010531,-7.5143,-0.00032116,-3211.8,0.56851
12305,10.654,4,0.05,9.0524e-07,9.0461,6.9511e-07,5.2228,-4.2677e-14,-1.1281e-06,-6.9511e-07,-5.2228,0.57749
12306,10.654,3.7273,0,0.00031845,3182.3,0.00010544,0.0050281,0.00010449,-7.1126,-0.00031857,-3185.8,0.578
12307,10.563,3.8182,0,0.00032093,3207.1,0.00010633,0.0049318,0.0001052,-8.4913,-0.00032107,-3211.3,0.56886
12308,10.654,3.8182,0.05,9.0506e-07,9.0444,6.9498e-07,5.2218,-3.8874e-14,-9.4644e-07,-6.9498e-07,-5.2218,0.57783
12309,10.654,3.5455,0,0.00031838,3181.6,0.00010545,0.0048988,0.00010442,-7.7815,-0.00031851,-3185.5,0.57824
12310,10.563,3.6364,0,0.00032085,3206.3,0.00010634,0.0048012,0.0001051,-9.2967,-0.00032101,-3210.9,0.56914
12311,10.654,3.6364,0.05,9.0489e-07,9.0427,6.9485e-07,5.2208,1.7871e-12,4.6157e-08,-6.9485e-07,-5.2208,0.57811
12312,10.654,3.3636,0,0.00031833,3181.1,0.00010546,0.0048105,0.00010436,-8.2702,-0.00031847,-3185.3,0.57842
12313,10.563,3.4545,0,0.00032079,3205.7,0.00010635,0.0047059,0.00010503,-9.9152,-0.00032095,-3210.6,0.56935
12314,10.654,3.4545,0.05,9.0475e-07,9.0413,6.9474e-07,5.22,-2.4454e-14,5.459e-08,-6.9474e-07,-5.22,0.57832
12315,10.654,3.1818,0,0.0003183,3180.8,0.00010546,0.0047582,0.00010432,-8.5679,-0.00031845,-3185.1,0.57852
12316,10.563,3.2727,0,0.00032075,3205.2,0.00010636,0.0046417,0.00010498,-10.335,-0.00032092,-3210.4,0.56948
12317,10.654,3.2727,0.05,9.0465e-07,9.0402,6.9466e-07,5.2194,-1.5178e-14,-2.934e-07,-6.9465e-07,-5.2194,0.57845
12318,10.654,3,0,0.00031829,3180.7,0.00010547,0.0047409,0.00010431,-8.6679,-0.00031844,-3185.1,0.57856
12319,10.563,3.0909,0,0.00032072,3205,0.00010636,0.0046093,0.00010496,-10.547,-0.0003209,-3210.3,0.56955
12320,10.654,3.0909,0.05,9.0459e-07,9.0397,6.9461e-07,5.2191,-9.1469e-13,2.5886e-07,-6.9461e-07,-5.219,0.57852
12321,10.654,2.8182,0,0.0003183,3180.8,0.00010546,0.0047583,0.00010432,-8.5679,-0.00031845,-3185.1,0.57852
12322,10.563,2.9091,0,0.00032072,3205,0.00010636,0.0046094,0.00010496,-10.547,-0.0003209,-3210.3,0.56955
12323,10.654,2.9091,0.05,9.0459e-07,9.0397,6.9461e-07,5.2191,-1.8137e-12,9.3345e-07,-6.9461e-07,-5.219,0.57852
12324,10.654,2.6364,0,0.00031833,3181.1,0.00010546,0.0048106,0.00010436,-8.2702,-0.00031847,-3185.3,0.57842
12325,10.563,2.7273,0,0.00032075,3205.2,0.00010636,0.004642,0.00010498,-10.335,-0.00032092,-3210.4,0.56948
12326,10.654,2.7273,0.05,9.0465e-07,9.0402,6.9466e-07,5.2194,-1.8035e-12,8.9189e-07,-6.9465e-07,-5.2194,0.57845
12327,10.654,2.4545,0,0.00031838,3181.6,0.00010545,0.0048993,0.00010442,-7.7815,-0.00031851,-3185.5,0.57824
12328,10.563,2.5455,0,0.00032079,3205.7,0.00010635,0.0047061,0.00010503,-9.9152,-0.00032095,-3210.6,0.56935
12329,10.654,2.5455,0.05,9.0475e-07,9.0413,6.9474e-07,5.22,-1.7933e-12,7.2482e-07,-6.9473e-07,-5.2199,0.57832
12330,10.654,2.2727,0,0.00031845,3182.3,0.00010544,0.0050289,0.00010449,-7.1126,-0.00031857,-3185.8,0.578
12331,10.563,2.3636,0,0.00032085,3206.3,0.00010634,0.0048014,0.0001051,-9.2967,-0.00032101,-3210.9,0.56914
12332,10.654,2.3636,0.05,9.0489e-07,9.0427,6.9485e-07,5.2208,-2.6945e-12,8.5134e-07,-6.9484e-07,-5.2208,0.57811
12333,10.654,2.0909,0,0.00031853,3183.1,0.00010543,0.0052146,0.00010459,-6.2778,-0.00031864,-3186.3,0.57769
12334,10.563,2.1818,0,0.00032093,3207.1,0.00010633,0.0049326,0.0001052,-8.4913,-0.00032107,-3211.3,0.56886
12335,10.654,2.1818,0.05,9.0506e-07,9.0444,6.9498e-07,5.2218,-8.6782e-13,9.0348e-07,-6.9497e-07,-5.2217,0.57783
12336,10.654,1.9091,0,0.00031864,3184.2,0.00010541,0.0054917,0.00010471,-5.2942,-0.00031872,-3186.8,0.57731
12337,10.563,2,0,0.00032103,3208.1,0.00010631,0.0051092,0.00010531,-7.5143,-0.00032116,-3211.8,0.56851
12338,10.654,2,0.05,9.0524e-07,9.0461,6.9511e-07,5.2228,-1.7733e-12,8.0154e-07,-6.9511e-07,-5.2228,0.57749
12339,10.654,1.7273,0,0.00031875,3185.3,0.0001054,0.0059564,0.00010484,-4.1808,-0.00031882,-3187.4,0.57686
12340,10.563,1.8182,0,0.00032115,3209.3,0.0001063,0.0053556,0.00010544,-6.3833,-0.00032126,-3212.4,0.5681
12341,10.654,1.8182,0.05,9.0539e-07,9.0476,6.9523e-07,5.2237,-3.5905e-12,8.744e-07,-6.9522e-07,-5.2236,0.57707
12342,10.654,1.5455,0,0.00031888,3186.6,0.00010538,0.0069003,0.00010498,-2.9577,-0.00031893,-3188.1,0.57635
12343,10.563,1.6364,0,0.00032128,3210.6,0.00010628,0.0057433,0.00010559,-5.1172,-0.00032137,-3213.1,0.56761
12344,10.654,1.6364,0.05,9.055e-07,9.0487,6.9532e-07,5.2243,-2.6789e-12,1.1355e-06,-6.953e-07,-5.2243,0.57659
12345,10.654,1.3636,0,0.00031902,3188,0.00010536,0.0096288,0.00010514,-1.6455,-0.00031905,-3188.8,0.57576
12346,10.563,1.4545,0,0.00032143,3212,0.00010626,0.0064695,0.00010576,-3.7356,-0.00032149,-3213.9,0.56705
12347,10.654,1.4545,0.05,9.0554e-07,9.0491,6.9534e-07,5.2246,-3.5935e-12,1.1339e-06,-6.9534e-07,-5.2245,0.57604
12348,10.654,1.1818,0,0.00031918,3189.6,0.00010535,0.039991,0.0001053,-0.28839,-0.00031918,-3189.7,0.5751
12349,10.563,1.2727,0,0.00032159,3213.6,0.00010624,0.0083065,0.00010593,-2.2583,-0.00032162,-3214.8,0.56643
12350,10.654,1.2727,0.05,9.0548e-07,9.0486,6.953e-07,5.2243,-3.5929e-12,1.1964e-06,-6.9529e-07,-5.2241,0.57542
12351,10.654,1,0,0.00031934,3191.2,0.00010548,1.202,0.00010532,-0.0065239,-0.00031932,-3190.6,0.57438
12352,10.563,1.0909,0,0.00032176,3215.4,0.00010622,0.018982,0.00010612,-0.71038,-0.00032177,-3215.7,0.56573
12353,10.654,1.0909,0.05,9.053e-07,9.0468,6.9516e-07,5.2232,-3.6008e-12,1.2113e-06,-6.9516e-07,-5.2231,0.57473
12354,10.654,0.81818,0,0.00031952,3192.9,0.00010566,2.6847,0.00010531,-0.0019046,-0.00031947,-3191.6,0.57358
12355,10.563,0.90909,0,0.00032194,3217.2,0.00010632,0.94054,0.00010619,-0.0092438,-0.00032193,-3216.7,0.56497
12356,10.654,0.90909,0.05,9.0496e-07,9.0434,6.9491e-07,5.2213,-3.6056e-12,1.142e-06,-6.949e-07,-5.2212,0.57397
12357,10.654,0.63636,0,0.0003197,3194.8,0.00010585,4.2066,0.00010529,-0.00093256,-0.00031963,-3192.7,0.57272
12358,10.563,0.72727,0,0.00032214,3219.2,0.00010652,2.6078,0.00010618,-0.0017669,-0.00032209,-3217.9,0.56413
12359,10.654,0.72727,0.05,9.0427e-07,9.0364,6.9437e-07,5.2173,-4.5275e-12,9.5614e-07,-6.9436e-07,-5.2171,0.57314
12360,10.654,0.45455,0,0.0003199,3196.8,0.00010605,5.7895,0.00010528,-0.00048745,-0.0003198,-3193.9,0.57178
12361,10.563,0.54545,0,0.00032234,3221.2,0.00010674,4.3273,0.00010616,-0.00062681,-0.00032227,-3219.1,0.56323
12362,10.654,0.54545,0.05,9.0037e-07,8.9975,6.9138e-07,5.1948,-4.5304e-12,4.5301e-07,-6.9137e-07,-5.1947,0.57224
12363,10.654,0.27273,0,0.00032019,3199.7,0.00010633,7.9423,0.00010527,-0.0016002,-0.00032006,-3195.7,0.57078
12364,10.563,0.36364,0,0.00032257,3223.5,0.00010696,6.1481,0.00010614,0.00092917,-0.00032247,-3220.4,0.56225
12365,10.654,0.36364,0.05,8.503e-07,8.4971,6.5293e-07,4.9059,-4.5428e-12,8.3829e-07,-6.5292e-07,-4.9058,0.57127
12366,10.563,0.18182,0,0.00032297,3227.5,0.00010734,9.0769,0.00010613,-0.0034512,-0.00032282,-3222.9,0.56121
12367,10.654,0.18182,0.05,9.3835e-08,0.9377,7.2059e-08,0.54148,-6.2608e-12,2.9724e-06,-7.2048e-08,-0.54129,0.57023
12368,10.654,0.090909,0,0.00031994,3197.2,0.00010612,6.407,0.00010526,-0.0010745,-0.00031983,-3194,0.56971
12369,10.471,5.7273,0,0.00032534,3251.1,0.00010796,7.1992,0.000107,-0.00077869,-0.00032521,-3247.5,0.55275
12370,10.379,5.8182,0,0.00032814,3279.1,0.000109,8.5133,0.00010786,-0.0045705,-0.00032799,-3274.8,0.54328
12371,10.471,5.8182,0.05,9.8689e-08,0.98621,7.5778e-08,0.56933,3.3518e-12,-3.1151e-07,-7.5785e-08,-0.56945,0.55219
12372,10.471,5.9091,0,0.00032512,3249,0.0001078,6.088,0.00010699,-0.001114,-0.00032502,-3245.9,0.55166
12373,10.471,5.5455,0,0.00032501,3247.9,0.00010764,4.6622,0.00010702,0.00091979,-0.00032493,-3245.5,0.55377
12374,10.379,5.6364,0,0.00032771,3274.8,0.00010858,5.1976,0.00010789,0.003248,-0.00032762,-3272.2,0.54434
12375,10.471,5.6364,0.05,8.5381e-07,8.5322,6.5561e-07,4.926,3.6096e-12,1.9546e-06,-6.5562e-07,-4.9261,0.55324
12376,10.471,5.3636,0,0.00032478,3245.5,0.0001074,2.7083,0.00010704,-0.0012611,-0.00032473,-3244.2,0.55471
12377,10.379,5.4545,0,0.00032745,3272.2,0.00010831,2.9909,0.00010791,-0.00033177,-0.0003274,-3270.7,0.54532
12378,10.471,5.4545,0.05,9.039e-07,9.0327,6.9408e-07,5.215,3.6145e-12,2.2451e-06,-6.9409e-07,-5.2151,0.55422
12379,10.471,5.1818,0,0.00032456,3243.4,0.00010718,0.84554,0.00010706,-0.0099792,-0.00032455,-3243,0.55559
12380,10.379,5.2727,0,0.00032721,3269.8,0.00010806,0.91173,0.00010793,-0.0073886,-0.00032719,-3269.4,0.54624
12381,10.471,5.2727,0.05,9.0789e-07,9.0727,6.9714e-07,5.2381,3.6068e-12,7.1673e-07,-6.9715e-07,-5.2381,0.55513
12382,10.471,5,0,0.00032436,3241.3,0.00010709,0.01459,0.00010695,-0.98826,-0.00032437,-3241.8,0.55639
12383,10.379,5.0909,0,0.00032698,3267.6,0.00010796,0.012603,0.00010781,-1.1243,-0.000327,-3268.1,0.54709
12384,10.471,5.0909,0.05,9.0872e-07,9.0809,6.9778e-07,5.2428,3.6062e-12,4.4833e-07,-6.9778e-07,-5.2429,0.55598
12385,10.471,4.8182,0,0.00032417,3239.4,0.00010711,0.0076245,0.00010675,-2.7179,-0.00032421,-3240.8,0.55713
12386,10.379,4.9091,0,0.00032677,3265.4,0.00010799,0.007123,0.00010758,-3.0552,-0.00032682,-3267,0.54786
12387,10.471,4.9091,0.05,9.092e-07,9.0857,6.9815e-07,5.2456,2.6825e-12,-3.6201e-08,-6.9815e-07,-5.2457,0.55675
12388,10.471,4.6364,0,0.00032399,3237.6,0.00010713,0.0061867,0.00010655,-4.3661,-0.00032406,-3239.8,0.55779
12389,10.379,4.7273,0,0.00032657,3263.5,0.00010801,0.0059533,0.00010736,-4.897,-0.00032665,-3265.9,0.54857
12390,10.471,4.7273,0.05,9.0953e-07,9.089,6.984e-07,5.2475,1.7723e-12,-6.8464e-07,-6.9841e-07,-5.2476,0.55745
12391,10.471,4.4545,0,0.00032382,3236,0.00010715,0.0055838,0.00010637,-5.9115,-0.00032392,-3238.9,0.55839
12392,10.379,4.5455,0,0.00032639,3261.6,0.00010804,0.0054514,0.00010715,-6.6294,-0.0003265,-3264.9,0.5492
12393,10.471,4.5455,0.05,9.0974e-07,9.0911,6.9856e-07,5.2487,2.68e-12,-1.404e-07,-6.9857e-07,-5.2488,0.55808
12394,10.471,4.2727,0,0.00032367,3234.5,0.00010718,0.0052444,0.0001062,-7.3353,-0.0003238,-3238.2,0.55891
12395,10.379,4.3636,0,0.00032622,3259.9,0.00010806,0.0051543,0.00010696,-8.2342,-0.00032636,-3264,0.54976
12396,10.471,4.3636,0.05,9.0985e-07,9.0923,6.9865e-07,5.2494,8.5682e-13,-1.0616e-06,-6.9866e-07,-5.2494,0.55863
12397,10.471,4.0909,0,0.00032354,3233.2,0.0001072,0.0050176,0.00010605,-8.6187,-0.00032369,-3237.5,0.55937
12398,10.379,4.1818,0,0.00032607,3258.4,0.00010808,0.0049456,0.00010679,-9.6925,-0.00032623,-3263.3,0.55026
12399,10.471,4.1818,0.05,9.0989e-07,9.0927,6.9868e-07,5.2496,2.6723e-12,-1.2151e-06,-6.9869e-07,-5.2497,0.55912
12400,10.471,3.9091,0,0.00032343,3232,0.00010721,0.0048478,0.00010592,-9.7429,-0.00032359,-3236.9,0.55975
12401,10.379,4,0,0.00032594,3257.1,0.0001081,0.0047822,0.00010664,-10.985,-0.00032612,-3262.6,0.55068
12402,10.471,4,0.05,9.0988e-07,9.0925,6.9867e-07,5.2496,-5.2611e-14,-1.0081e-06,-6.9868e-07,-5.2496,0.55954
12403,10.471,3.7273,0,0.00032333,3231.1,0.00010723,0.0047147,0.0001058,-10.69,-0.00032351,-3236.4,0.56007
12404,10.379,3.8182,0,0.00032582,3256,0.00010812,0.0046462,0.00010651,-12.095,-0.00032603,-3262,0.55103
12405,10.471,3.8182,0.05,9.0983e-07,9.0921,6.9864e-07,5.2493,8.6482e-13,-1.0341e-06,-6.9864e-07,-5.2493,0.55989
12406,10.471,3.5455,0,0.00032325,3230.3,0.00010724,0.0046128,0.00010572,-11.445,-0.00032345,-3236,0.56031
12407,10.379,3.6364,0,0.00032573,3255.1,0.00010813,0.0045367,0.0001064,-13.005,-0.00032595,-3261.5,0.55131
12408,10.471,3.6364,0.05,9.0977e-07,9.0914,6.9859e-07,5.2489,-3.6645e-14,-3.5768e-08,-6.9859e-07,-5.2489,0.56017
12409,10.471,3.3636,0,0.0003232,3229.7,0.00010725,0.0045389,0.00010565,-11.994,-0.0003234,-3235.7,0.56048
12410,10.379,3.4545,0,0.00032566,3254.4,0.00010815,0.004453,0.00010632,-13.7,-0.00032589,-3261.2,0.55152
12411,10.471,3.4545,0.05,9.0971e-07,9.0908,6.9854e-07,5.2486,-2.765e-14,-2.1058e-07,-6.9854e-07,-5.2486,0.56038
12412,10.471,3.1818,0,0.00032316,3229.4,0.00010725,0.0044933,0.00010561,-12.328,-0.00032337,-3235.6,0.56059
12413,10.379,3.2727,0,0.00032561,3253.9,0.00010815,0.0043947,0.00010627,-14.171,-0.00032585,-3260.9,0.55166
12414,10.471,3.2727,0.05,9.0966e-07,9.0903,6.9851e-07,5.2483,-1.7348e-14,-2.4981e-07,-6.9851e-07,-5.2483,0.56052
12415,10.471,3,0,0.00032315,3229.3,0.00010726,0.0044779,0.0001056,-12.44,-0.00032336,-3235.5,0.56062
12416,10.379,3.0909,0,0.00032559,3253.6,0.00010816,0.0043645,0.00010624,-14.408,-0.00032583,-3260.8,0.55173
12417,10.471,3.0909,0.05,9.0964e-07,9.0901,6.9849e-07,5.2482,-5.8931e-15,1.9416e-07,-6.9849e-07,-5.2482,0.56059
12418,10.471,2.8182,0,0.00032316,3229.4,0.00010725,0.0044935,0.00010561,-12.328,-0.00032337,-3235.6,0.56059
12419,10.379,2.9091,0,0.00032559,3253.6,0.00010816,0.0043646,0.00010624,-14.408,-0.00032583,-3260.8,0.55173
12420,10.471,2.9091,0.05,9.0964e-07,9.0901,6.9849e-07,5.2482,-9.0358e-13,6.4077e-07,-6.9849e-07,-5.2482,0.56059
12421,10.471,2.6364,0,0.0003232,3229.7,0.00010725,0.0045392,0.00010565,-11.994,-0.0003234,-3235.7,0.56048
12422,10.379,2.7273,0,0.00032561,3253.9,0.00010815,0.0043948,0.00010627,-14.171,-0.00032585,-3260.9,0.55166
12423,10.471,2.7273,0.05,9.0966e-07,9.0903,6.9851e-07,5.2483,-1.8014e-12,9.6692e-07,-6.9851e-07,-5.2483,0.56052
12424,10.471,2.4545,0,0.00032325,3230.3,0.00010724,0.0046126,0.00010572,-11.445,-0.00032345,-3236,0.56031
12425,10.379,2.5455,0,0.00032566,3254.4,0.00010815,0.0044532,0.00010632,-13.7,-0.00032589,-3261.2,0.55152
12426,10.471,2.5455,0.05,9.0971e-07,9.0908,6.9854e-07,5.2486,-8.8057e-13,6.9656e-07,-6.9854e-07,-5.2486,0.56038
12427,10.471,2.2727,0,0.00032333,3231.1,0.00010723,0.0047149,0.0001058,-10.69,-0.00032351,-3236.4,0.56007
12428,10.379,2.3636,0,0.00032573,3255.1,0.00010813,0.0045368,0.0001064,-13.005,-0.00032595,-3261.5,0.55131
12429,10.471,2.3636,0.05,9.0977e-07,9.0914,6.9859e-07,5.2489,-1.7809e-12,5.2919e-07,-6.9859e-07,-5.2489,0.56017
12430,10.471,2.0909,0,0.00032343,3232,0.00010721,0.0048481,0.00010592,-9.7429,-0.00032359,-3236.9,0.55975
12431,10.379,2.1818,0,0.00032582,3256,0.00010812,0.004647,0.00010651,-12.095,-0.00032603,-3262,0.55103
12432,10.471,2.1818,0.05,9.0983e-07,9.0921,6.9864e-07,5.2493,-3.5918e-12,7.1799e-07,-6.9864e-07,-5.2493,0.55989
12433,10.471,1.9091,0,0.00032354,3233.2,0.0001072,0.0050178,0.00010605,-8.6187,-0.00032369,-3237.5,0.55937
12434,10.379,2,0,0.00032593,3257.1,0.0001081,0.0047825,0.00010664,-10.985,-0.00032612,-3262.6,0.55068
12435,10.471,2,0.05,9.0988e-07,9.0925,6.9868e-07,5.2496,-2.6754e-12,6.9617e-07,-6.9867e-07,-5.2495,0.55954
12436,10.471,1.7273,0,0.00032367,3234.5,0.00010718,0.0052449,0.0001062,-7.3353,-0.0003238,-3238.2,0.55891
12437,10.379,1.8182,0,0.00032607,3258.4,0.00010808,0.0049462,0.00010679,-9.6925,-0.00032623,-3263.3,0.55026
12438,10.471,1.8182,0.05,9.0989e-07,9.0927,6.9869e-07,5.2497,-2.6676e-12,1.1882e-06,-6.9868e-07,-5.2496,0.55912
12439,10.471,1.5455,0,0.00032382,3236,0.00010715,0.0055842,0.00010637,-5.9115,-0.00032392,-3238.9,0.55839
12440,10.379,1.6364,0,0.00032622,3259.9,0.00010806,0.0051547,0.00010696,-8.2342,-0.00032636,-3264,0.54976
12441,10.471,1.6364,0.05,9.0985e-07,9.0923,6.9866e-07,5.2494,-1.7498e-12,1.1929e-06,-6.9865e-07,-5.2494,0.55863
12442,10.471,1.3636,0,0.00032399,3237.6,0.00010713,0.0061871,0.00010655,-4.3661,-0.00032406,-3239.8,0.55779
12443,10.379,1.4545,0,0.00032639,3261.6,0.00010804,0.0054518,0.00010715,-6.6294,-0.0003265,-3264.9,0.5492
12444,10.471,1.4545,0.05,9.0974e-07,9.0911,6.9857e-07,5.2488,-3.582e-12,1.2433e-06,-6.9857e-07,-5.2487,0.55808
12445,10.471,1.1818,0,0.00032417,3239.4,0.00010711,0.0076251,0.00010675,-2.7179,-0.00032421,-3240.8,0.55713
12446,10.379,1.2727,0,0.00032657,3263.5,0.00010801,0.0059539,0.00010736,-4.8969,-0.00032665,-3265.9,0.54857
12447,10.471,1.2727,0.05,9.0953e-07,9.089,6.9841e-07,5.2476,-3.5815e-12,1.3884e-06,-6.984e-07,-5.2475,0.55745
12448,10.471,1,0,0.00032436,3241.3,0.00010709,0.014591,0.00010695,-0.98825,-0.00032437,-3241.8,0.55639
12449,10.379,1.0909,0,0.00032677,3265.4,0.00010799,0.0071232,0.00010758,-3.0552,-0.00032682,-3267,0.54786
12450,10.471,1.0909,0.05,9.092e-07,9.0857,6.9815e-07,5.2457,-3.5851e-12,1.5352e-06,-6.9814e-07,-5.2456,0.55675
12451,10.471,0.81818,0,0.00032456,3243.4,0.00010718,0.84555,0.00010706,-0.0099777,-0.00032455,-3243,0.55559
12452,10.379,0.90909,0,0.00032698,3267.6,0.00010796,0.012604,0.00010781,-1.1242,-0.000327,-3268.1,0.54709
12453,10.471,0.90909,0.05,9.0872e-07,9.0809,6.9779e-07,5.2429,-4.4992e-12,1.4067e-06,-6.9778e-07,-5.2428,0.55598
12454,10.471,0.63636,0,0.00032478,3245.5,0.0001074,2.7083,0.00010704,-0.0012604,-0.00032473,-3244.2,0.55471
12455,10.379,0.72727,0,0.00032721,3269.8,0.00010806,0.91175,0.00010793,-0.0073867,-0.00032719,-3269.4,0.54624
12456,10.471,0.72727,0.05,9.0789e-07,9.0727,6.9715e-07,5.2382,-3.599e-12,1.3267e-06,-6.9714e-07,-5.238,0.55513
12457,10.471,0.45455,0,0.00032501,3247.9,0.00010764,4.6623,0.00010702,0.00092017,-0.00032493,-3245.5,0.55377
12458,10.379,0.54545,0,0.00032745,3272.2,0.00010831,2.9909,0.00010791,-0.00033177,-0.0003274,-3270.7,0.54532
12459,10.471,0.54545,0.05,9.039e-07,9.0327,6.9409e-07,5.2151,-4.5172e-12,1.0995e-06,-6.9408e-07,-5.215,0.55422
12460,10.471,0.27273,0,0.00032534,3251.1,0.00010796,7.1992,0.000107,-0.00077788,-0.00032521,-3247.5,0.55275
12461,10.379,0.36364,0,0.00032771,3274.8,0.00010858,5.1977,0.00010789,0.0032488,-0.00032762,-3272.2,0.54434
12462,10.471,0.36364,0.05,8.538e-07,8.5322,6.5562e-07,4.9261,-4.5309e-12,1.323e-06,-6.5561e-07,-4.926,0.55324
12463,10.379,0.18182,0,0.00032814,3279.1,0.000109,8.5134,0.00010786,-0.0045698,-0.00032799,-3274.8,0.54328
12464,10.471,0.18182,0.05,9.8687e-08,0.98619,7.5783e-08,0.56945,-4.2036e-12,3.8615e-06,-7.5776e-08,-0.5693,0.55219
12465,10.471,0.090909,0,0.00032512,3249,0.0001078,6.088,0.00010699,-0.0011132,-0.00032502,-3245.9,0.55166
12466,10.287,5.7273,0,0.0003305,3302.7,0.0001096,6.4295,0.00010874,-0.00011752,-0.00033039,-3299.5,0.53494
12467,10.195,5.8182,0,0.00033332,3330.9,0.00011066,7.9237,0.0001096,-0.0060468,-0.00033318,-3326.9,0.52557
12468,10.287,5.8182,0.05,1.0514e-07,1.0507,8.0733e-08,0.60656,3.976e-12,-2.1074e-06,-8.074e-08,-0.60668,0.53437
12469,10.287,5.9091,0,0.00033032,3300.9,0.00010949,5.7537,0.00010872,-0.0012673,-0.00033022,-3298.1,0.53383
12470,10.287,5.5455,0,0.00033014,3299.1,0.00010924,3.5028,0.00010877,0.0024188,-0.00033008,-3297.4,0.53597
12471,10.195,5.6364,0,0.00033286,3326.3,0.0001102,4.215,0.00010964,0.0056003,-0.00033279,-3324.2,0.52664
12472,10.287,5.6364,0.05,8.5768e-07,8.5709,6.5859e-07,4.9484,3.6129e-12,1.7246e-06,-6.586e-07,-4.9485,0.53544
12473,10.287,5.3636,0,0.00032987,3296.5,0.00010896,1.1719,0.0001088,-0.0036036,-0.00032985,-3295.9,0.53692
12474,10.195,5.4545,0,0.00033257,3323.4,0.00010988,1.6138,0.00010967,-0.00048484,-0.00033254,-3322.6,0.52764
12475,10.287,5.4545,0.05,9.0773e-07,9.071,6.9702e-07,5.2371,3.5963e-12,2.2617e-06,-6.9702e-07,-5.2372,0.53643
12476,10.287,5.1818,0,0.00032963,3294,0.00010883,0.012079,0.00010869,-1.0735,-0.00032964,-3294.5,0.53781
12477,10.195,5.2727,0,0.00033229,3320.6,0.0001097,0.012322,0.00010958,-0.86121,-0.00033231,-3321.1,0.52857
12478,10.287,5.2727,0.05,9.118e-07,9.1118,7.0015e-07,5.2606,3.5954e-12,6.4208e-07,-7.0015e-07,-5.2607,0.53735
12479,10.287,5,0,0.00032939,3291.6,0.00010886,0.0067799,0.00010843,-3.2105,-0.00032945,-3293.2,0.53863
12480,10.195,5.0909,0,0.00033204,3318.1,0.00010973,0.0064465,0.0001093,-3.2244,-0.00033209,-3319.7,0.52943
12481,10.287,5.0909,0.05,9.1274e-07,9.1211,7.0086e-07,5.266,3.5822e-12,4.6301e-07,-7.0087e-07,-5.2661,0.5382
12482,10.287,4.8182,0,0.00032917,3289.4,0.00010889,0.0057871,0.00010819,-5.2515,-0.00032926,-3292.1,0.53937
12483,10.195,4.9091,0,0.0003318,3315.7,0.00010976,0.005624,0.00010903,-5.4868,-0.00033189,-3318.4,0.53021
12484,10.287,4.9091,0.05,9.1333e-07,9.127,7.0132e-07,5.2695,2.6657e-12,-1.6606e-07,-7.0133e-07,-5.2695,0.53898
12485,10.287,4.6364,0,0.00032897,3287.4,0.00010892,0.0053478,0.00010796,-7.1766,-0.00032909,-3291,0.54005
12486,10.195,4.7273,0,0.00033157,3313.4,0.0001098,0.0052431,0.00010878,-7.6278,-0.0003317,-3317.2,0.53092
12487,10.287,4.7273,0.05,9.1379e-07,9.1316,7.0167e-07,5.2721,3.5687e-12,-7.2935e-07,-7.0168e-07,-5.2721,0.53969
12488,10.287,4.4545,0,0.00032878,3285.5,0.00010894,0.0050834,0.00010775,-8.9679,-0.00032893,-3290,0.54065
12489,10.195,4.5455,0,0.00033136,3311.3,0.00010983,0.0050106,0.00010854,-9.6291,-0.00033152,-3316.1,0.53157
12490,10.287,4.5455,0.05,9.1413e-07,9.135,7.0194e-07,5.274,2.6654e-12,-2.3094e-07,-7.0193e-07,-5.2741,0.54033
12491,10.287,4.2727,0,0.00032861,3283.8,0.00010897,0.0048874,0.00010755,-10.607,-0.00032879,-3289.1,0.54118
12492,10.195,4.3636,0,0.00033117,3309.4,0.00010985,0.0048252,0.00010833,-11.472,-0.00033136,-3315.1,0.53214
12493,10.287,4.3636,0.05,9.1437e-07,9.1374,7.0212e-07,5.2754,8.4567e-13,-1.0938e-06,-7.0212e-07,-5.2755,0.5409
12494,10.287,4.0909,0,0.00032846,3282.3,0.00010899,0.0047276,0.00010738,-12.074,-0.00032866,-3288.3,0.54164
12495,10.195,4.1818,0,0.000331,3307.7,0.00010988,0.0046668,0.00010813,-13.137,-0.00033122,-3314.3,0.53263
12496,10.287,4.1818,0.05,9.1453e-07,9.139,7.0224e-07,5.2764,8.4751e-13,-1.3372e-06,-7.0225e-07,-5.2764,0.54139
12497,10.287,3.9091,0,0.00032833,3281,0.00010901,0.0045902,0.00010723,-13.352,-0.00032855,-3287.7,0.54203
12498,10.195,4,0,0.00033085,3306.2,0.0001099,0.0045263,0.00010796,-14.606,-0.0003311,-3313.5,0.53306
12499,10.287,4,0.05,9.1463e-07,9.14,7.0232e-07,5.277,8.4724e-13,-8.0101e-07,-7.0233e-07,-5.277,0.54182
12500,10.287,3.7273,0,0.00032822,3279.9,0.00010903,0.0044734,0.00010711,-14.424,-0.00032846,-3287.1,0.54235
12501,10.195,3.8182,0,0.00033072,3305,0.00010992,0.0044005,0.00010781,-15.861,-0.00033099,-3312.9,0.53342
12502,10.287,3.8182,0.05,9.1468e-07,9.1405,7.0236e-07,5.2773,8.5941e-13,-1.103e-06,-7.0236e-07,-5.2773,0.54217
12503,10.287,3.5455,0,0.00032814,3279.1,0.00010904,0.0043796,0.00010701,-15.274,-0.00032839,-3286.7,0.54259
12504,10.195,3.6364,0,0.00033062,3303.9,0.00010994,0.0042947,0.00010769,-16.886,-0.00033091,-3312.3,0.5337
12505,10.287,3.6364,0.05,9.147e-07,9.1407,7.0238e-07,5.2774,-4.2321e-14,-3.3582e-07,-7.0238e-07,-5.2774,0.54245
12506,10.287,3.3636,0,0.00032807,3278.5,0.00010905,0.0043101,0.00010694,-15.891,-0.00032834,-3286.4,0.54277
12507,10.195,3.4545,0,0.00033054,3303.2,0.00010995,0.0042123,0.0001076,-17.667,-0.00033084,-3311.9,0.53391
12508,10.287,3.4545,0.05,9.1471e-07,9.1408,7.0238e-07,5.2774,-3.1337e-14,-2.4184e-07,-7.0238e-07,-5.2774,0.54267
12509,10.287,3.1818,0,0.00032804,3278.1,0.00010906,0.0042666,0.00010689,-16.265,-0.00032831,-3286.2,0.54288
12510,10.195,3.2727,0,0.00033049,3302.6,0.00010996,0.0041542,0.00010754,-18.194,-0.0003308,-3311.7,0.53406
12511,10.287,3.2727,0.05,9.1471e-07,9.1408,7.0238e-07,5.2774,-1.9723e-14,-2.6651e-07,-7.0238e-07,-5.2774,0.54281
12512,10.287,3,0,0.00032802,3278,0.00010906,0.0042517,0.00010688,-16.39,-0.0003283,-3286.1,0.54291
12513,10.195,3.0909,0,0.00033046,3302.4,0.00010997,0.0041241,0.00010751,-18.46,-0.00033077,-3311.6,0.53413
12514,10.287,3.0909,0.05,9.147e-07,9.1407,7.0238e-07,5.2774,-6.6797e-15,3.0733e-07,-7.0238e-07,-5.2774,0.54288
12515,10.287,2.8182,0,0.00032804,3278.1,0.00010906,0.0042665,0.00010689,-16.265,-0.00032831,-3286.2,0.54288
12516,10.195,2.9091,0,0.00033046,3302.4,0.00010997,0.0041244,0.00010751,-18.46,-0.00033077,-3311.6,0.53413
12517,10.287,2.9091,0.05,9.147e-07,9.1407,7.0238e-07,5.2774,6.747e-15,8.8508e-07,-7.0237e-07,-5.2774,0.54288
12518,10.287,2.6364,0,0.00032807,3278.5,0.00010905,0.0043102,0.00010694,-15.891,-0.00032834,-3286.4,0.54277
12519,10.195,2.7273,0,0.00033049,3302.6,0.00010996,0.0041541,0.00010754,-18.194,-0.0003308,-3311.7,0.53406
12520,10.287,2.7273,0.05,9.1471e-07,9.1408,7.0238e-07,5.2774,1.9977e-14,9.8388e-07,-7.0238e-07,-5.2774,0.54281
12521,10.287,2.4545,0,0.00032814,3279.1,0.00010904,0.0043801,0.00010701,-15.274,-0.00032839,-3286.7,0.54259
12522,10.195,2.5455,0,0.00033054,3303.2,0.00010995,0.0042124,0.0001076,-17.667,-0.00033084,-3311.9,0.53391
12523,10.287,2.5455,0.05,9.1471e-07,9.1408,7.0238e-07,5.2775,-8.7727e-13,7.2195e-07,-7.0238e-07,-5.2774,0.54267
12524,10.287,2.2727,0,0.00032822,3279.9,0.00010903,0.0044741,0.00010711,-14.424,-0.00032846,-3287.1,0.54235
12525,10.195,2.3636,0,0.00033062,3303.9,0.00010994,0.0042951,0.00010769,-16.886,-0.00033091,-3312.3,0.5337
12526,10.287,2.3636,0.05,9.147e-07,9.1407,7.0238e-07,5.2774,-1.7765e-12,1.1541e-06,-7.0238e-07,-5.2774,0.54245
12527,10.287,2.0909,0,0.00032833,3281,0.00010901,0.0045909,0.00010723,-13.352,-0.00032855,-3287.7,0.54203
12528,10.195,2.1818,0,0.00033072,3305,0.00010992,0.0044009,0.00010781,-15.861,-0.00033099,-3312.9,0.53342
12529,10.287,2.1818,0.05,9.1468e-07,9.1405,7.0236e-07,5.2773,-8.5598e-13,1.1414e-06,-7.0236e-07,-5.2772,0.54217
12530,10.287,1.9091,0,0.00032846,3282.3,0.00010899,0.0047282,0.00010738,-12.074,-0.00032866,-3288.3,0.54164
12531,10.195,2,0,0.00033085,3306.2,0.0001099,0.0045266,0.00010796,-14.606,-0.0003311,-3313.5,0.53306
12532,10.287,2,0.05,9.1463e-07,9.14,7.0232e-07,5.277,-2.6658e-12,1.3193e-06,-7.0232e-07,-5.2769,0.54182
12533,10.287,1.7273,0,0.00032861,3283.8,0.00010897,0.004888,0.00010755,-10.607,-0.00032879,-3289.1,0.54118
12534,10.195,1.8182,0,0.000331,3307.7,0.00010988,0.0046679,0.00010813,-13.137,-0.00033122,-3314.3,0.53263
12535,10.287,1.8182,0.05,9.1453e-07,9.139,7.0225e-07,5.2764,-1.7537e-12,1.3532e-06,-7.0224e-07,-5.2764,0.54139
12536,10.287,1.5455,0,0.00032878,3285.5,0.00010894,0.0050839,0.00010775,-8.9679,-0.00032893,-3290,0.54065
12537,10.195,1.6364,0,0.00033117,3309.4,0.00010985,0.0048256,0.00010833,-11.472,-0.00033136,-3315.1,0.53214
12538,10.287,1.6364,0.05,9.1437e-07,9.1374,7.0213e-07,5.2755,-1.7471e-12,1.5065e-06,-7.0211e-07,-5.2754,0.5409
12539,10.287,1.3636,0,0.00032897,3287.4,0.00010892,0.0053485,0.00010796,-7.1766,-0.00032909,-3291,0.54005
12540,10.195,1.4545,0,0.00033136,3311.3,0.00010983,0.0050114,0.00010854,-9.6291,-0.00033152,-3316.1,0.53157
12541,10.287,1.4545,0.05,9.1413e-07,9.135,7.0194e-07,5.2741,-3.566e-12,1.4605e-06,-7.0193e-07,-5.274,0.54033
12542,10.287,1.1818,0,0.00032917,3289.4,0.00010889,0.0057873,0.00010819,-5.2515,-0.00032926,-3292.1,0.53937
12543,10.195,1.2727,0,0.00033157,3313.4,0.0001098,0.0052439,0.00010878,-7.6278,-0.0003317,-3317.2,0.53092
12544,10.287,1.2727,0.05,9.1379e-07,9.1316,7.0168e-07,5.2722,-2.6581e-12,1.5888e-06,-7.0167e-07,-5.272,0.53969
12545,10.287,1,0,0.00032939,3291.6,0.00010886,0.0067806,0.00010843,-3.2105,-0.00032945,-3293.2,0.53863
12546,10.195,1.0909,0,0.0003318,3315.7,0.00010976,0.0056242,0.00010903,-5.4868,-0.00033189,-3318.4,0.53021
12547,10.287,1.0909,0.05,9.1333e-07,9.127,7.0133e-07,5.2696,-3.57e-12,1.5629e-06,-7.0132e-07,-5.2694,0.53898
12548,10.287,0.81818,0,0.00032963,3294,0.00010883,0.012081,0.00010869,-1.0734,-0.00032964,-3294.5,0.53781
12549,10.195,0.90909,0,0.00033204,3318.1,0.00010973,0.0064484,0.0001093,-3.2244,-0.00033209,-3319.7,0.52943
12550,10.287,0.90909,0.05,9.1274e-07,9.1211,7.0087e-07,5.2661,-3.5727e-12,2.0137e-06,-7.0086e-07,-5.266,0.5382
12551,10.287,0.63636,0,0.00032987,3296.5,0.00010896,1.1719,0.0001088,-0.0036026,-0.00032985,-3295.9,0.53692
12552,10.195,0.72727,0,0.00033229,3320.6,0.0001097,0.012324,0.00010958,-0.8612,-0.00033231,-3321.1,0.52857
12553,10.287,0.72727,0.05,9.118e-07,9.1118,7.0015e-07,5.2607,-4.495e-12,1.8453e-06,-7.0015e-07,-5.2606,0.53735
12554,10.287,0.45455,0,0.00033014,3299.1,0.00010924,3.5029,0.00010877,0.0024192,-0.00033008,-3297.4,0.53597
12555,10.195,0.54545,0,0.00033257,3323.4,0.00010988,1.6138,0.00010967,-0.00048498,-0.00033254,-3322.6,0.52764
12556,10.287,0.54545,0.05,9.0773e-07,9.071,6.9703e-07,5.2372,-4.5116e-12,1.7348e-06,-6.9702e-07,-5.2371,0.53643
12557,10.287,0.27273,0,0.0003305,3302.7,0.0001096,6.4296,0.00010874,-0.00011673,-0.00033039,-3299.5,0.53494
12558,10.195,0.36364,0,0.00033286,3326.3,0.0001102,4.215,0.00010964,0.0056015,-0.00033279,-3324.2,0.52664
12559,10.287,0.36364,0.05,8.5768e-07,8.5709,6.586e-07,4.9485,-4.5015e-12,1.532e-06,-6.5859e-07,-4.9483,0.53544
12560,10.195,0.18182,0,0.00033332,3330.9,0.00011066,7.9238,0.0001096,-0.0060463,-0.00033318,-3326.9,0.52557
12561,10.287,0.18182,0.05,1.0514e-07,1.0507,8.074e-08,0.60672,-5.7199e-12,7.2659e-06,-8.073e-08,-0.60651,0.53437
12562,10.287,0.090909,0,0.00033032,3300.9,0.00010949,5.7537,0.00010872,-0.0012663,-0.00033022,-3298.1,0.53383
12563,10.103,5.7273,0,0.00033567,3354.4,0.00011124,5.6284,0.00011049,0.00021577,-0.00033558,-3351.6,0.51734
12564,10.011,5.8182,0,0.00033852,3382.9,0.00011232,7.305,0.00011135,-0.0080659,-0.0003384,-3379.2,0.50808
12565,10.103,5.8182,0.05,1.1312e-07,1.1304,8.6859e-08,0.65259,2.8979e-12,-3.8273e-06,-8.6866e-08,-0.65271,0.51677
12566,10.103,5.9091,0,0.00033554,3353.1,0.00011118,5.4024,0.00011046,-0.0016541,-0.00033545,-3350.4,0.51623
12567,10.103,5.5455,0,0.00033528,3350.5,0.00011084,2.3021,0.00011053,0.0039528,-0.00033524,-3349.4,0.51839
12568,10.011,5.6364,0,0.00033803,3378,0.00011182,3.193,0.00011139,0.0079036,-0.00033797,-3376.4,0.50917
12569,10.103,5.6364,0.05,8.619e-07,8.613,6.6183e-07,4.9727,3.5865e-12,1.3107e-06,-6.6184e-07,-4.9728,0.51785
12570,10.103,5.3636,0,0.00033498,3347.5,0.00011057,0.015611,0.00011051,-0.43866,-0.00033499,-3347.7,0.51936
12571,10.011,5.4545,0,0.0003377,3374.7,0.00011146,0.1964,0.00011143,-0.012456,-0.0003377,-3374.6,0.51018
12572,10.103,5.4545,0.05,9.1182e-07,9.1119,7.0016e-07,5.2607,3.5914e-12,2.0405e-06,-7.0017e-07,-5.2608,0.51886
12573,10.103,5.1818,0,0.0003347,3344.7,0.0001106,0.0063201,0.0001102,-3.0299,-0.00033476,-3346.2,0.52026
12574,10.011,5.2727,0,0.0003374,3371.6,0.00011147,0.0061897,0.00011112,-2.674,-0.00033744,-3373,0.51112
12575,10.103,5.2727,0.05,9.1597e-07,9.1534,7.0335e-07,5.2847,2.668e-12,4.8241e-07,-7.0336e-07,-5.2848,0.51979
12576,10.103,5,0,0.00033444,3342.1,0.00011064,0.0054782,0.0001099,-5.5182,-0.00033453,-3344.8,0.52108
12577,10.011,5.0909,0,0.00033711,3368.8,0.00011151,0.0053092,0.00011079,-5.4098,-0.0003372,-3371.5,0.51199
12578,10.103,5.0909,0.05,9.17e-07,9.1637,7.0414e-07,5.2906,2.6677e-12,3.5748e-07,-7.0414e-07,-5.2907,0.52066
12579,10.103,4.8182,0,0.00033419,3339.6,0.00011067,0.005173,0.00010962,-7.8798,-0.00033432,-3343.5,0.52184
12580,10.011,4.9091,0,0.00033684,3366,0.00011155,0.0050909,0.00011049,-8.0149,-0.00033697,-3370,0.51278
12581,10.103,4.9091,0.05,9.1769e-07,9.1706,7.0467e-07,5.2946,2.6552e-12,-3.4102e-07,-7.0468e-07,-5.2947,0.52145
12582,10.103,4.6364,0,0.00033396,3337.3,0.00011071,0.0049559,0.00010936,-10.096,-0.00033413,-3342.3,0.52252
12583,10.011,4.7273,0,0.00033658,3363.5,0.00011159,0.0048857,0.0001102,-10.47,-0.00033676,-3368.7,0.51351
12584,10.103,4.7273,0.05,9.1825e-07,9.1762,7.051e-07,5.2979,1.7438e-12,-8.9455e-07,-7.0511e-07,-5.2979,0.52216
12585,10.103,4.4545,0,0.00033375,3335.2,0.00011074,0.0047809,0.00010912,-12.148,-0.00033396,-3341.3,0.52313
12586,10.011,4.5455,0,0.00033635,3361.2,0.00011163,0.0047185,0.00010993,-12.756,-0.00033656,-3367.5,0.51416
12587,10.103,4.5455,0.05,9.187e-07,9.1806,7.0544e-07,5.3004,1.7396e-12,-2.441e-07,-7.0545e-07,-5.3005,0.52281
12588,10.103,4.2727,0,0.00033356,3333.3,0.00011077,0.0046215,0.0001089,-14.017,-0.0003338,-3340.3,0.52367
12589,10.011,4.3636,0,0.00033614,3359,0.00011166,0.0045547,0.00010968,-14.853,-0.00033639,-3366.4,0.51473
12590,10.103,4.3636,0.05,9.1904e-07,9.1841,7.0571e-07,5.3024,1.7441e-12,-8.9449e-07,-7.0571e-07,-5.3024,0.52338
12591,10.103,4.0909,0,0.00033339,3331.6,0.0001108,0.0044756,0.00010871,-15.683,-0.00033365,-3339.4,0.52413
12592,10.011,4.1818,0,0.00033594,3357.1,0.00011169,0.0043999,0.00010946,-16.74,-0.00033623,-3365.5,0.51524
12593,10.103,4.1818,0.05,9.193e-07,9.1867,7.0591e-07,5.3039,8.3645e-13,-1.4814e-06,-7.0591e-07,-5.304,0.52388
12594,10.103,3.9091,0,0.00033324,3330.1,0.00011082,0.0043425,0.00010854,-17.129,-0.00033353,-3338.7,0.52452
12595,10.011,4,0,0.00033578,3355.5,0.00011172,0.0042553,0.00010927,-18.399,-0.00033609,-3364.6,0.51567
12596,10.103,4,0.05,9.1949e-07,9.1886,7.0605e-07,5.305,1.7528e-12,-1.0972e-06,-7.0605e-07,-5.305,0.52431
12597,10.103,3.7273,0,0.00033312,3328.9,0.00011084,0.0042253,0.0001084,-18.336,-0.00033343,-3338.1,0.52485
12598,10.011,3.8182,0,0.00033564,3354.1,0.00011174,0.0041235,0.0001091,-19.812,-0.00033597,-3363.9,0.51603
12599,10.103,3.8182,0.05,9.1962e-07,9.1899,7.0616e-07,5.3058,-6.02e-14,-1.1583e-06,-7.0616e-07,-5.3058,0.52467
12600,10.103,3.5455,0,0.00033303,3328,0.00011085,0.0041293,0.00010829,-19.292,-0.00033335,-3337.6,0.5251
12601,10.011,3.6364,0,0.00033552,3352.9,0.00011176,0.0040111,0.00010897,-20.963,-0.00033587,-3363.3,0.51632
12602,10.103,3.6364,0.05,9.1971e-07,9.1908,7.0623e-07,5.3063,-4.7386e-14,-1.1904e-07,-7.0623e-07,-5.3063,0.52496
12603,10.103,3.3636,0,0.00033296,3327.3,0.00011087,0.0040573,0.0001082,-19.984,-0.00033329,-3337.2,0.52528
12604,10.011,3.4545,0,0.00033544,3352,0.00011177,0.0039233,0.00010887,-21.839,-0.0003358,-3362.9,0.51653
12605,10.103,3.4545,0.05,9.1977e-07,9.1914,7.0627e-07,5.3066,-3.6398e-14,2.0145e-07,-7.0627e-07,-5.3066,0.52517
12606,10.103,3.1818,0,0.00033292,3326.9,0.00011087,0.0040121,0.00010816,-20.402,-0.00033326,-3337,0.52538
12607,10.011,3.2727,0,0.00033538,3351.5,0.00011178,0.0038614,0.0001088,-22.429,-0.00033575,-3362.6,0.51668
12608,10.103,3.2727,0.05,9.198e-07,9.1917,7.0629e-07,5.3068,-2.2111e-14,-1.6394e-07,-7.0629e-07,-5.3068,0.52531
12609,10.103,3,0,0.0003329,3326.7,0.00011087,0.0039971,0.00010814,-20.543,-0.00033325,-3337,0.52542
12610,10.011,3.0909,0,0.00033535,3351.2,0.00011179,0.0038296,0.00010876,-22.725,-0.00033573,-3362.5,0.51675
12611,10.103,3.0909,0.05,9.1982e-07,9.1918,7.0631e-07,5.3069,-7.5031e-15,-5.7006e-08,-7.063e-07,-5.3069,0.52539
12612,10.103,2.8182,0,0.00033292,3326.9,0.00011087,0.0040124,0.00010816,-20.402,-0.00033326,-3337,0.52538
12613,10.011,2.9091,0,0.00033535,3351.2,0.00011179,0.00383,0.00010876,-22.725,-0.00033573,-3362.5,0.51675
12614,10.103,2.9091,0.05,9.1982e-07,9.1918,7.0631e-07,5.3069,7.549e-15,7.7192e-07,-7.063e-07,-5.3069,0.52539
12615,10.103,2.6364,0,0.00033296,3327.3,0.00011087,0.0040572,0.0001082,-19.984,-0.00033329,-3337.2,0.52528
12616,10.011,2.7273,0,0.00033538,3351.5,0.00011178,0.0038615,0.0001088,-22.429,-0.00033575,-3362.6,0.51668
12617,10.103,2.7273,0.05,9.198e-07,9.1917,7.063e-07,5.3068,-1.7963e-12,6.4358e-07,-7.0629e-07,-5.3068,0.52531
12618,10.103,2.4545,0,0.00033303,3328,0.00011085,0.0041293,0.00010829,-19.292,-0.00033335,-3337.6,0.5251
12619,10.011,2.5455,0,0.00033544,3352,0.00011177,0.0039235,0.00010887,-21.839,-0.0003358,-3362.9,0.51653
12620,10.103,2.5455,0.05,9.1977e-07,9.1914,7.0627e-07,5.3067,3.6657e-14,1.2333e-06,-7.0627e-07,-5.3066,0.52517
12621,10.103,2.2727,0,0.00033312,3328.9,0.00011084,0.0042253,0.0001084,-18.336,-0.00033343,-3338.1,0.52485
12622,10.011,2.3636,0,0.00033552,3352.9,0.00011176,0.0040113,0.00010897,-20.963,-0.00033587,-3363.3,0.51632
12623,10.103,2.3636,0.05,9.1971e-07,9.1908,7.0623e-07,5.3064,4.919e-14,1.1069e-06,-7.0623e-07,-5.3062,0.52496
12624,10.103,2.0909,0,0.00033324,3330.1,0.00011082,0.0043425,0.00010854,-17.129,-0.00033353,-3338.7,0.52452
12625,10.011,2.1818,0,0.00033564,3354.1,0.00011174,0.0041237,0.0001091,-19.812,-0.00033597,-3363.9,0.51603
12626,10.103,2.1818,0.05,9.1962e-07,9.1899,7.0616e-07,5.3058,-3.5737e-12,9.5306e-07,-7.0616e-07,-5.3057,0.52467
12627,10.103,1.9091,0,0.00033339,3331.6,0.0001108,0.0044764,0.00010871,-15.683,-0.00033365,-3339.4,0.52413
12628,10.011,2,0,0.00033578,3355.5,0.00011172,0.0042555,0.00010927,-18.399,-0.00033609,-3364.6,0.51567
12629,10.103,2,0.05,9.1949e-07,9.1886,7.0606e-07,5.305,-1.7459e-12,1.2328e-06,-7.0605e-07,-5.305,0.52431
12630,10.103,1.7273,0,0.00033356,3333.3,0.00011077,0.0046223,0.0001089,-14.017,-0.0003338,-3340.3,0.52367
12631,10.011,1.8182,0,0.00033594,3357.1,0.00011169,0.0044009,0.00010946,-16.74,-0.00033623,-3365.5,0.51524
12632,10.103,1.8182,0.05,9.193e-07,9.1867,7.0591e-07,5.304,-2.6444e-12,1.5492e-06,-7.0591e-07,-5.3039,0.52388
12633,10.103,1.5455,0,0.00033375,3335.2,0.00011074,0.0047817,0.00010912,-12.148,-0.00033396,-3341.3,0.52313
12634,10.011,1.6364,0,0.00033614,3359,0.00011166,0.0045552,0.00010968,-14.853,-0.00033639,-3366.4,0.51473
12635,10.103,1.6364,0.05,9.1904e-07,9.1841,7.0571e-07,5.3024,-3.5507e-12,1.5872e-06,-7.057e-07,-5.3024,0.52338
12636,10.103,1.3636,0,0.00033396,3337.3,0.00011071,0.0049569,0.00010936,-10.096,-0.00033413,-3342.3,0.52252
12637,10.011,1.4545,0,0.00033635,3361.2,0.00011163,0.0047192,0.00010993,-12.756,-0.00033656,-3367.5,0.51416
12638,10.103,1.4545,0.05,9.187e-07,9.1806,7.0545e-07,5.3005,-3.5556e-12,1.763e-06,-7.0544e-07,-5.3004,0.52281
12639,10.103,1.1818,0,0.00033419,3339.6,0.00011067,0.0051738,0.00010962,-7.8797,-0.00033432,-3343.5,0.52184
12640,10.011,1.2727,0,0.00033658,3363.5,0.00011159,0.0048864,0.0001102,-10.47,-0.00033676,-3368.7,0.51351
12641,10.103,1.2727,0.05,9.1825e-07,9.1762,7.0511e-07,5.2979,-3.5538e-12,1.7125e-06,-7.051e-07,-5.2978,0.52216
12642,10.103,1,0,0.00033444,3342.1,0.00011064,0.0054795,0.0001099,-5.5182,-0.00033453,-3344.8,0.52108
12643,10.011,1.0909,0,0.00033684,3366,0.00011155,0.0050912,0.00011049,-8.0149,-0.00033697,-3370,0.51278
12644,10.103,1.0909,0.05,9.1769e-07,9.1706,7.0468e-07,5.2947,-3.5559e-12,1.8599e-06,-7.0467e-07,-5.2946,0.52145
12645,10.103,0.81818,0,0.0003347,3344.7,0.0001106,0.0063214,0.0001102,-3.0299,-0.00033476,-3346.2,0.52026
12646,10.011,0.90909,0,0.00033711,3368.8,0.00011151,0.0053107,0.00011079,-5.4097,-0.0003372,-3371.5,0.51199
12647,10.103,0.90909,0.05,9.17e-07,9.1637,7.0415e-07,5.2907,-5.3773e-12,2.3229e-06,-7.0414e-07,-5.2906,0.52066
12648,10.103,0.63636,0,0.00033498,3347.5,0.00011057,0.015612,0.00011051,-0.43865,-0.00033499,-3347.7,0.51936
12649,10.011,0.72727,0,0.0003374,3371.6,0.00011147,0.0061906,0.00011112,-2.674,-0.00033744,-3373,0.51112
12650,10.103,0.72727,0.05,9.1597e-07,9.1534,7.0336e-07,5.2848,-3.5768e-12,2.2277e-06,-7.0335e-07,-5.2847,0.51979
12651,10.103,0.45455,0,0.00033528,3350.5,0.00011084,2.3022,0.00011053,0.0039535,-0.00033524,-3349.4,0.51839
12652,10.011,0.54545,0,0.0003377,3374.7,0.00011146,0.19641,0.00011143,-0.012455,-0.0003377,-3374.6,0.51018
12653,10.103,0.54545,0.05,9.1182e-07,9.1119,7.0017e-07,5.2609,-3.5888e-12,1.9348e-06,-7.0016e-07,-5.2607,0.51886
12654,10.103,0.27273,0,0.00033567,3354.4,0.00011124,5.6284,0.00011049,0.00021678,-0.00033558,-3351.6,0.51734
12655,10.011,0.36364,0,0.00033803,3378,0.00011182,3.193,0.00011139,0.0079049,-0.00033797,-3376.4,0.50917
12656,10.103,0.36364,0.05,8.619e-07,8.613,6.6184e-07,4.9728,-3.599e-12,1.8365e-06,-6.6183e-07,-4.9727,0.51785
12657,10.011,0.18182,0,0.00033852,3382.9,0.00011232,7.3051,0.00011135,-0.0080651,-0.0003384,-3379.2,0.50808
12658,10.103,0.18182,0.05,1.1312e-07,1.1304,8.6866e-08,0.65273,-2.6684e-12,1.1129e-05,-8.6856e-08,-0.65255,0.51677
12659,10.103,0.090909,0,0.00033554,3353.1,0.00011118,5.4025,0.00011046,-0.0016537,-0.00033545,-3350.4,0.51623
12660,9.9196,5.7273,0,0.00034087,3406.3,0.00011289,4.7907,0.00011225,-3.5703e-05,-0.00034079,-3403.9,0.49998
12661,9.8277,5.8182,0,0.00034374,3435.1,0.00011399,6.6545,0.0001131,-0.010805,-0.00034363,-3431.7,0.49082
12662,9.9196,5.8182,0.05,1.226e-07,1.2252,9.414e-08,0.70731,4.2177e-12,-7.0615e-06,-9.415e-08,-0.70743,0.4994
12663,9.9196,5.9091,0,0.00034078,3405.4,0.00011288,5.0327,0.00011221,-0.0024146,-0.00034069,-3402.9,0.49885
12664,9.9196,5.5455,0,0.00034044,3402.1,0.00011243,1.0512,0.0001123,0.0054504,-0.00034043,-3401.6,0.50104
12665,9.8277,5.6364,0,0.00034322,3429.8,0.00011344,2.1248,0.00011316,0.010055,-0.00034318,-3428.7,0.49192
12666,9.9196,5.6364,0.05,8.6646e-07,8.6586,6.6533e-07,4.999,3.5576e-12,1.4238e-06,-6.6533e-07,-4.9991,0.50049
12667,9.9196,5.3636,0,0.00034011,3398.8,0.00011234,0.0054973,0.00011206,-2.085,-0.00034015,-3399.8,0.50202
12668,9.8277,5.4545,0,0.00034285,3426.2,0.00011321,0.0047001,0.00011303,-1.3125,-0.00034288,-3426.8,0.49295
12669,9.9196,5.4545,0.05,9.1619e-07,9.1556,7.0352e-07,5.2859,3.5772e-12,1.7958e-06,-7.0353e-07,-5.2861,0.50151
12670,9.9196,5.1818,0,0.0003398,3395.6,0.00011239,0.0053308,0.00011171,-5.0716,-0.00033988,-3398.2,0.50293
12671,9.8277,5.2727,0,0.00034252,3422.8,0.00011326,0.0054407,0.00011265,-4.5713,-0.00034259,-3425.1,0.4939
12672,9.9196,5.2727,0.05,9.2041e-07,9.1977,7.0676e-07,5.3103,3.5634e-12,2.7274e-07,-7.0676e-07,-5.3103,0.50246
12673,9.9196,5,0,0.0003395,3392.7,0.00011243,0.0050085,0.00011137,-7.9233,-0.00033964,-3396.6,0.50377
12674,9.8277,5.0909,0,0.00034219,3419.6,0.00011331,0.0049776,0.00011228,-7.6923,-0.00034232,-3423.4,0.49478
12675,9.9196,5.0909,0.05,9.2152e-07,9.2088,7.0761e-07,5.3167,2.6532e-12,7.4984e-08,-7.0761e-07,-5.3167,0.50333
12676,9.9196,4.8182,0,0.00033923,3389.9,0.00011247,0.0048517,0.00011106,-10.622,-0.0003394,-3395.2,0.50453
12677,9.8277,4.9091,0,0.00034189,3416.6,0.00011335,0.0048724,0.00011193,-10.657,-0.00034207,-3421.9,0.49559
12678,9.9196,4.9091,0.05,9.223e-07,9.2166,7.0821e-07,5.3212,2.635e-12,-3.1672e-07,-7.0821e-07,-5.3213,0.50413
12679,9.9196,4.6364,0,0.00033897,3387.3,0.00011251,0.0046766,0.00011076,-13.146,-0.00033919,-3393.9,0.50522
12680,9.8277,4.7273,0,0.00034161,3413.7,0.0001134,0.0046814,0.00011161,-13.445,-0.00034184,-3420.4,0.49632
12681,9.9196,4.7273,0.05,9.2294e-07,9.2231,7.0871e-07,5.3249,-8.9855e-14,-1.2005e-06,-7.0871e-07,-5.325,0.50486
12682,9.9196,4.4545,0,0.00033873,3385,0.00011255,0.0045095,0.00011049,-15.476,-0.00033899,-3392.7,0.50583
12683,9.8277,4.5455,0,0.00034135,3411.1,0.00011344,0.0045054,0.0001113,-16.033,-0.00034162,-3419.1,0.49697
12684,9.9196,4.5455,0.05,9.2348e-07,9.2284,7.0911e-07,5.328,8.2474e-13,-2.2249e-07,-7.0911e-07,-5.3281,0.50551
12685,9.9196,4.2727,0,0.00033852,3382.9,0.00011258,0.0043438,0.00011024,-17.59,-0.00033881,-3391.6,0.50638
12686,9.8277,4.3636,0,0.00034111,3408.8,0.00011348,0.0043227,0.00011103,-18.4,-0.00034142,-3417.9,0.49756
12687,9.9196,4.3636,0.05,9.239e-07,9.2327,7.0945e-07,5.3305,1.7373e-12,-1.1914e-06,-7.0944e-07,-5.3305,0.50609
12688,9.9196,4.0909,0,0.00033833,3381,0.00011261,0.004186,0.00011002,-19.47,-0.00033866,-3390.7,0.50685
12689,9.8277,4.1818,0,0.0003409,3406.6,0.00011351,0.0041475,0.00011078,-20.526,-0.00034124,-3416.9,0.49807
12690,9.9196,4.1818,0.05,9.2424e-07,9.2361,7.097e-07,5.3324,-8.2762e-14,-1.0999e-06,-7.097e-07,-5.3325,0.5066
12691,9.9196,3.9091,0,0.00033817,3379.4,0.00011264,0.0040401,0.00010983,-21.097,-0.00033852,-3389.9,0.50725
12692,9.8277,4,0,0.00034071,3404.8,0.00011354,0.0039825,0.00011056,-22.39,-0.00034109,-3415.9,0.4985
12693,9.9196,4,0.05,9.2451e-07,9.2387,7.099e-07,5.334,2.6463e-12,-7.8769e-07,-7.0991e-07,-5.334,0.50703
12694,9.9196,3.7273,0,0.00033803,3378,0.00011266,0.0039115,0.00010967,-22.452,-0.00033841,-3389.2,0.50757
12695,9.8277,3.8182,0,0.00034056,3403.2,0.00011357,0.0038336,0.00011038,-23.974,-0.00034096,-3415.1,0.49887
12696,9.9196,3.8182,0.05,9.247e-07,9.2407,7.1006e-07,5.3351,8.4096e-13,-7.4752e-07,-7.1006e-07,-5.3351,0.5074
12697,9.9196,3.5455,0,0.00033793,3376.9,0.00011268,0.0038061,0.00010955,-23.523,-0.00033832,-3388.6,0.50783
12698,9.8277,3.6364,0,0.00034043,3402,0.00011359,0.0037073,0.00011023,-25.262,-0.00034085,-3414.5,0.49916
12699,9.9196,3.6364,0.05,9.2485e-07,9.2421,7.1017e-07,5.3359,-5.424e-14,-1.787e-07,-7.1017e-07,-5.3359,0.50768
12700,9.9196,3.3636,0,0.00033785,3376.2,0.00011269,0.0037278,0.00010946,-24.297,-0.00033826,-3388.3,0.50801
12701,9.8277,3.4545,0,0.00034033,3401,0.00011361,0.0036092,0.00011011,-26.241,-0.00034077,-3414,0.49938
12702,9.9196,3.4545,0.05,9.2495e-07,9.2431,7.1024e-07,5.3365,-4.1e-14,-7.6259e-08,-7.1024e-07,-5.3365,0.5079
12703,9.9196,3.1818,0,0.00033781,3375.7,0.0001127,0.0036788,0.0001094,-24.764,-0.00033822,-3388,0.50812
12704,9.8277,3.2727,0,0.00034027,3400.3,0.00011362,0.0035407,0.00011004,-26.899,-0.00034072,-3413.7,0.49952
12705,9.9196,3.2727,0.05,9.2501e-07,9.2437,7.1029e-07,5.3369,-2.5523e-14,-1.8908e-07,-7.1029e-07,-5.3369,0.50805
12706,9.9196,3,0,0.00033779,3375.6,0.0001127,0.0036623,0.00010939,-24.921,-0.00033821,-3388,0.50815
12707,9.8277,3.0909,0,0.00034024,3400,0.00011362,0.0035053,0.00011,-27.23,-0.00034069,-3413.6,0.49959
12708,9.9196,3.0909,0.05,9.2504e-07,9.244,7.1031e-07,5.337,-9.181e-13,-6.464e-08,-7.1032e-07,-5.337,0.50812
12709,9.9196,2.8182,0,0.00033781,3375.7,0.0001127,0.0036791,0.0001094,-24.764,-0.00033822,-3388,0.50812
12710,9.8277,2.9091,0,0.00034024,3400,0.00011362,0.0035056,0.00011,-27.23,-0.00034069,-3413.6,0.49959
12711,9.9196,2.9091,0.05,9.2504e-07,9.244,7.1031e-07,5.3371,-9.0088e-13,1.0184e-06,-7.1032e-07,-5.337,0.50812
12712,9.9196,2.6364,0,0.00033785,3376.2,0.00011269,0.0037282,0.00010946,-24.297,-0.00033826,-3388.3,0.50801
12713,9.8277,2.7273,0,0.00034027,3400.3,0.00011362,0.003541,0.00011004,-26.899,-0.00034072,-3413.7,0.49952
12714,9.9196,2.7273,0.05,9.2501e-07,9.2437,7.1029e-07,5.3369,2.5689e-14,1.1486e-06,-7.1029e-07,-5.3368,0.50805
12715,9.9196,2.4545,0,0.00033793,3376.9,0.00011268,0.0038065,0.00010955,-23.523,-0.00033832,-3388.6,0.50783
12716,9.8277,2.5455,0,0.00034033,3401,0.00011361,0.0036094,0.00011011,-26.241,-0.00034077,-3414,0.49938
12717,9.9196,2.5455,0.05,9.2495e-07,9.2431,7.1025e-07,5.3365,-3.5958e-12,1.0344e-06,-7.1024e-07,-5.3365,0.5079
12718,9.9196,2.2727,0,0.00033803,3378,0.00011266,0.0039118,0.00010967,-22.452,-0.00033841,-3389.2,0.50757
12719,9.8277,2.3636,0,0.00034043,3402,0.00011359,0.0037075,0.00011023,-25.262,-0.00034085,-3414.5,0.49916
12720,9.9196,2.3636,0.05,9.2485e-07,9.2421,7.1017e-07,5.3359,-8.5208e-13,1.1629e-06,-7.1017e-07,-5.3359,0.50768
12721,9.9196,2.0909,0,0.00033817,3379.4,0.00011264,0.0040405,0.00010983,-21.097,-0.00033852,-3389.9,0.50725
12722,9.8277,2.1818,0,0.00034056,3403.2,0.00011357,0.0038343,0.00011038,-23.974,-0.00034096,-3415.1,0.49887
12723,9.9196,2.1818,0.05,9.247e-07,9.2407,7.1006e-07,5.3351,-2.6565e-12,1.2327e-06,-7.1006e-07,-5.3351,0.5074
12724,9.9196,1.9091,0,0.00033833,3381,0.00011261,0.0041865,0.00011002,-19.47,-0.00033866,-3390.7,0.50685
12725,9.8277,2,0,0.00034071,3404.8,0.00011354,0.0039828,0.00011056,-22.39,-0.00034109,-3415.9,0.4985
12726,9.9196,2,0.05,9.2451e-07,9.2387,7.0991e-07,5.334,-2.6426e-12,1.5767e-06,-7.099e-07,-5.3339,0.50703
12727,9.9196,1.7273,0,0.00033852,3382.9,0.00011258,0.0043444,0.00011024,-17.59,-0.00033881,-3391.6,0.50638
12728,9.8277,1.8182,0,0.0003409,3406.6,0.00011351,0.0041479,0.00011078,-20.526,-0.00034124,-3416.9,0.49807
12729,9.9196,1.8182,0.05,9.2424e-07,9.2361,7.097e-07,5.3325,-2.6373e-12,1.8681e-06,-7.097e-07,-5.3324,0.5066
12730,9.9196,1.5455,0,0.00033873,3385,0.00011255,0.00451,0.00011049,-15.476,-0.00033899,-3392.7,0.50583
12731,9.8277,1.6364,0,0.00034111,3408.8,0.00011348,0.0043234,0.00011103,-18.4,-0.00034142,-3417.9,0.49756
12732,9.9196,1.6364,0.05,9.239e-07,9.2327,7.0945e-07,5.3305,-2.63e-12,1.9936e-06,-7.0944e-07,-5.3304,0.50609
12733,9.9196,1.3636,0,0.00033897,3387.3,0.00011251,0.0046771,0.00011076,-13.146,-0.00033919,-3393.9,0.50522
12734,9.8277,1.4545,0,0.00034135,3411.1,0.00011344,0.0045059,0.0001113,-16.033,-0.00034162,-3419.1,0.49697
12735,9.9196,1.4545,0.05,9.2348e-07,9.2284,7.0912e-07,5.3281,-2.6208e-12,2.0707e-06,-7.0911e-07,-5.3279,0.50551
12736,9.9196,1.1818,0,0.00033923,3389.9,0.00011247,0.0048519,0.00011106,-10.622,-0.0003394,-3395.2,0.50453
12737,9.8277,1.2727,0,0.00034161,3413.7,0.0001134,0.0046821,0.00011161,-13.445,-0.00034184,-3420.4,0.49632
12738,9.9196,1.2727,0.05,9.2294e-07,9.2231,7.0871e-07,5.325,-3.5387e-12,1.8486e-06,-7.087e-07,-5.3249,0.50486
12739,9.9196,1,0,0.0003395,3392.7,0.00011243,0.0050089,0.00011137,-7.9233,-0.00033964,-3396.6,0.50377
12740,9.8277,1.0909,0,0.00034189,3416.6,0.00011335,0.0048727,0.00011193,-10.657,-0.00034207,-3421.9,0.49559
12741,9.9196,1.0909,0.05,9.223e-07,9.2166,7.0822e-07,5.3213,-3.5367e-12,2.1908e-06,-7.0821e-07,-5.3212,0.50413
12742,9.9196,0.81818,0,0.0003398,3395.6,0.00011239,0.0053319,0.00011171,-5.0716,-0.00033988,-3398.2,0.50293
12743,9.8277,0.90909,0,0.00034219,3419.6,0.00011331,0.0049789,0.00011228,-7.6923,-0.00034232,-3423.4,0.49478
12744,9.9196,0.90909,0.05,9.2152e-07,9.2088,7.0761e-07,5.3168,-4.4484e-12,2.3961e-06,-7.0761e-07,-5.3166,0.50333
12745,9.9196,0.63636,0,0.00034011,3398.8,0.00011234,0.0054979,0.00011206,-2.0849,-0.00034015,-3399.8,0.50202
12746,9.8277,0.72727,0,0.00034252,3422.8,0.00011326,0.0054415,0.00011265,-4.5712,-0.00034259,-3425.1,0.4939
12747,9.9196,0.72727,0.05,9.2041e-07,9.1977,7.0676e-07,5.3104,-5.3766e-12,2.3572e-06,-7.0675e-07,-5.3102,0.50246
12748,9.9196,0.45455,0,0.00034044,3402.1,0.00011243,1.0513,0.0001123,0.0054509,-0.00034043,-3401.6,0.50104
12749,9.8277,0.54545,0,0.00034285,3426.2,0.00011321,0.0047005,0.00011303,-1.3125,-0.00034288,-3426.8,0.49295
12750,9.9196,0.54545,0.05,9.1619e-07,9.1556,7.0353e-07,5.2861,-5.3903e-12,1.6741e-06,-7.0352e-07,-5.2859,0.50151
12751,9.9196,0.27273,0,0.00034087,3406.3,0.00011289,4.7907,0.00011225,-3.448e-05,-0.00034079,-3403.9,0.49998
12752,9.8277,0.36364,0,0.00034322,3429.8,0.00011344,2.1249,0.00011316,0.010056,-0.00034318,-3428.7,0.49192
12753,9.9196,0.36364,0.05,8.6646e-07,8.6586,6.6534e-07,4.9991,-5.4015e-12,1.5063e-06,-6.6533e-07,-4.999,0.50049
12754,9.8277,0.18182,0,0.00034374,3435.1,0.00011399,6.6546,0.0001131,-0.010803,-0.00034363,-3431.7,0.49082
12755,9.9196,0.18182,0.05,1.226e-07,1.2252,9.4149e-08,0.70745,-3.7731e-12,1.3554e-05,-9.4139e-08,-0.70728,0.4994
12756,9.9196,0.090909,0,0.00034078,3405.4,0.00011288,5.0328,0.00011221,-0.0024132,-0.00034069,-3402.9,0.49885
12757,9.7359,5.7273,0,0.00034608,3458.4,0.00011453,3.9123,0.00011401,-0.0012092,-0.00034601,-3456.5,0.48284
12758,9.644,5.8182,0,0.00034898,3487.4,0.00011566,5.9697,0.00011487,-0.014547,-0.00034888,-3484.4,0.4738
12759,9.7359,5.8182,0.05,1.3359e-07,1.3349,1.0257e-07,0.77064,3.209e-12,-1.4049e-05,-1.0258e-07,-0.77081,0.48226
12760,9.7359,5.9091,0,0.00034604,3458,0.00011458,4.6433,0.00011396,-0.0035802,-0.00034596,-3455.7,0.4817
12761,9.7359,5.5455,0,0.00034562,3453.9,0.00011407,0.0076169,0.00011403,-0.25875,-0.00034563,-3454,0.48391
12762,9.644,5.6364,0,0.00034842,3481.8,0.00011506,1.0048,0.00011493,0.011256,-0.00034841,-3481.3,0.47491
12763,9.7359,5.6364,0.05,8.7136e-07,8.7076,6.6909e-07,5.0273,3.5489e-12,1.3217e-06,-6.6911e-07,-5.0274,0.48336
12764,9.7359,5.3636,0,0.00034526,3450.2,0.00011412,0.0048506,0.00011362,-3.8172,-0.00034532,-3452.1,0.48491
12765,9.644,5.4545,0,0.00034802,3477.8,0.00011499,0.0043092,0.00011461,-2.8765,-0.00034807,-3479.3,0.47595
12766,9.7359,5.4545,0.05,9.2084e-07,9.2021,7.0709e-07,5.3128,3.5433e-12,1.4986e-06,-7.071e-07,-5.3129,0.4844
12767,9.7359,5.1818,0,0.00034491,3446.7,0.00011418,0.0051843,0.00011322,-7.2091,-0.00034503,-3450.3,0.48583
12768,9.644,5.2727,0,0.00034765,3474.1,0.00011505,0.0055256,0.00011418,-6.5618,-0.00034776,-3477.4,0.47691
12769,9.7359,5.2727,0.05,9.2511e-07,9.2447,7.1036e-07,5.3374,3.5402e-12,2.2366e-07,-7.1038e-07,-5.3375,0.48535
12770,9.7359,5,0,0.00034458,3443.4,0.00011423,0.0048912,0.00011284,-10.442,-0.00034476,-3448.6,0.48668
12771,9.644,5.0909,0,0.00034729,3470.5,0.00011511,0.004981,0.00011376,-10.088,-0.00034746,-3475.6,0.4778
12772,9.7359,5.0909,0.05,9.2629e-07,9.2565,7.1128e-07,5.3442,1.7119e-12,6.096e-08,-7.1128e-07,-5.3443,0.48624
12773,9.7359,4.8182,0,0.00034427,3440.3,0.00011428,0.0047307,0.00011248,-13.496,-0.0003445,-3447.1,0.48745
12774,9.644,4.9091,0,0.00034696,3467.2,0.00011516,0.0048446,0.00011337,-13.432,-0.00034719,-3473.9,0.47862
12775,9.7359,4.9091,0.05,9.2715e-07,9.2651,7.1194e-07,5.3492,1.7037e-12,-3.3308e-07,-7.1194e-07,-5.3493,0.48705
12776,9.7359,4.6364,0,0.00034399,3437.5,0.00011432,0.0045275,0.00011215,-16.347,-0.00034426,-3445.6,0.48815
12777,9.644,4.7273,0,0.00034665,3464.1,0.00011521,0.0046004,0.00011301,-16.571,-0.00034693,-3472.3,0.47936
12778,9.7359,4.7273,0.05,9.2787e-07,9.2723,7.1249e-07,5.3533,2.5957e-12,-1.0459e-06,-7.125e-07,-5.3535,0.48778
12779,9.7359,4.4545,0,0.00034372,3434.9,0.00011437,0.0043293,0.00011184,-18.972,-0.00034404,-3444.3,0.48877
12780,9.644,4.5455,0,0.00034636,3461.2,0.00011526,0.0043786,0.00011267,-19.481,-0.00034669,-3470.9,0.48002
12781,9.7359,4.5455,0.05,9.2848e-07,9.2784,7.1296e-07,5.3568,8.0697e-13,-3.7731e-07,-7.1296e-07,-5.3569,0.48844
12782,9.7359,4.2727,0,0.00034349,3432.5,0.00011441,0.004133,0.00011157,-21.35,-0.00034385,-3443.1,0.48932
12783,9.644,4.3636,0,0.0003461,3458.6,0.00011531,0.0041535,0.00011236,-22.138,-0.00034647,-3469.6,0.48061
12784,9.7359,4.3636,0.05,9.2898e-07,9.2834,7.1333e-07,5.3597,3.5326e-12,-1.3086e-06,-7.1335e-07,-5.3598,0.48903
12785,9.7359,4.0909,0,0.00034328,3430.4,0.00011444,0.0039478,0.00011132,-23.459,-0.00034367,-3442.1,0.4898
12786,9.644,4.1818,0,0.00034586,3456.2,0.00011535,0.0039412,0.00011208,-24.519,-0.00034627,-3468.4,0.48113
12787,9.7359,4.1818,0.05,9.2938e-07,9.2874,7.1365e-07,5.3621,-9.51e-14,-1.2412e-06,-7.1365e-07,-5.3621,0.48954
12788,9.7359,3.9091,0,0.0003431,3428.6,0.00011447,0.0037781,0.00011111,-25.281,-0.00034352,-3441.2,0.4902
12789,9.644,4,0,0.00034566,3454.2,0.00011538,0.0037457,0.00011184,-26.604,-0.0003461,-3467.4,0.48157
12790,9.7359,4,0.05,9.297e-07,9.2906,7.139e-07,5.3639,2.6392e-12,-6.5048e-07,-7.139e-07,-5.3639,0.48998
12791,9.7359,3.7273,0,0.00034295,3427.2,0.0001145,0.0036302,0.00011093,-26.797,-0.0003434,-3440.5,0.49053
12792,9.644,3.8182,0,0.00034548,3452.5,0.00011541,0.003571,0.00011164,-28.373,-0.00034596,-3466.6,0.48194
12793,9.7359,3.8182,0.05,9.2995e-07,9.2931,7.1409e-07,5.3654,8.2994e-13,-8.1921e-07,-7.1409e-07,-5.3654,0.49035
12794,9.7359,3.5455,0,0.00034283,3426,0.00011452,0.0035103,0.00011079,-27.992,-0.0003433,-3439.9,0.49078
12795,9.644,3.6364,0,0.00034534,3451.1,0.00011544,0.0034248,0.00011147,-29.809,-0.00034584,-3465.9,0.48223
12796,9.7359,3.6364,0.05,9.3014e-07,9.295,7.1423e-07,5.3664,-6.4258e-14,2.4077e-07,-7.1423e-07,-5.3665,0.49064
12797,9.7359,3.3636,0,0.00034275,3425.1,0.00011453,0.0034217,0.00011069,-28.855,-0.00034323,-3439.5,0.49097
12798,9.644,3.4545,0,0.00034524,3450,0.00011546,0.0033122,0.00011134,-30.899,-0.00034575,-3465.3,0.48245
12799,9.7359,3.4545,0.05,9.3027e-07,9.2963,7.1433e-07,5.3672,-4.6559e-14,3.6106e-07,-7.1433e-07,-5.3672,0.49086
12800,9.7359,3.1818,0,0.0003427,3424.6,0.00011454,0.0033665,0.00011063,-29.377,-0.00034319,-3439.2,0.49108
12801,9.644,3.2727,0,0.00034517,3449.3,0.00011547,0.0032339,0.00011126,-31.632,-0.00034569,-3465,0.4826
12802,9.7359,3.2727,0.05,9.3036e-07,9.2971,7.144e-07,5.3677,-2.8569e-14,-2.1443e-07,-7.144e-07,-5.3677,0.49101
12803,9.7359,3,0,0.00034268,3424.5,0.00011455,0.0033478,0.00011061,-29.551,-0.00034318,-3439.1,0.49111
12804,9.644,3.0909,0,0.00034513,3448.9,0.00011547,0.0031938,0.00011122,-32,-0.00034566,-3464.8,0.48267
12805,9.7359,3.0909,0.05,9.304e-07,9.2975,7.1443e-07,5.368,-9.1923e-13,8.8016e-07,-7.1443e-07,-5.3679,0.49108
12806,9.7359,2.8182,0,0.0003427,3424.6,0.00011454,0.0033668,0.00011063,-29.377,-0.00034319,-3439.2,0.49108
12807,9.644,2.9091,0,0.00034513,3448.9,0.00011547,0.0031939,0.00011122,-32,-0.00034566,-3464.8,0.48267
12808,9.7359,2.9091,0.05,9.304e-07,9.2975,7.1443e-07,5.368,-1.8092e-12,1.0269e-06,-7.1443e-07,-5.3679,0.49108
12809,9.7359,2.6364,0,0.00034275,3425.1,0.00011453,0.0034218,0.00011069,-28.855,-0.00034323,-3439.5,0.49097
12810,9.644,2.7273,0,0.00034517,3449.3,0.00011547,0.0032342,0.00011126,-31.632,-0.00034569,-3465,0.4826
12811,9.7359,2.7273,0.05,9.3036e-07,9.2971,7.144e-07,5.3677,-8.8051e-13,1.1725e-06,-7.144e-07,-5.3677,0.49101
12812,9.7359,2.4545,0,0.00034283,3426,0.00011452,0.0035104,0.00011079,-27.992,-0.0003433,-3439.9,0.49078
12813,9.644,2.5455,0,0.00034524,3450,0.00011546,0.003312,0.00011134,-30.899,-0.00034575,-3465.3,0.48245
12814,9.7359,2.5455,0.05,9.3027e-07,9.2963,7.1433e-07,5.3672,-8.6115e-13,1.3113e-06,-7.1433e-07,-5.3672,0.49086
12815,9.7359,2.2727,0,0.00034295,3427.2,0.0001145,0.0036308,0.00011093,-26.797,-0.0003434,-3440.5,0.49053
12816,9.644,2.3636,0,0.00034534,3451.1,0.00011544,0.003425,0.00011147,-29.809,-0.00034584,-3465.9,0.48223
12817,9.7359,2.3636,0.05,9.3014e-07,9.295,7.1423e-07,5.3665,6.7686e-14,1.6733e-06,-7.1423e-07,-5.3664,0.49064
12818,9.7359,2.0909,0,0.0003431,3428.6,0.00011447,0.0037786,0.00011111,-25.281,-0.00034352,-3441.2,0.4902
12819,9.644,2.1818,0,0.00034548,3452.5,0.00011541,0.0035718,0.00011164,-28.373,-0.00034596,-3466.6,0.48194
12820,9.7359,2.1818,0.05,9.2995e-07,9.2931,7.1409e-07,5.3654,-1.7378e-12,1.5634e-06,-7.1409e-07,-5.3654,0.49035
12821,9.7359,1.9091,0,0.00034328,3430.4,0.00011444,0.003948,0.00011132,-23.459,-0.00034367,-3442.1,0.4898
12822,9.644,2,0,0.00034566,3454.2,0.00011538,0.0037453,0.00011184,-26.604,-0.0003461,-3467.4,0.48157
12823,9.7359,2,0.05,9.297e-07,9.2906,7.139e-07,5.364,-2.6366e-12,1.6411e-06,-7.139e-07,-5.3639,0.48998
12824,9.7359,1.7273,0,0.00034349,3432.5,0.00011441,0.0041334,0.00011157,-21.35,-0.00034385,-3443.1,0.48932
12825,9.644,1.8182,0,0.00034586,3456.2,0.00011535,0.0039418,0.00011208,-24.519,-0.00034627,-3468.4,0.48113
12826,9.7359,1.8182,0.05,9.2938e-07,9.2874,7.1365e-07,5.3622,-8.088e-13,2.0226e-06,-7.1365e-07,-5.362,0.48954
12827,9.7359,1.5455,0,0.00034372,3434.9,0.00011437,0.00433,0.00011184,-18.972,-0.00034404,-3444.3,0.48877
12828,9.644,1.6364,0,0.0003461,3458.6,0.00011531,0.0041539,0.00011236,-22.138,-0.00034647,-3469.6,0.48061
12829,9.7359,1.6364,0.05,9.2898e-07,9.2834,7.1334e-07,5.3598,-3.5193e-12,2.3136e-06,-7.1334e-07,-5.3597,0.48903
12830,9.7359,1.3636,0,0.00034399,3437.5,0.00011432,0.0045283,0.00011215,-16.347,-0.00034426,-3445.6,0.48815
12831,9.644,1.4545,0,0.00034636,3461.2,0.00011526,0.0043792,0.00011267,-19.481,-0.00034669,-3470.9,0.48002
12832,9.7359,1.4545,0.05,9.2848e-07,9.2784,7.1296e-07,5.3569,-3.5252e-12,2.3138e-06,-7.1296e-07,-5.3568,0.48844
12833,9.7359,1.1818,0,0.00034427,3440.3,0.00011428,0.0047315,0.00011248,-13.496,-0.0003445,-3447.1,0.48745
12834,9.644,1.2727,0,0.00034665,3464.1,0.00011521,0.0046012,0.00011301,-16.571,-0.00034693,-3472.3,0.47936
12835,9.7359,1.2727,0.05,9.2787e-07,9.2723,7.125e-07,5.3535,-3.5232e-12,2.3557e-06,-7.1249e-07,-5.3533,0.48778
12836,9.7359,1,0,0.00034458,3443.4,0.00011423,0.0048924,0.00011284,-10.442,-0.00034476,-3448.6,0.48668
12837,9.644,1.0909,0,0.00034696,3467.2,0.00011516,0.0048453,0.00011337,-13.432,-0.00034719,-3473.9,0.47862
12838,9.7359,1.0909,0.05,9.2715e-07,9.2651,7.1194e-07,5.3493,-3.5238e-12,2.635e-06,-7.1193e-07,-5.3492,0.48705
12839,9.7359,0.81818,0,0.00034491,3446.7,0.00011418,0.0051853,0.00011322,-7.2091,-0.00034503,-3450.3,0.48583
12840,9.644,0.90909,0,0.00034729,3470.5,0.00011511,0.0049821,0.00011376,-10.088,-0.00034746,-3475.6,0.4778
12841,9.7359,0.90909,0.05,9.2629e-07,9.2565,7.1128e-07,5.3443,-3.5351e-12,2.6524e-06,-7.1127e-07,-5.3442,0.48624
12842,9.7359,0.63636,0,0.00034526,3450.2,0.00011412,0.0048512,0.00011362,-3.8172,-0.00034532,-3452.1,0.48491
12843,9.644,0.72727,0,0.00034765,3474.1,0.00011505,0.0055266,0.00011418,-6.5618,-0.00034776,-3477.4,0.47691
12844,9.7359,0.72727,0.05,9.2511e-07,9.2447,7.1038e-07,5.3375,-6.2646e-12,2.5462e-06,-7.1037e-07,-5.3374,0.48535
12845,9.7359,0.45455,0,0.00034562,3453.9,0.00011407,0.0076178,0.00011403,-0.25873,-0.00034563,-3454,0.48391
12846,9.644,0.54545,0,0.00034802,3477.8,0.00011499,0.0043103,0.00011461,-2.8765,-0.00034807,-3479.3,0.47595
12847,9.7359,0.54545,0.05,9.2084e-07,9.2021,7.071e-07,5.3129,-5.348e-12,1.5684e-06,-7.0709e-07,-5.3127,0.4844
12848,9.7359,0.27273,0,0.00034608,3458.4,0.00011453,3.9124,0.00011401,-0.0012078,-0.00034601,-3456.5,0.48284
12849,9.644,0.36364,0,0.00034842,3481.8,0.00011506,1.0048,0.00011493,0.011257,-0.00034841,-3481.3,0.47491
12850,9.7359,0.36364,0.05,8.7136e-07,8.7076,6.6911e-07,5.0274,-5.3774e-12,1.1455e-06,-6.6909e-07,-5.0273,0.48336
12851,9.644,0.18182,0,0.00034898,3487.4,0.00011566,5.9697,0.00011487,-0.014545,-0.00034888,-3484.4,0.4738
12852,9.7359,0.18182,0.05,1.3358e-07,1.3349,1.0258e-07,0.77082,-2.6367e-12,1.7928e-05,-1.0257e-07,-0.77062,0.48226
12853,9.7359,0.090909,0,0.00034604,3458,0.00011458,4.6434,0.00011396,-0.0035795,-0.00034596,-3455.7,0.4817
12854,9.5522,5.7273,0,0.00035131,3510.7,0.00011618,2.9894,0.00011579,-0.0043832,-0.00035126,-3509.2,0.46594
12855,9.4603,5.8182,0,0.00035424,3540,0.00011734,5.2479,0.00011664,-0.019871,-0.00035415,-3537.4,0.457
12856,9.5522,5.8182,0.05,1.4606e-07,1.4596,1.1215e-07,0.8426,1.9305e-12,-1.7037e-05,-1.1216e-07,-0.84277,0.46535
12857,9.5522,5.9091,0,0.00035132,3510.8,0.00011629,4.2328,0.00011573,-0.0053683,-0.00035125,-3508.6,0.46478
12858,9.5522,5.5455,0,0.00035082,3505.8,0.00011585,0.0090693,0.00011563,-1.6351,-0.00035085,-3506.6,0.46702
12859,9.4603,5.6364,0,0.00035365,3534.1,0.00011672,0.031042,0.00011669,-0.1937,-0.00035365,-3534.2,0.45813
12860,9.5522,5.6364,0.05,8.766e-07,8.76,6.7312e-07,5.0575,4.4559e-12,5.3364e-07,-6.7313e-07,-5.0576,0.46647
12861,9.5522,5.3636,0,0.00035042,3501.7,0.00011592,0.0050689,0.00011517,-5.6389,-0.00035051,-3504.6,0.46803
12862,9.4603,5.4545,0,0.00035321,3529.7,0.00011678,0.0047783,0.00011618,-4.5243,-0.00035329,-3531.9,0.45918
12863,9.5522,5.4545,0.05,9.2575e-07,9.2511,7.1086e-07,5.3411,4.464e-12,1.0552e-06,-7.1087e-07,-5.3412,0.46751
12864,9.5522,5.1818,0,0.00035003,3497.9,0.00011598,0.0053669,0.00011472,-9.457,-0.00035019,-3502.6,0.46896
12865,9.4603,5.2727,0,0.0003528,3525.6,0.00011685,0.0059184,0.0001157,-8.6588,-0.00035295,-3529.9,0.46016
12866,9.5522,5.2727,0.05,9.3007e-07,9.2942,7.1417e-07,5.366,3.5184e-12,-2.83e-07,-7.1418e-07,-5.3661,0.46848
12867,9.5522,5,0,0.00034967,3494.3,0.00011604,0.0049598,0.0001143,-13.093,-0.00034989,-3500.8,0.46982
12868,9.4603,5.0909,0,0.00035241,3521.7,0.00011692,0.0051518,0.00011524,-12.612,-0.00035262,-3527.9,0.46106
12869,9.5522,5.0909,0.05,9.3132e-07,9.3068,7.1513e-07,5.3732,2.6029e-12,-2.3744e-07,-7.1514e-07,-5.3733,0.46938
12870,9.5522,4.8182,0,0.00034933,3490.9,0.0001161,0.0047296,0.0001139,-16.523,-0.00034961,-3499.1,0.4706
12871,9.4603,4.9091,0,0.00035204,3518,0.00011698,0.0049212,0.00011481,-16.359,-0.00035232,-3526.1,0.46188
12872,9.5522,4.9091,0.05,9.3225e-07,9.316,7.1585e-07,5.3786,3.5112e-12,-9.4464e-07,-7.1585e-07,-5.3787,0.47019
12873,9.5522,4.6364,0,0.00034902,3487.7,0.00011615,0.0044608,0.00011353,-19.72,-0.00034935,-3497.6,0.47131
12874,9.4603,4.7273,0,0.0003517,3514.5,0.00011704,0.0045872,0.0001144,-19.872,-0.00035203,-3524.4,0.46263
12875,9.5522,4.7273,0.05,9.3304e-07,9.3239,7.1646e-07,5.3831,1.685e-12,-1.4931e-06,-7.1646e-07,-5.3832,0.47094
12876,9.5522,4.4545,0,0.00034873,3484.9,0.0001162,0.0042083,0.00011318,-22.661,-0.00034911,-3496.1,0.47194
12877,9.4603,4.5455,0,0.00035138,3511.3,0.0001171,0.0042961,0.00011402,-23.124,-0.00035176,-3522.8,0.4633
12878,9.5522,4.5455,0.05,9.337e-07,9.3306,7.1697e-07,5.387,2.5985e-12,-5.8307e-07,-7.1697e-07,-5.387,0.47161
12879,9.5522,4.2727,0,0.00034847,3482.3,0.00011625,0.0039646,0.00011288,-25.321,-0.00034889,-3494.8,0.47249
12880,9.4603,4.3636,0,0.00035109,3508.5,0.00011715,0.004012,0.00011368,-26.09,-0.00035152,-3521.4,0.4639
12881,9.5522,4.3636,0.05,9.3426e-07,9.3362,7.1739e-07,5.3902,7.8247e-13,-1.5421e-06,-7.174e-07,-5.3902,0.4722
12882,9.5522,4.0909,0,0.00034824,3480,0.00011629,0.0037404,0.0001126,-27.677,-0.0003487,-3493.7,0.47297
12883,9.4603,4.1818,0,0.00035083,3505.9,0.0001172,0.0037506,0.00011337,-28.746,-0.00035131,-3520.2,0.46442
12884,9.5522,4.1818,0.05,9.3472e-07,9.3407,7.1775e-07,5.3928,1.7091e-12,-1.5639e-06,-7.1775e-07,-5.3929,0.47272
12885,9.5522,3.9091,0,0.00034804,3478,0.00011632,0.0035388,0.00011237,-29.708,-0.00034853,-3492.7,0.47338
12886,9.4603,4,0,0.00035061,3503.6,0.00011724,0.0035151,0.0001131,-31.068,-0.00035112,-3519.1,0.46487
12887,9.5522,4,0.05,9.3509e-07,9.3444,7.1803e-07,5.395,8.12e-13,-1.7123e-06,-7.1803e-07,-5.395,0.47316
12888,9.5522,3.7273,0,0.00034787,3476.3,0.00011635,0.0033649,0.00011217,-31.397,-0.0003484,-3491.9,0.47371
12889,9.4603,3.8182,0,0.00035042,3501.7,0.00011727,0.0033081,0.00011287,-33.036,-0.00035097,-3518.1,0.46524
12890,9.5522,3.8182,0.05,9.3538e-07,9.3473,7.1825e-07,5.3967,8.2079e-13,-8.5542e-07,-7.1825e-07,-5.3967,0.47353
12891,9.5522,3.5455,0,0.00034775,3475.1,0.00011637,0.0032255,0.00011202,-32.728,-0.00034829,-3491.3,0.47397
12892,9.4603,3.6364,0,0.00035026,3500.2,0.0001173,0.0031363,0.00011269,-34.633,-0.00035084,-3517.4,0.46554
12893,9.5522,3.6364,0.05,9.356e-07,9.3495,7.1842e-07,5.3979,8.3749e-13,-4.3811e-08,-7.1842e-07,-5.3979,0.47383
12894,9.5522,3.3636,0,0.00034765,3474.1,0.00011639,0.0031229,0.00011191,-33.688,-0.00034821,-3490.8,0.47416
12895,9.4603,3.4545,0,0.00035014,3499,0.00011732,0.0030056,0.00011255,-35.844,-0.00035074,-3516.8,0.46576
12896,9.5522,3.4545,0.05,9.3575e-07,9.3511,7.1854e-07,5.3988,-5.3288e-14,8.2688e-08,-7.1854e-07,-5.3988,0.47405
12897,9.5522,3.1818,0,0.0003476,3473.6,0.0001164,0.0030596,0.00011184,-34.268,-0.00034817,-3490.6,0.47427
12898,9.4603,3.2727,0,0.00035007,3498.2,0.00011733,0.0029147,0.00011245,-36.657,-0.00035068,-3516.4,0.46591
12899,9.5522,3.2727,0.05,9.3585e-07,9.3521,7.1862e-07,5.3994,-3.2238e-14,-2.4196e-07,-7.1862e-07,-5.3994,0.4742
12900,9.5522,3,0,0.00034758,3473.4,0.0001164,0.0030383,0.00011182,-34.461,-0.00034815,-3490.5,0.47431
12901,9.4603,3.0909,0,0.00035003,3497.9,0.00011734,0.0028688,0.00011241,-37.066,-0.00035064,-3516.2,0.46598
12902,9.5522,3.0909,0.05,9.359e-07,9.3526,7.1866e-07,5.3997,-1.1039e-14,6.3248e-07,-7.1866e-07,-5.3997,0.47427
12903,9.5522,2.8182,0,0.0003476,3473.6,0.0001164,0.0030597,0.00011184,-34.268,-0.00034817,-3490.6,0.47427
12904,9.4603,2.9091,0,0.00035003,3497.9,0.00011734,0.0028689,0.00011241,-37.066,-0.00035064,-3516.2,0.46598
12905,9.5522,2.9091,0.05,9.359e-07,9.3526,7.1866e-07,5.3997,-1.8079e-12,1.0367e-06,-7.1866e-07,-5.3997,0.47427
12906,9.5522,2.6364,0,0.00034765,3474.1,0.00011639,0.0031229,0.00011191,-33.688,-0.00034821,-3490.8,0.47416
12907,9.4603,2.7273,0,0.00035007,3498.2,0.00011733,0.002915,0.00011245,-36.657,-0.00035068,-3516.4,0.46591
12908,9.5522,2.7273,0.05,9.3585e-07,9.3521,7.1862e-07,5.3995,3.3086e-14,1.2025e-06,-7.1862e-07,-5.3994,0.4742
12909,9.5522,2.4545,0,0.00034775,3475.1,0.00011637,0.0032254,0.00011202,-32.728,-0.00034829,-3491.3,0.47397
12910,9.4603,2.5455,0,0.00035014,3499,0.00011732,0.0030051,0.00011255,-35.844,-0.00035074,-3516.8,0.46576
12911,9.5522,2.5455,0.05,9.3575e-07,9.3511,7.1854e-07,5.3989,-2.6737e-12,1.1256e-06,-7.1854e-07,-5.3988,0.47405
12912,9.5522,2.2727,0,0.00034787,3476.3,0.00011635,0.0033654,0.00011217,-31.397,-0.0003484,-3491.9,0.47371
12913,9.4603,2.3636,0,0.00035026,3500.2,0.0001173,0.0031368,0.00011269,-34.633,-0.00035084,-3517.4,0.46554
12914,9.5522,2.3636,0.05,9.356e-07,9.3495,7.1842e-07,5.3979,-8.3555e-13,1.2437e-06,-7.1842e-07,-5.3979,0.47383
12915,9.5522,2.0909,0,0.00034804,3478,0.00011632,0.0035387,0.00011237,-29.708,-0.00034853,-3492.7,0.47338
12916,9.4603,2.1818,0,0.00035042,3501.7,0.00011727,0.0033084,0.00011287,-33.036,-0.00035097,-3518.1,0.46524
12917,9.5522,2.1818,0.05,9.3538e-07,9.3473,7.1825e-07,5.3967,-3.5463e-12,1.1696e-06,-7.1825e-07,-5.3967,0.47353
12918,9.5522,1.9091,0,0.00034824,3480,0.00011629,0.0037405,0.0001126,-27.677,-0.0003487,-3493.7,0.47297
12919,9.4603,2,0,0.00035061,3503.6,0.00011724,0.003515,0.0001131,-31.068,-0.00035112,-3519.1,0.46487
12920,9.5522,2,0.05,9.3509e-07,9.3444,7.1803e-07,5.395,-1.7072e-12,1.9998e-06,-7.1803e-07,-5.395,0.47316
12921,9.5522,1.7273,0,0.00034847,3482.3,0.00011625,0.0039653,0.00011288,-25.321,-0.00034889,-3494.8,0.47249
12922,9.4603,1.8182,0,0.00035083,3505.9,0.0001172,0.0037514,0.00011337,-28.746,-0.00035131,-3520.2,0.46442
12923,9.5522,1.8182,0.05,9.3472e-07,9.3407,7.1775e-07,5.3929,-3.52e-12,1.9414e-06,-7.1775e-07,-5.3928,0.47272
12924,9.5522,1.5455,0,0.00034873,3484.9,0.0001162,0.0042086,0.00011318,-22.661,-0.00034911,-3496.1,0.47194
12925,9.4603,1.6364,0,0.00035109,3508.5,0.00011715,0.0040124,0.00011368,-26.09,-0.00035152,-3521.4,0.4639
12926,9.5522,1.6364,0.05,9.3426e-07,9.3362,7.174e-07,5.3902,-3.5003e-12,2.1161e-06,-7.1739e-07,-5.3902,0.4722
12927,9.5522,1.3636,0,0.00034902,3487.7,0.00011615,0.0044615,0.00011353,-19.72,-0.00034935,-3497.6,0.47131
12928,9.4603,1.4545,0,0.00035138,3511.3,0.0001171,0.0042966,0.00011402,-23.124,-0.00035176,-3522.8,0.4633
12929,9.5522,1.4545,0.05,9.337e-07,9.3306,7.1697e-07,5.3871,-3.4853e-12,2.1224e-06,-7.1696e-07,-5.387,0.47161
12930,9.5522,1.1818,0,0.00034933,3490.9,0.0001161,0.0047303,0.0001139,-16.523,-0.00034961,-3499.1,0.4706
12931,9.4603,1.2727,0,0.0003517,3514.5,0.00011704,0.0045881,0.0001144,-19.872,-0.00035203,-3524.4,0.46263
12932,9.5522,1.2727,0.05,9.3304e-07,9.3239,7.1646e-07,5.3832,-3.4932e-12,2.2072e-06,-7.1645e-07,-5.3831,0.47094
12933,9.5522,1,0,0.00034967,3494.3,0.00011604,0.0049604,0.0001143,-13.093,-0.00034989,-3500.8,0.46982
12934,9.4603,1.0909,0,0.00035204,3518,0.00011698,0.0049215,0.00011481,-16.359,-0.00035232,-3526.1,0.46188
12935,9.5522,1.0909,0.05,9.3225e-07,9.316,7.1585e-07,5.3787,-3.4984e-12,2.3998e-06,-7.1585e-07,-5.3786,0.47019
12936,9.5522,0.81818,0,0.00035003,3497.9,0.00011598,0.005368,0.00011472,-9.457,-0.00035019,-3502.6,0.46896
12937,9.4603,0.90909,0,0.00035241,3521.7,0.00011692,0.0051528,0.00011524,-12.612,-0.00035262,-3527.9,0.46106
12938,9.5522,0.90909,0.05,9.3132e-07,9.3068,7.1514e-07,5.3734,-5.3192e-12,2.7676e-06,-7.1513e-07,-5.3732,0.46938
12939,9.5522,0.63636,0,0.00035042,3501.7,0.00011592,0.0050704,0.00011517,-5.6389,-0.00035051,-3504.6,0.46803
12940,9.4603,0.72727,0,0.0003528,3525.6,0.00011685,0.0059196,0.0001157,-8.6588,-0.00035295,-3529.9,0.46016
12941,9.5522,0.72727,0.05,9.3007e-07,9.2942,7.1418e-07,5.3661,-5.3337e-12,1.9547e-06,-7.1417e-07,-5.366,0.46848
12942,9.5522,0.45455,0,0.00035082,3505.8,0.00011585,0.0090706,0.00011563,-1.6351,-0.00035085,-3506.6,0.46702
12943,9.4603,0.54545,0,0.00035321,3529.7,0.00011678,0.0047796,0.00011618,-4.5243,-0.00035329,-3531.9,0.45918
12944,9.5522,0.54545,0.05,9.2575e-07,9.2511,7.1087e-07,5.3412,-5.3504e-12,1.8771e-06,-7.1086e-07,-5.341,0.46751
12945,9.5522,0.27273,0,0.00035131,3510.7,0.00011618,2.9894,0.00011579,-0.0043821,-0.00035126,-3509.2,0.46594
12946,9.4603,0.36364,0,0.00035365,3534.1,0.00011672,0.031044,0.00011669,-0.19367,-0.00035365,-3534.2,0.45813
12947,9.5522,0.36364,0.05,8.766e-07,8.76,6.7313e-07,5.0576,-5.3767e-12,1.4039e-06,-6.7312e-07,-5.0575,0.46647
12948,9.4603,0.18182,0,0.00035424,3540,0.00011734,5.2479,0.00011664,-0.01987,-0.00035415,-3537.4,0.457
12949,9.5522,0.18182,0.05,1.4606e-07,1.4596,1.1216e-07,0.84276,-2.8956e-12,1.8149e-05,-1.1215e-07,-0.84259,0.46535
12950,9.5522,0.090909,0,0.00035132,3510.8,0.00011629,4.2328,0.00011573,-0.0053671,-0.00035125,-3508.6,0.46478
12951,9.3685,5.7273,0,0.00035657,3563.2,0.00011784,2.0202,0.00011757,-0.012901,-0.00035653,-3562.2,0.44928
12952,9.2766,5.8182,0,0.00035953,3592.8,0.00011902,4.4871,0.00011842,-0.027792,-0.00035945,-3590.6,0.44045
12953,9.3685,5.8182,0.05,1.6006e-07,1.5995,1.229e-07,0.9234,3.1697e-12,-1.1689e-05,-1.2291e-07,-0.92351,0.44867
12954,9.3685,5.9091,0,0.00035662,3563.8,0.000118,3.7998,0.0001175,-0.0081327,-0.00035656,-3561.9,0.4481
12955,9.3685,5.5455,0,0.00035604,3557.9,0.00011765,0.010917,0.00011723,-3.0875,-0.00035609,-3559.5,0.45037
12956,9.2766,5.6364,0,0.0003589,3586.5,0.00011851,0.022256,0.00011832,-1.4302,-0.00035892,-3587.2,0.44159
12957,9.3685,5.6364,0.05,8.8218e-07,8.8157,6.774e-07,5.0897,4.4587e-12,8.8536e-07,-6.7741e-07,-5.0898,0.44981
12958,9.3685,5.3636,0,0.00035559,3553.5,0.00011772,0.0055654,0.00011671,-7.5613,-0.00035572,-3557.3,0.45139
12959,9.2766,5.4545,0,0.00035842,3581.7,0.00011859,0.0054871,0.00011775,-6.2657,-0.00035852,-3584.8,0.44266
12960,9.3685,5.4545,0.05,9.3093e-07,9.3029,7.1483e-07,5.3709,3.509e-12,1.174e-06,-7.1484e-07,-5.3711,0.45086
12961,9.3685,5.1818,0,0.00035517,3549.3,0.00011779,0.0057045,0.00011622,-11.83,-0.00035537,-3555.2,0.45233
12962,9.2766,5.2727,0,0.00035797,3577.2,0.00011867,0.0064795,0.00011722,-10.876,-0.00035815,-3582.6,0.44364
12963,9.3685,5.2727,0.05,9.3529e-07,9.3464,7.1818e-07,5.3961,3.5038e-12,-1.941e-07,-7.1819e-07,-5.3962,0.45185
12964,9.3685,5,0,0.00035478,3545.3,0.00011786,0.0051185,0.00011575,-15.893,-0.00035504,-3553.2,0.4532
12965,9.2766,5.0909,0,0.00035754,3572.9,0.00011874,0.005428,0.00011671,-15.282,-0.00035779,-3580.5,0.44455
12966,9.3685,5.0909,0.05,9.366e-07,9.3596,7.1919e-07,5.4037,2.5915e-12,-1.6368e-07,-7.192e-07,-5.4038,0.45275
12967,9.3685,4.8182,0,0.0003544,3541.6,0.00011793,0.0047827,0.0001153,-19.722,-0.00035473,-3551.4,0.45399
12968,9.2766,4.9091,0,0.00035713,3568.9,0.00011882,0.0050674,0.00011623,-19.457,-0.00035746,-3578.5,0.44538
12969,9.3685,4.9091,0.05,9.376e-07,9.3695,7.1995e-07,5.4094,2.567e-12,-8.1276e-07,-7.1996e-07,-5.4095,0.45358
12970,9.3685,4.6364,0,0.00035405,3538.1,0.00011799,0.0044246,0.00011489,-23.29,-0.00035444,-3549.7,0.4547
12971,9.2766,4.7273,0,0.00035675,3565.1,0.00011888,0.0046196,0.00011577,-23.368,-0.00035715,-3576.7,0.44614
12972,9.3685,4.7273,0.05,9.3844e-07,9.3779,7.206e-07,5.4143,1.6605e-12,-1.3273e-06,-7.2061e-07,-5.4144,0.45433
12973,9.3685,4.4545,0,0.00035374,3534.9,0.00011805,0.0041006,0.00011451,-26.567,-0.00035418,-3548.1,0.45534
12974,9.2766,4.5455,0,0.0003564,3561.6,0.00011895,0.0042412,0.00011536,-26.986,-0.00035686,-3575,0.44682
12975,9.3685,4.5455,0.05,9.3916e-07,9.3851,7.2116e-07,5.4185,2.5851e-12,-1.0573e-06,-7.2116e-07,-5.4185,0.455
12976,9.3685,4.2727,0,0.00035345,3532.1,0.0001181,0.0037976,0.00011417,-29.528,-0.00035394,-3546.7,0.4559
12977,9.2766,4.3636,0,0.00035609,3558.4,0.00011901,0.0038852,0.00011498,-30.283,-0.00035659,-3573.5,0.44742
12978,9.3685,4.3636,0.05,9.3977e-07,9.3912,7.2163e-07,5.422,1.696e-12,-1.5297e-06,-7.2162e-07,-5.422,0.4556
12979,9.3685,4.0909,0,0.0003532,3529.5,0.00011814,0.0035241,0.00011387,-32.149,-0.00035373,-3545.5,0.45639
12980,9.2766,4.1818,0,0.0003558,3555.6,0.00011906,0.003565,0.00011463,-33.233,-0.00035636,-3572.1,0.44795
12981,9.3685,4.1818,0.05,9.4027e-07,9.3962,7.2201e-07,5.4249,7.8602e-13,-1.2728e-06,-7.2201e-07,-5.4249,0.45613
12982,9.3685,3.9091,0,0.00035298,3527.4,0.00011818,0.0032826,0.0001136,-34.407,-0.00035355,-3544.4,0.4568
12983,9.2766,4,0,0.00035556,3553.1,0.0001191,0.0032808,0.00011434,-35.81,-0.00035615,-3570.9,0.4484
12984,9.3685,4,0.05,9.4068e-07,9.4003,7.2232e-07,5.4272,1.6986e-12,-1.6019e-06,-7.2233e-07,-5.4273,0.45658
12985,9.3685,3.7273,0,0.0003528,3525.6,0.00011822,0.0030773,0.00011339,-36.283,-0.0003534,-3543.6,0.45714
12986,9.2766,3.8182,0,0.00035535,3551,0.00011914,0.0030352,0.00011409,-37.993,-0.00035598,-3569.9,0.44878
12987,9.3685,3.8182,0.05,9.41e-07,9.4035,7.2257e-07,5.4291,1.724e-12,-7.5424e-07,-7.2257e-07,-5.4291,0.45695
12988,9.3685,3.5455,0,0.00035266,3524.2,0.00011824,0.002914,0.00011322,-37.76,-0.00035329,-3542.9,0.4574
12989,9.2766,3.6364,0,0.00035518,3549.3,0.00011917,0.0028334,0.00011388,-39.763,-0.00035584,-3569.1,0.44908
12990,9.3685,3.6364,0.05,9.4124e-07,9.4059,7.2276e-07,5.4305,-7.9853e-14,-6.0373e-07,-7.2276e-07,-5.4305,0.45725
12991,9.3685,3.3636,0,0.00035256,3523.1,0.00011826,0.0027948,0.00011309,-38.824,-0.0003532,-3542.4,0.45759
12992,9.2766,3.4545,0,0.00035505,3548.1,0.0001192,0.0026804,0.00011373,-41.105,-0.00035573,-3568.4,0.4493
12993,9.3685,3.4545,0.05,9.4142e-07,9.4077,7.2289e-07,5.4315,-5.9086e-14,3.3964e-08,-7.2289e-07,-5.4315,0.45748
12994,9.3685,3.1818,0,0.00035249,3522.5,0.00011827,0.0027212,0.00011302,-39.467,-0.00035315,-3542.1,0.4577
12995,9.2766,3.2727,0,0.00035497,3547.2,0.00011921,0.0025751,0.00011362,-42.006,-0.00035566,-3568,0.44945
12996,9.3685,3.2727,0.05,9.4153e-07,9.4088,7.2298e-07,5.4322,-3.5721e-14,-2.7168e-07,-7.2298e-07,-5.4322,0.45763
12997,9.3685,3,0,0.00035247,3522.3,0.00011828,0.0026966,0.000113,-39.682,-0.00035313,-3542,0.45773
12998,9.2766,3.0909,0,0.00035492,3546.8,0.00011922,0.0025221,0.00011357,-42.458,-0.00035563,-3567.8,0.44953
12999,9.3685,3.0909,0.05,9.4159e-07,9.4094,7.2302e-07,5.4325,-1.2311e-14,-9.2242e-08,-7.2302e-07,-5.4325,0.4577
13000,9.3685,2.8182,0,0.00035249,3522.5,0.00011827,0.0027214,0.00011302,-39.467,-0.00035315,-3542.1,0.4577
13001,9.2766,2.9091,0,0.00035492,3546.8,0.00011922,0.002522,0.00011357,-42.458,-0.00035563,-3567.8,0.44953
13002,9.3685,2.9091,0.05,9.4159e-07,9.4094,7.2302e-07,5.4325,1.2271e-14,1.0462e-06,-7.2302e-07,-5.4325,0.4577
13003,9.3685,2.6364,0,0.00035256,3523.1,0.00011826,0.0027946,0.00011309,-38.824,-0.0003532,-3542.4,0.45759
13004,9.2766,2.7273,0,0.00035497,3547.2,0.00011921,0.0025754,0.00011362,-42.006,-0.00035566,-3568,0.44945
13005,9.3685,2.7273,0.05,9.4153e-07,9.4088,7.2298e-07,5.4322,3.6674e-14,7.5048e-07,-7.2298e-07,-5.4322,0.45763
13006,9.3685,2.4545,0,0.00035266,3524.2,0.00011824,0.002914,0.00011322,-37.76,-0.00035329,-3542.9,0.4574
13007,9.2766,2.5455,0,0.00035505,3548.1,0.0001192,0.0026802,0.00011373,-41.105,-0.00035573,-3568.4,0.4493
13008,9.3685,2.5455,0.05,9.4142e-07,9.4077,7.229e-07,5.4316,-8.4805e-13,9.3861e-07,-7.2289e-07,-5.4315,0.45748
13009,9.3685,2.2727,0,0.0003528,3525.6,0.00011822,0.0030776,0.00011339,-36.283,-0.0003534,-3543.6,0.45714
13010,9.2766,2.3636,0,0.00035518,3549.3,0.00011917,0.0028339,0.00011388,-39.763,-0.00035584,-3569.1,0.44908
13011,9.3685,2.3636,0.05,9.4124e-07,9.4059,7.2276e-07,5.4306,-1.7385e-12,1.5887e-06,-7.2276e-07,-5.4305,0.45725
13012,9.3685,2.0909,0,0.00035298,3527.4,0.00011818,0.0032829,0.0001136,-34.407,-0.00035355,-3544.4,0.4568
13013,9.2766,2.1818,0,0.00035535,3551,0.00011914,0.0030353,0.00011409,-37.993,-0.00035598,-3569.9,0.44878
13014,9.3685,2.1818,0.05,9.41e-07,9.4035,7.2257e-07,5.4291,-1.7163e-12,2.2071e-06,-7.2257e-07,-5.4291,0.45695
13015,9.3685,1.9091,0,0.0003532,3529.5,0.00011814,0.0035248,0.00011387,-32.149,-0.00035373,-3545.5,0.45639
13016,9.2766,2,0,0.00035556,3553.1,0.0001191,0.0032812,0.00011434,-35.81,-0.00035615,-3570.9,0.4484
13017,9.3685,2,0.05,9.4068e-07,9.4003,7.2232e-07,5.4273,-2.6041e-12,1.8938e-06,-7.2232e-07,-5.4272,0.45658
13018,9.3685,1.7273,0,0.00035345,3532.1,0.0001181,0.0037982,0.00011417,-29.528,-0.00035394,-3546.7,0.4559
13019,9.2766,1.8182,0,0.0003558,3555.6,0.00011906,0.0035654,0.00011463,-33.233,-0.00035636,-3572.1,0.44795
13020,9.3685,1.8182,0.05,9.4027e-07,9.3962,7.2201e-07,5.425,-2.5947e-12,2.3242e-06,-7.2201e-07,-5.4248,0.45613
13021,9.3685,1.5455,0,0.00035374,3534.9,0.00011805,0.0041011,0.00011451,-26.567,-0.00035418,-3548.1,0.45534
13022,9.2766,1.6364,0,0.00035609,3558.4,0.00011901,0.0038857,0.00011498,-30.283,-0.00035659,-3573.5,0.44742
13023,9.3685,1.6364,0.05,9.3977e-07,9.3912,7.2163e-07,5.4221,-2.5766e-12,2.375e-06,-7.2162e-07,-5.422,0.4556
13024,9.3685,1.3636,0,0.00035405,3538.1,0.00011799,0.0044254,0.00011489,-23.29,-0.00035444,-3549.7,0.4547
13025,9.2766,1.4545,0,0.0003564,3561.6,0.00011895,0.004242,0.00011536,-26.986,-0.00035686,-3575,0.44682
13026,9.3685,1.4545,0.05,9.3916e-07,9.3851,7.2116e-07,5.4186,-3.4804e-12,3.067e-06,-7.2116e-07,-5.4185,0.455
13027,9.3685,1.1818,0,0.0003544,3541.6,0.00011793,0.0047831,0.0001153,-19.722,-0.00035473,-3551.4,0.45399
13028,9.2766,1.2727,0,0.00035675,3565.1,0.00011888,0.0046202,0.00011577,-23.368,-0.00035715,-3576.7,0.44614
13029,9.3685,1.2727,0.05,9.3844e-07,9.3779,7.2061e-07,5.4144,-3.4685e-12,2.2261e-06,-7.206e-07,-5.4143,0.45433
13030,9.3685,1,0,0.00035478,3545.3,0.00011786,0.0051191,0.00011575,-15.893,-0.00035504,-3553.2,0.4532
13031,9.2766,1.0909,0,0.00035713,3568.9,0.00011882,0.0050677,0.00011623,-19.457,-0.00035746,-3578.5,0.44538
13032,9.3685,1.0909,0.05,9.376e-07,9.3695,7.1996e-07,5.4095,-3.4661e-12,2.6174e-06,-7.1995e-07,-5.4094,0.45358
13033,9.3685,0.81818,0,0.00035517,3549.3,0.00011779,0.0057056,0.00011622,-11.83,-0.00035537,-3555.2,0.45233
13034,9.2766,0.90909,0,0.00035754,3572.9,0.00011874,0.0054293,0.00011671,-15.282,-0.00035779,-3580.5,0.44455
13035,9.3685,0.90909,0.05,9.366e-07,9.3596,7.192e-07,5.4038,-4.3967e-12,2.4579e-06,-7.1919e-07,-5.4037,0.45275
13036,9.3685,0.63636,0,0.00035559,3553.5,0.00011772,0.0055665,0.00011671,-7.5612,-0.00035572,-3557.3,0.45139
13037,9.2766,0.72727,0,0.00035797,3577.2,0.00011867,0.0064806,0.00011722,-10.876,-0.00035815,-3582.6,0.44364
13038,9.3685,0.72727,0.05,9.3529e-07,9.3464,7.1819e-07,5.3962,-4.4009e-12,2.4333e-06,-7.1818e-07,-5.3961,0.45185
13039,9.3685,0.45455,0,0.00035604,3557.9,0.00011765,0.010918,0.00011723,-3.0874,-0.00035609,-3559.5,0.45037
13040,9.2766,0.54545,0,0.00035842,3581.7,0.00011859,0.0054879,0.00011775,-6.2657,-0.00035852,-3584.8,0.44266
13041,9.3685,0.54545,0.05,9.3093e-07,9.3029,7.1484e-07,5.3711,-5.2913e-12,2.1542e-06,-7.1483e-07,-5.3709,0.45086
13042,9.3685,0.27273,0,0.00035657,3563.2,0.00011784,2.0202,0.00011757,-0.0129,-0.00035653,-3562.2,0.44928
13043,9.2766,0.36364,0,0.0003589,3586.5,0.00011851,0.022257,0.00011832,-1.4302,-0.00035892,-3587.2,0.44159
13044,9.3685,0.36364,0.05,8.8218e-07,8.8157,6.7741e-07,5.0898,-4.4208e-12,2.175e-06,-6.774e-07,-5.0897,0.44981
13045,9.2766,0.18182,0,0.00035953,3592.8,0.00011902,4.4871,0.00011842,-0.027791,-0.00035945,-3590.6,0.44045
13046,9.3685,0.18182,0.05,1.6006e-07,1.5994,1.2291e-07,0.92351,-4.1223e-12,2.0919e-05,-1.229e-07,-0.92338,0.44867
13047,9.3685,0.090909,0,0.00035662,3563.8,0.000118,3.7998,0.0001175,-0.0081318,-0.00035656,-3561.9,0.4481
13048,9.1848,5.7273,0,0.00036184,3615.9,0.0001195,1.0167,0.00011935,-0.043617,-0.00036183,-3615.5,0.43285
13049,9.0929,5.8182,0,0.00036483,3645.8,0.0001207,3.6863,0.00012021,-0.040321,-0.00036477,-3644,0.42414
13050,9.1848,5.8182,0.05,1.7564e-07,1.7551,1.3486e-07,1.0133,2.1308e-12,-1.801e-05,-1.3487e-07,-1.0134,0.43224
13051,9.1848,5.9091,0,0.00036195,3617,0.00011972,3.3433,0.00011928,-0.012395,-0.00036189,-3615.3,0.43166
13052,9.1848,5.5455,0,0.00036127,3610.2,0.00011945,0.012911,0.00011883,-4.6243,-0.00036135,-3612.6,0.43396
13053,9.0929,5.6364,0,0.00036416,3639.1,0.00012031,0.024586,0.00011994,-2.7513,-0.00036421,-3640.5,0.42529
13054,9.1848,5.6364,0.05,8.8812e-07,8.875,6.8196e-07,5.1239,3.516e-12,6.9759e-07,-6.8197e-07,-5.1241,0.43339
13055,9.1848,5.3636,0,0.00036079,3605.4,0.00011954,0.0062315,0.00011826,-9.5963,-0.00036095,-3610.2,0.43499
13056,9.0929,5.4545,0,0.00036364,3633.9,0.0001204,0.0063362,0.00011932,-8.1111,-0.00036378,-3638,0.42637
13057,9.1848,5.4545,0.05,9.3638e-07,9.3574,7.1902e-07,5.4024,4.3645e-12,7.4199e-07,-7.1903e-07,-5.4025,0.43446
13058,9.1848,5.1818,0,0.00036033,3600.8,0.00011962,0.006166,0.00011771,-14.343,-0.00036057,-3607.9,0.43594
13059,9.0929,5.2727,0,0.00036315,3629,0.00012049,0.0071673,0.00011873,-13.226,-0.00036337,-3635.6,0.42737
13060,9.1848,5.2727,0.05,9.4078e-07,9.4013,7.224e-07,5.4278,3.4791e-12,-3.9957e-07,-7.224e-07,-5.4279,0.43545
13061,9.1848,5,0,0.00035989,3596.4,0.0001197,0.0053634,0.00011719,-18.86,-0.00036021,-3605.8,0.43682
13062,9.0929,5.0909,0,0.00036268,3624.3,0.00012058,0.005792,0.00011817,-18.116,-0.00036298,-3633.3,0.42829
13063,9.1848,5.0909,0.05,9.4216e-07,9.4151,7.2346e-07,5.4357,2.5289e-12,-5.5168e-07,-7.2347e-07,-5.4359,0.43636
13064,9.1848,4.8182,0,0.00035948,3592.3,0.00011977,0.0048974,0.0001167,-23.116,-0.00035987,-3603.8,0.43761
13065,9.0929,4.9091,0,0.00036224,3619.9,0.00012066,0.0052766,0.00011764,-22.745,-0.00036262,-3631.2,0.42913
13066,9.1848,4.9091,0.05,9.4321e-07,9.4256,7.2427e-07,5.4418,1.6342e-12,-1.492e-06,-7.2427e-07,-5.4419,0.4372
13067,9.1848,4.6364,0,0.0003591,3588.5,0.00011984,0.0044314,0.00011624,-27.077,-0.00035955,-3602,0.43834
13068,9.0929,4.7273,0,0.00036182,3615.7,0.00012074,0.0046952,0.00011714,-27.082,-0.00036227,-3629.2,0.42989
13069,9.1848,4.7273,0.05,9.4411e-07,9.4346,7.2495e-07,5.447,3.4412e-12,-1.4752e-06,-7.2497e-07,-5.4471,0.43796
13070,9.1848,4.4545,0,0.00035875,3585.1,0.00011991,0.0040217,0.00011582,-30.715,-0.00035927,-3600.3,0.43898
13071,9.0929,4.5455,0,0.00036144,3611.9,0.00012081,0.0042157,0.00011667,-31.092,-0.00036196,-3627.3,0.43058
13072,9.1848,4.5455,0.05,9.4488e-07,9.4422,7.2555e-07,5.4515,1.6392e-12,-4.2583e-07,-7.2555e-07,-5.4515,0.43864
13073,9.1848,4.2727,0,0.00035844,3581.9,0.00011997,0.0036487,0.00011544,-34,-0.00035901,-3598.8,0.43955
13074,9.0929,4.3636,0,0.00036109,3608.4,0.00012088,0.0037761,0.00011625,-34.744,-0.00036167,-3625.7,0.43119
13075,9.1848,4.3636,0.05,9.4552e-07,9.4487,7.2604e-07,5.4552,7.3991e-13,-1.383e-06,-7.2605e-07,-5.4553,0.43925
13076,9.1848,4.0909,0,0.00035816,3579.2,0.00012002,0.0033178,0.00011511,-36.905,-0.00035878,-3597.5,0.44004
13077,9.0929,4.1818,0,0.00036078,3605.3,0.00012094,0.0033876,0.00011588,-38.009,-0.00036141,-3624.2,0.43172
13078,9.1848,4.1818,0.05,9.4606e-07,9.454,7.2645e-07,5.4583,-1.4271e-13,-1.1326e-06,-7.2645e-07,-5.4583,0.43978
13079,9.1848,3.9091,0,0.00035792,3576.8,0.00012006,0.0030295,0.00011482,-39.407,-0.00035858,-3596.3,0.44046
13080,9.0929,4,0,0.00036051,3602.6,0.00012099,0.0030475,0.00011555,-40.86,-0.00036119,-3622.9,0.43218
13081,9.1848,4,0.05,9.4649e-07,9.4584,7.2679e-07,5.4608,-1.2628e-13,-9.6878e-07,-7.2679e-07,-5.4608,0.44023
13082,9.1848,3.7273,0,0.00035773,3574.8,0.0001201,0.0027873,0.00011458,-41.484,-0.00035841,-3595.4,0.4408
13083,9.0929,3.8182,0,0.00036028,3600.3,0.00012103,0.0027572,0.00011527,-43.275,-0.000361,-3621.8,0.43256
13084,9.1848,3.8182,0.05,9.4684e-07,9.4619,7.2705e-07,5.4628,7.9786e-13,-8.2702e-07,-7.2705e-07,-5.4628,0.44061
13085,9.1848,3.5455,0,0.00035757,3573.3,0.00012013,0.0025958,0.00011439,-43.118,-0.00035829,-3594.6,0.44106
13086,9.0929,3.6364,0,0.0003601,3598.5,0.00012107,0.0025208,0.00011505,-45.232,-0.00036085,-3620.9,0.43286
13087,9.1848,3.6364,0.05,9.471e-07,9.4645,7.2726e-07,5.4643,2.6394e-12,-6.8961e-07,-7.2726e-07,-5.4643,0.44091
13088,9.1848,3.3636,0,0.00035746,3572.1,0.00012015,0.0024566,0.00011425,-44.296,-0.00035819,-3594.1,0.44125
13089,9.0929,3.4545,0,0.00035996,3597.1,0.00012109,0.0023415,0.00011488,-46.715,-0.00036073,-3620.2,0.43309
13090,9.1848,3.4545,0.05,9.4729e-07,9.4664,7.274e-07,5.4654,-6.6066e-14,-5.0248e-07,-7.274e-07,-5.4654,0.44114
13091,9.1848,3.1818,0,0.00035739,3571.5,0.00012016,0.0023718,0.00011417,-45.007,-0.00035814,-3593.7,0.44136
13092,9.0929,3.2727,0,0.00035986,3596.2,0.00012111,0.0022199,0.00011476,-47.711,-0.00036065,-3619.8,0.43324
13093,9.1848,3.2727,0.05,9.4742e-07,9.4677,7.275e-07,5.4662,-4.0134e-14,1.7317e-07,-7.275e-07,-5.4662,0.44129
13094,9.1848,3,0,0.00035737,3571.2,0.00012017,0.0023433,0.00011414,-45.245,-0.00035812,-3593.6,0.4414
13095,9.0929,3.0909,0,0.00035982,3595.7,0.00012112,0.0021585,0.0001147,-48.211,-0.00036061,-3619.5,0.43332
13096,9.1848,3.0909,0.05,9.4748e-07,9.4683,7.2755e-07,5.4665,-1.8326e-12,3.7302e-07,-7.2755e-07,-5.4665,0.44137
13097,9.1848,2.8182,0,0.00035739,3571.5,0.00012016,0.0023719,0.00011417,-45.007,-0.00035814,-3593.7,0.44136
13098,9.0929,2.9091,0,0.00035982,3595.7,0.00012112,0.0021587,0.0001147,-48.211,-0.00036061,-3619.5,0.43332
13099,9.1848,2.9091,0.05,9.4748e-07,9.4683,7.2755e-07,5.4665,-1.8052e-12,5.7982e-07,-7.2755e-07,-5.4665,0.44137
13100,9.1848,2.6364,0,0.00035746,3572.1,0.00012015,0.002457,0.00011425,-44.296,-0.00035819,-3594.1,0.44125
13101,9.0929,2.7273,0,0.00035986,3596.2,0.00012111,0.0022202,0.00011476,-47.711,-0.00036065,-3619.8,0.43324
13102,9.1848,2.7273,0.05,9.4742e-07,9.4677,7.2751e-07,5.4662,-1.7772e-12,1.7389e-06,-7.2749e-07,-5.4661,0.44129
13103,9.1848,2.4545,0,0.00035757,3573.3,0.00012013,0.0025961,0.00011439,-43.118,-0.00035829,-3594.6,0.44106
13104,9.0929,2.5455,0,0.00035996,3597.1,0.00012109,0.0023419,0.00011488,-46.715,-0.00036073,-3620.2,0.43309
13105,9.1848,2.5455,0.05,9.473e-07,9.4664,7.2741e-07,5.4655,-8.3971e-13,1.94e-06,-7.274e-07,-5.4654,0.44114
13106,9.1848,2.2727,0,0.00035773,3574.8,0.0001201,0.0027876,0.00011458,-41.484,-0.00035841,-3595.4,0.4408
13107,9.0929,2.3636,0,0.0003601,3598.5,0.00012107,0.0025211,0.00011505,-45.232,-0.00036085,-3620.9,0.43286
13108,9.1848,2.3636,0.05,9.471e-07,9.4645,7.2726e-07,5.4644,-3.5427e-12,1.6774e-06,-7.2726e-07,-5.4643,0.44091
13109,9.1848,2.0909,0,0.00035792,3576.8,0.00012006,0.0030297,0.00011482,-39.407,-0.00035858,-3596.3,0.44046
13110,9.0929,2.1818,0,0.00036028,3600.3,0.00012103,0.0027576,0.00011527,-43.275,-0.000361,-3621.8,0.43256
13111,9.1848,2.1818,0.05,9.4684e-07,9.4619,7.2706e-07,5.4628,-1.6982e-12,2.2824e-06,-7.2705e-07,-5.4628,0.44061
13112,9.1848,1.9091,0,0.00035816,3579.2,0.00012002,0.003318,0.00011511,-36.905,-0.00035878,-3597.5,0.44004
13113,9.0929,2,0,0.00036051,3602.6,0.00012099,0.0030481,0.00011555,-40.86,-0.00036119,-3622.9,0.43218
13114,9.1848,2,0.05,9.4649e-07,9.4584,7.2679e-07,5.4608,-7.6686e-13,1.4763e-06,-7.2679e-07,-5.4608,0.44023
13115,9.1848,1.7273,0,0.00035844,3581.9,0.00011997,0.0036491,0.00011544,-34,-0.00035901,-3598.8,0.43955
13116,9.0929,1.8182,0,0.00036078,3605.3,0.00012094,0.003388,0.00011588,-38.009,-0.00036141,-3624.2,0.43172
13117,9.1848,1.8182,0.05,9.4606e-07,9.454,7.2646e-07,5.4584,-1.6495e-12,2.1723e-06,-7.2645e-07,-5.4582,0.43978
13118,9.1848,1.5455,0,0.00035875,3585.1,0.00011991,0.0040224,0.00011582,-30.715,-0.00035927,-3600.3,0.43898
13119,9.0929,1.6364,0,0.00036109,3608.4,0.00012088,0.0037766,0.00011625,-34.744,-0.00036167,-3625.7,0.43119
13120,9.1848,1.6364,0.05,9.4552e-07,9.4487,7.2605e-07,5.4553,-2.549e-12,2.9473e-06,-7.2604e-07,-5.4551,0.43925
13121,9.1848,1.3636,0,0.0003591,3588.5,0.00011984,0.004432,0.00011624,-27.077,-0.00035955,-3602,0.43834
13122,9.0929,1.4545,0,0.00036144,3611.9,0.00012081,0.0042163,0.00011667,-31.092,-0.00036196,-3627.3,0.43058
13123,9.1848,1.4545,0.05,9.4488e-07,9.4422,7.2555e-07,5.4515,-3.4462e-12,2.3147e-06,-7.2554e-07,-5.4514,0.43864
13124,9.1848,1.1818,0,0.00035948,3592.3,0.00011977,0.0048979,0.0001167,-23.116,-0.00035987,-3603.8,0.43762
13125,9.0929,1.2727,0,0.00036182,3615.7,0.00012074,0.004696,0.00011714,-27.082,-0.00036227,-3629.2,0.42989
13126,9.1848,1.2727,0.05,9.4411e-07,9.4346,7.2496e-07,5.4471,-3.4412e-12,2.8053e-06,-7.2495e-07,-5.447,0.43796
13127,9.1848,1,0,0.00035989,3596.4,0.0001197,0.0053645,0.00011719,-18.86,-0.00036021,-3605.8,0.43682
13128,9.0929,1.0909,0,0.00036224,3619.9,0.00012066,0.0052772,0.00011764,-22.745,-0.00036262,-3631.2,0.42913
13129,9.1848,1.0909,0.05,9.4321e-07,9.4256,7.2427e-07,5.4419,-3.4478e-12,2.8152e-06,-7.2427e-07,-5.4418,0.4372
13130,9.1848,0.81818,0,0.00036033,3600.8,0.00011962,0.0061672,0.00011771,-14.343,-0.00036057,-3607.9,0.43594
13131,9.0929,0.90909,0,0.00036268,3624.3,0.00012058,0.0057933,0.00011817,-18.116,-0.00036298,-3633.3,0.42829
13132,9.1848,0.90909,0.05,9.4216e-07,9.4151,7.2347e-07,5.4359,-3.4495e-12,2.2152e-06,-7.2346e-07,-5.4357,0.43636
13133,9.1848,0.63636,0,0.00036079,3605.4,0.00011954,0.0062324,0.00011826,-9.5963,-0.00036095,-3610.2,0.43499
13134,9.0929,0.72727,0,0.00036315,3629,0.00012049,0.0071687,0.00011873,-13.226,-0.00036337,-3635.6,0.42737
13135,9.1848,0.72727,0.05,9.4078e-07,9.4013,7.2241e-07,5.4279,-5.2789e-12,2.7583e-06,-7.2239e-07,-5.4278,0.43545
13136,9.1848,0.45455,0,0.00036127,3610.2,0.00011945,0.012912,0.00011883,-4.6242,-0.00036135,-3612.5,0.43396
13137,9.0929,0.54545,0,0.00036364,3633.9,0.0001204,0.0063368,0.00011932,-8.1111,-0.00036378,-3638,0.42637
13138,9.1848,0.54545,0.05,9.3638e-07,9.3574,7.1903e-07,5.4026,-7.0828e-12,3.1687e-06,-7.1902e-07,-5.4024,0.43446
13139,9.1848,0.27273,0,0.00036184,3615.9,0.0001195,1.0167,0.00011935,-0.043614,-0.00036183,-3615.5,0.43285
13140,9.0929,0.36364,0,0.00036416,3639.1,0.00012031,0.024587,0.00011994,-2.7513,-0.00036421,-3640.5,0.42529
13141,9.1848,0.36364,0.05,8.8811e-07,8.875,6.8197e-07,5.1241,-3.455e-12,3.1499e-06,-6.8196e-07,-5.1239,0.43339
13142,9.0929,0.18182,0,0.00036483,3645.8,0.0001207,3.6863,0.00012021,-0.04032,-0.00036477,-3644,0.42414
13143,9.1848,0.18182,0.05,1.7563e-07,1.7551,1.3487e-07,1.0134,-3.7336e-12,2.6532e-05,-1.3486e-07,-1.0132,0.43224
13144,9.1848,0.090909,0,0.00036195,3617,0.00011972,3.3433,0.00011928,-0.012394,-0.00036189,-3615.3,0.43166
13145,9.0011,5.7273,0,0.00036714,3668.9,0.00012119,0.20826,0.00012112,-0.33105,-0.00036714,-3668.9,0.41667
13146,8.9092,5.8182,0,0.00037016,3699.1,0.00012239,2.8468,0.00012201,-0.062088,-0.00037011,-3697.7,0.40807
13147,9.0011,5.8182,0.05,1.9286e-07,1.9273,1.481e-07,1.1127,3.3515e-12,-1.985e-05,-1.481e-07,-1.1128,0.41605
13148,9.0011,5.9091,0,0.0003673,3670.5,0.00012145,2.8625,0.00012107,-0.019139,-0.00036726,-3669.1,0.41547
13149,9.0011,5.5455,0,0.00036653,3662.8,0.00012127,0.015045,0.00012043,-6.2543,-0.00036663,-3665.9,0.41779
13150,8.9092,5.6364,0,0.00036945,3692,0.00012213,0.027744,0.00012157,-4.1539,-0.00036952,-3694,0.40924
13151,9.0011,5.6364,0.05,8.9442e-07,8.9381,6.868e-07,5.1603,3.4907e-12,6.8525e-08,-6.8681e-07,-5.1605,0.41721
13152,9.0011,5.3636,0,0.000366,3657.5,0.00012136,0.0070159,0.0001198,-11.757,-0.0003662,-3663.3,0.41883
13153,8.9092,5.4545,0,0.00036888,3686.3,0.00012223,0.0072913,0.00012089,-10.071,-0.00036905,-3691.3,0.41033
13154,9.0011,5.4545,0.05,9.4213e-07,9.4148,7.2344e-07,5.4356,3.474e-12,1.5322e-07,-7.2344e-07,-5.4357,0.41829
13155,9.0011,5.1818,0,0.0003655,3652.4,0.00012146,0.0067209,0.00011919,-17.013,-0.00036578,-3660.9,0.41979
13156,8.9092,5.2727,0,0.00036835,3680.9,0.00012233,0.0079578,0.00012024,-15.725,-0.00036861,-3688.7,0.41134
13157,9.0011,5.2727,0.05,9.4656e-07,9.459,7.2683e-07,5.4611,3.4656e-12,-3.4243e-07,-7.2684e-07,-5.4612,0.4193
13158,9.0011,5,0,0.00036502,3647.7,0.00012155,0.0056736,0.00011862,-22.014,-0.00036539,-3658.6,0.42068
13159,8.9092,5.0909,0,0.00036783,3675.8,0.00012243,0.0062274,0.00011962,-21.129,-0.00036819,-3686.3,0.41227
13160,9.0011,5.0909,0.05,9.48e-07,9.4735,7.2794e-07,5.4694,2.5418e-12,-1.4857e-06,-7.2795e-07,-5.4696,0.42022
13161,9.0011,4.8182,0,0.00036457,3643.2,0.00012163,0.0050568,0.00011807,-26.725,-0.00036502,-3656.5,0.42148
13162,8.9092,4.9091,0,0.00036735,3671,0.00012252,0.0055366,0.00011903,-26.246,-0.00036779,-3684,0.41312
13163,9.0011,4.9091,0.05,9.4911e-07,9.4845,7.2879e-07,5.4759,2.5265e-12,-1.0305e-06,-7.288e-07,-5.4759,0.42107
13164,9.0011,4.6364,0,0.00036416,3639.1,0.00012171,0.0044676,0.00011757,-31.108,-0.00036468,-3654.5,0.42221
13165,8.9092,4.7273,0,0.0003669,3666.4,0.00012261,0.0048049,0.00011848,-31.038,-0.00036741,-3681.9,0.41389
13166,9.0011,4.7273,0.05,9.5005e-07,9.494,7.2952e-07,5.4813,7.2784e-13,-1.5293e-06,-7.2952e-07,-5.4814,0.42183
13167,9.0011,4.4545,0,0.00036378,3635.2,0.00012178,0.0039609,0.00011711,-35.132,-0.00036436,-3652.7,0.42286
13168,8.9092,4.5455,0,0.00036648,3662.3,0.00012269,0.004211,0.00011797,-35.467,-0.00036707,-3679.9,0.41458
13169,9.0011,4.5455,0.05,9.5086e-07,9.502,7.3014e-07,5.486,1.6131e-12,-6.021e-07,-7.3014e-07,-5.486,0.42252
13170,9.0011,4.2727,0,0.00036343,3631.8,0.00012185,0.0035074,0.00011669,-38.764,-0.00036408,-3651,0.42344
13171,8.9092,4.3636,0,0.0003661,3658.5,0.00012276,0.0036771,0.00011751,-39.5,-0.00036676,-3678.1,0.4152
13172,9.0011,4.3636,0.05,9.5154e-07,9.5088,7.3066e-07,5.4899,7.3699e-13,-1.1792e-06,-7.3066e-07,-5.4899,0.42314
13173,9.0011,4.0909,0,0.00036313,3628.8,0.00012191,0.0031105,0.00011632,-41.975,-0.00036383,-3649.6,0.42394
13174,8.9092,4.1818,0,0.00036576,3655.1,0.00012283,0.0032118,0.00011709,-43.105,-0.00036648,-3676.4,0.41573
13175,9.0011,4.1818,0.05,9.521e-07,9.5144,7.311e-07,5.4931,7.4784e-13,-1.2359e-06,-7.3109e-07,-5.4932,0.42367
13176,9.0011,3.9091,0,0.00036287,3626.2,0.00012196,0.0027689,0.000116,-44.739,-0.00036361,-3648.3,0.42436
13177,8.9092,4,0,0.00036547,3652.1,0.00012289,0.0028084,0.00011673,-46.252,-0.00036623,-3675,0.4162
13178,9.0011,4,0.05,9.5256e-07,9.519,7.3145e-07,5.4958,1.6798e-12,-1.5653e-06,-7.3145e-07,-5.4958,0.42413
13179,9.0011,3.7273,0,0.00036265,3624,0.000122,0.0024848,0.00011574,-47.033,-0.00036343,-3647.3,0.4247
13180,8.9092,3.8182,0,0.00036522,3649.6,0.00012294,0.0024676,0.00011643,-48.916,-0.00036602,-3673.9,0.41658
13181,9.0011,3.8182,0.05,9.5292e-07,9.5226,7.3173e-07,5.4979,7.9144e-13,-9.2546e-07,-7.3173e-07,-5.4979,0.42451
13182,9.0011,3.5455,0,0.00036248,3622.3,0.00012203,0.0022608,0.00011553,-48.838,-0.00036329,-3646.5,0.42497
13183,8.9092,3.6364,0,0.00036501,3647.6,0.00012298,0.0021915,0.00011618,-51.074,-0.00036586,-3672.9,0.41689
13184,9.0011,3.6364,0.05,9.532e-07,9.5254,7.3194e-07,5.4995,8.0905e-13,2.2354e-07,-7.3194e-07,-5.4995,0.42482
13185,9.0011,3.3636,0,0.00036236,3621.1,0.00012205,0.0020992,0.00011538,-50.139,-0.00036319,-3645.9,0.42516
13186,8.9092,3.4545,0,0.00036486,3646.1,0.00012301,0.0019835,0.00011599,-52.71,-0.00036573,-3672.2,0.41712
13187,9.0011,3.4545,0.05,9.534e-07,9.5274,7.3209e-07,5.5007,-7.3542e-14,-5.4288e-07,-7.3209e-07,-5.5007,0.42505
13188,9.0011,3.1818,0,0.00036229,3620.4,0.00012207,0.002001,0.00011529,-50.923,-0.00036313,-3645.6,0.42527
13189,8.9092,3.2727,0,0.00036476,3645.1,0.00012303,0.0018427,0.00011586,-53.808,-0.00036564,-3671.7,0.41727
13190,9.0011,3.2727,0.05,9.5353e-07,9.5287,7.3219e-07,5.5014,-4.4719e-14,-3.2958e-07,-7.3219e-07,-5.5014,0.4252
13191,9.0011,3,0,0.00036226,3620.1,0.00012207,0.0019683,0.00011526,-51.186,-0.00036311,-3645.4,0.42531
13192,8.9092,3.0909,0,0.00036471,3644.6,0.00012304,0.0017717,0.0001158,-54.359,-0.0003656,-3671.4,0.41735
13193,9.0011,3.0909,0.05,9.5359e-07,9.5294,7.3224e-07,5.5018,-9.2454e-13,3.63e-07,-7.3224e-07,-5.5018,0.42527
13194,9.0011,2.8182,0,0.00036229,3620.4,0.00012207,0.0020015,0.00011529,-50.923,-0.00036313,-3645.6,0.42527
13195,8.9092,2.9091,0,0.00036471,3644.6,0.00012304,0.0017721,0.0001158,-54.359,-0.0003656,-3671.4,0.41735
13196,9.0011,2.9091,0.05,9.5359e-07,9.5294,7.3224e-07,5.5018,-8.9428e-13,1.0675e-06,-7.3224e-07,-5.5018,0.42527
13197,9.0011,2.6364,0,0.00036236,3621.1,0.00012205,0.0020996,0.00011538,-50.139,-0.00036319,-3645.9,0.42516
13198,8.9092,2.7273,0,0.00036476,3645.1,0.00012303,0.001843,0.00011586,-53.808,-0.00036564,-3671.7,0.41727
13199,9.0011,2.7273,0.05,9.5353e-07,9.5287,7.3219e-07,5.5015,-8.6428e-13,1.3014e-06,-7.3219e-07,-5.5014,0.4252
13200,9.0011,2.4545,0,0.00036248,3622.3,0.00012203,0.0022612,0.00011553,-48.838,-0.00036329,-3646.5,0.42497
13201,8.9092,2.5455,0,0.00036486,3646.1,0.00012301,0.0019837,0.00011599,-52.71,-0.00036573,-3672.2,0.41712
13202,9.0011,2.5455,0.05,9.534e-07,9.5274,7.3209e-07,5.5007,-8.346e-13,1.5136e-06,-7.3209e-07,-5.5006,0.42505
13203,9.0011,2.2727,0,0.00036265,3624,0.000122,0.0024851,0.00011574,-47.033,-0.00036343,-3647.3,0.4247
13204,8.9092,2.3636,0,0.00036501,3647.6,0.00012298,0.0021919,0.00011618,-51.074,-0.00036586,-3672.9,0.41689
13205,9.0011,2.3636,0.05,9.532e-07,9.5254,7.3194e-07,5.4995,-1.7105e-12,2.1995e-06,-7.3194e-07,-5.4995,0.42482
13206,9.0011,2.0909,0,0.00036287,3626.2,0.00012196,0.0027698,0.000116,-44.739,-0.00036361,-3648.3,0.42436
13207,8.9092,2.1818,0,0.00036522,3649.6,0.00012294,0.0024679,0.00011643,-48.916,-0.00036602,-3673.9,0.41658
13208,9.0011,2.1818,0.05,9.5292e-07,9.5226,7.3173e-07,5.4979,-3.5038e-12,1.9063e-06,-7.3172e-07,-5.4979,0.42451
13209,9.0011,1.9091,0,0.00036313,3628.8,0.00012191,0.0031114,0.00011632,-41.975,-0.00036383,-3649.6,0.42394
13210,8.9092,2,0,0.00036547,3652.1,0.00012289,0.0028091,0.00011673,-46.252,-0.00036623,-3675,0.4162
13211,9.0011,2,0.05,9.5256e-07,9.519,7.3145e-07,5.4958,-3.4826e-12,1.6001e-06,-7.3144e-07,-5.4958,0.42413
13212,9.0011,1.7273,0,0.00036343,3631.8,0.00012185,0.0035079,0.00011669,-38.764,-0.00036408,-3651,0.42344
13213,8.9092,1.8182,0,0.00036576,3655.1,0.00012283,0.0032122,0.00011709,-43.105,-0.00036648,-3676.4,0.41573
13214,9.0011,1.8182,0.05,9.521e-07,9.5144,7.311e-07,5.4932,-2.5475e-12,3.2748e-06,-7.3109e-07,-5.4931,0.42367
13215,9.0011,1.5455,0,0.00036378,3635.2,0.00012178,0.0039614,0.00011711,-35.132,-0.00036436,-3652.7,0.42286
13216,8.9092,1.6364,0,0.0003661,3658.5,0.00012276,0.0036777,0.00011751,-39.5,-0.00036676,-3678.1,0.4152
13217,9.0011,1.6364,0.05,9.5154e-07,9.5088,7.3067e-07,5.49,-2.5245e-12,3.2897e-06,-7.3066e-07,-5.4899,0.42314
13218,9.0011,1.3636,0,0.00036416,3639.1,0.00012171,0.0044684,0.00011757,-31.108,-0.00036468,-3654.5,0.42221
13219,8.9092,1.4545,0,0.00036648,3662.3,0.00012269,0.0042116,0.00011797,-35.467,-0.00036707,-3679.9,0.41458
13220,9.0011,1.4545,0.05,9.5086e-07,9.502,7.3014e-07,5.4861,-2.5e-12,2.3506e-06,-7.3014e-07,-5.4859,0.42252
13221,9.0011,1.1818,0,0.00036457,3643.2,0.00012163,0.0050576,0.00011807,-26.725,-0.00036502,-3656.5,0.42148
13222,8.9092,1.2727,0,0.0003669,3666.4,0.00012261,0.0048058,0.00011848,-31.038,-0.00036741,-3681.9,0.41389
13223,9.0011,1.2727,0.05,9.5005e-07,9.494,7.2953e-07,5.4814,-3.411e-12,2.7768e-06,-7.2952e-07,-5.4813,0.42183
13224,9.0011,1,0,0.00036502,3647.7,0.00012155,0.0056744,0.00011862,-22.014,-0.00036539,-3658.6,0.42068
13225,8.9092,1.0909,0,0.00036735,3671,0.00012252,0.0055373,0.00011903,-26.246,-0.00036779,-3684,0.41312
13226,9.0011,1.0909,0.05,9.4911e-07,9.4845,7.288e-07,5.476,-3.4188e-12,2.5569e-06,-7.2879e-07,-5.4758,0.42107
13227,9.0011,0.81818,0,0.0003655,3652.4,0.00012146,0.0067222,0.00011919,-17.013,-0.00036578,-3660.9,0.41979
13228,8.9092,0.90909,0,0.00036783,3675.8,0.00012243,0.0062289,0.00011962,-21.129,-0.00036819,-3686.3,0.41227
13229,9.0011,0.90909,0.05,9.48e-07,9.4735,7.2795e-07,5.4696,-4.3233e-12,2.4287e-06,-7.2794e-07,-5.4694,0.42022
13230,9.0011,0.63636,0,0.000366,3657.5,0.00012136,0.0070169,0.0001198,-11.757,-0.0003662,-3663.3,0.41883
13231,8.9092,0.72727,0,0.00036835,3680.9,0.00012233,0.0079591,0.00012024,-15.725,-0.00036861,-3688.7,0.41134
13232,9.0011,0.72727,0.05,9.4656e-07,9.459,7.2684e-07,5.4613,-5.2461e-12,2.9976e-06,-7.2683e-07,-5.4611,0.4193
13233,9.0011,0.45455,0,0.00036653,3662.8,0.00012127,0.015046,0.00012043,-6.2543,-0.00036663,-3665.9,0.41779
13234,8.9092,0.54545,0,0.00036888,3686.3,0.00012223,0.0072915,0.00012089,-10.071,-0.00036905,-3691.3,0.41033
13235,9.0011,0.54545,0.05,9.4213e-07,9.4148,7.2345e-07,5.4357,-5.2354e-12,3.1978e-06,-7.2343e-07,-5.4356,0.41829
13236,9.0011,0.27273,0,0.00036714,3668.9,0.00012119,0.20828,0.00012112,-0.33102,-0.00036714,-3668.9,0.41667
13237,8.9092,0.36364,0,0.00036945,3692,0.00012213,0.027746,0.00012157,-4.1539,-0.00036952,-3694,0.40924
13238,9.0011,0.36364,0.05,8.9442e-07,8.9381,6.8681e-07,5.1605,-4.3552e-12,3.5131e-06,-6.868e-07,-5.1603,0.41721
13239,8.9092,0.18182,0,0.00037016,3699.1,0.00012239,2.8468,0.00012201,-0.062087,-0.00037011,-3697.7,0.40807
13240,9.0011,0.18182,0.05,1.9286e-07,1.9273,1.481e-07,1.1128,-3.056e-12,2.8702e-05,-1.4809e-07,-1.1126,0.41605
13241,9.0011,0.090909,0,0.0003673,3670.5,0.00012145,2.8625,0.00012107,-0.019137,-0.00036726,-3669.1,0.41547
13242,8.8174,5.7273,0,0.00037246,3722,0.00012299,0.074314,0.00012279,-1.3597,-0.00037248,-3722.7,0.40073
13243,8.7255,5.8182,0,0.00037551,3752.5,0.00012409,1.9785,0.00012381,-0.10608,-0.00037548,-3751.6,0.39226
13244,8.8174,5.8182,0.05,2.1183e-07,2.1169,1.6266e-07,1.2221,2.4074e-12,-2.3854e-05,-1.6267e-07,-1.2222,0.40011
13245,8.8174,5.9091,0,0.00037268,3724.3,0.00012318,2.3577,0.00012287,-0.030298,-0.00037264,-3723.1,0.39952
13246,8.8174,5.5455,0,0.0003718,3715.5,0.00012309,0.01733,0.00012203,-7.9868,-0.00037194,-3719.4,0.40186
13247,8.7255,5.6364,0,0.00037476,3745,0.00012395,0.031321,0.0001232,-5.6449,-0.00037485,-3747.8,0.39344
13248,8.8174,5.6364,0.05,9.0113e-07,9.0051,6.9196e-07,5.199,4.3021e-12,-4.7187e-07,-6.9196e-07,-5.1992,0.40128
13249,8.8174,5.3636,0,0.00037123,3709.7,0.0001232,0.007901,0.00012133,-14.055,-0.00037146,-3716.7,0.40292
13250,8.7255,5.4545,0,0.00037414,3738.8,0.00012407,0.0083475,0.00012245,-12.158,-0.00037435,-3744.9,0.39454
13251,8.8174,5.4545,0.05,9.4819e-07,9.4754,7.2809e-07,5.4706,3.4094e-12,1.5513e-07,-7.281e-07,-5.4707,0.40237
13252,8.8174,5.1818,0,0.00037068,3704.2,0.00012331,0.0073577,0.00012066,-19.855,-0.00037101,-3714.1,0.40389
13253,8.7255,5.2727,0,0.00037356,3733,0.00012418,0.0088468,0.00012174,-18.387,-0.00037387,-3742.1,0.39555
13254,8.8174,5.2727,0.05,9.5265e-07,9.5199,7.3151e-07,5.4962,3.4375e-12,-1.4444e-06,-7.3152e-07,-5.4964,0.40339
13255,8.8174,5,0,0.00037016,3699,0.00012341,0.0060407,0.00012003,-25.374,-0.00037058,-3711.7,0.40479
13256,8.7255,5.0909,0,0.000373,3727.4,0.00012429,0.0067317,0.00012105,-24.342,-0.00037341,-3739.5,0.39649
13257,8.8174,5.0909,0.05,9.5415e-07,9.5349,7.3266e-07,5.505,1.5746e-12,-1.2037e-06,-7.3267e-07,-5.505,0.40432
13258,8.8174,4.8182,0,0.00036967,3694.2,0.0001235,0.0052561,0.00011943,-30.572,-0.00037018,-3709.3,0.4056
13259,8.7255,4.9091,0,0.00037247,3722.1,0.0001244,0.0058471,0.00012041,-29.981,-0.00037297,-3737,0.39735
13260,8.8174,4.9091,0.05,9.5531e-07,9.5465,7.3356e-07,5.5116,3.4196e-12,-1.477e-06,-7.3356e-07,-5.5117,0.40518
13261,8.8174,4.6364,0,0.00036922,3689.6,0.00012359,0.0045292,0.00011888,-35.408,-0.00036981,-3707.2,0.40634
13262,8.7255,4.7273,0,0.00037198,3717.2,0.0001245,0.0049494,0.0001198,-35.26,-0.00037257,-3734.7,0.39813
13263,8.8174,4.7273,0.05,9.5629e-07,9.5563,7.3431e-07,5.5173,2.4862e-12,-1.6962e-06,-7.3432e-07,-5.5174,0.40595
13264,8.8174,4.4545,0,0.0003688,3685.5,0.00012367,0.0039129,0.00011837,-39.846,-0.00036946,-3705.2,0.40699
13265,8.7255,4.5455,0,0.00037152,3712.7,0.00012459,0.0042281,0.00011924,-40.14,-0.00037219,-3732.6,0.39883
13266,8.8174,4.5455,0.05,9.5713e-07,9.5647,7.3496e-07,5.5222,1.5771e-12,-1.0701e-06,-7.3496e-07,-5.5222,0.40665
13267,8.8174,4.2727,0,0.00036843,3681.7,0.00012375,0.0033699,0.00011791,-43.851,-0.00036915,-3703.5,0.40757
13268,8.7255,4.3636,0,0.00037111,3708.5,0.00012467,0.0035892,0.00011873,-44.583,-0.00037185,-3730.6,0.39945
13269,8.8174,4.3636,0.05,9.5784e-07,9.5718,7.3551e-07,5.5263,-1.8039e-13,-1.4475e-06,-7.355e-07,-5.5263,0.40727
13270,8.8174,4.0909,0,0.0003681,3678.4,0.00012381,0.0028998,0.0001175,-47.391,-0.00036888,-3701.9,0.40808
13271,8.7255,4.1818,0,0.00037074,3704.8,0.00012474,0.0030382,0.00011828,-48.552,-0.00037154,-3728.9,0.4
13272,8.8174,4.1818,0.05,9.5842e-07,9.5776,7.3594e-07,5.5296,-1.9467e-13,-1.8627e-06,-7.3595e-07,-5.5297,0.40781
13273,8.8174,3.9091,0,0.00036781,3675.6,0.00012387,0.0024982,0.00011715,-50.438,-0.00036864,-3700.5,0.4085
13274,8.7255,4,0,0.00037042,3701.6,0.00012481,0.0025649,0.00011788,-52.018,-0.00037128,-3727.4,0.40046
13275,8.8174,4,0.05,9.5889e-07,9.5823,7.3631e-07,5.5323,-1.6102e-13,-1.2464e-06,-7.3631e-07,-5.5324,0.40827
13276,8.8174,3.7273,0,0.00036758,3673.2,0.00012391,0.0021662,0.00011686,-52.966,-0.00036845,-3699.4,0.40885
13277,8.7255,3.8182,0,0.00037015,3698.9,0.00012486,0.0021672,0.00011755,-54.951,-0.00037105,-3726.1,0.40085
13278,8.8174,3.8182,0.05,9.5927e-07,9.5861,7.366e-07,5.5345,-1.3773e-13,-1.0616e-06,-7.366e-07,-5.5345,0.40866
13279,8.8174,3.5455,0,0.00036739,3671.4,0.00012395,0.0019064,0.00011664,-54.955,-0.0003683,-3698.5,0.40912
13280,8.7255,3.6364,0,0.00036993,3696.7,0.0001249,0.001847,0.00011727,-57.327,-0.00037087,-3725,0.40116
13281,8.8174,3.6364,0.05,9.5955e-07,9.5889,7.3682e-07,5.5362,-1.1154e-13,1.1851e-07,-7.3682e-07,-5.5362,0.40897
13282,8.8174,3.3636,0,0.00036726,3670,0.00012398,0.0017196,0.00011647,-56.388,-0.00036818,-3697.9,0.40931
13283,8.7255,3.4545,0,0.00036976,3695,0.00012494,0.0016068,0.00011707,-59.127,-0.00037073,-3724.2,0.40139
13284,8.8174,3.4545,0.05,9.5976e-07,9.591,7.3698e-07,5.5373,-8.1536e-14,8.2809e-07,-7.3698e-07,-5.5373,0.4092
13285,8.8174,3.1818,0,0.00036718,3669.2,0.00012399,0.0016062,0.00011637,-57.252,-0.00036812,-3697.5,0.40942
13286,8.7255,3.2727,0,0.00036965,3693.9,0.00012496,0.0014447,0.00011693,-60.336,-0.00037064,-3723.7,0.40154
13287,8.8174,3.2727,0.05,9.5989e-07,9.5923,7.3708e-07,5.5381,-4.9568e-14,-3.745e-07,-7.3708e-07,-5.5381,0.40935
13288,8.8174,3,0,0.00036715,3669,0.000124,0.0015683,0.00011634,-57.541,-0.0003681,-3697.4,0.40946
13289,8.7255,3.0909,0,0.00036959,3693.4,0.00012497,0.001363,0.00011686,-60.943,-0.00037059,-3723.4,0.40162
13290,8.8174,3.0909,0.05,9.5996e-07,9.5929,7.3713e-07,5.5385,-1.6796e-14,8.2773e-07,-7.3713e-07,-5.5385,0.40943
13291,8.8174,2.8182,0,0.00036718,3669.2,0.00012399,0.0016063,0.00011637,-57.252,-0.00036812,-3697.5,0.40942
13292,8.7255,2.9091,0,0.00036959,3693.4,0.00012497,0.0013629,0.00011686,-60.943,-0.00037059,-3723.4,0.40162
13293,8.8174,2.9091,0.05,9.5996e-07,9.5929,7.3713e-07,5.5385,1.6795e-14,6.0253e-07,-7.3713e-07,-5.5385,0.40943
13294,8.8174,2.6364,0,0.00036726,3670,0.00012398,0.0017198,0.00011647,-56.388,-0.00036818,-3697.9,0.40931
13295,8.7255,2.7273,0,0.00036965,3693.9,0.00012496,0.0014448,0.00011693,-60.336,-0.00037064,-3723.7,0.40154
13296,8.8174,2.7273,0.05,9.5989e-07,9.5923,7.3708e-07,5.5381,-2.6777e-12,1.3294e-06,-7.3708e-07,-5.5381,0.40935
13297,8.8174,2.4545,0,0.00036739,3671.4,0.00012395,0.0019067,0.00011664,-54.955,-0.00036829,-3698.5,0.40912
13298,8.7255,2.5455,0,0.00036976,3695,0.00012494,0.0016068,0.00011707,-59.127,-0.00037073,-3724.2,0.40139
13299,8.8174,2.5455,0.05,9.5976e-07,9.591,7.3698e-07,5.5374,-8.2496e-13,2.0522e-06,-7.3697e-07,-5.5373,0.4092
13300,8.8174,2.2727,0,0.00036758,3673.2,0.00012391,0.0021666,0.00011686,-52.966,-0.00036845,-3699.4,0.40885
13301,8.7255,2.3636,0,0.00036993,3696.7,0.0001249,0.0018474,0.00011727,-57.327,-0.00037087,-3725,0.40116
13302,8.8174,2.3636,0.05,9.5955e-07,9.5889,7.3682e-07,5.5362,-2.615e-12,2.2817e-06,-7.3682e-07,-5.5361,0.40897
13303,8.8174,2.0909,0,0.00036781,3675.6,0.00012387,0.0024984,0.00011715,-50.438,-0.00036864,-3700.5,0.4085
13304,8.7255,2.1818,0,0.00037015,3698.9,0.00012486,0.0021675,0.00011755,-54.951,-0.00037105,-3726.1,0.40085
13305,8.8174,2.1818,0.05,9.5927e-07,9.5861,7.3661e-07,5.5345,-7.5424e-13,1.5058e-06,-7.3659e-07,-5.5345,0.40866
13306,8.8174,1.9091,0,0.0003681,3678.4,0.00012381,0.0029,0.0001175,-47.391,-0.00036888,-3701.9,0.40808
13307,8.7255,2,0,0.00037042,3701.6,0.00012481,0.0025652,0.00011788,-52.018,-0.00037128,-3727.4,0.40046
13308,8.8174,2,0.05,9.5889e-07,9.5823,7.3631e-07,5.5324,-1.6444e-12,1.3465e-06,-7.3631e-07,-5.5323,0.40827
13309,8.8174,1.7273,0,0.00036843,3681.7,0.00012375,0.0033704,0.00011791,-43.851,-0.00036915,-3703.5,0.40757
13310,8.7255,1.8182,0,0.00037074,3704.8,0.00012474,0.0030386,0.00011828,-48.552,-0.00037154,-3728.9,0.4
13311,8.8174,1.8182,0.05,9.5842e-07,9.5776,7.3595e-07,5.5297,-7.1282e-13,1.633e-06,-7.3594e-07,-5.5296,0.40781
13312,8.8174,1.5455,0,0.0003688,3685.5,0.00012367,0.0039136,0.00011837,-39.846,-0.00036946,-3705.2,0.40699
13313,8.7255,1.6364,0,0.00037111,3708.5,0.00012467,0.0035898,0.00011873,-44.583,-0.00037185,-3730.6,0.39945
13314,8.8174,1.6364,0.05,9.5784e-07,9.5718,7.355e-07,5.5263,-2.52e-12,2.6202e-06,-7.355e-07,-5.5262,0.40727
13315,8.8174,1.3636,0,0.00036922,3689.6,0.00012359,0.0045298,0.00011888,-35.408,-0.00036981,-3707.2,0.40634
13316,8.7255,1.4545,0,0.00037152,3712.7,0.00012459,0.0042288,0.00011924,-40.14,-0.00037219,-3732.6,0.39883
13317,8.8174,1.4545,0.05,9.5713e-07,9.5647,7.3496e-07,5.5223,-3.3899e-12,2.7046e-06,-7.3496e-07,-5.5221,0.40665
13318,8.8174,1.1818,0,0.00036967,3694.2,0.0001235,0.0052568,0.00011943,-30.572,-0.00037018,-3709.3,0.4056
13319,8.7255,1.2727,0,0.00037198,3717.2,0.0001245,0.00495,0.0001198,-35.26,-0.00037257,-3734.7,0.39813
13320,8.8174,1.2727,0.05,9.5629e-07,9.5563,7.3432e-07,5.5174,-3.363e-12,3.1294e-06,-7.3431e-07,-5.5173,0.40595
13321,8.8174,1,0,0.00037016,3699,0.00012341,0.006042,0.00012003,-25.374,-0.00037058,-3711.7,0.40479
13322,8.7255,1.0909,0,0.00037247,3722.1,0.0001244,0.0058478,0.00012041,-29.981,-0.00037297,-3737,0.39735
13323,8.8174,1.0909,0.05,9.5531e-07,9.5465,7.3356e-07,5.5117,-4.29e-12,2.8369e-06,-7.3355e-07,-5.5116,0.40518
13324,8.8174,0.81818,0,0.00037068,3704.2,0.00012331,0.0073592,0.00012066,-19.855,-0.00037101,-3714.1,0.40389
13325,8.7255,0.90909,0,0.000373,3727.4,0.00012429,0.0067335,0.00012105,-24.342,-0.00037341,-3739.5,0.39649
13326,8.8174,0.90909,0.05,9.5415e-07,9.5349,7.3267e-07,5.5051,-4.2541e-12,2.9817e-06,-7.3266e-07,-5.5049,0.40432
13327,8.8174,0.63636,0,0.00037123,3709.7,0.0001232,0.0079014,0.00012133,-14.055,-0.00037146,-3716.7,0.40292
13328,8.7255,0.72727,0,0.00037356,3733,0.00012418,0.008848,0.00012174,-18.387,-0.00037387,-3742.1,0.39555
13329,8.8174,0.72727,0.05,9.5265e-07,9.5199,7.3152e-07,5.4964,-6.0929e-12,3.5886e-06,-7.3151e-07,-5.4962,0.40339
13330,8.8174,0.45455,0,0.0003718,3715.5,0.00012309,0.01733,0.00012203,-7.9867,-0.00037194,-3719.4,0.40186
13331,8.7255,0.54545,0,0.00037414,3738.8,0.00012407,0.0083475,0.00012245,-12.158,-0.00037435,-3744.9,0.39454
13332,8.8174,0.54545,0.05,9.4819e-07,9.4754,7.281e-07,5.4707,-3.4007e-12,3.3175e-06,-7.2809e-07,-5.4705,0.40237
13333,8.8174,0.27273,0,0.00037246,3722,0.00012299,0.074316,0.00012279,-1.3597,-0.00037248,-3722.7,0.40073
13334,8.7255,0.36364,0,0.00037476,3745,0.00012395,0.031323,0.0001232,-5.6449,-0.00037485,-3747.8,0.39344
13335,8.8174,0.36364,0.05,9.0113e-07,9.0051,6.9196e-07,5.1992,-6.1085e-12,3.592e-06,-6.9196e-07,-5.199,0.40128
13336,8.7255,0.18182,0,0.00037551,3752.5,0.00012409,1.9785,0.00012381,-0.10608,-0.00037548,-3751.6,0.39226
13337,8.8174,0.18182,0.05,2.1183e-07,2.1169,1.6267e-07,1.2223,-3.7924e-12,2.6347e-05,-1.6265e-07,-1.2221,0.40011
13338,8.8174,0.090909,0,0.00037268,3724.3,0.00012318,2.3577,0.00012287,-0.030296,-0.00037264,-3723.1,0.39952
13339,8.6337,5.7273,0,0.0003778,3775.4,0.00012481,0.055172,0.00012446,-2.5753,-0.00037784,-3776.7,0.38505
13340,8.5418,5.8182,0,0.00038089,3806.3,0.0001258,1.1268,0.00012562,-0.22099,-0.00038087,-3805.8,0.37669
13341,8.6337,5.8182,0.05,2.3265e-07,2.3249,1.7864e-07,1.3422,2.4248e-12,-2.9752e-05,-1.7865e-07,-1.3424,0.38442
13342,8.6337,5.9091,0,0.00037809,3778.3,0.00012492,1.8315,0.00012467,-0.050198,-0.00037806,-3777.4,0.38382
13343,8.6337,5.5455,0,0.0003771,3768.4,0.00012493,0.019788,0.00012362,-9.831,-0.00037726,-3773.3,0.38619
13344,8.5418,5.6364,0,0.00038009,3798.3,0.00012579,0.035248,0.00012482,-7.2317,-0.00038021,-3801.8,0.37788
13345,8.6337,5.6364,0.05,9.0827e-07,9.0765,6.9744e-07,5.2402,5.2321e-12,-2.7988e-07,-6.9744e-07,-5.2404,0.3856
13346,8.6337,5.3636,0,0.00037647,3762.1,0.00012505,0.0088894,0.00012285,-16.504,-0.00037675,-3770.3,0.38726
13347,8.5418,5.4545,0,0.00037942,3791.6,0.00012592,0.009508,0.00012401,-14.382,-0.00037966,-3798.7,0.379
13348,8.6337,5.4545,0.05,9.5459e-07,9.5393,7.33e-07,5.5075,3.4386e-12,-1.9838e-07,-7.3301e-07,-5.5076,0.38671
13349,8.6337,5.1818,0,0.00037587,3756.2,0.00012517,0.0080803,0.00012212,-22.887,-0.00037626,-3767.5,0.38824
13350,8.5418,5.2727,0,0.00037878,3785.2,0.00012605,0.0098354,0.00012322,-21.228,-0.00037914,-3795.8,0.38002
13351,8.6337,5.2727,0.05,9.5907e-07,9.584,7.3644e-07,5.5333,1.5983e-12,-1.7201e-06,-7.3645e-07,-5.5334,0.38773
13352,8.6337,5,0,0.00037531,3750.5,0.00012528,0.0064699,0.00012143,-28.961,-0.00037579,-3764.9,0.38914
13353,8.5418,5.0909,0,0.00037818,3779.2,0.00012617,0.0073059,0.00012247,-27.774,-0.00037864,-3793,0.38097
13354,8.6337,5.0909,0.05,9.6063e-07,9.5996,7.3764e-07,5.5423,3.4342e-12,-1.1929e-06,-7.3764e-07,-5.5424,0.38867
13355,8.6337,4.8182,0,0.00037478,3745.2,0.00012539,0.0055003,0.00012077,-34.681,-0.00037536,-3762.4,0.38997
13356,8.5418,4.9091,0,0.0003776,3773.4,0.00012629,0.0062094,0.00012177,-33.972,-0.00037817,-3790.3,0.38184
13357,8.6337,4.9091,0.05,9.6183e-07,9.6117,7.3857e-07,5.5493,3.3708e-12,-2.2415e-06,-7.3857e-07,-5.5494,0.38954
13358,8.6337,4.6364,0,0.00037428,3740.2,0.00012549,0.0046214,0.00012017,-40.003,-0.00037495,-3760.1,0.39071
13359,8.5418,4.7273,0,0.00037707,3768.1,0.0001264,0.0051292,0.0001211,-39.775,-0.00037773,-3787.8,0.38263
13360,8.6337,4.7273,0.05,9.6286e-07,9.6219,7.3935e-07,5.5552,3.3921e-12,-1.9108e-06,-7.3936e-07,-5.5553,0.39032
13361,8.6337,4.4545,0,0.00037383,3735.7,0.00012558,0.0038846,0.00011961,-44.887,-0.00037457,-3758,0.39137
13362,8.5418,4.5455,0,0.00037657,3763.1,0.0001265,0.0042681,0.00012049,-45.14,-0.00037732,-3785.5,0.38333
13363,8.6337,4.5455,0.05,9.6373e-07,9.6306,7.4002e-07,5.5602,3.372e-12,-1.9939e-06,-7.4002e-07,-5.5603,0.39102
13364,8.6337,4.2727,0,0.00037342,3731.6,0.00012566,0.0032418,0.0001191,-49.293,-0.00037424,-3756,0.39196
13365,8.5418,4.3636,0,0.00037612,3758.6,0.00012659,0.0035137,0.00011993,-50.023,-0.00037695,-3783.4,0.38396
13366,8.6337,4.3636,0.05,9.6445e-07,9.6378,7.4058e-07,5.5644,6.9412e-13,-2.6683e-06,-7.4058e-07,-5.5644,0.39165
13367,8.6337,4.0909,0,0.00037306,3728,0.00012574,0.0026901,0.00011866,-53.188,-0.00037394,-3754.3,0.39246
13368,8.5418,4.1818,0,0.00037572,3754.6,0.00012667,0.0028678,0.00011943,-54.387,-0.00037661,-3781.5,0.38451
13369,8.6337,4.1818,0.05,9.6505e-07,9.6438,7.4103e-07,5.5678,2.5225e-12,-2.026e-06,-7.4104e-07,-5.5679,0.3922
13370,8.6337,3.9091,0,0.00037275,3724.9,0.0001258,0.0022223,0.00011827,-56.54,-0.00037368,-3752.9,0.39289
13371,8.5418,4,0,0.00037537,3751.1,0.00012674,0.0023171,0.000119,-58.196,-0.00037632,-3779.8,0.38498
13372,8.6337,4,0.05,9.6553e-07,9.6486,7.414e-07,5.5706,7.3756e-13,-1.3602e-06,-7.4141e-07,-5.5707,0.39266
13373,8.6337,3.7273,0,0.00037249,3722.4,0.00012585,0.0018375,0.00011795,-59.321,-0.00037347,-3751.7,0.39324
13374,8.5418,3.8182,0,0.00037507,3748.1,0.0001268,0.0018569,0.00011863,-61.419,-0.00037608,-3778.4,0.38537
13375,8.6337,3.8182,0.05,9.659e-07,9.6524,7.4169e-07,5.5728,7.4591e-13,-1.142e-06,-7.417e-07,-5.5728,0.39305
13376,8.6337,3.5455,0,0.00037229,3720.4,0.00012589,0.0015376,0.0001177,-61.508,-0.0003733,-3750.7,0.39351
13377,8.5418,3.6364,0,0.00037483,3745.7,0.00012685,0.0014879,0.00011833,-64.03,-0.00037588,-3777.3,0.38568
13378,8.6337,3.6364,0.05,9.6619e-07,9.6552,7.4192e-07,5.5744,-1.2305e-13,1.8472e-08,-7.4191e-07,-5.5745,0.39336
13379,8.6337,3.3636,0,0.00037215,3718.9,0.00012592,0.0013225,0.00011752,-63.084,-0.00037318,-3750,0.39371
13380,8.5418,3.4545,0,0.00037465,3743.9,0.00012689,0.0012115,0.0001181,-66.008,-0.00037573,-3776.5,0.38591
13381,8.6337,3.4545,0.05,9.664e-07,9.6573,7.4207e-07,5.5756,-8.7674e-14,-6.7501e-07,-7.4207e-07,-5.5756,0.3936
13382,8.6337,3.1818,0,0.00037206,3718,0.00012594,0.0011923,0.00011742,-64.034,-0.00037311,-3749.6,0.39382
13383,8.5418,3.2727,0,0.00037453,3742.7,0.00012691,0.0010256,0.00011795,-67.336,-0.00037563,-3775.9,0.38607
13384,8.6337,3.2727,0.05,9.6653e-07,9.6586,7.4218e-07,5.5764,-5.4024e-14,-4.0372e-07,-7.4217e-07,-5.5764,0.39375
13385,8.6337,3,0,0.00037203,3717.7,0.00012594,0.0011485,0.00011738,-64.352,-0.00037308,-3749.5,0.39386
13386,8.5418,3.0909,0,0.00037446,3742.1,0.00012693,0.00093213,0.00011788,-68.003,-0.00037558,-3775.6,0.38615
13387,8.6337,3.0909,0.05,9.6659e-07,9.6593,7.4222e-07,5.5768,-1.8489e-14,-1.3934e-07,-7.4222e-07,-5.5768,0.39383
13388,8.6337,2.8182,0,0.00037206,3718,0.00012594,0.0011922,0.00011742,-64.034,-0.00037311,-3749.6,0.39382
13389,8.5418,2.9091,0,0.00037446,3742.1,0.00012693,0.00093213,0.00011788,-68.003,-0.00037558,-3775.6,0.38615
13390,8.6337,2.9091,0.05,9.6659e-07,9.6593,7.4222e-07,5.5768,1.849e-14,6.1647e-07,-7.4222e-07,-5.5768,0.39383
13391,8.6337,2.6364,0,0.00037215,3718.9,0.00012592,0.0013225,0.00011752,-63.084,-0.00037318,-3750,0.39371
13392,8.5418,2.7273,0,0.00037453,3742.7,0.00012691,0.0010258,0.00011795,-67.336,-0.00037563,-3775.9,0.38607
13393,8.6337,2.7273,0.05,9.6653e-07,9.6586,7.4218e-07,5.5764,-8.54e-13,4.2359e-07,-7.4217e-07,-5.5764,0.39375
13394,8.6337,2.4545,0,0.00037229,3720.4,0.00012589,0.0015376,0.0001177,-61.508,-0.0003733,-3750.7,0.39351
13395,8.5418,2.5455,0,0.00037465,3743.9,0.00012689,0.0012115,0.0001181,-66.008,-0.00037573,-3776.5,0.38591
13396,8.6337,2.5455,0.05,9.664e-07,9.6573,7.4207e-07,5.5757,-8.1859e-13,1.1653e-06,-7.4207e-07,-5.5756,0.3936
13397,8.6337,2.2727,0,0.00037249,3722.4,0.00012585,0.0018377,0.00011795,-59.321,-0.00037347,-3751.7,0.39324
13398,8.5418,2.3636,0,0.00037483,3745.7,0.00012685,0.0014882,0.00011833,-64.03,-0.00037588,-3777.3,0.38568
13399,8.6337,2.3636,0.05,9.6619e-07,9.6552,7.4191e-07,5.5745,-7.7921e-13,2.8925e-06,-7.4191e-07,-5.5744,0.39336
13400,8.6337,2.0909,0,0.00037275,3724.9,0.0001258,0.0022227,0.00011827,-56.54,-0.00037368,-3752.9,0.39289
13401,8.5418,2.1818,0,0.00037507,3748.1,0.0001268,0.0018571,0.00011863,-61.419,-0.00037608,-3778.4,0.38537
13402,8.6337,2.1818,0.05,9.659e-07,9.6524,7.417e-07,5.5728,-1.6541e-12,1.6537e-06,-7.4169e-07,-5.5728,0.39305
13403,8.6337,1.9091,0,0.00037306,3728,0.00012574,0.0026907,0.00011866,-53.188,-0.00037394,-3754.3,0.39246
13404,8.5418,2,0,0.00037537,3751.1,0.00012674,0.0023177,0.000119,-58.196,-0.00037632,-3779.8,0.38498
13405,8.6337,2,0.05,9.6553e-07,9.6486,7.4141e-07,5.5707,-2.5405e-12,2.3973e-06,-7.414e-07,-5.5706,0.39266
13406,8.6337,1.7273,0,0.00037342,3731.6,0.00012566,0.0032424,0.0001191,-49.293,-0.00037424,-3756,0.39196
13407,8.5418,1.8182,0,0.00037572,3754.6,0.00012667,0.0028685,0.00011943,-54.387,-0.00037661,-3781.5,0.38451
13408,8.6337,1.8182,0.05,9.6505e-07,9.6438,7.4103e-07,5.5679,-3.4295e-12,3.0595e-06,-7.4104e-07,-5.5678,0.3922
13409,8.6337,1.5455,0,0.00037383,3735.7,0.00012558,0.0038852,0.00011961,-44.887,-0.00037457,-3758,0.39137
13410,8.5418,1.6364,0,0.00037612,3758.6,0.00012659,0.0035143,0.00011993,-50.023,-0.00037695,-3783.4,0.38396
13411,8.6337,1.6364,0.05,9.6445e-07,9.6378,7.4058e-07,5.5645,-2.4818e-12,2.3539e-06,-7.4058e-07,-5.5644,0.39165
13412,8.6337,1.3636,0,0.00037428,3740.2,0.00012549,0.0046221,0.00012017,-40.003,-0.00037495,-3760.1,0.39071
13413,8.5418,1.4545,0,0.00037657,3763.1,0.0001265,0.0042689,0.00012049,-45.14,-0.00037732,-3785.5,0.38333
13414,8.6337,1.4545,0.05,9.6373e-07,9.6306,7.4002e-07,5.5603,-3.3414e-12,3.4184e-06,-7.4002e-07,-5.5602,0.39102
13415,8.6337,1.1818,0,0.00037478,3745.2,0.00012539,0.005501,0.00012077,-34.681,-0.00037536,-3762.4,0.38997
13416,8.5418,1.2727,0,0.00037707,3768.1,0.0001264,0.0051298,0.0001211,-39.775,-0.00037773,-3787.8,0.38263
13417,8.6337,1.2727,0.05,9.6286e-07,9.6219,7.3936e-07,5.5553,-3.3762e-12,3.1625e-06,-7.3936e-07,-5.5552,0.39032
13418,8.6337,1,0,0.00037531,3750.5,0.00012528,0.0064711,0.00012143,-28.961,-0.00037579,-3764.9,0.38914
13419,8.5418,1.0909,0,0.0003776,3773.4,0.00012629,0.0062101,0.00012177,-33.972,-0.00037817,-3790.3,0.38184
13420,8.6337,1.0909,0.05,9.6183e-07,9.6117,7.3857e-07,5.5494,-5.138e-12,3.5807e-06,-7.3857e-07,-5.5492,0.38954
13421,8.6337,0.81818,0,0.00037587,3756.2,0.00012517,0.0080817,0.00012212,-22.887,-0.00037626,-3767.5,0.38824
13422,8.5418,0.90909,0,0.00037818,3779.2,0.00012617,0.0073076,0.00012247,-27.774,-0.00037864,-3793,0.38097
13423,8.6337,0.90909,0.05,9.6063e-07,9.5996,7.3765e-07,5.5424,-6.0528e-12,3.0445e-06,-7.3764e-07,-5.5423,0.38867
13424,8.6337,0.63636,0,0.00037647,3762.1,0.00012505,0.00889,0.00012285,-16.504,-0.00037675,-3770.3,0.38726
13425,8.5418,0.72727,0,0.00037878,3785.2,0.00012605,0.0098364,0.00012322,-21.228,-0.00037914,-3795.8,0.38002
13426,8.6337,0.72727,0.05,9.5907e-07,9.584,7.3645e-07,5.5334,-3.3417e-12,3.0623e-06,-7.3644e-07,-5.5333,0.38773
13427,8.6337,0.45455,0,0.0003771,3768.4,0.00012493,0.019789,0.00012362,-9.831,-0.00037726,-3773.3,0.38619
13428,8.5418,0.54545,0,0.00037942,3791.6,0.00012592,0.0095083,0.00012401,-14.382,-0.00037966,-3798.7,0.379
13429,8.6337,0.54545,0.05,9.5459e-07,9.5393,7.3302e-07,5.5076,-6.9796e-12,3.8881e-06,-7.33e-07,-5.5074,0.38671
13430,8.6337,0.27273,0,0.0003778,3775.4,0.00012481,0.055174,0.00012446,-2.5753,-0.00037784,-3776.7,0.38505
13431,8.5418,0.36364,0,0.00038009,3798.3,0.00012579,0.035249,0.00012482,-7.2317,-0.00038021,-3801.8,0.37788
13432,8.6337,0.36364,0.05,9.0827e-07,9.0765,6.9745e-07,5.2404,-5.1275e-12,4.3438e-06,-6.9744e-07,-5.2402,0.3856
13433,8.5418,0.18182,0,0.00038089,3806.3,0.0001258,1.1268,0.00012562,-0.22099,-0.00038087,-3805.8,0.37669
13434,8.6337,0.18182,0.05,2.3265e-07,2.3249,1.7865e-07,1.3423,-1.0612e-12,3.4367e-05,-1.7864e-07,-1.3422,0.38442
13435,8.6337,0.090909,0,0.00037809,3778.3,0.00012492,1.8316,0.00012467,-0.050196,-0.00037806,-3777.4,0.38382
13436,8.45,5.7273,0,0.00038317,3829,0.00012664,0.049913,0.00012612,-3.8824,-0.00038323,-3830.9,0.36962
13437,8.3582,5.8182,0,0.00038629,3860.3,0.00012755,0.48741,0.0001274,-0.60597,-0.00038629,-3860.3,0.36138
13438,8.45,5.8182,0.05,2.5542e-07,2.5525,1.9613e-07,1.4736,2.3106e-12,-1.8387e-05,-1.9614e-07,-1.4737,0.36898
13439,8.45,5.9091,0,0.00038352,3832.5,0.00012667,1.2938,0.00012649,-0.090413,-0.0003835,-3831.9,0.36838
13440,8.45,5.5455,0,0.00038241,3821.5,0.00012678,0.022435,0.00012521,-11.797,-0.00038261,-3827.3,0.37077
13441,8.3582,5.6364,0,0.00038544,3851.7,0.00012764,0.039516,0.00012645,-8.9222,-0.00038559,-3856.2,0.36259
13442,8.45,5.6364,0.05,9.1587e-07,9.1524,7.0327e-07,5.2841,3.3527e-12,-1.4354e-06,-7.0328e-07,-5.2842,0.37018
13443,8.45,5.3636,0,0.00038173,3814.7,0.00012692,0.0099795,0.00012437,-19.119,-0.00038205,-3824.2,0.37185
13444,8.3582,5.4545,0,0.00038472,3844.5,0.00012779,0.010774,0.00012555,-16.756,-0.000385,-3852.8,0.36371
13445,8.45,5.4545,0.05,9.6136e-07,9.6069,7.382e-07,5.5465,5.176e-12,-9.7131e-07,-7.382e-07,-5.5466,0.37129
13446,8.45,5.1818,0,0.00038108,3808.2,0.00012705,0.0088859,0.00012357,-26.127,-0.00038152,-3821.2,0.37284
13447,8.3582,5.2727,0,0.00038402,3837.6,0.00012793,0.010922,0.0001247,-24.264,-0.00038443,-3849.7,0.36475
13448,8.45,5.2727,0.05,9.6585e-07,9.6518,7.4165e-07,5.5724,1.5433e-12,-1.3217e-06,-7.4165e-07,-5.5725,0.37233
13449,8.45,5,0,0.00038047,3802.1,0.00012718,0.006958,0.00012281,-32.796,-0.00038102,-3818.3,0.37375
13450,8.3582,5.0909,0,0.00038337,3831,0.00012807,0.007947,0.00012388,-31.444,-0.00038389,-3846.6,0.36571
13451,8.45,5.0909,0.05,9.6746e-07,9.668,7.4289e-07,5.5817,5.1498e-12,-1.8173e-06,-7.429e-07,-5.5819,0.37328
13452,8.45,4.8182,0,0.00037989,3796.3,0.00012729,0.0057863,0.00012209,-39.077,-0.00038054,-3815.7,0.37458
13453,8.3582,4.9091,0,0.00038274,3824.8,0.00012819,0.0066199,0.0001231,-38.244,-0.00038338,-3843.8,0.36658
13454,8.45,4.9091,0.05,9.6871e-07,9.6805,7.4385e-07,5.589,1.5038e-12,-2.4328e-06,-7.4385e-07,-5.5891,0.37415
13455,8.45,4.6364,0,0.00037935,3790.9,0.00012741,0.0047409,0.00012143,-44.922,-0.0003801,-3813.2,0.37533
13456,8.3582,4.7273,0,0.00038216,3818.9,0.00012832,0.0053408,0.00012238,-44.611,-0.0003829,-3841.1,0.36738
13457,8.45,4.7273,0.05,9.6977e-07,9.691,7.4466e-07,5.5951,2.4343e-12,-1.849e-06,-7.4467e-07,-5.5951,0.37494
13458,8.45,4.4545,0,0.00037886,3786,0.00012751,0.0038716,0.00012081,-50.285,-0.00037969,-3810.9,0.376
13459,8.3582,4.5455,0,0.00038162,3813.6,0.00012843,0.0043264,0.00012171,-50.497,-0.00038245,-3838.6,0.36809
13460,8.45,4.5455,0.05,9.7066e-07,9.6999,7.4535e-07,5.6002,6.4032e-13,-1.3159e-06,-7.4535e-07,-5.6003,0.37565
13461,8.45,4.2727,0,0.00037842,3781.5,0.0001276,0.0031195,0.00012026,-55.125,-0.00037932,-3808.8,0.37659
13462,8.3582,4.3636,0,0.00038113,3808.7,0.00012853,0.0034455,0.0001211,-55.856,-0.00038205,-3836.3,0.36872
13463,8.45,4.3636,0.05,9.714e-07,9.7073,7.4592e-07,5.6044,6.8542e-13,-2.9961e-06,-7.4591e-07,-5.6045,0.37628
13464,8.45,4.0909,0,0.00037802,3777.6,0.00012768,0.002478,0.00011977,-59.402,-0.000379,-3807,0.37711
13465,8.3582,4.1818,0,0.00038069,3804.3,0.00012862,0.002696,0.00012055,-60.644,-0.00038169,-3834.2,0.36928
13466,8.45,4.1818,0.05,9.72e-07,9.7133,7.4637e-07,5.6079,2.5179e-12,-2.2032e-06,-7.4637e-07,-5.608,0.37683
13467,8.45,3.9091,0,0.00037768,3774.2,0.00012775,0.0019371,0.00011935,-63.083,-0.00037872,-3805.4,0.37754
13468,8.3582,4,0,0.00038031,3800.5,0.0001287,0.0020599,0.00012007,-64.824,-0.00038137,-3832.5,0.36975
13469,8.45,4,0.05,9.7248e-07,9.7181,7.4674e-07,5.6107,1.6095e-12,-1.4854e-06,-7.4674e-07,-5.6107,0.37731
13470,8.45,3.7273,0,0.00037741,3771.4,0.00012781,0.0014941,0.000119,-66.136,-0.00037849,-3804.1,0.37789
13471,8.3582,3.8182,0,0.00037999,3797.2,0.00012877,0.0015307,0.00011967,-68.361,-0.0003811,-3831,0.37014
13472,8.45,3.8182,0.05,9.7285e-07,9.7218,7.4703e-07,5.6129,7.4024e-13,-1.2629e-06,-7.4703e-07,-5.6129,0.3777
13473,8.45,3.5455,0,0.00037718,3769.2,0.00012785,0.0011497,0.00011873,-68.538,-0.0003783,-3803,0.37816
13474,8.3582,3.6364,0,0.00037973,3794.6,0.00012882,0.0011081,0.00011934,-71.226,-0.00038089,-3829.7,0.37046
13475,8.45,3.6364,0.05,9.7314e-07,9.7247,7.4724e-07,5.6145,7.6888e-13,-1.0003e-06,-7.4725e-07,-5.6145,0.37801
13476,8.45,3.3636,0,0.00037703,3767.7,0.00012788,0.00090309,0.00011853,-70.268,-0.00037817,-3802.3,0.37836
13477,8.3582,3.4545,0,0.00037953,3792.7,0.00012886,0.00079188,0.00011909,-73.396,-0.00038072,-3828.8,0.37069
13478,8.45,3.4545,0.05,9.7334e-07,9.7267,7.474e-07,5.6157,-9.6547e-14,-7.4333e-07,-7.474e-07,-5.6157,0.37825
13479,8.45,3.1818,0,0.00037693,3766.7,0.0001279,0.00075424,0.00011841,-71.312,-0.00037809,-3801.9,0.37848
13480,8.3582,3.2727,0,0.00037939,3791.3,0.00012889,0.00057969,0.00011893,-74.853,-0.00038061,-3828.2,0.37085
13481,8.45,3.2727,0.05,9.7347e-07,9.728,7.475e-07,5.6164,-9.692e-13,-4.4877e-07,-7.475e-07,-5.6164,0.3784
13482,8.45,3,0,0.0003769,3766.4,0.00012791,0.00070462,0.00011837,-71.661,-0.00037807,-3801.7,0.37852
13483,8.3582,3.0909,0,0.00037933,3790.7,0.0001289,0.00047331,0.00011884,-75.585,-0.00038056,-3827.9,0.37093
13484,8.45,3.0909,0.05,9.7353e-07,9.7286,7.4755e-07,5.6168,-2.0144e-14,-1.5229e-07,-7.4755e-07,-5.6168,0.37848
13485,8.45,2.8182,0,0.00037693,3766.7,0.0001279,0.00075448,0.00011841,-71.312,-0.00037809,-3801.9,0.37848
13486,8.3582,2.9091,0,0.00037933,3790.7,0.0001289,0.0004734,0.00011884,-75.585,-0.00038056,-3827.9,0.37093
13487,8.45,2.9091,0.05,9.7353e-07,9.7286,7.4755e-07,5.6168,2.0237e-14,1.5229e-07,-7.4755e-07,-5.6168,0.37848
13488,8.45,2.6364,0,0.00037703,3767.7,0.00012788,0.00090327,0.00011853,-70.268,-0.00037817,-3802.3,0.37836
13489,8.3582,2.7273,0,0.00037939,3791.3,0.00012889,0.00058008,0.00011893,-74.853,-0.00038061,-3828.2,0.37085
13490,8.45,2.7273,0.05,9.7347e-07,9.728,7.475e-07,5.6165,-1.7587e-12,4.5814e-07,-7.475e-07,-5.6164,0.3784
13491,8.45,2.4545,0,0.00037718,3769.2,0.00012785,0.0011499,0.00011873,-68.538,-0.0003783,-3803,0.37816
13492,8.3582,2.5455,0,0.00037953,3792.7,0.00012886,0.000792,0.00011909,-73.396,-0.00038072,-3828.8,0.37069
13493,8.45,2.5455,0.05,9.7334e-07,9.7267,7.4741e-07,5.6157,-8.0587e-13,7.9292e-07,-7.474e-07,-5.6156,0.37825
13494,8.45,2.2727,0,0.00037741,3771.4,0.00012781,0.0014945,0.000119,-66.136,-0.00037849,-3804.1,0.37789
13495,8.3582,2.3636,0,0.00037973,3794.6,0.00012882,0.0011085,0.00011934,-71.226,-0.00038089,-3829.7,0.37046
13496,8.45,2.3636,0.05,9.7314e-07,9.7247,7.4725e-07,5.6145,-2.5823e-12,1.0321e-06,-7.4725e-07,-5.6145,0.37801
13497,8.45,2.0909,0,0.00037768,3774.2,0.00012775,0.0019375,0.00011935,-63.083,-0.00037872,-3805.4,0.37754
13498,8.3582,2.1818,0,0.00037999,3797.2,0.00012877,0.0015313,0.00011967,-68.361,-0.0003811,-3831,0.37014
13499,8.45,2.1818,0.05,9.7285e-07,9.7218,7.4703e-07,5.6129,-2.5501e-12,2.3054e-06,-7.4703e-07,-5.6129,0.3777
13500,8.45,1.9091,0,0.00037802,3777.6,0.00012768,0.0024786,0.00011977,-59.402,-0.000379,-3807,0.37711
13501,8.3582,2,0,0.00038031,3800.5,0.0001287,0.0020604,0.00012007,-64.824,-0.00038137,-3832.5,0.36975
13502,8.45,2,0.05,9.7248e-07,9.7181,7.4675e-07,5.6108,-2.5102e-12,1.7086e-06,-7.4674e-07,-5.6107,0.37731
13503,8.45,1.7273,0,0.00037842,3781.5,0.0001276,0.0031201,0.00012026,-55.125,-0.00037932,-3808.8,0.37659
13504,8.3582,1.8182,0,0.00038069,3804.3,0.00012862,0.0026965,0.00012055,-60.644,-0.00038169,-3834.2,0.36928
13505,8.45,1.8182,0.05,9.72e-07,9.7133,7.4638e-07,5.608,-3.394e-12,3.7293e-06,-7.4637e-07,-5.6079,0.37683
13506,8.45,1.5455,0,0.00037886,3786,0.00012751,0.0038723,0.00012081,-50.285,-0.00037969,-3810.9,0.376
13507,8.3582,1.6364,0,0.00038113,3808.7,0.00012853,0.0034461,0.0001211,-55.856,-0.00038205,-3836.3,0.36872
13508,8.45,1.6364,0.05,9.714e-07,9.7073,7.4591e-07,5.6046,-3.372e-12,4.1352e-06,-7.4591e-07,-5.6044,0.37628
13509,8.45,1.3636,0,0.00037935,3790.9,0.00012741,0.0047417,0.00012143,-44.922,-0.0003801,-3813.2,0.37533
13510,8.3582,1.4545,0,0.00038162,3813.6,0.00012843,0.0043272,0.00012171,-50.497,-0.00038245,-3838.6,0.36809
13511,8.45,1.4545,0.05,9.7066e-07,9.6999,7.4535e-07,5.6003,-3.3176e-12,3.9346e-06,-7.4534e-07,-5.6002,0.37565
13512,8.45,1.1818,0,0.00037989,3796.3,0.00012729,0.005787,0.00012209,-39.077,-0.00038054,-3815.7,0.37458
13513,8.3582,1.2727,0,0.00038216,3818.9,0.00012832,0.0053412,0.00012238,-44.611,-0.0003829,-3841.1,0.36738
13514,8.45,1.2727,0.05,9.6977e-07,9.691,7.4467e-07,5.5952,-3.3162e-12,3.9362e-06,-7.4466e-07,-5.595,0.37494
13515,8.45,1,0,0.00038047,3802.1,0.00012718,0.0069592,0.00012281,-32.796,-0.00038102,-3818.3,0.37375
13516,8.3582,1.0909,0,0.00038274,3824.8,0.00012819,0.0066206,0.0001231,-38.244,-0.00038338,-3843.8,0.36658
13517,8.45,1.0909,0.05,9.6871e-07,9.6805,7.4386e-07,5.5891,-1.4786e-12,4.4853e-06,-7.4385e-07,-5.589,0.37415
13518,8.45,0.81818,0,0.00038108,3808.2,0.00012705,0.0088873,0.00012357,-26.127,-0.00038152,-3821.2,0.37284
13519,8.3582,0.90909,0,0.00038337,3831,0.00012807,0.0079484,0.00012388,-31.444,-0.00038389,-3846.6,0.36571
13520,8.45,0.90909,0.05,9.6746e-07,9.668,7.429e-07,5.5819,-5.0815e-12,3.5719e-06,-7.4288e-07,-5.5817,0.37328
13521,8.45,0.63636,0,0.00038173,3814.7,0.00012692,0.0099801,0.00012437,-19.119,-0.00038205,-3824.2,0.37185
13522,8.3582,0.72727,0,0.00038402,3837.6,0.00012793,0.010923,0.0001247,-24.264,-0.00038443,-3849.7,0.36475
13523,8.45,0.72727,0.05,9.6585e-07,9.6518,7.4165e-07,5.5725,-6.9228e-12,3.7092e-06,-7.4165e-07,-5.5724,0.37233
13524,8.45,0.45455,0,0.00038241,3821.5,0.00012678,0.022435,0.00012521,-11.797,-0.00038261,-3827.3,0.37077
13525,8.3582,0.54545,0,0.00038472,3844.5,0.00012779,0.010774,0.00012555,-16.756,-0.000385,-3852.8,0.36371
13526,8.45,0.54545,0.05,9.6136e-07,9.6069,7.3821e-07,5.5467,-6.8679e-12,4.8408e-06,-7.382e-07,-5.5465,0.37129
13527,8.45,0.27273,0,0.00038317,3829,0.00012664,0.049914,0.00012612,-3.8824,-0.00038323,-3830.9,0.36962
13528,8.3582,0.36364,0,0.00038544,3851.7,0.00012764,0.039517,0.00012645,-8.9222,-0.00038559,-3856.2,0.36259
13529,8.45,0.36364,0.05,9.1587e-07,9.1524,7.0328e-07,5.2843,-5.114e-12,3.8276e-06,-7.0327e-07,-5.2841,0.37018
13530,8.3582,0.18182,0,0.00038629,3860.3,0.00012755,0.48742,0.0001274,-0.60595,-0.00038629,-3860.3,0.36138
13531,8.45,0.18182,0.05,2.5542e-07,2.5525,1.9613e-07,1.4737,-2.4726e-12,2.5056e-05,-1.9613e-07,-1.4736,0.36898
13532,8.45,0.090909,0,0.00038352,3832.5,0.00012667,1.2939,0.00012649,-0.090411,-0.0003835,-3831.9,0.36838
13533,8.2663,5.7273,0,0.00038856,3882.9,0.00012849,0.048922,0.00012778,-5.277,-0.00038864,-3885.5,0.35444
13534,8.1745,5.8182,0,0.00039172,3914.5,0.00012936,0.24229,0.00012913,-1.4462,-0.00039174,-3915.1,0.34634
13535,8.2663,5.8182,0.05,2.8029e-07,2.801,2.1523e-07,1.6171,3.5002e-13,-2.0456e-05,-2.1524e-07,-1.6172,0.3538
13536,8.2663,5.9091,0,0.00038898,3887.1,0.00012844,0.78064,0.00012831,-0.18873,-0.00038897,-3886.8,0.35319
13537,8.2663,5.5455,0,0.00038774,3874.7,0.00012864,0.025284,0.00012679,-13.895,-0.00038798,-3881.7,0.35561
13538,8.1745,5.6364,0,0.00039081,3905.4,0.0001295,0.044141,0.00012807,-10.724,-0.00039099,-3910.8,0.34755
13539,8.2663,5.6364,0.05,9.2398e-07,9.2334,7.095e-07,5.3309,-2.8966e-13,-1.881e-06,-7.0951e-07,-5.331,0.35501
13540,8.2663,5.3636,0,0.00038701,3867.4,0.0001288,0.011171,0.00012588,-21.913,-0.00038738,-3878.3,0.3567
13541,8.1745,5.4545,0,0.00039003,3897.6,0.00012967,0.012153,0.0001271,-19.293,-0.00039035,-3907.2,0.34869
13542,8.2663,5.4545,0.05,9.6852e-07,9.6785,7.437e-07,5.5878,1.5326e-12,-9.584e-07,-7.437e-07,-5.5879,0.35614
13543,8.2663,5.1818,0,0.0003863,3860.4,0.00012894,0.0097726,0.000125,-29.592,-0.0003868,-3875.1,0.3577
13544,8.1745,5.2727,0,0.00038928,3890.1,0.00012982,0.012113,0.00012616,-27.512,-0.00038974,-3903.8,0.34973
13545,8.2663,5.2727,0.05,9.7302e-07,9.7235,7.4715e-07,5.6138,-3.12e-13,-2.3813e-06,-7.4716e-07,-5.6139,0.35718
13546,8.2663,5,0,0.00038564,3853.7,0.00012908,0.0075013,0.00012417,-36.902,-0.00038625,-3872,0.35862
13547,8.1745,5.0909,0,0.00038856,3883,0.00012998,0.0086572,0.00012527,-35.375,-0.00038915,-3900.5,0.3507
13548,8.2663,5.0909,0.05,9.7469e-07,9.7401,7.4843e-07,5.6234,-3.0111e-13,-2.5264e-06,-7.4844e-07,-5.6235,0.35814
13549,8.2663,4.8182,0,0.00038501,3847.4,0.00012922,0.0061097,0.00012339,-43.788,-0.00038573,-3869.1,0.35946
13550,8.1745,4.9091,0,0.00038789,3876.2,0.00013012,0.0070799,0.00012442,-42.822,-0.0003886,-3897.4,0.35158
13551,8.2663,4.9091,0.05,9.7598e-07,9.7531,7.4943e-07,5.6309,1.5236e-12,-2.947e-06,-7.4943e-07,-5.631,0.35902
13552,8.2663,4.6364,0,0.00038442,3841.6,0.00012934,0.0048826,0.00012266,-50.196,-0.00038525,-3866.4,0.36022
13553,8.1745,4.7273,0,0.00038725,3869.9,0.00013025,0.0055845,0.00012362,-49.797,-0.00038808,-3894.5,0.35238
13554,8.2663,4.7273,0.05,9.7706e-07,9.7639,7.5026e-07,5.6372,5.1308e-12,-2.711e-06,-7.5026e-07,-5.6372,0.35982
13555,8.2663,4.4545,0,0.00038389,3836.2,0.00012945,0.0038683,0.00012199,-56.076,-0.00038481,-3864,0.36089
13556,8.1745,4.5455,0,0.00038667,3864,0.00013038,0.0044034,0.00012289,-56.246,-0.00038759,-3891.8,0.3531
13557,8.2663,4.5455,0.05,9.7797e-07,9.7729,7.5095e-07,5.6424,1.508e-12,-2.3641e-06,-7.5096e-07,-5.6424,0.36054
13558,8.2663,4.2727,0,0.0003834,3831.4,0.00012955,0.0029969,0.00012138,-61.382,-0.00038441,-3861.7,0.36149
13559,8.1745,4.3636,0,0.00038614,3858.7,0.00013049,0.0033842,0.00012222,-62.117,-0.00038715,-3889.4,0.35374
13560,8.2663,4.3636,0.05,9.7871e-07,9.7803,7.5152e-07,5.6466,6.1786e-13,-3.3949e-06,-7.5153e-07,-5.6467,0.36117
13561,8.2663,4.0909,0,0.00038298,3827.1,0.00012964,0.0022572,0.00012085,-66.073,-0.00038406,-3859.7,0.362
13562,8.1745,4.1818,0,0.00038566,3853.9,0.00013059,0.0025213,0.00012162,-67.364,-0.00038676,-3887.2,0.3543
13563,8.2663,4.1818,0.05,9.7931e-07,9.7863,7.5198e-07,5.6501,1.5469e-12,-1.6785e-06,-7.5199e-07,-5.6501,0.36173
13564,8.2663,3.9091,0,0.00038261,3823.5,0.00012972,0.0016356,0.00012039,-70.108,-0.00038375,-3858,0.36244
13565,8.1745,4,0,0.00038524,3849.8,0.00013068,0.0017919,0.0001211,-71.944,-0.00038642,-3885.2,0.35478
13566,8.2663,4,0.05,9.7978e-07,9.7911,7.5235e-07,5.6529,6.8669e-13,-1.6399e-06,-7.5235e-07,-5.6529,0.3622
13567,8.2663,3.7273,0,0.00038231,3820.4,0.00012978,0.0011287,0.00012001,-73.457,-0.0003835,-3856.6,0.36279
13568,8.1745,3.8182,0,0.00038489,3846.3,0.00013075,0.0011871,0.00012066,-75.82,-0.00038613,-3883.6,0.35517
13569,8.2663,3.8182,0.05,9.8015e-07,9.7947,7.5263e-07,5.655,2.549e-12,-1.3093e-06,-7.5263e-07,-5.655,0.3626
13570,8.2663,3.5455,0,0.00038207,3818,0.00012983,0.00073553,0.00011971,-76.091,-0.0003833,-3855.5,0.36307
13571,8.1745,3.6364,0,0.00038461,3843.4,0.00013081,0.00070555,0.0001203,-78.96,-0.00038589,-3882.3,0.35549
13572,8.2663,3.6364,0.05,9.8042e-07,9.7974,7.5283e-07,5.6565,-1.5878e-13,-1.0816e-06,-7.5285e-07,-5.6565,0.36292
13573,8.2663,3.3636,0,0.00038189,3816.3,0.00012987,0.00045451,0.00011949,-77.988,-0.00038316,-3854.7,0.36327
13574,8.1745,3.4545,0,0.00038439,3841.3,0.00013086,0.0003457,0.00012003,-81.339,-0.00038571,-3881.3,0.35573
13575,8.2663,3.4545,0.05,9.8061e-07,9.7993,7.5299e-07,5.6576,-1.0457e-13,1.4124e-07,-7.5299e-07,-5.6577,0.36315
13576,8.2663,3.1818,0,0.00038179,3815.3,0.00012989,0.00028523,0.00011936,-79.133,-0.00038307,-3854.2,0.36339
13577,8.1745,3.2727,0,0.00038425,3839.8,0.00013089,0.00010473,0.00011985,-82.936,-0.00038559,-3880.6,0.35589
13578,8.2663,3.2727,0.05,9.8073e-07,9.8006,7.5309e-07,5.6584,-6.3147e-14,-4.8908e-07,-7.5308e-07,-5.6584,0.36331
13579,8.2663,3,0,0.00038175,3814.9,0.0001299,0.0002287,0.00011931,-79.515,-0.00038305,-3854.1,0.36343
13580,8.1745,3.0909,0,0.00038418,3839.1,0.0001309,-1.5942e-05,0.00011976,-83.737,-0.00038553,-3880.3,0.35597
13581,8.2663,3.0909,0.05,9.8079e-07,9.8012,7.5313e-07,5.6587,-9.3132e-13,7.8889e-07,-7.5313e-07,-5.6587,0.36339
13582,8.2663,2.8182,0,0.00038179,3815.3,0.00012989,0.00028547,0.00011936,-79.133,-0.00038307,-3854.2,0.36339
13583,8.1745,2.9091,0,0.00038418,3839.1,0.0001309,-1.6032e-05,0.00011976,-83.737,-0.00038553,-3880.3,0.35597
13584,8.2663,2.9091,0.05,9.8079e-07,9.8012,7.5313e-07,5.6587,-1.7969e-12,1.119e-06,-7.5313e-07,-5.6587,0.36339
13585,8.2663,2.6364,0,0.00038189,3816.3,0.00012987,0.00045484,0.00011949,-77.988,-0.00038316,-3854.7,0.36327
13586,8.1745,2.7273,0,0.00038425,3839.8,0.00013089,0.00010521,0.00011985,-82.936,-0.00038559,-3880.6,0.35589
13587,8.2663,2.7273,0.05,9.8073e-07,9.8006,7.5309e-07,5.6584,-2.6612e-12,1.4498e-06,-7.5308e-07,-5.6583,0.36331
13588,8.2663,2.4545,0,0.00038207,3818,0.00012983,0.00073577,0.00011971,-76.091,-0.0003833,-3855.5,0.36307
13589,8.1745,2.5455,0,0.00038439,3841.3,0.00013086,0.00034576,0.00012003,-81.339,-0.00038571,-3881.3,0.35573
13590,8.2663,2.5455,0.05,9.8061e-07,9.7993,7.5298e-07,5.6577,1.0747e-13,1.8047e-06,-7.5299e-07,-5.6576,0.36315
13591,8.2663,2.2727,0,0.00038231,3820.4,0.00012978,0.0011292,0.00012001,-73.457,-0.0003835,-3856.6,0.36279
13592,8.1745,2.3636,0,0.00038461,3843.4,0.00013081,0.00070593,0.0001203,-78.96,-0.00038589,-3882.3,0.35549
13593,8.2663,2.3636,0.05,9.8042e-07,9.7974,7.5285e-07,5.6566,-1.6579e-12,2.1492e-06,-7.5283e-07,-5.6565,0.36292
13594,8.2663,2.0909,0,0.00038261,3823.5,0.00012972,0.0016362,0.00012039,-70.108,-0.00038375,-3858,0.36244
13595,8.1745,2.1818,0,0.00038489,3846.3,0.00013075,0.0011877,0.00012066,-75.82,-0.00038613,-3883.6,0.35517
13596,8.2663,2.1818,0.05,9.8015e-07,9.7947,7.5263e-07,5.655,-3.4418e-12,2.3849e-06,-7.5263e-07,-5.6549,0.3626
13597,8.2663,1.9091,0,0.00038298,3827.1,0.00012964,0.0022575,0.00012085,-66.073,-0.00038406,-3859.7,0.362
13598,8.1745,2,0,0.00038524,3849.8,0.00013068,0.0017922,0.0001211,-71.944,-0.00038642,-3885.2,0.35478
13599,8.2663,2,0.05,9.7978e-07,9.7911,7.5235e-07,5.6529,-1.5828e-12,2.8086e-06,-7.5235e-07,-5.6528,0.3622
13600,8.2663,1.7273,0,0.0003834,3831.4,0.00012955,0.0029974,0.00012138,-61.382,-0.00038441,-3861.7,0.36149
13601,8.1745,1.8182,0,0.00038566,3853.9,0.00013059,0.002522,0.00012162,-67.364,-0.00038676,-3887.2,0.3543
13602,8.2663,1.8182,0.05,9.7931e-07,9.7863,7.5199e-07,5.6501,-2.4457e-12,2.2745e-06,-7.5198e-07,-5.6501,0.36173
13603,8.2663,1.5455,0,0.00038389,3836.2,0.00012945,0.0038689,0.00012199,-56.076,-0.00038481,-3864,0.36089
13604,8.1745,1.6364,0,0.00038614,3858.7,0.00013049,0.003385,0.00012222,-62.117,-0.00038715,-3889.4,0.35374
13605,8.2663,1.6364,0.05,9.7871e-07,9.7803,7.5153e-07,5.6467,-3.3038e-12,2.8528e-06,-7.5152e-07,-5.6466,0.36117
13606,8.2663,1.3636,0,0.00038442,3841.6,0.00012934,0.0048831,0.00012266,-50.196,-0.00038525,-3866.4,0.36022
13607,8.1745,1.4545,0,0.00038667,3864,0.00013038,0.0044038,0.00012289,-56.246,-0.00038759,-3891.8,0.3531
13608,8.2663,1.4545,0.05,9.7797e-07,9.7729,7.5096e-07,5.6425,-1.4855e-12,3.1021e-06,-7.5095e-07,-5.6423,0.36054
13609,8.2663,1.1818,0,0.00038501,3847.4,0.00012922,0.0061102,0.00012339,-43.788,-0.00038573,-3869.1,0.35946
13610,8.1745,1.2727,0,0.00038725,3869.9,0.00013025,0.0055851,0.00012362,-49.797,-0.00038808,-3894.5,0.35238
13611,8.2663,1.2727,0.05,9.7706e-07,9.7639,7.5027e-07,5.6372,-5.0653e-12,4.2681e-06,-7.5026e-07,-5.6371,0.35982
13612,8.2663,1,0,0.00038564,3853.7,0.00012908,0.0075022,0.00012417,-36.902,-0.00038625,-3872,0.35862
13613,8.1745,1.0909,0,0.00038789,3876.2,0.00013012,0.0070806,0.00012442,-42.822,-0.0003886,-3897.4,0.35158
13614,8.2663,1.0909,0.05,9.7598e-07,9.7531,7.4943e-07,5.631,-3.256e-12,3.7182e-06,-7.4943e-07,-5.6309,0.35902
13615,8.2663,0.81818,0,0.0003863,3860.4,0.00012894,0.0097737,0.000125,-29.592,-0.0003868,-3875.1,0.3577
13616,8.1745,0.90909,0,0.00038856,3883,0.00012998,0.0086585,0.00012527,-35.375,-0.00038915,-3900.5,0.3507
13617,8.2663,0.90909,0.05,9.7469e-07,9.7401,7.4844e-07,5.6235,-3.2461e-12,3.3382e-06,-7.4844e-07,-5.6234,0.35814
13618,8.2663,0.63636,0,0.00038701,3867.4,0.0001288,0.011171,0.00012588,-21.913,-0.00038738,-3878.3,0.3567
13619,8.1745,0.72727,0,0.00038928,3890.1,0.00012982,0.012114,0.00012616,-27.512,-0.00038974,-3903.8,0.34973
13620,8.2663,0.72727,0.05,9.7302e-07,9.7235,7.4716e-07,5.6139,-3.2653e-12,3.9201e-06,-7.4715e-07,-5.6138,0.35718
13621,8.2663,0.45455,0,0.00038774,3874.7,0.00012864,0.025284,0.00012679,-13.895,-0.00038798,-3881.7,0.35561
13622,8.1745,0.54545,0,0.00039003,3897.6,0.00012967,0.012153,0.0001271,-19.293,-0.00039035,-3907.2,0.34869
13623,8.2663,0.54545,0.05,9.6852e-07,9.6785,7.4371e-07,5.588,-5.0482e-12,3.8589e-06,-7.437e-07,-5.5878,0.35614
13624,8.2663,0.27273,0,0.00038856,3882.9,0.00012849,0.048924,0.00012778,-5.277,-0.00038864,-3885.5,0.35444
13625,8.1745,0.36364,0,0.00039081,3905.4,0.0001295,0.044142,0.00012807,-10.724,-0.00039099,-3910.8,0.34755
13626,8.2663,0.36364,0.05,9.2398e-07,9.2334,7.0951e-07,5.331,-3.199e-12,3.6666e-06,-7.095e-07,-5.3309,0.35501
13627,8.1745,0.18182,0,0.00039172,3914.5,0.00012936,0.2423,0.00012913,-1.4461,-0.00039174,-3915.1,0.34634
13628,8.2663,0.18182,0.05,2.8029e-07,2.801,2.1523e-07,1.6172,-3.1976e-12,3.5145e-05,-2.1523e-07,-1.6171,0.3538
13629,8.2663,0.090909,0,0.00038898,3887.1,0.00012844,0.78066,0.00012831,-0.18872,-0.00038897,-3886.8,0.35319
13630,8.0826,5.7273,0,0.00039397,3937,0.00013035,0.049936,0.00012944,-6.7626,-0.00039408,-3940.3,0.33953
13631,7.9908,5.8182,0,0.00039718,3969,0.00013121,0.16514,0.00013085,-2.5186,-0.00039722,-3970.2,0.33155
13632,8.0826,5.8182,0.05,3.0741e-07,3.072,2.3605e-07,1.7736,1.5691e-12,-2.9283e-05,-2.3606e-07,-1.7737,0.33888
13633,8.0826,5.9091,0,0.00039447,3942,0.00013023,0.40222,0.00013012,-0.45713,-0.00039447,-3942,0.33827
13634,8.0826,5.5455,0,0.0003931,3928.3,0.00013052,0.028361,0.00012837,-16.135,-0.00039337,-3936.3,0.34071
13635,7.9908,5.6364,0,0.00039621,3959.4,0.00013138,0.049154,0.00012969,-12.647,-0.00039642,-3965.6,0.33278
13636,8.0826,5.6364,0.05,9.3264e-07,9.32,7.1614e-07,5.3808,4.9776e-12,-1.5476e-06,-7.1616e-07,-5.3809,0.34011
13637,8.0826,5.3636,0,0.0003923,3920.3,0.00013069,0.012474,0.00012738,-24.903,-0.00039272,-3932.7,0.34181
13638,7.9908,5.4545,0,0.00039536,3950.9,0.00013156,0.013657,0.00012863,-22.005,-0.00039573,-3961.8,0.33392
13639,8.0826,5.4545,0.05,9.7612e-07,9.7544,7.4953e-07,5.6317,1.413e-12,-1.5817e-06,-7.4954e-07,-5.6318,0.34124
13640,8.0826,5.1818,0,0.00039154,3912.7,0.00013085,0.010749,0.00012642,-33.305,-0.00039209,-3929.2,0.34282
13641,7.9908,5.2727,0,0.00039455,3942.8,0.00013173,0.013417,0.00012761,-30.99,-0.00039507,-3958.2,0.33498
13642,8.0826,5.2727,0.05,9.8062e-07,9.7994,7.5299e-07,5.6576,3.2081e-12,-2.7531e-06,-7.53e-07,-5.6578,0.3423
13643,8.0826,5,0,0.00039081,3905.4,0.00013101,0.0081071,0.00012551,-41.304,-0.0003915,-3925.9,0.34375
13644,7.9908,5.0909,0,0.00039377,3935,0.0001319,0.0094446,0.00012663,-39.589,-0.00039443,-3954.7,0.33596
13645,8.0826,5.0909,0.05,9.8234e-07,9.8166,7.5431e-07,5.6676,1.4325e-12,-2.8656e-06,-7.5432e-07,-5.6677,0.34327
13646,8.0826,4.8182,0,0.00039013,3898.6,0.00013116,0.0064767,0.00012465,-48.841,-0.00039094,-3922.8,0.34459
13647,7.9908,4.9091,0,0.00039304,3927.7,0.00013206,0.007596,0.00012571,-47.734,-0.00039383,-3951.3,0.33685
13648,8.0826,4.9091,0.05,9.8367e-07,9.8299,7.5533e-07,5.6752,1.3792e-12,-3.152e-06,-7.5534e-07,-5.6754,0.34416
13649,8.0826,4.6364,0,0.0003895,3892.3,0.00013129,0.0050525,0.00012386,-55.856,-0.00039042,-3919.9,0.34536
13650,7.9908,4.7273,0,0.00039235,3920.8,0.00013221,0.0058658,0.00012484,-55.365,-0.00039326,-3948.2,0.33765
13651,8.0826,4.7273,0.05,9.8477e-07,9.8409,7.5618e-07,5.6816,1.4514e-12,-3.6251e-06,-7.5619e-07,-5.6817,0.34496
13652,8.0826,4.4545,0,0.00038891,3886.5,0.00013142,0.0038806,0.00012312,-62.294,-0.00038994,-3917.2,0.34604
13653,7.9908,4.5455,0,0.00039171,3914.4,0.00013235,0.0045032,0.00012404,-62.421,-0.00039274,-3945.3,0.33838
13654,8.0826,4.5455,0.05,9.8568e-07,9.85,7.5688e-07,5.6869,5.1077e-12,-2.6519e-06,-7.5689e-07,-5.687,0.34568
13655,8.0826,4.2727,0,0.00038839,3881.2,0.00013153,0.0028783,0.00012246,-68.105,-0.0003895,-3914.8,0.34664
13656,7.9908,4.3636,0,0.00039114,3908.7,0.00013247,0.0033335,0.00012331,-68.845,-0.00039226,-3942.6,0.33902
13657,8.0826,4.3636,0.05,9.8642e-07,9.8574,7.5745e-07,5.6911,1.485e-12,-2.2262e-06,-7.5745e-07,-5.6912,0.34632
13658,8.0826,4.0909,0,0.00038792,3876.6,0.00013163,0.002031,0.00012188,-73.241,-0.00038912,-3912.7,0.34716
13659,7.9908,4.1818,0,0.00039062,3903.5,0.00013258,0.0023468,0.00012265,-74.588,-0.00039183,-3940.2,0.33958
13660,8.0826,4.1818,0.05,9.8701e-07,9.8633,7.579e-07,5.6946,1.5424e-12,-2.9337e-06,-7.579e-07,-5.6946,0.34688
13661,8.0826,3.9091,0,0.00038753,3872.6,0.00013171,0.0013219,0.00012137,-77.661,-0.00038879,-3910.8,0.3476
13662,7.9908,4,0,0.00039017,3899,0.00013268,0.0015154,0.00012208,-79.601,-0.00039146,-3938.2,0.34007
13663,8.0826,4,0.05,9.8747e-07,9.8679,7.5825e-07,5.6972,6.7075e-13,-1.6928e-06,-7.5825e-07,-5.6972,0.34736
13664,8.0826,3.7273,0,0.00038719,3869.3,0.00013178,0.00074486,0.00012096,-81.329,-0.00038851,-3909.3,0.34796
13665,7.9908,3.8182,0,0.00038979,3895.2,0.00013276,0.00082841,0.0001216,-83.844,-0.00039114,-3936.4,0.34047
13666,8.0826,3.8182,0.05,9.8781e-07,9.8713,7.5852e-07,5.6992,7.1343e-13,-3.3369e-06,-7.5852e-07,-5.6992,0.34776
13667,8.0826,3.5455,0,0.00038693,3866.7,0.00013184,0.00029813,0.00012063,-84.214,-0.0003883,-3908.1,0.34823
13668,7.9908,3.6364,0,0.00038948,3892.1,0.00013283,0.00028224,0.00012121,-87.282,-0.00039089,-3935,0.34078
13669,8.0826,3.6364,0.05,9.8807e-07,9.8739,7.5871e-07,5.7007,-1.5668e-13,-1.1477e-06,-7.5871e-07,-5.7007,0.34808
13670,8.0826,3.3636,0,0.00038675,3864.8,0.00013188,-2.0675e-05,0.00012039,-86.292,-0.00038814,-3907.2,0.34843
13671,7.9908,3.4545,0,0.00038924,3889.7,0.00013288,-0.00012532,0.00012091,-89.886,-0.00039069,-3933.9,0.34102
13672,8.0826,3.4545,0.05,9.8825e-07,9.8756,7.5885e-07,5.7017,7.9584e-13,-8.6736e-07,-7.5885e-07,-5.7017,0.34832
13673,8.0826,3.1818,0,0.00038663,3863.7,0.0001319,-0.00021248,0.00012025,-87.546,-0.00038805,-3906.7,0.34855
13674,7.9908,3.2727,0,0.00038908,3888.2,0.00013291,-0.00039791,0.00012071,-91.635,-0.00039056,-3933.2,0.34118
13675,8.0826,3.2727,0.05,9.8836e-07,9.8768,7.5894e-07,5.7023,-7.1061e-14,-5.3166e-07,-7.5894e-07,-5.7023,0.34848
13676,8.0826,3,0,0.00038659,3863.3,0.00013191,-0.00027653,0.0001202,-87.965,-0.00038802,-3906.5,0.34859
13677,7.9908,3.0909,0,0.00038901,3887.4,0.00013293,-0.00053434,0.00012061,-92.512,-0.0003905,-3932.8,0.34126
13678,8.0826,3.0909,0.05,9.8841e-07,9.8773,7.5898e-07,5.7027,-1.8428e-12,-1.7877e-07,-7.5898e-07,-5.7027,0.34856
13679,8.0826,2.8182,0,0.00038663,3863.7,0.0001319,-0.00021233,0.00012025,-87.546,-0.00038805,-3906.7,0.34855
13680,7.9908,2.9091,0,0.00038901,3887.4,0.00013293,-0.00053437,0.00012061,-92.512,-0.0003905,-3932.8,0.34126
13681,8.0826,2.9091,0.05,9.8841e-07,9.8773,7.5898e-07,5.7027,-1.7951e-12,2.0861e-06,-7.5898e-07,-5.7027,0.34856
13682,8.0826,2.6364,0,0.00038675,3864.8,0.00013188,-2.0467e-05,0.00012039,-86.292,-0.00038814,-3907.2,0.34843
13683,7.9908,2.7273,0,0.00038908,3888.2,0.00013291,-0.00039767,0.00012071,-91.635,-0.00039056,-3933.2,0.34118
13684,8.0826,2.7273,0.05,9.8836e-07,9.8768,7.5894e-07,5.7023,-1.7479e-12,5.3971e-07,-7.5894e-07,-5.7023,0.34848
13685,8.0826,2.4545,0,0.00038693,3866.7,0.00013184,0.00029833,0.00012063,-84.214,-0.0003883,-3908.1,0.34823
13686,7.9908,2.5455,0,0.00038924,3889.7,0.00013288,-0.0001252,0.00012091,-89.886,-0.00039069,-3933.9,0.34102
13687,8.0826,2.5455,0.05,9.8825e-07,9.8756,7.5885e-07,5.7017,-3.5133e-12,1.8681e-06,-7.5885e-07,-5.7017,0.34832
13688,8.0826,2.2727,0,0.00038719,3869.3,0.00013178,0.00074525,0.00012096,-81.329,-0.00038851,-3909.3,0.34796
13689,7.9908,2.3636,0,0.00038948,3892.1,0.00013283,0.00028244,0.00012121,-87.282,-0.00039089,-3935,0.34078
13690,8.0826,2.3636,0.05,9.8807e-07,9.8739,7.5872e-07,5.7007,-1.6464e-12,2.2291e-06,-7.5871e-07,-5.7007,0.34808
13691,8.0826,2.0909,0,0.00038753,3872.6,0.00013171,0.0013222,0.00012137,-77.661,-0.00038879,-3910.8,0.3476
13692,7.9908,2.1818,0,0.00038979,3895.2,0.00013276,0.00082885,0.0001216,-83.844,-0.00039114,-3936.4,0.34047
13693,8.0826,2.1818,0.05,9.8781e-07,9.8713,7.5852e-07,5.6992,-2.5079e-12,1.583e-06,-7.5852e-07,-5.6992,0.34776
13694,8.0826,1.9091,0,0.00038792,3876.6,0.00013163,0.0020317,0.00012188,-73.241,-0.00038912,-3912.7,0.34716
13695,7.9908,2,0,0.00039017,3899,0.00013268,0.0015159,0.00012208,-79.601,-0.00039146,-3938.2,0.34007
13696,8.0826,2,0.05,9.8747e-07,9.8679,7.5825e-07,5.6972,-3.3767e-12,1.8573e-06,-7.5825e-07,-5.6972,0.34736
13697,8.0826,1.7273,0,0.00038839,3881.2,0.00013153,0.0028792,0.00012246,-68.105,-0.0003895,-3914.8,0.34664
13698,7.9908,1.8182,0,0.00039062,3903.5,0.00013258,0.0023473,0.00012265,-74.588,-0.00039183,-3940.2,0.33958
13699,8.0826,1.8182,0.05,9.8701e-07,9.8633,7.579e-07,5.6946,-3.3432e-12,1.9845e-06,-7.579e-07,-5.6946,0.34688
13700,8.0826,1.5455,0,0.00038891,3886.5,0.00013142,0.0038811,0.00012312,-62.294,-0.00038994,-3917.2,0.34604
13701,7.9908,1.6364,0,0.00039114,3908.7,0.00013247,0.0033342,0.00012331,-68.845,-0.00039226,-3942.6,0.33902
13702,8.0826,1.6364,0.05,9.8642e-07,9.8574,7.5745e-07,5.6912,-5.1008e-12,4.5303e-06,-7.5745e-07,-5.6911,0.34632
13703,8.0826,1.3636,0,0.0003895,3892.3,0.00013129,0.005053,0.00012386,-55.856,-0.00039042,-3919.9,0.34536
13704,7.9908,1.4545,0,0.00039171,3914.4,0.00013235,0.0045039,0.00012404,-62.421,-0.00039274,-3945.3,0.33838
13705,8.0826,1.4545,0.05,9.8568e-07,9.85,7.5689e-07,5.687,-5.0806e-12,4.2993e-06,-7.5688e-07,-5.6869,0.34568
13706,8.0826,1.1818,0,0.00039013,3898.6,0.00013116,0.0064775,0.00012465,-48.841,-0.00039094,-3922.8,0.34459
13707,7.9908,1.2727,0,0.00039235,3920.8,0.00013221,0.0058667,0.00012484,-55.365,-0.00039326,-3948.2,0.33765
13708,8.0826,1.2727,0.05,9.8477e-07,9.8409,7.5619e-07,5.6817,-1.4514e-12,3.5129e-06,-7.5618e-07,-5.6816,0.34496
13709,8.0826,1,0,0.00039081,3905.4,0.00013101,0.0081082,0.00012551,-41.304,-0.0003915,-3925.9,0.34375
13710,7.9908,1.0909,0,0.00039304,3927.7,0.00013206,0.0075966,0.00012571,-47.734,-0.00039383,-3951.3,0.33685
13711,8.0826,1.0909,0.05,9.8367e-07,9.8299,7.5534e-07,5.6754,-3.1797e-12,4.568e-06,-7.5533e-07,-5.6752,0.34416
13712,8.0826,0.81818,0,0.00039154,3912.7,0.00013085,0.01075,0.00012642,-33.305,-0.00039209,-3929.2,0.34282
13713,7.9908,0.90909,0,0.00039377,3935,0.0001319,0.0094461,0.00012663,-39.589,-0.00039443,-3954.7,0.33596
13714,8.0826,0.90909,0.05,9.8234e-07,9.8166,7.5432e-07,5.6677,-1.4152e-12,3.8301e-06,-7.5431e-07,-5.6676,0.34327
13715,8.0826,0.63636,0,0.0003923,3920.3,0.00013069,0.012475,0.00012738,-24.903,-0.00039272,-3932.7,0.34181
13716,7.9908,0.72727,0,0.00039455,3942.8,0.00013173,0.013418,0.00012761,-30.99,-0.00039507,-3958.2,0.33498
13717,8.0826,0.72727,0.05,9.8062e-07,9.7994,7.53e-07,5.6578,-3.2081e-12,4.0346e-06,-7.5299e-07,-5.6576,0.3423
13718,8.0826,0.45455,0,0.0003931,3928.3,0.00013052,0.028362,0.00012837,-16.135,-0.00039337,-3936.3,0.34071
13719,7.9908,0.54545,0,0.00039536,3950.9,0.00013156,0.013658,0.00012863,-22.005,-0.00039573,-3961.8,0.33392
13720,8.0826,0.54545,0.05,9.7612e-07,9.7544,7.4954e-07,5.6318,-1.4656e-12,4.3052e-06,-7.4953e-07,-5.6316,0.34124
13721,8.0826,0.27273,0,0.00039397,3937,0.00013035,0.049937,0.00012944,-6.7626,-0.00039408,-3940.3,0.33953
13722,7.9908,0.36364,0,0.00039621,3959.4,0.00013138,0.049155,0.00012969,-12.647,-0.00039642,-3965.6,0.33278
13723,8.0826,0.36364,0.05,9.3264e-07,9.32,7.1616e-07,5.381,-4.9774e-12,4.1339e-06,-7.1614e-07,-5.3808,0.34011
13724,7.9908,0.18182,0,0.00039718,3969,0.00013121,0.16515,0.00013085,-2.5186,-0.00039722,-3970.2,0.33155
13725,8.0826,0.18182,0.05,3.0741e-07,3.072,2.3606e-07,1.7737,-1.7908e-12,2.9551e-05,-2.3605e-07,-1.7735,0.33888
13726,8.0826,0.090909,0,0.00039447,3942,0.00013023,0.40223,0.00013012,-0.45712,-0.00039447,-3942,0.33827
13727,7.8989,5.7273,0,0.00039941,3991.3,0.00013222,0.052169,0.0001311,-8.3444,-0.00039955,-3995.5,0.32489
13728,7.8071,5.8182,0,0.00040266,4023.8,0.00013307,0.13341,0.00013256,-3.704,-0.00040272,-4025.6,0.31704
13729,7.8989,5.8182,0.05,3.3694e-07,3.3671,2.5873e-07,1.9439,1.9138e-12,-2.0779e-05,-2.5873e-07,-1.944,0.32423
13730,7.8989,5.9091,0,0.00039999,3997.1,0.00013206,0.23401,0.0001319,-0.9727,-0.0004,-3997.5,0.32361
13731,7.8989,5.5455,0,0.00039847,3982,0.00013241,0.031692,0.00012994,-18.529,-0.00039878,-3991.2,0.32608
13732,7.8071,5.6364,0,0.00040163,4013.5,0.00013327,0.054585,0.00013131,-14.698,-0.00040188,-4020.8,0.31828
13733,7.8989,5.6364,0.05,9.419e-07,9.4125,7.2326e-07,5.4343,1.3914e-12,-2.3668e-06,-7.2327e-07,-5.4344,0.32547
13734,7.8989,5.3636,0,0.00039761,3973.3,0.0001326,0.013902,0.00012886,-28.104,-0.00039808,-3987.3,0.32718
13735,7.8071,5.4545,0,0.00040071,4004.4,0.00013347,0.015296,0.00013015,-24.908,-0.00040113,-4016.7,0.31943
13736,7.8989,5.4545,0.05,9.842e-07,9.8352,7.5574e-07,5.6783,4.9585e-12,-1.5459e-06,-7.5574e-07,-5.6784,0.32662
13737,7.8989,5.1818,0,0.00039678,3965.1,0.00013278,0.011825,0.00012782,-37.284,-0.0003974,-3983.6,0.32821
13738,7.8071,5.2727,0,0.00039983,3995.6,0.00013366,0.014841,0.00012904,-34.719,-0.00040041,-4012.8,0.3205
13739,7.8989,5.2727,0.05,9.8869e-07,9.8801,7.5919e-07,5.7042,5.0445e-12,-2.5291e-06,-7.5919e-07,-5.7043,0.32768
13740,7.8989,5,0,0.000396,3957.2,0.00013295,0.0087821,0.00012683,-46.027,-0.00039676,-3980,0.32914
13741,7.8071,5.0909,0,0.00039899,3987.2,0.00013385,0.010311,0.00012797,-44.11,-0.00039972,-4009,0.32148
13742,7.8989,5.0909,0.05,9.9046e-07,9.8978,7.6055e-07,5.7144,3.1752e-12,-2.4987e-06,-7.6055e-07,-5.7145,0.32866
13743,7.8989,4.8182,0,0.00039526,3949.8,0.00013311,0.0068926,0.00012589,-54.266,-0.00039615,-3976.7,0.32999
13744,7.8071,4.9091,0,0.00039819,3979.2,0.00013402,0.0081687,0.00012697,-53.009,-0.00039907,-4005.4,0.32238
13745,7.8989,4.9091,0.05,9.9182e-07,9.9114,7.6159e-07,5.7223,3.1425e-12,-2.7865e-06,-7.616e-07,-5.7224,0.32955
13746,7.8989,4.6364,0,0.00039457,3943,0.00013326,0.0052538,0.00012502,-61.937,-0.00039558,-3973.6,0.33076
13747,7.8071,4.7273,0,0.00039745,3971.7,0.00013419,0.0061838,0.00012602,-61.347,-0.00039846,-4002,0.32319
13748,7.8989,4.7273,0.05,9.9294e-07,9.9225,7.6245e-07,5.7287,3.2052e-12,-4.0566e-06,-7.6246e-07,-5.7288,0.33036
13749,7.8989,4.4545,0,0.00039394,3936.6,0.0001334,0.00391,0.00012422,-68.978,-0.00039506,-3970.7,0.33145
13750,7.8071,4.5455,0,0.00039676,3964.8,0.00013434,0.0046237,0.00012514,-69.059,-0.00039789,-3998.9,0.32392
13751,7.8989,4.5455,0.05,9.9385e-07,9.9316,7.6315e-07,5.734,3.252e-12,-2.4246e-06,-7.6315e-07,-5.734,0.33109
13752,7.8989,4.2727,0,0.00039336,3930.9,0.00013352,0.0027659,0.0001235,-75.334,-0.00039459,-3968.1,0.33205
13753,7.8071,4.3636,0,0.00039613,3958.6,0.00013447,0.0032904,0.00012435,-76.083,-0.00039737,-3996,0.32457
13754,7.8989,4.3636,0.05,9.9457e-07,9.9388,7.637e-07,5.7381,1.446e-12,-2.9968e-06,-7.6371e-07,-5.7383,0.33174
13755,7.8989,4.0909,0,0.00039286,3925.9,0.00013363,0.0018015,0.00012286,-80.953,-0.00039418,-3965.7,0.33258
13756,7.8071,4.1818,0,0.00039557,3952.9,0.0001346,0.0021689,0.00012363,-82.361,-0.0003969,-3993.5,0.32513
13757,7.8989,4.1818,0.05,9.9514e-07,9.9445,7.6414e-07,5.7414,-3.1528e-13,-2.3577e-06,-7.6414e-07,-5.7415,0.3323
13758,7.8989,3.9091,0,0.00039243,3921.6,0.00013373,0.00099652,0.00012231,-85.789,-0.00039382,-3963.8,0.33302
13759,7.8071,4,0,0.00039508,3948,0.0001347,0.0012263,0.00012301,-87.844,-0.0003965,-3991.2,0.32562
13760,7.8989,4,0.05,9.9557e-07,9.9488,7.6447e-07,5.7439,1.5372e-12,-2.8106e-06,-7.6448e-07,-5.744,0.33278
13761,7.8989,3.7273,0,0.00039207,3918,0.0001338,0.00034322,0.00012185,-89.802,-0.00039352,-3962.1,0.33338
13762,7.8071,3.8182,0,0.00039466,3943.9,0.00013479,0.00044971,0.00012248,-92.484,-0.00039615,-3989.3,0.32602
13763,7.8989,3.8182,0.05,9.9589e-07,9.952,7.6472e-07,5.7458,-2.0828e-13,-1.516e-06,-7.6472e-07,-5.7458,0.33318
13764,7.8989,3.5455,0,0.00039178,3915.1,0.00013387,-0.00016187,0.00012149,-92.959,-0.00039328,-3960.8,0.33366
13765,7.8071,3.6364,0,0.00039433,3940.5,0.00013487,-0.00016711,0.00012206,-96.245,-0.00039588,-3987.8,0.32634
13766,7.8989,3.6364,0.05,9.9612e-07,9.9543,7.6489e-07,5.7471,-1.7778e-13,-3.7757e-07,-7.649e-07,-5.7471,0.3335
13767,7.8989,3.3636,0,0.00039158,3913.1,0.00013391,-0.000522,0.00012124,-95.234,-0.00039311,-3959.8,0.33386
13768,7.8071,3.4545,0,0.00039407,3938,0.00013492,-0.00062679,0.00012173,-99.093,-0.00039566,-3986.6,0.32658
13769,7.8989,3.4545,0.05,9.9628e-07,9.9559,7.6502e-07,5.748,-1.2517e-13,9.6495e-07,-7.6502e-07,-5.748,0.33374
13770,7.8989,3.1818,0,0.00039146,3911.9,0.00013394,-0.00073854,0.00012108,-96.606,-0.00039301,-3959.3,0.33398
13771,7.8071,3.2727,0,0.0003939,3936.3,0.00013496,-0.00093371,0.00012152,-101.01,-0.00039552,-3985.8,0.32674
13772,7.8989,3.2727,0.05,9.9637e-07,9.9568,7.6509e-07,5.7486,-7.6086e-14,3.7672e-07,-7.6509e-07,-5.7486,0.3339
13773,7.8989,3,0,0.00039142,3911.5,0.00013395,-0.00081074,0.00012103,-97.065,-0.00039298,-3959.1,0.33402
13774,7.8071,3.0909,0,0.00039382,3935.4,0.00013498,-0.0010875,0.00012141,-101.97,-0.00039545,-3985.4,0.32682
13775,7.8989,3.0909,0.05,9.9642e-07,9.9573,7.6513e-07,5.7489,-2.5608e-14,7.609e-07,-7.6512e-07,-5.7488,0.33398
13776,7.8989,2.8182,0,0.00039146,3911.9,0.00013394,-0.00073848,0.00012108,-96.606,-0.00039301,-3959.3,0.33398
13777,7.8071,2.9091,0,0.00039382,3935.4,0.00013498,-0.0010872,0.00012141,-101.97,-0.00039545,-3985.4,0.32682
13778,7.8989,2.9091,0.05,9.9642e-07,9.9573,7.6513e-07,5.7489,2.5885e-14,1.1487e-06,-7.6512e-07,-5.7488,0.33398
13779,7.8989,2.6364,0,0.00039158,3913.1,0.00013391,-0.00052185,0.00012124,-95.234,-0.00039311,-3959.8,0.33386
13780,7.8071,2.7273,0,0.0003939,3936.3,0.00013496,-0.00093374,0.00012152,-101.01,-0.00039552,-3985.8,0.32674
13781,7.8989,2.7273,0.05,9.9637e-07,9.9568,7.6509e-07,5.7486,7.7326e-14,5.9744e-07,-7.6509e-07,-5.7486,0.3339
13782,7.8989,2.4545,0,0.00039178,3915.1,0.00013387,-0.00016175,0.00012149,-92.959,-0.00039328,-3960.8,0.33366
13783,7.8071,2.5455,0,0.00039407,3938,0.00013492,-0.00062655,0.00012173,-99.093,-0.00039566,-3986.6,0.32658
13784,7.8989,2.5455,0.05,9.9628e-07,9.9559,7.6502e-07,5.7481,-1.687e-12,9.9046e-07,-7.6501e-07,-5.748,0.33374
13785,7.8989,2.2727,0,0.00039207,3918,0.0001338,0.00034349,0.00012185,-89.802,-0.00039352,-3962.1,0.33338
13786,7.8071,2.3636,0,0.00039433,3940.5,0.00013487,-0.00016694,0.00012206,-96.245,-0.00039588,-3987.8,0.32634
13787,7.8989,2.3636,0.05,9.9612e-07,9.9543,7.649e-07,5.7472,-7.1695e-13,1.4048e-06,-7.6489e-07,-5.7471,0.3335
13788,7.8989,2.0909,0,0.00039243,3921.6,0.00013373,0.00099717,0.00012231,-85.789,-0.00039382,-3963.8,0.33302
13789,7.8071,2.1818,0,0.00039466,3943.9,0.00013479,0.00045,0.00012248,-92.484,-0.00039615,-3989.3,0.32602
13790,7.8989,2.1818,0.05,9.9589e-07,9.952,7.6472e-07,5.7458,-2.5017e-12,2.5814e-06,-7.6472e-07,-5.7458,0.33318
13791,7.8989,1.9091,0,0.00039286,3925.9,0.00013363,0.001802,0.00012286,-80.953,-0.00039418,-3965.7,0.33258
13792,7.8071,2,0,0.00039508,3948,0.0001347,0.001227,0.00012301,-87.844,-0.0003965,-3991.2,0.32562
13793,7.8989,2,0.05,9.9557e-07,9.9488,7.6448e-07,5.744,-1.5298e-12,1.9847e-06,-7.6447e-07,-5.7439,0.33278
13794,7.8989,1.7273,0,0.00039336,3930.9,0.00013352,0.0027663,0.0001235,-75.334,-0.00039459,-3968.1,0.33205
13795,7.8071,1.8182,0,0.00039557,3952.9,0.0001346,0.0021693,0.00012363,-82.361,-0.0003969,-3993.5,0.32513
13796,7.8989,1.8182,0.05,9.9514e-07,9.9445,7.6415e-07,5.7415,-3.2898e-12,2.7054e-06,-7.6414e-07,-5.7414,0.3323
13797,7.8989,1.5455,0,0.00039394,3936.6,0.0001334,0.0039109,0.00012422,-68.978,-0.00039506,-3970.7,0.33145
13798,7.8071,1.6364,0,0.00039613,3958.6,0.00013447,0.003291,0.00012435,-76.083,-0.00039737,-3996,0.32457
13799,7.8989,1.6364,0.05,9.9457e-07,9.9388,7.6371e-07,5.7383,-1.4292e-12,4.8092e-06,-7.637e-07,-5.7381,0.33174
13800,7.8989,1.3636,0,0.00039457,3943,0.00013326,0.0052548,0.00012502,-61.937,-0.00039558,-3973.6,0.33076
13801,7.8071,1.4545,0,0.00039676,3964.8,0.00013434,0.0046245,0.00012514,-69.059,-0.00039789,-3998.9,0.32392
13802,7.8989,1.4545,0.05,9.9385e-07,9.9316,7.6316e-07,5.7341,-3.1977e-12,3.714e-06,-7.6314e-07,-5.734,0.33109
13803,7.8989,1.1818,0,0.00039526,3949.8,0.00013311,0.0068934,0.00012589,-54.266,-0.00039615,-3976.7,0.32999
13804,7.8071,1.2727,0,0.00039745,3971.7,0.00013419,0.0061847,0.00012602,-61.347,-0.00039846,-4002,0.32319
13805,7.8989,1.2727,0.05,9.9294e-07,9.9225,7.6246e-07,5.7288,-3.2052e-12,4.1024e-06,-7.6245e-07,-5.7287,0.33036
13806,7.8989,1,0,0.000396,3957.2,0.00013295,0.0087833,0.00012683,-46.027,-0.00039676,-3980,0.32914
13807,7.8071,1.0909,0,0.00039819,3979.2,0.00013402,0.0081693,0.00012697,-53.009,-0.00039907,-4005.4,0.32238
13808,7.8989,1.0909,0.05,9.9182e-07,9.9114,7.616e-07,5.7224,-3.1425e-12,5.3075e-06,-7.6159e-07,-5.7222,0.32955
13809,7.8989,0.81818,0,0.00039678,3965.1,0.00013278,0.011826,0.00012782,-37.284,-0.0003974,-3983.6,0.32821
13810,7.8071,0.90909,0,0.00039899,3987.2,0.00013385,0.010313,0.00012797,-44.11,-0.00039972,-4009,0.32148
13811,7.8989,0.90909,0.05,9.9046e-07,9.8978,7.6056e-07,5.7146,-3.0758e-12,4.797e-06,-7.6054e-07,-5.7144,0.32866
13812,7.8989,0.63636,0,0.00039761,3973.3,0.0001326,0.013902,0.00012886,-28.104,-0.00039808,-3987.3,0.32718
13813,7.8071,0.72727,0,0.00039983,3995.6,0.00013366,0.014842,0.00012904,-34.719,-0.00040041,-4012.8,0.3205
13814,7.8989,0.72727,0.05,9.8869e-07,9.8801,7.592e-07,5.7044,-6.6723e-12,4.8462e-06,-7.5919e-07,-5.7042,0.32768
13815,7.8989,0.45455,0,0.00039847,3982,0.00013241,0.031693,0.00012994,-18.529,-0.00039878,-3991.2,0.32608
13816,7.8071,0.54545,0,0.00040071,4004.4,0.00013347,0.015297,0.00013015,-24.908,-0.00040113,-4016.7,0.31943
13817,7.8989,0.54545,0.05,9.842e-07,9.8352,7.5574e-07,5.6784,-5.0161e-12,3.9191e-06,-7.5574e-07,-5.6783,0.32662
13818,7.8989,0.27273,0,0.00039941,3991.3,0.00013222,0.05217,0.0001311,-8.3443,-0.00039955,-3995.5,0.32489
13819,7.8071,0.36364,0,0.00040163,4013.5,0.00013327,0.054587,0.00013131,-14.698,-0.00040188,-4020.8,0.31828
13820,7.8989,0.36364,0.05,9.419e-07,9.4125,7.2327e-07,5.4344,-2.9797e-12,3.6299e-06,-7.2326e-07,-5.4343,0.32547
13821,7.8071,0.18182,0,0.00040266,4023.8,0.00013307,0.13341,0.00013256,-3.7039,-0.00040272,-4025.6,0.31704
13822,7.8989,0.18182,0.05,3.3694e-07,3.3671,2.5873e-07,1.9441,-2.4408e-12,3.6441e-05,-2.5872e-07,-1.9439,0.32423
13823,7.8989,0.090909,0,0.00039999,3997.1,0.00013206,0.23402,0.0001319,-0.97268,-0.0004,-3997.5,0.32361
13824,7.7152,5.7273,0,0.00040487,4045.9,0.00013411,0.055288,0.00013277,-10.028,-0.00040504,-4050.9,0.31051
13825,7.6234,5.8182,0,0.00040817,4078.9,0.00013495,0.11808,0.00013428,-4.9765,-0.00040826,-4081.4,0.30279
13826,7.7152,5.8182,0.05,3.6905e-07,3.688,2.8338e-07,2.1292,2.1995e-12,-2.5402e-05,-2.8339e-07,-2.1293,0.30985
13827,7.7152,5.9091,0,0.00040554,4052.6,0.00013392,0.17138,0.00013368,-1.6324,-0.00040557,-4053.4,0.30922
13828,7.7152,5.5455,0,0.00040387,4035.9,0.00013432,0.035293,0.00013151,-21.088,-0.00040422,-4046.4,0.31171
13829,7.6234,5.6364,0,0.00040707,4067.9,0.00013517,0.060469,0.00013292,-16.887,-0.00040736,-4076.3,0.30404
13830,7.7152,5.6364,0.05,9.5182e-07,9.5116,7.3088e-07,5.4915,4.9465e-12,-2.8964e-06,-7.3088e-07,-5.4916,0.3111
13831,7.7152,5.3636,0,0.00040293,4026.6,0.00013453,0.015454,0.00013033,-31.532,-0.00040346,-4042.2,0.31283
13832,7.6234,5.4545,0,0.00040608,4058,0.00013539,0.01708,0.00013166,-28.015,-0.00040655,-4071.9,0.3052
13833,7.7152,5.4545,0.05,9.928e-07,9.9212,7.6235e-07,5.7279,4.9189e-12,-2.8144e-06,-7.6236e-07,-5.7281,0.31225
13834,7.7152,5.1818,0,0.00040204,4017.6,0.00013473,0.012998,0.00012919,-41.553,-0.00040273,-4038.2,0.31386
13835,7.6234,5.2727,0,0.00040513,4048.5,0.00013561,0.016391,0.00013045,-38.716,-0.00040577,-4067.7,0.30628
13836,7.7152,5.2727,0.05,9.9728e-07,9.9659,7.6578e-07,5.7538,1.3144e-12,-4.2121e-06,-7.6579e-07,-5.7539,0.31333
13837,7.7152,5,0,0.00040119,4009.1,0.00013492,0.0095221,0.00012811,-51.099,-0.00040203,-4034.4,0.3148
13838,7.6234,5.0909,0,0.00040422,4039.4,0.00013581,0.01126,0.00012929,-48.963,-0.00040503,-4063.6,0.30727
13839,7.7152,5.0909,0.05,9.9909e-07,9.984,7.6717e-07,5.7642,4.9006e-12,-3.2242e-06,-7.6719e-07,-5.7644,0.31431
13840,7.7152,4.8182,0,0.00040038,4001.1,0.00013509,0.007352,0.00012709,-60.096,-0.00040137,-4030.8,0.31566
13841,7.6234,4.9091,0,0.00040335,4030.7,0.000136,0.0087992,0.00012819,-58.676,-0.00040432,-4059.8,0.30817
13842,7.7152,4.9091,0.05,1.0005e-06,9.9979,7.6824e-07,5.7723,3.0753e-12,-3.3929e-06,-7.6825e-07,-5.7723,0.31521
13843,7.7152,4.6364,0,0.00039964,3993.6,0.00013526,0.0054802,0.00012614,-68.475,-0.00040076,-4027.4,0.31643
13844,7.6234,4.7273,0,0.00040254,4022.7,0.00013618,0.0065382,0.00012716,-67.78,-0.00040365,-4056.1,0.30899
13845,7.7152,4.7273,0.05,1.0016e-06,10.009,7.691e-07,5.7787,3.1506e-12,-3.2792e-06,-7.6911e-07,-5.7788,0.31603
13846,7.7152,4.4545,0,0.00039895,3986.8,0.00013541,0.00395,0.00012527,-76.169,-0.00040019,-4024.3,0.31713
13847,7.6234,4.5455,0,0.0004018,4015.2,0.00013635,0.0047637,0.00012621,-76.201,-0.00040304,-4052.7,0.30973
13848,7.7152,4.5455,0.05,1.0025e-06,10.018,7.6979e-07,5.7839,1.396e-12,-3.6436e-06,-7.6979e-07,-5.784,0.31676
13849,7.7152,4.2727,0,0.00039833,3980.6,0.00013555,0.0026512,0.00012448,-83.115,-0.00039968,-4021.5,0.31774
13850,7.6234,4.3636,0,0.00040111,4008.4,0.0001365,0.0032524,0.00012534,-83.873,-0.00040247,-4049.6,0.31038
13851,7.7152,4.3636,0.05,1.0032e-06,10.025,7.7033e-07,5.788,-3.3715e-13,-2.2985e-06,-7.7033e-07,-5.788,0.31741
13852,7.7152,4.0909,0,0.00039778,3975.1,0.00013567,0.0015591,0.00012379,-89.256,-0.00039923,-4019,0.31826
13853,7.6234,4.1818,0,0.0004005,4002.3,0.00013664,0.0019842,0.00012456,-90.733,-0.00040197,-4046.9,0.31095
13854,7.7152,4.1818,0.05,1.0037e-06,10.03,7.7074e-07,5.791,1.5021e-12,-4.2929e-06,-7.7074e-07,-5.7911,0.31798
13855,7.7152,3.9091,0,0.00039731,3970.4,0.00013577,0.00064988,0.00012319,-94.543,-0.00039884,-4016.8,0.31871
13856,7.6234,4,0,0.00039997,3997,0.00013675,0.00092084,0.00012388,-96.723,-0.00040153,-4044.4,0.31144
13857,7.7152,4,0.05,1.0041e-06,10.034,7.7104e-07,5.7933,1.5342e-12,-1.9224e-06,-7.7105e-07,-5.7933,0.31847
13858,7.7152,3.7273,0,0.00039692,3966.5,0.00013585,-8.6887e-05,0.00012269,-98.931,-0.00039851,-4015,0.31907
13859,7.6234,3.8182,0,0.00039952,3992.5,0.00013685,4.6159e-05,0.0001233,-101.79,-0.00040116,-4042.4,0.31184
13860,7.7152,3.8182,0.05,1.0044e-06,10.037,7.7126e-07,5.795,1.5889e-12,-1.787e-06,-7.7126e-07,-5.795,0.31887
13861,7.7152,3.5455,0,0.00039661,3963.4,0.00013592,-0.00065604,0.0001223,-102.38,-0.00039826,-4013.6,0.31935
13862,7.6234,3.6364,0,0.00039916,3988.8,0.00013693,-0.00064738,0.00012284,-105.91,-0.00040085,-4040.7,0.31217
13863,7.7152,3.6364,0.05,1.0046e-06,10.039,7.7141e-07,5.7961,1.6362e-12,-1.39e-06,-7.7141e-07,-5.7961,0.31919
13864,7.7152,3.3636,0,0.00039639,3961.2,0.00013597,-0.0010611,0.00012201,-104.87,-0.00039807,-4012.6,0.31955
13865,7.6234,3.4545,0,0.00039888,3986,0.00013699,-0.0011641,0.00012248,-109.02,-0.00040062,-4039.4,0.31241
13866,7.7152,3.4545,0.05,1.0047e-06,10.04,7.7151e-07,5.7968,-1.3557e-13,8.9524e-07,-7.7151e-07,-5.7968,0.31944
13867,7.7152,3.1818,0,0.00039626,3959.9,0.000136,-0.0013044,0.00012184,-106.37,-0.00039796,-4012,0.31967
13868,7.6234,3.2727,0,0.00039869,3984.2,0.00013703,-0.0015084,0.00012225,-111.11,-0.00040047,-4038.6,0.31257
13869,7.7152,3.2727,0.05,1.0048e-06,10.041,7.7157e-07,5.7973,-8.0939e-14,-6.1175e-07,-7.7157e-07,-5.7973,0.3196
13870,7.7152,3,0,0.00039621,3959.4,0.00013601,-0.0013855,0.00012179,-106.87,-0.00039792,-4011.8,0.31971
13871,7.6234,3.0909,0,0.0003986,3983.3,0.00013705,-0.0016809,0.00012213,-112.16,-0.00040039,-4038.2,0.31265
13872,7.7152,3.0909,0.05,1.0048e-06,10.042,7.716e-07,5.7975,-9.3739e-13,7.4374e-07,-7.716e-07,-5.7975,0.31968
13873,7.7152,2.8182,0,0.00039626,3959.9,0.000136,-0.0013043,0.00012184,-106.37,-0.00039796,-4012,0.31967
13874,7.6234,2.9091,0,0.0003986,3983.3,0.00013705,-0.0016808,0.00012213,-112.16,-0.00040039,-4038.2,0.31265
13875,7.7152,2.9091,0.05,1.0048e-06,10.042,7.716e-07,5.7975,-1.7909e-12,2.1087e-07,-7.716e-07,-5.7975,0.31968
13876,7.7152,2.6364,0,0.00039639,3961.2,0.00013597,-0.001061,0.00012201,-104.87,-0.00039807,-4012.6,0.31955
13877,7.6234,2.7273,0,0.00039869,3984.2,0.00013703,-0.0015085,0.00012225,-111.11,-0.00040047,-4038.6,0.31257
13878,7.7152,2.7273,0.05,1.0048e-06,10.041,7.7157e-07,5.7973,-8.2319e-13,1.585e-06,-7.7157e-07,-5.7973,0.3196
13879,7.7152,2.4545,0,0.00039661,3963.4,0.00013592,-0.00065574,0.0001223,-102.38,-0.00039826,-4013.6,0.31935
13880,7.6234,2.5455,0,0.00039888,3986,0.00013699,-0.0011638,0.00012248,-109.02,-0.00040062,-4039.4,0.31241
13881,7.7152,2.5455,0.05,1.0047e-06,10.04,7.7151e-07,5.7969,1.4057e-13,1.1539e-06,-7.7151e-07,-5.7968,0.31944
13882,7.7152,2.2727,0,0.00039692,3966.5,0.00013585,-8.6682e-05,0.00012269,-98.931,-0.00039851,-4015,0.31907
13883,7.6234,2.3636,0,0.00039916,3988.8,0.00013693,-0.00064723,0.00012284,-105.91,-0.00040085,-4040.7,0.31217
13884,7.7152,2.3636,0.05,1.0046e-06,10.039,7.7141e-07,5.7961,-1.6284e-12,1.4988e-06,-7.7141e-07,-5.7961,0.31919
13885,7.7152,2.0909,0,0.00039731,3970.4,0.00013577,0.00065023,0.00012319,-94.543,-0.00039884,-4016.8,0.31871
13886,7.6234,2.1818,0,0.00039952,3992.5,0.00013685,4.6542e-05,0.0001233,-101.79,-0.00040116,-4042.4,0.31184
13887,7.7152,2.1818,0.05,1.0044e-06,10.037,7.7126e-07,5.795,-1.5729e-12,2.8431e-06,-7.7126e-07,-5.7949,0.31887
13888,7.7152,1.9091,0,0.00039778,3975.1,0.00013567,0.0015597,0.00012379,-89.256,-0.00039923,-4019,0.31826
13889,7.6234,2,0,0.00039997,3997,0.00013675,0.00092129,0.00012388,-96.723,-0.00040153,-4044.4,0.31144
13890,7.7152,2,0.05,1.0041e-06,10.034,7.7105e-07,5.7933,-1.4977e-12,3.0585e-06,-7.7104e-07,-5.7933,0.31847
13891,7.7152,1.7273,0,0.00039833,3980.6,0.00013555,0.0026518,0.00012448,-83.115,-0.00039968,-4021.5,0.31774
13892,7.6234,1.8182,0,0.0004005,4002.3,0.00013664,0.0019848,0.00012456,-90.733,-0.00040197,-4046.9,0.31095
13893,7.7152,1.8182,0.05,1.0037e-06,10.03,7.7074e-07,5.7911,-1.4681e-12,4.6286e-06,-7.7074e-07,-5.791,0.31798
13894,7.7152,1.5455,0,0.00039895,3986.8,0.00013541,0.0039506,0.00012527,-76.169,-0.00040019,-4024.3,0.31713
13895,7.6234,1.6364,0,0.00040111,4008.4,0.0001365,0.0032531,0.00012534,-83.873,-0.00040247,-4049.6,0.31038
13896,7.7152,1.6364,0.05,1.0032e-06,10.025,7.7033e-07,5.788,-1.424e-12,2.4746e-06,-7.7033e-07,-5.788,0.31741
13897,7.7152,1.3636,0,0.00039964,3993.6,0.00013526,0.005481,0.00012614,-68.475,-0.00040076,-4027.4,0.31643
13898,7.6234,1.4545,0,0.0004018,4015.2,0.00013635,0.0047644,0.00012621,-76.201,-0.00040304,-4052.7,0.30973
13899,7.7152,1.4545,0.05,1.0025e-06,10.018,7.698e-07,5.784,-1.342e-12,3.5459e-06,-7.6979e-07,-5.7839,0.31676
13900,7.7152,1.1818,0,0.00040038,4001.1,0.00013509,0.0073528,0.00012709,-60.096,-0.00040137,-4030.8,0.31566
13901,7.6234,1.2727,0,0.00040254,4022.7,0.00013618,0.0065391,0.00012716,-67.78,-0.00040365,-4056.1,0.30899
13902,7.7152,1.2727,0.05,1.0016e-06,10.009,7.6911e-07,5.7788,-4.9009e-12,4.5595e-06,-7.691e-07,-5.7787,0.31603
13903,7.7152,1,0,0.00040119,4009.1,0.00013492,0.0095232,0.00012811,-51.099,-0.00040203,-4034.4,0.3148
13904,7.6234,1.0909,0,0.00040335,4030.7,0.000136,0.0087999,0.00012819,-58.676,-0.00040432,-4059.8,0.30817
13905,7.7152,1.0909,0.05,1.0005e-06,9.9979,7.6825e-07,5.7723,-3.0753e-12,3.8219e-06,-7.6824e-07,-5.7722,0.31521
13906,7.7152,0.81818,0,0.00040204,4017.6,0.00013473,0.012999,0.00012919,-41.553,-0.00040273,-4038.2,0.31386
13907,7.6234,0.90909,0,0.00040422,4039.4,0.00013581,0.011261,0.00012929,-48.963,-0.00040503,-4063.6,0.30727
13908,7.7152,0.90909,0.05,9.9909e-07,9.984,7.6719e-07,5.7644,-4.8143e-12,4.859e-06,-7.6717e-07,-5.7642,0.31431
13909,7.7152,0.63636,0,0.00040293,4026.6,0.00013453,0.015455,0.00013033,-31.532,-0.00040346,-4042.2,0.31283
13910,7.6234,0.72727,0,0.00040513,4048.5,0.00013561,0.016392,0.00013045,-38.716,-0.00040577,-4067.7,0.30628
13911,7.7152,0.72727,0.05,9.9728e-07,9.9659,7.6579e-07,5.7539,-3.0707e-12,5.562e-06,-7.6579e-07,-5.7537,0.31333
13912,7.7152,0.45455,0,0.00040387,4035.9,0.00013432,0.035294,0.00013151,-21.088,-0.00040422,-4046.4,0.31171
13913,7.6234,0.54545,0,0.00040608,4058,0.00013539,0.01708,0.00013166,-28.015,-0.00040655,-4071.9,0.3052
13914,7.7152,0.54545,0.05,9.928e-07,9.9212,7.6236e-07,5.7281,-6.5845e-12,4.7218e-06,-7.6234e-07,-5.7279,0.31225
13915,7.7152,0.27273,0,0.00040487,4045.9,0.00013411,0.05529,0.00013277,-10.028,-0.00040504,-4050.9,0.31051
13916,7.6234,0.36364,0,0.00040707,4067.9,0.00013517,0.060471,0.00013292,-16.887,-0.00040736,-4076.3,0.30404
13917,7.7152,0.36364,0.05,9.5182e-07,9.5116,7.3089e-07,5.4916,-6.4635e-12,5.7646e-06,-7.3087e-07,-5.4915,0.3111
13918,7.6234,0.18182,0,0.00040817,4078.9,0.00013495,0.11809,0.00013428,-4.9764,-0.00040826,-4081.4,0.30279
13919,7.7152,0.18182,0.05,3.6905e-07,3.688,2.8339e-07,2.1293,-2.5377e-12,4.2708e-05,-2.8338e-07,-2.1291,0.30985
13920,7.7152,0.090909,0,0.00040554,4052.6,0.00013392,0.17139,0.00013368,-1.6324,-0.00040557,-4053.4,0.30922
13921,7.5315,5.7273,0,0.00041037,4100.8,0.00013601,0.059153,0.00013443,-11.819,-0.00041056,-4106.7,0.29641
13922,7.4397,5.8182,0,0.00041372,4134.3,0.00013685,0.11053,0.00013599,-6.3304,-0.00041382,-4137.4,0.28882
13923,7.5315,5.8182,0.05,4.0395e-07,4.0367,3.1018e-07,2.3305,-1.262e-13,-2.3755e-05,-3.1018e-07,-2.3306,0.29574
13924,7.5315,5.9091,0,0.00041113,4108.4,0.0001358,0.14429,0.00013547,-2.3677,-0.00041116,-4109.5,0.29511
13925,7.5315,5.5455,0,0.00040928,4090,0.00013625,0.039194,0.00013307,-23.824,-0.00040968,-4101.9,0.29762
13926,7.4397,5.6364,0,0.00041254,4122.6,0.0001371,0.066852,0.00013453,-19.224,-0.00041286,-4132.1,0.29008
13927,7.5315,5.6364,0.05,9.6247e-07,9.6181,7.3905e-07,5.5529,6.5575e-12,-5.8994e-06,-7.3906e-07,-5.5531,0.297
13928,7.5315,5.3636,0,0.00040827,4079.9,0.00013647,0.017146,0.00013178,-35.207,-0.00040886,-4097.4,0.29875
13929,7.4397,5.4545,0,0.00041147,4111.9,0.00013734,0.019025,0.00013316,-31.342,-0.00041199,-4127.4,0.29125
13930,7.5315,5.4545,0.05,1.002e-06,10.013,7.694e-07,5.781,1.27e-12,-3.0881e-06,-7.6942e-07,-5.7811,0.29817
13931,7.5315,5.1818,0,0.00040731,4070.2,0.00013669,0.014279,0.00013055,-46.134,-0.00040807,-4093.1,0.29978
13932,7.4397,5.2727,0,0.00041044,4101.6,0.00013757,0.018083,0.00013184,-43.005,-0.00041115,-4122.9,0.29234
13933,7.5315,5.2727,0.05,1.0064e-06,10.058,7.7283e-07,5.8067,4.8788e-12,-2.3915e-06,-7.7283e-07,-5.8068,0.29925
13934,7.5315,5,0,0.00040638,4061,0.0001369,0.010335,0.00012937,-56.547,-0.00040731,-4089,0.30073
13935,7.4397,5.0909,0,0.00040945,4091.7,0.00013779,0.012301,0.00013058,-54.176,-0.00041035,-4118.5,0.29333
13936,7.5315,5.0909,0.05,1.0083e-06,10.076,7.7424e-07,5.8173,4.8272e-12,-3.9945e-06,-7.7425e-07,-5.8175,0.30024
13937,7.5315,4.8182,0,0.00040551,4052.3,0.00013709,0.007861,0.00012826,-66.365,-0.0004066,-4085.1,0.3016
13938,7.4397,4.9091,0,0.00040851,4082.3,0.00013801,0.0094957,0.00012938,-64.77,-0.00040958,-4114.3,0.29424
13939,7.5315,4.9091,0.05,1.0097e-06,10.09,7.7532e-07,5.8254,1.3669e-12,-4.5797e-06,-7.7533e-07,-5.8255,0.30115
13940,7.5315,4.6364,0,0.0004047,4044.2,0.00013727,0.0057367,0.00012722,-75.511,-0.00040593,-4081.4,0.30238
13941,7.4397,4.7273,0,0.00040764,4073.6,0.0001382,0.0069353,0.00012826,-74.701,-0.00040886,-4110.4,0.29507
13942,7.5315,4.7273,0.05,1.0108e-06,10.101,7.7618e-07,5.8319,1.298e-12,-3.4558e-06,-7.7619e-07,-5.832,0.30197
13943,7.5315,4.4545,0,0.00040396,4036.8,0.00013744,0.0040036,0.00012627,-83.91,-0.00040532,-4078.1,0.30307
13944,7.4397,4.5455,0,0.00040683,4065.4,0.00013839,0.004928,0.00012722,-83.891,-0.00040819,-4106.7,0.29581
13945,7.5315,4.5455,0.05,1.0117e-06,10.11,7.7685e-07,5.8369,-4.3402e-13,-3.7062e-06,-7.7686e-07,-5.837,0.30271
13946,7.5315,4.2727,0,0.00040329,4030.1,0.00013759,0.0025366,0.00012541,-91.495,-0.00040476,-4075,0.30369
13947,7.4397,4.3636,0,0.00040609,4058.1,0.00013855,0.0032235,0.00012627,-92.265,-0.00040758,-4103.4,0.29647
13948,7.5315,4.3636,0.05,1.0124e-06,10.117,7.7736e-07,5.8408,1.393e-12,-3.8543e-06,-7.7737e-07,-5.8408,0.30336
13949,7.5315,4.0909,0,0.00040269,4024.1,0.00013772,0.0013059,0.00012465,-98.203,-0.00040427,-4072.3,0.30422
13950,7.4397,4.1818,0,0.00040542,4051.4,0.0001387,0.0017958,0.00012542,-99.754,-0.00040703,-4100.4,0.29704
13951,7.5315,4.1818,0.05,1.0128e-06,10.121,7.7774e-07,5.8436,3.2457e-12,-2.705e-06,-7.7774e-07,-5.8436,0.30393
13952,7.5315,3.9091,0,0.00040218,4019,0.00013784,0.0002829,0.000124,-103.98,-0.00040385,-4070,0.30466
13953,7.4397,4,0,0.00040485,4045.7,0.00013883,0.00060099,0.00012468,-106.3,-0.00040655,-4097.8,0.29753
13954,7.5315,4,0.05,1.0132e-06,10.125,7.78e-07,5.8456,-3.1903e-13,-2.0921e-06,-7.7801e-07,-5.8456,0.30442
13955,7.5315,3.7273,0,0.00040176,4014.8,0.00013793,-0.00054462,0.00012345,-108.77,-0.00040349,-4068.1,0.30503
13956,7.4397,3.8182,0,0.00040436,4040.8,0.00013894,-0.00038048,0.00012406,-111.83,-0.00040614,-4095.5,0.29794
13957,7.5315,3.8182,0.05,1.0134e-06,10.127,7.7818e-07,5.8469,1.5679e-12,-3.0304e-06,-7.7818e-07,-5.847,0.30483
13958,7.5315,3.5455,0,0.00040142,4011.4,0.000138,-0.0011831,0.00012303,-112.54,-0.00040322,-4066.5,0.30531
13959,7.4397,3.6364,0,0.00040396,4036.8,0.00013903,-0.0011576,0.00012355,-116.32,-0.00040581,-4093.7,0.29826
13960,7.5315,3.6364,0.05,1.0136e-06,10.129,7.783e-07,5.8478,1.6104e-12,-6.1544e-07,-7.783e-07,-5.8478,0.30515
13961,7.5315,3.3636,0,0.00040118,4009,0.00013806,-0.0016374,0.00012272,-115.26,-0.00040302,-4065.4,0.30552
13962,7.4397,3.4545,0,0.00040366,4033.8,0.00013909,-0.0017364,0.00012316,-119.73,-0.00040556,-4092.4,0.29851
13963,7.5315,3.4545,0.05,1.0137e-06,10.13,7.7837e-07,5.8484,-1.5033e-13,-1.0996e-06,-7.7837e-07,-5.8484,0.3054
13964,7.5315,3.1818,0,0.00040104,4007.6,0.00013809,-0.0019099,0.00012253,-116.9,-0.0004029,-4064.8,0.30564
13965,7.4397,3.2727,0,0.00040346,4031.8,0.00013914,-0.0021216,0.0001229,-122.01,-0.0004054,-4091.4,0.29867
13966,7.5315,3.2727,0.05,1.0137e-06,10.13,7.7841e-07,5.8487,-8.9731e-14,-6.717e-07,-7.7841e-07,-5.8487,0.30556
13967,7.5315,3,0,0.00040099,4007.1,0.0001381,-0.0020009,0.00012247,-117.45,-0.00040286,-4064.5,0.30568
13968,7.4397,3.0909,0,0.00040336,4030.8,0.00013916,-0.0023144,0.00012277,-123.16,-0.00040531,-4091,0.29875
13969,7.5315,3.0909,0.05,1.0137e-06,10.13,7.7843e-07,5.8488,-1.8488e-12,1.6817e-06,-7.7842e-07,-5.8488,0.30564
13970,7.5315,2.8182,0,0.00040104,4007.6,0.00013809,-0.00191,0.00012253,-116.9,-0.0004029,-4064.8,0.30564
13971,7.4397,2.9091,0,0.00040336,4030.8,0.00013916,-0.0023144,0.00012277,-123.16,-0.00040531,-4091,0.29875
13972,7.5315,2.9091,0.05,1.0137e-06,10.13,7.7843e-07,5.8488,-3.6071e-12,1.1825e-06,-7.7842e-07,-5.8488,0.30564
13973,7.5315,2.6364,0,0.00040118,4009,0.00013806,-0.0016373,0.00012272,-115.26,-0.00040302,-4065.4,0.30552
13974,7.4397,2.7273,0,0.00040346,4031.8,0.00013914,-0.0021215,0.0001229,-122.01,-0.0004054,-4091.4,0.29867
13975,7.5315,2.7273,0.05,1.0137e-06,10.13,7.7841e-07,5.8487,-1.726e-12,6.8637e-07,-7.7841e-07,-5.8486,0.30556
13976,7.5315,2.4545,0,0.00040142,4011.4,0.000138,-0.001183,0.00012303,-112.54,-0.00040322,-4066.5,0.30531
13977,7.4397,2.5455,0,0.00040366,4033.8,0.00013909,-0.001736,0.00012316,-119.73,-0.00040556,-4092.4,0.29851
13978,7.5315,2.5455,0.05,1.0137e-06,10.13,7.7837e-07,5.8484,-3.4722e-12,1.2291e-06,-7.7837e-07,-5.8483,0.3054
13979,7.5315,2.2727,0,0.00040176,4014.8,0.00013793,-0.0005443,0.00012345,-108.77,-0.00040349,-4068.1,0.30503
13980,7.4397,2.3636,0,0.00040396,4036.8,0.00013903,-0.0011575,0.00012355,-116.32,-0.00040581,-4093.7,0.29826
13981,7.5315,2.3636,0.05,1.0136e-06,10.129,7.783e-07,5.8479,-3.4006e-12,2.5475e-06,-7.7829e-07,-5.8478,0.30515
13982,7.5315,2.0909,0,0.00040218,4019,0.00013784,0.00028337,0.000124,-103.98,-0.00040385,-4070,0.30466
13983,7.4397,2.1818,0,0.00040436,4040.8,0.00013894,-0.00037992,0.00012406,-111.83,-0.00040614,-4095.5,0.29794
13984,7.5315,2.1818,0.05,1.0134e-06,10.127,7.7818e-07,5.847,-1.5493e-12,2.2365e-06,-7.7818e-07,-5.8469,0.30483
13985,7.5315,1.9091,0,0.00040269,4024.1,0.00013772,0.0013063,0.00012465,-98.203,-0.00040427,-4072.3,0.30422
13986,7.4397,2,0,0.00040485,4045.7,0.00013883,0.00060119,0.00012468,-106.3,-0.00040655,-4097.8,0.29753
13987,7.5315,2,0.05,1.0132e-06,10.125,7.7801e-07,5.8457,-1.4631e-12,3.6225e-06,-7.78e-07,-5.8456,0.30442
13988,7.5315,1.7273,0,0.00040329,4030.1,0.00013759,0.0025372,0.00012541,-91.495,-0.00040476,-4075,0.30369
13989,7.4397,1.8182,0,0.00040542,4051.4,0.0001387,0.0017965,0.00012542,-99.754,-0.00040703,-4100.4,0.29704
13990,7.5315,1.8182,0.05,1.0128e-06,10.121,7.7774e-07,5.8437,-5.0106e-12,3.1207e-06,-7.7774e-07,-5.8436,0.30393
13991,7.5315,1.5455,0,0.00040396,4036.8,0.00013744,0.0040043,0.00012627,-83.91,-0.00040532,-4078.1,0.30307
13992,7.4397,1.6364,0,0.00040609,4058.1,0.00013855,0.003224,0.00012627,-92.265,-0.00040758,-4103.4,0.29647
13993,7.5315,1.6364,0.05,1.0124e-06,10.117,7.7737e-07,5.8409,-1.3183e-12,4.5067e-06,-7.7735e-07,-5.8407,0.30336
13994,7.5315,1.3636,0,0.0004047,4044.2,0.00013727,0.0057375,0.00012722,-75.511,-0.00040593,-4081.4,0.30238
13995,7.4397,1.4545,0,0.00040683,4065.4,0.00013839,0.0049287,0.00012722,-83.891,-0.00040819,-4106.7,0.29581
13996,7.5315,1.4545,0.05,1.0117e-06,10.11,7.7685e-07,5.837,-3.1708e-12,6.9157e-06,-7.7685e-07,-5.8369,0.30271
13997,7.5315,1.1818,0,0.00040551,4052.3,0.00013709,0.0078618,0.00012826,-66.365,-0.0004066,-4085.1,0.3016
13998,7.4397,1.2727,0,0.00040764,4073.6,0.0001382,0.0069362,0.00012826,-74.701,-0.00040886,-4110.4,0.29507
13999,7.5315,1.2727,0.05,1.0108e-06,10.101,7.7619e-07,5.832,-3.0355e-12,5.1909e-06,-7.7617e-07,-5.8319,0.30197
14000,7.5315,1,0,0.00040638,4061,0.0001369,0.010336,0.00012937,-56.547,-0.00040731,-4089,0.30073
14001,7.4397,1.0909,0,0.00040851,4082.3,0.00013801,0.0094964,0.00012938,-64.77,-0.00040958,-4114.3,0.29424
14002,7.5315,1.0909,0.05,1.0097e-06,10.09,7.7533e-07,5.8255,-1.1826e-12,5.269e-06,-7.7532e-07,-5.8254,0.30115
14003,7.5315,0.81818,0,0.00040731,4070.2,0.00013669,0.01428,0.00013055,-46.134,-0.00040807,-4093.1,0.29978
14004,7.4397,0.90909,0,0.00040945,4091.7,0.00013779,0.012303,0.00013058,-54.176,-0.00041035,-4118.5,0.29333
14005,7.5315,0.90909,0.05,1.0083e-06,10.076,7.7425e-07,5.8175,-6.6033e-12,5.8649e-06,-7.7424e-07,-5.8173,0.30024
14006,7.5315,0.63636,0,0.00040827,4079.9,0.00013647,0.017147,0.00013178,-35.207,-0.00040886,-4097.4,0.29875
14007,7.4397,0.72727,0,0.00041044,4101.6,0.00013757,0.018084,0.00013184,-43.005,-0.00041115,-4122.9,0.29234
14008,7.5315,0.72727,0.05,1.0064e-06,10.058,7.7283e-07,5.8068,-4.6912e-12,5.6411e-06,-7.7282e-07,-5.8066,0.29925
14009,7.5315,0.45455,0,0.00040928,4090,0.00013625,0.039195,0.00013307,-23.824,-0.00040968,-4101.9,0.29762
14010,7.4397,0.54545,0,0.00041147,4111.9,0.00013734,0.019025,0.00013316,-31.342,-0.00041199,-4127.4,0.29125
14011,7.5315,0.54545,0.05,1.002e-06,10.013,7.6942e-07,5.7811,-2.9629e-12,5.9491e-06,-7.6941e-07,-5.781,0.29817
14012,7.5315,0.27273,0,0.00041037,4100.8,0.00013601,0.059155,0.00013443,-11.819,-0.00041056,-4106.7,0.29641
14013,7.4397,0.36364,0,0.00041254,4122.6,0.0001371,0.066854,0.00013453,-19.224,-0.00041286,-4132.1,0.29008
14014,7.5315,0.36364,0.05,9.6247e-07,9.6181,7.3906e-07,5.5531,-6.462e-12,7.2924e-06,-7.3905e-07,-5.5529,0.297
14015,7.4397,0.18182,0,0.00041372,4134.3,0.00013685,0.11053,0.00013599,-6.3303,-0.00041382,-4137.4,0.28882
14016,7.5315,0.18182,0.05,4.0395e-07,4.0367,3.1018e-07,2.3307,-2.3132e-12,4.1769e-05,-3.1017e-07,-2.3305,0.29574
14017,7.5315,0.090909,0,0.00041113,4108.4,0.0001358,0.14429,0.00013547,-2.3677,-0.00041116,-4109.5,0.29511
14018,7.3478,5.7273,0,0.00041589,4156,0.00013793,0.063713,0.00013609,-13.725,-0.00041612,-4162.8,0.28258
14019,7.256,5.8182,0,0.0004193,4190.1,0.00013876,0.10743,0.00013771,-7.7651,-0.00041943,-4193.9,0.27513
14020,7.3478,5.8182,0.05,4.4183e-07,4.4153,3.3927e-07,2.5491,-1.0719e-12,-1.2192e-05,-3.3927e-07,-2.5492,0.28191
14021,7.3478,5.9091,0,0.00041675,4164.6,0.00013769,0.13132,0.00013726,-3.1585,-0.0004168,-4166.1,0.28127
14022,7.3478,5.5455,0,0.00041472,4144.4,0.00013819,0.043428,0.00013462,-26.75,-0.00041517,-4157.7,0.28381
14023,7.256,5.6364,0,0.00041804,4177.5,0.00013903,0.073781,0.00013613,-21.717,-0.0004184,-4188.3,0.2764
14024,7.3478,5.6364,0.05,9.7392e-07,9.7325,7.4784e-07,5.619,6.4432e-12,-6.0613e-06,-7.4786e-07,-5.6191,0.28318
14025,7.3478,5.3636,0,0.00041363,4133.5,0.00013843,0.018995,0.00013322,-39.147,-0.00041428,-4152.9,0.28494
14026,7.256,5.4545,0,0.00041688,4165.9,0.0001393,0.021147,0.00013465,-34.905,-0.00041746,-4183.2,0.27758
14027,7.3478,5.4545,0.05,1.0118e-06,10.111,7.7696e-07,5.8378,3.0181e-12,-5.1263e-06,-7.7697e-07,-5.8379,0.28435
14028,7.3478,5.1818,0,0.00041258,4123,0.00013867,0.015683,0.00013188,-51.053,-0.00041343,-4148.3,0.28598
14029,7.256,5.2727,0,0.00041576,4154.7,0.00013955,0.019929,0.00013322,-47.606,-0.00041655,-4178.3,0.27867
14030,7.3478,5.2727,0.05,1.0162e-06,10.155,7.8035e-07,5.8632,2.8954e-12,-2.9957e-06,-7.8036e-07,-5.8633,0.28544
14031,7.3478,5,0,0.00041158,4113,0.0001389,0.011232,0.0001306,-62.404,-0.00041261,-4143.8,0.28694
14032,7.256,5.0909,0,0.00041469,4144.1,0.0001398,0.013443,0.00013184,-59.778,-0.00041568,-4173.6,0.27968
14033,7.3478,5.0909,0.05,1.0181e-06,10.174,7.8179e-07,5.874,4.6599e-12,-6.7501e-06,-7.818e-07,-5.8742,0.28644
14034,7.3478,4.8182,0,0.00041064,4103.6,0.00013912,0.0084277,0.00012939,-73.109,-0.00041183,-4139.6,0.28781
14035,7.256,4.9091,0,0.00041368,4133.9,0.00014003,0.010263,0.00013054,-71.323,-0.00041484,-4169.1,0.28059
14036,7.3478,4.9091,0.05,1.0195e-06,10.188,7.8288e-07,5.8822,1.1752e-12,-3.7972e-06,-7.8288e-07,-5.8823,0.28736
14037,7.3478,4.6364,0,0.00040976,4094.8,0.00013932,0.0060292,0.00012826,-83.084,-0.00041111,-4135.7,0.28859
14038,7.256,4.7273,0,0.00041273,4124.4,0.00014025,0.0073781,0.00012931,-82.151,-0.00041406,-4164.9,0.28142
14039,7.3478,4.7273,0.05,1.0206e-06,10.199,7.8372e-07,5.8885,3.0863e-12,-4.7893e-06,-7.8373e-07,-5.8887,0.28818
14040,7.3478,4.4545,0,0.00040895,4086.7,0.0001395,0.0040761,0.00012722,-92.248,-0.00041044,-4132.1,0.28929
14041,7.256,4.5455,0,0.00041185,4115.6,0.00014045,0.005118,0.00012818,-92.173,-0.00041334,-4160.9,0.28217
14042,7.3478,4.5455,0.05,1.0215e-06,10.208,7.8436e-07,5.8934,4.8554e-12,-4.5879e-06,-7.8437e-07,-5.8935,0.28893
14043,7.3478,4.2727,0,0.00040822,4079.4,0.00013966,0.0024267,0.00012628,-100.53,-0.00040984,-4128.8,0.28991
14044,7.256,4.3636,0,0.00041104,4107.6,0.00014063,0.0032038,0.00012715,-101.31,-0.00041267,-4157.3,0.28283
14045,7.3478,4.3636,0.05,1.0221e-06,10.214,7.8484e-07,5.8969,6.7824e-12,-4.0927e-06,-7.8484e-07,-5.897,0.28958
14046,7.3478,4.0909,0,0.00040758,4073,0.00013981,0.0010449,0.00012545,-107.85,-0.00040931,-4125.8,0.29044
14047,7.256,4.1818,0,0.00041033,4100.4,0.00014079,0.0016027,0.00012622,-109.48,-0.00041208,-4154.1,0.2834
14048,7.3478,4.1818,0.05,1.0225e-06,10.218,7.8517e-07,5.8994,1.4018e-12,-4.1142e-06,-7.8517e-07,-5.8995,0.29016
14049,7.3478,3.9091,0,0.00040702,4067.4,0.00013993,-0.00010161,0.00012474,-114.15,-0.00040885,-4123.3,0.29089
14050,7.256,4,0,0.0004097,4094.2,0.00014094,0.00026476,0.00012542,-116.62,-0.00041156,-4151.2,0.2839
14051,7.3478,4,0.05,1.0228e-06,10.221,7.8538e-07,5.9011,1.4716e-12,-2.3126e-06,-7.8538e-07,-5.9011,0.29065
14052,7.3478,3.7273,0,0.00040656,4062.8,0.00014004,-0.0010281,0.00012415,-119.39,-0.00040846,-4121.2,0.29126
14053,7.256,3.8182,0,0.00040917,4088.9,0.00014106,-0.0008325,0.00012473,-122.67,-0.00041112,-4148.8,0.2843
14054,7.3478,3.8182,0.05,1.023e-06,10.223,7.8551e-07,5.902,1.5141e-12,-3.2336e-06,-7.8552e-07,-5.9021,0.29106
14055,7.3478,3.5455,0,0.0004062,4059.2,0.00014012,-0.0017424,0.00012368,-123.51,-0.00040816,-4119.6,0.29155
14056,7.256,3.6364,0,0.00040874,4084.6,0.00014115,-0.0017009,0.00012418,-127.57,-0.00041076,-4146.9,0.28463
14057,7.3478,3.6364,0.05,1.0231e-06,10.224,7.8559e-07,5.9026,-2.2562e-13,2.8336e-07,-7.8559e-07,-5.9026,0.29139
14058,7.3478,3.3636,0,0.00040594,4056.6,0.00014018,-0.0022502,0.00012334,-126.48,-0.00040794,-4118.4,0.29175
14059,7.256,3.4545,0,0.00040841,4081.3,0.00014123,-0.002347,0.00012375,-131.29,-0.00041049,-4145.4,0.28488
14060,7.3478,3.4545,0.05,1.0231e-06,10.224,7.8562e-07,5.9029,-1.5818e-13,-2.4295e-07,-7.8562e-07,-5.9029,0.29163
14061,7.3478,3.1818,0,0.00040578,4055,0.00014021,-0.0025547,0.00012314,-128.27,-0.00040781,-4117.6,0.29187
14062,7.256,3.2727,0,0.00040819,4079.1,0.00014128,-0.002777,0.00012347,-133.78,-0.00041031,-4144.4,0.28504
14063,7.3478,3.2727,0.05,1.0231e-06,10.224,7.8564e-07,5.903,-9.7541e-14,-7.33e-07,-7.8564e-07,-5.903,0.29179
14064,7.3478,3,0,0.00040573,4054.5,0.00014022,-0.0026562,0.00012307,-128.87,-0.00040777,-4117.4,0.29191
14065,7.256,3.0909,0,0.00040808,4078,0.0001413,-0.0029919,0.00012333,-135.03,-0.00041021,-4143.9,0.28512
14066,7.3478,3.0909,0.05,1.0231e-06,10.224,7.8564e-07,5.903,-3.2957e-14,-2.4843e-07,-7.8564e-07,-5.903,0.29187
14067,7.3478,2.8182,0,0.00040578,4055,0.00014021,-0.0025545,0.00012314,-128.27,-0.00040781,-4117.6,0.29187
14068,7.256,2.9091,0,0.00040808,4078,0.0001413,-0.0029919,0.00012333,-135.03,-0.00041021,-4143.9,0.28512
14069,7.3478,2.9091,0.05,1.0231e-06,10.224,7.8564e-07,5.903,3.3013e-14,1.2016e-06,-7.8564e-07,-5.903,0.29187
14070,7.3478,2.6364,0,0.00040594,4056.6,0.00014018,-0.0022499,0.00012334,-126.48,-0.00040794,-4118.4,0.29175
14071,7.256,2.7273,0,0.00040819,4079.1,0.00014128,-0.0027769,0.00012347,-133.78,-0.00041031,-4144.4,0.28504
14072,7.3478,2.7273,0.05,1.0231e-06,10.224,7.8564e-07,5.903,-1.718e-12,2.6421e-06,-7.8564e-07,-5.903,0.29179
14073,7.3478,2.4545,0,0.0004062,4059.2,0.00014012,-0.0017421,0.00012368,-123.51,-0.00040816,-4119.6,0.29155
14074,7.256,2.5455,0,0.00040841,4081.3,0.00014123,-0.0023468,0.00012375,-131.29,-0.00041049,-4145.4,0.28488
14075,7.3478,2.5455,0.05,1.0231e-06,10.224,7.8563e-07,5.9029,1.6498e-13,1.395e-06,-7.8562e-07,-5.9028,0.29163
14076,7.3478,2.2727,0,0.00040656,4062.8,0.00014004,-0.0010278,0.00012415,-119.39,-0.00040846,-4121.2,0.29126
14077,7.256,2.3636,0,0.00040874,4084.6,0.00014115,-0.0017006,0.00012418,-127.57,-0.00041076,-4146.9,0.28463
14078,7.3478,2.3636,0.05,1.0231e-06,10.224,7.8559e-07,5.9026,-1.566e-12,2.7525e-06,-7.8558e-07,-5.9026,0.29139
14079,7.3478,2.0909,0,0.00040702,4067.4,0.00013993,-0.00010132,0.00012474,-114.15,-0.00040885,-4123.3,0.29089
14080,7.256,2.1818,0,0.00040917,4088.9,0.00014106,-0.00083218,0.00012473,-122.67,-0.00041112,-4148.8,0.2843
14081,7.3478,2.1818,0.05,1.023e-06,10.223,7.8552e-07,5.9021,-1.4886e-12,3.2336e-06,-7.8551e-07,-5.902,0.29106
14082,7.3478,1.9091,0,0.00040758,4073,0.00013981,0.0010454,0.00012545,-107.85,-0.00040931,-4125.8,0.29044
14083,7.256,2,0,0.0004097,4094.2,0.00014094,0.00026517,0.00012542,-116.62,-0.00041156,-4151.2,0.2839
14084,7.3478,2,0.05,1.0228e-06,10.221,7.8539e-07,5.9011,-3.2313e-12,2.3126e-06,-7.8538e-07,-5.9011,0.29065
14085,7.3478,1.7273,0,0.00040822,4079.4,0.00013966,0.0024272,0.00012628,-100.53,-0.00040984,-4128.8,0.28991
14086,7.256,1.8182,0,0.00041033,4100.4,0.00014079,0.0016033,0.00012622,-109.48,-0.00041208,-4154.1,0.2834
14087,7.3478,1.8182,0.05,1.0225e-06,10.218,7.8517e-07,5.8995,-1.3562e-12,4.1142e-06,-7.8516e-07,-5.8994,0.29016
14088,7.3478,1.5455,0,0.00040895,4086.7,0.0001395,0.0040767,0.00012722,-92.248,-0.00041044,-4132.1,0.28929
14089,7.256,1.6364,0,0.00041104,4107.6,0.00014063,0.0032043,0.00012715,-101.31,-0.00041267,-4157.3,0.28283
14090,7.3478,1.6364,0.05,1.0221e-06,10.214,7.8484e-07,5.897,-6.7066e-12,4.1971e-06,-7.8483e-07,-5.8969,0.28958
14091,7.3478,1.3636,0,0.00040976,4094.8,0.00013932,0.00603,0.00012826,-83.084,-0.00041111,-4135.7,0.28859
14092,7.256,1.4545,0,0.00041185,4115.6,0.00014045,0.0051189,0.00012818,-92.173,-0.00041334,-4160.9,0.28217
14093,7.3478,1.4545,0.05,1.0215e-06,10.208,7.8437e-07,5.8935,-6.6336e-12,6.4669e-06,-7.8436e-07,-5.8934,0.28893
14094,7.3478,1.1818,0,0.00041064,4103.6,0.00013912,0.0084285,0.00012939,-73.109,-0.00041183,-4139.6,0.28781
14095,7.256,1.2727,0,0.00041273,4124.4,0.00014025,0.0073789,0.00012931,-82.151,-0.00041406,-4164.9,0.28142
14096,7.3478,1.2727,0.05,1.0206e-06,10.199,7.8373e-07,5.8887,-4.7449e-12,6.7886e-06,-7.8372e-07,-5.8885,0.28818
14097,7.3478,1,0,0.00041158,4113,0.0001389,0.011233,0.0001306,-62.404,-0.00041261,-4143.8,0.28694
14098,7.256,1.0909,0,0.00041368,4133.9,0.00014003,0.010264,0.00013054,-71.323,-0.00041484,-4169.1,0.28059
14099,7.3478,1.0909,0.05,1.0195e-06,10.188,7.8288e-07,5.8823,-1.1334e-12,3.7972e-06,-7.8288e-07,-5.8822,0.28736
14100,7.3478,0.81818,0,0.00041258,4123,0.00013867,0.015684,0.00013188,-51.053,-0.00041343,-4148.3,0.28598
14101,7.256,0.90909,0,0.00041469,4144.1,0.0001398,0.013445,0.00013184,-59.778,-0.00041568,-4173.6,0.27968
14102,7.3478,0.90909,0.05,1.0181e-06,10.174,7.818e-07,5.8742,-4.5919e-12,6.931e-06,-7.8179e-07,-5.874,0.28644
14103,7.3478,0.63636,0,0.00041363,4133.5,0.00013843,0.018995,0.00013322,-39.147,-0.00041428,-4152.9,0.28494
14104,7.256,0.72727,0,0.00041576,4154.7,0.00013955,0.01993,0.00013322,-47.606,-0.00041655,-4178.3,0.27867
14105,7.3478,0.72727,0.05,1.0162e-06,10.155,7.8036e-07,5.8633,-4.6687e-12,4.855e-06,-7.8035e-07,-5.8632,0.28544
14106,7.3478,0.45455,0,0.00041472,4144.4,0.00013819,0.043429,0.00013462,-26.75,-0.00041517,-4157.7,0.28381
14107,7.256,0.54545,0,0.00041688,4165.9,0.0001393,0.021147,0.00013465,-34.905,-0.00041746,-4183.2,0.27758
14108,7.3478,0.54545,0.05,1.0118e-06,10.111,7.7698e-07,5.8379,-2.7941e-12,6.9414e-06,-7.7696e-07,-5.8377,0.28435
14109,7.3478,0.27273,0,0.00041589,4156,0.00013793,0.063714,0.00013609,-13.724,-0.00041612,-4162.8,0.28258
14110,7.256,0.36364,0,0.00041804,4177.5,0.00013903,0.073782,0.00013613,-21.717,-0.0004184,-4188.3,0.2764
14111,7.3478,0.36364,0.05,9.7392e-07,9.7325,7.4786e-07,5.6192,-6.2181e-12,9.5667e-06,-7.4784e-07,-5.6189,0.28318
14112,7.256,0.18182,0,0.0004193,4190.1,0.00013876,0.10743,0.00013771,-7.7651,-0.00041943,-4193.9,0.27513
14113,7.3478,0.18182,0.05,4.4183e-07,4.4153,3.3927e-07,2.5492,-3.5625e-12,2.231e-05,-3.3927e-07,-2.5491,0.28191
14114,7.3478,0.090909,0,0.00041675,4164.6,0.00013769,0.13132,0.00013726,-3.1585,-0.0004168,-4166.1,0.28127
14115,7.1641,5.7273,0,0.00042144,4211.5,0.00013986,0.068952,0.00013775,-15.75,-0.0004217,-4219.3,0.26904
14116,7.0723,5.8182,0,0.00042491,4246.1,0.00014069,0.10729,0.00013944,-9.2816,-0.00042506,-4250.7,0.26172
14117,7.1641,5.8182,0.05,4.8293e-07,4.826,3.7083e-07,2.7862,-1.092e-12,-3.1291e-05,-3.7084e-07,-2.7864,0.26836
14118,7.1641,5.9091,0,0.0004224,4221.1,0.0001396,0.12527,0.00013905,-3.9987,-0.00042247,-4223,0.26772
14119,7.1641,5.5455,0,0.00042019,4199,0.00014014,0.048023,0.00013616,-29.879,-0.00042069,-4213.8,0.27027
14120,7.0723,5.6364,0,0.00042356,4232.6,0.00014099,0.081306,0.00013773,-24.377,-0.00042397,-4244.7,0.263
14121,7.1641,5.6364,0.05,9.8625e-07,9.8556,7.5731e-07,5.69,2.808e-12,-9.5951e-06,-7.5732e-07,-5.6903,0.26964
14122,7.1641,5.3636,0,0.000419,4187.2,0.00014042,0.02101,0.00013464,-43.37,-0.00041973,-4208.7,0.27141
14123,7.0723,5.4545,0,0.0004223,4220.1,0.00014128,0.023464,0.00013612,-38.721,-0.00042295,-4239.3,0.26419
14124,7.1641,5.4545,0.05,1.0224e-06,10.217,7.8508e-07,5.8987,1.1687e-12,-5.39e-06,-7.8508e-07,-5.8988,0.27082
14125,7.1641,5.1818,0,0.00041787,4175.8,0.00014068,0.017214,0.00013318,-56.336,-0.0004188,-4203.7,0.27246
14126,7.0723,5.2727,0,0.0004211,4208.1,0.00014156,0.021941,0.00013456,-52.544,-0.00042197,-4234.1,0.26529
14127,7.1641,5.2727,0.05,1.0268e-06,10.26,7.8841e-07,5.9238,6.4287e-12,-5.8798e-06,-7.8842e-07,-5.9239,0.27192
14128,7.1641,5,0,0.00041679,4165,0.00014093,0.012215,0.00013178,-68.701,-0.00041791,-4198.9,0.27342
14129,7.0723,5.0909,0,0.00041994,4196.5,0.00014183,0.014694,0.00013307,-65.798,-0.00042102,-4229,0.2663
14130,7.1641,5.0909,0.05,1.0287e-06,10.279,7.8988e-07,5.9348,2.9154e-12,-5.4431e-06,-7.8989e-07,-5.9349,0.27292
14131,7.1641,4.8182,0,0.00041576,4154.8,0.00014116,0.0090519,0.00013047,-80.367,-0.00041707,-4194.4,0.2743
14132,7.0723,4.9091,0,0.00041884,4185.5,0.00014208,0.011108,0.00013165,-78.374,-0.00042012,-4224.1,0.26722
14133,7.1641,4.9091,0.05,1.0301e-06,10.294,7.9096e-07,5.9429,2.9077e-12,-7.1486e-06,-7.9096e-07,-5.9431,0.27384
14134,7.1641,4.6364,0,0.00041481,4145.3,0.00014138,0.0063561,0.00012924,-91.241,-0.00041629,-4190.1,0.27509
14135,7.0723,4.7273,0,0.00041781,4175.2,0.00014232,0.0078702,0.00013032,-90.172,-0.00041927,-4219.6,0.26805
14136,7.1641,4.7273,0.05,1.0311e-06,10.304,7.9178e-07,5.949,1.1494e-12,-6.6568e-06,-7.9179e-07,-5.9492,0.27468
14137,7.1641,4.4545,0,0.00041394,4136.5,0.00014158,0.0041639,0.00012811,-101.23,-0.00041557,-4186.2,0.27579
14138,7.0723,4.5455,0,0.00041686,4165.7,0.00014254,0.005336,0.00012908,-101.1,-0.00041848,-4215.3,0.2688
14139,7.1641,4.5455,0.05,1.0319e-06,10.312,7.9238e-07,5.9536,-5.0031e-13,-5.141e-06,-7.9239e-07,-5.9537,0.27542
14140,7.1641,4.2727,0,0.00041315,4128.6,0.00014176,0.0023159,0.00012709,-110.26,-0.00041491,-4182.6,0.27641
14141,7.0723,4.3636,0,0.00041599,4157,0.00014274,0.0031934,0.00012796,-111.06,-0.00041776,-4211.4,0.26947
14142,7.1641,4.3636,0.05,1.0325e-06,10.317,7.928e-07,5.9568,3.1042e-12,-2.7165e-06,-7.9281e-07,-5.9568,0.27608
14143,7.1641,4.0909,0,0.00041245,4121.6,0.00014192,0.00077013,0.00012618,-118.25,-0.00041433,-4179.5,0.27695
14144,7.0723,4.1818,0,0.00041521,4149.2,0.00014292,0.001404,0.00012695,-119.97,-0.00041712,-4207.9,0.27004
14145,7.1641,4.1818,0.05,1.0328e-06,10.321,7.9307e-07,5.9588,3.1166e-12,-3.4905e-06,-7.9308e-07,-5.9589,0.27666
14146,7.1641,3.9091,0,0.00041184,4115.6,0.00014206,-0.00051079,0.00012541,-125.14,-0.00041383,-4176.7,0.2774
14147,7.0723,4,0,0.00041453,4142.4,0.00014307,-8.9562e-05,0.00012607,-127.76,-0.00041655,-4204.8,0.27054
14148,7.1641,4,0.05,1.033e-06,10.323,7.9323e-07,5.96,3.2779e-12,-3.4971e-06,-7.9323e-07,-5.96,0.27715
14149,7.1641,3.7273,0,0.00041134,4110.6,0.00014217,-0.0015447,0.00012476,-130.85,-0.00041341,-4174.5,0.27777
14150,7.0723,3.8182,0,0.00041395,4136.7,0.00014321,-0.0013128,0.00012532,-134.36,-0.00041607,-4202.2,0.27095
14151,7.1641,3.8182,0.05,1.0331e-06,10.324,7.933e-07,5.9605,-2.8284e-13,-2.0851e-06,-7.933e-07,-5.9605,0.27757
14152,7.1641,3.5455,0,0.00041095,4106.7,0.00014226,-0.0023414,0.00012425,-135.35,-0.00041309,-4172.7,0.27805
14153,7.0723,3.6364,0,0.00041349,4132,0.00014331,-0.0022804,0.00012472,-139.71,-0.00041569,-4200.1,0.27128
14154,7.1641,3.6364,0.05,1.0331e-06,10.324,7.9332e-07,5.9607,1.5813e-12,1.7295e-07,-7.9332e-07,-5.9607,0.27789
14155,7.1641,3.3636,0,0.00041067,4103.8,0.00014233,-0.0029075,0.00012388,-138.59,-0.00041285,-4171.4,0.27826
14156,7.0723,3.4545,0,0.00041313,4128.5,0.00014339,-0.0029997,0.00012426,-143.77,-0.00041539,-4198.5,0.27152
14157,7.1641,3.4545,0.05,1.0331e-06,10.324,7.9331e-07,5.9606,-1.7836e-13,-1.2767e-06,-7.9331e-07,-5.9606,0.27814
14158,7.1641,3.1818,0,0.0004105,4102.1,0.00014237,-0.0032468,0.00012366,-140.55,-0.00041271,-4170.6,0.27838
14159,7.0723,3.2727,0,0.00041289,4126.1,0.00014345,-0.0034784,0.00012395,-146.49,-0.00041519,-4197.4,0.27169
14160,7.1641,3.2727,0.05,1.0331e-06,10.324,7.933e-07,5.9605,-1.0514e-13,-7.9255e-07,-7.933e-07,-5.9605,0.2783
14161,7.1641,3,0,0.00041044,4101.6,0.00014238,-0.0033597,0.00012359,-141.2,-0.00041266,-4170.3,0.27842
14162,7.0723,3.0909,0,0.00041278,4124.9,0.00014347,-0.0037174,0.0001238,-147.86,-0.00041509,-4196.8,0.27177
14163,7.1641,3.0909,0.05,1.0331e-06,10.324,7.9328e-07,5.9604,-1.8544e-12,-2.6736e-07,-7.9328e-07,-5.9604,0.27838
14164,7.1641,2.8182,0,0.0004105,4102.1,0.00014237,-0.0032467,0.00012366,-140.55,-0.00041271,-4170.6,0.27838
14165,7.0723,2.9091,0,0.00041278,4124.9,0.00014347,-0.0037174,0.0001238,-147.86,-0.00041509,-4196.8,0.27177
14166,7.1641,2.9091,0.05,1.0331e-06,10.324,7.9328e-07,5.9605,-5.421e-12,2.765e-07,-7.9328e-07,-5.9604,0.27838
14167,7.1641,2.6364,0,0.00041067,4103.8,0.00014233,-0.0029074,0.00012388,-138.59,-0.00041285,-4171.4,0.27826
14168,7.0723,2.7273,0,0.00041289,4126.1,0.00014345,-0.0034784,0.00012395,-146.49,-0.00041519,-4197.4,0.27169
14169,7.1641,2.7273,0.05,1.0331e-06,10.324,7.933e-07,5.9605,1.0514e-13,7.9255e-07,-7.933e-07,-5.9605,0.2783
14170,7.1641,2.4545,0,0.00041095,4106.7,0.00014226,-0.0023413,0.00012425,-135.35,-0.00041309,-4172.7,0.27805
14171,7.0723,2.5455,0,0.00041313,4128.5,0.00014339,-0.0029995,0.00012426,-143.77,-0.00041539,-4198.5,0.27152
14172,7.1641,2.5455,0.05,1.0331e-06,10.324,7.9332e-07,5.9606,-3.4438e-12,1.2971e-06,-7.9331e-07,-5.9606,0.27814
14173,7.1641,2.2727,0,0.00041134,4110.6,0.00014217,-0.0015445,0.00012476,-130.85,-0.00041341,-4174.5,0.27777
14174,7.0723,2.3636,0,0.00041349,4132,0.00014331,-0.0022801,0.00012472,-139.71,-0.00041569,-4200.1,0.27128
14175,7.1641,2.3636,0.05,1.0331e-06,10.324,7.9332e-07,5.9607,-3.3647e-12,1.9721e-06,-7.9332e-07,-5.9607,0.27789
14176,7.1641,2.0909,0,0.00041184,4115.6,0.00014206,-0.00051035,0.00012541,-125.14,-0.00041383,-4176.7,0.2774
14177,7.0723,2.1818,0,0.00041395,4136.7,0.00014321,-0.0013126,0.00012532,-134.36,-0.00041607,-4202.2,0.27095
14178,7.1641,2.1818,0.05,1.0331e-06,10.324,7.933e-07,5.9605,-1.5007e-12,2.157e-06,-7.933e-07,-5.9605,0.27757
14179,7.1641,1.9091,0,0.00041245,4121.6,0.00014192,0.00077066,0.00012618,-118.25,-0.00041433,-4179.5,0.27695
14180,7.0723,2,0,0.00041453,4142.4,0.00014307,-8.9004e-05,0.00012607,-127.76,-0.00041655,-4204.8,0.27054
14181,7.1641,2,0.05,1.033e-06,10.323,7.9322e-07,5.96,-5.0818e-12,2.4648e-06,-7.9323e-07,-5.96,0.27715
14182,7.1641,1.7273,0,0.00041315,4128.6,0.00014176,0.0023164,0.00012709,-110.26,-0.00041491,-4182.6,0.27641
14183,7.0723,1.8182,0,0.00041521,4149.2,0.00014292,0.0014046,0.00012695,-119.97,-0.00041712,-4207.9,0.27004
14184,7.1641,1.8182,0.05,1.0328e-06,10.321,7.9308e-07,5.9589,-3.1166e-12,4.173e-06,-7.9307e-07,-5.9588,0.27666
14185,7.1641,1.5455,0,0.00041394,4136.5,0.00014158,0.0041647,0.00012811,-101.23,-0.00041557,-4186.2,0.27579
14186,7.0723,1.6364,0,0.00041599,4157,0.00014274,0.0031941,0.00012796,-111.06,-0.00041776,-4211.4,0.26947
14187,7.1641,1.6364,0.05,1.0325e-06,10.317,7.9281e-07,5.9568,-4.7932e-12,5.6952e-06,-7.9279e-07,-5.9568,0.27608
14188,7.1641,1.3636,0,0.00041481,4145.3,0.00014138,0.0063569,0.00012924,-91.241,-0.00041629,-4190.1,0.27509
14189,7.0723,1.4545,0,0.00041686,4165.7,0.00014254,0.0053368,0.00012908,-101.1,-0.00041848,-4215.3,0.2688
14190,7.1641,1.4545,0.05,1.0319e-06,10.312,7.9239e-07,5.9537,-1.2421e-12,6.0851e-06,-7.9238e-07,-5.9536,0.27542
14191,7.1641,1.1818,0,0.00041576,4154.8,0.00014116,0.0090526,0.00013047,-80.367,-0.00041707,-4194.4,0.2743
14192,7.0723,1.2727,0,0.00041781,4175.2,0.00014232,0.0078709,0.00013032,-90.172,-0.00041927,-4219.6,0.26805
14193,7.1641,1.2727,0.05,1.0311e-06,10.304,7.9179e-07,5.9492,-1.1656e-12,6.7928e-06,-7.9178e-07,-5.949,0.27468
14194,7.1641,1,0,0.00041679,4165,0.00014093,0.012216,0.00013178,-68.701,-0.00041791,-4198.9,0.27342
14195,7.0723,1.0909,0,0.00041884,4185.5,0.00014208,0.011108,0.00013165,-78.374,-0.00042012,-4224.1,0.26722
14196,7.1641,1.0909,0.05,1.0301e-06,10.294,7.9096e-07,5.9431,-4.5962e-12,7.0029e-06,-7.9096e-07,-5.9429,0.27384
14197,7.1641,0.81818,0,0.00041787,4175.8,0.00014068,0.017216,0.00013318,-56.336,-0.0004188,-4203.7,0.27246
14198,7.0723,0.90909,0,0.00041994,4196.5,0.00014183,0.014695,0.00013307,-65.798,-0.00042102,-4229,0.2663
14199,7.1641,0.90909,0.05,1.0287e-06,10.279,7.8989e-07,5.9349,-4.5508e-12,7.3948e-06,-7.8987e-07,-5.9348,0.27292
14200,7.1641,0.63636,0,0.000419,4187.2,0.00014042,0.02101,0.00013464,-43.37,-0.00041973,-4208.7,0.27141
14201,7.0723,0.72727,0,0.0004211,4208.1,0.00014156,0.021942,0.00013456,-52.544,-0.00042197,-4234.1,0.26529
14202,7.1641,0.72727,0.05,1.0268e-06,10.26,7.8843e-07,5.924,-6.3209e-12,7.6878e-06,-7.8841e-07,-5.9238,0.27192
14203,7.1641,0.45455,0,0.00042019,4199,0.00014014,0.048024,0.00013616,-29.879,-0.00042069,-4213.8,0.27027
14204,7.0723,0.54545,0,0.0004223,4220.1,0.00014128,0.023464,0.00013612,-38.721,-0.00042295,-4239.3,0.26419
14205,7.1641,0.54545,0.05,1.0224e-06,10.217,7.8508e-07,5.8988,-4.4556e-12,8.957e-06,-7.8507e-07,-5.8987,0.27082
14206,7.1641,0.27273,0,0.00042144,4211.5,0.00013986,0.068953,0.00013775,-15.75,-0.0004217,-4219.3,0.26904
14207,7.0723,0.36364,0,0.00042356,4232.6,0.00014099,0.081308,0.00013773,-24.377,-0.00042397,-4244.7,0.263
14208,7.1641,0.36364,0.05,9.8625e-07,9.8556,7.5732e-07,5.6903,-2.676e-12,1.0617e-05,-7.5731e-07,-5.69,0.26964
14209,7.0723,0.18182,0,0.00042491,4246.1,0.00014069,0.1073,0.00013944,-9.2816,-0.00042506,-4250.7,0.26172
14210,7.1641,0.18182,0.05,4.8293e-07,4.826,3.7084e-07,2.7864,2.2255e-12,3.3541e-05,-3.7083e-07,-2.7862,0.26836
14211,7.1641,0.090909,0,0.0004224,4221.1,0.0001396,0.12527,0.00013905,-3.9987,-0.00042247,-4223,0.26772
14212,6.9804,5.7273,0,0.00042702,4267.2,0.00014181,0.074897,0.00013942,-17.901,-0.00042732,-4276.1,0.25578
14213,6.8886,5.8182,0,0.00043055,4302.5,0.00014263,0.10942,0.00014117,-10.881,-0.00043073,-4307.9,0.2486
14214,6.9804,5.8182,0.05,5.275e-07,5.2713,4.0505e-07,3.0434,2.0026e-12,-2.2002e-05,-4.0505e-07,-3.0435,0.2551
14215,6.9804,5.9091,0,0.00042809,4278,0.00014152,0.12321,0.00014086,-4.8862,-0.00042817,-4280.4,0.25445
14216,6.9804,5.5455,0,0.00042567,4253.8,0.00014212,0.053018,0.00013769,-33.223,-0.00042623,-4270.3,0.25702
14217,6.8886,5.6364,0,0.00042911,4288.1,0.00014296,0.08949,0.00013932,-27.213,-0.00042956,-4301.6,0.24989
14218,6.9804,5.6364,0.05,9.9954e-07,9.9885,7.6752e-07,5.7668,4.4261e-12,-8.152e-06,-7.6753e-07,-5.767,0.25638
14219,6.9804,5.3636,0,0.00042439,4241,0.00014242,0.023211,0.00013604,-47.899,-0.00042519,-4264.7,0.25816
14220,6.8886,5.4545,0,0.00042775,4274.6,0.00014328,0.025999,0.00013757,-42.806,-0.00042846,-4295.8,0.25108
14221,6.9804,5.4545,0.05,1.0338e-06,10.33,7.9379e-07,5.9642,6.1926e-12,-5.409e-06,-7.938e-07,-5.9643,0.25757
14222,6.9804,5.1818,0,0.00042317,4228.7,0.00014271,0.018889,0.00013445,-62.009,-0.00042419,-4259.4,0.25922
14223,6.8886,5.2727,0,0.00042644,4261.5,0.00014358,0.024141,0.00013588,-57.844,-0.0004274,-4290.1,0.25219
14224,6.9804,5.2727,0.05,1.038e-06,10.373,7.9708e-07,5.9889,9.1707e-13,-8.3468e-06,-7.9709e-07,-5.989,0.25867
14225,6.9804,5,0,0.00042199,4217,0.00014298,0.013295,0.00013293,-75.473,-0.00042323,-4254.2,0.26019
14226,6.8886,5.0909,0,0.00042519,4249,0.00014388,0.016067,0.00013426,-72.268,-0.00042637,-4284.7,0.2532
14227,6.9804,5.0909,0.05,1.04e-06,10.392,7.9855e-07,6,2.916e-12,-4.7598e-06,-7.9855e-07,-6.0001,0.25969
14228,6.9804,4.8182,0,0.00042089,4206,0.00014324,0.009743,0.0001315,-88.18,-0.00042232,-4249.3,0.26107
14229,6.8886,4.9091,0,0.000424,4237.1,0.00014416,0.01204,0.00013272,-85.96,-0.0004254,-4279.4,0.25413
14230,6.9804,4.9091,0.05,1.0413e-06,10.406,7.9962e-07,6.008,2.7979e-12,-6.4169e-06,-7.9962e-07,-6.0081,0.26061
14231,6.9804,4.6364,0,0.00041985,4195.6,0.00014348,0.0067246,0.00013016,-100.03,-0.00042147,-4244.8,0.26186
14232,6.8886,4.7273,0,0.00042289,4225.9,0.00014442,0.0084202,0.00013127,-98.812,-0.00042448,-4274.5,0.25497
14233,6.9804,4.7273,0.05,1.0424e-06,10.416,8.0041e-07,6.0139,4.6377e-12,-4.5734e-06,-8.0041e-07,-6.014,0.26145
14234,6.9804,4.4545,0,0.00041891,4186.2,0.0001437,0.0042728,0.00012893,-110.92,-0.00042068,-4240.5,0.26257
14235,6.8886,4.5455,0,0.00042185,4215.6,0.00014466,0.005588,0.00012992,-110.72,-0.00042363,-4269.9,0.25572
14236,6.9804,4.5455,0.05,1.0431e-06,10.424,8.0095e-07,6.018,3.0104e-12,-7.0108e-06,-8.0096e-07,-6.0182,0.2622
14237,6.9804,4.2727,0,0.00041805,4177.6,0.0001439,0.0022091,0.00012782,-120.77,-0.00041997,-4236.7,0.26319
14238,6.8886,4.3636,0,0.00042091,4206.2,0.00014488,0.0031976,0.0001287,-121.57,-0.00042285,-4265.7,0.25639
14239,6.9804,4.3636,0.05,1.0435e-06,10.428,8.0131e-07,6.0206,3.1609e-12,-8.1305e-06,-8.0131e-07,-6.0208,0.26286
14240,6.9804,4.0909,0,0.00041729,4170,0.00014407,0.00048502,0.00012684,-129.48,-0.00041934,-4233.3,0.26373
14241,6.8886,4.1818,0,0.00042007,4197.8,0.00014507,0.0012037,0.0001276,-131.29,-0.00042215,-4261.9,0.25697
14242,6.9804,4.1818,0.05,1.0438e-06,10.431,8.015e-07,6.0222,1.3049e-12,-3.9805e-06,-8.0151e-07,-6.0222,0.26344
14243,6.9804,3.9091,0,0.00041664,4163.5,0.00014422,-0.0009422,0.00012599,-136.99,-0.0004188,-4230.3,0.26418
14244,6.8886,4,0,0.00041933,4190.4,0.00014525,-0.0004591,0.00012664,-139.79,-0.00042153,-4258.5,0.25746
14245,6.9804,4,0.05,1.0439e-06,10.432,8.0158e-07,6.0228,1.3732e-12,-3.2166e-06,-8.0159e-07,-6.0228,0.26394
14246,6.9804,3.7273,0,0.00041609,4158.1,0.00014434,-0.0020931,0.00012528,-143.23,-0.00041835,-4227.8,0.26455
14247,6.8886,3.8182,0,0.0004187,4184.2,0.00014539,-0.0018195,0.00012583,-146.99,-0.00042101,-4255.7,0.25788
14248,6.9804,3.8182,0.05,1.0439e-06,10.432,8.0158e-07,6.0228,1.4981e-12,-2.317e-06,-8.0158e-07,-6.0228,0.26435
14249,6.9804,3.5455,0,0.00041567,4153.8,0.00014444,-0.0029794,0.00012473,-148.13,-0.00041799,-4225.9,0.26484
14250,6.8886,3.6364,0,0.0004182,4179.1,0.00014551,-0.0028948,0.00012517,-152.83,-0.00042059,-4253.4,0.25821
14251,6.9804,3.6364,0.05,1.0438e-06,10.431,8.0154e-07,6.0225,-2.6573e-13,-3.309e-09,-8.0154e-07,-6.0225,0.26468
14252,6.9804,3.3636,0,0.00041536,4150.7,0.00014451,-0.0036087,0.00012433,-151.67,-0.00041773,-4224.5,0.26505
14253,6.8886,3.4545,0,0.00041781,4175.3,0.00014559,-0.003694,0.00012467,-157.26,-0.00042027,-4251.7,0.25845
14254,6.9804,3.4545,0.05,1.0438e-06,10.43,8.0148e-07,6.022,-1.8606e-13,-1.4058e-06,-8.0148e-07,-6.022,0.26493
14255,6.9804,3.1818,0,0.00041517,4148.9,0.00014456,-0.0039857,0.00012408,-153.81,-0.00041758,-4223.6,0.26517
14256,6.8886,3.2727,0,0.00041756,4172.7,0.00014565,-0.0042254,0.00012433,-160.23,-0.00042005,-4250.5,0.25862
14257,6.9804,3.2727,0.05,1.0437e-06,10.43,8.0143e-07,6.0216,-1.9319e-12,-8.5581e-07,-8.0143e-07,-6.0216,0.26509
14258,6.9804,3,0,0.00041511,4148.3,0.00014457,-0.0041113,0.000124,-154.52,-0.00041752,-4223.4,0.26521
14259,6.8886,3.0909,0,0.00041743,4171.4,0.00014568,-0.0044907,0.00012416,-161.72,-0.00041994,-4249.9,0.2587
14260,6.9804,3.0909,0.05,1.0437e-06,10.429,8.014e-07,6.0214,-3.8652e-14,-2.9041e-07,-8.014e-07,-6.0214,0.26517
14261,6.9804,2.8182,0,0.00041517,4148.9,0.00014456,-0.0039858,0.00012408,-153.81,-0.00041758,-4223.6,0.26517
14262,6.8886,2.9091,0,0.00041743,4171.4,0.00014568,-0.0044907,0.00012416,-161.72,-0.00041994,-4249.9,0.2587
14263,6.9804,2.9091,0.05,1.0437e-06,10.429,8.0139e-07,6.0214,-1.7802e-12,2.8957e-07,-8.014e-07,-6.0214,0.26517
14264,6.9804,2.6364,0,0.00041536,4150.7,0.00014451,-0.0036086,0.00012433,-151.67,-0.00041773,-4224.5,0.26505
14265,6.8886,2.7273,0,0.00041756,4172.7,0.00014565,-0.0042253,0.00012433,-160.23,-0.00042005,-4250.5,0.25862
14266,6.9804,2.7273,0.05,1.0437e-06,10.43,8.0142e-07,6.0216,-1.7032e-12,2.7683e-06,-8.0143e-07,-6.0216,0.26509
14267,6.9804,2.4545,0,0.00041567,4153.8,0.00014444,-0.0029791,0.00012473,-148.13,-0.00041799,-4225.9,0.26484
14268,6.8886,2.5455,0,0.00041781,4175.3,0.00014559,-0.0036937,0.00012467,-157.26,-0.00042027,-4251.7,0.25845
14269,6.9804,2.5455,0.05,1.0438e-06,10.43,8.0148e-07,6.022,1.8672e-13,1.4058e-06,-8.0148e-07,-6.022,0.26493
14270,6.9804,2.2727,0,0.00041609,4158.1,0.00014434,-0.0020929,0.00012528,-143.23,-0.00041835,-4227.8,0.26455
14271,6.8886,2.3636,0,0.0004182,4179.1,0.00014551,-0.0028946,0.00012517,-152.83,-0.00042059,-4253.4,0.25821
14272,6.9804,2.3636,0.05,1.0438e-06,10.431,8.0154e-07,6.0225,-1.5306e-12,1.9027e-06,-8.0154e-07,-6.0225,0.26468
14273,6.9804,2.0909,0,0.00041664,4163.5,0.00014422,-0.00094182,0.00012599,-136.99,-0.0004188,-4230.3,0.26418
14274,6.8886,2.1818,0,0.0004187,4184.2,0.00014539,-0.001819,0.00012583,-146.99,-0.00042101,-4255.7,0.25788
14275,6.9804,2.1818,0.05,1.0439e-06,10.432,8.0159e-07,6.0228,-1.4422e-12,4.6409e-06,-8.0158e-07,-6.0228,0.26435
14276,6.9804,1.9091,0,0.00041729,4170,0.00014407,0.00048561,0.00012684,-129.48,-0.00041934,-4233.3,0.26373
14277,6.8886,2,0,0.00041933,4190.4,0.00014525,-0.00045863,0.00012664,-139.79,-0.00042153,-4258.5,0.25746
14278,6.9804,2,0.05,1.0439e-06,10.432,8.0158e-07,6.0228,-3.1633e-12,3.3571e-06,-8.0158e-07,-6.0228,0.26394
14279,6.9804,1.7273,0,0.00041805,4177.6,0.0001439,0.0022099,0.00012782,-120.77,-0.00041997,-4236.7,0.26319
14280,6.8886,1.8182,0,0.00042007,4197.8,0.00014507,0.0012043,0.0001276,-131.29,-0.00042215,-4261.9,0.25697
14281,6.9804,1.8182,0.05,1.0438e-06,10.431,8.0151e-07,6.0222,-1.2094e-12,4.619e-06,-8.015e-07,-6.0222,0.26344
14282,6.9804,1.5455,0,0.00041891,4186.2,0.0001437,0.0042735,0.00012893,-110.92,-0.00042068,-4240.5,0.26257
14283,6.8886,1.6364,0,0.00042091,4206.2,0.00014488,0.0031983,0.0001287,-121.57,-0.00042285,-4265.7,0.25639
14284,6.9804,1.6364,0.05,1.0435e-06,10.428,8.0131e-07,6.0208,-3.0389e-12,7.0703e-06,-8.0131e-07,-6.0206,0.26286
14285,6.9804,1.3636,0,0.00041985,4195.6,0.00014348,0.0067252,0.00013016,-100.03,-0.00042147,-4244.8,0.26186
14286,6.8886,1.4545,0,0.00042185,4215.6,0.00014466,0.0055889,0.00012992,-110.72,-0.00042363,-4269.9,0.25572
14287,6.9804,1.4545,0.05,1.0431e-06,10.424,8.0096e-07,6.0182,-4.792e-12,8.2652e-06,-8.0095e-07,-6.018,0.2622
14288,6.9804,1.1818,0,0.00042089,4206,0.00014324,0.0097439,0.0001315,-88.18,-0.00042232,-4249.3,0.26107
14289,6.8886,1.2727,0,0.00042289,4225.9,0.00014442,0.0084208,0.00013127,-98.812,-0.00042448,-4274.5,0.25497
14290,6.9804,1.2727,0.05,1.0424e-06,10.416,8.0041e-07,6.014,-6.3238e-12,6.3538e-06,-8.0041e-07,-6.0139,0.26145
14291,6.9804,1,0,0.00042199,4217,0.00014298,0.013296,0.00013293,-75.473,-0.00042323,-4254.2,0.26019
14292,6.8886,1.0909,0,0.000424,4237.1,0.00014416,0.012041,0.00013272,-85.96,-0.0004254,-4279.4,0.25413
14293,6.9804,1.0909,0.05,1.0413e-06,10.406,7.9963e-07,6.0081,-4.4451e-12,8.2867e-06,-7.9962e-07,-6.008,0.26061
14294,6.9804,0.81818,0,0.00042317,4228.7,0.00014271,0.018891,0.00013445,-62.009,-0.00042419,-4259.4,0.25922
14295,6.8886,0.90909,0,0.00042519,4249,0.00014388,0.016069,0.00013426,-72.268,-0.00042637,-4284.6,0.2532
14296,6.9804,0.90909,0.05,1.04e-06,10.392,7.9856e-07,6.0001,-5.9801e-12,9.7016e-06,-7.9855e-07,-5.9999,0.25969
14297,6.9804,0.63636,0,0.00042439,4241,0.00014242,0.023211,0.00013604,-47.899,-0.00042519,-4264.7,0.25816
14298,6.8886,0.72727,0,0.00042644,4261.5,0.00014358,0.024142,0.00013588,-57.844,-0.0004274,-4290.1,0.25219
14299,6.9804,0.72727,0.05,1.038e-06,10.373,7.9709e-07,5.989,-1.0004e-12,9.2673e-06,-7.9708e-07,-5.9889,0.25867
14300,6.9804,0.45455,0,0.00042567,4253.8,0.00014212,0.053019,0.00013769,-33.223,-0.00042623,-4270.3,0.25702
14301,6.8886,0.54545,0,0.00042775,4274.6,0.00014328,0.026,0.00013757,-42.806,-0.00042846,-4295.8,0.25108
14302,6.9804,0.54545,0.05,1.0338e-06,10.33,7.938e-07,5.9644,-6.1926e-12,1.1945e-05,-7.9379e-07,-5.9642,0.25757
14303,6.9804,0.27273,0,0.00042702,4267.2,0.00014181,0.074899,0.00013942,-17.901,-0.00042732,-4276.1,0.25578
14304,6.8886,0.36364,0,0.00042911,4288.1,0.00014296,0.089491,0.00013932,-27.213,-0.00042956,-4301.6,0.24989
14305,6.9804,0.36364,0.05,9.9954e-07,9.9885,7.6753e-07,5.767,-4.272e-12,9.5944e-06,-7.6752e-07,-5.7668,0.25638
14306,6.8886,0.18182,0,0.00043055,4302.5,0.00014263,0.10942,0.00014117,-10.881,-0.00043073,-4307.9,0.2486
14307,6.9804,0.18182,0.05,5.275e-07,5.2713,4.0506e-07,3.0435,-2.205e-12,4.2419e-05,-4.0505e-07,-3.0433,0.2551
14308,6.9804,0.090909,0,0.00042809,4278,0.00014152,0.12321,0.00014086,-4.8862,-0.00042817,-4280.4,0.25445
14309,6.7967,5.7273,0,0.00043263,4323.3,0.00014377,0.081595,0.00014108,-20.184,-0.00043297,-4333.4,0.24281
14310,6.7049,5.8182,0,0.00043623,4359.3,0.00014459,0.11345,0.0001429,-12.565,-0.00043644,-4365.5,0.23577
14311,6.7967,5.8182,0.05,5.7578e-07,5.7538,4.4212e-07,3.3219,-2.2409e-13,-3.2001e-05,-4.4213e-07,-3.322,0.24212
14312,6.7967,5.9091,0,0.00043382,4335.2,0.00014346,0.12376,0.00014267,-5.8202,-0.00043392,-4338.1,0.24147
14313,6.7967,5.5455,0,0.00043118,4308.9,0.00014411,0.058457,0.00013921,-36.798,-0.0004318,-4327.1,0.24405
14314,6.7049,5.6364,0,0.00043468,4343.8,0.00014495,0.098391,0.00014091,-30.235,-0.00043519,-4358.8,0.23707
14315,6.7967,5.6364,0.05,1.0139e-06,10.132,7.7854e-07,5.8496,4.2746e-12,-6.9838e-06,-7.7855e-07,-5.8498,0.24341
14316,6.7967,5.3636,0,0.0004298,4295,0.00014444,0.025621,0.00013742,-52.753,-0.00043067,-4321.2,0.2452
14317,6.7049,5.4545,0,0.00043322,4329.2,0.0001453,0.028773,0.00013901,-47.179,-0.000434,-4352.6,0.23827
14318,6.7967,5.4545,0.05,1.046e-06,10.453,8.0319e-07,6.0348,4.2483e-12,-6.3623e-06,-8.0319e-07,-6.0349,0.24461
14319,6.7967,5.1818,0,0.00042847,4281.7,0.00014476,0.020726,0.00013569,-68.104,-0.00042959,-4315.4,0.24627
14320,6.7049,5.2727,0,0.00043181,4315.1,0.00014563,0.026542,0.00013717,-63.531,-0.00043285,-4346.5,0.23938
14321,6.7967,5.2727,0.05,1.0502e-06,10.495,8.064e-07,6.059,4.2855e-12,-7.7803e-06,-8.0641e-07,-6.0591,0.24572
14322,6.7967,5,0,0.0004272,4269.1,0.00014506,0.014485,0.00013404,-82.756,-0.00042855,-4309.8,0.24724
14323,6.7049,5.0909,0,0.00043045,4301.5,0.00014596,0.017572,0.00013541,-79.222,-0.00043174,-4340.6,0.2404
14324,6.7967,5.0909,0.05,1.0521e-06,10.514,8.0788e-07,6.07,-8.0957e-13,-7.3774e-06,-8.0788e-07,-6.0702,0.24674
14325,6.7967,4.8182,0,0.000426,4257.1,0.00014534,0.010511,0.00013248,-96.592,-0.00042756,-4304.6,0.24812
14326,6.7049,4.9091,0,0.00042916,4288.7,0.00014626,0.013066,0.00013373,-94.125,-0.00043069,-4334.9,0.24133
14327,6.7967,4.9091,0.05,1.0535e-06,10.527,8.0892e-07,6.0779,4.4543e-12,-6.3085e-06,-8.0893e-07,-6.078,0.24766
14328,6.7967,4.6364,0,0.00042488,4245.9,0.0001456,0.0071422,0.00013103,-109.5,-0.00042664,-4299.6,0.24892
14329,6.7049,4.7273,0,0.00042795,4276.6,0.00014655,0.0090307,0.00013216,-108.12,-0.00042969,-4329.6,0.24217
14330,6.7967,4.7273,0.05,1.0544e-06,10.537,8.0966e-07,6.0834,-8.6823e-13,-7.2833e-06,-8.0967e-07,-6.0836,0.2485
14331,6.7967,4.4545,0,0.00042386,4235.6,0.00014584,0.0044084,0.00012969,-121.37,-0.00042579,-4295,0.24963
14332,6.7049,4.5455,0,0.00042683,4265.4,0.00014681,0.0058749,0.00013069,-121.09,-0.00042876,-4324.6,0.24292
14333,6.7967,4.5455,0.05,1.055e-06,10.543,8.1014e-07,6.0871,-5.4895e-13,-6.4409e-06,-8.1015e-07,-6.0872,0.24926
14334,6.7967,4.2727,0,0.00042293,4226.4,0.00014606,0.0021105,0.00012848,-132.1,-0.00042502,-4290.9,0.25025
14335,6.7049,4.3636,0,0.00042581,4255.2,0.00014705,0.0032155,0.00012936,-132.92,-0.00042792,-4320.1,0.24359
14336,6.7967,4.3636,0.05,1.0554e-06,10.547,8.1041e-07,6.0891,1.1989e-12,-3.3072e-06,-8.1042e-07,-6.0891,0.24993
14337,6.7967,4.0909,0,0.00042211,4218.1,0.00014625,0.00019264,0.0001274,-141.6,-0.00042434,-4287.2,0.25079
14338,6.7049,4.1818,0,0.0004249,4246,0.00014726,0.00099905,0.00012816,-143.52,-0.00042716,-4316,0.24417
14339,6.7967,4.1818,0.05,1.0555e-06,10.548,8.1052e-07,6.0899,1.3086e-12,-3.2848e-06,-8.1052e-07,-6.0899,0.25051
14340,6.7967,3.9091,0,0.0004214,4211.1,0.00014641,-0.0013934,0.00012648,-149.79,-0.00042374,-4284,0.25125
14341,6.7049,4,0,0.0004241,4238,0.00014745,-0.00084744,0.00012712,-152.78,-0.00042649,-4312.4,0.24467
14342,6.7967,4,0.05,1.0555e-06,10.548,8.1051e-07,6.0898,1.412e-12,-2.9366e-06,-8.1051e-07,-6.0898,0.251
14343,6.7967,3.7273,0,0.00042081,4205.2,0.00014655,-0.0026715,0.00012571,-156.6,-0.00042325,-4281.3,0.25162
14344,6.7049,3.8182,0,0.00042342,4231.3,0.00014761,-0.002357,0.00012623,-160.63,-0.00042592,-4309.3,0.24509
14345,6.7967,3.8182,0.05,1.0554e-06,10.547,8.1041e-07,6.0891,3.187e-12,-3.0077e-06,-8.1042e-07,-6.0892,0.25142
14346,6.7967,3.5455,0,0.00042034,4200.5,0.00014666,-0.0036553,0.0001251,-161.95,-0.00042287,-4279.2,0.25191
14347,6.7049,3.6364,0,0.00042287,4225.8,0.00014774,-0.0035494,0.00012551,-167.01,-0.00042546,-4306.8,0.24542
14348,6.7967,3.6364,0.05,1.0552e-06,10.545,8.103e-07,6.0882,-2.9091e-13,-2.3483e-06,-8.103e-07,-6.0883,0.25175
14349,6.7967,3.3636,0,0.00042001,4197.2,0.00014674,-0.0043536,0.00012467,-165.81,-0.00042259,-4277.7,0.25211
14350,6.7049,3.4545,0,0.00042245,4221.6,0.00014783,-0.0044354,0.00012497,-171.84,-0.00042511,-4304.9,0.24566
14351,6.7967,3.4545,0.05,1.0551e-06,10.544,8.1017e-07,6.0873,-2.0141e-13,-1.5158e-06,-8.1017e-07,-6.0873,0.25199
14352,6.7967,3.1818,0,0.00041981,4195.2,0.00014678,-0.0047718,0.0001244,-168.14,-0.00042242,-4276.7,0.25224
14353,6.7049,3.2727,0,0.00042217,4218.8,0.0001479,-0.005024,0.0001246,-175.08,-0.00042488,-4303.6,0.24583
14354,6.7967,3.2727,0.05,1.055e-06,10.542,8.1008e-07,6.0866,-1.2405e-13,-9.3021e-07,-8.1008e-07,-6.0866,0.25216
14355,6.7967,3,0,0.00041974,4194.5,0.0001468,-0.004911,0.00012432,-168.92,-0.00042236,-4276.4,0.25228
14356,6.7049,3.0909,0,0.00042203,4217.4,0.00014793,-0.0053181,0.00012441,-176.71,-0.00042476,-4303,0.24591
14357,6.7967,3.0909,0.05,1.0549e-06,10.542,8.1002e-07,6.0862,-1.8605e-12,-3.1401e-07,-8.1002e-07,-6.0862,0.25224
14358,6.7967,2.8182,0,0.00041981,4195.2,0.00014678,-0.0047716,0.0001244,-168.14,-0.00042242,-4276.7,0.25224
14359,6.7049,2.9091,0,0.00042203,4217.4,0.00014793,-0.0053181,0.00012441,-176.71,-0.00042476,-4303,0.24591
14360,6.7967,2.9091,0.05,1.0549e-06,10.542,8.1003e-07,6.0862,-1.7763e-12,3.1401e-07,-8.1002e-07,-6.0862,0.25224
14361,6.7967,2.6364,0,0.00042001,4197.2,0.00014674,-0.0043534,0.00012467,-165.81,-0.00042259,-4277.7,0.25211
14362,6.7049,2.7273,0,0.00042217,4218.8,0.0001479,-0.0050237,0.0001246,-175.08,-0.00042488,-4303.6,0.24583
14363,6.7967,2.7273,0.05,1.055e-06,10.542,8.1008e-07,6.0866,-1.6937e-12,9.8652e-07,-8.1008e-07,-6.0866,0.25216
14364,6.7967,2.4545,0,0.00042034,4200.5,0.00014666,-0.0036552,0.0001251,-161.95,-0.00042287,-4279.2,0.25191
14365,6.7049,2.5455,0,0.00042245,4221.6,0.00014783,-0.0044352,0.00012497,-171.84,-0.00042511,-4304.9,0.24566
14366,6.7967,2.5455,0.05,1.0551e-06,10.544,8.1017e-07,6.0874,-1.6123e-12,1.6764e-06,-8.1017e-07,-6.0873,0.25199
14367,6.7967,2.2727,0,0.00042081,4205.2,0.00014655,-0.0026711,0.00012571,-156.6,-0.00042325,-4281.3,0.25162
14368,6.7049,2.3636,0,0.00042287,4225.8,0.00014774,-0.0035492,0.00012551,-167.01,-0.00042546,-4306.8,0.24542
14369,6.7967,2.3636,0.05,1.0552e-06,10.545,8.103e-07,6.0883,3.1062e-13,2.6541e-06,-8.1029e-07,-6.0882,0.25175
14370,6.7967,2.0909,0,0.0004214,4211.1,0.00014641,-0.0013929,0.00012648,-149.79,-0.00042374,-4284,0.25125
14371,6.7049,2.1818,0,0.00042342,4231.3,0.00014761,-0.0023564,0.00012623,-160.63,-0.00042592,-4309.3,0.24509
14372,6.7967,2.1818,0.05,1.0554e-06,10.547,8.1042e-07,6.0892,-3.187e-12,3.4878e-06,-8.1041e-07,-6.0891,0.25142
14373,6.7967,1.9091,0,0.00042211,4218.1,0.00014625,0.00019314,0.0001274,-141.6,-0.00042434,-4287.2,0.25079
14374,6.7049,2,0,0.0004241,4238,0.00014745,-0.00084694,0.00012712,-152.78,-0.00042649,-4312.4,0.24467
14375,6.7967,2,0.05,1.0555e-06,10.548,8.1051e-07,6.0899,-3.1272e-12,6.1638e-06,-8.105e-07,-6.0898,0.251
14376,6.7967,1.7273,0,0.00042293,4226.4,0.00014606,0.002111,0.00012848,-132.1,-0.00042502,-4290.9,0.25025
14377,6.7049,1.8182,0,0.0004249,4246,0.00014726,0.00099943,0.00012816,-143.52,-0.00042716,-4316,0.24417
14378,6.7967,1.8182,0.05,1.0555e-06,10.548,8.1052e-07,6.09,-1.2527e-12,8.9169e-06,-8.1052e-07,-6.0899,0.25051
14379,6.7967,1.5455,0,0.00042386,4235.6,0.00014584,0.0044091,0.00012969,-121.37,-0.00042579,-4295,0.24963
14380,6.7049,1.6364,0,0.00042581,4255.2,0.00014705,0.0032159,0.00012936,-132.92,-0.00042792,-4320.1,0.24359
14381,6.7967,1.6364,0.05,1.0554e-06,10.547,8.1042e-07,6.0892,-1.1196e-12,4.5051e-06,-8.1041e-07,-6.0891,0.24993
14382,6.7967,1.3636,0,0.00042488,4245.9,0.0001456,0.007143,0.00013103,-109.5,-0.00042664,-4299.6,0.24892
14383,6.7049,1.4545,0,0.00042683,4265.4,0.00014681,0.0058759,0.00013069,-121.09,-0.00042876,-4324.6,0.24292
14384,6.7967,1.4545,0.05,1.055e-06,10.543,8.1015e-07,6.0872,8.0264e-13,7.2986e-06,-8.1014e-07,-6.0871,0.24926
14385,6.7967,1.1818,0,0.000426,4257.1,0.00014534,0.010512,0.00013248,-96.592,-0.00042756,-4304.6,0.24812
14386,6.7049,1.2727,0,0.00042795,4276.6,0.00014655,0.0090315,0.00013216,-108.12,-0.00042969,-4329.6,0.24217
14387,6.7967,1.2727,0.05,1.0544e-06,10.537,8.0967e-07,6.0836,8.6823e-13,8.0512e-06,-8.0966e-07,-6.0834,0.2485
14388,6.7967,1,0,0.0004272,4269.1,0.00014506,0.014486,0.00013404,-82.756,-0.00042855,-4309.8,0.24724
14389,6.7049,1.0909,0,0.00042916,4288.7,0.00014626,0.013066,0.00013373,-94.125,-0.00043069,-4334.9,0.24133
14390,6.7967,1.0909,0.05,1.0535e-06,10.527,8.0893e-07,6.078,-6.1146e-12,8.3231e-06,-8.0892e-07,-6.0779,0.24766
14391,6.7967,0.81818,0,0.00042847,4281.7,0.00014476,0.020727,0.00013569,-68.104,-0.00042959,-4315.4,0.24627
14392,6.7049,0.90909,0,0.00043045,4301.5,0.00014596,0.017574,0.00013541,-79.222,-0.00043174,-4340.6,0.2404
14393,6.7967,0.90909,0.05,1.0521e-06,10.514,8.0789e-07,6.0702,-6.7401e-13,1.0167e-05,-8.0788e-07,-6.07,0.24674
14394,6.7967,0.63636,0,0.0004298,4295,0.00014444,0.025621,0.00013742,-52.753,-0.00043067,-4321.2,0.2452
14395,6.7049,0.72727,0,0.00043181,4315.1,0.00014563,0.026543,0.00013717,-63.531,-0.00043285,-4346.5,0.23938
14396,6.7967,0.72727,0.05,1.0502e-06,10.495,8.0641e-07,6.0591,-5.8829e-12,1.1362e-05,-8.064e-07,-6.0589,0.24572
14397,6.7967,0.45455,0,0.00043118,4308.9,0.00014411,0.058457,0.00013921,-36.798,-0.0004318,-4327.1,0.24405
14398,6.7049,0.54545,0,0.00043322,4329.2,0.0001453,0.028773,0.00013901,-47.179,-0.000434,-4352.6,0.23827
14399,6.7967,0.54545,0.05,1.046e-06,10.453,8.0319e-07,6.0349,-4.2483e-12,1.094e-05,-8.0319e-07,-6.0348,0.24461
14400,6.7967,0.27273,0,0.00043263,4323.3,0.00014377,0.081597,0.00014108,-20.184,-0.00043297,-4333.4,0.24281
14401,6.7049,0.36364,0,0.00043468,4343.8,0.00014495,0.098393,0.00014091,-30.235,-0.00043519,-4358.8,0.23707
14402,6.7967,0.36364,0.05,1.0139e-06,10.132,7.7855e-07,5.8498,-6.004e-12,8.1172e-06,-7.7854e-07,-5.8496,0.24341
14403,6.7049,0.18182,0,0.00043623,4359.3,0.00014459,0.11345,0.0001429,-12.565,-0.00043644,-4365.5,0.23577
14404,6.7967,0.18182,0.05,5.7578e-07,5.7538,4.4213e-07,3.3221,-6.7197e-13,4.4128e-05,-4.4212e-07,-3.3219,0.24212
14405,6.7967,0.090909,0,0.00043382,4335.2,0.00014346,0.12377,0.00014267,-5.8202,-0.00043392,-4338.1,0.24147
14406,6.613,5.7273,0,0.00043828,4379.8,0.00014576,0.089098,0.00014274,-22.604,-0.00043866,-4391,0.23013
14407,6.5212,5.8182,0,0.00044196,4416.5,0.00014656,0.11923,0.00014464,-14.333,-0.0004422,-4423.6,0.22323
14408,6.613,5.8182,0.05,6.2806e-07,6.2763,4.8227e-07,3.6235,3.2305e-12,-3.2527e-05,-4.8228e-07,-3.6237,0.22944
14409,6.613,5.9091,0,0.0004396,4392.9,0.00014541,0.12622,0.00014449,-6.8001,-0.00043971,-4396.3,0.22878
14410,6.613,5.5455,0,0.00043672,4364.2,0.00014613,0.064372,0.00014072,-40.617,-0.00043739,-4384.3,0.23138
14411,6.5212,5.6364,0,0.00044029,4399.9,0.00014696,0.10808,0.00014249,-33.454,-0.00044085,-4416.4,0.22454
14412,6.613,5.6364,0.05,1.0294e-06,10.287,7.9046e-07,5.9392,2.3895e-12,-8.0581e-06,-7.9047e-07,-5.9393,0.23073
14413,6.613,5.3636,0,0.00043522,4349.2,0.00014649,0.02825,0.00013877,-57.957,-0.00043618,-4377.9,0.23254
14414,6.5212,5.4545,0,0.00043871,4384.1,0.00014734,0.031808,0.00014043,-51.858,-0.00043957,-4409.7,0.22574
14415,6.613,5.4545,0.05,1.0592e-06,10.585,8.1332e-07,6.1109,2.4537e-12,-1.0564e-05,-8.1334e-07,-6.1111,0.23194
14416,6.613,5.1818,0,0.00043378,4334.8,0.00014683,0.022729,0.00013689,-74.649,-0.00043501,-4371.7,0.2336
14417,6.5212,5.2727,0,0.00043718,4368.8,0.00014771,0.029162,0.00013844,-69.632,-0.00043832,-4403.2,0.22686
14418,6.613,5.2727,0.05,1.0633e-06,10.625,8.1646e-07,6.1345,2.4398e-12,-8.1037e-06,-8.1647e-07,-6.1346,0.23305
14419,6.613,5,0,0.00043241,4321.1,0.00014716,0.015787,0.0001351,-90.59,-0.00043388,-4365.7,0.23458
14420,6.5212,5.0909,0,0.00043571,4354.1,0.00014806,0.01922,0.00013652,-86.697,-0.00043712,-4396.8,0.22788
14421,6.613,5.0909,0.05,1.0652e-06,10.645,8.1793e-07,6.1456,4.3156e-12,-7.4259e-06,-8.1794e-07,-6.1457,0.23407
14422,6.613,4.8182,0,0.00043111,4308.1,0.00014747,0.011355,0.00013341,-105.65,-0.00043281,-4360,0.23547
14423,6.5212,4.9091,0,0.00043432,4340.2,0.00014839,0.014192,0.00013469,-102.91,-0.00043598,-4390.7,0.22882
14424,6.613,4.9091,0.05,1.0665e-06,10.658,8.1894e-07,6.1532,8.3097e-13,-4.8898e-06,-8.1894e-07,-6.1532,0.23501
14425,6.613,4.6364,0,0.0004299,4296,0.00014776,0.0076046,0.00013182,-119.71,-0.00043181,-4354.6,0.23627
14426,6.5212,4.7273,0,0.00043301,4327.1,0.00014871,0.0097054,0.00013298,-118.15,-0.0004349,-4385,0.22966
14427,6.613,4.7273,0.05,1.0674e-06,10.666,8.1961e-07,6.1583,-9.7199e-13,-3.6735e-06,-8.1962e-07,-6.1583,0.23585
14428,6.613,4.4545,0,0.00042879,4284.9,0.00014802,0.0045647,0.00013037,-132.64,-0.00043089,-4349.7,0.23698
14429,6.5212,4.5455,0,0.0004318,4315,0.00014899,0.0061983,0.00013139,-132.27,-0.00043389,-4379.6,0.23042
14430,6.613,4.5455,0.05,1.0679e-06,10.672,8.2001e-07,6.1612,-6.088e-13,-5.4905e-06,-8.2001e-07,-6.1613,0.23661
14431,6.613,4.2727,0,0.00042778,4274.9,0.00014826,0.0020123,0.00012905,-144.33,-0.00043005,-4345.2,0.23761
14432,6.5212,4.3636,0,0.00043069,4303.9,0.00014926,0.0032462,0.00012994,-145.16,-0.00043297,-4374.7,0.23109
14433,6.613,4.3636,0.05,1.0681e-06,10.674,8.2018e-07,6.1625,1.1174e-12,-3.7095e-06,-8.2018e-07,-6.1625,0.23727
14434,6.613,4.0909,0,0.00042689,4265.9,0.00014847,-0.00011622,0.00012788,-154.69,-0.00042931,-4341.2,0.23815
14435,6.5212,4.1818,0,0.0004297,4294,0.00014949,0.00078812,0.00012863,-156.71,-0.00043215,-4370.2,0.23167
14436,6.613,4.1818,0.05,1.0681e-06,10.674,8.2017e-07,6.1625,1.1955e-12,-4.5768e-06,-8.2018e-07,-6.1625,0.23786
14437,6.613,3.9091,0,0.00042612,4258.3,0.00014865,-0.0018751,0.00012687,-163.62,-0.00042867,-4337.7,0.2386
14438,6.5212,4,0,0.00042883,4285.3,0.0001497,-0.001258,0.0001275,-166.81,-0.00043142,-4366.3,0.23217
14439,6.613,4,0.05,1.068e-06,10.672,8.2005e-07,6.1615,-5.1405e-13,-3.9841e-06,-8.2006e-07,-6.1616,0.23836
14440,6.613,3.7273,0,0.00042548,4251.9,0.0001488,-0.0032914,0.00012603,-171.04,-0.00042813,-4334.8,0.23897
14441,6.5212,3.8182,0,0.0004281,4278,0.00014987,-0.0029296,0.00012653,-175.38,-0.00043081,-4363,0.23258
14442,6.613,3.8182,0.05,1.0677e-06,10.67,8.1986e-07,6.1601,1.4415e-12,-3.8416e-06,-8.1986e-07,-6.1602,0.23877
14443,6.613,3.5455,0,0.00042498,4246.9,0.00014891,-0.004381,0.00012537,-176.89,-0.00042771,-4332.6,0.23926
14444,6.5212,3.6364,0,0.0004275,4272,0.00015001,-0.0042493,0.00012574,-182.33,-0.00043031,-4360.3,0.23291
14445,6.613,3.6364,0.05,1.0674e-06,10.667,8.1965e-07,6.1585,-3.1706e-13,-2.5734e-06,-8.1965e-07,-6.1585,0.2391
14446,6.613,3.3636,0,0.00042462,4243.2,0.000149,-0.0051541,0.0001249,-181.1,-0.00042741,-4330.9,0.23947
14447,6.5212,3.4545,0,0.00042705,4267.5,0.00015012,-0.0052294,0.00012515,-187.6,-0.00042993,-4358.2,0.23316
14448,6.613,3.4545,0.05,1.0672e-06,10.664,8.1945e-07,6.157,-2.4009e-13,-1.6422e-06,-8.1945e-07,-6.157,0.23935
14449,6.613,3.1818,0,0.0004244,4241.1,0.00014905,-0.0056168,0.00012461,-183.65,-0.00042722,-4329.9,0.23959
14450,6.5212,3.2727,0,0.00042674,4264.5,0.00015019,-0.0058804,0.00012475,-191.14,-0.00042967,-4356.9,0.23333
14451,6.613,3.2727,0.05,1.067e-06,10.662,8.193e-07,6.1559,-1.3404e-13,-1.008e-06,-8.193e-07,-6.1559,0.23951
14452,6.613,3,0,0.00042433,4240.3,0.00014907,-0.005771,0.00012451,-184.5,-0.00042716,-4329.6,0.23963
14453,6.5212,3.0909,0,0.00042659,4263,0.00015022,-0.0062055,0.00012455,-192.92,-0.00042955,-4356.2,0.23341
14454,6.613,3.0909,0.05,1.0669e-06,10.661,8.1922e-07,6.1553,-4.4849e-14,-3.4038e-07,-8.1922e-07,-6.1553,0.2396
14455,6.613,2.8182,0,0.0004244,4241.1,0.00014905,-0.0056167,0.00012461,-183.65,-0.00042722,-4329.9,0.23959
14456,6.5212,2.9091,0,0.00042659,4263,0.00015022,-0.0062054,0.00012455,-192.92,-0.00042955,-4356.2,0.23341
14457,6.613,2.9091,0.05,1.0669e-06,10.661,8.1922e-07,6.1553,-1.7731e-12,3.4037e-07,-8.1922e-07,-6.1553,0.2396
14458,6.613,2.6364,0,0.00042462,4243.2,0.000149,-0.0051538,0.0001249,-181.1,-0.00042741,-4330.9,0.23947
14459,6.5212,2.7273,0,0.00042674,4264.5,0.00015019,-0.0058802,0.00012475,-191.14,-0.00042967,-4356.9,0.23333
14460,6.613,2.7273,0.05,1.067e-06,10.662,8.193e-07,6.1559,-3.5001e-12,1.007e-06,-8.193e-07,-6.1559,0.23951
14461,6.613,2.4545,0,0.00042498,4246.9,0.00014891,-0.0043807,0.00012537,-176.89,-0.00042771,-4332.5,0.23926
14462,6.5212,2.5455,0,0.00042705,4267.5,0.00015012,-0.0052292,0.00012515,-187.6,-0.00042993,-4358.2,0.23316
14463,6.613,2.5455,0.05,1.0672e-06,10.664,8.1946e-07,6.157,2.5125e-13,1.6454e-06,-8.1945e-07,-6.157,0.23935
14464,6.613,2.2727,0,0.00042548,4251.9,0.0001488,-0.0032911,0.00012603,-171.04,-0.00042813,-4334.8,0.23897
14465,6.5212,2.3636,0,0.0004275,4272,0.00015001,-0.0042489,0.00012574,-182.33,-0.00043031,-4360.3,0.23291
14466,6.613,2.3636,0.05,1.0674e-06,10.667,8.1965e-07,6.1585,-3.2794e-12,2.5734e-06,-8.1964e-07,-6.1585,0.2391
14467,6.613,2.0909,0,0.00042612,4258.3,0.00014865,-0.0018746,0.00012687,-163.62,-0.00042867,-4337.7,0.2386
14468,6.5212,2.1818,0,0.0004281,4278,0.00014987,-0.0029292,0.00012653,-175.38,-0.00043081,-4363,0.23258
14469,6.613,2.1818,0.05,1.0677e-06,10.67,8.1987e-07,6.1602,-1.3692e-12,4.4142e-06,-8.1986e-07,-6.16,0.23877
14470,6.613,1.9091,0,0.00042689,4265.9,0.00014847,-0.00011585,0.00012788,-154.69,-0.00042931,-4341.2,0.23815
14471,6.5212,2,0,0.00042883,4285.3,0.0001497,-0.0012575,0.0001275,-166.81,-0.00043142,-4366.3,0.23217
14472,6.613,2,0.05,1.068e-06,10.672,8.2006e-07,6.1616,5.1405e-13,4.7973e-06,-8.2005e-07,-6.1615,0.23836
14473,6.613,1.7273,0,0.00042778,4274.9,0.00014826,0.0020126,0.00012905,-144.33,-0.00043005,-4345.2,0.23761
14474,6.5212,1.8182,0,0.0004297,4294,0.00014949,0.00078845,0.00012863,-156.71,-0.00043215,-4370.2,0.23167
14475,6.613,1.8182,0.05,1.0681e-06,10.674,8.2018e-07,6.1625,-1.1302e-12,4.5135e-06,-8.2017e-07,-6.1625,0.23786
14476,6.613,1.5455,0,0.00042879,4284.9,0.00014802,0.0045653,0.00013037,-132.64,-0.00043089,-4349.7,0.23698
14477,6.5212,1.6364,0,0.00043069,4303.9,0.00014926,0.0032467,0.00012994,-145.16,-0.00043297,-4374.7,0.23109
14478,6.613,1.6364,0.05,1.0681e-06,10.674,8.2019e-07,6.1626,-4.5973e-12,6.4699e-06,-8.2018e-07,-6.1625,0.23727
14479,6.613,1.3636,0,0.0004299,4296,0.00014776,0.0076055,0.00013182,-119.71,-0.00043181,-4354.6,0.23627
14480,6.5212,1.4545,0,0.0004318,4315,0.00014899,0.006199,0.00013139,-132.27,-0.00043389,-4379.6,0.23042
14481,6.613,1.4545,0.05,1.0679e-06,10.672,8.2002e-07,6.1613,-2.7231e-12,7.3444e-06,-8.2001e-07,-6.1612,0.23661
14482,6.613,1.1818,0,0.00043111,4308.1,0.00014747,0.011355,0.00013341,-105.65,-0.00043281,-4360,0.23547
14483,6.5212,1.2727,0,0.00043301,4327.1,0.00014871,0.0097063,0.00013298,-118.15,-0.0004349,-4385,0.22966
14484,6.613,1.2727,0.05,1.0674e-06,10.666,8.1962e-07,6.1583,9.7199e-13,4.5956e-06,-8.1961e-07,-6.1583,0.23585
14485,6.613,1,0,0.00043241,4321.1,0.00014716,0.015788,0.0001351,-90.59,-0.00043388,-4365.7,0.23458
14486,6.5212,1.0909,0,0.00043432,4340.2,0.00014839,0.014192,0.00013469,-102.91,-0.00043598,-4390.7,0.22882
14487,6.613,1.0909,0.05,1.0665e-06,10.658,8.1895e-07,6.1532,-2.4632e-12,6.7243e-06,-8.1894e-07,-6.1532,0.23501
14488,6.613,0.81818,0,0.00043378,4334.8,0.00014683,0.02273,0.00013689,-74.649,-0.00043501,-4371.7,0.2336
14489,6.5212,0.90909,0,0.00043571,4354.1,0.00014806,0.019221,0.00013652,-86.697,-0.00043712,-4396.8,0.22788
14490,6.613,0.90909,0.05,1.0652e-06,10.645,8.1794e-07,6.1457,-4.003e-12,9.2513e-06,-8.1793e-07,-6.1456,0.23407
14491,6.613,0.63636,0,0.00043522,4349.2,0.00014649,0.028251,0.00013877,-57.957,-0.00043618,-4377.9,0.23254
14492,6.5212,0.72727,0,0.00043718,4368.8,0.00014771,0.029163,0.00013844,-69.632,-0.00043832,-4403.2,0.22686
14493,6.613,0.72727,0.05,1.0633e-06,10.625,8.1647e-07,6.1347,-2.3916e-12,1.22e-05,-8.1646e-07,-6.1345,0.23305
14494,6.613,0.45455,0,0.00043672,4364.2,0.00014613,0.064373,0.00014072,-40.617,-0.00043739,-4384.3,0.23138
14495,6.5212,0.54545,0,0.00043871,4384,0.00014734,0.031808,0.00014043,-51.858,-0.00043957,-4409.7,0.22574
14496,6.613,0.54545,0.05,1.0592e-06,10.585,8.1333e-07,6.1111,-5.6681e-12,1.1743e-05,-8.1332e-07,-6.1109,0.23194
14497,6.613,0.27273,0,0.00043828,4379.8,0.00014576,0.0891,0.00014274,-22.604,-0.00043866,-4391,0.23013
14498,6.5212,0.36364,0,0.00044029,4399.9,0.00014696,0.10808,0.00014249,-33.454,-0.00044085,-4416.4,0.22454
14499,6.613,0.36364,0.05,1.0294e-06,10.287,7.9047e-07,5.9393,-2.3895e-12,1.2664e-05,-7.9046e-07,-5.9392,0.23073
14500,6.5212,0.18182,0,0.00044196,4416.5,0.00014656,0.11923,0.00014464,-14.333,-0.0004422,-4423.6,0.22323
14501,6.613,0.18182,0.05,6.2806e-07,6.2763,4.8228e-07,3.6237,-2.6984e-12,3.29e-05,-4.8227e-07,-3.6235,0.22944
14502,6.613,0.090909,0,0.0004396,4392.9,0.00014541,0.12622,0.00014449,-6.8001,-0.00043971,-4396.3,0.22878
14503,6.4293,5.7273,0,0.00044396,4436.5,0.00014776,0.097489,0.0001444,-25.167,-0.00044438,-4449,0.21774
14504,6.3375,5.8182,0,0.00044772,4474.1,0.00014856,0.12676,0.00014639,-16.186,-0.00044799,-4482.1,0.211
14505,6.4293,5.8182,0.05,6.8464e-07,6.8417,5.2572e-07,3.95,2.7722e-12,-4.228e-05,-5.2572e-07,-3.9502,0.21705
14506,6.4293,5.9091,0,0.00044541,4451,0.00014738,0.13018,0.00014632,-7.8248,-0.00044554,-4454.9,0.21639
14507,6.4293,5.5455,0,0.00044228,4419.7,0.00014817,0.070816,0.00014221,-44.694,-0.00044302,-4441.9,0.219
14508,6.3375,5.6364,0,0.00044593,4456.2,0.00014899,0.11863,0.00014407,-36.879,-0.00044654,-4474.5,0.2123
14509,6.4293,5.6364,0.05,1.0462e-06,10.455,8.0337e-07,6.0361,3.8585e-12,-1.3272e-05,-8.0337e-07,-6.0363,0.21835
14510,6.4293,5.3636,0,0.00044066,4403.6,0.00014856,0.031126,0.0001401,-63.532,-0.00044171,-4435,0.22016
14511,6.3375,5.4545,0,0.00044422,4439.1,0.0001494,0.035135,0.00014183,-56.863,-0.00044516,-4467.3,0.21352
14512,6.4293,5.4545,0.05,1.0735e-06,10.727,8.2429e-07,6.1933,-1.2161e-12,-1.5898e-05,-8.243e-07,-6.1935,0.21956
14513,6.4293,5.1818,0,0.00043911,4388,0.00014893,0.02492,0.00013806,-81.678,-0.00044044,-4428.3,0.22123
14514,6.3375,5.2727,0,0.00044257,4422.6,0.00014981,0.032026,0.00013966,-76.176,-0.00044381,-4460.2,0.21464
14515,6.4293,5.2727,0.05,1.0774e-06,10.767,8.2732e-07,6.2162,2.2249e-12,-6.3924e-06,-8.2734e-07,-6.2163,0.22068
14516,6.4293,5,0,0.00043762,4373.2,0.00014929,0.017216,0.00013611,-99.016,-0.00043922,-4421.8,0.22221
14517,6.3375,5.0909,0,0.00044098,4406.7,0.00015019,0.021027,0.00013758,-94.73,-0.00044251,-4453.3,0.21566
14518,6.4293,5.0909,0.05,1.0793e-06,10.786,8.2878e-07,6.2271,5.3186e-13,-6.7829e-06,-8.2879e-07,-6.2272,0.22171
14519,6.4293,4.8182,0,0.00043621,4359.1,0.00014963,0.012285,0.00013427,-115.4,-0.00043806,-4415.7,0.2231
14520,6.3375,4.9091,0,0.00043947,4391.7,0.00015056,0.015432,0.0001356,-112.37,-0.00044127,-4446.8,0.2166
14521,6.4293,4.9091,0.05,1.0806e-06,10.798,8.2975e-07,6.2344,8.9983e-13,-3.9293e-06,-8.2975e-07,-6.2344,0.22264
14522,6.4293,4.6364,0,0.0004349,4346,0.00014994,0.0081213,0.00013255,-130.71,-0.00043698,-4409.9,0.22391
14523,6.3375,4.7273,0,0.00043805,4377.5,0.0001509,0.010455,0.00013373,-128.95,-0.0004401,-4440.5,0.21744
14524,6.4293,4.7273,0.05,1.0814e-06,10.806,8.3034e-07,6.2388,2.5507e-12,-8.7535e-06,-8.3035e-07,-6.2389,0.22349
14525,6.4293,4.4545,0,0.0004337,4334,0.00015023,0.0047483,0.00013096,-144.79,-0.00043598,-4404.5,0.22462
14526,6.3375,4.5455,0,0.00043674,4364.4,0.00015121,0.0065659,0.000132,-144.33,-0.00043901,-4434.7,0.2182
14527,6.4293,4.5455,0.05,1.0817e-06,10.81,8.3064e-07,6.2411,-9.0136e-13,-4.0661e-06,-8.3064e-07,-6.2411,0.22424
14528,6.4293,4.2727,0,0.0004326,4323.1,0.00015049,0.0019192,0.00012953,-157.54,-0.00043507,-4399.7,0.22525
14529,6.3375,4.3636,0,0.00043554,4352.4,0.0001515,0.0032959,0.00013042,-158.37,-0.00043802,-4429.4,0.21887
14530,6.4293,4.3636,0.05,1.0818e-06,10.81,8.3068e-07,6.2414,-9.1912e-13,-5.6602e-06,-8.3069e-07,-6.2415,0.22491
14531,6.4293,4.0909,0,0.00043164,4313.4,0.00015072,-0.00043788,0.00012825,-168.83,-0.00043426,-4395.3,0.22579
14532,6.3375,4.1818,0,0.00043446,4341.6,0.00015176,0.00057512,0.000129,-170.96,-0.00043712,-4424.6,0.21946
14533,6.4293,4.1818,0.05,1.0816e-06,10.809,8.3055e-07,6.2404,4.6887e-12,-6.895e-06,-8.3055e-07,-6.2405,0.2255
14534,6.4293,3.9091,0,0.00043081,4305.1,0.00015092,-0.0023843,0.00012715,-178.57,-0.00043357,-4391.6,0.22624
14535,6.3375,4,0,0.00043352,4332.2,0.00015198,-0.0016877,0.00012776,-181.97,-0.00043633,-4420.4,0.21996
14536,6.4293,4,0.05,1.0813e-06,10.805,8.303e-07,6.2385,1.3339e-12,-3.4268e-06,-8.3029e-07,-6.2385,0.226
14537,6.4293,3.7273,0,0.00043011,4298.2,0.00015108,-0.0039508,0.00012624,-186.66,-0.00043298,-4388.5,0.22662
14538,6.3375,3.8182,0,0.00043273,4324.3,0.00015217,-0.0035353,0.00012671,-191.31,-0.00043566,-4416.8,0.22037
14539,6.4293,3.8182,0.05,1.0809e-06,10.801,8.2998e-07,6.2361,-4.3343e-13,-2.9588e-06,-8.2998e-07,-6.2361,0.22641
14540,6.4293,3.5455,0,0.00042957,4292.7,0.00015121,-0.0051554,0.00012552,-193.04,-0.00043253,-4386,0.22691
14541,6.3375,3.6364,0,0.00043208,4317.8,0.00015233,-0.0049931,0.00012585,-198.9,-0.00043512,-4413.8,0.2207
14542,6.4293,3.6364,0.05,1.0805e-06,10.797,8.2966e-07,6.2337,-3.2165e-13,-2.4148e-06,-8.2966e-07,-6.2337,0.22674
14543,6.4293,3.3636,0,0.00042918,4288.8,0.0001513,-0.0060098,0.000125,-197.64,-0.0004322,-4384.2,0.22711
14544,6.3375,3.4545,0,0.00043159,4312.9,0.00015244,-0.0060755,0.00012521,-204.65,-0.00043471,-4411.6,0.22095
14545,6.4293,3.4545,0.05,1.0801e-06,10.793,8.2937e-07,6.2316,-2.3802e-13,-1.7885e-06,-8.2937e-07,-6.2316,0.22699
14546,6.4293,3.1818,0,0.00042894,4286.4,0.00015136,-0.0065211,0.00012469,-200.41,-0.000432,-4383.1,0.22724
14547,6.3375,3.2727,0,0.00043126,4309.7,0.00015252,-0.0067942,0.00012477,-208.51,-0.00043443,-4410.1,0.22112
14548,6.4293,3.2727,0.05,1.0798e-06,10.791,8.2916e-07,6.23,-1.4584e-13,-1.0957e-06,-8.2916e-07,-6.23,0.22716
14549,6.4293,3,0,0.00042886,4285.6,0.00015138,-0.0066913,0.00012458,-201.34,-0.00043193,-4382.8,0.22728
14550,6.3375,3.0909,0,0.0004311,4308,0.00015256,-0.0071528,0.00012455,-210.45,-0.00043429,-4409.4,0.2212
14551,6.4293,3.0909,0.05,1.0797e-06,10.789,8.2905e-07,6.2292,-4.9262e-14,-3.7013e-07,-8.2905e-07,-6.2292,0.22724
14552,6.4293,2.8182,0,0.00042894,4286.4,0.00015136,-0.006521,0.00012469,-200.41,-0.000432,-4383.1,0.22724
14553,6.3375,2.9091,0,0.0004311,4308,0.00015256,-0.0071528,0.00012455,-210.45,-0.00043429,-4409.4,0.2212
14554,6.4293,2.9091,0.05,1.0797e-06,10.789,8.2905e-07,6.2292,4.9222e-14,2.2769e-06,-8.2905e-07,-6.2292,0.22724
14555,6.4293,2.6364,0,0.00042918,4288.8,0.0001513,-0.0060097,0.000125,-197.64,-0.0004322,-4384.2,0.22711
14556,6.3375,2.7273,0,0.00043126,4309.7,0.00015252,-0.006794,0.00012477,-208.51,-0.00043443,-4410.1,0.22112
14557,6.4293,2.7273,0.05,1.0798e-06,10.791,8.2916e-07,6.23,-3.4876e-12,1.0954e-06,-8.2916e-07,-6.23,0.22716
14558,6.4293,2.4545,0,0.00042957,4292.7,0.00015121,-0.0051551,0.00012552,-193.04,-0.00043253,-4386,0.22691
14559,6.3375,2.5455,0,0.00043159,4312.9,0.00015244,-0.0060752,0.00012521,-204.65,-0.00043471,-4411.6,0.22095
14560,6.4293,2.5455,0.05,1.0801e-06,10.793,8.2938e-07,6.2316,2.6306e-13,1.999e-06,-8.2937e-07,-6.2316,0.22699
14561,6.4293,2.2727,0,0.00043011,4298.2,0.00015108,-0.0039505,0.00012624,-186.66,-0.00043298,-4388.5,0.22662
14562,6.3375,2.3636,0,0.00043208,4317.8,0.00015233,-0.0049928,0.00012585,-198.9,-0.00043512,-4413.8,0.2207
14563,6.4293,2.3636,0.05,1.0805e-06,10.797,8.2966e-07,6.2337,-3.2432e-12,2.422e-06,-8.2966e-07,-6.2337,0.22674
14564,6.4293,2.0909,0,0.00043081,4305.1,0.00015092,-0.0023839,0.00012715,-178.57,-0.00043357,-4391.6,0.22624
14565,6.3375,2.1818,0,0.00043273,4324.3,0.00015217,-0.0035349,0.00012671,-191.31,-0.00043566,-4416.8,0.22037
14566,6.4293,2.1818,0.05,1.0809e-06,10.801,8.2998e-07,6.2361,-1.3256e-12,2.971e-06,-8.2998e-07,-6.2361,0.22641
14567,6.4293,1.9091,0,0.00043164,4313.4,0.00015072,-0.00043743,0.00012825,-168.83,-0.00043426,-4395.3,0.22579
14568,6.3375,2,0,0.00043352,4332.2,0.00015198,-0.0016872,0.00012776,-181.97,-0.00043633,-4420.4,0.21996
14569,6.4293,2,0.05,1.0813e-06,10.805,8.3029e-07,6.2385,-3.0682e-12,4.3819e-06,-8.303e-07,-6.2385,0.226
14570,6.4293,1.7273,0,0.0004326,4323.1,0.00015049,0.0019198,0.00012953,-157.54,-0.00043507,-4399.7,0.22525
14571,6.3375,1.8182,0,0.00043446,4341.6,0.00015176,0.00057572,0.000129,-170.96,-0.00043712,-4424.6,0.21946
14572,6.4293,1.8182,0.05,1.0816e-06,10.809,8.3055e-07,6.2405,-4.6907e-12,7.6132e-06,-8.3055e-07,-6.2403,0.2255
14573,6.4293,1.5455,0,0.0004337,4334,0.00015023,0.0047489,0.00013096,-144.79,-0.00043598,-4404.5,0.22462
14574,6.3375,1.6364,0,0.00043554,4352.4,0.0001515,0.0032965,0.00013042,-158.37,-0.00043802,-4429.4,0.21887
14575,6.4293,1.6364,0.05,1.0818e-06,10.81,8.3069e-07,6.2415,-8.5595e-13,5.6218e-06,-8.3068e-07,-6.2414,0.22491
14576,6.4293,1.3636,0,0.0004349,4346,0.00014994,0.008122,0.00013255,-130.71,-0.00043698,-4409.9,0.22391
14577,6.3375,1.4545,0,0.00043674,4364.4,0.00015121,0.0065665,0.000132,-144.33,-0.00043901,-4434.7,0.2182
14578,6.4293,1.4545,0.05,1.0817e-06,10.81,8.3064e-07,6.2411,1.015e-12,4.0661e-06,-8.3063e-07,-6.2411,0.22424
14579,6.4293,1.1818,0,0.00043621,4359.1,0.00014963,0.012286,0.00013427,-115.4,-0.00043806,-4415.7,0.2231
14580,6.3375,1.2727,0,0.00043805,4377.5,0.0001509,0.010456,0.00013373,-128.95,-0.0004401,-4440.5,0.21744
14581,6.4293,1.2727,0.05,1.0814e-06,10.806,8.3035e-07,6.2389,-4.159e-12,8.6617e-06,-8.3034e-07,-6.2388,0.22349
14582,6.4293,1,0,0.00043762,4373.2,0.00014929,0.017217,0.00013611,-99.016,-0.00043922,-4421.8,0.22221
14583,6.3375,1.0909,0,0.00043947,4391.7,0.00015056,0.015432,0.0001356,-112.37,-0.00044127,-4446.8,0.2166
14584,6.4293,1.0909,0.05,1.0806e-06,10.798,8.2975e-07,6.2344,-4.0648e-12,7.2565e-06,-8.2974e-07,-6.2344,0.22264
14585,6.4293,0.81818,0,0.00043911,4388,0.00014893,0.024921,0.00013806,-81.678,-0.00044044,-4428.3,0.22123
14586,6.3375,0.90909,0,0.00044098,4406.7,0.00015019,0.021028,0.00013758,-94.73,-0.00044251,-4453.3,0.21566
14587,6.4293,0.90909,0.05,1.0793e-06,10.786,8.2879e-07,6.2272,-5.5661e-13,6.5753e-06,-8.2878e-07,-6.2271,0.22171
14588,6.4293,0.63636,0,0.00044066,4403.6,0.00014856,0.031126,0.0001401,-63.532,-0.00044171,-4435,0.22016
14589,6.3375,0.72727,0,0.00044256,4422.6,0.00014981,0.032027,0.00013966,-76.176,-0.00044381,-4460.2,0.21464
14590,6.4293,0.72727,0.05,1.0774e-06,10.767,8.2734e-07,6.2163,-3.7961e-12,7.0765e-06,-8.2732e-07,-6.2162,0.22068
14591,6.4293,0.45455,0,0.00044228,4419.7,0.00014817,0.070816,0.00014221,-44.694,-0.00044302,-4441.9,0.219
14592,6.3375,0.54545,0,0.00044422,4439.1,0.0001494,0.035135,0.00014183,-56.863,-0.00044516,-4467.3,0.21352
14593,6.4293,0.54545,0.05,1.0735e-06,10.727,8.243e-07,6.1935,-2.0156e-12,1.7241e-05,-8.2429e-07,-6.1933,0.21956
14594,6.4293,0.27273,0,0.00044396,4436.5,0.00014776,0.09749,0.0001444,-25.167,-0.00044438,-4449,0.21774
14595,6.3375,0.36364,0,0.00044593,4456.2,0.00014899,0.11863,0.00014407,-36.879,-0.00044654,-4474.5,0.2123
14596,6.4293,0.36364,0.05,1.0462e-06,10.455,8.0338e-07,6.0363,-3.6755e-12,1.4163e-05,-8.0337e-07,-6.0361,0.21835
14597,6.3375,0.18182,0,0.00044772,4474.1,0.00014856,0.12676,0.00014639,-16.186,-0.00044799,-4482.1,0.211
14598,6.4293,0.18182,0.05,6.8464e-07,6.8417,5.2573e-07,3.9501,-9.1526e-13,4.3368e-05,-5.2571e-07,-3.9499,0.21705
14599,6.4293,0.090909,0,0.00044541,4451,0.00014738,0.13019,0.00014632,-7.8248,-0.00044554,-4454.9,0.21639
14600,6.2457,5.7273,0,0.00044968,4493.7,0.00014978,0.10686,0.00014606,-27.877,-0.00045015,-4507.5,0.20566
14601,6.1538,5.8182,0,0.00045352,4532.1,0.00015057,0.13611,0.00014814,-18.122,-0.00045383,-4541.1,0.19906
14602,6.2457,5.8182,0.05,7.4584e-07,7.4532,5.727e-07,4.303,1.8745e-12,-3.2159e-05,-5.7271e-07,-4.3032,0.20496
14603,6.2457,5.9091,0,0.00045127,4509.6,0.00014937,0.13545,0.00014817,-8.8932,-0.00045142,-4513.9,0.2043
14604,6.2457,5.5455,0,0.00044787,4475.6,0.00015022,0.077844,0.00014369,-49.044,-0.00044868,-4499.9,0.20692
14605,6.1538,5.6364,0,0.0004516,4512.9,0.00015104,0.13014,0.00014563,-40.52,-0.00045227,-4532.9,0.20037
14606,6.2457,5.6364,0.05,1.0644e-06,10.637,8.1735e-07,6.1412,3.4285e-12,-1.9596e-05,-8.1736e-07,-6.1414,0.20627
14607,6.2457,5.3636,0,0.00044612,4458.1,0.00015065,0.034277,0.0001414,-69.504,-0.00044726,-4492.4,0.20809
14608,6.1538,5.4545,0,0.00044975,4494.4,0.00015149,0.038788,0.00014321,-62.213,-0.00045078,-4525.2,0.20159
14609,6.2457,5.4545,0.05,1.0889e-06,10.882,8.3617e-07,6.2826,5.399e-12,-1.0857e-05,-8.3618e-07,-6.2828,0.20749
14610,6.2457,5.1818,0,0.00044444,4441.3,0.00015106,0.02732,0.00013918,-89.224,-0.00044589,-4485.2,0.20916
14611,6.1538,5.2727,0,0.00044796,4476.5,0.00015193,0.035161,0.00014086,-83.193,-0.00044932,-4517.5,0.20271
14612,6.2457,5.2727,0.05,1.0927e-06,10.92,8.3909e-07,6.3046,3.3519e-13,-1.0352e-05,-8.391e-07,-6.3047,0.20861
14613,6.2457,5,0,0.00044283,4425.2,0.00015146,0.018788,0.00013707,-108.08,-0.00044457,-4478.3,0.21014
14614,6.1538,5.0909,0,0.00044625,4459.4,0.00015235,0.023012,0.00013859,-103.36,-0.00044791,-4510.2,0.20374
14615,6.2457,5.0909,0.05,1.0946e-06,10.939,8.4052e-07,6.3153,2.3066e-12,-7.3085e-06,-8.4052e-07,-6.3154,0.20964
14616,6.2457,4.8182,0,0.00044131,4410,0.00015182,0.013315,0.00013507,-125.91,-0.00044331,-4471.6,0.21104
14617,6.1538,4.9091,0,0.00044461,4443.1,0.00015275,0.016799,0.00013644,-122.54,-0.00044657,-4503.1,0.20468
14618,6.2457,4.9091,0.05,1.0958e-06,10.95,8.4143e-07,6.3221,2.8983e-12,-1.0389e-05,-8.4143e-07,-6.3222,0.21057
14619,6.2457,4.6364,0,0.00043989,4395.8,0.00015217,0.0087013,0.00013319,-142.56,-0.00044214,-4465.4,0.21184
14620,6.1538,4.7273,0,0.00044308,4427.7,0.00015313,0.01129,0.00013441,-140.59,-0.0004453,-4496.3,0.20553
14621,6.2457,4.7273,0.05,1.0964e-06,10.957,8.4193e-07,6.3259,-1.0702e-12,-7.0201e-06,-8.4193e-07,-6.326,0.21142
14622,6.2457,4.4545,0,0.00043858,4382.8,0.00015248,0.0049666,0.00013147,-157.9,-0.00044105,-4459.6,0.21255
14623,6.1538,4.5455,0,0.00044166,4413.5,0.00015347,0.0069848,0.00013253,-157.33,-0.00044412,-4490.1,0.20628
14624,6.2457,4.5455,0.05,1.0967e-06,10.959,8.421e-07,6.3272,1.0321e-12,-4.8431e-06,-8.421e-07,-6.3272,0.21218
14625,6.2457,4.2727,0,0.0004374,4371,0.00015277,0.0018369,0.0001299,-171.79,-0.00044007,-4454.3,0.21318
14626,6.1538,4.3636,0,0.00044036,4400.5,0.00015379,0.0033695,0.00013081,-172.63,-0.00044304,-4484.3,0.20696
14627,6.2457,4.3636,0.05,1.0965e-06,10.958,8.42e-07,6.3264,-7.9016e-13,-8.0225e-06,-8.42e-07,-6.3265,0.21285
14628,6.2457,4.0909,0,0.00043635,4360.5,0.00015302,-0.00076882,0.00012852,-184.1,-0.00043919,-4449.6,0.21372
14629,6.1538,4.1818,0,0.00043919,4388.9,0.00015407,0.00036351,0.00012926,-186.35,-0.00044207,-4479.1,0.20754
14630,6.2457,4.1818,0.05,1.0962e-06,10.954,8.4171e-07,6.3243,-7.997e-13,-4.0178e-06,-8.4172e-07,-6.3243,0.21343
14631,6.2457,3.9091,0,0.00043545,4351.5,0.00015323,-0.0029189,0.00012732,-194.72,-0.00043843,-4445.6,0.21418
14632,6.1538,4,0,0.00043817,4378.7,0.00015431,-0.0021348,0.00012791,-198.35,-0.00044121,-4474.5,0.20804
14633,6.2457,4,0.05,1.0956e-06,10.949,8.4131e-07,6.3213,2.9541e-12,-5.5397e-06,-8.4131e-07,-6.3213,0.21393
14634,6.2457,3.7273,0,0.0004347,4344,0.00015341,-0.0046483,0.00012632,-203.55,-0.0004378,-4442.2,0.21455
14635,6.1538,3.8182,0,0.00043731,4370.1,0.00015452,-0.0041733,0.00012676,-208.54,-0.00044049,-4470.6,0.20845
14636,6.2457,3.8182,0.05,1.095e-06,10.943,8.4085e-07,6.3178,-4.681e-13,-3.9369e-06,-8.4085e-07,-6.3178,0.21435
14637,6.2457,3.5455,0,0.00043411,4338.1,0.00015355,-0.0059777,0.00012554,-210.5,-0.0004373,-4439.5,0.21484
14638,6.1538,3.6364,0,0.00043661,4363.1,0.00015469,-0.0057809,0.00012583,-216.81,-0.0004399,-4467.5,0.20878
14639,6.2457,3.6364,0.05,1.0944e-06,10.937,8.404e-07,6.3144,-3.7315e-13,-2.591e-06,-8.404e-07,-6.3144,0.21468
14640,6.2457,3.3636,0,0.00043368,4333.8,0.00015366,-0.0069203,0.00012497,-215.52,-0.00043694,-4437.5,0.21505
14641,6.1538,3.4545,0,0.00043608,4357.8,0.00015481,-0.0069742,0.00012512,-223.09,-0.00043945,-4465.1,0.20903
14642,6.2457,3.4545,0.05,1.0939e-06,10.932,8.4001e-07,6.3115,-2.6975e-13,-1.9135e-06,-8.4001e-07,-6.3115,0.21493
14643,6.2457,3.1818,0,0.00043342,4331.2,0.00015372,-0.0074841,0.00012463,-218.55,-0.00043673,-4436.4,0.21517
14644,6.1538,3.2727,0,0.00043572,4354.2,0.0001549,-0.0077662,0.00012465,-227.3,-0.00043915,-4463.4,0.2092
14645,6.2457,3.2727,0.05,1.0936e-06,10.928,8.3973e-07,6.3094,-1.5629e-13,-1.0856e-06,-8.3973e-07,-6.3094,0.21509
14646,6.2457,3,0,0.00043334,4330.4,0.00015374,-0.0076718,0.00012452,-219.56,-0.00043665,-4436,0.21521
14647,6.1538,3.0909,0,0.00043554,4352.4,0.00015494,-0.0081614,0.00012441,-229.42,-0.00043899,-4462.6,0.20928
14648,6.2457,3.0909,0.05,1.0934e-06,10.926,8.3958e-07,6.3083,-5.2797e-14,-3.9651e-07,-8.3958e-07,-6.3083,0.21517
14649,6.2457,2.8182,0,0.00043342,4331.2,0.00015372,-0.007484,0.00012463,-218.55,-0.00043673,-4436.4,0.21517
14650,6.1538,2.9091,0,0.00043554,4352.4,0.00015494,-0.0081613,0.00012441,-229.42,-0.00043899,-4462.6,0.20928
14651,6.2457,2.9091,0.05,1.0934e-06,10.926,8.3958e-07,6.3083,5.2752e-14,3.9612e-07,-8.3958e-07,-6.3083,0.21517
14652,6.2457,2.6364,0,0.00043368,4333.8,0.00015366,-0.00692,0.00012497,-215.52,-0.00043694,-4437.5,0.21505
14653,6.1538,2.7273,0,0.00043572,4354.2,0.0001549,-0.007766,0.00012465,-227.3,-0.00043915,-4463.4,0.2092
14654,6.2457,2.7273,0.05,1.0936e-06,10.928,8.3973e-07,6.3095,-1.6494e-12,1.3544e-06,-8.3973e-07,-6.3093,0.21509
14655,6.2457,2.4545,0,0.00043411,4338.1,0.00015355,-0.0059774,0.00012554,-210.5,-0.0004373,-4439.5,0.21484
14656,6.1538,2.5455,0,0.00043608,4357.8,0.00015481,-0.006974,0.00012512,-223.09,-0.00043945,-4465.1,0.20903
14657,6.2457,2.5455,0.05,1.0939e-06,10.932,8.4001e-07,6.3115,2.693e-13,1.9135e-06,-8.4001e-07,-6.3115,0.21493
14658,6.2457,2.2727,0,0.0004347,4344,0.00015341,-0.004648,0.00012632,-203.55,-0.0004378,-4442.2,0.21455
14659,6.1538,2.3636,0,0.00043661,4363.1,0.00015469,-0.0057806,0.00012583,-216.81,-0.0004399,-4467.5,0.20878
14660,6.2457,2.3636,0.05,1.0944e-06,10.937,8.404e-07,6.3145,3.719e-13,3.5307e-06,-8.404e-07,-6.3144,0.21468
14661,6.2457,2.0909,0,0.00043545,4351.5,0.00015323,-0.0029185,0.00012732,-194.72,-0.00043843,-4445.6,0.21418
14662,6.1538,2.1818,0,0.00043731,4370.1,0.00015452,-0.004173,0.00012676,-208.54,-0.00044049,-4470.6,0.20845
14663,6.2457,2.1818,0.05,1.095e-06,10.943,8.4085e-07,6.3179,-1.2828e-12,4.6983e-06,-8.4085e-07,-6.3178,0.21435
14664,6.2457,1.9091,0,0.00043635,4360.5,0.00015302,-0.00076823,0.00012852,-184.1,-0.00043919,-4449.6,0.21372
14665,6.1538,2,0,0.00043817,4378.7,0.00015431,-0.0021344,0.00012791,-198.35,-0.00044121,-4474.5,0.20804
14666,6.2457,2,0.05,1.0956e-06,10.949,8.4132e-07,6.3213,-2.8223e-12,3.6588e-06,-8.413e-07,-6.3213,0.21393
14667,6.2457,1.7273,0,0.0004374,4371,0.00015277,0.0018375,0.0001299,-171.79,-0.00044007,-4454.3,0.21318
14668,6.1538,1.8182,0,0.00043919,4388.9,0.00015407,0.00036406,0.00012926,-186.35,-0.00044207,-4479.1,0.20754
14669,6.2457,1.8182,0.05,1.0962e-06,10.954,8.4172e-07,6.3243,-2.6617e-12,5.8771e-06,-8.4171e-07,-6.3243,0.21343
14670,6.2457,1.5455,0,0.00043858,4382.8,0.00015248,0.0049672,0.00013147,-157.9,-0.00044105,-4459.6,0.21255
14671,6.1538,1.6364,0,0.00044036,4400.5,0.00015379,0.0033701,0.00013081,-172.63,-0.00044304,-4484.3,0.20696
14672,6.2457,1.6364,0.05,1.0965e-06,10.958,8.42e-07,6.3265,-2.6238e-12,8.0018e-06,-8.42e-07,-6.3264,0.21285
14673,6.2457,1.3636,0,0.00043989,4395.8,0.00015217,0.0087021,0.00013319,-142.56,-0.00044214,-4465.4,0.21184
14674,6.1538,1.4545,0,0.00044166,4413.5,0.00015347,0.0069856,0.00013253,-157.33,-0.00044412,-4490.1,0.20629
14675,6.2457,1.4545,0.05,1.0967e-06,10.959,8.421e-07,6.3273,-4.1219e-12,8.9203e-06,-8.4209e-07,-6.3271,0.21218
14676,6.2457,1.1818,0,0.00044131,4410,0.00015182,0.013315,0.00013507,-125.91,-0.00044331,-4471.6,0.21104
14677,6.1538,1.2727,0,0.00044308,4427.7,0.00015313,0.011291,0.00013441,-140.59,-0.0004453,-4496.3,0.20553
14678,6.2457,1.2727,0.05,1.0964e-06,10.957,8.4193e-07,6.326,-5.1048e-13,1.2434e-05,-8.4193e-07,-6.3258,0.21142
14679,6.2457,1,0,0.00044283,4425.2,0.00015146,0.018789,0.00013707,-108.08,-0.00044457,-4478.3,0.21014
14680,6.1538,1.0909,0,0.00044461,4443.1,0.00015275,0.0168,0.00013644,-122.54,-0.00044657,-4503.1,0.20468
14681,6.2457,1.0909,0.05,1.0958e-06,10.95,8.4143e-07,6.3222,-2.1746e-12,1.3424e-05,-8.4143e-07,-6.3221,0.21057
14682,6.2457,0.81818,0,0.00044444,4441.3,0.00015106,0.027321,0.00013918,-89.224,-0.00044589,-4485.2,0.20916
14683,6.1538,0.90909,0,0.00044625,4459.4,0.00015235,0.023014,0.00013859,-103.36,-0.00044791,-4510.2,0.20374
14684,6.2457,0.90909,0.05,1.0946e-06,10.939,8.4053e-07,6.3154,-3.6135e-12,7.1972e-06,-8.4052e-07,-6.3153,0.20964
14685,6.2457,0.63636,0,0.00044612,4458.1,0.00015065,0.034278,0.0001414,-69.504,-0.00044726,-4492.4,0.20809
14686,6.1538,0.72727,0,0.00044796,4476.5,0.00015193,0.035162,0.00014086,-83.193,-0.00044932,-4517.5,0.20271
14687,6.2457,0.72727,0.05,1.0927e-06,10.92,8.391e-07,6.3047,-1.8629e-12,1.4774e-05,-8.3909e-07,-6.3046,0.20861
14688,6.2457,0.45455,0,0.00044787,4475.6,0.00015022,0.077845,0.00014369,-49.044,-0.00044868,-4499.9,0.20692
14689,6.1538,0.54545,0,0.00044975,4494.4,0.00015149,0.038788,0.00014321,-62.213,-0.00045078,-4525.2,0.20159
14690,6.2457,0.54545,0.05,1.0889e-06,10.882,8.3618e-07,6.2828,-4.9557e-12,1.1504e-05,-8.3617e-07,-6.2826,0.20749
14691,6.2457,0.27273,0,0.00044968,4493.7,0.00014978,0.10687,0.00014606,-27.877,-0.00045015,-4507.5,0.20566
14692,6.1538,0.36364,0,0.0004516,4512.9,0.00015104,0.13014,0.00014563,-40.52,-0.00045227,-4532.9,0.20037
14693,6.2457,0.36364,0.05,1.0644e-06,10.637,8.1736e-07,6.1414,-5.0799e-12,2.1107e-05,-8.1735e-07,-6.1412,0.20627
14694,6.1538,0.18182,0,0.00045352,4532.1,0.00015057,0.13611,0.00014814,-18.122,-0.00045383,-4541.1,0.19906
14695,6.2457,0.18182,0.05,7.4583e-07,7.4532,5.7271e-07,4.3032,-1.2542e-12,4.3357e-05,-5.727e-07,-4.303,0.20496
14696,6.2457,0.090909,0,0.00045127,4509.6,0.00014937,0.13545,0.00014817,-8.8932,-0.00045142,-4513.9,0.2043
14697,6.062,5.7273,0,0.00045544,4551.2,0.00015182,0.11734,0.00014772,-30.738,-0.00045595,-4566.5,0.19388
14698,5.9701,5.8182,0,0.00045938,4590.6,0.0001526,0.14743,0.0001499,-20.14,-0.00045971,-4600.5,0.18743
14699,6.062,5.8182,0.05,8.1198e-07,8.1142,6.2349e-07,4.6846,2.7556e-12,-3.1855e-05,-6.235e-07,-4.6848,0.19318
14700,6.062,5.9091,0,0.00045717,4568.6,0.00015137,0.14189,0.00015002,-10.003,-0.00045734,-4573.5,0.19251
14701,6.062,5.5455,0,0.00045348,4531.7,0.00015231,0.085516,0.00014515,-53.682,-0.00045437,-4558.2,0.19514
14702,5.9701,5.6364,0,0.0004573,4569.9,0.00015312,0.14269,0.00014719,-44.386,-0.00045804,-4591.8,0.18875
14703,6.062,5.6364,0.05,1.0842e-06,10.834,8.3251e-07,6.2551,3.4691e-12,-1.6421e-05,-8.3252e-07,-6.2553,0.19449
14704,6.062,5.3636,0,0.00045159,4512.8,0.00015277,0.037733,0.00014267,-75.896,-0.00045284,-4550.3,0.19631
14705,5.9701,5.4545,0,0.00045531,4549.9,0.00015361,0.042801,0.00014456,-67.928,-0.00045642,-4583.5,0.18997
14706,6.062,5.4545,0.05,1.1057e-06,11.05,8.4906e-07,6.3794,3.5007e-12,-1.6485e-05,-8.4907e-07,-6.3796,0.19571
14707,6.062,5.1818,0,0.00044977,4494.6,0.00015322,0.029952,0.00014027,-97.323,-0.00045135,-4542.5,0.19739
14708,5.9701,5.2727,0,0.00045337,4530.6,0.00015409,0.038594,0.00014201,-90.714,-0.00045485,-4575.3,0.19109
14709,6.062,5.2727,0.05,1.1094e-06,11.086,8.5185e-07,6.4004,3.5313e-12,-1.6016e-05,-8.5186e-07,-6.4006,0.19683
14710,6.062,5,0,0.00044803,4477.2,0.00015365,0.020518,0.00013797,-117.82,-0.00044992,-4535,0.19837
14711,5.9701,5.0909,0,0.00045152,4512.1,0.00015455,0.025194,0.00013955,-112.63,-0.00045333,-4567.3,0.19212
14712,6.062,5.0909,0.05,1.1112e-06,11.104,8.5324e-07,6.411,1.8931e-12,-3.0951e-06,-8.5325e-07,-6.4109,0.19786
14713,6.062,4.8182,0,0.00044639,4460.8,0.00015405,0.014455,0.00013579,-137.22,-0.00044856,-4527.8,0.19927
14714,5.9701,4.9091,0,0.00044975,4494.4,0.00015498,0.018307,0.00013721,-133.49,-0.00045187,-4559.6,0.19306
14715,6.062,4.9091,0.05,1.1123e-06,11.115,8.5407e-07,6.4172,3.9025e-12,-1.07e-05,-8.5408e-07,-6.4173,0.1988
14716,6.062,4.6364,0,0.00044485,4445.4,0.00015443,0.0093523,0.00013375,-155.35,-0.00044729,-4521.1,0.20007
14717,5.9701,4.7273,0,0.00044809,4477.8,0.00015539,0.012218,0.00013501,-153.12,-0.0004505,-4552.4,0.19391
14718,6.062,4.7273,0.05,1.1128e-06,11.12,8.5446e-07,6.4201,5.5061e-13,-1.0898e-05,-8.5447e-07,-6.4202,0.19965
14719,6.062,4.4545,0,0.00044343,4431.3,0.00015477,0.0052241,0.00013187,-172.05,-0.00044611,-4514.8,0.20078
14720,5.9701,4.5455,0,0.00044655,4462.4,0.00015577,0.0074605,0.00013296,-171.35,-0.00044922,-4545.6,0.19467
14721,6.062,4.5455,0.05,1.1128e-06,11.12,8.5449e-07,6.4202,8.0543e-13,-1.2669e-05,-8.5449e-07,-6.4204,0.20041
14722,6.062,4.2727,0,0.00044215,4418.5,0.00015508,0.001768,0.00013017,-187.18,-0.00044504,-4509.1,0.20141
14723,5.9701,4.3636,0,0.00044514,4448.4,0.00015611,0.0034698,0.00013109,-188.02,-0.00044804,-4539.4,0.19534
14724,6.062,4.3636,0.05,1.1125e-06,11.117,8.5422e-07,6.4183,2.3858e-12,-6.7109e-06,-8.5424e-07,-6.4184,0.20108
14725,6.062,4.0909,0,0.00044102,4407.1,0.00015536,-0.0011075,0.00012866,-200.6,-0.00044409,-4504,0.20195
14726,5.9701,4.1818,0,0.00044388,4435.8,0.00015642,0.00015404,0.00012941,-202.97,-0.00044699,-4533.8,0.19592
14727,6.062,4.1818,0.05,1.1119e-06,11.111,8.5377e-07,6.4148,-6.7136e-13,-5.9981e-06,-8.5376e-07,-6.4149,0.20166
14728,6.062,3.9091,0,0.00044004,4397.4,0.0001556,-0.0034788,0.00012736,-212.18,-0.00044327,-4499.6,0.20241
14729,5.9701,4,0,0.00044278,4424.7,0.00015669,-0.0025999,0.00012793,-216.06,-0.00044606,-4528.8,0.19642
14730,6.062,4,0.05,1.1111e-06,11.103,8.5318e-07,6.4105,1.1115e-12,-3.9098e-06,-8.5318e-07,-6.4105,0.20216
14731,6.062,3.7273,0,0.00043923,4389.2,0.00015579,-0.0053849,0.00012627,-221.81,-0.00044258,-4495.9,0.20278
14732,5.9701,3.8182,0,0.00044184,4415.4,0.00015692,-0.0048453,0.00012668,-227.17,-0.00044527,-4524.6,0.19683
14733,6.062,3.8182,0.05,1.1103e-06,11.095,8.5255e-07,6.4058,1.2883e-12,-3.3756e-06,-8.5256e-07,-6.4058,0.20258
14734,6.062,3.5455,0,0.00043859,4382.8,0.00015595,-0.0068494,0.00012542,-229.4,-0.00044204,-4493,0.20307
14735,5.9701,3.6364,0,0.00044109,4407.8,0.0001571,-0.0066152,0.00012567,-236.19,-0.00044463,-4521.2,0.19716
14736,6.062,3.6364,0.05,1.1095e-06,11.087,8.5196e-07,6.4013,-3.676e-13,-2.7798e-06,-8.5196e-07,-6.4013,0.20291
14737,6.062,3.3636,0,0.00043813,4378.2,0.00015606,-0.0078875,0.0001248,-234.87,-0.00044165,-4490.9,0.20328
14738,5.9701,3.4545,0,0.00044051,4402.1,0.00015724,-0.0079286,0.00012489,-243.04,-0.00044414,-4518.5,0.19741
14739,6.062,3.4545,0.05,1.1088e-06,11.081,8.5145e-07,6.3975,-2.7253e-13,-4.2924e-07,-8.5145e-07,-6.3975,0.20316
14740,6.062,3.1818,0,0.00043785,4375.4,0.00015613,-0.0085083,0.00012443,-238.18,-0.00044141,-4489.7,0.2034
14741,5.9701,3.2727,0,0.00044012,4398.2,0.00015733,-0.0087997,0.00012438,-247.64,-0.00044381,-4516.8,0.19757
14742,6.062,3.2727,0.05,1.1084e-06,11.076,8.5109e-07,6.3947,-1.6689e-13,-1.2499e-06,-8.5109e-07,-6.3947,0.20332
14743,6.062,3,0,0.00043775,4374.5,0.00015615,-0.008715,0.0001243,-239.28,-0.00044133,-4489.3,0.20344
14744,5.9701,3.0909,0,0.00043993,4396.3,0.00015738,-0.0092344,0.00012412,-249.95,-0.00044365,-4515.9,0.19766
14745,6.062,3.0909,0.05,1.1081e-06,11.074,8.509e-07,6.3933,-5.6347e-14,-4.2327e-07,-8.509e-07,-6.3933,0.2034
14746,6.062,2.8182,0,0.00043785,4375.4,0.00015613,-0.0085082,0.00012443,-238.18,-0.00044141,-4489.7,0.2034
14747,5.9701,2.9091,0,0.00043993,4396.3,0.00015738,-0.0092342,0.00012412,-249.95,-0.00044365,-4515.9,0.19766
14748,6.062,2.9091,0.05,1.1081e-06,11.074,8.509e-07,6.3933,5.6249e-14,4.3533e-07,-8.509e-07,-6.3933,0.2034
14749,6.062,2.6364,0,0.00043813,4378.2,0.00015606,-0.0078875,0.0001248,-234.87,-0.00044165,-4490.9,0.20328
14750,5.9701,2.7273,0,0.00044012,4398.2,0.00015733,-0.0087996,0.00012438,-247.64,-0.00044381,-4516.8,0.19757
14751,6.062,2.7273,0.05,1.1084e-06,11.076,8.5109e-07,6.3948,1.7902e-13,1.3541e-06,-8.5108e-07,-6.3947,0.20332
14752,6.062,2.4545,0,0.00043859,4382.8,0.00015595,-0.0068492,0.00012542,-229.4,-0.00044204,-4493,0.20307
14753,5.9701,2.5455,0,0.00044051,4402.1,0.00015724,-0.0079284,0.00012489,-243.04,-0.00044414,-4518.5,0.19741
14754,6.062,2.5455,0.05,1.1088e-06,11.081,8.5145e-07,6.3975,2.8858e-13,2.3277e-06,-8.5145e-07,-6.3975,0.20316
14755,6.062,2.2727,0,0.00043923,4389.2,0.00015579,-0.0053845,0.00012627,-221.81,-0.00044258,-4495.9,0.20278
14756,5.9701,2.3636,0,0.00044109,4407.8,0.0001571,-0.0066148,0.00012567,-236.19,-0.00044463,-4521.2,0.19716
14757,6.062,2.3636,0.05,1.1095e-06,11.087,8.5196e-07,6.4013,4.3438e-13,2.7573e-06,-8.5195e-07,-6.4013,0.20291
14758,6.062,2.0909,0,0.00044004,4397.4,0.0001556,-0.0034784,0.00012736,-212.18,-0.00044327,-4499.6,0.20241
14759,5.9701,2.1818,0,0.00044184,4415.4,0.00015692,-0.004845,0.00012668,-227.17,-0.00044527,-4524.6,0.19683
14760,6.062,2.1818,0.05,1.1103e-06,11.095,8.5256e-07,6.4058,-1.2849e-12,4.2597e-06,-8.5255e-07,-6.4057,0.20258
14761,6.062,1.9091,0,0.00044102,4407.1,0.00015536,-0.0011071,0.00012866,-200.6,-0.00044409,-4504,0.20195
14762,5.9701,2,0,0.00044278,4424.7,0.00015669,-0.0025993,0.00012793,-216.06,-0.00044606,-4528.8,0.19642
14763,6.062,2,0.05,1.1111e-06,11.103,8.5318e-07,6.4105,-1.0353e-12,5.1714e-06,-8.5318e-07,-6.4104,0.20216
14764,6.062,1.7273,0,0.00044215,4418.5,0.00015508,0.0017686,0.00013017,-187.18,-0.00044504,-4509.1,0.20141
14765,5.9701,1.8182,0,0.00044388,4435.8,0.00015642,0.00015453,0.00012941,-202.97,-0.00044699,-4533.8,0.19592
14766,6.062,1.8182,0.05,1.1119e-06,11.111,8.5376e-07,6.4149,-1.0941e-12,7.6971e-06,-8.5377e-07,-6.4148,0.20166
14767,6.062,1.5455,0,0.00044343,4431.3,0.00015477,0.0052249,0.00013187,-172.05,-0.00044611,-4514.8,0.20078
14768,5.9701,1.6364,0,0.00044514,4448.4,0.00015611,0.0034705,0.00013109,-188.02,-0.00044804,-4539.4,0.19534
14769,6.062,1.6364,0.05,1.1125e-06,11.117,8.5423e-07,6.4184,-4.1422e-12,6.6887e-06,-8.5423e-07,-6.4183,0.20108
14770,6.062,1.3636,0,0.00044485,4445.4,0.00015443,0.0093531,0.00013375,-155.35,-0.00044729,-4521.1,0.20007
14771,5.9701,1.4545,0,0.00044655,4462.4,0.00015577,0.0074614,0.00013296,-171.35,-0.00044922,-4545.6,0.19467
14772,6.062,1.4545,0.05,1.1128e-06,11.12,8.545e-07,6.4204,-2.2347e-12,1.2584e-05,-8.5448e-07,-6.4202,0.20041
14773,6.062,1.1818,0,0.00044639,4460.8,0.00015405,0.014456,0.00013579,-137.22,-0.00044856,-4527.8,0.19927
14774,5.9701,1.2727,0,0.00044809,4477.8,0.00015539,0.012218,0.00013501,-153.12,-0.0004505,-4552.4,0.19391
14775,6.062,1.2727,0.05,1.1128e-06,11.12,8.5447e-07,6.4202,-2.0994e-12,1.3964e-05,-8.5446e-07,-6.42,0.19965
14776,6.062,1,0,0.00044803,4477.2,0.00015365,0.02052,0.00013797,-117.82,-0.00044992,-4535,0.19837
14777,5.9701,1.0909,0,0.00044975,4494.4,0.00015498,0.018308,0.00013721,-133.49,-0.00045187,-4559.6,0.19306
14778,6.062,1.0909,0.05,1.1123e-06,11.115,8.5408e-07,6.4173,-3.7031e-12,1.5169e-05,-8.5407e-07,-6.4171,0.1988
14779,6.062,0.81818,0,0.00044977,4494.6,0.00015322,0.029954,0.00014027,-97.323,-0.00045135,-4542.5,0.19739
14780,5.9701,0.90909,0,0.00045152,4512.1,0.00015455,0.025195,0.00013955,-112.63,-0.00045333,-4567.3,0.19212
14781,6.062,0.90909,0.05,1.1112e-06,11.104,8.5325e-07,6.4109,-1.9144e-12,4.7563e-06,-8.5324e-07,-6.411,0.19786
14782,6.062,0.63636,0,0.00045159,4512.8,0.00015277,0.037733,0.00014267,-75.896,-0.00045284,-4550.3,0.19631
14783,5.9701,0.72727,0,0.00045337,4530.6,0.00015409,0.038595,0.00014201,-90.714,-0.00045485,-4575.3,0.19109
14784,6.062,0.72727,0.05,1.1094e-06,11.086,8.5186e-07,6.4006,-3.5313e-12,1.6899e-05,-8.5185e-07,-6.4004,0.19683
14785,6.062,0.45455,0,0.00045348,4531.7,0.00015231,0.085517,0.00014515,-53.682,-0.00045437,-4558.2,0.19514
14786,5.9701,0.54545,0,0.00045531,4549.9,0.00015361,0.042801,0.00014456,-67.928,-0.00045642,-4583.5,0.18997
14787,6.062,0.54545,0.05,1.1057e-06,11.05,8.4907e-07,6.3796,-4.3095e-12,2.1948e-05,-8.4906e-07,-6.3794,0.19571
14788,6.062,0.27273,0,0.00045544,4551.2,0.00015182,0.11734,0.00014772,-30.738,-0.00045595,-4566.5,0.19388
14789,5.9701,0.36364,0,0.0004573,4569.9,0.00015312,0.1427,0.00014719,-44.386,-0.00045804,-4591.8,0.18875
14790,6.062,0.36364,0.05,1.0842e-06,10.834,8.3252e-07,6.2553,-4.5008e-12,1.746e-05,-8.3251e-07,-6.2551,0.19449
14791,5.9701,0.18182,0,0.00045938,4590.6,0.0001526,0.14743,0.0001499,-20.14,-0.00045971,-4600.5,0.18743
14792,6.062,0.18182,0.05,8.1197e-07,8.1141,6.235e-07,4.6848,-2.1342e-12,3.2843e-05,-6.2349e-07,-4.6846,0.19318
14793,6.062,0.090909,0,0.00045717,4568.6,0.00015137,0.14189,0.00015002,-10.003,-0.00045734,-4573.5,0.19251
14794,5.8783,5.7273,0,0.00046124,4609.2,0.00015389,0.12904,0.00014938,-33.753,-0.0004618,-4625.9,0.1824
14795,5.7864,5.8182,0,0.00046528,4649.5,0.00015465,0.16094,0.00015167,-22.233,-0.00046565,-4660.5,0.17611
14796,5.8783,5.8182,0.05,8.8341e-07,8.8281,6.7835e-07,5.0968,3.3713e-12,-4.2341e-05,-6.7835e-07,-5.097,0.1817
14797,5.8783,5.9091,0,0.00046313,4628.1,0.0001534,0.14945,0.00015189,-11.152,-0.00046332,-4633.6,0.18103
14798,5.8783,5.5455,0,0.00045913,4588.1,0.00015441,0.093894,0.0001466,-58.622,-0.00046009,-4617.1,0.18367
14799,5.7864,5.6364,0,0.00046304,4627.2,0.00015521,0.1564,0.00014874,-48.485,-0.00046385,-4651.2,0.17743
14800,5.8783,5.6364,0.05,1.1056e-06,11.048,8.4895e-07,6.3786,4.8324e-12,-1.9926e-05,-8.4896e-07,-6.3788,0.18302
14801,5.8783,5.3636,0,0.00045709,4567.7,0.00015492,0.041523,0.0001439,-82.736,-0.00045844,-4608.5,0.18485
14802,5.7864,5.4545,0,0.00046089,4605.7,0.00015575,0.047212,0.00014589,-74.028,-0.0004621,-4642.2,0.17865
14803,5.8783,5.4545,0.05,1.124e-06,11.232,8.6305e-07,6.4846,1.5876e-12,-1.7107e-05,-8.6307e-07,-6.4848,0.18424
14804,5.8783,5.1818,0,0.00045512,4548,0.00015541,0.032837,0.0001413,-106.01,-0.00045683,-4600.1,0.18592
14805,5.7864,5.2727,0,0.0004588,4584.8,0.00015627,0.042351,0.00014312,-98.77,-0.0004604,-4633.4,0.17978
14806,5.8783,5.2727,0.05,1.1274e-06,11.266,8.657e-07,6.5045,4.193e-12,-1.9076e-05,-8.6571e-07,-6.5047,0.18537
14807,5.8783,5,0,0.00045323,4529.2,0.00015588,0.022422,0.0001388,-128.29,-0.00045528,-4592,0.18691
14808,5.7864,5.0909,0,0.00045679,4564.7,0.00015677,0.027588,0.00014046,-122.58,-0.00045875,-4624.8,0.18081
14809,5.8783,5.0909,0.05,1.1292e-06,11.284,8.6705e-07,6.5147,5.5439e-13,-1.3614e-05,-8.6706e-07,-6.5148,0.1864
14810,5.8783,4.8182,0,0.00045145,4511.4,0.00015632,0.015715,0.00013643,-149.39,-0.00045381,-4584.3,0.1878
14811,5.7864,4.9091,0,0.00045488,4545.6,0.00015725,0.019967,0.00013791,-145.27,-0.00045717,-4616.5,0.18175
14812,5.8783,4.9091,0.05,1.1301e-06,11.294,8.678e-07,6.5203,8.2434e-13,-4.6669e-06,-8.678e-07,-6.5203,0.18734
14813,5.8783,4.6364,0,0.00044979,4494.8,0.00015673,0.01008,0.00013422,-169.12,-0.00045243,-4577,0.1886
14814,5.7864,4.7273,0,0.00045308,4527.7,0.0001577,0.013246,0.00013552,-166.63,-0.00045569,-4608.7,0.18259
14815,5.8783,4.7273,0.05,1.1305e-06,11.297,8.6806e-07,6.5222,3.827e-12,-1.2198e-05,-8.6806e-07,-6.5223,0.18818
14816,5.8783,4.4545,0,0.00044826,4479.5,0.00015711,0.0055242,0.00013218,-187.31,-0.00045115,-4570.2,0.18932
14817,5.7864,4.5455,0,0.00045141,4511,0.00015811,0.0079973,0.00013329,-186.47,-0.0004543,-4601.4,0.18335
14818,5.8783,4.5455,0.05,1.1303e-06,11.295,8.6792e-07,6.5211,2.4321e-12,-1.4171e-05,-8.6792e-07,-6.5213,0.18894
14819,5.8783,4.2727,0,0.00044687,4465.6,0.00015745,0.0017133,0.00013032,-203.8,-0.00044999,-4564,0.18994
14820,5.7864,4.3636,0,0.00044989,4495.8,0.00015849,0.0035986,0.00013125,-204.63,-0.00045302,-4594.6,0.18402
14821,5.8783,4.3636,0.05,1.1297e-06,11.289,8.6747e-07,6.5178,2.3891e-12,-7.3765e-06,-8.6747e-07,-6.5178,0.18961
14822,5.8783,4.0909,0,0.00044564,4453.4,0.00015775,-0.0014552,0.00012868,-218.42,-0.00044896,-4558.5,0.19048
14823,5.7864,4.1818,0,0.00044853,4482.2,0.00015882,-5.3655e-05,0.00012942,-220.92,-0.00045188,-4588.5,0.1846
14824,5.8783,4.1818,0.05,1.1288e-06,11.281,8.668e-07,6.5128,-6.0544e-13,-6.6014e-06,-8.668e-07,-6.5128,0.1902
14825,5.8783,3.9091,0,0.00044458,4442.8,0.00015801,-0.0040661,0.00012726,-231.05,-0.00044806,-4553.8,0.19094
14826,5.7864,4,0,0.00044733,4470.2,0.00015912,-0.0030846,0.00012781,-235.19,-0.00045087,-4583.2,0.1851
14827,5.8783,4,0.05,1.1278e-06,11.27,8.6601e-07,6.5069,1.2152e-12,-7.4864e-06,-8.6601e-07,-6.5069,0.19069
14828,5.8783,3.7273,0,0.0004437,4434,0.00015822,-0.0061636,0.00012608,-241.55,-0.00044732,-4549.8,0.19131
14829,5.7864,3.8182,0,0.00044632,4460.1,0.00015937,-0.005554,0.00012645,-247.31,-0.00045001,-4578.6,0.18551
14830,5.8783,3.8182,0.05,1.1267e-06,11.26,8.6519e-07,6.5007,-5.4666e-13,-4.6692e-06,-8.652e-07,-6.5008,0.19111
14831,5.8783,3.5455,0,0.00044301,4427,0.00015839,-0.0077745,0.00012514,-249.83,-0.00044673,-4546.7,0.1916
14832,5.7864,3.6364,0,0.0004455,4451.9,0.00015957,-0.0074994,0.00012534,-257.16,-0.00044931,-4574.9,0.18584
14833,5.8783,3.6364,0.05,1.1257e-06,11.25,8.6443e-07,6.495,-3.9555e-13,-3.0033e-06,-8.6443e-07,-6.495,0.19144
14834,5.8783,3.3636,0,0.00044251,4422,0.00015851,-0.0089159,0.00012447,-255.81,-0.0004463,-4544.4,0.1918
14835,5.7864,3.4545,0,0.00044487,4445.7,0.00015972,-0.0089424,0.0001245,-264.63,-0.00044878,-4572.1,0.18609
14836,5.8783,3.4545,0.05,1.1249e-06,11.241,8.6379e-07,6.4902,-2.9238e-13,-2.1899e-06,-8.6379e-07,-6.4902,0.19168
14837,5.8783,3.1818,0,0.00044221,4419,0.00015859,-0.009598,0.00012406,-259.42,-0.00044605,-4543,0.19193
14838,5.7864,3.2727,0,0.00044446,4441.5,0.00015982,-0.0098991,0.00012394,-269.65,-0.00044843,-4570.2,0.18625
14839,5.8783,3.2727,0.05,1.1243e-06,11.235,8.6333e-07,6.4867,-1.9948e-12,-1.3516e-06,-8.6333e-07,-6.4867,0.19185
14840,5.8783,3,0,0.00044211,4418,0.00015861,-0.009825,0.00012393,-260.63,-0.00044596,-4542.6,0.19197
14841,5.7864,3.0909,0,0.00044425,4439.4,0.00015988,-0.010376,0.00012365,-272.18,-0.00044825,-4569.2,0.18633
14842,5.8783,3.0909,0.05,1.124e-06,11.232,8.6309e-07,6.4849,-1.8783e-12,-4.5469e-07,-8.6308e-07,-6.4849,0.19193
14843,5.8783,2.8182,0,0.00044221,4419,0.00015859,-0.0095979,0.00012406,-259.42,-0.00044605,-4543,0.19193
14844,5.7864,2.9091,0,0.00044425,4439.4,0.00015988,-0.010376,0.00012365,-272.18,-0.00044825,-4569.2,0.18633
14845,5.8783,2.9091,0.05,1.124e-06,11.232,8.6309e-07,6.4849,-1.7572e-12,4.6822e-07,-8.6308e-07,-6.4849,0.19193
14846,5.8783,2.6364,0,0.00044251,4422,0.00015851,-0.0089156,0.00012447,-255.81,-0.0004463,-4544.4,0.1918
14847,5.7864,2.7273,0,0.00044446,4441.5,0.00015982,-0.009899,0.00012394,-269.65,-0.00044843,-4570.2,0.18625
14848,5.8783,2.7273,0.05,1.1243e-06,11.235,8.6332e-07,6.4867,-1.6294e-12,1.341e-06,-8.6333e-07,-6.4867,0.19185
14849,5.8783,2.4545,0,0.00044301,4427,0.00015839,-0.0077741,0.00012514,-249.83,-0.00044673,-4546.7,0.1916
14850,5.7864,2.5455,0,0.00044487,4445.7,0.00015972,-0.0089421,0.0001245,-264.63,-0.00044878,-4572.1,0.18609
14851,5.8783,2.5455,0.05,1.1249e-06,11.241,8.6379e-07,6.4902,3.1213e-13,2.8877e-06,-8.6379e-07,-6.4901,0.19168
14852,5.8783,2.2727,0,0.0004437,4434,0.00015822,-0.0061633,0.00012608,-241.55,-0.00044732,-4549.8,0.19131
14853,5.7864,2.3636,0,0.0004455,4451.9,0.00015957,-0.0074991,0.00012534,-257.16,-0.00044931,-4574.9,0.18584
14854,5.8783,2.3636,0.05,1.1257e-06,11.25,8.6443e-07,6.495,4.6854e-13,3.5913e-06,-8.6443e-07,-6.495,0.19144
14855,5.8783,2.0909,0,0.00044458,4442.8,0.00015801,-0.0040656,0.00012726,-231.05,-0.00044806,-4553.8,0.19094
14856,5.7864,2.1818,0,0.00044632,4460.1,0.00015937,-0.0055536,0.00012645,-247.31,-0.00045001,-4578.6,0.18551
14857,5.8783,2.1818,0.05,1.1267e-06,11.26,8.652e-07,6.5008,-1.1233e-12,4.6692e-06,-8.6519e-07,-6.5007,0.19111
14858,5.8783,1.9091,0,0.00044564,4453.4,0.00015775,-0.0014546,0.00012868,-218.42,-0.00044896,-4558.5,0.19048
14859,5.7864,2,0,0.00044733,4470.2,0.00015912,-0.003084,0.00012781,-235.19,-0.00045087,-4583.2,0.1851
14860,5.8783,2,0.05,1.1278e-06,11.27,8.6601e-07,6.5069,-4.5928e-12,5.662e-06,-8.6601e-07,-6.5069,0.19069
14861,5.8783,1.7273,0,0.00044687,4465.6,0.00015745,0.0017139,0.00013032,-203.8,-0.00044999,-4564,0.18994
14862,5.7864,1.8182,0,0.00044853,4482.2,0.00015882,-5.3023e-05,0.00012942,-220.92,-0.00045188,-4588.5,0.1846
14863,5.8783,1.8182,0.05,1.1288e-06,11.281,8.668e-07,6.5128,-2.677e-12,6.5591e-06,-8.668e-07,-6.5128,0.1902
14864,5.8783,1.5455,0,0.00044826,4479.5,0.00015711,0.005525,0.00013218,-187.31,-0.00045115,-4570.2,0.18932
14865,5.7864,1.6364,0,0.00044989,4495.8,0.00015848,0.0035992,0.00013125,-204.63,-0.00045302,-4594.6,0.18402
14866,5.8783,1.6364,0.05,1.1297e-06,11.289,8.6747e-07,6.5179,-4.1441e-12,9.906e-06,-8.6747e-07,-6.5178,0.18961
14867,5.8783,1.3636,0,0.00044979,4494.8,0.00015673,0.010081,0.00013422,-169.12,-0.00045243,-4577,0.1886
14868,5.7864,1.4545,0,0.00045141,4511,0.00015811,0.0079981,0.00013329,-186.47,-0.0004543,-4601.4,0.18335
14869,5.8783,1.4545,0.05,1.1303e-06,11.295,8.6792e-07,6.5213,-2.2544e-12,1.4119e-05,-8.6792e-07,-6.5211,0.18894
14870,5.8783,1.1818,0,0.00045145,4511.4,0.00015632,0.015715,0.00013643,-149.39,-0.00045381,-4584.3,0.1878
14871,5.7864,1.2727,0,0.00045308,4527.7,0.0001577,0.013246,0.00013552,-166.63,-0.00045569,-4608.7,0.18259
14872,5.8783,1.2727,0.05,1.1305e-06,11.297,8.6806e-07,6.5224,-5.3473e-12,1.5727e-05,-8.6806e-07,-6.5222,0.18818
14873,5.8783,1,0,0.00045323,4529.2,0.00015588,0.022423,0.0001388,-128.29,-0.00045528,-4592,0.18691
14874,5.7864,1.0909,0,0.00045488,4545.6,0.00015725,0.019968,0.00013791,-145.27,-0.00045717,-4616.5,0.18175
14875,5.8783,1.0909,0.05,1.1301e-06,11.294,8.6781e-07,6.5204,-1.7929e-12,1.2846e-05,-8.678e-07,-6.5203,0.18734
14876,5.8783,0.81818,0,0.00045512,4548,0.00015541,0.032838,0.0001413,-106.01,-0.00045683,-4600.1,0.18592
14877,5.7864,0.90909,0,0.00045679,4564.7,0.00015677,0.02759,0.00014046,-122.58,-0.00045875,-4624.8,0.18081
14878,5.8783,0.90909,0.05,1.1292e-06,11.284,8.6706e-07,6.5148,-1.4159e-12,1.3479e-05,-8.6705e-07,-6.5147,0.1864
14879,5.8783,0.63636,0,0.00045709,4567.7,0.00015492,0.041523,0.0001439,-82.736,-0.00045844,-4608.5,0.18485
14880,5.7864,0.72727,0,0.0004588,4584.8,0.00015627,0.042352,0.00014312,-98.77,-0.0004604,-4633.4,0.17978
14881,5.8783,0.72727,0.05,1.1274e-06,11.266,8.6571e-07,6.5047,-2.3848e-12,1.8877e-05,-8.657e-07,-6.5045,0.18537
14882,5.8783,0.45455,0,0.00045913,4588.1,0.00015441,0.093894,0.0001466,-58.622,-0.00046009,-4617.1,0.18367
14883,5.7864,0.54545,0,0.00046089,4605.7,0.00015575,0.047212,0.00014589,-74.028,-0.0004621,-4642.2,0.17865
14884,5.8783,0.54545,0.05,1.124e-06,11.232,8.6306e-07,6.4848,-1.256e-12,2.4995e-05,-8.6306e-07,-6.4846,0.18424
14885,5.8783,0.27273,0,0.00046124,4609.2,0.00015389,0.12904,0.00014938,-33.753,-0.0004618,-4625.9,0.1824
14886,5.7864,0.36364,0,0.00046304,4627.2,0.00015521,0.1564,0.00014874,-48.485,-0.00046385,-4651.2,0.17743
14887,5.8783,0.36364,0.05,1.1056e-06,11.048,8.4896e-07,6.3788,-4.131e-12,2.624e-05,-8.4895e-07,-6.3786,0.18302
14888,5.7864,0.18182,0,0.00046528,4649.5,0.00015465,0.16094,0.00015167,-22.233,-0.00046565,-4660.5,0.17611
14889,5.8783,0.18182,0.05,8.8341e-07,8.828,6.7836e-07,5.097,-2.1268e-12,4.3491e-05,-6.7835e-07,-5.0968,0.1817
14890,5.8783,0.090909,0,0.00046313,4628.1,0.0001534,0.14945,0.00015189,-11.152,-0.00046332,-4633.6,0.18103
14891,5.6946,5.7273,0,0.00046708,4667.6,0.00015597,0.14213,0.00015104,-36.924,-0.00046769,-4685.8,0.17124
14892,5.6027,5.8182,0,0.00047123,4709,0.00015673,0.17696,0.00015346,-24.398,-0.00047163,-4721.1,0.1651
14893,5.6946,5.8182,0.05,9.6052e-07,9.5986,7.3756e-07,5.5417,-2.7188e-13,-4.2857e-05,-7.3757e-07,-5.5419,0.17054
14894,5.6946,5.9091,0,0.00046914,4688.1,0.00015544,0.15811,0.00015378,-12.335,-0.00046934,-4694.2,0.16987
14895,5.6946,5.5455,0,0.0004648,4644.8,0.00015655,0.10305,0.00014803,-63.878,-0.00046585,-4676.4,0.17251
14896,5.6027,5.6364,0,0.00046882,4685,0.00015733,0.17137,0.00015028,-52.826,-0.00046969,-4711.1,0.16643
14897,5.6946,5.6364,0.05,1.1288e-06,11.28,8.6679e-07,6.5127,1.2919e-12,-2.8383e-05,-8.668e-07,-6.5129,0.17186
14898,5.6946,5.3636,0,0.0004626,4622.8,0.0001571,0.045679,0.00014511,-90.05,-0.00046406,-4667.1,0.17369
14899,5.6027,5.4545,0,0.00046649,4661.7,0.00015792,0.052069,0.00014719,-80.534,-0.00046781,-4701.4,0.16765
14900,5.6946,5.4545,0.05,1.1438e-06,11.43,8.7827e-07,6.599,1.3185e-12,-2.0569e-05,-8.7828e-07,-6.5991,0.17308
14901,5.6946,5.1818,0,0.00046047,4601.5,0.00015763,0.035998,0.00014228,-115.33,-0.00046232,-4658.1,0.17476
14902,5.6027,5.2727,0,0.00046423,4639.1,0.00015849,0.046471,0.00014419,-107.39,-0.00046597,-4691.9,0.16877
14903,5.6946,5.2727,0.05,1.147e-06,11.462,8.8076e-07,6.6177,3.0114e-12,-1.4843e-05,-8.8077e-07,-6.6178,0.17421
14904,5.6946,5,0,0.00045843,4581.2,0.00015814,0.024512,0.00013957,-139.55,-0.00046065,-4649.3,0.17575
14905,5.6027,5.0909,0,0.00046206,4617.4,0.00015904,0.030223,0.0001413,-133.27,-0.00046418,-4682.6,0.16981
14906,5.6946,5.0909,0.05,1.1487e-06,11.479,8.8206e-07,6.6274,3.0822e-12,-2.0724e-05,-8.8208e-07,-6.6276,0.17524
14907,5.6946,4.8182,0,0.00045651,4561.9,0.00015863,0.017104,0.000137,-162.49,-0.00045905,-4641,0.17664
14908,5.6027,4.9091,0,0.00046,4596.8,0.00015956,0.021799,0.00013853,-157.93,-0.00046248,-4673.7,0.17074
14909,5.6946,4.9091,0.05,1.1496e-06,11.488,8.8272e-07,6.6324,3.2246e-12,-1.474e-05,-8.8272e-07,-6.6325,0.17618
14910,5.6946,4.6364,0,0.00045471,4543.9,0.00015907,0.01089,0.00013459,-183.97,-0.00045756,-4633.1,0.17744
14911,5.6027,4.7273,0,0.00045805,4577.4,0.00016004,0.01439,0.00013593,-181.17,-0.00046086,-4665.2,0.17159
14912,5.6946,4.7273,0.05,1.1497e-06,11.489,8.8283e-07,6.6332,3.6291e-12,-9.494e-06,-8.8283e-07,-6.6333,0.17702
14913,5.6946,4.4545,0,0.00045305,4527.4,0.00015949,0.0058694,0.00013236,-203.78,-0.00045617,-4625.8,0.17815
14914,5.6027,4.5455,0,0.00045625,4559.3,0.0001605,0.0086065,0.00013351,-202.78,-0.00045936,-4657.3,0.17234
14915,5.6946,4.5455,0.05,1.1493e-06,11.485,8.825e-07,6.6307,2.3102e-12,-1.2357e-05,-8.825e-07,-6.6308,0.17778
14916,5.6946,4.2727,0,0.00045155,4512.4,0.00015986,0.0016732,0.00013035,-221.74,-0.00045491,-4619.1,0.17878
14917,5.6027,4.3636,0,0.0004546,4542.9,0.00016091,0.0037647,0.00013129,-222.55,-0.00045798,-4650,0.17301
14918,5.6946,4.3636,0.05,1.1484e-06,11.476,8.8184e-07,6.6258,8.7928e-13,-4.9837e-06,-8.8184e-07,-6.6258,0.17845
14919,5.6946,4.0909,0,0.00045022,4499.1,0.00016019,-0.0018129,0.00012856,-237.68,-0.00045379,-4613.2,0.17932
14920,5.6027,4.1818,0,0.00045312,4528.1,0.00016128,-0.00025233,0.00012929,-240.31,-0.00045673,-4643.5,0.17359
14921,5.6946,4.1818,0.05,1.1472e-06,11.465,8.8094e-07,6.619,9.6509e-13,-9.487e-06,-8.8094e-07,-6.6191,0.17903
14922,5.6946,3.9091,0,0.00044907,4487.6,0.00016047,-0.0046833,0.00012701,-251.45,-0.00045282,-4608,0.17977
14923,5.6027,4,0,0.00045183,4515.2,0.0001616,-0.0035832,0.00012754,-255.87,-0.00045564,-4637.7,0.17409
14924,5.6946,4,0.05,1.1459e-06,11.451,8.7992e-07,6.6113,-6.0043e-13,-6.1963e-06,-8.7992e-07,-6.6114,0.17953
14925,5.6946,3.7273,0,0.00044812,4478.1,0.00016071,-0.0069877,0.00012572,-262.91,-0.00045201,-4603.7,0.18014
14926,5.6027,3.8182,0,0.00045073,4504.2,0.00016187,-0.006295,0.00012606,-269.09,-0.00045471,-4632.7,0.1745
14927,5.6946,3.8182,0.05,1.1446e-06,11.438,8.7888e-07,6.6036,-5.9602e-13,-3.8154e-06,-8.7889e-07,-6.6036,0.17994
14928,5.6946,3.5455,0,0.00044736,4470.6,0.0001609,-0.0087564,0.0001247,-271.95,-0.00045137,-4600.3,0.18043
14929,5.6027,3.6364,0,0.00044984,4495.3,0.00016209,-0.0084296,0.00012485,-279.83,-0.00045395,-4628.7,0.17482
14930,5.6946,3.6364,0.05,1.1433e-06,11.425,8.7793e-07,6.5964,-4.2206e-13,-3.202e-06,-8.7793e-07,-6.5964,0.18027
14931,5.6946,3.3636,0,0.00044682,4465.1,0.00016103,-0.010009,0.00012397,-278.47,-0.00045091,-4597.9,0.18063
14932,5.6027,3.4545,0,0.00044917,4488.6,0.00016226,-0.010012,0.00012393,-287.99,-0.00045338,-4625.7,0.17507
14933,5.6946,3.4545,0.05,1.1423e-06,11.415,8.7713e-07,6.5904,-3.1449e-13,-2.3555e-06,-8.7713e-07,-6.5904,0.18051
14934,5.6946,3.1818,0,0.0004465,4461.9,0.00016111,-0.010758,0.00012353,-282.41,-0.00045063,-4596.4,0.18076
14935,5.6027,3.2727,0,0.00044872,4484.1,0.00016237,-0.011061,0.00012332,-293.47,-0.00045299,-4623.6,0.17523
14936,5.6946,3.2727,0.05,1.1415e-06,11.408,8.7656e-07,6.5861,-1.9379e-13,-1.4431e-06,-8.7656e-07,-6.5861,0.18068
14937,5.6946,3,0,0.00044639,4460.8,0.00016114,-0.011007,0.00012338,-283.73,-0.00045054,-4595.9,0.1808
14938,5.6027,3.0909,0,0.00044849,4481.8,0.00016243,-0.011584,0.00012301,-296.23,-0.00045279,-4622.6,0.17531
14939,5.6946,3.0909,0.05,1.1412e-06,11.404,8.7626e-07,6.5839,-6.5003e-14,-4.7327e-07,-8.7626e-07,-6.5839,0.18076
14940,5.6946,2.8182,0,0.0004465,4461.9,0.00016111,-0.010758,0.00012353,-282.41,-0.00045063,-4596.4,0.18076
14941,5.6027,2.9091,0,0.00044849,4481.8,0.00016243,-0.011584,0.00012301,-296.23,-0.00045279,-4622.6,0.17531
14942,5.6946,2.9091,0.05,1.1412e-06,11.404,8.7627e-07,6.584,6.6164e-14,5.2028e-07,-8.7626e-07,-6.5838,0.18076
14943,5.6946,2.6364,0,0.00044682,4465.1,0.00016103,-0.010009,0.00012397,-278.47,-0.00045091,-4597.9,0.18063
14944,5.6027,2.7273,0,0.00044872,4484.1,0.00016237,-0.011061,0.00012332,-293.47,-0.00045299,-4623.6,0.17523
14945,5.6946,2.7273,0.05,1.1415e-06,11.408,8.7656e-07,6.5861,1.9243e-13,1.4431e-06,-8.7656e-07,-6.5861,0.18068
14946,5.6946,2.4545,0,0.00044736,4470.6,0.0001609,-0.0087562,0.0001247,-271.95,-0.00045137,-4600.3,0.18043
14947,5.6027,2.5455,0,0.00044917,4488.6,0.00016226,-0.010012,0.00012393,-287.99,-0.00045338,-4625.7,0.17507
14948,5.6946,2.5455,0.05,1.1423e-06,11.415,8.7713e-07,6.5904,3.831e-13,2.7391e-06,-8.7712e-07,-6.5904,0.18051
14949,5.6946,2.2727,0,0.00044812,4478.1,0.00016071,-0.0069874,0.00012572,-262.91,-0.00045201,-4603.7,0.18014
14950,5.6027,2.3636,0,0.00044984,4495.3,0.00016209,-0.0084294,0.00012485,-279.83,-0.00045395,-4628.7,0.17482
14951,5.6946,2.3636,0.05,1.1433e-06,11.425,8.7793e-07,6.5964,5.0986e-13,3.9386e-06,-8.7792e-07,-6.5964,0.18027
14952,5.6946,2.0909,0,0.00044907,4487.6,0.00016047,-0.0046829,0.00012701,-251.45,-0.00045282,-4608,0.17977
14953,5.6027,2.1818,0,0.00045073,4504.2,0.00016187,-0.0062946,0.00012606,-269.09,-0.00045471,-4632.7,0.1745
14954,5.6946,2.1818,0.05,1.1446e-06,11.438,8.7889e-07,6.6036,6.5095e-13,7.5561e-06,-8.7888e-07,-6.6036,0.17994
14955,5.6946,1.9091,0,0.00045022,4499.1,0.00016019,-0.0018124,0.00012856,-237.68,-0.00045379,-4613.2,0.17932
14956,5.6027,2,0,0.00045183,4515.2,0.0001616,-0.0035828,0.00012754,-255.87,-0.00045564,-4637.7,0.17409
14957,5.6946,2,0.05,1.1459e-06,11.451,8.7992e-07,6.6114,-2.7411e-12,7.9068e-06,-8.7992e-07,-6.6113,0.17953
14958,5.6946,1.7273,0,0.00045155,4512.4,0.00015986,0.0016738,0.00013035,-221.74,-0.00045491,-4619.1,0.17878
14959,5.6027,1.8182,0,0.00045312,4528.1,0.00016128,-0.00025175,0.00012929,-240.31,-0.00045673,-4643.5,0.17359
14960,5.6946,1.8182,0.05,1.1472e-06,11.465,8.8094e-07,6.6191,-6.9156e-13,9.487e-06,-8.8093e-07,-6.619,0.17903
14961,5.6946,1.5455,0,0.00045305,4527.4,0.00015949,0.00587,0.00013236,-203.78,-0.00045617,-4625.8,0.17815
14962,5.6027,1.6364,0,0.0004546,4542.9,0.00016091,0.0037652,0.00013129,-222.55,-0.00045798,-4650,0.17301
14963,5.6946,1.6364,0.05,1.1484e-06,11.476,8.8184e-07,6.6258,-8.6716e-13,8.205e-06,-8.8184e-07,-6.6257,0.17845
14964,5.6946,1.3636,0,0.00045471,4543.9,0.00015907,0.010891,0.00013459,-183.97,-0.00045756,-4633.1,0.17744
14965,5.6027,1.4545,0,0.00045625,4559.3,0.0001605,0.0086072,0.00013351,-202.78,-0.00045936,-4657.3,0.17234
14966,5.6946,1.4545,0.05,1.1493e-06,11.485,8.8251e-07,6.6308,-1.8864e-12,1.2357e-05,-8.825e-07,-6.6307,0.17778
14967,5.6946,1.1818,0,0.00045651,4561.9,0.00015863,0.017105,0.000137,-162.49,-0.00045905,-4641,0.17664
14968,5.6027,1.2727,0,0.00045805,4577.4,0.00016004,0.014391,0.00013593,-181.17,-0.00046086,-4665.2,0.17159
14969,5.6946,1.2727,0.05,1.1497e-06,11.489,8.8284e-07,6.6333,-5.1023e-12,1.3201e-05,-8.8283e-07,-6.6332,0.17702
14970,5.6946,1,0,0.00045843,4581.2,0.00015814,0.024513,0.00013957,-139.55,-0.00046065,-4649.3,0.17575
14971,5.6027,1.0909,0,0.00046,4596.8,0.00015956,0.0218,0.00013853,-157.93,-0.00046248,-4673.7,0.17074
14972,5.6946,1.0909,0.05,1.1496e-06,11.488,8.8272e-07,6.6325,-4.9158e-12,1.4354e-05,-8.8272e-07,-6.6324,0.17618
14973,5.6946,0.81818,0,0.00046047,4601.5,0.00015763,0.035999,0.00014228,-115.33,-0.00046232,-4658.1,0.17476
14974,5.6027,0.90909,0,0.00046206,4617.4,0.00015904,0.030224,0.0001413,-133.27,-0.00046418,-4682.6,0.16981
14975,5.6946,0.90909,0.05,1.1487e-06,11.479,8.8208e-07,6.6276,-3.1144e-12,2.0522e-05,-8.8206e-07,-6.6274,0.17524
14976,5.6946,0.63636,0,0.0004626,4622.8,0.0001571,0.04568,0.00014511,-90.05,-0.00046406,-4667.1,0.17369
14977,5.6027,0.72727,0,0.00046423,4639.1,0.00015849,0.046472,0.00014419,-107.39,-0.00046597,-4691.9,0.16877
14978,5.6946,0.72727,0.05,1.147e-06,11.462,8.8077e-07,6.6178,-4.3073e-12,2.1426e-05,-8.8076e-07,-6.6177,0.17421
14979,5.6946,0.45455,0,0.0004648,4644.8,0.00015655,0.10305,0.00014803,-63.878,-0.00046585,-4676.4,0.17251
14980,5.6027,0.54545,0,0.00046649,4661.7,0.00015792,0.05207,0.00014719,-80.534,-0.00046781,-4701.4,0.16765
14981,5.6946,0.54545,0.05,1.1438e-06,11.43,8.7828e-07,6.5991,-4.219e-12,2.939e-05,-8.7827e-07,-6.5989,0.17308
14982,5.6946,0.27273,0,0.00046708,4667.6,0.00015597,0.14213,0.00015104,-36.924,-0.00046769,-4685.8,0.17124
14983,5.6027,0.36364,0,0.00046882,4685,0.00015733,0.17138,0.00015028,-52.826,-0.00046969,-4711.1,0.16643
14984,5.6946,0.36364,0.05,1.1288e-06,11.28,8.668e-07,6.5129,-4.5396e-12,2.9427e-05,-8.668e-07,-6.5127,0.17186
14985,5.6027,0.18182,0,0.00047123,4709,0.00015673,0.17696,0.00015346,-24.398,-0.00047163,-4721.1,0.1651
14986,5.6946,0.18182,0.05,9.6052e-07,9.5986,7.3757e-07,5.5419,-2.1199e-12,4.3468e-05,-7.3756e-07,-5.5417,0.17054
14987,5.6946,0.090909,0,0.00046914,4688.1,0.00015544,0.15811,0.00015378,-12.335,-0.00046934,-4694.2,0.16987
14988,5.5109,5.7273,0,0.00047297,4726.4,0.00015808,0.15679,0.0001527,-40.25,-0.00047364,-4746.3,0.16039
14989,5.419,5.8182,0,0.00047723,4769,0.00015882,0.19586,0.00015525,-26.626,-0.00047768,-4782.2,0.15442
14990,5.5109,5.8182,0.05,1.0437e-06,10.43,8.0142e-07,6.0215,3.3607e-12,-2.198e-05,-8.0143e-07,-6.0216,0.15969
14991,5.5109,5.9091,0,0.00047519,4748.7,0.0001575,0.1679,0.00015567,-13.547,-0.00047542,-4755.3,0.15902
14992,5.5109,5.5455,0,0.00047051,4701.8,0.00015871,0.11307,0.00014944,-69.465,-0.00047165,-4736.1,0.16167
14993,5.419,5.6364,0,0.00047464,4743.1,0.00015948,0.18776,0.00015181,-57.415,-0.00047558,-4771.4,0.15574
14994,5.5109,5.6364,0.05,1.154e-06,11.532,8.8616e-07,6.6582,4.1902e-12,-2.5603e-05,-8.8616e-07,-6.6583,0.16101
14995,5.5109,5.3636,0,0.00046813,4678,0.00015931,0.050254,0.00014628,-97.864,-0.00046971,-4726.2,0.16284
14996,5.419,5.4545,0,0.00047212,4717.9,0.00016012,0.057428,0.00014847,-87.466,-0.00047355,-4761,0.15696
14997,5.5109,5.4545,0.05,1.1653e-06,11.645,8.9483e-07,6.7234,2.6416e-12,-1.7857e-05,-8.9484e-07,-6.7235,0.16224
14998,5.5109,5.1818,0,0.00046583,4655,0.00015989,0.039474,0.00014321,-125.32,-0.00046783,-4716.4,0.16392
14999,5.419,5.2727,0,0.00046968,4693.6,0.00016074,0.050996,0.00014521,-116.62,-0.00047155,-4750.8,0.15809
15000,5.5109,5.2727,0.05,1.1684e-06,11.676,8.9716e-07,6.7409,2.6949e-12,-1.7666e-05,-8.9716e-07,-6.741,0.16336
15001,5.5109,5,0,0.00046362,4633,0.00016045,0.026821,0.00014026,-151.64,-0.00046602,-4707,0.1649
15002,5.419,5.0909,0,0.00046733,4670.1,0.00016134,0.033126,0.00014207,-144.73,-0.00046963,-4740.8,0.15912
15003,5.5109,5.0909,0.05,1.17e-06,11.692,8.9841e-07,6.7503,3.1736e-12,-1.7185e-05,-8.9842e-07,-6.7504,0.16439
15004,5.5109,4.8182,0,0.00046154,4612.2,0.00016097,0.018648,0.00013747,-176.59,-0.00046429,-4698,0.16579
15005,5.419,4.9091,0,0.0004651,4647.8,0.0001619,0.023826,0.00013907,-171.55,-0.00046778,-4731.2,0.16005
15006,5.5109,4.9091,0.05,1.1707e-06,11.699,8.9896e-07,6.7544,-1.2515e-14,-1.6193e-05,-8.9897e-07,-6.7545,0.16533
15007,5.5109,4.6364,0,0.00045959,4592.8,0.00016146,0.011804,0.00013485,-199.97,-0.00046267,-4689.5,0.16659
15008,5.419,4.7273,0,0.000463,4626.8,0.00016244,0.015667,0.00013624,-196.83,-0.00046603,-4722.1,0.16089
15009,5.5109,4.7273,0.05,1.1706e-06,11.698,8.9891e-07,6.7541,1.7573e-12,-5.6508e-06,-8.9891e-07,-6.7541,0.16617
15010,5.5109,4.4545,0,0.0004578,4574.9,0.00016192,0.0062773,0.00013243,-221.54,-0.00046117,-4681.6,0.1673
15011,5.419,4.5455,0,0.00046105,4607.3,0.00016293,0.0093014,0.0001336,-220.35,-0.0004644,-4713.5,0.16165
15012,5.5109,4.5455,0.05,1.17e-06,11.691,8.9838e-07,6.75,2.1126e-12,-1.3884e-05,-8.9838e-07,-6.7501,0.16693
15013,5.5109,4.2727,0,0.00045618,4558.6,0.00016232,0.0016632,0.00013023,-241.11,-0.0004598,-4674.4,0.16792
15014,5.419,4.3636,0,0.00045927,4589.5,0.00016338,0.0039783,0.00013119,-241.9,-0.0004629,-4705.7,0.16231
15015,5.5109,4.3636,0.05,1.1688e-06,11.68,8.9747e-07,6.7432,-1.1253e-12,-1.2141e-05,-8.9747e-07,-6.7433,0.16759
15016,5.5109,4.0909,0,0.00045474,4544.2,0.00016269,-0.0021669,0.00012828,-258.49,-0.00045858,-4668,0.16846
15017,5.419,4.1818,0,0.00045767,4573.5,0.00016379,-0.000434,0.00012902,-261.25,-0.00046155,-4698.6,0.16289
15018,5.5109,4.1818,0.05,1.1673e-06,11.665,8.9631e-07,6.7345,-8.9787e-13,-1.0622e-05,-8.9631e-07,-6.7346,0.16817
15019,5.5109,3.9091,0,0.0004535,4531.8,0.000163,-0.005318,0.0001266,-273.51,-0.00045753,-4662.4,0.16891
15020,5.419,4,0,0.00045627,4559.6,0.00016414,-0.0040892,0.00012711,-278.22,-0.00046037,-4692.3,0.16338
15021,5.5109,4,0.05,1.1656e-06,11.648,8.9503e-07,6.7249,-8.7831e-13,-4.7215e-06,-8.9503e-07,-6.7249,0.16867
15022,5.5109,3.7273,0,0.00045246,4521.5,0.00016326,-0.0078457,0.00012519,-286.01,-0.00045665,-4657.7,0.16928
15023,5.419,3.8182,0,0.00045508,4547.7,0.00016444,-0.007062,0.00012549,-292.64,-0.00045936,-4687,0.16379
15024,5.5109,3.8182,0.05,1.1639e-06,11.631,8.9375e-07,6.7153,-6.3661e-13,-4.2335e-06,-8.9375e-07,-6.7153,0.16907
15025,5.5109,3.5455,0,0.00045165,4513.4,0.00016346,-0.0097844,0.00012408,-295.87,-0.00045596,-4654.1,0.16956
15026,5.419,3.6364,0,0.00045412,4538.1,0.00016468,-0.0094002,0.00012418,-304.37,-0.00045853,-4682.6,0.16411
15027,5.5109,3.6364,0.05,1.1624e-06,11.616,8.9258e-07,6.7065,1.2898e-12,-4.2605e-06,-8.9258e-07,-6.7065,0.1694
15028,5.5109,3.3636,0,0.00045107,4507.5,0.00016361,-0.011157,0.00012328,-302.99,-0.00045545,-4651.4,0.16977
15029,5.419,3.4545,0,0.00045339,4530.8,0.00016487,-0.011132,0.00012318,-313.27,-0.00045791,-4679.3,0.16436
15030,5.5109,3.4545,0.05,1.1611e-06,11.603,8.9161e-07,6.6992,-3.6434e-13,-2.5309e-06,-8.9161e-07,-6.6992,0.16965
15031,5.5109,3.1818,0,0.00045071,4504,0.0001637,-0.011976,0.0001228,-307.29,-0.00045515,-4649.8,0.16989
15032,5.419,3.2727,0,0.0004529,4525.9,0.00016499,-0.01228,0.0001225,-319.25,-0.00045749,-4677.1,0.16452
15033,5.5109,3.2727,0.05,1.1602e-06,11.594,8.9092e-07,6.694,-2.0906e-13,-1.5575e-06,-8.9092e-07,-6.694,0.16981
15034,5.5109,3,0,0.00045059,4502.8,0.00016373,-0.012249,0.00012264,-308.73,-0.00045505,-4649.2,0.16993
15035,5.419,3.0909,0,0.00045266,4523.4,0.00016505,-0.012851,0.00012216,-322.26,-0.00045728,-4676,0.1646
15036,5.5109,3.0909,0.05,1.1598e-06,11.59,8.9056e-07,6.6913,-6.9186e-14,-5.268e-07,-8.9055e-07,-6.6913,0.16989
15037,5.5109,2.8182,0,0.00045071,4504,0.0001637,-0.011976,0.0001228,-307.29,-0.00045515,-4649.8,0.16989
15038,5.419,2.9091,0,0.00045266,4523.4,0.00016505,-0.012851,0.00012216,-322.26,-0.00045728,-4676,0.1646
15039,5.5109,2.9091,0.05,1.1598e-06,11.59,8.9056e-07,6.6913,-1.7472e-12,5.2577e-07,-8.9055e-07,-6.6913,0.16989
15040,5.5109,2.6364,0,0.00045107,4507.5,0.00016361,-0.011156,0.00012328,-302.99,-0.00045545,-4651.4,0.16977
15041,5.419,2.7273,0,0.0004529,4525.9,0.00016499,-0.01228,0.0001225,-319.25,-0.00045749,-4677.1,0.16452
15042,5.5109,2.7273,0.05,1.1602e-06,11.594,8.9092e-07,6.694,-1.5954e-12,1.7194e-06,-8.9091e-07,-6.694,0.16981
15043,5.5109,2.4545,0,0.00045165,4513.4,0.00016346,-0.0097841,0.00012408,-295.87,-0.00045596,-4654.1,0.16956
15044,5.419,2.5455,0,0.00045339,4530.8,0.00016487,-0.011132,0.00012318,-313.27,-0.00045791,-4679.3,0.16436
15045,5.5109,2.5455,0.05,1.1611e-06,11.603,8.9161e-07,6.6992,-1.3838e-12,2.5309e-06,-8.916e-07,-6.6992,0.16965
15046,5.5109,2.2727,0,0.00045246,4521.5,0.00016326,-0.0078453,0.00012519,-286.01,-0.00045665,-4657.7,0.16928
15047,5.419,2.3636,0,0.00045412,4538.1,0.00016468,-0.0093999,0.00012418,-304.37,-0.00045853,-4682.6,0.16411
15048,5.5109,2.3636,0.05,1.1624e-06,11.616,8.9258e-07,6.7065,-3.0834e-12,4.2605e-06,-8.9258e-07,-6.7065,0.1694
15049,5.5109,2.0909,0,0.0004535,4531.8,0.000163,-0.0053176,0.0001266,-273.51,-0.00045753,-4662.4,0.16891
15050,5.419,2.1818,0,0.00045508,4547.7,0.00016444,-0.0070617,0.00012549,-292.64,-0.00045936,-4687,0.16379
15051,5.5109,2.1818,0.05,1.1639e-06,11.631,8.9376e-07,6.7153,-2.8468e-12,4.1629e-06,-8.9375e-07,-6.7153,0.16907
15052,5.5109,1.9091,0,0.00045474,4544.2,0.00016269,-0.0021665,0.00012828,-258.49,-0.00045858,-4668,0.16846
15053,5.419,2,0,0.00045627,4559.6,0.00016414,-0.0040888,0.00012711,-278.22,-0.00046037,-4692.3,0.16338
15054,5.5109,2,0.05,1.1656e-06,11.648,8.9504e-07,6.7249,-4.1673e-12,4.8058e-06,-8.9503e-07,-6.7249,0.16867
15055,5.5109,1.7273,0,0.00045618,4558.6,0.00016232,0.0016637,0.00013023,-241.11,-0.0004598,-4674.4,0.16792
15056,5.419,1.8182,0,0.00045767,4573.5,0.00016379,-0.00043349,0.00012902,-261.25,-0.00046155,-4698.6,0.16289
15057,5.5109,1.8182,0.05,1.1673e-06,11.665,8.9632e-07,6.7346,-4.1617e-13,1.0428e-05,-8.9631e-07,-6.7345,0.16817
15058,5.5109,1.5455,0,0.0004578,4574.9,0.00016192,0.0062779,0.00013243,-221.54,-0.00046117,-4681.6,0.1673
15059,5.419,1.6364,0,0.00045927,4589.5,0.00016338,0.0039788,0.00013119,-241.9,-0.0004629,-4705.7,0.16231
15060,5.5109,1.6364,0.05,1.1688e-06,11.68,8.9747e-07,6.7433,-2.3128e-12,1.9067e-05,-8.9747e-07,-6.7431,0.16759
15061,5.5109,1.3636,0,0.00045959,4592.8,0.00016146,0.011804,0.00013485,-199.97,-0.00046267,-4689.5,0.16659
15062,5.419,1.4545,0,0.00046105,4607.3,0.00016293,0.0093022,0.0001336,-220.35,-0.0004644,-4713.5,0.16165
15063,5.5109,1.4545,0.05,1.17e-06,11.691,8.9838e-07,6.7501,-1.7111e-12,1.3884e-05,-8.9837e-07,-6.75,0.16693
15064,5.5109,1.1818,0,0.00046154,4612.2,0.00016097,0.018649,0.00013747,-176.59,-0.00046429,-4698,0.16579
15065,5.419,1.2727,0,0.000463,4626.8,0.00016244,0.015668,0.00013624,-196.83,-0.00046603,-4722.1,0.16089
15066,5.5109,1.2727,0.05,1.1706e-06,11.698,8.9892e-07,6.7541,-3.1772e-12,5.1371e-06,-8.9891e-07,-6.7541,0.16617
15067,5.5109,1,0,0.00046362,4633,0.00016045,0.026822,0.00014026,-151.64,-0.00046602,-4707,0.1649
15068,5.419,1.0909,0,0.0004651,4647.8,0.0001619,0.023826,0.00013907,-171.55,-0.00046778,-4731.2,0.16005
15069,5.5109,1.0909,0.05,1.1707e-06,11.699,8.9897e-07,6.7545,6.3583e-13,2.1695e-05,-8.9896e-07,-6.7544,0.16533
15070,5.5109,0.81818,0,0.00046583,4655,0.00015989,0.039475,0.00014321,-125.32,-0.00046783,-4716.4,0.16392
15071,5.419,0.90909,0,0.00046733,4670.1,0.00016134,0.033128,0.00014207,-144.73,-0.00046963,-4740.8,0.15912
15072,5.5109,0.90909,0.05,1.17e-06,11.692,8.9842e-07,6.7504,-2.0907e-12,2.3194e-05,-8.9841e-07,-6.7503,0.16439
15073,5.5109,0.63636,0,0.00046813,4678,0.00015931,0.050254,0.00014628,-97.864,-0.00046971,-4726.2,0.16284
15074,5.419,0.72727,0,0.00046968,4693.6,0.00016074,0.050997,0.00014521,-116.62,-0.00047155,-4750.8,0.15809
15075,5.5109,0.72727,0.05,1.1684e-06,11.676,8.9716e-07,6.741,-2.7306e-12,2.3958e-05,-8.9716e-07,-6.7408,0.16336
15076,5.5109,0.45455,0,0.00047051,4701.8,0.00015871,0.11307,0.00014944,-69.465,-0.00047165,-4736.1,0.16167
15077,5.419,0.54545,0,0.00047212,4717.9,0.00016012,0.057429,0.00014847,-87.466,-0.00047355,-4761,0.15696
15078,5.5109,0.54545,0.05,1.1653e-06,11.645,8.9484e-07,6.7235,-1.7936e-12,1.7625e-05,-8.9483e-07,-6.7234,0.16224
15079,5.5109,0.27273,0,0.00047297,4726.4,0.00015808,0.15679,0.0001527,-40.25,-0.00047364,-4746.3,0.16039
15080,5.419,0.36364,0,0.00047464,4743.1,0.00015948,0.18776,0.00015181,-57.415,-0.00047558,-4771.4,0.15574
15081,5.5109,0.36364,0.05,1.154e-06,11.532,8.8616e-07,6.6583,-4.202e-12,3.3278e-05,-8.8616e-07,-6.6581,0.16101
15082,5.419,0.18182,0,0.00047723,4769,0.00015882,0.19586,0.00015525,-26.626,-0.00047768,-4782.2,0.15442
15083,5.5109,0.18182,0.05,1.0437e-06,10.43,8.0142e-07,6.0217,-3.3607e-12,3.2951e-05,-8.0142e-07,-6.0215,0.15969
15084,5.5109,0.090909,0,0.00047519,4748.7,0.0001575,0.1679,0.00015567,-13.547,-0.00047542,-4755.3,0.15902
15085,5.3272,5.7273,0,0.0004789,4785.7,0.00016021,0.17323,0.00015437,-43.73,-0.00047963,-4807.3,0.14987
15086,5.2353,5.8182,0,0.0004833,4829.6,0.00016094,0.21813,0.00015706,-28.907,-0.00048378,-4843.9,0.14405
15087,5.3272,5.8182,0.05,1.1333e-06,11.325,8.7024e-07,6.5385,3.3227e-13,-4.312e-05,-8.7024e-07,-6.5387,0.14916
15088,5.3272,5.9091,0,0.00048131,4809.8,0.00015958,0.17887,0.00015759,-14.781,-0.00048156,-4817.1,0.14849
15089,5.3272,5.5455,0,0.00047625,4759.2,0.00016089,0.12404,0.00015084,-75.395,-0.00047748,-4796.4,0.15114
15090,5.2353,5.6364,0,0.00048049,4801.6,0.00016165,0.2057,0.00015334,-62.258,-0.00048152,-4832.3,0.14537
15091,5.3272,5.6364,0.05,1.1814e-06,11.806,9.0715e-07,6.8159,3.828e-12,-2.7856e-05,-9.0716e-07,-6.8161,0.15049
15092,5.3272,5.3636,0,0.00047367,4733.5,0.00016155,0.055289,0.00014741,-106.21,-0.00047539,-4785.7,0.15231
15093,5.2353,5.4545,0,0.00047778,4774.5,0.00016235,0.063344,0.00014971,-94.845,-0.00047932,-4821.1,0.14659
15094,5.3272,5.4545,0.05,1.1888e-06,11.88,9.1285e-07,6.8588,6.8775e-13,-3.6823e-05,-9.1286e-07,-6.859,0.15171
15095,5.3272,5.1818,0,0.00047119,4708.6,0.00016218,0.043296,0.00014408,-136.02,-0.00047335,-4775.1,0.15339
15096,5.2353,5.2727,0,0.00047514,4748.1,0.00016302,0.055965,0.00014618,-126.49,-0.00047716,-4810.1,0.14772
15097,5.3272,5.2727,0.05,1.1916e-06,11.908,9.1502e-07,6.875,3.926e-12,-2.6635e-05,-9.1502e-07,-6.8752,0.15283
15098,5.3272,5,0,0.00046881,4684.9,0.00016279,0.029369,0.00014088,-164.62,-0.00047139,-4765,0.15437
15099,5.2353,5.0909,0,0.00047261,4722.8,0.00016368,0.036325,0.00014277,-157.02,-0.00047508,-4799.3,0.14874
15100,5.3272,5.0909,0.05,1.1932e-06,11.924,9.1622e-07,6.8841,2.503e-12,-1.8907e-05,-9.1624e-07,-6.8842,0.15386
15101,5.3272,4.8182,0,0.00046656,4662.4,0.00016337,0.020361,0.00013784,-191.76,-0.00046952,-4755.3,0.15525
15102,5.2353,4.9091,0,0.00047019,4698.7,0.0001643,0.026064,0.00013951,-186.18,-0.00047308,-4789,0.14967
15103,5.3272,4.9091,0.05,1.1938e-06,11.93,9.1667e-07,6.8874,-6.2729e-13,-2.4656e-05,-9.1667e-07,-6.8876,0.15479
15104,5.3272,4.6364,0,0.00046445,4641.3,0.0001639,0.012829,0.00013499,-217.2,-0.00046777,-4746.1,0.15605
15105,5.2353,4.7273,0,0.00046792,4676,0.00016488,0.017089,0.00013644,-213.69,-0.00047119,-4779.1,0.15051
15106,5.3272,4.7273,0.05,1.1935e-06,11.927,9.1645e-07,6.8858,-1.7446e-13,-1.1506e-05,-9.1645e-07,-6.8859,0.15563
15107,5.3272,4.4545,0,0.00046251,4622,0.0001644,0.0067534,0.00013236,-240.7,-0.00046614,-4737.6,0.15676
15108,5.2353,4.5455,0,0.00046581,4654.9,0.00016542,0.010089,0.00013357,-239.3,-0.00046942,-4769.9,0.15126
15109,5.3272,4.5455,0.05,1.1925e-06,11.917,9.1569e-07,6.8801,5.3742e-12,-1.5192e-05,-9.1569e-07,-6.8802,0.15638
15110,5.3272,4.2727,0,0.00046076,4604.4,0.00016484,0.0016859,0.00012997,-262.02,-0.00046466,-4729.8,0.15737
15111,5.2353,4.3636,0,0.00046389,4635.7,0.00016591,0.0042437,0.00013094,-262.77,-0.0004678,-4761.4,0.15192
15112,5.3272,4.3636,0.05,1.191e-06,11.901,9.1451e-07,6.8713,2.1485e-12,-9.8751e-06,-9.1452e-07,-6.8713,0.15705
15113,5.3272,4.0909,0,0.0004592,4588.9,0.00016524,-0.0025164,0.00012785,-280.97,-0.00046334,-4722.9,0.15791
15114,5.2353,4.1818,0,0.00046216,4618.4,0.00016636,-0.00059636,0.00012858,-283.87,-0.00046633,-4753.8,0.15249
15115,5.3272,4.1818,0.05,1.1891e-06,11.883,9.1307e-07,6.8604,7.814e-13,-8.6335e-06,-9.1307e-07,-6.8605,0.15762
15116,5.3272,3.9091,0,0.00045786,4575.4,0.00016558,-0.0059698,0.00012601,-297.35,-0.00046219,-4716.9,0.15836
15117,5.2353,4,0,0.00046065,4603.3,0.00016675,-0.0046012,0.0001265,-302.38,-0.00046505,-4747,0.15298
15118,5.3272,4,0.05,1.187e-06,11.862,9.115e-07,6.8487,-9.5853e-13,-7.4995e-06,-9.1151e-07,-6.8487,0.15811
15119,5.3272,3.7273,0,0.00045674,4564.3,0.00016587,-0.0087372,0.00012448,-311,-0.00046124,-4711.8,0.15872
15120,5.2353,3.8182,0,0.00045937,4590.5,0.00016707,-0.0078544,0.00012474,-318.11,-0.00046395,-4741.3,0.15339
15121,5.3272,3.8182,0.05,1.185e-06,11.842,9.0995e-07,6.837,1.0836e-12,-4.5348e-06,-9.0995e-07,-6.837,0.15852
15122,5.3272,3.5455,0,0.00045586,4555.5,0.00016609,-0.010858,0.00012327,-321.76,-0.00046048,-4707.9,0.159
15123,5.2353,3.6364,0,0.00045833,4580.1,0.00016734,-0.010411,0.0001233,-330.91,-0.00046306,-4736.6,0.15371
15124,5.3272,3.6364,0.05,1.1832e-06,11.824,9.0853e-07,6.8264,-5.5865e-13,-3.7166e-06,-9.0854e-07,-6.8264,0.15884
15125,5.3272,3.3636,0,0.00045523,4549.2,0.00016625,-0.012359,0.0001224,-329.53,-0.00045994,-4705,0.15921
15126,5.2353,3.4545,0,0.00045754,4572.2,0.00016754,-0.012303,0.00012221,-340.62,-0.00046238,-4733,0.15395
15127,5.3272,3.4545,0.05,1.1817e-06,11.808,9.0737e-07,6.8176,-3.6267e-13,-3.2494e-06,-9.0737e-07,-6.8176,0.15909
15128,5.3272,3.1818,0,0.00045485,4545.3,0.00016635,-0.013254,0.00012187,-334.23,-0.00045961,-4703.2,0.15933
15129,5.2353,3.2727,0,0.00045701,4566.9,0.00016768,-0.013555,0.00012148,-347.16,-0.00046192,-4730.6,0.15411
15130,5.3272,3.2727,0.05,1.1806e-06,11.798,9.0654e-07,6.8114,-2.2295e-13,-1.6858e-06,-9.0654e-07,-6.8114,0.15925
15131,5.3272,3,0,0.00045472,4544.1,0.00016638,-0.013552,0.00012169,-335.8,-0.0004595,-4702.7,0.15937
15132,5.2353,3.0909,0,0.00045674,4564.3,0.00016775,-0.014178,0.00012111,-350.45,-0.00046169,-4729.4,0.15419
15133,5.3272,3.0909,0.05,1.18e-06,11.792,9.0611e-07,6.8082,-7.4499e-14,-5.7032e-07,-9.0611e-07,-6.8082,0.15933
15134,5.3272,2.8182,0,0.00045485,4545.3,0.00016635,-0.013254,0.00012187,-334.23,-0.00045961,-4703.2,0.15933
15135,5.2353,2.9091,0,0.00045674,4564.3,0.00016775,-0.014178,0.00012111,-350.45,-0.00046169,-4729.4,0.15419
15136,5.3272,2.9091,0.05,1.18e-06,11.792,9.0611e-07,6.8082,7.6729e-14,5.8792e-07,-9.0611e-07,-6.8081,0.15933
15137,5.3272,2.6364,0,0.00045523,4549.2,0.00016625,-0.012358,0.0001224,-329.53,-0.00045994,-4705,0.15921
15138,5.2353,2.7273,0,0.00045701,4566.9,0.00016768,-0.013555,0.00012148,-347.16,-0.00046192,-4730.6,0.15411
15139,5.3272,2.7273,0.05,1.1806e-06,11.798,9.0654e-07,6.8115,-6.6949e-13,2.0463e-06,-9.0654e-07,-6.8113,0.15925
15140,5.3272,2.4545,0,0.00045586,4555.5,0.00016609,-0.010858,0.00012327,-321.76,-0.00046048,-4707.9,0.159
15141,5.2353,2.5455,0,0.00045754,4572.2,0.00016754,-0.012302,0.00012221,-340.62,-0.00046238,-4733,0.15395
15142,5.3272,2.5455,0.05,1.1817e-06,11.808,9.0737e-07,6.8177,3.8797e-13,3.7173e-06,-9.0737e-07,-6.8176,0.15909
15143,5.3272,2.2727,0,0.00045674,4564.3,0.00016587,-0.0087371,0.00012448,-311,-0.00046124,-4711.8,0.15872
15144,5.2353,2.3636,0,0.00045833,4580.1,0.00016734,-0.01041,0.0001233,-330.91,-0.00046306,-4736.6,0.15371
15145,5.3272,2.3636,0.05,1.1832e-06,11.824,9.0854e-07,6.8264,-1.187e-12,3.7166e-06,-9.0853e-07,-6.8264,0.15884
15146,5.3272,2.0909,0,0.00045786,4575.4,0.00016558,-0.0059696,0.00012601,-297.35,-0.00046219,-4716.9,0.15836
15147,5.2353,2.1818,0,0.00045937,4590.5,0.00016707,-0.0078541,0.00012474,-318.11,-0.00046395,-4741.3,0.15339
15148,5.3272,2.1818,0.05,1.185e-06,11.842,9.0995e-07,6.8371,-4.6458e-12,7.6828e-06,-9.0995e-07,-6.837,0.15852
15149,5.3272,1.9091,0,0.0004592,4588.9,0.00016524,-0.002516,0.00012785,-280.97,-0.00046334,-4722.9,0.15791
15150,5.2353,2,0,0.00046065,4603.3,0.00016675,-0.0046008,0.0001265,-302.38,-0.00046505,-4747,0.15298
15151,5.3272,2,0.05,1.187e-06,11.862,9.1151e-07,6.8487,1.0937e-12,7.4995e-06,-9.115e-07,-6.8487,0.15811
15152,5.3272,1.7273,0,0.00046076,4604.4,0.00016484,0.0016864,0.00012997,-262.02,-0.00046466,-4729.8,0.15737
15153,5.2353,1.8182,0,0.00046216,4618.4,0.00016636,-0.00059588,0.00012858,-283.87,-0.00046633,-4753.8,0.15249
15154,5.3272,1.8182,0.05,1.1891e-06,11.883,9.1308e-07,6.8605,-2.633e-13,8.6335e-06,-9.1307e-07,-6.8605,0.15762
15155,5.3272,1.5455,0,0.00046251,4622,0.0001644,0.0067541,0.00013236,-240.7,-0.00046614,-4737.6,0.15676
15156,5.2353,1.6364,0,0.00046389,4635.7,0.00016591,0.0042443,0.00013094,-262.77,-0.0004678,-4761.4,0.15192
15157,5.3272,1.6364,0.05,1.191e-06,11.901,9.1452e-07,6.8713,-3.4217e-12,9.6433e-06,-9.1451e-07,-6.8713,0.15705
15158,5.3272,1.3636,0,0.00046445,4641.3,0.0001639,0.01283,0.00013499,-217.2,-0.00046777,-4746.1,0.15605
15159,5.2353,1.4545,0,0.00046581,4654.9,0.00016542,0.01009,0.00013357,-239.3,-0.00046942,-4769.9,0.15126
15160,5.3272,1.4545,0.05,1.1925e-06,11.917,9.1569e-07,6.8802,-4.8468e-12,1.4938e-05,-9.1568e-07,-6.8801,0.15638
15161,5.3272,1.1818,0,0.00046656,4662.4,0.00016337,0.020361,0.00013784,-191.76,-0.00046952,-4755.3,0.15525
15162,5.2353,1.2727,0,0.00046792,4676,0.00016488,0.01709,0.00013644,-213.69,-0.00047119,-4779.1,0.15051
15163,5.3272,1.2727,0.05,1.1935e-06,11.927,9.1645e-07,6.8859,-1.2505e-12,1.1506e-05,-9.1645e-07,-6.8858,0.15563
15164,5.3272,1,0,0.00046881,4684.9,0.00016279,0.029369,0.00014088,-164.62,-0.00047139,-4765,0.15437
15165,5.2353,1.0909,0,0.00047019,4698.7,0.0001643,0.026065,0.00013951,-186.18,-0.00047308,-4789,0.14967
15166,5.3272,1.0909,0.05,1.1938e-06,11.93,9.1667e-07,6.8876,6.2729e-13,2.4656e-05,-9.1667e-07,-6.8874,0.15479
15167,5.3272,0.81818,0,0.00047119,4708.6,0.00016218,0.043297,0.00014408,-136.02,-0.00047335,-4775.1,0.15339
15168,5.2353,0.90909,0,0.00047261,4722.8,0.00016368,0.036326,0.00014277,-157.02,-0.00047508,-4799.3,0.14874
15169,5.3272,0.90909,0.05,1.1932e-06,11.924,9.1623e-07,6.8843,-2.4667e-12,2.5926e-05,-9.1623e-07,-6.8841,0.15386
15170,5.3272,0.63636,0,0.00047367,4733.5,0.00016155,0.05529,0.00014741,-106.21,-0.00047539,-4785.7,0.15231
15171,5.2353,0.72727,0,0.00047514,4748.1,0.00016302,0.055965,0.00014618,-126.49,-0.00047716,-4810.1,0.14772
15172,5.3272,0.72727,0.05,1.1916e-06,11.908,9.1502e-07,6.8752,-3.9637e-12,2.7469e-05,-9.1502e-07,-6.875,0.15283
15173,5.3272,0.45455,0,0.00047625,4759.2,0.00016089,0.12404,0.00015084,-75.395,-0.00047748,-4796.4,0.15114
15174,5.2353,0.54545,0,0.00047778,4774.5,0.00016235,0.063344,0.00014971,-94.845,-0.00047932,-4821.1,0.14659
15175,5.3272,0.54545,0.05,1.1888e-06,11.88,9.1286e-07,6.859,-1.2942e-12,3.7158e-05,-9.1285e-07,-6.8588,0.15171
15176,5.3272,0.27273,0,0.0004789,4785.7,0.00016021,0.17323,0.00015437,-43.73,-0.00047963,-4807.3,0.14987
15177,5.2353,0.36364,0,0.00048049,4801.6,0.00016165,0.2057,0.00015334,-62.258,-0.00048152,-4832.3,0.14537
15178,5.3272,0.36364,0.05,1.1814e-06,11.806,9.0716e-07,6.8161,-2.785e-12,3.7747e-05,-9.0715e-07,-6.8159,0.15049
15179,5.2353,0.18182,0,0.0004833,4829.6,0.00016094,0.21813,0.00015706,-28.907,-0.00048378,-4843.9,0.14405
15180,5.3272,0.18182,0.05,1.1333e-06,11.325,8.7024e-07,6.5387,-2.7239e-12,4.3657e-05,-8.7024e-07,-6.5385,0.14916
15181,5.3272,0.090909,0,0.00048131,4809.8,0.00015958,0.17887,0.00015759,-14.781,-0.00048156,-4817.1,0.14849
15182,5.1435,5.7273,0,0.00048489,4845.5,0.00016237,0.19171,0.00015604,-47.361,-0.00048567,-4868.9,0.13966
15183,5.0516,5.8182,0,0.00048942,4890.8,0.00016307,0.24438,0.00015888,-31.226,-0.00048994,-4906.2,0.13401
15184,5.1435,5.8182,0.05,1.2298e-06,12.289,9.4433e-07,7.0952,1.2156e-12,-4.2685e-05,-9.4433e-07,-7.0954,0.13896
15185,5.1435,5.9091,0,0.00048748,4871.5,0.00016168,0.19107,0.00015952,-16.028,-0.00048775,-4879.4,0.13829
15186,5.1435,5.5455,0,0.00048202,4816.9,0.00016311,0.13607,0.00015222,-81.681,-0.00048336,-4857.1,0.14093
15187,5.0516,5.6364,0,0.00048639,4860.6,0.00016385,0.22535,0.00015486,-67.358,-0.0004875,-4893.8,0.13533
15188,5.1435,5.6364,0.05,1.211e-06,12.102,9.2991e-07,6.987,1.3112e-12,-2.2305e-05,-9.2993e-07,-6.9871,0.14028
15189,5.1435,5.3636,0,0.00047924,4789.1,0.00016382,0.060833,0.00014849,-115.11,-0.00048109,-4845.6,0.1421
15190,5.0516,5.4545,0,0.00048346,4831.2,0.00016461,0.069883,0.00015093,-102.69,-0.00048512,-4881.7,0.13655
15191,5.1435,5.4545,0.05,1.2144e-06,12.135,9.3248e-07,7.0063,-1.1872e-12,-3.1441e-05,-9.3249e-07,-7.0064,0.1415
15192,5.1435,5.1818,0,0.00047656,4762.3,0.00016452,0.047497,0.00014488,-147.47,-0.00047889,-4834.3,0.14318
15193,5.0516,5.2727,0,0.00048061,4802.8,0.00016535,0.061427,0.0001471,-137.03,-0.0004828,-4869.8,0.13767
15194,5.1435,5.2727,0.05,1.217e-06,12.161,9.3449e-07,7.0214,3.5192e-12,-2.2122e-05,-9.3449e-07,-7.0215,0.14262
15195,5.1435,5,0,0.00047399,4736.6,0.00016518,0.032176,0.00014141,-178.56,-0.00047677,-4823.3,0.14415
15196,5.0516,5.0909,0,0.00047787,4775.4,0.00016606,0.039852,0.0001434,-170.2,-0.00048054,-4858.3,0.13869
15197,5.1435,5.0909,0.05,1.2185e-06,12.177,9.3567e-07,7.0302,5.6804e-13,-3.7731e-05,-9.3568e-07,-7.0304,0.14364
15198,5.1435,4.8182,0,0.00047155,4712.3,0.00016581,0.022257,0.00013811,-208.08,-0.00047475,-4812.9,0.14503
15199,5.0516,4.9091,0,0.00047527,4749.4,0.00016674,0.02854,0.00013986,-201.9,-0.00047838,-4847.1,0.13961
15200,5.1435,4.9091,0.05,1.219e-06,12.181,9.36e-07,7.0327,-2.5125e-12,-2.0463e-05,-9.3601e-07,-7.0328,0.14457
15201,5.1435,4.6364,0,0.00046928,4689.6,0.0001664,0.013977,0.00013501,-235.77,-0.00047285,-4803,0.14582
15202,5.0516,4.7273,0,0.00047281,4724.9,0.00016737,0.018673,0.00013652,-231.83,-0.00047633,-4836.5,0.14045
15203,5.1435,4.7273,0.05,1.2184e-06,12.176,9.3561e-07,7.0298,-3.1871e-13,-6.372e-06,-9.3561e-07,-7.0298,0.14541
15204,5.1435,4.4545,0,0.00046718,4668.6,0.00016694,0.0073037,0.00013215,-261.36,-0.00047108,-4793.8,0.14653
15205,5.0516,4.5455,0,0.00047054,4702.1,0.00016797,0.010984,0.0001334,-259.72,-0.00047442,-4826.6,0.14119
15206,5.1435,4.5455,0.05,1.2171e-06,12.163,9.346e-07,7.0222,3.4417e-12,-1.1817e-05,-9.3461e-07,-7.0223,0.14616
15207,5.1435,4.2727,0,0.00046529,4649.7,0.00016743,0.001745,0.00012955,-284.6,-0.00046947,-4785.4,0.14714
15208,5.0516,4.3636,0,0.00046846,4681.3,0.00016851,0.0045715,0.00013054,-285.29,-0.00047266,-4817.4,0.14185
15209,5.1435,4.3636,0.05,1.2152e-06,12.144,9.3315e-07,7.0112,-1.1156e-12,-1.963e-05,-9.3314e-07,-7.0114,0.14681
15210,5.1435,4.0909,0,0.00046361,4632.9,0.00016786,-0.0028588,0.00012723,-305.26,-0.00046804,-4777.9,0.14767
15211,5.0516,4.1818,0,0.00046659,4662.7,0.00016899,-0.00073069,0.00012796,-308.29,-0.00047107,-4809.2,0.14242
15212,5.1435,4.1818,0.05,1.2129e-06,12.121,9.3139e-07,6.9981,2.0704e-12,-5.9699e-06,-9.314e-07,-6.9981,0.14739
15213,5.1435,3.9091,0,0.00046216,4618.4,0.00016824,-0.0066375,0.00012523,-323.13,-0.0004668,-4771.4,0.14811
15214,5.0516,4,0,0.00046496,4646.4,0.00016942,-0.0051114,0.0001257,-328.48,-0.00046967,-4801.9,0.1429
15215,5.1435,4,0.05,1.2105e-06,12.097,9.2951e-07,6.984,8.2824e-13,-5.7808e-06,-9.2951e-07,-6.984,0.14787
15216,5.1435,3.7273,0,0.00046095,4606.3,0.00016855,-0.0096617,0.00012356,-338.02,-0.00046577,-4766,0.14848
15217,5.0516,3.8182,0,0.00046357,4632.5,0.00016978,-0.0086647,0.00012378,-345.65,-0.00046849,-4795.7,0.1433
15218,5.1435,3.8182,0.05,1.2081e-06,12.072,9.2766e-07,6.97,-7.4389e-13,-6.8209e-06,-9.2765e-07,-6.9701,0.14828
15219,5.1435,3.5455,0,0.00046,4596.8,0.00016879,-0.011977,0.00012224,-349.77,-0.00046495,-4761.7,0.14876
15220,5.0516,3.6364,0,0.00046245,4621.3,0.00017007,-0.011453,0.00012221,-359.62,-0.00046752,-4790.6,0.14362
15221,5.1435,3.6364,0.05,1.2059e-06,12.051,9.2597e-07,6.9574,-5.3574e-13,-3.9163e-06,-9.2597e-07,-6.9574,0.1486
15222,5.1435,3.3636,0,0.00045931,4590,0.00016897,-0.013613,0.00012129,-358.26,-0.00046436,-4758.6,0.14896
15223,5.0516,3.4545,0,0.0004616,4612.8,0.0001703,-0.013514,0.00012103,-370.22,-0.00046678,-4786.8,0.14386
15224,5.1435,3.4545,0.05,1.2041e-06,12.033,9.2459e-07,6.947,5.1194e-13,-2.8751e-07,-9.2459e-07,-6.9471,0.14884
15225,5.1435,3.1818,0,0.0004589,4585.8,0.00016908,-0.014589,0.00012072,-363.39,-0.000464,-4756.7,0.14908
15226,5.0516,3.2727,0,0.00046103,4607.1,0.00017045,-0.014877,0.00012023,-377.36,-0.00046629,-4784.2,0.14402
15227,5.1435,3.2727,0.05,1.2028e-06,12.02,9.2361e-07,6.9397,-2.4252e-13,-1.8084e-06,-9.2361e-07,-6.9397,0.149
15228,5.1435,3,0,0.00045876,4584.5,0.00016912,-0.014914,0.00012053,-365.1,-0.00046388,-4756.1,0.14912
15229,5.0516,3.0909,0,0.00046074,4604.2,0.00017052,-0.015556,0.00011982,-380.95,-0.00046604,-4782.9,0.1441
15230,5.1435,3.0909,0.05,1.2022e-06,12.013,9.231e-07,6.9358,-8.1844e-14,-6.108e-07,-9.231e-07,-6.9358,0.14908
15231,5.1435,2.8182,0,0.0004589,4585.8,0.00016908,-0.014589,0.00012072,-363.39,-0.000464,-4756.7,0.14908
15232,5.0516,2.9091,0,0.00046074,4604.2,0.00017052,-0.015556,0.00011982,-380.95,-0.00046604,-4782.9,0.1441
15233,5.1435,2.9091,0.05,1.2022e-06,12.013,9.2311e-07,6.9358,-8.2642e-13,6.1317e-07,-9.231e-07,-6.9358,0.14908
15234,5.1435,2.6364,0,0.00045931,4590,0.00016897,-0.013613,0.00012129,-358.26,-0.00046436,-4758.6,0.14896
15235,5.0516,2.7273,0,0.00046103,4607.1,0.00017045,-0.014877,0.00012023,-377.36,-0.00046629,-4784.2,0.14402
15236,5.1435,2.7273,0.05,1.2028e-06,12.02,9.2361e-07,6.9397,-1.5717e-12,1.8084e-06,-9.2361e-07,-6.9397,0.149
15237,5.1435,2.4545,0,0.00046,4596.8,0.00016879,-0.011977,0.00012224,-349.77,-0.00046495,-4761.7,0.14876
15238,5.0516,2.5455,0,0.0004616,4612.8,0.0001703,-0.013514,0.00012103,-370.22,-0.00046678,-4786.8,0.14386
15239,5.1435,2.5455,0.05,1.2041e-06,12.033,9.2459e-07,6.9471,-4.7687e-13,4.112e-06,-9.2459e-07,-6.947,0.14884
15240,5.1435,2.2727,0,0.00046095,4606.3,0.00016855,-0.0096614,0.00012356,-338.02,-0.00046577,-4766,0.14848
15241,5.0516,2.3636,0,0.00046245,4621.3,0.00017007,-0.011453,0.00012221,-359.62,-0.00046752,-4790.6,0.14362
15242,5.1435,2.3636,0.05,1.2059e-06,12.051,9.2598e-07,6.9575,-1.1825e-12,6.235e-06,-9.2597e-07,-6.9573,0.1486
15243,5.1435,2.0909,0,0.00046216,4618.4,0.00016824,-0.006637,0.00012523,-323.13,-0.0004668,-4771.4,0.14811
15244,5.0516,2.1818,0,0.00046357,4632.5,0.00016978,-0.0086643,0.00012378,-345.65,-0.00046849,-4795.7,0.1433
15245,5.1435,2.1818,0.05,1.2081e-06,12.072,9.2766e-07,6.9701,-2.5707e-12,1.0114e-05,-9.2765e-07,-6.97,0.14828
15246,5.1435,1.9091,0,0.00046361,4632.9,0.00016786,-0.0028584,0.00012723,-305.26,-0.00046804,-4777.9,0.14767
15247,5.0516,2,0,0.00046496,4646.4,0.00016942,-0.0051109,0.0001257,-328.48,-0.00046967,-4801.9,0.1429
15248,5.1435,2,0.05,1.2105e-06,12.097,9.2951e-07,6.984,-2.4605e-12,8.1909e-06,-9.2951e-07,-6.984,0.14787
15249,5.1435,1.7273,0,0.00046529,4649.7,0.00016743,0.0017455,0.00012955,-284.6,-0.00046947,-4785.4,0.14714
15250,5.0516,1.8182,0,0.00046659,4662.7,0.00016899,-0.00073016,0.00012796,-308.29,-0.00047107,-4809.2,0.14242
15251,5.1435,1.8182,0.05,1.2129e-06,12.121,9.314e-07,6.9982,-1.8631e-12,1.2928e-05,-9.3139e-07,-6.9981,0.14739
15252,5.1435,1.5455,0,0.00046718,4668.6,0.00016694,0.0073045,0.00013215,-261.36,-0.00047108,-4793.8,0.14653
15253,5.0516,1.6364,0,0.00046846,4681.3,0.00016851,0.0045721,0.00013054,-285.29,-0.00047266,-4817.4,0.14185
15254,5.1435,1.6364,0.05,1.2152e-06,12.144,9.3315e-07,7.0114,1.6113e-12,2.4035e-05,-9.3314e-07,-7.0112,0.14681
15255,5.1435,1.3636,0,0.00046928,4689.6,0.0001664,0.013978,0.00013501,-235.77,-0.00047285,-4803,0.14582
15256,5.0516,1.4545,0,0.00047054,4702.1,0.00016797,0.010985,0.0001334,-259.72,-0.00047442,-4826.6,0.14119
15257,5.1435,1.4545,0.05,1.2171e-06,12.163,9.3461e-07,7.0223,-3.1873e-12,1.3558e-05,-9.346e-07,-7.0222,0.14616
15258,5.1435,1.1818,0,0.00047155,4712.3,0.00016581,0.022257,0.00013811,-208.08,-0.00047475,-4812.9,0.14503
15259,5.0516,1.2727,0,0.00047281,4724.9,0.00016737,0.018674,0.00013652,-231.83,-0.00047633,-4836.5,0.14045
15260,5.1435,1.2727,0.05,1.2184e-06,12.176,9.3561e-07,7.0298,-9.3927e-13,1.2647e-05,-9.356e-07,-7.0298,0.14541
15261,5.1435,1,0,0.00047399,4736.6,0.00016518,0.032178,0.00014141,-178.56,-0.00047677,-4823.3,0.14415
15262,5.0516,1.0909,0,0.00047527,4749.4,0.00016674,0.028541,0.00013986,-201.9,-0.00047838,-4847.1,0.13961
15263,5.1435,1.0909,0.05,1.219e-06,12.181,9.3601e-07,7.0329,-7.7171e-13,2.7625e-05,-9.3601e-07,-7.0327,0.14457
15264,5.1435,0.81818,0,0.00047656,4762.3,0.00016452,0.047498,0.00014488,-147.47,-0.00047889,-4834.3,0.14318
15265,5.0516,0.90909,0,0.00047787,4775.4,0.00016606,0.039853,0.0001434,-170.2,-0.00048054,-4858.3,0.13869
15266,5.1435,0.90909,0.05,1.2185e-06,12.177,9.3568e-07,7.0304,-3.73e-12,3.8745e-05,-9.3567e-07,-7.0302,0.14364
15267,5.1435,0.63636,0,0.00047924,4789.1,0.00016382,0.060833,0.00014849,-115.11,-0.00048109,-4845.6,0.1421
15268,5.0516,0.72727,0,0.00048061,4802.8,0.00016535,0.061428,0.0001471,-137.03,-0.0004828,-4869.8,0.13767
15269,5.1435,0.72727,0.05,1.217e-06,12.161,9.3449e-07,7.0215,-3.5192e-12,2.2122e-05,-9.3449e-07,-7.0214,0.14262
15270,5.1435,0.45455,0,0.00048202,4816.9,0.00016311,0.13607,0.00015222,-81.681,-0.00048336,-4857.1,0.14093
15271,5.0516,0.54545,0,0.00048346,4831.2,0.00016461,0.069883,0.00015093,-102.69,-0.00048512,-4881.7,0.13655
15272,5.1435,0.54545,0.05,1.2144e-06,12.135,9.3249e-07,7.0064,7.6504e-13,4.1742e-05,-9.3248e-07,-7.0062,0.1415
15273,5.1435,0.27273,0,0.00048489,4845.5,0.00016237,0.19171,0.00015604,-47.361,-0.00048567,-4868.9,0.13966
15274,5.0516,0.36364,0,0.00048639,4860.6,0.00016385,0.22536,0.00015486,-67.358,-0.0004875,-4893.8,0.13533
15275,5.1435,0.36364,0.05,1.211e-06,12.102,9.2992e-07,6.9871,-1.3112e-12,2.2129e-05,-9.2992e-07,-6.987,0.14028
15276,5.0516,0.18182,0,0.00048942,4890.8,0.00016307,0.24438,0.00015888,-31.226,-0.00048994,-4906.2,0.13401
15277,5.1435,0.18182,0.05,1.2298e-06,12.289,9.4433e-07,7.0954,-2.0954e-12,4.3655e-05,-9.4432e-07,-7.0952,0.13896
15278,5.1435,0.090909,0,0.00048748,4871.5,0.00016168,0.19107,0.00015952,-16.028,-0.00048775,-4879.4,0.13829
15279,4.9598,5.7273,0,0.00049092,4905.8,0.00016455,0.21253,0.00015771,-51.136,-0.00049177,-4931.1,0.12979
15280,4.8679,5.8182,0,0.00049561,4952.6,0.00016523,0.27537,0.00016073,-33.567,-0.00049616,-4969.2,0.1243
15281,4.9598,5.8182,0.05,1.3336e-06,13.326,1.024e-06,7.694,-6.7652e-13,-1.1412e-05,-1.024e-06,-7.6941,0.12909
15282,4.9598,5.9091,0,0.00049371,4933.7,0.0001638,0.20461,0.00016147,-17.277,-0.000494,-4942.2,0.12842
15283,4.9598,5.5455,0,0.00048783,4874.9,0.00016535,0.14928,0.00015358,-88.335,-0.00048927,-4918.4,0.13106
15284,4.8679,5.6364,0,0.00049233,4919.9,0.00016608,0.24693,0.00015637,-72.718,-0.00049353,-4955.8,0.12562
15285,4.9598,5.6364,0.05,1.2431e-06,12.423,9.5458e-07,7.1723,1.6704e-12,-4.6241e-05,-9.5459e-07,-7.1725,0.1304
15286,4.9598,5.3636,0,0.00048483,4844.9,0.00016613,0.06695,0.00014954,-124.59,-0.00048683,-4906,0.13222
15287,4.8679,5.4545,0,0.00048917,4888.3,0.0001669,0.077123,0.00015211,-111.02,-0.00049096,-4942.8,0.12683
15288,4.9598,5.4545,0.05,1.2422e-06,12.414,9.5386e-07,7.1669,2.9704e-12,-2.4013e-05,-9.5387e-07,-7.167,0.13162
15289,4.9598,5.1818,0,0.00048193,4816,0.00016689,0.052125,0.00014562,-159.73,-0.00048445,-4893.8,0.13329
15290,4.8679,5.2727,0,0.0004861,4857.6,0.00016771,0.067439,0.00014796,-148.29,-0.00048845,-4930,0.12795
15291,4.9598,5.2727,0.05,1.2446e-06,12.438,9.5573e-07,7.181,4.8392e-12,-2.1481e-05,-9.5574e-07,-7.1811,0.13274
15292,4.9598,5,0,0.00047915,4788.2,0.00016761,0.035281,0.00014185,-193.51,-0.00048215,-4882,0.13426
15293,4.8679,5.0909,0,0.00048314,4828.1,0.00016848,0.043744,0.00014395,-184.32,-0.00048601,-4917.6,0.12896
15294,4.9598,5.0909,0.05,1.2462e-06,12.453,9.569e-07,7.1897,1.76e-12,-3.3277e-05,-9.5691e-07,-7.1899,0.13375
15295,4.9598,4.8182,0,0.00047653,4762,0.0001683,0.024363,0.00013827,-225.62,-0.00047996,-4870.8,0.13513
15296,4.8679,4.9091,0,0.00048033,4799.9,0.00016922,0.03128,0.0001401,-218.78,-0.00048367,-4905.6,0.12988
15297,4.9598,4.9091,0.05,1.2465e-06,12.456,9.5715e-07,7.1916,5.1719e-13,-1.9809e-05,-9.5716e-07,-7.1917,0.13468
15298,4.9598,4.6364,0,0.00047407,4737.4,0.00016894,0.015268,0.0001349,-255.76,-0.0004779,-4860.1,0.13592
15299,4.8679,4.7273,0,0.00047768,4773.5,0.00016992,0.02044,0.00013647,-251.35,-0.00048146,-4894.2,0.13071
15300,4.9598,4.7273,0.05,1.2457e-06,12.449,9.5657e-07,7.1873,1.4841e-12,-2.1639e-05,-9.5657e-07,-7.1874,0.13551
15301,4.9598,4.4545,0,0.00047181,4714.8,0.00016954,0.0079459,0.00013179,-283.64,-0.00047599,-4850.2,0.13661
15302,4.8679,4.5455,0,0.00047522,4748.9,0.00017057,0.012,0.00013307,-281.72,-0.00047938,-4883.5,0.13144
15303,4.9598,4.5455,0.05,1.2441e-06,12.432,9.5532e-07,7.1779,1.9571e-12,-1.8479e-05,-9.5532e-07,-7.178,0.13625
15304,4.9598,4.2727,0,0.00046976,4694.4,0.00017007,0.0018559,0.00012895,-308.97,-0.00047425,-4841.2,0.13722
15305,4.8679,4.3636,0,0.00047297,4726.5,0.00017117,0.0049734,0.00012996,-309.59,-0.00047748,-4873.7,0.13209
15306,4.9598,4.3636,0.05,1.2418e-06,12.41,9.5356e-07,7.1647,1.8636e-12,-1.1321e-05,-9.5356e-07,-7.1647,0.1369
15307,4.9598,4.0909,0,0.00046795,4676.2,0.00017055,-0.0031803,0.00012643,-331.5,-0.0004727,-4833.2,0.13775
15308,4.8679,4.1818,0,0.00047096,4706.4,0.0001717,-0.00082653,0.00012716,-334.67,-0.00047576,-4864.8,0.13266
15309,4.9598,4.1818,0.05,1.2391e-06,12.382,9.5147e-07,7.149,6.2154e-13,-6.5909e-06,-9.5148e-07,-7.149,0.13747
15310,4.9598,3.9091,0,0.00046638,4660.6,0.00017096,-0.0073069,0.00012425,-351,-0.00047136,-4826.2,0.13819
15311,4.8679,4,0,0.0004692,4688.8,0.00017217,-0.0056096,0.0001247,-356.69,-0.00047425,-4856.9,0.13314
15312,4.9598,4,0.05,1.2362e-06,12.354,9.4925e-07,7.1323,4.1349e-13,-8.7335e-06,-9.4926e-07,-7.1323,0.13795
15313,4.9598,3.7273,0,0.00046508,4647.6,0.00017131,-0.010604,0.00012243,-367.25,-0.00047024,-4820.3,0.13855
15314,4.8679,3.8182,0,0.00046771,4673.9,0.00017257,-0.0094821,0.0001226,-375.43,-0.00047296,-4850.3,0.13353
15315,4.9598,3.8182,0.05,1.2334e-06,12.325,9.4707e-07,7.1159,9.5426e-13,-5.3542e-06,-9.4707e-07,-7.1159,0.13835
15316,4.9598,3.5455,0,0.00046405,4637.3,0.00017158,-0.013126,0.00012099,-380.07,-0.00046935,-4815.7,0.13882
15317,4.8679,3.6364,0,0.0004665,4661.8,0.00017289,-0.012515,0.0001209,-390.67,-0.00047191,-4844.8,0.13385
15318,4.9598,3.6364,0.05,1.2308e-06,12.299,9.451e-07,7.1011,-6.337e-13,-5.6877e-06,-9.451e-07,-7.1011,0.13867
15319,4.9598,3.3636,0,0.00046332,4630,0.00017177,-0.014905,0.00011996,-389.34,-0.00046871,-4812.3,0.13902
15320,4.8679,3.4545,0,0.00046558,4652.6,0.00017313,-0.014755,0.0001196,-402.25,-0.00047112,-4840.7,0.13408
15321,4.9598,3.4545,0.05,1.2287e-06,12.278,9.4348e-07,7.0889,-4.222e-13,-3.818e-06,-9.4348e-07,-7.089,0.1389
15322,4.9598,3.1818,0,0.00046287,4625.5,0.00017189,-0.015966,0.00011933,-394.94,-0.00046832,-4810.3,0.13914
15323,4.8679,3.2727,0,0.00046496,4646.4,0.0001733,-0.016234,0.00011873,-410.04,-0.00047058,-4837.9,0.13424
15324,4.9598,3.2727,0.05,1.2272e-06,12.264,9.4234e-07,7.0804,-2.5984e-13,-1.9375e-06,-9.4234e-07,-7.0803,0.13906
15325,4.9598,3,0,0.00046272,4624,0.00017193,-0.016318,0.00011912,-396.81,-0.00046819,-4809.6,0.13918
15326,4.8679,3.0909,0,0.00046465,4643.3,0.00017338,-0.01697,0.00011829,-413.96,-0.00047031,-4836.5,0.13432
15327,4.9598,3.0909,0.05,1.2264e-06,12.256,9.4175e-07,7.0759,-9.9455e-13,-6.2698e-07,-9.4174e-07,-7.0759,0.13914
15328,4.9598,2.8182,0,0.00046287,4625.5,0.00017189,-0.015966,0.00011933,-394.94,-0.00046832,-4810.3,0.13914
15329,4.8679,2.9091,0,0.00046465,4643.3,0.00017338,-0.01697,0.00011829,-413.96,-0.00047031,-4836.5,0.13432
15330,4.9598,2.9091,0.05,1.2264e-06,12.256,9.4175e-07,7.0759,-8.2032e-13,6.8231e-07,-9.4174e-07,-7.0759,0.13914
15331,4.9598,2.6364,0,0.00046332,4630,0.00017177,-0.014905,0.00011996,-389.34,-0.00046871,-4812.3,0.13902
15332,4.8679,2.7273,0,0.00046496,4646.4,0.0001733,-0.016234,0.00011873,-410.04,-0.00047058,-4837.9,0.13424
15333,4.9598,2.7273,0.05,1.2272e-06,12.264,9.4234e-07,7.0804,-1.5407e-12,5.9838e-06,-9.4234e-07,-7.0803,0.13906
15334,4.9598,2.4545,0,0.00046405,4637.3,0.00017158,-0.013125,0.00012099,-380.07,-0.00046935,-4815.7,0.13882
15335,4.8679,2.5455,0,0.00046558,4652.6,0.00017313,-0.014755,0.0001196,-402.25,-0.00047112,-4840.7,0.13408
15336,4.9598,2.5455,0.05,1.2287e-06,12.278,9.4348e-07,7.089,-4.0861e-13,4.4934e-06,-9.4348e-07,-7.0889,0.1389
15337,4.9598,2.2727,0,0.00046508,4647.6,0.00017131,-0.010604,0.00012243,-367.25,-0.00047024,-4820.3,0.13855
15338,4.8679,2.3636,0,0.0004665,4661.8,0.00017289,-0.012515,0.0001209,-390.67,-0.00047191,-4844.8,0.13385
15339,4.9598,2.3636,0.05,1.2308e-06,12.299,9.451e-07,7.1011,-2.8501e-12,5.6877e-06,-9.4509e-07,-7.1011,0.13867
15340,4.9598,2.0909,0,0.00046638,4660.6,0.00017096,-0.0073064,0.00012425,-351,-0.00047136,-4826.2,0.13819
15341,4.8679,2.1818,0,0.00046771,4673.9,0.00017257,-0.0094817,0.0001226,-375.43,-0.00047296,-4850.3,0.13353
15342,4.9598,2.1818,0.05,1.2334e-06,12.325,9.4707e-07,7.1159,-8.5133e-13,7.4265e-06,-9.4707e-07,-7.1159,0.13835
15343,4.9598,1.9091,0,0.00046795,4676.2,0.00017055,-0.0031797,0.00012643,-331.5,-0.0004727,-4833.2,0.13775
15344,4.8679,2,0,0.0004692,4688.8,0.00017217,-0.0056092,0.0001247,-356.69,-0.00047425,-4856.9,0.13314
15345,4.9598,2,0.05,1.2362e-06,12.354,9.4926e-07,7.1323,-2.849e-13,8.7335e-06,-9.4924e-07,-7.1323,0.13795
15346,4.9598,1.7273,0,0.00046976,4694.4,0.00017007,0.0018564,0.00012895,-308.97,-0.00047425,-4841.2,0.13722
15347,4.8679,1.8182,0,0.00047096,4706.4,0.0001717,-0.00082598,0.00012716,-334.67,-0.00047576,-4864.8,0.13266
15348,4.9598,1.8182,0.05,1.2391e-06,12.382,9.5148e-07,7.149,-3.5483e-12,1.0569e-05,-9.5147e-07,-7.149,0.13747
15349,4.9598,1.5455,0,0.00047181,4714.8,0.00016954,0.0079464,0.00013179,-283.64,-0.00047599,-4850.2,0.13661
15350,4.8679,1.6364,0,0.00047297,4726.5,0.00017117,0.004974,0.00012996,-309.59,-0.00047748,-4873.7,0.13209
15351,4.9598,1.6364,0.05,1.2418e-06,12.41,9.5356e-07,7.1647,-1.2642e-12,1.237e-05,-9.5356e-07,-7.1647,0.1369
15352,4.9598,1.3636,0,0.00047407,4737.4,0.00016894,0.015269,0.0001349,-255.76,-0.0004779,-4860.1,0.13592
15353,4.8679,1.4545,0,0.00047522,4748.9,0.00017057,0.012,0.00013307,-281.72,-0.00047938,-4883.5,0.13144
15354,4.9598,1.4545,0.05,1.2441e-06,12.432,9.5533e-07,7.178,-2.6411e-12,1.9051e-05,-9.5531e-07,-7.1779,0.13625
15355,4.9598,1.1818,0,0.00047653,4762,0.0001683,0.024364,0.00013827,-225.62,-0.00047996,-4870.8,0.13513
15356,4.8679,1.2727,0,0.00047768,4773.5,0.00016992,0.02044,0.00013647,-251.35,-0.00048146,-4894.2,0.13071
15357,4.9598,1.2727,0.05,1.2457e-06,12.449,9.5658e-07,7.1874,-2.3121e-12,2.0413e-05,-9.5657e-07,-7.1873,0.13551
15358,4.9598,1,0,0.00047915,4788.2,0.00016761,0.035282,0.00014185,-193.51,-0.00048215,-4882,0.13426
15359,4.8679,1.0909,0,0.00048033,4799.9,0.00016922,0.03128,0.0001401,-218.78,-0.00048367,-4905.6,0.12988
15360,4.9598,1.0909,0.05,1.2465e-06,12.456,9.5715e-07,7.1917,-5.1719e-13,2.4412e-05,-9.5715e-07,-7.1916,0.13468
15361,4.9598,0.81818,0,0.00048193,4816,0.00016689,0.052126,0.00014562,-159.73,-0.00048445,-4893.8,0.13329
15362,4.8679,0.90909,0,0.00048314,4828.1,0.00016848,0.043746,0.00014395,-184.32,-0.00048601,-4917.6,0.12896
15363,4.9598,0.90909,0.05,1.2462e-06,12.453,9.5691e-07,7.1899,-1.3009e-12,4.1657e-05,-9.569e-07,-7.1897,0.13375
15364,4.9598,0.63636,0,0.00048483,4844.9,0.00016613,0.06695,0.00014954,-124.59,-0.00048683,-4906,0.13222
15365,4.8679,0.72727,0,0.0004861,4857.6,0.00016771,0.06744,0.00014796,-148.29,-0.00048845,-4930,0.12795
15366,4.9598,0.72727,0.05,1.2446e-06,12.438,9.5574e-07,7.1811,-1.4733e-12,4.674e-05,-9.5573e-07,-7.1809,0.13274
15367,4.9598,0.45455,0,0.00048783,4874.9,0.00016535,0.14928,0.00015357,-88.335,-0.00048927,-4918.4,0.13106
15368,4.8679,0.54545,0,0.00048917,4888.3,0.0001669,0.077123,0.00015211,-111.02,-0.00049096,-4942.8,0.12683
15369,4.9598,0.54545,0.05,1.2422e-06,12.414,9.5386e-07,7.167,-2.425e-12,3.5756e-05,-9.5386e-07,-7.1669,0.13162
15370,4.9598,0.27273,0,0.00049092,4905.8,0.00016455,0.21253,0.00015771,-51.136,-0.00049177,-4931.1,0.12979
15371,4.8679,0.36364,0,0.00049233,4919.9,0.00016608,0.24693,0.00015637,-72.718,-0.00049353,-4955.8,0.12562
15372,4.9598,0.36364,0.05,1.2431e-06,12.423,9.5459e-07,7.1725,-1.6704e-12,4.6289e-05,-9.5458e-07,-7.1723,0.1304
15373,4.8679,0.18182,0,0.00049561,4952.6,0.00016523,0.27537,0.00016073,-33.567,-0.00049616,-4969.2,0.1243
15374,4.9598,0.18182,0.05,1.3336e-06,13.326,1.024e-06,7.6941,-8.2869e-13,3.3027e-05,-1.024e-06,-7.694,0.12909
15375,4.9598,0.090909,0,0.00049371,4933.7,0.0001638,0.20462,0.00016147,-17.277,-0.000494,-4942.2,0.12842
15376,4.7761,5.7273,0,0.00049701,4966.7,0.00016675,0.23603,0.0001594,-55.046,-0.00049792,-4993.9,0.12025
15377,4.6842,5.8182,0,0.00050186,5015.1,0.00016741,0.31203,0.00016259,-35.909,-0.00050245,-5032.8,0.11493
15378,4.7761,5.8182,0.05,1.445e-06,14.441,1.1096e-06,8.3372,3.3278e-12,-2.3282e-05,-1.1096e-06,-8.3373,0.11954
15379,4.7761,5.9091,0,0.00050001,4996.6,0.00016594,0.2196,0.00016344,-18.515,-0.00050032,-5005.7,0.11888
15380,4.7761,5.5455,0,0.00049367,4933.3,0.00016763,0.16378,0.00015491,-95.366,-0.00049522,-4980.2,0.12151
15381,4.6842,5.6364,0,0.00049832,4979.8,0.00016833,0.27062,0.00015787,-78.337,-0.0004996,-5018.3,0.11624
15382,4.7761,5.6364,0.05,1.2779e-06,12.77,9.8127e-07,7.3728,-4.0995e-13,-3.8462e-05,-9.8128e-07,-7.373,0.12086
15383,4.7761,5.3636,0,0.00049043,4901,0.00016847,0.073702,0.00015054,-134.69,-0.00049258,-4966.9,0.12267
15384,4.6842,5.4545,0,0.0004949,4945.6,0.00016923,0.085145,0.00015326,-119.86,-0.00049683,-5004.4,0.11745
15385,4.7761,5.4545,0.05,1.2725e-06,12.716,9.7713e-07,7.3418,-1.7525e-12,-3.8823e-05,-9.7715e-07,-7.3419,0.12207
15386,4.7761,5.1818,0,0.00048731,4869.7,0.0001693,0.057223,0.00014629,-172.84,-0.00049001,-4953.8,0.12373
15387,4.6842,5.2727,0,0.00049159,4912.5,0.00017011,0.074057,0.00014876,-160.3,-0.00049412,-4990.6,0.11855
15388,4.7761,5.2727,0.05,1.2748e-06,12.74,9.7891e-07,7.3551,1.097e-12,-4.9781e-05,-9.7892e-07,-7.3553,0.12318
15389,4.7761,5,0,0.00048431,4839.8,0.00017009,0.038708,0.0001422,-209.55,-0.00048753,-4941.1,0.12469
15390,4.6842,5.0909,0,0.0004884,4880.6,0.00017095,0.048039,0.0001444,-199.44,-0.00049149,-4977.3,0.11956
15391,4.7761,5.0909,0.05,1.2764e-06,12.755,9.8012e-07,7.3642,1.1262e-12,-2.6192e-05,-9.8012e-07,-7.3643,0.12419
15392,4.7761,4.8182,0,0.00048148,4811.4,0.00017085,0.026699,0.0001383,-244.48,-0.00048517,-4929,0.12556
15393,4.6842,4.9091,0,0.00048536,4850.3,0.00017176,0.034308,0.00014023,-236.91,-0.00048896,-4964.4,0.12047
15394,4.7761,4.9091,0.05,1.2766e-06,12.758,9.803e-07,7.3656,-1.5495e-12,-1.605e-05,-9.803e-07,-7.3656,0.1251
15395,4.7761,4.6364,0,0.00047883,4785,0.00017155,0.016715,0.00013464,-277.29,-0.00048294,-4917.6,0.12634
15396,4.6842,4.7273,0,0.00048251,4821.7,0.00017253,0.022404,0.00013628,-272.36,-0.00048656,-4952.1,0.12129
15397,4.7761,4.7273,0.05,1.2757e-06,12.748,9.7955e-07,7.3599,7.0271e-13,-3.208e-05,-9.7956e-07,-7.3601,0.12593
15398,4.7761,4.4545,0,0.00047638,4760.6,0.0001722,0.0086881,0.00013125,-307.66,-0.00048087,-4906.9,0.12702
15399,4.6842,4.5455,0,0.00047986,4795.3,0.00017324,0.013148,0.00013259,-305.43,-0.00048432,-4940.7,0.12202
15400,4.7761,4.5455,0.05,1.2737e-06,12.728,9.7805e-07,7.3487,2.6611e-12,-2.0511e-05,-9.7806e-07,-7.3488,0.12666
15401,4.7761,4.2727,0,0.00047418,4738.5,0.00017279,0.0020249,0.00012817,-335.28,-0.00047899,-4897.2,0.12763
15402,4.6842,4.3636,0,0.00047744,4771.1,0.0001739,0.0054579,0.0001292,-335.8,-0.00048226,-4930.1,0.12266
15403,4.7761,4.3636,0.05,1.271e-06,12.701,9.7598e-07,7.3331,3.1277e-13,-1.2398e-05,-9.7598e-07,-7.3332,0.12731
15404,4.7761,4.0909,0,0.00047222,4718.9,0.00017332,-0.0034744,0.00012542,-359.85,-0.00047731,-4888.6,0.12814
15405,4.6842,4.1818,0,0.00047527,4749.4,0.00017448,-0.00087624,0.00012615,-363.15,-0.0004804,-4920.6,0.12322
15406,4.7761,4.1818,0.05,1.2678e-06,12.67,9.7354e-07,7.3148,1.8905e-13,-1.6074e-05,-9.7355e-07,-7.3149,0.12787
15407,4.7761,3.9091,0,0.00047053,4702.1,0.00017377,-0.0079715,0.00012305,-381.12,-0.00047585,-4881,0.12858
15408,4.6842,4,0,0.00047337,4730.5,0.000175,-0.0060878,0.00012347,-387.17,-0.00047877,-4912.1,0.12369
15409,4.7761,4,0.05,1.2645e-06,12.636,9.7096e-07,7.2954,2.1951e-12,-1.0403e-05,-9.7096e-07,-7.2954,0.12834
15410,4.7761,3.7273,0,0.00046913,4688.1,0.00017415,-0.011558,0.00012107,-398.85,-0.00047464,-4874.7,0.12893
15411,4.6842,3.8182,0,0.00047177,4714.4,0.00017544,-0.010297,0.00012119,-407.61,-0.00047738,-4905,0.12408
15412,4.7761,3.8182,0.05,1.2612e-06,12.603,9.6843e-07,7.2764,9.046e-13,-5.7098e-06,-9.6843e-07,-7.2764,0.12874
15413,4.7761,3.5455,0,0.00046803,4677,0.00017445,-0.014295,0.0001195,-412.85,-0.00047368,-4869.8,0.12921
15414,4.6842,3.6364,0,0.00047046,4701.4,0.00017579,-0.013587,0.00011933,-424.25,-0.00047624,-4899.1,0.12439
15415,4.7761,3.6364,0.05,1.2582e-06,12.573,9.6615e-07,7.2592,1.6987e-13,-2.3036e-06,-9.6615e-07,-7.2593,0.12905
15416,4.7761,3.3636,0,0.00046723,4669.1,0.00017466,-0.016225,0.00011837,-422.97,-0.00047299,-4866.2,0.1294
15417,4.6842,3.4545,0,0.00046948,4691.5,0.00017606,-0.016012,0.00011792,-436.89,-0.00047538,-4894.7,0.12462
15418,4.7761,3.4545,0.05,1.2558e-06,12.549,9.6428e-07,7.2452,4.1958e-13,-3.3065e-06,-9.6428e-07,-7.2452,0.12928
15419,4.7761,3.1818,0,0.00046675,4664.3,0.00017479,-0.017374,0.00011769,-429.08,-0.00047257,-4864,0.12952
15420,4.6842,3.2727,0,0.00046881,4684.9,0.00017624,-0.017611,0.00011697,-445.4,-0.0004748,-4891.7,0.12478
15421,4.7761,3.2727,0.05,1.2541e-06,12.532,9.6296e-07,7.2353,-2.7801e-13,-2.073e-06,-9.6296e-07,-7.2353,0.12944
15422,4.7761,3,0,0.00046659,4662.7,0.00017483,-0.017755,0.00011746,-431.13,-0.00047243,-4863.3,0.12956
15423,4.6842,3.0909,0,0.00046848,4681.6,0.00017634,-0.018406,0.00011649,-449.68,-0.00047451,-4890.2,0.12486
15424,4.7761,3.0909,0.05,1.2532e-06,12.523,9.6228e-07,7.2302,-1.0026e-12,-7.0612e-07,-9.6227e-07,-7.2302,0.12952
15425,4.7761,2.8182,0,0.00046675,4664.3,0.00017479,-0.017374,0.00011769,-429.08,-0.00047257,-4864,0.12952
15426,4.6842,2.9091,0,0.00046848,4681.6,0.00017634,-0.018406,0.00011649,-449.68,-0.00047451,-4890.2,0.12486
15427,4.7761,2.9091,0.05,1.2532e-06,12.523,9.6227e-07,7.2302,-8.1546e-13,7.0069e-07,-9.6228e-07,-7.2302,0.12952
15428,4.7761,2.6364,0,0.00046723,4669.1,0.00017466,-0.016225,0.00011837,-422.97,-0.00047299,-4866.2,0.1294
15429,4.6842,2.7273,0,0.00046881,4684.9,0.00017624,-0.017611,0.00011697,-445.4,-0.0004748,-4891.7,0.12478
15430,4.7761,2.7273,0.05,1.2541e-06,12.532,9.6296e-07,7.2353,-1.5441e-12,2.0406e-06,-9.6296e-07,-7.2353,0.12944
15431,4.7761,2.4545,0,0.00046803,4677,0.00017445,-0.014295,0.0001195,-412.85,-0.00047368,-4869.8,0.12921
15432,4.6842,2.5455,0,0.00046948,4691.5,0.00017606,-0.016012,0.00011792,-436.89,-0.00047538,-4894.7,0.12462
15433,4.7761,2.5455,0.05,1.2558e-06,12.549,9.6428e-07,7.2453,-1.246e-12,4.0797e-06,-9.6428e-07,-7.2452,0.12928
15434,4.7761,2.2727,0,0.00046913,4688.1,0.00017415,-0.011558,0.00012107,-398.85,-0.00047464,-4874.7,0.12893
15435,4.6842,2.3636,0,0.00047046,4701.4,0.00017579,-0.013587,0.00011933,-424.25,-0.00047624,-4899.1,0.12439
15436,4.7761,2.3636,0.05,1.2582e-06,12.573,9.6615e-07,7.2593,-8.8098e-13,5.7325e-06,-9.6615e-07,-7.2592,0.12905
15437,4.7761,2.0909,0,0.00047053,4702.1,0.00017377,-0.0079712,0.00012305,-381.12,-0.00047585,-4881,0.12858
15438,4.6842,2.1818,0,0.00047177,4714.4,0.00017544,-0.010297,0.00012119,-407.61,-0.00047738,-4905,0.12408
15439,4.7761,2.1818,0.05,1.2612e-06,12.603,9.6843e-07,7.2764,-1.6376e-12,5.3414e-06,-9.6843e-07,-7.2764,0.12874
15440,4.7761,1.9091,0,0.00047222,4718.9,0.00017332,-0.0034741,0.00012542,-359.85,-0.00047731,-4888.6,0.12814
15441,4.6842,2,0,0.00047337,4730.5,0.000175,-0.0060875,0.00012347,-387.17,-0.00047877,-4912.1,0.12369
15442,4.7761,2,0.05,1.2645e-06,12.636,9.7097e-07,7.2955,-1.7896e-12,1.2929e-05,-9.7095e-07,-7.2954,0.12834
15443,4.7761,1.7273,0,0.00047418,4738.5,0.00017279,0.0020255,0.00012817,-335.28,-0.00047899,-4897.2,0.12763
15444,4.6842,1.8182,0,0.00047527,4749.4,0.00017448,-0.00087575,0.00012615,-363.15,-0.0004804,-4920.5,0.12322
15445,4.7761,1.8182,0.05,1.2678e-06,12.67,9.7355e-07,7.3149,-3.346e-12,1.6074e-05,-9.7354e-07,-7.3148,0.12787
15446,4.7761,1.5455,0,0.00047638,4760.6,0.0001722,0.0086888,0.00013125,-307.66,-0.00048087,-4906.9,0.12702
15447,4.6842,1.6364,0,0.00047744,4771.1,0.0001739,0.0054585,0.0001292,-335.8,-0.00048226,-4930.1,0.12266
15448,4.7761,1.6364,0.05,1.271e-06,12.701,9.7598e-07,7.3332,-1.6199e-12,1.2954e-05,-9.7598e-07,-7.3331,0.12731
15449,4.7761,1.3636,0,0.00047883,4785,0.00017155,0.016715,0.00013464,-277.29,-0.00048294,-4917.6,0.12634
15450,4.6842,1.4545,0,0.00047986,4795.3,0.00017324,0.013149,0.00013259,-305.43,-0.00048432,-4940.7,0.12202
15451,4.7761,1.4545,0.05,1.2737e-06,12.728,9.7806e-07,7.3488,-2.6611e-12,2.1116e-05,-9.7805e-07,-7.3487,0.12666
15452,4.7761,1.1818,0,0.00048148,4811.4,0.00017085,0.026699,0.0001383,-244.48,-0.00048517,-4929,0.12556
15453,4.6842,1.2727,0,0.00048251,4821.7,0.00017253,0.022405,0.00013628,-272.36,-0.00048656,-4952.1,0.12129
15454,4.7761,1.2727,0.05,1.2757e-06,12.748,9.7956e-07,7.3601,-2.9681e-13,3.0138e-05,-9.7955e-07,-7.3599,0.12593
15455,4.7761,1,0,0.00048431,4839.8,0.00017009,0.038709,0.0001422,-209.55,-0.00048753,-4941.1,0.12469
15456,4.6842,1.0909,0,0.00048536,4850.3,0.00017176,0.034309,0.00014023,-236.91,-0.00048896,-4964.4,0.12047
15457,4.7761,1.0909,0.05,1.2766e-06,12.758,9.8031e-07,7.3657,-1.1522e-12,2.4586e-05,-9.803e-07,-7.3656,0.1251
15458,4.7761,0.81818,0,0.00048731,4869.7,0.0001693,0.057224,0.00014629,-172.84,-0.00049001,-4953.8,0.12373
15459,4.6842,0.90909,0,0.0004884,4880.6,0.00017095,0.04804,0.0001444,-199.44,-0.00049149,-4977.3,0.11956
15460,4.7761,0.90909,0.05,1.2764e-06,12.755,9.8012e-07,7.3643,9.5029e-14,3.6437e-05,-9.8012e-07,-7.3642,0.12419
15461,4.7761,0.63636,0,0.00049043,4901,0.00016847,0.073703,0.00015054,-134.69,-0.00049258,-4966.9,0.12267
15462,4.6842,0.72727,0,0.00049159,4912.5,0.00017011,0.074057,0.00014876,-160.3,-0.00049412,-4990.6,0.11855
15463,4.7761,0.72727,0.05,1.2748e-06,12.74,9.7892e-07,7.3553,-1.2538e-12,4.9781e-05,-9.7891e-07,-7.3551,0.12318
15464,4.7761,0.45455,0,0.00049367,4933.3,0.00016763,0.16378,0.00015491,-95.366,-0.00049522,-4980.2,0.12151
15465,4.6842,0.54545,0,0.0004949,4945.6,0.00016923,0.085145,0.00015326,-119.86,-0.00049683,-5004.4,0.11745
15466,4.7761,0.54545,0.05,1.2725e-06,12.716,9.7715e-07,7.3419,1.7525e-12,3.8833e-05,-9.7713e-07,-7.3418,0.12207
15467,4.7761,0.27273,0,0.00049701,4966.7,0.00016675,0.23603,0.0001594,-55.046,-0.00049792,-4993.9,0.12025
15468,4.6842,0.36364,0,0.00049832,4979.8,0.00016833,0.27062,0.00015787,-78.337,-0.0004996,-5018.3,0.11624
15469,4.7761,0.36364,0.05,1.2779e-06,12.77,9.8128e-07,7.373,1.8771e-12,5.3054e-05,-9.8127e-07,-7.3728,0.12086
15470,4.6842,0.18182,0,0.00050186,5015.1,0.00016741,0.31203,0.00016259,-35.909,-0.00050245,-5032.8,0.11493
15471,4.7761,0.18182,0.05,1.445e-06,14.441,1.1096e-06,8.3373,-2.0691e-12,4.3875e-05,-1.1096e-06,-8.3371,0.11954
15472,4.7761,0.090909,0,0.00050001,4996.6,0.00016594,0.21961,0.00016344,-18.515,-0.00050032,-5005.7,0.11888
15473,4.5924,5.7273,0,0.00050316,5028.1,0.00016898,0.26262,0.00016109,-59.079,-0.00050414,-5057.3,0.11104
15474,4.5005,5.8182,0,0.00050818,5078.3,0.00016962,0.35556,0.00016448,-38.226,-0.00050881,-5097.1,0.1059
15475,4.5924,5.8182,0.05,1.5647e-06,15.636,1.2015e-06,9.0272,3.3139e-12,-4.3045e-05,-1.2015e-06,-9.0274,0.11034
15476,4.5924,5.9091,0,0.00050636,5060.1,0.00016809,0.23619,0.00016544,-19.724,-0.00050669,-5069.8,0.10968
15477,4.5924,5.5455,0,0.00049955,4992.1,0.00016993,0.17973,0.00015623,-102.78,-0.00050122,-5042.6,0.11229
15478,4.5005,5.6364,0,0.00050435,5040,0.00017061,0.29669,0.00015937,-84.214,-0.00050573,-5081.5,0.1072
15479,4.5924,5.6364,0.05,1.3155e-06,13.146,1.0101e-06,7.5896,1.9973e-12,-4.4281e-05,-1.0101e-06,-7.5898,0.11165
15480,4.5924,5.3636,0,0.00049606,4957.1,0.00017086,0.08116,0.00015149,-145.43,-0.00049837,-5028.2,0.11344
15481,4.5005,5.4545,0,0.00050066,5003.2,0.00017159,0.094052,0.00015438,-129.22,-0.00050273,-5066.5,0.1084
15482,4.5924,5.4545,0.05,1.3055e-06,13.046,1.0025e-06,7.5322,2.0113e-12,-5.7568e-05,-1.0025e-06,-7.5324,0.11285
15483,4.5924,5.1818,0,0.00049268,4923.4,0.00017176,0.062839,0.00014688,-186.86,-0.00049559,-5014.2,0.11449
15484,4.5005,5.2727,0,0.00049709,4967.5,0.00017255,0.081352,0.0001495,-173.1,-0.00049981,-5051.7,0.10949
15485,4.5924,5.2727,0.05,1.3078e-06,13.069,1.0042e-06,7.5454,-7.4769e-13,-4.3068e-05,-1.0042e-06,-7.5455,0.11395
15486,4.5924,5,0,0.00048945,4891.2,0.00017262,0.042492,0.00014244,-226.75,-0.00049291,-5000.6,0.11545
15487,4.5005,5.0909,0,0.00049365,4933.1,0.00017347,0.052784,0.00014477,-215.62,-0.00049697,-5037.4,0.11049
15488,4.5924,5.0909,0.05,1.3095e-06,13.086,1.0055e-06,7.5551,-5.9847e-13,-4.0637e-05,-1.0055e-06,-7.5552,0.11495
15489,4.5924,4.8182,0,0.0004864,4860.6,0.00017345,0.029285,0.00013821,-264.75,-0.00049036,-4987.5,0.11631
15490,4.5005,4.9091,0,0.00049038,4900.4,0.00017436,0.037659,0.00014024,-256.37,-0.00049424,-5023.5,0.11139
15491,4.5924,4.9091,0.05,1.3097e-06,13.088,1.0057e-06,7.5563,-1.8301e-12,-2.8007e-05,-1.0057e-06,-7.5564,0.11586
15492,4.5924,4.6364,0,0.00048354,4832.1,0.00017422,0.018332,0.00013423,-300.47,-0.00048795,-4975.3,0.11708
15493,4.5005,4.7273,0,0.0004873,4869.6,0.0001752,0.024593,0.00013594,-294.95,-0.00049165,-5010.4,0.1122
15494,4.5924,4.7273,0.05,1.3085e-06,13.076,1.0048e-06,7.5497,1.023e-12,-6.8156e-06,-1.0048e-06,-7.5497,0.11667
15495,4.5924,4.4545,0,0.00048091,4805.8,0.00017494,0.0095418,0.00013054,-333.56,-0.00048571,-4963.9,0.11776
15496,4.5005,4.5455,0,0.00048445,4841.1,0.00017598,0.014449,0.00013193,-330.98,-0.00048923,-4998.1,0.11292
15497,4.5924,4.5455,0.05,1.3063e-06,13.054,1.0031e-06,7.5365,1.0917e-12,-2.3371e-05,-1.0031e-06,-7.5366,0.1174
15498,4.5924,4.2727,0,0.00047853,4782,0.00017559,0.0022616,0.00012719,-363.66,-0.00048368,-4953.4,0.11835
15499,4.5005,4.3636,0,0.00048184,4815.1,0.0001767,0.0060429,0.00012824,-364.08,-0.000487,-4986.8,0.11355
15500,4.5924,4.3636,0.05,1.3032e-06,13.023,1.0007e-06,7.5186,1.2466e-12,-1.356e-05,-1.0007e-06,-7.5187,0.11804
15501,4.5924,4.0909,0,0.00047642,4760.9,0.00017616,-0.0037321,0.0001242,-390.46,-0.00048186,-4944.1,0.11886
15502,4.5005,4.1818,0,0.00047951,4791.8,0.00017735,-0.0008625,0.00012492,-393.89,-0.00048499,-4976.6,0.1141
15503,4.5924,4.1818,0.05,1.2995e-06,12.986,9.9787e-07,7.4976,4.7267e-13,-1.2583e-05,-9.9787e-07,-7.4976,0.11859
15504,4.5924,3.9091,0,0.00047461,4742.8,0.00017666,-0.0086208,0.00012161,-413.67,-0.00048029,-4936.1,0.11929
15505,4.5005,4,0,0.00047747,4771.4,0.00017791,-0.0065272,0.000122,-420.1,-0.00048323,-4967.6,0.11457
15506,4.5924,4,0.05,1.2957e-06,12.948,9.9491e-07,7.4754,-1.3484e-12,-6.9742e-06,-9.9491e-07,-7.4753,0.11906
15507,4.5924,3.7273,0,0.0004731,4727.7,0.00017708,-0.01251,0.00011945,-433.02,-0.00047898,-4929.4,0.11964
15508,4.5005,3.8182,0,0.00047574,4754.2,0.0001784,-0.011089,0.00011952,-442.4,-0.00048172,-4959.9,0.11495
15509,4.5924,3.8182,0.05,1.2919e-06,12.91,9.9201e-07,7.4536,1.2132e-13,-5.8821e-06,-9.9201e-07,-7.4536,0.11945
15510,4.5924,3.5455,0,0.00047191,4715.9,0.00017741,-0.015471,0.00011774,-448.3,-0.00047794,-4924,0.11991
15511,4.5005,3.6364,0,0.00047434,4740.2,0.00017879,-0.014645,0.0001175,-460.56,-0.0004805,-4953.6,0.11526
15512,4.5924,3.6364,0.05,1.2885e-06,12.876,9.8941e-07,7.434,-6.5239e-13,-6.3782e-06,-9.8941e-07,-7.4341,0.11975
15513,4.5924,3.3636,0,0.00047106,4707.3,0.00017764,-0.017555,0.00011651,-459.34,-0.00047719,-4920.2,0.1201
15514,4.5005,3.4545,0,0.00047328,4729.6,0.00017909,-0.017259,0.00011596,-474.35,-0.00047957,-4948.9,0.11549
15515,4.5924,3.4545,0.05,1.2857e-06,12.848,9.8728e-07,7.418,4.4847e-13,-3.6432e-06,-9.8728e-07,-7.418,0.11999
15516,4.5924,3.1818,0,0.00047054,4702.2,0.00017779,-0.018794,0.00011577,-466.02,-0.00047673,-4917.8,0.12022
15517,4.5005,3.2727,0,0.00047257,4722.5,0.00017929,-0.018979,0.00011492,-483.64,-0.00047894,-4945.7,0.11564
15518,4.5924,3.2727,0.05,1.2838e-06,12.829,9.8577e-07,7.4067,-2.9286e-13,-2.2145e-06,-9.8577e-07,-7.4067,0.12014
15519,4.5924,3,0,0.00047037,4700.5,0.00017784,-0.019205,0.00011552,-468.25,-0.00047658,-4917.1,0.12025
15520,4.5005,3.0909,0,0.00047222,4718.9,0.00017939,-0.019833,0.0001144,-488.31,-0.00047862,-4944.1,0.11571
15521,4.5924,3.0909,0.05,1.2827e-06,12.819,9.8499e-07,7.4009,-1.0043e-12,-7.1262e-07,-9.8499e-07,-7.4008,0.12021
15522,4.5924,2.8182,0,0.00047054,4702.2,0.00017779,-0.018794,0.00011577,-466.02,-0.00047673,-4917.8,0.12022
15523,4.5005,2.9091,0,0.00047222,4718.9,0.00017939,-0.019833,0.0001144,-488.31,-0.00047862,-4944.1,0.11571
15524,4.5924,2.9091,0.05,1.2827e-06,12.819,9.8499e-07,7.4009,-8.0499e-13,8.6033e-07,-9.8499e-07,-7.4007,0.12021
15525,4.5924,2.6364,0,0.00047106,4707.3,0.00017764,-0.017555,0.00011651,-459.34,-0.00047719,-4920.2,0.1201
15526,4.5005,2.7273,0,0.00047257,4722.5,0.00017929,-0.018979,0.00011492,-483.64,-0.00047894,-4945.7,0.11564
15527,4.5924,2.7273,0.05,1.2838e-06,12.829,9.8577e-07,7.4067,-1.4739e-12,2.2145e-06,-9.8577e-07,-7.4067,0.12014
15528,4.5924,2.4545,0,0.00047191,4715.9,0.00017741,-0.015471,0.00011774,-448.3,-0.00047794,-4924,0.11991
15529,4.5005,2.5455,0,0.00047328,4729.6,0.00017909,-0.017259,0.00011596,-474.35,-0.00047957,-4948.9,0.11549
15530,4.5924,2.5455,0.05,1.2857e-06,12.848,9.8728e-07,7.4181,-1.3041e-12,5.4084e-06,-9.8728e-07,-7.418,0.11999
15531,4.5924,2.2727,0,0.0004731,4727.7,0.00017708,-0.01251,0.00011945,-433.02,-0.00047898,-4929.4,0.11964
15532,4.5005,2.3636,0,0.00047434,4740.2,0.00017879,-0.014644,0.0001175,-460.56,-0.0004805,-4953.6,0.11526
15533,4.5924,2.3636,0.05,1.2885e-06,12.876,9.8941e-07,7.4341,9.5412e-13,6.5346e-06,-9.894e-07,-7.434,0.11975
15534,4.5924,2.0909,0,0.00047461,4742.8,0.00017666,-0.0086204,0.00012161,-413.67,-0.00048029,-4936.1,0.11929
15535,4.5005,2.1818,0,0.00047574,4754.1,0.0001784,-0.011089,0.00011952,-442.4,-0.00048172,-4959.9,0.11495
15536,4.5924,2.1818,0.05,1.2919e-06,12.91,9.9202e-07,7.4536,-8.297e-13,6.2743e-06,-9.9201e-07,-7.4536,0.11945
15537,4.5924,1.9091,0,0.00047642,4760.9,0.00017616,-0.0037317,0.0001242,-390.46,-0.00048186,-4944.1,0.11886
15538,4.5005,2,0,0.00047747,4771.4,0.00017791,-0.0065268,0.000122,-420.1,-0.00048323,-4967.6,0.11457
15539,4.5924,2,0.05,1.2957e-06,12.948,9.9491e-07,7.4754,-1.2432e-13,1.0382e-05,-9.949e-07,-7.4753,0.11906
15540,4.5924,1.7273,0,0.00047853,4782,0.00017559,0.0022622,0.00012719,-363.66,-0.00048368,-4953.4,0.11835
15541,4.5005,1.8182,0,0.00047951,4791.8,0.00017735,-0.00086189,0.00012492,-393.89,-0.00048499,-4976.6,0.1141
15542,4.5924,1.8182,0.05,1.2995e-06,12.986,9.9787e-07,7.4976,2.6851e-13,1.2583e-05,-9.9787e-07,-7.4976,0.11859
15543,4.5924,1.5455,0,0.00048091,4805.8,0.00017494,0.0095425,0.00013054,-333.56,-0.00048571,-4963.9,0.11776
15544,4.5005,1.6364,0,0.00048184,4815.1,0.0001767,0.0060434,0.00012824,-364.08,-0.000487,-4986.8,0.11355
15545,4.5924,1.6364,0.05,1.3032e-06,13.023,1.0007e-06,7.5187,-9.6605e-13,2.006e-05,-1.0007e-06,-7.5186,0.11804
15546,4.5924,1.3636,0,0.00048354,4832.1,0.00017422,0.018333,0.00013423,-300.47,-0.00048795,-4975.3,0.11708
15547,4.5005,1.4545,0,0.00048445,4841.1,0.00017598,0.01445,0.00013193,-330.98,-0.00048923,-4998.1,0.11292
15548,4.5924,1.4545,0.05,1.3063e-06,13.054,1.0031e-06,7.5367,-1.9688e-12,3.0586e-05,-1.0031e-06,-7.5365,0.1174
15549,4.5924,1.1818,0,0.0004864,4860.6,0.00017345,0.029286,0.00013821,-264.75,-0.00049036,-4987.5,0.11631
15550,4.5005,1.2727,0,0.0004873,4869.6,0.0001752,0.024594,0.00013594,-294.95,-0.00049165,-5010.4,0.1122
15551,4.5924,1.2727,0.05,1.3085e-06,13.076,1.0048e-06,7.5497,-4.6314e-13,1.5306e-05,-1.0048e-06,-7.5497,0.11667
15552,4.5924,1,0,0.00048945,4891.2,0.00017262,0.042493,0.00014244,-226.76,-0.00049291,-5000.6,0.11545
15553,4.5005,1.0909,0,0.00049038,4900.4,0.00017436,0.03766,0.00014024,-256.37,-0.00049424,-5023.5,0.11139
15554,4.5924,1.0909,0.05,1.3097e-06,13.088,1.0057e-06,7.5564,4.0707e-13,4.8838e-05,-1.0057e-06,-7.5562,0.11586
15555,4.5924,0.81818,0,0.00049268,4923.4,0.00017176,0.06284,0.00014688,-186.86,-0.00049559,-5014.2,0.11449
15556,4.5005,0.90909,0,0.00049365,4933.1,0.00017347,0.052785,0.00014477,-215.62,-0.00049696,-5037.4,0.11049
15557,4.5924,0.90909,0.05,1.3095e-06,13.086,1.0055e-06,7.5552,1.8867e-12,4.0637e-05,-1.0055e-06,-7.5551,0.11495
15558,4.5924,0.63636,0,0.00049606,4957.1,0.00017086,0.081161,0.00015149,-145.43,-0.00049837,-5028.2,0.11344
15559,4.5005,0.72727,0,0.00049709,4967.5,0.00017255,0.081353,0.0001495,-173.1,-0.00049981,-5051.7,0.10949
15560,4.5924,0.72727,0.05,1.3078e-06,13.069,1.0042e-06,7.5455,-2.0499e-12,5.5625e-05,-1.0042e-06,-7.5453,0.11395
15561,4.5924,0.45455,0,0.00049955,4992.1,0.00016993,0.17974,0.00015623,-102.78,-0.00050122,-5042.6,0.11229
15562,4.5005,0.54545,0,0.00050066,5003.2,0.00017159,0.094052,0.00015438,-129.22,-0.00050273,-5066.5,0.1084
15563,4.5924,0.54545,0.05,1.3055e-06,13.046,1.0025e-06,7.5324,1.1847e-12,5.7568e-05,-1.0025e-06,-7.5322,0.11285
15564,4.5924,0.27273,0,0.00050316,5028.1,0.00016898,0.26262,0.00016109,-59.079,-0.00050414,-5057.3,0.11104
15565,4.5005,0.36364,0,0.00050435,5040,0.00017061,0.2967,0.00015937,-84.214,-0.00050573,-5081.5,0.1072
15566,4.5924,0.36364,0.05,1.3155e-06,13.146,1.0101e-06,7.5898,-1.9973e-12,4.2689e-05,-1.0101e-06,-7.5896,0.11165
15567,4.5005,0.18182,0,0.00050818,5078.3,0.00016962,0.35556,0.00016448,-38.226,-0.00050881,-5097.1,0.1059
15568,4.5924,0.18182,0.05,1.5647e-06,15.636,1.2015e-06,9.0274,-2.0506e-12,4.3111e-05,-1.2015e-06,-9.0272,0.11034
15569,4.5924,0.090909,0,0.00050636,5060.1,0.00016809,0.23619,0.00016544,-19.724,-0.00050669,-5069.8,0.10968
15570,4.4087,5.7273,0,0.00050936,5090.1,0.00017124,0.29283,0.00016278,-63.218,-0.0005104,-5121.3,0.10217
15571,4.3168,5.8182,0,0.00051456,5142.1,0.00017184,0.40749,0.0001664,-40.487,-0.00051523,-5162,0.097207
15572,4.4087,5.8182,0.05,1.6928e-06,16.916,1.2999e-06,9.7666,1.7082e-12,-2.3069e-05,-1.2999e-06,-9.7667,0.10148
15573,4.4087,5.9091,0,0.00051278,5124.2,0.00017027,0.25455,0.00016746,-20.886,-0.00051312,-5134.5,0.10082
15574,4.4087,5.5455,0,0.00050546,5051.1,0.00017227,0.19731,0.00015752,-110.6,-0.00050725,-5105.4,0.10342
15575,4.3168,5.6364,0,0.00051042,5100.7,0.00017292,0.32543,0.00016086,-90.343,-0.0005119,-5145.1,0.0985
15576,4.4087,5.6364,0.05,1.3561e-06,13.551,1.0413e-06,7.8237,-3.6602e-13,-6.4106e-05,-1.0413e-06,-7.8239,0.10277
15577,4.4087,5.3636,0,0.0005017,5013.5,0.00017328,0.089421,0.00015239,-156.85,-0.00050418,-5090,0.10456
15578,4.3168,5.4545,0,0.00050645,5061,0.00017398,0.10396,0.00015545,-139.12,-0.00050867,-5129.1,0.099686
15579,4.4087,5.4545,0.05,1.3415e-06,13.405,1.0301e-06,7.7396,-3.4077e-12,-4.9135e-05,-1.0301e-06,-7.7397,0.10397
15580,4.4087,5.1818,0,0.00049806,4977.2,0.00017426,0.069041,0.00014739,-201.83,-0.00050118,-5075,0.1056
15581,4.3168,5.2727,0,0.0005026,5022.5,0.00017503,0.089406,0.00015016,-186.75,-0.00050551,-5113.2,0.10077
15582,4.4087,5.2727,0.05,1.3438e-06,13.429,1.0319e-06,7.7532,7.0253e-14,-3.3009e-05,-1.0319e-06,-7.7533,0.10506
15583,4.4087,5,0,0.00049458,4942.4,0.00017521,0.04668,0.00014257,-245.19,-0.00049829,-5060.4,0.10654
15584,4.3168,5.0909,0,0.00049889,4985.5,0.00017604,0.058031,0.00014503,-232.94,-0.00050245,-5097.8,0.10176
15585,4.4087,5.0909,0.05,1.3457e-06,13.448,1.0334e-06,7.7643,-1.1644e-12,-1.9237e-05,-1.0334e-06,-7.7643,0.10605
15586,4.4087,4.8182,0,0.00049128,4909.5,0.00017611,0.03216,0.00013797,-286.53,-0.00049553,-5046.4,0.10739
15587,4.3168,4.9091,0,0.00049537,4950.3,0.00017702,0.041371,0.00014011,-277.26,-0.0004995,-5083,0.10265
15588,4.4087,4.9091,0.05,1.346e-06,13.451,1.0336e-06,7.7657,-3.802e-12,-4.2716e-05,-1.0336e-06,-7.7658,0.10695
15589,4.4087,4.6364,0,0.00048821,4878.7,0.00017696,0.02015,0.00013365,-325.43,-0.00049293,-5033.3,0.10815
15590,4.3168,4.7273,0,0.00049205,4917.2,0.00017794,0.027034,0.00013544,-319.26,-0.00049671,-5069,0.10344
15591,4.4087,4.7273,0.05,1.3447e-06,13.438,1.0326e-06,7.7583,-1.6396e-12,-2.8573e-05,-1.0326e-06,-7.7584,0.10775
15592,4.4087,4.4545,0,0.00048538,4850.4,0.00017775,0.010533,0.00012964,-361.48,-0.00049052,-5021.1,0.10882
15593,4.3168,4.5455,0,0.00048898,4886.5,0.0001788,0.015925,0.00013108,-358.5,-0.00049409,-5055.8,0.10415
15594,4.4087,4.5455,0.05,1.3422e-06,13.412,1.0306e-06,7.7436,-2.7423e-12,-2.5822e-05,-1.0306e-06,-7.7437,0.10846
15595,4.4087,4.2727,0,0.00048282,4824.9,0.00017846,0.0025914,0.00012598,-394.29,-0.00048832,-5009.9,0.10941
15596,4.3168,4.3636,0,0.00048618,4858.5,0.00017959,0.0067482,0.00012707,-394.58,-0.00049169,-5043.7,0.10478
15597,4.4087,4.3636,0.05,1.3387e-06,13.377,1.0279e-06,7.7233,-1.265e-12,-2.2789e-05,-1.0279e-06,-7.7234,0.10909
15598,4.4087,4.0909,0,0.00048056,4802.2,0.0001791,-0.0039267,0.00012273,-423.52,-0.00048636,-5000,0.10991
15599,4.3168,4.1818,0,0.00048368,4833.5,0.0001803,-0.00076418,0.00012346,-427.08,-0.00048953,-5032.8,0.10531
15600,4.4087,4.1818,0.05,1.3345e-06,13.336,1.0248e-06,7.6996,1.9376e-12,-7.2964e-06,-1.0248e-06,-7.6996,0.10964
15601,4.4087,3.9091,0,0.00047861,4782.8,0.00017965,-0.0092253,0.00011991,-448.84,-0.00048466,-4991.4,0.11033
15602,4.3168,4,0,0.00048149,4811.6,0.00018093,-0.0069039,0.00012028,-455.66,-0.00048762,-5023.2,0.10577
15603,4.4087,4,0.05,1.3302e-06,13.293,1.0214e-06,7.6745,-3.5829e-13,-1.0311e-05,-1.0214e-06,-7.6745,0.1101
15604,4.4087,3.7273,0,0.00047699,4766.6,0.00018011,-0.013427,0.00011756,-469.95,-0.00048324,-4984.2,0.11067
15605,4.3168,3.8182,0,0.00047964,4793.1,0.00018146,-0.011829,0.00011758,-479.99,-0.000486,-5015.1,0.10615
15606,4.4087,3.8182,0.05,1.3259e-06,13.25,1.0181e-06,7.6499,5.6744e-13,-9.3156e-06,-1.0182e-06,-7.65,0.11048
15607,4.4087,3.5455,0,0.00047572,4753.9,0.00018047,-0.016617,0.00011571,-486.63,-0.00048212,-4978.5,0.11094
15608,4.3168,3.6364,0,0.00047814,4778.1,0.00018189,-0.015654,0.00011538,-499.8,-0.00048468,-5008.4,0.10645
15609,4.4087,3.6364,0.05,1.3221e-06,13.212,1.0152e-06,7.6279,-8.2841e-13,-7.2427e-06,-1.0152e-06,-7.6279,0.11078
15610,4.4087,3.3636,0,0.0004748,4744.7,0.00018073,-0.018856,0.00011437,-498.68,-0.00048131,-4974.4,0.11112
15611,4.3168,3.4545,0,0.00047701,4766.8,0.00018222,-0.018458,0.0001137,-514.85,-0.00048368,-5003.4,0.10667
15612,4.4087,3.4545,0.05,1.319e-06,13.181,1.0128e-06,7.6099,-5.6595e-13,-3.7603e-06,-1.0128e-06,-7.6099,0.11101
15613,4.4087,3.1818,0,0.00047425,4739.2,0.00018089,-0.020185,0.00011356,-505.97,-0.00048082,-4971.9,0.11124
15614,4.3168,3.2727,0,0.00047625,4759.2,0.00018245,-0.020299,0.00011258,-524.99,-0.000483,-5000,0.10682
15615,4.4087,3.2727,0.05,1.3168e-06,13.159,1.0111e-06,7.5971,-3.1669e-13,-2.3614e-06,-1.0111e-06,-7.5971,0.11116
15616,4.4087,3,0,0.00047406,4737.4,0.00018095,-0.020626,0.00011328,-508.4,-0.00048066,-4971.1,0.11127
15617,4.3168,3.0909,0,0.00047587,4755.4,0.00018256,-0.021211,0.00011201,-530.08,-0.00048266,-4998.2,0.10689
15618,4.4087,3.0909,0.05,1.3156e-06,13.147,1.0102e-06,7.5905,-1.0159e-12,-8.0504e-07,-1.0102e-06,-7.5905,0.11123
15619,4.4087,2.8182,0,0.00047425,4739.2,0.00018089,-0.020185,0.00011356,-505.97,-0.00048082,-4971.9,0.11124
15620,4.3168,2.9091,0,0.00047587,4755.4,0.00018256,-0.021211,0.00011201,-530.08,-0.00048266,-4998.2,0.10689
15621,4.4087,2.9091,0.05,1.3156e-06,13.147,1.0102e-06,7.5906,-8.0258e-13,8.8125e-07,-1.0102e-06,-7.5905,0.11123
15622,4.4087,2.6364,0,0.0004748,4744.7,0.00018073,-0.018856,0.00011437,-498.68,-0.00048131,-4974.4,0.11112
15623,4.3168,2.7273,0,0.00047625,4759.2,0.00018245,-0.020299,0.00011258,-524.99,-0.000483,-5000,0.10682
15624,4.4087,2.7273,0.05,1.3168e-06,13.159,1.0111e-06,7.5972,-1.4782e-12,2.7291e-06,-1.0111e-06,-7.5971,0.11116
15625,4.4087,2.4545,0,0.00047572,4753.9,0.00018047,-0.016617,0.00011571,-486.63,-0.00048212,-4978.5,0.11094
15626,4.3168,2.5455,0,0.00047701,4766.8,0.00018222,-0.018458,0.0001137,-514.85,-0.00048368,-5003.4,0.10667
15627,4.4087,2.5455,0.05,1.319e-06,13.181,1.0128e-06,7.6099,-3.2859e-13,5.8895e-06,-1.0128e-06,-7.6098,0.11101
15628,4.4087,2.2727,0,0.00047699,4766.6,0.00018011,-0.013427,0.00011756,-469.95,-0.00048324,-4984.2,0.11067
15629,4.3168,2.3636,0,0.00047814,4778.1,0.00018189,-0.015654,0.00011538,-499.8,-0.00048468,-5008.4,0.10645
15630,4.4087,2.3636,0.05,1.3221e-06,13.212,1.0152e-06,7.6279,-2.7746e-12,6.9099e-06,-1.0152e-06,-7.6279,0.11078
15631,4.4087,2.0909,0,0.00047861,4782.8,0.00017965,-0.0092249,0.00011991,-448.84,-0.00048466,-4991.4,0.11033
15632,4.3168,2.1818,0,0.00047964,4793.1,0.00018146,-0.011829,0.00011758,-479.99,-0.000486,-5015.1,0.10615
15633,4.4087,2.1818,0.05,1.3259e-06,13.25,1.0182e-06,7.65,-2.1123e-12,8.899e-06,-1.0181e-06,-7.6499,0.11048
15634,4.4087,1.9091,0,0.00048056,4802.2,0.0001791,-0.0039261,0.00012273,-423.52,-0.00048636,-5000,0.10991
15635,4.3168,2,0,0.00048149,4811.6,0.00018093,-0.0069035,0.00012028,-455.66,-0.00048762,-5023.2,0.10577
15636,4.4087,2,0.05,1.3302e-06,13.293,1.0214e-06,7.6745,-1.9118e-12,1.0804e-05,-1.0214e-06,-7.6745,0.1101
15637,4.4087,1.7273,0,0.00048282,4824.9,0.00017846,0.0025919,0.00012598,-394.29,-0.00048832,-5009.9,0.10941
15638,4.3168,1.8182,0,0.00048368,4833.5,0.0001803,-0.00076369,0.00012346,-427.08,-0.00048953,-5032.8,0.10531
15639,4.4087,1.8182,0.05,1.3345e-06,13.336,1.0248e-06,7.6996,-2.5373e-12,7.2964e-06,-1.0248e-06,-7.6996,0.10964
15640,4.4087,1.5455,0,0.00048538,4850.4,0.00017775,0.010534,0.00012964,-361.48,-0.00049052,-5021.1,0.10882
15641,4.3168,1.6364,0,0.00048618,4858.5,0.00017959,0.0067487,0.00012707,-394.58,-0.00049169,-5043.7,0.10478
15642,4.4087,1.6364,0.05,1.3387e-06,13.377,1.0279e-06,7.7234,4.6837e-13,2.2168e-05,-1.0279e-06,-7.7233,0.10909
15643,4.4087,1.3636,0,0.00048821,4878.7,0.00017696,0.02015,0.00013365,-325.43,-0.00049293,-5033.3,0.10815
15644,4.3168,1.4545,0,0.00048898,4886.5,0.0001788,0.015925,0.00013108,-358.5,-0.00049409,-5055.8,0.10415
15645,4.4087,1.4545,0.05,1.3422e-06,13.412,1.0306e-06,7.7437,2.0857e-12,3.4699e-05,-1.0306e-06,-7.7435,0.10846
15646,4.4087,1.1818,0,0.00049128,4909.5,0.00017611,0.032161,0.00013797,-286.53,-0.00049553,-5046.4,0.10739
15647,4.3168,1.2727,0,0.00049205,4917.2,0.00017794,0.027034,0.00013544,-319.26,-0.00049671,-5069,0.10344
15648,4.4087,1.2727,0.05,1.3447e-06,13.438,1.0326e-06,7.7584,6.4103e-13,2.8573e-05,-1.0326e-06,-7.7583,0.10775
15649,4.4087,1,0,0.00049458,4942.4,0.00017521,0.046681,0.00014257,-245.19,-0.00049829,-5060.4,0.10654
15650,4.3168,1.0909,0,0.00049537,4950.3,0.00017702,0.041372,0.00014011,-277.26,-0.0004995,-5083,0.10265
15651,4.4087,1.0909,0.05,1.346e-06,13.451,1.0336e-06,7.7658,6.842e-13,4.2716e-05,-1.0336e-06,-7.7657,0.10695
15652,4.4087,0.81818,0,0.00049806,4977.2,0.00017426,0.069042,0.00014739,-201.83,-0.00050118,-5075,0.1056
15653,4.3168,0.90909,0,0.00049889,4985.5,0.00017604,0.058032,0.00014503,-232.94,-0.00050245,-5097.8,0.10176
15654,4.4087,0.90909,0.05,1.3457e-06,13.448,1.0334e-06,7.7644,9.7828e-13,4.522e-05,-1.0334e-06,-7.7642,0.10605
15655,4.4087,0.63636,0,0.0005017,5013.5,0.00017328,0.089421,0.00015239,-156.85,-0.00050418,-5090,0.10456
15656,4.3168,0.72727,0,0.0005026,5022.5,0.00017503,0.089406,0.00015016,-186.75,-0.00050551,-5113.2,0.10077
15657,4.4087,0.72727,0.05,1.3438e-06,13.429,1.0319e-06,7.7533,1.6098e-12,3.4617e-05,-1.0319e-06,-7.7532,0.10506
15658,4.4087,0.45455,0,0.00050546,5051.1,0.00017227,0.19732,0.00015752,-110.6,-0.00050725,-5105.4,0.10342
15659,4.3168,0.54545,0,0.00050645,5061,0.00017398,0.10396,0.00015545,-139.12,-0.00050867,-5129.1,0.099686
15660,4.4087,0.54545,0.05,1.3415e-06,13.405,1.0301e-06,7.7397,3.2119e-12,4.8313e-05,-1.0301e-06,-7.7396,0.10397
15661,4.4087,0.27273,0,0.00050936,5090.1,0.00017124,0.29283,0.00016278,-63.218,-0.0005104,-5121.3,0.10217
15662,4.3168,0.36364,0,0.00051042,5100.7,0.00017292,0.32543,0.00016086,-90.343,-0.0005119,-5145.1,0.0985
15663,4.4087,0.36364,0.05,1.3561e-06,13.551,1.0413e-06,7.8239,3.6601e-13,6.3281e-05,-1.0413e-06,-7.8237,0.10277
15664,4.3168,0.18182,0,0.00051456,5142.1,0.00017184,0.40749,0.0001664,-40.487,-0.00051523,-5162,0.097207
15665,4.4087,0.18182,0.05,1.6928e-06,16.916,1.2999e-06,9.7667,-3.2962e-12,4.4424e-05,-1.2999e-06,-9.7665,0.10148
15666,4.4087,0.090909,0,0.00051278,5124.2,0.00017027,0.25456,0.00016746,-20.886,-0.00051312,-5134.5,0.10082
15667,4.225,5.7273,0,0.00051562,5152.7,0.00017351,0.32725,0.00016449,-67.444,-0.00051673,-5185.9,0.093648
15668,4.1332,5.8182,0,0.00052102,5206.6,0.00017408,0.46975,0.00016834,-42.655,-0.00052172,-5227.6,0.088863
15669,4.225,5.8182,0.05,1.8299e-06,18.286,1.4051e-06,10.557,4.7233e-12,-3.2846e-05,-1.4051e-06,-10.557,0.092958
15670,4.225,5.9091,0,0.00051925,5188.9,0.00017246,0.27493,0.0001695,-21.975,-0.00051962,-5199.7,0.092306
15671,4.225,5.5455,0,0.00051141,5110.6,0.00017463,0.21671,0.00015879,-118.81,-0.00051332,-5168.8,0.094882
15672,4.1332,5.6364,0,0.00051654,5161.8,0.00017526,0.35716,0.00016234,-96.716,-0.00051811,-5209.3,0.090144
15673,4.225,5.6364,0.05,1.3998e-06,13.988,1.0749e-06,8.076,-2.2656e-12,-7.0691e-05,-1.0749e-06,-8.0762,0.094246
15674,4.225,5.3636,0,0.00050735,5070,0.00017573,0.098575,0.00015323,-168.97,-0.00051001,-5152.3,0.096011
15675,4.1332,5.4545,0,0.00051225,5119,0.00017641,0.11499,0.00015648,-149.59,-0.00051463,-5192.1,0.091318
15676,4.225,5.4545,0.05,1.3806e-06,13.796,1.0601e-06,7.9653,3.35e-12,-3.8621e-05,-1.0601e-06,-7.9654,0.095427
15677,4.225,5.1818,0,0.00050343,5030.8,0.00017681,0.07589,0.00014781,-217.81,-0.00050678,-5136.2,0.097039
15678,4.1332,5.2727,0,0.00050811,5077.6,0.00017755,0.098299,0.00015075,-201.28,-0.00051123,-5175.1,0.092389
15679,4.225,5.2727,0.05,1.3832e-06,13.822,1.0621e-06,7.9803,-3.54e-12,-5.3997e-05,-1.0621e-06,-7.9804,0.096505
15680,4.225,5,0,0.00049968,4993.4,0.00017785,0.051312,0.00014258,-264.96,-0.00050366,-5120.5,0.09797
15681,4.1332,5.0909,0,0.00050412,5037.7,0.00017867,0.063831,0.00014519,-251.48,-0.00050792,-5158.7,0.093361
15682,4.225,5.0909,0.05,1.3855e-06,13.845,1.0639e-06,7.9935,1.2551e-12,-5.0204e-05,-1.0639e-06,-7.9937,0.097485
15683,4.225,4.8182,0,0.00049614,4958,0.00017884,0.035349,0.00013759,-309.94,-0.00050068,-5105.6,0.098807
15684,4.1332,4.9091,0,0.00050033,4999.8,0.00017973,0.045475,0.00013984,-299.68,-0.00050475,-5142.9,0.094238
15685,4.225,4.9091,0.05,1.3859e-06,13.85,1.0642e-06,7.996,2.824e-12,-2.1027e-05,-1.0642e-06,-7.9961,0.098368
15686,4.225,4.6364,0,0.00049283,4924.9,0.00017977,0.022186,0.00013288,-352.3,-0.00049788,-5091.6,0.099553
15687,4.1332,4.7273,0,0.00049676,4964.2,0.00018075,0.029745,0.00013477,-345.4,-0.00050174,-5127.9,0.095022
15688,4.225,4.7273,0.05,1.3846e-06,13.836,1.0632e-06,7.9883,-1.3456e-12,-4.2428e-05,-1.0632e-06,-7.9884,0.09916
15689,4.225,4.4545,0,0.00048979,4894.5,0.00018064,0.011677,0.00012852,-391.58,-0.00049527,-5078.5,0.10021
15690,4.1332,4.5455,0,0.00049347,4931.3,0.00018169,0.017589,0.00013003,-388.16,-0.00049892,-5113.9,0.095718
15691,4.225,4.5455,0.05,1.3818e-06,13.808,1.061e-06,7.9722,-4.9237e-12,-1.7063e-05,-1.0611e-06,-7.9723,0.099862
15692,4.225,4.2727,0,0.00048704,4867.1,0.00018143,0.003029,0.00012455,-427.35,-0.0004929,-5066.7,0.10079
15693,4.1332,4.3636,0,0.00049047,4901.3,0.00018257,0.0075867,0.00012567,-427.47,-0.00049634,-5101,0.096328
15694,4.225,4.3636,0.05,1.3779e-06,13.77,1.0581e-06,7.9499,-6.6525e-13,-9.154e-06,-1.0581e-06,-7.9499,0.10048
15695,4.225,4.0909,0,0.00048462,4842.8,0.00018213,-0.0040402,0.00012101,-459.22,-0.00049079,-5056.1,0.10128
15696,4.1332,4.1818,0,0.00048778,4874.5,0.00018335,-0.00056566,0.00012174,-462.91,-0.00049401,-5089.4,0.096856
15697,4.225,4.1818,0.05,1.3733e-06,13.724,1.0546e-06,7.9235,-9.6472e-13,-1.4897e-05,-1.0546e-06,-7.9236,0.10101
15698,4.225,3.9091,0,0.00048253,4822,0.00018274,-0.0097629,0.00011795,-486.83,-0.00048896,-5046.9,0.10169
15699,4.1332,4,0,0.00048544,4851.1,0.00018404,-0.0071969,0.00011829,-494.07,-0.00049196,-5079.2,0.097303
15700,4.225,4,0.05,1.3685e-06,13.676,1.0508e-06,7.8956,1.5114e-12,-1.2793e-05,-1.0508e-06,-7.8956,0.10146
15701,4.225,3.7273,0,0.0004808,4804.7,0.00018325,-0.014282,0.00011539,-509.86,-0.00048744,-5039.3,0.10203
15702,4.1332,3.8182,0,0.00048347,4831.3,0.00018463,-0.012491,0.00011535,-520.6,-0.00049021,-5070.6,0.097672
15703,4.225,3.8182,0.05,1.3638e-06,13.628,1.0472e-06,7.8683,3.5418e-13,-6.6251e-06,-1.0472e-06,-7.8683,0.10184
15704,4.225,3.5455,0,0.00047944,4791.1,0.00018365,-0.017701,0.00011337,-528.05,-0.00048623,-5033.2,0.10229
15705,4.1332,3.6364,0,0.00048187,4815.4,0.00018511,-0.016583,0.00011295,-542.2,-0.0004888,-5063.5,0.097965
15706,4.225,3.6364,0.05,1.3595e-06,13.586,1.0439e-06,7.8438,7.3704e-13,-5.6539e-06,-1.0439e-06,-7.8438,0.10213
15707,4.225,3.3636,0,0.00047846,4781.3,0.00018394,-0.020093,0.00011191,-541.2,-0.00048536,-5028.9,0.10247
15708,4.1332,3.4545,0,0.00048066,4803.3,0.00018548,-0.019571,0.00011114,-558.61,-0.00048772,-5058.2,0.098184
15709,4.225,3.4545,0.05,1.3561e-06,13.551,1.0413e-06,7.8238,-5.5348e-13,-5.1355e-06,-1.0413e-06,-7.8238,0.10236
15710,4.225,3.1818,0,0.00047787,4775.4,0.00018411,-0.021509,0.00011103,-549.14,-0.00048484,-5026.3,0.10258
15711,4.1332,3.2727,0,0.00047985,4795.2,0.00018573,-0.021527,0.00010991,-569.66,-0.00048699,-5054.6,0.098329
15712,4.225,3.2727,0.05,1.3536e-06,13.527,1.0394e-06,7.8097,-3.37e-13,-2.5521e-06,-1.0394e-06,-7.8097,0.1025
15713,4.225,3,0,0.00047767,4773.4,0.00018417,-0.021978,0.00011073,-551.8,-0.00048466,-5025.4,0.10262
15714,4.1332,3.0909,0,0.00047944,4791.1,0.00018585,-0.022494,0.00010929,-575.22,-0.00048663,-5052.8,0.098401
15715,4.225,3.0909,0.05,1.3523e-06,13.514,1.0384e-06,7.8024,-1.1396e-13,-8.6364e-07,-1.0384e-06,-7.8024,0.10258
15716,4.225,2.8182,0,0.00047787,4775.4,0.00018411,-0.021509,0.00011103,-549.14,-0.00048484,-5026.3,0.10258
15717,4.1332,2.9091,0,0.00047944,4791.1,0.00018585,-0.022493,0.00010929,-575.22,-0.00048663,-5052.8,0.098401
15718,4.225,2.9091,0.05,1.3523e-06,13.514,1.0384e-06,7.8024,-7.9284e-13,8.5705e-07,-1.0384e-06,-7.8024,0.10258
15719,4.225,2.6364,0,0.00047846,4781.3,0.00018394,-0.020093,0.00011191,-541.2,-0.00048536,-5028.9,0.10247
15720,4.1332,2.7273,0,0.00047985,4795.2,0.00018573,-0.021527,0.00010991,-569.66,-0.00048699,-5054.6,0.098329
15721,4.225,2.7273,0.05,1.3536e-06,13.527,1.0394e-06,7.8097,-5.4145e-13,2.5129e-06,-1.0394e-06,-7.8097,0.1025
15722,4.225,2.4545,0,0.00047944,4791.1,0.00018365,-0.017701,0.00011337,-528.05,-0.00048623,-5033.2,0.10229
15723,4.1332,2.5455,0,0.00048066,4803.3,0.00018548,-0.019571,0.00011114,-558.61,-0.00048772,-5058.2,0.098184
15724,4.225,2.5455,0.05,1.3561e-06,13.551,1.0413e-06,7.8239,-1.9515e-12,6.4019e-06,-1.0413e-06,-7.8237,0.10236
15725,4.225,2.2727,0,0.0004808,4804.7,0.00018325,-0.014282,0.00011539,-509.86,-0.00048744,-5039.3,0.10203
15726,4.1332,2.3636,0,0.00048187,4815.4,0.00018511,-0.016583,0.00011295,-542.2,-0.0004888,-5063.5,0.097965
15727,4.225,2.3636,0.05,1.3595e-06,13.586,1.0439e-06,7.8438,-7.3704e-13,5.6539e-06,-1.0439e-06,-7.8438,0.10213
15728,4.225,2.0909,0,0.00048253,4822,0.00018274,-0.0097626,0.00011795,-486.83,-0.00048896,-5046.9,0.10169
15729,4.1332,2.1818,0,0.00048347,4831.3,0.00018463,-0.01249,0.00011535,-520.6,-0.00049021,-5070.6,0.097672
15730,4.225,2.1818,0.05,1.3638e-06,13.628,1.0472e-06,7.8684,-1.3173e-12,1.3565e-05,-1.0472e-06,-7.8683,0.10184
15731,4.225,1.9091,0,0.00048462,4842.8,0.00018213,-0.0040398,0.00012101,-459.22,-0.00049079,-5056.1,0.10128
15732,4.1332,2,0,0.00048544,4851.1,0.00018404,-0.0071965,0.00011829,-494.07,-0.00049196,-5079.2,0.097303
15733,4.225,2,0.05,1.3685e-06,13.676,1.0508e-06,7.8956,-1.7545e-12,1.2272e-05,-1.0508e-06,-7.8956,0.10146
15734,4.225,1.7273,0,0.00048704,4867.1,0.00018143,0.0030295,0.00012455,-427.35,-0.0004929,-5066.7,0.10079
15735,4.1332,1.8182,0,0.00048778,4874.5,0.00018335,-0.00056526,0.00012174,-462.91,-0.00049401,-5089.4,0.096856
15736,4.225,1.8182,0.05,1.3733e-06,13.724,1.0546e-06,7.9236,-1.4686e-12,1.5489e-05,-1.0546e-06,-7.9235,0.10101
15737,4.225,1.5455,0,0.00048979,4894.5,0.00018064,0.011677,0.00012852,-391.58,-0.00049527,-5078.5,0.10021
15738,4.1332,1.6364,0,0.00049047,4901.3,0.00018257,0.0075873,0.00012567,-427.47,-0.00049634,-5101,0.096328
15739,4.225,1.6364,0.05,1.3779e-06,13.77,1.0581e-06,7.9499,-1.374e-12,7.8463e-06,-1.0581e-06,-7.9499,0.10048
15740,4.225,1.3636,0,0.00049283,4924.9,0.00017977,0.022187,0.00013288,-352.3,-0.00049788,-5091.6,0.099553
15741,4.1332,1.4545,0,0.00049347,4931.3,0.00018169,0.01759,0.00013003,-388.16,-0.00049892,-5113.9,0.095718
15742,4.225,1.4545,0.05,1.3818e-06,13.808,1.0611e-06,7.9723,4.2585e-12,1.9887e-05,-1.061e-06,-7.9722,0.099862
15743,4.225,1.1818,0,0.00049614,4958,0.00017884,0.03535,0.00013759,-309.94,-0.00050068,-5105.6,0.098807
15744,4.1332,1.2727,0,0.00049676,4964.2,0.00018075,0.029745,0.00013477,-345.4,-0.00050174,-5127.9,0.095022
15745,4.225,1.2727,0.05,1.3846e-06,13.836,1.0632e-06,7.9884,-4.8368e-13,4.3927e-05,-1.0632e-06,-7.9883,0.09916
15746,4.225,1,0,0.00049968,4993.4,0.00017785,0.051313,0.00014258,-264.96,-0.00050366,-5120.5,0.09797
15747,4.1332,1.0909,0,0.00050033,4999.8,0.00017973,0.045476,0.00013984,-299.68,-0.00050475,-5142.9,0.094238
15748,4.225,1.0909,0.05,1.3859e-06,13.85,1.0642e-06,7.9961,-3.1982e-12,4.5816e-05,-1.0642e-06,-7.996,0.098368
15749,4.225,0.81818,0,0.00050343,5030.8,0.00017681,0.075891,0.00014781,-217.81,-0.00050678,-5136.2,0.097039
15750,4.1332,0.90909,0,0.00050412,5037.7,0.00017866,0.063832,0.00014519,-251.48,-0.00050792,-5158.7,0.093361
15751,4.225,0.90909,0.05,1.3855e-06,13.845,1.0639e-06,7.9937,9.3668e-14,3.5637e-05,-1.0639e-06,-7.9936,0.097485
15752,4.225,0.63636,0,0.00050735,5070,0.00017573,0.098576,0.00015323,-168.97,-0.00051001,-5152.3,0.096011
15753,4.1332,0.72727,0,0.00050811,5077.6,0.00017755,0.098299,0.00015075,-201.28,-0.00051123,-5175.1,0.092389
15754,4.225,0.72727,0.05,1.3832e-06,13.822,1.0621e-06,7.9805,2.1911e-12,6.8099e-05,-1.0621e-06,-7.9803,0.096505
15755,4.225,0.45455,0,0.00051141,5110.6,0.00017463,0.21671,0.00015879,-118.81,-0.00051332,-5168.8,0.094882
15756,4.1332,0.54545,0,0.00051225,5119,0.00017641,0.11499,0.00015648,-149.59,-0.00051463,-5192.1,0.091318
15757,4.225,0.54545,0.05,1.3806e-06,13.796,1.0601e-06,7.9654,-1.3524e-12,3.5216e-05,-1.0601e-06,-7.9653,0.095427
15758,4.225,0.27273,0,0.00051562,5152.7,0.00017351,0.32725,0.00016449,-67.444,-0.00051673,-5185.9,0.093648
15759,4.1332,0.36364,0,0.00051654,5161.8,0.00017526,0.35716,0.00016234,-96.716,-0.00051811,-5209.3,0.090144
15760,4.225,0.36364,0.05,1.3998e-06,13.988,1.0749e-06,8.0762,-6.5087e-13,7.2396e-05,-1.0749e-06,-8.076,0.094246
15761,4.1332,0.18182,0,0.00052102,5206.6,0.00017408,0.46975,0.00016834,-42.655,-0.00052172,-5227.6,0.088863
15762,4.225,0.18182,0.05,1.8299e-06,18.286,1.4051e-06,10.557,-3.4469e-12,4.5004e-05,-1.4051e-06,-10.557,0.092958
15763,4.225,0.090909,0,0.00051925,5188.9,0.00017246,0.27493,0.0001695,-21.976,-0.00051962,-5199.7,0.092306
15764,4.0413,5.7273,0,0.00052194,5215.8,0.00017581,0.3666,0.00016621,-71.73,-0.00052311,-5251.1,0.085474
15765,3.9495,5.8182,0,0.00052754,5271.8,0.00017634,0.54487,0.00017032,-44.689,-0.00052828,-5293.7,0.080871
15766,4.0413,5.8182,0.05,1.9762e-06,19.748,1.5175e-06,11.402,-1.2083e-12,-4.4198e-05,-1.5175e-06,-11.402,0.08479
15767,4.0413,5.9091,0,0.00052578,5254.2,0.00017467,0.2976,0.00017157,-22.965,-0.00052616,-5265.5,0.084144
15768,4.0413,5.5455,0,0.00051738,5170.3,0.00017703,0.23814,0.00016004,-127.43,-0.00051943,-5232.7,0.086694
15769,3.9495,5.6364,0,0.00052269,5223.3,0.00017761,0.39226,0.00016381,-103.32,-0.00052437,-5274,0.082138
15770,4.0413,5.6364,0.05,1.4469e-06,14.459,1.111e-06,8.3476,9.2585e-15,-7.5348e-05,-1.111e-06,-8.3478,0.086064
15771,4.0413,5.3636,0,0.00051301,5126.6,0.00017823,0.10873,0.00015401,-181.84,-0.00051586,-5215,0.087808
15772,3.9495,5.4545,0,0.00051808,5177.2,0.00017887,0.1273,0.00015747,-160.64,-0.00052062,-5255.6,0.083297
15773,4.0413,5.4545,0.05,1.4232e-06,14.222,1.0928e-06,8.211,-2.4577e-12,-4.2583e-05,-1.0928e-06,-8.2111,0.087231
15774,4.0413,5.1818,0,0.00050879,5084.4,0.00017941,0.083451,0.00014814,-234.88,-0.00051238,-5197.7,0.088822
15775,3.9495,5.2727,0,0.00051361,5132.6,0.00018012,0.10813,0.00015126,-216.75,-0.00051695,-5237.4,0.084352
15776,4.0413,5.2727,0.05,1.4263e-06,14.253,1.0952e-06,8.2288,1.5682e-13,-7.7322e-05,-1.0952e-06,-8.2289,0.088295
15777,4.0413,5,0,0.00050476,5044.1,0.00018055,0.056426,0.00014246,-286.14,-0.00050902,-5181.1,0.089738
15778,3.9495,5.0909,0,0.00050932,5089.7,0.00018134,0.07024,0.00014522,-271.31,-0.00051339,-5219.9,0.085308
15779,4.0413,5.0909,0.05,1.4291e-06,14.282,1.0974e-06,8.2454,-2.6283e-12,-3.9322e-05,-1.0974e-06,-8.2455,0.08926
15780,4.0413,4.8182,0,0.00050095,5006.1,0.00018164,0.038875,0.00013703,-335.1,-0.00050581,-5165.2,0.09056
15781,3.9495,4.9091,0,0.00050525,5049,0.00018251,0.050008,0.00013942,-323.75,-0.00050997,-5203,0.086169
15782,4.0413,4.9091,0.05,1.4299e-06,14.289,1.098e-06,8.2497,2.1971e-13,-6.9085e-06,-1.098e-06,-8.2497,0.090129
15783,4.0413,4.6364,0,0.0004974,4970.6,0.00018267,0.024456,0.00013192,-381.23,-0.00050279,-5150.2,0.091293
15784,3.9495,4.7273,0,0.00050143,5010.8,0.00018363,0.032752,0.00013391,-373.54,-0.00050673,-5187.1,0.086938
15785,4.0413,4.7273,0.05,1.4286e-06,14.276,1.097e-06,8.2423,-1.1872e-12,-3.2381e-05,-1.097e-06,-8.2424,0.090906
15786,4.0413,4.4545,0,0.00049414,4938,0.00018362,0.012984,0.00012718,-424.02,-0.00049999,-5136.3,0.091939
15787,3.9495,4.5455,0,0.00049789,4975.5,0.00018468,0.019461,0.00012876,-420.11,-0.00050371,-5172.2,0.087619
15788,4.0413,4.5455,0.05,1.4257e-06,14.247,1.0947e-06,8.2253,-2.1067e-12,-4.553e-05,-1.0947e-06,-8.2254,0.091595
15789,4.0413,4.2727,0,0.0004912,4908.6,0.00018449,0.0035879,0.00012287,-463.02,-0.00049744,-5123.7,0.092501
15790,3.9495,4.3636,0,0.00049468,4943.4,0.00018564,0.0085792,0.00012402,-462.95,-0.00050093,-5158.6,0.088216
15791,4.0413,4.3636,0.05,1.4215e-06,14.205,1.0915e-06,8.2011,3.9501e-13,-2.9655e-05,-1.0915e-06,-8.2012,0.092199
15792,4.0413,4.0909,0,0.00048861,4882.7,0.00018527,-0.0040545,0.00011902,-497.76,-0.00049517,-5112.5,0.092982
15793,3.9495,4.1818,0,0.00049182,4914.8,0.00018651,-0.00024176,0.00011975,-501.58,-0.00049842,-5146.3,0.088731
15794,4.0413,4.1818,0.05,1.4165e-06,14.155,1.0877e-06,8.1724,-4.7802e-13,-1.6163e-05,-1.0877e-06,-8.1724,0.09272
15795,4.0413,3.9091,0,0.00048638,4860.4,0.00018594,-0.010208,0.00011569,-527.86,-0.0004932,-5102.8,0.093385
15796,3.9495,4,0,0.00048932,4889.9,0.00018728,-0.0073734,0.000116,-535.54,-0.00049623,-5135.6,0.089167
15797,4.0413,4,0.05,1.4112e-06,14.102,1.0836e-06,8.1418,9.3848e-14,-8.2571e-06,-1.0836e-06,-8.1418,0.093162
15798,4.0413,3.7273,0,0.00048454,4842,0.0001865,-0.015042,0.00011291,-552.97,-0.00049157,-5094.8,0.093712
15799,3.9495,3.8182,0,0.00048722,4868.8,0.00018793,-0.013032,0.00011281,-564.46,-0.00049436,-5126.5,0.089527
15800,4.0413,3.8182,0.05,1.406e-06,14.05,1.0796e-06,8.112,-8.9088e-13,-7.4733e-06,-1.0796e-06,-8.112,0.093527
15801,4.0413,3.5455,0,0.00048309,4827.5,0.00018695,-0.018682,0.00011071,-572.8,-0.00049027,-5088.4,0.093964
15802,3.9495,3.6364,0,0.00048552,4851.8,0.00018846,-0.017381,0.00011021,-587.99,-0.00049284,-5119.1,0.089812
15803,4.0413,3.6364,0.05,1.4014e-06,14.004,1.0761e-06,8.0852,6.5081e-13,-8.4384e-06,-1.0761e-06,-8.0852,0.093816
15804,4.0413,3.3636,0,0.00048205,4817.1,0.00018727,-0.021219,0.00010913,-587.13,-0.00048934,-5083.8,0.094143
15805,3.9495,3.4545,0,0.00048424,4839,0.00018887,-0.02054,0.00010823,-605.87,-0.00049169,-5113.4,0.090025
15806,4.0413,3.4545,0.05,1.3976e-06,13.966,1.0732e-06,8.0634,-5.8706e-13,-4.3774e-06,-1.0732e-06,-8.0634,0.094032
15807,4.0413,3.1818,0,0.00048142,4810.9,0.00018746,-0.022716,0.00010817,-595.79,-0.00048878,-5081,0.09425
15808,3.9495,3.2727,0,0.00048338,4830.4,0.00018914,-0.022599,0.0001069,-617.91,-0.00049091,-5109.7,0.090166
15809,4.0413,3.2727,0.05,1.3949e-06,13.94,1.0711e-06,8.048,-3.5775e-13,-2.6676e-06,-1.0711e-06,-8.048,0.094175
15810,4.0413,3,0,0.00048121,4808.8,0.00018753,-0.023211,0.00010785,-598.69,-0.00048859,-5080.1,0.094286
15811,3.9495,3.0909,0,0.00048294,4826.1,0.00018928,-0.023614,0.00010623,-623.96,-0.00049052,-5107.8,0.090236
15812,4.0413,3.0909,0.05,1.3935e-06,13.926,1.0701e-06,8.0401,-1.0297e-12,-9.0321e-07,-1.0701e-06,-8.0401,0.094246
15813,4.0413,2.8182,0,0.00048142,4810.9,0.00018746,-0.022716,0.00010817,-595.79,-0.00048878,-5081,0.09425
15814,3.9495,2.9091,0,0.00048294,4826.1,0.00018928,-0.023614,0.00010623,-623.96,-0.00049052,-5107.8,0.090236
15815,4.0413,2.9091,0.05,1.3935e-06,13.926,1.0701e-06,8.0401,-7.8224e-13,9.1021e-07,-1.0701e-06,-8.0401,0.094246
15816,4.0413,2.6364,0,0.00048205,4817.1,0.00018727,-0.021218,0.00010913,-587.13,-0.00048934,-5083.8,0.094143
15817,3.9495,2.7273,0,0.00048338,4830.4,0.00018914,-0.022599,0.0001069,-617.91,-0.00049091,-5109.7,0.090166
15818,4.0413,2.7273,0.05,1.3949e-06,13.94,1.0711e-06,8.048,-2.2937e-12,3.1376e-06,-1.0711e-06,-8.048,0.094175
15819,4.0413,2.4545,0,0.00048309,4827.5,0.00018695,-0.018682,0.00011071,-572.8,-0.00049027,-5088.4,0.093964
15820,3.9495,2.5455,0,0.00048424,4839,0.00018887,-0.020539,0.00010823,-605.87,-0.00049169,-5113.4,0.090025
15821,4.0413,2.5455,0.05,1.3976e-06,13.966,1.0732e-06,8.0634,-2.8542e-12,5.5234e-06,-1.0732e-06,-8.0634,0.094032
15822,4.0413,2.2727,0,0.00048454,4842,0.0001865,-0.015042,0.00011291,-552.97,-0.00049157,-5094.8,0.093712
15823,3.9495,2.3636,0,0.00048552,4851.8,0.00018846,-0.01738,0.00011021,-587.99,-0.00049284,-5119.1,0.089812
15824,4.0413,2.3636,0.05,1.4014e-06,14.004,1.0761e-06,8.0852,-2.4861e-12,8.0641e-06,-1.0761e-06,-8.0852,0.093816
15825,4.0413,2.0909,0,0.00048638,4860.4,0.00018594,-0.010208,0.00011569,-527.86,-0.0004932,-5102.8,0.093385
15826,3.9495,2.1818,0,0.00048722,4868.8,0.00018793,-0.013031,0.00011281,-564.46,-0.00049436,-5126.5,0.089527
15827,4.0413,2.1818,0.05,1.406e-06,14.05,1.0796e-06,8.112,-1.1966e-12,7.0062e-06,-1.0796e-06,-8.112,0.093527
15828,4.0413,1.9091,0,0.00048861,4882.7,0.00018527,-0.004054,0.00011902,-497.76,-0.00049517,-5112.5,0.092982
15829,3.9495,2,0,0.00048932,4889.9,0.00018728,-0.0073731,0.000116,-535.54,-0.00049623,-5135.6,0.089167
15830,4.0413,2,0.05,1.4112e-06,14.102,1.0836e-06,8.1419,-9.1994e-13,1.9452e-05,-1.0836e-06,-8.1418,0.093162
15831,4.0413,1.7273,0,0.0004912,4908.6,0.00018449,0.0035885,0.00012287,-463.02,-0.00049744,-5123.7,0.092501
15832,3.9495,1.8182,0,0.00049182,4914.8,0.00018651,-0.00024128,0.00011975,-501.58,-0.00049842,-5146.3,0.088731
15833,4.0413,1.8182,0.05,1.4165e-06,14.155,1.0877e-06,8.1725,-1.2682e-12,2.9779e-05,-1.0877e-06,-8.1723,0.09272
15834,4.0413,1.5455,0,0.00049414,4938,0.00018362,0.012985,0.00012718,-424.02,-0.00049999,-5136.3,0.091939
15835,3.9495,1.6364,0,0.00049468,4943.4,0.00018564,0.0085798,0.00012402,-462.95,-0.00050093,-5158.6,0.088216
15836,4.0413,1.6364,0.05,1.4215e-06,14.205,1.0915e-06,8.2012,-2.2e-12,3.4871e-05,-1.0915e-06,-8.201,0.092199
15837,4.0413,1.3636,0,0.0004974,4970.6,0.00018267,0.024456,0.00013192,-381.23,-0.00050279,-5150.2,0.091293
15838,3.9495,1.4545,0,0.00049789,4975.5,0.00018468,0.019462,0.00012876,-420.11,-0.00050371,-5172.2,0.087619
15839,4.0413,1.4545,0.05,1.4257e-06,14.247,1.0947e-06,8.2254,6.2254e-13,3.9616e-05,-1.0947e-06,-8.2252,0.091595
15840,4.0413,1.1818,0,0.00050095,5006.1,0.00018164,0.038876,0.00013703,-335.1,-0.00050581,-5165.2,0.09056
15841,3.9495,1.2727,0,0.00050143,5010.8,0.00018363,0.032752,0.00013391,-373.54,-0.00050673,-5187.1,0.086938
15842,4.0413,1.2727,0.05,1.4286e-06,14.276,1.097e-06,8.2424,-5.6039e-14,3.3946e-05,-1.097e-06,-8.2423,0.090906
15843,4.0413,1,0,0.00050476,5044.1,0.00018055,0.056427,0.00014246,-286.14,-0.00050902,-5181.1,0.089738
15844,3.9495,1.0909,0,0.00050525,5049,0.00018251,0.050008,0.00013942,-323.75,-0.00050997,-5203,0.086169
15845,4.0413,1.0909,0.05,1.4299e-06,14.289,1.098e-06,8.2497,-1.2094e-12,5.0815e-05,-1.098e-06,-8.2496,0.090129
15846,4.0413,0.81818,0,0.00050879,5084.4,0.00017941,0.083452,0.00014814,-234.88,-0.00051238,-5197.7,0.088822
15847,3.9495,0.90909,0,0.00050932,5089.7,0.00018134,0.070241,0.00014522,-271.31,-0.00051339,-5219.9,0.085308
15848,4.0413,0.90909,0.05,1.4291e-06,14.282,1.0974e-06,8.2455,1.4958e-12,5.5609e-05,-1.0974e-06,-8.2454,0.08926
15849,4.0413,0.63636,0,0.00051301,5126.6,0.00017823,0.10873,0.00015401,-181.84,-0.00051586,-5215,0.087808
15850,3.9495,0.72727,0,0.00051361,5132.6,0.00018012,0.10813,0.00015126,-216.75,-0.00051695,-5237.4,0.084352
15851,4.0413,0.72727,0.05,1.4263e-06,14.253,1.0952e-06,8.2289,4.0399e-12,7.3866e-05,-1.0952e-06,-8.2288,0.088295
15852,4.0413,0.45455,0,0.00051738,5170.3,0.00017703,0.23814,0.00016004,-127.43,-0.00051943,-5232.7,0.086694
15853,3.9495,0.54545,0,0.00051808,5177.2,0.00017887,0.1273,0.00015747,-160.64,-0.00052062,-5255.6,0.083297
15854,4.0413,0.54545,0.05,1.4232e-06,14.222,1.0928e-06,8.2111,4.0532e-12,5.9482e-05,-1.0928e-06,-8.211,0.087231
15855,4.0413,0.27273,0,0.00052194,5215.8,0.00017581,0.3666,0.00016621,-71.73,-0.00052311,-5251.1,0.085474
15856,3.9495,0.36364,0,0.00052269,5223.3,0.00017761,0.39226,0.00016381,-103.32,-0.00052437,-5274,0.082138
15857,4.0413,0.36364,0.05,1.4469e-06,14.459,1.111e-06,8.3478,-2.1847e-13,5.9866e-05,-1.111e-06,-8.3477,0.086064
15858,3.9495,0.18182,0,0.00052754,5271.8,0.00017634,0.54487,0.00017032,-44.689,-0.00052828,-5293.7,0.080871
15859,4.0413,0.18182,0.05,1.9762e-06,19.748,1.5175e-06,11.402,-6.7482e-13,4.459e-05,-1.5175e-06,-11.402,0.08479
15860,4.0413,0.090909,0,0.00052578,5254.2,0.00017467,0.2976,0.00017157,-22.965,-0.00052616,-5265.5,0.084144
15861,3.8576,5.7273,0,0.0005283,5279.3,0.00017813,0.41178,0.00016795,-76.049,-0.00052954,-5316.7,0.077651
15862,3.7658,5.8182,0,0.00053413,5337.6,0.00017862,0.63616,0.00017234,-46.537,-0.0005349,-5360.4,0.073235
15863,3.8576,5.8182,0.05,2.1321e-06,21.306,1.6372e-06,12.301,1.5656e-12,-4.459e-05,-1.6372e-06,-12.301,0.076975
15864,3.8576,5.9091,0,0.00053236,5320,0.00017689,0.32294,0.00017367,-23.822,-0.00053276,-5331.7,0.076337
15865,3.8576,5.5455,0,0.00052338,5230.2,0.00017945,0.26187,0.00016126,-136.46,-0.00052556,-5297,0.078855
15866,3.7658,5.6364,0,0.00052887,5285.1,0.00017999,0.43119,0.00016527,-110.15,-0.00053065,-5339.1,0.074485
15867,3.8576,5.6364,0.05,1.4975e-06,14.964,1.1499e-06,8.6397,-3.8959e-12,-4.6817e-05,-1.1499e-06,-8.6398,0.078234
15868,3.8576,5.3636,0,0.00051867,5183.1,0.00018076,0.12001,0.00015473,-195.48,-0.00052172,-5278.1,0.079953
15869,3.7658,5.4545,0,0.0005239,5235.4,0.00018136,0.14106,0.00015841,-172.3,-0.00052662,-5319.4,0.075626
15870,3.8576,5.4545,0.05,1.4695e-06,14.685,1.1284e-06,8.4785,4.8939e-13,-4.3784e-05,-1.1284e-06,-8.4786,0.079385
15871,3.8576,5.1818,0,0.00051414,5137.8,0.00018206,0.091809,0.00014836,-253.11,-0.00051797,-5259.6,0.08095
15872,3.7658,5.2727,0,0.0005191,5187.4,0.00018274,0.119,0.00015168,-233.22,-0.00052267,-5300,0.076663
15873,3.8576,5.2727,0.05,1.4734e-06,14.724,1.1314e-06,8.5009,-6.6208e-12,-6.4605e-05,-1.1314e-06,-8.501,0.080432
15874,3.8576,5,0,0.0005098,5094.5,0.00018331,0.062077,0.00014219,-308.86,-0.00051435,-5241.9,0.081849
15875,3.7658,5.0909,0,0.00051449,5141.4,0.00018407,0.077328,0.00014513,-292.53,-0.00051884,-5281.3,0.077601
15876,3.8576,5.0909,0.05,1.4771e-06,14.761,1.1343e-06,8.5224,-1.7435e-12,-2.5135e-05,-1.1343e-06,-8.5224,0.081379
15877,3.8576,4.8182,0,0.00050572,5053.7,0.00018451,0.042776,0.0001363,-362.14,-0.0005109,-5225,0.082655
15878,3.7658,4.9091,0,0.00051012,5097.7,0.00018537,0.055013,0.00013883,-349.61,-0.00051517,-5263.5,0.078444
15879,3.8576,4.9091,0.05,1.4784e-06,14.774,1.1352e-06,8.5296,1.8479e-12,-2.3258e-05,-1.1352e-06,-8.5296,0.082231
15880,3.8576,4.6364,0,0.00050192,5015.7,0.00018564,0.026988,0.00013075,-412.38,-0.00050766,-5209.1,0.083371
15881,3.7658,4.7273,0,0.00050603,5056.8,0.0001866,0.036084,0.00013285,-403.82,-0.00051169,-5246.6,0.079195
15882,3.8576,4.7273,0.05,1.4773e-06,14.763,1.1344e-06,8.5234,-6.8893e-13,-2.2742e-05,-1.1344e-06,-8.5234,0.082992
15883,3.8576,4.4545,0,0.00049843,4980.9,0.0001867,0.014484,0.0001256,-459.01,-0.00050465,-5194.5,0.084002
15884,3.7658,4.5455,0,0.00050226,5019.1,0.00018775,0.021568,0.00012725,-454.56,-0.00050844,-5230.9,0.07986
15885,3.8576,4.5455,0.05,1.4743e-06,14.733,1.1321e-06,8.506,2.8586e-13,-3.4407e-05,-1.1321e-06,-8.5061,0.083665
15886,3.8576,4.2727,0,0.00049529,4949.5,0.00018766,0.0042998,0.00012091,-501.51,-0.00050191,-5181.2,0.08455
15887,3.7658,4.3636,0,0.00049883,4984.9,0.00018882,0.0097536,0.00012211,-501.24,-0.00050546,-5216.5,0.080441
15888,3.8576,4.3636,0.05,1.4699e-06,14.689,1.1287e-06,8.4804,-1.3842e-14,-2.6666e-05,-1.1287e-06,-8.4805,0.084255
15889,3.8576,4.0909,0,0.00049253,4921.9,0.00018852,-0.0039302,0.00011673,-539.37,-0.00049948,-5169.4,0.085019
15890,3.7658,4.1818,0,0.00049578,4954.4,0.00018978,0.00024392,0.00011747,-543.32,-0.00050278,-5203.7,0.080942
15891,3.8576,4.1818,0.05,1.4645e-06,14.635,1.1246e-06,8.4497,3.2182e-13,-2.7137e-05,-1.1246e-06,-8.4498,0.084763
15892,3.8576,3.9091,0,0.00049016,4898.2,0.00018926,-0.010512,0.00011312,-572.16,-0.00049738,-5159.2,0.085411
15893,3.7658,4,0,0.00049314,4928,0.00019063,-0.007386,0.0001134,-580.31,-0.00050044,-5192.4,0.081366
15894,3.8576,4,0.05,1.4589e-06,14.579,1.1202e-06,8.4169,-1.0372e-12,-1.5546e-05,-1.1202e-06,-8.4169,0.085193
15895,3.8576,3.7273,0,0.0004882,4878.7,0.00018989,-0.015648,0.0001101,-599.51,-0.00049563,-5150.7,0.085728
15896,3.7658,3.8182,0,0.00049091,4905.7,0.00019136,-0.013392,0.00010993,-611.8,-0.00049844,-5182.9,0.081715
15897,3.8576,3.8182,0.05,1.4533e-06,14.523,1.116e-06,8.3849,-9.5423e-14,-1.1775e-05,-1.116e-06,-8.3849,0.085548
15898,3.8576,3.5455,0,0.00048667,4863.3,0.00019038,-0.019491,0.00010772,-621.11,-0.00049425,-5144,0.085973
15899,3.7658,3.6364,0,0.00048911,4887.7,0.00019195,-0.017974,0.00010711,-637.41,-0.00049682,-5175.2,0.081991
15900,3.8576,3.6364,0.05,1.4483e-06,14.473,1.1121e-06,8.3562,9.8288e-13,-6.327e-06,-1.1121e-06,-8.3562,0.085829
15901,3.8576,3.3636,0,0.00048557,4852.3,0.00019074,-0.022156,0.000106,-636.71,-0.00049325,-5139.2,0.086147
15902,3.7658,3.4545,0,0.00048776,4874.2,0.0001924,-0.021281,0.00010497,-656.87,-0.0004956,-5169.3,0.082197
15903,3.8576,3.4545,0.05,1.4443e-06,14.433,1.109e-06,8.3329,-6.2094e-13,-4.63e-06,-1.109e-06,-8.3328,0.086038
15904,3.8576,3.1818,0,0.0004849,4845.7,0.00019095,-0.023724,0.00010496,-646.14,-0.00049265,-5136.3,0.086251
15905,3.7658,3.2727,0,0.00048685,4865.1,0.0001927,-0.023425,0.00010353,-669.97,-0.00049477,-5165.4,0.082334
15906,3.8576,3.2727,0.05,1.4414e-06,14.404,1.1069e-06,8.3164,-3.8923e-13,-2.8238e-06,-1.1068e-06,-8.3164,0.086177
15907,3.8576,3,0,0.00048468,4843.5,0.00019102,-0.024242,0.00010461,-649.3,-0.00049245,-5135.4,0.086286
15908,3.7658,3.0909,0,0.00048639,4860.6,0.00019285,-0.024479,0.00010281,-676.55,-0.00049436,-5163.4,0.082402
15909,3.8576,3.0909,0.05,1.44e-06,14.39,1.1057e-06,8.308,-1.0385e-12,-9.565e-07,-1.1057e-06,-8.308,0.086246
15910,3.8576,2.8182,0,0.0004849,4845.7,0.00019095,-0.023724,0.00010496,-646.14,-0.00049265,-5136.3,0.086251
15911,3.7658,2.9091,0,0.00048639,4860.6,0.00019285,-0.024479,0.00010281,-676.55,-0.00049436,-5163.4,0.082402
15912,3.8576,2.9091,0.05,1.44e-06,14.39,1.1057e-06,8.308,-7.7956e-13,9.7132e-07,-1.1057e-06,-8.308,0.086246
15913,3.8576,2.6364,0,0.00048557,4852.3,0.00019074,-0.022156,0.000106,-636.71,-0.00049325,-5139.2,0.086147
15914,3.7658,2.7273,0,0.00048685,4865.1,0.0001927,-0.023425,0.00010353,-669.97,-0.00049477,-5165.4,0.082334
15915,3.8576,2.7273,0.05,1.4414e-06,14.404,1.1069e-06,8.3165,-1.2989e-12,3.351e-06,-1.1068e-06,-8.3164,0.086177
15916,3.8576,2.4545,0,0.00048667,4863.3,0.00019038,-0.019491,0.00010772,-621.11,-0.00049425,-5144,0.085973
15917,3.7658,2.5455,0,0.00048776,4874.2,0.0001924,-0.021281,0.00010497,-656.87,-0.0004956,-5169.3,0.082197
15918,3.8576,2.5455,0.05,1.4443e-06,14.433,1.109e-06,8.3329,-1.0181e-12,5.7795e-06,-1.109e-06,-8.3328,0.086038
15919,3.8576,2.2727,0,0.0004882,4878.7,0.00018989,-0.015648,0.0001101,-599.51,-0.00049563,-5150.7,0.085728
15920,3.7658,2.3636,0,0.00048911,4887.7,0.00019195,-0.017974,0.00010711,-637.41,-0.00049682,-5175.2,0.081991
15921,3.8576,2.3636,0.05,1.4483e-06,14.473,1.1121e-06,8.3562,-1.7572e-12,9.0742e-06,-1.1121e-06,-8.3562,0.085829
15922,3.8576,2.0909,0,0.00049016,4898.2,0.00018926,-0.010512,0.00011312,-572.16,-0.00049738,-5159.2,0.085411
15923,3.7658,2.1818,0,0.00049091,4905.7,0.00019136,-0.013392,0.00010993,-611.8,-0.00049844,-5182.9,0.081715
15924,3.8576,2.1818,0.05,1.4533e-06,14.523,1.116e-06,8.3849,-2.2583e-13,1.1283e-05,-1.116e-06,-8.3849,0.085548
15925,3.8576,1.9091,0,0.00049253,4921.9,0.00018852,-0.0039297,0.00011673,-539.37,-0.00049948,-5169.4,0.085019
15926,3.7658,2,0,0.00049314,4928,0.00019063,-0.0073856,0.0001134,-580.31,-0.00050044,-5192.4,0.081366
15927,3.8576,2,0.05,1.4589e-06,14.579,1.1202e-06,8.4169,9.0174e-13,1.4387e-05,-1.1202e-06,-8.4169,0.085193
15928,3.8576,1.7273,0,0.00049529,4949.5,0.00018766,0.0043004,0.00012091,-501.51,-0.00050191,-5181.2,0.08455
15929,3.7658,1.8182,0,0.00049578,4954.4,0.00018978,0.00024434,0.00011747,-543.32,-0.00050278,-5203.7,0.080942
15930,3.8576,1.8182,0.05,1.4645e-06,14.635,1.1246e-06,8.4498,-1.8925e-12,2.3208e-05,-1.1246e-06,-8.4497,0.084763
15931,3.8576,1.5455,0,0.00049843,4980.9,0.0001867,0.014484,0.0001256,-459.01,-0.00050465,-5194.5,0.084002
15932,3.7658,1.6364,0,0.00049883,4984.9,0.00018882,0.0097541,0.00012211,-501.24,-0.00050546,-5216.5,0.080441
15933,3.8576,1.6364,0.05,1.4699e-06,14.689,1.1287e-06,8.4805,-9.1117e-13,3.0978e-05,-1.1287e-06,-8.4804,0.084255
15934,3.8576,1.3636,0,0.00050192,5015.7,0.00018564,0.026988,0.00013075,-412.38,-0.00050766,-5209.1,0.083371
15935,3.7658,1.4545,0,0.00050226,5019.1,0.00018775,0.021568,0.00012725,-454.56,-0.00050844,-5230.9,0.07986
15936,3.8576,1.4545,0.05,1.4743e-06,14.733,1.1321e-06,8.5061,1.2132e-12,3.2864e-05,-1.1321e-06,-8.506,0.083665
15937,3.8576,1.1818,0,0.00050572,5053.7,0.00018451,0.042777,0.0001363,-362.14,-0.0005109,-5225,0.082655
15938,3.7658,1.2727,0,0.00050603,5056.8,0.0001866,0.036085,0.00013285,-403.82,-0.00051169,-5246.6,0.079195
15939,3.8576,1.2727,0.05,1.4773e-06,14.763,1.1344e-06,8.5234,3.0089e-13,2.437e-05,-1.1344e-06,-8.5234,0.082992
15940,3.8576,1,0,0.0005098,5094.5,0.00018331,0.062078,0.00014219,-308.86,-0.00051435,-5241.9,0.081849
15941,3.7658,1.0909,0,0.00051012,5097.7,0.00018537,0.055013,0.00013883,-349.61,-0.00051517,-5263.5,0.078444
15942,3.8576,1.0909,0.05,1.4784e-06,14.774,1.1352e-06,8.5297,7.5415e-13,3.974e-05,-1.1352e-06,-8.5296,0.082231
15943,3.8576,0.81818,0,0.00051414,5137.8,0.00018206,0.09181,0.00014836,-253.11,-0.00051797,-5259.6,0.08095
15944,3.7658,0.90909,0,0.00051449,5141.4,0.00018407,0.077329,0.00014513,-292.54,-0.00051884,-5281.3,0.077601
15945,3.8576,0.90909,0.05,1.4771e-06,14.761,1.1343e-06,8.5225,1.3277e-12,7.787e-05,-1.1343e-06,-8.5223,0.081379
15946,3.8576,0.63636,0,0.00051867,5183.1,0.00018076,0.12001,0.00015473,-195.48,-0.00052172,-5278.1,0.079953
15947,3.7658,0.72727,0,0.0005191,5187.4,0.00018274,0.119,0.00015168,-233.22,-0.00052267,-5300,0.076663
15948,3.8576,0.72727,0.05,1.4734e-06,14.724,1.1314e-06,8.501,2.7033e-12,6.2339e-05,-1.1314e-06,-8.5009,0.080432
15949,3.8576,0.45455,0,0.00052338,5230.2,0.00017945,0.26187,0.00016126,-136.46,-0.00052556,-5297,0.078855
15950,3.7658,0.54545,0,0.0005239,5235.4,0.00018136,0.14106,0.00015841,-172.3,-0.00052662,-5319.4,0.075626
15951,3.8576,0.54545,0.05,1.4695e-06,14.685,1.1284e-06,8.4786,-1.691e-12,8.6475e-05,-1.1284e-06,-8.4785,0.079385
15952,3.8576,0.27273,0,0.0005283,5279.3,0.00017813,0.41178,0.00016795,-76.049,-0.00052954,-5316.7,0.077651
15953,3.7658,0.36364,0,0.00052887,5285.1,0.00017999,0.43119,0.00016527,-110.15,-0.00053065,-5339.1,0.074485
15954,3.8576,0.36364,0.05,1.4975e-06,14.964,1.1499e-06,8.6398,5.1229e-12,8.4202e-05,-1.1499e-06,-8.6396,0.078234
15955,3.7658,0.18182,0,0.00053413,5337.6,0.00017862,0.63616,0.00017234,-46.538,-0.0005349,-5360.4,0.073235
15956,3.8576,0.18182,0.05,2.1321e-06,21.306,1.6372e-06,12.301,-7.9064e-13,3.3033e-05,-1.6372e-06,-12.301,0.076975
15957,3.8576,0.090909,0,0.00053236,5320,0.00017689,0.32294,0.00017367,-23.822,-0.00053276,-5331.7,0.076337
15958,3.6739,5.7273,0,0.00053471,5343.4,0.00018046,0.4639,0.0001697,-80.364,-0.00053602,-5382.9,0.070186
15959,3.5821,5.8182,0,0.00054078,5404,0.0001809,0.74807,0.00017439,-48.144,-0.00054157,-5427.6,0.065959
15960,3.6739,5.8182,0.05,2.2977e-06,22.961,1.7644e-06,13.257,3.3415e-12,-2.2003e-05,-1.7644e-06,-13.257,0.069518
15961,3.6739,5.9091,0,0.00053899,5386.2,0.00017911,0.35144,0.0001758,-24.507,-0.00053939,-5398.2,0.06889
15962,3.6739,5.5455,0,0.00052939,5290.3,0.0001819,0.28819,0.00016244,-145.9,-0.00053172,-5361.6,0.071371
15963,3.5821,5.6364,0,0.00053508,5347.1,0.00018239,0.47448,0.00016673,-117.19,-0.00053697,-5404.5,0.067189
15964,3.6739,5.6364,0.05,1.5518e-06,15.508,1.1916e-06,8.9533,-3.9346e-12,-5.0451e-05,-1.1916e-06,-8.9533,0.070759
15965,3.6739,5.3636,0,0.00052433,5239.7,0.00018333,0.13256,0.00015537,-209.96,-0.00052758,-5341.4,0.072449
15966,3.5821,5.4545,0,0.00052973,5293.6,0.00018389,0.15647,0.0001593,-184.59,-0.00053262,-5383.4,0.06831
15967,3.6739,5.4545,0.05,1.5201e-06,15.19,1.1673e-06,8.7702,2.5405e-13,-5.1437e-05,-1.1672e-06,-8.7703,0.07189
15968,3.6739,5.1818,0,0.00051945,5191,0.00018475,0.10105,0.00014846,-272.57,-0.00052355,-5321.8,0.073426
15969,3.5821,5.2727,0,0.00052457,5242,0.00018539,0.13104,0.000152,-250.76,-0.00052838,-5362.9,0.069326
15970,3.6739,5.2727,0.05,1.5252e-06,15.241,1.1711e-06,8.7995,-9.385e-13,-4.8984e-05,-1.1712e-06,-8.7996,0.072918
15971,3.6739,5,0,0.00051481,5144.5,0.00018613,0.068319,0.00014177,-333.22,-0.00051966,-5303,0.074306
15972,3.5821,5.0909,0,0.00051962,5192.6,0.00018686,0.085158,0.00014489,-315.27,-0.00052426,-5343,0.070243
15973,3.6739,5.0909,0.05,1.5301e-06,15.29,1.1749e-06,8.8277,2.0338e-12,-6.7756e-05,-1.1749e-06,-8.8278,0.073846
15974,3.6739,4.8182,0,0.00051043,5100.8,0.00018745,0.047086,0.00013538,-391.23,-0.00051596,-5285.1,0.075093
15975,3.5821,4.9091,0,0.00051494,5145.9,0.00018829,0.060525,0.00013805,-377.41,-0.00052032,-5324.1,0.071065
15976,3.6739,4.9091,0.05,1.5321e-06,15.31,1.1764e-06,8.8392,-2.8738e-12,-2.5349e-05,-1.1764e-06,-8.8393,0.074679
15977,3.6739,4.6364,0,0.00050637,5060.2,0.00018871,0.029806,0.00012935,-445.96,-0.00051248,-5268.4,0.075791
15978,3.5821,4.7273,0,0.00051057,5102.2,0.00018965,0.039761,0.00013155,-436.45,-0.00051659,-5306.4,0.071797
15979,3.6739,4.7273,0.05,1.5314e-06,15.303,1.1759e-06,8.8351,-2.0141e-12,-5.7265e-05,-1.1759e-06,-8.8352,0.075421
15980,3.6739,4.4545,0,0.00050265,5023.1,0.00018987,0.0162,0.00012376,-496.76,-0.00050926,-5253,0.076405
15981,3.5821,4.5455,0,0.00050655,5062,0.00019093,0.023924,0.00012548,-491.72,-0.00051312,-5289.9,0.072443
15982,3.6739,4.5455,0.05,1.5284e-06,15.274,1.1736e-06,8.8182,-3.2818e-12,-6.7331e-05,-1.1736e-06,-8.8183,0.076077
15983,3.6739,4.2727,0,0.00049932,4989.7,0.00019094,0.0051967,0.00011867,-543.05,-0.00050633,-5239,0.076937
15984,3.5821,4.3636,0,0.00050291,5025.6,0.00019211,0.011132,0.0001199,-542.56,-0.00050994,-5274.9,0.073007
15985,3.6739,4.3636,0.05,1.5238e-06,15.228,1.1701e-06,8.7918,-4.358e-13,-3.2336e-05,-1.1701e-06,-8.7919,0.07665
15986,3.6739,4.0909,0,0.00049639,4960.4,0.00019189,-0.0036233,0.00011413,-584.28,-0.00050374,-5226.7,0.077392
15987,3.5821,4.1818,0,0.00049968,4993.4,0.00019318,0.00092602,0.00011487,-588.38,-0.00050708,-5261.5,0.073492
15988,3.6739,4.1818,0.05,1.5183e-06,15.172,1.1658e-06,8.7597,-5.3616e-13,-8.2238e-06,-1.1658e-06,-8.7597,0.077143
15989,3.6739,3.9091,0,0.00049388,4935.4,0.00019272,-0.010617,0.00011021,-619.98,-0.0005015,-5216.1,0.077772
15990,3.5821,4,0,0.00049689,4965.5,0.00019412,-0.0071839,0.00011046,-628.63,-0.00050459,-5249.8,0.073902
15991,3.6739,4,0.05,1.5123e-06,15.112,1.1612e-06,8.7252,-3.8395e-13,-9.726e-06,-1.1612e-06,-8.7251,0.07756
15992,3.6739,3.7273,0,0.00049181,4914.7,0.00019341,-0.016027,0.00010694,-649.74,-0.00049963,-5207.3,0.078079
15993,3.5821,3.8182,0,0.00049454,4942,0.00019493,-0.013504,0.00010671,-662.87,-0.00050247,-5240,0.074239
15994,3.6739,3.8182,0.05,1.5065e-06,15.054,1.1568e-06,8.6915,-9.8786e-13,-1.3179e-05,-1.1568e-06,-8.6915,0.077903
15995,3.6739,3.5455,0,0.0004902,4898.6,0.00019396,-0.020044,0.00010436,-673.23,-0.00049817,-5200.4,0.078316
15996,3.5821,3.6364,0,0.00049266,4923.2,0.00019558,-0.018281,0.00010366,-690.72,-0.00050076,-5232.1,0.074506
15997,3.6739,3.6364,0.05,1.5012e-06,15.002,1.1528e-06,8.6615,8.8378e-13,-9.726e-06,-1.1528e-06,-8.6615,0.078175
15998,3.6739,3.3636,0,0.00048904,4887,0.00019436,-0.022812,0.0001025,-690.2,-0.00049711,-5195.4,0.078484
15999,3.5821,3.4545,0,0.00049124,4909,0.00019608,-0.021698,0.00010134,-711.86,-0.00049946,-5226,0.074704
16000,3.6739,3.4545,0.05,1.497e-06,14.96,1.1495e-06,8.6372,-8.8219e-13,-4.8814e-06,-1.1495e-06,-8.6372,0.078377
16001,3.6739,3.1818,0,0.00048834,4880,0.0001946,-0.024432,0.00010138,-700.45,-0.00049647,-5192.4,0.078585
16002,3.5821,3.2727,0,0.00049029,4899.5,0.00019642,-0.0239,9.9789e-05,-726.08,-0.00049859,-5222,0.074836
16003,3.6739,3.2727,0.05,1.4941e-06,14.931,1.1473e-06,8.6201,-4.1066e-13,-3.1656e-06,-1.1473e-06,-8.6201,0.078511
16004,3.6739,3,0,0.00048811,4877.7,0.00019468,-0.024966,0.000101,-703.88,-0.00049626,-5191.4,0.078618
16005,3.5821,3.0909,0,0.00048981,4894.7,0.00019659,-0.024978,9.9007e-05,-733.23,-0.00049815,-5220,0.074901
16006,3.6739,3.0909,0.05,1.4926e-06,14.915,1.1461e-06,8.6114,-1.3434e-13,-9.6718e-07,-1.1461e-06,-8.6113,0.078578
16007,3.6739,2.8182,0,0.00048834,4880,0.0001946,-0.024432,0.00010138,-700.45,-0.00049647,-5192.4,0.078585
16008,3.5821,2.9091,0,0.00048981,4894.7,0.00019659,-0.024978,9.9007e-05,-733.23,-0.00049815,-5220,0.074901
16009,3.6739,2.9091,0.05,1.4926e-06,14.915,1.1461e-06,8.6114,1.3714e-13,1.091e-06,-1.1461e-06,-8.6113,0.078578
16010,3.6739,2.6364,0,0.00048904,4887,0.00019436,-0.022812,0.0001025,-690.2,-0.00049711,-5195.4,0.078484
16011,3.5821,2.7273,0,0.00049029,4899.5,0.00019642,-0.0239,9.9789e-05,-726.08,-0.00049859,-5222,0.074836
16012,3.6739,2.7273,0.05,1.4941e-06,14.931,1.1473e-06,8.6202,-4.3116e-13,3.5667e-06,-1.1473e-06,-8.6201,0.078511
16013,3.6739,2.4545,0,0.0004902,4898.6,0.00019396,-0.020044,0.00010436,-673.23,-0.00049817,-5200.4,0.078316
16014,3.5821,2.5455,0,0.00049124,4909,0.00019608,-0.021698,0.00010134,-711.86,-0.00049946,-5226,0.074704
16015,3.6739,2.5455,0.05,1.497e-06,14.96,1.1495e-06,8.6372,-7.3419e-13,4.5763e-06,-1.1495e-06,-8.6372,0.078377
16016,3.6739,2.2727,0,0.00049181,4914.7,0.00019341,-0.016027,0.00010694,-649.74,-0.00049963,-5207.3,0.078079
16017,3.5821,2.3636,0,0.00049266,4923.2,0.00019558,-0.01828,0.00010366,-690.72,-0.00050076,-5232.1,0.074506
16018,3.6739,2.3636,0.05,1.5012e-06,15.002,1.1528e-06,8.6615,-1.698e-12,1.2373e-05,-1.1528e-06,-8.6614,0.078175
16019,3.6739,2.0909,0,0.00049388,4935.4,0.00019272,-0.010616,0.00011021,-619.98,-0.0005015,-5216.1,0.077772
16020,3.5821,2.1818,0,0.00049454,4942,0.00019493,-0.013504,0.00010671,-662.87,-0.00050247,-5240,0.074239
16021,3.6739,2.1818,0.05,1.5065e-06,15.054,1.1568e-06,8.6916,-1.3984e-12,1.7554e-05,-1.1568e-06,-8.6915,0.077903
16022,3.6739,1.9091,0,0.00049639,4960.4,0.00019189,-0.0036229,0.00011413,-584.28,-0.00050374,-5226.7,0.077392
16023,3.5821,2,0,0.00049689,4965.5,0.00019412,-0.0071836,0.00011046,-628.63,-0.00050459,-5249.8,0.073902
16024,3.6739,2,0.05,1.5123e-06,15.112,1.1612e-06,8.7251,2.6868e-13,9.726e-06,-1.1612e-06,-8.7252,0.07756
16025,3.6739,1.7273,0,0.00049932,4989.7,0.00019094,0.0051971,0.00011867,-543.05,-0.00050633,-5239,0.076937
16026,3.5821,1.8182,0,0.00049968,4993.4,0.00019318,0.00092639,0.00011487,-588.38,-0.00050708,-5261.5,0.073492
16027,3.6739,1.8182,0.05,1.5183e-06,15.172,1.1658e-06,8.7597,2.7596e-13,1.7519e-05,-1.1658e-06,-8.7596,0.077143
16028,3.6739,1.5455,0,0.00050265,5023.1,0.00018987,0.0162,0.00012376,-496.76,-0.00050926,-5253,0.076405
16029,3.5821,1.6364,0,0.00050291,5025.6,0.00019211,0.011133,0.0001199,-542.56,-0.00050994,-5274.9,0.073007
16030,3.6739,1.6364,0.05,1.5238e-06,15.228,1.1701e-06,8.7919,5.3432e-13,3.2336e-05,-1.1701e-06,-8.7918,0.07665
16031,3.6739,1.3636,0,0.00050637,5060.2,0.00018871,0.029807,0.00012935,-445.96,-0.00051248,-5268.4,0.075791
16032,3.5821,1.4545,0,0.00050655,5062,0.00019093,0.023925,0.00012548,-491.72,-0.00051312,-5289.9,0.072443
16033,3.6739,1.4545,0.05,1.5284e-06,15.274,1.1736e-06,8.8183,4.9536e-12,3.7678e-05,-1.1736e-06,-8.8182,0.076077
16034,3.6739,1.1818,0,0.00051043,5100.8,0.00018745,0.047087,0.00013538,-391.23,-0.00051596,-5285.1,0.075093
16035,3.5821,1.2727,0,0.00051057,5102.2,0.00018965,0.039762,0.00013155,-436.45,-0.00051659,-5306.4,0.071797
16036,3.6739,1.2727,0.05,1.5314e-06,15.303,1.1759e-06,8.8353,8.8443e-13,7.3541e-05,-1.1759e-06,-8.8351,0.075421
16037,3.6739,1,0,0.00051481,5144.5,0.00018613,0.06832,0.00014177,-333.22,-0.00051966,-5303,0.074306
16038,3.5821,1.0909,0,0.00051494,5145.9,0.00018829,0.060526,0.00013805,-377.41,-0.00052032,-5324.1,0.071065
16039,3.6739,1.0909,0.05,1.5321e-06,15.31,1.1764e-06,8.8393,5.0615e-12,5.9384e-05,-1.1764e-06,-8.8392,0.074679
16040,3.6739,0.81818,0,0.00051945,5191,0.00018475,0.10105,0.00014846,-272.57,-0.00052355,-5321.8,0.073426
16041,3.5821,0.90909,0,0.00051962,5192.6,0.00018686,0.085159,0.00014489,-315.28,-0.00052426,-5343,0.070243
16042,3.6739,0.90909,0.05,1.5301e-06,15.29,1.1749e-06,8.8278,1.6571e-12,4.7564e-05,-1.1749e-06,-8.8277,0.073846
16043,3.6739,0.63636,0,0.00052433,5239.7,0.00018333,0.13256,0.00015537,-209.96,-0.00052758,-5341.4,0.072449
16044,3.5821,0.72727,0,0.00052457,5242,0.00018539,0.13104,0.000152,-250.76,-0.00052838,-5362.9,0.069326
16045,3.6739,0.72727,0.05,1.5252e-06,15.241,1.1711e-06,8.7997,-1.6545e-12,9.2486e-05,-1.1712e-06,-8.7995,0.072918
16046,3.6739,0.45455,0,0.00052939,5290.3,0.0001819,0.2882,0.00016244,-145.9,-0.00053172,-5361.6,0.071371
16047,3.5821,0.54545,0,0.00052973,5293.6,0.00018389,0.15647,0.0001593,-184.59,-0.00053262,-5383.4,0.06831
16048,3.6739,0.54545,0.05,1.5201e-06,15.19,1.1672e-06,8.7703,3.3873e-12,9.8522e-05,-1.1672e-06,-8.7702,0.07189
16049,3.6739,0.27273,0,0.00053471,5343.4,0.00018046,0.4639,0.0001697,-80.364,-0.00053602,-5382.9,0.070186
16050,3.5821,0.36364,0,0.00053508,5347.1,0.00018239,0.47448,0.00016673,-117.19,-0.00053697,-5404.5,0.067189
16051,3.6739,0.36364,0.05,1.5518e-06,15.508,1.1916e-06,8.9534,1.1971e-12,6.7397e-05,-1.1916e-06,-8.9532,0.070759
16052,3.5821,0.18182,0,0.00054078,5404,0.0001809,0.74807,0.00017439,-48.144,-0.00054157,-5427.6,0.065959
16053,3.6739,0.18182,0.05,2.2977e-06,22.961,1.7644e-06,13.257,-1.8552e-12,4.5473e-05,-1.7644e-06,-13.257,0.069518
16054,3.6739,0.090909,0,0.00053899,5386.2,0.00017911,0.35144,0.0001758,-24.507,-0.00053939,-5398.2,0.06889
16055,3.4902,5.7273,0,0.00054115,5407.7,0.0001828,0.52429,0.00017146,-84.636,-0.00054253,-5449.3,0.063081
16056,3.3984,5.8182,0,0.00054747,5470.9,0.00018318,0.88661,0.00017648,-49.442,-0.00054828,-5495,0.059048
16057,3.4902,5.8182,0.05,2.4733e-06,24.716,1.8992e-06,14.269,2.5844e-12,-3.4933e-05,-1.8992e-06,-14.27,0.062424
16058,3.4902,5.9091,0,0.00054564,5452.6,0.00018133,0.38378,0.00017795,-24.975,-0.00054605,-5464.9,0.061806
16059,3.4902,5.5455,0,0.00053541,5350.4,0.00018437,0.31746,0.0001636,-155.77,-0.00053788,-5426.4,0.064245
16060,3.3984,5.6364,0,0.00054129,5409.1,0.0001848,0.52276,0.00016817,-124.42,-0.00054329,-5470,0.060255
16061,3.4902,5.6364,0.05,1.6102e-06,16.091,1.2364e-06,9.2898,-8.1782e-12,-7.7699e-05,-1.2364e-06,-9.2899,0.063643
16062,3.4902,5.3636,0,0.00052996,5296,0.00018594,0.14653,0.00015593,-225.31,-0.00053343,-5404.9,0.065301
16063,3.3984,5.4545,0,0.00053553,5351.6,0.00018643,0.17376,0.00016012,-197.55,-0.00053861,-5447.6,0.061352
16064,3.4902,5.4545,0.05,1.5753e-06,15.742,1.2096e-06,9.0887,-5.7141e-12,-8.7366e-05,-1.2096e-06,-9.0888,0.064753
16065,3.4902,5.1818,0,0.00052473,5243.7,0.0001875,0.11127,0.00014844,-293.38,-0.0005291,-5384.2,0.066255
16066,3.3984,5.2727,0,0.00052999,5296.2,0.00018809,0.14438,0.0001522,-269.47,-0.00053406,-5425.8,0.062344
16067,3.4902,5.2727,0.05,1.5821e-06,15.81,1.2149e-06,9.128,-8.416e-12,-0.00010382,-1.2149e-06,-9.1281,0.065758
16068,3.4902,5,0,0.00051975,5193.9,0.00018902,0.075191,0.00014118,-359.38,-0.00052493,-5364.3,0.067113
16069,3.3984,5.0909,0,0.00052469,5243.3,0.00018971,0.093796,0.00014449,-339.66,-0.00052964,-5404.8,0.063238
16070,3.4902,5.0909,0.05,1.5886e-06,15.875,1.2198e-06,9.1652,1.0606e-12,-7.453e-05,-1.2198e-06,-9.1653,0.066664
16071,3.4902,4.8182,0,0.00051508,5147.2,0.00019048,0.051822,0.00013424,-422.56,-0.00052096,-5345.5,0.067878
16072,3.3984,4.9091,0,0.00051969,5193.3,0.00019128,0.066578,0.00013706,-407.32,-0.00052542,-5385,0.064037
16073,3.4902,4.9091,0.05,1.5916e-06,15.905,1.2221e-06,9.1827,-8.6228e-13,-4.7936e-05,-1.2221e-06,-9.1828,0.067475
16074,3.4902,4.6364,0,0.00051075,5104,0.00019187,0.032921,0.00012769,-482.17,-0.00051724,-5327.9,0.068556
16075,3.3984,4.7273,0,0.00051504,5146.8,0.00019279,0.043801,0.00013001,-471.64,-0.00052143,-5366.4,0.064746
16076,3.4902,4.7273,0.05,1.5915e-06,15.904,1.222e-06,9.1819,-3.8078e-13,-6.4684e-05,-1.222e-06,-9.182,0.068196
16077,3.4902,4.4545,0,0.0005068,5064.6,0.00019316,0.018144,0.00012162,-537.5,-0.0005138,-5311.9,0.069151
16078,3.3984,4.5455,0,0.00051077,5104.2,0.00019421,0.026547,0.00012343,-531.84,-0.00051773,-5349.2,0.065371
16079,3.4902,4.5455,0.05,1.5887e-06,15.876,1.22e-06,9.1663,-1.6922e-12,-2.3896e-05,-1.22e-06,-9.1663,0.068832
16080,3.4902,4.2727,0,0.00050327,5029.3,0.00019435,0.0063025,0.0001161,-587.89,-0.00051069,-5297.4,0.069666
16081,3.3984,4.3636,0,0.00050692,5065.7,0.00019553,0.012742,0.00011737,-587.19,-0.00051435,-5333.7,0.065916
16082,3.4902,4.3636,0.05,1.5842e-06,15.831,1.2164e-06,9.1399,1.7496e-12,-1.0921e-05,-1.2164e-06,-9.1398,0.069386
16083,3.4902,4.0909,0,0.00050018,4998.4,0.00019541,-0.0030932,0.00011119,-632.75,-0.00050793,-5284.6,0.070105
16084,3.3984,4.1818,0,0.00050352,5031.8,0.00019672,0.0018494,0.00011193,-637.03,-0.00051133,-5319.9,0.066384
16085,3.4902,4.1818,0.05,1.5785e-06,15.774,1.2121e-06,9.1069,1.4786e-13,-2.0328e-05,-1.2121e-06,-9.107,0.069863
16086,3.4902,3.9091,0,0.00049755,4972,0.00019633,-0.010462,0.00010695,-671.57,-0.00050556,-5273.7,0.070471
16087,3.3984,4,0,0.00050059,5002.5,0.00019777,-0.0067007,0.00010716,-680.78,-0.00050869,-5308,0.066778
16088,3.4902,4,0.05,1.5723e-06,15.712,1.2074e-06,9.0715,3.7495e-13,-1.5397e-05,-1.2073e-06,-9.0716,0.070265
16089,3.4902,3.7273,0,0.00049538,4950.4,0.0001971,-0.016101,0.00010342,-703.91,-0.00050359,-5264.7,0.070767
16090,3.3984,3.8182,0,0.00049814,4978,0.00019866,-0.01328,0.00010311,-717.96,-0.00050645,-5298,0.067102
16091,3.4902,3.8182,0.05,1.5664e-06,15.653,1.2028e-06,9.0372,4.929e-13,-8.683e-06,-1.2028e-06,-9.0372,0.070596
16092,3.4902,3.5455,0,0.00049369,4933.5,0.00019771,-0.020246,0.00010063,-729.42,-0.00050204,-5257.6,0.070995
16093,3.3984,3.6364,0,0.00049618,4958.3,0.00019939,-0.018191,9.982e-05,-748.16,-0.00050465,-5289.9,0.067358
16094,3.4902,3.6364,0.05,1.5611e-06,15.6,1.1987e-06,9.0067,2.5503e-14,-6.9915e-06,-1.1987e-06,-9.0067,0.070858
16095,3.4902,3.3636,0,0.00049248,4921.4,0.00019815,-0.023078,9.8621e-05,-747.83,-0.00050092,-5252.6,0.071157
16096,3.3984,3.4545,0,0.0004947,4943.6,0.00019995,-0.021668,9.7327e-05,-771.08,-0.00050329,-5283.9,0.067548
16097,3.4902,3.4545,0.05,1.5568e-06,15.558,1.1955e-06,8.9822,2.7185e-13,-5.1272e-06,-1.1955e-06,-8.9822,0.071052
16098,3.4902,3.1818,0,0.00049176,4914.2,0.00019841,-0.024725,9.7407e-05,-758.95,-0.00050025,-5249.5,0.071253
16099,3.3984,3.2727,0,0.00049372,4933.8,0.00020032,-0.023888,9.5652e-05,-786.49,-0.00050237,-5279.8,0.067674
16100,3.4902,3.2727,0.05,1.5539e-06,15.528,1.1932e-06,8.9652,-4.316e-13,-3.1313e-06,-1.1932e-06,-8.9652,0.071181
16101,3.4902,3,0,0.00049152,4911.8,0.0001985,-0.025266,9.7001e-05,-762.67,-0.00050003,-5248.5,0.071285
16102,3.3984,3.0909,0,0.00049323,4928.9,0.00020051,-0.024969,9.4811e-05,-794.22,-0.00050191,-5277.8,0.067737
16103,3.4902,3.0909,0.05,1.5524e-06,15.513,1.192e-06,8.9564,-1.962e-12,-1.0778e-06,-1.192e-06,-8.9564,0.071245
16104,3.4902,2.8182,0,0.00049176,4914.2,0.00019841,-0.024725,9.7407e-05,-758.95,-0.00050025,-5249.5,0.071253
16105,3.3984,2.9091,0,0.00049323,4928.9,0.00020051,-0.024969,9.4811e-05,-794.22,-0.00050191,-5277.8,0.067737
16106,3.4902,2.9091,0.05,1.5524e-06,15.513,1.192e-06,8.9564,-1.6736e-12,1.0695e-06,-1.192e-06,-8.9564,0.071245
16107,3.4902,2.6364,0,0.00049248,4921.4,0.00019815,-0.023078,9.8621e-05,-747.83,-0.00050092,-5252.6,0.071157
16108,3.3984,2.7273,0,0.00049372,4933.8,0.00020032,-0.023888,9.5652e-05,-786.49,-0.00050237,-5279.8,0.067674
16109,3.4902,2.7273,0.05,1.5539e-06,15.528,1.1932e-06,8.9652,-4.7988e-13,3.9764e-06,-1.1932e-06,-8.9651,0.071181
16110,3.4902,2.4545,0,0.00049369,4933.5,0.00019771,-0.020246,0.00010063,-729.42,-0.00050204,-5257.6,0.070995
16111,3.3984,2.5455,0,0.0004947,4943.6,0.00019995,-0.021668,9.7327e-05,-771.08,-0.00050329,-5283.9,0.067548
16112,3.4902,2.5455,0.05,1.5568e-06,15.558,1.1955e-06,8.9823,-9.4338e-13,8.6759e-06,-1.1955e-06,-8.9822,0.071052
16113,3.4902,2.2727,0,0.00049538,4950.4,0.0001971,-0.016101,0.00010342,-703.91,-0.00050359,-5264.7,0.070767
16114,3.3984,2.3636,0,0.00049618,4958.3,0.00019939,-0.018191,9.982e-05,-748.16,-0.00050465,-5289.9,0.067358
16115,3.4902,2.3636,0.05,1.5611e-06,15.6,1.1987e-06,9.0068,1.1875e-12,9.9464e-06,-1.1987e-06,-9.0067,0.070858
16116,3.4902,2.0909,0,0.00049755,4972,0.00019633,-0.010462,0.00010695,-671.57,-0.00050556,-5273.7,0.070471
16117,3.3984,2.1818,0,0.00049814,4978,0.00019866,-0.01328,0.00010311,-717.96,-0.00050645,-5298,0.067102
16118,3.4902,2.1818,0.05,1.5664e-06,15.653,1.2028e-06,9.0373,-6.7514e-13,1.7358e-05,-1.2028e-06,-9.0372,0.070596
16119,3.4902,1.9091,0,0.00050018,4998.4,0.00019541,-0.0030929,0.00011119,-632.75,-0.00050793,-5284.6,0.070105
16120,3.3984,2,0,0.00050059,5002.5,0.00019777,-0.0067004,0.00010716,-680.78,-0.00050869,-5308,0.066778
16121,3.4902,2,0.05,1.5723e-06,15.712,1.2073e-06,9.0716,-1.9624e-12,2.5709e-05,-1.2074e-06,-9.0715,0.070265
16122,3.4902,1.7273,0,0.00050327,5029.3,0.00019435,0.0063029,0.0001161,-587.89,-0.00051069,-5297.4,0.069666
16123,3.3984,1.8182,0,0.00050352,5031.8,0.00019672,0.0018498,0.00011193,-637.03,-0.00051133,-5319.9,0.066384
16124,3.4902,1.8182,0.05,1.5785e-06,15.774,1.2121e-06,9.107,-4.2912e-13,3.8108e-05,-1.2121e-06,-9.1069,0.069863
16125,3.4902,1.5455,0,0.0005068,5064.5,0.00019316,0.018145,0.00012162,-537.5,-0.0005138,-5311.9,0.069151
16126,3.3984,1.6364,0,0.00050692,5065.7,0.00019553,0.012743,0.00011737,-587.19,-0.00051435,-5333.7,0.065916
16127,3.4902,1.6364,0.05,1.5842e-06,15.831,1.2164e-06,9.1399,-1.2655e-12,3.6841e-05,-1.2164e-06,-9.1398,0.069386
16128,3.4902,1.3636,0,0.00051075,5104,0.00019187,0.032922,0.00012769,-482.17,-0.00051724,-5327.9,0.068556
16129,3.3984,1.4545,0,0.00051077,5104.2,0.00019421,0.026548,0.00012343,-531.84,-0.00051773,-5349.2,0.065371
16130,3.4902,1.4545,0.05,1.5887e-06,15.876,1.22e-06,9.1663,1.3926e-13,3.7812e-05,-1.22e-06,-9.1662,0.068832
16131,3.4902,1.1818,0,0.00051508,5147.2,0.00019048,0.051823,0.00013424,-422.56,-0.00052096,-5345.5,0.067878
16132,3.3984,1.2727,0,0.00051504,5146.8,0.00019279,0.043801,0.00013001,-471.64,-0.00052143,-5366.4,0.064746
16133,3.4902,1.2727,0.05,1.5915e-06,15.904,1.222e-06,9.182,-1.3147e-12,6.12e-05,-1.222e-06,-9.1819,0.068196
16134,3.4902,1,0,0.00051975,5193.9,0.00018902,0.075192,0.00014118,-359.38,-0.00052493,-5364.3,0.067113
16135,3.3984,1.0909,0,0.00051969,5193.3,0.00019128,0.066579,0.00013706,-407.32,-0.00052542,-5385,0.064037
16136,3.4902,1.0909,0.05,1.5916e-06,15.905,1.2221e-06,9.1828,6.5767e-12,9.2274e-05,-1.2221e-06,-9.1827,0.067475
16137,3.4902,0.81818,0,0.00052473,5243.7,0.0001875,0.11127,0.00014844,-293.38,-0.0005291,-5384.2,0.066255
16138,3.3984,0.90909,0,0.00052469,5243.3,0.00018971,0.093797,0.00014449,-339.66,-0.00052964,-5404.8,0.063238
16139,3.4902,0.90909,0.05,1.5886e-06,15.875,1.2198e-06,9.1653,1.6087e-12,7.8207e-05,-1.2198e-06,-9.1652,0.066664
16140,3.4902,0.63636,0,0.00052996,5296,0.00018594,0.14653,0.00015593,-225.31,-0.00053343,-5404.9,0.065301
16141,3.3984,0.72727,0,0.00052999,5296.2,0.00018809,0.14438,0.0001522,-269.47,-0.00053406,-5425.7,0.062344
16142,3.4902,0.72727,0.05,1.5821e-06,15.81,1.2149e-06,9.1281,7.9715e-12,9.4048e-05,-1.2149e-06,-9.128,0.065758
16143,3.4902,0.45455,0,0.00053541,5350.4,0.00018437,0.31746,0.0001636,-155.77,-0.00053788,-5426.4,0.064245
16144,3.3984,0.54545,0,0.00053553,5351.6,0.00018643,0.17376,0.00016012,-197.55,-0.00053861,-5447.6,0.061352
16145,3.4902,0.54545,0.05,1.5753e-06,15.742,1.2096e-06,9.0888,5.2659e-12,5.5599e-05,-1.2096e-06,-9.0887,0.064753
16146,3.4902,0.27273,0,0.00054115,5407.7,0.0001828,0.5243,0.00017146,-84.636,-0.00054253,-5449.3,0.063081
16147,3.3984,0.36364,0,0.00054129,5409.1,0.0001848,0.52276,0.00016817,-124.42,-0.00054329,-5470,0.060255
16148,3.4902,0.36364,0.05,1.6102e-06,16.091,1.2364e-06,9.2899,4.9252e-12,9.8607e-05,-1.2364e-06,-9.2898,0.063643
16149,3.3984,0.18182,0,0.00054747,5470.9,0.00018318,0.88661,0.00017648,-49.442,-0.00054828,-5495,0.059048
16150,3.4902,0.18182,0.05,2.4733e-06,24.716,1.8992e-06,14.27,-6.2831e-13,3.7881e-05,-1.8992e-06,-14.269,0.062424
16151,3.4902,0.090909,0,0.00054564,5452.6,0.00018133,0.38378,0.00017795,-24.975,-0.00054605,-5464.9,0.061806
16152,3.3065,5.7273,0,0.0005476,5472.3,0.00018514,0.59469,0.00017324,-88.82,-0.00054905,-5515.8,0.056342
16153,3.2147,5.8182,0,0.00055419,5538,0.00018546,1.0602,0.00017861,-50.358,-0.00055501,-5562.5,0.052505
16154,3.3065,5.8182,0.05,2.6587e-06,26.568,2.0415e-06,15.339,-1.9203e-13,-3.6606e-05,-2.0415e-06,-15.339,0.055696
16155,3.3065,5.9091,0,0.0005523,5519.2,0.00018354,0.42088,0.00018013,-25.174,-0.00055272,-5531.6,0.05509
16156,3.3065,5.5455,0,0.0005414,5410.3,0.00018686,0.35008,0.00016471,-166.07,-0.00054403,-5491.3,0.05748
16157,3.2147,5.6364,0,0.00054748,5471,0.00018721,0.5768,0.00016959,-131.82,-0.00054959,-5535.4,0.053686
16158,3.3065,5.6364,0.05,1.6728e-06,16.717,1.2845e-06,9.6512,-8.0871e-12,-5.4039e-05,-1.2845e-06,-9.6513,0.056891
16159,3.3065,5.3636,0,0.00053555,5351.8,0.00018858,0.1621,0.0001564,-241.61,-0.00053925,-5468.5,0.058511
16160,3.2147,5.4545,0,0.00054129,5409.2,0.000189,0.19319,0.00016086,-211.23,-0.00054457,-5511.6,0.054756
16161,3.3065,5.4545,0.05,1.6358e-06,16.347,1.2561e-06,9.4377,-9.9252e-12,-5.5948e-05,-1.2561e-06,-9.4378,0.057975
16162,3.3065,5.1818,0,0.00052995,5295.8,0.0001903,0.12256,0.00014827,-315.65,-0.00053461,-5446.5,0.05944
16163,3.2147,5.2727,0,0.00053535,5349.8,0.00019082,0.15917,0.00015228,-289.44,-0.00053968,-5488.5,0.055722
16164,3.3065,5.2727,0.05,1.645e-06,16.439,1.2631e-06,9.4908,-3.7193e-12,-6.4581e-05,-1.2632e-06,-9.4908,0.058955
16165,3.3065,5,0,0.00052463,5242.7,0.00019197,0.082749,0.00014039,-387.52,-0.00053014,-5425.6,0.060273
16166,3.2147,5.0909,0,0.00052968,5293.2,0.00019261,0.10332,0.0001439,-365.87,-0.00053495,-5466.6,0.056588
16167,3.3065,5.0909,0.05,1.6535e-06,16.523,1.2697e-06,9.5397,-4.6356e-12,-8.1786e-05,-1.2697e-06,-9.5398,0.059836
16168,3.3065,4.8182,0,0.00051965,5192.9,0.00019359,0.057013,0.00013285,-456.34,-0.0005259,-5406,0.061014
16169,3.2147,4.9091,0,0.00052435,5239.9,0.00019436,0.073208,0.00013584,-439.59,-0.00053044,-5445.8,0.057362
16170,3.3065,4.9091,0.05,1.6579e-06,16.567,1.273e-06,9.5651,1.024e-12,-5.2446e-05,-1.273e-06,-9.5651,0.060622
16171,3.3065,4.6364,0,0.00051505,5147,0.00019514,0.036354,0.00012575,-521.26,-0.00052193,-5387.7,0.06167
16172,3.2147,4.7273,0,0.00051941,5190.6,0.00019604,0.048223,0.0001282,-509.66,-0.0005262,-5426.6,0.058047
16173,3.3065,4.7273,0.05,1.6585e-06,16.574,1.2735e-06,9.5688,-4.0318e-12,-2.7168e-05,-1.2735e-06,-9.5689,0.06132
16174,3.3065,4.4545,0,0.00051088,5105.3,0.00019657,0.020347,0.00011918,-581.5,-0.00051828,-5371.1,0.062243
16175,3.2147,4.5455,0,0.00051491,5145.5,0.00019762,0.029461,0.00012106,-575.21,-0.00052227,-5408.9,0.058648
16176,3.3065,4.5455,0.05,1.6562e-06,16.55,1.2717e-06,9.5553,-1.0814e-12,-4.4772e-05,-1.2717e-06,-9.5554,0.061934
16177,3.3065,4.2727,0,0.00050717,5068.2,0.00019789,0.0076639,0.0001132,-636.32,-0.00051499,-5356.3,0.062738
16178,3.2147,4.3636,0,0.00051086,5105.1,0.00019908,0.014625,0.00011451,-635.42,-0.0005187,-5393.1,0.059171
16179,3.3065,4.3636,0.05,1.6517e-06,16.506,1.2683e-06,9.5297,9.3179e-13,-2.4024e-05,-1.2683e-06,-9.5297,0.062468
16180,3.3065,4.0909,0,0.00050393,5035.8,0.00019907,-0.00227,0.00010789,-685.08,-0.00051207,-5343.3,0.06316
16181,3.2147,4.1818,0,0.00050731,5069.6,0.0002004,0.0030815,0.00010863,-689.57,-0.00051551,-5379.1,0.05962
16182,3.3065,4.1818,0.05,1.6461e-06,16.449,1.264e-06,9.497,-6.7768e-13,-2.0309e-05,-1.264e-06,-9.4971,0.062926
16183,3.3065,3.9091,0,0.00050118,5008.4,0.0002001,-0.0099535,0.00010331,-727.22,-0.00050957,-5332.2,0.063511
16184,3.2147,4,0,0.00050426,5039.1,0.00020157,-0.0058402,0.00010348,-737.04,-0.00051274,-5367.1,0.059997
16185,3.3065,4,0.05,1.64e-06,16.389,1.2593e-06,9.4619,6.1558e-14,-1.9161e-05,-1.2593e-06,-9.4619,0.063312
16186,3.3065,3.7273,0,0.00049893,4985.9,0.00020096,-0.015752,9.9504e-05,-762.29,-0.00050751,-5323.1,0.063795
16187,3.2147,3.8182,0,0.00050173,5013.8,0.00020257,-0.012595,9.912e-05,-777.32,-0.00051041,-5357.1,0.060306
16188,3.3065,3.8182,0.05,1.6341e-06,16.33,1.2548e-06,9.4281,-3.9491e-13,-7.9305e-06,-1.2548e-06,-9.4281,0.063629
16189,3.3065,3.5455,0,0.00049718,4968.4,0.00020163,-0.019959,9.6505e-05,-789.92,-0.00050589,-5316,0.064012
16190,3.2147,3.6364,0,0.0004997,4993.6,0.00020339,-0.017559,9.5585e-05,-810.01,-0.00050853,-5349.1,0.06055
16191,3.3065,3.6364,0.05,1.629e-06,16.279,1.2509e-06,9.3985,-1.7021e-14,-1.1032e-05,-1.2509e-06,-9.3985,0.06388
16192,3.3065,3.3636,0,0.00049593,4955.9,0.00020212,-0.022801,9.4344e-05,-809.85,-0.00050472,-5311,0.064167
16193,3.2147,3.4545,0,0.00049819,4978.4,0.00020401,-0.021023,9.2909e-05,-834.78,-0.00050711,-5343.1,0.060732
16194,3.3065,3.4545,0.05,1.6249e-06,16.238,1.2477e-06,9.3749,-6.7916e-13,-5.3621e-06,-1.2477e-06,-9.3749,0.064065
16195,3.3065,3.1818,0,0.00049519,4948.4,0.00020242,-0.024441,9.304e-05,-821.88,-0.00050402,-5307.9,0.064259
16196,3.2147,3.2727,0,0.00049718,4968.4,0.00020443,-0.02321,9.1113e-05,-851.41,-0.00050616,-5339.1,0.060852
16197,3.3065,3.2727,0.05,1.6221e-06,16.21,1.2456e-06,9.3587,-4.3935e-13,-3.3784e-06,-1.2456e-06,-9.3587,0.064189
16198,3.3065,3,0,0.00049494,4946,0.00020252,-0.024977,9.2604e-05,-825.9,-0.00050379,-5306.9,0.064289
16199,3.2147,3.0909,0,0.00049668,4963.4,0.00020464,-0.024267,9.0211e-05,-859.76,-0.00050569,-5337.1,0.060911
16200,3.3065,3.0909,0.05,1.6207e-06,16.195,1.2445e-06,9.3504,-1.4984e-13,-1.1364e-06,-1.2445e-06,-9.3504,0.06425
16201,3.3065,2.8182,0,0.00049519,4948.4,0.00020242,-0.024441,9.304e-05,-821.88,-0.00050402,-5307.9,0.064259
16202,3.2147,2.9091,0,0.00049668,4963.4,0.00020464,-0.024267,9.0211e-05,-859.76,-0.00050569,-5337.1,0.060911
16203,3.3065,2.9091,0.05,1.6207e-06,16.195,1.2445e-06,9.3504,1.5189e-13,1.1192e-06,-1.2445e-06,-9.3504,0.06425
16204,3.3065,2.6364,0,0.00049593,4955.9,0.00020212,-0.0228,9.4344e-05,-809.85,-0.00050472,-5311,0.064167
16205,3.2147,2.7273,0,0.00049718,4968.4,0.00020443,-0.02321,9.1113e-05,-851.41,-0.00050616,-5339.1,0.060852
16206,3.3065,2.7273,0.05,1.6221e-06,16.21,1.2456e-06,9.3588,-1.3584e-12,4.6994e-06,-1.2456e-06,-9.3586,0.064189
16207,3.3065,2.4545,0,0.00049718,4968.4,0.00020163,-0.019958,9.6505e-05,-789.92,-0.00050589,-5316,0.064012
16208,3.2147,2.5455,0,0.00049819,4978.4,0.00020401,-0.021023,9.2909e-05,-834.78,-0.00050711,-5343.1,0.060732
16209,3.3065,2.5455,0.05,1.6249e-06,16.238,1.2477e-06,9.3749,-1.8824e-12,5.3621e-06,-1.2477e-06,-9.3749,0.064065
16210,3.3065,2.2727,0,0.00049893,4985.9,0.00020096,-0.015752,9.9504e-05,-762.29,-0.00050751,-5323.1,0.063795
16211,3.2147,2.3636,0,0.0004997,4993.6,0.00020339,-0.017559,9.5585e-05,-810.01,-0.00050853,-5349.1,0.06055
16212,3.3065,2.3636,0.05,1.629e-06,16.279,1.2509e-06,9.3985,-1.2467e-12,1.4758e-05,-1.2509e-06,-9.3984,0.06388
16213,3.3065,2.0909,0,0.00050118,5008.4,0.0002001,-0.0099532,0.00010331,-727.22,-0.00050957,-5332.2,0.063511
16214,3.2147,2.1818,0,0.00050173,5013.8,0.00020257,-0.012595,9.912e-05,-777.32,-0.00051041,-5357.1,0.060306
16215,3.3065,2.1818,0.05,1.6341e-06,16.33,1.2548e-06,9.4281,-5.6072e-13,1.503e-05,-1.2548e-06,-9.4281,0.063629
16216,3.3065,1.9091,0,0.00050393,5035.8,0.00019907,-0.0022696,0.00010789,-685.08,-0.00051207,-5343.3,0.06316
16217,3.2147,2,0,0.00050426,5039.1,0.00020157,-0.0058399,0.00010348,-737.04,-0.00051274,-5367.1,0.059997
16218,3.3065,2,0.05,1.64e-06,16.389,1.2593e-06,9.462,9.5917e-13,3.4961e-05,-1.2593e-06,-9.4619,0.063312
16219,3.3065,1.7273,0,0.00050717,5068.2,0.00019789,0.0076644,0.0001132,-636.32,-0.00051499,-5356.3,0.062738
16220,3.2147,1.8182,0,0.00050731,5069.6,0.0002004,0.003082,0.00010863,-689.57,-0.00051551,-5379.1,0.05962
16221,3.3065,1.8182,0.05,1.6461e-06,16.449,1.264e-06,9.4971,-1.5416e-12,5.4483e-05,-1.264e-06,-9.497,0.062926
16222,3.3065,1.5455,0,0.00051088,5105.3,0.00019657,0.020348,0.00011918,-581.5,-0.00051828,-5371.1,0.062243
16223,3.2147,1.6364,0,0.00051086,5105.1,0.00019908,0.014626,0.00011451,-635.42,-0.0005187,-5393.1,0.059171
16224,3.3065,1.6364,0.05,1.6517e-06,16.506,1.2683e-06,9.5297,-2.3085e-13,2.4024e-05,-1.2683e-06,-9.5297,0.062468
16225,3.3065,1.3636,0,0.00051505,5147,0.00019514,0.036355,0.00012575,-521.26,-0.00052193,-5387.7,0.06167
16226,3.2147,1.4545,0,0.00051491,5145.5,0.00019762,0.029462,0.00012106,-575.21,-0.00052227,-5408.9,0.058648
16227,3.3065,1.4545,0.05,1.6562e-06,16.55,1.2717e-06,9.5554,2.6256e-13,2.7537e-05,-1.2717e-06,-9.5553,0.061934
16228,3.3065,1.1818,0,0.00051965,5192.9,0.00019359,0.057014,0.00013285,-456.34,-0.0005259,-5406,0.061014
16229,3.2147,1.2727,0,0.00051941,5190.6,0.00019604,0.048224,0.0001282,-509.66,-0.0005262,-5426.6,0.058047
16230,3.3065,1.2727,0.05,1.6585e-06,16.574,1.2735e-06,9.5689,5.9897e-12,4.3592e-05,-1.2735e-06,-9.5688,0.06132
16231,3.3065,1,0,0.00052463,5242.6,0.00019197,0.08275,0.00014039,-387.52,-0.00053014,-5425.6,0.060273
16232,3.2147,1.0909,0,0.00052435,5239.9,0.00019436,0.073209,0.00013584,-439.59,-0.00053044,-5445.8,0.057362
16233,3.3065,1.0909,0.05,1.6579e-06,16.567,1.273e-06,9.5651,-5.8501e-13,7.1304e-05,-1.273e-06,-9.565,0.060622
16234,3.3065,0.81818,0,0.00052995,5295.8,0.0001903,0.12256,0.00014827,-315.65,-0.00053461,-5446.5,0.05944
16235,3.2147,0.90909,0,0.00052968,5293.2,0.00019261,0.10332,0.0001439,-365.87,-0.00053495,-5466.6,0.056588
16236,3.3065,0.90909,0.05,1.6535e-06,16.523,1.2697e-06,9.5398,6.9534e-12,8.1786e-05,-1.2697e-06,-9.5397,0.059836
16237,3.3065,0.63636,0,0.00053555,5351.8,0.00018858,0.1621,0.0001564,-241.61,-0.00053925,-5468.5,0.058511
16238,3.2147,0.72727,0,0.00053535,5349.8,0.00019082,0.15917,0.00015228,-289.44,-0.00053968,-5488.5,0.055722
16239,3.3065,0.72727,0.05,1.645e-06,16.439,1.2632e-06,9.4908,6.3173e-12,5.7014e-05,-1.2631e-06,-9.4908,0.058955
16240,3.3065,0.45455,0,0.0005414,5410.3,0.00018686,0.35008,0.00016471,-166.07,-0.00054403,-5491.3,0.05748
16241,3.2147,0.54545,0,0.00054129,5409.2,0.000189,0.19319,0.00016086,-211.23,-0.00054457,-5511.6,0.054756
16242,3.3065,0.54545,0.05,1.6358e-06,16.347,1.2561e-06,9.4378,7.9546e-12,0.0001119,-1.2561e-06,-9.4377,0.057975
16243,3.3065,0.27273,0,0.0005476,5472.3,0.00018514,0.59469,0.00017324,-88.821,-0.00054905,-5515.8,0.056342
16244,3.2147,0.36364,0,0.00054748,5471,0.00018721,0.5768,0.00016959,-131.82,-0.00054959,-5535.4,0.053686
16245,3.3065,0.36364,0.05,1.6728e-06,16.717,1.2845e-06,9.6513,9.2806e-12,0.00010808,-1.2845e-06,-9.6512,0.056891
16246,3.2147,0.18182,0,0.00055419,5538,0.00018546,1.0602,0.00017861,-50.358,-0.00055501,-5562.5,0.052505
16247,3.3065,0.18182,0.05,2.6587e-06,26.568,2.0415e-06,15.339,-2.9948e-12,2.3461e-05,-2.0415e-06,-15.339,0.055696
16248,3.3065,0.090909,0,0.0005523,5519.2,0.00018354,0.42088,0.00018013,-25.174,-0.00055272,-5531.6,0.05509
16249,3.1228,5.7273,0,0.00055406,5536.7,0.00018748,0.67724,0.00017503,-92.867,-0.00055556,-5582.2,0.049971
16250,3.031,5.8182,0,0.00056091,5605.2,0.00018772,1.2807,0.00018078,-50.809,-0.00056173,-5629.8,0.046335
16251,3.1228,5.8182,0.05,2.8537e-06,28.518,2.1913e-06,16.465,3.7416e-13,-3.4738e-05,-2.1913e-06,-16.465,0.049339
16252,3.1228,5.9091,0,0.00055895,5585.7,0.00018573,0.46413,0.00018234,-25.044,-0.00055937,-5597.9,0.048747
16253,3.1228,5.5455,0,0.00054736,5469.8,0.00018935,0.38655,0.00016576,-176.83,-0.00055015,-5555.9,0.051081
16254,3.031,5.6364,0,0.00055363,5532.4,0.00018961,0.63752,0.00017097,-139.39,-0.00055585,-5600.5,0.047486
16255,3.1228,5.6364,0.05,1.7402e-06,17.39,1.3363e-06,10.04,-5.1529e-12,-0.00011837,-1.3363e-06,-10.04,0.050506
16256,3.1228,5.3636,0,0.00054108,5407.1,0.00019124,0.1795,0.00015676,-258.94,-0.00054501,-5531.8,0.052083
16257,3.031,5.4545,0,0.00054697,5466,0.00019158,0.21509,0.00016152,-225.69,-0.00055046,-5575.2,0.048526
16258,3.1228,5.4545,0.05,1.7024e-06,17.012,1.3072e-06,9.8221,-4.6464e-12,-0.00013081,-1.3072e-06,-9.8222,0.051562
16259,3.1228,5.1818,0,0.00053508,5347.1,0.00019314,0.13504,0.00014793,-339.55,-0.00054004,-5508.7,0.052984
16260,3.031,5.2727,0,0.00054061,5402.4,0.00019359,0.17559,0.0001522,-310.83,-0.00054522,-5551,0.049461
16261,3.1228,5.2727,0.05,1.7148e-06,17.136,1.3167e-06,9.8935,-9.0571e-12,-9.5637e-05,-1.3168e-06,-9.8936,0.052513
16262,3.1228,5,0,0.0005294,5290.4,0.000195,0.091046,0.00013938,-417.85,-0.00053527,-5486.9,0.053789
16263,3.031,5.0909,0,0.00053456,5341.9,0.00019558,0.1138,0.00014311,-394.12,-0.00054017,-5528,0.050298
16264,3.1228,5.0909,0.05,1.7259e-06,17.247,1.3252e-06,9.9574,-7.3158e-12,-1.686e-06,-1.3252e-06,-9.9574,0.053366
16265,3.1228,4.8182,0,0.00052412,5237.5,0.0001968,0.062685,0.0001312,-492.83,-0.00053076,-5466.5,0.054504
16266,3.031,4.9091,0,0.0005289,5285.4,0.00019752,0.080443,0.00013436,-474.47,-0.00053537,-5506.6,0.051043
16267,3.1228,4.9091,0.05,1.732e-06,17.308,1.3299e-06,9.9925,-3.1399e-12,-5.7219e-05,-1.3299e-06,-9.9926,0.054125
16268,3.1228,4.6364,0,0.00051926,5189,0.00019851,0.040126,0.00012351,-563.55,-0.00052655,-5447.8,0.055134
16269,3.031,4.7273,0,0.00052368,5233.2,0.00019938,0.05304,0.00012607,-550.82,-0.00053087,-5486.8,0.0517
16270,3.1228,4.7273,0.05,1.7336e-06,17.324,1.3312e-06,10.002,-4.9698e-12,-3.6713e-05,-1.3312e-06,-10.002,0.054797
16271,3.1228,4.4545,0,0.00051488,5145.3,0.00020012,0.022844,0.00011639,-629.1,-0.00052269,-5430.9,0.055683
16272,3.031,4.5455,0,0.00051895,5185.9,0.00020115,0.032688,0.00011834,-622.16,-0.00052672,-5468.9,0.052276
16273,3.1228,4.5455,0.05,1.7318e-06,17.306,1.3298e-06,9.9916,-1.0181e-12,-1.0594e-05,-1.3298e-06,-9.9916,0.055386
16274,3.1228,4.2727,0,0.000511,5106.5,0.00020159,0.0093424,0.00010993,-688.67,-0.00051922,-5415.9,0.056157
16275,3.031,4.3636,0,0.00051473,5143.8,0.00020278,0.016829,0.00011127,-687.59,-0.00052297,-5453,0.052776
16276,3.1228,4.3636,0.05,1.7276e-06,17.264,1.3266e-06,9.9677,1.1078e-12,-1.1683e-05,-1.3266e-06,-9.9677,0.055897
16277,3.1228,4.0909,0,0.00050764,5072.9,0.00020291,-0.0010609,0.00010421,-741.57,-0.00051617,-5402.8,0.05656
16278,3.031,4.1818,0,0.00051105,5107,0.00020426,0.0047047,0.00010493,-746.34,-0.00051964,-5439.1,0.053202
16279,3.1228,4.1818,0.05,1.7222e-06,17.21,1.3225e-06,9.9364,-6.0376e-13,-1.0774e-05,-1.3224e-06,-9.9364,0.056335
16280,3.1228,3.9091,0,0.0005048,5044.5,0.00020405,-0.0089666,9.9279e-05,-787.21,-0.00051356,-5391.9,0.056894
16281,3.031,4,0,0.00050792,5075.7,0.00020557,-0.0044839,9.9397e-05,-797.73,-0.00051676,-5427.3,0.053561
16282,3.1228,4,0.05,1.7164e-06,17.152,1.318e-06,9.903,6.4625e-14,-9.6249e-06,-1.318e-06,-9.903,0.056703
16283,3.1228,3.7273,0,0.00050249,5021.4,0.00020501,-0.014826,9.5188e-05,-825.14,-0.00051141,-5382.9,0.057164
16284,3.031,3.8182,0,0.00050533,5049.8,0.00020668,-0.011298,9.472e-05,-841.25,-0.00051435,-5417.6,0.053855
16285,3.1228,3.8182,0.05,1.711e-06,17.098,1.3138e-06,9.8714,-1.0866e-12,-9.4204e-06,-1.3138e-06,-9.8714,0.057005
16286,3.1228,3.5455,0,0.0005007,5003.6,0.00020576,-0.019005,9.1973e-05,-854.98,-0.00050974,-5376,0.057371
16287,3.031,3.6364,0,0.00050327,5029.2,0.00020759,-0.016203,9.0939e-05,-876.5,-0.00051242,-5409.9,0.054086
16288,3.1228,3.6364,0.05,1.7063e-06,17.051,1.3102e-06,9.8443,-1.7022e-13,-1.1655e-05,-1.3102e-06,-9.8444,0.057243
16289,3.1228,3.3636,0,0.00049943,4990.9,0.00020631,-0.021788,8.966e-05,-876.48,-0.00050853,-5371.1,0.057517
16290,3.031,3.4545,0,0.00050174,5013.9,0.00020828,-0.019563,8.8081e-05,-903.18,-0.00051096,-5404.1,0.054257
16291,3.1228,3.4545,0.05,1.7026e-06,17.014,1.3074e-06,9.8233,-7.0675e-13,-7.6936e-06,-1.3074e-06,-9.8233,0.057419
16292,3.1228,3.1818,0,0.00049867,4983.3,0.00020664,-0.023376,8.8265e-05,-889.44,-0.00050781,-5368.1,0.057605
16293,3.031,3.2727,0,0.00050073,5003.8,0.00020875,-0.021652,8.6165e-05,-921.07,-0.00050999,-5400.4,0.054371
16294,3.1228,3.2727,0.05,1.7002e-06,16.99,1.3055e-06,9.8091,-4.6996e-13,-3.5161e-06,-1.3055e-06,-9.809,0.057536
16295,3.1228,3,0,0.00049842,4980.7,0.00020675,-0.023892,8.78e-05,-893.77,-0.00050757,-5367.1,0.057634
16296,3.031,3.0909,0,0.00050022,4998.8,0.00020898,-0.022651,8.5205e-05,-930.04,-0.00050951,-5398.5,0.054427
16297,3.1228,3.0909,0.05,1.6989e-06,16.977,1.3046e-06,9.8019,-1.9724e-12,-1.0964e-06,-1.3046e-06,-9.8019,0.057594
16298,3.1228,2.8182,0,0.00049867,4983.3,0.00020664,-0.023376,8.8265e-05,-889.44,-0.00050781,-5368.1,0.057605
16299,3.031,2.9091,0,0.00050022,4998.8,0.00020898,-0.022651,8.5205e-05,-930.04,-0.00050951,-5398.5,0.054427
16300,3.1228,2.9091,0.05,1.6989e-06,16.977,1.3046e-06,9.8019,-1.6562e-12,1.2691e-06,-1.3046e-06,-9.8019,0.057594
16301,3.1228,2.6364,0,0.00049943,4990.9,0.00020631,-0.021788,8.966e-05,-876.48,-0.00050853,-5371.1,0.057517
16302,3.031,2.7273,0,0.00050073,5003.8,0.00020875,-0.021652,8.6165e-05,-921.07,-0.00050999,-5400.4,0.054371
16303,3.1228,2.7273,0.05,1.7002e-06,16.99,1.3055e-06,9.809,4.8266e-13,3.4096e-06,-1.3055e-06,-9.8091,0.057536
16304,3.1228,2.4545,0,0.0005007,5003.6,0.00020576,-0.019005,9.1973e-05,-854.98,-0.00050974,-5376,0.057371
16305,3.031,2.5455,0,0.00050174,5013.9,0.00020828,-0.019563,8.8081e-05,-903.18,-0.00051096,-5404.1,0.054257
16306,3.1228,2.5455,0.05,1.7026e-06,17.014,1.3074e-06,9.8233,-7.1413e-13,7.6936e-06,-1.3074e-06,-9.8233,0.057419
16307,3.1228,2.2727,0,0.00050249,5021.4,0.00020501,-0.014826,9.5188e-05,-825.14,-0.00051141,-5382.9,0.057164
16308,3.031,2.3636,0,0.00050327,5029.2,0.00020759,-0.016203,9.0939e-05,-876.5,-0.00051242,-5409.9,0.054086
16309,3.1228,2.3636,0.05,1.7063e-06,17.051,1.3102e-06,9.8444,-1.6412e-12,1.9766e-05,-1.3102e-06,-9.8442,0.057243
16310,3.1228,2.0909,0,0.0005048,5044.5,0.00020405,-0.0089664,9.9279e-05,-787.21,-0.00051356,-5391.9,0.056894
16311,3.031,2.1818,0,0.00050533,5049.8,0.00020668,-0.011298,9.472e-05,-841.25,-0.00051435,-5417.6,0.053855
16312,3.1228,2.1818,0.05,1.711e-06,17.098,1.3138e-06,9.8714,1.0502e-12,9.4203e-06,-1.3138e-06,-9.8714,0.057005
16313,3.1228,1.9091,0,0.00050764,5072.9,0.00020291,-0.0010605,0.00010421,-741.57,-0.00051617,-5402.8,0.05656
16314,3.031,2,0,0.00050792,5075.7,0.00020557,-0.0044836,9.9397e-05,-797.73,-0.00051676,-5427.3,0.053561
16315,3.1228,2,0.05,1.7164e-06,17.152,1.318e-06,9.903,1.2349e-12,1.8992e-05,-1.318e-06,-9.903,0.056703
16316,3.1228,1.7273,0,0.000511,5106.5,0.00020159,0.0093429,0.00010993,-688.67,-0.00051922,-5415.9,0.056157
16317,3.031,1.8182,0,0.00051105,5107,0.00020426,0.004705,0.00010493,-746.34,-0.00051964,-5439.1,0.053202
16318,3.1228,1.8182,0.05,1.7222e-06,17.21,1.3225e-06,9.9364,1.5533e-12,1.0774e-05,-1.3225e-06,-9.9364,0.056335
16319,3.1228,1.5455,0,0.00051488,5145.3,0.00020012,0.022845,0.00011639,-629.1,-0.00052269,-5430.9,0.055683
16320,3.031,1.6364,0,0.00051473,5143.8,0.00020278,0.016829,0.00011127,-687.59,-0.00052297,-5453,0.052776
16321,3.1228,1.6364,0.05,1.7276e-06,17.264,1.3266e-06,9.9677,2.2482e-12,4.3173e-05,-1.3266e-06,-9.9676,0.055897
16322,3.1228,1.3636,0,0.00051926,5189,0.00019851,0.040127,0.00012351,-563.55,-0.00052655,-5447.8,0.055134
16323,3.031,1.4545,0,0.00051895,5185.9,0.00020115,0.032688,0.00011834,-622.16,-0.00052672,-5468.9,0.052276
16324,3.1228,1.4545,0.05,1.7318e-06,17.306,1.3298e-06,9.9916,4.9157e-12,2.957e-05,-1.3298e-06,-9.9916,0.055386
16325,3.1228,1.1818,0,0.00052412,5237.5,0.0001968,0.062686,0.0001312,-492.83,-0.00053076,-5466.5,0.054504
16326,3.031,1.2727,0,0.00052368,5233.2,0.00019938,0.053041,0.00012607,-550.82,-0.00053087,-5486.8,0.0517
16327,3.1228,1.2727,0.05,1.7336e-06,17.324,1.3312e-06,10.002,2.7778e-12,5.8766e-05,-1.3312e-06,-10.002,0.054797
16328,3.1228,1,0,0.0005294,5290.4,0.000195,0.091046,0.00013938,-417.85,-0.00053527,-5486.9,0.053789
16329,3.031,1.0909,0,0.0005289,5285.4,0.00019752,0.080443,0.00013436,-474.47,-0.00053537,-5506.6,0.051043
16330,3.1228,1.0909,0.05,1.732e-06,17.308,1.3299e-06,9.9926,3.5868e-12,5.7219e-05,-1.3299e-06,-9.9925,0.054125
16331,3.1228,0.81818,0,0.00053508,5347.1,0.00019314,0.13504,0.00014793,-339.55,-0.00054004,-5508.7,0.052984
16332,3.031,0.90909,0,0.00053456,5341.9,0.00019558,0.1138,0.00014311,-394.12,-0.00054017,-5528,0.050298
16333,3.1228,0.90909,0.05,1.7259e-06,17.247,1.3252e-06,9.9574,7.6573e-12,5.8419e-05,-1.3252e-06,-9.9573,0.053366
16334,3.1228,0.63636,0,0.00054108,5407.1,0.00019124,0.1795,0.00015676,-258.94,-0.00054501,-5531.8,0.052083
16335,3.031,0.72727,0,0.00054061,5402.4,0.00019359,0.17559,0.0001522,-310.83,-0.00054522,-5551,0.049462
16336,3.1228,0.72727,0.05,1.7148e-06,17.136,1.3168e-06,9.8936,1.2064e-11,9.5637e-05,-1.3168e-06,-9.8935,0.052513
16337,3.1228,0.45455,0,0.00054736,5469.8,0.00018935,0.38655,0.00016576,-176.83,-0.00055015,-5555.9,0.051081
16338,3.031,0.54545,0,0.00054697,5466,0.00019158,0.21509,0.00016152,-225.69,-0.00055046,-5575.2,0.048526
16339,3.1228,0.54545,0.05,1.7024e-06,17.012,1.3072e-06,9.8222,6.5985e-14,0.00012699,-1.3072e-06,-9.8221,0.051562
16340,3.1228,0.27273,0,0.00055406,5536.7,0.00018748,0.67724,0.00017503,-92.867,-0.00055556,-5582.2,0.049971
16341,3.031,0.36364,0,0.00055363,5532.4,0.00018961,0.63752,0.00017097,-139.39,-0.00055585,-5600.5,0.047486
16342,3.1228,0.36364,0.05,1.7402e-06,17.39,1.3363e-06,10.04,1.0816e-11,8.8774e-05,-1.3363e-06,-10.04,0.050506
16343,3.031,0.18182,0,0.00056091,5605.2,0.00018772,1.2807,0.00018078,-50.809,-0.00056173,-5629.8,0.046335
16344,3.1228,0.18182,0.05,2.8537e-06,28.517,2.1913e-06,16.465,-3.7416e-13,4.6317e-05,-2.1913e-06,-16.464,0.049339
16345,3.1228,0.090909,0,0.00055895,5585.7,0.00018573,0.46413,0.00018234,-25.044,-0.00055937,-5597.9,0.048747
16346,2.9391,5.7273,0,0.00056047,5600.8,0.00018979,0.7747,0.00017681,-96.724,-0.00056204,-5648.2,0.043973
16347,2.8473,5.8182,0,0.0005676,5672.1,0.00018994,1.5655,0.00018299,-50.706,-0.00056842,-5696.5,0.040542
16348,2.9391,5.8182,0.05,3.0579e-06,30.558,2.3481e-06,17.643,1.2523e-12,-3.5632e-05,-2.3481e-06,-17.643,0.043357
16349,2.9391,5.9091,0,0.00056555,5651.6,0.00018789,0.51561,0.00018456,-24.516,-0.00056595,-5663.5,0.04278
16350,2.9391,5.5455,0,0.00055324,5528.5,0.00019184,0.42743,0.00016675,-188.08,-0.00055619,-5620,0.045051
16351,2.8473,5.6364,0,0.00055969,5593,0.00019199,0.70606,0.00017232,-147.12,-0.00056203,-5664.7,0.041659
16352,2.9391,5.6364,0.05,1.813e-06,18.117,1.3922e-06,10.46,-8.1709e-12,-0.00013339,-1.3922e-06,-10.46,0.044492
16353,2.9391,5.3636,0,0.0005465,5461.2,0.00019393,0.19896,0.00015698,-277.43,-0.00055069,-5594.5,0.046022
16354,2.8473,5.4545,0,0.00055254,5521.6,0.00019417,0.23984,0.00016206,-241.02,-0.00055624,-5638,0.042665
16355,2.9391,5.4545,0.05,1.7763e-06,17.751,1.364e-06,10.249,-6.9908e-12,-0.00010529,-1.364e-06,-10.249,0.045516
16356,2.9391,5.1818,0,0.00054009,5397.2,0.00019603,0.14882,0.00014739,-365.27,-0.00054537,-5570.4,0.046891
16357,2.8473,5.2727,0,0.00054573,5453.6,0.00019639,0.19381,0.00015194,-333.82,-0.00055064,-5612.7,0.043567
16358,2.9391,5.2727,0.05,1.7929e-06,17.916,1.3767e-06,10.344,-9.8726e-12,-7.2138e-05,-1.3767e-06,-10.344,0.046435
16359,2.9391,5,0,0.00053405,5336.9,0.0001981,0.10012,0.00013811,-450.64,-0.00054029,-5547.8,0.047665
16360,2.8473,5.0909,0,0.0005393,5389.2,0.0001986,0.12532,0.00014206,-424.68,-0.00054526,-5588.9,0.044371
16361,2.9391,5.0909,0.05,1.8071e-06,18.059,1.3876e-06,10.426,-7.9556e-12,-7.1514e-05,-1.3876e-06,-10.426,0.047256
16362,2.9391,4.8182,0,0.00052846,5281,0.0002001,0.068844,0.00012924,-532.38,-0.0005355,-5527,0.04835
16363,2.8473,4.9091,0,0.00053331,5329.4,0.00020076,0.088304,0.00013257,-512.32,-0.00054017,-5567,0.045083
16364,2.9391,4.9091,0.05,1.8152e-06,18.14,1.3939e-06,10.473,-3.6094e-12,-9.3354e-05,-1.3939e-06,-10.473,0.047985
16365,2.9391,4.6364,0,0.00052336,5230,0.00020202,0.044245,0.00012091,-609.38,-0.00053106,-5508,0.048952
16366,2.8473,4.7273,0,0.00052782,5274.6,0.00020285,0.058264,0.00012358,-595.51,-0.00053542,-5547,0.045711
16367,2.9391,4.7273,0.05,1.818e-06,18.167,1.396e-06,10.489,-6.4535e-12,-8.3817e-05,-1.396e-06,-10.489,0.048628
16368,2.9391,4.4545,0,0.00051879,5184.4,0.00020381,0.025665,0.00011322,-680.64,-0.00052701,-5491.1,0.049475
16369,2.8473,4.5455,0,0.00052289,5225.3,0.00020482,0.036259,0.00011523,-673.12,-0.00053108,-5529.2,0.046258
16370,2.9391,4.5455,0.05,1.8168e-06,18.156,1.3951e-06,10.482,-4.2812e-12,-3.1634e-05,-1.3951e-06,-10.482,0.04919
16371,2.9391,4.2727,0,0.00051478,5144.2,0.00020545,0.011405,0.00010626,-745.28,-0.00052339,-5476.2,0.049926
16372,2.8473,4.3636,0,0.00051853,5181.8,0.00020665,0.019425,0.00010761,-744.13,-0.00052717,-5513.6,0.046731
16373,2.9391,4.3636,0.05,1.8131e-06,18.119,1.3923e-06,10.461,-9.0918e-13,-4.4697e-05,-1.3923e-06,-10.461,0.049677
16374,2.9391,4.0909,0,0.00051133,5109.7,0.00020692,0.00064138,0.00010011,-802.55,-0.00052023,-5463.5,0.050307
16375,2.8473,4.1818,0,0.00051477,5144.1,0.00020831,0.0068367,0.00010081,-807.71,-0.00052373,-5500.2,0.047135
16376,2.9391,4.1818,0.05,1.8082e-06,18.069,1.3885e-06,10.432,-1.0152e-12,-2.4716e-05,-1.3885e-06,-10.432,0.050092
16377,2.9391,3.9091,0,0.00050844,5080.8,0.0002082,-0.0073554,9.4827e-05,-851.86,-0.00051754,-5452.9,0.050624
16378,2.8473,4,0,0.00051159,5112.3,0.00020977,-0.0024691,9.4884e-05,-863.18,-0.00052077,-5489,0.047473
16379,2.9391,4,0.05,1.803e-06,18.018,1.3845e-06,10.402,9.191e-13,-1.8687e-05,-1.3845e-06,-10.403,0.050441
16380,2.9391,3.7273,0,0.0005061,5057.5,0.00020927,-0.013145,9.0455e-05,-892.73,-0.00051534,-5444.4,0.050878
16381,2.8473,3.8182,0,0.00050898,5086.3,0.00021101,-0.0091875,8.9895e-05,-910.04,-0.00051831,-5479.9,0.047749
16382,2.9391,3.8182,0.05,1.7983e-06,17.971,1.3809e-06,10.375,-4.2494e-13,-1.678e-05,-1.3809e-06,-10.375,0.050726
16383,2.9391,3.5455,0,0.0005043,5039.5,0.00021011,-0.017182,8.7027e-05,-924.84,-0.00051362,-5437.9,0.051073
16384,2.8473,3.6364,0,0.00050693,5065.8,0.00021203,-0.013894,8.5873e-05,-947.89,-0.00051635,-5472.8,0.047967
16385,2.9391,3.6364,0.05,1.7944e-06,17.932,1.3779e-06,10.353,-1.172e-12,-7.8128e-07,-1.3779e-06,-10.353,0.05095
16386,2.9391,3.3636,0,0.00050303,5026.8,0.00021072,-0.019817,8.4565e-05,-947.92,-0.0005124,-5433.3,0.051211
16387,2.8473,3.4545,0,0.00050541,5050.6,0.0002128,-0.017036,8.284e-05,-976.47,-0.00051489,-5467.6,0.048128
16388,2.9391,3.4545,0.05,1.7916e-06,17.904,1.3757e-06,10.337,1.444e-13,-5.7736e-06,-1.3757e-06,-10.337,0.051117
16389,2.9391,3.1818,0,0.00050227,5019.2,0.00021109,-0.021299,8.3083e-05,-961.83,-0.00051167,-5430.6,0.051293
16390,2.8473,3.2727,0,0.00050441,5040.6,0.00021332,-0.018949,8.0812e-05,-995.62,-0.00051391,-5464.2,0.048234
16391,2.9391,3.2727,0.05,1.7897e-06,17.885,1.3743e-06,10.326,-4.9931e-13,-3.6374e-06,-1.3743e-06,-10.326,0.051227
16392,2.9391,3,0,0.00050202,5016.7,0.00021122,-0.021776,8.2588e-05,-966.48,-0.00051142,-5429.6,0.051321
16393,2.8473,3.0909,0,0.00050392,5035.7,0.00021358,-0.019851,7.9796e-05,-1005.2,-0.00051343,-5462.5,0.048287
16394,2.9391,3.0909,0.05,1.7888e-06,17.876,1.3736e-06,10.321,-1.9797e-12,-1.1124e-06,-1.3736e-06,-10.321,0.051281
16395,2.9391,2.8182,0,0.00050227,5019.2,0.00021109,-0.021299,8.3083e-05,-961.83,-0.00051167,-5430.6,0.051293
16396,2.8473,2.9091,0,0.00050392,5035.7,0.00021358,-0.019851,7.9796e-05,-1005.2,-0.00051343,-5462.5,0.048287
16397,2.9391,2.9091,0.05,1.7888e-06,17.876,1.3736e-06,10.321,-1.6527e-12,1.2786e-06,-1.3736e-06,-10.321,0.051281
16398,2.9391,2.6364,0,0.00050303,5026.8,0.00021072,-0.019817,8.4565e-05,-947.92,-0.0005124,-5433.3,0.051211
16399,2.8473,2.7273,0,0.00050441,5040.6,0.00021332,-0.018949,8.0812e-05,-995.62,-0.00051391,-5464.2,0.048234
16400,2.9391,2.7273,0.05,1.7897e-06,17.885,1.3743e-06,10.326,-4.5043e-13,3.5271e-06,-1.3743e-06,-10.326,0.051227
16401,2.9391,2.4545,0,0.0005043,5039.5,0.00021011,-0.017182,8.7027e-05,-924.84,-0.00051362,-5437.9,0.051073
16402,2.8473,2.5455,0,0.00050541,5050.6,0.0002128,-0.017036,8.284e-05,-976.47,-0.00051489,-5467.6,0.048128
16403,2.9391,2.5455,0.05,1.7916e-06,17.904,1.3757e-06,10.337,-9.7707e-13,5.7736e-06,-1.3757e-06,-10.337,0.051117
16404,2.9391,2.2727,0,0.0005061,5057.5,0.00020927,-0.013145,9.0455e-05,-892.73,-0.00051534,-5444.4,0.050878
16405,2.8473,2.3636,0,0.00050693,5065.8,0.00021203,-0.013894,8.5873e-05,-947.89,-0.00051635,-5472.8,0.047967
16406,2.9391,2.3636,0.05,1.7944e-06,17.932,1.3779e-06,10.353,1.1341e-12,1.2231e-05,-1.3779e-06,-10.353,0.05095
16407,2.9391,2.0909,0,0.00050844,5080.8,0.0002082,-0.0073551,9.4827e-05,-851.86,-0.00051754,-5452.9,0.050624
16408,2.8473,2.1818,0,0.00050898,5086.3,0.00021101,-0.0091873,8.9895e-05,-910.04,-0.00051831,-5479.9,0.047749
16409,2.9391,2.1818,0.05,1.7983e-06,17.971,1.3809e-06,10.375,4.2494e-13,1.5562e-05,-1.3809e-06,-10.375,0.050726
16410,2.9391,1.9091,0,0.00051133,5109.7,0.00020692,0.00064174,0.00010011,-802.55,-0.00052023,-5463.5,0.050307
16411,2.8473,2,0,0.00051159,5112.3,0.00020977,-0.0024687,9.4884e-05,-863.18,-0.00052077,-5489,0.047473
16412,2.9391,2,0.05,1.803e-06,18.018,1.3845e-06,10.403,-1.6772e-12,3.1689e-05,-1.3845e-06,-10.402,0.050441
16413,2.9391,1.7273,0,0.00051478,5144.2,0.00020545,0.011405,0.00010626,-745.28,-0.00052339,-5476.2,0.049926
16414,2.8473,1.8182,0,0.00051477,5144.1,0.00020831,0.006837,0.00010081,-807.71,-0.00052373,-5500.2,0.047135
16415,2.9391,1.8182,0.05,1.8082e-06,18.069,1.3885e-06,10.432,1.2231e-12,3.6731e-05,-1.3885e-06,-10.432,0.050092
16416,2.9391,1.5455,0,0.00051879,5184.4,0.00020381,0.025666,0.00011322,-680.64,-0.00052701,-5491.1,0.049475
16417,2.8473,1.6364,0,0.00051853,5181.8,0.00020665,0.019425,0.00010761,-744.13,-0.00052717,-5513.6,0.046731
16418,2.9391,1.6364,0.05,1.8131e-06,18.119,1.3923e-06,10.461,1.8184e-12,3.093e-05,-1.3923e-06,-10.461,0.049677
16419,2.9391,1.3636,0,0.00052336,5230,0.00020202,0.044246,0.00012091,-609.38,-0.00053106,-5508,0.048952
16420,2.8473,1.4545,0,0.00052289,5225.3,0.00020482,0.03626,0.00011523,-673.12,-0.00053108,-5529.2,0.046258
16421,2.9391,1.4545,0.05,1.8168e-06,18.156,1.3951e-06,10.482,8.0378e-12,5.2421e-05,-1.3951e-06,-10.482,0.04919
16422,2.9391,1.1818,0,0.00052846,5281,0.0002001,0.068845,0.00012924,-532.38,-0.0005355,-5527,0.04835
16423,2.8473,1.2727,0,0.00052782,5274.6,0.00020285,0.058265,0.00012358,-595.52,-0.00053542,-5547,0.045711
16424,2.9391,1.2727,0.05,1.818e-06,18.167,1.396e-06,10.489,9.3391e-12,5.5878e-05,-1.396e-06,-10.489,0.048628
16425,2.9391,1,0,0.00053405,5336.9,0.0001981,0.10012,0.00013811,-450.64,-0.00054029,-5547.8,0.047665
16426,2.8473,1.0909,0,0.00053331,5329.4,0.00020076,0.088304,0.00013257,-512.32,-0.00054017,-5567,0.045083
16427,2.9391,1.0909,0.05,1.8152e-06,18.14,1.3939e-06,10.473,1.0124e-11,4.2499e-05,-1.3939e-06,-10.473,0.047985
16428,2.9391,0.81818,0,0.00054009,5397.2,0.00019603,0.14882,0.00014739,-365.27,-0.00054537,-5570.4,0.046891
16429,2.8473,0.90909,0,0.0005393,5389.2,0.0001986,0.12532,0.00014206,-424.68,-0.00054526,-5588.9,0.044371
16430,2.9391,0.90909,0.05,1.8071e-06,18.059,1.3876e-06,10.426,7.9556e-12,9.3922e-05,-1.3876e-06,-10.426,0.047256
16431,2.9391,0.63636,0,0.0005465,5461.2,0.00019393,0.19896,0.00015698,-277.43,-0.00055069,-5594.5,0.046022
16432,2.8473,0.72727,0,0.00054573,5453.6,0.00019639,0.19381,0.00015194,-333.82,-0.00055064,-5612.7,0.043567
16433,2.9391,0.72727,0.05,1.7929e-06,17.916,1.3767e-06,10.344,9.469e-12,0.00013285,-1.3767e-06,-10.344,0.046435
16434,2.9391,0.45455,0,0.00055324,5528.5,0.00019184,0.42743,0.00016675,-188.08,-0.00055619,-5620,0.045051
16435,2.8473,0.54545,0,0.00055254,5521.6,0.00019417,0.23984,0.00016206,-241.02,-0.00055624,-5638,0.042665
16436,2.9391,0.54545,0.05,1.7763e-06,17.751,1.364e-06,10.249,1.4699e-11,0.0001015,-1.364e-06,-10.249,0.045516
16437,2.9391,0.27273,0,0.00056047,5600.8,0.00018979,0.7747,0.00017681,-96.724,-0.00056204,-5648.2,0.043973
16438,2.8473,0.36364,0,0.00055969,5593,0.00019199,0.70606,0.00017232,-147.12,-0.00056203,-5664.7,0.041659
16439,2.9391,0.36364,0.05,1.813e-06,18.117,1.3922e-06,10.46,9.0787e-12,0.00012958,-1.3922e-06,-10.46,0.044492
16440,2.8473,0.18182,0,0.0005676,5672.1,0.00018994,1.5655,0.00018299,-50.706,-0.00056842,-5696.5,0.040542
16441,2.9391,0.18182,0.05,3.0579e-06,30.558,2.3481e-06,17.643,1.6357e-13,4.751e-05,-2.3481e-06,-17.643,0.043357
16442,2.9391,0.090909,0,0.00056555,5651.6,0.00018789,0.51561,0.00018456,-24.516,-0.00056595,-5663.5,0.04278
16443,2.7554,5.7273,0,0.0005668,5664.1,0.00019207,0.89063,0.0001786,-100.34,-0.00056843,-5713.2,0.038352
16444,2.6636,5.8182,0,0.00057421,5738.1,0.00019212,1.9409,0.00018521,-49.951,-0.00057501,-5762,0.035129
16445,2.7554,5.8182,0.05,3.2705e-06,32.683,2.5113e-06,18.869,7.0413e-13,-1.8366e-05,-2.5113e-06,-18.869,0.037753
16446,2.7554,5.9091,0,0.00057205,5716.5,0.00018999,0.57871,0.00018678,-23.508,-0.00057243,-5727.9,0.037194
16447,2.7554,5.5455,0,0.00055898,5586,0.00019432,0.47344,0.00016765,-199.87,-0.00056211,-5683,0.039394
16448,2.6636,5.6364,0,0.0005656,5652.1,0.00019434,0.7838,0.0001736,-155.01,-0.00056807,-5727.6,0.036209
16449,2.7554,5.6364,0.05,1.8922e-06,18.909,1.453e-06,10.917,-6.6149e-12,-0.00010637,-1.453e-06,-10.917,0.038853
16450,2.7554,5.3636,0,0.00055177,5513.8,0.00019663,0.22076,0.00015704,-297.24,-0.00055622,-5656.3,0.040329
16451,2.6636,5.4545,0,0.00055793,5575.5,0.00019674,0.26788,0.00016245,-257.36,-0.00056186,-5699.5,0.037177
16452,2.7554,5.4545,0.05,1.8592e-06,18.579,1.4276e-06,10.727,-1.6436e-11,-0.00015211,-1.4277e-06,-10.727,0.039841
16453,2.7554,5.1818,0,0.00054493,5445.5,0.00019896,0.16404,0.00014662,-393.08,-0.00055055,-5631.3,0.041163
16454,2.6636,5.2727,0,0.00055066,5502.8,0.00019921,0.21406,0.00015145,-358.66,-0.00055588,-5673.2,0.038042
16455,2.7554,5.2727,0.05,1.8811e-06,18.798,1.4444e-06,10.853,-3.7197e-12,-0.0001212,-1.4444e-06,-10.853,0.040725
16456,2.7554,5,0,0.00053854,5381.6,0.00020127,0.11002,0.00013654,-486.24,-0.00054515,-5608.2,0.041903
16457,2.6636,5.0909,0,0.00054383,5434.5,0.00020168,0.13793,0.00014072,-457.91,-0.00055016,-5648.9,0.038809
16458,2.7554,5.0909,0.05,1.899e-06,18.977,1.4582e-06,10.956,-1.2297e-11,-7.7259e-05,-1.4582e-06,-10.957,0.041511
16459,2.7554,4.8182,0,0.00053265,5322.9,0.00020351,0.075513,0.00012692,-575.38,-0.0005401,-5587.1,0.042555
16460,2.6636,4.9091,0,0.00053752,5371.5,0.0002041,0.096801,0.00013041,-553.58,-0.00054479,-5626.8,0.039486
16461,2.7554,4.9091,0.05,1.9094e-06,19.08,1.4661e-06,11.016,-5.2416e-12,-6.7461e-05,-1.4661e-06,-11.016,0.042206
16462,2.7554,4.6364,0,0.00052734,5269.7,0.00020565,0.048744,0.00011791,-659.2,-0.00053545,-5568.3,0.043126
16463,2.6636,4.7273,0,0.0005318,5314.3,0.00020644,0.063901,0.00012069,-644.23,-0.00053982,-5607,0.04008
16464,2.7554,4.7273,0.05,1.9133e-06,19.12,1.4692e-06,11.039,-4.6945e-12,-6.0455e-05,-1.4692e-06,-11.039,0.042817
16465,2.7554,4.4545,0,0.00052262,5222.6,0.00020766,0.028882,0.00010962,-736.59,-0.00053123,-5551.7,0.043621
16466,2.6636,4.5455,0,0.00052671,5263.5,0.00020865,0.040218,0.00011168,-728.57,-0.0005353,-5589.8,0.040597
16467,2.7554,4.5455,0.05,1.9128e-06,19.115,1.4688e-06,11.036,-1.7286e-12,-3.3697e-05,-1.4688e-06,-11.036,0.04335
16468,2.7554,4.2727,0,0.00051851,5181.5,0.0002095,0.013972,0.00010215,-806.59,-0.0005275,-5537.5,0.044046
16469,2.6636,4.3636,0,0.00052227,5219.1,0.0002107,0.022511,0.0001035,-805.48,-0.00053128,-5575,0.041042
16470,2.7554,4.3636,0.05,1.9096e-06,19.083,1.4664e-06,11.018,-3.8114e-12,-5.1378e-05,-1.4664e-06,-11.018,0.043809
16471,2.7554,4.0909,0,0.00051502,5146.6,0.00021115,0.003009,9.5569e-05,-868.41,-0.00052426,-5525.6,0.044405
16472,2.6636,4.1818,0,0.00051847,5181.1,0.00021256,0.0096333,9.6221e-05,-874.1,-0.00052778,-5562.6,0.04142
16473,2.7554,4.1818,0.05,1.9054e-06,19.041,1.4631e-06,10.993,-1.7381e-13,-3.5896e-05,-1.4631e-06,-10.993,0.044201
16474,2.7554,3.9091,0,0.00051212,5117.7,0.00021258,-0.0049026,8.9938e-05,-921.47,-0.00052153,-5515.8,0.044701
16475,2.6636,4,0,0.00051531,5149.5,0.00021419,0.00041153,8.9919e-05,-933.75,-0.0005248,-5552.5,0.041736
16476,2.7554,4,0.05,1.9013e-06,19,1.4599e-06,10.97,-3.2493e-12,-8.7707e-06,-1.46e-06,-10.97,0.044528
16477,2.7554,3.7273,0,0.0005098,5094.5,0.00021377,-0.010457,8.5294e-05,-965.33,-0.00051931,-5508.1,0.04494
16478,2.6636,3.8182,0,0.00051274,5123.9,0.00021559,-0.0060167,8.4631e-05,-983.96,-0.00052234,-5544.5,0.041993
16479,2.7554,3.8182,0.05,1.8978e-06,18.965,1.4573e-06,10.95,2.5e-13,-1.0029e-05,-1.4573e-06,-10.95,0.044795
16480,2.7554,3.5455,0,0.00050803,5076.8,0.00021471,-0.014212,8.1664e-05,-999.69,-0.0005176,-5502.3,0.045122
16481,2.6636,3.6364,0,0.00051074,5103.9,0.00021672,-0.010357,8.0385e-05,-1024.4,-0.00052039,-5538.4,0.042196
16482,2.7554,3.6364,0.05,1.8953e-06,18.94,1.4554e-06,10.935,7.1611e-13,-1.1723e-05,-1.4554e-06,-10.935,0.045005
16483,2.7554,3.3636,0,0.00050679,5064.4,0.00021539,-0.016595,7.9063e-05,-1024.4,-0.00051638,-5498.3,0.045251
16484,2.6636,3.4545,0,0.00050928,5089.3,0.00021758,-0.013153,7.7193e-05,-1054.8,-0.00051895,-5534,0.042345
16485,2.7554,3.4545,0.05,1.8937e-06,18.924,1.4541e-06,10.926,7.769e-14,-6.3063e-06,-1.4541e-06,-10.926,0.04516
16486,2.7554,3.1818,0,0.00050605,5057,0.0002158,-0.017907,7.75e-05,-1039.2,-0.00051565,-5495.9,0.045327
16487,2.6636,3.2727,0,0.00050832,5079.7,0.00021816,-0.014803,7.5064e-05,-1075.2,-0.000518,-5531.2,0.042444
16488,2.7554,3.2727,0.05,1.8927e-06,18.914,1.4534e-06,10.92,-4.8595e-13,1.1417e-05,-1.4534e-06,-10.92,0.045263
16489,2.7554,3,0,0.00050581,5054.6,0.00021594,-0.018325,7.6978e-05,-1044.1,-0.00051541,-5495.1,0.045353
16490,2.6636,3.0909,0,0.00050784,5074.9,0.00021845,-0.015564,7.3998e-05,-1085.4,-0.00051752,-5529.8,0.042493
16491,2.7554,3.0909,0.05,1.8923e-06,18.91,1.4531e-06,10.918,-1.9701e-12,-1.0614e-06,-1.4531e-06,-10.918,0.045314
16492,2.7554,2.8182,0,0.00050605,5057,0.0002158,-0.017907,7.75e-05,-1039.2,-0.00051565,-5495.9,0.045327
16493,2.6636,2.9091,0,0.00050784,5074.9,0.00021845,-0.015564,7.3998e-05,-1085.4,-0.00051752,-5529.8,0.042493
16494,2.7554,2.9091,0.05,1.8923e-06,18.91,1.4531e-06,10.918,-1.6204e-12,1.4701e-06,-1.4531e-06,-10.918,0.045314
16495,2.7554,2.6364,0,0.00050679,5064.4,0.00021539,-0.016595,7.9063e-05,-1024.4,-0.00051638,-5498.3,0.045251
16496,2.6636,2.7273,0,0.00050832,5079.7,0.00021816,-0.014803,7.5064e-05,-1075.2,-0.000518,-5531.2,0.042444
16497,2.7554,2.7273,0.05,1.8927e-06,18.914,1.4534e-06,10.92,-3.5654e-13,4.0765e-06,-1.4534e-06,-10.92,0.045263
16498,2.7554,2.4545,0,0.00050803,5076.8,0.00021471,-0.014212,8.1664e-05,-999.69,-0.0005176,-5502.3,0.045122
16499,2.6636,2.5455,0,0.00050928,5089.3,0.00021758,-0.013153,7.7193e-05,-1054.8,-0.00051895,-5534,0.042345
16500,2.7554,2.5455,0.05,1.8937e-06,18.924,1.4541e-06,10.926,-9.0715e-13,5.9353e-06,-1.4541e-06,-10.926,0.04516
16501,2.7554,2.2727,0,0.0005098,5094.5,0.00021377,-0.010456,8.5294e-05,-965.33,-0.00051931,-5508.1,0.04494
16502,2.6636,2.3636,0,0.00051074,5103.9,0.00021672,-0.010357,8.0385e-05,-1024.4,-0.00052039,-5538.4,0.042196
16503,2.7554,2.3636,0.05,1.8953e-06,18.94,1.4554e-06,10.935,-4.2022e-14,1.1723e-05,-1.4554e-06,-10.935,0.045005
16504,2.7554,2.0909,0,0.00051212,5117.7,0.00021258,-0.0049023,8.9938e-05,-921.47,-0.00052153,-5515.8,0.044701
16505,2.6636,2.1818,0,0.00051274,5123.9,0.00021559,-0.0060165,8.4631e-05,-983.96,-0.00052234,-5544.5,0.041993
16506,2.7554,2.1818,0.05,1.8978e-06,18.965,1.4573e-06,10.95,-1.1969e-12,1.7546e-05,-1.4573e-06,-10.95,0.044795
16507,2.7554,1.9091,0,0.00051502,5146.6,0.00021115,0.0030094,9.5569e-05,-868.41,-0.00052426,-5525.6,0.044405
16508,2.6636,2,0,0.00051531,5149.5,0.00021419,0.00041182,8.9919e-05,-933.75,-0.0005248,-5552.5,0.041736
16509,2.7554,2,0.05,1.9013e-06,19,1.46e-06,10.97,1.3572e-12,2.1146e-05,-1.4599e-06,-10.969,0.044528
16510,2.7554,1.7273,0,0.00051851,5181.5,0.0002095,0.013972,0.00010215,-806.59,-0.0005275,-5537.5,0.044046
16511,2.6636,1.8182,0,0.00051847,5181.1,0.00021256,0.0096336,9.6221e-05,-874.1,-0.00052778,-5562.6,0.04142
16512,2.7554,1.8182,0.05,1.9054e-06,19.041,1.4631e-06,10.994,-1.2075e-12,5.7105e-05,-1.4631e-06,-10.993,0.044201
16513,2.7554,1.5455,0,0.00052262,5222.6,0.00020766,0.028883,0.00010962,-736.59,-0.00053123,-5551.7,0.043621
16514,2.6636,1.6364,0,0.00052227,5219.1,0.0002107,0.022511,0.0001035,-805.48,-0.00053128,-5575,0.041042
16515,2.7554,1.6364,0.05,1.9096e-06,19.083,1.4664e-06,11.018,5.8233e-12,6.6522e-05,-1.4664e-06,-11.018,0.043809
16516,2.7554,1.3636,0,0.00052734,5269.7,0.00020565,0.048744,0.00011791,-659.2,-0.00053545,-5568.3,0.043126
16517,2.6636,1.4545,0,0.00052671,5263.5,0.00020865,0.040219,0.00011168,-728.57,-0.0005353,-5589.8,0.040597
16518,2.7554,1.4545,0.05,1.9128e-06,19.115,1.4688e-06,11.036,6.9938e-12,7.5294e-05,-1.4688e-06,-11.036,0.04335
16519,2.7554,1.1818,0,0.00053265,5322.9,0.00020351,0.075513,0.00012692,-575.38,-0.0005401,-5587.1,0.042555
16520,2.6636,1.2727,0,0.0005318,5314.3,0.00020644,0.063901,0.00012069,-644.23,-0.00053982,-5607,0.04008
16521,2.7554,1.2727,0.05,1.9133e-06,19.12,1.4692e-06,11.039,5.5312e-12,0.00011335,-1.4692e-06,-11.039,0.042817
16522,2.7554,1,0,0.00053854,5381.6,0.00020127,0.11002,0.00013654,-486.24,-0.00054515,-5608.2,0.041903
16523,2.6636,1.0909,0,0.00053752,5371.5,0.0002041,0.096801,0.00013041,-553.58,-0.00054479,-5626.8,0.039486
16524,2.7554,1.0909,0.05,1.9094e-06,19.08,1.4661e-06,11.016,7.8986e-12,0.00010119,-1.4661e-06,-11.016,0.042206
16525,2.7554,0.81818,0,0.00054493,5445.5,0.00019896,0.16404,0.00014662,-393.08,-0.00055055,-5631.3,0.041163
16526,2.6636,0.90909,0,0.00054383,5434.5,0.00020168,0.13793,0.00014072,-457.91,-0.00055016,-5648.9,0.038809
16527,2.7554,0.90909,0.05,1.899e-06,18.977,1.4582e-06,10.957,1.1913e-11,0.0001355,-1.4582e-06,-10.956,0.041511
16528,2.7554,0.63636,0,0.00055177,5513.8,0.00019663,0.22076,0.00015704,-297.24,-0.00055622,-5656.3,0.040329
16529,2.6636,0.72727,0,0.00055066,5502.8,0.00019921,0.21406,0.00015145,-358.66,-0.00055588,-5673.2,0.038042
16530,2.7554,0.72727,0.05,1.8811e-06,18.798,1.4444e-06,10.853,1.1594e-12,7.0761e-05,-1.4444e-06,-10.853,0.040725
16531,2.7554,0.45455,0,0.00055898,5586,0.00019432,0.47344,0.00016765,-199.87,-0.00056211,-5683,0.039394
16532,2.6636,0.54545,0,0.00055793,5575.5,0.00019674,0.26788,0.00016245,-257.36,-0.00056186,-5699.5,0.037177
16533,2.7554,0.54545,0.05,1.8592e-06,18.579,1.4276e-06,10.727,1.2189e-11,0.00011501,-1.4277e-06,-10.727,0.039841
16534,2.7554,0.27273,0,0.0005668,5664.1,0.00019207,0.89064,0.0001786,-100.34,-0.00056843,-5713.2,0.038352
16535,2.6636,0.36364,0,0.0005656,5652.1,0.00019434,0.7838,0.0001736,-155.01,-0.00056807,-5727.6,0.036209
16536,2.7554,0.36364,0.05,1.8922e-06,18.909,1.453e-06,10.917,5.4038e-12,0.00015311,-1.453e-06,-10.917,0.038853
16537,2.6636,0.18182,0,0.00057421,5738.1,0.00019212,1.9409,0.00018521,-49.951,-0.00057501,-5762,0.035129
16538,2.7554,0.18182,0.05,3.2705e-06,32.683,2.5113e-06,18.869,-2.8866e-12,4.9016e-05,-2.5113e-06,-18.869,0.037753
16539,2.7554,0.090909,0,0.00057205,5716.5,0.00018999,0.57871,0.00018678,-23.508,-0.00057243,-5727.9,0.037194
16540,2.5717,5.7273,0,0.00057299,5726,0.00019428,1.0297,0.00018035,-103.65,-0.00057467,-5776.6,0.033111
16541,2.4799,5.8182,0,0.00058067,5802.7,0.00019422,2.4479,0.00018745,-48.445,-0.00058144,-5825.5,0.030101
16542,2.5717,5.8182,0.05,3.4902e-06,34.878,2.68e-06,20.137,-2.1229e-12,-1.2734e-05,-2.68e-06,-20.137,0.032532
16543,2.5717,5.9091,0,0.00057838,5779.8,0.000192,0.65931,0.000189,-21.93,-0.00057874,-5790.4,0.031993
16544,2.5717,5.5455,0,0.00056454,5641.5,0.00019676,0.52541,0.00016843,-212.28,-0.00056784,-5744.4,0.034114
16545,2.4799,5.6364,0,0.0005713,5709,0.00019662,0.87252,0.0001748,-163.1,-0.00057388,-5788.4,0.031139
16546,2.5717,5.6364,0.05,1.9796e-06,19.782,1.5201e-06,11.421,-1.5848e-11,-0.00011639,-1.5201e-06,-11.421,0.033592
16547,2.5717,5.3636,0,0.00055681,5564.3,0.00019932,0.24521,0.00015689,-318.59,-0.00056154,-5716.6,0.035009
16548,2.4799,5.4545,0,0.00056306,5626.7,0.00019929,0.29978,0.00016266,-274.89,-0.00056723,-5759,0.032065
16549,2.5717,5.4545,0.05,1.9535e-06,19.522,1.5001e-06,11.271,-8.7013e-12,-0.00012891,-1.5001e-06,-11.271,0.03454
16550,2.5717,5.1818,0,0.00054954,5491.6,0.00020193,0.18081,0.00014556,-423.33,-0.00055551,-5690.9,0.035803
16551,2.4799,5.2727,0,0.00055531,5549.3,0.00020205,0.23661,0.00015068,-385.71,-0.00056086,-5731.9,0.032888
16552,2.5717,5.2727,0.05,1.9819e-06,19.805,1.5219e-06,11.435,-7.89e-12,-0.0001584,-1.5219e-06,-11.435,0.035385
16553,2.5717,5,0,0.00054279,5424.2,0.00020451,0.12075,0.00013461,-525.12,-0.00054981,-5667.6,0.036506
16554,2.4799,5.0909,0,0.00054809,5477.1,0.00020481,0.15176,0.000139,-494.31,-0.00055481,-5707.4,0.033615
16555,2.5717,5.0909,0.05,2.0041e-06,20.027,1.5389e-06,11.563,-4.4347e-12,-4.7222e-05,-1.5389e-06,-11.563,0.036132
16556,2.5717,4.8182,0,0.00053665,5362.8,0.00020703,0.082674,0.00012419,-622.36,-0.00054452,-5646.8,0.037122
16557,2.4799,4.9091,0,0.00054149,5411.1,0.00020754,0.10599,0.00012783,-598.83,-0.00054918,-5685.6,0.034254
16558,2.5717,4.9091,0.05,2.0166e-06,20.152,1.5485e-06,11.635,-3.1613e-12,-4.0224e-05,-1.5485e-06,-11.635,0.036791
16559,2.5717,4.6364,0,0.00053116,5307.9,0.00020944,0.053632,0.00011446,-713.56,-0.00053968,-5628.5,0.037659
16560,2.4799,4.7273,0,0.00053558,5352.1,0.00021017,0.070024,0.00011732,-697.59,-0.00054402,-5666.6,0.034811
16561,2.5717,4.7273,0.05,2.0215e-06,20.201,1.5523e-06,11.663,-6.2626e-12,-2.8514e-05,-1.5523e-06,-11.663,0.037367
16562,2.5717,4.4545,0,0.00052634,5259.8,0.00021169,0.032559,0.00010555,-797.47,-0.00053535,-5613,0.038124
16563,2.4799,4.5455,0,0.00053039,5300.3,0.00021266,0.0447,0.00010763,-789.12,-0.00053939,-5650.5,0.035294
16564,2.5717,4.5455,0.05,2.0215e-06,20.201,1.5522e-06,11.663,-5.001e-12,-3.1979e-05,-1.5522e-06,-11.663,0.037867
16565,2.5717,4.2727,0,0.00052221,5218.5,0.00021376,0.017174,9.756e-05,-873.06,-0.00053155,-5600,0.038521
16566,2.4799,4.3636,0,0.00052594,5255.7,0.00021496,0.026299,9.8876e-05,-872.22,-0.00053531,-5637.3,0.035708
16567,2.5717,4.3636,0.05,2.0189e-06,20.175,1.5503e-06,11.648,-4.0558e-12,-1.0754e-05,-1.5503e-06,-11.648,0.038297
16568,2.5717,4.0909,0,0.00051875,5183.9,0.0002156,0.0062321,9.0558e-05,-939.54,-0.0005283,-5589.4,0.038855
16569,2.4799,4.1818,0,0.00052219,5218.3,0.00021705,0.013379,9.1141e-05,-945.99,-0.00053181,-5626.6,0.036059
16570,2.5717,4.1818,0.05,2.0157e-06,20.143,1.5478e-06,11.63,-2.2353e-12,-2.9046e-05,-1.5478e-06,-11.63,0.038662
16571,2.5717,3.9091,0,0.00051591,5155.6,0.0002172,-0.0013715,8.4594e-05,-996.38,-0.00052558,-5581,0.03913
16572,2.4799,4,0,0.00051912,5187.6,0.00021888,0.0044966,8.448e-05,-1009.8,-0.00052887,-5618.3,0.036352
16573,2.5717,4,0.05,2.0131e-06,20.117,1.5458e-06,11.614,-3.3621e-12,-2.2065e-05,-1.5458e-06,-11.614,0.038966
16574,2.5717,3.7273,0,0.00051367,5133.1,0.00021854,-0.0064918,7.97e-05,-1043.2,-0.0005234,-5574.6,0.039351
16575,2.4799,3.8182,0,0.00051667,5163.1,0.00022044,-0.0014122,7.8922e-05,-1063.3,-0.00052648,-5612,0.036589
16576,2.5717,3.8182,0.05,2.0114e-06,20.101,1.5445e-06,11.605,-5.859e-13,-1.0261e-05,-1.5445e-06,-11.605,0.039214
16577,2.5717,3.5455,0,0.00051198,5116.2,0.00021959,-0.0098073,7.5888e-05,-1079.7,-0.00052172,-5569.9,0.03952
16578,2.4799,3.6364,0,0.00051479,5144.3,0.0002217,-0.0052022,7.448e-05,-1106.2,-0.0005246,-5607.5,0.036775
16579,2.5717,3.6364,0.05,2.0108e-06,20.095,1.5441e-06,11.602,-1.4869e-13,-8.2681e-06,-1.5441e-06,-11.602,0.039408
16580,2.5717,3.3636,0,0.0005108,5104.5,0.00022035,-0.011826,7.3166e-05,-1105.9,-0.00052054,-5566.8,0.039638
16581,2.4799,3.4545,0,0.00051343,5130.7,0.00022266,-0.0075162,7.1155e-05,-1138.4,-0.00052323,-5604.3,0.036913
16582,2.5717,3.4545,0.05,2.0109e-06,20.096,1.5442e-06,11.602,-1.066e-12,-6.0569e-06,-1.5442e-06,-11.602,0.039552
16583,2.5717,3.1818,0,0.0005101,5097.5,0.00022081,-0.012901,7.1533e-05,-1121.6,-0.00051984,-5564.9,0.039709
16584,2.4799,3.2727,0,0.00051255,5121.9,0.00022331,-0.0088155,6.8944e-05,-1159.8,-0.00052232,-5602.4,0.037003
16585,2.5717,3.2727,0.05,2.0113e-06,20.099,1.5445e-06,11.604,-4.4028e-13,-3.6933e-06,-1.5445e-06,-11.604,0.039647
16586,2.5717,3,0,0.00050988,5095.2,0.00022096,-0.013236,7.0989e-05,-1126.8,-0.00051961,-5564.3,0.039733
16587,2.4799,3.0909,0,0.00051211,5117.6,0.00022363,-0.0093937,6.7839e-05,-1170.6,-0.00052188,-5601.5,0.037048
16588,2.5717,3.0909,0.05,2.0116e-06,20.102,1.5447e-06,11.606,-1.7103e-13,-1.1979e-06,-1.5447e-06,-11.606,0.039694
16589,2.5717,2.8182,0,0.0005101,5097.5,0.00022081,-0.012901,7.1533e-05,-1121.6,-0.00051984,-5564.9,0.039709
16590,2.4799,2.9091,0,0.00051211,5117.6,0.00022363,-0.0093937,6.7839e-05,-1170.6,-0.00052188,-5601.5,0.037048
16591,2.5717,2.9091,0.05,2.0116e-06,20.102,1.5447e-06,11.606,-7.3696e-13,1.5011e-06,-1.5447e-06,-11.606,0.039694
16592,2.5717,2.6364,0,0.0005108,5104.5,0.00022035,-0.011826,7.3166e-05,-1105.9,-0.00052054,-5566.8,0.039638
16593,2.4799,2.7273,0,0.00051255,5121.9,0.00022331,-0.0088154,6.8944e-05,-1159.8,-0.00052232,-5602.4,0.037003
16594,2.5717,2.7273,0.05,2.0113e-06,20.099,1.5445e-06,11.604,4.9531e-13,2.0094e-05,-1.5445e-06,-11.604,0.039647
16595,2.5717,2.4545,0,0.00051198,5116.2,0.00021959,-0.0098072,7.5888e-05,-1079.7,-0.00052172,-5569.9,0.03952
16596,2.4799,2.5455,0,0.00051343,5130.7,0.00022266,-0.0075161,7.1155e-05,-1138.4,-0.00052323,-5604.3,0.036913
16597,2.5717,2.5455,0.05,2.0109e-06,20.096,1.5442e-06,11.602,-5.4284e-13,6.0569e-06,-1.5442e-06,-11.602,0.039552
16598,2.5717,2.2727,0,0.00051367,5133.1,0.00021854,-0.0064916,7.97e-05,-1043.2,-0.0005234,-5574.6,0.039351
16599,2.4799,2.3636,0,0.00051479,5144.3,0.0002217,-0.0052021,7.448e-05,-1106.2,-0.0005246,-5607.5,0.036775
16600,2.5717,2.3636,0.05,2.0108e-06,20.095,1.5441e-06,11.602,-1.402e-12,6.2011e-06,-1.5441e-06,-11.602,0.039408
16601,2.5717,2.0909,0,0.00051591,5155.6,0.0002172,-0.0013713,8.4594e-05,-996.38,-0.00052558,-5581,0.03913
16602,2.4799,2.1818,0,0.00051667,5163.1,0.00022044,-0.001412,7.8922e-05,-1063.3,-0.00052648,-5612,0.036589
16603,2.5717,2.1818,0.05,2.0114e-06,20.101,1.5445e-06,11.605,-9.9675e-13,1.6908e-05,-1.5445e-06,-11.605,0.039214
16604,2.5717,1.9091,0,0.00051875,5183.9,0.0002156,0.0062323,9.0558e-05,-939.54,-0.0005283,-5589.4,0.038855
16605,2.4799,2,0,0.00051912,5187.6,0.00021888,0.0044969,8.448e-05,-1009.8,-0.00052887,-5618.3,0.036352
16606,2.5717,2,0.05,2.0131e-06,20.117,1.5458e-06,11.614,3.3621e-12,1.197e-05,-1.5458e-06,-11.614,0.038966
16607,2.5717,1.7273,0,0.00052221,5218.5,0.00021376,0.017174,9.756e-05,-873.06,-0.00053155,-5600,0.038521
16608,2.4799,1.8182,0,0.00052219,5218.3,0.00021705,0.013379,9.1141e-05,-945.99,-0.00053181,-5626.6,0.036059
16609,2.5717,1.8182,0.05,2.0157e-06,20.143,1.5478e-06,11.63,4.1075e-12,4.1416e-05,-1.5478e-06,-11.63,0.038662
16610,2.5717,1.5455,0,0.00052634,5259.8,0.00021169,0.032559,0.00010555,-797.47,-0.00053535,-5613,0.038124
16611,2.4799,1.6364,0,0.00052594,5255.7,0.00021496,0.026299,9.8876e-05,-872.22,-0.00053531,-5637.3,0.035708
16612,2.5717,1.6364,0.05,2.0189e-06,20.175,1.5503e-06,11.648,5.8394e-12,7.0996e-05,-1.5503e-06,-11.648,0.038297
16613,2.5717,1.3636,0,0.00053116,5307.9,0.00020944,0.053632,0.00011446,-713.56,-0.00053968,-5628.5,0.037659
16614,2.4799,1.4545,0,0.00053039,5300.3,0.00021266,0.044701,0.00010763,-789.12,-0.00053939,-5650.5,0.035294
16615,2.5717,1.4545,0.05,2.0215e-06,20.201,1.5523e-06,11.663,1.0298e-11,8.8459e-05,-1.5522e-06,-11.663,0.037867
16616,2.5717,1.1818,0,0.00053665,5362.8,0.00020703,0.082674,0.00012419,-622.36,-0.00054452,-5646.8,0.037122
16617,2.4799,1.2727,0,0.00053558,5352.1,0.00021017,0.070024,0.00011732,-697.59,-0.00054402,-5666.6,0.034811
16618,2.5717,1.2727,0.05,2.0215e-06,20.201,1.5523e-06,11.663,1.9011e-12,6.5101e-05,-1.5523e-06,-11.663,0.037367
16619,2.5717,1,0,0.00054279,5424.2,0.00020451,0.12075,0.00013461,-525.12,-0.00054981,-5667.6,0.036506
16620,2.4799,1.0909,0,0.00054149,5411.1,0.00020754,0.10599,0.00012783,-598.83,-0.00054918,-5685.6,0.034254
16621,2.5717,1.0909,0.05,2.0166e-06,20.152,1.5485e-06,11.635,9.636e-12,0.00014187,-1.5485e-06,-11.635,0.036791
16622,2.5717,0.81818,0,0.00054954,5491.6,0.00020193,0.18081,0.00014556,-423.33,-0.00055551,-5690.9,0.035803
16623,2.4799,0.90909,0,0.00054809,5477.1,0.00020481,0.15176,0.000139,-494.31,-0.00055481,-5707.4,0.033615
16624,2.5717,0.90909,0.05,2.0041e-06,20.027,1.5389e-06,11.563,3.6874e-12,0.00015511,-1.5389e-06,-11.563,0.036132
16625,2.5717,0.63636,0,0.00055681,5564.3,0.00019932,0.24521,0.00015689,-318.59,-0.00056154,-5716.6,0.035009
16626,2.4799,0.72727,0,0.00055531,5549.3,0.00020205,0.23661,0.00015068,-385.71,-0.00056086,-5731.9,0.032888
16627,2.5717,0.72727,0.05,1.9819e-06,19.805,1.5219e-06,11.435,7.2239e-12,4.6033e-05,-1.5219e-06,-11.435,0.035385
16628,2.5717,0.45455,0,0.00056454,5641.5,0.00019676,0.52541,0.00016843,-212.28,-0.00056784,-5744.4,0.034114
16629,2.4799,0.54545,0,0.00056306,5626.7,0.00019929,0.29978,0.00016266,-274.89,-0.00056723,-5759,0.032065
16630,2.5717,0.54545,0.05,1.9535e-06,19.522,1.5001e-06,11.271,1.2069e-11,8.1137e-05,-1.5001e-06,-11.271,0.03454
16631,2.5717,0.27273,0,0.00057299,5726,0.00019428,1.0297,0.00018035,-103.65,-0.00057467,-5776.6,0.033111
16632,2.4799,0.36364,0,0.0005713,5709,0.00019662,0.87252,0.0001748,-163.1,-0.00057388,-5788.4,0.031139
16633,2.5717,0.36364,0.05,1.9796e-06,19.782,1.5201e-06,11.421,7.4737e-12,0.00015518,-1.5201e-06,-11.421,0.033592
16634,2.4799,0.18182,0,0.00058067,5802.7,0.00019422,2.4479,0.00018745,-48.445,-0.00058144,-5825.5,0.030101
16635,2.5717,0.18182,0.05,3.4902e-06,34.878,2.68e-06,20.137,-1.1256e-12,5.0934e-05,-2.68e-06,-20.137,0.032532
16636,2.5717,0.090909,0,0.00057838,5779.8,0.000192,0.65931,0.000189,-21.93,-0.00057874,-5790.4,0.031993
16637,2.388,5.7273,0,0.00057896,5785.6,0.00019641,1.1981,0.00018206,-106.61,-0.00058068,-5837.5,0.028254
16638,2.2962,5.8182,0,0.00058689,5864.8,0.00019621,3.1533,0.00018966,-46.096,-0.0005876,-5886.2,0.025461
16639,2.388,5.8182,0.05,3.7151e-06,37.125,2.8527e-06,21.434,1.7496e-12,-4.0051e-05,-2.8527e-06,-21.434,0.027697
16640,2.388,5.9091,0,0.00058446,5840.5,0.00019391,0.76869,0.00019119,-19.677,-0.00058477,-5850,0.027181
16641,2.388,5.5455,0,0.00056981,5694.2,0.00019914,0.58445,0.00016906,-225.45,-0.0005733,-5803.2,0.029213
16642,2.2962,5.6364,0,0.00057667,5762.7,0.00019881,0.97431,0.00017586,-171.45,-0.00057937,-5846,0.026452
16643,2.388,5.6364,0.05,2.0776e-06,20.762,1.5954e-06,11.987,-7.8947e-12,-0.00016968,-1.5953e-06,-11.987,0.028713
16644,2.388,5.3636,0,0.00056155,5611.6,0.00020201,0.27278,0.00015648,-341.8,-0.00056657,-5774.5,0.030063
16645,2.2962,5.4545,0,0.00056783,5674.4,0.00020178,0.33608,0.00016262,-293.89,-0.00057225,-5815.4,0.027332
16646,2.388,5.4545,0.05,2.0629e-06,20.615,1.5841e-06,11.902,-2.0082e-11,-0.00013265,-1.5841e-06,-11.902,0.029617
16647,2.388,5.1818,0,0.00055384,5534.5,0.00020493,0.19937,0.00014414,-456.51,-0.00056018,-5748.5,0.030815
16648,2.2962,5.2727,0,0.00055958,5592,0.00020488,0.26159,0.00014955,-415.46,-0.00056549,-5788,0.028109
16649,2.388,5.2727,0.05,2.0991e-06,20.976,1.6118e-06,12.111,-1.5343e-11,-0.00017204,-1.6118e-06,-12.111,0.030418
16650,2.388,5,0,0.00054676,5463.8,0.00020784,0.13246,0.00013224,-567.88,-0.0005542,-5725.5,0.031476
16651,2.2962,5.0909,0,0.00055198,5516,0.000208,0.1667,0.00013684,-534.52,-0.00055913,-5763.7,0.028791
16652,2.388,5.0909,0.05,2.1255e-06,21.241,1.6321e-06,12.263,-3.3553e-12,-4.2769e-05,-1.6321e-06,-12.263,0.031123
16653,2.388,4.8182,0,0.00054039,5400.2,0.00021068,0.090465,0.00012096,-673.99,-0.00054869,-5705.5,0.032053
16654,2.2962,4.9091,0,0.00054514,5447.6,0.00021108,0.11572,0.00012471,-648.82,-0.00055326,-5742.9,0.029388
16655,2.388,4.9091,0.05,2.1398e-06,21.383,1.6431e-06,12.345,-9.2156e-12,-7.4514e-05,-1.6431e-06,-12.345,0.031742
16656,2.388,4.6364,0,0.00053479,5344.2,0.00021339,0.059102,0.00011049,-773.13,-0.00054373,-5688.6,0.032554
16657,2.2962,4.7273,0,0.00053911,5387.3,0.00021406,0.076521,0.00011338,-756.38,-0.00054797,-5725.5,0.029906
16658,2.388,4.7273,0.05,2.145e-06,21.435,1.6471e-06,12.376,-6.9789e-12,-6.9723e-05,-1.6471e-06,-12.376,0.03228
16659,2.388,4.4545,0,0.00052997,5296,0.00021593,0.036976,0.00010095,-863.9,-0.00053935,-5674.8,0.032985
16660,2.2962,4.5455,0,0.00053392,5335.5,0.00021687,0.049681,0.000103,-855.51,-0.0005433,-5711.5,0.030353
16661,2.388,4.5455,0.05,2.1451e-06,21.436,1.6471e-06,12.376,-6.0056e-12,-6.0183e-05,-1.6471e-06,-12.376,0.032745
16662,2.388,4.2727,0,0.0005259,5255.4,0.00021825,0.021376,9.2445e-05,-945.24,-0.00053556,-5663.8,0.033352
16663,2.2962,4.3636,0,0.00052956,5291.9,0.00021946,0.03086,9.3689e-05,-944.98,-0.00053926,-5700.7,0.030734
16664,2.388,4.3636,0.05,2.143e-06,21.415,1.6456e-06,12.364,-4.4793e-12,-3.2335e-05,-1.6456e-06,-12.364,0.033143
16665,2.388,4.0909,0,0.00052255,5221.9,0.00022032,0.010743,8.5046e-05,-1016.4,-0.00053237,-5655.4,0.03366
16666,2.2962,4.1818,0,0.00052597,5256.1,0.0002218,0.018218,8.5527e-05,-1023.9,-0.00053585,-5692.7,0.031056
16667,2.388,4.1818,0.05,2.1411e-06,21.396,1.6441e-06,12.353,-1.6129e-12,-1.3582e-05,-1.6441e-06,-12.353,0.03348
16668,2.388,3.9091,0,0.00051987,5195.1,0.00022211,0.0037135,7.8786e-05,-1076.9,-0.00052974,-5649.1,0.033913
16669,2.2962,4,0,0.0005231,5227.4,0.00022385,0.0099746,7.855e-05,-1091.8,-0.00053304,-5687,0.031323
16670,2.388,4,0.05,2.1405e-06,21.39,1.6436e-06,12.35,7.3253e-13,-2.4338e-05,-1.6436e-06,-12.35,0.033759
16671,2.388,3.7273,0,0.00051778,5174.2,0.0002236,-0.00075362,7.3676e-05,-1126.5,-0.00052766,-5644.7,0.034115
16672,2.2962,3.8182,0,0.00052086,5205,0.0002256,0.00483,7.2769e-05,-1148.3,-0.0005308,-5683.2,0.031539
16673,2.388,3.8182,0.05,2.1414e-06,21.399,1.6443e-06,12.355,-1.5949e-12,-1.0431e-05,-1.6443e-06,-12.355,0.033986
16674,2.388,3.5455,0,0.00051623,5158.7,0.00022477,-0.0034648,6.9718e-05,-1165,-0.00052608,-5641.6,0.034269
16675,2.2962,3.6364,0,0.00051917,5188.1,0.00022701,0.0017716,6.8177e-05,-1193.4,-0.00052907,-5680.8,0.031709
16676,2.388,3.6364,0.05,2.1434e-06,21.419,1.6458e-06,12.366,1.3792e-12,-8.3864e-06,-1.6458e-06,-12.366,0.034164
16677,2.388,3.3636,0,0.00051516,5148.1,0.00022562,-0.0050083,6.6901e-05,-1192.6,-0.00052498,-5639.7,0.034377
16678,2.2962,3.4545,0,0.00051797,5176.2,0.00022807,6.1277e-05,6.4757e-05,-1227.1,-0.00052782,-5679.5,0.031833
16679,2.388,3.4545,0.05,2.1458e-06,21.443,1.6477e-06,12.38,-9.1341e-13,-8.7005e-06,-1.6477e-06,-12.38,0.034295
16680,2.388,3.1818,0,0.00051454,5141.9,0.00022613,-0.0057824,6.5217e-05,-1209,-0.00052433,-5638.7,0.034442
16681,2.2962,3.2727,0,0.00051721,5168.5,0.00022879,-0.00081505,6.2491e-05,-1249.5,-0.000527,-5678.7,0.031915
16682,2.388,3.2727,0.05,2.1479e-06,21.464,1.6493e-06,12.392,-5.2819e-13,-3.9644e-06,-1.6493e-06,-12.392,0.034381
16683,2.388,3,0,0.00051434,5139.8,0.0002263,-0.0060156,6.4656e-05,-1214.5,-0.00052411,-5638.3,0.034463
16684,2.2962,3.0909,0,0.00051684,5164.8,0.00022915,-0.0011766,6.1362e-05,-1260.7,-0.0005266,-5678.4,0.031956
16685,2.388,3.0909,0.05,2.1491e-06,21.476,1.6502e-06,12.399,-1.0806e-12,-1.2915e-06,-1.6502e-06,-12.399,0.034424
16686,2.388,2.8182,0,0.00051454,5141.9,0.00022613,-0.0057824,6.5217e-05,-1209,-0.00052433,-5638.7,0.034442
16687,2.2962,2.9091,0,0.00051684,5164.8,0.00022915,-0.0011766,6.1362e-05,-1260.7,-0.0005266,-5678.4,0.031956
16688,2.388,2.9091,0.05,2.1491e-06,21.476,1.6502e-06,12.399,-1.6433e-12,1.2523e-06,-1.6502e-06,-12.399,0.034424
16689,2.388,2.6364,0,0.00051516,5148.1,0.00022562,-0.0050082,6.6901e-05,-1192.6,-0.00052498,-5639.7,0.034377
16690,2.2962,2.7273,0,0.00051721,5168.5,0.00022879,-0.00081498,6.2491e-05,-1249.5,-0.000527,-5678.7,0.031915
16691,2.388,2.7273,0.05,2.1479e-06,21.464,1.6493e-06,12.392,5.5599e-13,4.6576e-06,-1.6493e-06,-12.392,0.034381
16692,2.388,2.4545,0,0.00051623,5158.7,0.00022477,-0.0034647,6.9718e-05,-1165,-0.00052608,-5641.6,0.034269
16693,2.2962,2.5455,0,0.00051797,5176.2,0.00022807,6.1326e-05,6.4757e-05,-1227.1,-0.00052782,-5679.5,0.031833
16694,2.388,2.5455,0.05,2.1458e-06,21.443,1.6477e-06,12.38,-2.3562e-12,1.1271e-05,-1.6477e-06,-12.38,0.034295
16695,2.388,2.2727,0,0.00051778,5174.2,0.0002236,-0.00075343,7.3676e-05,-1126.5,-0.00052766,-5644.7,0.034115
16696,2.2962,2.3636,0,0.00051917,5188.1,0.00022701,0.0017718,6.8177e-05,-1193.4,-0.00052907,-5680.8,0.031709
16697,2.388,2.3636,0.05,2.1434e-06,21.419,1.6458e-06,12.366,-5.3057e-13,2.239e-05,-1.6458e-06,-12.366,0.034164
16698,2.388,2.0909,0,0.00051987,5195.1,0.00022211,0.0037138,7.8786e-05,-1076.9,-0.00052974,-5649.1,0.033913
16699,2.2962,2.1818,0,0.00052086,5205,0.0002256,0.0048302,7.2769e-05,-1148.3,-0.0005308,-5683.2,0.031539
16700,2.388,2.1818,0.05,2.1414e-06,21.399,1.6443e-06,12.355,6.5281e-13,2.3629e-05,-1.6443e-06,-12.355,0.033986
16701,2.388,1.9091,0,0.00052255,5221.9,0.00022032,0.010743,8.5046e-05,-1016.4,-0.00053237,-5655.4,0.03366
16702,2.2962,2,0,0.0005231,5227.4,0.00022385,0.0099748,7.855e-05,-1091.8,-0.00053304,-5687,0.031323
16703,2.388,2,0.05,2.1405e-06,21.39,1.6436e-06,12.35,-1.4609e-12,4.8642e-05,-1.6436e-06,-12.35,0.033759
16704,2.388,1.7273,0,0.0005259,5255.4,0.00021825,0.021376,9.2445e-05,-945.24,-0.00053556,-5663.8,0.033352
16705,2.2962,1.8182,0,0.00052597,5256.1,0.0002218,0.018218,8.5527e-05,-1023.9,-0.00053585,-5692.7,0.031056
16706,2.388,1.8182,0.05,2.1411e-06,21.396,1.6441e-06,12.353,9.5091e-13,1.3582e-05,-1.6441e-06,-12.353,0.03348
16707,2.388,1.5455,0,0.00052997,5296,0.00021593,0.036976,0.00010095,-863.9,-0.00053935,-5674.8,0.032985
16708,2.2962,1.6364,0,0.00052956,5291.9,0.00021946,0.03086,9.3689e-05,-944.98,-0.00053926,-5700.7,0.030734
16709,2.388,1.6364,0.05,2.143e-06,21.415,1.6456e-06,12.364,3.8889e-12,5.3746e-05,-1.6456e-06,-12.364,0.033143
16710,2.388,1.3636,0,0.00053479,5344.2,0.00021339,0.059103,0.00011049,-773.13,-0.00054373,-5688.6,0.032554
16711,2.2962,1.4545,0,0.00053392,5335.5,0.00021687,0.049681,0.000103,-855.51,-0.0005433,-5711.5,0.030353
16712,2.388,1.4545,0.05,2.1451e-06,21.436,1.6471e-06,12.376,5.5552e-12,6.0183e-05,-1.6471e-06,-12.376,0.032745
16713,2.388,1.1818,0,0.00054039,5400.2,0.00021068,0.090465,0.00012096,-673.99,-0.00054869,-5705.5,0.032053
16714,2.2962,1.2727,0,0.00053911,5387.3,0.00021406,0.076521,0.00011338,-756.38,-0.00054797,-5725.5,0.029906
16715,2.388,1.2727,0.05,2.145e-06,21.435,1.6471e-06,12.376,9.3317e-12,0.00010077,-1.6471e-06,-12.376,0.03228
16716,2.388,1,0,0.00054676,5463.8,0.00020784,0.13246,0.00013224,-567.88,-0.0005542,-5725.5,0.031476
16717,2.2962,1.0909,0,0.00054514,5447.6,0.00021108,0.11572,0.00012471,-648.82,-0.00055326,-5742.9,0.029388
16718,2.388,1.0909,0.05,2.1398e-06,21.383,1.6431e-06,12.345,1.0739e-11,0.00010989,-1.6431e-06,-12.345,0.031742
16719,2.388,0.81818,0,0.00055384,5534.5,0.00020493,0.19937,0.00014414,-456.51,-0.00056018,-5748.5,0.030815
16720,2.2962,0.90909,0,0.00055198,5516,0.000208,0.1667,0.00013684,-534.52,-0.00055913,-5763.7,0.028791
16721,2.388,0.90909,0.05,2.1255e-06,21.241,1.6321e-06,12.263,1.5298e-11,0.0001601,-1.6322e-06,-12.263,0.031123
16722,2.388,0.63636,0,0.00056155,5611.6,0.00020201,0.27278,0.00015648,-341.8,-0.00056657,-5774.5,0.030063
16723,2.2962,0.72727,0,0.00055958,5592,0.00020488,0.26159,0.00014955,-415.46,-0.00056549,-5788,0.028109
16724,2.388,0.72727,0.05,2.0991e-06,20.976,1.6118e-06,12.111,1.0036e-11,0.00012991,-1.6118e-06,-12.111,0.030418
16725,2.388,0.45455,0,0.00056981,5694.2,0.00019914,0.58445,0.00016906,-225.45,-0.0005733,-5803.2,0.029213
16726,2.2962,0.54545,0,0.00056783,5674.4,0.00020178,0.33608,0.00016262,-293.89,-0.00057225,-5815.4,0.027332
16727,2.388,0.54545,0.05,2.0629e-06,20.615,1.5841e-06,11.902,8.5372e-12,8.8433e-05,-1.5841e-06,-11.902,0.029617
16728,2.388,0.27273,0,0.00057896,5785.6,0.00019641,1.1981,0.00018206,-106.61,-0.00058068,-5837.5,0.028254
16729,2.2962,0.36364,0,0.00057667,5762.7,0.00019881,0.97431,0.00017586,-171.45,-0.00057937,-5846,0.026452
16730,2.388,0.36364,0.05,2.0776e-06,20.762,1.5953e-06,11.987,1.3789e-11,0.00016968,-1.5953e-06,-11.987,0.028713
16731,2.2962,0.18182,0,0.00058689,5864.8,0.00019621,3.1533,0.00018966,-46.096,-0.0005876,-5886.2,0.025461
16732,2.388,0.18182,0.05,3.7151e-06,37.125,2.8527e-06,21.434,6.814e-13,5.3401e-05,-2.8527e-06,-21.434,0.027697
16733,2.388,0.090909,0,0.00058446,5840.5,0.00019391,0.76869,0.00019119,-19.677,-0.00058477,-5850,0.027181
16734,2.2043,5.7273,0,0.00058458,5841.7,0.00019841,1.4039,0.00018369,-109.19,-0.00058633,-5894.8,0.023785
16735,2.1125,5.8182,0,0.00059273,5923.3,0.00019807,4.1705,0.00019181,-42.831,-0.00059338,-5942.4,0.021212
16736,2.2043,5.8182,0.05,3.9424e-06,39.397,3.0273e-06,22.746,2.2142e-12,-5.5341e-05,-3.0273e-06,-22.746,0.023252
16737,2.2043,5.9091,0,0.00059016,5897.5,0.00019565,0.93138,0.00019332,-16.639,-0.00059042,-5905.4,0.02276
16738,2.2043,5.5455,0,0.00057467,5742.8,0.00020144,0.65153,0.00016947,-239.59,-0.00057836,-5858.5,0.024694
16739,2.1125,5.6364,0,0.00058157,5811.7,0.00020086,1.0924,0.00017674,-180.17,-0.0005844,-5899.1,0.022151
16740,2.2043,5.6364,0.05,2.1907e-06,21.892,1.6822e-06,12.639,-9.2816e-12,-0.00019172,-1.6822e-06,-12.639,0.024219
16741,2.2043,5.3636,0,0.00056585,5654.6,0.00020465,0.30354,0.00015573,-367.32,-0.00057119,-5829.1,0.025496
16742,2.1125,5.4545,0,0.00057209,5716.9,0.0002042,0.37817,0.00016225,-314.78,-0.00057679,-5867.6,0.02298
16743,2.2043,5.4545,0.05,2.1928e-06,21.913,1.6838e-06,12.651,-1.6373e-11,-0.0001981,-1.6838e-06,-12.651,0.025074
16744,2.2043,5.1818,0,0.00055771,5573.2,0.00020795,0.21948,0.00014227,-493.28,-0.00056445,-5803.3,0.026201
16745,2.1125,5.2727,0,0.00056334,5629.5,0.0002077,0.29001,0.00014796,-448.59,-0.00056962,-5840.2,0.023706
16746,2.2043,5.2727,0.05,2.2377e-06,22.361,1.7182e-06,12.91,-1.7447e-11,-0.00013695,-1.7182e-06,-12.91,0.025827
16747,2.2043,5,0,0.00055033,5499.5,0.00021125,0.14473,0.00012933,-615.33,-0.00055821,-5781.2,0.026817
16748,2.1125,5.0909,0,0.0005554,5550.2,0.00021125,0.18357,0.0001341,-579.44,-0.00056298,-5817,0.024341
16749,2.2043,5.0909,0.05,2.2678e-06,22.663,1.7414e-06,13.084,-9.532e-12,-9.8689e-05,-1.7414e-06,-13.084,0.026486
16750,2.2043,4.8182,0,0.00054382,5434.5,0.00021446,0.098466,0.00011714,-731.14,-0.00055255,-5763,0.027352
16751,2.1125,4.9091,0,0.00054838,5480,0.00021475,0.12681,0.00012096,-704.56,-0.00055695,-5798.1,0.024892
16752,2.2043,4.9091,0.05,2.2825e-06,22.809,1.7527e-06,13.169,-5.1421e-12,-8.7366e-05,-1.7527e-06,-13.169,0.02706
16753,2.2043,4.6364,0,0.00053821,5378.4,0.00021753,0.064815,0.00010589,-838.76,-0.00054754,-5748.4,0.027813
16754,2.1125,4.7273,0,0.00054234,5419.6,0.00021812,0.084332,0.00010877,-821.58,-0.00055162,-5783.4,0.025368
16755,2.2043,4.7273,0.05,2.2868e-06,22.853,1.756e-06,13.194,-7.1919e-12,-4.4697e-05,-1.756e-06,-13.194,0.027558
16756,2.2043,4.4545,0,0.00053348,5331.1,0.0002204,0.041894,9.5733e-05,-936.65,-0.0005432,-5737.4,0.028208
16757,2.1125,4.5455,0,0.00053727,5369,0.0002213,0.056254,9.77e-05,-928.66,-0.00054701,-5772.8,0.025775
16758,2.2043,4.5455,0.05,2.2861e-06,22.845,1.7554e-06,13.19,-3.184e-12,-0.00011585,-1.7554e-06,-13.19,0.027985
16759,2.2043,4.2727,0,0.0005296,5292.4,0.00022301,0.026426,8.6755e-05,-1023.8,-0.00053953,-5729.5,0.028543
16760,2.1125,4.3636,0,0.00053314,5327.8,0.00022423,0.037415,8.7873e-05,-1024.5,-0.00054313,-5765.6,0.026122
16761,2.2043,4.3636,0.05,2.2844e-06,22.828,1.7541e-06,13.18,-5.4222e-12,-3.3635e-05,-1.7541e-06,-13.18,0.028349
16762,2.2043,4.0909,0,0.0005265,5261.3,0.00022534,0.016442,7.9008e-05,-1099.4,-0.00053651,-5724.2,0.028822
16763,2.1125,4.1818,0,0.00052986,5295,0.00022686,0.02545,7.9341e-05,-1108.4,-0.00053994,-5761.4,0.026412
16764,2.2043,4.1818,0.05,2.284e-06,22.825,1.7539e-06,13.178,-1.9947e-12,-3.1098e-05,-1.7539e-06,-13.178,0.028656
16765,2.2043,3.9091,0,0.00052407,5237.1,0.00022734,0.01027,7.2506e-05,-1163.3,-0.00053407,-5720.9,0.029052
16766,2.1125,4,0,0.00052732,5269.5,0.00022916,0.018172,7.2118e-05,-1179.9,-0.00053738,-5759.5,0.026653
16767,2.2043,4,0.05,2.2861e-06,22.845,1.7554e-06,13.189,-3.9272e-13,-2.1798e-05,-1.7554e-06,-13.189,0.028909
16768,2.2043,3.7273,0,0.00052223,5218.7,0.000229,0.0066663,6.7239e-05,-1215.4,-0.00053218,-5719.2,0.029234
16769,2.1125,3.8182,0,0.0005254,5250.4,0.0002311,0.014024,6.6185e-05,-1239.1,-0.00053539,-5759.1,0.026847
16770,2.2043,3.8182,0.05,2.2901e-06,22.886,1.7585e-06,13.213,-1.6321e-12,-1.8952e-05,-1.7586e-06,-13.213,0.029115
16771,2.2043,3.5455,0,0.0005209,5205.4,0.0002303,0.0047,6.3183e-05,-1255.7,-0.00053077,-5718.4,0.029373
16772,2.1125,3.6364,0,0.00052401,5236.5,0.00023267,0.011842,6.1508e-05,-1286,-0.0005339,-5759.7,0.026998
16773,2.2043,3.6364,0.05,2.2954e-06,22.938,1.7626e-06,13.243,-1.0056e-12,-1.8609e-05,-1.7626e-06,-13.243,0.029275
16774,2.2043,3.3636,0,0.00052001,5196.5,0.00023124,0.0037167,6.0312e-05,-1284.3,-0.0005298,-5718.2,0.02947
16775,2.1125,3.4545,0,0.00052305,5226.9,0.00023385,0.010817,5.8047e-05,-1320.9,-0.00053284,-5760.6,0.027109
16776,2.2043,3.4545,0.05,2.3006e-06,22.991,1.7666e-06,13.274,-8.2425e-13,-8.7311e-06,-1.7666e-06,-13.274,0.029393
16777,2.2043,3.1818,0,0.00051949,5191.3,0.00023181,0.0032868,5.86e-05,-1301.4,-0.00052924,-5718.2,0.029528
16778,2.1125,3.2727,0,0.00052245,5220.9,0.00023465,0.010402,5.5763e-05,-1344,-0.00053216,-5761.5,0.027182
16779,2.2043,3.2727,0.05,2.3048e-06,23.032,1.7698e-06,13.298,-2.4884e-14,-3.9655e-06,-1.7698e-06,-13.298,0.02947
16780,2.2043,3,0,0.00051932,5189.7,0.000232,0.0031694,5.8031e-05,-1307.1,-0.00052905,-5718.2,0.029547
16781,2.1125,3.0909,0,0.00052216,5218,0.00023504,0.010272,5.4628e-05,-1355.6,-0.00053184,-5762,0.027219
16782,2.2043,3.0909,0.05,2.3071e-06,23.055,1.7716e-06,13.311,-1.7245e-13,-1.2707e-06,-1.7716e-06,-13.311,0.029509
16783,2.2043,2.8182,0,0.00051949,5191.3,0.00023181,0.0032868,5.86e-05,-1301.4,-0.00052924,-5718.2,0.029528
16784,2.1125,2.9091,0,0.00052216,5218,0.00023504,0.010272,5.4628e-05,-1355.6,-0.00053184,-5762,0.027219
16785,2.2043,2.9091,0.05,2.3071e-06,23.055,1.7716e-06,13.311,-7.4018e-13,1.2707e-06,-1.7716e-06,-13.311,0.029509
16786,2.2043,2.6364,0,0.00052001,5196.5,0.00023124,0.0037167,6.0312e-05,-1284.3,-0.0005298,-5718.2,0.02947
16787,2.1125,2.7273,0,0.00052245,5220.9,0.00023465,0.010402,5.5763e-05,-1344,-0.00053216,-5761.5,0.027182
16788,2.2043,2.7273,0.05,2.3048e-06,23.032,1.7698e-06,13.298,-1.263e-12,1.9686e-05,-1.7698e-06,-13.298,0.02947
16789,2.2043,2.4545,0,0.0005209,5205.4,0.0002303,0.0047001,6.3183e-05,-1255.7,-0.00053077,-5718.4,0.029373
16790,2.1125,2.5455,0,0.00052305,5226.9,0.00023385,0.010817,5.8047e-05,-1320.9,-0.00053284,-5760.6,0.027109
16791,2.2043,2.5455,0.05,2.3006e-06,22.991,1.7666e-06,13.274,-4.6722e-14,1.1316e-05,-1.7666e-06,-13.274,0.029393
16792,2.2043,2.2727,0,0.00052223,5218.7,0.000229,0.0066665,6.7239e-05,-1215.4,-0.00053218,-5719.2,0.029234
16793,2.1125,2.3636,0,0.00052401,5236.5,0.00023267,0.011843,6.1508e-05,-1286,-0.0005339,-5759.7,0.026998
16794,2.2043,2.3636,0.05,2.2954e-06,22.938,1.7626e-06,13.243,7.0282e-14,1.8609e-05,-1.7626e-06,-13.243,0.029275
16795,2.2043,2.0909,0,0.00052407,5237.1,0.00022734,0.010271,7.2506e-05,-1163.3,-0.00053407,-5720.9,0.029052
16796,2.1125,2.1818,0,0.0005254,5250.4,0.0002311,0.014024,6.6185e-05,-1239.1,-0.00053539,-5759.1,0.026847
16797,2.2043,2.1818,0.05,2.2901e-06,22.886,1.7585e-06,13.213,-1.5618e-13,1.7636e-05,-1.7586e-06,-13.213,0.029115
16798,2.2043,1.9091,0,0.0005265,5261.3,0.00022534,0.016442,7.9008e-05,-1099.4,-0.00053651,-5724.2,0.028822
16799,2.1125,2,0,0.00052732,5269.5,0.00022916,0.018172,7.2118e-05,-1179.9,-0.00053738,-5759.5,0.026653
16800,2.2043,2,0.05,2.2861e-06,22.845,1.7554e-06,13.189,-1.0523e-12,3.3919e-05,-1.7554e-06,-13.189,0.028909
16801,2.2043,1.7273,0,0.0005296,5292.4,0.00022301,0.026426,8.6755e-05,-1023.8,-0.00053953,-5729.5,0.028543
16802,2.1125,1.8182,0,0.00052986,5295,0.00022686,0.025451,7.9341e-05,-1108.4,-0.00053994,-5761.4,0.026412
16803,2.2043,1.8182,0.05,2.284e-06,22.825,1.7539e-06,13.178,7.3022e-12,8.3105e-05,-1.7539e-06,-13.178,0.028656
16804,2.2043,1.5455,0,0.00053348,5331.1,0.0002204,0.041894,9.5733e-05,-936.65,-0.0005432,-5737.4,0.028208
16805,2.1125,1.6364,0,0.00053314,5327.8,0.00022423,0.037416,8.7873e-05,-1024.5,-0.00054313,-5765.6,0.026122
16806,2.2043,1.6364,0.05,2.2844e-06,22.828,1.7541e-06,13.18,2.1569e-12,5.9903e-05,-1.7541e-06,-13.18,0.028349
16807,2.2043,1.3636,0,0.00053821,5378.4,0.00021753,0.064816,0.00010589,-838.76,-0.00054754,-5748.4,0.027813
16808,2.1125,1.4545,0,0.00053727,5369,0.0002213,0.056254,9.77e-05,-928.66,-0.00054701,-5772.8,0.025775
16809,2.2043,1.4545,0.05,2.2861e-06,22.845,1.7554e-06,13.19,1.2934e-12,0.00012726,-1.7555e-06,-13.19,0.027985
16810,2.2043,1.1818,0,0.00054382,5434.5,0.00021446,0.098466,0.00011714,-731.14,-0.00055255,-5763,0.027352
16811,2.1125,1.2727,0,0.00054233,5419.6,0.00021812,0.084332,0.00010877,-821.58,-0.00055162,-5783.4,0.025368
16812,2.2043,1.2727,0.05,2.2868e-06,22.853,1.756e-06,13.194,7.7635e-12,0.0001408,-1.756e-06,-13.194,0.027558
16813,2.2043,1,0,0.00055033,5499.5,0.00021125,0.14473,0.00012933,-615.33,-0.00055821,-5781.2,0.026817
16814,2.1125,1.0909,0,0.00054838,5480,0.00021475,0.12681,0.00012096,-704.56,-0.00055695,-5798.1,0.024892
16815,2.2043,1.0909,0.05,2.2825e-06,22.809,1.7527e-06,13.169,7.5865e-12,0.00012551,-1.7527e-06,-13.169,0.02706
16816,2.2043,0.81818,0,0.00055771,5573.2,0.00020795,0.21948,0.00014227,-493.28,-0.00056445,-5803.3,0.026201
16817,2.1125,0.90909,0,0.0005554,5550.2,0.00021125,0.18357,0.0001341,-579.44,-0.00056298,-5817,0.024341
16818,2.2043,0.90909,0.05,2.2678e-06,22.663,1.7414e-06,13.084,7.8543e-12,0.00016923,-1.7414e-06,-13.084,0.026486
16819,2.2043,0.63636,0,0.00056585,5654.6,0.00020465,0.30354,0.00015573,-367.32,-0.00057119,-5829.1,0.025496
16820,2.1125,0.72727,0,0.00056334,5629.5,0.0002077,0.29001,0.00014796,-448.59,-0.00056962,-5840.2,0.023706
16821,2.2043,0.72727,0.05,2.2377e-06,22.361,1.7182e-06,12.91,2.1181e-11,0.00014357,-1.7182e-06,-12.91,0.025827
16822,2.2043,0.45455,0,0.00057467,5742.8,0.00020144,0.65153,0.00016947,-239.59,-0.00057836,-5858.5,0.024694
16823,2.1125,0.54545,0,0.00057209,5716.9,0.0002042,0.37817,0.00016225,-314.78,-0.00057679,-5867.6,0.02298
16824,2.2043,0.54545,0.05,2.1928e-06,21.913,1.6838e-06,12.651,1.7833e-11,0.00014388,-1.6838e-06,-12.651,0.025074
16825,2.2043,0.27273,0,0.00058458,5841.7,0.00019841,1.4039,0.00018369,-109.19,-0.00058633,-5894.8,0.023785
16826,2.1125,0.36364,0,0.00058157,5811.7,0.00020086,1.0924,0.00017674,-180.17,-0.0005844,-5899.1,0.022151
16827,2.2043,0.36364,0.05,2.1907e-06,21.892,1.6822e-06,12.639,2.032e-11,0.00019172,-1.6822e-06,-12.639,0.024219
16828,2.1125,0.18182,0,0.00059273,5923.3,0.00019807,4.1705,0.00019181,-42.831,-0.00059338,-5942.4,0.021212
16829,2.2043,0.18182,0.05,3.9424e-06,39.397,3.0273e-06,22.746,-5.2698e-13,5.6614e-05,-3.0273e-06,-22.746,0.023252
16830,2.2043,0.090909,0,0.00059016,5897.5,0.00019565,0.93138,0.00019332,-16.639,-0.00059042,-5905.4,0.02276
16831,2.0207,5.7273,0,0.00058969,5892.9,0.00020023,1.659,0.00018518,-111.37,-0.00059148,-5946.9,0.019705
16832,1.9288,5.8182,0,0.00059803,5976.1,0.00019973,5.7003,0.00019383,-38.64,-0.00059857,-5992.5,0.017357
16833,2.0207,5.8182,0.05,4.1685e-06,41.656,3.2009e-06,24.05,1.9317e-14,-5.2256e-05,-3.2009e-06,-24.05,0.0192
16834,2.0207,5.9091,0,0.00059532,5949.1,0.00019719,1.2135,0.00019533,-12.714,-0.00059552,-5954.9,0.018735
16835,2.0207,5.5455,0,0.00057896,5785.6,0.00020361,0.72957,0.00016957,-255.02,-0.00058286,-5908.5,0.02056
16836,1.9288,5.6364,0,0.0005858,5853.9,0.00020272,1.2287,0.00017734,-189.47,-0.00058877,-5945.7,0.018239
16837,2.0207,5.6364,0.05,2.3259e-06,23.243,1.786e-06,13.419,-1.1415e-11,-0.00015065,-1.786e-06,-13.419,0.020112
16838,2.0207,5.3636,0,0.00056955,5691.6,0.00020725,0.3397,0.00015452,-395.8,-0.00057525,-5879,0.021309
16839,1.9288,5.4545,0,0.00057564,5752.4,0.0002065,0.42496,0.00016143,-338.18,-0.00058064,-5913.8,0.019011
16840,2.0207,5.4545,0.05,2.3514e-06,23.497,1.8056e-06,13.566,-1.7638e-11,-0.00010333,-1.8056e-06,-13.566,0.020913
16841,2.0207,5.1818,0,0.000561,5606.2,0.000211,0.24313,0.00013982,-534.56,-0.00056817,-5854.2,0.021962
16842,1.9288,5.2727,0,0.0005664,5660.1,0.0002105,0.31981,0.00014576,-486.1,-0.00057309,-5887.3,0.019683
16843,2.0207,5.2727,0.05,2.405e-06,24.034,1.8468e-06,13.876,-1.1373e-11,-0.00015951,-1.8467e-06,-13.876,0.021613
16844,2.0207,5,0,0.00055341,5530.2,0.00021475,0.15957,0.00012575,-668.55,-0.00056173,-5834,0.022529
16845,1.9288,5.0909,0,0.00055818,5578,0.00021455,0.19986,0.00013064,-630.31,-0.00056622,-5866.2,0.020265
16846,2.0207,5.0909,0.05,2.437e-06,24.353,1.8713e-06,14.06,-1.6919e-11,-9.7589e-05,-1.8713e-06,-14.06,0.022223
16847,2.0207,4.8182,0,0.00054685,5464.8,0.00021841,0.10884,0.00011259,-794.95,-0.00055602,-5818.6,0.023018
16848,1.9288,4.9091,0,0.0005511,5507.2,0.00021856,0.13667,0.00011641,-767.37,-0.00056012,-5850.6,0.020767
16849,2.0207,4.9091,0.05,2.4495e-06,24.478,1.8809e-06,14.132,-1.5112e-11,-9.6032e-05,-1.8809e-06,-14.132,0.02275
16850,2.0207,4.6364,0,0.00054137,5409.9,0.0002219,0.073133,0.00010057,-911.51,-0.00055108,-5807.7,0.023438
16851,1.9288,4.7273,0,0.0005452,5448.3,0.0002224,0.090927,0.00010334,-894.48,-0.00055488,-5840.1,0.021197
16852,2.0207,4.7273,0.05,2.4506e-06,24.49,1.8818e-06,14.139,-2.6834e-13,-7.8361e-05,-1.8818e-06,-14.139,0.023203
16853,2.0207,4.4545,0,0.0005369,5365.3,0.00022514,0.049862,8.9827e-05,-1016.6,-0.00054692,-5800.9,0.023795
16854,1.9288,4.5455,0,0.00054045,5400.8,0.00022601,0.061993,9.1629e-05,-1009.6,-0.0005505,-5834.3,0.021563
16855,2.0207,4.5455,0.05,2.4478e-06,24.461,1.8796e-06,14.123,-6.975e-12,-7.4273e-05,-1.8796e-06,-14.123,0.02359
16856,2.0207,4.2727,0,0.00053337,5330,0.00022808,0.034997,8.0437e-05,-1109.3,-0.00054351,-5797.4,0.024095
16857,1.9288,4.3636,0,0.00053674,5363.7,0.00022932,0.043595,8.1357e-05,-1111.7,-0.00054694,-5832.4,0.021873
16858,2.0207,4.3636,0.05,2.4459e-06,24.442,1.8782e-06,14.112,-9.3172e-14,-3.8367e-05,-1.8781e-06,-14.112,0.023918
16859,2.0207,4.0909,0,0.00053066,5302.9,0.00023069,0.026057,7.2423e-05,-1189.1,-0.00054078,-5796.5,0.024345
16860,1.9288,4.1818,0,0.00053394,5335.7,0.00023227,0.032689,7.2553e-05,-1200,-0.00054413,-5833.6,0.022131
16861,2.0207,4.1818,0.05,2.4474e-06,24.457,1.8793e-06,14.121,-2.0765e-12,-1.3875e-05,-1.8793e-06,-14.121,0.024193
16862,2.0207,3.9091,0,0.00052863,5282.6,0.00023292,0.021024,6.5765e-05,-1255.9,-0.00053867,-5797.4,0.02455
16863,1.9288,4,0,0.00053189,5315.3,0.00023484,0.026625,6.5187e-05,-1274.7,-0.00054198,-5836.7,0.022344
16864,2.0207,4,0.05,2.4527e-06,24.51,1.8834e-06,14.151,-3.0733e-12,-1.2399e-05,-1.8834e-06,-14.151,0.024419
16865,2.0207,3.7273,0,0.00052716,5268,0.00023477,0.018454,6.0419e-05,-1310,-0.00053707,-5799.3,0.024712
16866,1.9288,3.8182,0,0.00053044,5300.7,0.000237,0.023594,5.9202e-05,-1335.9,-0.00054038,-5840.9,0.022515
16867,2.0207,3.8182,0.05,2.4607e-06,24.59,1.8895e-06,14.197,-2.4856e-12,-1.7663e-05,-1.8895e-06,-14.197,0.024602
16868,2.0207,3.5455,0,0.00052614,5257.8,0.00023622,0.017321,5.6335e-05,-1351.6,-0.00053593,-5801.6,0.024835
16869,1.9288,3.6364,0,0.00052945,5290.9,0.00023874,0.02232,5.4527e-05,-1384.1,-0.00053923,-5845.3,0.022648
16870,2.0207,3.6364,0.05,2.4698e-06,24.681,1.8965e-06,14.249,2.496e-13,-1.345e-05,-1.8965e-06,-14.249,0.024744
16871,2.0207,3.3636,0,0.00052548,5251.1,0.00023726,0.016934,5.3459e-05,-1381,-0.00053516,-5803.6,0.024921
16872,1.9288,3.4545,0,0.00052881,5284.4,0.00024004,0.021957,5.1092e-05,-1419.7,-0.00053845,-5849.3,0.022745
16873,2.0207,3.4545,0.05,2.4783e-06,24.765,1.903e-06,14.298,-2.9122e-13,-6.0987e-06,-1.903e-06,-14.298,0.024848
16874,2.0207,3.1818,0,0.00052511,5247.5,0.00023788,0.016858,5.1752e-05,-1398.5,-0.00053472,-5805,0.024972
16875,1.9288,3.2727,0,0.00052843,5280.7,0.00024092,0.021969,4.8838e-05,-1443.2,-0.00053797,-5852.2,0.022809
16876,2.0207,3.2727,0.05,2.4847e-06,24.83,1.908e-06,14.336,-4.9521e-13,-3.6926e-06,-1.908e-06,-14.336,0.024916
16877,2.0207,3,0,0.00052499,5246.3,0.00023809,0.016858,5.1186e-05,-1404.3,-0.00053458,-5805.5,0.024989
16878,1.9288,3.0909,0,0.00052826,5278.9,0.00024135,0.022045,4.7722e-05,-1454.8,-0.00053774,-5853.8,0.022841
16879,2.0207,3.0909,0.05,2.4882e-06,24.865,1.9107e-06,14.356,-1.6345e-13,-1.2552e-06,-1.9107e-06,-14.356,0.02495
16880,2.0207,2.8182,0,0.00052511,5247.5,0.00023788,0.016858,5.1752e-05,-1398.5,-0.00053472,-5805,0.024972
16881,1.9288,2.9091,0,0.00052826,5278.9,0.00024135,0.022045,4.7722e-05,-1454.8,-0.00053774,-5853.8,0.022841
16882,2.0207,2.9091,0.05,2.4882e-06,24.865,1.9107e-06,14.356,1.777e-13,1.2552e-06,-1.9107e-06,-14.356,0.02495
16883,2.0207,2.6364,0,0.00052548,5251.1,0.00023726,0.016934,5.3459e-05,-1381,-0.00053516,-5803.6,0.024921
16884,1.9288,2.7273,0,0.00052843,5280.7,0.00024092,0.021969,4.8838e-05,-1443.2,-0.00053797,-5852.2,0.022809
16885,2.0207,2.7273,0.05,2.4847e-06,24.83,1.908e-06,14.336,-6.3249e-13,4.5997e-06,-1.908e-06,-14.336,0.024916
16886,2.0207,2.4545,0,0.00052614,5257.8,0.00023622,0.017321,5.6334e-05,-1351.6,-0.00053593,-5801.6,0.024835
16887,1.9288,2.5455,0,0.00052881,5284.4,0.00024004,0.021957,5.1092e-05,-1419.7,-0.00053845,-5849.3,0.022745
16888,2.0207,2.5455,0.05,2.4783e-06,24.765,1.903e-06,14.298,-7.1295e-13,8.6422e-06,-1.903e-06,-14.298,0.024848
16889,2.0207,2.2727,0,0.00052716,5268,0.00023477,0.018455,6.0419e-05,-1310,-0.00053707,-5799.3,0.024712
16890,1.9288,2.3636,0,0.00052945,5290.9,0.00023874,0.02232,5.4527e-05,-1384.1,-0.00053923,-5845.3,0.022648
16891,2.0207,2.3636,0.05,2.4698e-06,24.681,1.8965e-06,14.249,-1.0839e-12,1.345e-05,-1.8965e-06,-14.249,0.024744
16892,2.0207,2.0909,0,0.00052863,5282.6,0.00023292,0.021024,6.5765e-05,-1255.9,-0.00053867,-5797.4,0.02455
16893,1.9288,2.1818,0,0.00053044,5300.7,0.000237,0.023594,5.9202e-05,-1335.9,-0.00054038,-5840.9,0.022515
16894,2.0207,2.1818,0.05,2.4607e-06,24.59,1.8895e-06,14.197,-8.8366e-14,9.2195e-06,-1.8895e-06,-14.197,0.024602
16895,2.0207,1.9091,0,0.00053066,5302.9,0.00023069,0.026057,7.2423e-05,-1189.1,-0.00054078,-5796.5,0.024345
16896,1.9288,2,0,0.00053189,5315.3,0.00023484,0.026625,6.5187e-05,-1274.7,-0.00054198,-5836.7,0.022344
16897,2.0207,2,0.05,2.4527e-06,24.51,1.8834e-06,14.151,4.6685e-12,1.2399e-05,-1.8834e-06,-14.151,0.024419
16898,2.0207,1.7273,0,0.00053337,5330,0.00022808,0.034997,8.0437e-05,-1109.3,-0.00054351,-5797.4,0.024095
16899,1.9288,1.8182,0,0.00053394,5335.7,0.00023227,0.032689,7.2553e-05,-1200,-0.00054413,-5833.6,0.022131
16900,2.0207,1.8182,0.05,2.4474e-06,24.457,1.8793e-06,14.121,1.202e-12,4.6041e-05,-1.8793e-06,-14.12,0.024193
16901,2.0207,1.5455,0,0.0005369,5365.3,0.00022514,0.049862,8.9827e-05,-1016.6,-0.00054692,-5800.9,0.023795
16902,1.9288,1.6364,0,0.00053674,5363.7,0.00022932,0.043595,8.1357e-05,-1111.7,-0.00054694,-5832.4,0.021873
16903,2.0207,1.6364,0.05,2.4459e-06,24.442,1.8781e-06,14.112,2.3373e-12,3.8367e-05,-1.8782e-06,-14.112,0.023918
16904,2.0207,1.3636,0,0.00054137,5409.9,0.0002219,0.073133,0.00010057,-911.51,-0.00055108,-5807.7,0.023438
16905,1.9288,1.4545,0,0.00054045,5400.8,0.00022601,0.061993,9.1629e-05,-1009.6,-0.0005505,-5834.3,0.021563
16906,2.0207,1.4545,0.05,2.4478e-06,24.461,1.8796e-06,14.123,1.3087e-11,6.2835e-05,-1.8796e-06,-14.123,0.02359
16907,2.0207,1.1818,0,0.00054685,5464.8,0.00021841,0.10884,0.00011259,-794.95,-0.00055602,-5818.6,0.023018
16908,1.9288,1.2727,0,0.0005452,5448.3,0.0002224,0.090928,0.00010334,-894.48,-0.00055488,-5840.1,0.021197
16909,2.0207,1.2727,0.05,2.4506e-06,24.49,1.8818e-06,14.139,5.1403e-12,0.00015672,-1.8818e-06,-14.139,0.023203
16910,2.0207,1,0,0.00055341,5530.2,0.00021475,0.15957,0.00012575,-668.55,-0.00056173,-5834,0.022529
16911,1.9288,1.0909,0,0.0005511,5507.2,0.00021856,0.13667,0.00011641,-767.37,-0.00056012,-5850.6,0.020767
16912,2.0207,1.0909,0.05,2.4495e-06,24.478,1.8809e-06,14.132,3.918e-12,0.00012251,-1.8809e-06,-14.132,0.02275
16913,2.0207,0.81818,0,0.000561,5606.2,0.000211,0.24313,0.00013982,-534.56,-0.00056817,-5854.2,0.021962
16914,1.9288,0.90909,0,0.00055818,5578,0.00021455,0.19986,0.00013064,-630.31,-0.00056622,-5866.2,0.020265
16915,2.0207,0.90909,0.05,2.437e-06,24.353,1.8713e-06,14.06,4.3576e-12,9.2884e-05,-1.8713e-06,-14.06,0.022223
16916,2.0207,0.63636,0,0.00056955,5691.6,0.00020725,0.3397,0.00015452,-395.8,-0.00057525,-5879,0.021309
16917,1.9288,0.72727,0,0.0005664,5660.1,0.0002105,0.31981,0.00014576,-486.1,-0.00057309,-5887.3,0.019683
16918,2.0207,0.72727,0.05,2.405e-06,24.034,1.8467e-06,13.876,1.1018e-11,0.00020864,-1.8468e-06,-13.876,0.021613
16919,2.0207,0.45455,0,0.00057896,5785.6,0.00020361,0.72957,0.00016957,-255.02,-0.00058286,-5908.5,0.02056
16920,1.9288,0.54545,0,0.00057564,5752.4,0.0002065,0.42496,0.00016143,-338.18,-0.00058064,-5913.8,0.019011
16921,2.0207,0.54545,0.05,2.3514e-06,23.497,1.8055e-06,13.566,1.12e-11,0.00015499,-1.8056e-06,-13.566,0.020913
16922,2.0207,0.27273,0,0.00058969,5892.9,0.00020023,1.659,0.00018518,-111.37,-0.00059148,-5946.9,0.019705
16923,1.9288,0.36364,0,0.0005858,5853.9,0.00020272,1.2287,0.00017734,-189.47,-0.00058877,-5945.7,0.018239
16924,2.0207,0.36364,0.05,2.3259e-06,23.243,1.786e-06,13.419,2.2722e-11,0.00020712,-1.786e-06,-13.419,0.020112
16925,1.9288,0.18182,0,0.00059803,5976.1,0.00019973,5.7003,0.00019383,-38.641,-0.00059857,-5992.5,0.017357
16926,2.0207,0.18182,0.05,4.1685e-06,41.656,3.2009e-06,24.05,-1.9314e-14,6.0873e-05,-3.2009e-06,-24.05,0.0192
16927,2.0207,0.090909,0,0.00059532,5949.1,0.00019719,1.2135,0.00019533,-12.714,-0.00059552,-5954.9,0.018735
16928,1.837,5.7273,0,0.00059409,5936.8,0.00020179,1.9751,0.00018647,-113.17,-0.0005959,-5991.6,0.016018
16929,1.7451,5.8182,0,0.00060251,6021,0.00020117,8.1128,0.00019561,-33.645,-0.00060293,-6033.6,0.013898
16930,1.837,5.8182,0.05,4.3879e-06,43.849,3.3694e-06,25.316,-6.682e-13,-6.664e-05,-3.3694e-06,-25.316,0.015542
16931,1.837,5.9091,0,0.00059972,5993.1,0.00019846,1.8503,0.00019715,-7.9378,-0.00059983,-5996.1,0.015108
16932,1.837,5.5455,0,0.00058244,5820.4,0.0002056,0.81551,0.00016926,-272.23,-0.00058658,-5951.3,0.016813
16933,1.7451,5.6364,0,0.00058908,5886.8,0.00020432,1.3945,0.00017756,-199.69,-0.0005922,-5983.4,0.014716
16934,1.837,5.6364,0.05,2.4949e-06,24.932,1.9158e-06,14.394,-1.9214e-11,-0.00021715,-1.9158e-06,-14.394,0.016394
16935,1.837,5.3636,0,0.00057245,5720.5,0.00020975,0.37569,0.00015271,-428.19,-0.00057852,-5922.4,0.017504
16936,1.7451,5.4545,0,0.00057821,5778.1,0.00020864,0.48683,0.00016,-365.01,-0.00058354,-5951.7,0.015427
16937,1.837,5.4545,0.05,2.5509e-06,25.491,1.9587e-06,14.717,-1.2609e-11,-0.00016984,-1.9587e-06,-14.717,0.017137
16938,1.837,5.1818,0,0.00056353,5631.5,0.00021405,0.26368,0.00013661,-581.65,-0.00057116,-5899.6,0.018101
16939,1.7451,5.2727,0,0.00056852,5681.2,0.00021325,0.36179,0.00014274,-529.4,-0.00057566,-5927.2,0.016039
16940,1.837,5.2727,0.05,2.6115e-06,26.097,2.0053e-06,15.067,-1.9131e-11,-0.00015733,-2.0053e-06,-15.067,0.01778
16941,1.837,5,0,0.00055583,5554.4,0.00021836,0.16983,0.00012131,-729.03,-0.00056462,-5882.8,0.018615
16942,1.7451,5.0909,0,0.00056013,5597.4,0.00021793,0.22683,0.00012622,-688.84,-0.00056865,-5909.9,0.016565
16943,1.837,5.0909,0.05,2.6408e-06,26.39,2.0278e-06,15.236,-2.218e-11,-9.6954e-05,-2.0278e-06,-15.236,0.018335
16944,1.837,4.8182,0,0.0005494,5490.2,0.00022255,0.11427,0.00010716,-866.89,-0.00055898,-5872,0.019056
16945,1.7451,4.9091,0,0.00055318,5527.9,0.00022254,0.1572,0.00011085,-839,-0.00056265,-5899.4,0.017015
16946,1.837,4.9091,0.05,2.6465e-06,26.446,2.0321e-06,15.269,-1.0667e-11,-9.3617e-05,-2.0321e-06,-15.269,0.018811
16947,1.837,4.6364,0,0.00054424,5438.7,0.00022652,0.076726,9.439e-05,-992.7,-0.00055428,-5866.6,0.01943
16948,1.7451,4.7273,0,0.00054766,5472.8,0.00022694,0.10884,9.6942e-05,-976.65,-0.00055769,-5895.3,0.017397
16949,1.837,4.7273,0.05,2.6409e-06,26.391,2.0279e-06,15.237,-1.8134e-11,-7.456e-05,-2.0279e-06,-15.237,0.019217
16950,1.837,4.4545,0,0.00054025,5398.8,0.00023019,0.053532,8.3138e-05,-1104.9,-0.00055049,-5865.7,0.019747
16951,1.7451,4.5455,0,0.00054347,5430.9,0.00023105,0.079899,8.4667e-05,-1099.8,-0.00055375,-5896.6,0.017719
16952,1.837,4.5455,0.05,2.6339e-06,26.321,2.0225e-06,15.197,-2.2815e-12,-4.2137e-05,-2.0225e-06,-15.197,0.019561
16953,1.837,4.2727,0,0.00053728,5369.1,0.00023351,0.039658,7.3444e-05,-1202.6,-0.00054753,-5868.4,0.020012
16954,1.7451,4.3636,0,0.00054043,5400.6,0.00023478,0.062661,7.4078e-05,-1207.4,-0.00055074,-5902,0.01799
16955,1.837,4.3636,0.05,2.6313e-06,26.295,2.0205e-06,15.181,-8.7464e-12,-0.00010759,-2.0205e-06,-15.182,0.019851
16956,1.837,4.0909,0,0.00053515,5347.8,0.00023642,0.032012,6.5282e-05,-1285.9,-0.00054529,-5873.5,0.020231
16957,1.7451,4.1818,0,0.00053834,5379.6,0.00023809,0.053283,6.5145e-05,-1299.4,-0.00054853,-5910.3,0.018215
16958,1.837,4.1818,0.05,2.6349e-06,26.331,2.0233e-06,15.202,2.6658e-13,-1.3911e-05,-2.0233e-06,-15.202,0.020093
16959,1.837,3.9091,0,0.00053368,5333.1,0.00023891,0.028215,5.8586e-05,-1354.9,-0.00054365,-5879.9,0.02041
16960,1.7451,4,0,0.00053697,5366,0.00024095,0.048652,5.778e-05,-1376.2,-0.00054697,-5920.1,0.018399
16961,1.837,4,0.05,2.644e-06,26.421,2.0302e-06,15.254,-8.1099e-13,-2.5017e-05,-2.0302e-06,-15.254,0.020291
16962,1.837,3.7273,0,0.00053271,5323.4,0.00024096,0.026663,5.327e-05,-1410.2,-0.00054249,-5886.6,0.020551
16963,1.7451,3.8182,0,0.00053614,5357.7,0.00024334,0.046772,5.1874e-05,-1438.5,-0.00054592,-5930.1,0.018546
16964,1.837,3.8182,0.05,2.6563e-06,26.544,2.0397e-06,15.325,-6.6156e-14,-2.6998e-05,-2.0397e-06,-15.326,0.02045
16965,1.837,3.5455,0,0.0005321,5317.4,0.00024256,0.026284,4.9244e-05,-1452.5,-0.00054171,-5892.7,0.020658
16966,1.7451,3.6364,0,0.00053568,5353.1,0.00024525,0.046329,4.7311e-05,-1487.2,-0.00054524,-5939.4,0.01866
16967,1.837,3.6364,0.05,2.6695e-06,26.676,2.0498e-06,15.401,-6.9265e-13,-6.213e-06,-2.0498e-06,-15.401,0.020574
16968,1.837,3.3636,0,0.00053175,5313.8,0.0002437,0.026401,4.643e-05,-1482.2,-0.00054121,-5897.5,0.020732
16969,1.7451,3.4545,0,0.00053544,5350.7,0.00024669,0.046516,4.3987e-05,-1522.9,-0.00054483,-5947.1,0.018744
16970,1.837,3.4545,0.05,2.6813e-06,26.794,2.0589e-06,15.47,-8.0228e-13,-5.9823e-06,-2.0589e-06,-15.47,0.020664
16971,1.837,3.1818,0,0.00053157,5312,0.00024439,0.026611,4.4767e-05,-1499.8,-0.00054094,-5900.6,0.020776
16972,1.7451,3.2727,0,0.00053534,5349.7,0.00024764,0.046853,4.182e-05,-1546.4,-0.0005446,-5952.5,0.018798
16973,1.837,3.2727,0.05,2.6901e-06,26.882,2.0656e-06,15.52,-5.11e-13,-3.3841e-06,-2.0656e-06,-15.52,0.020723
16974,1.837,3,0,0.00053151,5311.4,0.00024462,0.026702,4.4217e-05,-1505.7,-0.00054086,-5901.7,0.020791
16975,1.7451,3.0909,0,0.0005353,5349.4,0.00024812,0.047078,4.0751e-05,-1558,-0.0005445,-5955.4,0.018825
16976,1.837,3.0909,0.05,2.6947e-06,26.929,2.0692e-06,15.547,-1.0653e-12,-1.2061e-06,-2.0692e-06,-15.547,0.020752
16977,1.837,2.8182,0,0.00053157,5312,0.00024439,0.026611,4.4767e-05,-1499.8,-0.00054094,-5900.6,0.020776
16978,1.7451,2.9091,0,0.0005353,5349.4,0.00024812,0.047078,4.0751e-05,-1558,-0.0005445,-5955.4,0.018825
16979,1.837,2.9091,0.05,2.6947e-06,26.929,2.0692e-06,15.547,-7.5306e-13,1.2061e-06,-2.0692e-06,-15.547,0.020752
16980,1.837,2.6364,0,0.00053175,5313.8,0.0002437,0.026401,4.643e-05,-1482.2,-0.00054121,-5897.5,0.020732
16981,1.7451,2.7273,0,0.00053534,5349.7,0.00024764,0.046853,4.182e-05,-1546.4,-0.0005446,-5952.5,0.018798
16982,1.837,2.7273,0.05,2.6901e-06,26.882,2.0657e-06,15.52,-2.5975e-13,5.3422e-06,-2.0656e-06,-15.52,0.020723
16983,1.837,2.4545,0,0.0005321,5317.4,0.00024256,0.026284,4.9244e-05,-1452.5,-0.00054171,-5892.7,0.020658
16984,1.7451,2.5455,0,0.00053544,5350.7,0.00024669,0.046516,4.3987e-05,-1522.9,-0.00054483,-5947.1,0.018744
16985,1.837,2.5455,0.05,2.6813e-06,26.794,2.0589e-06,15.47,-9.4389e-13,8.4254e-06,-2.0589e-06,-15.47,0.020664
16986,1.837,2.2727,0,0.00053271,5323.4,0.00024096,0.026663,5.327e-05,-1410.2,-0.00054249,-5886.6,0.020551
16987,1.7451,2.3636,0,0.00053568,5353.1,0.00024525,0.046329,4.7311e-05,-1487.2,-0.00054524,-5939.4,0.01866
16988,1.837,2.3636,0.05,2.6695e-06,26.676,2.0498e-06,15.401,-3.9781e-13,5.5283e-05,-2.0498e-06,-15.401,0.020574
16989,1.837,2.0909,0,0.00053368,5333.1,0.00023891,0.028215,5.8586e-05,-1354.9,-0.00054365,-5879.9,0.02041
16990,1.7451,2.1818,0,0.00053614,5357.7,0.00024334,0.046772,5.1874e-05,-1438.5,-0.00054592,-5930.1,0.018546
16991,1.837,2.1818,0.05,2.6563e-06,26.544,2.0397e-06,15.325,-1.1131e-12,1.7417e-05,-2.0397e-06,-15.325,0.02045
16992,1.837,1.9091,0,0.00053515,5347.8,0.00023642,0.032012,6.5282e-05,-1285.9,-0.00054529,-5873.5,0.020231
16993,1.7451,2,0,0.00053697,5366,0.00024095,0.048652,5.778e-05,-1376.2,-0.00054697,-5920.1,0.018399
16994,1.837,2,0.05,2.644e-06,26.421,2.0302e-06,15.254,3.474e-12,3.7664e-05,-2.0302e-06,-15.254,0.020291
16995,1.837,1.7273,0,0.00053728,5369.1,0.00023351,0.039659,7.3444e-05,-1202.6,-0.00054753,-5868.4,0.020012
16996,1.7451,1.8182,0,0.00053834,5379.6,0.00023809,0.053283,6.5145e-05,-1299.4,-0.00054853,-5910.3,0.018215
16997,1.837,1.8182,0.05,2.6349e-06,26.331,2.0233e-06,15.202,1.2347e-12,4.9864e-05,-2.0233e-06,-15.202,0.020093
16998,1.837,1.5455,0,0.00054025,5398.8,0.00023019,0.053532,8.3138e-05,-1104.9,-0.00055049,-5865.7,0.019747
16999,1.7451,1.6364,0,0.00054043,5400.6,0.00023478,0.062661,7.4078e-05,-1207.4,-0.00055074,-5902,0.01799
17000,1.837,1.6364,0.05,2.6313e-06,26.295,2.0205e-06,15.182,-1.5238e-12,2.4151e-05,-2.0205e-06,-15.182,0.019851
17001,1.837,1.3636,0,0.00054424,5438.7,0.00022652,0.076727,9.439e-05,-992.7,-0.00055428,-5866.6,0.01943
17002,1.7451,1.4545,0,0.00054347,5430.9,0.00023105,0.079899,8.4667e-05,-1099.8,-0.00055375,-5896.6,0.017719
17003,1.837,1.4545,0.05,2.6339e-06,26.321,2.0225e-06,15.197,1.0992e-11,0.00011111,-2.0225e-06,-15.197,0.019561
17004,1.837,1.1818,0,0.0005494,5490.2,0.00022255,0.11427,0.00010716,-866.89,-0.00055898,-5872,0.019056
17005,1.7451,1.2727,0,0.00054766,5472.8,0.00022694,0.10884,9.6942e-05,-976.65,-0.00055769,-5895.3,0.017397
17006,1.837,1.2727,0.05,2.6409e-06,26.391,2.0279e-06,15.237,8.5381e-12,0.000164,-2.0279e-06,-15.237,0.019217
17007,1.837,1,0,0.00055583,5554.4,0.00021836,0.16983,0.00012131,-729.03,-0.00056462,-5882.8,0.018615
17008,1.7451,1.0909,0,0.00055318,5527.9,0.00022254,0.1572,0.00011085,-839,-0.00056265,-5899.4,0.017015
17009,1.837,1.0909,0.05,2.6465e-06,26.446,2.0321e-06,15.269,1.965e-11,0.00013004,-2.0322e-06,-15.269,0.018811
17010,1.837,0.81818,0,0.00056353,5631.5,0.00021405,0.26368,0.00013661,-581.65,-0.00057116,-5899.6,0.018101
17011,1.7451,0.90909,0,0.00056013,5597.4,0.00021793,0.22683,0.00012622,-688.84,-0.00056865,-5909.9,0.016565
17012,1.837,0.90909,0.05,2.6408e-06,26.39,2.0278e-06,15.236,4.2818e-12,0.00020008,-2.0278e-06,-15.236,0.018335
17013,1.837,0.63636,0,0.00057245,5720.5,0.00020975,0.37569,0.00015271,-428.19,-0.00057852,-5922.4,0.017504
17014,1.7451,0.72727,0,0.00056852,5681.2,0.00021325,0.36179,0.00014274,-529.4,-0.00057566,-5927.2,0.016039
17015,1.837,0.72727,0.05,2.6115e-06,26.097,2.0053e-06,15.067,1.8619e-11,0.00020977,-2.0053e-06,-15.067,0.01778
17016,1.837,0.45455,0,0.00058244,5820.4,0.0002056,0.81551,0.00016926,-272.23,-0.00058658,-5951.3,0.016813
17017,1.7451,0.54545,0,0.00057821,5778.1,0.00020864,0.48683,0.00016,-365.01,-0.00058354,-5951.7,0.015427
17018,1.837,0.54545,0.05,2.5509e-06,25.491,1.9587e-06,14.717,2.557e-11,0.00022495,-1.9587e-06,-14.717,0.017137
17019,1.837,0.27273,0,0.00059409,5936.8,0.00020179,1.9751,0.00018647,-113.17,-0.0005959,-5991.6,0.016018
17020,1.7451,0.36364,0,0.00058908,5886.8,0.00020432,1.3945,0.00017756,-199.69,-0.0005922,-5983.4,0.014716
17021,1.837,0.36364,0.05,2.4949e-06,24.932,1.9158e-06,14.394,2.5082e-11,0.00021715,-1.9158e-06,-14.394,0.016394
17022,1.7451,0.18182,0,0.00060251,6021,0.00020117,8.1128,0.00019561,-33.645,-0.00060293,-6033.6,0.013898
17023,1.837,0.18182,0.05,4.3879e-06,43.849,3.3694e-06,25.316,2.6542e-12,6.664e-05,-3.3693e-06,-25.316,0.015542
17024,1.837,0.090909,0,0.00059972,5993.1,0.00019846,1.8503,0.00019715,-7.9378,-0.00059983,-5996.1,0.015108
17025,1.6533,5.7273,0,0.00059745,5970.4,0.00020301,2.3858,0.00018743,-114.7,-0.00059928,-6025.7,0.012724
17026,1.5614,5.8182,0,0.00060582,6054.1,0.00020232,12.053,0.00019696,-28.222,-0.00060609,-6062,0.010835
17027,1.6533,5.8182,0.05,4.5934e-06,45.903,3.5272e-06,26.502,-3.8505e-12,-7.4668e-05,-3.5272e-06,-26.502,0.012281
17028,1.6533,5.9091,0,0.00060304,6026.3,0.0001995,4.0241,0.00019854,-3.2251,-0.00060303,-6025.9,0.01188
17029,1.6533,5.5455,0,0.00058481,5844,0.00020735,0.93271,0.00016836,-291.99,-0.00058921,-5984,0.013453
17030,1.5614,5.6364,0,0.00059104,5906.3,0.00020555,1.5702,0.00017721,-211.41,-0.00059432,-6008.3,0.011585
17031,1.6533,5.6364,0.05,2.7168e-06,27.149,2.0862e-06,15.675,-2.0278e-11,-6.1211e-05,-2.0862e-06,-15.675,0.013068
17032,1.6533,5.3636,0,0.00057422,5738.3,0.00021214,0.43794,0.00015007,-465.9,-0.00058072,-5956.8,0.014081
17033,1.5614,5.4545,0,0.00057942,5790.2,0.00021057,0.53108,0.00015769,-396.73,-0.00058513,-5978,0.012228
17034,1.6533,5.4545,0.05,2.8096e-06,28.077,2.1575e-06,16.21,-2.0383e-11,-0.00023533,-2.1574e-06,-16.21,0.013745
17035,1.6533,5.1818,0,0.00056505,5646.6,0.00021713,0.30968,0.00013238,-636.4,-0.00057317,-5937.7,0.014618
17036,1.5614,5.2727,0,0.00056936,5689.7,0.00021594,0.37756,0.00013862,-580.61,-0.000577,-5957.5,0.012777
17037,1.6533,5.2727,0.05,2.8714e-06,28.694,2.2049e-06,16.567,-1.9823e-11,-0.00022591,-2.2049e-06,-16.567,0.014327
17038,1.6533,5,0,0.00055742,5570.3,0.00022211,0.20576,0.00011577,-798.76,-0.00056669,-5926.5,0.015076
17039,1.5614,5.0909,0,0.00056101,5606.2,0.0002214,0.22297,0.00012056,-757.44,-0.00057004,-5946.3,0.013242
17040,1.6533,5.0909,0.05,2.8895e-06,28.875,2.2188e-06,16.671,-1.1993e-11,-0.0001136,-2.2188e-06,-16.671,0.014823
17041,1.6533,4.8182,0,0.00055137,5509.9,0.00022693,0.14649,0.00010063,-948.83,-0.00056134,-5922.6,0.015464
17042,1.5614,4.9091,0,0.00055447,5540.9,0.00022674,0.14512,0.00010403,-921.79,-0.00056436,-5943.9,0.013636
17043,1.6533,4.9091,0.05,2.8805e-06,28.785,2.2119e-06,16.619,3.629e-13,-5.218e-05,-2.2119e-06,-16.619,0.015245
17044,1.6533,4.6364,0,0.00054682,5464.5,0.00023147,0.10845,8.7198e-05,-1083.9,-0.00055713,-5925.1,0.015792
17045,1.5614,4.7273,0,0.00054966,5492.8,0.0002318,0.093594,8.9371e-05,-1070.1,-0.00055998,-5949,0.013967
17046,1.6533,4.7273,0.05,2.8629e-06,28.61,2.1984e-06,16.518,-4.2313e-13,-0.00012359,-2.1984e-06,-16.518,0.015601
17047,1.6533,4.4545,0,0.00054359,5432.2,0.00023563,0.086516,7.5576e-05,-1202.5,-0.00055396,-5932.6,0.016067
17048,1.5614,4.5455,0,0.00054637,5460,0.00023647,0.064453,7.6696e-05,-1200.4,-0.0005568,-5960.2,0.014245
17049,1.6533,4.5455,0.05,2.8493e-06,28.474,2.1879e-06,16.439,8.5646e-13,-7.4267e-05,-2.1879e-06,-16.439,0.015901
17050,1.6533,4.2727,0,0.00054144,5410.7,0.00023936,0.074458,6.5742e-05,-1304.4,-0.0005517,-5943.6,0.016295
17051,1.5614,4.3636,0,0.00054432,5439.5,0.00024068,0.0481,6.5989e-05,-1312.5,-0.00055463,-5975.6,0.014476
17052,1.6533,4.3636,0.05,2.8453e-06,28.433,2.1848e-06,16.416,4.142e-13,-8.3871e-05,-2.1848e-06,-16.416,0.016152
17053,1.6533,4.0909,0,0.00054013,5397.5,0.00024261,0.068558,5.7602e-05,-1390,-0.00055017,-5956.6,0.016484
17054,1.5614,4.1818,0,0.00054321,5428.3,0.00024438,0.039773,5.7131e-05,-1406.8,-0.00055328,-5993.2,0.014666
17055,1.6533,4.1818,0.05,2.851e-06,28.491,2.1892e-06,16.449,-3.8641e-14,-1.0392e-05,-2.1892e-06,-16.449,0.01636
17056,1.6533,3.9091,0,0.00053941,5390.4,0.00024537,0.066158,5.1026e-05,-1460.2,-0.00054919,-5970,0.016636
17057,1.5614,4,0,0.00054275,5423.8,0.00024754,0.035946,4.9957e-05,-1484.5,-0.00055254,-6011.5,0.014821
17058,1.6533,4,0.05,2.864e-06,28.62,2.1992e-06,16.524,-1.4659e-12,-4.9014e-05,-2.1992e-06,-16.524,0.016529
17059,1.6533,3.7273,0,0.00053909,5387.1,0.00024763,0.065602,4.5873e-05,-1515.8,-0.00054862,-5982.6,0.016755
17060,1.5614,3.8182,0,0.00054271,5423.4,0.00025017,0.034537,4.4292e-05,-1546.9,-0.00055221,-6028.7,0.014945
17061,1.6533,3.8182,0.05,2.8805e-06,28.785,2.2119e-06,16.619,-9.7614e-13,-8.9656e-06,-2.2119e-06,-16.619,0.016664
17062,1.6533,3.5455,0,0.000539,5386.3,0.00024938,0.065869,4.2012e-05,-1558,-0.00054831,-5993.5,0.016846
17063,1.5614,3.6364,0,0.0005429,5425.2,0.00025226,0.034291,3.9971e-05,-1595,-0.00055214,-6043.9,0.01504
17064,1.6533,3.6364,0.05,2.8974e-06,28.954,2.2249e-06,16.717,2.9936e-13,-7.0592e-06,-2.2249e-06,-16.717,0.016769
17065,1.6533,3.3636,0,0.00053902,5386.5,0.00025062,0.066367,3.9336e-05,-1587.5,-0.00054817,-6001.8,0.016909
17066,1.5614,3.4545,0,0.00054315,5427.8,0.00025382,0.034505,3.6855e-05,-1630.2,-0.00055219,-6056,0.01511
17067,1.6533,3.4545,0.05,2.9121e-06,29.101,2.2361e-06,16.801,-1.0495e-12,-5.0697e-06,-2.2361e-06,-16.801,0.016845
17068,1.6533,3.1818,0,0.00053907,5386.9,0.00025137,0.066769,3.7763e-05,-1604.9,-0.00054811,-6007,0.016946
17069,1.5614,3.2727,0,0.00054338,5430.1,0.00025486,0.0348,3.4838e-05,-1653.1,-0.00055228,-6064.5,0.015155
17070,1.6533,3.2727,0.05,2.9227e-06,29.207,2.2443e-06,16.863,-4.6712e-13,-2.83e-06,-2.2443e-06,-16.863,0.016895
17071,1.6533,3,0,0.00053909,5387.2,0.00025162,0.066919,3.7245e-05,-1610.7,-0.0005481,-6008.7,0.016958
17072,1.5614,3.0909,0,0.00054351,5431.4,0.00025538,0.034986,3.3848e-05,-1664.4,-0.00055233,-6068.8,0.015177
17073,1.6533,3.0909,0.05,2.9283e-06,29.263,2.2486e-06,16.895,-5.9905e-13,-1.089e-06,-2.2486e-06,-16.895,0.01692
17074,1.6533,2.8182,0,0.00053907,5386.9,0.00025137,0.066769,3.7763e-05,-1604.9,-0.00054811,-6007,0.016946
17075,1.5614,2.9091,0,0.00054351,5431.4,0.00025538,0.034986,3.3848e-05,-1664.4,-0.00055233,-6068.8,0.015177
17076,1.6533,2.9091,0.05,2.9283e-06,29.263,2.2486e-06,16.895,-7.6321e-13,1.6326e-05,-2.2486e-06,-16.895,0.01692
17077,1.6533,2.6364,0,0.00053902,5386.5,0.00025062,0.066367,3.9336e-05,-1587.5,-0.00054817,-6001.8,0.016909
17078,1.5614,2.7273,0,0.00054338,5430.1,0.00025486,0.0348,3.4838e-05,-1653.1,-0.00055228,-6064.5,0.015155
17079,1.6533,2.7273,0.05,2.9227e-06,29.207,2.2443e-06,16.863,-9.3101e-13,3.4831e-06,-2.2443e-06,-16.863,0.016895
17080,1.6533,2.4545,0,0.000539,5386.3,0.00024938,0.065869,4.2012e-05,-1558,-0.00054831,-5993.5,0.016846
17081,1.5614,2.5455,0,0.00054315,5427.8,0.00025382,0.034505,3.6855e-05,-1630.2,-0.00055219,-6056,0.01511
17082,1.6533,2.5455,0.05,2.9121e-06,29.101,2.2361e-06,16.801,-1.8474e-13,2.2767e-05,-2.2361e-06,-16.801,0.016845
17083,1.6533,2.2727,0,0.00053909,5387.1,0.00024763,0.065602,4.5873e-05,-1515.8,-0.00054862,-5982.6,0.016755
17084,1.5614,2.3636,0,0.0005429,5425.2,0.00025226,0.034291,3.9971e-05,-1595,-0.00055214,-6043.9,0.01504
17085,1.6533,2.3636,0.05,2.8974e-06,28.954,2.2249e-06,16.717,-8.9017e-13,1.7296e-05,-2.2249e-06,-16.717,0.016769
17086,1.6533,2.0909,0,0.00053941,5390.4,0.00024537,0.066158,5.1026e-05,-1460.2,-0.00054919,-5970,0.016636
17087,1.5614,2.1818,0,0.00054271,5423.4,0.00025017,0.034537,4.4292e-05,-1546.9,-0.00055221,-6028.7,0.014945
17088,1.6533,2.1818,0.05,2.8805e-06,28.785,2.2119e-06,16.619,-1.1537e-12,4.7242e-05,-2.2119e-06,-16.619,0.016664
17089,1.6533,1.9091,0,0.00054013,5397.5,0.00024261,0.068558,5.7602e-05,-1390,-0.00055017,-5956.6,0.016484
17090,1.5614,2,0,0.00054275,5423.8,0.00024754,0.035946,4.9957e-05,-1484.5,-0.00055254,-6011.5,0.014821
17091,1.6533,2,0.05,2.864e-06,28.62,2.1992e-06,16.524,2.2019e-12,2.449e-05,-2.1992e-06,-16.524,0.016529
17092,1.6533,1.7273,0,0.00054144,5410.7,0.00023936,0.074459,6.5742e-05,-1304.4,-0.0005517,-5943.6,0.016295
17093,1.5614,1.8182,0,0.00054321,5428.3,0.00024438,0.039773,5.7131e-05,-1406.8,-0.00055328,-5993.2,0.014666
17094,1.6533,1.8182,0.05,2.851e-06,28.491,2.1892e-06,16.449,5.4131e-12,6.3595e-05,-2.1892e-06,-16.449,0.01636
17095,1.6533,1.5455,0,0.00054359,5432.2,0.00023563,0.086516,7.5576e-05,-1202.5,-0.00055396,-5932.6,0.016067
17096,1.5614,1.6364,0,0.00054432,5439.5,0.00024068,0.048101,6.5989e-05,-1312.5,-0.00055463,-5975.6,0.014476
17097,1.6533,1.6364,0.05,2.8453e-06,28.433,2.1848e-06,16.416,8.2491e-12,4.4625e-05,-2.1848e-06,-16.416,0.016152
17098,1.6533,1.3636,0,0.00054682,5464.5,0.00023147,0.10845,8.7197e-05,-1083.9,-0.00055713,-5925.1,0.015792
17099,1.5614,1.4545,0,0.00054637,5460,0.00023647,0.064453,7.6696e-05,-1200.4,-0.0005568,-5960.2,0.014245
17100,1.6533,1.4545,0.05,2.8493e-06,28.474,2.1879e-06,16.439,7.1009e-12,4.2853e-05,-2.1879e-06,-16.439,0.015901
17101,1.6533,1.1818,0,0.00055137,5509.9,0.00022693,0.14649,0.00010063,-948.83,-0.00056134,-5922.6,0.015464
17102,1.5614,1.2727,0,0.00054966,5492.8,0.0002318,0.093594,8.9371e-05,-1070.1,-0.00055998,-5949,0.013967
17103,1.6533,1.2727,0.05,2.8629e-06,28.61,2.1984e-06,16.518,1.3948e-11,9.2188e-05,-2.1984e-06,-16.518,0.015601
17104,1.6533,1,0,0.00055742,5570.3,0.00022211,0.20576,0.00011577,-798.76,-0.00056669,-5926.5,0.015076
17105,1.5614,1.0909,0,0.00055447,5540.9,0.00022674,0.14512,0.00010403,-921.79,-0.00056436,-5943.9,0.013636
17106,1.6533,1.0909,0.05,2.8805e-06,28.785,2.2119e-06,16.619,2.1121e-11,0.00019073,-2.2119e-06,-16.619,0.015245
17107,1.6533,0.81818,0,0.00056505,5646.6,0.00021713,0.30968,0.00013238,-636.4,-0.00057317,-5937.7,0.014618
17108,1.5614,0.90909,0,0.00056101,5606.2,0.0002214,0.22297,0.00012056,-757.44,-0.00057004,-5946.3,0.013242
17109,1.6533,0.90909,0.05,2.8895e-06,28.875,2.2188e-06,16.671,2.4197e-11,0.00015356,-2.2188e-06,-16.671,0.014823
17110,1.6533,0.63636,0,0.00057422,5738.3,0.00021214,0.43794,0.00015007,-465.9,-0.00058072,-5956.8,0.014081
17111,1.5614,0.72727,0,0.00056936,5689.7,0.00021594,0.37756,0.00013862,-580.61,-0.000577,-5957.5,0.012777
17112,1.6533,0.72727,0.05,2.8714e-06,28.694,2.2049e-06,16.567,1.9127e-11,0.00011517,-2.2049e-06,-16.567,0.014327
17113,1.6533,0.45455,0,0.00058481,5844,0.00020735,0.93271,0.00016836,-291.99,-0.00058921,-5984,0.013453
17114,1.5614,0.54545,0,0.00057942,5790.2,0.00021057,0.53108,0.00015769,-396.73,-0.00058513,-5978,0.012228
17115,1.6533,0.54545,0.05,2.8096e-06,28.077,2.1574e-06,16.21,2.7692e-11,0.00023202,-2.1575e-06,-16.21,0.013745
17116,1.6533,0.27273,0,0.00059745,5970.4,0.00020301,2.3858,0.00018743,-114.7,-0.00059928,-6025.7,0.012724
17117,1.5614,0.36364,0,0.00059104,5906.3,0.00020555,1.5702,0.00017721,-211.41,-0.00059432,-6008.3,0.011585
17118,1.6533,0.36364,0.05,2.7168e-06,27.149,2.0862e-06,15.675,2.0085e-11,0.00023457,-2.0862e-06,-15.675,0.013068
17119,1.5614,0.18182,0,0.00060582,6054.1,0.00020232,12.053,0.00019696,-28.222,-0.00060609,-6062,0.010835
17120,1.6533,0.18182,0.05,4.5934e-06,45.903,3.5272e-06,26.502,2.0387e-12,7.4668e-05,-3.5272e-06,-26.502,0.012281
17121,1.6533,0.090909,0,0.00060304,6026.3,0.0001995,4.0241,0.00019854,-3.2251,-0.00060303,-6025.9,0.01188
17122,1.4696,5.7273,0,0.00059934,5989.3,0.00020375,2.8672,0.0001879,-116.2,-0.00060118,-6045,0.0098236
17123,1.3777,5.8182,0,0.00060744,6070.2,0.00020314,18.578,0.00019761,-23.033,-0.0006075,-6072.3,0.0081704
17124,1.4696,5.8182,0.05,4.7763e-06,47.73,3.6676e-06,27.557,-1.6098e-12,-8.6226e-05,-3.6676e-06,-27.557,0.0094179
17125,1.4696,5.9091,0,0.00060483,6044.2,0.00020051,10.406,0.000199,-0.94697,-0.00060467,-6039.4,0.0090532
17126,1.4696,5.5455,0,0.00058559,5851.9,0.00020875,1.0036,0.00016661,-315.58,-0.0005903,-6002.7,0.010482
17127,1.3777,5.6364,0,0.00059111,5907,0.00020629,1.8687,0.00017601,-225.59,-0.00059458,-6015.6,0.0088446
17128,1.4696,5.6364,0.05,3.0232e-06,30.211,2.3214e-06,17.442,-2.1498e-11,-0.00018074,-2.3214e-06,-17.442,0.010132
17129,1.4696,5.3636,0,0.00057448,5740.8,0.00021437,0.42856,0.00014629,-511.1,-0.00058145,-5979,0.011041
17130,1.3777,5.4545,0,0.00057875,5783.5,0.00021221,0.70105,0.00015415,-435.56,-0.00058491,-5988.6,0.0094147
17131,1.4696,5.4545,0.05,3.155e-06,31.528,2.4226e-06,18.203,-2.1353e-11,-0.00024015,-2.4226e-06,-18.203,0.01074
17132,1.4696,5.1818,0,0.00056523,5648.4,0.00022021,0.2725,0.00012681,-701.5,-0.00057388,-5966.2,0.011514
17133,1.3777,5.2727,0,0.00056851,5681.2,0.00021859,0.52723,0.00013297,-642.81,-0.0005767,-5975,0.0098942
17134,1.4696,5.2727,0.05,3.2045e-06,32.023,2.4606e-06,18.488,-2.0712e-11,-0.00012236,-2.4606e-06,-18.488,0.011254
17135,1.4696,5,0,0.00055797,5575.9,0.00022603,0.1522,0.00010882,-880.5,-0.00056771,-5963.7,0.011912
17136,1.3777,5.0909,0,0.00056054,5601.6,0.00022502,0.35971,0.00011326,-839.39,-0.00057007,-5973.7,0.010296
17137,1.4696,5.0909,0.05,3.1959e-06,31.937,2.454e-06,18.439,-7.0062e-12,-0.00022889,-2.454e-06,-18.439,0.011688
17138,1.4696,4.8182,0,0.00055268,5523,0.00023161,0.085937,9.2756e-05,-1043.2,-0.00056298,-5970.1,0.012246
17139,1.3777,4.9091,0,0.00055487,5544.9,0.00023125,0.28014,9.5644e-05,-1018.6,-0.00056512,-5983.4,0.010631
17140,1.4696,4.9091,0.05,3.16e-06,31.578,2.4265e-06,18.232,-1.0995e-11,-9.4471e-05,-2.4265e-06,-18.232,0.012053
17141,1.4696,4.6364,0,0.00054914,5487.6,0.0002368,0.045433,7.8834e-05,-1186.9,-0.00055961,-5983.9,0.012525
17142,1.3777,4.7273,0,0.00055126,5508.8,0.00023709,0.23079,8.0424e-05,-1176.9,-0.00056175,-6002,0.01091
17143,1.4696,4.7273,0.05,3.1234e-06,31.213,2.3984e-06,18.021,-9.038e-12,-9.1877e-05,-2.3984e-06,-18.021,0.012358
17144,1.4696,4.4545,0,0.00054705,5466.7,0.00024152,0.023175,6.7066e-05,-1310.8,-0.00055742,-6002.9,0.012757
17145,1.3777,4.5455,0,0.00054933,5489.5,0.0002424,0.20538,6.7621e-05,-1313,-0.00055974,-6026.8,0.011141
17146,1.4696,4.5455,0.05,3.1003e-06,30.981,2.3806e-06,17.887,-1.176e-11,-7.061e-05,-2.3806e-06,-17.887,0.012612
17147,1.4696,4.2727,0,0.00054604,5456.7,0.0002457,0.011391,5.7331e-05,-1415.3,-0.00055617,-6024.9,0.012948
17148,1.3777,4.3636,0,0.00054865,5482.7,0.00024713,0.19244,5.7085e-05,-1427.7,-0.0005588,-6055.2,0.011332
17149,1.4696,4.3636,0.05,3.094e-06,30.919,2.3758e-06,17.851,-2.2177e-12,-5.4948e-05,-2.3758e-06,-17.851,0.012823
17150,1.4696,4.0909,0,0.0005458,5454.2,0.00024931,0.0056906,4.9439e-05,-1501.7,-0.00055561,-6047.8,0.013105
17151,1.3777,4.1818,0,0.00054883,5484.5,0.00025123,0.18665,4.8574e-05,-1522.5,-0.00055862,-6084.7,0.011488
17152,1.4696,4.1818,0.05,3.1016e-06,30.995,2.3817e-06,17.895,-2.0209e-12,-3.0707e-05,-2.3817e-06,-17.895,0.012996
17153,1.4696,3.9091,0,0.00054603,5456.6,0.00025234,0.0032223,4.3178e-05,-1571.6,-0.00055551,-6069.9,0.013231
17154,1.3777,4,0,0.00054951,5491.3,0.00025471,0.18441,4.1826e-05,-1599.3,-0.00055894,-6113.3,0.011615
17155,1.4696,4,0.05,3.1178e-06,31.157,2.3941e-06,17.988,-1.9788e-12,-2.0514e-05,-2.3941e-06,-17.988,0.013136
17156,1.4696,3.7273,0,0.0005465,5461.3,0.00025481,0.0023687,3.8347e-05,-1626.4,-0.00055568,-6089.7,0.013329
17157,1.3777,3.8182,0,0.00055042,5500.4,0.00025757,0.18384,3.6591e-05,-1660.2,-0.00055952,-6139.1,0.011715
17158,1.4696,3.8182,0.05,3.1374e-06,31.353,2.4092e-06,18.102,4.1783e-13,-7.4408e-06,-2.4092e-06,-18.102,0.013248
17159,1.4696,3.5455,0,0.00054703,5466.6,0.00025671,0.0022306,3.4773e-05,-1667.5,-0.00055597,-6106.1,0.013403
17160,1.3777,3.6364,0,0.00055136,5509.8,0.00025984,0.18395,3.2655e-05,-1706.8,-0.00056018,-6161.1,0.011792
17161,1.4696,3.6364,0.05,3.1566e-06,31.544,2.4239e-06,18.212,-7.7453e-14,-1.0043e-05,-2.4239e-06,-18.212,0.013334
17162,1.4696,3.3636,0,0.0005475,5471.2,0.00025806,0.0023415,3.2318e-05,-1696.1,-0.00055625,-6118.4,0.013455
17163,1.3777,3.4545,0,0.00055219,5518,0.00026152,0.18424,2.9849e-05,-1740.5,-0.00056079,-6178.3,0.011848
17164,1.4696,3.4545,0.05,3.1727e-06,31.705,2.4363e-06,18.305,3.0131e-13,-4.4963e-06,-2.4363e-06,-18.305,0.013396
17165,1.4696,3.1818,0,0.00054781,5474.3,0.00025886,0.0024731,3.0884e-05,-1713,-0.00055646,-6126,0.013485
17166,1.3777,3.2727,0,0.00055279,5524,0.00026263,0.1845,2.8047e-05,-1762.4,-0.00056124,-6190.1,0.011884
17167,1.4696,3.2727,0.05,3.1842e-06,31.82,2.445e-06,18.371,-3.7038e-13,-3.107e-06,-2.445e-06,-18.371,0.013437
17168,1.4696,3,0,0.00054792,5475.4,0.00025913,0.0025261,3.0412e-05,-1718.5,-0.00055653,-6128.5,0.013495
17169,1.3777,3.0909,0,0.0005531,5527.2,0.00026318,0.18465,2.7166e-05,-1773.2,-0.00056148,-6196,0.011902
17170,1.4696,3.0909,0.05,3.1901e-06,31.879,2.4496e-06,18.405,-3.5653e-13,-9.0266e-07,-2.4496e-06,-18.405,0.013457
17171,1.4696,2.8182,0,0.00054781,5474.3,0.00025886,0.002473,3.0884e-05,-1713,-0.00055646,-6126,0.013485
17172,1.3777,2.9091,0,0.0005531,5527.2,0.00026318,0.18465,2.7166e-05,-1773.2,-0.00056148,-6196,0.011902
17173,1.4696,2.9091,0.05,3.1901e-06,31.879,2.4496e-06,18.405,-3.1518e-13,1.6284e-05,-2.4496e-06,-18.405,0.013457
17174,1.4696,2.6364,0,0.0005475,5471.2,0.00025806,0.0023415,3.2318e-05,-1696.1,-0.00055625,-6118.4,0.013455
17175,1.3777,2.7273,0,0.00055279,5524,0.00026263,0.1845,2.8047e-05,-1762.4,-0.00056124,-6190.1,0.011884
17176,1.4696,2.7273,0.05,3.1842e-06,31.82,2.445e-06,18.371,-8.6604e-13,3.8355e-06,-2.445e-06,-18.371,0.013437
17177,1.4696,2.4545,0,0.00054703,5466.6,0.00025671,0.0022306,3.4773e-05,-1667.5,-0.00055597,-6106.1,0.013403
17178,1.3777,2.5455,0,0.00055219,5518,0.00026152,0.18424,2.9849e-05,-1740.5,-0.00056079,-6178.3,0.011848
17179,1.4696,2.5455,0.05,3.1727e-06,31.705,2.4363e-06,18.305,-1.0974e-12,7.2656e-06,-2.4363e-06,-18.305,0.013396
17180,1.4696,2.2727,0,0.0005465,5461.3,0.00025481,0.0023687,3.8347e-05,-1626.4,-0.00055568,-6089.7,0.013329
17181,1.3777,2.3636,0,0.00055136,5509.8,0.00025984,0.18395,3.2655e-05,-1706.8,-0.00056018,-6161.1,0.011792
17182,1.4696,2.3636,0.05,3.1566e-06,31.544,2.4239e-06,18.212,-7.6901e-13,1.621e-05,-2.4239e-06,-18.212,0.013334
17183,1.4696,2.0909,0,0.00054603,5456.6,0.00025234,0.0032224,4.3178e-05,-1571.6,-0.00055551,-6069.9,0.013231
17184,1.3777,2.1818,0,0.00055042,5500.4,0.00025757,0.18384,3.6591e-05,-1660.2,-0.00055952,-6139.1,0.011715
17185,1.4696,2.1818,0.05,3.1374e-06,31.353,2.4092e-06,18.102,5.5965e-14,3.6769e-05,-2.4092e-06,-18.101,0.013248
17186,1.4696,1.9091,0,0.0005458,5454.2,0.00024931,0.0056908,4.9439e-05,-1501.7,-0.00055561,-6047.8,0.013105
17187,1.3777,2,0,0.00054951,5491.3,0.00025471,0.18441,4.1826e-05,-1599.3,-0.00055894,-6113.3,0.011615
17188,1.4696,2,0.05,3.1178e-06,31.157,2.3941e-06,17.988,1.3269e-12,2.0514e-05,-2.3941e-06,-17.988,0.013136
17189,1.4696,1.7273,0,0.00054604,5456.7,0.0002457,0.011391,5.7331e-05,-1415.3,-0.00055617,-6024.9,0.012948
17190,1.3777,1.8182,0,0.00054883,5484.5,0.00025123,0.18665,4.8574e-05,-1522.5,-0.00055862,-6084.7,0.011488
17191,1.4696,1.8182,0.05,3.1016e-06,30.995,2.3817e-06,17.895,3.3941e-12,7.5752e-05,-2.3817e-06,-17.895,0.012996
17192,1.4696,1.5455,0,0.00054705,5466.7,0.00024152,0.023175,6.7066e-05,-1310.8,-0.00055742,-6002.9,0.012757
17193,1.3777,1.6364,0,0.00054865,5482.7,0.00024713,0.19245,5.7085e-05,-1427.7,-0.0005588,-6055.2,0.011332
17194,1.4696,1.6364,0.05,3.094e-06,30.919,2.3758e-06,17.851,2.3833e-12,1.1159e-05,-2.3758e-06,-17.851,0.012823
17195,1.4696,1.3636,0,0.00054914,5487.6,0.0002368,0.045433,7.8834e-05,-1186.9,-0.00055961,-5983.9,0.012525
17196,1.3777,1.4545,0,0.00054933,5489.5,0.0002424,0.20538,6.7621e-05,-1313,-0.00055974,-6026.8,0.011141
17197,1.4696,1.4545,0.05,3.1003e-06,30.981,2.3806e-06,17.887,5.717e-14,0.0001021,-2.3806e-06,-17.887,0.012612
17198,1.4696,1.1818,0,0.00055268,5523,0.00023161,0.085937,9.2756e-05,-1043.2,-0.00056298,-5970.1,0.012246
17199,1.3777,1.2727,0,0.00055126,5508.8,0.00023709,0.23079,8.0424e-05,-1176.9,-0.00056175,-6002,0.01091
17200,1.4696,1.2727,0.05,3.1234e-06,31.213,2.3984e-06,18.021,1.5497e-11,9.1877e-05,-2.3984e-06,-18.021,0.012358
17201,1.4696,1,0,0.00055797,5575.9,0.00022603,0.1522,0.00010882,-880.5,-0.00056771,-5963.7,0.011912
17202,1.3777,1.0909,0,0.00055487,5544.9,0.00023125,0.28014,9.5644e-05,-1018.6,-0.00056512,-5983.4,0.010631
17203,1.4696,1.0909,0.05,3.16e-06,31.578,2.4265e-06,18.232,1.0995e-11,0.00014171,-2.4265e-06,-18.232,0.012053
17204,1.4696,0.81818,0,0.00056523,5648.4,0.00022021,0.2725,0.00012681,-701.5,-0.00057388,-5966.2,0.011514
17205,1.3777,0.90909,0,0.00056054,5601.6,0.00022502,0.35971,0.00011326,-839.39,-0.00057007,-5973.7,0.010296
17206,1.4696,0.90909,0.05,3.1959e-06,31.937,2.454e-06,18.439,1.8922e-11,0.00022385,-2.454e-06,-18.439,0.011688
17207,1.4696,0.63636,0,0.00057448,5740.8,0.00021437,0.42856,0.00014629,-511.1,-0.00058145,-5979,0.011041
17208,1.3777,0.72727,0,0.00056851,5681.2,0.00021859,0.52723,0.00013297,-642.81,-0.0005767,-5975,0.0098942
17209,1.4696,0.72727,0.05,3.2045e-06,32.023,2.4606e-06,18.488,1.4654e-11,0.00018009,-2.4606e-06,-18.488,0.011254
17210,1.4696,0.45455,0,0.00058559,5851.9,0.00020875,1.0036,0.00016661,-315.58,-0.0005903,-6002.7,0.010482
17211,1.3777,0.54545,0,0.00057875,5783.5,0.00021221,0.70105,0.00015415,-435.56,-0.00058491,-5988.6,0.0094147
17212,1.4696,0.54545,0.05,3.155e-06,31.528,2.4226e-06,18.203,2.1353e-11,0.00024209,-2.4226e-06,-18.203,0.01074
17213,1.4696,0.27273,0,0.00059934,5989.3,0.00020375,2.8672,0.0001879,-116.2,-0.00060118,-6045,0.0098236
17214,1.3777,0.36364,0,0.00059111,5907,0.00020629,1.8687,0.00017601,-225.59,-0.00059458,-6015.6,0.0088446
17215,1.4696,0.36364,0.05,3.0232e-06,30.211,2.3214e-06,17.442,2.1657e-11,0.00024098,-2.3214e-06,-17.442,0.010132
17216,1.3777,0.18182,0,0.00060744,6070.2,0.00020314,18.578,0.00019761,-23.034,-0.0006075,-6072.3,0.0081704
17217,1.4696,0.18182,0.05,4.7763e-06,47.73,3.6676e-06,27.557,5.5727e-12,8.6226e-05,-3.6676e-06,-27.557,0.0094179
17218,1.4696,0.090909,0,0.00060483,6044.2,0.00020051,10.406,0.000199,-0.94698,-0.00060467,-6039.4,0.0090532
17219,1.2859,5.7273,0,0.00059911,5986.9,0.00020383,3.6564,0.00018763,-118.09,-0.00060096,-6043.2,0.0073171
17220,1.194,5.8182,0,0.00060653,6061.1,0.00020349,28.701,0.00019714,-19.006,-0.00060635,-6056.1,0.0059012
17221,1.2859,5.8182,0.05,4.9266e-06,49.232,3.783e-06,28.424,-5.0657e-12,-7.7647e-05,-3.783e-06,-28.424,0.0069515
17222,1.2859,5.9091,0,0.00060443,6040.1,0.00020119,20.636,0.00019842,-0.16204,-0.00060408,-6029.9,0.0066267
17223,1.2859,5.5455,0,0.00058418,5837.8,0.00020972,1.3594,0.00016364,-344.91,-0.00058926,-6001.9,0.007898
17224,1.194,5.6364,0,0.00058843,5880.3,0.00020631,1.8894,0.00017356,-244.18,-0.00059217,-5997.6,0.006493
17225,1.2859,5.6364,0.05,3.4653e-06,34.629,2.6609e-06,19.993,-1.4519e-11,-0.00024408,-2.6609e-06,-19.993,0.0075866
17226,1.2859,5.3636,0,0.00057268,5722.9,0.00021643,0.74822,0.00014088,-566.94,-0.0005802,-5984.8,0.0083838
17227,1.194,5.4545,0,0.00057544,5750.4,0.00021347,0.45227,0.0001488,-485.43,-0.00058215,-5977.5,0.0069846
17228,1.2859,5.4545,0.05,3.6268e-06,36.243,2.7849e-06,20.925,-2.1858e-11,-0.00018294,-2.7849e-06,-20.925,0.0081186
17229,1.2859,5.1818,0,0.00056371,5633.2,0.0002234,0.59201,0.00011942,-780.64,-0.0005729,-5982.4,0.0087881
17230,1.194,5.2727,0,0.0005654,5650.1,0.00022117,0.19408,0.00012519,-720.97,-0.00057419,-5975.8,0.0073908
17231,1.2859,5.2727,0.05,3.6361e-06,36.336,2.7921e-06,20.978,-2.1409e-11,-0.00017815,-2.792e-06,-20.978,0.008562
17232,1.2859,5,0,0.00055733,5569.4,0.00023025,0.47534,0.00010006,-977.7,-0.00056747,-5993.2,0.0091235
17233,1.194,5.0909,0,0.00055841,5580.2,0.00022884,-0.024913,0.0001038,-939.55,-0.00056843,-5990.4,0.0077253
17234,1.2859,5.0909,0.05,3.5743e-06,35.718,2.7446e-06,20.622,-1.4135e-11,-0.00017057,-2.7446e-06,-20.622,0.0089302
17235,1.2859,4.8182,0,0.00055335,5529.7,0.00023673,0.41748,8.327e-05,-1152.7,-0.00056385,-6014.9,0.0094011
17236,1.194,4.9091,0,0.0005543,5539.2,0.00023616,-0.13135,8.5325e-05,-1133.4,-0.00056482,-6018.4,0.0080003
17237,1.2859,4.9091,0.05,3.4941e-06,34.917,2.683e-06,20.159,-3.3618e-13,-1.8641e-05,-2.683e-06,-20.159,0.009235
17238,1.2859,4.6364,0,0.00055137,5509.9,0.00024269,0.38589,6.9159e-05,-1303.4,-0.00056183,-6044.4,0.0096304
17239,1.194,4.7273,0,0.00055257,5521.9,0.00024288,-0.19675,6.9925e-05,-1299.8,-0.00056308,-6055.9,0.0082261
17240,1.2859,4.7273,0.05,3.4302e-06,34.279,2.634e-06,19.791,-1.551e-11,-0.00017852,-2.634e-06,-19.791,0.009487
17241,1.2859,4.4545,0,0.00055087,5504.9,0.00024801,0.37143,5.7585e-05,-1430.4,-0.00056107,-6078.7,0.0098191
17242,1.194,4.5455,0,0.00055257,5521.9,0.0002489,-0.23291,5.7417e-05,-1439,-0.0005628,-6099.1,0.0084111
17243,1.2859,4.5455,0.05,3.3948e-06,33.925,2.6068e-06,19.587,-7.7896e-12,-1.1444e-05,-2.6068e-06,-19.587,0.0096947
17244,1.2859,4.2727,0,0.00055139,5510.1,0.00025266,0.36551,4.8275e-05,-1535.3,-0.0005612,-6114.7,0.0099736
17245,1.194,4.3636,0,0.00055371,5533.3,0.00025417,-0.25433,4.7449e-05,-1553.5,-0.00056353,-6144.1,0.0085624
17246,1.2859,4.3636,0.05,3.3853e-06,33.829,2.5995e-06,19.531,-2.442e-12,-5.6204e-05,-2.5995e-06,-19.531,0.0098652
17247,1.2859,4.0909,0,0.0005525,5521.2,0.00025663,0.36383,4.0912e-05,-1620.5,-0.00056191,-6149.8,0.010099
17248,1.194,4.1818,0,0.00055548,5551,0.00025868,-0.26742,3.9623e-05,-1646.2,-0.00056487,-6188.1,0.0086852
17249,1.2859,4.1818,0.05,3.3932e-06,33.909,2.6056e-06,19.577,9.1456e-14,-3.829e-05,-2.6056e-06,-19.577,0.010004
17250,1.2859,3.9091,0,0.00055387,5534.9,0.00025994,0.36391,3.5193e-05,-1688.3,-0.0005629,-6182.2,0.010199
17251,1.194,4,0,0.00055751,5571.3,0.00026247,-0.27603,3.3565e-05,-1720.2,-0.00056649,-6228.7,0.0087839
17252,1.2859,4,0.05,3.4102e-06,34.079,2.6186e-06,19.675,1.3148e-13,-2.6802e-05,-2.6186e-06,-19.675,0.010116
17253,1.2859,3.7273,0,0.00055527,5548.8,0.00026261,0.36457,3.0857e-05,-1740.9,-0.00056398,-6210.3,0.010277
17254,1.194,3.8182,0,0.00055952,5591.3,0.00026555,-0.28201,2.8959e-05,-1777.9,-0.00056814,-6264.3,0.0088617
17255,1.2859,3.8182,0.05,3.4299e-06,34.276,2.6338e-06,19.789,-1.4879e-13,-8.2817e-06,-2.6338e-06,-19.789,0.010205
17256,1.2859,3.5455,0,0.0005565,5561.2,0.00026465,0.36528,2.7693e-05,-1780,-0.00056496,-6233,0.010336
17257,1.194,3.6364,0,0.0005613,5609.1,0.00026797,-0.28631,2.5551e-05,-1821.7,-0.00056964,-6293.8,0.0089213
17258,1.2859,3.6364,0.05,3.4484e-06,34.46,2.6479e-06,19.895,8.8492e-14,-2.3577e-05,-2.6479e-06,-19.895,0.010273
17259,1.2859,3.3636,0,0.00055746,5570.7,0.00026609,0.36583,2.5542e-05,-1807,-0.00056574,-6249.7,0.010377
17260,1.194,3.4545,0,0.00056273,5623.4,0.00026975,-0.28934,2.315e-05,-1853.2,-0.00057087,-6316.4,0.0089644
17261,1.2859,3.4545,0.05,3.4633e-06,34.609,2.6594e-06,19.981,-1.7963e-13,-4.2307e-06,-2.6594e-06,-19.981,0.010322
17262,1.2859,3.1818,0,0.00055806,5576.8,0.00026695,0.36616,2.4294e-05,-1822.8,-0.00056623,-6259.8,0.010401
17263,1.194,3.2727,0,0.00056373,5633.4,0.00027093,-0.2913,2.1622e-05,-1873.5,-0.00057172,-6331.6,0.0089925
17264,1.2859,3.2727,0.05,3.4736e-06,34.712,2.6673e-06,20.041,-3.2411e-13,-2.7188e-06,-2.6673e-06,-20.041,0.010354
17265,1.2859,3,0,0.00055827,5578.8,0.00026723,0.36626,2.3885e-05,-1828.1,-0.0005664,-6263.2,0.010409
17266,1.194,3.0909,0,0.00056424,5638.5,0.00027151,-0.29226,2.0878e-05,-1883.4,-0.00057217,-6339.3,0.0090063
17267,1.2859,3.0909,0.05,3.4788e-06,34.764,2.6713e-06,20.071,-3.3674e-13,-8.3893e-07,-2.6713e-06,-20.071,0.01037
17268,1.2859,2.8182,0,0.00055806,5576.8,0.00026695,0.36616,2.4294e-05,-1822.8,-0.00056623,-6259.8,0.010401
17269,1.194,2.9091,0,0.00056424,5638.5,0.00027151,-0.29226,2.0878e-05,-1883.4,-0.00057217,-6339.3,0.0090063
17270,1.2859,2.9091,0.05,3.4788e-06,34.764,2.6713e-06,20.071,-5.6787e-13,8.5506e-07,-2.6713e-06,-20.071,0.01037
17271,1.2859,2.6364,0,0.00055746,5570.7,0.00026609,0.36583,2.5542e-05,-1807,-0.00056574,-6249.7,0.010377
17272,1.194,2.7273,0,0.00056373,5633.4,0.00027093,-0.2913,2.1622e-05,-1873.5,-0.00057172,-6331.6,0.0089925
17273,1.2859,2.7273,0.05,3.4736e-06,34.712,2.6673e-06,20.041,-5.5271e-13,2.3304e-06,-2.6673e-06,-20.041,0.010354
17274,1.2859,2.4545,0,0.0005565,5561.2,0.00026465,0.36528,2.7693e-05,-1780,-0.00056496,-6233,0.010336
17275,1.194,2.5455,0,0.00056273,5623.4,0.00026975,-0.28934,2.315e-05,-1853.2,-0.00057087,-6316.4,0.0089644
17276,1.2859,2.5455,0.05,3.4633e-06,34.609,2.6594e-06,19.981,-7.0257e-13,6.7134e-06,-2.6594e-06,-19.981,0.010322
17277,1.2859,2.2727,0,0.00055527,5548.8,0.00026261,0.36457,3.0857e-05,-1740.9,-0.00056398,-6210.3,0.010277
17278,1.194,2.3636,0,0.0005613,5609.1,0.00026797,-0.28631,2.5551e-05,-1821.7,-0.00056964,-6293.8,0.0089213
17279,1.2859,2.3636,0.05,3.4484e-06,34.46,2.6479e-06,19.895,-6.1934e-13,2.4494e-05,-2.6479e-06,-19.895,0.010273
17280,1.2859,2.0909,0,0.00055387,5534.9,0.00025994,0.36391,3.5193e-05,-1688.3,-0.0005629,-6182.2,0.010199
17281,1.194,2.1818,0,0.00055952,5591.3,0.00026555,-0.28201,2.8959e-05,-1777.9,-0.00056814,-6264.3,0.0088617
17282,1.2859,2.1818,0.05,3.4299e-06,34.276,2.6338e-06,19.789,6.6853e-13,1.4862e-05,-2.6338e-06,-19.789,0.010205
17283,1.2859,1.9091,0,0.0005525,5521.2,0.00025663,0.36383,4.0912e-05,-1620.5,-0.00056191,-6149.8,0.010099
17284,1.194,2,0,0.00055751,5571.3,0.00026247,-0.27603,3.3565e-05,-1720.2,-0.00056649,-6228.7,0.0087839
17285,1.2859,2,0.05,3.4102e-06,34.079,2.6186e-06,19.675,1.6238e-12,4.5194e-05,-2.6186e-06,-19.675,0.010116
17286,1.2859,1.7273,0,0.00055139,5510.1,0.00025266,0.36551,4.8275e-05,-1535.3,-0.0005612,-6114.7,0.0099736
17287,1.194,1.8182,0,0.00055548,5551,0.00025868,-0.26742,3.9623e-05,-1646.2,-0.00056487,-6188.1,0.0086852
17288,1.2859,1.8182,0.05,3.3932e-06,33.909,2.6056e-06,19.577,1.1184e-12,6.759e-05,-2.6056e-06,-19.577,0.010004
17289,1.2859,1.5455,0,0.00055087,5504.9,0.00024801,0.37143,5.7585e-05,-1430.4,-0.00056107,-6078.7,0.0098191
17290,1.194,1.6364,0,0.00055371,5533.3,0.00025417,-0.25433,4.7449e-05,-1553.5,-0.00056353,-6144.1,0.0085624
17291,1.2859,1.6364,0.05,3.3853e-06,33.829,2.5995e-06,19.531,2.5945e-12,4.3242e-05,-2.5995e-06,-19.531,0.0098652
17292,1.2859,1.3636,0,0.00055137,5509.9,0.00024269,0.38589,6.9159e-05,-1303.4,-0.00056183,-6044.4,0.0096304
17293,1.194,1.4545,0,0.00055257,5521.9,0.0002489,-0.23291,5.7417e-05,-1439,-0.0005628,-6099.1,0.0084111
17294,1.2859,1.4545,0.05,3.3948e-06,33.925,2.6068e-06,19.587,6.8864e-12,0.00014574,-2.6068e-06,-19.586,0.0096947
17295,1.2859,1.1818,0,0.00055335,5529.7,0.00023673,0.41748,8.327e-05,-1152.7,-0.00056385,-6014.9,0.0094011
17296,1.194,1.2727,0,0.00055257,5521.9,0.00024288,-0.19675,6.9925e-05,-1299.8,-0.00056308,-6055.9,0.0082261
17297,1.2859,1.2727,0.05,3.4302e-06,34.279,2.634e-06,19.791,5.7374e-12,5.4213e-05,-2.634e-06,-19.791,0.009487
17298,1.2859,1,0,0.00055733,5569.4,0.00023025,0.47534,0.00010006,-977.7,-0.00056747,-5993.2,0.0091235
17299,1.194,1.0909,0,0.0005543,5539.2,0.00023616,-0.13135,8.5325e-05,-1133.4,-0.00056482,-6018.4,0.0080003
17300,1.2859,1.0909,0.05,3.4941e-06,34.917,2.683e-06,20.159,2.4813e-11,0.00019912,-2.6831e-06,-20.159,0.009235
17301,1.2859,0.81818,0,0.00056371,5633.2,0.0002234,0.59201,0.00011942,-780.64,-0.0005729,-5982.4,0.0087881
17302,1.194,0.90909,0,0.00055841,5580.2,0.00022884,-0.024912,0.0001038,-939.55,-0.00056843,-5990.4,0.0077253
17303,1.2859,0.90909,0.05,3.5743e-06,35.718,2.7446e-06,20.622,1.4047e-11,0.00022945,-2.7446e-06,-20.622,0.0089302
17304,1.2859,0.63636,0,0.00057268,5722.9,0.00021643,0.74822,0.00014088,-566.94,-0.0005802,-5984.8,0.0083838
17305,1.194,0.72727,0,0.0005654,5650.1,0.00022117,0.19408,0.00012519,-720.97,-0.00057419,-5975.8,0.0073908
17306,1.2859,0.72727,0.05,3.6361e-06,36.336,2.792e-06,20.978,2.1335e-11,0.00024269,-2.7921e-06,-20.978,0.008562
17307,1.2859,0.45455,0,0.00058418,5837.8,0.00020972,1.3594,0.00016364,-344.92,-0.00058926,-6001.9,0.007898
17308,1.194,0.54545,0,0.00057544,5750.4,0.00021347,0.45226,0.0001488,-485.43,-0.00058215,-5977.5,0.0069846
17309,1.2859,0.54545,0.05,3.6268e-06,36.243,2.7849e-06,20.925,2.1913e-11,0.00024438,-2.7849e-06,-20.925,0.0081186
17310,1.2859,0.27273,0,0.00059911,5986.9,0.00020383,3.6564,0.00018763,-118.09,-0.00060096,-6043.2,0.0073171
17311,1.194,0.36364,0,0.00058843,5880.3,0.00020631,1.8894,0.00017356,-244.18,-0.00059217,-5997.6,0.006493
17312,1.2859,0.36364,0.05,3.4653e-06,34.629,2.6609e-06,19.993,2.9041e-11,0.00024386,-2.6609e-06,-19.993,0.0075866
17313,1.194,0.18182,0,0.00060653,6061.1,0.00020349,28.701,0.00019714,-19.006,-0.00060635,-6056.1,0.0059012
17314,1.2859,0.18182,0.05,4.9266e-06,49.232,3.783e-06,28.424,2.9705e-12,0.00012941,-3.783e-06,-28.424,0.0069515
17315,1.2859,0.090909,0,0.00060443,6040.1,0.00020119,20.635,0.00019842,-0.16204,-0.00060408,-6029.9,0.0066267
17316,1.1022,5.7273,0,0.00059572,5953.1,0.00020292,3.9946,0.00018619,-121.68,-0.00059762,-6010.9,0.0052011
17317,1.0103,5.8182,0,0.00060186,6014.4,0.00020303,43.56,0.00019512,-15.921,-0.00060137,-6000.4,0.0040241
17318,1.1022,5.8182,0.05,5.0469e-06,50.434,3.8754e-06,29.118,-1.2154e-11,-0.00013039,-3.8754e-06,-29.118,0.0048795
17319,1.1022,5.9091,0,0.00060081,6003.9,0.0002011,33.986,0.00019658,0.0030187,-0.00060022,-5986.8,0.0045984
17320,1.1022,5.5455,0,0.00057957,5791.7,0.00021002,0.71968,0.00015882,-383.94,-0.00058513,-5973.7,0.0056983
17321,1.0103,5.6364,0,0.00058184,5814.4,0.00020549,3.3131,0.00016913,-269.93,-0.00058589,-5942.9,0.0045265
17322,1.1022,5.6364,0.05,4.1287e-06,41.259,3.1703e-06,23.821,-2.1193e-11,-0.00011949,-3.1703e-06,-23.821,0.0054288
17323,1.1022,5.3636,0,0.000568,5676.1,0.0002182,-0.16609,0.00013314,-639.21,-0.00057617,-5968.7,0.0061056
17324,1.0103,5.4545,0,0.00056856,5681.6,0.00021446,2.001,0.00014074,-551.89,-0.00057588,-5936.3,0.0049341
17325,1.1022,5.4545,0.05,4.2822e-06,42.792,3.2882e-06,24.706,-6.9024e-12,-0.00012074,-3.2882e-06,-24.706,0.0058794
17326,1.1022,5.1818,0,0.00055993,5595.5,0.00022661,-0.45083,0.00010955,-880,-0.0005697,-5983.6,0.006438
17327,1.0103,5.2727,0,0.00055951,5591.2,0.00022397,1.861,0.0001144,-821.42,-0.00056888,-5955.4,0.0052633
17328,1.1022,5.2727,0.05,4.1973e-06,41.944,3.223e-06,24.216,-2.1506e-11,-0.00024456,-3.223e-06,-24.216,0.0062473
17329,1.1022,5,0,0.00055524,5548.6,0.00023475,-0.64676,8.9015e-05,-1095.7,-0.00056572,-6015.1,0.006709
17330,1.0103,5.0909,0,0.00055458,5542,0.00023326,1.7246,9.1555e-05,-1063,-0.00056491,-5995.4,0.0055288
17331,1.1022,5.0909,0.05,4.0408e-06,40.38,3.1029e-06,23.314,-7.0132e-13,-0.00012037,-3.1028e-06,-23.314,0.006547
17332,1.1022,4.8182,0,0.00055341,5530.3,0.00024231,-0.75455,7.1913e-05,-1281,-0.00056398,-6058.9,0.0069298
17333,1.0103,4.9091,0,0.00055313,5527.5,0.00024189,1.6868,7.2751e-05,-1269.1,-0.00056362,-6050.6,0.0057431
17334,1.1022,4.9091,0.05,3.8951e-06,38.924,2.9909e-06,22.473,-1.1457e-11,-0.00010254,-2.9909e-06,-22.473,0.0067911
17335,1.1022,4.6364,0,0.00055369,5533.1,0.0002491,-0.8211,5.8113e-05,-1435.8,-0.00056398,-6110,0.0071097
17336,1.0103,4.7273,0,0.00055419,5538,0.00024962,1.6747,5.7814e-05,-1439.5,-0.00056439,-6114.5,0.0059163
17337,1.1022,4.7273,0.05,3.7969e-06,37.943,2.9155e-06,21.906,-4.1199e-12,-9.1681e-05,-2.9155e-06,-21.906,0.0069898
17338,1.1022,4.4545,0,0.00055535,5549.6,0.00025507,-0.86219,4.7217e-05,-1562.6,-0.0005652,-6164,0.0072562
17339,1.0103,4.5455,0,0.0005568,5564.1,0.00025639,1.6786,4.6205e-05,-1577.6,-0.00056652,-6181.4,0.0060565
17340,1.1022,4.5455,0.05,3.7474e-06,37.448,2.8775e-06,21.62,-2.6712e-12,-6.9155e-05,-2.8775e-06,-21.62,0.0071517
17341,1.1022,4.2727,0,0.00055777,5573.8,0.0002602,-0.88955,3.8741e-05,-1664.8,-0.00056714,-6217.2,0.007375
17342,1.0103,4.3636,0,0.00056021,5598.2,0.0002622,1.6868,3.7303e-05,-1688.1,-0.00056942,-6246.8,0.0061698
17343,1.1022,4.3636,0.05,3.7324e-06,37.298,2.866e-06,21.534,-2.1343e-13,-4.1524e-05,-2.866e-06,-21.534,0.0072832
17344,1.1022,4.0909,0,0.00056048,5600.9,0.00026452,-0.90882,3.2229e-05,-1746.2,-0.0005694,-6266.7,0.0074706
17345,1.0103,4.1818,0,0.00056386,5634.7,0.0002671,1.6953,3.0538e-05,-1775.7,-0.00057259,-6307.4,0.0062611
17346,1.1022,4.1818,0.05,3.7367e-06,37.342,2.8694e-06,21.559,-1.328e-13,-2.6928e-05,-2.8693e-06,-21.559,0.0073895
17347,1.1022,3.9091,0,0.00056314,5627.5,0.00026807,-0.92304,2.729e-05,-1810.1,-0.00057169,-6310.5,0.0075466
17348,1.0103,4,0,0.00056739,5670,0.00027115,1.7025,2.5439e-05,-1844.5,-0.00057572,-6361.3,0.0063338
17349,1.1022,4,0.05,3.7493e-06,37.467,2.879e-06,21.631,-1.8192e-12,-1.8418e-05,-2.879e-06,-21.631,0.0074745
17350,1.1022,3.7273,0,0.00056554,5651.5,0.00027091,-0.9337,2.3617e-05,-1859,-0.00057377,-6347.6,0.0076056
17351,1.0103,3.8182,0,0.00057056,5701.7,0.00027441,1.7081,2.1645e-05,-1897.5,-0.00057856,-6407.2,0.0063909
17352,1.1022,3.8182,0.05,3.7634e-06,37.608,2.8899e-06,21.713,-1.0045e-13,-2.6176e-05,-2.8898e-06,-21.713,0.0075415
17353,1.1022,3.5455,0,0.00056752,5671.3,0.00027307,-0.94156,2.0976e-05,-1895.1,-0.00057552,-6376.9,0.0076497
17354,1.0103,3.6364,0,0.00057321,5728.1,0.00027696,1.7122,1.8884e-05,-1937.3,-0.00058095,-6444.3,0.0064344
17355,1.1022,3.6364,0.05,3.776e-06,37.734,2.8995e-06,21.786,-3.4735e-13,-7.4815e-06,-2.8995e-06,-21.786,0.0075925
17356,1.1022,3.3636,0,0.00056899,5686,0.00027459,-0.94699,1.9199e-05,-1919.8,-0.00057682,-6398.1,0.0076801
17357,1.0103,3.4545,0,0.00057525,5748.6,0.00027882,1.715,1.6964e-05,-1965.8,-0.00058282,-6472.3,0.0064658
17358,1.1022,3.4545,0.05,3.7857e-06,37.83,2.9069e-06,21.841,-2.0958e-13,-3.6132e-06,-2.9069e-06,-21.841,0.0076295
17359,1.1022,3.1818,0,0.00056989,5695,0.00027549,-0.9502,1.8176e-05,-1934.3,-0.00057763,-6410.9,0.0076981
17360,1.0103,3.2727,0,0.00057664,5762.4,0.00028004,1.7167,1.5751e-05,-1984.1,-0.00058408,-6491,0.0064862
17361,1.1022,3.2727,0.05,3.792e-06,37.894,2.9118e-06,21.878,-2.7758e-13,-1.9703e-06,-2.9118e-06,-21.878,0.0076534
17362,1.1022,3,0,0.0005702,5698,0.00027579,-0.95126,1.7842e-05,-1939,-0.0005779,-6415.2,0.007704
17363,1.0103,3.0909,0,0.00057734,5769.4,0.00028065,1.7175,1.5165e-05,-1993,-0.00058473,-6500.3,0.0064962
17364,1.1022,3.0909,0.05,3.7952e-06,37.926,2.9142e-06,21.896,-3.1749e-13,-7.1321e-07,-2.9142e-06,-21.896,0.0076652
17365,1.1022,2.8182,0,0.00056989,5695,0.00027549,-0.9502,1.8176e-05,-1934.3,-0.00057763,-6410.9,0.0076981
17366,1.0103,2.9091,0,0.00057734,5769.4,0.00028065,1.7175,1.5165e-05,-1993,-0.00058473,-6500.3,0.0064962
17367,1.1022,2.9091,0.05,3.7952e-06,37.926,2.9142e-06,21.896,-8.1651e-13,7.132e-07,-2.9142e-06,-21.896,0.0076652
17368,1.1022,2.6364,0,0.00056899,5686,0.00027459,-0.94699,1.9199e-05,-1919.8,-0.00057682,-6398.1,0.0076801
17369,1.0103,2.7273,0,0.00057664,5762.4,0.00028004,1.7167,1.5751e-05,-1984.1,-0.00058408,-6491,0.0064862
17370,1.1022,2.7273,0.05,3.792e-06,37.894,2.9118e-06,21.878,-6.2382e-13,2.1494e-06,-2.9118e-06,-21.878,0.0076534
17371,1.1022,2.4545,0,0.00056752,5671.3,0.00027307,-0.94156,2.0976e-05,-1895.1,-0.00057552,-6376.9,0.0076497
17372,1.0103,2.5455,0,0.00057525,5748.6,0.00027882,1.715,1.6964e-05,-1965.8,-0.00058282,-6472.3,0.0064658
17373,1.1022,2.5455,0.05,3.7857e-06,37.83,2.9069e-06,21.841,-6.4118e-13,3.4911e-05,-2.9069e-06,-21.841,0.0076295
17374,1.1022,2.2727,0,0.00056554,5651.5,0.00027091,-0.9337,2.3617e-05,-1859,-0.00057377,-6347.6,0.0076056
17375,1.0103,2.3636,0,0.00057321,5728.1,0.00027696,1.7122,1.8884e-05,-1937.3,-0.00058095,-6444.3,0.0064344
17376,1.1022,2.3636,0.05,3.776e-06,37.734,2.8995e-06,21.786,-1.3051e-13,8.334e-06,-2.8995e-06,-21.786,0.0075925
17377,1.1022,2.0909,0,0.00056314,5627.5,0.00026807,-0.92304,2.729e-05,-1810.1,-0.00057169,-6310.5,0.0075466
17378,1.0103,2.1818,0,0.00057056,5701.7,0.00027441,1.7081,2.1645e-05,-1897.5,-0.00057856,-6407.2,0.0063909
17379,1.1022,2.1818,0.05,3.7634e-06,37.608,2.8898e-06,21.713,8.5665e-14,3.1862e-05,-2.8899e-06,-21.713,0.0075415
17380,1.1022,1.9091,0,0.00056048,5600.9,0.00026452,-0.90882,3.2229e-05,-1746.2,-0.0005694,-6266.7,0.0074706
17381,1.0103,2,0,0.00056739,5670,0.00027115,1.7025,2.5439e-05,-1844.5,-0.00057572,-6361.3,0.0063338
17382,1.1022,2,0.05,3.7493e-06,37.467,2.879e-06,21.631,-1.0152e-12,3.8533e-05,-2.879e-06,-21.631,0.0074745
17383,1.1022,1.7273,0,0.00055777,5573.8,0.0002602,-0.88955,3.8741e-05,-1664.8,-0.00056714,-6217.2,0.007375
17384,1.0103,1.8182,0,0.00056386,5634.7,0.0002671,1.6953,3.0538e-05,-1775.7,-0.00057259,-6307.4,0.0062611
17385,1.1022,1.8182,0.05,3.7367e-06,37.342,2.8694e-06,21.559,2.4386e-12,5.1863e-05,-2.8693e-06,-21.559,0.0073895
17386,1.1022,1.5455,0,0.00055535,5549.6,0.00025507,-0.86219,4.7217e-05,-1562.6,-0.0005652,-6164,0.0072562
17387,1.0103,1.6364,0,0.00056021,5598.2,0.0002622,1.6868,3.7303e-05,-1688.1,-0.00056942,-6246.8,0.0061698
17388,1.1022,1.6364,0.05,3.7324e-06,37.298,2.866e-06,21.534,6.9748e-12,6.2116e-05,-2.866e-06,-21.534,0.0072832
17389,1.1022,1.3636,0,0.00055369,5533.1,0.0002491,-0.8211,5.8113e-05,-1435.8,-0.00056398,-6110,0.0071097
17390,1.0103,1.4545,0,0.0005568,5564.1,0.00025639,1.6786,4.6205e-05,-1577.6,-0.00056652,-6181.4,0.0060565
17391,1.1022,1.4545,0.05,3.7474e-06,37.448,2.8775e-06,21.62,9.9816e-12,8.1007e-05,-2.8775e-06,-21.62,0.0071517
17392,1.1022,1.1818,0,0.00055341,5530.3,0.00024231,-0.75455,7.1913e-05,-1281,-0.00056398,-6058.9,0.0069298
17393,1.0103,1.2727,0,0.00055419,5538,0.00024962,1.6747,5.7814e-05,-1439.5,-0.00056439,-6114.5,0.0059163
17394,1.1022,1.2727,0.05,3.7969e-06,37.943,2.9155e-06,21.906,1.2957e-11,9.7321e-05,-2.9155e-06,-21.906,0.0069898
17395,1.1022,1,0,0.00055524,5548.6,0.00023475,-0.64676,8.9015e-05,-1095.7,-0.00056572,-6015.1,0.006709
17396,1.0103,1.0909,0,0.00055313,5527.5,0.00024189,1.6868,7.2751e-05,-1269.1,-0.00056362,-6050.6,0.0057431
17397,1.1022,1.0909,0.05,3.8951e-06,38.924,2.9909e-06,22.473,1.2941e-11,0.00015693,-2.9909e-06,-22.473,0.0067911
17398,1.1022,0.81818,0,0.00055993,5595.5,0.00022661,-0.45083,0.00010955,-880,-0.0005697,-5983.6,0.006438
17399,1.0103,0.90909,0,0.00055458,5542,0.00023326,1.7246,9.1555e-05,-1063,-0.00056491,-5995.4,0.0055288
17400,1.1022,0.90909,0.05,4.0408e-06,40.38,3.1028e-06,23.314,2.7094e-11,0.00023234,-3.1029e-06,-23.314,0.006547
17401,1.1022,0.63636,0,0.000568,5676.1,0.0002182,-0.16609,0.00013314,-639.21,-0.00057617,-5968.7,0.0061056
17402,1.0103,0.72727,0,0.00055951,5591.2,0.00022397,1.861,0.0001144,-821.42,-0.00056888,-5955.4,0.0052633
17403,1.1022,0.72727,0.05,4.1973e-06,41.944,3.223e-06,24.216,2.9068e-11,0.00024456,-3.223e-06,-24.216,0.0062473
17404,1.1022,0.45455,0,0.00057957,5791.7,0.00021002,0.71968,0.00015882,-383.94,-0.00058513,-5973.7,0.0056983
17405,1.0103,0.54545,0,0.00056856,5681.6,0.00021446,2.001,0.00014074,-551.89,-0.00057588,-5936.3,0.0049341
17406,1.1022,0.54545,0.05,4.2822e-06,42.792,3.2882e-06,24.706,2.1726e-11,0.00024241,-3.2882e-06,-24.706,0.0058794
17407,1.1022,0.27273,0,0.00059572,5953.1,0.00020292,3.9946,0.00018619,-121.68,-0.00059762,-6010.9,0.0052011
17408,1.0103,0.36364,0,0.00058184,5814.4,0.00020549,3.3131,0.00016913,-269.93,-0.00058589,-5942.9,0.0045265
17409,1.1022,0.36364,0.05,4.1287e-06,41.259,3.1703e-06,23.821,2.1193e-11,0.00023436,-3.1703e-06,-23.821,0.0054288
17410,1.0103,0.18182,0,0.00060186,6014.4,0.00020303,43.56,0.00019512,-15.921,-0.00060137,-6000.4,0.0040241
17411,1.1022,0.18182,0.05,5.0469e-06,50.434,3.8754e-06,29.118,1.1306e-11,0.00013039,-3.8754e-06,-29.118,0.0048795
17412,1.1022,0.090909,0,0.00060081,6003.9,0.0002011,33.986,0.00019658,0.0030173,-0.00060022,-5986.8,0.0045984
17413,0.91848,5.7273,0,0.00058777,5873.6,0.00020085,7.0742,0.00018289,-127.85,-0.0005897,-5932.8,0.0034706
17414,0.82663,5.8182,0,0.00059112,5907.1,0.00020103,61.751,0.00019062,-16.421,-0.00059031,-5884,0.0025323
17415,0.91848,5.8182,0.05,5.1732e-06,51.696,3.9724e-06,29.847,-3.5062e-12,-0.00017186,-3.9724e-06,-29.847,0.003197
17416,0.91848,5.9091,0,0.00059239,5919.8,0.00019975,51.718,0.00019301,1.0268,-0.00059147,-5893.3,0.0029635
17417,0.91848,5.5455,0,0.00057063,5702.3,0.00020989,4.2585,0.00015115,-437.09,-0.00057671,-5905.9,0.0038779
17418,0.82663,5.6364,0,0.00056892,5685.3,0.00020295,-0.40698,0.00016149,-311.9,-0.00057359,-5835.1,0.0029382
17419,0.91848,5.6364,0.05,5.1487e-06,51.451,3.9536e-06,29.705,-1.9796e-11,-0.00021795,-3.9535e-06,-29.705,0.0036534
17420,0.91848,5.3636,0,0.00055983,5594.4,0.00022023,3.9462,0.000122,-734.08,-0.00056859,-5922.9,0.0042026
17421,0.82663,5.4545,0,0.00055613,5557.5,0.00021447,-3.3332,0.00012851,-649.24,-0.00056441,-5855.6,0.0032573
17422,0.91848,5.4545,0.05,5.1996e-06,51.96,3.9926e-06,29.999,-1.3677e-11,-0.00023773,-3.9926e-06,-29.999,0.0040173
17423,0.91848,5.1818,0,0.00055394,5535.6,0.00023062,4.0008,9.6344e-05,-1004.9,-0.00056402,-5966.6,0.0044612
17424,0.82663,5.2727,0,0.00054966,5492.8,0.00022645,-4.2056,9.9451e-05,-958.41,-0.00055978,-5911.6,0.0035073
17425,0.91848,5.2727,0.05,4.9186e-06,49.152,3.7769e-06,28.378,-2.1941e-11,-6.0693e-05,-3.7769e-06,-28.378,0.0043066
17426,0.91848,5,0,0.00055231,5519.3,0.00024039,4.0394,7.5198e-05,-1237.1,-0.00056271,-6030.1,0.0046673
17427,0.82663,5.0909,0,0.00054859,5482.1,0.00023773,-4.8294,7.5902e-05,-1220.7,-0.00055922,-5992.8,0.0037037
17428,0.91848,5.0909,0.05,4.6064e-06,46.032,3.5371e-06,26.577,-2.7277e-11,-0.00011602,-3.5371e-06,-26.577,0.0045367
17429,0.91848,4.8182,0,0.0005538,5534.2,0.0002492,4.1055,5.8559e-05,-1428.3,-0.00056394,-6105.5,0.0048323
17430,0.82663,4.9091,0,0.00055131,5509.3,0.00024784,-5.1944,5.7813e-05,-1433,-0.00056171,-6087.9,0.0038587
17431,0.91848,4.9091,0.05,4.3731e-06,43.701,3.358e-06,25.231,-1.8032e-11,-0.00015288,-3.358e-06,-25.231,0.0047203
17432,0.91848,4.6364,0,0.00055723,5568.5,0.00025691,4.1682,4.5826e-05,-1581.8,-0.00056685,-6185.3,0.0049647
17433,0.82663,4.7273,0,0.00055622,5558.4,0.00025662,-5.4456,4.4317e-05,-1600.6,-0.00056609,-6187,0.0039819
17434,0.91848,4.7273,0.05,4.2354e-06,42.324,3.2522e-06,24.436,-7.0328e-12,-0.00012875,-3.2522e-06,-24.436,0.0048673
17435,0.91848,4.4545,0,0.00056162,5612.4,0.00026352,4.2239,3.623e-05,-1703.6,-0.00057068,-6263.7,0.0050712
17436,0.82663,4.5455,0,0.00056208,5616.9,0.00026411,-5.6225,3.4376e-05,-1731.7,-0.00057137,-6283,0.0040802
17437,0.91848,4.5455,0.05,4.1678e-06,41.649,3.2004e-06,24.046,-6.3932e-12,-5.8533e-05,-3.2004e-06,-24.046,0.0049853
17438,0.91848,4.2727,0,0.00056629,5659,0.0002691,4.2693,2.9053e-05,-1799.4,-0.00057483,-6336.7,0.0051567
17439,0.82663,4.3636,0,0.00056809,5677,0.00027039,-5.7549,2.708e-05,-1833.9,-0.00057685,-6371.6,0.0041587
17440,0.91848,4.3636,0.05,4.14e-06,41.372,3.179e-06,23.886,-4.0688e-12,-5.7038e-05,-3.179e-06,-23.886,0.0050802
17441,0.91848,4.0909,0,0.00057077,5703.8,0.00027373,4.3052,2.3712e-05,-1874.2,-0.00057888,-6401.8,0.005225
17442,0.82663,4.1818,0,0.00057375,5733.6,0.0002756,-5.8561,2.1729e-05,-1913.3,-0.00058207,-6450,0.0042214
17443,0.91848,4.1818,0.05,4.1307e-06,41.279,3.1719e-06,23.832,1.5903e-14,-3.335e-05,-3.1719e-06,-23.832,0.0051562
17444,0.91848,3.9091,0,0.00057481,5744.1,0.00027749,4.3327,1.9765e-05,-1932.1,-0.00058256,-6457.7,0.0052789
17445,0.82663,4,0,0.0005788,5784,0.00027984,-5.9344,1.7808e-05,-1974.7,-0.00058678,-6517.3,0.0042711
17446,0.91848,4,0.05,4.1283e-06,41.255,3.1701e-06,23.818,4.8201e-13,-6.3462e-06,-3.17e-06,-23.818,0.0052166
17447,0.91848,3.7273,0,0.00057822,5778.3,0.00028046,4.3533,1.6887e-05,-1976,-0.00058571,-6503.7,0.0053206
17448,0.82663,3.8182,0,0.00058309,5826.9,0.00028322,-5.9945,1.4952e-05,-2021.7,-0.0005908,-6573.1,0.0043098
17449,0.91848,3.8182,0.05,4.1275e-06,41.247,3.1694e-06,23.814,-1.2483e-13,-4.0834e-06,-3.1694e-06,-23.814,0.0052639
17450,0.91848,3.5455,0,0.00058094,5805.4,0.0002827,4.3682,1.4849e-05,-2008.2,-0.00058823,-6539.5,0.0053516
17451,0.82663,3.6364,0,0.00058654,5861.4,0.00028583,-6.0396,1.2909e-05,-2056.7,-0.00059406,-6617.2,0.0043392
17452,0.91848,3.6364,0.05,4.1265e-06,41.237,3.1687e-06,23.808,4.0481e-13,-1.7712e-05,-3.1687e-06,-23.808,0.0052997
17453,0.91848,3.3636,0,0.0005829,5824.9,0.00028427,4.3782,1.3493e-05,-2030.2,-0.00059005,-6565,0.005373
17454,0.82663,3.4545,0,0.00058914,5887.3,0.00028773,-6.0719,1.1504e-05,-2081.6,-0.00059652,-6650,0.0043604
17455,0.91848,3.4545,0.05,4.1252e-06,41.224,3.1677e-06,23.8,6.7801e-15,-3.018e-06,-3.1676e-06,-23.8,0.0053256
17456,0.91848,3.1818,0,0.00058408,5836.8,0.0002852,4.384,1.2717e-05,-2042.9,-0.00059116,-6580.2,0.0053855
17457,0.82663,3.2727,0,0.00059087,5904.6,0.00028898,-6.0927,1.0625e-05,-2097.5,-0.00059817,-6671.7,0.0043741
17458,0.91848,3.2727,0.05,4.1239e-06,41.211,3.1667e-06,23.793,1.2176e-14,-1.6284e-06,-3.1667e-06,-23.793,0.0053424
17459,0.91848,3,0,0.00058447,5840.7,0.00028551,4.3859,1.2464e-05,-2047.1,-0.00059153,-6585.3,0.0053897
17460,0.82663,3.0909,0,0.00059173,5913.2,0.00028959,-6.1029,1.0202e-05,-2105.3,-0.00059899,-6682.5,0.0043808
17461,0.91848,3.0909,0.05,4.1231e-06,41.203,3.1661e-06,23.788,-4.0835e-13,-5.2624e-07,-3.1661e-06,-23.788,0.0053506
17462,0.91848,2.8182,0,0.00058408,5836.8,0.0002852,4.384,1.2717e-05,-2042.9,-0.00059116,-6580.2,0.0053855
17463,0.82663,2.9091,0,0.00059173,5913.2,0.00028959,-6.1029,1.0202e-05,-2105.3,-0.00059899,-6682.5,0.0043808
17464,0.91848,2.9091,0.05,4.1231e-06,41.203,3.1661e-06,23.788,-3.8361e-13,5.3973e-07,-3.1661e-06,-23.788,0.0053506
17465,0.91848,2.6364,0,0.0005829,5824.9,0.00028427,4.3782,1.3493e-05,-2030.2,-0.00059005,-6565,0.005373
17466,0.82663,2.7273,0,0.00059087,5904.6,0.00028898,-6.0927,1.0625e-05,-2097.5,-0.00059817,-6671.7,0.0043741
17467,0.91848,2.7273,0.05,4.1239e-06,41.211,3.1667e-06,23.793,-6.3587e-13,2.0765e-06,-3.1667e-06,-23.793,0.0053424
17468,0.91848,2.4545,0,0.00058094,5805.4,0.0002827,4.3682,1.4849e-05,-2008.2,-0.00058823,-6539.5,0.0053516
17469,0.82663,2.5455,0,0.00058914,5887.3,0.00028773,-6.0719,1.1504e-05,-2081.6,-0.00059652,-6650,0.0043604
17470,0.91848,2.5455,0.05,4.1252e-06,41.224,3.1677e-06,23.8,-4.5526e-13,1.9244e-05,-3.1676e-06,-23.8,0.0053256
17471,0.91848,2.2727,0,0.00057822,5778.3,0.00028046,4.3533,1.6887e-05,-1976,-0.00058571,-6503.7,0.0053206
17472,0.82663,2.3636,0,0.00058654,5861.4,0.00028583,-6.0396,1.2909e-05,-2056.7,-0.00059406,-6617.2,0.0043392
17473,0.91848,2.3636,0.05,4.1265e-06,41.237,3.1687e-06,23.808,-5.3729e-13,2.3049e-05,-3.1687e-06,-23.808,0.0052997
17474,0.91848,2.0909,0,0.00057481,5744.1,0.00027749,4.3327,1.9765e-05,-1932.1,-0.00058256,-6457.7,0.0052789
17475,0.82663,2.1818,0,0.00058309,5826.9,0.00028322,-5.9945,1.4952e-05,-2021.7,-0.0005908,-6573.1,0.0043098
17476,0.91848,2.1818,0.05,4.1275e-06,41.247,3.1694e-06,23.814,-2.6094e-13,1.1885e-05,-3.1694e-06,-23.814,0.0052639
17477,0.91848,1.9091,0,0.00057077,5703.8,0.00027373,4.3052,2.3712e-05,-1874.2,-0.00057888,-6401.8,0.005225
17478,0.82663,2,0,0.0005788,5784,0.00027984,-5.9344,1.7808e-05,-1974.7,-0.00058678,-6517.3,0.0042711
17479,0.91848,2,0.05,4.1283e-06,41.255,3.1701e-06,23.819,1.4669e-12,2.3091e-05,-3.17e-06,-23.818,0.0052166
17480,0.91848,1.7273,0,0.00056629,5659,0.0002691,4.2693,2.9053e-05,-1799.4,-0.00057483,-6336.7,0.0051567
17481,0.82663,1.8182,0,0.00057375,5733.6,0.0002756,-5.8561,2.1729e-05,-1913.3,-0.00058207,-6450,0.0042214
17482,0.91848,1.8182,0.05,4.1307e-06,41.279,3.1719e-06,23.832,4.0911e-12,4.8111e-05,-3.1719e-06,-23.832,0.0051562
17483,0.91848,1.5455,0,0.00056162,5612.4,0.00026352,4.2239,3.623e-05,-1703.6,-0.00057068,-6263.7,0.0050712
17484,0.82663,1.6364,0,0.00056809,5677,0.00027039,-5.7549,2.708e-05,-1833.9,-0.00057685,-6371.6,0.0041588
17485,0.91848,1.6364,0.05,4.14e-06,41.372,3.179e-06,23.886,3.6798e-12,6.4153e-05,-3.179e-06,-23.886,0.0050802
17486,0.91848,1.3636,0,0.00055723,5568.5,0.00025691,4.1682,4.5826e-05,-1581.8,-0.00056685,-6185.3,0.0049647
17487,0.82663,1.4545,0,0.00056208,5616.9,0.00026411,-5.6225,3.4376e-05,-1731.7,-0.00057137,-6283,0.0040802
17488,0.91848,1.4545,0.05,4.1678e-06,41.649,3.2004e-06,24.046,3.0475e-12,0.00011906,-3.2004e-06,-24.046,0.0049853
17489,0.91848,1.1818,0,0.0005538,5534.2,0.0002492,4.1055,5.8559e-05,-1428.3,-0.00056394,-6105.5,0.0048323
17490,0.82663,1.2727,0,0.00055622,5558.4,0.00025662,-5.4456,4.4317e-05,-1600.6,-0.00056609,-6187,0.0039819
17491,0.91848,1.2727,0.05,4.2354e-06,42.324,3.2522e-06,24.436,7.5526e-12,9.2946e-05,-3.2522e-06,-24.436,0.0048673
17492,0.91848,1,0,0.00055231,5519.3,0.00024039,4.0394,7.5198e-05,-1237.1,-0.00056271,-6030.1,0.0046673
17493,0.82663,1.0909,0,0.00055131,5509.3,0.00024784,-5.1944,5.7813e-05,-1433,-0.00056171,-6087.9,0.0038588
17494,0.91848,1.0909,0.05,4.3731e-06,43.701,3.358e-06,25.231,1.082e-11,0.00019953,-3.358e-06,-25.231,0.0047203
17495,0.91848,0.81818,0,0.00055394,5535.6,0.00023062,4.0008,9.6344e-05,-1004.9,-0.00056402,-5966.6,0.0044612
17496,0.82663,0.90909,0,0.00054859,5482.1,0.00023773,-4.8294,7.5902e-05,-1220.7,-0.00055922,-5992.8,0.0037037
17497,0.91848,0.90909,0.05,4.6064e-06,46.032,3.5371e-06,26.577,6.7076e-12,0.00023036,-3.5371e-06,-26.577,0.0045367
17498,0.91848,0.63636,0,0.00055983,5594.4,0.00022023,3.9462,0.000122,-734.08,-0.00056859,-5922.9,0.0042026
17499,0.82663,0.72727,0,0.00054966,5492.8,0.00022645,-4.2056,9.9451e-05,-958.41,-0.00055978,-5911.6,0.0035073
17500,0.91848,0.72727,0.05,4.9186e-06,49.152,3.7769e-06,28.378,1.4842e-11,0.00012261,-3.7769e-06,-28.378,0.0043066
17501,0.91848,0.45455,0,0.00057063,5702.3,0.00020989,4.2585,0.00015115,-437.09,-0.00057671,-5905.9,0.0038779
17502,0.82663,0.54545,0,0.00055613,5557.5,0.00021447,-3.3332,0.00012851,-649.24,-0.00056441,-5855.6,0.0032573
17503,0.91848,0.54545,0.05,5.1996e-06,51.96,3.9926e-06,29.999,2.7967e-11,0.0002357,-3.9926e-06,-29.999,0.0040174
17504,0.91848,0.27273,0,0.00058777,5873.6,0.00020085,7.0742,0.00018289,-127.85,-0.0005897,-5932.8,0.0034706
17505,0.82663,0.36364,0,0.00056892,5685.3,0.00020295,-0.40699,0.00016149,-311.9,-0.00057359,-5835.1,0.0029382
17506,0.91848,0.36364,0.05,5.1487e-06,51.451,3.9535e-06,29.705,2.6395e-11,0.00022596,-3.9536e-06,-29.705,0.0036534
17507,0.82663,0.18182,0,0.00059112,5907.1,0.00020103,61.751,0.00019062,-16.421,-0.00059031,-5884,0.0025323
17508,0.91848,0.18182,0.05,5.1732e-06,51.696,3.9724e-06,29.847,1.8378e-11,0.00017186,-3.9724e-06,-29.847,0.003197
17509,0.91848,0.090909,0,0.00059239,5919.8,0.00019975,51.718,0.00019301,1.0268,-0.00059147,-5893.3,0.0029635
17510,0.73478,5.7273,0,0.00057193,5715.3,0.00019596,0.40696,0.00017646,-146.09,-0.00057427,-5786.8,0.0021164
17511,0.64293,5.8182,0,0.00057082,5704.3,0.00019612,87.143,0.00018321,-9.8891,-0.00056945,-5665.1,0.0014139
17512,0.73478,5.8182,0.05,5.5785e-06,55.747,4.2836e-06,32.185,-2.0449e-11,-0.00011211,-4.2836e-06,-32.185,0.0018952
17513,0.73478,5.9091,0,0.00057619,5758,0.0001963,72.976,0.0001864,-1.4283,-0.00057494,-5721.8,0.0017131
17514,0.73478,5.5455,0,0.00055408,5537,0.00020747,-8.4449,0.00013894,-523.39,-0.00056133,-5784.9,0.0024285
17515,0.64293,5.6364,0,0.00054774,5473.6,0.00020049,17.393,0.00014811,-376.13,-0.00055278,-5642.4,0.0017172
17516,0.73478,5.6364,0.05,6.7624e-06,67.577,5.1927e-06,39.016,-1.6832e-11,-0.00020014,-5.1927e-06,-39.016,0.0022517
17517,0.73478,5.3636,0,0.0005456,5452.2,0.00022068,-11.595,0.00010589,-874.1,-0.00055552,-5843.7,0.0026683
17518,0.64293,5.4545,0,0.00053845,5380.8,0.00021669,19.311,0.00010964,-785.06,-0.00054695,-5718.4,0.001945
17519,0.73478,5.4545,0.05,6.47e-06,64.655,4.9682e-06,37.329,-1.9194e-11,-0.00011368,-4.9682e-06,-37.329,0.002525
17520,0.73478,5.1818,0,0.00054403,5436.5,0.00023355,-13.083,7.887e-05,-1175.3,-0.00055484,-5936.7,0.0028531
17521,0.64293,5.2727,0,0.0005383,5379.2,0.00023235,20.734,7.8944e-05,-1131.9,-0.00054785,-5841.4,0.0021163
17522,0.73478,5.2727,0.05,5.8257e-06,58.217,4.4734e-06,33.612,-7.3505e-12,-6.3288e-05,-4.4734e-06,-33.612,0.0027345
17523,0.73478,5,0,0.00054742,5470.4,0.00024517,-14.086,5.8382e-05,-1417.6,-0.00055809,-6049.5,0.0029966
17524,0.64293,5.0909,0,0.00054425,5438.7,0.00024625,21.73,5.6579e-05,-1403.4,-0.00055355,-5987.7,0.0022465
17525,0.73478,5.0909,0.05,5.303e-06,52.994,4.0721e-06,30.596,-7.6978e-12,-0.00018305,-4.0721e-06,-30.596,0.0028961
17526,0.73478,4.8182,0,0.00055364,5532.6,0.00025527,-14.757,4.3471e-05,-1606.1,-0.00056376,-6168.6,0.003109
17527,0.64293,4.9091,0,0.00055323,5528.5,0.00025808,22.529,4.0952e-05,-1608.9,-0.00056184,-6138.1,0.0023468
17528,0.73478,4.9091,0.05,4.9808e-06,49.773,3.8246e-06,28.737,-1.758e-11,-9.9041e-05,-3.8246e-06,-28.737,0.0030219
17529,0.73478,4.6364,0,0.00056103,5606.4,0.00026382,-15.243,3.2802e-05,-1751,-0.00057053,-6284.3,0.0031978
17530,0.64293,4.7273,0,0.00056312,5627.3,0.00026795,23.136,3.0164e-05,-1763.5,-0.00057102,-6280.6,0.0024249
17531,0.73478,4.7273,0.05,4.807e-06,48.037,3.6912e-06,27.734,-5.9095e-12,-7.6973e-05,-3.6912e-06,-27.734,0.0031209
17532,0.73478,4.4545,0,0.00056853,5681.4,0.00027098,-15.605,2.5187e-05,-1862.4,-0.00057749,-6390.6,0.0032683
17533,0.64293,4.5455,0,0.00057272,5723.3,0.00027611,23.606,2.2685e-05,-1880.5,-0.00058003,-6409,0.0024863
17534,0.73478,4.5455,0.05,4.7149e-06,47.117,3.6205e-06,27.203,-4.9405e-12,-7.1618e-05,-3.6205e-06,-27.203,0.0031991
17535,0.73478,4.2727,0,0.00057556,5751.6,0.00027688,-15.882,1.9733e-05,-1948,-0.00058407,-6484.8,0.0033244
17536,0.64293,4.3636,0,0.00058146,5810.6,0.00028278,23.97,1.7448e-05,-1969.7,-0.0005883,-6521,0.0025348
17537,0.73478,4.3636,0.05,4.6604e-06,46.572,3.5786e-06,26.888,-3.2236e-12,-6.4796e-05,-3.5786e-06,-26.889,0.0032613
17538,0.73478,4.0909,0,0.00058178,5813.8,0.0002817,-16.097,1.5809e-05,-2013.9,-0.00058996,-6565.4,0.0033688
17539,0.64293,4.1818,0,0.00058908,5886.8,0.00028821,24.253,1.374e-05,-2038,-0.00059557,-6616.2,0.0025732
17540,0.73478,4.1818,0.05,4.6218e-06,46.186,3.5489e-06,26.665,6.8208e-13,-2.463e-05,-3.5489e-06,-26.665,0.0033107
17541,0.73478,3.9091,0,0.00058708,5866.8,0.00028557,-16.262,1.2982e-05,-2064.4,-0.00059501,-6632.6,0.0034036
17542,0.64293,4,0,0.00059551,5951,0.00029257,24.473,1.1096e-05,-2090.4,-0.00060175,-6695.2,0.0026034
17543,0.73478,4,0.05,4.59e-06,45.868,3.5246e-06,26.482,4.7732e-13,-1.6791e-05,-3.5246e-06,-26.482,0.0033496
17544,0.73478,3.7273,0,0.0005914,5910,0.00028859,-16.388,1.0961e-05,-2102.4,-0.00059914,-6686.5,0.0034304
17545,0.64293,3.8182,0,0.00060077,6003.5,0.00029601,24.641,9.2089e-06,-2130.3,-0.00060683,-6758.9,0.0026269
17546,0.73478,3.8182,0.05,4.5625e-06,45.594,3.5034e-06,26.324,-1.3213e-13,-7.3768e-06,-3.5035e-06,-26.324,0.00338
17547,0.73478,3.5455,0,0.00059474,5943.3,0.00029086,-16.48,9.5504e-06,-2130.1,-0.00060235,-6727.7,0.0034503
17548,0.64293,3.6364,0,0.00060489,6044.7,0.00029864,24.767,7.8788e-06,-2159.9,-0.00061082,-6808.6,0.0026446
17549,0.73478,3.6364,0.05,4.5392e-06,45.36,3.4855e-06,26.189,7.8191e-14,-2.4297e-06,-3.4855e-06,-26.189,0.0034029
17550,0.73478,3.3636,0,0.0005971,5966.9,0.00029244,-16.543,8.6215e-06,-2149,-0.00060462,-6756.7,0.003464
17551,0.64293,3.4545,0,0.00060793,6075.1,0.00030055,24.856,6.9745e-06,-2180.9,-0.00061377,-6844.9,0.0026573
17552,0.73478,3.4545,0.05,4.5206e-06,45.175,3.4713e-06,26.082,2.1503e-13,-2.472e-06,-3.4713e-06,-26.082,0.0034194
17553,0.73478,3.1818,0,0.00059851,5981,0.00029336,-16.58,8.0936e-06,-2160,-0.00060599,-6773.9,0.003472
17554,0.64293,3.2727,0,0.00060992,6095,0.00030178,24.914,6.4124e-06,-2194.4,-0.00061571,-6868.8,0.0026655
17555,0.73478,3.2727,0.05,4.5077e-06,45.046,3.4614e-06,26.008,-2.454e-14,-1.0098e-06,-3.4614e-06,-26.008,0.00343
17556,0.73478,3,0,0.00059898,5985.7,0.00029367,-16.592,7.9224e-06,-2163.6,-0.00060644,-6779.7,0.0034746
17557,0.64293,3.0909,0,0.00061091,6104.9,0.00030239,24.942,6.1429e-06,-2201,-0.00061668,-6880.6,0.0026696
17558,0.73478,3.0909,0.05,4.5011e-06,44.98,3.4563e-06,25.969,-2.728e-13,-3.464e-07,-3.4563e-06,-25.969,0.0034352
17559,0.73478,2.8182,0,0.00059851,5981,0.00029336,-16.58,8.0936e-06,-2160,-0.00060599,-6773.9,0.003472
17560,0.64293,2.9091,0,0.00061091,6104.9,0.00030239,24.942,6.1429e-06,-2201,-0.00061668,-6880.6,0.0026696
17561,0.73478,2.9091,0.05,4.5011e-06,44.98,3.4563e-06,25.969,-2.9243e-13,3.464e-07,-3.4563e-06,-25.969,0.0034352
17562,0.73478,2.6364,0,0.0005971,5966.9,0.00029244,-16.543,8.6215e-06,-2149,-0.00060462,-6756.7,0.003464
17563,0.64293,2.7273,0,0.00060992,6095,0.00030178,24.914,6.4124e-06,-2194.4,-0.00061571,-6868.8,0.0026655
17564,0.73478,2.7273,0.05,4.5077e-06,45.046,3.4614e-06,26.008,-6.118e-13,1.4331e-06,-3.4614e-06,-26.007,0.00343
17565,0.73478,2.4545,0,0.00059474,5943.3,0.00029086,-16.48,9.5504e-06,-2130.1,-0.00060235,-6727.7,0.0034503
17566,0.64293,2.5455,0,0.00060793,6075.1,0.00030055,24.856,6.9745e-06,-2180.9,-0.00061377,-6844.9,0.0026573
17567,0.73478,2.5455,0.05,4.5206e-06,45.175,3.4713e-06,26.082,-5.417e-13,3.196e-05,-3.4713e-06,-26.082,0.0034194
17568,0.73478,2.2727,0,0.0005914,5910,0.00028859,-16.388,1.0961e-05,-2102.4,-0.00059914,-6686.5,0.0034304
17569,0.64293,2.3636,0,0.00060489,6044.7,0.00029864,24.767,7.8788e-06,-2159.9,-0.00061082,-6808.6,0.0026446
17570,0.73478,2.3636,0.05,4.5392e-06,45.36,3.4855e-06,26.189,-5.4438e-13,3.6434e-05,-3.4855e-06,-26.189,0.0034029
17571,0.73478,2.0909,0,0.00058708,5866.8,0.00028557,-16.262,1.2982e-05,-2064.4,-0.00059501,-6632.6,0.0034036
17572,0.64293,2.1818,0,0.00060077,6003.5,0.00029601,24.641,9.2089e-06,-2130.3,-0.00060683,-6758.9,0.0026269
17573,0.73478,2.1818,0.05,4.5625e-06,45.594,3.5034e-06,26.324,1.512e-13,4.1583e-05,-3.5035e-06,-26.324,0.00338
17574,0.73478,1.9091,0,0.00058178,5813.8,0.0002817,-16.097,1.5809e-05,-2013.9,-0.00058996,-6565.4,0.0033688
17575,0.64293,2,0,0.00059551,5951,0.00029257,24.473,1.1096e-05,-2090.4,-0.00060175,-6695.2,0.0026034
17576,0.73478,2,0.05,4.59e-06,45.868,3.5246e-06,26.482,-8.183e-13,4.0439e-05,-3.5246e-06,-26.482,0.0033496
17577,0.73478,1.7273,0,0.00057556,5751.6,0.00027688,-15.882,1.9733e-05,-1948,-0.00058407,-6484.8,0.0033244
17578,0.64293,1.8182,0,0.00058908,5886.8,0.00028821,24.253,1.374e-05,-2038,-0.00059557,-6616.2,0.0025732
17579,0.73478,1.8182,0.05,4.6218e-06,46.186,3.5489e-06,26.665,2.1051e-13,3.3501e-05,-3.5489e-06,-26.665,0.0033107
17580,0.73478,1.5455,0,0.00056853,5681.4,0.00027098,-15.605,2.5187e-05,-1862.4,-0.00057749,-6390.6,0.0032683
17581,0.64293,1.6364,0,0.00058146,5810.6,0.00028278,23.97,1.7448e-05,-1969.7,-0.0005883,-6521,0.0025348
17582,0.73478,1.6364,0.05,4.6604e-06,46.572,3.5786e-06,26.888,8.0441e-13,3.5849e-05,-3.5786e-06,-26.888,0.0032613
17583,0.73478,1.3636,0,0.00056103,5606.4,0.00026382,-15.243,3.2802e-05,-1751,-0.00057053,-6284.3,0.0031978
17584,0.64293,1.4545,0,0.00057272,5723.3,0.00027611,23.606,2.2685e-05,-1880.5,-0.00058003,-6409,0.0024863
17585,0.73478,1.4545,0.05,4.7149e-06,47.117,3.6205e-06,27.203,2.9575e-12,9.8698e-05,-3.6205e-06,-27.203,0.0031991
17586,0.73478,1.1818,0,0.00055364,5532.6,0.00025527,-14.757,4.3471e-05,-1606.1,-0.00056376,-6168.6,0.003109
17587,0.64293,1.2727,0,0.00056312,5627.3,0.00026795,23.136,3.0164e-05,-1763.5,-0.00057102,-6280.6,0.0024249
17588,0.73478,1.2727,0.05,4.807e-06,48.037,3.6912e-06,27.734,1.0391e-11,0.00013888,-3.6912e-06,-27.734,0.0031209
17589,0.73478,1,0,0.00054742,5470.4,0.00024517,-14.086,5.8382e-05,-1417.6,-0.00055809,-6049.5,0.0029966
17590,0.64293,1.0909,0,0.00055323,5528.5,0.00025808,22.529,4.0952e-05,-1608.9,-0.00056184,-6138.1,0.0023468
17591,0.73478,1.0909,0.05,4.9808e-06,49.773,3.8246e-06,28.737,1.2375e-11,0.00011069,-3.8246e-06,-28.737,0.0030219
17592,0.73478,0.81818,0,0.00054403,5436.5,0.00023355,-13.083,7.887e-05,-1175.3,-0.00055484,-5936.7,0.0028531
17593,0.64293,0.90909,0,0.00054425,5438.7,0.00024625,21.73,5.6579e-05,-1403.4,-0.00055355,-5987.7,0.0022465
17594,0.73478,0.90909,0.05,5.303e-06,52.994,4.0721e-06,30.596,1.4652e-11,0.00016519,-4.0721e-06,-30.596,0.0028961
17595,0.73478,0.63636,0,0.0005456,5452.2,0.00022068,-11.595,0.00010589,-874.1,-0.00055552,-5843.7,0.0026683
17596,0.64293,0.72727,0,0.0005383,5379.2,0.00023235,20.734,7.8944e-05,-1131.9,-0.00054785,-5841.4,0.0021163
17597,0.73478,0.72727,0.05,5.8257e-06,58.217,4.4734e-06,33.612,2.8999e-11,0.00024527,-4.4734e-06,-33.612,0.0027345
17598,0.73478,0.45455,0,0.00055408,5537,0.00020747,-8.4449,0.00013894,-523.39,-0.00056133,-5784.9,0.0024285
17599,0.64293,0.54545,0,0.00053845,5380.8,0.00021669,19.311,0.00010964,-785.06,-0.00054695,-5718.4,0.001945
17600,0.73478,0.54545,0.05,6.47e-06,64.655,4.9682e-06,37.329,2.1043e-11,0.00023224,-4.9682e-06,-37.329,0.002525
17601,0.73478,0.27273,0,0.00057193,5715.3,0.00019596,0.40696,0.00017646,-146.09,-0.00057427,-5786.8,0.0021164
17602,0.64293,0.36364,0,0.00054774,5473.6,0.00020049,17.393,0.00014811,-376.13,-0.00055278,-5642.4,0.0017172
17603,0.73478,0.36364,0.05,6.7624e-06,67.577,5.1927e-06,39.016,2.3863e-11,0.00021274,-5.1927e-06,-39.016,0.0022517
17604,0.64293,0.18182,0,0.00057082,5704.3,0.00019612,87.143,0.00018321,-9.8891,-0.00056945,-5665.1,0.0014139
17605,0.73478,0.18182,0.05,5.5785e-06,55.747,4.2836e-06,32.185,2.6135e-11,0.00022453,-4.2836e-06,-32.185,0.0018952
17606,0.73478,0.090909,0,0.00057619,5758,0.0001963,72.976,0.0001864,-1.4283,-0.00057494,-5721.8,0.0017131
17607,0.55109,5.7273,0,0.00054594,5455.7,0.00019129,33.792,0.00016422,-169.57,-0.00054797,-5520.7,0.0011241
17608,0.45924,5.8182,0,0.00053056,5302,0.00018513,96.058,0.00016681,-41.539,-0.0005295,-5273.4,0.0006496
17609,0.55109,5.8182,0.05,6.985e-06,69.802,5.3636e-06,40.3,-2.8554e-11,-0.00024045,-5.3636e-06,-40.3,0.00095907
17610,0.55109,5.9091,0,0.00054755,5471.8,0.00018922,107.65,0.00017609,9.0366,-0.0005455,-5412.7,0.00083194
17611,0.55109,5.5455,0,0.00053149,5311.3,0.00020964,44.583,0.00011878,-638.09,-0.00053829,-5575,0.0013378
17612,0.45924,5.6364,0,0.0005067,5063.5,0.00018916,-48.847,0.00012415,-537.29,-0.0005149,-5338.8,0.00084653
17613,0.55109,5.6364,0.05,9.3694e-06,93.629,7.1945e-06,54.057,-1.0756e-11,-0.00017389,-7.1945e-06,-54.057,0.0012103
17614,0.55109,5.3636,0,0.0005307,5303.4,0.00022835,51.492,8.2472e-05,-1044.6,-0.00053903,-5714.3,0.0014936
17615,0.45924,5.4545,0,0.00050631,5059.6,0.00021069,-67.312,8.1096e-05,-1041,-0.00051809,-5543,0.00098454
17616,0.55109,5.4545,0.05,8.1505e-06,81.449,6.2586e-06,47.025,-1.4062e-11,-5.2857e-05,-6.2586e-06,-47.025,0.0013914
17617,0.55109,5.1818,0,0.00053833,5379.5,0.00024504,55.488,5.6447e-05,-1361.6,-0.00054635,-5890.7,0.0016087
17618,0.45924,5.2727,0,0.00051801,5176.6,0.00023007,-76.556,5.2642e-05,-1409.7,-0.00053025,-5789.3,0.0010827
17619,0.55109,5.2727,0.05,6.8895e-06,68.848,5.2903e-06,39.749,-2.2009e-11,-0.00018116,-5.2903e-06,-39.749,0.0015235
17620,0.55109,5,0,0.00055004,5496.6,0.00025915,58.32,3.9034e-05,-1595.5,-0.00055719,-6075.3,0.0016954
17621,0.45924,5.0909,0,0.00053401,5336.4,0.00024608,-82.389,3.4881e-05,-1669.3,-0.0005458,-6032.2,0.0011545
17622,0.55109,5.0909,0.05,6.1112e-06,61.07,4.6927e-06,35.259,-1.3939e-11,-9.8771e-05,-4.6927e-06,-35.259,0.0016217
17623,0.55109,4.8182,0,0.00056277,5623.8,0.00027077,60.411,2.7604e-05,-1766.6,-0.00056906,-6249.7,0.0017618
17624,0.45924,4.9091,0,0.00055026,5498.8,0.00025898,-86.429,2.3873e-05,-1852.9,-0.00056153,-6251.4,0.0012082
17625,0.55109,4.9091,0.05,5.6792e-06,56.752,4.3609e-06,32.766,-4.1237e-12,-0.00010003,-4.3609e-06,-32.766,0.0016961
17626,0.55109,4.6364,0,0.00057489,5745,0.00028024,61.98,2.0046e-05,-1893,-0.00058051,-6405.3,0.0018133
17627,0.45924,4.7273,0,0.00056507,5646.8,0.00026931,-89.362,1.6898e-05,-1985.9,-0.00057594,-6440.3,0.0012493
17628,0.55109,4.7273,0.05,5.4333e-06,54.295,4.1721e-06,31.347,-8.1425e-12,-8.3412e-05,-4.1721e-06,-31.348,0.0017534
17629,0.55109,4.4545,0,0.00058573,5853.2,0.00028791,63.178,1.496e-05,-1987.7,-0.00059085,-6539.5,0.0018537
17630,0.45924,4.5455,0,0.0005779,5775,0.0002776,-91.567,1.235e-05,-2084.5,-0.00058851,-6599.1,0.0012811
17631,0.55109,4.5455,0.05,5.2709e-06,52.673,4.0474e-06,30.411,-3.995e-12,-2.8817e-05,-4.0474e-06,-30.411,0.001798
17632,0.55109,4.2727,0,0.00059505,5946.4,0.00029411,64.104,1.1471e-05,-2059.6,-0.00059982,-6652.5,0.0018855
17633,0.45924,4.3636,0,0.00058873,5883.3,0.00028423,-93.255,9.3024e-06,-2159,-0.00059917,-6730.8,0.001306
17634,0.55109,4.3636,0.05,5.1472e-06,51.437,3.9524e-06,29.697,1.3603e-13,-4.3682e-05,-3.9524e-06,-29.697,0.0018331
17635,0.55109,4.0909,0,0.00060286,6024.4,0.00029908,64.822,9.0396e-06,-2114.4,-0.00060738,-6746,0.0019105
17636,0.45924,4.1818,0,0.00059769,5972.8,0.00028954,-94.558,7.2121e-06,-2215.8,-0.00060802,-6838.5,0.0013256
17637,0.55109,4.1818,0.05,5.045e-06,50.415,3.8739e-06,29.107,4.9788e-13,-9.2805e-05,-3.8739e-06,-29.107,0.0018608
17638,0.55109,3.9091,0,0.00060923,6088.1,0.00030302,65.375,7.3291e-06,-2156.3,-0.00061358,-6821.6,0.0019301
17639,0.45924,4,0,0.00060498,6045.6,0.00029374,-95.566,5.7552e-06,-2259.4,-0.00061524,-6925.3,0.0013409
17640,0.55109,4,0.05,4.9583e-06,49.549,3.8074e-06,28.607,-1.0653e-13,-4.1191e-06,-3.8074e-06,-28.607,0.0018824
17641,0.55109,3.7273,0,0.00061428,6138.6,0.00030606,65.795,6.1273e-06,-2187.8,-0.0006185,-6881,0.001945
17642,0.45924,3.8182,0,0.00061077,6103.5,0.00029703,-96.336,4.733e-06,-2292.5,-0.000621,-6994,0.0013527
17643,0.55109,3.8182,0.05,4.8858e-06,48.824,3.7517e-06,28.189,-4.4894e-14,-7.9582e-06,-3.7517e-06,-28.189,0.0018992
17644,0.55109,3.5455,0,0.00061809,6176.7,0.00030833,66.103,5.2989e-06,-2210.7,-0.00062224,-6925.8,0.0019561
17645,0.45924,3.6364,0,0.00061522,6148,0.00029952,-96.912,4.0212e-06,-2317.2,-0.00062542,-7046.6,0.0013616
17646,0.55109,3.6364,0.05,4.8273e-06,48.239,3.7067e-06,27.851,1.1368e-13,-3.2208e-06,-3.7068e-06,-27.851,0.0019118
17647,0.55109,3.3636,0,0.00062076,6203.3,0.0003099,66.313,4.7581e-06,-2226.4,-0.00062485,-6957,0.0019636
17648,0.45924,3.4545,0,0.00061845,6180.3,0.00030131,-97.322,3.5415e-06,-2334.7,-0.00062865,-7084.7,0.0013679
17649,0.55109,3.4545,0.05,4.7831e-06,47.798,3.6728e-06,27.596,2.421e-14,-1.0896e-06,-3.6728e-06,-27.596,0.0019209
17650,0.55109,3.1818,0,0.00062233,6219,0.00031081,66.436,4.4525e-06,-2235.5,-0.00062639,-6975.4,0.0019681
17651,0.45924,3.2727,0,0.00062056,6201.3,0.00030248,-97.586,3.2449e-06,-2345.9,-0.00063075,-7109.5,0.001372
17652,0.55109,3.2727,0.05,4.7534e-06,47.502,3.65e-06,27.425,-7.695e-14,-5.164e-07,-3.65e-06,-27.425,0.0019267
17653,0.55109,3,0,0.00062285,6224.2,0.00031112,66.476,4.3536e-06,-2238.4,-0.0006269,-6981.4,0.0019695
17654,0.45924,3.0909,0,0.0006216,6211.7,0.00030305,-97.715,3.1032e-06,-2351.4,-0.00063178,-7121.7,0.001374
17655,0.55109,3.0909,0.05,4.7386e-06,47.353,3.6386e-06,27.339,-1.3784e-13,3.0315e-05,-3.6386e-06,-27.339,0.0019296
17656,0.55109,2.8182,0,0.00062233,6219,0.00031081,66.436,4.4525e-06,-2235.5,-0.00062639,-6975.4,0.0019681
17657,0.45924,2.9091,0,0.0006216,6211.7,0.00030305,-97.715,3.1032e-06,-2351.4,-0.00063178,-7121.7,0.001374
17658,0.55109,2.9091,0.05,4.7386e-06,47.353,3.6386e-06,27.339,-3.0809e-13,3.0695e-05,-3.6386e-06,-27.339,0.0019296
17659,0.55109,2.6364,0,0.00062076,6203.3,0.0003099,66.313,4.7581e-06,-2226.4,-0.00062485,-6957,0.0019636
17660,0.45924,2.7273,0,0.00062056,6201.3,0.00030248,-97.586,3.2449e-06,-2345.9,-0.00063075,-7109.5,0.001372
17661,0.55109,2.7273,0.05,4.7534e-06,47.502,3.65e-06,27.425,-4.2459e-13,3.1087e-05,-3.65e-06,-27.425,0.0019267
17662,0.55109,2.4545,0,0.00061809,6176.7,0.00030833,66.103,5.2989e-06,-2210.7,-0.00062224,-6925.8,0.0019561
17663,0.45924,2.5455,0,0.00061845,6180.3,0.00030131,-97.322,3.5415e-06,-2334.7,-0.00062865,-7084.7,0.0013679
17664,0.55109,2.5455,0.05,4.7831e-06,47.798,3.6728e-06,27.596,-4.6528e-13,2.1149e-06,-3.6728e-06,-27.596,0.0019209
17665,0.55109,2.2727,0,0.00061428,6138.6,0.00030606,65.795,6.1273e-06,-2187.8,-0.0006185,-6881,0.001945
17666,0.45924,2.3636,0,0.00061522,6148,0.00029952,-96.912,4.0212e-06,-2317.2,-0.00062542,-7046.6,0.0013616
17667,0.55109,2.3636,0.05,4.8273e-06,48.239,3.7067e-06,27.851,-5.6998e-13,3.5316e-06,-3.7067e-06,-27.851,0.0019118
17668,0.55109,2.0909,0,0.00060923,6088.1,0.00030302,65.375,7.3291e-06,-2156.3,-0.00061358,-6821.6,0.0019301
17669,0.45924,2.1818,0,0.00061077,6103.5,0.00029703,-96.336,4.733e-06,-2292.5,-0.000621,-6994,0.0013527
17670,0.55109,2.1818,0.05,4.8858e-06,48.824,3.7517e-06,28.189,1.3302e-14,8.7771e-06,-3.7517e-06,-28.189,0.0018992
17671,0.55109,1.9091,0,0.00060286,6024.4,0.00029908,64.822,9.0395e-06,-2114.4,-0.00060738,-6746,0.0019105
17672,0.45924,2,0,0.00060498,6045.6,0.00029374,-95.566,5.7552e-06,-2259.4,-0.00061524,-6925.3,0.0013409
17673,0.55109,2,0.05,4.9583e-06,49.549,3.8074e-06,28.607,-6.6718e-14,4.6712e-05,-3.8074e-06,-28.607,0.0018824
17674,0.55109,1.7273,0,0.00059505,5946.4,0.00029411,64.104,1.1471e-05,-2059.6,-0.00059982,-6652.5,0.0018855
17675,0.45924,1.8182,0,0.00059769,5972.8,0.00028954,-94.558,7.2121e-06,-2215.8,-0.00060802,-6838.5,0.0013256
17676,0.55109,1.8182,0.05,5.045e-06,50.415,3.8739e-06,29.107,4.501e-13,3.9303e-05,-3.8739e-06,-29.107,0.0018608
17677,0.55109,1.5455,0,0.00058573,5853.2,0.00028791,63.178,1.496e-05,-1987.7,-0.00059085,-6539.5,0.0018537
17678,0.45924,1.6364,0,0.00058873,5883.3,0.00028423,-93.255,9.3024e-06,-2159,-0.00059917,-6730.8,0.001306
17679,0.55109,1.6364,0.05,5.1473e-06,51.437,3.9524e-06,29.697,2.6696e-12,5.9058e-05,-3.9525e-06,-29.697,0.0018331
17680,0.55109,1.3636,0,0.00057489,5745,0.00028024,61.98,2.0046e-05,-1893,-0.00058051,-6405.3,0.0018133
17681,0.45924,1.4545,0,0.0005779,5775,0.0002776,-91.567,1.235e-05,-2084.5,-0.00058851,-6599.1,0.0012811
17682,0.55109,1.4545,0.05,5.2709e-06,52.673,4.0474e-06,30.411,6.1155e-12,8.6992e-05,-4.0474e-06,-30.411,0.001798
17683,0.55109,1.1818,0,0.00056277,5623.8,0.00027077,60.411,2.7604e-05,-1766.6,-0.00056906,-6249.7,0.0017618
17684,0.45924,1.2727,0,0.00056507,5646.8,0.00026931,-89.362,1.6898e-05,-1985.9,-0.00057594,-6440.3,0.0012493
17685,0.55109,1.2727,0.05,5.4333e-06,54.295,4.1721e-06,31.348,6.2102e-12,0.0001339,-4.1721e-06,-31.347,0.0017534
17686,0.55109,1,0,0.00055004,5496.6,0.00025915,58.32,3.9034e-05,-1595.5,-0.00055719,-6075.3,0.0016954
17687,0.45924,1.0909,0,0.00055026,5498.8,0.00025898,-86.429,2.3873e-05,-1852.9,-0.00056153,-6251.4,0.0012082
17688,0.55109,1.0909,0.05,5.6792e-06,56.752,4.3609e-06,32.766,9.0748e-12,9.7606e-05,-4.3609e-06,-32.766,0.0016961
17689,0.55109,0.81818,0,0.00053833,5379.5,0.00024504,55.488,5.6447e-05,-1361.6,-0.00054635,-5890.7,0.0016087
17690,0.45924,0.90909,0,0.00053401,5336.4,0.00024608,-82.389,3.4881e-05,-1669.3,-0.0005458,-6032.2,0.0011545
17691,0.55109,0.90909,0.05,6.1112e-06,61.07,4.6927e-06,35.259,1.3853e-11,0.00016889,-4.6927e-06,-35.259,0.0016217
17692,0.55109,0.63636,0,0.0005307,5303.4,0.00022835,51.492,8.2472e-05,-1044.6,-0.00053903,-5714.3,0.0014936
17693,0.45924,0.72727,0,0.00051801,5176.6,0.00023007,-76.556,5.2642e-05,-1409.7,-0.00053025,-5789.3,0.0010827
17694,0.55109,0.72727,0.05,6.8895e-06,68.848,5.2903e-06,39.749,2.9083e-11,0.00024546,-5.2903e-06,-39.749,0.0015235
17695,0.55109,0.45455,0,0.00053149,5311.3,0.00020964,44.583,0.00011878,-638.09,-0.00053829,-5575,0.0013378
17696,0.45924,0.54545,0,0.00050631,5059.6,0.00021069,-67.312,8.1096e-05,-1041,-0.00051809,-5543,0.00098454
17697,0.55109,0.54545,0.05,8.1505e-06,81.449,6.2586e-06,47.025,2.1167e-11,0.00023203,-6.2586e-06,-47.025,0.0013914
17698,0.55109,0.27273,0,0.00054594,5455.7,0.00019129,33.792,0.00016422,-169.57,-0.00054797,-5520.7,0.0011241
17699,0.45924,0.36364,0,0.0005067,5063.5,0.00018916,-48.847,0.00012415,-537.29,-0.0005149,-5338.8,0.00084653
17700,0.55109,0.36364,0.05,9.3694e-06,93.629,7.1945e-06,54.057,8.8118e-12,0.00018586,-7.1945e-06,-54.057,0.0012103
17701,0.45924,0.18182,0,0.00053056,5302,0.00018513,96.058,0.00016681,-41.539,-0.0005295,-5273.4,0.0006496
17702,0.55109,0.18182,0.05,6.985e-06,69.802,5.3636e-06,40.3,1.3778e-11,0.00024048,-5.3636e-06,-40.3,0.00095907
17703,0.55109,0.090909,0,0.00054755,5471.8,0.00018922,107.65,0.00017609,9.0366,-0.0005455,-5412.7,0.00083194
17704,0.36739,5.7273,0,0.00048982,4894.8,0.00016917,-90.445,0.00014035,-306.99,-0.00049622,-5089.9,0.00046986
17705,0.27554,5.8182,0,0.00045425,4539.4,0.00016375,164.67,0.00014139,-3.3649,-0.00045127,-4456.4,0.00020629
17706,0.36739,5.8182,0.05,1.2214e-05,122.06,9.379e-06,70.47,-1.8496e-11,-0.00018714,-9.379e-06,-70.47,0.00036424
17707,0.36739,5.9091,0,0.00049309,4927.5,0.0001749,132.51,0.00015412,-23.646,-0.00049106,-4871.2,0.00029417
17708,0.36739,5.5455,0,0.00048019,4798.5,0.00019008,-161.73,8.6086e-05,-943.09,-0.00049418,-5303,0.00058745
17709,0.27554,5.6364,0,0.00046479,4644.7,0.00020735,235.81,7.6959e-05,-743.92,-0.00046561,-4820.6,0.00030021
17710,0.36739,5.6364,0.05,1.3553e-05,135.43,1.0407e-05,78.193,-1.8636e-11,-0.00018751,-1.0407e-05,-78.193,0.00050817
17711,0.36739,5.3636,0,0.00049294,4926,0.00021238,-195.58,5.0875e-05,-1409,-0.00050888,-5614.9,0.0006669
17712,0.27554,5.4545,0,0.00050098,5006.4,0.00024451,279.65,4.1572e-05,-1245.2,-0.00049966,-5311.8,0.00035929
17713,0.36739,5.4545,0.05,1.0316e-05,103.09,7.9215e-06,59.519,-1.8393e-11,-0.00012291,-7.9215e-06,-59.519,0.00060215
17714,0.36739,5.1818,0,0.00051349,5131.3,0.0002311,-214.51,3.0947e-05,-1718.3,-0.00052956,-5929.7,0.00072263
17715,0.27554,5.2727,0,0.00053724,5368.7,0.00027209,310.9,2.3691e-05,-1555.5,-0.00053348,-5741.9,0.0003984
17716,0.36739,5.2727,0.05,8.4876e-06,84.817,6.5174e-06,48.969,-2e-11,-0.00021695,-6.5174e-06,-48.969,0.00066607
17717,0.36739,5,0,0.00053422,5338.6,0.0002459,-227.16,1.9752e-05,-1926.4,-0.00055016,-6208.5,0.0007632
17718,0.27554,5.0909,0,0.00056799,5676,0.00029232,330.9,1.4546e-05,-1756.2,-0.00056267,-6093.2,0.0004258
17719,0.36739,5.0909,0.05,7.5471e-06,75.419,5.7953e-06,43.543,-5.142e-12,-0.00017352,-5.7952e-06,-43.543,0.00071149
17720,0.36739,4.8182,0,0.00055262,5522.3,0.00025752,-236.21,1.325e-05,-2071.6,-0.00056849,-6442.5,0.00079357
17721,0.27554,4.9091,0,0.00059288,5924.7,0.00030756,345.48,9.5008e-06,-1894,-0.00058656,-6372.6,0.00044581
17722,0.36739,4.9091,0.05,7.0456e-06,70.408,5.4102e-06,40.65,-3.6128e-12,-8.7602e-05,-5.4102e-06,-40.65,0.00074495
17723,0.36739,4.6364,0,0.00056814,5677.5,0.00026667,-242.91,9.2848e-06,-2176.8,-0.00058402,-6634.7,0.0008168
17724,0.27554,4.7273,0,0.00061277,6123.5,0.00031922,356.2,6.5348e-06,-1993.2,-0.0006058,-6594.1,0.00046085
17725,0.36739,4.7273,0.05,6.7064e-06,67.018,5.1497e-06,38.693,-5.6031e-12,-2.6332e-05,-5.1497e-06,-38.693,0.00077023
17726,0.36739,4.4545,0,0.00058097,5805.7,0.00027391,-248,6.759e-06,-2255.3,-0.0005969,-6790.9,0.0008348
17727,0.27554,4.5455,0,0.00062864,6282,0.00032828,364.36,4.6893e-06,-2067,-0.00062124,-6769.9,0.00047237
17728,0.36739,4.5455,0.05,6.4435e-06,64.391,4.9478e-06,37.176,-1.1687e-12,-4.1724e-05,-4.9478e-06,-37.176,0.00078968
17729,0.36739,4.2727,0,0.00059142,5910.2,0.00027966,-251.92,5.0908e-06,-2314.9,-0.00060742,-6917.1,0.00084885
17730,0.27554,4.3636,0,0.00064129,6408.5,0.00033538,370.64,3.4899e-06,-2123.1,-0.00063359,-6909.8,0.00048131
17731,0.36739,4.3636,0.05,6.227e-06,62.227,4.7816e-06,35.927,-2.9218e-13,-4.6155e-05,-4.7816e-06,-35.927,0.00080481
17732,0.36739,4.0909,0,0.00059985,5994.4,0.0002842,-254.94,3.9588e-06,-2360.5,-0.00061592,-7018.1,0.00085984
17733,0.27554,4.1818,0,0.00065135,6509,0.00034096,375.51,2.684e-06,-2166.1,-0.00064344,-7020.9,0.00048827
17734,0.36739,4.1818,0.05,6.046e-06,60.419,4.6426e-06,34.883,-5.0696e-13,-6.7325e-06,-4.6426e-06,-34.883,0.00081663
17735,0.36739,3.9091,0,0.00060655,6061.3,0.00028775,-257.28,3.1775e-06,-2395.5,-0.00062268,-7097.9,0.00086838
17736,0.27554,4,0,0.0006593,6588.5,0.00034533,379.28,2.1301e-06,-2199.4,-0.00065124,-7108.5,0.0004937
17737,0.36739,4,0.05,5.8958e-06,58.917,4.5272e-06,34.016,4.1968e-13,-3.8373e-06,-4.5272e-06,-34.016,0.00082585
17738,0.36739,3.7273,0,0.00061174,6113.2,0.00029048,-259.04,2.636e-06,-2421.8,-0.00062793,-7159.6,0.00087489
17739,0.27554,3.8182,0,0.00066549,6650.3,0.0003487,382.18,1.7453e-06,-2224.7,-0.00065731,-7176.6,0.00049787
17740,0.36739,3.8182,0.05,5.7737e-06,57.697,4.4335e-06,33.312,1.8243e-13,-6.5276e-07,-4.4335e-06,-33.312,0.00083295
17741,0.36739,3.5455,0,0.00061561,6151.8,0.0002925,-260.34,2.2663e-06,-2441.1,-0.00063184,-7205.5,0.00087968
17742,0.27554,3.6364,0,0.00067017,6697.1,0.00035125,384.35,1.4791e-06,-2243.7,-0.00066191,-7228.2,0.000501
17743,0.36739,3.6364,0.05,5.678e-06,56.74,4.36e-06,32.759,1.2458e-13,-3.7015e-07,-4.36e-06,-32.759,0.00083828
17744,0.36739,3.3636,0,0.00061828,6178.6,0.0002939,-261.22,2.0266e-06,-2454.2,-0.00063454,-7237.1,0.00088297
17745,0.27554,3.4545,0,0.00067354,6730.7,0.00035307,385.89,1.3004e-06,-2257.2,-0.00066522,-7265.2,0.00050324
17746,0.36739,3.4545,0.05,5.6072e-06,56.034,4.3057e-06,32.351,1.7674e-13,-5.8986e-07,-4.3057e-06,-32.351,0.0008421
17747,0.36739,3.1818,0,0.00061985,6194.3,0.00029471,-261.74,1.8917e-06,-2461.9,-0.00063613,-7255.7,0.00088488
17748,0.27554,3.2727,0,0.00067571,6752.4,0.00035425,386.89,1.1904e-06,-2265.8,-0.00066737,-7289.1,0.00050468
17749,0.36739,3.2727,0.05,5.5606e-06,55.568,4.2699e-06,32.082,-9.1241e-15,-5.1026e-08,-4.2699e-06,-32.082,0.00084456
17750,0.36739,3,0,0.00062037,6199.4,0.00029498,-261.9,1.8482e-06,-2464.4,-0.00063666,-7261.8,0.00088552
17751,0.27554,3.0909,0,0.00067678,6763.1,0.00035482,387.37,1.1379e-06,-2270.1,-0.00066842,-7300.9,0.00050538
17752,0.36739,3.0909,0.05,5.5375e-06,55.336,4.2521e-06,31.948,-7.5058e-14,3.0481e-05,-4.2521e-06,-31.948,0.00084576
17753,0.36739,2.8182,0,0.00061985,6194.3,0.00029471,-261.74,1.8917e-06,-2461.9,-0.00063613,-7255.7,0.00088488
17754,0.27554,2.9091,0,0.00067678,6763.1,0.00035482,387.37,1.1379e-06,-2270.1,-0.00066842,-7300.9,0.00050538
17755,0.36739,2.9091,0.05,5.5375e-06,55.336,4.2521e-06,31.948,-1.8066e-13,3.5885e-08,-4.2521e-06,-31.948,0.00084576
17756,0.36739,2.6364,0,0.00061828,6178.6,0.0002939,-261.22,2.0266e-06,-2454.2,-0.00063454,-7237.1,0.00088297
17757,0.27554,2.7273,0,0.00067571,6752.4,0.00035425,386.89,1.1904e-06,-2265.8,-0.00066737,-7289.1,0.00050468
17758,0.36739,2.7273,0.05,5.5606e-06,55.568,4.2699e-06,32.082,-3.2183e-13,3.0784e-05,-4.2699e-06,-32.082,0.00084456
17759,0.36739,2.4545,0,0.00061561,6151.8,0.0002925,-260.34,2.2663e-06,-2441.1,-0.00063184,-7205.5,0.00087968
17760,0.27554,2.5455,0,0.00067354,6730.7,0.00035307,385.89,1.3004e-06,-2257.2,-0.00066522,-7265.2,0.00050324
17761,0.36739,2.5455,0.05,5.6072e-06,56.034,4.3057e-06,32.351,-3.1136e-13,3.1618e-05,-4.3057e-06,-32.351,0.0008421
17762,0.36739,2.2727,0,0.00061174,6113.2,0.00029048,-259.04,2.636e-06,-2421.8,-0.00062793,-7159.6,0.00087489
17763,0.27554,2.3636,0,0.00067017,6697.1,0.00035125,384.35,1.4791e-06,-2243.7,-0.00066191,-7228.2,0.000501
17764,0.36739,2.3636,0.05,5.678e-06,56.74,4.36e-06,32.759,-4.6902e-13,3.0738e-05,-4.36e-06,-32.759,0.00083828
17765,0.36739,2.0909,0,0.00060655,6061.3,0.00028775,-257.28,3.1775e-06,-2395.5,-0.00062268,-7097.9,0.00086838
17766,0.27554,2.1818,0,0.00066549,6650.3,0.0003487,382.18,1.7453e-06,-2224.7,-0.00065731,-7176.6,0.00049787
17767,0.36739,2.1818,0.05,5.7737e-06,57.697,4.4335e-06,33.312,-4.6699e-13,3.1484e-06,-4.4335e-06,-33.311,0.00083295
17768,0.36739,1.9091,0,0.00059985,5994.4,0.0002842,-254.94,3.9588e-06,-2360.5,-0.00061592,-7018.1,0.00085984
17769,0.27554,2,0,0.0006593,6588.5,0.00034533,379.28,2.1301e-06,-2199.4,-0.00065124,-7108.5,0.0004937
17770,0.36739,2,0.05,5.8958e-06,58.917,4.5272e-06,34.016,-5.1514e-13,1.1099e-05,-4.5273e-06,-34.016,0.00082585
17771,0.36739,1.7273,0,0.00059142,5910.2,0.00027966,-251.92,5.0908e-06,-2314.9,-0.00060742,-6917.1,0.00084885
17772,0.27554,1.8182,0,0.00065135,6509,0.00034096,375.51,2.684e-06,-2166.1,-0.00064344,-7020.9,0.00048827
17773,0.36739,1.8182,0.05,6.046e-06,60.419,4.6426e-06,34.883,6.7704e-13,4.1633e-05,-4.6426e-06,-34.883,0.00081663
17774,0.36739,1.5455,0,0.00058097,5805.7,0.00027391,-248,6.759e-06,-2255.3,-0.0005969,-6790.9,0.0008348
17775,0.27554,1.6364,0,0.00064129,6408.5,0.00033538,370.64,3.4899e-06,-2123.1,-0.00063359,-6909.8,0.00048131
17776,0.36739,1.6364,0.05,6.227e-06,62.227,4.7816e-06,35.927,2.3318e-12,6.0462e-05,-4.7816e-06,-35.927,0.00080481
17777,0.36739,1.3636,0,0.00056814,5677.5,0.00026667,-242.91,9.2848e-06,-2176.8,-0.00058402,-6634.7,0.0008168
17778,0.27554,1.4545,0,0.00062864,6282,0.00032828,364.36,4.6893e-06,-2067,-0.00062124,-6769.9,0.00047237
17779,0.36739,1.4545,0.05,6.4435e-06,64.391,4.9478e-06,37.176,-2.7022e-13,1.6595e-05,-4.9478e-06,-37.176,0.00078968
17780,0.36739,1.1818,0,0.00055262,5522.3,0.00025752,-236.21,1.325e-05,-2071.6,-0.00056849,-6442.5,0.00079357
17781,0.27554,1.2727,0,0.00061277,6123.5,0.00031922,356.2,6.5348e-06,-1993.2,-0.0006058,-6594.1,0.00046085
17782,0.36739,1.2727,0.05,6.7064e-06,67.018,5.1497e-06,38.693,4.4573e-12,0.00010696,-5.1497e-06,-38.693,0.00077023
17783,0.36739,1,0,0.00053422,5338.6,0.0002459,-227.16,1.9752e-05,-1926.4,-0.00055016,-6208.5,0.0007632
17784,0.27554,1.0909,0,0.00059288,5924.7,0.00030756,345.48,9.5007e-06,-1894,-0.00058656,-6372.6,0.00044581
17785,0.36739,1.0909,0.05,7.0456e-06,70.408,5.4102e-06,40.65,6.7051e-12,0.00012204,-5.4102e-06,-40.65,0.00074495
17786,0.36739,0.81818,0,0.00051349,5131.3,0.0002311,-214.51,3.0947e-05,-1718.3,-0.00052956,-5929.7,0.00072263
17787,0.27554,0.90909,0,0.00056799,5676,0.00029232,330.9,1.4546e-05,-1756.2,-0.00056267,-6093.2,0.0004258
17788,0.36739,0.90909,0.05,7.5471e-06,75.419,5.7952e-06,43.543,1.1195e-11,0.00014441,-5.7953e-06,-43.543,0.00071149
17789,0.36739,0.63636,0,0.00049294,4926,0.00021238,-195.58,5.0875e-05,-1409,-0.00050888,-5614.9,0.0006669
17790,0.27554,0.72727,0,0.00053724,5368.7,0.00027209,310.9,2.3691e-05,-1555.5,-0.00053348,-5741.9,0.0003984
17791,0.36739,0.72727,0.05,8.4876e-06,84.817,6.5174e-06,48.969,2.0551e-11,0.00013237,-6.5174e-06,-48.969,0.00066607
17792,0.36739,0.45455,0,0.00048019,4798.5,0.00019008,-161.73,8.6086e-05,-943.09,-0.00049418,-5303,0.00058745
17793,0.27554,0.54545,0,0.00050098,5006.4,0.00024451,279.65,4.1572e-05,-1245.2,-0.00049966,-5311.8,0.00035929
17794,0.36739,0.54545,0.05,1.0316e-05,103.09,7.9215e-06,59.519,2.2027e-11,0.00024535,-7.9215e-06,-59.519,0.00060215
17795,0.36739,0.27273,0,0.00048982,4894.8,0.00016917,-90.445,0.00014035,-306.99,-0.00049622,-5089.9,0.00046986
17796,0.27554,0.36364,0,0.00046479,4644.7,0.00020735,235.81,7.6959e-05,-743.92,-0.00046561,-4820.6,0.00030021
17797,0.36739,0.36364,0.05,1.3553e-05,135.43,1.0407e-05,78.193,1.8164e-11,0.00020741,-1.0407e-05,-78.193,0.00050817
17798,0.27554,0.18182,0,0.00045425,4539.4,0.00016375,164.67,0.00014139,-3.365,-0.00045127,-4456.4,0.00020629
17799,0.36739,0.18182,0.05,1.2214e-05,122.06,9.379e-06,70.47,1.8496e-11,0.00017506,-9.379e-06,-70.47,0.00036424
17800,0.36739,0.090909,0,0.00049309,4927.5,0.0001749,132.51,0.00015412,-23.646,-0.00049106,-4871.2,0.00029417
17801,0.1837,5.7273,0,0.00042584,4255.5,0.00019625,448.24,8.1663e-05,-412.75,-0.00041865,-4171.9,0.00011691
17802,0.1837,5.8182,0.05,2.9476e-05,294.56,2.2634e-05,170.06,-1.6002e-11,-0.00016591,-2.2634e-05,-170.06,6.8794e-05
17803,0.1837,5.9091,0,0.00038466,3843.9,0.00014114,223.04,0.00012322,88.389,-0.00037918,-3686.4,5.2503e-05
17804,0.091848,5.8182,0,0.0002711,2709.1,8.4236e-05,-399.92,6.1354e-05,-571.85,-0.00028722,-3190.9,2.6274e-05
17805,0.1837,5.5455,0,0.00048815,4878.1,0.00026169,676.47,3.2505e-05,-1045.6,-0.00047106,-4829.1,0.00015522
17806,0.1837,5.6364,0.05,1.878e-05,187.67,1.442e-05,108.35,-1.3524e-11,-0.00023468,-1.442e-05,-108.35,0.00011552
17807,0.091848,5.6364,0,0.00034113,3408.9,0.00011863,-831.38,2.1056e-05,-1564.5,-0.00037592,-4547.2,4.3453e-05
17808,0.1837,5.3636,0,0.00054831,5479.3,0.00030422,786.07,1.5352e-05,-1384.4,-0.00052522,-5446,0.00017847
17809,0.1837,5.4545,0.05,1.2752e-05,127.43,9.7916e-06,73.57,-2.7907e-11,-0.00023209,-9.7916e-06,-73.57,0.00014075
17810,0.091848,5.4545,0,0.00039927,3990,0.00014367,-1028.7,8.9796e-06,-2040.7,-0.00044174,-5427.3,5.2901e-05
17811,0.1837,5.1818,0,0.00059407,5936.6,0.00033332,856.33,8.1765e-06,-1586.6,-0.00056749,-5912,0.00019387
17812,0.1837,5.2727,0.05,9.7645e-06,97.578,7.4979e-06,56.336,-1.204e-11,-0.00012057,-7.4979e-06,-56.336,0.00015637
17813,0.091848,5.2727,0,0.00044091,4406.1,0.00016076,-1145.2,4.5248e-06,-2319.1,-0.00048795,-6019.3,5.8825e-05
17814,0.1837,5,0,0.00062836,6279.3,0.00035397,903.57,4.9112e-06,-1719.2,-0.00059969,-6261.9,0.00020475
17815,0.1837,5.0909,0.05,8.2135e-06,82.079,6.307e-06,47.388,-1.194e-11,-0.00012228,-6.307e-06,-47.388,0.00016701
17816,0.091848,5.0909,0,0.00047084,4705.2,0.00017266,-1223.8,2.6478e-06,-2501.2,-0.00052101,-6435.8,6.2825e-05
17817,0.1837,4.8182,0,0.00065435,6539,0.00036926,937.91,3.1828e-06,-1812.6,-0.00062427,-6527.1,0.00021274
17818,0.1837,4.9091,0.05,7.1546e-06,71.496,5.4938e-06,41.278,-6.0015e-12,-0.000103,-5.4938e-06,-41.278,0.00017466
17819,0.091848,4.9091,0,0.00049299,4926.5,0.00018137,-1279.7,1.6796e-06,-2629.9,-0.00054541,-6740.5,6.5689e-05
17820,0.1837,4.6364,0,0.00067434,6738.8,0.00038083,963.49,2.1901e-06,-1881.5,-0.00064327,-6731.2,0.00021878
17821,0.1837,4.7273,0.05,6.3825e-06,63.781,4.901e-06,36.824,-4.0638e-12,-7.0993e-05,-4.901e-06,-36.824,0.00018035
17822,0.091848,4.7273,0,0.00050974,5093.9,0.00018792,-1321.2,1.141e-06,-2724.6,-0.00056384,-6969.7,6.7816e-05
17823,0.1837,4.4545,0,0.00068989,6894.1,0.00038975,983.01,1.5775e-06,-1933.5,-0.00065809,-6890,0.00022342
17824,0.1837,4.5455,0.05,5.7933e-06,57.893,4.4485e-06,33.425,1.2448e-13,-5.1068e-05,-4.4485e-06,-33.425,0.00018469
17825,0.091848,4.5455,0,0.00052263,5222.7,0.00019294,-1352.7,8.1314e-07,-2796.2,-0.00057802,-7145.4,6.9432e-05
17826,0.1837,4.2727,0,0.00070205,7015.7,0.00039668,998.08,1.181e-06,-1973.6,-0.00066971,-7014.4,0.00022702
17827,0.1837,4.3636,0.05,5.3338e-06,53.302,4.0957e-06,30.774,-7.3964e-13,-3.4863e-05,-4.0957e-06,-30.774,0.00018803
17828,0.091848,4.3636,0,0.00053266,5322.9,0.00019683,-1376.9,6.0329e-07,-2851.3,-0.00058904,-7281.7,7.0679e-05
17829,0.1837,4.0909,0,0.00071158,7110.9,0.00040209,1009.8,9.1523e-07,-2004.5,-0.00067882,-7111.8,0.00022982
17830,0.1837,4.1818,0.05,4.9721e-06,49.687,3.818e-06,28.687,3.4027e-13,-6.1675e-06,-3.818e-06,-28.687,0.00019063
17831,0.091848,4.1818,0,0.0005405,5401.2,0.00019987,-1395.8,4.6342e-07,-2894,-0.00059765,-7388,7.1646e-05
17832,0.1837,3.9091,0,0.00071898,7184.9,0.00040628,1018.8,7.3328e-07,-2028.4,-0.00068591,-7187.5,0.00023199
17833,0.1837,4,0.05,4.6875e-06,46.843,3.5994e-06,27.045,4.0458e-13,-4.255e-05,-3.5994e-06,-27.045,0.00019265
17834,0.091848,4,0,0.00054661,5462.3,0.00020223,-1410.3,3.6777e-07,-2927.1,-0.00060435,-7470.7,7.2396e-05
17835,0.1837,3.7273,0,0.00072463,7241.3,0.00040947,1025.6,6.0783e-07,-2046.4,-0.00069132,-7245.3,0.00023364
17836,0.1837,3.8182,0.05,4.4663e-06,44.632,3.4295e-06,25.768,3.3167e-13,-1.7899e-06,-3.4295e-06,-25.768,0.0001942
17837,0.091848,3.8182,0,0.00055131,5509.3,0.00020405,-1421.5,3.015e-07,-2952.4,-0.00060952,-7534.4,7.2972e-05
17838,0.1837,3.5455,0,0.0007288,7282.9,0.00041182,1030.6,5.2247e-07,-2059.7,-0.00069531,-7287.9,0.00023485
17839,0.1837,3.6364,0.05,4.2986e-06,42.957,3.3008e-06,24.801,2.5786e-13,-1.4002e-05,-3.3008e-06,-24.801,0.00019537
17840,0.091848,3.6364,0,0.00055485,5544.6,0.00020542,-1429.9,2.5573e-07,-2971.4,-0.0006134,-7582.2,7.3404e-05
17841,0.1837,3.3636,0,0.00073165,7311.5,0.00041342,1034,4.6723e-07,-2068.8,-0.00069805,-7317.2,0.00023568
17842,0.1837,3.4545,0.05,4.178e-06,41.751,3.2082e-06,24.105,1.7851e-13,-1.4393e-05,-3.2082e-06,-24.105,0.00019619
17843,0.091848,3.4545,0,0.00055737,5569.9,0.0002064,-1435.9,2.2505e-07,-2985,-0.00061617,-7616.3,7.3711e-05
17844,0.1837,3.1818,0,0.00073332,7328.1,0.00041436,1036,4.3617e-07,-2074.1,-0.00069965,-7334.2,0.00023616
17845,0.1837,3.2727,0.05,4.0999e-06,40.97,3.1482e-06,23.654,5.3999e-14,4.0611e-07,-3.1482e-06,-23.654,0.00019673
17846,0.091848,3.2727,0,0.000559,5586.1,0.00020703,-1439.7,2.0615e-07,-2993.7,-0.00061795,-7638.3,7.3909e-05
17847,0.1837,3,0,0.00073387,7333.6,0.00041467,1036.7,4.2615e-07,-2075.8,-0.00070018,-7339.9,0.00023632
17848,0.1837,3.0909,0.05,4.0615e-06,40.587,3.1187e-06,23.433,-1.7084e-14,1.3898e-07,-3.1187e-06,-23.433,0.00019699
17849,0.091848,3.0909,0,0.0005598,5594.1,0.00020734,-1441.6,1.9713e-07,-2997.9,-0.00061883,-7649.1,7.4006e-05
17850,0.1837,2.8182,0,0.00073332,7328.1,0.00041436,1036,4.3617e-07,-2074.1,-0.00069965,-7334.2,0.00023616
17851,0.1837,2.9091,0.05,4.0615e-06,40.587,3.1187e-06,23.433,-1.0945e-13,3.0402e-05,-3.1187e-06,-23.433,0.00019699
17852,0.091848,2.9091,0,0.0005598,5594.1,0.00020734,-1441.6,1.9713e-07,-2997.9,-0.00061883,-7649.1,7.4006e-05
17853,0.1837,2.6364,0,0.00073165,7311.5,0.00041342,1034,4.6723e-07,-2068.8,-0.00069805,-7317.2,0.00023568
17854,0.1837,2.7273,0.05,4.0999e-06,40.97,3.1482e-06,23.654,-1.9847e-13,1.4849e-05,-3.1482e-06,-23.654,0.00019673
17855,0.091848,2.7273,0,0.000559,5586.1,0.00020703,-1439.7,2.0615e-07,-2993.7,-0.00061795,-7638.3,7.3909e-05
17856,0.1837,2.4545,0,0.0007288,7282.9,0.00041182,1030.6,5.2247e-07,-2059.7,-0.00069531,-7287.9,0.00023485
17857,0.1837,2.5455,0.05,4.178e-06,41.751,3.2082e-06,24.105,-1.8591e-13,1.4655e-05,-3.2082e-06,-24.105,0.00019619
17858,0.091848,2.5455,0,0.00055737,5569.9,0.0002064,-1435.9,2.2505e-07,-2985,-0.00061617,-7616.3,7.3711e-05
17859,0.1837,2.2727,0,0.00072463,7241.3,0.00040947,1025.6,6.0783e-07,-2046.4,-0.00069132,-7245.3,0.00023364
17860,0.1837,2.3636,0.05,4.2986e-06,42.957,3.3008e-06,24.801,-3.1239e-13,1.2719e-06,-3.3008e-06,-24.801,0.00019537
17861,0.091848,2.3636,0,0.00055485,5544.6,0.00020542,-1429.9,2.5573e-07,-2971.4,-0.0006134,-7582.2,7.3404e-05
17862,0.1837,2.0909,0,0.00071898,7184.9,0.00040628,1018.8,7.3328e-07,-2028.4,-0.00068591,-7187.5,0.00023199
17863,0.1837,2.1818,0.05,4.4663e-06,44.632,3.4295e-06,25.768,2.844e-13,3.1794e-05,-3.4295e-06,-25.768,0.0001942
17864,0.091848,2.1818,0,0.00055131,5509.3,0.00020405,-1421.5,3.015e-07,-2952.4,-0.00060952,-7534.4,7.2972e-05
17865,0.1837,1.9091,0,0.00071158,7110.9,0.00040209,1009.8,9.1523e-07,-2004.5,-0.00067882,-7111.8,0.00022982
17866,0.1837,2,0.05,4.6875e-06,46.843,3.5994e-06,27.045,6.4461e-13,5.9678e-05,-3.5994e-06,-27.045,0.00019265
17867,0.091848,2,0,0.00054661,5462.3,0.00020223,-1410.3,3.6777e-07,-2927.1,-0.00060435,-7470.7,7.2396e-05
17868,0.1837,1.7273,0,0.00070205,7015.7,0.00039668,998.08,1.181e-06,-1973.6,-0.00066971,-7014.4,0.00022702
17869,0.1837,1.8182,0.05,4.9721e-06,49.687,3.818e-06,28.687,4.822e-13,1.9628e-05,-3.8179e-06,-28.687,0.00019063
17870,0.091848,1.8182,0,0.0005405,5401.2,0.00019987,-1395.8,4.6342e-07,-2894,-0.00059765,-7388,7.1646e-05
17871,0.1837,1.5455,0,0.00068989,6894.1,0.00038975,983.01,1.5774e-06,-1933.5,-0.00065809,-6890,0.00022342
17872,0.1837,1.6364,0.05,5.3338e-06,53.302,4.0957e-06,30.774,9.9621e-13,6.3813e-05,-4.0957e-06,-30.774,0.00018803
17873,0.091848,1.6364,0,0.00053266,5322.9,0.00019683,-1376.9,6.0329e-07,-2851.3,-0.00058904,-7281.7,7.0679e-05
17874,0.1837,1.3636,0,0.00067434,6738.8,0.00038083,963.49,2.1901e-06,-1881.5,-0.00064327,-6731.2,0.00021878
17875,0.1837,1.4545,0.05,5.7933e-06,57.893,4.4485e-06,33.425,1.7367e-13,5.4071e-05,-4.4485e-06,-33.425,0.00018469
17876,0.091848,1.4545,0,0.00052263,5222.7,0.00019294,-1352.7,8.1314e-07,-2796.2,-0.00057802,-7145.4,6.9432e-05
17877,0.1837,1.1818,0,0.00065435,6539,0.00036926,937.91,3.1828e-06,-1812.6,-0.00062427,-6527.1,0.00021274
17878,0.1837,1.2727,0.05,6.3825e-06,63.781,4.901e-06,36.824,4.5609e-12,8.7264e-05,-4.901e-06,-36.824,0.00018035
17879,0.091848,1.2727,0,0.00050974,5093.9,0.00018792,-1321.2,1.141e-06,-2724.6,-0.00056384,-6969.7,6.7816e-05
17880,0.1837,1,0,0.00062836,6279.3,0.00035397,903.57,4.9112e-06,-1719.2,-0.00059969,-6261.9,0.00020475
17881,0.1837,1.0909,0.05,7.1546e-06,71.496,5.4938e-06,41.278,6.5128e-12,0.00010063,-5.4938e-06,-41.278,0.00017466
17882,0.091848,1.0909,0,0.00049299,4926.5,0.00018137,-1279.7,1.6796e-06,-2629.9,-0.00054541,-6740.5,6.5689e-05
17883,0.1837,0.81818,0,0.00059407,5936.6,0.00033332,856.33,8.1765e-06,-1586.7,-0.00056749,-5912,0.00019387
17884,0.1837,0.90909,0.05,8.2135e-06,82.079,6.307e-06,47.388,1.2736e-11,0.00017191,-6.307e-06,-47.388,0.00016701
17885,0.091848,0.90909,0,0.00047084,4705.2,0.00017266,-1223.8,2.6478e-06,-2501.2,-0.00052101,-6435.8,6.2825e-05
17886,0.1837,0.63636,0,0.00054831,5479.3,0.00030422,786.07,1.5352e-05,-1384.4,-0.00052522,-5446,0.00017847
17887,0.1837,0.72727,0.05,9.7645e-06,97.578,7.4979e-06,56.336,1.7763e-11,0.00021005,-7.4979e-06,-56.336,0.00015637
17888,0.091848,0.72727,0,0.00044091,4406.1,0.00016076,-1145.2,4.5248e-06,-2319.1,-0.00048795,-6019.3,5.8825e-05
17889,0.1837,0.45455,0,0.00048815,4878.1,0.00026169,676.47,3.2505e-05,-1045.6,-0.00047106,-4829.1,0.00015522
17890,0.1837,0.54545,0.05,1.2752e-05,127.43,9.7916e-06,73.57,2.2134e-11,0.00024423,-9.7916e-06,-73.57,0.00014075
17891,0.091848,0.54545,0,0.00039927,3990,0.00014367,-1028.7,8.9796e-06,-2040.7,-0.00044174,-5427.3,5.2901e-05
17892,0.1837,0.27273,0,0.00042584,4255.5,0.00019625,448.24,8.1663e-05,-412.75,-0.00041865,-4171.9,0.00011691
17893,0.1837,0.36364,0.05,1.878e-05,187.67,1.442e-05,108.35,2.3484e-11,0.00022997,-1.442e-05,-108.35,0.00011552
17894,0.091848,0.36364,0,0.00034113,3408.9,0.00011863,-831.38,2.1056e-05,-1564.5,-0.00037592,-4547.2,4.3453e-05
17895,0.1837,0.18182,0.05,2.9476e-05,294.56,2.2634e-05,170.07,1.578e-11,0.0002099,-2.2634e-05,-170.06,6.8794e-05
17896,0.1837,0.090909,0,0.00038466,3843.9,0.00014114,223.04,0.00012322,88.389,-0.00037918,-3686.4,5.2503e-05
17897,0.091848,0.18182,0,0.0002711,2709.1,8.4236e-05,-399.92,6.1354e-05,-571.85,-0.00028722,-3190.9,2.6274e-05
17898,17.249,0.27273,0,3.2798e-05,327.75,1.5709e-05,56.521,7.3453e-06,-6.3199,-3.1489e-05,-298.1,1.3389
17899,17.34,0.18182,0,3.2515e-05,324.93,1.3658e-05,31.809,8.5472e-06,-6.5925,-3.1916e-05,-310.61,1.3514
17900,17.249,0.18182,0.05,3.5162e-06,35.138,2.7e-06,20.287,2.5057e-13,1.187e-06,-2.7e-06,-20.287,1.3387
17901,17.249,0.090909,0,2.0775e-05,207.6,8.3402e-06,15.091,5.6661e-06,-5.0018,-2.053e-05,-201.83,1.3385
17902,17.158,0.18182,0,1.8859e-05,188.46,7.6406e-06,16.945,5.3287e-06,-0.42601,-1.8518e-05,-179.6,1.3259
17903,17.249,0.45455,0,4.6977e-05,469.44,2.4173e-05,105.34,9.6534e-06,-3.7524,-4.4287e-05,-409.04,1.3393
17904,17.34,0.36364,0,4.1402e-05,413.73,1.8061e-05,51.287,1.0683e-05,-4.1518,-4.032e-05,-387.37,1.3518
17905,17.249,0.36364,0.05,3.2e-06,31.978,2.4572e-06,18.463,-3.9371e-13,-4.4165e-07,-2.4572e-06,-18.463,1.3391
17906,17.158,0.36364,0,3.1121e-05,311,1.4454e-05,51.976,7.6859e-06,1.1255,-2.9904e-05,-281.31,1.3263
17907,17.249,0.63636,0,6.365e-05,636.06,3.483e-05,170.74,1.1686e-05,-3.16,-5.8989e-05,-534.18,1.3397
17908,17.34,0.54545,0,5.4652e-05,546.15,2.6043e-05,96.879,1.2774e-05,-2.8201,-5.2365e-05,-492.25,1.3522
17909,17.249,0.54545,0.05,3.4591e-06,34.567,2.6561e-06,19.957,-4.1503e-13,-1.2062e-06,-2.6561e-06,-19.957,1.3395
17910,17.158,0.54545,0,4.4513e-05,444.83,2.2759e-05,100.34,9.5008e-06,0.72651,-4.1949e-05,-385.85,1.3267
17911,17.249,0.81818,0,8.2652e-05,825.95,4.7135e-05,247.33,1.3814e-05,-3.0278,-7.5598e-05,-674.84,1.3401
17912,17.34,0.72727,0,7.0453e-05,704.05,3.5863e-05,154.87,1.4951e-05,-2.2549,-6.6529e-05,-614.46,1.3526
17913,17.249,0.72727,0.05,3.946e-06,39.433,3.0301e-06,22.767,-7.3412e-13,4.9679e-06,-3.0301e-06,-22.767,1.3399
17914,17.158,0.72727,0,5.9125e-05,590.85,3.2026e-05,156.36,1.1313e-05,0.72463,-5.4894e-05,-496.73,1.3272
17915,17.249,1,0,0.00010494,1048.6,6.154e-05,336.71,1.6268e-05,-3.4421,-9.504e-05,-839.77,1.3405
17916,17.34,0.90909,0,8.8908e-05,888.47,4.7286e-05,221.99,1.7456e-05,-2.1461,-8.3021e-05,-757.08,1.353
17917,17.249,0.90909,0.05,4.6648e-06,46.615,3.582e-06,26.913,3.7301e-13,4.47e-06,-3.582e-06,-26.913,1.3403
17918,17.158,0.90909,0,7.5702e-05,756.5,4.2622e-05,221.29,1.3282e-05,0.84422,-6.9473e-05,-620.94,1.3276
17919,17.249,1.1818,0,0.00013221,1321.2,7.8971e-05,443.74,1.9419e-05,-3.7061,-0.00011891,-1043,1.3409
17920,17.34,1.0909,0,0.00011082,1107.5,6.0591e-05,298.26,2.0564e-05,-2.4822,-0.00010268,-928.52,1.3534
17921,17.249,1.0909,0.05,5.6785e-06,56.746,4.3604e-06,32.762,6.7687e-13,1.8633e-06,-4.3604e-06,-32.762,1.3407
17922,17.158,1.0909,0,9.5357e-05,952.92,5.5219e-05,298.55,1.5531e-05,0.35127,-8.6704e-05,-767.81,1.3281
17923,17.249,1.3636,0,0.00016733,1672.2,0.00010091,573.27,2.3709e-05,-6.7513,-0.00014997,-1311.7,1.3414
17924,17.34,1.2727,0,0.00013772,1376.2,7.6392e-05,385.34,2.4779e-05,-2.4652,-0.00012704,-1143.2,1.3538
17925,17.249,1.2727,0.05,7.2196e-06,72.146,5.5438e-06,41.654,1.8226e-12,2.1074e-05,-5.5438e-06,-41.654,1.3412
17926,17.158,1.2727,0,0.00011991,1198.3,7.0737e-05,393.65,1.8641e-05,2.2183,-0.00010828,-951.42,1.3285
17927,17.249,1.5455,0,0.00021673,2165.8,0.00013084,747.05,3.087e-05,-4.1057,-0.00019408,-1694.3,1.3419
17928,17.34,1.4545,0,0.00017181,1716.9,9.5274e-05,478.71,3.0765e-05,-5.9906,-0.00015856,-1428.5,1.3542
17929,17.249,1.4545,0.05,9.2422e-06,92.359,7.0969e-06,53.323,5.5034e-12,3.46e-05,-7.0969e-06,-53.323,1.3416
17930,17.158,1.4545,0,0.00015291,1528.1,9.1948e-05,520.7,2.1909e-05,-5.5511,-0.00013719,-1201,1.329
17931,17.249,1.7273,0,0.00028914,2889.4,0.00016626,872.45,4.6108e-05,-30.316,-0.00026403,-2360.6,1.3423
17932,17.34,1.6364,0,0.00021763,2174.8,0.00011852,582.33,4.1027e-05,0.10928,-0.0002018,-1824.4,1.3547
17933,17.249,1.6364,0.05,1.4005e-05,139.95,1.0754e-05,80.803,9.7891e-12,9.876e-05,-1.0754e-05,-80.803,1.3421
17934,17.158,1.6364,0,0.00019795,1978.1,0.00011648,657.64,3.2282e-05,25.01,-0.00017859,-1559.4,1.3296
17935,17.249,1.9091,0,0.00037145,3711.9,0.00018609,706.78,7.3583e-05,-138.57,-0.00035449,-3354.9,1.3428
17936,17.34,1.8182,0,0.00028343,2832.3,0.00014254,588.51,6.0114e-05,-30.793,-0.00026881,-2502.2,1.3551
17937,17.249,1.8182,0.05,2.4749e-05,247.32,1.9004e-05,142.79,3.4704e-11,0.00033297,-1.9004e-05,-142.79,1.3426
17938,17.158,1.8182,0,0.00028649,2862.9,0.00018109,1041.2,2.7804e-05,-110.57,-0.0002527,-2218.2,1.3301
17939,17.249,2.0909,0,0.00041399,4137.1,0.00017089,362.95,0.00011032,-92.179,-0.0004075,-3982.9,1.3433
17940,17.34,2,0,0.00034424,3440,0.0001453,332.65,8.8789e-05,-91.935,-0.00033817,-3300,1.3555
17941,17.249,2,0.05,4.3348e-05,433.18,3.3286e-05,250.1,9.7546e-12,0.00020457,-3.3286e-05,-250.1,1.343
17942,17.158,2,0,0.00061632,6158.9,0.00025717,527.23,0.00015783,-219.19,-0.00060767,-5970.9,1.3307
17943,17.249,2.2727,0,0.00040956,4092.8,0.00015959,289.38,0.00011966,-10.673,-0.00040399,-3945.2,1.3437
17944,17.34,2.1818,0,0.00036505,3648,0.0001359,183.07,0.00011084,-5.2547,-0.00036167,-3555.5,1.3559
17945,17.249,2.1818,0.05,2.6082e-05,260.64,2.0028e-05,150.48,-9.7817e-12,6.578e-05,-2.0028e-05,-150.48,1.3435
17946,17.249,2.4545,0,0.00038562,3853.5,0.0001536,317.56,0.00011095,-2.9033,-0.00037926,-3686.2,1.344
17947,17.34,2.3636,0,0.0003599,3596.5,0.00013739,221.1,0.00010707,-6.7243,-0.00035571,-3483.9,1.3562
17948,17.249,2.3636,0.05,1.1128e-05,111.21,8.5453e-06,64.206,-8.0225e-12,7.7281e-05,-8.5453e-06,-64.206,1.3438
17949,17.249,2.6364,0,0.00036257,3623.2,0.0001452,309.89,0.000104,0.31436,-0.0003563,-3458.1,1.3442
17950,17.34,2.5455,0,0.00034495,3447.2,0.00013316,234.02,0.0001021,0.63359,-0.00034037,-3323.9,1.3564
17951,17.249,2.5455,0.05,6.2039e-06,61.996,4.7639e-06,35.794,-3.206e-12,4.6578e-05,-4.7638e-06,-35.794,1.3441
17952,17.249,2.8182,0,0.00034989,3496.5,0.00014065,305,9.9973e-05,-0.61776,-0.00034371,-3334.3,1.3444
17953,17.34,2.7273,0,0.00033414,3339.1,0.00013013,239.91,9.8115e-05,-0.6288,-0.00032942,-3213,1.3566
17954,17.249,2.7273,0.05,3.8085e-06,38.059,2.9245e-06,21.973,-5.5496e-12,2.7639e-05,-2.9244e-06,-21.973,1.3443
17955,17.249,3,0,0.0003458,3455.6,0.00013908,302.67,9.8786e-05,-0.073852,-0.00033965,-3294.3,1.3444
17956,17.34,2.9091,0,0.00032864,3284.2,0.00012841,241.47,9.6268e-05,-0.03162,-0.00032387,-3156.8,1.3567
17957,17.249,2.9091,0.05,2.9904e-06,29.884,2.2963e-06,17.253,-3.2836e-12,2.1031e-05,-2.2963e-06,-17.253,1.3444
17958,17.249,3.1818,0,0.00034989,3496.5,0.00014065,305,9.9973e-05,-0.61776,-0.00034371,-3334.3,1.3444
17959,17.34,3.0909,0,0.00032864,3284.2,0.00012841,241.47,9.6268e-05,-0.031621,-0.00032387,-3156.8,1.3567
17960,17.249,3.0909,0.05,2.9904e-06,29.884,2.2963e-06,17.253,3.3664e-12,2.8498e-05,-2.2963e-06,-17.253,1.3444
17961,17.249,3.3636,0,0.00036257,3623.2,0.0001452,309.89,0.000104,0.31436,-0.0003563,-3458.1,1.3442
17962,17.34,3.2727,0,0.00033414,3339.1,0.00013013,239.91,9.8115e-05,-0.6288,-0.00032942,-3213,1.3566
17963,17.249,3.2727,0.05,3.8085e-06,38.059,2.9245e-06,21.973,5.0439e-12,3.4422e-05,-2.9245e-06,-21.973,1.3443
17964,17.249,3.5455,0,0.00038562,3853.5,0.0001536,317.56,0.00011095,-2.9033,-0.00037926,-3686.2,1.344
17965,17.34,3.4545,0,0.00034495,3447.2,0.00013316,234.02,0.0001021,0.63359,-0.00034037,-3323.9,1.3564
17966,17.249,3.4545,0.05,6.2039e-06,61.996,4.7638e-06,35.794,7.4168e-12,1.6949e-05,-4.7639e-06,-35.794,1.3441
17967,17.249,3.7273,0,0.00040956,4092.8,0.00015959,289.38,0.00011966,-10.673,-0.00040399,-3945.2,1.3437
17968,17.34,3.6364,0,0.0003599,3596.5,0.00013739,221.1,0.00010707,-6.7243,-0.00035571,-3483.9,1.3562
17969,17.249,3.6364,0.05,1.1128e-05,111.21,8.5453e-06,64.206,7.7879e-12,-2.9582e-05,-8.5453e-06,-64.206,1.3438
17970,17.249,3.9091,0,0.00041399,4137.1,0.00017089,362.95,0.00011032,-92.179,-0.0004075,-3982.9,1.3433
17971,17.34,3.8182,0,0.00036505,3648,0.0001359,183.06,0.00011084,-5.2547,-0.00036167,-3555.5,1.3559
17972,17.249,3.8182,0.05,2.6082e-05,260.64,2.0028e-05,150.48,1.1441e-11,-2.7242e-05,-2.0028e-05,-150.48,1.3435
17973,17.249,4.0909,0,0.00037145,3711.9,0.00018609,706.78,7.3583e-05,-138.57,-0.00035449,-3354.9,1.3428
17974,17.34,4,0,0.00034424,3440,0.0001453,332.65,8.8789e-05,-91.935,-0.00033817,-3300,1.3555
17975,17.249,4,0.05,4.3348e-05,433.18,3.3286e-05,250.1,-8.8215e-12,-0.00016785,-3.3286e-05,-250.1,1.343
17976,17.158,4,0,0.00061632,6158.9,0.00025717,527.23,0.00015783,-219.19,-0.00060767,-5970.9,1.3307
17977,17.249,4.2727,0,0.00028914,2889.4,0.00016626,872.45,4.6108e-05,-30.316,-0.00026403,-2360.6,1.3423
17978,17.34,4.1818,0,0.00028343,2832.3,0.00014254,588.51,6.0114e-05,-30.793,-0.00026881,-2502.2,1.3551
17979,17.249,4.1818,0.05,2.4749e-05,247.32,1.9004e-05,142.79,-2.6401e-11,-0.00022002,-1.9004e-05,-142.79,1.3426
17980,17.158,4.1818,0,0.00028649,2862.9,0.00018109,1041.2,2.7804e-05,-110.57,-0.0002527,-2218.2,1.3301
17981,17.249,4.4545,0,0.00021673,2165.8,0.00013084,747.05,3.087e-05,-4.1057,-0.00019408,-1694.3,1.3419
17982,17.34,4.3636,0,0.00021763,2174.8,0.00011852,582.33,4.1027e-05,0.1093,-0.0002018,-1824.4,1.3547
17983,17.249,4.3636,0.05,1.4005e-05,139.95,1.0754e-05,80.803,-7.1985e-12,-3.7177e-05,-1.0754e-05,-80.803,1.3421
17984,17.158,4.3636,0,0.00019795,1978.1,0.00011648,657.64,3.2282e-05,25.01,-0.00017859,-1559.4,1.3296
17985,17.249,4.6364,0,0.00016733,1672.2,0.00010091,573.27,2.3709e-05,-6.7513,-0.00014997,-1311.7,1.3414
17986,17.34,4.5455,0,0.00017181,1716.9,9.5274e-05,478.71,3.0765e-05,-5.9906,-0.00015856,-1428.5,1.3542
17987,17.249,4.5455,0.05,9.2422e-06,92.359,7.0969e-06,53.323,-6.375e-13,-2.9078e-05,-7.0969e-06,-53.323,1.3416
17988,17.158,4.5455,0,0.00015291,1528.1,9.1948e-05,520.7,2.1909e-05,-5.5511,-0.00013719,-1201,1.329
17989,17.249,4.8182,0,0.00013221,1321.2,7.8971e-05,443.74,1.9419e-05,-3.7061,-0.00011891,-1043,1.3409
17990,17.34,4.7273,0,0.00013772,1376.2,7.6392e-05,385.34,2.4779e-05,-2.4651,-0.00012704,-1143.2,1.3538
17991,17.249,4.7273,0.05,7.2196e-06,72.146,5.5438e-06,41.654,-1.4939e-14,-7.7547e-06,-5.5438e-06,-41.654,1.3412
17992,17.158,4.7273,0,0.00011991,1198.3,7.0737e-05,393.65,1.8641e-05,2.2183,-0.00010828,-951.42,1.3285
17993,17.249,5,0,0.00010494,1048.6,6.154e-05,336.71,1.6268e-05,-3.4421,-9.504e-05,-839.77,1.3405
17994,17.34,4.9091,0,0.00011082,1107.5,6.0591e-05,298.26,2.0564e-05,-2.4822,-0.00010268,-928.52,1.3534
17995,17.249,4.9091,0.05,5.6785e-06,56.746,4.3604e-06,32.762,9.5316e-14,4.6583e-06,-4.3604e-06,-32.762,1.3407
17996,17.158,4.9091,0,9.5357e-05,952.92,5.5219e-05,298.55,1.5531e-05,0.35127,-8.6704e-05,-767.81,1.3281
17997,17.249,5.1818,0,8.2652e-05,825.95,4.7135e-05,247.33,1.3814e-05,-3.0278,-7.5598e-05,-674.84,1.3401
17998,17.34,5.0909,0,8.8908e-05,888.47,4.7286e-05,221.99,1.7456e-05,-2.1461,-8.302e-05,-757.08,1.353
17999,17.249,5.0909,0.05,4.6648e-06,46.615,3.582e-06,26.913,-7.7631e-13,3.576e-06,-3.582e-06,-26.913,1.3403
18000,17.158,5.0909,0,7.5702e-05,756.5,4.2622e-05,221.29,1.3282e-05,0.84422,-6.9473e-05,-620.94,1.3276
18001,17.249,5.3636,0,6.365e-05,636.06,3.483e-05,170.74,1.1686e-05,-3.16,-5.8989e-05,-534.18,1.3397
18002,17.34,5.2727,0,7.0453e-05,704.05,3.5863e-05,154.87,1.4951e-05,-2.2549,-6.6529e-05,-614.46,1.3526
18003,17.249,5.2727,0.05,3.946e-06,39.433,3.0301e-06,22.767,3.4546e-13,5.4707e-06,-3.0301e-06,-22.767,1.3399
18004,17.158,5.2727,0,5.9125e-05,590.85,3.2026e-05,156.36,1.1313e-05,0.72462,-5.4894e-05,-496.73,1.3272
18005,17.249,5.5455,0,4.6977e-05,469.44,2.4173e-05,105.34,9.6534e-06,-3.7524,-4.4287e-05,-409.04,1.3393
18006,17.34,5.4545,0,5.4652e-05,546.15,2.6043e-05,96.879,1.2774e-05,-2.8201,-5.2365e-05,-492.25,1.3522
18007,17.249,5.4545,0.05,3.4591e-06,34.567,2.6561e-06,19.957,3.3298e-13,6.4579e-06,-2.6561e-06,-19.957,1.3395
18008,17.158,5.4545,0,4.4513e-05,444.83,2.2759e-05,100.34,9.5008e-06,0.72651,-4.1949e-05,-385.85,1.3267
18009,17.249,5.7273,0,3.2798e-05,327.75,1.5709e-05,56.521,7.3453e-06,-6.3199,-3.1489e-05,-298.1,1.3389
18010,17.34,5.6364,0,4.1402e-05,413.73,1.8061e-05,51.287,1.0683e-05,-4.1518,-4.032e-05,-387.37,1.3518
18011,17.249,5.6364,0.05,3.2e-06,31.978,2.4572e-06,18.463,3.7721e-13,3.9147e-06,-2.4572e-06,-18.463,1.3391
18012,17.158,5.6364,0,3.1121e-05,311,1.4454e-05,51.976,7.6859e-06,1.1255,-2.9904e-05,-281.31,1.3263
18013,17.34,5.8182,0,3.2515e-05,324.93,1.3658e-05,31.809,8.5472e-06,-6.5925,-3.1916e-05,-310.61,1.3514
18014,17.249,5.8182,0.05,3.5162e-06,35.138,2.7e-06,20.287,2.0865e-13,4.8301e-06,-2.7e-06,-20.287,1.3387
18015,17.249,5.9091,0,2.0775e-05,207.6,8.3402e-06,15.091,5.6661e-06,-5.0018,-2.053e-05,-201.83,1.3385
18016,17.158,5.8182,0,1.8859e-05,188.46,7.6406e-06,16.945,5.3287e-06,-0.426,-1.8518e-05,-179.6,1.3259
18017,17.432,0.27273,0,4.235e-05,423.21,1.6852e-05,32.895,1.2027e-05,-3.3534,-4.1731e-05,-407.27,1.3644
18018,17.523,0.18182,0,4.5844e-05,458.12,1.7699e-05,29.616,1.3425e-05,-2.5022,-4.5298e-05,-443.72,1.3769
18019,17.432,0.18182,0.05,3.037e-06,30.349,2.332e-06,17.522,-1.3072e-13,1.8249e-06,-2.332e-06,-17.522,1.3642
18020,17.432,0.090909,0,3.5655e-05,356.3,1.2843e-05,12.774,1.11e-05,-0.32391,-3.5425e-05,-349.89,1.364
18021,17.432,0.45455,0,5.0978e-05,509.43,2.1288e-05,53.017,1.3937e-05,-2.2139,-4.9889e-05,-481.78,1.3647
18022,17.523,0.36364,0,5.0677e-05,506.42,1.952e-05,32.238,1.4874e-05,-2.6669,-5.0084e-05,-490.74,1.3773
18023,17.432,0.36364,0.05,2.5917e-06,25.9,1.9901e-06,14.953,-3.7535e-15,2.5982e-06,-1.9901e-06,-14.953,1.3645
18024,17.432,0.63636,0,6.3496e-05,634.52,2.8543e-05,92.028,1.6105e-05,-1.4276,-6.1436e-05,-584.04,1.3651
18025,17.523,0.54545,0,5.9925e-05,598.84,2.4408e-05,55.057,1.6813e-05,-2.0032,-5.8818e-05,-570.27,1.3777
18026,17.432,0.54545,0.05,2.6296e-06,26.278,2.0192e-06,15.172,2.548e-13,8.9434e-06,-2.0192e-06,-15.172,1.3649
18027,17.432,0.81818,0,7.8872e-05,788.17,3.7544e-05,141.02,1.8635e-05,-1.0515,-7.5524e-05,-708.53,1.3655
18028,17.523,0.72727,0,7.2265e-05,722.15,3.1257e-05,89.487,1.9147e-05,-1.5029,-7.0337e-05,-673.85,1.378
18029,17.432,0.72727,0.05,2.8017e-06,27.997,2.1513e-06,16.164,4.2784e-13,1.3608e-05,-2.1513e-06,-16.164,1.3653
18030,17.432,1,0,9.7222e-05,971.54,4.8025e-05,196.22,2.1787e-05,-0.92181,-9.2386e-05,-858.78,1.3659
18031,17.523,0.90909,0,8.7362e-05,873.02,3.9536e-05,130.29,2.2017e-05,-1.3361,-8.442e-05,-801.07,1.3784
18032,17.432,0.90909,0.05,3.0998e-06,30.976,2.3802e-06,17.884,1.3101e-12,1.5772e-05,-2.3802e-06,-17.884,1.3657
18033,17.432,1.1818,0,0.00011927,1191.9,6.0032e-05,255.03,2.5957e-05,-0.99601,-0.00011287,-1044.1,1.3663
18034,17.523,1.0909,0,0.00010539,1053.2,4.8985e-05,173.52,2.5709e-05,-1.3648,-0.00010137,-956.19,1.3788
18035,17.432,1.0909,0.05,3.5468e-06,35.443,2.7235e-06,20.463,3.0272e-12,3.0152e-05,-2.7235e-06,-20.463,1.3661
18036,17.432,1.3636,0,0.00014599,1458.9,7.3319e-05,309.99,3.187e-05,-1.4436,-0.00013822,-1279.4,1.3667
18037,17.523,1.2727,0,0.00012691,1268.2,5.9418e-05,214.43,3.0666e-05,-1.601,-0.0001219,-1147.9,1.3791
18038,17.432,1.2727,0.05,4.1076e-06,41.047,3.1541e-06,23.699,4.6137e-12,4.5831e-05,-3.1541e-06,-23.699,1.3664
18039,17.432,1.5455,0,0.00017835,1782.3,8.6685e-05,342.08,4.0963e-05,-1.4622,-0.00017005,-1587,1.367
18040,17.523,1.4545,0,0.00015246,1523.6,7.0155e-05,242.03,3.7659e-05,-2.1326,-0.00014691,-1388.9,1.3795
18041,17.432,1.4545,0.05,5.1625e-06,51.59,3.9642e-06,29.785,7.3741e-12,8.5994e-05,-3.9642e-06,-29.785,1.3668
18042,17.432,1.7273,0,0.00021704,2168.9,9.7916e-05,321.84,5.51e-05,0.13344,-0.00020977,-1990,1.3674
18043,17.523,1.6364,0,0.0001824,1822.7,7.9711e-05,236.34,4.782e-05,-3.2772,-0.00017725,-1694.4,1.3798
18044,17.432,1.6364,0.05,5.5731e-06,55.692,4.2794e-06,32.154,1.5757e-11,0.00014528,-4.2794e-06,-32.154,1.3672
18045,17.432,1.9091,0,0.00025572,2555.5,0.00010064,206.07,7.5346e-05,16.032,-0.00025141,-2439.1,1.3678
18046,17.523,1.8182,0,0.0002162,2160.5,8.5993e-05,176.08,6.2242e-05,-2.3704,-0.00021269,-2068.1,1.3802
18047,17.432,1.8182,0.05,8.4941e-06,84.882,6.5224e-06,49.007,1.7204e-11,0.00021919,-6.5224e-06,-49.007,1.3676
18048,17.432,2.0909,0,0.00029028,2900.8,0.00010252,94.227,9.2991e-05,22.611,-0.00028822,-2841.7,1.3681
18049,17.523,2,0,0.00024761,2474.4,8.5781e-05,55.623,7.9905e-05,11.472,-0.00024644,-2440.6,1.3805
18050,17.432,2,0.05,8.144e-06,81.383,6.2536e-06,46.987,-4.0869e-12,2.9601e-05,-6.2535e-06,-46.987,1.3679
18051,17.432,2.2727,0,0.00031203,3118.1,0.00011028,89.043,9.8692e-05,1.9551,-0.00031039,-3071.7,1.3684
18052,17.523,2.1818,0,0.00027544,2752.5,9.2543e-05,20.636,8.9994e-05,1.4848,-0.00027505,-2741.3,1.3808
18053,17.432,2.1818,0.05,1.1897e-05,118.89,9.1357e-06,68.642,-1.1851e-11,5.498e-06,-9.1357e-06,-68.642,1.3683
18054,17.432,2.4545,0,0.00031793,3177.1,0.00011573,128.33,9.8231e-05,-3.1251,-0.00031559,-3112.4,1.3687
18055,17.523,2.3636,0,0.00028976,2895.6,0.00010014,51.437,9.267e-05,-4.6726,-0.00028893,-2871.8,1.381
18056,17.432,2.3636,0.05,8.9503e-06,89.441,6.8727e-06,51.639,-1.1004e-11,4.263e-06,-6.8727e-06,-51.639,1.3686
18057,17.432,2.6364,0,0.00031582,3156.1,0.00011741,158.88,9.6238e-05,-0.17085,-0.00031282,-3073.7,1.3689
18058,17.523,2.5455,0,0.00029378,2935.8,0.00010424,87.191,9.2529e-05,-0.82116,-0.00029222,-2891.6,1.3812
18059,17.432,2.5455,0.05,6.661e-06,66.564,5.1148e-06,38.431,-1.0669e-11,-3.1522e-06,-5.1148e-06,-38.431,1.3688
18060,17.432,2.8182,0,0.00031235,3121.4,0.00011736,172.41,9.4419e-05,0.015846,-0.00030906,-3031.6,1.369
18061,17.523,2.7273,0,0.00029324,2930.3,0.00010576,108.18,9.1362e-05,0.016445,-0.00029125,-2874.7,1.3813
18062,17.432,2.7273,0.05,4.865e-06,48.617,3.7358e-06,28.069,-7.5283e-12,-4.7282e-06,-3.7357e-06,-28.069,1.3689
18063,17.432,3,0,0.00031097,3107.6,0.00011724,176.52,9.3759e-05,0.072255,-0.00030759,-3015.5,1.369
18064,17.523,2.9091,0,0.00029228,2920.8,0.00010625,118.08,9.0563e-05,0.22956,-0.00029009,-2859.8,1.3814
18065,17.432,2.9091,0.05,4.0842e-06,40.814,3.1362e-06,23.564,-2.6177e-12,1.2839e-05,-3.1361e-06,-23.564,1.369
18066,17.432,3.1818,0,0.00031235,3121.4,0.00011736,172.41,9.4419e-05,0.015844,-0.00030906,-3031.6,1.369
18067,17.523,3.0909,0,0.00029228,2920.8,0.00010625,118.08,9.0563e-05,0.22956,-0.00029009,-2859.8,1.3814
18068,17.432,3.0909,0.05,4.0842e-06,40.814,3.1361e-06,23.564,2.6261e-12,3.5029e-05,-3.1362e-06,-23.564,1.369
18069,17.432,3.3636,0,0.00031582,3156.1,0.00011741,158.88,9.6238e-05,-0.17085,-0.00031282,-3073.7,1.3689
18070,17.523,3.2727,0,0.00029324,2930.3,0.00010576,108.18,9.1362e-05,0.016446,-0.00029125,-2874.7,1.3813
18071,17.432,3.2727,0.05,4.865e-06,48.617,3.7357e-06,28.069,6.7948e-12,5.1157e-05,-3.7357e-06,-28.069,1.3689
18072,17.432,3.5455,0,0.00031793,3177.1,0.00011573,128.33,9.8231e-05,-3.1251,-0.00031559,-3112.4,1.3687
18073,17.523,3.4545,0,0.00029378,2935.8,0.00010424,87.191,9.2529e-05,-0.82116,-0.00029222,-2891.6,1.3812
18074,17.432,3.4545,0.05,6.661e-06,66.564,5.1148e-06,38.431,1.0744e-11,4.3365e-05,-5.1148e-06,-38.431,1.3688
18075,17.432,3.7273,0,0.00031203,3118.1,0.00011028,89.043,9.8692e-05,1.9551,-0.00031039,-3071.7,1.3684
18076,17.523,3.6364,0,0.00028976,2895.6,0.00010014,51.437,9.267e-05,-4.6726,-0.00028893,-2871.8,1.381
18077,17.432,3.6364,0.05,8.9503e-06,89.441,6.8727e-06,51.639,1.1656e-11,3.9153e-05,-6.8727e-06,-51.639,1.3686
18078,17.432,3.9091,0,0.00029028,2900.8,0.00010252,94.227,9.2991e-05,22.611,-0.00028822,-2841.7,1.3681
18079,17.523,3.8182,0,0.00027544,2752.5,9.2543e-05,20.636,8.9994e-05,1.4848,-0.00027505,-2741.3,1.3808
18080,17.432,3.8182,0.05,1.1897e-05,118.89,9.1357e-06,68.642,9.832e-12,1.7175e-05,-9.1357e-06,-68.642,1.3683
18081,17.432,4.0909,0,0.00025572,2555.5,0.00010064,206.07,7.5346e-05,16.032,-0.00025141,-2439.1,1.3678
18082,17.523,4,0,0.00024761,2474.4,8.5781e-05,55.623,7.9905e-05,11.472,-0.00024644,-2440.6,1.3805
18083,17.432,4,0.05,8.144e-06,81.383,6.2535e-06,46.987,6.2704e-12,-2.3396e-05,-6.2535e-06,-46.987,1.3679
18084,17.432,4.2727,0,0.00021704,2168.9,9.7916e-05,321.84,5.51e-05,0.13345,-0.00020977,-1990,1.3674
18085,17.523,4.1818,0,0.0002162,2160.5,8.5993e-05,176.08,6.2242e-05,-2.3704,-0.00021269,-2068.1,1.3802
18086,17.432,4.1818,0.05,8.4941e-06,84.882,6.5224e-06,49.007,-1.3231e-11,-0.00012661,-6.5224e-06,-49.007,1.3676
18087,17.432,4.4545,0,0.00017835,1782.3,8.6685e-05,342.08,4.0963e-05,-1.4622,-0.00017005,-1587,1.367
18088,17.523,4.3636,0,0.0001824,1822.7,7.9711e-05,236.34,4.782e-05,-3.2772,-0.00017725,-1694.4,1.3798
18089,17.432,4.3636,0.05,5.5731e-06,55.692,4.2794e-06,32.154,-9.4864e-12,-7.3032e-05,-4.2794e-06,-32.154,1.3672
18090,17.432,4.6364,0,0.00014599,1458.9,7.3319e-05,309.99,3.187e-05,-1.4436,-0.00013822,-1279.4,1.3667
18091,17.523,4.5455,0,0.00015246,1523.6,7.0155e-05,242.03,3.7659e-05,-2.1326,-0.00014691,-1388.9,1.3795
18092,17.432,4.5455,0.05,5.1625e-06,51.59,3.9642e-06,29.785,-5.7207e-12,-5.0765e-05,-3.9642e-06,-29.785,1.3668
18093,17.432,4.8182,0,0.00011927,1191.9,6.0032e-05,255.03,2.5957e-05,-0.99601,-0.00011287,-1044.1,1.3663
18094,17.523,4.7273,0,0.00012691,1268.2,5.9418e-05,214.43,3.0666e-05,-1.601,-0.0001219,-1147.9,1.3791
18095,17.432,4.7273,0.05,4.1076e-06,41.047,3.1541e-06,23.699,-2.321e-12,-2.1316e-05,-3.1541e-06,-23.699,1.3664
18096,17.432,5,0,9.7222e-05,971.54,4.8025e-05,196.22,2.1787e-05,-0.92181,-9.2386e-05,-858.78,1.3659
18097,17.523,4.9091,0,0.00010539,1053.2,4.8985e-05,173.52,2.5709e-05,-1.3648,-0.00010137,-956.19,1.3788
18098,17.432,4.9091,0.05,3.5468e-06,35.443,2.7235e-06,20.463,-8.8687e-13,-1.4886e-05,-2.7235e-06,-20.463,1.3661
18099,17.432,5.1818,0,7.8872e-05,788.17,3.7544e-05,141.02,1.8635e-05,-1.0515,-7.5524e-05,-708.53,1.3655
18100,17.523,5.0909,0,8.7362e-05,873.02,3.9536e-05,130.29,2.2017e-05,-1.3361,-8.442e-05,-801.07,1.3784
18101,17.432,5.0909,0.05,3.0998e-06,30.976,2.3802e-06,17.884,-9.826e-13,-8.0895e-06,-2.3802e-06,-17.884,1.3657
18102,17.432,5.3636,0,6.3496e-05,634.52,2.8543e-05,92.028,1.6105e-05,-1.4276,-6.1436e-05,-584.04,1.3651
18103,17.523,5.2727,0,7.2265e-05,722.15,3.1257e-05,89.487,1.9147e-05,-1.5029,-7.0337e-05,-673.85,1.378
18104,17.432,5.2727,0.05,2.8017e-06,27.997,2.1513e-06,16.164,-1.8567e-13,1.0254e-06,-2.1513e-06,-16.164,1.3653
18105,17.432,5.5455,0,5.0978e-05,509.43,2.1288e-05,53.017,1.3937e-05,-2.2139,-4.9889e-05,-481.78,1.3647
18106,17.523,5.4545,0,5.9925e-05,598.84,2.4408e-05,55.057,1.6813e-05,-2.0032,-5.8818e-05,-570.27,1.3777
18107,17.432,5.4545,0.05,2.6296e-06,26.278,2.0192e-06,15.172,5.3794e-14,4.8038e-07,-2.0192e-06,-15.172,1.3649
18108,17.432,5.7273,0,4.235e-05,423.21,1.6852e-05,32.895,1.2027e-05,-3.3534,-4.1731e-05,-407.27,1.3644
18109,17.523,5.6364,0,5.0677e-05,506.42,1.952e-05,32.238,1.4874e-05,-2.6669,-5.0084e-05,-490.74,1.3773
18110,17.432,5.6364,0.05,2.5917e-06,25.9,1.9901e-06,14.953,1.7997e-13,5.0971e-06,-1.9901e-06,-14.953,1.3645
18111,17.523,5.8182,0,4.5844e-05,458.12,1.7699e-05,29.616,1.3425e-05,-2.5022,-4.5298e-05,-443.72,1.3769
18112,17.432,5.8182,0.05,3.037e-06,30.349,2.332e-06,17.522,1.5113e-13,4.8678e-06,-2.332e-06,-17.522,1.3642
18113,17.432,5.9091,0,3.5655e-05,356.3,1.2843e-05,12.774,1.11e-05,-0.32391,-3.5425e-05,-349.89,1.364
18114,17.614,0.27273,0,5.4426e-05,543.88,2.0609e-05,30.775,1.6241e-05,-2.043,-5.3863e-05,-528.77,1.3899
18115,17.705,0.18182,0,5.808e-05,580.4,2.1806e-05,31.141,1.7501e-05,-1.2044,-5.7504e-05,-564.76,1.4025
18116,17.614,0.18182,0.05,2.7516e-06,27.497,2.1129e-06,15.876,4.2085e-13,3.5237e-06,-2.1129e-06,-15.876,1.3897
18117,17.614,0.090909,0,4.9291e-05,492.57,1.7569e-05,15.59,1.5476e-05,-0.1368,-4.9009e-05,-484.66,1.3895
18118,17.614,0.45455,0,6.0379e-05,603.38,2.3229e-05,38.713,1.7799e-05,-2.0897,-5.9653e-05,-584.03,1.3902
18119,17.705,0.36364,0,6.1519e-05,614.77,2.2872e-05,30.029,1.8655e-05,-1.6568,-6.0975e-05,-599.97,1.4028
18120,17.614,0.36364,0.05,2.2804e-06,22.788,1.7511e-06,13.157,2.8818e-13,4.7269e-06,-1.7511e-06,-13.157,1.39
18121,17.614,0.63636,0,6.9859e-05,698.11,2.8047e-05,59.471,1.9887e-05,-1.8459,-6.8676e-05,-667.27,1.3906
18122,17.705,0.54545,0,6.8382e-05,683.35,2.6017e-05,40.645,2.0373e-05,-1.7638,-6.7622e-05,-662.92,1.4032
18123,17.614,0.54545,0.05,2.2969e-06,22.953,1.7637e-06,13.252,4.6661e-13,7.7289e-06,-1.7637e-06,-13.252,1.3904
18124,17.614,0.81818,0,8.2196e-05,821.39,3.438e-05,87.256,2.2542e-05,-1.6878,-8.0378e-05,-774.98,1.3909
18125,17.705,0.72727,0,7.8009e-05,779.55,3.063e-05,58.185,2.2665e-05,-1.6644,-7.6875e-05,-749.56,1.4035
18126,17.614,0.72727,0.05,2.3939e-06,23.922,1.8382e-06,13.812,1.6106e-12,2.0098e-05,-1.8382e-06,-13.812,1.3907
18127,17.614,1,0,9.7212e-05,971.45,4.1784e-05,117.27,2.5944e-05,-1.7419,-9.4698e-05,-908.2,1.3913
18128,17.705,0.90909,0,9.0149e-05,900.87,3.6335e-05,78.913,2.5613e-05,-1.6467,-8.8564e-05,-859.53,1.4038
18129,17.614,0.90909,0.05,2.5469e-06,25.452,1.9557e-06,14.694,2.5635e-12,2.8152e-05,-1.9557e-06,-14.694,1.3911
18130,17.614,1.1818,0,0.00011495,1148.7,4.9813e-05,143.76,3.0418e-05,-1.9758,-0.00011184,-1070.9,1.3916
18131,17.705,1.0909,0,0.0001047,1046.3,4.2735e-05,98.291,2.9414e-05,-1.7951,-0.0001027,-994.45,1.4042
18132,17.614,1.0909,0.05,2.7461e-06,27.442,2.1087e-06,15.844,4.2295e-12,5.0012e-05,-2.1087e-06,-15.844,1.3914
18133,17.614,1.3636,0,0.00013551,1354.2,5.7821e-05,158.25,3.645e-05,-2.3286,-0.00013215,-1269.1,1.392
18134,17.705,1.2727,0,0.00012162,1215.4,4.9314e-05,110.15,3.4372e-05,-2.1258,-0.00011939,-1157.4,1.4045
18135,17.614,1.2727,0.05,2.9786e-06,29.765,2.2872e-06,17.185,6.0037e-12,7.3557e-05,-2.2872e-06,-17.185,1.3918
18136,17.614,1.5455,0,0.00015846,1583.5,6.458e-05,146.8,4.4507e-05,-4.0181,-0.00015549,-1506.7,1.3923
18137,17.705,1.4545,0,0.00014081,1407.1,5.5376e-05,106.27,4.0874e-05,-2.6924,-0.00013873,-1352.2,1.4048
18138,17.614,1.4545,0.05,3.1449e-06,31.427,2.4149e-06,18.145,1.0855e-11,0.00010724,-2.4149e-06,-18.145,1.3921
18139,17.614,1.7273,0,0.00018297,1828.4,6.8751e-05,97.818,5.5004e-05,-5.4683,-0.00018118,-1780,1.3926
18140,17.705,1.6364,0,0.00016156,1614.5,5.9831e-05,75.724,4.9113e-05,-4.8072,-0.0001602,-1577.5,1.4051
18141,17.614,1.6364,0.05,3.4075e-06,34.051,2.6165e-06,19.659,1.2776e-11,0.00015651,-2.6165e-06,-19.659,1.3924
18142,17.614,1.9091,0,0.00020824,2081,7.1526e-05,28.57,6.6574e-05,-8.6353,-0.00020788,-2070.8,1.3929
18143,17.705,1.8182,0,0.00018321,1830.9,6.2774e-05,21.711,5.8523e-05,-10.231,-0.000183,-1824.9,1.4053
18144,17.614,1.8182,0.05,4.1807e-06,41.778,3.2102e-06,24.121,9.0041e-12,0.0001148,-3.2102e-06,-24.12,1.3927
18145,17.614,2.0909,0,0.00023223,2320.7,7.7767e-05,-3.202,7.4426e-05,-28.306,-0.00023275,-2336.3,1.3931
18146,17.705,2,0,0.00020499,2048.5,7.0002e-05,-0.27357,6.3611e-05,-48.298,-0.00020577,-2072.3,1.4056
18147,17.614,2,0.05,5.3705e-06,53.668,4.1239e-06,30.985,-3.9047e-12,3.6844e-05,-4.1239e-06,-30.985,1.393
18148,17.614,2.2727,0,0.00025187,2517,8.4793e-05,1.0285,8.0372e-05,-32.189,-0.00025239,-2532.4,1.3934
18149,17.705,2.1818,0,0.00022491,2247.5,7.7671e-05,-0.35344,6.829e-05,-70.84,-0.00022604,-2282.3,1.4058
18150,17.614,2.1818,0.05,6.1276e-06,61.234,4.7053e-06,35.354,-8.6208e-12,1.7591e-06,-4.7052e-06,-35.353,1.3932
18151,17.614,2.4545,0,0.00026442,2642.4,8.8491e-05,9.0762,8.6006e-05,-9.5956,-0.00026443,-2642.6,1.3936
18152,17.705,2.3636,0,0.00024033,2401.7,8.2249e-05,2.3356,7.4518e-05,-55.759,-0.00024119,-2427.9,1.406
18153,17.614,2.3636,0.05,6.4993e-06,64.948,4.9906e-06,37.498,-1.1643e-11,-1.8299e-05,-4.9906e-06,-37.497,1.3935
18154,17.614,2.6364,0,0.00027032,2701.4,9.1819e-05,30.676,8.7592e-05,-1.0865,-0.00026981,-2686.4,1.3937
18155,17.705,2.5455,0,0.00024945,2492.8,8.3871e-05,2.2152,7.9893e-05,-27.671,-0.00024987,-2505.4,1.4062
18156,17.614,2.5455,0.05,5.6279e-06,56.24,4.3216e-06,32.471,-9.5e-12,-2.0423e-05,-4.3215e-06,-32.47,1.3936
18157,17.614,2.8182,0,0.00027247,2722.8,9.3968e-05,48.789,8.751e-05,0.26647,-0.0002716,-2698,1.3938
18158,17.705,2.7273,0,0.00025392,2537.4,8.4392e-05,3.5469,8.3108e-05,-6.1012,-0.00025396,-2538.7,1.4063
18159,17.614,2.7273,0.05,4.8732e-06,48.699,3.742e-06,28.116,-8.1723e-12,-1.4294e-05,-3.742e-06,-28.116,1.3938
18160,17.614,3,0,0.00027295,2727.6,9.4624e-05,54.918,8.7378e-05,0.47311,-0.00027196,-2699.5,1.3939
18161,17.705,2.9091,0,0.00025562,2554.4,8.5083e-05,8.8872,8.3933e-05,0.24053,-0.00025546,-2549.8,1.4063
18162,17.614,2.9091,0.05,4.4209e-06,44.179,3.3947e-06,25.507,-1.6524e-12,4.334e-06,-3.3947e-06,-25.507,1.3938
18163,17.614,3.1818,0,0.00027247,2722.8,9.3968e-05,48.789,8.751e-05,0.26647,-0.0002716,-2698,1.3938
18164,17.705,3.0909,0,0.00025562,2554.4,8.5083e-05,8.8872,8.3933e-05,0.24053,-0.00025546,-2549.8,1.4063
18165,17.614,3.0909,0.05,4.4209e-06,44.179,3.3947e-06,25.507,2.5647e-12,2.631e-05,-3.3947e-06,-25.507,1.3938
18166,17.614,3.3636,0,0.00027032,2701.4,9.1819e-05,30.676,8.7592e-05,-1.0865,-0.00026981,-2686.4,1.3937
18167,17.705,3.2727,0,0.00025392,2537.4,8.4392e-05,3.5469,8.3108e-05,-6.1012,-0.00025396,-2538.7,1.4063
18168,17.614,3.2727,0.05,4.8732e-06,48.699,3.742e-06,28.116,7.4589e-12,4.4297e-05,-3.742e-06,-28.116,1.3938
18169,17.614,3.5455,0,0.00026442,2642.4,8.8491e-05,9.0761,8.6006e-05,-9.5956,-0.00026443,-2642.6,1.3936
18170,17.705,3.4545,0,0.00024945,2492.8,8.3871e-05,2.2152,7.9893e-05,-27.671,-0.00024987,-2505.4,1.4062
18171,17.614,3.4545,0.05,5.6279e-06,56.24,4.3215e-06,32.47,8.8256e-12,4.8805e-05,-4.3215e-06,-32.47,1.3936
18172,17.614,3.7273,0,0.00025187,2517,8.4793e-05,1.0285,8.0372e-05,-32.189,-0.00025239,-2532.4,1.3934
18173,17.705,3.6364,0,0.00024033,2401.7,8.2249e-05,2.3356,7.4518e-05,-55.759,-0.00024119,-2427.9,1.406
18174,17.614,3.6364,0.05,6.4993e-06,64.948,4.9906e-06,37.498,9.9077e-12,3.9469e-05,-4.9906e-06,-37.498,1.3935
18175,17.614,3.9091,0,0.00023223,2320.7,7.7767e-05,-3.202,7.4426e-05,-28.306,-0.00023275,-2336.3,1.3931
18176,17.705,3.8182,0,0.00022491,2247.5,7.7671e-05,-0.35344,6.829e-05,-70.839,-0.00022604,-2282.3,1.4058
18177,17.614,3.8182,0.05,6.1276e-06,61.234,4.7052e-06,35.353,5.738e-12,1.2542e-05,-4.7053e-06,-35.354,1.3932
18178,17.614,4.0909,0,0.00020824,2081,7.1526e-05,28.57,6.6574e-05,-8.6352,-0.00020788,-2070.8,1.3929
18179,17.705,4,0,0.00020499,2048.5,7.0002e-05,-0.27355,6.3611e-05,-48.298,-0.00020577,-2072.3,1.4056
18180,17.614,4,0.05,5.3705e-06,53.668,4.1239e-06,30.985,2.1491e-12,-2.4124e-05,-4.1239e-06,-30.985,1.393
18181,17.614,4.2727,0,0.00018297,1828.4,6.8751e-05,97.818,5.5004e-05,-5.4683,-0.00018118,-1780,1.3926
18182,17.705,4.1818,0,0.00018321,1830.9,6.2774e-05,21.711,5.8523e-05,-10.231,-0.000183,-1824.9,1.4053
18183,17.614,4.1818,0.05,4.1807e-06,41.778,3.2102e-06,24.12,-5.7238e-12,-7.0562e-05,-3.2102e-06,-24.121,1.3927
18184,17.614,4.4545,0,0.00015846,1583.5,6.458e-05,146.8,4.4507e-05,-4.0181,-0.00015549,-1506.7,1.3923
18185,17.705,4.3636,0,0.00016156,1614.5,5.9831e-05,75.724,4.9113e-05,-4.8072,-0.0001602,-1577.5,1.4051
18186,17.614,4.3636,0.05,3.4075e-06,34.051,2.6165e-06,19.659,-1.1013e-11,-8.0335e-05,-2.6165e-06,-19.659,1.3924
18187,17.614,4.6364,0,0.00013551,1354.2,5.7821e-05,158.25,3.645e-05,-2.3286,-0.00013215,-1269.1,1.392
18188,17.705,4.5455,0,0.00014081,1407.1,5.5376e-05,106.27,4.0874e-05,-2.6924,-0.00013873,-1352.2,1.4048
18189,17.614,4.5455,0.05,3.1449e-06,31.427,2.4149e-06,18.145,-6.9782e-12,-7.5533e-05,-2.4149e-06,-18.145,1.3921
18190,17.614,4.8182,0,0.00011495,1148.7,4.9814e-05,143.76,3.0418e-05,-1.9758,-0.00011184,-1070.9,1.3916
18191,17.705,4.7273,0,0.00012162,1215.4,4.9314e-05,110.15,3.4372e-05,-2.1258,-0.00011939,-1157.4,1.4045
18192,17.614,4.7273,0.05,2.9786e-06,29.765,2.2872e-06,17.185,-4.3659e-12,-3.8147e-05,-2.2872e-06,-17.185,1.3918
18193,17.614,5,0,9.7212e-05,971.45,4.1784e-05,117.27,2.5944e-05,-1.7419,-9.4698e-05,-908.2,1.3913
18194,17.705,4.9091,0,0.0001047,1046.3,4.2735e-05,98.291,2.9414e-05,-1.795,-0.0001027,-994.45,1.4042
18195,17.614,4.9091,0.05,2.7461e-06,27.442,2.1087e-06,15.844,-1.8142e-12,-1.7014e-05,-2.1087e-06,-15.844,1.3914
18196,17.614,5.1818,0,8.2196e-05,821.39,3.438e-05,87.256,2.2542e-05,-1.6878,-8.0378e-05,-774.98,1.3909
18197,17.705,5.0909,0,9.0149e-05,900.87,3.6335e-05,78.913,2.5613e-05,-1.6467,-8.8564e-05,-859.53,1.4038
18198,17.614,5.0909,0.05,2.5469e-06,25.452,1.9557e-06,14.694,-1.3627e-12,-1.6612e-05,-1.9557e-06,-14.694,1.3911
18199,17.614,5.3636,0,6.9859e-05,698.11,2.8047e-05,59.471,1.9887e-05,-1.8459,-6.8676e-05,-667.27,1.3906
18200,17.705,5.2727,0,7.8009e-05,779.55,3.063e-05,58.185,2.2665e-05,-1.6644,-7.6875e-05,-749.56,1.4035
18201,17.614,5.2727,0.05,2.3939e-06,23.922,1.8382e-06,13.812,-1.0584e-12,-3.2715e-06,-1.8382e-06,-13.812,1.3907
18202,17.614,5.5455,0,6.0379e-05,603.38,2.3229e-05,38.713,1.7799e-05,-2.0897,-5.9653e-05,-584.03,1.3902
18203,17.705,5.4545,0,6.8382e-05,683.35,2.6017e-05,40.645,2.0373e-05,-1.7638,-6.7622e-05,-662.92,1.4032
18204,17.614,5.4545,0.05,2.2969e-06,22.953,1.7637e-06,13.252,-1.4901e-13,3.2327e-08,-1.7637e-06,-13.252,1.3904
18205,17.614,5.7273,0,5.4426e-05,543.88,2.0609e-05,30.775,1.6241e-05,-2.043,-5.3863e-05,-528.77,1.3899
18206,17.705,5.6364,0,6.1519e-05,614.77,2.2872e-05,30.029,1.8655e-05,-1.6568,-6.0975e-05,-599.97,1.4028
18207,17.614,5.6364,0.05,2.2804e-06,22.788,1.7511e-06,13.157,-1.2747e-13,2.606e-07,-1.7511e-06,-13.157,1.39
18208,17.705,5.8182,0,5.808e-05,580.4,2.1806e-05,31.141,1.7501e-05,-1.2044,-5.7504e-05,-564.76,1.4025
18209,17.614,5.8182,0.05,2.7516e-06,27.497,2.1129e-06,15.876,1.4335e-13,4.6729e-06,-2.1129e-06,-15.876,1.3897
18210,17.614,5.9091,0,4.9291e-05,492.57,1.7569e-05,15.59,1.5476e-05,-0.1368,-4.9009e-05,-484.66,1.3895
18211,17.796,0.27273,0,6.5289e-05,652.44,2.4188e-05,31.282,1.9895e-05,-0.97162,-6.4714e-05,-636.69,1.4154
18212,17.888,0.18182,0,6.8324e-05,682.77,2.5181e-05,31.44,2.0927e-05,-0.52457,-6.7742e-05,-666.75,1.428
18213,17.796,0.18182,0.05,2.4265e-06,24.248,1.8632e-06,14,3.1554e-13,6.518e-06,-1.8632e-06,-14,1.4152
18214,17.796,0.090909,0,6.0929e-05,608.87,2.1548e-05,17.37,1.9246e-05,0.074237,-6.0614e-05,-599.96,1.4151
18215,17.796,0.45455,0,6.9849e-05,698.01,2.5938e-05,34.045,2.1232e-05,-1.3125,-6.9225e-05,-680.97,1.4158
18216,17.888,0.36364,0,7.113e-05,710.81,2.6022e-05,30.171,2.1886e-05,-0.90775,-7.0581e-05,-695.67,1.4284
18217,17.796,0.36364,0.05,1.9221e-06,19.208,1.4759e-06,11.09,7.3467e-13,1.0638e-05,-1.4759e-06,-11.09,1.4156
18218,17.796,0.63636,0,7.7152e-05,770.99,2.9111e-05,43.198,2.3164e-05,-1.4826,-7.6345e-05,-749.16,1.4161
18219,17.888,0.54545,0,7.6477e-05,764.24,2.8136e-05,34.193,2.3419e-05,-1.2474,-7.5855e-05,-747.15,1.4287
18220,17.796,0.54545,0.05,1.9197e-06,19.184,1.4741e-06,11.076,7.6014e-13,1.4464e-05,-1.4741e-06,-11.076,1.4159
18221,17.796,0.81818,0,8.6833e-05,867.73,3.3298e-05,55.195,2.5744e-05,-1.5677,-8.5781e-05,-839.52,1.4164
18222,17.888,0.72727,0,8.3984e-05,839.26,3.1147e-05,40.509,2.5559e-05,-1.472,-8.3241e-05,-818.96,1.429
18223,17.796,0.72727,0.05,1.9635e-06,19.621,1.5077e-06,11.328,1.9773e-12,2.5272e-05,-1.5077e-06,-11.328,1.4162
18224,17.796,1,0,9.8699e-05,986.31,3.8143e-05,66.367,2.9082e-05,-1.7106,-9.7422e-05,-952.21,1.4167
18225,17.888,0.90909,0,9.3518e-05,934.53,3.4829e-05,46.86,2.8367e-05,-1.6918,-9.2654e-05,-911,1.4293
18226,17.796,0.90909,0.05,2.0224e-06,20.21,1.553e-06,11.668,3.3411e-12,4.3261e-05,-1.553e-06,-11.668,1.4166
18227,17.796,1.1818,0,0.00011255,1124.7,4.3176e-05,71.749,3.3357e-05,-2.0329,-0.00011118,-1088,1.417
18228,17.888,1.0909,0,0.0001049,1048.3,3.8848e-05,49.799,3.195e-05,-2.0326,-0.00010399,-1023.5,1.4296
18229,17.796,1.0909,0.05,2.0884e-06,20.869,1.6036e-06,12.049,6.14e-12,5.4243e-05,-1.6036e-06,-12.049,1.4169
18230,17.796,1.3636,0,0.00012809,1280,4.7816e-05,65.285,3.8763e-05,-2.7327,-0.00012689,-1247.4,1.4173
18231,17.888,1.2727,0,0.0001179,1178.2,4.2776e-05,44.933,3.6428e-05,-2.7638,-0.00011711,-1156.4,1.4299
18232,17.796,1.2727,0.05,2.1545e-06,21.53,1.6544e-06,12.43,8.4398e-12,9.4067e-05,-1.6544e-06,-12.43,1.4172
18233,17.796,1.5455,0,0.00014492,1448.2,5.1525e-05,41.942,4.5366e-05,-4.3382,-0.00014423,-1428.9,1.4176
18234,17.888,1.4545,0,0.00013218,1320.9,4.6228e-05,28.381,4.1787e-05,-4.9819,-0.00013175,-1308.9,1.4301
18235,17.796,1.4545,0.05,2.2856e-06,22.841,1.7551e-06,13.187,1.2224e-11,0.00010626,-1.7551e-06,-13.187,1.4174
18236,17.796,1.7273,0,0.00016249,1623.7,5.5258e-05,10.16,5.1773e-05,-16.021,-0.00016257,-1626.5,1.4178
18237,17.888,1.6364,0,0.00014731,1472,5.0161e-05,7.5691,4.6672e-05,-18.644,-0.00014748,-1477.4,1.4304
18238,17.796,1.6364,0.05,2.6033e-06,26.015,1.999e-06,15.02,9.4055e-12,0.00011221,-1.999e-06,-15.02,1.4177
18239,17.796,1.9091,0,0.00018034,1802.1,6.253e-05,2.4786,5.4581e-05,-57.242,-0.0001812,-1828.8,1.4181
18240,17.888,1.8182,0,0.0001628,1626.9,5.677e-05,1.9133,4.8686e-05,-58.831,-0.00016368,-1654.5,1.4306
18241,17.796,1.8182,0.05,3.0778e-06,30.757,2.3634e-06,17.757,4.6044e-12,8.5791e-05,-2.3634e-06,-17.757,1.4179
18242,17.796,2.0909,0,0.0001977,1975.7,6.9816e-05,1.8937,5.7557e-05,-90.217,-0.00019905,-2018.2,1.4183
18243,17.888,2,0,0.00017837,1782.5,6.3769e-05,1.2347,5.0517e-05,-98.33,-0.00017982,-1829,1.4308
18244,17.796,2,0.05,3.7114e-06,37.088,2.8499e-06,21.413,-2.3973e-12,3.9562e-05,-2.8499e-06,-21.413,1.4182
18245,17.796,2.2727,0,0.00021301,2128.6,7.516e-05,1.1984,6.2039e-05,-97.391,-0.00021447,-2175,1.4185
18246,17.888,2.1818,0,0.00019312,1929.9,6.9558e-05,0.98987,5.3745e-05,-117.83,-0.00019483,-1985.5,1.431
18247,17.796,2.1818,0.05,4.3216e-06,43.186,3.3185e-06,24.934,-6.7985e-12,1.7368e-06,-3.3184e-06,-24.933,1.4184
18248,17.796,2.4545,0,0.00022476,2246,7.8341e-05,0.82117,6.7105e-05,-83.599,-0.00022605,-2286.2,1.4186
18249,17.888,2.3636,0,0.0002056,2054.6,7.3496e-05,0.56612,5.8159e-05,-114.67,-0.0002073,-2109.2,1.4312
18250,17.796,2.3636,0.05,4.6512e-06,46.48,3.5715e-06,26.835,-8.8601e-12,-1.6571e-05,-3.5715e-06,-26.835,1.4185
18251,17.796,2.6364,0,0.00023242,2322.6,7.9882e-05,0.91883,7.1357e-05,-63.134,-0.00023342,-2353.1,1.4188
18252,17.888,2.5455,0,0.00021475,2146,7.5779e-05,0.74378,6.2492e-05,-99.088,-0.00021624,-2193.4,1.4313
18253,17.796,2.5455,0.05,4.6214e-06,46.182,3.5487e-06,26.663,-7.6821e-12,-1.8295e-05,-3.5487e-06,-26.663,1.4187
18254,17.796,2.8182,0,0.00023648,2363.2,8.044e-05,0.70638,7.4018e-05,-47.543,-0.00023724,-2386.2,1.4188
18255,17.888,2.7273,0,0.00022036,2202.1,7.6859e-05,0.66178,6.5689e-05,-83.264,-0.00022165,-2242.2,1.4314
18256,17.796,2.7273,0.05,4.3973e-06,43.942,3.3766e-06,25.37,-4.9479e-12,-1.1677e-05,-3.3765e-06,-25.37,1.4188
18257,17.796,3,0,0.00023772,2375.6,8.0563e-05,0.57152,7.4906e-05,-41.931,-0.00023839,-2395.9,1.4189
18258,17.888,2.9091,0,0.00022296,2228,7.7263e-05,0.56954,6.7323e-05,-74.113,-0.00022411,-2263.8,1.4314
18259,17.796,2.9091,0.05,4.2295e-06,42.266,3.2478e-06,24.402,-3.3969e-12,3.7885e-06,-3.2477e-06,-24.402,1.4188
18260,17.796,3.1818,0,0.00023648,2363.2,8.044e-05,0.70638,7.4018e-05,-47.543,-0.00023724,-2386.2,1.4188
18261,17.888,3.0909,0,0.00022296,2228,7.7263e-05,0.56954,6.7323e-05,-74.113,-0.00022411,-2263.8,1.4314
18262,17.796,3.0909,0.05,4.2295e-06,42.266,3.2477e-06,24.402,6.778e-13,2.2975e-05,-3.2477e-06,-24.402,1.4188
18263,17.796,3.3636,0,0.00023242,2322.6,7.9882e-05,0.91882,7.1357e-05,-63.134,-0.00023342,-2353.1,1.4188
18264,17.888,3.2727,0,0.00022036,2202.1,7.6859e-05,0.66178,6.5689e-05,-83.264,-0.00022165,-2242.2,1.4314
18265,17.796,3.2727,0.05,4.3973e-06,43.942,3.3765e-06,25.37,5.0266e-12,3.6535e-05,-3.3765e-06,-25.37,1.4188
18266,17.796,3.5455,0,0.00022476,2246,7.8341e-05,0.82117,6.7105e-05,-83.599,-0.00022605,-2286.2,1.4186
18267,17.888,3.4545,0,0.00021475,2146,7.5779e-05,0.74378,6.2492e-05,-99.088,-0.00021624,-2193.4,1.4313
18268,17.796,3.4545,0.05,4.6214e-06,46.182,3.5487e-06,26.663,7.7145e-12,4.1712e-05,-3.5487e-06,-26.663,1.4187
18269,17.796,3.7273,0,0.00021301,2128.6,7.516e-05,1.1984,6.2039e-05,-97.391,-0.00021447,-2175,1.4185
18270,17.888,3.6364,0,0.0002056,2054.6,7.3496e-05,0.56612,5.8159e-05,-114.67,-0.0002073,-2109.2,1.4312
18271,17.796,3.6364,0.05,4.6512e-06,46.48,3.5715e-06,26.835,6.6349e-12,3.1802e-05,-3.5715e-06,-26.835,1.4185
18272,17.796,3.9091,0,0.0001977,1975.7,6.9816e-05,1.8937,5.7557e-05,-90.217,-0.00019905,-2018.2,1.4183
18273,17.888,3.8182,0,0.00019312,1929.9,6.9558e-05,0.98987,5.3745e-05,-117.83,-0.00019483,-1985.5,1.431
18274,17.796,3.8182,0.05,4.3216e-06,43.186,3.3184e-06,24.934,3.7292e-12,1.3461e-05,-3.3185e-06,-24.934,1.4184
18275,17.796,4.0909,0,0.00018034,1802.1,6.253e-05,2.4786,5.4582e-05,-57.241,-0.0001812,-1828.8,1.4181
18276,17.888,4,0,0.00017838,1782.5,6.3769e-05,1.2347,5.0517e-05,-98.33,-0.00017982,-1829,1.4308
18277,17.796,4,0.05,3.7114e-06,37.088,2.8499e-06,21.413,7.6785e-13,-2.0972e-05,-2.8499e-06,-21.413,1.4182
18278,17.796,4.2727,0,0.00016249,1623.7,5.5258e-05,10.16,5.1773e-05,-16.021,-0.00016257,-1626.5,1.4178
18279,17.888,4.1818,0,0.0001628,1626.9,5.677e-05,1.9133,4.8686e-05,-58.831,-0.00016368,-1654.5,1.4306
18280,17.796,4.1818,0.05,3.0778e-06,30.757,2.3634e-06,17.757,-3.6318e-12,-4.9116e-05,-2.3634e-06,-17.757,1.4179
18281,17.796,4.4545,0,0.00014492,1448.2,5.1525e-05,41.942,4.5366e-05,-4.3382,-0.00014423,-1428.9,1.4176
18282,17.888,4.3636,0,0.00014731,1472,5.0161e-05,7.5691,4.6672e-05,-18.644,-0.00014748,-1477.4,1.4304
18283,17.796,4.3636,0.05,2.6033e-06,26.015,1.999e-06,15.02,-6.3084e-12,-6.9843e-05,-1.999e-06,-15.02,1.4177
18284,17.796,4.6364,0,0.00012809,1280,4.7816e-05,65.286,3.8763e-05,-2.7327,-0.00012689,-1247.4,1.4173
18285,17.888,4.5455,0,0.00013218,1320.9,4.6228e-05,28.381,4.1787e-05,-4.9819,-0.00013175,-1308.9,1.4301
18286,17.796,4.5455,0.05,2.2856e-06,22.841,1.7551e-06,13.187,-6.7762e-12,-4.782e-05,-1.7551e-06,-13.187,1.4174
18287,17.796,4.8182,0,0.00011255,1124.7,4.3176e-05,71.75,3.3357e-05,-2.0329,-0.00011118,-1088,1.417
18288,17.888,4.7273,0,0.0001179,1178.2,4.2776e-05,44.933,3.6428e-05,-2.7638,-0.00011711,-1156.4,1.4299
18289,17.796,4.7273,0.05,2.1545e-06,21.53,1.6544e-06,12.43,-4.3014e-12,-3.8369e-05,-1.6544e-06,-12.43,1.4172
18290,17.796,5,0,9.8699e-05,986.31,3.8143e-05,66.367,2.9082e-05,-1.7106,-9.7422e-05,-952.21,1.4167
18291,17.888,4.9091,0,0.0001049,1048.3,3.8848e-05,49.799,3.195e-05,-2.0326,-0.00010399,-1023.5,1.4296
18292,17.796,4.9091,0.05,2.0884e-06,20.869,1.6036e-06,12.049,-2.4998e-12,-1.8957e-05,-1.6036e-06,-12.049,1.4169
18293,17.796,5.1818,0,8.6833e-05,867.73,3.3298e-05,55.195,2.5744e-05,-1.5677,-8.5781e-05,-839.52,1.4164
18294,17.888,5.0909,0,9.3518e-05,934.53,3.4829e-05,46.86,2.8367e-05,-1.6918,-9.2654e-05,-911,1.4293
18295,17.796,5.0909,0.05,2.0224e-06,20.21,1.553e-06,11.668,-1.9398e-12,-1.5667e-05,-1.553e-06,-11.668,1.4166
18296,17.796,5.3636,0,7.7152e-05,770.99,2.9111e-05,43.198,2.3164e-05,-1.4826,-7.6345e-05,-749.16,1.4161
18297,17.888,5.2727,0,8.3984e-05,839.26,3.1147e-05,40.509,2.5559e-05,-1.4719,-8.3241e-05,-818.96,1.429
18298,17.796,5.2727,0.05,1.9635e-06,19.621,1.5077e-06,11.328,-5.5283e-13,-3.8639e-06,-1.5077e-06,-11.328,1.4162
18299,17.796,5.5455,0,6.9849e-05,698.01,2.5938e-05,34.045,2.1232e-05,-1.3125,-6.9225e-05,-680.97,1.4158
18300,17.888,5.4545,0,7.6477e-05,764.24,2.8136e-05,34.193,2.3419e-05,-1.2474,-7.5855e-05,-747.15,1.4287
18301,17.796,5.4545,0.05,1.9197e-06,19.184,1.4741e-06,11.076,-1.1038e-12,7.4499e-08,-1.4741e-06,-11.076,1.4159
18302,17.796,5.7273,0,6.5289e-05,652.44,2.4188e-05,31.282,1.9895e-05,-0.97161,-6.4714e-05,-636.69,1.4154
18303,17.888,5.6364,0,7.113e-05,710.81,2.6022e-05,30.171,2.1886e-05,-0.90775,-7.0581e-05,-695.67,1.4284
18304,17.796,5.6364,0.05,1.9221e-06,19.208,1.4759e-06,11.09,-2.2365e-13,2.1465e-06,-1.4759e-06,-11.09,1.4156
18305,17.888,5.8182,0,6.8324e-05,682.77,2.5181e-05,31.44,2.0927e-05,-0.52457,-6.7742e-05,-666.75,1.428
18306,17.796,5.8182,0.05,2.4265e-06,24.248,1.8632e-06,14,-2.7068e-14,4.1022e-06,-1.8632e-06,-14,1.4152
18307,17.796,5.9091,0,6.0929e-05,608.87,2.1548e-05,17.37,1.9246e-05,0.074237,-6.0614e-05,-599.96,1.4151
18308,17.979,0.27273,0,7.4244e-05,741.93,2.7093e-05,30.909,2.2909e-05,-0.52786,-7.3677e-05,-726.24,1.441
18309,18.07,0.18182,0,7.6502e-05,764.49,2.777e-05,30.242,2.3712e-05,-0.24415,-7.5946e-05,-749.04,1.4536
18310,17.979,0.18182,0.05,2.0774e-06,20.759,1.5952e-06,11.985,4.9797e-13,4.8983e-06,-1.5952e-06,-11.985,1.4408
18311,17.979,0.090909,0,7.0456e-05,704.08,2.4718e-05,17.665,2.2375e-05,0.06298,-7.0138e-05,-695.05,1.4406
18312,17.979,0.45455,0,7.7929e-05,778.75,2.837e-05,31.445,2.407e-05,-0.86446,-7.7358e-05,-762.96,1.4413
18313,18.07,0.36364,0,7.8897e-05,788.42,2.8523e-05,29.612,2.4508e-05,-0.55451,-7.8359e-05,-773.46,1.454
18314,17.979,0.36364,0.05,1.5568e-06,15.557,1.1954e-06,8.9821,3.6147e-13,1.0645e-05,-1.1954e-06,-8.9821,1.4411
18315,17.979,0.63636,0,8.3646e-05,835.88,3.0456e-05,33.64,2.5818e-05,-1.207,-8.304e-05,-819.12,1.4416
18316,18.07,0.54545,0,8.3164e-05,831.07,2.998e-05,29.999,2.587e-05,-0.88642,-8.2626e-05,-816.08,1.4543
18317,17.979,0.54545,0.05,1.5379e-06,15.368,1.1809e-06,8.8729,1.6162e-12,2.3186e-05,-1.1809e-06,-8.8729,1.4415
18318,17.979,0.81818,0,9.1169e-05,911.06,3.3097e-05,35.329,2.8186e-05,-1.5695,-9.0538e-05,-893.62,1.4419
18319,18.07,0.72727,0,8.9025e-05,889.64,3.1886e-05,29.401,2.78e-05,-1.3012,-8.8508e-05,-875.19,1.4546
18320,17.979,0.72727,0.05,1.5512e-06,15.502,1.1912e-06,8.9499,2.469e-12,3.2934e-05,-1.1912e-06,-8.9499,1.4418
18321,17.979,1,0,0.00010035,1002.8,3.6065e-05,34.277,3.1226e-05,-2.0766,-9.9748e-05,-986.17,1.4422
18322,18.07,0.90909,0,9.6405e-05,963.38,3.4129e-05,26.714,3.0322e-05,-1.8893,-9.595e-05,-950.65,1.4548
18323,17.979,0.90909,0.05,1.5678e-06,15.667,1.2039e-06,9.0456,4.6214e-12,4.5068e-05,-1.2039e-06,-9.0456,1.4421
18324,17.979,1.1818,0,0.00011095,1108.7,3.9063e-05,27.606,3.4973e-05,-3.1239,-0.0001105,-1096.1,1.4425
18325,18.07,1.0909,0,0.00010514,1050.7,3.6531e-05,20.192,3.3431e-05,-3.1021,-0.00010483,-1041.9,1.4551
18326,17.979,1.0909,0.05,1.5923e-06,15.912,1.2227e-06,9.1865,6.8135e-12,6.6067e-05,-1.2227e-06,-9.1865,1.4423
18327,17.979,1.3636,0,0.00012266,1225.8,4.1992e-05,14.07,3.9198e-05,-6.921,-0.00012253,-1222,1.4427
18328,18.07,1.2727,0,0.00011499,1149.2,3.9132e-05,9.7426,3.6834e-05,-7.5184,-0.00011495,-1147.9,1.4554
18329,17.979,1.2727,0.05,1.6518e-06,16.507,1.2684e-06,9.5302,1.0063e-11,8.3065e-05,-1.2684e-06,-9.5302,1.4426
18330,17.979,1.5455,0,0.00013513,1350.4,4.617e-05,3.8258,4.2261e-05,-25.543,-0.00013548,-1361,1.443
18331,18.07,1.4545,0,0.00012566,1255.8,4.2968e-05,3.163,3.9207e-05,-25.096,-0.00012601,-1266.5,1.4556
18332,17.979,1.4545,0.05,1.7964e-06,17.952,1.3794e-06,10.364,1.1046e-11,0.00013009,-1.3794e-06,-10.364,1.4428
18333,17.979,1.7273,0,0.00014804,1479.4,5.1945e-05,1.3605,4.368e-05,-60.736,-0.00014896,-1508.1,1.4432
18334,18.07,1.6364,0,0.00013683,1367.4,4.8032e-05,1.3377,4.0341e-05,-56.449,-0.00013768,-1394,1.4558
18335,17.979,1.6364,0.05,2.078e-06,20.766,1.5956e-06,11.989,7.8388e-12,0.00010333,-1.5957e-06,-11.989,1.4431
18336,17.979,1.9091,0,0.00016112,1610.1,5.7991e-05,0.52991,4.4887e-05,-97.928,-0.00016255,-1656.5,1.4434
18337,18.07,1.8182,0,0.00014827,1481.6,5.3514e-05,0.70466,4.1058e-05,-92.884,-0.00014961,-1525.5,1.456
18338,17.979,1.8182,0.05,2.4776e-06,24.759,1.9025e-06,14.295,2.517e-12,6.6228e-05,-1.9025e-06,-14.295,1.4433
18339,17.979,2.0909,0,0.00017392,1738,6.3491e-05,0.18478,4.6819e-05,-125.08,-0.0001757,-1797,1.4436
18340,18.07,2,0,0.0001597,1595.9,5.8786e-05,0.34434,4.2145e-05,-124.69,-0.00016145,-1654.4,1.4562
18341,17.979,2,0.05,2.9051e-06,29.031,2.2307e-06,16.761,-8.1757e-13,3.7229e-05,-2.2307e-06,-16.761,1.4435
18342,17.979,2.2727,0,0.00018564,1855.1,6.7889e-05,0.32436,4.9777e-05,-135.77,-0.00018757,-1919.1,1.4437
18343,18.07,2.1818,0,0.00017067,1705.5,6.3308e-05,0.27436,4.4157e-05,-143.61,-0.00017265,-1772.6,1.4563
18344,17.979,2.1818,0.05,3.3096e-06,33.073,2.5414e-06,19.095,-5.5237e-12,6.4127e-06,-2.5414e-06,-19.095,1.4436
18345,17.979,2.4545,0,0.00019533,1951.9,7.0941e-05,0.54221,5.3272e-05,-132.22,-0.00019723,-2014.4,1.4438
18346,18.07,2.3636,0,0.00018037,1802.5,6.6737e-05,0.42953,4.6988e-05,-147.96,-0.00018243,-1871.7,1.4564
18347,17.979,2.3636,0.05,3.6279e-06,36.254,2.7858e-06,20.932,-7.4146e-12,-3.4772e-06,-2.7858e-06,-20.931,1.4438
18348,17.979,2.6364,0,0.00020232,2021.8,7.2768e-05,0.57421,5.6442e-05,-122.09,-0.0002041,-2079.7,1.4439
18349,18.07,2.5455,0,0.00018801,1878.8,6.9015e-05,0.48578,4.9966e-05,-142.64,-0.00019002,-1945.8,1.4565
18350,17.979,2.5455,0.05,3.7886e-06,37.86,2.9092e-06,21.859,-6.5972e-12,-1.1008e-05,-2.9092e-06,-21.858,1.4439
18351,17.979,2.8182,0,0.00020643,2062.9,7.3687e-05,0.55853,5.858e-05,-112.95,-0.00020811,-2116.8,1.444
18352,18.07,2.7273,0,0.00019314,1930.1,7.0332e-05,0.50345,5.2344e-05,-134.65,-0.00019507,-1993.6,1.4566
18353,17.979,2.7273,0.05,3.8134e-06,38.108,2.9282e-06,22.002,-5.0835e-12,-6.6959e-06,-2.9282e-06,-22.001,1.444
18354,17.979,3,0,0.00020778,2076.4,7.3961e-05,0.54899,5.9325e-05,-109.42,-0.00020941,-2128.6,1.444
18355,18.07,2.9091,0,0.00019568,1955.5,7.092e-05,0.50476,5.3633e-05,-129.38,-0.00019755,-2016.7,1.4566
18356,17.979,2.9091,0.05,3.7947e-06,37.921,2.9139e-06,21.894,-2.271e-12,3.8356e-06,-2.9139e-06,-21.894,1.444
18357,17.979,3.1818,0,0.00020643,2062.9,7.3687e-05,0.55853,5.858e-05,-112.95,-0.00020811,-2116.8,1.444
18358,18.07,3.0909,0,0.00019568,1955.5,7.092e-05,0.50476,5.3633e-05,-129.38,-0.00019755,-2016.7,1.4566
18359,17.979,3.0909,0.05,3.7947e-06,37.921,2.9139e-06,21.894,1.3614e-12,1.6191e-05,-2.9139e-06,-21.894,1.444
18360,17.979,3.3636,0,0.00020232,2021.8,7.2768e-05,0.57421,5.6442e-05,-122.09,-0.0002041,-2079.7,1.4439
18361,18.07,3.2727,0,0.00019314,1930.1,7.0332e-05,0.50345,5.2344e-05,-134.65,-0.00019507,-1993.6,1.4566
18362,17.979,3.2727,0.05,3.8134e-06,38.108,2.9282e-06,22.001,2.8058e-12,2.8652e-05,-2.9282e-06,-22.001,1.444
18363,17.979,3.5455,0,0.00019533,1951.9,7.0941e-05,0.54221,5.3272e-05,-132.22,-0.00019723,-2014.4,1.4438
18364,18.07,3.4545,0,0.00018801,1878.8,6.9015e-05,0.48578,4.9966e-05,-142.64,-0.00019002,-1945.8,1.4565
18365,17.979,3.4545,0.05,3.7886e-06,37.86,2.9092e-06,21.858,4.7071e-12,3.1552e-05,-2.9092e-06,-21.858,1.4439
18366,17.979,3.7273,0,0.00018564,1855.1,6.7889e-05,0.32436,4.9777e-05,-135.77,-0.00018757,-1919.1,1.4437
18367,18.07,3.6364,0,0.00018037,1802.5,6.6737e-05,0.42953,4.6988e-05,-147.96,-0.00018243,-1871.7,1.4564
18368,17.979,3.6364,0.05,3.6279e-06,36.254,2.7858e-06,20.931,3.8239e-12,2.7158e-05,-2.7858e-06,-20.932,1.4438
18369,17.979,3.9091,0,0.00017392,1738,6.3491e-05,0.18478,4.6819e-05,-125.08,-0.0001757,-1797,1.4436
18370,18.07,3.8182,0,0.00017067,1705.5,6.3308e-05,0.27436,4.4157e-05,-143.61,-0.00017265,-1772.6,1.4563
18371,17.979,3.8182,0.05,3.3096e-06,33.073,2.5414e-06,19.095,2.3443e-12,7.5164e-06,-2.5414e-06,-19.095,1.4436
18372,17.979,4.0909,0,0.00016112,1610.1,5.7991e-05,0.52991,4.4887e-05,-97.928,-0.00016255,-1656.5,1.4434
18373,18.07,4,0,0.0001597,1595.9,5.8786e-05,0.34434,4.2145e-05,-124.69,-0.00016145,-1654.4,1.4562
18374,17.979,4,0.05,2.9051e-06,29.031,2.2307e-06,16.761,-7.7228e-13,-1.9013e-05,-2.2307e-06,-16.761,1.4435
18375,17.979,4.2727,0,0.00014804,1479.4,5.1945e-05,1.3605,4.368e-05,-60.736,-0.00014896,-1508.1,1.4432
18376,18.07,4.1818,0,0.00014827,1481.6,5.3514e-05,0.70466,4.1058e-05,-92.883,-0.00014961,-1525.5,1.456
18377,17.979,4.1818,0.05,2.4776e-06,24.759,1.9025e-06,14.295,-9.598e-13,-3.4591e-05,-1.9025e-06,-14.295,1.4433
18378,17.979,4.4545,0,0.00013513,1350.4,4.617e-05,3.8259,4.2261e-05,-25.543,-0.00013548,-1361,1.443
18379,18.07,4.3636,0,0.00013683,1367.4,4.8032e-05,1.3377,4.0341e-05,-56.449,-0.00013768,-1394,1.4558
18380,17.979,4.3636,0.05,2.078e-06,20.766,1.5956e-06,11.989,-4.7515e-12,-4.2884e-05,-1.5956e-06,-11.989,1.4431
18381,17.979,4.6364,0,0.00012266,1225.8,4.1992e-05,14.071,3.9198e-05,-6.921,-0.00012253,-1222,1.4427
18382,18.07,4.5455,0,0.00012566,1255.8,4.2968e-05,3.163,3.9207e-05,-25.096,-0.00012601,-1266.5,1.4556
18383,17.979,4.5455,0.05,1.7964e-06,17.952,1.3794e-06,10.364,-5.1459e-12,-3.3624e-05,-1.3794e-06,-10.364,1.4428
18384,17.979,4.8182,0,0.00011095,1108.7,3.9063e-05,27.606,3.4973e-05,-3.1239,-0.0001105,-1096.1,1.4425
18385,18.07,4.7273,0,0.00011499,1149.2,3.9132e-05,9.7427,3.6834e-05,-7.5183,-0.00011495,-1147.9,1.4554
18386,17.979,4.7273,0.05,1.6518e-06,16.507,1.2684e-06,9.5302,-4.1295e-12,-2.9226e-05,-1.2684e-06,-9.5302,1.4426
18387,17.979,5,0,0.00010035,1002.8,3.6065e-05,34.277,3.1226e-05,-2.0766,-9.9748e-05,-986.17,1.4422
18388,18.07,4.9091,0,0.00010514,1050.7,3.6531e-05,20.192,3.3431e-05,-3.102,-0.00010483,-1041.9,1.4551
18389,17.979,4.9091,0.05,1.5923e-06,15.912,1.2227e-06,9.1865,-2.5887e-12,-1.4601e-05,-1.2227e-06,-9.1865,1.4423
18390,17.979,5.1818,0,9.1169e-05,911.06,3.3097e-05,35.329,2.8186e-05,-1.5695,-9.0538e-05,-893.62,1.4419
18391,18.07,5.0909,0,9.6405e-05,963.38,3.4129e-05,26.714,3.0322e-05,-1.8893,-9.595e-05,-950.65,1.4548
18392,17.979,5.0909,0.05,1.5678e-06,15.667,1.2039e-06,9.0456,-1.6445e-12,-1.4942e-05,-1.2039e-06,-9.0456,1.4421
18393,17.979,5.3636,0,8.3646e-05,835.88,3.0456e-05,33.64,2.5818e-05,-1.207,-8.304e-05,-819.12,1.4416
18394,18.07,5.2727,0,8.9025e-05,889.64,3.1886e-05,29.401,2.78e-05,-1.3012,-8.8508e-05,-875.19,1.4546
18395,17.979,5.2727,0.05,1.5512e-06,15.502,1.1912e-06,8.9499,-1.2911e-12,-6.6377e-06,-1.1912e-06,-8.9499,1.4418
18396,17.979,5.5455,0,7.7929e-05,778.75,2.837e-05,31.445,2.407e-05,-0.86446,-7.7358e-05,-762.96,1.4413
18397,18.07,5.4545,0,8.3164e-05,831.07,2.998e-05,29.999,2.587e-05,-0.88642,-8.2626e-05,-816.08,1.4543
18398,17.979,5.4545,0.05,1.5379e-06,15.368,1.1809e-06,8.8729,-5.1896e-13,-1.1375e-06,-1.1809e-06,-8.8729,1.4415
18399,17.979,5.7273,0,7.4244e-05,741.93,2.7093e-05,30.909,2.2909e-05,-0.52786,-7.3677e-05,-726.24,1.441
18400,18.07,5.6364,0,7.8897e-05,788.42,2.8523e-05,29.612,2.4508e-05,-0.5545,-7.8359e-05,-773.46,1.454
18401,17.979,5.6364,0.05,1.5568e-06,15.557,1.1954e-06,8.9821,5.8728e-14,4.2861e-06,-1.1954e-06,-8.9821,1.4411
18402,18.07,5.8182,0,7.6502e-05,764.49,2.777e-05,30.242,2.3712e-05,-0.24415,-7.5946e-05,-749.04,1.4536
18403,17.979,5.8182,0.05,2.0774e-06,20.759,1.5952e-06,11.985,-3.8002e-14,5.0761e-06,-1.5952e-06,-11.985,1.4408
18404,17.979,5.9091,0,7.0456e-05,704.08,2.4718e-05,17.665,2.2375e-05,0.06298,-7.0138e-05,-695.05,1.4406
18405,18.161,0.27273,0,8.1213e-05,811.57,2.9254e-05,29.353,2.5308e-05,-0.29829,-8.0678e-05,-796.64,1.4666
18406,18.253,0.18182,0,8.2725e-05,826.68,2.9637e-05,28.055,2.5888e-05,-0.11079,-8.2214e-05,-812.35,1.4793
18407,18.161,0.18182,0.05,1.7284e-06,17.272,1.3272e-06,9.9721,4.157e-14,4.6067e-06,-1.3272e-06,-9.9721,1.4664
18408,18.161,0.090909,0,7.7941e-05,778.87,2.7133e-05,16.993,2.488e-05,0.063567,-7.7637e-05,-770.21,1.4663
18409,18.161,0.45455,0,8.4234e-05,841.76,3.0222e-05,28.826,2.6309e-05,-0.57511,-8.3715e-05,-827.25,1.4669
18410,18.253,0.36364,0,8.4763e-05,847.05,3.0311e-05,27.916,2.6547e-05,-0.36316,-8.4259e-05,-832.92,1.4796
18411,18.161,0.36364,0.05,1.2082e-06,12.074,9.2774e-07,6.9707,7.1745e-13,1.3598e-05,-9.2774e-07,-6.9707,1.4668
18412,18.161,0.63636,0,8.8734e-05,886.73,3.1571e-05,26.962,2.7857e-05,-0.94699,-8.8258e-05,-873.39,1.4672
18413,18.253,0.54545,0,8.8183e-05,881.22,3.1314e-05,26.237,2.7738e-05,-0.63516,-8.7717e-05,-868.11,1.4799
18414,18.161,0.54545,0.05,1.182e-06,11.812,9.0766e-07,6.8198,2.3843e-12,2.4724e-05,-9.0766e-07,-6.8198,1.4671
18415,18.161,0.81818,0,9.4544e-05,944.79,3.3154e-05,22.559,2.9944e-05,-1.562,-9.4163e-05,-934.06,1.4675
18416,18.253,0.72727,0,9.2745e-05,926.81,3.2462e-05,21.624,2.9433e-05,-1.1388,-9.2376e-05,-916.36,1.4802
18417,18.161,0.72727,0.05,1.1879e-06,11.871,9.1219e-07,6.8538,3.9332e-12,3.2829e-05,-9.1219e-07,-6.8538,1.4673
18418,18.161,1,0,0.00010155,1014.8,3.4909e-05,14.991,3.2517e-05,-2.9834,-0.00010134,-1008.7,1.4678
18419,18.253,0.90909,0,9.8401e-05,983.34,3.3759e-05,14.067,3.1579e-05,-2.3123,-9.8191e-05,-977.36,1.4804
18420,18.161,0.90909,0.05,1.2022e-06,12.013,9.2312e-07,6.9359,4.906e-12,5.7039e-05,-9.2312e-07,-6.9359,1.4676
18421,18.161,1.1818,0,0.00010958,1095,3.71e-05,6.0866,3.5127e-05,-8.7367,-0.00010962,-1096.3,1.468
18422,18.253,1.0909,0,0.00010503,1049.6,3.5478e-05,5.5512,3.378e-05,-7.2059,-0.00010505,-1050.3,1.4807
18423,18.161,1.0909,0.05,1.2398e-06,12.39,9.5202e-07,7.1531,7.1057e-12,7.0906e-05,-9.5202e-07,-7.1531,1.4679
18424,18.161,1.3636,0,0.00011837,1182.9,4.0559e-05,2.2272,3.6721e-05,-26.615,-0.00011876,-1194.9,1.4682
18425,18.253,1.2727,0,0.00011244,1123.6,3.8402e-05,2.0179,3.5081e-05,-22.937,-0.00011277,-1133.8,1.4809
18426,18.161,1.2727,0.05,1.3305e-06,13.296,1.0217e-06,7.6765,8.7649e-12,8.7672e-05,-1.0217e-06,-7.6765,1.4681
18427,18.161,1.5455,0,0.00012769,1276,4.4891e-05,1.1356,3.7518e-05,-54.261,-0.00012851,-1301.7,1.4684
18428,18.253,1.4545,0,0.00012041,1203.3,4.2154e-05,1.0596,3.5685e-05,-47.55,-0.00012113,-1225.8,1.4811
18429,18.161,1.4545,0.05,1.5048e-06,15.037,1.1555e-06,8.6818,7.5688e-12,9.4009e-05,-1.1555e-06,-8.6818,1.4683
18430,18.161,1.7273,0,0.00013732,1372.2,4.9601e-05,0.67837,3.7961e-05,-86.78,-0.00013857,-1413.2,1.4686
18431,18.253,1.6364,0,0.00012874,1286.5,4.6327e-05,0.65838,3.59e-05,-77.688,-0.00012987,-1323.2,1.4813
18432,18.161,1.6364,0.05,1.7619e-06,17.607,1.3529e-06,10.165,2.4112e-12,7.6119e-05,-1.3529e-06,-10.165,1.4685
18433,18.161,1.9091,0,0.00014705,1469.5,5.4302e-05,0.46664,3.8503e-05,-118.24,-0.00014869,-1524.7,1.4688
18434,18.253,1.8182,0,0.00013725,1371.5,5.063e-05,0.43709,3.6036e-05,-109.21,-0.00013877,-1422.6,1.4815
18435,18.161,1.8182,0.05,2.0687e-06,20.673,1.5885e-06,11.936,2.6606e-12,3.9604e-05,-1.5885e-06,-11.935,1.4687
18436,18.161,2.0909,0,0.00015658,1564.7,5.8596e-05,0.39037,3.9589e-05,-142.42,-0.0001585,-1630.8,1.4689
18437,18.253,2,0,0.00014575,1456.5,5.4736e-05,0.33855,3.6504e-05,-136.65,-0.00014759,-1519.9,1.4816
18438,18.161,2,0.05,2.3889e-06,23.873,1.8344e-06,13.783,-8.3228e-13,3.1287e-05,-1.8344e-06,-13.783,1.4689
18439,18.161,2.2727,0,0.00016542,1653,6.2152e-05,0.3584,4.1367e-05,-155.82,-0.00016751,-1725.2,1.4691
18440,18.253,2.1818,0,0.00015393,1538.2,5.8328e-05,0.30564,3.7592e-05,-155.5,-0.00015597,-1609.9,1.4817
18441,18.161,2.1818,0.05,2.699e-06,26.971,2.0725e-06,15.572,-2.6203e-12,5.9994e-06,-2.0725e-06,-15.572,1.469
18442,18.161,2.4545,0,0.00017295,1728.3,6.4811e-05,0.37345,4.3566e-05,-159.25,-0.0001751,-1802.2,1.4692
18443,18.253,2.3636,0,0.00016127,1611.6,6.1187e-05,0.30836,3.9245e-05,-164.55,-0.00016343,-1687.4,1.4818
18444,18.161,2.3636,0.05,2.9667e-06,29.646,2.278e-06,17.116,-4.5245e-12,3.3088e-07,-2.278e-06,-17.116,1.4691
18445,18.161,2.6364,0,0.00017864,1785.2,6.658e-05,0.42294,4.5661e-05,-156.76,-0.00018078,-1858.2,1.4693
18446,18.253,2.5455,0,0.00016725,1671.3,6.3242e-05,0.35392,4.109e-05,-166.08,-0.00016944,-1747.9,1.4819
18447,18.161,2.5455,0.05,3.157e-06,31.548,2.4242e-06,18.214,-5.1002e-12,-4.6589e-06,-2.4242e-06,-18.214,1.4692
18448,18.161,2.8182,0,0.00018215,1820.2,6.7566e-05,0.45257,4.7138e-05,-153.03,-0.00018425,-1891.6,1.4693
18449,18.253,2.7273,0,0.00017142,1713,6.4533e-05,0.39421,4.2642e-05,-164.08,-0.00017361,-1788.9,1.482
18450,18.161,2.7273,0.05,3.2613e-06,32.591,2.5043e-06,18.816,-3.2203e-12,-3.4566e-06,-2.5043e-06,-18.816,1.4693
18451,18.161,3,0,0.00018332,1832,6.7879e-05,0.45909,4.7667e-05,-151.4,-0.00018542,-1902.7,1.4693
18452,18.253,2.9091,0,0.00017355,1734.3,6.5147e-05,0.41118,4.3517e-05,-162.11,-0.00017573,-1809.4,1.482
18453,18.161,2.9091,0.05,3.302e-06,32.997,2.5355e-06,19.051,-2.3399e-12,2.9112e-06,-2.5355e-06,-19.051,1.4693
18454,18.161,3.1818,0,0.00018215,1820.2,6.7566e-05,0.45257,4.7138e-05,-153.03,-0.00018425,-1891.6,1.4693
18455,18.253,3.0909,0,0.00017355,1734.3,6.5147e-05,0.41118,4.3517e-05,-162.11,-0.00017573,-1809.4,1.482
18456,18.161,3.0909,0.05,3.302e-06,32.997,2.5355e-06,19.051,-3.9387e-13,8.485e-06,-2.5355e-06,-19.051,1.4693
18457,18.161,3.3636,0,0.00017864,1785.2,6.658e-05,0.42294,4.5661e-05,-156.76,-0.00018078,-1858.2,1.4693
18458,18.253,3.2727,0,0.00017142,1713,6.4533e-05,0.39421,4.2642e-05,-164.08,-0.00017361,-1788.9,1.482
18459,18.161,3.2727,0.05,3.2613e-06,32.591,2.5043e-06,18.816,1.3533e-12,1.2761e-05,-2.5043e-06,-18.816,1.4693
18460,18.161,3.5455,0,0.00017295,1728.3,6.4811e-05,0.37345,4.3566e-05,-159.25,-0.0001751,-1802.2,1.4692
18461,18.253,3.4545,0,0.00016725,1671.3,6.3242e-05,0.35392,4.109e-05,-166.08,-0.00016944,-1747.9,1.4819
18462,18.161,3.4545,0.05,3.157e-06,31.548,2.4242e-06,18.214,2.5843e-12,1.5585e-05,-2.4242e-06,-18.214,1.4692
18463,18.161,3.7273,0,0.00016542,1653,6.2152e-05,0.3584,4.1367e-05,-155.82,-0.00016751,-1725.2,1.4691
18464,18.253,3.6364,0,0.00016127,1611.6,6.1187e-05,0.30836,3.9246e-05,-164.55,-0.00016343,-1687.4,1.4818
18465,18.161,3.6364,0.05,2.9667e-06,29.646,2.278e-06,17.116,2.2073e-12,1.1845e-05,-2.278e-06,-17.116,1.4691
18466,18.161,3.9091,0,0.00015658,1564.7,5.8596e-05,0.39038,3.9589e-05,-142.42,-0.0001585,-1630.8,1.4689
18467,18.253,3.8182,0,0.00015393,1538.2,5.8328e-05,0.30564,3.7592e-05,-155.5,-0.00015597,-1609.9,1.4817
18468,18.161,3.8182,0.05,2.699e-06,26.971,2.0725e-06,15.572,1.438e-12,2.0139e-06,-2.0725e-06,-15.572,1.469
18469,18.161,4.0909,0,0.00014705,1469.5,5.4302e-05,0.46664,3.8503e-05,-118.24,-0.00014869,-1524.7,1.4688
18470,18.253,4,0,0.00014575,1456.5,5.4736e-05,0.33855,3.6504e-05,-136.65,-0.00014759,-1519.9,1.4816
18471,18.161,4,0.05,2.3889e-06,23.873,1.8344e-06,13.783,-5.5829e-13,-2.29e-05,-1.8344e-06,-13.783,1.4689
18472,18.161,4.2727,0,0.00013732,1372.2,4.9601e-05,0.67837,3.7961e-05,-86.78,-0.00013857,-1413.2,1.4686
18473,18.253,4.1818,0,0.00013725,1371.5,5.063e-05,0.43709,3.6036e-05,-109.21,-0.00013877,-1422.6,1.4815
18474,18.161,4.1818,0.05,2.0687e-06,20.673,1.5885e-06,11.936,-2.2665e-12,-1.2322e-05,-1.5885e-06,-11.936,1.4687
18475,18.161,4.4545,0,0.00012769,1276,4.4891e-05,1.1356,3.7519e-05,-54.261,-0.00012851,-1301.7,1.4684
18476,18.253,4.3636,0,0.00012874,1286.5,4.6327e-05,0.65838,3.59e-05,-77.688,-0.00012987,-1323.2,1.4813
18477,18.161,4.3636,0.05,1.7619e-06,17.607,1.3529e-06,10.165,-7.6976e-13,-2.1373e-05,-1.3529e-06,-10.165,1.4685
18478,18.161,4.6364,0,0.00011837,1182.9,4.0559e-05,2.2272,3.6721e-05,-26.615,-0.00011876,-1194.9,1.4682
18479,18.253,4.5455,0,0.00012041,1203.3,4.2154e-05,1.0596,3.5685e-05,-47.55,-0.00012113,-1225.8,1.4811
18480,18.161,4.5455,0.05,1.5048e-06,15.037,1.1555e-06,8.6818,-3.8221e-12,-2.3767e-05,-1.1555e-06,-8.6818,1.4683
18481,18.161,4.8182,0,0.00010958,1095,3.71e-05,6.0867,3.5127e-05,-8.7366,-0.00010962,-1096.3,1.468
18482,18.253,4.7273,0,0.00011244,1123.6,3.8402e-05,2.0179,3.5081e-05,-22.937,-0.00011277,-1133.8,1.4809
18483,18.161,4.7273,0.05,1.3305e-06,13.296,1.0217e-06,7.6765,-4.2785e-12,-3.6049e-05,-1.0217e-06,-7.6765,1.4681
18484,18.161,5,0,0.00010155,1014.8,3.4909e-05,14.991,3.2517e-05,-2.9834,-0.00010134,-1008.7,1.4678
18485,18.253,4.9091,0,0.00010503,1049.6,3.5478e-05,5.5513,3.378e-05,-7.2058,-0.00010505,-1050.3,1.4807
18486,18.161,4.9091,0.05,1.2398e-06,12.39,9.5202e-07,7.1531,-3.8168e-12,-3.1165e-05,-9.5202e-07,-7.1531,1.4679
18487,18.161,5.1818,0,9.4544e-05,944.79,3.3154e-05,22.559,2.9944e-05,-1.562,-9.4163e-05,-934.06,1.4675
18488,18.253,5.0909,0,9.8401e-05,983.34,3.3759e-05,14.067,3.1579e-05,-2.3123,-9.8191e-05,-977.36,1.4804
18489,18.161,5.0909,0.05,1.2022e-06,12.013,9.2312e-07,6.936,-2.0178e-12,-2.2678e-05,-9.2312e-07,-6.9359,1.4676
18490,18.161,5.3636,0,8.8734e-05,886.73,3.1571e-05,26.962,2.7857e-05,-0.94698,-8.8258e-05,-873.39,1.4672
18491,18.253,5.2727,0,9.2745e-05,926.81,3.2462e-05,21.624,2.9433e-05,-1.1388,-9.2376e-05,-916.36,1.4802
18492,18.161,5.2727,0.05,1.1879e-06,11.871,9.1219e-07,6.8538,-1.4564e-12,-1.0842e-05,-9.1219e-07,-6.8538,1.4673
18493,18.161,5.5455,0,8.4234e-05,841.76,3.0222e-05,28.827,2.6309e-05,-0.57511,-8.3715e-05,-827.25,1.4669
18494,18.253,5.4545,0,8.8183e-05,881.22,3.1314e-05,26.237,2.7738e-05,-0.63516,-8.7717e-05,-868.11,1.4799
18495,18.161,5.4545,0.05,1.182e-06,11.812,9.0766e-07,6.8198,-5.5034e-13,-2.0385e-07,-9.0766e-07,-6.8198,1.4671
18496,18.161,5.7273,0,8.1213e-05,811.57,2.9254e-05,29.353,2.5308e-05,-0.29828,-8.0678e-05,-796.64,1.4666
18497,18.253,5.6364,0,8.4763e-05,847.05,3.0311e-05,27.916,2.6547e-05,-0.36316,-8.4259e-05,-832.92,1.4796
18498,18.161,5.6364,0.05,1.2082e-06,12.074,9.2774e-07,6.9707,-2.0853e-13,-7.1028e-07,-9.2774e-07,-6.9707,1.4668
18499,18.253,5.8182,0,8.2725e-05,826.68,2.9637e-05,28.055,2.5888e-05,-0.11079,-8.2214e-05,-812.35,1.4793
18500,18.161,5.8182,0.05,1.7284e-06,17.272,1.3272e-06,9.9721,-7.1748e-14,4.4672e-06,-1.3272e-06,-9.9721,1.4664
18501,18.161,5.9091,0,7.7941e-05,778.87,2.7133e-05,16.993,2.488e-05,0.063567,-7.7637e-05,-770.21,1.4663
18502,18.344,0.27273,0,8.6317e-05,862.57,3.0731e-05,26.897,2.7126e-05,-0.18591,-8.583e-05,-848.9,1.4923
18503,18.435,0.18182,0,8.7178e-05,871.18,3.088e-05,25.349,2.75e-05,-0.052204,-8.672e-05,-858.25,1.505
18504,18.344,0.18182,0.05,1.3985e-06,13.975,1.0739e-06,8.0686,2.6419e-14,5.0043e-06,-1.0739e-06,-8.0686,1.4921
18505,18.344,0.090909,0,8.3531e-05,834.73,2.8875e-05,15.755,2.6786e-05,0.055949,-8.325e-05,-826.71,1.492
18506,18.344,0.45455,0,8.8777e-05,887.15,3.1457e-05,25.728,2.7979e-05,-0.40436,-8.8317e-05,-874.2,1.4926
18507,18.435,0.36364,0,8.8874e-05,888.12,3.1448e-05,25.331,2.8043e-05,-0.25537,-8.8419e-05,-875.31,1.5053
18508,18.344,0.36364,0.05,8.9187e-07,8.9125,6.8484e-07,5.1457,9.12e-13,1.3906e-05,-6.8484e-07,-5.1457,1.4924
18509,18.344,0.63636,0,9.2305e-05,922.41,3.2293e-05,21.556,2.9323e-05,-0.75775,-9.1931e-05,-911.81,1.4929
18510,18.435,0.54545,0,9.1593e-05,915.29,3.2116e-05,22.434,2.9068e-05,-0.4712,-9.1197e-05,-904.1,1.5056
18511,18.344,0.54545,0.05,8.7015e-07,8.6955,6.6817e-07,5.0203,2.3923e-12,2.6862e-05,-6.6817e-07,-5.0203,1.4927
18512,18.344,0.81818,0,9.6762e-05,966.96,3.3174e-05,13.936,3.1101e-05,-1.6407,-9.6544e-05,-960.71,1.4931
18513,18.435,0.72727,0,9.5118e-05,950.53,3.2745e-05,15.661,3.0524e-05,-1.0237,-9.4858e-05,-943.1,1.5058
18514,18.344,0.72727,0.05,8.8762e-07,8.8701,6.8158e-07,5.1211,4.2401e-12,5.2091e-05,-6.8158e-07,-5.1211,1.493
18515,18.344,1,0,0.00010207,1020,3.4392e-05,5.1069,3.2953e-05,-5.6979,-0.00010208,-1020.3,1.4934
18516,18.435,0.90909,0,9.9416e-05,993.47,3.3508e-05,6.4335,3.2209e-05,-3.3278,-9.936e-05,-991.88,1.5061
18517,18.344,0.90909,0.05,9.2471e-07,9.2407,7.1006e-07,5.3351,5.9407e-12,5.736e-05,-7.1006e-07,-5.3351,1.4932
18518,18.344,1.1818,0,0.0001081,1080.3,3.6811e-05,1.7142,3.3897e-05,-20.18,-0.0001084,-1089.3,1.4936
18519,18.435,1.0909,0,0.0001044,1043.3,3.5329e-05,1.7968,3.3128e-05,-14.737,-0.00010461,-1049.6,1.5063
18520,18.344,1.0909,0.05,9.9672e-07,9.9603,7.6535e-07,5.7506,5.1388e-12,7.9227e-05,-7.6536e-07,-5.7506,1.4935
18521,18.344,1.3636,0,0.00011468,1146,4.0005e-05,0.90983,3.4231e-05,-42.473,-0.00011533,-1166.2,1.4938
18522,18.435,1.2727,0,0.00010994,1098.6,3.8054e-05,0.89048,3.3328e-05,-34.62,-0.00011047,-1115,1.5065
18523,18.344,1.2727,0.05,1.1212e-06,11.204,8.6095e-07,6.4689,6.8899e-12,8.8765e-05,-8.6096e-07,-6.4689,1.4937
18524,18.344,1.5455,0,0.00012164,1215.6,4.359e-05,0.579,3.4246e-05,-69.628,-0.00012267,-1248.6,1.494
18525,18.435,1.4545,0,0.00011588,1158,4.1194e-05,0.56874,3.3206e-05,-59.449,-0.00011676,-1186.3,1.5067
18526,18.344,1.4545,0.05,1.3039e-06,13.031,1.0013e-06,7.5232,6.2826e-12,6.4411e-05,-1.0013e-06,-7.5232,1.4939
18527,18.344,1.7273,0,0.00012883,1287.4,4.7353e-05,0.39621,3.4132e-05,-98.942,-0.00013022,-1333.8,1.4942
18528,18.435,1.6364,0,0.00012209,1220,4.4567e-05,0.39826,3.2898e-05,-87.279,-0.00012333,-1261.1,1.5069
18529,18.344,1.6364,0.05,1.5322e-06,15.311,1.1765e-06,8.84,3.5024e-12,5.736e-05,-1.1765e-06,-8.84,1.4941
18530,18.344,1.9091,0,0.00013609,1359.9,5.1061e-05,0.28555,3.4162e-05,-126.69,-0.00013779,-1418.7,1.4943
18531,18.435,1.8182,0,0.00012843,1283.4,4.7986e-05,0.29398,3.2608e-05,-115.25,-0.00012999,-1337,1.507
18532,18.344,1.8182,0.05,1.7825e-06,17.813,1.3688e-06,10.284,1.5921e-12,4.6744e-05,-1.3688e-06,-10.284,1.4942
18533,18.344,2.0909,0,0.00014319,1430.9,5.4466e-05,0.23474,3.4587e-05,-149.13,-0.00014514,-1499.5,1.4944
18534,18.435,2,0,0.00013475,1346.6,5.1238e-05,0.2324,3.2584e-05,-139.92,-0.00013658,-1411,1.5072
18535,18.344,2,0.05,2.0358e-06,20.344,1.5633e-06,11.746,-3.0249e-13,2.5715e-05,-1.5633e-06,-11.746,1.4944
18536,18.344,2.2727,0,0.00014981,1497,5.7361e-05,0.24439,3.549e-05,-164.08,-0.00015192,-1572.2,1.4945
18537,18.435,2.1818,0,0.00014083,1407.3,5.4123e-05,0.21673,3.299e-05,-158.57,-0.00014285,-1479.7,1.5073
18538,18.344,2.1818,0.05,2.2796e-06,22.781,1.7505e-06,13.153,-1.7263e-12,6.833e-06,-1.7505e-06,-13.152,1.4945
18539,18.344,2.4545,0,0.00015552,1554.1,5.9617e-05,0.28523,3.672e-05,-171.75,-0.00015772,-1632.7,1.4946
18540,18.435,2.3636,0,0.00014631,1462.1,5.6489e-05,0.23913,3.3801e-05,-170.23,-0.00014846,-1539.7,1.5074
18541,18.344,2.3636,0.05,2.4983e-06,24.966,1.9184e-06,14.414,-3.3153e-12,1.2083e-06,-1.9184e-06,-14.414,1.4946
18542,18.344,2.6364,0,0.00015992,1598.1,6.1194e-05,0.32552,3.796e-05,-174.24,-0.00016216,-1677.8,1.4947
18543,18.435,2.5455,0,0.00015084,1507.3,5.8259e-05,0.27335,3.4804e-05,-175.95,-0.00015305,-1587.4,1.5074
18544,18.344,2.5455,0.05,2.6712e-06,26.694,2.0512e-06,15.412,-2.86e-12,-3.338e-06,-2.0512e-06,-15.412,1.4946
18545,18.344,2.8182,0,0.00016268,1625.6,6.2114e-05,0.35348,3.8868e-05,-174.31,-0.00016493,-1705.6,1.4947
18546,18.435,2.7273,0,0.00015405,1539.4,5.9417e-05,0.30404,3.5699e-05,-177.9,-0.00015629,-1620.5,1.5075
18547,18.344,2.7273,0.05,2.7856e-06,27.837,2.139e-06,16.072,-2.3318e-12,-1.9204e-06,-2.139e-06,-16.071,1.4947
18548,18.344,3,0,0.00016362,1635,6.2415e-05,0.36346,3.9199e-05,-174.07,-0.00016587,-1714.9,1.4947
18549,18.435,2.9091,0,0.00015571,1556,5.9986e-05,0.32172,3.6221e-05,-178.24,-0.00015797,-1637.3,1.5075
18550,18.344,2.9091,0.05,2.8405e-06,28.386,2.1812e-06,16.389,-2.1582e-12,4.2818e-06,-2.1812e-06,-16.389,1.4947
18551,18.344,3.1818,0,0.00016268,1625.6,6.2114e-05,0.35348,3.8868e-05,-174.31,-0.00016493,-1705.6,1.4947
18552,18.435,3.0909,0,0.00015571,1556,5.9986e-05,0.32172,3.6221e-05,-178.24,-0.00015797,-1637.3,1.5075
18553,18.344,3.0909,0.05,2.8405e-06,28.386,2.1812e-06,16.389,-1.0342e-12,7.1086e-06,-2.1812e-06,-16.389,1.4947
18554,18.344,3.3636,0,0.00015992,1598.1,6.1194e-05,0.32552,3.796e-05,-174.24,-0.00016216,-1677.8,1.4947
18555,18.435,3.2727,0,0.00015405,1539.4,5.9417e-05,0.30404,3.5699e-05,-177.9,-0.00015629,-1620.5,1.5075
18556,18.344,3.2727,0.05,2.7856e-06,27.837,2.139e-06,16.072,4.6615e-13,9.113e-06,-2.139e-06,-16.072,1.4947
18557,18.344,3.5455,0,0.00015552,1554.1,5.9617e-05,0.28523,3.672e-05,-171.75,-0.00015772,-1632.7,1.4946
18558,18.435,3.4545,0,0.00015084,1507.3,5.8259e-05,0.27335,3.4804e-05,-175.95,-0.00015305,-1587.4,1.5074
18559,18.344,3.4545,0.05,2.6712e-06,26.694,2.0512e-06,15.412,1.3007e-12,6.9423e-06,-2.0512e-06,-15.412,1.4946
18560,18.344,3.7273,0,0.00014981,1497,5.7361e-05,0.24439,3.549e-05,-164.08,-0.00015192,-1572.2,1.4945
18561,18.435,3.6364,0,0.00014631,1462.1,5.6489e-05,0.23913,3.3801e-05,-170.23,-0.00014846,-1539.7,1.5074
18562,18.344,3.6364,0.05,2.4983e-06,24.966,1.9184e-06,14.414,7.0199e-13,5.2963e-06,-1.9184e-06,-14.414,1.4946
18563,18.344,3.9091,0,0.00014319,1430.9,5.4466e-05,0.23474,3.4587e-05,-149.13,-0.00014514,-1499.5,1.4944
18564,18.435,3.8182,0,0.00014083,1407.3,5.4123e-05,0.21673,3.299e-05,-158.57,-0.00014285,-1479.7,1.5073
18565,18.344,3.8182,0.05,2.2796e-06,22.781,1.7505e-06,13.152,3.7361e-13,-5.4481e-06,-1.7505e-06,-13.152,1.4945
18566,18.344,4.0909,0,0.00013609,1359.9,5.1061e-05,0.28555,3.4162e-05,-126.69,-0.00013779,-1418.7,1.4943
18567,18.435,4,0,0.00013475,1346.6,5.1238e-05,0.2324,3.2584e-05,-139.92,-0.00013658,-1411,1.5072
18568,18.344,4,0.05,2.0358e-06,20.344,1.5633e-06,11.746,-5.0754e-13,-9.2123e-06,-1.5633e-06,-11.746,1.4944
18569,18.344,4.2727,0,0.00012883,1287.4,4.7353e-05,0.39621,3.4132e-05,-98.942,-0.00013022,-1333.8,1.4942
18570,18.435,4.1818,0,0.00012843,1283.4,4.7986e-05,0.29398,3.2608e-05,-115.24,-0.00012999,-1337,1.507
18571,18.344,4.1818,0.05,1.7825e-06,17.813,1.3688e-06,10.284,-1.7507e-12,-2.0469e-05,-1.3688e-06,-10.284,1.4942
18572,18.344,4.4545,0,0.00012164,1215.6,4.359e-05,0.579,3.4246e-05,-69.627,-0.00012267,-1248.6,1.494
18573,18.435,4.3636,0,0.00012209,1220,4.4567e-05,0.39826,3.2898e-05,-87.279,-0.00012333,-1261.1,1.5069
18574,18.344,4.3636,0.05,1.5322e-06,15.311,1.1765e-06,8.84,-1.7655e-12,-2.0091e-05,-1.1765e-06,-8.84,1.4941
18575,18.344,4.6364,0,0.00011468,1146,4.0005e-05,0.90983,3.4231e-05,-42.472,-0.00011533,-1166.2,1.4938
18576,18.435,4.5455,0,0.00011588,1158,4.1194e-05,0.56874,3.3206e-05,-59.449,-0.00011676,-1186.3,1.5067
18577,18.344,4.5455,0.05,1.3039e-06,13.031,1.0013e-06,7.5232,-3.0012e-12,-3.1773e-05,-1.0013e-06,-7.5232,1.4939
18578,18.344,4.8182,0,0.0001081,1080.3,3.6811e-05,1.7142,3.3897e-05,-20.18,-0.0001084,-1089.3,1.4936
18579,18.435,4.7273,0,0.00010994,1098.6,3.8054e-05,0.89049,3.3328e-05,-34.62,-0.00011047,-1115,1.5065
18580,18.344,4.7273,0.05,1.1212e-06,11.204,8.6096e-07,6.4689,-3.4806e-12,-5.9517e-05,-8.6096e-07,-6.4689,1.4937
18581,18.344,5,0,0.00010207,1020,3.4392e-05,5.107,3.2953e-05,-5.6978,-0.00010208,-1020.3,1.4934
18582,18.435,4.9091,0,0.0001044,1043.3,3.5329e-05,1.7969,3.3128e-05,-14.737,-0.00010461,-1049.6,1.5063
18583,18.344,4.9091,0.05,9.9672e-07,9.9603,7.6536e-07,5.7506,-3.425e-12,-2.1019e-05,-7.6536e-07,-5.7506,1.4935
18584,18.344,5.1818,0,9.6762e-05,966.96,3.3174e-05,13.936,3.1101e-05,-1.6407,-9.6544e-05,-960.71,1.4931
18585,18.435,5.0909,0,9.9416e-05,993.47,3.3508e-05,6.4336,3.2209e-05,-3.3278,-9.936e-05,-991.88,1.5061
18586,18.344,5.0909,0.05,9.2471e-07,9.2407,7.1006e-07,5.3351,-3.0013e-12,-1.6091e-05,-7.1006e-07,-5.3351,1.4932
18587,18.344,5.3636,0,9.2305e-05,922.41,3.2293e-05,21.556,2.9323e-05,-0.75775,-9.1931e-05,-911.81,1.4929
18588,18.435,5.2727,0,9.5118e-05,950.53,3.2745e-05,15.661,3.0524e-05,-1.0237,-9.4858e-05,-943.1,1.5058
18589,18.344,5.2727,0.05,8.8762e-07,8.8701,6.8158e-07,5.1211,-1.9522e-12,-1.8577e-05,-6.8158e-07,-5.1211,1.493
18590,18.344,5.5455,0,8.8777e-05,887.15,3.1457e-05,25.728,2.7979e-05,-0.40436,-8.8317e-05,-874.2,1.4926
18591,18.435,5.4545,0,9.1593e-05,915.29,3.2116e-05,22.434,2.9068e-05,-0.4712,-9.1197e-05,-904.1,1.5056
18592,18.344,5.4545,0.05,8.7015e-07,8.6955,6.6817e-07,5.0203,-6.9529e-13,-7.2492e-06,-6.6817e-07,-5.0203,1.4927
18593,18.344,5.7273,0,8.6317e-05,862.57,3.0731e-05,26.897,2.7126e-05,-0.18591,-8.583e-05,-848.9,1.4923
18594,18.435,5.6364,0,8.8874e-05,888.12,3.1448e-05,25.331,2.8043e-05,-0.25537,-8.8419e-05,-875.31,1.5053
18595,18.344,5.6364,0.05,8.9187e-07,8.9125,6.8484e-07,5.1457,-4.3397e-13,5.8128e-07,-6.8484e-07,-5.1457,1.4924
18596,18.435,5.8182,0,8.7178e-05,871.18,3.088e-05,25.349,2.75e-05,-0.052202,-8.672e-05,-858.25,1.505
18597,18.344,5.8182,0.05,1.3985e-06,13.975,1.0739e-06,8.0686,3.7703e-13,3.954e-06,-1.0739e-06,-8.0686,1.4921
18598,18.344,5.9091,0,8.3531e-05,834.73,2.8875e-05,15.755,2.6786e-05,0.055948,-8.325e-05,-826.71,1.492
18599,18.526,0.27273,0,8.9762e-05,897,3.1622e-05,23.96,2.8416e-05,-0.12396,-8.9332e-05,-884.84,1.518
18600,18.618,0.18182,0,9.0081e-05,900.19,3.1601e-05,22.499,2.8603e-05,-0.02624,-8.9678e-05,-888.75,1.5308
18601,18.526,0.18182,0.05,1.0999e-06,10.991,8.4458e-07,6.3459,-1.2297e-13,3.078e-06,-8.4458e-07,-6.3458,1.5178
18602,18.526,0.090909,0,8.7427e-05,873.67,3.0037e-05,14.265,2.8146e-05,0.0528,-8.7175e-05,-866.42,1.5177
18603,18.526,0.45455,0,9.173e-05,916.67,3.214e-05,22.277,2.9136e-05,-0.29449,-9.1335e-05,-905.47,1.5183
18604,18.618,0.36364,0,9.1447e-05,913.84,3.204e-05,22.264,2.9052e-05,-0.1869,-9.1051e-05,-902.59,1.531
18605,18.526,0.36364,0.05,6.1628e-07,6.1585,4.7322e-07,3.5556,1.1401e-12,1.2385e-05,-4.7322e-07,-3.5556,1.5181
18606,18.526,0.63636,0,9.447e-05,944.05,3.261e-05,16.855,3.0284e-05,-0.62259,-9.4182e-05,-935.81,1.5186
18607,18.618,0.54545,0,9.3577e-05,935.13,3.245e-05,18.621,2.9923e-05,-0.3606,-9.3252e-05,-925.85,1.5313
18608,18.526,0.54545,0.05,6.1124e-07,6.1082,4.6936e-07,3.5266,3.6501e-12,3.1536e-05,-4.6936e-07,-3.5266,1.5184
18609,18.526,0.81818,0,9.7861e-05,977.93,3.305e-05,7.9412,3.1742e-05,-1.89,-9.7754e-05,-974.87,1.5188
18610,18.618,0.72727,0,9.6273e-05,962.06,3.2723e-05,10.857,3.115e-05,-0.96676,-9.6099e-05,-957.06,1.5316
18611,18.526,0.72727,0.05,6.5545e-07,6.55,5.033e-07,3.7816,5.3408e-12,4.7794e-05,-5.0331e-07,-3.7816,1.5187
18612,18.526,1,0,0.00010185,1017.8,3.4279e-05,1.87,3.265e-05,-10.366,-0.00010199,-1022,1.519
18613,18.618,0.90909,0,9.9507e-05,994.39,3.3326e-05,2.6395,3.2253e-05,-5.4183,-9.9552e-05,-995.75,1.5318
18614,18.526,0.90909,0.05,7.2793e-07,7.2743,5.5896e-07,4.1998,6.7136e-12,6.2648e-05,-5.5897e-07,-4.1998,1.5189
18615,18.526,1.1818,0,0.00010635,1062.8,3.6552e-05,0.82771,3.2689e-05,-28.199,-0.00010679,-1076.2,1.5193
18616,18.618,1.0909,0,0.00010322,1031.5,3.5146e-05,0.87723,3.2303e-05,-20.487,-0.00010354,-1041.2,1.532
18617,18.526,1.0909,0.05,8.3542e-07,8.3484,6.4149e-07,4.82,7.3147e-12,6.1361e-05,-6.415e-07,-4.82,1.5191
18618,18.526,1.3636,0,0.00011125,1111.7,3.9239e-05,0.52239,3.2419e-05,-50.721,-0.00011202,-1135.9,1.5194
18619,18.618,1.2727,0,0.00010733,1072.6,3.7466e-05,0.51986,3.1962e-05,-40.835,-0.00010796,-1092.2,1.5322
18620,18.526,1.2727,0.05,9.8133e-07,9.8065,7.5354e-07,5.6618,4.8233e-12,5.7923e-05,-7.5354e-07,-5.6618,1.5193
18621,18.526,1.5455,0,0.00011643,1163.5,4.2169e-05,0.37264,3.1967e-05,-76.28,-0.00011753,-1199.6,1.5196
18622,18.618,1.4545,0,0.00011174,1116.6,4.0055e-05,0.36735,3.1417e-05,-64.53,-0.00011269,-1147.3,1.5324
18623,18.526,1.4545,0.05,1.1606e-06,11.598,8.9116e-07,6.6959,2.8808e-12,5.9155e-05,-8.9116e-07,-6.6958,1.5195
18624,18.526,1.7273,0,0.00012178,1217,4.5197e-05,0.28229,3.1471e-05,-102.85,-0.0001232,-1265,1.5198
18625,18.618,1.6364,0,0.00011634,1162.6,4.2789e-05,0.27887,3.0771e-05,-90.014,-0.00011761,-1204.9,1.5325
18626,18.526,1.6364,0.05,1.3609e-06,13.6,1.045e-06,7.8518,2.0476e-12,4.472e-05,-1.045e-06,-7.8517,1.5197
18627,18.526,1.9091,0,0.00012718,1270.9,4.8161e-05,0.2284,3.1111e-05,-127.88,-0.00012886,-1329.9,1.5199
18628,18.618,1.8182,0,0.00012105,1209.6,4.5534e-05,0.22224,3.0173e-05,-115.19,-0.00012259,-1263,1.5327
18629,18.526,1.8182,0.05,1.5688e-06,15.677,1.2046e-06,9.0512,1.0098e-12,2.9705e-05,-1.2046e-06,-9.0512,1.5198
18630,18.526,2.0909,0,0.00013245,1323.6,5.0894e-05,0.20438,3.1042e-05,-148.95,-0.00013434,-1391.6,1.52
18631,18.618,2,0,0.00012573,1256.4,4.8142e-05,0.19089,2.9782e-05,-137.76,-0.0001275,-1319.5,1.5328
18632,18.526,2,0.05,1.7742e-06,17.73,1.3624e-06,10.236,-1.3102e-12,1.5712e-05,-1.3624e-06,-10.236,1.5199
18633,18.526,2.2727,0,0.00013736,1372.6,5.3251e-05,0.20484,3.1321e-05,-164.57,-0.00013941,-1447.4,1.5201
18634,18.618,2.1818,0,0.00013021,1301.2,5.0475e-05,0.18187,2.9703e-05,-155.89,-0.00013216,-1372,1.5329
18635,18.526,2.1818,0.05,1.9697e-06,19.683,1.5125e-06,11.364,-2.822e-12,8.7247e-06,-1.5125e-06,-11.364,1.52
18636,18.526,2.4545,0,0.00014161,1415.1,5.5131e-05,0.22393,3.1865e-05,-174.59,-0.00014377,-1494.2,1.5202
18637,18.618,2.3636,0,0.00013427,1341.7,5.242e-05,0.19134,2.993e-05,-168.79,-0.00013633,-1418,1.533
18638,18.526,2.3636,0.05,2.1458e-06,21.443,1.6477e-06,12.38,-2.6559e-12,2.7765e-06,-1.6477e-06,-12.38,1.5201
18639,18.526,2.6364,0,0.00014491,1448.1,5.6482e-05,0.25072,3.2484e-05,-180.06,-0.00014712,-1529.6,1.5202
18640,18.618,2.5455,0,0.00013762,1375.2,5.3907e-05,0.21252,3.0345e-05,-176.83,-0.00013976,-1455,1.533
18641,18.526,2.5455,0.05,2.2901e-06,22.885,1.7585e-06,13.213,-2.2798e-12,-1.2047e-06,-1.7585e-06,-13.213,1.5202
18642,18.526,2.8182,0,0.000147,1469,5.7289e-05,0.27198,3.2966e-05,-182.48,-0.00014924,-1551.5,1.5203
18643,18.618,2.7273,0,0.00014001,1399.2,5.4904e-05,0.23406,3.0767e-05,-181.12,-0.00014221,-1480.8,1.5331
18644,18.526,2.7273,0.05,2.3911e-06,23.894,1.836e-06,13.795,-2.6576e-12,-1.0637e-06,-1.836e-06,-13.795,1.5202
18645,18.526,3,0,0.00014771,1476.1,5.7557e-05,0.27982,3.3146e-05,-183.13,-0.00014997,-1559,1.5203
18646,18.618,2.9091,0,0.00014126,1411.6,5.5401e-05,0.24696,3.1027e-05,-182.89,-0.00014347,-1494,1.5331
18647,18.526,2.9091,0.05,2.4425e-06,24.408,1.8756e-06,14.092,-1.6447e-12,-2.8944e-06,-1.8755e-06,-14.092,1.5203
18648,18.526,3.1818,0,0.000147,1469,5.7289e-05,0.27198,3.2966e-05,-182.48,-0.00014924,-1551.5,1.5203
18649,18.618,3.0909,0,0.00014126,1411.6,5.5401e-05,0.24696,3.1027e-05,-182.89,-0.00014347,-1494,1.5331
18650,18.526,3.0909,0.05,2.4425e-06,24.408,1.8755e-06,14.092,-1.0885e-12,2.8762e-06,-1.8756e-06,-14.092,1.5203
18651,18.526,3.3636,0,0.00014491,1448.1,5.6482e-05,0.25072,3.2484e-05,-180.06,-0.00014712,-1529.6,1.5202
18652,18.618,3.2727,0,0.00014001,1399.2,5.4904e-05,0.23406,3.0767e-05,-181.12,-0.00014221,-1480.8,1.5331
18653,18.526,3.2727,0.05,2.3911e-06,23.894,1.836e-06,13.795,-5.4563e-13,2.6875e-06,-1.836e-06,-13.795,1.5202
18654,18.526,3.5455,0,0.00014161,1415.1,5.5131e-05,0.22393,3.1865e-05,-174.59,-0.00014377,-1494.2,1.5202
18655,18.618,3.4545,0,0.00013762,1375.2,5.3907e-05,0.21252,3.0345e-05,-176.83,-0.00013976,-1455,1.533
18656,18.526,3.4545,0.05,2.2901e-06,22.885,1.7585e-06,13.213,3.0542e-13,4.7308e-07,-1.7585e-06,-13.213,1.5202
18657,18.526,3.7273,0,0.00013736,1372.6,5.3251e-05,0.20484,3.1321e-05,-164.57,-0.00013941,-1447.4,1.5201
18658,18.618,3.6364,0,0.00013427,1341.7,5.242e-05,0.19134,2.993e-05,-168.79,-0.00013633,-1418,1.533
18659,18.526,3.6364,0.05,2.1458e-06,21.443,1.6477e-06,12.38,3.1504e-13,-8.0395e-07,-1.6477e-06,-12.38,1.5201
18660,18.526,3.9091,0,0.00013245,1323.6,5.0894e-05,0.20438,3.1042e-05,-148.95,-0.00013434,-1391.6,1.52
18661,18.618,3.8182,0,0.00013021,1301.2,5.0475e-05,0.18187,2.9703e-05,-155.89,-0.00013216,-1372,1.5329
18662,18.526,3.8182,0.05,1.9697e-06,19.683,1.5125e-06,11.364,-3.5105e-13,-2.1259e-06,-1.5125e-06,-11.364,1.52
18663,18.526,4.0909,0,0.00012718,1270.9,4.8161e-05,0.2284,3.1111e-05,-127.88,-0.00012886,-1329.9,1.5199
18664,18.618,4,0,0.00012573,1256.4,4.8142e-05,0.19089,2.9782e-05,-137.76,-0.0001275,-1319.5,1.5328
18665,18.526,4,0.05,1.7742e-06,17.73,1.3624e-06,10.236,-1.1702e-12,-1.6181e-05,-1.3624e-06,-10.236,1.5199
18666,18.526,4.2727,0,0.00012178,1217,4.5197e-05,0.28229,3.1471e-05,-102.85,-0.0001232,-1265,1.5198
18667,18.618,4.1818,0,0.00012105,1209.6,4.5534e-05,0.22224,3.0173e-05,-115.19,-0.00012259,-1263,1.5327
18668,18.526,4.1818,0.05,1.5688e-06,15.677,1.2046e-06,9.0512,-2.3119e-12,-1.5342e-05,-1.2046e-06,-9.0512,1.5198
18669,18.526,4.4545,0,0.00011643,1163.5,4.2169e-05,0.37264,3.1967e-05,-76.28,-0.00011753,-1199.6,1.5196
18670,18.618,4.3636,0,0.00011634,1162.6,4.2789e-05,0.27887,3.0771e-05,-90.014,-0.00011761,-1204.9,1.5325
18671,18.526,4.3636,0.05,1.3609e-06,13.6,1.045e-06,7.8518,-3.1988e-12,-1.0071e-05,-1.045e-06,-7.8518,1.5197
18672,18.526,4.6364,0,0.00011125,1111.7,3.9239e-05,0.52239,3.2419e-05,-50.721,-0.00011202,-1135.9,1.5194
18673,18.618,4.5455,0,0.00011174,1116.6,4.0054e-05,0.36735,3.1417e-05,-64.53,-0.00011269,-1147.3,1.5324
18674,18.526,4.5455,0.05,1.1606e-06,11.598,8.9116e-07,6.6959,-2.3477e-12,-2.6173e-05,-8.9116e-07,-6.6959,1.5195
18675,18.526,4.8182,0,0.00010635,1062.8,3.6552e-05,0.82771,3.2689e-05,-28.199,-0.00010679,-1076.2,1.5193
18676,18.618,4.7273,0,0.00010733,1072.6,3.7466e-05,0.51986,3.1962e-05,-40.835,-0.00010796,-1092.2,1.5322
18677,18.526,4.7273,0.05,9.8133e-07,9.8065,7.5354e-07,5.6618,-2.7477e-12,-3.6752e-05,-7.5354e-07,-5.6618,1.5193
18678,18.526,5,0,0.00010185,1017.8,3.4279e-05,1.87,3.265e-05,-10.366,-0.00010199,-1022,1.519
18679,18.618,4.9091,0,0.00010322,1031.5,3.5146e-05,0.87724,3.2303e-05,-20.487,-0.00010354,-1041.2,1.532
18680,18.526,4.9091,0.05,8.3542e-07,8.3484,6.415e-07,4.82,-2.744e-12,-2.2996e-05,-6.415e-07,-4.8199,1.5191
18681,18.526,5.1818,0,9.7861e-05,977.94,3.305e-05,7.9413,3.1742e-05,-1.8899,-9.7754e-05,-974.87,1.5188
18682,18.618,5.0909,0,9.9507e-05,994.39,3.3326e-05,2.6396,3.2253e-05,-5.4182,-9.9552e-05,-995.75,1.5318
18683,18.526,5.0909,0.05,7.2793e-07,7.2743,5.5896e-07,4.1998,-3.2615e-12,-2.7725e-05,-5.5896e-07,-4.1998,1.5189
18684,18.526,5.3636,0,9.447e-05,944.05,3.261e-05,16.855,3.0284e-05,-0.62259,-9.4182e-05,-935.81,1.5186
18685,18.618,5.2727,0,9.6273e-05,962.06,3.2723e-05,10.857,3.115e-05,-0.96675,-9.6099e-05,-957.06,1.5316
18686,18.526,5.2727,0.05,6.5545e-07,6.55,5.033e-07,3.7816,-1.4143e-12,-1.943e-05,-5.033e-07,-3.7816,1.5187
18687,18.526,5.5455,0,9.173e-05,916.67,3.214e-05,22.277,2.9136e-05,-0.29449,-9.1335e-05,-905.47,1.5183
18688,18.618,5.4545,0,9.3577e-05,935.13,3.245e-05,18.621,2.9923e-05,-0.3606,-9.3252e-05,-925.85,1.5313
18689,18.526,5.4545,0.05,6.1124e-07,6.1082,4.6936e-07,3.5266,-1.4304e-12,-9.5381e-06,-4.6936e-07,-3.5266,1.5184
18690,18.526,5.7273,0,8.9762e-05,897,3.1622e-05,23.96,2.8416e-05,-0.12396,-8.9332e-05,-884.84,1.518
18691,18.618,5.6364,0,9.1447e-05,913.84,3.204e-05,22.264,2.9052e-05,-0.1869,-9.1051e-05,-902.59,1.531
18692,18.526,5.6364,0.05,6.1628e-07,6.1585,4.7322e-07,3.5556,-1.145e-13,-1.0502e-06,-4.7322e-07,-3.5556,1.5181
18693,18.618,5.8182,0,9.0081e-05,900.19,3.1601e-05,22.499,2.8603e-05,-0.02624,-8.9678e-05,-888.75,1.5308
18694,18.526,5.8182,0.05,1.0999e-06,10.991,8.4458e-07,6.3459,8.8801e-13,5.4201e-06,-8.4458e-07,-6.3459,1.5178
18695,18.526,5.9091,0,8.7427e-05,873.67,3.0037e-05,14.265,2.8146e-05,0.052799,-8.7175e-05,-866.42,1.5177
18696,18.709,0.27273,0,9.1782e-05,917.18,3.2033e-05,20.9,2.9239e-05,-0.087731,-9.141e-05,-906.6,1.5438
18697,18.8,0.18182,0,9.1662e-05,915.99,3.1895e-05,19.76,2.9263e-05,-0.015332,-9.131e-05,-905.96,1.5566
18698,18.709,0.18182,0.05,8.3847e-07,8.3789,6.4384e-07,4.8375,-4.0221e-13,2.0458e-06,-6.4384e-07,-4.8375,1.5436
18699,18.709,0.090909,0,8.9854e-05,897.92,3.0711e-05,12.738,2.9023e-05,0.051437,-8.9629e-05,-891.46,1.5435
18700,18.709,0.45455,0,9.3319e-05,932.55,3.2367e-05,18.741,2.9844e-05,-0.22085,-9.2989e-05,-923.14,1.5441
18701,18.8,0.36364,0,9.2718e-05,926.54,3.2193e-05,19.079,2.9635e-05,-0.13975,-9.2381e-05,-916.92,1.5569
18702,18.709,0.36364,0.05,3.8612e-07,3.8585,2.9649e-07,2.2277,2.1692e-12,2.4352e-05,-2.9649e-07,-2.2277,1.5439
18703,18.709,0.63636,0,9.5417e-05,953.51,3.2573e-05,12.703,3.0812e-05,-0.53258,-9.5203e-05,-947.36,1.5443
18704,18.8,0.54545,0,9.4356e-05,942.9,3.2399e-05,14.968,3.0369e-05,-0.28466,-9.4096e-05,-935.47,1.5571
18705,18.709,0.54545,0.05,4.1356e-07,4.1328,3.1756e-07,2.3861,3.7755e-12,4.2677e-05,-3.1757e-07,-2.3861,1.5442
18706,18.709,0.81818,0,9.7968e-05,979,3.2783e-05,3.9324,3.1923e-05,-2.5297,-9.7942e-05,-978.29,1.5446
18707,18.8,0.72727,0,9.6387e-05,963.21,3.2437e-05,6.9565,3.1379e-05,-0.99155,-9.6283e-05,-960.2,1.5574
18708,18.709,0.72727,0.05,4.9569e-07,4.9535,3.8063e-07,2.8599,4.8364e-12,4.716e-05,-3.8063e-07,-2.8599,1.5444
18709,18.709,1,0,0.00010094,1008.7,3.4095e-05,0.91317,3.2059e-05,-14.386,-0.00010116,-1015.3,1.5448
18710,18.8,0.90909,0,9.8793e-05,987.24,3.31e-05,1.1997,3.1868e-05,-8.0507,-9.8906e-05,-990.64,1.5576
18711,18.709,0.90909,0.05,6.0374e-07,6.0332,4.6359e-07,3.4833,4.5276e-12,5.3257e-05,-4.636e-07,-3.4833,1.5447
18712,18.709,1.1818,0,0.00010427,1042,3.6051e-05,0.49457,3.1649e-05,-32.581,-0.00010477,-1057.6,1.545
18713,18.8,1.0909,0,0.00010153,1014.6,3.4727e-05,0.51852,3.1475e-05,-23.92,-0.00010191,-1026.1,1.5578
18714,18.709,1.0909,0.05,7.3536e-07,7.3485,5.6466e-07,4.2427,3.4043e-12,4.6354e-05,-5.6466e-07,-4.2427,1.5449
18715,18.709,1.3636,0,0.00010789,1078.1,3.8279e-05,0.34385,3.1028e-05,-54.139,-0.0001087,-1104,1.5452
18716,18.8,1.2727,0,0.00010456,1044.9,3.6665e-05,0.34295,3.0829e-05,-43.503,-0.00010522,-1065.7,1.558
18717,18.709,1.2727,0.05,8.877e-07,8.8709,6.8165e-07,5.1216,3.0278e-12,4.2539e-05,-6.8165e-07,-5.1216,1.5451
18718,18.709,1.5455,0,0.00011171,1116.4,4.0673e-05,0.26209,3.0285e-05,-77.783,-0.00011283,-1153.1,1.5453
18719,18.8,1.4545,0,0.0001078,1077.2,3.8792e-05,0.25876,3.0033e-05,-65.55,-0.00010876,-1108.4,1.5581
18720,18.709,1.4545,0.05,1.055e-06,10.543,8.1012e-07,6.0869,2.182e-12,4.8367e-05,-8.1012e-07,-6.0869,1.5452
18721,18.709,1.7273,0,0.00011567,1155.9,4.3124e-05,0.20998,2.9532e-05,-101.92,-0.00011706,-1203.3,1.5455
18722,18.8,1.6364,0,0.00011118,1111.1,4.1016e-05,0.20698,2.9175e-05,-88.759,-0.00011242,-1152.7,1.5583
18723,18.709,1.6364,0.05,1.2295e-06,12.287,9.4412e-07,7.0937,1.3443e-12,1.6049e-05,-9.4411e-07,-7.0937,1.5454
18724,18.709,1.9091,0,0.00011965,1195.6,4.5513e-05,0.17733,2.8893e-05,-124.7,-0.00012128,-1253,1.5456
18725,18.8,1.8182,0,0.00011464,1145.6,4.3235e-05,0.17292,2.8368e-05,-111.54,-0.00011612,-1197.2,1.5584
18726,18.709,1.8182,0.05,1.4038e-06,14.028,1.0779e-06,8.099,1.7746e-13,2.0952e-05,-1.0779e-06,-8.099,1.5455
18727,18.709,2.0909,0,0.00012353,1234.4,4.7722e-05,0.16243,2.8477e-05,-144.43,-0.00012535,-1300.2,1.5457
18728,18.8,2,0,0.00011807,1179.9,4.5343e-05,0.15323,2.7723e-05,-132.24,-0.00011976,-1240.4,1.5585
18729,18.709,2,0.05,1.5721e-06,15.71,1.2072e-06,9.0704,-1.0293e-12,7.5639e-06,-1.2072e-06,-9.0704,1.5456
18730,18.709,2.2727,0,0.00012714,1270.5,4.9643e-05,0.16411,2.8327e-05,-160,-0.0001291,-1342.8,1.5458
18731,18.8,2.1818,0,0.00012135,1212.7,4.7236e-05,0.14762,2.7315e-05,-149.54,-0.0001232,-1280.4,1.5586
18732,18.709,2.1818,0.05,1.7299e-06,17.287,1.3283e-06,9.9807,-1.8878e-12,5.6099e-06,-1.3283e-06,-9.9806,1.5457
18733,18.709,2.4545,0,0.00013026,1301.7,5.1196e-05,0.17731,2.8402e-05,-171.09,-0.00013232,-1378.7,1.5458
18734,18.8,2.3636,0,0.00012431,1242.2,4.8831e-05,0.15396,2.7151e-05,-162.74,-0.00012627,-1315.5,1.5587
18735,18.709,2.3636,0.05,1.8709e-06,18.696,1.4366e-06,10.794,-2.1803e-12,3.1655e-06,-1.4366e-06,-10.794,1.5458
18736,18.709,2.6364,0,0.00013269,1326,5.233e-05,0.19445,2.8596e-05,-178.13,-0.00013481,-1405.9,1.5459
18737,18.8,2.5455,0,0.00012676,1266.7,5.0066e-05,0.16698,2.7171e-05,-171.86,-0.0001288,-1343.7,1.5587
18738,18.709,2.5455,0.05,1.987e-06,19.856,1.5258e-06,11.464,-2.3412e-12,7.993e-07,-1.5258e-06,-11.464,1.5458
18739,18.709,2.8182,0,0.00013423,1341.4,5.3016e-05,0.20829,2.878e-05,-181.89,-0.00013639,-1422.9,1.5459
18740,18.8,2.7273,0,0.00012851,1284.2,5.0904e-05,0.18045,2.7273e-05,-177.38,-0.0001306,-1363.6,1.5587
18741,18.709,2.7273,0.05,2.0696e-06,20.682,1.5892e-06,11.941,-1.8535e-12,-1.7395e-06,-1.5892e-06,-11.941,1.5459
18742,18.709,3,0,0.00013476,1346.7,5.3246e-05,0.21354,2.8854e-05,-183.05,-0.00013693,-1428.7,1.5459
18743,18.8,2.9091,0,0.00012942,1293.3,5.1326e-05,0.18878,2.7354e-05,-179.93,-0.00013154,-1373.8,1.5588
18744,18.709,2.9091,0.05,2.1125e-06,21.11,1.6221e-06,12.188,-1.8921e-12,2.6572e-06,-1.6221e-06,-12.188,1.5459
18745,18.709,3.1818,0,0.00013423,1341.4,5.3016e-05,0.20829,2.878e-05,-181.89,-0.00013639,-1422.9,1.5459
18746,18.8,3.0909,0,0.00012942,1293.3,5.1326e-05,0.18878,2.7354e-05,-179.93,-0.00013154,-1373.8,1.5588
18747,18.709,3.0909,0.05,2.1125e-06,21.11,1.6221e-06,12.188,-1.0685e-12,-2.733e-06,-1.6221e-06,-12.188,1.5459
18748,18.709,3.3636,0,0.00013269,1326,5.233e-05,0.19445,2.8596e-05,-178.13,-0.00013481,-1405.9,1.5459
18749,18.8,3.2727,0,0.00012851,1284.2,5.0904e-05,0.18045,2.7273e-05,-177.38,-0.0001306,-1363.6,1.5587
18750,18.709,3.2727,0.05,2.0696e-06,20.682,1.5892e-06,11.941,-9.1358e-13,-4.1927e-07,-1.5892e-06,-11.941,1.5459
18751,18.709,3.5455,0,0.00013026,1301.7,5.1196e-05,0.17731,2.8402e-05,-171.09,-0.00013232,-1378.7,1.5458
18752,18.8,3.4545,0,0.00012676,1266.7,5.0066e-05,0.16699,2.7171e-05,-171.86,-0.0001288,-1343.7,1.5587
18753,18.709,3.4545,0.05,1.987e-06,19.856,1.5258e-06,11.464,-2.6653e-13,-1.934e-07,-1.5258e-06,-11.464,1.5458
18754,18.709,3.7273,0,0.00012714,1270.5,4.9643e-05,0.16411,2.8327e-05,-160,-0.0001291,-1342.8,1.5458
18755,18.8,3.6364,0,0.00012431,1242.2,4.8831e-05,0.15396,2.7151e-05,-162.74,-0.00012627,-1315.5,1.5587
18756,18.709,3.6364,0.05,1.8709e-06,18.696,1.4366e-06,10.794,6.5967e-14,-4.0082e-06,-1.4366e-06,-10.794,1.5458
18757,18.709,3.9091,0,0.00012353,1234.4,4.7722e-05,0.16243,2.8477e-05,-144.43,-0.00012535,-1300.2,1.5457
18758,18.8,3.8182,0,0.00012135,1212.7,4.7236e-05,0.14762,2.7315e-05,-149.54,-0.0001232,-1280.4,1.5586
18759,18.709,3.8182,0.05,1.7299e-06,17.287,1.3283e-06,9.9806,-9.7525e-13,-4.3245e-06,-1.3283e-06,-9.9806,1.5457
18760,18.709,4.0909,0,0.00011965,1195.6,4.5513e-05,0.17733,2.8893e-05,-124.7,-0.00012128,-1253,1.5456
18761,18.8,4,0,0.00011807,1179.9,4.5343e-05,0.15323,2.7723e-05,-132.24,-0.00011976,-1240.4,1.5585
18762,18.709,4,0.05,1.5721e-06,15.71,1.2072e-06,9.0704,-1.2554e-12,-9.1552e-06,-1.2072e-06,-9.0704,1.5456
18763,18.709,4.2727,0,0.00011567,1155.9,4.3124e-05,0.20998,2.9532e-05,-101.92,-0.00011706,-1203.3,1.5455
18764,18.8,4.1818,0,0.00011464,1145.6,4.3235e-05,0.17292,2.8368e-05,-111.54,-0.00011612,-1197.2,1.5584
18765,18.709,4.1818,0.05,1.4038e-06,14.028,1.0779e-06,8.099,-1.5278e-12,-1.8756e-06,-1.0779e-06,-8.099,1.5455
18766,18.709,4.4545,0,0.00011171,1116.4,4.0673e-05,0.26209,3.0286e-05,-77.783,-0.00011283,-1153.1,1.5453
18767,18.8,4.3636,0,0.00011118,1111.1,4.1016e-05,0.20698,2.9175e-05,-88.758,-0.00011242,-1152.7,1.5583
18768,18.709,4.3636,0.05,1.2295e-06,12.287,9.4412e-07,7.0937,-1.8296e-12,-9.3456e-06,-9.4411e-07,-7.0937,1.5454
18769,18.709,4.6364,0,0.00010789,1078.1,3.8279e-05,0.34385,3.1028e-05,-54.139,-0.0001087,-1104,1.5452
18770,18.8,4.5455,0,0.0001078,1077.2,3.8792e-05,0.25876,3.0033e-05,-65.55,-0.00010876,-1108.4,1.5581
18771,18.709,4.5455,0.05,1.055e-06,10.543,8.1012e-07,6.0869,-1.1754e-12,-2.4148e-06,-8.1012e-07,-6.0869,1.5452
18772,18.709,4.8182,0,0.00010427,1042,3.6051e-05,0.49458,3.1649e-05,-32.58,-0.00010477,-1057.6,1.545
18773,18.8,4.7273,0,0.00010456,1044.9,3.6665e-05,0.34295,3.0829e-05,-43.503,-0.00010522,-1065.7,1.558
18774,18.709,4.7273,0.05,8.877e-07,8.8709,6.8165e-07,5.1216,-1.9869e-12,-6.5897e-06,-6.8165e-07,-5.1216,1.5451
18775,18.709,5,0,0.00010094,1008.7,3.4095e-05,0.91318,3.2059e-05,-14.386,-0.00010116,-1015.3,1.5448
18776,18.8,4.9091,0,0.00010153,1014.6,3.4727e-05,0.51852,3.1475e-05,-23.92,-0.00010191,-1026.1,1.5578
18777,18.709,4.9091,0.05,7.3536e-07,7.3485,5.6467e-07,4.2427,-1.9309e-12,-2.469e-05,-5.6466e-07,-4.2427,1.5449
18778,18.709,5.1818,0,9.7968e-05,979,3.2783e-05,3.9325,3.1923e-05,-2.5297,-9.7942e-05,-978.29,1.5446
18779,18.8,5.0909,0,9.8793e-05,987.24,3.31e-05,1.1997,3.1868e-05,-8.0506,-9.8906e-05,-990.64,1.5576
18780,18.709,5.0909,0.05,6.0374e-07,6.0332,4.636e-07,3.4833,-2.7199e-12,-1.5205e-05,-4.6359e-07,-3.4833,1.5447
18781,18.709,5.3636,0,9.5417e-05,953.51,3.2573e-05,12.703,3.0812e-05,-0.53257,-9.5203e-05,-947.36,1.5443
18782,18.8,5.2727,0,9.6387e-05,963.21,3.2437e-05,6.9565,3.1379e-05,-0.99154,-9.6283e-05,-960.2,1.5574
18783,18.709,5.2727,0.05,4.9569e-07,4.9535,3.8063e-07,2.8599,-2.2098e-12,-3.2174e-05,-3.8063e-07,-2.8599,1.5444
18784,18.709,5.5455,0,9.3319e-05,932.55,3.2367e-05,18.741,2.9844e-05,-0.22084,-9.2989e-05,-923.14,1.5441
18785,18.8,5.4545,0,9.4356e-05,942.9,3.2399e-05,14.969,3.0369e-05,-0.28465,-9.4097e-05,-935.47,1.5571
18786,18.709,5.4545,0.05,4.1356e-07,4.1328,3.1757e-07,2.3861,-2.0664e-12,-1.0908e-05,-3.1756e-07,-2.3861,1.5442
18787,18.709,5.7273,0,9.1782e-05,917.18,3.2033e-05,20.9,2.9239e-05,-0.087731,-9.141e-05,-906.6,1.5438
18788,18.8,5.6364,0,9.2718e-05,926.54,3.2193e-05,19.079,2.9635e-05,-0.13975,-9.2381e-05,-916.92,1.5569
18789,18.709,5.6364,0.05,3.8612e-07,3.8585,2.9649e-07,2.2277,-3.3427e-13,-7.5906e-07,-2.9649e-07,-2.2277,1.5439
18790,18.8,5.8182,0,9.1662e-05,915.99,3.1895e-05,19.76,2.9263e-05,-0.015333,-9.131e-05,-905.96,1.5566
18791,18.709,5.8182,0.05,8.3846e-07,8.3789,6.4384e-07,4.8375,8.6875e-13,7.2644e-06,-6.4384e-07,-4.8375,1.5436
18792,18.709,5.9091,0,8.9854e-05,897.92,3.0711e-05,12.738,2.9023e-05,0.051437,-8.9629e-05,-891.46,1.5435
18793,18.891,0.27273,0,9.2605e-05,925.41,3.2061e-05,17.977,2.966e-05,-0.064298,-9.2287e-05,-916.32,1.5697
18794,18.982,0.18182,0,9.2136e-05,920.72,3.1846e-05,17.293,2.9543e-05,-0.010773,-9.183e-05,-911.96,1.5825
18795,18.891,0.18182,0.05,6.1543e-07,6.15,4.7257e-07,3.5507,-6.0437e-13,5.7118e-06,-4.7257e-07,-3.5507,1.5695
18796,18.891,0.090909,0,9.1034e-05,909.71,3.0982e-05,11.311,2.9483e-05,0.05127,-9.0835e-05,-903.97,1.5694
18797,18.891,0.45455,0,9.3769e-05,937.05,3.2233e-05,15.367,3.0165e-05,-0.16856,-9.3501e-05,-929.35,1.5699
18798,18.982,0.36364,0,9.2911e-05,928.47,3.2003e-05,16.046,2.9854e-05,-0.10485,-9.263e-05,-920.4,1.5827
18799,18.891,0.36364,0.05,2.1136e-07,2.1122,1.623e-07,1.2195,3.3434e-12,3.1679e-05,-1.623e-07,-1.2195,1.5698
18800,18.891,0.63636,0,9.5346e-05,952.8,3.2247e-05,9.0992,3.0972e-05,-0.47958,-9.5196e-05,-948.45,1.5702
18801,18.982,0.54545,0,9.4139e-05,940.74,3.2048e-05,11.644,3.0468e-05,-0.2311,-9.3939e-05,-934.98,1.583
18802,18.891,0.54545,0.05,2.9426e-07,2.9405,2.2595e-07,1.6977,3.3074e-12,3.5146e-05,-2.2595e-07,-1.6977,1.57
18803,18.891,0.81818,0,9.7237e-05,971.7,3.2422e-05,1.7324,3.1682e-05,-3.8329,-9.7272e-05,-972.74,1.5704
18804,18.982,0.72727,0,9.5641e-05,955.75,3.1946e-05,3.9137,3.127e-05,-1.1606,-9.5594e-05,-954.37,1.5832
18805,18.891,0.72727,0.05,4.1232e-07,4.1204,3.1661e-07,2.3789,4.7868e-12,4.0951e-05,-3.1661e-07,-2.3789,1.5703
18806,18.891,1,0,9.9419e-05,993.51,3.3695e-05,0.5279,3.1351e-05,-17.078,-9.9689e-05,-1001.7,1.5706
18807,18.982,0.90909,0,9.7403e-05,973.35,3.2704e-05,0.63929,3.125e-05,-10.288,-9.7562e-05,-978.13,1.5834
18808,18.891,0.90909,0.05,5.4139e-07,5.4101,4.1572e-07,3.1235,3.0951e-12,2.8411e-05,-4.1572e-07,-3.1235,1.5705
18809,18.891,1.1818,0,0.00010186,1017.9,3.5336e-05,0.32734,3.0695e-05,-34.546,-0.00010239,-1034.5,1.5708
18810,18.982,1.0909,0,9.9399e-05,993.3,3.4093e-05,0.33739,3.0631e-05,-25.677,-9.9804e-05,-1005.7,1.5836
18811,18.891,1.0909,0.05,6.7995e-07,6.7948,5.2212e-07,3.923,3.1101e-12,3.1689e-05,-5.2212e-07,-3.923,1.5707
18812,18.891,1.3636,0,0.0001045,1044.3,3.7176e-05,0.24403,2.9872e-05,-54.632,-0.00010532,-1070.4,1.5709
18813,18.982,1.2727,0,0.00010159,1015.2,3.57e-05,0.24202,2.9817e-05,-43.96,-0.00010227,-1036.4,1.5838
18814,18.891,1.2727,0.05,8.2617e-07,8.256,6.344e-07,4.7666,1.3421e-12,4.0753e-05,-6.344e-07,-4.7666,1.5708
18815,18.891,1.5455,0,0.0001073,1072.2,3.9134e-05,0.19575,2.8959e-05,-76.254,-0.00010839,-1108.2,1.5711
18816,18.982,1.4545,0,0.00010394,1038.7,3.7446e-05,0.19221,2.8882e-05,-64.156,-0.00010488,-1069.2,1.5839
18817,18.891,1.4545,0.05,9.7665e-07,9.7598,7.4995e-07,5.6348,1.4256e-12,1.3142e-05,-7.4995e-07,-5.6348,1.571
18818,18.891,1.7273,0,0.00011018,1101.1,4.1126e-05,0.16407,2.8045e-05,-98.128,-0.00011152,-1146.8,1.5712
18819,18.982,1.6364,0,0.0001064,1063.3,3.926e-05,0.16026,2.7903e-05,-85.171,-0.00010759,-1103.2,1.5841
18820,18.891,1.6364,0.05,1.1271e-06,11.263,8.6544e-07,6.5026,5.0323e-13,1.4554e-05,-8.6544e-07,-6.5026,1.5711
18821,18.891,1.9091,0,0.00011309,1130.1,4.3064e-05,0.14406,2.7225e-05,-118.86,-0.00011464,-1184.8,1.5713
18822,18.982,1.8182,0,0.00010891,1088.4,4.1063e-05,0.13883,2.6969e-05,-105.76,-0.00011032,-1137.3,1.5842
18823,18.891,1.8182,0.05,1.2733e-06,12.724,9.7771e-07,7.3461,-4.6541e-13,1.3828e-05,-9.7771e-07,-7.3461,1.5713
18824,18.891,2.0909,0,0.00011592,1158.4,4.4857e-05,0.13459,2.658e-05,-137.19,-0.00011763,-1220.8,1.5714
18825,18.982,2,0,0.0001114,1113.2,4.2774e-05,0.12626,2.6164e-05,-124.67,-0.00011299,-1170.2,1.5843
18826,18.891,2,0.05,1.4119e-06,14.109,1.0841e-06,8.1458,-1.0955e-12,1.2831e-05,-1.0841e-06,-8.1457,1.5714
18827,18.891,2.2727,0,0.00011853,1184.5,4.6424e-05,0.13458,2.6148e-05,-152.21,-0.00012038,-1253.2,1.5715
18828,18.982,2.1818,0,0.00011377,1136.9,4.4315e-05,0.12203,2.5547e-05,-140.89,-0.0001155,-1200.7,1.5844
18829,18.891,2.1818,0.05,1.5396e-06,15.385,1.1822e-06,8.8828,-1.466e-12,6.6893e-06,-1.1822e-06,-8.8828,1.5714
18830,18.891,2.4545,0,0.0001208,1207.2,4.7701e-05,0.14162,2.5917e-05,-163.53,-0.00012274,-1280.5,1.5716
18831,18.982,2.3636,0,0.0001159,1158.2,4.562e-05,0.12489,2.5135e-05,-153.79,-0.00011774,-1227.3,1.5844
18832,18.891,2.3636,0.05,1.6523e-06,16.512,1.2688e-06,9.533,-1.5875e-12,4.0638e-06,-1.2688e-06,-9.533,1.5715
18833,18.891,2.6364,0,0.00012256,1224.7,4.864e-05,0.15166,2.5832e-05,-171.22,-0.00012457,-1301.2,1.5716
18834,18.982,2.5455,0,0.00011766,1175.8,4.6638e-05,0.13214,2.4904e-05,-163.18,-0.00011958,-1248.7,1.5845
18835,18.891,2.5455,0.05,1.7444e-06,17.432,1.3395e-06,10.064,-1.855e-12,4.859e-06,-1.3395e-06,-10.064,1.5716
18836,18.891,2.8182,0,0.00012367,1235.9,4.9214e-05,0.16003,2.582e-05,-175.61,-0.00012572,-1314.2,1.5716
18837,18.982,2.7273,0,0.00011891,1188.3,4.7334e-05,0.14001,2.4798e-05,-169.19,-0.00012088,-1263.8,1.5845
18838,18.891,2.7273,0.05,1.81e-06,18.087,1.3898e-06,10.443,-1.7812e-12,-1.0304e-06,-1.3898e-06,-10.443,1.5716
18839,18.891,3,0,0.00012406,1239.7,4.9407e-05,0.16325,2.5824e-05,-177.03,-0.00012611,-1318.6,1.5716
18840,18.982,2.9091,0,0.00011957,1194.9,4.7687e-05,0.14498,2.4763e-05,-172.09,-0.00012156,-1271.5,1.5845
18841,18.891,2.9091,0.05,1.8441e-06,18.428,1.416e-06,10.64,-1.7184e-12,2.2564e-06,-1.416e-06,-10.639,1.5716
18842,18.891,3.1818,0,0.00012367,1235.9,4.9214e-05,0.16003,2.582e-05,-175.61,-0.00012572,-1314.2,1.5716
18843,18.982,3.0909,0,0.00011957,1194.9,4.7687e-05,0.14498,2.4763e-05,-172.09,-0.00012156,-1271.5,1.5845
18844,18.891,3.0909,0.05,1.8441e-06,18.428,1.416e-06,10.64,-1.2408e-12,-2.3154e-06,-1.416e-06,-10.64,1.5716
18845,18.891,3.3636,0,0.00012256,1224.7,4.864e-05,0.15166,2.5832e-05,-171.22,-0.00012457,-1301.2,1.5716
18846,18.982,3.2727,0,0.00011891,1188.3,4.7334e-05,0.14001,2.4798e-05,-169.18,-0.00012088,-1263.8,1.5845
18847,18.891,3.2727,0.05,1.81e-06,18.087,1.3898e-06,10.443,-9.8521e-13,6.7769e-07,-1.3898e-06,-10.443,1.5716
18848,18.891,3.5455,0,0.0001208,1207.2,4.7701e-05,0.14162,2.5917e-05,-163.53,-0.00012274,-1280.5,1.5716
18849,18.982,3.4545,0,0.00011766,1175.8,4.6638e-05,0.13214,2.4904e-05,-163.18,-0.00011958,-1248.7,1.5845
18850,18.891,3.4545,0.05,1.7444e-06,17.432,1.3395e-06,10.064,-8.4831e-13,2.3101e-06,-1.3395e-06,-10.064,1.5716
18851,18.891,3.7273,0,0.00011853,1184.5,4.6424e-05,0.13458,2.6148e-05,-152.21,-0.00012038,-1253.2,1.5715
18852,18.982,3.6364,0,0.0001159,1158.2,4.562e-05,0.12489,2.5135e-05,-153.79,-0.00011774,-1227.3,1.5844
18853,18.891,3.6364,0.05,1.6523e-06,16.512,1.2688e-06,9.533,-4.6013e-13,-3.9094e-06,-1.2688e-06,-9.533,1.5715
18854,18.891,3.9091,0,0.00011592,1158.4,4.4857e-05,0.13459,2.658e-05,-137.19,-0.00011763,-1220.8,1.5714
18855,18.982,3.8182,0,0.00011377,1136.9,4.4315e-05,0.12203,2.5547e-05,-140.89,-0.0001155,-1200.7,1.5844
18856,18.891,3.8182,0.05,1.5396e-06,15.385,1.1822e-06,8.8828,-6.6645e-13,-4.3689e-06,-1.1822e-06,-8.8828,1.5714
18857,18.891,4.0909,0,0.00011309,1130.1,4.3064e-05,0.14406,2.7225e-05,-118.86,-0.00011464,-1184.8,1.5713
18858,18.982,4,0,0.0001114,1113.2,4.2774e-05,0.12626,2.6164e-05,-124.67,-0.00011299,-1170.2,1.5843
18859,18.891,4,0.05,1.4119e-06,14.109,1.0841e-06,8.1458,-1.0387e-12,-9.4905e-06,-1.0841e-06,-8.1458,1.5714
18860,18.891,4.2727,0,0.00011018,1101.1,4.1126e-05,0.16407,2.8045e-05,-98.128,-0.00011152,-1146.8,1.5712
18861,18.982,4.1818,0,0.00010891,1088.4,4.1063e-05,0.13883,2.6969e-05,-105.76,-0.00011032,-1137.3,1.5842
18862,18.891,4.1818,0.05,1.2733e-06,12.724,9.7771e-07,7.3461,-9.2475e-13,-1.3126e-05,-9.7771e-07,-7.3461,1.5713
18863,18.891,4.4545,0,0.0001073,1072.2,3.9134e-05,0.19575,2.8959e-05,-76.253,-0.00010839,-1108.2,1.5711
18864,18.982,4.3636,0,0.0001064,1063.3,3.926e-05,0.16026,2.7903e-05,-85.171,-0.00010759,-1103.2,1.5841
18865,18.891,4.3636,0.05,1.1271e-06,11.263,8.6544e-07,6.5026,-1.1837e-12,-7.552e-06,-8.6544e-07,-6.5026,1.5711
18866,18.891,4.6364,0,0.0001045,1044.3,3.7176e-05,0.24403,2.9872e-05,-54.632,-0.00010532,-1070.4,1.5709
18867,18.982,4.5455,0,0.00010394,1038.7,3.7446e-05,0.19221,2.8882e-05,-64.156,-0.00010488,-1069.2,1.5839
18868,18.891,4.5455,0.05,9.7665e-07,9.7598,7.4995e-07,5.6348,-1.0019e-12,-1.6642e-06,-7.4995e-07,-5.6348,1.571
18869,18.891,4.8182,0,0.00010186,1017.9,3.5336e-05,0.32734,3.0695e-05,-34.546,-0.00010239,-1034.5,1.5708
18870,18.982,4.7273,0,0.00010159,1015.2,3.57e-05,0.24202,2.9817e-05,-43.96,-0.00010227,-1036.4,1.5838
18871,18.891,4.7273,0.05,8.2617e-07,8.256,6.344e-07,4.7666,-1.4734e-12,6.4419e-06,-6.344e-07,-4.7666,1.5708
18872,18.891,5,0,9.9419e-05,993.51,3.3695e-05,0.5279,3.1351e-05,-17.078,-9.9689e-05,-1001.7,1.5706
18873,18.982,4.9091,0,9.9399e-05,993.3,3.4093e-05,0.33739,3.0631e-05,-25.677,-9.9804e-05,-1005.7,1.5836
18874,18.891,4.9091,0.05,6.7995e-07,6.7948,5.2212e-07,3.923,-1.1901e-12,-1.1787e-05,-5.2212e-07,-3.923,1.5707
18875,18.891,5.1818,0,9.7237e-05,971.7,3.2422e-05,1.7324,3.1682e-05,-3.8328,-9.7272e-05,-972.74,1.5704
18876,18.982,5.0909,0,9.7403e-05,973.35,3.2704e-05,0.63929,3.125e-05,-10.287,-9.7562e-05,-978.13,1.5834
18877,18.891,5.0909,0.05,5.4139e-07,5.4101,4.1572e-07,3.1235,-1.047e-12,-2.3138e-05,-4.1572e-07,-3.1235,1.5705
18878,18.891,5.3636,0,9.5346e-05,952.8,3.2247e-05,9.0993,3.0972e-05,-0.47958,-9.5196e-05,-948.45,1.5702
18879,18.982,5.2727,0,9.5641e-05,955.75,3.1946e-05,3.9137,3.1271e-05,-1.1606,-9.5594e-05,-954.37,1.5832
18880,18.891,5.2727,0.05,4.1232e-07,4.1204,3.1661e-07,2.3789,2.4352e-13,-2.0648e-05,-3.1661e-07,-2.3789,1.5703
18881,18.891,5.5455,0,9.3769e-05,937.05,3.2233e-05,15.367,3.0165e-05,-0.16856,-9.3501e-05,-929.35,1.5699
18882,18.982,5.4545,0,9.4139e-05,940.74,3.2048e-05,11.644,3.0468e-05,-0.2311,-9.3939e-05,-934.98,1.583
18883,18.891,5.4545,0.05,2.9426e-07,2.9405,2.2595e-07,1.6977,-2.0753e-12,-3.1645e-05,-2.2595e-07,-1.6977,1.57
18884,18.891,5.7273,0,9.2605e-05,925.41,3.2061e-05,17.977,2.966e-05,-0.064297,-9.2287e-05,-916.32,1.5697
18885,18.982,5.6364,0,9.2911e-05,928.47,3.2003e-05,16.046,2.9854e-05,-0.10485,-9.263e-05,-920.4,1.5827
18886,18.891,5.6364,0.05,2.1136e-07,2.1122,1.623e-07,1.2195,-1.0599e-12,-3.6635e-06,-1.623e-07,-1.2195,1.5698
18887,18.982,5.8182,0,9.2136e-05,920.72,3.1846e-05,17.293,2.9543e-05,-0.010771,-9.183e-05,-911.96,1.5825
18888,18.891,5.8182,0.05,6.1543e-07,6.15,4.7257e-07,3.5507,8.55e-13,4.6301e-06,-4.7257e-07,-3.5507,1.5695
18889,18.891,5.9091,0,9.1034e-05,909.71,3.0982e-05,11.311,2.9483e-05,0.051269,-9.0835e-05,-903.97,1.5694
18890,19.074,0.27273,0,9.2442e-05,923.78,3.1788e-05,15.355,2.9738e-05,-0.047856,-9.2172e-05,-916.03,1.5956
18891,19.165,0.18182,0,9.1696e-05,916.33,3.1526e-05,15.18,2.9504e-05,-0.0087491,-9.1429e-05,-908.65,1.6084
18892,19.074,0.18182,0.05,4.29e-07,4.2871,3.2942e-07,2.4752,-1.666e-13,7.6608e-06,-3.2942e-07,-2.4751,1.5954
18893,19.074,0.090909,0,9.1174e-05,911.11,3.0924e-05,10.06,2.9592e-05,0.051058,-9.0998e-05,-906.02,1.5953
18894,19.074,0.45455,0,9.3288e-05,932.24,3.182e-05,12.333,3.0161e-05,-0.12967,-9.3074e-05,-926.07,1.5958
18895,19.165,0.36364,0,9.2225e-05,921.62,3.155e-05,13.338,2.9765e-05,-0.077692,-9.1992e-05,-914.91,1.6087
18896,19.074,0.36364,0.05,1.4143e-07,1.4134,1.086e-07,0.81601,1.8051e-12,2.3557e-05,-1.086e-07,-0.81599,1.5957
18897,19.074,0.63636,0,9.4444e-05,943.79,3.1697e-05,6.0811,3.0826e-05,-0.46238,-9.4347e-05,-940.96,1.5961
18898,19.165,0.54545,0,9.3116e-05,930.52,3.147e-05,8.7704,3.0277e-05,-0.19223,-9.2967e-05,-926.2,1.6089
18899,19.074,0.54545,0.05,2.7176e-07,2.7158,2.0868e-07,1.568,1.4867e-12,2.0689e-05,-2.0868e-07,-1.5679,1.5959
18900,19.074,0.81818,0,9.5819e-05,957.53,3.196e-05,0.80916,3.1119e-05,-5.5075,-9.5897e-05,-959.86,1.5963
18901,19.165,0.72727,0,9.42e-05,941.35,3.132e-05,1.8392,3.0859e-05,-1.6279,-9.4196e-05,-941.24,1.6091
18902,19.074,0.72727,0.05,3.9714e-07,3.9687,3.0496e-07,2.2913,1.5304e-12,1.8002e-05,-3.0496e-07,-2.2913,1.5961
18903,19.074,1,0,9.7395e-05,973.28,3.3088e-05,0.33482,3.056e-05,-18.655,-9.7693e-05,-982.3,1.5965
18904,19.165,0.90909,0,9.5462e-05,953.96,3.212e-05,0.38017,3.0491e-05,-11.855,-9.5651e-05,-959.64,1.6093
18905,19.074,0.90909,0.05,5.2464e-07,5.2428,4.0286e-07,3.027,1.8824e-13,1.2711e-05,-4.0286e-07,-3.0269,1.5964
18906,19.074,1.1818,0,9.915e-05,990.81,3.4454e-05,0.22978,2.9773e-05,-34.936,-9.9693e-05,-1007.7,1.5966
18907,19.165,1.0909,0,9.6887e-05,968.2,3.3284e-05,0.2326,2.9759e-05,-26.254,-9.7303e-05,-980.94,1.6095
18908,19.074,1.0909,0.05,6.5492e-07,6.5447,5.029e-07,3.7786,1.8887e-12,2.0977e-05,-5.029e-07,-3.7786,1.5965
18909,19.074,1.3636,0,0.00010105,1009.8,3.5969e-05,0.18114,2.8847e-05,-53.334,-0.00010185,-1035.3,1.5968
18910,19.165,1.2727,0,9.8452e-05,983.84,3.4611e-05,0.17822,2.8863e-05,-43.01,-9.911e-05,-1004.5,1.6097
18911,19.074,1.2727,0.05,7.8686e-07,7.8632,6.0421e-07,4.5398,-1.9833e-13,1.4715e-05,-6.0421e-07,-4.5398,1.5967
18912,19.074,1.5455,0,0.00010306,1029.9,3.7572e-05,0.15129,2.7846e-05,-72.927,-0.00010411,-1064.4,1.5969
18913,19.165,1.4545,0,0.00010013,1000.6,3.6045e-05,0.1477,2.7866e-05,-61.302,-0.00010103,-1029.8,1.6098
18914,19.074,1.4545,0.05,9.1827e-07,9.1763,7.0512e-07,5.298,2.4033e-13,2.3937e-05,-7.0511e-07,-5.2979,1.5969
18915,19.074,1.7273,0,0.00010514,1050.7,3.9196e-05,0.13103,2.6846e-05,-92.665,-0.00010641,-1093.9,1.5971
18916,19.165,1.6364,0,0.00010188,1018.1,3.7527e-05,0.12728,2.6834e-05,-80.215,-0.00010301,-1055.8,1.6099
18917,19.074,1.6364,0.05,1.0464e-06,10.457,8.0354e-07,6.0375,-6.1258e-13,1.3248e-05,-8.0354e-07,-6.0375,1.597
18918,19.074,1.9091,0,0.00010723,1071.6,4.0773e-05,0.11781,2.5923e-05,-111.45,-0.00010869,-1122.9,1.5972
18919,19.165,1.8182,0,0.00010367,1036,3.8996e-05,0.11317,2.5838e-05,-98.745,-0.000105,-1081.8,1.6101
18920,19.074,1.8182,0.05,1.1688e-06,11.68,8.9749e-07,6.7434,-5.4633e-13,1.6722e-05,-8.9748e-07,-6.7433,1.5971
18921,19.074,2.0909,0,0.00010926,1091.8,4.2232e-05,0.11109,2.5142e-05,-128.3,-0.00011087,-1150.2,1.5973
18922,19.165,2,0,0.00010544,1053.7,4.0388e-05,0.10449,2.4948e-05,-115.91,-0.00010693,-1106.8,1.6102
18923,19.074,2,0.05,1.283e-06,12.821,9.8516e-07,7.4022,-7.0659e-13,6.6985e-06,-9.8516e-07,-7.4021,1.5972
18924,19.074,2.2727,0,0.00011113,1110.6,4.3511e-05,0.11027,2.4539e-05,-142.44,-0.00011287,-1174.8,1.5973
18925,19.165,2.1818,0,0.00010713,1070.5,4.1645e-05,0.10099,2.4212e-05,-130.88,-0.00010875,-1129.9,1.6102
18926,19.074,2.1818,0.05,1.3866e-06,13.857,1.0648e-06,8.0001,-1.3513e-12,4.8661e-06,-1.0647e-06,-8.0001,1.5973
18927,19.074,2.4545,0,0.00011275,1126.7,4.4558e-05,0.11384,2.412e-05,-153.45,-0.00011457,-1195.5,1.5974
18928,19.165,2.3636,0,0.00010864,1085.6,4.2712e-05,0.10189,2.3654e-05,-143.09,-0.00011036,-1150,1.6103
18929,19.074,2.3636,0.05,1.4767e-06,14.757,1.134e-06,8.5201,-1.7816e-12,2.7611e-06,-1.134e-06,-8.5201,1.5973
18930,19.074,2.6364,0,0.000114,1139.2,4.5332e-05,0.11934,2.3861e-05,-161.2,-0.00011588,-1211.2,1.5974
18931,19.165,2.5455,0,0.00010988,1098.1,4.3548e-05,0.10555,2.3272e-05,-152.24,-0.00011167,-1166.2,1.6103
18932,19.074,2.5455,0.05,1.5496e-06,15.485,1.1899e-06,8.9403,-1.3366e-12,1.8889e-06,-1.1899e-06,-8.9403,1.5974
18933,19.074,2.8182,0,0.0001148,1147.2,4.5807e-05,0.12406,2.3727e-05,-165.77,-0.00011671,-1221,1.5974
18934,19.165,2.7273,0,0.00011077,1106.9,4.4121e-05,0.10979,2.3042e-05,-158.27,-0.00011261,-1177.5,1.6104
18935,19.074,2.7273,0.05,1.6011e-06,16,1.2294e-06,9.2374,-1.7212e-12,-4.3737e-07,-1.2294e-06,-9.2374,1.5974
18936,19.074,3,0,0.00011507,1149.9,4.5966e-05,0.12589,2.3687e-05,-167.27,-0.000117,-1224.3,1.5974
18937,19.165,2.9091,0,0.00011123,1111.6,4.4413e-05,0.11254,2.2936e-05,-161.26,-0.00011309,-1183.3,1.6104
18938,19.074,2.9091,0.05,1.6278e-06,16.267,1.2499e-06,9.3916,-1.5454e-12,-6.2555e-08,-1.2499e-06,-9.3915,1.5974
18939,19.074,3.1818,0,0.0001148,1147.2,4.5807e-05,0.12406,2.3727e-05,-165.77,-0.00011671,-1221,1.5974
18940,19.165,3.0909,0,0.00011123,1111.6,4.4413e-05,0.11254,2.2936e-05,-161.26,-0.00011309,-1183.3,1.6104
18941,19.074,3.0909,0.05,1.6278e-06,16.267,1.2499e-06,9.3916,-1.188e-12,-3.7622e-06,-1.2499e-06,-9.3915,1.5974
18942,19.074,3.3636,0,0.000114,1139.2,4.5332e-05,0.11934,2.3861e-05,-161.2,-0.00011588,-1211.2,1.5974
18943,19.165,3.2727,0,0.00011077,1106.9,4.4121e-05,0.10979,2.3042e-05,-158.27,-0.00011261,-1177.5,1.6104
18944,19.074,3.2727,0.05,1.6011e-06,16,1.2294e-06,9.2374,-1.4756e-12,1.8058e-07,-1.2294e-06,-9.2374,1.5974
18945,19.074,3.5455,0,0.00011275,1126.7,4.4558e-05,0.11384,2.412e-05,-153.45,-0.00011457,-1195.5,1.5974
18946,19.165,3.4545,0,0.00010988,1098.1,4.3548e-05,0.10555,2.3272e-05,-152.24,-0.00011167,-1166.2,1.6103
18947,19.074,3.4545,0.05,1.5496e-06,15.485,1.1899e-06,8.9403,-1.2816e-12,-2.8767e-06,-1.1899e-06,-8.9403,1.5974
18948,19.074,3.7273,0,0.00011113,1110.6,4.3511e-05,0.11027,2.4539e-05,-142.44,-0.00011287,-1174.8,1.5973
18949,19.165,3.6364,0,0.00010864,1085.6,4.2712e-05,0.10189,2.3654e-05,-143.09,-0.00011036,-1150,1.6103
18950,19.074,3.6364,0.05,1.4767e-06,14.757,1.134e-06,8.5201,-7.7602e-13,-2.1636e-06,-1.134e-06,-8.5201,1.5973
18951,19.074,3.9091,0,0.00010926,1091.8,4.2232e-05,0.11109,2.5142e-05,-128.3,-0.00011087,-1150.2,1.5973
18952,19.165,3.8182,0,0.00010713,1070.5,4.1645e-05,0.10099,2.4212e-05,-130.88,-0.00010875,-1129.9,1.6102
18953,19.074,3.8182,0.05,1.3866e-06,13.857,1.0647e-06,8.0001,-5.4214e-13,-4.9179e-06,-1.0647e-06,-8.0001,1.5973
18954,19.074,4.0909,0,0.00010723,1071.6,4.0773e-05,0.11781,2.5923e-05,-111.45,-0.00010869,-1122.9,1.5972
18955,19.165,4,0,0.00010544,1053.7,4.0388e-05,0.10449,2.4948e-05,-115.91,-0.00010693,-1106.8,1.6102
18956,19.074,4,0.05,1.283e-06,12.821,9.8516e-07,7.4021,-7.545e-13,-8.5818e-06,-9.8516e-07,-7.4021,1.5972
18957,19.074,4.2727,0,0.00010514,1050.7,3.9196e-05,0.13103,2.6846e-05,-92.665,-0.00010641,-1093.9,1.5971
18958,19.165,4.1818,0,0.00010367,1036,3.8996e-05,0.11317,2.5838e-05,-98.745,-0.000105,-1081.8,1.6101
18959,19.074,4.1818,0.05,1.1688e-06,11.68,8.9749e-07,6.7434,-9.8788e-13,-9.0395e-06,-8.9748e-07,-6.7434,1.5971
18960,19.074,4.4545,0,0.00010306,1029.9,3.7572e-05,0.15129,2.7846e-05,-72.926,-0.00010411,-1064.4,1.5969
18961,19.165,4.3636,0,0.00010188,1018.1,3.7527e-05,0.12728,2.6834e-05,-80.215,-0.00010301,-1055.8,1.6099
18962,19.074,4.3636,0.05,1.0464e-06,10.457,8.0354e-07,6.0375,-8.9244e-13,-1.4052e-05,-8.0354e-07,-6.0375,1.597
18963,19.074,4.6364,0,0.00010105,1009.8,3.5969e-05,0.18114,2.8847e-05,-53.334,-0.00010185,-1035.3,1.5968
18964,19.165,4.5455,0,0.00010013,1000.6,3.6045e-05,0.1477,2.7866e-05,-61.302,-0.00010103,-1029.8,1.6098
18965,19.074,4.5455,0.05,9.1827e-07,9.1763,7.0512e-07,5.298,-9.38e-13,-3.4842e-06,-7.0512e-07,-5.298,1.5969
18966,19.074,4.8182,0,9.915e-05,990.81,3.4454e-05,0.22979,2.9773e-05,-34.936,-9.9693e-05,-1007.7,1.5966
18967,19.165,4.7273,0,9.8452e-05,983.84,3.4611e-05,0.17822,2.8863e-05,-43.01,-9.911e-05,-1004.5,1.6097
18968,19.074,4.7273,0.05,7.8686e-07,7.8632,6.0421e-07,4.5398,-6.1824e-13,-7.8749e-06,-6.0421e-07,-4.5398,1.5967
18969,19.074,5,0,9.7395e-05,973.28,3.3088e-05,0.33482,3.056e-05,-18.655,-9.7693e-05,-982.3,1.5965
18970,19.165,4.9091,0,9.6887e-05,968.2,3.3284e-05,0.2326,2.9759e-05,-26.254,-9.7303e-05,-980.94,1.6095
18971,19.074,4.9091,0.05,6.5492e-07,6.5447,5.029e-07,3.7786,-8.0712e-13,5.9964e-07,-5.029e-07,-3.7786,1.5965
18972,19.074,5.1818,0,9.5819e-05,957.53,3.196e-05,0.80917,3.1119e-05,-5.5074,-9.5897e-05,-959.86,1.5963
18973,19.165,5.0909,0,9.5462e-05,953.96,3.212e-05,0.38017,3.0491e-05,-11.855,-9.5651e-05,-959.64,1.6093
18974,19.074,5.0909,0.05,5.2464e-07,5.2428,4.0286e-07,3.0269,-1.0366e-12,-6.2599e-06,-4.0286e-07,-3.0269,1.5964
18975,19.074,5.3636,0,9.4444e-05,943.79,3.1697e-05,6.0811,3.0826e-05,-0.46238,-9.4347e-05,-940.96,1.596
18976,19.165,5.2727,0,9.42e-05,941.35,3.132e-05,1.8392,3.0859e-05,-1.6278,-9.4196e-05,-941.24,1.6091
18977,19.074,5.2727,0.05,3.9714e-07,3.9687,3.0496e-07,2.2913,-1.2907e-12,-1.6904e-05,-3.0496e-07,-2.2913,1.5961
18978,19.074,5.5455,0,9.3288e-05,932.24,3.182e-05,12.333,3.0161e-05,-0.12967,-9.3074e-05,-926.07,1.5958
18979,19.165,5.4545,0,9.3116e-05,930.52,3.147e-05,8.7704,3.0277e-05,-0.19223,-9.2967e-05,-926.2,1.6089
18980,19.074,5.4545,0.05,2.7176e-07,2.7158,2.0868e-07,1.5679,-1.5911e-12,-2.2158e-05,-2.0868e-07,-1.5679,1.5959
18981,19.074,5.7273,0,9.2442e-05,923.78,3.1788e-05,15.355,2.9738e-05,-0.047854,-9.2172e-05,-916.03,1.5956
18982,19.165,5.6364,0,9.2225e-05,921.62,3.155e-05,13.338,2.9765e-05,-0.07769,-9.1992e-05,-914.91,1.6087
18983,19.074,5.6364,0.05,1.4143e-07,1.4134,1.086e-07,0.816,2.8659e-13,-1.2729e-05,-1.086e-07,-0.816,1.5957
18984,19.165,5.8182,0,9.1696e-05,916.33,3.1526e-05,15.18,2.9504e-05,-0.008748,-9.1429e-05,-908.65,1.6084
18985,19.074,5.8182,0.05,4.29e-07,4.2871,3.2942e-07,2.4751,4.3291e-13,2.114e-06,-3.2942e-07,-2.4751,1.5954
18986,19.074,5.9091,0,9.1174e-05,911.11,3.0924e-05,10.06,2.9592e-05,0.051057,-9.0998e-05,-906.02,1.5953
18987,19.256,0.27273,0,9.1475e-05,914.12,3.1283e-05,13.125,2.9531e-05,-0.035449,-9.1245e-05,-907.5,1.6215
18988,19.347,0.18182,0,9.0513e-05,904.51,3.0992e-05,13.457,2.92e-05,-0.0075804,-9.0277e-05,-897.71,1.6344
18989,19.256,0.18182,0.05,2.7579e-07,2.756,2.1178e-07,1.5912,-3.8271e-13,7.1206e-06,-2.1177e-07,-1.5912,1.6214
18990,19.256,0.090909,0,9.046e-05,903.98,3.0602e-05,9.0232,2.9408e-05,0.050027,-9.0303e-05,-899.41,1.6213
18991,19.256,0.45455,0,9.2055e-05,919.92,3.1197e-05,9.7505,2.9886e-05,-0.099193,-9.1887e-05,-915.05,1.6218
18992,19.347,0.36364,0,9.0831e-05,907.68,3.0899e-05,11.056,2.942e-05,-0.055777,-9.0639e-05,-902.13,1.6347
18993,19.256,0.36364,0.05,2.0353e-07,2.0339,1.5629e-07,1.1743,4.4151e-13,1.5777e-05,-1.5629e-07,-1.1743,1.6216
18994,19.256,0.63636,0,9.2875e-05,928.11,3.0981e-05,3.6892,3.0425e-05,-0.48952,-9.282e-05,-926.5,1.622
18995,19.347,0.54545,0,9.1449e-05,913.86,3.0722e-05,6.4191,2.9846e-05,-0.16237,-9.134e-05,-910.71,1.6349
18996,19.256,0.54545,0.05,3.1779e-07,3.1758,2.4403e-07,1.8335,8.8486e-15,1.1502e-05,-2.4403e-07,-1.8335,1.6219
18997,19.256,0.81818,0,9.3847e-05,937.82,3.1349e-05,0.43183,3.0366e-05,-6.9563,-9.3956e-05,-941.06,1.6222
18998,19.347,0.72727,0,9.2203e-05,921.4,3.0616e-05,0.79539,3.018e-05,-2.4798,-9.2231e-05,-922.23,1.6351
18999,19.256,0.72727,0.05,4.2407e-07,4.2378,3.2564e-07,2.4467,-3.6546e-14,7.1016e-06,-3.2563e-07,-2.4467,1.6221
19000,19.256,1,0,9.4958e-05,948.93,3.2308e-05,0.22538,2.9703e-05,-19.349,-9.5268e-05,-958.34,1.6224
19001,19.347,0.90909,0,9.3081e-05,930.17,3.1367e-05,0.24343,2.9637e-05,-12.753,-9.3287e-05,-936.35,1.6353
19002,19.256,0.90909,0.05,5.3505e-07,5.3468,4.1085e-07,3.087,-2.9952e-13,1.0345e-05,-4.1085e-07,-3.0869,1.6223
19003,19.256,1.1818,0,9.6194e-05,961.27,3.3439e-05,0.16789,2.8858e-05,-34.253,-9.6727e-05,-977.85,1.6226
19004,19.347,1.0909,0,9.4071e-05,940.06,3.2334e-05,0.16704,2.8857e-05,-25.958,-9.4483e-05,-952.69,1.6355
19005,19.256,1.0909,0.05,6.4865e-07,6.482,4.9808e-07,3.7424,4.1135e-13,1.4606e-05,-4.9808e-07,-3.7424,1.6225
19006,19.256,1.3636,0,9.7533e-05,974.66,3.4686e-05,0.13879,2.7893e-05,-50.905,-9.8297e-05,-999.04,1.6227
19007,19.347,1.2727,0,9.5159e-05,950.94,3.3429e-05,0.13539,2.7938e-05,-41.119,-9.5789e-05,-970.76,1.6356
19008,19.256,1.2727,0.05,7.6262e-07,7.6209,5.856e-07,4.4,4.8669e-14,1.4693e-05,-5.856e-07,-4.3999,1.6226
19009,19.256,1.5455,0,9.8952e-05,988.84,3.5999e-05,0.11994,2.6864e-05,-68.518,-9.9936e-05,-1021.2,1.6229
19010,19.347,1.4545,0,9.6326e-05,962.6,3.4605e-05,0.11641,2.6931e-05,-57.54,-9.7174e-05,-990.02,1.6358
19011,19.256,1.4545,0.05,8.7471e-07,8.7411,6.7167e-07,5.0467,-4.358e-13,1.3043e-05,-6.7167e-07,-5.0466,1.6228
19012,19.256,1.7273,0,0.00010042,1003.5,3.7326e-05,0.10664,2.5835e-05,-86.227,-0.0001016,-1043.8,1.623
19013,19.347,1.6364,0,9.7549e-05,974.82,3.5817e-05,0.10311,2.5894e-05,-74.452,-9.8599e-05,-1009.8,1.6359
19014,19.256,1.6364,0.05,9.8272e-07,9.8204,7.5461e-07,5.6698,-6.5067e-13,6.3167e-06,-7.5461e-07,-5.6698,1.6229
19015,19.256,1.9091,0,0.00010189,1018.2,3.8611e-05,0.097603,2.487e-05,-103.14,-0.00010325,-1065.8,1.6231
19016,19.347,1.8182,0,9.8797e-05,987.28,3.7016e-05,0.093556,2.4887e-05,-91.034,-0.00010003,-1029.6,1.636
19017,19.256,1.8182,0.05,1.0846e-06,10.839,8.3286e-07,6.2578,-1.2332e-12,8.5941e-06,-8.3286e-07,-6.2578,1.623
19018,19.256,2.0909,0,0.00010332,1032.4,3.9801e-05,0.092538,2.4023e-05,-118.46,-0.00010482,-1086.5,1.6232
19019,19.347,2,0,0.00010003,999.62,3.8151e-05,0.087309,2.3967e-05,-106.49,-0.00010141,-1048.5,1.6361
19020,19.256,2,0.05,1.1786e-06,11.778,9.0504e-07,6.8001,-1.0075e-12,6.7378e-06,-9.0503e-07,-6.8001,1.6231
19021,19.256,2.2727,0,0.00010463,1045.6,4.0845e-05,0.091085,2.3329e-05,-131.52,-0.00010624,-1105.1,1.6232
19022,19.347,2.1818,0,0.0001012,1011.3,3.9176e-05,0.084228,2.3178e-05,-120.12,-0.00010271,-1066,1.6362
19023,19.256,2.1818,0.05,1.2628e-06,12.62,9.697e-07,7.286,-1.3495e-12,6.0543e-06,-9.697e-07,-7.2859,1.6232
19024,19.256,2.4545,0,0.00010577,1056.9,4.1702e-05,0.092382,2.2805e-05,-141.89,-0.00010746,-1120.7,1.6233
19025,19.347,2.3636,0,0.00010225,1021.8,4.0049e-05,0.083876,2.2548e-05,-131.41,-0.00010385,-1081.1,1.6362
19026,19.256,2.3636,0.05,1.3351e-06,13.342,1.0252e-06,7.7029,-1.347e-12,3.1851e-06,-1.0252e-06,-7.7028,1.6232
19027,19.256,2.6364,0,0.00010664,1065.7,4.2337e-05,0.095032,2.2448e-05,-149.35,-0.00010839,-1132.4,1.6233
19028,19.347,2.5455,0,0.00010311,1030.4,4.0733e-05,0.085334,2.2086e-05,-140.02,-0.00010478,-1093.2,1.6363
19029,19.256,2.5455,0.05,1.3928e-06,13.918,1.0695e-06,8.0359,-1.2467e-12,5.434e-06,-1.0695e-06,-8.0358,1.6233
19030,19.256,2.8182,0,0.0001072,1071.2,4.2728e-05,0.097459,2.2243e-05,-153.82,-0.00010898,-1139.8,1.6233
19031,19.347,2.7273,0,0.00010373,1036.6,4.1204e-05,0.08735,2.1787e-05,-145.8,-0.00010543,-1101.7,1.6363
19032,19.256,2.7273,0.05,1.4332e-06,14.323,1.1006e-06,8.2692,-1.507e-12,-1.9856e-07,-1.1006e-06,-8.2691,1.6233
19033,19.256,3,0,0.00010739,1073.1,4.2859e-05,0.098423,2.2177e-05,-155.3,-0.00010918,-1142.3,1.6233
19034,19.347,2.9091,0,0.00010405,1039.8,4.1444e-05,0.088722,2.1642e-05,-148.69,-0.00010577,-1106,1.6363
19035,19.256,2.9091,0.05,1.4541e-06,14.531,1.1166e-06,8.3897,-1.1685e-12,-6.215e-07,-1.1166e-06,-8.3896,1.6233
19036,19.256,3.1818,0,0.0001072,1071.2,4.2728e-05,0.097459,2.2243e-05,-153.82,-0.00010898,-1139.8,1.6233
19037,19.347,3.0909,0,0.00010405,1039.8,4.1444e-05,0.088722,2.1642e-05,-148.69,-0.00010577,-1106,1.6363
19038,19.256,3.0909,0.05,1.4541e-06,14.531,1.1166e-06,8.3896,-1.1082e-12,-3.1942e-06,-1.1166e-06,-8.3896,1.6233
19039,19.256,3.3636,0,0.00010664,1065.7,4.2337e-05,0.095032,2.2448e-05,-149.35,-0.00010839,-1132.4,1.6233
19040,19.347,3.2727,0,0.00010373,1036.6,4.1204e-05,0.08735,2.1787e-05,-145.8,-0.00010543,-1101.7,1.6363
19041,19.256,3.2727,0.05,1.4332e-06,14.323,1.1006e-06,8.2692,-1.2637e-12,1.954e-06,-1.1006e-06,-8.2691,1.6233
19042,19.256,3.5455,0,0.00010577,1056.9,4.1702e-05,0.092381,2.2805e-05,-141.89,-0.00010746,-1120.7,1.6233
19043,19.347,3.4545,0,0.00010311,1030.4,4.0733e-05,0.085335,2.2086e-05,-140.02,-0.00010478,-1093.2,1.6363
19044,19.256,3.4545,0.05,1.3928e-06,13.918,1.0695e-06,8.0358,-1.1199e-12,-2.2598e-07,-1.0695e-06,-8.0358,1.6233
19045,19.256,3.7273,0,0.00010463,1045.6,4.0845e-05,0.091085,2.3329e-05,-131.52,-0.00010624,-1105.1,1.6232
19046,19.347,3.6364,0,0.00010225,1021.8,4.0049e-05,0.083876,2.2548e-05,-131.41,-0.00010385,-1081.1,1.6362
19047,19.256,3.6364,0.05,1.3351e-06,13.342,1.0252e-06,7.7029,-9.5402e-13,9.6005e-07,-1.0252e-06,-7.7029,1.6232
19048,19.256,3.9091,0,0.00010332,1032.4,3.9801e-05,0.092538,2.4023e-05,-118.46,-0.00010482,-1086.5,1.6232
19049,19.347,3.8182,0,0.0001012,1011.3,3.9176e-05,0.084228,2.3178e-05,-120.12,-0.00010271,-1066,1.6362
19050,19.256,3.8182,0.05,1.2628e-06,12.62,9.697e-07,7.286,-6.0966e-13,-2.4679e-06,-9.697e-07,-7.286,1.6232
19051,19.256,4.0909,0,0.00010189,1018.2,3.8611e-05,0.097604,2.487e-05,-103.14,-0.00010325,-1065.8,1.6231
19052,19.347,4,0,0.00010003,999.62,3.8151e-05,0.087309,2.3967e-05,-106.49,-0.00010141,-1048.5,1.6361
19053,19.256,4,0.05,1.1786e-06,11.778,9.0504e-07,6.8001,-4.161e-13,-2.5919e-06,-9.0503e-07,-6.8001,1.6231
19054,19.256,4.2727,0,0.00010042,1003.5,3.7326e-05,0.10664,2.5835e-05,-86.227,-0.0001016,-1043.8,1.623
19055,19.347,4.1818,0,9.8797e-05,987.28,3.7016e-05,0.093557,2.4887e-05,-91.033,-0.00010003,-1029.6,1.636
19056,19.256,4.1818,0.05,1.0846e-06,10.839,8.3286e-07,6.2578,-3.464e-13,-7.267e-06,-8.3286e-07,-6.2578,1.623
19057,19.256,4.4545,0,9.8952e-05,988.84,3.5999e-05,0.11994,2.6864e-05,-68.518,-9.9936e-05,-1021.2,1.6229
19058,19.347,4.3636,0,9.7549e-05,974.82,3.5817e-05,0.10311,2.5894e-05,-74.452,-9.8599e-05,-1009.8,1.6359
19059,19.256,4.3636,0.05,9.8272e-07,9.8204,7.5461e-07,5.6698,-6.8685e-13,3.1744e-06,-7.5461e-07,-5.6698,1.6229
19060,19.256,4.6364,0,9.7533e-05,974.66,3.4686e-05,0.13879,2.7893e-05,-50.905,-9.8297e-05,-999.04,1.6227
19061,19.347,4.5455,0,9.6326e-05,962.6,3.4605e-05,0.11641,2.6931e-05,-57.54,-9.7174e-05,-990.02,1.6358
19062,19.256,4.5455,0.05,8.7471e-07,8.7411,6.7167e-07,5.0467,4.0739e-15,-1.4493e-06,-6.7167e-07,-5.0467,1.6228
19063,19.256,4.8182,0,9.6194e-05,961.27,3.3439e-05,0.16789,2.8858e-05,-34.253,-9.6727e-05,-977.85,1.6226
19064,19.347,4.7273,0,9.5159e-05,950.94,3.3429e-05,0.13539,2.7938e-05,-41.119,-9.5789e-05,-970.76,1.6356
19065,19.256,4.7273,0.05,7.6262e-07,7.6209,5.856e-07,4.4,4.4325e-13,4.5616e-07,-5.856e-07,-4.4,1.6226
19066,19.256,5,0,9.4958e-05,948.93,3.2308e-05,0.22538,2.9703e-05,-19.349,-9.5268e-05,-958.34,1.6224
19067,19.347,4.9091,0,9.4071e-05,940.06,3.2334e-05,0.16704,2.8857e-05,-25.958,-9.4483e-05,-952.69,1.6355
19068,19.256,4.9091,0.05,6.4865e-07,6.482,4.9808e-07,3.7424,7.211e-13,-4.0207e-06,-4.9808e-07,-3.7424,1.6225
19069,19.256,5.1818,0,9.3847e-05,937.82,3.1349e-05,0.43183,3.0366e-05,-6.9562,-9.3956e-05,-941.06,1.6222
19070,19.347,5.0909,0,9.3081e-05,930.17,3.1367e-05,0.24343,2.9637e-05,-12.753,-9.3287e-05,-936.35,1.6353
19071,19.256,5.0909,0.05,5.3505e-07,5.3468,4.1085e-07,3.087,4.8547e-13,-1.579e-06,-4.1085e-07,-3.087,1.6223
19072,19.256,5.3636,0,9.2875e-05,928.11,3.0981e-05,3.6892,3.0425e-05,-0.48951,-9.282e-05,-926.5,1.622
19073,19.347,5.2727,0,9.2203e-05,921.4,3.0616e-05,0.7954,3.018e-05,-2.4798,-9.2231e-05,-922.23,1.6351
19074,19.256,5.2727,0.05,4.2407e-07,4.2378,3.2563e-07,2.4467,2.4936e-13,-2.32e-06,-3.2564e-07,-2.4467,1.6221
19075,19.256,5.5455,0,9.2055e-05,919.92,3.1197e-05,9.7506,2.9886e-05,-0.099192,-9.1887e-05,-915.05,1.6218
19076,19.347,5.4545,0,9.1449e-05,913.86,3.0722e-05,6.4191,2.9846e-05,-0.16237,-9.134e-05,-910.71,1.6349
19077,19.256,5.4545,0.05,3.1779e-07,3.1758,2.4403e-07,1.8335,8.054e-13,7.8513e-07,-2.4403e-07,-1.8335,1.6219
19078,19.256,5.7273,0,9.1475e-05,914.12,3.1283e-05,13.125,2.9531e-05,-0.035448,-9.1245e-05,-907.5,1.6215
19079,19.347,5.6364,0,9.0831e-05,907.68,3.0899e-05,11.056,2.942e-05,-0.055776,-9.0639e-05,-902.13,1.6347
19080,19.256,5.6364,0.05,2.0353e-07,2.0339,1.5629e-07,1.1743,1.0215e-12,6.288e-06,-1.5629e-07,-1.1743,1.6216
19081,19.347,5.8182,0,9.0513e-05,904.51,3.0992e-05,13.457,2.92e-05,-0.00758,-9.0277e-05,-897.71,1.6344
19082,19.256,5.8182,0.05,2.7579e-07,2.756,2.1177e-07,1.5912,9.025e-13,5.7314e-06,-2.1177e-07,-1.5912,1.6214
19083,19.256,5.9091,0,9.046e-05,903.98,3.0602e-05,9.0231,2.9408e-05,0.050028,-9.0303e-05,-899.41,1.6213
19084,19.439,0.27273,0,8.9861e-05,897.99,3.06e-05,11.326,2.9089e-05,-0.025606,-8.9663e-05,-892.28,1.6475
19085,19.53,0.18182,0,8.8731e-05,886.7,3.0293e-05,12.123,2.8678e-05,-0.0066033,-8.8519e-05,-880.58,1.6605
19086,19.439,0.18182,0.05,1.5184e-07,1.5173,1.1659e-07,0.87605,-3.4809e-13,8.1972e-06,-1.1659e-07,-0.876,1.6474
19087,19.439,0.090909,0,8.9052e-05,889.91,3.007e-05,8.2117,2.8984e-05,0.047729,-8.8909e-05,-885.75,1.6473
19088,19.439,0.45455,0,9.0223e-05,901.61,3.0418e-05,7.6732,2.9386e-05,-0.073831,-9.0091e-05,-897.78,1.6478
19089,19.53,0.36364,0,8.8872e-05,888.1,3.01e-05,9.2394,2.8866e-05,-0.037696,-8.8711e-05,-883.47,1.6607
19090,19.439,0.36364,0.05,2.9369e-07,2.9349,2.2552e-07,1.6945,-1.1083e-12,1.432e-06,-2.2552e-07,-1.6945,1.6477
19091,19.439,0.63636,0,9.0776e-05,907.13,3.0149e-05,1.9615,2.981e-05,-0.58736,-9.0752e-05,-906.44,1.648
19092,19.53,0.54545,0,8.9271e-05,892.1,2.9852e-05,4.6173,2.9219e-05,-0.13637,-8.9194e-05,-889.85,1.6609
19093,19.439,0.54545,0.05,3.8387e-07,3.836,2.9476e-07,2.2147,-4.0928e-13,7.0257e-06,-2.9476e-07,-2.2147,1.6479
19094,19.439,0.81818,0,9.1436e-05,913.73,3.0587e-05,0.25644,2.9499e-05,-7.9181,-9.1564e-05,-917.53,1.6482
19095,19.53,0.72727,0,8.9769e-05,897.08,2.9822e-05,0.38714,2.9325e-05,-3.3458,-8.9819e-05,-898.55,1.6611
19096,19.439,0.72727,0.05,4.6718e-07,4.6685,3.5873e-07,2.6954,2.2428e-14,1.3702e-05,-3.5873e-07,-2.6954,1.6481
19097,19.439,1,0,9.2193e-05,921.29,3.1389e-05,0.15856,2.8796e-05,-19.321,-9.2503e-05,-930.72,1.6484
19098,19.53,0.90909,0,9.0353e-05,902.91,3.0473e-05,0.16471,2.8717e-05,-13.027,-9.0565e-05,-909.27,1.6613
19099,19.439,0.90909,0.05,5.5791e-07,5.5752,4.284e-07,3.2189,-6.0761e-13,1.3178e-05,-4.284e-07,-3.2188,1.6483
19100,19.439,1.1818,0,9.3035e-05,929.71,3.2322e-05,0.12652,2.7941e-05,-32.796,-9.3547e-05,-945.61,1.6486
19101,19.53,1.0909,0,9.1014e-05,909.52,3.1274e-05,0.12396,2.7933e-05,-24.979,-9.1411e-05,-921.68,1.6615
19102,19.439,1.0909,0.05,6.5265e-07,6.522,5.0115e-07,3.7655,-6.4344e-13,6.6547e-06,-5.0115e-07,-3.7655,1.6485
19103,19.439,1.3636,0,9.3951e-05,938.86,3.3347e-05,0.109,2.698e-05,-47.725,-9.467e-05,-961.76,1.6487
19104,19.53,1.2727,0,9.1744e-05,916.81,3.2174e-05,0.1055,2.7028e-05,-38.561,-9.2337e-05,-935.42,1.6617
19105,19.439,1.2727,0.05,7.4825e-07,7.4773,5.7456e-07,4.317,-1.4115e-13,5.0905e-06,-5.7456e-07,-4.317,1.6486
19106,19.439,1.5455,0,9.4923e-05,948.57,3.4422e-05,0.09697,2.5966e-05,-63.444,-9.584e-05,-978.65,1.6488
19107,19.53,1.4545,0,9.2529e-05,924.65,3.3139e-05,0.093678,2.6048e-05,-53.187,-9.3317e-05,-950.04,1.6618
19108,19.439,1.4545,0.05,8.4215e-07,8.4157,6.4667e-07,4.8588,-1.0406e-12,6.1125e-06,-6.4667e-07,-4.8588,1.6488
19109,19.439,1.7273,0,9.5928e-05,958.61,3.5507e-05,0.088057,2.495e-05,-79.23,-9.7027e-05,-995.72,1.6489
19110,19.53,1.6364,0,9.3353e-05,932.89,3.413e-05,0.084931,2.5041e-05,-68.209,-9.4324e-05,-965.07,1.6619
19111,19.439,1.6364,0.05,9.3224e-07,9.3159,7.1584e-07,5.3786,-1.3308e-12,3.7041e-06,-7.1584e-07,-5.3785,1.6489
19112,19.439,1.9091,0,9.6938e-05,968.71,3.6556e-05,0.081652,2.3987e-05,-94.352,-9.8195e-05,-1012.4,1.649
19113,19.53,1.8182,0,9.4196e-05,941.31,3.5109e-05,0.078302,2.4059e-05,-82.95,-9.5331e-05,-979.99,1.662
19114,19.439,1.8182,0.05,1.0167e-06,10.16,7.807e-07,5.8659,-1.2411e-12,6.1251e-06,-7.8069e-07,-5.8658,1.649
19115,19.439,2.0909,0,9.7916e-05,978.49,3.7527e-05,0.077652,2.3125e-05,-108.13,-9.9304e-05,-1028,1.6491
19116,19.53,2,0,9.503e-05,949.65,3.6036e-05,0.073633,2.315e-05,-96.746,-9.6304e-05,-994.27,1.6621
19117,19.439,2,0.05,1.0939e-06,10.932,8.4001e-07,6.3115,-1.0648e-12,1.5261e-06,-8.4001e-07,-6.3115,1.6491
19118,19.439,2.2727,0,9.8818e-05,987.5,3.8379e-05,0.075887,2.2398e-05,-120.01,-0.00010031,-1042,1.6492
19119,19.53,2.1818,0,9.5822e-05,957.55,3.6872e-05,0.070892,2.2355e-05,-109.01,-9.7207e-05,-1007.4,1.6622
19120,19.439,2.1818,0.05,1.1625e-06,11.617,8.9262e-07,6.7068,-1.285e-12,1.655e-06,-8.9262e-07,-6.7068,1.6491
19121,19.439,2.4545,0,9.9594e-05,995.25,3.908e-05,0.075879,2.1827e-05,-129.55,-0.00010116,-1053.6,1.6492
19122,19.53,2.3636,0,9.6529e-05,964.63,3.7585e-05,0.069866,2.1702e-05,-119.27,-9.8002e-05,-1018.7,1.6622
19123,19.439,2.3636,0.05,1.2206e-06,12.197,9.3726e-07,7.0422,-1.5102e-12,2.2495e-06,-9.3726e-07,-7.0422,1.6492
19124,19.439,2.6364,0,0.00010019,1001.2,3.96e-05,0.076846,2.1423e-05,-136.5,-0.00010181,-1062.4,1.6493
19125,19.53,2.5455,0,9.7111e-05,970.44,3.8145e-05,0.070052,2.1209e-05,-127.18,-9.8645e-05,-1027.7,1.6623
19126,19.439,2.5455,0.05,1.2665e-06,12.656,9.7253e-07,7.3072,-1.5273e-12,9.0252e-07,-9.7253e-07,-7.3072,1.6492
19127,19.439,2.8182,0,0.00010057,1005,3.992e-05,0.0779,2.1182e-05,-140.71,-0.00010222,-1067.9,1.6493
19128,19.53,2.7273,0,9.7526e-05,974.58,3.8531e-05,0.070758,2.0881e-05,-132.54,-9.91e-05,-1034,1.6623
19129,19.439,2.7273,0.05,1.2984e-06,12.975,9.9704e-07,7.4914,-1.2282e-12,-1.8966e-06,-9.9704e-07,-7.4914,1.6493
19130,19.439,3,0,0.0001007,1006.3,4.0028e-05,0.07834,2.1103e-05,-142.12,-0.00010236,-1069.8,1.6493
19131,19.53,2.9091,0,9.7742e-05,976.74,3.8727e-05,0.071317,2.0717e-05,-135.25,-9.9335e-05,-1037.3,1.6623
19132,19.439,2.9091,0.05,1.3148e-06,13.139,1.0096e-06,7.586,-7.8209e-13,-1.1364e-06,-1.0096e-06,-7.5859,1.6493
19133,19.439,3.1818,0,0.00010057,1005,3.992e-05,0.077901,2.1182e-05,-140.71,-0.00010222,-1067.9,1.6493
19134,19.53,3.0909,0,9.7742e-05,976.74,3.8727e-05,0.071316,2.0717e-05,-135.25,-9.9335e-05,-1037.3,1.6623
19135,19.439,3.0909,0.05,1.3148e-06,13.139,1.0096e-06,7.586,-1.2691e-12,-2.6979e-06,-1.0096e-06,-7.5859,1.6493
19136,19.439,3.3636,0,0.00010019,1001.2,3.96e-05,0.076847,2.1423e-05,-136.5,-0.00010181,-1062.4,1.6493
19137,19.53,3.2727,0,9.7526e-05,974.58,3.8531e-05,0.070759,2.0881e-05,-132.54,-9.91e-05,-1034,1.6623
19138,19.439,3.2727,0.05,1.2984e-06,12.975,9.9704e-07,7.4914,-1.0556e-12,-2.3105e-07,-9.9704e-07,-7.4914,1.6493
19139,19.439,3.5455,0,9.9594e-05,995.25,3.908e-05,0.07588,2.1827e-05,-129.55,-0.00010116,-1053.6,1.6492
19140,19.53,3.4545,0,9.7111e-05,970.44,3.8145e-05,0.070052,2.1209e-05,-127.18,-9.8645e-05,-1027.7,1.6623
19141,19.439,3.4545,0.05,1.2665e-06,12.656,9.7253e-07,7.3072,-1.469e-12,-1.6028e-06,-9.7253e-07,-7.3072,1.6492
19142,19.439,3.7273,0,9.8818e-05,987.5,3.8379e-05,0.075887,2.2398e-05,-120.01,-0.00010031,-1042,1.6492
19143,19.53,3.6364,0,9.653e-05,964.63,3.7585e-05,0.069865,2.1702e-05,-119.27,-9.8002e-05,-1018.7,1.6622
19144,19.439,3.6364,0.05,1.2206e-06,12.197,9.3726e-07,7.0422,-8.9684e-13,-4.0124e-06,-9.3726e-07,-7.0422,1.6492
19145,19.439,3.9091,0,9.7916e-05,978.49,3.7527e-05,0.077652,2.3125e-05,-108.13,-9.9304e-05,-1028,1.6491
19146,19.53,3.8182,0,9.5822e-05,957.55,3.6872e-05,0.070892,2.2355e-05,-109.01,-9.7207e-05,-1007.4,1.6622
19147,19.439,3.8182,0.05,1.1625e-06,11.617,8.9262e-07,6.7068,-4.3529e-13,-1.8954e-06,-8.9262e-07,-6.7068,1.6491
19148,19.439,4.0909,0,9.6938e-05,968.71,3.6556e-05,0.081652,2.3987e-05,-94.352,-9.8195e-05,-1012.4,1.649
19149,19.53,4,0,9.503e-05,949.65,3.6036e-05,0.073632,2.315e-05,-96.746,-9.6304e-05,-994.27,1.6621
19150,19.439,4,0.05,1.0939e-06,10.932,8.4001e-07,6.3115,-8.3065e-13,-9.2545e-06,-8.4001e-07,-6.3115,1.6491
19151,19.439,4.2727,0,9.5928e-05,958.61,3.5507e-05,0.088057,2.495e-05,-79.229,-9.7027e-05,-995.72,1.6489
19152,19.53,4.1818,0,9.4196e-05,941.31,3.5109e-05,0.078302,2.4059e-05,-82.95,-9.5331e-05,-979.99,1.662
19153,19.439,4.1818,0.05,1.0167e-06,10.16,7.8069e-07,5.8658,-5.34e-13,-1.4215e-06,-7.8069e-07,-5.8658,1.649
19154,19.439,4.4545,0,9.4923e-05,948.57,3.4422e-05,0.09697,2.5966e-05,-63.444,-9.584e-05,-978.65,1.6488
19155,19.53,4.3636,0,9.3353e-05,932.89,3.413e-05,0.084931,2.5041e-05,-68.209,-9.4324e-05,-965.07,1.6619
19156,19.439,4.3636,0.05,9.3224e-07,9.3159,7.1584e-07,5.3786,-6.5033e-13,-2.2631e-06,-7.1584e-07,-5.3786,1.6489
19157,19.439,4.6364,0,9.3951e-05,938.86,3.3347e-05,0.109,2.698e-05,-47.725,-9.467e-05,-961.76,1.6487
19158,19.53,4.5455,0,9.2529e-05,924.65,3.3139e-05,0.093676,2.6048e-05,-53.186,-9.3317e-05,-950.04,1.6618
19159,19.439,4.5455,0.05,8.4215e-07,8.4157,6.4667e-07,4.8588,-1.9002e-13,-2.1772e-06,-6.4667e-07,-4.8588,1.6488
19160,19.439,4.8182,0,9.3036e-05,929.71,3.2322e-05,0.12652,2.7941e-05,-32.796,-9.3548e-05,-945.61,1.6486
19161,19.53,4.7273,0,9.1744e-05,916.81,3.2174e-05,0.1055,2.7028e-05,-38.561,-9.2337e-05,-935.42,1.6617
19162,19.439,4.7273,0.05,7.4825e-07,7.4773,5.7456e-07,4.317,6.6835e-13,-3.1387e-06,-5.7456e-07,-4.317,1.6486
19163,19.439,5,0,9.2193e-05,921.29,3.1389e-05,0.15856,2.8796e-05,-19.321,-9.2503e-05,-930.72,1.6484
19164,19.53,4.9091,0,9.1014e-05,909.52,3.1274e-05,0.12396,2.7933e-05,-24.979,-9.1411e-05,-921.68,1.6615
19165,19.439,4.9091,0.05,6.5265e-07,6.522,5.0115e-07,3.7655,2.8177e-14,5.042e-07,-5.0115e-07,-3.7655,1.6485
19166,19.439,5.1818,0,9.1436e-05,913.73,3.0587e-05,0.25644,2.9499e-05,-7.918,-9.1564e-05,-917.53,1.6482
19167,19.53,5.0909,0,9.0353e-05,902.91,3.0473e-05,0.16471,2.8717e-05,-13.027,-9.0565e-05,-909.27,1.6613
19168,19.439,5.0909,0.05,5.5791e-07,5.5752,4.284e-07,3.2188,9.8573e-14,-2.1679e-06,-4.284e-07,-3.2189,1.6483
19169,19.439,5.3636,0,9.0776e-05,907.13,3.0149e-05,1.9615,2.981e-05,-0.58735,-9.0752e-05,-906.44,1.648
19170,19.53,5.2727,0,8.9769e-05,897.08,2.9822e-05,0.38714,2.9325e-05,-3.3458,-8.9819e-05,-898.55,1.6611
19171,19.439,5.2727,0.05,4.6718e-07,4.6685,3.5873e-07,2.6954,5.0409e-14,5.6465e-06,-3.5873e-07,-2.6954,1.6481
19172,19.439,5.5455,0,9.0223e-05,901.61,3.0418e-05,7.6732,2.9386e-05,-0.07383,-9.0091e-05,-897.78,1.6478
19173,19.53,5.4545,0,8.9271e-05,892.1,2.9852e-05,4.6173,2.9219e-05,-0.13636,-8.9194e-05,-889.85,1.6609
19174,19.439,5.4545,0.05,3.8387e-07,3.836,2.9476e-07,2.2147,9.6648e-13,3.3272e-06,-2.9476e-07,-2.2147,1.6479
19175,19.439,5.7273,0,8.9861e-05,897.99,3.06e-05,11.326,2.9089e-05,-0.025605,-8.9663e-05,-892.28,1.6475
19176,19.53,5.6364,0,8.8872e-05,888.1,3.01e-05,9.2394,2.8866e-05,-0.037694,-8.8712e-05,-883.47,1.6607
19177,19.439,5.6364,0.05,2.9369e-07,2.9349,2.2552e-07,1.6945,1.1102e-12,5.5944e-06,-2.2552e-07,-1.6945,1.6477
19178,19.53,5.8182,0,8.8731e-05,886.7,3.0293e-05,12.123,2.8678e-05,-0.0066034,-8.8519e-05,-880.58,1.6605
19179,19.439,5.8182,0.05,1.5184e-07,1.5173,1.1659e-07,0.87601,1.0398e-12,4.1183e-06,-1.1659e-07,-0.87603,1.6474
19180,19.439,5.9091,0,8.9052e-05,889.91,3.007e-05,8.2117,2.8984e-05,0.047729,-8.8909e-05,-885.75,1.6473
19181,19.621,0.27273,0,8.7731e-05,876.7,2.9783e-05,9.9589,2.8455e-05,-0.017594,-8.7557e-05,-871.69,1.6736
19182,19.712,0.18182,0,8.6471e-05,864.11,2.9466e-05,11.16,2.798e-05,-0.0055896,-8.6276e-05,-858.48,1.6866
19183,19.621,0.18182,0.05,5.4378e-08,0.5434,4.1756e-08,0.31375,-2.502e-13,8.3759e-06,-4.1755e-08,-0.31372,1.6735
19184,19.621,0.090909,0,8.7085e-05,870.25,2.9372e-05,7.6205,2.8363e-05,0.04407,-8.6952e-05,-866.39,1.6734
19185,19.621,0.45455,0,8.7916e-05,878.56,2.9525e-05,6.1143,2.8705e-05,-0.051396,-8.7812e-05,-875.51,1.6739
19186,19.712,0.36364,0,8.6466e-05,864.06,2.9194e-05,7.8944,2.814e-05,-0.02273,-8.6329e-05,-860.1,1.6868
19187,19.621,0.36364,0.05,3.7433e-07,3.7407,2.8744e-07,2.1597,-4.903e-13,7.5394e-06,-2.8744e-07,-2.1597,1.6737
19188,19.621,0.63636,0,8.8261e-05,882,2.9242e-05,0.92045,2.9015e-05,-0.78783,-8.8259e-05,-881.94,1.6741
19189,19.712,0.54545,0,8.6694e-05,866.34,2.8895e-05,3.359,2.8433e-05,-0.10853,-8.6638e-05,-864.71,1.687
19190,19.621,0.54545,0.05,4.4749e-07,4.4718,3.4362e-07,2.5818,-3.7175e-13,9.5806e-06,-3.4362e-07,-2.5818,1.674
19191,19.621,0.81818,0,8.8683e-05,886.21,2.9691e-05,0.16468,2.856e-05,-8.336,-8.8819e-05,-890.27,1.6743
19192,19.712,0.72727,0,8.6995e-05,869.35,2.8918e-05,0.21846,2.8375e-05,-3.8611,-8.7056e-05,-871.17,1.6872
19193,19.621,0.72727,0.05,5.1197e-07,5.1162,3.9313e-07,2.9538,-8.0541e-13,6.9778e-06,-3.9313e-07,-2.9538,1.6742
19194,19.621,1,0,8.9171e-05,891.09,3.0356e-05,0.11571,2.7855e-05,-18.678,-8.9472e-05,-900.23,1.6745
19195,19.712,0.90909,0,8.7356e-05,872.96,2.9466e-05,0.11659,2.7756e-05,-12.729,-8.7564e-05,-879.2,1.6874
19196,19.621,0.90909,0.05,5.8428e-07,5.8388,4.4866e-07,3.3711,-9.6421e-13,3.7884e-06,-4.4866e-07,-3.371,1.6744
19197,19.621,1.1818,0,8.9719e-05,896.57,3.1125e-05,0.097906,2.7021e-05,-30.742,-9.02e-05,-911.49,1.6746
19198,19.712,1.0909,0,8.7772e-05,877.11,3.0126e-05,0.094698,2.6994e-05,-23.434,-8.8145e-05,-888.54,1.6876
19199,19.621,1.0909,0.05,6.614e-07,6.6095,5.0788e-07,3.816,-1.2614e-12,2.2628e-06,-5.0787e-07,-3.816,1.6745
19200,19.621,1.3636,0,9.0318e-05,902.55,3.1966e-05,0.087461,2.6096e-05,-44.018,-9.0984e-05,-923.71,1.6748
19201,19.712,1.2727,0,8.8234e-05,881.73,3.0865e-05,0.084116,2.6129e-05,-35.498,-8.8783e-05,-898.9,1.6877
19202,19.621,1.2727,0.05,7.4007e-07,7.3956,5.6829e-07,4.2699,-9.9663e-13,1.694e-06,-5.6828e-07,-4.2699,1.6747
19203,19.621,1.5455,0,9.0956e-05,908.93,3.2846e-05,0.079795,2.5124e-05,-57.946,-9.1801e-05,-936.47,1.6749
19204,19.712,1.4545,0,8.8735e-05,886.74,3.1655e-05,0.076842,2.52e-05,-48.427,-8.9458e-05,-909.92,1.6879
19205,19.621,1.4545,0.05,8.177e-07,8.1713,6.2789e-07,4.7177,-8.4746e-13,2.9143e-06,-6.2789e-07,-4.7177,1.6748
19206,19.621,1.7273,0,9.1619e-05,915.55,3.3733e-05,0.073755,2.4151e-05,-71.922,-9.2628e-05,-949.35,1.675
19207,19.712,1.6364,0,8.9265e-05,892.03,3.2466e-05,0.071084,2.4247e-05,-61.68,-9.0153e-05,-921.23,1.688
19208,19.621,1.6364,0.05,8.9218e-07,8.9156,6.8508e-07,5.1475,-1.2448e-12,3.6663e-06,-6.8508e-07,-5.1474,1.6749
19209,19.621,1.9091,0,9.2286e-05,922.23,3.4589e-05,0.069109,2.3222e-05,-85.337,-9.344e-05,-961.89,1.6751
19210,19.712,1.8182,0,8.9809e-05,897.47,3.3265e-05,0.066419,2.3316e-05,-74.69,-9.0845e-05,-932.45,1.6881
19211,19.621,1.8182,0.05,9.6182e-07,9.6116,7.3856e-07,5.5493,-1.2035e-12,2.6894e-06,-7.3856e-07,-5.5492,1.675
19212,19.621,2.0909,0,9.2934e-05,928.7,3.5382e-05,0.065875,2.2381e-05,-97.618,-9.4207e-05,-973.61,1.6752
19213,19.712,2,0,9.0349e-05,902.87,3.4021e-05,0.062852,2.2447e-05,-86.902,-9.1512e-05,-943.14,1.6882
19214,19.621,2,0.05,1.0252e-06,10.245,7.8722e-07,5.9149,-1.2151e-12,3.3536e-06,-7.8722e-07,-5.9149,1.6751
19215,19.621,2.2727,0,9.3531e-05,934.67,3.6078e-05,0.064012,2.166e-05,-108.27,-9.49e-05,-984.05,1.6752
19216,19.712,2.1818,0,9.0863e-05,908,3.4704e-05,0.060433,2.1678e-05,-97.812,-9.2129e-05,-952.91,1.6882
19217,19.621,2.1818,0.05,1.081e-06,10.802,8.3007e-07,6.2368,-7.3353e-13,2.4252e-06,-8.3007e-07,-6.2368,1.6752
19218,19.621,2.4545,0,9.4045e-05,939.8,3.665e-05,0.063293,2.1083e-05,-116.9,-9.5485e-05,-992.75,1.6753
19219,19.712,2.3636,0,9.1322e-05,912.59,3.5285e-05,0.059092,2.1037e-05,-107,-9.2669e-05,-961.34,1.6883
19220,19.621,2.3636,0.05,1.1279e-06,11.271,8.6611e-07,6.5076,-9.9487e-13,1.1565e-06,-8.6611e-07,-6.5076,1.6752
19221,19.621,2.6364,0,9.4442e-05,943.77,3.7075e-05,0.063306,2.0665e-05,-123.24,-9.5931e-05,-999.29,1.6753
19222,19.712,2.5455,0,9.17e-05,916.37,3.5743e-05,0.058591,2.0545e-05,-114.14,-9.3105e-05,-968.06,1.6883
19223,19.621,2.5455,0.05,1.1647e-06,11.639,8.9434e-07,6.7198,-1.1748e-12,2.5345e-06,-8.9434e-07,-6.7197,1.6753
19224,19.621,2.8182,0,9.4693e-05,946.27,3.7337e-05,0.063573,2.0413e-05,-127.1,-9.621e-05,-1003.4,1.6753
19225,19.712,2.7273,0,9.197e-05,919.06,3.6058e-05,0.058566,2.0212e-05,-119,-9.3412e-05,-972.73,1.6884
19226,19.621,2.7273,0.05,1.1901e-06,11.892,9.1382e-07,6.8661,-9.7601e-13,-1.6281e-07,-9.1382e-07,-6.8661,1.6753
19227,19.621,3,0,9.4779e-05,947.13,3.7426e-05,0.06371,2.0329e-05,-128.39,-9.6306e-05,-1004.7,1.6753
19228,19.712,2.9091,0,9.211e-05,920.46,3.6219e-05,0.058665,2.0044e-05,-121.47,-9.3571e-05,-975.13,1.6884
19229,19.621,2.9091,0.05,1.203e-06,12.022,9.2377e-07,6.9409,-1.2965e-12,-6.432e-07,-9.2377e-07,-6.9408,1.6753
19230,19.621,3.1818,0,9.4693e-05,946.28,3.7337e-05,0.063572,2.0413e-05,-127.1,-9.621e-05,-1003.4,1.6753
19231,19.712,3.0909,0,9.211e-05,920.46,3.6219e-05,0.058664,2.0044e-05,-121.47,-9.3571e-05,-975.13,1.6884
19232,19.621,3.0909,0.05,1.203e-06,12.022,9.2377e-07,6.9409,-1.2075e-12,-2.2419e-06,-9.2377e-07,-6.9408,1.6753
19233,19.621,3.3636,0,9.4442e-05,943.77,3.7075e-05,0.063306,2.0665e-05,-123.24,-9.5931e-05,-999.29,1.6753
19234,19.712,3.2727,0,9.197e-05,919.06,3.6058e-05,0.058566,2.0212e-05,-119,-9.3412e-05,-972.73,1.6884
19235,19.621,3.2727,0.05,1.1901e-06,11.892,9.1382e-07,6.8661,-8.9583e-13,-8.9225e-07,-9.1382e-07,-6.8661,1.6753
19236,19.621,3.5455,0,9.4045e-05,939.8,3.665e-05,0.063292,2.1083e-05,-116.9,-9.5485e-05,-992.75,1.6753
19237,19.712,3.4545,0,9.17e-05,916.37,3.5743e-05,0.05859,2.0545e-05,-114.14,-9.3105e-05,-968.06,1.6883
19238,19.621,3.4545,0.05,1.1647e-06,11.639,8.9434e-07,6.7197,-7.001e-13,-1.1542e-06,-8.9434e-07,-6.7197,1.6753
19239,19.621,3.7273,0,9.3531e-05,934.67,3.6078e-05,0.064011,2.166e-05,-108.27,-9.49e-05,-984.05,1.6752
19240,19.712,3.6364,0,9.1322e-05,912.59,3.5285e-05,0.059092,2.1037e-05,-107,-9.2669e-05,-961.34,1.6883
19241,19.621,3.6364,0.05,1.1279e-06,11.271,8.6611e-07,6.5076,-9.5981e-13,-2.1339e-07,-8.6611e-07,-6.5076,1.6752
19242,19.621,3.9091,0,9.2934e-05,928.7,3.5382e-05,0.065874,2.2381e-05,-97.618,-9.4207e-05,-973.61,1.6752
19243,19.712,3.8182,0,9.0863e-05,908,3.4704e-05,0.060432,2.1678e-05,-97.812,-9.2129e-05,-952.91,1.6882
19244,19.621,3.8182,0.05,1.081e-06,10.802,8.3007e-07,6.2368,-3.9694e-13,-1.2342e-07,-8.3007e-07,-6.2368,1.6752
19245,19.621,4.0909,0,9.2286e-05,922.23,3.4589e-05,0.069108,2.3222e-05,-85.337,-9.344e-05,-961.89,1.6751
19246,19.712,4,0,9.0349e-05,902.87,3.4021e-05,0.062851,2.2447e-05,-86.902,-9.1512e-05,-943.14,1.6882
19247,19.621,4,0.05,1.0252e-06,10.245,7.8722e-07,5.9149,-5.1551e-13,-1.7267e-06,-7.8722e-07,-5.9149,1.6751
19248,19.621,4.2727,0,9.1619e-05,915.55,3.3733e-05,0.073754,2.4151e-05,-71.922,-9.2628e-05,-949.35,1.675
19249,19.712,4.1818,0,8.9809e-05,897.47,3.3265e-05,0.066419,2.3316e-05,-74.69,-9.0845e-05,-932.45,1.6881
19250,19.621,4.1818,0.05,9.6182e-07,9.6116,7.3856e-07,5.5493,-3.3904e-13,-3.9039e-06,-7.3856e-07,-5.5493,1.675
19251,19.621,4.4545,0,9.0956e-05,908.93,3.2846e-05,0.079794,2.5124e-05,-57.946,-9.1801e-05,-936.47,1.6749
19252,19.712,4.3636,0,8.9265e-05,892.03,3.2466e-05,0.071084,2.4247e-05,-61.68,-9.0153e-05,-921.24,1.688
19253,19.621,4.3636,0.05,8.9218e-07,8.9156,6.8508e-07,5.1474,-6.701e-13,-2.2124e-06,-6.8508e-07,-5.1474,1.6749
19254,19.621,4.6364,0,9.0318e-05,902.55,3.1966e-05,0.087461,2.6096e-05,-44.018,-9.0984e-05,-923.71,1.6748
19255,19.712,4.5455,0,8.8735e-05,886.74,3.1655e-05,0.076842,2.52e-05,-48.427,-8.9458e-05,-909.92,1.6879
19256,19.621,4.5455,0.05,8.177e-07,8.1713,6.2789e-07,4.7177,5.3425e-14,-3.3261e-06,-6.2789e-07,-4.7177,1.6748
19257,19.621,4.8182,0,8.9719e-05,896.57,3.1125e-05,0.097906,2.7021e-05,-30.742,-9.02e-05,-911.49,1.6746
19258,19.712,4.7273,0,8.8234e-05,881.73,3.0865e-05,0.084116,2.6129e-05,-35.498,-8.8783e-05,-898.9,1.6877
19259,19.621,4.7273,0.05,7.4007e-07,7.3956,5.6828e-07,4.2699,-1.6449e-13,2.8823e-07,-5.6829e-07,-4.2699,1.6747
19260,19.621,5,0,8.9171e-05,891.09,3.0356e-05,0.11571,2.7855e-05,-18.678,-8.9472e-05,-900.23,1.6745
19261,19.712,4.9091,0,8.7772e-05,877.11,3.0126e-05,0.094698,2.6994e-05,-23.434,-8.8145e-05,-888.54,1.6876
19262,19.621,4.9091,0.05,6.614e-07,6.6095,5.0787e-07,3.816,4.5876e-13,5.4615e-07,-5.0787e-07,-3.816,1.6745
19263,19.621,5.1818,0,8.8683e-05,886.21,2.9691e-05,0.16468,2.856e-05,-8.336,-8.8819e-05,-890.27,1.6743
19264,19.712,5.0909,0,8.7357e-05,872.96,2.9466e-05,0.11659,2.7756e-05,-12.729,-8.7564e-05,-879.2,1.6874
19265,19.621,5.0909,0.05,5.8428e-07,5.8388,4.4866e-07,3.371,6.9683e-13,1.673e-06,-4.4866e-07,-3.371,1.6744
19266,19.621,5.3636,0,8.8261e-05,882,2.9242e-05,0.92047,2.9015e-05,-0.78781,-8.8259e-05,-881.94,1.6741
19267,19.712,5.2727,0,8.6995e-05,869.35,2.8918e-05,0.21846,2.8375e-05,-3.861,-8.7056e-05,-871.17,1.6872
19268,19.621,5.2727,0.05,5.1197e-07,5.1162,3.9313e-07,2.9538,5.3379e-13,2.1112e-06,-3.9313e-07,-2.9538,1.6742
19269,19.621,5.5455,0,8.7916e-05,878.56,2.9525e-05,6.1143,2.8705e-05,-0.051394,-8.7812e-05,-875.51,1.6739
19270,19.712,5.4545,0,8.6694e-05,866.34,2.8895e-05,3.3591,2.8433e-05,-0.10853,-8.6638e-05,-864.71,1.687
19271,19.621,5.4545,0.05,4.4749e-07,4.4718,3.4362e-07,2.5818,9.6808e-13,3.0468e-06,-3.4362e-07,-2.5818,1.674
19272,19.621,5.7273,0,8.7731e-05,876.7,2.9783e-05,9.9589,2.8455e-05,-0.017593,-8.7557e-05,-871.69,1.6736
19273,19.712,5.6364,0,8.6466e-05,864.06,2.9194e-05,7.8944,2.814e-05,-0.022728,-8.6329e-05,-860.1,1.6868
19274,19.621,5.6364,0.05,3.7433e-07,3.7407,2.8744e-07,2.1597,1.6668e-12,5.9608e-06,-2.8744e-07,-2.1597,1.6737
19275,19.712,5.8182,0,8.6471e-05,864.11,2.9466e-05,11.16,2.798e-05,-0.0055888,-8.6276e-05,-858.48,1.6866
19276,19.621,5.8182,0.05,5.4377e-08,0.5434,4.1755e-08,0.31372,6.5185e-13,1.8026e-06,-4.1755e-08,-0.31374,1.6735
19277,19.621,5.9091,0,8.7085e-05,870.25,2.9372e-05,7.6205,2.8363e-05,0.044068,-8.6952e-05,-866.39,1.6734
19278,19.804,0.27273,0,8.5192e-05,851.33,2.8865e-05,9.0056,2.7665e-05,-0.011072,-8.5036e-05,-846.8,1.6998
19279,19.895,0.18182,0,8.3831e-05,837.74,2.8543e-05,10.537,2.714e-05,-0.0044971,-8.3647e-05,-832.42,1.7128
19280,19.804,0.18182,0.05,3.5003e-08,0.34979,2.6879e-08,0.20196,1.1813e-12,1.4813e-05,-2.6878e-08,-0.20194,1.6996
19281,19.804,0.090909,0,8.4672e-05,846.13,2.8544e-05,7.2354,2.7586e-05,0.039312,-8.4546e-05,-842.47,1.6995
19282,19.804,0.45455,0,8.5238e-05,851.79,2.8553e-05,5.0601,2.7875e-05,-0.030861,-8.5151e-05,-849.27,1.7
19283,19.895,0.36364,0,8.371e-05,836.52,2.8209e-05,7.0018,2.7276e-05,-0.010709,-8.3588e-05,-833,1.713
19284,19.804,0.36364,0.05,4.4101e-07,4.4071,3.3864e-07,2.5444,-1.0809e-12,4.5027e-06,-3.3864e-07,-2.5444,1.6999
19285,19.804,0.63636,0,8.5423e-05,853.64,2.8276e-05,0.44591,2.8084e-05,-0.99675,-8.5432e-05,-853.91,1.7002
19286,19.895,0.54545,0,8.3805e-05,837.48,2.7878e-05,2.6165,2.752e-05,-0.073949,-8.3762e-05,-836.2,1.7132
19287,19.804,0.54545,0.05,5.0235e-07,5.0201,3.8575e-07,2.8984,-7.3902e-13,4.3597e-06,-3.8574e-07,-2.8983,1.7001
19288,19.804,0.81818,0,8.5664e-05,856.05,2.8685e-05,0.11241,2.7576e-05,-8.2191,-8.5799e-05,-860.07,1.7004
19289,19.895,0.72727,0,8.3958e-05,839,2.7911e-05,0.1378,2.7372e-05,-3.9129,-8.4022e-05,-840.88,1.7134
19290,19.804,0.72727,0.05,5.5249e-07,5.5211,4.2425e-07,3.1876,-8.1113e-13,5.7365e-06,-4.2425e-07,-3.1876,1.7003
19291,19.804,1,0,8.5952e-05,858.93,2.9234e-05,0.087258,2.6893e-05,-17.496,-8.6235e-05,-867.5,1.7006
19292,19.895,0.90909,0,8.4154e-05,840.96,2.8366e-05,0.085883,2.677e-05,-11.907,-8.4349e-05,-846.81,1.7136
19293,19.804,0.90909,0.05,6.0963e-07,6.0921,4.6812e-07,3.5173,-8.8298e-13,5.4644e-06,-4.6812e-07,-3.5173,1.7005
19294,19.804,1.1818,0,8.6282e-05,862.22,2.9865e-05,0.077662,2.6101e-05,-28.203,-8.6725e-05,-875.94,1.7007
19295,19.895,1.0909,0,8.4388e-05,843.3,2.8908e-05,0.074359,2.6049e-05,-21.406,-8.4731e-05,-853.76,1.7137
19296,19.804,1.0909,0.05,6.7163e-07,6.7117,5.1573e-07,3.875,-7.9722e-13,2.5854e-06,-5.1573e-07,-3.875,1.7006
19297,19.804,1.3636,0,8.6647e-05,865.87,3.0554e-05,0.071632,2.5232e-05,-39.917,-8.7255e-05,-885.1,1.7009
19298,19.895,1.2727,0,8.4655e-05,845.97,2.9513e-05,0.068583,2.5241e-05,-32.032,-8.5153e-05,-861.49,1.7139
19299,19.804,1.2727,0.05,7.3561e-07,7.351,5.6486e-07,4.2441,-1.3072e-12,4.7766e-06,-5.6486e-07,-4.2441,1.7008
19300,19.804,1.5455,0,8.704e-05,869.8,3.1274e-05,0.066819,2.4322e-05,-52.169,-8.7809e-05,-894.67,1.701
19301,19.895,1.4545,0,8.4949e-05,848.91,3.016e-05,0.064256,2.4378e-05,-43.374,-8.5603e-05,-869.73,1.714
19302,19.804,1.4545,0.05,7.9916e-07,7.9861,6.1366e-07,4.6108,-8.7423e-13,5.6231e-06,-6.1365e-07,-4.6107,1.7009
19303,19.804,1.7273,0,8.7452e-05,873.92,3.1998e-05,0.062716,2.3411e-05,-64.453,-8.8368e-05,-904.32,1.7011
19304,19.895,1.6364,0,8.5264e-05,852.06,3.0822e-05,0.060508,2.3496e-05,-54.98,-8.6065e-05,-878.18,1.7141
19305,19.804,1.6364,0.05,8.6032e-07,8.5973,6.6062e-07,4.9637,-1.1641e-12,6.1737e-06,-6.6062e-07,-4.9636,1.701
19306,19.804,1.9091,0,8.7869e-05,878.09,3.2697e-05,0.059297,2.254e-05,-76.259,-8.8916e-05,-913.7,1.7012
19307,19.895,1.8182,0,8.5591e-05,855.32,3.1474e-05,0.057209,2.2632e-05,-66.374,-8.6526e-05,-886.55,1.7142
19308,19.804,1.8182,0.05,9.175e-07,9.1687,7.0453e-07,5.2936,-1.1094e-12,4.1787e-06,-7.0453e-07,-5.2935,1.7011
19309,19.804,2.0909,0,8.8276e-05,882.15,3.3343e-05,0.056661,2.1744e-05,-87.1,-8.9433e-05,-922.44,1.7013
19310,19.895,2,0,8.5919e-05,858.59,3.209e-05,0.054456,2.1823e-05,-77.09,-8.6969e-05,-894.51,1.7143
19311,19.804,2,0.05,9.694e-07,9.6874,7.4438e-07,5.593,-9.2056e-13,4.4627e-06,-7.4438e-07,-5.593,1.7012
19312,19.804,2.2727,0,8.8652e-05,885.91,3.3911e-05,0.054854,2.1055e-05,-96.544,-8.9898e-05,-930.2,1.7013
19313,19.895,2.1818,0,8.6231e-05,861.72,3.2647e-05,0.052357,2.1101e-05,-86.696,-8.7377e-05,-901.76,1.7144
19314,19.804,2.1818,0.05,1.0149e-06,10.142,7.7931e-07,5.8554,-1.0146e-12,5.2563e-06,-7.793e-07,-5.8554,1.7013
19315,19.804,2.4545,0,8.8976e-05,889.15,3.4378e-05,0.053803,2.0498e-05,-104.24,-9.0289e-05,-936.64,1.7014
19316,19.895,2.3636,0,8.6512e-05,864.53,3.3121e-05,0.050934,2.0495e-05,-94.819,-8.7733e-05,-908,1.7144
19317,19.804,2.3636,0.05,1.0529e-06,10.522,8.085e-07,6.0748,-1.0657e-12,2.5206e-06,-8.085e-07,-6.0748,1.7013
19318,19.804,2.6364,0,8.9227e-05,891.66,3.4725e-05,0.053318,2.009e-05,-109.91,-9.0586e-05,-941.49,1.7014
19319,19.895,2.5455,0,8.6744e-05,866.84,3.3494e-05,0.050105,2.0024e-05,-101.16,-8.802e-05,-912.96,1.7145
19320,19.804,2.5455,0.05,1.0825e-06,10.818,8.3123e-07,6.2455,-9.0086e-13,1.839e-06,-8.3123e-07,-6.2455,1.7014
19321,19.804,2.8182,0,8.9386e-05,893.24,3.4939e-05,0.05316,1.9842e-05,-113.39,-9.0772e-05,-944.49,1.7014
19322,19.895,2.7273,0,8.691e-05,868.5,3.3751e-05,0.049704,1.9703e-05,-105.5,-8.8221e-05,-916.4,1.7145
19323,19.804,2.7273,0.05,1.1028e-06,11.02,8.4682e-07,6.3627,-1.0834e-12,1.7223e-06,-8.4682e-07,-6.3626,1.7014
19324,19.804,3,0,8.944e-05,893.79,3.5012e-05,0.053133,1.9758e-05,-114.55,-9.0835e-05,-945.51,1.7014
19325,19.895,2.9091,0,8.6996e-05,869.36,3.3882e-05,0.049559,1.954e-05,-107.71,-8.8325e-05,-918.17,1.7145
19326,19.804,2.9091,0.05,1.1131e-06,11.124,8.5475e-07,6.4223,-8.8502e-13,1.888e-06,-8.5475e-07,-6.4223,1.7014
19327,19.804,3.1818,0,8.9386e-05,893.24,3.4939e-05,0.05316,1.9842e-05,-113.39,-9.0772e-05,-944.49,1.7014
19328,19.895,3.0909,0,8.6996e-05,869.36,3.3882e-05,0.04956,1.954e-05,-107.71,-8.8325e-05,-918.17,1.7145
19329,19.804,3.0909,0.05,1.1131e-06,11.124,8.5475e-07,6.4223,-7.0983e-13,9.4693e-07,-8.5475e-07,-6.4223,1.7014
19330,19.804,3.3636,0,8.9227e-05,891.66,3.4725e-05,0.053318,2.009e-05,-109.91,-9.0586e-05,-941.49,1.7014
19331,19.895,3.2727,0,8.691e-05,868.5,3.3751e-05,0.049704,1.9703e-05,-105.5,-8.8221e-05,-916.4,1.7145
19332,19.804,3.2727,0.05,1.1028e-06,11.02,8.4682e-07,6.3627,-7.5668e-13,1.0402e-06,-8.4682e-07,-6.3626,1.7014
19333,19.804,3.5455,0,8.8976e-05,889.15,3.4378e-05,0.053804,2.0498e-05,-104.24,-9.0289e-05,-936.64,1.7014
19334,19.895,3.4545,0,8.6744e-05,866.84,3.3494e-05,0.050105,2.0024e-05,-101.16,-8.802e-05,-912.96,1.7145
19335,19.804,3.4545,0.05,1.0825e-06,10.818,8.3123e-07,6.2455,-7.7971e-13,-6.2405e-07,-8.3123e-07,-6.2455,1.7014
19336,19.804,3.7273,0,8.8652e-05,885.91,3.3911e-05,0.054855,2.1055e-05,-96.544,-8.9898e-05,-930.2,1.7013
19337,19.895,3.6364,0,8.6512e-05,864.53,3.3121e-05,0.050934,2.0495e-05,-94.819,-8.7733e-05,-908,1.7144
19338,19.804,3.6364,0.05,1.0529e-06,10.522,8.085e-07,6.0748,-6.3699e-13,2.1233e-06,-8.085e-07,-6.0748,1.7013
19339,19.804,3.9091,0,8.8276e-05,882.15,3.3343e-05,0.056661,2.1744e-05,-87.099,-8.9433e-05,-922.44,1.7013
19340,19.895,3.8182,0,8.6231e-05,861.72,3.2647e-05,0.052356,2.1101e-05,-86.696,-8.7377e-05,-901.76,1.7144
19341,19.804,3.8182,0.05,1.0149e-06,10.142,7.7931e-07,5.8554,-4.9719e-13,1.0557e-06,-7.793e-07,-5.8554,1.7013
19342,19.804,4.0909,0,8.7869e-05,878.09,3.2697e-05,0.059296,2.254e-05,-76.259,-8.8916e-05,-913.7,1.7012
19343,19.895,4,0,8.5919e-05,858.59,3.209e-05,0.054456,2.1823e-05,-77.09,-8.6969e-05,-894.51,1.7143
19344,19.804,4,0.05,9.694e-07,9.6874,7.4438e-07,5.593,-6.7595e-13,1.0993e-06,-7.4438e-07,-5.593,1.7012
19345,19.804,4.2727,0,8.7452e-05,873.92,3.1998e-05,0.062715,2.3411e-05,-64.453,-8.8368e-05,-904.32,1.7011
19346,19.895,4.1818,0,8.5591e-05,855.32,3.1474e-05,0.057208,2.2632e-05,-66.374,-8.6526e-05,-886.55,1.7142
19347,19.804,4.1818,0.05,9.175e-07,9.1687,7.0453e-07,5.2936,-3.6555e-13,3.7121e-07,-7.0453e-07,-5.2936,1.7011
19348,19.804,4.4545,0,8.704e-05,869.8,3.1274e-05,0.06682,2.4322e-05,-52.168,-8.7809e-05,-894.67,1.701
19349,19.895,4.3636,0,8.5264e-05,852.06,3.0822e-05,0.060508,2.3496e-05,-54.98,-8.6065e-05,-878.18,1.7141
19350,19.804,4.3636,0.05,8.6032e-07,8.5973,6.6062e-07,4.9636,-3.1959e-13,4.5717e-07,-6.6062e-07,-4.9636,1.701
19351,19.804,4.6364,0,8.6647e-05,865.87,3.0554e-05,0.071632,2.5232e-05,-39.917,-8.7255e-05,-885.1,1.7009
19352,19.895,4.5455,0,8.4949e-05,848.91,3.016e-05,0.064256,2.4378e-05,-43.374,-8.5603e-05,-869.73,1.714
19353,19.804,4.5455,0.05,7.9916e-07,7.9861,6.1366e-07,4.6108,-5.3145e-13,1.6283e-06,-6.1365e-07,-4.6108,1.7009
19354,19.804,4.8182,0,8.6282e-05,862.22,2.9865e-05,0.077662,2.6101e-05,-28.203,-8.6725e-05,-875.94,1.7007
19355,19.895,4.7273,0,8.4655e-05,845.97,2.9513e-05,0.068582,2.5241e-05,-32.032,-8.5153e-05,-861.49,1.7139
19356,19.804,4.7273,0.05,7.3561e-07,7.351,5.6486e-07,4.2441,2.1764e-13,1.6315e-06,-5.6486e-07,-4.2441,1.7008
19357,19.804,5,0,8.5952e-05,858.93,2.9234e-05,0.087259,2.6893e-05,-17.496,-8.6235e-05,-867.5,1.7006
19358,19.895,4.9091,0,8.4388e-05,843.3,2.8908e-05,0.074361,2.6049e-05,-21.406,-8.4731e-05,-853.76,1.7137
19359,19.804,4.9091,0.05,6.7163e-07,6.7117,5.1573e-07,3.875,-5.6444e-14,2.6324e-06,-5.1573e-07,-3.875,1.7006
19360,19.804,5.1818,0,8.5664e-05,856.05,2.8685e-05,0.11241,2.7576e-05,-8.2191,-8.5799e-05,-860.07,1.7004
19361,19.895,5.0909,0,8.4154e-05,840.96,2.8366e-05,0.085882,2.677e-05,-11.906,-8.4349e-05,-846.81,1.7136
19362,19.804,5.0909,0.05,6.0963e-07,6.0921,4.6812e-07,3.5173,5.0695e-13,2.2935e-06,-4.6812e-07,-3.5173,1.7005
19363,19.804,5.3636,0,8.5423e-05,853.64,2.8276e-05,0.44592,2.8084e-05,-0.99673,-8.5432e-05,-853.91,1.7002
19364,19.895,5.2727,0,8.3958e-05,839,2.7911e-05,0.1378,2.7372e-05,-3.9128,-8.4022e-05,-840.88,1.7134
19365,19.804,5.2727,0.05,5.5249e-07,5.5211,4.2425e-07,3.1876,2.6737e-13,4.9519e-06,-4.2425e-07,-3.1876,1.7003
19366,19.804,5.5455,0,8.5238e-05,851.79,2.8553e-05,5.0601,2.7875e-05,-0.030862,-8.5151e-05,-849.27,1.7
19367,19.895,5.4545,0,8.3805e-05,837.48,2.7878e-05,2.6165,2.752e-05,-0.073949,-8.3762e-05,-836.2,1.7132
19368,19.804,5.4545,0.05,5.0235e-07,5.0201,3.8575e-07,2.8983,6.7665e-13,5.2201e-06,-3.8575e-07,-2.8984,1.7001
19369,19.804,5.7273,0,8.5192e-05,851.33,2.8865e-05,9.0056,2.7665e-05,-0.01107,-8.5036e-05,-846.8,1.6998
19370,19.895,5.6364,0,8.371e-05,836.52,2.8209e-05,7.0018,2.7276e-05,-0.010708,-8.3588e-05,-833,1.713
19371,19.804,5.6364,0.05,4.4101e-07,4.4071,3.3864e-07,2.5444,1.1413e-12,7.1703e-06,-3.3864e-07,-2.5444,1.6999
19372,19.895,5.8182,0,8.3831e-05,837.74,2.8543e-05,10.537,2.714e-05,-0.0044949,-8.3647e-05,-832.42,1.7128
19373,19.804,5.8182,0.05,3.5003e-08,0.34979,2.6878e-08,0.20195,1.324e-13,1.7679e-06,-2.6879e-08,-0.20195,1.6996
19374,19.804,5.9091,0,8.4672e-05,846.13,2.8544e-05,7.2353,2.7586e-05,0.039314,-8.4546e-05,-842.47,1.6995
19375,19.986,0.27273,0,8.2333e-05,822.76,2.7874e-05,8.4347,2.6751e-05,-0.0059491,-8.2187e-05,-818.52,1.726
19376,20.077,0.18182,0,8.0894e-05,808.38,2.7548e-05,10.221,2.6187e-05,-0.0033959,-8.0715e-05,-803.22,1.739
19377,19.986,0.18182,0.05,9.3478e-08,0.93414,7.1781e-08,0.53935,-1.1535e-12,5.0805e-06,-7.1778e-08,-0.5393,1.7258
19378,19.986,0.090909,0,8.1905e-05,818.49,2.7614e-05,7.0372,2.6682e-05,0.033947,-8.1783e-05,-814.93,1.7257
19379,19.986,0.45455,0,8.2271e-05,822.14,2.7524e-05,4.4807,2.6926e-05,-0.012836,-8.2194e-05,-819.9,1.7262
19380,20.077,0.36364,0,8.0681e-05,806.25,2.717e-05,6.5288,2.63e-05,-0.0018349,-8.0568e-05,-802.97,1.7392
19381,19.986,0.36364,0.05,4.9473e-07,4.9439,3.7989e-07,2.8544,-1.2892e-12,8.3885e-07,-3.7989e-07,-2.8543,1.7261
19382,19.986,0.63636,0,8.2335e-05,822.78,2.7241e-05,0.26392,2.7076e-05,-0.97818,-8.2347e-05,-823.14,1.7264
19383,20.077,0.54545,0,8.0678e-05,806.22,2.6822e-05,2.3554,2.6504e-05,-0.035039,-8.0638e-05,-805.06,1.7394
19384,19.986,0.54545,0.05,5.4759e-07,5.4721,4.2048e-07,3.1593,-1.1699e-12,2.9447e-06,-4.2048e-07,-3.1593,1.7263
19385,19.986,0.81818,0,8.2443e-05,823.86,2.7588e-05,0.080758,2.6566e-05,-7.5997,-8.2568e-05,-827.59,1.7266
19386,20.077,0.72727,0,8.0721e-05,806.66,2.6819e-05,0.094881,2.6341e-05,-3.4956,-8.0779e-05,-808.35,1.7396
19387,19.986,0.72727,0.05,5.8692e-07,5.8651,4.5068e-07,3.3863,-8.7632e-13,6.3238e-06,-4.5068e-07,-3.3862,1.7265
19388,19.986,1,0,8.2585e-05,825.28,2.8039e-05,0.067889,2.5922e-05,-15.837,-8.2841e-05,-833.05,1.7267
19389,20.077,0.90909,0,8.0798e-05,807.42,2.7192e-05,0.06563,2.5772e-05,-10.609,-8.0972e-05,-812.64,1.7398
19390,19.986,0.90909,0.05,6.32e-07,6.3157,4.853e-07,3.6464,-9.7264e-13,6.921e-06,-4.853e-07,-3.6463,1.7267
19391,19.986,1.1818,0,8.2756e-05,826.99,2.8556e-05,0.063134,2.5186e-05,-25.255,-8.3155e-05,-839.29,1.7269
19392,20.077,1.0909,0,8.0901e-05,808.45,2.7636e-05,0.059992,2.5105e-05,-18.955,-8.1206e-05,-817.73,1.7399
19393,19.986,1.0909,0.05,6.8156e-07,6.8109,5.2335e-07,3.9323,-6.9654e-13,6.9497e-06,-5.2335e-07,-3.9322,1.7268
19394,19.986,1.3636,0,8.2952e-05,828.95,2.9119e-05,0.05991,2.4386e-05,-35.506,-8.3498e-05,-846.1,1.727
19395,20.077,1.2727,0,8.1028e-05,809.72,2.813e-05,0.0572,2.4365e-05,-28.231,-8.147e-05,-823.44,1.7401
19396,19.986,1.2727,0.05,7.3323e-07,7.3273,5.6303e-07,4.2304,-9.5393e-13,5.0698e-06,-5.6303e-07,-4.2304,1.727
19397,19.986,1.5455,0,8.3169e-05,831.12,2.9707e-05,0.057004,2.3551e-05,-46.198,-8.3857e-05,-853.22,1.7272
19398,20.077,1.4545,0,8.1175e-05,811.19,2.8657e-05,0.054823,2.3579e-05,-38.097,-8.1754e-05,-829.53,1.7402
19399,19.986,1.4545,0.05,7.8493e-07,7.8439,6.0273e-07,4.5287,-8.8908e-13,6.7477e-06,-6.0272e-07,-4.5286,1.7271
19400,19.986,1.7273,0,8.34e-05,833.43,3.0297e-05,0.054245,2.2716e-05,-56.911,-8.4221e-05,-860.39,1.7273
19401,20.077,1.6364,0,8.1337e-05,812.81,2.9196e-05,0.052462,2.2778e-05,-48.175,-8.2048e-05,-835.8,1.7403
19402,19.986,1.6364,0.05,8.3489e-07,8.3432,6.411e-07,4.817,-9.8703e-13,6.295e-06,-6.4109e-07,-4.8169,1.7272
19403,19.986,1.9091,0,8.3638e-05,835.8,3.0867e-05,0.051724,2.1915e-05,-67.214,-8.4577e-05,-867.35,1.7273
19404,20.077,1.8182,0,8.151e-05,814.53,2.9727e-05,0.050148,2.1992e-05,-58.071,-8.2341e-05,-841.99,1.7404
19405,19.986,1.8182,0.05,8.8169e-07,8.8108,6.7703e-07,5.087,-1.3944e-12,4.6937e-06,-6.7703e-07,-5.0869,1.7273
19406,19.986,2.0909,0,8.3872e-05,838.14,3.1394e-05,0.049585,2.118e-05,-76.693,-8.4912e-05,-873.82,1.7274
19407,20.077,2,0,8.1686e-05,816.29,3.0229e-05,0.048028,2.1254e-05,-67.39,-8.2622e-05,-847.87,1.7405
19408,19.986,2,0.05,9.2414e-07,9.235,7.0963e-07,5.3319,-1.2942e-12,5.298e-06,-7.0962e-07,-5.3318,1.7274
19409,19.986,2.2727,0,8.409e-05,840.32,3.1856e-05,0.047929,2.054e-05,-84.977,-8.5212e-05,-879.56,1.7275
19410,20.077,2.1818,0,8.1856e-05,818,3.0682e-05,0.046244,2.0593e-05,-75.762,-8.288e-05,-853.22,1.7405
19411,19.986,2.1818,0.05,9.6124e-07,9.6058,7.3812e-07,5.5459,-7.2077e-13,5.6582e-06,-7.3811e-07,-5.5459,1.7274
19412,19.986,2.4545,0,8.428e-05,842.22,3.2237e-05,0.046774,2.002e-05,-91.748,-8.5463e-05,-884.31,1.7275
19413,20.077,2.3636,0,8.2012e-05,819.55,3.1068e-05,0.044878,2.0034e-05,-82.862,-8.3105e-05,-857.81,1.7406
19414,19.986,2.3636,0.05,9.9214e-07,9.9146,7.6184e-07,5.7242,-8.6258e-13,5.3218e-06,-7.6184e-07,-5.7242,1.7275
19415,19.986,2.6364,0,8.4427e-05,843.69,3.252e-05,0.046063,1.9636e-05,-96.758,-8.5654e-05,-887.87,1.7276
19416,20.077,2.5455,0,8.2141e-05,820.84,3.1372e-05,0.043935,1.9598e-05,-88.423,-8.3286e-05,-861.45,1.7406
19417,19.986,2.5455,0.05,1.0161e-06,10.154,7.8023e-07,5.8624,-8.8487e-13,6.0458e-06,-7.8023e-07,-5.8623,1.7275
19418,19.986,2.8182,0,8.452e-05,844.62,3.2694e-05,0.045696,1.9401e-05,-99.834,-8.5773e-05,-890.07,1.7276
19419,20.077,2.7273,0,8.2233e-05,821.77,3.1581e-05,0.043368,1.9299e-05,-92.241,-8.3412e-05,-863.97,1.7407
19420,19.986,2.7273,0.05,1.0324e-06,10.317,7.9279e-07,5.9567,-1.0018e-12,2.574e-06,-7.9279e-07,-5.9567,1.7275
19421,19.986,3,0,8.4552e-05,844.94,3.2753e-05,0.045586,1.9322e-05,-100.87,-8.5814e-05,-890.82,1.7276
19422,20.077,2.9091,0,8.2282e-05,822.25,3.1688e-05,0.043109,1.9147e-05,-94.183,-8.3477e-05,-865.26,1.7407
19423,19.986,2.9091,0.05,1.0408e-06,10.4,7.9917e-07,6.0046,-9.3258e-13,3.4421e-06,-7.9917e-07,-6.0046,1.7276
19424,19.986,3.1818,0,8.452e-05,844.62,3.2694e-05,0.045697,1.9401e-05,-99.834,-8.5773e-05,-890.07,1.7276
19425,20.077,3.0909,0,8.2282e-05,822.25,3.1688e-05,0.04311,1.9147e-05,-94.183,-8.3477e-05,-865.26,1.7407
19426,19.986,3.0909,0.05,1.0408e-06,10.4,7.9917e-07,6.0046,-8.8842e-13,1.3081e-06,-7.9917e-07,-6.0046,1.7276
19427,19.986,3.3636,0,8.4427e-05,843.69,3.252e-05,0.046063,1.9636e-05,-96.758,-8.5654e-05,-887.87,1.7276
19428,20.077,3.2727,0,8.2233e-05,821.77,3.1581e-05,0.043369,1.9299e-05,-92.241,-8.3412e-05,-863.97,1.7407
19429,19.986,3.2727,0.05,1.0324e-06,10.317,7.9279e-07,5.9567,-1.0617e-12,2.107e-06,-7.9279e-07,-5.9567,1.7275
19430,19.986,3.5455,0,8.428e-05,842.22,3.2237e-05,0.046774,2.002e-05,-91.748,-8.5463e-05,-884.31,1.7275
19431,20.077,3.4545,0,8.2141e-05,820.84,3.1372e-05,0.043936,1.9598e-05,-88.422,-8.3286e-05,-861.45,1.7406
19432,19.986,3.4545,0.05,1.0161e-06,10.154,7.8023e-07,5.8623,-9.8037e-13,3.1515e-06,-7.8023e-07,-5.8623,1.7275
19433,19.986,3.7273,0,8.409e-05,840.32,3.1856e-05,0.047929,2.054e-05,-84.977,-8.5212e-05,-879.56,1.7275
19434,20.077,3.6364,0,8.2012e-05,819.55,3.1068e-05,0.044877,2.0034e-05,-82.862,-8.3105e-05,-857.81,1.7406
19435,19.986,3.6364,0.05,9.9214e-07,9.9146,7.6184e-07,5.7242,-5.8729e-13,2.355e-06,-7.6184e-07,-5.7242,1.7275
19436,19.986,3.9091,0,8.3872e-05,838.14,3.1394e-05,0.049585,2.118e-05,-76.693,-8.4912e-05,-873.82,1.7274
19437,20.077,3.8182,0,8.1856e-05,818,3.0682e-05,0.046244,2.0593e-05,-75.762,-8.288e-05,-853.22,1.7405
19438,19.986,3.8182,0.05,9.6124e-07,9.6058,7.3812e-07,5.5459,-5.7971e-13,1.6376e-06,-7.3811e-07,-5.5459,1.7274
19439,19.986,4.0909,0,8.3638e-05,835.8,3.0867e-05,0.051724,2.1915e-05,-67.213,-8.4577e-05,-867.35,1.7273
19440,20.077,4,0,8.1686e-05,816.29,3.0229e-05,0.048028,2.1254e-05,-67.39,-8.2622e-05,-847.87,1.7405
19441,19.986,4,0.05,9.2414e-07,9.235,7.0963e-07,5.3319,-4.9761e-13,2.7866e-06,-7.0962e-07,-5.3318,1.7274
19442,19.986,4.2727,0,8.34e-05,833.43,3.0297e-05,0.054245,2.2716e-05,-56.911,-8.4221e-05,-860.39,1.7273
19443,20.077,4.1818,0,8.151e-05,814.53,2.9727e-05,0.050148,2.1992e-05,-58.071,-8.2341e-05,-841.99,1.7404
19444,19.986,4.1818,0.05,8.8169e-07,8.8108,6.7703e-07,5.0869,-2.2887e-13,2.1747e-06,-6.7703e-07,-5.0869,1.7273
19445,19.986,4.4545,0,8.3169e-05,831.12,2.9707e-05,0.057004,2.3551e-05,-46.198,-8.3857e-05,-853.22,1.7272
19446,20.077,4.3636,0,8.1337e-05,812.81,2.9196e-05,0.052461,2.2778e-05,-48.175,-8.2048e-05,-835.8,1.7403
19447,19.986,4.3636,0.05,8.3489e-07,8.3432,6.4109e-07,4.8169,-1.4541e-13,3.641e-06,-6.4109e-07,-4.8169,1.7272
19448,19.986,4.6364,0,8.2952e-05,828.95,2.9119e-05,0.05991,2.4386e-05,-35.506,-8.3498e-05,-846.1,1.727
19449,20.077,4.5455,0,8.1175e-05,811.19,2.8657e-05,0.054822,2.3579e-05,-38.097,-8.1754e-05,-829.53,1.7402
19450,19.986,4.5455,0.05,7.8493e-07,7.8439,6.0273e-07,4.5287,-6.2955e-15,3.6686e-06,-6.0273e-07,-4.5286,1.7271
19451,19.986,4.8182,0,8.2756e-05,826.99,2.8556e-05,0.063133,2.5186e-05,-25.255,-8.3155e-05,-839.29,1.7269
19452,20.077,4.7273,0,8.1028e-05,809.72,2.813e-05,0.057201,2.4365e-05,-28.231,-8.147e-05,-823.44,1.7401
19453,19.986,4.7273,0.05,7.3323e-07,7.3273,5.6303e-07,4.2304,3.8803e-13,5.1466e-06,-5.6303e-07,-4.2304,1.727
19454,19.986,5,0,8.2585e-05,825.28,2.8039e-05,0.067889,2.5922e-05,-15.837,-8.2841e-05,-833.05,1.7267
19455,20.077,4.9091,0,8.0901e-05,808.45,2.7636e-05,0.059992,2.5105e-05,-18.955,-8.1206e-05,-817.73,1.7399
19456,19.986,4.9091,0.05,6.8156e-07,6.8109,5.2335e-07,3.9323,7.1176e-13,6.1895e-06,-5.2335e-07,-3.9323,1.7268
19457,19.986,5.1818,0,8.2443e-05,823.86,2.7588e-05,0.080756,2.6566e-05,-7.5997,-8.2568e-05,-827.59,1.7266
19458,20.077,5.0909,0,8.0798e-05,807.42,2.7192e-05,0.06563,2.5772e-05,-10.609,-8.0972e-05,-812.64,1.7398
19459,19.986,5.0909,0.05,6.32e-07,6.3157,4.853e-07,3.6464,6.8192e-13,4.3592e-06,-4.853e-07,-3.6464,1.7267
19460,19.986,5.3636,0,8.2335e-05,822.78,2.7241e-05,0.26392,2.7076e-05,-0.97816,-8.2347e-05,-823.14,1.7264
19461,20.077,5.2727,0,8.0722e-05,806.66,2.6819e-05,0.094881,2.6341e-05,-3.4956,-8.0779e-05,-808.35,1.7396
19462,19.986,5.2727,0.05,5.8692e-07,5.8651,4.5068e-07,3.3862,8.6589e-13,5.5853e-06,-4.5068e-07,-3.3862,1.7265
19463,19.986,5.5455,0,8.2271e-05,822.14,2.7524e-05,4.4807,2.6926e-05,-0.012836,-8.2194e-05,-819.9,1.7262
19464,20.077,5.4545,0,8.0678e-05,806.22,2.6822e-05,2.3554,2.6504e-05,-0.03504,-8.0638e-05,-805.06,1.7394
19465,19.986,5.4545,0.05,5.4759e-07,5.4721,4.2048e-07,3.1593,7.9111e-13,6.2465e-06,-4.2048e-07,-3.1593,1.7263
19466,19.986,5.7273,0,8.2333e-05,822.76,2.7874e-05,8.4347,2.6751e-05,-0.0059475,-8.2187e-05,-818.52,1.726
19467,20.077,5.6364,0,8.0681e-05,806.25,2.717e-05,6.5288,2.63e-05,-0.0018339,-8.0568e-05,-802.97,1.7392
19468,19.986,5.6364,0.05,4.9473e-07,4.9439,3.7989e-07,2.8543,8.4713e-13,7.8266e-06,-3.7989e-07,-2.8543,1.7261
19469,20.077,5.8182,0,8.0894e-05,808.38,2.7548e-05,10.221,2.6187e-05,-0.0033955,-8.0715e-05,-803.22,1.739
19470,19.986,5.8182,0.05,9.3479e-08,0.93414,7.1779e-08,0.53932,1.0083e-12,5.9441e-06,-7.1781e-08,-0.53934,1.7258
19471,19.986,5.9091,0,8.1905e-05,818.49,2.7614e-05,7.0372,2.6682e-05,0.033949,-8.1783e-05,-814.93,1.7257
19472,20.168,0.27273,0,7.9225e-05,791.7,2.6829e-05,8.2087,2.5736e-05,-0.0022732,-7.9082e-05,-787.56,1.7522
19473,20.26,0.18182,0,7.7724e-05,776.7,2.6498e-05,10.175,2.5143e-05,-0.0024148,-7.7546e-05,-771.57,1.7653
19474,20.168,0.18182,0.05,1.4171e-07,1.4161,1.0882e-07,0.81761,-1.1186e-12,2.866e-06,-1.0881e-07,-0.81757,1.7521
19475,20.168,0.090909,0,7.886e-05,788.06,2.6607e-05,7.0053,2.5679e-05,0.028502,-7.8738e-05,-784.52,1.752
19476,20.168,0.45455,0,7.9081e-05,790.27,2.6459e-05,4.3377,2.5882e-05,0.00080033,-7.9006e-05,-788.09,1.7524
19477,20.26,0.36364,0,7.7442e-05,773.89,2.6093e-05,6.4355,2.5237e-05,0.0037113,-7.733e-05,-770.65,1.7655
19478,20.168,0.36364,0.05,5.3738e-07,5.3701,4.1264e-07,3.1004,-1.5261e-12,7.538e-07,-4.1264e-07,-3.1004,1.7523
19479,20.168,0.63636,0,7.9058e-05,790.03,2.6138e-05,0.21519,2.6027e-05,-0.61791,-7.9065e-05,-790.23,1.7526
19480,20.26,0.54545,0,7.7368e-05,773.14,2.5744e-05,2.5436,2.5405e-05,-0.0040249,-7.7324e-05,-771.87,1.7657
19481,20.168,0.54545,0.05,5.8399e-07,5.8359,4.4844e-07,3.3694,-1.2311e-12,4.9473e-06,-4.4843e-07,-3.3693,1.7525
19482,20.168,0.81818,0,7.907e-05,790.15,2.642e-05,0.060717,2.5545e-05,-6.5193,-7.9178e-05,-793.36,1.7528
19483,20.26,0.72727,0,7.7334e-05,772.81,2.5657e-05,0.071139,2.5296e-05,-2.6388,-7.7377e-05,-774.09,1.7659
19484,20.168,0.72727,0.05,6.1514e-07,6.1472,4.7235e-07,3.5491,-1.1101e-12,5.6175e-06,-4.7235e-07,-3.549,1.7527
19485,20.168,1,0,7.9108e-05,790.53,2.6788e-05,0.054438,2.4951e-05,-13.753,-7.9332e-05,-797.29,1.753
19486,20.26,0.90909,0,7.7327e-05,772.73,2.5961e-05,0.051944,2.4772e-05,-8.8821,-7.7473e-05,-777.11,1.766
19487,20.168,0.90909,0.05,6.5079e-07,6.5034,4.9973e-07,3.7547,-1.0843e-12,5.072e-06,-4.9972e-07,-3.7547,1.7529
19488,20.168,1.1818,0,7.9167e-05,791.13,2.721e-05,0.052605,2.4281e-05,-21.955,-7.9517e-05,-801.85,1.7531
19489,20.26,1.0909,0,7.734e-05,772.86,2.6321e-05,0.049729,2.4167e-05,-16.132,-7.7601e-05,-780.78,1.7662
19490,20.168,1.0909,0.05,6.9033e-07,6.8985,5.3009e-07,3.9829,-7.8839e-13,7.7562e-06,-5.3009e-07,-3.9828,1.753
19491,20.168,1.3636,0,7.9245e-05,791.91,2.7668e-05,0.051202,2.3556e-05,-30.842,-7.9724e-05,-806.85,1.7533
19492,20.26,1.2727,0,7.737e-05,773.17,2.6723e-05,0.048836,2.3503e-05,-24.144,-7.7752e-05,-784.93,1.7663
19493,20.168,1.2727,0.05,7.3192e-07,7.3141,5.6203e-07,4.2229,-9.6063e-13,7.0377e-06,-5.6202e-07,-4.2228,1.7532
19494,20.168,1.5455,0,7.9338e-05,792.83,2.8146e-05,0.049602,2.2804e-05,-40.09,-7.9943e-05,-812.09,1.7534
19495,20.26,1.4545,0,7.7415e-05,773.62,2.7151e-05,0.047776,2.28e-05,-32.64,-7.7918e-05,-789.39,1.7664
19496,20.168,1.4545,0.05,7.7381e-07,7.7328,5.942e-07,4.4646,-8.6023e-13,7.3543e-06,-5.9419e-07,-4.4645,1.7533
19497,20.168,1.7273,0,7.9443e-05,793.88,2.8626e-05,0.047808,2.2052e-05,-49.348,-8.0166e-05,-817.38,1.7535
19498,20.26,1.6364,0,7.7472e-05,774.19,2.7589e-05,0.046402,2.2084e-05,-41.309,-7.8091e-05,-793.99,1.7666
19499,20.168,1.6364,0.05,8.145e-07,8.1394,6.2544e-07,4.6993,-8.1207e-13,6.5738e-06,-6.2544e-07,-4.6993,1.7534
19500,20.168,1.9091,0,7.9555e-05,795,2.909e-05,0.04597,2.133e-05,-58.257,-8.0385e-05,-822.5,1.7536
19501,20.26,1.8182,0,7.7539e-05,774.85,2.802e-05,0.044824,2.1383e-05,-49.82,-7.8265e-05,-798.53,1.7666
19502,20.168,1.8182,0.05,8.5272e-07,8.5213,6.5478e-07,4.9198,-8.8343e-13,5.4145e-06,-6.5478e-07,-4.9197,1.7535
19503,20.168,2.0909,0,7.9668e-05,796.14,2.9518e-05,0.044258,2.0666e-05,-66.465,-8.059e-05,-827.26,1.7536
19504,20.26,2,0,7.7611e-05,775.57,2.8427e-05,0.043215,2.0723e-05,-57.843,-7.8432e-05,-802.85,1.7667
19505,20.168,2,0.05,8.8741e-07,8.868,6.8142e-07,5.1199,-1.1031e-12,6.0408e-06,-6.8142e-07,-5.1199,1.7536
19506,20.168,2.2727,0,7.9777e-05,797.22,2.9894e-05,0.042803,2.0085e-05,-73.653,-8.0773e-05,-831.46,1.7537
19507,20.26,2.1818,0,7.7684e-05,776.3,2.8794e-05,0.041736,2.0129e-05,-65.063,-7.8585e-05,-806.76,1.7668
19508,20.168,2.1818,0.05,9.1771e-07,9.1707,7.0469e-07,5.2947,-9.1284e-13,5.6385e-06,-7.0468e-07,-5.2947,1.7536
19509,20.168,2.4545,0,7.9872e-05,798.17,3.0203e-05,0.041678,1.9611e-05,-79.542,-8.0927e-05,-834.94,1.7537
19510,20.26,2.3636,0,7.7753e-05,776.99,2.9107e-05,0.040501,1.9626e-05,-71.198,-7.8718e-05,-810.11,1.7668
19511,20.168,2.3636,0.05,9.4289e-07,9.4224,7.2402e-07,5.44,-1.0714e-12,6.653e-06,-7.2402e-07,-5.44,1.7537
19512,20.168,2.6364,0,7.9948e-05,798.92,3.0433e-05,0.0409,1.926e-05,-83.909,-8.1043e-05,-837.54,1.7538
19513,20.26,2.5455,0,7.7811e-05,777.57,2.9354e-05,0.03957,1.9232e-05,-76.014,-7.8824e-05,-812.77,1.7669
19514,20.168,2.5455,0.05,9.6235e-07,9.6169,7.3897e-07,5.5523,-6.0238e-13,5.8026e-06,-7.3896e-07,-5.5523,1.7537
19515,20.168,2.8182,0,7.9996e-05,799.4,3.0575e-05,0.040454,1.9044e-05,-86.595,-8.1115e-05,-839.15,1.7538
19516,20.26,2.7273,0,7.7854e-05,778,2.9524e-05,0.03896,1.8961e-05,-79.326,-7.8898e-05,-814.6,1.7669
19517,20.168,2.7273,0.05,9.7561e-07,9.7494,7.4915e-07,5.6288,-8.7835e-13,4.5658e-06,-7.4915e-07,-5.6288,1.7538
19518,20.168,3,0,8.0012e-05,799.57,3.0623e-05,0.04031,1.8972e-05,-87.501,-8.114e-05,-839.7,1.7538
19519,20.26,2.9091,0,7.7876e-05,778.23,2.9611e-05,0.038661,1.8823e-05,-81.014,-7.8936e-05,-815.54,1.7669
19520,20.168,2.9091,0.05,9.8233e-07,9.8166,7.5431e-07,5.6676,-7.4014e-13,4.1377e-06,-7.5431e-07,-5.6676,1.7538
19521,20.168,3.1818,0,7.9996e-05,799.4,3.0575e-05,0.040455,1.9044e-05,-86.595,-8.1115e-05,-839.15,1.7538
19522,20.26,3.0909,0,7.7876e-05,778.23,2.9611e-05,0.038661,1.8823e-05,-81.014,-7.8936e-05,-815.54,1.7669
19523,20.168,3.0909,0.05,9.8233e-07,9.8166,7.5431e-07,5.6676,-8.5351e-13,3.4818e-06,-7.5431e-07,-5.6676,1.7538
19524,20.168,3.3636,0,7.9948e-05,798.92,3.0433e-05,0.040902,1.926e-05,-83.909,-8.1043e-05,-837.54,1.7538
19525,20.26,3.2727,0,7.7854e-05,778,2.9524e-05,0.03896,1.8961e-05,-79.326,-7.8898e-05,-814.6,1.7669
19526,20.168,3.2727,0.05,9.7561e-07,9.7494,7.4915e-07,5.6288,-7.3525e-13,4.7593e-06,-7.4915e-07,-5.6288,1.7538
19527,20.168,3.5455,0,7.9872e-05,798.17,3.0203e-05,0.041678,1.9611e-05,-79.542,-8.0927e-05,-834.94,1.7537
19528,20.26,3.4545,0,7.7811e-05,777.57,2.9354e-05,0.03957,1.9232e-05,-76.014,-7.8824e-05,-812.77,1.7669
19529,20.168,3.4545,0.05,9.6235e-07,9.6169,7.3897e-07,5.5523,-5.9294e-13,2.4407e-06,-7.3897e-07,-5.5523,1.7537
19530,20.168,3.7273,0,7.9777e-05,797.22,2.9894e-05,0.042802,2.0085e-05,-73.653,-8.0773e-05,-831.46,1.7537
19531,20.26,3.6364,0,7.7753e-05,776.99,2.9107e-05,0.0405,1.9626e-05,-71.198,-7.8718e-05,-810.11,1.7668
19532,20.168,3.6364,0.05,9.4289e-07,9.4224,7.2402e-07,5.44,-3.8017e-13,4.1387e-06,-7.2402e-07,-5.44,1.7537
19533,20.168,3.9091,0,7.9668e-05,796.14,2.9518e-05,0.044257,2.0666e-05,-66.465,-8.059e-05,-827.26,1.7536
19534,20.26,3.8182,0,7.7684e-05,776.3,2.8794e-05,0.041736,2.0129e-05,-65.062,-7.8585e-05,-806.76,1.7668
19535,20.168,3.8182,0.05,9.1771e-07,9.1707,7.0469e-07,5.2947,-3.5926e-13,4.5804e-06,-7.0468e-07,-5.2947,1.7536
19536,20.168,4.0909,0,7.9555e-05,795,2.909e-05,0.04597,2.133e-05,-58.257,-8.0385e-05,-822.5,1.7536
19537,20.26,4,0,7.7611e-05,775.57,2.8427e-05,0.043214,2.0723e-05,-57.842,-7.8432e-05,-802.85,1.7667
19538,20.168,4,0.05,8.8741e-07,8.868,6.8142e-07,5.1199,-2.0456e-13,4.3263e-06,-6.8142e-07,-5.1199,1.7536
19539,20.168,4.2727,0,7.9443e-05,793.88,2.8626e-05,0.047808,2.2052e-05,-49.348,-8.0166e-05,-817.38,1.7535
19540,20.26,4.1818,0,7.7539e-05,774.85,2.802e-05,0.044824,2.1383e-05,-49.82,-7.8265e-05,-798.53,1.7666
19541,20.168,4.1818,0.05,8.5272e-07,8.5213,6.5478e-07,4.9198,-4.3225e-14,4.2856e-06,-6.5478e-07,-4.9198,1.7535
19542,20.168,4.4545,0,7.9338e-05,792.83,2.8146e-05,0.049601,2.2804e-05,-40.09,-7.9943e-05,-812.09,1.7534
19543,20.26,4.3636,0,7.7472e-05,774.19,2.7589e-05,0.046402,2.2084e-05,-41.309,-7.8091e-05,-793.99,1.7666
19544,20.168,4.3636,0.05,8.145e-07,8.1394,6.2544e-07,4.6993,2.3646e-13,5.6007e-06,-6.2544e-07,-4.6993,1.7534
19545,20.168,4.6364,0,7.9245e-05,791.91,2.7668e-05,0.051202,2.3556e-05,-30.842,-7.9724e-05,-806.85,1.7533
19546,20.26,4.5455,0,7.7415e-05,773.62,2.7151e-05,0.047775,2.28e-05,-32.64,-7.7918e-05,-789.4,1.7664
19547,20.168,4.5455,0.05,7.7381e-07,7.7328,5.9419e-07,4.4645,6.0586e-13,5.4784e-06,-5.9419e-07,-4.4645,1.7533
19548,20.168,4.8182,0,7.9167e-05,791.13,2.721e-05,0.052606,2.4281e-05,-21.955,-7.9517e-05,-801.85,1.7531
19549,20.26,4.7273,0,7.737e-05,773.17,2.6723e-05,0.048837,2.3503e-05,-24.144,-7.7752e-05,-784.93,1.7663
19550,20.168,4.7273,0.05,7.3192e-07,7.3141,5.6202e-07,4.2228,4.1068e-13,6.3721e-06,-5.6202e-07,-4.2228,1.7532
19551,20.168,5,0,7.9108e-05,790.53,2.6788e-05,0.054438,2.4951e-05,-13.753,-7.9332e-05,-797.29,1.753
19552,20.26,4.9091,0,7.734e-05,772.86,2.6321e-05,0.049729,2.4167e-05,-16.132,-7.7601e-05,-780.78,1.7662
19553,20.168,4.9091,0.05,6.9033e-07,6.8985,5.3009e-07,3.9829,5.2944e-13,7.4173e-06,-5.3009e-07,-3.9829,1.753
19554,20.168,5.1818,0,7.907e-05,790.15,2.642e-05,0.060716,2.5545e-05,-6.5193,-7.9178e-05,-793.36,1.7528
19555,20.26,5.0909,0,7.7327e-05,772.73,2.5961e-05,0.051944,2.4772e-05,-8.8821,-7.7473e-05,-777.11,1.766
19556,20.168,5.0909,0.05,6.5079e-07,6.5034,4.9972e-07,3.7547,5.4483e-13,5.2558e-06,-4.9972e-07,-3.7547,1.7529
19557,20.168,5.3636,0,7.9058e-05,790.03,2.6138e-05,0.2152,2.6027e-05,-0.6179,-7.9065e-05,-790.23,1.7526
19558,20.26,5.2727,0,7.7334e-05,772.81,2.5657e-05,0.071139,2.5296e-05,-2.6387,-7.7377e-05,-774.09,1.7659
19559,20.168,5.2727,0.05,6.1514e-07,6.1472,4.7235e-07,3.5491,8.1665e-13,7.8409e-06,-4.7235e-07,-3.5491,1.7527
19560,20.168,5.5455,0,7.9081e-05,790.27,2.6459e-05,4.3377,2.5882e-05,0.00079905,-7.9006e-05,-788.09,1.7524
19561,20.26,5.4545,0,7.7368e-05,773.14,2.5744e-05,2.5436,2.5405e-05,-0.0040266,-7.7324e-05,-771.87,1.7657
19562,20.168,5.4545,0.05,5.8399e-07,5.8359,4.4844e-07,3.3694,7.2344e-13,8.0645e-06,-4.4844e-07,-3.3694,1.7525
19563,20.168,5.7273,0,7.9225e-05,791.7,2.6829e-05,8.2087,2.5736e-05,-0.0022734,-7.9082e-05,-787.56,1.7522
19564,20.26,5.6364,0,7.7442e-05,773.89,2.6093e-05,6.4355,2.5237e-05,0.0037107,-7.733e-05,-770.65,1.7655
19565,20.168,5.6364,0.05,5.3738e-07,5.3701,4.1264e-07,3.1004,8.6672e-13,8.5237e-06,-4.1264e-07,-3.1004,1.7523
19566,20.26,5.8182,0,7.7724e-05,776.7,2.6498e-05,10.175,2.5143e-05,-0.0024141,-7.7546e-05,-771.57,1.7653
19567,20.168,5.8182,0.05,1.4171e-07,1.4161,1.0881e-07,0.81759,8.9528e-13,5.2915e-06,-1.0881e-07,-0.81759,1.7521
19568,20.168,5.9091,0,7.886e-05,788.06,2.6607e-05,7.0053,2.5679e-05,0.028504,-7.8739e-05,-784.52,1.752
19569,20.351,0.27273,0,7.5923e-05,758.71,2.5746e-05,8.2881,2.4643e-05,-6.198e-05,-7.5779e-05,-754.53,1.7785
19570,20.442,0.18182,0,7.4375e-05,743.23,2.5408e-05,10.363,2.4028e-05,-0.0016767,-7.4193e-05,-738,1.7916
19571,20.351,0.18182,0.05,1.7961e-07,1.7948,1.3792e-07,1.0363,-1.1052e-12,4.1225e-06,-1.3791e-07,-1.0362,1.7784
19572,20.351,0.090909,0,7.5599e-05,755.47,2.5541e-05,7.1187,2.4596e-05,0.023433,-7.5475e-05,-751.87,1.7783
19573,20.351,0.45455,0,7.5721e-05,756.69,2.5371e-05,4.5876,2.4761e-05,0.0087352,-7.5642e-05,-754.38,1.7787
19574,20.442,0.36364,0,7.4042e-05,739.91,2.4991e-05,6.6794,2.4103e-05,0.0061271,-7.3926e-05,-736.55,1.7918
19575,20.351,0.36364,0.05,5.7088e-07,5.7048,4.3836e-07,3.2937,-8.7505e-13,4.3639e-06,-4.3836e-07,-3.2937,1.7786
19576,20.351,0.63636,0,7.5637e-05,755.85,2.5003e-05,0.44301,2.4929e-05,-0.1074,-7.5632e-05,-755.68,1.7789
19577,20.442,0.54545,0,7.392e-05,738.69,2.4655e-05,3.1415,2.4239e-05,0.011736,-7.3866e-05,-737.11,1.792
19578,20.351,0.54545,0.05,6.1282e-07,6.124,4.7057e-07,3.5357,-9.8268e-13,5.1692e-06,-4.7057e-07,-3.5357,1.7788
19579,20.351,0.81818,0,7.5584e-05,755.32,2.5195e-05,0.047686,2.452e-05,-5.0228,-7.5668e-05,-757.8,1.7791
19580,20.442,0.72727,0,7.3835e-05,737.84,2.4439e-05,0.061841,2.4247e-05,-1.3861,-7.3858e-05,-738.51,1.7922
19581,20.351,0.72727,0.05,6.3774e-07,6.373,4.897e-07,3.6795,-1.199e-12,3.9075e-06,-4.897e-07,-3.6794,1.779
19582,20.351,1,0,7.5552e-05,755,2.5493e-05,0.044976,2.3985e-05,-11.291,-7.5737e-05,-760.56,1.7793
19583,20.442,0.90909,0,7.3773e-05,737.22,2.4683e-05,0.042575,2.3776e-05,-6.7723,-7.3885e-05,-740.56,1.7923
19584,20.351,0.90909,0.05,6.6603e-07,6.6557,5.1143e-07,3.8427,-1.0809e-12,5.9124e-06,-5.1143e-07,-3.8426,1.7792
19585,20.351,1.1818,0,7.5537e-05,754.85,2.5834e-05,0.044954,2.3386e-05,-18.348,-7.5831e-05,-763.83,1.7794
19586,20.442,1.0909,0,7.3727e-05,736.77,2.4974e-05,0.042371,2.324e-05,-12.98,-7.3939e-05,-743.15,1.7925
19587,20.351,1.0909,0.05,6.9761e-07,6.9713,5.3568e-07,4.0249,-4.3667e-13,8.5826e-06,-5.3568e-07,-4.0249,1.7793
19588,20.351,1.3636,0,7.5535e-05,754.83,2.6205e-05,0.044764,2.2744e-05,-25.965,-7.5942e-05,-767.45,1.7795
19589,20.442,1.2727,0,7.3695e-05,736.44,2.5298e-05,0.042721,2.2655e-05,-19.81,-7.4011e-05,-746.13,1.7926
19590,20.351,1.2727,0.05,7.3106e-07,7.3056,5.6137e-07,4.2179,-8.3194e-13,9.3064e-06,-5.6136e-07,-4.2178,1.7795
19591,20.351,1.5455,0,7.5545e-05,754.93,2.6593e-05,0.044084,2.2078e-05,-33.877,-7.6063e-05,-771.27,1.7796
19592,20.442,1.4545,0,7.3674e-05,736.23,2.5643e-05,0.042578,2.2039e-05,-27.037,-7.4096e-05,-749.35,1.7927
19593,20.351,1.4545,0.05,7.6496e-07,7.6444,5.874e-07,4.4135,-1.0676e-12,9.2415e-06,-5.874e-07,-4.4134,1.7796
19594,20.351,1.7273,0,7.5565e-05,755.13,2.6982e-05,0.043008,2.1413e-05,-41.794,-7.6188e-05,-775.13,1.7797
19595,20.442,1.6364,0,7.3662e-05,736.12,2.5996e-05,0.04193,2.1412e-05,-34.404,-7.4187e-05,-752.69,1.7929
19596,20.351,1.6364,0.05,7.9805e-07,7.975,6.128e-07,4.6044,-8.7303e-13,8.5982e-06,-6.128e-07,-4.6043,1.7797
19597,20.351,1.9091,0,7.5592e-05,755.4,2.7357e-05,0.041709,2.0774e-05,-49.416,-7.6311e-05,-778.87,1.7798
19598,20.442,1.8182,0,7.3659e-05,736.08,2.6344e-05,0.04092,2.0797e-05,-41.64,-7.4278e-05,-756,1.7929
19599,20.351,1.8182,0.05,8.2922e-07,8.2865,6.3674e-07,4.7842,-7.7562e-13,7.4838e-06,-6.3674e-07,-4.7842,1.7798
19600,20.351,2.0909,0,7.5625e-05,755.73,2.7703e-05,0.040368,2.0185e-05,-56.447,-7.6426e-05,-782.34,1.7799
19601,20.442,2,0,7.3663e-05,736.12,2.6673e-05,0.039735,2.0217e-05,-48.468,-7.4367e-05,-759.14,1.793
19602,20.351,2,0.05,8.5757e-07,8.5698,6.5851e-07,4.9478,-8.1121e-13,8.6187e-06,-6.5851e-07,-4.9478,1.7798
19603,20.351,2.2727,0,7.5659e-05,756.07,2.8008e-05,0.039135,1.9669e-05,-62.614,-7.6528e-05,-785.41,1.78
19604,20.442,2.1818,0,7.3672e-05,736.21,2.697e-05,0.038543,1.9696e-05,-54.621,-7.4448e-05,-761.98,1.7931
19605,20.351,2.1818,0.05,8.8235e-07,8.8174,6.7754e-07,5.0908,-8.3676e-13,8.0874e-06,-6.7753e-07,-5.0907,1.7799
19606,20.351,2.4545,0,7.5691e-05,756.39,2.8258e-05,0.038113,1.9246e-05,-67.675,-7.6614e-05,-787.93,1.78
19607,20.442,2.3636,0,7.3684e-05,736.33,2.7223e-05,0.037477,1.9252e-05,-59.859,-7.4518e-05,-764.41,1.7931
19608,20.351,2.3636,0.05,9.0293e-07,9.023,6.9334e-07,5.2095,-5.3926e-13,8.8293e-06,-6.9334e-07,-5.2094,1.78
19609,20.351,2.6364,0,7.5718e-05,756.66,2.8445e-05,0.037362,1.8932e-05,-71.434,-7.6679e-05,-789.82,1.78
19610,20.442,2.5455,0,7.3696e-05,736.45,2.7423e-05,0.036624,1.8903e-05,-63.976,-7.4574e-05,-766.33,1.7932
19611,20.351,2.5455,0.05,9.1881e-07,9.1818,7.0554e-07,5.3011,-7.029e-13,8.661e-06,-7.0553e-07,-5.3011,1.78
19612,20.351,2.8182,0,7.5736e-05,756.83,2.856e-05,0.036907,1.8739e-05,-73.749,-7.6719e-05,-790.99,1.78
19613,20.442,2.7273,0,7.3705e-05,736.54,2.756e-05,0.036037,1.8663e-05,-66.813,-7.4613e-05,-767.65,1.7932
19614,20.351,2.7273,0.05,9.2962e-07,9.2898,7.1384e-07,5.3635,-9.5358e-13,6.9586e-06,-7.1383e-07,-5.3634,1.78
19615,20.351,3,0,7.5742e-05,756.89,2.8598e-05,0.036755,1.8674e-05,-74.53,-7.6733e-05,-791.38,1.7801
19616,20.442,2.9091,0,7.3711e-05,736.6,2.763e-05,0.035739,1.8541e-05,-68.259,-7.4633e-05,-768.33,1.7932
19617,20.351,2.9091,0.05,9.3509e-07,9.3445,7.1804e-07,5.3951,-5.4009e-13,6.7862e-06,-7.1804e-07,-5.395,1.78
19618,20.351,3.1818,0,7.5736e-05,756.83,2.856e-05,0.036906,1.8739e-05,-73.749,-7.6719e-05,-790.99,1.78
19619,20.442,3.0909,0,7.3711e-05,736.6,2.763e-05,0.035738,1.8541e-05,-68.259,-7.4633e-05,-768.33,1.7932
19620,20.351,3.0909,0.05,9.3509e-07,9.3445,7.1804e-07,5.3951,-8.2659e-13,5.5874e-06,-7.1804e-07,-5.395,1.78
19621,20.351,3.3636,0,7.5718e-05,756.66,2.8445e-05,0.037361,1.8932e-05,-71.434,-7.6679e-05,-789.82,1.78
19622,20.442,3.2727,0,7.3705e-05,736.54,2.756e-05,0.036037,1.8663e-05,-66.813,-7.4613e-05,-767.65,1.7932
19623,20.351,3.2727,0.05,9.2962e-07,9.2898,7.1384e-07,5.3635,-4.3332e-13,6.2825e-06,-7.1383e-07,-5.3635,1.78
19624,20.351,3.5455,0,7.5691e-05,756.39,2.8258e-05,0.038112,1.9246e-05,-67.675,-7.6614e-05,-787.93,1.78
19625,20.442,3.4545,0,7.3696e-05,736.45,2.7423e-05,0.036624,1.8903e-05,-63.976,-7.4574e-05,-766.33,1.7932
19626,20.351,3.4545,0.05,9.1881e-07,9.1818,7.0554e-07,5.3011,-6.8364e-13,5.292e-06,-7.0553e-07,-5.3011,1.78
19627,20.351,3.7273,0,7.5659e-05,756.07,2.8008e-05,0.039135,1.9669e-05,-62.614,-7.6528e-05,-785.41,1.78
19628,20.442,3.6364,0,7.3684e-05,736.33,2.7223e-05,0.037476,1.9252e-05,-59.859,-7.4518e-05,-764.41,1.7931
19629,20.351,3.6364,0.05,9.0293e-07,9.023,6.9334e-07,5.2095,-4.5781e-13,6.6601e-06,-6.9334e-07,-5.2094,1.78
19630,20.351,3.9091,0,7.5625e-05,755.73,2.7703e-05,0.040369,2.0185e-05,-56.447,-7.6426e-05,-782.34,1.7799
19631,20.442,3.8182,0,7.3672e-05,736.21,2.697e-05,0.038544,1.9696e-05,-54.621,-7.4448e-05,-761.98,1.7931
19632,20.351,3.8182,0.05,8.8235e-07,8.8174,6.7754e-07,5.0907,-1.6866e-13,7.335e-06,-6.7753e-07,-5.0907,1.7799
19633,20.351,4.0909,0,7.5592e-05,755.4,2.7357e-05,0.041709,2.0774e-05,-49.416,-7.6311e-05,-778.87,1.7798
19634,20.442,4,0,7.3663e-05,736.12,2.6673e-05,0.039735,2.0217e-05,-48.467,-7.4367e-05,-759.14,1.793
19635,20.351,4,0.05,8.5757e-07,8.5698,6.5851e-07,4.9478,4.1241e-15,5.9951e-06,-6.5851e-07,-4.9478,1.7798
19636,20.351,4.2727,0,7.5565e-05,755.13,2.6982e-05,0.043008,2.1413e-05,-41.794,-7.6188e-05,-775.13,1.7797
19637,20.442,4.1818,0,7.3659e-05,736.08,2.6344e-05,0.04092,2.0797e-05,-41.64,-7.4278e-05,-756,1.7929
19638,20.351,4.1818,0.05,8.2922e-07,8.2865,6.3674e-07,4.7842,-2.8499e-13,6.4561e-06,-6.3674e-07,-4.7842,1.7798
19639,20.351,4.4545,0,7.5545e-05,754.93,2.6593e-05,0.044084,2.2078e-05,-33.877,-7.6063e-05,-771.27,1.7796
19640,20.442,4.3636,0,7.3662e-05,736.12,2.5996e-05,0.041929,2.1412e-05,-34.404,-7.4187e-05,-752.69,1.7929
19641,20.351,4.3636,0.05,7.9805e-07,7.975,6.128e-07,4.6044,1.9031e-13,6.844e-06,-6.128e-07,-4.6043,1.7797
19642,20.351,4.6364,0,7.5535e-05,754.83,2.6205e-05,0.044764,2.2744e-05,-25.965,-7.5942e-05,-767.45,1.7795
19643,20.442,4.5455,0,7.3674e-05,736.23,2.5643e-05,0.042578,2.2039e-05,-27.036,-7.4096e-05,-749.36,1.7927
19644,20.351,4.5455,0.05,7.6496e-07,7.6444,5.874e-07,4.4135,7.0508e-13,6.9973e-06,-5.874e-07,-4.4135,1.7796
19645,20.351,4.8182,0,7.5537e-05,754.85,2.5834e-05,0.044954,2.3386e-05,-18.348,-7.5831e-05,-763.83,1.7794
19646,20.442,4.7273,0,7.3695e-05,736.44,2.5298e-05,0.042721,2.2655e-05,-19.81,-7.4011e-05,-746.13,1.7926
19647,20.351,4.7273,0.05,7.3106e-07,7.3056,5.6137e-07,4.2179,6.7342e-13,8.1016e-06,-5.6136e-07,-4.2179,1.7795
19648,20.351,5,0,7.5552e-05,755,2.5493e-05,0.044976,2.3985e-05,-11.291,-7.5737e-05,-760.56,1.7793
19649,20.442,4.9091,0,7.3727e-05,736.77,2.4974e-05,0.04237,2.324e-05,-12.98,-7.3939e-05,-743.15,1.7925
19650,20.351,4.9091,0.05,6.9761e-07,6.9713,5.3568e-07,4.0249,1.6375e-13,8.228e-06,-5.3568e-07,-4.0249,1.7793
19651,20.351,5.1818,0,7.5584e-05,755.32,2.5195e-05,0.047686,2.452e-05,-5.0228,-7.5668e-05,-757.8,1.7791
19652,20.442,5.0909,0,7.3773e-05,737.22,2.4683e-05,0.042574,2.3776e-05,-6.7723,-7.3885e-05,-740.56,1.7923
19653,20.351,5.0909,0.05,6.6603e-07,6.6557,5.1143e-07,3.8427,3.6347e-13,7.1971e-06,-5.1143e-07,-3.8427,1.7792
19654,20.351,5.3636,0,7.5637e-05,755.85,2.5003e-05,0.44302,2.4929e-05,-0.1074,-7.5632e-05,-755.68,1.7789
19655,20.442,5.2727,0,7.3835e-05,737.84,2.4439e-05,0.061843,2.4247e-05,-1.3861,-7.3858e-05,-738.51,1.7922
19656,20.351,5.2727,0.05,6.3774e-07,6.373,4.897e-07,3.6794,7.2694e-13,9.3204e-06,-4.897e-07,-3.6794,1.779
19657,20.351,5.5455,0,7.5721e-05,756.69,2.5371e-05,4.5876,2.4761e-05,0.0087341,-7.5642e-05,-754.38,1.7787
19658,20.442,5.4545,0,7.392e-05,738.69,2.4655e-05,3.1415,2.4239e-05,0.011735,-7.3866e-05,-737.11,1.792
19659,20.351,5.4545,0.05,6.1282e-07,6.124,4.7057e-07,3.5357,8.987e-13,8.8951e-06,-4.7057e-07,-3.5357,1.7788
19660,20.351,5.7273,0,7.5923e-05,758.71,2.5746e-05,8.288,2.4643e-05,-6.1724e-05,-7.5779e-05,-754.53,1.7785
19661,20.442,5.6364,0,7.4042e-05,739.91,2.4991e-05,6.6794,2.4103e-05,0.0061274,-7.3926e-05,-736.55,1.7918
19662,20.351,5.6364,0.05,5.7088e-07,5.7048,4.3836e-07,3.2937,8.1371e-13,8.9878e-06,-4.3836e-07,-3.2937,1.7786
19663,20.442,5.8182,0,7.4375e-05,743.23,2.5408e-05,10.363,2.4028e-05,-0.0016753,-7.4193e-05,-738,1.7916
19664,20.351,5.8182,0.05,1.7961e-07,1.7948,1.3791e-07,1.0362,8.8501e-13,7.5887e-06,-1.3791e-07,-1.0362,1.7784
19665,20.351,5.9091,0,7.5599e-05,755.47,2.5541e-05,7.1186,2.4596e-05,0.023435,-7.5475e-05,-751.87,1.7783
19666,20.533,0.27273,0,7.2475e-05,724.25,2.4637e-05,8.6336,2.3488e-05,0.00076602,-7.2324e-05,-719.89,1.8049
19667,20.625,0.18182,0,7.0888e-05,708.39,2.429e-05,10.752,2.2858e-05,-0.0012864,-7.0699e-05,-702.95,1.818
19668,20.533,0.18182,0.05,2.0925e-07,2.0911,1.6068e-07,1.2073,-9.2083e-13,2.7962e-06,-1.6068e-07,-1.2073,1.8048
19669,20.533,0.090909,0,7.217e-05,721.2,2.4429e-05,7.3572,2.3452e-05,0.01903,-7.2042e-05,-717.49,1.8047
19670,20.533,0.45455,0,7.2234e-05,721.84,2.4269e-05,5.1843,2.3581e-05,0.011578,-7.2144e-05,-719.23,1.8051
19671,20.625,0.36364,0,7.0522e-05,704.73,2.3874e-05,7.2176,2.2914e-05,0.0060119,-7.0396e-05,-701.09,1.8182
19672,20.533,0.36364,0.05,5.9694e-07,5.9653,4.5838e-07,3.4441,-9.3068e-13,2.4748e-06,-4.5838e-07,-3.4441,1.805
19673,20.533,0.63636,0,7.2111e-05,720.61,2.3917e-05,1.4445,2.3726e-05,0.0080741,-7.2086e-05,-719.89,1.8053
19674,20.625,0.54545,0,7.037e-05,703.22,2.3563e-05,4.0983,2.302e-05,0.016402,-7.0299e-05,-701.15,1.8184
19675,20.533,0.54545,0.05,6.3534e-07,6.349,4.8786e-07,3.6656,-8.4825e-13,4.9429e-06,-4.8786e-07,-3.6656,1.8052
19676,20.533,0.81818,0,7.2018e-05,719.68,2.3925e-05,0.03939,2.35e-05,-3.1554,-7.207e-05,-721.23,1.8054
19677,20.625,0.72727,0,7.0256e-05,702.07,2.3213e-05,0.31851,2.3166e-05,-0.036005,-7.0251e-05,-701.93,1.8185
19678,20.533,0.72727,0.05,6.5549e-07,6.5504,5.0334e-07,3.7819,-1.1429e-12,4.1173e-06,-5.0333e-07,-3.7818,1.8053
19679,20.533,1,0,7.1942e-05,718.93,2.4164e-05,0.038298,2.3028e-05,-8.493,-7.2082e-05,-723.12,1.8056
19680,20.625,0.90909,0,7.0162e-05,701.13,2.337e-05,0.036268,2.279e-05,-4.3219,-7.0234e-05,-703.27,1.8187
19681,20.533,0.90909,0.05,6.7807e-07,6.776,5.2068e-07,3.9122,-7.8822e-13,5.5329e-06,-5.2067e-07,-3.9121,1.8055
19682,20.533,1.1818,0,7.1881e-05,718.31,2.4437e-05,0.039425,2.2506e-05,-14.47,-7.2115e-05,-725.41,1.8057
19683,20.625,1.0909,0,7.0082e-05,700.34,2.3601e-05,0.037138,2.2327e-05,-9.537,-7.0239e-05,-705.04,1.8189
19684,20.533,1.0909,0.05,7.0337e-07,7.0289,5.401e-07,4.0582,-4.6613e-13,6.7898e-06,-5.401e-07,-4.0581,1.8057
19685,20.533,1.3636,0,7.183e-05,717.8,2.4735e-05,0.040074,2.1947e-05,-20.904,-7.2162e-05,-728,1.8059
19686,20.625,1.2727,0,7.0014e-05,699.66,2.3859e-05,0.038322,2.1824e-05,-15.258,-7.026e-05,-707.14,1.819
19687,20.533,1.2727,0.05,7.3031e-07,7.2981,5.6079e-07,4.2136,-1.0288e-12,4.9765e-06,-5.6079e-07,-4.2136,1.8058
19688,20.533,1.5455,0,7.1788e-05,717.38,2.5046e-05,0.040067,2.137e-05,-27.582,-7.2216e-05,-730.75,1.806
19689,20.625,1.4545,0,6.9954e-05,699.06,2.4135e-05,0.038845,2.1295e-05,-21.306,-7.0291e-05,-709.45,1.8191
19690,20.533,1.4545,0.05,7.5776e-07,7.5724,5.8187e-07,4.3719,-9.051e-13,5.548e-06,-5.8187e-07,-4.3719,1.8059
19691,20.533,1.7273,0,7.1754e-05,717.05,2.5359e-05,0.039541,2.0794e-05,-34.264,-7.2275e-05,-733.54,1.8061
19692,20.625,1.6364,0,6.9902e-05,698.54,2.4418e-05,0.038746,2.0757e-05,-27.474,-7.0328e-05,-711.85,1.8192
19693,20.533,1.6364,0.05,7.8467e-07,7.8413,6.0253e-07,4.5272,-1.0952e-12,5.8627e-06,-6.0253e-07,-4.5271,1.806
19694,20.533,1.9091,0,7.1728e-05,716.79,2.5661e-05,0.038679,2.0239e-05,-40.702,-7.2333e-05,-736.25,1.8061
19695,20.625,1.8182,0,6.9857e-05,698.09,2.4697e-05,0.038189,2.0229e-05,-33.537,-7.0366e-05,-714.23,1.8193
19696,20.533,1.8182,0.05,8.1011e-07,8.0955,6.2207e-07,4.674,-1.0028e-12,4.5868e-06,-6.2206e-07,-4.6739,1.8061
19697,20.533,2.0909,0,7.1709e-05,716.6,2.594e-05,0.037666,1.9727e-05,-46.649,-7.2388e-05,-738.76,1.8062
19698,20.625,2,0,6.9819e-05,697.71,2.4961e-05,0.037363,1.973e-05,-39.266,-7.0403e-05,-716.49,1.8194
19699,20.533,2,0.05,8.3331e-07,8.3273,6.3988e-07,4.8078,-1.0349e-12,5.5767e-06,-6.3988e-07,-4.8078,1.8062
19700,20.533,2.2727,0,7.1696e-05,716.47,2.6186e-05,0.036657,1.9277e-05,-51.872,-7.2437e-05,-740.97,1.8063
19701,20.625,2.1818,0,6.9789e-05,697.41,2.5199e-05,0.036435,1.928e-05,-44.437,-7.0438e-05,-718.54,1.8194
19702,20.533,2.1818,0.05,8.536e-07,8.5302,6.5546e-07,4.9249,-3.6117e-13,5.4407e-06,-6.5546e-07,-4.9249,1.8062
19703,20.533,2.4545,0,7.1688e-05,716.39,2.6388e-05,0.035773,1.8908e-05,-56.165,-7.2478e-05,-742.8,1.8063
19704,20.625,2.3636,0,6.9765e-05,697.17,2.5403e-05,0.035548,1.8897e-05,-48.847,-7.0467e-05,-720.29,1.8195
19705,20.533,2.3636,0.05,8.7047e-07,8.6987,6.6841e-07,5.0222,-9.2151e-13,5.5654e-06,-6.6841e-07,-5.0222,1.8063
19706,20.533,2.6364,0,7.1684e-05,716.34,2.6538e-05,0.035092,1.8633e-05,-59.359,-7.2508e-05,-744.16,1.8063
19707,20.625,2.5455,0,6.9749e-05,697,2.5563e-05,0.034803,1.8595e-05,-52.319,-7.049e-05,-721.67,1.8195
19708,20.533,2.5455,0.05,8.8349e-07,8.8288,6.7841e-07,5.0973,-8.4119e-13,5.3374e-06,-6.7841e-07,-5.0973,1.8063
19709,20.533,2.8182,0,7.1682e-05,716.32,2.663e-05,0.034667,1.8464e-05,-61.327,-7.2527e-05,-745,1.8064
19710,20.625,2.7273,0,6.9738e-05,696.9,2.5673e-05,0.034273,1.8387e-05,-54.714,-7.0506e-05,-722.62,1.8195
19711,20.533,2.7273,0.05,8.9234e-07,8.9173,6.8521e-07,5.1484,-5.7754e-13,4.4099e-06,-6.8521e-07,-5.1484,1.8063
19712,20.533,3,0,7.1681e-05,716.32,2.6662e-05,0.034522,1.8407e-05,-61.991,-7.2533e-05,-745.28,1.8064
19713,20.625,2.9091,0,6.9733e-05,696.84,2.573e-05,0.033998,1.828e-05,-55.936,-7.0515e-05,-723.11,1.8195
19714,20.533,2.9091,0.05,8.9682e-07,8.962,6.8865e-07,5.1743,-7.935e-13,3.256e-06,-6.8865e-07,-5.1742,1.8064
19715,20.533,3.1818,0,7.1682e-05,716.32,2.663e-05,0.034666,1.8464e-05,-61.327,-7.2527e-05,-745,1.8064
19716,20.625,3.0909,0,6.9733e-05,696.84,2.573e-05,0.033998,1.828e-05,-55.936,-7.0515e-05,-723.11,1.8195
19717,20.533,3.0909,0.05,8.9682e-07,8.962,6.8865e-07,5.1743,-3.4566e-13,2.9266e-06,-6.8865e-07,-5.1742,1.8064
19718,20.533,3.3636,0,7.1684e-05,716.34,2.6538e-05,0.035093,1.8633e-05,-59.359,-7.2508e-05,-744.16,1.8063
19719,20.625,3.2727,0,6.9738e-05,696.9,2.5673e-05,0.034273,1.8387e-05,-54.714,-7.0506e-05,-722.62,1.8195
19720,20.533,3.2727,0.05,8.9234e-07,8.9173,6.8521e-07,5.1484,-3.5596e-13,4.0034e-06,-6.8521e-07,-5.1484,1.8063
19721,20.533,3.5455,0,7.1688e-05,716.39,2.6388e-05,0.035773,1.8908e-05,-56.165,-7.2478e-05,-742.8,1.8063
19722,20.625,3.4545,0,6.9749e-05,697,2.5563e-05,0.034803,1.8595e-05,-52.319,-7.049e-05,-721.67,1.8195
19723,20.533,3.4545,0.05,8.8349e-07,8.8288,6.7841e-07,5.0973,-5.7641e-13,3.3441e-06,-6.7841e-07,-5.0973,1.8063
19724,20.533,3.7273,0,7.1696e-05,716.47,2.6186e-05,0.036657,1.9277e-05,-51.872,-7.2437e-05,-740.97,1.8063
19725,20.625,3.6364,0,6.9765e-05,697.17,2.5403e-05,0.035547,1.8897e-05,-48.847,-7.0467e-05,-720.29,1.8195
19726,20.533,3.6364,0.05,8.7047e-07,8.6987,6.6841e-07,5.0222,-6.9162e-14,3.9374e-06,-6.6841e-07,-5.0222,1.8063
19727,20.533,3.9091,0,7.1709e-05,716.6,2.594e-05,0.037666,1.9727e-05,-46.649,-7.2388e-05,-738.76,1.8062
19728,20.625,3.8182,0,6.9789e-05,697.41,2.5199e-05,0.036435,1.928e-05,-44.437,-7.0438e-05,-718.54,1.8194
19729,20.533,3.8182,0.05,8.5361e-07,8.5302,6.5546e-07,4.9249,-2.091e-13,4.9297e-06,-6.5546e-07,-4.9249,1.8062
19730,20.533,4.0909,0,7.1728e-05,716.79,2.5661e-05,0.038679,2.0239e-05,-40.702,-7.2333e-05,-736.25,1.8061
19731,20.625,4,0,6.9819e-05,697.71,2.4961e-05,0.037363,1.973e-05,-39.266,-7.0403e-05,-716.49,1.8194
19732,20.533,4,0.05,8.3331e-07,8.3273,6.3988e-07,4.8078,-8.0859e-14,4.7299e-06,-6.3988e-07,-4.8078,1.8062
19733,20.533,4.2727,0,7.1754e-05,717.05,2.5359e-05,0.039541,2.0794e-05,-34.264,-7.2275e-05,-733.54,1.8061
19734,20.625,4.1818,0,6.9857e-05,698.09,2.4697e-05,0.038189,2.0229e-05,-33.537,-7.0366e-05,-714.23,1.8193
19735,20.533,4.1818,0.05,8.1011e-07,8.0955,6.2207e-07,4.674,-1.0612e-13,1.989e-06,-6.2207e-07,-4.674,1.8061
19736,20.533,4.4545,0,7.1788e-05,717.38,2.5046e-05,0.040067,2.137e-05,-27.582,-7.2216e-05,-730.75,1.806
19737,20.625,4.3636,0,6.9902e-05,698.54,2.4418e-05,0.038746,2.0757e-05,-27.473,-7.0328e-05,-711.85,1.8192
19738,20.533,4.3636,0.05,7.8467e-07,7.8413,6.0253e-07,4.5272,-6.8846e-14,5.0239e-06,-6.0253e-07,-4.5272,1.806
19739,20.533,4.6364,0,7.183e-05,717.8,2.4735e-05,0.040074,2.1948e-05,-20.904,-7.2162e-05,-728,1.8059
19740,20.625,4.5455,0,6.9954e-05,699.06,2.4135e-05,0.038845,2.1295e-05,-21.306,-7.0291e-05,-709.45,1.8191
19741,20.533,4.5455,0.05,7.5776e-07,7.5724,5.8187e-07,4.3719,2.2904e-13,3.8459e-06,-5.8187e-07,-4.3719,1.8059
19742,20.533,4.8182,0,7.1881e-05,718.31,2.4437e-05,0.039424,2.2506e-05,-14.47,-7.2115e-05,-725.41,1.8057
19743,20.625,4.7273,0,7.0014e-05,699.66,2.3859e-05,0.038323,2.1824e-05,-15.258,-7.026e-05,-707.14,1.819
19744,20.533,4.7273,0.05,7.3031e-07,7.2981,5.6079e-07,4.2136,3.3339e-13,5.5494e-06,-5.6079e-07,-4.2136,1.8058
19745,20.533,5,0,7.1942e-05,718.93,2.4164e-05,0.038296,2.3028e-05,-8.493,-7.2082e-05,-723.12,1.8056
19746,20.625,4.9091,0,7.0082e-05,700.34,2.3601e-05,0.037137,2.2327e-05,-9.5369,-7.0239e-05,-705.04,1.8189
19747,20.533,4.9091,0.05,7.0337e-07,7.0289,5.401e-07,4.0581,2.7378e-13,6.3646e-06,-5.401e-07,-4.0581,1.8057
19748,20.533,5.1818,0,7.2018e-05,719.68,2.3925e-05,0.03939,2.35e-05,-3.1554,-7.207e-05,-721.23,1.8054
19749,20.625,5.0909,0,7.0162e-05,701.13,2.337e-05,0.036266,2.279e-05,-4.3219,-7.0234e-05,-703.27,1.8187
19750,20.533,5.0909,0.05,6.7807e-07,6.776,5.2068e-07,3.9122,4.1113e-13,5.0426e-06,-5.2068e-07,-3.9121,1.8055
19751,20.533,5.3636,0,7.2111e-05,720.61,2.3917e-05,1.4445,2.3726e-05,0.0080748,-7.2086e-05,-719.89,1.8053
19752,20.625,5.2727,0,7.0256e-05,702.07,2.3213e-05,0.31853,2.3166e-05,-0.036004,-7.0251e-05,-701.93,1.8185
19753,20.533,5.2727,0.05,6.5549e-07,6.5504,5.0334e-07,3.7819,5.6815e-13,6.7641e-06,-5.0334e-07,-3.7819,1.8053
19754,20.533,5.5455,0,7.2234e-05,721.84,2.4269e-05,5.1843,2.3581e-05,0.011579,-7.2144e-05,-719.23,1.8051
19755,20.625,5.4545,0,7.037e-05,703.22,2.3563e-05,4.0983,2.302e-05,0.016403,-7.0299e-05,-701.15,1.8184
19756,20.533,5.4545,0.05,6.3534e-07,6.349,4.8786e-07,3.6656,1.1531e-12,6.85e-06,-4.8786e-07,-3.6656,1.8052
19757,20.533,5.7273,0,7.2475e-05,724.25,2.4637e-05,8.6336,2.3488e-05,0.00076744,-7.2324e-05,-719.89,1.8049
19758,20.625,5.6364,0,7.0522e-05,704.73,2.3874e-05,7.2175,2.2914e-05,0.0060148,-7.0396e-05,-701.09,1.8182
19759,20.533,5.6364,0.05,5.9694e-07,5.9653,4.5838e-07,3.4441,8.2584e-13,7.8959e-06,-4.5838e-07,-3.4441,1.805
19760,20.625,5.8182,0,7.0888e-05,708.39,2.429e-05,10.752,2.2858e-05,-0.0012867,-7.0699e-05,-702.95,1.818
19761,20.533,5.8182,0.05,2.0925e-07,2.0911,1.6068e-07,1.2073,8.585e-13,6.3057e-06,-1.6068e-07,-1.2073,1.8048
19762,20.533,5.9091,0,7.217e-05,721.21,2.4429e-05,7.3572,2.3452e-05,0.019032,-7.2042e-05,-717.49,1.8047
19763,20.716,0.27273,0,6.8915e-05,688.67,2.351e-05,9.2081,2.2284e-05,0.00037612,-6.8753e-05,-684.02,1.8313
19764,20.807,0.18182,0,6.7297e-05,672.51,2.3151e-05,11.311,2.1645e-05,-0.0013094,-6.7098e-05,-666.78,1.8444
19765,20.716,0.18182,0.05,2.3258e-07,2.3242,1.7859e-07,1.3419,-6.5361e-13,4.1276e-06,-1.7859e-07,-1.3418,1.8312
19766,20.716,0.090909,0,6.8613e-05,685.66,2.3284e-05,7.7023,2.2261e-05,0.015405,-6.8479e-05,-681.77,1.8311
19767,20.716,0.45455,0,6.8651e-05,686.03,2.3162e-05,6.0824,2.2354e-05,0.011096,-6.8545e-05,-682.97,1.8315
19768,20.807,0.36364,0,6.6911e-05,668.64,2.2748e-05,8.0096,2.1683e-05,0.004116,-6.6771e-05,-664.6,1.8446
19769,20.716,0.36364,0.05,6.1704e-07,6.1661,4.7381e-07,3.56,-6.1176e-13,2.4678e-06,-4.7381e-07,-3.56,1.8314
19770,20.716,0.63636,0,6.8508e-05,684.61,2.2848e-05,2.8838,2.2466e-05,0.018569,-6.8458e-05,-683.15,1.8317
19771,20.807,0.54545,0,6.6746e-05,667,2.2473e-05,5.3639,2.1761e-05,0.016062,-6.6653e-05,-664.29,1.8448
19772,20.716,0.54545,0.05,6.527e-07,6.5225,5.012e-07,3.7658,-3.4132e-13,6.1875e-06,-5.0119e-07,-3.7658,1.8316
19773,20.716,0.81818,0,6.8394e-05,683.47,2.2621e-05,0.037662,2.2488e-05,-0.96287,-6.841e-05,-683.93,1.8318
19774,20.807,0.72727,0,6.6619e-05,665.73,2.2166e-05,2.1888,2.1878e-05,0.020318,-6.6582e-05,-664.63,1.845
19775,20.716,0.72727,0.05,6.6921e-07,6.6874,5.1387e-07,3.861,-5.127e-13,5.3321e-06,-5.1387e-07,-3.861,1.8317
19776,20.716,1,0,6.8297e-05,682.49,2.2808e-05,0.033666,2.2085e-05,-5.3978,-6.8386e-05,-685.16,1.832
19777,20.807,0.90909,0,6.6513e-05,664.67,2.203e-05,0.033359,2.1816e-05,-1.5706,-6.6539e-05,-665.43,1.8451
19778,20.716,0.90909,0.05,6.8736e-07,6.8688,5.2781e-07,3.9657,-1.1487e-12,1.4264e-06,-5.278e-07,-3.9657,1.8319
19779,20.716,1.1818,0,6.8211e-05,681.64,2.3023e-05,0.035509,2.1641e-05,-10.353,-6.8381e-05,-686.74,1.8321
19780,20.807,1.0909,0,6.6419e-05,663.73,2.2209e-05,0.033575,2.1429e-05,-5.834,-6.6516e-05,-666.61,1.8453
19781,20.716,1.0909,0.05,7.0773e-07,7.0724,5.4345e-07,4.0833,-1.0779e-12,1.8555e-06,-5.4345e-07,-4.0832,1.832
19782,20.716,1.3636,0,6.8134e-05,680.87,2.326e-05,0.036762,2.1168e-05,-15.682,-6.8387e-05,-688.56,1.8322
19783,20.807,1.2727,0,6.6335e-05,662.89,2.2412e-05,0.035303,2.1008e-05,-10.511,-6.6507e-05,-668.07,1.8454
19784,20.716,1.2727,0.05,7.295e-07,7.29,5.6017e-07,4.2089,-1.2069e-12,2.3882e-06,-5.6017e-07,-4.2089,1.8322
19785,20.716,1.5455,0,6.8065e-05,680.18,2.3507e-05,0.037267,2.0679e-05,-21.216,-6.84e-05,-690.52,1.8323
19786,20.807,1.4545,0,6.6257e-05,662.12,2.2629e-05,0.03632,2.0567e-05,-15.462,-6.6506e-05,-669.69,1.8455
19787,20.716,1.4545,0.05,7.5178e-07,7.5126,5.7728e-07,4.3374,-6.7403e-13,2.4611e-06,-5.7727e-07,-4.3374,1.8323
19788,20.716,1.7273,0,6.8002e-05,679.55,2.3756e-05,0.037176,2.019e-05,-26.76,-6.8417e-05,-692.52,1.8324
19789,20.807,1.6364,0,6.6186e-05,661.4,2.2853e-05,0.036649,2.0117e-05,-20.521,-6.651e-05,-671.4,1.8456
19790,20.716,1.6364,0.05,7.7371e-07,7.7317,5.9411e-07,4.4639,-6.1651e-13,2.649e-06,-5.9411e-07,-4.4639,1.8324
19791,20.716,1.9091,0,6.7947e-05,679,2.3997e-05,0.036678,1.9719e-05,-32.111,-6.8435e-05,-694.46,1.8325
19792,20.807,1.8182,0,6.612e-05,660.75,2.3074e-05,0.03646,1.9675e-05,-25.505,-6.6517e-05,-673.11,1.8457
19793,20.716,1.8182,0.05,7.9452e-07,7.9397,6.1009e-07,4.584,-7.7837e-13,1.6012e-06,-6.1009e-07,-4.584,1.8325
19794,20.716,2.0909,0,6.7898e-05,678.51,2.422e-05,0.035952,1.9283e-05,-37.062,-6.8452e-05,-696.27,1.8326
19795,20.807,2,0,6.6061e-05,660.16,2.3283e-05,0.035936,1.9256e-05,-30.226,-6.6523e-05,-674.73,1.8458
19796,20.716,2,0.05,8.1353e-07,8.1297,6.2469e-07,4.6937,-5.662e-13,1.965e-06,-6.2469e-07,-4.6937,1.8325
19797,20.716,2.2727,0,6.7858e-05,678.11,2.4416e-05,0.035157,1.8899e-05,-41.419,-6.8467e-05,-697.85,1.8326
19798,20.807,2.1818,0,6.601e-05,659.65,2.3473e-05,0.035245,1.8877e-05,-34.498,-6.6529e-05,-676.2,1.8458
19799,20.716,2.1818,0.05,8.3021e-07,8.2964,6.375e-07,4.7899,-5.6822e-13,1.8384e-06,-6.375e-07,-4.7899,1.8326
19800,20.716,2.4545,0,6.7827e-05,677.8,2.4578e-05,0.034417,1.8583e-05,-45.005,-6.8479e-05,-699.16,1.8327
19801,20.807,2.3636,0,6.5968e-05,659.22,2.3635e-05,0.034529,1.8553e-05,-38.147,-6.6533e-05,-677.45,1.8459
19802,20.716,2.3636,0.05,8.4408e-07,8.435,6.4815e-07,4.8699,-8.5393e-13,2.354e-06,-6.4815e-07,-4.8699,1.8326
19803,20.716,2.6364,0,6.7804e-05,677.57,2.4698e-05,0.033828,1.8348e-05,-47.677,-6.8488e-05,-700.13,1.8327
19804,20.807,2.5455,0,6.5935e-05,658.9,2.3762e-05,0.033902,1.8297e-05,-41.026,-6.6537e-05,-678.43,1.8459
19805,20.716,2.5455,0.05,8.5479e-07,8.542,6.5637e-07,4.9317,-5.1303e-13,1.9954e-06,-6.5637e-07,-4.9317,1.8327
19806,20.716,2.8182,0,6.779e-05,677.43,2.4772e-05,0.033451,1.8203e-05,-49.325,-6.8494e-05,-700.73,1.8327
19807,20.807,2.7273,0,6.5913e-05,658.68,2.385e-05,0.033441,1.8121e-05,-43.014,-6.6539e-05,-679.11,1.8459
19808,20.716,2.7273,0.05,8.6208e-07,8.6148,6.6197e-07,4.9738,-6.5761e-13,1.9217e-06,-6.6197e-07,-4.9738,1.8327
19809,20.716,3,0,6.7786e-05,677.39,2.4797e-05,0.033322,1.8154e-05,-49.882,-6.8496e-05,-700.93,1.8327
19810,20.807,2.9091,0,6.5902e-05,658.57,2.3895e-05,0.033199,1.8031e-05,-44.03,-6.654e-05,-679.46,1.8459
19811,20.716,2.9091,0.05,8.6576e-07,8.6517,6.648e-07,4.9951,-3.6545e-13,2.5759e-06,-6.648e-07,-4.995,1.8327
19812,20.716,3.1818,0,6.779e-05,677.43,2.4772e-05,0.033451,1.8203e-05,-49.325,-6.8494e-05,-700.73,1.8327
19813,20.807,3.0909,0,6.5902e-05,658.57,2.3895e-05,0.033199,1.8031e-05,-44.03,-6.654e-05,-679.46,1.8459
19814,20.716,3.0909,0.05,8.6576e-07,8.6517,6.648e-07,4.9951,-5.4599e-13,1.2216e-06,-6.648e-07,-4.995,1.8327
19815,20.716,3.3636,0,6.7804e-05,677.57,2.4698e-05,0.033828,1.8348e-05,-47.677,-6.8488e-05,-700.13,1.8327
19816,20.807,3.2727,0,6.5913e-05,658.68,2.385e-05,0.033441,1.8121e-05,-43.014,-6.6539e-05,-679.11,1.8459
19817,20.716,3.2727,0.05,8.6208e-07,8.6148,6.6197e-07,4.9738,-5.0307e-13,2.2247e-06,-6.6197e-07,-4.9738,1.8327
19818,20.716,3.5455,0,6.7827e-05,677.8,2.4578e-05,0.034417,1.8583e-05,-45.005,-6.8479e-05,-699.16,1.8327
19819,20.807,3.4545,0,6.5935e-05,658.9,2.3762e-05,0.033902,1.8297e-05,-41.026,-6.6537e-05,-678.43,1.8459
19820,20.716,3.4545,0.05,8.5479e-07,8.542,6.5637e-07,4.9317,2.8121e-15,1.9061e-06,-6.5637e-07,-4.9317,1.8327
19821,20.716,3.7273,0,6.7858e-05,678.11,2.4416e-05,0.035156,1.8899e-05,-41.419,-6.8467e-05,-697.85,1.8326
19822,20.807,3.6364,0,6.5968e-05,659.22,2.3635e-05,0.034529,1.8553e-05,-38.147,-6.6533e-05,-677.45,1.8459
19823,20.716,3.6364,0.05,8.4408e-07,8.435,6.4815e-07,4.8699,3.1122e-13,2.2363e-06,-6.4815e-07,-4.8699,1.8326
19824,20.716,3.9091,0,6.7898e-05,678.51,2.422e-05,0.035952,1.9283e-05,-37.062,-6.8452e-05,-696.27,1.8326
19825,20.807,3.8182,0,6.601e-05,659.65,2.3473e-05,0.035244,1.8877e-05,-34.498,-6.6529e-05,-676.2,1.8458
19826,20.716,3.8182,0.05,8.3021e-07,8.2964,6.375e-07,4.7899,-1.6215e-14,2.4307e-06,-6.375e-07,-4.7899,1.8326
19827,20.716,4.0909,0,6.7947e-05,679,2.3997e-05,0.036678,1.9719e-05,-32.111,-6.8435e-05,-694.46,1.8325
19828,20.807,4,0,6.6061e-05,660.16,2.3283e-05,0.035936,1.9256e-05,-30.226,-6.6523e-05,-674.73,1.8458
19829,20.716,4,0.05,8.1353e-07,8.1297,6.2469e-07,4.6937,-7.1838e-14,1.8374e-06,-6.2469e-07,-4.6937,1.8325
19830,20.716,4.2727,0,6.8002e-05,679.55,2.3756e-05,0.037177,2.019e-05,-26.76,-6.8417e-05,-692.52,1.8324
19831,20.807,4.1818,0,6.612e-05,660.75,2.3074e-05,0.03646,1.9675e-05,-25.505,-6.6517e-05,-673.11,1.8457
19832,20.716,4.1818,0.05,7.9452e-07,7.9397,6.1009e-07,4.584,8.6909e-14,1.7615e-06,-6.1009e-07,-4.584,1.8325
19833,20.716,4.4545,0,6.8065e-05,680.18,2.3507e-05,0.037268,2.0679e-05,-21.216,-6.84e-05,-690.52,1.8323
19834,20.807,4.3636,0,6.6186e-05,661.4,2.2853e-05,0.03665,2.0117e-05,-20.521,-6.651e-05,-671.4,1.8456
19835,20.716,4.3636,0.05,7.7371e-07,7.7317,5.9411e-07,4.4639,1.5137e-13,3.6625e-06,-5.9411e-07,-4.4639,1.8324
19836,20.716,4.6364,0,6.8134e-05,680.87,2.326e-05,0.036762,2.1168e-05,-15.682,-6.8387e-05,-688.56,1.8322
19837,20.807,4.5455,0,6.6257e-05,662.12,2.2629e-05,0.036319,2.0567e-05,-15.462,-6.6506e-05,-669.69,1.8455
19838,20.716,4.5455,0.05,7.5178e-07,7.5126,5.7727e-07,4.3374,2.1504e-13,2.7316e-06,-5.7727e-07,-4.3374,1.8323
19839,20.716,4.8182,0,6.8211e-05,681.64,2.3023e-05,0.035509,2.1641e-05,-10.353,-6.8381e-05,-686.74,1.8321
19840,20.807,4.7273,0,6.6335e-05,662.89,2.2412e-05,0.035303,2.1008e-05,-10.511,-6.6507e-05,-668.07,1.8454
19841,20.716,4.7273,0.05,7.295e-07,7.29,5.6017e-07,4.2089,5.1008e-13,4.2623e-06,-5.6017e-07,-4.2089,1.8322
19842,20.716,5,0,6.8297e-05,682.49,2.2808e-05,0.033664,2.2085e-05,-5.3977,-6.8386e-05,-685.16,1.832
19843,20.807,4.9091,0,6.6419e-05,663.73,2.2209e-05,0.033575,2.1429e-05,-5.834,-6.6516e-05,-666.61,1.8453
19844,20.716,4.9091,0.05,7.0773e-07,7.0724,5.4345e-07,4.0833,6.4686e-13,4.9485e-06,-5.4345e-07,-4.0832,1.832
19845,20.716,5.1818,0,6.8394e-05,683.47,2.2621e-05,0.037662,2.2488e-05,-0.96284,-6.841e-05,-683.93,1.8318
19846,20.807,5.0909,0,6.6513e-05,664.67,2.203e-05,0.033357,2.1816e-05,-1.5705,-6.6539e-05,-665.43,1.8451
19847,20.716,5.0909,0.05,6.8736e-07,6.8688,5.2781e-07,3.9657,7.6295e-13,3.7662e-06,-5.2781e-07,-3.9657,1.8319
19848,20.716,5.3636,0,6.8508e-05,684.61,2.2848e-05,2.8838,2.2466e-05,0.018569,-6.8458e-05,-683.15,1.8317
19849,20.807,5.2727,0,6.6619e-05,665.73,2.2166e-05,2.1888,2.1878e-05,0.020316,-6.6582e-05,-664.63,1.845
19850,20.716,5.2727,0.05,6.6921e-07,6.6874,5.1387e-07,3.861,9.0165e-13,5.3976e-06,-5.1387e-07,-3.861,1.8317
19851,20.716,5.5455,0,6.8651e-05,686.03,2.3162e-05,6.0824,2.2354e-05,0.011099,-6.8545e-05,-682.97,1.8315
19852,20.807,5.4545,0,6.6746e-05,667,2.2473e-05,5.3639,2.1761e-05,0.016063,-6.6653e-05,-664.29,1.8448
19853,20.716,5.4545,0.05,6.527e-07,6.5225,5.0119e-07,3.7658,9.9754e-13,5.4513e-06,-5.012e-07,-3.7658,1.8316
19854,20.716,5.7273,0,6.8915e-05,688.67,2.351e-05,9.208,2.2284e-05,0.00037726,-6.8753e-05,-684.02,1.8313
19855,20.807,5.6364,0,6.6911e-05,668.64,2.2748e-05,8.0096,2.1683e-05,0.0041193,-6.6771e-05,-664.6,1.8446
19856,20.716,5.6364,0.05,6.1704e-07,6.1661,4.7381e-07,3.56,1.3235e-12,7.0527e-06,-4.7381e-07,-3.56,1.8314
19857,20.807,5.8182,0,6.7297e-05,672.51,2.3151e-05,11.311,2.1645e-05,-0.0013089,-6.7098e-05,-666.78,1.8444
19858,20.716,5.8182,0.05,2.3258e-07,2.3242,1.7859e-07,1.3419,8.9031e-13,5.6631e-06,-1.7859e-07,-1.3419,1.8312
19859,20.716,5.9091,0,6.8613e-05,685.66,2.3284e-05,7.7023,2.2261e-05,0.015403,-6.8479e-05,-681.77,1.8311
19860,20.898,0.27273,0,6.5272e-05,652.27,2.2371e-05,9.9768,2.1044e-05,-0.001002,-6.5096e-05,-647.22,1.8577
19861,20.989,0.18182,0,6.3629e-05,635.85,2.1998e-05,12.011,2.04e-05,-0.0017679,-6.3416e-05,-629.76,1.8709
19862,20.898,0.18182,0.05,2.5122e-07,2.5105,1.9291e-07,1.4494,-6.8573e-13,2.812e-06,-1.9291e-07,-1.4494,1.8576
19863,20.898,0.090909,0,6.4959e-05,649.15,2.2115e-05,8.1368,2.1033e-05,0.012556,-6.4817e-05,-645.03,1.8575
19864,20.898,0.45455,0,6.4998e-05,649.53,2.2053e-05,7.24,2.1091e-05,0.0089243,-6.4872e-05,-645.88,1.8579
19865,20.989,0.36364,0,6.3234e-05,631.9,2.1619e-05,9.0186,2.0419e-05,0.0010828,-6.3075e-05,-627.34,1.8711
19866,20.898,0.36364,0.05,6.3238e-07,6.3194,4.8559e-07,3.6485,-6.6386e-13,2.22e-06,-4.8558e-07,-3.6485,1.8578
19867,20.898,0.63636,0,6.4851e-05,648.06,2.1786e-05,4.6248,2.1173e-05,0.018144,-6.477e-05,-645.73,1.8581
19868,20.989,0.54545,0,6.307e-05,630.26,2.1387e-05,6.895,2.0472e-05,0.014091,-6.2949e-05,-626.78,1.8712
19869,20.898,0.54545,0.05,6.6592e-07,6.6546,5.1134e-07,3.842,-1.8704e-13,4.4379e-06,-5.1134e-07,-3.842,1.858
19870,20.898,0.81818,0,6.4732e-05,646.87,2.1489e-05,1.5358,2.1287e-05,0.022275,-6.4705e-05,-646.09,1.8583
19871,20.989,0.72727,0,6.2945e-05,629.01,2.1138e-05,4.3967,2.0555e-05,0.020164,-6.2868e-05,-626.79,1.8714
19872,20.898,0.72727,0.05,6.7962e-07,6.7915,5.2186e-07,3.9211,-6.424e-13,3.0552e-06,-5.2186e-07,-3.9211,1.8582
19873,20.898,1,0,6.463e-05,645.85,2.1431e-05,0.031084,2.1156e-05,-2.0384,-6.4664e-05,-646.85,1.8584
19874,20.989,0.90909,0,6.284e-05,627.97,2.0858e-05,1.4574,2.0667e-05,0.024111,-6.2815e-05,-627.23,1.8716
19875,20.898,0.90909,0.05,6.9434e-07,6.9386,5.3317e-07,4.006,-7.9171e-13,1.4908e-06,-5.3317e-07,-4.006,1.8583
19876,20.898,1.1818,0,6.4538e-05,644.94,2.1598e-05,0.032946,2.0792e-05,-6.0208,-6.4638e-05,-647.91,1.8585
19877,20.989,1.0909,0,6.2748e-05,627.05,2.0804e-05,0.032087,2.0547e-05,-1.8985,-6.278e-05,-627.98,1.8717
19878,20.898,1.0909,0.05,7.1086e-07,7.1037,5.4585e-07,4.1013,-7.3198e-13,1.8341e-06,-5.4585e-07,-4.1013,1.8585
19879,20.898,1.3636,0,6.4454e-05,644.1,2.1782e-05,0.034622,2.0404e-05,-10.314,-6.4623e-05,-649.18,1.8587
19880,20.989,1.2727,0,6.2665e-05,626.21,2.0958e-05,0.033565,2.021e-05,-5.5877,-6.2757e-05,-628.97,1.8718
19881,20.898,1.2727,0.05,7.2856e-07,7.2805,5.5944e-07,4.2034,-8.6083e-13,2.1588e-06,-5.5944e-07,-4.2034,1.8586
19882,20.898,1.5455,0,6.4376e-05,643.31,2.1975e-05,0.035522,2.0003e-05,-14.785,-6.4614e-05,-650.56,1.8588
19883,20.989,1.4545,0,6.2586e-05,625.43,2.1126e-05,0.034889,1.9855e-05,-9.5126,-6.2742e-05,-630.11,1.8719
19884,20.898,1.4545,0.05,7.4672e-07,7.4621,5.7339e-07,4.3083,-5.8149e-13,2.4059e-06,-5.7339e-07,-4.3082,1.8587
19885,20.898,1.7273,0,6.4302e-05,642.58,2.2171e-05,0.035781,1.96e-05,-19.28,-6.4608e-05,-651.98,1.8589
19886,20.989,1.6364,0,6.2511e-05,624.68,2.1299e-05,0.035539,1.9492e-05,-13.543,-6.273e-05,-631.33,1.872
19887,20.898,1.6364,0.05,7.6466e-07,7.6414,5.8717e-07,4.4118,-5.1761e-13,3.1288e-06,-5.8717e-07,-4.4117,1.8588
19888,20.898,1.9091,0,6.4234e-05,641.9,2.236e-05,0.035582,1.921e-05,-23.631,-6.4603e-05,-653.37,1.8589
19889,20.989,1.8182,0,6.2441e-05,623.98,2.1471e-05,0.035638,1.9133e-05,-17.534,-6.272e-05,-632.54,1.8721
19890,20.898,1.8182,0.05,7.8174e-07,7.812,6.0028e-07,4.5103,-6.9202e-13,2.1608e-06,-6.0028e-07,-4.5103,1.8589
19891,20.898,2.0909,0,6.4173e-05,641.29,2.2536e-05,0.035102,1.8849e-05,-27.669,-6.4599e-05,-654.66,1.859
19892,20.989,2,0,6.2376e-05,623.33,2.1634e-05,0.035358,1.8791e-05,-21.329,-6.2711e-05,-633.7,1.8722
19893,20.898,2,0.05,7.9739e-07,7.9684,6.123e-07,4.6006,-4.6854e-13,2.7076e-06,-6.123e-07,-4.6006,1.859
19894,20.898,2.2727,0,6.4121e-05,640.77,2.2691e-05,0.034498,1.853e-05,-31.232,-6.4594e-05,-655.79,1.8591
19895,20.989,2.1818,0,6.2318e-05,622.75,2.1783e-05,0.034866,1.8481e-05,-24.776,-6.2702e-05,-634.75,1.8722
19896,20.898,2.1818,0.05,8.1114e-07,8.1058,6.2286e-07,4.6799,-6.9914e-13,2.8253e-06,-6.2286e-07,-4.6799,1.859
19897,20.898,2.4545,0,6.4078e-05,640.34,2.2819e-05,0.033899,1.8266e-05,-34.172,-6.459e-05,-656.72,1.8591
19898,20.989,2.3636,0,6.2269e-05,622.26,2.191e-05,0.034302,1.8215e-05,-27.731,-6.2693e-05,-635.64,1.8723
19899,20.898,2.3636,0.05,8.226e-07,8.2203,6.3165e-07,4.746,-2.8593e-13,2.2807e-06,-6.3165e-07,-4.746,1.8591
19900,20.898,2.6364,0,6.4047e-05,640.02,2.2914e-05,0.033403,1.8069e-05,-36.366,-6.4587e-05,-657.41,1.8591
19901,20.989,2.5455,0,6.223e-05,621.87,2.201e-05,0.033782,1.8004e-05,-30.067,-6.2686e-05,-636.34,1.8723
19902,20.898,2.5455,0.05,8.3145e-07,8.3088,6.3845e-07,4.7971,-6.0247e-13,2.7898e-06,-6.3845e-07,-4.7971,1.8591
19903,20.898,2.8182,0,6.4027e-05,639.83,2.2973e-05,0.033078,1.7948e-05,-37.721,-6.4585e-05,-657.84,1.8591
19904,20.989,2.7273,0,6.2203e-05,621.6,2.2079e-05,0.033389,1.7858e-05,-31.683,-6.2681e-05,-636.82,1.8724
19905,20.898,2.7273,0.05,8.3748e-07,8.369,6.4308e-07,4.8319,-2.5575e-13,1.4951e-06,-6.4308e-07,-4.8319,1.8591
19906,20.898,3,0,6.4021e-05,639.77,2.2992e-05,0.032966,1.7907e-05,-38.179,-6.4584e-05,-657.98,1.8591
19907,20.989,2.9091,0,6.219e-05,621.47,2.2115e-05,0.033179,1.7783e-05,-32.509,-6.2678e-05,-637.07,1.8724
19908,20.898,2.9091,0.05,8.4053e-07,8.3995,6.4542e-07,4.8495,-1.5783e-13,2.429e-06,-6.4542e-07,-4.8495,1.8591
19909,20.898,3.1818,0,6.4027e-05,639.83,2.2973e-05,0.033078,1.7948e-05,-37.721,-6.4585e-05,-657.84,1.8591
19910,20.989,3.0909,0,6.219e-05,621.47,2.2115e-05,0.03318,1.7783e-05,-32.509,-6.2678e-05,-637.07,1.8724
19911,20.898,3.0909,0.05,8.4053e-07,8.3995,6.4542e-07,4.8495,-5.2632e-13,1.367e-06,-6.4542e-07,-4.8495,1.8591
19912,20.898,3.3636,0,6.4047e-05,640.02,2.2914e-05,0.033403,1.8069e-05,-36.366,-6.4587e-05,-657.41,1.8591
19913,20.989,3.2727,0,6.2203e-05,621.6,2.2079e-05,0.033389,1.7858e-05,-31.683,-6.2681e-05,-636.82,1.8724
19914,20.898,3.2727,0.05,8.3748e-07,8.369,6.4308e-07,4.8319,-2.1846e-13,1.2252e-06,-6.4308e-07,-4.8319,1.8591
19915,20.898,3.5455,0,6.4078e-05,640.34,2.2819e-05,0.033899,1.8266e-05,-34.172,-6.459e-05,-656.72,1.8591
19916,20.989,3.4545,0,6.223e-05,621.87,2.201e-05,0.033783,1.8004e-05,-30.067,-6.2686e-05,-636.34,1.8723
19917,20.898,3.4545,0.05,8.3145e-07,8.3088,6.3845e-07,4.7971,-3.5052e-13,1.6446e-06,-6.3845e-07,-4.7971,1.8591
19918,20.898,3.7273,0,6.4121e-05,640.77,2.2691e-05,0.034498,1.853e-05,-31.232,-6.4594e-05,-655.79,1.8591
19919,20.989,3.6364,0,6.2269e-05,622.26,2.191e-05,0.034303,1.8215e-05,-27.731,-6.2693e-05,-635.64,1.8723
19920,20.898,3.6364,0.05,8.226e-07,8.2203,6.3165e-07,4.746,-2.4178e-13,2.4341e-06,-6.3165e-07,-4.746,1.8591
19921,20.898,3.9091,0,6.4173e-05,641.29,2.2536e-05,0.035102,1.8849e-05,-27.669,-6.4599e-05,-654.66,1.859
19922,20.989,3.8182,0,6.2318e-05,622.75,2.1783e-05,0.034866,1.8481e-05,-24.776,-6.2702e-05,-634.75,1.8722
19923,20.898,3.8182,0.05,8.1114e-07,8.1058,6.2286e-07,4.6799,-9.4353e-14,3.4992e-06,-6.2286e-07,-4.6799,1.859
19924,20.898,4.0909,0,6.4234e-05,641.9,2.236e-05,0.035581,1.921e-05,-23.631,-6.4603e-05,-653.37,1.8589
19925,20.989,4,0,6.2376e-05,623.33,2.1634e-05,0.035358,1.8791e-05,-21.329,-6.2711e-05,-633.7,1.8722
19926,20.898,4,0.05,7.9739e-07,7.9684,6.123e-07,4.6006,3.0284e-13,2.6252e-06,-6.123e-07,-4.6006,1.859
19927,20.898,4.2727,0,6.4302e-05,642.58,2.2171e-05,0.035781,1.96e-05,-19.28,-6.4608e-05,-651.98,1.8589
19928,20.989,4.1818,0,6.2441e-05,623.98,2.1471e-05,0.035637,1.9133e-05,-17.534,-6.272e-05,-632.54,1.8721
19929,20.898,4.1818,0.05,7.8174e-07,7.812,6.0028e-07,4.5103,6.2702e-14,1.9541e-06,-6.0028e-07,-4.5103,1.8589
19930,20.898,4.4545,0,6.4376e-05,643.31,2.1975e-05,0.035522,2.0003e-05,-14.785,-6.4614e-05,-650.56,1.8588
19931,20.989,4.3636,0,6.2511e-05,624.68,2.1299e-05,0.03554,1.9492e-05,-13.543,-6.273e-05,-631.33,1.872
19932,20.898,4.3636,0.05,7.6466e-07,7.6414,5.8717e-07,4.4117,5.238e-13,4.2827e-06,-5.8717e-07,-4.4117,1.8588
19933,20.898,4.6364,0,6.4454e-05,644.1,2.1782e-05,0.034621,2.0404e-05,-10.314,-6.4623e-05,-649.18,1.8587
19934,20.989,4.5455,0,6.2586e-05,625.43,2.1126e-05,0.034888,1.9855e-05,-9.5125,-6.2742e-05,-630.11,1.8719
19935,20.898,4.5455,0.05,7.4672e-07,7.4621,5.7339e-07,4.3082,3.6274e-13,3.4862e-06,-5.7339e-07,-4.3082,1.8587
19936,20.898,4.8182,0,6.4538e-05,644.94,2.1598e-05,0.032947,2.0792e-05,-6.0207,-6.4638e-05,-647.91,1.8585
19937,20.989,4.7273,0,6.2665e-05,626.21,2.0958e-05,0.033565,2.021e-05,-5.5877,-6.2757e-05,-628.97,1.8718
19938,20.898,4.7273,0.05,7.2856e-07,7.2805,5.5944e-07,4.2034,4.411e-13,4.9013e-06,-5.5944e-07,-4.2034,1.8586
19939,20.898,5,0,6.463e-05,645.85,2.1431e-05,0.031084,2.1156e-05,-2.0384,-6.4664e-05,-646.85,1.8584
19940,20.989,4.9091,0,6.2748e-05,627.05,2.0804e-05,0.032089,2.0547e-05,-1.8984,-6.278e-05,-627.98,1.8717
19941,20.898,4.9091,0.05,7.1086e-07,7.1037,5.4585e-07,4.1013,5.3068e-13,5.4891e-06,-5.4585e-07,-4.1013,1.8585
19942,20.898,5.1818,0,6.4732e-05,646.87,2.1489e-05,1.5359,2.1287e-05,0.022273,-6.4705e-05,-646.09,1.8583
19943,20.989,5.0909,0,6.284e-05,627.97,2.0858e-05,1.4574,2.0667e-05,0.024109,-6.2815e-05,-627.23,1.8716
19944,20.898,5.0909,0.05,6.9434e-07,6.9386,5.3317e-07,4.006,6.3645e-13,4.2247e-06,-5.3317e-07,-4.006,1.8583
19945,20.898,5.3636,0,6.4851e-05,648.06,2.1786e-05,4.6248,2.1173e-05,0.018143,-6.477e-05,-645.73,1.8581
19946,20.989,5.2727,0,6.2945e-05,629.01,2.1138e-05,4.3967,2.0555e-05,0.020161,-6.2868e-05,-626.79,1.8714
19947,20.898,5.2727,0.05,6.7962e-07,6.7915,5.2186e-07,3.9211,9.5493e-13,5.745e-06,-5.2186e-07,-3.9211,1.8582
19948,20.898,5.5455,0,6.4998e-05,649.53,2.2053e-05,7.24,2.1091e-05,0.0089259,-6.4872e-05,-645.88,1.8579
19949,20.989,5.4545,0,6.307e-05,630.26,2.1387e-05,6.895,2.0472e-05,0.014091,-6.2949e-05,-626.78,1.8712
19950,20.898,5.4545,0.05,6.6592e-07,6.6546,5.1134e-07,3.842,1.0414e-12,6.3607e-06,-5.1134e-07,-3.842,1.858
19951,20.898,5.7273,0,6.5272e-05,652.27,2.2371e-05,9.9768,2.1044e-05,-0.00099931,-6.5096e-05,-647.22,1.8577
19952,20.989,5.6364,0,6.3234e-05,631.9,2.1619e-05,9.0185,2.0419e-05,0.0010853,-6.3075e-05,-627.34,1.8711
19953,20.898,5.6364,0.05,6.3238e-07,6.3194,4.8559e-07,3.6485,1.0986e-12,8.0095e-06,-4.8559e-07,-3.6485,1.8578
19954,20.989,5.8182,0,6.3629e-05,635.85,2.1998e-05,12.011,2.04e-05,-0.0017666,-6.3416e-05,-629.76,1.8709
19955,20.898,5.8182,0.05,2.5122e-07,2.5105,1.9291e-07,1.4494,1.1444e-12,6.7519e-06,-1.9291e-07,-1.4494,1.8576
19956,20.898,5.9091,0,6.4959e-05,649.15,2.2115e-05,8.1368,2.1033e-05,0.012559,-6.4817e-05,-645.03,1.8575
19957,21.081,0.27273,0,6.1568e-05,615.26,2.1227e-05,10.909,1.9775e-05,-0.0031597,-6.1375e-05,-609.73,1.8842
19958,21.172,0.18182,0,5.9904e-05,598.62,2.0837e-05,12.825,1.9129e-05,-0.0026778,-5.9675e-05,-592.11,1.8974
19959,21.081,0.18182,0.05,2.6657e-07,2.6638,2.0469e-07,1.538,-4.9997e-13,6.3178e-06,-2.0469e-07,-1.538,1.8841
19960,21.081,0.090909,0,6.1233e-05,611.91,2.0927e-05,8.6452,1.9778e-05,0.010417,-6.1082e-05,-607.54,1.884
19961,21.081,0.45455,0,6.1297e-05,612.54,2.0946e-05,8.62,1.98e-05,0.0060537,-6.1145e-05,-608.19,1.8844
19962,21.172,0.36364,0,5.951e-05,594.69,2.0489e-05,10.212,1.913e-05,-0.0026517,-5.9329e-05,-589.52,1.8976
19963,21.081,0.36364,0.05,6.4396e-07,6.4352,4.9448e-07,3.7154,-4.4011e-13,3.7623e-06,-4.9448e-07,-3.7153,1.8843
19964,21.081,0.63636,0,6.1157e-05,611.15,2.0733e-05,6.6215,1.9854e-05,0.016133,-6.1041e-05,-607.8,1.8846
19965,21.172,0.54545,0,5.9358e-05,593.17,2.0309e-05,8.6556,1.9159e-05,0.011859,-5.9205e-05,-588.78,1.8977
19966,21.081,0.54545,0.05,6.7582e-07,6.7535,5.1895e-07,3.8992,-8.7163e-13,4.6095e-07,-5.1894e-07,-3.8991,1.8845
19967,21.081,0.81818,0,6.1047e-05,610.05,2.0501e-05,4.2782,1.9935e-05,0.02204,-6.0973e-05,-607.89,1.8847
19968,21.172,0.72727,0,5.9247e-05,592.06,2.0122e-05,6.8544,1.9212e-05,0.018378,-5.9127e-05,-588.59,1.8979
19969,21.081,0.72727,0.05,6.8738e-07,6.8691,5.2782e-07,3.9659,-8.5297e-13,9.7238e-07,-5.2782e-07,-3.9658,1.8846
19970,21.081,1,0,6.0954e-05,609.12,2.0244e-05,1.5621,2.0039e-05,0.025912,-6.0926e-05,-608.32,1.8849
19971,21.172,0.90909,0,5.9157e-05,591.16,1.9914e-05,4.7184,1.929e-05,0.024161,-5.9075e-05,-588.77,1.8981
19972,21.081,0.90909,0.05,6.9946e-07,6.9898,5.371e-07,4.0356,-5.9273e-13,1.7081e-06,-5.371e-07,-4.0356,1.8848
19973,21.081,1.1818,0,6.087e-05,608.28,2.0164e-05,0.032542,1.9961e-05,-1.4941,-6.0895e-05,-609.01,1.885
19974,21.172,1.0909,0,5.9079e-05,590.38,1.9683e-05,2.2543,1.9387e-05,0.027526,-5.904e-05,-589.24,1.8982
19975,21.081,1.0909,0.05,7.1298e-07,7.1249,5.4748e-07,4.1136,-5.221e-13,2.4647e-06,-5.4748e-07,-4.1136,1.8849
19976,21.081,1.3636,0,6.0793e-05,607.51,2.0302e-05,0.033709,1.9658e-05,-4.8093,-6.0873e-05,-609.89,1.8851
19977,21.172,1.2727,0,5.9009e-05,589.68,1.9501e-05,0.038998,1.9429e-05,-0.50402,-5.9017e-05,-589.91,1.8983
19978,21.081,1.2727,0.05,7.2748e-07,7.2698,5.5862e-07,4.1972,-2.2328e-13,1.9764e-06,-5.5862e-07,-4.1972,1.885
19979,21.081,1.5455,0,6.072e-05,606.78,2.045e-05,0.034812,1.9342e-05,-8.2889,-6.0856e-05,-610.86,1.8852
19980,21.172,1.4545,0,5.8942e-05,589.01,1.9625e-05,0.035075,1.916e-05,-3.459,-5.8999e-05,-590.71,1.8984
19981,21.081,1.4545,0.05,7.424e-07,7.4188,5.7007e-07,4.2833,-6.2174e-13,1.4761e-06,-5.7007e-07,-4.2833,1.8852
19982,21.081,1.7273,0,6.0649e-05,606.07,2.0599e-05,0.035314,1.9023e-05,-11.811,-6.0841e-05,-611.87,1.8853
19983,21.172,1.6364,0,5.8876e-05,588.36,1.9755e-05,0.035598,1.8881e-05,-6.5323,-5.8984e-05,-591.58,1.8985
19984,21.081,1.6364,0.05,7.5717e-07,7.5664,5.8141e-07,4.3685,-5.7052e-13,1.4926e-06,-5.8141e-07,-4.3685,1.8853
19985,21.081,1.9091,0,6.0582e-05,605.41,2.0745e-05,0.035337,1.8712e-05,-15.242,-6.0827e-05,-612.86,1.8854
19986,21.172,1.8182,0,5.8813e-05,587.73,1.9885e-05,0.035795,1.8602e-05,-9.6038,-5.897e-05,-592.45,1.8986
19987,21.081,1.8182,0.05,7.7126e-07,7.7073,5.9223e-07,4.4498,-9.8204e-14,5.5874e-07,-5.9223e-07,-4.4498,1.8853
19988,21.081,2.0909,0,6.0521e-05,604.79,2.0881e-05,0.035047,1.8422e-05,-18.444,-6.0813e-05,-613.78,1.8855
19989,21.172,2,0,5.8753e-05,587.13,2.001e-05,0.035644,1.8335e-05,-12.548,-5.8956e-05,-593.28,1.8987
19990,21.081,2,0.05,7.8421e-07,7.8367,6.0218e-07,4.5245,-5.3287e-13,1.0264e-06,-6.0217e-07,-4.5245,1.8854
19991,21.081,2.2727,0,6.0467e-05,604.25,2.1002e-05,0.034596,1.8165e-05,-21.28,-6.08e-05,-614.59,1.8855
19992,21.172,2.1818,0,5.8698e-05,586.58,2.0123e-05,0.035273,1.809e-05,-15.24,-5.8942e-05,-594.03,1.8987
19993,21.081,2.1818,0.05,7.9561e-07,7.9506,6.1093e-07,4.5903,-8.7815e-14,1.2609e-06,-6.1093e-07,-4.5903,1.8855
19994,21.081,2.4545,0,6.0422e-05,603.8,2.1101e-05,0.034112,1.7952e-05,-23.629,-6.0789e-05,-615.25,1.8855
19995,21.172,2.3636,0,5.8651e-05,586.1,2.0221e-05,0.034808,1.7879e-05,-17.559,-5.8929e-05,-594.67,1.8988
19996,21.081,2.3636,0.05,8.0512e-07,8.0456,6.1823e-07,4.6452,-5.9049e-13,1.5017e-06,-6.1823e-07,-4.6451,1.8855
19997,21.081,2.6364,0,6.0389e-05,603.47,2.1175e-05,0.033696,1.7792e-05,-25.387,-6.078e-05,-615.74,1.8856
19998,21.172,2.5455,0,5.8613e-05,585.72,2.0298e-05,0.034361,1.7711e-05,-19.4,-5.8918e-05,-595.16,1.8988
19999,21.081,2.5455,0.05,8.1248e-07,8.1192,6.2388e-07,4.6876,2.7539e-14,1.4435e-06,-6.2388e-07,-4.6876,1.8855
20000,21.081,2.8182,0,6.0368e-05,603.26,2.1221e-05,0.033417,1.7693e-05,-26.474,-6.0774e-05,-616.05,1.8856
20001,21.172,2.7273,0,5.8586e-05,585.46,2.0351e-05,0.034017,1.7595e-05,-20.678,-5.891e-05,-595.51,1.8988
20002,21.081,2.7273,0.05,8.1749e-07,8.1693,6.2773e-07,4.7165,-5.1705e-13,2.7711e-07,-6.2773e-07,-4.7165,1.8856
20003,21.081,3,0,6.0361e-05,603.19,2.1237e-05,0.033319,1.766e-05,-26.842,-6.0772e-05,-616.15,1.8856
20004,21.172,2.9091,0,5.8573e-05,585.32,2.0379e-05,0.033829,1.7535e-05,-21.332,-5.8906e-05,-595.68,1.8988
20005,21.081,2.9091,0.05,8.2003e-07,8.1947,6.2968e-07,4.7312,-3.9697e-13,9.1042e-07,-6.2968e-07,-4.7312,1.8856
20006,21.081,3.1818,0,6.0368e-05,603.26,2.1221e-05,0.033417,1.7693e-05,-26.474,-6.0774e-05,-616.05,1.8856
20007,21.172,3.0909,0,5.8573e-05,585.32,2.0379e-05,0.033831,1.7535e-05,-21.332,-5.8906e-05,-595.68,1.8988
20008,21.081,3.0909,0.05,8.2003e-07,8.1947,6.2968e-07,4.7312,-2.8679e-13,-6.8528e-07,-6.2968e-07,-4.7312,1.8856
20009,21.081,3.3636,0,6.0389e-05,603.47,2.1175e-05,0.033695,1.7792e-05,-25.387,-6.078e-05,-615.74,1.8856
20010,21.172,3.2727,0,5.8586e-05,585.46,2.0351e-05,0.034016,1.7595e-05,-20.678,-5.891e-05,-595.51,1.8988
20011,21.081,3.2727,0.05,8.1749e-07,8.1693,6.2773e-07,4.7165,-1.7874e-13,9.8642e-08,-6.2773e-07,-4.7165,1.8856
20012,21.081,3.5455,0,6.0422e-05,603.8,2.1101e-05,0.034113,1.7952e-05,-23.629,-6.0789e-05,-615.25,1.8855
20013,21.172,3.4545,0,5.8613e-05,585.72,2.0298e-05,0.034362,1.7711e-05,-19.4,-5.8918e-05,-595.16,1.8988
20014,21.081,3.4545,0.05,8.1248e-07,8.1192,6.2388e-07,4.6876,-2.8856e-13,2.053e-07,-6.2388e-07,-4.6876,1.8855
20015,21.081,3.7273,0,6.0467e-05,604.25,2.1002e-05,0.034597,1.8165e-05,-21.28,-6.08e-05,-614.59,1.8855
20016,21.172,3.6364,0,5.8651e-05,586.1,2.0221e-05,0.034807,1.7879e-05,-17.559,-5.8929e-05,-594.67,1.8988
20017,21.081,3.6364,0.05,8.0512e-07,8.0456,6.1823e-07,4.6451,2.9792e-13,1.1741e-06,-6.1823e-07,-4.6451,1.8855
20018,21.081,3.9091,0,6.0521e-05,604.79,2.0881e-05,0.035048,1.8422e-05,-18.444,-6.0813e-05,-613.78,1.8855
20019,21.172,3.8182,0,5.8698e-05,586.58,2.0123e-05,0.035273,1.809e-05,-15.24,-5.8942e-05,-594.03,1.8987
20020,21.081,3.8182,0.05,7.9561e-07,7.9506,6.1093e-07,4.5903,1.183e-15,2.2565e-06,-6.1093e-07,-4.5903,1.8855
20021,21.081,4.0909,0,6.0582e-05,605.41,2.0745e-05,0.035337,1.8712e-05,-15.242,-6.0827e-05,-612.86,1.8854
20022,21.172,4,0,5.8753e-05,587.13,2.001e-05,0.035645,1.8335e-05,-12.548,-5.8956e-05,-593.28,1.8987
20023,21.081,4,0.05,7.8421e-07,7.8367,6.0217e-07,4.5245,1.8032e-13,1.1743e-06,-6.0218e-07,-4.5245,1.8854
20024,21.081,4.2727,0,6.0649e-05,606.07,2.0599e-05,0.035314,1.9023e-05,-11.811,-6.0841e-05,-611.87,1.8853
20025,21.172,4.1818,0,5.8813e-05,587.73,1.9885e-05,0.035795,1.8602e-05,-9.6038,-5.897e-05,-592.45,1.8986
20026,21.081,4.1818,0.05,7.7126e-07,7.7073,5.9223e-07,4.4498,1.6908e-13,7.975e-07,-5.9223e-07,-4.4498,1.8853
20027,21.081,4.4545,0,6.072e-05,606.78,2.045e-05,0.034812,1.9342e-05,-8.2889,-6.0856e-05,-610.86,1.8852
20028,21.172,4.3636,0,5.8876e-05,588.36,1.9755e-05,0.035598,1.8881e-05,-6.5323,-5.8984e-05,-591.58,1.8985
20029,21.081,4.3636,0.05,7.5717e-07,7.5664,5.8141e-07,4.3685,4.0933e-13,3.2283e-06,-5.8141e-07,-4.3685,1.8853
20030,21.081,4.6364,0,6.0793e-05,607.51,2.0302e-05,0.033709,1.9658e-05,-4.8093,-6.0873e-05,-609.89,1.8851
20031,21.172,4.5455,0,5.8942e-05,589.01,1.9625e-05,0.035075,1.916e-05,-3.459,-5.8999e-05,-590.71,1.8984
20032,21.081,4.5455,0.05,7.424e-07,7.4188,5.7007e-07,4.2833,4.6241e-13,1.9404e-06,-5.7007e-07,-4.2833,1.8852
20033,21.081,4.8182,0,6.087e-05,608.28,2.0164e-05,0.032543,1.9961e-05,-1.494,-6.0895e-05,-609.01,1.885
20034,21.172,4.7273,0,5.9009e-05,589.68,1.9501e-05,0.038998,1.9429e-05,-0.50398,-5.9017e-05,-589.91,1.8983
20035,21.081,4.7273,0.05,7.2748e-07,7.2698,5.5862e-07,4.1972,7.5185e-13,3.8876e-06,-5.5862e-07,-4.1972,1.885
20036,21.081,5,0,6.0954e-05,609.12,2.0244e-05,1.5621,2.0039e-05,0.025912,-6.0926e-05,-608.32,1.8849
20037,21.172,4.9091,0,5.9079e-05,590.38,1.9683e-05,2.2543,1.9387e-05,0.027527,-5.904e-05,-589.24,1.8982
20038,21.081,4.9091,0.05,7.1298e-07,7.1249,5.4748e-07,4.1136,5.9867e-13,4.832e-06,-5.4748e-07,-4.1136,1.8849
20039,21.081,5.1818,0,6.1047e-05,610.05,2.0501e-05,4.2782,1.9935e-05,0.022038,-6.0973e-05,-607.89,1.8847
20040,21.172,5.0909,0,5.9157e-05,591.16,1.9914e-05,4.7184,1.929e-05,0.024159,-5.9075e-05,-588.77,1.8981
20041,21.081,5.0909,0.05,6.9946e-07,6.9898,5.371e-07,4.0356,6.9214e-13,3.2364e-06,-5.371e-07,-4.0356,1.8848
20042,21.081,5.3636,0,6.1157e-05,611.15,2.0733e-05,6.6215,1.9854e-05,0.016132,-6.1041e-05,-607.8,1.8846
20043,21.172,5.2727,0,5.9247e-05,592.06,2.0122e-05,6.8544,1.9212e-05,0.018376,-5.9127e-05,-588.59,1.8979
20044,21.081,5.2727,0.05,6.8738e-07,6.8691,5.2782e-07,3.9658,1.0033e-12,5.2747e-06,-5.2782e-07,-3.9659,1.8846
20045,21.081,5.5455,0,6.1297e-05,612.54,2.0946e-05,8.62,1.98e-05,0.0060546,-6.1145e-05,-608.19,1.8844
20046,21.172,5.4545,0,5.9358e-05,593.17,2.0309e-05,8.6555,1.9159e-05,0.011859,-5.9205e-05,-588.79,1.8977
20047,21.081,5.4545,0.05,6.7582e-07,6.7535,5.1894e-07,3.8991,1.0813e-12,5.823e-06,-5.1895e-07,-3.8992,1.8845
20048,21.081,5.7273,0,6.1568e-05,615.26,2.1227e-05,10.909,1.9775e-05,-0.0031588,-6.1375e-05,-609.73,1.8842
20049,21.172,5.6364,0,5.951e-05,594.69,2.0489e-05,10.212,1.913e-05,-0.0026502,-5.9329e-05,-589.52,1.8976
20050,21.081,5.6364,0.05,6.4396e-07,6.4352,4.9448e-07,3.7154,8.9921e-13,7.5323e-06,-4.9448e-07,-3.7154,1.8843
20051,21.172,5.8182,0,5.9904e-05,598.62,2.0837e-05,12.825,1.9129e-05,-0.0026781,-5.9675e-05,-592.11,1.8974
20052,21.081,5.8182,0.05,2.6657e-07,2.6638,2.0469e-07,1.538,1.1667e-12,6.4952e-06,-2.0469e-07,-1.538,1.8841
20053,21.081,5.9091,0,6.1233e-05,611.91,2.0927e-05,8.6452,1.9778e-05,0.010418,-6.1082e-05,-607.54,1.884
20054,21.263,0.27273,0,5.7821e-05,577.82,2.0079e-05,11.976,1.8484e-05,-0.0059433,-5.7608e-05,-571.74,1.9108
20055,21.354,0.18182,0,5.6138e-05,560.99,1.9669e-05,13.73,1.7841e-05,-0.0040517,-5.5891e-05,-554,1.9239
20056,21.263,0.18182,0.05,2.7977e-07,2.7957,2.1483e-07,1.6141,-2.4246e-13,5.5e-06,-2.1482e-07,-1.6141,1.9106
20057,21.263,0.090909,0,5.7455e-05,574.15,1.9728e-05,9.2135,1.8503e-05,0.008881,-5.7293e-05,-569.49,1.9106
20058,21.263,0.45455,0,5.7562e-05,575.22,1.9845e-05,10.19,1.8489e-05,0.0029803,-5.7382e-05,-570.06,1.9109
20059,21.354,0.36364,0,5.5754e-05,557.16,1.9362e-05,11.56,1.7823e-05,-0.0068243,-5.5548e-05,-551.29,1.9241
20060,21.263,0.36364,0.05,6.5262e-07,6.5217,5.0113e-07,3.7653,-4.52e-13,2.9526e-06,-5.0113e-07,-3.7653,1.9108
20061,21.263,0.63636,0,5.744e-05,574.01,1.9692e-05,8.8409,1.8517e-05,0.014189,-5.7285e-05,-569.53,1.9111
20062,21.354,0.54545,0,5.5623e-05,555.85,1.924e-05,10.616,1.7828e-05,0.0098569,-5.5435e-05,-550.46,1.9243
20063,21.263,0.54545,0.05,6.8311e-07,6.8264,5.2455e-07,3.9412,-4.5165e-13,2.77e-06,-5.2454e-07,-3.9412,1.911
20064,21.263,0.81818,0,5.735e-05,573.11,1.9529e-05,7.2531,1.8567e-05,0.020645,-5.7223e-05,-569.44,1.9112
20065,21.354,0.72727,0,5.5536e-05,554.98,1.9121e-05,9.5333,1.7854e-05,0.016841,-5.5368e-05,-550.15,1.9244
20066,21.263,0.72727,0.05,6.9304e-07,6.9257,5.3217e-07,3.9985,-4.2534e-13,3.5252e-06,-5.3217e-07,-3.9985,1.9112
20067,21.263,1,0,5.7277e-05,572.38,1.9349e-05,5.3753,1.8637e-05,0.025784,-5.7183e-05,-569.66,1.9114
20068,21.354,0.90909,0,5.5472e-05,554.33,1.8988e-05,8.2016,1.79e-05,0.023313,-5.5327e-05,-550.17,1.9246
20069,21.263,0.90909,0.05,7.031e-07,7.0262,5.399e-07,4.0566,-3.7591e-13,3.5016e-06,-5.399e-07,-4.0566,1.9113
20070,21.263,1.1818,0,5.7214e-05,571.74,1.9148e-05,3.2201,1.8723e-05,0.028983,-5.7158e-05,-570.11,1.9115
20071,21.354,1.0909,0,5.5419e-05,553.81,1.8838e-05,6.6029,1.7962e-05,0.027686,-5.5303e-05,-550.46,1.9247
20072,21.263,1.0909,0.05,7.1431e-07,7.1381,5.485e-07,4.1212,-1.0543e-13,3.9102e-06,-5.485e-07,-4.1212,1.9114
20073,21.263,1.3636,0,5.7154e-05,571.15,1.8929e-05,0.83577,1.8822e-05,0.027282,-5.714e-05,-570.72,1.9116
20074,21.354,1.2727,0,5.5372e-05,553.33,1.8668e-05,4.756,1.8039e-05,0.030501,-5.5289e-05,-550.93,1.9248
20075,21.263,1.2727,0.05,7.2631e-07,7.2581,5.5772e-07,4.1905,-6.7064e-14,2.7424e-06,-5.5772e-07,-4.1905,1.9116
20076,21.263,1.5455,0,5.7097e-05,570.57,1.893e-05,0.037138,1.8696e-05,-1.7223,-5.7125e-05,-571.41,1.9117
20077,21.354,1.4545,0,5.5326e-05,552.88,1.8482e-05,2.7087,1.8126e-05,0.031362,-5.5279e-05,-551.5,1.9249
20078,21.263,1.4545,0.05,7.3868e-07,7.3817,5.6721e-07,4.2618,-2.4217e-13,2.2972e-06,-5.6721e-07,-4.2618,1.9117
20079,21.263,1.7273,0,5.704e-05,570,1.9041e-05,0.036364,1.8458e-05,-4.3394,-5.7112e-05,-572.14,1.9118
20080,21.354,1.6364,0,5.528e-05,552.41,1.8287e-05,0.54227,1.8217e-05,0.020594,-5.527e-05,-552.13,1.925
20081,21.263,1.6364,0.05,7.5094e-07,7.5042,5.7663e-07,4.3326,-6.6025e-13,2.3643e-06,-5.7663e-07,-4.3325,1.9118
20082,21.263,1.9091,0,5.6984e-05,569.45,1.915e-05,0.036206,1.8224e-05,-6.9208,-5.7098e-05,-572.86,1.9119
20083,21.354,1.8182,0,5.5233e-05,551.94,1.8314e-05,0.040129,1.8083e-05,-1.6961,-5.5261e-05,-552.77,1.9251
20084,21.263,1.8182,0.05,7.6266e-07,7.6213,5.8563e-07,4.4002,-4.0811e-13,1.4078e-06,-5.8563e-07,-4.4002,1.9118
20085,21.263,2.0909,0,5.6931e-05,568.92,1.9252e-05,0.035904,1.8002e-05,-9.3531,-5.7084e-05,-573.52,1.9119
20086,21.354,2,0,5.5186e-05,551.48,1.8405e-05,0.037772,1.7887e-05,-3.8543,-5.525e-05,-553.38,1.9252
20087,21.263,2,0.05,7.7345e-07,7.7292,5.9391e-07,4.4624,-6.3141e-13,1.1352e-06,-5.9391e-07,-4.4624,1.9119
20088,21.263,2.2727,0,5.6884e-05,568.44,1.9343e-05,0.035483,1.7804e-05,-11.525,-5.707e-05,-574.1,1.912
20089,21.354,2.1818,0,5.5141e-05,551.03,1.8489e-05,0.036875,1.7705e-05,-5.8527,-5.5238e-05,-553.92,1.9252
20090,21.263,2.1818,0.05,7.8297e-07,7.8242,6.0122e-07,4.5173,-1.8253e-13,1.5287e-06,-6.0122e-07,-4.5173,1.912
20091,21.263,2.4545,0,5.6843e-05,568.04,1.9418e-05,0.035035,1.7638e-05,-13.335,-5.7058e-05,-574.57,1.912
20092,21.354,2.3636,0,5.5102e-05,550.64,1.8561e-05,0.036213,1.7546e-05,-7.5908,-5.5226e-05,-554.38,1.9253
20093,21.263,2.3636,0.05,7.9092e-07,7.9037,6.0732e-07,4.5632,2.4235e-13,1.5889e-06,-6.0732e-07,-4.5632,1.912
20094,21.263,2.6364,0,5.6813e-05,567.73,1.9474e-05,0.034649,1.7514e-05,-14.694,-5.7048e-05,-574.92,1.9121
20095,21.354,2.5455,0,5.507e-05,550.32,1.8619e-05,0.035679,1.7419e-05,-8.98,-5.5216e-05,-554.73,1.9253
20096,21.263,2.5455,0.05,7.9707e-07,7.9652,6.1205e-07,4.5987,-2.6387e-13,1.327e-06,-6.1205e-07,-4.5987,1.912
20097,21.263,2.8182,0,5.6794e-05,567.54,1.9509e-05,0.034389,1.7437e-05,-15.538,-5.7041e-05,-575.14,1.9121
20098,21.354,2.7273,0,5.5047e-05,550.09,1.8659e-05,0.035294,1.733e-05,-9.9486,-5.5209e-05,-554.98,1.9253
20099,21.263,2.7273,0.05,8.0127e-07,8.0072,6.1528e-07,4.623,1.2421e-13,4.5272e-07,-6.1528e-07,-4.623,1.9121
20100,21.263,3,0,5.6787e-05,567.48,1.9521e-05,0.034299,1.741e-05,-15.824,-5.7039e-05,-575.21,1.9121
20101,21.354,2.9091,0,5.5035e-05,549.97,1.8679e-05,0.035092,1.7284e-05,-10.446,-5.5204e-05,-555.1,1.9254
20102,21.263,2.9091,0.05,8.034e-07,8.0285,6.1691e-07,4.6352,-4.1091e-13,4.4823e-07,-6.1691e-07,-4.6352,1.9121
20103,21.263,3.1818,0,5.6794e-05,567.54,1.9509e-05,0.034391,1.7437e-05,-15.538,-5.7041e-05,-575.14,1.9121
20104,21.354,3.0909,0,5.5035e-05,549.97,1.8679e-05,0.035092,1.7284e-05,-10.446,-5.5204e-05,-555.1,1.9254
20105,21.263,3.0909,0.05,8.034e-07,8.0285,6.1691e-07,4.6352,-4.5085e-14,1.3789e-07,-6.1691e-07,-4.6352,1.9121
20106,21.263,3.3636,0,5.6813e-05,567.73,1.9474e-05,0.03465,1.7514e-05,-14.694,-5.7048e-05,-574.92,1.9121
20107,21.354,3.2727,0,5.5047e-05,550.09,1.8659e-05,0.035295,1.733e-05,-9.9486,-5.5209e-05,-554.98,1.9253
20108,21.263,3.2727,0.05,8.0127e-07,8.0072,6.1528e-07,4.623,9.3027e-14,6.5751e-07,-6.1528e-07,-4.623,1.9121
20109,21.263,3.5455,0,5.6843e-05,568.04,1.9418e-05,0.035035,1.7638e-05,-13.335,-5.7058e-05,-574.57,1.912
20110,21.354,3.4545,0,5.507e-05,550.32,1.8619e-05,0.03568,1.7419e-05,-8.98,-5.5216e-05,-554.73,1.9253
20111,21.263,3.4545,0.05,7.9707e-07,7.9652,6.1205e-07,4.5987,1.0141e-14,9.8712e-07,-6.1205e-07,-4.5987,1.912
20112,21.263,3.7273,0,5.6884e-05,568.44,1.9343e-05,0.035482,1.7804e-05,-11.525,-5.707e-05,-574.1,1.912
20113,21.354,3.6364,0,5.5102e-05,550.64,1.8561e-05,0.036211,1.7546e-05,-7.5907,-5.5226e-05,-554.38,1.9253
20114,21.263,3.6364,0.05,7.9092e-07,7.9037,6.0732e-07,4.5632,1.6962e-13,1.4255e-06,-6.0733e-07,-4.5632,1.912
20115,21.263,3.9091,0,5.6931e-05,568.92,1.9252e-05,0.035904,1.8002e-05,-9.353,-5.7084e-05,-573.52,1.9119
20116,21.354,3.8182,0,5.5141e-05,551.03,1.8489e-05,0.036875,1.7705e-05,-5.8526,-5.5238e-05,-553.92,1.9252
20117,21.263,3.8182,0.05,7.8297e-07,7.8242,6.0122e-07,4.5173,-3.3889e-13,2.5412e-06,-6.0122e-07,-4.5173,1.912
20118,21.263,4.0909,0,5.6984e-05,569.45,1.915e-05,0.036207,1.8224e-05,-6.9207,-5.7098e-05,-572.86,1.9119
20119,21.354,4,0,5.5186e-05,551.48,1.8405e-05,0.037771,1.7887e-05,-3.8543,-5.525e-05,-553.38,1.9252
20120,21.263,4,0.05,7.7345e-07,7.7292,5.9391e-07,4.4624,3.0755e-13,2.2156e-06,-5.9391e-07,-4.4624,1.9119
20121,21.263,4.2727,0,5.704e-05,570,1.9041e-05,0.036364,1.8458e-05,-4.3394,-5.7112e-05,-572.14,1.9118
20122,21.354,4.1818,0,5.5233e-05,551.94,1.8314e-05,0.040129,1.8083e-05,-1.696,-5.5261e-05,-552.77,1.9251
20123,21.263,4.1818,0.05,7.6266e-07,7.6213,5.8563e-07,4.4002,8.9122e-14,1.2844e-06,-5.8563e-07,-4.4002,1.9118
20124,21.263,4.4545,0,5.7097e-05,570.57,1.893e-05,0.037139,1.8696e-05,-1.7222,-5.7125e-05,-571.41,1.9117
20125,21.354,4.3636,0,5.528e-05,552.41,1.8287e-05,0.54231,1.8217e-05,0.020593,-5.527e-05,-552.13,1.925
20126,21.263,4.3636,0.05,7.5094e-07,7.5042,5.7663e-07,4.3325,5.4929e-13,3.9968e-06,-5.7663e-07,-4.3325,1.9118
20127,21.263,4.6364,0,5.7154e-05,571.15,1.8929e-05,0.83581,1.8822e-05,0.027281,-5.714e-05,-570.72,1.9116
20128,21.354,4.5455,0,5.5326e-05,552.88,1.8482e-05,2.7087,1.8126e-05,0.031362,-5.5279e-05,-551.5,1.9249
20129,21.263,4.5455,0.05,7.3868e-07,7.3817,5.6721e-07,4.2618,5.9715e-13,2.6773e-06,-5.6721e-07,-4.2618,1.9117
20130,21.263,4.8182,0,5.7214e-05,571.74,1.9148e-05,3.2201,1.8723e-05,0.028982,-5.7158e-05,-570.11,1.9115
20131,21.354,4.7273,0,5.5372e-05,553.33,1.8668e-05,4.756,1.8039e-05,0.0305,-5.5289e-05,-550.93,1.9248
20132,21.263,4.7273,0.05,7.2632e-07,7.2581,5.5772e-07,4.1905,8.7753e-13,4.3582e-06,-5.5772e-07,-4.1905,1.9116
20133,21.263,5,0,5.7277e-05,572.38,1.9349e-05,5.3753,1.8637e-05,0.025784,-5.7183e-05,-569.66,1.9114
20134,21.354,4.9091,0,5.5419e-05,553.81,1.8838e-05,6.6029,1.7962e-05,0.027687,-5.5303e-05,-550.46,1.9247
20135,21.263,4.9091,0.05,7.1431e-07,7.1381,5.485e-07,4.1212,7.2571e-13,5.5103e-06,-5.485e-07,-4.1212,1.9114
20136,21.263,5.1818,0,5.735e-05,573.11,1.953e-05,7.2531,1.8567e-05,0.020644,-5.7223e-05,-569.44,1.9112
20137,21.354,5.0909,0,5.5472e-05,554.33,1.8988e-05,8.2016,1.79e-05,0.023311,-5.5327e-05,-550.17,1.9246
20138,21.263,5.0909,0.05,7.031e-07,7.0262,5.399e-07,4.0566,7.8018e-13,4.2588e-06,-5.399e-07,-4.0566,1.9113
20139,21.263,5.3636,0,5.744e-05,574.01,1.9692e-05,8.8409,1.8517e-05,0.01419,-5.7285e-05,-569.53,1.9111
20140,21.354,5.2727,0,5.5537e-05,554.98,1.9121e-05,9.5333,1.7854e-05,0.016838,-5.5368e-05,-550.15,1.9244
20141,21.263,5.2727,0.05,6.9304e-07,6.9257,5.3217e-07,3.9985,1.0712e-12,5.9159e-06,-5.3217e-07,-3.9985,1.9112
20142,21.263,5.5455,0,5.7562e-05,575.22,1.9845e-05,10.19,1.8489e-05,0.0029819,-5.7382e-05,-570.06,1.9109
20143,21.354,5.4545,0,5.5623e-05,555.85,1.924e-05,10.616,1.7828e-05,0.0098585,-5.5435e-05,-550.46,1.9243
20144,21.263,5.4545,0.05,6.8311e-07,6.8264,5.2454e-07,3.9412,1.3493e-12,6.3838e-06,-5.2455e-07,-3.9412,1.911
20145,21.263,5.7273,0,5.7821e-05,577.82,2.0079e-05,11.976,1.8484e-05,-0.005943,-5.7609e-05,-571.74,1.9108
20146,21.354,5.6364,0,5.5754e-05,557.16,1.9362e-05,11.56,1.7823e-05,-0.0068223,-5.5548e-05,-551.29,1.9241
20147,21.263,5.6364,0.05,6.5262e-07,6.5217,5.0113e-07,3.7653,1.3783e-12,7.917e-06,-5.0113e-07,-3.7653,1.9108
20148,21.354,5.8182,0,5.6138e-05,560.99,1.9669e-05,13.73,1.7841e-05,-0.0040518,-5.5892e-05,-554,1.9239
20149,21.263,5.8182,0.05,2.7977e-07,2.7957,2.1483e-07,1.6141,1.1845e-12,6.7007e-06,-2.1483e-07,-1.6141,1.9106
20150,21.263,5.9091,0,5.7455e-05,574.15,1.9728e-05,9.2135,1.8503e-05,0.0088827,-5.7293e-05,-569.49,1.9106
20151,21.446,0.27273,0,5.4045e-05,540.08,1.893e-05,13.154,1.7179e-05,-0.0092361,-5.3809e-05,-533.39,1.9373
20152,21.537,0.18182,0,5.2343e-05,523.07,1.8497e-05,14.705,1.6539e-05,-0.005911,-5.2078e-05,-515.57,1.9505
20153,21.446,0.18182,0.05,2.9178e-07,2.9158,2.2405e-07,1.6834,-2.477e-13,4.952e-06,-2.2405e-07,-1.6834,1.9372
20154,21.446,0.090909,0,5.364e-05,536.03,1.852e-05,9.8288,1.7213e-05,0.0078711,-5.3466e-05,-531.04,1.9371
20155,21.446,0.45455,0,5.3806e-05,537.69,1.8749e-05,11.925,1.7162e-05,-6.8439e-05,-5.3594e-05,-531.63,1.9375
20156,21.537,0.36364,0,5.1978e-05,519.42,1.8239e-05,13.041,1.6502e-05,-0.011291,-5.1744e-05,-512.79,1.9507
20157,21.446,0.36364,0.05,6.5903e-07,6.5858,5.0605e-07,3.8023,-2.3841e-13,7.5271e-06,-5.0605e-07,-3.8023,1.9374
20158,21.446,0.63636,0,5.3712e-05,536.75,1.8662e-05,11.258,1.7166e-05,0.01268,-5.3512e-05,-531.03,1.9376
20159,21.537,0.54545,0,5.1878e-05,518.42,1.8181e-05,12.752,1.6485e-05,0.0082383,-5.1649e-05,-511.92,1.9509
20160,21.446,0.54545,0.05,6.8838e-07,6.879,5.2859e-07,3.9716,4.4345e-13,1.0068e-05,-5.2859e-07,-3.9716,1.9376
20161,21.446,0.81818,0,5.3652e-05,536.15,1.8574e-05,10.438,1.7187e-05,0.019723,-5.3466e-05,-530.84,1.9378
20162,21.537,0.72727,0,5.1824e-05,517.88,1.8135e-05,12.413,1.6485e-05,0.015817,-5.1601e-05,-511.55,1.951
20163,21.446,0.72727,0.05,6.9708e-07,6.966,5.3527e-07,4.0218,1.7664e-15,7.6442e-06,-5.3527e-07,-4.0218,1.9377
20164,21.446,1,0,5.3608e-05,535.71,1.8472e-05,9.3926,1.7226e-05,0.025447,-5.3442e-05,-530.94,1.9379
20165,21.537,0.90909,0,5.1793e-05,517.57,1.8081e-05,11.892,1.6501e-05,0.022997,-5.158e-05,-511.51,1.9512
20166,21.446,0.90909,0.05,7.0561e-07,7.0512,5.4182e-07,4.071,2.1627e-14,6.4128e-06,-5.4182e-07,-4.071,1.9378
20167,21.446,1.1818,0,5.3573e-05,535.36,1.8354e-05,8.1088,1.7278e-05,0.029359,-5.343e-05,-531.25,1.9381
20168,21.537,1.0909,0,5.1773e-05,517.37,1.8012e-05,11.146,1.6532e-05,0.027871,-5.1574e-05,-511.7,1.9513
20169,21.446,1.0909,0.05,7.1504e-07,7.1454,5.4906e-07,4.1254,5.0725e-14,5.3062e-06,-5.4906e-07,-4.1254,1.938
20170,21.446,1.3636,0,5.3541e-05,535.04,1.8218e-05,6.6076,1.7343e-05,0.031881,-5.3425e-05,-531.69,1.9382
20171,21.537,1.2727,0,5.1758e-05,517.22,1.7926e-05,10.171,1.6576e-05,0.031298,-5.1577e-05,-512.04,1.9514
20172,21.446,1.2727,0.05,7.2512e-07,7.2462,5.568e-07,4.1836,-3.7723e-13,4.393e-06,-5.568e-07,-4.1836,1.9381
20173,21.446,1.5455,0,5.3508e-05,534.71,1.8068e-05,4.9361,1.7415e-05,0.033151,-5.3421e-05,-532.2,1.9383
20174,21.537,1.4545,0,5.1741e-05,517.05,1.7822e-05,8.9914,1.663e-05,0.033456,-5.1582e-05,-512.48,1.9515
20175,21.446,1.4545,0.05,7.3549e-07,7.3499,5.6477e-07,4.2435,-1.12e-13,3.7825e-06,-5.6477e-07,-4.2434,1.9382
20176,21.446,1.7273,0,5.3472e-05,534.35,1.7908e-05,3.1624,1.7492e-05,0.033141,-5.3417e-05,-532.75,1.9383
20177,21.537,1.6364,0,5.1721e-05,516.85,1.7705e-05,7.6555,1.669e-05,0.034673,-5.1586e-05,-512.97,1.9516
20178,21.446,1.6364,0.05,7.4579e-07,7.4527,5.7267e-07,4.3028,-3.1318e-13,3.7347e-06,-5.7267e-07,-4.3028,1.9383
20179,21.446,1.9091,0,5.3435e-05,533.98,1.7746e-05,1.3709,1.7568e-05,0.030217,-5.3411e-05,-533.28,1.9384
20180,21.537,1.8182,0,5.1697e-05,516.61,1.7578e-05,6.2303,1.6753e-05,0.035203,-5.1587e-05,-513.45,1.9517
20181,21.446,1.8182,0.05,7.5564e-07,7.5511,5.8024e-07,4.3597,-6.2907e-14,2.3866e-06,-5.8023e-07,-4.3596,1.9384
20182,21.446,2.0909,0,5.3397e-05,533.6,1.7644e-05,0.053807,1.7587e-05,-0.3772,-5.3403e-05,-533.77,1.9385
20183,21.537,2,0,5.1669e-05,516.34,1.7449e-05,4.7945,1.6816e-05,0.035275,-5.1586e-05,-513.91,1.9517
20184,21.446,2,0.05,7.6471e-07,7.6418,5.872e-07,4.412,-5.1001e-13,2.2793e-06,-5.872e-07,-4.412,1.9384
20185,21.446,2.2727,0,5.3362e-05,533.25,1.7708e-05,0.039228,1.7446e-05,-1.9261,-5.3393e-05,-534.19,1.9385
20186,21.537,2.1818,0,5.1641e-05,516.05,1.7326e-05,3.432,1.6874e-05,0.035077,-5.1581e-05,-514.31,1.9518
20187,21.446,2.1818,0.05,7.7272e-07,7.7219,5.9336e-07,4.4582,-5.6573e-14,2.5464e-06,-5.9335e-07,-4.4582,1.9385
20188,21.446,2.4545,0,5.3331e-05,532.94,1.7763e-05,0.037332,1.7326e-05,-3.2414,-5.3384e-05,-534.53,1.9386
20189,21.537,2.3636,0,5.1614e-05,515.78,1.7217e-05,2.2249,1.6925e-05,0.034783,-5.1575e-05,-514.65,1.9518
20190,21.446,2.3636,0.05,7.7942e-07,7.7889,5.985e-07,4.4969,-7.4611e-14,2.8026e-06,-5.985e-07,-4.4969,1.9385
20191,21.446,2.6364,0,5.3306e-05,532.7,1.7804e-05,0.036464,1.7235e-05,-4.2382,-5.3377e-05,-534.78,1.9386
20192,21.537,2.5455,0,5.1591e-05,515.55,1.7127e-05,1.2471,1.6966e-05,0.034556,-5.1569e-05,-514.91,1.9519
20193,21.446,2.5455,0.05,7.8462e-07,7.8408,6.0249e-07,4.5269,-1.0482e-13,2.9879e-06,-6.0249e-07,-4.5269,1.9386
20194,21.446,2.8182,0,5.3291e-05,532.54,1.7829e-05,0.036011,1.7178e-05,-4.8599,-5.3371e-05,-534.94,1.9386
20195,21.537,2.7273,0,5.1574e-05,515.38,1.7064e-05,0.55891,1.6995e-05,0.03468,-5.1564e-05,-515.08,1.9519
20196,21.446,2.7273,0.05,7.8816e-07,7.8762,6.0521e-07,4.5473,-1.4664e-13,1.6517e-06,-6.0521e-07,-4.5473,1.9386
20197,21.446,3,0,5.3286e-05,532.49,1.7838e-05,0.035865,1.7158e-05,-5.0712,-5.337e-05,-534.99,1.9386
20198,21.537,2.9091,0,5.1565e-05,515.29,1.7032e-05,0.20238,1.7009e-05,0.036074,-5.1561e-05,-515.17,1.9519
20199,21.446,2.9091,0.05,7.8996e-07,7.8941,6.0659e-07,4.5577,-1.9887e-13,2.3003e-06,-6.0659e-07,-4.5577,1.9386
20200,21.446,3.1818,0,5.3291e-05,532.54,1.7829e-05,0.036011,1.7178e-05,-4.8599,-5.3371e-05,-534.94,1.9386
20201,21.537,3.0909,0,5.1565e-05,515.29,1.7032e-05,0.20239,1.7009e-05,0.036074,-5.1561e-05,-515.17,1.9519
20202,21.446,3.0909,0.05,7.8996e-07,7.8941,6.0659e-07,4.5577,-2.9322e-14,1.5974e-06,-6.0659e-07,-4.5577,1.9386
20203,21.446,3.3636,0,5.3306e-05,532.7,1.7804e-05,0.036464,1.7235e-05,-4.2382,-5.3377e-05,-534.78,1.9386
20204,21.537,3.2727,0,5.1574e-05,515.38,1.7064e-05,0.55892,1.6995e-05,0.034679,-5.1564e-05,-515.08,1.9519
20205,21.446,3.2727,0.05,7.8816e-07,7.8762,6.0521e-07,4.5473,1.4007e-13,2.5342e-06,-6.0521e-07,-4.5473,1.9386
20206,21.446,3.5455,0,5.3331e-05,532.94,1.7763e-05,0.037331,1.7326e-05,-3.2414,-5.3384e-05,-534.53,1.9386
20207,21.537,3.4545,0,5.1591e-05,515.55,1.7127e-05,1.2471,1.6966e-05,0.034555,-5.1569e-05,-514.91,1.9519
20208,21.446,3.4545,0.05,7.8462e-07,7.8408,6.0249e-07,4.5269,-1.3953e-13,2.6862e-06,-6.0249e-07,-4.5269,1.9386
20209,21.446,3.7273,0,5.3362e-05,533.25,1.7708e-05,0.039228,1.7446e-05,-1.9261,-5.3393e-05,-534.19,1.9385
20210,21.537,3.6364,0,5.1614e-05,515.78,1.7217e-05,2.2249,1.6925e-05,0.034782,-5.1575e-05,-514.65,1.9518
20211,21.446,3.6364,0.05,7.7942e-07,7.7889,5.985e-07,4.4969,4.9898e-13,3.5472e-06,-5.985e-07,-4.4969,1.9385
20212,21.446,3.9091,0,5.3397e-05,533.6,1.7644e-05,0.05381,1.7587e-05,-0.37717,-5.3403e-05,-533.77,1.9385
20213,21.537,3.8182,0,5.1641e-05,516.05,1.7326e-05,3.4321,1.6874e-05,0.035078,-5.1581e-05,-514.31,1.9518
20214,21.446,3.8182,0.05,7.7272e-07,7.7219,5.9336e-07,4.4582,6.9352e-13,4.7499e-06,-5.9336e-07,-4.4582,1.9385
20215,21.446,4.0909,0,5.3435e-05,533.98,1.7747e-05,1.371,1.7568e-05,0.030215,-5.3411e-05,-533.28,1.9384
20216,21.537,4,0,5.1669e-05,516.34,1.7449e-05,4.7945,1.6816e-05,0.035274,-5.1586e-05,-513.91,1.9517
20217,21.446,4,0.05,7.6471e-07,7.6418,5.872e-07,4.412,4.5435e-13,3.8422e-06,-5.872e-07,-4.412,1.9384
20218,21.446,4.2727,0,5.3472e-05,534.35,1.7908e-05,3.1624,1.7492e-05,0.03314,-5.3417e-05,-532.75,1.9383
20219,21.537,4.1818,0,5.1697e-05,516.61,1.7578e-05,6.2303,1.6753e-05,0.035203,-5.1587e-05,-513.45,1.9517
20220,21.446,4.1818,0.05,7.5564e-07,7.5511,5.8023e-07,4.3597,6.8277e-13,3.6524e-06,-5.8023e-07,-4.3597,1.9384
20221,21.446,4.4545,0,5.3508e-05,534.71,1.8068e-05,4.9361,1.7415e-05,0.03315,-5.3421e-05,-532.2,1.9383
20222,21.537,4.3636,0,5.1721e-05,516.85,1.7705e-05,7.6556,1.669e-05,0.034673,-5.1586e-05,-512.97,1.9516
20223,21.446,4.3636,0.05,7.4579e-07,7.4527,5.7267e-07,4.3028,7.0124e-13,6.0221e-06,-5.7267e-07,-4.3028,1.9383
20224,21.446,4.6364,0,5.3541e-05,535.04,1.8218e-05,6.6076,1.7343e-05,0.031881,-5.3425e-05,-531.69,1.9382
20225,21.537,4.5455,0,5.1741e-05,517.05,1.7822e-05,8.9914,1.663e-05,0.033456,-5.1582e-05,-512.48,1.9515
20226,21.446,4.5455,0.05,7.3549e-07,7.3499,5.6477e-07,4.2434,7.3778e-13,5.0232e-06,-5.6477e-07,-4.2434,1.9382
20227,21.446,4.8182,0,5.3573e-05,535.36,1.8354e-05,8.1088,1.7278e-05,0.02936,-5.343e-05,-531.25,1.9381
20228,21.537,4.7273,0,5.1758e-05,517.22,1.7926e-05,10.171,1.6576e-05,0.031298,-5.1577e-05,-512.04,1.9514
20229,21.446,4.7273,0.05,7.2512e-07,7.2462,5.568e-07,4.1836,7.7741e-13,6.8692e-06,-5.568e-07,-4.1836,1.9381
20230,21.446,5,0,5.3608e-05,535.71,1.8472e-05,9.3926,1.7226e-05,0.025446,-5.3442e-05,-530.94,1.9379
20231,21.537,4.9091,0,5.1773e-05,517.37,1.8012e-05,11.146,1.6532e-05,0.027873,-5.1574e-05,-511.7,1.9513
20232,21.446,4.9091,0.05,7.1504e-07,7.1454,5.4906e-07,4.1254,8.2964e-13,7.4009e-06,-5.4906e-07,-4.1254,1.938
20233,21.446,5.1818,0,5.3652e-05,536.15,1.8574e-05,10.438,1.7187e-05,0.01972,-5.3466e-05,-530.84,1.9378
20234,21.537,5.0909,0,5.1793e-05,517.57,1.8081e-05,11.892,1.6501e-05,0.022994,-5.158e-05,-511.51,1.9512
20235,21.446,5.0909,0.05,7.0561e-07,7.0512,5.4182e-07,4.071,8.6806e-13,6.1891e-06,-5.4182e-07,-4.071,1.9378
20236,21.446,5.3636,0,5.3712e-05,536.75,1.8662e-05,11.258,1.7166e-05,0.012679,-5.3512e-05,-531.03,1.9376
20237,21.537,5.2727,0,5.1824e-05,517.88,1.8135e-05,12.413,1.6485e-05,0.015816,-5.1601e-05,-511.55,1.951
20238,21.446,5.2727,0.05,6.9708e-07,6.966,5.3527e-07,4.0218,1.3612e-12,7.8463e-06,-5.3527e-07,-4.0218,1.9377
20239,21.446,5.5455,0,5.3806e-05,537.69,1.8749e-05,11.925,1.7162e-05,-6.6349e-05,-5.3594e-05,-531.63,1.9375
20240,21.537,5.4545,0,5.1878e-05,518.42,1.8181e-05,12.752,1.6485e-05,0.0082398,-5.1649e-05,-511.92,1.9509
20241,21.446,5.4545,0.05,6.8838e-07,6.879,5.2859e-07,3.9716,1.3868e-12,8.1294e-06,-5.2859e-07,-3.9716,1.9376
20242,21.446,5.7273,0,5.4045e-05,540.08,1.893e-05,13.153,1.7179e-05,-0.0092345,-5.3809e-05,-533.39,1.9373
20243,21.537,5.6364,0,5.1978e-05,519.42,1.8239e-05,13.041,1.6502e-05,-0.011288,-5.1744e-05,-512.79,1.9507
20244,21.446,5.6364,0.05,6.5903e-07,6.5858,5.0605e-07,3.8023,1.1665e-12,9.2885e-06,-5.0605e-07,-3.8023,1.9374
20245,21.537,5.8182,0,5.2343e-05,523.07,1.8497e-05,14.705,1.6539e-05,-0.0059118,-5.2078e-05,-515.57,1.9505
20246,21.446,5.8182,0.05,2.9178e-07,2.9158,2.2405e-07,1.6834,1.1616e-12,7.3352e-06,-2.2405e-07,-1.6834,1.9372
20247,21.446,5.9091,0,5.364e-05,536.03,1.852e-05,9.8288,1.7213e-05,0.0078695,-5.3466e-05,-531.04,1.9371
20248,21.628,0.27273,0,5.025e-05,502.15,1.7783e-05,14.421,1.5862e-05,-0.012984,-4.9989e-05,-494.79,1.9639
20249,21.719,0.18182,0,4.8531e-05,484.97,1.7324e-05,15.73,1.5229e-05,-0.0083098,-4.8244e-05,-476.92,1.9772
20250,21.628,0.18182,0.05,3.034e-07,3.0319,2.3297e-07,1.7505,-6.9717e-13,4.4392e-06,-2.3297e-07,-1.7504,1.9638
20251,21.628,0.090909,0,4.98e-05,497.65,1.7306e-05,10.48,1.5913e-05,0.0073073,-4.9613e-05,-492.33,1.9637
20252,21.628,0.45455,0,5.004e-05,500.05,1.7662e-05,13.803,1.5824e-05,-0.0030102,-4.9791e-05,-493.01,1.9641
20253,21.719,0.36364,0,4.8191e-05,481.58,1.7121e-05,14.634,1.5171e-05,-0.015984,-4.7926e-05,-474.1,1.9773
20254,21.628,0.36364,0.05,6.6373e-07,6.6327,5.0966e-07,3.8294,-4.5089e-14,8.3304e-06,-5.0966e-07,-3.8294,1.964
20255,21.628,0.63636,0,4.9982e-05,499.47,1.7646e-05,13.854,1.5804e-05,0.011665,-4.9731e-05,-492.39,1.9642
20256,21.719,0.54545,0,4.8129e-05,480.96,1.7134e-05,15.047,1.5132e-05,0.0070478,-4.7855e-05,-473.25,1.9775
20257,21.628,0.54545,0.05,6.9209e-07,6.9161,5.3144e-07,3.993,4.2097e-13,1.4368e-05,-5.3144e-07,-3.993,1.9642
20258,21.628,0.81818,0,4.9959e-05,499.24,1.7636e-05,13.821,1.5799e-05,0.019391,-4.9709e-05,-492.18,1.9644
20259,21.719,0.72727,0,4.8116e-05,480.83,1.7165e-05,15.483,1.5107e-05,0.015355,-4.7834e-05,-472.89,1.9776
20260,21.628,0.72727,0.05,6.9988e-07,6.994,5.3742e-07,4.038,-2.9573e-14,1.1231e-05,-5.3742e-07,-4.038,1.9643
20261,21.628,1,0,4.9953e-05,499.18,1.7616e-05,13.607,1.5808e-05,0.025703,-4.9707e-05,-492.23,1.9645
20262,21.719,0.90909,0,4.8127e-05,480.94,1.7193e-05,15.783,1.5096e-05,0.023315,-4.7839e-05,-472.84,1.9778
20263,21.628,0.90909,0.05,7.0727e-07,7.0678,5.4309e-07,4.0806,-1.2836e-14,1.0389e-05,-5.4309e-07,-4.0806,1.9644
20264,21.628,1.1818,0,4.9954e-05,499.2,1.758e-05,13.177,1.583e-05,0.030059,-4.9717e-05,-492.46,1.9646
20265,21.719,1.0909,0,4.8148e-05,481.15,1.7208e-05,15.884,1.5098e-05,0.028665,-4.7858e-05,-473,1.9779
20266,21.628,1.0909,0.05,7.1536e-07,7.1486,5.4931e-07,4.1273,2.3539e-13,7.8123e-06,-5.4931e-07,-4.1273,1.9646
20267,21.628,1.3636,0,4.9956e-05,499.21,1.7527e-05,12.53,1.5864e-05,0.033053,-4.973e-05,-492.82,1.9647
20268,21.719,1.2727,0,4.8171e-05,481.38,1.7205e-05,15.759,1.5112e-05,0.032504,-4.7883e-05,-473.29,1.978
20269,21.628,1.2727,0.05,7.2397e-07,7.2347,5.5592e-07,4.177,2.9496e-14,6.5425e-06,-5.5592e-07,-4.177,1.9647
20270,21.628,1.5455,0,4.9954e-05,499.19,1.7457e-05,11.692,1.5905e-05,0.034966,-4.9744e-05,-493.23,1.9648
20271,21.719,1.4545,0,4.819e-05,481.57,1.7183e-05,15.412,1.5136e-05,0.035057,-4.7909e-05,-473.66,1.9781
20272,21.628,1.4545,0.05,7.3281e-07,7.3231,5.6271e-07,4.228,-6.288e-13,6.3396e-06,-5.6271e-07,-4.228,1.9648
20273,21.628,1.7273,0,4.9946e-05,499.11,1.7372e-05,10.709,1.5952e-05,0.036116,-4.9754e-05,-493.65,1.9649
20274,21.719,1.6364,0,4.8202e-05,481.68,1.7142e-05,14.873,1.5167e-05,0.036706,-4.7931e-05,-474.06,1.9782
20275,21.628,1.6364,0.05,7.4158e-07,7.4106,5.6944e-07,4.2785,7.467e-14,6.143e-06,-5.6944e-07,-4.2785,1.9649
20276,21.628,1.9091,0,4.9932e-05,498.98,1.728e-05,9.6462,1.6001e-05,0.036762,-4.9761e-05,-494.07,1.965
20277,21.719,1.8182,0,4.8205e-05,481.72,1.7086e-05,14.19,1.5203e-05,0.037722,-4.7947e-05,-474.45,1.9783
20278,21.628,1.8182,0.05,7.4996e-07,7.4944,5.7587e-07,4.3269,9.1389e-14,5.1714e-06,-5.7587e-07,-4.3269,1.9649
20279,21.628,2.0909,0,4.9915e-05,498.8,1.7185e-05,8.5748,1.6048e-05,0.037114,-4.9763e-05,-494.44,1.9651
20280,21.719,2,0,4.8201e-05,481.68,1.7022e-05,13.425,1.524e-05,0.038332,-4.7958e-05,-474.81,1.9783
20281,21.628,2,0.05,7.5768e-07,7.5716,5.818e-07,4.3715,-1.2556e-13,5.3024e-06,-5.818e-07,-4.3714,1.965
20282,21.628,2.2727,0,4.9895e-05,498.61,1.7095e-05,7.57,1.6092e-05,0.037339,-4.9761e-05,-494.76,1.9651
20283,21.719,2.1818,0,4.8192e-05,481.59,1.6954e-05,12.648,1.5276e-05,0.038701,-4.7964e-05,-475.12,1.9784
20284,21.628,2.1818,0.05,7.645e-07,7.6397,5.8704e-07,4.4108,-1.2267e-13,5.4933e-06,-5.8704e-07,-4.4108,1.9651
20285,21.628,2.4545,0,4.9877e-05,498.42,1.7016e-05,6.7029,1.6129e-05,0.037542,-4.9758e-05,-495.02,1.9651
20286,21.719,2.3636,0,4.8181e-05,481.47,1.6891e-05,11.927,1.5308e-05,0.038944,-4.7966e-05,-475.38,1.9784
20287,21.628,2.3636,0.05,7.702e-07,7.6967,5.9142e-07,4.4437,9.6702e-14,5.2549e-06,-5.9142e-07,-4.4437,1.9651
20288,21.628,2.6364,0,4.9861e-05,498.27,1.6956e-05,6.0352,1.6157e-05,0.037755,-4.9755e-05,-495.2,1.9652
20289,21.719,2.5455,0,4.8169e-05,481.36,1.6837e-05,11.324,1.5335e-05,0.039123,-4.7966e-05,-475.58,1.9785
20290,21.628,2.5455,0.05,7.7462e-07,7.7409,5.9481e-07,4.4692,-1.4907e-13,5.6542e-06,-5.9481e-07,-4.4692,1.9651
20291,21.628,2.8182,0,4.9851e-05,498.17,1.6917e-05,5.6145,1.6175e-05,0.037934,-4.9752e-05,-495.32,1.9652
20292,21.719,2.7273,0,4.816e-05,481.27,1.6798e-05,10.891,1.5353e-05,0.039252,-4.7965e-05,-475.71,1.9785
20293,21.628,2.7273,0.05,7.7764e-07,7.771,5.9713e-07,4.4866,5.1589e-14,4.6789e-06,-5.9713e-07,-4.4866,1.9652
20294,21.628,3,0,4.9847e-05,498.13,1.6904e-05,5.4708,1.6181e-05,0.038006,-4.9752e-05,-495.35,1.9652
20295,21.719,2.9091,0,4.8155e-05,481.21,1.6777e-05,10.665,1.5363e-05,0.039322,-4.7964e-05,-475.77,1.9785
20296,21.628,2.9091,0.05,7.7917e-07,7.7863,5.9831e-07,4.4954,1.836e-14,5.1446e-06,-5.9831e-07,-4.4954,1.9652
20297,21.628,3.1818,0,4.9851e-05,498.17,1.6917e-05,5.6145,1.6175e-05,0.037934,-4.9752e-05,-495.32,1.9652
20298,21.719,3.0909,0,4.8155e-05,481.21,1.6777e-05,10.665,1.5363e-05,0.039323,-4.7964e-05,-475.77,1.9785
20299,21.628,3.0909,0.05,7.7917e-07,7.7863,5.9831e-07,4.4954,-1.8811e-14,4.8655e-06,-5.983e-07,-4.4954,1.9652
20300,21.628,3.3636,0,4.9861e-05,498.27,1.6956e-05,6.0352,1.6157e-05,0.037754,-4.9755e-05,-495.2,1.9652
20301,21.719,3.2727,0,4.816e-05,481.27,1.6798e-05,10.891,1.5353e-05,0.039251,-4.7965e-05,-475.71,1.9785
20302,21.628,3.2727,0.05,7.7764e-07,7.771,5.9713e-07,4.4866,1.7186e-13,5.5428e-06,-5.9713e-07,-4.4866,1.9652
20303,21.628,3.5455,0,4.9877e-05,498.42,1.7016e-05,6.7029,1.6129e-05,0.037543,-4.9759e-05,-495.02,1.9651
20304,21.719,3.4545,0,4.8169e-05,481.36,1.6837e-05,11.324,1.5335e-05,0.039123,-4.7966e-05,-475.58,1.9785
20305,21.628,3.4545,0.05,7.7462e-07,7.7409,5.9481e-07,4.4692,1.3918e-13,5.5978e-06,-5.9481e-07,-4.4692,1.9651
20306,21.628,3.7273,0,4.9895e-05,498.61,1.7095e-05,7.57,1.6092e-05,0.03734,-4.9761e-05,-494.76,1.9651
20307,21.719,3.6364,0,4.8181e-05,481.47,1.6891e-05,11.927,1.5308e-05,0.038944,-4.7966e-05,-475.38,1.9784
20308,21.628,3.6364,0.05,7.702e-07,7.6967,5.9142e-07,4.4437,1.1538e-13,6.8986e-06,-5.9142e-07,-4.4437,1.9651
20309,21.628,3.9091,0,4.9915e-05,498.8,1.7185e-05,8.5748,1.6048e-05,0.037115,-4.9763e-05,-494.44,1.9651
20310,21.719,3.8182,0,4.8192e-05,481.59,1.6954e-05,12.648,1.5276e-05,0.0387,-4.7964e-05,-475.12,1.9784
20311,21.628,3.8182,0.05,7.645e-07,7.6397,5.8704e-07,4.4108,3.2509e-13,7.8409e-06,-5.8704e-07,-4.4108,1.9651
20312,21.628,4.0909,0,4.9932e-05,498.98,1.728e-05,9.6462,1.6001e-05,0.036762,-4.9761e-05,-494.07,1.965
20313,21.719,4,0,4.8201e-05,481.68,1.7022e-05,13.425,1.524e-05,0.038333,-4.7958e-05,-474.81,1.9783
20314,21.628,4,0.05,7.5768e-07,7.5716,5.818e-07,4.3715,5.4845e-13,7.5902e-06,-5.818e-07,-4.3714,1.965
20315,21.628,4.2727,0,4.9946e-05,499.11,1.7372e-05,10.709,1.5952e-05,0.036117,-4.9754e-05,-493.65,1.9649
20316,21.719,4.1818,0,4.8205e-05,481.72,1.7086e-05,14.19,1.5203e-05,0.037721,-4.7947e-05,-474.45,1.9783
20317,21.628,4.1818,0.05,7.4996e-07,7.4944,5.7587e-07,4.3269,5.5777e-13,6.7457e-06,-5.7587e-07,-4.3269,1.9649
20318,21.628,4.4545,0,4.9954e-05,499.19,1.7457e-05,11.692,1.5905e-05,0.034967,-4.9744e-05,-493.23,1.9648
20319,21.719,4.3636,0,4.8202e-05,481.68,1.7142e-05,14.873,1.5167e-05,0.036707,-4.7931e-05,-474.06,1.9782
20320,21.628,4.3636,0.05,7.4158e-07,7.4106,5.6944e-07,4.2785,8.0467e-13,9.8513e-06,-5.6944e-07,-4.2785,1.9649
20321,21.628,4.6364,0,4.9956e-05,499.21,1.7527e-05,12.53,1.5864e-05,0.033052,-4.973e-05,-492.82,1.9647
20322,21.719,4.5455,0,4.819e-05,481.57,1.7183e-05,15.412,1.5136e-05,0.035056,-4.7909e-05,-473.66,1.9781
20323,21.628,4.5455,0.05,7.3281e-07,7.3231,5.6271e-07,4.228,6.0685e-13,8.1378e-06,-5.6271e-07,-4.228,1.9648
20324,21.628,4.8182,0,4.9954e-05,499.2,1.758e-05,13.177,1.583e-05,0.03006,-4.9717e-05,-492.46,1.9646
20325,21.719,4.7273,0,4.8171e-05,481.38,1.7205e-05,15.759,1.5112e-05,0.032503,-4.7883e-05,-473.29,1.978
20326,21.628,4.7273,0.05,7.2397e-07,7.2347,5.5592e-07,4.177,8.6555e-13,9.8127e-06,-5.5592e-07,-4.177,1.9647
20327,21.628,5,0,4.9953e-05,499.18,1.7616e-05,13.607,1.5808e-05,0.025703,-4.9707e-05,-492.23,1.9645
20328,21.719,4.9091,0,4.8148e-05,481.15,1.7208e-05,15.884,1.5098e-05,0.028666,-4.7858e-05,-473,1.9779
20329,21.628,4.9091,0.05,7.1536e-07,7.1486,5.4931e-07,4.1273,1.1259e-12,1.0532e-05,-5.4931e-07,-4.1273,1.9646
20330,21.628,5.1818,0,4.9959e-05,499.24,1.7636e-05,13.821,1.5799e-05,0.019391,-4.9709e-05,-492.18,1.9644
20331,21.719,5.0909,0,4.8127e-05,480.94,1.7193e-05,15.783,1.5096e-05,0.023312,-4.7839e-05,-472.84,1.9778
20332,21.628,5.0909,0.05,7.0727e-07,7.0678,5.4309e-07,4.0806,9.2726e-13,9.0693e-06,-5.4309e-07,-4.0806,1.9644
20333,21.628,5.3636,0,4.9982e-05,499.47,1.7646e-05,13.854,1.5804e-05,0.011666,-4.9731e-05,-492.39,1.9642
20334,21.719,5.2727,0,4.8116e-05,480.83,1.7165e-05,15.483,1.5107e-05,0.015356,-4.7834e-05,-472.89,1.9776
20335,21.628,5.2727,0.05,6.9988e-07,6.994,5.3742e-07,4.038,1.171e-12,1.0997e-05,-5.3742e-07,-4.038,1.9643
20336,21.628,5.5455,0,5.004e-05,500.05,1.7662e-05,13.803,1.5824e-05,-0.0030083,-4.9791e-05,-493.01,1.9641
20337,21.719,5.4545,0,4.8129e-05,480.96,1.7134e-05,15.047,1.5132e-05,0.0070489,-4.7855e-05,-473.25,1.9775
20338,21.628,5.4545,0.05,6.9209e-07,6.9161,5.3144e-07,3.993,1.1817e-12,1.0961e-05,-5.3144e-07,-3.993,1.9642
20339,21.628,5.7273,0,5.025e-05,502.15,1.7783e-05,14.421,1.5862e-05,-0.012984,-4.9989e-05,-494.79,1.9639
20340,21.719,5.6364,0,4.8191e-05,481.58,1.7121e-05,14.634,1.5171e-05,-0.015981,-4.7926e-05,-474.11,1.9773
20341,21.628,5.6364,0.05,6.6373e-07,6.6327,5.0966e-07,3.8294,9.3674e-13,1.2176e-05,-5.0966e-07,-3.8294,1.964
20342,21.719,5.8182,0,4.8531e-05,484.97,1.7324e-05,15.73,1.5229e-05,-0.0083102,-4.8244e-05,-476.92,1.9772
20343,21.628,5.8182,0.05,3.034e-07,3.0319,2.3297e-07,1.7505,1.1978e-12,9.4732e-06,-2.3297e-07,-1.7505,1.9638
20344,21.628,5.9091,0,4.98e-05,497.65,1.7306e-05,10.48,1.5913e-05,0.0073065,-4.9613e-05,-492.33,1.9637
20345,21.811,0.27273,0,4.6444e-05,464.12,1.6638e-05,15.76,1.4538e-05,-0.017177,-4.6156e-05,-456.04,1.9906
20346,21.902,0.18182,0,4.4707e-05,446.76,1.6149e-05,16.788,1.3913e-05,-0.011317,-4.4398e-05,-438.13,2.0038
20347,21.811,0.18182,0.05,3.1529e-07,3.1507,2.421e-07,1.8191,-2.2251e-13,3.1031e-06,-2.421e-07,-1.819,1.9905
20348,21.811,0.090909,0,4.5944e-05,459.13,1.609e-05,11.155,1.4606e-05,0.0071664,-4.5744e-05,-453.44,1.9904
20349,21.811,0.45455,0,4.627e-05,462.38,1.6584e-05,15.808,1.4479e-05,-0.0058039,-4.5981e-05,-454.28,1.9907
20350,21.902,0.36364,0,4.4401e-05,443.7,1.601e-05,16.325,1.3835e-05,-0.020855,-4.4101e-05,-435.33,2.004
20351,21.811,0.36364,0.05,6.6716e-07,6.667,5.1229e-07,3.8492,-5.6166e-13,2.1946e-06,-5.1229e-07,-3.8492,1.9906
20352,21.811,0.63636,0,4.6256e-05,462.24,1.6645e-05,16.619,1.4435e-05,0.011178,-4.595e-05,-453.7,1.9909
20353,21.902,0.54545,0,4.4385e-05,443.54,1.61e-05,17.492,1.3772e-05,0.006335,-4.4061e-05,-434.53,2.0041
20354,21.811,0.54545,0.05,6.9462e-07,6.9415,5.3339e-07,4.0077,4.0033e-13,7.6485e-06,-5.3339e-07,-4.0076,1.9908
20355,21.811,0.81818,0,4.6278e-05,462.46,1.6716e-05,17.397,1.4404e-05,0.019686,-4.5957e-05,-453.51,1.991
20356,21.902,0.72727,0,4.4421e-05,443.9,1.6214e-05,18.738,1.3722e-05,0.015506,-4.4072e-05,-434.23,2.0043
20357,21.811,0.72727,0.05,7.0177e-07,7.0128,5.3887e-07,4.0489,1.9268e-13,9.4081e-06,-5.3887e-07,-4.0489,1.9909
20358,21.811,1,0,4.6317e-05,462.85,1.6781e-05,18.02,1.4386e-05,0.026629,-4.5984e-05,-453.57,1.9911
20359,21.902,0.90909,0,4.4481e-05,444.5,1.6327e-05,19.879,1.3685e-05,0.02433,-4.4109e-05,-434.21,2.0044
20360,21.811,0.90909,0.05,7.0833e-07,7.0784,5.4391e-07,4.0867,4.3291e-13,8.1639e-06,-5.4391e-07,-4.0867,1.9911
20361,21.811,1.1818,0,4.6362e-05,463.3,1.6829e-05,18.434,1.438e-05,0.031405,-4.602e-05,-453.79,1.9912
20362,21.902,1.0909,0,4.4549e-05,445.19,1.6428e-05,20.827,1.366e-05,0.030173,-4.4158e-05,-434.39,2.0045
20363,21.811,1.0909,0.05,7.1544e-07,7.1495,5.4937e-07,4.1278,-1.7014e-14,5.7143e-06,-5.4937e-07,-4.1277,1.9912
20364,21.811,1.3636,0,4.6403e-05,463.71,1.6858e-05,18.616,1.4385e-05,0.03475,-4.6058e-05,-454.11,1.9913
20365,21.902,1.2727,0,4.4617e-05,445.86,1.6508e-05,21.536,1.3647e-05,0.034393,-4.4211e-05,-434.68,2.0046
20366,21.811,1.2727,0.05,7.2295e-07,7.2246,5.5514e-07,4.1711,-1.2944e-14,3.8401e-06,-5.5514e-07,-4.1711,1.9913
20367,21.811,1.5455,0,4.6437e-05,464.05,1.6865e-05,18.573,1.4398e-05,0.036983,-4.6093e-05,-454.47,1.9914
20368,21.902,1.4545,0,4.4676e-05,446.45,1.6565e-05,21.993,1.3643e-05,0.037254,-4.4261e-05,-435.03,2.0047
20369,21.811,1.4545,0.05,7.3063e-07,7.3013,5.6104e-07,4.2154,-2.2669e-13,3.462e-06,-5.6103e-07,-4.2154,1.9914
20370,21.811,1.7273,0,4.6461e-05,464.29,1.6854e-05,18.338,1.4418e-05,0.038436,-4.6122e-05,-454.84,1.9915
20371,21.902,1.6364,0,4.4723e-05,446.92,1.6599e-05,22.21,1.3648e-05,0.039172,-4.4304e-05,-435.39,2.0048
20372,21.811,1.6364,0.05,7.3822e-07,7.3771,5.6686e-07,4.2592,1.4683e-14,3.6902e-06,-5.6686e-07,-4.2592,1.9915
20373,21.811,1.9091,0,4.6476e-05,464.44,1.6827e-05,17.957,1.4442e-05,0.039352,-4.6144e-05,-455.18,1.9916
20374,21.902,1.8182,0,4.4758e-05,447.27,1.6611e-05,22.223,1.3659e-05,0.040421,-4.4338e-05,-435.73,2.0049
20375,21.811,1.8182,0.05,7.4546e-07,7.4494,5.7242e-07,4.3009,2.9012e-14,2.7195e-06,-5.7242e-07,-4.3009,1.9915
20376,21.811,2.0909,0,4.6481e-05,464.49,1.679e-05,17.49,1.4468e-05,0.03992,-4.6158e-05,-455.48,1.9917
20377,21.902,2,0,4.4781e-05,447.5,1.6607e-05,22.083,1.3674e-05,0.041218,-4.4364e-05,-436.03,2.0049
20378,21.811,2,0.05,7.5212e-07,7.516,5.7753e-07,4.3394,3.8808e-14,2.6775e-06,-5.7753e-07,-4.3394,1.9916
20379,21.811,2.2727,0,4.6481e-05,464.49,1.6749e-05,16.998,1.4492e-05,0.040272,-4.6168e-05,-455.74,1.9917
20380,21.902,2.1818,0,4.4794e-05,447.63,1.6592e-05,21.845,1.369e-05,0.04172,-4.4382e-05,-436.29,2.005
20381,21.811,2.1818,0.05,7.5799e-07,7.5747,5.8204e-07,4.3733,-1.8215e-13,2.9575e-06,-5.8204e-07,-4.3732,1.9917
20382,21.811,2.4545,0,4.6477e-05,464.45,1.671e-05,16.543,1.4514e-05,0.040497,-4.6173e-05,-455.94,1.9917
20383,21.902,2.3636,0,4.48e-05,447.69,1.6571e-05,21.569,1.3706e-05,0.042033,-4.4394e-05,-436.5,2.005
20384,21.811,2.3636,0.05,7.629e-07,7.6237,5.8581e-07,4.4016,-1.8276e-13,2.8374e-06,-5.8581e-07,-4.4016,1.9917
20385,21.811,2.6364,0,4.6472e-05,464.4,1.6678e-05,16.176,1.4531e-05,0.04064,-4.6175e-05,-456.08,1.9918
20386,21.902,2.5455,0,4.4801e-05,447.71,1.655e-05,21.309,1.372e-05,0.042227,-4.44e-05,-436.65,2.0051
20387,21.811,2.5455,0.05,7.6671e-07,7.6618,5.8874e-07,4.4235,3.7869e-14,2.9055e-06,-5.8874e-07,-4.4235,1.9917
20388,21.811,2.8182,0,4.6468e-05,464.36,1.6657e-05,15.939,1.4542e-05,0.040721,-4.6176e-05,-456.16,1.9918
20389,21.902,2.7273,0,4.4801e-05,447.7,1.6534e-05,21.108,1.373e-05,0.042342,-4.4404e-05,-436.75,2.0051
20390,21.811,2.7273,0.05,7.693e-07,7.6877,5.9073e-07,4.4385,2.564e-14,2.1011e-06,-5.9073e-07,-4.4385,1.9918
20391,21.811,3,0,4.6466e-05,464.34,1.665e-05,15.856,1.4545e-05,0.040749,-4.6176e-05,-456.19,1.9918
20392,21.902,2.9091,0,4.48e-05,447.69,1.6524e-05,21,1.3735e-05,0.042396,-4.4405e-05,-436.8,2.0051
20393,21.811,2.9091,0.05,7.7062e-07,7.7008,5.9174e-07,4.4461,9.2469e-15,2.5729e-06,-5.9174e-07,-4.4461,1.9918
20394,21.811,3.1818,0,4.6468e-05,464.36,1.6657e-05,15.939,1.4542e-05,0.040722,-4.6176e-05,-456.16,1.9918
20395,21.902,3.0909,0,4.48e-05,447.69,1.6524e-05,21,1.3735e-05,0.042397,-4.4405e-05,-436.8,2.0051
20396,21.811,3.0909,0.05,7.7062e-07,7.7008,5.9174e-07,4.4461,4.4524e-13,2.4319e-06,-5.9174e-07,-4.4461,1.9918
20397,21.811,3.3636,0,4.6472e-05,464.4,1.6678e-05,16.176,1.4531e-05,0.04064,-4.6175e-05,-456.08,1.9918
20398,21.902,3.2727,0,4.4801e-05,447.7,1.6534e-05,21.108,1.373e-05,0.042343,-4.4404e-05,-436.75,2.0051
20399,21.811,3.2727,0.05,7.693e-07,7.6877,5.9073e-07,4.4385,-2.7788e-14,3.2482e-06,-5.9073e-07,-4.4385,1.9918
20400,21.811,3.5455,0,4.6477e-05,464.45,1.671e-05,16.543,1.4514e-05,0.040497,-4.6173e-05,-455.94,1.9917
20401,21.902,3.4545,0,4.4801e-05,447.71,1.655e-05,21.309,1.372e-05,0.042228,-4.44e-05,-436.65,2.0051
20402,21.811,3.4545,0.05,7.6671e-07,7.6618,5.8874e-07,4.4235,-4.2899e-14,3.2532e-06,-5.8874e-07,-4.4235,1.9917
20403,21.811,3.7273,0,4.6481e-05,464.49,1.6749e-05,16.998,1.4492e-05,0.040271,-4.6168e-05,-455.74,1.9917
20404,21.902,3.6364,0,4.48e-05,447.69,1.6571e-05,21.569,1.3706e-05,0.042034,-4.4394e-05,-436.5,2.005
20405,21.811,3.6364,0.05,7.629e-07,7.6237,5.8581e-07,4.4016,1.7462e-13,4.251e-06,-5.8581e-07,-4.4016,1.9917
20406,21.811,3.9091,0,4.6481e-05,464.49,1.679e-05,17.49,1.4468e-05,0.03992,-4.6158e-05,-455.48,1.9917
20407,21.902,3.8182,0,4.4794e-05,447.63,1.6592e-05,21.845,1.369e-05,0.041719,-4.4382e-05,-436.29,2.005
20408,21.811,3.8182,0.05,7.5799e-07,7.5747,5.8204e-07,4.3732,6.2556e-13,5.4156e-06,-5.8204e-07,-4.3732,1.9917
20409,21.811,4.0909,0,4.6476e-05,464.44,1.6827e-05,17.957,1.4442e-05,0.039352,-4.6144e-05,-455.18,1.9916
20410,21.902,4,0,4.4781e-05,447.5,1.6607e-05,22.083,1.3674e-05,0.04122,-4.4364e-05,-436.03,2.0049
20411,21.811,4,0.05,7.5212e-07,7.516,5.7753e-07,4.3394,8.565e-13,5.451e-06,-5.7753e-07,-4.3394,1.9916
20412,21.811,4.2727,0,4.6461e-05,464.29,1.6854e-05,18.338,1.4418e-05,0.038435,-4.6122e-05,-454.84,1.9915
20413,21.902,4.1818,0,4.4758e-05,447.27,1.6611e-05,22.223,1.3659e-05,0.040421,-4.4338e-05,-435.73,2.0049
20414,21.811,4.1818,0.05,7.4546e-07,7.4494,5.7242e-07,4.3009,4.1472e-13,4.8238e-06,-5.7242e-07,-4.3009,1.9915
20415,21.811,4.4545,0,4.6437e-05,464.05,1.6865e-05,18.573,1.4398e-05,0.036983,-4.6093e-05,-454.47,1.9914
20416,21.902,4.3636,0,4.4723e-05,446.92,1.6599e-05,22.21,1.3648e-05,0.039173,-4.4304e-05,-435.39,2.0048
20417,21.811,4.3636,0.05,7.3822e-07,7.3771,5.6686e-07,4.2592,8.8712e-13,7.4631e-06,-5.6686e-07,-4.2592,1.9915
20418,21.811,4.6364,0,4.6403e-05,463.71,1.6858e-05,18.616,1.4385e-05,0.034749,-4.6058e-05,-454.11,1.9913
20419,21.902,4.5455,0,4.4676e-05,446.45,1.6565e-05,21.993,1.3643e-05,0.037252,-4.4261e-05,-435.03,2.0047
20420,21.811,4.5455,0.05,7.3063e-07,7.3013,5.6104e-07,4.2154,9.085e-13,6.0721e-06,-5.6104e-07,-4.2154,1.9914
20421,21.811,4.8182,0,4.6362e-05,463.3,1.6829e-05,18.434,1.438e-05,0.031404,-4.602e-05,-453.79,1.9912
20422,21.902,4.7273,0,4.4617e-05,445.86,1.6508e-05,21.536,1.3647e-05,0.034393,-4.4211e-05,-434.68,2.0046
20423,21.811,4.7273,0.05,7.2295e-07,7.2246,5.5514e-07,4.1711,1.1575e-12,7.5395e-06,-5.5514e-07,-4.1711,1.9913
20424,21.811,5,0,4.6317e-05,462.85,1.6781e-05,18.02,1.4386e-05,0.026626,-4.5984e-05,-453.57,1.9911
20425,21.902,4.9091,0,4.4549e-05,445.19,1.6428e-05,20.827,1.366e-05,0.030171,-4.4158e-05,-434.39,2.0045
20426,21.811,4.9091,0.05,7.1544e-07,7.1495,5.4937e-07,4.1277,1.1732e-12,7.7827e-06,-5.4937e-07,-4.1277,1.9912
20427,21.811,5.1818,0,4.6278e-05,462.46,1.6716e-05,17.397,1.4404e-05,0.019685,-4.5957e-05,-453.51,1.991
20428,21.902,5.0909,0,4.4481e-05,444.5,1.6327e-05,19.879,1.3685e-05,0.02433,-4.4109e-05,-434.21,2.0044
20429,21.811,5.0909,0.05,7.0833e-07,7.0784,5.4391e-07,4.0867,9.588e-13,6.2296e-06,-5.4391e-07,-4.0867,1.9911
20430,21.811,5.3636,0,4.6256e-05,462.24,1.6645e-05,16.619,1.4435e-05,0.011178,-4.595e-05,-453.7,1.9909
20431,21.902,5.2727,0,4.4421e-05,443.9,1.6214e-05,18.738,1.3722e-05,0.015505,-4.4072e-05,-434.23,2.0043
20432,21.811,5.2727,0.05,7.0177e-07,7.0128,5.3887e-07,4.0489,9.596e-13,8.3062e-06,-5.3887e-07,-4.0489,1.9909
20433,21.811,5.5455,0,4.627e-05,462.38,1.6584e-05,15.808,1.4479e-05,-0.0058022,-4.5981e-05,-454.28,1.9907
20434,21.902,5.4545,0,4.4385e-05,443.54,1.61e-05,17.492,1.3772e-05,0.0063339,-4.4061e-05,-434.53,2.0041
20435,21.811,5.4545,0.05,6.9463e-07,6.9415,5.3338e-07,4.0076,1.6117e-12,8.5254e-06,-5.3339e-07,-4.0077,1.9908
20436,21.811,5.7273,0,4.6444e-05,464.12,1.6638e-05,15.76,1.4538e-05,-0.017175,-4.6156e-05,-456.04,1.9906
20437,21.902,5.6364,0,4.4401e-05,443.7,1.601e-05,16.325,1.3835e-05,-0.020854,-4.4101e-05,-435.33,2.004
20438,21.811,5.6364,0.05,6.6716e-07,6.667,5.1229e-07,3.8492,1.3657e-12,9.7242e-06,-5.123e-07,-3.8492,1.9906
20439,21.902,5.8182,0,4.4707e-05,446.76,1.6149e-05,16.788,1.3913e-05,-0.011316,-4.4398e-05,-438.13,2.0038
20440,21.811,5.8182,0.05,3.1529e-07,3.1507,2.421e-07,1.819,1.2302e-12,7.5483e-06,-2.421e-07,-1.8191,1.9905
20441,21.811,5.9091,0,4.5944e-05,459.13,1.609e-05,11.155,1.4606e-05,0.0071668,-4.5744e-05,-453.44,1.9904
20442,21.993,0.27273,0,4.2634e-05,426.04,1.5495e-05,17.156,1.3209e-05,-0.021804,-4.2316e-05,-417.21,2.0172
20443,22.084,0.18182,0,4.0878e-05,408.5,1.4973e-05,17.861,1.2594e-05,-0.015031,-4.0545e-05,-399.28,2.0305
20444,21.993,0.18182,0.05,3.28e-07,3.2778,2.5187e-07,1.8924,6.8862e-14,6.3852e-06,-2.5187e-07,-1.8924,2.0171
20445,21.993,0.090909,0,4.2082e-05,420.53,1.4872e-05,11.846,1.3297e-05,0.0074827,-4.1867e-05,-414.47,2.0171
20446,21.993,0.45455,0,4.2504e-05,424.75,1.5516e-05,17.932,1.3128e-05,-0.0083835,-4.2171e-05,-415.5,2.0174
20447,22.084,0.36364,0,4.0614e-05,405.86,1.4906e-05,18.103,1.2494e-05,-0.025858,-4.0276e-05,-396.51,2.0306
20448,21.993,0.36364,0.05,6.6968e-07,6.6921,5.1423e-07,3.8637,1.1607e-13,4.3089e-06,-5.1423e-07,-3.8637,2.0173
20449,21.993,0.63636,0,4.2541e-05,425.12,1.566e-05,19.549,1.306e-05,0.011287,-4.2175e-05,-415,2.0175
20450,22.084,0.54545,0,4.0651e-05,406.23,1.508e-05,20.084,1.2408e-05,0.0061764,-4.0272e-05,-395.81,2.0308
20451,21.993,0.54545,0.05,6.9631e-07,6.9583,5.3468e-07,4.0174,-5.747e-14,4.7176e-06,-5.3468e-07,-4.0174,2.0174
20452,21.993,0.81818,0,4.2617e-05,425.87,1.5818e-05,21.169,1.3004e-05,0.020682,-4.2217e-05,-414.88,2.0176
20453,22.084,0.72727,0,4.0744e-05,407.16,1.5283e-05,22.184,1.2333e-05,0.016362,-4.0321e-05,-395.61,2.0309
20454,21.993,0.72727,0.05,7.0302e-07,7.0254,5.3983e-07,4.0561,3.3697e-14,6.2355e-06,-5.3983e-07,-4.0561,2.0176
20455,21.993,1,0,4.2708e-05,426.78,1.5969e-05,22.644,1.2959e-05,0.02831,-4.2277e-05,-415,2.0178
20456,22.084,0.90909,0,4.086e-05,408.32,1.5486e-05,24.192,1.227e-05,0.02615,-4.0395e-05,-395.67,2.031
20457,21.993,0.90909,0.05,7.0902e-07,7.0854,5.4444e-07,4.0907,-8.5593e-14,5.2834e-06,-5.4444e-07,-4.0907,2.0177
20458,21.993,1.1818,0,4.2801e-05,427.72,1.6103e-05,23.897,1.2927e-05,0.033516,-4.2344e-05,-415.25,2.0179
20459,22.084,1.0909,0,4.0983e-05,409.54,1.5674e-05,25.995,1.2219e-05,0.032513,-4.0478e-05,-395.91,2.0312
20460,21.993,1.0909,0.05,7.1544e-07,7.1495,5.4937e-07,4.1277,-7.0674e-14,3.4901e-06,-5.4937e-07,-4.1277,2.0178
20461,21.993,1.3636,0,4.2888e-05,428.58,1.6213e-05,24.888,1.2905e-05,0.03719,-4.241e-05,-415.58,2.018
20462,22.084,1.2727,0,4.1099e-05,410.71,1.5838e-05,27.528,1.218e-05,0.037112,-4.0561e-05,-396.24,2.0313
20463,21.993,1.2727,0.05,7.2216e-07,7.2166,5.5453e-07,4.1665,-5.192e-14,2.0142e-06,-5.5453e-07,-4.1665,2.0179
20464,21.993,1.5455,0,4.2962e-05,429.32,1.6296e-05,25.609,1.2893e-05,0.039687,-4.2468e-05,-415.93,2.0181
20465,22.084,1.4545,0,4.1203e-05,411.75,1.5974e-05,28.762,1.2151e-05,0.040255,-4.0638e-05,-396.59,2.0314
20466,21.993,1.4545,0.05,7.2897e-07,7.2847,5.5976e-07,4.2058,-3.7565e-14,1.8533e-06,-5.5976e-07,-4.2058,2.018
20467,21.993,1.7273,0,4.3021e-05,429.92,1.6355e-05,26.08,1.2889e-05,0.041361,-4.2518e-05,-416.27,2.0182
20468,22.084,1.6364,0,4.129e-05,412.61,1.6079e-05,29.7,1.2132e-05,0.042401,-4.0704e-05,-396.94,2.0315
20469,21.993,1.6364,0.05,7.3566e-07,7.3516,5.649e-07,4.2444,2.0152e-13,2.4255e-06,-5.649e-07,-4.2444,2.0181
20470,21.993,1.9091,0,4.3066e-05,430.36,1.639e-05,26.337,1.2891e-05,0.042461,-4.2557e-05,-416.57,2.0182
20471,22.084,1.8182,0,4.1359e-05,413.3,1.6156e-05,30.368,1.212e-05,0.043835,-4.0758e-05,-397.26,2.0315
20472,21.993,1.8182,0.05,7.4202e-07,7.4151,5.6978e-07,4.2811,-1.3591e-14,8.5211e-07,-5.6978e-07,-4.2811,2.0182
20473,21.993,2.0909,0,4.3097e-05,430.68,1.6408e-05,26.429,1.2897e-05,0.04317,-4.2586e-05,-416.83,2.0183
20474,22.084,2,0,4.141e-05,413.82,1.6209e-05,30.807,1.2115e-05,0.044781,-4.08e-05,-397.53,2.0316
20475,21.993,2,0.05,7.4785e-07,7.4734,5.7426e-07,4.3148,-1.9745e-15,9.3877e-07,-5.7426e-07,-4.3147,2.0182
20476,21.993,2.2727,0,4.3117e-05,430.88,1.6413e-05,26.409,1.2904e-05,0.04362,-4.2607e-05,-417.05,2.0183
20477,22.084,2.1818,0,4.1447e-05,414.18,1.6242e-05,31.066,1.2114e-05,0.045395,-4.083e-05,-397.76,2.0316
20478,21.993,2.1818,0.05,7.5298e-07,7.5246,5.782e-07,4.3443,6.6672e-15,1.2425e-06,-5.782e-07,-4.3443,2.0183
20479,21.993,2.4545,0,4.3129e-05,431,1.6411e-05,26.33,1.2912e-05,0.0439,-4.2621e-05,-417.21,2.0184
20480,22.084,2.3636,0,4.1472e-05,414.43,1.6261e-05,31.197,1.2115e-05,0.045785,-4.0852e-05,-397.93,2.0317
20481,21.993,2.3636,0.05,7.5726e-07,7.5674,5.8148e-07,4.369,1.1536e-14,1.2786e-06,-5.8148e-07,-4.369,2.0183
20482,21.993,2.6364,0,4.3136e-05,431.06,1.6405e-05,26.236,1.2919e-05,0.044069,-4.2629e-05,-417.32,2.0184
20483,22.084,2.5455,0,4.1487e-05,414.58,1.627e-05,31.248,1.2118e-05,0.046028,-4.0866e-05,-398.06,2.0317
20484,21.993,2.5455,0.05,7.6057e-07,7.6004,5.8402e-07,4.3881,1.2166e-14,1.2831e-06,-5.8402e-07,-4.3881,2.0184
20485,21.993,2.8182,0,4.3139e-05,431.09,1.64e-05,26.165,1.2924e-05,0.04416,-4.2633e-05,-417.39,2.0184
20486,22.084,2.7273,0,4.1496e-05,414.67,1.6274e-05,31.258,1.212e-05,0.046168,-4.0875e-05,-398.14,2.0317
20487,21.993,2.7273,0.05,7.6282e-07,7.623,5.8575e-07,4.4011,9.169e-15,7.841e-07,-5.8575e-07,-4.4011,2.0184
20488,21.993,3,0,4.3139e-05,431.1,1.6398e-05,26.139,1.2925e-05,0.044189,-4.2635e-05,-417.41,2.0184
20489,22.084,2.9091,0,4.15e-05,414.71,1.6275e-05,31.255,1.2121e-05,0.046233,-4.0879e-05,-398.18,2.0318
20490,21.993,2.9091,0.05,7.6397e-07,7.6344,5.8663e-07,4.4077,2.3082e-13,9.7955e-07,-5.8663e-07,-4.4077,2.0184
20491,21.993,3.1818,0,4.3139e-05,431.09,1.64e-05,26.165,1.2924e-05,0.04416,-4.2633e-05,-417.39,2.0184
20492,22.084,3.0909,0,4.15e-05,414.71,1.6275e-05,31.255,1.2121e-05,0.046232,-4.0879e-05,-398.18,2.0318
20493,21.993,3.0909,0.05,7.6397e-07,7.6344,5.8663e-07,4.4077,2.2383e-13,9.2709e-07,-5.8663e-07,-4.4077,2.0184
20494,21.993,3.3636,0,4.3136e-05,431.06,1.6405e-05,26.236,1.2919e-05,0.044069,-4.2629e-05,-417.32,2.0184
20495,22.084,3.2727,0,4.1496e-05,414.67,1.6274e-05,31.258,1.212e-05,0.046168,-4.0875e-05,-398.14,2.0317
20496,21.993,3.2727,0.05,7.6282e-07,7.623,5.8575e-07,4.4011,2.1755e-13,1.5952e-06,-5.8575e-07,-4.4011,2.0184
20497,21.993,3.5455,0,4.3129e-05,431,1.6411e-05,26.33,1.2912e-05,0.043901,-4.2621e-05,-417.21,2.0184
20498,22.084,3.4545,0,4.1487e-05,414.58,1.627e-05,31.248,1.2118e-05,0.046027,-4.0866e-05,-398.06,2.0317
20499,21.993,3.4545,0.05,7.6057e-07,7.6004,5.8402e-07,4.3881,6.6854e-13,1.8063e-06,-5.8402e-07,-4.3881,2.0184
20500,21.993,3.7273,0,4.3117e-05,430.88,1.6413e-05,26.409,1.2904e-05,0.04362,-4.2607e-05,-417.05,2.0183
20501,22.084,3.6364,0,4.1472e-05,414.43,1.6261e-05,31.197,1.2115e-05,0.045788,-4.0852e-05,-397.93,2.0317
20502,21.993,3.6364,0.05,7.5726e-07,7.5674,5.8148e-07,4.369,4.4139e-13,2.9989e-06,-5.8148e-07,-4.369,2.0183
20503,21.993,3.9091,0,4.3097e-05,430.68,1.6408e-05,26.429,1.2897e-05,0.04317,-4.2586e-05,-416.83,2.0183
20504,22.084,3.8182,0,4.1447e-05,414.18,1.6242e-05,31.066,1.2114e-05,0.045394,-4.083e-05,-397.76,2.0316
20505,21.993,3.8182,0.05,7.5298e-07,7.5246,5.782e-07,4.3443,4.4659e-13,4.23e-06,-5.782e-07,-4.3443,2.0183
20506,21.993,4.0909,0,4.3066e-05,430.36,1.639e-05,26.337,1.2891e-05,0.042461,-4.2557e-05,-416.57,2.0182
20507,22.084,4,0,4.141e-05,413.82,1.6209e-05,30.807,1.2115e-05,0.044782,-4.08e-05,-397.53,2.0316
20508,21.993,4,0.05,7.4785e-07,7.4734,5.7426e-07,4.3147,4.5728e-13,4.0722e-06,-5.7426e-07,-4.3148,2.0182
20509,21.993,4.2727,0,4.3021e-05,429.92,1.6355e-05,26.08,1.2889e-05,0.041362,-4.2518e-05,-416.27,2.0182
20510,22.084,4.1818,0,4.1359e-05,413.3,1.6156e-05,30.368,1.212e-05,0.043835,-4.0758e-05,-397.26,2.0315
20511,21.993,4.1818,0.05,7.4202e-07,7.4151,5.6978e-07,4.2811,2.4529e-13,3.2337e-06,-5.6978e-07,-4.2811,2.0182
20512,21.993,4.4545,0,4.2962e-05,429.32,1.6296e-05,25.609,1.2893e-05,0.039686,-4.2468e-05,-415.93,2.0181
20513,22.084,4.3636,0,4.129e-05,412.61,1.6079e-05,29.7,1.2132e-05,0.042401,-4.0704e-05,-396.94,2.0315
20514,21.993,4.3636,0.05,7.3566e-07,7.3516,5.649e-07,4.2444,9.4602e-13,5.9933e-06,-5.649e-07,-4.2444,2.0181
20515,21.993,4.6364,0,4.2888e-05,428.58,1.6213e-05,24.888,1.2905e-05,0.037189,-4.241e-05,-415.58,2.018
20516,22.084,4.5455,0,4.1203e-05,411.75,1.5974e-05,28.762,1.2151e-05,0.040254,-4.0638e-05,-396.59,2.0314
20517,21.993,4.5455,0.05,7.2897e-07,7.2847,5.5976e-07,4.2058,9.6408e-13,4.4543e-06,-5.5976e-07,-4.2058,2.018
20518,21.993,4.8182,0,4.2801e-05,427.72,1.6103e-05,23.897,1.2927e-05,0.033515,-4.2344e-05,-415.25,2.0179
20519,22.084,4.7273,0,4.1099e-05,410.71,1.5838e-05,27.528,1.218e-05,0.037112,-4.0561e-05,-396.24,2.0313
20520,21.993,4.7273,0.05,7.2216e-07,7.2166,5.5453e-07,4.1665,1.2057e-12,6.2252e-06,-5.5453e-07,-4.1665,2.0179
20521,21.993,5,0,4.2708e-05,426.78,1.5969e-05,22.644,1.2959e-05,0.02831,-4.2277e-05,-415,2.0178
20522,22.084,4.9091,0,4.0983e-05,409.54,1.5674e-05,25.995,1.2219e-05,0.032511,-4.0478e-05,-395.91,2.0312
20523,21.993,4.9091,0.05,7.1544e-07,7.1495,5.4937e-07,4.1277,9.7828e-13,6.7424e-06,-5.4937e-07,-4.1278,2.0178
20524,21.993,5.1818,0,4.2617e-05,425.87,1.5818e-05,21.169,1.3004e-05,0.020683,-4.2217e-05,-414.88,2.0176
20525,22.084,5.0909,0,4.086e-05,408.32,1.5486e-05,24.192,1.227e-05,0.026151,-4.0395e-05,-395.67,2.031
20526,21.993,5.0909,0.05,7.0902e-07,7.0854,5.4444e-07,4.0907,9.9085e-13,5.4115e-06,-5.4444e-07,-4.0907,2.0177
20527,21.993,5.3636,0,4.2541e-05,425.12,1.566e-05,19.549,1.306e-05,0.011285,-4.2175e-05,-415,2.0175
20528,22.084,5.2727,0,4.0744e-05,407.16,1.5283e-05,22.184,1.2333e-05,0.016361,-4.0321e-05,-395.61,2.0309
20529,21.993,5.2727,0.05,7.0302e-07,7.0254,5.3983e-07,4.0561,1.0943e-12,6.5147e-06,-5.3984e-07,-4.0561,2.0176
20530,21.993,5.5455,0,4.2504e-05,424.75,1.5516e-05,17.932,1.3128e-05,-0.0083856,-4.2171e-05,-415.5,2.0174
20531,22.084,5.4545,0,4.0651e-05,406.23,1.508e-05,20.084,1.2408e-05,0.0061752,-4.0272e-05,-395.81,2.0308
20532,21.993,5.4545,0.05,6.9631e-07,6.9583,5.3468e-07,4.0174,1.0652e-12,6.8515e-06,-5.3468e-07,-4.0174,2.0174
20533,21.993,5.7273,0,4.2634e-05,426.04,1.5495e-05,17.156,1.3209e-05,-0.021804,-4.2316e-05,-417.21,2.0172
20534,22.084,5.6364,0,4.0614e-05,405.86,1.4906e-05,18.103,1.2494e-05,-0.025858,-4.0276e-05,-396.51,2.0306
20535,21.993,5.6364,0.05,6.6968e-07,6.6921,5.1423e-07,3.8637,1.1352e-12,7.6486e-06,-5.1423e-07,-3.8637,2.0173
20536,22.084,5.8182,0,4.0878e-05,408.5,1.4973e-05,17.861,1.2594e-05,-0.015029,-4.0545e-05,-399.28,2.0305
20537,21.993,5.8182,0.05,3.28e-07,3.2778,2.5187e-07,1.8924,9.1559e-13,6.4674e-06,-2.5187e-07,-1.8924,2.0171
20538,21.993,5.9091,0,4.2082e-05,420.53,1.4872e-05,11.846,1.3297e-05,0.0074828,-4.1868e-05,-414.47,2.0171
20539,22.175,0.27273,0,3.8825e-05,387.98,1.4356e-05,18.597,1.1878e-05,-0.026893,-3.8475e-05,-378.36,2.0439
20540,22.267,0.18182,0,3.7048e-05,370.23,1.3797e-05,18.935,1.1274e-05,-0.019611,-3.669e-05,-360.41,2.0572
20541,22.175,0.18182,0.05,3.4203e-07,3.418,2.6264e-07,1.9734,-3.589e-13,2.2003e-06,-2.6264e-07,-1.9734,2.0438
20542,22.175,0.090909,0,3.8218e-05,381.91,1.3654e-05,12.542,1.1986e-05,0.0083454,-3.7989e-05,-375.49,2.0438
20543,22.175,0.45455,0,3.8748e-05,387.21,1.446e-05,20.171,1.1774e-05,-0.01068,-3.8366e-05,-376.74,2.0441
20544,22.267,0.36364,0,3.6835e-05,368.09,1.3812e-05,19.966,1.115e-05,-0.030947,-3.6455e-05,-357.72,2.0573
20545,22.175,0.36364,0.05,6.7158e-07,6.7112,5.1569e-07,3.8747,-4.4102e-13,2.3161e-06,-5.1569e-07,-3.8747,2.044
20546,22.175,0.63636,0,3.8845e-05,388.18,1.4695e-05,22.652,1.1681e-05,0.012098,-3.841e-05,-376.35,2.0442
20547,22.267,0.54545,0,3.6935e-05,369.09,1.4078e-05,22.829,1.1041e-05,0.0067047,-3.6493e-05,-357.15,2.0575
20548,22.175,0.54545,0.05,6.9742e-07,6.9694,5.3553e-07,4.0238,-3.3463e-13,2.954e-06,-5.3553e-07,-4.0238,2.0441
20549,22.175,0.81818,0,3.8981e-05,389.54,1.4944e-05,25.153,1.16e-05,0.02251,-3.8492e-05,-376.34,2.0443
20550,22.267,0.72727,0,3.7093e-05,370.68,1.4377e-05,25.838,1.094e-05,0.018079,-3.6586e-05,-357.07,2.0576
20551,22.175,0.72727,0.05,7.0389e-07,7.034,5.405e-07,4.0611,-7.6002e-14,3.6755e-06,-5.405e-07,-4.0611,2.0442
20552,22.175,1,0,3.9131e-05,391.04,1.5186e-05,27.5,1.153e-05,0.03089,-3.859e-05,-376.55,2.0444
20553,22.267,0.90909,0,3.7273e-05,372.48,1.4673e-05,28.747,1.0851e-05,0.028941,-3.6701e-05,-357.26,2.0577
20554,22.175,0.90909,0.05,7.0956e-07,7.0907,5.4485e-07,4.0938,1.882e-13,5.5949e-06,-5.4485e-07,-4.0938,2.0444
20555,22.175,1.1818,0,3.9279e-05,392.51,1.5405e-05,29.593,1.1472e-05,0.036542,-3.8691e-05,-376.86,2.0446
20556,22.267,1.0909,0,3.7455e-05,374.3,1.4951e-05,31.417,1.0774e-05,0.035855,-3.6821e-05,-357.58,2.0578
20557,22.175,1.0909,0.05,7.1552e-07,7.1503,5.4943e-07,4.1282,2.6695e-13,6.1106e-06,-5.4943e-07,-4.1282,2.0445
20558,22.175,1.3636,0,3.9414e-05,393.87,1.5596e-05,31.376,1.1425e-05,0.040536,-3.8786e-05,-377.23,2.0447
20559,22.267,1.2727,0,3.7626e-05,376,1.5199e-05,33.767,1.071e-05,0.040842,-3.6938e-05,-357.96,2.058
20560,22.175,1.2727,0.05,7.2169e-07,7.2119,5.5417e-07,4.1638,2.6246e-14,3.3863e-06,-5.5417e-07,-4.1638,2.0446
20561,22.175,1.5455,0,3.9532e-05,395.05,1.5753e-05,32.833,1.1389e-05,0.043276,-3.8871e-05,-377.59,2.0447
20562,22.267,1.4545,0,3.7778e-05,377.52,1.541e-05,35.756,1.0657e-05,0.044252,-3.7042e-05,-358.35,2.058
20563,22.175,1.4545,0.05,7.2787e-07,7.2737,5.5892e-07,4.1995,1.4307e-13,3.6875e-06,-5.5892e-07,-4.1995,2.0447
20564,22.175,1.7273,0,3.963e-05,396.02,1.5878e-05,33.973,1.1363e-05,0.045144,-3.8942e-05,-377.92,2.0448
20565,22.267,1.6364,0,3.7906e-05,378.8,1.5585e-05,37.381,1.0616e-05,0.046606,-3.7131e-05,-358.71,2.0581
20566,22.175,1.6364,0.05,7.339e-07,7.3339,5.6355e-07,4.2343,-7.0502e-14,4.2521e-06,-5.6354e-07,-4.2343,2.0448
20567,22.175,1.9091,0,3.9707e-05,396.79,1.5973e-05,34.826,1.1344e-05,0.046398,-3.8999e-05,-378.21,2.0449
20568,22.267,1.8182,0,3.8011e-05,379.85,1.5723e-05,38.663,1.0584e-05,0.048204,-3.7205e-05,-359.02,2.0582
20569,22.175,1.8182,0.05,7.3959e-07,7.3908,5.6791e-07,4.2671,-5.5892e-14,2.4306e-06,-5.6791e-07,-4.2671,2.0448
20570,22.175,2.0909,0,3.9765e-05,397.37,1.6042e-05,35.435,1.1332e-05,0.047231,-3.9043e-05,-378.45,2.045
20571,22.267,2,0,3.8092e-05,380.66,1.5829e-05,39.639,1.056e-05,0.049282,-3.7262e-05,-359.27,2.0583
20572,22.175,2,0.05,7.4477e-07,7.4425,5.7189e-07,4.297,-4.2745e-14,2.0693e-06,-5.7189e-07,-4.2969,2.0449
20573,22.175,2.2727,0,3.9807e-05,397.79,1.6089e-05,35.847,1.1325e-05,0.047773,-3.9075e-05,-378.63,2.045
20574,22.267,2.1818,0,3.8154e-05,381.27,1.5907e-05,40.354,1.0543e-05,0.05,-3.7306e-05,-359.47,2.0583
20575,22.175,2.1818,0.05,7.493e-07,7.4879,5.7537e-07,4.3231,1.9719e-13,2.6347e-06,-5.7537e-07,-4.3231,2.045
20576,22.175,2.4545,0,3.9835e-05,398.08,1.612e-05,36.11,1.132e-05,0.04812,-3.9097e-05,-378.77,2.045
20577,22.267,2.3636,0,3.8198e-05,381.71,1.5962e-05,40.856,1.0532e-05,0.050467,-3.7338e-05,-359.62,2.0584
20578,22.175,2.3636,0.05,7.5307e-07,7.5256,5.7827e-07,4.3449,2.0785e-13,2.7143e-06,-5.7827e-07,-4.3449,2.045
20579,22.175,2.6364,0,3.9854e-05,398.26,1.6139e-05,36.265,1.1319e-05,0.048331,-3.9112e-05,-378.87,2.0451
20580,22.267,2.5455,0,3.8228e-05,382.01,1.5999e-05,41.188,1.0524e-05,0.050765,-3.7359e-05,-359.73,2.0584
20581,22.175,2.5455,0.05,7.5598e-07,7.5546,5.805e-07,4.3617,-1.1423e-14,3.2518e-06,-5.805e-07,-4.3617,2.045
20582,22.175,2.8182,0,3.9863e-05,398.36,1.6148e-05,36.344,1.1318e-05,0.048444,-3.912e-05,-378.92,2.0451
20583,22.267,2.7273,0,3.8246e-05,382.19,1.6021e-05,41.388,1.052e-05,0.050938,-3.7373e-05,-359.79,2.0584
20584,22.175,2.7273,0.05,7.5796e-07,7.5744,5.8202e-07,4.3731,2.2158e-13,1.8639e-06,-5.8202e-07,-4.3731,2.0451
20585,22.175,3,0,3.9867e-05,398.39,1.6151e-05,36.368,1.1318e-05,0.048479,-3.9123e-05,-378.94,2.0451
20586,22.267,2.9091,0,3.8254e-05,382.28,1.6032e-05,41.481,1.0518e-05,0.051018,-3.7379e-05,-359.83,2.0584
20587,22.175,2.9091,0.05,7.5896e-07,7.5844,5.8279e-07,4.3789,2.256e-13,2.8477e-06,-5.8279e-07,-4.3789,2.0451
20588,22.175,3.1818,0,3.9863e-05,398.36,1.6148e-05,36.344,1.1318e-05,0.048443,-3.912e-05,-378.92,2.0451
20589,22.267,3.0909,0,3.8254e-05,382.28,1.6032e-05,41.481,1.0518e-05,0.051018,-3.7379e-05,-359.83,2.0584
20590,22.175,3.0909,0.05,7.5896e-07,7.5844,5.8279e-07,4.3789,1.809e-15,2.8746e-06,-5.8279e-07,-4.3789,2.0451
20591,22.175,3.3636,0,3.9854e-05,398.26,1.6139e-05,36.265,1.1319e-05,0.04833,-3.9112e-05,-378.87,2.0451
20592,22.267,3.2727,0,3.8246e-05,382.19,1.6021e-05,41.388,1.052e-05,0.050938,-3.7373e-05,-359.79,2.0584
20593,22.175,3.2727,0.05,7.5796e-07,7.5744,5.8202e-07,4.3731,4.6092e-13,3.8609e-06,-5.8202e-07,-4.3731,2.0451
20594,22.175,3.5455,0,3.9835e-05,398.08,1.612e-05,36.11,1.132e-05,0.04812,-3.9097e-05,-378.77,2.045
20595,22.267,3.4545,0,3.8228e-05,382.01,1.5999e-05,41.188,1.0524e-05,0.050763,-3.7359e-05,-359.73,2.0584
20596,22.175,3.4545,0.05,7.5598e-07,7.5546,5.805e-07,4.3617,2.399e-13,2.9551e-06,-5.805e-07,-4.3617,2.045
20597,22.175,3.7273,0,3.9807e-05,397.79,1.6089e-05,35.848,1.1325e-05,0.047774,-3.9075e-05,-378.63,2.045
20598,22.267,3.6364,0,3.8198e-05,381.71,1.5962e-05,40.856,1.0532e-05,0.050469,-3.7338e-05,-359.62,2.0584
20599,22.175,3.6364,0.05,7.5307e-07,7.5256,5.7827e-07,4.3449,4.7664e-13,5.4107e-06,-5.7827e-07,-4.3449,2.045
20600,22.175,3.9091,0,3.9765e-05,397.37,1.6042e-05,35.435,1.1332e-05,0.04723,-3.9043e-05,-378.45,2.045
20601,22.267,3.8182,0,3.8154e-05,381.27,1.5907e-05,40.354,1.0543e-05,0.049999,-3.7306e-05,-359.47,2.0583
20602,22.175,3.8182,0.05,7.493e-07,7.4879,5.7537e-07,4.3231,7.1798e-13,5.9882e-06,-5.7537e-07,-4.3231,2.045
20603,22.175,4.0909,0,3.9707e-05,396.79,1.5973e-05,34.827,1.1344e-05,0.046398,-3.8999e-05,-378.21,2.0449
20604,22.267,4,0,3.8092e-05,380.66,1.5829e-05,39.639,1.056e-05,0.049282,-3.7262e-05,-359.27,2.0583
20605,22.175,4,0.05,7.4477e-07,7.4425,5.7189e-07,4.297,7.3481e-13,5.637e-06,-5.7189e-07,-4.297,2.0449
20606,22.175,4.2727,0,3.963e-05,396.02,1.5878e-05,33.973,1.1363e-05,0.045143,-3.8942e-05,-377.92,2.0448
20607,22.267,4.1818,0,3.8011e-05,379.85,1.5723e-05,38.663,1.0584e-05,0.048204,-3.7205e-05,-359.02,2.0582
20608,22.175,4.1818,0.05,7.3959e-07,7.3908,5.6791e-07,4.2671,5.2561e-13,5.299e-06,-5.6791e-07,-4.2671,2.0448
20609,22.175,4.4545,0,3.9532e-05,395.05,1.5753e-05,32.833,1.1389e-05,0.043276,-3.8871e-05,-377.59,2.0447
20610,22.267,4.3636,0,3.7906e-05,378.8,1.5585e-05,37.381,1.0616e-05,0.046605,-3.7131e-05,-358.71,2.0581
20611,22.175,4.3636,0.05,7.339e-07,7.3339,5.6354e-07,4.2343,1.0013e-12,7.3482e-06,-5.6355e-07,-4.2343,2.0448
20612,22.175,4.6364,0,3.9414e-05,393.87,1.5596e-05,31.377,1.1425e-05,0.040537,-3.8786e-05,-377.23,2.0447
20613,22.267,4.5455,0,3.7778e-05,377.52,1.541e-05,35.756,1.0657e-05,0.044254,-3.7042e-05,-358.35,2.058
20614,22.175,4.5455,0.05,7.2787e-07,7.2737,5.5892e-07,4.1995,1.0145e-12,6.0447e-06,-5.5892e-07,-4.1995,2.0447
20615,22.175,4.8182,0,3.9279e-05,392.51,1.5405e-05,29.593,1.1472e-05,0.036541,-3.8691e-05,-376.86,2.0446
20616,22.267,4.7273,0,3.7626e-05,376,1.5199e-05,33.767,1.071e-05,0.040842,-3.6938e-05,-357.96,2.058
20617,22.175,4.7273,0.05,7.2169e-07,7.2119,5.5416e-07,4.1638,1.0259e-12,7.7676e-06,-5.5417e-07,-4.1638,2.0446
20618,22.175,5,0,3.9131e-05,391.04,1.5186e-05,27.5,1.153e-05,0.030889,-3.859e-05,-376.55,2.0444
20619,22.267,4.9091,0,3.7455e-05,374.3,1.4951e-05,31.418,1.0774e-05,0.035855,-3.6821e-05,-357.58,2.0578
20620,22.175,4.9091,0.05,7.1552e-07,7.1503,5.4943e-07,4.1282,1.0262e-12,8.2501e-06,-5.4943e-07,-4.1282,2.0445
20621,22.175,5.1818,0,3.8981e-05,389.54,1.4944e-05,25.153,1.16e-05,0.022509,-3.8492e-05,-376.34,2.0443
20622,22.267,5.0909,0,3.7273e-05,372.48,1.4673e-05,28.747,1.0851e-05,0.028939,-3.6701e-05,-357.26,2.0577
20623,22.175,5.0909,0.05,7.0956e-07,7.0907,5.4485e-07,4.0938,1.0176e-12,6.6198e-06,-5.4485e-07,-4.0938,2.0444
20624,22.175,5.3636,0,3.8845e-05,388.18,1.4695e-05,22.652,1.1681e-05,0.012098,-3.841e-05,-376.35,2.0442
20625,22.267,5.2727,0,3.7093e-05,370.68,1.4377e-05,25.838,1.094e-05,0.018079,-3.6586e-05,-357.07,2.0576
20626,22.175,5.2727,0.05,7.0389e-07,7.034,5.405e-07,4.0611,1.1199e-12,7.9318e-06,-5.405e-07,-4.0611,2.0442
20627,22.175,5.5455,0,3.8748e-05,387.21,1.446e-05,20.171,1.1774e-05,-0.010679,-3.8366e-05,-376.74,2.0441
20628,22.267,5.4545,0,3.6935e-05,369.09,1.4078e-05,22.829,1.1041e-05,0.006704,-3.6493e-05,-357.15,2.0575
20629,22.175,5.4545,0.05,6.9742e-07,6.9694,5.3553e-07,4.0238,1.287e-12,7.7548e-06,-5.3553e-07,-4.0238,2.0441
20630,22.175,5.7273,0,3.8825e-05,387.98,1.4356e-05,18.597,1.1878e-05,-0.02689,-3.8475e-05,-378.36,2.0439
20631,22.267,5.6364,0,3.6835e-05,368.09,1.3812e-05,19.966,1.115e-05,-0.030946,-3.6455e-05,-357.72,2.0573
20632,22.175,5.6364,0.05,6.7158e-07,6.7112,5.1569e-07,3.8747,1.2929e-12,9.0921e-06,-5.1569e-07,-3.8747,2.044
20633,22.267,5.8182,0,3.7048e-05,370.23,1.3797e-05,18.935,1.1274e-05,-0.019609,-3.669e-05,-360.41,2.0572
20634,22.175,5.8182,0.05,3.4203e-07,3.418,2.6264e-07,1.9734,1.0581e-12,5.9117e-06,-2.6264e-07,-1.9734,2.0438
20635,22.175,5.9091,0,3.8218e-05,381.91,1.3654e-05,12.542,1.1986e-05,0.0083465,-3.7989e-05,-375.49,2.0438
20636,22.358,0.27273,0,3.5022e-05,349.98,1.3222e-05,20.074,1.0546e-05,-0.032492,-3.4638e-05,-339.53,2.0706
20637,22.449,0.18182,0,3.3222e-05,331.99,1.262e-05,19.995,9.9559e-06,-0.025272,-3.2837e-05,-321.56,2.0839
20638,22.358,0.18182,0.05,3.5781e-07,3.5756,2.7475e-07,2.0644,5.1395e-13,1.0924e-05,-2.7475e-07,-2.0644,2.0705
20639,22.358,0.090909,0,3.4358e-05,343.34,1.2437e-05,13.235,1.0677e-05,0.0099068,-3.4114e-05,-336.53,2.0705
20640,22.358,0.45455,0,3.5008e-05,349.84,1.3418e-05,22.53,1.0417e-05,-0.012565,-3.457e-05,-338.03,2.0708
20641,22.449,0.36364,0,3.307e-05,330.47,1.2728e-05,21.915,9.8064e-06,-0.036022,-3.2643e-05,-318.98,2.0841
20642,22.358,0.36364,0.05,6.7313e-07,6.7266,5.1688e-07,3.8836,-2.5657e-13,5.0666e-06,-5.1688e-07,-3.8836,2.0707
20643,22.358,0.63636,0,3.5173e-05,351.49,1.3751e-05,25.944,1.03e-05,0.013803,-3.466e-05,-337.8,2.0709
20644,22.449,0.54545,0,3.3243e-05,332.2,1.3096e-05,25.747,9.6708e-06,0.0081659,-3.273e-05,-318.58,2.0842
20645,22.358,0.54545,0.05,6.9819e-07,6.9771,5.3613e-07,4.0282,-8.1878e-14,3.4706e-06,-5.3613e-07,-4.0282,2.0708
20646,22.358,0.81818,0,3.5379e-05,353.54,1.4098e-05,29.376,1.0192e-05,0.025368,-3.4787e-05,-337.93,2.071
20647,22.449,0.72727,0,3.3476e-05,334.53,1.3498e-05,29.732,9.5435e-06,0.020935,-3.2871e-05,-318.67,2.0843
20648,22.358,0.72727,0.05,7.046e-07,7.0411,5.4104e-07,4.0652,1.406e-14,4.6445e-06,-5.4104e-07,-4.0652,2.071
20649,22.358,1,0,3.5594e-05,355.69,1.4433e-05,32.621,1.0096e-05,0.03457,-3.4926e-05,-338.25,2.0711
20650,22.449,0.90909,0,3.3729e-05,337.05,1.3894e-05,33.584,9.4282e-06,0.032987,-3.3031e-05,-318.99,2.0844
20651,22.358,0.90909,0.05,7.1013e-07,7.0964,5.4529e-07,4.0971,2.3116e-13,6.0507e-06,-5.4529e-07,-4.0971,2.0711
20652,22.358,1.1818,0,3.5802e-05,357.77,1.474e-05,35.558,1.0013e-05,0.04069,-3.5064e-05,-338.65,2.0713
20653,22.449,1.0909,0,3.3977e-05,339.53,1.4263e-05,37.137,9.3258e-06,0.04049,-3.3192e-05,-319.42,2.0846
20654,22.358,1.0909,0.05,7.1585e-07,7.1536,5.4968e-07,4.1301,3.2798e-13,5.9855e-06,-5.4968e-07,-4.1301,2.0712
20655,22.358,1.3636,0,3.5991e-05,359.66,1.501e-05,38.121,9.9424e-06,0.045006,-3.519e-05,-339.06,2.0714
20656,22.449,1.2727,0,3.4206e-05,341.82,1.4594e-05,40.295,9.2369e-06,0.045873,-3.3341e-05,-319.87,2.0847
20657,22.358,1.2727,0.05,7.2166e-07,7.2117,5.5415e-07,4.1637,2.2245e-13,5.3424e-06,-5.5415e-07,-4.1637,2.0713
20658,22.358,1.5455,0,3.6155e-05,361.3,1.5239e-05,40.285,9.884e-06,0.047974,-3.53e-05,-339.45,2.0714
20659,22.449,1.4545,0,3.4408e-05,343.85,1.488e-05,43.016,9.1614e-06,0.049544,-3.3474e-05,-320.29,2.0848
20660,22.358,1.4545,0.05,7.2742e-07,7.2692,5.5857e-07,4.1969,2.2469e-13,4.376e-06,-5.5857e-07,-4.1969,2.0714
20661,22.358,1.7273,0,3.6292e-05,362.67,1.5428e-05,42.057,9.8368e-06,0.050019,-3.5392e-05,-339.78,2.0715
20662,22.449,1.6364,0,3.458e-05,345.56,1.512e-05,45.294,9.0986e-06,0.052092,-3.3586e-05,-320.66,2.0848
20663,22.358,1.6364,0.05,7.3295e-07,7.3245,5.6282e-07,4.2288,3.5289e-13,4.4737e-06,-5.6282e-07,-4.2288,2.0715
20664,22.358,1.9091,0,3.6402e-05,363.77,1.5578e-05,43.465,9.7997e-06,0.051415,-3.5467e-05,-340.06,2.0716
20665,22.449,1.8182,0,3.4721e-05,346.97,1.5316e-05,47.149,9.0476e-06,0.053843,-3.3678e-05,-320.97,2.0849
20666,22.358,1.8182,0.05,7.3812e-07,7.3761,5.6678e-07,4.2586,3.6424e-13,2.6634e-06,-5.6678e-07,-4.2586,2.0715
20667,22.358,2.0909,0,3.6488e-05,364.63,1.5693e-05,44.549,9.7712e-06,0.052361,-3.5525e-05,-340.28,2.0716
20668,22.449,2,0,3.4833e-05,348.09,1.5471e-05,48.619,9.0071e-06,0.055043,-3.375e-05,-321.21,2.085
20669,22.358,2,0.05,7.4279e-07,7.4227,5.7037e-07,4.2855,1.5388e-13,2.7818e-06,-5.7037e-07,-4.2855,2.0716
20670,22.358,2.2727,0,3.6552e-05,365.27,1.578e-05,45.356,9.7502e-06,0.052992,-3.5568e-05,-340.45,2.0717
20671,22.449,2.1818,0,3.492e-05,348.96,1.559e-05,49.75,8.9759e-06,0.055859,-3.3806e-05,-321.39,2.085
20672,22.358,2.1818,0.05,7.4684e-07,7.4633,5.7348e-07,4.3089,-5.9226e-14,2.8898e-06,-5.7348e-07,-4.3089,2.0717
20673,22.358,2.4545,0,3.6598e-05,365.73,1.5841e-05,45.928,9.7353e-06,0.053405,-3.5599e-05,-340.57,2.0717
20674,22.449,2.3636,0,3.4983e-05,349.59,1.5678e-05,50.586,8.9526e-06,0.056403,-3.3847e-05,-321.52,2.0851
20675,22.358,2.3636,0.05,7.502e-07,7.4968,5.7606e-07,4.3283,1.826e-13,3.9565e-06,-5.7606e-07,-4.3283,2.0717
20676,22.358,2.6364,0,3.6628e-05,366.03,1.5881e-05,46.306,9.7254e-06,0.05366,-3.5619e-05,-340.65,2.0718
20677,22.449,2.5455,0,3.5028e-05,350.03,1.5739e-05,51.172,8.9363e-06,0.056757,-3.3875e-05,-321.61,2.0851
20678,22.358,2.5455,0.05,7.5278e-07,7.5226,5.7804e-07,4.3432,1.9703e-13,3.5852e-06,-5.7804e-07,-4.3432,2.0717
20679,22.358,2.8182,0,3.6645e-05,366.2,1.5904e-05,46.52,9.7199e-06,0.053798,-3.5631e-05,-340.7,2.0718
20680,22.449,2.7273,0,3.5055e-05,350.31,1.5778e-05,51.541,8.9259e-06,0.056964,-3.3893e-05,-321.66,2.0851
20681,22.358,2.7273,0.05,7.5453e-07,7.5401,5.7938e-07,4.3533,2.0948e-13,2.727e-06,-5.7938e-07,-4.3533,2.0717
20682,22.358,3,0,3.6651e-05,366.26,1.5912e-05,46.59,9.7181e-06,0.053843,-3.5635e-05,-340.71,2.0718
20683,22.449,2.9091,0,3.5069e-05,350.45,1.5797e-05,51.72,8.9209e-06,0.057063,-3.3901e-05,-321.69,2.0851
20684,22.358,2.9091,0.05,7.5541e-07,7.5489,5.8006e-07,4.3583,2.2139e-13,4.2466e-06,-5.8006e-07,-4.3583,2.0718
20685,22.358,3.1818,0,3.6645e-05,366.2,1.5904e-05,46.52,9.7199e-06,0.053799,-3.5631e-05,-340.7,2.0718
20686,22.449,3.0909,0,3.5069e-05,350.45,1.5797e-05,51.72,8.9209e-06,0.057063,-3.3901e-05,-321.69,2.0851
20687,22.358,3.0909,0.05,7.5541e-07,7.5489,5.8006e-07,4.3584,4.6086e-13,3.3838e-06,-5.8006e-07,-4.3583,2.0718
20688,22.358,3.3636,0,3.6628e-05,366.03,1.5881e-05,46.306,9.7254e-06,0.053659,-3.5619e-05,-340.65,2.0718
20689,22.449,3.2727,0,3.5055e-05,350.31,1.5778e-05,51.541,8.9259e-06,0.056965,-3.3893e-05,-321.66,2.0851
20690,22.358,3.2727,0.05,7.5453e-07,7.5401,5.7938e-07,4.3533,2.4623e-13,4.9103e-06,-5.7938e-07,-4.3533,2.0717
20691,22.358,3.5455,0,3.6598e-05,365.73,1.5841e-05,45.928,9.7353e-06,0.053403,-3.5599e-05,-340.57,2.0717
20692,22.449,3.4545,0,3.5028e-05,350.03,1.5739e-05,51.172,8.9363e-06,0.056755,-3.3875e-05,-321.61,2.0851
20693,22.358,3.4545,0.05,7.5278e-07,7.5226,5.7804e-07,4.3432,7.1512e-13,4.5391e-06,-5.7804e-07,-4.3432,2.0717
20694,22.358,3.7273,0,3.6552e-05,365.27,1.578e-05,45.356,9.7502e-06,0.052992,-3.5568e-05,-340.45,2.0717
20695,22.449,3.6364,0,3.4983e-05,349.59,1.5678e-05,50.586,8.9526e-06,0.056403,-3.3847e-05,-321.52,2.0851
20696,22.358,3.6364,0.05,7.502e-07,7.4968,5.7606e-07,4.3283,5.0405e-13,5.6152e-06,-5.7606e-07,-4.3283,2.0717
20697,22.358,3.9091,0,3.6488e-05,364.63,1.5693e-05,44.549,9.7712e-06,0.052361,-3.5525e-05,-340.28,2.0716
20698,22.449,3.8182,0,3.492e-05,348.96,1.559e-05,49.75,8.9759e-06,0.055859,-3.3806e-05,-321.39,2.085
20699,22.358,3.8182,0.05,7.4684e-07,7.4633,5.7348e-07,4.3089,9.7771e-13,7.1929e-06,-5.7348e-07,-4.3089,2.0717
20700,22.358,4.0909,0,3.6402e-05,363.77,1.5578e-05,43.465,9.7997e-06,0.051415,-3.5467e-05,-340.06,2.0716
20701,22.449,4,0,3.4833e-05,348.09,1.5471e-05,48.619,9.0071e-06,0.055043,-3.375e-05,-321.21,2.085
20702,22.358,4,0.05,7.4279e-07,7.4227,5.7037e-07,4.2855,7.71e-13,6.8583e-06,-5.7037e-07,-4.2855,2.0716
20703,22.358,4.2727,0,3.6292e-05,362.67,1.5428e-05,42.057,9.8368e-06,0.050019,-3.5392e-05,-339.78,2.0715
20704,22.449,4.1818,0,3.4721e-05,346.97,1.5316e-05,47.149,9.0476e-06,0.053844,-3.3678e-05,-320.97,2.0849
20705,22.358,4.1818,0.05,7.3812e-07,7.3761,5.6678e-07,4.2586,7.9066e-13,6.5444e-06,-5.6678e-07,-4.2586,2.0715
20706,22.358,4.4545,0,3.6155e-05,361.3,1.5239e-05,40.285,9.884e-06,0.047975,-3.53e-05,-339.45,2.0714
20707,22.449,4.3636,0,3.458e-05,345.56,1.512e-05,45.294,9.0986e-06,0.052092,-3.3586e-05,-320.66,2.0848
20708,22.358,4.3636,0.05,7.3295e-07,7.3245,5.6282e-07,4.2288,1.0333e-12,9.0389e-06,-5.6282e-07,-4.2288,2.0715
20709,22.358,4.6364,0,3.5991e-05,359.66,1.501e-05,38.121,9.9424e-06,0.045008,-3.519e-05,-339.06,2.0714
20710,22.449,4.5455,0,3.4408e-05,343.85,1.488e-05,43.016,9.1614e-06,0.049546,-3.3474e-05,-320.29,2.0848
20711,22.358,4.5455,0.05,7.2742e-07,7.2692,5.5857e-07,4.1969,9.3146e-13,7.2351e-06,-5.5857e-07,-4.1969,2.0714
20712,22.358,4.8182,0,3.5802e-05,357.77,1.474e-05,35.558,1.0013e-05,0.04069,-3.5064e-05,-338.65,2.0713
20713,22.449,4.7273,0,3.4206e-05,341.82,1.4594e-05,40.295,9.2369e-06,0.045873,-3.3341e-05,-319.87,2.0847
20714,22.358,4.7273,0.05,7.2167e-07,7.2117,5.5415e-07,4.1637,1.0465e-12,8.1669e-06,-5.5415e-07,-4.1637,2.0713
20715,22.358,5,0,3.5594e-05,355.7,1.4433e-05,32.621,1.0096e-05,0.034569,-3.4926e-05,-338.25,2.0711
20716,22.449,4.9091,0,3.3977e-05,339.53,1.4263e-05,37.137,9.3258e-06,0.04049,-3.3192e-05,-319.42,2.0846
20717,22.358,4.9091,0.05,7.1585e-07,7.1536,5.4968e-07,4.1301,1.0344e-12,8.6346e-06,-5.4968e-07,-4.1301,2.0712
20718,22.358,5.1818,0,3.5379e-05,353.54,1.4098e-05,29.376,1.0192e-05,0.025366,-3.4787e-05,-337.93,2.071
20719,22.449,5.0909,0,3.3729e-05,337.05,1.3894e-05,33.584,9.4282e-06,0.032985,-3.3031e-05,-318.99,2.0844
20720,22.358,5.0909,0.05,7.1013e-07,7.0964,5.4529e-07,4.0971,9.1973e-13,6.576e-06,-5.4529e-07,-4.0971,2.0711
20721,22.358,5.3636,0,3.5173e-05,351.49,1.3751e-05,25.943,1.03e-05,0.013802,-3.466e-05,-337.8,2.0709
20722,22.449,5.2727,0,3.3476e-05,334.53,1.3498e-05,29.732,9.5435e-06,0.020933,-3.2871e-05,-318.67,2.0843
20723,22.358,5.2727,0.05,7.046e-07,7.0411,5.4104e-07,4.0652,1.0904e-12,7.7137e-06,-5.4104e-07,-4.0652,2.071
20724,22.358,5.5455,0,3.5008e-05,349.84,1.3418e-05,22.53,1.0417e-05,-0.012566,-3.457e-05,-338.03,2.0708
20725,22.449,5.4545,0,3.3243e-05,332.2,1.3096e-05,25.747,9.6708e-06,0.0081678,-3.273e-05,-318.58,2.0842
20726,22.358,5.4545,0.05,6.9819e-07,6.9771,5.3613e-07,4.0282,1.0426e-12,7.3923e-06,-5.3613e-07,-4.0282,2.0708
20727,22.358,5.7273,0,3.5022e-05,349.98,1.3222e-05,20.074,1.0546e-05,-0.032492,-3.4638e-05,-339.53,2.0706
20728,22.449,5.6364,0,3.307e-05,330.47,1.2728e-05,21.915,9.8064e-06,-0.03602,-3.2643e-05,-318.98,2.0841
20729,22.358,5.6364,0.05,6.7313e-07,6.7266,5.1688e-07,3.8836,1.0065e-12,8.5015e-06,-5.1688e-07,-3.8836,2.0707
20730,22.449,5.8182,0,3.3222e-05,331.99,1.262e-05,19.995,9.9559e-06,-0.025271,-3.2837e-05,-321.56,2.0839
20731,22.358,5.8182,0.05,3.5781e-07,3.5756,2.7475e-07,2.0644,8.3139e-13,5.9328e-06,-2.7475e-07,-2.0644,2.0705
20732,22.358,5.9091,0,3.4358e-05,343.34,1.2437e-05,13.235,1.0677e-05,0.0099069,-3.4114e-05,-336.53,2.0705
20733,22.54,0.27273,0,3.123e-05,312.09,1.2093e-05,21.583,9.2151e-06,-0.038623,-3.0807e-05,-300.75,2.0974
20734,22.632,0.18182,0,2.9403e-05,293.83,1.1443e-05,21.025,8.6401e-06,-0.032369,-2.8989e-05,-282.76,2.1107
20735,22.54,0.18182,0.05,3.7574e-07,3.7548,2.8852e-07,2.1679,2.3619e-13,1.0006e-05,-2.8852e-07,-2.1678,2.0973
20736,22.54,0.090909,0,3.0507e-05,304.86,1.1222e-05,13.915,9.3713e-06,0.012473,-3.0246e-05,-297.66,2.0972
20737,22.54,0.45455,0,3.129e-05,312.68,1.2393e-05,25.026,9.06e-06,-0.01379,-3.0789e-05,-299.42,2.0975
20738,22.632,0.36364,0,2.9325e-05,293.05,1.1657e-05,23.963,8.4626e-06,-0.04096,-2.8845e-05,-280.35,2.1108
20739,22.54,0.36364,0.05,6.7454e-07,6.7407,5.1796e-07,3.8918,-1.1828e-15,6.9368e-06,-5.1796e-07,-3.8918,2.0974
20740,22.54,0.63636,0,3.1536e-05,315.14,1.2833e-05,29.457,8.915e-06,0.016753,-3.0931e-05,-299.37,2.0976
20741,22.632,0.54545,0,2.9585e-05,295.64,1.214e-05,28.872,8.2988e-06,0.010895,-2.8988e-05,-280.14,2.1109
20742,22.54,0.54545,0.05,6.9885e-07,6.9837,5.3663e-07,4.0321,-2.1652e-13,2.6889e-06,-5.3663e-07,-4.032,2.0976
20743,22.54,0.81818,0,3.182e-05,317.98,1.3285e-05,33.88,8.7801e-06,0.029635,-3.1107e-05,-299.67,2.0978
20744,22.632,0.72727,0,2.9905e-05,298.84,1.2653e-05,33.914,8.1431e-06,0.025293,-2.9183e-05,-280.43,2.1111
20745,22.54,0.72727,0.05,7.0537e-07,7.0489,5.4164e-07,4.0697,-2.0579e-13,3.2906e-06,-5.4164e-07,-4.0696,2.0977
20746,22.54,1,0,3.2108e-05,320.86,1.3718e-05,38.054,8.6581e-06,0.039737,-3.1291e-05,-300.12,2.0979
20747,22.632,0.90909,0,3.0238e-05,302.17,1.3153e-05,38.756,8.0004e-06,0.038668,-2.9391e-05,-280.91,2.1112
20748,22.54,0.90909,0.05,7.1097e-07,7.1048,5.4593e-07,4.1019,-3.7781e-14,6.165e-06,-5.4593e-07,-4.1019,2.0978
20749,22.54,1.1818,0,3.2381e-05,323.58,1.4112e-05,41.841,8.5499e-06,0.046347,-3.1465e-05,-300.61,2.098
20750,22.632,1.0909,0,3.0558e-05,305.37,1.3616e-05,43.207,7.872e-06,0.046797,-2.9592e-05,-281.45,2.1113
20751,22.54,1.0909,0.05,7.1662e-07,7.1612,5.5027e-07,4.1346,3.2554e-13,7.1084e-06,-5.5027e-07,-4.1345,2.0979
20752,22.54,1.3636,0,3.2626e-05,326.04,1.446e-05,45.166,8.456e-06,0.050988,-3.1622e-05,-301.08,2.0981
20753,22.632,1.2727,0,3.085e-05,308.28,1.4029e-05,47.166,7.7589e-06,0.052585,-2.9775e-05,-281.96,2.1114
20754,22.54,1.2727,0.05,7.2224e-07,7.2175,5.5459e-07,4.167,3.0182e-13,6.4235e-06,-5.5459e-07,-4.167,2.098
20755,22.54,1.5455,0,3.2838e-05,328.16,1.4758e-05,48.007,8.3761e-06,0.054177,-3.1757e-05,-301.49,2.0982
20756,22.632,1.4545,0,3.1105e-05,310.83,1.4387e-05,50.59,7.6612e-06,0.056515,-2.9934e-05,-282.42,2.1115
20757,22.54,1.4545,0.05,7.2771e-07,7.272,5.5879e-07,4.1985,1.8488e-13,5.0663e-06,-5.5879e-07,-4.1985,2.0981
20758,22.54,1.7273,0,3.3016e-05,329.93,1.5006e-05,50.372,8.3095e-06,0.056391,-3.1869e-05,-301.83,2.0982
20759,22.632,1.6364,0,3.1321e-05,313,1.4688e-05,53.481,7.5784e-06,0.059253,-3.0067e-05,-282.79,2.1116
20760,22.54,1.6364,0.05,7.3287e-07,7.3236,5.6275e-07,4.2283,8.3813e-14,5.1247e-06,-5.6275e-07,-4.2283,2.0982
20761,22.54,1.9091,0,3.3161e-05,331.38,1.5207e-05,52.293,8.2551e-06,0.057921,-3.196e-05,-302.1,2.0983
20762,22.632,1.8182,0,3.15e-05,314.78,1.4937e-05,55.866,7.5096e-06,0.061152,-3.0175e-05,-283.09,2.1116
20763,22.54,1.8182,0.05,7.3762e-07,7.3711,5.664e-07,4.2557,1.0115e-13,4.3034e-06,-5.664e-07,-4.2557,2.0983
20764,22.54,2.0909,0,3.3274e-05,332.51,1.5366e-05,53.811,8.2118e-06,0.058974,-3.203e-05,-302.3,2.0984
20765,22.632,2,0,3.1643e-05,316.21,1.5136e-05,57.786,7.4536e-06,0.062473,-3.0261e-05,-283.31,2.1117
20766,22.54,2,0.05,7.4186e-07,7.4135,5.6966e-07,4.2802,2.3378e-13,3.4845e-06,-5.6966e-07,-4.2802,2.0983
20767,22.54,2.2727,0,3.3361e-05,333.38,1.5487e-05,54.974,8.1784e-06,0.059691,-3.2083e-05,-302.45,2.0984
20768,22.632,2.1818,0,3.1754e-05,317.32,1.5292e-05,59.291,7.4094e-06,0.063387,-3.0327e-05,-283.47,2.1117
20769,22.54,2.1818,0.05,7.4552e-07,7.45,5.7247e-07,4.3013,-8.6653e-14,4.5938e-06,-5.7247e-07,-4.3013,2.0984
20770,22.54,2.4545,0,3.3424e-05,334.01,1.5576e-05,55.825,8.1537e-06,0.06017,-3.2122e-05,-302.55,2.0984
20771,22.632,2.3636,0,3.1837e-05,318.15,1.5409e-05,60.427,7.3756e-06,0.064008,-3.0375e-05,-283.58,2.1118
20772,22.54,2.3636,0.05,7.4852e-07,7.48,5.7477e-07,4.3186,3.8818e-13,4.2675e-06,-5.7477e-07,-4.3186,2.0984
20773,22.54,2.6364,0,3.3466e-05,334.43,1.5635e-05,56.402,8.1368e-06,0.060472,-3.2147e-05,-302.62,2.0985
20774,22.632,2.5455,0,3.1896e-05,318.74,1.5493e-05,61.238,7.3512e-06,0.064419,-3.0409e-05,-283.65,2.1118
20775,22.54,2.5455,0.05,7.5081e-07,7.5029,5.7653e-07,4.3318,1.8048e-13,4.4136e-06,-5.7653e-07,-4.3318,2.0984
20776,22.54,2.8182,0,3.349e-05,334.67,1.567e-05,56.737,8.127e-06,0.060638,-3.2162e-05,-302.66,2.0985
20777,22.632,2.7273,0,3.1933e-05,319.11,1.5546e-05,61.758,7.3355e-06,0.064664,-3.0431e-05,-283.7,2.1118
20778,22.54,2.7273,0.05,7.5236e-07,7.5184,5.7772e-07,4.3407,1.9905e-13,3.6019e-06,-5.7772e-07,-4.3407,2.0985
20779,22.54,3,0,3.3498e-05,334.75,1.5681e-05,56.846,8.1238e-06,0.060692,-3.2167e-05,-302.67,2.0985
20780,22.632,2.9091,0,3.1951e-05,319.29,1.5572e-05,62.011,7.3278e-06,0.064782,-3.0441e-05,-283.72,2.1118
20781,22.54,2.9091,0.05,7.5314e-07,7.5262,5.7832e-07,4.3453,2.1782e-13,4.6966e-06,-5.7832e-07,-4.3452,2.0985
20782,22.54,3.1818,0,3.349e-05,334.67,1.567e-05,56.737,8.127e-06,0.060637,-3.2162e-05,-302.66,2.0985
20783,22.632,3.0909,0,3.1951e-05,319.29,1.5572e-05,62.011,7.3278e-06,0.064781,-3.0441e-05,-283.72,2.1118
20784,22.54,3.0909,0.05,7.5314e-07,7.5262,5.7832e-07,4.3453,2.3705e-13,4.3643e-06,-5.7832e-07,-4.3452,2.0985
20785,22.54,3.3636,0,3.3466e-05,334.43,1.5635e-05,56.402,8.1368e-06,0.060472,-3.2147e-05,-302.62,2.0985
20786,22.632,3.2727,0,3.1933e-05,319.11,1.5546e-05,61.758,7.3355e-06,0.064665,-3.0431e-05,-283.7,2.1118
20787,22.54,3.2727,0.05,7.5236e-07,7.5184,5.7772e-07,4.3407,7.1165e-13,5.4678e-06,-5.7772e-07,-4.3407,2.0985
20788,22.54,3.5455,0,3.3424e-05,334.01,1.5576e-05,55.825,8.1537e-06,0.06017,-3.2122e-05,-302.55,2.0984
20789,22.632,3.4545,0,3.1896e-05,318.74,1.5493e-05,61.238,7.3512e-06,0.064418,-3.0409e-05,-283.65,2.1118
20790,22.54,3.4545,0.05,7.5081e-07,7.5029,5.7653e-07,4.3318,5.0501e-13,6.0974e-06,-5.7653e-07,-4.3318,2.0984
20791,22.54,3.7273,0,3.3361e-05,333.38,1.5487e-05,54.974,8.1784e-06,0.059691,-3.2083e-05,-302.45,2.0984
20792,22.632,3.6364,0,3.1837e-05,318.15,1.5409e-05,60.427,7.3756e-06,0.064008,-3.0375e-05,-283.58,2.1118
20793,22.54,3.6364,0.05,7.4852e-07,7.48,5.7477e-07,4.3186,7.5482e-13,7.6977e-06,-5.7477e-07,-4.3186,2.0984
20794,22.54,3.9091,0,3.3274e-05,332.51,1.5366e-05,53.811,8.2118e-06,0.058973,-3.203e-05,-302.3,2.0984
20795,22.632,3.8182,0,3.1754e-05,317.32,1.5292e-05,59.291,7.4094e-06,0.063386,-3.0327e-05,-283.47,2.1117
20796,22.54,3.8182,0.05,7.4552e-07,7.45,5.7247e-07,4.3013,1.0063e-12,8.8354e-06,-5.7247e-07,-4.3013,2.0984
20797,22.54,4.0909,0,3.3161e-05,331.38,1.5207e-05,52.293,8.2551e-06,0.057921,-3.196e-05,-302.1,2.0983
20798,22.632,4,0,3.1643e-05,316.21,1.5136e-05,57.786,7.4536e-06,0.062473,-3.0261e-05,-283.31,2.1117
20799,22.54,4,0.05,7.4186e-07,7.4135,5.6966e-07,4.2802,6.8995e-13,7.1008e-06,-5.6966e-07,-4.2802,2.0983
20800,22.54,4.2727,0,3.3016e-05,329.93,1.5006e-05,50.372,8.3095e-06,0.056392,-3.1869e-05,-301.83,2.0982
20801,22.632,4.1818,0,3.15e-05,314.78,1.4937e-05,55.866,7.5096e-06,0.061153,-3.0175e-05,-283.09,2.1116
20802,22.54,4.1818,0.05,7.3762e-07,7.3711,5.664e-07,4.2557,7.1196e-13,7.284e-06,-5.664e-07,-4.2557,2.0983
20803,22.54,4.4545,0,3.2838e-05,328.16,1.4758e-05,48.007,8.3761e-06,0.054177,-3.1757e-05,-301.49,2.0982
20804,22.632,4.3636,0,3.1321e-05,313,1.4688e-05,53.481,7.5784e-06,0.059253,-3.0067e-05,-282.79,2.1116
20805,22.54,4.3636,0.05,7.3287e-07,7.3236,5.6275e-07,4.2283,8.4172e-13,9.7933e-06,-5.6275e-07,-4.2283,2.0982
20806,22.54,4.6364,0,3.2626e-05,326.04,1.446e-05,45.166,8.456e-06,0.050987,-3.1622e-05,-301.08,2.0981
20807,22.632,4.5455,0,3.1105e-05,310.83,1.4387e-05,50.59,7.6612e-06,0.056515,-2.9934e-05,-282.42,2.1115
20808,22.54,4.5455,0.05,7.2771e-07,7.272,5.5879e-07,4.1985,1.0853e-12,7.9624e-06,-5.5879e-07,-4.1985,2.0981
20809,22.54,4.8182,0,3.2381e-05,323.58,1.4112e-05,41.841,8.5499e-06,0.046347,-3.1465e-05,-300.61,2.098
20810,22.632,4.7273,0,3.085e-05,308.28,1.4029e-05,47.166,7.7589e-06,0.052584,-2.9775e-05,-281.96,2.1114
20811,22.54,4.7273,0.05,7.2224e-07,7.2175,5.5459e-07,4.167,1.0778e-12,9.8731e-06,-5.5459e-07,-4.167,2.098
20812,22.54,5,0,3.2108e-05,320.86,1.3718e-05,38.054,8.6581e-06,0.039737,-3.1291e-05,-300.12,2.0979
20813,22.632,4.9091,0,3.0558e-05,305.37,1.3616e-05,43.207,7.872e-06,0.046797,-2.9592e-05,-281.45,2.1113
20814,22.54,4.9091,0.05,7.1662e-07,7.1612,5.5027e-07,4.1345,1.1821e-12,9.7354e-06,-5.5027e-07,-4.1345,2.0979
20815,22.54,5.1818,0,3.182e-05,317.98,1.3285e-05,33.88,8.7801e-06,0.029632,-3.1107e-05,-299.67,2.0978
20816,22.632,5.0909,0,3.0238e-05,302.17,1.3153e-05,38.756,8.0004e-06,0.038668,-2.9391e-05,-280.91,2.1112
20817,22.54,5.0909,0.05,7.1097e-07,7.1048,5.4593e-07,4.1019,8.1437e-13,7.3713e-06,-5.4593e-07,-4.1019,2.0978
20818,22.54,5.3636,0,3.1536e-05,315.14,1.2833e-05,29.457,8.915e-06,0.016754,-3.0931e-05,-299.37,2.0976
20819,22.632,5.2727,0,2.9905e-05,298.84,1.2653e-05,33.914,8.1431e-06,0.025291,-2.9183e-05,-280.43,2.1111
20820,22.54,5.2727,0.05,7.0537e-07,7.0489,5.4164e-07,4.0697,9.9675e-13,8.6836e-06,-5.4164e-07,-4.0697,2.0977
20821,22.54,5.5455,0,3.129e-05,312.68,1.2393e-05,25.026,9.06e-06,-0.013786,-3.0789e-05,-299.42,2.0975
20822,22.632,5.4545,0,2.9585e-05,295.64,1.214e-05,28.872,8.2988e-06,0.010899,-2.8988e-05,-280.14,2.1109
20823,22.54,5.4545,0.05,6.9885e-07,6.9837,5.3663e-07,4.0321,7.9899e-13,7.9321e-06,-5.3663e-07,-4.0321,2.0976
20824,22.54,5.7273,0,3.123e-05,312.09,1.2093e-05,21.583,9.2151e-06,-0.038621,-3.0807e-05,-300.75,2.0974
20825,22.632,5.6364,0,2.9325e-05,293.05,1.1657e-05,23.963,8.4626e-06,-0.040959,-2.8845e-05,-280.35,2.1108
20826,22.54,5.6364,0.05,6.7454e-07,6.7407,5.1796e-07,3.8918,1.0013e-12,7.9253e-06,-5.1796e-07,-3.8918,2.0974
20827,22.632,5.8182,0,2.9403e-05,293.83,1.1443e-05,21.025,8.6401e-06,-0.032371,-2.8989e-05,-282.76,2.1107
20828,22.54,5.8182,0.05,3.7574e-07,3.7548,2.8852e-07,2.1678,5.2313e-13,6.1118e-06,-2.8852e-07,-2.1678,2.0973
20829,22.54,5.9091,0,3.0507e-05,304.86,1.1222e-05,13.915,9.3713e-06,0.012474,-3.0246e-05,-297.66,2.0972
20830,22.723,0.27273,0,2.7454e-05,274.35,1.097e-05,23.126,7.8862e-06,-0.04542,-2.6988e-05,-262.07,2.1241
20831,22.814,0.18182,0,2.5594e-05,255.76,1.0264e-05,22.013,7.3286e-06,-0.041197,-2.5149e-05,-244.06,2.1374
20832,22.723,0.18182,0.05,3.9625e-07,3.9597,3.0427e-07,2.2862,-1.5429e-13,5.4293e-06,-3.0427e-07,-2.2861,2.124
20833,22.723,0.090909,0,2.667e-05,266.51,1.0008e-05,14.573,8.0707e-06,0.016424,-2.6392e-05,-258.92,2.124
20834,22.723,0.45455,0,2.7603e-05,275.84,1.1389e-05,27.69,7.7017e-06,-0.014091,-2.7028e-05,-260.96,2.1243
20835,22.814,0.36364,0,2.561e-05,255.92,1.0604e-05,26.137,7.1196e-06,-0.045229,-2.5065e-05,-241.87,2.1376
20836,22.723,0.36364,0.05,6.7604e-07,6.7557,5.1911e-07,3.9004,6.8229e-13,1.0419e-05,-5.1911e-07,-3.9004,2.1242
20837,22.723,0.63636,0,2.7943e-05,279.24,1.1949e-05,33.244,7.5272e-06,0.021329,-2.7229e-05,-261.12,2.1244
20838,22.814,0.54545,0,2.5973e-05,259.55,1.1216e-05,32.262,6.9245e-06,0.015769,-2.5273e-05,-241.9,2.1377
20839,22.723,0.54545,0.05,6.9965e-07,6.9917,5.3725e-07,4.0367,4.726e-13,8.5556e-06,-5.3725e-07,-4.0366,2.1243
20840,22.723,0.81818,0,2.8317e-05,282.98,1.2513e-05,38.729,7.3636e-06,0.035704,-2.7459e-05,-261.61,2.1245
20841,22.814,0.72727,0,2.6394e-05,263.76,1.1852e-05,38.46,6.7379e-06,0.032077,-2.5528e-05,-242.4,2.1378
20842,22.723,0.72727,0.05,7.0649e-07,7.06,5.4249e-07,4.0761,1.766e-13,4.2682e-06,-5.4249e-07,-4.0761,2.1244
20843,22.723,1,0,2.8687e-05,286.67,1.3046e-05,43.864,7.2144e-06,0.046792,-2.7687e-05,-262.19,2.1246
20844,22.814,0.90909,0,2.6818e-05,267.99,1.2461e-05,44.341,6.5662e-06,0.04692,-2.5786e-05,-243.04,2.1379
20845,22.723,0.90909,0.05,7.1232e-07,7.1183,5.4698e-07,4.1098,-7.0155e-14,3.4699e-06,-5.4698e-07,-4.1098,2.1245
20846,22.723,1.1818,0,2.9029e-05,290.09,1.3529e-05,48.5,7.081e-06,0.053914,-2.7898e-05,-262.77,2.1247
20847,22.814,1.0909,0,2.7216e-05,271.97,1.3018e-05,49.699,6.4111e-06,0.055711,-2.6027e-05,-243.67,2.138
20848,22.723,1.0909,0.05,7.1806e-07,7.1756,5.5138e-07,4.1429,-1.0127e-13,4.2011e-06,-5.5138e-07,-4.1428,2.1246
20849,22.723,1.3636,0,2.9334e-05,293.14,1.3952e-05,52.565,6.9641e-06,0.058883,-2.8084e-05,-263.28,2.1248
20850,22.814,1.2727,0,2.7573e-05,275.54,1.3511e-05,54.437,6.2739e-06,0.061918,-2.624e-05,-244.24,2.1381
20851,22.723,1.2727,0.05,7.2361e-07,7.2311,5.5564e-07,4.1749,6.9454e-14,4.1748e-06,-5.5564e-07,-4.1749,2.1247
20852,22.723,1.5455,0,2.9596e-05,295.76,1.4315e-05,56.046,6.8635e-06,0.062297,-2.8241e-05,-263.7,2.1249
20853,22.814,1.4545,0,2.7883e-05,278.64,1.3935e-05,58.528,6.1546e-06,0.066115,-2.6422e-05,-244.7,2.1382
20854,22.723,1.4545,0.05,7.2886e-07,7.2836,5.5968e-07,4.2052,9.8166e-14,3.5294e-06,-5.5968e-07,-4.2052,2.1248
20855,22.723,1.7273,0,2.9815e-05,297.95,1.4617e-05,58.961,6.7785e-06,0.06468,-2.8371e-05,-264.03,2.125
20856,22.814,1.6364,0,2.8145e-05,281.26,1.4293e-05,61.986,6.0528e-06,0.069052,-2.6573e-05,-245.07,2.1383
20857,22.723,1.6364,0.05,7.3373e-07,7.3322,5.6341e-07,4.2332,2.4141e-13,4.6676e-06,-5.6341e-07,-4.2332,2.1249
20858,22.723,1.9091,0,2.9994e-05,299.73,1.4864e-05,61.349,6.7082e-06,0.066346,-2.8475e-05,-264.29,2.125
20859,22.814,1.8182,0,2.8361e-05,283.41,1.4589e-05,64.852,5.9674e-06,0.071109,-2.6695e-05,-245.34,2.1384
20860,22.723,1.8182,0.05,7.3812e-07,7.3761,5.6678e-07,4.2586,1.6242e-13,2.9568e-06,-5.6678e-07,-4.2586,2.125
20861,22.723,2.0909,0,3.0135e-05,301.14,1.5061e-05,63.258,6.6513e-06,0.067511,-2.8556e-05,-264.47,2.1251
20862,22.814,2,0,2.8534e-05,285.15,1.4828e-05,67.177,5.8973e-06,0.072558,-2.6792e-05,-245.54,2.1384
20863,22.723,2,0.05,7.4198e-07,7.4147,5.6975e-07,4.2809,7.5356e-14,2.6825e-06,-5.6975e-07,-4.2809,2.125
20864,22.723,2.2727,0,3.0244e-05,302.23,1.5214e-05,64.738,6.6066e-06,0.068318,-2.8618e-05,-264.59,2.1251
20865,22.814,2.1818,0,2.867e-05,286.51,1.5016e-05,69.013,5.8412e-06,0.073576,-2.6866e-05,-245.67,2.1385
20866,22.723,2.1818,0.05,7.4527e-07,7.4475,5.7227e-07,4.2998,2.1823e-13,3.8481e-06,-5.7227e-07,-4.2998,2.1251
20867,22.723,2.4545,0,3.0324e-05,303.03,1.5326e-05,65.835,6.5732e-06,0.068866,-2.8662e-05,-264.68,2.1252
20868,22.814,2.3636,0,2.8773e-05,287.53,1.5159e-05,70.413,5.7979e-06,0.07428,-2.6921e-05,-245.76,2.1385
20869,22.723,2.3636,0.05,7.4794e-07,7.4742,5.7432e-07,4.3153,2.4586e-13,5.0038e-06,-5.7432e-07,-4.3152,2.1251
20870,22.723,2.6364,0,3.0378e-05,303.57,1.5403e-05,66.589,6.55e-06,0.069216,-2.8692e-05,-264.73,2.1252
20871,22.814,2.5455,0,2.8846e-05,288.26,1.5262e-05,71.42,5.7665e-06,0.07475,-2.6959e-05,-245.81,2.1386
20872,22.723,2.5455,0.05,7.4997e-07,7.4945,5.7588e-07,4.327,3.8759e-13,5.2148e-06,-5.7588e-07,-4.3269,2.1252
20873,22.723,2.8182,0,3.041e-05,303.89,1.5448e-05,67.029,6.5364e-06,0.069411,-2.8709e-05,-264.75,2.1252
20874,22.814,2.7273,0,2.8893e-05,288.73,1.5328e-05,72.071,5.746e-06,0.075038,-2.6984e-05,-245.84,2.1386
20875,22.723,2.7273,0.05,7.5133e-07,7.5081,5.7693e-07,4.3348,1.8704e-13,2.5581e-06,-5.7693e-07,-4.3348,2.1252
20876,22.723,3,0,3.042e-05,303.99,1.5463e-05,67.173,6.5319e-06,0.069474,-2.8715e-05,-264.76,2.1252
20877,22.814,2.9091,0,2.8916e-05,288.96,1.536e-05,72.39,5.7359e-06,0.075174,-2.6996e-05,-245.86,2.1386
20878,22.723,2.9091,0.05,7.5202e-07,7.515,5.7746e-07,4.3388,2.1373e-13,5.6195e-06,-5.7746e-07,-4.3388,2.1252
20879,22.723,3.1818,0,3.041e-05,303.89,1.5448e-05,67.029,6.5364e-06,0.069412,-2.8709e-05,-264.75,2.1252
20880,22.814,3.0909,0,2.8916e-05,288.96,1.536e-05,72.39,5.7359e-06,0.075175,-2.6996e-05,-245.86,2.1386
20881,22.723,3.0909,0.05,7.5202e-07,7.515,5.7746e-07,4.3388,4.6859e-13,4.8725e-06,-5.7746e-07,-4.3388,2.1252
20882,22.723,3.3636,0,3.0378e-05,303.57,1.5403e-05,66.589,6.55e-06,0.069216,-2.8692e-05,-264.73,2.1252
20883,22.814,3.2727,0,2.8893e-05,288.73,1.5328e-05,72.071,5.746e-06,0.075038,-2.6984e-05,-245.84,2.1386
20884,22.723,3.2727,0.05,7.5133e-07,7.5081,5.7693e-07,4.3348,7.2396e-13,6.0371e-06,-5.7693e-07,-4.3348,2.1252
20885,22.723,3.5455,0,3.0324e-05,303.03,1.5326e-05,65.835,6.5732e-06,0.068865,-2.8662e-05,-264.68,2.1252
20886,22.814,3.4545,0,2.8846e-05,288.26,1.5262e-05,71.42,5.7665e-06,0.074751,-2.6959e-05,-245.81,2.1386
20887,22.723,3.4545,0.05,7.4997e-07,7.4945,5.7588e-07,4.327,9.7993e-13,6.2508e-06,-5.7588e-07,-4.3269,2.1252
20888,22.723,3.7273,0,3.0244e-05,302.23,1.5214e-05,64.738,6.6066e-06,0.068319,-2.8618e-05,-264.59,2.1251
20889,22.814,3.6364,0,2.8773e-05,287.53,1.5159e-05,70.413,5.7979e-06,0.07428,-2.6921e-05,-245.76,2.1385
20890,22.723,3.6364,0.05,7.4794e-07,7.4742,5.7432e-07,4.3152,6.6928e-13,8.3806e-06,-5.7432e-07,-4.3152,2.1251
20891,22.723,3.9091,0,3.0135e-05,301.14,1.5061e-05,63.258,6.6513e-06,0.06751,-2.8556e-05,-264.47,2.1251
20892,22.814,3.8182,0,2.867e-05,286.51,1.5016e-05,69.013,5.8412e-06,0.073575,-2.6866e-05,-245.67,2.1385
20893,22.723,3.8182,0.05,7.4527e-07,7.4475,5.7227e-07,4.2998,9.2918e-13,1.0063e-05,-5.7227e-07,-4.2998,2.1251
20894,22.723,4.0909,0,2.9994e-05,299.73,1.4864e-05,61.349,6.7082e-06,0.066346,-2.8475e-05,-264.29,2.125
20895,22.814,4,0,2.8534e-05,285.15,1.4828e-05,67.177,5.8973e-06,0.072559,-2.6792e-05,-245.54,2.1384
20896,22.723,4,0.05,7.4198e-07,7.4147,5.6975e-07,4.2809,9.5922e-13,8.3757e-06,-5.6975e-07,-4.2809,2.125
20897,22.723,4.2727,0,2.9815e-05,297.95,1.4617e-05,58.961,6.7785e-06,0.06468,-2.8371e-05,-264.03,2.125
20898,22.814,4.1818,0,2.8361e-05,283.41,1.4589e-05,64.852,5.9674e-06,0.071109,-2.6695e-05,-245.34,2.1384
20899,22.723,4.1818,0.05,7.3812e-07,7.3761,5.6678e-07,4.2586,9.8807e-13,8.129e-06,-5.6678e-07,-4.2586,2.125
20900,22.723,4.4545,0,2.9596e-05,295.76,1.4315e-05,56.046,6.8635e-06,0.062296,-2.8241e-05,-263.7,2.1249
20901,22.814,4.3636,0,2.8145e-05,281.26,1.4293e-05,61.986,6.0528e-06,0.069053,-2.6573e-05,-245.07,2.1383
20902,22.723,4.3636,0.05,7.3373e-07,7.3322,5.6341e-07,4.2332,1.0111e-12,1.0685e-05,-5.6341e-07,-4.2332,2.1249
20903,22.723,4.6364,0,2.9334e-05,293.14,1.3952e-05,52.565,6.9641e-06,0.058883,-2.8084e-05,-263.28,2.1248
20904,22.814,4.5455,0,2.7883e-05,278.64,1.3935e-05,58.528,6.1546e-06,0.066116,-2.6422e-05,-244.7,2.1382
20905,22.723,4.5455,0.05,7.2886e-07,7.2836,5.5968e-07,4.2052,8.0053e-13,9.3355e-06,-5.5968e-07,-4.2052,2.1248
20906,22.723,4.8182,0,2.9029e-05,290.09,1.3529e-05,48.5,7.081e-06,0.053914,-2.7898e-05,-262.77,2.1247
20907,22.814,4.7273,0,2.7573e-05,275.54,1.3511e-05,54.437,6.2739e-06,0.061918,-2.624e-05,-244.24,2.1381
20908,22.723,4.7273,0.05,7.2361e-07,7.2311,5.5564e-07,4.1749,1.1449e-12,1.0308e-05,-5.5564e-07,-4.1749,2.1247
20909,22.723,5,0,2.8687e-05,286.67,1.3046e-05,43.864,7.2144e-06,0.046791,-2.7687e-05,-262.19,2.1246
20910,22.814,4.9091,0,2.7216e-05,271.97,1.3018e-05,49.699,6.4111e-06,0.055711,-2.6027e-05,-243.67,2.138
20911,22.723,4.9091,0.05,7.1806e-07,7.1756,5.5138e-07,4.1429,1.3572e-12,1.0253e-05,-5.5138e-07,-4.1429,2.1246
20912,22.723,5.1818,0,2.8317e-05,282.98,1.2513e-05,38.729,7.3636e-06,0.035703,-2.7459e-05,-261.61,2.1245
20913,22.814,5.0909,0,2.6818e-05,267.99,1.2461e-05,44.341,6.5662e-06,0.046918,-2.5786e-05,-243.04,2.1379
20914,22.723,5.0909,0.05,7.1232e-07,7.1183,5.4697e-07,4.1098,1.0209e-12,7.8188e-06,-5.4698e-07,-4.1098,2.1245
20915,22.723,5.3636,0,2.7943e-05,279.24,1.1949e-05,33.244,7.5272e-06,0.02133,-2.7229e-05,-261.12,2.1244
20916,22.814,5.2727,0,2.6394e-05,263.76,1.1852e-05,38.46,6.7379e-06,0.032074,-2.5528e-05,-242.4,2.1378
20917,22.723,5.2727,0.05,7.0649e-07,7.06,5.4249e-07,4.0761,9.4067e-13,8.3012e-06,-5.4249e-07,-4.0761,2.1244
20918,22.723,5.5455,0,2.7603e-05,275.84,1.1389e-05,27.69,7.7017e-06,-0.01409,-2.7028e-05,-260.96,2.1243
20919,22.814,5.4545,0,2.5973e-05,259.55,1.1216e-05,32.262,6.9245e-06,0.015773,-2.5273e-05,-241.9,2.1377
20920,22.723,5.4545,0.05,6.9965e-07,6.9917,5.3725e-07,4.0367,8.9013e-13,7.7266e-06,-5.3725e-07,-4.0367,2.1243
20921,22.723,5.7273,0,2.7454e-05,274.35,1.097e-05,23.126,7.8862e-06,-0.045421,-2.6988e-05,-262.07,2.1241
20922,22.814,5.6364,0,2.561e-05,255.92,1.0604e-05,26.137,7.1196e-06,-0.045227,-2.5065e-05,-241.87,2.1376
20923,22.723,5.6364,0.05,6.7604e-07,6.7557,5.1911e-07,3.9004,9.3876e-13,7.5324e-06,-5.1912e-07,-3.9004,2.1242
20924,22.814,5.8182,0,2.5594e-05,255.76,1.0264e-05,22.013,7.3286e-06,-0.041199,-2.5149e-05,-244.06,2.1374
20925,22.723,5.8182,0.05,3.9625e-07,3.9597,3.0427e-07,2.2862,6.7486e-13,4.1804e-06,-3.0427e-07,-2.2862,2.124
20926,22.723,5.9091,0,2.667e-05,266.51,1.0008e-05,14.573,8.0707e-06,0.016422,-2.6392e-05,-258.92,2.124
20927,22.905,0.27273,0,2.37e-05,236.84,9.8562e-06,24.711,6.5604e-06,-0.052357,-2.3183e-05,-223.53,2.1509
20928,22.996,0.18182,0,2.18e-05,217.85,9.0838e-06,22.946,6.0228e-06,-0.052981,-2.1319e-05,-205.49,2.1642
20929,22.905,0.18182,0.05,4.1981e-07,4.1952,3.2236e-07,2.4221,4.7816e-13,1.1239e-05,-3.2236e-07,-2.4221,2.1508
20930,22.905,0.090909,0,2.2851e-05,228.35,8.7971e-06,15.198,6.7774e-06,0.022968,-2.2554e-05,-220.36,2.1508
20931,22.905,0.45455,0,2.396e-05,239.44,1.0414e-05,30.575,6.3428e-06,-0.012226,-2.3293e-05,-222.68,2.151
20932,22.996,0.36364,0,2.1936e-05,219.21,9.5757e-06,28.489,5.7775e-06,-0.048907,-2.1313e-05,-203.59,2.1644
20933,22.905,0.36364,0.05,6.7788e-07,6.7741,5.2053e-07,3.9111,1.3435e-13,8.2018e-06,-5.2053e-07,-3.911,2.1509
20934,22.905,0.63636,0,2.4413e-05,243.96,1.1108e-05,37.387,6.1355e-06,0.029012,-2.3561e-05,-223.1,2.1511
20935,22.996,0.54545,0,2.2426e-05,224.1,1.0337e-05,36.012,5.5467e-06,0.023105,-2.1595e-05,-203.91,2.1645
20936,22.905,0.54545,0.05,7.009e-07,7.0042,5.382e-07,4.0439,4.4096e-13,1.232e-05,-5.382e-07,-4.0438,2.1511
20937,22.905,0.81818,0,2.489e-05,248.73,1.1792e-05,44.009,5.9408e-06,0.045096,-2.3847e-05,-223.77,2.1513
20938,22.996,0.72727,0,2.2965e-05,229.49,1.1107e-05,43.474,5.326e-06,0.041604,-2.1914e-05,-204.63,2.1646
20939,22.905,0.72727,0.05,7.0829e-07,7.078,5.4388e-07,4.0865,5.7375e-13,9.826e-06,-5.4388e-07,-4.0865,2.1512
20940,22.905,1,0,2.5349e-05,253.31,1.2428e-05,50.132,5.7631e-06,0.057259,-2.4121e-05,-224.48,2.1514
20941,22.996,0.90909,0,2.3491e-05,234.74,1.1828e-05,50.437,5.1233e-06,0.058083,-2.2222e-05,-205.41,2.1647
20942,22.905,0.90909,0.05,7.1454e-07,7.1405,5.4868e-07,4.1226,3.5432e-13,7.3684e-06,-5.4868e-07,-4.1226,2.1513
20943,22.905,1.1818,0,2.5766e-05,257.48,1.2996e-05,55.606,5.6041e-06,0.064925,-2.4365e-05,-225.11,2.1515
20944,22.996,1.0909,0,2.3973e-05,239.56,1.2477e-05,56.695,4.9407e-06,0.067577,-2.2499e-05,-206.11,2.1648
20945,22.905,1.0909,0.05,7.2046e-07,7.1997,5.5323e-07,4.1567,2.9876e-13,5.9149e-06,-5.5323e-07,-4.1567,2.1514
20946,22.905,1.3636,0,2.6132e-05,261.14,1.3491e-05,60.377,5.4645e-06,0.070244,-2.4576e-05,-225.64,2.1516
20947,22.996,1.2727,0,2.4398e-05,243.81,1.3045e-05,62.177,4.7794e-06,0.07424,-2.2738e-05,-206.68,2.1649
20948,22.905,1.2727,0.05,7.2599e-07,7.2549,5.5747e-07,4.1886,-1.3573e-14,5.8522e-06,-5.5747e-07,-4.1886,2.1515
20949,22.905,1.5455,0,2.6445e-05,264.27,1.3912e-05,64.452,5.344e-06,0.073898,-2.4752e-05,-226.06,2.1516
20950,22.996,1.4545,0,2.4764e-05,247.47,1.353e-05,66.883,4.6393e-06,0.078736,-2.2939e-05,-207.13,2.165
20951,22.905,1.4545,0.05,7.3106e-07,7.3056,5.6136e-07,4.2179,-1.019e-14,4.8105e-06,-5.6136e-07,-4.2179,2.1516
20952,22.905,1.7273,0,2.6706e-05,266.87,1.4264e-05,67.866,5.2418e-06,0.07647,-2.4896e-05,-226.37,2.1517
20953,22.996,1.6364,0,2.5072e-05,250.54,1.3939e-05,70.853,4.5195e-06,0.081901,-2.3103e-05,-207.46,2.1651
20954,22.905,1.6364,0.05,7.3562e-07,7.3511,5.6487e-07,4.2442,1.5e-14,5.5513e-06,-5.6487e-07,-4.2442,2.1517
20955,22.905,1.9091,0,2.6919e-05,269,1.4552e-05,70.671,5.1566e-06,0.078287,-2.5011e-05,-226.59,2.1518
20956,22.996,1.8182,0,2.5325e-05,253.08,1.4276e-05,74.145,4.4187e-06,0.084139,-2.3235e-05,-207.7,2.1651
20957,22.905,1.8182,0.05,7.3965e-07,7.3914,5.6796e-07,4.2674,4.1676e-14,4.3349e-06,-5.6796e-07,-4.2674,2.1517
20958,22.905,2.0909,0,2.7088e-05,270.69,1.4782e-05,72.924,5.0873e-06,0.079575,-2.51e-05,-226.74,2.1518
20959,22.996,2,0,2.5529e-05,255.12,1.4549e-05,76.822,4.3357e-06,0.085736,-2.334e-05,-207.86,2.1652
20960,22.905,2,0.05,7.4313e-07,7.4261,5.7063e-07,4.2875,7.2034e-14,3.612e-06,-5.7063e-07,-4.2875,2.1518
20961,22.905,2.2727,0,2.7219e-05,272,1.4961e-05,74.682,5.0326e-06,0.08048,-2.5168e-05,-226.83,2.1519
20962,22.996,2.1818,0,2.569e-05,256.72,1.4764e-05,78.945,4.269e-06,0.086872,-2.342e-05,-207.96,2.1652
20963,22.905,2.1818,0.05,7.4604e-07,7.4553,5.7287e-07,4.3043,1.0135e-13,4.7539e-06,-5.7287e-07,-4.3043,2.1518
20964,22.905,2.4545,0,2.7315e-05,272.97,1.5094e-05,75.992,4.9913e-06,0.081102,-2.5217e-05,-226.89,2.1519
20965,22.996,2.3636,0,2.5812e-05,257.94,1.4929e-05,80.571,4.2174e-06,0.087668,-2.348e-05,-208.02,2.1653
20966,22.905,2.3636,0.05,7.4839e-07,7.4787,5.7467e-07,4.3178,2.4047e-13,4.9641e-06,-5.7467e-07,-4.3178,2.1519
20967,22.905,2.6364,0,2.7382e-05,273.63,1.5186e-05,76.898,4.9626e-06,0.081506,-2.5251e-05,-226.93,2.1519
20968,22.996,2.5455,0,2.5899e-05,258.81,1.5048e-05,81.747,4.1797e-06,0.088206,-2.3522e-05,-208.05,2.1653
20969,22.905,2.5455,0.05,7.5015e-07,7.4963,5.7602e-07,4.328,1.5576e-13,7.0932e-06,-5.7602e-07,-4.328,2.1519
20970,22.905,2.8182,0,2.742e-05,274.01,1.524e-05,77.429,4.9456e-06,0.081734,-2.527e-05,-226.94,2.152
20971,22.996,2.7273,0,2.5956e-05,259.38,1.5125e-05,82.509,4.155e-06,0.088539,-2.3548e-05,-208.06,2.1653
20972,22.905,2.7273,0.05,7.5133e-07,7.5081,5.7693e-07,4.3348,7.0643e-14,4.4437e-06,-5.7693e-07,-4.3348,2.1519
20973,22.905,3,0,2.7433e-05,274.14,1.5258e-05,77.603,4.94e-06,0.081808,-2.5276e-05,-226.95,2.152
20974,22.996,2.9091,0,2.5983e-05,259.65,1.5162e-05,82.884,4.1429e-06,0.088699,-2.3561e-05,-208.07,2.1653
20975,22.905,2.9091,0.05,7.5192e-07,7.514,5.7738e-07,4.3382,2.1269e-13,7.5189e-06,-5.7738e-07,-4.3382,2.1519
20976,22.905,3.1818,0,2.742e-05,274.01,1.524e-05,77.429,4.9456e-06,0.081734,-2.527e-05,-226.94,2.152
20977,22.996,3.0909,0,2.5983e-05,259.65,1.5162e-05,82.884,4.1429e-06,0.088699,-2.3561e-05,-208.07,2.1653
20978,22.905,3.0909,0.05,7.5192e-07,7.514,5.7738e-07,4.3382,1.4858e-14,7.7411e-06,-5.7738e-07,-4.3382,2.1519
20979,22.905,3.3636,0,2.7382e-05,273.63,1.5186e-05,76.898,4.9626e-06,0.081508,-2.5251e-05,-226.93,2.1519
20980,22.996,3.2727,0,2.5956e-05,259.38,1.5125e-05,82.509,4.155e-06,0.088539,-2.3548e-05,-208.06,2.1653
20981,22.905,3.2727,0.05,7.5133e-07,7.5081,5.7693e-07,4.3348,4.9954e-13,9.8714e-06,-5.7693e-07,-4.3348,2.1519
20982,22.905,3.5455,0,2.7315e-05,272.97,1.5094e-05,75.992,4.9913e-06,0.081104,-2.5217e-05,-226.89,2.1519
20983,22.996,3.4545,0,2.5899e-05,258.81,1.5048e-05,81.747,4.1797e-06,0.088208,-2.3522e-05,-208.05,2.1653
20984,22.905,3.4545,0.05,7.5015e-07,7.4963,5.7602e-07,4.328,6.4299e-13,9.1447e-06,-5.7602e-07,-4.328,2.1519
20985,22.905,3.7273,0,2.7219e-05,272,1.4961e-05,74.682,5.0326e-06,0.08048,-2.5168e-05,-226.83,2.1519
20986,22.996,3.6364,0,2.5812e-05,257.94,1.4929e-05,80.571,4.2174e-06,0.087668,-2.348e-05,-208.02,2.1653
20987,22.905,3.6364,0.05,7.4839e-07,7.4787,5.7467e-07,4.3178,6.7333e-13,1.0324e-05,-5.7467e-07,-4.3178,2.1519
20988,22.905,3.9091,0,2.7088e-05,270.69,1.4782e-05,72.924,5.0873e-06,0.079575,-2.51e-05,-226.74,2.1518
20989,22.996,3.8182,0,2.569e-05,256.72,1.4764e-05,78.945,4.269e-06,0.086871,-2.342e-05,-207.96,2.1652
20990,22.905,3.8182,0.05,7.4604e-07,7.4553,5.7287e-07,4.3043,1.0471e-12,1.344e-05,-5.7287e-07,-4.3043,2.1518
20991,22.905,4.0909,0,2.6919e-05,269,1.4552e-05,70.671,5.1566e-06,0.078287,-2.5011e-05,-226.59,2.1518
20992,22.996,4,0,2.5529e-05,255.12,1.4549e-05,76.822,4.3357e-06,0.085736,-2.334e-05,-207.86,2.1652
20993,22.905,4,0.05,7.4313e-07,7.4261,5.7063e-07,4.2875,8.5267e-13,1.0808e-05,-5.7063e-07,-4.2875,2.1518
20994,22.905,4.2727,0,2.6706e-05,266.87,1.4264e-05,67.866,5.2418e-06,0.07647,-2.4896e-05,-226.37,2.1517
20995,22.996,4.1818,0,2.5325e-05,253.08,1.4276e-05,74.145,4.4187e-06,0.084138,-2.3235e-05,-207.7,2.1651
20996,22.905,4.1818,0.05,7.3965e-07,7.3914,5.6796e-07,4.2674,9.9493e-13,1.0075e-05,-5.6796e-07,-4.2674,2.1517
20997,22.905,4.4545,0,2.6445e-05,264.27,1.3912e-05,64.452,5.344e-06,0.0739,-2.4752e-05,-226.06,2.1516
20998,22.996,4.3636,0,2.5072e-05,250.54,1.3939e-05,70.853,4.5195e-06,0.081901,-2.3103e-05,-207.46,2.1651
20999,22.905,4.3636,0.05,7.3562e-07,7.3511,5.6487e-07,4.2442,1.1227e-12,1.26e-05,-5.6487e-07,-4.2442,2.1517
21000,22.905,4.6364,0,2.6132e-05,261.14,1.3491e-05,60.378,5.4645e-06,0.070245,-2.4576e-05,-225.64,2.1516
21001,22.996,4.5455,0,2.4764e-05,247.47,1.353e-05,66.883,4.6393e-06,0.078738,-2.2939e-05,-207.13,2.165
21002,22.905,4.5455,0.05,7.3106e-07,7.3056,5.6136e-07,4.2179,1.029e-12,1.1229e-05,-5.6136e-07,-4.2179,2.1516
21003,22.905,4.8182,0,2.5766e-05,257.48,1.2996e-05,55.606,5.6041e-06,0.064925,-2.4365e-05,-225.11,2.1515
21004,22.996,4.7273,0,2.4398e-05,243.81,1.3045e-05,62.177,4.7794e-06,0.07424,-2.2738e-05,-206.68,2.1649
21005,22.905,4.7273,0.05,7.2599e-07,7.2549,5.5747e-07,4.1886,1.2533e-12,1.3168e-05,-5.5747e-07,-4.1886,2.1515
21006,22.905,5,0,2.5349e-05,253.31,1.2428e-05,50.132,5.7631e-06,0.057258,-2.4121e-05,-224.48,2.1514
21007,22.996,4.9091,0,2.3973e-05,239.56,1.2477e-05,56.695,4.9407e-06,0.067577,-2.2499e-05,-206.11,2.1648
21008,22.905,4.9091,0.05,7.2047e-07,7.1997,5.5323e-07,4.1567,1.1286e-12,1.2282e-05,-5.5323e-07,-4.1567,2.1514
21009,22.905,5.1818,0,2.489e-05,248.73,1.1792e-05,44.009,5.9408e-06,0.045093,-2.3847e-05,-223.77,2.1513
21010,22.996,5.0909,0,2.3491e-05,234.74,1.1828e-05,50.437,5.1233e-06,0.058082,-2.2222e-05,-205.41,2.1647
21011,22.905,5.0909,0.05,7.1454e-07,7.1405,5.4868e-07,4.1226,1.0045e-12,1.0119e-05,-5.4868e-07,-4.1226,2.1513
21012,22.905,5.3636,0,2.4413e-05,243.96,1.1108e-05,37.387,6.1355e-06,0.029012,-2.3561e-05,-223.1,2.1511
21013,22.996,5.2727,0,2.2965e-05,229.49,1.1107e-05,43.474,5.326e-06,0.041602,-2.1914e-05,-204.63,2.1646
21014,22.905,5.2727,0.05,7.0829e-07,7.078,5.4388e-07,4.0865,8.6053e-13,1.0551e-05,-5.4388e-07,-4.0865,2.1512
21015,22.905,5.5455,0,2.396e-05,239.44,1.0414e-05,30.575,6.3428e-06,-0.012223,-2.3293e-05,-222.68,2.151
21016,22.996,5.4545,0,2.2426e-05,224.1,1.0337e-05,36.012,5.5467e-06,0.023106,-2.1595e-05,-203.91,2.1645
21017,22.905,5.4545,0.05,7.009e-07,7.0042,5.382e-07,4.0439,7.8441e-13,9.9878e-06,-5.3821e-07,-4.0439,2.1511
21018,22.905,5.7273,0,2.37e-05,236.84,9.8562e-06,24.711,6.5604e-06,-0.052356,-2.3183e-05,-223.53,2.1509
21019,22.996,5.6364,0,2.1936e-05,219.21,9.5757e-06,28.489,5.7775e-06,-0.048904,-2.1313e-05,-203.59,2.1644
21020,22.905,5.6364,0.05,6.7788e-07,6.7741,5.2053e-07,3.911,9.9234e-13,1.0134e-05,-5.2053e-07,-3.911,2.1509
21021,22.996,5.8182,0,2.18e-05,217.85,9.0838e-06,22.946,6.0228e-06,-0.052982,-2.1319e-05,-205.49,2.1642
21022,22.905,5.8182,0.05,4.1981e-07,4.1952,3.2236e-07,2.4221,4.956e-13,6.8288e-06,-3.2236e-07,-2.4221,2.1508
21023,22.905,5.9091,0,2.2851e-05,228.35,8.7971e-06,15.198,6.7774e-06,0.022968,-2.2554e-05,-220.36,2.1508
21024,23.088,0.27273,0,1.9979e-05,199.65,8.7556e-06,26.366,5.2384e-06,-0.060946,-1.94e-05,-185.18,2.1777
21025,23.179,0.18182,0,1.8029e-05,180.16,7.9035e-06,23.817,4.7248e-06,-0.066239,-1.7505e-05,-167.09,2.191
21026,23.088,0.18182,0.05,4.4702e-07,4.4671,3.4325e-07,2.5791,3.3973e-13,7.7735e-06,-3.4325e-07,-2.5791,2.1776
21027,23.088,0.090909,0,1.9058e-05,190.45,7.5897e-06,15.777,5.4941e-06,0.032186,-1.874e-05,-182.05,2.1776
21028,23.088,0.45455,0,2.0381e-05,203.67,9.4786e-06,33.776,4.9821e-06,-0.0090206,-1.9595e-05,-184.67,2.1778
21029,23.179,0.36364,0,1.8327e-05,183.14,8.5845e-06,31.121,4.4362e-06,-0.047562,-1.7598e-05,-165.6,2.1911
21030,23.088,0.36364,0.05,6.8043e-07,6.7996,5.2248e-07,3.9257,2.8024e-13,9.4184e-06,-5.2248e-07,-3.9257,2.1777
21031,23.088,0.63636,0,2.097e-05,209.55,1.0323e-05,42.005,4.7376e-06,0.039087,-1.9936e-05,-185.35,2.1779
21032,23.179,0.54545,0,1.8976e-05,189.62,9.5187e-06,40.276,4.1635e-06,0.038533,-1.7967e-05,-166.24,2.1913
21033,23.088,0.54545,0.05,7.0307e-07,7.0259,5.3987e-07,4.0564,6.6636e-13,1.2332e-05,-5.3987e-07,-4.0564,2.1779
21034,23.088,0.81818,0,2.1566e-05,215.51,1.1135e-05,49.84,4.5088e-06,0.057078,-2.0281e-05,-186.21,2.178
21035,23.179,0.72727,0,1.9653e-05,196.4,1.0433e-05,49.111,3.9044e-06,0.059594,-1.8352e-05,-167.16,2.1914
21036,23.088,0.72727,0.05,7.113e-07,7.1081,5.4619e-07,4.1039,5.0632e-13,7.4391e-06,-5.4619e-07,-4.1039,2.178
21037,23.088,1,0,2.2122e-05,221.07,1.1873e-05,56.959,4.3012e-06,0.070434,-2.0596e-05,-186.99,2.1781
21038,23.179,0.90909,0,2.0291e-05,202.77,1.1267e-05,57.17,3.6686e-06,0.077941,-1.8705e-05,-168.03,2.1915
21039,23.088,0.90909,0.05,7.181e-07,7.176,5.5141e-07,4.1431,1.6175e-14,3.7556e-06,-5.5141e-07,-4.1431,2.1781
21040,23.088,1.1818,0,2.2618e-05,226.02,1.2522e-05,63.237,4.1163e-06,0.078695,-2.0869e-05,-187.65,2.1782
21041,23.179,1.0909,0,2.0862e-05,208.47,1.2002e-05,64.289,3.4579e-06,0.088263,-1.9011e-05,-168.73,2.1916
21042,23.088,1.0909,0.05,7.2422e-07,7.2372,5.5611e-07,4.1784,-1.3271e-13,2.2354e-06,-5.5611e-07,-4.1784,2.1782
21043,23.088,1.3636,0,2.3048e-05,230.32,1.3081e-05,68.662,3.9544e-06,0.084416,-2.1099e-05,-188.15,2.1783
21044,23.179,1.2727,0,2.1358e-05,213.43,1.2637e-05,70.452,3.2729e-06,0.095485,-1.9269e-05,-169.27,2.1917
21045,23.088,1.2727,0.05,7.2967e-07,7.2917,5.603e-07,4.2099,-1.7995e-13,1.3215e-06,-5.603e-07,-4.2098,2.1783
21046,23.088,1.5455,0,2.3411e-05,233.95,1.3555e-05,73.269,3.815e-06,0.08836,-2.1288e-05,-188.53,2.1784
21047,23.179,1.4545,0,2.178e-05,217.65,1.3175e-05,75.704,3.1129e-06,0.10036,-1.9481e-05,-169.66,2.1918
21048,23.088,1.4545,0.05,7.3447e-07,7.3397,5.6399e-07,4.2376,-3.1269e-13,4.8606e-07,-5.6398e-07,-4.2376,2.1784
21049,23.088,1.7273,0,2.3714e-05,236.98,1.3949e-05,77.121,3.6967e-06,0.091158,-2.1442e-05,-188.79,2.1785
21050,23.179,1.6364,0,2.2133e-05,221.18,1.3626e-05,80.119,2.9764e-06,0.10382,-1.9654e-05,-169.94,2.1918
21051,23.088,1.6364,0.05,7.3866e-07,7.3815,5.672e-07,4.2617,-3.4343e-14,1.8233e-06,-5.672e-07,-4.2617,2.1784
21052,23.088,1.9091,0,2.3961e-05,239.45,1.4271e-05,80.287,3.5981e-06,0.093157,-2.1564e-05,-188.96,2.1786
21053,23.179,1.8182,0,2.2425e-05,224.09,1.3997e-05,83.774,2.8618e-06,0.10629,-1.9793e-05,-170.11,2.1919
21054,23.088,1.8182,0.05,7.4225e-07,7.4174,5.6996e-07,4.2824,-2.2202e-15,2.1096e-06,-5.6996e-07,-4.2824,2.1785
21055,23.088,2.0909,0,2.4158e-05,241.42,1.453e-05,82.836,3.5176e-06,0.094592,-2.1659e-05,-189.07,2.1786
21056,23.179,2,0,2.266e-05,226.44,1.4298e-05,86.748,2.7673e-06,0.10807,-1.9902e-05,-170.22,2.192
21057,23.088,2,0.05,7.4529e-07,7.4477,5.7229e-07,4.3,-8.1263e-14,3.3099e-06,-5.7229e-07,-4.2999,2.1786
21058,23.088,2.2727,0,2.4311e-05,242.94,1.4731e-05,84.829,3.454e-06,0.095613,-2.1731e-05,-189.13,2.1787
21059,23.179,2.1818,0,2.2845e-05,228.3,1.4537e-05,89.112,2.6914e-06,0.10935,-1.9986e-05,-170.28,2.192
21060,23.088,2.1818,0.05,7.4779e-07,7.4727,5.7421e-07,4.3144,1.8055e-13,4.5213e-06,-5.7421e-07,-4.3144,2.1786
21061,23.088,2.4545,0,2.4425e-05,244.08,1.4882e-05,86.321,3.4059e-06,0.096323,-2.1784e-05,-189.17,2.1787
21062,23.179,2.3636,0,2.2987e-05,229.71,1.4719e-05,90.927,2.6324e-06,0.11025,-2.0049e-05,-170.31,2.1921
21063,23.088,2.3636,0.05,7.4978e-07,7.4926,5.7573e-07,4.3258,2.1659e-13,4.7863e-06,-5.7573e-07,-4.3258,2.1787
21064,23.088,2.6364,0,2.4503e-05,244.86,1.4986e-05,87.354,3.3723e-06,0.096789,-2.1819e-05,-189.18,2.1787
21065,23.179,2.5455,0,2.3089e-05,230.73,1.4851e-05,92.242,2.5894e-06,0.11087,-2.0093e-05,-170.32,2.1921
21066,23.088,2.5455,0.05,7.5126e-07,7.5074,5.7687e-07,4.3344,2.531e-13,5.0586e-06,-5.7687e-07,-4.3344,2.1787
21067,23.088,2.8182,0,2.4549e-05,245.32,1.5047e-05,87.961,3.3525e-06,0.097053,-2.184e-05,-189.19,2.1787
21068,23.179,2.7273,0,2.3155e-05,231.39,1.4937e-05,93.097,2.5612e-06,0.11126,-2.0122e-05,-170.32,2.1921
21069,23.088,2.7273,0.05,7.5224e-07,7.5172,5.7763e-07,4.3401,4.0195e-13,4.3716e-06,-5.7763e-07,-4.34,2.1787
21070,23.088,3,0,2.4564e-05,245.47,1.5067e-05,88.162,3.3459e-06,0.097139,-2.1847e-05,-189.19,2.1787
21071,23.179,2.9091,0,2.3187e-05,231.71,1.4979e-05,93.519,2.5473e-06,0.11144,-2.0135e-05,-170.32,2.1921
21072,23.088,2.9091,0.05,7.5273e-07,7.5221,5.78e-07,4.3429,3.2313e-13,5.5873e-06,-5.78e-07,-4.3429,2.1787
21073,23.088,3.1818,0,2.4549e-05,245.32,1.5047e-05,87.961,3.3525e-06,0.097053,-2.184e-05,-189.19,2.1787
21074,23.179,3.0909,0,2.3187e-05,231.71,1.4979e-05,93.519,2.5473e-06,0.11144,-2.0135e-05,-170.32,2.1921
21075,23.088,3.0909,0.05,7.5273e-07,7.5221,5.78e-07,4.3429,4.7278e-13,5.8576e-06,-5.78e-07,-4.3429,2.1787
21076,23.088,3.3636,0,2.4503e-05,244.86,1.4986e-05,87.354,3.3723e-06,0.096789,-2.1819e-05,-189.18,2.1787
21077,23.179,3.2727,0,2.3155e-05,231.39,1.4937e-05,93.097,2.5612e-06,0.11126,-2.0122e-05,-170.32,2.1921
21078,23.088,3.2727,0.05,7.5224e-07,7.5172,5.7763e-07,4.3401,5.0885e-13,8.0355e-06,-5.7763e-07,-4.34,2.1787
21079,23.088,3.5455,0,2.4425e-05,244.08,1.4882e-05,86.321,3.4059e-06,0.096323,-2.1784e-05,-189.17,2.1787
21080,23.179,3.4545,0,2.3089e-05,230.73,1.4851e-05,92.242,2.5894e-06,0.11087,-2.0093e-05,-170.32,2.1921
21081,23.088,3.4545,0.05,7.5126e-07,7.5074,5.7687e-07,4.3344,6.5944e-13,9.266e-06,-5.7687e-07,-4.3344,2.1787
21082,23.088,3.7273,0,2.4311e-05,242.94,1.4731e-05,84.829,3.454e-06,0.095613,-2.1731e-05,-189.13,2.1787
21083,23.179,3.6364,0,2.2987e-05,229.71,1.4719e-05,90.927,2.6324e-06,0.11025,-2.0049e-05,-170.31,2.1921
21084,23.088,3.6364,0.05,7.4978e-07,7.4926,5.7573e-07,4.3258,9.2373e-13,9.542e-06,-5.7573e-07,-4.3258,2.1787
21085,23.088,3.9091,0,2.4158e-05,241.42,1.453e-05,82.836,3.5176e-06,0.094591,-2.1659e-05,-189.07,2.1786
21086,23.179,3.8182,0,2.2845e-05,228.3,1.4537e-05,89.112,2.6914e-06,0.10935,-1.9986e-05,-170.28,2.192
21087,23.088,3.8182,0.05,7.4779e-07,7.4727,5.7421e-07,4.3144,9.6324e-13,1.1761e-05,-5.7421e-07,-4.3144,2.1786
21088,23.088,4.0909,0,2.3961e-05,239.45,1.4271e-05,80.288,3.5981e-06,0.093155,-2.1564e-05,-188.96,2.1786
21089,23.179,4,0,2.266e-05,226.44,1.4298e-05,86.748,2.7673e-06,0.10807,-1.9902e-05,-170.22,2.192
21090,23.088,4,0.05,7.4529e-07,7.4477,5.7229e-07,4.3,1.0017e-12,1.107e-05,-5.7229e-07,-4.3,2.1786
21091,23.088,4.2727,0,2.3714e-05,236.98,1.3949e-05,77.121,3.6967e-06,0.091156,-2.1442e-05,-188.79,2.1785
21092,23.179,4.1818,0,2.2425e-05,224.09,1.3997e-05,83.774,2.8618e-06,0.10629,-1.9793e-05,-170.11,2.1919
21093,23.088,4.1818,0.05,7.4225e-07,7.4174,5.6996e-07,4.2824,1.0373e-12,1.1385e-05,-5.6996e-07,-4.2824,2.1785
21094,23.088,4.4545,0,2.3411e-05,233.95,1.3555e-05,73.269,3.815e-06,0.08836,-2.1288e-05,-188.53,2.1784
21095,23.179,4.3636,0,2.2133e-05,221.18,1.3626e-05,80.119,2.9764e-06,0.10382,-1.9654e-05,-169.94,2.1918
21096,23.088,4.3636,0.05,7.3866e-07,7.3815,5.672e-07,4.2617,1.2923e-12,1.3453e-05,-5.672e-07,-4.2617,2.1784
21097,23.088,4.6364,0,2.3048e-05,230.32,1.3081e-05,68.662,3.9544e-06,0.084416,-2.1099e-05,-188.15,2.1783
21098,23.179,4.5455,0,2.178e-05,217.65,1.3175e-05,75.704,3.1129e-06,0.10036,-1.9481e-05,-169.66,2.1918
21099,23.088,4.5455,0.05,7.3447e-07,7.3397,5.6398e-07,4.2376,1.0915e-12,1.1769e-05,-5.6399e-07,-4.2376,2.1784
21100,23.088,4.8182,0,2.2618e-05,226.02,1.2522e-05,63.237,4.1163e-06,0.078695,-2.0869e-05,-187.65,2.1782
21101,23.179,4.7273,0,2.1358e-05,213.43,1.2637e-05,70.452,3.2729e-06,0.095486,-1.9269e-05,-169.27,2.1917
21102,23.088,4.7273,0.05,7.2967e-07,7.2917,5.603e-07,4.2099,1.1975e-12,1.3739e-05,-5.603e-07,-4.2099,2.1783
21103,23.088,5,0,2.2122e-05,221.07,1.1873e-05,56.959,4.3012e-06,0.070434,-2.0596e-05,-186.99,2.1781
21104,23.179,4.9091,0,2.0862e-05,208.47,1.2002e-05,64.289,3.4579e-06,0.088265,-1.9011e-05,-168.73,2.1916
21105,23.088,4.9091,0.05,7.2422e-07,7.2372,5.5611e-07,4.1784,1.2173e-12,1.2769e-05,-5.5611e-07,-4.1784,2.1782
21106,23.088,5.1818,0,2.1566e-05,215.51,1.1135e-05,49.84,4.5089e-06,0.057079,-2.0281e-05,-186.21,2.178
21107,23.179,5.0909,0,2.0291e-05,202.77,1.1267e-05,57.17,3.6686e-06,0.077943,-1.8705e-05,-168.03,2.1915
21108,23.088,5.0909,0.05,7.181e-07,7.176,5.5141e-07,4.1431,1.0006e-12,1.0357e-05,-5.5141e-07,-4.1431,2.1781
21109,23.088,5.3636,0,2.097e-05,209.55,1.0323e-05,42.005,4.7376e-06,0.039086,-1.9936e-05,-185.35,2.1779
21110,23.179,5.2727,0,1.9653e-05,196.4,1.0433e-05,49.111,3.9044e-06,0.059593,-1.8352e-05,-167.16,2.1914
21111,23.088,5.2727,0.05,7.113e-07,7.1081,5.4619e-07,4.1039,1.0499e-12,1.1906e-05,-5.4619e-07,-4.1039,2.178
21112,23.088,5.5455,0,2.0381e-05,203.67,9.4786e-06,33.776,4.9821e-06,-0.0090196,-1.9595e-05,-184.67,2.1778
21113,23.179,5.4545,0,1.8976e-05,189.62,9.5187e-06,40.276,4.1635e-06,0.038535,-1.7967e-05,-166.24,2.1913
21114,23.088,5.4545,0.05,7.0307e-07,7.0259,5.3987e-07,4.0564,9.5455e-13,1.0077e-05,-5.3987e-07,-4.0564,2.1779
21115,23.088,5.7273,0,1.9979e-05,199.65,8.7556e-06,26.366,5.2384e-06,-0.060946,-1.94e-05,-185.18,2.1777
21116,23.179,5.6364,0,1.8327e-05,183.14,8.5845e-06,31.121,4.4362e-06,-0.047561,-1.7598e-05,-165.6,2.1911
21117,23.088,5.6364,0.05,6.8043e-07,6.7996,5.2248e-07,3.9257,1.0968e-12,1.1106e-05,-5.2248e-07,-3.9257,2.1777
21118,23.179,5.8182,0,1.8029e-05,180.16,7.9035e-06,23.817,4.7248e-06,-0.066241,-1.7505e-05,-167.09,2.191
21119,23.088,5.8182,0.05,4.4702e-07,4.4671,3.4325e-07,2.5791,8.4326e-13,8.284e-06,-3.4325e-07,-2.5791,2.1776
21120,23.088,5.9091,0,1.9058e-05,190.45,7.5897e-06,15.777,5.4941e-06,0.032184,-1.874e-05,-182.05,2.1776
21121,23.27,0.27273,0,1.6309e-05,162.98,7.6771e-06,28.157,3.9212e-06,-0.063023,-1.5647e-05,-147.09,2.2045
21122,23.361,0.18182,0,1.4295e-05,142.85,6.7271e-06,24.639,3.4358e-06,-0.090792,-1.3715e-05,-128.96,2.2178
21123,23.27,0.18182,0.05,4.788e-07,4.7847,3.6766e-07,2.7625,-2.3891e-13,3.7002e-06,-3.6766e-07,-2.7624,2.2044
21124,23.27,0.090909,0,1.5301e-05,152.9,6.3872e-06,16.3,4.2249e-06,0.053125,-1.4958e-05,-144.08,2.2044
21125,23.27,0.45455,0,1.69e-05,168.89,8.6026e-06,37.456,3.6185e-06,0.0068026,-1.5948e-05,-147.01,2.2046
21126,23.361,0.36364,0,1.4822e-05,148.12,7.6546e-06,34.227,3.0926e-06,-0.049503,-1.394e-05,-128.03,2.2179
21127,23.27,0.36364,0.05,6.843e-07,6.8383,5.2546e-07,3.9481,5.2681e-13,8.09e-06,-5.2546e-07,-3.9481,2.2045
21128,23.27,0.63636,0,1.7656e-05,176.44,9.6159e-06,47.287,3.3309e-06,0.063943,-1.637e-05,-147.96,2.2047
21129,23.361,0.54545,0,1.5675e-05,156.64,8.7903e-06,45.291,2.7693e-06,0.052485,-1.4406e-05,-128.99,2.2181
21130,23.27,0.54545,0.05,7.0709e-07,7.066,5.4296e-07,4.0796,8.7953e-13,1.1546e-05,-5.4296e-07,-4.0796,2.2047
21131,23.27,0.81818,0,1.8388e-05,183.75,1.0558e-05,56.383,3.0647e-06,0.08422,-1.6768e-05,-148.93,2.2048
21132,23.361,0.72727,0,1.6513e-05,165.02,9.8522e-06,55.566,2.4672e-06,0.077144,-1.4851e-05,-130.04,2.2182
21133,23.27,0.72727,0.05,7.1637e-07,7.1588,5.5008e-07,4.1331,2.1996e-13,4.6192e-06,-5.5008e-07,-4.1331,2.2048
21134,23.27,1,0,1.9049e-05,190.36,1.1392e-05,64.463,2.8257e-06,0.099024,-1.7116e-05,-149.73,2.2049
21135,23.361,0.90909,0,1.7271e-05,172.59,1.0791e-05,64.676,2.1964e-06,0.097643,-1.5237e-05,-130.89,2.2183
21136,23.27,0.90909,0.05,7.2367e-07,7.2317,5.5569e-07,4.1752,-2.6969e-14,1.6352e-06,-5.5569e-07,-4.1752,2.2049
21137,23.27,1.1818,0,1.9626e-05,196.12,1.2114e-05,71.479,2.6149e-06,0.10808,-1.7408e-05,-150.34,2.205
21138,23.361,1.0909,0,1.7933e-05,179.2,1.1601e-05,72.57,1.9575e-06,0.10896,-1.5561e-05,-131.52,2.2184
21139,23.27,1.0909,0.05,7.2981e-07,7.2931,5.604e-07,4.2106,-2.0811e-13,-1.3564e-06,-5.604e-07,-4.2106,2.205
21140,23.27,1.3636,0,2.012e-05,201.06,1.2728e-05,77.477,2.4317e-06,0.11435,-1.765e-05,-150.77,2.2051
21141,23.361,1.2727,0,1.85e-05,184.87,1.2291e-05,79.319,1.75e-06,0.11692,-1.5828e-05,-131.96,2.2185
21142,23.27,1.2727,0.05,7.3497e-07,7.3446,5.6437e-07,4.2404,-4.7621e-13,-1.9214e-06,-5.6437e-07,-4.2404,2.2051
21143,23.27,1.5455,0,2.0535e-05,205.21,1.3244e-05,82.541,2.2747e-06,0.11869,-1.7847e-05,-151.06,2.2052
21144,23.361,1.4545,0,1.8979e-05,189.66,1.2872e-05,85.028,1.5717e-06,0.12232,-1.6046e-05,-132.25,2.2186
21145,23.27,1.4545,0.05,7.393e-07,7.3879,5.6769e-07,4.2654,-2.3309e-14,-1.9335e-06,-5.6769e-07,-4.2654,2.2052
21146,23.27,1.7273,0,2.088e-05,208.65,1.3673e-05,86.762,2.1419e-06,0.1218,-1.8005e-05,-151.25,2.2053
21147,23.361,1.6364,0,1.9379e-05,193.66,1.3356e-05,89.807,1.4204e-06,0.12619,-1.6223e-05,-132.44,2.2186
21148,23.27,1.6364,0.05,7.4293e-07,7.4242,5.7048e-07,4.2864,-1.499e-13,-7.9329e-08,-5.7048e-07,-4.2864,2.2052
21149,23.27,1.9091,0,2.1161e-05,211.47,1.4023e-05,90.228,2.0314e-06,0.12404,-1.8131e-05,-151.37,2.2053
21150,23.361,1.8182,0,1.9709e-05,196.95,1.3755e-05,93.757,1.2937e-06,0.12898,-1.6364e-05,-132.54,2.2187
21151,23.27,1.8182,0.05,7.4595e-07,7.4544,5.728e-07,4.3038,-2.3597e-13,1.0759e-07,-5.728e-07,-4.3038,2.2053
21152,23.27,2.0909,0,2.1387e-05,213.72,1.4305e-05,93.019,1.9414e-06,0.12566,-1.8229e-05,-151.43,2.2054
21153,23.361,2,0,1.9975e-05,199.62,1.4078e-05,96.971,1.1894e-06,0.13101,-1.6475e-05,-132.59,2.2188
21154,23.27,2,0.05,7.4844e-07,7.4793,5.7471e-07,4.3182,-8.8222e-14,4.1143e-07,-5.7471e-07,-4.3182,2.2054
21155,23.27,2.2727,0,2.1562e-05,215.47,1.4524e-05,95.205,1.8702e-06,0.12683,-1.8304e-05,-151.45,2.2054
21156,23.361,2.1818,0,2.0187e-05,201.73,1.4334e-05,99.527,1.1057e-06,0.13248,-1.6561e-05,-132.61,2.2188
21157,23.27,2.1818,0.05,7.5046e-07,7.4994,5.7626e-07,4.3298,-4.9119e-14,1.6412e-06,-5.7626e-07,-4.3298,2.2054
21158,23.27,2.4545,0,2.1693e-05,216.78,1.4688e-05,96.844,1.8163e-06,0.12764,-1.8359e-05,-151.46,2.2055
21159,23.361,2.3636,0,2.0348e-05,203.34,1.4531e-05,101.49,1.0408e-06,0.13353,-1.6626e-05,-132.61,2.2188
21160,23.27,2.3636,0.05,7.5203e-07,7.5151,5.7746e-07,4.3388,-1.3319e-14,1.8978e-06,-5.7746e-07,-4.3388,2.2054
21161,23.27,2.6364,0,2.1783e-05,217.68,1.4802e-05,97.982,1.7786e-06,0.12818,-1.8396e-05,-151.45,2.2055
21162,23.361,2.5455,0,2.0465e-05,204.51,1.4673e-05,102.92,9.9333e-07,0.13425,-1.6672e-05,-132.59,2.2189
21163,23.27,2.5455,0.05,7.5318e-07,7.5266,5.7835e-07,4.3455,1.3735e-13,3.1402e-06,-5.7835e-07,-4.3455,2.2055
21164,23.27,2.8182,0,2.1836e-05,218.21,1.4869e-05,98.651,1.7564e-06,0.12848,-1.8417e-05,-151.45,2.2055
21165,23.361,2.7273,0,2.0541e-05,205.27,1.4766e-05,103.85,9.6227e-07,0.1347,-1.6701e-05,-132.58,2.2189
21166,23.27,2.7273,0.05,7.5395e-07,7.5342,5.7894e-07,4.3499,2.8727e-13,3.4095e-06,-5.7894e-07,-4.3499,2.2055
21167,23.27,3,0,2.1854e-05,218.39,1.4891e-05,98.872,1.749e-06,0.12858,-1.8424e-05,-151.45,2.2055
21168,23.361,2.9091,0,2.0578e-05,205.64,1.4811e-05,104.31,9.4692e-07,0.13492,-1.6715e-05,-132.57,2.2189
21169,23.27,2.9091,0.05,7.5432e-07,7.538,5.7923e-07,4.3521,3.2285e-13,2.7245e-06,-5.7923e-07,-4.3521,2.2055
21170,23.27,3.1818,0,2.1836e-05,218.21,1.4869e-05,98.651,1.7564e-06,0.12848,-1.8417e-05,-151.45,2.2055
21171,23.361,3.0909,0,2.0578e-05,205.64,1.4811e-05,104.31,9.4692e-07,0.13492,-1.6715e-05,-132.57,2.2189
21172,23.27,3.0909,0.05,7.5432e-07,7.538,5.7923e-07,4.3521,4.7307e-13,3.9524e-06,-5.7923e-07,-4.3521,2.2055
21173,23.27,3.3636,0,2.1783e-05,217.68,1.4802e-05,97.982,1.7786e-06,0.12818,-1.8396e-05,-151.45,2.2055
21174,23.361,3.2727,0,2.0541e-05,205.27,1.4766e-05,103.85,9.6227e-07,0.1347,-1.6701e-05,-132.58,2.2189
21175,23.27,3.2727,0.05,7.5394e-07,7.5342,5.7894e-07,4.3499,6.2322e-13,6.1333e-06,-5.7894e-07,-4.3499,2.2055
21176,23.27,3.5455,0,2.1693e-05,216.78,1.4688e-05,96.844,1.8163e-06,0.12764,-1.8359e-05,-151.46,2.2055
21177,23.361,3.4545,0,2.0465e-05,204.51,1.4673e-05,102.92,9.9333e-07,0.13425,-1.6672e-05,-132.59,2.2189
21178,23.27,3.4545,0.05,7.5318e-07,7.5266,5.7835e-07,4.3455,6.5925e-13,6.4052e-06,-5.7835e-07,-4.3455,2.2055
21179,23.27,3.7273,0,2.1562e-05,215.47,1.4524e-05,95.205,1.8702e-06,0.12683,-1.8304e-05,-151.45,2.2054
21180,23.361,3.6364,0,2.0348e-05,203.34,1.4531e-05,101.49,1.0408e-06,0.13353,-1.6626e-05,-132.61,2.2188
21181,23.27,3.6364,0.05,7.5203e-07,7.5151,5.7746e-07,4.3388,1.0372e-12,7.6386e-06,-5.7746e-07,-4.3388,2.2054
21182,23.27,3.9091,0,2.1387e-05,213.72,1.4305e-05,93.019,1.9414e-06,0.12566,-1.8229e-05,-151.43,2.2054
21183,23.361,3.8182,0,2.0187e-05,201.73,1.4334e-05,99.527,1.1057e-06,0.13248,-1.6561e-05,-132.61,2.2188
21184,23.27,3.8182,0.05,7.5046e-07,7.4994,5.7626e-07,4.3298,1.0789e-12,1.0813e-05,-5.7626e-07,-4.3298,2.2054
21185,23.27,4.0909,0,2.1161e-05,211.47,1.4023e-05,90.228,2.0314e-06,0.12404,-1.8131e-05,-151.37,2.2053
21186,23.361,4,0,1.9975e-05,199.62,1.4078e-05,96.971,1.1894e-06,0.13101,-1.6475e-05,-132.59,2.2188
21187,23.27,4,0.05,7.4844e-07,7.4793,5.7471e-07,4.3182,1.0003e-12,1.0128e-05,-5.7471e-07,-4.3182,2.2054
21188,23.27,4.2727,0,2.088e-05,208.65,1.3673e-05,86.762,2.1419e-06,0.1218,-1.8005e-05,-151.25,2.2053
21189,23.361,4.1818,0,1.9709e-05,196.95,1.3755e-05,93.757,1.2937e-06,0.12898,-1.6364e-05,-132.54,2.2187
21190,23.27,4.1818,0.05,7.4595e-07,7.4544,5.728e-07,4.3038,1.1495e-12,9.4821e-06,-5.728e-07,-4.3038,2.2053
21191,23.27,4.4545,0,2.0535e-05,205.21,1.3244e-05,82.541,2.2747e-06,0.11869,-1.7847e-05,-151.06,2.2052
21192,23.361,4.3636,0,1.9379e-05,193.66,1.3356e-05,89.807,1.4204e-06,0.1262,-1.6223e-05,-132.44,2.2186
21193,23.27,4.3636,0.05,7.4293e-07,7.4242,5.7048e-07,4.2864,1.2986e-12,1.2539e-05,-5.7048e-07,-4.2864,2.2052
21194,23.27,4.6364,0,2.012e-05,201.06,1.2728e-05,77.477,2.4317e-06,0.11435,-1.765e-05,-150.77,2.2051
21195,23.361,4.5455,0,1.8979e-05,189.66,1.2872e-05,85.028,1.5717e-06,0.12232,-1.6046e-05,-132.25,2.2186
21196,23.27,4.5455,0.05,7.393e-07,7.3879,5.6769e-07,4.2654,1.3165e-12,9.7935e-06,-5.6769e-07,-4.2654,2.2052
21197,23.27,4.8182,0,1.9626e-05,196.12,1.2114e-05,71.479,2.6149e-06,0.10808,-1.7408e-05,-150.34,2.205
21198,23.361,4.7273,0,1.85e-05,184.87,1.2291e-05,79.319,1.75e-06,0.11692,-1.5828e-05,-131.96,2.2185
21199,23.27,4.7273,0.05,7.3497e-07,7.3446,5.6436e-07,4.2404,1.3264e-12,1.274e-05,-5.6437e-07,-4.2404,2.2051
21200,23.27,5,0,1.9049e-05,190.36,1.1392e-05,64.463,2.8257e-06,0.099026,-1.7116e-05,-149.73,2.2049
21201,23.361,4.9091,0,1.7933e-05,179.2,1.1601e-05,72.57,1.9575e-06,0.10896,-1.5561e-05,-131.52,2.2184
21202,23.27,4.9091,0.05,7.2981e-07,7.2931,5.604e-07,4.2106,1.4181e-12,1.2695e-05,-5.604e-07,-4.2106,2.205
21203,23.27,5.1818,0,1.8388e-05,183.75,1.0558e-05,56.383,3.0647e-06,0.084219,-1.6768e-05,-148.93,2.2048
21204,23.361,5.0909,0,1.7271e-05,172.59,1.0791e-05,64.676,2.1964e-06,0.097644,-1.5237e-05,-130.89,2.2183
21205,23.27,5.0909,0.05,7.2367e-07,7.2317,5.5569e-07,4.1752,1.1022e-12,1.065e-05,-5.5569e-07,-4.1752,2.2049
21206,23.27,5.3636,0,1.7656e-05,176.44,9.6159e-06,47.287,3.3309e-06,0.063944,-1.637e-05,-147.96,2.2047
21207,23.361,5.2727,0,1.6513e-05,165.02,9.8522e-06,55.566,2.4672e-06,0.077142,-1.4851e-05,-130.04,2.2182
21208,23.27,5.2727,0.05,7.1637e-07,7.1588,5.5008e-07,4.1331,1.0667e-12,1.0801e-05,-5.5008e-07,-4.1331,2.2048
21209,23.27,5.5455,0,1.69e-05,168.89,8.6026e-06,37.456,3.6185e-06,0.0068043,-1.5948e-05,-147.01,2.2046
21210,23.361,5.4545,0,1.5675e-05,156.64,8.7903e-06,45.291,2.7693e-06,0.052486,-1.4406e-05,-128.99,2.2181
21211,23.27,5.4545,0.05,7.0709e-07,7.066,5.4296e-07,4.0796,1.3142e-12,9.7774e-06,-5.4296e-07,-4.0796,2.2047
21212,23.27,5.7273,0,1.6309e-05,162.98,7.6771e-06,28.157,3.9212e-06,-0.063024,-1.5647e-05,-147.09,2.2045
21213,23.361,5.6364,0,1.4822e-05,148.12,7.6545e-06,34.227,3.0926e-06,-0.049502,-1.394e-05,-128.03,2.2179
21214,23.27,5.6364,0.05,6.843e-07,6.8383,5.2546e-07,3.9481,1.121e-12,1.0327e-05,-5.2546e-07,-3.9481,2.2045
21215,23.361,5.8182,0,1.4295e-05,142.85,6.7271e-06,24.639,3.4359e-06,-0.090794,-1.3715e-05,-128.96,2.2178
21216,23.27,5.8182,0.05,4.788e-07,4.7847,3.6766e-07,2.7624,6.747e-13,6.1284e-06,-3.6766e-07,-2.7625,2.2044
21217,23.27,5.9091,0,1.5301e-05,152.9,6.3872e-06,16.3,4.2249e-06,0.053126,-1.4958e-05,-144.08,2.2044
21218,23.453,0.27273,0,1.273e-05,127.21,6.6399e-06,30.222,2.6065e-06,-0.08306,-1.1943e-05,-109.4,2.2313
21219,23.544,0.18182,0,1.0636e-05,106.29,5.5692e-06,25.512,2.1611e-06,-0.09517,-9.97e-06,-91.244,2.2446
21220,23.453,0.18182,0.05,5.1629e-07,5.1594,3.9645e-07,2.9788,5.0273e-13,8.2476e-06,-3.9645e-07,-2.9788,2.2312
21221,23.453,0.090909,0,1.1598e-05,115.9,5.1926e-06,16.739,2.974e-06,0.069246,-1.1221e-05,-106.59,2.2312
21222,23.453,0.45455,0,1.3583e-05,135.73,7.8192e-06,41.89,2.2449e-06,0.0071638,-1.2376e-05,-109.85,2.2314
21223,23.544,0.36364,0,1.1517e-05,115.09,6.8354e-06,38.244,1.7453e-06,-0.00038749,-1.0379e-05,-91.098,2.2448
21224,23.453,0.36364,0.05,6.9118e-07,6.907,5.3074e-07,3.9878,3.0664e-13,7.3856e-06,-5.3074e-07,-3.9877,2.2313
21225,23.453,0.63636,0,1.4543e-05,145.33,9.015e-06,53.483,1.9066e-06,0.07375,-1.2876e-05,-111,2.2315
21226,23.544,0.54545,0,1.2624e-05,126.15,8.1914e-06,51.452,1.3611e-06,0.13189,-1.0937e-05,-92.269,2.2449
21227,23.453,0.54545,0.05,7.1469e-07,7.142,5.4879e-07,4.1234,6.0231e-13,1.0925e-05,-5.4879e-07,-4.1234,2.2315
21228,23.453,0.81818,0,1.5423e-05,154.13,1.0079e-05,63.81,1.5997e-06,0.097301,-1.3314e-05,-111.96,2.2316
21229,23.544,0.72727,0,1.3635e-05,136.26,9.3885e-06,63.101,1.0117e-06,0.16059,-1.142e-05,-93.249,2.245
21230,23.453,0.72727,0.05,7.2481e-07,7.2431,5.5657e-07,4.1818,1.2618e-13,5.6632e-06,-5.5657e-07,-4.1818,2.2316
21231,23.453,1,0,1.6193e-05,161.81,1.0997e-05,72.752,1.329e-06,0.11382,-1.3679e-05,-112.65,2.2317
21232,23.544,0.90909,0,1.4515e-05,145.05,1.0412e-05,73.117,7.0578e-07,0.1851,-1.182e-05,-93.929,2.2451
21233,23.453,0.90909,0.05,7.3212e-07,7.3162,5.6218e-07,4.224,-3.0638e-13,-1.2879e-07,-5.6218e-07,-4.224,2.2317
21234,23.453,1.1818,0,1.6851e-05,168.4,1.1776e-05,80.39,1.0934e-06,0.12387,-1.3979e-05,-113.13,2.2318
21235,23.544,1.0909,0,1.5268e-05,152.57,1.1279e-05,81.638,4.405e-07,0.19841,-1.2147e-05,-94.376,2.2452
21236,23.453,1.0909,0.05,7.3775e-07,7.3725,5.665e-07,4.2565,-6.8779e-13,-1.6381e-06,-5.665e-07,-4.2565,2.2318
21237,23.453,1.3636,0,1.7409e-05,173.97,1.2433e-05,86.856,8.9073e-07,0.13091,-1.4224e-05,-113.43,2.2319
21238,23.544,1.2727,0,1.5906e-05,158.95,1.201e-05,88.844,2.1272e-07,0.20785,-1.2413e-05,-94.656,2.2453
21239,23.453,1.2727,0.05,7.4217e-07,7.4165,5.6989e-07,4.282,-5.9886e-13,-2.7027e-06,-5.6989e-07,-4.2819,2.2319
21240,23.453,1.5455,0,1.7877e-05,178.64,1.2982e-05,92.283,7.1815e-07,0.13583,-1.4422e-05,-113.62,2.232
21241,23.544,1.4545,0,1.6442e-05,164.3,1.2621e-05,94.902,1.8704e-08,0.21428,-1.2629e-05,-94.819,2.2454
21242,23.453,1.4545,0.05,7.4567e-07,7.4515,5.7258e-07,4.3022,-3.3736e-13,-6.0824e-07,-5.7258e-07,-4.3021,2.2319
21243,23.453,1.7273,0,1.8264e-05,182.51,1.3437e-05,96.794,5.7293e-07,0.13939,-1.4581e-05,-113.72,2.2321
21244,23.544,1.6364,0,1.6888e-05,168.77,1.3129e-05,99.956,-1.4499e-07,0.21888,-1.2805e-05,-94.902,2.2454
21245,23.453,1.6364,0.05,7.4847e-07,7.4795,5.7473e-07,4.3183,-2.5613e-13,1.8803e-06,-5.7473e-07,-4.3183,2.232
21246,23.453,1.9091,0,1.8581e-05,185.68,1.3808e-05,100.49,4.5249e-07,0.14198,-1.4708e-05,-113.77,2.2321
21247,23.544,1.8182,0,1.7257e-05,172.45,1.3548e-05,104.13,-2.8147e-07,0.22219,-1.2946e-05,-94.931,2.2455
21248,23.453,1.8182,0.05,7.5071e-07,7.502,5.7646e-07,4.3313,-1.0072e-13,1.2268e-06,-5.7645e-07,-4.3313,2.2321
21249,23.453,2.0909,0,1.8835e-05,188.22,1.4107e-05,103.47,3.5456e-07,0.14388,-1.4807e-05,-113.77,2.2322
21250,23.544,2,0,1.7555e-05,175.43,1.3887e-05,107.52,-3.9345e-07,0.22459,-1.3057e-05,-94.927,2.2456
21251,23.453,2,0.05,7.525e-07,7.5199,5.7783e-07,4.3416,4.5193e-14,2.4652e-06,-5.7783e-07,-4.3416,2.2321
21252,23.453,2.2727,0,1.9033e-05,190.2,1.434e-05,105.81,2.7715e-07,0.14525,-1.4883e-05,-113.76,2.2322
21253,23.544,2.1818,0,1.7792e-05,177.8,1.4156e-05,110.22,-4.8323e-07,0.22632,-1.3144e-05,-94.904,2.2456
21254,23.453,2.1818,0.05,7.5391e-07,7.5339,5.7891e-07,4.3497,-3.403e-14,2.7254e-06,-5.7891e-07,-4.3497,2.2322
21255,23.453,2.4545,0,1.9182e-05,191.68,1.4515e-05,107.56,2.1866e-07,0.14621,-1.4939e-05,-113.74,2.2323
21256,23.544,2.3636,0,1.7974e-05,179.62,1.4363e-05,112.3,-5.5275e-07,0.22755,-1.321e-05,-94.873,2.2456
21257,23.453,2.3636,0.05,7.5499e-07,7.5447,5.7974e-07,4.3559,2.2661e-13,3.9078e-06,-5.7974e-07,-4.3559,2.2322
21258,23.453,2.6364,0,1.9284e-05,192.71,1.4636e-05,108.78,1.7779e-07,0.14686,-1.4977e-05,-113.72,2.2323
21259,23.544,2.5455,0,1.8106e-05,180.94,1.4514e-05,113.81,-6.0354e-07,0.22839,-1.3257e-05,-94.844,2.2457
21260,23.453,2.5455,0.05,7.5577e-07,7.5525,5.8034e-07,4.3605,1.4748e-13,4.1664e-06,-5.8034e-07,-4.3604,2.2323
21261,23.453,2.8182,0,1.9345e-05,193.32,1.4708e-05,109.5,1.5364e-07,0.14722,-1.4999e-05,-113.71,2.2323
21262,23.544,2.7273,0,1.8192e-05,181.8,1.4611e-05,114.8,-6.3676e-07,0.22891,-1.3287e-05,-94.821,2.2457
21263,23.453,2.7273,0.05,7.5628e-07,7.5576,5.8073e-07,4.3634,6.5424e-14,5.3591e-06,-5.8073e-07,-4.3634,2.2323
21264,23.453,3,0,1.9365e-05,193.52,1.4731e-05,109.74,1.4565e-07,0.14734,-1.5007e-05,-113.7,2.2323
21265,23.544,2.9091,0,1.8234e-05,182.22,1.4659e-05,115.28,-6.5318e-07,0.22916,-1.3302e-05,-94.808,2.2457
21266,23.453,2.9091,0.05,7.5653e-07,7.5601,5.8092e-07,4.3648,3.2464e-13,6.5523e-06,-5.8092e-07,-4.3648,2.2323
21267,23.453,3.1818,0,1.9345e-05,193.32,1.4708e-05,109.5,1.5364e-07,0.14722,-1.4999e-05,-113.71,2.2323
21268,23.544,3.0909,0,1.8234e-05,182.22,1.4659e-05,115.28,-6.5318e-07,0.22916,-1.3302e-05,-94.808,2.2457
21269,23.453,3.0909,0.05,7.5653e-07,7.5601,5.8092e-07,4.3648,4.7133e-13,6.8002e-06,-5.8092e-07,-4.3648,2.2323
21270,23.453,3.3636,0,1.9284e-05,192.71,1.4636e-05,108.78,1.7779e-07,0.14686,-1.4977e-05,-113.72,2.2323
21271,23.544,3.2727,0,1.8192e-05,181.8,1.4611e-05,114.8,-6.3676e-07,0.22891,-1.3287e-05,-94.821,2.2457
21272,23.453,3.2727,0.05,7.5628e-07,7.5576,5.8073e-07,4.3634,6.1781e-13,8.0009e-06,-5.8073e-07,-4.3634,2.2323
21273,23.453,3.5455,0,1.9182e-05,191.68,1.4515e-05,107.56,2.1866e-07,0.14622,-1.4939e-05,-113.74,2.2323
21274,23.544,3.4545,0,1.8106e-05,180.94,1.4514e-05,113.81,-6.0354e-07,0.22839,-1.3257e-05,-94.844,2.2457
21275,23.453,3.4545,0.05,7.5577e-07,7.5525,5.8034e-07,4.3605,7.6371e-13,1.0146e-05,-5.8034e-07,-4.3604,2.2323
21276,23.453,3.7273,0,1.9033e-05,190.2,1.434e-05,105.81,2.7715e-07,0.14525,-1.4883e-05,-113.76,2.2322
21277,23.544,3.6364,0,1.7974e-05,179.62,1.4363e-05,112.3,-5.5275e-07,0.22755,-1.321e-05,-94.873,2.2456
21278,23.453,3.6364,0.05,7.5499e-07,7.5447,5.7974e-07,4.3559,1.0238e-12,1.2306e-05,-5.7974e-07,-4.3559,2.2322
21279,23.453,3.9091,0,1.8835e-05,188.22,1.4107e-05,103.47,3.5456e-07,0.14388,-1.4807e-05,-113.77,2.2322
21280,23.544,3.8182,0,1.7792e-05,177.8,1.4156e-05,110.22,-4.8323e-07,0.22633,-1.3144e-05,-94.904,2.2456
21281,23.453,3.8182,0.05,7.5391e-07,7.5339,5.7891e-07,4.3497,1.1757e-12,1.449e-05,-5.7891e-07,-4.3497,2.2322
21282,23.453,4.0909,0,1.8581e-05,185.68,1.3808e-05,100.49,4.5249e-07,0.14198,-1.4708e-05,-113.77,2.2321
21283,23.544,4,0,1.7555e-05,175.43,1.3887e-05,107.52,-3.9345e-07,0.22459,-1.3057e-05,-94.927,2.2456
21284,23.453,4,0.05,7.525e-07,7.5199,5.7783e-07,4.3416,1.2101e-12,1.2852e-05,-5.7783e-07,-4.3416,2.2321
21285,23.453,4.2727,0,1.8264e-05,182.51,1.3437e-05,96.794,5.7293e-07,0.13939,-1.4581e-05,-113.72,2.2321
21286,23.544,4.1818,0,1.7257e-05,172.45,1.3548e-05,104.13,-2.8147e-07,0.22219,-1.2946e-05,-94.931,2.2455
21287,23.453,4.1818,0.05,7.5071e-07,7.502,5.7645e-07,4.3313,1.1338e-12,1.406e-05,-5.7645e-07,-4.3313,2.2321
21288,23.453,4.4545,0,1.7877e-05,178.64,1.2982e-05,92.283,7.1815e-07,0.13583,-1.4422e-05,-113.62,2.232
21289,23.544,4.3636,0,1.6888e-05,168.77,1.3129e-05,99.956,-1.4499e-07,0.21888,-1.2805e-05,-94.902,2.2454
21290,23.453,4.3636,0.05,7.4847e-07,7.4795,5.7473e-07,4.3183,1.2759e-12,1.7133e-05,-5.7473e-07,-4.3183,2.232
21291,23.453,4.6364,0,1.7409e-05,173.97,1.2433e-05,86.856,8.9073e-07,0.13091,-1.4224e-05,-113.43,2.2319
21292,23.544,4.5455,0,1.6442e-05,164.3,1.2621e-05,94.902,1.8702e-08,0.21428,-1.2629e-05,-94.819,2.2454
21293,23.453,4.5455,0.05,7.4567e-07,7.4515,5.7258e-07,4.3022,1.1809e-12,1.5387e-05,-5.7258e-07,-4.3021,2.2319
21294,23.453,4.8182,0,1.6851e-05,168.4,1.1776e-05,80.39,1.0934e-06,0.12387,-1.3979e-05,-113.13,2.2318
21295,23.544,4.7273,0,1.5906e-05,158.95,1.201e-05,88.845,2.1272e-07,0.20785,-1.2413e-05,-94.656,2.2453
21296,23.453,4.7273,0.05,7.4217e-07,7.4165,5.6989e-07,4.2819,1.4074e-12,1.4533e-05,-5.6989e-07,-4.2819,2.2319
21297,23.453,5,0,1.6193e-05,161.81,1.0997e-05,72.752,1.329e-06,0.11382,-1.3679e-05,-112.65,2.2317
21298,23.544,4.9091,0,1.5268e-05,152.57,1.1279e-05,81.638,4.405e-07,0.19841,-1.2147e-05,-94.376,2.2452
21299,23.453,4.9091,0.05,7.3776e-07,7.3725,5.665e-07,4.2565,1.5218e-12,1.6317e-05,-5.665e-07,-4.2565,2.2318
21300,23.453,5.1818,0,1.5423e-05,154.13,1.0079e-05,63.81,1.5997e-06,0.097301,-1.3314e-05,-111.96,2.2316
21301,23.544,5.0909,0,1.4515e-05,145.05,1.0412e-05,73.117,7.0577e-07,0.18511,-1.182e-05,-93.929,2.2451
21302,23.453,5.0909,0.05,7.3212e-07,7.3162,5.6218e-07,4.224,1.321e-12,1.4601e-05,-5.6218e-07,-4.224,2.2317
21303,23.453,5.3636,0,1.4543e-05,145.33,9.015e-06,53.483,1.9066e-06,0.073748,-1.2876e-05,-111,2.2315
21304,23.544,5.2727,0,1.3635e-05,136.26,9.3885e-06,63.101,1.0117e-06,0.16059,-1.142e-05,-93.249,2.245
21305,23.453,5.2727,0.05,7.2481e-07,7.2431,5.5657e-07,4.1818,1.3671e-12,1.4779e-05,-5.5657e-07,-4.1818,2.2316
21306,23.453,5.5455,0,1.3583e-05,135.73,7.8192e-06,41.89,2.2449e-06,0.0071645,-1.2376e-05,-109.85,2.2314
21307,23.544,5.4545,0,1.2624e-05,126.15,8.1914e-06,51.452,1.3611e-06,0.13189,-1.0937e-05,-92.269,2.2449
21308,23.453,5.4545,0.05,7.1469e-07,7.142,5.4879e-07,4.1234,1.0533e-12,1.342e-05,-5.4879e-07,-4.1234,2.2315
21309,23.453,5.7273,0,1.273e-05,127.21,6.6399e-06,30.222,2.6065e-06,-0.083059,-1.1943e-05,-109.4,2.2313
21310,23.544,5.6364,0,1.1517e-05,115.09,6.8354e-06,38.244,1.7453e-06,-0.00038568,-1.0379e-05,-91.098,2.2448
21311,23.453,5.6364,0.05,6.9118e-07,6.907,5.3074e-07,3.9878,1.1014e-12,1.3389e-05,-5.3074e-07,-3.9877,2.2313
21312,23.544,5.8182,0,1.0636e-05,106.29,5.5692e-06,25.512,2.1611e-06,-0.095169,-9.97e-06,-91.244,2.2446
21313,23.453,5.8182,0.05,5.1629e-07,5.1594,3.9645e-07,2.9788,8.3532e-13,1.0671e-05,-3.9645e-07,-2.9788,2.2312
21314,23.453,5.9091,0,1.1598e-05,115.9,5.1926e-06,16.739,2.974e-06,0.069246,-1.1221e-05,-106.59,2.2312
21315,23.635,0.27273,0,9.3421e-06,93.357,5.691e-06,32.98,1.301e-06,-0.0050148,-8.3331e-06,-72.392,2.2581
21316,23.726,0.18182,0,7.2102e-06,72.053,4.5229e-06,27.076,8.8353e-07,-0.26919,-6.3537e-06,-54.647,2.2715
21317,23.635,0.18182,0.05,5.6468e-07,5.6429,4.336e-07,3.2579,3.3269e-13,5.5061e-06,-4.336e-07,-3.2579,2.258
21318,23.635,0.090909,0,7.9958e-06,79.903,4.0192e-06,17.169,1.7581e-06,0.18065,-7.5639e-06,-69.862,2.258
21319,23.635,0.45455,0,1.0569e-05,105.62,7.1867e-06,47.649,8.6431e-07,0.14558,-8.9215e-06,-73.381,2.2582
21320,23.726,0.36364,0,8.6205e-06,86.146,6.2324e-06,44.019,3.6196e-07,-0.088568,-6.9794e-06,-55.249,2.2716
21321,23.635,0.36364,0.05,7.0713e-07,7.0664,5.4299e-07,4.0798,-3.7656e-13,-1.2484e-06,-5.4299e-07,-4.0798,2.2582
21322,23.635,0.63636,0,1.1761e-05,117.53,8.5557e-06,61.001,4.6843e-07,0.23614,-9.4744e-06,-74.47,2.2583
21323,23.726,0.54545,0,9.9995e-06,99.926,7.7768e-06,59.214,-9.1166e-08,0.096997,-7.5784e-06,-56.159,2.2717
21324,23.635,0.54545,0.05,7.2977e-07,7.2926,5.6037e-07,4.2104,-1.9375e-13,3.8374e-07,-5.6037e-07,-4.2104,2.2583
21325,23.635,0.81818,0,1.279e-05,127.81,9.7166e-06,72.371,1.1985e-07,0.26468,-9.9237e-06,-75.198,2.2584
21326,23.726,0.72727,0,1.1176e-05,111.68,9.0662e-06,71.913,-4.8716e-07,0.13308,-8.0588e-06,-56.758,2.2718
21327,23.635,0.72727,0.05,7.392e-07,7.3869,5.6761e-07,4.2648,-3.4249e-13,-1.1055e-06,-5.6761e-07,-4.2648,2.2584
21328,23.635,1,0,1.3663e-05,136.54,1.0692e-05,81.98,-1.8061e-07,0.28578,-1.0286e-05,-75.645,2.2585
21329,23.726,0.90909,0,1.2167e-05,121.59,1.0141e-05,82.556,-8.2421e-07,0.16629,-8.445e-06,-57.093,2.2719
21330,23.635,0.90909,0.05,7.4494e-07,7.4443,5.7202e-07,4.298,-5.5677e-13,-4.3542e-06,-5.7202e-07,-4.298,2.2585
21331,23.635,1.1818,0,1.4401e-05,143.91,1.1511e-05,90.077,-4.3805e-07,0.29855,-1.058e-05,-75.907,2.2586
21332,23.726,1.0909,0,1.3003e-05,129.94,1.104e-05,91.489,-1.1115e-06,0.18477,-8.7584e-06,-57.271,2.272
21333,23.635,1.0909,0.05,7.4894e-07,7.4842,5.7509e-07,4.321,-7.1498e-13,-4.855e-06,-5.7509e-07,-4.321,2.2586
21334,23.635,1.3636,0,1.502e-05,150.1,1.2196e-05,96.88,-6.5714e-07,0.3075,-1.0819e-05,-76.048,2.2587
21335,23.726,1.2727,0,1.3705e-05,136.96,1.1793e-05,98.989,-1.3552e-06,0.19815,-9.0144e-06,-57.35,2.2721
21336,23.635,1.2727,0.05,7.518e-07,7.5128,5.7729e-07,4.3375,-6.6591e-13,-4.4052e-06,-5.7729e-07,-4.3375,2.2587
21337,23.635,1.5455,0,1.5538e-05,155.28,1.2767e-05,102.57,-8.4225e-07,0.31375,-1.1014e-05,-76.111,2.2588
21338,23.726,1.4545,0,1.4293e-05,142.84,1.2422e-05,105.27,-1.5611e-06,0.20747,-9.224e-06,-57.368,2.2722
21339,23.635,1.4545,0.05,7.539e-07,7.5338,5.789e-07,4.3497,-4.2752e-13,-1.5717e-06,-5.789e-07,-4.3496,2.2588
21340,23.635,1.7273,0,1.5968e-05,159.57,1.3239e-05,107.28,-9.9719e-07,0.31823,-1.1171e-05,-76.122,2.2589
21341,23.726,1.6364,0,1.4784e-05,147.73,1.2944e-05,110.5,-1.7338e-06,0.21426,-9.395e-06,-57.349,2.2722
21342,23.635,1.6364,0.05,7.5546e-07,7.5494,5.801e-07,4.3587,-2.8689e-13,-1.3322e-06,-5.801e-07,-4.3587,2.2588
21343,23.635,1.9091,0,1.6319e-05,163.08,1.3625e-05,111.15,-1.1252e-06,0.32145,-1.1297e-05,-76.103,2.2589
21344,23.726,1.8182,0,1.5188e-05,151.77,1.3375e-05,114.82,-1.8771e-06,0.21921,-9.5337e-06,-57.309,2.2723
21345,23.635,1.8182,0.05,7.5664e-07,7.5611,5.81e-07,4.3654,-1.547e-13,-1.1476e-06,-5.81e-07,-4.3654,2.2589
21346,23.635,2.0909,0,1.6602e-05,165.9,1.3936e-05,114.27,-1.229e-06,0.32376,-1.1396e-05,-76.068,2.259
21347,23.726,2,0,1.5516e-05,155.05,1.3724e-05,118.33,-1.9944e-06,0.22285,-9.6448e-06,-57.259,2.2724
21348,23.635,2,0.05,7.5752e-07,7.5699,5.8168e-07,4.3705,-1.2617e-13,2.421e-08,-5.8168e-07,-4.3705,2.259
21349,23.635,2.2727,0,1.6823e-05,168.11,1.4179e-05,116.71,-1.3109e-06,0.32541,-1.1473e-05,-76.028,2.259
21350,23.726,2.1818,0,1.5778e-05,157.67,1.4003e-05,121.12,-2.0882e-06,0.22549,-9.7321e-06,-57.208,2.2724
21351,23.635,2.1818,0.05,7.5817e-07,7.5765,5.8218e-07,4.3743,-1.012e-13,2.0857e-06,-5.8218e-07,-4.3743,2.259
21352,23.635,2.4545,0,1.6989e-05,169.77,1.4361e-05,118.55,-1.3727e-06,0.32655,-1.153e-05,-75.988,2.2591
21353,23.726,2.3636,0,1.5979e-05,159.68,1.4216e-05,123.28,-2.1607e-06,0.22738,-9.7985e-06,-57.16,2.2725
21354,23.635,2.3636,0.05,7.5865e-07,7.5813,5.8255e-07,4.377,2.5992e-13,3.2144e-06,-5.8255e-07,-4.377,2.259
21355,23.635,2.6364,0,1.7104e-05,170.92,1.4488e-05,119.82,-1.4159e-06,0.32729,-1.1569e-05,-75.957,2.2591
21356,23.726,2.5455,0,1.6125e-05,161.14,1.4372e-05,124.85,-2.2136e-06,0.22868,-9.8464e-06,-57.122,2.2725
21357,23.635,2.5455,0.05,7.5898e-07,7.5846,5.828e-07,4.379,2.8496e-13,3.396e-06,-5.828e-07,-4.379,2.2591
21358,23.635,2.8182,0,1.7172e-05,171.6,1.4563e-05,120.58,-1.4413e-06,0.32771,-1.1591e-05,-75.936,2.2591
21359,23.726,2.7273,0,1.622e-05,162.09,1.4473e-05,125.87,-2.2481e-06,0.22948,-9.8774e-06,-57.094,2.2725
21360,23.635,2.7273,0.05,7.5919e-07,7.5867,5.8296e-07,4.3802,1.9375e-13,4.5167e-06,-5.8296e-07,-4.3802,2.2591
21361,23.635,3,0,1.7194e-05,171.82,1.4587e-05,120.82,-1.4498e-06,0.32785,-1.1599e-05,-75.929,2.2591
21362,23.726,2.9091,0,1.6267e-05,162.56,1.4523e-05,126.37,-2.2652e-06,0.22987,-9.8927e-06,-57.08,2.2725
21363,23.635,2.9091,0.05,7.5929e-07,7.5877,5.8304e-07,4.3808,4.432e-13,4.6816e-06,-5.8304e-07,-4.3808,2.2591
21364,23.635,3.1818,0,1.7172e-05,171.6,1.4563e-05,120.58,-1.4413e-06,0.32771,-1.1591e-05,-75.936,2.2591
21365,23.726,3.0909,0,1.6267e-05,162.56,1.4523e-05,126.37,-2.2652e-06,0.22987,-9.8927e-06,-57.08,2.2725
21366,23.635,3.0909,0.05,7.5929e-07,7.5877,5.8304e-07,4.3808,3.5279e-13,4.8565e-06,-5.8304e-07,-4.3808,2.2591
21367,23.635,3.3636,0,1.7104e-05,170.92,1.4488e-05,119.82,-1.4159e-06,0.32729,-1.1569e-05,-75.957,2.2591
21368,23.726,3.2727,0,1.622e-05,162.09,1.4473e-05,125.87,-2.2481e-06,0.22948,-9.8774e-06,-57.094,2.2725
21369,23.635,3.2727,0.05,7.5919e-07,7.5867,5.8296e-07,4.3802,8.2991e-13,7.8865e-06,-5.8296e-07,-4.3802,2.2591
21370,23.635,3.5455,0,1.6989e-05,169.77,1.4361e-05,118.55,-1.3727e-06,0.32655,-1.153e-05,-75.988,2.2591
21371,23.726,3.4545,0,1.6125e-05,161.14,1.4372e-05,124.85,-2.2136e-06,0.22868,-9.8464e-06,-57.122,2.2725
21372,23.635,3.4545,0.05,7.5898e-07,7.5846,5.828e-07,4.379,7.377e-13,9.951e-06,-5.828e-07,-4.379,2.2591
21373,23.635,3.7273,0,1.6823e-05,168.11,1.4179e-05,116.71,-1.3109e-06,0.32541,-1.1473e-05,-76.028,2.259
21374,23.726,3.6364,0,1.5979e-05,159.68,1.4216e-05,123.28,-2.1607e-06,0.22738,-9.7985e-06,-57.16,2.2725
21375,23.635,3.6364,0.05,7.5865e-07,7.5813,5.8255e-07,4.377,9.8888e-13,1.2027e-05,-5.8255e-07,-4.377,2.259
21376,23.635,3.9091,0,1.6602e-05,165.9,1.3936e-05,114.27,-1.229e-06,0.32376,-1.1396e-05,-76.068,2.259
21377,23.726,3.8182,0,1.5778e-05,157.67,1.4003e-05,121.12,-2.0882e-06,0.22549,-9.7321e-06,-57.208,2.2724
21378,23.635,3.8182,0.05,7.5817e-07,7.5765,5.8218e-07,4.3743,1.3545e-12,1.2228e-05,-5.8218e-07,-4.3743,2.259
21379,23.635,4.0909,0,1.6319e-05,163.08,1.3625e-05,111.15,-1.1252e-06,0.32145,-1.1297e-05,-76.103,2.2589
21380,23.726,4,0,1.5516e-05,155.05,1.3724e-05,118.33,-1.9944e-06,0.22285,-9.6448e-06,-57.259,2.2724
21381,23.635,4,0.05,7.5752e-07,7.5699,5.8168e-07,4.3705,1.0382e-12,1.3357e-05,-5.8168e-07,-4.3705,2.259
21382,23.635,4.2727,0,1.5968e-05,159.57,1.3239e-05,107.28,-9.9719e-07,0.31823,-1.1171e-05,-76.122,2.2589
21383,23.726,4.1818,0,1.5188e-05,151.77,1.3375e-05,114.82,-1.8771e-06,0.21921,-9.5337e-06,-57.309,2.2723
21384,23.635,4.1818,0.05,7.5664e-07,7.5612,5.81e-07,4.3654,1.2852e-12,1.257e-05,-5.81e-07,-4.3654,2.2589
21385,23.635,4.4545,0,1.5538e-05,155.28,1.2767e-05,102.57,-8.4226e-07,0.31375,-1.1014e-05,-76.111,2.2588
21386,23.726,4.3636,0,1.4784e-05,147.73,1.2944e-05,110.5,-1.7338e-06,0.21426,-9.395e-06,-57.349,2.2722
21387,23.635,4.3636,0.05,7.5546e-07,7.5494,5.801e-07,4.3587,1.5275e-12,1.5554e-05,-5.801e-07,-4.3587,2.2588
21388,23.635,4.6364,0,1.502e-05,150.1,1.2196e-05,96.88,-6.5714e-07,0.3075,-1.0819e-05,-76.048,2.2587
21389,23.726,4.5455,0,1.4293e-05,142.84,1.2422e-05,105.27,-1.5611e-06,0.20747,-9.224e-06,-57.368,2.2722
21390,23.635,4.5455,0.05,7.539e-07,7.5338,5.789e-07,4.3497,1.4155e-12,1.5547e-05,-5.789e-07,-4.3496,2.2588
21391,23.635,4.8182,0,1.4401e-05,143.91,1.1511e-05,90.077,-4.3805e-07,0.29855,-1.058e-05,-75.907,2.2586
21392,23.726,4.7273,0,1.3705e-05,136.96,1.1793e-05,98.989,-1.3552e-06,0.19815,-9.0144e-06,-57.35,2.2721
21393,23.635,4.7273,0.05,7.518e-07,7.5128,5.7729e-07,4.3375,1.523e-12,1.5472e-05,-5.7729e-07,-4.3375,2.2587
21394,23.635,5,0,1.3663e-05,136.54,1.0692e-05,81.98,-1.8061e-07,0.28578,-1.0286e-05,-75.645,2.2585
21395,23.726,4.9091,0,1.3003e-05,129.94,1.104e-05,91.489,-1.1115e-06,0.18477,-8.7584e-06,-57.271,2.272
21396,23.635,4.9091,0.05,7.4894e-07,7.4842,5.7509e-07,4.321,1.5023e-12,1.6203e-05,-5.7509e-07,-4.321,2.2586
21397,23.635,5.1818,0,1.279e-05,127.81,9.7166e-06,72.371,1.1985e-07,0.26468,-9.9237e-06,-75.198,2.2584
21398,23.726,5.0909,0,1.2167e-05,121.59,1.0141e-05,82.556,-8.2422e-07,0.16629,-8.445e-06,-57.093,2.2719
21399,23.635,5.0909,0.05,7.4494e-07,7.4443,5.7202e-07,4.298,1.1783e-12,1.2685e-05,-5.7202e-07,-4.298,2.2585
21400,23.635,5.3636,0,1.1761e-05,117.53,8.5557e-06,61.001,4.6843e-07,0.23615,-9.4744e-06,-74.47,2.2583
21401,23.726,5.2727,0,1.1176e-05,111.68,9.0662e-06,71.913,-4.8716e-07,0.13308,-8.0588e-06,-56.758,2.2718
21402,23.635,5.2727,0.05,7.392e-07,7.3869,5.6761e-07,4.2648,1.2166e-12,1.4587e-05,-5.6761e-07,-4.2648,2.2584
21403,23.635,5.5455,0,1.0569e-05,105.62,7.1867e-06,47.649,8.6431e-07,0.14558,-8.9215e-06,-73.381,2.2582
21404,23.726,5.4545,0,9.9995e-06,99.926,7.7768e-06,59.214,-9.1166e-08,0.096997,-7.5784e-06,-56.159,2.2717
21405,23.635,5.4545,0.05,7.2977e-07,7.2926,5.6037e-07,4.2104,1.0429e-12,1.1563e-05,-5.6037e-07,-4.2104,2.2583
21406,23.635,5.7273,0,9.3421e-06,93.357,5.691e-06,32.98,1.301e-06,-0.0050131,-8.3331e-06,-72.392,2.2581
21407,23.726,5.6364,0,8.6205e-06,86.146,6.2323e-06,44.019,3.6197e-07,-0.088567,-6.9794e-06,-55.249,2.2716
21408,23.635,5.6364,0.05,7.0713e-07,7.0664,5.4299e-07,4.0798,1.0449e-12,1.2454e-05,-5.4299e-07,-4.0798,2.2582
21409,23.726,5.8182,0,7.2103e-06,72.053,4.5229e-06,27.076,8.8353e-07,-0.26919,-6.3537e-06,-54.647,2.2715
21410,23.635,5.8182,0.05,5.6468e-07,5.6429,4.336e-07,3.2579,6.2853e-13,8.3447e-06,-4.336e-07,-3.2579,2.258
21411,23.635,5.9091,0,7.9958e-06,79.903,4.0192e-06,17.169,1.7581e-06,0.18064,-7.5639e-06,-69.862,2.258
21412,23.818,0.27273,0,6.4671e-06,64.626,4.9941e-06,37.588,-4.8002e-08,-0.29649,-4.9373e-06,-37.033,2.2849
21413,23.818,0.18182,0.05,6.6507e-07,6.6461,5.1069e-07,3.8372,4.2576e-13,7.4737e-06,-5.1069e-07,-3.8371,2.2849
21414,23.818,0.090909,0,4.6253e-06,46.221,2.9061e-06,17.523,5.7338e-07,-0.0037624,-4.0707e-06,-34.898,2.2848
21415,23.909,0.18182,0,4.3787e-06,43.757,3.6526e-06,29.742,-3.0267e-07,0.02408,-3.0348e-06,-20.504,2.2983
21416,23.818,0.45455,0,8.1463e-06,81.407,6.807e-06,55.467,-5.841e-07,-0.066487,-5.6302e-06,-37.981,2.285
21417,23.818,0.36364,0.05,7.6028e-07,7.5975,5.838e-07,4.3864,-6.5744e-13,-2.2355e-06,-5.838e-07,-4.3864,2.285
21418,23.909,0.36364,0,6.431e-06,64.266,5.7972e-06,50.984,-9.5927e-07,0.21865,-3.8196e-06,-21.273,2.2984
21419,23.818,0.63636,0,9.5375e-06,95.309,8.2806e-06,70.076,-1.0374e-06,0.064308,-6.1655e-06,-38.467,2.2852
21420,23.818,0.54545,0.05,7.7008e-07,7.6955,5.9133e-07,4.443,-4.6125e-13,-2.0549e-06,-5.9133e-07,-4.443,2.2851
21421,23.909,0.54545,0,8.0545e-06,80.489,7.4636e-06,67.573,-1.4781e-06,0.38853,-4.4093e-06,-21.636,2.2985
21422,23.818,0.81818,0,1.0686e-05,106.79,9.487e-06,82.07,-1.4215e-06,0.10745,-6.5861e-06,-38.697,2.2853
21423,23.818,0.72727,0.05,7.7133e-07,7.708,5.9229e-07,4.4502,-4.7353e-13,-1.2414e-06,-5.9229e-07,-4.4502,2.2852
21424,23.909,0.72727,0,9.3736e-06,93.671,8.8095e-06,80.967,-1.9135e-06,0.39862,-4.8698e-06,-21.814,2.2986
21425,23.818,1,0,1.1643e-05,116.35,1.0487e-05,92.046,-1.745e-06,0.14069,-6.9246e-06,-38.777,2.2854
21426,23.818,0.90909,0.05,7.712e-07,7.7067,5.9219e-07,4.4495,-5.0666e-13,-2.4543e-06,-5.9219e-07,-4.4495,2.2853
21427,23.909,0.90909,0,1.0463e-05,104.55,9.9178e-06,92.029,-2.2749e-06,0.41798,-5.2416e-06,-21.873,2.2987
21428,23.818,1.1818,0,1.2444e-05,124.36,1.1321e-05,100.39,-2.0183e-06,0.16206,-7.2011e-06,-38.78,2.2855
21429,23.818,1.0909,0.05,7.7036e-07,7.6982,5.9154e-07,4.4446,-5.3346e-13,-1.6958e-06,-5.9154e-07,-4.4446,2.2854
21430,23.909,1.0909,0,1.1371e-05,113.63,1.084e-05,101.25,-2.5785e-06,0.42597,-5.5469e-06,-21.878,2.2988
21431,23.818,1.3636,0,1.3115e-05,131.06,1.2018e-05,107.37,-2.2486e-06,0.17766,-7.4283e-06,-38.741,2.2855
21432,23.818,1.2727,0.05,7.6924e-07,7.6871,5.9068e-07,4.4382,-5.531e-13,-1.9062e-06,-5.9068e-07,-4.4382,2.2855
21433,23.909,1.2727,0,1.2131e-05,121.22,1.1612e-05,108.97,-2.8335e-06,0.43214,-5.7995e-06,-21.853,2.2989
21434,23.818,1.5455,0,1.3675e-05,136.65,1.2599e-05,113.2,-2.4418e-06,0.189,-7.6151e-06,-38.681,2.2856
21435,23.818,1.4545,0.05,7.6806e-07,7.6753,5.8978e-07,4.4314,-2.4797e-13,-2.0224e-06,-5.8978e-07,-4.4313,2.2856
21436,23.909,1.4545,0,1.2766e-05,127.57,1.2256e-05,115.42,-3.0474e-06,0.4361,-6.0087e-06,-21.814,2.299
21437,23.818,1.7273,0,1.4139e-05,141.29,1.308e-05,118.03,-2.6028e-06,0.19743,-7.7681e-06,-38.613,2.2857
21438,23.818,1.6364,0.05,7.6692e-07,7.6639,5.889e-07,4.4248,-3.7601e-13,-2.8227e-07,-5.889e-07,-4.4247,2.2856
21439,23.909,1.6364,0,1.3294e-05,132.85,1.2791e-05,120.79,-3.2259e-06,0.43893,-6.1816e-06,-21.77,2.2991
21440,23.818,1.9091,0,1.4519e-05,145.09,1.3473e-05,121.99,-2.7352e-06,0.20369,-7.8922e-06,-38.544,2.2858
21441,23.818,1.8182,0.05,7.6587e-07,7.6534,5.8809e-07,4.4187,-3.8182e-13,-1.2594e-06,-5.8809e-07,-4.4187,2.2857
21442,23.909,1.8182,0,1.373e-05,137.2,1.3233e-05,125.21,-3.3734e-06,0.44093,-6.3234e-06,-21.724,2.2991
21443,23.818,2.0909,0,1.4826e-05,148.16,1.3791e-05,125.18,-2.8424e-06,0.20834,-7.9913e-06,-38.479,2.2858
21444,23.818,2,0.05,7.6494e-07,7.6441,5.8738e-07,4.4134,-2.6425e-13,6.7267e-07,-5.8738e-07,-4.4133,2.2858
21445,23.909,2,0,1.4084e-05,140.75,1.3592e-05,128.82,-3.4937e-06,0.44237,-6.4381e-06,-21.681,2.2992
21446,23.818,2.2727,0,1.5066e-05,150.56,1.404e-05,127.69,-2.9267e-06,0.21173,-8.0685e-06,-38.422,2.2858
21447,23.818,2.1818,0.05,7.6416e-07,7.6363,5.8678e-07,4.4088,-2.6128e-13,1.6546e-06,-5.8678e-07,-4.4088,2.2858
21448,23.909,2.1818,0,1.4367e-05,143.57,1.3878e-05,131.69,-3.5897e-06,0.4434,-6.5291e-06,-21.642,2.2992
21449,23.818,2.4545,0,1.5247e-05,152.37,1.4227e-05,129.58,-2.9902e-06,0.21413,-8.1262e-06,-38.375,2.2859
21450,23.818,2.3636,0.05,7.6352e-07,7.63,5.8629e-07,4.4052,-2.9865e-14,5.4969e-06,-5.8629e-07,-4.4052,2.2859
21451,23.909,2.3636,0,1.4584e-05,145.74,1.4098e-05,133.9,-3.6637e-06,0.44413,-6.599e-06,-21.61,2.2993
21452,23.818,2.6364,0,1.5373e-05,153.62,1.4357e-05,130.89,-3.0346e-06,0.21573,-8.1661e-06,-38.341,2.2859
21453,23.818,2.5455,0.05,7.6304e-07,7.6252,5.8592e-07,4.4024,9.2038e-14,3.6523e-06,-5.8592e-07,-4.4024,2.2859
21454,23.909,2.5455,0,1.4742e-05,147.32,1.4259e-05,135.51,-3.7177e-06,0.44462,-6.6497e-06,-21.585,2.2993
21455,23.818,2.8182,0,1.5447e-05,154.36,1.4433e-05,131.66,-3.0607e-06,0.21665,-8.1896e-06,-38.32,2.2859
21456,23.818,2.7273,0.05,7.6272e-07,7.622,5.8568e-07,4.4005,2.1411e-13,5.6206e-06,-5.8568e-07,-4.4005,2.2859
21457,23.909,2.7273,0,1.4846e-05,148.35,1.4363e-05,136.56,-3.7529e-06,0.44493,-6.6827e-06,-21.568,2.2993
21458,23.818,3,0,1.5472e-05,154.61,1.4459e-05,131.92,-3.0694e-06,0.21694,-8.1973e-06,-38.313,2.2859
21459,23.818,2.9091,0.05,7.6256e-07,7.6203,5.8555e-07,4.3996,5.6334e-13,7.5909e-06,-5.8555e-07,-4.3996,2.2859
21460,23.909,2.9091,0,1.4897e-05,148.86,1.4415e-05,137.08,-3.7703e-06,0.44507,-6.699e-06,-21.56,2.2993
21461,23.818,3.1818,0,1.5447e-05,154.36,1.4433e-05,131.66,-3.0607e-06,0.21665,-8.1896e-06,-38.32,2.2859
21462,23.818,3.0909,0.05,7.6256e-07,7.6203,5.8555e-07,4.3996,6.8747e-13,1.1484e-05,-5.8555e-07,-4.3996,2.2859
21463,23.909,3.0909,0,1.4897e-05,148.86,1.4415e-05,137.08,-3.7703e-06,0.44507,-6.699e-06,-21.56,2.2993
21464,23.818,3.3636,0,1.5373e-05,153.62,1.4357e-05,130.89,-3.0346e-06,0.21573,-8.1661e-06,-38.341,2.2859
21465,23.818,3.2727,0.05,7.6272e-07,7.622,5.8568e-07,4.4005,5.8314e-13,9.6458e-06,-5.8568e-07,-4.4005,2.2859
21466,23.909,3.2727,0,1.4846e-05,148.35,1.4363e-05,136.56,-3.7529e-06,0.44492,-6.6827e-06,-21.568,2.2993
21467,23.818,3.5455,0,1.5247e-05,152.37,1.4227e-05,129.58,-2.9903e-06,0.21413,-8.1262e-06,-38.375,2.2859
21468,23.818,3.4545,0.05,7.6304e-07,7.6252,5.8592e-07,4.4024,9.3005e-13,1.3503e-05,-5.8592e-07,-4.4024,2.2859
21469,23.909,3.4545,0,1.4742e-05,147.32,1.4259e-05,135.51,-3.7177e-06,0.44462,-6.6497e-06,-21.585,2.2993
21470,23.818,3.7273,0,1.5066e-05,150.56,1.404e-05,127.69,-2.9267e-06,0.21173,-8.0685e-06,-38.422,2.2858
21471,23.818,3.6364,0.05,7.6352e-07,7.63,5.8629e-07,4.4052,1.2783e-12,1.3568e-05,-5.8629e-07,-4.4052,2.2859
21472,23.909,3.6364,0,1.4584e-05,145.74,1.4098e-05,133.9,-3.6637e-06,0.44413,-6.599e-06,-21.61,2.2993
21473,23.818,3.9091,0,1.4826e-05,148.16,1.3791e-05,125.18,-2.8424e-06,0.20834,-7.9913e-06,-38.479,2.2858
21474,23.818,3.8182,0.05,7.6416e-07,7.6363,5.8678e-07,4.4088,1.2959e-12,1.4626e-05,-5.8678e-07,-4.4088,2.2858
21475,23.909,3.8182,0,1.4367e-05,143.57,1.3878e-05,131.69,-3.5897e-06,0.4434,-6.5291e-06,-21.642,2.2992
21476,23.818,4.0909,0,1.4519e-05,145.09,1.3473e-05,121.99,-2.7352e-06,0.20369,-7.8922e-06,-38.544,2.2858
21477,23.818,4,0.05,7.6494e-07,7.6441,5.8738e-07,4.4134,1.2976e-12,1.4688e-05,-5.8738e-07,-4.4133,2.2858
21478,23.909,4,0,1.4084e-05,140.75,1.3592e-05,128.82,-3.4937e-06,0.44237,-6.4381e-06,-21.681,2.2992
21479,23.818,4.2727,0,1.4139e-05,141.29,1.308e-05,118.03,-2.6028e-06,0.19743,-7.7681e-06,-38.613,2.2857
21480,23.818,4.1818,0.05,7.6587e-07,7.6534,5.8809e-07,4.4187,1.3024e-12,1.6597e-05,-5.8809e-07,-4.4187,2.2857
21481,23.909,4.1818,0,1.373e-05,137.2,1.3233e-05,125.21,-3.3734e-06,0.44093,-6.3234e-06,-21.724,2.2991
21482,23.818,4.4545,0,1.3675e-05,136.65,1.2599e-05,113.2,-2.4418e-06,0.189,-7.6151e-06,-38.681,2.2856
21483,23.818,4.3636,0.05,7.6692e-07,7.6639,5.889e-07,4.4248,1.6372e-12,1.9377e-05,-5.889e-07,-4.4247,2.2856
21484,23.909,4.3636,0,1.3294e-05,132.85,1.2791e-05,120.79,-3.2259e-06,0.43893,-6.1816e-06,-21.77,2.2991
21485,23.818,4.6364,0,1.3115e-05,131.06,1.2018e-05,107.37,-2.2486e-06,0.17766,-7.4283e-06,-38.741,2.2855
21486,23.818,4.5455,0.05,7.6806e-07,7.6753,5.8978e-07,4.4314,1.3883e-12,1.6445e-05,-5.8978e-07,-4.4313,2.2856
21487,23.909,4.5455,0,1.2766e-05,127.57,1.2256e-05,115.42,-3.0474e-06,0.4361,-6.0087e-06,-21.814,2.299
21488,23.818,4.8182,0,1.2444e-05,124.36,1.1321e-05,100.39,-2.0183e-06,0.16206,-7.2011e-06,-38.78,2.2855
21489,23.818,4.7273,0.05,7.6924e-07,7.6871,5.9068e-07,4.4382,1.5858e-12,1.7229e-05,-5.9068e-07,-4.4382,2.2855
21490,23.909,4.7273,0,1.2131e-05,121.22,1.1612e-05,108.97,-2.8335e-06,0.43214,-5.7995e-06,-21.853,2.2989
21491,23.818,5,0,1.1643e-05,116.35,1.0487e-05,92.046,-1.745e-06,0.14069,-6.9246e-06,-38.777,2.2854
21492,23.818,4.9091,0.05,7.7036e-07,7.6982,5.9154e-07,4.4446,1.5334e-12,1.6896e-05,-5.9154e-07,-4.4446,2.2854
21493,23.909,4.9091,0,1.1371e-05,113.63,1.084e-05,101.25,-2.5785e-06,0.42596,-5.5469e-06,-21.878,2.2988
21494,23.818,5.1818,0,1.0686e-05,106.79,9.487e-06,82.07,-1.4215e-06,0.10745,-6.5861e-06,-38.697,2.2853
21495,23.818,5.0909,0.05,7.712e-07,7.7067,5.9219e-07,4.4495,1.3302e-12,1.6779e-05,-5.9219e-07,-4.4495,2.2853
21496,23.909,5.0909,0,1.0463e-05,104.55,9.9178e-06,92.029,-2.2749e-06,0.41798,-5.2416e-06,-21.873,2.2987
21497,23.818,5.3636,0,9.5375e-06,95.309,8.2806e-06,70.076,-1.0374e-06,0.064308,-6.1655e-06,-38.467,2.2852
21498,23.818,5.2727,0.05,7.7133e-07,7.708,5.9229e-07,4.4502,1.211e-12,1.6028e-05,-5.9229e-07,-4.4502,2.2852
21499,23.909,5.2727,0,9.3736e-06,93.671,8.8095e-06,80.967,-1.9135e-06,0.39862,-4.8698e-06,-21.814,2.2986
21500,23.818,5.5455,0,8.1463e-06,81.406,6.807e-06,55.467,-5.841e-07,-0.066487,-5.6302e-06,-37.981,2.285
21501,23.818,5.4545,0.05,7.7008e-07,7.6955,5.9133e-07,4.443,9.5275e-13,1.3073e-05,-5.9133e-07,-4.443,2.2851
21502,23.909,5.4545,0,8.0545e-06,80.489,7.4636e-06,67.573,-1.4781e-06,0.38853,-4.4093e-06,-21.636,2.2985
21503,23.818,5.7273,0,6.4671e-06,64.626,4.9941e-06,37.588,-4.8001e-08,-0.29649,-4.9373e-06,-37.033,2.2849
21504,23.818,5.6364,0.05,7.6028e-07,7.5975,5.838e-07,4.3864,9.4863e-13,1.2534e-05,-5.838e-07,-4.3864,2.285
21505,23.909,5.6364,0,6.431e-06,64.266,5.7972e-06,50.984,-9.5927e-07,0.21866,-3.8196e-06,-21.273,2.2984
21506,23.818,5.8182,0.05,6.6507e-07,6.6461,5.1069e-07,3.8372,6.3681e-13,1.0599e-05,-5.1069e-07,-3.8371,2.2849
21507,23.909,5.8182,0,4.3787e-06,43.757,3.6526e-06,29.742,-3.0267e-07,0.024079,-3.0348e-06,-20.504,2.2983
21508,23.818,5.9091,0,4.6253e-06,46.221,2.9061e-06,17.523,5.7338e-07,-0.0037607,-4.0707e-06,-34.898,2.2848
21509,23.818,5.7273,0.1,6.4671e-06,64.626,4.9373e-06,37.033,4.7999e-08,0.29649,-4.9941e-06,-37.588,2.2849
21510,23.726,5.8182,0.1,7.2102e-06,72.053,6.3537e-06,54.647,-8.8353e-07,0.26919,-4.5229e-06,-27.076,2.2715
21511,23.818,5.9091,0.1,4.6253e-06,46.221,4.0707e-06,34.898,-5.7338e-07,0.0037635,-2.9061e-06,-17.523,2.2848
21512,23.909,5.8182,0.1,4.3787e-06,43.757,3.0348e-06,20.504,3.0267e-07,-0.024078,-3.6526e-06,-29.742,2.2983
21513,23.818,5.5455,0.1,8.1463e-06,81.406,5.6302e-06,37.981,5.841e-07,0.066488,-6.807e-06,-55.467,2.285
21514,23.726,5.6364,0.1,8.6205e-06,86.146,6.9794e-06,55.249,-3.6197e-07,0.088566,-6.2323e-06,-44.019,2.2716
21515,23.909,5.6364,0.1,6.431e-06,64.266,3.8196e-06,21.273,9.5927e-07,-0.21865,-5.7972e-06,-50.984,2.2984
21516,23.818,5.3636,0.1,9.5375e-06,95.309,6.1655e-06,38.467,1.0374e-06,-0.064307,-8.2806e-06,-70.076,2.2852
21517,23.726,5.4545,0.1,9.9995e-06,99.926,7.5784e-06,56.159,9.1164e-08,-0.096996,-7.7768e-06,-59.214,2.2717
21518,23.909,5.4545,0.1,8.0545e-06,80.489,4.4093e-06,21.636,1.4781e-06,-0.38853,-7.4636e-06,-67.573,2.2985
21519,23.818,5.1818,0.1,1.0686e-05,106.79,6.5861e-06,38.697,1.4215e-06,-0.10745,-9.487e-06,-82.07,2.2853
21520,23.726,5.2727,0.1,1.1176e-05,111.68,8.0588e-06,56.758,4.8716e-07,-0.13308,-9.0662e-06,-71.913,2.2718
21521,23.909,5.2727,0.1,9.3736e-06,93.671,4.8698e-06,21.814,1.9135e-06,-0.39862,-8.8095e-06,-80.967,2.2986
21522,23.818,5,0.1,1.1643e-05,116.35,6.9246e-06,38.777,1.745e-06,-0.14069,-1.0487e-05,-92.046,2.2854
21523,23.726,5.0909,0.1,1.2167e-05,121.59,8.445e-06,57.093,8.2421e-07,-0.16629,-1.0141e-05,-82.556,2.2719
21524,23.909,5.0909,0.1,1.0463e-05,104.55,5.2416e-06,21.873,2.2749e-06,-0.41798,-9.9178e-06,-92.029,2.2987
21525,23.818,4.8182,0.1,1.2444e-05,124.36,7.2011e-06,38.78,2.0183e-06,-0.16206,-1.1321e-05,-100.39,2.2855
21526,23.726,4.9091,0.1,1.3003e-05,129.94,8.7584e-06,57.271,1.1115e-06,-0.18477,-1.104e-05,-91.489,2.272
21527,23.909,4.9091,0.1,1.1371e-05,113.63,5.5469e-06,21.878,2.5785e-06,-0.42596,-1.084e-05,-101.25,2.2988
21528,23.818,4.6364,0.1,1.3115e-05,131.06,7.4283e-06,38.741,2.2486e-06,-0.17766,-1.2018e-05,-107.37,2.2855
21529,23.726,4.7273,0.1,1.3705e-05,136.96,9.0144e-06,57.35,1.3552e-06,-0.19815,-1.1793e-05,-98.989,2.2721
21530,23.909,4.7273,0.1,1.2131e-05,121.22,5.7995e-06,21.853,2.8335e-06,-0.43214,-1.1612e-05,-108.97,2.2989
21531,23.818,4.4545,0.1,1.3675e-05,136.65,7.6151e-06,38.681,2.4418e-06,-0.189,-1.2599e-05,-113.2,2.2856
21532,23.726,4.5455,0.1,1.4293e-05,142.84,9.224e-06,57.368,1.5611e-06,-0.20747,-1.2422e-05,-105.27,2.2722
21533,23.909,4.5455,0.1,1.2766e-05,127.57,6.0087e-06,21.814,3.0474e-06,-0.4361,-1.2256e-05,-115.42,2.299
21534,23.818,4.2727,0.1,1.4139e-05,141.29,7.7681e-06,38.613,2.6028e-06,-0.19743,-1.308e-05,-118.03,2.2857
21535,23.726,4.3636,0.1,1.4784e-05,147.73,9.395e-06,57.349,1.7338e-06,-0.21426,-1.2944e-05,-110.5,2.2722
21536,23.909,4.3636,0.1,1.3294e-05,132.85,6.1816e-06,21.77,3.2259e-06,-0.43893,-1.2791e-05,-120.79,2.2991
21537,23.818,4.0909,0.1,1.4519e-05,145.09,7.8922e-06,38.544,2.7352e-06,-0.20369,-1.3473e-05,-121.99,2.2858
21538,23.726,4.1818,0.1,1.5188e-05,151.77,9.5337e-06,57.309,1.8771e-06,-0.21921,-1.3375e-05,-114.82,2.2723
21539,23.909,4.1818,0.1,1.373e-05,137.2,6.3234e-06,21.724,3.3734e-06,-0.44093,-1.3233e-05,-125.21,2.2991
21540,23.818,3.9091,0.1,1.4826e-05,148.16,7.9913e-06,38.479,2.8424e-06,-0.20834,-1.3791e-05,-125.18,2.2858
21541,23.726,4,0.1,1.5516e-05,155.05,9.6448e-06,57.259,1.9944e-06,-0.22285,-1.3724e-05,-118.33,2.2724
21542,23.909,4,0.1,1.4084e-05,140.75,6.4381e-06,21.681,3.4937e-06,-0.44237,-1.3592e-05,-128.82,2.2992
21543,23.818,3.7273,0.1,1.5066e-05,150.56,8.0685e-06,38.422,2.9267e-06,-0.21173,-1.404e-05,-127.69,2.2858
21544,23.726,3.8182,0.1,1.5778e-05,157.67,9.7321e-06,57.208,2.0882e-06,-0.22549,-1.4003e-05,-121.12,2.2724
21545,23.909,3.8182,0.1,1.4367e-05,143.57,6.5291e-06,21.643,3.5897e-06,-0.4434,-1.3878e-05,-131.69,2.2992
21546,23.818,3.5455,0.1,1.5247e-05,152.37,8.1262e-06,38.375,2.9902e-06,-0.21413,-1.4227e-05,-129.58,2.2859
21547,23.726,3.6364,0.1,1.5979e-05,159.68,9.7985e-06,57.161,2.1607e-06,-0.22738,-1.4216e-05,-123.28,2.2725
21548,23.909,3.6364,0.1,1.4584e-05,145.74,6.599e-06,21.61,3.6637e-06,-0.44412,-1.4098e-05,-133.9,2.2993
21549,23.818,3.3636,0.1,1.5373e-05,153.62,8.1661e-06,38.341,3.0346e-06,-0.21573,-1.4357e-05,-130.89,2.2859
21550,23.726,3.4545,0.1,1.6125e-05,161.14,9.8464e-06,57.122,2.2136e-06,-0.22868,-1.4372e-05,-124.85,2.2725
21551,23.909,3.4545,0.1,1.4742e-05,147.32,6.6497e-06,21.585,3.7177e-06,-0.44462,-1.4259e-05,-135.51,2.2993
21552,23.818,3.1818,0.1,1.5447e-05,154.36,8.1896e-06,38.32,3.0607e-06,-0.21665,-1.4433e-05,-131.66,2.2859
21553,23.726,3.2727,0.1,1.622e-05,162.09,9.8774e-06,57.094,2.2481e-06,-0.22948,-1.4473e-05,-125.87,2.2725
21554,23.909,3.2727,0.1,1.4846e-05,148.35,6.6827e-06,21.569,3.7529e-06,-0.44492,-1.4363e-05,-136.56,2.2993
21555,23.818,3,0.1,1.5472e-05,154.61,8.1973e-06,38.313,3.0694e-06,-0.21694,-1.4459e-05,-131.92,2.2859
21556,23.726,3.0909,0.1,1.6267e-05,162.56,9.8927e-06,57.08,2.2652e-06,-0.22987,-1.4523e-05,-126.37,2.2725
21557,23.909,3.0909,0.1,1.4897e-05,148.86,6.699e-06,21.56,3.7703e-06,-0.44507,-1.4415e-05,-137.08,2.2993
21558,23.818,2.8182,0.1,1.5447e-05,154.36,8.1896e-06,38.32,3.0607e-06,-0.21665,-1.4433e-05,-131.66,2.2859
21559,23.726,2.9091,0.1,1.6267e-05,162.56,9.8927e-06,57.08,2.2652e-06,-0.22987,-1.4523e-05,-126.37,2.2725
21560,23.909,2.9091,0.1,1.4897e-05,148.86,6.699e-06,21.56,3.7703e-06,-0.44507,-1.4415e-05,-137.08,2.2993
21561,23.818,2.6364,0.1,1.5373e-05,153.62,8.1661e-06,38.341,3.0346e-06,-0.21573,-1.4357e-05,-130.89,2.2859
21562,23.726,2.7273,0.1,1.622e-05,162.09,9.8774e-06,57.094,2.2481e-06,-0.22948,-1.4473e-05,-125.87,2.2725
21563,23.909,2.7273,0.1,1.4846e-05,148.35,6.6827e-06,21.569,3.7529e-06,-0.44492,-1.4363e-05,-136.56,2.2993
21564,23.818,2.4545,0.1,1.5247e-05,152.37,8.1262e-06,38.375,2.9902e-06,-0.21413,-1.4227e-05,-129.58,2.2859
21565,23.726,2.5455,0.1,1.6125e-05,161.14,9.8464e-06,57.122,2.2136e-06,-0.22868,-1.4372e-05,-124.85,2.2725
21566,23.909,2.5455,0.1,1.4742e-05,147.32,6.6497e-06,21.585,3.7177e-06,-0.44462,-1.4259e-05,-135.51,2.2993
21567,23.818,2.2727,0.1,1.5066e-05,150.56,8.0685e-06,38.422,2.9267e-06,-0.21173,-1.404e-05,-127.69,2.2858
21568,23.726,2.3636,0.1,1.5979e-05,159.68,9.7985e-06,57.161,2.1607e-06,-0.22738,-1.4216e-05,-123.28,2.2725
21569,23.909,2.3636,0.1,1.4584e-05,145.74,6.599e-06,21.61,3.6637e-06,-0.44412,-1.4098e-05,-133.9,2.2993
21570,23.818,2.0909,0.1,1.4826e-05,148.16,7.9913e-06,38.479,2.8424e-06,-0.20834,-1.3791e-05,-125.18,2.2858
21571,23.726,2.1818,0.1,1.5778e-05,157.67,9.7321e-06,57.208,2.0882e-06,-0.22549,-1.4003e-05,-121.12,2.2724
21572,23.909,2.1818,0.1,1.4367e-05,143.57,6.5291e-06,21.643,3.5897e-06,-0.4434,-1.3878e-05,-131.69,2.2992
21573,23.818,1.9091,0.1,1.4519e-05,145.09,7.8922e-06,38.544,2.7352e-06,-0.20369,-1.3473e-05,-121.99,2.2858
21574,23.726,2,0.1,1.5516e-05,155.05,9.6448e-06,57.259,1.9944e-06,-0.22285,-1.3724e-05,-118.33,2.2724
21575,23.909,2,0.1,1.4084e-05,140.75,6.4381e-06,21.681,3.4937e-06,-0.44237,-1.3592e-05,-128.82,2.2992
21576,23.818,1.7273,0.1,1.4139e-05,141.29,7.7681e-06,38.613,2.6028e-06,-0.19743,-1.308e-05,-118.03,2.2857
21577,23.726,1.8182,0.1,1.5188e-05,151.77,9.5337e-06,57.309,1.8771e-06,-0.21921,-1.3375e-05,-114.82,2.2723
21578,23.909,1.8182,0.1,1.373e-05,137.2,6.3234e-06,21.724,3.3734e-06,-0.44093,-1.3233e-05,-125.21,2.2991
21579,23.818,1.5455,0.1,1.3675e-05,136.65,7.6151e-06,38.681,2.4418e-06,-0.189,-1.2599e-05,-113.2,2.2856
21580,23.726,1.6364,0.1,1.4784e-05,147.73,9.395e-06,57.349,1.7338e-06,-0.21426,-1.2944e-05,-110.5,2.2722
21581,23.909,1.6364,0.1,1.3294e-05,132.85,6.1816e-06,21.77,3.2259e-06,-0.43893,-1.2791e-05,-120.79,2.2991
21582,23.818,1.3636,0.1,1.3115e-05,131.06,7.4283e-06,38.741,2.2486e-06,-0.17766,-1.2018e-05,-107.37,2.2855
21583,23.726,1.4545,0.1,1.4293e-05,142.84,9.224e-06,57.368,1.5611e-06,-0.20747,-1.2422e-05,-105.27,2.2722
21584,23.909,1.4545,0.1,1.2766e-05,127.57,6.0087e-06,21.814,3.0474e-06,-0.4361,-1.2256e-05,-115.42,2.299
21585,23.818,1.1818,0.1,1.2444e-05,124.36,7.2011e-06,38.78,2.0183e-06,-0.16206,-1.1321e-05,-100.39,2.2855
21586,23.726,1.2727,0.1,1.3705e-05,136.96,9.0144e-06,57.35,1.3552e-06,-0.19815,-1.1793e-05,-98.989,2.2721
21587,23.909,1.2727,0.1,1.2131e-05,121.22,5.7995e-06,21.853,2.8335e-06,-0.43214,-1.1612e-05,-108.97,2.2989
21588,23.818,1,0.1,1.1643e-05,116.35,6.9246e-06,38.777,1.745e-06,-0.14069,-1.0487e-05,-92.046,2.2854
21589,23.726,1.0909,0.1,1.3003e-05,129.94,8.7584e-06,57.271,1.1115e-06,-0.18477,-1.104e-05,-91.489,2.272
21590,23.909,1.0909,0.1,1.1371e-05,113.63,5.5469e-06,21.878,2.5785e-06,-0.42596,-1.084e-05,-101.25,2.2988
21591,23.818,0.81818,0.1,1.0686e-05,106.79,6.5861e-06,38.697,1.4215e-06,-0.10745,-9.487e-06,-82.07,2.2853
21592,23.726,0.90909,0.1,1.2167e-05,121.59,8.445e-06,57.093,8.2421e-07,-0.16629,-1.0141e-05,-82.556,2.2719
21593,23.909,0.90909,0.1,1.0463e-05,104.55,5.2417e-06,21.873,2.2749e-06,-0.41798,-9.9178e-06,-92.029,2.2987
21594,23.818,0.63636,0.1,9.5375e-06,95.309,6.1655e-06,38.467,1.0374e-06,-0.064308,-8.2806e-06,-70.076,2.2852
21595,23.726,0.72727,0.1,1.1176e-05,111.68,8.0588e-06,56.758,4.8716e-07,-0.13308,-9.0662e-06,-71.913,2.2718
21596,23.909,0.72727,0.1,9.3736e-06,93.671,4.8698e-06,21.814,1.9135e-06,-0.39862,-8.8095e-06,-80.967,2.2986
21597,23.818,0.45455,0.1,8.1463e-06,81.407,5.6302e-06,37.981,5.841e-07,0.066487,-6.807e-06,-55.467,2.285
21598,23.726,0.54545,0.1,9.9995e-06,99.926,7.5784e-06,56.159,9.1166e-08,-0.096997,-7.7768e-06,-59.214,2.2717
21599,23.909,0.54545,0.1,8.0545e-06,80.489,4.4093e-06,21.636,1.4781e-06,-0.38853,-7.4636e-06,-67.573,2.2985
21600,23.818,0.27273,0.1,6.4671e-06,64.626,4.9373e-06,37.033,4.8001e-08,0.29649,-4.9941e-06,-37.588,2.2849
21601,23.726,0.36364,0.1,8.6205e-06,86.146,6.9794e-06,55.249,-3.6196e-07,0.088568,-6.2324e-06,-44.019,2.2716
21602,23.909,0.36364,0.1,6.431e-06,64.266,3.8196e-06,21.273,9.5927e-07,-0.21865,-5.7972e-06,-50.984,2.2984
21603,23.726,0.18182,0.1,7.2103e-06,72.053,6.3537e-06,54.647,-8.8353e-07,0.26919,-4.5229e-06,-27.076,2.2715
21604,23.909,0.18182,0.1,4.3787e-06,43.757,3.0348e-06,20.504,3.0267e-07,-0.02408,-3.6526e-06,-29.742,2.2983
21605,23.818,0.090909,0.1,4.6253e-06,46.221,4.0707e-06,34.898,-5.7338e-07,0.0037624,-2.9061e-06,-17.523,2.2848
21606,23.635,5.7273,0.1,9.3421e-06,93.357,8.3331e-06,72.392,-1.301e-06,0.0050133,-5.691e-06,-32.98,2.2581
21607,23.544,5.8182,0.1,1.0636e-05,106.29,9.97e-06,91.244,-2.1611e-06,0.09517,-5.5692e-06,-25.512,2.2446
21608,23.635,5.9091,0.1,7.9958e-06,79.903,7.5639e-06,69.862,-1.7581e-06,-0.18064,-4.0192e-06,-17.169,2.258
21609,23.635,5.5455,0.1,1.0569e-05,105.62,8.9215e-06,73.381,-8.6431e-07,-0.14558,-7.1867e-06,-47.649,2.2582
21610,23.544,5.6364,0.1,1.1517e-05,115.09,1.0379e-05,91.098,-1.7453e-06,0.00038598,-6.8354e-06,-38.244,2.2448
21611,23.635,5.3636,0.1,1.1761e-05,117.53,9.4744e-06,74.47,-4.6843e-07,-0.23614,-8.5557e-06,-61.001,2.2583
21612,23.544,5.4545,0.1,1.2624e-05,126.15,1.0937e-05,92.269,-1.3611e-06,-0.13189,-8.1914e-06,-51.452,2.2449
21613,23.635,5.1818,0.1,1.279e-05,127.81,9.9237e-06,75.198,-1.1985e-07,-0.26468,-9.7166e-06,-72.371,2.2584
21614,23.544,5.2727,0.1,1.3635e-05,136.26,1.142e-05,93.249,-1.0117e-06,-0.16059,-9.3885e-06,-63.101,2.245
21615,23.635,5,0.1,1.3663e-05,136.54,1.0286e-05,75.645,1.8061e-07,-0.28578,-1.0692e-05,-81.98,2.2585
21616,23.544,5.0909,0.1,1.4515e-05,145.05,1.182e-05,93.929,-7.0578e-07,-0.18511,-1.0412e-05,-73.117,2.2451
21617,23.635,4.8182,0.1,1.4401e-05,143.91,1.058e-05,75.907,4.3805e-07,-0.29855,-1.1511e-05,-90.077,2.2586
21618,23.544,4.9091,0.1,1.5268e-05,152.57,1.2147e-05,94.376,-4.405e-07,-0.19841,-1.1279e-05,-81.638,2.2452
21619,23.635,4.6364,0.1,1.502e-05,150.1,1.0819e-05,76.048,6.5714e-07,-0.30751,-1.2196e-05,-96.88,2.2587
21620,23.544,4.7273,0.1,1.5906e-05,158.95,1.2413e-05,94.656,-2.1272e-07,-0.20785,-1.201e-05,-88.845,2.2453
21621,23.635,4.4545,0.1,1.5538e-05,155.28,1.1014e-05,76.111,8.4226e-07,-0.31375,-1.2767e-05,-102.57,2.2588
21622,23.544,4.5455,0.1,1.6442e-05,164.3,1.2629e-05,94.819,-1.8703e-08,-0.21428,-1.2621e-05,-94.902,2.2454
21623,23.635,4.2727,0.1,1.5968e-05,159.57,1.1171e-05,76.122,9.9719e-07,-0.31823,-1.3239e-05,-107.28,2.2589
21624,23.544,4.3636,0.1,1.6888e-05,168.77,1.2805e-05,94.902,1.4499e-07,-0.21888,-1.3129e-05,-99.956,2.2454
21625,23.635,4.0909,0.1,1.6319e-05,163.08,1.1297e-05,76.103,1.1252e-06,-0.32145,-1.3625e-05,-111.15,2.2589
21626,23.544,4.1818,0.1,1.7257e-05,172.45,1.2946e-05,94.931,2.8147e-07,-0.22219,-1.3548e-05,-104.13,2.2455
21627,23.635,3.9091,0.1,1.6602e-05,165.9,1.1396e-05,76.068,1.229e-06,-0.32376,-1.3936e-05,-114.27,2.259
21628,23.544,4,0.1,1.7555e-05,175.43,1.3057e-05,94.927,3.9345e-07,-0.22459,-1.3887e-05,-107.52,2.2456
21629,23.635,3.7273,0.1,1.6823e-05,168.11,1.1473e-05,76.028,1.3109e-06,-0.32541,-1.4179e-05,-116.71,2.259
21630,23.544,3.8182,0.1,1.7792e-05,177.8,1.3144e-05,94.904,4.8323e-07,-0.22632,-1.4156e-05,-110.22,2.2456
21631,23.635,3.5455,0.1,1.6989e-05,169.77,1.153e-05,75.988,1.3727e-06,-0.32655,-1.4361e-05,-118.55,2.2591
21632,23.544,3.6364,0.1,1.7974e-05,179.62,1.321e-05,94.873,5.5275e-07,-0.22755,-1.4363e-05,-112.3,2.2456
21633,23.635,3.3636,0.1,1.7104e-05,170.92,1.1569e-05,75.957,1.4159e-06,-0.32729,-1.4488e-05,-119.82,2.2591
21634,23.544,3.4545,0.1,1.8106e-05,180.94,1.3257e-05,94.844,6.0354e-07,-0.22839,-1.4514e-05,-113.81,2.2457
21635,23.635,3.1818,0.1,1.7172e-05,171.6,1.1591e-05,75.936,1.4413e-06,-0.32771,-1.4563e-05,-120.58,2.2591
21636,23.544,3.2727,0.1,1.8192e-05,181.8,1.3287e-05,94.821,6.3676e-07,-0.22891,-1.4611e-05,-114.8,2.2457
21637,23.635,3,0.1,1.7194e-05,171.82,1.1599e-05,75.929,1.4498e-06,-0.32784,-1.4587e-05,-120.82,2.2591
21638,23.544,3.0909,0.1,1.8234e-05,182.22,1.3302e-05,94.808,6.5318e-07,-0.22916,-1.4659e-05,-115.28,2.2457
21639,23.635,2.8182,0.1,1.7172e-05,171.6,1.1591e-05,75.936,1.4413e-06,-0.32771,-1.4563e-05,-120.58,2.2591
21640,23.544,2.9091,0.1,1.8234e-05,182.22,1.3302e-05,94.808,6.5318e-07,-0.22916,-1.4659e-05,-115.28,2.2457
21641,23.635,2.6364,0.1,1.7104e-05,170.92,1.1569e-05,75.957,1.4159e-06,-0.32729,-1.4488e-05,-119.82,2.2591
21642,23.544,2.7273,0.1,1.8192e-05,181.8,1.3287e-05,94.821,6.3676e-07,-0.22891,-1.4611e-05,-114.8,2.2457
21643,23.635,2.4545,0.1,1.6989e-05,169.77,1.153e-05,75.988,1.3727e-06,-0.32655,-1.4361e-05,-118.55,2.2591
21644,23.544,2.5455,0.1,1.8106e-05,180.94,1.3257e-05,94.844,6.0354e-07,-0.22839,-1.4514e-05,-113.81,2.2457
21645,23.635,2.2727,0.1,1.6823e-05,168.11,1.1473e-05,76.028,1.3109e-06,-0.32541,-1.4179e-05,-116.71,2.259
21646,23.544,2.3636,0.1,1.7974e-05,179.62,1.321e-05,94.873,5.5275e-07,-0.22755,-1.4363e-05,-112.3,2.2456
21647,23.635,2.0909,0.1,1.6602e-05,165.9,1.1396e-05,76.068,1.229e-06,-0.32376,-1.3936e-05,-114.27,2.259
21648,23.544,2.1818,0.1,1.7792e-05,177.8,1.3144e-05,94.904,4.8323e-07,-0.22632,-1.4156e-05,-110.22,2.2456
21649,23.635,1.9091,0.1,1.6319e-05,163.08,1.1297e-05,76.103,1.1252e-06,-0.32145,-1.3625e-05,-111.15,2.2589
21650,23.544,2,0.1,1.7555e-05,175.43,1.3057e-05,94.927,3.9345e-07,-0.22459,-1.3887e-05,-107.52,2.2456
21651,23.635,1.7273,0.1,1.5968e-05,159.57,1.1171e-05,76.122,9.9719e-07,-0.31823,-1.3239e-05,-107.28,2.2589
21652,23.544,1.8182,0.1,1.7257e-05,172.45,1.2946e-05,94.931,2.8147e-07,-0.22219,-1.3548e-05,-104.13,2.2455
21653,23.635,1.5455,0.1,1.5538e-05,155.28,1.1014e-05,76.111,8.4225e-07,-0.31375,-1.2767e-05,-102.57,2.2588
21654,23.544,1.6364,0.1,1.6888e-05,168.77,1.2805e-05,94.902,1.4499e-07,-0.21888,-1.3129e-05,-99.956,2.2454
21655,23.635,1.3636,0.1,1.502e-05,150.1,1.0819e-05,76.048,6.5714e-07,-0.3075,-1.2196e-05,-96.88,2.2587
21656,23.544,1.4545,0.1,1.6442e-05,164.3,1.2629e-05,94.819,-1.8704e-08,-0.21428,-1.2621e-05,-94.902,2.2454
21657,23.635,1.1818,0.1,1.4401e-05,143.91,1.058e-05,75.907,4.3805e-07,-0.29855,-1.1511e-05,-90.077,2.2586
21658,23.544,1.2727,0.1,1.5906e-05,158.95,1.2413e-05,94.656,-2.1272e-07,-0.20785,-1.201e-05,-88.845,2.2453
21659,23.635,1,0.1,1.3663e-05,136.54,1.0286e-05,75.645,1.8061e-07,-0.28578,-1.0692e-05,-81.98,2.2585
21660,23.544,1.0909,0.1,1.5268e-05,152.57,1.2147e-05,94.376,-4.405e-07,-0.19841,-1.1279e-05,-81.638,2.2452
21661,23.635,0.81818,0.1,1.279e-05,127.81,9.9237e-06,75.198,-1.1985e-07,-0.26468,-9.7166e-06,-72.371,2.2584
21662,23.544,0.90909,0.1,1.4515e-05,145.05,1.182e-05,93.929,-7.0578e-07,-0.18511,-1.0412e-05,-73.117,2.2451
21663,23.635,0.63636,0.1,1.1761e-05,117.53,9.4744e-06,74.47,-4.6843e-07,-0.23615,-8.5557e-06,-61.001,2.2583
21664,23.544,0.72727,0.1,1.3635e-05,136.26,1.142e-05,93.249,-1.0117e-06,-0.16059,-9.3885e-06,-63.101,2.245
21665,23.635,0.45455,0.1,1.0569e-05,105.62,8.9215e-06,73.381,-8.6431e-07,-0.14558,-7.1867e-06,-47.649,2.2582
21666,23.544,0.54545,0.1,1.2624e-05,126.15,1.0937e-05,92.269,-1.3611e-06,-0.13189,-8.1914e-06,-51.452,2.2449
21667,23.635,0.27273,0.1,9.3421e-06,93.357,8.3331e-06,72.392,-1.301e-06,0.0050146,-5.691e-06,-32.98,2.2581
21668,23.544,0.36364,0.1,1.1517e-05,115.09,1.0379e-05,91.098,-1.7453e-06,0.00038924,-6.8354e-06,-38.244,2.2448
21669,23.544,0.18182,0.1,1.0636e-05,106.29,9.97e-06,91.244,-2.1611e-06,0.095167,-5.5692e-06,-25.512,2.2446
21670,23.635,0.090909,0.1,7.9958e-06,79.903,7.5639e-06,69.862,-1.7581e-06,-0.18064,-4.0192e-06,-17.169,2.258
21671,23.453,5.7273,0.1,1.273e-05,127.21,1.1943e-05,109.4,-2.6065e-06,0.08306,-6.6399e-06,-30.222,2.2313
21672,23.361,5.8182,0.1,1.4295e-05,142.85,1.3715e-05,128.96,-3.4359e-06,0.090795,-6.7271e-06,-24.639,2.2178
21673,23.453,5.9091,0.1,1.1598e-05,115.9,1.1221e-05,106.59,-2.974e-06,-0.069245,-5.1926e-06,-16.739,2.2312
21674,23.453,5.5455,0.1,1.3583e-05,135.73,1.2376e-05,109.85,-2.245e-06,-0.0071645,-7.8192e-06,-41.89,2.2314
21675,23.361,5.6364,0.1,1.4822e-05,148.12,1.394e-05,128.03,-3.0926e-06,0.049502,-7.6545e-06,-34.227,2.2179
21676,23.453,5.3636,0.1,1.4543e-05,145.33,1.2876e-05,111,-1.9066e-06,-0.073748,-9.015e-06,-53.483,2.2315
21677,23.361,5.4545,0.1,1.5675e-05,156.64,1.4406e-05,128.99,-2.7693e-06,-0.052486,-8.7903e-06,-45.291,2.2181
21678,23.453,5.1818,0.1,1.5423e-05,154.13,1.3314e-05,111.96,-1.5997e-06,-0.0973,-1.0079e-05,-63.81,2.2316
21679,23.361,5.2727,0.1,1.6513e-05,165.02,1.4851e-05,130.04,-2.4672e-06,-0.077141,-9.8522e-06,-55.566,2.2182
21680,23.453,5,0.1,1.6193e-05,161.81,1.3679e-05,112.65,-1.329e-06,-0.11382,-1.0997e-05,-72.752,2.2317
21681,23.361,5.0909,0.1,1.7271e-05,172.59,1.5237e-05,130.89,-2.1964e-06,-0.097644,-1.0791e-05,-64.676,2.2183
21682,23.453,4.8182,0.1,1.6851e-05,168.4,1.3979e-05,113.13,-1.0934e-06,-0.12387,-1.1776e-05,-80.39,2.2318
21683,23.361,4.9091,0.1,1.7933e-05,179.2,1.5561e-05,131.52,-1.9575e-06,-0.10896,-1.1601e-05,-72.57,2.2184
21684,23.453,4.6364,0.1,1.7409e-05,173.97,1.4224e-05,113.43,-8.9073e-07,-0.13091,-1.2433e-05,-86.856,2.2319
21685,23.361,4.7273,0.1,1.85e-05,184.87,1.5828e-05,131.96,-1.75e-06,-0.11692,-1.2291e-05,-79.319,2.2185
21686,23.453,4.4545,0.1,1.7877e-05,178.64,1.4422e-05,113.62,-7.1815e-07,-0.13583,-1.2982e-05,-92.283,2.232
21687,23.361,4.5455,0.1,1.8979e-05,189.66,1.6046e-05,132.25,-1.5717e-06,-0.12232,-1.2872e-05,-85.028,2.2186
21688,23.453,4.2727,0.1,1.8264e-05,182.51,1.4581e-05,113.72,-5.7293e-07,-0.13939,-1.3437e-05,-96.794,2.2321
21689,23.361,4.3636,0.1,1.9379e-05,193.66,1.6223e-05,132.44,-1.4204e-06,-0.12619,-1.3356e-05,-89.807,2.2186
21690,23.453,4.0909,0.1,1.8581e-05,185.68,1.4708e-05,113.77,-4.5249e-07,-0.14198,-1.3808e-05,-100.49,2.2321
21691,23.361,4.1818,0.1,1.9709e-05,196.95,1.6364e-05,132.54,-1.2937e-06,-0.12898,-1.3755e-05,-93.757,2.2187
21692,23.453,3.9091,0.1,1.8835e-05,188.22,1.4807e-05,113.77,-3.5456e-07,-0.14388,-1.4107e-05,-103.47,2.2322
21693,23.361,4,0.1,1.9975e-05,199.62,1.6475e-05,132.59,-1.1894e-06,-0.13101,-1.4078e-05,-96.971,2.2188
21694,23.453,3.7273,0.1,1.9033e-05,190.2,1.4883e-05,113.76,-2.7715e-07,-0.14525,-1.434e-05,-105.81,2.2322
21695,23.361,3.8182,0.1,2.0187e-05,201.73,1.6561e-05,132.61,-1.1057e-06,-0.13248,-1.4334e-05,-99.527,2.2188
21696,23.453,3.5455,0.1,1.9182e-05,191.68,1.4939e-05,113.74,-2.1866e-07,-0.14621,-1.4515e-05,-107.56,2.2323
21697,23.361,3.6364,0.1,2.0348e-05,203.34,1.6626e-05,132.61,-1.0408e-06,-0.13353,-1.4531e-05,-101.49,2.2188
21698,23.453,3.3636,0.1,1.9284e-05,192.71,1.4977e-05,113.72,-1.7779e-07,-0.14686,-1.4636e-05,-108.78,2.2323
21699,23.361,3.4545,0.1,2.0465e-05,204.51,1.6672e-05,132.59,-9.9333e-07,-0.13425,-1.4673e-05,-102.92,2.2189
21700,23.453,3.1818,0.1,1.9345e-05,193.32,1.4999e-05,113.71,-1.5364e-07,-0.14722,-1.4708e-05,-109.5,2.2323
21701,23.361,3.2727,0.1,2.0541e-05,205.27,1.6701e-05,132.58,-9.6227e-07,-0.1347,-1.4766e-05,-103.85,2.2189
21702,23.453,3,0.1,1.9365e-05,193.52,1.5007e-05,113.7,-1.4565e-07,-0.14734,-1.4731e-05,-109.74,2.2323
21703,23.361,3.0909,0.1,2.0578e-05,205.64,1.6715e-05,132.57,-9.4692e-07,-0.13492,-1.4811e-05,-104.31,2.2189
21704,23.453,2.8182,0.1,1.9345e-05,193.32,1.4999e-05,113.71,-1.5364e-07,-0.14722,-1.4708e-05,-109.5,2.2323
21705,23.361,2.9091,0.1,2.0578e-05,205.64,1.6715e-05,132.57,-9.4692e-07,-0.13492,-1.4811e-05,-104.31,2.2189
21706,23.453,2.6364,0.1,1.9284e-05,192.71,1.4977e-05,113.72,-1.7779e-07,-0.14685,-1.4636e-05,-108.78,2.2323
21707,23.361,2.7273,0.1,2.0541e-05,205.27,1.6701e-05,132.58,-9.6227e-07,-0.1347,-1.4766e-05,-103.85,2.2189
21708,23.453,2.4545,0.1,1.9182e-05,191.68,1.4939e-05,113.74,-2.1866e-07,-0.14621,-1.4515e-05,-107.56,2.2323
21709,23.361,2.5455,0.1,2.0465e-05,204.51,1.6672e-05,132.59,-9.9333e-07,-0.13425,-1.4673e-05,-102.92,2.2189
21710,23.453,2.2727,0.1,1.9033e-05,190.2,1.4883e-05,113.76,-2.7715e-07,-0.14525,-1.434e-05,-105.81,2.2322
21711,23.361,2.3636,0.1,2.0348e-05,203.34,1.6626e-05,132.61,-1.0408e-06,-0.13353,-1.4531e-05,-101.49,2.2188
21712,23.453,2.0909,0.1,1.8835e-05,188.22,1.4807e-05,113.77,-3.5456e-07,-0.14388,-1.4107e-05,-103.47,2.2322
21713,23.361,2.1818,0.1,2.0187e-05,201.73,1.6561e-05,132.61,-1.1057e-06,-0.13248,-1.4334e-05,-99.527,2.2188
21714,23.453,1.9091,0.1,1.8581e-05,185.68,1.4708e-05,113.77,-4.5249e-07,-0.14198,-1.3808e-05,-100.49,2.2321
21715,23.361,2,0.1,1.9975e-05,199.62,1.6475e-05,132.59,-1.1894e-06,-0.13101,-1.4078e-05,-96.971,2.2188
21716,23.453,1.7273,0.1,1.8264e-05,182.51,1.4581e-05,113.72,-5.7293e-07,-0.13939,-1.3437e-05,-96.794,2.2321
21717,23.361,1.8182,0.1,1.9709e-05,196.95,1.6364e-05,132.54,-1.2937e-06,-0.12898,-1.3755e-05,-93.757,2.2187
21718,23.453,1.5455,0.1,1.7877e-05,178.64,1.4422e-05,113.62,-7.1815e-07,-0.13583,-1.2982e-05,-92.283,2.232
21719,23.361,1.6364,0.1,1.9379e-05,193.66,1.6223e-05,132.44,-1.4204e-06,-0.1262,-1.3356e-05,-89.807,2.2186
21720,23.453,1.3636,0.1,1.7409e-05,173.97,1.4224e-05,113.43,-8.9073e-07,-0.13091,-1.2433e-05,-86.856,2.2319
21721,23.361,1.4545,0.1,1.8979e-05,189.66,1.6046e-05,132.25,-1.5717e-06,-0.12233,-1.2872e-05,-85.028,2.2186
21722,23.453,1.1818,0.1,1.6851e-05,168.4,1.3979e-05,113.13,-1.0934e-06,-0.12387,-1.1776e-05,-80.39,2.2318
21723,23.361,1.2727,0.1,1.85e-05,184.87,1.5828e-05,131.96,-1.75e-06,-0.11692,-1.2291e-05,-79.319,2.2185
21724,23.453,1,0.1,1.6193e-05,161.81,1.3679e-05,112.65,-1.329e-06,-0.11382,-1.0997e-05,-72.752,2.2317
21725,23.361,1.0909,0.1,1.7933e-05,179.2,1.5561e-05,131.52,-1.9575e-06,-0.10896,-1.1601e-05,-72.57,2.2184
21726,23.453,0.81818,0.1,1.5423e-05,154.13,1.3314e-05,111.96,-1.5997e-06,-0.097302,-1.0079e-05,-63.81,2.2316
21727,23.361,0.90909,0.1,1.7271e-05,172.59,1.5237e-05,130.89,-2.1964e-06,-0.097643,-1.0791e-05,-64.676,2.2183
21728,23.453,0.63636,0.1,1.4543e-05,145.33,1.2876e-05,111,-1.9066e-06,-0.07375,-9.015e-06,-53.483,2.2315
21729,23.361,0.72727,0.1,1.6513e-05,165.02,1.4851e-05,130.04,-2.4672e-06,-0.077144,-9.8522e-06,-55.566,2.2182
21730,23.453,0.45455,0.1,1.3583e-05,135.73,1.2376e-05,109.85,-2.2449e-06,-0.0071628,-7.8192e-06,-41.89,2.2314
21731,23.361,0.54545,0.1,1.5675e-05,156.64,1.4406e-05,128.99,-2.7693e-06,-0.052485,-8.7903e-06,-45.291,2.2181
21732,23.453,0.27273,0.1,1.273e-05,127.21,1.1943e-05,109.4,-2.6065e-06,0.08306,-6.6399e-06,-30.222,2.2313
21733,23.361,0.36364,0.1,1.4822e-05,148.12,1.394e-05,128.03,-3.0926e-06,0.049505,-7.6545e-06,-34.227,2.2179
21734,23.361,0.18182,0.1,1.4295e-05,142.85,1.3715e-05,128.96,-3.4359e-06,0.090791,-6.7271e-06,-24.639,2.2178
21735,23.453,0.090909,0.1,1.1598e-05,115.9,1.1221e-05,106.59,-2.974e-06,-0.069246,-5.1926e-06,-16.739,2.2312
21736,23.27,5.7273,0.1,1.6309e-05,162.98,1.5647e-05,147.09,-3.9212e-06,0.063024,-7.6771e-06,-28.157,2.2045
21737,23.179,5.8182,0.1,1.8029e-05,180.16,1.7505e-05,167.09,-4.7248e-06,0.066241,-7.9035e-06,-23.817,2.191
21738,23.27,5.9091,0.1,1.5301e-05,152.9,1.4958e-05,144.08,-4.2249e-06,-0.053124,-6.3872e-06,-16.3,2.2044
21739,23.27,5.5455,0.1,1.69e-05,168.89,1.5948e-05,147.01,-3.6185e-06,-0.006804,-8.6026e-06,-37.456,2.2046
21740,23.179,5.6364,0.1,1.8327e-05,183.14,1.7598e-05,165.6,-4.4362e-06,0.047561,-8.5845e-06,-31.121,2.1911
21741,23.27,5.3636,0.1,1.7656e-05,176.44,1.637e-05,147.96,-3.3309e-06,-0.063943,-9.6159e-06,-47.287,2.2047
21742,23.179,5.4545,0.1,1.8976e-05,189.62,1.7967e-05,166.24,-4.1635e-06,-0.038534,-9.5187e-06,-40.276,2.1913
21743,23.27,5.1818,0.1,1.8388e-05,183.75,1.6768e-05,148.93,-3.0647e-06,-0.084219,-1.0558e-05,-56.383,2.2048
21744,23.179,5.2727,0.1,1.9653e-05,196.4,1.8352e-05,167.16,-3.9044e-06,-0.059592,-1.0433e-05,-49.111,2.1914
21745,23.27,5,0.1,1.9049e-05,190.36,1.7116e-05,149.73,-2.8257e-06,-0.099026,-1.1392e-05,-64.463,2.2049
21746,23.179,5.0909,0.1,2.0291e-05,202.77,1.8705e-05,168.03,-3.6686e-06,-0.077942,-1.1267e-05,-57.17,2.1915
21747,23.27,4.8182,0.1,1.9626e-05,196.12,1.7408e-05,150.34,-2.6149e-06,-0.10808,-1.2114e-05,-71.479,2.205
21748,23.179,4.9091,0.1,2.0862e-05,208.47,1.9011e-05,168.73,-3.4579e-06,-0.088265,-1.2002e-05,-64.289,2.1916
21749,23.27,4.6364,0.1,2.012e-05,201.06,1.765e-05,150.77,-2.4317e-06,-0.11435,-1.2728e-05,-77.477,2.2051
21750,23.179,4.7273,0.1,2.1358e-05,213.43,1.9269e-05,169.27,-3.2729e-06,-0.095485,-1.2637e-05,-70.452,2.1917
21751,23.27,4.4545,0.1,2.0535e-05,205.21,1.7847e-05,151.06,-2.2747e-06,-0.11869,-1.3244e-05,-82.541,2.2052
21752,23.179,4.5455,0.1,2.178e-05,217.65,1.9481e-05,169.66,-3.1129e-06,-0.10036,-1.3175e-05,-75.704,2.1918
21753,23.27,4.2727,0.1,2.088e-05,208.65,1.8005e-05,151.25,-2.1419e-06,-0.1218,-1.3673e-05,-86.762,2.2053
21754,23.179,4.3636,0.1,2.2133e-05,221.18,1.9654e-05,169.94,-2.9764e-06,-0.10382,-1.3626e-05,-80.119,2.1918
21755,23.27,4.0909,0.1,2.1161e-05,211.47,1.8131e-05,151.37,-2.0314e-06,-0.12404,-1.4023e-05,-90.228,2.2053
21756,23.179,4.1818,0.1,2.2425e-05,224.09,1.9793e-05,170.11,-2.8618e-06,-0.10629,-1.3997e-05,-83.774,2.1919
21757,23.27,3.9091,0.1,2.1387e-05,213.72,1.8229e-05,151.43,-1.9414e-06,-0.12566,-1.4305e-05,-93.019,2.2054
21758,23.179,4,0.1,2.266e-05,226.44,1.9902e-05,170.22,-2.7673e-06,-0.10807,-1.4298e-05,-86.748,2.192
21759,23.27,3.7273,0.1,2.1562e-05,215.47,1.8304e-05,151.45,-1.8702e-06,-0.12683,-1.4524e-05,-95.205,2.2054
21760,23.179,3.8182,0.1,2.2845e-05,228.3,1.9986e-05,170.28,-2.6914e-06,-0.10935,-1.4537e-05,-89.112,2.192
21761,23.27,3.5455,0.1,2.1693e-05,216.78,1.8359e-05,151.46,-1.8163e-06,-0.12764,-1.4688e-05,-96.844,2.2055
21762,23.179,3.6364,0.1,2.2987e-05,229.71,2.0049e-05,170.31,-2.6324e-06,-0.11025,-1.4719e-05,-90.927,2.1921
21763,23.27,3.3636,0.1,2.1783e-05,217.68,1.8396e-05,151.45,-1.7786e-06,-0.12818,-1.4802e-05,-97.982,2.2055
21764,23.179,3.4545,0.1,2.3089e-05,230.73,2.0093e-05,170.32,-2.5894e-06,-0.11087,-1.4851e-05,-92.242,2.1921
21765,23.27,3.1818,0.1,2.1836e-05,218.21,1.8417e-05,151.45,-1.7564e-06,-0.12848,-1.4869e-05,-98.651,2.2055
21766,23.179,3.2727,0.1,2.3155e-05,231.39,2.0122e-05,170.32,-2.5612e-06,-0.11126,-1.4937e-05,-93.097,2.1921
21767,23.27,3,0.1,2.1854e-05,218.39,1.8424e-05,151.45,-1.749e-06,-0.12858,-1.4891e-05,-98.872,2.2055
21768,23.179,3.0909,0.1,2.3187e-05,231.71,2.0135e-05,170.32,-2.5473e-06,-0.11144,-1.4979e-05,-93.519,2.1921
21769,23.27,2.8182,0.1,2.1836e-05,218.21,1.8417e-05,151.45,-1.7564e-06,-0.12848,-1.4869e-05,-98.651,2.2055
21770,23.179,2.9091,0.1,2.3187e-05,231.71,2.0135e-05,170.32,-2.5473e-06,-0.11144,-1.4979e-05,-93.519,2.1921
21771,23.27,2.6364,0.1,2.1783e-05,217.68,1.8396e-05,151.45,-1.7786e-06,-0.12818,-1.4802e-05,-97.982,2.2055
21772,23.179,2.7273,0.1,2.3155e-05,231.39,2.0122e-05,170.32,-2.5612e-06,-0.11126,-1.4937e-05,-93.097,2.1921
21773,23.27,2.4545,0.1,2.1693e-05,216.78,1.8359e-05,151.46,-1.8163e-06,-0.12764,-1.4688e-05,-96.844,2.2055
21774,23.179,2.5455,0.1,2.3089e-05,230.73,2.0093e-05,170.32,-2.5894e-06,-0.11087,-1.4851e-05,-92.242,2.1921
21775,23.27,2.2727,0.1,2.1562e-05,215.47,1.8304e-05,151.45,-1.8702e-06,-0.12683,-1.4524e-05,-95.205,2.2054
21776,23.179,2.3636,0.1,2.2987e-05,229.71,2.0049e-05,170.31,-2.6324e-06,-0.11025,-1.4719e-05,-90.927,2.1921
21777,23.27,2.0909,0.1,2.1387e-05,213.72,1.8229e-05,151.43,-1.9414e-06,-0.12566,-1.4305e-05,-93.019,2.2054
21778,23.179,2.1818,0.1,2.2845e-05,228.3,1.9986e-05,170.28,-2.6914e-06,-0.10935,-1.4537e-05,-89.112,2.192
21779,23.27,1.9091,0.1,2.1161e-05,211.47,1.8131e-05,151.37,-2.0314e-06,-0.12404,-1.4023e-05,-90.228,2.2053
21780,23.179,2,0.1,2.266e-05,226.44,1.9902e-05,170.22,-2.7673e-06,-0.10807,-1.4298e-05,-86.748,2.192
21781,23.27,1.7273,0.1,2.088e-05,208.65,1.8005e-05,151.25,-2.1419e-06,-0.1218,-1.3673e-05,-86.762,2.2053
21782,23.179,1.8182,0.1,2.2425e-05,224.09,1.9793e-05,170.11,-2.8618e-06,-0.10629,-1.3997e-05,-83.774,2.1919
21783,23.27,1.5455,0.1,2.0535e-05,205.21,1.7847e-05,151.06,-2.2747e-06,-0.11869,-1.3244e-05,-82.541,2.2052
21784,23.179,1.6364,0.1,2.2133e-05,221.18,1.9654e-05,169.94,-2.9764e-06,-0.10382,-1.3626e-05,-80.119,2.1918
21785,23.27,1.3636,0.1,2.012e-05,201.06,1.765e-05,150.77,-2.4317e-06,-0.11435,-1.2728e-05,-77.477,2.2051
21786,23.179,1.4545,0.1,2.178e-05,217.65,1.9481e-05,169.66,-3.1129e-06,-0.10036,-1.3175e-05,-75.704,2.1918
21787,23.27,1.1818,0.1,1.9626e-05,196.12,1.7408e-05,150.34,-2.6149e-06,-0.10808,-1.2114e-05,-71.479,2.205
21788,23.179,1.2727,0.1,2.1358e-05,213.43,1.9269e-05,169.27,-3.2729e-06,-0.095485,-1.2637e-05,-70.452,2.1917
21789,23.27,1,0.1,1.9049e-05,190.36,1.7116e-05,149.73,-2.8257e-06,-0.099025,-1.1392e-05,-64.463,2.2049
21790,23.179,1.0909,0.1,2.0862e-05,208.47,1.9011e-05,168.73,-3.4579e-06,-0.088264,-1.2002e-05,-64.289,2.1916
21791,23.27,0.81818,0.1,1.8388e-05,183.75,1.6768e-05,148.93,-3.0647e-06,-0.08422,-1.0558e-05,-56.383,2.2048
21792,23.179,0.90909,0.1,2.0291e-05,202.77,1.8705e-05,168.03,-3.6686e-06,-0.077942,-1.1267e-05,-57.17,2.1915
21793,23.27,0.63636,0.1,1.7656e-05,176.44,1.637e-05,147.96,-3.3309e-06,-0.063943,-9.6159e-06,-47.287,2.2047
21794,23.179,0.72727,0.1,1.9653e-05,196.4,1.8352e-05,167.16,-3.9044e-06,-0.059595,-1.0433e-05,-49.111,2.1914
21795,23.27,0.45455,0.1,1.69e-05,168.89,1.5948e-05,147.01,-3.6185e-06,-0.0068016,-8.6026e-06,-37.456,2.2046
21796,23.179,0.54545,0.1,1.8976e-05,189.62,1.7967e-05,166.24,-4.1635e-06,-0.038532,-9.5187e-06,-40.276,2.1913
21797,23.27,0.27273,0.1,1.6309e-05,162.98,1.5647e-05,147.09,-3.9212e-06,0.063023,-7.6771e-06,-28.157,2.2045
21798,23.179,0.36364,0.1,1.8327e-05,183.14,1.7598e-05,165.6,-4.4362e-06,0.047564,-8.5845e-06,-31.121,2.1911
21799,23.179,0.18182,0.1,1.8029e-05,180.16,1.7505e-05,167.09,-4.7248e-06,0.066238,-7.9035e-06,-23.817,2.191
21800,23.27,0.090909,0.1,1.5301e-05,152.9,1.4958e-05,144.08,-4.2249e-06,-0.053124,-6.3872e-06,-16.3,2.2044
21801,23.088,5.7273,0.1,1.9979e-05,199.65,1.94e-05,185.18,-5.2384e-06,0.060946,-8.7556e-06,-26.366,2.1777
21802,22.996,5.8182,0.1,2.18e-05,217.85,2.1319e-05,205.49,-6.0228e-06,0.052983,-9.0838e-06,-22.946,2.1642
21803,23.088,5.9091,0.1,1.9058e-05,190.45,1.874e-05,182.05,-5.4941e-06,-0.032185,-7.5897e-06,-15.777,2.1776
21804,23.088,5.5455,0.1,2.0381e-05,203.67,1.9595e-05,184.67,-4.9821e-06,0.0090201,-9.4786e-06,-33.776,2.1778
21805,22.996,5.6364,0.1,2.1936e-05,219.21,2.1313e-05,203.59,-5.7775e-06,0.048906,-9.5757e-06,-28.489,2.1644
21806,23.088,5.3636,0.1,2.097e-05,209.55,1.9936e-05,185.35,-4.7376e-06,-0.039087,-1.0323e-05,-42.005,2.1779
21807,22.996,5.4545,0.1,2.2426e-05,224.1,2.1595e-05,203.91,-5.5467e-06,-0.023106,-1.0337e-05,-36.012,2.1645
21808,23.088,5.1818,0.1,2.1566e-05,215.51,2.0281e-05,186.21,-4.5089e-06,-0.057078,-1.1135e-05,-49.84,2.178
21809,22.996,5.2727,0.1,2.2965e-05,229.49,2.1914e-05,204.63,-5.326e-06,-0.041602,-1.1107e-05,-43.474,2.1646
21810,23.088,5,0.1,2.2122e-05,221.07,2.0596e-05,186.99,-4.3012e-06,-0.070434,-1.1873e-05,-56.959,2.1781
21811,22.996,5.0909,0.1,2.3491e-05,234.74,2.2222e-05,205.41,-5.1233e-06,-0.058082,-1.1828e-05,-50.437,2.1647
21812,23.088,4.8182,0.1,2.2618e-05,226.02,2.0869e-05,187.65,-4.1163e-06,-0.078695,-1.2522e-05,-63.237,2.1782
21813,22.996,4.9091,0.1,2.3973e-05,239.56,2.2499e-05,206.11,-4.9407e-06,-0.067577,-1.2477e-05,-56.695,2.1648
21814,23.088,4.6364,0.1,2.3048e-05,230.32,2.1099e-05,188.15,-3.9544e-06,-0.084415,-1.3081e-05,-68.662,2.1783
21815,22.996,4.7273,0.1,2.4398e-05,243.81,2.2738e-05,206.68,-4.7794e-06,-0.074238,-1.3045e-05,-62.177,2.1649
21816,23.088,4.4545,0.1,2.3411e-05,233.95,2.1288e-05,188.53,-3.815e-06,-0.088358,-1.3555e-05,-73.269,2.1784
21817,22.996,4.5455,0.1,2.4764e-05,247.47,2.2939e-05,207.13,-4.6393e-06,-0.078737,-1.353e-05,-66.883,2.165
21818,23.088,4.2727,0.1,2.3714e-05,236.98,2.1442e-05,188.79,-3.6967e-06,-0.091156,-1.3949e-05,-77.121,2.1785
21819,22.996,4.3636,0.1,2.5072e-05,250.54,2.3103e-05,207.46,-4.5195e-06,-0.0819,-1.3939e-05,-70.853,2.1651
21820,23.088,4.0909,0.1,2.3961e-05,239.45,2.1564e-05,188.96,-3.5981e-06,-0.093156,-1.4271e-05,-80.287,2.1786
21821,22.996,4.1818,0.1,2.5325e-05,253.08,2.3235e-05,207.7,-4.4187e-06,-0.084138,-1.4276e-05,-74.145,2.1651
21822,23.088,3.9091,0.1,2.4158e-05,241.42,2.1659e-05,189.07,-3.5176e-06,-0.094591,-1.453e-05,-82.836,2.1786
21823,22.996,4,0.1,2.5529e-05,255.12,2.334e-05,207.86,-4.3357e-06,-0.085735,-1.4549e-05,-76.822,2.1652
21824,23.088,3.7273,0.1,2.4311e-05,242.94,2.1731e-05,189.13,-3.454e-06,-0.095613,-1.4731e-05,-84.829,2.1787
21825,22.996,3.8182,0.1,2.569e-05,256.72,2.342e-05,207.96,-4.269e-06,-0.086871,-1.4764e-05,-78.945,2.1652
21826,23.088,3.5455,0.1,2.4425e-05,244.08,2.1784e-05,189.17,-3.4059e-06,-0.096323,-1.4882e-05,-86.321,2.1787
21827,22.996,3.6364,0.1,2.5812e-05,257.94,2.348e-05,208.02,-4.2174e-06,-0.087667,-1.4929e-05,-80.571,2.1653
21828,23.088,3.3636,0.1,2.4503e-05,244.86,2.1819e-05,189.18,-3.3723e-06,-0.096789,-1.4986e-05,-87.354,2.1787
21829,22.996,3.4545,0.1,2.5899e-05,258.81,2.3522e-05,208.05,-4.1797e-06,-0.088207,-1.5048e-05,-81.747,2.1653
21830,23.088,3.1818,0.1,2.4549e-05,245.32,2.184e-05,189.19,-3.3525e-06,-0.097053,-1.5047e-05,-87.961,2.1787
21831,22.996,3.2727,0.1,2.5956e-05,259.38,2.3548e-05,208.06,-4.155e-06,-0.08854,-1.5125e-05,-82.509,2.1653
21832,23.088,3,0.1,2.4564e-05,245.47,2.1847e-05,189.19,-3.3459e-06,-0.097139,-1.5067e-05,-88.162,2.1787
21833,22.996,3.0909,0.1,2.5983e-05,259.65,2.3561e-05,208.07,-4.1429e-06,-0.088699,-1.5162e-05,-82.884,2.1653
21834,23.088,2.8182,0.1,2.4549e-05,245.32,2.184e-05,189.19,-3.3525e-06,-0.097053,-1.5047e-05,-87.961,2.1787
21835,22.996,2.9091,0.1,2.5983e-05,259.65,2.3561e-05,208.07,-4.1429e-06,-0.088699,-1.5162e-05,-82.884,2.1653
21836,23.088,2.6364,0.1,2.4503e-05,244.86,2.1819e-05,189.18,-3.3723e-06,-0.096789,-1.4986e-05,-87.354,2.1787
21837,22.996,2.7273,0.1,2.5956e-05,259.38,2.3548e-05,208.06,-4.155e-06,-0.088539,-1.5125e-05,-82.509,2.1653
21838,23.088,2.4545,0.1,2.4425e-05,244.08,2.1784e-05,189.17,-3.4059e-06,-0.096323,-1.4882e-05,-86.321,2.1787
21839,22.996,2.5455,0.1,2.5899e-05,258.81,2.3522e-05,208.05,-4.1797e-06,-0.088207,-1.5048e-05,-81.747,2.1653
21840,23.088,2.2727,0.1,2.4311e-05,242.94,2.1731e-05,189.13,-3.454e-06,-0.095613,-1.4731e-05,-84.829,2.1787
21841,22.996,2.3636,0.1,2.5812e-05,257.94,2.348e-05,208.02,-4.2174e-06,-0.087668,-1.4929e-05,-80.571,2.1653
21842,23.088,2.0909,0.1,2.4158e-05,241.42,2.1659e-05,189.07,-3.5176e-06,-0.094591,-1.453e-05,-82.836,2.1786
21843,22.996,2.1818,0.1,2.569e-05,256.72,2.342e-05,207.96,-4.269e-06,-0.086872,-1.4764e-05,-78.945,2.1652
21844,23.088,1.9091,0.1,2.3961e-05,239.45,2.1564e-05,188.96,-3.5981e-06,-0.093157,-1.4271e-05,-80.287,2.1786
21845,22.996,2,0.1,2.5529e-05,255.12,2.334e-05,207.86,-4.3357e-06,-0.085735,-1.4549e-05,-76.822,2.1652
21846,23.088,1.7273,0.1,2.3714e-05,236.98,2.1442e-05,188.79,-3.6967e-06,-0.091157,-1.3949e-05,-77.121,2.1785
21847,22.996,1.8182,0.1,2.5325e-05,253.08,2.3235e-05,207.7,-4.4187e-06,-0.084139,-1.4276e-05,-74.145,2.1651
21848,23.088,1.5455,0.1,2.3411e-05,233.95,2.1288e-05,188.53,-3.815e-06,-0.08836,-1.3555e-05,-73.269,2.1784
21849,22.996,1.6364,0.1,2.5072e-05,250.54,2.3103e-05,207.46,-4.5195e-06,-0.081901,-1.3939e-05,-70.853,2.1651
21850,23.088,1.3636,0.1,2.3048e-05,230.32,2.1099e-05,188.15,-3.9544e-06,-0.084416,-1.3081e-05,-68.662,2.1783
21851,22.996,1.4545,0.1,2.4764e-05,247.47,2.2939e-05,207.13,-4.6393e-06,-0.078737,-1.353e-05,-66.883,2.165
21852,23.088,1.1818,0.1,2.2618e-05,226.02,2.0869e-05,187.65,-4.1163e-06,-0.078695,-1.2522e-05,-63.237,2.1782
21853,22.996,1.2727,0.1,2.4398e-05,243.81,2.2738e-05,206.68,-4.7794e-06,-0.07424,-1.3045e-05,-62.177,2.1649
21854,23.088,1,0.1,2.2122e-05,221.07,2.0596e-05,186.99,-4.3012e-06,-0.070434,-1.1873e-05,-56.959,2.1781
21855,22.996,1.0909,0.1,2.3973e-05,239.56,2.2499e-05,206.11,-4.9407e-06,-0.067577,-1.2477e-05,-56.695,2.1648
21856,23.088,0.81818,0.1,2.1566e-05,215.51,2.0281e-05,186.21,-4.5089e-06,-0.05708,-1.1135e-05,-49.84,2.178
21857,22.996,0.90909,0.1,2.3491e-05,234.74,2.2222e-05,205.41,-5.1233e-06,-0.058082,-1.1828e-05,-50.437,2.1647
21858,23.088,0.63636,0.1,2.097e-05,209.55,1.9936e-05,185.35,-4.7376e-06,-0.039087,-1.0323e-05,-42.005,2.1779
21859,22.996,0.72727,0.1,2.2965e-05,229.49,2.1914e-05,204.63,-5.326e-06,-0.041605,-1.1107e-05,-43.474,2.1646
21860,23.088,0.45455,0.1,2.0381e-05,203.67,1.9595e-05,184.67,-4.9821e-06,0.0090222,-9.4786e-06,-33.776,2.1778
21861,22.996,0.54545,0.1,2.2426e-05,224.1,2.1595e-05,203.91,-5.5467e-06,-0.023103,-1.0337e-05,-36.012,2.1645
21862,23.088,0.27273,0.1,1.9979e-05,199.65,1.94e-05,185.18,-5.2384e-06,0.060947,-8.7556e-06,-26.366,2.1777
21863,22.996,0.36364,0.1,2.1936e-05,219.21,2.1313e-05,203.59,-5.7775e-06,0.048907,-9.5757e-06,-28.489,2.1644
21864,22.996,0.18182,0.1,2.18e-05,217.85,2.1319e-05,205.49,-6.0228e-06,0.052981,-9.0838e-06,-22.946,2.1642
21865,23.088,0.090909,0.1,1.9058e-05,190.45,1.874e-05,182.05,-5.4941e-06,-0.032185,-7.5897e-06,-15.777,2.1776
21866,22.905,5.7273,0.1,2.37e-05,236.84,2.3183e-05,223.53,-6.5604e-06,0.052358,-9.8562e-06,-24.711,2.1509
21867,22.814,5.8182,0.1,2.5594e-05,255.76,2.5149e-05,244.06,-7.3286e-06,0.0412,-1.0264e-05,-22.013,2.1374
21868,22.905,5.9091,0.1,2.2851e-05,228.35,2.2554e-05,220.36,-6.7774e-06,-0.022964,-8.7971e-06,-15.198,2.1508
21869,22.905,5.5455,0.1,2.396e-05,239.44,2.3293e-05,222.68,-6.3428e-06,0.012224,-1.0414e-05,-30.575,2.151
21870,22.814,5.6364,0.1,2.561e-05,255.92,2.5065e-05,241.87,-7.1196e-06,0.045228,-1.0604e-05,-26.137,2.1376
21871,22.905,5.3636,0.1,2.4413e-05,243.96,2.3561e-05,223.1,-6.1355e-06,-0.029012,-1.1108e-05,-37.387,2.1511
21872,22.814,5.4545,0.1,2.5973e-05,259.55,2.5273e-05,241.9,-6.9245e-06,-0.015772,-1.1216e-05,-32.262,2.1377
21873,22.905,5.1818,0.1,2.489e-05,248.73,2.3847e-05,223.77,-5.9408e-06,-0.045094,-1.1792e-05,-44.009,2.1513
21874,22.814,5.2727,0.1,2.6394e-05,263.76,2.5528e-05,242.4,-6.7379e-06,-0.032075,-1.1852e-05,-38.46,2.1378
21875,22.905,5,0.1,2.5349e-05,253.31,2.4121e-05,224.48,-5.7631e-06,-0.057258,-1.2428e-05,-50.132,2.1514
21876,22.814,5.0909,0.1,2.6818e-05,267.99,2.5786e-05,243.04,-6.5662e-06,-0.046919,-1.2461e-05,-44.341,2.1379
21877,22.905,4.8182,0.1,2.5766e-05,257.48,2.4365e-05,225.11,-5.6041e-06,-0.064923,-1.2996e-05,-55.606,2.1515
21878,22.814,4.9091,0.1,2.7216e-05,271.97,2.6027e-05,243.67,-6.4111e-06,-0.05571,-1.3018e-05,-49.699,2.138
21879,22.905,4.6364,0.1,2.6132e-05,261.14,2.4576e-05,225.64,-5.4645e-06,-0.070244,-1.3491e-05,-60.377,2.1516
21880,22.814,4.7273,0.1,2.7573e-05,275.54,2.624e-05,244.24,-6.2739e-06,-0.061916,-1.3511e-05,-54.437,2.1381
21881,22.905,4.4545,0.1,2.6445e-05,264.27,2.4752e-05,226.06,-5.344e-06,-0.0739,-1.3912e-05,-64.452,2.1516
21882,22.814,4.5455,0.1,2.7883e-05,278.64,2.6422e-05,244.7,-6.1546e-06,-0.066116,-1.3935e-05,-58.528,2.1382
21883,22.905,4.2727,0.1,2.6706e-05,266.87,2.4896e-05,226.37,-5.2418e-06,-0.07647,-1.4264e-05,-67.866,2.1517
21884,22.814,4.3636,0.1,2.8145e-05,281.26,2.6573e-05,245.07,-6.0528e-06,-0.069052,-1.4293e-05,-61.986,2.1383
21885,22.905,4.0909,0.1,2.6919e-05,269,2.5011e-05,226.59,-5.1566e-06,-0.078287,-1.4552e-05,-70.671,2.1518
21886,22.814,4.1818,0.1,2.8361e-05,283.41,2.6695e-05,245.34,-5.9674e-06,-0.071109,-1.4589e-05,-64.852,2.1384
21887,22.905,3.9091,0.1,2.7088e-05,270.69,2.51e-05,226.74,-5.0873e-06,-0.079573,-1.4782e-05,-72.924,2.1518
21888,22.814,4,0.1,2.8534e-05,285.15,2.6792e-05,245.54,-5.8973e-06,-0.072558,-1.4828e-05,-67.177,2.1384
21889,22.905,3.7273,0.1,2.7219e-05,272,2.5168e-05,226.83,-5.0326e-06,-0.080479,-1.4961e-05,-74.682,2.1519
21890,22.814,3.8182,0.1,2.867e-05,286.51,2.6866e-05,245.67,-5.8412e-06,-0.073575,-1.5016e-05,-69.013,2.1385
21891,22.905,3.5455,0.1,2.7315e-05,272.97,2.5217e-05,226.89,-4.9913e-06,-0.081102,-1.5094e-05,-75.992,2.1519
21892,22.814,3.6364,0.1,2.8773e-05,287.53,2.6921e-05,245.76,-5.7979e-06,-0.07428,-1.5159e-05,-70.413,2.1385
21893,22.905,3.3636,0.1,2.7382e-05,273.63,2.5251e-05,226.93,-4.9626e-06,-0.081506,-1.5186e-05,-76.898,2.1519
21894,22.814,3.4545,0.1,2.8846e-05,288.26,2.6959e-05,245.81,-5.7665e-06,-0.074749,-1.5262e-05,-71.42,2.1386
21895,22.905,3.1818,0.1,2.742e-05,274.01,2.527e-05,226.94,-4.9456e-06,-0.081734,-1.524e-05,-77.429,2.152
21896,22.814,3.2727,0.1,2.8893e-05,288.73,2.6984e-05,245.84,-5.746e-06,-0.075038,-1.5328e-05,-72.071,2.1386
21897,22.905,3,0.1,2.7433e-05,274.14,2.5276e-05,226.95,-4.94e-06,-0.081807,-1.5258e-05,-77.603,2.152
21898,22.814,3.0909,0.1,2.8916e-05,288.96,2.6996e-05,245.86,-5.7359e-06,-0.075174,-1.536e-05,-72.39,2.1386
21899,22.905,2.8182,0.1,2.742e-05,274.01,2.527e-05,226.94,-4.9456e-06,-0.081734,-1.524e-05,-77.429,2.152
21900,22.814,2.9091,0.1,2.8916e-05,288.96,2.6996e-05,245.86,-5.7359e-06,-0.075174,-1.536e-05,-72.39,2.1386
21901,22.905,2.6364,0.1,2.7382e-05,273.63,2.5251e-05,226.93,-4.9626e-06,-0.081506,-1.5186e-05,-76.898,2.1519
21902,22.814,2.7273,0.1,2.8893e-05,288.73,2.6984e-05,245.84,-5.746e-06,-0.075038,-1.5328e-05,-72.071,2.1386
21903,22.905,2.4545,0.1,2.7315e-05,272.97,2.5217e-05,226.89,-4.9913e-06,-0.081103,-1.5094e-05,-75.992,2.1519
21904,22.814,2.5455,0.1,2.8846e-05,288.26,2.6959e-05,245.81,-5.7665e-06,-0.074749,-1.5262e-05,-71.42,2.1386
21905,22.905,2.2727,0.1,2.7219e-05,272,2.5168e-05,226.83,-5.0326e-06,-0.080481,-1.4961e-05,-74.682,2.1519
21906,22.814,2.3636,0.1,2.8773e-05,287.53,2.6921e-05,245.76,-5.7979e-06,-0.07428,-1.5159e-05,-70.413,2.1385
21907,22.905,2.0909,0.1,2.7088e-05,270.69,2.51e-05,226.74,-5.0873e-06,-0.079575,-1.4782e-05,-72.924,2.1518
21908,22.814,2.1818,0.1,2.867e-05,286.51,2.6866e-05,245.67,-5.8412e-06,-0.073576,-1.5016e-05,-69.013,2.1385
21909,22.905,1.9091,0.1,2.6919e-05,269,2.5011e-05,226.59,-5.1566e-06,-0.078286,-1.4552e-05,-70.671,2.1518
21910,22.814,2,0.1,2.8534e-05,285.15,2.6792e-05,245.54,-5.8973e-06,-0.072559,-1.4828e-05,-67.177,2.1384
21911,22.905,1.7273,0.1,2.6706e-05,266.87,2.4896e-05,226.37,-5.2418e-06,-0.076469,-1.4264e-05,-67.866,2.1517
21912,22.814,1.8182,0.1,2.8361e-05,283.41,2.6695e-05,245.34,-5.9674e-06,-0.071109,-1.4589e-05,-64.852,2.1384
21913,22.905,1.5455,0.1,2.6445e-05,264.27,2.4752e-05,226.06,-5.344e-06,-0.073899,-1.3912e-05,-64.452,2.1516
21914,22.814,1.6364,0.1,2.8145e-05,281.26,2.6573e-05,245.07,-6.0528e-06,-0.069052,-1.4293e-05,-61.986,2.1383
21915,22.905,1.3636,0.1,2.6132e-05,261.14,2.4576e-05,225.64,-5.4645e-06,-0.070244,-1.3491e-05,-60.377,2.1516
21916,22.814,1.4545,0.1,2.7883e-05,278.64,2.6422e-05,244.7,-6.1546e-06,-0.066115,-1.3935e-05,-58.528,2.1382
21917,22.905,1.1818,0.1,2.5766e-05,257.48,2.4365e-05,225.11,-5.6041e-06,-0.064925,-1.2996e-05,-55.606,2.1515
21918,22.814,1.2727,0.1,2.7573e-05,275.54,2.624e-05,244.24,-6.2739e-06,-0.061918,-1.3511e-05,-54.437,2.1381
21919,22.905,1,0.1,2.5349e-05,253.31,2.4121e-05,224.48,-5.7631e-06,-0.057258,-1.2428e-05,-50.132,2.1514
21920,22.814,1.0909,0.1,2.7216e-05,271.97,2.6027e-05,243.67,-6.4111e-06,-0.055711,-1.3018e-05,-49.699,2.138
21921,22.905,0.81818,0.1,2.489e-05,248.73,2.3847e-05,223.77,-5.9408e-06,-0.045095,-1.1792e-05,-44.009,2.1513
21922,22.814,0.90909,0.1,2.6818e-05,267.99,2.5786e-05,243.04,-6.5662e-06,-0.046919,-1.2461e-05,-44.341,2.1379
21923,22.905,0.63636,0.1,2.4413e-05,243.96,2.3561e-05,223.1,-6.1355e-06,-0.029011,-1.1108e-05,-37.387,2.1511
21924,22.814,0.72727,0.1,2.6394e-05,263.76,2.5528e-05,242.4,-6.7379e-06,-0.032076,-1.1852e-05,-38.46,2.1378
21925,22.905,0.45455,0.1,2.396e-05,239.44,2.3293e-05,222.68,-6.3428e-06,0.012226,-1.0414e-05,-30.575,2.151
21926,22.814,0.54545,0.1,2.5973e-05,259.55,2.5273e-05,241.9,-6.9245e-06,-0.015769,-1.1216e-05,-32.262,2.1377
21927,22.905,0.27273,0.1,2.37e-05,236.84,2.3183e-05,223.53,-6.5604e-06,0.052357,-9.8562e-06,-24.711,2.1509
21928,22.814,0.36364,0.1,2.561e-05,255.92,2.5065e-05,241.87,-7.1196e-06,0.045229,-1.0604e-05,-26.137,2.1376
21929,22.814,0.18182,0.1,2.5594e-05,255.76,2.5149e-05,244.06,-7.3286e-06,0.041198,-1.0264e-05,-22.013,2.1374
21930,22.905,0.090909,0.1,2.2851e-05,228.35,2.2554e-05,220.36,-6.7774e-06,-0.022967,-8.7971e-06,-15.198,2.1508
21931,22.723,5.7273,0.1,2.7454e-05,274.35,2.6988e-05,262.07,-7.8862e-06,0.045422,-1.097e-05,-23.125,2.1241
21932,22.632,5.8182,0.1,2.9403e-05,293.83,2.8989e-05,282.76,-8.6401e-06,0.032371,-1.1443e-05,-21.025,2.1107
21933,22.723,5.9091,0.1,2.667e-05,266.51,2.6392e-05,258.92,-8.0707e-06,-0.016422,-1.0008e-05,-14.573,2.124
21934,22.723,5.5455,0.1,2.7603e-05,275.84,2.7028e-05,260.96,-7.7017e-06,0.014089,-1.1389e-05,-27.69,2.1243
21935,22.632,5.6364,0.1,2.9325e-05,293.05,2.8845e-05,280.35,-8.4626e-06,0.040959,-1.1657e-05,-23.963,2.1108
21936,22.723,5.3636,0.1,2.7943e-05,279.24,2.7229e-05,261.12,-7.5272e-06,-0.021331,-1.1949e-05,-33.244,2.1244
21937,22.632,5.4545,0.1,2.9585e-05,295.64,2.8988e-05,280.14,-8.2988e-06,-0.010899,-1.214e-05,-28.872,2.1109
21938,22.723,5.1818,0.1,2.8317e-05,282.98,2.7459e-05,261.61,-7.3636e-06,-0.035704,-1.2513e-05,-38.729,2.1245
21939,22.632,5.2727,0.1,2.9905e-05,298.84,2.9183e-05,280.43,-8.1431e-06,-0.025291,-1.2653e-05,-33.914,2.1111
21940,22.723,5,0.1,2.8687e-05,286.67,2.7687e-05,262.19,-7.2144e-06,-0.046792,-1.3046e-05,-43.864,2.1246
21941,22.632,5.0909,0.1,3.0238e-05,302.17,2.9391e-05,280.91,-8.0004e-06,-0.038668,-1.3153e-05,-38.756,2.1112
21942,22.723,4.8182,0.1,2.9029e-05,290.09,2.7898e-05,262.77,-7.081e-06,-0.053913,-1.3529e-05,-48.5,2.1247
21943,22.632,4.9091,0.1,3.0558e-05,305.37,2.9592e-05,281.45,-7.872e-06,-0.046797,-1.3616e-05,-43.207,2.1113
21944,22.723,4.6364,0.1,2.9334e-05,293.14,2.8084e-05,263.28,-6.9641e-06,-0.058882,-1.3952e-05,-52.565,2.1248
21945,22.632,4.7273,0.1,3.085e-05,308.28,2.9775e-05,281.96,-7.7589e-06,-0.052583,-1.4029e-05,-47.166,2.1114
21946,22.723,4.4545,0.1,2.9596e-05,295.76,2.8241e-05,263.7,-6.8635e-06,-0.062295,-1.4315e-05,-56.046,2.1249
21947,22.632,4.5455,0.1,3.1105e-05,310.83,2.9934e-05,282.42,-7.6612e-06,-0.056514,-1.4387e-05,-50.59,2.1115
21948,22.723,4.2727,0.1,2.9815e-05,297.95,2.8371e-05,264.03,-6.7785e-06,-0.06468,-1.4617e-05,-58.961,2.125
21949,22.632,4.3636,0.1,3.1321e-05,313,3.0067e-05,282.79,-7.5784e-06,-0.059252,-1.4688e-05,-53.481,2.1116
21950,22.723,4.0909,0.1,2.9994e-05,299.73,2.8475e-05,264.29,-6.7082e-06,-0.066346,-1.4864e-05,-61.349,2.125
21951,22.632,4.1818,0.1,3.15e-05,314.78,3.0175e-05,283.09,-7.5096e-06,-0.061153,-1.4937e-05,-55.866,2.1116
21952,22.723,3.9091,0.1,3.0135e-05,301.14,2.8556e-05,264.47,-6.6513e-06,-0.067512,-1.5061e-05,-63.258,2.1251
21953,22.632,4,0.1,3.1643e-05,316.21,3.0261e-05,283.31,-7.4536e-06,-0.062474,-1.5136e-05,-57.786,2.1117
21954,22.723,3.7273,0.1,3.0244e-05,302.23,2.8618e-05,264.59,-6.6066e-06,-0.068319,-1.5214e-05,-64.738,2.1251
21955,22.632,3.8182,0.1,3.1754e-05,317.32,3.0327e-05,283.47,-7.4094e-06,-0.063386,-1.5292e-05,-59.291,2.1117
21956,22.723,3.5455,0.1,3.0324e-05,303.03,2.8662e-05,264.68,-6.5732e-06,-0.068866,-1.5326e-05,-65.835,2.1252
21957,22.632,3.6364,0.1,3.1837e-05,318.15,3.0375e-05,283.58,-7.3756e-06,-0.064009,-1.5409e-05,-60.427,2.1118
21958,22.723,3.3636,0.1,3.0378e-05,303.57,2.8692e-05,264.73,-6.55e-06,-0.069216,-1.5403e-05,-66.589,2.1252
21959,22.632,3.4545,0.1,3.1896e-05,318.74,3.0409e-05,283.65,-7.3512e-06,-0.064418,-1.5493e-05,-61.238,2.1118
21960,22.723,3.1818,0.1,3.041e-05,303.89,2.8709e-05,264.75,-6.5364e-06,-0.069412,-1.5448e-05,-67.029,2.1252
21961,22.632,3.2727,0.1,3.1933e-05,319.11,3.0431e-05,283.7,-7.3355e-06,-0.064666,-1.5546e-05,-61.758,2.1118
21962,22.723,3,0.1,3.042e-05,303.99,2.8715e-05,264.76,-6.5319e-06,-0.069474,-1.5463e-05,-67.173,2.1252
21963,22.632,3.0909,0.1,3.1951e-05,319.29,3.0441e-05,283.72,-7.3278e-06,-0.064782,-1.5572e-05,-62.011,2.1118
21964,22.723,2.8182,0.1,3.041e-05,303.89,2.8709e-05,264.75,-6.5364e-06,-0.069411,-1.5448e-05,-67.029,2.1252
21965,22.632,2.9091,0.1,3.1951e-05,319.29,3.0441e-05,283.72,-7.3278e-06,-0.064782,-1.5572e-05,-62.011,2.1118
21966,22.723,2.6364,0.1,3.0378e-05,303.57,2.8692e-05,264.73,-6.55e-06,-0.069215,-1.5403e-05,-66.589,2.1252
21967,22.632,2.7273,0.1,3.1933e-05,319.11,3.0431e-05,283.7,-7.3355e-06,-0.064665,-1.5546e-05,-61.758,2.1118
21968,22.723,2.4545,0.1,3.0324e-05,303.03,2.8662e-05,264.68,-6.5732e-06,-0.068865,-1.5326e-05,-65.835,2.1252
21969,22.632,2.5455,0.1,3.1896e-05,318.74,3.0409e-05,283.65,-7.3512e-06,-0.064418,-1.5493e-05,-61.238,2.1118
21970,22.723,2.2727,0.1,3.0244e-05,302.23,2.8618e-05,264.59,-6.6066e-06,-0.068319,-1.5214e-05,-64.738,2.1251
21971,22.632,2.3636,0.1,3.1837e-05,318.15,3.0375e-05,283.58,-7.3756e-06,-0.064008,-1.5409e-05,-60.427,2.1118
21972,22.723,2.0909,0.1,3.0135e-05,301.14,2.8556e-05,264.47,-6.6513e-06,-0.067511,-1.5061e-05,-63.258,2.1251
21973,22.632,2.1818,0.1,3.1754e-05,317.32,3.0327e-05,283.47,-7.4094e-06,-0.063387,-1.5292e-05,-59.291,2.1117
21974,22.723,1.9091,0.1,2.9994e-05,299.73,2.8475e-05,264.29,-6.7082e-06,-0.066347,-1.4864e-05,-61.349,2.125
21975,22.632,2,0.1,3.1643e-05,316.21,3.0261e-05,283.31,-7.4536e-06,-0.062474,-1.5136e-05,-57.786,2.1117
21976,22.723,1.7273,0.1,2.9815e-05,297.95,2.8371e-05,264.03,-6.7785e-06,-0.06468,-1.4617e-05,-58.961,2.125
21977,22.632,1.8182,0.1,3.15e-05,314.78,3.0175e-05,283.09,-7.5096e-06,-0.061152,-1.4937e-05,-55.866,2.1116
21978,22.723,1.5455,0.1,2.9596e-05,295.76,2.8241e-05,263.7,-6.8635e-06,-0.062296,-1.4315e-05,-56.046,2.1249
21979,22.632,1.6364,0.1,3.1321e-05,313,3.0067e-05,282.79,-7.5784e-06,-0.059252,-1.4688e-05,-53.481,2.1116
21980,22.723,1.3636,0.1,2.9334e-05,293.14,2.8084e-05,263.28,-6.9641e-06,-0.058882,-1.3952e-05,-52.565,2.1248
21981,22.632,1.4545,0.1,3.1105e-05,310.83,2.9934e-05,282.42,-7.6612e-06,-0.056514,-1.4387e-05,-50.59,2.1115
21982,22.723,1.1818,0.1,2.9029e-05,290.09,2.7898e-05,262.77,-7.081e-06,-0.053914,-1.3529e-05,-48.5,2.1247
21983,22.632,1.2727,0.1,3.085e-05,308.28,2.9775e-05,281.96,-7.7589e-06,-0.052584,-1.4029e-05,-47.166,2.1114
21984,22.723,1,0.1,2.8687e-05,286.67,2.7687e-05,262.19,-7.2144e-06,-0.046792,-1.3046e-05,-43.864,2.1246
21985,22.632,1.0909,0.1,3.0558e-05,305.37,2.9592e-05,281.45,-7.872e-06,-0.046798,-1.3616e-05,-43.207,2.1113
21986,22.723,0.81818,0.1,2.8317e-05,282.98,2.7459e-05,261.61,-7.3636e-06,-0.035704,-1.2513e-05,-38.729,2.1245
21987,22.632,0.90909,0.1,3.0238e-05,302.17,2.9391e-05,280.91,-8.0004e-06,-0.038668,-1.3153e-05,-38.756,2.1112
21988,22.723,0.63636,0.1,2.7943e-05,279.24,2.7229e-05,261.12,-7.5272e-06,-0.021329,-1.1949e-05,-33.244,2.1244
21989,22.632,0.72727,0.1,2.9905e-05,298.84,2.9183e-05,280.43,-8.1431e-06,-0.025293,-1.2653e-05,-33.914,2.1111
21990,22.723,0.45455,0.1,2.7603e-05,275.84,2.7028e-05,260.96,-7.7017e-06,0.014092,-1.1389e-05,-27.69,2.1243
21991,22.632,0.54545,0.1,2.9585e-05,295.64,2.8988e-05,280.14,-8.2988e-06,-0.010896,-1.214e-05,-28.872,2.1109
21992,22.723,0.27273,0.1,2.7454e-05,274.35,2.6988e-05,262.07,-7.8862e-06,0.045421,-1.097e-05,-23.126,2.1241
21993,22.632,0.36364,0.1,2.9325e-05,293.05,2.8845e-05,280.35,-8.4626e-06,0.040961,-1.1657e-05,-23.963,2.1108
21994,22.632,0.18182,0.1,2.9403e-05,293.83,2.8989e-05,282.76,-8.6401e-06,0.03237,-1.1443e-05,-21.025,2.1107
21995,22.723,0.090909,0.1,2.667e-05,266.51,2.6392e-05,258.92,-8.0707e-06,-0.016423,-1.0008e-05,-14.573,2.124
21996,22.54,5.7273,0.1,3.123e-05,312.09,3.0807e-05,300.75,-9.2151e-06,0.038621,-1.2093e-05,-21.583,2.0974
21997,22.449,5.8182,0.1,3.3222e-05,331.99,3.2837e-05,321.56,-9.9559e-06,0.025271,-1.262e-05,-19.995,2.0839
21998,22.54,5.9091,0.1,3.0507e-05,304.86,3.0246e-05,297.66,-9.3713e-06,-0.012472,-1.1222e-05,-13.915,2.0972
21999,22.54,5.5455,0.1,3.129e-05,312.68,3.0789e-05,299.42,-9.06e-06,0.013786,-1.2393e-05,-25.026,2.0975
22000,22.449,5.6364,0.1,3.307e-05,330.47,3.2643e-05,318.98,-9.8064e-06,0.036021,-1.2728e-05,-21.915,2.0841
22001,22.54,5.3636,0.1,3.1536e-05,315.14,3.0931e-05,299.37,-8.915e-06,-0.016753,-1.2833e-05,-29.457,2.0976
22002,22.449,5.4545,0.1,3.3243e-05,332.2,3.273e-05,318.58,-9.6708e-06,-0.0081679,-1.3096e-05,-25.747,2.0842
22003,22.54,5.1818,0.1,3.182e-05,317.98,3.1107e-05,299.67,-8.7801e-06,-0.029632,-1.3285e-05,-33.88,2.0978
22004,22.449,5.2727,0.1,3.3476e-05,334.53,3.2871e-05,318.67,-9.5435e-06,-0.020933,-1.3498e-05,-29.732,2.0843
22005,22.54,5,0.1,3.2108e-05,320.86,3.1291e-05,300.12,-8.6581e-06,-0.039737,-1.3718e-05,-38.054,2.0979
22006,22.449,5.0909,0.1,3.3729e-05,337.05,3.3031e-05,318.99,-9.4282e-06,-0.032986,-1.3894e-05,-33.584,2.0844
22007,22.54,4.8182,0.1,3.2381e-05,323.58,3.1465e-05,300.61,-8.5499e-06,-0.046347,-1.4112e-05,-41.841,2.098
22008,22.449,4.9091,0.1,3.3977e-05,339.53,3.3192e-05,319.42,-9.3258e-06,-0.040491,-1.4263e-05,-37.137,2.0846
22009,22.54,4.6364,0.1,3.2626e-05,326.04,3.1622e-05,301.08,-8.456e-06,-0.050987,-1.446e-05,-45.166,2.0981
22010,22.449,4.7273,0.1,3.4206e-05,341.82,3.3341e-05,319.87,-9.2369e-06,-0.045873,-1.4594e-05,-40.295,2.0847
22011,22.54,4.4545,0.1,3.2838e-05,328.16,3.1757e-05,301.49,-8.3761e-06,-0.054177,-1.4758e-05,-48.007,2.0982
22012,22.449,4.5455,0.1,3.4408e-05,343.85,3.3474e-05,320.29,-9.1614e-06,-0.049546,-1.488e-05,-43.016,2.0848
22013,22.54,4.2727,0.1,3.3016e-05,329.93,3.1869e-05,301.83,-8.3095e-06,-0.056391,-1.5006e-05,-50.372,2.0982
22014,22.449,4.3636,0.1,3.458e-05,345.56,3.3586e-05,320.66,-9.0986e-06,-0.052092,-1.512e-05,-45.294,2.0848
22015,22.54,4.0909,0.1,3.3161e-05,331.38,3.196e-05,302.1,-8.2551e-06,-0.057922,-1.5207e-05,-52.293,2.0983
22016,22.449,4.1818,0.1,3.4721e-05,346.97,3.3678e-05,320.97,-9.0476e-06,-0.053844,-1.5316e-05,-47.149,2.0849
22017,22.54,3.9091,0.1,3.3274e-05,332.51,3.203e-05,302.3,-8.2118e-06,-0.058974,-1.5366e-05,-53.811,2.0984
22018,22.449,4,0.1,3.4833e-05,348.09,3.375e-05,321.21,-9.0071e-06,-0.055044,-1.5471e-05,-48.619,2.085
22019,22.54,3.7273,0.1,3.3361e-05,333.38,3.2083e-05,302.45,-8.1784e-06,-0.059691,-1.5487e-05,-54.974,2.0984
22020,22.449,3.8182,0.1,3.492e-05,348.96,3.3806e-05,321.39,-8.9759e-06,-0.055858,-1.559e-05,-49.75,2.085
22021,22.54,3.5455,0.1,3.3424e-05,334.01,3.2122e-05,302.55,-8.1537e-06,-0.06017,-1.5576e-05,-55.825,2.0984
22022,22.449,3.6364,0.1,3.4983e-05,349.59,3.3847e-05,321.52,-8.9526e-06,-0.056403,-1.5678e-05,-50.586,2.0851
22023,22.54,3.3636,0.1,3.3466e-05,334.43,3.2147e-05,302.62,-8.1368e-06,-0.060472,-1.5635e-05,-56.402,2.0985
22024,22.449,3.4545,0.1,3.5028e-05,350.03,3.3875e-05,321.61,-8.9363e-06,-0.056756,-1.5739e-05,-51.172,2.0851
22025,22.54,3.1818,0.1,3.349e-05,334.67,3.2162e-05,302.66,-8.127e-06,-0.060638,-1.567e-05,-56.737,2.0985
22026,22.449,3.2727,0.1,3.5055e-05,350.31,3.3893e-05,321.66,-8.9259e-06,-0.056966,-1.5778e-05,-51.541,2.0851
22027,22.54,3,0.1,3.3498e-05,334.75,3.2167e-05,302.67,-8.1238e-06,-0.060692,-1.5681e-05,-56.846,2.0985
22028,22.449,3.0909,0.1,3.5069e-05,350.45,3.3901e-05,321.69,-8.9209e-06,-0.057063,-1.5797e-05,-51.72,2.0851
22029,22.54,2.8182,0.1,3.349e-05,334.67,3.2162e-05,302.66,-8.127e-06,-0.060639,-1.567e-05,-56.736,2.0985
22030,22.449,2.9091,0.1,3.5069e-05,350.45,3.3901e-05,321.69,-8.9209e-06,-0.057064,-1.5797e-05,-51.72,2.0851
22031,22.54,2.6364,0.1,3.3466e-05,334.43,3.2147e-05,302.62,-8.1368e-06,-0.060473,-1.5635e-05,-56.402,2.0985
22032,22.449,2.7273,0.1,3.5055e-05,350.31,3.3893e-05,321.66,-8.9259e-06,-0.056965,-1.5778e-05,-51.541,2.0851
22033,22.54,2.4545,0.1,3.3424e-05,334.01,3.2122e-05,302.55,-8.1537e-06,-0.060171,-1.5576e-05,-55.825,2.0984
22034,22.449,2.5455,0.1,3.5028e-05,350.03,3.3875e-05,321.61,-8.9363e-06,-0.056757,-1.5739e-05,-51.172,2.0851
22035,22.54,2.2727,0.1,3.3361e-05,333.38,3.2083e-05,302.45,-8.1784e-06,-0.059692,-1.5487e-05,-54.974,2.0984
22036,22.449,2.3636,0.1,3.4983e-05,349.59,3.3847e-05,321.52,-8.9526e-06,-0.056403,-1.5678e-05,-50.586,2.0851
22037,22.54,2.0909,0.1,3.3274e-05,332.51,3.203e-05,302.3,-8.2118e-06,-0.058974,-1.5366e-05,-53.811,2.0984
22038,22.449,2.1818,0.1,3.492e-05,348.96,3.3806e-05,321.39,-8.9759e-06,-0.05586,-1.559e-05,-49.75,2.085
22039,22.54,1.9091,0.1,3.3161e-05,331.38,3.196e-05,302.1,-8.2551e-06,-0.057921,-1.5207e-05,-52.293,2.0983
22040,22.449,2,0.1,3.4833e-05,348.09,3.375e-05,321.21,-9.0071e-06,-0.055043,-1.5471e-05,-48.619,2.085
22041,22.54,1.7273,0.1,3.3016e-05,329.93,3.1869e-05,301.83,-8.3095e-06,-0.056391,-1.5006e-05,-50.372,2.0982
22042,22.449,1.8182,0.1,3.4721e-05,346.97,3.3678e-05,320.97,-9.0476e-06,-0.053843,-1.5316e-05,-47.149,2.0849
22043,22.54,1.5455,0.1,3.2838e-05,328.16,3.1757e-05,301.49,-8.3761e-06,-0.054177,-1.4758e-05,-48.006,2.0982
22044,22.449,1.6364,0.1,3.458e-05,345.56,3.3586e-05,320.66,-9.0986e-06,-0.052092,-1.512e-05,-45.294,2.0848
22045,22.54,1.3636,0.1,3.2626e-05,326.04,3.1622e-05,301.08,-8.456e-06,-0.050987,-1.446e-05,-45.166,2.0981
22046,22.449,1.4545,0.1,3.4408e-05,343.85,3.3474e-05,320.29,-9.1614e-06,-0.049545,-1.488e-05,-43.016,2.0848
22047,22.54,1.1818,0.1,3.2381e-05,323.58,3.1465e-05,300.61,-8.5499e-06,-0.046348,-1.4112e-05,-41.84,2.098
22048,22.449,1.2727,0.1,3.4206e-05,341.82,3.3341e-05,319.87,-9.2369e-06,-0.045874,-1.4594e-05,-40.295,2.0847
22049,22.54,1,0.1,3.2108e-05,320.86,3.1291e-05,300.12,-8.6581e-06,-0.039738,-1.3718e-05,-38.054,2.0979
22050,22.449,1.0909,0.1,3.3977e-05,339.53,3.3192e-05,319.42,-9.3258e-06,-0.040491,-1.4263e-05,-37.137,2.0846
22051,22.54,0.81818,0.1,3.182e-05,317.98,3.1107e-05,299.67,-8.7801e-06,-0.029634,-1.3285e-05,-33.88,2.0978
22052,22.449,0.90909,0.1,3.3729e-05,337.05,3.3031e-05,318.99,-9.4282e-06,-0.032987,-1.3894e-05,-33.584,2.0844
22053,22.54,0.63636,0.1,3.1536e-05,315.14,3.0931e-05,299.37,-8.915e-06,-0.016754,-1.2833e-05,-29.457,2.0976
22054,22.449,0.72727,0.1,3.3476e-05,334.53,3.2871e-05,318.67,-9.5435e-06,-0.020934,-1.3498e-05,-29.732,2.0843
22055,22.54,0.45455,0.1,3.129e-05,312.68,3.0789e-05,299.42,-9.06e-06,0.013788,-1.2393e-05,-25.026,2.0975
22056,22.449,0.54545,0.1,3.3243e-05,332.2,3.273e-05,318.58,-9.6708e-06,-0.0081665,-1.3096e-05,-25.747,2.0842
22057,22.54,0.27273,0.1,3.123e-05,312.09,3.0807e-05,300.75,-9.2151e-06,0.038624,-1.2093e-05,-21.583,2.0974
22058,22.449,0.36364,0.1,3.307e-05,330.47,3.2643e-05,318.98,-9.8064e-06,0.036022,-1.2728e-05,-21.915,2.0841
22059,22.449,0.18182,0.1,3.3222e-05,331.99,3.2837e-05,321.56,-9.9559e-06,0.025273,-1.262e-05,-19.995,2.0839
22060,22.54,0.090909,0.1,3.0507e-05,304.86,3.0246e-05,297.66,-9.3713e-06,-0.012472,-1.1222e-05,-13.915,2.0972
22061,22.358,5.7273,0.1,3.5022e-05,349.98,3.4638e-05,339.53,-1.0546e-05,0.032492,-1.3222e-05,-20.074,2.0706
22062,22.267,5.8182,0.1,3.7048e-05,370.23,3.669e-05,360.41,-1.1274e-05,0.019609,-1.3797e-05,-18.935,2.0572
22063,22.358,5.9091,0.1,3.4358e-05,343.34,3.4114e-05,336.53,-1.0677e-05,-0.0099069,-1.2437e-05,-13.235,2.0705
22064,22.358,5.5455,0.1,3.5008e-05,349.84,3.457e-05,338.03,-1.0417e-05,0.012566,-1.3418e-05,-22.53,2.0708
22065,22.267,5.6364,0.1,3.6835e-05,368.09,3.6455e-05,357.72,-1.115e-05,0.030947,-1.3812e-05,-19.966,2.0573
22066,22.358,5.3636,0.1,3.5173e-05,351.49,3.466e-05,337.8,-1.03e-05,-0.013803,-1.3751e-05,-25.943,2.0709
22067,22.267,5.4545,0.1,3.6935e-05,369.09,3.6493e-05,357.15,-1.1041e-05,-0.0067045,-1.4078e-05,-22.829,2.0575
22068,22.358,5.1818,0.1,3.5379e-05,353.54,3.4787e-05,337.93,-1.0192e-05,-0.025366,-1.4098e-05,-29.376,2.071
22069,22.267,5.2727,0.1,3.7093e-05,370.68,3.6586e-05,357.07,-1.094e-05,-0.018078,-1.4377e-05,-25.838,2.0576
22070,22.358,5,0.1,3.5594e-05,355.7,3.4926e-05,338.25,-1.0096e-05,-0.03457,-1.4433e-05,-32.621,2.0711
22071,22.267,5.0909,0.1,3.7273e-05,372.48,3.6701e-05,357.26,-1.0851e-05,-0.028939,-1.4673e-05,-28.747,2.0577
22072,22.358,4.8182,0.1,3.5802e-05,357.77,3.5064e-05,338.65,-1.0013e-05,-0.04069,-1.474e-05,-35.558,2.0713
22073,22.267,4.9091,0.1,3.7455e-05,374.3,3.6821e-05,357.58,-1.0774e-05,-0.035855,-1.4951e-05,-31.417,2.0578
22074,22.358,4.6364,0.1,3.5991e-05,359.66,3.519e-05,339.06,-9.9424e-06,-0.045007,-1.501e-05,-38.121,2.0714
22075,22.267,4.7273,0.1,3.7626e-05,376,3.6938e-05,357.96,-1.071e-05,-0.040842,-1.5199e-05,-33.767,2.058
22076,22.358,4.4545,0.1,3.6155e-05,361.3,3.53e-05,339.45,-9.884e-06,-0.047975,-1.5239e-05,-40.285,2.0714
22077,22.267,4.5455,0.1,3.7778e-05,377.52,3.7042e-05,358.35,-1.0657e-05,-0.044253,-1.541e-05,-35.756,2.058
22078,22.358,4.2727,0.1,3.6292e-05,362.67,3.5392e-05,339.78,-9.8368e-06,-0.050019,-1.5428e-05,-42.057,2.0715
22079,22.267,4.3636,0.1,3.7906e-05,378.8,3.7131e-05,358.71,-1.0616e-05,-0.046605,-1.5585e-05,-37.381,2.0581
22080,22.358,4.0909,0.1,3.6402e-05,363.77,3.5467e-05,340.06,-9.7997e-06,-0.051415,-1.5578e-05,-43.465,2.0716
22081,22.267,4.1818,0.1,3.8011e-05,379.85,3.7205e-05,359.02,-1.0584e-05,-0.048205,-1.5723e-05,-38.663,2.0582
22082,22.358,3.9091,0.1,3.6488e-05,364.63,3.5525e-05,340.28,-9.7712e-06,-0.052361,-1.5693e-05,-44.549,2.0716
22083,22.267,4,0.1,3.8092e-05,380.66,3.7262e-05,359.27,-1.056e-05,-0.049282,-1.5829e-05,-39.639,2.0583
22084,22.358,3.7273,0.1,3.6552e-05,365.27,3.5568e-05,340.45,-9.7502e-06,-0.052992,-1.578e-05,-45.356,2.0717
22085,22.267,3.8182,0.1,3.8154e-05,381.27,3.7306e-05,359.47,-1.0543e-05,-0.05,-1.5907e-05,-40.354,2.0583
22086,22.358,3.5455,0.1,3.6598e-05,365.73,3.5599e-05,340.57,-9.7353e-06,-0.053404,-1.5841e-05,-45.928,2.0717
22087,22.267,3.6364,0.1,3.8198e-05,381.71,3.7338e-05,359.62,-1.0532e-05,-0.050467,-1.5962e-05,-40.856,2.0584
22088,22.358,3.3636,0.1,3.6628e-05,366.03,3.5619e-05,340.65,-9.7254e-06,-0.05366,-1.5881e-05,-46.306,2.0718
22089,22.267,3.4545,0.1,3.8228e-05,382.01,3.7359e-05,359.73,-1.0524e-05,-0.050764,-1.5999e-05,-41.188,2.0584
22090,22.358,3.1818,0.1,3.6645e-05,366.2,3.5631e-05,340.7,-9.7199e-06,-0.053799,-1.5904e-05,-46.52,2.0718
22091,22.267,3.2727,0.1,3.8246e-05,382.19,3.7373e-05,359.79,-1.052e-05,-0.050939,-1.6021e-05,-41.388,2.0584
22092,22.358,3,0.1,3.6651e-05,366.26,3.5635e-05,340.71,-9.7181e-06,-0.053842,-1.5912e-05,-46.59,2.0718
22093,22.267,3.0909,0.1,3.8254e-05,382.28,3.7379e-05,359.83,-1.0518e-05,-0.051018,-1.6032e-05,-41.481,2.0584
22094,22.358,2.8182,0.1,3.6645e-05,366.2,3.5631e-05,340.7,-9.7199e-06,-0.053799,-1.5904e-05,-46.52,2.0718
22095,22.267,2.9091,0.1,3.8254e-05,382.28,3.7379e-05,359.83,-1.0518e-05,-0.051018,-1.6032e-05,-41.481,2.0584
22096,22.358,2.6364,0.1,3.6628e-05,366.03,3.5619e-05,340.65,-9.7254e-06,-0.05366,-1.5881e-05,-46.306,2.0718
22097,22.267,2.7273,0.1,3.8246e-05,382.19,3.7373e-05,359.79,-1.052e-05,-0.050938,-1.6021e-05,-41.388,2.0584
22098,22.358,2.4545,0.1,3.6598e-05,365.73,3.5599e-05,340.57,-9.7353e-06,-0.053404,-1.5841e-05,-45.928,2.0717
22099,22.267,2.5455,0.1,3.8228e-05,382.01,3.7359e-05,359.73,-1.0524e-05,-0.050765,-1.5999e-05,-41.188,2.0584
22100,22.358,2.2727,0.1,3.6552e-05,365.27,3.5568e-05,340.45,-9.7502e-06,-0.052992,-1.578e-05,-45.356,2.0717
22101,22.267,2.3636,0.1,3.8198e-05,381.71,3.7338e-05,359.62,-1.0532e-05,-0.050467,-1.5962e-05,-40.856,2.0584
22102,22.358,2.0909,0.1,3.6488e-05,364.63,3.5525e-05,340.28,-9.7712e-06,-0.052361,-1.5693e-05,-44.549,2.0716
22103,22.267,2.1818,0.1,3.8154e-05,381.27,3.7306e-05,359.47,-1.0543e-05,-0.049999,-1.5907e-05,-40.354,2.0583
22104,22.358,1.9091,0.1,3.6402e-05,363.77,3.5467e-05,340.06,-9.7997e-06,-0.051415,-1.5578e-05,-43.465,2.0716
22105,22.267,2,0.1,3.8092e-05,380.66,3.7262e-05,359.27,-1.056e-05,-0.049282,-1.5829e-05,-39.639,2.0583
22106,22.358,1.7273,0.1,3.6292e-05,362.67,3.5392e-05,339.78,-9.8368e-06,-0.05002,-1.5428e-05,-42.057,2.0715
22107,22.267,1.8182,0.1,3.8011e-05,379.85,3.7205e-05,359.02,-1.0584e-05,-0.048205,-1.5723e-05,-38.663,2.0582
22108,22.358,1.5455,0.1,3.6155e-05,361.3,3.53e-05,339.45,-9.884e-06,-0.047975,-1.5239e-05,-40.285,2.0714
22109,22.267,1.6364,0.1,3.7906e-05,378.8,3.7131e-05,358.71,-1.0616e-05,-0.046606,-1.5585e-05,-37.381,2.0581
22110,22.358,1.3636,0.1,3.5991e-05,359.66,3.519e-05,339.06,-9.9424e-06,-0.045007,-1.501e-05,-38.121,2.0714
22111,22.267,1.4545,0.1,3.7778e-05,377.52,3.7042e-05,358.35,-1.0657e-05,-0.044253,-1.541e-05,-35.756,2.058
22112,22.358,1.1818,0.1,3.5802e-05,357.77,3.5064e-05,338.65,-1.0013e-05,-0.040691,-1.474e-05,-35.558,2.0713
22113,22.267,1.2727,0.1,3.7626e-05,376,3.6938e-05,357.96,-1.071e-05,-0.040843,-1.5199e-05,-33.767,2.058
22114,22.358,1,0.1,3.5594e-05,355.7,3.4926e-05,338.25,-1.0096e-05,-0.034571,-1.4433e-05,-32.621,2.0711
22115,22.267,1.0909,0.1,3.7455e-05,374.3,3.6821e-05,357.58,-1.0774e-05,-0.035856,-1.4951e-05,-31.417,2.0578
22116,22.358,0.81818,0.1,3.5379e-05,353.54,3.4787e-05,337.93,-1.0192e-05,-0.025368,-1.4098e-05,-29.376,2.071
22117,22.267,0.90909,0.1,3.7273e-05,372.48,3.6701e-05,357.26,-1.0851e-05,-0.028941,-1.4673e-05,-28.747,2.0577
22118,22.358,0.63636,0.1,3.5173e-05,351.49,3.466e-05,337.8,-1.03e-05,-0.013803,-1.3751e-05,-25.944,2.0709
22119,22.267,0.72727,0.1,3.7093e-05,370.68,3.6586e-05,357.07,-1.094e-05,-0.018079,-1.4377e-05,-25.838,2.0576
22120,22.358,0.45455,0.1,3.5008e-05,349.84,3.457e-05,338.03,-1.0417e-05,0.012566,-1.3418e-05,-22.53,2.0708
22121,22.267,0.54545,0.1,3.6935e-05,369.09,3.6493e-05,357.15,-1.1041e-05,-0.0067045,-1.4078e-05,-22.829,2.0575
22122,22.358,0.27273,0.1,3.5022e-05,349.98,3.4638e-05,339.53,-1.0546e-05,0.032493,-1.3222e-05,-20.074,2.0706
22123,22.267,0.36364,0.1,3.6835e-05,368.09,3.6455e-05,357.72,-1.115e-05,0.030947,-1.3812e-05,-19.966,2.0573
22124,22.267,0.18182,0.1,3.7048e-05,370.23,3.669e-05,360.41,-1.1274e-05,0.019611,-1.3797e-05,-18.935,2.0572
22125,22.358,0.090909,0.1,3.4358e-05,343.34,3.4114e-05,336.53,-1.0677e-05,-0.0099047,-1.2437e-05,-13.235,2.0705
22126,22.175,5.7273,0.1,3.8825e-05,387.98,3.8475e-05,378.36,-1.1878e-05,0.026891,-1.4356e-05,-18.597,2.0439
22127,22.084,5.8182,0.1,4.0878e-05,408.5,4.0545e-05,399.28,-1.2594e-05,0.015029,-1.4973e-05,-17.861,2.0305
22128,22.175,5.9091,0.1,3.8218e-05,381.91,3.7989e-05,375.49,-1.1986e-05,-0.0083446,-1.3654e-05,-12.542,2.0438
22129,22.175,5.5455,0.1,3.8748e-05,387.21,3.8366e-05,376.74,-1.1774e-05,0.01068,-1.446e-05,-20.171,2.0441
22130,22.084,5.6364,0.1,4.0614e-05,405.86,4.0276e-05,396.51,-1.2494e-05,0.025858,-1.4906e-05,-18.103,2.0306
22131,22.175,5.3636,0.1,3.8845e-05,388.18,3.841e-05,376.35,-1.1681e-05,-0.012097,-1.4695e-05,-22.652,2.0442
22132,22.084,5.4545,0.1,4.0651e-05,406.23,4.0272e-05,395.81,-1.2408e-05,-0.0061747,-1.508e-05,-20.084,2.0308
22133,22.175,5.1818,0.1,3.8981e-05,389.54,3.8492e-05,376.34,-1.16e-05,-0.022509,-1.4944e-05,-25.153,2.0443
22134,22.084,5.2727,0.1,4.0744e-05,407.16,4.0321e-05,395.61,-1.2333e-05,-0.016362,-1.5283e-05,-22.184,2.0309
22135,22.175,5,0.1,3.9131e-05,391.04,3.859e-05,376.55,-1.153e-05,-0.030888,-1.5186e-05,-27.5,2.0444
22136,22.084,5.0909,0.1,4.086e-05,408.32,4.0395e-05,395.67,-1.227e-05,-0.026151,-1.5486e-05,-24.192,2.031
22137,22.175,4.8182,0.1,3.9279e-05,392.51,3.8691e-05,376.86,-1.1472e-05,-0.036541,-1.5405e-05,-29.593,2.0446
22138,22.084,4.9091,0.1,4.0983e-05,409.54,4.0478e-05,395.91,-1.2219e-05,-0.032511,-1.5674e-05,-25.995,2.0312
22139,22.175,4.6364,0.1,3.9414e-05,393.87,3.8786e-05,377.23,-1.1425e-05,-0.040536,-1.5596e-05,-31.376,2.0447
22140,22.084,4.7273,0.1,4.1099e-05,410.71,4.0561e-05,396.24,-1.218e-05,-0.037112,-1.5838e-05,-27.528,2.0313
22141,22.175,4.4545,0.1,3.9532e-05,395.05,3.8871e-05,377.59,-1.1389e-05,-0.043275,-1.5753e-05,-32.833,2.0447
22142,22.084,4.5455,0.1,4.1203e-05,411.75,4.0638e-05,396.59,-1.2151e-05,-0.040254,-1.5974e-05,-28.762,2.0314
22143,22.175,4.2727,0.1,3.963e-05,396.02,3.8942e-05,377.92,-1.1363e-05,-0.045144,-1.5878e-05,-33.973,2.0448
22144,22.084,4.3636,0.1,4.129e-05,412.61,4.0704e-05,396.94,-1.2132e-05,-0.042401,-1.6079e-05,-29.7,2.0315
22145,22.175,4.0909,0.1,3.9707e-05,396.79,3.8999e-05,378.21,-1.1344e-05,-0.046399,-1.5973e-05,-34.826,2.0449
22146,22.084,4.1818,0.1,4.1359e-05,413.3,4.0758e-05,397.26,-1.212e-05,-0.043836,-1.6156e-05,-30.368,2.0315
22147,22.175,3.9091,0.1,3.9765e-05,397.37,3.9043e-05,378.45,-1.1332e-05,-0.047231,-1.6042e-05,-35.435,2.045
22148,22.084,4,0.1,4.141e-05,413.82,4.08e-05,397.53,-1.2115e-05,-0.044782,-1.6209e-05,-30.807,2.0316
22149,22.175,3.7273,0.1,3.9807e-05,397.79,3.9075e-05,378.63,-1.1325e-05,-0.047773,-1.6089e-05,-35.848,2.045
22150,22.084,3.8182,0.1,4.1447e-05,414.18,4.083e-05,397.76,-1.2114e-05,-0.045395,-1.6242e-05,-31.066,2.0316
22151,22.175,3.5455,0.1,3.9835e-05,398.08,3.9097e-05,378.77,-1.132e-05,-0.048119,-1.612e-05,-36.11,2.045
22152,22.084,3.6364,0.1,4.1472e-05,414.43,4.0852e-05,397.93,-1.2115e-05,-0.045786,-1.6261e-05,-31.197,2.0317
22153,22.175,3.3636,0.1,3.9854e-05,398.26,3.9112e-05,378.87,-1.1319e-05,-0.048331,-1.6139e-05,-36.265,2.0451
22154,22.084,3.4545,0.1,4.1487e-05,414.58,4.0866e-05,398.06,-1.2118e-05,-0.046029,-1.627e-05,-31.248,2.0317
22155,22.175,3.1818,0.1,3.9863e-05,398.36,3.912e-05,378.92,-1.1318e-05,-0.048444,-1.6148e-05,-36.344,2.0451
22156,22.084,3.2727,0.1,4.1496e-05,414.67,4.0875e-05,398.14,-1.212e-05,-0.046169,-1.6274e-05,-31.258,2.0317
22157,22.175,3,0.1,3.9867e-05,398.39,3.9123e-05,378.94,-1.1318e-05,-0.048479,-1.6151e-05,-36.368,2.0451
22158,22.084,3.0909,0.1,4.15e-05,414.71,4.0879e-05,398.18,-1.2121e-05,-0.046233,-1.6275e-05,-31.255,2.0318
22159,22.175,2.8182,0.1,3.9863e-05,398.36,3.912e-05,378.92,-1.1318e-05,-0.048443,-1.6148e-05,-36.344,2.0451
22160,22.084,2.9091,0.1,4.15e-05,414.71,4.0879e-05,398.18,-1.2121e-05,-0.046233,-1.6275e-05,-31.255,2.0318
22161,22.175,2.6364,0.1,3.9854e-05,398.26,3.9112e-05,378.87,-1.1319e-05,-0.048331,-1.6139e-05,-36.265,2.0451
22162,22.084,2.7273,0.1,4.1496e-05,414.67,4.0875e-05,398.14,-1.212e-05,-0.046168,-1.6274e-05,-31.258,2.0317
22163,22.175,2.4545,0.1,3.9835e-05,398.08,3.9097e-05,378.77,-1.132e-05,-0.04812,-1.612e-05,-36.11,2.045
22164,22.084,2.5455,0.1,4.1487e-05,414.58,4.0866e-05,398.06,-1.2118e-05,-0.046029,-1.627e-05,-31.248,2.0317
22165,22.175,2.2727,0.1,3.9807e-05,397.79,3.9075e-05,378.63,-1.1325e-05,-0.047772,-1.6089e-05,-35.847,2.045
22166,22.084,2.3636,0.1,4.1472e-05,414.43,4.0852e-05,397.93,-1.2115e-05,-0.045786,-1.6261e-05,-31.197,2.0317
22167,22.175,2.0909,0.1,3.9765e-05,397.37,3.9043e-05,378.45,-1.1332e-05,-0.04723,-1.6042e-05,-35.435,2.045
22168,22.084,2.1818,0.1,4.1447e-05,414.18,4.083e-05,397.76,-1.2114e-05,-0.045394,-1.6242e-05,-31.066,2.0316
22169,22.175,1.9091,0.1,3.9707e-05,396.79,3.8999e-05,378.21,-1.1344e-05,-0.046399,-1.5973e-05,-34.826,2.0449
22170,22.084,2,0.1,4.141e-05,413.82,4.08e-05,397.53,-1.2115e-05,-0.044782,-1.6209e-05,-30.807,2.0316
22171,22.175,1.7273,0.1,3.963e-05,396.02,3.8942e-05,377.92,-1.1363e-05,-0.045144,-1.5878e-05,-33.973,2.0448
22172,22.084,1.8182,0.1,4.1359e-05,413.3,4.0758e-05,397.26,-1.212e-05,-0.043836,-1.6156e-05,-30.368,2.0315
22173,22.175,1.5455,0.1,3.9532e-05,395.05,3.8871e-05,377.59,-1.1389e-05,-0.043275,-1.5753e-05,-32.833,2.0447
22174,22.084,1.6364,0.1,4.129e-05,412.61,4.0704e-05,396.94,-1.2132e-05,-0.0424,-1.6079e-05,-29.7,2.0315
22175,22.175,1.3636,0.1,3.9414e-05,393.87,3.8786e-05,377.23,-1.1425e-05,-0.040537,-1.5596e-05,-31.376,2.0447
22176,22.084,1.4545,0.1,4.1203e-05,411.75,4.0638e-05,396.59,-1.2151e-05,-0.040255,-1.5974e-05,-28.762,2.0314
22177,22.175,1.1818,0.1,3.9279e-05,392.51,3.8691e-05,376.86,-1.1472e-05,-0.036542,-1.5405e-05,-29.593,2.0446
22178,22.084,1.2727,0.1,4.1099e-05,410.71,4.0561e-05,396.24,-1.218e-05,-0.037113,-1.5838e-05,-27.528,2.0313
22179,22.175,1,0.1,3.9131e-05,391.04,3.859e-05,376.55,-1.153e-05,-0.03089,-1.5185e-05,-27.5,2.0444
22180,22.084,1.0909,0.1,4.0983e-05,409.54,4.0478e-05,395.91,-1.2219e-05,-0.032513,-1.5674e-05,-25.995,2.0312
22181,22.175,0.81818,0.1,3.8981e-05,389.54,3.8492e-05,376.34,-1.16e-05,-0.02251,-1.4944e-05,-25.153,2.0443
22182,22.084,0.90909,0.1,4.086e-05,408.32,4.0395e-05,395.67,-1.227e-05,-0.026151,-1.5486e-05,-24.192,2.031
22183,22.175,0.63636,0.1,3.8845e-05,388.18,3.841e-05,376.35,-1.1681e-05,-0.012099,-1.4695e-05,-22.652,2.0442
22184,22.084,0.72727,0.1,4.0744e-05,407.16,4.0321e-05,395.61,-1.2333e-05,-0.016362,-1.5283e-05,-22.184,2.0309
22185,22.175,0.45455,0.1,3.8748e-05,387.21,3.8366e-05,376.74,-1.1774e-05,0.01068,-1.446e-05,-20.171,2.0441
22186,22.084,0.54545,0.1,4.0651e-05,406.23,4.0272e-05,395.81,-1.2408e-05,-0.0061763,-1.508e-05,-20.084,2.0308
22187,22.175,0.27273,0.1,3.8825e-05,387.98,3.8475e-05,378.36,-1.1878e-05,0.026892,-1.4356e-05,-18.597,2.0439
22188,22.084,0.36364,0.1,4.0614e-05,405.86,4.0276e-05,396.51,-1.2494e-05,0.025858,-1.4906e-05,-18.103,2.0306
22189,22.084,0.18182,0.1,4.0878e-05,408.5,4.0545e-05,399.28,-1.2594e-05,0.015031,-1.4973e-05,-17.861,2.0305
22190,22.175,0.090909,0.1,3.8218e-05,381.91,3.7989e-05,375.49,-1.1986e-05,-0.0083461,-1.3654e-05,-12.542,2.0438
22191,21.993,5.7273,0.1,4.2634e-05,426.04,4.2316e-05,417.21,-1.3209e-05,0.021803,-1.5495e-05,-17.156,2.0172
22192,21.902,5.8182,0.1,4.4707e-05,446.76,4.4398e-05,438.13,-1.3913e-05,0.011316,-1.6149e-05,-16.788,2.0038
22193,21.993,5.9091,0.1,4.2082e-05,420.53,4.1868e-05,414.47,-1.3297e-05,-0.0074825,-1.4872e-05,-11.846,2.0171
22194,21.993,5.5455,0.1,4.2504e-05,424.75,4.2171e-05,415.5,-1.3128e-05,0.0083848,-1.5516e-05,-17.932,2.0174
22195,21.902,5.6364,0.1,4.4401e-05,443.7,4.4101e-05,435.33,-1.3835e-05,0.020854,-1.601e-05,-16.325,2.004
22196,21.993,5.3636,0.1,4.2541e-05,425.12,4.2175e-05,415,-1.306e-05,-0.011286,-1.566e-05,-19.549,2.0175
22197,21.902,5.4545,0.1,4.4385e-05,443.54,4.4061e-05,434.53,-1.3772e-05,-0.0063336,-1.61e-05,-17.492,2.0041
22198,21.993,5.1818,0.1,4.2617e-05,425.87,4.2217e-05,414.88,-1.3004e-05,-0.020684,-1.5818e-05,-21.169,2.0176
22199,21.902,5.2727,0.1,4.4421e-05,443.9,4.4072e-05,434.23,-1.3722e-05,-0.015506,-1.6214e-05,-18.738,2.0043
22200,21.993,5,0.1,4.2708e-05,426.78,4.2277e-05,415,-1.2959e-05,-0.028311,-1.5969e-05,-22.644,2.0178
22201,21.902,5.0909,0.1,4.4481e-05,444.5,4.4109e-05,434.21,-1.3685e-05,-0.02433,-1.6327e-05,-19.879,2.0044
22202,21.993,4.8182,0.1,4.2801e-05,427.72,4.2344e-05,415.25,-1.2927e-05,-0.033516,-1.6103e-05,-23.897,2.0179
22203,21.902,4.9091,0.1,4.4549e-05,445.19,4.4158e-05,434.39,-1.366e-05,-0.030172,-1.6428e-05,-20.827,2.0045
22204,21.993,4.6364,0.1,4.2888e-05,428.58,4.241e-05,415.58,-1.2905e-05,-0.037189,-1.6213e-05,-24.888,2.018
22205,21.902,4.7273,0.1,4.4617e-05,445.86,4.4211e-05,434.68,-1.3647e-05,-0.034392,-1.6508e-05,-21.536,2.0046
22206,21.993,4.4545,0.1,4.2962e-05,429.32,4.2468e-05,415.93,-1.2893e-05,-0.039687,-1.6296e-05,-25.609,2.0181
22207,21.902,4.5455,0.1,4.4676e-05,446.45,4.4261e-05,435.03,-1.3643e-05,-0.037253,-1.6565e-05,-21.993,2.0047
22208,21.993,4.2727,0.1,4.3021e-05,429.92,4.2518e-05,416.27,-1.2889e-05,-0.041363,-1.6355e-05,-26.08,2.0182
22209,21.902,4.3636,0.1,4.4723e-05,446.92,4.4304e-05,435.39,-1.3648e-05,-0.039173,-1.6599e-05,-22.21,2.0048
22210,21.993,4.0909,0.1,4.3066e-05,430.36,4.2557e-05,416.57,-1.2891e-05,-0.042462,-1.639e-05,-26.337,2.0182
22211,21.902,4.1818,0.1,4.4758e-05,447.27,4.4338e-05,435.73,-1.3659e-05,-0.040421,-1.6611e-05,-22.223,2.0049
22212,21.993,3.9091,0.1,4.3097e-05,430.68,4.2586e-05,416.83,-1.2897e-05,-0.04317,-1.6408e-05,-26.429,2.0183
22213,21.902,4,0.1,4.4781e-05,447.5,4.4364e-05,436.03,-1.3674e-05,-0.041219,-1.6607e-05,-22.083,2.0049
22214,21.993,3.7273,0.1,4.3117e-05,430.88,4.2607e-05,417.05,-1.2904e-05,-0.043621,-1.6413e-05,-26.409,2.0183
22215,21.902,3.8182,0.1,4.4794e-05,447.63,4.4382e-05,436.29,-1.369e-05,-0.041719,-1.6592e-05,-21.845,2.005
22216,21.993,3.5455,0.1,4.3129e-05,431,4.2621e-05,417.21,-1.2912e-05,-0.043902,-1.6411e-05,-26.33,2.0184
22217,21.902,3.6364,0.1,4.48e-05,447.69,4.4394e-05,436.5,-1.3706e-05,-0.042034,-1.6571e-05,-21.569,2.005
22218,21.993,3.3636,0.1,4.3136e-05,431.06,4.2629e-05,417.32,-1.2919e-05,-0.04407,-1.6405e-05,-26.236,2.0184
22219,21.902,3.4545,0.1,4.4801e-05,447.71,4.44e-05,436.65,-1.372e-05,-0.042228,-1.655e-05,-21.309,2.0051
22220,21.993,3.1818,0.1,4.3139e-05,431.09,4.2633e-05,417.39,-1.2924e-05,-0.044161,-1.64e-05,-26.165,2.0184
22221,21.902,3.2727,0.1,4.4801e-05,447.7,4.4404e-05,436.75,-1.373e-05,-0.042343,-1.6534e-05,-21.108,2.0051
22222,21.993,3,0.1,4.3139e-05,431.1,4.2635e-05,417.41,-1.2925e-05,-0.04419,-1.6398e-05,-26.139,2.0184
22223,21.902,3.0909,0.1,4.48e-05,447.69,4.4405e-05,436.8,-1.3735e-05,-0.042397,-1.6524e-05,-21,2.0051
22224,21.993,2.8182,0.1,4.3139e-05,431.09,4.2633e-05,417.39,-1.2924e-05,-0.044161,-1.64e-05,-26.165,2.0184
22225,21.902,2.9091,0.1,4.48e-05,447.69,4.4405e-05,436.8,-1.3735e-05,-0.042396,-1.6524e-05,-21,2.0051
22226,21.993,2.6364,0.1,4.3136e-05,431.06,4.2629e-05,417.32,-1.2919e-05,-0.04407,-1.6405e-05,-26.236,2.0184
22227,21.902,2.7273,0.1,4.4801e-05,447.7,4.4404e-05,436.75,-1.373e-05,-0.042343,-1.6534e-05,-21.108,2.0051
22228,21.993,2.4545,0.1,4.3129e-05,431,4.2621e-05,417.21,-1.2912e-05,-0.043901,-1.6411e-05,-26.33,2.0184
22229,21.902,2.5455,0.1,4.4801e-05,447.71,4.44e-05,436.65,-1.372e-05,-0.042227,-1.655e-05,-21.309,2.0051
22230,21.993,2.2727,0.1,4.3117e-05,430.88,4.2607e-05,417.05,-1.2904e-05,-0.043621,-1.6413e-05,-26.409,2.0183
22231,21.902,2.3636,0.1,4.48e-05,447.69,4.4394e-05,436.5,-1.3706e-05,-0.042034,-1.6571e-05,-21.569,2.005
22232,21.993,2.0909,0.1,4.3097e-05,430.68,4.2586e-05,416.83,-1.2897e-05,-0.04317,-1.6408e-05,-26.429,2.0183
22233,21.902,2.1818,0.1,4.4794e-05,447.63,4.4382e-05,436.29,-1.369e-05,-0.04172,-1.6592e-05,-21.845,2.005
22234,21.993,1.9091,0.1,4.3066e-05,430.36,4.2557e-05,416.57,-1.2891e-05,-0.042461,-1.639e-05,-26.337,2.0182
22235,21.902,2,0.1,4.4781e-05,447.5,4.4364e-05,436.03,-1.3674e-05,-0.041219,-1.6607e-05,-22.083,2.0049
22236,21.993,1.7273,0.1,4.3021e-05,429.92,4.2518e-05,416.27,-1.2889e-05,-0.041362,-1.6355e-05,-26.08,2.0182
22237,21.902,1.8182,0.1,4.4758e-05,447.27,4.4338e-05,435.73,-1.3659e-05,-0.040422,-1.6611e-05,-22.223,2.0049
22238,21.993,1.5455,0.1,4.2962e-05,429.32,4.2468e-05,415.93,-1.2893e-05,-0.039687,-1.6296e-05,-25.609,2.0181
22239,21.902,1.6364,0.1,4.4723e-05,446.92,4.4304e-05,435.39,-1.3648e-05,-0.039173,-1.6599e-05,-22.21,2.0048
22240,21.993,1.3636,0.1,4.2888e-05,428.58,4.241e-05,415.58,-1.2905e-05,-0.03719,-1.6213e-05,-24.888,2.018
22241,21.902,1.4545,0.1,4.4676e-05,446.45,4.4261e-05,435.03,-1.3643e-05,-0.037254,-1.6565e-05,-21.993,2.0047
22242,21.993,1.1818,0.1,4.2801e-05,427.72,4.2344e-05,415.25,-1.2927e-05,-0.033516,-1.6103e-05,-23.897,2.0179
22243,21.902,1.2727,0.1,4.4617e-05,445.86,4.4211e-05,434.68,-1.3647e-05,-0.034392,-1.6508e-05,-21.536,2.0046
22244,21.993,1,0.1,4.2708e-05,426.78,4.2277e-05,415,-1.2959e-05,-0.02831,-1.5969e-05,-22.644,2.0178
22245,21.902,1.0909,0.1,4.4549e-05,445.19,4.4158e-05,434.39,-1.366e-05,-0.030174,-1.6428e-05,-20.827,2.0045
22246,21.993,0.81818,0.1,4.2617e-05,425.87,4.2217e-05,414.88,-1.3004e-05,-0.020682,-1.5818e-05,-21.169,2.0176
22247,21.902,0.90909,0.1,4.4481e-05,444.5,4.4109e-05,434.21,-1.3685e-05,-0.02433,-1.6327e-05,-19.879,2.0044
22248,21.993,0.63636,0.1,4.2541e-05,425.12,4.2175e-05,415,-1.306e-05,-0.011286,-1.566e-05,-19.549,2.0175
22249,21.902,0.72727,0.1,4.4421e-05,443.9,4.4072e-05,434.23,-1.3722e-05,-0.015506,-1.6214e-05,-18.738,2.0043
22250,21.993,0.45455,0.1,4.2504e-05,424.75,4.2171e-05,415.5,-1.3128e-05,0.0083843,-1.5516e-05,-17.932,2.0174
22251,21.902,0.54545,0.1,4.4385e-05,443.54,4.4061e-05,434.53,-1.3772e-05,-0.0063352,-1.61e-05,-17.492,2.0041
22252,21.993,0.27273,0.1,4.2634e-05,426.04,4.2316e-05,417.21,-1.3209e-05,0.021804,-1.5495e-05,-17.156,2.0172
22253,21.902,0.36364,0.1,4.4401e-05,443.7,4.4101e-05,435.33,-1.3835e-05,0.020855,-1.601e-05,-16.325,2.004
22254,21.902,0.18182,0.1,4.4707e-05,446.76,4.4398e-05,438.13,-1.3913e-05,0.011316,-1.6149e-05,-16.788,2.0038
22255,21.993,0.090909,0.1,4.2082e-05,420.53,4.1868e-05,414.47,-1.3297e-05,-0.00748,-1.4872e-05,-11.846,2.0171
22256,21.811,5.7273,0.1,4.6444e-05,464.12,4.6156e-05,456.04,-1.4538e-05,0.017176,-1.6638e-05,-15.76,1.9906
22257,21.719,5.8182,0.1,4.8531e-05,484.97,4.8244e-05,476.92,-1.5229e-05,0.0083104,-1.7324e-05,-15.73,1.9772
22258,21.811,5.9091,0.1,4.5944e-05,459.13,4.5744e-05,453.44,-1.4606e-05,-0.0071652,-1.609e-05,-11.155,1.9904
22259,21.811,5.5455,0.1,4.627e-05,462.38,4.5981e-05,454.28,-1.4479e-05,0.0058024,-1.6584e-05,-15.808,1.9907
22260,21.719,5.6364,0.1,4.8191e-05,481.58,4.7926e-05,474.11,-1.5171e-05,0.015982,-1.7121e-05,-14.634,1.9773
22261,21.811,5.3636,0.1,4.6256e-05,462.24,4.595e-05,453.7,-1.4435e-05,-0.011178,-1.6645e-05,-16.619,1.9909
22262,21.719,5.4545,0.1,4.8129e-05,480.96,4.7855e-05,473.25,-1.5132e-05,-0.007049,-1.7134e-05,-15.047,1.9775
22263,21.811,5.1818,0.1,4.6278e-05,462.46,4.5957e-05,453.51,-1.4404e-05,-0.019685,-1.6716e-05,-17.397,1.991
22264,21.719,5.2727,0.1,4.8116e-05,480.83,4.7834e-05,472.89,-1.5107e-05,-0.015354,-1.7165e-05,-15.483,1.9776
22265,21.811,5,0.1,4.6317e-05,462.85,4.5984e-05,453.57,-1.4386e-05,-0.026627,-1.6781e-05,-18.02,1.9911
22266,21.719,5.0909,0.1,4.8127e-05,480.94,4.7839e-05,472.84,-1.5096e-05,-0.023313,-1.7193e-05,-15.783,1.9778
22267,21.811,4.8182,0.1,4.6362e-05,463.3,4.602e-05,453.79,-1.438e-05,-0.031404,-1.6829e-05,-18.434,1.9912
22268,21.719,4.9091,0.1,4.8148e-05,481.15,4.7858e-05,473,-1.5098e-05,-0.028666,-1.7208e-05,-15.884,1.9779
22269,21.811,4.6364,0.1,4.6403e-05,463.71,4.6058e-05,454.11,-1.4385e-05,-0.034748,-1.6858e-05,-18.616,1.9913
22270,21.719,4.7273,0.1,4.8171e-05,481.38,4.7883e-05,473.29,-1.5112e-05,-0.032502,-1.7205e-05,-15.759,1.978
22271,21.811,4.4545,0.1,4.6437e-05,464.05,4.6093e-05,454.47,-1.4398e-05,-0.036982,-1.6865e-05,-18.573,1.9914
22272,21.719,4.5455,0.1,4.819e-05,481.57,4.7909e-05,473.66,-1.5136e-05,-0.035056,-1.7183e-05,-15.412,1.9781
22273,21.811,4.2727,0.1,4.6461e-05,464.29,4.6122e-05,454.84,-1.4418e-05,-0.038435,-1.6854e-05,-18.338,1.9915
22274,21.719,4.3636,0.1,4.8202e-05,481.68,4.7931e-05,474.06,-1.5167e-05,-0.036705,-1.7142e-05,-14.873,1.9782
22275,21.811,4.0909,0.1,4.6476e-05,464.44,4.6144e-05,455.18,-1.4442e-05,-0.039352,-1.6827e-05,-17.957,1.9916
22276,21.719,4.1818,0.1,4.8205e-05,481.72,4.7947e-05,474.45,-1.5203e-05,-0.037722,-1.7086e-05,-14.19,1.9783
22277,21.811,3.9091,0.1,4.6481e-05,464.49,4.6158e-05,455.48,-1.4468e-05,-0.03992,-1.679e-05,-17.49,1.9917
22278,21.719,4,0.1,4.8201e-05,481.68,4.7958e-05,474.81,-1.524e-05,-0.038332,-1.7022e-05,-13.425,1.9783
22279,21.811,3.7273,0.1,4.6481e-05,464.49,4.6168e-05,455.74,-1.4492e-05,-0.040272,-1.6749e-05,-16.998,1.9917
22280,21.719,3.8182,0.1,4.8192e-05,481.59,4.7964e-05,475.12,-1.5276e-05,-0.0387,-1.6954e-05,-12.648,1.9784
22281,21.811,3.5455,0.1,4.6477e-05,464.45,4.6173e-05,455.94,-1.4514e-05,-0.040496,-1.671e-05,-16.543,1.9917
22282,21.719,3.6364,0.1,4.8181e-05,481.47,4.7966e-05,475.38,-1.5308e-05,-0.038944,-1.6891e-05,-11.927,1.9784
22283,21.811,3.3636,0.1,4.6472e-05,464.4,4.6175e-05,456.08,-1.4531e-05,-0.040639,-1.6678e-05,-16.176,1.9918
22284,21.719,3.4545,0.1,4.8169e-05,481.36,4.7966e-05,475.58,-1.5335e-05,-0.039121,-1.6837e-05,-11.324,1.9785
22285,21.811,3.1818,0.1,4.6468e-05,464.36,4.6176e-05,456.16,-1.4542e-05,-0.040722,-1.6657e-05,-15.939,1.9918
22286,21.719,3.2727,0.1,4.816e-05,481.27,4.7965e-05,475.71,-1.5353e-05,-0.039251,-1.6798e-05,-10.891,1.9785
22287,21.811,3,0.1,4.6466e-05,464.34,4.6176e-05,456.19,-1.4545e-05,-0.040748,-1.665e-05,-15.856,1.9918
22288,21.719,3.0909,0.1,4.8155e-05,481.22,4.7964e-05,475.77,-1.5363e-05,-0.039322,-1.6777e-05,-10.665,1.9785
22289,21.811,2.8182,0.1,4.6468e-05,464.36,4.6176e-05,456.16,-1.4542e-05,-0.040721,-1.6657e-05,-15.939,1.9918
22290,21.719,2.9091,0.1,4.8155e-05,481.22,4.7964e-05,475.77,-1.5363e-05,-0.039322,-1.6777e-05,-10.665,1.9785
22291,21.811,2.6364,0.1,4.6472e-05,464.4,4.6175e-05,456.08,-1.4531e-05,-0.040639,-1.6678e-05,-16.176,1.9918
22292,21.719,2.7273,0.1,4.816e-05,481.27,4.7965e-05,475.71,-1.5353e-05,-0.039251,-1.6798e-05,-10.891,1.9785
22293,21.811,2.4545,0.1,4.6477e-05,464.45,4.6173e-05,455.94,-1.4514e-05,-0.040496,-1.671e-05,-16.543,1.9917
22294,21.719,2.5455,0.1,4.8169e-05,481.36,4.7966e-05,475.58,-1.5335e-05,-0.039121,-1.6837e-05,-11.324,1.9785
22295,21.811,2.2727,0.1,4.6481e-05,464.49,4.6168e-05,455.74,-1.4492e-05,-0.040272,-1.6749e-05,-16.998,1.9917
22296,21.719,2.3636,0.1,4.8181e-05,481.47,4.7966e-05,475.38,-1.5308e-05,-0.038944,-1.6891e-05,-11.927,1.9784
22297,21.811,2.0909,0.1,4.6481e-05,464.49,4.6158e-05,455.48,-1.4468e-05,-0.03992,-1.679e-05,-17.49,1.9917
22298,21.719,2.1818,0.1,4.8192e-05,481.59,4.7964e-05,475.12,-1.5276e-05,-0.0387,-1.6954e-05,-12.648,1.9784
22299,21.811,1.9091,0.1,4.6476e-05,464.44,4.6144e-05,455.18,-1.4442e-05,-0.039352,-1.6827e-05,-17.957,1.9916
22300,21.719,2,0.1,4.8201e-05,481.68,4.7958e-05,474.81,-1.524e-05,-0.038331,-1.7022e-05,-13.425,1.9783
22301,21.811,1.7273,0.1,4.6461e-05,464.29,4.6122e-05,454.84,-1.4418e-05,-0.038436,-1.6854e-05,-18.338,1.9915
22302,21.719,1.8182,0.1,4.8205e-05,481.72,4.7947e-05,474.45,-1.5203e-05,-0.037722,-1.7086e-05,-14.19,1.9783
22303,21.811,1.5455,0.1,4.6437e-05,464.05,4.6093e-05,454.47,-1.4398e-05,-0.036983,-1.6865e-05,-18.573,1.9914
22304,21.719,1.6364,0.1,4.8202e-05,481.68,4.7931e-05,474.06,-1.5167e-05,-0.036706,-1.7142e-05,-14.873,1.9782
22305,21.811,1.3636,0.1,4.6403e-05,463.71,4.6058e-05,454.11,-1.4385e-05,-0.034749,-1.6858e-05,-18.616,1.9913
22306,21.719,1.4545,0.1,4.819e-05,481.57,4.7909e-05,473.66,-1.5136e-05,-0.035056,-1.7183e-05,-15.412,1.9781
22307,21.811,1.1818,0.1,4.6362e-05,463.3,4.602e-05,453.79,-1.438e-05,-0.031405,-1.6829e-05,-18.434,1.9912
22308,21.719,1.2727,0.1,4.8171e-05,481.38,4.7883e-05,473.29,-1.5112e-05,-0.032502,-1.7205e-05,-15.759,1.978
22309,21.811,1,0.1,4.6317e-05,462.85,4.5984e-05,453.57,-1.4386e-05,-0.026629,-1.6781e-05,-18.02,1.9911
22310,21.719,1.0909,0.1,4.8148e-05,481.15,4.7858e-05,473,-1.5098e-05,-0.028666,-1.7208e-05,-15.884,1.9779
22311,21.811,0.81818,0.1,4.6278e-05,462.46,4.5957e-05,453.51,-1.4404e-05,-0.019686,-1.6716e-05,-17.397,1.991
22312,21.719,0.90909,0.1,4.8127e-05,480.94,4.7839e-05,472.84,-1.5096e-05,-0.023315,-1.7193e-05,-15.783,1.9778
22313,21.811,0.63636,0.1,4.6256e-05,462.24,4.595e-05,453.7,-1.4435e-05,-0.011179,-1.6645e-05,-16.619,1.9909
22314,21.719,0.72727,0.1,4.8116e-05,480.83,4.7834e-05,472.89,-1.5107e-05,-0.015355,-1.7165e-05,-15.483,1.9776
22315,21.811,0.45455,0.1,4.627e-05,462.38,4.5981e-05,454.28,-1.4479e-05,0.0058031,-1.6584e-05,-15.808,1.9907
22316,21.719,0.54545,0.1,4.8129e-05,480.96,4.7855e-05,473.25,-1.5132e-05,-0.0070479,-1.7134e-05,-15.047,1.9775
22317,21.811,0.27273,0.1,4.6444e-05,464.12,4.6156e-05,456.04,-1.4538e-05,0.017176,-1.6638e-05,-15.76,1.9906
22318,21.719,0.36364,0.1,4.8191e-05,481.58,4.7926e-05,474.11,-1.5171e-05,0.015985,-1.7121e-05,-14.634,1.9773
22319,21.719,0.18182,0.1,4.8531e-05,484.97,4.8244e-05,476.92,-1.5229e-05,0.0083087,-1.7324e-05,-15.73,1.9772
22320,21.811,0.090909,0.1,4.5944e-05,459.13,4.5744e-05,453.44,-1.4606e-05,-0.0071674,-1.609e-05,-11.155,1.9904
22321,21.628,5.7273,0.1,5.025e-05,502.15,4.9989e-05,494.79,-1.5862e-05,0.012985,-1.7783e-05,-14.421,1.9639
22322,21.537,5.8182,0.1,5.2343e-05,523.07,5.2078e-05,515.57,-1.6539e-05,0.0059118,-1.8497e-05,-14.705,1.9505
22323,21.628,5.9091,0.1,4.98e-05,497.65,4.9613e-05,492.33,-1.5913e-05,-0.0073047,-1.7306e-05,-10.48,1.9637
22324,21.628,5.5455,0.1,5.004e-05,500.05,4.9791e-05,493.01,-1.5824e-05,0.0030091,-1.7662e-05,-13.803,1.9641
22325,21.537,5.6364,0.1,5.1978e-05,519.42,5.1744e-05,512.79,-1.6502e-05,0.011289,-1.8239e-05,-13.041,1.9507
22326,21.628,5.3636,0.1,4.9982e-05,499.47,4.9731e-05,492.39,-1.5804e-05,-0.011665,-1.7646e-05,-13.854,1.9642
22327,21.537,5.4545,0.1,5.1878e-05,518.42,5.1649e-05,511.92,-1.6485e-05,-0.0082395,-1.8181e-05,-12.752,1.9509
22328,21.628,5.1818,0.1,4.9959e-05,499.24,4.9709e-05,492.18,-1.5799e-05,-0.01939,-1.7636e-05,-13.821,1.9644
22329,21.537,5.2727,0.1,5.1824e-05,517.88,5.1601e-05,511.55,-1.6485e-05,-0.015815,-1.8135e-05,-12.413,1.951
22330,21.628,5,0.1,4.9953e-05,499.18,4.9707e-05,492.23,-1.5808e-05,-0.025703,-1.7616e-05,-13.607,1.9645
22331,21.537,5.0909,0.1,5.1793e-05,517.57,5.158e-05,511.51,-1.6501e-05,-0.022994,-1.8081e-05,-11.892,1.9512
22332,21.628,4.8182,0.1,4.9954e-05,499.2,4.9717e-05,492.46,-1.583e-05,-0.030059,-1.758e-05,-13.177,1.9646
22333,21.537,4.9091,0.1,5.1773e-05,517.37,5.1574e-05,511.7,-1.6532e-05,-0.027872,-1.8012e-05,-11.146,1.9513
22334,21.628,4.6364,0.1,4.9956e-05,499.21,4.973e-05,492.82,-1.5864e-05,-0.033051,-1.7527e-05,-12.53,1.9647
22335,21.537,4.7273,0.1,5.1758e-05,517.22,5.1577e-05,512.04,-1.6576e-05,-0.031297,-1.7926e-05,-10.171,1.9514
22336,21.628,4.4545,0.1,4.9954e-05,499.19,4.9744e-05,493.23,-1.5905e-05,-0.034964,-1.7457e-05,-11.692,1.9648
22337,21.537,4.5455,0.1,5.1741e-05,517.05,5.1582e-05,512.48,-1.663e-05,-0.033455,-1.7822e-05,-8.9914,1.9515
22338,21.628,4.2727,0.1,4.9946e-05,499.11,4.9754e-05,493.65,-1.5952e-05,-0.036116,-1.7372e-05,-10.709,1.9649
22339,21.537,4.3636,0.1,5.1721e-05,516.85,5.1586e-05,512.97,-1.669e-05,-0.034672,-1.7705e-05,-7.6555,1.9516
22340,21.628,4.0909,0.1,4.9932e-05,498.98,4.9761e-05,494.07,-1.6001e-05,-0.036761,-1.728e-05,-9.6462,1.965
22341,21.537,4.1818,0.1,5.1697e-05,516.61,5.1587e-05,513.45,-1.6753e-05,-0.035204,-1.7578e-05,-6.2303,1.9517
22342,21.628,3.9091,0.1,4.9915e-05,498.8,4.9763e-05,494.44,-1.6048e-05,-0.037114,-1.7185e-05,-8.5748,1.9651
22343,21.537,4,0.1,5.1669e-05,516.34,5.1586e-05,513.91,-1.6816e-05,-0.035274,-1.7449e-05,-4.7945,1.9517
22344,21.628,3.7273,0.1,4.9895e-05,498.61,4.9761e-05,494.76,-1.6092e-05,-0.037339,-1.7095e-05,-7.57,1.9651
22345,21.537,3.8182,0.1,5.1641e-05,516.05,5.1581e-05,514.31,-1.6874e-05,-0.035078,-1.7326e-05,-3.432,1.9518
22346,21.628,3.5455,0.1,4.9877e-05,498.42,4.9759e-05,495.02,-1.6129e-05,-0.037541,-1.7016e-05,-6.7029,1.9651
22347,21.537,3.6364,0.1,5.1614e-05,515.78,5.1575e-05,514.65,-1.6925e-05,-0.034782,-1.7217e-05,-2.2249,1.9518
22348,21.628,3.3636,0.1,4.9861e-05,498.27,4.9755e-05,495.2,-1.6157e-05,-0.037753,-1.6956e-05,-6.0352,1.9652
22349,21.537,3.4545,0.1,5.1591e-05,515.55,5.1569e-05,514.91,-1.6966e-05,-0.034555,-1.7127e-05,-1.2471,1.9519
22350,21.628,3.1818,0.1,4.9851e-05,498.17,4.9752e-05,495.32,-1.6175e-05,-0.037932,-1.6917e-05,-5.6145,1.9652
22351,21.537,3.2727,0.1,5.1574e-05,515.38,5.1564e-05,515.08,-1.6995e-05,-0.034678,-1.7064e-05,-0.55891,1.9519
22352,21.628,3,0.1,4.9847e-05,498.13,4.9752e-05,495.35,-1.6181e-05,-0.038005,-1.6904e-05,-5.4708,1.9652
22353,21.537,3.0909,0.1,5.1565e-05,515.29,5.1561e-05,515.17,-1.7009e-05,-0.036074,-1.7032e-05,-0.20238,1.9519
22354,21.628,2.8182,0.1,4.9851e-05,498.17,4.9752e-05,495.32,-1.6175e-05,-0.037933,-1.6917e-05,-5.6145,1.9652
22355,21.537,2.9091,0.1,5.1565e-05,515.29,5.1561e-05,515.17,-1.7009e-05,-0.036074,-1.7032e-05,-0.20238,1.9519
22356,21.628,2.6364,0.1,4.9861e-05,498.27,4.9755e-05,495.2,-1.6157e-05,-0.037753,-1.6956e-05,-6.0352,1.9652
22357,21.537,2.7273,0.1,5.1574e-05,515.38,5.1564e-05,515.08,-1.6995e-05,-0.034679,-1.7064e-05,-0.5589,1.9519
22358,21.628,2.4545,0.1,4.9877e-05,498.42,4.9759e-05,495.02,-1.6129e-05,-0.037542,-1.7016e-05,-6.7029,1.9651
22359,21.537,2.5455,0.1,5.1591e-05,515.55,5.1569e-05,514.91,-1.6966e-05,-0.034554,-1.7127e-05,-1.2471,1.9519
22360,21.628,2.2727,0.1,4.9895e-05,498.61,4.9761e-05,494.76,-1.6092e-05,-0.037339,-1.7095e-05,-7.57,1.9651
22361,21.537,2.3636,0.1,5.1614e-05,515.78,5.1575e-05,514.65,-1.6925e-05,-0.034783,-1.7217e-05,-2.2249,1.9518
22362,21.628,2.0909,0.1,4.9915e-05,498.8,4.9763e-05,494.44,-1.6048e-05,-0.037113,-1.7185e-05,-8.5748,1.9651
22363,21.537,2.1818,0.1,5.1641e-05,516.05,5.1581e-05,514.31,-1.6874e-05,-0.035077,-1.7326e-05,-3.432,1.9518
22364,21.628,1.9091,0.1,4.9932e-05,498.98,4.9761e-05,494.07,-1.6001e-05,-0.036761,-1.728e-05,-9.6462,1.965
22365,21.537,2,0.1,5.1669e-05,516.34,5.1586e-05,513.91,-1.6816e-05,-0.035275,-1.7449e-05,-4.7945,1.9517
22366,21.628,1.7273,0.1,4.9946e-05,499.11,4.9754e-05,493.65,-1.5952e-05,-0.036116,-1.7372e-05,-10.709,1.9649
22367,21.537,1.8182,0.1,5.1697e-05,516.61,5.1587e-05,513.45,-1.6753e-05,-0.035203,-1.7578e-05,-6.2303,1.9517
22368,21.628,1.5455,0.1,4.9954e-05,499.19,4.9744e-05,493.23,-1.5905e-05,-0.034964,-1.7457e-05,-11.692,1.9648
22369,21.537,1.6364,0.1,5.1721e-05,516.85,5.1586e-05,512.97,-1.669e-05,-0.034672,-1.7705e-05,-7.6555,1.9516
22370,21.628,1.3636,0.1,4.9956e-05,499.21,4.973e-05,492.82,-1.5864e-05,-0.033051,-1.7527e-05,-12.53,1.9647
22371,21.537,1.4545,0.1,5.1741e-05,517.05,5.1582e-05,512.48,-1.663e-05,-0.033454,-1.7822e-05,-8.9914,1.9515
22372,21.628,1.1818,0.1,4.9954e-05,499.2,4.9717e-05,492.46,-1.583e-05,-0.030059,-1.758e-05,-13.177,1.9646
22373,21.537,1.2727,0.1,5.1758e-05,517.22,5.1577e-05,512.04,-1.6576e-05,-0.031297,-1.7926e-05,-10.171,1.9514
22374,21.628,1,0.1,4.9953e-05,499.18,4.9707e-05,492.23,-1.5808e-05,-0.025703,-1.7616e-05,-13.607,1.9645
22375,21.537,1.0909,0.1,5.1773e-05,517.37,5.1574e-05,511.7,-1.6532e-05,-0.027872,-1.8012e-05,-11.146,1.9513
22376,21.628,0.81818,0.1,4.9959e-05,499.24,4.9709e-05,492.18,-1.5799e-05,-0.019391,-1.7636e-05,-13.821,1.9644
22377,21.537,0.90909,0.1,5.1793e-05,517.57,5.158e-05,511.51,-1.6501e-05,-0.022996,-1.8081e-05,-11.892,1.9512
22378,21.628,0.63636,0.1,4.9982e-05,499.47,4.9731e-05,492.39,-1.5804e-05,-0.011664,-1.7646e-05,-13.854,1.9642
22379,21.537,0.72727,0.1,5.1824e-05,517.88,5.1601e-05,511.55,-1.6485e-05,-0.015816,-1.8135e-05,-12.413,1.951
22380,21.628,0.45455,0.1,5.004e-05,500.05,4.9791e-05,493.01,-1.5824e-05,0.0030123,-1.7662e-05,-13.803,1.9641
22381,21.537,0.54545,0.1,5.1878e-05,518.42,5.1649e-05,511.92,-1.6485e-05,-0.0082369,-1.8181e-05,-12.752,1.9509
22382,21.628,0.27273,0.1,5.025e-05,502.15,4.9989e-05,494.79,-1.5862e-05,0.012985,-1.7783e-05,-14.421,1.9639
22383,21.537,0.36364,0.1,5.1978e-05,519.42,5.1744e-05,512.79,-1.6502e-05,0.011292,-1.8239e-05,-13.041,1.9507
22384,21.537,0.18182,0.1,5.2343e-05,523.07,5.2078e-05,515.57,-1.6539e-05,0.0059105,-1.8497e-05,-14.705,1.9505
22385,21.628,0.090909,0.1,4.98e-05,497.65,4.9613e-05,492.33,-1.5913e-05,-0.0073073,-1.7306e-05,-10.48,1.9637
22386,21.446,5.7273,0.1,5.4045e-05,540.08,5.3809e-05,533.39,-1.7179e-05,0.0092345,-1.893e-05,-13.153,1.9373
22387,21.354,5.8182,0.1,5.6138e-05,560.99,5.5892e-05,554,-1.7841e-05,0.0040504,-1.9669e-05,-13.73,1.9239
22388,21.446,5.9091,0.1,5.364e-05,536.03,5.3466e-05,531.04,-1.7213e-05,-0.0078687,-1.852e-05,-9.8288,1.9371
22389,21.446,5.5455,0.1,5.3806e-05,537.69,5.3594e-05,531.63,-1.7162e-05,6.6776e-05,-1.8749e-05,-11.925,1.9375
22390,21.354,5.6364,0.1,5.5754e-05,557.16,5.5548e-05,551.29,-1.7823e-05,0.0068224,-1.9362e-05,-11.56,1.9241
22391,21.446,5.3636,0.1,5.3712e-05,536.75,5.3512e-05,531.03,-1.7166e-05,-0.012678,-1.8662e-05,-11.258,1.9376
22392,21.354,5.4545,0.1,5.5623e-05,555.85,5.5435e-05,550.46,-1.7828e-05,-0.0098585,-1.924e-05,-10.616,1.9243
22393,21.446,5.1818,0.1,5.3652e-05,536.15,5.3466e-05,530.84,-1.7187e-05,-0.01972,-1.8574e-05,-10.438,1.9378
22394,21.354,5.2727,0.1,5.5537e-05,554.98,5.5368e-05,550.15,-1.7854e-05,-0.016838,-1.9121e-05,-9.5333,1.9244
22395,21.446,5,0.1,5.3608e-05,535.71,5.3442e-05,530.94,-1.7226e-05,-0.025446,-1.8472e-05,-9.3926,1.9379
22396,21.354,5.0909,0.1,5.5472e-05,554.33,5.5327e-05,550.17,-1.79e-05,-0.023311,-1.8988e-05,-8.2016,1.9246
22397,21.446,4.8182,0.1,5.3573e-05,535.36,5.343e-05,531.25,-1.7278e-05,-0.02936,-1.8354e-05,-8.1088,1.9381
22398,21.354,4.9091,0.1,5.5419e-05,553.81,5.5303e-05,550.46,-1.7962e-05,-0.027687,-1.8838e-05,-6.6029,1.9247
22399,21.446,4.6364,0.1,5.3541e-05,535.04,5.3425e-05,531.69,-1.7343e-05,-0.03188,-1.8218e-05,-6.6076,1.9382
22400,21.354,4.7273,0.1,5.5372e-05,553.33,5.5289e-05,550.93,-1.8039e-05,-0.0305,-1.8668e-05,-4.756,1.9248
22401,21.446,4.4545,0.1,5.3508e-05,534.71,5.3421e-05,532.2,-1.7415e-05,-0.03315,-1.8068e-05,-4.9361,1.9383
22402,21.354,4.5455,0.1,5.5326e-05,552.88,5.5279e-05,551.5,-1.8126e-05,-0.031362,-1.8482e-05,-2.7087,1.9249
22403,21.446,4.2727,0.1,5.3472e-05,534.35,5.3417e-05,532.75,-1.7492e-05,-0.033141,-1.7908e-05,-3.1624,1.9383
22404,21.354,4.3636,0.1,5.528e-05,552.41,5.527e-05,552.13,-1.8217e-05,-0.020594,-1.8287e-05,-0.5423,1.925
22405,21.446,4.0909,0.1,5.3435e-05,533.98,5.3411e-05,533.28,-1.7568e-05,-0.030216,-1.7747e-05,-1.371,1.9384
22406,21.354,4.1818,0.1,5.5233e-05,551.94,5.5261e-05,552.77,-1.8083e-05,1.6961,-1.8314e-05,-0.04013,1.9251
22407,21.446,3.9091,0.1,5.3397e-05,533.6,5.3403e-05,533.77,-1.7587e-05,0.37718,-1.7644e-05,-0.05381,1.9385
22408,21.354,4,0.1,5.5186e-05,551.48,5.525e-05,553.38,-1.7887e-05,3.8543,-1.8405e-05,-0.037772,1.9252
22409,21.446,3.7273,0.1,5.3362e-05,533.25,5.3393e-05,534.19,-1.7446e-05,1.9261,-1.7708e-05,-0.039229,1.9385
22410,21.354,3.8182,0.1,5.5141e-05,551.03,5.5238e-05,553.92,-1.7705e-05,5.8527,-1.8489e-05,-0.036876,1.9252
22411,21.446,3.5455,0.1,5.3331e-05,532.94,5.3384e-05,534.53,-1.7326e-05,3.2414,-1.7763e-05,-0.037332,1.9386
22412,21.354,3.6364,0.1,5.5102e-05,550.64,5.5226e-05,554.38,-1.7546e-05,7.5907,-1.8561e-05,-0.036213,1.9253
22413,21.446,3.3636,0.1,5.3306e-05,532.7,5.3377e-05,534.78,-1.7235e-05,4.2382,-1.7804e-05,-0.036464,1.9386
22414,21.354,3.4545,0.1,5.507e-05,550.32,5.5216e-05,554.73,-1.7419e-05,8.98,-1.8619e-05,-0.035679,1.9253
22415,21.446,3.1818,0.1,5.3291e-05,532.54,5.3371e-05,534.94,-1.7178e-05,4.8599,-1.7829e-05,-0.036011,1.9386
22416,21.354,3.2727,0.1,5.5047e-05,550.09,5.5209e-05,554.98,-1.733e-05,9.9486,-1.8659e-05,-0.035295,1.9253
22417,21.446,3,0.1,5.3286e-05,532.49,5.337e-05,534.99,-1.7158e-05,5.0712,-1.7838e-05,-0.035866,1.9386
22418,21.354,3.0909,0.1,5.5035e-05,549.97,5.5204e-05,555.1,-1.7284e-05,10.446,-1.8679e-05,-0.035093,1.9254
22419,21.446,2.8182,0.1,5.3291e-05,532.54,5.3371e-05,534.94,-1.7178e-05,4.8599,-1.7829e-05,-0.036011,1.9386
22420,21.354,2.9091,0.1,5.5035e-05,549.97,5.5204e-05,555.1,-1.7284e-05,10.446,-1.8679e-05,-0.035093,1.9254
22421,21.446,2.6364,0.1,5.3306e-05,532.7,5.3377e-05,534.78,-1.7235e-05,4.2382,-1.7804e-05,-0.036463,1.9386
22422,21.354,2.7273,0.1,5.5047e-05,550.09,5.5209e-05,554.98,-1.733e-05,9.9486,-1.8659e-05,-0.035295,1.9253
22423,21.446,2.4545,0.1,5.3331e-05,532.94,5.3384e-05,534.53,-1.7326e-05,3.2414,-1.7763e-05,-0.037332,1.9386
22424,21.354,2.5455,0.1,5.507e-05,550.32,5.5216e-05,554.73,-1.7419e-05,8.98,-1.8619e-05,-0.035679,1.9253
22425,21.446,2.2727,0.1,5.3362e-05,533.25,5.3393e-05,534.19,-1.7446e-05,1.9261,-1.7708e-05,-0.039229,1.9385
22426,21.354,2.3636,0.1,5.5102e-05,550.64,5.5226e-05,554.38,-1.7546e-05,7.5908,-1.8561e-05,-0.036213,1.9253
22427,21.446,2.0909,0.1,5.3397e-05,533.6,5.3403e-05,533.77,-1.7587e-05,0.37721,-1.7644e-05,-0.053809,1.9385
22428,21.354,2.1818,0.1,5.5141e-05,551.03,5.5238e-05,553.92,-1.7705e-05,5.8527,-1.8489e-05,-0.036876,1.9252
22429,21.446,1.9091,0.1,5.3435e-05,533.98,5.3411e-05,533.28,-1.7568e-05,-0.030217,-1.7746e-05,-1.3709,1.9384
22430,21.354,2,0.1,5.5186e-05,551.48,5.525e-05,553.38,-1.7887e-05,3.8543,-1.8405e-05,-0.037773,1.9252
22431,21.446,1.7273,0.1,5.3472e-05,534.35,5.3417e-05,532.75,-1.7492e-05,-0.033141,-1.7908e-05,-3.1624,1.9383
22432,21.354,1.8182,0.1,5.5233e-05,551.94,5.5261e-05,552.77,-1.8083e-05,1.6961,-1.8314e-05,-0.04013,1.9251
22433,21.446,1.5455,0.1,5.3508e-05,534.71,5.3421e-05,532.2,-1.7415e-05,-0.03315,-1.8068e-05,-4.9361,1.9383
22434,21.354,1.6364,0.1,5.528e-05,552.41,5.527e-05,552.13,-1.8217e-05,-0.020593,-1.8287e-05,-0.54227,1.925
22435,21.446,1.3636,0.1,5.3541e-05,535.04,5.3425e-05,531.69,-1.7343e-05,-0.03188,-1.8218e-05,-6.6076,1.9382
22436,21.354,1.4545,0.1,5.5326e-05,552.88,5.5279e-05,551.5,-1.8126e-05,-0.031362,-1.8482e-05,-2.7087,1.9249
22437,21.446,1.1818,0.1,5.3573e-05,535.36,5.343e-05,531.25,-1.7278e-05,-0.02936,-1.8354e-05,-8.1088,1.9381
22438,21.354,1.2727,0.1,5.5372e-05,553.33,5.5289e-05,550.93,-1.8039e-05,-0.030501,-1.8668e-05,-4.756,1.9248
22439,21.446,1,0.1,5.3608e-05,535.71,5.3442e-05,530.94,-1.7226e-05,-0.025447,-1.8472e-05,-9.3926,1.9379
22440,21.354,1.0909,0.1,5.5419e-05,553.81,5.5303e-05,550.46,-1.7962e-05,-0.027687,-1.8838e-05,-6.6029,1.9247
22441,21.446,0.81818,0.1,5.3652e-05,536.15,5.3466e-05,530.84,-1.7187e-05,-0.019722,-1.8574e-05,-10.438,1.9378
22442,21.354,0.90909,0.1,5.5472e-05,554.33,5.5327e-05,550.17,-1.79e-05,-0.023313,-1.8988e-05,-8.2016,1.9246
22443,21.446,0.63636,0.1,5.3712e-05,536.75,5.3512e-05,531.03,-1.7166e-05,-0.012678,-1.8662e-05,-11.258,1.9376
22444,21.354,0.72727,0.1,5.5536e-05,554.98,5.5368e-05,550.15,-1.7854e-05,-0.01684,-1.9121e-05,-9.5333,1.9244
22445,21.446,0.45455,0.1,5.3806e-05,537.69,5.3594e-05,531.63,-1.7162e-05,6.9348e-05,-1.8749e-05,-11.925,1.9375
22446,21.354,0.54545,0.1,5.5623e-05,555.85,5.5435e-05,550.46,-1.7828e-05,-0.0098575,-1.924e-05,-10.616,1.9243
22447,21.446,0.27273,0.1,5.4045e-05,540.08,5.3809e-05,533.39,-1.7179e-05,0.009236,-1.893e-05,-13.154,1.9373
22448,21.354,0.36364,0.1,5.5754e-05,557.16,5.5548e-05,551.29,-1.7823e-05,0.0068246,-1.9362e-05,-11.56,1.9241
22449,21.354,0.18182,0.1,5.6138e-05,560.99,5.5892e-05,554,-1.7841e-05,0.0040508,-1.9669e-05,-13.73,1.9239
22450,21.446,0.090909,0.1,5.364e-05,536.03,5.3466e-05,531.04,-1.7213e-05,-0.0078701,-1.852e-05,-9.8288,1.9371
22451,21.263,5.7273,0.1,5.7821e-05,577.82,5.7609e-05,571.74,-1.8484e-05,0.0059418,-2.0079e-05,-11.976,1.9108
22452,21.172,5.8182,0.1,5.9904e-05,598.62,5.9675e-05,592.11,-1.9129e-05,0.0026767,-2.0837e-05,-12.825,1.8974
22453,21.263,5.9091,0.1,5.7455e-05,574.15,5.7293e-05,569.49,-1.8503e-05,-0.0088821,-1.9728e-05,-9.2134,1.9106
22454,21.263,5.5455,0.1,5.7562e-05,575.22,5.7382e-05,570.06,-1.8489e-05,-0.0029821,-1.9845e-05,-10.19,1.9109
22455,21.172,5.6364,0.1,5.951e-05,594.69,5.9329e-05,589.52,-1.913e-05,0.0026503,-2.0489e-05,-10.212,1.8976
22456,21.263,5.3636,0.1,5.744e-05,574.01,5.7285e-05,569.53,-1.8517e-05,-0.01419,-1.9692e-05,-8.8409,1.9111
22457,21.172,5.4545,0.1,5.9358e-05,593.17,5.9205e-05,588.79,-1.9159e-05,-0.01186,-2.0309e-05,-8.6555,1.8977
22458,21.263,5.1818,0.1,5.735e-05,573.11,5.7223e-05,569.44,-1.8567e-05,-0.020643,-1.953e-05,-7.2531,1.9112
22459,21.172,5.2727,0.1,5.9247e-05,592.06,5.9127e-05,588.59,-1.9212e-05,-0.018376,-2.0122e-05,-6.8544,1.8979
22460,21.263,5,0.1,5.7277e-05,572.38,5.7183e-05,569.66,-1.8637e-05,-0.025784,-1.9349e-05,-5.3753,1.9114
22461,21.172,5.0909,0.1,5.9157e-05,591.16,5.9075e-05,588.77,-1.929e-05,-0.02416,-1.9914e-05,-4.7184,1.8981
22462,21.263,4.8182,0.1,5.7214e-05,571.74,5.7158e-05,570.11,-1.8723e-05,-0.028983,-1.9148e-05,-3.2201,1.9115
22463,21.172,4.9091,0.1,5.9079e-05,590.38,5.904e-05,589.24,-1.9387e-05,-0.027526,-1.9683e-05,-2.2543,1.8982
22464,21.263,4.6364,0.1,5.7154e-05,571.15,5.714e-05,570.72,-1.8822e-05,-0.027282,-1.8929e-05,-0.8358,1.9116
22465,21.172,4.7273,0.1,5.9009e-05,589.68,5.9017e-05,589.91,-1.9429e-05,0.50399,-1.9501e-05,-0.038998,1.8983
22466,21.263,4.4545,0.1,5.7097e-05,570.57,5.7125e-05,571.41,-1.8696e-05,1.7222,-1.893e-05,-0.037139,1.9117
22467,21.172,4.5455,0.1,5.8942e-05,589.01,5.8999e-05,590.71,-1.916e-05,3.459,-1.9625e-05,-0.035076,1.8984
22468,21.263,4.2727,0.1,5.704e-05,570,5.7112e-05,572.14,-1.8458e-05,4.3394,-1.9041e-05,-0.036365,1.9118
22469,21.172,4.3636,0.1,5.8876e-05,588.36,5.8984e-05,591.58,-1.8881e-05,6.5323,-1.9755e-05,-0.035598,1.8985
22470,21.263,4.0909,0.1,5.6984e-05,569.45,5.7098e-05,572.86,-1.8224e-05,6.9208,-1.915e-05,-0.036207,1.9119
22471,21.172,4.1818,0.1,5.8813e-05,587.73,5.897e-05,592.45,-1.8602e-05,9.6038,-1.9885e-05,-0.035796,1.8986
22472,21.263,3.9091,0.1,5.6931e-05,568.92,5.7084e-05,573.52,-1.8002e-05,9.353,-1.9252e-05,-0.035905,1.9119
22473,21.172,4,0.1,5.8753e-05,587.13,5.8956e-05,593.28,-1.8335e-05,12.548,-2.001e-05,-0.035645,1.8987
22474,21.263,3.7273,0.1,5.6884e-05,568.44,5.707e-05,574.1,-1.7804e-05,11.525,-1.9343e-05,-0.035483,1.912
22475,21.172,3.8182,0.1,5.8698e-05,586.58,5.8942e-05,594.03,-1.809e-05,15.24,-2.0123e-05,-0.035273,1.8987
22476,21.263,3.5455,0.1,5.6843e-05,568.04,5.7058e-05,574.57,-1.7638e-05,13.335,-1.9418e-05,-0.035035,1.912
22477,21.172,3.6364,0.1,5.8651e-05,586.1,5.8929e-05,594.67,-1.7879e-05,17.559,-2.0221e-05,-0.034808,1.8988
22478,21.263,3.3636,0.1,5.6813e-05,567.73,5.7048e-05,574.92,-1.7514e-05,14.694,-1.9474e-05,-0.034649,1.9121
22479,21.172,3.4545,0.1,5.8613e-05,585.72,5.8918e-05,595.16,-1.7711e-05,19.4,-2.0298e-05,-0.034361,1.8988
22480,21.263,3.1818,0.1,5.6794e-05,567.54,5.7041e-05,575.14,-1.7437e-05,15.538,-1.9509e-05,-0.034391,1.9121
22481,21.172,3.2727,0.1,5.8586e-05,585.46,5.891e-05,595.51,-1.7595e-05,20.678,-2.0351e-05,-0.034017,1.8988
22482,21.263,3,0.1,5.6787e-05,567.48,5.7039e-05,575.21,-1.741e-05,15.824,-1.9521e-05,-0.0343,1.9121
22483,21.172,3.0909,0.1,5.8573e-05,585.32,5.8906e-05,595.68,-1.7535e-05,21.332,-2.0379e-05,-0.033831,1.8988
22484,21.263,2.8182,0.1,5.6794e-05,567.54,5.7041e-05,575.14,-1.7437e-05,15.538,-1.9509e-05,-0.03439,1.9121
22485,21.172,2.9091,0.1,5.8573e-05,585.32,5.8906e-05,595.68,-1.7535e-05,21.332,-2.0379e-05,-0.03383,1.8988
22486,21.263,2.6364,0.1,5.6813e-05,567.73,5.7048e-05,574.92,-1.7514e-05,14.694,-1.9474e-05,-0.034649,1.9121
22487,21.172,2.7273,0.1,5.8586e-05,585.46,5.891e-05,595.51,-1.7595e-05,20.678,-2.0351e-05,-0.034017,1.8988
22488,21.263,2.4545,0.1,5.6843e-05,568.04,5.7058e-05,574.57,-1.7638e-05,13.335,-1.9418e-05,-0.035035,1.912
22489,21.172,2.5455,0.1,5.8613e-05,585.72,5.8918e-05,595.16,-1.7711e-05,19.4,-2.0298e-05,-0.034361,1.8988
22490,21.263,2.2727,0.1,5.6884e-05,568.44,5.707e-05,574.1,-1.7804e-05,11.525,-1.9343e-05,-0.035483,1.912
22491,21.172,2.3636,0.1,5.8651e-05,586.1,5.8929e-05,594.67,-1.7879e-05,17.559,-2.0221e-05,-0.034807,1.8988
22492,21.263,2.0909,0.1,5.6931e-05,568.92,5.7084e-05,573.52,-1.8002e-05,9.3531,-1.9252e-05,-0.035905,1.9119
22493,21.172,2.1818,0.1,5.8698e-05,586.58,5.8942e-05,594.03,-1.809e-05,15.24,-2.0123e-05,-0.035273,1.8987
22494,21.263,1.9091,0.1,5.6984e-05,569.45,5.7098e-05,572.86,-1.8224e-05,6.9208,-1.915e-05,-0.036207,1.9119
22495,21.172,2,0.1,5.8753e-05,587.13,5.8956e-05,593.28,-1.8335e-05,12.548,-2.001e-05,-0.035645,1.8987
22496,21.263,1.7273,0.1,5.704e-05,570,5.7112e-05,572.14,-1.8458e-05,4.3394,-1.9041e-05,-0.036364,1.9118
22497,21.172,1.8182,0.1,5.8813e-05,587.73,5.897e-05,592.45,-1.8602e-05,9.6038,-1.9885e-05,-0.035795,1.8986
22498,21.263,1.5455,0.1,5.7097e-05,570.57,5.7125e-05,571.41,-1.8696e-05,1.7223,-1.893e-05,-0.037138,1.9117
22499,21.172,1.6364,0.1,5.8876e-05,588.36,5.8984e-05,591.58,-1.8881e-05,6.5323,-1.9755e-05,-0.035599,1.8985
22500,21.263,1.3636,0.1,5.7154e-05,571.15,5.714e-05,570.72,-1.8822e-05,-0.027282,-1.8929e-05,-0.83577,1.9116
22501,21.172,1.4545,0.1,5.8942e-05,589.01,5.8999e-05,590.71,-1.916e-05,3.459,-1.9625e-05,-0.035075,1.8984
22502,21.263,1.1818,0.1,5.7214e-05,571.74,5.7158e-05,570.11,-1.8723e-05,-0.028984,-1.9148e-05,-3.2201,1.9115
22503,21.172,1.2727,0.1,5.9009e-05,589.68,5.9017e-05,589.91,-1.9429e-05,0.50402,-1.9501e-05,-0.038997,1.8983
22504,21.263,1,0.1,5.7277e-05,572.38,5.7183e-05,569.66,-1.8637e-05,-0.025785,-1.9349e-05,-5.3753,1.9114
22505,21.172,1.0909,0.1,5.9079e-05,590.38,5.904e-05,589.24,-1.9387e-05,-0.027527,-1.9683e-05,-2.2543,1.8982
22506,21.263,0.81818,0.1,5.735e-05,573.11,5.7223e-05,569.44,-1.8567e-05,-0.020645,-1.9529e-05,-7.2531,1.9112
22507,21.172,0.90909,0.1,5.9157e-05,591.16,5.9075e-05,588.77,-1.929e-05,-0.024161,-1.9914e-05,-4.7184,1.8981
22508,21.263,0.63636,0.1,5.744e-05,574.01,5.7285e-05,569.53,-1.8517e-05,-0.014191,-1.9692e-05,-8.8409,1.9111
22509,21.172,0.72727,0.1,5.9247e-05,592.06,5.9127e-05,588.59,-1.9212e-05,-0.018378,-2.0122e-05,-6.8544,1.8979
22510,21.263,0.45455,0.1,5.7562e-05,575.22,5.7382e-05,570.06,-1.8489e-05,-0.0029815,-1.9845e-05,-10.19,1.9109
22511,21.172,0.54545,0.1,5.9358e-05,593.17,5.9205e-05,588.78,-1.9159e-05,-0.011859,-2.0309e-05,-8.6555,1.8977
22512,21.263,0.27273,0.1,5.7821e-05,577.82,5.7609e-05,571.74,-1.8484e-05,0.0059428,-2.0079e-05,-11.976,1.9108
22513,21.172,0.36364,0.1,5.951e-05,594.69,5.9329e-05,589.52,-1.913e-05,0.0026516,-2.0489e-05,-10.212,1.8976
22514,21.172,0.18182,0.1,5.9904e-05,598.62,5.9675e-05,592.11,-1.9129e-05,0.0026775,-2.0837e-05,-12.825,1.8974
22515,21.263,0.090909,0.1,5.7455e-05,574.15,5.7293e-05,569.49,-1.8503e-05,-0.0088827,-1.9728e-05,-9.2135,1.9106
22516,21.081,5.7273,0.1,6.1568e-05,615.26,6.1375e-05,609.73,-1.9775e-05,0.0031587,-2.1227e-05,-10.909,1.8842
22517,20.989,5.8182,0.1,6.3629e-05,635.85,6.3416e-05,629.76,-2.04e-05,0.0017664,-2.1998e-05,-12.011,1.8709
22518,21.081,5.9091,0.1,6.1233e-05,611.91,6.1082e-05,607.54,-1.9778e-05,-0.010418,-2.0927e-05,-8.6452,1.884
22519,21.081,5.5455,0.1,6.1297e-05,612.54,6.1145e-05,608.19,-1.98e-05,-0.0060549,-2.0946e-05,-8.62,1.8844
22520,20.989,5.6364,0.1,6.3234e-05,631.9,6.3075e-05,627.34,-2.0419e-05,-0.0010851,-2.1619e-05,-9.0185,1.8711
22521,21.081,5.3636,0.1,6.1157e-05,611.15,6.1041e-05,607.8,-1.9854e-05,-0.016132,-2.0733e-05,-6.6215,1.8846
22522,20.989,5.4545,0.1,6.307e-05,630.26,6.2949e-05,626.78,-2.0472e-05,-0.01409,-2.1387e-05,-6.895,1.8712
22523,21.081,5.1818,0.1,6.1047e-05,610.05,6.0973e-05,607.89,-1.9935e-05,-0.022038,-2.0501e-05,-4.2782,1.8847
22524,20.989,5.2727,0.1,6.2945e-05,629.01,6.2868e-05,626.79,-2.0555e-05,-0.020161,-2.1138e-05,-4.3967,1.8714
22525,21.081,5,0.1,6.0954e-05,609.12,6.0926e-05,608.32,-2.0039e-05,-0.025912,-2.0244e-05,-1.5621,1.8849
22526,20.989,5.0909,0.1,6.284e-05,627.97,6.2815e-05,627.23,-2.0667e-05,-0.024111,-2.0858e-05,-1.4574,1.8716
22527,21.081,4.8182,0.1,6.087e-05,608.28,6.0895e-05,609.01,-1.9961e-05,1.494,-2.0164e-05,-0.032542,1.885
22528,20.989,4.9091,0.1,6.2748e-05,627.05,6.278e-05,627.98,-2.0547e-05,1.8985,-2.0804e-05,-0.032088,1.8717
22529,21.081,4.6364,0.1,6.0793e-05,607.51,6.0873e-05,609.89,-1.9658e-05,4.8093,-2.0302e-05,-0.03371,1.8851
22530,20.989,4.7273,0.1,6.2665e-05,626.21,6.2757e-05,628.97,-2.021e-05,5.5877,-2.0958e-05,-0.033565,1.8718
22531,21.081,4.4545,0.1,6.072e-05,606.78,6.0856e-05,610.86,-1.9342e-05,8.2889,-2.045e-05,-0.034813,1.8852
22532,20.989,4.5455,0.1,6.2586e-05,625.43,6.2742e-05,630.11,-1.9855e-05,9.5125,-2.1126e-05,-0.034888,1.8719
22533,21.081,4.2727,0.1,6.0649e-05,606.07,6.0841e-05,611.87,-1.9023e-05,11.811,-2.0599e-05,-0.035314,1.8853
22534,20.989,4.3636,0.1,6.2511e-05,624.68,6.273e-05,631.33,-1.9492e-05,13.543,-2.1299e-05,-0.035539,1.872
22535,21.081,4.0909,0.1,6.0582e-05,605.41,6.0827e-05,612.86,-1.8712e-05,15.242,-2.0745e-05,-0.035338,1.8854
22536,20.989,4.1818,0.1,6.2441e-05,623.98,6.272e-05,632.54,-1.9133e-05,17.534,-2.1471e-05,-0.035637,1.8721
22537,21.081,3.9091,0.1,6.0521e-05,604.79,6.0813e-05,613.78,-1.8422e-05,18.444,-2.0881e-05,-0.035048,1.8855
22538,20.989,4,0.1,6.2376e-05,623.33,6.2711e-05,633.7,-1.8791e-05,21.329,-2.1634e-05,-0.035358,1.8722
22539,21.081,3.7273,0.1,6.0467e-05,604.25,6.08e-05,614.59,-1.8165e-05,21.28,-2.1002e-05,-0.034597,1.8855
22540,20.989,3.8182,0.1,6.2318e-05,622.75,6.2702e-05,634.75,-1.8481e-05,24.776,-2.1783e-05,-0.034866,1.8722
22541,21.081,3.5455,0.1,6.0422e-05,603.8,6.0789e-05,615.25,-1.7952e-05,23.629,-2.1101e-05,-0.034113,1.8855
22542,20.989,3.6364,0.1,6.2269e-05,622.26,6.2693e-05,635.64,-1.8215e-05,27.731,-2.191e-05,-0.034302,1.8723
22543,21.081,3.3636,0.1,6.0389e-05,603.47,6.078e-05,615.74,-1.7792e-05,25.387,-2.1175e-05,-0.033696,1.8856
22544,20.989,3.4545,0.1,6.223e-05,621.87,6.2686e-05,636.34,-1.8004e-05,30.067,-2.201e-05,-0.033782,1.8723
22545,21.081,3.1818,0.1,6.0368e-05,603.26,6.0774e-05,616.05,-1.7693e-05,26.474,-2.1221e-05,-0.033417,1.8856
22546,20.989,3.2727,0.1,6.2203e-05,621.6,6.2681e-05,636.82,-1.7858e-05,31.683,-2.2079e-05,-0.03339,1.8724
22547,21.081,3,0.1,6.0361e-05,603.19,6.0772e-05,616.15,-1.766e-05,26.842,-2.1237e-05,-0.03332,1.8856
22548,20.989,3.0909,0.1,6.219e-05,621.47,6.2678e-05,637.07,-1.7783e-05,32.509,-2.2115e-05,-0.03318,1.8724
22549,21.081,2.8182,0.1,6.0368e-05,603.26,6.0774e-05,616.05,-1.7693e-05,26.474,-2.1221e-05,-0.033417,1.8856
22550,20.989,2.9091,0.1,6.219e-05,621.47,6.2678e-05,637.07,-1.7783e-05,32.509,-2.2115e-05,-0.033179,1.8724
22551,21.081,2.6364,0.1,6.0389e-05,603.47,6.078e-05,615.74,-1.7792e-05,25.387,-2.1175e-05,-0.033696,1.8856
22552,20.989,2.7273,0.1,6.2203e-05,621.6,6.2681e-05,636.82,-1.7858e-05,31.683,-2.2079e-05,-0.033389,1.8724
22553,21.081,2.4545,0.1,6.0422e-05,603.8,6.0789e-05,615.25,-1.7952e-05,23.629,-2.1101e-05,-0.034112,1.8855
22554,20.989,2.5455,0.1,6.223e-05,621.87,6.2686e-05,636.34,-1.8004e-05,30.067,-2.201e-05,-0.033782,1.8723
22555,21.081,2.2727,0.1,6.0467e-05,604.25,6.08e-05,614.59,-1.8165e-05,21.28,-2.1002e-05,-0.034597,1.8855
22556,20.989,2.3636,0.1,6.2269e-05,622.26,6.2693e-05,635.64,-1.8215e-05,27.731,-2.191e-05,-0.034302,1.8723
22557,21.081,2.0909,0.1,6.0521e-05,604.79,6.0813e-05,613.78,-1.8422e-05,18.444,-2.0881e-05,-0.035048,1.8855
22558,20.989,2.1818,0.1,6.2318e-05,622.75,6.2702e-05,634.75,-1.8481e-05,24.776,-2.1783e-05,-0.034866,1.8722
22559,21.081,1.9091,0.1,6.0582e-05,605.41,6.0827e-05,612.86,-1.8712e-05,15.242,-2.0745e-05,-0.035337,1.8854
22560,20.989,2,0.1,6.2376e-05,623.33,6.2711e-05,633.7,-1.8791e-05,21.329,-2.1635e-05,-0.035357,1.8722
22561,21.081,1.7273,0.1,6.0649e-05,606.07,6.0841e-05,611.87,-1.9023e-05,11.811,-2.0599e-05,-0.035315,1.8853
22562,20.989,1.8182,0.1,6.2441e-05,623.98,6.272e-05,632.54,-1.9133e-05,17.534,-2.1471e-05,-0.035637,1.8721
22563,21.081,1.5455,0.1,6.072e-05,606.78,6.0856e-05,610.86,-1.9342e-05,8.2889,-2.045e-05,-0.034813,1.8852
22564,20.989,1.6364,0.1,6.2511e-05,624.68,6.273e-05,631.33,-1.9492e-05,13.543,-2.1299e-05,-0.03554,1.872
22565,21.081,1.3636,0.1,6.0793e-05,607.51,6.0873e-05,609.89,-1.9658e-05,4.8093,-2.0302e-05,-0.033709,1.8851
22566,20.989,1.4545,0.1,6.2586e-05,625.43,6.2742e-05,630.11,-1.9855e-05,9.5126,-2.1126e-05,-0.034889,1.8719
22567,21.081,1.1818,0.1,6.087e-05,608.28,6.0895e-05,609.01,-1.9961e-05,1.4941,-2.0164e-05,-0.032541,1.885
22568,20.989,1.2727,0.1,6.2665e-05,626.21,6.2757e-05,628.97,-2.021e-05,5.5877,-2.0958e-05,-0.033564,1.8718
22569,21.081,1,0.1,6.0954e-05,609.12,6.0926e-05,608.32,-2.0039e-05,-0.025913,-2.0244e-05,-1.5621,1.8849
22570,20.989,1.0909,0.1,6.2748e-05,627.05,6.278e-05,627.98,-2.0547e-05,1.8985,-2.0804e-05,-0.032088,1.8717
22571,21.081,0.81818,0.1,6.1047e-05,610.05,6.0973e-05,607.89,-1.9935e-05,-0.022039,-2.0501e-05,-4.2782,1.8847
22572,20.989,0.90909,0.1,6.284e-05,627.97,6.2815e-05,627.23,-2.0667e-05,-0.024112,-2.0858e-05,-1.4574,1.8716
22573,21.081,0.63636,0.1,6.1157e-05,611.15,6.1041e-05,607.8,-1.9854e-05,-0.016132,-2.0733e-05,-6.6215,1.8846
22574,20.989,0.72727,0.1,6.2945e-05,629.01,6.2868e-05,626.79,-2.0555e-05,-0.020163,-2.1138e-05,-4.3967,1.8714
22575,21.081,0.45455,0.1,6.1297e-05,612.54,6.1145e-05,608.19,-1.98e-05,-0.0060533,-2.0946e-05,-8.62,1.8844
22576,20.989,0.54545,0.1,6.307e-05,630.26,6.2949e-05,626.78,-2.0472e-05,-0.01409,-2.1387e-05,-6.895,1.8712
22577,21.081,0.27273,0.1,6.1568e-05,615.26,6.1375e-05,609.73,-1.9775e-05,0.0031599,-2.1227e-05,-10.909,1.8842
22578,20.989,0.36364,0.1,6.3234e-05,631.9,6.3075e-05,627.34,-2.0419e-05,-0.0010828,-2.1619e-05,-9.0186,1.8711
22579,20.989,0.18182,0.1,6.3629e-05,635.85,6.3416e-05,629.76,-2.04e-05,0.0017683,-2.1998e-05,-12.011,1.8709
22580,21.081,0.090909,0.1,6.1233e-05,611.91,6.1082e-05,607.54,-1.9778e-05,-0.010415,-2.0927e-05,-8.6452,1.884
22581,20.898,5.7273,0.1,6.5272e-05,652.27,6.5096e-05,647.22,-2.1044e-05,0.00099929,-2.2371e-05,-9.9768,1.8577
22582,20.807,5.8182,0.1,6.7297e-05,672.51,6.7098e-05,666.78,-2.1645e-05,0.0013077,-2.3151e-05,-11.311,1.8444
22583,20.898,5.9091,0.1,6.4959e-05,649.15,6.4817e-05,645.03,-2.1033e-05,-0.012557,-2.2115e-05,-8.1368,1.8575
22584,20.898,5.5455,0.1,6.4998e-05,649.53,6.4872e-05,645.88,-2.1091e-05,-0.0089251,-2.2053e-05,-7.24,1.8579
22585,20.807,5.6364,0.1,6.6911e-05,668.64,6.6771e-05,664.6,-2.1683e-05,-0.0041188,-2.2748e-05,-8.0096,1.8446
22586,20.898,5.3636,0.1,6.4851e-05,648.06,6.477e-05,645.73,-2.1173e-05,-0.018142,-2.1786e-05,-4.6248,1.8581
22587,20.807,5.4545,0.1,6.6746e-05,667,6.6653e-05,664.29,-2.1761e-05,-0.016063,-2.2473e-05,-5.3638,1.8448
22588,20.898,5.1818,0.1,6.4732e-05,646.87,6.4705e-05,646.09,-2.1287e-05,-0.022273,-2.1489e-05,-1.5358,1.8583
22589,20.807,5.2727,0.1,6.6619e-05,665.73,6.6582e-05,664.63,-2.1878e-05,-0.020316,-2.2166e-05,-2.1888,1.845
22590,20.898,5,0.1,6.463e-05,645.85,6.4664e-05,646.85,-2.1156e-05,2.0384,-2.1431e-05,-0.031084,1.8584
22591,20.807,5.0909,0.1,6.6513e-05,664.67,6.6539e-05,665.43,-2.1816e-05,1.5705,-2.203e-05,-0.033358,1.8451
22592,20.898,4.8182,0.1,6.4538e-05,644.94,6.4638e-05,647.91,-2.0792e-05,6.0207,-2.1598e-05,-0.032947,1.8585
22593,20.807,4.9091,0.1,6.6419e-05,663.73,6.6516e-05,666.61,-2.1429e-05,5.834,-2.2209e-05,-0.033575,1.8453
22594,20.898,4.6364,0.1,6.4454e-05,644.1,6.4623e-05,649.18,-2.0404e-05,10.314,-2.1782e-05,-0.03462,1.8587
22595,20.807,4.7273,0.1,6.6335e-05,662.89,6.6507e-05,668.07,-2.1008e-05,10.511,-2.2412e-05,-0.035304,1.8454
22596,20.898,4.4545,0.1,6.4376e-05,643.31,6.4614e-05,650.56,-2.0003e-05,14.785,-2.1975e-05,-0.03552,1.8588
22597,20.807,4.5455,0.1,6.6257e-05,662.12,6.6506e-05,669.69,-2.0567e-05,15.462,-2.2629e-05,-0.036318,1.8455
22598,20.898,4.2727,0.1,6.4302e-05,642.58,6.4608e-05,651.98,-1.96e-05,19.28,-2.2171e-05,-0.03578,1.8589
22599,20.807,4.3636,0.1,6.6186e-05,661.4,6.651e-05,671.4,-2.0117e-05,20.521,-2.2853e-05,-0.036649,1.8456
22600,20.898,4.0909,0.1,6.4234e-05,641.9,6.4603e-05,653.37,-1.921e-05,23.631,-2.236e-05,-0.035581,1.8589
22601,20.807,4.1818,0.1,6.612e-05,660.75,6.6517e-05,673.11,-1.9675e-05,25.505,-2.3074e-05,-0.03646,1.8457
22602,20.898,3.9091,0.1,6.4173e-05,641.29,6.4599e-05,654.66,-1.8849e-05,27.669,-2.2536e-05,-0.035102,1.859
22603,20.807,4,0.1,6.6061e-05,660.16,6.6523e-05,674.73,-1.9256e-05,30.226,-2.3283e-05,-0.035936,1.8458
22604,20.898,3.7273,0.1,6.4121e-05,640.77,6.4594e-05,655.79,-1.853e-05,31.232,-2.2691e-05,-0.034498,1.8591
22605,20.807,3.8182,0.1,6.601e-05,659.65,6.6529e-05,676.2,-1.8877e-05,34.498,-2.3473e-05,-0.035245,1.8458
22606,20.898,3.5455,0.1,6.4078e-05,640.34,6.459e-05,656.72,-1.8266e-05,34.172,-2.2819e-05,-0.033898,1.8591
22607,20.807,3.6364,0.1,6.5968e-05,659.22,6.6533e-05,677.45,-1.8553e-05,38.147,-2.3635e-05,-0.034529,1.8459
22608,20.898,3.3636,0.1,6.4047e-05,640.02,6.4587e-05,657.41,-1.8069e-05,36.366,-2.2914e-05,-0.033403,1.8591
22609,20.807,3.4545,0.1,6.5935e-05,658.9,6.6537e-05,678.43,-1.8297e-05,41.026,-2.3762e-05,-0.033902,1.8459
22610,20.898,3.1818,0.1,6.4027e-05,639.83,6.4585e-05,657.84,-1.7948e-05,37.721,-2.2973e-05,-0.033079,1.8591
22611,20.807,3.2727,0.1,6.5913e-05,658.68,6.6539e-05,679.11,-1.8121e-05,43.014,-2.385e-05,-0.033442,1.8459
22612,20.898,3,0.1,6.4021e-05,639.77,6.4584e-05,657.98,-1.7907e-05,38.179,-2.2992e-05,-0.032966,1.8591
22613,20.807,3.0909,0.1,6.5902e-05,658.57,6.654e-05,679.46,-1.8031e-05,44.03,-2.3895e-05,-0.033199,1.8459
22614,20.898,2.8182,0.1,6.4027e-05,639.83,6.4585e-05,657.84,-1.7948e-05,37.721,-2.2973e-05,-0.033078,1.8591
22615,20.807,2.9091,0.1,6.5902e-05,658.57,6.654e-05,679.46,-1.8031e-05,44.03,-2.3895e-05,-0.033199,1.8459
22616,20.898,2.6364,0.1,6.4047e-05,640.02,6.4587e-05,657.41,-1.8069e-05,36.366,-2.2914e-05,-0.033402,1.8591
22617,20.807,2.7273,0.1,6.5913e-05,658.68,6.6539e-05,679.11,-1.8121e-05,43.014,-2.385e-05,-0.033441,1.8459
22618,20.898,2.4545,0.1,6.4078e-05,640.34,6.459e-05,656.72,-1.8266e-05,34.172,-2.2819e-05,-0.033899,1.8591
22619,20.807,2.5455,0.1,6.5935e-05,658.9,6.6537e-05,678.43,-1.8297e-05,41.026,-2.3762e-05,-0.033902,1.8459
22620,20.898,2.2727,0.1,6.4121e-05,640.77,6.4594e-05,655.79,-1.853e-05,31.232,-2.2691e-05,-0.034498,1.8591
22621,20.807,2.3636,0.1,6.5968e-05,659.22,6.6533e-05,677.45,-1.8553e-05,38.147,-2.3635e-05,-0.034529,1.8459
22622,20.898,2.0909,0.1,6.4173e-05,641.29,6.4599e-05,654.66,-1.8849e-05,27.669,-2.2536e-05,-0.035101,1.859
22623,20.807,2.1818,0.1,6.601e-05,659.65,6.6529e-05,676.2,-1.8877e-05,34.498,-2.3473e-05,-0.035244,1.8458
22624,20.898,1.9091,0.1,6.4234e-05,641.9,6.4603e-05,653.37,-1.921e-05,23.631,-2.236e-05,-0.03558,1.8589
22625,20.807,2,0.1,6.6061e-05,660.16,6.6523e-05,674.73,-1.9256e-05,30.226,-2.3283e-05,-0.035935,1.8458
22626,20.898,1.7273,0.1,6.4302e-05,642.58,6.4608e-05,651.98,-1.96e-05,19.28,-2.2171e-05,-0.03578,1.8589
22627,20.807,1.8182,0.1,6.612e-05,660.75,6.6517e-05,673.11,-1.9675e-05,25.505,-2.3074e-05,-0.03646,1.8457
22628,20.898,1.5455,0.1,6.4376e-05,643.31,6.4614e-05,650.56,-2.0003e-05,14.785,-2.1975e-05,-0.035521,1.8588
22629,20.807,1.6364,0.1,6.6186e-05,661.4,6.651e-05,671.4,-2.0117e-05,20.521,-2.2853e-05,-0.036649,1.8456
22630,20.898,1.3636,0.1,6.4454e-05,644.1,6.4623e-05,649.18,-2.0404e-05,10.314,-2.1782e-05,-0.034621,1.8587
22631,20.807,1.4545,0.1,6.6257e-05,662.12,6.6506e-05,669.69,-2.0567e-05,15.462,-2.2629e-05,-0.03632,1.8455
22632,20.898,1.1818,0.1,6.4538e-05,644.94,6.4638e-05,647.91,-2.0792e-05,6.0208,-2.1598e-05,-0.032947,1.8585
22633,20.807,1.2727,0.1,6.6335e-05,662.89,6.6507e-05,668.07,-2.1008e-05,10.511,-2.2412e-05,-0.035303,1.8454
22634,20.898,1,0.1,6.463e-05,645.85,6.4664e-05,646.85,-2.1156e-05,2.0384,-2.1431e-05,-0.031085,1.8584
22635,20.807,1.0909,0.1,6.6419e-05,663.73,6.6516e-05,666.61,-2.1429e-05,5.834,-2.2209e-05,-0.033575,1.8453
22636,20.898,0.81818,0.1,6.4732e-05,646.87,6.4705e-05,646.09,-2.1287e-05,-0.022275,-2.1489e-05,-1.5358,1.8583
22637,20.807,0.90909,0.1,6.6513e-05,664.67,6.6539e-05,665.43,-2.1816e-05,1.5706,-2.203e-05,-0.03336,1.8451
22638,20.898,0.63636,0.1,6.4851e-05,648.06,6.477e-05,645.73,-2.1173e-05,-0.018144,-2.1786e-05,-4.6248,1.8581
22639,20.807,0.72727,0.1,6.6619e-05,665.73,6.6582e-05,664.63,-2.1878e-05,-0.020318,-2.2166e-05,-2.1888,1.845
22640,20.898,0.45455,0.1,6.4998e-05,649.53,6.4872e-05,645.88,-2.1091e-05,-0.0089245,-2.2053e-05,-7.24,1.8579
22641,20.807,0.54545,0.1,6.6746e-05,667,6.6653e-05,664.29,-2.1761e-05,-0.016062,-2.2473e-05,-5.3639,1.8448
22642,20.898,0.27273,0.1,6.5272e-05,652.27,6.5096e-05,647.22,-2.1044e-05,0.0010023,-2.2371e-05,-9.9768,1.8577
22643,20.807,0.36364,0.1,6.6911e-05,668.64,6.6771e-05,664.6,-2.1683e-05,-0.0041162,-2.2748e-05,-8.0096,1.8446
22644,20.807,0.18182,0.1,6.7297e-05,672.51,6.7098e-05,666.78,-2.1645e-05,0.0013093,-2.3151e-05,-11.311,1.8444
22645,20.898,0.090909,0.1,6.4959e-05,649.15,6.4817e-05,645.03,-2.1033e-05,-0.012557,-2.2115e-05,-8.1368,1.8575
22646,20.716,5.7273,0.1,6.8915e-05,688.67,6.8753e-05,684.02,-2.2284e-05,-0.00037785,-2.351e-05,-9.208,1.8313
22647,20.625,5.8182,0.1,7.0888e-05,708.39,7.0699e-05,702.95,-2.2858e-05,0.0012867,-2.429e-05,-10.752,1.818
22648,20.716,5.9091,0.1,6.8613e-05,685.66,6.8479e-05,681.77,-2.2261e-05,-0.015403,-2.3284e-05,-7.7023,1.8311
22649,20.716,5.5455,0.1,6.8651e-05,686.03,6.8545e-05,682.97,-2.2354e-05,-0.011099,-2.3162e-05,-6.0824,1.8315
22650,20.625,5.6364,0.1,7.0522e-05,704.73,7.0396e-05,701.09,-2.2914e-05,-0.0060144,-2.3874e-05,-7.2175,1.8182
22651,20.716,5.3636,0.1,6.8508e-05,684.61,6.8458e-05,683.15,-2.2466e-05,-0.01857,-2.2848e-05,-2.8838,1.8317
22652,20.625,5.4545,0.1,7.037e-05,703.22,7.0299e-05,701.15,-2.302e-05,-0.016403,-2.3563e-05,-4.0983,1.8184
22653,20.716,5.1818,0.1,6.8394e-05,683.47,6.841e-05,683.93,-2.2488e-05,0.96285,-2.2621e-05,-0.037662,1.8318
22654,20.625,5.2727,0.1,7.0256e-05,702.07,7.0251e-05,701.93,-2.3166e-05,0.036007,-2.3213e-05,-0.31852,1.8185
22655,20.716,5,0.1,6.8297e-05,682.49,6.8386e-05,685.16,-2.2085e-05,5.3977,-2.2808e-05,-0.033665,1.832
22656,20.625,5.0909,0.1,7.0162e-05,701.13,7.0234e-05,703.27,-2.279e-05,4.3219,-2.337e-05,-0.036266,1.8187
22657,20.716,4.8182,0.1,6.8211e-05,681.64,6.8381e-05,686.74,-2.1641e-05,10.353,-2.3023e-05,-0.03551,1.8321
22658,20.625,4.9091,0.1,7.0082e-05,700.34,7.0239e-05,705.04,-2.2327e-05,9.537,-2.3601e-05,-0.037136,1.8189
22659,20.716,4.6364,0.1,6.8134e-05,680.87,6.8387e-05,688.56,-2.1168e-05,15.682,-2.326e-05,-0.036763,1.8322
22660,20.625,4.7273,0.1,7.0014e-05,699.66,7.026e-05,707.14,-2.1824e-05,15.258,-2.3859e-05,-0.038323,1.819
22661,20.716,4.4545,0.1,6.8065e-05,680.18,6.84e-05,690.52,-2.0679e-05,21.216,-2.3507e-05,-0.037268,1.8323
22662,20.625,4.5455,0.1,6.9954e-05,699.06,7.0291e-05,709.45,-2.1295e-05,21.306,-2.4135e-05,-0.038845,1.8191
22663,20.716,4.2727,0.1,6.8002e-05,679.55,6.8417e-05,692.52,-2.019e-05,26.76,-2.3756e-05,-0.037177,1.8324
22664,20.625,4.3636,0.1,6.9902e-05,698.54,7.0328e-05,711.85,-2.0757e-05,27.474,-2.4418e-05,-0.038746,1.8192
22665,20.716,4.0909,0.1,6.7947e-05,679,6.8435e-05,694.46,-1.9719e-05,32.111,-2.3997e-05,-0.036678,1.8325
22666,20.625,4.1818,0.1,6.9857e-05,698.09,7.0366e-05,714.23,-2.0229e-05,33.537,-2.4697e-05,-0.03819,1.8193
22667,20.716,3.9091,0.1,6.7898e-05,678.51,6.8452e-05,696.27,-1.9283e-05,37.062,-2.422e-05,-0.035953,1.8326
22668,20.625,4,0.1,6.9819e-05,697.71,7.0403e-05,716.49,-1.973e-05,39.266,-2.4961e-05,-0.037363,1.8194
22669,20.716,3.7273,0.1,6.7858e-05,678.11,6.8467e-05,697.85,-1.8899e-05,41.419,-2.4416e-05,-0.035157,1.8326
22670,20.625,3.8182,0.1,6.9789e-05,697.41,7.0438e-05,718.54,-1.928e-05,44.437,-2.5199e-05,-0.036435,1.8194
22671,20.716,3.5455,0.1,6.7827e-05,677.8,6.8479e-05,699.16,-1.8583e-05,45.005,-2.4578e-05,-0.034417,1.8327
22672,20.625,3.6364,0.1,6.9765e-05,697.17,7.0467e-05,720.29,-1.8897e-05,48.847,-2.5403e-05,-0.035547,1.8195
22673,20.716,3.3636,0.1,6.7804e-05,677.57,6.8488e-05,700.13,-1.8348e-05,47.677,-2.4698e-05,-0.033828,1.8327
22674,20.625,3.4545,0.1,6.9749e-05,697,7.049e-05,721.67,-1.8595e-05,52.319,-2.5563e-05,-0.034803,1.8195
22675,20.716,3.1818,0.1,6.779e-05,677.43,6.8494e-05,700.73,-1.8203e-05,49.325,-2.4772e-05,-0.033451,1.8327
22676,20.625,3.2727,0.1,6.9738e-05,696.9,7.0506e-05,722.62,-1.8387e-05,54.714,-2.5673e-05,-0.034273,1.8195
22677,20.716,3,0.1,6.7786e-05,677.39,6.8496e-05,700.93,-1.8154e-05,49.882,-2.4797e-05,-0.033322,1.8327
22678,20.625,3.0909,0.1,6.9733e-05,696.84,7.0515e-05,723.11,-1.828e-05,55.936,-2.573e-05,-0.033998,1.8195
22679,20.716,2.8182,0.1,6.779e-05,677.43,6.8494e-05,700.73,-1.8203e-05,49.325,-2.4772e-05,-0.033452,1.8327
22680,20.625,2.9091,0.1,6.9733e-05,696.84,7.0515e-05,723.11,-1.828e-05,55.936,-2.573e-05,-0.033999,1.8195
22681,20.716,2.6364,0.1,6.7804e-05,677.57,6.8488e-05,700.13,-1.8348e-05,47.677,-2.4698e-05,-0.033828,1.8327
22682,20.625,2.7273,0.1,6.9738e-05,696.9,7.0506e-05,722.62,-1.8387e-05,54.714,-2.5673e-05,-0.034273,1.8195
22683,20.716,2.4545,0.1,6.7827e-05,677.8,6.8479e-05,699.16,-1.8583e-05,45.005,-2.4578e-05,-0.034417,1.8327
22684,20.625,2.5455,0.1,6.9749e-05,697,7.049e-05,721.67,-1.8595e-05,52.319,-2.5563e-05,-0.034803,1.8195
22685,20.716,2.2727,0.1,6.7858e-05,678.11,6.8467e-05,697.85,-1.8899e-05,41.419,-2.4416e-05,-0.035157,1.8326
22686,20.625,2.3636,0.1,6.9765e-05,697.17,7.0467e-05,720.29,-1.8897e-05,48.847,-2.5403e-05,-0.035547,1.8195
22687,20.716,2.0909,0.1,6.7898e-05,678.51,6.8452e-05,696.27,-1.9283e-05,37.062,-2.422e-05,-0.035953,1.8326
22688,20.625,2.1818,0.1,6.9789e-05,697.41,7.0438e-05,718.54,-1.928e-05,44.437,-2.5199e-05,-0.036435,1.8194
22689,20.716,1.9091,0.1,6.7947e-05,679,6.8435e-05,694.46,-1.9719e-05,32.111,-2.3997e-05,-0.036679,1.8325
22690,20.625,2,0.1,6.9819e-05,697.71,7.0403e-05,716.49,-1.973e-05,39.266,-2.4961e-05,-0.037363,1.8194
22691,20.716,1.7273,0.1,6.8002e-05,679.55,6.8417e-05,692.52,-2.019e-05,26.76,-2.3756e-05,-0.037177,1.8324
22692,20.625,1.8182,0.1,6.9857e-05,698.09,7.0366e-05,714.23,-2.0229e-05,33.537,-2.4697e-05,-0.03819,1.8193
22693,20.716,1.5455,0.1,6.8065e-05,680.18,6.84e-05,690.52,-2.0679e-05,21.216,-2.3507e-05,-0.037268,1.8323
22694,20.625,1.6364,0.1,6.9902e-05,698.54,7.0328e-05,711.85,-2.0757e-05,27.474,-2.4418e-05,-0.038746,1.8192
22695,20.716,1.3636,0.1,6.8134e-05,680.87,6.8387e-05,688.56,-2.1168e-05,15.682,-2.326e-05,-0.036763,1.8322
22696,20.625,1.4545,0.1,6.9954e-05,699.06,7.0291e-05,709.45,-2.1295e-05,21.306,-2.4135e-05,-0.038845,1.8191
22697,20.716,1.1818,0.1,6.8211e-05,681.64,6.8381e-05,686.74,-2.1641e-05,10.353,-2.3023e-05,-0.035509,1.8321
22698,20.625,1.2727,0.1,7.0014e-05,699.66,7.026e-05,707.14,-2.1824e-05,15.258,-2.3859e-05,-0.038323,1.819
22699,20.716,1,0.1,6.8297e-05,682.49,6.8386e-05,685.16,-2.2085e-05,5.3978,-2.2808e-05,-0.033666,1.832
22700,20.625,1.0909,0.1,7.0082e-05,700.34,7.0239e-05,705.04,-2.2327e-05,9.537,-2.3601e-05,-0.037138,1.8189
22701,20.716,0.81818,0.1,6.8394e-05,683.47,6.841e-05,683.93,-2.2488e-05,0.96287,-2.2621e-05,-0.037664,1.8318
22702,20.625,0.90909,0.1,7.0162e-05,701.13,7.0234e-05,703.27,-2.279e-05,4.3219,-2.337e-05,-0.036269,1.8187
22703,20.716,0.63636,0.1,6.8508e-05,684.61,6.8458e-05,683.15,-2.2466e-05,-0.018569,-2.2848e-05,-2.8837,1.8317
22704,20.625,0.72727,0.1,7.0256e-05,702.07,7.0251e-05,701.93,-2.3166e-05,0.036009,-2.3213e-05,-0.31851,1.8185
22705,20.716,0.45455,0.1,6.8651e-05,686.03,6.8545e-05,682.97,-2.2354e-05,-0.011096,-2.3162e-05,-6.0824,1.8315
22706,20.625,0.54545,0.1,7.037e-05,703.22,7.0299e-05,701.15,-2.302e-05,-0.016401,-2.3563e-05,-4.0983,1.8184
22707,20.716,0.27273,0.1,6.8915e-05,688.67,6.8753e-05,684.02,-2.2284e-05,-0.00037677,-2.351e-05,-9.2081,1.8313
22708,20.625,0.36364,0.1,7.0522e-05,704.73,7.0396e-05,701.09,-2.2914e-05,-0.0060117,-2.3874e-05,-7.2176,1.8182
22709,20.625,0.18182,0.1,7.0888e-05,708.39,7.0699e-05,702.95,-2.2858e-05,0.0012858,-2.429e-05,-10.752,1.818
22710,20.716,0.090909,0.1,6.8613e-05,685.66,6.8479e-05,681.77,-2.2261e-05,-0.015405,-2.3284e-05,-7.7023,1.8311
22711,20.533,5.7273,0.1,7.2475e-05,724.25,7.2324e-05,719.89,-2.3488e-05,-0.00076649,-2.4637e-05,-8.6336,1.8049
22712,20.442,5.8182,0.1,7.4375e-05,743.23,7.4193e-05,738,-2.4028e-05,0.0016767,-2.5408e-05,-10.363,1.7916
22713,20.533,5.9091,0.1,7.217e-05,721.21,7.2042e-05,717.49,-2.3452e-05,-0.019029,-2.4429e-05,-7.3572,1.8047
22714,20.533,5.5455,0.1,7.2234e-05,721.84,7.2144e-05,719.23,-2.3581e-05,-0.011579,-2.4269e-05,-5.1843,1.8051
22715,20.442,5.6364,0.1,7.4042e-05,739.91,7.3926e-05,736.55,-2.4103e-05,-0.0061275,-2.4991e-05,-6.6793,1.7918
22716,20.533,5.3636,0.1,7.2111e-05,720.61,7.2086e-05,719.89,-2.3726e-05,-0.0080746,-2.3917e-05,-1.4445,1.8053
22717,20.442,5.4545,0.1,7.392e-05,738.69,7.3866e-05,737.11,-2.4239e-05,-0.011734,-2.4655e-05,-3.1415,1.792
22718,20.533,5.1818,0.1,7.2018e-05,719.68,7.207e-05,721.23,-2.35e-05,3.1554,-2.3925e-05,-0.039389,1.8054
22719,20.442,5.2727,0.1,7.3835e-05,737.84,7.3858e-05,738.51,-2.4247e-05,1.3861,-2.4439e-05,-0.061842,1.7922
22720,20.533,5,0.1,7.1942e-05,718.93,7.2082e-05,723.12,-2.3028e-05,8.493,-2.4164e-05,-0.038295,1.8056
22721,20.442,5.0909,0.1,7.3773e-05,737.22,7.3885e-05,740.56,-2.3776e-05,6.7723,-2.4683e-05,-0.042573,1.7923
22722,20.533,4.8182,0.1,7.1881e-05,718.31,7.2115e-05,725.41,-2.2506e-05,14.47,-2.4437e-05,-0.039424,1.8057
22723,20.442,4.9091,0.1,7.3727e-05,736.77,7.3939e-05,743.15,-2.324e-05,12.98,-2.4974e-05,-0.04237,1.7925
22724,20.533,4.6364,0.1,7.183e-05,717.8,7.2162e-05,728,-2.1947e-05,20.904,-2.4735e-05,-0.040074,1.8059
22725,20.442,4.7273,0.1,7.3695e-05,736.44,7.4011e-05,746.13,-2.2655e-05,19.81,-2.5298e-05,-0.042721,1.7926
22726,20.533,4.4545,0.1,7.1788e-05,717.38,7.2216e-05,730.75,-2.137e-05,27.582,-2.5046e-05,-0.040067,1.806
22727,20.442,4.5455,0.1,7.3674e-05,736.23,7.4096e-05,749.36,-2.2039e-05,27.037,-2.5643e-05,-0.042579,1.7927
22728,20.533,4.2727,0.1,7.1754e-05,717.05,7.2275e-05,733.54,-2.0794e-05,34.264,-2.5359e-05,-0.039541,1.8061
22729,20.442,4.3636,0.1,7.3662e-05,736.12,7.4187e-05,752.69,-2.1412e-05,34.404,-2.5996e-05,-0.041928,1.7929
22730,20.533,4.0909,0.1,7.1728e-05,716.79,7.2333e-05,736.25,-2.0239e-05,40.702,-2.5661e-05,-0.03868,1.8061
22731,20.442,4.1818,0.1,7.3659e-05,736.08,7.4278e-05,756,-2.0797e-05,41.64,-2.6344e-05,-0.040919,1.7929
22732,20.533,3.9091,0.1,7.1709e-05,716.6,7.2388e-05,738.76,-1.9727e-05,46.649,-2.594e-05,-0.037666,1.8062
22733,20.442,4,0.1,7.3663e-05,736.12,7.4367e-05,759.14,-2.0217e-05,48.468,-2.6673e-05,-0.039735,1.793
22734,20.533,3.7273,0.1,7.1696e-05,716.47,7.2437e-05,740.97,-1.9277e-05,51.872,-2.6186e-05,-0.036657,1.8063
22735,20.442,3.8182,0.1,7.3672e-05,736.21,7.4448e-05,761.98,-1.9696e-05,54.621,-2.697e-05,-0.038543,1.7931
22736,20.533,3.5455,0.1,7.1688e-05,716.39,7.2478e-05,742.8,-1.8908e-05,56.165,-2.6388e-05,-0.035771,1.8063
22737,20.442,3.6364,0.1,7.3684e-05,736.33,7.4518e-05,764.41,-1.9252e-05,59.859,-2.7223e-05,-0.037475,1.7931
22738,20.533,3.3636,0.1,7.1684e-05,716.34,7.2508e-05,744.16,-1.8633e-05,59.359,-2.6538e-05,-0.035091,1.8063
22739,20.442,3.4545,0.1,7.3696e-05,736.45,7.4574e-05,766.33,-1.8903e-05,63.976,-2.7423e-05,-0.036622,1.7932
22740,20.533,3.1818,0.1,7.1682e-05,716.32,7.2527e-05,745,-1.8464e-05,61.327,-2.663e-05,-0.034667,1.8064
22741,20.442,3.2727,0.1,7.3705e-05,736.54,7.4613e-05,767.65,-1.8663e-05,66.813,-2.756e-05,-0.036036,1.7932
22742,20.533,3,0.1,7.1681e-05,716.32,7.2533e-05,745.28,-1.8407e-05,61.991,-2.6662e-05,-0.034522,1.8064
22743,20.442,3.0909,0.1,7.3711e-05,736.6,7.4633e-05,768.33,-1.8541e-05,68.259,-2.763e-05,-0.035738,1.7932
22744,20.533,2.8182,0.1,7.1682e-05,716.32,7.2527e-05,745,-1.8464e-05,61.327,-2.663e-05,-0.034667,1.8064
22745,20.442,2.9091,0.1,7.3711e-05,736.6,7.4633e-05,768.33,-1.8541e-05,68.259,-2.763e-05,-0.035737,1.7932
22746,20.533,2.6364,0.1,7.1684e-05,716.34,7.2508e-05,744.16,-1.8633e-05,59.359,-2.6538e-05,-0.035092,1.8063
22747,20.442,2.7273,0.1,7.3705e-05,736.54,7.4613e-05,767.65,-1.8663e-05,66.813,-2.756e-05,-0.036036,1.7932
22748,20.533,2.4545,0.1,7.1688e-05,716.39,7.2478e-05,742.8,-1.8908e-05,56.165,-2.6388e-05,-0.035771,1.8063
22749,20.442,2.5455,0.1,7.3696e-05,736.45,7.4574e-05,766.33,-1.8903e-05,63.976,-2.7423e-05,-0.036623,1.7932
22750,20.533,2.2727,0.1,7.1696e-05,716.47,7.2437e-05,740.97,-1.9277e-05,51.872,-2.6186e-05,-0.036657,1.8063
22751,20.442,2.3636,0.1,7.3684e-05,736.33,7.4518e-05,764.41,-1.9252e-05,59.859,-2.7223e-05,-0.037475,1.7931
22752,20.533,2.0909,0.1,7.1709e-05,716.6,7.2388e-05,738.76,-1.9727e-05,46.649,-2.594e-05,-0.037666,1.8062
22753,20.442,2.1818,0.1,7.3672e-05,736.21,7.4448e-05,761.98,-1.9696e-05,54.621,-2.697e-05,-0.038543,1.7931
22754,20.533,1.9091,0.1,7.1728e-05,716.79,7.2333e-05,736.25,-2.0239e-05,40.702,-2.5661e-05,-0.038679,1.8061
22755,20.442,2,0.1,7.3663e-05,736.12,7.4367e-05,759.14,-2.0217e-05,48.468,-2.6673e-05,-0.039734,1.793
22756,20.533,1.7273,0.1,7.1754e-05,717.05,7.2275e-05,733.54,-2.0794e-05,34.264,-2.5359e-05,-0.039541,1.8061
22757,20.442,1.8182,0.1,7.3659e-05,736.08,7.4278e-05,756,-2.0797e-05,41.64,-2.6344e-05,-0.04092,1.7929
22758,20.533,1.5455,0.1,7.1788e-05,717.38,7.2216e-05,730.75,-2.137e-05,27.582,-2.5046e-05,-0.040068,1.806
22759,20.442,1.6364,0.1,7.3662e-05,736.12,7.4187e-05,752.69,-2.1412e-05,34.404,-2.5996e-05,-0.041929,1.7929
22760,20.533,1.3636,0.1,7.183e-05,717.8,7.2162e-05,728,-2.1947e-05,20.904,-2.4735e-05,-0.040074,1.8059
22761,20.442,1.4545,0.1,7.3674e-05,736.23,7.4096e-05,749.36,-2.2039e-05,27.037,-2.5643e-05,-0.042578,1.7927
22762,20.533,1.1818,0.1,7.1881e-05,718.31,7.2115e-05,725.41,-2.2506e-05,14.47,-2.4437e-05,-0.039425,1.8057
22763,20.442,1.2727,0.1,7.3695e-05,736.44,7.4011e-05,746.13,-2.2655e-05,19.81,-2.5298e-05,-0.04272,1.7926
22764,20.533,1,0.1,7.1942e-05,718.93,7.2082e-05,723.12,-2.3028e-05,8.493,-2.4164e-05,-0.038298,1.8056
22765,20.442,1.0909,0.1,7.3727e-05,736.77,7.3939e-05,743.15,-2.324e-05,12.98,-2.4974e-05,-0.042371,1.7925
22766,20.533,0.81818,0.1,7.2018e-05,719.68,7.207e-05,721.23,-2.35e-05,3.1554,-2.3925e-05,-0.039391,1.8054
22767,20.442,0.90909,0.1,7.3773e-05,737.22,7.3885e-05,740.56,-2.3776e-05,6.7724,-2.4683e-05,-0.042574,1.7923
22768,20.533,0.63636,0.1,7.2111e-05,720.61,7.2086e-05,719.89,-2.3726e-05,-0.0080741,-2.3917e-05,-1.4445,1.8053
22769,20.442,0.72727,0.1,7.3835e-05,737.84,7.3858e-05,738.51,-2.4247e-05,1.3861,-2.4439e-05,-0.061843,1.7922
22770,20.533,0.45455,0.1,7.2234e-05,721.84,7.2144e-05,719.23,-2.3581e-05,-0.011577,-2.4269e-05,-5.1843,1.8051
22771,20.442,0.54545,0.1,7.392e-05,738.69,7.3866e-05,737.11,-2.4239e-05,-0.011734,-2.4655e-05,-3.1415,1.792
22772,20.533,0.27273,0.1,7.2475e-05,724.25,7.2324e-05,719.89,-2.3488e-05,-0.00076578,-2.4637e-05,-8.6336,1.8049
22773,20.442,0.36364,0.1,7.4042e-05,739.91,7.3926e-05,736.55,-2.4103e-05,-0.0061253,-2.4991e-05,-6.6794,1.7918
22774,20.442,0.18182,0.1,7.4375e-05,743.23,7.4193e-05,738,-2.4028e-05,0.0016768,-2.5408e-05,-10.363,1.7916
22775,20.533,0.090909,0.1,7.217e-05,721.2,7.2042e-05,717.49,-2.3452e-05,-0.019031,-2.4429e-05,-7.3572,1.8047
22776,20.351,5.7273,0.1,7.5923e-05,758.71,7.5779e-05,754.53,-2.4643e-05,6.2123e-05,-2.5746e-05,-8.288,1.7785
22777,20.26,5.8182,0.1,7.7724e-05,776.7,7.7546e-05,771.57,-2.5143e-05,0.0024143,-2.6498e-05,-10.175,1.7653
22778,20.351,5.9091,0.1,7.5599e-05,755.47,7.5475e-05,751.87,-2.4596e-05,-0.023434,-2.5541e-05,-7.1186,1.7783
22779,20.351,5.5455,0.1,7.5721e-05,756.69,7.5642e-05,754.38,-2.4761e-05,-0.0087335,-2.5371e-05,-4.5875,1.7787
22780,20.26,5.6364,0.1,7.7442e-05,773.89,7.733e-05,770.65,-2.5237e-05,-0.0037103,-2.6093e-05,-6.4355,1.7655
22781,20.351,5.3636,0.1,7.5637e-05,755.85,7.5632e-05,755.68,-2.4929e-05,0.10741,-2.5003e-05,-0.443,1.7789
22782,20.26,5.4545,0.1,7.7368e-05,773.14,7.7324e-05,771.87,-2.5405e-05,0.0040276,-2.5744e-05,-2.5436,1.7657
22783,20.351,5.1818,0.1,7.5584e-05,755.32,7.5668e-05,757.8,-2.452e-05,5.0228,-2.5195e-05,-0.047685,1.7791
22784,20.26,5.2727,0.1,7.7334e-05,772.81,7.7377e-05,774.09,-2.5296e-05,2.6388,-2.5657e-05,-0.071139,1.7659
22785,20.351,5,0.1,7.5552e-05,755,7.5737e-05,760.56,-2.3985e-05,11.291,-2.5493e-05,-0.044975,1.7793
22786,20.26,5.0909,0.1,7.7327e-05,772.73,7.7473e-05,777.11,-2.4772e-05,8.8821,-2.5961e-05,-0.051943,1.766
22787,20.351,4.8182,0.1,7.5537e-05,754.85,7.5831e-05,763.83,-2.3386e-05,18.348,-2.5834e-05,-0.044953,1.7794
22788,20.26,4.9091,0.1,7.734e-05,772.86,7.7601e-05,780.78,-2.4167e-05,16.132,-2.6321e-05,-0.049728,1.7662
22789,20.351,4.6364,0.1,7.5535e-05,754.83,7.5942e-05,767.45,-2.2744e-05,25.965,-2.6205e-05,-0.044764,1.7795
22790,20.26,4.7273,0.1,7.737e-05,773.17,7.7752e-05,784.93,-2.3503e-05,24.144,-2.6723e-05,-0.048836,1.7663
22791,20.351,4.4545,0.1,7.5545e-05,754.93,7.6063e-05,771.27,-2.2078e-05,33.877,-2.6593e-05,-0.044084,1.7796
22792,20.26,4.5455,0.1,7.7415e-05,773.62,7.7918e-05,789.4,-2.28e-05,32.64,-2.7151e-05,-0.047775,1.7664
22793,20.351,4.2727,0.1,7.5565e-05,755.13,7.6188e-05,775.13,-2.1413e-05,41.794,-2.6982e-05,-0.043006,1.7797
22794,20.26,4.3636,0.1,7.7472e-05,774.19,7.8091e-05,793.99,-2.2084e-05,41.309,-2.7589e-05,-0.0464,1.7666
22795,20.351,4.0909,0.1,7.5592e-05,755.4,7.6311e-05,778.87,-2.0774e-05,49.416,-2.7357e-05,-0.041708,1.7798
22796,20.26,4.1818,0.1,7.7539e-05,774.85,7.8265e-05,798.53,-2.1383e-05,49.82,-2.802e-05,-0.044823,1.7666
22797,20.351,3.9091,0.1,7.5625e-05,755.73,7.6426e-05,782.34,-2.0185e-05,56.447,-2.7703e-05,-0.040368,1.7799
22798,20.26,4,0.1,7.7611e-05,775.57,7.8432e-05,802.85,-2.0723e-05,57.843,-2.8427e-05,-0.043215,1.7667
22799,20.351,3.7273,0.1,7.5659e-05,756.07,7.6528e-05,785.41,-1.9669e-05,62.614,-2.8008e-05,-0.039133,1.78
22800,20.26,3.8182,0.1,7.7684e-05,776.3,7.8585e-05,806.76,-2.0129e-05,65.063,-2.8794e-05,-0.041735,1.7668
22801,20.351,3.5455,0.1,7.5691e-05,756.39,7.6614e-05,787.93,-1.9246e-05,67.675,-2.8258e-05,-0.038111,1.78
22802,20.26,3.6364,0.1,7.7753e-05,776.99,7.8718e-05,810.11,-1.9626e-05,71.198,-2.9107e-05,-0.0405,1.7668
22803,20.351,3.3636,0.1,7.5718e-05,756.66,7.6679e-05,789.82,-1.8932e-05,71.434,-2.8445e-05,-0.03736,1.78
22804,20.26,3.4545,0.1,7.7811e-05,777.57,7.8824e-05,812.77,-1.9232e-05,76.014,-2.9354e-05,-0.039569,1.7669
22805,20.351,3.1818,0.1,7.5736e-05,756.83,7.6719e-05,790.99,-1.8739e-05,73.749,-2.856e-05,-0.036905,1.78
22806,20.26,3.2727,0.1,7.7854e-05,778,7.8898e-05,814.6,-1.8961e-05,79.326,-2.9524e-05,-0.038959,1.7669
22807,20.351,3,0.1,7.5742e-05,756.89,7.6733e-05,791.38,-1.8674e-05,74.53,-2.8598e-05,-0.036752,1.7801
22808,20.26,3.0909,0.1,7.7876e-05,778.23,7.8936e-05,815.54,-1.8823e-05,81.014,-2.9611e-05,-0.03866,1.7669
22809,20.351,2.8182,0.1,7.5736e-05,756.83,7.6719e-05,790.99,-1.8739e-05,73.749,-2.856e-05,-0.036904,1.78
22810,20.26,2.9091,0.1,7.7876e-05,778.23,7.8936e-05,815.54,-1.8823e-05,81.014,-2.9611e-05,-0.038659,1.7669
22811,20.351,2.6364,0.1,7.5718e-05,756.66,7.6679e-05,789.82,-1.8932e-05,71.434,-2.8445e-05,-0.037361,1.78
22812,20.26,2.7273,0.1,7.7854e-05,778,7.8898e-05,814.6,-1.8961e-05,79.326,-2.9524e-05,-0.038959,1.7669
22813,20.351,2.4545,0.1,7.5691e-05,756.39,7.6614e-05,787.93,-1.9246e-05,67.675,-2.8258e-05,-0.038112,1.78
22814,20.26,2.5455,0.1,7.7811e-05,777.57,7.8824e-05,812.77,-1.9232e-05,76.014,-2.9354e-05,-0.03957,1.7669
22815,20.351,2.2727,0.1,7.5659e-05,756.07,7.6528e-05,785.41,-1.9669e-05,62.614,-2.8008e-05,-0.039133,1.78
22816,20.26,2.3636,0.1,7.7753e-05,776.99,7.8718e-05,810.11,-1.9626e-05,71.198,-2.9107e-05,-0.0405,1.7668
22817,20.351,2.0909,0.1,7.5625e-05,755.73,7.6426e-05,782.34,-2.0185e-05,56.447,-2.7703e-05,-0.040367,1.7799
22818,20.26,2.1818,0.1,7.7684e-05,776.3,7.8585e-05,806.76,-2.0129e-05,65.063,-2.8794e-05,-0.041735,1.7668
22819,20.351,1.9091,0.1,7.5592e-05,755.4,7.6311e-05,778.87,-2.0774e-05,49.416,-2.7357e-05,-0.041708,1.7798
22820,20.26,2,0.1,7.7611e-05,775.57,7.8432e-05,802.85,-2.0723e-05,57.843,-2.8427e-05,-0.043214,1.7667
22821,20.351,1.7273,0.1,7.5565e-05,755.13,7.6188e-05,775.13,-2.1413e-05,41.794,-2.6982e-05,-0.043007,1.7797
22822,20.26,1.8182,0.1,7.7539e-05,774.85,7.8265e-05,798.53,-2.1383e-05,49.82,-2.802e-05,-0.044823,1.7666
22823,20.351,1.5455,0.1,7.5545e-05,754.93,7.6063e-05,771.27,-2.2078e-05,33.877,-2.6593e-05,-0.044083,1.7796
22824,20.26,1.6364,0.1,7.7472e-05,774.19,7.8091e-05,793.99,-2.2084e-05,41.309,-2.7589e-05,-0.046401,1.7666
22825,20.351,1.3636,0.1,7.5535e-05,754.83,7.5942e-05,767.45,-2.2744e-05,25.965,-2.6205e-05,-0.044763,1.7795
22826,20.26,1.4545,0.1,7.7415e-05,773.62,7.7918e-05,789.4,-2.28e-05,32.64,-2.7151e-05,-0.047776,1.7664
22827,20.351,1.1818,0.1,7.5537e-05,754.85,7.5831e-05,763.83,-2.3386e-05,18.348,-2.5834e-05,-0.044953,1.7794
22828,20.26,1.2727,0.1,7.737e-05,773.17,7.7752e-05,784.93,-2.3503e-05,24.144,-2.6723e-05,-0.048836,1.7663
22829,20.351,1,0.1,7.5552e-05,755,7.5737e-05,760.56,-2.3985e-05,11.291,-2.5493e-05,-0.044976,1.7793
22830,20.26,1.0909,0.1,7.734e-05,772.86,7.7601e-05,780.78,-2.4167e-05,16.132,-2.6321e-05,-0.049728,1.7662
22831,20.351,0.81818,0.1,7.5584e-05,755.32,7.5668e-05,757.8,-2.452e-05,5.0228,-2.5195e-05,-0.047685,1.7791
22832,20.26,0.90909,0.1,7.7327e-05,772.73,7.7473e-05,777.11,-2.4772e-05,8.8822,-2.5961e-05,-0.051943,1.766
22833,20.351,0.63636,0.1,7.5637e-05,755.85,7.5632e-05,755.68,-2.4929e-05,0.10741,-2.5003e-05,-0.443,1.7789
22834,20.26,0.72727,0.1,7.7334e-05,772.81,7.7377e-05,774.09,-2.5296e-05,2.6388,-2.5657e-05,-0.07114,1.7659
22835,20.351,0.45455,0.1,7.5721e-05,756.69,7.5642e-05,754.38,-2.4761e-05,-0.0087334,-2.5371e-05,-4.5876,1.7787
22836,20.26,0.54545,0.1,7.7368e-05,773.14,7.7324e-05,771.87,-2.5405e-05,0.0040257,-2.5744e-05,-2.5436,1.7657
22837,20.351,0.27273,0.1,7.5923e-05,758.71,7.5779e-05,754.53,-2.4643e-05,6.3603e-05,-2.5746e-05,-8.2881,1.7785
22838,20.26,0.36364,0.1,7.7442e-05,773.89,7.733e-05,770.65,-2.5237e-05,-0.0037102,-2.6093e-05,-6.4355,1.7655
22839,20.26,0.18182,0.1,7.7724e-05,776.7,7.7546e-05,771.57,-2.5143e-05,0.0024164,-2.6498e-05,-10.175,1.7653
22840,20.351,0.090909,0.1,7.5599e-05,755.47,7.5475e-05,751.87,-2.4596e-05,-0.023431,-2.5541e-05,-7.1187,1.7783
22841,20.168,5.7273,0.1,7.9225e-05,791.7,7.9082e-05,787.56,-2.5736e-05,0.0022736,-2.6829e-05,-8.2087,1.7522
22842,20.077,5.8182,0.1,8.0894e-05,808.38,8.0715e-05,803.22,-2.6187e-05,0.0033949,-2.7548e-05,-10.221,1.739
22843,20.168,5.9091,0.1,7.886e-05,788.06,7.8739e-05,784.52,-2.5679e-05,-0.028503,-2.6607e-05,-7.0053,1.752
22844,20.168,5.5455,0.1,7.9081e-05,790.27,7.9006e-05,788.09,-2.5882e-05,-0.0007984,-2.6459e-05,-4.3377,1.7524
22845,20.077,5.6364,0.1,8.0681e-05,806.25,8.0568e-05,802.97,-2.63e-05,0.0018349,-2.717e-05,-6.5287,1.7392
22846,20.168,5.3636,0.1,7.9058e-05,790.03,7.9065e-05,790.23,-2.6027e-05,0.61791,-2.6138e-05,-0.21519,1.7526
22847,20.077,5.4545,0.1,8.0678e-05,806.22,8.0638e-05,805.06,-2.6504e-05,0.035041,-2.6822e-05,-2.3554,1.7394
22848,20.168,5.1818,0.1,7.907e-05,790.15,7.9178e-05,793.36,-2.5545e-05,6.5193,-2.642e-05,-0.060716,1.7528
22849,20.077,5.2727,0.1,8.0722e-05,806.66,8.0779e-05,808.35,-2.6341e-05,3.4956,-2.6819e-05,-0.094881,1.7396
22850,20.168,5,0.1,7.9108e-05,790.53,7.9332e-05,797.29,-2.4951e-05,13.753,-2.6788e-05,-0.054438,1.753
22851,20.077,5.0909,0.1,8.0798e-05,807.42,8.0972e-05,812.64,-2.5772e-05,10.609,-2.7192e-05,-0.06563,1.7398
22852,20.168,4.8182,0.1,7.9167e-05,791.13,7.9517e-05,801.85,-2.4281e-05,21.955,-2.721e-05,-0.052605,1.7531
22853,20.077,4.9091,0.1,8.0901e-05,808.45,8.1206e-05,817.73,-2.5105e-05,18.955,-2.7636e-05,-0.059992,1.7399
22854,20.168,4.6364,0.1,7.9245e-05,791.91,7.9724e-05,806.85,-2.3556e-05,30.842,-2.7668e-05,-0.051202,1.7533
22855,20.077,4.7273,0.1,8.1028e-05,809.72,8.147e-05,823.44,-2.4365e-05,28.231,-2.813e-05,-0.057201,1.7401
22856,20.168,4.4545,0.1,7.9338e-05,792.83,7.9943e-05,812.09,-2.2804e-05,40.09,-2.8146e-05,-0.0496,1.7534
22857,20.077,4.5455,0.1,8.1175e-05,811.19,8.1754e-05,829.53,-2.3579e-05,38.097,-2.8657e-05,-0.054823,1.7402
22858,20.168,4.2727,0.1,7.9443e-05,793.88,8.0166e-05,817.38,-2.2052e-05,49.348,-2.8626e-05,-0.047807,1.7535
22859,20.077,4.3636,0.1,8.1337e-05,812.81,8.2048e-05,835.8,-2.2778e-05,48.175,-2.9196e-05,-0.052461,1.7403
22860,20.168,4.0909,0.1,7.9555e-05,795,8.0385e-05,822.5,-2.133e-05,58.257,-2.909e-05,-0.04597,1.7536
22861,20.077,4.1818,0.1,8.151e-05,814.53,8.2341e-05,841.99,-2.1992e-05,58.071,-2.9727e-05,-0.050148,1.7404
22862,20.168,3.9091,0.1,7.9668e-05,796.14,8.059e-05,827.26,-2.0666e-05,66.465,-2.9518e-05,-0.044257,1.7536
22863,20.077,4,0.1,8.1686e-05,816.29,8.2622e-05,847.87,-2.1254e-05,67.39,-3.0229e-05,-0.048029,1.7405
22864,20.168,3.7273,0.1,7.9777e-05,797.22,8.0773e-05,831.46,-2.0085e-05,73.653,-2.9894e-05,-0.042802,1.7537
22865,20.077,3.8182,0.1,8.1856e-05,818,8.288e-05,853.22,-2.0593e-05,75.762,-3.0682e-05,-0.046244,1.7405
22866,20.168,3.5455,0.1,7.9872e-05,798.17,8.0927e-05,834.94,-1.9611e-05,79.542,-3.0203e-05,-0.041677,1.7537
22867,20.077,3.6364,0.1,8.2012e-05,819.55,8.3105e-05,857.81,-2.0034e-05,82.862,-3.1068e-05,-0.044878,1.7406
22868,20.168,3.3636,0.1,7.9948e-05,798.92,8.1043e-05,837.54,-1.926e-05,83.909,-3.0433e-05,-0.0409,1.7538
22869,20.077,3.4545,0.1,8.2141e-05,820.84,8.3286e-05,861.45,-1.9598e-05,88.423,-3.1372e-05,-0.043935,1.7406
22870,20.168,3.1818,0.1,7.9996e-05,799.4,8.1115e-05,839.15,-1.9044e-05,86.595,-3.0575e-05,-0.040455,1.7538
22871,20.077,3.2727,0.1,8.2233e-05,821.77,8.3412e-05,863.97,-1.9299e-05,92.241,-3.1581e-05,-0.04337,1.7407
22872,20.168,3,0.1,8.0012e-05,799.57,8.114e-05,839.7,-1.8972e-05,87.501,-3.0623e-05,-0.04031,1.7538
22873,20.077,3.0909,0.1,8.2282e-05,822.25,8.3477e-05,865.26,-1.9147e-05,94.183,-3.1688e-05,-0.04311,1.7407
22874,20.168,2.8182,0.1,7.9996e-05,799.4,8.1115e-05,839.15,-1.9044e-05,86.595,-3.0575e-05,-0.040454,1.7538
22875,20.077,2.9091,0.1,8.2282e-05,822.25,8.3477e-05,865.26,-1.9147e-05,94.183,-3.1688e-05,-0.04311,1.7407
22876,20.168,2.6364,0.1,7.9948e-05,798.92,8.1043e-05,837.54,-1.926e-05,83.909,-3.0433e-05,-0.040901,1.7538
22877,20.077,2.7273,0.1,8.2233e-05,821.77,8.3412e-05,863.97,-1.9299e-05,92.241,-3.1581e-05,-0.043369,1.7407
22878,20.168,2.4545,0.1,7.9872e-05,798.17,8.0927e-05,834.94,-1.9611e-05,79.542,-3.0203e-05,-0.041677,1.7537
22879,20.077,2.5455,0.1,8.2141e-05,820.84,8.3286e-05,861.45,-1.9598e-05,88.423,-3.1372e-05,-0.043935,1.7406
22880,20.168,2.2727,0.1,7.9777e-05,797.22,8.0773e-05,831.46,-2.0085e-05,73.653,-2.9894e-05,-0.042801,1.7537
22881,20.077,2.3636,0.1,8.2012e-05,819.55,8.3105e-05,857.81,-2.0034e-05,82.862,-3.1068e-05,-0.044877,1.7406
22882,20.168,2.0909,0.1,7.9668e-05,796.14,8.059e-05,827.26,-2.0666e-05,66.465,-2.9518e-05,-0.044257,1.7536
22883,20.077,2.1818,0.1,8.1856e-05,818,8.288e-05,853.22,-2.0593e-05,75.762,-3.0682e-05,-0.046244,1.7405
22884,20.168,1.9091,0.1,7.9555e-05,795,8.0385e-05,822.5,-2.133e-05,58.257,-2.909e-05,-0.04597,1.7536
22885,20.077,2,0.1,8.1686e-05,816.29,8.2622e-05,847.87,-2.1254e-05,67.39,-3.0229e-05,-0.048027,1.7405
22886,20.168,1.7273,0.1,7.9443e-05,793.88,8.0166e-05,817.38,-2.2052e-05,49.348,-2.8626e-05,-0.047807,1.7535
22887,20.077,1.8182,0.1,8.151e-05,814.53,8.2341e-05,841.99,-2.1992e-05,58.071,-2.9727e-05,-0.050148,1.7404
22888,20.168,1.5455,0.1,7.9338e-05,792.83,7.9943e-05,812.09,-2.2804e-05,40.09,-2.8146e-05,-0.049601,1.7534
22889,20.077,1.6364,0.1,8.1337e-05,812.81,8.2048e-05,835.8,-2.2778e-05,48.175,-2.9196e-05,-0.052462,1.7403
22890,20.168,1.3636,0.1,7.9245e-05,791.91,7.9724e-05,806.85,-2.3556e-05,30.842,-2.7668e-05,-0.051203,1.7533
22891,20.077,1.4545,0.1,8.1175e-05,811.19,8.1754e-05,829.53,-2.3579e-05,38.097,-2.8657e-05,-0.054823,1.7402
22892,20.168,1.1818,0.1,7.9167e-05,791.13,7.9517e-05,801.85,-2.4281e-05,21.955,-2.721e-05,-0.052605,1.7531
22893,20.077,1.2727,0.1,8.1028e-05,809.72,8.147e-05,823.44,-2.4365e-05,28.231,-2.813e-05,-0.057202,1.7401
22894,20.168,1,0.1,7.9108e-05,790.53,7.9332e-05,797.29,-2.4951e-05,13.753,-2.6788e-05,-0.054437,1.753
22895,20.077,1.0909,0.1,8.0901e-05,808.45,8.1206e-05,817.73,-2.5105e-05,18.955,-2.7636e-05,-0.059992,1.7399
22896,20.168,0.81818,0.1,7.907e-05,790.15,7.9178e-05,793.36,-2.5545e-05,6.5193,-2.642e-05,-0.060717,1.7528
22897,20.077,0.90909,0.1,8.0798e-05,807.42,8.0972e-05,812.64,-2.5772e-05,10.609,-2.7192e-05,-0.06563,1.7398
22898,20.168,0.63636,0.1,7.9058e-05,790.03,7.9065e-05,790.23,-2.6027e-05,0.61792,-2.6138e-05,-0.21519,1.7526
22899,20.077,0.72727,0.1,8.0721e-05,806.66,8.0779e-05,808.35,-2.6341e-05,3.4957,-2.6819e-05,-0.094881,1.7396
22900,20.168,0.45455,0.1,7.9081e-05,790.27,7.9006e-05,788.09,-2.5882e-05,-0.00080031,-2.6459e-05,-4.3377,1.7524
22901,20.077,0.54545,0.1,8.0678e-05,806.22,8.0638e-05,805.06,-2.6504e-05,0.035039,-2.6822e-05,-2.3553,1.7394
22902,20.168,0.27273,0.1,7.9225e-05,791.7,7.9082e-05,787.56,-2.5736e-05,0.0022742,-2.6829e-05,-8.2087,1.7522
22903,20.077,0.36364,0.1,8.0681e-05,806.25,8.0568e-05,802.97,-2.63e-05,0.0018348,-2.717e-05,-6.5288,1.7392
22904,20.077,0.18182,0.1,8.0894e-05,808.38,8.0715e-05,803.22,-2.6187e-05,0.0033969,-2.7548e-05,-10.221,1.739
22905,20.168,0.090909,0.1,7.886e-05,788.06,7.8738e-05,784.52,-2.5679e-05,-0.028502,-2.6607e-05,-7.0053,1.752
22906,19.986,5.7273,0.1,8.2333e-05,822.76,8.2187e-05,818.52,-2.6751e-05,0.0059478,-2.7874e-05,-8.4347,1.726
22907,19.895,5.8182,0.1,8.3831e-05,837.74,8.3647e-05,832.42,-2.714e-05,0.0044945,-2.8543e-05,-10.537,1.7128
22908,19.986,5.9091,0.1,8.1905e-05,818.49,8.1783e-05,814.93,-2.6682e-05,-0.033949,-2.7614e-05,-7.0372,1.7257
22909,19.986,5.5455,0.1,8.2271e-05,822.14,8.2194e-05,819.9,-2.6926e-05,0.012836,-2.7524e-05,-4.4807,1.7262
22910,19.895,5.6364,0.1,8.371e-05,836.52,8.3588e-05,833,-2.7276e-05,0.010708,-2.8209e-05,-7.0018,1.713
22911,19.986,5.3636,0.1,8.2335e-05,822.78,8.2347e-05,823.14,-2.7076e-05,0.97817,-2.7241e-05,-0.26392,1.7264
22912,19.895,5.4545,0.1,8.3805e-05,837.48,8.3762e-05,836.2,-2.752e-05,0.07395,-2.7878e-05,-2.6165,1.7132
22913,19.986,5.1818,0.1,8.2443e-05,823.86,8.2568e-05,827.59,-2.6566e-05,7.5997,-2.7588e-05,-0.080757,1.7266
22914,19.895,5.2727,0.1,8.3958e-05,839,8.4022e-05,840.88,-2.7372e-05,3.9128,-2.7911e-05,-0.1378,1.7134
22915,19.986,5,0.1,8.2585e-05,825.28,8.2841e-05,833.05,-2.5922e-05,15.837,-2.8039e-05,-0.067889,1.7267
22916,19.895,5.0909,0.1,8.4154e-05,840.96,8.4349e-05,846.81,-2.677e-05,11.906,-2.8366e-05,-0.085882,1.7136
22917,19.986,4.8182,0.1,8.2756e-05,826.99,8.3155e-05,839.29,-2.5186e-05,25.255,-2.8556e-05,-0.063134,1.7269
22918,19.895,4.9091,0.1,8.4388e-05,843.3,8.4731e-05,853.76,-2.6049e-05,21.406,-2.8908e-05,-0.074361,1.7137
22919,19.986,4.6364,0.1,8.2952e-05,828.95,8.3498e-05,846.1,-2.4386e-05,35.506,-2.9119e-05,-0.059911,1.727
22920,19.895,4.7273,0.1,8.4655e-05,845.97,8.5153e-05,861.49,-2.5241e-05,32.032,-2.9513e-05,-0.068582,1.7139
22921,19.986,4.4545,0.1,8.3169e-05,831.12,8.3857e-05,853.22,-2.3551e-05,46.198,-2.9707e-05,-0.057004,1.7272
22922,19.895,4.5455,0.1,8.4949e-05,848.91,8.5603e-05,869.73,-2.4378e-05,43.374,-3.016e-05,-0.064257,1.714
22923,19.986,4.2727,0.1,8.34e-05,833.43,8.4221e-05,860.39,-2.2716e-05,56.911,-3.0297e-05,-0.054245,1.7273
22924,19.895,4.3636,0.1,8.5264e-05,852.06,8.6065e-05,878.18,-2.3496e-05,54.98,-3.0822e-05,-0.060508,1.7141
22925,19.986,4.0909,0.1,8.3638e-05,835.8,8.4577e-05,867.35,-2.1915e-05,67.213,-3.0867e-05,-0.051725,1.7273
22926,19.895,4.1818,0.1,8.5591e-05,855.32,8.6526e-05,886.55,-2.2632e-05,66.374,-3.1474e-05,-0.057209,1.7142
22927,19.986,3.9091,0.1,8.3872e-05,838.14,8.4912e-05,873.82,-2.118e-05,76.693,-3.1394e-05,-0.049586,1.7274
22928,19.895,4,0.1,8.5919e-05,858.59,8.6969e-05,894.51,-2.1823e-05,77.09,-3.209e-05,-0.054457,1.7143
22929,19.986,3.7273,0.1,8.409e-05,840.32,8.5212e-05,879.56,-2.054e-05,84.977,-3.1856e-05,-0.047929,1.7275
22930,19.895,3.8182,0.1,8.6231e-05,861.72,8.7377e-05,901.76,-2.1101e-05,86.696,-3.2647e-05,-0.052357,1.7144
22931,19.986,3.5455,0.1,8.428e-05,842.22,8.5464e-05,884.31,-2.002e-05,91.748,-3.2237e-05,-0.046775,1.7275
22932,19.895,3.6364,0.1,8.6512e-05,864.53,8.7733e-05,908,-2.0495e-05,94.819,-3.3121e-05,-0.050934,1.7144
22933,19.986,3.3636,0.1,8.4427e-05,843.69,8.5654e-05,887.87,-1.9636e-05,96.758,-3.252e-05,-0.046064,1.7276
22934,19.895,3.4545,0.1,8.6744e-05,866.84,8.802e-05,912.96,-2.0024e-05,101.16,-3.3494e-05,-0.050105,1.7145
22935,19.986,3.1818,0.1,8.452e-05,844.62,8.5773e-05,890.07,-1.9401e-05,99.834,-3.2694e-05,-0.045698,1.7276
22936,19.895,3.2727,0.1,8.691e-05,868.5,8.8221e-05,916.4,-1.9703e-05,105.5,-3.3751e-05,-0.049705,1.7145
22937,19.986,3,0.1,8.4552e-05,844.94,8.5814e-05,890.82,-1.9322e-05,100.87,-3.2753e-05,-0.045587,1.7276
22938,19.895,3.0909,0.1,8.6996e-05,869.36,8.8325e-05,918.17,-1.954e-05,107.71,-3.3882e-05,-0.049559,1.7145
22939,19.986,2.8182,0.1,8.452e-05,844.62,8.5773e-05,890.07,-1.9401e-05,99.834,-3.2694e-05,-0.045698,1.7276
22940,19.895,2.9091,0.1,8.6996e-05,869.36,8.8325e-05,918.17,-1.954e-05,107.71,-3.3882e-05,-0.04956,1.7145
22941,19.986,2.6364,0.1,8.4427e-05,843.69,8.5654e-05,887.87,-1.9636e-05,96.758,-3.252e-05,-0.046063,1.7276
22942,19.895,2.7273,0.1,8.691e-05,868.5,8.8221e-05,916.4,-1.9703e-05,105.5,-3.3751e-05,-0.049705,1.7145
22943,19.986,2.4545,0.1,8.428e-05,842.22,8.5463e-05,884.31,-2.002e-05,91.748,-3.2237e-05,-0.046774,1.7275
22944,19.895,2.5455,0.1,8.6744e-05,866.84,8.802e-05,912.96,-2.0024e-05,101.16,-3.3494e-05,-0.050105,1.7145
22945,19.986,2.2727,0.1,8.409e-05,840.32,8.5212e-05,879.56,-2.054e-05,84.977,-3.1856e-05,-0.04793,1.7275
22946,19.895,2.3636,0.1,8.6512e-05,864.53,8.7733e-05,908,-2.0495e-05,94.819,-3.3121e-05,-0.050935,1.7144
22947,19.986,2.0909,0.1,8.3872e-05,838.14,8.4912e-05,873.82,-2.118e-05,76.693,-3.1394e-05,-0.049586,1.7274
22948,19.895,2.1818,0.1,8.6231e-05,861.72,8.7377e-05,901.76,-2.1101e-05,86.696,-3.2647e-05,-0.052357,1.7144
22949,19.986,1.9091,0.1,8.3638e-05,835.8,8.4577e-05,867.35,-2.1915e-05,67.214,-3.0867e-05,-0.051724,1.7273
22950,19.895,2,0.1,8.5919e-05,858.59,8.6969e-05,894.51,-2.1823e-05,77.09,-3.209e-05,-0.054456,1.7143
22951,19.986,1.7273,0.1,8.34e-05,833.43,8.4221e-05,860.39,-2.2716e-05,56.911,-3.0297e-05,-0.054246,1.7273
22952,19.895,1.8182,0.1,8.5591e-05,855.32,8.6526e-05,886.55,-2.2632e-05,66.374,-3.1474e-05,-0.057209,1.7142
22953,19.986,1.5455,0.1,8.3169e-05,831.12,8.3857e-05,853.22,-2.3551e-05,46.198,-2.9707e-05,-0.057005,1.7272
22954,19.895,1.6364,0.1,8.5264e-05,852.06,8.6065e-05,878.18,-2.3496e-05,54.98,-3.0822e-05,-0.060508,1.7141
22955,19.986,1.3636,0.1,8.2952e-05,828.95,8.3498e-05,846.1,-2.4386e-05,35.506,-2.9119e-05,-0.059911,1.727
22956,19.895,1.4545,0.1,8.4949e-05,848.91,8.5603e-05,869.73,-2.4378e-05,43.374,-3.016e-05,-0.064257,1.714
22957,19.986,1.1818,0.1,8.2756e-05,826.99,8.3155e-05,839.29,-2.5186e-05,25.255,-2.8556e-05,-0.063135,1.7269
22958,19.895,1.2727,0.1,8.4655e-05,845.97,8.5153e-05,861.49,-2.5241e-05,32.032,-2.9513e-05,-0.068583,1.7139
22959,19.986,1,0.1,8.2585e-05,825.28,8.2841e-05,833.05,-2.5922e-05,15.837,-2.8039e-05,-0.06789,1.7267
22960,19.895,1.0909,0.1,8.4388e-05,843.3,8.4731e-05,853.76,-2.6049e-05,21.406,-2.8908e-05,-0.07436,1.7137
22961,19.986,0.81818,0.1,8.2443e-05,823.86,8.2568e-05,827.59,-2.6566e-05,7.5997,-2.7588e-05,-0.080758,1.7266
22962,19.895,0.90909,0.1,8.4154e-05,840.96,8.4349e-05,846.81,-2.677e-05,11.907,-2.8366e-05,-0.085884,1.7136
22963,19.986,0.63636,0.1,8.2335e-05,822.78,8.2347e-05,823.14,-2.7076e-05,0.97818,-2.7241e-05,-0.26391,1.7264
22964,19.895,0.72727,0.1,8.3958e-05,839,8.4022e-05,840.88,-2.7372e-05,3.9129,-2.7911e-05,-0.1378,1.7134
22965,19.986,0.45455,0.1,8.2271e-05,822.14,8.2194e-05,819.9,-2.6926e-05,0.012836,-2.7524e-05,-4.4807,1.7262
22966,19.895,0.54545,0.1,8.3805e-05,837.48,8.3762e-05,836.2,-2.752e-05,0.073948,-2.7878e-05,-2.6165,1.7132
22967,19.986,0.27273,0.1,8.2333e-05,822.76,8.2187e-05,818.52,-2.6751e-05,0.0059491,-2.7874e-05,-8.4347,1.726
22968,19.895,0.36364,0.1,8.371e-05,836.52,8.3588e-05,833,-2.7276e-05,0.01071,-2.8209e-05,-7.0018,1.713
22969,19.895,0.18182,0.1,8.3831e-05,837.74,8.3647e-05,832.42,-2.714e-05,0.0044963,-2.8543e-05,-10.537,1.7128
22970,19.986,0.090909,0.1,8.1905e-05,818.49,8.1783e-05,814.93,-2.6682e-05,-0.033948,-2.7614e-05,-7.0372,1.7257
22971,19.804,5.7273,0.1,8.5192e-05,851.33,8.5036e-05,846.8,-2.7665e-05,0.01107,-2.8865e-05,-9.0056,1.6998
22972,19.712,5.8182,0.1,8.6471e-05,864.11,8.6276e-05,858.48,-2.798e-05,0.0055886,-2.9466e-05,-11.16,1.6866
22973,19.804,5.9091,0.1,8.4672e-05,846.13,8.4546e-05,842.47,-2.7586e-05,-0.039312,-2.8544e-05,-7.2353,1.6995
22974,19.804,5.5455,0.1,8.5238e-05,851.79,8.5151e-05,849.27,-2.7875e-05,0.030862,-2.8553e-05,-5.0601,1.7
22975,19.712,5.6364,0.1,8.6466e-05,864.06,8.6329e-05,860.1,-2.814e-05,0.022727,-2.9194e-05,-7.8944,1.6868
22976,19.804,5.3636,0.1,8.5423e-05,853.64,8.5432e-05,853.91,-2.8084e-05,0.99674,-2.8276e-05,-0.44592,1.7002
22977,19.712,5.4545,0.1,8.6694e-05,866.34,8.6638e-05,864.71,-2.8433e-05,0.10853,-2.8895e-05,-3.359,1.687
22978,19.804,5.1818,0.1,8.5664e-05,856.05,8.5799e-05,860.07,-2.7576e-05,8.2191,-2.8685e-05,-0.11241,1.7004
22979,19.712,5.2727,0.1,8.6995e-05,869.35,8.7056e-05,871.17,-2.8375e-05,3.861,-2.8918e-05,-0.21846,1.6872
22980,19.804,5,0.1,8.5952e-05,858.93,8.6235e-05,867.5,-2.6893e-05,17.496,-2.9234e-05,-0.087259,1.7006
22981,19.712,5.0909,0.1,8.7356e-05,872.96,8.7564e-05,879.2,-2.7756e-05,12.729,-2.9466e-05,-0.11659,1.6874
22982,19.804,4.8182,0.1,8.6282e-05,862.22,8.6725e-05,875.94,-2.6101e-05,28.203,-2.9865e-05,-0.077662,1.7007
22983,19.712,4.9091,0.1,8.7772e-05,877.11,8.8145e-05,888.54,-2.6994e-05,23.434,-3.0126e-05,-0.094699,1.6876
22984,19.804,4.6364,0.1,8.6647e-05,865.87,8.7255e-05,885.1,-2.5232e-05,39.917,-3.0554e-05,-0.071632,1.7009
22985,19.712,4.7273,0.1,8.8234e-05,881.73,8.8783e-05,898.9,-2.6129e-05,35.498,-3.0865e-05,-0.084116,1.6877
22986,19.804,4.4545,0.1,8.704e-05,869.8,8.7809e-05,894.67,-2.4322e-05,52.168,-3.1274e-05,-0.066819,1.701
22987,19.712,4.5455,0.1,8.8735e-05,886.74,8.9458e-05,909.92,-2.52e-05,48.427,-3.1655e-05,-0.076842,1.6879
22988,19.804,4.2727,0.1,8.7452e-05,873.92,8.8368e-05,904.32,-2.3411e-05,64.453,-3.1998e-05,-0.062715,1.7011
22989,19.712,4.3636,0.1,8.9265e-05,892.03,9.0153e-05,921.23,-2.4247e-05,61.68,-3.2466e-05,-0.071084,1.688
22990,19.804,4.0909,0.1,8.7869e-05,878.09,8.8916e-05,913.7,-2.254e-05,76.259,-3.2697e-05,-0.059297,1.7012
22991,19.712,4.1818,0.1,8.9809e-05,897.47,9.0845e-05,932.45,-2.3316e-05,74.69,-3.3265e-05,-0.066419,1.6881
22992,19.804,3.9091,0.1,8.8276e-05,882.15,8.9433e-05,922.44,-2.1744e-05,87.099,-3.3343e-05,-0.056661,1.7013
22993,19.712,4,0.1,9.0349e-05,902.87,9.1512e-05,943.14,-2.2447e-05,86.902,-3.4021e-05,-0.062851,1.6882
22994,19.804,3.7273,0.1,8.8652e-05,885.91,8.9898e-05,930.2,-2.1055e-05,96.544,-3.3911e-05,-0.054855,1.7013
22995,19.712,3.8182,0.1,9.0863e-05,908,9.2129e-05,952.91,-2.1678e-05,97.812,-3.4704e-05,-0.060433,1.6882
22996,19.804,3.5455,0.1,8.8976e-05,889.15,9.0289e-05,936.64,-2.0498e-05,104.24,-3.4378e-05,-0.053803,1.7014
22997,19.712,3.6364,0.1,9.1322e-05,912.59,9.2669e-05,961.34,-2.1037e-05,107,-3.5285e-05,-0.059092,1.6883
22998,19.804,3.3636,0.1,8.9227e-05,891.66,9.0586e-05,941.49,-2.009e-05,109.91,-3.4725e-05,-0.053317,1.7014
22999,19.712,3.4545,0.1,9.17e-05,916.37,9.3105e-05,968.06,-2.0545e-05,114.14,-3.5743e-05,-0.05859,1.6883
23000,19.804,3.1818,0.1,8.9386e-05,893.24,9.0772e-05,944.49,-1.9842e-05,113.39,-3.4939e-05,-0.053159,1.7014
23001,19.712,3.2727,0.1,9.197e-05,919.06,9.3412e-05,972.73,-2.0212e-05,119,-3.6058e-05,-0.058566,1.6884
23002,19.804,3,0.1,8.944e-05,893.79,9.0835e-05,945.51,-1.9758e-05,114.55,-3.5012e-05,-0.053131,1.7014
23003,19.712,3.0909,0.1,9.211e-05,920.46,9.3571e-05,975.13,-2.0044e-05,121.47,-3.6219e-05,-0.058664,1.6884
23004,19.804,2.8182,0.1,8.9386e-05,893.24,9.0772e-05,944.49,-1.9842e-05,113.39,-3.4939e-05,-0.053159,1.7014
23005,19.712,2.9091,0.1,9.211e-05,920.46,9.3571e-05,975.13,-2.0044e-05,121.47,-3.6219e-05,-0.058665,1.6884
23006,19.804,2.6364,0.1,8.9227e-05,891.66,9.0586e-05,941.49,-2.009e-05,109.91,-3.4725e-05,-0.053318,1.7014
23007,19.712,2.7273,0.1,9.197e-05,919.06,9.3412e-05,972.73,-2.0212e-05,119,-3.6058e-05,-0.058567,1.6884
23008,19.804,2.4545,0.1,8.8976e-05,889.15,9.0289e-05,936.64,-2.0498e-05,104.24,-3.4378e-05,-0.053804,1.7014
23009,19.712,2.5455,0.1,9.17e-05,916.37,9.3105e-05,968.06,-2.0545e-05,114.14,-3.5743e-05,-0.05859,1.6883
23010,19.804,2.2727,0.1,8.8652e-05,885.91,8.9898e-05,930.2,-2.1055e-05,96.544,-3.3911e-05,-0.054855,1.7013
23011,19.712,2.3636,0.1,9.1322e-05,912.59,9.2669e-05,961.34,-2.1037e-05,107,-3.5285e-05,-0.059093,1.6883
23012,19.804,2.0909,0.1,8.8276e-05,882.15,8.9433e-05,922.44,-2.1744e-05,87.1,-3.3343e-05,-0.056661,1.7013
23013,19.712,2.1818,0.1,9.0863e-05,908,9.2129e-05,952.91,-2.1678e-05,97.812,-3.4704e-05,-0.060433,1.6882
23014,19.804,1.9091,0.1,8.7869e-05,878.09,8.8916e-05,913.7,-2.254e-05,76.259,-3.2697e-05,-0.059296,1.7012
23015,19.712,2,0.1,9.0349e-05,902.87,9.1512e-05,943.14,-2.2447e-05,86.902,-3.4021e-05,-0.062852,1.6882
23016,19.804,1.7273,0.1,8.7452e-05,873.92,8.8368e-05,904.32,-2.3411e-05,64.453,-3.1998e-05,-0.062715,1.7011
23017,19.712,1.8182,0.1,8.9809e-05,897.47,9.0845e-05,932.45,-2.3316e-05,74.69,-3.3265e-05,-0.066419,1.6881
23018,19.804,1.5455,0.1,8.704e-05,869.8,8.7809e-05,894.67,-2.4322e-05,52.169,-3.1274e-05,-0.06682,1.701
23019,19.712,1.6364,0.1,8.9265e-05,892.03,9.0153e-05,921.23,-2.4247e-05,61.68,-3.2466e-05,-0.071084,1.688
23020,19.804,1.3636,0.1,8.6647e-05,865.87,8.7255e-05,885.1,-2.5232e-05,39.917,-3.0554e-05,-0.071632,1.7009
23021,19.712,1.4545,0.1,8.8735e-05,886.74,8.9458e-05,909.92,-2.52e-05,48.427,-3.1655e-05,-0.076843,1.6879
23022,19.804,1.1818,0.1,8.6282e-05,862.22,8.6725e-05,875.94,-2.6101e-05,28.203,-2.9865e-05,-0.077661,1.7007
23023,19.712,1.2727,0.1,8.8234e-05,881.73,8.8783e-05,898.9,-2.6129e-05,35.498,-3.0865e-05,-0.084116,1.6877
23024,19.804,1,0.1,8.5952e-05,858.93,8.6235e-05,867.5,-2.6893e-05,17.496,-2.9234e-05,-0.087259,1.7006
23025,19.712,1.0909,0.1,8.7772e-05,877.11,8.8145e-05,888.54,-2.6994e-05,23.434,-3.0126e-05,-0.094699,1.6876
23026,19.804,0.81818,0.1,8.5664e-05,856.05,8.5799e-05,860.07,-2.7576e-05,8.2191,-2.8685e-05,-0.11241,1.7004
23027,19.712,0.90909,0.1,8.7356e-05,872.96,8.7564e-05,879.2,-2.7756e-05,12.729,-2.9466e-05,-0.11659,1.6874
23028,19.804,0.63636,0.1,8.5423e-05,853.64,8.5432e-05,853.91,-2.8084e-05,0.99675,-2.8276e-05,-0.44591,1.7002
23029,19.712,0.72727,0.1,8.6995e-05,869.35,8.7056e-05,871.17,-2.8375e-05,3.8611,-2.8918e-05,-0.21845,1.6872
23030,19.804,0.45455,0.1,8.5238e-05,851.79,8.5151e-05,849.27,-2.7875e-05,0.030861,-2.8553e-05,-5.0601,1.7
23031,19.712,0.54545,0.1,8.6694e-05,866.34,8.6638e-05,864.71,-2.8433e-05,0.10853,-2.8895e-05,-3.359,1.687
23032,19.804,0.27273,0.1,8.5192e-05,851.33,8.5036e-05,846.8,-2.7665e-05,0.011071,-2.8865e-05,-9.0056,1.6998
23033,19.712,0.36364,0.1,8.6466e-05,864.06,8.6329e-05,860.1,-2.814e-05,0.022729,-2.9194e-05,-7.8944,1.6868
23034,19.712,0.18182,0.1,8.6471e-05,864.11,8.6276e-05,858.48,-2.798e-05,0.0055885,-2.9466e-05,-11.16,1.6866
23035,19.804,0.090909,0.1,8.4672e-05,846.13,8.4546e-05,842.47,-2.7586e-05,-0.039311,-2.8544e-05,-7.2354,1.6995
23036,19.621,5.7273,0.1,8.7731e-05,876.7,8.7557e-05,871.69,-2.8455e-05,0.017592,-2.9783e-05,-9.9589,1.6736
23037,19.53,5.8182,0.1,8.8731e-05,886.7,8.8519e-05,880.58,-2.8678e-05,0.006603,-3.0293e-05,-12.123,1.6605
23038,19.621,5.9091,0.1,8.7085e-05,870.25,8.6952e-05,866.39,-2.8363e-05,-0.044068,-2.9372e-05,-7.6205,1.6734
23039,19.621,5.5455,0.1,8.7916e-05,878.56,8.7812e-05,875.51,-2.8705e-05,0.051394,-2.9525e-05,-6.1143,1.6739
23040,19.53,5.6364,0.1,8.8872e-05,888.1,8.8711e-05,883.47,-2.8866e-05,0.037693,-3.01e-05,-9.2394,1.6607
23041,19.621,5.3636,0.1,8.8261e-05,882,8.8259e-05,881.94,-2.9015e-05,0.78782,-2.9242e-05,-0.92046,1.6741
23042,19.53,5.4545,0.1,8.9271e-05,892.1,8.9194e-05,889.85,-2.9219e-05,0.13637,-2.9852e-05,-4.6173,1.6609
23043,19.621,5.1818,0.1,8.8683e-05,886.21,8.8819e-05,890.27,-2.856e-05,8.336,-2.9691e-05,-0.16468,1.6743
23044,19.53,5.2727,0.1,8.9769e-05,897.08,8.9819e-05,898.55,-2.9325e-05,3.3458,-2.9822e-05,-0.38714,1.6611
23045,19.621,5,0.1,8.9171e-05,891.09,8.9472e-05,900.23,-2.7855e-05,18.678,-3.0356e-05,-0.11571,1.6745
23046,19.53,5.0909,0.1,9.0353e-05,902.91,9.0565e-05,909.27,-2.8717e-05,13.027,-3.0473e-05,-0.16471,1.6613
23047,19.621,4.8182,0.1,8.9719e-05,896.57,9.02e-05,911.49,-2.7021e-05,30.742,-3.1125e-05,-0.097906,1.6746
23048,19.53,4.9091,0.1,9.1014e-05,909.52,9.1411e-05,921.68,-2.7933e-05,24.979,-3.1274e-05,-0.12396,1.6615
23049,19.621,4.6364,0.1,9.0318e-05,902.55,9.0984e-05,923.71,-2.6096e-05,44.018,-3.1966e-05,-0.087461,1.6748
23050,19.53,4.7273,0.1,9.1744e-05,916.81,9.2337e-05,935.42,-2.7028e-05,38.561,-3.2174e-05,-0.1055,1.6617
23051,19.621,4.4545,0.1,9.0956e-05,908.93,9.1801e-05,936.47,-2.5124e-05,57.946,-3.2846e-05,-0.079795,1.6749
23052,19.53,4.5455,0.1,9.2529e-05,924.65,9.3317e-05,950.04,-2.6048e-05,53.186,-3.3139e-05,-0.093677,1.6618
23053,19.621,4.2727,0.1,9.1619e-05,915.55,9.2628e-05,949.35,-2.4151e-05,71.922,-3.3733e-05,-0.073755,1.675
23054,19.53,4.3636,0.1,9.3353e-05,932.89,9.4324e-05,965.07,-2.5041e-05,68.209,-3.413e-05,-0.084932,1.6619
23055,19.621,4.0909,0.1,9.2286e-05,922.23,9.344e-05,961.89,-2.3222e-05,85.337,-3.4589e-05,-0.069109,1.6751
23056,19.53,4.1818,0.1,9.4196e-05,941.31,9.5331e-05,979.99,-2.4059e-05,82.95,-3.5109e-05,-0.078303,1.662
23057,19.621,3.9091,0.1,9.2934e-05,928.7,9.4207e-05,973.61,-2.2381e-05,97.618,-3.5382e-05,-0.065875,1.6752
23058,19.53,4,0.1,9.503e-05,949.65,9.6304e-05,994.27,-2.315e-05,96.746,-3.6036e-05,-0.073633,1.6621
23059,19.621,3.7273,0.1,9.3531e-05,934.67,9.49e-05,984.05,-2.166e-05,108.27,-3.6078e-05,-0.064012,1.6752
23060,19.53,3.8182,0.1,9.5822e-05,957.55,9.7207e-05,1007.4,-2.2355e-05,109.01,-3.6872e-05,-0.070893,1.6622
23061,19.621,3.5455,0.1,9.4045e-05,939.8,9.5485e-05,992.75,-2.1083e-05,116.9,-3.665e-05,-0.063293,1.6753
23062,19.53,3.6364,0.1,9.653e-05,964.63,9.8002e-05,1018.7,-2.1702e-05,119.27,-3.7585e-05,-0.069866,1.6622
23063,19.621,3.3636,0.1,9.4442e-05,943.77,9.5931e-05,999.29,-2.0665e-05,123.24,-3.7075e-05,-0.063306,1.6753
23064,19.53,3.4545,0.1,9.7111e-05,970.44,9.8645e-05,1027.7,-2.1209e-05,127.18,-3.8145e-05,-0.070052,1.6623
23065,19.621,3.1818,0.1,9.4693e-05,946.28,9.621e-05,1003.4,-2.0413e-05,127.1,-3.7337e-05,-0.063572,1.6753
23066,19.53,3.2727,0.1,9.7526e-05,974.58,9.91e-05,1034,-2.0881e-05,132.54,-3.8531e-05,-0.070759,1.6623
23067,19.621,3,0.1,9.4779e-05,947.13,9.6306e-05,1004.7,-2.0329e-05,128.39,-3.7426e-05,-0.06371,1.6753
23068,19.53,3.0909,0.1,9.7742e-05,976.74,9.9335e-05,1037.3,-2.0717e-05,135.25,-3.8727e-05,-0.071317,1.6623
23069,19.621,2.8182,0.1,9.4693e-05,946.28,9.621e-05,1003.4,-2.0413e-05,127.1,-3.7337e-05,-0.063574,1.6753
23070,19.53,2.9091,0.1,9.7742e-05,976.74,9.9335e-05,1037.3,-2.0717e-05,135.25,-3.8727e-05,-0.071318,1.6623
23071,19.621,2.6364,0.1,9.4442e-05,943.77,9.5931e-05,999.29,-2.0665e-05,123.24,-3.7075e-05,-0.063306,1.6753
23072,19.53,2.7273,0.1,9.7526e-05,974.58,9.91e-05,1034,-2.0881e-05,132.54,-3.8531e-05,-0.07076,1.6623
23073,19.621,2.4545,0.1,9.4045e-05,939.8,9.5485e-05,992.75,-2.1083e-05,116.9,-3.665e-05,-0.063293,1.6753
23074,19.53,2.5455,0.1,9.7111e-05,970.44,9.8645e-05,1027.7,-2.1209e-05,127.18,-3.8145e-05,-0.070052,1.6623
23075,19.621,2.2727,0.1,9.3531e-05,934.67,9.49e-05,984.05,-2.166e-05,108.27,-3.6078e-05,-0.064012,1.6752
23076,19.53,2.3636,0.1,9.653e-05,964.63,9.8002e-05,1018.7,-2.1702e-05,119.27,-3.7585e-05,-0.069867,1.6622
23077,19.621,2.0909,0.1,9.2934e-05,928.7,9.4207e-05,973.61,-2.2381e-05,97.618,-3.5382e-05,-0.065875,1.6752
23078,19.53,2.1818,0.1,9.5822e-05,957.55,9.7207e-05,1007.4,-2.2355e-05,109.01,-3.6872e-05,-0.070892,1.6622
23079,19.621,1.9091,0.1,9.2286e-05,922.23,9.344e-05,961.89,-2.3222e-05,85.337,-3.4589e-05,-0.069109,1.6751
23080,19.53,2,0.1,9.503e-05,949.65,9.6304e-05,994.27,-2.315e-05,96.746,-3.6036e-05,-0.073633,1.6621
23081,19.621,1.7273,0.1,9.1619e-05,915.55,9.2628e-05,949.35,-2.4151e-05,71.922,-3.3733e-05,-0.073755,1.675
23082,19.53,1.8182,0.1,9.4196e-05,941.31,9.5331e-05,979.99,-2.4059e-05,82.95,-3.5109e-05,-0.078302,1.662
23083,19.621,1.5455,0.1,9.0956e-05,908.93,9.1801e-05,936.47,-2.5124e-05,57.946,-3.2846e-05,-0.079795,1.6749
23084,19.53,1.6364,0.1,9.3353e-05,932.89,9.4324e-05,965.07,-2.5041e-05,68.209,-3.413e-05,-0.084932,1.6619
23085,19.621,1.3636,0.1,9.0318e-05,902.55,9.0984e-05,923.71,-2.6096e-05,44.018,-3.1966e-05,-0.087461,1.6748
23086,19.53,1.4545,0.1,9.2529e-05,924.65,9.3317e-05,950.04,-2.6048e-05,53.187,-3.3139e-05,-0.093677,1.6618
23087,19.621,1.1818,0.1,8.9719e-05,896.57,9.02e-05,911.49,-2.7021e-05,30.742,-3.1125e-05,-0.097907,1.6746
23088,19.53,1.2727,0.1,9.1744e-05,916.81,9.2337e-05,935.42,-2.7028e-05,38.561,-3.2174e-05,-0.1055,1.6617
23089,19.621,1,0.1,8.9171e-05,891.09,8.9472e-05,900.23,-2.7855e-05,18.678,-3.0356e-05,-0.11571,1.6745
23090,19.53,1.0909,0.1,9.1014e-05,909.52,9.1411e-05,921.68,-2.7933e-05,24.979,-3.1274e-05,-0.12396,1.6615
23091,19.621,0.81818,0.1,8.8683e-05,886.21,8.8819e-05,890.27,-2.856e-05,8.336,-2.9691e-05,-0.16468,1.6743
23092,19.53,0.90909,0.1,9.0353e-05,902.91,9.0565e-05,909.27,-2.8717e-05,13.027,-3.0473e-05,-0.16471,1.6613
23093,19.621,0.63636,0.1,8.8261e-05,882,8.8259e-05,881.94,-2.9015e-05,0.78783,-2.9242e-05,-0.92044,1.6741
23094,19.53,0.72727,0.1,8.9769e-05,897.08,8.9819e-05,898.55,-2.9325e-05,3.3458,-2.9822e-05,-0.38714,1.6611
23095,19.621,0.45455,0.1,8.7916e-05,878.56,8.7812e-05,875.51,-2.8705e-05,0.051395,-2.9525e-05,-6.1143,1.6739
23096,19.53,0.54545,0.1,8.9271e-05,892.1,8.9194e-05,889.85,-2.9219e-05,0.13637,-2.9852e-05,-4.6173,1.6609
23097,19.621,0.27273,0.1,8.7731e-05,876.7,8.7557e-05,871.69,-2.8455e-05,0.017592,-2.9783e-05,-9.9589,1.6736
23098,19.53,0.36364,0.1,8.8872e-05,888.1,8.8711e-05,883.47,-2.8866e-05,0.037694,-3.01e-05,-9.2394,1.6607
23099,19.53,0.18182,0.1,8.8731e-05,886.7,8.8519e-05,880.58,-2.8678e-05,0.0066029,-3.0293e-05,-12.123,1.6605
23100,19.621,0.090909,0.1,8.7085e-05,870.25,8.6952e-05,866.39,-2.8363e-05,-0.044069,-2.9372e-05,-7.6205,1.6734
23101,19.439,5.7273,0.1,8.9861e-05,897.99,8.9663e-05,892.28,-2.9089e-05,0.025604,-3.06e-05,-11.326,1.6475
23102,19.347,5.8182,0.1,9.0513e-05,904.51,9.0277e-05,897.71,-2.92e-05,0.0075801,-3.0992e-05,-13.457,1.6344
23103,19.439,5.9091,0.1,8.9052e-05,889.91,8.8909e-05,885.75,-2.8984e-05,-0.047729,-3.007e-05,-8.2117,1.6473
23104,19.439,5.5455,0.1,9.0223e-05,901.61,9.0091e-05,897.78,-2.9386e-05,0.07383,-3.0418e-05,-7.6732,1.6478
23105,19.347,5.6364,0.1,9.0831e-05,907.68,9.0639e-05,902.13,-2.942e-05,0.055775,-3.0899e-05,-11.056,1.6347
23106,19.439,5.3636,0.1,9.0776e-05,907.13,9.0752e-05,906.44,-2.981e-05,0.58736,-3.0149e-05,-1.9615,1.648
23107,19.347,5.4545,0.1,9.1449e-05,913.86,9.134e-05,910.71,-2.9846e-05,0.16237,-3.0722e-05,-6.4191,1.6349
23108,19.439,5.1818,0.1,9.1436e-05,913.73,9.1564e-05,917.53,-2.9499e-05,7.918,-3.0587e-05,-0.25644,1.6482
23109,19.347,5.2727,0.1,9.2203e-05,921.4,9.2231e-05,922.23,-3.018e-05,2.4798,-3.0616e-05,-0.79539,1.6351
23110,19.439,5,0.1,9.2193e-05,921.29,9.2503e-05,930.72,-2.8796e-05,19.321,-3.1389e-05,-0.15856,1.6484
23111,19.347,5.0909,0.1,9.3081e-05,930.17,9.3287e-05,936.35,-2.9637e-05,12.753,-3.1367e-05,-0.24343,1.6353
23112,19.439,4.8182,0.1,9.3036e-05,929.71,9.3548e-05,945.61,-2.7941e-05,32.796,-3.2322e-05,-0.12652,1.6486
23113,19.347,4.9091,0.1,9.4071e-05,940.06,9.4483e-05,952.69,-2.8857e-05,25.958,-3.2334e-05,-0.16704,1.6355
23114,19.439,4.6364,0.1,9.3951e-05,938.86,9.467e-05,961.76,-2.698e-05,47.725,-3.3347e-05,-0.109,1.6487
23115,19.347,4.7273,0.1,9.5159e-05,950.94,9.5789e-05,970.76,-2.7938e-05,41.119,-3.3429e-05,-0.13539,1.6356
23116,19.439,4.4545,0.1,9.4923e-05,948.57,9.584e-05,978.65,-2.5966e-05,63.444,-3.4422e-05,-0.09697,1.6488
23117,19.347,4.5455,0.1,9.6326e-05,962.6,9.7174e-05,990.02,-2.6931e-05,57.54,-3.4605e-05,-0.11641,1.6358
23118,19.439,4.2727,0.1,9.5928e-05,958.61,9.7027e-05,995.72,-2.495e-05,79.23,-3.5507e-05,-0.088057,1.6489
23119,19.347,4.3636,0.1,9.7549e-05,974.82,9.8599e-05,1009.8,-2.5894e-05,74.452,-3.5817e-05,-0.10311,1.6359
23120,19.439,4.0909,0.1,9.6938e-05,968.71,9.8195e-05,1012.4,-2.3987e-05,94.352,-3.6556e-05,-0.081653,1.649
23121,19.347,4.1818,0.1,9.8797e-05,987.28,0.00010003,1029.6,-2.4887e-05,91.033,-3.7016e-05,-0.093557,1.636
23122,19.439,3.9091,0.1,9.7916e-05,978.49,9.9304e-05,1028,-2.3125e-05,108.13,-3.7527e-05,-0.077653,1.6491
23123,19.347,4,0.1,0.00010003,999.62,0.00010141,1048.5,-2.3967e-05,106.49,-3.8151e-05,-0.08731,1.6361
23124,19.439,3.7273,0.1,9.8818e-05,987.5,0.00010031,1042,-2.2398e-05,120.01,-3.8379e-05,-0.075888,1.6492
23125,19.347,3.8182,0.1,0.0001012,1011.3,0.00010271,1066,-2.3178e-05,120.12,-3.9176e-05,-0.084228,1.6362
23126,19.439,3.5455,0.1,9.9594e-05,995.25,0.00010116,1053.6,-2.1827e-05,129.55,-3.908e-05,-0.07588,1.6492
23127,19.347,3.6364,0.1,0.00010225,1021.8,0.00010385,1081.1,-2.2548e-05,131.41,-4.0049e-05,-0.083876,1.6362
23128,19.439,3.3636,0.1,0.00010019,1001.2,0.00010181,1062.4,-2.1423e-05,136.5,-3.96e-05,-0.076847,1.6493
23129,19.347,3.4545,0.1,0.00010311,1030.4,0.00010478,1093.2,-2.2086e-05,140.02,-4.0733e-05,-0.085335,1.6363
23130,19.439,3.1818,0.1,0.00010057,1005,0.00010222,1067.9,-2.1182e-05,140.71,-3.992e-05,-0.077902,1.6493
23131,19.347,3.2727,0.1,0.00010373,1036.6,0.00010543,1101.7,-2.1787e-05,145.8,-4.1204e-05,-0.087351,1.6363
23132,19.439,3,0.1,0.0001007,1006.3,0.00010236,1069.8,-2.1103e-05,142.12,-4.0028e-05,-0.078342,1.6493
23133,19.347,3.0909,0.1,0.00010405,1039.8,0.00010577,1106,-2.1642e-05,148.69,-4.1444e-05,-0.088723,1.6363
23134,19.439,2.8182,0.1,0.00010057,1005,0.00010222,1067.9,-2.1182e-05,140.71,-3.992e-05,-0.077902,1.6493
23135,19.347,2.9091,0.1,0.00010405,1039.8,0.00010577,1106,-2.1642e-05,148.69,-4.1444e-05,-0.088723,1.6363
23136,19.439,2.6364,0.1,0.00010019,1001.2,0.00010181,1062.4,-2.1423e-05,136.5,-3.96e-05,-0.076848,1.6493
23137,19.347,2.7273,0.1,0.00010373,1036.6,0.00010543,1101.7,-2.1787e-05,145.8,-4.1204e-05,-0.08735,1.6363
23138,19.439,2.4545,0.1,9.9594e-05,995.25,0.00010116,1053.6,-2.1827e-05,129.55,-3.908e-05,-0.07588,1.6492
23139,19.347,2.5455,0.1,0.00010311,1030.4,0.00010478,1093.2,-2.2086e-05,140.02,-4.0733e-05,-0.085335,1.6363
23140,19.439,2.2727,0.1,9.8818e-05,987.5,0.00010031,1042,-2.2398e-05,120.01,-3.8379e-05,-0.075887,1.6492
23141,19.347,2.3636,0.1,0.00010225,1021.8,0.00010385,1081.1,-2.2548e-05,131.41,-4.0049e-05,-0.083876,1.6362
23142,19.439,2.0909,0.1,9.7916e-05,978.49,9.9304e-05,1028,-2.3125e-05,108.13,-3.7527e-05,-0.077652,1.6491
23143,19.347,2.1818,0.1,0.0001012,1011.3,0.00010271,1066,-2.3178e-05,120.12,-3.9176e-05,-0.084228,1.6362
23144,19.439,1.9091,0.1,9.6938e-05,968.71,9.8195e-05,1012.4,-2.3987e-05,94.352,-3.6556e-05,-0.081653,1.649
23145,19.347,2,0.1,0.00010003,999.62,0.00010141,1048.5,-2.3967e-05,106.49,-3.8151e-05,-0.08731,1.6361
23146,19.439,1.7273,0.1,9.5928e-05,958.61,9.7027e-05,995.72,-2.495e-05,79.23,-3.5507e-05,-0.088057,1.6489
23147,19.347,1.8182,0.1,9.8797e-05,987.28,0.00010003,1029.6,-2.4887e-05,91.033,-3.7016e-05,-0.093557,1.636
23148,19.439,1.5455,0.1,9.4923e-05,948.57,9.584e-05,978.65,-2.5966e-05,63.444,-3.4422e-05,-0.09697,1.6488
23149,19.347,1.6364,0.1,9.7549e-05,974.82,9.8599e-05,1009.8,-2.5894e-05,74.452,-3.5817e-05,-0.10311,1.6359
23150,19.439,1.3636,0.1,9.3951e-05,938.86,9.467e-05,961.76,-2.698e-05,47.725,-3.3347e-05,-0.109,1.6487
23151,19.347,1.4545,0.1,9.6326e-05,962.6,9.7174e-05,990.02,-2.6931e-05,57.54,-3.4605e-05,-0.11641,1.6358
23152,19.439,1.1818,0.1,9.3036e-05,929.71,9.3548e-05,945.61,-2.7941e-05,32.796,-3.2322e-05,-0.12652,1.6486
23153,19.347,1.2727,0.1,9.5159e-05,950.94,9.5789e-05,970.76,-2.7938e-05,41.119,-3.3429e-05,-0.13539,1.6356
23154,19.439,1,0.1,9.2193e-05,921.29,9.2503e-05,930.72,-2.8796e-05,19.321,-3.1389e-05,-0.15856,1.6484
23155,19.347,1.0909,0.1,9.4071e-05,940.06,9.4483e-05,952.69,-2.8857e-05,25.958,-3.2334e-05,-0.16704,1.6355
23156,19.439,0.81818,0.1,9.1436e-05,913.73,9.1564e-05,917.53,-2.9499e-05,7.9181,-3.0587e-05,-0.25644,1.6482
23157,19.347,0.90909,0.1,9.3081e-05,930.17,9.3287e-05,936.35,-2.9637e-05,12.753,-3.1367e-05,-0.24343,1.6353
23158,19.439,0.63636,0.1,9.0776e-05,907.13,9.0752e-05,906.44,-2.981e-05,0.58737,-3.0149e-05,-1.9614,1.648
23159,19.347,0.72727,0.1,9.2203e-05,921.4,9.2231e-05,922.23,-3.018e-05,2.4798,-3.0616e-05,-0.79538,1.6351
23160,19.439,0.45455,0.1,9.0223e-05,901.61,9.0091e-05,897.78,-2.9386e-05,0.07383,-3.0418e-05,-7.6732,1.6478
23161,19.347,0.54545,0.1,9.1449e-05,913.86,9.134e-05,910.71,-2.9846e-05,0.16237,-3.0722e-05,-6.4191,1.6349
23162,19.439,0.27273,0.1,8.9861e-05,897.99,8.9663e-05,892.28,-2.9089e-05,0.025605,-3.06e-05,-11.326,1.6475
23163,19.347,0.36364,0.1,9.0831e-05,907.68,9.0639e-05,902.13,-2.942e-05,0.055776,-3.0899e-05,-11.056,1.6347
23164,19.347,0.18182,0.1,9.0513e-05,904.51,9.0277e-05,897.71,-2.92e-05,0.0075812,-3.0992e-05,-13.457,1.6344
23165,19.439,0.090909,0.1,8.9052e-05,889.91,8.8909e-05,885.75,-2.8984e-05,-0.047729,-3.007e-05,-8.2117,1.6473
23166,19.256,5.7273,0.1,9.1475e-05,914.12,9.1245e-05,907.5,-2.9531e-05,0.035449,-3.1283e-05,-13.125,1.6215
23167,19.165,5.8182,0.1,9.1696e-05,916.33,9.1429e-05,908.65,-2.9504e-05,0.008749,-3.1526e-05,-15.18,1.6084
23168,19.256,5.9091,0.1,9.046e-05,903.98,9.0303e-05,899.41,-2.9408e-05,-0.050027,-3.0602e-05,-9.0231,1.6213
23169,19.256,5.5455,0.1,9.2055e-05,919.92,9.1887e-05,915.05,-2.9886e-05,0.099192,-3.1197e-05,-9.7505,1.6218
23170,19.165,5.6364,0.1,9.2225e-05,921.62,9.1992e-05,914.91,-2.9765e-05,0.07769,-3.155e-05,-13.338,1.6087
23171,19.256,5.3636,0.1,9.2875e-05,928.11,9.282e-05,926.5,-3.0425e-05,0.48952,-3.0981e-05,-3.6892,1.622
23172,19.165,5.4545,0.1,9.3116e-05,930.52,9.2967e-05,926.2,-3.0277e-05,0.19223,-3.147e-05,-8.7704,1.6089
23173,19.256,5.1818,0.1,9.3847e-05,937.82,9.3956e-05,941.06,-3.0366e-05,6.9562,-3.1349e-05,-0.43183,1.6222
23174,19.165,5.2727,0.1,9.42e-05,941.35,9.4196e-05,941.24,-3.0859e-05,1.6278,-3.132e-05,-1.8392,1.6091
23175,19.256,5,0.1,9.4958e-05,948.93,9.5268e-05,958.34,-2.9703e-05,19.349,-3.2308e-05,-0.22538,1.6224
23176,19.165,5.0909,0.1,9.5462e-05,953.96,9.5651e-05,959.64,-3.0491e-05,11.855,-3.212e-05,-0.38017,1.6093
23177,19.256,4.8182,0.1,9.6194e-05,961.27,9.6727e-05,977.85,-2.8858e-05,34.253,-3.3439e-05,-0.16789,1.6226
23178,19.165,4.9091,0.1,9.6887e-05,968.2,9.7303e-05,980.94,-2.9759e-05,26.254,-3.3284e-05,-0.2326,1.6095
23179,19.256,4.6364,0.1,9.7533e-05,974.66,9.8297e-05,999.04,-2.7893e-05,50.905,-3.4686e-05,-0.13879,1.6227
23180,19.165,4.7273,0.1,9.8452e-05,983.84,9.911e-05,1004.5,-2.8863e-05,43.01,-3.4611e-05,-0.17822,1.6097
23181,19.256,4.4545,0.1,9.8952e-05,988.84,9.9936e-05,1021.2,-2.6864e-05,68.518,-3.5999e-05,-0.11994,1.6229
23182,19.165,4.5455,0.1,0.00010013,1000.6,0.00010103,1029.8,-2.7866e-05,61.302,-3.6045e-05,-0.1477,1.6098
23183,19.256,4.2727,0.1,0.00010042,1003.5,0.0001016,1043.8,-2.5835e-05,86.227,-3.7326e-05,-0.10664,1.623
23184,19.165,4.3636,0.1,0.00010188,1018.1,0.00010301,1055.8,-2.6834e-05,80.215,-3.7527e-05,-0.12728,1.6099
23185,19.256,4.0909,0.1,0.00010189,1018.2,0.00010325,1065.8,-2.487e-05,103.14,-3.8611e-05,-0.097604,1.6231
23186,19.165,4.1818,0.1,0.00010367,1036,0.000105,1081.8,-2.5838e-05,98.745,-3.8996e-05,-0.11317,1.6101
23187,19.256,3.9091,0.1,0.00010332,1032.4,0.00010482,1086.5,-2.4023e-05,118.46,-3.9801e-05,-0.092537,1.6232
23188,19.165,4,0.1,0.00010544,1053.7,0.00010693,1106.8,-2.4948e-05,115.91,-4.0388e-05,-0.10449,1.6102
23189,19.256,3.7273,0.1,0.00010463,1045.6,0.00010624,1105.1,-2.3329e-05,131.52,-4.0845e-05,-0.091084,1.6232
23190,19.165,3.8182,0.1,0.00010713,1070.5,0.00010875,1129.9,-2.4212e-05,130.88,-4.1645e-05,-0.10099,1.6102
23191,19.256,3.5455,0.1,0.00010577,1056.9,0.00010746,1120.7,-2.2805e-05,141.89,-4.1702e-05,-0.092381,1.6233
23192,19.165,3.6364,0.1,0.00010864,1085.6,0.00011036,1150,-2.3654e-05,143.09,-4.2712e-05,-0.10189,1.6103
23193,19.256,3.3636,0.1,0.00010664,1065.7,0.00010839,1132.4,-2.2448e-05,149.35,-4.2337e-05,-0.095032,1.6233
23194,19.165,3.4545,0.1,0.00010988,1098.1,0.00011167,1166.2,-2.3272e-05,152.24,-4.3548e-05,-0.10555,1.6103
23195,19.256,3.1818,0.1,0.0001072,1071.2,0.00010898,1139.8,-2.2243e-05,153.82,-4.2728e-05,-0.097459,1.6233
23196,19.165,3.2727,0.1,0.00011077,1106.9,0.00011261,1177.5,-2.3042e-05,158.27,-4.4121e-05,-0.10979,1.6104
23197,19.256,3,0.1,0.00010739,1073.1,0.00010918,1142.3,-2.2177e-05,155.3,-4.2859e-05,-0.098423,1.6233
23198,19.165,3.0909,0.1,0.00011123,1111.6,0.00011309,1183.3,-2.2936e-05,161.26,-4.4413e-05,-0.11254,1.6104
23199,19.256,2.8182,0.1,0.0001072,1071.2,0.00010898,1139.8,-2.2243e-05,153.82,-4.2728e-05,-0.097459,1.6233
23200,19.165,2.9091,0.1,0.00011123,1111.6,0.00011309,1183.3,-2.2936e-05,161.26,-4.4413e-05,-0.11254,1.6104
23201,19.256,2.6364,0.1,0.00010664,1065.7,0.00010839,1132.4,-2.2448e-05,149.35,-4.2337e-05,-0.095032,1.6233
23202,19.165,2.7273,0.1,0.00011077,1106.9,0.00011261,1177.5,-2.3042e-05,158.27,-4.4121e-05,-0.10979,1.6104
23203,19.256,2.4545,0.1,0.00010577,1056.9,0.00010746,1120.7,-2.2805e-05,141.89,-4.1702e-05,-0.092381,1.6233
23204,19.165,2.5455,0.1,0.00010988,1098.1,0.00011167,1166.2,-2.3272e-05,152.24,-4.3548e-05,-0.10555,1.6103
23205,19.256,2.2727,0.1,0.00010463,1045.6,0.00010624,1105.1,-2.3329e-05,131.52,-4.0845e-05,-0.091084,1.6232
23206,19.165,2.3636,0.1,0.00010864,1085.6,0.00011036,1150,-2.3654e-05,143.09,-4.2712e-05,-0.10189,1.6103
23207,19.256,2.0909,0.1,0.00010332,1032.4,0.00010482,1086.5,-2.4023e-05,118.46,-3.9801e-05,-0.092538,1.6232
23208,19.165,2.1818,0.1,0.00010713,1070.5,0.00010875,1129.9,-2.4212e-05,130.88,-4.1645e-05,-0.10099,1.6102
23209,19.256,1.9091,0.1,0.00010189,1018.2,0.00010325,1065.8,-2.487e-05,103.14,-3.8611e-05,-0.097604,1.6231
23210,19.165,2,0.1,0.00010544,1053.7,0.00010693,1106.8,-2.4948e-05,115.91,-4.0388e-05,-0.10449,1.6102
23211,19.256,1.7273,0.1,0.00010042,1003.5,0.0001016,1043.8,-2.5835e-05,86.227,-3.7326e-05,-0.10664,1.623
23212,19.165,1.8182,0.1,0.00010367,1036,0.000105,1081.8,-2.5838e-05,98.745,-3.8996e-05,-0.11317,1.6101
23213,19.256,1.5455,0.1,9.8952e-05,988.84,9.9936e-05,1021.2,-2.6864e-05,68.518,-3.5999e-05,-0.11994,1.6229
23214,19.165,1.6364,0.1,0.00010188,1018.1,0.00010301,1055.8,-2.6834e-05,80.215,-3.7527e-05,-0.12728,1.6099
23215,19.256,1.3636,0.1,9.7533e-05,974.66,9.8297e-05,999.04,-2.7893e-05,50.905,-3.4686e-05,-0.13879,1.6227
23216,19.165,1.4545,0.1,0.00010013,1000.6,0.00010103,1029.8,-2.7866e-05,61.302,-3.6045e-05,-0.1477,1.6098
23217,19.256,1.1818,0.1,9.6194e-05,961.27,9.6727e-05,977.85,-2.8858e-05,34.253,-3.3439e-05,-0.16789,1.6226
23218,19.165,1.2727,0.1,9.8452e-05,983.84,9.911e-05,1004.5,-2.8863e-05,43.01,-3.4611e-05,-0.17822,1.6097
23219,19.256,1,0.1,9.4958e-05,948.93,9.5268e-05,958.34,-2.9703e-05,19.349,-3.2308e-05,-0.22538,1.6224
23220,19.165,1.0909,0.1,9.6887e-05,968.2,9.7303e-05,980.94,-2.9759e-05,26.254,-3.3284e-05,-0.23259,1.6095
23221,19.256,0.81818,0.1,9.3847e-05,937.82,9.3956e-05,941.06,-3.0366e-05,6.9563,-3.1349e-05,-0.43183,1.6222
23222,19.165,0.90909,0.1,9.5462e-05,953.96,9.5651e-05,959.64,-3.0491e-05,11.855,-3.212e-05,-0.38017,1.6093
23223,19.256,0.63636,0.1,9.2875e-05,928.11,9.282e-05,926.5,-3.0425e-05,0.48952,-3.0981e-05,-3.6892,1.622
23224,19.165,0.72727,0.1,9.42e-05,941.35,9.4196e-05,941.24,-3.0859e-05,1.6279,-3.132e-05,-1.8392,1.6091
23225,19.256,0.45455,0.1,9.2055e-05,919.92,9.1887e-05,915.05,-2.9886e-05,0.099193,-3.1197e-05,-9.7505,1.6218
23226,19.165,0.54545,0.1,9.3116e-05,930.52,9.2967e-05,926.2,-3.0277e-05,0.19223,-3.147e-05,-8.7704,1.6089
23227,19.256,0.27273,0.1,9.1475e-05,914.12,9.1245e-05,907.5,-2.9531e-05,0.03545,-3.1283e-05,-13.125,1.6215
23228,19.165,0.36364,0.1,9.2225e-05,921.62,9.1992e-05,914.91,-2.9765e-05,0.077691,-3.155e-05,-13.338,1.6087
23229,19.165,0.18182,0.1,9.1696e-05,916.33,9.1429e-05,908.65,-2.9504e-05,0.0087497,-3.1526e-05,-15.18,1.6084
23230,19.256,0.090909,0.1,9.046e-05,903.98,9.0303e-05,899.41,-2.9408e-05,-0.050028,-3.0602e-05,-9.0231,1.6213
23231,19.074,5.7273,0.1,9.2442e-05,923.78,9.2172e-05,916.03,-2.9738e-05,0.047854,-3.1788e-05,-15.355,1.5956
23232,18.982,5.8182,0.1,9.2136e-05,920.72,9.183e-05,911.96,-2.9543e-05,0.010771,-3.1846e-05,-17.293,1.5825
23233,19.074,5.9091,0.1,9.1174e-05,911.11,9.0998e-05,906.02,-2.9592e-05,-0.051057,-3.0924e-05,-10.06,1.5953
23234,19.074,5.5455,0.1,9.3288e-05,932.24,9.3074e-05,926.07,-3.0161e-05,0.12967,-3.182e-05,-12.333,1.5958
23235,18.982,5.6364,0.1,9.2911e-05,928.47,9.263e-05,920.4,-2.9854e-05,0.10485,-3.2003e-05,-16.046,1.5827
23236,19.074,5.3636,0.1,9.4444e-05,943.79,9.4347e-05,940.96,-3.0826e-05,0.46238,-3.1697e-05,-6.0811,1.596
23237,18.982,5.4545,0.1,9.4139e-05,940.74,9.3939e-05,934.98,-3.0468e-05,0.2311,-3.2048e-05,-11.644,1.583
23238,19.074,5.1818,0.1,9.5819e-05,957.53,9.5897e-05,959.86,-3.1119e-05,5.5075,-3.196e-05,-0.80917,1.5963
23239,18.982,5.2727,0.1,9.5641e-05,955.75,9.5594e-05,954.37,-3.1271e-05,1.1606,-3.1946e-05,-3.9137,1.5832
23240,19.074,5,0.1,9.7395e-05,973.28,9.7693e-05,982.3,-3.056e-05,18.655,-3.3088e-05,-0.33482,1.5965
23241,18.982,5.0909,0.1,9.7403e-05,973.35,9.7562e-05,978.13,-3.125e-05,10.287,-3.2704e-05,-0.63929,1.5834
23242,19.074,4.8182,0.1,9.915e-05,990.81,9.9693e-05,1007.7,-2.9773e-05,34.936,-3.4454e-05,-0.22978,1.5966
23243,18.982,4.9091,0.1,9.9399e-05,993.3,9.9804e-05,1005.7,-3.0631e-05,25.677,-3.4093e-05,-0.33739,1.5836
23244,19.074,4.6364,0.1,0.00010105,1009.8,0.00010185,1035.3,-2.8847e-05,53.334,-3.5969e-05,-0.18114,1.5968
23245,18.982,4.7273,0.1,0.00010159,1015.2,0.00010227,1036.4,-2.9817e-05,43.96,-3.57e-05,-0.24202,1.5838
23246,19.074,4.4545,0.1,0.00010306,1029.9,0.00010411,1064.4,-2.7846e-05,72.926,-3.7572e-05,-0.15129,1.5969
23247,18.982,4.5455,0.1,0.00010394,1038.7,0.00010488,1069.2,-2.8882e-05,64.156,-3.7446e-05,-0.19221,1.5839
23248,19.074,4.2727,0.1,0.00010514,1050.7,0.00010641,1093.9,-2.6846e-05,92.665,-3.9196e-05,-0.13103,1.5971
23249,18.982,4.3636,0.1,0.0001064,1063.3,0.00010759,1103.2,-2.7903e-05,85.171,-3.926e-05,-0.16026,1.5841
23250,19.074,4.0909,0.1,0.00010723,1071.6,0.00010869,1122.9,-2.5923e-05,111.45,-4.0773e-05,-0.11781,1.5972
23251,18.982,4.1818,0.1,0.00010891,1088.4,0.00011032,1137.3,-2.6969e-05,105.76,-4.1063e-05,-0.13883,1.5842
23252,19.074,3.9091,0.1,0.00010926,1091.8,0.00011087,1150.2,-2.5142e-05,128.3,-4.2232e-05,-0.11109,1.5973
23253,18.982,4,0.1,0.0001114,1113.2,0.00011299,1170.2,-2.6164e-05,124.67,-4.2774e-05,-0.12626,1.5843
23254,19.074,3.7273,0.1,0.00011113,1110.6,0.00011287,1174.8,-2.4539e-05,142.44,-4.3511e-05,-0.11027,1.5973
23255,18.982,3.8182,0.1,0.00011377,1136.9,0.0001155,1200.7,-2.5547e-05,140.89,-4.4315e-05,-0.12203,1.5844
23256,19.074,3.5455,0.1,0.00011275,1126.7,0.00011457,1195.5,-2.412e-05,153.45,-4.4558e-05,-0.11384,1.5974
23257,18.982,3.6364,0.1,0.0001159,1158.2,0.00011774,1227.3,-2.5135e-05,153.79,-4.562e-05,-0.12489,1.5844
23258,19.074,3.3636,0.1,0.000114,1139.2,0.00011588,1211.2,-2.3861e-05,161.2,-4.5332e-05,-0.11934,1.5974
23259,18.982,3.4545,0.1,0.00011766,1175.8,0.00011958,1248.7,-2.4904e-05,163.18,-4.6638e-05,-0.13214,1.5845
23260,19.074,3.1818,0.1,0.0001148,1147.2,0.00011671,1221,-2.3727e-05,165.77,-4.5807e-05,-0.12406,1.5974
23261,18.982,3.2727,0.1,0.00011891,1188.3,0.00012088,1263.8,-2.4798e-05,169.18,-4.7334e-05,-0.14001,1.5845
23262,19.074,3,0.1,0.00011507,1149.9,0.000117,1224.3,-2.3687e-05,167.27,-4.5966e-05,-0.12589,1.5974
23263,18.982,3.0909,0.1,0.00011957,1194.9,0.00012156,1271.5,-2.4763e-05,172.09,-4.7687e-05,-0.14498,1.5845
23264,19.074,2.8182,0.1,0.0001148,1147.2,0.00011671,1221,-2.3727e-05,165.77,-4.5807e-05,-0.12406,1.5974
23265,18.982,2.9091,0.1,0.00011957,1194.9,0.00012156,1271.5,-2.4763e-05,172.09,-4.7687e-05,-0.14498,1.5845
23266,19.074,2.6364,0.1,0.000114,1139.2,0.00011588,1211.2,-2.3861e-05,161.2,-4.5332e-05,-0.11934,1.5974
23267,18.982,2.7273,0.1,0.00011891,1188.3,0.00012088,1263.8,-2.4798e-05,169.18,-4.7334e-05,-0.14001,1.5845
23268,19.074,2.4545,0.1,0.00011275,1126.7,0.00011457,1195.5,-2.412e-05,153.45,-4.4558e-05,-0.11384,1.5974
23269,18.982,2.5455,0.1,0.00011766,1175.8,0.00011958,1248.7,-2.4904e-05,163.18,-4.6638e-05,-0.13214,1.5845
23270,19.074,2.2727,0.1,0.00011113,1110.6,0.00011287,1174.8,-2.4539e-05,142.44,-4.3511e-05,-0.11027,1.5973
23271,18.982,2.3636,0.1,0.0001159,1158.2,0.00011774,1227.3,-2.5135e-05,153.79,-4.562e-05,-0.12489,1.5844
23272,19.074,2.0909,0.1,0.00010926,1091.8,0.00011087,1150.2,-2.5142e-05,128.3,-4.2232e-05,-0.11109,1.5973
23273,18.982,2.1818,0.1,0.00011377,1136.9,0.0001155,1200.7,-2.5547e-05,140.89,-4.4315e-05,-0.12203,1.5844
23274,19.074,1.9091,0.1,0.00010723,1071.6,0.00010869,1122.9,-2.5923e-05,111.45,-4.0773e-05,-0.11781,1.5972
23275,18.982,2,0.1,0.0001114,1113.2,0.00011299,1170.2,-2.6164e-05,124.67,-4.2774e-05,-0.12626,1.5843
23276,19.074,1.7273,0.1,0.00010514,1050.7,0.00010641,1093.9,-2.6846e-05,92.665,-3.9196e-05,-0.13103,1.5971
23277,18.982,1.8182,0.1,0.00010891,1088.4,0.00011032,1137.3,-2.6969e-05,105.76,-4.1063e-05,-0.13883,1.5842
23278,19.074,1.5455,0.1,0.00010306,1029.9,0.00010411,1064.4,-2.7846e-05,72.927,-3.7572e-05,-0.15129,1.5969
23279,18.982,1.6364,0.1,0.0001064,1063.3,0.00010759,1103.2,-2.7903e-05,85.171,-3.926e-05,-0.16026,1.5841
23280,19.074,1.3636,0.1,0.00010105,1009.8,0.00010185,1035.3,-2.8847e-05,53.334,-3.5969e-05,-0.18114,1.5968
23281,18.982,1.4545,0.1,0.00010394,1038.7,0.00010488,1069.2,-2.8882e-05,64.156,-3.7446e-05,-0.19221,1.5839
23282,19.074,1.1818,0.1,9.915e-05,990.81,9.9693e-05,1007.7,-2.9773e-05,34.936,-3.4454e-05,-0.22978,1.5966
23283,18.982,1.2727,0.1,0.00010159,1015.2,0.00010227,1036.4,-2.9817e-05,43.96,-3.57e-05,-0.24202,1.5838
23284,19.074,1,0.1,9.7395e-05,973.28,9.7693e-05,982.3,-3.056e-05,18.655,-3.3088e-05,-0.33482,1.5965
23285,18.982,1.0909,0.1,9.9399e-05,993.3,9.9804e-05,1005.7,-3.0631e-05,25.677,-3.4093e-05,-0.33739,1.5836
23286,19.074,0.81818,0.1,9.5819e-05,957.53,9.5897e-05,959.86,-3.1119e-05,5.5075,-3.196e-05,-0.80916,1.5963
23287,18.982,0.90909,0.1,9.7403e-05,973.35,9.7562e-05,978.13,-3.125e-05,10.288,-3.2704e-05,-0.63929,1.5834
23288,19.074,0.63636,0.1,9.4444e-05,943.79,9.4347e-05,940.96,-3.0826e-05,0.46238,-3.1697e-05,-6.0811,1.5961
23289,18.982,0.72727,0.1,9.5641e-05,955.75,9.5594e-05,954.37,-3.1271e-05,1.1606,-3.1946e-05,-3.9137,1.5832
23290,19.074,0.45455,0.1,9.3288e-05,932.24,9.3074e-05,926.07,-3.0161e-05,0.12967,-3.182e-05,-12.333,1.5958
23291,18.982,0.54545,0.1,9.4139e-05,940.74,9.3939e-05,934.98,-3.0468e-05,0.2311,-3.2048e-05,-11.644,1.583
23292,19.074,0.27273,0.1,9.2442e-05,923.78,9.2172e-05,916.03,-2.9738e-05,0.047856,-3.1788e-05,-15.355,1.5956
23293,18.982,0.36364,0.1,9.2911e-05,928.47,9.263e-05,920.4,-2.9854e-05,0.10485,-3.2003e-05,-16.046,1.5827
23294,18.982,0.18182,0.1,9.2136e-05,920.72,9.183e-05,911.96,-2.9543e-05,0.010772,-3.1846e-05,-17.293,1.5825
23295,19.074,0.090909,0.1,9.1174e-05,911.11,9.0998e-05,906.02,-2.9592e-05,-0.051057,-3.0924e-05,-10.06,1.5953
23296,18.891,5.7273,0.1,9.2605e-05,925.41,9.2287e-05,916.32,-2.966e-05,0.064297,-3.2061e-05,-17.977,1.5697
23297,18.8,5.8182,0.1,9.1662e-05,915.99,9.131e-05,905.96,-2.9263e-05,0.015332,-3.1895e-05,-19.76,1.5566
23298,18.891,5.9091,0.1,9.1034e-05,909.71,9.0835e-05,903.97,-2.9483e-05,-0.05127,-3.0982e-05,-11.311,1.5694
23299,18.891,5.5455,0.1,9.3769e-05,937.05,9.3501e-05,929.35,-3.0165e-05,0.16856,-3.2233e-05,-15.367,1.5699
23300,18.8,5.6364,0.1,9.2718e-05,926.54,9.2381e-05,916.92,-2.9635e-05,0.13975,-3.2193e-05,-19.079,1.5569
23301,18.891,5.3636,0.1,9.5346e-05,952.8,9.5196e-05,948.45,-3.0972e-05,0.47958,-3.2247e-05,-9.0992,1.5702
23302,18.8,5.4545,0.1,9.4356e-05,942.9,9.4096e-05,935.47,-3.0369e-05,0.28465,-3.2399e-05,-14.969,1.5571
23303,18.891,5.1818,0.1,9.7237e-05,971.7,9.7272e-05,972.74,-3.1682e-05,3.8328,-3.2422e-05,-1.7324,1.5704
23304,18.8,5.2727,0.1,9.6387e-05,963.21,9.6283e-05,960.2,-3.1379e-05,0.99154,-3.2437e-05,-6.9565,1.5574
23305,18.891,5,0.1,9.9419e-05,993.51,9.9689e-05,1001.7,-3.1351e-05,17.078,-3.3695e-05,-0.5279,1.5706
23306,18.8,5.0909,0.1,9.8793e-05,987.24,9.8906e-05,990.64,-3.1868e-05,8.0506,-3.31e-05,-1.1997,1.5576
23307,18.891,4.8182,0.1,0.00010186,1017.9,0.00010239,1034.5,-3.0695e-05,34.546,-3.5336e-05,-0.32734,1.5708
23308,18.8,4.9091,0.1,0.00010153,1014.6,0.00010191,1026.1,-3.1475e-05,23.92,-3.4727e-05,-0.51852,1.5578
23309,18.891,4.6364,0.1,0.0001045,1044.3,0.00010532,1070.4,-2.9872e-05,54.632,-3.7176e-05,-0.24403,1.5709
23310,18.8,4.7273,0.1,0.00010456,1044.9,0.00010522,1065.7,-3.0829e-05,43.503,-3.6665e-05,-0.34295,1.558
23311,18.891,4.4545,0.1,0.0001073,1072.2,0.00010839,1108.2,-2.8959e-05,76.253,-3.9134e-05,-0.19575,1.5711
23312,18.8,4.5455,0.1,0.0001078,1077.2,0.00010876,1108.4,-3.0033e-05,65.55,-3.8792e-05,-0.25876,1.5581
23313,18.891,4.2727,0.1,0.00011018,1101.1,0.00011152,1146.8,-2.8045e-05,98.128,-4.1126e-05,-0.16407,1.5712
23314,18.8,4.3636,0.1,0.00011118,1111.1,0.00011242,1152.7,-2.9175e-05,88.758,-4.1016e-05,-0.20698,1.5583
23315,18.891,4.0909,0.1,0.00011309,1130.1,0.00011464,1184.8,-2.7225e-05,118.86,-4.3064e-05,-0.14406,1.5713
23316,18.8,4.1818,0.1,0.00011464,1145.6,0.00011612,1197.2,-2.8368e-05,111.54,-4.3235e-05,-0.17292,1.5584
23317,18.891,3.9091,0.1,0.00011592,1158.4,0.00011763,1220.8,-2.658e-05,137.19,-4.4857e-05,-0.13459,1.5714
23318,18.8,4,0.1,0.00011807,1179.9,0.00011976,1240.4,-2.7723e-05,132.24,-4.5343e-05,-0.15323,1.5585
23319,18.891,3.7273,0.1,0.00011853,1184.5,0.00012038,1253.2,-2.6148e-05,152.21,-4.6424e-05,-0.13458,1.5715
23320,18.8,3.8182,0.1,0.00012135,1212.7,0.0001232,1280.4,-2.7315e-05,149.54,-4.7236e-05,-0.14762,1.5586
23321,18.891,3.5455,0.1,0.0001208,1207.2,0.00012274,1280.5,-2.5917e-05,163.53,-4.7701e-05,-0.14162,1.5716
23322,18.8,3.6364,0.1,0.00012431,1242.2,0.00012627,1315.5,-2.7151e-05,162.74,-4.8831e-05,-0.15396,1.5587
23323,18.891,3.3636,0.1,0.00012256,1224.7,0.00012457,1301.2,-2.5832e-05,171.22,-4.864e-05,-0.15166,1.5716
23324,18.8,3.4545,0.1,0.00012676,1266.7,0.0001288,1343.7,-2.7171e-05,171.86,-5.0066e-05,-0.16698,1.5587
23325,18.891,3.1818,0.1,0.00012367,1235.9,0.00012572,1314.2,-2.582e-05,175.61,-4.9214e-05,-0.16003,1.5716
23326,18.8,3.2727,0.1,0.00012851,1284.2,0.0001306,1363.6,-2.7273e-05,177.38,-5.0904e-05,-0.18045,1.5587
23327,18.891,3,0.1,0.00012406,1239.7,0.00012611,1318.6,-2.5824e-05,177.03,-4.9407e-05,-0.16325,1.5716
23328,18.8,3.0909,0.1,0.00012942,1293.3,0.00013154,1373.8,-2.7354e-05,179.93,-5.1326e-05,-0.18878,1.5588
23329,18.891,2.8182,0.1,0.00012367,1235.9,0.00012572,1314.2,-2.582e-05,175.61,-4.9214e-05,-0.16003,1.5716
23330,18.8,2.9091,0.1,0.00012942,1293.3,0.00013154,1373.8,-2.7354e-05,179.93,-5.1326e-05,-0.18878,1.5588
23331,18.891,2.6364,0.1,0.00012256,1224.7,0.00012457,1301.2,-2.5832e-05,171.22,-4.864e-05,-0.15166,1.5716
23332,18.8,2.7273,0.1,0.00012851,1284.2,0.0001306,1363.6,-2.7273e-05,177.38,-5.0904e-05,-0.18045,1.5587
23333,18.891,2.4545,0.1,0.0001208,1207.2,0.00012274,1280.5,-2.5917e-05,163.53,-4.7701e-05,-0.14162,1.5716
23334,18.8,2.5455,0.1,0.00012676,1266.7,0.0001288,1343.7,-2.7171e-05,171.86,-5.0066e-05,-0.16699,1.5587
23335,18.891,2.2727,0.1,0.00011853,1184.5,0.00012038,1253.2,-2.6148e-05,152.21,-4.6424e-05,-0.13458,1.5715
23336,18.8,2.3636,0.1,0.00012431,1242.2,0.00012627,1315.5,-2.7151e-05,162.74,-4.8831e-05,-0.15396,1.5587
23337,18.891,2.0909,0.1,0.00011592,1158.4,0.00011763,1220.8,-2.658e-05,137.19,-4.4857e-05,-0.13459,1.5714
23338,18.8,2.1818,0.1,0.00012135,1212.7,0.0001232,1280.4,-2.7315e-05,149.54,-4.7236e-05,-0.14762,1.5586
23339,18.891,1.9091,0.1,0.00011309,1130.1,0.00011464,1184.8,-2.7225e-05,118.86,-4.3064e-05,-0.14406,1.5713
23340,18.8,2,0.1,0.00011807,1179.9,0.00011976,1240.4,-2.7723e-05,132.24,-4.5343e-05,-0.15323,1.5585
23341,18.891,1.7273,0.1,0.00011018,1101.1,0.00011152,1146.8,-2.8045e-05,98.128,-4.1126e-05,-0.16407,1.5712
23342,18.8,1.8182,0.1,0.00011464,1145.6,0.00011612,1197.2,-2.8368e-05,111.54,-4.3235e-05,-0.17292,1.5584
23343,18.891,1.5455,0.1,0.0001073,1072.2,0.00010839,1108.2,-2.8959e-05,76.254,-3.9134e-05,-0.19575,1.5711
23344,18.8,1.6364,0.1,0.00011118,1111.1,0.00011242,1152.7,-2.9175e-05,88.759,-4.1016e-05,-0.20698,1.5583
23345,18.891,1.3636,0.1,0.0001045,1044.3,0.00010532,1070.4,-2.9872e-05,54.632,-3.7176e-05,-0.24403,1.5709
23346,18.8,1.4545,0.1,0.0001078,1077.2,0.00010876,1108.4,-3.0033e-05,65.55,-3.8792e-05,-0.25876,1.5581
23347,18.891,1.1818,0.1,0.00010186,1017.9,0.00010239,1034.5,-3.0695e-05,34.546,-3.5336e-05,-0.32734,1.5708
23348,18.8,1.2727,0.1,0.00010456,1044.9,0.00010522,1065.7,-3.0829e-05,43.503,-3.6665e-05,-0.34295,1.558
23349,18.891,1,0.1,9.9419e-05,993.51,9.9689e-05,1001.7,-3.1351e-05,17.078,-3.3695e-05,-0.5279,1.5706
23350,18.8,1.0909,0.1,0.00010153,1014.6,0.00010191,1026.1,-3.1475e-05,23.92,-3.4727e-05,-0.51852,1.5578
23351,18.891,0.81818,0.1,9.7237e-05,971.7,9.7272e-05,972.74,-3.1682e-05,3.8329,-3.2422e-05,-1.7324,1.5704
23352,18.8,0.90909,0.1,9.8793e-05,987.24,9.8906e-05,990.64,-3.1868e-05,8.0507,-3.31e-05,-1.1997,1.5576
23353,18.891,0.63636,0.1,9.5346e-05,952.8,9.5196e-05,948.45,-3.0972e-05,0.47958,-3.2247e-05,-9.0992,1.5702
23354,18.8,0.72727,0.1,9.6387e-05,963.21,9.6283e-05,960.2,-3.1379e-05,0.99155,-3.2437e-05,-6.9565,1.5574
23355,18.891,0.45455,0.1,9.3769e-05,937.05,9.3501e-05,929.35,-3.0165e-05,0.16856,-3.2233e-05,-15.367,1.5699
23356,18.8,0.54545,0.1,9.4356e-05,942.9,9.4096e-05,935.47,-3.0369e-05,0.28466,-3.2399e-05,-14.968,1.5571
23357,18.891,0.27273,0.1,9.2605e-05,925.41,9.2287e-05,916.32,-2.966e-05,0.064298,-3.2061e-05,-17.977,1.5697
23358,18.8,0.36364,0.1,9.2718e-05,926.54,9.2381e-05,916.92,-2.9635e-05,0.13975,-3.2193e-05,-19.079,1.5569
23359,18.8,0.18182,0.1,9.1662e-05,915.99,9.131e-05,905.96,-2.9263e-05,0.015332,-3.1895e-05,-19.76,1.5566
23360,18.891,0.090909,0.1,9.1034e-05,909.71,9.0835e-05,903.97,-2.9483e-05,-0.05127,-3.0982e-05,-11.311,1.5694
23361,18.709,5.7273,0.1,9.1782e-05,917.18,9.141e-05,906.6,-2.9239e-05,0.087731,-3.2033e-05,-20.9,1.5438
23362,18.618,5.8182,0.1,9.0081e-05,900.19,8.9678e-05,888.75,-2.8603e-05,0.026238,-3.1601e-05,-22.499,1.5308
23363,18.709,5.9091,0.1,8.9854e-05,897.92,8.9629e-05,891.46,-2.9023e-05,-0.051436,-3.0711e-05,-12.738,1.5435
23364,18.709,5.5455,0.1,9.3319e-05,932.55,9.2989e-05,923.14,-2.9844e-05,0.22084,-3.2367e-05,-18.741,1.5441
23365,18.618,5.6364,0.1,9.1447e-05,913.84,9.1051e-05,902.59,-2.9052e-05,0.1869,-3.204e-05,-22.264,1.531
23366,18.709,5.3636,0.1,9.5417e-05,953.51,9.5203e-05,947.36,-3.0812e-05,0.53257,-3.2573e-05,-12.703,1.5443
23367,18.618,5.4545,0.1,9.3577e-05,935.13,9.3252e-05,925.85,-2.9923e-05,0.3606,-3.245e-05,-18.621,1.5313
23368,18.709,5.1818,0.1,9.7968e-05,979,9.7942e-05,978.29,-3.1923e-05,2.5297,-3.2783e-05,-3.9325,1.5446
23369,18.618,5.2727,0.1,9.6273e-05,962.06,9.6099e-05,957.06,-3.115e-05,0.96675,-3.2723e-05,-10.857,1.5316
23370,18.709,5,0.1,0.00010094,1008.7,0.00010116,1015.3,-3.2059e-05,14.386,-3.4095e-05,-0.91318,1.5448
23371,18.618,5.0909,0.1,9.9507e-05,994.39,9.9552e-05,995.75,-3.2253e-05,5.4182,-3.3326e-05,-2.6396,1.5318
23372,18.709,4.8182,0.1,0.00010427,1042,0.00010477,1057.6,-3.1649e-05,32.58,-3.6051e-05,-0.49458,1.545
23373,18.618,4.9091,0.1,0.00010322,1031.5,0.00010354,1041.2,-3.2303e-05,20.487,-3.5146e-05,-0.87724,1.532
23374,18.709,4.6364,0.1,0.00010789,1078.1,0.0001087,1104,-3.1028e-05,54.139,-3.8279e-05,-0.34385,1.5452
23375,18.618,4.7273,0.1,0.00010733,1072.6,0.00010796,1092.2,-3.1962e-05,40.835,-3.7466e-05,-0.51986,1.5322
23376,18.709,4.4545,0.1,0.00011171,1116.4,0.00011283,1153.1,-3.0285e-05,77.783,-4.0673e-05,-0.26209,1.5453
23377,18.618,4.5455,0.1,0.00011174,1116.6,0.00011269,1147.3,-3.1417e-05,64.53,-4.0054e-05,-0.36735,1.5324
23378,18.709,4.2727,0.1,0.00011567,1155.9,0.00011706,1203.3,-2.9532e-05,101.92,-4.3124e-05,-0.20998,1.5455
23379,18.618,4.3636,0.1,0.00011634,1162.6,0.00011761,1204.9,-3.0771e-05,90.014,-4.2789e-05,-0.27887,1.5325
23380,18.709,4.0909,0.1,0.00011965,1195.6,0.00012128,1253,-2.8893e-05,124.7,-4.5513e-05,-0.17733,1.5456
23381,18.618,4.1818,0.1,0.00012105,1209.6,0.00012259,1263,-3.0173e-05,115.19,-4.5534e-05,-0.22224,1.5327
23382,18.709,3.9091,0.1,0.00012353,1234.4,0.00012535,1300.2,-2.8477e-05,144.43,-4.7722e-05,-0.16243,1.5457
23383,18.618,4,0.1,0.00012573,1256.4,0.0001275,1319.5,-2.9782e-05,137.76,-4.8142e-05,-0.19089,1.5328
23384,18.709,3.7273,0.1,0.00012714,1270.5,0.0001291,1342.8,-2.8327e-05,160,-4.9643e-05,-0.16411,1.5458
23385,18.618,3.8182,0.1,0.00013021,1301.2,0.00013216,1372,-2.9703e-05,155.89,-5.0475e-05,-0.18187,1.5329
23386,18.709,3.5455,0.1,0.00013026,1301.7,0.00013232,1378.7,-2.8402e-05,171.09,-5.1196e-05,-0.1773,1.5458
23387,18.618,3.6364,0.1,0.00013427,1341.7,0.00013633,1418,-2.993e-05,168.79,-5.242e-05,-0.19134,1.533
23388,18.709,3.3636,0.1,0.00013269,1326,0.00013481,1405.9,-2.8596e-05,178.13,-5.233e-05,-0.19445,1.5459
23389,18.618,3.4545,0.1,0.00013762,1375.2,0.00013976,1455,-3.0345e-05,176.83,-5.3907e-05,-0.21252,1.533
23390,18.709,3.1818,0.1,0.00013423,1341.4,0.00013639,1422.9,-2.878e-05,181.89,-5.3016e-05,-0.20829,1.5459
23391,18.618,3.2727,0.1,0.00014001,1399.2,0.00014221,1480.8,-3.0767e-05,181.12,-5.4904e-05,-0.23406,1.5331
23392,18.709,3,0.1,0.00013476,1346.7,0.00013693,1428.7,-2.8854e-05,183.05,-5.3246e-05,-0.21354,1.5459
23393,18.618,3.0909,0.1,0.00014126,1411.6,0.00014347,1494,-3.1027e-05,182.89,-5.5401e-05,-0.24696,1.5331
23394,18.709,2.8182,0.1,0.00013423,1341.4,0.00013639,1422.9,-2.878e-05,181.89,-5.3016e-05,-0.20829,1.5459
23395,18.618,2.9091,0.1,0.00014126,1411.6,0.00014347,1494,-3.1027e-05,182.89,-5.5401e-05,-0.24696,1.5331
23396,18.709,2.6364,0.1,0.00013269,1326,0.00013481,1405.9,-2.8596e-05,178.13,-5.233e-05,-0.19445,1.5459
23397,18.618,2.7273,0.1,0.00014001,1399.2,0.00014221,1480.8,-3.0767e-05,181.12,-5.4904e-05,-0.23406,1.5331
23398,18.709,2.4545,0.1,0.00013026,1301.7,0.00013232,1378.7,-2.8402e-05,171.09,-5.1196e-05,-0.17731,1.5458
23399,18.618,2.5455,0.1,0.00013762,1375.2,0.00013976,1455,-3.0345e-05,176.83,-5.3907e-05,-0.21252,1.533
23400,18.709,2.2727,0.1,0.00012714,1270.5,0.0001291,1342.8,-2.8327e-05,160,-4.9643e-05,-0.16411,1.5458
23401,18.618,2.3636,0.1,0.00013427,1341.7,0.00013633,1418,-2.993e-05,168.79,-5.242e-05,-0.19134,1.533
23402,18.709,2.0909,0.1,0.00012353,1234.4,0.00012535,1300.2,-2.8477e-05,144.43,-4.7722e-05,-0.16243,1.5457
23403,18.618,2.1818,0.1,0.00013021,1301.2,0.00013216,1372,-2.9703e-05,155.89,-5.0475e-05,-0.18187,1.5329
23404,18.709,1.9091,0.1,0.00011965,1195.6,0.00012128,1253,-2.8893e-05,124.7,-4.5513e-05,-0.17733,1.5456
23405,18.618,2,0.1,0.00012573,1256.4,0.0001275,1319.5,-2.9782e-05,137.76,-4.8142e-05,-0.19089,1.5328
23406,18.709,1.7273,0.1,0.00011567,1155.9,0.00011706,1203.3,-2.9532e-05,101.92,-4.3124e-05,-0.20998,1.5455
23407,18.618,1.8182,0.1,0.00012105,1209.6,0.00012259,1263,-3.0173e-05,115.19,-4.5534e-05,-0.22224,1.5327
23408,18.709,1.5455,0.1,0.00011171,1116.4,0.00011283,1153.1,-3.0285e-05,77.783,-4.0673e-05,-0.26209,1.5453
23409,18.618,1.6364,0.1,0.00011634,1162.6,0.00011761,1204.9,-3.0771e-05,90.014,-4.2789e-05,-0.27887,1.5325
23410,18.709,1.3636,0.1,0.00010789,1078.1,0.0001087,1104,-3.1028e-05,54.139,-3.8279e-05,-0.34385,1.5452
23411,18.618,1.4545,0.1,0.00011174,1116.6,0.00011269,1147.3,-3.1417e-05,64.53,-4.0055e-05,-0.36735,1.5324
23412,18.709,1.1818,0.1,0.00010427,1042,0.00010477,1057.6,-3.1649e-05,32.581,-3.6051e-05,-0.49457,1.545
23413,18.618,1.2727,0.1,0.00010733,1072.6,0.00010796,1092.2,-3.1962e-05,40.835,-3.7466e-05,-0.51986,1.5322
23414,18.709,1,0.1,0.00010094,1008.7,0.00010116,1015.3,-3.2059e-05,14.386,-3.4095e-05,-0.91317,1.5448
23415,18.618,1.0909,0.1,0.00010322,1031.5,0.00010354,1041.2,-3.2303e-05,20.487,-3.5146e-05,-0.87723,1.532
23416,18.709,0.81818,0.1,9.7968e-05,979,9.7942e-05,978.29,-3.1923e-05,2.5297,-3.2783e-05,-3.9324,1.5446
23417,18.618,0.90909,0.1,9.9507e-05,994.39,9.9552e-05,995.75,-3.2253e-05,5.4183,-3.3326e-05,-2.6395,1.5318
23418,18.709,0.63636,0.1,9.5417e-05,953.51,9.5203e-05,947.36,-3.0812e-05,0.53258,-3.2573e-05,-12.703,1.5443
23419,18.618,0.72727,0.1,9.6273e-05,962.06,9.6099e-05,957.06,-3.115e-05,0.96676,-3.2723e-05,-10.857,1.5316
23420,18.709,0.45455,0.1,9.3319e-05,932.55,9.2989e-05,923.14,-2.9844e-05,0.22084,-3.2367e-05,-18.741,1.5441
23421,18.618,0.54545,0.1,9.3577e-05,935.13,9.3252e-05,925.85,-2.9923e-05,0.3606,-3.245e-05,-18.621,1.5313
23422,18.709,0.27273,0.1,9.1782e-05,917.18,9.141e-05,906.6,-2.9239e-05,0.087731,-3.2033e-05,-20.9,1.5438
23423,18.618,0.36364,0.1,9.1447e-05,913.84,9.1051e-05,902.59,-2.9052e-05,0.1869,-3.204e-05,-22.264,1.531
23424,18.618,0.18182,0.1,9.0081e-05,900.19,8.9678e-05,888.75,-2.8603e-05,0.02624,-3.1601e-05,-22.499,1.5308
23425,18.709,0.090909,0.1,8.9854e-05,897.92,8.9629e-05,891.46,-2.9023e-05,-0.051437,-3.0711e-05,-12.738,1.5435
23426,18.526,5.7273,0.1,8.9762e-05,897,8.9332e-05,884.84,-2.8416e-05,0.12396,-3.1622e-05,-23.96,1.518
23427,18.435,5.8182,0.1,8.7178e-05,871.18,8.672e-05,858.25,-2.75e-05,0.052202,-3.088e-05,-25.349,1.505
23428,18.526,5.9091,0.1,8.7427e-05,873.67,8.7175e-05,866.42,-2.8146e-05,-0.0528,-3.0037e-05,-14.265,1.5177
23429,18.526,5.5455,0.1,9.173e-05,916.67,9.1335e-05,905.47,-2.9136e-05,0.29449,-3.214e-05,-22.277,1.5183
23430,18.435,5.6364,0.1,8.8874e-05,888.12,8.8419e-05,875.31,-2.8043e-05,0.25537,-3.1448e-05,-25.331,1.5053
23431,18.526,5.3636,0.1,9.447e-05,944.05,9.4182e-05,935.81,-3.0284e-05,0.62259,-3.261e-05,-16.855,1.5186
23432,18.435,5.4545,0.1,9.1593e-05,915.29,9.1197e-05,904.1,-2.9068e-05,0.4712,-3.2116e-05,-22.434,1.5056
23433,18.526,5.1818,0.1,9.7861e-05,977.94,9.7754e-05,974.87,-3.1742e-05,1.8899,-3.305e-05,-7.9412,1.5188
23434,18.435,5.2727,0.1,9.5118e-05,950.53,9.4858e-05,943.1,-3.0524e-05,1.0237,-3.2745e-05,-15.661,1.5058
23435,18.526,5,0.1,0.00010185,1017.8,0.00010199,1022,-3.265e-05,10.366,-3.4279e-05,-1.87,1.519
23436,18.435,5.0909,0.1,9.9416e-05,993.47,9.936e-05,991.88,-3.2209e-05,3.3278,-3.3508e-05,-6.4336,1.5061
23437,18.526,4.8182,0.1,0.00010635,1062.8,0.00010679,1076.2,-3.2689e-05,28.199,-3.6552e-05,-0.82771,1.5193
23438,18.435,4.9091,0.1,0.0001044,1043.3,0.00010461,1049.6,-3.3128e-05,14.737,-3.5329e-05,-1.7969,1.5063
23439,18.526,4.6364,0.1,0.00011125,1111.7,0.00011202,1135.9,-3.2419e-05,50.721,-3.9239e-05,-0.52239,1.5194
23440,18.435,4.7273,0.1,0.00010994,1098.6,0.00011047,1115,-3.3328e-05,34.62,-3.8054e-05,-0.89049,1.5065
23441,18.526,4.4545,0.1,0.00011643,1163.5,0.00011753,1199.6,-3.1967e-05,76.28,-4.2169e-05,-0.37264,1.5196
23442,18.435,4.5455,0.1,0.00011588,1158,0.00011676,1186.3,-3.3206e-05,59.449,-4.1194e-05,-0.56874,1.5067
23443,18.526,4.2727,0.1,0.00012178,1217,0.0001232,1265,-3.1471e-05,102.85,-4.5197e-05,-0.28229,1.5198
23444,18.435,4.3636,0.1,0.00012209,1220,0.00012333,1261.1,-3.2898e-05,87.279,-4.4567e-05,-0.39826,1.5069
23445,18.526,4.0909,0.1,0.00012718,1270.9,0.00012886,1329.9,-3.1111e-05,127.88,-4.8161e-05,-0.2284,1.5199
23446,18.435,4.1818,0.1,0.00012843,1283.4,0.00012999,1337,-3.2608e-05,115.24,-4.7986e-05,-0.29398,1.507
23447,18.526,3.9091,0.1,0.00013245,1323.6,0.00013434,1391.6,-3.1042e-05,148.95,-5.0894e-05,-0.20438,1.52
23448,18.435,4,0.1,0.00013475,1346.6,0.00013658,1411,-3.2584e-05,139.92,-5.1238e-05,-0.2324,1.5072
23449,18.526,3.7273,0.1,0.00013736,1372.6,0.00013941,1447.4,-3.1321e-05,164.57,-5.3251e-05,-0.20484,1.5201
23450,18.435,3.8182,0.1,0.00014083,1407.3,0.00014285,1479.7,-3.299e-05,158.57,-5.4123e-05,-0.21673,1.5073
23451,18.526,3.5455,0.1,0.00014161,1415.1,0.00014377,1494.2,-3.1865e-05,174.59,-5.5131e-05,-0.22393,1.5202
23452,18.435,3.6364,0.1,0.00014631,1462.1,0.00014846,1539.7,-3.3801e-05,170.23,-5.6489e-05,-0.23913,1.5074
23453,18.526,3.3636,0.1,0.00014491,1448.1,0.00014712,1529.6,-3.2484e-05,180.06,-5.6482e-05,-0.25072,1.5202
23454,18.435,3.4545,0.1,0.00015084,1507.3,0.00015305,1587.4,-3.4804e-05,175.95,-5.8259e-05,-0.27335,1.5074
23455,18.526,3.1818,0.1,0.000147,1469,0.00014924,1551.5,-3.2966e-05,182.48,-5.7289e-05,-0.27198,1.5203
23456,18.435,3.2727,0.1,0.00015405,1539.4,0.00015629,1620.5,-3.5699e-05,177.9,-5.9417e-05,-0.30404,1.5075
23457,18.526,3,0.1,0.00014771,1476.1,0.00014997,1559,-3.3146e-05,183.13,-5.7557e-05,-0.27982,1.5203
23458,18.435,3.0909,0.1,0.00015571,1556,0.00015797,1637.3,-3.6221e-05,178.24,-5.9986e-05,-0.32172,1.5075
23459,18.526,2.8182,0.1,0.000147,1469,0.00014924,1551.5,-3.2966e-05,182.48,-5.7289e-05,-0.27198,1.5203
23460,18.435,2.9091,0.1,0.00015571,1556,0.00015797,1637.3,-3.6221e-05,178.24,-5.9986e-05,-0.32172,1.5075
23461,18.526,2.6364,0.1,0.00014491,1448.1,0.00014712,1529.6,-3.2484e-05,180.06,-5.6482e-05,-0.25072,1.5202
23462,18.435,2.7273,0.1,0.00015405,1539.4,0.00015629,1620.5,-3.5699e-05,177.9,-5.9417e-05,-0.30404,1.5075
23463,18.526,2.4545,0.1,0.00014161,1415.1,0.00014377,1494.2,-3.1865e-05,174.59,-5.5131e-05,-0.22393,1.5202
23464,18.435,2.5455,0.1,0.00015084,1507.3,0.00015305,1587.4,-3.4804e-05,175.95,-5.8259e-05,-0.27335,1.5074
23465,18.526,2.2727,0.1,0.00013736,1372.6,0.00013941,1447.4,-3.1321e-05,164.57,-5.3251e-05,-0.20484,1.5201
23466,18.435,2.3636,0.1,0.00014631,1462.1,0.00014846,1539.7,-3.3801e-05,170.23,-5.6489e-05,-0.23913,1.5074
23467,18.526,2.0909,0.1,0.00013245,1323.6,0.00013434,1391.6,-3.1042e-05,148.95,-5.0894e-05,-0.20438,1.52
23468,18.435,2.1818,0.1,0.00014083,1407.3,0.00014285,1479.7,-3.299e-05,158.57,-5.4123e-05,-0.21673,1.5073
23469,18.526,1.9091,0.1,0.00012718,1270.9,0.00012886,1329.9,-3.1111e-05,127.88,-4.8161e-05,-0.2284,1.5199
23470,18.435,2,0.1,0.00013475,1346.6,0.00013658,1411,-3.2584e-05,139.92,-5.1238e-05,-0.2324,1.5072
23471,18.526,1.7273,0.1,0.00012178,1217,0.0001232,1265,-3.1471e-05,102.85,-4.5197e-05,-0.28229,1.5198
23472,18.435,1.8182,0.1,0.00012843,1283.4,0.00012999,1337,-3.2608e-05,115.25,-4.7986e-05,-0.29398,1.507
23473,18.526,1.5455,0.1,0.00011643,1163.5,0.00011753,1199.6,-3.1967e-05,76.28,-4.2169e-05,-0.37264,1.5196
23474,18.435,1.6364,0.1,0.00012209,1220,0.00012333,1261.1,-3.2898e-05,87.279,-4.4567e-05,-0.39826,1.5069
23475,18.526,1.3636,0.1,0.00011125,1111.7,0.00011202,1135.9,-3.2419e-05,50.721,-3.9239e-05,-0.52239,1.5194
23476,18.435,1.4545,0.1,0.00011588,1158,0.00011676,1186.3,-3.3206e-05,59.449,-4.1194e-05,-0.56874,1.5067
23477,18.526,1.1818,0.1,0.00010635,1062.8,0.00010679,1076.2,-3.2689e-05,28.199,-3.6552e-05,-0.82771,1.5193
23478,18.435,1.2727,0.1,0.00010994,1098.6,0.00011047,1115,-3.3328e-05,34.62,-3.8054e-05,-0.89048,1.5065
23479,18.526,1,0.1,0.00010185,1017.8,0.00010199,1022,-3.265e-05,10.366,-3.4279e-05,-1.87,1.519
23480,18.435,1.0909,0.1,0.0001044,1043.3,0.00010461,1049.6,-3.3128e-05,14.737,-3.5329e-05,-1.7968,1.5063
23481,18.526,0.81818,0.1,9.7861e-05,977.94,9.7754e-05,974.87,-3.1742e-05,1.89,-3.305e-05,-7.9412,1.5188
23482,18.435,0.90909,0.1,9.9416e-05,993.47,9.936e-05,991.88,-3.2209e-05,3.3278,-3.3508e-05,-6.4336,1.5061
23483,18.526,0.63636,0.1,9.447e-05,944.05,9.4182e-05,935.81,-3.0284e-05,0.62259,-3.261e-05,-16.855,1.5186
23484,18.435,0.72727,0.1,9.5118e-05,950.53,9.4858e-05,943.1,-3.0524e-05,1.0237,-3.2745e-05,-15.661,1.5058
23485,18.526,0.45455,0.1,9.173e-05,916.67,9.1335e-05,905.47,-2.9136e-05,0.29449,-3.214e-05,-22.277,1.5183
23486,18.435,0.54545,0.1,9.1593e-05,915.29,9.1197e-05,904.1,-2.9068e-05,0.4712,-3.2116e-05,-22.434,1.5056
23487,18.526,0.27273,0.1,8.9762e-05,897,8.9332e-05,884.84,-2.8416e-05,0.12396,-3.1622e-05,-23.96,1.518
23488,18.435,0.36364,0.1,8.8874e-05,888.12,8.8419e-05,875.31,-2.8043e-05,0.25537,-3.1448e-05,-25.331,1.5053
23489,18.435,0.18182,0.1,8.7178e-05,871.18,8.672e-05,858.25,-2.75e-05,0.052204,-3.088e-05,-25.349,1.505
23490,18.526,0.090909,0.1,8.7427e-05,873.67,8.7175e-05,866.42,-2.8146e-05,-0.052801,-3.0037e-05,-14.265,1.5177
23491,18.344,5.7273,0.1,8.6317e-05,862.57,8.583e-05,848.9,-2.7126e-05,0.18591,-3.0731e-05,-26.897,1.4923
23492,18.253,5.8182,0.1,8.2725e-05,826.68,8.2214e-05,812.35,-2.5888e-05,0.11079,-2.9637e-05,-28.055,1.4793
23493,18.344,5.9091,0.1,8.3531e-05,834.73,8.325e-05,826.71,-2.6786e-05,-0.055948,-2.8875e-05,-15.755,1.492
23494,18.344,5.5455,0.1,8.8777e-05,887.15,8.8317e-05,874.2,-2.7979e-05,0.40436,-3.1457e-05,-25.728,1.4926
23495,18.253,5.6364,0.1,8.4763e-05,847.05,8.4259e-05,832.92,-2.6547e-05,0.36316,-3.0311e-05,-27.916,1.4796
23496,18.344,5.3636,0.1,9.2305e-05,922.41,9.1931e-05,911.81,-2.9323e-05,0.75775,-3.2293e-05,-21.556,1.4929
23497,18.253,5.4545,0.1,8.8183e-05,881.22,8.7717e-05,868.11,-2.7738e-05,0.63516,-3.1314e-05,-26.237,1.4799
23498,18.344,5.1818,0.1,9.6762e-05,966.96,9.6544e-05,960.71,-3.1101e-05,1.6407,-3.3174e-05,-13.936,1.4931
23499,18.253,5.2727,0.1,9.2745e-05,926.81,9.2376e-05,916.36,-2.9433e-05,1.1388,-3.2462e-05,-21.624,1.4802
23500,18.344,5,0.1,0.00010207,1020,0.00010208,1020.3,-3.2953e-05,5.6978,-3.4392e-05,-5.107,1.4934
23501,18.253,5.0909,0.1,9.8401e-05,983.34,9.8191e-05,977.36,-3.1579e-05,2.3123,-3.3759e-05,-14.067,1.4804
23502,18.344,4.8182,0.1,0.0001081,1080.3,0.0001084,1089.3,-3.3897e-05,20.18,-3.6811e-05,-1.7142,1.4936
23503,18.253,4.9091,0.1,0.00010503,1049.6,0.00010505,1050.3,-3.378e-05,7.2058,-3.5478e-05,-5.5513,1.4807
23504,18.344,4.6364,0.1,0.00011468,1146,0.00011533,1166.2,-3.4231e-05,42.472,-4.0005e-05,-0.90983,1.4938
23505,18.253,4.7273,0.1,0.00011244,1123.6,0.00011277,1133.8,-3.5081e-05,22.937,-3.8402e-05,-2.0179,1.4809
23506,18.344,4.4545,0.1,0.00012164,1215.6,0.00012267,1248.6,-3.4246e-05,69.627,-4.359e-05,-0.579,1.494
23507,18.253,4.5455,0.1,0.00012041,1203.3,0.00012113,1225.8,-3.5685e-05,47.55,-4.2154e-05,-1.0596,1.4811
23508,18.344,4.2727,0.1,0.00012883,1287.4,0.00013022,1333.8,-3.4132e-05,98.942,-4.7353e-05,-0.39621,1.4942
23509,18.253,4.3636,0.1,0.00012874,1286.5,0.00012987,1323.2,-3.59e-05,77.688,-4.6327e-05,-0.65838,1.4813
23510,18.344,4.0909,0.1,0.00013609,1359.9,0.00013779,1418.7,-3.4162e-05,126.69,-5.1061e-05,-0.28555,1.4943
23511,18.253,4.1818,0.1,0.00013725,1371.5,0.00013877,1422.6,-3.6036e-05,109.21,-5.063e-05,-0.43709,1.4815
23512,18.344,3.9091,0.1,0.00014319,1430.9,0.00014514,1499.5,-3.4587e-05,149.13,-5.4466e-05,-0.23474,1.4944
23513,18.253,4,0.1,0.00014575,1456.5,0.00014759,1519.9,-3.6504e-05,136.65,-5.4736e-05,-0.33855,1.4816
23514,18.344,3.7273,0.1,0.00014981,1497,0.00015192,1572.2,-3.549e-05,164.08,-5.7361e-05,-0.24439,1.4945
23515,18.253,3.8182,0.1,0.00015393,1538.2,0.00015597,1609.9,-3.7592e-05,155.5,-5.8328e-05,-0.30564,1.4817
23516,18.344,3.5455,0.1,0.00015552,1554.1,0.00015772,1632.7,-3.672e-05,171.75,-5.9617e-05,-0.28523,1.4946
23517,18.253,3.6364,0.1,0.00016127,1611.6,0.00016343,1687.4,-3.9245e-05,164.55,-6.1187e-05,-0.30836,1.4818
23518,18.344,3.3636,0.1,0.00015992,1598.1,0.00016216,1677.8,-3.796e-05,174.24,-6.1194e-05,-0.32552,1.4947
23519,18.253,3.4545,0.1,0.00016725,1671.3,0.00016944,1747.9,-4.109e-05,166.08,-6.3242e-05,-0.35392,1.4819
23520,18.344,3.1818,0.1,0.00016268,1625.6,0.00016493,1705.6,-3.8868e-05,174.31,-6.2114e-05,-0.35348,1.4947
23521,18.253,3.2727,0.1,0.00017142,1713,0.00017361,1788.9,-4.2642e-05,164.08,-6.4533e-05,-0.39421,1.482
23522,18.344,3,0.1,0.00016362,1635,0.00016587,1714.9,-3.9199e-05,174.07,-6.2415e-05,-0.36346,1.4947
23523,18.253,3.0909,0.1,0.00017355,1734.3,0.00017573,1809.4,-4.3517e-05,162.11,-6.5147e-05,-0.41118,1.482
23524,18.344,2.8182,0.1,0.00016268,1625.6,0.00016493,1705.6,-3.8868e-05,174.31,-6.2114e-05,-0.35348,1.4947
23525,18.253,2.9091,0.1,0.00017355,1734.3,0.00017573,1809.4,-4.3517e-05,162.11,-6.5147e-05,-0.41118,1.482
23526,18.344,2.6364,0.1,0.00015992,1598.1,0.00016216,1677.8,-3.796e-05,174.24,-6.1194e-05,-0.32552,1.4947
23527,18.253,2.7273,0.1,0.00017142,1713,0.00017361,1788.9,-4.2642e-05,164.08,-6.4533e-05,-0.39421,1.482
23528,18.344,2.4545,0.1,0.00015552,1554.1,0.00015772,1632.7,-3.672e-05,171.75,-5.9617e-05,-0.28523,1.4946
23529,18.253,2.5455,0.1,0.00016725,1671.3,0.00016944,1747.9,-4.109e-05,166.08,-6.3242e-05,-0.35392,1.4819
23530,18.344,2.2727,0.1,0.00014981,1497,0.00015192,1572.2,-3.549e-05,164.08,-5.7361e-05,-0.24439,1.4945
23531,18.253,2.3636,0.1,0.00016127,1611.6,0.00016343,1687.4,-3.9245e-05,164.55,-6.1187e-05,-0.30836,1.4818
23532,18.344,2.0909,0.1,0.00014319,1430.9,0.00014514,1499.5,-3.4587e-05,149.13,-5.4466e-05,-0.23474,1.4944
23533,18.253,2.1818,0.1,0.00015393,1538.2,0.00015597,1609.9,-3.7592e-05,155.5,-5.8328e-05,-0.30564,1.4817
23534,18.344,1.9091,0.1,0.00013609,1359.9,0.00013779,1418.7,-3.4162e-05,126.69,-5.1061e-05,-0.28555,1.4943
23535,18.253,2,0.1,0.00014575,1456.5,0.00014759,1519.9,-3.6504e-05,136.65,-5.4736e-05,-0.33855,1.4816
23536,18.344,1.7273,0.1,0.00012883,1287.4,0.00013022,1333.8,-3.4132e-05,98.942,-4.7353e-05,-0.39621,1.4942
23537,18.253,1.8182,0.1,0.00013725,1371.5,0.00013877,1422.6,-3.6036e-05,109.21,-5.063e-05,-0.43709,1.4815
23538,18.344,1.5455,0.1,0.00012164,1215.6,0.00012267,1248.6,-3.4246e-05,69.628,-4.359e-05,-0.579,1.494
23539,18.253,1.6364,0.1,0.00012874,1286.5,0.00012987,1323.2,-3.59e-05,77.688,-4.6327e-05,-0.65838,1.4813
23540,18.344,1.3636,0.1,0.00011468,1146,0.00011533,1166.2,-3.4231e-05,42.473,-4.0005e-05,-0.90983,1.4938
23541,18.253,1.4545,0.1,0.00012041,1203.3,0.00012113,1225.8,-3.5685e-05,47.55,-4.2154e-05,-1.0596,1.4811
23542,18.344,1.1818,0.1,0.0001081,1080.3,0.0001084,1089.3,-3.3897e-05,20.18,-3.6811e-05,-1.7142,1.4936
23543,18.253,1.2727,0.1,0.00011244,1123.6,0.00011277,1133.8,-3.5081e-05,22.937,-3.8402e-05,-2.0179,1.4809
23544,18.344,1,0.1,0.00010207,1020,0.00010208,1020.3,-3.2953e-05,5.6979,-3.4392e-05,-5.1069,1.4934
23545,18.253,1.0909,0.1,0.00010503,1049.6,0.00010505,1050.3,-3.378e-05,7.2059,-3.5478e-05,-5.5512,1.4807
23546,18.344,0.81818,0.1,9.6762e-05,966.96,9.6544e-05,960.71,-3.1101e-05,1.6407,-3.3174e-05,-13.936,1.4931
23547,18.253,0.90909,0.1,9.8401e-05,983.34,9.8191e-05,977.36,-3.1579e-05,2.3123,-3.3759e-05,-14.067,1.4804
23548,18.344,0.63636,0.1,9.2305e-05,922.41,9.1931e-05,911.81,-2.9323e-05,0.75775,-3.2293e-05,-21.556,1.4929
23549,18.253,0.72727,0.1,9.2745e-05,926.81,9.2376e-05,916.36,-2.9433e-05,1.1388,-3.2462e-05,-21.624,1.4802
23550,18.344,0.45455,0.1,8.8777e-05,887.15,8.8317e-05,874.2,-2.7979e-05,0.40436,-3.1457e-05,-25.727,1.4926
23551,18.253,0.54545,0.1,8.8183e-05,881.22,8.7717e-05,868.11,-2.7738e-05,0.63516,-3.1314e-05,-26.237,1.4799
23552,18.344,0.27273,0.1,8.6317e-05,862.57,8.583e-05,848.9,-2.7126e-05,0.18591,-3.0731e-05,-26.897,1.4923
23553,18.253,0.36364,0.1,8.4763e-05,847.05,8.4259e-05,832.92,-2.6547e-05,0.36316,-3.0311e-05,-27.916,1.4796
23554,18.253,0.18182,0.1,8.2725e-05,826.68,8.2214e-05,812.35,-2.5888e-05,0.11079,-2.9637e-05,-28.055,1.4793
23555,18.344,0.090909,0.1,8.3531e-05,834.73,8.325e-05,826.71,-2.6786e-05,-0.055948,-2.8875e-05,-15.755,1.492
23556,18.161,5.7273,0.1,8.1213e-05,811.57,8.0678e-05,796.64,-2.5308e-05,0.29828,-2.9254e-05,-29.353,1.4666
23557,18.07,5.8182,0.1,7.6502e-05,764.49,7.5946e-05,749.04,-2.3712e-05,0.24415,-2.777e-05,-30.242,1.4536
23558,18.161,5.9091,0.1,7.7941e-05,778.87,7.7637e-05,770.21,-2.488e-05,-0.063566,-2.7133e-05,-16.993,1.4663
23559,18.161,5.5455,0.1,8.4234e-05,841.76,8.3715e-05,827.25,-2.6309e-05,0.57511,-3.0222e-05,-28.827,1.4669
23560,18.07,5.6364,0.1,7.8897e-05,788.42,7.8359e-05,773.46,-2.4508e-05,0.55451,-2.8523e-05,-29.612,1.454
23561,18.161,5.3636,0.1,8.8734e-05,886.73,8.8258e-05,873.39,-2.7857e-05,0.94698,-3.1571e-05,-26.962,1.4672
23562,18.07,5.4545,0.1,8.3164e-05,831.07,8.2626e-05,816.08,-2.587e-05,0.88642,-2.998e-05,-29.999,1.4543
23563,18.161,5.1818,0.1,9.4544e-05,944.79,9.4163e-05,934.06,-2.9944e-05,1.562,-3.3154e-05,-22.559,1.4675
23564,18.07,5.2727,0.1,8.9025e-05,889.64,8.8508e-05,875.19,-2.78e-05,1.3012,-3.1886e-05,-29.401,1.4546
23565,18.161,5,0.1,0.00010155,1014.8,0.00010134,1008.7,-3.2517e-05,2.9834,-3.4909e-05,-14.991,1.4678
23566,18.07,5.0909,0.1,9.6405e-05,963.38,9.595e-05,950.65,-3.0322e-05,1.8893,-3.4129e-05,-26.714,1.4548
23567,18.161,4.8182,0.1,0.00010958,1095,0.00010962,1096.3,-3.5127e-05,8.7366,-3.71e-05,-6.0866,1.468
23568,18.07,4.9091,0.1,0.00010514,1050.7,0.00010483,1041.9,-3.3431e-05,3.102,-3.6531e-05,-20.192,1.4551
23569,18.161,4.6364,0.1,0.00011837,1182.9,0.00011876,1194.9,-3.6721e-05,26.615,-4.0559e-05,-2.2272,1.4682
23570,18.07,4.7273,0.1,0.00011499,1149.2,0.00011495,1147.9,-3.6834e-05,7.5183,-3.9132e-05,-9.7427,1.4554
23571,18.161,4.4545,0.1,0.00012769,1276,0.00012851,1301.7,-3.7519e-05,54.261,-4.4891e-05,-1.1356,1.4684
23572,18.07,4.5455,0.1,0.00012566,1255.8,0.00012601,1266.5,-3.9207e-05,25.096,-4.2968e-05,-3.163,1.4556
23573,18.161,4.2727,0.1,0.00013732,1372.2,0.00013857,1413.2,-3.7961e-05,86.78,-4.9601e-05,-0.67837,1.4686
23574,18.07,4.3636,0.1,0.00013683,1367.4,0.00013768,1394,-4.0341e-05,56.449,-4.8032e-05,-1.3377,1.4558
23575,18.161,4.0909,0.1,0.00014705,1469.5,0.00014869,1524.7,-3.8503e-05,118.24,-5.4302e-05,-0.46664,1.4688
23576,18.07,4.1818,0.1,0.00014827,1481.6,0.00014961,1525.5,-4.1058e-05,92.884,-5.3514e-05,-0.70466,1.456
23577,18.161,3.9091,0.1,0.00015658,1564.7,0.0001585,1630.8,-3.9589e-05,142.42,-5.8596e-05,-0.39037,1.4689
23578,18.07,4,0.1,0.0001597,1595.9,0.00016145,1654.4,-4.2145e-05,124.69,-5.8786e-05,-0.34434,1.4562
23579,18.161,3.7273,0.1,0.00016542,1653,0.00016751,1725.2,-4.1367e-05,155.82,-6.2152e-05,-0.3584,1.4691
23580,18.07,3.8182,0.1,0.00017067,1705.5,0.00017265,1772.6,-4.4157e-05,143.61,-6.3308e-05,-0.27436,1.4563
23581,18.161,3.5455,0.1,0.00017295,1728.3,0.0001751,1802.2,-4.3566e-05,159.25,-6.4811e-05,-0.37345,1.4692
23582,18.07,3.6364,0.1,0.00018037,1802.5,0.00018243,1871.7,-4.6988e-05,147.96,-6.6737e-05,-0.42953,1.4564
23583,18.161,3.3636,0.1,0.00017864,1785.2,0.00018078,1858.2,-4.5661e-05,156.76,-6.658e-05,-0.42294,1.4693
23584,18.07,3.4545,0.1,0.00018801,1878.8,0.00019002,1945.8,-4.9966e-05,142.64,-6.9015e-05,-0.48578,1.4565
23585,18.161,3.1818,0.1,0.00018215,1820.2,0.00018425,1891.6,-4.7138e-05,153.03,-6.7566e-05,-0.45257,1.4693
23586,18.07,3.2727,0.1,0.00019314,1930.1,0.00019507,1993.6,-5.2344e-05,134.65,-7.0332e-05,-0.50344,1.4566
23587,18.161,3,0.1,0.00018332,1832,0.00018542,1902.7,-4.7667e-05,151.4,-6.7879e-05,-0.45909,1.4693
23588,18.07,3.0909,0.1,0.00019568,1955.5,0.00019755,2016.7,-5.3633e-05,129.38,-7.092e-05,-0.50476,1.4566
23589,18.161,2.8182,0.1,0.00018215,1820.2,0.00018425,1891.6,-4.7138e-05,153.03,-6.7566e-05,-0.45257,1.4693
23590,18.07,2.9091,0.1,0.00019568,1955.5,0.00019755,2016.7,-5.3633e-05,129.38,-7.092e-05,-0.50476,1.4566
23591,18.161,2.6364,0.1,0.00017864,1785.2,0.00018078,1858.2,-4.5661e-05,156.76,-6.658e-05,-0.42294,1.4693
23592,18.07,2.7273,0.1,0.00019314,1930.1,0.00019507,1993.6,-5.2344e-05,134.65,-7.0332e-05,-0.50344,1.4566
23593,18.161,2.4545,0.1,0.00017295,1728.3,0.0001751,1802.2,-4.3566e-05,159.25,-6.4811e-05,-0.37345,1.4692
23594,18.07,2.5455,0.1,0.00018801,1878.8,0.00019002,1945.8,-4.9966e-05,142.64,-6.9015e-05,-0.48578,1.4565
23595,18.161,2.2727,0.1,0.00016542,1653,0.00016751,1725.2,-4.1367e-05,155.82,-6.2152e-05,-0.3584,1.4691
23596,18.07,2.3636,0.1,0.00018038,1802.5,0.00018243,1871.7,-4.6988e-05,147.96,-6.6737e-05,-0.42953,1.4564
23597,18.161,2.0909,0.1,0.00015658,1564.7,0.0001585,1630.8,-3.9589e-05,142.42,-5.8596e-05,-0.39037,1.4689
23598,18.07,2.1818,0.1,0.00017067,1705.5,0.00017265,1772.6,-4.4157e-05,143.61,-6.3308e-05,-0.27436,1.4563
23599,18.161,1.9091,0.1,0.00014705,1469.5,0.00014869,1524.7,-3.8503e-05,118.24,-5.4302e-05,-0.46664,1.4688
23600,18.07,2,0.1,0.0001597,1595.9,0.00016145,1654.4,-4.2145e-05,124.69,-5.8786e-05,-0.34434,1.4562
23601,18.161,1.7273,0.1,0.00013732,1372.2,0.00013857,1413.2,-3.7961e-05,86.78,-4.9601e-05,-0.67837,1.4686
23602,18.07,1.8182,0.1,0.00014827,1481.6,0.00014961,1525.5,-4.1058e-05,92.884,-5.3514e-05,-0.70466,1.456
23603,18.161,1.5455,0.1,0.00012769,1276,0.00012851,1301.7,-3.7518e-05,54.261,-4.4891e-05,-1.1356,1.4684
23604,18.07,1.6364,0.1,0.00013683,1367.4,0.00013768,1394,-4.0341e-05,56.449,-4.8032e-05,-1.3377,1.4558
23605,18.161,1.3636,0.1,0.00011837,1182.9,0.00011876,1194.9,-3.6721e-05,26.615,-4.0559e-05,-2.2272,1.4682
23606,18.07,1.4545,0.1,0.00012566,1255.8,0.00012601,1266.5,-3.9207e-05,25.096,-4.2968e-05,-3.163,1.4556
23607,18.161,1.1818,0.1,0.00010958,1095,0.00010962,1096.3,-3.5127e-05,8.7367,-3.71e-05,-6.0866,1.468
23608,18.07,1.2727,0.1,0.00011499,1149.2,0.00011495,1147.9,-3.6834e-05,7.5184,-3.9132e-05,-9.7426,1.4554
23609,18.161,1,0.1,0.00010155,1014.8,0.00010134,1008.7,-3.2517e-05,2.9834,-3.4909e-05,-14.991,1.4678
23610,18.07,1.0909,0.1,0.00010514,1050.7,0.00010483,1041.9,-3.3431e-05,3.1021,-3.6531e-05,-20.192,1.4551
23611,18.161,0.81818,0.1,9.4544e-05,944.79,9.4163e-05,934.06,-2.9944e-05,1.562,-3.3154e-05,-22.559,1.4675
23612,18.07,0.90909,0.1,9.6405e-05,963.38,9.595e-05,950.65,-3.0322e-05,1.8893,-3.4129e-05,-26.714,1.4548
23613,18.161,0.63636,0.1,8.8734e-05,886.73,8.8258e-05,873.39,-2.7857e-05,0.94699,-3.1571e-05,-26.962,1.4672
23614,18.07,0.72727,0.1,8.9025e-05,889.64,8.8508e-05,875.19,-2.78e-05,1.3012,-3.1886e-05,-29.401,1.4546
23615,18.161,0.45455,0.1,8.4234e-05,841.76,8.3715e-05,827.25,-2.6309e-05,0.57511,-3.0222e-05,-28.826,1.4669
23616,18.07,0.54545,0.1,8.3164e-05,831.07,8.2626e-05,816.08,-2.587e-05,0.88642,-2.998e-05,-29.999,1.4543
23617,18.161,0.27273,0.1,8.1213e-05,811.57,8.0678e-05,796.64,-2.5308e-05,0.29829,-2.9254e-05,-29.353,1.4666
23618,18.07,0.36364,0.1,7.8897e-05,788.42,7.8359e-05,773.46,-2.4508e-05,0.55451,-2.8523e-05,-29.612,1.454
23619,18.07,0.18182,0.1,7.6502e-05,764.49,7.5946e-05,749.04,-2.3712e-05,0.24416,-2.777e-05,-30.242,1.4536
23620,18.161,0.090909,0.1,7.7941e-05,778.87,7.7637e-05,770.21,-2.488e-05,-0.063566,-2.7133e-05,-16.993,1.4663
23621,17.979,5.7273,0.1,7.4244e-05,741.93,7.3677e-05,726.24,-2.2909e-05,0.52786,-2.7093e-05,-30.909,1.441
23622,17.888,5.8182,0.1,6.8324e-05,682.77,6.7742e-05,666.75,-2.0927e-05,0.52457,-2.5181e-05,-31.44,1.428
23623,17.979,5.9091,0.1,7.0456e-05,704.08,7.0138e-05,695.05,-2.2375e-05,-0.062979,-2.4718e-05,-17.665,1.4406
23624,17.979,5.5455,0.1,7.7929e-05,778.75,7.7358e-05,762.96,-2.407e-05,0.86446,-2.837e-05,-31.445,1.4413
23625,17.888,5.6364,0.1,7.113e-05,710.81,7.0581e-05,695.67,-2.1886e-05,0.90775,-2.6022e-05,-30.171,1.4284
23626,17.979,5.3636,0.1,8.3646e-05,835.88,8.304e-05,819.12,-2.5818e-05,1.207,-3.0456e-05,-33.64,1.4416
23627,17.888,5.4545,0.1,7.6477e-05,764.24,7.5855e-05,747.15,-2.3419e-05,1.2474,-2.8136e-05,-34.193,1.4287
23628,17.979,5.1818,0.1,9.1169e-05,911.06,9.0538e-05,893.62,-2.8186e-05,1.5695,-3.3097e-05,-35.329,1.4419
23629,17.888,5.2727,0.1,8.3984e-05,839.26,8.3241e-05,818.96,-2.5559e-05,1.472,-3.1147e-05,-40.509,1.429
23630,17.979,5,0.1,0.00010035,1002.8,9.9748e-05,986.17,-3.1226e-05,2.0766,-3.6065e-05,-34.277,1.4422
23631,17.888,5.0909,0.1,9.3518e-05,934.53,9.2654e-05,911,-2.8367e-05,1.6918,-3.4829e-05,-46.86,1.4293
23632,17.979,4.8182,0.1,0.00011095,1108.7,0.0001105,1096.1,-3.4973e-05,3.1239,-3.9063e-05,-27.606,1.4425
23633,17.888,4.9091,0.1,0.0001049,1048.3,0.00010399,1023.5,-3.195e-05,2.0326,-3.8848e-05,-49.799,1.4296
23634,17.979,4.6364,0.1,0.00012266,1225.8,0.00012253,1222,-3.9198e-05,6.921,-4.1992e-05,-14.071,1.4427
23635,17.888,4.7273,0.1,0.0001179,1178.2,0.00011711,1156.4,-3.6428e-05,2.7638,-4.2776e-05,-44.933,1.4299
23636,17.979,4.4545,0.1,0.00013513,1350.4,0.00013548,1361,-4.2261e-05,25.543,-4.617e-05,-3.8258,1.443
23637,17.888,4.5455,0.1,0.00013218,1320.9,0.00013175,1308.9,-4.1787e-05,4.9819,-4.6228e-05,-28.381,1.4301
23638,17.979,4.2727,0.1,0.00014804,1479.4,0.00014896,1508.1,-4.368e-05,60.736,-5.1945e-05,-1.3605,1.4432
23639,17.888,4.3636,0.1,0.00014731,1472,0.00014748,1477.4,-4.6672e-05,18.644,-5.0161e-05,-7.5691,1.4304
23640,17.979,4.0909,0.1,0.00016112,1610.1,0.00016255,1656.5,-4.4887e-05,97.928,-5.7991e-05,-0.52991,1.4434
23641,17.888,4.1818,0.1,0.0001628,1626.9,0.00016368,1654.5,-4.8686e-05,58.831,-5.677e-05,-1.9133,1.4306
23642,17.979,3.9091,0.1,0.00017392,1738,0.0001757,1797,-4.6819e-05,125.08,-6.3491e-05,-0.18478,1.4436
23643,17.888,4,0.1,0.00017838,1782.5,0.00017982,1829,-5.0517e-05,98.33,-6.3769e-05,-1.2347,1.4308
23644,17.979,3.7273,0.1,0.00018564,1855.1,0.00018757,1919.1,-4.9777e-05,135.77,-6.7889e-05,-0.32436,1.4437
23645,17.888,3.8182,0.1,0.00019312,1929.9,0.00019483,1985.5,-5.3745e-05,117.83,-6.9558e-05,-0.98987,1.431
23646,17.979,3.5455,0.1,0.00019533,1951.9,0.00019723,2014.4,-5.3272e-05,132.22,-7.0941e-05,-0.54221,1.4438
23647,17.888,3.6364,0.1,0.0002056,2054.6,0.0002073,2109.2,-5.8159e-05,114.67,-7.3496e-05,-0.56612,1.4312
23648,17.979,3.3636,0.1,0.00020232,2021.8,0.0002041,2079.7,-5.6442e-05,122.09,-7.2768e-05,-0.57421,1.4439
23649,17.888,3.4545,0.1,0.00021475,2146,0.00021624,2193.4,-6.2492e-05,99.088,-7.5779e-05,-0.74378,1.4313
23650,17.979,3.1818,0.1,0.00020643,2062.9,0.00020811,2116.8,-5.858e-05,112.95,-7.3687e-05,-0.55853,1.444
23651,17.888,3.2727,0.1,0.00022036,2202.1,0.00022165,2242.2,-6.5689e-05,83.264,-7.6859e-05,-0.66178,1.4314
23652,17.979,3,0.1,0.00020778,2076.4,0.00020941,2128.6,-5.9325e-05,109.42,-7.3961e-05,-0.54898,1.444
23653,17.888,3.0909,0.1,0.00022296,2228,0.00022411,2263.8,-6.7323e-05,74.113,-7.7263e-05,-0.56954,1.4314
23654,17.979,2.8182,0.1,0.00020643,2062.9,0.00020811,2116.8,-5.858e-05,112.95,-7.3687e-05,-0.55853,1.444
23655,17.888,2.9091,0.1,0.00022296,2228,0.00022411,2263.8,-6.7323e-05,74.113,-7.7263e-05,-0.56954,1.4314
23656,17.979,2.6364,0.1,0.00020232,2021.8,0.0002041,2079.7,-5.6442e-05,122.09,-7.2768e-05,-0.57421,1.4439
23657,17.888,2.7273,0.1,0.00022036,2202.1,0.00022165,2242.2,-6.5689e-05,83.264,-7.6859e-05,-0.66178,1.4314
23658,17.979,2.4545,0.1,0.00019533,1951.9,0.00019723,2014.4,-5.3272e-05,132.22,-7.0941e-05,-0.54221,1.4438
23659,17.888,2.5455,0.1,0.00021475,2146,0.00021624,2193.4,-6.2492e-05,99.088,-7.5779e-05,-0.74378,1.4313
23660,17.979,2.2727,0.1,0.00018564,1855.1,0.00018757,1919.1,-4.9777e-05,135.77,-6.7889e-05,-0.32436,1.4437
23661,17.888,2.3636,0.1,0.0002056,2054.6,0.0002073,2109.2,-5.8159e-05,114.67,-7.3496e-05,-0.56612,1.4312
23662,17.979,2.0909,0.1,0.00017392,1738,0.0001757,1797,-4.6819e-05,125.08,-6.3491e-05,-0.18478,1.4436
23663,17.888,2.1818,0.1,0.00019312,1929.9,0.00019483,1985.5,-5.3745e-05,117.83,-6.9558e-05,-0.98987,1.431
23664,17.979,1.9091,0.1,0.00016112,1610.1,0.00016255,1656.5,-4.4887e-05,97.928,-5.7991e-05,-0.52991,1.4434
23665,17.888,2,0.1,0.00017838,1782.5,0.00017982,1829,-5.0517e-05,98.33,-6.3769e-05,-1.2347,1.4308
23666,17.979,1.7273,0.1,0.00014804,1479.4,0.00014896,1508.1,-4.368e-05,60.736,-5.1945e-05,-1.3605,1.4432
23667,17.888,1.8182,0.1,0.0001628,1626.9,0.00016368,1654.5,-4.8686e-05,58.831,-5.677e-05,-1.9133,1.4306
23668,17.979,1.5455,0.1,0.00013513,1350.4,0.00013548,1361,-4.2261e-05,25.543,-4.617e-05,-3.8258,1.443
23669,17.888,1.6364,0.1,0.00014731,1472,0.00014748,1477.4,-4.6672e-05,18.644,-5.0161e-05,-7.5691,1.4304
23670,17.979,1.3636,0.1,0.00012266,1225.8,0.00012253,1222,-3.9198e-05,6.921,-4.1992e-05,-14.07,1.4427
23671,17.888,1.4545,0.1,0.00013218,1320.9,0.00013175,1308.9,-4.1787e-05,4.9819,-4.6228e-05,-28.381,1.4301
23672,17.979,1.1818,0.1,0.00011095,1108.7,0.0001105,1096.1,-3.4973e-05,3.1239,-3.9063e-05,-27.606,1.4425
23673,17.888,1.2727,0.1,0.0001179,1178.2,0.00011711,1156.4,-3.6428e-05,2.7638,-4.2776e-05,-44.933,1.4299
23674,17.979,1,0.1,0.00010035,1002.8,9.9748e-05,986.17,-3.1226e-05,2.0766,-3.6065e-05,-34.277,1.4422
23675,17.888,1.0909,0.1,0.0001049,1048.3,0.00010399,1023.5,-3.195e-05,2.0326,-3.8848e-05,-49.799,1.4296
23676,17.979,0.81818,0.1,9.1169e-05,911.06,9.0538e-05,893.62,-2.8186e-05,1.5695,-3.3097e-05,-35.329,1.4419
23677,17.888,0.90909,0.1,9.3518e-05,934.53,9.2654e-05,911,-2.8367e-05,1.6918,-3.4829e-05,-46.86,1.4293
23678,17.979,0.63636,0.1,8.3646e-05,835.88,8.304e-05,819.12,-2.5818e-05,1.207,-3.0456e-05,-33.64,1.4416
23679,17.888,0.72727,0.1,8.3984e-05,839.26,8.3241e-05,818.96,-2.5559e-05,1.472,-3.1147e-05,-40.509,1.429
23680,17.979,0.45455,0.1,7.7929e-05,778.75,7.7358e-05,762.96,-2.407e-05,0.86446,-2.837e-05,-31.444,1.4413
23681,17.888,0.54545,0.1,7.6477e-05,764.24,7.5855e-05,747.15,-2.3419e-05,1.2474,-2.8136e-05,-34.193,1.4287
23682,17.979,0.27273,0.1,7.4244e-05,741.93,7.3677e-05,726.24,-2.2909e-05,0.52786,-2.7093e-05,-30.909,1.441
23683,17.888,0.36364,0.1,7.113e-05,710.81,7.0581e-05,695.67,-2.1886e-05,0.90775,-2.6022e-05,-30.171,1.4284
23684,17.888,0.18182,0.1,6.8324e-05,682.77,6.7742e-05,666.75,-2.0927e-05,0.52457,-2.5181e-05,-31.44,1.428
23685,17.979,0.090909,0.1,7.0456e-05,704.08,7.0138e-05,695.05,-2.2375e-05,-0.062979,-2.4718e-05,-17.665,1.4406
23686,17.796,5.7273,0.1,6.5289e-05,652.44,6.4714e-05,636.69,-1.9895e-05,0.97161,-2.4188e-05,-31.282,1.4154
23687,17.705,5.8182,0.1,5.808e-05,580.4,5.7504e-05,564.76,-1.7501e-05,1.2044,-2.1806e-05,-31.141,1.4025
23688,17.796,5.9091,0.1,6.0929e-05,608.87,6.0614e-05,599.96,-1.9246e-05,-0.074237,-2.1548e-05,-17.37,1.4151
23689,17.796,5.5455,0.1,6.9849e-05,698.01,6.9225e-05,680.97,-2.1232e-05,1.3125,-2.5938e-05,-34.045,1.4158
23690,17.705,5.6364,0.1,6.1519e-05,614.77,6.0975e-05,599.97,-1.8655e-05,1.6568,-2.2872e-05,-30.029,1.4028
23691,17.796,5.3636,0.1,7.7152e-05,770.99,7.6345e-05,749.16,-2.3164e-05,1.4826,-2.9111e-05,-43.198,1.4161
23692,17.705,5.4545,0.1,6.8382e-05,683.35,6.7622e-05,662.92,-2.0373e-05,1.7638,-2.6017e-05,-40.645,1.4032
23693,17.796,5.1818,0.1,8.6833e-05,867.73,8.5781e-05,839.52,-2.5744e-05,1.5677,-3.3298e-05,-55.195,1.4164
23694,17.705,5.2727,0.1,7.8009e-05,779.55,7.6875e-05,749.56,-2.2665e-05,1.6644,-3.063e-05,-58.185,1.4035
23695,17.796,5,0.1,9.8699e-05,986.31,9.7422e-05,952.21,-2.9082e-05,1.7106,-3.8143e-05,-66.367,1.4167
23696,17.705,5.0909,0.1,9.0149e-05,900.87,8.8564e-05,859.53,-2.5613e-05,1.6467,-3.6335e-05,-78.913,1.4038
23697,17.796,4.8182,0.1,0.00011255,1124.7,0.00011118,1088,-3.3357e-05,2.0329,-4.3176e-05,-71.75,1.417
23698,17.705,4.9091,0.1,0.0001047,1046.3,0.0001027,994.45,-2.9414e-05,1.795,-4.2735e-05,-98.291,1.4042
23699,17.796,4.6364,0.1,0.00012809,1280,0.00012689,1247.4,-3.8763e-05,2.7327,-4.7816e-05,-65.286,1.4173
23700,17.705,4.7273,0.1,0.00012162,1215.4,0.00011939,1157.4,-3.4372e-05,2.1258,-4.9314e-05,-110.15,1.4045
23701,17.796,4.4545,0.1,0.00014492,1448.2,0.00014423,1428.9,-4.5366e-05,4.3382,-5.1525e-05,-41.942,1.4176
23702,17.705,4.5455,0.1,0.00014081,1407.1,0.00013873,1352.2,-4.0874e-05,2.6924,-5.5376e-05,-106.27,1.4048
23703,17.796,4.2727,0.1,0.00016249,1623.7,0.00016257,1626.5,-5.1773e-05,16.021,-5.5258e-05,-10.16,1.4178
23704,17.705,4.3636,0.1,0.00016156,1614.5,0.0001602,1577.5,-4.9113e-05,4.8072,-5.9831e-05,-75.724,1.4051
23705,17.796,4.0909,0.1,0.00018034,1802.1,0.0001812,1828.8,-5.4581e-05,57.241,-6.253e-05,-2.4786,1.4181
23706,17.705,4.1818,0.1,0.00018321,1830.9,0.000183,1824.9,-5.8523e-05,10.231,-6.2774e-05,-21.711,1.4053
23707,17.796,3.9091,0.1,0.0001977,1975.7,0.00019905,2018.2,-5.7557e-05,90.217,-6.9816e-05,-1.8937,1.4183
23708,17.705,4,0.1,0.00020499,2048.5,0.00020577,2072.3,-6.3611e-05,48.298,-7.0002e-05,0.27356,1.4056
23709,17.796,3.7273,0.1,0.00021301,2128.6,0.00021447,2175,-6.2039e-05,97.391,-7.516e-05,-1.1984,1.4185
23710,17.705,3.8182,0.1,0.00022491,2247.5,0.00022604,2282.3,-6.829e-05,70.839,-7.7671e-05,0.35344,1.4058
23711,17.796,3.5455,0.1,0.00022476,2246,0.00022605,2286.2,-6.7105e-05,83.599,-7.8341e-05,-0.82117,1.4186
23712,17.705,3.6364,0.1,0.00024033,2401.7,0.00024119,2427.9,-7.4518e-05,55.759,-8.2249e-05,-2.3356,1.406
23713,17.796,3.3636,0.1,0.00023242,2322.6,0.00023342,2353.1,-7.1357e-05,63.134,-7.9882e-05,-0.91882,1.4188
23714,17.705,3.4545,0.1,0.00024945,2492.8,0.00024987,2505.4,-7.9893e-05,27.671,-8.3871e-05,-2.2152,1.4062
23715,17.796,3.1818,0.1,0.00023648,2363.2,0.00023724,2386.2,-7.4018e-05,47.543,-8.044e-05,-0.70638,1.4188
23716,17.705,3.2727,0.1,0.00025392,2537.4,0.00025396,2538.7,-8.3108e-05,6.1012,-8.4392e-05,-3.5469,1.4063
23717,17.796,3,0.1,0.00023772,2375.6,0.00023839,2395.9,-7.4906e-05,41.931,-8.0563e-05,-0.57152,1.4189
23718,17.705,3.0909,0.1,0.00025562,2554.4,0.00025546,2549.8,-8.3933e-05,-0.24053,-8.5083e-05,-8.8872,1.4063
23719,17.796,2.8182,0.1,0.00023648,2363.2,0.00023724,2386.2,-7.4018e-05,47.543,-8.044e-05,-0.70638,1.4188
23720,17.705,2.9091,0.1,0.00025562,2554.4,0.00025546,2549.8,-8.3933e-05,-0.24053,-8.5083e-05,-8.8872,1.4063
23721,17.796,2.6364,0.1,0.00023242,2322.6,0.00023342,2353.1,-7.1357e-05,63.134,-7.9882e-05,-0.91883,1.4188
23722,17.705,2.7273,0.1,0.00025392,2537.5,0.00025396,2538.7,-8.3108e-05,6.1012,-8.4392e-05,-3.5469,1.4063
23723,17.796,2.4545,0.1,0.00022476,2246,0.00022605,2286.2,-6.7105e-05,83.599,-7.8341e-05,-0.82117,1.4186
23724,17.705,2.5455,0.1,0.00024945,2492.8,0.00024987,2505.4,-7.9893e-05,27.671,-8.3871e-05,-2.2152,1.4062
23725,17.796,2.2727,0.1,0.00021301,2128.6,0.00021447,2175,-6.2039e-05,97.391,-7.516e-05,-1.1984,1.4185
23726,17.705,2.3636,0.1,0.00024033,2401.7,0.00024119,2427.9,-7.4518e-05,55.759,-8.2249e-05,-2.3356,1.406
23727,17.796,2.0909,0.1,0.0001977,1975.7,0.00019905,2018.2,-5.7557e-05,90.217,-6.9816e-05,-1.8937,1.4183
23728,17.705,2.1818,0.1,0.00022491,2247.5,0.00022604,2282.3,-6.829e-05,70.84,-7.7671e-05,0.35344,1.4058
23729,17.796,1.9091,0.1,0.00018034,1802.1,0.0001812,1828.8,-5.4581e-05,57.242,-6.253e-05,-2.4786,1.4181
23730,17.705,2,0.1,0.00020499,2048.5,0.00020577,2072.3,-6.3611e-05,48.298,-7.0002e-05,0.27356,1.4056
23731,17.796,1.7273,0.1,0.00016249,1623.7,0.00016257,1626.5,-5.1773e-05,16.021,-5.5258e-05,-10.16,1.4178
23732,17.705,1.8182,0.1,0.00018321,1830.9,0.000183,1824.9,-5.8523e-05,10.231,-6.2774e-05,-21.711,1.4053
23733,17.796,1.5455,0.1,0.00014492,1448.2,0.00014423,1428.9,-4.5366e-05,4.3382,-5.1525e-05,-41.942,1.4176
23734,17.705,1.6364,0.1,0.00016156,1614.5,0.0001602,1577.5,-4.9113e-05,4.8072,-5.9831e-05,-75.724,1.4051
23735,17.796,1.3636,0.1,0.00012809,1280,0.00012689,1247.4,-3.8763e-05,2.7327,-4.7816e-05,-65.285,1.4173
23736,17.705,1.4545,0.1,0.00014081,1407.1,0.00013873,1352.2,-4.0874e-05,2.6924,-5.5376e-05,-106.27,1.4048
23737,17.796,1.1818,0.1,0.00011255,1124.7,0.00011118,1088,-3.3357e-05,2.0329,-4.3176e-05,-71.749,1.417
23738,17.705,1.2727,0.1,0.00012162,1215.4,0.00011939,1157.4,-3.4372e-05,2.1258,-4.9314e-05,-110.15,1.4045
23739,17.796,1,0.1,9.8699e-05,986.31,9.7422e-05,952.21,-2.9082e-05,1.7106,-3.8143e-05,-66.367,1.4167
23740,17.705,1.0909,0.1,0.0001047,1046.3,0.0001027,994.45,-2.9414e-05,1.7951,-4.2735e-05,-98.291,1.4042
23741,17.796,0.81818,0.1,8.6833e-05,867.73,8.5781e-05,839.52,-2.5744e-05,1.5677,-3.3298e-05,-55.195,1.4164
23742,17.705,0.90909,0.1,9.0149e-05,900.87,8.8564e-05,859.53,-2.5613e-05,1.6467,-3.6335e-05,-78.913,1.4038
23743,17.796,0.63636,0.1,7.7152e-05,770.99,7.6345e-05,749.16,-2.3164e-05,1.4826,-2.9111e-05,-43.198,1.4161
23744,17.705,0.72727,0.1,7.8009e-05,779.55,7.6875e-05,749.56,-2.2665e-05,1.6644,-3.063e-05,-58.185,1.4035
23745,17.796,0.45455,0.1,6.9849e-05,698.01,6.9225e-05,680.97,-2.1232e-05,1.3125,-2.5938e-05,-34.045,1.4158
23746,17.705,0.54545,0.1,6.8382e-05,683.35,6.7622e-05,662.92,-2.0373e-05,1.7638,-2.6017e-05,-40.645,1.4032
23747,17.796,0.27273,0.1,6.5289e-05,652.44,6.4714e-05,636.69,-1.9895e-05,0.97161,-2.4188e-05,-31.282,1.4154
23748,17.705,0.36364,0.1,6.1519e-05,614.77,6.0975e-05,599.97,-1.8655e-05,1.6568,-2.2872e-05,-30.029,1.4028
23749,17.705,0.18182,0.1,5.808e-05,580.4,5.7504e-05,564.76,-1.7501e-05,1.2044,-2.1806e-05,-31.141,1.4025
23750,17.796,0.090909,0.1,6.0929e-05,608.87,6.0614e-05,599.96,-1.9246e-05,-0.074236,-2.1548e-05,-17.37,1.4151
23751,17.614,5.7273,0.1,5.4426e-05,543.88,5.3863e-05,528.77,-1.6241e-05,2.043,-2.0609e-05,-30.775,1.3899
23752,17.523,5.8182,0.1,4.5844e-05,458.12,4.5298e-05,443.72,-1.3425e-05,2.5022,-1.7699e-05,-29.616,1.3769
23753,17.614,5.9091,0.1,4.9291e-05,492.57,4.9009e-05,484.66,-1.5476e-05,0.1368,-1.7569e-05,-15.59,1.3895
23754,17.614,5.5455,0.1,6.0379e-05,603.38,5.9653e-05,584.03,-1.7799e-05,2.0897,-2.3229e-05,-38.713,1.3902
23755,17.523,5.6364,0.1,5.0677e-05,506.42,5.0084e-05,490.74,-1.4874e-05,2.6669,-1.952e-05,-32.238,1.3773
23756,17.614,5.3636,0.1,6.9859e-05,698.11,6.8676e-05,667.27,-1.9887e-05,1.8459,-2.8047e-05,-59.471,1.3906
23757,17.523,5.4545,0.1,5.9925e-05,598.84,5.8818e-05,570.27,-1.6813e-05,2.0032,-2.4408e-05,-55.057,1.3777
23758,17.614,5.1818,0.1,8.2196e-05,821.39,8.0378e-05,774.98,-2.2542e-05,1.6878,-3.438e-05,-87.256,1.3909
23759,17.523,5.2727,0.1,7.2265e-05,722.15,7.0337e-05,673.85,-1.9147e-05,1.5029,-3.1257e-05,-89.487,1.378
23760,17.614,5,0.1,9.7212e-05,971.45,9.4698e-05,908.2,-2.5944e-05,1.7419,-4.1784e-05,-117.27,1.3913
23761,17.523,5.0909,0.1,8.7362e-05,873.02,8.442e-05,801.07,-2.2017e-05,1.3361,-3.9536e-05,-130.29,1.3784
23762,17.614,4.8182,0.1,0.00011495,1148.7,0.00011184,1070.9,-3.0418e-05,1.9758,-4.9814e-05,-143.76,1.3916
23763,17.523,4.9091,0.1,0.00010539,1053.2,0.00010137,956.19,-2.5709e-05,1.3648,-4.8985e-05,-173.52,1.3788
23764,17.614,4.6364,0.1,0.00013551,1354.2,0.00013215,1269.1,-3.645e-05,2.3286,-5.7821e-05,-158.25,1.392
23765,17.523,4.7273,0.1,0.00012691,1268.2,0.0001219,1147.9,-3.0666e-05,1.601,-5.9418e-05,-214.43,1.3791
23766,17.614,4.4545,0.1,0.00015846,1583.5,0.00015549,1506.7,-4.4507e-05,4.0181,-6.458e-05,-146.8,1.3923
23767,17.523,4.5455,0.1,0.00015246,1523.6,0.00014691,1388.9,-3.7659e-05,2.1326,-7.0155e-05,-242.03,1.3795
23768,17.614,4.2727,0.1,0.00018297,1828.4,0.00018118,1780,-5.5004e-05,5.4683,-6.8751e-05,-97.818,1.3926
23769,17.523,4.3636,0.1,0.0001824,1822.7,0.00017725,1694.4,-4.782e-05,3.2772,-7.9711e-05,-236.34,1.3798
23770,17.614,4.0909,0.1,0.00020824,2081,0.00020788,2070.8,-6.6574e-05,8.6353,-7.1526e-05,-28.57,1.3929
23771,17.523,4.1818,0.1,0.0002162,2160.5,0.00021269,2068.1,-6.2242e-05,2.3704,-8.5993e-05,-176.08,1.3802
23772,17.614,3.9091,0.1,0.00023223,2320.7,0.00023275,2336.3,-7.4426e-05,28.306,-7.7767e-05,3.202,1.3931
23773,17.523,4,0.1,0.00024761,2474.4,0.00024644,2440.6,-7.9905e-05,-11.472,-8.5781e-05,-55.623,1.3805
23774,17.614,3.7273,0.1,0.00025187,2517,0.00025239,2532.4,-8.0372e-05,32.189,-8.4793e-05,-1.0285,1.3934
23775,17.523,3.8182,0.1,0.00027544,2752.5,0.00027505,2741.3,-8.9994e-05,-1.4848,-9.2543e-05,-20.636,1.3808
23776,17.614,3.5455,0.1,0.00026442,2642.4,0.00026443,2642.6,-8.6006e-05,9.5956,-8.8491e-05,-9.0762,1.3936
23777,17.523,3.6364,0.1,0.00028976,2895.6,0.00028893,2871.8,-9.267e-05,4.6726,-0.00010014,-51.437,1.381
23778,17.614,3.3636,0.1,0.00027032,2701.4,0.00026981,2686.4,-8.7592e-05,1.0865,-9.1819e-05,-30.676,1.3937
23779,17.523,3.4545,0.1,0.00029378,2935.8,0.00029222,2891.6,-9.2529e-05,0.82116,-0.00010424,-87.191,1.3812
23780,17.614,3.1818,0.1,0.00027247,2722.8,0.0002716,2698,-8.751e-05,-0.26647,-9.3968e-05,-48.789,1.3938
23781,17.523,3.2727,0.1,0.00029324,2930.3,0.00029125,2874.7,-9.1362e-05,-0.016447,-0.00010576,-108.18,1.3813
23782,17.614,3,0.1,0.00027295,2727.6,0.00027196,2699.5,-8.7378e-05,-0.47311,-9.4624e-05,-54.918,1.3939
23783,17.523,3.0909,0.1,0.00029228,2920.8,0.00029009,2859.8,-9.0563e-05,-0.22956,-0.00010625,-118.08,1.3814
23784,17.614,2.8182,0.1,0.00027247,2722.8,0.0002716,2698,-8.751e-05,-0.26647,-9.3968e-05,-48.789,1.3938
23785,17.523,2.9091,0.1,0.00029228,2920.8,0.00029009,2859.8,-9.0563e-05,-0.22956,-0.00010625,-118.08,1.3814
23786,17.614,2.6364,0.1,0.00027032,2701.4,0.00026981,2686.4,-8.7592e-05,1.0865,-9.1819e-05,-30.675,1.3937
23787,17.523,2.7273,0.1,0.00029324,2930.3,0.00029125,2874.8,-9.1362e-05,-0.016445,-0.00010576,-108.18,1.3813
23788,17.614,2.4545,0.1,0.00026442,2642.4,0.00026443,2642.6,-8.6006e-05,9.5957,-8.8491e-05,-9.0761,1.3936
23789,17.523,2.5455,0.1,0.00029378,2935.8,0.00029222,2891.6,-9.2529e-05,0.82117,-0.00010424,-87.191,1.3812
23790,17.614,2.2727,0.1,0.00025187,2517,0.00025239,2532.4,-8.0372e-05,32.189,-8.4793e-05,-1.0285,1.3934
23791,17.523,2.3636,0.1,0.00028976,2895.6,0.00028893,2871.8,-9.267e-05,4.6726,-0.00010014,-51.437,1.381
23792,17.614,2.0909,0.1,0.00023223,2320.7,0.00023276,2336.3,-7.4426e-05,28.306,-7.7767e-05,3.202,1.3931
23793,17.523,2.1818,0.1,0.00027544,2752.5,0.00027505,2741.3,-8.9994e-05,-1.4848,-9.2543e-05,-20.636,1.3808
23794,17.614,1.9091,0.1,0.00020824,2081,0.00020788,2070.8,-6.6574e-05,8.6353,-7.1526e-05,-28.57,1.3929
23795,17.523,2,0.1,0.00024761,2474.4,0.00024644,2440.6,-7.9905e-05,-11.472,-8.5781e-05,-55.623,1.3805
23796,17.614,1.7273,0.1,0.00018297,1828.4,0.00018118,1780,-5.5004e-05,5.4683,-6.8751e-05,-97.818,1.3926
23797,17.523,1.8182,0.1,0.0002162,2160.5,0.00021269,2068.1,-6.2242e-05,2.3704,-8.5993e-05,-176.08,1.3802
23798,17.614,1.5455,0.1,0.00015846,1583.5,0.00015549,1506.7,-4.4507e-05,4.0181,-6.458e-05,-146.8,1.3923
23799,17.523,1.6364,0.1,0.0001824,1822.7,0.00017725,1694.4,-4.782e-05,3.2772,-7.9711e-05,-236.34,1.3798
23800,17.614,1.3636,0.1,0.00013551,1354.2,0.00013215,1269.1,-3.645e-05,2.3286,-5.7821e-05,-158.25,1.392
23801,17.523,1.4545,0.1,0.00015246,1523.6,0.00014691,1388.9,-3.7659e-05,2.1326,-7.0155e-05,-242.03,1.3795
23802,17.614,1.1818,0.1,0.00011495,1148.7,0.00011184,1070.9,-3.0418e-05,1.9758,-4.9813e-05,-143.76,1.3916
23803,17.523,1.2727,0.1,0.00012691,1268.2,0.0001219,1147.9,-3.0666e-05,1.601,-5.9418e-05,-214.43,1.3791
23804,17.614,1,0.1,9.7212e-05,971.45,9.4698e-05,908.2,-2.5944e-05,1.7419,-4.1784e-05,-117.27,1.3913
23805,17.523,1.0909,0.1,0.00010539,1053.2,0.00010137,956.19,-2.5709e-05,1.3648,-4.8985e-05,-173.52,1.3788
23806,17.614,0.81818,0.1,8.2196e-05,821.39,8.0378e-05,774.98,-2.2542e-05,1.6878,-3.438e-05,-87.256,1.3909
23807,17.523,0.90909,0.1,8.7362e-05,873.02,8.442e-05,801.07,-2.2017e-05,1.3361,-3.9536e-05,-130.29,1.3784
23808,17.614,0.63636,0.1,6.9859e-05,698.11,6.8676e-05,667.27,-1.9887e-05,1.8459,-2.8047e-05,-59.471,1.3906
23809,17.523,0.72727,0.1,7.2265e-05,722.15,7.0337e-05,673.85,-1.9147e-05,1.5029,-3.1257e-05,-89.487,1.378
23810,17.614,0.45455,0.1,6.0379e-05,603.38,5.9653e-05,584.03,-1.7799e-05,2.0897,-2.3229e-05,-38.713,1.3902
23811,17.523,0.54545,0.1,5.9925e-05,598.84,5.8818e-05,570.27,-1.6813e-05,2.0032,-2.4408e-05,-55.057,1.3777
23812,17.614,0.27273,0.1,5.4426e-05,543.88,5.3863e-05,528.77,-1.6241e-05,2.043,-2.0609e-05,-30.775,1.3899
23813,17.523,0.36364,0.1,5.0677e-05,506.42,5.0084e-05,490.74,-1.4874e-05,2.6669,-1.952e-05,-32.238,1.3773
23814,17.523,0.18182,0.1,4.5844e-05,458.12,4.5298e-05,443.72,-1.3425e-05,2.5022,-1.7699e-05,-29.616,1.3769
23815,17.614,0.090909,0.1,4.9291e-05,492.57,4.9009e-05,484.66,-1.5476e-05,0.1368,-1.7569e-05,-15.59,1.3895
23816,17.432,5.7273,0.1,4.235e-05,423.21,4.1731e-05,407.27,-1.2027e-05,3.3534,-1.6852e-05,-32.895,1.3644
23817,17.34,5.8182,0.1,3.2515e-05,324.93,3.1916e-05,310.61,-8.5472e-06,6.5925,-1.3658e-05,-31.809,1.3514
23818,17.432,5.9091,0.1,3.5655e-05,356.3,3.5425e-05,349.89,-1.11e-05,0.32391,-1.2843e-05,-12.774,1.364
23819,17.432,5.5455,0.1,5.0978e-05,509.43,4.9889e-05,481.78,-1.3937e-05,2.2139,-2.1288e-05,-53.017,1.3647
23820,17.34,5.6364,0.1,4.1402e-05,413.73,4.032e-05,387.37,-1.0683e-05,4.1518,-1.8061e-05,-51.287,1.3518
23821,17.432,5.3636,0.1,6.3496e-05,634.52,6.1436e-05,584.04,-1.6105e-05,1.4276,-2.8543e-05,-92.028,1.3651
23822,17.34,5.4545,0.1,5.4652e-05,546.15,5.2365e-05,492.25,-1.2774e-05,2.8201,-2.6043e-05,-96.879,1.3522
23823,17.432,5.1818,0.1,7.8872e-05,788.17,7.5524e-05,708.53,-1.8635e-05,1.0515,-3.7544e-05,-141.02,1.3655
23824,17.34,5.2727,0.1,7.0453e-05,704.05,6.6529e-05,614.46,-1.4951e-05,2.2549,-3.5863e-05,-154.87,1.3526
23825,17.432,5,0.1,9.7222e-05,971.54,9.2386e-05,858.78,-2.1787e-05,0.92181,-4.8025e-05,-196.22,1.3659
23826,17.34,5.0909,0.1,8.8908e-05,888.47,8.302e-05,757.08,-1.7456e-05,2.1461,-4.7286e-05,-221.99,1.353
23827,17.432,4.8182,0.1,0.00011927,1191.9,0.00011287,1044.1,-2.5957e-05,0.99601,-6.0032e-05,-255.03,1.3663
23828,17.34,4.9091,0.1,0.00011082,1107.5,0.00010268,928.52,-2.0564e-05,2.4822,-6.0591e-05,-298.26,1.3534
23829,17.432,4.6364,0.1,0.00014599,1458.9,0.00013822,1279.4,-3.187e-05,1.4436,-7.3319e-05,-309.99,1.3667
23830,17.34,4.7273,0.1,0.00013772,1376.2,0.00012704,1143.2,-2.4779e-05,2.4651,-7.6392e-05,-385.34,1.3538
23831,17.432,4.4545,0.1,0.00017835,1782.3,0.00017005,1587,-4.0963e-05,1.4622,-8.6685e-05,-342.08,1.367
23832,17.34,4.5455,0.1,0.00017181,1716.9,0.00015856,1428.5,-3.0765e-05,5.9906,-9.5274e-05,-478.71,1.3542
23833,17.432,4.2727,0.1,0.00021704,2168.9,0.00020977,1990,-5.51e-05,-0.13345,-9.7916e-05,-321.84,1.3674
23834,17.34,4.3636,0.1,0.00021763,2174.8,0.0002018,1824.4,-4.1027e-05,-0.10929,-0.00011852,-582.33,1.3547
23835,17.432,4.0909,0.1,0.00025572,2555.5,0.00025141,2439.1,-7.5346e-05,-16.032,-0.00010064,-206.07,1.3678
23836,17.34,4.1818,0.1,0.00028343,2832.3,0.00026881,2502.2,-6.0114e-05,30.793,-0.00014254,-588.51,1.3551
23837,17.432,3.9091,0.1,0.00029028,2900.8,0.00028822,2841.7,-9.2991e-05,-22.611,-0.00010252,-94.227,1.3681
23838,17.34,4,0.1,0.00034424,3440,0.00033817,3300,-8.8789e-05,91.935,-0.0001453,-332.65,1.3555
23839,17.432,3.7273,0.1,0.00031203,3118.1,0.00031039,3071.7,-9.8692e-05,-1.9551,-0.00011028,-89.043,1.3684
23840,17.34,3.8182,0.1,0.00036505,3648,0.00036167,3555.5,-0.00011084,5.2547,-0.0001359,-183.07,1.3559
23841,17.432,3.5455,0.1,0.00031793,3177.1,0.00031559,3112.4,-9.8231e-05,3.1251,-0.00011573,-128.33,1.3687
23842,17.34,3.6364,0.1,0.0003599,3596.5,0.00035571,3483.9,-0.00010707,6.7243,-0.00013739,-221.1,1.3562
23843,17.432,3.3636,0.1,0.00031582,3156.1,0.00031282,3073.7,-9.6238e-05,0.17085,-0.00011741,-158.88,1.3689
23844,17.34,3.4545,0.1,0.00034495,3447.2,0.00034037,3323.9,-0.0001021,-0.63359,-0.00013316,-234.02,1.3564
23845,17.432,3.1818,0.1,0.00031235,3121.4,0.00030906,3031.6,-9.4419e-05,-0.015845,-0.00011736,-172.41,1.369
23846,17.34,3.2727,0.1,0.00033414,3339.1,0.00032942,3213,-9.8115e-05,0.6288,-0.00013013,-239.91,1.3566
23847,17.432,3,0.1,0.00031097,3107.6,0.00030759,3015.5,-9.3759e-05,-0.072256,-0.00011724,-176.52,1.369
23848,17.34,3.0909,0.1,0.00032864,3284.2,0.00032387,3156.8,-9.6268e-05,0.03162,-0.00012841,-241.47,1.3567
23849,17.432,2.8182,0.1,0.00031235,3121.4,0.00030906,3031.6,-9.4419e-05,-0.015844,-0.00011736,-172.41,1.369
23850,17.34,2.9091,0.1,0.00032864,3284.2,0.00032387,3156.8,-9.6268e-05,0.03162,-0.00012841,-241.47,1.3567
23851,17.432,2.6364,0.1,0.00031582,3156.1,0.00031282,3073.7,-9.6239e-05,0.17085,-0.00011741,-158.88,1.3689
23852,17.34,2.7273,0.1,0.00033414,3339.1,0.00032942,3213,-9.8115e-05,0.6288,-0.00013013,-239.91,1.3566
23853,17.432,2.4545,0.1,0.00031793,3177.1,0.00031559,3112.4,-9.8231e-05,3.1251,-0.00011573,-128.33,1.3687
23854,17.34,2.5455,0.1,0.00034495,3447.2,0.00034037,3323.9,-0.0001021,-0.63358,-0.00013316,-234.02,1.3564
23855,17.432,2.2727,0.1,0.00031203,3118.1,0.00031039,3071.7,-9.8692e-05,-1.9551,-0.00011028,-89.043,1.3684
23856,17.34,2.3636,0.1,0.0003599,3596.5,0.00035571,3483.9,-0.00010707,6.7243,-0.00013739,-221.1,1.3562
23857,17.432,2.0909,0.1,0.00029028,2900.8,0.00028822,2841.7,-9.2991e-05,-22.611,-0.00010252,-94.227,1.3681
23858,17.34,2.1818,0.1,0.00036505,3648,0.00036167,3555.5,-0.00011084,5.2547,-0.0001359,-183.06,1.3559
23859,17.432,1.9091,0.1,0.00025572,2555.5,0.00025142,2439.1,-7.5346e-05,-16.032,-0.00010064,-206.07,1.3678
23860,17.34,2,0.1,0.00034424,3440,0.00033817,3300,-8.8789e-05,91.935,-0.0001453,-332.65,1.3555
23861,17.432,1.7273,0.1,0.00021704,2168.9,0.00020977,1990,-5.51e-05,-0.13344,-9.7916e-05,-321.84,1.3674
23862,17.34,1.8182,0.1,0.00028343,2832.3,0.00026881,2502.2,-6.0114e-05,30.793,-0.00014254,-588.51,1.3551
23863,17.432,1.5455,0.1,0.00017835,1782.3,0.00017005,1587,-4.0963e-05,1.4622,-8.6685e-05,-342.08,1.367
23864,17.34,1.6364,0.1,0.00021763,2174.8,0.0002018,1824.4,-4.1027e-05,-0.10929,-0.00011852,-582.33,1.3547
23865,17.432,1.3636,0.1,0.00014599,1458.9,0.00013822,1279.4,-3.187e-05,1.4436,-7.3319e-05,-309.99,1.3667
23866,17.34,1.4545,0.1,0.00017181,1716.9,0.00015856,1428.5,-3.0765e-05,5.9906,-9.5274e-05,-478.71,1.3542
23867,17.432,1.1818,0.1,0.00011927,1191.9,0.00011287,1044.1,-2.5957e-05,0.99601,-6.0032e-05,-255.03,1.3663
23868,17.34,1.2727,0.1,0.00013772,1376.2,0.00012704,1143.2,-2.4779e-05,2.4652,-7.6392e-05,-385.34,1.3538
23869,17.432,1,0.1,9.7222e-05,971.54,9.2386e-05,858.78,-2.1787e-05,0.92181,-4.8025e-05,-196.22,1.3659
23870,17.34,1.0909,0.1,0.00011082,1107.5,0.00010268,928.52,-2.0564e-05,2.4822,-6.0591e-05,-298.26,1.3534
23871,17.432,0.81818,0.1,7.8872e-05,788.17,7.5524e-05,708.53,-1.8635e-05,1.0515,-3.7544e-05,-141.02,1.3655
23872,17.34,0.90909,0.1,8.8908e-05,888.47,8.3021e-05,757.08,-1.7456e-05,2.1461,-4.7286e-05,-221.99,1.353
23873,17.432,0.63636,0.1,6.3496e-05,634.52,6.1436e-05,584.04,-1.6105e-05,1.4276,-2.8543e-05,-92.028,1.3651
23874,17.34,0.72727,0.1,7.0453e-05,704.05,6.6529e-05,614.46,-1.4951e-05,2.2549,-3.5863e-05,-154.87,1.3526
23875,17.432,0.45455,0.1,5.0978e-05,509.43,4.9889e-05,481.78,-1.3937e-05,2.2139,-2.1288e-05,-53.017,1.3647
23876,17.34,0.54545,0.1,5.4652e-05,546.15,5.2365e-05,492.25,-1.2774e-05,2.8201,-2.6043e-05,-96.879,1.3522
23877,17.432,0.27273,0.1,4.235e-05,423.21,4.1731e-05,407.27,-1.2027e-05,3.3534,-1.6852e-05,-32.895,1.3644
23878,17.34,0.36364,0.1,4.1402e-05,413.73,4.032e-05,387.37,-1.0683e-05,4.1518,-1.8061e-05,-51.287,1.3518
23879,17.34,0.18182,0.1,3.2515e-05,324.93,3.1916e-05,310.61,-8.5472e-06,6.5925,-1.3658e-05,-31.809,1.3514
23880,17.432,0.090909,0.1,3.5655e-05,356.3,3.5425e-05,349.89,-1.11e-05,0.32391,-1.2843e-05,-12.774,1.364
23881,17.249,5.7273,0.1,3.2798e-05,327.75,3.1489e-05,298.1,-7.3453e-06,6.3199,-1.5709e-05,-56.521,1.3389
23882,17.158,5.8182,0.1,1.8859e-05,188.46,1.8518e-05,179.6,-5.3287e-06,0.426,-7.6406e-06,-16.945,1.3259
23883,17.249,5.9091,0.1,2.0775e-05,207.6,2.053e-05,201.83,-5.6661e-06,5.0018,-8.3402e-06,-15.091,1.3385
23884,17.249,5.5455,0.1,4.6977e-05,469.44,4.4287e-05,409.04,-9.6534e-06,3.7524,-2.4173e-05,-105.34,1.3393
23885,17.158,5.6364,0.1,3.1121e-05,311,2.9904e-05,281.31,-7.6859e-06,-1.1255,-1.4454e-05,-51.976,1.3263
23886,17.249,5.3636,0.1,6.365e-05,636.06,5.8989e-05,534.18,-1.1686e-05,3.16,-3.483e-05,-170.74,1.3397
23887,17.158,5.4545,0.1,4.4513e-05,444.83,4.1949e-05,385.85,-9.5008e-06,-0.72651,-2.2759e-05,-100.34,1.3267
23888,17.249,5.1818,0.1,8.2652e-05,825.95,7.5598e-05,674.84,-1.3814e-05,3.0278,-4.7135e-05,-247.33,1.3401
23889,17.158,5.2727,0.1,5.9125e-05,590.85,5.4894e-05,496.73,-1.1313e-05,-0.72462,-3.2026e-05,-156.36,1.3272
23890,17.249,5,0.1,0.00010494,1048.6,9.504e-05,839.77,-1.6268e-05,3.4421,-6.154e-05,-336.71,1.3405
23891,17.158,5.0909,0.1,7.5702e-05,756.5,6.9473e-05,620.94,-1.3282e-05,-0.84422,-4.2622e-05,-221.29,1.3276
23892,17.249,4.8182,0.1,0.00013221,1321.2,0.00011891,1043,-1.9419e-05,3.7061,-7.8971e-05,-443.74,1.3409
23893,17.158,4.9091,0.1,9.5357e-05,952.92,8.6704e-05,767.81,-1.5531e-05,-0.35126,-5.5219e-05,-298.55,1.3281
23894,17.249,4.6364,0.1,0.00016733,1672.2,0.00014997,1311.7,-2.3709e-05,6.7513,-0.00010091,-573.27,1.3414
23895,17.158,4.7273,0.1,0.00011991,1198.3,0.00010828,951.42,-1.8641e-05,-2.2183,-7.0737e-05,-393.65,1.3285
23896,17.249,4.4545,0.1,0.00021673,2165.8,0.00019408,1694.3,-3.087e-05,4.1057,-0.00013084,-747.05,1.3419
23897,17.158,4.5455,0.1,0.00015291,1528.1,0.00013719,1201,-2.1909e-05,5.5511,-9.1948e-05,-520.7,1.329
23898,17.249,4.2727,0.1,0.00028914,2889.4,0.00026403,2360.6,-4.6108e-05,30.316,-0.00016626,-872.45,1.3423
23899,17.158,4.3636,0.1,0.00019795,1978.1,0.00017859,1559.4,-3.2282e-05,-25.01,-0.00011648,-657.64,1.3296
23900,17.249,4.0909,0.1,0.00037145,3711.9,0.00035449,3354.9,-7.3583e-05,138.57,-0.00018609,-706.78,1.3428
23901,17.158,4.1818,0.1,0.00028649,2862.9,0.0002527,2218.2,-2.7804e-05,110.57,-0.00018109,-1041.2,1.3301
23902,17.249,3.9091,0.1,0.00041399,4137.1,0.0004075,3982.9,-0.00011032,92.179,-0.00017089,-362.95,1.3433
23903,17.158,4,0.1,0.00061632,6158.9,0.00060767,5970.9,-0.00015783,219.19,-0.00025717,-527.23,1.3307
23904,17.249,3.7273,0.1,0.00040956,4092.8,0.00040399,3945.2,-0.00011966,10.673,-0.00015959,-289.38,1.3437
23905,17.158,3.8182,0.1,0.00049872,4983.8,0.0004909,4777.5,-0.00014402,6.9699,-0.00019754,-395.15,1.3312
23906,17.249,3.5455,0.1,0.00038562,3853.5,0.00037926,3686.2,-0.00011095,2.9033,-0.0001536,-317.56,1.344
23907,17.158,3.6364,0.1,0.00043188,4315.8,0.00042334,4096.1,-0.00012027,11.668,-0.00017756,-418.77,1.3316
23908,17.249,3.3636,0.1,0.00036257,3623.2,0.0003563,3458.1,-0.000104,-0.31436,-0.0001452,-309.89,1.3442
23909,17.158,3.4545,0.1,0.00039016,3898.9,0.00038223,3692.9,-0.00010943,-1.2288,-0.00016021,-382.78,1.3319
23910,17.249,3.1818,0.1,0.00034989,3496.5,0.00034371,3334.3,-9.9973e-05,0.61776,-0.00014065,-305,1.3444
23911,17.158,3.2727,0.1,0.00036755,3673,0.00036005,3478.8,-0.00010276,1.4242,-0.00015122,-362.65,1.3321
23912,17.249,3,0.1,0.0003458,3455.6,0.00033965,3294.3,-9.8786e-05,0.073852,-0.00013908,-302.67,1.3444
23913,17.158,3.0909,0.1,0.00035743,3571.8,0.00035015,3383.1,-0.00010006,0.4459,-0.00014694,-351.76,1.3322
23914,17.249,2.8182,0.1,0.00034989,3496.5,0.00034371,3334.3,-9.9973e-05,0.61776,-0.00014065,-305,1.3444
23915,17.158,2.9091,0.1,0.00035743,3571.8,0.00035015,3383.1,-0.00010006,0.4459,-0.00014694,-351.76,1.3322
23916,17.249,2.6364,0.1,0.00036257,3623.2,0.0003563,3458.1,-0.000104,-0.31436,-0.0001452,-309.89,1.3442
23917,17.158,2.7273,0.1,0.00036755,3673,0.00036005,3478.8,-0.00010276,1.4242,-0.00015122,-362.65,1.3321
23918,17.249,2.4545,0.1,0.00038562,3853.5,0.00037926,3686.2,-0.00011095,2.9033,-0.0001536,-317.56,1.344
23919,17.158,2.5455,0.1,0.00039016,3898.9,0.00038223,3692.9,-0.00010943,-1.2288,-0.00016021,-382.78,1.3319
23920,17.249,2.2727,0.1,0.00040956,4092.8,0.00040399,3945.2,-0.00011966,10.673,-0.00015959,-289.38,1.3437
23921,17.158,2.3636,0.1,0.00043188,4315.8,0.00042334,4096.1,-0.00012027,11.668,-0.00017756,-418.77,1.3316
23922,17.249,2.0909,0.1,0.00041399,4137.1,0.0004075,3982.9,-0.00011032,92.179,-0.00017089,-362.95,1.3433
23923,17.158,2.1818,0.1,0.00049872,4983.8,0.0004909,4777.5,-0.00014402,6.97,-0.00019754,-395.15,1.3312
23924,17.249,1.9091,0.1,0.00037145,3711.9,0.00035449,3354.9,-7.3583e-05,138.57,-0.00018609,-706.78,1.3428
23925,17.158,2,0.1,0.00061632,6158.9,0.00060767,5970.9,-0.00015783,219.19,-0.00025717,-527.23,1.3307
23926,17.249,1.7273,0.1,0.00028914,2889.4,0.00026403,2360.6,-4.6108e-05,30.316,-0.00016626,-872.45,1.3423
23927,17.158,1.8182,0.1,0.00028649,2862.9,0.0002527,2218.2,-2.7804e-05,110.57,-0.00018109,-1041.2,1.3301
23928,17.249,1.5455,0.1,0.00021673,2165.8,0.00019408,1694.3,-3.087e-05,4.1057,-0.00013084,-747.05,1.3419
23929,17.158,1.6364,0.1,0.00019795,1978.1,0.00017859,1559.4,-3.2282e-05,-25.01,-0.00011648,-657.64,1.3296
23930,17.249,1.3636,0.1,0.00016733,1672.2,0.00014997,1311.7,-2.3709e-05,6.7513,-0.00010091,-573.27,1.3414
23931,17.158,1.4545,0.1,0.00015291,1528.1,0.00013719,1201,-2.1909e-05,5.5511,-9.1948e-05,-520.7,1.329
23932,17.249,1.1818,0.1,0.00013221,1321.2,0.00011891,1043,-1.9419e-05,3.7061,-7.8971e-05,-443.74,1.3409
23933,17.158,1.2727,0.1,0.00011991,1198.3,0.00010828,951.42,-1.8641e-05,-2.2183,-7.0737e-05,-393.65,1.3285
23934,17.249,1,0.1,0.00010494,1048.6,9.504e-05,839.77,-1.6268e-05,3.4421,-6.154e-05,-336.71,1.3405
23935,17.158,1.0909,0.1,9.5357e-05,952.92,8.6704e-05,767.81,-1.5531e-05,-0.35127,-5.5219e-05,-298.55,1.3281
23936,17.249,0.81818,0.1,8.2652e-05,825.95,7.5598e-05,674.84,-1.3814e-05,3.0278,-4.7135e-05,-247.33,1.3401
23937,17.158,0.90909,0.1,7.5702e-05,756.5,6.9473e-05,620.94,-1.3282e-05,-0.84422,-4.2622e-05,-221.29,1.3276
23938,17.249,0.63636,0.1,6.365e-05,636.06,5.8989e-05,534.18,-1.1686e-05,3.16,-3.483e-05,-170.74,1.3397
23939,17.158,0.72727,0.1,5.9125e-05,590.85,5.4894e-05,496.73,-1.1313e-05,-0.72462,-3.2026e-05,-156.36,1.3272
23940,17.249,0.45455,0.1,4.6977e-05,469.44,4.4287e-05,409.04,-9.6534e-06,3.7524,-2.4173e-05,-105.34,1.3393
23941,17.158,0.54545,0.1,4.4513e-05,444.83,4.1949e-05,385.85,-9.5008e-06,-0.72651,-2.2759e-05,-100.34,1.3267
23942,17.249,0.27273,0.1,3.2798e-05,327.75,3.1489e-05,298.1,-7.3453e-06,6.3199,-1.5709e-05,-56.521,1.3389
23943,17.158,0.36364,0.1,3.1121e-05,311,2.9904e-05,281.31,-7.6859e-06,-1.1255,-1.4454e-05,-51.976,1.3263
23944,17.158,0.18182,0.1,1.8859e-05,188.46,1.8518e-05,179.6,-5.3287e-06,0.426,-7.6406e-06,-16.945,1.3259
23945,17.249,0.090909,0.1,2.0775e-05,207.6,2.053e-05,201.83,-5.6661e-06,5.0018,-8.3402e-06,-15.091,1.3385
23946,0.1837,0.27273,0.1,0.00042584,4255.5,0.00041865,4171.9,-8.1663e-05,412.75,-0.00019625,-448.24,0.00011691
23947,0.27554,0.18182,0.1,0.00045425,4539.4,0.00045127,4456.4,-0.00014139,3.365,-0.00016375,-164.67,0.00020629
23948,0.091848,0.18182,0.1,0.0002711,2709.1,0.00028722,3190.9,-6.1354e-05,571.85,-8.4236e-05,399.92,2.6274e-05
23949,0.1837,0.090909,0.1,0.00038466,3843.9,0.00037918,3686.4,-0.00012322,-88.389,-0.00014114,-223.04,5.2503e-05
23950,0.1837,0.45455,0.1,0.00048815,4878.1,0.00047106,4829.1,-3.2505e-05,1045.6,-0.00026169,-676.47,0.00015522
23951,0.27554,0.36364,0.1,0.00046479,4644.7,0.00046561,4820.6,-7.6959e-05,743.92,-0.00020735,-235.81,0.00030021
23952,0.091848,0.36364,0.1,0.00034113,3408.9,0.00037592,4547.2,-2.1056e-05,1564.5,-0.00011863,831.38,4.3453e-05
23953,0.1837,0.63636,0.1,0.00054831,5479.3,0.00052522,5446,-1.5352e-05,1384.4,-0.00030422,-786.07,0.00017847
23954,0.27554,0.54545,0.1,0.00050098,5006.4,0.00049966,5311.8,-4.1572e-05,1245.2,-0.00024451,-279.65,0.00035929
23955,0.091848,0.54545,0.1,0.00039927,3990,0.00044174,5427.3,-8.9796e-06,2040.7,-0.00014367,1028.7,5.2901e-05
23956,0.1837,0.81818,0.1,0.00059407,5936.6,0.00056749,5912,-8.1765e-06,1586.7,-0.00033332,-856.33,0.00019387
23957,0.27554,0.72727,0.1,0.00053724,5368.7,0.00053348,5741.9,-2.3691e-05,1555.5,-0.00027209,-310.9,0.0003984
23958,0.091848,0.72727,0.1,0.00044091,4406.1,0.00048795,6019.3,-4.5248e-06,2319.1,-0.00016076,1145.2,5.8825e-05
23959,0.1837,1,0.1,0.00062836,6279.3,0.00059969,6261.9,-4.9112e-06,1719.2,-0.00035397,-903.57,0.00020475
23960,0.27554,0.90909,0.1,0.00056799,5676,0.00056267,6093.2,-1.4546e-05,1756.2,-0.00029232,-330.9,0.0004258
23961,0.091848,0.90909,0.1,0.00047084,4705.2,0.00052101,6435.8,-2.6478e-06,2501.2,-0.00017266,1223.8,6.2825e-05
23962,0.1837,1.1818,0.1,0.00065435,6539,0.00062427,6527.1,-3.1828e-06,1812.6,-0.00036926,-937.91,0.00021274
23963,0.27554,1.0909,0.1,0.00059288,5924.7,0.00058656,6372.6,-9.5008e-06,1894,-0.00030756,-345.48,0.00044581
23964,0.091848,1.0909,0.1,0.00049299,4926.5,0.00054541,6740.5,-1.6796e-06,2629.9,-0.00018137,1279.7,6.5689e-05
23965,0.1837,1.3636,0.1,0.00067434,6738.8,0.00064327,6731.2,-2.1901e-06,1881.5,-0.00038083,-963.49,0.00021878
23966,0.27554,1.2727,0.1,0.00061277,6123.5,0.0006058,6594.1,-6.5348e-06,1993.2,-0.00031922,-356.2,0.00046085
23967,0.091848,1.2727,0.1,0.00050974,5093.9,0.00056384,6969.7,-1.141e-06,2724.6,-0.00018792,1321.2,6.7816e-05
23968,0.1837,1.5455,0.1,0.00068989,6894.1,0.00065809,6890,-1.5775e-06,1933.5,-0.00038975,-983.01,0.00022342
23969,0.27554,1.4545,0.1,0.00062864,6282,0.00062124,6769.9,-4.6893e-06,2067,-0.00032828,-364.36,0.00047237
23970,0.091848,1.4545,0.1,0.00052263,5222.7,0.00057802,7145.4,-8.1314e-07,2796.2,-0.00019294,1352.7,6.9432e-05
23971,0.1837,1.7273,0.1,0.00070205,7015.7,0.00066971,7014.4,-1.181e-06,1973.6,-0.00039668,-998.08,0.00022702
23972,0.27554,1.6364,0.1,0.00064129,6408.5,0.00063359,6909.8,-3.4899e-06,2123.1,-0.00033538,-370.64,0.00048131
23973,0.091848,1.6364,0.1,0.00053266,5322.9,0.00058904,7281.7,-6.0329e-07,2851.3,-0.00019683,1376.9,7.0679e-05
23974,0.1837,1.9091,0.1,0.00071158,7110.9,0.00067882,7111.8,-9.1523e-07,2004.5,-0.00040209,-1009.8,0.00022982
23975,0.27554,1.8182,0.1,0.00065135,6509,0.00064344,7020.9,-2.684e-06,2166.1,-0.00034096,-375.51,0.00048827
23976,0.091848,1.8182,0.1,0.0005405,5401.2,0.00059765,7388,-4.6342e-07,2894,-0.00019987,1395.8,7.1646e-05
23977,0.1837,2.0909,0.1,0.00071898,7184.9,0.00068591,7187.5,-7.3328e-07,2028.4,-0.00040628,-1018.8,0.00023199
23978,0.27554,2,0.1,0.0006593,6588.5,0.00065124,7108.5,-2.1301e-06,2199.4,-0.00034533,-379.28,0.0004937
23979,0.091848,2,0.1,0.00054661,5462.3,0.00060435,7470.7,-3.6777e-07,2927.1,-0.00020223,1410.3,7.2396e-05
23980,0.1837,2.2727,0.1,0.00072463,7241.3,0.00069132,7245.3,-6.0783e-07,2046.4,-0.00040947,-1025.6,0.00023364
23981,0.27554,2.1818,0.1,0.00066549,6650.3,0.00065731,7176.6,-1.7453e-06,2224.7,-0.0003487,-382.18,0.00049787
23982,0.091848,2.1818,0.1,0.00055131,5509.3,0.00060952,7534.4,-3.015e-07,2952.4,-0.00020405,1421.5,7.2972e-05
23983,0.1837,2.4545,0.1,0.0007288,7282.9,0.00069531,7287.9,-5.2247e-07,2059.7,-0.00041182,-1030.6,0.00023485
23984,0.27554,2.3636,0.1,0.00067017,6697.1,0.00066191,7228.2,-1.4791e-06,2243.7,-0.00035125,-384.35,0.000501
23985,0.091848,2.3636,0.1,0.00055485,5544.6,0.0006134,7582.2,-2.5573e-07,2971.4,-0.00020542,1429.9,7.3404e-05
23986,0.1837,2.6364,0.1,0.00073165,7311.5,0.00069805,7317.2,-4.6723e-07,2068.8,-0.00041342,-1034,0.00023568
23987,0.27554,2.5455,0.1,0.00067354,6730.7,0.00066522,7265.2,-1.3004e-06,2257.2,-0.00035307,-385.89,0.00050324
23988,0.091848,2.5455,0.1,0.00055737,5569.9,0.00061617,7616.3,-2.2505e-07,2985,-0.0002064,1435.9,7.3711e-05
23989,0.1837,2.8182,0.1,0.00073332,7328.1,0.00069965,7334.2,-4.3617e-07,2074.1,-0.00041436,-1036,0.00023616
23990,0.27554,2.7273,0.1,0.00067571,6752.4,0.00066737,7289.1,-1.1904e-06,2265.8,-0.00035425,-386.89,0.00050468
23991,0.091848,2.7273,0.1,0.000559,5586.1,0.00061795,7638.3,-2.0615e-07,2993.7,-0.00020703,1439.7,7.3909e-05
23992,0.1837,3,0.1,0.00073387,7333.6,0.00070018,7339.9,-4.2615e-07,2075.8,-0.00041467,-1036.7,0.00023632
23993,0.27554,2.9091,0.1,0.00067678,6763.1,0.00066842,7300.9,-1.1379e-06,2270.1,-0.00035482,-387.37,0.00050538
23994,0.091848,2.9091,0.1,0.0005598,5594.1,0.00061883,7649.1,-1.9713e-07,2997.9,-0.00020734,1441.6,7.4006e-05
23995,0.1837,3.1818,0.1,0.00073332,7328.1,0.00069965,7334.2,-4.3617e-07,2074.1,-0.00041436,-1036,0.00023616
23996,0.27554,3.0909,0.1,0.00067678,6763.1,0.00066842,7300.9,-1.1379e-06,2270.1,-0.00035482,-387.37,0.00050538
23997,0.091848,3.0909,0.1,0.0005598,5594.1,0.00061883,7649.1,-1.9713e-07,2997.9,-0.00020734,1441.6,7.4006e-05
23998,0.1837,3.3636,0.1,0.00073165,7311.5,0.00069805,7317.2,-4.6723e-07,2068.8,-0.00041342,-1034,0.00023568
23999,0.27554,3.2727,0.1,0.00067571,6752.4,0.00066737,7289.1,-1.1904e-06,2265.8,-0.00035425,-386.89,0.00050468
24000,0.091848,3.2727,0.1,0.000559,5586.1,0.00061795,7638.3,-2.0615e-07,2993.7,-0.00020703,1439.7,7.3909e-05
24001,0.1837,3.5455,0.1,0.0007288,7282.9,0.00069531,7287.9,-5.2247e-07,2059.7,-0.00041182,-1030.6,0.00023485
24002,0.27554,3.4545,0.1,0.00067354,6730.7,0.00066522,7265.2,-1.3004e-06,2257.2,-0.00035307,-385.89,0.00050324
24003,0.091848,3.4545,0.1,0.00055737,5569.9,0.00061617,7616.3,-2.2505e-07,2985,-0.0002064,1435.9,7.3711e-05
24004,0.1837,3.7273,0.1,0.00072463,7241.3,0.00069132,7245.3,-6.0783e-07,2046.4,-0.00040947,-1025.6,0.00023364
24005,0.27554,3.6364,0.1,0.00067017,6697.1,0.00066191,7228.2,-1.4791e-06,2243.7,-0.00035125,-384.35,0.000501
24006,0.091848,3.6364,0.1,0.00055485,5544.6,0.0006134,7582.2,-2.5573e-07,2971.4,-0.00020542,1429.9,7.3404e-05
24007,0.1837,3.9091,0.1,0.00071898,7184.9,0.00068591,7187.5,-7.3328e-07,2028.4,-0.00040628,-1018.8,0.00023199
24008,0.27554,3.8182,0.1,0.00066549,6650.3,0.00065731,7176.6,-1.7453e-06,2224.7,-0.0003487,-382.18,0.00049787
24009,0.091848,3.8182,0.1,0.00055131,5509.3,0.00060952,7534.4,-3.015e-07,2952.4,-0.00020405,1421.5,7.2972e-05
24010,0.1837,4.0909,0.1,0.00071158,7110.9,0.00067882,7111.8,-9.1523e-07,2004.5,-0.00040209,-1009.8,0.00022982
24011,0.27554,4,0.1,0.0006593,6588.5,0.00065124,7108.5,-2.1301e-06,2199.4,-0.00034533,-379.28,0.0004937
24012,0.091848,4,0.1,0.00054661,5462.3,0.00060435,7470.7,-3.6777e-07,2927.1,-0.00020223,1410.3,7.2396e-05
24013,0.1837,4.2727,0.1,0.00070205,7015.7,0.00066971,7014.4,-1.181e-06,1973.6,-0.00039668,-998.08,0.00022702
24014,0.27554,4.1818,0.1,0.00065135,6509,0.00064344,7020.9,-2.684e-06,2166.1,-0.00034096,-375.51,0.00048827
24015,0.091848,4.1818,0.1,0.0005405,5401.2,0.00059765,7388,-4.6342e-07,2894,-0.00019987,1395.8,7.1646e-05
24016,0.1837,4.4545,0.1,0.00068989,6894.1,0.00065809,6890,-1.5775e-06,1933.5,-0.00038975,-983.01,0.00022342
24017,0.27554,4.3636,0.1,0.00064129,6408.5,0.00063359,6909.8,-3.4899e-06,2123.1,-0.00033538,-370.64,0.00048131
24018,0.091848,4.3636,0.1,0.00053266,5322.9,0.00058904,7281.7,-6.0329e-07,2851.3,-0.00019683,1376.9,7.0679e-05
24019,0.1837,4.6364,0.1,0.00067434,6738.8,0.00064327,6731.2,-2.1901e-06,1881.5,-0.00038083,-963.49,0.00021878
24020,0.27554,4.5455,0.1,0.00062864,6282,0.00062124,6769.9,-4.6893e-06,2067,-0.00032828,-364.36,0.00047237
24021,0.091848,4.5455,0.1,0.00052263,5222.7,0.00057802,7145.4,-8.1314e-07,2796.2,-0.00019294,1352.7,6.9432e-05
24022,0.1837,4.8182,0.1,0.00065435,6539,0.00062427,6527.1,-3.1828e-06,1812.6,-0.00036926,-937.91,0.00021274
24023,0.27554,4.7273,0.1,0.00061277,6123.5,0.0006058,6594.1,-6.5348e-06,1993.2,-0.00031922,-356.2,0.00046085
24024,0.091848,4.7273,0.1,0.00050974,5093.9,0.00056384,6969.7,-1.141e-06,2724.6,-0.00018792,1321.2,6.7816e-05
24025,0.1837,5,0.1,0.00062836,6279.3,0.00059969,6261.9,-4.9112e-06,1719.2,-0.00035397,-903.57,0.00020475
24026,0.27554,4.9091,0.1,0.00059288,5924.7,0.00058656,6372.6,-9.5007e-06,1894,-0.00030756,-345.48,0.00044581
24027,0.091848,4.9091,0.1,0.00049299,4926.5,0.00054541,6740.5,-1.6796e-06,2629.9,-0.00018137,1279.7,6.5689e-05
24028,0.1837,5.1818,0.1,0.00059407,5936.6,0.00056749,5912,-8.1765e-06,1586.6,-0.00033332,-856.33,0.00019387
24029,0.27554,5.0909,0.1,0.00056799,5676,0.00056267,6093.2,-1.4546e-05,1756.2,-0.00029232,-330.9,0.0004258
24030,0.091848,5.0909,0.1,0.00047084,4705.2,0.00052101,6435.8,-2.6478e-06,2501.2,-0.00017266,1223.8,6.2825e-05
24031,0.1837,5.3636,0.1,0.00054831,5479.3,0.00052522,5446,-1.5352e-05,1384.4,-0.00030422,-786.07,0.00017847
24032,0.27554,5.2727,0.1,0.00053724,5368.7,0.00053348,5741.9,-2.3691e-05,1555.5,-0.00027209,-310.9,0.0003984
24033,0.091848,5.2727,0.1,0.00044091,4406.1,0.00048795,6019.3,-4.5248e-06,2319.1,-0.00016076,1145.2,5.8825e-05
24034,0.1837,5.5455,0.1,0.00048815,4878.1,0.00047106,4829.1,-3.2505e-05,1045.6,-0.00026169,-676.47,0.00015522
24035,0.27554,5.4545,0.1,0.00050098,5006.4,0.00049966,5311.8,-4.1572e-05,1245.2,-0.00024451,-279.65,0.00035929
24036,0.091848,5.4545,0.1,0.00039927,3990,0.00044174,5427.3,-8.9796e-06,2040.7,-0.00014367,1028.7,5.2901e-05
24037,0.1837,5.7273,0.1,0.00042584,4255.5,0.00041865,4171.9,-8.1663e-05,412.75,-0.00019625,-448.24,0.00011691
24038,0.27554,5.6364,0.1,0.00046479,4644.7,0.00046561,4820.6,-7.6959e-05,743.92,-0.00020735,-235.81,0.00030021
24039,0.091848,5.6364,0.1,0.00034113,3408.9,0.00037592,4547.2,-2.1056e-05,1564.5,-0.00011863,831.38,4.3453e-05
24040,0.27554,5.8182,0.1,0.00045425,4539.4,0.00045127,4456.4,-0.00014139,3.3648,-0.00016375,-164.67,0.00020629
24041,0.091848,5.8182,0.1,0.0002711,2709.1,0.00028722,3190.9,-6.1354e-05,571.85,-8.4236e-05,399.92,2.6274e-05
24042,0.1837,5.9091,0.1,0.00038466,3843.9,0.00037918,3686.4,-0.00012322,-88.389,-0.00014114,-223.04,5.2503e-05
24043,0.36739,0.27273,0.1,0.00048982,4894.8,0.00049622,5089.9,-0.00014035,306.99,-0.00016917,90.445,0.00046986
24044,0.45924,0.18182,0.1,0.00053056,5302,0.0005295,5273.4,-0.00016681,41.539,-0.00018513,-96.058,0.0006496
24045,0.36739,0.090909,0.1,0.00049309,4927.5,0.00049106,4871.2,-0.00015412,23.646,-0.0001749,-132.51,0.00029417
24046,0.36739,0.45455,0.1,0.00048019,4798.5,0.00049418,5303,-8.6086e-05,943.09,-0.00019008,161.73,0.00058745
24047,0.45924,0.36364,0.1,0.0005067,5063.5,0.0005149,5338.8,-0.00012415,537.29,-0.00018916,48.847,0.00084653
24048,0.36739,0.63636,0.1,0.00049294,4926,0.00050888,5614.9,-5.0875e-05,1409,-0.00021238,195.58,0.0006669
24049,0.45924,0.54545,0.1,0.00050631,5059.6,0.00051809,5543,-8.1096e-05,1041,-0.00021069,67.312,0.00098454
24050,0.36739,0.81818,0.1,0.00051349,5131.3,0.00052956,5929.7,-3.0947e-05,1718.3,-0.0002311,214.51,0.00072263
24051,0.45924,0.72727,0.1,0.00051801,5176.6,0.00053025,5789.3,-5.2642e-05,1409.7,-0.00023007,76.556,0.0010827
24052,0.36739,1,0.1,0.00053422,5338.6,0.00055016,6208.5,-1.9752e-05,1926.4,-0.0002459,227.16,0.0007632
24053,0.45924,0.90909,0.1,0.00053401,5336.4,0.0005458,6032.2,-3.4881e-05,1669.3,-0.00024608,82.389,0.0011545
24054,0.36739,1.1818,0.1,0.00055262,5522.3,0.00056849,6442.5,-1.325e-05,2071.6,-0.00025752,236.21,0.00079357
24055,0.45924,1.0909,0.1,0.00055026,5498.8,0.00056153,6251.4,-2.3873e-05,1852.9,-0.00025898,86.429,0.0012082
24056,0.36739,1.3636,0.1,0.00056814,5677.5,0.00058402,6634.7,-9.2848e-06,2176.8,-0.00026667,242.91,0.0008168
24057,0.45924,1.2727,0.1,0.00056507,5646.8,0.00057594,6440.3,-1.6898e-05,1985.9,-0.00026931,89.362,0.0012493
24058,0.36739,1.5455,0.1,0.00058097,5805.7,0.0005969,6790.9,-6.759e-06,2255.3,-0.00027391,248,0.0008348
24059,0.45924,1.4545,0.1,0.0005779,5775,0.00058851,6599.1,-1.235e-05,2084.5,-0.0002776,91.567,0.0012811
24060,0.36739,1.7273,0.1,0.00059142,5910.2,0.00060742,6917.1,-5.0908e-06,2314.9,-0.00027966,251.92,0.00084885
24061,0.45924,1.6364,0.1,0.00058873,5883.3,0.00059917,6730.8,-9.3024e-06,2159,-0.00028423,93.255,0.001306
24062,0.36739,1.9091,0.1,0.00059985,5994.4,0.00061592,7018.1,-3.9588e-06,2360.5,-0.0002842,254.94,0.00085984
24063,0.45924,1.8182,0.1,0.00059769,5972.8,0.00060802,6838.5,-7.2121e-06,2215.8,-0.00028954,94.558,0.0013256
24064,0.36739,2.0909,0.1,0.00060655,6061.3,0.00062268,7097.9,-3.1775e-06,2395.5,-0.00028775,257.28,0.00086838
24065,0.45924,2,0.1,0.00060498,6045.6,0.00061524,6925.3,-5.7552e-06,2259.4,-0.00029374,95.566,0.0013409
24066,0.36739,2.2727,0.1,0.00061174,6113.2,0.00062793,7159.6,-2.636e-06,2421.8,-0.00029048,259.04,0.00087489
24067,0.45924,2.1818,0.1,0.00061077,6103.5,0.000621,6994,-4.733e-06,2292.5,-0.00029703,96.336,0.0013527
24068,0.36739,2.4545,0.1,0.00061561,6151.8,0.00063184,7205.5,-2.2663e-06,2441.1,-0.0002925,260.34,0.00087968
24069,0.45924,2.3636,0.1,0.00061522,6148,0.00062542,7046.6,-4.0212e-06,2317.2,-0.00029952,96.912,0.0013616
24070,0.36739,2.6364,0.1,0.00061828,6178.6,0.00063454,7237.1,-2.0266e-06,2454.2,-0.0002939,261.22,0.00088297
24071,0.45924,2.5455,0.1,0.00061845,6180.3,0.00062865,7084.7,-3.5415e-06,2334.7,-0.00030131,97.322,0.0013679
24072,0.36739,2.8182,0.1,0.00061985,6194.3,0.00063613,7255.7,-1.8917e-06,2461.9,-0.00029471,261.74,0.00088488
24073,0.45924,2.7273,0.1,0.00062056,6201.3,0.00063075,7109.5,-3.2449e-06,2345.9,-0.00030248,97.586,0.001372
24074,0.36739,3,0.1,0.00062037,6199.4,0.00063666,7261.8,-1.8482e-06,2464.4,-0.00029498,261.9,0.00088552
24075,0.45924,2.9091,0.1,0.0006216,6211.7,0.00063178,7121.7,-3.1032e-06,2351.4,-0.00030305,97.715,0.001374
24076,0.36739,3.1818,0.1,0.00061985,6194.3,0.00063613,7255.7,-1.8917e-06,2461.9,-0.00029471,261.74,0.00088488
24077,0.45924,3.0909,0.1,0.0006216,6211.7,0.00063178,7121.7,-3.1032e-06,2351.4,-0.00030305,97.715,0.001374
24078,0.36739,3.3636,0.1,0.00061828,6178.6,0.00063454,7237.1,-2.0266e-06,2454.2,-0.0002939,261.22,0.00088297
24079,0.45924,3.2727,0.1,0.00062056,6201.3,0.00063075,7109.5,-3.2449e-06,2345.9,-0.00030248,97.586,0.001372
24080,0.36739,3.5455,0.1,0.00061561,6151.8,0.00063184,7205.5,-2.2663e-06,2441.1,-0.0002925,260.34,0.00087968
24081,0.45924,3.4545,0.1,0.00061845,6180.3,0.00062865,7084.7,-3.5415e-06,2334.7,-0.00030131,97.322,0.0013679
24082,0.36739,3.7273,0.1,0.00061174,6113.2,0.00062793,7159.6,-2.636e-06,2421.8,-0.00029048,259.04,0.00087489
24083,0.45924,3.6364,0.1,0.00061522,6148,0.00062542,7046.6,-4.0212e-06,2317.2,-0.00029952,96.912,0.0013616
24084,0.36739,3.9091,0.1,0.00060655,6061.3,0.00062268,7097.9,-3.1775e-06,2395.5,-0.00028775,257.28,0.00086838
24085,0.45924,3.8182,0.1,0.00061077,6103.5,0.000621,6994,-4.733e-06,2292.5,-0.00029703,96.336,0.0013527
24086,0.36739,4.0909,0.1,0.00059985,5994.4,0.00061592,7018.1,-3.9588e-06,2360.5,-0.0002842,254.94,0.00085984
24087,0.45924,4,0.1,0.00060498,6045.6,0.00061524,6925.3,-5.7552e-06,2259.4,-0.00029374,95.566,0.0013409
24088,0.36739,4.2727,0.1,0.00059142,5910.2,0.00060742,6917.1,-5.0908e-06,2314.9,-0.00027966,251.92,0.00084885
24089,0.45924,4.1818,0.1,0.00059769,5972.8,0.00060802,6838.5,-7.2121e-06,2215.8,-0.00028954,94.558,0.0013256
24090,0.36739,4.4545,0.1,0.00058097,5805.7,0.0005969,6790.9,-6.759e-06,2255.3,-0.00027391,248,0.0008348
24091,0.45924,4.3636,0.1,0.00058873,5883.3,0.00059917,6730.8,-9.3024e-06,2159,-0.00028423,93.255,0.001306
24092,0.36739,4.6364,0.1,0.00056814,5677.5,0.00058402,6634.7,-9.2848e-06,2176.8,-0.00026667,242.91,0.0008168
24093,0.45924,4.5455,0.1,0.0005779,5775,0.00058851,6599.1,-1.235e-05,2084.5,-0.0002776,91.567,0.0012811
24094,0.36739,4.8182,0.1,0.00055262,5522.3,0.00056849,6442.5,-1.325e-05,2071.6,-0.00025752,236.21,0.00079357
24095,0.45924,4.7273,0.1,0.00056507,5646.8,0.00057594,6440.3,-1.6898e-05,1985.9,-0.00026931,89.362,0.0012493
24096,0.36739,5,0.1,0.00053422,5338.6,0.00055016,6208.5,-1.9752e-05,1926.4,-0.0002459,227.16,0.0007632
24097,0.45924,4.9091,0.1,0.00055026,5498.8,0.00056153,6251.4,-2.3873e-05,1852.9,-0.00025898,86.429,0.0012082
24098,0.36739,5.1818,0.1,0.00051349,5131.3,0.00052956,5929.7,-3.0947e-05,1718.3,-0.0002311,214.51,0.00072263
24099,0.45924,5.0909,0.1,0.00053401,5336.4,0.0005458,6032.2,-3.4881e-05,1669.3,-0.00024608,82.389,0.0011545
24100,0.36739,5.3636,0.1,0.00049294,4926,0.00050888,5614.9,-5.0875e-05,1409,-0.00021238,195.58,0.0006669
24101,0.45924,5.2727,0.1,0.00051801,5176.6,0.00053025,5789.3,-5.2642e-05,1409.7,-0.00023007,76.556,0.0010827
24102,0.36739,5.5455,0.1,0.00048019,4798.5,0.00049418,5303,-8.6086e-05,943.09,-0.00019008,161.73,0.00058745
24103,0.45924,5.4545,0.1,0.00050631,5059.6,0.00051809,5543,-8.1096e-05,1041,-0.00021069,67.312,0.00098454
24104,0.36739,5.7273,0.1,0.00048982,4894.8,0.00049622,5089.9,-0.00014035,306.99,-0.00016917,90.445,0.00046986
24105,0.45924,5.6364,0.1,0.0005067,5063.5,0.0005149,5338.8,-0.00012415,537.29,-0.00018916,48.847,0.00084653
24106,0.45924,5.8182,0.1,0.00053056,5302,0.0005295,5273.4,-0.00016681,41.539,-0.00018513,-96.058,0.0006496
24107,0.36739,5.9091,0.1,0.00049309,4927.5,0.00049106,4871.2,-0.00015412,23.646,-0.0001749,-132.51,0.00029417
24108,0.55109,0.27273,0.1,0.00054594,5455.7,0.00054797,5520.7,-0.00016422,169.57,-0.00019129,-33.792,0.0011241
24109,0.64293,0.18182,0.1,0.00057082,5704.3,0.00056945,5665.1,-0.00018321,9.8892,-0.00019612,-87.143,0.0014139
24110,0.55109,0.090909,0.1,0.00054755,5471.8,0.0005455,5412.7,-0.00017609,-9.0366,-0.00018922,-107.65,0.00083194
24111,0.55109,0.45455,0.1,0.00053149,5311.3,0.00053829,5575,-0.00011878,638.09,-0.00020964,-44.583,0.0013378
24112,0.64293,0.36364,0.1,0.00054774,5473.6,0.00055278,5642.4,-0.00014811,376.13,-0.00020049,-17.393,0.0017172
24113,0.55109,0.63636,0.1,0.0005307,5303.4,0.00053903,5714.3,-8.2472e-05,1044.6,-0.00022835,-51.492,0.0014936
24114,0.64293,0.54545,0.1,0.00053845,5380.8,0.00054695,5718.4,-0.00010964,785.06,-0.00021669,-19.311,0.001945
24115,0.55109,0.81818,0.1,0.00053833,5379.5,0.00054635,5890.7,-5.6447e-05,1361.6,-0.00024504,-55.488,0.0016087
24116,0.64293,0.72727,0.1,0.0005383,5379.2,0.00054785,5841.4,-7.8944e-05,1131.9,-0.00023235,-20.734,0.0021163
24117,0.55109,1,0.1,0.00055004,5496.6,0.00055719,6075.3,-3.9034e-05,1595.5,-0.00025915,-58.32,0.0016954
24118,0.64293,0.90909,0.1,0.00054425,5438.7,0.00055355,5987.7,-5.6579e-05,1403.4,-0.00024625,-21.73,0.0022465
24119,0.55109,1.1818,0.1,0.00056277,5623.8,0.00056906,6249.7,-2.7604e-05,1766.6,-0.00027077,-60.411,0.0017618
24120,0.64293,1.0909,0.1,0.00055323,5528.5,0.00056184,6138.1,-4.0952e-05,1608.9,-0.00025808,-22.529,0.0023468
24121,0.55109,1.3636,0.1,0.00057489,5745,0.00058051,6405.3,-2.0046e-05,1893,-0.00028024,-61.98,0.0018133
24122,0.64293,1.2727,0.1,0.00056312,5627.3,0.00057102,6280.6,-3.0164e-05,1763.5,-0.00026795,-23.136,0.0024249
24123,0.55109,1.5455,0.1,0.00058573,5853.2,0.00059085,6539.5,-1.496e-05,1987.7,-0.00028791,-63.178,0.0018537
24124,0.64293,1.4545,0.1,0.00057272,5723.3,0.00058003,6409,-2.2685e-05,1880.5,-0.00027611,-23.606,0.0024863
24125,0.55109,1.7273,0.1,0.00059505,5946.4,0.00059982,6652.5,-1.1471e-05,2059.6,-0.00029411,-64.104,0.0018855
24126,0.64293,1.6364,0.1,0.00058146,5810.6,0.0005883,6521,-1.7448e-05,1969.7,-0.00028278,-23.97,0.0025348
24127,0.55109,1.9091,0.1,0.00060286,6024.4,0.00060738,6746,-9.0396e-06,2114.4,-0.00029908,-64.822,0.0019105
24128,0.64293,1.8182,0.1,0.00058908,5886.8,0.00059557,6616.2,-1.374e-05,2038,-0.00028821,-24.253,0.0025732
24129,0.55109,2.0909,0.1,0.00060923,6088.1,0.00061358,6821.6,-7.3291e-06,2156.3,-0.00030302,-65.375,0.0019301
24130,0.64293,2,0.1,0.00059551,5951,0.00060175,6695.2,-1.1096e-05,2090.4,-0.00029257,-24.473,0.0026034
24131,0.55109,2.2727,0.1,0.00061428,6138.6,0.0006185,6881,-6.1273e-06,2187.8,-0.00030606,-65.795,0.001945
24132,0.64293,2.1818,0.1,0.00060077,6003.5,0.00060683,6758.9,-9.2089e-06,2130.3,-0.00029601,-24.641,0.0026269
24133,0.55109,2.4545,0.1,0.00061809,6176.7,0.00062224,6925.8,-5.2989e-06,2210.7,-0.00030833,-66.103,0.0019561
24134,0.64293,2.3636,0.1,0.00060489,6044.7,0.00061082,6808.6,-7.8788e-06,2159.9,-0.00029864,-24.767,0.0026446
24135,0.55109,2.6364,0.1,0.00062076,6203.3,0.00062485,6957,-4.7581e-06,2226.4,-0.0003099,-66.313,0.0019636
24136,0.64293,2.5455,0.1,0.00060793,6075.1,0.00061377,6844.9,-6.9745e-06,2180.9,-0.00030055,-24.856,0.0026573
24137,0.55109,2.8182,0.1,0.00062233,6219,0.00062639,6975.4,-4.4525e-06,2235.5,-0.00031081,-66.436,0.0019681
24138,0.64293,2.7273,0.1,0.00060992,6095,0.00061571,6868.8,-6.4124e-06,2194.4,-0.00030178,-24.914,0.0026655
24139,0.55109,3,0.1,0.00062285,6224.2,0.0006269,6981.4,-4.3536e-06,2238.4,-0.00031112,-66.476,0.0019695
24140,0.64293,2.9091,0.1,0.00061091,6104.9,0.00061668,6880.6,-6.1429e-06,2201,-0.00030239,-24.942,0.0026696
24141,0.55109,3.1818,0.1,0.00062233,6219,0.00062639,6975.4,-4.4525e-06,2235.5,-0.00031081,-66.436,0.0019681
24142,0.64293,3.0909,0.1,0.00061091,6104.9,0.00061668,6880.6,-6.1429e-06,2201,-0.00030239,-24.942,0.0026696
24143,0.55109,3.3636,0.1,0.00062076,6203.3,0.00062485,6957,-4.7581e-06,2226.4,-0.0003099,-66.313,0.0019636
24144,0.64293,3.2727,0.1,0.00060992,6095,0.00061571,6868.8,-6.4124e-06,2194.4,-0.00030178,-24.914,0.0026655
24145,0.55109,3.5455,0.1,0.00061809,6176.7,0.00062224,6925.8,-5.2989e-06,2210.7,-0.00030833,-66.103,0.0019561
24146,0.64293,3.4545,0.1,0.00060793,6075.1,0.00061377,6844.9,-6.9745e-06,2180.9,-0.00030055,-24.856,0.0026573
24147,0.55109,3.7273,0.1,0.00061428,6138.6,0.0006185,6881,-6.1273e-06,2187.8,-0.00030606,-65.795,0.001945
24148,0.64293,3.6364,0.1,0.00060489,6044.7,0.00061082,6808.6,-7.8788e-06,2159.9,-0.00029864,-24.767,0.0026446
24149,0.55109,3.9091,0.1,0.00060923,6088.1,0.00061358,6821.6,-7.3291e-06,2156.3,-0.00030302,-65.375,0.0019301
24150,0.64293,3.8182,0.1,0.00060077,6003.5,0.00060683,6758.9,-9.2089e-06,2130.3,-0.00029601,-24.641,0.0026269
24151,0.55109,4.0909,0.1,0.00060286,6024.4,0.00060738,6746,-9.0396e-06,2114.4,-0.00029908,-64.822,0.0019105
24152,0.64293,4,0.1,0.00059551,5951,0.00060175,6695.2,-1.1096e-05,2090.4,-0.00029257,-24.473,0.0026034
24153,0.55109,4.2727,0.1,0.00059505,5946.4,0.00059982,6652.5,-1.1471e-05,2059.6,-0.00029411,-64.104,0.0018855
24154,0.64293,4.1818,0.1,0.00058908,5886.8,0.00059557,6616.2,-1.374e-05,2038,-0.00028821,-24.253,0.0025732
24155,0.55109,4.4545,0.1,0.00058573,5853.2,0.00059085,6539.5,-1.496e-05,1987.7,-0.00028791,-63.178,0.0018537
24156,0.64293,4.3636,0.1,0.00058146,5810.6,0.0005883,6521,-1.7448e-05,1969.7,-0.00028278,-23.97,0.0025348
24157,0.55109,4.6364,0.1,0.00057489,5745,0.00058051,6405.3,-2.0046e-05,1893,-0.00028024,-61.98,0.0018133
24158,0.64293,4.5455,0.1,0.00057272,5723.3,0.00058003,6409,-2.2685e-05,1880.5,-0.00027611,-23.606,0.0024863
24159,0.55109,4.8182,0.1,0.00056277,5623.8,0.00056906,6249.7,-2.7604e-05,1766.6,-0.00027077,-60.411,0.0017618
24160,0.64293,4.7273,0.1,0.00056312,5627.3,0.00057102,6280.6,-3.0164e-05,1763.5,-0.00026795,-23.136,0.0024249
24161,0.55109,5,0.1,0.00055004,5496.6,0.00055719,6075.3,-3.9034e-05,1595.5,-0.00025915,-58.32,0.0016954
24162,0.64293,4.9091,0.1,0.00055323,5528.5,0.00056184,6138.1,-4.0952e-05,1608.9,-0.00025808,-22.529,0.0023468
24163,0.55109,5.1818,0.1,0.00053833,5379.5,0.00054635,5890.7,-5.6447e-05,1361.6,-0.00024504,-55.488,0.0016087
24164,0.64293,5.0909,0.1,0.00054425,5438.7,0.00055355,5987.7,-5.6579e-05,1403.4,-0.00024625,-21.73,0.0022465
24165,0.55109,5.3636,0.1,0.0005307,5303.4,0.00053903,5714.3,-8.2472e-05,1044.6,-0.00022835,-51.492,0.0014936
24166,0.64293,5.2727,0.1,0.0005383,5379.2,0.00054785,5841.4,-7.8944e-05,1131.9,-0.00023235,-20.734,0.0021163
24167,0.55109,5.5455,0.1,0.00053149,5311.3,0.00053829,5575,-0.00011878,638.09,-0.00020964,-44.583,0.0013378
24168,0.64293,5.4545,0.1,0.00053845,5380.8,0.00054695,5718.4,-0.00010964,785.06,-0.00021669,-19.311,0.001945
24169,0.55109,5.7273,0.1,0.00054594,5455.7,0.00054797,5520.7,-0.00016422,169.57,-0.00019129,-33.792,0.0011241
24170,0.64293,5.6364,0.1,0.00054774,5473.6,0.00055278,5642.4,-0.00014811,376.13,-0.00020049,-17.393,0.0017172
24171,0.64293,5.8182,0.1,0.00057082,5704.3,0.00056945,5665.1,-0.00018321,9.8891,-0.00019612,-87.143,0.0014139
24172,0.55109,5.9091,0.1,0.00054755,5471.8,0.0005455,5412.7,-0.00017609,-9.0366,-0.00018922,-107.65,0.00083194
24173,0.73478,0.27273,0.1,0.00057193,5715.3,0.00057427,5786.8,-0.00017646,146.09,-0.00019596,-0.40696,0.0021164
24174,0.82663,0.18182,0.1,0.00059112,5907.1,0.00059031,5884,-0.00019062,16.421,-0.00020103,-61.751,0.0025323
24175,0.73478,0.090909,0.1,0.00057619,5758,0.00057494,5721.8,-0.0001864,1.4283,-0.0001963,-72.976,0.0017131
24176,0.73478,0.45455,0.1,0.00055408,5537,0.00056133,5784.9,-0.00013894,523.39,-0.00020747,8.4449,0.0024285
24177,0.82663,0.36364,0.1,0.00056892,5685.3,0.00057359,5835.1,-0.00016149,311.9,-0.00020295,0.40699,0.0029382
24178,0.73478,0.63636,0.1,0.0005456,5452.2,0.00055552,5843.7,-0.00010589,874.1,-0.00022068,11.595,0.0026683
24179,0.82663,0.54545,0.1,0.00055613,5557.5,0.00056441,5855.6,-0.00012851,649.24,-0.00021447,3.3332,0.0032573
24180,0.73478,0.81818,0.1,0.00054403,5436.5,0.00055484,5936.7,-7.887e-05,1175.3,-0.00023355,13.083,0.0028531
24181,0.82663,0.72727,0.1,0.00054966,5492.8,0.00055978,5911.6,-9.9451e-05,958.41,-0.00022645,4.2056,0.0035073
24182,0.73478,1,0.1,0.00054742,5470.4,0.00055809,6049.5,-5.8382e-05,1417.6,-0.00024517,14.086,0.0029966
24183,0.82663,0.90909,0.1,0.00054859,5482.1,0.00055922,5992.8,-7.5902e-05,1220.7,-0.00023773,4.8294,0.0037037
24184,0.73478,1.1818,0.1,0.00055364,5532.6,0.00056376,6168.6,-4.3471e-05,1606.1,-0.00025527,14.757,0.003109
24185,0.82663,1.0909,0.1,0.00055131,5509.3,0.00056171,6087.9,-5.7813e-05,1433,-0.00024784,5.1944,0.0038588
24186,0.73478,1.3636,0.1,0.00056103,5606.4,0.00057053,6284.3,-3.2802e-05,1751,-0.00026382,15.243,0.0031978
24187,0.82663,1.2727,0.1,0.00055622,5558.4,0.00056609,6187,-4.4317e-05,1600.6,-0.00025662,5.4456,0.0039819
24188,0.73478,1.5455,0.1,0.00056853,5681.4,0.00057749,6390.6,-2.5187e-05,1862.4,-0.00027098,15.605,0.0032683
24189,0.82663,1.4545,0.1,0.00056208,5616.9,0.00057137,6283,-3.4376e-05,1731.7,-0.00026411,5.6225,0.0040802
24190,0.73478,1.7273,0.1,0.00057556,5751.6,0.00058407,6484.8,-1.9733e-05,1948,-0.00027688,15.882,0.0033244
24191,0.82663,1.6364,0.1,0.00056809,5677,0.00057685,6371.6,-2.708e-05,1833.9,-0.00027039,5.7549,0.0041588
24192,0.73478,1.9091,0.1,0.00058178,5813.8,0.00058996,6565.4,-1.5809e-05,2013.9,-0.0002817,16.097,0.0033688
24193,0.82663,1.8182,0.1,0.00057375,5733.6,0.00058207,6450,-2.1729e-05,1913.3,-0.0002756,5.8561,0.0042214
24194,0.73478,2.0909,0.1,0.00058708,5866.8,0.00059501,6632.6,-1.2982e-05,2064.4,-0.00028557,16.262,0.0034036
24195,0.82663,2,0.1,0.0005788,5784,0.00058678,6517.3,-1.7808e-05,1974.7,-0.00027984,5.9344,0.0042711
24196,0.73478,2.2727,0.1,0.0005914,5910,0.00059914,6686.5,-1.0961e-05,2102.4,-0.00028859,16.388,0.0034304
24197,0.82663,2.1818,0.1,0.00058309,5826.9,0.0005908,6573.1,-1.4952e-05,2021.7,-0.00028322,5.9945,0.0043098
24198,0.73478,2.4545,0.1,0.00059474,5943.3,0.00060235,6727.7,-9.5504e-06,2130.1,-0.00029086,16.48,0.0034503
24199,0.82663,2.3636,0.1,0.00058654,5861.4,0.00059406,6617.2,-1.2909e-05,2056.7,-0.00028583,6.0396,0.0043392
24200,0.73478,2.6364,0.1,0.0005971,5966.9,0.00060462,6756.7,-8.6215e-06,2149,-0.00029244,16.543,0.003464
24201,0.82663,2.5455,0.1,0.00058914,5887.3,0.00059652,6650,-1.1504e-05,2081.6,-0.00028773,6.0719,0.0043604
24202,0.73478,2.8182,0.1,0.00059851,5981,0.00060599,6773.9,-8.0936e-06,2160,-0.00029336,16.58,0.003472
24203,0.82663,2.7273,0.1,0.00059087,5904.6,0.00059817,6671.7,-1.0625e-05,2097.5,-0.00028898,6.0927,0.0043741
24204,0.73478,3,0.1,0.00059898,5985.7,0.00060644,6779.7,-7.9224e-06,2163.6,-0.00029367,16.592,0.0034746
24205,0.82663,2.9091,0.1,0.00059173,5913.2,0.00059899,6682.5,-1.0202e-05,2105.3,-0.00028959,6.1029,0.0043808
24206,0.73478,3.1818,0.1,0.00059851,5981,0.00060599,6773.9,-8.0936e-06,2160,-0.00029336,16.58,0.003472
24207,0.82663,3.0909,0.1,0.00059173,5913.2,0.00059899,6682.5,-1.0202e-05,2105.3,-0.00028959,6.1029,0.0043808
24208,0.73478,3.3636,0.1,0.0005971,5966.9,0.00060462,6756.7,-8.6215e-06,2149,-0.00029244,16.543,0.003464
24209,0.82663,3.2727,0.1,0.00059087,5904.6,0.00059817,6671.7,-1.0625e-05,2097.5,-0.00028898,6.0927,0.0043741
24210,0.73478,3.5455,0.1,0.00059474,5943.3,0.00060235,6727.7,-9.5504e-06,2130.1,-0.00029086,16.48,0.0034503
24211,0.82663,3.4545,0.1,0.00058914,5887.3,0.00059652,6650,-1.1504e-05,2081.6,-0.00028773,6.0719,0.0043604
24212,0.73478,3.7273,0.1,0.0005914,5910,0.00059914,6686.5,-1.0961e-05,2102.4,-0.00028859,16.388,0.0034304
24213,0.82663,3.6364,0.1,0.00058654,5861.4,0.00059406,6617.2,-1.2909e-05,2056.7,-0.00028583,6.0396,0.0043392
24214,0.73478,3.9091,0.1,0.00058708,5866.8,0.00059501,6632.6,-1.2982e-05,2064.4,-0.00028557,16.262,0.0034036
24215,0.82663,3.8182,0.1,0.00058309,5826.9,0.0005908,6573.1,-1.4952e-05,2021.7,-0.00028322,5.9945,0.0043098
24216,0.73478,4.0909,0.1,0.00058178,5813.8,0.00058996,6565.4,-1.5809e-05,2013.9,-0.0002817,16.097,0.0033688
24217,0.82663,4,0.1,0.0005788,5784,0.00058678,6517.3,-1.7808e-05,1974.7,-0.00027984,5.9344,0.0042711
24218,0.73478,4.2727,0.1,0.00057556,5751.6,0.00058407,6484.8,-1.9733e-05,1948,-0.00027688,15.882,0.0033244
24219,0.82663,4.1818,0.1,0.00057375,5733.6,0.00058207,6450,-2.1729e-05,1913.3,-0.0002756,5.8561,0.0042214
24220,0.73478,4.4545,0.1,0.00056853,5681.4,0.00057749,6390.6,-2.5187e-05,1862.4,-0.00027098,15.605,0.0032683
24221,0.82663,4.3636,0.1,0.00056809,5677,0.00057685,6371.6,-2.708e-05,1833.9,-0.00027039,5.7549,0.0041587
24222,0.73478,4.6364,0.1,0.00056103,5606.4,0.00057053,6284.3,-3.2802e-05,1751,-0.00026382,15.243,0.0031978
24223,0.82663,4.5455,0.1,0.00056208,5616.9,0.00057137,6283,-3.4376e-05,1731.7,-0.00026411,5.6225,0.0040802
24224,0.73478,4.8182,0.1,0.00055364,5532.6,0.00056376,6168.6,-4.3471e-05,1606.1,-0.00025527,14.757,0.003109
24225,0.82663,4.7273,0.1,0.00055622,5558.4,0.00056609,6187,-4.4317e-05,1600.6,-0.00025662,5.4456,0.0039819
24226,0.73478,5,0.1,0.00054742,5470.4,0.00055809,6049.5,-5.8382e-05,1417.6,-0.00024517,14.086,0.0029966
24227,0.82663,4.9091,0.1,0.00055131,5509.3,0.00056171,6087.9,-5.7813e-05,1433,-0.00024784,5.1944,0.0038587
24228,0.73478,5.1818,0.1,0.00054403,5436.5,0.00055484,5936.7,-7.887e-05,1175.3,-0.00023355,13.083,0.0028531
24229,0.82663,5.0909,0.1,0.00054859,5482.1,0.00055922,5992.8,-7.5902e-05,1220.7,-0.00023773,4.8294,0.0037037
24230,0.73478,5.3636,0.1,0.0005456,5452.2,0.00055552,5843.7,-0.00010589,874.1,-0.00022068,11.595,0.0026683
24231,0.82663,5.2727,0.1,0.00054966,5492.8,0.00055978,5911.6,-9.9451e-05,958.41,-0.00022645,4.2056,0.0035073
24232,0.73478,5.5455,0.1,0.00055408,5537,0.00056133,5784.9,-0.00013894,523.39,-0.00020747,8.4449,0.0024285
24233,0.82663,5.4545,0.1,0.00055613,5557.5,0.00056441,5855.6,-0.00012851,649.24,-0.00021447,3.3332,0.0032573
24234,0.73478,5.7273,0.1,0.00057193,5715.3,0.00057427,5786.8,-0.00017646,146.09,-0.00019596,-0.40696,0.0021164
24235,0.82663,5.6364,0.1,0.00056892,5685.3,0.00057359,5835.1,-0.00016149,311.9,-0.00020295,0.40698,0.0029382
24236,0.82663,5.8182,0.1,0.00059112,5907.1,0.00059031,5884,-0.00019062,16.421,-0.00020103,-61.751,0.0025323
24237,0.73478,5.9091,0.1,0.00057619,5758,0.00057494,5721.8,-0.0001864,1.4283,-0.0001963,-72.976,0.0017131
24238,0.91848,0.27273,0.1,0.00058777,5873.6,0.0005897,5932.8,-0.00018289,127.85,-0.00020085,-7.0742,0.0034706
24239,1.0103,0.18182,0.1,0.00060186,6014.4,0.00060137,6000.4,-0.00019512,15.921,-0.00020303,-43.56,0.0040241
24240,0.91848,0.090909,0.1,0.00059239,5919.8,0.00059147,5893.3,-0.00019301,-1.0268,-0.00019975,-51.718,0.0029635
24241,0.91848,0.45455,0.1,0.00057063,5702.3,0.00057671,5905.9,-0.00015115,437.09,-0.00020989,-4.2585,0.0038779
24242,1.0103,0.36364,0.1,0.00058184,5814.4,0.00058589,5942.9,-0.00016913,269.93,-0.00020549,-3.3131,0.0045265
24243,0.91848,0.63636,0.1,0.00055983,5594.4,0.00056859,5922.9,-0.000122,734.08,-0.00022023,-3.9462,0.0042026
24244,1.0103,0.54545,0.1,0.00056856,5681.6,0.00057588,5936.3,-0.00014074,551.89,-0.00021446,-2.001,0.0049341
24245,0.91848,0.81818,0.1,0.00055394,5535.6,0.00056402,5966.6,-9.6344e-05,1004.9,-0.00023062,-4.0008,0.0044612
24246,1.0103,0.72727,0.1,0.00055951,5591.2,0.00056888,5955.4,-0.0001144,821.42,-0.00022397,-1.861,0.0052633
24247,0.91848,1,0.1,0.00055231,5519.3,0.00056271,6030.1,-7.5198e-05,1237.1,-0.00024039,-4.0394,0.0046673
24248,1.0103,0.90909,0.1,0.00055458,5542,0.00056491,5995.4,-9.1555e-05,1063,-0.00023326,-1.7246,0.0055288
24249,0.91848,1.1818,0.1,0.0005538,5534.2,0.00056394,6105.5,-5.8559e-05,1428.3,-0.0002492,-4.1055,0.0048323
24250,1.0103,1.0909,0.1,0.00055313,5527.5,0.00056362,6050.6,-7.2751e-05,1269.1,-0.00024189,-1.6868,0.0057431
24251,0.91848,1.3636,0.1,0.00055723,5568.5,0.00056685,6185.3,-4.5826e-05,1581.8,-0.00025691,-4.1682,0.0049647
24252,1.0103,1.2727,0.1,0.00055419,5538,0.00056439,6114.5,-5.7814e-05,1439.5,-0.00024962,-1.6747,0.0059163
24253,0.91848,1.5455,0.1,0.00056162,5612.4,0.00057068,6263.7,-3.623e-05,1703.6,-0.00026352,-4.2239,0.0050712
24254,1.0103,1.4545,0.1,0.0005568,5564.1,0.00056652,6181.4,-4.6205e-05,1577.6,-0.00025639,-1.6786,0.0060565
24255,0.91848,1.7273,0.1,0.00056629,5659,0.00057483,6336.7,-2.9053e-05,1799.4,-0.0002691,-4.2693,0.0051567
24256,1.0103,1.6364,0.1,0.00056021,5598.2,0.00056942,6246.8,-3.7303e-05,1688.1,-0.0002622,-1.6868,0.0061698
24257,0.91848,1.9091,0.1,0.00057077,5703.8,0.00057888,6401.8,-2.3712e-05,1874.2,-0.00027373,-4.3052,0.005225
24258,1.0103,1.8182,0.1,0.00056386,5634.7,0.00057259,6307.4,-3.0538e-05,1775.7,-0.0002671,-1.6953,0.0062611
24259,0.91848,2.0909,0.1,0.00057481,5744.1,0.00058256,6457.7,-1.9765e-05,1932.1,-0.00027749,-4.3327,0.0052789
24260,1.0103,2,0.1,0.00056739,5670,0.00057572,6361.3,-2.5439e-05,1844.5,-0.00027115,-1.7025,0.0063338
24261,0.91848,2.2727,0.1,0.00057822,5778.3,0.00058571,6503.7,-1.6887e-05,1976,-0.00028046,-4.3533,0.0053206
24262,1.0103,2.1818,0.1,0.00057056,5701.7,0.00057856,6407.2,-2.1645e-05,1897.5,-0.00027441,-1.7081,0.0063909
24263,0.91848,2.4545,0.1,0.00058094,5805.4,0.00058823,6539.5,-1.4849e-05,2008.2,-0.0002827,-4.3682,0.0053516
24264,1.0103,2.3636,0.1,0.00057321,5728.1,0.00058095,6444.3,-1.8884e-05,1937.3,-0.00027696,-1.7122,0.0064344
24265,0.91848,2.6364,0.1,0.0005829,5824.9,0.00059005,6565,-1.3493e-05,2030.2,-0.00028427,-4.3782,0.005373
24266,1.0103,2.5455,0.1,0.00057525,5748.6,0.00058282,6472.3,-1.6964e-05,1965.8,-0.00027882,-1.715,0.0064658
24267,0.91848,2.8182,0.1,0.00058408,5836.8,0.00059116,6580.2,-1.2717e-05,2042.9,-0.0002852,-4.384,0.0053855
24268,1.0103,2.7273,0.1,0.00057664,5762.4,0.00058408,6491,-1.5751e-05,1984.1,-0.00028004,-1.7167,0.0064862
24269,0.91848,3,0.1,0.00058447,5840.7,0.00059153,6585.3,-1.2464e-05,2047.1,-0.00028551,-4.3859,0.0053897
24270,1.0103,2.9091,0.1,0.00057734,5769.4,0.00058473,6500.3,-1.5165e-05,1993,-0.00028065,-1.7175,0.0064962
24271,0.91848,3.1818,0.1,0.00058408,5836.8,0.00059116,6580.2,-1.2717e-05,2042.9,-0.0002852,-4.384,0.0053855
24272,1.0103,3.0909,0.1,0.00057734,5769.4,0.00058473,6500.3,-1.5165e-05,1993,-0.00028065,-1.7175,0.0064962
24273,0.91848,3.3636,0.1,0.0005829,5824.9,0.00059005,6565,-1.3493e-05,2030.2,-0.00028427,-4.3782,0.005373
24274,1.0103,3.2727,0.1,0.00057664,5762.4,0.00058408,6491,-1.5751e-05,1984.1,-0.00028004,-1.7167,0.0064862
24275,0.91848,3.5455,0.1,0.00058094,5805.4,0.00058823,6539.5,-1.4849e-05,2008.2,-0.0002827,-4.3682,0.0053516
24276,1.0103,3.4545,0.1,0.00057525,5748.6,0.00058282,6472.3,-1.6964e-05,1965.8,-0.00027882,-1.715,0.0064658
24277,0.91848,3.7273,0.1,0.00057822,5778.3,0.00058571,6503.7,-1.6887e-05,1976,-0.00028046,-4.3533,0.0053206
24278,1.0103,3.6364,0.1,0.00057321,5728.1,0.00058095,6444.3,-1.8884e-05,1937.3,-0.00027696,-1.7122,0.0064344
24279,0.91848,3.9091,0.1,0.00057481,5744.1,0.00058256,6457.7,-1.9765e-05,1932.1,-0.00027749,-4.3327,0.0052789
24280,1.0103,3.8182,0.1,0.00057056,5701.7,0.00057856,6407.2,-2.1645e-05,1897.5,-0.00027441,-1.7081,0.0063909
24281,0.91848,4.0909,0.1,0.00057077,5703.8,0.00057888,6401.8,-2.3712e-05,1874.2,-0.00027373,-4.3052,0.005225
24282,1.0103,4,0.1,0.00056739,5670,0.00057572,6361.3,-2.5439e-05,1844.5,-0.00027115,-1.7025,0.0063338
24283,0.91848,4.2727,0.1,0.00056629,5659,0.00057483,6336.7,-2.9053e-05,1799.4,-0.0002691,-4.2693,0.0051567
24284,1.0103,4.1818,0.1,0.00056386,5634.7,0.00057259,6307.4,-3.0538e-05,1775.7,-0.0002671,-1.6953,0.0062611
24285,0.91848,4.4545,0.1,0.00056162,5612.4,0.00057068,6263.7,-3.623e-05,1703.6,-0.00026352,-4.2239,0.0050712
24286,1.0103,4.3636,0.1,0.00056021,5598.2,0.00056942,6246.8,-3.7303e-05,1688.1,-0.0002622,-1.6868,0.0061698
24287,0.91848,4.6364,0.1,0.00055723,5568.5,0.00056685,6185.3,-4.5826e-05,1581.8,-0.00025691,-4.1682,0.0049647
24288,1.0103,4.5455,0.1,0.0005568,5564.1,0.00056652,6181.4,-4.6205e-05,1577.6,-0.00025639,-1.6786,0.0060565
24289,0.91848,4.8182,0.1,0.0005538,5534.2,0.00056394,6105.5,-5.8559e-05,1428.3,-0.0002492,-4.1055,0.0048323
24290,1.0103,4.7273,0.1,0.00055419,5538,0.00056439,6114.5,-5.7814e-05,1439.5,-0.00024962,-1.6747,0.0059163
24291,0.91848,5,0.1,0.00055231,5519.3,0.00056271,6030.1,-7.5198e-05,1237.1,-0.00024039,-4.0394,0.0046673
24292,1.0103,4.9091,0.1,0.00055313,5527.5,0.00056362,6050.6,-7.2751e-05,1269.1,-0.00024189,-1.6868,0.0057431
24293,0.91848,5.1818,0.1,0.00055394,5535.6,0.00056402,5966.6,-9.6344e-05,1004.9,-0.00023062,-4.0008,0.0044612
24294,1.0103,5.0909,0.1,0.00055458,5542,0.00056491,5995.4,-9.1555e-05,1063,-0.00023326,-1.7246,0.0055288
24295,0.91848,5.3636,0.1,0.00055983,5594.4,0.00056859,5922.9,-0.000122,734.08,-0.00022023,-3.9462,0.0042026
24296,1.0103,5.2727,0.1,0.00055951,5591.2,0.00056888,5955.4,-0.0001144,821.42,-0.00022397,-1.861,0.0052633
24297,0.91848,5.5455,0.1,0.00057063,5702.3,0.00057671,5905.9,-0.00015115,437.09,-0.00020989,-4.2585,0.0038779
24298,1.0103,5.4545,0.1,0.00056856,5681.6,0.00057588,5936.3,-0.00014074,551.89,-0.00021446,-2.001,0.0049341
24299,0.91848,5.7273,0.1,0.00058777,5873.6,0.0005897,5932.8,-0.00018289,127.85,-0.00020085,-7.0742,0.0034706
24300,1.0103,5.6364,0.1,0.00058184,5814.4,0.00058589,5942.9,-0.00016913,269.93,-0.00020549,-3.3131,0.0045265
24301,1.0103,5.8182,0.1,0.00060186,6014.4,0.00060137,6000.4,-0.00019512,15.921,-0.00020303,-43.56,0.0040241
24302,0.91848,5.9091,0.1,0.00059239,5919.8,0.00059147,5893.3,-0.00019301,-1.0268,-0.00019975,-51.718,0.0029635
24303,1.1022,0.27273,0.1,0.00059572,5953.1,0.00059762,6010.9,-0.00018619,121.68,-0.00020292,-3.9946,0.0052011
24304,1.194,0.18182,0.1,0.00060653,6061.1,0.00060635,6056.1,-0.00019714,19.006,-0.00020349,-28.701,0.0059012
24305,1.1022,0.090909,0.1,0.00060081,6003.9,0.00060022,5986.8,-0.00019658,-0.003017,-0.0002011,-33.986,0.0045984
24306,1.1022,0.45455,0.1,0.00057957,5791.7,0.00058513,5973.7,-0.00015882,383.94,-0.00021002,-0.71968,0.0056983
24307,1.194,0.36364,0.1,0.00058843,5880.3,0.00059217,5997.6,-0.00017356,244.18,-0.00020631,-1.8894,0.006493
24308,1.1022,0.63636,0.1,0.000568,5676.1,0.00057617,5968.7,-0.00013314,639.21,-0.0002182,0.16609,0.0061056
24309,1.194,0.54545,0.1,0.00057544,5750.4,0.00058215,5977.5,-0.0001488,485.43,-0.00021347,-0.45226,0.0069846
24310,1.1022,0.81818,0.1,0.00055993,5595.5,0.0005697,5983.6,-0.00010955,880,-0.00022661,0.45083,0.006438
24311,1.194,0.72727,0.1,0.0005654,5650.1,0.00057419,5975.8,-0.00012519,720.97,-0.00022117,-0.19408,0.0073908
24312,1.1022,1,0.1,0.00055524,5548.6,0.00056572,6015.1,-8.9015e-05,1095.7,-0.00023475,0.64676,0.006709
24313,1.194,0.90909,0.1,0.00055841,5580.2,0.00056843,5990.4,-0.0001038,939.55,-0.00022884,0.024912,0.0077253
24314,1.1022,1.1818,0.1,0.00055341,5530.3,0.00056398,6058.9,-7.1913e-05,1281,-0.00024231,0.75455,0.0069298
24315,1.194,1.0909,0.1,0.0005543,5539.2,0.00056482,6018.4,-8.5325e-05,1133.4,-0.00023616,0.13135,0.0080003
24316,1.1022,1.3636,0.1,0.00055369,5533.1,0.00056398,6110,-5.8113e-05,1435.8,-0.0002491,0.8211,0.0071097
24317,1.194,1.2727,0.1,0.00055257,5521.9,0.00056308,6055.9,-6.9925e-05,1299.8,-0.00024288,0.19675,0.0082261
24318,1.1022,1.5455,0.1,0.00055535,5549.6,0.0005652,6164,-4.7217e-05,1562.6,-0.00025507,0.86219,0.0072562
24319,1.194,1.4545,0.1,0.00055257,5521.9,0.0005628,6099.1,-5.7417e-05,1439,-0.0002489,0.23291,0.0084111
24320,1.1022,1.7273,0.1,0.00055777,5573.8,0.00056714,6217.2,-3.8741e-05,1664.8,-0.0002602,0.88955,0.007375
24321,1.194,1.6364,0.1,0.00055371,5533.3,0.00056353,6144.1,-4.7449e-05,1553.5,-0.00025417,0.25433,0.0085624
24322,1.1022,1.9091,0.1,0.00056048,5600.9,0.0005694,6266.7,-3.2229e-05,1746.2,-0.00026452,0.90882,0.0074706
24323,1.194,1.8182,0.1,0.00055548,5551,0.00056487,6188.1,-3.9623e-05,1646.2,-0.00025868,0.26742,0.0086852
24324,1.1022,2.0909,0.1,0.00056314,5627.5,0.00057169,6310.5,-2.729e-05,1810.1,-0.00026807,0.92304,0.0075466
24325,1.194,2,0.1,0.00055751,5571.3,0.00056649,6228.7,-3.3565e-05,1720.2,-0.00026247,0.27603,0.0087839
24326,1.1022,2.2727,0.1,0.00056554,5651.5,0.00057377,6347.6,-2.3617e-05,1859,-0.00027091,0.9337,0.0076056
24327,1.194,2.1818,0.1,0.00055952,5591.3,0.00056814,6264.3,-2.8959e-05,1777.9,-0.00026555,0.28201,0.0088617
24328,1.1022,2.4545,0.1,0.00056752,5671.3,0.00057552,6376.9,-2.0976e-05,1895.1,-0.00027307,0.94156,0.0076497
24329,1.194,2.3636,0.1,0.0005613,5609.1,0.00056964,6293.8,-2.5551e-05,1821.7,-0.00026797,0.28631,0.0089213
24330,1.1022,2.6364,0.1,0.00056899,5686,0.00057682,6398.1,-1.9199e-05,1919.8,-0.00027459,0.94699,0.0076801
24331,1.194,2.5455,0.1,0.00056273,5623.4,0.00057087,6316.4,-2.315e-05,1853.2,-0.00026975,0.28934,0.0089644
24332,1.1022,2.8182,0.1,0.00056989,5695,0.00057763,6410.9,-1.8176e-05,1934.3,-0.00027549,0.9502,0.0076981
24333,1.194,2.7273,0.1,0.00056373,5633.4,0.00057172,6331.6,-2.1622e-05,1873.5,-0.00027093,0.2913,0.0089925
24334,1.1022,3,0.1,0.0005702,5698,0.0005779,6415.2,-1.7842e-05,1939,-0.00027579,0.95126,0.007704
24335,1.194,2.9091,0.1,0.00056424,5638.5,0.00057217,6339.3,-2.0878e-05,1883.4,-0.00027151,0.29226,0.0090063
24336,1.1022,3.1818,0.1,0.00056989,5695,0.00057763,6410.9,-1.8176e-05,1934.3,-0.00027549,0.9502,0.0076981
24337,1.194,3.0909,0.1,0.00056424,5638.5,0.00057217,6339.3,-2.0878e-05,1883.4,-0.00027151,0.29226,0.0090063
24338,1.1022,3.3636,0.1,0.00056899,5686,0.00057682,6398.1,-1.9199e-05,1919.8,-0.00027459,0.94699,0.0076801
24339,1.194,3.2727,0.1,0.00056373,5633.4,0.00057172,6331.6,-2.1622e-05,1873.5,-0.00027093,0.2913,0.0089925
24340,1.1022,3.5455,0.1,0.00056752,5671.3,0.00057552,6376.9,-2.0976e-05,1895.1,-0.00027307,0.94156,0.0076497
24341,1.194,3.4545,0.1,0.00056273,5623.4,0.00057087,6316.4,-2.315e-05,1853.2,-0.00026975,0.28934,0.0089644
24342,1.1022,3.7273,0.1,0.00056554,5651.5,0.00057377,6347.6,-2.3617e-05,1859,-0.00027091,0.9337,0.0076056
24343,1.194,3.6364,0.1,0.0005613,5609.1,0.00056964,6293.8,-2.5551e-05,1821.7,-0.00026797,0.28631,0.0089213
24344,1.1022,3.9091,0.1,0.00056314,5627.5,0.00057169,6310.5,-2.729e-05,1810.1,-0.00026807,0.92304,0.0075466
24345,1.194,3.8182,0.1,0.00055952,5591.3,0.00056814,6264.3,-2.8959e-05,1777.9,-0.00026555,0.28201,0.0088617
24346,1.1022,4.0909,0.1,0.00056048,5600.9,0.0005694,6266.7,-3.2229e-05,1746.2,-0.00026452,0.90882,0.0074706
24347,1.194,4,0.1,0.00055751,5571.3,0.00056649,6228.7,-3.3565e-05,1720.2,-0.00026247,0.27603,0.0087839
24348,1.1022,4.2727,0.1,0.00055777,5573.8,0.00056714,6217.2,-3.8741e-05,1664.8,-0.0002602,0.88955,0.007375
24349,1.194,4.1818,0.1,0.00055548,5551,0.00056487,6188.1,-3.9623e-05,1646.2,-0.00025868,0.26742,0.0086852
24350,1.1022,4.4545,0.1,0.00055535,5549.6,0.0005652,6164,-4.7217e-05,1562.6,-0.00025507,0.86219,0.0072562
24351,1.194,4.3636,0.1,0.00055371,5533.3,0.00056353,6144.1,-4.7449e-05,1553.5,-0.00025417,0.25433,0.0085624
24352,1.1022,4.6364,0.1,0.00055369,5533.1,0.00056398,6110,-5.8113e-05,1435.8,-0.0002491,0.8211,0.0071097
24353,1.194,4.5455,0.1,0.00055257,5521.9,0.0005628,6099.1,-5.7417e-05,1439,-0.0002489,0.23291,0.0084111
24354,1.1022,4.8182,0.1,0.00055341,5530.3,0.00056398,6058.9,-7.1913e-05,1281,-0.00024231,0.75455,0.0069298
24355,1.194,4.7273,0.1,0.00055257,5521.9,0.00056308,6055.9,-6.9925e-05,1299.8,-0.00024288,0.19675,0.0082261
24356,1.1022,5,0.1,0.00055524,5548.6,0.00056572,6015.1,-8.9015e-05,1095.7,-0.00023475,0.64676,0.006709
24357,1.194,4.9091,0.1,0.0005543,5539.2,0.00056482,6018.4,-8.5325e-05,1133.4,-0.00023616,0.13135,0.0080003
24358,1.1022,5.1818,0.1,0.00055993,5595.5,0.0005697,5983.6,-0.00010955,880,-0.00022661,0.45083,0.006438
24359,1.194,5.0909,0.1,0.00055841,5580.2,0.00056843,5990.4,-0.0001038,939.55,-0.00022884,0.024913,0.0077253
24360,1.1022,5.3636,0.1,0.000568,5676.1,0.00057617,5968.7,-0.00013314,639.21,-0.0002182,0.16609,0.0061056
24361,1.194,5.2727,0.1,0.0005654,5650.1,0.00057419,5975.8,-0.00012519,720.97,-0.00022117,-0.19408,0.0073908
24362,1.1022,5.5455,0.1,0.00057957,5791.7,0.00058513,5973.7,-0.00015882,383.94,-0.00021002,-0.71968,0.0056983
24363,1.194,5.4545,0.1,0.00057544,5750.4,0.00058215,5977.5,-0.0001488,485.43,-0.00021347,-0.45227,0.0069846
24364,1.1022,5.7273,0.1,0.00059572,5953.1,0.00059762,6010.9,-0.00018619,121.68,-0.00020292,-3.9946,0.0052011
24365,1.194,5.6364,0.1,0.00058843,5880.3,0.00059217,5997.6,-0.00017356,244.18,-0.00020631,-1.8894,0.006493
24366,1.194,5.8182,0.1,0.00060653,6061.1,0.00060635,6056.1,-0.00019714,19.006,-0.00020349,-28.701,0.0059012
24367,1.1022,5.9091,0.1,0.00060081,6003.9,0.00060022,5986.8,-0.00019658,-0.0030187,-0.0002011,-33.986,0.0045984
24368,1.2859,0.27273,0.1,0.00059911,5986.9,0.00060096,6043.2,-0.00018763,118.09,-0.00020383,-3.6564,0.0073171
24369,1.3777,0.18182,0.1,0.00060744,6070.2,0.0006075,6072.3,-0.00019761,23.034,-0.00020314,-18.578,0.0081704
24370,1.2859,0.090909,0.1,0.00060443,6040.1,0.00060408,6029.9,-0.00019842,0.16205,-0.00020119,-20.635,0.0066267
24371,1.2859,0.45455,0.1,0.00058418,5837.8,0.00058926,6001.9,-0.00016364,344.92,-0.00020972,-1.3594,0.007898
24372,1.3777,0.36364,0.1,0.00059111,5907,0.00059458,6015.6,-0.00017601,225.59,-0.00020629,-1.8687,0.0088446
24373,1.2859,0.63636,0.1,0.00057268,5722.9,0.0005802,5984.8,-0.00014088,566.94,-0.00021643,-0.74822,0.0083838
24374,1.3777,0.54545,0.1,0.00057875,5783.5,0.00058491,5988.6,-0.00015415,435.56,-0.00021221,-0.70105,0.0094147
24375,1.2859,0.81818,0.1,0.00056371,5633.2,0.0005729,5982.4,-0.00011942,780.64,-0.0002234,-0.59201,0.0087881
24376,1.3777,0.72727,0.1,0.00056851,5681.2,0.0005767,5975,-0.00013297,642.81,-0.00021859,-0.52723,0.0098942
24377,1.2859,1,0.1,0.00055733,5569.4,0.00056747,5993.2,-0.00010006,977.7,-0.00023025,-0.47534,0.0091235
24378,1.3777,0.90909,0.1,0.00056054,5601.6,0.00057007,5973.7,-0.00011326,839.39,-0.00022502,-0.35971,0.010296
24379,1.2859,1.1818,0.1,0.00055335,5529.7,0.00056385,6014.9,-8.327e-05,1152.7,-0.00023673,-0.41748,0.0094011
24380,1.3777,1.0909,0.1,0.00055487,5544.9,0.00056512,5983.4,-9.5644e-05,1018.6,-0.00023125,-0.28014,0.010631
24381,1.2859,1.3636,0.1,0.00055137,5509.9,0.00056183,6044.4,-6.9159e-05,1303.4,-0.00024269,-0.38589,0.0096304
24382,1.3777,1.2727,0.1,0.00055126,5508.8,0.00056175,6002,-8.0424e-05,1176.9,-0.00023709,-0.23079,0.01091
24383,1.2859,1.5455,0.1,0.00055087,5504.9,0.00056107,6078.7,-5.7585e-05,1430.4,-0.00024801,-0.37143,0.0098191
24384,1.3777,1.4545,0.1,0.00054933,5489.5,0.00055974,6026.8,-6.7621e-05,1313,-0.0002424,-0.20538,0.011141
24385,1.2859,1.7273,0.1,0.00055139,5510.1,0.0005612,6114.7,-4.8275e-05,1535.3,-0.00025266,-0.36551,0.0099736
24386,1.3777,1.6364,0.1,0.00054865,5482.7,0.0005588,6055.2,-5.7085e-05,1427.7,-0.00024713,-0.19245,0.011332
24387,1.2859,1.9091,0.1,0.0005525,5521.2,0.00056191,6149.8,-4.0912e-05,1620.5,-0.00025663,-0.36383,0.010099
24388,1.3777,1.8182,0.1,0.00054883,5484.5,0.00055862,6084.7,-4.8574e-05,1522.5,-0.00025123,-0.18665,0.011488
24389,1.2859,2.0909,0.1,0.00055387,5534.9,0.0005629,6182.2,-3.5193e-05,1688.3,-0.00025994,-0.36391,0.010199
24390,1.3777,2,0.1,0.00054951,5491.3,0.00055894,6113.3,-4.1826e-05,1599.3,-0.00025471,-0.18441,0.011615
24391,1.2859,2.2727,0.1,0.00055527,5548.8,0.00056398,6210.3,-3.0857e-05,1740.9,-0.00026261,-0.36457,0.010277
24392,1.3777,2.1818,0.1,0.00055042,5500.4,0.00055952,6139.1,-3.6591e-05,1660.2,-0.00025757,-0.18384,0.011715
24393,1.2859,2.4545,0.1,0.0005565,5561.2,0.00056496,6233,-2.7693e-05,1780,-0.00026465,-0.36528,0.010336
24394,1.3777,2.3636,0.1,0.00055136,5509.8,0.00056018,6161.1,-3.2655e-05,1706.8,-0.00025984,-0.18395,0.011792
24395,1.2859,2.6364,0.1,0.00055746,5570.7,0.00056574,6249.7,-2.5542e-05,1807,-0.00026609,-0.36583,0.010377
24396,1.3777,2.5455,0.1,0.00055219,5518,0.00056079,6178.3,-2.9849e-05,1740.5,-0.00026152,-0.18424,0.011848
24397,1.2859,2.8182,0.1,0.00055806,5576.8,0.00056623,6259.8,-2.4294e-05,1822.8,-0.00026695,-0.36616,0.010401
24398,1.3777,2.7273,0.1,0.00055279,5524,0.00056124,6190.1,-2.8047e-05,1762.4,-0.00026263,-0.1845,0.011884
24399,1.2859,3,0.1,0.00055827,5578.8,0.0005664,6263.2,-2.3885e-05,1828.1,-0.00026723,-0.36626,0.010409
24400,1.3777,2.9091,0.1,0.0005531,5527.2,0.00056148,6196,-2.7166e-05,1773.2,-0.00026318,-0.18465,0.011902
24401,1.2859,3.1818,0.1,0.00055806,5576.8,0.00056623,6259.8,-2.4294e-05,1822.8,-0.00026695,-0.36616,0.010401
24402,1.3777,3.0909,0.1,0.0005531,5527.2,0.00056148,6196,-2.7166e-05,1773.2,-0.00026318,-0.18465,0.011902
24403,1.2859,3.3636,0.1,0.00055746,5570.7,0.00056574,6249.7,-2.5542e-05,1807,-0.00026609,-0.36583,0.010377
24404,1.3777,3.2727,0.1,0.00055279,5524,0.00056124,6190.1,-2.8047e-05,1762.4,-0.00026263,-0.1845,0.011884
24405,1.2859,3.5455,0.1,0.0005565,5561.2,0.00056496,6233,-2.7693e-05,1780,-0.00026465,-0.36528,0.010336
24406,1.3777,3.4545,0.1,0.00055219,5518,0.00056079,6178.3,-2.9849e-05,1740.5,-0.00026152,-0.18424,0.011848
24407,1.2859,3.7273,0.1,0.00055527,5548.8,0.00056398,6210.3,-3.0857e-05,1740.9,-0.00026261,-0.36457,0.010277
24408,1.3777,3.6364,0.1,0.00055136,5509.8,0.00056018,6161.1,-3.2655e-05,1706.8,-0.00025984,-0.18395,0.011792
24409,1.2859,3.9091,0.1,0.00055387,5534.9,0.0005629,6182.2,-3.5193e-05,1688.3,-0.00025994,-0.36391,0.010199
24410,1.3777,3.8182,0.1,0.00055042,5500.4,0.00055952,6139.1,-3.6591e-05,1660.2,-0.00025757,-0.18384,0.011715
24411,1.2859,4.0909,0.1,0.0005525,5521.2,0.00056191,6149.8,-4.0912e-05,1620.5,-0.00025663,-0.36383,0.010099
24412,1.3777,4,0.1,0.00054951,5491.3,0.00055894,6113.3,-4.1826e-05,1599.3,-0.00025471,-0.18441,0.011615
24413,1.2859,4.2727,0.1,0.00055139,5510.1,0.0005612,6114.7,-4.8275e-05,1535.3,-0.00025266,-0.36551,0.0099736
24414,1.3777,4.1818,0.1,0.00054883,5484.5,0.00055862,6084.7,-4.8574e-05,1522.5,-0.00025123,-0.18665,0.011488
24415,1.2859,4.4545,0.1,0.00055087,5504.9,0.00056107,6078.7,-5.7585e-05,1430.4,-0.00024801,-0.37143,0.0098191
24416,1.3777,4.3636,0.1,0.00054865,5482.7,0.0005588,6055.2,-5.7085e-05,1427.7,-0.00024713,-0.19245,0.011332
24417,1.2859,4.6364,0.1,0.00055137,5509.9,0.00056183,6044.4,-6.9159e-05,1303.4,-0.00024269,-0.38589,0.0096304
24418,1.3777,4.5455,0.1,0.00054933,5489.5,0.00055974,6026.8,-6.7621e-05,1313,-0.0002424,-0.20538,0.011141
24419,1.2859,4.8182,0.1,0.00055335,5529.7,0.00056385,6014.9,-8.327e-05,1152.7,-0.00023673,-0.41748,0.0094011
24420,1.3777,4.7273,0.1,0.00055126,5508.8,0.00056175,6002,-8.0424e-05,1176.9,-0.00023709,-0.23079,0.01091
24421,1.2859,5,0.1,0.00055733,5569.4,0.00056747,5993.2,-0.00010006,977.7,-0.00023025,-0.47534,0.0091235
24422,1.3777,4.9091,0.1,0.00055487,5544.9,0.00056512,5983.4,-9.5644e-05,1018.6,-0.00023125,-0.28014,0.010631
24423,1.2859,5.1818,0.1,0.00056371,5633.2,0.0005729,5982.4,-0.00011942,780.64,-0.0002234,-0.59201,0.0087881
24424,1.3777,5.0909,0.1,0.00056054,5601.6,0.00057007,5973.7,-0.00011326,839.39,-0.00022502,-0.35971,0.010296
24425,1.2859,5.3636,0.1,0.00057268,5722.9,0.0005802,5984.8,-0.00014088,566.94,-0.00021643,-0.74822,0.0083838
24426,1.3777,5.2727,0.1,0.00056851,5681.2,0.0005767,5975,-0.00013297,642.81,-0.00021859,-0.52723,0.0098942
24427,1.2859,5.5455,0.1,0.00058418,5837.8,0.00058926,6001.9,-0.00016364,344.91,-0.00020972,-1.3594,0.007898
24428,1.3777,5.4545,0.1,0.00057875,5783.5,0.00058491,5988.6,-0.00015415,435.56,-0.00021221,-0.70105,0.0094147
24429,1.2859,5.7273,0.1,0.00059911,5986.9,0.00060096,6043.2,-0.00018763,118.09,-0.00020383,-3.6564,0.0073171
24430,1.3777,5.6364,0.1,0.00059111,5907,0.00059458,6015.6,-0.00017601,225.59,-0.00020629,-1.8687,0.0088446
24431,1.3777,5.8182,0.1,0.00060744,6070.2,0.0006075,6072.3,-0.00019761,23.033,-0.00020314,-18.578,0.0081704
24432,1.2859,5.9091,0.1,0.00060443,6040.1,0.00060408,6029.9,-0.00019842,0.16204,-0.00020119,-20.636,0.0066267
24433,1.4696,0.27273,0.1,0.00059934,5989.3,0.00060118,6045,-0.0001879,116.2,-0.00020375,-2.8672,0.0098236
24434,1.5614,0.18182,0.1,0.00060582,6054.1,0.00060609,6062,-0.00019696,28.222,-0.00020232,-12.053,0.010835
24435,1.4696,0.090909,0.1,0.00060483,6044.2,0.00060467,6039.4,-0.000199,0.94698,-0.00020051,-10.406,0.0090532
24436,1.4696,0.45455,0.1,0.00058559,5851.9,0.0005903,6002.7,-0.00016661,315.58,-0.00020875,-1.0036,0.010482
24437,1.5614,0.36364,0.1,0.00059104,5906.3,0.00059432,6008.3,-0.00017721,211.41,-0.00020555,-1.5702,0.011585
24438,1.4696,0.63636,0.1,0.00057448,5740.8,0.00058145,5979,-0.00014629,511.1,-0.00021437,-0.42856,0.011041
24439,1.5614,0.54545,0.1,0.00057942,5790.2,0.00058513,5978,-0.00015769,396.73,-0.00021057,-0.53108,0.012228
24440,1.4696,0.81818,0.1,0.00056523,5648.4,0.00057388,5966.2,-0.00012681,701.5,-0.00022021,-0.2725,0.011514
24441,1.5614,0.72727,0.1,0.00056936,5689.7,0.000577,5957.5,-0.00013862,580.61,-0.00021594,-0.37756,0.012777
24442,1.4696,1,0.1,0.00055797,5575.9,0.00056771,5963.7,-0.00010882,880.5,-0.00022603,-0.1522,0.011912
24443,1.5614,0.90909,0.1,0.00056101,5606.2,0.00057004,5946.3,-0.00012056,757.44,-0.0002214,-0.22297,0.013242
24444,1.4696,1.1818,0.1,0.00055268,5523,0.00056298,5970.1,-9.2756e-05,1043.2,-0.00023161,-0.085937,0.012246
24445,1.5614,1.0909,0.1,0.00055447,5540.9,0.00056436,5943.9,-0.00010403,921.79,-0.00022674,-0.14512,0.013636
24446,1.4696,1.3636,0.1,0.00054914,5487.6,0.00055961,5983.9,-7.8834e-05,1186.9,-0.0002368,-0.045433,0.012525
24447,1.5614,1.2727,0.1,0.00054966,5492.8,0.00055998,5949,-8.9371e-05,1070.1,-0.0002318,-0.093594,0.013967
24448,1.4696,1.5455,0.1,0.00054705,5466.7,0.00055742,6002.9,-6.7066e-05,1310.8,-0.00024152,-0.023175,0.012757
24449,1.5614,1.4545,0.1,0.00054637,5460,0.0005568,5960.2,-7.6696e-05,1200.4,-0.00023647,-0.064453,0.014245
24450,1.4696,1.7273,0.1,0.00054604,5456.7,0.00055617,6024.9,-5.7331e-05,1415.3,-0.0002457,-0.011391,0.012948
24451,1.5614,1.6364,0.1,0.00054432,5439.5,0.00055463,5975.6,-6.5989e-05,1312.5,-0.00024068,-0.048101,0.014476
24452,1.4696,1.9091,0.1,0.0005458,5454.2,0.00055561,6047.8,-4.9439e-05,1501.7,-0.00024931,-0.0056908,0.013105
24453,1.5614,1.8182,0.1,0.00054321,5428.3,0.00055328,5993.2,-5.7131e-05,1406.8,-0.00024438,-0.039773,0.014666
24454,1.4696,2.0909,0.1,0.00054603,5456.6,0.00055551,6069.9,-4.3178e-05,1571.6,-0.00025234,-0.0032224,0.013231
24455,1.5614,2,0.1,0.00054275,5423.8,0.00055254,6011.5,-4.9957e-05,1484.5,-0.00024754,-0.035946,0.014821
24456,1.4696,2.2727,0.1,0.0005465,5461.3,0.00055568,6089.7,-3.8347e-05,1626.4,-0.00025481,-0.0023687,0.013329
24457,1.5614,2.1818,0.1,0.00054271,5423.4,0.00055221,6028.7,-4.4292e-05,1546.9,-0.00025017,-0.034537,0.014945
24458,1.4696,2.4545,0.1,0.00054703,5466.6,0.00055597,6106.1,-3.4773e-05,1667.5,-0.00025671,-0.0022306,0.013403
24459,1.5614,2.3636,0.1,0.0005429,5425.2,0.00055214,6043.9,-3.9971e-05,1595,-0.00025226,-0.034291,0.01504
24460,1.4696,2.6364,0.1,0.0005475,5471.2,0.00055625,6118.4,-3.2318e-05,1696.1,-0.00025806,-0.0023415,0.013455
24461,1.5614,2.5455,0.1,0.00054315,5427.8,0.00055219,6056,-3.6855e-05,1630.2,-0.00025382,-0.034505,0.01511
24462,1.4696,2.8182,0.1,0.00054781,5474.3,0.00055646,6126,-3.0884e-05,1713,-0.00025886,-0.002473,0.013485
24463,1.5614,2.7273,0.1,0.00054338,5430.1,0.00055228,6064.5,-3.4838e-05,1653.1,-0.00025486,-0.0348,0.015155
24464,1.4696,3,0.1,0.00054792,5475.4,0.00055653,6128.5,-3.0412e-05,1718.5,-0.00025913,-0.0025261,0.013495
24465,1.5614,2.9091,0.1,0.00054351,5431.4,0.00055233,6068.8,-3.3848e-05,1664.4,-0.00025538,-0.034986,0.015177
24466,1.4696,3.1818,0.1,0.00054781,5474.3,0.00055646,6126,-3.0884e-05,1713,-0.00025886,-0.0024731,0.013485
24467,1.5614,3.0909,0.1,0.00054351,5431.4,0.00055233,6068.8,-3.3848e-05,1664.4,-0.00025538,-0.034986,0.015177
24468,1.4696,3.3636,0.1,0.0005475,5471.2,0.00055625,6118.4,-3.2318e-05,1696.1,-0.00025806,-0.0023415,0.013455
24469,1.5614,3.2727,0.1,0.00054338,5430.1,0.00055228,6064.5,-3.4838e-05,1653.1,-0.00025486,-0.0348,0.015155
24470,1.4696,3.5455,0.1,0.00054703,5466.6,0.00055597,6106.1,-3.4773e-05,1667.5,-0.00025671,-0.0022306,0.013403
24471,1.5614,3.4545,0.1,0.00054315,5427.8,0.00055219,6056,-3.6855e-05,1630.2,-0.00025382,-0.034505,0.01511
24472,1.4696,3.7273,0.1,0.0005465,5461.3,0.00055568,6089.7,-3.8347e-05,1626.4,-0.00025481,-0.0023687,0.013329
24473,1.5614,3.6364,0.1,0.0005429,5425.2,0.00055214,6043.9,-3.9971e-05,1595,-0.00025226,-0.034291,0.01504
24474,1.4696,3.9091,0.1,0.00054603,5456.6,0.00055551,6069.9,-4.3178e-05,1571.6,-0.00025234,-0.0032223,0.013231
24475,1.5614,3.8182,0.1,0.00054271,5423.4,0.00055221,6028.7,-4.4292e-05,1546.9,-0.00025017,-0.034537,0.014945
24476,1.4696,4.0909,0.1,0.0005458,5454.2,0.00055561,6047.8,-4.9439e-05,1501.7,-0.00024931,-0.0056906,0.013105
24477,1.5614,4,0.1,0.00054275,5423.8,0.00055254,6011.5,-4.9957e-05,1484.5,-0.00024754,-0.035946,0.014821
24478,1.4696,4.2727,0.1,0.00054604,5456.7,0.00055617,6024.9,-5.7331e-05,1415.3,-0.0002457,-0.011391,0.012948
24479,1.5614,4.1818,0.1,0.00054321,5428.3,0.00055328,5993.2,-5.7131e-05,1406.8,-0.00024438,-0.039773,0.014666
24480,1.4696,4.4545,0.1,0.00054705,5466.7,0.00055742,6002.9,-6.7066e-05,1310.8,-0.00024152,-0.023175,0.012757
24481,1.5614,4.3636,0.1,0.00054432,5439.5,0.00055463,5975.6,-6.5989e-05,1312.5,-0.00024068,-0.0481,0.014476
24482,1.4696,4.6364,0.1,0.00054914,5487.6,0.00055961,5983.9,-7.8834e-05,1186.9,-0.0002368,-0.045433,0.012525
24483,1.5614,4.5455,0.1,0.00054637,5460,0.0005568,5960.2,-7.6696e-05,1200.4,-0.00023647,-0.064453,0.014245
24484,1.4696,4.8182,0.1,0.00055268,5523,0.00056298,5970.1,-9.2756e-05,1043.2,-0.00023161,-0.085937,0.012246
24485,1.5614,4.7273,0.1,0.00054966,5492.8,0.00055998,5949,-8.9371e-05,1070.1,-0.0002318,-0.093594,0.013967
24486,1.4696,5,0.1,0.00055797,5575.9,0.00056771,5963.7,-0.00010882,880.5,-0.00022603,-0.1522,0.011912
24487,1.5614,4.9091,0.1,0.00055447,5540.9,0.00056436,5943.9,-0.00010403,921.79,-0.00022674,-0.14512,0.013636
24488,1.4696,5.1818,0.1,0.00056523,5648.4,0.00057388,5966.2,-0.00012681,701.5,-0.00022021,-0.2725,0.011514
24489,1.5614,5.0909,0.1,0.00056101,5606.2,0.00057004,5946.3,-0.00012056,757.44,-0.0002214,-0.22297,0.013242
24490,1.4696,5.3636,0.1,0.00057448,5740.8,0.00058145,5979,-0.00014629,511.1,-0.00021437,-0.42856,0.011041
24491,1.5614,5.2727,0.1,0.00056936,5689.7,0.000577,5957.5,-0.00013862,580.61,-0.00021594,-0.37756,0.012777
24492,1.4696,5.5455,0.1,0.00058559,5851.9,0.0005903,6002.7,-0.00016661,315.58,-0.00020875,-1.0036,0.010482
24493,1.5614,5.4545,0.1,0.00057942,5790.2,0.00058513,5978,-0.00015769,396.73,-0.00021057,-0.53108,0.012228
24494,1.4696,5.7273,0.1,0.00059934,5989.3,0.00060118,6045,-0.0001879,116.2,-0.00020375,-2.8672,0.0098236
24495,1.5614,5.6364,0.1,0.00059104,5906.3,0.00059432,6008.3,-0.00017721,211.41,-0.00020555,-1.5702,0.011585
24496,1.5614,5.8182,0.1,0.00060582,6054.1,0.00060609,6062,-0.00019696,28.222,-0.00020232,-12.053,0.010835
24497,1.4696,5.9091,0.1,0.00060483,6044.2,0.00060467,6039.4,-0.000199,0.94697,-0.00020051,-10.406,0.0090532
24498,1.6533,0.27273,0.1,0.00059745,5970.4,0.00059928,6025.7,-0.00018743,114.7,-0.00020301,-2.3858,0.012724
24499,1.7451,0.18182,0.1,0.00060251,6021,0.00060293,6033.6,-0.00019561,33.645,-0.00020117,-8.1128,0.013898
24500,1.6533,0.090909,0.1,0.00060304,6026.3,0.00060303,6025.9,-0.00019854,3.2251,-0.0001995,-4.024,0.01188
24501,1.6533,0.45455,0.1,0.00058481,5844,0.00058921,5984,-0.00016836,291.99,-0.00020735,-0.93271,0.013453
24502,1.7451,0.36364,0.1,0.00058908,5886.8,0.0005922,5983.4,-0.00017756,199.69,-0.00020432,-1.3945,0.014716
24503,1.6533,0.63636,0.1,0.00057422,5738.3,0.00058072,5956.8,-0.00015007,465.9,-0.00021214,-0.43794,0.014081
24504,1.7451,0.54545,0.1,0.00057821,5778.1,0.00058354,5951.7,-0.00016,365.01,-0.00020864,-0.48683,0.015427
24505,1.6533,0.81818,0.1,0.00056505,5646.6,0.00057317,5937.7,-0.00013238,636.4,-0.00021713,-0.30968,0.014618
24506,1.7451,0.72727,0.1,0.00056852,5681.2,0.00057566,5927.2,-0.00014274,529.4,-0.00021325,-0.36179,0.016039
24507,1.6533,1,0.1,0.00055742,5570.3,0.00056669,5926.5,-0.00011577,798.76,-0.00022211,-0.20576,0.015076
24508,1.7451,0.90909,0.1,0.00056013,5597.4,0.00056865,5909.9,-0.00012622,688.84,-0.00021793,-0.22683,0.016565
24509,1.6533,1.1818,0.1,0.00055137,5509.9,0.00056134,5922.6,-0.00010063,948.83,-0.00022693,-0.14649,0.015464
24510,1.7451,1.0909,0.1,0.00055318,5527.9,0.00056265,5899.4,-0.00011085,839,-0.00022254,-0.1572,0.017015
24511,1.6533,1.3636,0.1,0.00054682,5464.5,0.00055713,5925.1,-8.7198e-05,1083.9,-0.00023147,-0.10845,0.015792
24512,1.7451,1.2727,0.1,0.00054766,5472.8,0.00055769,5895.3,-9.6942e-05,976.65,-0.00022694,-0.10884,0.017397
24513,1.6533,1.5455,0.1,0.00054359,5432.2,0.00055396,5932.6,-7.5576e-05,1202.5,-0.00023563,-0.086516,0.016067
24514,1.7451,1.4545,0.1,0.00054347,5430.9,0.00055375,5896.6,-8.4667e-05,1099.8,-0.00023105,-0.079899,0.017719
24515,1.6533,1.7273,0.1,0.00054144,5410.7,0.0005517,5943.6,-6.5742e-05,1304.4,-0.00023936,-0.074459,0.016295
24516,1.7451,1.6364,0.1,0.00054043,5400.6,0.00055074,5902,-7.4078e-05,1207.4,-0.00023478,-0.062661,0.01799
24517,1.6533,1.9091,0.1,0.00054013,5397.5,0.00055017,5956.6,-5.7602e-05,1390,-0.00024261,-0.068558,0.016484
24518,1.7451,1.8182,0.1,0.00053834,5379.6,0.00054853,5910.3,-6.5145e-05,1299.4,-0.00023809,-0.053283,0.018215
24519,1.6533,2.0909,0.1,0.00053941,5390.4,0.00054919,5970,-5.1026e-05,1460.2,-0.00024537,-0.066158,0.016636
24520,1.7451,2,0.1,0.00053697,5366,0.00054697,5920.1,-5.778e-05,1376.2,-0.00024095,-0.048652,0.018399
24521,1.6533,2.2727,0.1,0.00053909,5387.1,0.00054862,5982.6,-4.5873e-05,1515.8,-0.00024763,-0.065602,0.016755
24522,1.7451,2.1818,0.1,0.00053614,5357.7,0.00054592,5930.1,-5.1874e-05,1438.5,-0.00024334,-0.046772,0.018546
24523,1.6533,2.4545,0.1,0.000539,5386.3,0.00054831,5993.5,-4.2012e-05,1558,-0.00024938,-0.065869,0.016846
24524,1.7451,2.3636,0.1,0.00053568,5353.1,0.00054524,5939.4,-4.7311e-05,1487.2,-0.00024525,-0.046329,0.01866
24525,1.6533,2.6364,0.1,0.00053902,5386.5,0.00054817,6001.8,-3.9336e-05,1587.5,-0.00025062,-0.066367,0.016909
24526,1.7451,2.5455,0.1,0.00053544,5350.7,0.00054483,5947.1,-4.3987e-05,1522.9,-0.00024669,-0.046516,0.018744
24527,1.6533,2.8182,0.1,0.00053907,5386.9,0.00054811,6007,-3.7763e-05,1604.9,-0.00025137,-0.066769,0.016946
24528,1.7451,2.7273,0.1,0.00053534,5349.7,0.0005446,5952.5,-4.182e-05,1546.4,-0.00024764,-0.046853,0.018798
24529,1.6533,3,0.1,0.00053909,5387.2,0.0005481,6008.7,-3.7245e-05,1610.7,-0.00025162,-0.066919,0.016958
24530,1.7451,2.9091,0.1,0.0005353,5349.4,0.0005445,5955.4,-4.0751e-05,1558,-0.00024812,-0.047078,0.018825
24531,1.6533,3.1818,0.1,0.00053907,5386.9,0.00054811,6007,-3.7763e-05,1604.9,-0.00025137,-0.066769,0.016946
24532,1.7451,3.0909,0.1,0.0005353,5349.4,0.0005445,5955.4,-4.0751e-05,1558,-0.00024812,-0.047078,0.018825
24533,1.6533,3.3636,0.1,0.00053902,5386.5,0.00054817,6001.8,-3.9336e-05,1587.5,-0.00025062,-0.066367,0.016909
24534,1.7451,3.2727,0.1,0.00053534,5349.7,0.0005446,5952.5,-4.182e-05,1546.4,-0.00024764,-0.046853,0.018798
24535,1.6533,3.5455,0.1,0.000539,5386.3,0.00054831,5993.5,-4.2012e-05,1558,-0.00024938,-0.065869,0.016846
24536,1.7451,3.4545,0.1,0.00053544,5350.7,0.00054483,5947.1,-4.3987e-05,1522.9,-0.00024669,-0.046516,0.018744
24537,1.6533,3.7273,0.1,0.00053909,5387.1,0.00054862,5982.6,-4.5873e-05,1515.8,-0.00024763,-0.065602,0.016755
24538,1.7451,3.6364,0.1,0.00053568,5353.1,0.00054524,5939.4,-4.7311e-05,1487.2,-0.00024525,-0.046329,0.01866
24539,1.6533,3.9091,0.1,0.00053941,5390.4,0.00054919,5970,-5.1026e-05,1460.2,-0.00024537,-0.066158,0.016636
24540,1.7451,3.8182,0.1,0.00053614,5357.7,0.00054592,5930.1,-5.1874e-05,1438.5,-0.00024334,-0.046772,0.018546
24541,1.6533,4.0909,0.1,0.00054013,5397.5,0.00055017,5956.6,-5.7602e-05,1390,-0.00024261,-0.068558,0.016484
24542,1.7451,4,0.1,0.00053697,5366,0.00054697,5920.1,-5.778e-05,1376.2,-0.00024095,-0.048652,0.018399
24543,1.6533,4.2727,0.1,0.00054144,5410.7,0.0005517,5943.6,-6.5742e-05,1304.4,-0.00023936,-0.074458,0.016295
24544,1.7451,4.1818,0.1,0.00053834,5379.6,0.00054853,5910.3,-6.5145e-05,1299.4,-0.00023809,-0.053283,0.018215
24545,1.6533,4.4545,0.1,0.00054359,5432.2,0.00055396,5932.6,-7.5576e-05,1202.5,-0.00023563,-0.086516,0.016067
24546,1.7451,4.3636,0.1,0.00054043,5400.6,0.00055074,5902,-7.4078e-05,1207.4,-0.00023478,-0.062661,0.01799
24547,1.6533,4.6364,0.1,0.00054682,5464.5,0.00055713,5925.1,-8.7198e-05,1083.9,-0.00023147,-0.10845,0.015792
24548,1.7451,4.5455,0.1,0.00054347,5430.9,0.00055375,5896.6,-8.4667e-05,1099.8,-0.00023105,-0.079899,0.017719
24549,1.6533,4.8182,0.1,0.00055137,5509.9,0.00056134,5922.6,-0.00010063,948.83,-0.00022693,-0.14649,0.015464
24550,1.7451,4.7273,0.1,0.00054766,5472.8,0.00055769,5895.3,-9.6942e-05,976.65,-0.00022694,-0.10884,0.017397
24551,1.6533,5,0.1,0.00055742,5570.3,0.00056669,5926.5,-0.00011577,798.76,-0.00022211,-0.20576,0.015076
24552,1.7451,4.9091,0.1,0.00055318,5527.9,0.00056265,5899.4,-0.00011085,839,-0.00022254,-0.1572,0.017015
24553,1.6533,5.1818,0.1,0.00056505,5646.6,0.00057317,5937.7,-0.00013238,636.4,-0.00021713,-0.30968,0.014618
24554,1.7451,5.0909,0.1,0.00056013,5597.4,0.00056865,5909.9,-0.00012622,688.84,-0.00021793,-0.22683,0.016565
24555,1.6533,5.3636,0.1,0.00057422,5738.3,0.00058072,5956.8,-0.00015007,465.9,-0.00021214,-0.43794,0.014081
24556,1.7451,5.2727,0.1,0.00056852,5681.2,0.00057566,5927.2,-0.00014274,529.4,-0.00021325,-0.36179,0.016039
24557,1.6533,5.5455,0.1,0.00058481,5844,0.00058921,5984,-0.00016836,291.99,-0.00020735,-0.93271,0.013453
24558,1.7451,5.4545,0.1,0.00057821,5778.1,0.00058354,5951.7,-0.00016,365.01,-0.00020864,-0.48683,0.015427
24559,1.6533,5.7273,0.1,0.00059745,5970.4,0.00059928,6025.7,-0.00018743,114.7,-0.00020301,-2.3858,0.012724
24560,1.7451,5.6364,0.1,0.00058908,5886.8,0.0005922,5983.4,-0.00017756,199.69,-0.00020432,-1.3945,0.014716
24561,1.7451,5.8182,0.1,0.00060251,6021,0.00060293,6033.6,-0.00019561,33.645,-0.00020117,-8.1128,0.013898
24562,1.6533,5.9091,0.1,0.00060304,6026.3,0.00060303,6025.9,-0.00019854,3.2251,-0.0001995,-4.0241,0.01188
24563,1.837,0.27273,0.1,0.00059409,5936.8,0.0005959,5991.6,-0.00018647,113.17,-0.00020179,-1.9751,0.016018
24564,1.9288,0.18182,0.1,0.00059803,5976.1,0.00059857,5992.5,-0.00019383,38.641,-0.00019973,-5.7003,0.017357
24565,1.837,0.090909,0.1,0.00059972,5993.1,0.00059983,5996.1,-0.00019715,7.9379,-0.00019846,-1.8503,0.015108
24566,1.837,0.45455,0.1,0.00058244,5820.4,0.00058658,5951.3,-0.00016926,272.23,-0.0002056,-0.81551,0.016813
24567,1.9288,0.36364,0.1,0.0005858,5853.9,0.00058877,5945.7,-0.00017734,189.47,-0.00020272,-1.2287,0.018239
24568,1.837,0.63636,0.1,0.00057245,5720.5,0.00057852,5922.4,-0.00015271,428.19,-0.00020975,-0.37569,0.017504
24569,1.9288,0.54545,0.1,0.00057564,5752.4,0.00058064,5913.8,-0.00016143,338.18,-0.0002065,-0.42496,0.019011
24570,1.837,0.81818,0.1,0.00056353,5631.5,0.00057116,5899.6,-0.00013661,581.65,-0.00021405,-0.26368,0.018101
24571,1.9288,0.72727,0.1,0.0005664,5660.1,0.00057309,5887.3,-0.00014576,486.1,-0.0002105,-0.31981,0.019683
24572,1.837,1,0.1,0.00055583,5554.4,0.00056462,5882.8,-0.00012131,729.03,-0.00021836,-0.16983,0.018615
24573,1.9288,0.90909,0.1,0.00055818,5578,0.00056622,5866.2,-0.00013064,630.31,-0.00021455,-0.19986,0.020265
24574,1.837,1.1818,0.1,0.0005494,5490.2,0.00055898,5872,-0.00010716,866.89,-0.00022255,-0.11427,0.019056
24575,1.9288,1.0909,0.1,0.0005511,5507.2,0.00056012,5850.6,-0.00011641,767.37,-0.00021856,-0.13667,0.020767
24576,1.837,1.3636,0.1,0.00054424,5438.7,0.00055428,5866.6,-9.439e-05,992.7,-0.00022652,-0.076727,0.01943
24577,1.9288,1.2727,0.1,0.0005452,5448.3,0.00055488,5840.1,-0.00010334,894.48,-0.0002224,-0.090928,0.021197
24578,1.837,1.5455,0.1,0.00054025,5398.8,0.00055049,5865.7,-8.3138e-05,1104.9,-0.00023019,-0.053532,0.019747
24579,1.9288,1.4545,0.1,0.00054045,5400.8,0.0005505,5834.3,-9.1629e-05,1009.6,-0.00022601,-0.061993,0.021563
24580,1.837,1.7273,0.1,0.00053728,5369.1,0.00054753,5868.4,-7.3444e-05,1202.6,-0.00023351,-0.039659,0.020012
24581,1.9288,1.6364,0.1,0.00053674,5363.7,0.00054694,5832.4,-8.1357e-05,1111.7,-0.00022932,-0.043595,0.021873
24582,1.837,1.9091,0.1,0.00053515,5347.8,0.00054529,5873.5,-6.5282e-05,1285.9,-0.00023642,-0.032012,0.020231
24583,1.9288,1.8182,0.1,0.00053394,5335.7,0.00054413,5833.6,-7.2553e-05,1200,-0.00023227,-0.032689,0.022131
24584,1.837,2.0909,0.1,0.00053368,5333.1,0.00054365,5879.9,-5.8586e-05,1354.9,-0.00023891,-0.028215,0.02041
24585,1.9288,2,0.1,0.00053189,5315.3,0.00054198,5836.7,-6.5187e-05,1274.7,-0.00023484,-0.026625,0.022344
24586,1.837,2.2727,0.1,0.00053271,5323.4,0.00054249,5886.6,-5.327e-05,1410.2,-0.00024096,-0.026663,0.020551
24587,1.9288,2.1818,0.1,0.00053044,5300.7,0.00054038,5840.9,-5.9202e-05,1335.9,-0.000237,-0.023594,0.022515
24588,1.837,2.4545,0.1,0.0005321,5317.4,0.00054171,5892.7,-4.9244e-05,1452.5,-0.00024256,-0.026284,0.020658
24589,1.9288,2.3636,0.1,0.00052945,5290.9,0.00053923,5845.3,-5.4527e-05,1384.1,-0.00023874,-0.02232,0.022648
24590,1.837,2.6364,0.1,0.00053175,5313.8,0.00054121,5897.5,-4.643e-05,1482.2,-0.0002437,-0.026401,0.020732
24591,1.9288,2.5455,0.1,0.00052881,5284.4,0.00053845,5849.3,-5.1092e-05,1419.7,-0.00024004,-0.021957,0.022745
24592,1.837,2.8182,0.1,0.00053157,5312,0.00054094,5900.6,-4.4767e-05,1499.8,-0.00024439,-0.026611,0.020776
24593,1.9288,2.7273,0.1,0.00052843,5280.7,0.00053797,5852.2,-4.8838e-05,1443.2,-0.00024092,-0.021969,0.022809
24594,1.837,3,0.1,0.00053151,5311.4,0.00054086,5901.7,-4.4217e-05,1505.7,-0.00024462,-0.026702,0.020791
24595,1.9288,2.9091,0.1,0.00052826,5278.9,0.00053774,5853.8,-4.7722e-05,1454.8,-0.00024135,-0.022045,0.022841
24596,1.837,3.1818,0.1,0.00053157,5312,0.00054094,5900.6,-4.4767e-05,1499.8,-0.00024439,-0.026611,0.020776
24597,1.9288,3.0909,0.1,0.00052826,5278.9,0.00053774,5853.8,-4.7722e-05,1454.8,-0.00024135,-0.022045,0.022841
24598,1.837,3.3636,0.1,0.00053175,5313.8,0.00054121,5897.5,-4.643e-05,1482.2,-0.0002437,-0.026401,0.020732
24599,1.9288,3.2727,0.1,0.00052843,5280.7,0.00053797,5852.2,-4.8838e-05,1443.2,-0.00024092,-0.021969,0.022809
24600,1.837,3.5455,0.1,0.0005321,5317.4,0.00054171,5892.7,-4.9244e-05,1452.5,-0.00024256,-0.026284,0.020658
24601,1.9288,3.4545,0.1,0.00052881,5284.4,0.00053845,5849.3,-5.1092e-05,1419.7,-0.00024004,-0.021957,0.022745
24602,1.837,3.7273,0.1,0.00053271,5323.4,0.00054249,5886.6,-5.327e-05,1410.2,-0.00024096,-0.026663,0.020551
24603,1.9288,3.6364,0.1,0.00052945,5290.9,0.00053923,5845.3,-5.4527e-05,1384.1,-0.00023874,-0.02232,0.022648
24604,1.837,3.9091,0.1,0.00053368,5333.1,0.00054365,5879.9,-5.8586e-05,1354.9,-0.00023891,-0.028215,0.02041
24605,1.9288,3.8182,0.1,0.00053044,5300.7,0.00054038,5840.9,-5.9202e-05,1335.9,-0.000237,-0.023594,0.022515
24606,1.837,4.0909,0.1,0.00053515,5347.8,0.00054529,5873.5,-6.5282e-05,1285.9,-0.00023642,-0.032012,0.020231
24607,1.9288,4,0.1,0.00053189,5315.3,0.00054198,5836.7,-6.5187e-05,1274.7,-0.00023484,-0.026625,0.022344
24608,1.837,4.2727,0.1,0.00053728,5369.1,0.00054753,5868.4,-7.3444e-05,1202.6,-0.00023351,-0.039659,0.020012
24609,1.9288,4.1818,0.1,0.00053394,5335.7,0.00054413,5833.6,-7.2553e-05,1200,-0.00023227,-0.032689,0.022131
24610,1.837,4.4545,0.1,0.00054025,5398.8,0.00055049,5865.7,-8.3138e-05,1104.9,-0.00023019,-0.053532,0.019747
24611,1.9288,4.3636,0.1,0.00053674,5363.7,0.00054694,5832.4,-8.1357e-05,1111.7,-0.00022932,-0.043595,0.021873
24612,1.837,4.6364,0.1,0.00054424,5438.7,0.00055428,5866.6,-9.439e-05,992.7,-0.00022652,-0.076726,0.01943
24613,1.9288,4.5455,0.1,0.00054045,5400.8,0.0005505,5834.3,-9.1629e-05,1009.6,-0.00022601,-0.061993,0.021563
24614,1.837,4.8182,0.1,0.0005494,5490.2,0.00055898,5872,-0.00010716,866.89,-0.00022255,-0.11427,0.019056
24615,1.9288,4.7273,0.1,0.0005452,5448.3,0.00055488,5840.1,-0.00010334,894.48,-0.0002224,-0.090927,0.021197
24616,1.837,5,0.1,0.00055583,5554.4,0.00056462,5882.8,-0.00012131,729.03,-0.00021836,-0.16983,0.018615
24617,1.9288,4.9091,0.1,0.0005511,5507.2,0.00056012,5850.6,-0.00011641,767.37,-0.00021856,-0.13667,0.020767
24618,1.837,5.1818,0.1,0.00056353,5631.5,0.00057116,5899.6,-0.00013661,581.65,-0.00021405,-0.26368,0.018101
24619,1.9288,5.0909,0.1,0.00055818,5578,0.00056622,5866.2,-0.00013064,630.31,-0.00021455,-0.19986,0.020265
24620,1.837,5.3636,0.1,0.00057245,5720.5,0.00057852,5922.4,-0.00015271,428.19,-0.00020975,-0.37569,0.017504
24621,1.9288,5.2727,0.1,0.0005664,5660.1,0.00057309,5887.3,-0.00014576,486.1,-0.0002105,-0.31981,0.019683
24622,1.837,5.5455,0.1,0.00058244,5820.4,0.00058658,5951.3,-0.00016926,272.23,-0.0002056,-0.81551,0.016813
24623,1.9288,5.4545,0.1,0.00057564,5752.4,0.00058064,5913.8,-0.00016143,338.18,-0.0002065,-0.42496,0.019011
24624,1.837,5.7273,0.1,0.00059409,5936.8,0.0005959,5991.6,-0.00018647,113.17,-0.00020179,-1.9751,0.016018
24625,1.9288,5.6364,0.1,0.0005858,5853.9,0.00058877,5945.7,-0.00017734,189.47,-0.00020272,-1.2287,0.018239
24626,1.9288,5.8182,0.1,0.00059803,5976.1,0.00059857,5992.5,-0.00019383,38.64,-0.00019973,-5.7003,0.017357
24627,1.837,5.9091,0.1,0.00059972,5993.1,0.00059983,5996.1,-0.00019715,7.9378,-0.00019846,-1.8503,0.015108
24628,2.0207,0.27273,0.1,0.00058969,5892.9,0.00059148,5946.9,-0.00018518,111.37,-0.00020023,-1.659,0.019705
24629,2.1125,0.18182,0.1,0.00059273,5923.3,0.00059338,5942.4,-0.00019181,42.831,-0.00019807,-4.1705,0.021212
24630,2.0207,0.090909,0.1,0.00059532,5949.1,0.00059552,5954.9,-0.00019533,12.714,-0.00019719,-1.2135,0.018735
24631,2.0207,0.45455,0.1,0.00057896,5785.6,0.00058286,5908.5,-0.00016957,255.02,-0.00020361,-0.72957,0.02056
24632,2.1125,0.36364,0.1,0.00058157,5811.7,0.0005844,5899.1,-0.00017674,180.17,-0.00020086,-1.0924,0.022151
24633,2.0207,0.63636,0.1,0.00056955,5691.6,0.00057525,5879,-0.00015452,395.8,-0.00020725,-0.3397,0.021309
24634,2.1125,0.54545,0.1,0.00057209,5716.9,0.00057679,5867.6,-0.00016225,314.78,-0.0002042,-0.37817,0.02298
24635,2.0207,0.81818,0.1,0.000561,5606.2,0.00056817,5854.2,-0.00013982,534.56,-0.000211,-0.24313,0.021962
24636,2.1125,0.72727,0.1,0.00056334,5629.5,0.00056962,5840.2,-0.00014796,448.59,-0.0002077,-0.29001,0.023706
24637,2.0207,1,0.1,0.00055341,5530.2,0.00056173,5834,-0.00012575,668.55,-0.00021475,-0.15957,0.022529
24638,2.1125,0.90909,0.1,0.0005554,5550.2,0.00056298,5817,-0.0001341,579.44,-0.00021125,-0.18357,0.024341
24639,2.0207,1.1818,0.1,0.00054685,5464.8,0.00055602,5818.6,-0.00011259,794.95,-0.00021841,-0.10884,0.023018
24640,2.1125,1.0909,0.1,0.00054838,5480,0.00055695,5798.1,-0.00012096,704.56,-0.00021475,-0.12681,0.024892
24641,2.0207,1.3636,0.1,0.00054137,5409.9,0.00055108,5807.7,-0.00010057,911.51,-0.0002219,-0.073133,0.023438
24642,2.1125,1.2727,0.1,0.00054234,5419.6,0.00055162,5783.4,-0.00010877,821.58,-0.00021812,-0.084332,0.025368
24643,2.0207,1.5455,0.1,0.0005369,5365.3,0.00054692,5800.9,-8.9827e-05,1016.6,-0.00022514,-0.049862,0.023795
24644,2.1125,1.4545,0.1,0.00053727,5369,0.00054701,5772.8,-9.77e-05,928.66,-0.0002213,-0.056254,0.025775
24645,2.0207,1.7273,0.1,0.00053337,5330,0.00054351,5797.4,-8.0437e-05,1109.3,-0.00022808,-0.034997,0.024095
24646,2.1125,1.6364,0.1,0.00053314,5327.8,0.00054313,5765.6,-8.7873e-05,1024.5,-0.00022423,-0.037416,0.026122
24647,2.0207,1.9091,0.1,0.00053066,5302.9,0.00054078,5796.5,-7.2423e-05,1189.1,-0.00023069,-0.026057,0.024345
24648,2.1125,1.8182,0.1,0.00052986,5295,0.00053994,5761.4,-7.9341e-05,1108.4,-0.00022686,-0.025451,0.026412
24649,2.0207,2.0909,0.1,0.00052863,5282.6,0.00053867,5797.4,-6.5765e-05,1255.9,-0.00023292,-0.021024,0.02455
24650,2.1125,2,0.1,0.00052732,5269.5,0.00053738,5759.5,-7.2118e-05,1179.9,-0.00022916,-0.018172,0.026653
24651,2.0207,2.2727,0.1,0.00052716,5268,0.00053707,5799.3,-6.0419e-05,1310,-0.00023477,-0.018455,0.024712
24652,2.1125,2.1818,0.1,0.0005254,5250.4,0.00053539,5759.1,-6.6185e-05,1239.1,-0.0002311,-0.014024,0.026847
24653,2.0207,2.4545,0.1,0.00052614,5257.8,0.00053593,5801.6,-5.6335e-05,1351.6,-0.00023622,-0.017321,0.024835
24654,2.1125,2.3636,0.1,0.00052401,5236.5,0.0005339,5759.7,-6.1508e-05,1286,-0.00023267,-0.011843,0.026998
24655,2.0207,2.6364,0.1,0.00052548,5251.2,0.00053516,5803.6,-5.3459e-05,1381,-0.00023726,-0.016934,0.024921
24656,2.1125,2.5455,0.1,0.00052305,5226.9,0.00053284,5760.6,-5.8047e-05,1320.9,-0.00023385,-0.010817,0.027109
24657,2.0207,2.8182,0.1,0.00052511,5247.5,0.00053472,5805,-5.1752e-05,1398.5,-0.00023788,-0.016858,0.024972
24658,2.1125,2.7273,0.1,0.00052245,5220.9,0.00053216,5761.5,-5.5763e-05,1344,-0.00023465,-0.010402,0.027182
24659,2.0207,3,0.1,0.00052499,5246.3,0.00053458,5805.5,-5.1186e-05,1404.3,-0.00023809,-0.016858,0.024989
24660,2.1125,2.9091,0.1,0.00052216,5218,0.00053184,5762,-5.4628e-05,1355.6,-0.00023504,-0.010272,0.027219
24661,2.0207,3.1818,0.1,0.00052511,5247.5,0.00053472,5805,-5.1752e-05,1398.5,-0.00023788,-0.016858,0.024972
24662,2.1125,3.0909,0.1,0.00052216,5218,0.00053184,5762,-5.4628e-05,1355.6,-0.00023504,-0.010272,0.027219
24663,2.0207,3.3636,0.1,0.00052548,5251.1,0.00053516,5803.6,-5.3459e-05,1381,-0.00023726,-0.016934,0.024921
24664,2.1125,3.2727,0.1,0.00052245,5220.9,0.00053216,5761.5,-5.5763e-05,1344,-0.00023465,-0.010402,0.027182
24665,2.0207,3.5455,0.1,0.00052614,5257.8,0.00053593,5801.6,-5.6335e-05,1351.6,-0.00023622,-0.017321,0.024835
24666,2.1125,3.4545,0.1,0.00052305,5226.9,0.00053284,5760.6,-5.8047e-05,1320.9,-0.00023385,-0.010817,0.027109
24667,2.0207,3.7273,0.1,0.00052716,5268,0.00053707,5799.3,-6.0419e-05,1310,-0.00023477,-0.018454,0.024712
24668,2.1125,3.6364,0.1,0.00052401,5236.5,0.0005339,5759.7,-6.1508e-05,1286,-0.00023267,-0.011842,0.026998
24669,2.0207,3.9091,0.1,0.00052863,5282.6,0.00053867,5797.4,-6.5765e-05,1255.9,-0.00023292,-0.021024,0.02455
24670,2.1125,3.8182,0.1,0.0005254,5250.4,0.00053539,5759.1,-6.6185e-05,1239.1,-0.0002311,-0.014024,0.026847
24671,2.0207,4.0909,0.1,0.00053066,5302.9,0.00054078,5796.5,-7.2423e-05,1189.1,-0.00023069,-0.026057,0.024345
24672,2.1125,4,0.1,0.00052732,5269.5,0.00053738,5759.5,-7.2118e-05,1179.9,-0.00022916,-0.018172,0.026653
24673,2.0207,4.2727,0.1,0.00053337,5330,0.00054351,5797.4,-8.0437e-05,1109.3,-0.00022808,-0.034997,0.024095
24674,2.1125,4.1818,0.1,0.00052986,5295,0.00053994,5761.4,-7.9341e-05,1108.4,-0.00022686,-0.02545,0.026412
24675,2.0207,4.4545,0.1,0.0005369,5365.3,0.00054692,5800.9,-8.9827e-05,1016.6,-0.00022514,-0.049862,0.023795
24676,2.1125,4.3636,0.1,0.00053314,5327.8,0.00054313,5765.6,-8.7873e-05,1024.5,-0.00022423,-0.037415,0.026122
24677,2.0207,4.6364,0.1,0.00054137,5409.9,0.00055108,5807.7,-0.00010057,911.51,-0.0002219,-0.073133,0.023438
24678,2.1125,4.5455,0.1,0.00053727,5369,0.00054701,5772.8,-9.77e-05,928.66,-0.0002213,-0.056254,0.025775
24679,2.0207,4.8182,0.1,0.00054685,5464.8,0.00055602,5818.6,-0.00011259,794.95,-0.00021841,-0.10884,0.023018
24680,2.1125,4.7273,0.1,0.00054233,5419.6,0.00055162,5783.4,-0.00010877,821.58,-0.00021812,-0.084332,0.025368
24681,2.0207,5,0.1,0.00055341,5530.2,0.00056173,5834,-0.00012575,668.55,-0.00021475,-0.15957,0.022529
24682,2.1125,4.9091,0.1,0.00054838,5480,0.00055695,5798.1,-0.00012096,704.56,-0.00021475,-0.12681,0.024892
24683,2.0207,5.1818,0.1,0.000561,5606.2,0.00056817,5854.2,-0.00013982,534.56,-0.000211,-0.24313,0.021962
24684,2.1125,5.0909,0.1,0.0005554,5550.2,0.00056298,5817,-0.0001341,579.44,-0.00021125,-0.18357,0.024341
24685,2.0207,5.3636,0.1,0.00056955,5691.6,0.00057525,5879,-0.00015452,395.8,-0.00020725,-0.3397,0.021309
24686,2.1125,5.2727,0.1,0.00056334,5629.5,0.00056962,5840.2,-0.00014796,448.59,-0.0002077,-0.29001,0.023706
24687,2.0207,5.5455,0.1,0.00057896,5785.6,0.00058286,5908.5,-0.00016957,255.02,-0.00020361,-0.72957,0.02056
24688,2.1125,5.4545,0.1,0.00057209,5716.9,0.00057679,5867.6,-0.00016225,314.78,-0.0002042,-0.37817,0.02298
24689,2.0207,5.7273,0.1,0.00058969,5892.9,0.00059148,5946.9,-0.00018518,111.37,-0.00020023,-1.659,0.019705
24690,2.1125,5.6364,0.1,0.00058157,5811.7,0.0005844,5899.1,-0.00017674,180.17,-0.00020086,-1.0924,0.022151
24691,2.1125,5.8182,0.1,0.00059273,5923.3,0.00059338,5942.4,-0.00019181,42.831,-0.00019807,-4.1705,0.021212
24692,2.0207,5.9091,0.1,0.00059532,5949.1,0.00059552,5954.9,-0.00019533,12.714,-0.00019719,-1.2135,0.018735
24693,2.2043,0.27273,0.1,0.00058458,5841.7,0.00058633,5894.8,-0.00018369,109.19,-0.00019841,-1.4039,0.023785
24694,2.2962,0.18182,0.1,0.00058689,5864.8,0.0005876,5886.2,-0.00018966,46.096,-0.00019621,-3.1533,0.025461
24695,2.2043,0.090909,0.1,0.00059016,5897.5,0.00059042,5905.4,-0.00019332,16.639,-0.00019565,-0.93138,0.02276
24696,2.2043,0.45455,0.1,0.00057467,5742.8,0.00057836,5858.5,-0.00016947,239.59,-0.00020144,-0.65153,0.024694
24697,2.2962,0.36364,0.1,0.00057667,5762.7,0.00057937,5846,-0.00017586,171.45,-0.00019881,-0.97431,0.026452
24698,2.2043,0.63636,0.1,0.00056585,5654.6,0.00057119,5829.1,-0.00015573,367.32,-0.00020465,-0.30354,0.025496
24699,2.2962,0.54545,0.1,0.00056783,5674.4,0.00057225,5815.4,-0.00016262,293.89,-0.00020178,-0.33608,0.027332
24700,2.2043,0.81818,0.1,0.00055771,5573.2,0.00056445,5803.3,-0.00014227,493.28,-0.00020795,-0.21948,0.026201
24701,2.2962,0.72727,0.1,0.00055958,5592,0.00056549,5788,-0.00014955,415.46,-0.00020488,-0.26159,0.028109
24702,2.2043,1,0.1,0.00055033,5499.5,0.00055821,5781.2,-0.00012933,615.33,-0.00021125,-0.14473,0.026817
24703,2.2962,0.90909,0.1,0.00055198,5516,0.00055913,5763.7,-0.00013684,534.52,-0.000208,-0.1667,0.028791
24704,2.2043,1.1818,0.1,0.00054382,5434.5,0.00055255,5763,-0.00011714,731.14,-0.00021446,-0.098466,0.027352
24705,2.2962,1.0909,0.1,0.00054514,5447.6,0.00055326,5742.9,-0.00012471,648.82,-0.00021108,-0.11572,0.029388
24706,2.2043,1.3636,0.1,0.00053821,5378.4,0.00054754,5748.4,-0.00010589,838.76,-0.00021753,-0.064815,0.027813
24707,2.2962,1.2727,0.1,0.00053911,5387.3,0.00054797,5725.5,-0.00011338,756.38,-0.00021406,-0.076521,0.029906
24708,2.2043,1.5455,0.1,0.00053348,5331.1,0.0005432,5737.4,-9.5733e-05,936.65,-0.0002204,-0.041894,0.028208
24709,2.2962,1.4545,0.1,0.00053392,5335.5,0.0005433,5711.5,-0.000103,855.51,-0.00021687,-0.049681,0.030353
24710,2.2043,1.7273,0.1,0.0005296,5292.4,0.00053953,5729.5,-8.6755e-05,1023.8,-0.00022301,-0.026426,0.028543
24711,2.2962,1.6364,0.1,0.00052956,5291.9,0.00053926,5700.7,-9.3689e-05,944.98,-0.00021946,-0.03086,0.030734
24712,2.2043,1.9091,0.1,0.0005265,5261.3,0.00053651,5724.2,-7.9008e-05,1099.4,-0.00022534,-0.016442,0.028822
24713,2.2962,1.8182,0.1,0.00052597,5256.1,0.00053585,5692.7,-8.5527e-05,1023.9,-0.0002218,-0.018218,0.031056
24714,2.2043,2.0909,0.1,0.00052407,5237.1,0.00053407,5720.9,-7.2506e-05,1163.3,-0.00022734,-0.010271,0.029052
24715,2.2962,2,0.1,0.0005231,5227.4,0.00053304,5687,-7.855e-05,1091.8,-0.00022385,-0.0099748,0.031323
24716,2.2043,2.2727,0.1,0.00052223,5218.7,0.00053218,5719.2,-6.7239e-05,1215.4,-0.000229,-0.0066665,0.029234
24717,2.2962,2.1818,0.1,0.00052086,5205,0.0005308,5683.2,-7.2769e-05,1148.3,-0.0002256,-0.0048302,0.031539
24718,2.2043,2.4545,0.1,0.0005209,5205.4,0.00053077,5718.4,-6.3183e-05,1255.7,-0.0002303,-0.0047001,0.029373
24719,2.2962,2.3636,0.1,0.00051917,5188.1,0.00052907,5680.8,-6.8177e-05,1193.4,-0.00022701,-0.0017718,0.031709
24720,2.2043,2.6364,0.1,0.00052001,5196.5,0.0005298,5718.2,-6.0312e-05,1284.3,-0.00023124,-0.0037168,0.02947
24721,2.2962,2.5455,0.1,0.00051797,5176.2,0.00052782,5679.5,-6.4757e-05,1227.1,-0.00022807,-6.1339e-05,0.031833
24722,2.2043,2.8182,0.1,0.00051949,5191.3,0.00052924,5718.2,-5.86e-05,1301.4,-0.00023181,-0.0032868,0.029528
24723,2.2962,2.7273,0.1,0.00051721,5168.5,0.000527,5678.7,-6.2491e-05,1249.5,-0.00022879,0.00081496,0.031915
24724,2.2043,3,0.1,0.00051932,5189.7,0.00052905,5718.2,-5.8031e-05,1307.1,-0.000232,-0.0031694,0.029547
24725,2.2962,2.9091,0.1,0.00051684,5164.8,0.0005266,5678.4,-6.1362e-05,1260.7,-0.00022915,0.0011767,0.031956
24726,2.2043,3.1818,0.1,0.00051949,5191.3,0.00052924,5718.2,-5.86e-05,1301.4,-0.00023181,-0.0032868,0.029528
24727,2.2962,3.0909,0.1,0.00051684,5164.8,0.0005266,5678.4,-6.1362e-05,1260.7,-0.00022915,0.0011766,0.031956
24728,2.2043,3.3636,0.1,0.00052001,5196.5,0.0005298,5718.2,-6.0312e-05,1284.3,-0.00023124,-0.0037167,0.02947
24729,2.2962,3.2727,0.1,0.00051721,5168.5,0.000527,5678.7,-6.2491e-05,1249.5,-0.00022879,0.00081502,0.031915
24730,2.2043,3.5455,0.1,0.0005209,5205.4,0.00053077,5718.4,-6.3183e-05,1255.7,-0.0002303,-0.0047,0.029373
24731,2.2962,3.4545,0.1,0.00051797,5176.2,0.00052782,5679.5,-6.4757e-05,1227.1,-0.00022807,-6.1277e-05,0.031833
24732,2.2043,3.7273,0.1,0.00052223,5218.7,0.00053218,5719.2,-6.7239e-05,1215.4,-0.000229,-0.0066663,0.029234
24733,2.2962,3.6364,0.1,0.00051917,5188.1,0.00052907,5680.8,-6.8177e-05,1193.4,-0.00022701,-0.0017716,0.031709
24734,2.2043,3.9091,0.1,0.00052407,5237.1,0.00053407,5720.9,-7.2506e-05,1163.3,-0.00022734,-0.01027,0.029052
24735,2.2962,3.8182,0.1,0.00052086,5205,0.0005308,5683.2,-7.2769e-05,1148.3,-0.0002256,-0.00483,0.031539
24736,2.2043,4.0909,0.1,0.0005265,5261.3,0.00053651,5724.2,-7.9008e-05,1099.4,-0.00022534,-0.016442,0.028822
24737,2.2962,4,0.1,0.0005231,5227.4,0.00053304,5687,-7.855e-05,1091.8,-0.00022385,-0.0099745,0.031323
24738,2.2043,4.2727,0.1,0.0005296,5292.4,0.00053953,5729.5,-8.6755e-05,1023.8,-0.00022301,-0.026426,0.028543
24739,2.2962,4.1818,0.1,0.00052597,5256.1,0.00053585,5692.7,-8.5527e-05,1023.9,-0.0002218,-0.018218,0.031056
24740,2.2043,4.4545,0.1,0.00053348,5331.1,0.0005432,5737.4,-9.5733e-05,936.65,-0.0002204,-0.041894,0.028208
24741,2.2962,4.3636,0.1,0.00052956,5291.9,0.00053926,5700.7,-9.3689e-05,944.98,-0.00021946,-0.03086,0.030734
24742,2.2043,4.6364,0.1,0.00053821,5378.4,0.00054754,5748.4,-0.00010589,838.76,-0.00021753,-0.064815,0.027813
24743,2.2962,4.5455,0.1,0.00053392,5335.5,0.0005433,5711.5,-0.000103,855.51,-0.00021687,-0.049681,0.030353
24744,2.2043,4.8182,0.1,0.00054382,5434.5,0.00055255,5763,-0.00011714,731.14,-0.00021446,-0.098466,0.027352
24745,2.2962,4.7273,0.1,0.00053911,5387.3,0.00054797,5725.5,-0.00011338,756.38,-0.00021406,-0.076521,0.029906
24746,2.2043,5,0.1,0.00055033,5499.5,0.00055821,5781.2,-0.00012933,615.33,-0.00021125,-0.14473,0.026817
24747,2.2962,4.9091,0.1,0.00054514,5447.6,0.00055326,5742.9,-0.00012471,648.82,-0.00021108,-0.11572,0.029388
24748,2.2043,5.1818,0.1,0.00055771,5573.2,0.00056445,5803.3,-0.00014227,493.28,-0.00020795,-0.21948,0.026201
24749,2.2962,5.0909,0.1,0.00055198,5516,0.00055913,5763.7,-0.00013684,534.52,-0.000208,-0.1667,0.028791
24750,2.2043,5.3636,0.1,0.00056585,5654.6,0.00057119,5829.1,-0.00015573,367.32,-0.00020465,-0.30354,0.025496
24751,2.2962,5.2727,0.1,0.00055958,5592,0.00056549,5788,-0.00014955,415.46,-0.00020488,-0.26159,0.028109
24752,2.2043,5.5455,0.1,0.00057467,5742.8,0.00057836,5858.5,-0.00016947,239.59,-0.00020144,-0.65153,0.024694
24753,2.2962,5.4545,0.1,0.00056783,5674.4,0.00057225,5815.4,-0.00016262,293.89,-0.00020178,-0.33608,0.027332
24754,2.2043,5.7273,0.1,0.00058458,5841.7,0.00058633,5894.8,-0.00018369,109.19,-0.00019841,-1.4039,0.023785
24755,2.2962,5.6364,0.1,0.00057667,5762.7,0.00057937,5846,-0.00017586,171.45,-0.00019881,-0.97431,0.026452
24756,2.2962,5.8182,0.1,0.00058689,5864.8,0.0005876,5886.2,-0.00018966,46.096,-0.00019621,-3.1533,0.025461
24757,2.2043,5.9091,0.1,0.00059016,5897.5,0.00059042,5905.4,-0.00019332,16.639,-0.00019565,-0.93138,0.02276
24758,2.388,0.27273,0.1,0.00057896,5785.6,0.00058068,5837.5,-0.00018206,106.61,-0.00019641,-1.1981,0.028254
24759,2.4799,0.18182,0.1,0.00058067,5802.7,0.00058144,5825.5,-0.00018745,48.445,-0.00019422,-2.4479,0.030101
24760,2.388,0.090909,0.1,0.00058446,5840.5,0.00058477,5850,-0.00019119,19.677,-0.00019391,-0.76869,0.027181
24761,2.388,0.45455,0.1,0.00056981,5694.2,0.0005733,5803.2,-0.00016906,225.45,-0.00019914,-0.58445,0.029213
24762,2.4799,0.36364,0.1,0.0005713,5709,0.00057388,5788.4,-0.0001748,163.1,-0.00019662,-0.87252,0.031139
24763,2.388,0.63636,0.1,0.00056155,5611.6,0.00056657,5774.5,-0.00015648,341.8,-0.00020201,-0.27278,0.030063
24764,2.4799,0.54545,0.1,0.00056306,5626.7,0.00056723,5759,-0.00016266,274.89,-0.00019929,-0.29978,0.032065
24765,2.388,0.81818,0.1,0.00055384,5534.5,0.00056018,5748.5,-0.00014414,456.51,-0.00020493,-0.19937,0.030815
24766,2.4799,0.72727,0.1,0.00055531,5549.3,0.00056086,5731.9,-0.00015068,385.71,-0.00020205,-0.23661,0.032888
24767,2.388,1,0.1,0.00054676,5463.8,0.0005542,5725.5,-0.00013224,567.88,-0.00020784,-0.13246,0.031476
24768,2.4799,0.90909,0.1,0.00054809,5477.1,0.00055481,5707.4,-0.000139,494.31,-0.00020481,-0.15176,0.033615
24769,2.388,1.1818,0.1,0.00054039,5400.2,0.00054869,5705.5,-0.00012096,673.99,-0.00021068,-0.090465,0.032053
24770,2.4799,1.0909,0.1,0.00054149,5411.1,0.00054918,5685.6,-0.00012783,598.83,-0.00020754,-0.10599,0.034254
24771,2.388,1.3636,0.1,0.00053479,5344.2,0.00054373,5688.6,-0.00011049,773.13,-0.00021339,-0.059103,0.032554
24772,2.4799,1.2727,0.1,0.00053558,5352.1,0.00054402,5666.6,-0.00011732,697.59,-0.00021017,-0.070024,0.034811
24773,2.388,1.5455,0.1,0.00052997,5296,0.00053935,5674.8,-0.00010095,863.9,-0.00021593,-0.036976,0.032985
24774,2.4799,1.4545,0.1,0.00053039,5300.3,0.00053939,5650.5,-0.00010763,789.12,-0.00021266,-0.044701,0.035294
24775,2.388,1.7273,0.1,0.0005259,5255.4,0.00053556,5663.8,-9.2445e-05,945.24,-0.00021825,-0.021376,0.033352
24776,2.4799,1.6364,0.1,0.00052594,5255.7,0.00053531,5637.3,-9.8876e-05,872.22,-0.00021496,-0.026299,0.035708
24777,2.388,1.9091,0.1,0.00052255,5221.9,0.00053237,5655.4,-8.5046e-05,1016.4,-0.00022032,-0.010743,0.03366
24778,2.4799,1.8182,0.1,0.00052219,5218.3,0.00053181,5626.6,-9.1141e-05,945.99,-0.00021705,-0.013379,0.036059
24779,2.388,2.0909,0.1,0.00051987,5195.1,0.00052974,5649.1,-7.8786e-05,1076.9,-0.00022211,-0.0037138,0.033913
24780,2.4799,2,0.1,0.00051912,5187.6,0.00052887,5618.3,-8.448e-05,1009.8,-0.00021888,-0.0044969,0.036352
24781,2.388,2.2727,0.1,0.00051778,5174.2,0.00052766,5644.7,-7.3676e-05,1126.5,-0.0002236,0.00075343,0.034115
24782,2.4799,2.1818,0.1,0.00051667,5163.1,0.00052648,5612,-7.8922e-05,1063.3,-0.00022044,0.001412,0.036589
24783,2.388,2.4545,0.1,0.00051623,5158.7,0.00052608,5641.6,-6.9718e-05,1165,-0.00022477,0.0034647,0.034269
24784,2.4799,2.3636,0.1,0.00051479,5144.3,0.0005246,5607.5,-7.448e-05,1106.2,-0.0002217,0.005202,0.036775
24785,2.388,2.6364,0.1,0.00051516,5148.1,0.00052498,5639.7,-6.6901e-05,1192.6,-0.00022562,0.0050083,0.034377
24786,2.4799,2.5455,0.1,0.00051343,5130.7,0.00052323,5604.3,-7.1155e-05,1138.4,-0.00022266,0.0075161,0.036913
24787,2.388,2.8182,0.1,0.00051454,5141.9,0.00052433,5638.7,-6.5217e-05,1209,-0.00022613,0.0057824,0.034442
24788,2.4799,2.7273,0.1,0.00051255,5121.9,0.00052232,5602.4,-6.8944e-05,1159.8,-0.00022331,0.0088154,0.037003
24789,2.388,3,0.1,0.00051434,5139.8,0.00052411,5638.3,-6.4656e-05,1214.5,-0.0002263,0.0060156,0.034463
24790,2.4799,2.9091,0.1,0.00051211,5117.6,0.00052188,5601.5,-6.7839e-05,1170.6,-0.00022363,0.0093937,0.037048
24791,2.388,3.1818,0.1,0.00051454,5141.9,0.00052433,5638.7,-6.5217e-05,1209,-0.00022613,0.0057824,0.034442
24792,2.4799,3.0909,0.1,0.00051211,5117.6,0.00052188,5601.5,-6.7839e-05,1170.6,-0.00022363,0.0093937,0.037048
24793,2.388,3.3636,0.1,0.00051516,5148.1,0.00052498,5639.7,-6.6901e-05,1192.6,-0.00022562,0.0050083,0.034377
24794,2.4799,3.2727,0.1,0.00051255,5121.9,0.00052232,5602.4,-6.8944e-05,1159.8,-0.00022331,0.0088155,0.037003
24795,2.388,3.5455,0.1,0.00051623,5158.7,0.00052608,5641.6,-6.9718e-05,1165,-0.00022477,0.0034648,0.034269
24796,2.4799,3.4545,0.1,0.00051343,5130.7,0.00052323,5604.3,-7.1155e-05,1138.4,-0.00022266,0.0075162,0.036913
24797,2.388,3.7273,0.1,0.00051778,5174.2,0.00052766,5644.7,-7.3676e-05,1126.5,-0.0002236,0.00075362,0.034115
24798,2.4799,3.6364,0.1,0.00051479,5144.3,0.0005246,5607.5,-7.448e-05,1106.2,-0.0002217,0.0052022,0.036775
24799,2.388,3.9091,0.1,0.00051987,5195.1,0.00052974,5649.1,-7.8786e-05,1076.9,-0.00022211,-0.0037135,0.033913
24800,2.4799,3.8182,0.1,0.00051667,5163.1,0.00052648,5612,-7.8922e-05,1063.3,-0.00022044,0.0014122,0.036589
24801,2.388,4.0909,0.1,0.00052255,5221.9,0.00053237,5655.4,-8.5046e-05,1016.4,-0.00022032,-0.010743,0.03366
24802,2.4799,4,0.1,0.00051912,5187.6,0.00052887,5618.3,-8.448e-05,1009.8,-0.00021888,-0.0044966,0.036352
24803,2.388,4.2727,0.1,0.0005259,5255.4,0.00053556,5663.8,-9.2445e-05,945.24,-0.00021825,-0.021376,0.033352
24804,2.4799,4.1818,0.1,0.00052219,5218.3,0.00053181,5626.6,-9.1141e-05,945.99,-0.00021705,-0.013379,0.036059
24805,2.388,4.4545,0.1,0.00052997,5296,0.00053935,5674.8,-0.00010095,863.9,-0.00021593,-0.036976,0.032985
24806,2.4799,4.3636,0.1,0.00052594,5255.7,0.00053531,5637.3,-9.8876e-05,872.22,-0.00021496,-0.026299,0.035708
24807,2.388,4.6364,0.1,0.00053479,5344.2,0.00054373,5688.6,-0.00011049,773.13,-0.00021339,-0.059102,0.032554
24808,2.4799,4.5455,0.1,0.00053039,5300.3,0.00053939,5650.5,-0.00010763,789.12,-0.00021266,-0.0447,0.035294
24809,2.388,4.8182,0.1,0.00054039,5400.2,0.00054869,5705.5,-0.00012096,673.99,-0.00021068,-0.090465,0.032053
24810,2.4799,4.7273,0.1,0.00053558,5352.1,0.00054402,5666.6,-0.00011732,697.59,-0.00021017,-0.070024,0.034811
24811,2.388,5,0.1,0.00054676,5463.8,0.0005542,5725.5,-0.00013224,567.88,-0.00020784,-0.13246,0.031476
24812,2.4799,4.9091,0.1,0.00054149,5411.1,0.00054918,5685.6,-0.00012783,598.83,-0.00020754,-0.10599,0.034254
24813,2.388,5.1818,0.1,0.00055384,5534.5,0.00056018,5748.5,-0.00014414,456.51,-0.00020493,-0.19937,0.030815
24814,2.4799,5.0909,0.1,0.00054809,5477.1,0.00055481,5707.4,-0.000139,494.31,-0.00020481,-0.15176,0.033615
24815,2.388,5.3636,0.1,0.00056155,5611.6,0.00056657,5774.5,-0.00015648,341.8,-0.00020201,-0.27278,0.030063
24816,2.4799,5.2727,0.1,0.00055531,5549.3,0.00056086,5731.9,-0.00015068,385.71,-0.00020205,-0.23661,0.032888
24817,2.388,5.5455,0.1,0.00056981,5694.2,0.0005733,5803.2,-0.00016906,225.45,-0.00019914,-0.58445,0.029213
24818,2.4799,5.4545,0.1,0.00056306,5626.7,0.00056723,5759,-0.00016266,274.89,-0.00019929,-0.29978,0.032065
24819,2.388,5.7273,0.1,0.00057896,5785.6,0.00058068,5837.5,-0.00018206,106.61,-0.00019641,-1.1981,0.028254
24820,2.4799,5.6364,0.1,0.0005713,5709,0.00057388,5788.4,-0.0001748,163.1,-0.00019662,-0.87252,0.031139
24821,2.4799,5.8182,0.1,0.00058067,5802.7,0.00058144,5825.5,-0.00018745,48.445,-0.00019422,-2.4479,0.030101
24822,2.388,5.9091,0.1,0.00058446,5840.5,0.00058477,5850,-0.00019119,19.677,-0.00019391,-0.76869,0.027181
24823,2.5717,0.27273,0.1,0.00057299,5726,0.00057467,5776.6,-0.00018035,103.65,-0.00019428,-1.0297,0.033111
24824,2.6636,0.18182,0.1,0.00057421,5738.1,0.00057501,5762,-0.00018521,49.951,-0.00019212,-1.9409,0.035129
24825,2.5717,0.090909,0.1,0.00057838,5779.8,0.00057874,5790.4,-0.000189,21.93,-0.000192,-0.65931,0.031993
24826,2.5717,0.45455,0.1,0.00056454,5641.5,0.00056784,5744.4,-0.00016843,212.28,-0.00019676,-0.52541,0.034114
24827,2.6636,0.36364,0.1,0.0005656,5652.1,0.00056807,5727.6,-0.0001736,155.01,-0.00019434,-0.7838,0.036209
24828,2.5717,0.63636,0.1,0.00055681,5564.3,0.00056154,5716.6,-0.00015689,318.59,-0.00019932,-0.24521,0.035009
24829,2.6636,0.54545,0.1,0.00055793,5575.5,0.00056186,5699.5,-0.00016245,257.36,-0.00019674,-0.26788,0.037177
24830,2.5717,0.81818,0.1,0.00054954,5491.6,0.00055551,5690.9,-0.00014556,423.33,-0.00020193,-0.18081,0.035803
24831,2.6636,0.72727,0.1,0.00055066,5502.8,0.00055588,5673.2,-0.00015145,358.66,-0.00019921,-0.21406,0.038042
24832,2.5717,1,0.1,0.00054279,5424.2,0.00054981,5667.6,-0.00013461,525.12,-0.00020451,-0.12075,0.036506
24833,2.6636,0.90909,0.1,0.00054383,5434.5,0.00055016,5648.9,-0.00014072,457.91,-0.00020168,-0.13793,0.038809
24834,2.5717,1.1818,0.1,0.00053665,5362.8,0.00054452,5646.8,-0.00012419,622.36,-0.00020703,-0.082674,0.037122
24835,2.6636,1.0909,0.1,0.00053752,5371.5,0.00054479,5626.8,-0.00013041,553.58,-0.0002041,-0.096801,0.039486
24836,2.5717,1.3636,0.1,0.00053116,5307.9,0.00053968,5628.5,-0.00011446,713.56,-0.00020944,-0.053632,0.037659
24837,2.6636,1.2727,0.1,0.0005318,5314.3,0.00053982,5607,-0.00012069,644.23,-0.00020644,-0.063901,0.04008
24838,2.5717,1.5455,0.1,0.00052634,5259.8,0.00053535,5613,-0.00010555,797.47,-0.00021169,-0.032559,0.038124
24839,2.6636,1.4545,0.1,0.00052671,5263.5,0.0005353,5589.8,-0.00011168,728.57,-0.00020865,-0.040219,0.040597
24840,2.5717,1.7273,0.1,0.00052221,5218.5,0.00053155,5600,-9.756e-05,873.06,-0.00021376,-0.017174,0.038521
24841,2.6636,1.6364,0.1,0.00052227,5219.1,0.00053128,5575,-0.0001035,805.48,-0.0002107,-0.022511,0.041042
24842,2.5717,1.9091,0.1,0.00051875,5183.9,0.0005283,5589.4,-9.0558e-05,939.54,-0.0002156,-0.0062323,0.038855
24843,2.6636,1.8182,0.1,0.00051847,5181.1,0.00052778,5562.6,-9.6221e-05,874.1,-0.00021256,-0.0096336,0.04142
24844,2.5717,2.0909,0.1,0.00051591,5155.6,0.00052558,5581,-8.4594e-05,996.38,-0.0002172,0.0013713,0.03913
24845,2.6636,2,0.1,0.00051531,5149.5,0.0005248,5552.5,-8.9919e-05,933.75,-0.00021419,-0.00041182,0.041736
24846,2.5717,2.2727,0.1,0.00051367,5133.1,0.0005234,5574.6,-7.97e-05,1043.2,-0.00021854,0.0064916,0.039351
24847,2.6636,2.1818,0.1,0.00051274,5123.9,0.00052234,5544.5,-8.4631e-05,983.96,-0.00021559,0.0060165,0.041993
24848,2.5717,2.4545,0.1,0.00051198,5116.2,0.00052172,5569.9,-7.5888e-05,1079.7,-0.00021959,0.0098072,0.03952
24849,2.6636,2.3636,0.1,0.00051074,5103.9,0.00052039,5538.4,-8.0385e-05,1024.4,-0.00021672,0.010357,0.042196
24850,2.5717,2.6364,0.1,0.0005108,5104.5,0.00052054,5566.8,-7.3166e-05,1105.9,-0.00022035,0.011826,0.039638
24851,2.6636,2.5455,0.1,0.00050928,5089.3,0.00051895,5534,-7.7193e-05,1054.8,-0.00021758,0.013153,0.042345
24852,2.5717,2.8182,0.1,0.0005101,5097.5,0.00051984,5564.9,-7.1533e-05,1121.6,-0.00022081,0.012901,0.039709
24853,2.6636,2.7273,0.1,0.00050832,5079.7,0.000518,5531.2,-7.5064e-05,1075.2,-0.00021816,0.014803,0.042444
24854,2.5717,3,0.1,0.00050988,5095.2,0.00051961,5564.3,-7.0989e-05,1126.8,-0.00022096,0.013236,0.039733
24855,2.6636,2.9091,0.1,0.00050785,5074.9,0.00051752,5529.8,-7.3998e-05,1085.4,-0.00021845,0.015564,0.042493
24856,2.5717,3.1818,0.1,0.0005101,5097.5,0.00051984,5564.9,-7.1533e-05,1121.6,-0.00022081,0.012901,0.039709
24857,2.6636,3.0909,0.1,0.00050784,5074.9,0.00051752,5529.8,-7.3998e-05,1085.4,-0.00021845,0.015564,0.042493
24858,2.5717,3.3636,0.1,0.0005108,5104.5,0.00052054,5566.8,-7.3166e-05,1105.9,-0.00022035,0.011826,0.039638
24859,2.6636,3.2727,0.1,0.00050832,5079.7,0.000518,5531.2,-7.5064e-05,1075.2,-0.00021816,0.014803,0.042444
24860,2.5717,3.5455,0.1,0.00051198,5116.2,0.00052172,5569.9,-7.5888e-05,1079.7,-0.00021959,0.0098073,0.03952
24861,2.6636,3.4545,0.1,0.00050928,5089.3,0.00051895,5534,-7.7193e-05,1054.8,-0.00021758,0.013153,0.042345
24862,2.5717,3.7273,0.1,0.00051367,5133.1,0.0005234,5574.6,-7.97e-05,1043.2,-0.00021854,0.0064918,0.039351
24863,2.6636,3.6364,0.1,0.00051074,5103.9,0.00052039,5538.4,-8.0385e-05,1024.4,-0.00021672,0.010357,0.042196
24864,2.5717,3.9091,0.1,0.00051591,5155.6,0.00052558,5581,-8.4594e-05,996.38,-0.0002172,0.0013715,0.03913
24865,2.6636,3.8182,0.1,0.00051274,5123.9,0.00052234,5544.5,-8.4631e-05,983.96,-0.00021559,0.0060167,0.041993
24866,2.5717,4.0909,0.1,0.00051875,5183.9,0.0005283,5589.4,-9.0558e-05,939.54,-0.0002156,-0.0062321,0.038855
24867,2.6636,4,0.1,0.00051531,5149.5,0.0005248,5552.5,-8.9919e-05,933.75,-0.00021419,-0.00041153,0.041736
24868,2.5717,4.2727,0.1,0.00052221,5218.5,0.00053155,5600,-9.756e-05,873.06,-0.00021376,-0.017174,0.038521
24869,2.6636,4.1818,0.1,0.00051847,5181.1,0.00052778,5562.6,-9.6221e-05,874.1,-0.00021256,-0.0096334,0.04142
24870,2.5717,4.4545,0.1,0.00052634,5259.8,0.00053535,5613,-0.00010555,797.47,-0.00021169,-0.032559,0.038124
24871,2.6636,4.3636,0.1,0.00052227,5219.1,0.00053128,5575,-0.0001035,805.48,-0.0002107,-0.022511,0.041042
24872,2.5717,4.6364,0.1,0.00053116,5307.9,0.00053968,5628.5,-0.00011446,713.56,-0.00020944,-0.053632,0.037659
24873,2.6636,4.5455,0.1,0.00052671,5263.5,0.0005353,5589.8,-0.00011168,728.57,-0.00020865,-0.040218,0.040597
24874,2.5717,4.8182,0.1,0.00053665,5362.8,0.00054452,5646.8,-0.00012419,622.36,-0.00020703,-0.082674,0.037122
24875,2.6636,4.7273,0.1,0.0005318,5314.3,0.00053982,5607,-0.00012069,644.23,-0.00020644,-0.063901,0.04008
24876,2.5717,5,0.1,0.00054279,5424.2,0.00054981,5667.6,-0.00013461,525.12,-0.00020451,-0.12075,0.036506
24877,2.6636,4.9091,0.1,0.00053752,5371.5,0.00054479,5626.8,-0.00013041,553.58,-0.0002041,-0.096801,0.039486
24878,2.5717,5.1818,0.1,0.00054954,5491.6,0.00055551,5690.9,-0.00014556,423.33,-0.00020193,-0.18081,0.035803
24879,2.6636,5.0909,0.1,0.00054383,5434.5,0.00055016,5648.9,-0.00014072,457.91,-0.00020168,-0.13793,0.038809
24880,2.5717,5.3636,0.1,0.00055681,5564.3,0.00056154,5716.6,-0.00015689,318.59,-0.00019932,-0.24521,0.035009
24881,2.6636,5.2727,0.1,0.00055066,5502.8,0.00055588,5673.2,-0.00015145,358.66,-0.00019921,-0.21406,0.038042
24882,2.5717,5.5455,0.1,0.00056454,5641.5,0.00056784,5744.4,-0.00016843,212.28,-0.00019676,-0.52541,0.034114
24883,2.6636,5.4545,0.1,0.00055793,5575.5,0.00056186,5699.5,-0.00016245,257.36,-0.00019674,-0.26788,0.037177
24884,2.5717,5.7273,0.1,0.00057299,5726,0.00057467,5776.6,-0.00018035,103.65,-0.00019428,-1.0297,0.033111
24885,2.6636,5.6364,0.1,0.0005656,5652.1,0.00056807,5727.6,-0.0001736,155.01,-0.00019434,-0.7838,0.036209
24886,2.6636,5.8182,0.1,0.00057421,5738.1,0.00057501,5762,-0.00018521,49.951,-0.00019212,-1.9409,0.035129
24887,2.5717,5.9091,0.1,0.00057838,5779.8,0.00057874,5790.4,-0.000189,21.93,-0.000192,-0.65931,0.031993
24888,2.7554,0.27273,0.1,0.0005668,5664.1,0.00056843,5713.2,-0.0001786,100.34,-0.00019207,-0.89064,0.038352
24889,2.8473,0.18182,0.1,0.0005676,5672.1,0.00056842,5696.5,-0.00018299,50.706,-0.00018994,-1.5655,0.040542
24890,2.7554,0.090909,0.1,0.00057205,5716.5,0.00057243,5727.9,-0.00018678,23.508,-0.00018999,-0.57871,0.037194
24891,2.7554,0.45455,0.1,0.00055898,5586,0.00056211,5683,-0.00016765,199.87,-0.00019432,-0.47344,0.039394
24892,2.8473,0.36364,0.1,0.00055969,5593,0.00056203,5664.7,-0.00017232,147.12,-0.00019199,-0.70606,0.041659
24893,2.7554,0.63636,0.1,0.00055177,5513.8,0.00055622,5656.3,-0.00015704,297.24,-0.00019663,-0.22076,0.040329
24894,2.8473,0.54545,0.1,0.00055254,5521.6,0.00055624,5638,-0.00016206,241.02,-0.00019417,-0.23984,0.042665
24895,2.7554,0.81818,0.1,0.00054493,5445.5,0.00055055,5631.3,-0.00014662,393.08,-0.00019896,-0.16404,0.041163
24896,2.8473,0.72727,0.1,0.00054573,5453.6,0.00055064,5612.7,-0.00015194,333.82,-0.00019639,-0.19381,0.043567
24897,2.7554,1,0.1,0.00053854,5381.6,0.00054515,5608.2,-0.00013654,486.24,-0.00020127,-0.11002,0.041903
24898,2.8473,0.90909,0.1,0.0005393,5389.2,0.00054526,5588.9,-0.00014206,424.68,-0.0001986,-0.12532,0.044371
24899,2.7554,1.1818,0.1,0.00053265,5322.9,0.0005401,5587.1,-0.00012692,575.38,-0.00020351,-0.075513,0.042555
24900,2.8473,1.0909,0.1,0.00053331,5329.4,0.00054017,5567,-0.00013257,512.32,-0.00020076,-0.088304,0.045083
24901,2.7554,1.3636,0.1,0.00052734,5269.7,0.00053545,5568.3,-0.00011791,659.2,-0.00020565,-0.048744,0.043126
24902,2.8473,1.2727,0.1,0.00052782,5274.6,0.00053542,5547,-0.00012358,595.52,-0.00020285,-0.058265,0.045711
24903,2.7554,1.5455,0.1,0.00052262,5222.6,0.00053123,5551.7,-0.00010962,736.59,-0.00020766,-0.028883,0.043621
24904,2.8473,1.4545,0.1,0.00052289,5225.3,0.00053108,5529.2,-0.00011523,673.12,-0.00020482,-0.03626,0.046258
24905,2.7554,1.7273,0.1,0.00051851,5181.5,0.0005275,5537.5,-0.00010215,806.59,-0.0002095,-0.013972,0.044046
24906,2.8473,1.6364,0.1,0.00051853,5181.8,0.00052717,5513.6,-0.00010761,744.13,-0.00020665,-0.019425,0.046731
24907,2.7554,1.9091,0.1,0.00051502,5146.6,0.00052426,5525.6,-9.5569e-05,868.41,-0.00021115,-0.0030094,0.044405
24908,2.8473,1.8182,0.1,0.00051477,5144.1,0.00052373,5500.2,-0.00010081,807.71,-0.00020831,-0.006837,0.047135
24909,2.7554,2.0909,0.1,0.00051212,5117.7,0.00052153,5515.8,-8.9938e-05,921.47,-0.00021258,0.0049023,0.044701
24910,2.8473,2,0.1,0.00051159,5112.3,0.00052077,5489,-9.4884e-05,863.18,-0.00020977,0.0024688,0.047473
24911,2.7554,2.2727,0.1,0.0005098,5094.5,0.00051931,5508.1,-8.5294e-05,965.33,-0.00021377,0.010456,0.04494
24912,2.8473,2.1818,0.1,0.00050898,5086.3,0.00051831,5479.9,-8.9895e-05,910.04,-0.00021101,0.0091873,0.047749
24913,2.7554,2.4545,0.1,0.00050803,5076.8,0.0005176,5502.3,-8.1664e-05,999.69,-0.00021471,0.014212,0.045122
24914,2.8473,2.3636,0.1,0.00050693,5065.8,0.00051635,5472.8,-8.5873e-05,947.89,-0.00021203,0.013894,0.047967
24915,2.7554,2.6364,0.1,0.00050679,5064.4,0.00051638,5498.3,-7.9063e-05,1024.4,-0.00021539,0.016595,0.045251
24916,2.8473,2.5455,0.1,0.00050541,5050.6,0.00051489,5467.6,-8.284e-05,976.47,-0.0002128,0.017036,0.048128
24917,2.7554,2.8182,0.1,0.00050605,5057,0.00051565,5495.9,-7.75e-05,1039.2,-0.0002158,0.017907,0.045327
24918,2.8473,2.7273,0.1,0.00050441,5040.6,0.00051391,5464.2,-8.0812e-05,995.62,-0.00021332,0.018949,0.048234
24919,2.7554,3,0.1,0.00050581,5054.6,0.00051541,5495.1,-7.6978e-05,1044.1,-0.00021594,0.018325,0.045353
24920,2.8473,2.9091,0.1,0.00050392,5035.7,0.00051343,5462.5,-7.9796e-05,1005.2,-0.00021358,0.019851,0.048287
24921,2.7554,3.1818,0.1,0.00050605,5057,0.00051565,5495.9,-7.75e-05,1039.2,-0.0002158,0.017907,0.045327
24922,2.8473,3.0909,0.1,0.00050392,5035.7,0.00051343,5462.5,-7.9796e-05,1005.2,-0.00021358,0.019851,0.048287
24923,2.7554,3.3636,0.1,0.00050679,5064.4,0.00051638,5498.3,-7.9063e-05,1024.4,-0.00021539,0.016595,0.045251
24924,2.8473,3.2727,0.1,0.00050441,5040.6,0.00051391,5464.2,-8.0812e-05,995.62,-0.00021332,0.018949,0.048234
24925,2.7554,3.5455,0.1,0.00050803,5076.8,0.0005176,5502.3,-8.1664e-05,999.69,-0.00021471,0.014212,0.045122
24926,2.8473,3.4545,0.1,0.00050541,5050.6,0.00051489,5467.6,-8.284e-05,976.47,-0.0002128,0.017036,0.048128
24927,2.7554,3.7273,0.1,0.0005098,5094.5,0.00051931,5508.1,-8.5294e-05,965.33,-0.00021377,0.010457,0.04494
24928,2.8473,3.6364,0.1,0.00050693,5065.8,0.00051635,5472.8,-8.5873e-05,947.89,-0.00021203,0.013894,0.047967
24929,2.7554,3.9091,0.1,0.00051212,5117.7,0.00052153,5515.8,-8.9938e-05,921.47,-0.00021258,0.0049026,0.044701
24930,2.8473,3.8182,0.1,0.00050898,5086.3,0.00051831,5479.9,-8.9895e-05,910.04,-0.00021101,0.0091875,0.047749
24931,2.7554,4.0909,0.1,0.00051502,5146.6,0.00052426,5525.6,-9.5569e-05,868.41,-0.00021115,-0.0030091,0.044405
24932,2.8473,4,0.1,0.00051159,5112.3,0.00052077,5489,-9.4884e-05,863.18,-0.00020977,0.0024691,0.047473
24933,2.7554,4.2727,0.1,0.00051851,5181.5,0.0005275,5537.5,-0.00010215,806.59,-0.0002095,-0.013972,0.044046
24934,2.8473,4.1818,0.1,0.00051477,5144.1,0.00052373,5500.2,-0.00010081,807.71,-0.00020831,-0.0068367,0.047135
24935,2.7554,4.4545,0.1,0.00052262,5222.6,0.00053123,5551.7,-0.00010962,736.59,-0.00020766,-0.028882,0.043621
24936,2.8473,4.3636,0.1,0.00051853,5181.8,0.00052717,5513.6,-0.00010761,744.13,-0.00020665,-0.019425,0.046731
24937,2.7554,4.6364,0.1,0.00052734,5269.7,0.00053545,5568.3,-0.00011791,659.2,-0.00020565,-0.048744,0.043126
24938,2.8473,4.5455,0.1,0.00052289,5225.3,0.00053108,5529.2,-0.00011523,673.12,-0.00020482,-0.036259,0.046258
24939,2.7554,4.8182,0.1,0.00053265,5322.9,0.0005401,5587.1,-0.00012692,575.38,-0.00020351,-0.075513,0.042555
24940,2.8473,4.7273,0.1,0.00052782,5274.6,0.00053542,5547,-0.00012358,595.51,-0.00020285,-0.058264,0.045711
24941,2.7554,5,0.1,0.00053854,5381.6,0.00054515,5608.2,-0.00013654,486.24,-0.00020127,-0.11002,0.041903
24942,2.8473,4.9091,0.1,0.00053331,5329.4,0.00054017,5567,-0.00013257,512.32,-0.00020076,-0.088304,0.045083
24943,2.7554,5.1818,0.1,0.00054493,5445.5,0.00055055,5631.3,-0.00014662,393.08,-0.00019896,-0.16404,0.041163
24944,2.8473,5.0909,0.1,0.0005393,5389.2,0.00054526,5588.9,-0.00014206,424.68,-0.0001986,-0.12532,0.044371
24945,2.7554,5.3636,0.1,0.00055177,5513.8,0.00055622,5656.3,-0.00015704,297.24,-0.00019663,-0.22076,0.040329
24946,2.8473,5.2727,0.1,0.00054573,5453.6,0.00055064,5612.7,-0.00015194,333.82,-0.00019639,-0.19381,0.043567
24947,2.7554,5.5455,0.1,0.00055898,5586,0.00056211,5683,-0.00016765,199.87,-0.00019432,-0.47344,0.039394
24948,2.8473,5.4545,0.1,0.00055254,5521.6,0.00055624,5638,-0.00016206,241.02,-0.00019417,-0.23984,0.042665
24949,2.7554,5.7273,0.1,0.0005668,5664.1,0.00056843,5713.2,-0.0001786,100.34,-0.00019207,-0.89063,0.038352
24950,2.8473,5.6364,0.1,0.00055969,5593,0.00056203,5664.7,-0.00017232,147.12,-0.00019199,-0.70606,0.041659
24951,2.8473,5.8182,0.1,0.0005676,5672.1,0.00056842,5696.5,-0.00018299,50.706,-0.00018994,-1.5655,0.040542
24952,2.7554,5.9091,0.1,0.00057205,5716.5,0.00057243,5727.9,-0.00018678,23.508,-0.00018999,-0.57871,0.037194
24953,2.9391,0.27273,0.1,0.00056047,5600.8,0.00056204,5648.2,-0.00017681,96.724,-0.00018979,-0.7747,0.043973
24954,3.031,0.18182,0.1,0.00056091,5605.2,0.00056173,5629.8,-0.00018078,50.809,-0.00018772,-1.2807,0.046335
24955,2.9391,0.090909,0.1,0.00056555,5651.6,0.00056595,5663.5,-0.00018456,24.516,-0.00018789,-0.51561,0.04278
24956,2.9391,0.45455,0.1,0.00055324,5528.5,0.00055619,5620,-0.00016675,188.08,-0.00019184,-0.42743,0.045051
24957,3.031,0.36364,0.1,0.00055363,5532.4,0.00055585,5600.5,-0.00017097,139.39,-0.00018961,-0.63752,0.047486
24958,2.9391,0.63636,0.1,0.0005465,5461.2,0.00055069,5594.5,-0.00015698,277.43,-0.00019393,-0.19896,0.046022
24959,3.031,0.54545,0.1,0.00054697,5466,0.00055046,5575.2,-0.00016152,225.69,-0.00019158,-0.21509,0.048526
24960,2.9391,0.81818,0.1,0.00054009,5397.2,0.00054537,5570.4,-0.00014739,365.27,-0.00019603,-0.14882,0.046891
24961,3.031,0.72727,0.1,0.00054061,5402.4,0.00054522,5551,-0.0001522,310.83,-0.00019359,-0.17559,0.049462
24962,2.9391,1,0.1,0.00053405,5336.9,0.00054029,5547.8,-0.00013811,450.64,-0.0001981,-0.10012,0.047665
24963,3.031,0.90909,0.1,0.00053456,5341.9,0.00054017,5528,-0.00014311,394.12,-0.00019558,-0.1138,0.050298
24964,2.9391,1.1818,0.1,0.00052846,5281,0.0005355,5527,-0.00012924,532.38,-0.0002001,-0.068845,0.04835
24965,3.031,1.0909,0.1,0.0005289,5285.4,0.00053537,5506.6,-0.00013436,474.47,-0.00019752,-0.080443,0.051043
24966,2.9391,1.3636,0.1,0.00052336,5230,0.00053106,5508,-0.00012091,609.38,-0.00020202,-0.044246,0.048952
24967,3.031,1.2727,0.1,0.00052368,5233.2,0.00053087,5486.8,-0.00012607,550.82,-0.00019938,-0.053041,0.0517
24968,2.9391,1.5455,0.1,0.00051879,5184.4,0.00052701,5491.1,-0.00011322,680.64,-0.00020381,-0.025666,0.049475
24969,3.031,1.4545,0.1,0.00051895,5185.9,0.00052672,5468.9,-0.00011834,622.16,-0.00020115,-0.032688,0.052276
24970,2.9391,1.7273,0.1,0.00051478,5144.2,0.00052339,5476.2,-0.00010626,745.28,-0.00020545,-0.011405,0.049926
24971,3.031,1.6364,0.1,0.00051473,5143.8,0.00052297,5453,-0.00011127,687.59,-0.00020278,-0.016829,0.052776
24972,2.9391,1.9091,0.1,0.00051133,5109.7,0.00052023,5463.5,-0.00010011,802.55,-0.00020692,-0.00064173,0.050307
24973,3.031,1.8182,0.1,0.00051105,5107,0.00051964,5439.1,-0.00010493,746.34,-0.00020426,-0.0047051,0.053202
24974,2.9391,2.0909,0.1,0.00050844,5080.8,0.00051754,5452.9,-9.4827e-05,851.86,-0.0002082,0.0073551,0.050624
24975,3.031,2,0.1,0.00050792,5075.7,0.00051676,5427.3,-9.9397e-05,797.73,-0.00020557,0.0044837,0.053561
24976,2.9391,2.2727,0.1,0.0005061,5057.5,0.00051534,5444.4,-9.0455e-05,892.73,-0.00020927,0.013145,0.050878
24977,3.031,2.1818,0.1,0.00050533,5049.8,0.00051435,5417.6,-9.472e-05,841.25,-0.00020668,0.011298,0.053855
24978,2.9391,2.4545,0.1,0.0005043,5039.5,0.00051362,5437.9,-8.7027e-05,924.84,-0.00021011,0.017182,0.051073
24979,3.031,2.3636,0.1,0.00050327,5029.2,0.00051242,5409.9,-9.0939e-05,876.5,-0.00020759,0.016203,0.054086
24980,2.9391,2.6364,0.1,0.00050303,5026.8,0.0005124,5433.3,-8.4565e-05,947.92,-0.00021072,0.019817,0.051211
24981,3.031,2.5455,0.1,0.00050174,5013.9,0.00051096,5404.1,-8.8081e-05,903.18,-0.00020828,0.019563,0.054257
24982,2.9391,2.8182,0.1,0.00050227,5019.2,0.00051167,5430.6,-8.3083e-05,961.83,-0.00021109,0.021299,0.051293
24983,3.031,2.7273,0.1,0.00050073,5003.8,0.00050999,5400.4,-8.6165e-05,921.07,-0.00020875,0.021652,0.054371
24984,2.9391,3,0.1,0.00050202,5016.7,0.00051142,5429.6,-8.2588e-05,966.48,-0.00021122,0.021776,0.051321
24985,3.031,2.9091,0.1,0.00050022,4998.8,0.00050951,5398.5,-8.5205e-05,930.04,-0.00020898,0.022651,0.054427
24986,2.9391,3.1818,0.1,0.00050227,5019.2,0.00051167,5430.6,-8.3083e-05,961.83,-0.00021109,0.021299,0.051293
24987,3.031,3.0909,0.1,0.00050022,4998.8,0.00050951,5398.5,-8.5205e-05,930.04,-0.00020898,0.022651,0.054427
24988,2.9391,3.3636,0.1,0.00050303,5026.8,0.0005124,5433.3,-8.4565e-05,947.92,-0.00021072,0.019817,0.051211
24989,3.031,3.2727,0.1,0.00050073,5003.8,0.00050999,5400.4,-8.6165e-05,921.07,-0.00020875,0.021652,0.054371
24990,2.9391,3.5455,0.1,0.0005043,5039.5,0.00051362,5437.9,-8.7027e-05,924.84,-0.00021011,0.017182,0.051073
24991,3.031,3.4545,0.1,0.00050174,5013.9,0.00051096,5404.1,-8.8081e-05,903.18,-0.00020828,0.019563,0.054257
24992,2.9391,3.7273,0.1,0.0005061,5057.5,0.00051534,5444.4,-9.0455e-05,892.73,-0.00020927,0.013145,0.050878
24993,3.031,3.6364,0.1,0.00050327,5029.2,0.00051242,5409.9,-9.0939e-05,876.5,-0.00020759,0.016203,0.054086
24994,2.9391,3.9091,0.1,0.00050844,5080.8,0.00051754,5452.9,-9.4827e-05,851.86,-0.0002082,0.0073554,0.050624
24995,3.031,3.8182,0.1,0.00050533,5049.8,0.00051435,5417.6,-9.472e-05,841.25,-0.00020668,0.011298,0.053855
24996,2.9391,4.0909,0.1,0.00051133,5109.7,0.00052023,5463.5,-0.00010011,802.55,-0.00020692,-0.00064139,0.050307
24997,3.031,4,0.1,0.00050792,5075.7,0.00051676,5427.3,-9.9397e-05,797.73,-0.00020557,0.0044839,0.053561
24998,2.9391,4.2727,0.1,0.00051478,5144.2,0.00052339,5476.2,-0.00010626,745.28,-0.00020545,-0.011405,0.049926
24999,3.031,4.1818,0.1,0.00051105,5107,0.00051964,5439.1,-0.00010493,746.34,-0.00020426,-0.0047047,0.053202
25000,2.9391,4.4545,0.1,0.00051879,5184.4,0.00052701,5491.1,-0.00011322,680.64,-0.00020381,-0.025665,0.049475
25001,3.031,4.3636,0.1,0.00051473,5143.8,0.00052297,5453,-0.00011127,687.59,-0.00020278,-0.016829,0.052776
25002,2.9391,4.6364,0.1,0.00052336,5230,0.00053106,5508,-0.00012091,609.38,-0.00020202,-0.044245,0.048952
25003,3.031,4.5455,0.1,0.00051895,5185.9,0.00052672,5468.9,-0.00011834,622.16,-0.00020115,-0.032688,0.052276
25004,2.9391,4.8182,0.1,0.00052846,5281,0.0005355,5527,-0.00012924,532.38,-0.0002001,-0.068844,0.04835
25005,3.031,4.7273,0.1,0.00052368,5233.2,0.00053087,5486.8,-0.00012607,550.82,-0.00019938,-0.05304,0.0517
25006,2.9391,5,0.1,0.00053405,5336.9,0.00054029,5547.8,-0.00013811,450.64,-0.0001981,-0.10012,0.047665
25007,3.031,4.9091,0.1,0.0005289,5285.4,0.00053537,5506.6,-0.00013436,474.47,-0.00019752,-0.080443,0.051043
25008,2.9391,5.1818,0.1,0.00054009,5397.2,0.00054537,5570.4,-0.00014739,365.27,-0.00019603,-0.14882,0.046891
25009,3.031,5.0909,0.1,0.00053456,5341.9,0.00054017,5528,-0.00014311,394.12,-0.00019558,-0.1138,0.050298
25010,2.9391,5.3636,0.1,0.0005465,5461.2,0.00055069,5594.5,-0.00015698,277.43,-0.00019393,-0.19896,0.046022
25011,3.031,5.2727,0.1,0.00054061,5402.4,0.00054522,5551,-0.0001522,310.83,-0.00019359,-0.17559,0.049461
25012,2.9391,5.5455,0.1,0.00055324,5528.5,0.00055619,5620,-0.00016675,188.08,-0.00019184,-0.42743,0.045051
25013,3.031,5.4545,0.1,0.00054697,5466,0.00055046,5575.2,-0.00016152,225.69,-0.00019158,-0.21509,0.048526
25014,2.9391,5.7273,0.1,0.00056047,5600.8,0.00056204,5648.2,-0.00017681,96.724,-0.00018979,-0.7747,0.043973
25015,3.031,5.6364,0.1,0.00055363,5532.4,0.00055585,5600.5,-0.00017097,139.39,-0.00018961,-0.63752,0.047486
25016,3.031,5.8182,0.1,0.00056091,5605.2,0.00056173,5629.8,-0.00018078,50.809,-0.00018772,-1.2807,0.046335
25017,2.9391,5.9091,0.1,0.00056555,5651.6,0.00056595,5663.5,-0.00018456,24.516,-0.00018789,-0.51561,0.04278
25018,3.1228,0.27273,0.1,0.00055406,5536.7,0.00055556,5582.2,-0.00017503,92.867,-0.00018748,-0.67724,0.049971
25019,3.2147,0.18182,0.1,0.00055419,5538,0.00055501,5562.5,-0.00017861,50.358,-0.00018546,-1.0602,0.052505
25020,3.1228,0.090909,0.1,0.00055895,5585.7,0.00055937,5597.9,-0.00018234,25.044,-0.00018573,-0.46413,0.048747
25021,3.1228,0.45455,0.1,0.00054736,5469.8,0.00055015,5555.9,-0.00016576,176.83,-0.00018935,-0.38655,0.051081
25022,3.2147,0.36364,0.1,0.00054748,5471,0.00054959,5535.4,-0.00016959,131.82,-0.00018721,-0.5768,0.053686
25023,3.1228,0.63636,0.1,0.00054108,5407.1,0.00054501,5531.8,-0.00015676,258.94,-0.00019124,-0.1795,0.052083
25024,3.2147,0.54545,0.1,0.00054129,5409.2,0.00054457,5511.6,-0.00016086,211.23,-0.000189,-0.19319,0.054756
25025,3.1228,0.81818,0.1,0.00053508,5347.1,0.00054004,5508.7,-0.00014793,339.55,-0.00019314,-0.13504,0.052984
25026,3.2147,0.72727,0.1,0.00053535,5349.8,0.00053968,5488.5,-0.00015228,289.44,-0.00019082,-0.15917,0.055722
25027,3.1228,1,0.1,0.0005294,5290.4,0.00053527,5486.9,-0.00013938,417.85,-0.000195,-0.091046,0.053789
25028,3.2147,0.90909,0.1,0.00052968,5293.2,0.00053495,5466.6,-0.0001439,365.87,-0.00019261,-0.10332,0.056588
25029,3.1228,1.1818,0.1,0.00052412,5237.5,0.00053076,5466.5,-0.0001312,492.83,-0.0001968,-0.062686,0.054504
25030,3.2147,1.0909,0.1,0.00052435,5239.9,0.00053044,5445.8,-0.00013584,439.59,-0.00019436,-0.073209,0.057362
25031,3.1228,1.3636,0.1,0.00051926,5189,0.00052655,5447.8,-0.00012351,563.55,-0.00019851,-0.040127,0.055134
25032,3.2147,1.2727,0.1,0.00051941,5190.6,0.0005262,5426.6,-0.0001282,509.66,-0.00019604,-0.048224,0.058047
25033,3.1228,1.5455,0.1,0.00051488,5145.3,0.00052269,5430.9,-0.00011639,629.1,-0.00020012,-0.022845,0.055683
25034,3.2147,1.4545,0.1,0.00051491,5145.5,0.00052227,5408.9,-0.00012106,575.21,-0.00019762,-0.029462,0.058648
25035,3.1228,1.7273,0.1,0.000511,5106.5,0.00051922,5415.9,-0.00010993,688.67,-0.00020159,-0.0093429,0.056157
25036,3.2147,1.6364,0.1,0.00051086,5105.1,0.0005187,5393.1,-0.00011451,635.42,-0.00019908,-0.014626,0.059171
25037,3.1228,1.9091,0.1,0.00050764,5072.9,0.00051617,5402.8,-0.00010421,741.57,-0.00020291,0.0010605,0.05656
25038,3.2147,1.8182,0.1,0.00050731,5069.6,0.00051551,5379.1,-0.00010863,689.57,-0.0002004,-0.003082,0.05962
25039,3.1228,2.0909,0.1,0.0005048,5044.5,0.00051356,5391.9,-9.9279e-05,787.21,-0.00020405,0.0089663,0.056894
25040,3.2147,2,0.1,0.00050426,5039.1,0.00051274,5367.1,-0.00010348,737.04,-0.00020157,0.0058399,0.059997
25041,3.1228,2.2727,0.1,0.00050249,5021.4,0.00051141,5382.9,-9.5188e-05,825.14,-0.00020501,0.014826,0.057164
25042,3.2147,2.1818,0.1,0.00050173,5013.8,0.00051041,5357.1,-9.912e-05,777.32,-0.00020257,0.012595,0.060306
25043,3.1228,2.4545,0.1,0.0005007,5003.6,0.00050974,5376,-9.1973e-05,854.98,-0.00020576,0.019005,0.057371
25044,3.2147,2.3636,0.1,0.0004997,4993.6,0.00050853,5349.1,-9.5585e-05,810.01,-0.00020339,0.017559,0.06055
25045,3.1228,2.6364,0.1,0.00049943,4990.9,0.00050853,5371.1,-8.966e-05,876.48,-0.00020631,0.021788,0.057517
25046,3.2147,2.5455,0.1,0.00049819,4978.4,0.00050711,5343.1,-9.2909e-05,834.78,-0.00020401,0.021023,0.060732
25047,3.1228,2.8182,0.1,0.00049867,4983.3,0.00050781,5368.1,-8.8265e-05,889.44,-0.00020664,0.023376,0.057605
25048,3.2147,2.7273,0.1,0.00049718,4968.4,0.00050616,5339.1,-9.1113e-05,851.41,-0.00020443,0.02321,0.060852
25049,3.1228,3,0.1,0.00049842,4980.7,0.00050757,5367.1,-8.78e-05,893.77,-0.00020675,0.023892,0.057634
25050,3.2147,2.9091,0.1,0.00049668,4963.4,0.00050569,5337.1,-9.0211e-05,859.76,-0.00020464,0.024267,0.060911
25051,3.1228,3.1818,0.1,0.00049867,4983.3,0.00050781,5368.1,-8.8265e-05,889.44,-0.00020664,0.023376,0.057605
25052,3.2147,3.0909,0.1,0.00049668,4963.4,0.00050569,5337.1,-9.0211e-05,859.76,-0.00020464,0.024267,0.060911
25053,3.1228,3.3636,0.1,0.00049943,4990.9,0.00050853,5371.1,-8.966e-05,876.48,-0.00020631,0.021788,0.057517
25054,3.2147,3.2727,0.1,0.00049718,4968.4,0.00050616,5339.1,-9.1113e-05,851.41,-0.00020443,0.02321,0.060852
25055,3.1228,3.5455,0.1,0.0005007,5003.6,0.00050974,5376,-9.1973e-05,854.98,-0.00020576,0.019005,0.057371
25056,3.2147,3.4545,0.1,0.00049819,4978.4,0.00050711,5343.1,-9.2909e-05,834.78,-0.00020401,0.021023,0.060732
25057,3.1228,3.7273,0.1,0.00050249,5021.4,0.00051141,5382.9,-9.5188e-05,825.14,-0.00020501,0.014826,0.057164
25058,3.2147,3.6364,0.1,0.0004997,4993.6,0.00050853,5349.1,-9.5585e-05,810.01,-0.00020339,0.017559,0.06055
25059,3.1228,3.9091,0.1,0.0005048,5044.5,0.00051356,5391.9,-9.9279e-05,787.21,-0.00020405,0.0089666,0.056894
25060,3.2147,3.8182,0.1,0.00050173,5013.8,0.00051041,5357.1,-9.912e-05,777.32,-0.00020257,0.012595,0.060306
25061,3.1228,4.0909,0.1,0.00050764,5072.9,0.00051617,5402.8,-0.00010421,741.57,-0.00020291,0.0010609,0.05656
25062,3.2147,4,0.1,0.00050426,5039.1,0.00051274,5367.1,-0.00010348,737.04,-0.00020157,0.0058402,0.059997
25063,3.1228,4.2727,0.1,0.000511,5106.5,0.00051922,5415.9,-0.00010993,688.67,-0.00020159,-0.0093424,0.056157
25064,3.2147,4.1818,0.1,0.00050731,5069.6,0.00051551,5379.1,-0.00010863,689.57,-0.0002004,-0.0030815,0.05962
25065,3.1228,4.4545,0.1,0.00051488,5145.3,0.00052269,5430.9,-0.00011639,629.1,-0.00020012,-0.022844,0.055683
25066,3.2147,4.3636,0.1,0.00051086,5105.1,0.0005187,5393.1,-0.00011451,635.42,-0.00019908,-0.014625,0.059171
25067,3.1228,4.6364,0.1,0.00051926,5189,0.00052655,5447.8,-0.00012351,563.55,-0.00019851,-0.040126,0.055134
25068,3.2147,4.5455,0.1,0.00051491,5145.5,0.00052227,5408.9,-0.00012106,575.21,-0.00019762,-0.029461,0.058648
25069,3.1228,4.8182,0.1,0.00052412,5237.5,0.00053076,5466.5,-0.0001312,492.83,-0.0001968,-0.062685,0.054504
25070,3.2147,4.7273,0.1,0.00051941,5190.6,0.0005262,5426.6,-0.0001282,509.66,-0.00019604,-0.048223,0.058047
25071,3.1228,5,0.1,0.0005294,5290.4,0.00053527,5486.9,-0.00013938,417.85,-0.000195,-0.091046,0.053789
25072,3.2147,4.9091,0.1,0.00052435,5239.9,0.00053044,5445.8,-0.00013584,439.59,-0.00019436,-0.073208,0.057362
25073,3.1228,5.1818,0.1,0.00053508,5347.1,0.00054004,5508.7,-0.00014793,339.55,-0.00019314,-0.13504,0.052984
25074,3.2147,5.0909,0.1,0.00052968,5293.2,0.00053495,5466.6,-0.0001439,365.87,-0.00019261,-0.10332,0.056588
25075,3.1228,5.3636,0.1,0.00054108,5407.1,0.00054501,5531.8,-0.00015676,258.94,-0.00019124,-0.1795,0.052083
25076,3.2147,5.2727,0.1,0.00053535,5349.8,0.00053968,5488.5,-0.00015228,289.44,-0.00019082,-0.15917,0.055722
25077,3.1228,5.5455,0.1,0.00054736,5469.8,0.00055015,5555.9,-0.00016576,176.83,-0.00018935,-0.38655,0.051081
25078,3.2147,5.4545,0.1,0.00054129,5409.2,0.00054457,5511.6,-0.00016086,211.23,-0.000189,-0.19319,0.054756
25079,3.1228,5.7273,0.1,0.00055406,5536.7,0.00055556,5582.2,-0.00017503,92.867,-0.00018748,-0.67724,0.049971
25080,3.2147,5.6364,0.1,0.00054748,5471,0.00054959,5535.4,-0.00016959,131.82,-0.00018721,-0.5768,0.053686
25081,3.2147,5.8182,0.1,0.00055419,5538,0.00055501,5562.5,-0.00017861,50.358,-0.00018546,-1.0602,0.052505
25082,3.1228,5.9091,0.1,0.00055895,5585.7,0.00055937,5597.9,-0.00018234,25.044,-0.00018573,-0.46413,0.048747
25083,3.3065,0.27273,0.1,0.0005476,5472.3,0.00054905,5515.8,-0.00017324,88.821,-0.00018514,-0.59469,0.056342
25084,3.3984,0.18182,0.1,0.00054747,5470.9,0.00054828,5495,-0.00017648,49.442,-0.00018318,-0.88661,0.059048
25085,3.3065,0.090909,0.1,0.0005523,5519.2,0.00055272,5531.6,-0.00018013,25.174,-0.00018354,-0.42088,0.05509
25086,3.3065,0.45455,0.1,0.0005414,5410.3,0.00054403,5491.3,-0.00016471,166.07,-0.00018686,-0.35008,0.05748
25087,3.3984,0.36364,0.1,0.00054129,5409.1,0.00054329,5470,-0.00016817,124.42,-0.0001848,-0.52276,0.060255
25088,3.3065,0.63636,0.1,0.00053555,5351.8,0.00053925,5468.5,-0.0001564,241.61,-0.00018858,-0.1621,0.058511
25089,3.3984,0.54545,0.1,0.00053553,5351.6,0.00053861,5447.6,-0.00016012,197.55,-0.00018643,-0.17376,0.061352
25090,3.3065,0.81818,0.1,0.00052995,5295.8,0.00053461,5446.5,-0.00014827,315.65,-0.0001903,-0.12256,0.05944
25091,3.3984,0.72727,0.1,0.00052999,5296.2,0.00053406,5425.8,-0.0001522,269.47,-0.00018809,-0.14438,0.062344
25092,3.3065,1,0.1,0.00052463,5242.7,0.00053014,5425.6,-0.00014039,387.52,-0.00019197,-0.08275,0.060273
25093,3.3984,0.90909,0.1,0.00052469,5243.3,0.00052964,5404.8,-0.00014449,339.66,-0.00018971,-0.093797,0.063238
25094,3.3065,1.1818,0.1,0.00051965,5192.9,0.0005259,5406,-0.00013285,456.34,-0.00019359,-0.057014,0.061014
25095,3.3984,1.0909,0.1,0.00051969,5193.3,0.00052542,5385,-0.00013706,407.32,-0.00019128,-0.066579,0.064037
25096,3.3065,1.3636,0.1,0.00051505,5147,0.00052193,5387.7,-0.00012575,521.26,-0.00019514,-0.036355,0.06167
25097,3.3984,1.2727,0.1,0.00051504,5146.8,0.00052143,5366.4,-0.00013001,471.64,-0.00019279,-0.043801,0.064746
25098,3.3065,1.5455,0.1,0.00051088,5105.3,0.00051828,5371.1,-0.00011918,581.5,-0.00019657,-0.020348,0.062243
25099,3.3984,1.4545,0.1,0.00051077,5104.2,0.00051773,5349.2,-0.00012343,531.84,-0.00019421,-0.026548,0.065371
25100,3.3065,1.7273,0.1,0.00050717,5068.2,0.00051499,5356.3,-0.0001132,636.32,-0.00019789,-0.0076644,0.062738
25101,3.3984,1.6364,0.1,0.00050692,5065.7,0.00051435,5333.7,-0.00011737,587.19,-0.00019553,-0.012743,0.065916
25102,3.3065,1.9091,0.1,0.00050393,5035.8,0.00051207,5343.3,-0.00010789,685.08,-0.00019907,0.0022696,0.06316
25103,3.3984,1.8182,0.1,0.00050352,5031.8,0.00051133,5319.9,-0.00011193,637.03,-0.00019672,-0.0018498,0.066384
25104,3.3065,2.0909,0.1,0.00050118,5008.4,0.00050957,5332.2,-0.00010331,727.22,-0.0002001,0.0099532,0.063511
25105,3.3984,2,0.1,0.00050059,5002.5,0.00050869,5308,-0.00010716,680.78,-0.00019777,0.0067004,0.066778
25106,3.3065,2.2727,0.1,0.00049893,4985.9,0.00050751,5323.1,-9.9504e-05,762.29,-0.00020096,0.015752,0.063795
25107,3.3984,2.1818,0.1,0.00049814,4978,0.00050645,5298,-0.00010311,717.96,-0.00019866,0.01328,0.067102
25108,3.3065,2.4545,0.1,0.00049718,4968.4,0.00050589,5316,-9.6505e-05,789.92,-0.00020163,0.019958,0.064012
25109,3.3984,2.3636,0.1,0.00049618,4958.3,0.00050465,5289.9,-9.982e-05,748.16,-0.00019939,0.018191,0.067358
25110,3.3065,2.6364,0.1,0.00049593,4955.9,0.00050472,5311,-9.4344e-05,809.85,-0.00020212,0.0228,0.064167
25111,3.3984,2.5455,0.1,0.0004947,4943.6,0.00050329,5283.9,-9.7327e-05,771.08,-0.00019995,0.021668,0.067548
25112,3.3065,2.8182,0.1,0.00049519,4948.4,0.00050402,5307.9,-9.304e-05,821.88,-0.00020242,0.024441,0.064259
25113,3.3984,2.7273,0.1,0.00049372,4933.8,0.00050237,5279.8,-9.5652e-05,786.49,-0.00020032,0.023888,0.067674
25114,3.3065,3,0.1,0.00049494,4946,0.00050379,5306.9,-9.2604e-05,825.9,-0.00020252,0.024977,0.064289
25115,3.3984,2.9091,0.1,0.00049323,4928.9,0.00050191,5277.8,-9.4811e-05,794.22,-0.00020051,0.024969,0.067737
25116,3.3065,3.1818,0.1,0.00049519,4948.4,0.00050402,5307.9,-9.304e-05,821.88,-0.00020242,0.024441,0.064259
25117,3.3984,3.0909,0.1,0.00049323,4928.9,0.00050191,5277.8,-9.4811e-05,794.22,-0.00020051,0.024969,0.067737
25118,3.3065,3.3636,0.1,0.00049593,4955.9,0.00050472,5311,-9.4344e-05,809.85,-0.00020212,0.022801,0.064167
25119,3.3984,3.2727,0.1,0.00049372,4933.8,0.00050237,5279.8,-9.5652e-05,786.49,-0.00020032,0.023888,0.067674
25120,3.3065,3.5455,0.1,0.00049718,4968.4,0.00050589,5316,-9.6505e-05,789.92,-0.00020163,0.019959,0.064012
25121,3.3984,3.4545,0.1,0.0004947,4943.6,0.00050329,5283.9,-9.7327e-05,771.08,-0.00019995,0.021668,0.067548
25122,3.3065,3.7273,0.1,0.00049893,4985.9,0.00050751,5323.1,-9.9504e-05,762.29,-0.00020096,0.015752,0.063795
25123,3.3984,3.6364,0.1,0.00049618,4958.3,0.00050465,5289.9,-9.982e-05,748.16,-0.00019939,0.018191,0.067358
25124,3.3065,3.9091,0.1,0.00050118,5008.4,0.00050957,5332.2,-0.00010331,727.22,-0.0002001,0.0099534,0.063511
25125,3.3984,3.8182,0.1,0.00049814,4978,0.00050645,5298,-0.00010311,717.96,-0.00019866,0.01328,0.067102
25126,3.3065,4.0909,0.1,0.00050393,5035.8,0.00051207,5343.3,-0.00010789,685.08,-0.00019907,0.00227,0.06316
25127,3.3984,4,0.1,0.00050059,5002.5,0.00050869,5308,-0.00010716,680.78,-0.00019777,0.0067006,0.066778
25128,3.3065,4.2727,0.1,0.00050717,5068.2,0.00051499,5356.3,-0.0001132,636.32,-0.00019789,-0.0076639,0.062738
25129,3.3984,4.1818,0.1,0.00050352,5031.8,0.00051133,5319.9,-0.00011193,637.03,-0.00019672,-0.0018494,0.066384
25130,3.3065,4.4545,0.1,0.00051088,5105.3,0.00051828,5371.1,-0.00011918,581.5,-0.00019657,-0.020348,0.062243
25131,3.3984,4.3636,0.1,0.00050692,5065.7,0.00051435,5333.7,-0.00011737,587.19,-0.00019553,-0.012742,0.065916
25132,3.3065,4.6364,0.1,0.00051505,5147,0.00052193,5387.7,-0.00012575,521.26,-0.00019514,-0.036354,0.06167
25133,3.3984,4.5455,0.1,0.00051077,5104.2,0.00051773,5349.2,-0.00012343,531.84,-0.00019421,-0.026547,0.065371
25134,3.3065,4.8182,0.1,0.00051965,5192.9,0.0005259,5406,-0.00013285,456.34,-0.00019359,-0.057013,0.061014
25135,3.3984,4.7273,0.1,0.00051504,5146.8,0.00052143,5366.4,-0.00013001,471.64,-0.00019279,-0.043801,0.064746
25136,3.3065,5,0.1,0.00052463,5242.6,0.00053014,5425.6,-0.00014039,387.52,-0.00019197,-0.082749,0.060273
25137,3.3984,4.9091,0.1,0.00051969,5193.3,0.00052542,5385,-0.00013706,407.32,-0.00019128,-0.066578,0.064037
25138,3.3065,5.1818,0.1,0.00052995,5295.8,0.00053461,5446.5,-0.00014827,315.65,-0.0001903,-0.12256,0.05944
25139,3.3984,5.0909,0.1,0.00052469,5243.3,0.00052964,5404.8,-0.00014449,339.66,-0.00018971,-0.093796,0.063238
25140,3.3065,5.3636,0.1,0.00053555,5351.8,0.00053925,5468.5,-0.0001564,241.61,-0.00018858,-0.1621,0.058511
25141,3.3984,5.2727,0.1,0.00052999,5296.2,0.00053406,5425.7,-0.0001522,269.47,-0.00018809,-0.14438,0.062344
25142,3.3065,5.5455,0.1,0.0005414,5410.3,0.00054403,5491.3,-0.00016471,166.07,-0.00018686,-0.35008,0.05748
25143,3.3984,5.4545,0.1,0.00053553,5351.6,0.00053861,5447.6,-0.00016012,197.55,-0.00018643,-0.17376,0.061352
25144,3.3065,5.7273,0.1,0.0005476,5472.3,0.00054905,5515.8,-0.00017324,88.82,-0.00018514,-0.59469,0.056342
25145,3.3984,5.6364,0.1,0.00054129,5409.1,0.00054329,5470,-0.00016817,124.42,-0.0001848,-0.52276,0.060255
25146,3.3984,5.8182,0.1,0.00054747,5470.9,0.00054828,5495,-0.00017648,49.442,-0.00018318,-0.88661,0.059048
25147,3.3065,5.9091,0.1,0.0005523,5519.2,0.00055272,5531.6,-0.00018013,25.174,-0.00018354,-0.42088,0.05509
25148,3.4902,0.27273,0.1,0.00054115,5407.7,0.00054253,5449.3,-0.00017146,84.636,-0.0001828,-0.5243,0.063081
25149,3.5821,0.18182,0.1,0.00054078,5404,0.00054157,5427.6,-0.00017439,48.144,-0.0001809,-0.74807,0.065959
25150,3.4902,0.090909,0.1,0.00054564,5452.6,0.00054606,5464.9,-0.00017795,24.975,-0.00018133,-0.38378,0.061806
25151,3.4902,0.45455,0.1,0.00053541,5350.4,0.00053788,5426.4,-0.0001636,155.77,-0.00018437,-0.31746,0.064245
25152,3.5821,0.36364,0.1,0.00053508,5347.1,0.00053697,5404.5,-0.00016673,117.19,-0.00018239,-0.47448,0.067189
25153,3.4902,0.63636,0.1,0.00052996,5296,0.00053343,5404.9,-0.00015593,225.31,-0.00018594,-0.14653,0.065301
25154,3.5821,0.54545,0.1,0.00052973,5293.6,0.00053262,5383.4,-0.0001593,184.59,-0.00018389,-0.15647,0.06831
25155,3.4902,0.81818,0.1,0.00052473,5243.7,0.0005291,5384.2,-0.00014844,293.38,-0.0001875,-0.11127,0.066255
25156,3.5821,0.72727,0.1,0.00052457,5242,0.00052838,5362.9,-0.000152,250.76,-0.00018539,-0.13104,0.069326
25157,3.4902,1,0.1,0.00051975,5193.9,0.00052493,5364.3,-0.00014118,359.38,-0.00018902,-0.075192,0.067113
25158,3.5821,0.90909,0.1,0.00051962,5192.6,0.00052426,5343,-0.00014489,315.28,-0.00018686,-0.085159,0.070243
25159,3.4902,1.1818,0.1,0.00051508,5147.2,0.00052096,5345.5,-0.00013424,422.56,-0.00019048,-0.051823,0.067878
25160,3.5821,1.0909,0.1,0.00051494,5145.9,0.00052032,5324.1,-0.00013805,377.41,-0.00018829,-0.060526,0.071065
25161,3.4902,1.3636,0.1,0.00051075,5104,0.00051724,5327.9,-0.00012769,482.17,-0.00019187,-0.032922,0.068556
25162,3.5821,1.2727,0.1,0.00051057,5102.2,0.00051659,5306.4,-0.00013155,436.45,-0.00018965,-0.039762,0.071797
25163,3.4902,1.5455,0.1,0.0005068,5064.6,0.0005138,5311.9,-0.00012162,537.5,-0.00019316,-0.018145,0.069151
25164,3.5821,1.4545,0.1,0.00050655,5062,0.00051312,5289.9,-0.00012548,491.72,-0.00019093,-0.023925,0.072443
25165,3.4902,1.7273,0.1,0.00050327,5029.3,0.00051069,5297.4,-0.0001161,587.89,-0.00019435,-0.0063029,0.069666
25166,3.5821,1.6364,0.1,0.00050291,5025.6,0.00050994,5274.9,-0.0001199,542.56,-0.00019211,-0.011133,0.073007
25167,3.4902,1.9091,0.1,0.00050018,4998.4,0.00050793,5284.6,-0.00011119,632.75,-0.00019541,0.0030929,0.070105
25168,3.5821,1.8182,0.1,0.00049968,4993.4,0.00050708,5261.5,-0.00011487,588.38,-0.00019318,-0.00092638,0.073492
25169,3.4902,2.0909,0.1,0.00049755,4972,0.00050556,5273.7,-0.00010695,671.57,-0.00019633,0.010462,0.070471
25170,3.5821,2,0.1,0.00049689,4965.5,0.00050459,5249.8,-0.00011046,628.63,-0.00019412,0.0071835,0.073902
25171,3.4902,2.2727,0.1,0.00049538,4950.4,0.00050359,5264.7,-0.00010342,703.91,-0.0001971,0.016101,0.070767
25172,3.5821,2.1818,0.1,0.00049454,4942,0.00050247,5240,-0.00010671,662.87,-0.00019493,0.013504,0.074239
25173,3.4902,2.4545,0.1,0.00049369,4933.5,0.00050204,5257.6,-0.00010063,729.42,-0.00019771,0.020246,0.070995
25174,3.5821,2.3636,0.1,0.00049266,4923.2,0.00050076,5232.1,-0.00010366,690.72,-0.00019558,0.01828,0.074506
25175,3.4902,2.6364,0.1,0.00049248,4921.4,0.00050092,5252.6,-9.8621e-05,747.83,-0.00019815,0.023078,0.071157
25176,3.5821,2.5455,0.1,0.00049124,4909,0.00049946,5226,-0.00010134,711.86,-0.00019608,0.021698,0.074704
25177,3.4902,2.8182,0.1,0.00049176,4914.2,0.00050025,5249.5,-9.7407e-05,758.95,-0.00019841,0.024725,0.071253
25178,3.5821,2.7273,0.1,0.00049029,4899.5,0.00049859,5222,-9.9789e-05,726.08,-0.00019642,0.0239,0.074836
25179,3.4902,3,0.1,0.00049152,4911.8,0.00050003,5248.5,-9.7001e-05,762.67,-0.0001985,0.025266,0.071285
25180,3.5821,2.9091,0.1,0.00048981,4894.7,0.00049815,5220,-9.9007e-05,733.23,-0.00019659,0.024978,0.074901
25181,3.4902,3.1818,0.1,0.00049176,4914.2,0.00050025,5249.5,-9.7407e-05,758.95,-0.00019841,0.024725,0.071253
25182,3.5821,3.0909,0.1,0.00048981,4894.7,0.00049815,5220,-9.9007e-05,733.23,-0.00019659,0.024978,0.074901
25183,3.4902,3.3636,0.1,0.00049248,4921.4,0.00050092,5252.6,-9.8621e-05,747.83,-0.00019815,0.023078,0.071157
25184,3.5821,3.2727,0.1,0.00049029,4899.5,0.00049859,5222,-9.9789e-05,726.08,-0.00019642,0.0239,0.074836
25185,3.4902,3.5455,0.1,0.00049369,4933.5,0.00050204,5257.6,-0.00010063,729.42,-0.00019771,0.020246,0.070995
25186,3.5821,3.4545,0.1,0.00049124,4909,0.00049946,5226,-0.00010134,711.86,-0.00019608,0.021698,0.074704
25187,3.4902,3.7273,0.1,0.00049538,4950.4,0.00050359,5264.7,-0.00010342,703.91,-0.0001971,0.016101,0.070767
25188,3.5821,3.6364,0.1,0.00049266,4923.2,0.00050076,5232.1,-0.00010366,690.72,-0.00019558,0.018281,0.074506
25189,3.4902,3.9091,0.1,0.00049755,4972,0.00050556,5273.7,-0.00010695,671.57,-0.00019633,0.010462,0.070471
25190,3.5821,3.8182,0.1,0.00049454,4942,0.00050247,5240,-0.00010671,662.87,-0.00019493,0.013504,0.074239
25191,3.4902,4.0909,0.1,0.00050018,4998.4,0.00050793,5284.6,-0.00011119,632.75,-0.00019541,0.0030932,0.070105
25192,3.5821,4,0.1,0.00049689,4965.5,0.00050459,5249.8,-0.00011046,628.63,-0.00019412,0.0071839,0.073902
25193,3.4902,4.2727,0.1,0.00050327,5029.3,0.00051069,5297.4,-0.0001161,587.89,-0.00019435,-0.0063025,0.069666
25194,3.5821,4.1818,0.1,0.00049968,4993.4,0.00050708,5261.5,-0.00011487,588.38,-0.00019318,-0.000926,0.073492
25195,3.4902,4.4545,0.1,0.0005068,5064.6,0.0005138,5311.9,-0.00012162,537.5,-0.00019316,-0.018144,0.069151
25196,3.5821,4.3636,0.1,0.00050291,5025.6,0.00050994,5274.9,-0.0001199,542.56,-0.00019211,-0.011132,0.073007
25197,3.4902,4.6364,0.1,0.00051075,5104,0.00051724,5327.9,-0.00012769,482.17,-0.00019187,-0.032921,0.068556
25198,3.5821,4.5455,0.1,0.00050655,5062,0.00051312,5289.9,-0.00012548,491.72,-0.00019093,-0.023924,0.072443
25199,3.4902,4.8182,0.1,0.00051508,5147.2,0.00052096,5345.5,-0.00013424,422.56,-0.00019048,-0.051822,0.067878
25200,3.5821,4.7273,0.1,0.00051057,5102.2,0.00051659,5306.4,-0.00013155,436.45,-0.00018965,-0.039761,0.071797
25201,3.4902,5,0.1,0.00051975,5193.9,0.00052493,5364.3,-0.00014118,359.38,-0.00018902,-0.075191,0.067113
25202,3.5821,4.9091,0.1,0.00051494,5145.9,0.00052032,5324.1,-0.00013805,377.41,-0.00018829,-0.060525,0.071065
25203,3.4902,5.1818,0.1,0.00052473,5243.7,0.0005291,5384.2,-0.00014844,293.38,-0.0001875,-0.11127,0.066255
25204,3.5821,5.0909,0.1,0.00051962,5192.6,0.00052426,5343,-0.00014489,315.27,-0.00018686,-0.085157,0.070243
25205,3.4902,5.3636,0.1,0.00052996,5296,0.00053343,5404.9,-0.00015593,225.31,-0.00018594,-0.14653,0.065301
25206,3.5821,5.2727,0.1,0.00052457,5242,0.00052838,5362.9,-0.000152,250.76,-0.00018539,-0.13104,0.069326
25207,3.4902,5.5455,0.1,0.00053541,5350.4,0.00053788,5426.4,-0.0001636,155.77,-0.00018437,-0.31746,0.064245
25208,3.5821,5.4545,0.1,0.00052973,5293.6,0.00053262,5383.4,-0.0001593,184.59,-0.00018389,-0.15647,0.06831
25209,3.4902,5.7273,0.1,0.00054115,5407.7,0.00054253,5449.3,-0.00017146,84.636,-0.0001828,-0.52429,0.063081
25210,3.5821,5.6364,0.1,0.00053508,5347.1,0.00053697,5404.5,-0.00016673,117.19,-0.00018239,-0.47448,0.067189
25211,3.5821,5.8182,0.1,0.00054078,5404,0.00054157,5427.6,-0.00017439,48.144,-0.0001809,-0.74807,0.065959
25212,3.4902,5.9091,0.1,0.00054564,5452.6,0.00054605,5464.9,-0.00017795,24.975,-0.00018133,-0.38378,0.061806
25213,3.6739,0.27273,0.1,0.00053471,5343.4,0.00053602,5382.9,-0.0001697,80.364,-0.00018046,-0.4639,0.070186
25214,3.7658,0.18182,0.1,0.00053413,5337.6,0.0005349,5360.4,-0.00017234,46.538,-0.00017862,-0.63616,0.073235
25215,3.6739,0.090909,0.1,0.00053899,5386.2,0.00053939,5398.2,-0.0001758,24.507,-0.00017911,-0.35144,0.06889
25216,3.6739,0.45455,0.1,0.00052939,5290.3,0.00053172,5361.6,-0.00016244,145.9,-0.0001819,-0.2882,0.071371
25217,3.7658,0.36364,0.1,0.00052887,5285.1,0.00053065,5339.1,-0.00016527,110.15,-0.00017999,-0.43119,0.074485
25218,3.6739,0.63636,0.1,0.00052433,5239.7,0.00052758,5341.4,-0.00015537,209.96,-0.00018333,-0.13256,0.072449
25219,3.7658,0.54545,0.1,0.0005239,5235.4,0.00052662,5319.4,-0.00015841,172.3,-0.00018136,-0.14106,0.075626
25220,3.6739,0.81818,0.1,0.00051945,5191,0.00052355,5321.8,-0.00014846,272.57,-0.00018475,-0.10105,0.073426
25221,3.7658,0.72727,0.1,0.0005191,5187.4,0.00052267,5300,-0.00015168,233.22,-0.00018274,-0.119,0.076663
25222,3.6739,1,0.1,0.00051481,5144.5,0.00051966,5303,-0.00014177,333.22,-0.00018613,-0.06832,0.074306
25223,3.7658,0.90909,0.1,0.00051449,5141.4,0.00051884,5281.3,-0.00014513,292.54,-0.00018407,-0.077329,0.077601
25224,3.6739,1.1818,0.1,0.00051043,5100.8,0.00051596,5285.1,-0.00013538,391.23,-0.00018745,-0.047087,0.075093
25225,3.7658,1.0909,0.1,0.00051012,5097.7,0.00051517,5263.5,-0.00013883,349.61,-0.00018537,-0.055014,0.078444
25226,3.6739,1.3636,0.1,0.00050637,5060.2,0.00051248,5268.4,-0.00012935,445.96,-0.00018871,-0.029807,0.075791
25227,3.7658,1.2727,0.1,0.00050603,5056.8,0.00051169,5246.6,-0.00013285,403.82,-0.0001866,-0.036085,0.079195
25228,3.6739,1.5455,0.1,0.00050265,5023.1,0.00050926,5253,-0.00012376,496.76,-0.00018987,-0.0162,0.076405
25229,3.7658,1.4545,0.1,0.00050226,5019.1,0.00050844,5230.9,-0.00012725,454.56,-0.00018775,-0.021568,0.07986
25230,3.6739,1.7273,0.1,0.00049932,4989.7,0.00050633,5239,-0.00011867,543.05,-0.00019094,-0.0051971,0.076937
25231,3.7658,1.6364,0.1,0.00049883,4984.9,0.00050546,5216.5,-0.00012211,501.24,-0.00018882,-0.0097542,0.080441
25232,3.6739,1.9091,0.1,0.00049639,4960.4,0.00050374,5226.7,-0.00011413,584.28,-0.00019189,0.0036229,0.077392
25233,3.7658,1.8182,0.1,0.00049578,4954.4,0.00050278,5203.7,-0.00011747,543.32,-0.00018978,-0.00024434,0.080942
25234,3.6739,2.0909,0.1,0.00049388,4935.4,0.0005015,5216.1,-0.00011021,619.98,-0.00019272,0.010616,0.077772
25235,3.7658,2,0.1,0.00049314,4928,0.00050044,5192.4,-0.0001134,580.31,-0.00019063,0.0073856,0.081366
25236,3.6739,2.2727,0.1,0.00049181,4914.7,0.00049963,5207.3,-0.00010694,649.74,-0.00019341,0.016027,0.078079
25237,3.7658,2.1818,0.1,0.00049091,4905.7,0.00049844,5182.9,-0.00010993,611.8,-0.00019136,0.013392,0.081715
25238,3.6739,2.4545,0.1,0.0004902,4898.6,0.00049817,5200.4,-0.00010436,673.23,-0.00019396,0.020044,0.078316
25239,3.7658,2.3636,0.1,0.00048911,4887.7,0.00049682,5175.2,-0.00010711,637.41,-0.00019195,0.017974,0.081991
25240,3.6739,2.6364,0.1,0.00048904,4887,0.00049711,5195.4,-0.0001025,690.2,-0.00019436,0.022812,0.078484
25241,3.7658,2.5455,0.1,0.00048776,4874.2,0.0004956,5169.3,-0.00010497,656.87,-0.0001924,0.021281,0.082197
25242,3.6739,2.8182,0.1,0.00048834,4880,0.00049647,5192.4,-0.00010138,700.45,-0.0001946,0.024432,0.078585
25243,3.7658,2.7273,0.1,0.00048685,4865.1,0.00049477,5165.4,-0.00010353,669.97,-0.0001927,0.023425,0.082334
25244,3.6739,3,0.1,0.00048811,4877.7,0.00049626,5191.4,-0.000101,703.88,-0.00019468,0.024966,0.078618
25245,3.7658,2.9091,0.1,0.00048639,4860.6,0.00049436,5163.4,-0.00010281,676.55,-0.00019285,0.024479,0.082402
25246,3.6739,3.1818,0.1,0.00048834,4880,0.00049647,5192.4,-0.00010138,700.45,-0.0001946,0.024432,0.078585
25247,3.7658,3.0909,0.1,0.00048639,4860.6,0.00049436,5163.4,-0.00010281,676.55,-0.00019285,0.024479,0.082402
25248,3.6739,3.3636,0.1,0.00048904,4887,0.00049711,5195.4,-0.0001025,690.2,-0.00019436,0.022812,0.078484
25249,3.7658,3.2727,0.1,0.00048685,4865.1,0.00049477,5165.4,-0.00010353,669.97,-0.0001927,0.023425,0.082334
25250,3.6739,3.5455,0.1,0.0004902,4898.6,0.00049817,5200.4,-0.00010436,673.23,-0.00019396,0.020044,0.078316
25251,3.7658,3.4545,0.1,0.00048776,4874.2,0.0004956,5169.3,-0.00010497,656.87,-0.0001924,0.021281,0.082197
25252,3.6739,3.7273,0.1,0.00049181,4914.7,0.00049963,5207.3,-0.00010694,649.74,-0.00019341,0.016027,0.078079
25253,3.7658,3.6364,0.1,0.00048911,4887.7,0.00049682,5175.2,-0.00010711,637.41,-0.00019195,0.017974,0.081991
25254,3.6739,3.9091,0.1,0.00049388,4935.4,0.0005015,5216.1,-0.00011021,619.98,-0.00019272,0.010617,0.077772
25255,3.7658,3.8182,0.1,0.00049091,4905.7,0.00049844,5182.9,-0.00010993,611.8,-0.00019136,0.013392,0.081715
25256,3.6739,4.0909,0.1,0.00049639,4960.4,0.00050374,5226.7,-0.00011413,584.28,-0.00019189,0.0036233,0.077392
25257,3.7658,4,0.1,0.00049314,4928,0.00050044,5192.4,-0.0001134,580.31,-0.00019063,0.007386,0.081366
25258,3.6739,4.2727,0.1,0.00049932,4989.7,0.00050633,5239,-0.00011867,543.05,-0.00019094,-0.0051967,0.076937
25259,3.7658,4.1818,0.1,0.00049578,4954.4,0.00050278,5203.7,-0.00011747,543.32,-0.00018978,-0.00024391,0.080942
25260,3.6739,4.4545,0.1,0.00050265,5023.1,0.00050926,5253,-0.00012376,496.76,-0.00018987,-0.0162,0.076405
25261,3.7658,4.3636,0.1,0.00049883,4984.9,0.00050546,5216.5,-0.00012211,501.24,-0.00018882,-0.0097536,0.080441
25262,3.6739,4.6364,0.1,0.00050637,5060.2,0.00051248,5268.4,-0.00012935,445.96,-0.00018871,-0.029807,0.075791
25263,3.7658,4.5455,0.1,0.00050226,5019.1,0.00050844,5230.9,-0.00012725,454.56,-0.00018775,-0.021568,0.07986
25264,3.6739,4.8182,0.1,0.00051043,5100.8,0.00051596,5285.1,-0.00013538,391.23,-0.00018745,-0.047086,0.075093
25265,3.7658,4.7273,0.1,0.00050603,5056.8,0.00051169,5246.6,-0.00013285,403.82,-0.0001866,-0.036084,0.079195
25266,3.6739,5,0.1,0.00051481,5144.5,0.00051966,5303,-0.00014177,333.22,-0.00018613,-0.068319,0.074306
25267,3.7658,4.9091,0.1,0.00051012,5097.7,0.00051517,5263.5,-0.00013883,349.61,-0.00018537,-0.055013,0.078444
25268,3.6739,5.1818,0.1,0.00051945,5191,0.00052355,5321.8,-0.00014846,272.57,-0.00018475,-0.10105,0.073426
25269,3.7658,5.0909,0.1,0.00051449,5141.4,0.00051884,5281.3,-0.00014513,292.53,-0.00018407,-0.077328,0.077601
25270,3.6739,5.3636,0.1,0.00052433,5239.7,0.00052758,5341.4,-0.00015537,209.96,-0.00018333,-0.13256,0.072449
25271,3.7658,5.2727,0.1,0.0005191,5187.4,0.00052267,5300,-0.00015168,233.22,-0.00018274,-0.119,0.076663
25272,3.6739,5.5455,0.1,0.00052939,5290.3,0.00053172,5361.6,-0.00016244,145.9,-0.0001819,-0.28819,0.071371
25273,3.7658,5.4545,0.1,0.0005239,5235.4,0.00052662,5319.4,-0.00015841,172.3,-0.00018136,-0.14106,0.075626
25274,3.6739,5.7273,0.1,0.00053471,5343.4,0.00053602,5382.9,-0.0001697,80.364,-0.00018046,-0.4639,0.070186
25275,3.7658,5.6364,0.1,0.00052887,5285.1,0.00053065,5339.1,-0.00016527,110.15,-0.00017999,-0.43119,0.074485
25276,3.7658,5.8182,0.1,0.00053413,5337.6,0.0005349,5360.4,-0.00017234,46.537,-0.00017862,-0.63616,0.073235
25277,3.6739,5.9091,0.1,0.00053899,5386.2,0.00053939,5398.2,-0.0001758,24.507,-0.00017911,-0.35144,0.06889
25278,3.8576,0.27273,0.1,0.0005283,5279.3,0.00052954,5316.7,-0.00016795,76.049,-0.00017813,-0.41178,0.077651
25279,3.9495,0.18182,0.1,0.00052754,5271.8,0.00052828,5293.7,-0.00017032,44.689,-0.00017634,-0.54487,0.080871
25280,3.8576,0.090909,0.1,0.00053236,5320,0.00053276,5331.7,-0.00017367,23.822,-0.00017689,-0.32294,0.076337
25281,3.8576,0.45455,0.1,0.00052338,5230.2,0.00052556,5297,-0.00016126,136.46,-0.00017945,-0.26187,0.078855
25282,3.9495,0.36364,0.1,0.00052269,5223.3,0.00052437,5274,-0.00016381,103.32,-0.00017761,-0.39226,0.082138
25283,3.8576,0.63636,0.1,0.00051867,5183.1,0.00052172,5278.1,-0.00015473,195.48,-0.00018076,-0.12001,0.079953
25284,3.9495,0.54545,0.1,0.00051808,5177.2,0.00052062,5255.6,-0.00015747,160.64,-0.00017887,-0.1273,0.083297
25285,3.8576,0.81818,0.1,0.00051414,5137.8,0.00051797,5259.6,-0.00014836,253.11,-0.00018206,-0.09181,0.08095
25286,3.9495,0.72727,0.1,0.00051361,5132.6,0.00051695,5237.4,-0.00015126,216.75,-0.00018012,-0.10813,0.084352
25287,3.8576,1,0.1,0.0005098,5094.5,0.00051435,5241.9,-0.00014219,308.86,-0.00018331,-0.062078,0.081849
25288,3.9495,0.90909,0.1,0.00050932,5089.7,0.00051339,5219.9,-0.00014522,271.31,-0.00018134,-0.070241,0.085308
25289,3.8576,1.1818,0.1,0.00050572,5053.7,0.0005109,5225,-0.0001363,362.14,-0.00018451,-0.042777,0.082655
25290,3.9495,1.0909,0.1,0.00050525,5049,0.00050997,5203,-0.00013942,323.75,-0.00018251,-0.050008,0.086169
25291,3.8576,1.3636,0.1,0.00050192,5015.7,0.00050766,5209.1,-0.00013075,412.38,-0.00018564,-0.026988,0.083371
25292,3.9495,1.2727,0.1,0.00050143,5010.8,0.00050673,5187.1,-0.00013391,373.54,-0.00018363,-0.032752,0.086938
25293,3.8576,1.5455,0.1,0.00049843,4980.9,0.00050465,5194.5,-0.0001256,459.01,-0.0001867,-0.014484,0.084002
25294,3.9495,1.4545,0.1,0.00049789,4975.5,0.00050371,5172.2,-0.00012876,420.11,-0.00018468,-0.019462,0.087619
25295,3.8576,1.7273,0.1,0.00049529,4949.5,0.00050191,5181.2,-0.00012091,501.51,-0.00018766,-0.0043004,0.08455
25296,3.9495,1.6364,0.1,0.00049468,4943.4,0.00050093,5158.6,-0.00012402,462.95,-0.00018564,-0.0085798,0.088216
25297,3.8576,1.9091,0.1,0.00049253,4921.9,0.00049948,5169.4,-0.00011673,539.37,-0.00018852,0.0039297,0.085019
25298,3.9495,1.8182,0.1,0.00049182,4914.8,0.00049842,5146.3,-0.00011975,501.58,-0.00018651,0.00024129,0.088731
25299,3.8576,2.0909,0.1,0.00049016,4898.2,0.00049738,5159.2,-0.00011312,572.16,-0.00018926,0.010512,0.085411
25300,3.9495,2,0.1,0.00048932,4889.9,0.00049623,5135.6,-0.000116,535.54,-0.00018728,0.0073731,0.089167
25301,3.8576,2.2727,0.1,0.0004882,4878.7,0.00049563,5150.7,-0.0001101,599.51,-0.00018989,0.015648,0.085728
25302,3.9495,2.1818,0.1,0.00048722,4868.8,0.00049436,5126.5,-0.00011281,564.46,-0.00018793,0.013031,0.089527
25303,3.8576,2.4545,0.1,0.00048667,4863.3,0.00049425,5144,-0.00010772,621.11,-0.00019038,0.019491,0.085973
25304,3.9495,2.3636,0.1,0.00048552,4851.8,0.00049284,5119.1,-0.00011021,587.99,-0.00018846,0.01738,0.089812
25305,3.8576,2.6364,0.1,0.00048557,4852.3,0.00049325,5139.2,-0.000106,636.71,-0.00019074,0.022156,0.086147
25306,3.9495,2.5455,0.1,0.00048424,4839,0.00049169,5113.4,-0.00010823,605.87,-0.00018887,0.020539,0.090025
25307,3.8576,2.8182,0.1,0.0004849,4845.7,0.00049265,5136.3,-0.00010496,646.14,-0.00019095,0.023724,0.086251
25308,3.9495,2.7273,0.1,0.00048338,4830.4,0.00049091,5109.7,-0.0001069,617.91,-0.00018914,0.022599,0.090166
25309,3.8576,3,0.1,0.00048468,4843.5,0.00049245,5135.4,-0.00010461,649.3,-0.00019102,0.024242,0.086286
25310,3.9495,2.9091,0.1,0.00048294,4826.1,0.00049052,5107.8,-0.00010623,623.96,-0.00018928,0.023614,0.090236
25311,3.8576,3.1818,0.1,0.0004849,4845.7,0.00049265,5136.3,-0.00010496,646.14,-0.00019095,0.023724,0.086251
25312,3.9495,3.0909,0.1,0.00048294,4826.1,0.00049052,5107.8,-0.00010623,623.96,-0.00018928,0.023614,0.090236
25313,3.8576,3.3636,0.1,0.00048557,4852.3,0.00049325,5139.2,-0.000106,636.71,-0.00019074,0.022156,0.086147
25314,3.9495,3.2727,0.1,0.00048338,4830.4,0.00049091,5109.7,-0.0001069,617.91,-0.00018914,0.022599,0.090166
25315,3.8576,3.5455,0.1,0.00048667,4863.3,0.00049425,5144,-0.00010772,621.11,-0.00019038,0.019491,0.085973
25316,3.9495,3.4545,0.1,0.00048424,4839,0.00049169,5113.4,-0.00010823,605.87,-0.00018887,0.02054,0.090025
25317,3.8576,3.7273,0.1,0.0004882,4878.7,0.00049563,5150.7,-0.0001101,599.51,-0.00018989,0.015648,0.085728
25318,3.9495,3.6364,0.1,0.00048552,4851.8,0.00049284,5119.1,-0.00011021,587.99,-0.00018846,0.017381,0.089812
25319,3.8576,3.9091,0.1,0.00049016,4898.2,0.00049738,5159.2,-0.00011312,572.16,-0.00018926,0.010512,0.085411
25320,3.9495,3.8182,0.1,0.00048722,4868.8,0.00049436,5126.5,-0.00011281,564.46,-0.00018793,0.013032,0.089527
25321,3.8576,4.0909,0.1,0.00049253,4921.9,0.00049948,5169.4,-0.00011673,539.37,-0.00018852,0.0039302,0.085019
25322,3.9495,4,0.1,0.00048932,4889.9,0.00049623,5135.6,-0.000116,535.54,-0.00018728,0.0073735,0.089167
25323,3.8576,4.2727,0.1,0.00049529,4949.5,0.00050191,5181.2,-0.00012091,501.51,-0.00018766,-0.0042998,0.08455
25324,3.9495,4.1818,0.1,0.00049182,4914.8,0.00049842,5146.3,-0.00011975,501.58,-0.00018651,0.00024175,0.088731
25325,3.8576,4.4545,0.1,0.00049843,4980.9,0.00050465,5194.5,-0.0001256,459.01,-0.0001867,-0.014484,0.084002
25326,3.9495,4.3636,0.1,0.00049468,4943.4,0.00050093,5158.6,-0.00012402,462.95,-0.00018564,-0.0085792,0.088216
25327,3.8576,4.6364,0.1,0.00050192,5015.7,0.00050766,5209.1,-0.00013075,412.38,-0.00018564,-0.026988,0.083371
25328,3.9495,4.5455,0.1,0.00049789,4975.5,0.00050371,5172.2,-0.00012876,420.11,-0.00018468,-0.019462,0.087619
25329,3.8576,4.8182,0.1,0.00050572,5053.7,0.0005109,5225,-0.0001363,362.14,-0.00018451,-0.042776,0.082655
25330,3.9495,4.7273,0.1,0.00050143,5010.8,0.00050673,5187.1,-0.00013391,373.54,-0.00018363,-0.032751,0.086938
25331,3.8576,5,0.1,0.0005098,5094.5,0.00051435,5241.9,-0.00014219,308.86,-0.00018331,-0.062077,0.081849
25332,3.9495,4.9091,0.1,0.00050525,5049,0.00050997,5203,-0.00013942,323.75,-0.00018251,-0.050008,0.086169
25333,3.8576,5.1818,0.1,0.00051414,5137.8,0.00051797,5259.6,-0.00014836,253.11,-0.00018206,-0.091809,0.08095
25334,3.9495,5.0909,0.1,0.00050932,5089.7,0.00051339,5219.9,-0.00014522,271.31,-0.00018134,-0.07024,0.085308
25335,3.8576,5.3636,0.1,0.00051867,5183.1,0.00052172,5278.1,-0.00015473,195.48,-0.00018076,-0.12001,0.079953
25336,3.9495,5.2727,0.1,0.00051361,5132.6,0.00051695,5237.4,-0.00015126,216.75,-0.00018012,-0.10813,0.084352
25337,3.8576,5.5455,0.1,0.00052338,5230.2,0.00052556,5297,-0.00016126,136.46,-0.00017945,-0.26187,0.078855
25338,3.9495,5.4545,0.1,0.00051808,5177.2,0.00052062,5255.6,-0.00015747,160.64,-0.00017887,-0.1273,0.083297
25339,3.8576,5.7273,0.1,0.0005283,5279.3,0.00052954,5316.7,-0.00016795,76.049,-0.00017813,-0.41178,0.077651
25340,3.9495,5.6364,0.1,0.00052269,5223.3,0.00052437,5274,-0.00016381,103.32,-0.00017761,-0.39226,0.082138
25341,3.9495,5.8182,0.1,0.00052754,5271.8,0.00052828,5293.7,-0.00017032,44.689,-0.00017634,-0.54487,0.080871
25342,3.8576,5.9091,0.1,0.00053236,5320,0.00053276,5331.7,-0.00017367,23.822,-0.00017689,-0.32294,0.076337
25343,4.0413,0.27273,0.1,0.00052194,5215.8,0.00052311,5251.1,-0.00016621,71.73,-0.00017581,-0.3666,0.085474
25344,4.1332,0.18182,0.1,0.00052102,5206.6,0.00052172,5227.6,-0.00016834,42.655,-0.00017408,-0.46975,0.088863
25345,4.0413,0.090909,0.1,0.00052578,5254.2,0.00052616,5265.5,-0.00017157,22.965,-0.00017467,-0.2976,0.084144
25346,4.0413,0.45455,0.1,0.00051738,5170.3,0.00051943,5232.7,-0.00016004,127.43,-0.00017703,-0.23814,0.086694
25347,4.1332,0.36364,0.1,0.00051654,5161.8,0.00051811,5209.3,-0.00016234,96.716,-0.00017526,-0.35716,0.090144
25348,4.0413,0.63636,0.1,0.00051301,5126.6,0.00051586,5215,-0.00015401,181.84,-0.00017823,-0.10873,0.087808
25349,4.1332,0.54545,0.1,0.00051225,5119,0.00051463,5192.1,-0.00015648,149.59,-0.00017641,-0.11499,0.091318
25350,4.0413,0.81818,0.1,0.00050879,5084.4,0.00051238,5197.7,-0.00014814,234.88,-0.00017941,-0.083452,0.088822
25351,4.1332,0.72727,0.1,0.00050811,5077.6,0.00051123,5175.1,-0.00015075,201.28,-0.00017755,-0.098299,0.092389
25352,4.0413,1,0.1,0.00050476,5044.1,0.00050902,5181.1,-0.00014246,286.14,-0.00018055,-0.056427,0.089738
25353,4.1332,0.90909,0.1,0.00050412,5037.7,0.00050792,5158.7,-0.00014519,251.48,-0.00017867,-0.063832,0.093361
25354,4.0413,1.1818,0.1,0.00050095,5006.1,0.00050581,5165.2,-0.00013703,335.1,-0.00018164,-0.038876,0.09056
25355,4.1332,1.0909,0.1,0.00050033,4999.8,0.00050475,5142.9,-0.00013984,299.68,-0.00017973,-0.045476,0.094238
25356,4.0413,1.3636,0.1,0.0004974,4970.6,0.00050279,5150.2,-0.00013192,381.23,-0.00018267,-0.024456,0.091293
25357,4.1332,1.2727,0.1,0.00049676,4964.2,0.00050174,5127.9,-0.00013477,345.4,-0.00018075,-0.029745,0.095022
25358,4.0413,1.5455,0.1,0.00049414,4938,0.00049999,5136.3,-0.00012718,424.02,-0.00018362,-0.012985,0.091939
25359,4.1332,1.4545,0.1,0.00049347,4931.3,0.00049892,5113.9,-0.00013003,388.16,-0.00018169,-0.01759,0.095718
25360,4.0413,1.7273,0.1,0.0004912,4908.6,0.00049744,5123.7,-0.00012287,463.02,-0.00018449,-0.0035885,0.092501
25361,4.1332,1.6364,0.1,0.00049047,4901.3,0.00049634,5101,-0.00012567,427.47,-0.00018257,-0.0075873,0.096328
25362,4.0413,1.9091,0.1,0.00048861,4882.7,0.00049517,5112.5,-0.00011902,497.76,-0.00018527,0.0040541,0.092982
25363,4.1332,1.8182,0.1,0.00048778,4874.5,0.00049401,5089.4,-0.00012174,462.91,-0.00018335,0.00056526,0.096856
25364,4.0413,2.0909,0.1,0.00048638,4860.4,0.0004932,5102.8,-0.00011569,527.86,-0.00018594,0.010208,0.093385
25365,4.1332,2,0.1,0.00048544,4851.1,0.00049196,5079.2,-0.00011829,494.07,-0.00018404,0.0071965,0.097303
25366,4.0413,2.2727,0.1,0.00048454,4842,0.00049157,5094.8,-0.00011291,552.97,-0.0001865,0.015042,0.093712
25367,4.1332,2.1818,0.1,0.00048347,4831.3,0.00049021,5070.6,-0.00011535,520.6,-0.00018463,0.01249,0.097672
25368,4.0413,2.4545,0.1,0.00048309,4827.5,0.00049027,5088.4,-0.00011071,572.8,-0.00018695,0.018682,0.093964
25369,4.1332,2.3636,0.1,0.00048187,4815.4,0.0004888,5063.5,-0.00011295,542.2,-0.00018511,0.016583,0.097965
25370,4.0413,2.6364,0.1,0.00048205,4817.1,0.00048934,5083.8,-0.00010913,587.13,-0.00018727,0.021218,0.094143
25371,4.1332,2.5455,0.1,0.00048066,4803.3,0.00048772,5058.2,-0.00011114,558.61,-0.00018548,0.019571,0.098184
25372,4.0413,2.8182,0.1,0.00048142,4810.9,0.00048878,5081,-0.00010817,595.79,-0.00018746,0.022716,0.09425
25373,4.1332,2.7273,0.1,0.00047985,4795.2,0.00048699,5054.6,-0.00010991,569.66,-0.00018573,0.021527,0.098329
25374,4.0413,3,0.1,0.00048121,4808.8,0.00048859,5080.1,-0.00010785,598.69,-0.00018753,0.023211,0.094286
25375,4.1332,2.9091,0.1,0.00047944,4791.1,0.00048663,5052.8,-0.00010929,575.22,-0.00018585,0.022493,0.098401
25376,4.0413,3.1818,0.1,0.00048142,4810.9,0.00048878,5081,-0.00010817,595.79,-0.00018746,0.022716,0.09425
25377,4.1332,3.0909,0.1,0.00047944,4791.1,0.00048663,5052.8,-0.00010929,575.22,-0.00018585,0.022493,0.098401
25378,4.0413,3.3636,0.1,0.00048205,4817.1,0.00048934,5083.8,-0.00010913,587.13,-0.00018727,0.021219,0.094143
25379,4.1332,3.2727,0.1,0.00047985,4795.2,0.00048699,5054.6,-0.00010991,569.66,-0.00018573,0.021527,0.098329
25380,4.0413,3.5455,0.1,0.00048309,4827.5,0.00049027,5088.4,-0.00011071,572.8,-0.00018695,0.018682,0.093964
25381,4.1332,3.4545,0.1,0.00048066,4803.3,0.00048772,5058.2,-0.00011114,558.61,-0.00018548,0.019571,0.098184
25382,4.0413,3.7273,0.1,0.00048454,4842,0.00049157,5094.8,-0.00011291,552.97,-0.0001865,0.015042,0.093712
25383,4.1332,3.6364,0.1,0.00048187,4815.4,0.0004888,5063.5,-0.00011295,542.2,-0.00018511,0.016583,0.097965
25384,4.0413,3.9091,0.1,0.00048638,4860.4,0.0004932,5102.8,-0.00011569,527.86,-0.00018594,0.010208,0.093385
25385,4.1332,3.8182,0.1,0.00048347,4831.3,0.00049021,5070.6,-0.00011535,520.6,-0.00018463,0.012491,0.097672
25386,4.0413,4.0909,0.1,0.00048861,4882.7,0.00049517,5112.5,-0.00011902,497.76,-0.00018527,0.0040545,0.092982
25387,4.1332,4,0.1,0.00048544,4851.1,0.00049196,5079.2,-0.00011829,494.07,-0.00018404,0.007197,0.097303
25388,4.0413,4.2727,0.1,0.0004912,4908.6,0.00049744,5123.7,-0.00012287,463.02,-0.00018449,-0.003588,0.092501
25389,4.1332,4.1818,0.1,0.00048778,4874.5,0.00049401,5089.4,-0.00012174,462.91,-0.00018335,0.00056565,0.096856
25390,4.0413,4.4545,0.1,0.00049414,4938,0.00049999,5136.3,-0.00012718,424.02,-0.00018362,-0.012984,0.091939
25391,4.1332,4.3636,0.1,0.00049047,4901.3,0.00049634,5101,-0.00012567,427.47,-0.00018257,-0.0075867,0.096328
25392,4.0413,4.6364,0.1,0.0004974,4970.6,0.00050279,5150.2,-0.00013192,381.23,-0.00018267,-0.024456,0.091293
25393,4.1332,4.5455,0.1,0.00049347,4931.3,0.00049892,5113.9,-0.00013003,388.16,-0.00018169,-0.017589,0.095718
25394,4.0413,4.8182,0.1,0.00050095,5006.1,0.00050581,5165.2,-0.00013703,335.1,-0.00018164,-0.038875,0.09056
25395,4.1332,4.7273,0.1,0.00049676,4964.2,0.00050174,5127.9,-0.00013477,345.4,-0.00018075,-0.029745,0.095022
25396,4.0413,5,0.1,0.00050476,5044.1,0.00050902,5181.1,-0.00014246,286.14,-0.00018055,-0.056426,0.089738
25397,4.1332,4.9091,0.1,0.00050033,4999.8,0.00050475,5142.9,-0.00013984,299.68,-0.00017973,-0.045475,0.094238
25398,4.0413,5.1818,0.1,0.00050879,5084.4,0.00051238,5197.7,-0.00014814,234.88,-0.00017941,-0.083451,0.088822
25399,4.1332,5.0909,0.1,0.00050412,5037.7,0.00050792,5158.7,-0.00014519,251.48,-0.00017866,-0.063831,0.093361
25400,4.0413,5.3636,0.1,0.00051301,5126.6,0.00051586,5215,-0.00015401,181.84,-0.00017823,-0.10873,0.087808
25401,4.1332,5.2727,0.1,0.00050811,5077.6,0.00051123,5175.1,-0.00015075,201.28,-0.00017755,-0.098299,0.092389
25402,4.0413,5.5455,0.1,0.00051738,5170.3,0.00051943,5232.7,-0.00016004,127.43,-0.00017703,-0.23814,0.086694
25403,4.1332,5.4545,0.1,0.00051225,5119,0.00051463,5192.1,-0.00015648,149.59,-0.00017641,-0.11499,0.091318
25404,4.0413,5.7273,0.1,0.00052194,5215.8,0.00052311,5251.1,-0.00016621,71.73,-0.00017581,-0.3666,0.085474
25405,4.1332,5.6364,0.1,0.00051654,5161.8,0.00051811,5209.3,-0.00016234,96.716,-0.00017526,-0.35716,0.090144
25406,4.1332,5.8182,0.1,0.00052102,5206.6,0.00052172,5227.6,-0.00016834,42.655,-0.00017408,-0.46975,0.088863
25407,4.0413,5.9091,0.1,0.00052578,5254.2,0.00052616,5265.5,-0.00017157,22.965,-0.00017467,-0.2976,0.084144
25408,4.225,0.27273,0.1,0.00051562,5152.7,0.00051673,5185.9,-0.00016449,67.444,-0.00017351,-0.32725,0.093648
25409,4.3168,0.18182,0.1,0.00051456,5142.1,0.00051523,5162,-0.0001664,40.487,-0.00017184,-0.40749,0.097207
25410,4.225,0.090909,0.1,0.00051925,5188.9,0.00051962,5199.7,-0.0001695,21.976,-0.00017246,-0.27493,0.092306
25411,4.225,0.45455,0.1,0.00051141,5110.6,0.00051332,5168.8,-0.00015879,118.81,-0.00017463,-0.21671,0.094882
25412,4.3168,0.36364,0.1,0.00051042,5100.7,0.0005119,5145.1,-0.00016086,90.343,-0.00017292,-0.32543,0.0985
25413,4.225,0.63636,0.1,0.00050735,5070,0.00051001,5152.3,-0.00015323,168.97,-0.00017573,-0.098576,0.096011
25414,4.3168,0.54545,0.1,0.00050645,5061,0.00050867,5129.1,-0.00015545,139.12,-0.00017398,-0.10396,0.099686
25415,4.225,0.81818,0.1,0.00050343,5030.8,0.00050678,5136.2,-0.00014781,217.81,-0.00017681,-0.075891,0.097039
25416,4.3168,0.72727,0.1,0.0005026,5022.5,0.00050551,5113.2,-0.00015016,186.75,-0.00017503,-0.089406,0.10077
25417,4.225,1,0.1,0.00049968,4993.4,0.00050366,5120.5,-0.00014258,264.96,-0.00017785,-0.051313,0.09797
25418,4.3168,0.90909,0.1,0.00049889,4985.5,0.00050245,5097.8,-0.00014503,232.94,-0.00017604,-0.058032,0.10176
25419,4.225,1.1818,0.1,0.00049614,4958,0.00050068,5105.6,-0.00013759,309.94,-0.00017884,-0.03535,0.098807
25420,4.3168,1.0909,0.1,0.00049537,4950.3,0.0004995,5083,-0.00014011,277.26,-0.00017702,-0.041372,0.10265
25421,4.225,1.3636,0.1,0.00049283,4924.9,0.00049788,5091.6,-0.00013288,352.3,-0.00017977,-0.022187,0.099553
25422,4.3168,1.2727,0.1,0.00049205,4917.2,0.00049671,5069,-0.00013544,319.26,-0.00017794,-0.027034,0.10344
25423,4.225,1.5455,0.1,0.00048979,4894.5,0.00049527,5078.5,-0.00012852,391.58,-0.00018064,-0.011677,0.10021
25424,4.3168,1.4545,0.1,0.00048898,4886.5,0.00049409,5055.8,-0.00013108,358.5,-0.0001788,-0.015925,0.10415
25425,4.225,1.7273,0.1,0.00048704,4867.1,0.0004929,5066.7,-0.00012455,427.35,-0.00018143,-0.0030295,0.10079
25426,4.3168,1.6364,0.1,0.00048618,4858.5,0.00049169,5043.7,-0.00012707,394.58,-0.00017959,-0.0067487,0.10478
25427,4.225,1.9091,0.1,0.00048462,4842.8,0.00049079,5056.1,-0.00012101,459.22,-0.00018213,0.0040398,0.10128
25428,4.3168,1.8182,0.1,0.00048368,4833.5,0.00048953,5032.8,-0.00012346,427.08,-0.0001803,0.00076369,0.10531
25429,4.225,2.0909,0.1,0.00048253,4822,0.00048896,5046.9,-0.00011795,486.83,-0.00018274,0.0097626,0.10169
25430,4.3168,2,0.1,0.00048149,4811.6,0.00048762,5023.2,-0.00012028,455.66,-0.00018093,0.0069034,0.10577
25431,4.225,2.2727,0.1,0.0004808,4804.7,0.00048744,5039.3,-0.00011539,509.86,-0.00018325,0.014282,0.10203
25432,4.3168,2.1818,0.1,0.00047964,4793.1,0.000486,5015.1,-0.00011758,479.99,-0.00018146,0.011829,0.10615
25433,4.225,2.4545,0.1,0.00047944,4791.1,0.00048623,5033.2,-0.00011337,528.05,-0.00018365,0.017701,0.10229
25434,4.3168,2.3636,0.1,0.00047814,4778.1,0.00048468,5008.4,-0.00011538,499.8,-0.00018189,0.015654,0.10645
25435,4.225,2.6364,0.1,0.00047846,4781.3,0.00048536,5028.9,-0.00011191,541.2,-0.00018394,0.020093,0.10247
25436,4.3168,2.5455,0.1,0.00047701,4766.8,0.00048368,5003.4,-0.0001137,514.85,-0.00018222,0.018458,0.10667
25437,4.225,2.8182,0.1,0.00047787,4775.4,0.00048484,5026.3,-0.00011103,549.14,-0.00018411,0.021509,0.10258
25438,4.3168,2.7273,0.1,0.00047625,4759.2,0.000483,5000,-0.00011258,524.99,-0.00018245,0.020299,0.10682
25439,4.225,3,0.1,0.00047767,4773.4,0.00048466,5025.4,-0.00011073,551.8,-0.00018417,0.021978,0.10262
25440,4.3168,2.9091,0.1,0.00047587,4755.4,0.00048266,4998.2,-0.00011201,530.08,-0.00018256,0.021211,0.10689
25441,4.225,3.1818,0.1,0.00047787,4775.4,0.00048484,5026.3,-0.00011103,549.14,-0.00018411,0.021509,0.10258
25442,4.3168,3.0909,0.1,0.00047587,4755.4,0.00048266,4998.2,-0.00011201,530.08,-0.00018256,0.021211,0.10689
25443,4.225,3.3636,0.1,0.00047846,4781.3,0.00048536,5028.9,-0.00011191,541.2,-0.00018394,0.020093,0.10247
25444,4.3168,3.2727,0.1,0.00047625,4759.2,0.000483,5000,-0.00011258,524.99,-0.00018245,0.020299,0.10682
25445,4.225,3.5455,0.1,0.00047944,4791.1,0.00048623,5033.2,-0.00011337,528.05,-0.00018365,0.017701,0.10229
25446,4.3168,3.4545,0.1,0.00047701,4766.8,0.00048368,5003.4,-0.0001137,514.85,-0.00018222,0.018458,0.10667
25447,4.225,3.7273,0.1,0.0004808,4804.7,0.00048744,5039.3,-0.00011539,509.86,-0.00018325,0.014282,0.10203
25448,4.3168,3.6364,0.1,0.00047814,4778.1,0.00048468,5008.4,-0.00011538,499.8,-0.00018189,0.015654,0.10645
25449,4.225,3.9091,0.1,0.00048253,4822,0.00048896,5046.9,-0.00011795,486.83,-0.00018274,0.009763,0.10169
25450,4.3168,3.8182,0.1,0.00047964,4793.1,0.000486,5015.1,-0.00011758,479.99,-0.00018146,0.011829,0.10615
25451,4.225,4.0909,0.1,0.00048462,4842.8,0.00049079,5056.1,-0.00012101,459.22,-0.00018213,0.0040402,0.10128
25452,4.3168,4,0.1,0.00048149,4811.6,0.00048762,5023.2,-0.00012028,455.66,-0.00018093,0.0069039,0.10577
25453,4.225,4.2727,0.1,0.00048704,4867.1,0.0004929,5066.7,-0.00012455,427.35,-0.00018143,-0.003029,0.10079
25454,4.3168,4.1818,0.1,0.00048368,4833.5,0.00048953,5032.8,-0.00012346,427.08,-0.0001803,0.0007641,0.10531
25455,4.225,4.4545,0.1,0.00048979,4894.5,0.00049527,5078.5,-0.00012852,391.58,-0.00018064,-0.011677,0.10021
25456,4.3168,4.3636,0.1,0.00048618,4858.5,0.00049169,5043.7,-0.00012707,394.58,-0.00017959,-0.0067482,0.10478
25457,4.225,4.6364,0.1,0.00049283,4924.9,0.00049788,5091.6,-0.00013288,352.3,-0.00017977,-0.022186,0.099553
25458,4.3168,4.5455,0.1,0.00048898,4886.5,0.00049409,5055.8,-0.00013108,358.5,-0.0001788,-0.015925,0.10415
25459,4.225,4.8182,0.1,0.00049614,4958,0.00050068,5105.6,-0.00013759,309.94,-0.00017884,-0.035349,0.098807
25460,4.3168,4.7273,0.1,0.00049205,4917.2,0.00049671,5069,-0.00013544,319.26,-0.00017794,-0.027034,0.10344
25461,4.225,5,0.1,0.00049968,4993.4,0.00050366,5120.5,-0.00014258,264.96,-0.00017785,-0.051312,0.09797
25462,4.3168,4.9091,0.1,0.00049537,4950.3,0.0004995,5083,-0.00014011,277.26,-0.00017702,-0.041371,0.10265
25463,4.225,5.1818,0.1,0.00050343,5030.8,0.00050678,5136.2,-0.00014781,217.81,-0.00017681,-0.07589,0.097039
25464,4.3168,5.0909,0.1,0.00049889,4985.5,0.00050245,5097.8,-0.00014503,232.94,-0.00017604,-0.058031,0.10176
25465,4.225,5.3636,0.1,0.00050735,5070,0.00051001,5152.3,-0.00015323,168.97,-0.00017573,-0.098576,0.096011
25466,4.3168,5.2727,0.1,0.0005026,5022.5,0.00050551,5113.2,-0.00015016,186.75,-0.00017503,-0.089406,0.10077
25467,4.225,5.5455,0.1,0.00051141,5110.6,0.00051332,5168.8,-0.00015879,118.81,-0.00017463,-0.21671,0.094882
25468,4.3168,5.4545,0.1,0.00050645,5061,0.00050867,5129.1,-0.00015545,139.12,-0.00017398,-0.10396,0.099686
25469,4.225,5.7273,0.1,0.00051562,5152.7,0.00051673,5185.9,-0.00016449,67.444,-0.00017351,-0.32725,0.093648
25470,4.3168,5.6364,0.1,0.00051042,5100.7,0.0005119,5145.1,-0.00016086,90.343,-0.00017292,-0.32543,0.0985
25471,4.3168,5.8182,0.1,0.00051456,5142.1,0.00051523,5162,-0.0001664,40.487,-0.00017184,-0.40749,0.097207
25472,4.225,5.9091,0.1,0.00051925,5188.9,0.00051962,5199.7,-0.0001695,21.975,-0.00017246,-0.27493,0.092306
25473,4.4087,0.27273,0.1,0.00050936,5090.1,0.0005104,5121.3,-0.00016278,63.218,-0.00017124,-0.29283,0.10217
25474,4.5005,0.18182,0.1,0.00050818,5078.3,0.00050881,5097.1,-0.00016448,38.226,-0.00016962,-0.35556,0.1059
25475,4.4087,0.090909,0.1,0.00051278,5124.2,0.00051312,5134.5,-0.00016746,20.886,-0.00017027,-0.25456,0.10082
25476,4.4087,0.45455,0.1,0.00050546,5051.1,0.00050725,5105.4,-0.00015752,110.6,-0.00017227,-0.19732,0.10342
25477,4.5005,0.36364,0.1,0.00050435,5040,0.00050573,5081.5,-0.00015937,84.214,-0.00017061,-0.2967,0.1072
25478,4.4087,0.63636,0.1,0.0005017,5013.5,0.00050418,5090,-0.00015239,156.85,-0.00017328,-0.089421,0.10456
25479,4.5005,0.54545,0.1,0.00050066,5003.2,0.00050273,5066.5,-0.00015438,129.22,-0.00017159,-0.094052,0.1084
25480,4.4087,0.81818,0.1,0.00049806,4977.2,0.00050118,5075,-0.00014739,201.83,-0.00017426,-0.069042,0.1056
25481,4.5005,0.72727,0.1,0.00049709,4967.5,0.00049981,5051.7,-0.0001495,173.1,-0.00017255,-0.081353,0.10949
25482,4.4087,1,0.1,0.00049458,4942.4,0.00049829,5060.4,-0.00014257,245.19,-0.00017521,-0.046681,0.10654
25483,4.5005,0.90909,0.1,0.00049365,4933.1,0.00049697,5037.4,-0.00014477,215.62,-0.00017347,-0.052785,0.11049
25484,4.4087,1.1818,0.1,0.00049128,4909.5,0.00049553,5046.4,-0.00013797,286.53,-0.00017611,-0.032161,0.10739
25485,4.5005,1.0909,0.1,0.00049038,4900.4,0.00049424,5023.5,-0.00014024,256.37,-0.00017436,-0.03766,0.11139
25486,4.4087,1.3636,0.1,0.00048821,4878.7,0.00049293,5033.3,-0.00013365,325.43,-0.00017696,-0.02015,0.10815
25487,4.5005,1.2727,0.1,0.0004873,4869.6,0.00049165,5010.4,-0.00013594,294.95,-0.0001752,-0.024594,0.1122
25488,4.4087,1.5455,0.1,0.00048538,4850.4,0.00049052,5021.1,-0.00012964,361.48,-0.00017775,-0.010534,0.10882
25489,4.5005,1.4545,0.1,0.00048445,4841.1,0.00048923,4998.1,-0.00013193,330.98,-0.00017598,-0.01445,0.11292
25490,4.4087,1.7273,0.1,0.00048282,4824.9,0.00048832,5009.9,-0.00012598,394.29,-0.00017846,-0.0025919,0.10941
25491,4.5005,1.6364,0.1,0.00048184,4815.1,0.000487,4986.8,-0.00012824,364.08,-0.0001767,-0.0060435,0.11355
25492,4.4087,1.9091,0.1,0.00048056,4802.2,0.00048636,5000,-0.00012273,423.52,-0.0001791,0.0039261,0.10991
25493,4.5005,1.8182,0.1,0.00047951,4791.8,0.00048499,4976.6,-0.00012492,393.89,-0.00017735,0.00086193,0.1141
25494,4.4087,2.0909,0.1,0.00047861,4782.8,0.00048466,4991.4,-0.00011991,448.84,-0.00017965,0.0092249,0.11033
25495,4.5005,2,0.1,0.00047747,4771.4,0.00048323,4967.6,-0.000122,420.1,-0.00017791,0.0065268,0.11457
25496,4.4087,2.2727,0.1,0.00047699,4766.6,0.00048324,4984.2,-0.00011756,469.95,-0.00018011,0.013427,0.11067
25497,4.5005,2.1818,0.1,0.00047574,4754.1,0.00048172,4959.9,-0.00011952,442.4,-0.0001784,0.011089,0.11495
25498,4.4087,2.4545,0.1,0.00047572,4753.9,0.00048212,4978.5,-0.00011571,486.63,-0.00018047,0.016617,0.11094
25499,4.5005,2.3636,0.1,0.00047434,4740.2,0.0004805,4953.6,-0.0001175,460.56,-0.00017879,0.014644,0.11526
25500,4.4087,2.6364,0.1,0.0004748,4744.7,0.00048131,4974.4,-0.00011437,498.68,-0.00018073,0.018856,0.11112
25501,4.5005,2.5455,0.1,0.00047328,4729.6,0.00047957,4948.9,-0.00011596,474.35,-0.00017909,0.017259,0.11549
25502,4.4087,2.8182,0.1,0.00047425,4739.2,0.00048082,4971.9,-0.00011356,505.97,-0.00018089,0.020185,0.11124
25503,4.5005,2.7273,0.1,0.00047257,4722.5,0.00047894,4945.7,-0.00011492,483.64,-0.00017929,0.018979,0.11564
25504,4.4087,3,0.1,0.00047406,4737.4,0.00048066,4971.1,-0.00011328,508.4,-0.00018095,0.020626,0.11127
25505,4.5005,2.9091,0.1,0.00047222,4718.9,0.00047862,4944.1,-0.0001144,488.31,-0.00017939,0.019833,0.11571
25506,4.4087,3.1818,0.1,0.00047425,4739.2,0.00048082,4971.9,-0.00011356,505.97,-0.00018089,0.020185,0.11124
25507,4.5005,3.0909,0.1,0.00047222,4718.9,0.00047862,4944.1,-0.0001144,488.31,-0.00017939,0.019833,0.11571
25508,4.4087,3.3636,0.1,0.0004748,4744.7,0.00048131,4974.4,-0.00011437,498.68,-0.00018073,0.018856,0.11112
25509,4.5005,3.2727,0.1,0.00047257,4722.5,0.00047894,4945.7,-0.00011492,483.64,-0.00017929,0.018979,0.11564
25510,4.4087,3.5455,0.1,0.00047572,4753.9,0.00048212,4978.5,-0.00011571,486.63,-0.00018047,0.016617,0.11094
25511,4.5005,3.4545,0.1,0.00047328,4729.6,0.00047957,4948.9,-0.00011596,474.35,-0.00017909,0.017259,0.11549
25512,4.4087,3.7273,0.1,0.00047699,4766.6,0.00048324,4984.2,-0.00011756,469.95,-0.00018011,0.013427,0.11067
25513,4.5005,3.6364,0.1,0.00047434,4740.2,0.0004805,4953.6,-0.0001175,460.56,-0.00017879,0.014645,0.11526
25514,4.4087,3.9091,0.1,0.00047861,4782.8,0.00048466,4991.4,-0.00011991,448.84,-0.00017965,0.0092253,0.11033
25515,4.5005,3.8182,0.1,0.00047574,4754.1,0.00048172,4959.9,-0.00011952,442.4,-0.0001784,0.011089,0.11495
25516,4.4087,4.0909,0.1,0.00048056,4802.2,0.00048636,5000,-0.00012273,423.52,-0.0001791,0.0039266,0.10991
25517,4.5005,4,0.1,0.00047747,4771.4,0.00048323,4967.6,-0.000122,420.1,-0.00017791,0.0065272,0.11457
25518,4.4087,4.2727,0.1,0.00048282,4824.9,0.00048832,5009.9,-0.00012598,394.29,-0.00017846,-0.0025915,0.10941
25519,4.5005,4.1818,0.1,0.00047951,4791.8,0.00048499,4976.6,-0.00012492,393.89,-0.00017735,0.00086242,0.1141
25520,4.4087,4.4545,0.1,0.00048538,4850.4,0.00049052,5021.1,-0.00012964,361.48,-0.00017775,-0.010533,0.10882
25521,4.5005,4.3636,0.1,0.00048184,4815.1,0.000487,4986.8,-0.00012824,364.08,-0.0001767,-0.0060429,0.11355
25522,4.4087,4.6364,0.1,0.00048821,4878.7,0.00049293,5033.3,-0.00013365,325.43,-0.00017696,-0.02015,0.10815
25523,4.5005,4.5455,0.1,0.00048445,4841.1,0.00048923,4998.1,-0.00013193,330.98,-0.00017598,-0.014449,0.11292
25524,4.4087,4.8182,0.1,0.00049128,4909.5,0.00049553,5046.4,-0.00013797,286.53,-0.00017611,-0.03216,0.10739
25525,4.5005,4.7273,0.1,0.0004873,4869.6,0.00049165,5010.4,-0.00013594,294.95,-0.0001752,-0.024593,0.1122
25526,4.4087,5,0.1,0.00049458,4942.4,0.00049829,5060.4,-0.00014257,245.19,-0.00017521,-0.04668,0.10654
25527,4.5005,4.9091,0.1,0.00049038,4900.4,0.00049424,5023.5,-0.00014024,256.37,-0.00017436,-0.037659,0.11139
25528,4.4087,5.1818,0.1,0.00049806,4977.2,0.00050118,5075,-0.00014739,201.83,-0.00017426,-0.069041,0.1056
25529,4.5005,5.0909,0.1,0.00049365,4933.1,0.00049696,5037.4,-0.00014477,215.62,-0.00017347,-0.052784,0.11049
25530,4.4087,5.3636,0.1,0.0005017,5013.5,0.00050418,5090,-0.00015239,156.85,-0.00017328,-0.089421,0.10456
25531,4.5005,5.2727,0.1,0.00049709,4967.5,0.00049981,5051.7,-0.0001495,173.1,-0.00017255,-0.081352,0.10949
25532,4.4087,5.5455,0.1,0.00050546,5051.1,0.00050725,5105.4,-0.00015752,110.6,-0.00017227,-0.19731,0.10342
25533,4.5005,5.4545,0.1,0.00050066,5003.2,0.00050273,5066.5,-0.00015438,129.22,-0.00017159,-0.094052,0.1084
25534,4.4087,5.7273,0.1,0.00050936,5090.1,0.0005104,5121.3,-0.00016278,63.218,-0.00017124,-0.29283,0.10217
25535,4.5005,5.6364,0.1,0.00050435,5040,0.00050573,5081.5,-0.00015937,84.214,-0.00017061,-0.29669,0.1072
25536,4.5005,5.8182,0.1,0.00050818,5078.3,0.00050881,5097.1,-0.00016448,38.226,-0.00016962,-0.35556,0.1059
25537,4.4087,5.9091,0.1,0.00051278,5124.2,0.00051312,5134.5,-0.00016746,20.886,-0.00017027,-0.25455,0.10082
25538,4.5924,0.27273,0.1,0.00050316,5028.1,0.00050414,5057.3,-0.00016109,59.079,-0.00016898,-0.26262,0.11104
25539,4.6842,0.18182,0.1,0.00050186,5015.1,0.00050245,5032.8,-0.00016259,35.909,-0.00016741,-0.31203,0.11493
25540,4.5924,0.090909,0.1,0.00050636,5060.1,0.00050669,5069.8,-0.00016544,19.724,-0.00016809,-0.23619,0.10968
25541,4.5924,0.45455,0.1,0.00049955,4992.1,0.00050122,5042.6,-0.00015623,102.78,-0.00016993,-0.17974,0.11229
25542,4.6842,0.36364,0.1,0.00049832,4979.8,0.0004996,5018.3,-0.00015787,78.337,-0.00016833,-0.27062,0.11624
25543,4.5924,0.63636,0.1,0.00049606,4957.1,0.00049837,5028.2,-0.00015149,145.43,-0.00017086,-0.081161,0.11344
25544,4.6842,0.54545,0.1,0.0004949,4945.6,0.00049683,5004.4,-0.00015326,119.86,-0.00016923,-0.085145,0.11745
25545,4.5924,0.81818,0.1,0.00049268,4923.4,0.00049559,5014.2,-0.00014688,186.86,-0.00017176,-0.06284,0.11449
25546,4.6842,0.72727,0.1,0.00049159,4912.5,0.00049412,4990.6,-0.00014876,160.3,-0.00017011,-0.074057,0.11855
25547,4.5924,1,0.1,0.00048945,4891.2,0.00049291,5000.6,-0.00014244,226.76,-0.00017262,-0.042493,0.11545
25548,4.6842,0.90909,0.1,0.0004884,4880.6,0.00049149,4977.3,-0.0001444,199.44,-0.00017095,-0.04804,0.11956
25549,4.5924,1.1818,0.1,0.0004864,4860.6,0.00049036,4987.5,-0.00013821,264.75,-0.00017345,-0.029286,0.11631
25550,4.6842,1.0909,0.1,0.00048536,4850.3,0.00048896,4964.4,-0.00014023,236.91,-0.00017176,-0.034309,0.12047
25551,4.5924,1.3636,0.1,0.00048354,4832.1,0.00048795,4975.3,-0.00013423,300.47,-0.00017422,-0.018332,0.11708
25552,4.6842,1.2727,0.1,0.00048251,4821.7,0.00048656,4952.1,-0.00013628,272.36,-0.00017253,-0.022405,0.12129
25553,4.5924,1.5455,0.1,0.00048091,4805.8,0.00048571,4963.9,-0.00013054,333.56,-0.00017494,-0.0095424,0.11776
25554,4.6842,1.4545,0.1,0.00047986,4795.3,0.00048432,4940.7,-0.00013259,305.43,-0.00017324,-0.013149,0.12202
25555,4.5924,1.7273,0.1,0.00047853,4782,0.00048368,4953.4,-0.00012719,363.66,-0.00017559,-0.0022622,0.11835
25556,4.6842,1.6364,0.1,0.00047744,4771.1,0.00048226,4930.1,-0.0001292,335.8,-0.0001739,-0.0054585,0.12266
25557,4.5924,1.9091,0.1,0.00047642,4760.9,0.00048186,4944.1,-0.0001242,390.46,-0.00017616,0.0037317,0.11886
25558,4.6842,1.8182,0.1,0.00047527,4749.4,0.0004804,4920.6,-0.00012615,363.15,-0.00017448,0.00087577,0.12322
25559,4.5924,2.0909,0.1,0.00047461,4742.8,0.00048029,4936.1,-0.00012161,413.67,-0.00017666,0.0086204,0.11929
25560,4.6842,2,0.1,0.00047337,4730.5,0.00047877,4912.1,-0.00012347,387.17,-0.000175,0.0060875,0.12369
25561,4.5924,2.2727,0.1,0.0004731,4727.7,0.00047898,4929.4,-0.00011945,433.02,-0.00017708,0.01251,0.11964
25562,4.6842,2.1818,0.1,0.00047177,4714.4,0.00047738,4905,-0.00012119,407.61,-0.00017544,0.010297,0.12408
25563,4.5924,2.4545,0.1,0.00047191,4715.9,0.00047794,4924,-0.00011774,448.3,-0.00017741,0.015471,0.11991
25564,4.6842,2.3636,0.1,0.00047046,4701.4,0.00047624,4899.1,-0.00011933,424.25,-0.00017579,0.013587,0.12439
25565,4.5924,2.6364,0.1,0.00047106,4707.3,0.00047719,4920.2,-0.00011651,459.34,-0.00017764,0.017555,0.1201
25566,4.6842,2.5455,0.1,0.00046948,4691.5,0.00047538,4894.7,-0.00011792,436.89,-0.00017606,0.016012,0.12462
25567,4.5924,2.8182,0.1,0.00047054,4702.2,0.00047673,4917.8,-0.00011577,466.02,-0.00017779,0.018793,0.12022
25568,4.6842,2.7273,0.1,0.00046881,4684.9,0.0004748,4891.7,-0.00011697,445.4,-0.00017624,0.017611,0.12478
25569,4.5924,3,0.1,0.00047037,4700.5,0.00047658,4917.1,-0.00011552,468.25,-0.00017784,0.019205,0.12025
25570,4.6842,2.9091,0.1,0.00046848,4681.6,0.00047451,4890.2,-0.00011649,449.68,-0.00017634,0.018406,0.12486
25571,4.5924,3.1818,0.1,0.00047054,4702.2,0.00047673,4917.8,-0.00011577,466.02,-0.00017779,0.018794,0.12022
25572,4.6842,3.0909,0.1,0.00046848,4681.6,0.00047451,4890.2,-0.00011649,449.68,-0.00017634,0.018406,0.12486
25573,4.5924,3.3636,0.1,0.00047106,4707.3,0.00047719,4920.2,-0.00011651,459.34,-0.00017764,0.017555,0.1201
25574,4.6842,3.2727,0.1,0.00046881,4684.9,0.0004748,4891.7,-0.00011697,445.4,-0.00017624,0.017611,0.12478
25575,4.5924,3.5455,0.1,0.00047191,4715.9,0.00047794,4924,-0.00011774,448.3,-0.00017741,0.015471,0.11991
25576,4.6842,3.4545,0.1,0.00046948,4691.5,0.00047538,4894.7,-0.00011792,436.89,-0.00017606,0.016012,0.12462
25577,4.5924,3.7273,0.1,0.0004731,4727.7,0.00047898,4929.4,-0.00011945,433.02,-0.00017708,0.01251,0.11964
25578,4.6842,3.6364,0.1,0.00047046,4701.4,0.00047624,4899.1,-0.00011933,424.25,-0.00017579,0.013587,0.12439
25579,4.5924,3.9091,0.1,0.00047461,4742.8,0.00048029,4936.1,-0.00012161,413.67,-0.00017666,0.0086207,0.11929
25580,4.6842,3.8182,0.1,0.00047177,4714.4,0.00047738,4905,-0.00012119,407.61,-0.00017544,0.010297,0.12408
25581,4.5924,4.0909,0.1,0.00047642,4760.9,0.00048186,4944.1,-0.0001242,390.46,-0.00017616,0.0037321,0.11886
25582,4.6842,4,0.1,0.00047337,4730.5,0.00047877,4912.1,-0.00012347,387.17,-0.000175,0.0060878,0.12369
25583,4.5924,4.2727,0.1,0.00047853,4782,0.00048368,4953.4,-0.00012719,363.66,-0.00017559,-0.0022616,0.11835
25584,4.6842,4.1818,0.1,0.00047527,4749.4,0.0004804,4920.5,-0.00012615,363.15,-0.00017448,0.00087623,0.12322
25585,4.5924,4.4545,0.1,0.00048091,4805.8,0.00048571,4963.9,-0.00013054,333.56,-0.00017494,-0.0095418,0.11776
25586,4.6842,4.3636,0.1,0.00047744,4771.1,0.00048226,4930.1,-0.0001292,335.8,-0.0001739,-0.0054579,0.12266
25587,4.5924,4.6364,0.1,0.00048354,4832.1,0.00048795,4975.3,-0.00013423,300.47,-0.00017422,-0.018332,0.11708
25588,4.6842,4.5455,0.1,0.00047986,4795.3,0.00048432,4940.7,-0.00013259,305.43,-0.00017324,-0.013148,0.12202
25589,4.5924,4.8182,0.1,0.0004864,4860.6,0.00049036,4987.5,-0.00013821,264.75,-0.00017345,-0.029285,0.11631
25590,4.6842,4.7273,0.1,0.00048251,4821.7,0.00048656,4952.1,-0.00013628,272.36,-0.00017253,-0.022404,0.12129
25591,4.5924,5,0.1,0.00048945,4891.2,0.00049291,5000.6,-0.00014244,226.75,-0.00017262,-0.042492,0.11545
25592,4.6842,4.9091,0.1,0.00048536,4850.3,0.00048896,4964.4,-0.00014023,236.91,-0.00017176,-0.034308,0.12047
25593,4.5924,5.1818,0.1,0.00049268,4923.4,0.00049559,5014.2,-0.00014688,186.86,-0.00017176,-0.062839,0.11449
25594,4.6842,5.0909,0.1,0.0004884,4880.6,0.00049149,4977.3,-0.0001444,199.44,-0.00017095,-0.048039,0.11956
25595,4.5924,5.3636,0.1,0.00049606,4957.1,0.00049837,5028.2,-0.00015149,145.43,-0.00017086,-0.08116,0.11344
25596,4.6842,5.2727,0.1,0.00049159,4912.5,0.00049412,4990.6,-0.00014876,160.3,-0.00017011,-0.074057,0.11855
25597,4.5924,5.5455,0.1,0.00049955,4992.1,0.00050122,5042.6,-0.00015623,102.78,-0.00016993,-0.17973,0.11229
25598,4.6842,5.4545,0.1,0.0004949,4945.6,0.00049683,5004.4,-0.00015326,119.86,-0.00016923,-0.085145,0.11745
25599,4.5924,5.7273,0.1,0.00050316,5028.1,0.00050414,5057.3,-0.00016109,59.079,-0.00016898,-0.26262,0.11104
25600,4.6842,5.6364,0.1,0.00049832,4979.8,0.0004996,5018.3,-0.00015787,78.337,-0.00016833,-0.27062,0.11624
25601,4.6842,5.8182,0.1,0.00050186,5015.1,0.00050245,5032.8,-0.00016259,35.909,-0.00016741,-0.31203,0.11493
25602,4.5924,5.9091,0.1,0.00050636,5060.1,0.00050669,5069.8,-0.00016544,19.724,-0.00016809,-0.23619,0.10968
25603,4.7761,0.27273,0.1,0.00049701,4966.7,0.00049792,4993.9,-0.0001594,55.046,-0.00016675,-0.23603,0.12025
25604,4.8679,0.18182,0.1,0.00049561,4952.6,0.00049616,4969.2,-0.00016073,33.567,-0.00016523,-0.27537,0.1243
25605,4.7761,0.090909,0.1,0.00050001,4996.6,0.00050032,5005.7,-0.00016344,18.515,-0.00016594,-0.21961,0.11888
25606,4.7761,0.45455,0.1,0.00049367,4933.3,0.00049522,4980.2,-0.00015491,95.366,-0.00016763,-0.16378,0.12151
25607,4.8679,0.36364,0.1,0.00049233,4919.9,0.00049353,4955.8,-0.00015637,72.718,-0.00016608,-0.24693,0.12562
25608,4.7761,0.63636,0.1,0.00049043,4901,0.00049258,4966.9,-0.00015054,134.69,-0.00016847,-0.073702,0.12267
25609,4.8679,0.54545,0.1,0.00048917,4888.3,0.00049096,4942.8,-0.00015211,111.02,-0.0001669,-0.077123,0.12683
25610,4.7761,0.81818,0.1,0.00048731,4869.7,0.00049001,4953.8,-0.00014629,172.84,-0.0001693,-0.057224,0.12373
25611,4.8679,0.72727,0.1,0.0004861,4857.6,0.00048845,4930,-0.00014796,148.29,-0.00016771,-0.06744,0.12795
25612,4.7761,1,0.1,0.00048431,4839.8,0.00048753,4941.1,-0.0001422,209.55,-0.00017009,-0.038709,0.12469
25613,4.8679,0.90909,0.1,0.00048314,4828.1,0.00048601,4917.6,-0.00014395,184.32,-0.00016848,-0.043745,0.12896
25614,4.7761,1.1818,0.1,0.00048148,4811.4,0.00048517,4929,-0.0001383,244.48,-0.00017085,-0.026699,0.12556
25615,4.8679,1.0909,0.1,0.00048033,4799.9,0.00048367,4905.6,-0.0001401,218.78,-0.00016922,-0.03128,0.12988
25616,4.7761,1.3636,0.1,0.00047883,4785,0.00048294,4917.6,-0.00013464,277.29,-0.00017155,-0.016715,0.12634
25617,4.8679,1.2727,0.1,0.00047768,4773.5,0.00048146,4894.2,-0.00013647,251.35,-0.00016992,-0.02044,0.13071
25618,4.7761,1.5455,0.1,0.00047638,4760.6,0.00048087,4906.9,-0.00013125,307.66,-0.0001722,-0.0086888,0.12702
25619,4.8679,1.4545,0.1,0.00047522,4748.9,0.00047938,4883.5,-0.00013307,281.72,-0.00017057,-0.012,0.13144
25620,4.7761,1.7273,0.1,0.00047418,4738.5,0.00047899,4897.2,-0.00012817,335.28,-0.00017279,-0.0020254,0.12763
25621,4.8679,1.6364,0.1,0.00047297,4726.5,0.00047748,4873.7,-0.00012996,309.59,-0.00017117,-0.0049739,0.13209
25622,4.7761,1.9091,0.1,0.00047222,4718.9,0.00047731,4888.6,-0.00012542,359.85,-0.00017332,0.003474,0.12814
25623,4.8679,1.8182,0.1,0.00047096,4706.4,0.00047576,4864.8,-0.00012716,334.67,-0.0001717,0.00082601,0.13266
25624,4.7761,2.0909,0.1,0.00047053,4702.1,0.00047585,4881,-0.00012305,381.12,-0.00017377,0.0079712,0.12858
25625,4.8679,2,0.1,0.0004692,4688.8,0.00047425,4856.9,-0.0001247,356.69,-0.00017217,0.0056092,0.13314
25626,4.7761,2.2727,0.1,0.00046913,4688.1,0.00047464,4874.7,-0.00012107,398.85,-0.00017415,0.011558,0.12893
25627,4.8679,2.1818,0.1,0.00046771,4673.9,0.00047296,4850.3,-0.0001226,375.43,-0.00017257,0.0094817,0.13353
25628,4.7761,2.4545,0.1,0.00046803,4677,0.00047368,4869.8,-0.0001195,412.85,-0.00017445,0.014295,0.12921
25629,4.8679,2.3636,0.1,0.0004665,4661.8,0.00047191,4844.8,-0.0001209,390.67,-0.00017289,0.012515,0.13385
25630,4.7761,2.6364,0.1,0.00046723,4669.1,0.00047299,4866.2,-0.00011837,422.97,-0.00017466,0.016225,0.1294
25631,4.8679,2.5455,0.1,0.00046558,4652.6,0.00047112,4840.7,-0.0001196,402.25,-0.00017313,0.014755,0.13408
25632,4.7761,2.8182,0.1,0.00046675,4664.3,0.00047257,4864,-0.00011769,429.08,-0.00017479,0.017374,0.12952
25633,4.8679,2.7273,0.1,0.00046496,4646.4,0.00047058,4837.9,-0.00011873,410.04,-0.0001733,0.016234,0.13424
25634,4.7761,3,0.1,0.00046659,4662.7,0.00047243,4863.3,-0.00011746,431.13,-0.00017483,0.017755,0.12956
25635,4.8679,2.9091,0.1,0.00046465,4643.3,0.00047031,4836.5,-0.00011829,413.96,-0.00017338,0.01697,0.13432
25636,4.7761,3.1818,0.1,0.00046675,4664.3,0.00047257,4864,-0.00011769,429.08,-0.00017479,0.017374,0.12952
25637,4.8679,3.0909,0.1,0.00046465,4643.3,0.00047031,4836.5,-0.00011829,413.96,-0.00017338,0.01697,0.13432
25638,4.7761,3.3636,0.1,0.00046723,4669.1,0.00047299,4866.2,-0.00011837,422.97,-0.00017466,0.016225,0.1294
25639,4.8679,3.2727,0.1,0.00046496,4646.4,0.00047058,4837.9,-0.00011873,410.04,-0.0001733,0.016234,0.13424
25640,4.7761,3.5455,0.1,0.00046803,4677,0.00047368,4869.8,-0.0001195,412.85,-0.00017445,0.014295,0.12921
25641,4.8679,3.4545,0.1,0.00046558,4652.6,0.00047112,4840.7,-0.0001196,402.25,-0.00017313,0.014755,0.13408
25642,4.7761,3.7273,0.1,0.00046913,4688.1,0.00047464,4874.7,-0.00012107,398.85,-0.00017415,0.011558,0.12893
25643,4.8679,3.6364,0.1,0.0004665,4661.8,0.00047191,4844.8,-0.0001209,390.67,-0.00017289,0.012515,0.13385
25644,4.7761,3.9091,0.1,0.00047053,4702.1,0.00047585,4881,-0.00012305,381.12,-0.00017377,0.0079716,0.12858
25645,4.8679,3.8182,0.1,0.00046771,4673.9,0.00047296,4850.3,-0.0001226,375.43,-0.00017257,0.0094821,0.13353
25646,4.7761,4.0909,0.1,0.00047222,4718.9,0.00047731,4888.6,-0.00012542,359.85,-0.00017332,0.0034745,0.12814
25647,4.8679,4,0.1,0.0004692,4688.8,0.00047425,4856.9,-0.0001247,356.69,-0.00017217,0.0056097,0.13314
25648,4.7761,4.2727,0.1,0.00047418,4738.5,0.00047899,4897.2,-0.00012817,335.28,-0.00017279,-0.0020249,0.12763
25649,4.8679,4.1818,0.1,0.00047096,4706.4,0.00047576,4864.8,-0.00012716,334.67,-0.0001717,0.00082644,0.13266
25650,4.7761,4.4545,0.1,0.00047638,4760.6,0.00048087,4906.9,-0.00013125,307.66,-0.0001722,-0.0086881,0.12702
25651,4.8679,4.3636,0.1,0.00047297,4726.5,0.00047748,4873.7,-0.00012996,309.59,-0.00017117,-0.0049733,0.13209
25652,4.7761,4.6364,0.1,0.00047883,4785,0.00048294,4917.6,-0.00013464,277.29,-0.00017155,-0.016715,0.12634
25653,4.8679,4.5455,0.1,0.00047522,4748.9,0.00047938,4883.5,-0.00013307,281.72,-0.00017057,-0.012,0.13144
25654,4.7761,4.8182,0.1,0.00048148,4811.4,0.00048517,4929,-0.0001383,244.48,-0.00017085,-0.026699,0.12556
25655,4.8679,4.7273,0.1,0.00047768,4773.5,0.00048146,4894.2,-0.00013647,251.35,-0.00016992,-0.02044,0.13071
25656,4.7761,5,0.1,0.00048431,4839.8,0.00048753,4941.1,-0.0001422,209.55,-0.00017009,-0.038708,0.12469
25657,4.8679,4.9091,0.1,0.00048033,4799.9,0.00048367,4905.6,-0.0001401,218.78,-0.00016922,-0.03128,0.12988
25658,4.7761,5.1818,0.1,0.00048731,4869.7,0.00049001,4953.8,-0.00014629,172.84,-0.0001693,-0.057223,0.12373
25659,4.8679,5.0909,0.1,0.00048314,4828.1,0.00048601,4917.6,-0.00014395,184.32,-0.00016848,-0.043744,0.12896
25660,4.7761,5.3636,0.1,0.00049043,4901,0.00049258,4966.9,-0.00015054,134.69,-0.00016847,-0.073702,0.12267
25661,4.8679,5.2727,0.1,0.0004861,4857.6,0.00048845,4930,-0.00014796,148.29,-0.00016771,-0.067439,0.12795
25662,4.7761,5.5455,0.1,0.00049367,4933.3,0.00049522,4980.2,-0.00015491,95.366,-0.00016763,-0.16378,0.12151
25663,4.8679,5.4545,0.1,0.00048917,4888.3,0.00049096,4942.8,-0.00015211,111.02,-0.0001669,-0.077123,0.12683
25664,4.7761,5.7273,0.1,0.00049701,4966.7,0.00049792,4993.9,-0.0001594,55.046,-0.00016675,-0.23603,0.12025
25665,4.8679,5.6364,0.1,0.00049233,4919.9,0.00049353,4955.8,-0.00015637,72.718,-0.00016608,-0.24693,0.12562
25666,4.8679,5.8182,0.1,0.00049561,4952.6,0.00049616,4969.2,-0.00016073,33.567,-0.00016523,-0.27537,0.1243
25667,4.7761,5.9091,0.1,0.00050001,4996.6,0.00050032,5005.7,-0.00016344,18.515,-0.00016594,-0.2196,0.11888
25668,4.9598,0.27273,0.1,0.00049092,4905.9,0.00049177,4931.1,-0.00015771,51.136,-0.00016455,-0.21253,0.12979
25669,5.0516,0.18182,0.1,0.00048942,4890.8,0.00048994,4906.2,-0.00015888,31.226,-0.00016307,-0.24438,0.13401
25670,4.9598,0.090909,0.1,0.00049371,4933.7,0.000494,4942.2,-0.00016147,17.277,-0.0001638,-0.20462,0.12842
25671,4.9598,0.45455,0.1,0.00048783,4874.9,0.00048927,4918.4,-0.00015358,88.335,-0.00016535,-0.14928,0.13106
25672,5.0516,0.36364,0.1,0.00048639,4860.6,0.0004875,4893.8,-0.00015486,67.358,-0.00016385,-0.22536,0.13533
25673,4.9598,0.63636,0.1,0.00048483,4844.9,0.00048683,4906,-0.00014954,124.59,-0.00016613,-0.06695,0.13222
25674,5.0516,0.54545,0.1,0.00048346,4831.2,0.00048512,4881.7,-0.00015093,102.69,-0.00016461,-0.069883,0.13655
25675,4.9598,0.81818,0.1,0.00048193,4816,0.00048445,4893.8,-0.00014562,159.73,-0.00016689,-0.052126,0.13329
25676,5.0516,0.72727,0.1,0.00048061,4802.8,0.0004828,4869.8,-0.0001471,137.03,-0.00016535,-0.061428,0.13767
25677,4.9598,1,0.1,0.00047915,4788.2,0.00048215,4882,-0.00014185,193.51,-0.00016761,-0.035282,0.13426
25678,5.0516,0.90909,0.1,0.00047787,4775.4,0.00048054,4858.3,-0.0001434,170.2,-0.00016606,-0.039853,0.13869
25679,4.9598,1.1818,0.1,0.00047653,4762,0.00047996,4870.8,-0.00013827,225.62,-0.0001683,-0.024364,0.13513
25680,5.0516,1.0909,0.1,0.00047527,4749.4,0.00047838,4847.1,-0.00013986,201.9,-0.00016674,-0.028541,0.13961
25681,4.9598,1.3636,0.1,0.00047407,4737.4,0.0004779,4860.1,-0.0001349,255.76,-0.00016894,-0.015269,0.13592
25682,5.0516,1.2727,0.1,0.00047281,4724.9,0.00047633,4836.5,-0.00013652,231.83,-0.00016737,-0.018674,0.14045
25683,4.9598,1.5455,0.1,0.00047181,4714.8,0.00047599,4850.2,-0.00013179,283.64,-0.00016954,-0.0079465,0.13661
25684,5.0516,1.4545,0.1,0.00047054,4702.1,0.00047442,4826.6,-0.0001334,259.72,-0.00016797,-0.010985,0.14119
25685,4.9598,1.7273,0.1,0.00046976,4694.4,0.00047425,4841.2,-0.00012895,308.97,-0.00017007,-0.0018564,0.13722
25686,5.0516,1.6364,0.1,0.00046846,4681.3,0.00047266,4817.4,-0.00013054,285.29,-0.00016851,-0.0045721,0.14185
25687,4.9598,1.9091,0.1,0.00046795,4676.2,0.0004727,4833.2,-0.00012643,331.5,-0.00017055,0.0031798,0.13775
25688,5.0516,1.8182,0.1,0.00046659,4662.7,0.00047107,4809.2,-0.00012796,308.29,-0.00016899,0.00073022,0.14242
25689,4.9598,2.0909,0.1,0.00046638,4660.6,0.00047136,4826.2,-0.00012425,351,-0.00017096,0.0073064,0.13819
25690,5.0516,2,0.1,0.00046496,4646.4,0.00046967,4801.9,-0.0001257,328.48,-0.00016942,0.0051109,0.1429
25691,4.9598,2.2727,0.1,0.00046508,4647.6,0.00047024,4820.3,-0.00012243,367.25,-0.00017131,0.010604,0.13855
25692,5.0516,2.1818,0.1,0.00046357,4632.5,0.00046849,4795.7,-0.00012378,345.65,-0.00016978,0.0086643,0.1433
25693,4.9598,2.4545,0.1,0.00046405,4637.3,0.00046935,4815.7,-0.00012099,380.07,-0.00017158,0.013125,0.13882
25694,5.0516,2.3636,0.1,0.00046245,4621.3,0.00046752,4790.6,-0.00012221,359.62,-0.00017007,0.011453,0.14362
25695,4.9598,2.6364,0.1,0.00046332,4630,0.00046871,4812.3,-0.00011996,389.34,-0.00017177,0.014905,0.13902
25696,5.0516,2.5455,0.1,0.0004616,4612.8,0.00046678,4786.8,-0.00012103,370.22,-0.0001703,0.013514,0.14386
25697,4.9598,2.8182,0.1,0.00046287,4625.5,0.00046832,4810.3,-0.00011933,394.94,-0.00017189,0.015966,0.13914
25698,5.0516,2.7273,0.1,0.00046103,4607.1,0.00046629,4784.2,-0.00012023,377.36,-0.00017045,0.014877,0.14402
25699,4.9598,3,0.1,0.00046272,4624,0.00046819,4809.6,-0.00011912,396.81,-0.00017193,0.016318,0.13918
25700,5.0516,2.9091,0.1,0.00046074,4604.2,0.00046604,4782.9,-0.00011982,380.95,-0.00017052,0.015556,0.1441
25701,4.9598,3.1818,0.1,0.00046287,4625.5,0.00046832,4810.3,-0.00011933,394.94,-0.00017189,0.015966,0.13914
25702,5.0516,3.0909,0.1,0.00046074,4604.2,0.00046604,4782.9,-0.00011982,380.95,-0.00017052,0.015556,0.1441
25703,4.9598,3.3636,0.1,0.00046332,4630,0.00046871,4812.3,-0.00011996,389.34,-0.00017177,0.014905,0.13902
25704,5.0516,3.2727,0.1,0.00046103,4607.1,0.00046629,4784.2,-0.00012023,377.36,-0.00017045,0.014877,0.14402
25705,4.9598,3.5455,0.1,0.00046405,4637.3,0.00046935,4815.7,-0.00012099,380.07,-0.00017158,0.013126,0.13882
25706,5.0516,3.4545,0.1,0.0004616,4612.8,0.00046678,4786.8,-0.00012103,370.22,-0.0001703,0.013514,0.14386
25707,4.9598,3.7273,0.1,0.00046508,4647.6,0.00047024,4820.3,-0.00012243,367.25,-0.00017131,0.010604,0.13855
25708,5.0516,3.6364,0.1,0.00046245,4621.3,0.00046752,4790.6,-0.00012221,359.62,-0.00017007,0.011453,0.14362
25709,4.9598,3.9091,0.1,0.00046638,4660.6,0.00047136,4826.2,-0.00012425,351,-0.00017096,0.0073068,0.13819
25710,5.0516,3.8182,0.1,0.00046357,4632.5,0.00046849,4795.7,-0.00012378,345.65,-0.00016978,0.0086647,0.1433
25711,4.9598,4.0909,0.1,0.00046795,4676.2,0.0004727,4833.2,-0.00012643,331.5,-0.00017055,0.0031802,0.13775
25712,5.0516,4,0.1,0.00046496,4646.4,0.00046967,4801.9,-0.0001257,328.48,-0.00016942,0.0051115,0.1429
25713,4.9598,4.2727,0.1,0.00046976,4694.4,0.00047425,4841.2,-0.00012895,308.97,-0.00017007,-0.0018558,0.13722
25714,5.0516,4.1818,0.1,0.00046659,4662.7,0.00047107,4809.2,-0.00012796,308.29,-0.00016899,0.00073063,0.14242
25715,4.9598,4.4545,0.1,0.00047181,4714.8,0.00047599,4850.2,-0.00013179,283.64,-0.00016954,-0.0079458,0.13661
25716,5.0516,4.3636,0.1,0.00046846,4681.3,0.00047266,4817.4,-0.00013054,285.29,-0.00016851,-0.0045714,0.14185
25717,4.9598,4.6364,0.1,0.00047407,4737.4,0.0004779,4860.1,-0.0001349,255.76,-0.00016894,-0.015268,0.13592
25718,5.0516,4.5455,0.1,0.00047054,4702.1,0.00047442,4826.6,-0.0001334,259.72,-0.00016797,-0.010984,0.14119
25719,4.9598,4.8182,0.1,0.00047653,4762,0.00047996,4870.8,-0.00013827,225.62,-0.0001683,-0.024363,0.13513
25720,5.0516,4.7273,0.1,0.00047281,4724.9,0.00047633,4836.5,-0.00013652,231.83,-0.00016737,-0.018673,0.14045
25721,4.9598,5,0.1,0.00047915,4788.2,0.00048215,4882,-0.00014185,193.51,-0.00016761,-0.035281,0.13426
25722,5.0516,4.9091,0.1,0.00047527,4749.4,0.00047838,4847.1,-0.00013986,201.9,-0.00016674,-0.02854,0.13961
25723,4.9598,5.1818,0.1,0.00048193,4816,0.00048445,4893.8,-0.00014562,159.73,-0.00016689,-0.052125,0.13329
25724,5.0516,5.0909,0.1,0.00047787,4775.4,0.00048054,4858.3,-0.0001434,170.2,-0.00016606,-0.039852,0.13869
25725,4.9598,5.3636,0.1,0.00048483,4844.9,0.00048683,4906,-0.00014954,124.59,-0.00016613,-0.06695,0.13222
25726,5.0516,5.2727,0.1,0.00048061,4802.8,0.0004828,4869.8,-0.0001471,137.03,-0.00016535,-0.061427,0.13767
25727,4.9598,5.5455,0.1,0.00048783,4874.9,0.00048927,4918.4,-0.00015357,88.335,-0.00016535,-0.14928,0.13106
25728,5.0516,5.4545,0.1,0.00048346,4831.2,0.00048512,4881.7,-0.00015093,102.69,-0.00016461,-0.069883,0.13655
25729,4.9598,5.7273,0.1,0.00049092,4905.8,0.00049177,4931.1,-0.00015771,51.136,-0.00016455,-0.21253,0.12979
25730,5.0516,5.6364,0.1,0.00048639,4860.6,0.0004875,4893.8,-0.00015486,67.358,-0.00016385,-0.22535,0.13533
25731,5.0516,5.8182,0.1,0.00048942,4890.8,0.00048994,4906.2,-0.00015888,31.226,-0.00016307,-0.24438,0.13401
25732,4.9598,5.9091,0.1,0.00049371,4933.7,0.000494,4942.2,-0.00016147,17.277,-0.0001638,-0.20461,0.12842
25733,5.1435,0.27273,0.1,0.00048489,4845.5,0.00048567,4868.9,-0.00015604,47.361,-0.00016237,-0.19171,0.13966
25734,5.2353,0.18182,0.1,0.0004833,4829.6,0.00048378,4843.9,-0.00015706,28.907,-0.00016094,-0.21813,0.14405
25735,5.1435,0.090909,0.1,0.00048748,4871.5,0.00048775,4879.4,-0.00015952,16.028,-0.00016168,-0.19107,0.13829
25736,5.1435,0.45455,0.1,0.00048202,4816.9,0.00048336,4857.1,-0.00015222,81.681,-0.00016311,-0.13607,0.14093
25737,5.2353,0.36364,0.1,0.00048049,4801.6,0.00048152,4832.3,-0.00015334,62.258,-0.00016165,-0.2057,0.14537
25738,5.1435,0.63636,0.1,0.00047924,4789.1,0.00048109,4845.6,-0.00014849,115.11,-0.00016382,-0.060833,0.1421
25739,5.2353,0.54545,0.1,0.00047778,4774.5,0.00047932,4821.1,-0.00014971,94.845,-0.00016235,-0.063344,0.14659
25740,5.1435,0.81818,0.1,0.00047656,4762.3,0.00047889,4834.3,-0.00014488,147.47,-0.00016452,-0.047498,0.14318
25741,5.2353,0.72727,0.1,0.00047514,4748.1,0.00047716,4810.1,-0.00014618,126.49,-0.00016302,-0.055965,0.14772
25742,5.1435,1,0.1,0.00047399,4736.6,0.00047677,4823.3,-0.00014141,178.56,-0.00016518,-0.032177,0.14415
25743,5.2353,0.90909,0.1,0.00047261,4722.8,0.00047508,4799.3,-0.00014277,157.02,-0.00016368,-0.036326,0.14874
25744,5.1435,1.1818,0.1,0.00047155,4712.3,0.00047475,4812.9,-0.00013811,208.08,-0.00016581,-0.022257,0.14503
25745,5.2353,1.0909,0.1,0.00047019,4698.7,0.00047308,4789,-0.00013951,186.18,-0.0001643,-0.026065,0.14967
25746,5.1435,1.3636,0.1,0.00046928,4689.6,0.00047285,4803,-0.00013501,235.77,-0.0001664,-0.013978,0.14582
25747,5.2353,1.2727,0.1,0.00046792,4676,0.00047119,4779.1,-0.00013644,213.69,-0.00016488,-0.01709,0.15051
25748,5.1435,1.5455,0.1,0.00046718,4668.6,0.00047108,4793.8,-0.00013215,261.36,-0.00016694,-0.0073044,0.14653
25749,5.2353,1.4545,0.1,0.00046581,4654.9,0.00046942,4769.9,-0.00013357,239.3,-0.00016542,-0.01009,0.15126
25750,5.1435,1.7273,0.1,0.00046529,4649.7,0.00046947,4785.4,-0.00012955,284.6,-0.00016743,-0.0017455,0.14714
25751,5.2353,1.6364,0.1,0.00046389,4635.7,0.0004678,4761.4,-0.00013094,262.77,-0.00016591,-0.0042443,0.15192
25752,5.1435,1.9091,0.1,0.00046361,4632.9,0.00046804,4777.9,-0.00012723,305.26,-0.00016786,0.0028585,0.14767
25753,5.2353,1.8182,0.1,0.00046216,4618.4,0.00046633,4753.8,-0.00012858,283.87,-0.00016636,0.00059588,0.15249
25754,5.1435,2.0909,0.1,0.00046216,4618.4,0.0004668,4771.4,-0.00012523,323.13,-0.00016824,0.0066371,0.14811
25755,5.2353,2,0.1,0.00046065,4603.3,0.00046505,4747,-0.0001265,302.38,-0.00016675,0.0046008,0.15298
25756,5.1435,2.2727,0.1,0.00046095,4606.3,0.00046577,4766,-0.00012356,338.02,-0.00016855,0.0096614,0.14848
25757,5.2353,2.1818,0.1,0.00045937,4590.5,0.00046395,4741.3,-0.00012474,318.11,-0.00016707,0.007854,0.15339
25758,5.1435,2.4545,0.1,0.00046,4596.8,0.00046495,4761.7,-0.00012224,349.77,-0.00016879,0.011977,0.14876
25759,5.2353,2.3636,0.1,0.00045833,4580.1,0.00046306,4736.6,-0.0001233,330.91,-0.00016734,0.01041,0.15371
25760,5.1435,2.6364,0.1,0.00045931,4590,0.00046436,4758.6,-0.00012129,358.26,-0.00016897,0.013613,0.14896
25761,5.2353,2.5455,0.1,0.00045754,4572.2,0.00046238,4733,-0.00012221,340.62,-0.00016754,0.012302,0.15395
25762,5.1435,2.8182,0.1,0.0004589,4585.8,0.000464,4756.7,-0.00012072,363.39,-0.00016908,0.014589,0.14908
25763,5.2353,2.7273,0.1,0.00045701,4566.9,0.00046192,4730.6,-0.00012148,347.16,-0.00016768,0.013555,0.15411
25764,5.1435,3,0.1,0.00045876,4584.5,0.00046388,4756.1,-0.00012053,365.1,-0.00016912,0.014914,0.14912
25765,5.2353,2.9091,0.1,0.00045674,4564.3,0.00046169,4729.4,-0.00012111,350.45,-0.00016775,0.014178,0.15419
25766,5.1435,3.1818,0.1,0.0004589,4585.8,0.000464,4756.7,-0.00012072,363.39,-0.00016908,0.014589,0.14908
25767,5.2353,3.0909,0.1,0.00045674,4564.3,0.00046169,4729.4,-0.00012111,350.45,-0.00016775,0.014178,0.15419
25768,5.1435,3.3636,0.1,0.00045931,4590,0.00046436,4758.6,-0.00012129,358.26,-0.00016897,0.013613,0.14896
25769,5.2353,3.2727,0.1,0.00045701,4566.9,0.00046192,4730.6,-0.00012148,347.16,-0.00016768,0.013555,0.15411
25770,5.1435,3.5455,0.1,0.00046,4596.8,0.00046495,4761.7,-0.00012224,349.77,-0.00016879,0.011977,0.14876
25771,5.2353,3.4545,0.1,0.00045754,4572.2,0.00046238,4733,-0.00012221,340.62,-0.00016754,0.012303,0.15395
25772,5.1435,3.7273,0.1,0.00046095,4606.3,0.00046577,4766,-0.00012356,338.02,-0.00016855,0.0096618,0.14848
25773,5.2353,3.6364,0.1,0.00045833,4580.1,0.00046306,4736.6,-0.0001233,330.91,-0.00016734,0.010411,0.15371
25774,5.1435,3.9091,0.1,0.00046216,4618.4,0.0004668,4771.4,-0.00012523,323.13,-0.00016824,0.0066376,0.14811
25775,5.2353,3.8182,0.1,0.00045937,4590.5,0.00046395,4741.3,-0.00012474,318.11,-0.00016707,0.0078545,0.15339
25776,5.1435,4.0909,0.1,0.00046361,4632.9,0.00046804,4777.9,-0.00012723,305.26,-0.00016786,0.0028589,0.14767
25777,5.2353,4,0.1,0.00046065,4603.3,0.00046505,4747,-0.0001265,302.38,-0.00016675,0.0046013,0.15298
25778,5.1435,4.2727,0.1,0.00046529,4649.7,0.00046947,4785.4,-0.00012955,284.6,-0.00016743,-0.001745,0.14714
25779,5.2353,4.1818,0.1,0.00046216,4618.4,0.00046633,4753.8,-0.00012858,283.87,-0.00016636,0.00059638,0.15249
25780,5.1435,4.4545,0.1,0.00046718,4668.6,0.00047108,4793.8,-0.00013215,261.36,-0.00016694,-0.0073037,0.14653
25781,5.2353,4.3636,0.1,0.00046389,4635.7,0.0004678,4761.4,-0.00013094,262.77,-0.00016591,-0.0042437,0.15192
25782,5.1435,4.6364,0.1,0.00046928,4689.6,0.00047285,4803,-0.00013501,235.77,-0.0001664,-0.013977,0.14582
25783,5.2353,4.5455,0.1,0.00046581,4654.9,0.00046942,4769.9,-0.00013357,239.3,-0.00016542,-0.01009,0.15126
25784,5.1435,4.8182,0.1,0.00047155,4712.3,0.00047475,4812.9,-0.00013811,208.08,-0.00016581,-0.022257,0.14503
25785,5.2353,4.7273,0.1,0.00046792,4676,0.00047119,4779.1,-0.00013644,213.69,-0.00016488,-0.017089,0.15051
25786,5.1435,5,0.1,0.00047399,4736.6,0.00047677,4823.3,-0.00014141,178.56,-0.00016518,-0.032177,0.14415
25787,5.2353,4.9091,0.1,0.00047019,4698.7,0.00047308,4789,-0.00013951,186.18,-0.0001643,-0.026064,0.14967
25788,5.1435,5.1818,0.1,0.00047656,4762.3,0.00047889,4834.3,-0.00014488,147.47,-0.00016452,-0.047497,0.14318
25789,5.2353,5.0909,0.1,0.00047261,4722.8,0.00047508,4799.3,-0.00014277,157.02,-0.00016368,-0.036325,0.14874
25790,5.1435,5.3636,0.1,0.00047924,4789.1,0.00048109,4845.6,-0.00014849,115.11,-0.00016382,-0.060833,0.1421
25791,5.2353,5.2727,0.1,0.00047514,4748.1,0.00047716,4810.1,-0.00014618,126.49,-0.00016302,-0.055965,0.14772
25792,5.1435,5.5455,0.1,0.00048202,4816.9,0.00048336,4857.1,-0.00015222,81.681,-0.00016311,-0.13607,0.14093
25793,5.2353,5.4545,0.1,0.00047778,4774.5,0.00047932,4821.1,-0.00014971,94.845,-0.00016235,-0.063344,0.14659
25794,5.1435,5.7273,0.1,0.00048489,4845.5,0.00048567,4868.9,-0.00015604,47.361,-0.00016237,-0.19171,0.13966
25795,5.2353,5.6364,0.1,0.00048049,4801.6,0.00048152,4832.3,-0.00015334,62.258,-0.00016165,-0.2057,0.14537
25796,5.2353,5.8182,0.1,0.0004833,4829.6,0.00048378,4843.9,-0.00015706,28.907,-0.00016094,-0.21813,0.14405
25797,5.1435,5.9091,0.1,0.00048748,4871.5,0.00048775,4879.4,-0.00015952,16.028,-0.00016168,-0.19107,0.13829
25798,5.3272,0.27273,0.1,0.0004789,4785.7,0.00047963,4807.3,-0.00015437,43.73,-0.00016021,-0.17323,0.14987
25799,5.419,0.18182,0.1,0.00047723,4769,0.00047768,4782.2,-0.00015525,26.626,-0.00015882,-0.19586,0.15442
25800,5.3272,0.090909,0.1,0.00048131,4809.8,0.00048156,4817.1,-0.00015759,14.781,-0.00015958,-0.17887,0.14849
25801,5.3272,0.45455,0.1,0.00047625,4759.2,0.00047748,4796.4,-0.00015084,75.395,-0.00016089,-0.12404,0.15114
25802,5.419,0.36364,0.1,0.00047464,4743.1,0.00047558,4771.4,-0.00015181,57.415,-0.00015948,-0.18776,0.15574
25803,5.3272,0.63636,0.1,0.00047367,4733.5,0.00047539,4785.7,-0.00014741,106.21,-0.00016155,-0.05529,0.15231
25804,5.419,0.54545,0.1,0.00047212,4717.9,0.00047355,4761,-0.00014847,87.466,-0.00016012,-0.057429,0.15696
25805,5.3272,0.81818,0.1,0.00047119,4708.6,0.00047335,4775.1,-0.00014408,136.02,-0.00016218,-0.043297,0.15339
25806,5.419,0.72727,0.1,0.00046968,4693.6,0.00047155,4750.8,-0.00014521,116.62,-0.00016074,-0.050996,0.15809
25807,5.3272,1,0.1,0.00046881,4684.9,0.00047139,4765,-0.00014088,164.62,-0.00016279,-0.029369,0.15437
25808,5.419,0.90909,0.1,0.00046733,4670.1,0.00046963,4740.8,-0.00014207,144.73,-0.00016134,-0.033128,0.15912
25809,5.3272,1.1818,0.1,0.00046656,4662.4,0.00046952,4755.3,-0.00013784,191.76,-0.00016337,-0.020361,0.15525
25810,5.419,1.0909,0.1,0.0004651,4647.8,0.00046778,4731.2,-0.00013907,171.55,-0.0001619,-0.023826,0.16005
25811,5.3272,1.3636,0.1,0.00046445,4641.3,0.00046777,4746.1,-0.00013499,217.2,-0.0001639,-0.01283,0.15605
25812,5.419,1.2727,0.1,0.000463,4626.8,0.00046603,4722.1,-0.00013624,196.83,-0.00016244,-0.015668,0.16089
25813,5.3272,1.5455,0.1,0.00046251,4622,0.00046614,4737.6,-0.00013236,240.7,-0.0001644,-0.0067541,0.15676
25814,5.419,1.4545,0.1,0.00046105,4607.3,0.0004644,4713.5,-0.0001336,220.35,-0.00016293,-0.0093023,0.16165
25815,5.3272,1.7273,0.1,0.00046076,4604.4,0.00046466,4729.8,-0.00012997,262.02,-0.00016484,-0.0016864,0.15737
25816,5.419,1.6364,0.1,0.00045927,4589.5,0.0004629,4705.7,-0.00013119,241.9,-0.00016338,-0.0039788,0.16231
25817,5.3272,1.9091,0.1,0.0004592,4588.9,0.00046334,4722.9,-0.00012785,280.97,-0.00016524,0.0025159,0.15791
25818,5.419,1.8182,0.1,0.00045767,4573.5,0.00046155,4698.6,-0.00012902,261.25,-0.00016379,0.00043346,0.16289
25819,5.3272,2.0909,0.1,0.00045786,4575.4,0.00046219,4716.9,-0.00012601,297.35,-0.00016558,0.0059695,0.15836
25820,5.419,2,0.1,0.00045627,4559.6,0.00046037,4692.3,-0.00012711,278.22,-0.00016414,0.0040888,0.16338
25821,5.3272,2.2727,0.1,0.00045674,4564.3,0.00046124,4711.8,-0.00012448,311,-0.00016587,0.008737,0.15872
25822,5.419,2.1818,0.1,0.00045508,4547.7,0.00045936,4687,-0.00012549,292.64,-0.00016444,0.0070617,0.16379
25823,5.3272,2.4545,0.1,0.00045586,4555.5,0.00046048,4707.9,-0.00012327,321.76,-0.00016609,0.010858,0.159
25824,5.419,2.3636,0.1,0.00045412,4538.1,0.00045853,4682.6,-0.00012418,304.37,-0.00016468,0.0094,0.16411
25825,5.3272,2.6364,0.1,0.00045523,4549.2,0.00045994,4705,-0.0001224,329.53,-0.00016625,0.012358,0.15921
25826,5.419,2.5455,0.1,0.00045339,4530.8,0.00045791,4679.3,-0.00012318,313.27,-0.00016487,0.011132,0.16436
25827,5.3272,2.8182,0.1,0.00045485,4545.3,0.00045961,4703.2,-0.00012187,334.23,-0.00016635,0.013254,0.15933
25828,5.419,2.7273,0.1,0.0004529,4525.9,0.00045749,4677.1,-0.0001225,319.25,-0.00016499,0.01228,0.16452
25829,5.3272,3,0.1,0.00045472,4544.1,0.0004595,4702.7,-0.00012169,335.8,-0.00016638,0.013552,0.15937
25830,5.419,2.9091,0.1,0.00045266,4523.4,0.00045728,4676,-0.00012216,322.26,-0.00016505,0.012851,0.1646
25831,5.3272,3.1818,0.1,0.00045485,4545.3,0.00045961,4703.2,-0.00012187,334.23,-0.00016635,0.013254,0.15933
25832,5.419,3.0909,0.1,0.00045266,4523.4,0.00045728,4676,-0.00012216,322.26,-0.00016505,0.012851,0.1646
25833,5.3272,3.3636,0.1,0.00045523,4549.2,0.00045994,4705,-0.0001224,329.53,-0.00016625,0.012359,0.15921
25834,5.419,3.2727,0.1,0.0004529,4525.9,0.00045749,4677.1,-0.0001225,319.25,-0.00016499,0.01228,0.16452
25835,5.3272,3.5455,0.1,0.00045586,4555.5,0.00046048,4707.9,-0.00012327,321.76,-0.00016609,0.010858,0.159
25836,5.419,3.4545,0.1,0.00045339,4530.8,0.00045791,4679.3,-0.00012318,313.27,-0.00016487,0.011132,0.16436
25837,5.3272,3.7273,0.1,0.00045674,4564.3,0.00046124,4711.8,-0.00012448,311,-0.00016587,0.0087373,0.15872
25838,5.419,3.6364,0.1,0.00045412,4538.1,0.00045853,4682.6,-0.00012418,304.37,-0.00016468,0.0094002,0.16411
25839,5.3272,3.9091,0.1,0.00045786,4575.4,0.00046219,4716.9,-0.00012601,297.35,-0.00016558,0.0059698,0.15836
25840,5.419,3.8182,0.1,0.00045508,4547.7,0.00045936,4687,-0.00012549,292.64,-0.00016444,0.007062,0.16379
25841,5.3272,4.0909,0.1,0.0004592,4588.9,0.00046334,4722.9,-0.00012785,280.97,-0.00016524,0.0025164,0.15791
25842,5.419,4,0.1,0.00045627,4559.6,0.00046037,4692.3,-0.00012711,278.22,-0.00016414,0.0040892,0.16338
25843,5.3272,4.2727,0.1,0.00046076,4604.4,0.00046466,4729.8,-0.00012997,262.02,-0.00016484,-0.0016859,0.15737
25844,5.419,4.1818,0.1,0.00045767,4573.5,0.00046155,4698.6,-0.00012902,261.25,-0.00016379,0.00043404,0.16289
25845,5.3272,4.4545,0.1,0.00046251,4622,0.00046614,4737.6,-0.00013236,240.7,-0.0001644,-0.0067535,0.15676
25846,5.419,4.3636,0.1,0.00045927,4589.5,0.0004629,4705.7,-0.00013119,241.9,-0.00016338,-0.0039783,0.16231
25847,5.3272,4.6364,0.1,0.00046445,4641.3,0.00046777,4746.1,-0.00013499,217.2,-0.0001639,-0.01283,0.15605
25848,5.419,4.5455,0.1,0.00046105,4607.3,0.0004644,4713.5,-0.0001336,220.35,-0.00016293,-0.0093016,0.16165
25849,5.3272,4.8182,0.1,0.00046656,4662.4,0.00046952,4755.3,-0.00013784,191.76,-0.00016337,-0.020361,0.15525
25850,5.419,4.7273,0.1,0.000463,4626.8,0.00046603,4722.1,-0.00013624,196.83,-0.00016244,-0.015667,0.16089
25851,5.3272,5,0.1,0.00046881,4684.9,0.00047139,4765,-0.00014088,164.62,-0.00016279,-0.029369,0.15437
25852,5.419,4.9091,0.1,0.0004651,4647.8,0.00046778,4731.2,-0.00013907,171.55,-0.0001619,-0.023826,0.16005
25853,5.3272,5.1818,0.1,0.00047119,4708.6,0.00047335,4775.1,-0.00014408,136.02,-0.00016218,-0.043296,0.15339
25854,5.419,5.0909,0.1,0.00046733,4670.1,0.00046963,4740.8,-0.00014207,144.73,-0.00016134,-0.033126,0.15912
25855,5.3272,5.3636,0.1,0.00047367,4733.5,0.00047539,4785.7,-0.00014741,106.21,-0.00016155,-0.055289,0.15231
25856,5.419,5.2727,0.1,0.00046968,4693.6,0.00047155,4750.8,-0.00014521,116.62,-0.00016074,-0.050996,0.15809
25857,5.3272,5.5455,0.1,0.00047625,4759.2,0.00047748,4796.4,-0.00015084,75.395,-0.00016089,-0.12404,0.15114
25858,5.419,5.4545,0.1,0.00047212,4717.9,0.00047355,4761,-0.00014847,87.466,-0.00016012,-0.057428,0.15696
25859,5.3272,5.7273,0.1,0.0004789,4785.7,0.00047963,4807.3,-0.00015437,43.73,-0.00016021,-0.17323,0.14987
25860,5.419,5.6364,0.1,0.00047464,4743.1,0.00047558,4771.4,-0.00015181,57.415,-0.00015948,-0.18776,0.15574
25861,5.419,5.8182,0.1,0.00047723,4769,0.00047768,4782.2,-0.00015525,26.626,-0.00015882,-0.19586,0.15442
25862,5.3272,5.9091,0.1,0.00048131,4809.8,0.00048156,4817.1,-0.00015759,14.781,-0.00015958,-0.17887,0.14849
25863,5.5109,0.27273,0.1,0.00047297,4726.4,0.00047364,4746.3,-0.0001527,40.25,-0.00015808,-0.15679,0.16039
25864,5.6027,0.18182,0.1,0.00047123,4709,0.00047163,4721.1,-0.00015346,24.398,-0.00015673,-0.17696,0.1651
25865,5.5109,0.090909,0.1,0.00047519,4748.7,0.00047542,4755.3,-0.00015567,13.547,-0.0001575,-0.1679,0.15902
25866,5.5109,0.45455,0.1,0.00047051,4701.8,0.00047165,4736.1,-0.00014944,69.465,-0.00015871,-0.11307,0.16167
25867,5.6027,0.36364,0.1,0.00046882,4685,0.00046969,4711.1,-0.00015028,52.826,-0.00015733,-0.17138,0.16643
25868,5.5109,0.63636,0.1,0.00046813,4678,0.00046971,4726.2,-0.00014628,97.864,-0.00015931,-0.050254,0.16284
25869,5.6027,0.54545,0.1,0.00046649,4661.7,0.00046781,4701.4,-0.00014719,80.534,-0.00015792,-0.05207,0.16765
25870,5.5109,0.81818,0.1,0.00046583,4655,0.00046783,4716.4,-0.00014321,125.32,-0.00015989,-0.039475,0.16392
25871,5.6027,0.72727,0.1,0.00046423,4639.1,0.00046597,4691.9,-0.00014419,107.39,-0.00015849,-0.046472,0.16877
25872,5.5109,1,0.1,0.00046362,4633,0.00046602,4707,-0.00014026,151.64,-0.00016045,-0.026822,0.1649
25873,5.6027,0.90909,0.1,0.00046206,4617.4,0.00046418,4682.6,-0.0001413,133.27,-0.00015904,-0.030224,0.16981
25874,5.5109,1.1818,0.1,0.00046154,4612.2,0.00046429,4698,-0.00013747,176.59,-0.00016097,-0.018649,0.16579
25875,5.6027,1.0909,0.1,0.00046,4596.8,0.00046248,4673.7,-0.00013853,157.93,-0.00015956,-0.0218,0.17074
25876,5.5109,1.3636,0.1,0.00045959,4592.8,0.00046267,4689.5,-0.00013485,199.97,-0.00016146,-0.011805,0.16659
25877,5.6027,1.2727,0.1,0.00045805,4577.4,0.00046086,4665.2,-0.00013593,181.17,-0.00016004,-0.014391,0.17159
25878,5.5109,1.5455,0.1,0.0004578,4574.9,0.00046117,4681.6,-0.00013243,221.54,-0.00016192,-0.006278,0.1673
25879,5.6027,1.4545,0.1,0.00045625,4559.3,0.00045936,4657.3,-0.00013351,202.78,-0.0001605,-0.0086073,0.17234
25880,5.5109,1.7273,0.1,0.00045618,4558.6,0.0004598,4674.4,-0.00013023,241.11,-0.00016232,-0.0016637,0.16792
25881,5.6027,1.6364,0.1,0.0004546,4542.9,0.00045798,4650,-0.00013129,222.55,-0.00016091,-0.0037652,0.17301
25882,5.5109,1.9091,0.1,0.00045474,4544.2,0.00045858,4668,-0.00012828,258.49,-0.00016269,0.0021665,0.16846
25883,5.6027,1.8182,0.1,0.00045312,4528.1,0.00045673,4643.5,-0.00012929,240.31,-0.00016128,0.00025175,0.17359
25884,5.5109,2.0909,0.1,0.0004535,4531.8,0.00045753,4662.4,-0.0001266,273.51,-0.000163,0.0053177,0.16891
25885,5.6027,2,0.1,0.00045183,4515.2,0.00045564,4637.7,-0.00012754,255.87,-0.0001616,0.0035828,0.17409
25886,5.5109,2.2727,0.1,0.00045246,4521.5,0.00045665,4657.7,-0.00012519,286.01,-0.00016326,0.0078454,0.16928
25887,5.6027,2.1818,0.1,0.00045073,4504.2,0.00045471,4632.7,-0.00012606,269.09,-0.00016187,0.0062947,0.1745
25888,5.5109,2.4545,0.1,0.00045165,4513.4,0.00045596,4654.1,-0.00012408,295.87,-0.00016346,0.0097841,0.16956
25889,5.6027,2.3636,0.1,0.00044984,4495.3,0.00045395,4628.7,-0.00012485,279.83,-0.00016209,0.0084294,0.17482
25890,5.5109,2.6364,0.1,0.00045107,4507.5,0.00045545,4651.4,-0.00012328,302.99,-0.00016361,0.011156,0.16977
25891,5.6027,2.5455,0.1,0.00044917,4488.6,0.00045338,4625.7,-0.00012393,287.99,-0.00016226,0.010012,0.17507
25892,5.5109,2.8182,0.1,0.00045071,4504,0.00045515,4649.8,-0.0001228,307.29,-0.0001637,0.011976,0.16989
25893,5.6027,2.7273,0.1,0.00044872,4484.1,0.00045299,4623.6,-0.00012332,293.47,-0.00016237,0.011061,0.17523
25894,5.5109,3,0.1,0.00045059,4502.8,0.00045505,4649.2,-0.00012264,308.73,-0.00016373,0.012249,0.16993
25895,5.6027,2.9091,0.1,0.00044849,4481.8,0.00045279,4622.6,-0.00012301,296.23,-0.00016243,0.011584,0.17531
25896,5.5109,3.1818,0.1,0.00045071,4504,0.00045515,4649.8,-0.0001228,307.29,-0.0001637,0.011976,0.16989
25897,5.6027,3.0909,0.1,0.00044849,4481.8,0.00045279,4622.6,-0.00012301,296.23,-0.00016243,0.011584,0.17531
25898,5.5109,3.3636,0.1,0.00045107,4507.5,0.00045545,4651.4,-0.00012328,302.99,-0.00016361,0.011157,0.16977
25899,5.6027,3.2727,0.1,0.00044872,4484.1,0.00045299,4623.6,-0.00012332,293.47,-0.00016237,0.011061,0.17523
25900,5.5109,3.5455,0.1,0.00045165,4513.4,0.00045596,4654.1,-0.00012408,295.87,-0.00016346,0.0097843,0.16956
25901,5.6027,3.4545,0.1,0.00044917,4488.6,0.00045338,4625.7,-0.00012393,287.99,-0.00016226,0.010012,0.17507
25902,5.5109,3.7273,0.1,0.00045246,4521.5,0.00045665,4657.7,-0.00012519,286.01,-0.00016326,0.0078456,0.16928
25903,5.6027,3.6364,0.1,0.00044984,4495.3,0.00045395,4628.7,-0.00012485,279.83,-0.00016209,0.0084296,0.17482
25904,5.5109,3.9091,0.1,0.0004535,4531.8,0.00045753,4662.4,-0.0001266,273.51,-0.000163,0.005318,0.16891
25905,5.6027,3.8182,0.1,0.00045073,4504.2,0.00045471,4632.7,-0.00012606,269.09,-0.00016187,0.006295,0.1745
25906,5.5109,4.0909,0.1,0.00045474,4544.2,0.00045858,4668,-0.00012828,258.49,-0.00016269,0.002167,0.16846
25907,5.6027,4,0.1,0.00045183,4515.2,0.00045564,4637.7,-0.00012754,255.87,-0.0001616,0.0035832,0.17409
25908,5.5109,4.2727,0.1,0.00045618,4558.6,0.0004598,4674.4,-0.00013023,241.11,-0.00016232,-0.0016631,0.16792
25909,5.6027,4.1818,0.1,0.00045312,4528.1,0.00045673,4643.5,-0.00012929,240.31,-0.00016128,0.00025236,0.17359
25910,5.5109,4.4545,0.1,0.0004578,4574.9,0.00046117,4681.6,-0.00013243,221.54,-0.00016192,-0.0062773,0.1673
25911,5.6027,4.3636,0.1,0.0004546,4542.9,0.00045798,4650,-0.00013129,222.55,-0.00016091,-0.0037647,0.17301
25912,5.5109,4.6364,0.1,0.00045959,4592.8,0.00046267,4689.5,-0.00013485,199.97,-0.00016146,-0.011804,0.16659
25913,5.6027,4.5455,0.1,0.00045625,4559.3,0.00045936,4657.3,-0.00013351,202.78,-0.0001605,-0.0086065,0.17234
25914,5.5109,4.8182,0.1,0.00046154,4612.2,0.00046429,4698,-0.00013747,176.59,-0.00016097,-0.018648,0.16579
25915,5.6027,4.7273,0.1,0.00045805,4577.4,0.00046086,4665.2,-0.00013593,181.17,-0.00016004,-0.01439,0.17159
25916,5.5109,5,0.1,0.00046362,4633,0.00046602,4707,-0.00014026,151.64,-0.00016045,-0.026821,0.1649
25917,5.6027,4.9091,0.1,0.00046,4596.8,0.00046248,4673.7,-0.00013853,157.93,-0.00015956,-0.021799,0.17074
25918,5.5109,5.1818,0.1,0.00046583,4655,0.00046783,4716.4,-0.00014321,125.32,-0.00015989,-0.039474,0.16392
25919,5.6027,5.0909,0.1,0.00046206,4617.4,0.00046418,4682.6,-0.0001413,133.27,-0.00015904,-0.030223,0.16981
25920,5.5109,5.3636,0.1,0.00046813,4678,0.00046971,4726.2,-0.00014628,97.864,-0.00015931,-0.050254,0.16284
25921,5.6027,5.2727,0.1,0.00046423,4639.1,0.00046597,4691.9,-0.00014419,107.39,-0.00015849,-0.046471,0.16877
25922,5.5109,5.5455,0.1,0.00047051,4701.8,0.00047165,4736.1,-0.00014944,69.465,-0.00015871,-0.11307,0.16167
25923,5.6027,5.4545,0.1,0.00046649,4661.7,0.00046781,4701.4,-0.00014719,80.534,-0.00015792,-0.052069,0.16765
25924,5.5109,5.7273,0.1,0.00047297,4726.4,0.00047364,4746.3,-0.0001527,40.25,-0.00015808,-0.15679,0.16039
25925,5.6027,5.6364,0.1,0.00046882,4685,0.00046969,4711.1,-0.00015028,52.826,-0.00015733,-0.17137,0.16643
25926,5.6027,5.8182,0.1,0.00047123,4709,0.00047163,4721.1,-0.00015346,24.398,-0.00015673,-0.17696,0.1651
25927,5.5109,5.9091,0.1,0.00047519,4748.7,0.00047542,4755.3,-0.00015567,13.547,-0.0001575,-0.1679,0.15902
25928,5.6946,0.27273,0.1,0.00046708,4667.6,0.00046769,4685.8,-0.00015104,36.924,-0.00015597,-0.14213,0.17124
25929,5.7864,0.18182,0.1,0.00046528,4649.5,0.00046565,4660.5,-0.00015167,22.233,-0.00015465,-0.16094,0.17611
25930,5.6946,0.090909,0.1,0.00046914,4688.1,0.00046934,4694.2,-0.00015378,12.335,-0.00015544,-0.15811,0.16987
25931,5.6946,0.45455,0.1,0.0004648,4644.8,0.00046585,4676.4,-0.00014803,63.878,-0.00015655,-0.10305,0.17251
25932,5.7864,0.36364,0.1,0.00046304,4627.2,0.00046385,4651.2,-0.00014874,48.485,-0.00015521,-0.1564,0.17743
25933,5.6946,0.63636,0.1,0.0004626,4622.8,0.00046406,4667.1,-0.00014511,90.05,-0.0001571,-0.04568,0.17369
25934,5.7864,0.54545,0.1,0.00046089,4605.7,0.0004621,4642.2,-0.00014589,74.028,-0.00015575,-0.047212,0.17865
25935,5.6946,0.81818,0.1,0.00046047,4601.5,0.00046232,4658.1,-0.00014228,115.33,-0.00015763,-0.035999,0.17476
25936,5.7864,0.72727,0.1,0.0004588,4584.8,0.0004604,4633.4,-0.00014312,98.77,-0.00015627,-0.042352,0.17978
25937,5.6946,1,0.1,0.00045843,4581.2,0.00046065,4649.3,-0.00013957,139.55,-0.00015814,-0.024513,0.17575
25938,5.7864,0.90909,0.1,0.00045679,4564.7,0.00045875,4624.8,-0.00014046,122.58,-0.00015677,-0.02759,0.18081
25939,5.6946,1.1818,0.1,0.00045651,4561.9,0.00045905,4641,-0.000137,162.49,-0.00015863,-0.017105,0.17664
25940,5.7864,1.0909,0.1,0.00045488,4545.6,0.00045717,4616.5,-0.00013791,145.27,-0.00015725,-0.019968,0.18175
25941,5.6946,1.3636,0.1,0.00045471,4543.9,0.00045756,4633.1,-0.00013459,183.97,-0.00015907,-0.010891,0.17744
25942,5.7864,1.2727,0.1,0.00045308,4527.7,0.00045569,4608.7,-0.00013552,166.63,-0.0001577,-0.013247,0.18259
25943,5.6946,1.5455,0.1,0.00045305,4527.4,0.00045617,4625.8,-0.00013236,203.78,-0.00015949,-0.00587,0.17815
25944,5.7864,1.4545,0.1,0.00045141,4511,0.0004543,4601.4,-0.00013329,186.47,-0.00015811,-0.007998,0.18335
25945,5.6946,1.7273,0.1,0.00045155,4512.4,0.00045491,4619.1,-0.00013035,221.74,-0.00015986,-0.0016738,0.17878
25946,5.7864,1.6364,0.1,0.00044989,4495.8,0.00045302,4594.6,-0.00013125,204.63,-0.00015849,-0.0035991,0.18402
25947,5.6946,1.9091,0.1,0.00045022,4499.1,0.00045379,4613.2,-0.00012856,237.68,-0.00016019,0.0018124,0.17932
25948,5.7864,1.8182,0.1,0.00044853,4482.2,0.00045188,4588.5,-0.00012942,220.92,-0.00015882,5.3024e-05,0.1846
25949,5.6946,2.0909,0.1,0.00044907,4487.6,0.00045282,4608,-0.00012701,251.45,-0.00016047,0.0046829,0.17977
25950,5.7864,2,0.1,0.00044733,4470.2,0.00045087,4583.2,-0.00012781,235.19,-0.00015912,0.0030841,0.1851
25951,5.6946,2.2727,0.1,0.00044812,4478.1,0.00045201,4603.7,-0.00012572,262.91,-0.00016071,0.0069874,0.18014
25952,5.7864,2.1818,0.1,0.00044632,4460.1,0.00045001,4578.6,-0.00012645,247.31,-0.00015937,0.0055536,0.18551
25953,5.6946,2.4545,0.1,0.00044736,4470.6,0.00045137,4600.3,-0.0001247,271.95,-0.0001609,0.0087562,0.18043
25954,5.7864,2.3636,0.1,0.0004455,4451.9,0.00044931,4574.9,-0.00012534,257.16,-0.00015957,0.0074991,0.18584
25955,5.6946,2.6364,0.1,0.00044682,4465.1,0.00045091,4597.9,-0.00012397,278.47,-0.00016103,0.010009,0.18063
25956,5.7864,2.5455,0.1,0.00044487,4445.7,0.00044878,4572.1,-0.0001245,264.63,-0.00015972,0.0089422,0.18609
25957,5.6946,2.8182,0.1,0.0004465,4461.9,0.00045063,4596.4,-0.00012353,282.41,-0.00016111,0.010758,0.18076
25958,5.7864,2.7273,0.1,0.00044446,4441.5,0.00044843,4570.2,-0.00012394,269.65,-0.00015982,0.009899,0.18625
25959,5.6946,3,0.1,0.00044639,4460.8,0.00045054,4595.9,-0.00012338,283.73,-0.00016114,0.011007,0.1808
25960,5.7864,2.9091,0.1,0.00044425,4439.4,0.00044825,4569.2,-0.00012365,272.18,-0.00015988,0.010376,0.18633
25961,5.6946,3.1818,0.1,0.0004465,4461.9,0.00045063,4596.4,-0.00012353,282.41,-0.00016111,0.010758,0.18076
25962,5.7864,3.0909,0.1,0.00044425,4439.4,0.00044825,4569.2,-0.00012365,272.18,-0.00015988,0.010376,0.18633
25963,5.6946,3.3636,0.1,0.00044682,4465.1,0.00045091,4597.9,-0.00012397,278.47,-0.00016103,0.010009,0.18063
25964,5.7864,3.2727,0.1,0.00044446,4441.5,0.00044843,4570.2,-0.00012394,269.65,-0.00015982,0.0098991,0.18625
25965,5.6946,3.5455,0.1,0.00044736,4470.6,0.00045137,4600.3,-0.0001247,271.95,-0.0001609,0.0087564,0.18043
25966,5.7864,3.4545,0.1,0.00044487,4445.7,0.00044878,4572.1,-0.0001245,264.63,-0.00015972,0.0089424,0.18609
25967,5.6946,3.7273,0.1,0.00044812,4478.1,0.00045201,4603.7,-0.00012572,262.91,-0.00016071,0.0069877,0.18014
25968,5.7864,3.6364,0.1,0.0004455,4451.9,0.00044931,4574.9,-0.00012534,257.16,-0.00015957,0.0074994,0.18584
25969,5.6946,3.9091,0.1,0.00044907,4487.6,0.00045282,4608,-0.00012701,251.45,-0.00016047,0.0046833,0.17977
25970,5.7864,3.8182,0.1,0.00044632,4460.1,0.00045001,4578.6,-0.00012645,247.31,-0.00015937,0.005554,0.18551
25971,5.6946,4.0909,0.1,0.00045022,4499.1,0.00045379,4613.2,-0.00012856,237.68,-0.00016019,0.0018129,0.17932
25972,5.7864,4,0.1,0.00044733,4470.2,0.00045087,4583.2,-0.00012781,235.19,-0.00015912,0.0030845,0.1851
25973,5.6946,4.2727,0.1,0.00045155,4512.4,0.00045491,4619.1,-0.00013035,221.74,-0.00015986,-0.0016733,0.17878
25974,5.7864,4.1818,0.1,0.00044853,4482.2,0.00045188,4588.5,-0.00012942,220.92,-0.00015882,5.3566e-05,0.1846
25975,5.6946,4.4545,0.1,0.00045305,4527.4,0.00045617,4625.8,-0.00013236,203.78,-0.00015949,-0.0058694,0.17815
25976,5.7864,4.3636,0.1,0.00044989,4495.8,0.00045302,4594.6,-0.00013125,204.63,-0.00015848,-0.0035986,0.18402
25977,5.6946,4.6364,0.1,0.00045471,4543.9,0.00045756,4633.1,-0.00013459,183.97,-0.00015907,-0.01089,0.17744
25978,5.7864,4.5455,0.1,0.00045141,4511,0.0004543,4601.4,-0.00013329,186.47,-0.00015811,-0.0079972,0.18335
25979,5.6946,4.8182,0.1,0.00045651,4561.9,0.00045905,4641,-0.000137,162.49,-0.00015863,-0.017104,0.17664
25980,5.7864,4.7273,0.1,0.00045308,4527.7,0.00045569,4608.7,-0.00013552,166.63,-0.0001577,-0.013246,0.18259
25981,5.6946,5,0.1,0.00045843,4581.2,0.00046065,4649.3,-0.00013957,139.55,-0.00015814,-0.024512,0.17575
25982,5.7864,4.9091,0.1,0.00045488,4545.6,0.00045717,4616.5,-0.00013791,145.27,-0.00015725,-0.019967,0.18175
25983,5.6946,5.1818,0.1,0.00046047,4601.5,0.00046232,4658.1,-0.00014228,115.33,-0.00015763,-0.035998,0.17476
25984,5.7864,5.0909,0.1,0.00045679,4564.7,0.00045875,4624.8,-0.00014046,122.58,-0.00015677,-0.027588,0.18081
25985,5.6946,5.3636,0.1,0.0004626,4622.8,0.00046406,4667.1,-0.00014511,90.05,-0.0001571,-0.045679,0.17369
25986,5.7864,5.2727,0.1,0.0004588,4584.8,0.0004604,4633.4,-0.00014312,98.77,-0.00015627,-0.042351,0.17978
25987,5.6946,5.5455,0.1,0.0004648,4644.8,0.00046585,4676.4,-0.00014803,63.878,-0.00015655,-0.10305,0.17251
25988,5.7864,5.4545,0.1,0.00046089,4605.7,0.0004621,4642.2,-0.00014589,74.028,-0.00015575,-0.047212,0.17865
25989,5.6946,5.7273,0.1,0.00046708,4667.6,0.00046769,4685.8,-0.00015104,36.924,-0.00015597,-0.14213,0.17124
25990,5.7864,5.6364,0.1,0.00046304,4627.2,0.00046385,4651.2,-0.00014874,48.485,-0.00015521,-0.1564,0.17743
25991,5.7864,5.8182,0.1,0.00046528,4649.5,0.00046565,4660.5,-0.00015167,22.233,-0.00015465,-0.16094,0.17611
25992,5.6946,5.9091,0.1,0.00046914,4688.1,0.00046934,4694.2,-0.00015378,12.335,-0.00015544,-0.15811,0.16987
25993,5.8783,0.27273,0.1,0.00046124,4609.2,0.0004618,4625.9,-0.00014938,33.753,-0.00015389,-0.12904,0.1824
25994,5.9701,0.18182,0.1,0.00045938,4590.6,0.00045971,4600.5,-0.0001499,20.14,-0.0001526,-0.14743,0.18743
25995,5.8783,0.090909,0.1,0.00046313,4628.1,0.00046332,4633.6,-0.00015189,11.152,-0.0001534,-0.14945,0.18103
25996,5.8783,0.45455,0.1,0.00045913,4588.1,0.00046009,4617.1,-0.0001466,58.622,-0.00015441,-0.093895,0.18367
25997,5.9701,0.36364,0.1,0.0004573,4569.9,0.00045804,4591.8,-0.00014719,44.386,-0.00015312,-0.1427,0.18875
25998,5.8783,0.63636,0.1,0.00045709,4567.7,0.00045844,4608.5,-0.0001439,82.736,-0.00015492,-0.041523,0.18485
25999,5.9701,0.54545,0.1,0.00045531,4549.9,0.00045642,4583.5,-0.00014456,67.928,-0.00015361,-0.042801,0.18997
26000,5.8783,0.81818,0.1,0.00045512,4548,0.00045683,4600.1,-0.0001413,106.01,-0.00015541,-0.032838,0.18592
26001,5.9701,0.72727,0.1,0.00045337,4530.6,0.00045485,4575.3,-0.00014201,90.714,-0.00015409,-0.038595,0.19109
26002,5.8783,1,0.1,0.00045323,4529.2,0.00045528,4592,-0.0001388,128.29,-0.00015588,-0.022423,0.18691
26003,5.9701,0.90909,0.1,0.00045152,4512.1,0.00045333,4567.3,-0.00013955,112.63,-0.00015455,-0.025195,0.19212
26004,5.8783,1.1818,0.1,0.00045145,4511.4,0.00045381,4584.3,-0.00013643,149.39,-0.00015632,-0.015715,0.1878
26005,5.9701,1.0909,0.1,0.00044975,4494.4,0.00045187,4559.6,-0.00013721,133.49,-0.00015498,-0.018308,0.19306
26006,5.8783,1.3636,0.1,0.00044979,4494.8,0.00045243,4577,-0.00013422,169.12,-0.00015673,-0.010081,0.1886
26007,5.9701,1.2727,0.1,0.00044809,4477.8,0.0004505,4552.4,-0.00013501,153.12,-0.00015539,-0.012218,0.19391
26008,5.8783,1.5455,0.1,0.00044826,4479.5,0.00045115,4570.2,-0.00013218,187.31,-0.00015711,-0.0055249,0.18932
26009,5.9701,1.4545,0.1,0.00044655,4462.4,0.00044922,4545.6,-0.00013296,171.35,-0.00015577,-0.0074612,0.19467
26010,5.8783,1.7273,0.1,0.00044687,4465.6,0.00044999,4564,-0.00013032,203.8,-0.00015745,-0.0017139,0.18994
26011,5.9701,1.6364,0.1,0.00044514,4448.4,0.00044804,4539.4,-0.00013109,188.02,-0.00015611,-0.0034705,0.19534
26012,5.8783,1.9091,0.1,0.00044564,4453.4,0.00044896,4558.5,-0.00012868,218.42,-0.00015775,0.0014547,0.19048
26013,5.9701,1.8182,0.1,0.00044388,4435.8,0.00044699,4533.8,-0.00012941,202.97,-0.00015642,-0.00015457,0.19592
26014,5.8783,2.0909,0.1,0.00044458,4442.8,0.00044806,4553.8,-0.00012726,231.05,-0.00015801,0.0040657,0.19094
26015,5.9701,2,0.1,0.00044278,4424.7,0.00044606,4528.8,-0.00012793,216.06,-0.00015669,0.0025995,0.19642
26016,5.8783,2.2727,0.1,0.0004437,4434,0.00044732,4549.8,-0.00012608,241.55,-0.00015822,0.0061632,0.19131
26017,5.9701,2.1818,0.1,0.00044184,4415.4,0.00044527,4524.6,-0.00012668,227.17,-0.00015692,0.0048449,0.19683
26018,5.8783,2.4545,0.1,0.00044301,4427,0.00044673,4546.7,-0.00012514,249.83,-0.00015839,0.0077742,0.1916
26019,5.9701,2.3636,0.1,0.00044109,4407.8,0.00044463,4521.2,-0.00012567,236.19,-0.0001571,0.0066149,0.19716
26020,5.8783,2.6364,0.1,0.00044251,4422,0.0004463,4544.4,-0.00012447,255.81,-0.00015851,0.0089157,0.1918
26021,5.9701,2.5455,0.1,0.00044051,4402.1,0.00044414,4518.5,-0.00012489,243.04,-0.00015724,0.0079283,0.19741
26022,5.8783,2.8182,0.1,0.00044221,4419,0.00044605,4543,-0.00012406,259.42,-0.00015859,0.009598,0.19193
26023,5.9701,2.7273,0.1,0.00044012,4398.2,0.00044381,4516.8,-0.00012438,247.64,-0.00015733,0.0087996,0.19757
26024,5.8783,3,0.1,0.00044211,4418,0.00044596,4542.6,-0.00012393,260.63,-0.00015861,0.0098251,0.19197
26025,5.9701,2.9091,0.1,0.00043993,4396.3,0.00044365,4515.9,-0.00012412,249.95,-0.00015738,0.0092343,0.19766
26026,5.8783,3.1818,0.1,0.00044221,4419,0.00044605,4543,-0.00012406,259.42,-0.00015859,0.0095981,0.19193
26027,5.9701,3.0909,0.1,0.00043993,4396.3,0.00044365,4515.9,-0.00012412,249.95,-0.00015738,0.0092343,0.19766
26028,5.8783,3.3636,0.1,0.00044251,4422,0.0004463,4544.4,-0.00012447,255.81,-0.00015851,0.0089159,0.1918
26029,5.9701,3.2727,0.1,0.00044012,4398.2,0.00044381,4516.8,-0.00012438,247.64,-0.00015733,0.0087998,0.19757
26030,5.8783,3.5455,0.1,0.00044301,4427,0.00044673,4546.7,-0.00012514,249.83,-0.00015839,0.0077745,0.1916
26031,5.9701,3.4545,0.1,0.00044051,4402.1,0.00044414,4518.5,-0.00012489,243.04,-0.00015724,0.0079285,0.19741
26032,5.8783,3.7273,0.1,0.0004437,4434,0.00044732,4549.8,-0.00012608,241.55,-0.00015822,0.0061636,0.19131
26033,5.9701,3.6364,0.1,0.00044109,4407.8,0.00044463,4521.2,-0.00012567,236.19,-0.0001571,0.0066152,0.19716
26034,5.8783,3.9091,0.1,0.00044458,4442.8,0.00044806,4553.8,-0.00012726,231.05,-0.00015801,0.0040661,0.19094
26035,5.9701,3.8182,0.1,0.00044184,4415.4,0.00044527,4524.6,-0.00012668,227.17,-0.00015692,0.0048453,0.19683
26036,5.8783,4.0909,0.1,0.00044564,4453.4,0.00044896,4558.5,-0.00012868,218.42,-0.00015775,0.0014551,0.19048
26037,5.9701,4,0.1,0.00044278,4424.7,0.00044606,4528.8,-0.00012793,216.06,-0.00015669,0.0025998,0.19642
26038,5.8783,4.2727,0.1,0.00044687,4465.6,0.00044999,4564,-0.00013032,203.8,-0.00015745,-0.0017134,0.18994
26039,5.9701,4.1818,0.1,0.00044388,4435.8,0.00044699,4533.8,-0.00012941,202.97,-0.00015642,-0.0001541,0.19592
26040,5.8783,4.4545,0.1,0.00044826,4479.5,0.00045115,4570.2,-0.00013218,187.31,-0.00015711,-0.0055242,0.18932
26041,5.9701,4.3636,0.1,0.00044514,4448.4,0.00044804,4539.4,-0.00013109,188.02,-0.00015611,-0.0034699,0.19534
26042,5.8783,4.6364,0.1,0.00044979,4494.8,0.00045243,4577,-0.00013422,169.12,-0.00015673,-0.01008,0.1886
26043,5.9701,4.5455,0.1,0.00044655,4462.4,0.00044922,4545.6,-0.00013296,171.35,-0.00015577,-0.0074606,0.19467
26044,5.8783,4.8182,0.1,0.00045145,4511.4,0.00045381,4584.3,-0.00013643,149.39,-0.00015632,-0.015715,0.1878
26045,5.9701,4.7273,0.1,0.00044809,4477.8,0.0004505,4552.4,-0.00013501,153.12,-0.00015539,-0.012218,0.19391
26046,5.8783,5,0.1,0.00045323,4529.2,0.00045528,4592,-0.0001388,128.29,-0.00015588,-0.022422,0.18691
26047,5.9701,4.9091,0.1,0.00044975,4494.4,0.00045187,4559.6,-0.00013721,133.49,-0.00015498,-0.018307,0.19306
26048,5.8783,5.1818,0.1,0.00045512,4548,0.00045683,4600.1,-0.0001413,106.01,-0.00015541,-0.032837,0.18592
26049,5.9701,5.0909,0.1,0.00045152,4512.1,0.00045333,4567.3,-0.00013955,112.63,-0.00015455,-0.025194,0.19212
26050,5.8783,5.3636,0.1,0.00045709,4567.7,0.00045844,4608.5,-0.0001439,82.736,-0.00015492,-0.041523,0.18485
26051,5.9701,5.2727,0.1,0.00045337,4530.6,0.00045485,4575.3,-0.00014201,90.714,-0.00015409,-0.038594,0.19109
26052,5.8783,5.5455,0.1,0.00045913,4588.1,0.00046009,4617.1,-0.0001466,58.622,-0.00015441,-0.093894,0.18367
26053,5.9701,5.4545,0.1,0.00045531,4549.9,0.00045642,4583.5,-0.00014456,67.928,-0.00015361,-0.042801,0.18997
26054,5.8783,5.7273,0.1,0.00046124,4609.2,0.0004618,4625.9,-0.00014938,33.753,-0.00015389,-0.12904,0.1824
26055,5.9701,5.6364,0.1,0.0004573,4569.9,0.00045804,4591.8,-0.00014719,44.386,-0.00015312,-0.14269,0.18875
26056,5.9701,5.8182,0.1,0.00045938,4590.6,0.00045971,4600.5,-0.0001499,20.14,-0.0001526,-0.14743,0.18743
26057,5.8783,5.9091,0.1,0.00046313,4628.1,0.00046332,4633.6,-0.00015189,11.152,-0.0001534,-0.14945,0.18103
26058,6.062,0.27273,0.1,0.00045544,4551.2,0.00045595,4566.5,-0.00014772,30.738,-0.00015182,-0.11734,0.19388
26059,6.1538,0.18182,0.1,0.00045352,4532.1,0.00045383,4541.1,-0.00014814,18.122,-0.00015057,-0.13611,0.19906
26060,6.062,0.090909,0.1,0.00045717,4568.6,0.00045734,4573.5,-0.00015002,10.003,-0.00015137,-0.14189,0.19251
26061,6.062,0.45455,0.1,0.00045348,4531.7,0.00045437,4558.2,-0.00014515,53.682,-0.00015231,-0.085517,0.19514
26062,6.1538,0.36364,0.1,0.0004516,4512.9,0.00045227,4532.9,-0.00014563,40.52,-0.00015104,-0.13014,0.20037
26063,6.062,0.63636,0.1,0.00045159,4512.8,0.00045284,4550.3,-0.00014267,75.896,-0.00015277,-0.037733,0.19631
26064,6.1538,0.54545,0.1,0.00044975,4494.4,0.00045078,4525.2,-0.00014321,62.213,-0.00015149,-0.038788,0.20159
26065,6.062,0.81818,0.1,0.00044977,4494.6,0.00045135,4542.5,-0.00014027,97.323,-0.00015322,-0.029954,0.19739
26066,6.1538,0.72727,0.1,0.00044796,4476.5,0.00044932,4517.5,-0.00014086,83.193,-0.00015193,-0.035162,0.20271
26067,6.062,1,0.1,0.00044803,4477.2,0.00044992,4535,-0.00013797,117.82,-0.00015365,-0.02052,0.19837
26068,6.1538,0.90909,0.1,0.00044625,4459.4,0.00044791,4510.2,-0.00013859,103.36,-0.00015235,-0.023014,0.20374
26069,6.062,1.1818,0.1,0.00044639,4460.8,0.00044856,4527.8,-0.00013579,137.22,-0.00015405,-0.014456,0.19927
26070,6.1538,1.0909,0.1,0.00044461,4443.1,0.00044657,4503.1,-0.00013644,122.54,-0.00015275,-0.0168,0.20468
26071,6.062,1.3636,0.1,0.00044485,4445.4,0.00044729,4521.1,-0.00013375,155.35,-0.00015443,-0.009353,0.20007
26072,6.1538,1.2727,0.1,0.00044308,4427.7,0.0004453,4496.3,-0.00013441,140.59,-0.00015313,-0.01129,0.20553
26073,6.062,1.5455,0.1,0.00044343,4431.3,0.00044611,4514.8,-0.00013187,172.05,-0.00015477,-0.0052248,0.20078
26074,6.1538,1.4545,0.1,0.00044166,4413.5,0.00044412,4490.1,-0.00013253,157.33,-0.00015347,-0.0069855,0.20629
26075,6.062,1.7273,0.1,0.00044215,4418.5,0.00044504,4509.1,-0.00013017,187.18,-0.00015508,-0.0017686,0.20141
26076,6.1538,1.6364,0.1,0.00044036,4400.5,0.00044304,4484.3,-0.00013081,172.63,-0.00015379,-0.0033702,0.20696
26077,6.062,1.9091,0.1,0.00044102,4407.1,0.00044409,4504,-0.00012866,200.6,-0.00015536,0.001107,0.20195
26078,6.1538,1.8182,0.1,0.00043919,4388.9,0.00044207,4479.1,-0.00012926,186.35,-0.00015407,-0.0003641,0.20754
26079,6.062,2.0909,0.1,0.00044004,4397.4,0.00044327,4499.6,-0.00012736,212.18,-0.0001556,0.0034783,0.20241
26080,6.1538,2,0.1,0.00043817,4378.7,0.00044121,4474.5,-0.00012791,198.35,-0.00015431,0.0021344,0.20804
26081,6.062,2.2727,0.1,0.00043923,4389.2,0.00044258,4495.9,-0.00012627,221.81,-0.00015579,0.0053845,0.20278
26082,6.1538,2.1818,0.1,0.00043731,4370.1,0.00044049,4470.6,-0.00012676,208.54,-0.00015452,0.0041729,0.20845
26083,6.062,2.4545,0.1,0.00043859,4382.8,0.00044204,4493,-0.00012542,229.4,-0.00015595,0.0068491,0.20307
26084,6.1538,2.3636,0.1,0.00043661,4363.1,0.0004399,4467.5,-0.00012583,216.81,-0.00015469,0.0057806,0.20878
26085,6.062,2.6364,0.1,0.00043813,4378.2,0.00044165,4490.9,-0.0001248,234.87,-0.00015606,0.0078873,0.20328
26086,6.1538,2.5455,0.1,0.00043608,4357.8,0.00043945,4465.1,-0.00012512,223.09,-0.00015481,0.0069739,0.20903
26087,6.062,2.8182,0.1,0.00043785,4375.4,0.00044141,4489.7,-0.00012443,238.18,-0.00015613,0.0085082,0.2034
26088,6.1538,2.7273,0.1,0.00043572,4354.2,0.00043915,4463.4,-0.00012465,227.3,-0.0001549,0.007766,0.2092
26089,6.062,3,0.1,0.00043775,4374.5,0.00044133,4489.3,-0.0001243,239.28,-0.00015615,0.0087149,0.20344
26090,6.1538,2.9091,0.1,0.00043554,4352.4,0.00043899,4462.6,-0.00012441,229.42,-0.00015494,0.0081614,0.20928
26091,6.062,3.1818,0.1,0.00043785,4375.4,0.00044141,4489.7,-0.00012443,238.18,-0.00015613,0.0085083,0.2034
26092,6.1538,3.0909,0.1,0.00043554,4352.4,0.00043899,4462.6,-0.00012441,229.42,-0.00015494,0.0081612,0.20928
26093,6.062,3.3636,0.1,0.00043813,4378.2,0.00044165,4490.9,-0.0001248,234.87,-0.00015606,0.0078876,0.20328
26094,6.1538,3.2727,0.1,0.00043572,4354.2,0.00043915,4463.4,-0.00012465,227.3,-0.0001549,0.0077662,0.2092
26095,6.062,3.5455,0.1,0.00043859,4382.8,0.00044204,4493,-0.00012542,229.4,-0.00015595,0.0068494,0.20307
26096,6.1538,3.4545,0.1,0.00043608,4357.8,0.00043945,4465.1,-0.00012512,223.09,-0.00015481,0.0069742,0.20903
26097,6.062,3.7273,0.1,0.00043923,4389.2,0.00044258,4495.9,-0.00012627,221.81,-0.00015579,0.0053849,0.20278
26098,6.1538,3.6364,0.1,0.00043661,4363.1,0.0004399,4467.5,-0.00012583,216.81,-0.00015469,0.005781,0.20878
26099,6.062,3.9091,0.1,0.00044004,4397.4,0.00044327,4499.6,-0.00012736,212.18,-0.0001556,0.0034787,0.20241
26100,6.1538,3.8182,0.1,0.00043731,4370.1,0.00044049,4470.6,-0.00012676,208.54,-0.00015452,0.0041733,0.20845
26101,6.062,4.0909,0.1,0.00044102,4407.1,0.00044409,4504,-0.00012866,200.6,-0.00015536,0.0011075,0.20195
26102,6.1538,4,0.1,0.00043817,4378.7,0.00044121,4474.5,-0.00012791,198.35,-0.00015431,0.0021347,0.20804
26103,6.062,4.2727,0.1,0.00044215,4418.5,0.00044504,4509.1,-0.00013017,187.18,-0.00015508,-0.0017681,0.20141
26104,6.1538,4.1818,0.1,0.00043919,4388.9,0.00044207,4479.1,-0.00012926,186.35,-0.00015407,-0.00036356,0.20754
26105,6.062,4.4545,0.1,0.00044343,4431.3,0.00044611,4514.8,-0.00013187,172.05,-0.00015477,-0.0052242,0.20078
26106,6.1538,4.3636,0.1,0.00044036,4400.5,0.00044304,4484.3,-0.00013081,172.63,-0.00015379,-0.0033695,0.20696
26107,6.062,4.6364,0.1,0.00044485,4445.4,0.00044729,4521.1,-0.00013375,155.35,-0.00015443,-0.0093524,0.20007
26108,6.1538,4.5455,0.1,0.00044166,4413.5,0.00044412,4490.1,-0.00013253,157.33,-0.00015347,-0.0069849,0.20628
26109,6.062,4.8182,0.1,0.00044639,4460.8,0.00044856,4527.8,-0.00013579,137.22,-0.00015405,-0.014455,0.19927
26110,6.1538,4.7273,0.1,0.00044308,4427.7,0.0004453,4496.3,-0.00013441,140.59,-0.00015313,-0.01129,0.20553
26111,6.062,5,0.1,0.00044803,4477.2,0.00044992,4535,-0.00013797,117.82,-0.00015365,-0.020519,0.19837
26112,6.1538,4.9091,0.1,0.00044461,4443.1,0.00044657,4503.1,-0.00013644,122.54,-0.00015275,-0.016799,0.20468
26113,6.062,5.1818,0.1,0.00044977,4494.6,0.00045135,4542.5,-0.00014027,97.323,-0.00015322,-0.029953,0.19739
26114,6.1538,5.0909,0.1,0.00044625,4459.4,0.00044791,4510.2,-0.00013859,103.36,-0.00015235,-0.023012,0.20374
26115,6.062,5.3636,0.1,0.00045159,4512.8,0.00045284,4550.3,-0.00014267,75.896,-0.00015277,-0.037733,0.19631
26116,6.1538,5.2727,0.1,0.00044796,4476.5,0.00044932,4517.5,-0.00014086,83.193,-0.00015193,-0.035162,0.20271
26117,6.062,5.5455,0.1,0.00045348,4531.7,0.00045437,4558.2,-0.00014515,53.682,-0.00015231,-0.085516,0.19514
26118,6.1538,5.4545,0.1,0.00044975,4494.4,0.00045078,4525.2,-0.00014321,62.213,-0.00015149,-0.038788,0.20159
26119,6.062,5.7273,0.1,0.00045544,4551.2,0.00045595,4566.5,-0.00014772,30.738,-0.00015182,-0.11734,0.19388
26120,6.1538,5.6364,0.1,0.0004516,4512.9,0.00045227,4532.9,-0.00014563,40.52,-0.00015104,-0.13014,0.20037
26121,6.1538,5.8182,0.1,0.00045352,4532.1,0.00045383,4541.1,-0.00014814,18.122,-0.00015057,-0.13611,0.19906
26122,6.062,5.9091,0.1,0.00045717,4568.6,0.00045734,4573.5,-0.00015002,10.003,-0.00015137,-0.14189,0.19251
26123,6.2457,0.27273,0.1,0.00044968,4493.7,0.00045015,4507.5,-0.00014606,27.877,-0.00014978,-0.10687,0.20566
26124,6.3375,0.18182,0.1,0.00044772,4474.1,0.00044799,4482.1,-0.00014639,16.186,-0.00014856,-0.12676,0.211
26125,6.2457,0.090909,0.1,0.00045127,4509.6,0.00045142,4513.9,-0.00014817,8.8932,-0.00014937,-0.13545,0.2043
26126,6.2457,0.45455,0.1,0.00044787,4475.6,0.00044868,4499.9,-0.00014369,49.044,-0.00015022,-0.077845,0.20692
26127,6.3375,0.36364,0.1,0.00044593,4456.2,0.00044654,4474.5,-0.00014407,36.879,-0.00014899,-0.11863,0.2123
26128,6.2457,0.63636,0.1,0.00044612,4458.1,0.00044726,4492.4,-0.0001414,69.504,-0.00015065,-0.034278,0.20809
26129,6.3375,0.54545,0.1,0.00044422,4439.1,0.00044516,4467.3,-0.00014183,56.863,-0.0001494,-0.035135,0.21352
26130,6.2457,0.81818,0.1,0.00044444,4441.3,0.00044589,4485.2,-0.00013918,89.224,-0.00015106,-0.027321,0.20916
26131,6.3375,0.72727,0.1,0.00044257,4422.6,0.00044381,4460.2,-0.00013966,76.176,-0.00014981,-0.032027,0.21464
26132,6.2457,1,0.1,0.00044283,4425.2,0.00044457,4478.3,-0.00013707,108.08,-0.00015146,-0.018789,0.21014
26133,6.3375,0.90909,0.1,0.00044098,4406.7,0.00044251,4453.3,-0.00013758,94.73,-0.00015019,-0.021028,0.21566
26134,6.2457,1.1818,0.1,0.00044131,4410,0.00044331,4471.6,-0.00013507,125.91,-0.00015182,-0.013315,0.21104
26135,6.3375,1.0909,0.1,0.00043947,4391.7,0.00044127,4446.8,-0.0001356,112.37,-0.00015056,-0.015432,0.2166
26136,6.2457,1.3636,0.1,0.00043989,4395.8,0.00044214,4465.4,-0.00013319,142.56,-0.00015217,-0.008702,0.21184
26137,6.3375,1.2727,0.1,0.00043805,4377.5,0.0004401,4440.5,-0.00013373,128.95,-0.0001509,-0.010456,0.21744
26138,6.2457,1.5455,0.1,0.00043858,4382.8,0.00044105,4459.6,-0.00013147,157.9,-0.00015248,-0.0049672,0.21255
26139,6.3375,1.4545,0.1,0.00043674,4364.4,0.00043901,4434.7,-0.000132,144.33,-0.00015121,-0.0065665,0.2182
26140,6.2457,1.7273,0.1,0.0004374,4371,0.00044007,4454.3,-0.0001299,171.79,-0.00015277,-0.0018376,0.21318
26141,6.3375,1.6364,0.1,0.00043554,4352.4,0.00043802,4429.4,-0.00013042,158.37,-0.0001515,-0.0032965,0.21887
26142,6.2457,1.9091,0.1,0.00043635,4360.5,0.00043919,4449.6,-0.00012852,184.1,-0.00015302,0.00076826,0.21372
26143,6.3375,1.8182,0.1,0.00043446,4341.6,0.00043712,4424.6,-0.000129,170.96,-0.00015176,-0.00057578,0.21946
26144,6.2457,2.0909,0.1,0.00043545,4351.5,0.00043843,4445.6,-0.00012732,194.72,-0.00015323,0.0029185,0.21418
26145,6.3375,2,0.1,0.00043352,4332.2,0.00043633,4420.4,-0.00012776,181.97,-0.00015198,0.0016872,0.21996
26146,6.2457,2.2727,0.1,0.0004347,4344,0.0004378,4442.2,-0.00012632,203.55,-0.00015341,0.004648,0.21455
26147,6.3375,2.1818,0.1,0.00043273,4324.3,0.00043566,4416.8,-0.00012671,191.31,-0.00015217,0.0035348,0.22037
26148,6.2457,2.4545,0.1,0.00043411,4338.1,0.0004373,4439.5,-0.00012554,210.5,-0.00015355,0.0059773,0.21484
26149,6.3375,2.3636,0.1,0.00043208,4317.8,0.00043512,4413.8,-0.00012585,198.9,-0.00015233,0.0049927,0.2207
26150,6.2457,2.6364,0.1,0.00043368,4333.8,0.00043694,4437.5,-0.00012497,215.52,-0.00015366,0.0069201,0.21505
26151,6.3375,2.5455,0.1,0.00043159,4312.9,0.00043471,4411.6,-0.00012521,204.65,-0.00015244,0.0060752,0.22095
26152,6.2457,2.8182,0.1,0.00043342,4331.2,0.00043673,4436.4,-0.00012463,218.55,-0.00015372,0.0074841,0.21517
26153,6.3375,2.7273,0.1,0.00043126,4309.7,0.00043443,4410.1,-0.00012477,208.51,-0.00015252,0.006794,0.22112
26154,6.2457,3,0.1,0.00043334,4330.4,0.00043665,4436,-0.00012452,219.56,-0.00015374,0.0076718,0.21521
26155,6.3375,2.9091,0.1,0.0004311,4308,0.00043429,4409.4,-0.00012455,210.45,-0.00015256,0.0071528,0.2212
26156,6.2457,3.1818,0.1,0.00043342,4331.2,0.00043673,4436.4,-0.00012463,218.55,-0.00015372,0.007484,0.21517
26157,6.3375,3.0909,0.1,0.0004311,4308,0.00043429,4409.4,-0.00012455,210.45,-0.00015256,0.0071527,0.2212
26158,6.2457,3.3636,0.1,0.00043368,4333.8,0.00043694,4437.5,-0.00012497,215.52,-0.00015366,0.0069202,0.21505
26159,6.3375,3.2727,0.1,0.00043126,4309.7,0.00043443,4410.1,-0.00012477,208.51,-0.00015252,0.0067941,0.22112
26160,6.2457,3.5455,0.1,0.00043411,4338.1,0.0004373,4439.5,-0.00012554,210.5,-0.00015355,0.0059777,0.21484
26161,6.3375,3.4545,0.1,0.00043159,4312.9,0.00043471,4411.6,-0.00012521,204.65,-0.00015244,0.0060754,0.22095
26162,6.2457,3.7273,0.1,0.0004347,4344,0.0004378,4442.2,-0.00012632,203.55,-0.00015341,0.0046484,0.21455
26163,6.3375,3.6364,0.1,0.00043208,4317.8,0.00043512,4413.8,-0.00012585,198.9,-0.00015233,0.0049931,0.2207
26164,6.2457,3.9091,0.1,0.00043545,4351.5,0.00043843,4445.6,-0.00012732,194.72,-0.00015323,0.0029189,0.21418
26165,6.3375,3.8182,0.1,0.00043273,4324.3,0.00043566,4416.8,-0.00012671,191.31,-0.00015217,0.0035353,0.22037
26166,6.2457,4.0909,0.1,0.00043635,4360.5,0.00043919,4449.6,-0.00012852,184.1,-0.00015302,0.00076867,0.21372
26167,6.3375,4,0.1,0.00043352,4332.2,0.00043633,4420.4,-0.00012776,181.97,-0.00015198,0.0016876,0.21996
26168,6.2457,4.2727,0.1,0.0004374,4371,0.00044007,4454.3,-0.0001299,171.79,-0.00015277,-0.0018369,0.21318
26169,6.3375,4.1818,0.1,0.00043446,4341.6,0.00043712,4424.6,-0.000129,170.96,-0.00015176,-0.00057521,0.21946
26170,6.2457,4.4545,0.1,0.00043858,4382.8,0.00044105,4459.6,-0.00013147,157.9,-0.00015248,-0.0049665,0.21255
26171,6.3375,4.3636,0.1,0.00043554,4352.4,0.00043802,4429.4,-0.00013042,158.37,-0.0001515,-0.0032959,0.21887
26172,6.2457,4.6364,0.1,0.00043989,4395.8,0.00044214,4465.4,-0.00013319,142.56,-0.00015217,-0.0087013,0.21184
26173,6.3375,4.5455,0.1,0.00043674,4364.4,0.00043901,4434.7,-0.000132,144.33,-0.00015121,-0.0065658,0.2182
26174,6.2457,4.8182,0.1,0.00044131,4410,0.00044331,4471.6,-0.00013507,125.91,-0.00015182,-0.013315,0.21104
26175,6.3375,4.7273,0.1,0.00043805,4377.5,0.0004401,4440.5,-0.00013373,128.95,-0.0001509,-0.010455,0.21744
26176,6.2457,5,0.1,0.00044283,4425.2,0.00044457,4478.3,-0.00013707,108.08,-0.00015146,-0.018788,0.21014
26177,6.3375,4.9091,0.1,0.00043947,4391.7,0.00044127,4446.8,-0.0001356,112.37,-0.00015056,-0.015432,0.2166
26178,6.2457,5.1818,0.1,0.00044444,4441.3,0.00044589,4485.2,-0.00013918,89.224,-0.00015106,-0.02732,0.20916
26179,6.3375,5.0909,0.1,0.00044098,4406.7,0.00044251,4453.3,-0.00013758,94.73,-0.00015019,-0.021027,0.21566
26180,6.2457,5.3636,0.1,0.00044612,4458.1,0.00044726,4492.4,-0.0001414,69.504,-0.00015065,-0.034277,0.20809
26181,6.3375,5.2727,0.1,0.00044256,4422.6,0.00044381,4460.2,-0.00013966,76.176,-0.00014981,-0.032026,0.21464
26182,6.2457,5.5455,0.1,0.00044787,4475.6,0.00044868,4499.9,-0.00014369,49.044,-0.00015022,-0.077844,0.20692
26183,6.3375,5.4545,0.1,0.00044422,4439.1,0.00044516,4467.3,-0.00014183,56.863,-0.0001494,-0.035135,0.21352
26184,6.2457,5.7273,0.1,0.00044968,4493.7,0.00045015,4507.5,-0.00014606,27.877,-0.00014978,-0.10686,0.20566
26185,6.3375,5.6364,0.1,0.00044593,4456.2,0.00044654,4474.5,-0.00014407,36.879,-0.00014899,-0.11863,0.2123
26186,6.3375,5.8182,0.1,0.00044772,4474.1,0.00044799,4482.1,-0.00014639,16.186,-0.00014856,-0.12676,0.211
26187,6.2457,5.9091,0.1,0.00045127,4509.6,0.00045142,4513.9,-0.00014817,8.8932,-0.00014937,-0.13545,0.2043
26188,6.4293,0.27273,0.1,0.00044396,4436.5,0.00044438,4449,-0.0001444,25.167,-0.00014776,-0.09749,0.21774
26189,6.5212,0.18182,0.1,0.00044196,4416.5,0.0004422,4423.6,-0.00014464,14.333,-0.00014656,-0.11923,0.22323
26190,6.4293,0.090909,0.1,0.00044541,4451,0.00044554,4454.9,-0.00014632,7.8248,-0.00014738,-0.13019,0.21639
26191,6.4293,0.45455,0.1,0.00044228,4419.7,0.00044302,4441.9,-0.00014221,44.694,-0.00014817,-0.070816,0.219
26192,6.5212,0.36364,0.1,0.00044029,4399.9,0.00044085,4416.4,-0.00014249,33.454,-0.00014696,-0.10808,0.22454
26193,6.4293,0.63636,0.1,0.00044066,4403.6,0.00044171,4435,-0.0001401,63.532,-0.00014856,-0.031126,0.22016
26194,6.5212,0.54545,0.1,0.00043871,4384.1,0.00043957,4409.7,-0.00014043,51.858,-0.00014734,-0.031808,0.22574
26195,6.4293,0.81818,0.1,0.00043911,4388,0.00044044,4428.3,-0.00013806,81.678,-0.00014893,-0.024921,0.22123
26196,6.5212,0.72727,0.1,0.00043718,4368.8,0.00043832,4403.2,-0.00013844,69.632,-0.00014771,-0.029163,0.22686
26197,6.4293,1,0.1,0.00043762,4373.2,0.00043922,4421.8,-0.00013611,99.016,-0.00014929,-0.017217,0.22221
26198,6.5212,0.90909,0.1,0.00043571,4354.1,0.00043712,4396.8,-0.00013652,86.697,-0.00014806,-0.019221,0.22788
26199,6.4293,1.1818,0.1,0.00043621,4359.1,0.00043806,4415.7,-0.00013427,115.4,-0.00014963,-0.012286,0.2231
26200,6.5212,1.0909,0.1,0.00043432,4340.2,0.00043598,4390.7,-0.00013469,102.91,-0.00014839,-0.014192,0.22882
26201,6.4293,1.3636,0.1,0.0004349,4346,0.00043698,4409.9,-0.00013255,130.71,-0.00014994,-0.0081221,0.22391
26202,6.5212,1.2727,0.1,0.00043301,4327.1,0.0004349,4385,-0.00013298,118.15,-0.00014871,-0.0097064,0.22966
26203,6.4293,1.5455,0.1,0.0004337,4334,0.00043598,4404.5,-0.00013096,144.79,-0.00015023,-0.004749,0.22462
26204,6.5212,1.4545,0.1,0.0004318,4315,0.00043389,4379.6,-0.00013139,132.27,-0.00014899,-0.006199,0.23042
26205,6.4293,1.7273,0.1,0.0004326,4323.1,0.00043507,4399.7,-0.00012953,157.54,-0.00015049,-0.0019198,0.22525
26206,6.5212,1.6364,0.1,0.00043069,4303.9,0.00043297,4374.7,-0.00012994,145.16,-0.00014926,-0.0032467,0.23109
26207,6.4293,1.9091,0.1,0.00043164,4313.4,0.00043426,4395.3,-0.00012825,168.83,-0.00015072,0.00043731,0.22579
26208,6.5212,1.8182,0.1,0.0004297,4294,0.00043215,4370.2,-0.00012863,156.71,-0.00014949,-0.00078854,0.23167
26209,6.4293,2.0909,0.1,0.00043081,4305.1,0.00043357,4391.6,-0.00012715,178.57,-0.00015092,0.0023837,0.22624
26210,6.5212,2,0.1,0.00042883,4285.3,0.00043142,4366.3,-0.0001275,166.81,-0.0001497,0.0012574,0.23217
26211,6.4293,2.2727,0.1,0.00043011,4298.2,0.00043298,4388.5,-0.00012624,186.66,-0.00015108,0.0039503,0.22662
26212,6.5212,2.1818,0.1,0.0004281,4278,0.00043081,4363,-0.00012653,175.38,-0.00014987,0.0029291,0.23258
26213,6.4293,2.4545,0.1,0.00042957,4292.7,0.00043253,4386,-0.00012552,193.04,-0.00015121,0.0051551,0.22691
26214,6.5212,2.3636,0.1,0.0004275,4272,0.00043031,4360.3,-0.00012574,182.33,-0.00015001,0.0042489,0.23291
26215,6.4293,2.6364,0.1,0.00042918,4288.8,0.0004322,4384.2,-0.000125,197.64,-0.0001513,0.0060096,0.22711
26216,6.5212,2.5455,0.1,0.00042705,4267.5,0.00042993,4358.2,-0.00012515,187.6,-0.00015012,0.0052292,0.23316
26217,6.4293,2.8182,0.1,0.00042894,4286.4,0.000432,4383.1,-0.00012469,200.41,-0.00015136,0.0065209,0.22724
26218,6.5212,2.7273,0.1,0.00042674,4264.5,0.00042967,4356.9,-0.00012475,191.14,-0.00015019,0.0058802,0.23333
26219,6.4293,3,0.1,0.00042886,4285.6,0.00043193,4382.8,-0.00012458,201.34,-0.00015138,0.0066912,0.22728
26220,6.5212,2.9091,0.1,0.00042659,4263,0.00042955,4356.2,-0.00012455,192.92,-0.00015022,0.0062054,0.23341
26221,6.4293,3.1818,0.1,0.00042894,4286.4,0.000432,4383.1,-0.00012469,200.41,-0.00015136,0.006521,0.22724
26222,6.5212,3.0909,0.1,0.00042659,4263,0.00042955,4356.2,-0.00012455,192.92,-0.00015022,0.0062054,0.23341
26223,6.4293,3.3636,0.1,0.00042918,4288.8,0.0004322,4384.2,-0.000125,197.64,-0.0001513,0.0060098,0.22711
26224,6.5212,3.2727,0.1,0.00042674,4264.5,0.00042967,4356.9,-0.00012475,191.14,-0.00015019,0.0058805,0.23333
26225,6.4293,3.5455,0.1,0.00042957,4292.7,0.00043253,4386,-0.00012552,193.04,-0.00015121,0.0051553,0.22691
26226,6.5212,3.4545,0.1,0.00042705,4267.5,0.00042993,4358.2,-0.00012515,187.6,-0.00015012,0.0052293,0.23316
26227,6.4293,3.7273,0.1,0.00043011,4298.2,0.00043298,4388.5,-0.00012624,186.66,-0.00015108,0.0039508,0.22662
26228,6.5212,3.6364,0.1,0.0004275,4272,0.00043031,4360.3,-0.00012574,182.33,-0.00015001,0.0042493,0.23291
26229,6.4293,3.9091,0.1,0.00043081,4305.1,0.00043357,4391.6,-0.00012715,178.57,-0.00015092,0.0023843,0.22624
26230,6.5212,3.8182,0.1,0.0004281,4278,0.00043081,4363,-0.00012653,175.38,-0.00014987,0.0029295,0.23258
26231,6.4293,4.0909,0.1,0.00043164,4313.4,0.00043426,4395.3,-0.00012825,168.83,-0.00015072,0.00043787,0.22579
26232,6.5212,4,0.1,0.00042883,4285.3,0.00043142,4366.3,-0.0001275,166.81,-0.0001497,0.0012579,0.23217
26233,6.4293,4.2727,0.1,0.0004326,4323.1,0.00043507,4399.7,-0.00012953,157.54,-0.00015049,-0.0019193,0.22525
26234,6.5212,4.1818,0.1,0.0004297,4294,0.00043215,4370.2,-0.00012863,156.71,-0.00014949,-0.00078813,0.23167
26235,6.4293,4.4545,0.1,0.0004337,4334,0.00043598,4404.5,-0.00013096,144.79,-0.00015023,-0.0047484,0.22462
26236,6.5212,4.3636,0.1,0.00043069,4303.9,0.00043297,4374.7,-0.00012994,145.16,-0.00014926,-0.0032462,0.23109
26237,6.4293,4.6364,0.1,0.0004349,4346,0.00043698,4409.9,-0.00013255,130.71,-0.00014994,-0.0081214,0.22391
26238,6.5212,4.5455,0.1,0.0004318,4315,0.00043389,4379.6,-0.00013139,132.27,-0.00014899,-0.0061982,0.23042
26239,6.4293,4.8182,0.1,0.00043621,4359.1,0.00043806,4415.7,-0.00013427,115.4,-0.00014963,-0.012285,0.2231
26240,6.5212,4.7273,0.1,0.00043301,4327.1,0.0004349,4385,-0.00013298,118.15,-0.00014871,-0.0097055,0.22966
26241,6.4293,5,0.1,0.00043762,4373.2,0.00043922,4421.8,-0.00013611,99.016,-0.00014929,-0.017216,0.22221
26242,6.5212,4.9091,0.1,0.00043432,4340.2,0.00043598,4390.7,-0.00013469,102.91,-0.00014839,-0.014192,0.22882
26243,6.4293,5.1818,0.1,0.00043911,4388,0.00044044,4428.3,-0.00013806,81.678,-0.00014893,-0.02492,0.22123
26244,6.5212,5.0909,0.1,0.00043571,4354.1,0.00043712,4396.8,-0.00013652,86.697,-0.00014806,-0.019219,0.22788
26245,6.4293,5.3636,0.1,0.00044066,4403.6,0.00044171,4435,-0.0001401,63.532,-0.00014856,-0.031126,0.22016
26246,6.5212,5.2727,0.1,0.00043718,4368.8,0.00043832,4403.2,-0.00013844,69.632,-0.00014771,-0.029162,0.22686
26247,6.4293,5.5455,0.1,0.00044228,4419.7,0.00044302,4441.9,-0.00014221,44.694,-0.00014817,-0.070815,0.219
26248,6.5212,5.4545,0.1,0.00043871,4384,0.00043957,4409.7,-0.00014043,51.858,-0.00014734,-0.031808,0.22574
26249,6.4293,5.7273,0.1,0.00044396,4436.5,0.00044438,4449,-0.0001444,25.167,-0.00014776,-0.097489,0.21774
26250,6.5212,5.6364,0.1,0.00044029,4399.9,0.00044085,4416.4,-0.00014249,33.454,-0.00014696,-0.10808,0.22454
26251,6.5212,5.8182,0.1,0.00044196,4416.5,0.0004422,4423.6,-0.00014464,14.333,-0.00014656,-0.11923,0.22323
26252,6.4293,5.9091,0.1,0.00044541,4451,0.00044554,4454.9,-0.00014632,7.8248,-0.00014738,-0.13018,0.21639
26253,6.613,0.27273,0.1,0.00043828,4379.8,0.00043866,4391,-0.00014274,22.604,-0.00014576,-0.0891,0.23013
26254,6.7049,0.18182,0.1,0.00043623,4359.3,0.00043644,4365.5,-0.0001429,12.565,-0.00014459,-0.11345,0.23577
26255,6.613,0.090909,0.1,0.0004396,4392.9,0.00043971,4396.3,-0.00014449,6.8001,-0.00014541,-0.12622,0.22878
26256,6.613,0.45455,0.1,0.00043672,4364.2,0.00043739,4384.3,-0.00014072,40.617,-0.00014613,-0.064373,0.23138
26257,6.7049,0.36364,0.1,0.00043468,4343.8,0.00043519,4358.8,-0.00014091,30.235,-0.00014495,-0.098393,0.23707
26258,6.613,0.63636,0.1,0.00043522,4349.2,0.00043618,4377.9,-0.00013877,57.957,-0.00014649,-0.028251,0.23254
26259,6.7049,0.54545,0.1,0.00043322,4329.2,0.000434,4352.6,-0.00013901,47.179,-0.0001453,-0.028773,0.23827
26260,6.613,0.81818,0.1,0.00043378,4334.8,0.00043501,4371.7,-0.00013689,74.649,-0.00014683,-0.02273,0.2336
26261,6.7049,0.72727,0.1,0.00043181,4315.1,0.00043285,4346.5,-0.00013717,63.531,-0.00014563,-0.026543,0.23938
26262,6.613,1,0.1,0.00043241,4321.1,0.00043388,4365.7,-0.0001351,90.59,-0.00014716,-0.015788,0.23458
26263,6.7049,0.90909,0.1,0.00043045,4301.5,0.00043174,4340.6,-0.00013541,79.222,-0.00014596,-0.017574,0.2404
26264,6.613,1.1818,0.1,0.00043111,4308.1,0.00043281,4360,-0.00013341,105.65,-0.00014747,-0.011355,0.23547
26265,6.7049,1.0909,0.1,0.00042916,4288.7,0.00043069,4334.9,-0.00013373,94.125,-0.00014626,-0.013066,0.24133
26266,6.613,1.3636,0.1,0.0004299,4296,0.00043181,4354.6,-0.00013182,119.71,-0.00014776,-0.0076055,0.23627
26267,6.7049,1.2727,0.1,0.00042795,4276.6,0.00042969,4329.6,-0.00013216,108.12,-0.00014655,-0.0090314,0.24217
26268,6.613,1.5455,0.1,0.00042879,4284.9,0.00043089,4349.7,-0.00013037,132.64,-0.00014802,-0.0045653,0.23698
26269,6.7049,1.4545,0.1,0.00042683,4265.4,0.00042876,4324.6,-0.00013069,121.09,-0.00014681,-0.0058758,0.24292
26270,6.613,1.7273,0.1,0.00042778,4274.9,0.00043005,4345.2,-0.00012905,144.33,-0.00014826,-0.0020126,0.23761
26271,6.7049,1.6364,0.1,0.00042581,4255.2,0.00042792,4320.1,-0.00012936,132.92,-0.00014705,-0.003216,0.24359
26272,6.613,1.9091,0.1,0.00042689,4265.9,0.00042931,4341.2,-0.00012788,154.69,-0.00014847,0.00011582,0.23815
26273,6.7049,1.8182,0.1,0.0004249,4246,0.00042716,4316,-0.00012816,143.52,-0.00014726,-0.00099937,0.24417
26274,6.613,2.0909,0.1,0.00042612,4258.3,0.00042867,4337.7,-0.00012687,163.62,-0.00014865,0.0018746,0.2386
26275,6.7049,2,0.1,0.0004241,4238,0.00042649,4312.4,-0.00012712,152.78,-0.00014745,0.00084694,0.24467
26276,6.613,2.2727,0.1,0.00042548,4251.9,0.00042813,4334.8,-0.00012603,171.04,-0.0001488,0.0032911,0.23897
26277,6.7049,2.1818,0.1,0.00042342,4231.3,0.00042592,4309.3,-0.00012623,160.63,-0.00014761,0.0023566,0.24509
26278,6.613,2.4545,0.1,0.00042498,4246.9,0.00042771,4332.6,-0.00012537,176.89,-0.00014891,0.0043807,0.23926
26279,6.7049,2.3636,0.1,0.00042287,4225.8,0.00042546,4306.8,-0.00012551,167.01,-0.00014774,0.0035492,0.24542
26280,6.613,2.6364,0.1,0.00042462,4243.2,0.00042741,4330.9,-0.0001249,181.1,-0.000149,0.0051539,0.23947
26281,6.7049,2.5455,0.1,0.00042245,4221.6,0.00042511,4304.9,-0.00012497,171.84,-0.00014783,0.0044352,0.24566
26282,6.613,2.8182,0.1,0.0004244,4241.1,0.00042722,4329.9,-0.00012461,183.65,-0.00014905,0.0056168,0.23959
26283,6.7049,2.7273,0.1,0.00042217,4218.8,0.00042488,4303.6,-0.0001246,175.08,-0.0001479,0.005024,0.24583
26284,6.613,3,0.1,0.00042433,4240.3,0.00042716,4329.6,-0.00012451,184.5,-0.00014907,0.005771,0.23963
26285,6.7049,2.9091,0.1,0.00042203,4217.4,0.00042476,4303,-0.00012441,176.71,-0.00014793,0.005318,0.24591
26286,6.613,3.1818,0.1,0.0004244,4241.1,0.00042722,4329.9,-0.00012461,183.65,-0.00014905,0.0056169,0.23959
26287,6.7049,3.0909,0.1,0.00042203,4217.4,0.00042476,4303,-0.00012441,176.71,-0.00014793,0.005318,0.24591
26288,6.613,3.3636,0.1,0.00042462,4243.2,0.00042741,4330.9,-0.0001249,181.1,-0.000149,0.0051541,0.23947
26289,6.7049,3.2727,0.1,0.00042217,4218.8,0.00042488,4303.6,-0.0001246,175.08,-0.0001479,0.0050241,0.24583
26290,6.613,3.5455,0.1,0.00042498,4246.9,0.00042771,4332.5,-0.00012537,176.89,-0.00014891,0.004381,0.23926
26291,6.7049,3.4545,0.1,0.00042245,4221.6,0.00042511,4304.9,-0.00012497,171.84,-0.00014783,0.0044354,0.24566
26292,6.613,3.7273,0.1,0.00042548,4251.9,0.00042813,4334.8,-0.00012603,171.04,-0.0001488,0.0032914,0.23897
26293,6.7049,3.6364,0.1,0.00042287,4225.8,0.00042546,4306.8,-0.00012551,167.01,-0.00014774,0.0035494,0.24542
26294,6.613,3.9091,0.1,0.00042612,4258.3,0.00042867,4337.7,-0.00012687,163.62,-0.00014865,0.001875,0.2386
26295,6.7049,3.8182,0.1,0.00042342,4231.3,0.00042592,4309.3,-0.00012623,160.63,-0.00014761,0.002357,0.24509
26296,6.613,4.0909,0.1,0.00042689,4265.9,0.00042931,4341.2,-0.00012788,154.69,-0.00014847,0.00011617,0.23815
26297,6.7049,4,0.1,0.0004241,4238,0.00042649,4312.4,-0.00012712,152.78,-0.00014745,0.00084732,0.24467
26298,6.613,4.2727,0.1,0.00042778,4274.9,0.00043005,4345.2,-0.00012905,144.33,-0.00014826,-0.0020122,0.23761
26299,6.7049,4.1818,0.1,0.0004249,4246,0.00042716,4316,-0.00012816,143.52,-0.00014726,-0.00099905,0.24417
26300,6.613,4.4545,0.1,0.00042879,4284.9,0.00043089,4349.7,-0.00013037,132.64,-0.00014802,-0.0045646,0.23698
26301,6.7049,4.3636,0.1,0.00042581,4255.2,0.00042792,4320.1,-0.00012936,132.92,-0.00014705,-0.0032154,0.24359
26302,6.613,4.6364,0.1,0.0004299,4296,0.00043181,4354.6,-0.00013182,119.71,-0.00014776,-0.0076047,0.23627
26303,6.7049,4.5455,0.1,0.00042683,4265.4,0.00042876,4324.6,-0.00013069,121.09,-0.00014681,-0.005875,0.24292
26304,6.613,4.8182,0.1,0.00043111,4308.1,0.00043281,4360,-0.00013341,105.65,-0.00014747,-0.011355,0.23547
26305,6.7049,4.7273,0.1,0.00042795,4276.6,0.00042969,4329.6,-0.00013216,108.12,-0.00014655,-0.0090306,0.24217
26306,6.613,5,0.1,0.00043241,4321.1,0.00043388,4365.7,-0.0001351,90.59,-0.00014716,-0.015787,0.23458
26307,6.7049,4.9091,0.1,0.00042916,4288.7,0.00043069,4334.9,-0.00013373,94.125,-0.00014626,-0.013066,0.24133
26308,6.613,5.1818,0.1,0.00043378,4334.8,0.00043501,4371.7,-0.00013689,74.649,-0.00014683,-0.022729,0.2336
26309,6.7049,5.0909,0.1,0.00043045,4301.5,0.00043174,4340.6,-0.00013541,79.222,-0.00014596,-0.017572,0.2404
26310,6.613,5.3636,0.1,0.00043522,4349.2,0.00043618,4377.9,-0.00013877,57.957,-0.00014649,-0.02825,0.23254
26311,6.7049,5.2727,0.1,0.00043181,4315.1,0.00043285,4346.5,-0.00013717,63.531,-0.00014563,-0.026542,0.23938
26312,6.613,5.5455,0.1,0.00043672,4364.2,0.00043739,4384.3,-0.00014072,40.617,-0.00014613,-0.064372,0.23138
26313,6.7049,5.4545,0.1,0.00043322,4329.2,0.000434,4352.6,-0.00013901,47.179,-0.0001453,-0.028773,0.23827
26314,6.613,5.7273,0.1,0.00043828,4379.8,0.00043866,4391,-0.00014274,22.604,-0.00014576,-0.089098,0.23013
26315,6.7049,5.6364,0.1,0.00043468,4343.8,0.00043519,4358.8,-0.00014091,30.235,-0.00014495,-0.098391,0.23707
26316,6.7049,5.8182,0.1,0.00043623,4359.3,0.00043644,4365.5,-0.0001429,12.565,-0.00014459,-0.11345,0.23577
26317,6.613,5.9091,0.1,0.0004396,4392.9,0.00043971,4396.3,-0.00014449,6.8001,-0.00014541,-0.12622,0.22878
26318,6.7967,0.27273,0.1,0.00043263,4323.3,0.00043297,4333.4,-0.00014108,20.184,-0.00014377,-0.081596,0.24281
26319,6.8886,0.18182,0.1,0.00043055,4302.5,0.00043073,4307.9,-0.00014117,10.881,-0.00014263,-0.10942,0.2486
26320,6.7967,0.090909,0.1,0.00043382,4335.2,0.00043392,4338.1,-0.00014267,5.8202,-0.00014346,-0.12377,0.24147
26321,6.7967,0.45455,0.1,0.00043118,4308.9,0.0004318,4327.1,-0.00013921,36.798,-0.00014411,-0.058457,0.24405
26322,6.8886,0.36364,0.1,0.00042911,4288.1,0.00042956,4301.6,-0.00013932,27.213,-0.00014296,-0.089491,0.24989
26323,6.7967,0.63636,0.1,0.0004298,4295,0.00043067,4321.2,-0.00013742,52.753,-0.00014444,-0.025621,0.2452
26324,6.8886,0.54545,0.1,0.00042775,4274.6,0.00042846,4295.8,-0.00013757,42.806,-0.00014328,-0.026,0.25108
26325,6.7967,0.81818,0.1,0.00042847,4281.7,0.00042959,4315.4,-0.00013569,68.104,-0.00014476,-0.020727,0.24627
26326,6.8886,0.72727,0.1,0.00042644,4261.5,0.0004274,4290.1,-0.00013588,57.844,-0.00014358,-0.024141,0.25219
26327,6.7967,1,0.1,0.0004272,4269.1,0.00042855,4309.8,-0.00013404,82.756,-0.00014506,-0.014486,0.24724
26328,6.8886,0.90909,0.1,0.00042519,4249,0.00042637,4284.7,-0.00013426,72.268,-0.00014388,-0.016069,0.2532
26329,6.7967,1.1818,0.1,0.000426,4257.1,0.00042756,4304.6,-0.00013248,96.592,-0.00014534,-0.010512,0.24812
26330,6.8886,1.0909,0.1,0.000424,4237.1,0.0004254,4279.4,-0.00013272,85.96,-0.00014416,-0.012041,0.25413
26331,6.7967,1.3636,0.1,0.00042488,4245.9,0.00042664,4299.6,-0.00013103,109.5,-0.0001456,-0.007143,0.24892
26332,6.8886,1.2727,0.1,0.00042289,4225.9,0.00042448,4274.5,-0.00013127,98.812,-0.00014442,-0.0084209,0.25497
26333,6.7967,1.5455,0.1,0.00042386,4235.6,0.00042579,4295,-0.00012969,121.37,-0.00014584,-0.0044092,0.24963
26334,6.8886,1.4545,0.1,0.00042185,4215.6,0.00042363,4269.9,-0.00012992,110.72,-0.00014466,-0.0055889,0.25572
26335,6.7967,1.7273,0.1,0.00042293,4226.4,0.00042502,4290.9,-0.00012848,132.1,-0.00014606,-0.002111,0.25025
26336,6.8886,1.6364,0.1,0.00042091,4206.2,0.00042285,4265.7,-0.0001287,121.57,-0.00014488,-0.0031983,0.25639
26337,6.7967,1.9091,0.1,0.00042211,4218.1,0.00042434,4287.2,-0.0001274,141.6,-0.00014625,-0.00019305,0.25079
26338,6.8886,1.8182,0.1,0.00042007,4197.8,0.00042215,4261.9,-0.0001276,131.29,-0.00014507,-0.0012041,0.25697
26339,6.7967,2.0909,0.1,0.0004214,4211.1,0.00042374,4284,-0.00012648,149.79,-0.00014641,0.001393,0.25125
26340,6.8886,2,0.1,0.00041933,4190.4,0.00042153,4258.5,-0.00012664,139.79,-0.00014525,0.00045854,0.25746
26341,6.7967,2.2727,0.1,0.00042081,4205.2,0.00042325,4281.3,-0.00012571,156.6,-0.00014655,0.0026713,0.25162
26342,6.8886,2.1818,0.1,0.0004187,4184.2,0.00042101,4255.7,-0.00012583,146.99,-0.00014539,0.0018192,0.25788
26343,6.7967,2.4545,0.1,0.00042034,4200.5,0.00042287,4279.2,-0.0001251,161.95,-0.00014666,0.0036552,0.25191
26344,6.8886,2.3636,0.1,0.0004182,4179.1,0.00042059,4253.4,-0.00012517,152.83,-0.00014551,0.0028946,0.25821
26345,6.7967,2.6364,0.1,0.00042001,4197.2,0.00042259,4277.7,-0.00012467,165.81,-0.00014674,0.0043536,0.25211
26346,6.8886,2.5455,0.1,0.00041781,4175.3,0.00042027,4251.7,-0.00012467,157.26,-0.00014559,0.0036938,0.25845
26347,6.7967,2.8182,0.1,0.00041981,4195.2,0.00042242,4276.7,-0.0001244,168.14,-0.00014678,0.0047717,0.25224
26348,6.8886,2.7273,0.1,0.00041756,4172.7,0.00042005,4250.5,-0.00012433,160.23,-0.00014565,0.0042252,0.25862
26349,6.7967,3,0.1,0.00041974,4194.5,0.00042236,4276.4,-0.00012432,168.92,-0.0001468,0.0049109,0.25228
26350,6.8886,2.9091,0.1,0.00041743,4171.4,0.00041994,4249.9,-0.00012416,161.72,-0.00014568,0.0044907,0.2587
26351,6.7967,3.1818,0.1,0.00041981,4195.2,0.00042242,4276.7,-0.0001244,168.14,-0.00014678,0.0047717,0.25224
26352,6.8886,3.0909,0.1,0.00041743,4171.4,0.00041994,4249.9,-0.00012416,161.72,-0.00014568,0.0044908,0.2587
26353,6.7967,3.3636,0.1,0.00042001,4197.2,0.00042259,4277.7,-0.00012467,165.81,-0.00014674,0.0043536,0.25211
26354,6.8886,3.2727,0.1,0.00041756,4172.7,0.00042005,4250.5,-0.00012433,160.23,-0.00014565,0.0042253,0.25862
26355,6.7967,3.5455,0.1,0.00042034,4200.5,0.00042287,4279.2,-0.0001251,161.95,-0.00014666,0.0036553,0.25191
26356,6.8886,3.4545,0.1,0.00041781,4175.3,0.00042027,4251.7,-0.00012467,157.26,-0.00014559,0.0036941,0.25845
26357,6.7967,3.7273,0.1,0.00042081,4205.2,0.00042325,4281.3,-0.00012571,156.6,-0.00014655,0.0026716,0.25162
26358,6.8886,3.6364,0.1,0.0004182,4179.1,0.00042059,4253.4,-0.00012517,152.83,-0.00014551,0.0028947,0.25821
26359,6.7967,3.9091,0.1,0.0004214,4211.1,0.00042374,4284,-0.00012648,149.79,-0.00014641,0.0013934,0.25125
26360,6.8886,3.8182,0.1,0.0004187,4184.2,0.00042101,4255.7,-0.00012583,146.99,-0.00014539,0.0018195,0.25788
26361,6.7967,4.0909,0.1,0.00042211,4218.1,0.00042434,4287.2,-0.0001274,141.6,-0.00014625,-0.0001927,0.25079
26362,6.8886,4,0.1,0.00041933,4190.4,0.00042153,4258.5,-0.00012664,139.79,-0.00014525,0.00045898,0.25746
26363,6.7967,4.2727,0.1,0.00042293,4226.4,0.00042502,4290.9,-0.00012848,132.1,-0.00014606,-0.0021104,0.25025
26364,6.8886,4.1818,0.1,0.00042007,4197.8,0.00042215,4261.9,-0.0001276,131.29,-0.00014507,-0.0012036,0.25697
26365,6.7967,4.4545,0.1,0.00042386,4235.6,0.00042579,4295,-0.00012969,121.37,-0.00014584,-0.0044083,0.24963
26366,6.8886,4.3636,0.1,0.00042091,4206.2,0.00042285,4265.7,-0.0001287,121.57,-0.00014488,-0.0031977,0.25639
26367,6.7967,4.6364,0.1,0.00042488,4245.9,0.00042664,4299.6,-0.00013103,109.5,-0.0001456,-0.0071421,0.24892
26368,6.8886,4.5455,0.1,0.00042185,4215.6,0.00042363,4269.9,-0.00012992,110.72,-0.00014466,-0.005588,0.25572
26369,6.7967,4.8182,0.1,0.000426,4257.1,0.00042756,4304.6,-0.00013248,96.592,-0.00014534,-0.010511,0.24812
26370,6.8886,4.7273,0.1,0.00042289,4225.9,0.00042448,4274.5,-0.00013127,98.812,-0.00014442,-0.0084201,0.25497
26371,6.7967,5,0.1,0.0004272,4269.1,0.00042855,4309.8,-0.00013404,82.756,-0.00014506,-0.014485,0.24724
26372,6.8886,4.9091,0.1,0.000424,4237.1,0.0004254,4279.4,-0.00013272,85.96,-0.00014416,-0.01204,0.25413
26373,6.7967,5.1818,0.1,0.00042847,4281.7,0.00042959,4315.4,-0.00013569,68.104,-0.00014476,-0.020726,0.24627
26374,6.8886,5.0909,0.1,0.00042519,4249,0.00042637,4284.6,-0.00013426,72.268,-0.00014388,-0.016067,0.2532
26375,6.7967,5.3636,0.1,0.0004298,4295,0.00043067,4321.2,-0.00013742,52.753,-0.00014444,-0.02562,0.2452
26376,6.8886,5.2727,0.1,0.00042644,4261.5,0.0004274,4290.1,-0.00013588,57.844,-0.00014358,-0.024141,0.25219
26377,6.7967,5.5455,0.1,0.00043118,4308.9,0.0004318,4327.1,-0.00013921,36.798,-0.00014411,-0.058457,0.24405
26378,6.8886,5.4545,0.1,0.00042775,4274.6,0.00042846,4295.8,-0.00013757,42.806,-0.00014328,-0.025999,0.25108
26379,6.7967,5.7273,0.1,0.00043263,4323.3,0.00043297,4333.4,-0.00014108,20.184,-0.00014377,-0.081595,0.24281
26380,6.8886,5.6364,0.1,0.00042911,4288.1,0.00042956,4301.6,-0.00013932,27.213,-0.00014296,-0.08949,0.24989
26381,6.8886,5.8182,0.1,0.00043055,4302.5,0.00043073,4307.9,-0.00014117,10.881,-0.00014263,-0.10942,0.2486
26382,6.7967,5.9091,0.1,0.00043382,4335.2,0.00043392,4338.1,-0.00014267,5.8202,-0.00014346,-0.12376,0.24147
26383,6.9804,0.27273,0.1,0.00042702,4267.2,0.00042732,4276.1,-0.00013942,17.901,-0.00014181,-0.074899,0.25578
26384,7.0723,0.18182,0.1,0.00042491,4246.1,0.00042506,4250.7,-0.00013944,9.2816,-0.00014069,-0.1073,0.26172
26385,6.9804,0.090909,0.1,0.00042809,4278,0.00042817,4280.4,-0.00014086,4.8862,-0.00014152,-0.12321,0.25445
26386,6.9804,0.45455,0.1,0.00042567,4253.8,0.00042623,4270.3,-0.00013769,33.223,-0.00014212,-0.053019,0.25702
26387,7.0723,0.36364,0.1,0.00042356,4232.6,0.00042397,4244.7,-0.00013773,24.377,-0.00014099,-0.081308,0.263
26388,6.9804,0.63636,0.1,0.00042439,4241,0.00042519,4264.7,-0.00013604,47.899,-0.00014242,-0.023211,0.25816
26389,7.0723,0.54545,0.1,0.0004223,4220.1,0.00042295,4239.3,-0.00013612,38.721,-0.00014128,-0.023464,0.26419
26390,6.9804,0.81818,0.1,0.00042317,4228.7,0.00042419,4259.4,-0.00013445,62.009,-0.00014271,-0.018891,0.25922
26391,7.0723,0.72727,0.1,0.0004211,4208.1,0.00042197,4234.1,-0.00013456,52.544,-0.00014156,-0.021942,0.26529
26392,6.9804,1,0.1,0.00042199,4217,0.00042323,4254.2,-0.00013293,75.473,-0.00014298,-0.013296,0.26019
26393,7.0723,0.90909,0.1,0.00041994,4196.5,0.00042102,4229,-0.00013307,65.798,-0.00014183,-0.014695,0.2663
26394,6.9804,1.1818,0.1,0.00042089,4206,0.00042232,4249.3,-0.0001315,88.18,-0.00014324,-0.0097438,0.26107
26395,7.0723,1.0909,0.1,0.00041884,4185.5,0.00042012,4224.1,-0.00013165,78.374,-0.00014208,-0.011108,0.26722
26396,6.9804,1.3636,0.1,0.00041985,4195.6,0.00042147,4244.8,-0.00013016,100.03,-0.00014348,-0.0067253,0.26186
26397,7.0723,1.2727,0.1,0.00041781,4175.2,0.00041927,4219.6,-0.00013032,90.172,-0.00014232,-0.007871,0.26805
26398,6.9804,1.5455,0.1,0.00041891,4186.2,0.00042068,4240.5,-0.00012893,110.92,-0.0001437,-0.0042734,0.26257
26399,7.0723,1.4545,0.1,0.00041686,4165.7,0.00041848,4215.3,-0.00012908,101.1,-0.00014254,-0.0053368,0.2688
26400,6.9804,1.7273,0.1,0.00041805,4177.6,0.00041997,4236.7,-0.00012782,120.77,-0.0001439,-0.0022097,0.26319
26401,7.0723,1.6364,0.1,0.00041599,4157,0.00041776,4211.4,-0.00012796,111.06,-0.00014274,-0.0031939,0.26947
26402,6.9804,1.9091,0.1,0.00041729,4170,0.00041934,4233.3,-0.00012684,129.48,-0.00014407,-0.00048564,0.26373
26403,7.0723,1.8182,0.1,0.00041521,4149.2,0.00041712,4207.9,-0.00012695,119.97,-0.00014292,-0.0014046,0.27004
26404,6.9804,2.0909,0.1,0.00041664,4163.5,0.0004188,4230.3,-0.00012599,136.99,-0.00014422,0.00094173,0.26418
26405,7.0723,2,0.1,0.00041453,4142.4,0.00041655,4204.8,-0.00012607,127.76,-0.00014307,8.8884e-05,0.27054
26406,6.9804,2.2727,0.1,0.00041609,4158.1,0.00041835,4227.8,-0.00012528,143.23,-0.00014434,0.0020929,0.26455
26407,7.0723,2.1818,0.1,0.00041395,4136.7,0.00041607,4202.2,-0.00012532,134.36,-0.00014321,0.0013125,0.27095
26408,6.9804,2.4545,0.1,0.00041567,4153.8,0.00041799,4225.9,-0.00012473,148.13,-0.00014444,0.0029792,0.26484
26409,7.0723,2.3636,0.1,0.00041349,4132,0.00041569,4200.1,-0.00012472,139.71,-0.00014331,0.0022802,0.27128
26410,6.9804,2.6364,0.1,0.00041536,4150.7,0.00041773,4224.5,-0.00012433,151.67,-0.00014451,0.0036085,0.26505
26411,7.0723,2.5455,0.1,0.00041313,4128.5,0.00041539,4198.5,-0.00012426,143.77,-0.00014339,0.0029996,0.27152
26412,6.9804,2.8182,0.1,0.00041517,4148.9,0.00041758,4223.6,-0.00012408,153.81,-0.00014456,0.0039856,0.26517
26413,7.0723,2.7273,0.1,0.00041289,4126.1,0.00041519,4197.4,-0.00012395,146.49,-0.00014345,0.0034781,0.27169
26414,6.9804,3,0.1,0.00041511,4148.3,0.00041752,4223.4,-0.000124,154.52,-0.00014457,0.0041114,0.26521
26415,7.0723,2.9091,0.1,0.00041278,4124.9,0.00041509,4196.8,-0.0001238,147.86,-0.00014347,0.0037174,0.27177
26416,6.9804,3.1818,0.1,0.00041517,4148.9,0.00041758,4223.6,-0.00012408,153.81,-0.00014456,0.0039857,0.26517
26417,7.0723,3.0909,0.1,0.00041278,4124.9,0.00041509,4196.8,-0.0001238,147.86,-0.00014347,0.0037175,0.27177
26418,6.9804,3.3636,0.1,0.00041536,4150.7,0.00041773,4224.5,-0.00012433,151.67,-0.00014451,0.0036087,0.26505
26419,7.0723,3.2727,0.1,0.00041289,4126.1,0.00041519,4197.4,-0.00012395,146.49,-0.00014345,0.0034783,0.27169
26420,6.9804,3.5455,0.1,0.00041567,4153.8,0.00041799,4225.9,-0.00012473,148.13,-0.00014444,0.0029794,0.26484
26421,7.0723,3.4545,0.1,0.00041313,4128.5,0.00041539,4198.5,-0.00012426,143.77,-0.00014339,0.0029998,0.27152
26422,6.9804,3.7273,0.1,0.00041609,4158.1,0.00041835,4227.8,-0.00012528,143.23,-0.00014434,0.0020931,0.26455
26423,7.0723,3.6364,0.1,0.00041349,4132,0.00041569,4200.1,-0.00012472,139.71,-0.00014331,0.0022804,0.27128
26424,6.9804,3.9091,0.1,0.00041664,4163.5,0.0004188,4230.3,-0.00012599,136.99,-0.00014422,0.00094214,0.26418
26425,7.0723,3.8182,0.1,0.00041395,4136.7,0.00041607,4202.2,-0.00012532,134.36,-0.00014321,0.0013128,0.27095
26426,6.9804,4.0909,0.1,0.00041729,4170,0.00041934,4233.3,-0.00012684,129.48,-0.00014407,-0.00048502,0.26373
26427,7.0723,4,0.1,0.00041453,4142.4,0.00041655,4204.8,-0.00012607,127.76,-0.00014307,8.9533e-05,0.27054
26428,6.9804,4.2727,0.1,0.00041805,4177.6,0.00041997,4236.7,-0.00012782,120.77,-0.0001439,-0.0022092,0.26319
26429,7.0723,4.1818,0.1,0.00041521,4149.2,0.00041712,4207.9,-0.00012695,119.97,-0.00014292,-0.0014041,0.27004
26430,6.9804,4.4545,0.1,0.00041891,4186.2,0.00042068,4240.5,-0.00012893,110.92,-0.0001437,-0.0042728,0.26257
26431,7.0723,4.3636,0.1,0.00041599,4157,0.00041776,4211.4,-0.00012796,111.06,-0.00014274,-0.0031935,0.26947
26432,6.9804,4.6364,0.1,0.00041985,4195.6,0.00042147,4244.8,-0.00013016,100.03,-0.00014348,-0.0067245,0.26186
26433,7.0723,4.5455,0.1,0.00041686,4165.7,0.00041848,4215.3,-0.00012908,101.1,-0.00014254,-0.0053361,0.2688
26434,6.9804,4.8182,0.1,0.00042089,4206,0.00042232,4249.3,-0.0001315,88.18,-0.00014324,-0.0097431,0.26107
26435,7.0723,4.7273,0.1,0.00041781,4175.2,0.00041927,4219.6,-0.00013032,90.172,-0.00014232,-0.0078702,0.26805
26436,6.9804,5,0.1,0.00042199,4217,0.00042323,4254.2,-0.00013293,75.473,-0.00014298,-0.013294,0.26019
26437,7.0723,4.9091,0.1,0.00041884,4185.5,0.00042012,4224.1,-0.00013165,78.374,-0.00014208,-0.011108,0.26722
26438,6.9804,5.1818,0.1,0.00042317,4228.7,0.00042419,4259.4,-0.00013445,62.009,-0.00014271,-0.018889,0.25922
26439,7.0723,5.0909,0.1,0.00041994,4196.5,0.00042102,4229,-0.00013307,65.798,-0.00014183,-0.014694,0.2663
26440,6.9804,5.3636,0.1,0.00042439,4241,0.00042519,4264.7,-0.00013604,47.899,-0.00014242,-0.023211,0.25816
26441,7.0723,5.2727,0.1,0.0004211,4208.1,0.00042197,4234.1,-0.00013456,52.544,-0.00014156,-0.021941,0.26529
26442,6.9804,5.5455,0.1,0.00042567,4253.8,0.00042623,4270.3,-0.00013769,33.223,-0.00014212,-0.053018,0.25702
26443,7.0723,5.4545,0.1,0.0004223,4220.1,0.00042295,4239.3,-0.00013612,38.721,-0.00014128,-0.023464,0.26419
26444,6.9804,5.7273,0.1,0.00042702,4267.2,0.00042732,4276.1,-0.00013942,17.901,-0.00014181,-0.074897,0.25578
26445,7.0723,5.6364,0.1,0.00042356,4232.6,0.00042397,4244.7,-0.00013773,24.377,-0.00014099,-0.081306,0.263
26446,7.0723,5.8182,0.1,0.00042491,4246.1,0.00042506,4250.7,-0.00013944,9.2816,-0.00014069,-0.10729,0.26172
26447,6.9804,5.9091,0.1,0.00042809,4278,0.00042817,4280.4,-0.00014086,4.8862,-0.00014152,-0.12321,0.25445
26448,7.1641,0.27273,0.1,0.00042144,4211.5,0.0004217,4219.3,-0.00013775,15.75,-0.00013986,-0.068953,0.26904
26449,7.256,0.18182,0.1,0.0004193,4190.1,0.00041943,4193.9,-0.00013771,7.7651,-0.00013876,-0.10743,0.27513
26450,7.1641,0.090909,0.1,0.0004224,4221.1,0.00042247,4223,-0.00013905,3.9987,-0.0001396,-0.12527,0.26772
26451,7.1641,0.45455,0.1,0.00042019,4199,0.00042069,4213.8,-0.00013616,29.879,-0.00014014,-0.048024,0.27027
26452,7.256,0.36364,0.1,0.00041804,4177.5,0.0004184,4188.3,-0.00013613,21.717,-0.00013903,-0.073782,0.2764
26453,7.1641,0.63636,0.1,0.000419,4187.2,0.00041973,4208.7,-0.00013464,43.37,-0.00014042,-0.02101,0.27141
26454,7.256,0.54545,0.1,0.00041688,4165.9,0.00041746,4183.2,-0.00013465,34.905,-0.0001393,-0.021147,0.27758
26455,7.1641,0.81818,0.1,0.00041787,4175.8,0.0004188,4203.7,-0.00013318,56.336,-0.00014068,-0.017216,0.27246
26456,7.256,0.72727,0.1,0.00041576,4154.7,0.00041655,4178.3,-0.00013322,47.606,-0.00013955,-0.01993,0.27867
26457,7.1641,1,0.1,0.00041679,4165,0.00041791,4198.9,-0.00013178,68.701,-0.00014093,-0.012216,0.27342
26458,7.256,0.90909,0.1,0.00041469,4144.1,0.00041568,4173.6,-0.00013184,59.778,-0.0001398,-0.013445,0.27968
26459,7.1641,1.1818,0.1,0.00041576,4154.8,0.00041707,4194.4,-0.00013047,80.367,-0.00014116,-0.0090528,0.2743
26460,7.256,1.0909,0.1,0.00041368,4133.9,0.00041484,4169.1,-0.00013054,71.323,-0.00014003,-0.010264,0.28059
26461,7.1641,1.3636,0.1,0.00041481,4145.3,0.00041629,4190.1,-0.00012924,91.241,-0.00014138,-0.006357,0.27509
26462,7.256,1.2727,0.1,0.00041273,4124.4,0.00041406,4164.9,-0.00012931,82.151,-0.00014025,-0.007379,0.28142
26463,7.1641,1.5455,0.1,0.00041394,4136.5,0.00041557,4186.2,-0.00012811,101.23,-0.00014158,-0.0041646,0.27579
26464,7.256,1.4545,0.1,0.00041185,4115.6,0.00041334,4160.9,-0.00012818,92.173,-0.00014045,-0.0051189,0.28217
26465,7.1641,1.7273,0.1,0.00041315,4128.6,0.00041491,4182.6,-0.00012709,110.26,-0.00014176,-0.0023164,0.27641
26466,7.256,1.6364,0.1,0.00041104,4107.6,0.00041267,4157.3,-0.00012715,101.31,-0.00014063,-0.0032043,0.28283
26467,7.1641,1.9091,0.1,0.00041245,4121.6,0.00041433,4179.5,-0.00012618,118.25,-0.00014192,-0.00077075,0.27695
26468,7.256,1.8182,0.1,0.00041033,4100.4,0.00041208,4154.1,-0.00012622,109.48,-0.00014079,-0.0016032,0.2834
26469,7.1641,2.0909,0.1,0.00041184,4115.6,0.00041383,4176.7,-0.00012541,125.14,-0.00014206,0.00051026,0.2774
26470,7.256,2,0.1,0.0004097,4094.2,0.00041156,4151.2,-0.00012542,116.62,-0.00014094,-0.00026529,0.2839
26471,7.1641,2.2727,0.1,0.00041134,4110.6,0.00041341,4174.5,-0.00012476,130.85,-0.00014217,0.0015445,0.27777
26472,7.256,2.1818,0.1,0.00040917,4088.9,0.00041112,4148.8,-0.00012473,122.67,-0.00014106,0.00083209,0.2843
26473,7.1641,2.4545,0.1,0.00041095,4106.7,0.00041309,4172.7,-0.00012425,135.35,-0.00014226,0.0023414,0.27805
26474,7.256,2.3636,0.1,0.00040874,4084.6,0.00041076,4146.9,-0.00012418,127.57,-0.00014115,0.0017008,0.28463
26475,7.1641,2.6364,0.1,0.00041067,4103.8,0.00041285,4171.4,-0.00012388,138.59,-0.00014233,0.0029074,0.27826
26476,7.256,2.5455,0.1,0.00040841,4081.3,0.00041049,4145.4,-0.00012375,131.29,-0.00014123,0.0023468,0.28488
26477,7.1641,2.8182,0.1,0.0004105,4102.1,0.00041271,4170.6,-0.00012366,140.55,-0.00014237,0.0032466,0.27838
26478,7.256,2.7273,0.1,0.00040819,4079.1,0.00041031,4144.4,-0.00012347,133.78,-0.00014128,0.0027768,0.28504
26479,7.1641,3,0.1,0.00041044,4101.6,0.00041266,4170.3,-0.00012359,141.2,-0.00014238,0.0033598,0.27842
26480,7.256,2.9091,0.1,0.00040808,4078,0.00041021,4143.9,-0.00012333,135.03,-0.0001413,0.0029919,0.28512
26481,7.1641,3.1818,0.1,0.0004105,4102.1,0.00041271,4170.6,-0.00012366,140.55,-0.00014237,0.0032468,0.27838
26482,7.256,3.0909,0.1,0.00040808,4078,0.00041021,4143.9,-0.00012333,135.03,-0.0001413,0.0029919,0.28512
26483,7.1641,3.3636,0.1,0.00041067,4103.8,0.00041285,4171.4,-0.00012388,138.59,-0.00014233,0.0029076,0.27826
26484,7.256,3.2727,0.1,0.00040819,4079.1,0.00041031,4144.4,-0.00012347,133.78,-0.00014128,0.002777,0.28504
26485,7.1641,3.5455,0.1,0.00041095,4106.7,0.00041309,4172.7,-0.00012425,135.35,-0.00014226,0.0023415,0.27805
26486,7.256,3.4545,0.1,0.00040841,4081.3,0.00041049,4145.4,-0.00012375,131.29,-0.00014123,0.002347,0.28488
26487,7.1641,3.7273,0.1,0.00041134,4110.6,0.00041341,4174.5,-0.00012476,130.85,-0.00014217,0.0015448,0.27777
26488,7.256,3.6364,0.1,0.00040874,4084.6,0.00041076,4146.9,-0.00012418,127.57,-0.00014115,0.001701,0.28463
26489,7.1641,3.9091,0.1,0.00041184,4115.6,0.00041383,4176.7,-0.00012541,125.14,-0.00014206,0.00051079,0.2774
26490,7.256,3.8182,0.1,0.00040917,4088.9,0.00041112,4148.8,-0.00012473,122.67,-0.00014106,0.00083253,0.2843
26491,7.1641,4.0909,0.1,0.00041245,4121.6,0.00041433,4179.5,-0.00012618,118.25,-0.00014192,-0.00077022,0.27695
26492,7.256,4,0.1,0.0004097,4094.2,0.00041156,4151.2,-0.00012542,116.62,-0.00014094,-0.00026479,0.2839
26493,7.1641,4.2727,0.1,0.00041315,4128.6,0.00041491,4182.6,-0.00012709,110.26,-0.00014176,-0.002316,0.27641
26494,7.256,4.1818,0.1,0.00041033,4100.4,0.00041208,4154.1,-0.00012622,109.48,-0.00014079,-0.0016028,0.2834
26495,7.1641,4.4545,0.1,0.00041394,4136.5,0.00041557,4186.2,-0.00012811,101.23,-0.00014158,-0.004164,0.27579
26496,7.256,4.3636,0.1,0.00041104,4107.6,0.00041267,4157.3,-0.00012715,101.31,-0.00014063,-0.0032038,0.28283
26497,7.1641,4.6364,0.1,0.00041481,4145.3,0.00041629,4190.1,-0.00012924,91.241,-0.00014138,-0.0063562,0.27509
26498,7.256,4.5455,0.1,0.00041185,4115.6,0.00041334,4160.9,-0.00012818,92.173,-0.00014045,-0.0051182,0.28217
26499,7.1641,4.8182,0.1,0.00041576,4154.8,0.00041707,4194.4,-0.00013047,80.367,-0.00014116,-0.0090519,0.2743
26500,7.256,4.7273,0.1,0.00041273,4124.4,0.00041406,4164.9,-0.00012931,82.151,-0.00014025,-0.0073782,0.28142
26501,7.1641,5,0.1,0.00041679,4165,0.00041791,4198.9,-0.00013178,68.701,-0.00014093,-0.012215,0.27342
26502,7.256,4.9091,0.1,0.00041368,4133.9,0.00041484,4169.1,-0.00013054,71.323,-0.00014003,-0.010263,0.28059
26503,7.1641,5.1818,0.1,0.00041787,4175.8,0.0004188,4203.7,-0.00013318,56.336,-0.00014068,-0.017214,0.27246
26504,7.256,5.0909,0.1,0.00041469,4144.1,0.00041568,4173.6,-0.00013184,59.778,-0.0001398,-0.013443,0.27968
26505,7.1641,5.3636,0.1,0.000419,4187.2,0.00041973,4208.7,-0.00013464,43.37,-0.00014042,-0.02101,0.27141
26506,7.256,5.2727,0.1,0.00041576,4154.7,0.00041655,4178.3,-0.00013322,47.606,-0.00013955,-0.019929,0.27867
26507,7.1641,5.5455,0.1,0.00042019,4199,0.00042069,4213.8,-0.00013616,29.879,-0.00014014,-0.048023,0.27027
26508,7.256,5.4545,0.1,0.00041688,4165.9,0.00041746,4183.2,-0.00013465,34.905,-0.0001393,-0.021147,0.27758
26509,7.1641,5.7273,0.1,0.00042144,4211.5,0.0004217,4219.3,-0.00013775,15.75,-0.00013986,-0.068952,0.26904
26510,7.256,5.6364,0.1,0.00041804,4177.5,0.0004184,4188.3,-0.00013613,21.717,-0.00013903,-0.073781,0.2764
26511,7.256,5.8182,0.1,0.0004193,4190.1,0.00041943,4193.9,-0.00013771,7.7651,-0.00013876,-0.10743,0.27513
26512,7.1641,5.9091,0.1,0.0004224,4221.1,0.00042247,4223,-0.00013905,3.9987,-0.0001396,-0.12527,0.26772
26513,7.3478,0.27273,0.1,0.00041589,4156,0.00041612,4162.8,-0.00013609,13.724,-0.00013793,-0.063714,0.28258
26514,7.4397,0.18182,0.1,0.00041372,4134.3,0.00041382,4137.4,-0.00013599,6.3303,-0.00013685,-0.11053,0.28882
26515,7.3478,0.090909,0.1,0.00041675,4164.6,0.0004168,4166.1,-0.00013726,3.1585,-0.00013769,-0.13132,0.28127
26516,7.3478,0.45455,0.1,0.00041472,4144.4,0.00041517,4157.7,-0.00013462,26.75,-0.00013819,-0.043429,0.28381
26517,7.4397,0.36364,0.1,0.00041254,4122.6,0.00041286,4132.1,-0.00013453,19.224,-0.0001371,-0.066854,0.29008
26518,7.3478,0.63636,0.1,0.00041363,4133.5,0.00041428,4152.9,-0.00013322,39.147,-0.00013843,-0.018996,0.28494
26519,7.4397,0.54545,0.1,0.00041147,4111.9,0.00041199,4127.4,-0.00013316,31.342,-0.00013734,-0.019025,0.29125
26520,7.3478,0.81818,0.1,0.00041258,4123,0.00041343,4148.3,-0.00013188,51.053,-0.00013867,-0.015684,0.28598
26521,7.4397,0.72727,0.1,0.00041044,4101.6,0.00041115,4122.9,-0.00013184,43.005,-0.00013757,-0.018084,0.29234
26522,7.3478,1,0.1,0.00041158,4113,0.00041261,4143.8,-0.0001306,62.404,-0.0001389,-0.011233,0.28694
26523,7.4397,0.90909,0.1,0.00040945,4091.7,0.00041035,4118.5,-0.00013058,54.176,-0.00013779,-0.012303,0.29333
26524,7.3478,1.1818,0.1,0.00041064,4103.6,0.00041183,4139.6,-0.00012939,73.109,-0.00013912,-0.0084284,0.28781
26525,7.4397,1.0909,0.1,0.00040851,4082.3,0.00040958,4114.3,-0.00012938,64.77,-0.00013801,-0.0094964,0.29424
26526,7.3478,1.3636,0.1,0.00040976,4094.8,0.00041111,4135.7,-0.00012826,83.084,-0.00013932,-0.00603,0.28859
26527,7.4397,1.2727,0.1,0.00040764,4073.6,0.00040886,4110.4,-0.00012826,74.701,-0.0001382,-0.0069361,0.29507
26528,7.3478,1.5455,0.1,0.00040895,4086.7,0.00041044,4132.1,-0.00012722,92.248,-0.0001395,-0.0040769,0.28929
26529,7.4397,1.4545,0.1,0.00040683,4065.4,0.00040819,4106.7,-0.00012722,83.891,-0.00013839,-0.0049287,0.29581
26530,7.3478,1.7273,0.1,0.00040822,4079.4,0.00040984,4128.8,-0.00012628,100.53,-0.00013966,-0.0024273,0.28991
26531,7.4397,1.6364,0.1,0.00040609,4058.1,0.00040758,4103.4,-0.00012627,92.265,-0.00013855,-0.0032242,0.29647
26532,7.3478,1.9091,0.1,0.00040758,4073,0.00040931,4125.8,-0.00012545,107.85,-0.00013981,-0.0010454,0.29044
26533,7.4397,1.8182,0.1,0.00040542,4051.4,0.00040703,4100.4,-0.00012542,99.754,-0.0001387,-0.0017964,0.29704
26534,7.3478,2.0909,0.1,0.00040702,4067.4,0.00040885,4123.3,-0.00012474,114.15,-0.00013993,0.0001012,0.29089
26535,7.4397,2,0.1,0.00040485,4045.7,0.00040655,4097.8,-0.00012468,106.3,-0.00013883,-0.00060128,0.29753
26536,7.3478,2.2727,0.1,0.00040656,4062.8,0.00040846,4121.2,-0.00012415,119.39,-0.00014004,0.0010278,0.29126
26537,7.4397,2.1818,0.1,0.00040436,4040.8,0.00040614,4095.5,-0.00012406,111.83,-0.00013894,0.00037989,0.29794
26538,7.3478,2.4545,0.1,0.0004062,4059.2,0.00040816,4119.6,-0.00012368,123.51,-0.00014012,0.0017422,0.29155
26539,7.4397,2.3636,0.1,0.00040396,4036.8,0.00040581,4093.7,-0.00012355,116.32,-0.00013903,0.0011575,0.29826
26540,7.3478,2.6364,0.1,0.00040594,4056.6,0.00040794,4118.4,-0.00012334,126.48,-0.00014018,0.00225,0.29175
26541,7.4397,2.5455,0.1,0.00040366,4033.8,0.00040556,4092.4,-0.00012316,119.73,-0.00013909,0.001736,0.29851
26542,7.3478,2.8182,0.1,0.00040578,4055,0.00040781,4117.6,-0.00012314,128.27,-0.00014021,0.0025546,0.29187
26543,7.4397,2.7273,0.1,0.00040346,4031.8,0.0004054,4091.4,-0.0001229,122.01,-0.00013914,0.0021216,0.29867
26544,7.3478,3,0.1,0.00040573,4054.5,0.00040777,4117.4,-0.00012307,128.87,-0.00014022,0.0026561,0.29191
26545,7.4397,2.9091,0.1,0.00040336,4030.8,0.00040531,4091,-0.00012277,123.16,-0.00013916,0.0023144,0.29875
26546,7.3478,3.1818,0.1,0.00040578,4055,0.00040781,4117.6,-0.00012314,128.27,-0.00014021,0.0025545,0.29187
26547,7.4397,3.0909,0.1,0.00040336,4030.8,0.00040531,4091,-0.00012277,123.16,-0.00013916,0.0023144,0.29875
26548,7.3478,3.3636,0.1,0.00040594,4056.6,0.00040794,4118.4,-0.00012334,126.48,-0.00014018,0.0022501,0.29175
26549,7.4397,3.2727,0.1,0.00040346,4031.8,0.0004054,4091.4,-0.0001229,122.01,-0.00013914,0.0021215,0.29867
26550,7.3478,3.5455,0.1,0.0004062,4059.2,0.00040816,4119.6,-0.00012368,123.51,-0.00014012,0.0017424,0.29155
26551,7.4397,3.4545,0.1,0.00040366,4033.8,0.00040556,4092.4,-0.00012316,119.73,-0.00013909,0.0017364,0.29851
26552,7.3478,3.7273,0.1,0.00040656,4062.8,0.00040846,4121.2,-0.00012415,119.39,-0.00014004,0.0010282,0.29126
26553,7.4397,3.6364,0.1,0.00040396,4036.8,0.00040581,4093.7,-0.00012355,116.32,-0.00013903,0.0011577,0.29826
26554,7.3478,3.9091,0.1,0.00040702,4067.4,0.00040885,4123.3,-0.00012474,114.15,-0.00013993,0.00010161,0.29089
26555,7.4397,3.8182,0.1,0.00040436,4040.8,0.00040614,4095.5,-0.00012406,111.83,-0.00013894,0.00038048,0.29794
26556,7.3478,4.0909,0.1,0.00040758,4073,0.00040931,4125.8,-0.00012545,107.85,-0.00013981,-0.001045,0.29044
26557,7.4397,4,0.1,0.00040485,4045.7,0.00040655,4097.8,-0.00012468,106.3,-0.00013883,-0.00060102,0.29753
26558,7.3478,4.2727,0.1,0.00040822,4079.4,0.00040984,4128.8,-0.00012628,100.53,-0.00013966,-0.0024268,0.28991
26559,7.4397,4.1818,0.1,0.00040542,4051.4,0.00040703,4100.4,-0.00012542,99.754,-0.0001387,-0.0017959,0.29704
26560,7.3478,4.4545,0.1,0.00040895,4086.7,0.00041044,4132.1,-0.00012722,92.248,-0.0001395,-0.0040762,0.28929
26561,7.4397,4.3636,0.1,0.00040609,4058.1,0.00040758,4103.4,-0.00012627,92.265,-0.00013855,-0.0032236,0.29647
26562,7.3478,4.6364,0.1,0.00040976,4094.8,0.00041111,4135.7,-0.00012826,83.084,-0.00013932,-0.0060293,0.28859
26563,7.4397,4.5455,0.1,0.00040683,4065.4,0.00040819,4106.7,-0.00012722,83.891,-0.00013839,-0.004928,0.29581
26564,7.3478,4.8182,0.1,0.00041064,4103.6,0.00041183,4139.6,-0.00012939,73.109,-0.00013912,-0.0084278,0.28781
26565,7.4397,4.7273,0.1,0.00040764,4073.6,0.00040886,4110.4,-0.00012826,74.701,-0.0001382,-0.0069354,0.29507
26566,7.3478,5,0.1,0.00041158,4113,0.00041261,4143.8,-0.0001306,62.404,-0.0001389,-0.011232,0.28694
26567,7.4397,4.9091,0.1,0.00040851,4082.3,0.00040958,4114.3,-0.00012938,64.77,-0.00013801,-0.0094957,0.29424
26568,7.3478,5.1818,0.1,0.00041258,4123,0.00041343,4148.3,-0.00013188,51.053,-0.00013867,-0.015683,0.28598
26569,7.4397,5.0909,0.1,0.00040945,4091.7,0.00041035,4118.5,-0.00013058,54.176,-0.00013779,-0.012301,0.29333
26570,7.3478,5.3636,0.1,0.00041363,4133.5,0.00041428,4152.9,-0.00013322,39.147,-0.00013843,-0.018995,0.28494
26571,7.4397,5.2727,0.1,0.00041044,4101.6,0.00041115,4122.9,-0.00013184,43.005,-0.00013757,-0.018083,0.29234
26572,7.3478,5.5455,0.1,0.00041472,4144.4,0.00041517,4157.7,-0.00013462,26.75,-0.00013819,-0.043428,0.28381
26573,7.4397,5.4545,0.1,0.00041147,4111.9,0.00041199,4127.4,-0.00013316,31.342,-0.00013734,-0.019025,0.29125
26574,7.3478,5.7273,0.1,0.00041589,4156,0.00041612,4162.8,-0.00013609,13.725,-0.00013793,-0.063713,0.28258
26575,7.4397,5.6364,0.1,0.00041254,4122.6,0.00041286,4132.1,-0.00013453,19.224,-0.0001371,-0.066852,0.29008
26576,7.4397,5.8182,0.1,0.00041372,4134.3,0.00041382,4137.4,-0.00013599,6.3304,-0.00013685,-0.11053,0.28882
26577,7.3478,5.9091,0.1,0.00041675,4164.6,0.0004168,4166.1,-0.00013726,3.1585,-0.00013769,-0.13132,0.28127
26578,7.5315,0.27273,0.1,0.00041037,4100.8,0.00041056,4106.7,-0.00013443,11.819,-0.00013601,-0.059155,0.29641
26579,7.6234,0.18182,0.1,0.00040817,4078.9,0.00040826,4081.4,-0.00013428,4.9764,-0.00013495,-0.11809,0.30279
26580,7.5315,0.090909,0.1,0.00041113,4108.4,0.00041116,4109.5,-0.00013547,2.3677,-0.0001358,-0.14429,0.29511
26581,7.5315,0.45455,0.1,0.00040928,4090,0.00040968,4101.9,-0.00013307,23.824,-0.00013625,-0.039195,0.29762
26582,7.6234,0.36364,0.1,0.00040707,4067.9,0.00040736,4076.3,-0.00013292,16.887,-0.00013517,-0.060471,0.30404
26583,7.5315,0.63636,0.1,0.00040827,4079.9,0.00040886,4097.4,-0.00013178,35.207,-0.00013647,-0.017147,0.29875
26584,7.6234,0.54545,0.1,0.00040608,4058,0.00040655,4071.9,-0.00013166,28.015,-0.00013539,-0.01708,0.3052
26585,7.5315,0.81818,0.1,0.00040731,4070.2,0.00040807,4093.1,-0.00013055,46.134,-0.00013669,-0.01428,0.29978
26586,7.6234,0.72727,0.1,0.00040513,4048.5,0.00040577,4067.7,-0.00013045,38.716,-0.00013561,-0.016392,0.30628
26587,7.5315,1,0.1,0.00040638,4061,0.00040731,4089,-0.00012937,56.547,-0.0001369,-0.010336,0.30073
26588,7.6234,0.90909,0.1,0.00040422,4039.4,0.00040503,4063.6,-0.00012929,48.963,-0.00013581,-0.011261,0.30727
26589,7.5315,1.1818,0.1,0.00040551,4052.3,0.0004066,4085.1,-0.00012826,66.365,-0.00013709,-0.0078617,0.3016
26590,7.6234,1.0909,0.1,0.00040335,4030.7,0.00040432,4059.8,-0.00012819,58.676,-0.000136,-0.0087998,0.30817
26591,7.5315,1.3636,0.1,0.0004047,4044.2,0.00040593,4081.4,-0.00012722,75.511,-0.00013727,-0.0057374,0.30238
26592,7.6234,1.2727,0.1,0.00040254,4022.7,0.00040365,4056.1,-0.00012716,67.78,-0.00013618,-0.0065389,0.30899
26593,7.5315,1.5455,0.1,0.00040396,4036.8,0.00040532,4078.1,-0.00012627,83.91,-0.00013744,-0.0040044,0.30307
26594,7.6234,1.4545,0.1,0.0004018,4015.2,0.00040304,4052.7,-0.00012621,76.201,-0.00013635,-0.0047645,0.30973
26595,7.5315,1.7273,0.1,0.00040329,4030.1,0.00040476,4075,-0.00012541,91.495,-0.00013759,-0.0025373,0.30369
26596,7.6234,1.6364,0.1,0.00040111,4008.4,0.00040247,4049.6,-0.00012534,83.873,-0.0001365,-0.0032531,0.31038
26597,7.5315,1.9091,0.1,0.00040269,4024.1,0.00040427,4072.3,-0.00012465,98.203,-0.00013772,-0.0013064,0.30422
26598,7.6234,1.8182,0.1,0.0004005,4002.3,0.00040197,4046.9,-0.00012456,90.733,-0.00013664,-0.0019848,0.31095
26599,7.5315,2.0909,0.1,0.00040218,4019,0.00040385,4070,-0.000124,103.98,-0.00013784,-0.00028337,0.30466
26600,7.6234,2,0.1,0.00039997,3997,0.00040153,4044.4,-0.00012388,96.723,-0.00013675,-0.00092126,0.31144
26601,7.5315,2.2727,0.1,0.00040176,4014.8,0.00040349,4068.1,-0.00012345,108.77,-0.00013793,0.00054427,0.30503
26602,7.6234,2.1818,0.1,0.00039952,3992.5,0.00040116,4042.4,-0.0001233,101.79,-0.00013685,-4.657e-05,0.31184
26603,7.5315,2.4545,0.1,0.00040142,4011.4,0.00040322,4066.5,-0.00012303,112.54,-0.000138,0.001183,0.30531
26604,7.6234,2.3636,0.1,0.00039916,3988.8,0.00040085,4040.7,-0.00012284,105.91,-0.00013693,0.00064726,0.31217
26605,7.5315,2.6364,0.1,0.00040118,4009,0.00040302,4065.4,-0.00012272,115.26,-0.00013806,0.0016374,0.30552
26606,7.6234,2.5455,0.1,0.00039888,3986,0.00040062,4039.4,-0.00012248,109.02,-0.00013699,0.0011638,0.31241
26607,7.5315,2.8182,0.1,0.00040104,4007.6,0.0004029,4064.8,-0.00012253,116.9,-0.00013809,0.00191,0.30564
26608,7.6234,2.7273,0.1,0.00039869,3984.2,0.00040047,4038.6,-0.00012225,111.11,-0.00013703,0.0015084,0.31257
26609,7.5315,3,0.1,0.00040099,4007.1,0.00040286,4064.5,-0.00012247,117.45,-0.0001381,0.0020009,0.30568
26610,7.6234,2.9091,0.1,0.0003986,3983.3,0.00040039,4038.2,-0.00012213,112.16,-0.00013705,0.0016808,0.31265
26611,7.5315,3.1818,0.1,0.00040104,4007.6,0.0004029,4064.8,-0.00012253,116.9,-0.00013809,0.00191,0.30564
26612,7.6234,3.0909,0.1,0.0003986,3983.3,0.00040039,4038.2,-0.00012213,112.16,-0.00013705,0.0016809,0.31265
26613,7.5315,3.3636,0.1,0.00040118,4009,0.00040302,4065.4,-0.00012272,115.26,-0.00013806,0.0016375,0.30552
26614,7.6234,3.2727,0.1,0.00039869,3984.2,0.00040047,4038.6,-0.00012225,111.11,-0.00013703,0.0015084,0.31257
26615,7.5315,3.5455,0.1,0.00040142,4011.4,0.00040322,4066.5,-0.00012303,112.54,-0.000138,0.0011833,0.30531
26616,7.6234,3.4545,0.1,0.00039888,3986,0.00040062,4039.4,-0.00012248,109.02,-0.00013699,0.0011642,0.31241
26617,7.5315,3.7273,0.1,0.00040176,4014.8,0.00040349,4068.1,-0.00012345,108.77,-0.00013793,0.00054466,0.30503
26618,7.6234,3.6364,0.1,0.00039916,3988.8,0.00040085,4040.7,-0.00012284,105.91,-0.00013693,0.00064744,0.31217
26619,7.5315,3.9091,0.1,0.00040218,4019,0.00040385,4070,-0.000124,103.98,-0.00013784,-0.00028293,0.30466
26620,7.6234,3.8182,0.1,0.00039952,3992.5,0.00040116,4042.4,-0.0001233,101.79,-0.00013685,-4.6128e-05,0.31184
26621,7.5315,4.0909,0.1,0.00040269,4024.1,0.00040427,4072.3,-0.00012465,98.203,-0.00013772,-0.0013059,0.30422
26622,7.6234,4,0.1,0.00039997,3997,0.00040153,4044.4,-0.00012388,96.723,-0.00013675,-0.00092087,0.31144
26623,7.5315,4.2727,0.1,0.00040329,4030.1,0.00040476,4075,-0.00012541,91.495,-0.00013759,-0.0025366,0.30369
26624,7.6234,4.1818,0.1,0.0004005,4002.3,0.00040197,4046.9,-0.00012456,90.733,-0.00013664,-0.0019843,0.31095
26625,7.5315,4.4545,0.1,0.00040396,4036.8,0.00040532,4078.1,-0.00012627,83.91,-0.00013744,-0.0040035,0.30307
26626,7.6234,4.3636,0.1,0.00040111,4008.4,0.00040247,4049.6,-0.00012534,83.873,-0.0001365,-0.0032523,0.31038
26627,7.5315,4.6364,0.1,0.0004047,4044.2,0.00040593,4081.4,-0.00012722,75.511,-0.00013727,-0.0057366,0.30238
26628,7.6234,4.5455,0.1,0.0004018,4015.2,0.00040304,4052.7,-0.00012621,76.201,-0.00013635,-0.0047636,0.30973
26629,7.5315,4.8182,0.1,0.00040551,4052.3,0.0004066,4085.1,-0.00012826,66.365,-0.00013709,-0.0078609,0.3016
26630,7.6234,4.7273,0.1,0.00040254,4022.7,0.00040365,4056.1,-0.00012716,67.78,-0.00013618,-0.0065383,0.30899
26631,7.5315,5,0.1,0.00040638,4061,0.00040731,4089,-0.00012937,56.547,-0.0001369,-0.010335,0.30073
26632,7.6234,4.9091,0.1,0.00040335,4030.7,0.00040432,4059.8,-0.00012819,58.676,-0.000136,-0.0087992,0.30817
26633,7.5315,5.1818,0.1,0.00040731,4070.2,0.00040807,4093.1,-0.00013055,46.134,-0.00013669,-0.014279,0.29978
26634,7.6234,5.0909,0.1,0.00040422,4039.4,0.00040503,4063.6,-0.00012929,48.963,-0.00013581,-0.01126,0.30727
26635,7.5315,5.3636,0.1,0.00040827,4079.9,0.00040886,4097.4,-0.00013178,35.207,-0.00013647,-0.017146,0.29875
26636,7.6234,5.2727,0.1,0.00040513,4048.5,0.00040577,4067.7,-0.00013045,38.716,-0.00013561,-0.016391,0.30628
26637,7.5315,5.5455,0.1,0.00040928,4090,0.00040968,4101.9,-0.00013307,23.824,-0.00013625,-0.039194,0.29762
26638,7.6234,5.4545,0.1,0.00040608,4058,0.00040655,4071.9,-0.00013166,28.015,-0.00013539,-0.01708,0.3052
26639,7.5315,5.7273,0.1,0.00041037,4100.8,0.00041056,4106.7,-0.00013443,11.819,-0.00013601,-0.059154,0.29641
26640,7.6234,5.6364,0.1,0.00040707,4067.9,0.00040736,4076.3,-0.00013292,16.887,-0.00013517,-0.060469,0.30404
26641,7.6234,5.8182,0.1,0.00040817,4078.9,0.00040826,4081.4,-0.00013428,4.9765,-0.00013495,-0.11809,0.30279
26642,7.5315,5.9091,0.1,0.00041113,4108.4,0.00041116,4109.5,-0.00013547,2.3677,-0.0001358,-0.14429,0.29511
26643,7.7152,0.27273,0.1,0.00040487,4045.9,0.00040504,4050.9,-0.00013277,10.028,-0.00013411,-0.05529,0.31051
26644,7.8071,0.18182,0.1,0.00040266,4023.8,0.00040272,4025.6,-0.00013256,3.7039,-0.00013307,-0.13341,0.31704
26645,7.7152,0.090909,0.1,0.00040554,4052.6,0.00040557,4053.4,-0.00013368,1.6324,-0.00013392,-0.17138,0.30922
26646,7.7152,0.45455,0.1,0.00040387,4035.9,0.00040422,4046.4,-0.00013151,21.088,-0.00013432,-0.035294,0.31171
26647,7.8071,0.36364,0.1,0.00040163,4013.5,0.00040188,4020.8,-0.00013131,14.698,-0.00013327,-0.054586,0.31828
26648,7.7152,0.63636,0.1,0.00040293,4026.6,0.00040346,4042.2,-0.00013033,31.532,-0.00013453,-0.015455,0.31283
26649,7.8071,0.54545,0.1,0.00040071,4004.4,0.00040113,4016.7,-0.00013015,24.908,-0.00013347,-0.015297,0.31943
26650,7.7152,0.81818,0.1,0.00040204,4017.6,0.00040273,4038.2,-0.00012919,41.553,-0.00013473,-0.012999,0.31386
26651,7.8071,0.72727,0.1,0.00039983,3995.6,0.00040041,4012.8,-0.00012904,34.719,-0.00013366,-0.014842,0.3205
26652,7.7152,1,0.1,0.00040119,4009.1,0.00040203,4034.4,-0.00012811,51.099,-0.00013492,-0.0095231,0.3148
26653,7.8071,0.90909,0.1,0.00039899,3987.2,0.00039972,4009,-0.00012797,44.11,-0.00013385,-0.010312,0.32148
26654,7.7152,1.1818,0.1,0.00040038,4001.1,0.00040137,4030.8,-0.00012709,60.096,-0.00013509,-0.0073526,0.31566
26655,7.8071,1.0909,0.1,0.00039819,3979.2,0.00039907,4005.4,-0.00012697,53.009,-0.00013402,-0.0081693,0.32238
26656,7.7152,1.3636,0.1,0.00039964,3993.6,0.00040076,4027.4,-0.00012614,68.475,-0.00013526,-0.005481,0.31643
26657,7.8071,1.2727,0.1,0.00039745,3971.7,0.00039846,4002,-0.00012602,61.347,-0.00013419,-0.0061845,0.32319
26658,7.7152,1.5455,0.1,0.00039895,3986.8,0.00040019,4024.3,-0.00012527,76.169,-0.00013541,-0.0039507,0.31713
26659,7.8071,1.4545,0.1,0.00039676,3964.8,0.00039789,3998.9,-0.00012514,69.059,-0.00013434,-0.0046246,0.32392
26660,7.7152,1.7273,0.1,0.00039833,3980.6,0.00039968,4021.5,-0.00012448,83.115,-0.00013555,-0.0026517,0.31774
26661,7.8071,1.6364,0.1,0.00039613,3958.6,0.00039737,3996,-0.00012435,76.083,-0.00013447,-0.003291,0.32457
26662,7.7152,1.9091,0.1,0.00039778,3975.1,0.00039923,4019,-0.00012379,89.256,-0.00013567,-0.0015597,0.31826
26663,7.8071,1.8182,0.1,0.00039557,3952.9,0.0003969,3993.5,-0.00012363,82.361,-0.0001346,-0.0021694,0.32513
26664,7.7152,2.0909,0.1,0.00039731,3970.4,0.00039884,4016.8,-0.00012319,94.543,-0.00013577,-0.00065023,0.31871
26665,7.8071,2,0.1,0.00039508,3948,0.0003965,3991.2,-0.00012301,87.844,-0.0001347,-0.0012269,0.32562
26666,7.7152,2.2727,0.1,0.00039692,3966.5,0.00039851,4015,-0.00012269,98.931,-0.00013585,8.6713e-05,0.31907
26667,7.8071,2.1818,0.1,0.00039466,3943.9,0.00039615,3989.3,-0.00012248,92.484,-0.00013479,-0.00044997,0.32602
26668,7.7152,2.4545,0.1,0.00039661,3963.4,0.00039826,4013.6,-0.0001223,102.38,-0.00013592,0.00065577,0.31935
26669,7.8071,2.3636,0.1,0.00039433,3940.5,0.00039588,3987.8,-0.00012206,96.245,-0.00013487,0.00016688,0.32634
26670,7.7152,2.6364,0.1,0.00039639,3961.2,0.00039807,4012.6,-0.00012201,104.87,-0.00013597,0.0010608,0.31955
26671,7.8071,2.5455,0.1,0.00039407,3938,0.00039566,3986.6,-0.00012173,99.093,-0.00013492,0.00062658,0.32658
26672,7.7152,2.8182,0.1,0.00039626,3959.9,0.00039796,4012,-0.00012184,106.37,-0.000136,0.0013042,0.31967
26673,7.8071,2.7273,0.1,0.0003939,3936.3,0.00039552,3985.8,-0.00012152,101.01,-0.00013496,0.00093347,0.32674
26674,7.7152,3,0.1,0.00039621,3959.4,0.00039792,4011.8,-0.00012179,106.87,-0.00013601,0.0013855,0.31971
26675,7.8071,2.9091,0.1,0.00039382,3935.4,0.00039545,3985.4,-0.00012141,101.97,-0.00013498,0.0010873,0.32682
26676,7.7152,3.1818,0.1,0.00039626,3959.9,0.00039796,4012,-0.00012184,106.37,-0.000136,0.0013043,0.31967
26677,7.8071,3.0909,0.1,0.00039382,3935.4,0.00039545,3985.4,-0.00012141,101.97,-0.00013498,0.0010874,0.32682
26678,7.7152,3.3636,0.1,0.00039639,3961.2,0.00039807,4012.6,-0.00012201,104.87,-0.00013597,0.0010611,0.31955
26679,7.8071,3.2727,0.1,0.0003939,3936.3,0.00039552,3985.8,-0.00012152,101.01,-0.00013496,0.00093368,0.32674
26680,7.7152,3.5455,0.1,0.00039661,3963.4,0.00039826,4013.6,-0.0001223,102.38,-0.00013592,0.00065601,0.31935
26681,7.8071,3.4545,0.1,0.00039407,3938,0.00039566,3986.6,-0.00012173,99.093,-0.00013492,0.00062679,0.32658
26682,7.7152,3.7273,0.1,0.00039692,3966.5,0.00039851,4015,-0.00012269,98.931,-0.00013585,8.6947e-05,0.31907
26683,7.8071,3.6364,0.1,0.00039433,3940.5,0.00039588,3987.8,-0.00012206,96.245,-0.00013487,0.0001672,0.32634
26684,7.7152,3.9091,0.1,0.00039731,3970.4,0.00039884,4016.8,-0.00012319,94.543,-0.00013577,-0.00064985,0.31871
26685,7.8071,3.8182,0.1,0.00039466,3943.9,0.00039615,3989.3,-0.00012248,92.484,-0.00013479,-0.00044959,0.32602
26686,7.7152,4.0909,0.1,0.00039778,3975.1,0.00039923,4019,-0.00012379,89.256,-0.00013567,-0.0015592,0.31826
26687,7.8071,4,0.1,0.00039508,3948,0.0003965,3991.2,-0.00012301,87.844,-0.0001347,-0.0012265,0.32562
26688,7.7152,4.2727,0.1,0.00039833,3980.6,0.00039968,4021.5,-0.00012448,83.115,-0.00013555,-0.0026512,0.31774
26689,7.8071,4.1818,0.1,0.00039557,3952.9,0.0003969,3993.5,-0.00012363,82.361,-0.0001346,-0.002169,0.32513
26690,7.7152,4.4545,0.1,0.00039895,3986.8,0.00040019,4024.3,-0.00012527,76.169,-0.00013541,-0.0039499,0.31713
26691,7.8071,4.3636,0.1,0.00039613,3958.6,0.00039737,3996,-0.00012435,76.083,-0.00013447,-0.0032904,0.32457
26692,7.7152,4.6364,0.1,0.00039964,3993.6,0.00040076,4027.4,-0.00012614,68.475,-0.00013526,-0.0054804,0.31643
26693,7.8071,4.5455,0.1,0.00039676,3964.8,0.00039789,3998.9,-0.00012514,69.059,-0.00013434,-0.0046237,0.32392
26694,7.7152,4.8182,0.1,0.00040038,4001.1,0.00040137,4030.8,-0.00012709,60.096,-0.00013509,-0.0073521,0.31566
26695,7.8071,4.7273,0.1,0.00039745,3971.7,0.00039846,4002,-0.00012602,61.347,-0.00013419,-0.006184,0.32319
26696,7.7152,5,0.1,0.00040119,4009.1,0.00040203,4034.4,-0.00012811,51.099,-0.00013492,-0.0095221,0.3148
26697,7.8071,4.9091,0.1,0.00039819,3979.2,0.00039907,4005.4,-0.00012697,53.009,-0.00013402,-0.0081687,0.32238
26698,7.7152,5.1818,0.1,0.00040204,4017.6,0.00040273,4038.2,-0.00012919,41.553,-0.00013473,-0.012998,0.31386
26699,7.8071,5.0909,0.1,0.00039899,3987.2,0.00039972,4009,-0.00012797,44.11,-0.00013385,-0.010311,0.32148
26700,7.7152,5.3636,0.1,0.00040293,4026.6,0.00040346,4042.2,-0.00013033,31.532,-0.00013453,-0.015454,0.31283
26701,7.8071,5.2727,0.1,0.00039983,3995.6,0.00040041,4012.8,-0.00012904,34.719,-0.00013366,-0.014841,0.3205
26702,7.7152,5.5455,0.1,0.00040387,4035.9,0.00040422,4046.4,-0.00013151,21.088,-0.00013432,-0.035293,0.31171
26703,7.8071,5.4545,0.1,0.00040071,4004.4,0.00040113,4016.7,-0.00013015,24.908,-0.00013347,-0.015296,0.31943
26704,7.7152,5.7273,0.1,0.00040487,4045.9,0.00040504,4050.9,-0.00013277,10.028,-0.00013411,-0.055288,0.31051
26705,7.8071,5.6364,0.1,0.00040163,4013.5,0.00040188,4020.8,-0.00013131,14.698,-0.00013327,-0.054585,0.31828
26706,7.8071,5.8182,0.1,0.00040266,4023.8,0.00040272,4025.6,-0.00013256,3.704,-0.00013307,-0.13341,0.31704
26707,7.7152,5.9091,0.1,0.00040554,4052.6,0.00040557,4053.4,-0.00013368,1.6324,-0.00013392,-0.17138,0.30922
26708,7.8989,0.27273,0.1,0.00039941,3991.3,0.00039955,3995.5,-0.0001311,8.3443,-0.00013222,-0.05217,0.32489
26709,7.9908,0.18182,0.1,0.00039718,3969,0.00039722,3970.2,-0.00013085,2.5186,-0.00013121,-0.16515,0.33155
26710,7.8989,0.090909,0.1,0.00039999,3997.1,0.0004,3997.5,-0.0001319,0.97268,-0.00013206,-0.23402,0.32361
26711,7.8989,0.45455,0.1,0.00039847,3982,0.00039878,3991.2,-0.00012994,18.529,-0.00013241,-0.031693,0.32608
26712,7.9908,0.36364,0.1,0.00039621,3959.4,0.00039642,3965.6,-0.00012969,12.647,-0.00013138,-0.049155,0.33278
26713,7.8989,0.63636,0.1,0.00039761,3973.3,0.00039808,3987.3,-0.00012886,28.104,-0.0001326,-0.013902,0.32718
26714,7.9908,0.54545,0.1,0.00039536,3950.9,0.00039573,3961.8,-0.00012863,22.005,-0.00013156,-0.013658,0.33392
26715,7.8989,0.81818,0.1,0.00039678,3965.1,0.0003974,3983.6,-0.00012782,37.284,-0.00013278,-0.011826,0.32821
26716,7.9908,0.72727,0.1,0.00039455,3942.8,0.00039507,3958.2,-0.00012761,30.99,-0.00013173,-0.013418,0.33498
26717,7.8989,1,0.1,0.000396,3957.2,0.00039676,3980,-0.00012683,46.027,-0.00013295,-0.0087831,0.32914
26718,7.9908,0.90909,0.1,0.00039377,3935,0.00039443,3954.7,-0.00012663,39.589,-0.0001319,-0.0094459,0.33596
26719,7.8989,1.1818,0.1,0.00039526,3949.8,0.00039615,3976.7,-0.00012589,54.266,-0.00013311,-0.0068934,0.32999
26720,7.9908,1.0909,0.1,0.00039304,3927.7,0.00039383,3951.3,-0.00012571,47.734,-0.00013206,-0.0075968,0.33685
26721,7.8989,1.3636,0.1,0.00039457,3943,0.00039558,3973.6,-0.00012502,61.937,-0.00013326,-0.0052547,0.33076
26722,7.9908,1.2727,0.1,0.00039235,3920.8,0.00039326,3948.2,-0.00012484,55.365,-0.00013221,-0.0058665,0.33765
26723,7.8989,1.5455,0.1,0.00039394,3936.6,0.00039506,3970.7,-0.00012422,68.978,-0.0001334,-0.0039109,0.33145
26724,7.9908,1.4545,0.1,0.00039171,3914.4,0.00039274,3945.3,-0.00012404,62.421,-0.00013235,-0.004504,0.33838
26725,7.8989,1.7273,0.1,0.00039336,3930.9,0.00039459,3968.1,-0.0001235,75.334,-0.00013352,-0.0027665,0.33205
26726,7.9908,1.6364,0.1,0.00039114,3908.7,0.00039226,3942.6,-0.00012331,68.845,-0.00013247,-0.0033341,0.33902
26727,7.8989,1.9091,0.1,0.00039286,3925.9,0.00039418,3965.7,-0.00012286,80.953,-0.00013363,-0.0018019,0.33258
26728,7.9908,1.8182,0.1,0.00039062,3903.5,0.00039183,3940.2,-0.00012265,74.588,-0.00013258,-0.0023473,0.33958
26729,7.8989,2.0909,0.1,0.00039243,3921.6,0.00039382,3963.8,-0.00012231,85.789,-0.00013373,-0.00099697,0.33302
26730,7.9908,2,0.1,0.00039017,3899,0.00039146,3938.2,-0.00012208,79.601,-0.00013268,-0.0015158,0.34007
26731,7.8989,2.2727,0.1,0.00039207,3918,0.00039352,3962.1,-0.00012185,89.802,-0.0001338,-0.00034355,0.33338
26732,7.9908,2.1818,0.1,0.00038979,3895.2,0.00039114,3936.4,-0.0001216,83.844,-0.00013276,-0.00082876,0.34047
26733,7.8989,2.4545,0.1,0.00039178,3915.1,0.00039328,3960.8,-0.00012149,92.959,-0.00013387,0.00016169,0.33366
26734,7.9908,2.3636,0.1,0.00038948,3892.1,0.00039089,3935,-0.00012121,87.282,-0.00013283,-0.00028265,0.34078
26735,7.8989,2.6364,0.1,0.00039158,3913.1,0.00039311,3959.8,-0.00012124,95.234,-0.00013391,0.00052179,0.33386
26736,7.9908,2.5455,0.1,0.00038924,3889.7,0.00039069,3933.9,-0.00012091,89.886,-0.00013288,0.00012508,0.34102
26737,7.8989,2.8182,0.1,0.00039146,3911.9,0.00039301,3959.3,-0.00012108,96.606,-0.00013394,0.00073836,0.33398
26738,7.9908,2.7273,0.1,0.00038908,3888.2,0.00039056,3933.2,-0.00012071,91.635,-0.00013291,0.00039749,0.34118
26739,7.8989,3,0.1,0.00039142,3911.5,0.00039298,3959.1,-0.00012103,97.065,-0.00013395,0.00081074,0.33402
26740,7.9908,2.9091,0.1,0.00038901,3887.4,0.0003905,3932.8,-0.00012061,92.512,-0.00013293,0.00053437,0.34126
26741,7.8989,3.1818,0.1,0.00039146,3911.9,0.00039301,3959.3,-0.00012108,96.606,-0.00013394,0.00073851,0.33398
26742,7.9908,3.0909,0.1,0.00038901,3887.4,0.0003905,3932.8,-0.00012061,92.512,-0.00013293,0.00053431,0.34126
26743,7.8989,3.3636,0.1,0.00039158,3913.1,0.00039311,3959.8,-0.00012124,95.234,-0.00013391,0.00052197,0.33386
26744,7.9908,3.2727,0.1,0.00038908,3888.2,0.00039056,3933.2,-0.00012071,91.635,-0.00013291,0.00039773,0.34118
26745,7.8989,3.5455,0.1,0.00039178,3915.1,0.00039328,3960.8,-0.00012149,92.959,-0.00013387,0.00016199,0.33366
26746,7.9908,3.4545,0.1,0.00038924,3889.7,0.00039069,3933.9,-0.00012091,89.886,-0.00013288,0.00012517,0.34102
26747,7.8989,3.7273,0.1,0.00039207,3918,0.00039352,3962.1,-0.00012185,89.802,-0.0001338,-0.00034307,0.33338
26748,7.9908,3.6364,0.1,0.00038948,3892.1,0.00039089,3935,-0.00012121,87.282,-0.00013283,-0.00028223,0.34078
26749,7.8989,3.9091,0.1,0.00039243,3921.6,0.00039382,3963.8,-0.00012231,85.789,-0.00013373,-0.00099658,0.33302
26750,7.9908,3.8182,0.1,0.00038979,3895.2,0.00039114,3936.4,-0.0001216,83.844,-0.00013276,-0.00082847,0.34047
26751,7.8989,4.0909,0.1,0.00039286,3925.9,0.00039418,3965.7,-0.00012286,80.953,-0.00013363,-0.0018017,0.33258
26752,7.9908,4,0.1,0.00039017,3899,0.00039146,3938.2,-0.00012208,79.601,-0.00013268,-0.0015155,0.34007
26753,7.8989,4.2727,0.1,0.00039336,3930.9,0.00039459,3968.1,-0.0001235,75.334,-0.00013352,-0.0027661,0.33205
26754,7.9908,4.1818,0.1,0.00039062,3903.5,0.00039183,3940.2,-0.00012265,74.588,-0.00013258,-0.0023469,0.33958
26755,7.8989,4.4545,0.1,0.00039394,3936.6,0.00039506,3970.7,-0.00012422,68.978,-0.0001334,-0.0039102,0.33145
26756,7.9908,4.3636,0.1,0.00039114,3908.7,0.00039226,3942.6,-0.00012331,68.845,-0.00013247,-0.0033336,0.33902
26757,7.8989,4.6364,0.1,0.00039457,3943,0.00039558,3973.6,-0.00012502,61.937,-0.00013326,-0.0052539,0.33076
26758,7.9908,4.5455,0.1,0.00039171,3914.4,0.00039274,3945.3,-0.00012404,62.421,-0.00013235,-0.0045032,0.33838
26759,7.8989,4.8182,0.1,0.00039526,3949.8,0.00039615,3976.7,-0.00012589,54.266,-0.00013311,-0.0068927,0.32999
26760,7.9908,4.7273,0.1,0.00039235,3920.8,0.00039326,3948.2,-0.00012484,55.365,-0.00013221,-0.005866,0.33765
26761,7.8989,5,0.1,0.000396,3957.2,0.00039676,3980,-0.00012683,46.027,-0.00013295,-0.0087822,0.32914
26762,7.9908,4.9091,0.1,0.00039304,3927.7,0.00039383,3951.3,-0.00012571,47.734,-0.00013206,-0.0075961,0.33685
26763,7.8989,5.1818,0.1,0.00039678,3965.1,0.0003974,3983.6,-0.00012782,37.284,-0.00013278,-0.011825,0.32821
26764,7.9908,5.0909,0.1,0.00039377,3935,0.00039443,3954.7,-0.00012663,39.589,-0.0001319,-0.0094447,0.33596
26765,7.8989,5.3636,0.1,0.00039761,3973.3,0.00039808,3987.3,-0.00012886,28.104,-0.0001326,-0.013902,0.32718
26766,7.9908,5.2727,0.1,0.00039455,3942.8,0.00039507,3958.2,-0.00012761,30.99,-0.00013173,-0.013417,0.33498
26767,7.8989,5.5455,0.1,0.00039847,3982,0.00039878,3991.2,-0.00012994,18.529,-0.00013241,-0.031692,0.32608
26768,7.9908,5.4545,0.1,0.00039536,3950.9,0.00039573,3961.8,-0.00012863,22.005,-0.00013156,-0.013657,0.33392
26769,7.8989,5.7273,0.1,0.00039941,3991.3,0.00039955,3995.5,-0.0001311,8.3444,-0.00013222,-0.052169,0.32489
26770,7.9908,5.6364,0.1,0.00039621,3959.4,0.00039642,3965.6,-0.00012969,12.647,-0.00013138,-0.049154,0.33278
26771,7.9908,5.8182,0.1,0.00039718,3969,0.00039722,3970.2,-0.00013085,2.5186,-0.00013121,-0.16514,0.33155
26772,7.8989,5.9091,0.1,0.00039999,3997.1,0.0004,3997.5,-0.0001319,0.9727,-0.00013206,-0.23401,0.32361
26773,8.0826,0.27273,0.1,0.00039397,3937,0.00039408,3940.3,-0.00012944,6.7626,-0.00013035,-0.049937,0.33953
26774,8.1745,0.18182,0.1,0.00039172,3914.5,0.00039174,3915.1,-0.00012913,1.4461,-0.00012936,-0.2423,0.34634
26775,8.0826,0.090909,0.1,0.00039447,3942,0.00039447,3942,-0.00013012,0.45712,-0.00013023,-0.40223,0.33827
26776,8.0826,0.45455,0.1,0.0003931,3928.3,0.00039337,3936.3,-0.00012837,16.135,-0.00013052,-0.028362,0.34071
26777,8.1745,0.36364,0.1,0.00039081,3905.4,0.00039099,3910.8,-0.00012807,10.724,-0.0001295,-0.044142,0.34755
26778,8.0826,0.63636,0.1,0.0003923,3920.3,0.00039272,3932.7,-0.00012738,24.903,-0.00013069,-0.012475,0.34181
26779,8.1745,0.54545,0.1,0.00039003,3897.6,0.00039035,3907.2,-0.0001271,19.293,-0.00012967,-0.012153,0.34869
26780,8.0826,0.81818,0.1,0.00039154,3912.7,0.00039209,3929.2,-0.00012642,33.305,-0.00013085,-0.01075,0.34282
26781,8.1745,0.72727,0.1,0.00038928,3890.1,0.00038974,3903.8,-0.00012616,27.512,-0.00012982,-0.012114,0.34973
26782,8.0826,1,0.1,0.00039081,3905.4,0.0003915,3925.9,-0.00012551,41.304,-0.00013101,-0.0081082,0.34375
26783,8.1745,0.90909,0.1,0.00038856,3883,0.00038915,3900.5,-0.00012527,35.375,-0.00012998,-0.0086586,0.3507
26784,8.0826,1.1818,0.1,0.00039013,3898.6,0.00039094,3922.8,-0.00012465,48.841,-0.00013116,-0.0064775,0.34459
26785,8.1745,1.0909,0.1,0.00038789,3876.2,0.0003886,3897.4,-0.00012442,42.822,-0.00013012,-0.0070806,0.35158
26786,8.0826,1.3636,0.1,0.0003895,3892.3,0.00039042,3919.9,-0.00012386,55.856,-0.00013129,-0.0050531,0.34536
26787,8.1745,1.2727,0.1,0.00038725,3869.9,0.00038808,3894.5,-0.00012362,49.797,-0.00013025,-0.0055852,0.35238
26788,8.0826,1.5455,0.1,0.00038891,3886.5,0.00038994,3917.2,-0.00012312,62.294,-0.00013142,-0.0038811,0.34604
26789,8.1745,1.4545,0.1,0.00038667,3864,0.00038759,3891.8,-0.00012289,56.246,-0.00013038,-0.0044041,0.3531
26790,8.0826,1.7273,0.1,0.00038839,3881.2,0.0003895,3914.8,-0.00012246,68.105,-0.00013153,-0.002879,0.34664
26791,8.1745,1.6364,0.1,0.00038614,3858.7,0.00038715,3889.4,-0.00012222,62.117,-0.00013049,-0.0033849,0.35374
26792,8.0826,1.9091,0.1,0.00038792,3876.6,0.00038912,3912.7,-0.00012188,73.241,-0.00013163,-0.0020316,0.34716
26793,8.1745,1.8182,0.1,0.00038566,3853.9,0.00038676,3887.2,-0.00012162,67.364,-0.00013059,-0.0025219,0.3543
26794,8.0826,2.0909,0.1,0.00038753,3872.6,0.00038879,3910.8,-0.00012137,77.661,-0.00013171,-0.0013222,0.3476
26795,8.1745,2,0.1,0.00038524,3849.8,0.00038642,3885.2,-0.0001211,71.944,-0.00013068,-0.0017922,0.35478
26796,8.0826,2.2727,0.1,0.00038719,3869.3,0.00038851,3909.3,-0.00012096,81.329,-0.00013178,-0.00074531,0.34796
26797,8.1745,2.1818,0.1,0.00038489,3846.3,0.00038613,3883.6,-0.00012066,75.82,-0.00013075,-0.0011877,0.35517
26798,8.0826,2.4545,0.1,0.00038693,3866.7,0.0003883,3908.1,-0.00012063,84.214,-0.00013184,-0.0002986,0.34823
26799,8.1745,2.3636,0.1,0.00038461,3843.4,0.00038589,3882.3,-0.0001203,78.96,-0.00013081,-0.00070608,0.35549
26800,8.0826,2.6364,0.1,0.00038675,3864.8,0.00038814,3907.2,-0.00012039,86.292,-0.00013188,2.0229e-05,0.34843
26801,8.1745,2.5455,0.1,0.00038439,3841.3,0.00038571,3881.3,-0.00012003,81.339,-0.00013086,-0.00034602,0.35573
26802,8.0826,2.8182,0.1,0.00038663,3863.7,0.00038805,3906.7,-0.00012025,87.546,-0.0001319,0.00021227,0.34855
26803,8.1745,2.7273,0.1,0.00038425,3839.8,0.00038559,3880.6,-0.00011985,82.936,-0.00013089,-0.00010521,0.35589
26804,8.0826,3,0.1,0.00038659,3863.3,0.00038802,3906.5,-0.0001202,87.965,-0.00013191,0.0002765,0.34859
26805,8.1745,2.9091,0.1,0.00038418,3839.1,0.00038553,3880.3,-0.00011976,83.737,-0.0001309,1.6002e-05,0.35597
26806,8.0826,3.1818,0.1,0.00038663,3863.7,0.00038805,3906.7,-0.00012025,87.546,-0.0001319,0.0002123,0.34855
26807,8.1745,3.0909,0.1,0.00038418,3839.1,0.00038553,3880.3,-0.00011976,83.737,-0.0001309,1.5942e-05,0.35597
26808,8.0826,3.3636,0.1,0.00038675,3864.8,0.00038814,3907.2,-0.00012039,86.292,-0.00013188,2.0376e-05,0.34843
26809,8.1745,3.2727,0.1,0.00038425,3839.8,0.00038559,3880.6,-0.00011985,82.936,-0.00013089,-0.00010494,0.35589
26810,8.0826,3.5455,0.1,0.00038693,3866.7,0.0003883,3908.1,-0.00012063,84.214,-0.00013184,-0.0002984,0.34823
26811,8.1745,3.4545,0.1,0.00038439,3841.3,0.00038571,3881.3,-0.00012003,81.339,-0.00013086,-0.00034588,0.35573
26812,8.0826,3.7273,0.1,0.00038719,3869.3,0.00038851,3909.3,-0.00012096,81.329,-0.00013178,-0.00074507,0.34796
26813,8.1745,3.6364,0.1,0.00038461,3843.4,0.00038589,3882.3,-0.0001203,78.96,-0.00013081,-0.00070558,0.35549
26814,8.0826,3.9091,0.1,0.00038753,3872.6,0.00038879,3910.8,-0.00012137,77.661,-0.00013171,-0.0013219,0.3476
26815,8.1745,3.8182,0.1,0.00038489,3846.3,0.00038613,3883.6,-0.00012066,75.82,-0.00013075,-0.0011874,0.35517
26816,8.0826,4.0909,0.1,0.00038792,3876.6,0.00038912,3912.7,-0.00012188,73.241,-0.00013163,-0.0020311,0.34716
26817,8.1745,4,0.1,0.00038524,3849.8,0.00038642,3885.2,-0.0001211,71.944,-0.00013068,-0.0017918,0.35478
26818,8.0826,4.2727,0.1,0.00038839,3881.2,0.0003895,3914.8,-0.00012246,68.105,-0.00013153,-0.0028784,0.34664
26819,8.1745,4.1818,0.1,0.00038566,3853.9,0.00038676,3887.2,-0.00012162,67.364,-0.00013059,-0.0025214,0.3543
26820,8.0826,4.4545,0.1,0.00038891,3886.5,0.00038994,3917.2,-0.00012312,62.294,-0.00013142,-0.0038805,0.34604
26821,8.1745,4.3636,0.1,0.00038614,3858.7,0.00038715,3889.4,-0.00012222,62.117,-0.00013049,-0.0033842,0.35374
26822,8.0826,4.6364,0.1,0.0003895,3892.3,0.00039042,3919.9,-0.00012386,55.856,-0.00013129,-0.0050526,0.34536
26823,8.1745,4.5455,0.1,0.00038667,3864,0.00038759,3891.8,-0.00012289,56.246,-0.00013038,-0.0044036,0.3531
26824,8.0826,4.8182,0.1,0.00039013,3898.6,0.00039094,3922.8,-0.00012465,48.841,-0.00013116,-0.0064769,0.34459
26825,8.1745,4.7273,0.1,0.00038725,3869.9,0.00038808,3894.5,-0.00012362,49.797,-0.00013025,-0.0055847,0.35238
26826,8.0826,5,0.1,0.00039081,3905.4,0.0003915,3925.9,-0.00012551,41.304,-0.00013101,-0.0081074,0.34375
26827,8.1745,4.9091,0.1,0.00038789,3876.2,0.0003886,3897.4,-0.00012442,42.822,-0.00013012,-0.0070799,0.35158
26828,8.0826,5.1818,0.1,0.00039154,3912.7,0.00039209,3929.2,-0.00012642,33.305,-0.00013085,-0.010749,0.34282
26829,8.1745,5.0909,0.1,0.00038856,3883,0.00038915,3900.5,-0.00012527,35.375,-0.00012998,-0.0086574,0.3507
26830,8.0826,5.3636,0.1,0.0003923,3920.3,0.00039272,3932.7,-0.00012738,24.903,-0.00013069,-0.012474,0.34181
26831,8.1745,5.2727,0.1,0.00038928,3890.1,0.00038974,3903.8,-0.00012616,27.512,-0.00012982,-0.012113,0.34973
26832,8.0826,5.5455,0.1,0.0003931,3928.3,0.00039337,3936.3,-0.00012837,16.135,-0.00013052,-0.028361,0.34071
26833,8.1745,5.4545,0.1,0.00039003,3897.6,0.00039035,3907.2,-0.0001271,19.293,-0.00012967,-0.012153,0.34869
26834,8.0826,5.7273,0.1,0.00039397,3937,0.00039408,3940.3,-0.00012944,6.7626,-0.00013035,-0.049936,0.33953
26835,8.1745,5.6364,0.1,0.00039081,3905.4,0.00039099,3910.8,-0.00012807,10.724,-0.0001295,-0.044141,0.34755
26836,8.1745,5.8182,0.1,0.00039172,3914.5,0.00039174,3915.1,-0.00012913,1.4462,-0.00012936,-0.24229,0.34634
26837,8.0826,5.9091,0.1,0.00039447,3942,0.00039447,3942,-0.00013012,0.45713,-0.00013023,-0.40222,0.33827
26838,8.2663,0.27273,0.1,0.00038856,3882.9,0.00038864,3885.5,-0.00012778,5.277,-0.00012849,-0.048924,0.35444
26839,8.3582,0.18182,0.1,0.00038629,3860.3,0.00038629,3860.3,-0.0001274,0.60595,-0.00012755,-0.48742,0.36138
26840,8.2663,0.090909,0.1,0.00038898,3887.1,0.00038897,3886.8,-0.00012831,0.18872,-0.00012844,-0.78065,0.35319
26841,8.2663,0.45455,0.1,0.00038774,3874.7,0.00038798,3881.7,-0.00012679,13.895,-0.00012864,-0.025284,0.35561
26842,8.3582,0.36364,0.1,0.00038544,3851.7,0.00038559,3856.2,-0.00012645,8.9222,-0.00012764,-0.039517,0.36259
26843,8.2663,0.63636,0.1,0.00038701,3867.4,0.00038738,3878.3,-0.00012588,21.913,-0.0001288,-0.011171,0.3567
26844,8.3582,0.54545,0.1,0.00038472,3844.5,0.000385,3852.8,-0.00012555,16.756,-0.00012779,-0.010774,0.36371
26845,8.2663,0.81818,0.1,0.0003863,3860.4,0.0003868,3875.1,-0.000125,29.592,-0.00012894,-0.0097738,0.3577
26846,8.3582,0.72727,0.1,0.00038402,3837.6,0.00038443,3849.7,-0.0001247,24.264,-0.00012793,-0.010923,0.36475
26847,8.2663,1,0.1,0.00038564,3853.7,0.00038625,3872,-0.00012417,36.902,-0.00012908,-0.0075023,0.35862
26848,8.3582,0.90909,0.1,0.00038337,3831,0.00038389,3846.6,-0.00012388,31.444,-0.00012807,-0.0079486,0.36571
26849,8.2663,1.1818,0.1,0.00038501,3847.4,0.00038573,3869.1,-0.00012339,43.788,-0.00012922,-0.0061103,0.35946
26850,8.3582,1.0909,0.1,0.00038274,3824.8,0.00038338,3843.8,-0.0001231,38.244,-0.00012819,-0.0066206,0.36658
26851,8.2663,1.3636,0.1,0.00038442,3841.6,0.00038525,3866.4,-0.00012266,50.196,-0.00012934,-0.0048834,0.36022
26852,8.3582,1.2727,0.1,0.00038216,3818.9,0.0003829,3841.1,-0.00012238,44.611,-0.00012832,-0.0053413,0.36738
26853,8.2663,1.5455,0.1,0.00038389,3836.2,0.00038481,3864,-0.00012199,56.076,-0.00012945,-0.0038691,0.36089
26854,8.3582,1.4545,0.1,0.00038162,3813.6,0.00038245,3838.6,-0.00012171,50.497,-0.00012843,-0.0043272,0.36809
26855,8.2663,1.7273,0.1,0.0003834,3831.4,0.00038441,3861.7,-0.00012138,61.382,-0.00012955,-0.0029974,0.36149
26856,8.3582,1.6364,0.1,0.00038113,3808.7,0.00038205,3836.3,-0.0001211,55.856,-0.00012853,-0.0034462,0.36872
26857,8.2663,1.9091,0.1,0.00038298,3827.1,0.00038406,3859.7,-0.00012085,66.073,-0.00012964,-0.0022574,0.362
26858,8.3582,1.8182,0.1,0.00038069,3804.3,0.00038169,3834.2,-0.00012055,60.644,-0.00012862,-0.0026967,0.36928
26859,8.2663,2.0909,0.1,0.00038261,3823.5,0.00038375,3858,-0.00012039,70.108,-0.00012972,-0.0016361,0.36244
26860,8.3582,2,0.1,0.00038031,3800.5,0.00038137,3832.5,-0.00012007,64.824,-0.0001287,-0.0020603,0.36975
26861,8.2663,2.2727,0.1,0.00038231,3820.4,0.0003835,3856.6,-0.00012001,73.457,-0.00012978,-0.0011293,0.36279
26862,8.3582,2.1818,0.1,0.00037999,3797.2,0.0003811,3831,-0.00011967,68.361,-0.00012877,-0.0015313,0.37014
26863,8.2663,2.4545,0.1,0.00038207,3818,0.0003833,3855.5,-0.00011971,76.091,-0.00012983,-0.00073592,0.36307
26864,8.3582,2.3636,0.1,0.00037973,3794.6,0.00038089,3829.7,-0.00011934,71.226,-0.00012882,-0.0011085,0.37046
26865,8.2663,2.6364,0.1,0.00038189,3816.3,0.00038316,3854.7,-0.00011949,77.988,-0.00012987,-0.00045487,0.36327
26866,8.3582,2.5455,0.1,0.00037953,3792.7,0.00038072,3828.8,-0.00011909,73.396,-0.00012886,-0.00079209,0.37069
26867,8.2663,2.8182,0.1,0.00038179,3815.3,0.00038307,3854.2,-0.00011936,79.133,-0.00012989,-0.00028544,0.36339
26868,8.3582,2.7273,0.1,0.00037939,3791.3,0.00038061,3828.2,-0.00011893,74.853,-0.00012889,-0.00058002,0.37085
26869,8.2663,3,0.1,0.00038175,3814.9,0.00038305,3854.1,-0.00011931,79.515,-0.0001299,-0.0002287,0.36343
26870,8.3582,2.9091,0.1,0.00037933,3790.7,0.00038056,3827.9,-0.00011884,75.585,-0.0001289,-0.00047352,0.37093
26871,8.2663,3.1818,0.1,0.00038179,3815.3,0.00038307,3854.2,-0.00011936,79.133,-0.00012989,-0.00028526,0.36339
26872,8.3582,3.0909,0.1,0.00037933,3790.7,0.00038056,3827.9,-0.00011884,75.585,-0.0001289,-0.00047328,0.37093
26873,8.2663,3.3636,0.1,0.00038189,3816.3,0.00038316,3854.7,-0.00011949,77.988,-0.00012987,-0.0004546,0.36327
26874,8.3582,3.2727,0.1,0.00037939,3791.3,0.00038061,3828.2,-0.00011893,74.853,-0.00012889,-0.00057993,0.37085
26875,8.2663,3.5455,0.1,0.00038207,3818,0.0003833,3855.5,-0.00011971,76.091,-0.00012983,-0.00073547,0.36307
26876,8.3582,3.4545,0.1,0.00037953,3792.7,0.00038072,3828.8,-0.00011909,73.396,-0.00012886,-0.000792,0.37069
26877,8.2663,3.7273,0.1,0.00038231,3820.4,0.0003835,3856.6,-0.00012001,73.457,-0.00012978,-0.0011287,0.36279
26878,8.3582,3.6364,0.1,0.00037973,3794.6,0.00038089,3829.7,-0.00011934,71.226,-0.00012882,-0.001108,0.37046
26879,8.2663,3.9091,0.1,0.00038261,3823.5,0.00038375,3858,-0.00012039,70.108,-0.00012972,-0.0016358,0.36244
26880,8.3582,3.8182,0.1,0.00037999,3797.2,0.0003811,3831,-0.00011967,68.361,-0.00012877,-0.001531,0.37014
26881,8.2663,4.0909,0.1,0.00038298,3827.1,0.00038406,3859.7,-0.00012085,66.073,-0.00012964,-0.0022572,0.362
26882,8.3582,4,0.1,0.00038031,3800.5,0.00038137,3832.5,-0.00012007,64.824,-0.0001287,-0.00206,0.36975
26883,8.2663,4.2727,0.1,0.0003834,3831.4,0.00038441,3861.7,-0.00012138,61.382,-0.00012955,-0.0029969,0.36149
26884,8.3582,4.1818,0.1,0.00038069,3804.3,0.00038169,3834.2,-0.00012055,60.644,-0.00012862,-0.0026962,0.36928
26885,8.2663,4.4545,0.1,0.00038389,3836.2,0.00038481,3864,-0.00012199,56.076,-0.00012945,-0.0038685,0.36089
26886,8.3582,4.3636,0.1,0.00038113,3808.7,0.00038205,3836.3,-0.0001211,55.856,-0.00012853,-0.0034456,0.36872
26887,8.2663,4.6364,0.1,0.00038442,3841.6,0.00038525,3866.4,-0.00012266,50.196,-0.00012934,-0.0048828,0.36022
26888,8.3582,4.5455,0.1,0.00038162,3813.6,0.00038245,3838.6,-0.00012171,50.497,-0.00012843,-0.0043266,0.36809
26889,8.2663,4.8182,0.1,0.00038501,3847.4,0.00038573,3869.1,-0.00012339,43.788,-0.00012922,-0.0061096,0.35946
26890,8.3582,4.7273,0.1,0.00038216,3818.9,0.0003829,3841.1,-0.00012238,44.611,-0.00012832,-0.0053409,0.36738
26891,8.2663,5,0.1,0.00038564,3853.7,0.00038625,3872,-0.00012417,36.902,-0.00012908,-0.0075012,0.35862
26892,8.3582,4.9091,0.1,0.00038274,3824.8,0.00038338,3843.8,-0.0001231,38.244,-0.00012819,-0.0066198,0.36658
26893,8.2663,5.1818,0.1,0.0003863,3860.4,0.0003868,3875.1,-0.000125,29.592,-0.00012894,-0.0097726,0.3577
26894,8.3582,5.0909,0.1,0.00038337,3831,0.00038389,3846.6,-0.00012388,31.444,-0.00012807,-0.007947,0.36571
26895,8.2663,5.3636,0.1,0.00038701,3867.4,0.00038738,3878.3,-0.00012588,21.913,-0.0001288,-0.011171,0.3567
26896,8.3582,5.2727,0.1,0.00038402,3837.6,0.00038443,3849.7,-0.0001247,24.264,-0.00012793,-0.010922,0.36475
26897,8.2663,5.5455,0.1,0.00038774,3874.7,0.00038798,3881.7,-0.00012679,13.895,-0.00012864,-0.025284,0.35561
26898,8.3582,5.4545,0.1,0.00038472,3844.5,0.000385,3852.8,-0.00012555,16.756,-0.00012779,-0.010774,0.36371
26899,8.2663,5.7273,0.1,0.00038856,3882.9,0.00038864,3885.5,-0.00012778,5.277,-0.00012849,-0.048922,0.35444
26900,8.3582,5.6364,0.1,0.00038544,3851.7,0.00038559,3856.2,-0.00012645,8.9222,-0.00012764,-0.039516,0.36259
26901,8.3582,5.8182,0.1,0.00038629,3860.3,0.00038629,3860.3,-0.0001274,0.60597,-0.00012755,-0.48741,0.36138
26902,8.2663,5.9091,0.1,0.00038898,3887.1,0.00038897,3886.8,-0.00012831,0.18873,-0.00012844,-0.78064,0.35319
26903,8.45,0.27273,0.1,0.00038317,3829,0.00038323,3830.9,-0.00012612,3.8824,-0.00012664,-0.049914,0.36962
26904,8.5418,0.18182,0.1,0.00038089,3806.3,0.00038087,3805.8,-0.00012562,0.22099,-0.0001258,-1.1268,0.37669
26905,8.45,0.090909,0.1,0.00038352,3832.5,0.0003835,3831.9,-0.00012649,0.090411,-0.00012667,-1.2939,0.36838
26906,8.45,0.45455,0.1,0.00038241,3821.5,0.00038261,3827.3,-0.00012521,11.797,-0.00012678,-0.022435,0.37077
26907,8.5418,0.36364,0.1,0.00038009,3798.3,0.00038021,3801.8,-0.00012482,7.2317,-0.00012579,-0.035249,0.37788
26908,8.45,0.63636,0.1,0.00038173,3814.7,0.00038205,3824.2,-0.00012437,19.119,-0.00012692,-0.00998,0.37185
26909,8.5418,0.54545,0.1,0.00037942,3791.6,0.00037966,3798.7,-0.00012401,14.382,-0.00012592,-0.0095082,0.379
26910,8.45,0.81818,0.1,0.00038108,3808.2,0.00038152,3821.2,-0.00012357,26.127,-0.00012705,-0.0088875,0.37284
26911,8.5418,0.72727,0.1,0.00037878,3785.2,0.00037914,3795.8,-0.00012322,21.228,-0.00012605,-0.0098364,0.38002
26912,8.45,1,0.1,0.00038047,3802.1,0.00038102,3818.3,-0.00012281,32.796,-0.00012718,-0.0069594,0.37375
26913,8.5418,0.90909,0.1,0.00037818,3779.2,0.00037864,3793,-0.00012247,27.774,-0.00012617,-0.0073077,0.38097
26914,8.45,1.1818,0.1,0.00037989,3796.3,0.00038054,3815.7,-0.00012209,39.077,-0.00012729,-0.005787,0.37458
26915,8.5418,1.0909,0.1,0.0003776,3773.4,0.00037817,3790.3,-0.00012177,33.972,-0.00012629,-0.0062101,0.38184
26916,8.45,1.3636,0.1,0.00037935,3790.9,0.0003801,3813.2,-0.00012143,44.922,-0.00012741,-0.0047416,0.37533
26917,8.5418,1.2727,0.1,0.00037707,3768.1,0.00037773,3787.8,-0.0001211,39.775,-0.0001264,-0.0051298,0.38263
26918,8.45,1.5455,0.1,0.00037886,3786,0.00037969,3810.9,-0.00012081,50.285,-0.00012751,-0.0038723,0.376
26919,8.5418,1.4545,0.1,0.00037657,3763.1,0.00037732,3785.5,-0.00012049,45.14,-0.0001265,-0.0042688,0.38333
26920,8.45,1.7273,0.1,0.00037842,3781.5,0.00037932,3808.8,-0.00012026,55.125,-0.0001276,-0.0031203,0.37659
26921,8.5418,1.6364,0.1,0.00037612,3758.6,0.00037695,3783.4,-0.00011993,50.023,-0.00012659,-0.0035142,0.38396
26922,8.45,1.9091,0.1,0.00037802,3777.6,0.000379,3807,-0.00011977,59.402,-0.00012768,-0.0024788,0.37711
26923,8.5418,1.8182,0.1,0.00037572,3754.6,0.00037661,3781.5,-0.00011943,54.387,-0.00012667,-0.0028685,0.38451
26924,8.45,2.0909,0.1,0.00037769,3774.2,0.00037872,3805.4,-0.00011935,63.083,-0.00012775,-0.0019376,0.37754
26925,8.5418,2,0.1,0.00037537,3751.1,0.00037632,3779.8,-0.000119,58.196,-0.00012674,-0.0023177,0.38498
26926,8.45,2.2727,0.1,0.00037741,3771.4,0.00037849,3804.1,-0.000119,66.136,-0.00012781,-0.0014945,0.37789
26927,8.5418,2.1818,0.1,0.00037507,3748.1,0.00037608,3778.4,-0.00011863,61.419,-0.0001268,-0.0018573,0.38537
26928,8.45,2.4545,0.1,0.00037718,3769.2,0.0003783,3803,-0.00011873,68.538,-0.00012785,-0.0011499,0.37816
26929,8.5418,2.3636,0.1,0.00037483,3745.7,0.00037588,3777.3,-0.00011833,64.03,-0.00012685,-0.0014882,0.38568
26930,8.45,2.6364,0.1,0.00037703,3767.7,0.00037817,3802.3,-0.00011853,70.268,-0.00012788,-0.00090327,0.37836
26931,8.5418,2.5455,0.1,0.00037465,3743.9,0.00037573,3776.5,-0.0001181,66.008,-0.00012689,-0.0012116,0.38591
26932,8.45,2.8182,0.1,0.00037693,3766.7,0.00037809,3801.9,-0.00011841,71.312,-0.0001279,-0.00075457,0.37848
26933,8.5418,2.7273,0.1,0.00037453,3742.7,0.00037563,3775.9,-0.00011795,67.336,-0.00012691,-0.0010258,0.38607
26934,8.45,3,0.1,0.0003769,3766.4,0.00037807,3801.7,-0.00011837,71.661,-0.00012791,-0.00070471,0.37852
26935,8.5418,2.9091,0.1,0.00037446,3742.1,0.00037558,3775.6,-0.00011788,68.003,-0.00012693,-0.00093225,0.38615
26936,8.45,3.1818,0.1,0.00037693,3766.7,0.00037809,3801.9,-0.00011841,71.312,-0.0001279,-0.00075442,0.37848
26937,8.5418,3.0909,0.1,0.00037446,3742.1,0.00037558,3775.6,-0.00011788,68.003,-0.00012693,-0.0009321,0.38615
26938,8.45,3.3636,0.1,0.00037703,3767.7,0.00037817,3802.3,-0.00011853,70.268,-0.00012788,-0.00090336,0.37836
26939,8.5418,3.2727,0.1,0.00037453,3742.7,0.00037563,3775.9,-0.00011795,67.336,-0.00012691,-0.0010258,0.38607
26940,8.45,3.5455,0.1,0.00037718,3769.2,0.0003783,3803,-0.00011873,68.538,-0.00012785,-0.0011497,0.37816
26941,8.5418,3.4545,0.1,0.00037465,3743.9,0.00037573,3776.5,-0.0001181,66.008,-0.00012689,-0.0012116,0.38591
26942,8.45,3.7273,0.1,0.00037741,3771.4,0.00037849,3804.1,-0.000119,66.136,-0.00012781,-0.0014943,0.37789
26943,8.5418,3.6364,0.1,0.00037483,3745.7,0.00037588,3777.3,-0.00011833,64.03,-0.00012685,-0.0014879,0.38568
26944,8.45,3.9091,0.1,0.00037768,3774.2,0.00037872,3805.4,-0.00011935,63.083,-0.00012775,-0.0019373,0.37754
26945,8.5418,3.8182,0.1,0.00037507,3748.1,0.00037608,3778.4,-0.00011863,61.419,-0.0001268,-0.0018571,0.38537
26946,8.45,4.0909,0.1,0.00037802,3777.6,0.000379,3807,-0.00011977,59.402,-0.00012768,-0.0024782,0.37711
26947,8.5418,4,0.1,0.00037537,3751.1,0.00037632,3779.8,-0.000119,58.196,-0.00012674,-0.0023171,0.38498
26948,8.45,4.2727,0.1,0.00037842,3781.5,0.00037932,3808.8,-0.00012026,55.125,-0.0001276,-0.0031198,0.37659
26949,8.5418,4.1818,0.1,0.00037572,3754.6,0.00037661,3781.5,-0.00011943,54.387,-0.00012667,-0.0028681,0.38451
26950,8.45,4.4545,0.1,0.00037886,3786,0.00037969,3810.9,-0.00012081,50.285,-0.00012751,-0.0038717,0.376
26951,8.5418,4.3636,0.1,0.00037612,3758.6,0.00037695,3783.4,-0.00011993,50.023,-0.00012659,-0.0035138,0.38396
26952,8.45,4.6364,0.1,0.00037935,3790.9,0.0003801,3813.2,-0.00012143,44.922,-0.00012741,-0.0047411,0.37533
26953,8.5418,4.5455,0.1,0.00037657,3763.1,0.00037732,3785.5,-0.00012049,45.14,-0.0001265,-0.0042679,0.38333
26954,8.45,4.8182,0.1,0.00037989,3796.3,0.00038054,3815.7,-0.00012209,39.077,-0.00012729,-0.0057864,0.37458
26955,8.5418,4.7273,0.1,0.00037707,3768.1,0.00037773,3787.8,-0.0001211,39.775,-0.0001264,-0.0051292,0.38263
26956,8.45,5,0.1,0.00038047,3802.1,0.00038102,3818.3,-0.00012281,32.796,-0.00012718,-0.0069581,0.37375
26957,8.5418,4.9091,0.1,0.0003776,3773.4,0.00037817,3790.3,-0.00012177,33.972,-0.00012629,-0.0062094,0.38184
26958,8.45,5.1818,0.1,0.00038108,3808.2,0.00038152,3821.2,-0.00012357,26.127,-0.00012705,-0.0088862,0.37284
26959,8.5418,5.0909,0.1,0.00037818,3779.2,0.00037864,3793,-0.00012247,27.774,-0.00012617,-0.007306,0.38097
26960,8.45,5.3636,0.1,0.00038173,3814.7,0.00038205,3824.2,-0.00012437,19.119,-0.00012692,-0.0099796,0.37185
26961,8.5418,5.2727,0.1,0.00037878,3785.2,0.00037914,3795.8,-0.00012322,21.228,-0.00012605,-0.0098356,0.38002
26962,8.45,5.5455,0.1,0.00038241,3821.5,0.00038261,3827.3,-0.00012521,11.797,-0.00012678,-0.022435,0.37077
26963,8.5418,5.4545,0.1,0.00037942,3791.6,0.00037966,3798.7,-0.00012401,14.382,-0.00012592,-0.0095079,0.379
26964,8.45,5.7273,0.1,0.00038317,3829,0.00038323,3830.9,-0.00012612,3.8824,-0.00012664,-0.049913,0.36962
26965,8.5418,5.6364,0.1,0.00038009,3798.3,0.00038021,3801.8,-0.00012482,7.2317,-0.00012579,-0.035248,0.37788
26966,8.5418,5.8182,0.1,0.00038089,3806.3,0.00038087,3805.8,-0.00012562,0.22099,-0.0001258,-1.1268,0.37669
26967,8.45,5.9091,0.1,0.00038352,3832.5,0.0003835,3831.9,-0.00012649,0.090414,-0.00012667,-1.2938,0.36838
26968,8.6337,0.27273,0.1,0.0003778,3775.4,0.00037784,3776.7,-0.00012446,2.5753,-0.00012481,-0.055173,0.38505
26969,8.7255,0.18182,0.1,0.00037551,3752.5,0.00037548,3751.6,-0.00012381,0.10608,-0.00012409,-1.9785,0.39226
26970,8.6337,0.090909,0.1,0.00037809,3778.3,0.00037806,3777.4,-0.00012467,0.050197,-0.00012492,-1.8316,0.38382
26971,8.6337,0.45455,0.1,0.0003771,3768.4,0.00037726,3773.3,-0.00012362,9.831,-0.00012493,-0.019789,0.38619
26972,8.7255,0.36364,0.1,0.00037476,3745,0.00037485,3747.8,-0.0001232,5.6449,-0.00012395,-0.031322,0.39344
26973,8.6337,0.63636,0.1,0.00037647,3762.1,0.00037675,3770.3,-0.00012285,16.504,-0.00012505,-0.00889,0.38726
26974,8.7255,0.54545,0.1,0.00037414,3738.8,0.00037435,3744.9,-0.00012245,12.158,-0.00012407,-0.0083475,0.39454
26975,8.6337,0.81818,0.1,0.00037587,3756.2,0.00037626,3767.5,-0.00012212,22.887,-0.00012517,-0.0080816,0.38824
26976,8.7255,0.72727,0.1,0.00037356,3733,0.00037387,3742.1,-0.00012174,18.387,-0.00012418,-0.0088478,0.39555
26977,8.6337,1,0.1,0.00037531,3750.5,0.00037579,3764.9,-0.00012143,28.961,-0.00012528,-0.006471,0.38914
26978,8.7255,0.90909,0.1,0.000373,3727.4,0.00037341,3739.5,-0.00012105,24.342,-0.00012429,-0.0067334,0.39649
26979,8.6337,1.1818,0.1,0.00037478,3745.2,0.00037536,3762.4,-0.00012077,34.681,-0.00012539,-0.005501,0.38997
26980,8.7255,1.0909,0.1,0.00037247,3722.1,0.00037297,3737,-0.00012041,29.981,-0.0001244,-0.0058477,0.39735
26981,8.6337,1.3636,0.1,0.00037428,3740.2,0.00037495,3760.1,-0.00012017,40.003,-0.00012549,-0.0046221,0.39071
26982,8.7255,1.2727,0.1,0.00037198,3717.2,0.00037257,3734.7,-0.0001198,35.26,-0.0001245,-0.00495,0.39813
26983,8.6337,1.5455,0.1,0.00037383,3735.7,0.00037457,3758,-0.00011961,44.887,-0.00012558,-0.003885,0.39137
26984,8.7255,1.4545,0.1,0.00037152,3712.7,0.00037219,3732.6,-0.00011924,40.14,-0.00012459,-0.0042287,0.39883
26985,8.6337,1.7273,0.1,0.00037342,3731.6,0.00037424,3756,-0.0001191,49.293,-0.00012566,-0.0032422,0.39196
26986,8.7255,1.6364,0.1,0.00037111,3708.5,0.00037185,3730.6,-0.00011873,44.583,-0.00012467,-0.0035897,0.39945
26987,8.6337,1.9091,0.1,0.00037306,3728,0.00037394,3754.3,-0.00011866,53.188,-0.00012574,-0.0026906,0.39246
26988,8.7255,1.8182,0.1,0.00037074,3704.8,0.00037154,3728.9,-0.00011828,48.552,-0.00012474,-0.0030386,0.4
26989,8.6337,2.0909,0.1,0.00037275,3724.9,0.00037368,3752.9,-0.00011827,56.54,-0.0001258,-0.0022228,0.39289
26990,8.7255,2,0.1,0.00037042,3701.6,0.00037128,3727.4,-0.00011788,52.018,-0.00012481,-0.0025653,0.40046
26991,8.6337,2.2727,0.1,0.00037249,3722.4,0.00037347,3751.7,-0.00011795,59.321,-0.00012585,-0.0018379,0.39324
26992,8.7255,2.1818,0.1,0.00037015,3698.9,0.00037105,3726.1,-0.00011755,54.951,-0.00012486,-0.0021677,0.40085
26993,8.6337,2.4545,0.1,0.00037229,3720.4,0.0003733,3750.7,-0.0001177,61.508,-0.00012589,-0.0015377,0.39351
26994,8.7255,2.3636,0.1,0.00036993,3696.7,0.00037087,3725,-0.00011727,57.327,-0.0001249,-0.0018474,0.40116
26995,8.6337,2.6364,0.1,0.00037215,3718.9,0.00037318,3750,-0.00011752,63.084,-0.00012592,-0.0013225,0.39371
26996,8.7255,2.5455,0.1,0.00036976,3695,0.00037073,3724.2,-0.00011707,59.127,-0.00012494,-0.0016068,0.40139
26997,8.6337,2.8182,0.1,0.00037206,3718,0.00037311,3749.6,-0.00011742,64.034,-0.00012594,-0.0011922,0.39382
26998,8.7255,2.7273,0.1,0.00036965,3693.9,0.00037064,3723.7,-0.00011693,60.336,-0.00012496,-0.0014447,0.40154
26999,8.6337,3,0.1,0.00037203,3717.7,0.00037308,3749.5,-0.00011738,64.352,-0.00012594,-0.0011485,0.39386
27000,8.7255,2.9091,0.1,0.00036959,3693.4,0.00037059,3723.4,-0.00011686,60.943,-0.00012497,-0.0013629,0.40162
27001,8.6337,3.1818,0.1,0.00037206,3718,0.00037311,3749.6,-0.00011742,64.034,-0.00012594,-0.0011922,0.39382
27002,8.7255,3.0909,0.1,0.00036959,3693.4,0.00037059,3723.4,-0.00011686,60.943,-0.00012497,-0.0013628,0.40162
27003,8.6337,3.3636,0.1,0.00037215,3718.9,0.00037318,3750,-0.00011752,63.084,-0.00012592,-0.0013225,0.39371
27004,8.7255,3.2727,0.1,0.00036965,3693.9,0.00037064,3723.7,-0.00011693,60.336,-0.00012496,-0.0014447,0.40154
27005,8.6337,3.5455,0.1,0.00037229,3720.4,0.0003733,3750.7,-0.0001177,61.508,-0.00012589,-0.0015376,0.39351
27006,8.7255,3.4545,0.1,0.00036976,3695,0.00037073,3724.2,-0.00011707,59.127,-0.00012494,-0.0016067,0.40139
27007,8.6337,3.7273,0.1,0.00037249,3722.4,0.00037347,3751.7,-0.00011795,59.321,-0.00012585,-0.0018376,0.39324
27008,8.7255,3.6364,0.1,0.00036993,3696.7,0.00037087,3725,-0.00011727,57.327,-0.0001249,-0.0018472,0.40116
27009,8.6337,3.9091,0.1,0.00037275,3724.9,0.00037368,3752.9,-0.00011827,56.54,-0.0001258,-0.0022222,0.39289
27010,8.7255,3.8182,0.1,0.00037015,3698.9,0.00037105,3726.1,-0.00011755,54.951,-0.00012486,-0.0021673,0.40085
27011,8.6337,4.0909,0.1,0.00037306,3728,0.00037394,3754.3,-0.00011866,53.188,-0.00012574,-0.0026901,0.39246
27012,8.7255,4,0.1,0.00037042,3701.6,0.00037128,3727.4,-0.00011788,52.018,-0.00012481,-0.0025648,0.40046
27013,8.6337,4.2727,0.1,0.00037342,3731.6,0.00037424,3756,-0.0001191,49.293,-0.00012566,-0.0032418,0.39196
27014,8.7255,4.1818,0.1,0.00037074,3704.8,0.00037154,3728.9,-0.00011828,48.552,-0.00012474,-0.0030382,0.4
27015,8.6337,4.4545,0.1,0.00037383,3735.7,0.00037457,3758,-0.00011961,44.887,-0.00012558,-0.0038843,0.39137
27016,8.7255,4.3636,0.1,0.00037111,3708.5,0.00037185,3730.6,-0.00011873,44.583,-0.00012467,-0.0035892,0.39945
27017,8.6337,4.6364,0.1,0.00037428,3740.2,0.00037495,3760.1,-0.00012017,40.003,-0.00012549,-0.0046212,0.39071
27018,8.7255,4.5455,0.1,0.00037152,3712.7,0.00037219,3732.6,-0.00011924,40.14,-0.00012459,-0.004228,0.39883
27019,8.6337,4.8182,0.1,0.00037478,3745.2,0.00037536,3762.4,-0.00012077,34.681,-0.00012539,-0.0055002,0.38997
27020,8.7255,4.7273,0.1,0.00037198,3717.2,0.00037257,3734.7,-0.0001198,35.26,-0.0001245,-0.0049493,0.39813
27021,8.6337,5,0.1,0.00037531,3750.5,0.00037579,3764.9,-0.00012143,28.961,-0.00012528,-0.0064699,0.38914
27022,8.7255,4.9091,0.1,0.00037247,3722.1,0.00037297,3737,-0.00012041,29.981,-0.0001244,-0.0058471,0.39735
27023,8.6337,5.1818,0.1,0.00037587,3756.2,0.00037626,3767.5,-0.00012212,22.887,-0.00012517,-0.0080804,0.38824
27024,8.7255,5.0909,0.1,0.000373,3727.4,0.00037341,3739.5,-0.00012105,24.342,-0.00012429,-0.0067318,0.39649
27025,8.6337,5.3636,0.1,0.00037647,3762.1,0.00037675,3770.3,-0.00012285,16.504,-0.00012505,-0.0088894,0.38726
27026,8.7255,5.2727,0.1,0.00037356,3733,0.00037387,3742.1,-0.00012174,18.387,-0.00012418,-0.008847,0.39555
27027,8.6337,5.5455,0.1,0.0003771,3768.4,0.00037726,3773.3,-0.00012362,9.8311,-0.00012493,-0.019788,0.38619
27028,8.7255,5.4545,0.1,0.00037414,3738.8,0.00037435,3744.9,-0.00012245,12.158,-0.00012407,-0.0083473,0.39454
27029,8.6337,5.7273,0.1,0.0003778,3775.4,0.00037784,3776.7,-0.00012446,2.5753,-0.00012481,-0.055172,0.38505
27030,8.7255,5.6364,0.1,0.00037476,3745,0.00037485,3747.8,-0.0001232,5.6449,-0.00012395,-0.031321,0.39344
27031,8.7255,5.8182,0.1,0.00037551,3752.5,0.00037548,3751.6,-0.00012381,0.10608,-0.00012409,-1.9785,0.39226
27032,8.6337,5.9091,0.1,0.00037809,3778.3,0.00037806,3777.4,-0.00012467,0.050198,-0.00012492,-1.8315,0.38382
27033,8.8174,0.27273,0.1,0.00037246,3722,0.00037248,3722.7,-0.00012279,1.3597,-0.00012299,-0.074316,0.40073
27034,8.9092,0.18182,0.1,0.00037016,3699.1,0.00037011,3697.7,-0.00012201,0.062087,-0.00012239,-2.8468,0.40807
27035,8.8174,0.090909,0.1,0.00037268,3724.3,0.00037264,3723.1,-0.00012287,0.030297,-0.00012318,-2.3577,0.39952
27036,8.8174,0.45455,0.1,0.0003718,3715.5,0.00037194,3719.4,-0.00012203,7.9867,-0.00012309,-0.01733,0.40186
27037,8.9092,0.36364,0.1,0.00036945,3692,0.00036952,3694,-0.00012157,4.1539,-0.00012213,-0.027745,0.40924
27038,8.8174,0.63636,0.1,0.00037123,3709.7,0.00037146,3716.7,-0.00012133,14.055,-0.0001232,-0.0079013,0.40292
27039,8.9092,0.54545,0.1,0.00036888,3686.3,0.00036905,3691.3,-0.00012089,10.071,-0.00012223,-0.0072914,0.41033
27040,8.8174,0.81818,0.1,0.00037068,3704.2,0.00037101,3714.1,-0.00012066,19.855,-0.00012331,-0.0073591,0.40389
27041,8.9092,0.72727,0.1,0.00036835,3680.9,0.00036861,3688.7,-0.00012024,15.725,-0.00012233,-0.0079589,0.41134
27042,8.8174,1,0.1,0.00037016,3699,0.00037058,3711.7,-0.00012003,25.374,-0.00012341,-0.0060419,0.40479
27043,8.9092,0.90909,0.1,0.00036783,3675.8,0.00036819,3686.3,-0.00011962,21.129,-0.00012243,-0.0062288,0.41227
27044,8.8174,1.1818,0.1,0.00036967,3694.2,0.00037018,3709.3,-0.00011943,30.572,-0.0001235,-0.0052567,0.4056
27045,8.9092,1.0909,0.1,0.00036735,3671,0.00036779,3684,-0.00011903,26.246,-0.00012252,-0.0055372,0.41312
27046,8.8174,1.3636,0.1,0.00036922,3689.6,0.00036981,3707.2,-0.00011888,35.408,-0.00012359,-0.0045298,0.40634
27047,8.9092,1.2727,0.1,0.0003669,3666.4,0.00036741,3681.9,-0.00011848,31.038,-0.00012261,-0.0048058,0.41389
27048,8.8174,1.5455,0.1,0.0003688,3685.5,0.00036946,3705.2,-0.00011837,39.846,-0.00012367,-0.0039137,0.40699
27049,8.9092,1.4545,0.1,0.00036648,3662.3,0.00036707,3679.9,-0.00011797,35.467,-0.00012269,-0.0042117,0.41458
27050,8.8174,1.7273,0.1,0.00036843,3681.7,0.00036915,3703.5,-0.00011791,43.851,-0.00012375,-0.0033704,0.40757
27051,8.9092,1.6364,0.1,0.0003661,3658.5,0.00036676,3678.1,-0.00011751,39.5,-0.00012276,-0.0036777,0.4152
27052,8.8174,1.9091,0.1,0.0003681,3678.4,0.00036888,3701.9,-0.0001175,47.391,-0.00012381,-0.0029001,0.40808
27053,8.9092,1.8182,0.1,0.00036576,3655.1,0.00036648,3676.4,-0.00011709,43.105,-0.00012283,-0.0032121,0.41573
27054,8.8174,2.0909,0.1,0.00036781,3675.6,0.00036864,3700.5,-0.00011715,50.438,-0.00012387,-0.0024986,0.4085
27055,8.9092,2,0.1,0.00036547,3652.1,0.00036623,3675,-0.00011673,46.252,-0.00012289,-0.0028091,0.4162
27056,8.8174,2.2727,0.1,0.00036758,3673.2,0.00036845,3699.4,-0.00011686,52.966,-0.00012391,-0.0021666,0.40885
27057,8.9092,2.1818,0.1,0.00036522,3649.6,0.00036602,3673.9,-0.00011643,48.916,-0.00012294,-0.0024679,0.41658
27058,8.8174,2.4545,0.1,0.00036739,3671.4,0.0003683,3698.5,-0.00011664,54.955,-0.00012395,-0.0019066,0.40912
27059,8.9092,2.3636,0.1,0.00036501,3647.6,0.00036586,3672.9,-0.00011618,51.074,-0.00012298,-0.0021919,0.41689
27060,8.8174,2.6364,0.1,0.00036726,3670,0.00036818,3697.9,-0.00011647,56.388,-0.00012398,-0.0017197,0.40931
27061,8.9092,2.5455,0.1,0.00036486,3646.1,0.00036573,3672.2,-0.00011599,52.71,-0.00012301,-0.0019838,0.41712
27062,8.8174,2.8182,0.1,0.00036718,3669.2,0.00036812,3697.5,-0.00011637,57.252,-0.00012399,-0.0016063,0.40942
27063,8.9092,2.7273,0.1,0.00036476,3645.1,0.00036564,3671.7,-0.00011586,53.808,-0.00012303,-0.0018429,0.41727
27064,8.8174,3,0.1,0.00036715,3669,0.0003681,3697.4,-0.00011634,57.541,-0.000124,-0.0015681,0.40946
27065,8.9092,2.9091,0.1,0.00036471,3644.6,0.0003656,3671.4,-0.0001158,54.359,-0.00012304,-0.0017719,0.41735
27066,8.8174,3.1818,0.1,0.00036718,3669.2,0.00036812,3697.5,-0.00011637,57.252,-0.00012399,-0.0016062,0.40942
27067,8.9092,3.0909,0.1,0.00036471,3644.6,0.0003656,3671.4,-0.0001158,54.359,-0.00012304,-0.0017718,0.41735
27068,8.8174,3.3636,0.1,0.00036726,3670,0.00036818,3697.9,-0.00011647,56.388,-0.00012398,-0.0017196,0.40931
27069,8.9092,3.2727,0.1,0.00036476,3645.1,0.00036564,3671.7,-0.00011586,53.808,-0.00012303,-0.0018429,0.41727
27070,8.8174,3.5455,0.1,0.00036739,3671.4,0.0003683,3698.5,-0.00011664,54.955,-0.00012395,-0.0019064,0.40912
27071,8.9092,3.4545,0.1,0.00036486,3646.1,0.00036573,3672.2,-0.00011599,52.71,-0.00012301,-0.0019836,0.41712
27072,8.8174,3.7273,0.1,0.00036758,3673.2,0.00036845,3699.4,-0.00011686,52.966,-0.00012391,-0.0021664,0.40885
27073,8.9092,3.6364,0.1,0.00036501,3647.6,0.00036586,3672.9,-0.00011618,51.074,-0.00012298,-0.0021916,0.41689
27074,8.8174,3.9091,0.1,0.00036781,3675.6,0.00036864,3700.5,-0.00011715,50.438,-0.00012387,-0.0024983,0.4085
27075,8.9092,3.8182,0.1,0.00036522,3649.6,0.00036602,3673.9,-0.00011643,48.916,-0.00012294,-0.0024675,0.41658
27076,8.8174,4.0909,0.1,0.0003681,3678.4,0.00036888,3701.9,-0.0001175,47.391,-0.00012381,-0.0028997,0.40808
27077,8.9092,4,0.1,0.00036547,3652.1,0.00036623,3675,-0.00011673,46.252,-0.00012289,-0.0028086,0.4162
27078,8.8174,4.2727,0.1,0.00036843,3681.7,0.00036915,3703.5,-0.00011791,43.851,-0.00012375,-0.0033698,0.40757
27079,8.9092,4.1818,0.1,0.00036576,3655.1,0.00036648,3676.4,-0.00011709,43.105,-0.00012283,-0.0032118,0.41573
27080,8.8174,4.4545,0.1,0.0003688,3685.5,0.00036946,3705.2,-0.00011837,39.846,-0.00012367,-0.0039131,0.40699
27081,8.9092,4.3636,0.1,0.0003661,3658.5,0.00036676,3678.1,-0.00011751,39.5,-0.00012276,-0.0036771,0.4152
27082,8.8174,4.6364,0.1,0.00036922,3689.6,0.00036981,3707.2,-0.00011888,35.408,-0.00012359,-0.0045294,0.40634
27083,8.9092,4.5455,0.1,0.00036648,3662.3,0.00036707,3679.9,-0.00011797,35.467,-0.00012269,-0.004211,0.41458
27084,8.8174,4.8182,0.1,0.00036967,3694.2,0.00037018,3709.3,-0.00011943,30.572,-0.0001235,-0.0052563,0.4056
27085,8.9092,4.7273,0.1,0.0003669,3666.4,0.00036741,3681.9,-0.00011848,31.038,-0.00012261,-0.0048052,0.41389
27086,8.8174,5,0.1,0.00037016,3699,0.00037058,3711.7,-0.00012003,25.374,-0.00012341,-0.0060408,0.40479
27087,8.9092,4.9091,0.1,0.00036735,3671,0.00036779,3684,-0.00011903,26.246,-0.00012252,-0.0055367,0.41312
27088,8.8174,5.1818,0.1,0.00037068,3704.2,0.00037101,3714.1,-0.00012066,19.855,-0.00012331,-0.0073579,0.40389
27089,8.9092,5.0909,0.1,0.00036783,3675.8,0.00036819,3686.3,-0.00011962,21.129,-0.00012243,-0.0062274,0.41227
27090,8.8174,5.3636,0.1,0.00037123,3709.7,0.00037146,3716.7,-0.00012133,14.055,-0.0001232,-0.0079009,0.40292
27091,8.9092,5.2727,0.1,0.00036835,3680.9,0.00036861,3688.7,-0.00012024,15.725,-0.00012233,-0.0079579,0.41134
27092,8.8174,5.5455,0.1,0.0003718,3715.5,0.00037194,3719.4,-0.00012203,7.9868,-0.00012309,-0.01733,0.40186
27093,8.9092,5.4545,0.1,0.00036888,3686.3,0.00036905,3691.3,-0.00012089,10.071,-0.00012223,-0.0072911,0.41033
27094,8.8174,5.7273,0.1,0.00037246,3722,0.00037248,3722.7,-0.00012279,1.3597,-0.00012299,-0.074313,0.40073
27095,8.9092,5.6364,0.1,0.00036945,3692,0.00036952,3694,-0.00012157,4.1539,-0.00012213,-0.027744,0.40924
27096,8.9092,5.8182,0.1,0.00037016,3699.1,0.00037011,3697.7,-0.00012201,0.062088,-0.00012239,-2.8468,0.40807
27097,8.8174,5.9091,0.1,0.00037268,3724.3,0.00037264,3723.1,-0.00012287,0.030298,-0.00012318,-2.3577,0.39952
27098,9.0011,0.27273,0.1,0.00036714,3668.9,0.00036714,3668.9,-0.00012112,0.33103,-0.00012119,-0.20827,0.41667
27099,9.0929,0.18182,0.1,0.00036483,3645.8,0.00036477,3644,-0.00012021,0.040319,-0.0001207,-3.6863,0.42414
27100,9.0011,0.090909,0.1,0.0003673,3670.5,0.00036726,3669.1,-0.00012107,0.019138,-0.00012145,-2.8625,0.41547
27101,9.0011,0.45455,0.1,0.00036653,3662.8,0.00036663,3665.9,-0.00012043,6.2543,-0.00012127,-0.015046,0.41779
27102,9.0929,0.36364,0.1,0.00036416,3639.1,0.00036421,3640.5,-0.00011994,2.7513,-0.00012031,-0.024587,0.42529
27103,9.0011,0.63636,0.1,0.000366,3657.5,0.0003662,3663.3,-0.0001198,11.757,-0.00012136,-0.0070167,0.41883
27104,9.0929,0.54545,0.1,0.00036364,3633.9,0.00036378,3638,-0.00011932,8.1111,-0.0001204,-0.0063366,0.42637
27105,9.0011,0.81818,0.1,0.0003655,3652.4,0.00036578,3660.9,-0.00011919,17.013,-0.00012146,-0.0067221,0.41979
27106,9.0929,0.72727,0.1,0.00036315,3629,0.00036337,3635.6,-0.00011873,13.226,-0.00012049,-0.0071685,0.42737
27107,9.0011,1,0.1,0.00036502,3647.7,0.00036539,3658.6,-0.00011862,22.014,-0.00012155,-0.0056744,0.42068
27108,9.0929,0.90909,0.1,0.00036268,3624.3,0.00036298,3633.3,-0.00011817,18.116,-0.00012058,-0.0057934,0.42829
27109,9.0011,1.1818,0.1,0.00036457,3643.2,0.00036502,3656.5,-0.00011807,26.725,-0.00012163,-0.0050577,0.42148
27110,9.0929,1.0909,0.1,0.00036224,3619.9,0.00036262,3631.2,-0.00011764,22.745,-0.00012066,-0.0052771,0.42913
27111,9.0011,1.3636,0.1,0.00036416,3639.1,0.00036468,3654.5,-0.00011757,31.108,-0.00012171,-0.0044685,0.42221
27112,9.0929,1.2727,0.1,0.00036182,3615.7,0.00036227,3629.2,-0.00011714,27.082,-0.00012074,-0.0046959,0.42989
27113,9.0011,1.5455,0.1,0.00036378,3635.2,0.00036436,3652.7,-0.00011711,35.132,-0.00012178,-0.0039614,0.42286
27114,9.0929,1.4545,0.1,0.00036144,3611.9,0.00036196,3627.3,-0.00011667,31.092,-0.00012081,-0.0042166,0.43058
27115,9.0011,1.7273,0.1,0.00036343,3631.8,0.00036408,3651,-0.00011669,38.764,-0.00012185,-0.0035079,0.42344
27116,9.0929,1.6364,0.1,0.00036109,3608.4,0.00036167,3625.7,-0.00011625,34.744,-0.00012088,-0.0037766,0.43119
27117,9.0011,1.9091,0.1,0.00036313,3628.8,0.00036383,3649.6,-0.00011632,41.975,-0.00012191,-0.0031113,0.42394
27118,9.0929,1.8182,0.1,0.00036078,3605.3,0.00036141,3624.2,-0.00011588,38.009,-0.00012094,-0.0033881,0.43172
27119,9.0011,2.0909,0.1,0.00036287,3626.2,0.00036361,3648.3,-0.000116,44.739,-0.00012196,-0.0027696,0.42436
27120,9.0929,2,0.1,0.00036051,3602.6,0.00036119,3622.9,-0.00011555,40.86,-0.00012099,-0.0030482,0.43218
27121,9.0011,2.2727,0.1,0.00036265,3624,0.00036343,3647.3,-0.00011574,47.033,-0.000122,-0.0024849,0.4247
27122,9.0929,2.1818,0.1,0.00036028,3600.3,0.000361,3621.8,-0.00011527,43.275,-0.00012103,-0.0027574,0.43256
27123,9.0011,2.4545,0.1,0.00036248,3622.3,0.00036329,3646.5,-0.00011553,48.838,-0.00012203,-0.0022613,0.42497
27124,9.0929,2.3636,0.1,0.0003601,3598.5,0.00036085,3620.9,-0.00011505,45.232,-0.00012107,-0.0025211,0.43286
27125,9.0011,2.6364,0.1,0.00036236,3621.1,0.00036319,3645.9,-0.00011538,50.139,-0.00012205,-0.0020996,0.42516
27126,9.0929,2.5455,0.1,0.00035996,3597.1,0.00036073,3620.2,-0.00011488,46.715,-0.00012109,-0.002342,0.43309
27127,9.0011,2.8182,0.1,0.00036229,3620.4,0.00036313,3645.6,-0.00011529,50.923,-0.00012207,-0.0020012,0.42527
27128,9.0929,2.7273,0.1,0.00035986,3596.2,0.00036065,3619.8,-0.00011476,47.711,-0.00012111,-0.00222,0.43324
27129,9.0011,3,0.1,0.00036226,3620.1,0.00036311,3645.4,-0.00011526,51.186,-0.00012207,-0.0019683,0.42531
27130,9.0929,2.9091,0.1,0.00035982,3595.7,0.00036061,3619.5,-0.0001147,48.211,-0.00012112,-0.0021586,0.43332
27131,9.0011,3.1818,0.1,0.00036229,3620.4,0.00036313,3645.6,-0.00011529,50.923,-0.00012207,-0.0020012,0.42527
27132,9.0929,3.0909,0.1,0.00035982,3595.7,0.00036061,3619.5,-0.0001147,48.211,-0.00012112,-0.0021586,0.43332
27133,9.0011,3.3636,0.1,0.00036236,3621.1,0.00036319,3645.9,-0.00011538,50.139,-0.00012205,-0.0020995,0.42516
27134,9.0929,3.2727,0.1,0.00035986,3596.2,0.00036065,3619.8,-0.00011476,47.711,-0.00012111,-0.0022201,0.43324
27135,9.0011,3.5455,0.1,0.00036248,3622.3,0.00036329,3646.5,-0.00011553,48.838,-0.00012203,-0.0022611,0.42497
27136,9.0929,3.4545,0.1,0.00035996,3597.1,0.00036073,3620.2,-0.00011488,46.715,-0.00012109,-0.0023417,0.43309
27137,9.0011,3.7273,0.1,0.00036265,3624,0.00036343,3647.3,-0.00011574,47.033,-0.000122,-0.0024847,0.4247
27138,9.0929,3.6364,0.1,0.0003601,3598.5,0.00036085,3620.9,-0.00011505,45.232,-0.00012107,-0.0025208,0.43286
27139,9.0011,3.9091,0.1,0.00036287,3626.2,0.00036361,3648.3,-0.000116,44.739,-0.00012196,-0.002769,0.42436
27140,9.0929,3.8182,0.1,0.00036028,3600.3,0.000361,3621.8,-0.00011527,43.275,-0.00012103,-0.002757,0.43256
27141,9.0011,4.0909,0.1,0.00036313,3628.8,0.00036383,3649.6,-0.00011632,41.975,-0.00012191,-0.0031108,0.42394
27142,9.0929,4,0.1,0.00036051,3602.6,0.00036119,3622.9,-0.00011555,40.86,-0.00012099,-0.0030475,0.43218
27143,9.0011,4.2727,0.1,0.00036343,3631.8,0.00036408,3651,-0.00011669,38.764,-0.00012185,-0.0035075,0.42344
27144,9.0929,4.1818,0.1,0.00036078,3605.3,0.00036141,3624.2,-0.00011588,38.009,-0.00012094,-0.0033878,0.43172
27145,9.0011,4.4545,0.1,0.00036378,3635.2,0.00036436,3652.7,-0.00011711,35.132,-0.00012178,-0.0039607,0.42286
27146,9.0929,4.3636,0.1,0.00036109,3608.4,0.00036167,3625.7,-0.00011625,34.744,-0.00012088,-0.0037761,0.43119
27147,9.0011,4.6364,0.1,0.00036416,3639.1,0.00036468,3654.5,-0.00011757,31.108,-0.00012171,-0.0044676,0.42221
27148,9.0929,4.5455,0.1,0.00036144,3611.9,0.00036196,3627.3,-0.00011667,31.092,-0.00012081,-0.0042156,0.43058
27149,9.0011,4.8182,0.1,0.00036457,3643.2,0.00036502,3656.5,-0.00011807,26.725,-0.00012163,-0.005057,0.42148
27150,9.0929,4.7273,0.1,0.00036182,3615.7,0.00036227,3629.2,-0.00011714,27.082,-0.00012074,-0.0046952,0.42989
27151,9.0011,5,0.1,0.00036502,3647.7,0.00036539,3658.6,-0.00011862,22.014,-0.00012155,-0.0056735,0.42068
27152,9.0929,4.9091,0.1,0.00036224,3619.9,0.00036262,3631.2,-0.00011764,22.745,-0.00012066,-0.0052766,0.42913
27153,9.0011,5.1818,0.1,0.0003655,3652.4,0.00036578,3660.9,-0.00011919,17.013,-0.00012146,-0.0067208,0.41979
27154,9.0929,5.0909,0.1,0.00036268,3624.3,0.00036298,3633.3,-0.00011817,18.116,-0.00012058,-0.0057921,0.42829
27155,9.0011,5.3636,0.1,0.000366,3657.5,0.0003662,3663.3,-0.0001198,11.757,-0.00012136,-0.0070158,0.41883
27156,9.0929,5.2727,0.1,0.00036315,3629,0.00036337,3635.6,-0.00011873,13.226,-0.00012049,-0.0071673,0.42737
27157,9.0011,5.5455,0.1,0.00036653,3662.8,0.00036663,3665.9,-0.00012043,6.2543,-0.00012127,-0.015045,0.41779
27158,9.0929,5.4545,0.1,0.00036364,3633.9,0.00036378,3638,-0.00011932,8.1111,-0.0001204,-0.0063361,0.42637
27159,9.0011,5.7273,0.1,0.00036714,3668.9,0.00036714,3668.9,-0.00012112,0.33105,-0.00012119,-0.20826,0.41667
27160,9.0929,5.6364,0.1,0.00036416,3639.1,0.00036421,3640.5,-0.00011994,2.7513,-0.00012031,-0.024586,0.42529
27161,9.0929,5.8182,0.1,0.00036483,3645.8,0.00036477,3644,-0.00012021,0.040321,-0.0001207,-3.6863,0.42414
27162,9.0011,5.9091,0.1,0.0003673,3670.5,0.00036726,3669.1,-0.00012107,0.019139,-0.00012145,-2.8625,0.41547
27163,9.1848,0.27273,0.1,0.00036184,3615.9,0.00036183,3615.5,-0.00011935,0.043614,-0.0001195,-1.0167,0.43285
27164,9.2766,0.18182,0.1,0.00035953,3592.8,0.00035945,3590.6,-0.00011842,0.027791,-0.00011902,-4.4871,0.44045
27165,9.1848,0.090909,0.1,0.00036195,3617,0.00036189,3615.3,-0.00011928,0.012394,-0.00011972,-3.3433,0.43166
27166,9.1848,0.45455,0.1,0.00036127,3610.2,0.00036135,3612.6,-0.00011883,4.6242,-0.00011945,-0.012912,0.43396
27167,9.2766,0.36364,0.1,0.0003589,3586.5,0.00035892,3587.2,-0.00011832,1.4302,-0.00011851,-0.022257,0.44159
27168,9.1848,0.63636,0.1,0.00036079,3605.4,0.00036095,3610.2,-0.00011826,9.5963,-0.00011954,-0.0062323,0.43499
27169,9.2766,0.54545,0.1,0.00035842,3581.7,0.00035852,3584.8,-0.00011775,6.2657,-0.00011859,-0.0054879,0.44266
27170,9.1848,0.81818,0.1,0.00036033,3600.8,0.00036057,3607.9,-0.00011771,14.343,-0.00011962,-0.0061674,0.43594
27171,9.2766,0.72727,0.1,0.00035797,3577.2,0.00035815,3582.6,-0.00011722,10.876,-0.00011867,-0.0064805,0.44364
27172,9.1848,1,0.1,0.00035989,3596.4,0.00036021,3605.8,-0.00011719,18.86,-0.0001197,-0.0053645,0.43682
27173,9.2766,0.90909,0.1,0.00035754,3572.9,0.00035779,3580.5,-0.00011671,15.282,-0.00011874,-0.0054295,0.44455
27174,9.1848,1.1818,0.1,0.00035948,3592.3,0.00035987,3603.8,-0.0001167,23.116,-0.00011977,-0.0048977,0.43762
27175,9.2766,1.0909,0.1,0.00035713,3568.9,0.00035746,3578.5,-0.00011623,19.457,-0.00011882,-0.0050679,0.44538
27176,9.1848,1.3636,0.1,0.0003591,3588.5,0.00035955,3602,-0.00011624,27.077,-0.00011984,-0.0044321,0.43834
27177,9.2766,1.2727,0.1,0.00035675,3565.1,0.00035715,3576.7,-0.00011577,23.368,-0.00011888,-0.0046201,0.44614
27178,9.1848,1.5455,0.1,0.00035875,3585.1,0.00035927,3600.3,-0.00011582,30.715,-0.00011991,-0.0040227,0.43898
27179,9.2766,1.4545,0.1,0.0003564,3561.6,0.00035686,3575,-0.00011536,26.986,-0.00011895,-0.0042422,0.44682
27180,9.1848,1.7273,0.1,0.00035844,3581.9,0.00035901,3598.8,-0.00011544,34,-0.00011997,-0.0036492,0.43955
27181,9.2766,1.6364,0.1,0.00035609,3558.4,0.00035659,3573.5,-0.00011498,30.283,-0.00011901,-0.0038857,0.44742
27182,9.1848,1.9091,0.1,0.00035816,3579.2,0.00035878,3597.5,-0.00011511,36.905,-0.00012002,-0.0033182,0.44004
27183,9.2766,1.8182,0.1,0.0003558,3555.6,0.00035636,3572.1,-0.00011463,33.233,-0.00011906,-0.0035656,0.44795
27184,9.1848,2.0909,0.1,0.00035792,3576.8,0.00035858,3596.3,-0.00011482,39.407,-0.00012006,-0.0030297,0.44046
27185,9.2766,2,0.1,0.00035556,3553.1,0.00035615,3570.9,-0.00011434,35.81,-0.0001191,-0.0032812,0.4484
27186,9.1848,2.2727,0.1,0.00035773,3574.8,0.00035841,3595.4,-0.00011458,41.484,-0.0001201,-0.0027876,0.4408
27187,9.2766,2.1818,0.1,0.00035535,3551,0.00035598,3569.9,-0.00011409,37.993,-0.00011914,-0.0030355,0.44878
27188,9.1848,2.4545,0.1,0.00035757,3573.3,0.00035829,3594.6,-0.00011439,43.118,-0.00012013,-0.002596,0.44106
27189,9.2766,2.3636,0.1,0.00035518,3549.3,0.00035584,3569.1,-0.00011388,39.763,-0.00011917,-0.0028338,0.44908
27190,9.1848,2.6364,0.1,0.00035746,3572.1,0.00035819,3594.1,-0.00011425,44.296,-0.00012015,-0.0024568,0.44125
27191,9.2766,2.5455,0.1,0.00035505,3548.1,0.00035573,3568.4,-0.00011373,41.105,-0.0001192,-0.0026802,0.4493
27192,9.1848,2.8182,0.1,0.00035739,3571.5,0.00035814,3593.7,-0.00011417,45.007,-0.00012016,-0.0023718,0.44136
27193,9.2766,2.7273,0.1,0.00035497,3547.2,0.00035566,3568,-0.00011362,42.006,-0.00011921,-0.0025753,0.44945
27194,9.1848,3,0.1,0.00035737,3571.2,0.00035812,3593.6,-0.00011414,45.245,-0.00012017,-0.0023433,0.4414
27195,9.2766,2.9091,0.1,0.00035492,3546.8,0.00035563,3567.8,-0.00011357,42.458,-0.00011922,-0.002522,0.44953
27196,9.1848,3.1818,0.1,0.00035739,3571.5,0.00035814,3593.7,-0.00011417,45.007,-0.00012016,-0.0023719,0.44136
27197,9.2766,3.0909,0.1,0.00035492,3546.8,0.00035563,3567.8,-0.00011357,42.458,-0.00011922,-0.002522,0.44953
27198,9.1848,3.3636,0.1,0.00035746,3572.1,0.00035819,3594.1,-0.00011425,44.296,-0.00012015,-0.0024567,0.44125
27199,9.2766,3.2727,0.1,0.00035497,3547.2,0.00035566,3568,-0.00011362,42.006,-0.00011921,-0.0025751,0.44945
27200,9.1848,3.5455,0.1,0.00035757,3573.3,0.00035829,3594.6,-0.00011439,43.118,-0.00012013,-0.0025957,0.44106
27201,9.2766,3.4545,0.1,0.00035505,3548.1,0.00035573,3568.4,-0.00011373,41.105,-0.0001192,-0.0026803,0.4493
27202,9.1848,3.7273,0.1,0.00035773,3574.8,0.00035841,3595.4,-0.00011458,41.484,-0.0001201,-0.0027872,0.4408
27203,9.2766,3.6364,0.1,0.00035518,3549.3,0.00035584,3569.1,-0.00011388,39.763,-0.00011917,-0.0028335,0.44908
27204,9.1848,3.9091,0.1,0.00035792,3576.8,0.00035858,3596.3,-0.00011482,39.407,-0.00012006,-0.0030292,0.44046
27205,9.2766,3.8182,0.1,0.00035535,3551,0.00035598,3569.9,-0.00011409,37.993,-0.00011914,-0.0030351,0.44878
27206,9.1848,4.0909,0.1,0.00035816,3579.2,0.00035878,3597.5,-0.00011511,36.905,-0.00012002,-0.0033177,0.44004
27207,9.2766,4,0.1,0.00035556,3553.1,0.00035615,3570.9,-0.00011434,35.81,-0.0001191,-0.0032806,0.4484
27208,9.1848,4.2727,0.1,0.00035844,3581.9,0.00035901,3598.8,-0.00011544,34,-0.00011997,-0.0036488,0.43955
27209,9.2766,4.1818,0.1,0.0003558,3555.6,0.00035636,3572.1,-0.00011463,33.233,-0.00011906,-0.0035651,0.44795
27210,9.1848,4.4545,0.1,0.00035875,3585.1,0.00035927,3600.3,-0.00011582,30.715,-0.00011991,-0.0040219,0.43898
27211,9.2766,4.3636,0.1,0.00035609,3558.4,0.00035659,3573.5,-0.00011498,30.283,-0.00011901,-0.0038851,0.44742
27212,9.1848,4.6364,0.1,0.0003591,3588.5,0.00035955,3602,-0.00011624,27.077,-0.00011984,-0.0044313,0.43834
27213,9.2766,4.5455,0.1,0.0003564,3561.6,0.00035686,3575,-0.00011536,26.986,-0.00011895,-0.0042414,0.44682
27214,9.1848,4.8182,0.1,0.00035948,3592.3,0.00035987,3603.8,-0.0001167,23.116,-0.00011977,-0.0048971,0.43761
27215,9.2766,4.7273,0.1,0.00035675,3565.1,0.00035715,3576.7,-0.00011577,23.368,-0.00011888,-0.0046194,0.44614
27216,9.1848,5,0.1,0.00035989,3596.4,0.00036021,3605.8,-0.00011719,18.86,-0.0001197,-0.0053636,0.43682
27217,9.2766,4.9091,0.1,0.00035713,3568.9,0.00035746,3578.5,-0.00011623,19.457,-0.00011882,-0.0050673,0.44538
27218,9.1848,5.1818,0.1,0.00036033,3600.8,0.00036057,3607.9,-0.00011771,14.343,-0.00011962,-0.0061661,0.43594
27219,9.2766,5.0909,0.1,0.00035754,3572.9,0.00035779,3580.5,-0.00011671,15.282,-0.00011874,-0.0054281,0.44455
27220,9.1848,5.3636,0.1,0.00036079,3605.4,0.00036095,3610.2,-0.00011826,9.5963,-0.00011954,-0.0062315,0.43499
27221,9.2766,5.2727,0.1,0.00035797,3577.2,0.00035815,3582.6,-0.00011722,10.876,-0.00011867,-0.0064794,0.44364
27222,9.1848,5.5455,0.1,0.00036127,3610.2,0.00036135,3612.6,-0.00011883,4.6243,-0.00011945,-0.012911,0.43396
27223,9.2766,5.4545,0.1,0.00035842,3581.7,0.00035852,3584.8,-0.00011775,6.2657,-0.00011859,-0.0054871,0.44266
27224,9.1848,5.7273,0.1,0.00036184,3615.9,0.00036183,3615.5,-0.00011935,0.043617,-0.0001195,-1.0166,0.43285
27225,9.2766,5.6364,0.1,0.0003589,3586.5,0.00035892,3587.2,-0.00011832,1.4302,-0.00011851,-0.022256,0.44159
27226,9.2766,5.8182,0.1,0.00035953,3592.8,0.00035945,3590.6,-0.00011842,0.027792,-0.00011902,-4.4871,0.44045
27227,9.1848,5.9091,0.1,0.00036195,3617,0.00036189,3615.3,-0.00011928,0.012395,-0.00011972,-3.3433,0.43166
27228,9.3685,0.27273,0.1,0.00035657,3563.2,0.00035653,3562.2,-0.00011757,0.0129,-0.00011784,-2.0202,0.44928
27229,9.4603,0.18182,0.1,0.00035424,3540,0.00035415,3537.4,-0.00011664,0.01987,-0.00011734,-5.2479,0.457
27230,9.3685,0.090909,0.1,0.00035662,3563.8,0.00035656,3561.9,-0.0001175,0.0081316,-0.000118,-3.7998,0.4481
27231,9.3685,0.45455,0.1,0.00035604,3557.9,0.00035609,3559.5,-0.00011723,3.0875,-0.00011765,-0.010918,0.45037
27232,9.4603,0.36364,0.1,0.00035365,3534.1,0.00035365,3534.2,-0.00011669,0.19367,-0.00011672,-0.031044,0.45813
27233,9.3685,0.63636,0.1,0.00035559,3553.5,0.00035572,3557.3,-0.00011671,7.5613,-0.00011772,-0.0055664,0.45139
27234,9.4603,0.54545,0.1,0.00035321,3529.7,0.00035329,3531.9,-0.00011618,4.5243,-0.00011678,-0.0047794,0.45918
27235,9.3685,0.81818,0.1,0.00035517,3549.3,0.00035537,3555.2,-0.00011622,11.83,-0.00011779,-0.0057056,0.45233
27236,9.4603,0.72727,0.1,0.0003528,3525.6,0.00035295,3529.9,-0.0001157,8.6588,-0.00011685,-0.0059196,0.46016
27237,9.3685,1,0.1,0.00035478,3545.3,0.00035504,3553.2,-0.00011575,15.893,-0.00011786,-0.0051194,0.4532
27238,9.4603,0.90909,0.1,0.00035241,3521.7,0.00035262,3527.9,-0.00011524,12.612,-0.00011692,-0.005153,0.46106
27239,9.3685,1.1818,0.1,0.0003544,3541.6,0.00035473,3551.4,-0.0001153,19.722,-0.00011793,-0.0047834,0.45399
27240,9.4603,1.0909,0.1,0.00035204,3518,0.00035232,3526.1,-0.00011481,16.359,-0.00011698,-0.0049217,0.46188
27241,9.3685,1.3636,0.1,0.00035405,3538.1,0.00035444,3549.7,-0.00011489,23.29,-0.00011799,-0.0044254,0.4547
27242,9.4603,1.2727,0.1,0.0003517,3514.5,0.00035203,3524.4,-0.0001144,19.872,-0.00011704,-0.004588,0.46263
27243,9.3685,1.5455,0.1,0.00035374,3534.9,0.00035418,3548.1,-0.00011451,26.567,-0.00011805,-0.0041011,0.45534
27244,9.4603,1.4545,0.1,0.00035138,3511.3,0.00035176,3522.9,-0.00011402,23.124,-0.0001171,-0.0042968,0.4633
27245,9.3685,1.7273,0.1,0.00035345,3532.1,0.00035394,3546.7,-0.00011417,29.528,-0.0001181,-0.0037982,0.4559
27246,9.4603,1.6364,0.1,0.00035109,3508.5,0.00035152,3521.4,-0.00011368,26.09,-0.00011715,-0.0040124,0.4639
27247,9.3685,1.9091,0.1,0.0003532,3529.5,0.00035373,3545.5,-0.00011387,32.149,-0.00011814,-0.0035248,0.45639
27248,9.4603,1.8182,0.1,0.00035083,3505.9,0.00035131,3520.2,-0.00011337,28.746,-0.0001172,-0.0037513,0.46442
27249,9.3685,2.0909,0.1,0.00035298,3527.4,0.00035355,3544.4,-0.0001136,34.407,-0.00011818,-0.0032831,0.4568
27250,9.4603,2,0.1,0.00035061,3503.6,0.00035112,3519.1,-0.0001131,31.068,-0.00011724,-0.0035153,0.46487
27251,9.3685,2.2727,0.1,0.0003528,3525.6,0.0003534,3543.6,-0.00011339,36.283,-0.00011822,-0.0030777,0.45714
27252,9.4603,2.1818,0.1,0.00035042,3501.7,0.00035097,3518.1,-0.00011287,33.036,-0.00011727,-0.0033084,0.46524
27253,9.3685,2.4545,0.1,0.00035266,3524.2,0.00035329,3542.9,-0.00011322,37.76,-0.00011824,-0.002914,0.4574
27254,9.4603,2.3636,0.1,0.00035026,3500.2,0.00035084,3517.4,-0.00011269,34.633,-0.0001173,-0.0031368,0.46554
27255,9.3685,2.6364,0.1,0.00035256,3523.1,0.0003532,3542.4,-0.00011309,38.824,-0.00011826,-0.0027947,0.45759
27256,9.4603,2.5455,0.1,0.00035014,3499,0.00035074,3516.8,-0.00011255,35.844,-0.00011732,-0.0030054,0.46576
27257,9.3685,2.8182,0.1,0.00035249,3522.5,0.00035315,3542.1,-0.00011302,39.467,-0.00011827,-0.0027214,0.4577
27258,9.4603,2.7273,0.1,0.00035007,3498.2,0.00035068,3516.4,-0.00011245,36.657,-0.00011733,-0.0029152,0.46591
27259,9.3685,3,0.1,0.00035247,3522.3,0.00035313,3542,-0.000113,39.682,-0.00011828,-0.0026966,0.45773
27260,9.4603,2.9091,0.1,0.00035003,3497.9,0.00035064,3516.2,-0.00011241,37.066,-0.00011734,-0.0028689,0.46598
27261,9.3685,3.1818,0.1,0.00035249,3522.5,0.00035315,3542.1,-0.00011302,39.467,-0.00011827,-0.0027211,0.4577
27262,9.4603,3.0909,0.1,0.00035003,3497.9,0.00035064,3516.2,-0.00011241,37.066,-0.00011734,-0.0028689,0.46598
27263,9.3685,3.3636,0.1,0.00035256,3523.1,0.0003532,3542.4,-0.00011309,38.824,-0.00011826,-0.0027946,0.45759
27264,9.4603,3.2727,0.1,0.00035007,3498.2,0.00035068,3516.4,-0.00011245,36.657,-0.00011733,-0.0029148,0.46591
27265,9.3685,3.5455,0.1,0.00035266,3524.2,0.00035329,3542.9,-0.00011322,37.76,-0.00011824,-0.0029141,0.4574
27266,9.4603,3.4545,0.1,0.00035014,3499,0.00035074,3516.8,-0.00011255,35.844,-0.00011732,-0.0030055,0.46576
27267,9.3685,3.7273,0.1,0.0003528,3525.6,0.0003534,3543.6,-0.00011339,36.283,-0.00011822,-0.0030775,0.45714
27268,9.4603,3.6364,0.1,0.00035026,3500.2,0.00035084,3517.4,-0.00011269,34.633,-0.0001173,-0.0031365,0.46554
27269,9.3685,3.9091,0.1,0.00035298,3527.4,0.00035355,3544.4,-0.0001136,34.407,-0.00011818,-0.0032826,0.4568
27270,9.4603,3.8182,0.1,0.00035042,3501.7,0.00035097,3518.1,-0.00011287,33.036,-0.00011727,-0.0033081,0.46524
27271,9.3685,4.0909,0.1,0.0003532,3529.5,0.00035373,3545.5,-0.00011387,32.149,-0.00011814,-0.0035242,0.45639
27272,9.4603,4,0.1,0.00035061,3503.6,0.00035112,3519.1,-0.0001131,31.068,-0.00011724,-0.003515,0.46487
27273,9.3685,4.2727,0.1,0.00035345,3532.1,0.00035394,3546.7,-0.00011417,29.528,-0.0001181,-0.0037976,0.4559
27274,9.4603,4.1818,0.1,0.00035083,3505.9,0.00035131,3520.2,-0.00011337,28.746,-0.0001172,-0.0037509,0.46442
27275,9.3685,4.4545,0.1,0.00035374,3534.9,0.00035418,3548.1,-0.00011451,26.567,-0.00011805,-0.0041005,0.45534
27276,9.4603,4.3636,0.1,0.00035109,3508.5,0.00035152,3521.4,-0.00011368,26.09,-0.00011715,-0.0040119,0.4639
27277,9.3685,4.6364,0.1,0.00035405,3538.1,0.00035444,3549.7,-0.00011489,23.29,-0.00011799,-0.0044247,0.4547
27278,9.4603,4.5455,0.1,0.00035138,3511.3,0.00035176,3522.8,-0.00011402,23.124,-0.0001171,-0.0042962,0.4633
27279,9.3685,4.8182,0.1,0.0003544,3541.6,0.00035473,3551.4,-0.0001153,19.722,-0.00011793,-0.0047827,0.45399
27280,9.4603,4.7273,0.1,0.0003517,3514.5,0.00035203,3524.4,-0.0001144,19.872,-0.00011704,-0.0045875,0.46263
27281,9.3685,5,0.1,0.00035478,3545.3,0.00035504,3553.2,-0.00011575,15.893,-0.00011786,-0.0051184,0.4532
27282,9.4603,4.9091,0.1,0.00035204,3518,0.00035232,3526.1,-0.00011481,16.359,-0.00011698,-0.0049212,0.46188
27283,9.3685,5.1818,0.1,0.00035517,3549.3,0.00035537,3555.2,-0.00011622,11.83,-0.00011779,-0.0057043,0.45233
27284,9.4603,5.0909,0.1,0.00035241,3521.7,0.00035262,3527.9,-0.00011524,12.612,-0.00011692,-0.0051517,0.46106
27285,9.3685,5.3636,0.1,0.00035559,3553.5,0.00035572,3557.3,-0.00011671,7.5613,-0.00011772,-0.0055654,0.45139
27286,9.4603,5.2727,0.1,0.0003528,3525.6,0.00035295,3529.9,-0.0001157,8.6588,-0.00011685,-0.0059184,0.46016
27287,9.3685,5.5455,0.1,0.00035604,3557.9,0.00035609,3559.5,-0.00011723,3.0875,-0.00011765,-0.010917,0.45037
27288,9.4603,5.4545,0.1,0.00035321,3529.7,0.00035329,3531.9,-0.00011618,4.5243,-0.00011678,-0.0047786,0.45918
27289,9.3685,5.7273,0.1,0.00035657,3563.2,0.00035653,3562.2,-0.00011757,0.012901,-0.00011784,-2.0202,0.44928
27290,9.4603,5.6364,0.1,0.00035365,3534.1,0.00035365,3534.2,-0.00011669,0.19371,-0.00011672,-0.031041,0.45813
27291,9.4603,5.8182,0.1,0.00035424,3540,0.00035415,3537.4,-0.00011664,0.019871,-0.00011734,-5.2479,0.457
27292,9.3685,5.9091,0.1,0.00035662,3563.8,0.00035656,3561.9,-0.0001175,0.0081328,-0.000118,-3.7998,0.4481
27293,9.5522,0.27273,0.1,0.00035131,3510.7,0.00035126,3509.2,-0.00011579,0.004382,-0.00011618,-2.9894,0.46594
27294,9.644,0.18182,0.1,0.00034898,3487.4,0.00034888,3484.4,-0.00011487,0.014546,-0.00011566,-5.9697,0.4738
27295,9.5522,0.090909,0.1,0.00035132,3510.8,0.00035125,3508.6,-0.00011573,0.0053676,-0.00011629,-4.2328,0.46478
27296,9.5522,0.45455,0.1,0.00035082,3505.8,0.00035085,3506.6,-0.00011563,1.6351,-0.00011585,-0.0090705,0.46702
27297,9.644,0.36364,0.1,0.00034842,3481.8,0.00034841,3481.3,-0.00011493,-0.011257,-0.00011506,-1.0048,0.47491
27298,9.5522,0.63636,0.1,0.00035042,3501.7,0.00035051,3504.6,-0.00011517,5.6389,-0.00011592,-0.0050701,0.46803
27299,9.644,0.54545,0.1,0.00034802,3477.8,0.00034807,3479.3,-0.00011461,2.8765,-0.00011499,-0.00431,0.47595
27300,9.5522,0.81818,0.1,0.00035003,3497.9,0.00035019,3502.6,-0.00011472,9.457,-0.00011598,-0.0053681,0.46896
27301,9.644,0.72727,0.1,0.00034765,3474.1,0.00034776,3477.4,-0.00011418,6.5618,-0.00011505,-0.0055266,0.47691
27302,9.5522,1,0.1,0.00034967,3494.3,0.00034989,3500.8,-0.0001143,13.093,-0.00011604,-0.0049605,0.46982
27303,9.644,0.90909,0.1,0.00034729,3470.5,0.00034746,3475.6,-0.00011376,10.088,-0.00011511,-0.0049819,0.4778
27304,9.5522,1.1818,0.1,0.00034933,3490.9,0.00034961,3499.1,-0.0001139,16.523,-0.0001161,-0.0047303,0.4706
27305,9.644,1.0909,0.1,0.00034696,3467.2,0.00034719,3473.9,-0.00011337,13.432,-0.00011516,-0.0048453,0.47862
27306,9.5522,1.3636,0.1,0.00034902,3487.7,0.00034935,3497.6,-0.00011353,19.72,-0.00011615,-0.0044616,0.47131
27307,9.644,1.2727,0.1,0.00034665,3464.1,0.00034693,3472.3,-0.00011301,16.571,-0.00011521,-0.004601,0.47936
27308,9.5522,1.5455,0.1,0.00034873,3484.9,0.00034911,3496.1,-0.00011318,22.661,-0.0001162,-0.0042088,0.47194
27309,9.644,1.4545,0.1,0.00034636,3461.2,0.00034669,3470.9,-0.00011267,19.481,-0.00011526,-0.0043793,0.48002
27310,9.5522,1.7273,0.1,0.00034847,3482.3,0.00034889,3494.8,-0.00011288,25.321,-0.00011625,-0.0039652,0.47249
27311,9.644,1.6364,0.1,0.0003461,3458.6,0.00034647,3469.6,-0.00011236,22.138,-0.00011531,-0.0041538,0.48061
27312,9.5522,1.9091,0.1,0.00034824,3480,0.0003487,3493.7,-0.0001126,27.677,-0.00011629,-0.0037406,0.47297
27313,9.644,1.8182,0.1,0.00034586,3456.2,0.00034627,3468.4,-0.00011208,24.519,-0.00011535,-0.0039416,0.48113
27314,9.5522,2.0909,0.1,0.00034804,3478,0.00034853,3492.7,-0.00011237,29.708,-0.00011632,-0.0035389,0.47338
27315,9.644,2,0.1,0.00034566,3454.2,0.0003461,3467.4,-0.00011184,26.604,-0.00011538,-0.0037458,0.48157
27316,9.5522,2.2727,0.1,0.00034787,3476.3,0.0003484,3491.9,-0.00011217,31.397,-0.00011635,-0.0033653,0.47371
27317,9.644,2.1818,0.1,0.00034548,3452.5,0.00034596,3466.6,-0.00011164,28.373,-0.00011541,-0.0035713,0.48194
27318,9.5522,2.4545,0.1,0.00034775,3475.1,0.00034829,3491.3,-0.00011202,32.728,-0.00011637,-0.0032257,0.47397
27319,9.644,2.3636,0.1,0.00034534,3451.1,0.00034584,3465.9,-0.00011147,29.809,-0.00011544,-0.003425,0.48223
27320,9.5522,2.6364,0.1,0.00034765,3474.1,0.00034821,3490.8,-0.00011191,33.688,-0.00011639,-0.0031232,0.47416
27321,9.644,2.5455,0.1,0.00034524,3450,0.00034575,3465.3,-0.00011134,30.899,-0.00011546,-0.0033122,0.48245
27322,9.5522,2.8182,0.1,0.0003476,3473.6,0.00034817,3490.6,-0.00011184,34.268,-0.0001164,-0.0030598,0.47427
27323,9.644,2.7273,0.1,0.00034517,3449.3,0.00034569,3465,-0.00011126,31.632,-0.00011547,-0.003234,0.4826
27324,9.5522,3,0.1,0.00034758,3473.4,0.00034815,3490.5,-0.00011182,34.461,-0.0001164,-0.0030383,0.47431
27325,9.644,2.9091,0.1,0.00034513,3448.9,0.00034566,3464.8,-0.00011122,32,-0.00011547,-0.003194,0.48267
27326,9.5522,3.1818,0.1,0.0003476,3473.6,0.00034817,3490.6,-0.00011184,34.268,-0.0001164,-0.0030597,0.47427
27327,9.644,3.0909,0.1,0.00034513,3448.9,0.00034566,3464.8,-0.00011122,32,-0.00011547,-0.0031939,0.48267
27328,9.5522,3.3636,0.1,0.00034765,3474.1,0.00034821,3490.8,-0.00011191,33.688,-0.00011639,-0.003123,0.47416
27329,9.644,3.2727,0.1,0.00034517,3449.3,0.00034569,3465,-0.00011126,31.632,-0.00011547,-0.0032339,0.4826
27330,9.5522,3.5455,0.1,0.00034775,3475.1,0.00034829,3491.3,-0.00011202,32.728,-0.00011637,-0.0032254,0.47397
27331,9.644,3.4545,0.1,0.00034524,3450,0.00034575,3465.3,-0.00011134,30.899,-0.00011546,-0.003312,0.48245
27332,9.5522,3.7273,0.1,0.00034787,3476.3,0.0003484,3491.9,-0.00011217,31.397,-0.00011635,-0.003365,0.47371
27333,9.644,3.6364,0.1,0.00034534,3451.1,0.00034584,3465.9,-0.00011147,29.809,-0.00011544,-0.0034247,0.48223
27334,9.5522,3.9091,0.1,0.00034804,3478,0.00034853,3492.7,-0.00011237,29.708,-0.00011632,-0.0035387,0.47338
27335,9.644,3.8182,0.1,0.00034548,3452.5,0.00034596,3466.6,-0.00011164,28.373,-0.00011541,-0.0035711,0.48194
27336,9.5522,4.0909,0.1,0.00034824,3480,0.0003487,3493.7,-0.0001126,27.677,-0.00011629,-0.0037405,0.47297
27337,9.644,4,0.1,0.00034566,3454.2,0.0003461,3467.4,-0.00011184,26.604,-0.00011538,-0.0037456,0.48157
27338,9.5522,4.2727,0.1,0.00034847,3482.3,0.00034889,3494.8,-0.00011288,25.321,-0.00011625,-0.0039649,0.47249
27339,9.644,4.1818,0.1,0.00034586,3456.2,0.00034627,3468.4,-0.00011208,24.519,-0.00011535,-0.0039414,0.48113
27340,9.5522,4.4545,0.1,0.00034873,3484.9,0.00034911,3496.1,-0.00011318,22.661,-0.0001162,-0.0042083,0.47194
27341,9.644,4.3636,0.1,0.0003461,3458.6,0.00034647,3469.6,-0.00011236,22.138,-0.00011531,-0.0041534,0.48061
27342,9.5522,4.6364,0.1,0.00034902,3487.7,0.00034935,3497.6,-0.00011353,19.72,-0.00011615,-0.0044611,0.47131
27343,9.644,4.5455,0.1,0.00034636,3461.2,0.00034669,3470.9,-0.00011267,19.481,-0.00011526,-0.0043787,0.48002
27344,9.5522,4.8182,0.1,0.00034933,3490.9,0.00034961,3499.1,-0.0001139,16.523,-0.0001161,-0.0047299,0.4706
27345,9.644,4.7273,0.1,0.00034665,3464.1,0.00034693,3472.3,-0.00011301,16.571,-0.00011521,-0.0046005,0.47936
27346,9.5522,5,0.1,0.00034967,3494.3,0.00034989,3500.8,-0.0001143,13.093,-0.00011604,-0.0049597,0.46982
27347,9.644,4.9091,0.1,0.00034696,3467.2,0.00034719,3473.9,-0.00011337,13.432,-0.00011516,-0.0048447,0.47862
27348,9.5522,5.1818,0.1,0.00035003,3497.9,0.00035019,3502.6,-0.00011472,9.457,-0.00011598,-0.005367,0.46896
27349,9.644,5.0909,0.1,0.00034729,3470.5,0.00034746,3475.6,-0.00011376,10.088,-0.00011511,-0.0049808,0.4778
27350,9.5522,5.3636,0.1,0.00035042,3501.7,0.00035051,3504.6,-0.00011517,5.6389,-0.00011592,-0.0050693,0.46803
27351,9.644,5.2727,0.1,0.00034765,3474.1,0.00034776,3477.4,-0.00011418,6.5618,-0.00011505,-0.0055255,0.47691
27352,9.5522,5.5455,0.1,0.00035082,3505.8,0.00035085,3506.6,-0.00011563,1.6351,-0.00011585,-0.0090697,0.46702
27353,9.644,5.4545,0.1,0.00034802,3477.8,0.00034807,3479.3,-0.00011461,2.8765,-0.00011499,-0.0043093,0.47595
27354,9.5522,5.7273,0.1,0.00035131,3510.7,0.00035126,3509.2,-0.00011579,0.0043831,-0.00011618,-2.9894,0.46594
27355,9.644,5.6364,0.1,0.00034842,3481.8,0.00034841,3481.3,-0.00011493,-0.011255,-0.00011506,-1.0047,0.47491
27356,9.644,5.8182,0.1,0.00034898,3487.4,0.00034888,3484.4,-0.00011487,0.014547,-0.00011566,-5.9697,0.4738
27357,9.5522,5.9091,0.1,0.00035132,3510.8,0.00035125,3508.6,-0.00011573,0.0053682,-0.00011629,-4.2328,0.46478
27358,9.7359,0.27273,0.1,0.00034608,3458.4,0.00034601,3456.5,-0.00011401,0.001208,-0.00011453,-3.9124,0.48284
27359,9.8277,0.18182,0.1,0.00034374,3435.1,0.00034363,3431.7,-0.0001131,0.010803,-0.00011399,-6.6546,0.49082
27360,9.7359,0.090909,0.1,0.00034604,3458,0.00034596,3455.7,-0.00011396,0.0035794,-0.00011458,-4.6434,0.4817
27361,9.7359,0.45455,0.1,0.00034562,3453.9,0.00034563,3454,-0.00011403,0.25873,-0.00011407,-0.0076176,0.48391
27362,9.8277,0.36364,0.1,0.00034322,3429.8,0.00034318,3428.7,-0.00011316,-0.010056,-0.00011344,-2.1249,0.49192
27363,9.7359,0.63636,0.1,0.00034526,3450.2,0.00034532,3452.1,-0.00011362,3.8172,-0.00011412,-0.0048512,0.48491
27364,9.8277,0.54545,0.1,0.00034285,3426.2,0.00034288,3426.8,-0.00011303,1.3125,-0.00011321,-0.0047007,0.49295
27365,9.7359,0.81818,0.1,0.00034491,3446.7,0.00034503,3450.3,-0.00011322,7.2091,-0.00011418,-0.0051851,0.48583
27366,9.8277,0.72727,0.1,0.00034252,3422.8,0.00034259,3425.1,-0.00011265,4.5713,-0.00011326,-0.0054416,0.4939
27367,9.7359,1,0.1,0.00034458,3443.4,0.00034476,3448.6,-0.00011284,10.442,-0.00011423,-0.0048922,0.48668
27368,9.8277,0.90909,0.1,0.00034219,3419.6,0.00034232,3423.4,-0.00011228,7.6923,-0.00011331,-0.0049786,0.49478
27369,9.7359,1.1818,0.1,0.00034427,3440.3,0.0003445,3447.1,-0.00011248,13.496,-0.00011428,-0.0047313,0.48745
27370,9.8277,1.0909,0.1,0.00034189,3416.6,0.00034207,3421.9,-0.00011193,10.657,-0.00011335,-0.004873,0.49559
27371,9.7359,1.3636,0.1,0.00034399,3437.5,0.00034426,3445.6,-0.00011215,16.347,-0.00011432,-0.004528,0.48815
27372,9.8277,1.2727,0.1,0.00034161,3413.7,0.00034184,3420.4,-0.00011161,13.445,-0.0001134,-0.0046818,0.49632
27373,9.7359,1.5455,0.1,0.00034372,3434.9,0.00034404,3444.3,-0.00011184,18.972,-0.00011437,-0.0043298,0.48877
27374,9.8277,1.4545,0.1,0.00034135,3411.1,0.00034162,3419.1,-0.0001113,16.033,-0.00011344,-0.0045062,0.49697
27375,9.7359,1.7273,0.1,0.00034349,3432.5,0.00034385,3443.1,-0.00011157,21.35,-0.00011441,-0.0041333,0.48932
27376,9.8277,1.6364,0.1,0.00034111,3408.8,0.00034142,3417.9,-0.00011103,18.4,-0.00011348,-0.0043232,0.49756
27377,9.7359,1.9091,0.1,0.00034328,3430.4,0.00034367,3442.1,-0.00011132,23.459,-0.00011444,-0.0039481,0.4898
27378,9.8277,1.8182,0.1,0.0003409,3406.6,0.00034124,3416.9,-0.00011078,20.526,-0.00011351,-0.0041477,0.49807
27379,9.7359,2.0909,0.1,0.0003431,3428.6,0.00034352,3441.2,-0.00011111,25.281,-0.00011447,-0.0037784,0.4902
27380,9.8277,2,0.1,0.00034071,3404.8,0.00034109,3415.9,-0.00011056,22.39,-0.00011354,-0.0039831,0.4985
27381,9.7359,2.2727,0.1,0.00034295,3427.2,0.0003434,3440.5,-0.00011093,26.797,-0.0001145,-0.0036304,0.49053
27382,9.8277,2.1818,0.1,0.00034056,3403.2,0.00034096,3415.1,-0.00011038,23.974,-0.00011357,-0.003834,0.49887
27383,9.7359,2.4545,0.1,0.00034283,3426,0.0003433,3439.9,-0.00011079,27.992,-0.00011452,-0.0035104,0.49078
27384,9.8277,2.3636,0.1,0.00034043,3402,0.00034085,3414.5,-0.00011023,25.262,-0.00011359,-0.0037076,0.49916
27385,9.7359,2.6364,0.1,0.00034275,3425.1,0.00034323,3439.5,-0.00011069,28.855,-0.00011453,-0.0034216,0.49097
27386,9.8277,2.5455,0.1,0.00034033,3401,0.00034077,3414,-0.00011011,26.241,-0.00011361,-0.0036093,0.49938
27387,9.7359,2.8182,0.1,0.0003427,3424.6,0.00034319,3439.2,-0.00011063,29.377,-0.00011454,-0.0033665,0.49108
27388,9.8277,2.7273,0.1,0.00034027,3400.3,0.00034072,3413.7,-0.00011004,26.899,-0.00011362,-0.0035409,0.49952
27389,9.7359,3,0.1,0.00034268,3424.5,0.00034318,3439.1,-0.00011061,29.551,-0.00011455,-0.0033479,0.49111
27390,9.8277,2.9091,0.1,0.00034024,3400,0.00034069,3413.6,-0.00011,27.23,-0.00011362,-0.0035055,0.49959
27391,9.7359,3.1818,0.1,0.0003427,3424.6,0.00034319,3439.2,-0.00011063,29.377,-0.00011454,-0.0033664,0.49108
27392,9.8277,3.0909,0.1,0.00034024,3400,0.00034069,3413.6,-0.00011,27.23,-0.00011362,-0.0035055,0.49959
27393,9.7359,3.3636,0.1,0.00034275,3425.1,0.00034323,3439.5,-0.00011069,28.855,-0.00011453,-0.0034214,0.49097
27394,9.8277,3.2727,0.1,0.00034027,3400.3,0.00034072,3413.7,-0.00011004,26.899,-0.00011362,-0.0035407,0.49952
27395,9.7359,3.5455,0.1,0.00034283,3426,0.0003433,3439.9,-0.00011079,27.992,-0.00011452,-0.0035102,0.49078
27396,9.8277,3.4545,0.1,0.00034033,3401,0.00034077,3414,-0.00011011,26.241,-0.00011361,-0.0036093,0.49938
27397,9.7359,3.7273,0.1,0.00034295,3427.2,0.0003434,3440.5,-0.00011093,26.797,-0.0001145,-0.0036303,0.49053
27398,9.8277,3.6364,0.1,0.00034043,3402,0.00034085,3414.5,-0.00011023,25.262,-0.00011359,-0.0037073,0.49916
27399,9.7359,3.9091,0.1,0.0003431,3428.6,0.00034352,3441.2,-0.00011111,25.281,-0.00011447,-0.0037782,0.4902
27400,9.8277,3.8182,0.1,0.00034056,3403.2,0.00034096,3415.1,-0.00011038,23.974,-0.00011357,-0.0038336,0.49887
27401,9.7359,4.0909,0.1,0.00034328,3430.4,0.00034367,3442.1,-0.00011132,23.459,-0.00011444,-0.0039478,0.4898
27402,9.8277,4,0.1,0.00034071,3404.8,0.00034109,3415.9,-0.00011056,22.39,-0.00011354,-0.0039828,0.4985
27403,9.7359,4.2727,0.1,0.00034349,3432.5,0.00034385,3443.1,-0.00011157,21.35,-0.00011441,-0.0041329,0.48932
27404,9.8277,4.1818,0.1,0.0003409,3406.6,0.00034124,3416.9,-0.00011078,20.526,-0.00011351,-0.0041473,0.49807
27405,9.7359,4.4545,0.1,0.00034372,3434.9,0.00034404,3444.3,-0.00011184,18.972,-0.00011437,-0.0043293,0.48877
27406,9.8277,4.3636,0.1,0.00034111,3408.8,0.00034142,3417.9,-0.00011103,18.4,-0.00011348,-0.0043228,0.49756
27407,9.7359,4.6364,0.1,0.00034399,3437.5,0.00034426,3445.6,-0.00011215,16.347,-0.00011432,-0.0045274,0.48815
27408,9.8277,4.5455,0.1,0.00034135,3411.1,0.00034162,3419.1,-0.0001113,16.033,-0.00011344,-0.0045053,0.49697
27409,9.7359,4.8182,0.1,0.00034427,3440.3,0.0003445,3447.1,-0.00011248,13.496,-0.00011428,-0.0047306,0.48745
27410,9.8277,4.7273,0.1,0.00034161,3413.7,0.00034184,3420.4,-0.00011161,13.445,-0.0001134,-0.0046812,0.49632
27411,9.7359,5,0.1,0.00034458,3443.4,0.00034476,3448.6,-0.00011284,10.442,-0.00011423,-0.0048912,0.48668
27412,9.8277,4.9091,0.1,0.00034189,3416.6,0.00034207,3421.9,-0.00011193,10.657,-0.00011335,-0.0048724,0.49559
27413,9.7359,5.1818,0.1,0.00034491,3446.7,0.00034503,3450.3,-0.00011322,7.2091,-0.00011418,-0.005184,0.48583
27414,9.8277,5.0909,0.1,0.00034219,3419.6,0.00034232,3423.4,-0.00011228,7.6923,-0.00011331,-0.0049775,0.49478
27415,9.7359,5.3636,0.1,0.00034526,3450.2,0.00034532,3452.1,-0.00011362,3.8172,-0.00011412,-0.0048503,0.48491
27416,9.8277,5.2727,0.1,0.00034252,3422.8,0.00034259,3425.1,-0.00011265,4.5713,-0.00011326,-0.0054407,0.4939
27417,9.7359,5.5455,0.1,0.00034562,3453.9,0.00034563,3454,-0.00011403,0.25876,-0.00011407,-0.0076164,0.48391
27418,9.8277,5.4545,0.1,0.00034285,3426.2,0.00034288,3426.8,-0.00011303,1.3125,-0.00011321,-0.0046999,0.49295
27419,9.7359,5.7273,0.1,0.00034608,3458.4,0.00034601,3456.5,-0.00011401,0.0012094,-0.00011453,-3.9123,0.48284
27420,9.8277,5.6364,0.1,0.00034322,3429.8,0.00034318,3428.7,-0.00011316,-0.010054,-0.00011344,-2.1248,0.49192
27421,9.8277,5.8182,0.1,0.00034374,3435.1,0.00034363,3431.7,-0.0001131,0.010804,-0.00011399,-6.6545,0.49082
27422,9.7359,5.9091,0.1,0.00034604,3458,0.00034596,3455.7,-0.00011396,0.0035802,-0.00011458,-4.6433,0.4817
27423,9.9196,0.27273,0.1,0.00034087,3406.3,0.00034079,3403.9,-0.00011225,3.4327e-05,-0.00011289,-4.7907,0.49998
27424,10.011,0.18182,0.1,0.00033852,3382.9,0.0003384,3379.2,-0.00011135,0.0080648,-0.00011232,-7.3051,0.50808
27425,9.9196,0.090909,0.1,0.00034078,3405.4,0.00034069,3402.9,-0.00011221,0.0024132,-0.00011288,-5.0328,0.49885
27426,9.9196,0.45455,0.1,0.00034044,3402.1,0.00034043,3401.6,-0.0001123,-0.0054511,-0.00011243,-1.0513,0.50104
27427,10.011,0.36364,0.1,0.00033803,3378,0.00033797,3376.4,-0.00011139,-0.0079048,-0.00011182,-3.193,0.50917
27428,9.9196,0.63636,0.1,0.00034011,3398.8,0.00034015,3399.8,-0.00011206,2.0849,-0.00011234,-0.0054982,0.50202
27429,10.011,0.54545,0.1,0.0003377,3374.7,0.0003377,3374.6,-0.00011143,0.012455,-0.00011146,-0.19641,0.51018
27430,9.9196,0.81818,0.1,0.0003398,3395.6,0.00033988,3398.2,-0.00011171,5.0716,-0.00011239,-0.0053319,0.50293
27431,10.011,0.72727,0.1,0.0003374,3371.6,0.00033744,3373,-0.00011112,2.674,-0.00011147,-0.0061907,0.51112
27432,9.9196,1,0.1,0.0003395,3392.7,0.00033964,3396.6,-0.00011137,7.9233,-0.00011243,-0.0050092,0.50377
27433,10.011,0.90909,0.1,0.00033711,3368.8,0.0003372,3371.5,-0.00011079,5.4098,-0.00011151,-0.0053105,0.51199
27434,9.9196,1.1818,0.1,0.00033923,3389.9,0.0003394,3395.2,-0.00011106,10.622,-0.00011247,-0.0048521,0.50453
27435,10.011,1.0909,0.1,0.00033684,3366,0.00033697,3370,-0.00011049,8.0149,-0.00011155,-0.0050915,0.51278
27436,9.9196,1.3636,0.1,0.00033897,3387.3,0.00033919,3393.9,-0.00011076,13.146,-0.00011251,-0.0046773,0.50522
27437,10.011,1.2727,0.1,0.00033658,3363.5,0.00033676,3368.7,-0.0001102,10.47,-0.00011159,-0.0048864,0.51351
27438,9.9196,1.5455,0.1,0.00033873,3385,0.00033899,3392.7,-0.00011049,15.476,-0.00011255,-0.0045103,0.50583
27439,10.011,1.4545,0.1,0.00033635,3361.2,0.00033656,3367.5,-0.00010993,12.756,-0.00011163,-0.0047193,0.51416
27440,9.9196,1.7273,0.1,0.00033852,3382.9,0.00033881,3391.6,-0.00011024,17.59,-0.00011258,-0.0043442,0.50638
27441,10.011,1.6364,0.1,0.00033614,3359,0.00033639,3366.4,-0.00010968,14.853,-0.00011166,-0.0045554,0.51473
27442,9.9196,1.9091,0.1,0.00033833,3381,0.00033866,3390.7,-0.00011002,19.47,-0.00011261,-0.0041866,0.50685
27443,10.011,1.8182,0.1,0.00033595,3357.1,0.00033623,3365.5,-0.00010946,16.74,-0.00011169,-0.0044007,0.51524
27444,9.9196,2.0909,0.1,0.00033817,3379.4,0.00033852,3389.9,-0.00010983,21.097,-0.00011264,-0.0040408,0.50725
27445,10.011,2,0.1,0.00033578,3355.5,0.00033609,3364.6,-0.00010927,18.399,-0.00011172,-0.0042557,0.51567
27446,9.9196,2.2727,0.1,0.00033803,3378,0.00033841,3389.2,-0.00010967,22.452,-0.00011266,-0.003912,0.50757
27447,10.011,2.1818,0.1,0.00033564,3354.1,0.00033597,3363.9,-0.0001091,19.812,-0.00011174,-0.0041238,0.51603
27448,9.9196,2.4545,0.1,0.00033793,3376.9,0.00033832,3388.6,-0.00010955,23.523,-0.00011268,-0.0038065,0.50783
27449,10.011,2.3636,0.1,0.00033552,3352.9,0.00033587,3363.3,-0.00010897,20.963,-0.00011176,-0.0040114,0.51632
27450,9.9196,2.6364,0.1,0.00033785,3376.2,0.00033826,3388.3,-0.00010946,24.297,-0.00011269,-0.0037282,0.50801
27451,10.011,2.5455,0.1,0.00033544,3352,0.0003358,3362.9,-0.00010887,21.839,-0.00011177,-0.0039233,0.51653
27452,9.9196,2.8182,0.1,0.00033781,3375.7,0.00033822,3388,-0.0001094,24.764,-0.0001127,-0.0036792,0.50812
27453,10.011,2.7273,0.1,0.00033538,3351.5,0.00033575,3362.6,-0.0001088,22.429,-0.00011178,-0.0038617,0.51668
27454,9.9196,3,0.1,0.00033779,3375.6,0.00033821,3388,-0.00010939,24.921,-0.0001127,-0.0036623,0.50815
27455,10.011,2.9091,0.1,0.00033535,3351.2,0.00033573,3362.5,-0.00010876,22.725,-0.00011179,-0.0038297,0.51675
27456,9.9196,3.1818,0.1,0.00033781,3375.7,0.00033822,3388,-0.0001094,24.764,-0.0001127,-0.003679,0.50812
27457,10.011,3.0909,0.1,0.00033535,3351.2,0.00033573,3362.5,-0.00010876,22.725,-0.00011179,-0.0038296,0.51675
27458,9.9196,3.3636,0.1,0.00033785,3376.2,0.00033826,3388.3,-0.00010946,24.297,-0.00011269,-0.0037281,0.50801
27459,10.011,3.2727,0.1,0.00033538,3351.5,0.00033575,3362.6,-0.0001088,22.429,-0.00011178,-0.0038616,0.51668
27460,9.9196,3.5455,0.1,0.00033793,3376.9,0.00033832,3388.6,-0.00010955,23.523,-0.00011268,-0.0038065,0.50783
27461,10.011,3.4545,0.1,0.00033544,3352,0.0003358,3362.9,-0.00010887,21.839,-0.00011177,-0.0039234,0.51653
27462,9.9196,3.7273,0.1,0.00033803,3378,0.00033841,3389.2,-0.00010967,22.452,-0.00011266,-0.0039115,0.50757
27463,10.011,3.6364,0.1,0.00033552,3352.9,0.00033587,3363.3,-0.00010897,20.963,-0.00011176,-0.004011,0.51632
27464,9.9196,3.9091,0.1,0.00033817,3379.4,0.00033852,3389.9,-0.00010983,21.097,-0.00011264,-0.0040402,0.50725
27465,10.011,3.8182,0.1,0.00033564,3354.1,0.00033597,3363.9,-0.0001091,19.812,-0.00011174,-0.0041235,0.51603
27466,9.9196,4.0909,0.1,0.00033833,3381,0.00033866,3390.7,-0.00011002,19.47,-0.00011261,-0.0041861,0.50685
27467,10.011,4,0.1,0.00033578,3355.5,0.00033609,3364.6,-0.00010927,18.399,-0.00011172,-0.0042554,0.51567
27468,9.9196,4.2727,0.1,0.00033852,3382.9,0.00033881,3391.6,-0.00011024,17.59,-0.00011258,-0.0043437,0.50638
27469,10.011,4.1818,0.1,0.00033594,3357.1,0.00033623,3365.5,-0.00010946,16.74,-0.00011169,-0.0044001,0.51524
27470,9.9196,4.4545,0.1,0.00033873,3385,0.00033899,3392.7,-0.00011049,15.476,-0.00011255,-0.0045095,0.50583
27471,10.011,4.3636,0.1,0.00033614,3359,0.00033639,3366.4,-0.00010968,14.853,-0.00011166,-0.0045549,0.51473
27472,9.9196,4.6364,0.1,0.00033897,3387.3,0.00033919,3393.9,-0.00011076,13.146,-0.00011251,-0.0046765,0.50522
27473,10.011,4.5455,0.1,0.00033635,3361.2,0.00033656,3367.5,-0.00010993,12.756,-0.00011163,-0.0047183,0.51416
27474,9.9196,4.8182,0.1,0.00033923,3389.9,0.0003394,3395.2,-0.00011106,10.622,-0.00011247,-0.0048517,0.50453
27475,10.011,4.7273,0.1,0.00033658,3363.5,0.00033676,3368.7,-0.0001102,10.47,-0.00011159,-0.0048857,0.51351
27476,9.9196,5,0.1,0.0003395,3392.7,0.00033964,3396.6,-0.00011137,7.9233,-0.00011243,-0.0050086,0.50377
27477,10.011,4.9091,0.1,0.00033684,3366,0.00033697,3370,-0.00011049,8.0149,-0.00011155,-0.0050908,0.51278
27478,9.9196,5.1818,0.1,0.0003398,3395.6,0.00033988,3398.2,-0.00011171,5.0716,-0.00011239,-0.005331,0.50293
27479,10.011,5.0909,0.1,0.00033711,3368.8,0.0003372,3371.5,-0.00011079,5.4098,-0.00011151,-0.0053093,0.51199
27480,9.9196,5.3636,0.1,0.00034011,3398.8,0.00034015,3399.8,-0.00011206,2.085,-0.00011234,-0.0054975,0.50202
27481,10.011,5.2727,0.1,0.0003374,3371.6,0.00033744,3373,-0.00011112,2.674,-0.00011147,-0.0061898,0.51112
27482,9.9196,5.5455,0.1,0.00034044,3402.1,0.00034043,3401.6,-0.0001123,-0.0054505,-0.00011243,-1.0512,0.50104
27483,10.011,5.4545,0.1,0.0003377,3374.7,0.0003377,3374.6,-0.00011143,0.012456,-0.00011146,-0.19639,0.51018
27484,9.9196,5.7273,0.1,0.00034087,3406.3,0.00034079,3403.9,-0.00011225,3.5377e-05,-0.00011289,-4.7907,0.49998
27485,10.011,5.6364,0.1,0.00033803,3378,0.00033797,3376.4,-0.00011139,-0.0079037,-0.00011182,-3.193,0.50917
27486,10.011,5.8182,0.1,0.00033852,3382.9,0.0003384,3379.2,-0.00011135,0.0080659,-0.00011232,-7.305,0.50808
27487,9.9196,5.9091,0.1,0.00034078,3405.4,0.00034069,3402.9,-0.00011221,0.0024144,-0.00011288,-5.0327,0.49885
27488,10.103,0.27273,0.1,0.00033567,3354.4,0.00033558,3351.6,-0.00011049,-0.00021681,-0.00011124,-5.6284,0.51734
27489,10.195,0.18182,0.1,0.00033332,3330.9,0.00033318,3326.9,-0.0001096,0.0060462,-0.00011066,-7.9238,0.52557
27490,10.103,0.090909,0.1,0.00033554,3353.1,0.00033545,3350.4,-0.00011046,0.0016539,-0.00011118,-5.4025,0.51623
27491,10.103,0.45455,0.1,0.00033528,3350.5,0.00033524,3349.4,-0.00011053,-0.0039534,-0.00011084,-2.3022,0.51839
27492,10.195,0.36364,0.1,0.00033286,3326.3,0.00033279,3324.2,-0.00010964,-0.0056015,-0.0001102,-4.215,0.52664
27493,10.103,0.63636,0.1,0.00033498,3347.5,0.00033499,3347.7,-0.00011051,0.43865,-0.00011057,-0.015612,0.51936
27494,10.195,0.54545,0.1,0.00033257,3323.4,0.00033254,3322.6,-0.00010967,0.00048495,-0.00010988,-1.6138,0.52764
27495,10.103,0.81818,0.1,0.0003347,3344.7,0.00033476,3346.2,-0.0001102,3.0299,-0.0001106,-0.0063213,0.52026
27496,10.195,0.72727,0.1,0.00033229,3320.6,0.00033231,3321.1,-0.00010958,0.8612,-0.0001097,-0.012324,0.52857
27497,10.103,1,0.1,0.00033444,3342.1,0.00033453,3344.8,-0.0001099,5.5182,-0.00011064,-0.0054794,0.52108
27498,10.195,0.90909,0.1,0.00033204,3318.1,0.00033209,3319.7,-0.0001093,3.2244,-0.00010973,-0.0064482,0.52943
27499,10.103,1.1818,0.1,0.00033419,3339.6,0.00033432,3343.5,-0.00010962,7.8797,-0.00011067,-0.0051739,0.52184
27500,10.195,1.0909,0.1,0.0003318,3315.7,0.00033189,3318.4,-0.00010903,5.4868,-0.00010976,-0.0056245,0.53021
27501,10.103,1.3636,0.1,0.00033396,3337.3,0.00033413,3342.3,-0.00010936,10.096,-0.00011071,-0.0049567,0.52252
27502,10.195,1.2727,0.1,0.00033157,3313.4,0.0003317,3317.2,-0.00010878,7.6278,-0.0001098,-0.0052439,0.53092
27503,10.103,1.5455,0.1,0.00033375,3335.2,0.00033396,3341.3,-0.00010912,12.148,-0.00011074,-0.0047816,0.52313
27504,10.195,1.4545,0.1,0.00033136,3311.3,0.00033152,3316.1,-0.00010854,9.6291,-0.00010983,-0.0050112,0.53157
27505,10.103,1.7273,0.1,0.00033356,3333.3,0.0003338,3340.3,-0.0001089,14.017,-0.00011077,-0.0046224,0.52367
27506,10.195,1.6364,0.1,0.00033117,3309.4,0.00033136,3315.1,-0.00010833,11.472,-0.00010985,-0.0048259,0.53214
27507,10.103,1.9091,0.1,0.00033339,3331.6,0.00033365,3339.4,-0.00010871,15.683,-0.0001108,-0.0044763,0.52413
27508,10.195,1.8182,0.1,0.000331,3307.7,0.00033122,3314.3,-0.00010813,13.137,-0.00010988,-0.0046676,0.53263
27509,10.103,2.0909,0.1,0.00033324,3330.1,0.00033353,3338.7,-0.00010854,17.129,-0.00011082,-0.0043426,0.52452
27510,10.195,2,0.1,0.00033085,3306.2,0.0003311,3313.5,-0.00010796,14.606,-0.0001099,-0.0045265,0.53306
27511,10.103,2.2727,0.1,0.00033312,3328.9,0.00033343,3338.1,-0.0001084,18.336,-0.00011084,-0.0042253,0.52485
27512,10.195,2.1818,0.1,0.00033072,3305,0.00033099,3312.9,-0.00010781,15.861,-0.00010992,-0.0044009,0.53342
27513,10.103,2.4545,0.1,0.00033303,3328,0.00033335,3337.6,-0.00010829,19.292,-0.00011085,-0.0041292,0.5251
27514,10.195,2.3636,0.1,0.00033062,3303.9,0.00033091,3312.3,-0.00010769,16.886,-0.00010994,-0.0042948,0.5337
27515,10.103,2.6364,0.1,0.00033296,3327.3,0.00033329,3337.2,-0.0001082,19.984,-0.00011087,-0.0040571,0.52528
27516,10.195,2.5455,0.1,0.00033054,3303.2,0.00033084,3311.9,-0.0001076,17.667,-0.00010995,-0.0042122,0.53391
27517,10.103,2.8182,0.1,0.00033292,3326.9,0.00033326,3337,-0.00010816,20.402,-0.00011087,-0.0040122,0.52538
27518,10.195,2.7273,0.1,0.00033049,3302.6,0.0003308,3311.7,-0.00010754,18.194,-0.00010996,-0.0041541,0.53406
27519,10.103,3,0.1,0.0003329,3326.7,0.00033325,3337,-0.00010814,20.543,-0.00011087,-0.0039969,0.52542
27520,10.195,2.9091,0.1,0.00033046,3302.4,0.00033077,3311.6,-0.00010751,18.46,-0.00010997,-0.0041243,0.53413
27521,10.103,3.1818,0.1,0.00033292,3326.9,0.00033326,3337,-0.00010816,20.402,-0.00011087,-0.0040121,0.52538
27522,10.195,3.0909,0.1,0.00033046,3302.4,0.00033077,3311.6,-0.00010751,18.46,-0.00010997,-0.004124,0.53413
27523,10.103,3.3636,0.1,0.00033296,3327.3,0.00033329,3337.2,-0.0001082,19.984,-0.00011087,-0.0040572,0.52528
27524,10.195,3.2727,0.1,0.00033049,3302.6,0.0003308,3311.7,-0.00010754,18.194,-0.00010996,-0.0041541,0.53406
27525,10.103,3.5455,0.1,0.00033303,3328,0.00033335,3337.6,-0.00010829,19.292,-0.00011085,-0.004129,0.5251
27526,10.195,3.4545,0.1,0.00033054,3303.2,0.00033084,3311.9,-0.0001076,17.667,-0.00010995,-0.0042121,0.53391
27527,10.103,3.7273,0.1,0.00033312,3328.9,0.00033343,3338.1,-0.0001084,18.336,-0.00011084,-0.0042251,0.52485
27528,10.195,3.6364,0.1,0.00033062,3303.9,0.00033091,3312.3,-0.00010769,16.886,-0.00010994,-0.0042945,0.5337
27529,10.103,3.9091,0.1,0.00033324,3330.1,0.00033353,3338.7,-0.00010854,17.129,-0.00011082,-0.0043426,0.52452
27530,10.195,3.8182,0.1,0.00033072,3305,0.00033099,3312.9,-0.00010781,15.861,-0.00010992,-0.0044006,0.53342
27531,10.103,4.0909,0.1,0.00033339,3331.6,0.00033365,3339.4,-0.00010871,15.683,-0.0001108,-0.0044759,0.52413
27532,10.195,4,0.1,0.00033085,3306.2,0.0003311,3313.5,-0.00010796,14.606,-0.0001099,-0.004526,0.53306
27533,10.103,4.2727,0.1,0.00033356,3333.3,0.0003338,3340.3,-0.0001089,14.017,-0.00011077,-0.0046219,0.52367
27534,10.195,4.1818,0.1,0.000331,3307.7,0.00033122,3314.3,-0.00010813,13.137,-0.00010988,-0.0046673,0.53263
27535,10.103,4.4545,0.1,0.00033375,3335.2,0.00033396,3341.3,-0.00010912,12.148,-0.00011074,-0.0047809,0.52313
27536,10.195,4.3636,0.1,0.00033117,3309.4,0.00033136,3315.1,-0.00010833,11.472,-0.00010985,-0.0048253,0.53214
27537,10.103,4.6364,0.1,0.00033396,3337.3,0.00033413,3342.3,-0.00010936,10.096,-0.00011071,-0.0049559,0.52252
27538,10.195,4.5455,0.1,0.00033136,3311.3,0.00033152,3316.1,-0.00010854,9.6291,-0.00010983,-0.0050104,0.53157
27539,10.103,4.8182,0.1,0.00033419,3339.6,0.00033432,3343.5,-0.00010962,7.8798,-0.00011067,-0.005173,0.52184
27540,10.195,4.7273,0.1,0.00033157,3313.4,0.0003317,3317.2,-0.00010878,7.6278,-0.0001098,-0.0052432,0.53092
27541,10.103,5,0.1,0.00033444,3342.1,0.00033453,3344.8,-0.0001099,5.5182,-0.00011064,-0.0054781,0.52108
27542,10.195,4.9091,0.1,0.0003318,3315.7,0.00033189,3318.4,-0.00010903,5.4868,-0.00010976,-0.0056237,0.53021
27543,10.103,5.1818,0.1,0.0003347,3344.7,0.00033476,3346.2,-0.0001102,3.0299,-0.0001106,-0.0063201,0.52026
27544,10.195,5.0909,0.1,0.00033204,3318.1,0.00033209,3319.7,-0.0001093,3.2244,-0.00010973,-0.0064465,0.52943
27545,10.103,5.3636,0.1,0.00033498,3347.5,0.00033499,3347.7,-0.00011051,0.43867,-0.00011057,-0.015611,0.51936
27546,10.195,5.2727,0.1,0.00033229,3320.6,0.00033231,3321.1,-0.00010958,0.86122,-0.0001097,-0.012322,0.52857
27547,10.103,5.5455,0.1,0.00033528,3350.5,0.00033524,3349.4,-0.00011053,-0.0039527,-0.00011084,-2.3021,0.51839
27548,10.195,5.4545,0.1,0.00033257,3323.4,0.00033254,3322.6,-0.00010967,0.00048499,-0.00010988,-1.6138,0.52764
27549,10.103,5.7273,0.1,0.00033567,3354.4,0.00033558,3351.6,-0.00011049,-0.0002156,-0.00011124,-5.6284,0.51734
27550,10.195,5.6364,0.1,0.00033286,3326.3,0.00033279,3324.2,-0.00010964,-0.0056003,-0.0001102,-4.215,0.52664
27551,10.195,5.8182,0.1,0.00033332,3330.9,0.00033318,3326.9,-0.0001096,0.006047,-0.00011066,-7.9237,0.52557
27552,10.103,5.9091,0.1,0.00033554,3353.1,0.00033545,3350.4,-0.00011046,0.0016546,-0.00011118,-5.4024,0.51623
27553,10.287,0.27273,0.1,0.0003305,3302.7,0.00033039,3299.5,-0.00010874,0.0001167,-0.0001096,-6.4296,0.53494
27554,10.379,0.18182,0.1,0.00032814,3279.1,0.00032799,3274.8,-0.00010786,0.0045698,-0.000109,-8.5134,0.54328
27555,10.287,0.090909,0.1,0.00033032,3300.9,0.00033022,3298.1,-0.00010872,0.0012664,-0.00010949,-5.7537,0.53383
27556,10.287,0.45455,0.1,0.00033014,3299.1,0.00033008,3297.4,-0.00010877,-0.0024193,-0.00010924,-3.5029,0.53597
27557,10.379,0.36364,0.1,0.00032771,3274.8,0.00032762,3272.2,-0.00010789,-0.0032489,-0.00010858,-5.1977,0.54434
27558,10.287,0.63636,0.1,0.00032987,3296.5,0.00032985,3295.9,-0.0001088,0.0036027,-0.00010896,-1.1719,0.53692
27559,10.379,0.54545,0.1,0.00032745,3272.2,0.0003274,3270.7,-0.00010791,0.00033167,-0.00010831,-2.9909,0.54532
27560,10.287,0.81818,0.1,0.00032963,3294,0.00032964,3294.5,-0.00010869,1.0735,-0.00010883,-0.012081,0.53781
27561,10.379,0.72727,0.1,0.00032721,3269.8,0.00032719,3269.4,-0.00010793,0.0073871,-0.00010806,-0.91174,0.54624
27562,10.287,1,0.1,0.00032939,3291.6,0.00032945,3293.2,-0.00010843,3.2105,-0.00010886,-0.0067809,0.53863
27563,10.379,0.90909,0.1,0.00032698,3267.6,0.000327,3268.1,-0.00010781,1.1243,-0.00010796,-0.012604,0.54709
27564,10.287,1.1818,0.1,0.00032917,3289.4,0.00032926,3292.1,-0.00010819,5.2515,-0.00010889,-0.0057876,0.53937
27565,10.379,1.0909,0.1,0.00032677,3265.4,0.00032682,3267,-0.00010758,3.0552,-0.00010799,-0.0071235,0.54786
27566,10.287,1.3636,0.1,0.00032897,3287.4,0.00032909,3291,-0.00010796,7.1766,-0.00010892,-0.0053484,0.54005
27567,10.379,1.2727,0.1,0.00032657,3263.5,0.00032665,3265.9,-0.00010736,4.8969,-0.00010801,-0.0059537,0.54857
27568,10.287,1.5455,0.1,0.00032878,3285.5,0.00032893,3290,-0.00010775,8.9679,-0.00010894,-0.005084,0.54065
27569,10.379,1.4545,0.1,0.00032639,3261.6,0.0003265,3264.9,-0.00010715,6.6294,-0.00010804,-0.0054516,0.5492
27570,10.287,1.7273,0.1,0.00032861,3283.8,0.00032879,3289.1,-0.00010755,10.607,-0.00010897,-0.0048879,0.54118
27571,10.379,1.6364,0.1,0.00032622,3259.9,0.00032636,3264,-0.00010696,8.2342,-0.00010806,-0.0051547,0.54976
27572,10.287,1.9091,0.1,0.00032846,3282.3,0.00032866,3288.3,-0.00010738,12.074,-0.00010899,-0.0047279,0.54164
27573,10.379,1.8182,0.1,0.00032607,3258.4,0.00032623,3263.3,-0.00010679,9.6925,-0.00010808,-0.004946,0.55026
27574,10.287,2.0909,0.1,0.00032833,3281,0.00032855,3287.7,-0.00010723,13.352,-0.00010901,-0.0045908,0.54203
27575,10.379,2,0.1,0.00032594,3257.1,0.00032612,3262.6,-0.00010664,10.985,-0.0001081,-0.0047822,0.55068
27576,10.287,2.2727,0.1,0.00032822,3279.9,0.00032846,3287.1,-0.00010711,14.424,-0.00010903,-0.0044739,0.54235
27577,10.379,2.1818,0.1,0.00032582,3256,0.00032603,3262,-0.00010651,12.095,-0.00010812,-0.004647,0.55103
27578,10.287,2.4545,0.1,0.00032814,3279.1,0.00032839,3286.7,-0.00010701,15.274,-0.00010904,-0.0043797,0.54259
27579,10.379,2.3636,0.1,0.00032573,3255.1,0.00032595,3261.5,-0.0001064,13.005,-0.00010813,-0.0045368,0.55131
27580,10.287,2.6364,0.1,0.00032807,3278.5,0.00032834,3286.4,-0.00010694,15.891,-0.00010905,-0.0043101,0.54277
27581,10.379,2.5455,0.1,0.00032566,3254.4,0.00032589,3261.2,-0.00010632,13.7,-0.00010815,-0.004453,0.55152
27582,10.287,2.8182,0.1,0.00032804,3278.1,0.00032831,3286.2,-0.00010689,16.265,-0.00010906,-0.0042667,0.54288
27583,10.379,2.7273,0.1,0.00032561,3253.9,0.00032585,3260.9,-0.00010627,14.171,-0.00010815,-0.0043947,0.55166
27584,10.287,3,0.1,0.00032802,3278,0.0003283,3286.1,-0.00010688,16.39,-0.00010906,-0.0042517,0.54291
27585,10.379,2.9091,0.1,0.00032559,3253.6,0.00032583,3260.8,-0.00010624,14.408,-0.00010816,-0.0043648,0.55173
27586,10.287,3.1818,0.1,0.00032804,3278.1,0.00032831,3286.2,-0.00010689,16.265,-0.00010906,-0.0042663,0.54288
27587,10.379,3.0909,0.1,0.00032559,3253.6,0.00032583,3260.8,-0.00010624,14.408,-0.00010816,-0.0043647,0.55173
27588,10.287,3.3636,0.1,0.00032807,3278.5,0.00032834,3286.4,-0.00010694,15.891,-0.00010905,-0.0043098,0.54277
27589,10.379,3.2727,0.1,0.00032561,3253.9,0.00032585,3260.9,-0.00010627,14.171,-0.00010815,-0.0043945,0.55166
27590,10.287,3.5455,0.1,0.00032814,3279.1,0.00032839,3286.7,-0.00010701,15.274,-0.00010904,-0.0043795,0.54259
27591,10.379,3.4545,0.1,0.00032566,3254.4,0.00032589,3261.2,-0.00010632,13.7,-0.00010815,-0.0044529,0.55152
27592,10.287,3.7273,0.1,0.00032822,3279.9,0.00032846,3287.1,-0.00010711,14.424,-0.00010903,-0.0044734,0.54235
27593,10.379,3.6364,0.1,0.00032573,3255.1,0.00032595,3261.5,-0.0001064,13.005,-0.00010813,-0.0045365,0.55131
27594,10.287,3.9091,0.1,0.00032833,3281,0.00032855,3287.7,-0.00010723,13.352,-0.00010901,-0.0045901,0.54203
27595,10.379,3.8182,0.1,0.00032582,3256,0.00032603,3262,-0.00010651,12.095,-0.00010812,-0.0046464,0.55103
27596,10.287,4.0909,0.1,0.00032846,3282.3,0.00032866,3288.3,-0.00010738,12.074,-0.00010899,-0.0047275,0.54164
27597,10.379,4,0.1,0.00032593,3257.1,0.00032612,3262.6,-0.00010664,10.985,-0.0001081,-0.0047819,0.55068
27598,10.287,4.2727,0.1,0.00032861,3283.8,0.00032879,3289.1,-0.00010755,10.607,-0.00010897,-0.0048876,0.54118
27599,10.379,4.1818,0.1,0.00032607,3258.4,0.00032623,3263.3,-0.00010679,9.6925,-0.00010808,-0.0049458,0.55026
27600,10.287,4.4545,0.1,0.00032878,3285.5,0.00032893,3290,-0.00010775,8.9679,-0.00010894,-0.0050834,0.54065
27601,10.379,4.3636,0.1,0.00032622,3259.9,0.00032636,3264,-0.00010696,8.2342,-0.00010806,-0.0051542,0.54976
27602,10.287,4.6364,0.1,0.00032897,3287.4,0.00032909,3291,-0.00010796,7.1766,-0.00010892,-0.0053479,0.54005
27603,10.379,4.5455,0.1,0.00032639,3261.6,0.0003265,3264.9,-0.00010715,6.6294,-0.00010804,-0.0054514,0.5492
27604,10.287,4.8182,0.1,0.00032917,3289.4,0.00032926,3292.1,-0.00010819,5.2515,-0.00010889,-0.0057871,0.53937
27605,10.379,4.7273,0.1,0.00032657,3263.5,0.00032665,3265.9,-0.00010736,4.897,-0.00010801,-0.0059532,0.54857
27606,10.287,5,0.1,0.00032939,3291.6,0.00032945,3293.2,-0.00010843,3.2105,-0.00010886,-0.0067797,0.53863
27607,10.379,4.9091,0.1,0.00032677,3265.4,0.00032682,3267,-0.00010758,3.0552,-0.00010799,-0.0071228,0.54786
27608,10.287,5.1818,0.1,0.00032963,3294,0.00032964,3294.5,-0.00010869,1.0735,-0.00010883,-0.012079,0.53781
27609,10.379,5.0909,0.1,0.00032698,3267.6,0.000327,3268.1,-0.00010781,1.1243,-0.00010796,-0.012603,0.54709
27610,10.287,5.3636,0.1,0.00032987,3296.5,0.00032985,3295.9,-0.0001088,0.0036034,-0.00010896,-1.1719,0.53692
27611,10.379,5.2727,0.1,0.00032721,3269.8,0.00032719,3269.4,-0.00010793,0.0073883,-0.00010806,-0.91173,0.54624
27612,10.287,5.5455,0.1,0.00033014,3299.1,0.00033008,3297.4,-0.00010877,-0.0024187,-0.00010924,-3.5028,0.53597
27613,10.379,5.4545,0.1,0.00032745,3272.2,0.0003274,3270.7,-0.00010791,0.0003318,-0.00010831,-2.9909,0.54532
27614,10.287,5.7273,0.1,0.0003305,3302.7,0.00033039,3299.5,-0.00010874,0.00011761,-0.0001096,-6.4295,0.53494
27615,10.379,5.6364,0.1,0.00032771,3274.8,0.00032762,3272.2,-0.00010789,-0.0032477,-0.00010858,-5.1976,0.54434
27616,10.379,5.8182,0.1,0.00032814,3279.1,0.00032799,3274.8,-0.00010786,0.0045705,-0.000109,-8.5133,0.54328
27617,10.287,5.9091,0.1,0.00033032,3300.9,0.00033022,3298.1,-0.00010872,0.0012672,-0.00010949,-5.7537,0.53383
27618,10.471,0.27273,0.1,0.00032534,3251.1,0.00032521,3247.5,-0.000107,0.00077786,-0.00010796,-7.1992,0.55275
27619,10.563,0.18182,0.1,0.00032297,3227.5,0.00032282,3222.9,-0.00010613,0.003451,-0.00010734,-9.0769,0.56121
27620,10.471,0.090909,0.1,0.00032512,3249,0.00032502,3245.9,-0.00010699,0.0011133,-0.0001078,-6.088,0.55166
27621,10.471,0.45455,0.1,0.00032501,3247.9,0.00032493,3245.5,-0.00010702,-0.0009202,-0.00010764,-4.6623,0.55377
27622,10.563,0.36364,0.1,0.00032257,3223.5,0.00032247,3220.4,-0.00010614,-0.00092918,-0.00010696,-6.1481,0.56225
27623,10.471,0.63636,0.1,0.00032478,3245.5,0.00032473,3244.2,-0.00010704,0.0012604,-0.0001074,-2.7083,0.55471
27624,10.563,0.54545,0.1,0.00032234,3221.2,0.00032227,3219.1,-0.00010616,0.00062668,-0.00010674,-4.3273,0.56323
27625,10.471,0.81818,0.1,0.00032456,3243.4,0.00032455,3243,-0.00010706,0.0099779,-0.00010718,-0.84555,0.55559
27626,10.563,0.72727,0.1,0.00032214,3219.2,0.00032209,3217.9,-0.00010618,0.0017668,-0.00010652,-2.6078,0.56413
27627,10.471,1,0.1,0.00032436,3241.3,0.00032437,3241.8,-0.00010695,0.98825,-0.00010709,-0.014591,0.55639
27628,10.563,0.90909,0.1,0.00032194,3217.2,0.00032193,3216.7,-0.00010619,0.0092439,-0.00010632,-0.94054,0.56497
27629,10.471,1.1818,0.1,0.00032417,3239.4,0.00032421,3240.8,-0.00010675,2.7179,-0.00010711,-0.007625,0.55713
27630,10.563,1.0909,0.1,0.00032176,3215.4,0.00032177,3215.7,-0.00010612,0.71038,-0.00010622,-0.018982,0.56573
27631,10.471,1.3636,0.1,0.00032399,3237.6,0.00032406,3239.8,-0.00010655,4.3661,-0.00010713,-0.0061869,0.55779
27632,10.563,1.2727,0.1,0.00032159,3213.6,0.00032162,3214.8,-0.00010593,2.2583,-0.00010624,-0.0083063,0.56643
27633,10.471,1.5455,0.1,0.00032382,3236,0.00032392,3238.9,-0.00010637,5.9115,-0.00010715,-0.0055839,0.55839
27634,10.563,1.4545,0.1,0.00032143,3212,0.00032149,3213.9,-0.00010576,3.7356,-0.00010626,-0.006469,0.56705
27635,10.471,1.7273,0.1,0.00032367,3234.5,0.0003238,3238.2,-0.0001062,7.3353,-0.00010718,-0.0052447,0.55891
27636,10.563,1.6364,0.1,0.00032128,3210.6,0.00032137,3213.1,-0.00010559,5.1172,-0.00010628,-0.005743,0.56761
27637,10.471,1.9091,0.1,0.00032354,3233.2,0.00032369,3237.5,-0.00010605,8.6187,-0.0001072,-0.0050177,0.55937
27638,10.563,1.8182,0.1,0.00032115,3209.3,0.00032126,3212.4,-0.00010544,6.3833,-0.0001063,-0.0053559,0.5681
27639,10.471,2.0909,0.1,0.00032343,3232,0.00032359,3236.9,-0.00010592,9.7429,-0.00010721,-0.004848,0.55975
27640,10.563,2,0.1,0.00032103,3208.1,0.00032116,3211.8,-0.00010531,7.5143,-0.00010631,-0.0051091,0.56851
27641,10.471,2.2727,0.1,0.00032333,3231.1,0.00032351,3236.4,-0.0001058,10.69,-0.00010723,-0.0047152,0.56007
27642,10.563,2.1818,0.1,0.00032093,3207.1,0.00032107,3211.3,-0.0001052,8.4913,-0.00010633,-0.0049324,0.56886
27643,10.471,2.4545,0.1,0.00032325,3230.3,0.00032345,3236,-0.00010572,11.445,-0.00010724,-0.0046128,0.56031
27644,10.563,2.3636,0.1,0.00032085,3206.3,0.00032101,3210.9,-0.0001051,9.2967,-0.00010634,-0.0048014,0.56914
27645,10.471,2.6364,0.1,0.0003232,3229.7,0.0003234,3235.7,-0.00010565,11.994,-0.00010725,-0.0045389,0.56048
27646,10.563,2.5455,0.1,0.00032079,3205.7,0.00032095,3210.6,-0.00010503,9.9152,-0.00010635,-0.0047059,0.56935
27647,10.471,2.8182,0.1,0.00032316,3229.4,0.00032337,3235.6,-0.00010561,12.328,-0.00010725,-0.0044934,0.56059
27648,10.563,2.7273,0.1,0.00032075,3205.2,0.00032092,3210.4,-0.00010498,10.335,-0.00010636,-0.0046417,0.56948
27649,10.471,3,0.1,0.00032315,3229.3,0.00032336,3235.5,-0.0001056,12.44,-0.00010726,-0.0044782,0.56062
27650,10.563,2.9091,0.1,0.00032072,3205,0.0003209,3210.3,-0.00010496,10.547,-0.00010636,-0.0046093,0.56955
27651,10.471,3.1818,0.1,0.00032316,3229.4,0.00032337,3235.6,-0.00010561,12.328,-0.00010725,-0.0044935,0.56059
27652,10.563,3.0909,0.1,0.00032072,3205,0.0003209,3210.3,-0.00010496,10.547,-0.00010636,-0.0046096,0.56955
27653,10.471,3.3636,0.1,0.0003232,3229.7,0.0003234,3235.7,-0.00010565,11.994,-0.00010725,-0.0045389,0.56048
27654,10.563,3.2727,0.1,0.00032075,3205.2,0.00032092,3210.4,-0.00010498,10.335,-0.00010636,-0.0046417,0.56948
27655,10.471,3.5455,0.1,0.00032325,3230.3,0.00032345,3236,-0.00010572,11.445,-0.00010724,-0.0046126,0.56031
27656,10.563,3.4545,0.1,0.00032079,3205.7,0.00032095,3210.6,-0.00010503,9.9152,-0.00010635,-0.0047058,0.56935
27657,10.471,3.7273,0.1,0.00032333,3231.1,0.00032351,3236.4,-0.0001058,10.69,-0.00010723,-0.0047147,0.56007
27658,10.563,3.6364,0.1,0.00032085,3206.3,0.00032101,3210.9,-0.0001051,9.2967,-0.00010634,-0.0048009,0.56914
27659,10.471,3.9091,0.1,0.00032343,3232,0.00032359,3236.9,-0.00010592,9.7429,-0.00010721,-0.0048478,0.55975
27660,10.563,3.8182,0.1,0.00032093,3207.1,0.00032107,3211.3,-0.0001052,8.4913,-0.00010633,-0.0049321,0.56886
27661,10.471,4.0909,0.1,0.00032354,3233.2,0.00032369,3237.5,-0.00010605,8.6187,-0.0001072,-0.0050176,0.55937
27662,10.563,4,0.1,0.00032103,3208.1,0.00032116,3211.8,-0.00010531,7.5143,-0.00010631,-0.0051087,0.56851
27663,10.471,4.2727,0.1,0.00032367,3234.5,0.0003238,3238.2,-0.0001062,7.3353,-0.00010718,-0.0052444,0.55891
27664,10.563,4.1818,0.1,0.00032115,3209.3,0.00032126,3212.4,-0.00010544,6.3833,-0.0001063,-0.0053557,0.5681
27665,10.471,4.4545,0.1,0.00032382,3236,0.00032392,3238.9,-0.00010637,5.9115,-0.00010715,-0.0055837,0.55839
27666,10.563,4.3636,0.1,0.00032128,3210.6,0.00032137,3213.1,-0.00010559,5.1172,-0.00010628,-0.0057424,0.56761
27667,10.471,4.6364,0.1,0.00032399,3237.6,0.00032406,3239.8,-0.00010655,4.3661,-0.00010713,-0.0061866,0.55779
27668,10.563,4.5455,0.1,0.00032143,3212,0.00032149,3213.9,-0.00010576,3.7356,-0.00010626,-0.0064688,0.56705
27669,10.471,4.8182,0.1,0.00032417,3239.4,0.00032421,3240.8,-0.00010675,2.7179,-0.00010711,-0.0076242,0.55713
27670,10.563,4.7273,0.1,0.00032159,3213.6,0.00032162,3214.8,-0.00010593,2.2583,-0.00010624,-0.0083057,0.56643
27671,10.471,5,0.1,0.00032436,3241.3,0.00032437,3241.8,-0.00010695,0.98826,-0.00010709,-0.01459,0.55639
27672,10.563,4.9091,0.1,0.00032176,3215.4,0.00032177,3215.7,-0.00010612,0.71039,-0.00010622,-0.018981,0.56573
27673,10.471,5.1818,0.1,0.00032456,3243.4,0.00032455,3243,-0.00010706,0.009979,-0.00010718,-0.84554,0.55559
27674,10.563,5.0909,0.1,0.00032194,3217.2,0.00032193,3216.7,-0.00010619,0.0092452,-0.00010632,-0.94053,0.56497
27675,10.471,5.3636,0.1,0.00032478,3245.5,0.00032473,3244.2,-0.00010704,0.0012611,-0.0001074,-2.7083,0.55471
27676,10.563,5.2727,0.1,0.00032214,3219.2,0.00032209,3217.9,-0.00010618,0.0017678,-0.00010652,-2.6078,0.56413
27677,10.471,5.5455,0.1,0.00032501,3247.9,0.00032493,3245.5,-0.00010702,-0.00091952,-0.00010764,-4.6622,0.55377
27678,10.563,5.4545,0.1,0.00032234,3221.2,0.00032227,3219.1,-0.00010616,0.00062711,-0.00010674,-4.3273,0.56323
27679,10.471,5.7273,0.1,0.00032534,3251.1,0.00032521,3247.5,-0.000107,0.00077893,-0.00010796,-7.1992,0.55275
27680,10.563,5.6364,0.1,0.00032257,3223.5,0.00032247,3220.4,-0.00010614,-0.00092837,-0.00010696,-6.148,0.56225
27681,10.563,5.8182,0.1,0.00032297,3227.5,0.00032282,3222.9,-0.00010613,0.0034519,-0.00010734,-9.0769,0.56121
27682,10.471,5.9091,0.1,0.00032512,3249,0.00032502,3245.9,-0.00010699,0.0011143,-0.0001078,-6.088,0.55166
27683,10.654,0.27273,0.1,0.00032019,3199.7,0.00032006,3195.7,-0.00010527,0.0016001,-0.00010633,-7.9423,0.57078
27684,10.746,0.18182,0.1,0.00031782,3176,0.00031766,3171.2,-0.0001044,0.0025762,-0.00010568,-9.6173,0.57935
27685,10.654,0.090909,0.1,0.00031994,3197.2,0.00031983,3194,-0.00010526,0.0010745,-0.00010612,-6.407,0.56971
27686,10.654,0.45455,0.1,0.0003199,3196.8,0.0003198,3193.9,-0.00010528,0.00048733,-0.00010605,-5.7895,0.57178
27687,10.746,0.36364,0.1,0.00031745,3172.3,0.00031733,3168.8,-0.00010441,0.0013297,-0.00010535,-7.0736,0.58038
27688,10.654,0.63636,0.1,0.0003197,3194.8,0.00031963,3192.7,-0.00010529,0.00093229,-0.00010585,-4.2066,0.57272
27689,10.746,0.54545,0.1,0.00031726,3170.4,0.00031716,3167.6,-0.00010442,0.00097044,-0.00010517,-5.6338,0.58135
27690,10.654,0.81818,0.1,0.00031952,3192.9,0.00031947,3191.6,-0.00010531,0.0019045,-0.00010566,-2.6847,0.57358
27691,10.746,0.72727,0.1,0.00031708,3168.6,0.00031701,3166.5,-0.00010443,0.00086102,-0.00010499,-4.2714,0.58224
27692,10.654,1,0.1,0.00031934,3191.2,0.00031932,3190.6,-0.00010532,0.0065242,-0.00010548,-1.202,0.57438
27693,10.746,0.90909,0.1,0.00031692,3167,0.00031687,3165.5,-0.00010444,0.0013002,-0.00010483,-2.9293,0.58306
27694,10.654,1.1818,0.1,0.00031918,3189.6,0.00031918,3189.7,-0.0001053,0.28839,-0.00010535,-0.039991,0.5751
27695,10.746,1.0909,0.1,0.00031676,3165.5,0.00031674,3164.6,-0.00010445,0.0034018,-0.00010467,-1.6115,0.58382
27696,10.654,1.3636,0.1,0.00031902,3188,0.00031905,3188.8,-0.00010514,1.6455,-0.00010536,-0.0096285,0.57576
27697,10.746,1.2727,0.1,0.00031662,3164,0.00031661,3163.8,-0.00010446,0.024075,-0.00010451,-0.34541,0.58451
27698,10.654,1.5455,0.1,0.00031888,3186.6,0.00031893,3188.1,-0.00010498,2.9577,-0.00010538,-0.0068999,0.57635
27699,10.746,1.4545,0.1,0.00031648,3162.6,0.0003165,3163.1,-0.00010436,0.93059,-0.00010449,-0.012796,0.58512
27700,10.654,1.7273,0.1,0.00031875,3185.3,0.00031882,3187.4,-0.00010484,4.1808,-0.0001054,-0.0059565,0.57686
27701,10.746,1.6364,0.1,0.00031636,3161.4,0.00031639,3162.4,-0.00010422,2.0993,-0.0001045,-0.0075567,0.58567
27702,10.654,1.9091,0.1,0.00031864,3184.2,0.00031872,3186.8,-0.00010471,5.2942,-0.00010541,-0.0054921,0.57731
27703,10.746,1.8182,0.1,0.00031624,3160.2,0.0003163,3161.8,-0.00010409,3.187,-0.00010452,-0.0062257,0.58615
27704,10.654,2.0909,0.1,0.00031853,3183.1,0.00031864,3186.3,-0.00010459,6.2778,-0.00010543,-0.0052144,0.57769
27705,10.746,2,0.1,0.00031614,3159.2,0.00031621,3161.3,-0.00010398,4.1699,-0.00010453,-0.0056502,0.58656
27706,10.654,2.2727,0.1,0.00031845,3182.3,0.00031857,3185.8,-0.00010449,7.1126,-0.00010544,-0.0050285,0.578
27707,10.746,2.1818,0.1,0.00031605,3158.4,0.00031614,3160.9,-0.00010388,5.0271,-0.00010455,-0.0053341,0.58691
27708,10.654,2.4545,0.1,0.00031838,3181.6,0.00031851,3185.5,-0.00010442,7.7815,-0.00010545,-0.004899,0.57824
27709,10.746,2.3636,0.1,0.00031598,3157.6,0.00031608,3160.5,-0.00010379,5.7393,-0.00010456,-0.0051375,0.58718
27710,10.654,2.6364,0.1,0.00031833,3181.1,0.00031847,3185.3,-0.00010436,8.2702,-0.00010546,-0.0048105,0.57842
27711,10.746,2.5455,0.1,0.00031593,3157.1,0.00031603,3160.2,-0.00010373,6.2894,-0.00010457,-0.0050098,0.58739
27712,10.654,2.8182,0.1,0.0003183,3180.8,0.00031845,3185.1,-0.00010432,8.5679,-0.00010546,-0.0047581,0.57852
27713,10.746,2.7273,0.1,0.00031589,3156.7,0.000316,3160,-0.00010369,6.6642,-0.00010457,-0.0049297,0.58752
27714,10.654,3,0.1,0.00031829,3180.7,0.00031844,3185.1,-0.00010431,8.668,-0.00010547,-0.0047408,0.57856
27715,10.746,2.9091,0.1,0.00031587,3156.5,0.00031599,3160,-0.00010366,6.8539,-0.00010458,-0.0048904,0.58759
27716,10.654,3.1818,0.1,0.0003183,3180.8,0.00031845,3185.1,-0.00010432,8.5679,-0.00010546,-0.0047582,0.57852
27717,10.746,3.0909,0.1,0.00031587,3156.5,0.00031599,3160,-0.00010366,6.8539,-0.00010458,-0.0048905,0.58759
27718,10.654,3.3636,0.1,0.00031833,3181.1,0.00031847,3185.3,-0.00010436,8.2702,-0.00010546,-0.0048103,0.57842
27719,10.746,3.2727,0.1,0.00031589,3156.7,0.000316,3160,-0.00010369,6.6642,-0.00010457,-0.0049294,0.58752
27720,10.654,3.5455,0.1,0.00031838,3181.6,0.00031851,3185.5,-0.00010442,7.7815,-0.00010545,-0.0048985,0.57824
27721,10.746,3.4545,0.1,0.00031593,3157.1,0.00031603,3160.2,-0.00010373,6.2894,-0.00010457,-0.0050096,0.58739
27722,10.654,3.7273,0.1,0.00031845,3182.3,0.00031857,3185.8,-0.00010449,7.1126,-0.00010544,-0.0050282,0.578
27723,10.746,3.6364,0.1,0.00031598,3157.6,0.00031608,3160.5,-0.00010379,5.7393,-0.00010456,-0.0051373,0.58718
27724,10.654,3.9091,0.1,0.00031853,3183.1,0.00031864,3186.3,-0.00010459,6.2778,-0.00010543,-0.0052139,0.57769
27725,10.746,3.8182,0.1,0.00031605,3158.4,0.00031614,3160.9,-0.00010388,5.0271,-0.00010455,-0.0053339,0.58691
27726,10.654,4.0909,0.1,0.00031864,3184.2,0.00031872,3186.8,-0.00010471,5.2942,-0.00010541,-0.0054915,0.57731
27727,10.746,4,0.1,0.00031614,3159.2,0.00031621,3161.3,-0.00010398,4.1699,-0.00010453,-0.0056495,0.58656
27728,10.654,4.2727,0.1,0.00031875,3185.3,0.00031882,3187.4,-0.00010484,4.1809,-0.0001054,-0.0059559,0.57686
27729,10.746,4.1818,0.1,0.00031624,3160.2,0.0003163,3161.8,-0.00010409,3.187,-0.00010452,-0.0062252,0.58615
27730,10.654,4.4545,0.1,0.00031888,3186.6,0.00031893,3188.1,-0.00010498,2.9577,-0.00010538,-0.0068992,0.57635
27731,10.746,4.3636,0.1,0.00031636,3161.4,0.00031639,3162.4,-0.00010422,2.0993,-0.0001045,-0.007556,0.58567
27732,10.654,4.6364,0.1,0.00031902,3188,0.00031905,3188.8,-0.00010514,1.6455,-0.00010536,-0.0096278,0.57576
27733,10.746,4.5455,0.1,0.00031648,3162.6,0.0003165,3163.1,-0.00010436,0.9306,-0.00010449,-0.012795,0.58512
27734,10.654,4.8182,0.1,0.00031918,3189.6,0.00031918,3189.7,-0.0001053,0.2884,-0.00010535,-0.039989,0.5751
27735,10.746,4.7273,0.1,0.00031662,3164,0.00031661,3163.8,-0.00010446,0.024076,-0.00010451,-0.3454,0.58451
27736,10.654,5,0.1,0.00031934,3191.2,0.00031932,3190.6,-0.00010532,0.006525,-0.00010548,-1.202,0.57438
27737,10.746,4.9091,0.1,0.00031676,3165.5,0.00031674,3164.6,-0.00010445,0.0034024,-0.00010467,-1.6115,0.58382
27738,10.654,5.1818,0.1,0.00031952,3192.9,0.00031947,3191.6,-0.00010531,0.0019056,-0.00010566,-2.6847,0.57358
27739,10.746,5.0909,0.1,0.00031692,3167,0.00031687,3165.5,-0.00010444,0.0013018,-0.00010483,-2.9293,0.58306
27740,10.654,5.3636,0.1,0.0003197,3194.8,0.00031963,3192.7,-0.00010529,0.000933,-0.00010585,-4.2066,0.57272
27741,10.746,5.2727,0.1,0.00031708,3168.6,0.00031701,3166.5,-0.00010443,0.00086183,-0.00010499,-4.2714,0.58224
27742,10.654,5.5455,0.1,0.0003199,3196.8,0.0003198,3193.9,-0.00010528,0.0004879,-0.00010605,-5.7894,0.57178
27743,10.746,5.4545,0.1,0.00031726,3170.4,0.00031716,3167.6,-0.00010442,0.00097111,-0.00010517,-5.6338,0.58135
27744,10.654,5.7273,0.1,0.00032019,3199.7,0.00032006,3195.7,-0.00010527,0.0016008,-0.00010633,-7.9423,0.57078
27745,10.746,5.6364,0.1,0.00031745,3172.3,0.00031733,3168.8,-0.00010441,0.0013305,-0.00010535,-7.0736,0.58038
27746,10.746,5.8182,0.1,0.00031782,3176,0.00031766,3171.2,-0.0001044,0.0025771,-0.00010568,-9.6173,0.57935
27747,10.654,5.9091,0.1,0.00031994,3197.2,0.00031983,3194,-0.00010526,0.0010756,-0.00010612,-6.407,0.56971
27748,10.838,0.27273,0.1,0.00031507,3148.5,0.00031492,3144.1,-0.00010354,0.0025305,-0.0001047,-8.6641,0.58903
27749,10.93,0.18182,0.1,0.00031268,3124.7,0.00031251,3119.6,-0.00010268,0.0019178,-0.00010403,-10.138,0.59771
27750,10.838,0.090909,0.1,0.00031478,3145.6,0.00031466,3142.2,-0.00010354,0.0011085,-0.00010444,-6.7122,0.58797
27751,10.838,0.45455,0.1,0.00031481,3145.9,0.00031469,3142.4,-0.00010354,0.0018145,-0.00010446,-6.894,0.59002
27752,10.93,0.36364,0.1,0.00031235,3121.3,0.00031221,3117.3,-0.00010268,0.003568,-0.00010374,-7.9822,0.59873
27753,10.838,0.63636,0.1,0.00031464,3144.2,0.00031454,3141.4,-0.00010355,0.0009286,-0.00010431,-5.6782,0.59094
27754,10.93,0.54545,0.1,0.00031219,3119.7,0.00031207,3116.3,-0.00010268,0.0013058,-0.0001036,-6.9221,0.59968
27755,10.838,0.81818,0.1,0.00031448,3142.7,0.00031441,3140.4,-0.00010356,0.00053207,-0.00010416,-4.497,0.59179
27756,10.93,0.72727,0.1,0.00031205,3118.3,0.00031194,3115.3,-0.00010268,0.00060027,-0.00010347,-5.9137,0.60056
27757,10.838,1,0.1,0.00031434,3141.2,0.00031428,3139.6,-0.00010357,0.00040781,-0.00010401,-3.3226,0.59258
27758,10.93,0.90909,0.1,0.00031191,3117,0.00031183,3114.5,-0.00010269,-0.00020653,-0.00010334,-4.8962,0.60138
27759,10.838,1.1818,0.1,0.0003142,3139.9,0.00031417,3138.8,-0.00010358,0.00096942,-0.00010387,-2.1612,0.59329
27760,10.93,1.0909,0.1,0.00031179,3115.7,0.00031172,3113.8,-0.0001027,-0.00074073,-0.00010321,-3.8696,0.60212
27761,10.838,1.3636,0.1,0.00031407,3138.6,0.00031406,3138.1,-0.00010359,0.0040357,-0.00010373,-1.0264,0.59394
27762,10.93,1.2727,0.1,0.00031167,3114.5,0.00031162,3113.1,-0.00010271,-0.0010016,-0.00010309,-2.8432,0.6028
27763,10.838,1.5455,0.1,0.00031395,3137.4,0.00031396,3137.4,-0.00010359,0.12973,-0.00010362,-0.054516,0.59452
27764,10.93,1.4545,0.1,0.00031155,3113.4,0.00031152,3112.5,-0.00010272,-0.00072584,-0.00010297,-1.8315,0.60341
27765,10.838,1.7273,0.1,0.00031384,3136.3,0.00031386,3136.8,-0.00010347,1.1229,-0.00010362,-0.0093196,0.59503
27766,10.93,1.6364,0.1,0.00031145,3112.3,0.00031143,3111.9,-0.00010274,0.0013905,-0.00010285,-0.85394,0.60395
27767,10.838,1.9091,0.1,0.00031374,3135.3,0.00031378,3136.3,-0.00010336,2.0787,-0.00010364,-0.0067128,0.59548
27768,10.93,1.8182,0.1,0.00031135,3111.4,0.00031135,3111.4,-0.00010273,0.11164,-0.00010275,-0.037987,0.60442
27769,10.838,2.0909,0.1,0.00031366,3134.4,0.00031371,3135.9,-0.00010326,2.9348,-0.00010365,-0.0058746,0.59585
27770,10.93,2,0.1,0.00031127,3110.5,0.00031128,3111,-0.00010264,0.93173,-0.00010276,-0.0079758,0.60483
27771,10.838,2.2727,0.1,0.00031358,3133.7,0.00031365,3135.5,-0.00010318,3.669,-0.00010366,-0.005481,0.59616
27772,10.93,2.1818,0.1,0.00031119,3109.8,0.00031122,3110.6,-0.00010255,1.6812,-0.00010278,-0.006209,0.60517
27773,10.838,2.4545,0.1,0.00031353,3133.1,0.0003136,3135.2,-0.00010311,4.2622,-0.00010367,-0.005262,0.5964
27774,10.93,2.3636,0.1,0.00031113,3109.1,0.00031117,3110.3,-0.00010248,2.3114,-0.00010279,-0.0056386,0.60544
27775,10.838,2.6364,0.1,0.00031348,3132.7,0.00031356,3135,-0.00010306,4.6982,-0.00010368,-0.0051329,0.59657
27776,10.93,2.5455,0.1,0.00031108,3108.7,0.00031113,3110.1,-0.00010242,2.8026,-0.0001028,-0.0053775,0.60564
27777,10.838,2.8182,0.1,0.00031346,3132.4,0.00031354,3134.9,-0.00010303,4.9649,-0.00010369,-0.005062,0.59667
27778,10.93,2.7273,0.1,0.00031105,3108.4,0.0003111,3109.9,-0.00010238,3.1391,-0.0001028,-0.0052436,0.60578
27779,10.838,3,0.1,0.00031345,3132.3,0.00031353,3134.8,-0.00010302,5.0547,-0.00010369,-0.0050391,0.5967
27780,10.93,2.9091,0.1,0.00031103,3108.2,0.00031109,3109.8,-0.00010236,3.3101,-0.00010281,-0.0051842,0.60585
27781,10.838,3.1818,0.1,0.00031346,3132.4,0.00031354,3134.9,-0.00010303,4.9649,-0.00010369,-0.0050619,0.59667
27782,10.93,3.0909,0.1,0.00031103,3108.2,0.00031109,3109.8,-0.00010236,3.3101,-0.00010281,-0.0051843,0.60585
27783,10.838,3.3636,0.1,0.00031348,3132.7,0.00031356,3135,-0.00010306,4.6982,-0.00010368,-0.0051327,0.59657
27784,10.93,3.2727,0.1,0.00031105,3108.4,0.0003111,3109.9,-0.00010238,3.1391,-0.0001028,-0.0052433,0.60578
27785,10.838,3.5455,0.1,0.00031353,3133.1,0.0003136,3135.2,-0.00010311,4.2622,-0.00010367,-0.0052621,0.5964
27786,10.93,3.4545,0.1,0.00031108,3108.7,0.00031113,3110.1,-0.00010242,2.8026,-0.0001028,-0.0053776,0.60564
27787,10.838,3.7273,0.1,0.00031358,3133.7,0.00031365,3135.5,-0.00010318,3.669,-0.00010366,-0.0054809,0.59616
27788,10.93,3.6364,0.1,0.00031113,3109.1,0.00031117,3110.3,-0.00010248,2.3115,-0.00010279,-0.0056386,0.60544
27789,10.838,3.9091,0.1,0.00031366,3134.4,0.00031371,3135.9,-0.00010326,2.9348,-0.00010365,-0.0058742,0.59585
27790,10.93,3.8182,0.1,0.00031119,3109.8,0.00031122,3110.6,-0.00010255,1.6812,-0.00010278,-0.0062087,0.60517
27791,10.838,4.0909,0.1,0.00031374,3135.3,0.00031378,3136.3,-0.00010336,2.0787,-0.00010364,-0.0067122,0.59548
27792,10.93,4,0.1,0.00031127,3110.5,0.00031128,3111,-0.00010264,0.93174,-0.00010276,-0.0079753,0.60483
27793,10.838,4.2727,0.1,0.00031384,3136.3,0.00031386,3136.8,-0.00010347,1.1229,-0.00010362,-0.009319,0.59503
27794,10.93,4.1818,0.1,0.00031135,3111.4,0.00031135,3111.4,-0.00010273,0.11164,-0.00010275,-0.037984,0.60442
27795,10.838,4.4545,0.1,0.00031395,3137.4,0.00031396,3137.4,-0.00010359,0.12974,-0.00010362,-0.054514,0.59452
27796,10.93,4.3636,0.1,0.00031145,3112.3,0.00031143,3111.9,-0.00010274,0.001391,-0.00010285,-0.85394,0.60395
27797,10.838,4.6364,0.1,0.00031407,3138.6,0.00031406,3138.1,-0.00010359,0.004036,-0.00010373,-1.0264,0.59394
27798,10.93,4.5455,0.1,0.00031155,3113.4,0.00031152,3112.5,-0.00010272,-0.0007257,-0.00010297,-1.8315,0.60341
27799,10.838,4.8182,0.1,0.0003142,3139.9,0.00031417,3138.8,-0.00010358,0.00096999,-0.00010387,-2.1611,0.59329
27800,10.93,4.7273,0.1,0.00031167,3114.5,0.00031162,3113.1,-0.00010271,-0.0010011,-0.00010309,-2.8432,0.6028
27801,10.838,5,0.1,0.00031434,3141.2,0.00031428,3139.6,-0.00010357,0.00040914,-0.00010401,-3.3226,0.59258
27802,10.93,4.9091,0.1,0.00031179,3115.7,0.00031172,3113.8,-0.0001027,-0.00074028,-0.00010321,-3.8696,0.60212
27803,10.838,5.1818,0.1,0.00031448,3142.7,0.00031441,3140.4,-0.00010356,0.00053334,-0.00010416,-4.497,0.59179
27804,10.93,5.0909,0.1,0.00031191,3117,0.00031183,3114.5,-0.00010269,-0.00020502,-0.00010334,-4.8962,0.60138
27805,10.838,5.3636,0.1,0.00031464,3144.2,0.00031454,3141.4,-0.00010355,0.00092936,-0.0001043,-5.6782,0.59094
27806,10.93,5.2727,0.1,0.00031205,3118.3,0.00031194,3115.3,-0.00010268,0.00060133,-0.00010347,-5.9137,0.60056
27807,10.838,5.5455,0.1,0.00031481,3145.9,0.00031469,3142.4,-0.00010354,0.0018153,-0.00010446,-6.894,0.59002
27808,10.93,5.4545,0.1,0.00031219,3119.7,0.00031207,3116.3,-0.00010268,0.001306,-0.0001036,-6.922,0.59968
27809,10.838,5.7273,0.1,0.00031507,3148.5,0.00031492,3144.1,-0.00010354,0.0025315,-0.0001047,-8.6641,0.58903
27810,10.93,5.6364,0.1,0.00031235,3121.3,0.00031221,3117.3,-0.00010268,0.0035688,-0.00010374,-7.9821,0.59873
27811,10.93,5.8182,0.1,0.00031268,3124.7,0.00031251,3119.6,-0.00010268,0.001919,-0.00010403,-10.138,0.59771
27812,10.838,5.9091,0.1,0.00031478,3145.6,0.00031466,3142.2,-0.00010354,0.0011097,-0.00010444,-6.7121,0.58797
27813,11.022,0.27273,0.1,0.00030995,3097.4,0.00030979,3092.7,-0.00010182,0.0035952,-0.00010307,-9.3703,0.60749
27814,11.114,0.18182,0.1,0.00030756,3073.5,0.00030738,3068.1,-0.00010097,0.0015041,-0.00010238,-10.641,0.61628
27815,11.022,0.090909,0.1,0.00030962,3094.1,0.00030951,3090.6,-0.00010183,0.0012303,-0.00010276,-7.005,0.60644
27816,11.022,0.45455,0.1,0.00030973,3095.1,0.00030959,3091.1,-0.00010181,0.0031221,-0.00010288,-7.9859,0.60846
27817,11.114,0.36364,0.1,0.00030726,3070.5,0.00030711,3066,-0.00010095,0.0058669,-0.00010214,-8.882,0.61729
27818,11.022,0.63636,0.1,0.00030959,3093.8,0.00030947,3090.2,-0.00010181,0.0010328,-0.00010276,-7.1368,0.60937
27819,11.114,0.54545,0.1,0.00030713,3069.2,0.00030699,3065.1,-0.00010095,0.0016688,-0.00010204,-8.2048,0.61822
27820,11.022,0.81818,0.1,0.00030947,3092.6,0.00030936,3089.4,-0.00010181,-9.0489e-07,-0.00010265,-6.2934,0.61021
27821,11.114,0.72727,0.1,0.00030702,3068.1,0.00030689,3064.3,-0.00010094,0.0005663,-0.00010195,-7.5504,0.61909
27822,11.022,1,0.1,0.00030935,3091.4,0.00030926,3088.7,-0.00010182,-0.0010069,-0.00010254,-5.4248,0.61099
27823,11.114,0.90909,0.1,0.00030692,3067.1,0.0003068,3063.7,-0.00010094,-0.00085765,-0.00010186,-6.8544,0.6199
27824,11.022,1.1818,0.1,0.00030925,3090.3,0.00030917,3088.1,-0.00010183,-0.0017892,-0.00010243,-4.5347,0.6117
27825,11.114,1.0909,0.1,0.00030682,3066.1,0.00030672,3063.1,-0.00010095,-0.0019272,-0.00010176,-6.1143,0.62063
27826,11.022,1.3636,0.1,0.00030914,3089.3,0.00030908,3087.5,-0.00010184,-0.0023863,-0.00010232,-3.6344,0.61233
27827,11.114,1.2727,0.1,0.00030673,3065.2,0.00030664,3062.5,-0.00010096,-0.0028141,-0.00010167,-5.3381,0.6213
27828,11.022,1.5455,0.1,0.00030904,3088.3,0.000309,3086.9,-0.00010185,-0.0027728,-0.00010221,-2.7405,0.61291
27829,11.114,1.4545,0.1,0.00030664,3064.3,0.00030656,3062,-0.00010097,-0.0034928,-0.00010157,-4.5401,0.6219
27830,11.022,1.7273,0.1,0.00030895,3087.4,0.00030892,3086.5,-0.00010186,-0.0029038,-0.00010211,-1.8733,0.61341
27831,11.114,1.6364,0.1,0.00030656,3063.5,0.00030649,3061.6,-0.00010098,-0.0039963,-0.00010148,-3.7401,0.62244
27832,11.022,1.9091,0.1,0.00030887,3086.6,0.00030885,3086,-0.00010188,-0.0025507,-0.00010202,-1.0561,0.61385
27833,11.114,1.8182,0.1,0.00030648,3062.7,0.00030643,3061.2,-0.00010099,-0.0043519,-0.00010139,-2.9614,0.62291
27834,11.022,2.0909,0.1,0.0003088,3085.8,0.00030879,3085.7,-0.00010189,0.00067221,-0.00010193,-0.31513,0.61422
27835,11.114,2,0.1,0.00030641,3062,0.00030637,3060.9,-0.000101,-0.0045902,-0.0001013,-2.2293,0.62331
27836,11.022,2.2727,0.1,0.00030873,3085.2,0.00030874,3085.4,-0.00010185,0.34135,-0.0001019,-0.0086126,0.61452
27837,11.114,2.1818,0.1,0.00030635,3061.3,0.00030632,3060.6,-0.00010102,-0.0047398,-0.00010123,-1.57,0.62364
27838,11.022,2.4545,0.1,0.00030868,3084.7,0.0003087,3085.1,-0.00010179,0.86742,-0.00010191,-0.0060523,0.61476
27839,11.114,2.3636,0.1,0.00030629,3060.8,0.00030628,3060.3,-0.00010103,-0.0048337,-0.00010116,-1.008,0.62391
27840,11.022,2.6364,0.1,0.00030865,3084.3,0.00030867,3085,-0.00010175,1.2587,-0.00010192,-0.0055501,0.61493
27841,11.114,2.5455,0.1,0.00030625,3060.4,0.00030624,3060.1,-0.00010104,-0.0049068,-0.00010111,-0.56536,0.62411
27842,11.022,2.8182,0.1,0.00030862,3084.1,0.00030865,3084.9,-0.00010172,1.4994,-0.00010192,-0.0053725,0.61503
27843,11.114,2.7273,0.1,0.00030623,3060.1,0.00030622,3060,-0.00010104,-0.0050179,-0.00010108,-0.25969,0.62424
27844,11.022,3,0.1,0.00030862,3084,0.00030864,3084.8,-0.00010171,1.5806,-0.00010192,-0.0053245,0.61506
27845,11.114,2.9091,0.1,0.00030621,3060,0.00030621,3060,-0.00010105,-0.0053045,-0.00010106,-0.1034,0.62431
27846,11.022,3.1818,0.1,0.00030862,3084.1,0.00030865,3084.9,-0.00010172,1.4994,-0.00010192,-0.0053724,0.61503
27847,11.114,3.0909,0.1,0.00030621,3060,0.00030621,3060,-0.00010105,-0.0053045,-0.00010106,-0.1034,0.62431
27848,11.022,3.3636,0.1,0.00030865,3084.3,0.00030867,3085,-0.00010175,1.2587,-0.00010192,-0.00555,0.61493
27849,11.114,3.2727,0.1,0.00030623,3060.1,0.00030622,3060,-0.00010104,-0.0050176,-0.00010108,-0.25969,0.62424
27850,11.022,3.5455,0.1,0.00030868,3084.7,0.0003087,3085.1,-0.00010179,0.86743,-0.00010191,-0.0060522,0.61476
27851,11.114,3.4545,0.1,0.00030625,3060.4,0.00030624,3060.1,-0.00010104,-0.004907,-0.00010111,-0.56536,0.62411
27852,11.022,3.7273,0.1,0.00030873,3085.2,0.00030874,3085.4,-0.00010185,0.34135,-0.0001019,-0.0086122,0.61452
27853,11.114,3.6364,0.1,0.00030629,3060.8,0.00030628,3060.3,-0.00010103,-0.0048336,-0.00010116,-1.008,0.62391
27854,11.022,3.9091,0.1,0.0003088,3085.8,0.00030879,3085.7,-0.00010189,0.0006721,-0.00010193,-0.31513,0.61422
27855,11.114,3.8182,0.1,0.00030635,3061.3,0.00030632,3060.6,-0.00010102,-0.0047398,-0.00010123,-1.57,0.62364
27856,11.022,4.0909,0.1,0.00030887,3086.6,0.00030885,3086,-0.00010188,-0.0025503,-0.00010202,-1.0561,0.61385
27857,11.114,4,0.1,0.00030641,3062,0.00030637,3060.9,-0.000101,-0.0045901,-0.0001013,-2.2293,0.62331
27858,11.022,4.2727,0.1,0.00030895,3087.4,0.00030892,3086.5,-0.00010186,-0.0029031,-0.00010211,-1.8733,0.61341
27859,11.114,4.1818,0.1,0.00030648,3062.7,0.00030643,3061.2,-0.00010099,-0.0043513,-0.00010139,-2.9614,0.62291
27860,11.022,4.4545,0.1,0.00030904,3088.3,0.000309,3086.9,-0.00010185,-0.0027724,-0.00010221,-2.7405,0.61291
27861,11.114,4.3636,0.1,0.00030656,3063.5,0.00030649,3061.6,-0.00010098,-0.003996,-0.00010148,-3.7401,0.62244
27862,11.022,4.6364,0.1,0.00030914,3089.3,0.00030908,3087.5,-0.00010184,-0.0023858,-0.00010232,-3.6344,0.61233
27863,11.114,4.5455,0.1,0.00030664,3064.3,0.00030656,3062,-0.00010097,-0.0034923,-0.00010157,-4.5401,0.6219
27864,11.022,4.8182,0.1,0.00030925,3090.3,0.00030917,3088.1,-0.00010183,-0.0017888,-0.00010243,-4.5347,0.6117
27865,11.114,4.7273,0.1,0.00030673,3065.2,0.00030664,3062.5,-0.00010096,-0.0028137,-0.00010167,-5.338,0.6213
27866,11.022,5,0.1,0.00030935,3091.4,0.00030926,3088.7,-0.00010182,-0.0010062,-0.00010254,-5.4248,0.61099
27867,11.114,4.9091,0.1,0.00030682,3066.1,0.00030672,3063.1,-0.00010095,-0.0019269,-0.00010176,-6.1143,0.62063
27868,11.022,5.1818,0.1,0.00030947,3092.6,0.00030936,3089.4,-0.00010181,4.1192e-07,-0.00010265,-6.2934,0.61021
27869,11.114,5.0909,0.1,0.00030692,3067.1,0.0003068,3063.7,-0.00010094,-0.00085667,-0.00010186,-6.8544,0.6199
27870,11.022,5.3636,0.1,0.00030959,3093.8,0.00030947,3090.2,-0.00010181,0.0010332,-0.00010276,-7.1368,0.60937
27871,11.114,5.2727,0.1,0.00030702,3068.1,0.00030689,3064.3,-0.00010094,0.00056752,-0.00010195,-7.5503,0.61909
27872,11.022,5.5455,0.1,0.00030973,3095.1,0.00030959,3091.1,-0.00010181,0.0031222,-0.00010288,-7.9859,0.60846
27873,11.114,5.4545,0.1,0.00030713,3069.2,0.00030699,3065.1,-0.00010095,0.0016685,-0.00010204,-8.2047,0.61822
27874,11.022,5.7273,0.1,0.00030995,3097.4,0.00030979,3092.7,-0.00010182,0.0035963,-0.00010307,-9.3702,0.60749
27875,11.114,5.6364,0.1,0.00030726,3070.5,0.00030711,3066,-0.00010095,0.0058678,-0.00010214,-8.8819,0.61729
27876,11.114,5.8182,0.1,0.00030756,3073.5,0.00030738,3068.1,-0.00010097,0.0015053,-0.00010238,-10.641,0.61628
27877,11.022,5.9091,0.1,0.00030962,3094.1,0.00030951,3090.6,-0.00010183,0.0012314,-0.00010276,-7.005,0.60644
27878,11.205,0.27273,0.1,0.00030485,3046.4,0.00030468,3041.4,-0.0001001,0.0048575,-0.00010144,-10.067,0.62615
27879,11.297,0.18182,0.1,0.00030245,3022.4,0.00030226,3016.8,-9.9255e-05,0.0013231,-0.00010074,-11.131,0.63506
27880,11.205,0.090909,0.1,0.00030449,3042.8,0.00030436,3039.1,-0.00010012,0.0014864,-0.00010109,-7.287,0.62512
27881,11.205,0.45455,0.1,0.00030466,3044.5,0.0003045,3039.9,-0.00010009,0.0044914,-0.0001013,-9.0761,0.62712
27882,11.297,0.36364,0.1,0.00030218,3019.7,0.00030201,3014.8,-9.9233e-05,0.0082533,-0.00010054,-9.7822,0.63605
27883,11.205,0.63636,0.1,0.00030456,3043.5,0.00030441,3039.2,-0.00010008,0.0012326,-0.00010122,-8.5972,0.62801
27884,11.297,0.54545,0.1,0.00030209,3018.8,0.00030193,3014,-9.9219e-05,0.0020402,-0.00010048,-9.4957,0.63697
27885,11.205,0.81818,0.1,0.00030447,3042.6,0.00030433,3038.6,-0.00010007,-0.00022907,-0.00010115,-8.0915,0.62884
27886,11.297,0.72727,0.1,0.00030202,3018.1,0.00030186,3013.5,-9.9209e-05,0.00062556,-0.00010043,-9.1989,0.63783
27887,11.205,1,0.1,0.00030439,3041.8,0.00030426,3038,-0.00010007,-0.0016632,-0.00010108,-7.525,0.62961
27888,11.297,0.90909,0.1,0.00030195,3017.4,0.0003018,3013,-9.9205e-05,-0.0012477,-0.00010038,-8.8239,0.63862
27889,11.205,1.1818,0.1,0.00030431,3041,0.00030419,3037.5,-0.00010008,-0.0027634,-0.000101,-6.8997,0.63031
27890,11.297,1.0909,0.1,0.00030188,3016.7,0.00030174,3012.5,-9.9206e-05,-0.0025719,-0.00010032,-8.3656,0.63935
27891,11.205,1.3636,0.1,0.00030423,3040.2,0.00030412,3037.1,-0.00010009,-0.0036298,-0.00010092,-6.2265,0.63094
27892,11.297,1.2727,0.1,0.00030181,3016.1,0.00030168,3012.1,-9.9211e-05,-0.0036307,-0.00010025,-7.8311,0.64001
27893,11.205,1.5455,0.1,0.00030415,3039.4,0.00030406,3036.7,-0.0001001,-0.0042726,-0.00010083,-5.5232,0.6315
27894,11.297,1.4545,0.1,0.00030175,3015.4,0.00030163,3011.8,-9.9219e-05,-0.0044006,-0.00010018,-7.2358,0.6406
27895,11.205,1.7273,0.1,0.00030408,3038.7,0.000304,3036.3,-0.00010011,-0.0047317,-0.00010075,-4.8123,0.632
27896,11.297,1.6364,0.1,0.00030169,3014.8,0.00030157,3011.5,-9.923e-05,-0.0049398,-0.00010011,-6.6015,0.64113
27897,11.205,1.9091,0.1,0.00030402,3038.1,0.00030394,3036,-0.00010012,-0.005044,-0.00010067,-4.1198,0.63243
27898,11.297,1.8182,0.1,0.00030163,3014.2,0.00030153,3011.2,-9.9242e-05,-0.0052914,-0.00010003,-5.9547,0.64159
27899,11.205,2.0909,0.1,0.00030396,3037.5,0.0003039,3035.7,-0.00010013,-0.0052449,-0.0001006,-3.473,0.6328
27900,11.297,2,0.1,0.00030157,3013.6,0.00030148,3011,-9.9255e-05,-0.0054989,-9.9963e-05,-5.3249,0.64199
27901,11.205,2.2727,0.1,0.0003039,3036.9,0.00030385,3035.5,-0.00010014,-0.0053682,-0.00010053,-2.8992,0.63309
27902,11.297,2.1818,0.1,0.00030152,3013.1,0.00030144,3010.8,-9.9267e-05,-0.0056026,-9.9898e-05,-4.7421,0.64232
27903,11.205,2.4545,0.1,0.00030386,3036.5,0.00030382,3035.3,-0.00010015,-0.0054434,-0.00010048,-2.4235,0.63333
27904,11.297,2.3636,0.1,0.00030148,3012.7,0.00030141,3010.6,-9.9278e-05,-0.0056394,-9.9841e-05,-4.2353,0.64258
27905,11.205,2.6364,0.1,0.00030383,3036.2,0.00030379,3035.2,-0.00010016,-0.0054902,-0.00010044,-2.0671,0.63349
27906,11.297,2.5455,0.1,0.00030144,3012.4,0.00030138,3010.4,-9.9287e-05,-0.0056407,-9.9796e-05,-3.8303,0.64278
27907,11.205,2.8182,0.1,0.00030381,3036,0.00030378,3035.1,-0.00010017,-0.0055179,-0.00010041,-1.8464,0.63359
27908,11.297,2.7273,0.1,0.00030142,3012.1,0.00030136,3010.4,-9.9294e-05,-0.0056277,-9.9765e-05,-3.5479,0.64291
27909,11.205,3,0.1,0.0003038,3035.9,0.00030377,3035.1,-0.00010017,-0.0055274,-0.0001004,-1.7717,0.63363
27910,11.297,2.9091,0.1,0.00030141,3012,0.00030135,3010.3,-9.9297e-05,-0.0056169,-9.9749e-05,-3.4029,0.64298
27911,11.205,3.1818,0.1,0.00030381,3036,0.00030378,3035.1,-0.00010017,-0.0055176,-0.00010041,-1.8464,0.63359
27912,11.297,3.0909,0.1,0.00030141,3012,0.00030135,3010.3,-9.9297e-05,-0.0056167,-9.9749e-05,-3.4029,0.64298
27913,11.205,3.3636,0.1,0.00030383,3036.2,0.00030379,3035.2,-0.00010016,-0.0054901,-0.00010044,-2.0671,0.63349
27914,11.297,3.2727,0.1,0.00030142,3012.1,0.00030136,3010.4,-9.9294e-05,-0.0056276,-9.9765e-05,-3.5479,0.64291
27915,11.205,3.5455,0.1,0.00030386,3036.5,0.00030382,3035.3,-0.00010015,-0.0054433,-0.00010048,-2.4234,0.63333
27916,11.297,3.4545,0.1,0.00030144,3012.4,0.00030138,3010.4,-9.9287e-05,-0.0056406,-9.9796e-05,-3.8303,0.64278
27917,11.205,3.7273,0.1,0.0003039,3036.9,0.00030385,3035.5,-0.00010014,-0.005368,-0.00010053,-2.8992,0.63309
27918,11.297,3.6364,0.1,0.00030148,3012.7,0.00030141,3010.6,-9.9278e-05,-0.0056391,-9.9841e-05,-4.2353,0.64258
27919,11.205,3.9091,0.1,0.00030396,3037.5,0.0003039,3035.7,-0.00010013,-0.0052448,-0.0001006,-3.473,0.6328
27920,11.297,3.8182,0.1,0.00030152,3013.1,0.00030144,3010.8,-9.9267e-05,-0.0056022,-9.9898e-05,-4.7421,0.64232
27921,11.205,4.0909,0.1,0.00030402,3038.1,0.00030394,3036,-0.00010012,-0.0050437,-0.00010067,-4.1198,0.63243
27922,11.297,4,0.1,0.00030157,3013.6,0.00030148,3011,-9.9255e-05,-0.0054987,-9.9963e-05,-5.3249,0.64199
27923,11.205,4.2727,0.1,0.00030408,3038.7,0.000304,3036.3,-0.00010011,-0.0047316,-0.00010075,-4.8123,0.632
27924,11.297,4.1818,0.1,0.00030163,3014.2,0.00030153,3011.2,-9.9242e-05,-0.0052909,-0.00010003,-5.9547,0.64159
27925,11.205,4.4545,0.1,0.00030415,3039.4,0.00030406,3036.7,-0.0001001,-0.0042721,-0.00010083,-5.5232,0.6315
27926,11.297,4.3636,0.1,0.00030169,3014.8,0.00030157,3011.5,-9.923e-05,-0.0049395,-0.00010011,-6.6015,0.64113
27927,11.205,4.6364,0.1,0.00030423,3040.2,0.00030412,3037.1,-0.00010009,-0.0036294,-0.00010092,-6.2265,0.63094
27928,11.297,4.5455,0.1,0.00030175,3015.4,0.00030163,3011.8,-9.9219e-05,-0.0043997,-0.00010018,-7.2358,0.6406
27929,11.205,4.8182,0.1,0.00030431,3041,0.00030419,3037.5,-0.00010008,-0.0027631,-0.000101,-6.8996,0.63031
27930,11.297,4.7273,0.1,0.00030181,3016.1,0.00030168,3012.1,-9.9211e-05,-0.0036302,-0.00010025,-7.8311,0.64001
27931,11.205,5,0.1,0.00030439,3041.8,0.00030426,3038,-0.00010007,-0.0016626,-0.00010108,-7.525,0.62961
27932,11.297,4.9091,0.1,0.00030188,3016.7,0.00030174,3012.5,-9.9206e-05,-0.0025714,-0.00010032,-8.3656,0.63935
27933,11.205,5.1818,0.1,0.00030447,3042.6,0.00030433,3038.6,-0.00010007,-0.00022819,-0.00010115,-8.0915,0.62884
27934,11.297,5.0909,0.1,0.00030195,3017.4,0.0003018,3013,-9.9205e-05,-0.0012466,-0.00010038,-8.8239,0.63862
27935,11.205,5.3636,0.1,0.00030456,3043.5,0.00030441,3039.2,-0.00010008,0.0012331,-0.00010122,-8.5972,0.62801
27936,11.297,5.2727,0.1,0.00030202,3018.1,0.00030186,3013.5,-9.9209e-05,0.00062674,-0.00010043,-9.1989,0.63783
27937,11.205,5.5455,0.1,0.00030466,3044.5,0.0003045,3039.9,-0.00010009,0.0044919,-0.0001013,-9.076,0.62712
27938,11.297,5.4545,0.1,0.00030209,3018.8,0.00030193,3014,-9.9219e-05,0.0020404,-0.00010048,-9.4957,0.63697
27939,11.205,5.7273,0.1,0.00030485,3046.4,0.00030468,3041.4,-0.0001001,0.0048585,-0.00010144,-10.067,0.62615
27940,11.297,5.6364,0.1,0.00030218,3019.7,0.00030201,3014.8,-9.9233e-05,0.0082539,-0.00010054,-9.7822,0.63605
27941,11.297,5.8182,0.1,0.00030245,3022.4,0.00030226,3016.8,-9.9255e-05,0.0013242,-0.00010074,-11.131,0.63506
27942,11.205,5.9091,0.1,0.00030449,3042.8,0.00030436,3039.1,-0.00010012,0.0014868,-0.00010109,-7.287,0.62512
27943,11.389,0.27273,0.1,0.00029976,2995.5,0.00029958,2990.1,-9.8387e-05,0.0062579,-9.982e-05,-10.76,0.64503
27944,11.481,0.18182,0.1,0.00029734,2971.3,0.00029714,2965.5,-9.7546e-05,0.0013019,-9.9092e-05,-11.611,0.65404
27945,11.389,0.090909,0.1,0.00029936,2991.5,0.00029923,2987.7,-9.8413e-05,0.0017928,-9.9419e-05,-7.56,0.64401
27946,11.389,0.45455,0.1,0.0002996,2994,0.00029943,2988.9,-9.8365e-05,0.0058676,-9.972e-05,-10.177,0.64597
27947,11.481,0.36364,0.1,0.00029711,2969.1,0.00029693,2963.7,-9.7515e-05,0.01068,-9.894e-05,-10.693,0.65502
27948,11.389,0.63636,0.1,0.00029954,2993.4,0.00029937,2988.3,-9.8349e-05,0.0014236,-9.969e-05,-10.076,0.64686
27949,11.481,0.54545,0.1,0.00029706,2968.5,0.00029687,2963.1,-9.7493e-05,0.0023378,-9.8932e-05,-10.81,0.65593
27950,11.389,0.81818,0.1,0.00029949,2992.8,0.00029932,2987.8,-9.834e-05,-0.0003864,-9.9659e-05,-9.9112,0.64768
27951,11.481,0.72727,0.1,0.00029702,2968.2,0.00029684,2962.7,-9.7478e-05,0.00064708,-9.8926e-05,-10.879,0.65677
27952,11.389,1,0.1,0.00029944,2992.3,0.00029927,2987.5,-9.8336e-05,-0.0021265,-9.9619e-05,-9.6453,0.64843
27953,11.481,0.90909,0.1,0.00029699,2967.8,0.0002968,2962.4,-9.7469e-05,-0.001617,-9.891e-05,-10.827,0.65755
27954,11.389,1.1818,0.1,0.00029939,2991.8,0.00029923,2987.1,-9.8337e-05,-0.0033874,-9.9572e-05,-9.2786,0.64912
27955,11.481,1.0909,0.1,0.00029695,2967.5,0.00029677,2962.1,-9.7467e-05,-0.0031181,-9.8884e-05,-10.647,0.65827
27956,11.389,1.3636,0.1,0.00029933,2991.3,0.00029918,2986.8,-9.8343e-05,-0.0043318,-9.9517e-05,-8.8227,0.64974
27957,11.481,1.2727,0.1,0.00029692,2967.1,0.00029674,2961.9,-9.747e-05,-0.004271,-9.8846e-05,-10.347,0.65892
27958,11.389,1.5455,0.1,0.00029928,2990.7,0.00029914,2986.6,-9.8352e-05,-0.0049857,-9.9456e-05,-8.2969,0.6503
27959,11.481,1.4545,0.1,0.00029688,2966.7,0.00029671,2961.7,-9.7477e-05,-0.005059,-9.88e-05,-9.9423,0.65951
27960,11.389,1.7273,0.1,0.00029923,2990.2,0.0002991,2986.4,-9.8363e-05,-0.0054108,-9.9391e-05,-7.7272,0.65079
27961,11.481,1.6364,0.1,0.00029684,2966.3,0.00029668,2961.6,-9.7488e-05,-0.0055692,-9.8746e-05,-9.4586,0.66003
27962,11.389,1.9091,0.1,0.00029918,2989.7,0.00029906,2986.2,-9.8376e-05,-0.0056576,-9.9326e-05,-7.1435,0.65122
27963,11.481,1.8182,0.1,0.0002968,2965.9,0.00029664,2961.4,-9.7501e-05,-0.005862,-9.8688e-05,-8.9268,0.66048
27964,11.389,2.0909,0.1,0.00029913,2989.3,0.00029902,2986,-9.8389e-05,-0.0057747,-9.9263e-05,-6.5779,0.65158
27965,11.481,2,0.1,0.00029676,2965.5,0.00029661,2961.3,-9.7514e-05,-0.0059958,-9.8629e-05,-8.3813,0.66087
27966,11.389,2.2727,0.1,0.00029909,2988.9,0.00029899,2985.8,-9.8401e-05,-0.005806,-9.9207e-05,-6.0623,0.65187
27967,11.481,2.1818,0.1,0.00029672,2965.1,0.00029658,2961.2,-9.7528e-05,-0.0060222,-9.8573e-05,-7.858,0.6612
27968,11.389,2.4545,0.1,0.00029906,2988.5,0.00029896,2985.7,-9.8411e-05,-0.0057899,-9.9159e-05,-5.6263,0.6521
27969,11.481,2.3636,0.1,0.00029668,2964.8,0.00029656,2961.1,-9.754e-05,-0.0059872,-9.8523e-05,-7.3909,0.66146
27970,11.389,2.6364,0.1,0.00029903,2988.3,0.00029894,2985.6,-9.8419e-05,-0.0057563,-9.9123e-05,-5.2953,0.65227
27971,11.481,2.5455,0.1,0.00029666,2964.5,0.00029654,2961,-9.755e-05,-0.0059293,-9.8482e-05,-7.0109,0.66166
27972,11.389,2.8182,0.1,0.00029902,2988.1,0.00029893,2985.6,-9.8424e-05,-0.0057263,-9.9101e-05,-5.0886,0.65236
27973,11.481,2.7273,0.1,0.00029664,2964.3,0.00029652,2961,-9.7557e-05,-0.0058739,-9.8454e-05,-6.7427,0.66179
27974,11.389,3,0.1,0.00029901,2988.1,0.00029893,2985.5,-9.8426e-05,-0.0057146,-9.9093e-05,-5.0184,0.6524
27975,11.481,2.9091,0.1,0.00029663,2964.2,0.00029652,2960.9,-9.7561e-05,-0.0058413,-9.8439e-05,-6.6041,0.66185
27976,11.389,3.1818,0.1,0.00029902,2988.1,0.00029893,2985.6,-9.8424e-05,-0.0057263,-9.9101e-05,-5.0886,0.65236
27977,11.481,3.0909,0.1,0.00029663,2964.2,0.00029652,2960.9,-9.7561e-05,-0.0058413,-9.8439e-05,-6.6041,0.66185
27978,11.389,3.3636,0.1,0.00029903,2988.3,0.00029894,2985.6,-9.8419e-05,-0.0057561,-9.9123e-05,-5.2953,0.65227
27979,11.481,3.2727,0.1,0.00029664,2964.3,0.00029652,2961,-9.7557e-05,-0.005874,-9.8454e-05,-6.7427,0.66179
27980,11.389,3.5455,0.1,0.00029906,2988.5,0.00029896,2985.7,-9.8411e-05,-0.0057896,-9.9159e-05,-5.6263,0.6521
27981,11.481,3.4545,0.1,0.00029666,2964.5,0.00029654,2961,-9.755e-05,-0.0059291,-9.8482e-05,-7.0109,0.66166
27982,11.389,3.7273,0.1,0.00029909,2988.9,0.00029899,2985.8,-9.8401e-05,-0.0058055,-9.9207e-05,-6.0623,0.65187
27983,11.481,3.6364,0.1,0.00029668,2964.8,0.00029656,2961.1,-9.754e-05,-0.0059871,-9.8523e-05,-7.3909,0.66146
27984,11.389,3.9091,0.1,0.00029913,2989.3,0.00029902,2986,-9.8389e-05,-0.0057742,-9.9263e-05,-6.5779,0.65158
27985,11.481,3.8182,0.1,0.00029672,2965.1,0.00029658,2961.2,-9.7528e-05,-0.0060218,-9.8573e-05,-7.858,0.6612
27986,11.389,4.0909,0.1,0.00029918,2989.7,0.00029906,2986.2,-9.8376e-05,-0.0056572,-9.9326e-05,-7.1435,0.65122
27987,11.481,4,0.1,0.00029676,2965.5,0.00029661,2961.3,-9.7514e-05,-0.0059954,-9.8629e-05,-8.3813,0.66087
27988,11.389,4.2727,0.1,0.00029923,2990.2,0.0002991,2986.4,-9.8363e-05,-0.0054103,-9.9391e-05,-7.7272,0.65079
27989,11.481,4.1818,0.1,0.0002968,2965.9,0.00029664,2961.4,-9.7501e-05,-0.0058616,-9.8688e-05,-8.9268,0.66048
27990,11.389,4.4545,0.1,0.00029928,2990.7,0.00029914,2986.6,-9.8352e-05,-0.004985,-9.9456e-05,-8.2969,0.6503
27991,11.481,4.3636,0.1,0.00029684,2966.3,0.00029668,2961.6,-9.7488e-05,-0.0055688,-9.8746e-05,-9.4586,0.66003
27992,11.389,4.6364,0.1,0.00029933,2991.3,0.00029918,2986.8,-9.8343e-05,-0.004331,-9.9517e-05,-8.8227,0.64974
27993,11.481,4.5455,0.1,0.00029688,2966.7,0.00029671,2961.7,-9.7477e-05,-0.0050582,-9.88e-05,-9.9422,0.65951
27994,11.389,4.8182,0.1,0.00029938,2991.8,0.00029923,2987.1,-9.8337e-05,-0.0033867,-9.9572e-05,-9.2786,0.64912
27995,11.481,4.7273,0.1,0.00029692,2967.1,0.00029674,2961.9,-9.747e-05,-0.0042703,-9.8846e-05,-10.347,0.65892
27996,11.389,5,0.1,0.00029944,2992.3,0.00029927,2987.5,-9.8336e-05,-0.0021256,-9.9619e-05,-9.6453,0.64843
27997,11.481,4.9091,0.1,0.00029695,2967.5,0.00029677,2962.1,-9.7467e-05,-0.0031177,-9.8884e-05,-10.647,0.65827
27998,11.389,5.1818,0.1,0.00029949,2992.8,0.00029932,2987.8,-9.834e-05,-0.00038506,-9.9659e-05,-9.9112,0.64768
27999,11.481,5.0909,0.1,0.00029699,2967.8,0.0002968,2962.4,-9.7469e-05,-0.0016154,-9.891e-05,-10.827,0.65755
28000,11.389,5.3636,0.1,0.00029954,2993.4,0.00029937,2988.3,-9.8349e-05,0.0014246,-9.969e-05,-10.076,0.64686
28001,11.481,5.2727,0.1,0.00029702,2968.2,0.00029684,2962.7,-9.7478e-05,0.00064772,-9.8926e-05,-10.879,0.65677
28002,11.389,5.5455,0.1,0.0002996,2994,0.00029943,2988.9,-9.8365e-05,0.0058681,-9.972e-05,-10.177,0.64597
28003,11.481,5.4545,0.1,0.00029706,2968.5,0.00029687,2963.1,-9.7493e-05,0.0023381,-9.8932e-05,-10.81,0.65593
28004,11.389,5.7273,0.1,0.00029976,2995.5,0.00029958,2990.1,-9.8387e-05,0.0062586,-9.982e-05,-10.76,0.64503
28005,11.481,5.6364,0.1,0.00029711,2969.1,0.00029693,2963.7,-9.7515e-05,0.010681,-9.894e-05,-10.693,0.65502
28006,11.481,5.8182,0.1,0.00029734,2971.3,0.00029714,2965.5,-9.7546e-05,0.0013033,-9.9092e-05,-11.611,0.65404
28007,11.389,5.9091,0.1,0.00029936,2991.5,0.00029923,2987.7,-9.8413e-05,0.0017939,-9.9419e-05,-7.56,0.64401
28008,11.573,0.27273,0.1,0.00029468,2944.7,0.00029448,2939,-9.6674e-05,0.0077292,-9.82e-05,-11.457,0.6641
28009,11.665,0.18182,0.1,0.00029224,2920.4,0.00029203,2914.3,-9.5839e-05,0.001438,-9.7448e-05,-12.086,0.67322
28010,11.573,0.090909,0.1,0.00029423,2940.3,0.0002941,2936.4,-9.6709e-05,0.0020641,-9.7751e-05,-7.8259,0.6631
28011,11.573,0.45455,0.1,0.00029456,2943.6,0.00029437,2937.9,-9.6644e-05,0.0071796,-9.8149e-05,-11.301,0.66503
28012,11.665,0.36364,0.1,0.00029205,2918.5,0.00029185,2912.7,-9.5799e-05,0.013161,-9.7348e-05,-11.626,0.67418
28013,11.573,0.63636,0.1,0.00029454,2943.3,0.00029434,2937.5,-9.6622e-05,0.001503,-9.8165e-05,-11.591,0.66591
28014,11.665,0.54545,0.1,0.00029204,2918.4,0.00029183,2912.3,-9.577e-05,0.002533,-9.7389e-05,-12.165,0.67508
28015,11.573,0.81818,0.1,0.00029452,2943.2,0.00029432,2937.3,-9.6608e-05,-0.00062255,-9.8175e-05,-11.774,0.66672
28016,11.665,0.72727,0.1,0.00029204,2918.4,0.00029183,2912.1,-9.5749e-05,0.00058037,-9.7427e-05,-12.611,0.67591
28017,11.573,1,0.1,0.0002945,2943,0.0002943,2937.1,-9.6601e-05,-0.0026262,-9.8172e-05,-11.81,0.66746
28018,11.665,0.90909,0.1,0.00029205,2918.4,0.00029182,2912,-9.5736e-05,-0.0020533,-9.7451e-05,-12.888,0.67668
28019,11.573,1.1818,0.1,0.00029448,2942.8,0.00029428,2936.9,-9.66e-05,-0.0040027,-9.8156e-05,-11.697,0.66814
28020,11.665,1.0909,0.1,0.00029205,2918.4,0.00029182,2911.9,-9.5731e-05,-0.0037025,-9.7459e-05,-12.986,0.67739
28021,11.573,1.3636,0.1,0.00029446,2942.6,0.00029426,2936.8,-9.6604e-05,-0.0049881,-9.8127e-05,-11.449,0.66875
28022,11.665,1.2727,0.1,0.00029204,2918.4,0.00029182,2911.9,-9.5733e-05,-0.0049241,-9.7451e-05,-12.913,0.67803
28023,11.573,1.5455,0.1,0.00029443,2942.3,0.00029424,2936.7,-9.6613e-05,-0.0056265,-9.8088e-05,-11.087,0.6693
28024,11.665,1.4545,0.1,0.00029203,2918.3,0.00029181,2911.9,-9.5741e-05,-0.0057128,-9.7428e-05,-12.686,0.67861
28025,11.573,1.7273,0.1,0.0002944,2942,0.00029422,2936.6,-9.6625e-05,-0.0060025,-9.8041e-05,-10.641,0.66979
28026,11.665,1.6364,0.1,0.00029201,2918.1,0.0002918,2911.9,-9.5752e-05,-0.0061843,-9.7393e-05,-12.337,0.67913
28027,11.573,1.9091,0.1,0.00029437,2941.7,0.00029419,2936.6,-9.6639e-05,-0.0061837,-9.7989e-05,-10.148,0.67021
28028,11.665,1.8182,0.1,0.00029199,2917.9,0.00029178,2911.9,-9.5767e-05,-0.0064164,-9.735e-05,-11.901,0.67957
28029,11.573,2.0909,0.1,0.00029434,2941.3,0.00029417,2936.5,-9.6653e-05,-0.0062304,-9.7936e-05,-9.6451,0.67056
28030,11.665,2,0.1,0.00029196,2917.6,0.00029177,2911.9,-9.5783e-05,-0.0064823,-9.7302e-05,-11.42,0.67996
28031,11.573,2.2727,0.1,0.00029431,2941,0.00029415,2936.4,-9.6667e-05,-0.0061951,-9.7887e-05,-9.1704,0.67085
28032,11.665,2.1818,0.1,0.00029194,2917.4,0.00029175,2911.9,-9.5798e-05,-0.0064421,-9.7253e-05,-10.937,0.68028
28033,11.573,2.4545,0.1,0.00029428,2940.8,0.00029413,2936.4,-9.6679e-05,-0.006123,-9.7844e-05,-8.7594,0.67108
28034,11.665,2.3636,0.1,0.00029192,2917.1,0.00029174,2911.9,-9.5813e-05,-0.0063498,-9.7208e-05,-10.492,0.68054
28035,11.573,2.6364,0.1,0.00029426,2940.6,0.00029412,2936.3,-9.6688e-05,-0.0060474,-9.7811e-05,-8.4423,0.67124
28036,11.665,2.5455,0.1,0.0002919,2916.9,0.00029172,2911.9,-9.5824e-05,-0.0062466,-9.7171e-05,-10.122,0.68073
28037,11.573,2.8182,0.1,0.00029425,2940.4,0.00029411,2936.3,-9.6694e-05,-0.0059922,-9.779e-05,-8.2422,0.67134
28038,11.665,2.7273,0.1,0.00029188,2916.8,0.00029171,2911.9,-9.5833e-05,-0.0061611,-9.7144e-05,-9.8583,0.68086
28039,11.573,3,0.1,0.00029424,2940.4,0.0002941,2936.3,-9.6696e-05,-0.0059724,-9.7783e-05,-8.1739,0.67137
28040,11.665,2.9091,0.1,0.00029187,2916.7,0.00029171,2911.9,-9.5837e-05,-0.0061134,-9.713e-05,-9.7208,0.68092
28041,11.573,3.1818,0.1,0.00029425,2940.4,0.00029411,2936.3,-9.6694e-05,-0.0059924,-9.779e-05,-8.2422,0.67134
28042,11.665,3.0909,0.1,0.00029187,2916.7,0.00029171,2911.9,-9.5837e-05,-0.0061134,-9.713e-05,-9.7208,0.68092
28043,11.573,3.3636,0.1,0.00029426,2940.6,0.00029412,2936.3,-9.6688e-05,-0.0060475,-9.7811e-05,-8.4423,0.67124
28044,11.665,3.2727,0.1,0.00029188,2916.8,0.00029171,2911.9,-9.5833e-05,-0.006161,-9.7144e-05,-9.8583,0.68086
28045,11.573,3.5455,0.1,0.00029428,2940.8,0.00029413,2936.4,-9.6679e-05,-0.0061231,-9.7844e-05,-8.7594,0.67108
28046,11.665,3.4545,0.1,0.0002919,2916.9,0.00029172,2911.9,-9.5824e-05,-0.0062464,-9.7171e-05,-10.122,0.68073
28047,11.573,3.7273,0.1,0.00029431,2941,0.00029415,2936.4,-9.6667e-05,-0.0061951,-9.7887e-05,-9.1704,0.67085
28048,11.665,3.6364,0.1,0.00029192,2917.1,0.00029174,2911.9,-9.5812e-05,-0.0063495,-9.7208e-05,-10.492,0.68054
28049,11.573,3.9091,0.1,0.00029434,2941.3,0.00029417,2936.5,-9.6653e-05,-0.0062301,-9.7936e-05,-9.6451,0.67056
28050,11.665,3.8182,0.1,0.00029194,2917.4,0.00029175,2911.9,-9.5798e-05,-0.0064417,-9.7253e-05,-10.937,0.68028
28051,11.573,4.0909,0.1,0.00029437,2941.7,0.00029419,2936.6,-9.6639e-05,-0.0061834,-9.7989e-05,-10.148,0.67021
28052,11.665,4,0.1,0.00029196,2917.6,0.00029177,2911.9,-9.5783e-05,-0.0064818,-9.7302e-05,-11.42,0.67996
28053,11.573,4.2727,0.1,0.0002944,2942,0.00029422,2936.6,-9.6625e-05,-0.0060024,-9.8041e-05,-10.641,0.66979
28054,11.665,4.1818,0.1,0.00029199,2917.9,0.00029178,2911.9,-9.5767e-05,-0.0064162,-9.735e-05,-11.901,0.67957
28055,11.573,4.4545,0.1,0.00029443,2942.3,0.00029424,2936.7,-9.6613e-05,-0.005626,-9.8088e-05,-11.087,0.6693
28056,11.665,4.3636,0.1,0.00029201,2918.1,0.0002918,2911.9,-9.5752e-05,-0.006184,-9.7393e-05,-12.337,0.67913
28057,11.573,4.6364,0.1,0.00029446,2942.6,0.00029426,2936.8,-9.6604e-05,-0.0049874,-9.8127e-05,-11.449,0.66875
28058,11.665,4.5455,0.1,0.00029203,2918.3,0.00029181,2911.9,-9.5741e-05,-0.0057118,-9.7428e-05,-12.686,0.67861
28059,11.573,4.8182,0.1,0.00029448,2942.8,0.00029428,2936.9,-9.66e-05,-0.0040022,-9.8156e-05,-11.697,0.66814
28060,11.665,4.7273,0.1,0.00029204,2918.4,0.00029182,2911.9,-9.5733e-05,-0.0049238,-9.7451e-05,-12.913,0.67803
28061,11.573,5,0.1,0.0002945,2943,0.0002943,2937.1,-9.6601e-05,-0.0026251,-9.8172e-05,-11.81,0.66746
28062,11.665,4.9091,0.1,0.00029205,2918.4,0.00029182,2911.9,-9.5731e-05,-0.0037018,-9.7459e-05,-12.986,0.67739
28063,11.573,5.1818,0.1,0.00029452,2943.2,0.00029432,2937.3,-9.6608e-05,-0.00062164,-9.8175e-05,-11.774,0.66672
28064,11.665,5.0909,0.1,0.00029205,2918.4,0.00029182,2912,-9.5736e-05,-0.002052,-9.7451e-05,-12.888,0.67668
28065,11.573,5.3636,0.1,0.00029454,2943.3,0.00029434,2937.5,-9.6622e-05,0.001503,-9.8165e-05,-11.591,0.66591
28066,11.665,5.2727,0.1,0.00029204,2918.4,0.00029183,2912.1,-9.5749e-05,0.00058108,-9.7427e-05,-12.611,0.67591
28067,11.573,5.5455,0.1,0.00029456,2943.6,0.00029437,2937.9,-9.6644e-05,0.0071801,-9.8149e-05,-11.301,0.66503
28068,11.665,5.4545,0.1,0.00029204,2918.4,0.00029183,2912.3,-9.577e-05,0.0025334,-9.7389e-05,-12.165,0.67508
28069,11.573,5.7273,0.1,0.00029468,2944.7,0.00029448,2939,-9.6674e-05,0.0077305,-9.82e-05,-11.457,0.6641
28070,11.665,5.6364,0.1,0.00029205,2918.5,0.00029185,2912.7,-9.5799e-05,0.013161,-9.7348e-05,-11.626,0.67418
28071,11.665,5.8182,0.1,0.00029224,2920.4,0.00029203,2914.3,-9.5839e-05,0.0014394,-9.7448e-05,-12.086,0.67322
28072,11.573,5.9091,0.1,0.00029423,2940.3,0.0002941,2936.4,-9.6709e-05,0.0020647,-9.7751e-05,-7.8259,0.6631
28073,11.757,0.27273,0.1,0.0002896,2894,0.00028939,2887.9,-9.4963e-05,0.0093432,-9.6583e-05,-12.167,0.68337
28074,11.848,0.18182,0.1,0.00028713,2869.4,0.00028692,2863.1,-9.4131e-05,0.0018358,-9.5803e-05,-12.56,0.6926
28075,11.757,0.090909,0.1,0.00028911,2889.1,0.00028898,2885.1,-9.5007e-05,0.0023299,-9.6083e-05,-8.0866,0.68238
28076,11.757,0.45455,0.1,0.00028952,2893.2,0.00028931,2887,-9.4924e-05,0.0084847,-9.6584e-05,-12.464,0.68429
28077,11.848,0.36364,0.1,0.00028699,2867.9,0.00028678,2861.6,-9.4082e-05,0.015807,-9.576e-05,-12.593,0.69354
28078,11.757,0.63636,0.1,0.00028954,2893.4,0.00028932,2886.8,-9.4896e-05,0.0014963,-9.6648e-05,-13.164,0.68515
28079,11.848,0.54545,0.1,0.00028703,2868.3,0.00028679,2861.5,-9.4045e-05,0.0026914,-9.5853e-05,-13.581,0.69443
28080,11.757,0.81818,0.1,0.00028957,2893.7,0.00028933,2886.8,-9.4877e-05,-0.00093126,-9.6701e-05,-13.705,0.68595
28081,11.848,0.72727,0.1,0.00028707,2868.8,0.00028683,2861.5,-9.4019e-05,0.00047986,-9.5939e-05,-14.421,0.69525
28082,11.757,1,0.1,0.00028959,2893.9,0.00028934,2886.8,-9.4867e-05,-0.0031811,-9.6736e-05,-14.046,0.68668
28083,11.848,0.90909,0.1,0.00028712,2869.2,0.00028686,2861.7,-9.4004e-05,-0.0025207,-9.6004e-05,-15.036,0.69601
28084,11.757,1.1818,0.1,0.0002896,2894,0.00028936,2886.9,-9.4865e-05,-0.0046541,-9.6752e-05,-14.183,0.68735
28085,11.848,1.0909,0.1,0.00028716,2869.6,0.00028689,2861.8,-9.3997e-05,-0.0043027,-9.6048e-05,-15.412,0.69671
28086,11.757,1.3636,0.1,0.00028961,2894.1,0.00028936,2887,-9.487e-05,-0.0056647,-9.675e-05,-14.132,0.68796
28087,11.848,1.2727,0.1,0.00028718,2869.9,0.00028692,2862,-9.3999e-05,-0.0055798,-9.6069e-05,-15.558,0.69734
28088,11.757,1.5455,0.1,0.0002896,2894.1,0.00028937,2887.1,-9.488e-05,-0.0062775,-9.6732e-05,-13.919,0.6885
28089,11.848,1.4545,0.1,0.0002872,2870,0.00028693,2862.3,-9.4008e-05,-0.006357,-9.607e-05,-15.497,0.69791
28090,11.757,1.7273,0.1,0.0002896,2894,0.00028936,2887.1,-9.4894e-05,-0.0066001,-9.67e-05,-13.58,0.68898
28091,11.848,1.6364,0.1,0.00028721,2870.1,0.00028695,2862.4,-9.4023e-05,-0.0067816,-9.6053e-05,-15.264,0.69842
28092,11.757,1.9091,0.1,0.00028958,2893.8,0.00028936,2887.2,-9.491e-05,-0.0067145,-9.666e-05,-13.157,0.68939
28093,11.848,1.8182,0.1,0.00028721,2870.1,0.00028695,2862.6,-9.404e-05,-0.0069473,-9.6023e-05,-14.904,0.69886
28094,11.757,2.0909,0.1,0.00028956,2893.6,0.00028935,2887.3,-9.4927e-05,-0.006693,-9.6616e-05,-12.696,0.68974
28095,11.848,2,0.1,0.0002872,2870,0.00028695,2862.8,-9.4059e-05,-0.0069416,-9.5984e-05,-14.464,0.69924
28096,11.757,2.2727,0.1,0.00028955,2893.5,0.00028934,2887.3,-9.4944e-05,-0.0065962,-9.6572e-05,-12.242,0.69003
28097,11.848,2.1818,0.1,0.00028719,2869.9,0.00028695,2862.9,-9.4079e-05,-0.0068337,-9.5941e-05,-13.998,0.69956
28098,11.757,2.4545,0.1,0.00028953,2893.3,0.00028933,2887.3,-9.4958e-05,-0.0064737,-9.6533e-05,-11.839,0.69025
28099,11.848,2.3636,0.1,0.00028718,2869.8,0.00028694,2863,-9.4096e-05,-0.0066843,-9.59e-05,-13.555,0.69981
28100,11.757,2.6364,0.1,0.00028951,2893.1,0.00028932,2887.4,-9.4969e-05,-0.0063616,-9.6502e-05,-11.522,0.69041
28101,11.848,2.5455,0.1,0.00028716,2869.7,0.00028694,2863,-9.4111e-05,-0.0065373,-9.5864e-05,-13.18,0.7
28102,11.757,2.8182,0.1,0.00028951,2893.1,0.00028931,2887.4,-9.4976e-05,-0.0062844,-9.6482e-05,-11.321,0.69051
28103,11.848,2.7273,0.1,0.00028715,2869.6,0.00028693,2863.1,-9.4121e-05,-0.0064232,-9.5838e-05,-12.908,0.70013
28104,11.757,3,0.1,0.0002895,2893,0.00028931,2887.4,-9.4978e-05,-0.0062569,-9.6475e-05,-11.251,0.69054
28105,11.848,2.9091,0.1,0.00028715,2869.5,0.00028693,2863.1,-9.4126e-05,-0.0063607,-9.5825e-05,-12.765,0.70019
28106,11.757,3.1818,0.1,0.00028951,2893.1,0.00028931,2887.4,-9.4976e-05,-0.0062842,-9.6482e-05,-11.321,0.69051
28107,11.848,3.0909,0.1,0.00028715,2869.5,0.00028693,2863.1,-9.4126e-05,-0.0063606,-9.5825e-05,-12.765,0.70019
28108,11.757,3.3636,0.1,0.00028951,2893.1,0.00028932,2887.4,-9.4969e-05,-0.0063614,-9.6502e-05,-11.522,0.69041
28109,11.848,3.2727,0.1,0.00028715,2869.6,0.00028693,2863.1,-9.4121e-05,-0.0064229,-9.5838e-05,-12.908,0.70013
28110,11.757,3.5455,0.1,0.00028953,2893.3,0.00028933,2887.3,-9.4958e-05,-0.0064733,-9.6533e-05,-11.839,0.69025
28111,11.848,3.4545,0.1,0.00028716,2869.7,0.00028694,2863,-9.4111e-05,-0.0065371,-9.5864e-05,-13.18,0.7
28112,11.757,3.7273,0.1,0.00028955,2893.5,0.00028934,2887.3,-9.4944e-05,-0.0065955,-9.6572e-05,-12.242,0.69003
28113,11.848,3.6364,0.1,0.00028718,2869.8,0.00028694,2863,-9.4096e-05,-0.0066837,-9.59e-05,-13.555,0.69981
28114,11.757,3.9091,0.1,0.00028956,2893.6,0.00028935,2887.3,-9.4927e-05,-0.0066924,-9.6616e-05,-12.696,0.68974
28115,11.848,3.8182,0.1,0.00028719,2869.9,0.00028695,2862.9,-9.4079e-05,-0.0068334,-9.5941e-05,-13.998,0.69956
28116,11.757,4.0909,0.1,0.00028958,2893.8,0.00028936,2887.2,-9.491e-05,-0.0067142,-9.666e-05,-13.157,0.68939
28117,11.848,4,0.1,0.0002872,2870,0.00028695,2862.8,-9.4059e-05,-0.006941,-9.5984e-05,-14.464,0.69924
28118,11.757,4.2727,0.1,0.0002896,2894,0.00028936,2887.1,-9.4894e-05,-0.0065997,-9.67e-05,-13.58,0.68898
28119,11.848,4.1818,0.1,0.00028721,2870.1,0.00028695,2862.6,-9.404e-05,-0.0069471,-9.6023e-05,-14.904,0.69886
28120,11.757,4.4545,0.1,0.0002896,2894.1,0.00028937,2887.1,-9.488e-05,-0.0062768,-9.6732e-05,-13.919,0.6885
28121,11.848,4.3636,0.1,0.00028721,2870.1,0.00028695,2862.4,-9.4023e-05,-0.006781,-9.6053e-05,-15.264,0.69842
28122,11.757,4.6364,0.1,0.00028961,2894.1,0.00028936,2887,-9.487e-05,-0.0056641,-9.675e-05,-14.132,0.68796
28123,11.848,4.5455,0.1,0.0002872,2870,0.00028693,2862.3,-9.4008e-05,-0.0063563,-9.607e-05,-15.497,0.69791
28124,11.757,4.8182,0.1,0.0002896,2894,0.00028936,2886.9,-9.4865e-05,-0.0046536,-9.6752e-05,-14.183,0.68735
28125,11.848,4.7273,0.1,0.00028718,2869.9,0.00028692,2862,-9.3999e-05,-0.0055794,-9.6069e-05,-15.558,0.69734
28126,11.757,5,0.1,0.00028959,2893.9,0.00028934,2886.8,-9.4867e-05,-0.0031801,-9.6736e-05,-14.046,0.68668
28127,11.848,4.9091,0.1,0.00028716,2869.6,0.00028689,2861.8,-9.3997e-05,-0.0043019,-9.6048e-05,-15.412,0.69671
28128,11.757,5.1818,0.1,0.00028957,2893.7,0.00028933,2886.8,-9.4877e-05,-0.0009301,-9.6701e-05,-13.705,0.68595
28129,11.848,5.0909,0.1,0.00028712,2869.2,0.00028686,2861.7,-9.4004e-05,-0.0025198,-9.6004e-05,-15.035,0.69601
28130,11.757,5.3636,0.1,0.00028954,2893.4,0.00028932,2886.8,-9.4896e-05,0.0014975,-9.6648e-05,-13.164,0.68515
28131,11.848,5.2727,0.1,0.00028707,2868.8,0.00028683,2861.5,-9.4019e-05,0.00048155,-9.5939e-05,-14.421,0.69525
28132,11.757,5.5455,0.1,0.00028952,2893.2,0.00028931,2887,-9.4924e-05,0.0084853,-9.6584e-05,-12.464,0.68429
28133,11.848,5.4545,0.1,0.00028703,2868.3,0.00028679,2861.5,-9.4045e-05,0.0026923,-9.5853e-05,-13.58,0.69443
28134,11.757,5.7273,0.1,0.0002896,2894,0.00028939,2887.9,-9.4963e-05,0.0093441,-9.6583e-05,-12.167,0.68337
28135,11.848,5.6364,0.1,0.00028699,2867.9,0.00028678,2861.6,-9.4082e-05,0.015808,-9.576e-05,-12.593,0.69354
28136,11.848,5.8182,0.1,0.00028713,2869.4,0.00028692,2863.1,-9.4131e-05,0.0018369,-9.5803e-05,-12.56,0.6926
28137,11.757,5.9091,0.1,0.00028911,2889.1,0.00028898,2885.1,-9.5007e-05,0.0023309,-9.6083e-05,-8.0866,0.68238
28138,11.94,0.27273,0.1,0.00028452,2843.2,0.0002843,2836.7,-9.325e-05,0.011237,-9.4968e-05,-12.897,0.70284
28139,12.032,0.18182,0.1,0.00028203,2818.3,0.0002818,2811.8,-9.2422e-05,0.0025623,-9.4157e-05,-13.037,0.71217
28140,11.94,0.090909,0.1,0.00028399,2838,0.00028385,2833.8,-9.3303e-05,0.0026866,-9.4414e-05,-8.3442,0.70186
28141,11.94,0.45455,0.1,0.00028449,2843,0.00028426,2836.1,-9.3203e-05,0.0099025,-9.5025e-05,-13.683,0.70375
28142,12.032,0.36364,0.1,0.00028194,2817.4,0.0002817,2810.6,-9.2362e-05,0.018681,-9.4176e-05,-13.61,0.7131
28143,11.94,0.63636,0.1,0.00028456,2843.6,0.0002843,2836.2,-9.3169e-05,0.001498,-9.5141e-05,-14.816,0.70459
28144,12.032,0.54545,0.1,0.00028202,2818.3,0.00028176,2810.7,-9.2319e-05,0.0028243,-9.4326e-05,-15.077,0.71397
28145,11.94,0.81818,0.1,0.00028462,2844.3,0.00028435,2836.4,-9.3146e-05,-0.0012312,-9.5239e-05,-15.731,0.70538
28146,12.032,0.72727,0.1,0.00028212,2819.2,0.00028183,2811,-9.2288e-05,0.00035086,-9.4462e-05,-16.335,0.71478
28147,11.94,1,0.1,0.00028469,2844.9,0.0002844,2836.7,-9.3134e-05,-0.0037218,-9.5314e-05,-16.382,0.7061
28148,12.032,0.90909,0.1,0.00028221,2820.1,0.00028191,2811.4,-9.227e-05,-0.0030252,-9.4572e-05,-17.299,0.71553
28149,11.94,1.1818,0.1,0.00028474,2845.4,0.00028445,2837,-9.3132e-05,-0.0052787,-9.5363e-05,-16.768,0.70676
28150,12.032,1.0909,0.1,0.00028228,2820.9,0.00028197,2811.9,-9.2263e-05,-0.0049292,-9.4653e-05,-17.956,0.71622
28151,11.94,1.3636,0.1,0.00028478,2845.8,0.00028449,2837.3,-9.3138e-05,-0.0063029,-9.5387e-05,-16.905,0.70736
28152,12.032,1.2727,0.1,0.00028235,2821.5,0.00028203,2812.3,-9.2267e-05,-0.0062503,-9.4704e-05,-18.316,0.71684
28153,11.94,1.5455,0.1,0.0002848,2846.1,0.00028451,2837.6,-9.3151e-05,-0.0068789,-9.5389e-05,-16.825,0.7079
28154,12.032,1.4545,0.1,0.0002824,2822.1,0.00028208,2812.8,-9.2279e-05,-0.0070025,-9.4728e-05,-18.407,0.71741
28155,11.94,1.7273,0.1,0.00028482,2846.2,0.00028453,2837.9,-9.3169e-05,-0.0071384,-9.5373e-05,-16.571,0.70837
28156,12.032,1.6364,0.1,0.00028244,2822.4,0.00028212,2813.2,-9.2298e-05,-0.0073679,-9.4728e-05,-18.27,0.71791
28157,11.94,1.9091,0.1,0.00028482,2846.3,0.00028455,2838.1,-9.3189e-05,-0.0071788,-9.5344e-05,-16.194,0.70878
28158,12.032,1.8182,0.1,0.00028246,2822.6,0.00028215,2813.6,-9.2321e-05,-0.0074563,-9.471e-05,-17.96,0.71834
28159,11.94,2.0909,0.1,0.00028482,2846.3,0.00028455,2838.4,-9.3211e-05,-0.0070839,-9.5306e-05,-15.751,0.70912
28160,12.032,2,0.1,0.00028247,2822.7,0.00028217,2813.9,-9.2345e-05,-0.0073703,-9.4678e-05,-17.537,0.71872
28161,11.94,2.2727,0.1,0.00028482,2846.2,0.00028455,2838.5,-9.3231e-05,-0.0069221,-9.5266e-05,-15.295,0.70941
28162,12.032,2.1818,0.1,0.00028247,2822.8,0.00028218,2814.2,-9.237e-05,-0.0071886,-9.464e-05,-17.063,0.71903
28163,11.94,2.4545,0.1,0.00028481,2846.1,0.00028455,2838.6,-9.3249e-05,-0.006748,-9.5229e-05,-14.88,0.70963
28164,12.032,2.3636,0.1,0.00028247,2822.7,0.00028218,2814.4,-9.2392e-05,-0.0069784,-9.46e-05,-16.598,0.71928
28165,11.94,2.6364,0.1,0.0002848,2846,0.00028455,2838.7,-9.3263e-05,-0.0065993,-9.5198e-05,-14.549,0.70978
28166,12.032,2.5455,0.1,0.00028246,2822.7,0.00028219,2814.6,-9.241e-05,-0.0067863,-9.4565e-05,-16.196,0.71947
28167,11.94,2.8182,0.1,0.00028479,2846,0.00028455,2838.8,-9.3272e-05,-0.0065004,-9.5179e-05,-14.336,0.70988
28168,12.032,2.7273,0.1,0.00028246,2822.6,0.00028219,2814.7,-9.2423e-05,-0.0066425,-9.4539e-05,-15.902,0.71959
28169,11.94,3,0.1,0.00028479,2846,0.00028455,2838.8,-9.3275e-05,-0.0064656,-9.5172e-05,-14.262,0.70991
28170,12.032,2.9091,0.1,0.00028246,2822.6,0.00028219,2814.7,-9.243e-05,-0.0065662,-9.4525e-05,-15.747,0.71966
28171,11.94,3.1818,0.1,0.00028479,2846,0.00028455,2838.8,-9.3272e-05,-0.0065002,-9.5179e-05,-14.336,0.70988
28172,12.032,3.0909,0.1,0.00028246,2822.6,0.00028219,2814.7,-9.243e-05,-0.0065661,-9.4525e-05,-15.747,0.71966
28173,11.94,3.3636,0.1,0.0002848,2846,0.00028455,2838.7,-9.3263e-05,-0.0065991,-9.5198e-05,-14.549,0.70978
28174,12.032,3.2727,0.1,0.00028246,2822.6,0.00028219,2814.7,-9.2423e-05,-0.0066426,-9.4539e-05,-15.902,0.71959
28175,11.94,3.5455,0.1,0.00028481,2846.1,0.00028455,2838.6,-9.3249e-05,-0.0067477,-9.5229e-05,-14.88,0.70963
28176,12.032,3.4545,0.1,0.00028246,2822.7,0.00028219,2814.6,-9.241e-05,-0.0067859,-9.4565e-05,-16.196,0.71947
28177,11.94,3.7273,0.1,0.00028482,2846.2,0.00028455,2838.5,-9.3231e-05,-0.0069219,-9.5266e-05,-15.295,0.70941
28178,12.032,3.6364,0.1,0.00028247,2822.7,0.00028218,2814.4,-9.2392e-05,-0.006978,-9.46e-05,-16.598,0.71928
28179,11.94,3.9091,0.1,0.00028482,2846.3,0.00028455,2838.4,-9.3211e-05,-0.0070835,-9.5306e-05,-15.751,0.70912
28180,12.032,3.8182,0.1,0.00028247,2822.8,0.00028218,2814.2,-9.237e-05,-0.0071886,-9.464e-05,-17.063,0.71903
28181,11.94,4.0909,0.1,0.00028482,2846.3,0.00028455,2838.1,-9.3189e-05,-0.0071783,-9.5344e-05,-16.194,0.70878
28182,12.032,4,0.1,0.00028247,2822.7,0.00028217,2813.9,-9.2345e-05,-0.0073698,-9.4678e-05,-17.537,0.71872
28183,11.94,4.2727,0.1,0.00028482,2846.2,0.00028453,2837.9,-9.3169e-05,-0.0071379,-9.5373e-05,-16.571,0.70837
28184,12.032,4.1818,0.1,0.00028246,2822.6,0.00028215,2813.6,-9.2321e-05,-0.007456,-9.471e-05,-17.96,0.71834
28185,11.94,4.4545,0.1,0.0002848,2846.1,0.00028451,2837.6,-9.3151e-05,-0.0068784,-9.5389e-05,-16.825,0.7079
28186,12.032,4.3636,0.1,0.00028244,2822.4,0.00028212,2813.2,-9.2298e-05,-0.007367,-9.4728e-05,-18.27,0.71791
28187,11.94,4.6364,0.1,0.00028478,2845.8,0.00028448,2837.3,-9.3138e-05,-0.0063025,-9.5387e-05,-16.905,0.70736
28188,12.032,4.5455,0.1,0.0002824,2822.1,0.00028208,2812.8,-9.2279e-05,-0.0070021,-9.4728e-05,-18.407,0.71741
28189,11.94,4.8182,0.1,0.00028474,2845.4,0.00028445,2837,-9.3132e-05,-0.0052781,-9.5363e-05,-16.768,0.70676
28190,12.032,4.7273,0.1,0.00028235,2821.5,0.00028203,2812.3,-9.2267e-05,-0.0062496,-9.4704e-05,-18.316,0.71684
28191,11.94,5,0.1,0.00028469,2844.9,0.0002844,2836.7,-9.3134e-05,-0.003721,-9.5314e-05,-16.382,0.7061
28192,12.032,4.9091,0.1,0.00028228,2820.9,0.00028197,2811.9,-9.2263e-05,-0.0049287,-9.4653e-05,-17.956,0.71622
28193,11.94,5.1818,0.1,0.00028462,2844.3,0.00028435,2836.4,-9.3146e-05,-0.0012298,-9.5239e-05,-15.731,0.70538
28194,12.032,5.0909,0.1,0.00028221,2820.1,0.00028191,2811.4,-9.227e-05,-0.0030242,-9.4572e-05,-17.299,0.71553
28195,11.94,5.3636,0.1,0.00028456,2843.6,0.0002843,2836.2,-9.3169e-05,0.0014995,-9.5141e-05,-14.816,0.70459
28196,12.032,5.2727,0.1,0.00028212,2819.2,0.00028183,2811,-9.2288e-05,0.0003523,-9.4462e-05,-16.334,0.71478
28197,11.94,5.5455,0.1,0.00028449,2843,0.00028426,2836.1,-9.3203e-05,0.0099031,-9.5025e-05,-13.683,0.70375
28198,12.032,5.4545,0.1,0.00028202,2818.3,0.00028176,2810.7,-9.2319e-05,0.0028248,-9.4326e-05,-15.077,0.71397
28199,11.94,5.7273,0.1,0.00028452,2843.2,0.0002843,2836.7,-9.325e-05,0.011237,-9.4968e-05,-12.897,0.70284
28200,12.032,5.6364,0.1,0.00028194,2817.4,0.0002817,2810.6,-9.2362e-05,0.018682,-9.4176e-05,-13.609,0.7131
28201,12.032,5.8182,0.1,0.00028203,2818.3,0.0002818,2811.8,-9.2422e-05,0.0025634,-9.4157e-05,-13.037,0.71217
28202,11.94,5.9091,0.1,0.00028399,2838,0.00028385,2833.8,-9.3303e-05,0.0026874,-9.4414e-05,-8.3442,0.70186
28203,12.124,0.27273,0.1,0.00027943,2792.4,0.0002792,2785.5,-9.1534e-05,0.013388,-9.3354e-05,-13.66,0.72249
28204,12.216,0.18182,0.1,0.00027691,2767.2,0.00027667,2760.4,-9.0708e-05,0.0036253,-9.2508e-05,-13.523,0.73192
28205,12.124,0.090909,0.1,0.00027886,2786.7,0.00027871,2782.4,-9.1598e-05,0.0030685,-9.2743e-05,-8.6011,0.72153
28206,12.124,0.45455,0.1,0.00027946,2792.7,0.0002792,2785.2,-9.1478e-05,0.011383,-9.3473e-05,-14.977,0.72339
28207,12.216,0.36364,0.1,0.00027687,2766.8,0.00027662,2759.5,-9.0638e-05,0.021767,-9.2596e-05,-14.691,0.73284
28208,12.124,0.63636,0.1,0.00027958,2793.8,0.00027929,2785.5,-9.1438e-05,0.0014293,-9.3644e-05,-16.573,0.72423
28209,12.216,0.54545,0.1,0.00027702,2768.2,0.00027673,2759.9,-9.0587e-05,0.0028562,-9.2808e-05,-16.68,0.7337
28210,12.124,0.81818,0.1,0.00027969,2795,0.00027939,2786,-9.1412e-05,-0.0016065,-9.3792e-05,-17.882,0.725
28211,12.216,0.72727,0.1,0.00027717,2769.7,0.00027685,2760.5,-9.0552e-05,0.00011561,-9.2999e-05,-18.383,0.7345
28212,12.124,1,0.1,0.0002798,2796.1,0.00027948,2786.6,-9.1399e-05,-0.0043378,-9.3908e-05,-18.854,0.72571
28213,12.216,0.90909,0.1,0.00027731,2771.1,0.00027697,2761.2,-9.0533e-05,-0.0036491,-9.3156e-05,-19.714,0.73524
28214,12.124,1.1818,0.1,0.00027989,2797,0.00027956,2787.2,-9.1399e-05,-0.0059674,-9.3991e-05,-19.486,0.72636
28215,12.216,1.0909,0.1,0.00027743,2772.4,0.00027707,2762,-9.0528e-05,-0.0056655,-9.3276e-05,-20.657,0.73592
28216,12.124,1.3636,0.1,0.00027997,2797.8,0.00027963,2787.8,-9.1408e-05,-0.006991,-9.4043e-05,-19.801,0.72695
28217,12.216,1.2727,0.1,0.00027754,2773.5,0.00027717,2762.8,-9.0535e-05,-0.0070167,-9.3359e-05,-21.225,0.73654
28218,12.124,1.5455,0.1,0.00028003,2798.4,0.00027969,2788.4,-9.1426e-05,-0.0075155,-9.4065e-05,-19.835,0.72748
28219,12.216,1.4545,0.1,0.00027763,2774.3,0.00027725,2763.5,-9.0552e-05,-0.0077274,-9.3406e-05,-21.451,0.73709
28220,12.124,1.7273,0.1,0.00028007,2798.8,0.00027973,2788.9,-9.145e-05,-0.0076985,-9.4063e-05,-19.643,0.72795
28221,12.216,1.6364,0.1,0.00027769,2775,0.00027732,2764.2,-9.0577e-05,-0.0080169,-9.3423e-05,-21.388,0.73758
28222,12.124,1.9091,0.1,0.0002801,2799.1,0.00027977,2789.4,-9.1476e-05,-0.0076532,-9.4042e-05,-19.286,0.72835
28223,12.216,1.8182,0.1,0.00027774,2775.5,0.00027737,2764.9,-9.0608e-05,-0.0080136,-9.3415e-05,-21.101,0.73802
28224,12.124,2.0909,0.1,0.00028011,2799.2,0.00027979,2789.7,-9.1504e-05,-0.0074762,-9.401e-05,-18.832,0.72869
28225,12.216,2,0.1,0.00027777,2775.8,0.00027741,2765.4,-9.064e-05,-0.0078352,-9.3389e-05,-20.663,0.73839
28226,12.124,2.2727,0.1,0.00028012,2799.3,0.0002798,2790.1,-9.153e-05,-0.0072439,-9.3971e-05,-18.349,0.72897
28227,12.216,2.1818,0.1,0.00027779,2776,0.00027744,2765.9,-9.0672e-05,-0.0075722,-9.3352e-05,-20.15,0.73869
28228,12.124,2.4545,0.1,0.00028012,2799.3,0.00027981,2790.3,-9.1553e-05,-0.0070153,-9.3934e-05,-17.898,0.72919
28229,12.216,2.3636,0.1,0.0002778,2776.1,0.00027746,2766.2,-9.07e-05,-0.0072967,-9.3313e-05,-19.636,0.73894
28230,12.124,2.6364,0.1,0.00028012,2799.3,0.00027982,2790.5,-9.1571e-05,-0.0068288,-9.3903e-05,-17.534,0.72934
28231,12.216,2.5455,0.1,0.0002778,2776.1,0.00027747,2766.5,-9.0724e-05,-0.0070584,-9.3277e-05,-19.186,0.73913
28232,12.124,2.8182,0.1,0.00028012,2799.3,0.00027982,2790.6,-9.1582e-05,-0.0067084,-9.3883e-05,-17.298,0.72944
28233,12.216,2.7273,0.1,0.00027781,2776.1,0.00027748,2766.7,-9.0741e-05,-0.0068855,-9.3249e-05,-18.854,0.73925
28234,12.124,3,0.1,0.00028012,2799.3,0.00027982,2790.6,-9.1586e-05,-0.0066672,-9.3876e-05,-17.216,0.72947
28235,12.216,2.9091,0.1,0.00027781,2776.1,0.00027748,2766.7,-9.0749e-05,-0.0067959,-9.3234e-05,-18.678,0.73931
28236,12.124,3.1818,0.1,0.00028012,2799.3,0.00027982,2790.6,-9.1582e-05,-0.0067086,-9.3883e-05,-17.298,0.72944
28237,12.216,3.0909,0.1,0.00027781,2776.1,0.00027748,2766.7,-9.0749e-05,-0.0067958,-9.3234e-05,-18.678,0.73931
28238,12.124,3.3636,0.1,0.00028012,2799.3,0.00027982,2790.5,-9.1571e-05,-0.0068287,-9.3903e-05,-17.534,0.72934
28239,12.216,3.2727,0.1,0.00027781,2776.1,0.00027748,2766.7,-9.0741e-05,-0.0068857,-9.3249e-05,-18.854,0.73925
28240,12.124,3.5455,0.1,0.00028012,2799.3,0.00027981,2790.3,-9.1553e-05,-0.007015,-9.3934e-05,-17.898,0.72919
28241,12.216,3.4545,0.1,0.0002778,2776.1,0.00027747,2766.5,-9.0724e-05,-0.0070578,-9.3277e-05,-19.186,0.73913
28242,12.124,3.7273,0.1,0.00028012,2799.3,0.0002798,2790.1,-9.153e-05,-0.0072438,-9.3971e-05,-18.349,0.72897
28243,12.216,3.6364,0.1,0.0002778,2776.1,0.00027746,2766.2,-9.07e-05,-0.0072964,-9.3313e-05,-19.636,0.73894
28244,12.124,3.9091,0.1,0.00028011,2799.2,0.00027979,2789.7,-9.1504e-05,-0.007476,-9.401e-05,-18.832,0.72869
28245,12.216,3.8182,0.1,0.00027779,2776,0.00027744,2765.9,-9.0672e-05,-0.0075719,-9.3352e-05,-20.15,0.73869
28246,12.124,4.0909,0.1,0.0002801,2799.1,0.00027977,2789.4,-9.1476e-05,-0.0076529,-9.4042e-05,-19.286,0.72835
28247,12.216,4,0.1,0.00027777,2775.8,0.00027741,2765.4,-9.064e-05,-0.007835,-9.3389e-05,-20.663,0.73839
28248,12.124,4.2727,0.1,0.00028007,2798.8,0.00027973,2788.9,-9.145e-05,-0.0076978,-9.4063e-05,-19.643,0.72795
28249,12.216,4.1818,0.1,0.00027774,2775.5,0.00027737,2764.9,-9.0608e-05,-0.0080132,-9.3415e-05,-21.101,0.73802
28250,12.124,4.4545,0.1,0.00028003,2798.4,0.00027969,2788.4,-9.1426e-05,-0.0075148,-9.4065e-05,-19.835,0.72748
28251,12.216,4.3636,0.1,0.00027769,2775,0.00027732,2764.2,-9.0577e-05,-0.0080161,-9.3423e-05,-21.388,0.73758
28252,12.124,4.6364,0.1,0.00027997,2797.8,0.00027963,2787.8,-9.1408e-05,-0.0069904,-9.4043e-05,-19.801,0.72695
28253,12.216,4.5455,0.1,0.00027763,2774.3,0.00027725,2763.5,-9.0552e-05,-0.0077269,-9.3406e-05,-21.451,0.73709
28254,12.124,4.8182,0.1,0.00027989,2797,0.00027956,2787.2,-9.1399e-05,-0.0059669,-9.3991e-05,-19.486,0.72636
28255,12.216,4.7273,0.1,0.00027754,2773.5,0.00027717,2762.8,-9.0535e-05,-0.007016,-9.3359e-05,-21.225,0.73654
28256,12.124,5,0.1,0.0002798,2796.1,0.00027948,2786.6,-9.1399e-05,-0.004337,-9.3908e-05,-18.854,0.72571
28257,12.216,4.9091,0.1,0.00027743,2772.4,0.00027707,2762,-9.0528e-05,-0.0056649,-9.3276e-05,-20.657,0.73592
28258,12.124,5.1818,0.1,0.00027969,2795,0.00027939,2786,-9.1412e-05,-0.0016055,-9.3792e-05,-17.882,0.725
28259,12.216,5.0909,0.1,0.00027731,2771.1,0.00027697,2761.2,-9.0533e-05,-0.0036481,-9.3156e-05,-19.714,0.73524
28260,12.124,5.3636,0.1,0.00027958,2793.8,0.00027929,2785.5,-9.1438e-05,0.0014297,-9.3644e-05,-16.573,0.72423
28261,12.216,5.2727,0.1,0.00027717,2769.7,0.00027685,2760.5,-9.0552e-05,0.00011688,-9.2999e-05,-18.383,0.7345
28262,12.124,5.5455,0.1,0.00027946,2792.7,0.0002792,2785.2,-9.1478e-05,0.011383,-9.3473e-05,-14.977,0.72339
28263,12.216,5.4545,0.1,0.00027702,2768.2,0.00027673,2759.9,-9.0587e-05,0.0028561,-9.2808e-05,-16.68,0.7337
28264,12.124,5.7273,0.1,0.00027943,2792.4,0.0002792,2785.5,-9.1534e-05,0.013389,-9.3353e-05,-13.659,0.72249
28265,12.216,5.6364,0.1,0.00027687,2766.8,0.00027662,2759.5,-9.0638e-05,0.021768,-9.2596e-05,-14.691,0.73284
28266,12.216,5.8182,0.1,0.00027691,2767.2,0.00027667,2760.4,-9.0708e-05,0.0036267,-9.2508e-05,-13.523,0.73192
28267,12.124,5.9091,0.1,0.00027886,2786.7,0.00027871,2782.4,-9.1598e-05,0.003069,-9.2743e-05,-8.6011,0.72153
28268,12.308,0.27273,0.1,0.00027433,2741.4,0.00027409,2734.2,-8.9811e-05,0.015792,-9.1739e-05,-14.465,0.74234
28269,12.399,0.18182,0.1,0.00027177,2715.8,0.00027152,2708.7,-8.8987e-05,0.0050925,-9.0854e-05,-14.026,0.75187
28270,12.308,0.090909,0.1,0.00027372,2735.3,0.00027356,2730.8,-8.9887e-05,0.0034193,-9.1066e-05,-8.8601,0.74139
28271,12.308,0.45455,0.1,0.00027442,2742.3,0.00027414,2734.1,-8.9747e-05,0.012881,-9.1927e-05,-16.367,0.74322
28272,12.399,0.36364,0.1,0.0002718,2716.1,0.00027153,2708.2,-8.8905e-05,0.025091,-9.1019e-05,-15.857,0.75277
28273,12.308,0.63636,0.1,0.0002746,2744.1,0.00027428,2734.8,-8.9702e-05,0.001214,-9.216e-05,-18.467,0.74405
28274,12.399,0.54545,0.1,0.00027201,2718.2,0.00027169,2708.9,-8.8848e-05,0.0027447,-9.1299e-05,-18.418,0.75362
28275,12.308,0.81818,0.1,0.00027477,2745.8,0.00027442,2735.7,-8.9673e-05,-0.0021343,-9.2361e-05,-20.195,0.74481
28276,12.399,0.72727,0.1,0.00027222,2720.3,0.00027186,2709.9,-8.8809e-05,-0.0002673,-9.1551e-05,-20.602,0.75441
28277,12.308,1,0.1,0.00027493,2747.4,0.00027456,2736.6,-8.9661e-05,-0.0051071,-9.2522e-05,-21.498,0.74551
28278,12.399,0.90909,0.1,0.00027242,2722.3,0.00027203,2711.1,-8.879e-05,-0.0044368,-9.176e-05,-22.321,0.75514
28279,12.308,1.1818,0.1,0.00027507,2748.8,0.00027468,2737.6,-8.9664e-05,-0.0067961,-9.2641e-05,-22.378,0.74615
28280,12.399,1.0909,0.1,0.0002726,2724.1,0.00027219,2712.2,-8.8788e-05,-0.006554,-9.1922e-05,-23.556,0.75581
28281,12.308,1.3636,0.1,0.00027519,2750,0.00027479,2738.5,-8.9679e-05,-0.0078023,-9.272e-05,-22.858,0.74674
28282,12.399,1.2727,0.1,0.00027275,2725.6,0.00027233,2713.4,-8.8801e-05,-0.0079175,-9.2037e-05,-24.325,0.75642
28283,12.308,1.5455,0.1,0.00027529,2751,0.00027489,2739.4,-8.9704e-05,-0.0082566,-9.2762e-05,-22.987,0.74726
28284,12.399,1.4545,0.1,0.00027288,2726.9,0.00027245,2714.5,-8.8826e-05,-0.0085662,-9.2108e-05,-24.67,0.75696
28285,12.308,1.7273,0.1,0.00027536,2751.7,0.00027496,2740.2,-8.9736e-05,-0.0083455,-9.2773e-05,-22.83,0.74772
28286,12.399,1.6364,0.1,0.00027298,2727.9,0.00027255,2715.5,-8.8861e-05,-0.0087583,-9.2141e-05,-24.655,0.75745
28287,12.308,1.9091,0.1,0.00027541,2752.2,0.00027502,2740.9,-8.9771e-05,-0.0081998,-9.2759e-05,-22.462,0.74811
28288,12.399,1.8182,0.1,0.00027306,2728.7,0.00027264,2716.4,-8.8901e-05,-0.0086447,-9.2142e-05,-24.358,0.75787
28289,12.308,2.0909,0.1,0.00027545,2752.6,0.00027506,2741.5,-8.9807e-05,-0.0079302,-9.273e-05,-21.965,0.74845
28290,12.399,2,0.1,0.00027312,2729.3,0.0002727,2717.2,-8.8944e-05,-0.0083606,-9.212e-05,-23.87,0.75824
28291,12.308,2.2727,0.1,0.00027547,2752.8,0.0002751,2742,-8.9842e-05,-0.0076217,-9.2692e-05,-21.421,0.74873
28292,12.399,2.1818,0.1,0.00027315,2729.6,0.00027275,2717.9,-8.8985e-05,-0.008008,-9.2083e-05,-23.283,0.75854
28293,12.308,2.4545,0.1,0.00027548,2752.9,0.00027512,2742.4,-8.9871e-05,-0.0073366,-9.2653e-05,-20.908,0.74894
28294,12.399,2.3636,0.1,0.00027318,2729.9,0.00027278,2718.5,-8.9023e-05,-0.0076647,-9.2041e-05,-22.687,0.75879
28295,12.308,2.6364,0.1,0.00027549,2753,0.00027513,2742.7,-8.9894e-05,-0.0071134,-9.262e-05,-20.49,0.74909
28296,12.399,2.5455,0.1,0.00027319,2730,0.00027281,2718.9,-8.9054e-05,-0.007382,-9.2002e-05,-22.161,0.75897
28297,12.308,2.8182,0.1,0.00027549,2753,0.00027514,2742.8,-8.9908e-05,-0.0069728,-9.2598e-05,-20.218,0.74918
28298,12.399,2.7273,0.1,0.0002732,2730.1,0.00027282,2719.1,-8.9075e-05,-0.0071838,-9.1972e-05,-21.772,0.75909
28299,12.308,3,0.1,0.00027549,2753,0.00027514,2742.9,-8.9913e-05,-0.006925,-9.2591e-05,-20.123,0.74922
28300,12.399,2.9091,0.1,0.0002732,2730.1,0.00027283,2719.3,-8.9086e-05,-0.0070831,-9.1956e-05,-21.565,0.75915
28301,12.308,3.1818,0.1,0.00027549,2753,0.00027514,2742.8,-8.9908e-05,-0.0069727,-9.2598e-05,-20.218,0.74918
28302,12.399,3.0909,0.1,0.0002732,2730.1,0.00027283,2719.3,-8.9086e-05,-0.0070829,-9.1956e-05,-21.565,0.75915
28303,12.308,3.3636,0.1,0.00027549,2753,0.00027513,2742.7,-8.9894e-05,-0.007113,-9.262e-05,-20.49,0.74909
28304,12.399,3.2727,0.1,0.0002732,2730.1,0.00027282,2719.1,-8.9075e-05,-0.0071837,-9.1972e-05,-21.772,0.75909
28305,12.308,3.5455,0.1,0.00027548,2752.9,0.00027512,2742.4,-8.9871e-05,-0.007336,-9.2653e-05,-20.907,0.74894
28306,12.399,3.4545,0.1,0.00027319,2730,0.00027281,2718.9,-8.9054e-05,-0.0073814,-9.2002e-05,-22.161,0.75897
28307,12.308,3.7273,0.1,0.00027547,2752.8,0.0002751,2742,-8.9842e-05,-0.0076212,-9.2692e-05,-21.421,0.74873
28308,12.399,3.6364,0.1,0.00027318,2729.9,0.00027278,2718.5,-8.9023e-05,-0.0076646,-9.2041e-05,-22.687,0.75879
28309,12.308,3.9091,0.1,0.00027545,2752.6,0.00027506,2741.5,-8.9807e-05,-0.0079298,-9.273e-05,-21.965,0.74845
28310,12.399,3.8182,0.1,0.00027315,2729.6,0.00027275,2717.9,-8.8985e-05,-0.0080075,-9.2083e-05,-23.283,0.75854
28311,12.308,4.0909,0.1,0.00027541,2752.2,0.00027502,2740.9,-8.9771e-05,-0.0081994,-9.2759e-05,-22.462,0.74811
28312,12.399,4,0.1,0.00027312,2729.3,0.0002727,2717.2,-8.8944e-05,-0.0083601,-9.212e-05,-23.87,0.75824
28313,12.308,4.2727,0.1,0.00027536,2751.7,0.00027496,2740.2,-8.9736e-05,-0.0083448,-9.2773e-05,-22.83,0.74772
28314,12.399,4.1818,0.1,0.00027306,2728.7,0.00027264,2716.4,-8.8901e-05,-0.0086444,-9.2142e-05,-24.358,0.75787
28315,12.308,4.4545,0.1,0.00027529,2751,0.00027489,2739.4,-8.9704e-05,-0.0082559,-9.2762e-05,-22.987,0.74726
28316,12.399,4.3636,0.1,0.00027298,2727.9,0.00027255,2715.5,-8.8861e-05,-0.0087577,-9.2141e-05,-24.655,0.75745
28317,12.308,4.6364,0.1,0.00027519,2750,0.00027479,2738.5,-8.9679e-05,-0.0078016,-9.272e-05,-22.858,0.74674
28318,12.399,4.5455,0.1,0.00027288,2726.9,0.00027245,2714.5,-8.8826e-05,-0.0085657,-9.2108e-05,-24.67,0.75696
28319,12.308,4.8182,0.1,0.00027507,2748.8,0.00027468,2737.6,-8.9664e-05,-0.0067953,-9.2641e-05,-22.378,0.74615
28320,12.399,4.7273,0.1,0.00027275,2725.6,0.00027233,2713.4,-8.8801e-05,-0.0079171,-9.2037e-05,-24.325,0.75642
28321,12.308,5,0.1,0.00027493,2747.4,0.00027456,2736.6,-8.9661e-05,-0.0051064,-9.2522e-05,-21.498,0.74551
28322,12.399,4.9091,0.1,0.0002726,2724.1,0.00027219,2712.2,-8.8788e-05,-0.0065531,-9.1922e-05,-23.556,0.75581
28323,12.308,5.1818,0.1,0.00027477,2745.8,0.00027442,2735.7,-8.9673e-05,-0.0021331,-9.2361e-05,-20.195,0.74481
28324,12.399,5.0909,0.1,0.00027242,2722.3,0.00027203,2711.1,-8.879e-05,-0.004436,-9.176e-05,-22.321,0.75514
28325,12.308,5.3636,0.1,0.0002746,2744.1,0.00027428,2734.8,-8.9702e-05,0.0012148,-9.216e-05,-18.467,0.74405
28326,12.399,5.2727,0.1,0.00027222,2720.3,0.00027186,2709.9,-8.8809e-05,-0.00026581,-9.1551e-05,-20.602,0.75441
28327,12.308,5.5455,0.1,0.00027442,2742.3,0.00027414,2734.1,-8.9747e-05,0.012881,-9.1927e-05,-16.367,0.74322
28328,12.399,5.4545,0.1,0.00027201,2718.2,0.00027169,2708.9,-8.8848e-05,0.002745,-9.1299e-05,-18.417,0.75362
28329,12.308,5.7273,0.1,0.00027433,2741.4,0.00027409,2734.2,-8.9811e-05,0.015793,-9.1739e-05,-14.465,0.74234
28330,12.399,5.6364,0.1,0.0002718,2716.1,0.00027153,2708.2,-8.8905e-05,0.025091,-9.1019e-05,-15.857,0.75277
28331,12.399,5.8182,0.1,0.00027177,2715.8,0.00027152,2708.7,-8.8987e-05,0.0050932,-9.0854e-05,-14.026,0.75187
28332,12.308,5.9091,0.1,0.00027372,2735.3,0.00027356,2730.8,-8.9887e-05,0.00342,-9.1066e-05,-8.8601,0.74139
28333,12.491,0.27273,0.1,0.00026922,2690.3,0.00026895,2682.6,-8.808e-05,0.018514,-9.0122e-05,-15.328,0.76237
28334,12.583,0.18182,0.1,0.0002666,2664.1,0.00026634,2656.8,-8.7254e-05,0.0071073,-8.9192e-05,-14.551,0.77199
28335,12.491,0.090909,0.1,0.00026854,2683.6,0.00026839,2679,-8.8167e-05,0.003748,-8.9382e-05,-9.1243,0.76143
28336,12.491,0.45455,0.1,0.00026938,2691.9,0.00026907,2682.9,-8.8006e-05,0.014419,-9.0388e-05,-17.88,0.76324
28337,12.583,0.36364,0.1,0.00026671,2665.2,0.00026641,2656.6,-8.716e-05,0.028733,-8.9444e-05,-17.13,0.77289
28338,12.491,0.63636,0.1,0.00026962,2694.3,0.00026926,2684,-8.7956e-05,0.00084266,-9.0688e-05,-20.53,0.76405
28339,12.583,0.54545,0.1,0.00026698,2668,0.00026663,2657.8,-8.7096e-05,0.0024969,-8.9801e-05,-20.322,0.77372
28340,12.491,0.81818,0.1,0.00026986,2696.7,0.00026946,2685.3,-8.7926e-05,-0.0028247,-9.0948e-05,-22.708,0.7648
28341,12.583,0.72727,0.1,0.00026727,2670.8,0.00026687,2659.2,-8.7055e-05,-0.00078861,-9.012e-05,-23.032,0.7745
28342,12.491,1,0.1,0.00027008,2698.9,0.00026965,2686.6,-8.7916e-05,-0.0060399,-9.1158e-05,-24.36,0.7655
28343,12.583,0.90909,0.1,0.00026753,2673.5,0.0002671,2660.8,-8.7037e-05,-0.0053605,-9.0386e-05,-25.164,0.77522
28344,12.491,1.1818,0.1,0.00027027,2700.8,0.00026983,2688,-8.7925e-05,-0.0077463,-9.1316e-05,-25.486,0.76613
28345,12.583,1.0909,0.1,0.00026778,2675.9,0.00026731,2662.5,-8.7041e-05,-0.0075814,-9.0593e-05,-26.701,0.77588
28346,12.491,1.3636,0.1,0.00027044,2702.5,0.00026998,2689.3,-8.7948e-05,-0.0087374,-9.1423e-05,-26.121,0.7667
28347,12.583,1.2727,0.1,0.00026799,2678,0.00026751,2664.1,-8.7062e-05,-0.0089353,-9.0743e-05,-27.665,0.77648
28348,12.491,1.5455,0.1,0.00027057,2703.9,0.00027012,2690.6,-8.7983e-05,-0.0090977,-9.1485e-05,-26.321,0.76722
28349,12.583,1.4545,0.1,0.00026816,2679.8,0.00026768,2665.6,-8.7099e-05,-0.0094948,-9.0839e-05,-28.109,0.77702
28350,12.491,1.7273,0.1,0.00027068,2704.9,0.00027023,2691.8,-8.8026e-05,-0.0090699,-9.1508e-05,-26.167,0.76767
28351,12.583,1.6364,0.1,0.00026831,2681.2,0.00026782,2667.1,-8.7147e-05,-0.0095635,-9.0887e-05,-28.111,0.7775
28352,12.491,1.9091,0.1,0.00027076,2705.8,0.00027031,2692.8,-8.8074e-05,-0.0088069,-9.15e-05,-25.751,0.76806
28353,12.583,1.8182,0.1,0.00026842,2682.4,0.00026794,2668.4,-8.7201e-05,-0.0093177,-9.0895e-05,-27.767,0.77792
28354,12.491,2.0909,0.1,0.00027082,2706.3,0.00027038,2693.7,-8.8122e-05,-0.0084338,-9.1471e-05,-25.173,0.76839
28355,12.583,2,0.1,0.00026851,2683.2,0.00026803,2669.5,-8.7257e-05,-0.0089131,-9.0875e-05,-27.188,0.77828
28356,12.491,2.2727,0.1,0.00027086,2706.7,0.00027043,2694.4,-8.8167e-05,-0.0080444,-9.1431e-05,-24.533,0.76867
28357,12.583,2.1818,0.1,0.00026857,2683.8,0.0002681,2670.5,-8.7312e-05,-0.0084645,-9.0836e-05,-26.485,0.77858
28358,12.491,2.4545,0.1,0.00027089,2707,0.00027047,2694.9,-8.8205e-05,-0.0077048,-9.1388e-05,-23.924,0.76888
28359,12.583,2.3636,0.1,0.00026861,2684.2,0.00026816,2671.2,-8.7361e-05,-0.0080553,-9.079e-05,-25.769,0.77882
28360,12.491,2.6364,0.1,0.0002709,2707.1,0.00027049,2695.3,-8.8235e-05,-0.0074501,-9.1352e-05,-23.427,0.76903
28361,12.583,2.5455,0.1,0.00026863,2684.5,0.00026819,2671.8,-8.7401e-05,-0.007735,-9.0745e-05,-25.136,0.779
28362,12.491,2.8182,0.1,0.00027091,2707.2,0.00027051,2695.6,-8.8253e-05,-0.0072946,-9.1327e-05,-23.103,0.76912
28363,12.583,2.7273,0.1,0.00026865,2684.6,0.00026822,2672.2,-8.7429e-05,-0.00752,-9.0711e-05,-24.666,0.77912
28364,12.491,3,0.1,0.00027091,2707.2,0.00027051,2695.7,-8.826e-05,-0.0072426,-9.1319e-05,-22.991,0.76915
28365,12.583,2.9091,0.1,0.00026865,2684.7,0.00026823,2672.4,-8.7444e-05,-0.0074141,-9.0693e-05,-24.417,0.77918
28366,12.491,3.1818,0.1,0.00027091,2707.2,0.00027051,2695.6,-8.8253e-05,-0.0072943,-9.1327e-05,-23.103,0.76912
28367,12.583,3.0909,0.1,0.00026865,2684.7,0.00026823,2672.4,-8.7444e-05,-0.0074137,-9.0693e-05,-24.417,0.77918
28368,12.491,3.3636,0.1,0.0002709,2707.1,0.00027049,2695.3,-8.8235e-05,-0.0074498,-9.1352e-05,-23.427,0.76903
28369,12.583,3.2727,0.1,0.00026865,2684.6,0.00026822,2672.2,-8.7429e-05,-0.00752,-9.0711e-05,-24.666,0.77912
28370,12.491,3.5455,0.1,0.00027089,2707,0.00027047,2694.9,-8.8205e-05,-0.0077047,-9.1388e-05,-23.924,0.76888
28371,12.583,3.4545,0.1,0.00026863,2684.5,0.00026819,2671.8,-8.7401e-05,-0.0077347,-9.0745e-05,-25.135,0.779
28372,12.491,3.7273,0.1,0.00027086,2706.7,0.00027043,2694.4,-8.8167e-05,-0.0080445,-9.1431e-05,-24.533,0.76867
28373,12.583,3.6364,0.1,0.00026861,2684.2,0.00026816,2671.2,-8.7361e-05,-0.0080555,-9.079e-05,-25.768,0.77882
28374,12.491,3.9091,0.1,0.00027082,2706.3,0.00027038,2693.7,-8.8122e-05,-0.0084332,-9.1471e-05,-25.173,0.76839
28375,12.583,3.8182,0.1,0.00026857,2683.8,0.0002681,2670.5,-8.7312e-05,-0.0084642,-9.0836e-05,-26.485,0.77858
28376,12.491,4.0909,0.1,0.00027076,2705.8,0.00027031,2692.8,-8.8074e-05,-0.0088064,-9.15e-05,-25.751,0.76806
28377,12.583,4,0.1,0.00026851,2683.2,0.00026803,2669.5,-8.7257e-05,-0.0089126,-9.0875e-05,-27.188,0.77828
28378,12.491,4.2727,0.1,0.00027068,2704.9,0.00027023,2691.8,-8.8026e-05,-0.0090697,-9.1508e-05,-26.167,0.76767
28379,12.583,4.1818,0.1,0.00026842,2682.4,0.00026794,2668.4,-8.7201e-05,-0.0093174,-9.0895e-05,-27.767,0.77792
28380,12.491,4.4545,0.1,0.00027057,2703.9,0.00027012,2690.6,-8.7983e-05,-0.0090974,-9.1485e-05,-26.321,0.76722
28381,12.583,4.3636,0.1,0.00026831,2681.2,0.00026782,2667.1,-8.7147e-05,-0.0095631,-9.0887e-05,-28.111,0.7775
28382,12.491,4.6364,0.1,0.00027044,2702.5,0.00026998,2689.3,-8.7948e-05,-0.0087372,-9.1423e-05,-26.121,0.7667
28383,12.583,4.5455,0.1,0.00026816,2679.8,0.00026768,2665.6,-8.7099e-05,-0.0094943,-9.0839e-05,-28.109,0.77702
28384,12.491,4.8182,0.1,0.00027027,2700.8,0.00026983,2688,-8.7925e-05,-0.0077464,-9.1316e-05,-25.486,0.76613
28385,12.583,4.7273,0.1,0.00026799,2678,0.00026751,2664.1,-8.7062e-05,-0.0089347,-9.0743e-05,-27.665,0.77648
28386,12.491,5,0.1,0.00027008,2698.9,0.00026965,2686.6,-8.7916e-05,-0.0060389,-9.1158e-05,-24.36,0.7655
28387,12.583,4.9091,0.1,0.00026778,2675.9,0.00026731,2662.5,-8.7041e-05,-0.007581,-9.0593e-05,-26.701,0.77588
28388,12.491,5.1818,0.1,0.00026986,2696.7,0.00026946,2685.3,-8.7926e-05,-0.0028236,-9.0948e-05,-22.708,0.7648
28389,12.583,5.0909,0.1,0.00026753,2673.5,0.0002671,2660.8,-8.7037e-05,-0.0053606,-9.0386e-05,-25.164,0.77522
28390,12.491,5.3636,0.1,0.00026962,2694.3,0.00026926,2684,-8.7955e-05,0.00084369,-9.0688e-05,-20.53,0.76405
28391,12.583,5.2727,0.1,0.00026727,2670.8,0.00026687,2659.2,-8.7055e-05,-0.00078717,-9.012e-05,-23.032,0.7745
28392,12.491,5.5455,0.1,0.00026938,2691.9,0.00026907,2682.9,-8.8006e-05,0.014419,-9.0387e-05,-17.88,0.76324
28393,12.583,5.4545,0.1,0.00026698,2668,0.00026663,2657.8,-8.7096e-05,0.0024969,-8.9801e-05,-20.322,0.77372
28394,12.491,5.7273,0.1,0.00026922,2690.3,0.00026895,2682.6,-8.808e-05,0.018515,-9.0122e-05,-15.328,0.76237
28395,12.583,5.6364,0.1,0.0002667,2665.2,0.00026641,2656.6,-8.716e-05,0.028733,-8.9444e-05,-17.13,0.77289
28396,12.583,5.8182,0.1,0.0002666,2664.1,0.00026634,2656.8,-8.7254e-05,0.0071076,-8.9192e-05,-14.551,0.77199
28397,12.491,5.9091,0.1,0.00026854,2683.6,0.00026839,2679,-8.8167e-05,0.0037482,-8.9382e-05,-9.1242,0.76143
28398,12.675,0.27273,0.1,0.00026407,2638.9,0.00026379,2630.7,-8.6334e-05,0.021665,-8.8501e-05,-16.262,0.78257
28399,12.767,0.18182,0.1,0.00026138,2612,0.00026112,2604.4,-8.5506e-05,0.0098732,-8.7518e-05,-15.108,0.7923
28400,12.675,0.090909,0.1,0.00026334,2631.6,0.00026318,2626.8,-8.6435e-05,0.0040955,-8.7686e-05,-9.3971,0.78166
28401,12.675,0.45455,0.1,0.00026431,2641.3,0.00026397,2631.5,-8.6251e-05,0.016055,-8.8854e-05,-19.543,0.78343
28402,12.767,0.36364,0.1,0.00026158,2614,0.00026126,2604.7,-8.5399e-05,0.032806,-8.787e-05,-18.532,0.79318
28403,12.675,0.63636,0.1,0.00026463,2644.5,0.00026423,2633,-8.6196e-05,0.00033887,-8.9231e-05,-22.801,0.78424
28404,12.767,0.54545,0.1,0.00026194,2617.6,0.00026156,2606.4,-8.5328e-05,0.002142,-8.8314e-05,-22.431,0.794
28405,12.675,0.81818,0.1,0.00026494,2647.6,0.0002645,2634.8,-8.6167e-05,-0.0036527,-8.9556e-05,-25.467,0.78498
28406,12.767,0.72727,0.1,0.00026231,2621.3,0.00026186,2608.3,-8.5286e-05,-0.001411,-8.8708e-05,-25.717,0.79477
28407,12.675,1,0.1,0.00026523,2650.5,0.00026475,2636.6,-8.6162e-05,-0.0071066,-8.9819e-05,-27.487,0.78566
28408,12.767,0.90909,0.1,0.00026266,2624.7,0.00026216,2610.5,-8.5272e-05,-0.0064425,-8.9037e-05,-28.294,0.79548
28409,12.675,1.1818,0.1,0.00026549,2653.1,0.00026499,2638.5,-8.6179e-05,-0.0088555,-9.0019e-05,-28.863,0.78629
28410,12.767,1.0909,0.1,0.00026297,2627.9,0.00026244,2612.7,-8.5283e-05,-0.0087017,-8.9294e-05,-30.145,0.79613
28411,12.675,1.3636,0.1,0.00026571,2655.3,0.00026519,2640.3,-8.6214e-05,-0.0097549,-9.0157e-05,-29.637,0.78685
28412,12.767,1.2727,0.1,0.00026325,2630.7,0.0002627,2614.9,-8.5317e-05,-0.010016,-8.9482e-05,-31.298,0.79672
28413,12.675,1.5455,0.1,0.0002659,2657.1,0.00026538,2642.1,-8.6263e-05,-0.0099914,-9.0238e-05,-29.883,0.78736
28414,12.767,1.4545,0.1,0.00026348,2633,0.00026293,2617,-8.5369e-05,-0.010452,-8.9603e-05,-31.819,0.79725
28415,12.675,1.7273,0.1,0.00026605,2658.6,0.00026553,2643.7,-8.6321e-05,-0.0098212,-9.0272e-05,-29.695,0.78781
28416,12.767,1.6364,0.1,0.00026368,2635,0.00026312,2618.9,-8.5434e-05,-0.010365,-8.9666e-05,-31.803,0.79773
28417,12.675,1.9091,0.1,0.00026616,2659.8,0.00026565,2645.1,-8.6384e-05,-0.0094207,-9.0268e-05,-29.189,0.78819
28418,12.767,1.8182,0.1,0.00026383,2636.5,0.00026328,2620.7,-8.5507e-05,-0.0099617,-8.968e-05,-31.369,0.79814
28419,12.675,2.0909,0.1,0.00026625,2660.6,0.00026575,2646.3,-8.6448e-05,-0.0089585,-9.0238e-05,-28.485,0.78852
28420,12.767,2,0.1,0.00026395,2637.7,0.00026342,2622.2,-8.5582e-05,-0.0094213,-8.966e-05,-30.65,0.7985
28421,12.675,2.2727,0.1,0.00026631,2661.3,0.00026583,2647.3,-8.6507e-05,-0.0084646,-9.0193e-05,-27.705,0.78879
28422,12.767,2.1818,0.1,0.00026404,2638.5,0.00026352,2623.5,-8.5653e-05,-0.0088742,-8.9616e-05,-29.783,0.79879
28423,12.675,2.4545,0.1,0.00026635,2661.7,0.00026588,2648.1,-8.6557e-05,-0.008078,-9.0145e-05,-26.964,0.789
28424,12.767,2.3636,0.1,0.0002641,2639.2,0.00026359,2624.6,-8.5717e-05,-0.0084077,-8.9563e-05,-28.9,0.79903
28425,12.675,2.6364,0.1,0.00026638,2661.9,0.00026592,2648.6,-8.6596e-05,-0.007803,-9.0103e-05,-26.358,0.78915
28426,12.767,2.5455,0.1,0.00026414,2639.6,0.00026365,2625.4,-8.5769e-05,-0.0080657,-8.9511e-05,-28.122,0.79921
28427,12.675,2.8182,0.1,0.00026639,2662,0.00026594,2649,-8.662e-05,-0.0076426,-9.0074e-05,-25.963,0.78923
28428,12.767,2.7273,0.1,0.00026416,2639.8,0.00026368,2625.9,-8.5806e-05,-0.0078509,-8.9471e-05,-27.546,0.79932
28429,12.675,3,0.1,0.00026639,2662.1,0.00026594,2649.1,-8.6628e-05,-0.0075904,-9.0064e-05,-25.826,0.78926
28430,12.767,2.9091,0.1,0.00026417,2639.9,0.0002637,2626.2,-8.5825e-05,-0.0077502,-8.9449e-05,-27.24,0.79938
28431,12.675,3.1818,0.1,0.00026639,2662,0.00026594,2649,-8.662e-05,-0.0076426,-9.0074e-05,-25.963,0.78923
28432,12.767,3.0909,0.1,0.00026417,2639.9,0.0002637,2626.2,-8.5825e-05,-0.0077502,-8.9449e-05,-27.24,0.79938
28433,12.675,3.3636,0.1,0.00026638,2661.9,0.00026592,2648.6,-8.6596e-05,-0.007803,-9.0103e-05,-26.358,0.78915
28434,12.767,3.2727,0.1,0.00026416,2639.8,0.00026368,2625.9,-8.5806e-05,-0.0078505,-8.9471e-05,-27.546,0.79932
28435,12.675,3.5455,0.1,0.00026635,2661.7,0.00026588,2648.1,-8.6557e-05,-0.008078,-9.0145e-05,-26.964,0.789
28436,12.767,3.4545,0.1,0.00026414,2639.6,0.00026365,2625.4,-8.5769e-05,-0.0080658,-8.9511e-05,-28.122,0.79921
28437,12.675,3.7273,0.1,0.00026631,2661.3,0.00026583,2647.3,-8.6507e-05,-0.0084645,-9.0193e-05,-27.705,0.78879
28438,12.767,3.6364,0.1,0.0002641,2639.2,0.00026359,2624.6,-8.5717e-05,-0.0084078,-8.9563e-05,-28.9,0.79903
28439,12.675,3.9091,0.1,0.00026625,2660.6,0.00026575,2646.3,-8.6448e-05,-0.0089585,-9.0238e-05,-28.485,0.78852
28440,12.767,3.8182,0.1,0.00026404,2638.5,0.00026352,2623.5,-8.5653e-05,-0.0088737,-8.9616e-05,-29.783,0.79879
28441,12.675,4.0909,0.1,0.00026616,2659.8,0.00026565,2645.1,-8.6384e-05,-0.0094204,-9.0268e-05,-29.189,0.78819
28442,12.767,4,0.1,0.00026395,2637.7,0.00026342,2622.2,-8.5582e-05,-0.0094212,-8.966e-05,-30.65,0.7985
28443,12.675,4.2727,0.1,0.00026605,2658.6,0.00026553,2643.7,-8.6321e-05,-0.0098208,-9.0272e-05,-29.695,0.78781
28444,12.767,4.1818,0.1,0.00026383,2636.5,0.00026328,2620.7,-8.5507e-05,-0.0099615,-8.968e-05,-31.369,0.79814
28445,12.675,4.4545,0.1,0.0002659,2657.1,0.00026538,2642.1,-8.6263e-05,-0.0099909,-9.0238e-05,-29.883,0.78736
28446,12.767,4.3636,0.1,0.00026368,2635,0.00026312,2618.9,-8.5434e-05,-0.010365,-8.9666e-05,-31.803,0.79773
28447,12.675,4.6364,0.1,0.00026571,2655.3,0.00026519,2640.3,-8.6214e-05,-0.0097539,-9.0157e-05,-29.637,0.78685
28448,12.767,4.5455,0.1,0.00026348,2633,0.00026293,2617,-8.5369e-05,-0.010451,-8.9603e-05,-31.819,0.79725
28449,12.675,4.8182,0.1,0.00026549,2653.1,0.00026499,2638.5,-8.6179e-05,-0.008855,-9.0019e-05,-28.863,0.78629
28450,12.767,4.7273,0.1,0.00026325,2630.7,0.0002627,2614.9,-8.5317e-05,-0.010015,-8.9482e-05,-31.298,0.79672
28451,12.675,5,0.1,0.00026523,2650.5,0.00026475,2636.6,-8.6162e-05,-0.0071056,-8.9819e-05,-27.487,0.78566
28452,12.767,4.9091,0.1,0.00026297,2627.9,0.00026244,2612.7,-8.5283e-05,-0.0087016,-8.9294e-05,-30.145,0.79613
28453,12.675,5.1818,0.1,0.00026494,2647.6,0.0002645,2634.8,-8.6167e-05,-0.0036508,-8.9556e-05,-25.467,0.78498
28454,12.767,5.0909,0.1,0.00026266,2624.7,0.00026216,2610.5,-8.5272e-05,-0.0064408,-8.9037e-05,-28.294,0.79548
28455,12.675,5.3636,0.1,0.00026463,2644.5,0.00026423,2633,-8.6196e-05,0.00033926,-8.9231e-05,-22.801,0.78424
28456,12.767,5.2727,0.1,0.00026231,2621.3,0.00026186,2608.3,-8.5286e-05,-0.0014093,-8.8708e-05,-25.717,0.79477
28457,12.675,5.5455,0.1,0.00026431,2641.3,0.00026397,2631.5,-8.6251e-05,0.016054,-8.8854e-05,-19.543,0.78343
28458,12.767,5.4545,0.1,0.00026194,2617.6,0.00026156,2606.4,-8.5328e-05,0.0021421,-8.8314e-05,-22.431,0.794
28459,12.675,5.7273,0.1,0.00026407,2638.9,0.00026379,2630.7,-8.6334e-05,0.021665,-8.8501e-05,-16.262,0.78257
28460,12.767,5.6364,0.1,0.00026158,2614,0.00026126,2604.7,-8.5399e-05,0.032807,-8.787e-05,-18.532,0.79318
28461,12.767,5.8182,0.1,0.00026138,2612,0.00026112,2604.4,-8.5506e-05,0.0098736,-8.7518e-05,-15.108,0.7923
28462,12.675,5.9091,0.1,0.00026334,2631.6,0.00026318,2626.8,-8.6435e-05,0.0040961,-8.7686e-05,-9.3971,0.78166
28463,12.859,0.27273,0.1,0.00025888,2587,0.00025858,2578.3,-8.457e-05,0.025381,-8.6874e-05,-17.287,0.80296
28464,12.951,0.18182,0.1,0.00025611,2559.3,0.00025584,2551.4,-8.3735e-05,0.013579,-8.5828e-05,-15.707,0.81278
28465,12.859,0.090909,0.1,0.00025808,2579,0.00025791,2574.1,-8.4685e-05,0.0045304,-8.5975e-05,-9.6826,0.80206
28466,12.859,0.45455,0.1,0.00025921,2590.3,0.00025884,2579.6,-8.4476e-05,0.017864,-8.7326e-05,-21.39,0.80381
28467,12.951,0.36364,0.1,0.00025641,2562.3,0.00025606,2552.2,-8.3615e-05,0.037376,-8.6294e-05,-20.093,0.81365
28468,12.859,0.63636,0.1,0.00025962,2594.4,0.00025918,2581.7,-8.4418e-05,-0.00025729,-8.7788e-05,-25.324,0.8046
28469,12.951,0.54545,0.1,0.00025687,2567,0.00025644,2554.5,-8.3538e-05,0.0016532,-8.6837e-05,-24.785,0.81446
28470,12.859,0.81818,0.1,0.00026002,2598.4,0.00025952,2584,-8.4391e-05,-0.0045673,-8.8186e-05,-28.524,0.80533
28471,12.951,0.72727,0.1,0.00025734,2571.6,0.00025684,2557.1,-8.3495e-05,-0.0021479,-8.7316e-05,-28.71,0.81522
28472,12.859,1,0.1,0.00026039,2602.1,0.00025985,2586.5,-8.4393e-05,-0.0082519,-8.8509e-05,-30.935,0.80601
28473,12.951,0.90909,0.1,0.00025778,2576,0.00025722,2559.9,-8.3488e-05,-0.00763,-8.7715e-05,-31.771,0.81592
28474,12.859,1.1818,0.1,0.00026073,2605.5,0.00026016,2589,-8.4422e-05,-0.009987,-8.8755e-05,-32.564,0.80662
28475,12.951,1.0909,0.1,0.00025818,2580,0.00025758,2562.8,-8.3512e-05,-0.0099151,-8.8029e-05,-33.95,0.81656
28476,12.859,1.3636,0.1,0.00026102,2608.4,0.00026043,2591.5,-8.4473e-05,-0.010781,-8.8926e-05,-33.464,0.80718
28477,12.951,1.2727,0.1,0.00025853,2583.5,0.00025791,2565.7,-8.3563e-05,-0.011149,-8.8257e-05,-35.285,0.81714
28478,12.859,1.5455,0.1,0.00026126,2610.8,0.00026067,2593.8,-8.4541e-05,-0.010856,-8.9028e-05,-33.723,0.80768
28479,12.951,1.4545,0.1,0.00025884,2586.6,0.00025821,2568.5,-8.3635e-05,-0.011417,-8.8406e-05,-35.857,0.81767
28480,12.859,1.7273,0.1,0.00026146,2612.8,0.00026087,2595.9,-8.462e-05,-0.010512,-8.9072e-05,-33.461,0.80812
28481,12.951,1.6364,0.1,0.00025909,2589.1,0.00025847,2571.1,-8.3723e-05,-0.011136,-8.8484e-05,-35.784,0.81813
28482,12.859,1.9091,0.1,0.00026162,2614.4,0.00026104,2597.8,-8.4704e-05,-0.0099527,-8.907e-05,-32.815,0.8085
28483,12.951,1.8182,0.1,0.0002593,2591.2,0.00025868,2573.4,-8.3819e-05,-0.010545,-8.8504e-05,-35.209,0.81854
28484,12.859,2.0909,0.1,0.00026174,2615.6,0.00026118,2599.4,-8.4787e-05,-0.0093448,-8.9036e-05,-31.932,0.80883
28485,12.951,2,0.1,0.00025946,2592.8,0.00025886,2575.5,-8.3918e-05,-0.0098544,-8.8481e-05,-34.294,0.81889
28486,12.859,2.2727,0.1,0.00026182,2616.4,0.00026128,2600.8,-8.4864e-05,-0.0088011,-8.8984e-05,-30.963,0.80909
28487,12.951,2.1818,0.1,0.00025958,2594,0.000259,2577.2,-8.4012e-05,-0.0092114,-8.843e-05,-33.205,0.81918
28488,12.859,2.4545,0.1,0.00026188,2617,0.00026136,2601.9,-8.493e-05,-0.0083859,-8.8927e-05,-30.044,0.8093
28489,12.951,2.3636,0.1,0.00025966,2594.9,0.0002591,2578.7,-8.4095e-05,-0.0087074,-8.8367e-05,-32.105,0.81942
28490,12.859,2.6364,0.1,0.00026192,2617.4,0.00026141,2602.6,-8.498e-05,-0.0081139,-8.8878e-05,-29.294,0.80944
28491,12.951,2.5455,0.1,0.00025972,2595.4,0.00025918,2579.7,-8.4162e-05,-0.0083738,-8.8305e-05,-31.137,0.81959
28492,12.859,2.8182,0.1,0.00026194,2617.6,0.00026144,2603.1,-8.5011e-05,-0.0079673,-8.8844e-05,-28.806,0.80953
28493,12.951,2.7273,0.1,0.00025976,2595.8,0.00025923,2580.4,-8.421e-05,-0.008189,-8.8258e-05,-30.422,0.81971
28494,12.859,3,0.1,0.00026195,2617.7,0.00026145,2603.3,-8.5022e-05,-0.0079223,-8.8832e-05,-28.637,0.80956
28495,12.951,2.9091,0.1,0.00025978,2596,0.00025925,2580.8,-8.4234e-05,-0.0081123,-8.8232e-05,-30.042,0.81977
28496,12.859,3.1818,0.1,0.00026194,2617.6,0.00026144,2603.1,-8.5011e-05,-0.007967,-8.8844e-05,-28.806,0.80953
28497,12.951,3.0909,0.1,0.00025978,2596,0.00025925,2580.8,-8.4234e-05,-0.0081124,-8.8232e-05,-30.042,0.81977
28498,12.859,3.3636,0.1,0.00026192,2617.4,0.00026141,2602.6,-8.498e-05,-0.0081135,-8.8878e-05,-29.294,0.80944
28499,12.951,3.2727,0.1,0.00025976,2595.8,0.00025923,2580.4,-8.421e-05,-0.0081887,-8.8258e-05,-30.422,0.81971
28500,12.859,3.5455,0.1,0.00026188,2617,0.00026136,2601.9,-8.493e-05,-0.0083861,-8.8927e-05,-30.044,0.8093
28501,12.951,3.4545,0.1,0.00025972,2595.4,0.00025918,2579.7,-8.4162e-05,-0.0083737,-8.8305e-05,-31.137,0.81959
28502,12.859,3.7273,0.1,0.00026182,2616.4,0.00026128,2600.8,-8.4864e-05,-0.0088009,-8.8984e-05,-30.963,0.80909
28503,12.951,3.6364,0.1,0.00025966,2594.9,0.0002591,2578.7,-8.4095e-05,-0.0087077,-8.8367e-05,-32.104,0.81942
28504,12.859,3.9091,0.1,0.00026174,2615.6,0.00026118,2599.4,-8.4787e-05,-0.0093445,-8.9036e-05,-31.932,0.80883
28505,12.951,3.8182,0.1,0.00025958,2594,0.000259,2577.2,-8.4012e-05,-0.009211,-8.843e-05,-33.205,0.81918
28506,12.859,4.0909,0.1,0.00026162,2614.4,0.00026104,2597.8,-8.4704e-05,-0.0099528,-8.907e-05,-32.815,0.8085
28507,12.951,4,0.1,0.00025946,2592.8,0.00025886,2575.5,-8.3918e-05,-0.0098541,-8.8481e-05,-34.294,0.81889
28508,12.859,4.2727,0.1,0.00026146,2612.8,0.00026087,2595.9,-8.462e-05,-0.010511,-8.9072e-05,-33.461,0.80812
28509,12.951,4.1818,0.1,0.0002593,2591.2,0.00025868,2573.4,-8.3819e-05,-0.010544,-8.8504e-05,-35.209,0.81854
28510,12.859,4.4545,0.1,0.00026126,2610.8,0.00026067,2593.8,-8.4541e-05,-0.010856,-8.9028e-05,-33.723,0.80768
28511,12.951,4.3636,0.1,0.00025909,2589.1,0.00025846,2571.1,-8.3723e-05,-0.011135,-8.8484e-05,-35.784,0.81813
28512,12.859,4.6364,0.1,0.00026102,2608.4,0.00026043,2591.5,-8.4473e-05,-0.010781,-8.8926e-05,-33.464,0.80718
28513,12.951,4.5455,0.1,0.00025884,2586.6,0.00025821,2568.5,-8.3635e-05,-0.011416,-8.8406e-05,-35.857,0.81767
28514,12.859,4.8182,0.1,0.00026073,2605.5,0.00026016,2589,-8.4422e-05,-0.0099866,-8.8755e-05,-32.564,0.80662
28515,12.951,4.7273,0.1,0.00025853,2583.5,0.00025791,2565.7,-8.3563e-05,-0.011149,-8.8257e-05,-35.285,0.81714
28516,12.859,5,0.1,0.00026039,2602.1,0.00025985,2586.5,-8.4393e-05,-0.0082511,-8.8509e-05,-30.935,0.80601
28517,12.951,4.9091,0.1,0.00025818,2580,0.00025758,2562.8,-8.3512e-05,-0.0099148,-8.8029e-05,-33.95,0.81656
28518,12.859,5.1818,0.1,0.00026002,2598.4,0.00025952,2584,-8.4391e-05,-0.0045659,-8.8186e-05,-28.524,0.80533
28519,12.951,5.0909,0.1,0.00025778,2576,0.00025722,2559.9,-8.3488e-05,-0.0076287,-8.7715e-05,-31.771,0.81592
28520,12.859,5.3636,0.1,0.00025962,2594.4,0.00025918,2581.7,-8.4418e-05,-0.00025591,-8.7788e-05,-25.324,0.8046
28521,12.951,5.2727,0.1,0.00025734,2571.6,0.00025684,2557.1,-8.3495e-05,-0.0021464,-8.7316e-05,-28.71,0.81522
28522,12.859,5.5455,0.1,0.00025921,2590.3,0.00025884,2579.6,-8.4476e-05,0.017864,-8.7326e-05,-21.39,0.80381
28523,12.951,5.4545,0.1,0.00025687,2567,0.00025644,2554.5,-8.3538e-05,0.0016543,-8.6837e-05,-24.785,0.81446
28524,12.859,5.7273,0.1,0.00025888,2587,0.00025858,2578.3,-8.457e-05,0.025381,-8.6874e-05,-17.287,0.80296
28525,12.951,5.6364,0.1,0.00025641,2562.3,0.00025606,2552.2,-8.3615e-05,0.037376,-8.6294e-05,-20.093,0.81365
28526,12.951,5.8182,0.1,0.00025611,2559.3,0.00025584,2551.4,-8.3735e-05,0.013579,-8.5828e-05,-15.707,0.81278
28527,12.859,5.9091,0.1,0.00025808,2579,0.00025791,2574.1,-8.4685e-05,0.0045312,-8.5975e-05,-9.6826,0.80206
28528,13.042,0.27273,0.1,0.00025363,2534.5,0.00025331,2525.3,-8.278e-05,0.029677,-8.5236e-05,-18.421,0.82352
28529,13.134,0.18182,0.1,0.00025076,2505.8,0.00025047,2497.6,-8.1936e-05,0.018398,-8.4116e-05,-16.358,0.83343
28530,13.042,0.090909,0.1,0.00025275,2525.8,0.00025258,2520.8,-8.2912e-05,0.0050049,-8.4242e-05,-9.9855,0.82263
28531,13.042,0.45455,0.1,0.00025407,2538.9,0.00025366,2527.1,-8.2676e-05,0.019798,-8.5801e-05,-23.458,0.82436
28532,13.134,0.36364,0.1,0.00025118,2510.1,0.0002508,2499.1,-8.1801e-05,0.042457,-8.4714e-05,-21.845,0.83429
28533,13.042,0.63636,0.1,0.00025459,2544.1,0.0002541,2529.9,-8.2615e-05,-0.0010289,-8.6362e-05,-28.148,0.82514
28534,13.134,0.54545,0.1,0.00025176,2515.9,0.00025128,2502,-8.1718e-05,0.00095115,-8.5369e-05,-27.432,0.83509
28535,13.042,0.81818,0.1,0.00025509,2549.1,0.00025453,2533,-8.2593e-05,-0.0056188,-8.6842e-05,-31.938,0.82586
28536,13.134,0.72727,0.1,0.00025234,2521.6,0.00025178,2505.4,-8.1678e-05,-0.0030616,-8.5946e-05,-32.07,0.83584
28537,13.042,1,0.1,0.00025556,2553.8,0.00025495,2536.2,-8.2606e-05,-0.0095415,-8.7232e-05,-34.769,0.82652
28538,13.134,0.90909,0.1,0.00025289,2527.1,0.00025226,2509.1,-8.168e-05,-0.0089983,-8.6425e-05,-35.659,0.83653
28539,13.042,1.1818,0.1,0.00025598,2558,0.00025534,2539.5,-8.2652e-05,-0.011219,-8.7529e-05,-36.656,0.82713
28540,13.134,1.0909,0.1,0.00025339,2532.1,0.00025272,2512.8,-8.1721e-05,-0.011261,-8.6802e-05,-38.185,0.83716
28541,13.042,1.3636,0.1,0.00025635,2561.7,0.00025569,2542.7,-8.2724e-05,-0.01186,-8.7736e-05,-37.664,0.82768
28542,13.134,1.2727,0.1,0.00025384,2536.7,0.00025314,2516.6,-8.1794e-05,-0.012362,-8.7076e-05,-39.697,0.83773
28543,13.042,1.5455,0.1,0.00025667,2564.9,0.000256,2545.7,-8.2817e-05,-0.011726,-8.786e-05,-37.904,0.82818
28544,13.134,1.4545,0.1,0.00025423,2540.6,0.00025352,2520.2,-8.1894e-05,-0.012405,-8.7255e-05,-40.293,0.83825
28545,13.042,1.7273,0.1,0.00025693,2567.5,0.00025627,2548.5,-8.2922e-05,-0.011168,-8.7914e-05,-37.518,0.82861
28546,13.134,1.6364,0.1,0.00025456,2543.8,0.00025385,2523.5,-8.2011e-05,-0.01188,-8.7349e-05,-40.117,0.83871
28547,13.042,1.9091,0.1,0.00025714,2569.6,0.00025649,2551.1,-8.3033e-05,-0.010428,-8.7913e-05,-36.674,0.82899
28548,13.134,1.8182,0.1,0.00025483,2546.5,0.00025414,2526.6,-8.2138e-05,-0.011067,-8.7373e-05,-39.343,0.83912
28549,13.042,2.0909,0.1,0.0002573,2571.2,0.00025667,2553.2,-8.3142e-05,-0.0096952,-8.7873e-05,-35.552,0.82931
28550,13.134,2,0.1,0.00025504,2548.7,0.00025437,2529.4,-8.2267e-05,-0.010213,-8.7345e-05,-38.165,0.83946
28551,13.042,2.2727,0.1,0.00025742,2572.4,0.00025682,2555.1,-8.3242e-05,-0.0090948,-8.781e-05,-34.333,0.82957
28552,13.134,2.1818,0.1,0.0002552,2550.3,0.00025456,2531.7,-8.2389e-05,-0.0094871,-8.7284e-05,-36.788,0.83975
28553,13.042,2.4545,0.1,0.0002575,2573.2,0.00025692,2556.5,-8.3327e-05,-0.0086843,-8.7743e-05,-33.183,0.82977
28554,13.134,2.3636,0.1,0.00025532,2551.5,0.0002547,2533.6,-8.2497e-05,-0.0089821,-8.7209e-05,-35.407,0.83998
28555,13.042,2.6364,0.1,0.00025756,2573.8,0.00025699,2557.5,-8.3392e-05,-0.0084542,-8.7683e-05,-32.249,0.82992
28556,13.134,2.5455,0.1,0.0002554,2552.3,0.00025481,2535,-8.2585e-05,-0.0087072,-8.7135e-05,-34.198,0.84015
28557,13.042,2.8182,0.1,0.00025759,2574.1,0.00025704,2558.1,-8.3433e-05,-0.0083535,-8.7643e-05,-31.642,0.83
28558,13.134,2.7273,0.1,0.00025546,2552.8,0.00025487,2536,-8.2646e-05,-0.0086022,-8.7078e-05,-33.306,0.84027
28559,13.042,3,0.1,0.0002576,2574.2,0.00025705,2558.3,-8.3447e-05,-0.0083276,-8.7629e-05,-31.432,0.83003
28560,13.134,2.9091,0.1,0.00025548,2553,0.00025491,2536.5,-8.2677e-05,-0.0085801,-8.7046e-05,-32.834,0.84033
28561,13.042,3.1818,0.1,0.00025759,2574.1,0.00025704,2558.1,-8.3433e-05,-0.0083536,-8.7643e-05,-31.642,0.83
28562,13.134,3.0909,0.1,0.00025548,2553,0.00025491,2536.5,-8.2677e-05,-0.0085798,-8.7046e-05,-32.834,0.84033
28563,13.042,3.3636,0.1,0.00025756,2573.8,0.00025699,2557.5,-8.3392e-05,-0.0084541,-8.7683e-05,-32.249,0.82992
28564,13.134,3.2727,0.1,0.00025546,2552.8,0.00025487,2536,-8.2646e-05,-0.0086022,-8.7078e-05,-33.306,0.84027
28565,13.042,3.5455,0.1,0.0002575,2573.2,0.00025692,2556.5,-8.3327e-05,-0.0086842,-8.7743e-05,-33.183,0.82977
28566,13.134,3.4545,0.1,0.0002554,2552.3,0.00025481,2535,-8.2585e-05,-0.008707,-8.7135e-05,-34.198,0.84015
28567,13.042,3.7273,0.1,0.00025742,2572.4,0.00025682,2555.1,-8.3242e-05,-0.0090949,-8.781e-05,-34.333,0.82957
28568,13.134,3.6364,0.1,0.00025532,2551.5,0.0002547,2533.6,-8.2497e-05,-0.008982,-8.7209e-05,-35.407,0.83998
28569,13.042,3.9091,0.1,0.0002573,2571.2,0.00025667,2553.2,-8.3142e-05,-0.0096948,-8.7873e-05,-35.552,0.82931
28570,13.134,3.8182,0.1,0.0002552,2550.3,0.00025456,2531.7,-8.2389e-05,-0.0094867,-8.7284e-05,-36.788,0.83975
28571,13.042,4.0909,0.1,0.00025714,2569.6,0.00025649,2551.1,-8.3033e-05,-0.010427,-8.7913e-05,-36.674,0.82899
28572,13.134,4,0.1,0.00025504,2548.7,0.00025437,2529.4,-8.2267e-05,-0.010213,-8.7345e-05,-38.165,0.83946
28573,13.042,4.2727,0.1,0.00025693,2567.5,0.00025627,2548.5,-8.2922e-05,-0.011168,-8.7914e-05,-37.518,0.82861
28574,13.134,4.1818,0.1,0.00025483,2546.5,0.00025414,2526.6,-8.2138e-05,-0.011066,-8.7373e-05,-39.343,0.83912
28575,13.042,4.4545,0.1,0.00025667,2564.9,0.000256,2545.7,-8.2817e-05,-0.011726,-8.786e-05,-37.904,0.82818
28576,13.134,4.3636,0.1,0.00025456,2543.8,0.00025385,2523.5,-8.2011e-05,-0.011879,-8.7349e-05,-40.117,0.83871
28577,13.042,4.6364,0.1,0.00025635,2561.7,0.00025569,2542.7,-8.2724e-05,-0.011859,-8.7736e-05,-37.664,0.82768
28578,13.134,4.5455,0.1,0.00025423,2540.6,0.00025352,2520.2,-8.1894e-05,-0.012404,-8.7255e-05,-40.293,0.83825
28579,13.042,4.8182,0.1,0.00025598,2558,0.00025534,2539.5,-8.2652e-05,-0.011219,-8.7529e-05,-36.656,0.82713
28580,13.134,4.7273,0.1,0.00025384,2536.7,0.00025314,2516.6,-8.1794e-05,-0.012362,-8.7076e-05,-39.697,0.83773
28581,13.042,5,0.1,0.00025556,2553.8,0.00025495,2536.2,-8.2606e-05,-0.0095408,-8.7232e-05,-34.769,0.82652
28582,13.134,4.9091,0.1,0.00025339,2532.1,0.00025272,2512.8,-8.1721e-05,-0.01126,-8.6802e-05,-38.185,0.83716
28583,13.042,5.1818,0.1,0.00025509,2549.1,0.00025453,2533,-8.2593e-05,-0.0056189,-8.6842e-05,-31.938,0.82586
28584,13.134,5.0909,0.1,0.00025288,2527.1,0.00025226,2509.1,-8.168e-05,-0.0089969,-8.6425e-05,-35.659,0.83653
28585,13.042,5.3636,0.1,0.00025459,2544.1,0.0002541,2529.9,-8.2615e-05,-0.0010276,-8.6361e-05,-28.148,0.82514
28586,13.134,5.2727,0.1,0.00025234,2521.6,0.00025178,2505.4,-8.1678e-05,-0.0030601,-8.5946e-05,-32.07,0.83584
28587,13.042,5.5455,0.1,0.00025407,2538.9,0.00025366,2527.1,-8.2676e-05,0.019799,-8.5801e-05,-23.458,0.82436
28588,13.134,5.4545,0.1,0.00025176,2515.9,0.00025128,2502,-8.1718e-05,0.00095233,-8.5369e-05,-27.432,0.83509
28589,13.042,5.7273,0.1,0.00025363,2534.5,0.00025331,2525.3,-8.278e-05,0.029677,-8.5236e-05,-18.421,0.82352
28590,13.134,5.6364,0.1,0.00025118,2510.1,0.0002508,2499.1,-8.1801e-05,0.042457,-8.4714e-05,-21.845,0.83429
28591,13.134,5.8182,0.1,0.00025076,2505.8,0.00025047,2497.6,-8.1936e-05,0.018399,-8.4116e-05,-16.358,0.83343
28592,13.042,5.9091,0.1,0.00025275,2525.8,0.00025258,2520.8,-8.2912e-05,0.0050044,-8.4242e-05,-9.9855,0.82263
28593,13.226,0.27273,0.1,0.00024829,2481.2,0.00024795,2471.3,-8.0957e-05,0.034593,-8.3582e-05,-19.689,0.84425
28594,13.318,0.18182,0.1,0.0002453,2451.3,0.00024501,2442.7,-8.01e-05,0.024569,-8.2376e-05,-17.075,0.85425
28595,13.226,0.090909,0.1,0.00024733,2471.6,0.00024715,2466.4,-8.1107e-05,0.0054987,-8.248e-05,-10.311,0.84337
28596,13.226,0.45455,0.1,0.00024886,2486.9,0.00024842,2473.9,-8.0843e-05,0.02183,-8.4278e-05,-25.789,0.84508
28597,13.318,0.36364,0.1,0.00024586,2456.9,0.00024545,2445,-7.9948e-05,0.048095,-8.3125e-05,-23.823,0.8551
28598,13.226,0.63636,0.1,0.00024951,2493.3,0.00024896,2477.5,-8.0781e-05,-0.0020379,-8.495e-05,-31.331,0.84585
28599,13.318,0.54545,0.1,0.00024658,2464.1,0.00024605,2448.8,-7.986e-05,-1.5451e-05,-8.3909e-05,-30.424,0.85589
28600,13.226,0.81818,0.1,0.00025013,2499.6,0.0002495,2481.5,-8.0765e-05,-0.0069257,-8.5526e-05,-35.773,0.84656
28601,13.318,0.72727,0.1,0.00024729,2471.2,0.00024667,2453.1,-7.9825e-05,-0.0041764,-8.4597e-05,-35.861,0.85662
28602,13.226,1,0.1,0.00025072,2505.4,0.00025003,2485.7,-8.0795e-05,-0.011005,-8.5992e-05,-39.06,0.84722
28603,13.318,0.90909,0.1,0.00024797,2478,0.00024727,2457.8,-7.9842e-05,-0.010558,-8.5168e-05,-40.033,0.8573
28604,13.226,1.1818,0.1,0.00025125,2510.7,0.00025052,2489.9,-8.0863e-05,-0.012564,-8.6346e-05,-41.212,0.84782
28605,13.318,1.0909,0.1,0.0002486,2484.3,0.00024785,2462.6,-7.9905e-05,-0.012731,-8.5617e-05,-42.93,0.85793
28606,13.226,1.3636,0.1,0.00025172,2515.4,0.00025097,2494,-8.0963e-05,-0.012989,-8.6593e-05,-42.312,0.84836
28607,13.318,1.2727,0.1,0.00024917,2490,0.00024838,2467.4,-8.0008e-05,-0.013629,-8.5944e-05,-44.613,0.8585
28608,13.226,1.5455,0.1,0.00025212,2519.5,0.00025137,2498,-8.1088e-05,-0.012587,-8.6742e-05,-42.493,0.84885
28609,13.318,1.4545,0.1,0.00024967,2494.9,0.00024887,2472,-8.0142e-05,-0.013376,-8.6156e-05,-45.203,0.85901
28610,13.226,1.7273,0.1,0.00025246,2522.9,0.00025172,2501.6,-8.1227e-05,-0.01177,-8.6806e-05,-41.929,0.84928
28611,13.318,1.6364,0.1,0.00025009,2499.2,0.0002493,2476.4,-8.0298e-05,-0.012545,-8.6268e-05,-44.873,0.85947
28612,13.226,1.9091,0.1,0.00025273,2525.6,0.00025201,2504.9,-8.1373e-05,-0.010822,-8.6804e-05,-40.821,0.84965
28613,13.318,1.8182,0.1,0.00025044,2502.6,0.00024966,2480.4,-8.0465e-05,-0.011469,-8.6297e-05,-43.833,0.85986
28614,13.226,2.0909,0.1,0.00025295,2527.7,0.00025225,2507.8,-8.1515e-05,-0.009967,-8.6756e-05,-39.388,0.84996
28615,13.318,2,0.1,0.00025072,2505.4,0.00024997,2484,-8.0632e-05,-0.01044,-8.6263e-05,-42.318,0.8602
28616,13.226,2.2727,0.1,0.00025311,2529.3,0.00025244,2510.2,-8.1645e-05,-0.009343,-8.6681e-05,-37.849,0.85022
28617,13.318,2.1818,0.1,0.00025093,2507.6,0.00025022,2487.1,-8.0791e-05,-0.0096565,-8.6189e-05,-40.574,0.86049
28618,13.226,2.4545,0.1,0.00025322,2530.5,0.00025258,2512.1,-8.1755e-05,-0.0089933,-8.6599e-05,-36.408,0.85042
28619,13.318,2.3636,0.1,0.00025109,2509.2,0.00025041,2489.5,-8.093e-05,-0.0092103,-8.6098e-05,-38.839,0.86072
28620,13.226,2.6364,0.1,0.0002533,2531.3,0.00025268,2513.5,-8.1838e-05,-0.00887,-8.6527e-05,-35.24,0.85056
28621,13.318,2.5455,0.1,0.00025121,2510.3,0.00025055,2491.4,-8.1043e-05,-0.0090767,-8.6009e-05,-37.328,0.86089
28622,13.226,2.8182,0.1,0.00025334,2531.7,0.00025274,2514.3,-8.1891e-05,-0.0088669,-8.6479e-05,-34.483,0.85065
28623,13.318,2.7273,0.1,0.00025128,2511,0.00025064,2492.7,-8.1121e-05,-0.0091312,-8.594e-05,-36.215,0.861
28624,13.226,3,0.1,0.00025336,2531.8,0.00025276,2514.6,-8.1908e-05,-0.0088797,-8.6462e-05,-34.221,0.85068
28625,13.318,2.9091,0.1,0.00025131,2511.4,0.00025068,2493.4,-8.1162e-05,-0.0092136,-8.5902e-05,-35.627,0.86106
28626,13.226,3.1818,0.1,0.00025334,2531.7,0.00025274,2514.3,-8.1891e-05,-0.0088665,-8.6479e-05,-34.483,0.85065
28627,13.318,3.0909,0.1,0.00025131,2511.4,0.00025068,2493.4,-8.1162e-05,-0.0092133,-8.5902e-05,-35.627,0.86106
28628,13.226,3.3636,0.1,0.0002533,2531.3,0.00025268,2513.5,-8.1838e-05,-0.0088699,-8.6527e-05,-35.24,0.85056
28629,13.318,3.2727,0.1,0.00025128,2511,0.00025064,2492.7,-8.1121e-05,-0.0091309,-8.594e-05,-36.215,0.861
28630,13.226,3.5455,0.1,0.00025322,2530.5,0.00025258,2512.1,-8.1755e-05,-0.0089931,-8.6599e-05,-36.408,0.85042
28631,13.318,3.4545,0.1,0.00025121,2510.3,0.00025055,2491.4,-8.1043e-05,-0.0090771,-8.6009e-05,-37.328,0.86089
28632,13.226,3.7273,0.1,0.00025311,2529.3,0.00025244,2510.2,-8.1645e-05,-0.0093424,-8.6681e-05,-37.849,0.85022
28633,13.318,3.6364,0.1,0.00025109,2509.2,0.00025041,2489.5,-8.093e-05,-0.0092101,-8.6098e-05,-38.839,0.86072
28634,13.226,3.9091,0.1,0.00025295,2527.7,0.00025225,2507.8,-8.1515e-05,-0.0099666,-8.6756e-05,-39.388,0.84996
28635,13.318,3.8182,0.1,0.00025093,2507.6,0.00025022,2487.1,-8.0791e-05,-0.0096561,-8.6189e-05,-40.574,0.86049
28636,13.226,4.0909,0.1,0.00025273,2525.6,0.00025201,2504.9,-8.1373e-05,-0.010822,-8.6804e-05,-40.821,0.84965
28637,13.318,4,0.1,0.00025072,2505.4,0.00024997,2484,-8.0632e-05,-0.01044,-8.6263e-05,-42.318,0.8602
28638,13.226,4.2727,0.1,0.00025246,2522.9,0.00025172,2501.6,-8.1227e-05,-0.011769,-8.6806e-05,-41.929,0.84928
28639,13.318,4.1818,0.1,0.00025044,2502.6,0.00024966,2480.4,-8.0465e-05,-0.011468,-8.6297e-05,-43.833,0.85986
28640,13.226,4.4545,0.1,0.00025212,2519.5,0.00025137,2498,-8.1088e-05,-0.012586,-8.6742e-05,-42.493,0.84885
28641,13.318,4.3636,0.1,0.00025009,2499.2,0.0002493,2476.4,-8.0298e-05,-0.012545,-8.6268e-05,-44.873,0.85947
28642,13.226,4.6364,0.1,0.00025172,2515.4,0.00025097,2494,-8.0963e-05,-0.012988,-8.6593e-05,-42.312,0.84836
28643,13.318,4.5455,0.1,0.00024967,2494.9,0.00024887,2472,-8.0142e-05,-0.013376,-8.6156e-05,-45.203,0.85901
28644,13.226,4.8182,0.1,0.00025125,2510.7,0.00025052,2489.9,-8.0863e-05,-0.012564,-8.6346e-05,-41.212,0.84782
28645,13.318,4.7273,0.1,0.00024917,2490,0.00024838,2467.4,-8.0008e-05,-0.013629,-8.5944e-05,-44.613,0.8585
28646,13.226,5,0.1,0.00025072,2505.4,0.00025003,2485.7,-8.0795e-05,-0.011004,-8.5992e-05,-39.06,0.84722
28647,13.318,4.9091,0.1,0.0002486,2484.3,0.00024785,2462.6,-7.9905e-05,-0.01273,-8.5617e-05,-42.93,0.85793
28648,13.226,5.1818,0.1,0.00025013,2499.6,0.0002495,2481.5,-8.0765e-05,-0.0069241,-8.5526e-05,-35.773,0.84656
28649,13.318,5.0909,0.1,0.00024797,2478,0.00024727,2457.8,-7.9842e-05,-0.010557,-8.5168e-05,-40.033,0.8573
28650,13.226,5.3636,0.1,0.00024951,2493.3,0.00024896,2477.5,-8.0781e-05,-0.0020365,-8.495e-05,-31.331,0.84585
28651,13.318,5.2727,0.1,0.00024729,2471.2,0.00024666,2453.1,-7.9825e-05,-0.0041749,-8.4597e-05,-35.861,0.85662
28652,13.226,5.5455,0.1,0.00024886,2486.9,0.00024842,2473.9,-8.0843e-05,0.021831,-8.4278e-05,-25.789,0.84508
28653,13.318,5.4545,0.1,0.00024658,2464.1,0.00024605,2448.8,-7.986e-05,-1.4913e-05,-8.3909e-05,-30.424,0.85589
28654,13.226,5.7273,0.1,0.00024829,2481.2,0.00024795,2471.3,-8.0957e-05,0.034593,-8.3582e-05,-19.689,0.84425
28655,13.318,5.6364,0.1,0.00024586,2456.9,0.00024545,2445,-7.9948e-05,0.048095,-8.3125e-05,-23.823,0.8551
28656,13.318,5.8182,0.1,0.0002453,2451.3,0.00024501,2442.7,-8.01e-05,0.02457,-8.2376e-05,-17.075,0.85425
28657,13.226,5.9091,0.1,0.00024733,2471.6,0.00024715,2466.4,-8.1107e-05,0.0054993,-8.248e-05,-10.311,0.84337
28658,13.41,0.27273,0.1,0.00024286,2426.9,0.00024249,2416.3,-7.9091e-05,0.040193,-8.1906e-05,-21.115,0.86515
28659,13.502,0.18182,0.1,0.00023971,2395.4,0.0002394,2386.5,-7.8214e-05,0.032381,-8.0597e-05,-17.872,0.87524
28660,13.41,0.090909,0.1,0.00024179,2416.2,0.00024161,2410.9,-7.9261e-05,0.0060375,-8.0682e-05,-10.667,0.86428
28661,13.41,0.45455,0.1,0.00024358,2434.1,0.00024308,2419.8,-7.8966e-05,0.023969,-8.2753e-05,-28.429,0.86596
28662,13.502,0.36364,0.1,0.00024044,2402.7,0.00023999,2389.6,-7.8046e-05,0.05437,-8.1522e-05,-26.066,0.87607
28663,13.41,0.63636,0.1,0.00024437,2442,0.00024375,2424.3,-7.8905e-05,-0.0033015,-8.3554e-05,-34.933,0.86672
28664,13.502,0.54545,0.1,0.00024132,2411.5,0.00024073,2394.4,-7.7954e-05,-0.0012584,-8.2455e-05,-33.82,0.87685
28665,13.41,0.81818,0.1,0.00024514,2449.7,0.00024443,2429.4,-7.8901e-05,-0.0084059,-8.4237e-05,-40.104,0.86743
28666,13.502,0.72727,0.1,0.00024219,2420.3,0.00024148,2399.9,-7.7927e-05,-0.0054638,-8.327e-05,-40.156,0.87758
28667,13.41,1,0.1,0.00024586,2456.9,0.00024509,2434.7,-7.8952e-05,-0.012616,-8.4791e-05,-43.89,0.86807
28668,13.502,0.90909,0.1,0.00024303,2428.6,0.00024224,2405.8,-7.7963e-05,-0.01226,-8.3948e-05,-44.976,0.87825
28669,13.41,1.1818,0.1,0.00024653,2463.6,0.00024571,2440.1,-7.905e-05,-0.013978,-8.5212e-05,-46.319,0.86867
28670,13.502,1.0909,0.1,0.00024381,2436.5,0.00024296,2411.9,-7.8057e-05,-0.014253,-8.448e-05,-48.274,0.87887
28671,13.41,1.3636,0.1,0.00024712,2469.5,0.00024628,2445.4,-7.9186e-05,-0.014105,-8.5505e-05,-47.493,0.8692
28672,13.502,1.2727,0.1,0.00024452,2443.5,0.00024363,2418.1,-7.8198e-05,-0.014856,-8.4867e-05,-50.126,0.87943
28673,13.41,1.5455,0.1,0.00024763,2474.6,0.00024679,2450.5,-7.9352e-05,-0.01336,-8.5682e-05,-47.572,0.86969
28674,13.502,1.4545,0.1,0.00024515,2449.8,0.00024425,2424.1,-7.8377e-05,-0.014216,-8.512e-05,-50.679,0.87994
28675,13.41,1.7273,0.1,0.00024806,2478.9,0.00024724,2455.2,-7.9535e-05,-0.012226,-8.5758e-05,-46.766,0.87011
28676,13.502,1.6364,0.1,0.00024569,2455.2,0.00024479,2429.7,-7.8581e-05,-0.013002,-8.5253e-05,-50.138,0.88039
28677,13.41,1.9091,0.1,0.00024842,2482.5,0.00024762,2459.5,-7.9724e-05,-0.011042,-8.5754e-05,-45.318,0.87048
28678,13.502,1.8182,0.1,0.00024614,2459.7,0.00024527,2434.9,-7.8799e-05,-0.011611,-8.5286e-05,-48.756,0.88078
28679,13.41,2.0909,0.1,0.0002487,2485.3,0.00024793,2463.3,-7.9908e-05,-0.010076,-8.5696e-05,-43.492,0.87079
28680,13.502,2,0.1,0.0002465,2463.3,0.00024567,2439.6,-7.9016e-05,-0.010399,-8.5245e-05,-46.816,0.88112
28681,13.41,2.2727,0.1,0.00024892,2487.4,0.00024818,2466.4,-8.0076e-05,-0.0094816,-8.5605e-05,-41.552,0.87104
28682,13.502,2.1818,0.1,0.00024679,2466.2,0.000246,2443.5,-7.922e-05,-0.0095996,-8.5157e-05,-44.615,0.8814
28683,13.41,2.4545,0.1,0.00024907,2489,0.00024837,2468.9,-8.0218e-05,-0.0092827,-8.5507e-05,-39.746,0.87124
28684,13.502,2.3636,0.1,0.000247,2468.3,0.00024625,2446.8,-7.94e-05,-0.0093067,-8.5047e-05,-42.442,0.88162
28685,13.41,2.6364,0.1,0.00024918,2490.1,0.0002485,2470.7,-8.0326e-05,-0.0093692,-8.542e-05,-38.289,0.87138
28686,13.502,2.5455,0.1,0.00024715,2469.8,0.00024644,2449.3,-7.9544e-05,-0.0094417,-8.494e-05,-40.556,0.88179
28687,13.41,2.8182,0.1,0.00024924,2490.7,0.00024858,2471.8,-8.0393e-05,-0.0095466,-8.5362e-05,-37.345,0.87146
28688,13.502,2.7273,0.1,0.00024725,2470.8,0.00024656,2451,-7.9645e-05,-0.0097795,-8.4857e-05,-39.171,0.8819
28689,13.41,3,0.1,0.00024926,2490.9,0.00024861,2472.1,-8.0416e-05,-0.009631,-8.5341e-05,-37.019,0.87149
28690,13.502,2.9091,0.1,0.0002473,2471.3,0.00024662,2451.8,-7.9697e-05,-0.010044,-8.4812e-05,-38.439,0.88196
28691,13.41,3.1818,0.1,0.00024924,2490.7,0.00024858,2471.8,-8.0393e-05,-0.0095465,-8.5362e-05,-37.345,0.87146
28692,13.502,3.0909,0.1,0.0002473,2471.3,0.00024662,2451.8,-7.9697e-05,-0.010044,-8.4812e-05,-38.439,0.88196
28693,13.41,3.3636,0.1,0.00024918,2490.1,0.0002485,2470.7,-8.0326e-05,-0.0093694,-8.542e-05,-38.289,0.87138
28694,13.502,3.2727,0.1,0.00024725,2470.8,0.00024656,2451,-7.9645e-05,-0.0097795,-8.4857e-05,-39.171,0.8819
28695,13.41,3.5455,0.1,0.00024907,2489,0.00024837,2468.9,-8.0218e-05,-0.0092831,-8.5507e-05,-39.746,0.87124
28696,13.502,3.4545,0.1,0.00024715,2469.8,0.00024644,2449.3,-7.9544e-05,-0.009442,-8.494e-05,-40.556,0.88179
28697,13.41,3.7273,0.1,0.00024892,2487.4,0.00024818,2466.4,-8.0076e-05,-0.0094816,-8.5605e-05,-41.552,0.87104
28698,13.502,3.6364,0.1,0.000247,2468.3,0.00024625,2446.8,-7.94e-05,-0.0093061,-8.5047e-05,-42.442,0.88162
28699,13.41,3.9091,0.1,0.0002487,2485.3,0.00024793,2463.3,-7.9908e-05,-0.010076,-8.5696e-05,-43.492,0.87079
28700,13.502,3.8182,0.1,0.00024679,2466.2,0.000246,2443.5,-7.922e-05,-0.0095993,-8.5157e-05,-44.615,0.8814
28701,13.41,4.0909,0.1,0.00024842,2482.5,0.00024762,2459.5,-7.9724e-05,-0.011042,-8.5754e-05,-45.318,0.87048
28702,13.502,4,0.1,0.0002465,2463.3,0.00024567,2439.6,-7.9016e-05,-0.010399,-8.5245e-05,-46.816,0.88112
28703,13.41,4.2727,0.1,0.00024806,2478.9,0.00024724,2455.2,-7.9535e-05,-0.012225,-8.5758e-05,-46.766,0.87011
28704,13.502,4.1818,0.1,0.00024614,2459.7,0.00024527,2434.9,-7.8799e-05,-0.01161,-8.5286e-05,-48.756,0.88078
28705,13.41,4.4545,0.1,0.00024763,2474.6,0.00024679,2450.5,-7.9352e-05,-0.01336,-8.5682e-05,-47.572,0.86969
28706,13.502,4.3636,0.1,0.00024569,2455.2,0.00024479,2429.7,-7.8581e-05,-0.013001,-8.5253e-05,-50.138,0.88039
28707,13.41,4.6364,0.1,0.00024712,2469.5,0.00024628,2445.4,-7.9186e-05,-0.014105,-8.5505e-05,-47.493,0.8692
28708,13.502,4.5455,0.1,0.00024515,2449.8,0.00024425,2424.1,-7.8377e-05,-0.014215,-8.512e-05,-50.679,0.87994
28709,13.41,4.8182,0.1,0.00024653,2463.6,0.00024571,2440.1,-7.905e-05,-0.013978,-8.5212e-05,-46.319,0.86867
28710,13.502,4.7273,0.1,0.00024452,2443.5,0.00024363,2418.1,-7.8198e-05,-0.014855,-8.4867e-05,-50.126,0.87943
28711,13.41,5,0.1,0.00024586,2456.9,0.00024509,2434.7,-7.8952e-05,-0.012616,-8.4791e-05,-43.89,0.86807
28712,13.502,4.9091,0.1,0.00024381,2436.5,0.00024296,2411.9,-7.8057e-05,-0.014252,-8.448e-05,-48.274,0.87887
28713,13.41,5.1818,0.1,0.00024514,2449.7,0.00024443,2429.4,-7.8901e-05,-0.008405,-8.4237e-05,-40.104,0.86743
28714,13.502,5.0909,0.1,0.00024303,2428.6,0.00024224,2405.8,-7.7963e-05,-0.012259,-8.3948e-05,-44.976,0.87825
28715,13.41,5.3636,0.1,0.00024437,2442,0.00024375,2424.3,-7.8905e-05,-0.0033009,-8.3554e-05,-34.933,0.86672
28716,13.502,5.2727,0.1,0.00024219,2420.3,0.00024148,2399.9,-7.7927e-05,-0.0054622,-8.327e-05,-40.156,0.87758
28717,13.41,5.5455,0.1,0.00024358,2434.1,0.00024308,2419.8,-7.8966e-05,0.023969,-8.2753e-05,-28.429,0.86596
28718,13.502,5.4545,0.1,0.00024132,2411.5,0.00024073,2394.4,-7.7954e-05,-0.0012584,-8.2455e-05,-33.82,0.87685
28719,13.41,5.7273,0.1,0.00024286,2426.9,0.00024249,2416.3,-7.9091e-05,0.040194,-8.1906e-05,-21.115,0.86515
28720,13.502,5.6364,0.1,0.00024044,2402.7,0.00023999,2389.6,-7.8046e-05,0.054369,-8.1522e-05,-26.066,0.87607
28721,13.502,5.8182,0.1,0.00023971,2395.4,0.0002394,2386.5,-7.8214e-05,0.032382,-8.0597e-05,-17.872,0.87524
28722,13.41,5.9091,0.1,0.00024179,2416.2,0.00024161,2410.9,-7.9261e-05,0.0060384,-8.0682e-05,-10.667,0.86428
28723,13.593,0.27273,0.1,0.00023728,2371.1,0.00023688,2359.7,-7.7169e-05,0.046558,-8.0201e-05,-22.728,0.88621
28724,13.685,0.18182,0.1,0.00023395,2337.8,0.00023362,2328.4,-7.6267e-05,0.042116,-7.877e-05,-18.767,0.89638
28725,13.593,0.090909,0.1,0.0002361,2359.3,0.00023591,2353.8,-7.7363e-05,0.0066929,-7.8835e-05,-11.059,0.88535
28726,13.593,0.45455,0.1,0.00023818,2380.1,0.00023763,2364.3,-7.7034e-05,0.026261,-8.122e-05,-31.428,0.88701
28727,13.685,0.36364,0.1,0.00023487,2347.1,0.00023437,2332.7,-7.608e-05,0.061364,-7.9897e-05,-28.617,0.89721
28728,13.593,0.63636,0.1,0.00023914,2389.8,0.00023845,2370,-7.6976e-05,-0.0047894,-8.2169e-05,-39.023,0.88776
28729,13.685,0.54545,0.1,0.00023594,2357.8,0.00023528,2338.7,-7.5986e-05,-0.0027668,-8.1001e-05,-37.68,0.89798
28730,13.593,0.81818,0.1,0.00024009,2399.2,0.00023929,2376.4,-7.6989e-05,-0.010016,-8.2979e-05,-45.013,0.88846
28731,13.685,0.72727,0.1,0.00023701,2368.4,0.00023621,2345.6,-7.5972e-05,-0.0068579,-8.1964e-05,-45.032,0.8987
28732,13.593,1,0.1,0.00024098,2408.2,0.0002401,2383.1,-7.7068e-05,-0.014281,-8.3634e-05,-49.349,0.8891
28733,13.685,0.90909,0.1,0.00023804,2378.7,0.00023714,2353,-7.6035e-05,-0.014007,-8.2765e-05,-50.578,0.89936
28734,13.593,1.1818,0.1,0.00024181,2416.4,0.00024088,2390,-7.7205e-05,-0.015339,-8.4133e-05,-52.072,0.88969
28735,13.685,1.0909,0.1,0.00023901,2388.4,0.00023803,2360.8,-7.6167e-05,-0.015698,-8.3394e-05,-54.317,0.89997
28736,13.593,1.3636,0.1,0.00024255,2423.8,0.0002416,2396.7,-7.7388e-05,-0.015065,-8.4481e-05,-53.304,0.89022
28737,13.685,1.2727,0.1,0.00023989,2397.2,0.00023888,2368.6,-7.6358e-05,-0.015887,-8.3855e-05,-56.343,0.90053
28738,13.593,1.5455,0.1,0.0002432,2430.3,0.00024225,2403.3,-7.7606e-05,-0.01388,-8.469e-05,-53.236,0.89069
28739,13.685,1.4545,0.1,0.00024068,2405.1,0.00023966,2376.2,-7.6594e-05,-0.014744,-8.4155e-05,-56.827,0.90103
28740,13.593,1.7273,0.1,0.00024376,2435.9,0.00024283,2409.4,-7.7845e-05,-0.012356,-8.478e-05,-52.119,0.89111
28741,13.685,1.6364,0.1,0.00024136,2412,0.00024036,2383.5,-7.6861e-05,-0.013048,-8.4314e-05,-56.014,0.90147
28742,13.593,1.9091,0.1,0.00024422,2440.5,0.00024332,2415,-7.809e-05,-0.010903,-8.4776e-05,-50.244,0.89147
28743,13.685,1.8182,0.1,0.00024194,2417.8,0.00024097,2390.2,-7.7142e-05,-0.011279,-8.4354e-05,-54.205,0.90186
28744,13.593,2.0909,0.1,0.00024458,2444.1,0.00024373,2419.8,-7.8328e-05,-0.0098479,-8.4705e-05,-47.929,0.89178
28745,13.685,2,0.1,0.00024242,2422.5,0.00024149,2396.2,-7.7422e-05,-0.0098763,-8.4306e-05,-51.74,0.90219
28746,13.593,2.2727,0.1,0.00024487,2447,0.00024406,2423.9,-7.8543e-05,-0.0093685,-8.4597e-05,-45.494,0.89203
28747,13.685,2.1818,0.1,0.00024279,2426.2,0.00024192,2401.4,-7.7684e-05,-0.0091274,-8.4201e-05,-48.978,0.90247
28748,13.593,2.4545,0.1,0.00024508,2449.1,0.00024431,2427.2,-7.8725e-05,-0.0094575,-8.4479e-05,-43.24,0.89223
28749,13.685,2.3636,0.1,0.00024308,2429.1,0.00024226,2405.6,-7.7914e-05,-0.0091287,-8.407e-05,-46.267,0.90269
28750,13.593,2.6364,0.1,0.00024522,2450.5,0.00024449,2429.5,-7.8863e-05,-0.0099102,-8.4375e-05,-41.426,0.89237
28751,13.685,2.5455,0.1,0.00024328,2431.1,0.00024251,2408.9,-7.8099e-05,-0.0097245,-8.3943e-05,-43.922,0.90286
28752,13.593,2.8182,0.1,0.0002453,2451.4,0.00024459,2431,-7.8949e-05,-0.010394,-8.4305e-05,-40.253,0.89245
28753,13.685,2.7273,0.1,0.00024341,2432.5,0.00024267,2411.1,-7.8228e-05,-0.010535,-8.3844e-05,-42.205,0.90297
28754,13.593,3,0.1,0.00024533,2451.6,0.00024463,2431.5,-7.8979e-05,-0.010599,-8.428e-05,-39.847,0.89248
28755,13.685,2.9091,0.1,0.00024348,2433.1,0.00024275,2412.2,-7.8294e-05,-0.0111,-8.3789e-05,-41.298,0.90302
28756,13.593,3.1818,0.1,0.0002453,2451.4,0.00024459,2431,-7.8949e-05,-0.010395,-8.4305e-05,-40.253,0.89245
28757,13.685,3.0909,0.1,0.00024348,2433.1,0.00024275,2412.2,-7.8294e-05,-0.011101,-8.3789e-05,-41.298,0.90302
28758,13.593,3.3636,0.1,0.00024522,2450.5,0.00024449,2429.5,-7.8863e-05,-0.0099103,-8.4375e-05,-41.425,0.89237
28759,13.685,3.2727,0.1,0.00024341,2432.5,0.00024267,2411.1,-7.8228e-05,-0.010536,-8.3844e-05,-42.205,0.90297
28760,13.593,3.5455,0.1,0.00024508,2449.1,0.00024431,2427.2,-7.8725e-05,-0.0094569,-8.4479e-05,-43.24,0.89223
28761,13.685,3.4545,0.1,0.00024328,2431.1,0.00024251,2408.9,-7.8099e-05,-0.0097246,-8.3943e-05,-43.922,0.90286
28762,13.593,3.7273,0.1,0.00024487,2447,0.00024406,2423.9,-7.8543e-05,-0.0093678,-8.4597e-05,-45.494,0.89203
28763,13.685,3.6364,0.1,0.00024308,2429.1,0.00024226,2405.6,-7.7914e-05,-0.0091282,-8.407e-05,-46.267,0.90269
28764,13.593,3.9091,0.1,0.00024458,2444.1,0.00024373,2419.8,-7.8328e-05,-0.0098478,-8.4705e-05,-47.929,0.89178
28765,13.685,3.8182,0.1,0.00024279,2426.2,0.00024192,2401.4,-7.7684e-05,-0.0091272,-8.4201e-05,-48.978,0.90247
28766,13.593,4.0909,0.1,0.00024422,2440.5,0.00024332,2415,-7.809e-05,-0.010903,-8.4776e-05,-50.244,0.89147
28767,13.685,4,0.1,0.00024242,2422.5,0.00024149,2396.2,-7.7422e-05,-0.009876,-8.4306e-05,-51.74,0.90219
28768,13.593,4.2727,0.1,0.00024376,2435.9,0.00024283,2409.4,-7.7845e-05,-0.012355,-8.478e-05,-52.119,0.89111
28769,13.685,4.1818,0.1,0.00024194,2417.8,0.00024097,2390.2,-7.7142e-05,-0.011279,-8.4354e-05,-54.205,0.90186
28770,13.593,4.4545,0.1,0.0002432,2430.3,0.00024225,2403.3,-7.7606e-05,-0.013879,-8.469e-05,-53.236,0.89069
28771,13.685,4.3636,0.1,0.00024136,2412,0.00024036,2383.5,-7.686e-05,-0.013047,-8.4314e-05,-56.013,0.90147
28772,13.593,4.6364,0.1,0.00024255,2423.8,0.0002416,2396.7,-7.7388e-05,-0.015064,-8.4481e-05,-53.304,0.89022
28773,13.685,4.5455,0.1,0.00024068,2405.1,0.00023966,2376.2,-7.6594e-05,-0.014743,-8.4155e-05,-56.827,0.90103
28774,13.593,4.8182,0.1,0.00024181,2416.4,0.00024088,2390,-7.7205e-05,-0.015339,-8.4133e-05,-52.072,0.88969
28775,13.685,4.7273,0.1,0.00023989,2397.2,0.00023888,2368.6,-7.6358e-05,-0.015887,-8.3855e-05,-56.342,0.90053
28776,13.593,5,0.1,0.00024098,2408.2,0.0002401,2383.1,-7.7068e-05,-0.014279,-8.3634e-05,-49.349,0.8891
28777,13.685,4.9091,0.1,0.00023901,2388.4,0.00023803,2360.8,-7.6167e-05,-0.015697,-8.3394e-05,-54.317,0.89997
28778,13.593,5.1818,0.1,0.00024009,2399.2,0.00023929,2376.4,-7.6989e-05,-0.010015,-8.2979e-05,-45.013,0.88846
28779,13.685,5.0909,0.1,0.00023804,2378.7,0.00023714,2353,-7.6035e-05,-0.014006,-8.2765e-05,-50.578,0.89936
28780,13.593,5.3636,0.1,0.00023914,2389.8,0.00023845,2370,-7.6976e-05,-0.0047885,-8.2169e-05,-39.023,0.88776
28781,13.685,5.2727,0.1,0.00023701,2368.4,0.00023621,2345.6,-7.5972e-05,-0.0068562,-8.1964e-05,-45.032,0.8987
28782,13.593,5.5455,0.1,0.00023818,2380.1,0.00023763,2364.3,-7.7034e-05,0.026261,-8.122e-05,-31.428,0.88701
28783,13.685,5.4545,0.1,0.00023594,2357.8,0.00023528,2338.7,-7.5986e-05,-0.0027667,-8.1001e-05,-37.68,0.89798
28784,13.593,5.7273,0.1,0.00023728,2371.1,0.00023688,2359.7,-7.7169e-05,0.046558,-8.0201e-05,-22.728,0.88621
28785,13.685,5.6364,0.1,0.00023487,2347.1,0.00023437,2332.7,-7.608e-05,0.061364,-7.9897e-05,-28.617,0.89721
28786,13.685,5.8182,0.1,0.00023394,2337.8,0.00023362,2328.4,-7.6267e-05,0.042117,-7.877e-05,-18.767,0.89638
28787,13.593,5.9091,0.1,0.0002361,2359.3,0.00023591,2353.8,-7.7362e-05,0.0066939,-7.8835e-05,-11.059,0.88535
28788,13.777,0.27273,0.1,0.00023152,2313.6,0.0002311,2301.3,-7.5178e-05,0.053707,-7.8454e-05,-24.559,0.90743
28789,13.869,0.18182,0.1,0.00022796,2278,0.00022762,2268.1,-7.424e-05,0.053887,-7.688e-05,-19.779,0.91768
28790,13.777,0.090909,0.1,0.0002302,2300.4,0.00023,2294.7,-7.5396e-05,0.0075438,-7.6927e-05,-11.496,0.90658
28791,13.777,0.45455,0.1,0.00023263,2324.7,0.00023202,2307.1,-7.5033e-05,0.028742,-7.9674e-05,-34.841,0.90822
28792,13.869,0.36364,0.1,0.00022911,2289.5,0.00022856,2273.7,-7.4035e-05,0.069053,-7.8239e-05,-31.519,0.9185
28793,13.777,0.63636,0.1,0.0002338,2336.4,0.00023303,2314.3,-7.4982e-05,-0.0064583,-8.0794e-05,-43.673,0.90896
28794,13.869,0.54545,0.1,0.00023041,2302.5,0.00022966,2281.2,-7.3941e-05,-0.004599,-7.954e-05,-42.071,0.91926
28795,13.777,0.81818,0.1,0.00023496,2348,0.00023406,2322.2,-7.5018e-05,-0.011664,-8.1749e-05,-50.587,0.90965
28796,13.869,0.72727,0.1,0.00023171,2315.5,0.0002308,2289.8,-7.3945e-05,-0.0083427,-8.0675e-05,-50.574,0.91997
28797,13.777,1,0.1,0.00023606,2359,0.00023507,2330.7,-7.5134e-05,-0.015869,-8.2524e-05,-55.539,0.91029
28798,13.869,0.90909,0.1,0.00023297,2328.1,0.00023195,2299.1,-7.4044e-05,-0.015741,-8.162e-05,-56.94,0.92063
28799,13.777,1.1818,0.1,0.00023709,2369.2,0.00023604,2339.4,-7.532e-05,-0.016486,-8.3115e-05,-58.582,0.91086
28800,13.869,1.0909,0.1,0.00023417,2340,0.00023307,2308.9,-7.4226e-05,-0.016968,-8.2366e-05,-61.174,0.92123
28801,13.777,1.3636,0.1,0.00023802,2378.5,0.00023694,2348,-7.5563e-05,-0.015677,-8.3528e-05,-59.86,0.91139
28802,13.869,1.2727,0.1,0.00023527,2351.1,0.00023413,2318.7,-7.448e-05,-0.016594,-8.2914e-05,-63.385,0.92178
28803,13.777,1.5455,0.1,0.00023884,2386.8,0.00023777,2356.4,-7.5848e-05,-0.013931,-8.3778e-05,-59.599,0.91186
28804,13.869,1.4545,0.1,0.00023626,2361,0.00023511,2328.5,-7.4788e-05,-0.0148,-8.3274e-05,-63.773,0.92228
28805,13.777,1.7273,0.1,0.00023955,2393.8,0.00023851,2364.3,-7.6157e-05,-0.011924,-8.3887e-05,-58.094,0.91227
28806,13.869,1.6364,0.1,0.00023714,2369.7,0.00023601,2337.8,-7.5133e-05,-0.012496,-8.3466e-05,-62.624,0.92272
28807,13.777,1.9091,0.1,0.00024014,2399.8,0.00023915,2371.4,-7.6473e-05,-0.010163,-8.3884e-05,-55.694,0.91263
28808,13.869,1.8182,0.1,0.00023788,2377.1,0.0002368,2346.4,-7.5495e-05,-0.010268,-8.3519e-05,-60.295,0.9231
28809,13.777,2.0909,0.1,0.00024062,2404.6,0.00023968,2377.7,-7.6778e-05,-0.0090542,-8.3801e-05,-52.782,0.91294
28810,13.869,2,0.1,0.00023849,2383.3,0.00023747,2354.2,-7.5854e-05,-0.0086676,-8.3465e-05,-57.192,0.92343
28811,13.777,2.2727,0.1,0.000241,2408.3,0.00024012,2383.1,-7.7054e-05,-0.0088137,-8.3673e-05,-49.742,0.91318
28812,13.869,2.1818,0.1,0.00023899,2388.2,0.00023803,2360.9,-7.619e-05,-0.0080656,-8.3342e-05,-53.748,0.92371
28813,13.777,2.4545,0.1,0.00024128,2411.1,0.00024045,2387.3,-7.7287e-05,-0.0093939,-8.3533e-05,-46.94,0.91338
28814,13.869,2.3636,0.1,0.00023937,2392,0.00023847,2366.4,-7.6483e-05,-0.0085666,-8.3188e-05,-50.383,0.92393
28815,13.777,2.6364,0.1,0.00024147,2413.1,0.00024068,2390.4,-7.7463e-05,-0.01045,-8.341e-05,-44.691,0.91352
28816,13.869,2.5455,0.1,0.00023964,2394.8,0.0002388,2370.7,-7.6719e-05,-0.0099072,-8.3038e-05,-47.483,0.92409
28817,13.777,2.8182,0.1,0.00024159,2414.2,0.00024082,2392.3,-7.7573e-05,-0.011436,-8.3326e-05,-43.239,0.9136
28818,13.869,2.7273,0.1,0.00023982,2396.6,0.00023902,2373.5,-7.6884e-05,-0.011476,-8.292e-05,-45.362,0.9242
28819,13.777,3,0.1,0.00024162,2414.6,0.00024087,2392.9,-7.761e-05,-0.011835,-8.3297e-05,-42.738,0.91363
28820,13.869,2.9091,0.1,0.00023991,2397.4,0.00023912,2375,-7.6969e-05,-0.012522,-8.2856e-05,-44.243,0.92425
28821,13.777,3.1818,0.1,0.00024159,2414.2,0.00024082,2392.3,-7.7573e-05,-0.011436,-8.3326e-05,-43.239,0.9136
28822,13.869,3.0909,0.1,0.00023991,2397.4,0.00023912,2375,-7.6969e-05,-0.012522,-8.2856e-05,-44.243,0.92425
28823,13.777,3.3636,0.1,0.00024147,2413.1,0.00024068,2390.4,-7.7463e-05,-0.01045,-8.341e-05,-44.691,0.91352
28824,13.869,3.2727,0.1,0.00023982,2396.6,0.00023902,2373.5,-7.6884e-05,-0.011475,-8.292e-05,-45.362,0.9242
28825,13.777,3.5455,0.1,0.00024128,2411.1,0.00024045,2387.3,-7.7287e-05,-0.009394,-8.3533e-05,-46.94,0.91338
28826,13.869,3.4545,0.1,0.00023964,2394.8,0.0002388,2370.7,-7.6719e-05,-0.0099072,-8.3038e-05,-47.483,0.92409
28827,13.777,3.7273,0.1,0.000241,2408.3,0.00024012,2383.1,-7.7054e-05,-0.0088137,-8.3673e-05,-49.742,0.91318
28828,13.869,3.6364,0.1,0.00023937,2392,0.00023847,2366.4,-7.6483e-05,-0.0085664,-8.3188e-05,-50.383,0.92393
28829,13.777,3.9091,0.1,0.00024062,2404.6,0.00023968,2377.7,-7.6778e-05,-0.0090538,-8.3801e-05,-52.782,0.91294
28830,13.869,3.8182,0.1,0.00023899,2388.2,0.00023803,2360.9,-7.619e-05,-0.0080658,-8.3342e-05,-53.747,0.92371
28831,13.777,4.0909,0.1,0.00024014,2399.8,0.00023915,2371.4,-7.6473e-05,-0.010163,-8.3884e-05,-55.694,0.91263
28832,13.869,4,0.1,0.00023849,2383.3,0.00023747,2354.2,-7.5854e-05,-0.0086671,-8.3465e-05,-57.192,0.92343
28833,13.777,4.2727,0.1,0.00023955,2393.8,0.00023851,2364.3,-7.6157e-05,-0.011924,-8.3887e-05,-58.094,0.91227
28834,13.869,4.1818,0.1,0.00023788,2377.1,0.0002368,2346.4,-7.5495e-05,-0.010268,-8.3518e-05,-60.294,0.9231
28835,13.777,4.4545,0.1,0.00023884,2386.8,0.00023777,2356.4,-7.5848e-05,-0.01393,-8.3778e-05,-59.599,0.91186
28836,13.869,4.3636,0.1,0.00023714,2369.7,0.00023601,2337.8,-7.5133e-05,-0.012496,-8.3466e-05,-62.624,0.92272
28837,13.777,4.6364,0.1,0.00023802,2378.5,0.00023694,2348,-7.5563e-05,-0.015677,-8.3528e-05,-59.86,0.91139
28838,13.869,4.5455,0.1,0.00023626,2361,0.00023511,2328.5,-7.4788e-05,-0.014799,-8.3274e-05,-63.773,0.92228
28839,13.777,4.8182,0.1,0.00023709,2369.2,0.00023604,2339.4,-7.532e-05,-0.016486,-8.3115e-05,-58.582,0.91086
28840,13.869,4.7273,0.1,0.00023527,2351.1,0.00023413,2318.7,-7.448e-05,-0.016594,-8.2914e-05,-63.385,0.92178
28841,13.777,5,0.1,0.00023606,2359,0.00023507,2330.7,-7.5134e-05,-0.015868,-8.2524e-05,-55.539,0.91029
28842,13.869,4.9091,0.1,0.00023417,2340,0.00023307,2308.9,-7.4226e-05,-0.016967,-8.2366e-05,-61.174,0.92123
28843,13.777,5.1818,0.1,0.00023496,2348,0.00023406,2322.2,-7.5018e-05,-0.011662,-8.1749e-05,-50.587,0.90965
28844,13.869,5.0909,0.1,0.00023297,2328.1,0.00023195,2299.1,-7.4044e-05,-0.01574,-8.162e-05,-56.94,0.92063
28845,13.777,5.3636,0.1,0.0002338,2336.4,0.00023303,2314.3,-7.4982e-05,-0.0064573,-8.0794e-05,-43.673,0.90896
28846,13.869,5.2727,0.1,0.00023171,2315.5,0.0002308,2289.8,-7.3945e-05,-0.0083411,-8.0675e-05,-50.574,0.91997
28847,13.777,5.5455,0.1,0.00023263,2324.7,0.00023202,2307.1,-7.5033e-05,0.028742,-7.9674e-05,-34.841,0.90822
28848,13.869,5.4545,0.1,0.00023041,2302.5,0.00022966,2281.2,-7.3941e-05,-0.0045982,-7.954e-05,-42.071,0.91926
28849,13.777,5.7273,0.1,0.00023152,2313.6,0.0002311,2301.3,-7.5178e-05,0.053708,-7.8454e-05,-24.559,0.90743
28850,13.869,5.6364,0.1,0.00022911,2289.5,0.00022856,2273.7,-7.4035e-05,0.069053,-7.8239e-05,-31.519,0.9185
28851,13.869,5.8182,0.1,0.00022796,2278,0.00022762,2268.1,-7.424e-05,0.053887,-7.688e-05,-19.779,0.91768
28852,13.777,5.9091,0.1,0.0002302,2300.4,0.00023,2294.7,-7.5396e-05,0.007545,-7.6927e-05,-11.496,0.90658
28853,13.961,0.27273,0.1,0.00022554,2253.8,0.00022507,2240.4,-7.3098e-05,0.06142,-7.6652e-05,-26.639,0.9288
28854,14.053,0.18182,0.1,0.0002217,2215.4,0.00022133,2204.9,-7.2115e-05,0.067539,-7.4909e-05,-20.927,0.93914
28855,13.961,0.090909,0.1,0.00022406,2239,0.00022385,2233,-7.3343e-05,0.0085267,-7.494e-05,-11.988,0.92797
28856,13.961,0.45455,0.1,0.00022689,2267.3,0.00022621,2247.7,-7.2944e-05,0.031284,-7.8102e-05,-38.723,0.92959
28857,14.053,0.36364,0.1,0.00022311,2229.6,0.0002225,2212,-7.189e-05,0.077301,-7.6534e-05,-34.816,0.93995
28858,13.961,0.63636,0.1,0.00022831,2281.5,0.00022744,2256.7,-7.2905e-05,-0.0083963,-7.942e-05,-48.96,0.93032
28859,14.053,0.54545,0.1,0.00022468,2245.2,0.00022384,2221.3,-7.1801e-05,-0.0068553,-7.8063e-05,-47.057,0.9407
28860,13.961,0.81818,0.1,0.00022972,2295.6,0.0002287,2266.6,-7.2971e-05,-0.013368,-8.0545e-05,-56.922,0.931
28861,14.053,0.72727,0.1,0.00022625,2261,0.00022523,2232,-7.183e-05,-0.0099164,-7.9397e-05,-56.867,0.9414
28862,13.961,1,0.1,0.00023108,2309.2,0.00022995,2277.2,-7.3136e-05,-0.017354,-8.1462e-05,-62.574,0.93163
28863,14.053,0.90909,0.1,0.0002278,2276.4,0.00022664,2243.6,-7.1974e-05,-0.017399,-8.0512e-05,-64.17,0.94205
28864,13.961,1.1818,0.1,0.00023235,2321.9,0.00023116,2288.2,-7.3386e-05,-0.017353,-8.2164e-05,-65.978,0.9322
28865,14.053,1.0909,0.1,0.00022928,2291.2,0.00022803,2255.9,-7.2221e-05,-0.017954,-8.1398e-05,-68.974,0.94265
28866,13.961,1.3636,0.1,0.00023352,2333.6,0.0002323,2299.2,-7.3704e-05,-0.015842,-8.2659e-05,-67.299,0.93272
28867,14.053,1.2727,0.1,0.00023066,2305,0.00022936,2268.4,-7.2554e-05,-0.016828,-8.2054e-05,-71.399,0.9432
28868,13.961,1.5455,0.1,0.00023456,2344,0.00023335,2309.9,-7.4073e-05,-0.013382,-8.2962e-05,-66.798,0.93319
28869,14.053,1.4545,0.1,0.00023191,2317.5,0.00023061,2280.8,-7.2953e-05,-0.014201,-8.249e-05,-71.673,0.94369
28870,13.961,1.7273,0.1,0.00023546,2353,0.00023429,2319.9,-7.4471e-05,-0.010775,-8.3097e-05,-64.824,0.9336
28871,14.053,1.6364,0.1,0.00023302,2328.6,0.00023174,2292.7,-7.3397e-05,-0.011131,-8.2728e-05,-70.123,0.94412
28872,13.961,1.9091,0.1,0.00023623,2360.7,0.00023512,2329.2,-7.4876e-05,-0.0086541,-8.3099e-05,-61.79,0.93395
28873,14.053,1.8182,0.1,0.00023397,2338.1,0.00023276,2303.8,-7.3861e-05,-0.0083383,-8.2799e-05,-67.171,0.9445
28874,13.961,2.0909,0.1,0.00023686,2367,0.00023582,2337.3,-7.5266e-05,-0.0075438,-8.3005e-05,-58.154,0.93426
28875,14.053,2,0.1,0.00023477,2346.1,0.00023363,2313.8,-7.4319e-05,-0.0065328,-8.2743e-05,-63.302,0.94483
28876,13.961,2.2727,0.1,0.00023736,2371.9,0.00023638,2344.3,-7.5619e-05,-0.0077223,-8.2856e-05,-54.384,0.9345
28877,14.053,2.1818,0.1,0.00023542,2352.6,0.00023436,2322.5,-7.4747e-05,-0.0062119,-8.2603e-05,-59.036,0.9451
28878,13.961,2.4545,0.1,0.00023773,2375.7,0.00023682,2349.8,-7.5916e-05,-0.0090894,-8.2692e-05,-50.92,0.93469
28879,14.053,2.3636,0.1,0.00023593,2357.6,0.00023494,2329.7,-7.5121e-05,-0.0075068,-8.2425e-05,-54.886,0.94532
28880,13.961,2.6364,0.1,0.00023799,2378.2,0.00023713,2353.8,-7.614e-05,-0.011098,-8.2547e-05,-48.146,0.93483
28881,14.053,2.5455,0.1,0.00023629,2361.3,0.00023538,2335.2,-7.5422e-05,-0.010005,-8.225e-05,-51.316,0.94548
28882,13.961,2.8182,0.1,0.00023814,2379.8,0.00023732,2356.3,-7.628e-05,-0.012874,-8.2448e-05,-46.357,0.93491
28883,14.053,2.7273,0.1,0.00023653,2363.7,0.00023567,2339,-7.5632e-05,-0.012749,-8.2113e-05,-48.709,0.94559
28884,13.961,3,0.1,0.00023819,2380.3,0.00023738,2357.1,-7.6328e-05,-0.013581,-8.2414e-05,-45.74,0.93494
28885,14.053,2.9091,0.1,0.00023665,2364.9,0.00023581,2340.9,-7.574e-05,-0.014544,-8.2038e-05,-47.336,0.94565
28886,13.961,3.1818,0.1,0.00023814,2379.8,0.00023732,2356.3,-7.628e-05,-0.012873,-8.2448e-05,-46.357,0.93491
28887,14.053,3.0909,0.1,0.00023665,2364.9,0.00023581,2340.9,-7.574e-05,-0.014544,-8.2038e-05,-47.336,0.94565
28888,13.961,3.3636,0.1,0.00023799,2378.2,0.00023713,2353.8,-7.614e-05,-0.011097,-8.2547e-05,-48.146,0.93483
28889,14.053,3.2727,0.1,0.00023653,2363.7,0.00023567,2339,-7.5632e-05,-0.012748,-8.2113e-05,-48.709,0.94559
28890,13.961,3.5455,0.1,0.00023773,2375.7,0.00023682,2349.8,-7.5916e-05,-0.009089,-8.2692e-05,-50.92,0.93469
28891,14.053,3.4545,0.1,0.00023629,2361.3,0.00023538,2335.2,-7.5422e-05,-0.010005,-8.225e-05,-51.316,0.94548
28892,13.961,3.7273,0.1,0.00023736,2371.9,0.00023638,2344.3,-7.5619e-05,-0.0077221,-8.2856e-05,-54.384,0.9345
28893,14.053,3.6364,0.1,0.00023593,2357.6,0.00023494,2329.7,-7.5121e-05,-0.0075063,-8.2425e-05,-54.886,0.94532
28894,13.961,3.9091,0.1,0.00023686,2367,0.00023582,2337.3,-7.5266e-05,-0.0075439,-8.3005e-05,-58.154,0.93426
28895,14.053,3.8182,0.1,0.00023542,2352.6,0.00023436,2322.5,-7.4747e-05,-0.0062121,-8.2603e-05,-59.036,0.9451
28896,13.961,4.0909,0.1,0.00023623,2360.7,0.00023512,2329.2,-7.4876e-05,-0.0086538,-8.3099e-05,-61.79,0.93395
28897,14.053,4,0.1,0.00023477,2346.1,0.00023363,2313.8,-7.4319e-05,-0.0065324,-8.2743e-05,-63.302,0.94483
28898,13.961,4.2727,0.1,0.00023546,2353,0.00023429,2319.9,-7.4471e-05,-0.010775,-8.3097e-05,-64.824,0.9336
28899,14.053,4.1818,0.1,0.00023397,2338.1,0.00023276,2303.8,-7.3861e-05,-0.0083384,-8.2799e-05,-67.171,0.9445
28900,13.961,4.4545,0.1,0.00023456,2344,0.00023335,2309.9,-7.4073e-05,-0.013381,-8.2962e-05,-66.798,0.93319
28901,14.053,4.3636,0.1,0.00023302,2328.6,0.00023174,2292.7,-7.3397e-05,-0.011131,-8.2728e-05,-70.123,0.94412
28902,13.961,4.6364,0.1,0.00023352,2333.6,0.0002323,2299.2,-7.3704e-05,-0.015841,-8.2659e-05,-67.299,0.93272
28903,14.053,4.5455,0.1,0.00023191,2317.5,0.00023061,2280.8,-7.2953e-05,-0.014201,-8.249e-05,-71.672,0.94369
28904,13.961,4.8182,0.1,0.00023235,2321.9,0.00023116,2288.2,-7.3386e-05,-0.017352,-8.2164e-05,-65.978,0.9322
28905,14.053,4.7273,0.1,0.00023066,2305,0.00022936,2268.4,-7.2554e-05,-0.016828,-8.2054e-05,-71.399,0.9432
28906,13.961,5,0.1,0.00023108,2309.2,0.00022995,2277.2,-7.3136e-05,-0.017353,-8.1462e-05,-62.574,0.93163
28907,14.053,4.9091,0.1,0.00022928,2291.2,0.00022803,2255.9,-7.2221e-05,-0.017954,-8.1398e-05,-68.974,0.94265
28908,13.961,5.1818,0.1,0.00022972,2295.6,0.0002287,2266.6,-7.2971e-05,-0.013366,-8.0545e-05,-56.922,0.931
28909,14.053,5.0909,0.1,0.0002278,2276.4,0.00022664,2243.6,-7.1974e-05,-0.017397,-8.0512e-05,-64.17,0.94205
28910,13.961,5.3636,0.1,0.00022831,2281.5,0.00022744,2256.7,-7.2905e-05,-0.0083949,-7.942e-05,-48.96,0.93032
28911,14.053,5.2727,0.1,0.00022625,2261,0.00022523,2232,-7.183e-05,-0.0099143,-7.9397e-05,-56.867,0.9414
28912,13.961,5.5455,0.1,0.00022689,2267.3,0.00022621,2247.7,-7.2944e-05,0.031284,-7.8102e-05,-38.723,0.92959
28913,14.053,5.4545,0.1,0.00022468,2245.2,0.00022384,2221.3,-7.1801e-05,-0.0068542,-7.8063e-05,-47.057,0.9407
28914,13.961,5.7273,0.1,0.00022554,2253.8,0.00022507,2240.4,-7.3098e-05,0.06142,-7.6652e-05,-26.639,0.9288
28915,14.053,5.6364,0.1,0.00022311,2229.6,0.0002225,2212,-7.189e-05,0.077301,-7.6534e-05,-34.816,0.93995
28916,14.053,5.8182,0.1,0.0002217,2215.4,0.00022133,2204.9,-7.2115e-05,0.067539,-7.4909e-05,-20.927,0.93914
28917,13.961,5.9091,0.1,0.00022406,2239,0.00022385,2233,-7.3343e-05,0.0085271,-7.494e-05,-11.988,0.92797
28918,14.145,0.27273,0.1,0.00021926,2191.1,0.00021875,2176.5,-7.0909e-05,0.069362,-7.4778e-05,-29.001,0.95033
28919,14.236,0.18182,0.1,0.00021508,2149.3,0.0002147,2138.2,-6.9866e-05,0.082587,-7.2836e-05,-22.235,0.96075
28920,14.145,0.090909,0.1,0.00021759,2174.4,0.00021738,2168.1,-7.1183e-05,0.0096131,-7.2854e-05,-12.546,0.94951
28921,14.145,0.45455,0.1,0.0002209,2207.5,0.00022013,2185.6,-7.0747e-05,0.033777,-7.6492e-05,-43.127,0.95111
28922,14.236,0.36364,0.1,0.00021681,2166.6,0.00021613,2147.1,-6.9622e-05,0.085939,-7.4763e-05,-38.547,0.96154
28923,14.145,0.63636,0.1,0.00022262,2224.6,0.00022163,2196.6,-7.0726e-05,-0.010615,-7.8039e-05,-54.958,0.95183
28924,14.236,0.54545,0.1,0.00021868,2185.3,0.00021774,2158.5,-6.9541e-05,-0.0095581,-7.6553e-05,-52.695,0.96229
28925,14.145,0.81818,0.1,0.00022433,2241.8,0.00022317,2209,-7.0832e-05,-0.015045,-7.9364e-05,-64.118,0.95251
28926,14.236,0.72727,0.1,0.00022059,2204.4,0.00021944,2171.7,-6.9604e-05,-0.01146,-7.812e-05,-63.996,0.96299
28927,14.145,1,0.1,0.000226,2258.5,0.00022472,2222.3,-7.1059e-05,-0.018593,-8.045e-05,-70.578,0.95313
28928,14.236,0.90909,0.1,0.00022249,2223.3,0.00022117,2186.2,-6.9807e-05,-0.018779,-7.9438e-05,-72.384,0.96363
28929,14.145,1.1818,0.1,0.00022758,2274.3,0.00022623,2236.1,-7.1389e-05,-0.01775,-8.1289e-05,-74.405,0.9537
28930,14.236,1.0909,0.1,0.00022431,2241.6,0.00022289,2201.6,-7.0135e-05,-0.018398,-8.0495e-05,-77.863,0.96423
28931,14.145,1.3636,0.1,0.00022905,2288.9,0.00022766,2250.1,-7.1802e-05,-0.015332,-8.1886e-05,-75.783,0.95421
28932,14.236,1.2727,0.1,0.00022604,2258.8,0.00022456,2217.4,-7.0567e-05,-0.01629,-8.1287e-05,-80.559,0.96477
28933,14.145,1.5455,0.1,0.00023037,2302.1,0.000229,2263.7,-7.2277e-05,-0.011967,-8.2258e-05,-75.006,0.95468
28934,14.236,1.4545,0.1,0.00022762,2274.6,0.00022614,2233.2,-7.1081e-05,-0.012609,-8.1822e-05,-80.716,0.96525
28935,14.145,1.7273,0.1,0.00023153,2313.7,0.00023021,2276.6,-7.2786e-05,-0.0086116,-8.2431e-05,-72.477,0.95508
28936,14.236,1.6364,0.1,0.00022903,2288.7,0.00022759,2248.4,-7.1649e-05,-0.0085737,-8.2123e-05,-78.708,0.96569
28937,14.145,1.9091,0.1,0.00023252,2323.6,0.00023127,2288.5,-7.3303e-05,-0.0060649,-8.2444e-05,-68.687,0.95543
28938,14.236,1.8182,0.1,0.00023026,2301,0.00022889,2262.6,-7.224e-05,-0.0050779,-8.2224e-05,-75.023,0.96606
28939,14.145,2.0909,0.1,0.00023334,2331.8,0.00023218,2299,-7.38e-05,-0.0050255,-8.2342e-05,-64.185,0.95573
28940,14.236,2,0.1,0.0002313,2311.4,0.00023003,2275.5,-7.2824e-05,-0.0030564,-8.2172e-05,-70.242,0.96639
28941,14.145,2.2727,0.1,0.00023399,2338.3,0.00023292,2308,-7.425e-05,-0.0058734,-8.2173e-05,-59.537,0.95598
28942,14.236,2.1818,0.1,0.00023215,2319.9,0.00023098,2286.7,-7.3368e-05,-0.0032016,-8.2018e-05,-64.993,0.96666
28943,14.145,2.4545,0.1,0.00023449,2343.3,0.0002335,2315.1,-7.4628e-05,-0.0084508,-8.1984e-05,-55.278,0.95617
28944,14.236,2.3636,0.1,0.00023282,2326.6,0.00023174,2296.1,-7.3845e-05,-0.0057024,-8.1816e-05,-59.9,0.96687
28945,14.145,2.6364,0.1,0.00023484,2346.8,0.00023391,2320.4,-7.4914e-05,-0.011918,-8.1816e-05,-51.874,0.9563
28946,14.236,2.5455,0.1,0.00023331,2331.5,0.00023232,2303.2,-7.4227e-05,-0.0099476,-8.1616e-05,-55.53,0.96704
28947,14.145,2.8182,0.1,0.00023504,2348.8,0.00023416,2323.6,-7.5092e-05,-0.014909,-8.1702e-05,-49.682,0.95638
28948,14.236,2.7273,0.1,0.00023364,2334.7,0.0002327,2308.1,-7.4494e-05,-0.014474,-8.1458e-05,-52.344,0.96714
28949,14.145,3,0.1,0.00023511,2349.5,0.00023424,2324.6,-7.5152e-05,-0.016093,-8.1662e-05,-48.925,0.95641
28950,14.236,2.9091,0.1,0.0002338,2336.3,0.00023289,2310.6,-7.4631e-05,-0.017411,-8.1372e-05,-50.667,0.9672
28951,14.145,3.1818,0.1,0.00023504,2348.8,0.00023416,2323.6,-7.5092e-05,-0.014909,-8.1702e-05,-49.682,0.95638
28952,14.236,3.0909,0.1,0.0002338,2336.3,0.00023289,2310.6,-7.4631e-05,-0.017411,-8.1372e-05,-50.667,0.9672
28953,14.145,3.3636,0.1,0.00023484,2346.8,0.00023391,2320.4,-7.4914e-05,-0.011918,-8.1816e-05,-51.874,0.9563
28954,14.236,3.2727,0.1,0.00023364,2334.7,0.0002327,2308.1,-7.4494e-05,-0.014473,-8.1458e-05,-52.344,0.96714
28955,14.145,3.5455,0.1,0.00023449,2343.3,0.0002335,2315.1,-7.4628e-05,-0.0084508,-8.1984e-05,-55.278,0.95617
28956,14.236,3.4545,0.1,0.00023331,2331.5,0.00023232,2303.2,-7.4227e-05,-0.009948,-8.1616e-05,-55.53,0.96704
28957,14.145,3.7273,0.1,0.00023399,2338.3,0.00023292,2308,-7.425e-05,-0.0058731,-8.2173e-05,-59.537,0.95598
28958,14.236,3.6364,0.1,0.00023282,2326.6,0.00023174,2296.1,-7.3845e-05,-0.0057021,-8.1816e-05,-59.9,0.96687
28959,14.145,3.9091,0.1,0.00023334,2331.8,0.00023218,2299,-7.38e-05,-0.0050251,-8.2342e-05,-64.185,0.95573
28960,14.236,3.8182,0.1,0.00023215,2319.9,0.00023098,2286.7,-7.3368e-05,-0.0032015,-8.2018e-05,-64.993,0.96666
28961,14.145,4.0909,0.1,0.00023252,2323.6,0.00023127,2288.5,-7.3303e-05,-0.006065,-8.2444e-05,-68.687,0.95543
28962,14.236,4,0.1,0.0002313,2311.4,0.00023003,2275.5,-7.2824e-05,-0.0030561,-8.2172e-05,-70.242,0.96639
28963,14.145,4.2727,0.1,0.00023153,2313.7,0.00023021,2276.6,-7.2786e-05,-0.0086117,-8.2431e-05,-72.477,0.95508
28964,14.236,4.1818,0.1,0.00023026,2301,0.00022889,2262.6,-7.224e-05,-0.0050777,-8.2224e-05,-75.023,0.96606
28965,14.145,4.4545,0.1,0.00023037,2302.1,0.000229,2263.7,-7.2277e-05,-0.011967,-8.2258e-05,-75.006,0.95468
28966,14.236,4.3636,0.1,0.00022903,2288.7,0.00022759,2248.4,-7.1649e-05,-0.0085734,-8.2123e-05,-78.707,0.96569
28967,14.145,4.6364,0.1,0.00022905,2288.9,0.00022766,2250.1,-7.1802e-05,-0.015331,-8.1886e-05,-75.783,0.95421
28968,14.236,4.5455,0.1,0.00022762,2274.6,0.00022614,2233.2,-7.1081e-05,-0.012609,-8.1822e-05,-80.716,0.96525
28969,14.145,4.8182,0.1,0.00022758,2274.3,0.00022623,2236.1,-7.1389e-05,-0.01775,-8.1289e-05,-74.405,0.9537
28970,14.236,4.7273,0.1,0.00022604,2258.8,0.00022456,2217.4,-7.0567e-05,-0.01629,-8.1287e-05,-80.559,0.96477
28971,14.145,5,0.1,0.000226,2258.5,0.00022472,2222.3,-7.1059e-05,-0.018592,-8.045e-05,-70.578,0.95313
28972,14.236,4.9091,0.1,0.00022431,2241.6,0.00022289,2201.6,-7.0135e-05,-0.018399,-8.0495e-05,-77.863,0.96423
28973,14.145,5.1818,0.1,0.00022433,2241.8,0.00022317,2209,-7.0832e-05,-0.015043,-7.9364e-05,-64.118,0.95251
28974,14.236,5.0909,0.1,0.00022249,2223.3,0.00022117,2186.2,-6.9807e-05,-0.018777,-7.9438e-05,-72.384,0.96363
28975,14.145,5.3636,0.1,0.00022262,2224.6,0.00022163,2196.6,-7.0726e-05,-0.010613,-7.8039e-05,-54.958,0.95183
28976,14.236,5.2727,0.1,0.00022059,2204.4,0.00021944,2171.7,-6.9604e-05,-0.011458,-7.812e-05,-63.996,0.96299
28977,14.145,5.5455,0.1,0.0002209,2207.5,0.00022013,2185.6,-7.0747e-05,0.033777,-7.6492e-05,-43.127,0.95111
28978,14.236,5.4545,0.1,0.00021868,2185.3,0.00021774,2158.5,-6.9541e-05,-0.009558,-7.6553e-05,-52.695,0.96229
28979,14.145,5.7273,0.1,0.00021926,2191.1,0.00021875,2176.5,-7.0909e-05,0.069362,-7.4778e-05,-29.001,0.95033
28980,14.236,5.6364,0.1,0.00021681,2166.6,0.00021613,2147.1,-6.9622e-05,0.085938,-7.4763e-05,-38.547,0.96154
28981,14.236,5.8182,0.1,0.00021508,2149.3,0.0002147,2138.2,-6.9866e-05,0.082588,-7.2836e-05,-22.235,0.96075
28982,14.145,5.9091,0.1,0.00021759,2174.4,0.00021738,2168.1,-7.1183e-05,0.009614,-7.2854e-05,-12.546,0.94951
28983,14.328,0.27273,0.1,0.00021262,2124.7,0.00021206,2108.7,-6.8582e-05,0.077034,-7.2808e-05,-31.675,0.972
28984,14.42,0.18182,0.1,0.00020803,2078.9,0.00020762,2067,-6.7464e-05,0.097908,-7.0634e-05,-23.722,0.98249
28985,14.328,0.090909,0.1,0.00021073,2105.9,0.00021051,2099.3,-6.8887e-05,0.010819,-7.0643e-05,-13.182,0.97119
28986,14.328,0.45455,0.1,0.00021459,2144.4,0.00021373,2120,-6.8416e-05,0.036147,-7.4823e-05,-48.099,0.97277
28987,14.42,0.36364,0.1,0.00021011,2099.7,0.00020935,2078,-6.7201e-05,0.094658,-7.2902e-05,-42.74,0.98328
28988,14.328,0.63636,0.1,0.00021666,2165.1,0.00021555,2133.6,-6.842e-05,-0.013003,-7.6635e-05,-61.738,0.97349
28989,14.42,0.54545,0.1,0.00021236,2122.1,0.00021129,2092,-6.7135e-05,-0.012691,-7.499e-05,-59.034,0.98403
28990,14.328,0.81818,0.1,0.00021875,2186,0.00021743,2148.9,-6.8579e-05,-0.016457,-7.8196e-05,-72.277,0.97416
28991,14.42,0.72727,0.1,0.00021467,2145.2,0.00021335,2108.3,-6.7243e-05,-0.012764,-7.6829e-05,-72.04,0.98472
28992,14.328,1,0.1,0.0002208,2206.5,0.00021934,2165.6,-6.8883e-05,-0.019267,-7.9487e-05,-79.691,0.97478
28993,14.42,0.90909,0.1,0.00021698,2168.3,0.00021548,2126.3,-6.7521e-05,-0.019555,-7.8392e-05,-81.703,0.98536
28994,14.328,1.1818,0.1,0.00022277,2226.2,0.00022122,2182.9,-6.9313e-05,-0.017308,-8.0496e-05,-84.041,0.97535
28995,14.42,1.0909,0.1,0.00021924,2190.9,0.00021761,2145.6,-6.7949e-05,-0.017907,-7.966e-05,-88.012,0.98595
28996,14.328,1.3636,0.1,0.00022461,2244.5,0.00022303,2200.6,-6.9846e-05,-0.013736,-8.1226e-05,-85.515,0.97586
28997,14.42,1.2727,0.1,0.0002214,2212.5,0.00021971,2165.5,-6.8506e-05,-0.014544,-8.0625e-05,-91.077,0.98649
28998,14.328,1.5455,0.1,0.00022628,2261.3,0.00022473,2217.9,-7.0453e-05,-0.0092358,-8.169e-05,-84.438,0.97632
28999,14.42,1.4545,0.1,0.0002234,2232.5,0.00022171,2185.5,-6.9162e-05,-0.0095478,-8.1292e-05,-91.148,0.98697
29000,14.328,1.7273,0.1,0.00022777,2276.1,0.00022628,2234.4,-7.1102e-05,-0.0049415,-8.1918e-05,-81.27,0.97672
29001,14.42,1.6364,0.1,0.00022521,2250.5,0.00022357,2204.9,-6.9884e-05,-0.0043016,-8.168e-05,-88.633,0.9874
29002,14.328,1.9091,0.1,0.00022905,2288.9,0.00022765,2249.6,-7.176e-05,-0.0018823,-8.1954e-05,-76.589,0.97707
29003,14.42,1.8182,0.1,0.00022679,2266.3,0.00022524,2223.1,-7.0636e-05,7.6572e-05,-8.1829e-05,-84.098,0.98778
29004,14.328,2.0909,0.1,0.00023012,2299.6,0.00022883,2263.2,-7.2392e-05,-0.0010121,-8.1849e-05,-71.057,0.97737
29005,14.42,2,0.1,0.00022814,2279.8,0.00022671,2239.7,-7.1378e-05,0.0023311,-8.1791e-05,-78.238,0.9881
29006,14.328,2.2727,0.1,0.00023098,2308.2,0.0002298,2274.8,-7.2963e-05,-0.0028785,-8.1662e-05,-65.36,0.97761
29007,14.42,2.1818,0.1,0.00022926,2291,0.00022795,2254.2,-7.2069e-05,0.0014663,-8.1628e-05,-71.818,0.98837
29008,14.328,2.4545,0.1,0.00023164,2314.8,0.00023056,2284.2,-7.3444e-05,-0.0072611,-8.1448e-05,-60.153,0.9778
29009,14.42,2.3636,0.1,0.00023014,2299.8,0.00022895,2266.3,-7.2674e-05,-0.0028192,-8.1404e-05,-65.601,0.98858
29010,14.328,2.6364,0.1,0.00023211,2319.5,0.00023111,2291,-7.3807e-05,-0.01291,-8.1258e-05,-55.997,0.97793
29011,14.42,2.5455,0.1,0.0002308,2306.4,0.00022971,2275.6,-7.3159e-05,-0.0096456,-8.118e-05,-60.278,0.98875
29012,14.328,2.8182,0.1,0.00023239,2322.3,0.00023143,2295.1,-7.4033e-05,-0.01773,-8.1127e-05,-53.325,0.97801
29013,14.42,2.7273,0.1,0.00023123,2310.7,0.00023022,2282,-7.3497e-05,-0.016817,-8.1002e-05,-56.406,0.98885
29014,14.328,3,0.1,0.00023248,2323.2,0.00023154,2296.5,-7.411e-05,-0.019633,-8.1081e-05,-52.404,0.97804
29015,14.42,2.9091,0.1,0.00023145,2312.9,0.00023048,2285.2,-7.3671e-05,-0.021457,-8.0905e-05,-54.371,0.98891
29016,14.328,3.1818,0.1,0.00023239,2322.3,0.00023143,2295.1,-7.4033e-05,-0.01773,-8.1127e-05,-53.325,0.97801
29017,14.42,3.0909,0.1,0.00023145,2312.9,0.00023048,2285.2,-7.3671e-05,-0.021456,-8.0905e-05,-54.371,0.98891
29018,14.328,3.3636,0.1,0.00023211,2319.5,0.00023111,2291,-7.3807e-05,-0.012911,-8.1258e-05,-55.997,0.97793
29019,14.42,3.2727,0.1,0.00023123,2310.7,0.00023022,2282,-7.3497e-05,-0.016817,-8.1002e-05,-56.406,0.98885
29020,14.328,3.5455,0.1,0.00023164,2314.8,0.00023056,2284.2,-7.3444e-05,-0.0072611,-8.1448e-05,-60.153,0.9778
29021,14.42,3.4545,0.1,0.0002308,2306.4,0.00022971,2275.6,-7.3159e-05,-0.0096454,-8.118e-05,-60.278,0.98875
29022,14.328,3.7273,0.1,0.00023098,2308.2,0.0002298,2274.8,-7.2963e-05,-0.0028783,-8.1662e-05,-65.36,0.97761
29023,14.42,3.6364,0.1,0.00023014,2299.8,0.00022895,2266.3,-7.2674e-05,-0.0028185,-8.1404e-05,-65.601,0.98858
29024,14.328,3.9091,0.1,0.00023012,2299.6,0.00022883,2263.2,-7.2392e-05,-0.0010121,-8.1849e-05,-71.057,0.97737
29025,14.42,3.8182,0.1,0.00022926,2291,0.00022795,2254.2,-7.2069e-05,0.0014661,-8.1628e-05,-71.818,0.98837
29026,14.328,4.0909,0.1,0.00022905,2288.9,0.00022765,2249.6,-7.176e-05,-0.0018817,-8.1954e-05,-76.589,0.97707
29027,14.42,4,0.1,0.00022814,2279.8,0.00022671,2239.7,-7.1378e-05,0.002331,-8.1791e-05,-78.238,0.9881
29028,14.328,4.2727,0.1,0.00022777,2276.1,0.00022628,2234.4,-7.1102e-05,-0.0049409,-8.1918e-05,-81.27,0.97672
29029,14.42,4.1818,0.1,0.00022679,2266.3,0.00022524,2223.1,-7.0636e-05,7.7072e-05,-8.1829e-05,-84.098,0.98778
29030,14.328,4.4545,0.1,0.00022628,2261.3,0.00022473,2217.9,-7.0453e-05,-0.0092356,-8.169e-05,-84.438,0.97632
29031,14.42,4.3636,0.1,0.0002252,2250.5,0.00022357,2204.9,-6.9884e-05,-0.0043013,-8.168e-05,-88.632,0.9874
29032,14.328,4.6364,0.1,0.00022461,2244.5,0.00022303,2200.6,-6.9846e-05,-0.013735,-8.1226e-05,-85.515,0.97586
29033,14.42,4.5455,0.1,0.0002234,2232.5,0.00022171,2185.5,-6.9162e-05,-0.0095472,-8.1292e-05,-91.148,0.98697
29034,14.328,4.8182,0.1,0.00022277,2226.2,0.00022122,2182.9,-6.9313e-05,-0.017308,-8.0496e-05,-84.041,0.97535
29035,14.42,4.7273,0.1,0.0002214,2212.5,0.00021971,2165.5,-6.8506e-05,-0.014543,-8.0625e-05,-91.077,0.98649
29036,14.328,5,0.1,0.0002208,2206.5,0.00021934,2165.6,-6.8883e-05,-0.019266,-7.9487e-05,-79.691,0.97478
29037,14.42,4.9091,0.1,0.00021924,2190.9,0.00021761,2145.6,-6.7949e-05,-0.017907,-7.966e-05,-88.012,0.98595
29038,14.328,5.1818,0.1,0.00021875,2186,0.00021743,2148.9,-6.8579e-05,-0.016455,-7.8196e-05,-72.277,0.97416
29039,14.42,5.0909,0.1,0.00021698,2168.3,0.00021548,2126.3,-6.7521e-05,-0.019553,-7.8392e-05,-81.703,0.98536
29040,14.328,5.3636,0.1,0.00021666,2165.1,0.00021555,2133.6,-6.842e-05,-0.013002,-7.6635e-05,-61.738,0.97349
29041,14.42,5.2727,0.1,0.00021467,2145.2,0.00021335,2108.3,-6.7243e-05,-0.012762,-7.6829e-05,-72.04,0.98472
29042,14.328,5.5455,0.1,0.00021459,2144.4,0.00021373,2120,-6.8416e-05,0.036147,-7.4823e-05,-48.099,0.97277
29043,14.42,5.4545,0.1,0.00021236,2122.1,0.00021129,2092,-6.7135e-05,-0.012692,-7.499e-05,-59.034,0.98403
29044,14.328,5.7273,0.1,0.00021262,2124.7,0.00021206,2108.7,-6.8582e-05,0.077034,-7.2808e-05,-31.675,0.972
29045,14.42,5.6364,0.1,0.00021011,2099.7,0.00020935,2078,-6.7201e-05,0.094658,-7.2902e-05,-42.74,0.98328
29046,14.42,5.8182,0.1,0.00020803,2078.9,0.00020762,2067,-6.7464e-05,0.09791,-7.0634e-05,-23.722,0.98249
29047,14.328,5.9091,0.1,0.00021073,2105.9,0.00021051,2099.3,-6.8887e-05,0.01082,-7.0643e-05,-13.182,0.97119
29048,14.512,0.27273,0.1,0.00020551,2053.7,0.0002049,2036.2,-6.6088e-05,0.083529,-7.0714e-05,-34.68,0.99382
29049,14.604,0.18182,0.1,0.00020044,2003,0.0002,1990.3,-6.4874e-05,0.11131,-6.8271e-05,-25.409,1.0044
29050,14.512,0.090909,0.1,0.00020338,2032.4,0.00020314,2025.4,-6.6424e-05,0.012062,-6.8276e-05,-13.906,0.99301
29051,14.512,0.45455,0.1,0.00020788,2077.4,0.00020691,2050,-6.5921e-05,0.038202,-7.3069e-05,-53.668,0.99458
29052,14.604,0.36364,0.1,0.00020293,2027.9,0.00020208,2003.8,-6.4595e-05,0.10283,-7.0918e-05,-47.402,1.0052
29053,14.512,0.63636,0.1,0.00021037,2102.2,0.0002091,2066.7,-6.5959e-05,-0.015437,-7.5187e-05,-69.356,0.9953
29054,14.604,0.54545,0.1,0.00020561,2054.6,0.0002044,2020.8,-6.4551e-05,-0.016293,-7.3345e-05,-66.095,1.0059
29055,14.512,0.81818,0.1,0.00021291,2127.6,0.0002114,2085.7,-6.6185e-05,-0.017302,-7.703e-05,-81.501,0.99597
29056,14.604,0.72727,0.1,0.00020839,2082.5,0.0002069,2040.8,-6.4716e-05,-0.013604,-7.5503e-05,-81.063,1.0066
29057,14.512,1,0.1,0.00021543,2152.8,0.00021376,2106.4,-6.6586e-05,-0.018972,-7.8571e-05,-90.069,0.99658
29058,14.604,0.90909,0.1,0.00021123,2110.8,0.0002095,2063.2,-6.5086e-05,-0.019338,-7.7362e-05,-92.257,1.0072
29059,14.512,1.1818,0.1,0.00021788,2177.3,0.00021611,2128.2,-6.7141e-05,-0.015566,-7.9796e-05,-95.096,0.99714
29060,14.604,1.0909,0.1,0.00021403,2138.8,0.00021216,2087.3,-6.5639e-05,-0.016015,-7.8896e-05,-99.624,1.0078
29061,14.512,1.3636,0.1,0.0002202,2200.5,0.00021839,2150.5,-6.7821e-05,-0.010553,-8.0697e-05,-96.755,0.99765
29062,14.604,1.2727,0.1,0.00021674,2165.9,0.00021479,2112.4,-6.6349e-05,-0.011087,-8.0087e-05,-103.23,1.0084
29063,14.512,1.5455,0.1,0.00022233,2221.7,0.00022055,2172.5,-6.8593e-05,-0.0046444,-8.1287e-05,-95.382,0.99811
29064,14.604,1.4545,0.1,0.00021927,2191.2,0.00021733,2137.7,-6.7182e-05,-0.0044861,-8.0929e-05,-103.29,1.0088
29065,14.512,1.7273,0.1,0.00022423,2240.8,0.00022254,2193.6,-6.9418e-05,0.00082411,-8.1595e-05,-91.493,0.99851
29066,14.604,1.6364,0.1,0.00022158,2214.2,0.0002197,2162.4,-6.8099e-05,0.0022569,-8.144e-05,-100.24,1.0093
29067,14.512,1.9091,0.1,0.00022589,2257.3,0.00022431,2213.2,-7.0253e-05,0.0045073,-8.1669e-05,-85.771,0.99886
29068,14.604,1.8182,0.1,0.00022362,2234.7,0.00022186,2185.8,-6.9051e-05,0.0077385,-8.1661e-05,-94.734,1.0096
29069,14.512,2.0909,0.1,0.00022728,2271.3,0.00022584,2230.7,-7.1055e-05,0.0050731,-8.1572e-05,-79.016,0.99916
29070,14.604,2,0.1,0.00022538,2252.2,0.00022376,2207.1,-6.9992e-05,0.010239,-8.1652e-05,-87.599,1.01
29071,14.512,2.2727,0.1,0.00022842,2282.6,0.00022711,2245.7,-7.178e-05,0.0017025,-8.1372e-05,-72.07,0.9994
29072,14.604,2.1818,0.1,0.00022684,2266.8,0.00022537,2225.9,-7.0869e-05,0.0083016,-8.1488e-05,-79.782,1.0102
29073,14.512,2.4545,0.1,0.0002293,2291.4,0.00022811,2257.8,-7.2389e-05,-0.0053229,-8.1137e-05,-65.733,0.99958
29074,14.604,2.3636,0.1,0.00022801,2278.5,0.00022669,2241.5,-7.1635e-05,0.0014286,-8.1249e-05,-72.227,1.0104
29075,14.512,2.6364,0.1,0.00022992,2297.6,0.00022883,2266.7,-7.285e-05,-0.014172,-8.0925e-05,-60.688,0.99972
29076,14.604,2.5455,0.1,0.00022888,2287.2,0.00022769,2253.6,-7.225e-05,-0.0091425,-8.1003e-05,-65.777,1.0106
29077,14.512,2.8182,0.1,0.0002303,2301.4,0.00022927,2272.1,-7.3136e-05,-0.021684,-8.078e-05,-57.45,0.9998
29078,14.604,2.7273,0.1,0.00022947,2293.1,0.00022837,2261.9,-7.2679e-05,-0.020158,-8.0809e-05,-61.1,1.0107
29079,14.512,3,0.1,0.00023042,2302.6,0.00022941,2273.9,-7.3234e-05,-0.024649,-8.0728e-05,-56.335,0.99982
29080,14.604,2.9091,0.1,0.00022976,2296,0.00022871,2266.1,-7.29e-05,-0.027276,-8.0702e-05,-58.648,1.0108
29081,14.512,3.1818,0.1,0.0002303,2301.4,0.00022927,2272.1,-7.3136e-05,-0.021684,-8.078e-05,-57.45,0.9998
29082,14.604,3.0909,0.1,0.00022976,2296,0.00022871,2266.1,-7.29e-05,-0.027275,-8.0702e-05,-58.648,1.0108
29083,14.512,3.3636,0.1,0.00022992,2297.6,0.00022883,2266.7,-7.285e-05,-0.014172,-8.0925e-05,-60.688,0.99972
29084,14.604,3.2727,0.1,0.00022947,2293.1,0.00022837,2261.9,-7.2679e-05,-0.020158,-8.0809e-05,-61.1,1.0107
29085,14.512,3.5455,0.1,0.0002293,2291.4,0.00022811,2257.8,-7.2389e-05,-0.005322,-8.1137e-05,-65.733,0.99958
29086,14.604,3.4545,0.1,0.00022888,2287.2,0.00022769,2253.6,-7.225e-05,-0.0091422,-8.1003e-05,-65.777,1.0106
29087,14.512,3.7273,0.1,0.00022842,2282.6,0.00022711,2245.7,-7.178e-05,0.0017027,-8.1372e-05,-72.07,0.9994
29088,14.604,3.6364,0.1,0.00022801,2278.5,0.00022669,2241.5,-7.1635e-05,0.0014289,-8.1248e-05,-72.227,1.0104
29089,14.512,3.9091,0.1,0.00022728,2271.3,0.00022584,2230.7,-7.1055e-05,0.0050728,-8.1572e-05,-79.016,0.99916
29090,14.604,3.8182,0.1,0.00022684,2266.8,0.00022537,2225.9,-7.0869e-05,0.0083016,-8.1488e-05,-79.782,1.0102
29091,14.512,4.0909,0.1,0.00022589,2257.3,0.00022431,2213.2,-7.0253e-05,0.004507,-8.1669e-05,-85.771,0.99886
29092,14.604,4,0.1,0.00022538,2252.2,0.00022376,2207.1,-6.9992e-05,0.010239,-8.1652e-05,-87.599,1.01
29093,14.512,4.2727,0.1,0.00022423,2240.8,0.00022254,2193.6,-6.9418e-05,0.00082431,-8.1595e-05,-91.493,0.99851
29094,14.604,4.1818,0.1,0.00022362,2234.7,0.00022186,2185.8,-6.9051e-05,0.0077388,-8.1661e-05,-94.734,1.0096
29095,14.512,4.4545,0.1,0.00022233,2221.7,0.00022055,2172.5,-6.8593e-05,-0.0046436,-8.1287e-05,-95.382,0.99811
29096,14.604,4.3636,0.1,0.00022158,2214.2,0.0002197,2162.4,-6.8099e-05,0.0022575,-8.144e-05,-100.24,1.0093
29097,14.512,4.6364,0.1,0.0002202,2200.5,0.00021839,2150.5,-6.7821e-05,-0.010553,-8.0697e-05,-96.755,0.99765
29098,14.604,4.5455,0.1,0.00021927,2191.2,0.00021733,2137.7,-6.7182e-05,-0.0044854,-8.0929e-05,-103.29,1.0088
29099,14.512,4.8182,0.1,0.00021788,2177.3,0.00021611,2128.2,-6.7141e-05,-0.015565,-7.9795e-05,-95.096,0.99714
29100,14.604,4.7273,0.1,0.00021674,2165.9,0.00021479,2112.4,-6.6349e-05,-0.011086,-8.0087e-05,-103.23,1.0084
29101,14.512,5,0.1,0.00021543,2152.8,0.00021376,2106.4,-6.6586e-05,-0.018971,-7.8571e-05,-90.069,0.99658
29102,14.604,4.9091,0.1,0.00021403,2138.8,0.00021216,2087.3,-6.5639e-05,-0.016015,-7.8896e-05,-99.624,1.0078
29103,14.512,5.1818,0.1,0.00021291,2127.6,0.0002114,2085.7,-6.6185e-05,-0.0173,-7.703e-05,-81.501,0.99597
29104,14.604,5.0909,0.1,0.00021123,2110.8,0.0002095,2063.2,-6.5086e-05,-0.019336,-7.7362e-05,-92.257,1.0072
29105,14.512,5.3636,0.1,0.00021037,2102.2,0.0002091,2066.7,-6.5959e-05,-0.015437,-7.5187e-05,-69.356,0.9953
29106,14.604,5.2727,0.1,0.00020839,2082.5,0.0002069,2040.8,-6.4716e-05,-0.013603,-7.5503e-05,-81.063,1.0066
29107,14.512,5.5455,0.1,0.00020788,2077.4,0.00020691,2050,-6.5921e-05,0.038202,-7.3069e-05,-53.668,0.99458
29108,14.604,5.4545,0.1,0.00020561,2054.6,0.0002044,2020.8,-6.4551e-05,-0.016293,-7.3345e-05,-66.095,1.0059
29109,14.512,5.7273,0.1,0.00020551,2053.7,0.0002049,2036.2,-6.6088e-05,0.08353,-7.0714e-05,-34.68,0.99382
29110,14.604,5.6364,0.1,0.00020293,2027.9,0.00020208,2003.8,-6.4595e-05,0.10283,-7.0918e-05,-47.402,1.0052
29111,14.604,5.8182,0.1,0.00020044,2003,0.0002,1990.3,-6.4874e-05,0.11131,-6.8271e-05,-25.409,1.0044
29112,14.512,5.9091,0.1,0.00020338,2032.4,0.00020314,2025.4,-6.6424e-05,0.012063,-6.8276e-05,-13.906,0.99301
29113,14.696,0.27273,0.1,0.00019784,1977,0.00019717,1957.8,-6.3388e-05,0.087307,-6.846e-05,-38.025,1.0158
29114,14.788,0.18182,0.1,0.00019219,1920.6,0.00019171,1906.9,-6.2056e-05,0.11913,-6.5706e-05,-27.306,1.0264
29115,14.696,0.090909,0.1,0.00019541,1952.8,0.00019516,1945.4,-6.3755e-05,0.013037,-6.5717e-05,-14.728,1.015
29116,14.696,0.45455,0.1,0.00020065,2005.2,0.00019957,1974.6,-6.3226e-05,0.03952,-7.1196e-05,-59.839,1.0165
29117,14.788,0.36364,0.1,0.00019513,1949.9,0.00019418,1923.2,-6.1764e-05,0.1094,-6.8767e-05,-52.509,1.0272
29118,14.696,0.63636,0.1,0.00020364,2035,0.0002022,1994.9,-6.3309e-05,-0.017836,-7.3668e-05,-77.848,1.0172
29119,14.788,0.54545,0.1,0.00019831,1981.7,0.00019695,1943.8,-6.1751e-05,-0.020435,-7.1579e-05,-73.864,1.0279
29120,14.696,0.81818,0.1,0.00020672,2065.8,0.00020501,2018.3,-6.3618e-05,-0.017256,-7.5845e-05,-91.886,1.0179
29121,14.788,0.72727,0.1,0.00020167,2015.3,0.00019997,1968.2,-6.1989e-05,-0.013698,-7.4113e-05,-91.107,1.0286
29122,14.696,1,0.1,0.00020984,2096.9,0.00020792,2044.1,-6.414e-05,-0.01725,-7.7698e-05,-101.89,1.0185
29123,14.788,0.90909,0.1,0.00020514,2050,0.00020317,1995.9,-6.2472e-05,-0.017616,-7.6335e-05,-104.18,1.0292
29124,14.696,1.1818,0.1,0.0002129,2127.5,0.00021086,2071.5,-6.4848e-05,-0.012012,-7.9199e-05,-107.84,1.0191
29125,14.788,1.0909,0.1,0.00020863,2084.8,0.00020647,2026,-6.3177e-05,-0.012113,-7.8208e-05,-112.95,1.0298
29126,14.696,1.3636,0.1,0.00021582,2156.7,0.00021374,2099.7,-6.571e-05,-0.0052509,-8.0329e-05,-109.84,1.0196
29127,14.788,1.2727,0.1,0.00021203,2118.8,0.00020978,2057.7,-6.4074e-05,-0.0052838,-7.9695e-05,-117.38,1.0304
29128,14.696,1.5455,0.1,0.00021853,2183.8,0.00021649,2127.7,-6.6688e-05,0.002363,-8.1092e-05,-108.22,1.0201
29129,14.788,1.4545,0.1,0.00021524,2151,0.000213,2089.7,-6.5126e-05,0.0032188,-8.0777e-05,-117.59,1.0309
29130,14.696,1.7273,0.1,0.00022097,2208.2,0.00021903,2154.6,-6.7732e-05,0.0092724,-8.1514e-05,-103.54,1.0205
29131,14.788,1.6364,0.1,0.0002182,2180.5,0.00021604,2121.2,-6.6283e-05,0.011778,-8.146e-05,-114.02,1.0313
29132,14.696,1.9091,0.1,0.00022311,2229.6,0.00022131,2179.7,-6.879e-05,0.013701,-8.1649e-05,-96.607,1.0208
29133,14.788,1.8182,0.1,0.00022083,2206.8,0.00021881,2151.1,-6.7488e-05,0.01863,-8.1785e-05,-107.4,1.0317
29134,14.696,2.0909,0.1,0.00022493,2247.8,0.0002233,2202.3,-6.9805e-05,0.01376,-8.1572e-05,-88.398,1.0211
29135,14.788,2,0.1,0.00022311,2229.6,0.00022127,2178.6,-6.8679e-05,0.021387,-8.1825e-05,-98.754,1.032
29136,14.696,2.2727,0.1,0.00022643,2262.7,0.00022496,2221.7,-7.0724e-05,0.0082103,-8.1368e-05,-79.961,1.0213
29137,14.788,2.1818,0.1,0.00022502,2248.7,0.00022337,2202.7,-6.9791e-05,0.017856,-8.1673e-05,-89.26,1.0323
29138,14.696,2.4545,0.1,0.00022759,2274.4,0.00022628,2237.3,-7.1497e-05,-0.002612,-8.1117e-05,-72.283,1.0215
29139,14.788,2.3636,0.1,0.00022657,2264.1,0.0002251,2223,-7.0763e-05,0.0072228,-8.1425e-05,-80.106,1.0325
29140,14.696,2.6364,0.1,0.00022843,2282.7,0.00022723,2248.9,-7.208e-05,-0.016061,-8.0888e-05,-66.193,1.0217
29141,14.788,2.5455,0.1,0.00022773,2275.8,0.00022642,2238.7,-7.1542e-05,-0.0087182,-8.1167e-05,-72.329,1.0326
29142,14.696,2.8182,0.1,0.00022893,2287.8,0.00022781,2256,-7.2443e-05,-0.027443,-8.0731e-05,-62.297,1.0217
29143,14.788,2.7273,0.1,0.00022852,2283.6,0.00022731,2249.5,-7.2085e-05,-0.025191,-8.0962e-05,-66.721,1.0327
29144,14.696,3,0.1,0.0002291,2289.4,0.000228,2258.3,-7.2567e-05,-0.031933,-8.0675e-05,-60.958,1.0218
29145,14.788,2.9091,0.1,0.00022892,2287.6,0.00022777,2255,-7.2364e-05,-0.035801,-8.085e-05,-63.793,1.0328
29146,14.696,3.1818,0.1,0.00022893,2287.8,0.00022781,2256,-7.2443e-05,-0.027442,-8.0731e-05,-62.297,1.0217
29147,14.788,3.0909,0.1,0.00022892,2287.6,0.00022777,2255,-7.2364e-05,-0.035802,-8.085e-05,-63.793,1.0328
29148,14.696,3.3636,0.1,0.00022843,2282.7,0.00022723,2248.9,-7.208e-05,-0.016061,-8.0888e-05,-66.193,1.0217
29149,14.788,3.2727,0.1,0.00022852,2283.6,0.00022731,2249.5,-7.2085e-05,-0.025191,-8.0962e-05,-66.721,1.0327
29150,14.696,3.5455,0.1,0.00022759,2274.4,0.00022628,2237.3,-7.1497e-05,-0.0026122,-8.1117e-05,-72.283,1.0215
29151,14.788,3.4545,0.1,0.00022773,2275.8,0.00022642,2238.7,-7.1542e-05,-0.008718,-8.1167e-05,-72.329,1.0326
29152,14.696,3.7273,0.1,0.00022643,2262.7,0.00022496,2221.7,-7.0724e-05,0.0082103,-8.1368e-05,-79.961,1.0213
29153,14.788,3.6364,0.1,0.00022657,2264.1,0.0002251,2223,-7.0763e-05,0.0072229,-8.1425e-05,-80.105,1.0325
29154,14.696,3.9091,0.1,0.00022493,2247.8,0.0002233,2202.3,-6.9805e-05,0.01376,-8.1572e-05,-88.398,1.0211
29155,14.788,3.8182,0.1,0.00022502,2248.7,0.00022337,2202.7,-6.9791e-05,0.017857,-8.1673e-05,-89.259,1.0323
29156,14.696,4.0909,0.1,0.00022311,2229.6,0.00022131,2179.7,-6.879e-05,0.013702,-8.1649e-05,-96.607,1.0208
29157,14.788,4,0.1,0.00022311,2229.6,0.00022127,2178.6,-6.8679e-05,0.021388,-8.1825e-05,-98.754,1.032
29158,14.696,4.2727,0.1,0.00022097,2208.2,0.00021903,2154.6,-6.7732e-05,0.0092732,-8.1514e-05,-103.54,1.0205
29159,14.788,4.1818,0.1,0.00022083,2206.8,0.00021881,2151.1,-6.7488e-05,0.01863,-8.1785e-05,-107.4,1.0317
29160,14.696,4.4545,0.1,0.00021853,2183.8,0.00021649,2127.7,-6.6688e-05,0.0023635,-8.1092e-05,-108.22,1.0201
29161,14.788,4.3636,0.1,0.0002182,2180.5,0.00021604,2121.2,-6.6283e-05,0.011778,-8.146e-05,-114.02,1.0313
29162,14.696,4.6364,0.1,0.00021582,2156.7,0.00021374,2099.7,-6.571e-05,-0.0052501,-8.0329e-05,-109.84,1.0196
29163,14.788,4.5455,0.1,0.00021524,2151,0.000213,2089.7,-6.5126e-05,0.0032193,-8.0777e-05,-117.59,1.0309
29164,14.696,4.8182,0.1,0.0002129,2127.5,0.00021086,2071.5,-6.4848e-05,-0.012011,-7.9199e-05,-107.84,1.0191
29165,14.788,4.7273,0.1,0.00021203,2118.8,0.00020978,2057.7,-6.4074e-05,-0.0052834,-7.9695e-05,-117.38,1.0304
29166,14.696,5,0.1,0.00020984,2096.9,0.00020792,2044.1,-6.414e-05,-0.017249,-7.7698e-05,-101.89,1.0185
29167,14.788,4.9091,0.1,0.00020863,2084.8,0.00020647,2026,-6.3177e-05,-0.012112,-7.8208e-05,-112.95,1.0298
29168,14.696,5.1818,0.1,0.00020672,2065.8,0.00020501,2018.3,-6.3618e-05,-0.017255,-7.5845e-05,-91.886,1.0179
29169,14.788,5.0909,0.1,0.00020514,2050,0.00020317,1995.9,-6.2472e-05,-0.017614,-7.6335e-05,-104.18,1.0292
29170,14.696,5.3636,0.1,0.00020364,2035,0.0002022,1994.9,-6.3309e-05,-0.017835,-7.3668e-05,-77.848,1.0172
29171,14.788,5.2727,0.1,0.00020167,2015.3,0.00019997,1968.2,-6.1989e-05,-0.013696,-7.4113e-05,-91.107,1.0286
29172,14.696,5.5455,0.1,0.00020065,2005.2,0.00019957,1974.6,-6.3226e-05,0.03952,-7.1196e-05,-59.839,1.0165
29173,14.788,5.4545,0.1,0.00019831,1981.7,0.00019695,1943.8,-6.1751e-05,-0.020433,-7.1579e-05,-73.864,1.0279
29174,14.696,5.7273,0.1,0.00019784,1977,0.00019717,1957.8,-6.3388e-05,0.087306,-6.846e-05,-38.025,1.0158
29175,14.788,5.6364,0.1,0.00019513,1949.9,0.00019418,1923.2,-6.1764e-05,0.1094,-6.8767e-05,-52.509,1.0272
29176,14.788,5.8182,0.1,0.00019219,1920.6,0.00019171,1906.9,-6.2056e-05,0.11913,-6.5706e-05,-27.306,1.0264
29177,14.696,5.9091,0.1,0.00019541,1952.8,0.00019516,1945.4,-6.3755e-05,0.013038,-6.5717e-05,-14.728,1.015
29178,14.879,0.27273,0.1,0.00018947,1893.3,0.00018872,1872.2,-6.044e-05,0.086108,-6.6e-05,-41.69,1.0379
29179,14.971,0.18182,0.1,0.00018314,1830.1,0.00018262,1815.3,-5.8963e-05,0.11597,-6.2892e-05,-29.41,1.0486
29180,14.879,0.090909,0.1,0.0001867,1865.7,0.00018643,1857.9,-6.0834e-05,0.013257,-6.2919e-05,-15.655,1.0371
29181,14.879,0.45455,0.1,0.00019279,1926.5,0.00019157,1892.4,-6.0291e-05,0.039487,-6.9156e-05,-66.569,1.0386
29182,14.971,0.36364,0.1,0.00018657,1864.4,0.00018552,1834.8,-5.8664e-05,0.11278,-6.6396e-05,-57.981,1.0493
29183,14.879,0.63636,0.1,0.00019636,1962.2,0.00019473,1917.1,-6.0431e-05,-0.020039,-7.2035e-05,-87.209,1.0393
29184,14.971,0.54545,0.1,0.00019033,1902,0.0001888,1859.5,-5.8693e-05,-0.025189,-6.9638e-05,-82.266,1.0501
29185,14.879,0.81818,0.1,0.00020011,1999.7,0.00019814,1945.9,-6.0842e-05,-0.015828,-7.4618e-05,-103.52,1.04
29186,14.971,0.72727,0.1,0.00019438,1942.5,0.00019244,1889.4,-5.9019e-05,-0.012641,-7.2616e-05,-102.18,1.0508
29187,14.879,1,0.1,0.00020395,2038.1,0.00020174,1978,-6.1509e-05,-0.01342,-7.6863e-05,-115.38,1.0406
29188,14.971,0.90909,0.1,0.00019863,1984.9,0.00019637,1923.5,-5.9636e-05,-0.01364,-7.529e-05,-117.63,1.0514
29189,14.879,1.1818,0.1,0.00020778,2076.3,0.00020542,2012.3,-6.2403e-05,-0.0059017,-7.8724e-05,-122.63,1.0412
29190,14.971,1.0909,0.1,0.00020297,2028.3,0.00020048,1961.1,-6.0523e-05,-0.0053195,-7.7602e-05,-128.33,1.052
29191,14.879,1.3636,0.1,0.00021147,2113.3,0.00020906,2047.9,-6.3489e-05,0.0029194,-8.0161e-05,-125.26,1.0417
29192,14.971,1.2727,0.1,0.00020726,2071.1,0.00020465,2000.9,-6.1648e-05,0.0037417,-7.9487e-05,-134.03,1.0525
29193,14.879,1.5455,0.1,0.00021493,2147.8,0.00021257,2083.4,-6.4721e-05,0.012544,-8.1161e-05,-123.51,1.0421
29194,14.971,1.4545,0.1,0.00021136,2112.1,0.00020874,2041.5,-6.2968e-05,0.014378,-8.0896e-05,-134.69,1.053
29195,14.879,1.7273,0.1,0.00021807,2179.2,0.00021583,2117.9,-6.6039e-05,0.021201,-8.1744e-05,-117.98,1.0425
29196,14.971,1.6364,0.1,0.00021514,2150,0.00021262,2081.7,-6.4425e-05,0.025009,-8.1819e-05,-130.67,1.0534
29197,14.879,1.9091,0.1,0.00022084,2206.9,0.00021877,2150,-6.7378e-05,0.026525,-8.1971e-05,-109.63,1.0429
29198,14.971,1.8182,0.1,0.00021854,2183.9,0.00021619,2119.9,-6.5948e-05,0.033469,-8.2294e-05,-122.78,1.0538
29199,14.879,2.0909,0.1,0.00022321,2230.6,0.00022135,2179.1,-6.8665e-05,0.025767,-8.1933e-05,-99.67,1.0432
29200,14.971,2,0.1,0.0002215,2213.4,0.00021937,2155.2,-6.7457e-05,0.036347,-8.2409e-05,-112.3,1.0541
29201,14.879,2.2727,0.1,0.00022517,2250.1,0.00022351,2204.1,-6.983e-05,0.01701,-8.1736e-05,-89.44,1.0434
29202,14.971,2.1818,0.1,0.00022399,2238.4,0.00022211,2186.3,-6.8867e-05,0.030421,-8.2282e-05,-100.76,1.0544
29203,14.879,2.4545,0.1,0.00022671,2265.5,0.00022524,2224.4,-7.0808e-05,0.00071297,-8.1478e-05,-80.171,1.0436
29204,14.971,2.3636,0.1,0.00022602,2258.7,0.00022436,2212.5,-7.0099e-05,0.014436,-8.2038e-05,-89.688,1.0546
29205,14.879,2.6364,0.1,0.00022783,2276.7,0.0002265,2239.4,-7.1547e-05,-0.019238,-8.1242e-05,-72.864,1.0438
29206,14.971,2.5455,0.1,0.00022758,2274.2,0.0002261,2232.9,-7.1085e-05,-0.0090594,-8.1779e-05,-80.359,1.0548
29207,14.879,2.8182,0.1,0.00022851,2283.5,0.00022727,2248.6,-7.2006e-05,-0.036011,-8.108e-05,-68.215,1.0438
29208,14.971,2.7273,0.1,0.00022863,2284.7,0.00022729,2247,-7.1771e-05,-0.033052,-8.1575e-05,-73.696,1.0549
29209,14.879,3,0.1,0.00022873,2285.8,0.00022753,2251.7,-7.2162e-05,-0.042611,-8.1023e-05,-66.623,1.0439
29210,14.971,2.9091,0.1,0.00022917,2290.1,0.00022789,2254.1,-7.2124e-05,-0.048372,-8.1466e-05,-70.243,1.055
29211,14.879,3.1818,0.1,0.00022851,2283.5,0.00022727,2248.6,-7.2006e-05,-0.036011,-8.108e-05,-68.215,1.0438
29212,14.971,3.0909,0.1,0.00022917,2290.1,0.00022789,2254.1,-7.2124e-05,-0.048373,-8.1466e-05,-70.243,1.055
29213,14.879,3.3636,0.1,0.00022783,2276.7,0.0002265,2239.4,-7.1547e-05,-0.019238,-8.1242e-05,-72.864,1.0438
29214,14.971,3.2727,0.1,0.00022863,2284.7,0.00022729,2247,-7.1771e-05,-0.033052,-8.1575e-05,-73.696,1.0549
29215,14.879,3.5455,0.1,0.00022671,2265.5,0.00022524,2224.4,-7.0808e-05,0.00071358,-8.1478e-05,-80.171,1.0436
29216,14.971,3.4545,0.1,0.00022758,2274.2,0.0002261,2232.9,-7.1085e-05,-0.0090593,-8.1779e-05,-80.359,1.0548
29217,14.879,3.7273,0.1,0.00022517,2250.1,0.00022351,2204.1,-6.983e-05,0.017011,-8.1736e-05,-89.44,1.0434
29218,14.971,3.6364,0.1,0.00022602,2258.7,0.00022436,2212.5,-7.0099e-05,0.014437,-8.2038e-05,-89.688,1.0546
29219,14.879,3.9091,0.1,0.00022321,2230.6,0.00022135,2179.1,-6.8665e-05,0.025768,-8.1933e-05,-99.67,1.0432
29220,14.971,3.8182,0.1,0.00022399,2238.4,0.00022211,2186.3,-6.8867e-05,0.030421,-8.2282e-05,-100.76,1.0544
29221,14.879,4.0909,0.1,0.00022084,2206.9,0.00021877,2150,-6.7378e-05,0.026525,-8.1971e-05,-109.63,1.0429
29222,14.971,4,0.1,0.0002215,2213.4,0.00021937,2155.2,-6.7457e-05,0.036347,-8.2409e-05,-112.3,1.0541
29223,14.879,4.2727,0.1,0.00021807,2179.2,0.00021583,2117.9,-6.6039e-05,0.021201,-8.1744e-05,-117.98,1.0425
29224,14.971,4.1818,0.1,0.00021854,2183.9,0.00021619,2119.9,-6.5948e-05,0.033469,-8.2294e-05,-122.78,1.0538
29225,14.879,4.4545,0.1,0.00021493,2147.8,0.00021257,2083.4,-6.4721e-05,0.012544,-8.1161e-05,-123.51,1.0421
29226,14.971,4.3636,0.1,0.00021514,2150,0.00021262,2081.7,-6.4425e-05,0.02501,-8.1819e-05,-130.67,1.0534
29227,14.879,4.6364,0.1,0.00021147,2113.3,0.00020906,2047.9,-6.3489e-05,0.0029194,-8.0161e-05,-125.26,1.0417
29228,14.971,4.5455,0.1,0.00021136,2112.1,0.00020874,2041.5,-6.2968e-05,0.014378,-8.0896e-05,-134.69,1.053
29229,14.879,4.8182,0.1,0.00020778,2076.3,0.00020542,2012.3,-6.2403e-05,-0.0059012,-7.8724e-05,-122.63,1.0412
29230,14.971,4.7273,0.1,0.00020726,2071.1,0.00020465,2000.9,-6.1648e-05,0.0037417,-7.9487e-05,-134.03,1.0525
29231,14.879,5,0.1,0.00020395,2038.1,0.00020174,1978,-6.1509e-05,-0.013419,-7.6863e-05,-115.38,1.0406
29232,14.971,4.9091,0.1,0.00020297,2028.3,0.00020048,1961.1,-6.0523e-05,-0.0053185,-7.7602e-05,-128.33,1.052
29233,14.879,5.1818,0.1,0.00020011,1999.7,0.00019814,1945.9,-6.0842e-05,-0.015827,-7.4618e-05,-103.52,1.04
29234,14.971,5.0909,0.1,0.00019863,1984.9,0.00019637,1923.5,-5.9636e-05,-0.013638,-7.529e-05,-117.63,1.0514
29235,14.879,5.3636,0.1,0.00019636,1962.2,0.00019473,1917.1,-6.0431e-05,-0.020037,-7.2035e-05,-87.209,1.0393
29236,14.971,5.2727,0.1,0.00019438,1942.5,0.00019244,1889.4,-5.9019e-05,-0.012639,-7.2616e-05,-102.18,1.0508
29237,14.879,5.5455,0.1,0.00019279,1926.5,0.00019157,1892.4,-6.0291e-05,0.039487,-6.9156e-05,-66.569,1.0386
29238,14.971,5.4545,0.1,0.00019033,1902,0.0001888,1859.5,-5.8693e-05,-0.025188,-6.9638e-05,-82.266,1.0501
29239,14.879,5.7273,0.1,0.00018947,1893.3,0.00018872,1872.2,-6.044e-05,0.086107,-6.6e-05,-41.69,1.0379
29240,14.971,5.6364,0.1,0.00018657,1864.4,0.00018552,1834.8,-5.8664e-05,0.11278,-6.6396e-05,-57.981,1.0493
29241,14.971,5.8182,0.1,0.00018314,1830.1,0.00018262,1815.3,-5.8963e-05,0.11597,-6.2892e-05,-29.41,1.0486
29242,14.879,5.9091,0.1,0.0001867,1865.7,0.00018643,1857.9,-6.0834e-05,0.013256,-6.2919e-05,-15.655,1.0371
29243,15.063,0.27273,0.1,0.00018023,1801.1,0.00017941,1777.9,-5.7196e-05,0.076788,-6.3277e-05,-45.618,1.0601
29244,15.155,0.18182,0.1,0.00017312,1730,0.00017256,1714,-5.5544e-05,0.09453,-5.9774e-05,-31.694,1.0708
29245,15.063,0.090909,0.1,0.00017709,1769.7,0.0001768,1761.3,-5.761e-05,0.011952,-5.9832e-05,-16.682,1.0593
29246,15.063,0.45455,0.1,0.00018412,1840,0.00018276,1802,-5.7068e-05,0.037206,-6.6889e-05,-73.753,1.0608
29247,15.155,0.36364,0.1,0.00017708,1769.6,0.00017592,1737,-5.5247e-05,0.11072,-6.3735e-05,-63.665,1.0716
29248,15.063,0.63636,0.1,0.00018838,1882.5,0.00018653,1831.9,-5.7281e-05,-0.021815,-7.0239e-05,-97.384,1.0615
29249,15.155,0.54545,0.1,0.00018151,1813.8,0.00017979,1766.5,-5.5329e-05,-0.030635,-6.7456e-05,-91.145,1.0723
29250,15.063,0.81818,0.1,0.00019294,1928,0.00019069,1867.2,-5.7813e-05,-0.012319,-7.3315e-05,-116.49,1.0622
29251,15.155,0.72727,0.1,0.00018637,1862.4,0.00018417,1802.7,-5.5758e-05,-0.0098768,-7.0962e-05,-114.24,1.073
29252,15.063,1,0.1,0.00019769,1975.5,0.00019514,1906.9,-5.8651e-05,-0.0065079,-7.6061e-05,-130.82,1.0628
29253,15.155,0.90909,0.1,0.00019159,1914.5,0.00018898,1844.7,-5.6532e-05,-0.0063398,-7.4205e-05,-132.79,1.0737
29254,15.063,1.1818,0.1,0.00020249,2023.5,0.00019975,1949.9,-5.9768e-05,0.0037967,-7.8398e-05,-139.97,1.0634
29255,15.155,1.0909,0.1,0.000197,1968.6,0.0001941,1891.4,-5.7632e-05,0.0056583,-7.7094e-05,-146.23,1.0743
29256,15.063,1.3636,0.1,0.00020718,2070.4,0.00020436,1994.8,-6.1126e-05,0.014905,-8.0253e-05,-143.7,1.0639
29257,15.155,1.2727,0.1,0.00020242,2022.8,0.00019936,1941.5,-5.9028e-05,0.017333,-7.9518e-05,-153.94,1.0748
29258,15.063,1.5455,0.1,0.0002116,2114.6,0.00020883,2040,-6.2672e-05,0.026691,-8.1581e-05,-142.05,1.0644
29259,15.155,1.4545,0.1,0.00020766,2075.1,0.00020457,1993,-6.0674e-05,0.03026,-8.1381e-05,-155.55,1.0753
29260,15.063,1.7273,0.1,0.00021564,2154.9,0.00021301,2083.9,-6.4334e-05,0.037255,-8.239e-05,-135.63,1.0648
29261,15.155,1.6364,0.1,0.00021252,2123.8,0.00020955,2044.1,-6.2505e-05,0.043231,-8.2638e-05,-151.22,1.0758
29262,15.063,1.9091,0.1,0.00021922,2190.6,0.00021681,2125.2,-6.6027e-05,0.04341,-8.2747e-05,-125.58,1.0651
29263,15.155,1.8182,0.1,0.0002169,2167.5,0.00021414,2093.1,-6.4431e-05,0.053522,-8.332e-05,-141.87,1.0761
29264,15.063,2.0909,0.1,0.00022229,2221.4,0.00022014,2162.5,-6.7659e-05,0.041199,-8.2769e-05,-113.49,1.0654
29265,15.155,2,0.1,0.00022073,2205.7,0.00021825,2138.4,-6.6346e-05,0.056482,-8.3538e-05,-129.12,1.0765
29266,15.063,2.2727,0.1,0.00022485,2247,0.00022296,2194.8,-6.9137e-05,0.027851,-8.2592e-05,-101.07,1.0657
29267,15.155,2.1818,0.1,0.00022397,2238.2,0.0002218,2178.5,-6.8137e-05,0.046785,-8.3451e-05,-115.02,1.0767
29268,15.063,2.4545,0.1,0.00022689,2267.4,0.00022523,2221.1,-7.0376e-05,0.0039336,-8.2342e-05,-89.904,1.0659
29269,15.155,2.3636,0.1,0.00022664,2264.8,0.00022474,2212.3,-6.97e-05,0.022497,-8.3224e-05,-101.59,1.077
29270,15.063,2.6364,0.1,0.00022838,2282.2,0.00022689,2240.5,-7.131e-05,-0.02493,-8.2114e-05,-81.198,1.066
29271,15.155,2.5455,0.1,0.0002287,2285.4,0.00022703,2238.8,-7.0946e-05,-0.011713,-8.2984e-05,-90.462,1.0771
29272,15.063,2.8182,0.1,0.00022929,2291.3,0.00022791,2252.5,-7.1889e-05,-0.048901,-8.196e-05,-75.715,1.0661
29273,15.155,2.7273,0.1,0.00023011,2299.5,0.0002286,2257.1,-7.1811e-05,-0.045619,-8.2804e-05,-82.642,1.0772
29274,15.063,3,0.1,0.0002296,2294.4,0.00022825,2256.6,-7.2086e-05,-0.05826,-8.1907e-05,-73.849,1.0661
29275,15.155,2.9091,0.1,0.00023084,2306.8,0.0002294,2266.4,-7.2253e-05,-0.066852,-8.271e-05,-78.642,1.0773
29276,15.063,3.1818,0.1,0.00022929,2291.3,0.00022791,2252.5,-7.1889e-05,-0.048901,-8.196e-05,-75.715,1.0661
29277,15.155,3.0909,0.1,0.00023084,2306.8,0.0002294,2266.4,-7.2253e-05,-0.066852,-8.271e-05,-78.641,1.0773
29278,15.063,3.3636,0.1,0.00022838,2282.2,0.00022689,2240.5,-7.131e-05,-0.02493,-8.2113e-05,-81.198,1.066
29279,15.155,3.2727,0.1,0.00023011,2299.5,0.0002286,2257.1,-7.1811e-05,-0.045619,-8.2804e-05,-82.642,1.0772
29280,15.063,3.5455,0.1,0.00022689,2267.3,0.00022523,2221.1,-7.0376e-05,0.0039336,-8.2342e-05,-89.904,1.0659
29281,15.155,3.4545,0.1,0.0002287,2285.4,0.00022703,2238.8,-7.0946e-05,-0.011713,-8.2984e-05,-90.461,1.0771
29282,15.063,3.7273,0.1,0.00022485,2247,0.00022296,2194.8,-6.9137e-05,0.027852,-8.2592e-05,-101.07,1.0657
29283,15.155,3.6364,0.1,0.00022664,2264.8,0.00022474,2212.3,-6.97e-05,0.022498,-8.3224e-05,-101.59,1.077
29284,15.063,3.9091,0.1,0.00022229,2221.4,0.00022014,2162.5,-6.7659e-05,0.041199,-8.2769e-05,-113.49,1.0654
29285,15.155,3.8182,0.1,0.00022397,2238.2,0.0002218,2178.5,-6.8137e-05,0.046786,-8.3451e-05,-115.01,1.0767
29286,15.063,4.0909,0.1,0.00021922,2190.6,0.00021681,2125.2,-6.6027e-05,0.043411,-8.2747e-05,-125.58,1.0651
29287,15.155,4,0.1,0.00022073,2205.7,0.00021825,2138.4,-6.6346e-05,0.056482,-8.3538e-05,-129.12,1.0765
29288,15.063,4.2727,0.1,0.00021564,2154.9,0.00021301,2083.9,-6.4334e-05,0.037256,-8.239e-05,-135.63,1.0648
29289,15.155,4.1818,0.1,0.0002169,2167.5,0.00021414,2093.1,-6.4431e-05,0.053523,-8.332e-05,-141.87,1.0761
29290,15.063,4.4545,0.1,0.0002116,2114.6,0.00020883,2040,-6.2672e-05,0.026692,-8.1581e-05,-142.05,1.0644
29291,15.155,4.3636,0.1,0.00021252,2123.8,0.00020955,2044.1,-6.2505e-05,0.043231,-8.2638e-05,-151.22,1.0758
29292,15.063,4.6364,0.1,0.00020718,2070.4,0.00020436,1994.8,-6.1126e-05,0.014906,-8.0253e-05,-143.7,1.0639
29293,15.155,4.5455,0.1,0.00020766,2075.1,0.00020457,1993,-6.0674e-05,0.030261,-8.1381e-05,-155.55,1.0753
29294,15.063,4.8182,0.1,0.00020249,2023.5,0.00019975,1949.9,-5.9768e-05,0.0037972,-7.8398e-05,-139.97,1.0634
29295,15.155,4.7273,0.1,0.00020242,2022.8,0.00019936,1941.5,-5.9028e-05,0.017333,-7.9518e-05,-153.94,1.0748
29296,15.063,5,0.1,0.00019769,1975.5,0.00019514,1906.9,-5.8651e-05,-0.0065067,-7.6061e-05,-130.82,1.0628
29297,15.155,4.9091,0.1,0.000197,1968.6,0.0001941,1891.4,-5.7632e-05,0.0056588,-7.7094e-05,-146.22,1.0743
29298,15.063,5.1818,0.1,0.00019294,1928,0.00019069,1867.2,-5.7813e-05,-0.012318,-7.3315e-05,-116.49,1.0622
29299,15.155,5.0909,0.1,0.00019159,1914.5,0.00018898,1844.7,-5.6532e-05,-0.0063382,-7.4205e-05,-132.79,1.0737
29300,15.063,5.3636,0.1,0.00018838,1882.5,0.00018653,1831.9,-5.7281e-05,-0.021814,-7.0239e-05,-97.384,1.0615
29301,15.155,5.2727,0.1,0.00018637,1862.4,0.00018417,1802.7,-5.5758e-05,-0.0098753,-7.0962e-05,-114.24,1.073
29302,15.063,5.5455,0.1,0.00018412,1840,0.00018276,1802,-5.7068e-05,0.037206,-6.6889e-05,-73.753,1.0608
29303,15.155,5.4545,0.1,0.00018151,1813.8,0.00017979,1766.5,-5.5329e-05,-0.030634,-6.7456e-05,-91.145,1.0723
29304,15.063,5.7273,0.1,0.00018023,1801.1,0.00017941,1777.9,-5.7196e-05,0.076788,-6.3277e-05,-45.618,1.0601
29305,15.155,5.6364,0.1,0.00017708,1769.6,0.00017592,1737,-5.5247e-05,0.11072,-6.3735e-05,-63.665,1.0716
29306,15.155,5.8182,0.1,0.00017312,1730,0.00017256,1714,-5.5544e-05,0.094529,-5.9774e-05,-31.694,1.0708
29307,15.063,5.9091,0.1,0.00017709,1769.7,0.0001768,1761.3,-5.761e-05,0.011953,-5.9832e-05,-16.682,1.0593
29308,15.247,0.27273,0.1,0.00016996,1698.5,0.00016906,1673.1,-5.3604e-05,0.055315,-6.0225e-05,-49.691,1.0824
29309,15.339,0.18182,0.1,0.00016196,1618.5,0.00016135,1601.2,-5.1745e-05,0.046102,-5.6288e-05,-34.094,1.0932
29310,15.247,0.090909,0.1,0.0001664,1662.8,0.00016609,1653.9,-5.4028e-05,0.0080626,-5.6396e-05,-17.79,1.0816
29311,15.247,0.45455,0.1,0.00017449,1743.7,0.00017296,1701.7,-5.3509e-05,0.031463,-6.4319e-05,-81.193,1.0832
29312,15.339,0.36364,0.1,0.00016648,1663.6,0.00016519,1627.9,-5.146e-05,0.10005,-6.0697e-05,-69.302,1.094
29313,15.247,0.63636,0.1,0.00017954,1794.2,0.00017745,1737.6,-5.3807e-05,-0.022821,-6.8211e-05,-108.25,1.0839
29314,15.339,0.54545,0.1,0.00017165,1715.3,0.00016972,1662.9,-5.1608e-05,-0.037035,-6.4945e-05,-100.24,1.0947
29315,15.247,0.81818,0.1,0.00018508,1849.5,0.0001825,1780.6,-5.4478e-05,-0.0057416,-7.1896e-05,-130.88,1.0846
29316,15.339,0.72727,0.1,0.00017748,1773.6,0.00017497,1706.5,-5.2154e-05,-0.0049385,-6.9084e-05,-127.21,1.0954
29317,15.247,1,0.1,0.00019096,1908.3,0.000188,1829.7,-5.5513e-05,0.004923,-7.529e-05,-148.59,1.0852
29318,15.339,0.90909,0.1,0.00018388,1837.5,0.00018087,1758,-5.3102e-05,0.0055147,-7.3053e-05,-149.9,1.0961
29319,15.247,1.1818,0.1,0.000197,1968.7,0.00019378,1883.4,-5.6891e-05,0.018723,-7.8268e-05,-160.6,1.0858
29320,15.339,1.0909,0.1,0.00019065,1905.2,0.00018725,1816,-5.4442e-05,0.022537,-7.6713e-05,-167.31,1.0967
29321,15.247,1.3636,0.1,0.00020297,2028.3,0.00019963,1940.1,-5.8576e-05,0.032391,-8.0698e-05,-166.18,1.0863
29322,15.339,1.2727,0.1,0.00019753,1973.9,0.00019389,1878.8,-5.6154e-05,0.037224,-7.9879e-05,-178.22,1.0972
29323,15.247,1.5455,0.1,0.00020864,2084.9,0.00020534,1997.5,-6.0508e-05,0.046557,-8.2482e-05,-165.06,1.0867
29324,15.339,1.4545,0.1,0.00020424,2041,0.00020054,1944.1,-5.8197e-05,0.052087,-8.2377e-05,-181.63,1.0978
29325,15.247,1.7273,0.1,0.00021383,2136.9,0.00021071,2053.6,-6.2603e-05,0.059306,-8.3603e-05,-157.73,1.0872
29326,15.339,1.6364,0.1,0.00021051,2103.6,0.00020693,2009.4,-6.0494e-05,0.066575,-8.41e-05,-177.3,1.0982
29327,15.247,1.9091,0.1,0.00021845,2183,0.00021561,2106.5,-6.4749e-05,0.06651,-8.4136e-05,-145.6,1.0875
29328,15.339,1.8182,0.1,0.00021615,2160,0.00021285,2072.2,-6.2933e-05,0.078358,-8.5062e-05,-166.19,1.0986
29329,15.247,2.0909,0.1,0.00022243,2222.8,0.00021992,2154.5,-6.6824e-05,0.062048,-8.4238e-05,-130.78,1.0878
29330,15.339,2,0.1,0.00022109,2209.3,0.00021814,2130.3,-6.5371e-05,0.079418,-8.5408e-05,-150.47,1.0989
29331,15.247,2.2727,0.1,0.00022577,2256.2,0.00022358,2196.1,-6.8701e-05,0.041123,-8.4095e-05,-115.62,1.0881
29332,15.339,2.1818,0.1,0.00022529,2251.4,0.00022274,2182,-6.7655e-05,0.063404,-8.5368e-05,-133.02,1.0992
29333,15.247,2.4545,0.1,0.00022845,2282.9,0.00022654,2230.1,-7.027e-05,0.0055468,-8.3871e-05,-102.19,1.0883
29334,15.339,2.3636,0.1,0.00022877,2286.2,0.00022657,2225.6,-6.964e-05,0.028549,-8.5172e-05,-116.67,1.0994
29335,15.247,2.6364,0.1,0.00023043,2302.7,0.00022873,2255.4,-7.1448e-05,-0.035417,-8.3674e-05,-91.904,1.0884
29336,15.339,2.5455,0.1,0.00023149,2313.3,0.00022956,2259.8,-7.1211e-05,-0.019727,-8.4979e-05,-103.46,1.0996
29337,15.247,2.8182,0.1,0.00023165,2314.9,0.00023008,2270.9,-7.2175e-05,-0.068346,-8.3551e-05,-85.541,1.0885
29338,15.339,2.7273,0.1,0.00023338,2332.1,0.00023162,2283.5,-7.2294e-05,-0.065887,-8.4855e-05,-94.448,1.0997
29339,15.247,3,0.1,0.00023207,2319.1,0.00023053,2276.2,-7.2421e-05,-0.080983,-8.351e-05,-83.398,1.0885
29340,15.339,2.9091,0.1,0.00023434,2341.8,0.00023268,2295.5,-7.2844e-05,-0.093648,-8.4801e-05,-89.938,1.0998
29341,15.247,3.1818,0.1,0.00023165,2314.9,0.00023008,2270.9,-7.2175e-05,-0.068346,-8.3551e-05,-85.541,1.0885
29342,15.339,3.0909,0.1,0.00023434,2341.8,0.00023268,2295.5,-7.2844e-05,-0.093647,-8.4801e-05,-89.938,1.0998
29343,15.247,3.3636,0.1,0.00023043,2302.7,0.00022873,2255.4,-7.1448e-05,-0.035417,-8.3674e-05,-91.904,1.0884
29344,15.339,3.2727,0.1,0.00023338,2332.1,0.00023162,2283.5,-7.2294e-05,-0.065887,-8.4855e-05,-94.448,1.0997
29345,15.247,3.5455,0.1,0.00022845,2282.9,0.00022654,2230.1,-7.027e-05,0.0055467,-8.3871e-05,-102.19,1.0883
29346,15.339,3.4545,0.1,0.00023149,2313.3,0.00022956,2259.8,-7.1211e-05,-0.019727,-8.4979e-05,-103.46,1.0996
29347,15.247,3.7273,0.1,0.00022577,2256.2,0.00022358,2196.1,-6.8701e-05,0.041123,-8.4095e-05,-115.62,1.0881
29348,15.339,3.6364,0.1,0.00022877,2286.2,0.00022657,2225.6,-6.964e-05,0.028549,-8.5172e-05,-116.67,1.0994
29349,15.247,3.9091,0.1,0.00022243,2222.8,0.00021992,2154.5,-6.6824e-05,0.062048,-8.4238e-05,-130.78,1.0878
29350,15.339,3.8182,0.1,0.00022529,2251.4,0.00022274,2182,-6.7655e-05,0.063404,-8.5368e-05,-133.02,1.0992
29351,15.247,4.0909,0.1,0.00021845,2183,0.00021561,2106.5,-6.4749e-05,0.06651,-8.4136e-05,-145.6,1.0875
29352,15.339,4,0.1,0.00022109,2209.3,0.00021814,2130.3,-6.5371e-05,0.079419,-8.5408e-05,-150.47,1.0989
29353,15.247,4.2727,0.1,0.00021383,2136.9,0.00021071,2053.6,-6.2603e-05,0.059306,-8.3603e-05,-157.73,1.0872
29354,15.339,4.1818,0.1,0.00021615,2160,0.00021285,2072.2,-6.2933e-05,0.078359,-8.5062e-05,-166.19,1.0986
29355,15.247,4.4545,0.1,0.00020864,2084.9,0.00020534,1997.5,-6.0508e-05,0.046557,-8.2482e-05,-165.06,1.0867
29356,15.339,4.3636,0.1,0.00021051,2103.6,0.00020693,2009.4,-6.0494e-05,0.066575,-8.41e-05,-177.3,1.0982
29357,15.247,4.6364,0.1,0.00020297,2028.3,0.00019963,1940.1,-5.8576e-05,0.032391,-8.0698e-05,-166.18,1.0863
29358,15.339,4.5455,0.1,0.00020424,2041,0.00020054,1944.1,-5.8197e-05,0.052087,-8.2377e-05,-181.63,1.0978
29359,15.247,4.8182,0.1,0.000197,1968.7,0.00019378,1883.4,-5.6891e-05,0.018724,-7.8268e-05,-160.6,1.0858
29360,15.339,4.7273,0.1,0.00019753,1973.9,0.00019389,1878.8,-5.6154e-05,0.037224,-7.9879e-05,-178.22,1.0972
29361,15.247,5,0.1,0.00019096,1908.3,0.000188,1829.7,-5.5513e-05,0.0049238,-7.529e-05,-148.59,1.0852
29362,15.339,4.9091,0.1,0.00019065,1905.2,0.00018725,1816,-5.4442e-05,0.022538,-7.6713e-05,-167.31,1.0967
29363,15.247,5.1818,0.1,0.00018508,1849.5,0.0001825,1780.6,-5.4478e-05,-0.0057401,-7.1896e-05,-130.88,1.0846
29364,15.339,5.0909,0.1,0.00018388,1837.5,0.00018087,1758,-5.3102e-05,0.0055161,-7.3053e-05,-149.9,1.0961
29365,15.247,5.3636,0.1,0.00017954,1794.2,0.00017745,1737.6,-5.3807e-05,-0.02282,-6.8211e-05,-108.25,1.0839
29366,15.339,5.2727,0.1,0.00017748,1773.6,0.00017497,1706.5,-5.2154e-05,-0.0049365,-6.9084e-05,-127.21,1.0954
29367,15.247,5.5455,0.1,0.00017449,1743.7,0.00017296,1701.7,-5.3509e-05,0.031464,-6.4319e-05,-81.193,1.0832
29368,15.339,5.4545,0.1,0.00017165,1715.3,0.00016972,1662.9,-5.1608e-05,-0.037034,-6.4945e-05,-100.24,1.0947
29369,15.247,5.7273,0.1,0.00016996,1698.5,0.00016906,1673.1,-5.3604e-05,0.055315,-6.0225e-05,-49.691,1.0824
29370,15.339,5.6364,0.1,0.00016648,1663.6,0.00016519,1627.9,-5.146e-05,0.10005,-6.0697e-05,-69.302,1.094
29371,15.339,5.8182,0.1,0.00016196,1618.5,0.00016135,1601.2,-5.1745e-05,0.046101,-5.6288e-05,-34.094,1.0932
29372,15.247,5.9091,0.1,0.0001664,1662.8,0.00016609,1653.9,-5.4028e-05,0.0080622,-5.6396e-05,-17.789,1.0816
29373,15.43,0.27273,0.1,0.00015847,1583.6,0.00015749,1556.1,-4.9611e-05,0.016821,-5.6762e-05,-53.71,1.1049
29374,15.522,0.18182,0.1,0.00014948,1493.8,0.00014883,1475.2,-4.7513e-05,-0.037048,-5.2365e-05,-36.49,1.1157
29375,15.43,0.090909,0.1,0.00015445,1543.4,0.00015411,1533.8,-5.0026e-05,-0.00014569,-5.2546e-05,-18.931,1.1041
29376,15.43,0.45455,0.1,0.00016367,1635.5,0.00016198,1589.5,-4.9561e-05,0.020392,-6.1353e-05,-88.578,1.1056
29377,15.522,0.36364,0.1,0.00015454,1544.3,0.00015314,1505.8,-4.7257e-05,0.077296,-5.7183e-05,-74.506,1.1165
29378,15.43,0.63636,0.1,0.00016965,1695.3,0.00016729,1632.3,-4.9956e-05,-0.023039,-6.5872e-05,-119.61,1.1063
29379,15.522,0.54545,0.1,0.00016054,1604.2,0.0001584,1546.9,-4.7481e-05,-0.044415,-6.2005e-05,-109.17,1.1173
29380,15.43,0.81818,0.1,0.00017637,1762.5,0.00017341,1684.5,-5.0778e-05,0.0047099,-7.0316e-05,-146.79,1.107
29381,15.522,0.72727,0.1,0.00016751,1674,0.00016467,1599,-4.8148e-05,0.0028241,-6.6911e-05,-140.97,1.118
29382,15.43,1,0.1,0.00018367,1835.4,0.0001802,1745,-5.2031e-05,0.022452,-7.4564e-05,-169.28,1.1077
29383,15.522,0.90909,0.1,0.00017536,1752.4,0.00017187,1661.6,-4.9277e-05,0.023677,-7.1818e-05,-169.34,1.1186
29384,15.43,1.1818,0.1,0.00019129,1911.6,0.00018746,1812.1,-5.3705e-05,0.040748,-7.8416e-05,-185.63,1.1082
29385,15.522,1.0909,0.1,0.00018385,1837.3,0.00017982,1733.4,-5.0875e-05,0.047962,-7.6518e-05,-192.62,1.1192
29386,15.43,1.3636,0.1,0.00019891,1987.8,0.00019489,1883.5,-5.5775e-05,0.056689,-8.1646e-05,-194.32,1.1088
29387,15.522,1.2727,0.1,0.00019262,1924.9,0.00018822,1812.1,-5.2945e-05,0.066891,-8.072e-05,-208.62,1.1198
29388,15.43,1.5455,0.1,0.0002062,2060.6,0.00020221,1956.5,-5.8182e-05,0.071748,-8.4069e-05,-194.43,1.1093
29389,15.522,1.4545,0.1,0.00020126,2011.2,0.00019673,1894.9,-5.5459e-05,0.084643,-8.4119e-05,-215.26,1.1203
29390,15.43,1.7273,0.1,0.0002129,2127.5,0.00020912,2028.3,-6.0824e-05,0.085143,-8.5617e-05,-186.2,1.1097
29391,15.522,1.6364,0.1,0.00020936,2092.1,0.00020496,1978.4,-5.8338e-05,0.10229,-8.6498e-05,-211.48,1.1208
29392,15.43,1.9091,0.1,0.00021884,2186.9,0.00021542,2096.2,-6.3555e-05,0.090795,-8.6375e-05,-171.37,1.11
29393,15.522,1.8182,0.1,0.00021664,2164.9,0.00021259,2059.1,-6.1441e-05,0.11354,-8.7828e-05,-198.15,1.1212
29394,15.43,2.0909,0.1,0.00022398,2238.3,0.00022099,2157.9,-6.6203e-05,0.080317,-8.6566e-05,-152.92,1.1104
29395,15.522,2,0.1,0.00022299,2228.3,0.00021942,2133.9,-6.4568e-05,0.11496,-8.8311e-05,-178.28,1.1215
29396,15.43,2.2727,0.1,0.00022831,2281.6,0.00022573,2211.5,-6.8594e-05,0.049909,-8.6461e-05,-134.19,1.1106
29397,15.522,2.1818,0.1,0.0002284,2282.5,0.00022535,2200.4,-6.7495e-05,0.088723,-8.8299e-05,-156.22,1.1218
29398,15.43,2.4545,0.1,0.00023182,2316.6,0.00022959,2255.3,-7.0581e-05,0.00098763,-8.6285e-05,-117.99,1.1108
29399,15.522,2.3636,0.1,0.00023292,2327.5,0.0002303,2256.5,-7.002e-05,0.029165,-8.8136e-05,-136.09,1.1221
29400,15.43,2.6364,0.1,0.00023443,2342.7,0.00023245,2287.9,-7.2058e-05,-0.054548,-8.6156e-05,-105.98,1.111
29401,15.522,2.5455,0.1,0.00023647,2363.1,0.00023419,2300.5,-7.1993e-05,-0.040048,-8.8027e-05,-120.52,1.1222
29402,15.43,2.8182,0.1,0.00023606,2358.9,0.00023422,2308,-7.2963e-05,-0.097417,-8.6097e-05,-98.776,1.111
29403,15.522,2.7273,0.1,0.00023895,2387.9,0.00023688,2330.7,-7.3332e-05,-0.098221,-8.8011e-05,-110.39,1.1223
29404,15.43,3,0.1,0.00023661,2364.5,0.00023482,2314.7,-7.3268e-05,-0.11329,-8.6082e-05,-96.394,1.1111
29405,15.522,2.9091,0.1,0.00024024,2400.7,0.00023827,2346.2,-7.4005e-05,-0.13119,-8.8032e-05,-105.52,1.1224
29406,15.43,3.1818,0.1,0.00023606,2358.9,0.00023422,2308,-7.2963e-05,-0.097417,-8.6097e-05,-98.776,1.111
29407,15.522,3.0909,0.1,0.00024024,2400.7,0.00023827,2346.2,-7.4005e-05,-0.13119,-8.8032e-05,-105.52,1.1224
29408,15.43,3.3636,0.1,0.00023443,2342.7,0.00023245,2287.9,-7.2058e-05,-0.054548,-8.6156e-05,-105.98,1.111
29409,15.522,3.2727,0.1,0.00023895,2387.9,0.00023688,2330.7,-7.3332e-05,-0.098222,-8.8011e-05,-110.39,1.1223
29410,15.43,3.5455,0.1,0.00023182,2316.6,0.00022959,2255.3,-7.0581e-05,0.00098815,-8.6285e-05,-117.99,1.1108
29411,15.522,3.4545,0.1,0.00023647,2363.1,0.00023419,2300.5,-7.1993e-05,-0.040047,-8.8027e-05,-120.52,1.1222
29412,15.43,3.7273,0.1,0.00022831,2281.6,0.00022573,2211.5,-6.8594e-05,0.049909,-8.6461e-05,-134.19,1.1106
29413,15.522,3.6364,0.1,0.00023292,2327.5,0.0002303,2256.5,-7.002e-05,0.029165,-8.8136e-05,-136.09,1.1221
29414,15.43,3.9091,0.1,0.00022398,2238.3,0.00022099,2157.9,-6.6203e-05,0.080317,-8.6566e-05,-152.92,1.1104
29415,15.522,3.8182,0.1,0.0002284,2282.5,0.00022535,2200.4,-6.7495e-05,0.088723,-8.8299e-05,-156.22,1.1218
29416,15.43,4.0909,0.1,0.00021884,2186.9,0.00021542,2096.2,-6.3555e-05,0.090795,-8.6375e-05,-171.37,1.11
29417,15.522,4,0.1,0.00022299,2228.3,0.00021942,2133.9,-6.4568e-05,0.11496,-8.8311e-05,-178.28,1.1215
29418,15.43,4.2727,0.1,0.0002129,2127.5,0.00020912,2028.3,-6.0824e-05,0.085143,-8.5617e-05,-186.2,1.1097
29419,15.522,4.1818,0.1,0.00021664,2164.9,0.00021259,2059.1,-6.1441e-05,0.11354,-8.7828e-05,-198.15,1.1212
29420,15.43,4.4545,0.1,0.0002062,2060.6,0.00020221,1956.5,-5.8182e-05,0.071748,-8.4069e-05,-194.43,1.1093
29421,15.522,4.3636,0.1,0.00020936,2092.1,0.00020496,1978.4,-5.8338e-05,0.10229,-8.6498e-05,-211.48,1.1208
29422,15.43,4.6364,0.1,0.00019891,1987.8,0.00019489,1883.5,-5.5775e-05,0.05669,-8.1646e-05,-194.32,1.1088
29423,15.522,4.5455,0.1,0.00020126,2011.2,0.00019673,1894.9,-5.5459e-05,0.084644,-8.4119e-05,-215.26,1.1203
29424,15.43,4.8182,0.1,0.00019129,1911.6,0.00018746,1812.1,-5.3705e-05,0.040748,-7.8416e-05,-185.63,1.1082
29425,15.522,4.7273,0.1,0.00019262,1924.9,0.00018822,1812.1,-5.2945e-05,0.066892,-8.072e-05,-208.62,1.1198
29426,15.43,5,0.1,0.00018367,1835.4,0.0001802,1745,-5.2031e-05,0.022453,-7.4564e-05,-169.28,1.1077
29427,15.522,4.9091,0.1,0.00018385,1837.3,0.00017982,1733.4,-5.0875e-05,0.047962,-7.6518e-05,-192.62,1.1192
29428,15.43,5.1818,0.1,0.00017637,1762.5,0.00017341,1684.5,-5.0778e-05,0.0047116,-7.0316e-05,-146.79,1.107
29429,15.522,5.0909,0.1,0.00017536,1752.4,0.00017187,1661.6,-4.9277e-05,0.023679,-7.1818e-05,-169.34,1.1186
29430,15.43,5.3636,0.1,0.00016965,1695.3,0.00016729,1632.3,-4.9956e-05,-0.023037,-6.5872e-05,-119.61,1.1063
29431,15.522,5.2727,0.1,0.00016751,1674,0.00016467,1599,-4.8148e-05,0.0028257,-6.6911e-05,-140.97,1.118
29432,15.43,5.5455,0.1,0.00016367,1635.5,0.00016198,1589.5,-4.9561e-05,0.020392,-6.1353e-05,-88.578,1.1056
29433,15.522,5.4545,0.1,0.00016054,1604.2,0.0001584,1546.9,-4.7481e-05,-0.044414,-6.2005e-05,-109.17,1.1173
29434,15.43,5.7273,0.1,0.00015847,1583.6,0.00015749,1556.1,-4.9611e-05,0.016821,-5.6762e-05,-53.71,1.1049
29435,15.522,5.6364,0.1,0.00015454,1544.3,0.00015314,1505.8,-4.7257e-05,0.077296,-5.7183e-05,-74.506,1.1165
29436,15.522,5.8182,0.1,0.00014948,1493.8,0.00014883,1475.2,-4.7513e-05,-0.037048,-5.2365e-05,-36.49,1.1157
29437,15.43,5.9091,0.1,0.00015445,1543.4,0.00015411,1533.8,-5.0026e-05,-0.00014565,-5.2546e-05,-18.931,1.1041
29438,15.614,0.27273,0.1,0.00014556,1454.6,0.0001445,1425,-4.5168e-05,-0.041937,-5.2799e-05,-57.378,1.1274
29439,15.706,0.18182,0.1,0.00013551,1354.2,0.00013481,1334.4,-4.2802e-05,-0.15812,-4.7931e-05,-38.69,1.1383
29440,15.614,0.090909,0.1,0.00014104,1409.5,0.00014069,1399.3,-4.555e-05,-0.013753,-4.8213e-05,-20.02,1.1266
29441,15.614,0.45455,0.1,0.00015146,1513.5,0.00014961,1463.5,-4.5177e-05,0.0029039,-5.7885e-05,-95.474,1.1282
29442,15.706,0.36364,0.1,0.00014107,1409.8,0.00013957,1368.7,-4.2595e-05,0.038404,-5.3082e-05,-78.758,1.1391
29443,15.614,0.63636,0.1,0.0001585,1583.9,0.00015586,1514.2,-4.5673e-05,-0.021598,-6.3132e-05,-131.2,1.1289
29444,15.706,0.54545,0.1,0.00014797,1478.7,0.00014562,1416.4,-4.29e-05,-0.053974,-5.853e-05,-117.49,1.1399
29445,15.614,0.81818,0.1,0.00016665,1665.4,0.00016325,1577.1,-4.6647e-05,0.020765,-6.8537e-05,-164.45,1.1296
29446,15.706,0.72727,0.1,0.00015629,1561.8,0.00015307,1478.3,-4.3683e-05,0.011938,-6.4375e-05,-155.47,1.1406
29447,15.614,1,0.1,0.00017573,1756.1,0.00017163,1651.2,-4.8122e-05,0.048975,-7.3921e-05,-193.79,1.1303
29448,15.706,0.90909,0.1,0.00016593,1658.1,0.00016183,1553.9,-4.4979e-05,0.04719,-7.0505e-05,-191.74,1.1413
29449,15.614,1.1818,0.1,0.00018538,1852.5,0.00018074,1734.6,-5.0116e-05,0.074202,-7.8979e-05,-216.79,1.1309
29450,15.706,1.0909,0.1,0.00017659,1764.6,0.00017171,1642.1,-4.683e-05,0.082964,-7.6621e-05,-223.75,1.1419
29451,15.614,1.3636,0.1,0.00019515,1950.2,0.00019021,1824.7,-5.2629e-05,0.094845,-8.334e-05,-230.65,1.1314
29452,15.706,1.2727,0.1,0.0001878,1876.7,0.00018235,1740.5,-4.928e-05,0.11079,-8.2283e-05,-247.86,1.1425
29453,15.614,1.5455,0.1,0.00020457,2044.3,0.0001996,1917.7,-5.5615e-05,0.11474,-8.667e-05,-233.22,1.1319
29454,15.706,1.4545,0.1,0.00019898,1988.4,0.00019327,1845.6,-5.2341e-05,0.12741,-8.6983e-05,-260.16,1.143
29455,15.614,1.7273,0.1,0.00021321,2130.7,0.00020852,2009.8,-5.8955e-05,0.12975,-8.8801e-05,-224.12,1.1323
29456,15.706,1.6364,0.1,0.0002095,2093.6,0.00020392,1952.7,-5.5951e-05,0.1316,-9.0303e-05,-257.97,1.1435
29457,15.614,1.9091,0.1,0.00022086,2207.1,0.00021665,2097.2,-6.2454e-05,0.13656,-8.9828e-05,-205.54,1.1327
29458,15.706,1.8182,0.1,0.00021892,2187.7,0.00021381,2056.9,-5.9929e-05,0.14518,-9.2112e-05,-241.66,1.1439
29459,15.614,2.0909,0.1,0.00022746,2273,0.00022382,2176.6,-6.586e-05,0.12211,-9.0085e-05,-181.89,1.133
29460,15.706,2,0.1,0.00022706,2269.1,0.00022263,2153.6,-6.3987e-05,0.11879,-9.2695e-05,-215.58,1.1443
29461,15.614,2.2727,0.1,0.00023303,2328.7,0.00022994,2245.6,-6.8921e-05,0.065927,-8.9995e-05,-158.28,1.1333
29462,15.706,2.1818,0.1,0.00023398,2338.2,0.00023025,2239.3,-6.7777e-05,0.064119,-9.2633e-05,-186.69,1.1446
29463,15.614,2.4545,0.1,0.00023757,2374.1,0.00023491,2301.7,-7.1432e-05,-0.015797,-8.9883e-05,-138.64,1.1335
29464,15.706,2.3636,0.1,0.00023976,2396,0.00023661,2311.2,-7.0991e-05,0.0052107,-9.2476e-05,-161.42,1.1448
29465,15.614,2.6364,0.1,0.00024098,2408.2,0.00023862,2343.3,-7.3268e-05,-0.089801,-8.9872e-05,-124.85,1.1337
29466,15.706,2.5455,0.1,0.00024434,2441.7,0.00024159,2366.9,-7.3442e-05,-0.079304,-9.2491e-05,-143.21,1.145
29467,15.614,2.8182,0.1,0.00024311,2429.5,0.00024091,2368.8,-7.4375e-05,-0.13954,-8.9926e-05,-116.98,1.1338
29468,15.706,2.7273,0.1,0.00024754,2473.7,0.00024503,2404.9,-7.5062e-05,-0.14861,-9.2648e-05,-132.28,1.1451
29469,15.614,3,0.1,0.00024384,2436.7,0.00024169,2377.4,-7.4744e-05,-0.15711,-8.9957e-05,-114.47,1.1338
29470,15.706,2.9091,0.1,0.00024919,2490.2,0.00024678,2424,-7.586e-05,-0.1799,-9.2786e-05,-127.36,1.1452
29471,15.614,3.1818,0.1,0.00024311,2429.5,0.00024091,2368.8,-7.4375e-05,-0.13954,-8.9926e-05,-116.98,1.1338
29472,15.706,3.0909,0.1,0.00024919,2490.2,0.00024678,2424,-7.586e-05,-0.1799,-9.2786e-05,-127.36,1.1452
29473,15.614,3.3636,0.1,0.00024098,2408.2,0.00023862,2343.3,-7.3268e-05,-0.089801,-8.9872e-05,-124.85,1.1337
29474,15.706,3.2727,0.1,0.00024754,2473.7,0.00024503,2404.9,-7.5062e-05,-0.14861,-9.2648e-05,-132.28,1.1451
29475,15.614,3.5455,0.1,0.00023757,2374.1,0.00023491,2301.7,-7.1432e-05,-0.015797,-8.9883e-05,-138.64,1.1335
29476,15.706,3.4545,0.1,0.00024434,2441.7,0.00024159,2366.9,-7.3442e-05,-0.079305,-9.2491e-05,-143.21,1.145
29477,15.614,3.7273,0.1,0.00023303,2328.7,0.00022994,2245.6,-6.8921e-05,0.065928,-8.9995e-05,-158.28,1.1333
29478,15.706,3.6364,0.1,0.00023976,2396,0.00023661,2311.2,-7.0991e-05,0.0052111,-9.2476e-05,-161.42,1.1448
29479,15.614,3.9091,0.1,0.00022746,2273,0.00022382,2176.6,-6.586e-05,0.12211,-9.0085e-05,-181.89,1.133
29480,15.706,3.8182,0.1,0.00023398,2338.2,0.00023025,2239.3,-6.7777e-05,0.06412,-9.2632e-05,-186.69,1.1446
29481,15.614,4.0909,0.1,0.00022086,2207.1,0.00021665,2097.2,-6.2454e-05,0.13656,-8.9828e-05,-205.54,1.1327
29482,15.706,4,0.1,0.00022706,2269.1,0.00022263,2153.6,-6.3987e-05,0.11879,-9.2695e-05,-215.58,1.1443
29483,15.614,4.2727,0.1,0.00021321,2130.7,0.00020852,2009.8,-5.8955e-05,0.12975,-8.8801e-05,-224.12,1.1323
29484,15.706,4.1818,0.1,0.00021892,2187.7,0.00021381,2056.9,-5.9929e-05,0.14518,-9.2112e-05,-241.66,1.1439
29485,15.614,4.4545,0.1,0.00020457,2044.3,0.0001996,1917.7,-5.5615e-05,0.11474,-8.667e-05,-233.22,1.1319
29486,15.706,4.3636,0.1,0.0002095,2093.6,0.00020392,1952.7,-5.5951e-05,0.1316,-9.0302e-05,-257.97,1.1435
29487,15.614,4.6364,0.1,0.00019515,1950.2,0.00019021,1824.7,-5.2629e-05,0.094846,-8.334e-05,-230.65,1.1314
29488,15.706,4.5455,0.1,0.00019898,1988.4,0.00019327,1845.6,-5.2341e-05,0.12741,-8.6983e-05,-260.16,1.143
29489,15.614,4.8182,0.1,0.00018538,1852.5,0.00018074,1734.6,-5.0116e-05,0.074203,-7.8979e-05,-216.79,1.1309
29490,15.706,4.7273,0.1,0.0001878,1876.7,0.00018235,1740.5,-4.928e-05,0.11079,-8.2283e-05,-247.86,1.1425
29491,15.614,5,0.1,0.00017573,1756.1,0.00017163,1651.2,-4.8122e-05,0.048976,-7.3921e-05,-193.79,1.1303
29492,15.706,4.9091,0.1,0.00017659,1764.6,0.00017171,1642.1,-4.683e-05,0.082964,-7.6621e-05,-223.75,1.1419
29493,15.614,5.1818,0.1,0.00016665,1665.4,0.00016325,1577.1,-4.6647e-05,0.020767,-6.8537e-05,-164.45,1.1296
29494,15.706,5.0909,0.1,0.00016593,1658.1,0.00016183,1553.9,-4.4979e-05,0.047192,-7.0505e-05,-191.74,1.1413
29495,15.614,5.3636,0.1,0.0001585,1583.9,0.00015586,1514.2,-4.5673e-05,-0.021597,-6.3132e-05,-131.2,1.1289
29496,15.706,5.2727,0.1,0.00015629,1561.8,0.00015307,1478.3,-4.3683e-05,0.01194,-6.4375e-05,-155.46,1.1406
29497,15.614,5.5455,0.1,0.00015146,1513.5,0.00014961,1463.5,-4.5177e-05,0.002904,-5.7885e-05,-95.474,1.1282
29498,15.706,5.4545,0.1,0.00014797,1478.7,0.00014562,1416.4,-4.29e-05,-0.053974,-5.853e-05,-117.49,1.1399
29499,15.614,5.7273,0.1,0.00014556,1454.6,0.0001445,1425,-4.5168e-05,-0.041937,-5.2799e-05,-57.378,1.1274
29500,15.706,5.6364,0.1,0.00014107,1409.8,0.00013957,1368.7,-4.2595e-05,0.038404,-5.3082e-05,-78.758,1.1391
29501,15.706,5.8182,0.1,0.00013551,1354.2,0.00013481,1334.4,-4.2802e-05,-0.15812,-4.7931e-05,-38.69,1.1383
29502,15.614,5.9091,0.1,0.00014104,1409.5,0.00014069,1399.3,-4.555e-05,-0.013753,-4.8213e-05,-20.02,1.1266
29503,15.798,0.27273,0.1,0.00013105,1309.6,0.00012992,1278.4,-4.0236e-05,-0.12274,-4.8244e-05,-60.294,1.1501
29504,15.89,0.18182,0.1,0.00011992,1198.4,0.00011918,1177.5,-3.758e-05,-0.29741,-4.292e-05,-40.416,1.161
29505,15.798,0.090909,0.1,0.00012603,1259.4,0.00012566,1248.8,-4.0551e-05,-0.037259,-4.333e-05,-20.914,1.1493
29506,15.798,0.45455,0.1,0.00013767,1375.7,0.00013566,1322.2,-4.0319e-05,-0.024279,-5.3807e-05,-101.37,1.1508
29507,15.89,0.36364,0.1,0.00012591,1258.2,0.00012433,1215.5,-3.7451e-05,-0.010027,-4.8291e-05,-81.458,1.1618
29508,15.798,0.63636,0.1,0.00014593,1458.3,0.00014297,1381.6,-4.091e-05,-0.021597,-5.9917e-05,-142.83,1.1516
29509,15.89,0.54545,0.1,0.00013381,1337.2,0.00013125,1270.4,-3.7837e-05,-0.058416,-5.4437e-05,-124.78,1.1626
29510,15.798,0.81818,0.1,0.00015581,1557.1,0.00015186,1456.7,-4.2015e-05,0.038428,-6.6549e-05,-184.31,1.1523
29511,15.89,0.72727,0.1,0.00014371,1436.2,0.00014004,1343.1,-3.8707e-05,0.026319,-6.1453e-05,-170.88,1.1633
29512,15.798,1,0.1,0.0001671,1669.8,0.00016217,1546.8,-4.3688e-05,0.081714,-7.3455e-05,-223.58,1.153
29513,15.89,0.90909,0.1,0.00015552,1554.1,0.00015065,1433.5,-4.0123e-05,0.081267,-6.9179e-05,-218.24,1.164
29514,15.798,1.1818,0.1,0.00017934,1792.2,0.00017359,1650,-4.5995e-05,0.12031,-8.019e-05,-256.81,1.1536
29515,15.89,1.0909,0.1,0.00016889,1687.7,0.00016287,1540.7,-4.2176e-05,0.13695,-7.7217e-05,-263.14,1.1647
29516,15.798,1.3636,0.1,0.00019194,1918.1,0.00018566,1763.3,-4.8993e-05,0.14391,-8.6173e-05,-279.21,1.1542
29517,15.89,1.2727,0.1,0.00018326,1831.4,0.0001763,1662.8,-4.4985e-05,0.17624,-8.4947e-05,-300.08,1.1653
29518,15.798,1.5455,0.1,0.00020417,2040.3,0.00019779,1882,-5.2677e-05,0.14395,-9.0817e-05,-286.42,1.1547
29519,15.89,1.4545,0.1,0.00019783,1977,0.00019037,1796.1,-4.8646e-05,0.21198,-9.1574e-05,-322.33,1.1659
29520,15.798,1.7273,0.1,0.0002154,2152.5,0.00020935,2000.9,-5.6925e-05,0.14549,-9.3758e-05,-276.61,1.1551
29521,15.89,1.6364,0.1,0.00021164,2114.9,0.00020426,1934.4,-5.3158e-05,0.28068,-9.6299e-05,-323.86,1.1664
29522,15.798,1.9091,0.1,0.00022524,2250.8,0.00021988,2114,-6.1463e-05,0.12516,-9.5075e-05,-252.42,1.1555
29523,15.89,1.8182,0.1,0.00022391,2237.5,0.0002172,2070.4,-5.833e-05,0.22676,-9.8741e-05,-303.41,1.1668
29524,15.798,2.0909,0.1,0.00023365,2334.9,0.00022911,2216.7,-6.5905e-05,0.058155,-9.53e-05,-220.8,1.1559
29525,15.89,2,0.1,0.00023433,2341.7,0.00022864,2196.7,-6.3693e-05,0.24462,-9.9289e-05,-267.21,1.1672
29526,15.798,2.2727,0.1,0.00024074,2405.8,0.00023695,2305.1,-6.9847e-05,-0.00077526,-9.5138e-05,-190.03,1.1562
29527,15.89,2.1818,0.1,0.00024308,2429.1,0.00023841,2307.5,-6.8673e-05,0.1793,-9.8961e-05,-227.39,1.1675
29528,15.798,2.4545,0.1,0.00024653,2463.6,0.00024329,2376.4,-7.3001e-05,-0.064886,-9.5082e-05,-165.97,1.1564
29529,15.89,2.3636,0.1,0.00025036,2501.8,0.00024647,2398.7,-7.2784e-05,-0.06463,-9.8707e-05,-194.84,1.1678
29530,15.798,2.6364,0.1,0.00025088,2507,0.00024798,2428.4,-7.5237e-05,-0.14607,-9.5241e-05,-150.45,1.1565
29531,15.89,2.5455,0.1,0.00025607,2558.9,0.00025267,2467.6,-7.5766e-05,-0.17146,-9.8866e-05,-173.74,1.168
29532,15.798,2.8182,0.1,0.00025358,2534,0.00025086,2459.8,-7.6548e-05,-0.19703,-9.5466e-05,-142.34,1.1566
29533,15.89,2.7273,0.1,0.00026,2598.2,0.00025685,2513,-7.7639e-05,-0.21328,-9.9249e-05,-162.58,1.1681
29534,15.798,3,0.1,0.0002545,2543.2,0.00025183,2470.3,-7.6977e-05,-0.21065,-9.5567e-05,-139.89,1.1567
29535,15.89,2.9091,0.1,0.00026199,2618.1,0.00025894,2535.4,-7.8528e-05,-0.23311,-9.9534e-05,-158.06,1.1682
29536,15.798,3.1818,0.1,0.00025358,2534,0.00025086,2459.8,-7.6548e-05,-0.19703,-9.5466e-05,-142.34,1.1566
29537,15.89,3.0909,0.1,0.00026199,2618.1,0.00025894,2535.4,-7.8528e-05,-0.23311,-9.9534e-05,-158.06,1.1682
29538,15.798,3.3636,0.1,0.00025088,2507,0.00024798,2428.4,-7.5237e-05,-0.14607,-9.5241e-05,-150.45,1.1565
29539,15.89,3.2727,0.1,0.00026,2598.2,0.00025685,2513,-7.7639e-05,-0.21328,-9.9249e-05,-162.58,1.1681
29540,15.798,3.5455,0.1,0.00024653,2463.6,0.00024329,2376.4,-7.3001e-05,-0.064886,-9.5082e-05,-165.97,1.1564
29541,15.89,3.4545,0.1,0.00025607,2558.9,0.00025267,2467.6,-7.5766e-05,-0.17146,-9.8866e-05,-173.74,1.168
29542,15.798,3.7273,0.1,0.00024074,2405.8,0.00023695,2305.1,-6.9847e-05,-0.00077507,-9.5138e-05,-190.03,1.1562
29543,15.89,3.6364,0.1,0.00025036,2501.8,0.00024647,2398.7,-7.2784e-05,-0.06463,-9.8707e-05,-194.83,1.1678
29544,15.798,3.9091,0.1,0.00023365,2334.9,0.00022911,2216.7,-6.5905e-05,0.058155,-9.53e-05,-220.8,1.1559
29545,15.89,3.8182,0.1,0.00024308,2429.1,0.00023841,2307.5,-6.8673e-05,0.1793,-9.8961e-05,-227.39,1.1675
29546,15.798,4.0909,0.1,0.00022524,2250.8,0.00021988,2114,-6.1463e-05,0.12516,-9.5074e-05,-252.42,1.1555
29547,15.89,4,0.1,0.00023433,2341.7,0.00022864,2196.7,-6.3693e-05,0.24462,-9.9289e-05,-267.21,1.1672
29548,15.798,4.2727,0.1,0.0002154,2152.5,0.00020935,2000.9,-5.6925e-05,0.14549,-9.3758e-05,-276.61,1.1551
29549,15.89,4.1818,0.1,0.00022391,2237.5,0.0002172,2070.4,-5.833e-05,0.22676,-9.8741e-05,-303.41,1.1668
29550,15.798,4.4545,0.1,0.00020417,2040.3,0.00019779,1882,-5.2677e-05,0.14395,-9.0817e-05,-286.42,1.1547
29551,15.89,4.3636,0.1,0.00021164,2114.9,0.00020426,1934.4,-5.3158e-05,0.28068,-9.6299e-05,-323.86,1.1664
29552,15.798,4.6364,0.1,0.00019194,1918.1,0.00018566,1763.3,-4.8993e-05,0.14391,-8.6173e-05,-279.21,1.1542
29553,15.89,4.5455,0.1,0.00019783,1977,0.00019037,1796.1,-4.8646e-05,0.21199,-9.1574e-05,-322.33,1.1659
29554,15.798,4.8182,0.1,0.00017934,1792.2,0.00017359,1650,-4.5995e-05,0.12032,-8.019e-05,-256.81,1.1536
29555,15.89,4.7273,0.1,0.00018326,1831.4,0.0001763,1662.8,-4.4985e-05,0.17625,-8.4947e-05,-300.08,1.1653
29556,15.798,5,0.1,0.0001671,1669.8,0.00016217,1546.8,-4.3688e-05,0.081716,-7.3455e-05,-223.58,1.153
29557,15.89,4.9091,0.1,0.00016889,1687.7,0.00016287,1540.7,-4.2176e-05,0.13695,-7.7217e-05,-263.14,1.1647
29558,15.798,5.1818,0.1,0.00015581,1557.1,0.00015186,1456.7,-4.2015e-05,0.03843,-6.6549e-05,-184.31,1.1523
29559,15.89,5.0909,0.1,0.00015552,1554.1,0.00015065,1433.5,-4.0123e-05,0.081269,-6.9179e-05,-218.24,1.164
29560,15.798,5.3636,0.1,0.00014593,1458.3,0.00014297,1381.6,-4.091e-05,-0.021597,-5.9917e-05,-142.83,1.1516
29561,15.89,5.2727,0.1,0.00014371,1436.2,0.00014004,1343.1,-3.8707e-05,0.02632,-6.1453e-05,-170.88,1.1633
29562,15.798,5.5455,0.1,0.00013767,1375.7,0.00013566,1322.2,-4.0319e-05,-0.024279,-5.3807e-05,-101.37,1.1508
29563,15.89,5.4545,0.1,0.00013381,1337.2,0.00013125,1270.4,-3.7837e-05,-0.058416,-5.4437e-05,-124.78,1.1626
29564,15.798,5.7273,0.1,0.00013105,1309.6,0.00012992,1278.4,-4.0236e-05,-0.12274,-4.8244e-05,-60.294,1.1501
29565,15.89,5.6364,0.1,0.00012591,1258.2,0.00012433,1215.5,-3.7451e-05,-0.010026,-4.8291e-05,-81.458,1.1618
29566,15.89,5.8182,0.1,0.00011992,1198.4,0.00011918,1177.5,-3.758e-05,-0.29741,-4.292e-05,-40.416,1.161
29567,15.798,5.9091,0.1,0.00012603,1259.4,0.00012566,1248.8,-4.0551e-05,-0.037258,-4.333e-05,-20.914,1.1493
29568,15.982,0.27273,0.1,0.00011483,1147.5,0.00011364,1115.1,-3.4797e-05,-0.19713,-4.3022e-05,-61.998,1.1728
29569,16.073,0.18182,0.1,0.00010264,1025.7,0.00010187,1004.2,-3.1839e-05,-0.4148,-3.7283e-05,-41.319,1.1838
29570,15.982,0.090909,0.1,0.00010928,1092,0.0001089,1081.2,-3.5002e-05,-0.055801,-3.7842e-05,-21.395,1.172
29571,15.982,0.45455,0.1,0.00012219,1221,0.00012004,1164.6,-3.4969e-05,-0.042367,-4.9049e-05,-105.84,1.1736
29572,16.073,0.36364,0.1,0.000109,1089.2,0.00010737,1045.8,-3.183e-05,-0.065951,-4.2752e-05,-82.129,1.1846
29573,15.982,0.63636,0.1,0.00013187,1317.8,0.00012856,1233.6,-3.5633e-05,-0.0080243,-5.6212e-05,-154.63,1.1744
29574,16.073,0.54545,0.1,0.00011807,1179.8,0.00011528,1108.8,-3.229e-05,-0.066176,-4.9736e-05,-131.15,1.1854
29575,15.982,0.81818,0.1,0.00014384,1437.4,0.00013918,1322.5,-3.6815e-05,0.07096,-6.4429e-05,-207.41,1.1751
29576,16.073,0.72727,0.1,0.00012987,1297.8,0.00012564,1193.5,-3.3193e-05,0.025467,-5.8247e-05,-188.22,1.1862
29577,15.982,1,0.1,0.00015784,1577.3,0.00015178,1430.6,-3.8612e-05,0.13794,-7.3364e-05,-260.98,1.1758
29578,16.073,0.90909,0.1,0.00014428,1441.8,0.00013837,1299.9,-3.4632e-05,0.095539,-6.804e-05,-250.93,1.1869
29579,15.982,1.1818,0.1,0.00017339,1732.7,0.00016603,1557,-4.1166e-05,0.19446,-8.2423e-05,-309.8,1.1764
29580,16.073,1.0909,0.1,0.00016097,1608.5,0.00015329,1428.2,-3.6762e-05,0.16548,-7.8633e-05,-314.43,1.1876
29581,15.982,1.3636,0.1,0.00018971,1895.8,0.00018143,1698.8,-4.4638e-05,0.24598,-9.0765e-05,-346.33,1.177
29582,16.073,1.2727,0.1,0.00017936,1792.3,0.00017013,1577.6,-3.9809e-05,0.25946,-8.9268e-05,-371.35,1.1882
29583,15.982,1.5455,0.1,0.00020575,2056,0.00019718,1851,-4.9126e-05,0.34926,-9.7386e-05,-362.26,1.1776
29584,16.073,1.4545,0.1,0.0001985,1983.7,0.00018828,1745.9,-4.4038e-05,0.36159,-9.8822e-05,-411.27,1.1888
29585,15.982,1.7273,0.1,0.00022045,2203,0.00021233,2005.7,-5.4563e-05,0.35992,-0.00010151,-352.35,1.1781
29586,16.073,1.6364,0.1,0.000217,2168.5,0.00020672,1926.6,-4.9681e-05,0.081712,-0.00010584,-421.87,1.1894
29587,15.982,1.9091,0.1,0.00023317,2330,0.00022609,2154.1,-6.056e-05,0.34218,-0.00010309,-319.2,1.1785
29588,16.073,1.8182,0.1,0.00023322,2330.6,0.00022396,2107.6,-5.6511e-05,0.23235,-0.00010919,-395.61,1.1898
29589,15.982,2.0909,0.1,0.00024383,2436.6,0.00023801,2288,-6.6461e-05,0.36044,-0.00010302,-274.32,1.1789
29590,16.073,2,0.1,0.00024663,2464.6,0.00023902,2275.7,-6.3886e-05,-0.23686,-0.00010935,-341.81,1.1902
29591,15.982,2.2727,0.1,0.00025271,2525.4,0.00024796,2401.2,-7.1611e-05,0.10686,-0.00010255,-232.35,1.1792
29592,16.073,2.1818,0.1,0.00025753,2573.6,0.00025154,2420.1,-7.0623e-05,-0.55657,-0.00010823,-283.12,1.1906
29593,15.982,2.4545,0.1,0.00025988,2597,0.00025584,2489.7,-7.5551e-05,-0.18207,-0.00010247,-202.44,1.1794
29594,16.073,2.3636,0.1,0.00026633,2661.5,0.00026145,2533.7,-7.5784e-05,-0.15909,-0.00010761,-239.28,1.1909
29595,15.982,2.6364,0.1,0.00026514,2649.5,0.00026149,2551.8,-7.8169e-05,-0.24763,-0.00010282,-185.44,1.1796
29596,16.073,2.5455,0.1,0.00027299,2728,0.00026869,2614,-7.9248e-05,-0.30552,-0.00010783,-215.09,1.1911
29597,15.982,2.8182,0.1,0.00026832,2681.4,0.00026486,2588,-7.962e-05,-0.25613,-0.00010324,-177.71,1.1797
29598,16.073,2.7273,0.1,0.00027728,2770.9,0.00027323,2662.9,-8.1217e-05,-0.2866,-0.00010838,-204.36,1.1912
29599,15.982,3,0.1,0.00026939,2692,0.00026597,2599.8,-8.008e-05,-0.26174,-0.00010342,-175.59,1.1797
29600,16.073,2.9091,0.1,0.00027933,2791.4,0.00027538,2685.6,-8.2088e-05,-0.26272,-0.00010875,-200.58,1.1913
29601,15.982,3.1818,0.1,0.00026832,2681.4,0.00026486,2588,-7.962e-05,-0.25613,-0.00010324,-177.71,1.1797
29602,16.073,3.0909,0.1,0.00027933,2791.4,0.00027538,2685.6,-8.2088e-05,-0.26272,-0.00010875,-200.58,1.1913
29603,15.982,3.3636,0.1,0.00026514,2649.5,0.00026149,2551.8,-7.8169e-05,-0.24763,-0.00010282,-185.44,1.1796
29604,16.073,3.2727,0.1,0.00027728,2770.9,0.00027323,2662.9,-8.1217e-05,-0.2866,-0.00010838,-204.36,1.1912
29605,15.982,3.5455,0.1,0.00025988,2597,0.00025584,2489.7,-7.5551e-05,-0.18207,-0.00010247,-202.44,1.1794
29606,16.073,3.4545,0.1,0.00027299,2728,0.00026869,2614,-7.9248e-05,-0.30552,-0.00010783,-215.09,1.1911
29607,15.982,3.7273,0.1,0.00025271,2525.4,0.00024796,2401.2,-7.1611e-05,0.10686,-0.00010255,-232.35,1.1792
29608,16.073,3.6364,0.1,0.00026633,2661.5,0.00026145,2533.7,-7.5784e-05,-0.15909,-0.00010761,-239.28,1.1909
29609,15.982,3.9091,0.1,0.00024383,2436.6,0.00023801,2288,-6.6461e-05,0.36044,-0.00010302,-274.32,1.1789
29610,16.073,3.8182,0.1,0.00025753,2573.6,0.00025154,2420.1,-7.0623e-05,-0.55657,-0.00010823,-283.12,1.1906
29611,15.982,4.0909,0.1,0.00023317,2330,0.00022609,2154.1,-6.056e-05,0.34219,-0.00010309,-319.2,1.1785
29612,16.073,4,0.1,0.00024663,2464.6,0.00023902,2275.7,-6.3886e-05,-0.23686,-0.00010935,-341.81,1.1902
29613,15.982,4.2727,0.1,0.00022045,2203,0.00021233,2005.7,-5.4563e-05,0.35992,-0.00010151,-352.35,1.1781
29614,16.073,4.1818,0.1,0.00023322,2330.6,0.00022396,2107.6,-5.6511e-05,0.23235,-0.00010919,-395.61,1.1898
29615,15.982,4.4545,0.1,0.00020575,2056,0.00019718,1851,-4.9126e-05,0.34926,-9.7386e-05,-362.26,1.1776
29616,16.073,4.3636,0.1,0.000217,2168.5,0.00020672,1926.6,-4.9681e-05,0.081713,-0.00010584,-421.87,1.1894
29617,15.982,4.6364,0.1,0.00018971,1895.8,0.00018143,1698.8,-4.4638e-05,0.24598,-9.0765e-05,-346.33,1.177
29618,16.073,4.5455,0.1,0.0001985,1983.7,0.00018828,1745.9,-4.4038e-05,0.36159,-9.8822e-05,-411.27,1.1888
29619,15.982,4.8182,0.1,0.00017339,1732.7,0.00016603,1557,-4.1166e-05,0.19446,-8.2423e-05,-309.8,1.1764
29620,16.073,4.7273,0.1,0.00017936,1792.3,0.00017013,1577.6,-3.9809e-05,0.25946,-8.9268e-05,-371.35,1.1882
29621,15.982,5,0.1,0.00015784,1577.3,0.00015178,1430.6,-3.8612e-05,0.13794,-7.3364e-05,-260.98,1.1758
29622,16.073,4.9091,0.1,0.00016097,1608.5,0.00015329,1428.2,-3.6762e-05,0.16549,-7.8633e-05,-314.43,1.1876
29623,15.982,5.1818,0.1,0.00014384,1437.4,0.00013918,1322.5,-3.6815e-05,0.070962,-6.4429e-05,-207.41,1.1751
29624,16.073,5.0909,0.1,0.00014428,1441.8,0.00013837,1299.9,-3.4632e-05,0.095542,-6.804e-05,-250.92,1.1869
29625,15.982,5.3636,0.1,0.00013187,1317.8,0.00012856,1233.6,-3.5633e-05,-0.0080233,-5.6212e-05,-154.63,1.1744
29626,16.073,5.2727,0.1,0.00012987,1297.8,0.00012564,1193.5,-3.3193e-05,0.025468,-5.8247e-05,-188.22,1.1862
29627,15.982,5.5455,0.1,0.00012219,1221,0.00012004,1164.6,-3.4969e-05,-0.042366,-4.9049e-05,-105.84,1.1736
29628,16.073,5.4545,0.1,0.00011807,1179.8,0.00011528,1108.8,-3.229e-05,-0.066175,-4.9736e-05,-131.15,1.1854
29629,15.982,5.7273,0.1,0.00011483,1147.5,0.00011364,1115.1,-3.4797e-05,-0.19713,-4.3022e-05,-61.998,1.1728
29630,16.073,5.6364,0.1,0.000109,1089.2,0.00010737,1045.8,-3.183e-05,-0.065951,-4.2752e-05,-82.129,1.1846
29631,16.073,5.8182,0.1,0.00010264,1025.7,0.00010187,1004.2,-3.1839e-05,-0.4148,-3.7283e-05,-41.319,1.1838
29632,15.982,5.9091,0.1,0.00010928,1092,0.0001089,1081.2,-3.5002e-05,-0.0558,-3.7842e-05,-21.395,1.172
29633,16.165,0.27273,0.1,9.6894e-05,968.27,9.5684e-05,935.58,-2.8868e-05,-0.25244,-3.7108e-05,-62.17,1.1956
29634,16.257,0.18182,0.1,8.3707e-05,836.5,8.2931e-05,815.13,-2.5591e-05,-0.26605,-3.101e-05,-40.986,1.2066
29635,16.165,0.090909,0.1,9.078e-05,907.17,9.0399e-05,896.34,-2.8911e-05,-0.10605,-3.1716e-05,-21.18,1.1948
29636,16.165,0.45455,0.1,0.00010511,1050.4,0.00010283,991.56,-2.9149e-05,-0.074047,-4.3658e-05,-109.09,1.1964
29637,16.257,0.36364,0.1,9.0528e-05,904.66,8.8879e-05,861.47,-2.5772e-05,0.022831,-3.655e-05,-80.956,1.2075
29638,16.165,0.63636,0.1,0.00011654,1164.6,0.00011278,1071.6,-2.9848e-05,-0.024264,-5.2179e-05,-167.8,1.1972
29639,16.257,0.54545,0.1,0.00010116,1010.9,9.8093e-05,934.65,-2.6297e-05,0.034032,-4.4697e-05,-138.22,1.2083
29640,16.165,0.81818,0.1,0.00013103,1309.4,0.00012541,1175.3,-3.101e-05,0.054153,-6.2441e-05,-236.11,1.198
29641,16.257,0.72727,0.1,0.00011533,1152.5,0.0001103,1032.9,-2.7151e-05,0.10526,-5.5164e-05,-210.37,1.2091
29642,16.165,1,0.1,0.00014831,1482.1,0.00014059,1302.8,-3.2782e-05,0.12523,-7.4018e-05,-309.71,1.1987
29643,16.257,0.90909,0.1,0.0001328,1327,0.00012534,1155.7,-2.8452e-05,0.17243,-6.755e-05,-293.59,1.2098
29644,16.165,1.1818,0.1,0.00016793,1678.2,0.00015815,1454.5,-3.5405e-05,0.2323,-8.6236e-05,-381.69,1.1994
29645,16.257,1.0909,0.1,0.00015332,1532.1,0.00014318,1304.6,-3.0417e-05,0.30221,-8.1383e-05,-382.64,1.2105
29646,16.165,1.3636,0.1,0.00018912,1889.9,0.00017769,1630.1,-3.9209e-05,0.37768,-9.8034e-05,-441.61,1.2
29647,16.257,1.2727,0.1,0.00017659,1764.7,0.00016386,1482.7,-3.3416e-05,0.42946,-9.5953e-05,-469.45,1.2112
29648,16.165,1.5455,0.1,0.00021052,2103.8,0.00019838,1825.7,-4.4593e-05,0.097022,-0.00010783,-475.02,1.2006
29649,16.257,1.4545,0.1,0.00020197,2018.3,0.00018725,1692.8,-3.7987e-05,0.491,-0.00011006,-541.02,1.2119
29650,16.165,1.7273,0.1,0.00023024,2300.8,0.00021869,2031,-5.1629e-05,-0.046783,-0.00011387,-467.68,1.2012
29651,16.257,1.6364,0.1,0.00022737,2272.2,0.00021212,1931.1,-4.4662e-05,1.7114,-0.00012121,-573.4,1.2125
29652,16.165,1.9091,0.1,0.00024689,2467.2,0.00023706,2230.4,-5.9839e-05,-0.35297,-0.00011562,-419.46,1.2016
29653,16.257,1.8182,0.1,0.00024987,2497,0.0002362,2181.8,-5.4047e-05,0.98266,-0.00012633,-542.12,1.213
29654,16.165,2.0909,0.1,0.00026038,2602,0.00025262,2408.2,-6.805e-05,-1.1651,-0.00011462,-351.05,1.202
29655,16.257,2,0.1,0.00026744,2672.5,0.00025677,2416.3,-6.455e-05,2.0562,-0.00012543,-455.41,1.2135
29656,16.165,2.2727,0.1,0.00027113,2709.4,0.00026502,2552.5,-7.4799e-05,-0.84058,-0.00011328,-289.95,1.2024
29657,16.257,2.1818,0.1,0.00028051,2803.1,0.00027265,2606.3,-7.407e-05,1.1033,-0.00012212,-359.9,1.2138
29658,16.165,2.4545,0.1,0.00027936,2791.7,0.00027423,2657.4,-7.9484e-05,-0.2994,-0.0001129,-251.38,1.2026
29659,16.257,2.3636,0.1,0.00029052,2903.2,0.00028427,2741.7,-8.0789e-05,-1.1833,-0.00012041,-298.86,1.2142
29660,16.165,2.6364,0.1,0.00028501,2848.1,0.00028032,2724.2,-8.2297e-05,-0.35093,-0.00011328,-233.14,1.2028
29661,16.257,2.5455,0.1,0.00029683,2966.3,0.00029128,2821.2,-8.4239e-05,-0.33157,-0.0001203,-271.26,1.2144
29662,16.165,2.8182,0.1,0.00028814,2879.4,0.00028362,2759.5,-8.3686e-05,-0.2962,-0.00011375,-226.2,1.2029
29663,16.257,2.7273,0.1,0.0003001,2999,0.00029482,2860.2,-8.5884e-05,-0.30483,-0.00012049,-260.34,1.2145
29664,16.165,3,0.1,0.00028912,2889.2,0.00028464,2770.3,-8.4096e-05,-0.26657,-0.00011394,-224.5,1.203
29665,16.257,2.9091,0.1,0.0003014,3011.9,0.00029621,2875.3,-8.6494e-05,-0.2168,-0.00012063,-256.71,1.2146
29666,16.165,3.1818,0.1,0.00028814,2879.4,0.00028362,2759.5,-8.3686e-05,-0.2962,-0.00011375,-226.2,1.2029
29667,16.257,3.0909,0.1,0.0003014,3011.9,0.00029621,2875.3,-8.6494e-05,-0.2168,-0.00012063,-256.71,1.2146
29668,16.165,3.3636,0.1,0.00028501,2848.1,0.00028032,2724.2,-8.2297e-05,-0.35093,-0.00011328,-233.14,1.2028
29669,16.257,3.2727,0.1,0.0003001,2999,0.00029482,2860.2,-8.5884e-05,-0.30483,-0.00012049,-260.34,1.2145
29670,16.165,3.5455,0.1,0.00027936,2791.7,0.00027423,2657.4,-7.9484e-05,-0.2994,-0.0001129,-251.38,1.2026
29671,16.257,3.4545,0.1,0.00029683,2966.3,0.00029128,2821.2,-8.4239e-05,-0.33157,-0.0001203,-271.26,1.2144
29672,16.165,3.7273,0.1,0.00027113,2709.4,0.00026502,2552.5,-7.4799e-05,-0.84058,-0.00011328,-289.95,1.2024
29673,16.257,3.6364,0.1,0.00029052,2903.2,0.00028427,2741.7,-8.0789e-05,-1.1833,-0.00012041,-298.86,1.2142
29674,16.165,3.9091,0.1,0.00026038,2602,0.00025262,2408.2,-6.805e-05,-1.1651,-0.00011462,-351.05,1.202
29675,16.257,3.8182,0.1,0.00028051,2803.1,0.00027265,2606.3,-7.407e-05,1.1033,-0.00012212,-359.9,1.2138
29676,16.165,4.0909,0.1,0.00024689,2467.2,0.00023706,2230.4,-5.9839e-05,-0.35297,-0.00011562,-419.46,1.2016
29677,16.257,4,0.1,0.00026744,2672.5,0.00025677,2416.3,-6.455e-05,2.0563,-0.00012543,-455.41,1.2135
29678,16.165,4.2727,0.1,0.00023024,2300.8,0.00021869,2031,-5.1629e-05,-0.046782,-0.00011387,-467.68,1.2012
29679,16.257,4.1818,0.1,0.00024987,2497,0.0002362,2181.8,-5.4047e-05,0.98267,-0.00012633,-542.12,1.213
29680,16.165,4.4545,0.1,0.00021052,2103.8,0.00019838,1825.7,-4.4593e-05,0.097023,-0.00010783,-475.02,1.2006
29681,16.257,4.3636,0.1,0.00022737,2272.2,0.00021212,1931.1,-4.4662e-05,1.7114,-0.00012121,-573.4,1.2125
29682,16.165,4.6364,0.1,0.00018912,1889.9,0.00017769,1630.1,-3.9209e-05,0.37768,-9.8033e-05,-441.61,1.2
29683,16.257,4.5455,0.1,0.00020197,2018.3,0.00018725,1692.8,-3.7987e-05,0.491,-0.00011006,-541.02,1.2119
29684,16.165,4.8182,0.1,0.00016793,1678.2,0.00015815,1454.5,-3.5405e-05,0.2323,-8.6236e-05,-381.69,1.1994
29685,16.257,4.7273,0.1,0.00017659,1764.7,0.00016386,1482.7,-3.3416e-05,0.42946,-9.5953e-05,-469.45,1.2112
29686,16.165,5,0.1,0.00014831,1482.1,0.00014059,1302.8,-3.2782e-05,0.12523,-7.4018e-05,-309.71,1.1987
29687,16.257,4.9091,0.1,0.00015332,1532.1,0.00014318,1304.6,-3.0417e-05,0.30221,-8.1383e-05,-382.64,1.2105
29688,16.165,5.1818,0.1,0.00013103,1309.4,0.00012541,1175.3,-3.101e-05,0.054154,-6.2441e-05,-236.11,1.198
29689,16.257,5.0909,0.1,0.0001328,1327,0.00012534,1155.7,-2.8452e-05,0.17243,-6.755e-05,-293.59,1.2098
29690,16.165,5.3636,0.1,0.00011654,1164.6,0.00011278,1071.6,-2.9848e-05,-0.024263,-5.2179e-05,-167.8,1.1972
29691,16.257,5.2727,0.1,0.00011533,1152.5,0.0001103,1032.9,-2.7151e-05,0.10526,-5.5164e-05,-210.37,1.2091
29692,16.165,5.5455,0.1,0.00010511,1050.4,0.00010283,991.56,-2.9149e-05,-0.074047,-4.3658e-05,-109.09,1.1964
29693,16.257,5.4545,0.1,0.00010116,1010.9,9.8093e-05,934.65,-2.6297e-05,0.034034,-4.4697e-05,-138.22,1.2083
29694,16.165,5.7273,0.1,9.6894e-05,968.27,9.5684e-05,935.58,-2.8868e-05,-0.25244,-3.7108e-05,-62.17,1.1956
29695,16.257,5.6364,0.1,9.0528e-05,904.66,8.8879e-05,861.47,-2.5772e-05,0.022831,-3.655e-05,-80.956,1.2075
29696,16.257,5.8182,0.1,8.3707e-05,836.5,8.2931e-05,815.13,-2.5591e-05,-0.26604,-3.101e-05,-40.986,1.2066
29697,16.165,5.9091,0.1,9.078e-05,907.17,9.0399e-05,896.34,-2.8911e-05,-0.10605,-3.1716e-05,-21.18,1.1948
29698,16.349,0.27273,0.1,7.7508e-05,774.55,7.6289e-05,742.24,-2.2484e-05,0.094677,-3.0626e-05,-61.077,1.2185
29699,16.441,0.18182,0.1,6.338e-05,633.36,6.2612e-05,612.65,-1.8896e-05,0.2258,-2.4217e-05,-39.76,1.2295
29700,16.349,0.090909,0.1,7.0605e-05,705.56,7.0248e-05,695.49,-2.2303e-05,0.089734,-2.4953e-05,-19.822,1.2177
29701,16.349,0.45455,0.1,8.7033e-05,869.73,8.4554e-05,807.65,-2.2916e-05,0.16435,-3.8005e-05,-113.2,1.2193
29702,16.441,0.36364,0.1,7.1342e-05,712.93,6.9614e-05,668.89,-1.9401e-05,0.066087,-3.0215e-05,-81.184,1.2304
29703,16.349,0.63636,0.1,0.00010081,1007.4,9.6341e-05,901.35,-2.3598e-05,0.1771,-4.8405e-05,-186.22,1.2201
29704,16.441,0.54545,0.1,8.4482e-05,844.24,8.0849e-05,757.61,-1.9991e-05,-0.069353,-4.027e-05,-152.43,1.2312
29705,16.349,0.81818,0.1,0.00011832,1182.4,0.00011121,1020.6,-2.4593e-05,0.22945,-6.1247e-05,-275.17,1.2209
29706,16.441,0.72727,0.1,0.0001017,1016.3,9.5286e-05,871.27,-2.0694e-05,-0.15593,-5.3292e-05,-245.09,1.232
29707,16.349,1,0.1,0.00013931,1392.2,0.00012908,1166.2,-2.6087e-05,0.35157,-7.6067e-05,-375.18,1.2217
29708,16.441,0.90909,0.1,0.00012255,1224.7,0.00011264,1008.8,-2.1645e-05,-0.17299,-6.8714e-05,-353.83,1.2328
29709,16.349,1.1818,0.1,0.00016367,1635.5,0.00015013,1342.1,-2.8428e-05,0.50017,-9.2347e-05,-479.76,1.2224
29710,16.441,1.0909,0.1,0.00014712,1470.2,0.00013317,1173.9,-2.3097e-05,-0.15579,-8.6292e-05,-474.98,1.2336
29711,16.349,1.3636,0.1,0.00019113,1910,0.00017462,1554.5,-3.2193e-05,0.5446,-0.00010918,-577.93,1.2231
29712,16.441,1.2727,0.1,0.00017587,1757.5,0.00015761,1375.7,-2.5481e-05,-0.055744,-0.00010589,-604.19,1.2343
29713,16.349,1.5455,0.1,0.00022021,2200.6,0.00020195,1805.4,-3.8056e-05,2.1058,-0.00012439,-646.6,1.2238
29714,16.441,1.4545,0.1,0.000209,2088.5,0.00018684,1626.7,-2.9658e-05,-0.0032336,-0.00012662,-728.56,1.2351
29715,16.349,1.7273,0.1,0.00024774,2475.7,0.00023013,2085.6,-4.7078e-05,2.756,-0.00013417,-651.6,1.2244
29716,16.441,1.6364,0.1,0.00024624,2460.7,0.00022174,1944.8,-3.7034e-05,0.4907,-0.00014648,-821.82,1.2357
29717,16.349,1.9091,0.1,0.0002706,2704.2,0.00025606,2368.8,-5.876e-05,3.3807,-0.00013629,-579.18,1.2249
29718,16.441,1.8182,0.1,0.00028176,2815.7,0.00025894,2317.9,-4.9934e-05,-2.8454,-0.00015795,-814.44,1.2363
29719,16.349,2.0909,0.1,0.00028748,2872.8,0.00027678,2614.2,-7.0574e-05,4.295,-0.0001329,-464,1.2253
29720,16.441,2,0.1,0.00030534,3051.3,0.00028908,2671.1,-6.7921e-05,-11.281,-0.00015273,-648.5,1.2368
29721,16.349,2.2727,0.1,0.00029972,2995.2,0.00029177,2794.6,-8.0069e-05,0.69947,-0.00012911,-367.79,1.2257
29722,16.441,2.1818,0.1,0.00032057,3203.5,0.00030987,2938.9,-8.1975e-05,-5.3259,-0.00014417,-472.61,1.2373
29723,16.349,2.4545,0.1,0.00030776,3075.5,0.00030112,2904,-8.5546e-05,-1.2276,-0.0001276,-317.24,1.226
29724,16.441,2.3636,0.1,0.0003277,3274.8,0.00031958,3068.2,-8.8774e-05,-0.038338,-0.00013935,-380.03,1.2376
29725,16.349,2.6364,0.1,0.00031169,3114.7,0.00030557,2955.5,-8.7825e-05,-0.28199,-0.0001273,-296.85,1.2262
29726,16.441,2.5455,0.1,0.00032914,3289.2,0.0003219,3102.7,-9.1098e-05,-0.42202,-0.000137,-345.34,1.2379
29727,16.349,2.8182,0.1,0.00031314,3129.2,0.00030721,2974.4,-8.8692e-05,-0.22371,-0.00012717,-289.31,1.2263
29728,16.441,2.7273,0.1,0.00032796,3277.4,0.00032111,3100.1,-9.1499e-05,-0.10026,-0.00013535,-329.6,1.2381
29729,16.349,3,0.1,0.00031346,3132.4,0.00030758,2978.7,-8.8891e-05,-0.16724,-0.00012712,-287.43,1.2264
29730,16.441,2.9091,0.1,0.00032687,3266.5,0.00032016,3092.6,-9.1441e-05,-0.024068,-0.00013451,-323.64,1.2382
29731,16.349,3.1818,0.1,0.00031314,3129.2,0.00030721,2974.4,-8.8692e-05,-0.22371,-0.00012717,-289.31,1.2263
29732,16.441,3.0909,0.1,0.00032687,3266.5,0.00032016,3092.6,-9.1441e-05,-0.024068,-0.00013451,-323.64,1.2382
29733,16.349,3.3636,0.1,0.00031169,3114.7,0.00030557,2955.5,-8.7825e-05,-0.28199,-0.0001273,-296.85,1.2262
29734,16.441,3.2727,0.1,0.00032796,3277.4,0.00032111,3100.1,-9.1499e-05,-0.10026,-0.00013535,-329.6,1.2381
29735,16.349,3.5455,0.1,0.00030776,3075.5,0.00030112,2904,-8.5546e-05,-1.2276,-0.0001276,-317.24,1.226
29736,16.441,3.4545,0.1,0.00032914,3289.2,0.0003219,3102.7,-9.1098e-05,-0.42202,-0.000137,-345.34,1.2379
29737,16.349,3.7273,0.1,0.00029972,2995.2,0.00029177,2794.6,-8.0069e-05,0.69947,-0.00012911,-367.79,1.2257
29738,16.441,3.6364,0.1,0.0003277,3274.8,0.00031958,3068.2,-8.8774e-05,-0.038339,-0.00013935,-380.03,1.2376
29739,16.349,3.9091,0.1,0.00028748,2872.8,0.00027678,2614.2,-7.0574e-05,4.295,-0.0001329,-464,1.2253
29740,16.441,3.8182,0.1,0.00032057,3203.5,0.00030987,2938.9,-8.1975e-05,-5.3259,-0.00014417,-472.61,1.2373
29741,16.349,4.0909,0.1,0.0002706,2704.2,0.00025606,2368.8,-5.876e-05,3.3807,-0.00013629,-579.18,1.2249
29742,16.441,4,0.1,0.00030534,3051.3,0.00028908,2671.1,-6.7921e-05,-11.281,-0.00015273,-648.5,1.2368
29743,16.349,4.2727,0.1,0.00024774,2475.7,0.00023013,2085.6,-4.7078e-05,2.756,-0.00013417,-651.6,1.2244
29744,16.441,4.1818,0.1,0.00028176,2815.7,0.00025894,2317.9,-4.9934e-05,-2.8454,-0.00015795,-814.44,1.2363
29745,16.349,4.4545,0.1,0.00022021,2200.6,0.00020195,1805.4,-3.8056e-05,2.1058,-0.00012439,-646.6,1.2238
29746,16.441,4.3636,0.1,0.00024624,2460.7,0.00022174,1944.8,-3.7034e-05,0.49071,-0.00014648,-821.82,1.2357
29747,16.349,4.6364,0.1,0.00019113,1910,0.00017462,1554.5,-3.2193e-05,0.5446,-0.00010918,-577.93,1.2231
29748,16.441,4.5455,0.1,0.000209,2088.5,0.00018684,1626.7,-2.9658e-05,-0.003233,-0.00012662,-728.56,1.2351
29749,16.349,4.8182,0.1,0.00016367,1635.5,0.00015013,1342.1,-2.8428e-05,0.50018,-9.2347e-05,-479.76,1.2224
29750,16.441,4.7273,0.1,0.00017587,1757.5,0.00015761,1375.7,-2.5481e-05,-0.055743,-0.00010589,-604.19,1.2343
29751,16.349,5,0.1,0.00013931,1392.2,0.00012908,1166.2,-2.6087e-05,0.35157,-7.6067e-05,-375.18,1.2217
29752,16.441,4.9091,0.1,0.00014712,1470.2,0.00013317,1173.9,-2.3097e-05,-0.15578,-8.6292e-05,-474.98,1.2336
29753,16.349,5.1818,0.1,0.00011832,1182.4,0.00011121,1020.6,-2.4593e-05,0.22945,-6.1247e-05,-275.17,1.2209
29754,16.441,5.0909,0.1,0.00012255,1224.7,0.00011264,1008.8,-2.1645e-05,-0.17299,-6.8714e-05,-353.83,1.2328
29755,16.349,5.3636,0.1,0.00010081,1007.4,9.6341e-05,901.35,-2.3598e-05,0.1771,-4.8405e-05,-186.22,1.2201
29756,16.441,5.2727,0.1,0.0001017,1016.3,9.5286e-05,871.27,-2.0694e-05,-0.15593,-5.3292e-05,-245.09,1.232
29757,16.349,5.5455,0.1,8.7033e-05,869.73,8.4554e-05,807.65,-2.2916e-05,0.16435,-3.8005e-05,-113.2,1.2193
29758,16.441,5.4545,0.1,8.4482e-05,844.24,8.0849e-05,757.61,-1.9991e-05,-0.069352,-4.027e-05,-152.43,1.2312
29759,16.349,5.7273,0.1,7.7508e-05,774.55,7.6289e-05,742.24,-2.2484e-05,0.094679,-3.0626e-05,-61.077,1.2185
29760,16.441,5.6364,0.1,7.1342e-05,712.93,6.9614e-05,668.89,-1.9401e-05,0.066089,-3.0215e-05,-81.184,1.2304
29761,16.441,5.8182,0.1,6.338e-05,633.36,6.2612e-05,612.65,-1.8896e-05,0.22581,-2.4217e-05,-39.76,1.2295
29762,16.349,5.9091,0.1,7.0605e-05,705.56,7.0248e-05,695.49,-2.2303e-05,0.089734,-2.4953e-05,-19.822,1.2177
29763,16.533,0.27273,0.1,5.765e-05,576.1,5.6324e-05,542.2,-1.5798e-05,0.30866,-2.4208e-05,-62.887,1.2414
29764,16.624,0.18182,0.1,4.2783e-05,427.54,4.1923e-05,406.07,-1.1566e-05,4.1813,-1.7868e-05,-43.169,1.2525
29765,16.533,0.090909,0.1,4.9051e-05,490.17,4.8722e-05,480.99,-1.5301e-05,-0.052342,-1.7665e-05,-17.815,1.2406
29766,16.533,0.45455,0.1,6.987e-05,698.21,6.6827e-05,625.74,-1.6476e-05,-0.16478,-3.3398e-05,-127.31,1.2423
29767,16.624,0.36364,0.1,5.4975e-05,549.37,5.256e-05,492.49,-1.2746e-05,1.8155,-2.6433e-05,-101.03,1.2533
29768,16.533,0.63636,0.1,8.7019e-05,869.59,8.1117e-05,737.47,-1.7087e-05,-0.40082,-4.648e-05,-221.25,1.2431
29769,16.624,0.54545,0.1,7.2796e-05,727.46,6.7355e-05,608,-1.3405e-05,1.1993,-3.9974e-05,-198.43,1.2542
29770,16.533,0.81818,0.1,0.00010798,1079,9.8282e-05,871.23,-1.7745e-05,-0.55277,-6.2331e-05,-335.55,1.2439
29771,16.624,0.72727,0.1,9.4111e-05,940.46,8.4541e-05,739.99,-1.3824e-05,0.91642,-5.6348e-05,-318.59,1.255
29772,16.533,1,0.1,0.00013274,1326.5,0.00011848,1029.7,-1.8654e-05,-0.67271,-8.0704e-05,-466.9,1.2448
29773,16.624,0.90909,0.1,0.00011881,1187.3,0.00010418,890.14,-1.4182e-05,0.82639,-7.5271e-05,-458.17,1.2559
29774,16.533,1.1818,0.1,0.00016203,1619.2,0.0001426,1222.1,-2.0149e-05,-0.70685,-0.00010179,-614.11,1.2455
29775,16.624,1.0909,0.1,0.00014766,1475.6,0.00012705,1065.9,-1.4669e-05,1.09,-9.7121e-05,-618.43,1.2567
29776,16.533,1.3636,0.1,0.00019672,1965.8,0.00017193,1463.6,-2.2947e-05,-0.60764,-0.00012543,-770.61,1.2463
29777,16.624,1.2727,0.1,0.00018222,1821,0.0001547,1280.9,-1.5701e-05,0.5606,-0.00012275,-803.75,1.2575
29778,16.533,1.5455,0.1,0.00023772,2375.6,0.00020844,1779.7,-2.8634e-05,-1.6051,-0.00015053,-917.47,1.247
29779,16.624,1.4545,0.1,0.00022486,2247.1,0.00018966,1562.3,-1.769e-05,4.2712,-0.00015316,-1013.6,1.2583
29780,16.533,1.7273,0.1,0.00028192,2817.3,0.00025164,2185.3,-3.9893e-05,-5.1321,-0.00017135,-992.83,1.2477
29781,16.624,1.6364,0.1,0.00027988,2796.8,0.00023659,1947.7,-2.3448e-05,-6.1043,-0.00018982,-1256.1,1.2591
29782,16.533,1.9091,0.1,0.00031603,3158.1,0.00029172,2618.4,-5.9088e-05,-17.452,-0.00017415,-881.96,1.2483
29783,16.624,1.8182,0.1,0.00035371,3534.7,0.00030735,2611.7,-3.7288e-05,22.18,-0.0002286,-1415.3,1.2598
29784,16.533,2.0909,0.1,0.0003377,3374.6,0.00032174,2992.5,-7.9335e-05,-20.997,-0.00016354,-653.71,1.2488
29785,16.624,2,0.1,0.00040394,4036.6,0.00037381,3409.8,-6.6654e-05,100.3,-0.00022473,-1087.4,1.2604
29786,16.533,2.2727,0.1,0.00034787,3476.3,0.00033715,3208.5,-9.0698e-05,-6.2008,-0.00015386,-480.74,1.2493
29787,16.624,2.1818,0.1,0.00039706,3967.8,0.0003824,3607.7,-9.9604e-05,-13.844,-0.00018207,-633.46,1.2609
29788,16.533,2.4545,0.1,0.00034857,3483.3,0.00033992,3263.6,-9.4322e-05,0.79719,-0.00014831,-404.86,1.2496
29789,16.624,2.3636,0.1,0.00038378,3835.1,0.00037309,3567.7,-0.00010115,4.526,-0.00016711,-491.1,1.2613
29790,16.533,2.6364,0.1,0.00034506,3448.2,0.00033713,3244.9,-9.4769e-05,-0.22206,-0.00014475,-375.75,1.2498
29791,16.624,2.5455,0.1,0.00036777,3675.2,0.00035859,3441.6,-9.9633e-05,-1.3643,-0.00015649,-428.6,1.2616
29792,16.533,2.8182,0.1,0.00034143,3411.9,0.00033382,3216.4,-9.4247e-05,0.10124,-0.00014246,-362.13,1.25
29793,16.624,2.7273,0.1,0.00035706,3568.1,0.00034855,3351,-9.7347e-05,0.75663,-0.0001508,-400.88,1.2618
29794,16.533,3,0.1,0.00034004,3398.1,0.00033253,3204.8,-9.3991e-05,0.11705,-0.00014168,-358.22,1.25
29795,16.624,2.9091,0.1,0.00035166,3514.2,0.00034344,3303.8,-9.6247e-05,0.23486,-0.00014799,-388.56,1.2619
29796,16.533,3.1818,0.1,0.00034143,3411.9,0.00033382,3216.4,-9.4247e-05,0.10124,-0.00014246,-362.13,1.25
29797,16.624,3.0909,0.1,0.00035166,3514.2,0.00034344,3303.8,-9.6247e-05,0.23486,-0.00014799,-388.56,1.2619
29798,16.533,3.3636,0.1,0.00034506,3448.2,0.00033713,3244.9,-9.4769e-05,-0.22206,-0.00014475,-375.75,1.2498
29799,16.624,3.2727,0.1,0.00035706,3568.1,0.00034855,3351,-9.7347e-05,0.75663,-0.0001508,-400.88,1.2618
29800,16.533,3.5455,0.1,0.00034857,3483.3,0.00033992,3263.5,-9.4322e-05,0.79719,-0.00014831,-404.86,1.2496
29801,16.624,3.4545,0.1,0.00036777,3675.2,0.00035859,3441.6,-9.9633e-05,-1.3643,-0.00015649,-428.6,1.2616
29802,16.533,3.7273,0.1,0.00034787,3476.3,0.00033715,3208.5,-9.0698e-05,-6.2008,-0.00015386,-480.74,1.2493
29803,16.624,3.6364,0.1,0.00038378,3835.1,0.00037309,3567.7,-0.00010115,4.526,-0.00016711,-491.1,1.2613
29804,16.533,3.9091,0.1,0.0003377,3374.6,0.00032174,2992.5,-7.9335e-05,-20.997,-0.00016354,-653.71,1.2488
29805,16.624,3.8182,0.1,0.00039706,3967.8,0.0003824,3607.7,-9.9604e-05,-13.844,-0.00018207,-633.46,1.2609
29806,16.533,4.0909,0.1,0.00031603,3158.1,0.00029172,2618.4,-5.9088e-05,-17.452,-0.00017415,-881.96,1.2483
29807,16.624,4,0.1,0.00040394,4036.6,0.00037381,3409.8,-6.6654e-05,100.3,-0.00022473,-1087.4,1.2604
29808,16.533,4.2727,0.1,0.00028192,2817.3,0.00025164,2185.3,-3.9893e-05,-5.1321,-0.00017135,-992.83,1.2477
29809,16.624,4.1818,0.1,0.00035371,3534.7,0.00030735,2611.7,-3.7288e-05,22.18,-0.0002286,-1415.3,1.2598
29810,16.533,4.4545,0.1,0.00023772,2375.6,0.00020844,1779.7,-2.8634e-05,-1.6051,-0.00015053,-917.47,1.247
29811,16.624,4.3636,0.1,0.00027988,2796.8,0.00023659,1947.7,-2.3448e-05,-6.1043,-0.00018982,-1256.1,1.2591
29812,16.533,4.6364,0.1,0.00019672,1965.8,0.00017193,1463.6,-2.2947e-05,-0.60764,-0.00012543,-770.61,1.2463
29813,16.624,4.5455,0.1,0.00022486,2247.1,0.00018966,1562.3,-1.769e-05,4.2712,-0.00015316,-1013.6,1.2583
29814,16.533,4.8182,0.1,0.00016203,1619.2,0.0001426,1222.1,-2.015e-05,-0.70684,-0.00010179,-614.11,1.2455
29815,16.624,4.7273,0.1,0.00018222,1821,0.0001547,1280.9,-1.5701e-05,0.5606,-0.00012275,-803.75,1.2575
29816,16.533,5,0.1,0.00013274,1326.5,0.00011848,1029.7,-1.8654e-05,-0.6727,-8.0704e-05,-466.9,1.2448
29817,16.624,4.9091,0.1,0.00014766,1475.6,0.00012705,1065.9,-1.4669e-05,1.09,-9.7121e-05,-618.43,1.2567
29818,16.533,5.1818,0.1,0.00010798,1079,9.8282e-05,871.23,-1.7745e-05,-0.55277,-6.2331e-05,-335.55,1.2439
29819,16.624,5.0909,0.1,0.00011882,1187.3,0.00010418,890.14,-1.4182e-05,0.82639,-7.5271e-05,-458.17,1.2559
29820,16.533,5.3636,0.1,8.7019e-05,869.59,8.1117e-05,737.47,-1.7087e-05,-0.40082,-4.648e-05,-221.25,1.2431
29821,16.624,5.2727,0.1,9.4111e-05,940.46,8.4541e-05,739.99,-1.3824e-05,0.91642,-5.6348e-05,-318.59,1.255
29822,16.533,5.5455,0.1,6.987e-05,698.21,6.6827e-05,625.74,-1.6476e-05,-0.16478,-3.3398e-05,-127.31,1.2423
29823,16.624,5.4545,0.1,7.2796e-05,727.46,6.7355e-05,608,-1.3405e-05,1.1993,-3.9974e-05,-198.43,1.2542
29824,16.533,5.7273,0.1,5.765e-05,576.1,5.6324e-05,542.2,-1.5798e-05,0.30867,-2.4208e-05,-62.887,1.2414
29825,16.624,5.6364,0.1,5.4975e-05,549.37,5.256e-05,492.49,-1.2746e-05,1.8155,-2.6433e-05,-101.03,1.2533
29826,16.624,5.8182,0.1,4.2783e-05,427.54,4.1923e-05,406.07,-1.1566e-05,4.1813,-1.7868e-05,-43.169,1.2525
29827,16.533,5.9091,0.1,4.9051e-05,490.17,4.8722e-05,480.99,-1.5301e-05,-0.05234,-1.7665e-05,-17.815,1.2406
29828,16.716,0.27273,0.1,4.2109e-05,420.8,3.9766e-05,368.44,-8.6414e-06,4.7285,-2.1573e-05,-92.435,1.2644
29829,16.808,0.18182,0.1,2.3454e-05,234.38,2.2795e-05,217.57,-6.3113e-06,-1.1242,-1.0135e-05,-29.854,1.2754
29830,16.716,0.090909,0.1,2.7122e-05,271.04,2.6737e-05,261.62,-7.4356e-06,4.8584,-1.0975e-05,-21.732,1.2635
29831,16.716,0.45455,0.1,6.0844e-05,608.02,5.5368e-05,491.88,-9.73e-06,2.7636,-3.5234e-05,-188.86,1.2652
29832,16.808,0.36364,0.1,3.8892e-05,388.65,3.6149e-05,327.21,-7.5743e-06,-1.3154,-2.0952e-05,-101.83,1.2763
29833,16.716,0.63636,0.1,8.3059e-05,830.02,7.3134e-05,628.22,-1.016e-05,2.3814,-5.2179e-05,-313.33,1.2661
29834,16.808,0.54545,0.1,5.6238e-05,561.99,5.0234e-05,436.65,-7.9955e-06,-0.86819,-3.412e-05,-197.16,1.2772
29835,16.716,0.81818,0.1,0.00010827,1082,9.284e-05,776.96,-1.0266e-05,2.2602,-7.1687e-05,-459.23,1.267
29836,16.808,0.72727,0.1,7.5365e-05,753.13,6.5167e-05,548.73,-7.9775e-06,-0.84926,-4.9087e-05,-309.73,1.2781
29837,16.716,1,0.1,0.00013737,1372.8,0.00011533,945.75,-1.0194e-05,2.6099,-9.4275e-05,-629.14,1.2679
29838,16.808,0.90909,0.1,9.6978e-05,969.11,8.1624e-05,669.67,-7.6376e-06,-1.0092,-6.6256e-05,-441.44,1.279
29839,16.716,1.1818,0.1,0.00017212,1720,0.00014215,1147.2,-1.0209e-05,2.4444,-0.00012109,-830.69,1.2687
29840,16.808,1.0909,0.1,0.00012226,1221.7,0.00010058,807.68,-6.9633e-06,-0.3317,-8.6484e-05,-597.82,1.2799
29841,16.716,1.3636,0.1,0.00021572,2155.7,0.00017615,1407.5,-1.0428e-05,5.562,-0.00015422,-1074.8,1.2696
29842,16.808,1.2727,0.1,0.00015318,1530.7,0.00012371,974.85,-6.4101e-06,-2.7963,-0.00011108,-789.21,1.2808
29843,16.716,1.5455,0.1,0.00027482,2746.3,0.00022319,1770.7,-1.2468e-05,0.035824,-0.00019787,-1393,1.2704
29844,16.808,1.4545,0.1,0.00019395,1938.1,0.00015392,1197.9,-4.5217e-06,7.4016,-0.00014373,-1038.5,1.2817
29845,16.716,1.7273,0.1,0.00035853,3582.8,0.00029677,2407.6,-2.0837e-05,21.252,-0.00025155,-1712.3,1.2712
29846,16.808,1.6364,0.1,0.00024831,2481.4,0.00019718,1516.4,-8.6552e-06,-30.176,-0.00018375,-1345.8,1.2825
29847,16.716,1.9091,0.1,0.00043992,4396.1,0.00038784,3391,-4.4506e-05,142.55,-0.00027793,-1611.3,1.2719
29848,16.808,1.8182,0.1,0.00035688,3566.3,0.00027187,2093.1,1.1035e-05,133.33,-0.00027599,-2023.3,1.2834
29849,16.716,2.0909,0.1,0.00045698,4566.7,0.00043048,3995,-8.7647e-05,102.03,-0.00023854,-1031.7,1.2725
29850,16.808,2,0.1,0.0006752,6747.3,0.000633,5839.4,-0.00012617,135.26,-0.00035828,-1608.7,1.2842
29851,16.716,2.2727,0.1,0.0004314,4311,0.00041706,3957.4,-0.00010996,-2.3995,-0.00019415,-634.97,1.273
29852,16.808,2.1818,0.1,0.00051621,5158.5,0.00049952,4734.8,-0.00013675,-45.91,-0.00022816,-732.73,1.2848
29853,16.716,2.4545,0.1,0.00040249,4022.1,0.00039135,3742.7,-0.00010645,2.4358,-0.00017489,-511.85,1.2734
29854,16.808,2.3636,0.1,0.00044232,4420.1,0.00042987,4110.3,-0.00011578,10.58,-0.00019335,-572.29,1.2852
29855,16.716,2.6364,0.1,0.00037957,3793.1,0.00036984,3546.4,-0.00010221,-0.38102,-0.00016237,-452.42,1.2737
29856,16.808,2.5455,0.1,0.00040112,4008.4,0.00039059,3742,-0.0001076,-1.195,-0.00017229,-487.2,1.2855
29857,16.716,2.8182,0.1,0.00036713,3668.7,0.00035802,3437.4,-9.9348e-05,0.88216,-0.00015619,-426.24,1.2738
29858,16.808,2.7273,0.1,0.00037874,3784.8,0.00036919,3542.6,-0.0001021,1.5263,-0.00016168,-446.06,1.2858
29859,16.716,3,0.1,0.00036312,3628.7,0.0003542,3401.8,-9.8504e-05,0.34256,-0.00015416,-417.84,1.2739
29860,16.808,2.9091,0.1,0.00036876,3685.1,0.00035964,3453.2,-9.9867e-05,0.61481,-0.00015679,-427.09,1.2859
29861,16.716,3.1818,0.1,0.00036713,3668.7,0.00035802,3437.4,-9.9348e-05,0.88216,-0.00015619,-426.24,1.2738
29862,16.808,3.0909,0.1,0.00036876,3685.1,0.00035964,3453.2,-9.9867e-05,0.61481,-0.00015679,-427.09,1.2859
29863,16.716,3.3636,0.1,0.00037957,3793.1,0.00036984,3546.4,-0.00010221,-0.38102,-0.00016237,-452.42,1.2737
29864,16.808,3.2727,0.1,0.00037874,3784.8,0.00036919,3542.6,-0.0001021,1.5263,-0.00016168,-446.07,1.2858
29865,16.716,3.5455,0.1,0.00040249,4022.1,0.00039135,3742.7,-0.00010645,2.4358,-0.00017489,-511.85,1.2734
29866,16.808,3.4545,0.1,0.00040112,4008.4,0.00039059,3742,-0.0001076,-1.195,-0.00017229,-487.2,1.2855
29867,16.716,3.7273,0.1,0.0004314,4311,0.00041706,3957.4,-0.00010996,-2.3995,-0.00019415,-634.97,1.273
29868,16.808,3.6364,0.1,0.00044232,4420.1,0.00042987,4110.3,-0.00011578,10.58,-0.00019335,-572.29,1.2852
29869,16.716,3.9091,0.1,0.00045698,4566.7,0.00043048,3995,-8.7647e-05,102.03,-0.00023854,-1031.7,1.2725
29870,16.808,3.8182,0.1,0.00051621,5158.5,0.00049952,4734.8,-0.00013675,-45.91,-0.00022816,-732.74,1.2848
29871,16.716,4.0909,0.1,0.00043992,4396.1,0.00038784,3391,-4.4506e-05,142.55,-0.00027793,-1611.3,1.2719
29872,16.808,4,0.1,0.0006752,6747.3,0.000633,5839.4,-0.00012617,135.26,-0.00035828,-1608.7,1.2842
29873,16.716,4.2727,0.1,0.00035853,3582.8,0.00029677,2407.6,-2.0837e-05,21.252,-0.00025155,-1712.3,1.2712
29874,16.808,4.1818,0.1,0.00035688,3566.3,0.00027187,2093.1,1.1035e-05,133.33,-0.00027599,-2023.3,1.2834
29875,16.716,4.4545,0.1,0.00027482,2746.3,0.00022319,1770.7,-1.2468e-05,0.035829,-0.00019787,-1393,1.2704
29876,16.808,4.3636,0.1,0.00024831,2481.4,0.00019718,1516.4,-8.6552e-06,-30.176,-0.00018375,-1345.8,1.2825
29877,16.716,4.6364,0.1,0.00021572,2155.7,0.00017615,1407.5,-1.0428e-05,5.562,-0.00015422,-1074.8,1.2696
29878,16.808,4.5455,0.1,0.00019395,1938.1,0.00015392,1197.9,-4.5217e-06,7.4016,-0.00014373,-1038.5,1.2817
29879,16.716,4.8182,0.1,0.00017212,1720,0.00014215,1147.2,-1.0209e-05,2.4445,-0.00012109,-830.69,1.2687
29880,16.808,4.7273,0.1,0.00015318,1530.7,0.00012371,974.85,-6.4101e-06,-2.7963,-0.00011108,-789.21,1.2808
29881,16.716,5,0.1,0.00013737,1372.8,0.00011533,945.75,-1.0194e-05,2.6099,-9.4275e-05,-629.14,1.2679
29882,16.808,4.9091,0.1,0.00012226,1221.7,0.00010058,807.68,-6.9633e-06,-0.3317,-8.6484e-05,-597.82,1.2799
29883,16.716,5.1818,0.1,0.00010827,1082,9.284e-05,776.96,-1.0266e-05,2.2602,-7.1687e-05,-459.23,1.267
29884,16.808,5.0909,0.1,9.6978e-05,969.11,8.1624e-05,669.67,-7.6376e-06,-1.0092,-6.6256e-05,-441.44,1.279
29885,16.716,5.3636,0.1,8.3059e-05,830.02,7.3134e-05,628.22,-1.016e-05,2.3814,-5.2179e-05,-313.33,1.2661
29886,16.808,5.2727,0.1,7.5365e-05,753.13,6.5167e-05,548.73,-7.9775e-06,-0.84926,-4.9087e-05,-309.73,1.2781
29887,16.716,5.5455,0.1,6.0844e-05,608.02,5.5368e-05,491.88,-9.73e-06,2.7636,-3.5234e-05,-188.86,1.2652
29888,16.808,5.4545,0.1,5.6238e-05,561.99,5.0234e-05,436.65,-7.9955e-06,-0.86819,-3.412e-05,-197.16,1.2772
29889,16.716,5.7273,0.1,4.2109e-05,420.8,3.9766e-05,368.44,-8.6414e-06,4.7285,-2.1573e-05,-92.435,1.2644
29890,16.808,5.6364,0.1,3.8892e-05,388.65,3.6149e-05,327.21,-7.5743e-06,-1.3154,-2.0952e-05,-101.83,1.2763
29891,16.808,5.8182,0.1,2.3454e-05,234.38,2.2795e-05,217.57,-6.3113e-06,-1.1242,-1.0135e-05,-29.854,1.2754
29892,16.716,5.9091,0.1,2.7122e-05,271.04,2.6737e-05,261.62,-7.4356e-06,4.8584,-1.0975e-05,-21.732,1.2635
29893,17.067,3.7273,0.1,0.00052393,5235.7,0.00051277,4947.4,-0.00014576,-0.47613,-0.0002169,-535.05,1.3192
29894,16.983,3.8182,0.1,0.00058211,5817.1,0.00056838,5455.6,-0.00016433,-49.67,-0.00024154,-629.81,1.3078
29895,17.067,3.9091,0.1,0.00068964,6891.6,0.00067932,6677.2,-0.00017085,289.38,-0.00029275,-626.53,1.3187
29896,17.067,3.5455,0.1,0.0004375,4372,0.00042715,4109.3,-0.00011876,7.4658,-0.00018501,-490.32,1.3196
29897,16.983,3.6364,0.1,0.00046542,4651,0.0004537,4356.9,-0.00012417,14.981,-0.00019954,-551.33,1.3083
29898,17.067,3.3636,0.1,0.00039539,3951.1,0.00038615,3714.8,-0.0001082,0.49269,-0.0001664,-436.75,1.3198
29899,16.983,3.4545,0.1,0.00041179,4115,0.00040154,3854.4,-0.0001115,-0.42804,-0.00017521,-479.06,1.3086
29900,17.067,3.1818,0.1,0.00037496,3747,0.00036635,3526.6,-0.00010286,1.2063,-0.00015735,-408.28,1.32
29901,16.983,3.2727,0.1,0.00038368,3834.1,0.00037438,3597.4,-0.00010419,1.6442,-0.0001626,-437.23,1.3088
29902,17.067,3,0.1,0.00036883,3685.8,0.00036042,3470.3,-0.00010134,0.77285,-0.00015457,-399.15,1.32
29903,16.983,3.0909,0.1,0.00037162,3713.6,0.00036275,3487.4,-0.00010128,0.83434,-0.000157,-417.77,1.309
29904,17.067,2.8182,0.1,0.00037496,3747,0.00036635,3526.6,-0.00010286,1.2063,-0.00015735,-408.28,1.32
29905,16.983,2.9091,0.1,0.00037162,3713.6,0.00036275,3487.4,-0.00010128,0.83434,-0.000157,-417.77,1.309
29906,17.067,2.6364,0.1,0.00039539,3951.1,0.00038615,3714.8,-0.0001082,0.49269,-0.0001664,-436.75,1.3198
29907,16.983,2.7273,0.1,0.00038368,3834.1,0.00037438,3597.4,-0.00010419,1.6442,-0.0001626,-437.23,1.3088
29908,17.067,2.4545,0.1,0.0004375,4372,0.00042715,4109.3,-0.00011876,7.4658,-0.00018501,-490.31,1.3196
29909,16.983,2.5455,0.1,0.00041179,4115,0.00040154,3854.4,-0.0001115,-0.42804,-0.00017521,-479.06,1.3086
29910,17.067,2.2727,0.1,0.00052393,5235.7,0.00051277,4947.4,-0.00014576,-0.47608,-0.0002169,-535.05,1.3192
29911,16.983,2.3636,0.1,0.00046542,4651,0.0004537,4356.9,-0.00012417,14.981,-0.00019954,-551.33,1.3083
29912,16.983,2.1818,0.1,0.00058211,5817.1,0.00056838,5455.6,-0.00016433,-49.67,-0.00024154,-629.81,1.3078
29913,17.067,2.0909,0.1,0.00068964,6891.6,0.00067932,6677.2,-0.00017085,289.38,-0.00029275,-626.53,1.3187
29914,16.9,3.7273,0.1,0.00053346,5330.9,0.00051757,4927.1,-0.00014239,-31.577,-0.0002328,-710.82,1.2971
29915,16.9,3.9091,0.1,0.00072625,7257.5,0.00069356,6515.4,-0.00015943,106.44,-0.00035528,-1365.1,1.2965
29916,16.9,3.5455,0.1,0.00044259,4422.8,0.0004305,4120.1,-0.00011694,6.9159,-0.00019213,-558.03,1.2975
29917,16.9,3.3636,0.1,0.00040081,4005.3,0.00039038,3741.6,-0.0001075,0.68645,-0.00017202,-484.08,1.2977
29918,16.9,3.1818,0.1,0.00038046,3802,0.00037088,3559,-0.00010263,1.2364,-0.00016234,-447.43,1.2979
29919,16.9,3,0.1,0.00037438,3741.2,0.00036505,3504.3,-0.00010123,0.86597,-0.0001594,-436.17,1.298
29920,16.9,2.8182,0.1,0.00038046,3802,0.00037088,3559,-0.00010263,1.2364,-0.00016234,-447.43,1.2979
29921,16.9,2.6364,0.1,0.00040081,4005.3,0.00039038,3741.6,-0.0001075,0.68645,-0.00017202,-484.08,1.2977
29922,16.9,2.4545,0.1,0.00044259,4422.8,0.0004305,4120.1,-0.00011694,6.9159,-0.00019213,-558.03,1.2975
29923,16.9,2.2727,0.1,0.00053346,5330.9,0.00051757,4927.1,-0.00014239,-31.577,-0.0002328,-710.82,1.2971
29924,16.9,2.0909,0.1,0.00072625,7257.5,0.00069356,6515.4,-0.00015943,106.44,-0.00035528,-1365.1,1.2965
29925,17.067,5.7273,0.1,2.1342e-05,213.28,2.0345e-05,188.44,-5.3279e-06,-4.4545,-1.0138e-05,-40.599,1.3134
29926,17.067,5.9091,0.1,7.676e-06,76.707,7.5361e-06,73.118,-2.1433e-06,0.39056,-3.1309e-06,-7.03,1.313
29927,17.067,5.8182,0.05,5.1557e-06,51.521,3.9589e-06,29.746,2.7113e-13,3.3632e-06,-3.9589e-06,-29.746,1.3132
29928,17.067,5.5455,0.1,3.3658e-05,336.35,3.1644e-05,288.76,-7.4752e-06,-5.168,-1.7176e-05,-78.054,1.3138
29929,17.067,5.6364,0.05,1.108e-05,110.72,8.5077e-06,63.923,1.2094e-13,3.6624e-06,-8.5077e-06,-63.923,1.3136
29930,17.067,5.3636,0.1,4.6009e-05,459.77,4.273e-05,385.03,-9.2501e-06,-5.5302,-2.4708e-05,-121.68,1.3142
29931,17.067,5.4545,0.05,1.6918e-05,169.07,1.2991e-05,97.611,-8.6971e-14,2.2592e-06,-1.2991e-05,-97.611,1.314
29932,17.067,5.1818,0.1,5.9535e-05,594.94,5.4702e-05,487.41,-1.1017e-05,-6.3773,-3.3208e-05,-173.11,1.3147
29933,17.067,5.2727,0.05,2.3263e-05,232.47,1.7863e-05,134.22,-3.3429e-21,3.0121e-06,-1.7863e-05,-134.22,1.3144
29934,17.067,5,0.1,7.5223e-05,751.71,6.8453e-05,603.95,-1.2911e-05,-7.3841,-4.3252e-05,-235.36,1.3151
29935,17.067,5.0909,0.05,3.0481e-05,304.6,2.3405e-05,175.86,9.9213e-15,3.3613e-06,-2.3405e-05,-175.86,1.3149
29936,17.067,4.8182,0.1,9.4486e-05,944.21,8.5235e-05,745,-1.5219e-05,-9.78,-5.5677e-05,-313.76,1.3156
29937,17.067,4.9091,0.05,3.9105e-05,390.78,3.0028e-05,225.62,1.2867e-13,4.5839e-06,-3.0028e-05,-225.62,1.3154
29938,17.067,4.6364,0.1,0.00012026,1201.8,0.00010745,930.49,-1.7878e-05,-11.209,-7.2694e-05,-423.07,1.3162
29939,17.067,4.7273,0.05,5.003e-05,499.96,3.8417e-05,288.65,2.6484e-13,-1.052e-06,-3.8417e-05,-288.65,1.3159
29940,17.067,4.4545,0.1,0.00015411,1540,0.00013762,1185.7,-2.3855e-05,-27.572,-9.2967e-05,-546.86,1.3167
29941,17.067,4.5455,0.05,6.4851e-05,648.07,4.9798e-05,374.16,1.1678e-14,1.0995e-05,-4.9798e-05,-374.16,1.3164
29942,17.067,4.2727,0.1,0.00023586,2357,0.00020225,1679.9,-2.4534e-05,-24.065,-0.00015574,-1009.9,1.3173
29943,17.067,4.3636,0.05,8.8241e-05,881.8,6.7758e-05,509.11,-1.7641e-12,-5.4212e-06,-6.7758e-05,-509.11,1.317
29944,17.067,4.0909,0.1,0.00049187,4915.3,0.00046863,4554.2,-6.6183e-05,535.83,-0.00026078,-926.31,1.318
29945,17.067,4.1818,0.05,0.0001499,1497.9,0.0001151,864.84,1.041e-11,0.0001027,-0.0001151,-864.84,1.3176
29946,16.983,4,0.1,0.00072753,7270.3,0.00070918,7020.9,-0.0001259,746.4,-0.00035122,-946.53,1.3072
29947,17.067,4,0.05,0.00012901,1289.2,9.9063e-05,744.32,-8.8508e-11,-0.00080516,-9.9063e-05,-744.32,1.3183
29948,16.9,4.0909,0.1,0.00054501,5446.3,0.00047707,4241.3,-3.461e-05,396.69,-0.0003524,-1991.1,1.2957
29949,16.9,4,0.05,0.00017313,1730.1,0.00013294,998.86,-3.3199e-11,-0.00062862,-0.00013294,-998.86,1.2961
29950,16.9,4.2727,0.1,0.00028753,2873.3,0.00020948,1481.4,9.2923e-06,-22.723,-0.00023147,-1831.7,1.2947
29951,16.9,4.1818,0.05,0.00018705,1869.3,0.00014363,1079.2,1.647e-11,0.00012038,-0.00014363,-1079.2,1.2952
29952,16.9,4.4545,0.1,0.000189,1888.7,0.00014484,1070.8,-1.8345e-06,-31.268,-0.00014541,-1110,1.2938
29953,16.9,4.3636,0.05,0.00011692,1168.4,8.9782e-05,674.59,-3.4688e-14,-9.8095e-06,-8.9782e-05,-674.59,1.2943
29954,16.9,4.6364,0.1,0.00014799,1478.9,0.00011491,866.24,-2.1938e-06,-13.654,-0.00011233,-841.18,1.2929
29955,16.9,4.5455,0.05,8.7538e-05,874.78,6.7218e-05,505.05,1.9657e-12,1.3174e-05,-6.7218e-05,-505.05,1.2933
29956,16.9,4.8182,0.1,0.00011668,1166,9.2786e-05,715.36,-4.0902e-06,-12.525,-8.6199e-05,-629.46,1.2919
29957,16.9,4.7273,0.05,6.899e-05,689.42,5.2976e-05,398.04,6.1847e-13,-3.941e-08,-5.2976e-05,-398.04,1.2924
29958,16.9,5,0.1,9.2825e-05,927.61,7.5646e-05,597.54,-5.1865e-06,-9.8098,-6.6461e-05,-470.2,1.291
29959,16.9,4.9091,0.05,5.4779e-05,547.42,4.2064e-05,316.05,4.5279e-13,4.5105e-06,-4.2064e-05,-316.05,1.2914
29960,16.9,5.1818,0.1,7.315e-05,730.99,6.1238e-05,496.19,-5.9668e-06,-8.7585,-5.0325e-05,-342.05,1.2901
29961,16.9,5.0909,0.05,4.3196e-05,431.66,3.3169e-05,249.22,-7.0357e-21,3.5868e-06,-3.3169e-05,-249.22,1.2905
29962,16.9,5.3636,0.1,5.6122e-05,560.83,4.8384e-05,403.12,-6.3071e-06,-7.8118,-3.665e-05,-235.8,1.2891
29963,16.9,5.2727,0.05,3.3213e-05,331.9,2.5503e-05,191.62,-1.4264e-13,2.4058e-06,-2.5503e-05,-191.62,1.2896
29964,16.9,5.5455,0.1,4.0704e-05,406.76,3.624e-05,311.23,-6.1641e-06,-7.3836,-2.4738e-05,-146.94,1.2882
29965,16.9,5.4545,0.05,2.4246e-05,242.29,1.8618e-05,139.89,-8.3633e-14,3.0941e-06,-1.8618e-05,-139.89,1.2887
29966,16.9,5.7273,0.1,2.5684e-05,256.66,2.366e-05,210.01,-5.174e-06,-6.6406,-1.4066e-05,-73.453,1.2873
29967,16.9,5.6364,0.05,1.59e-05,158.89,1.221e-05,91.737,-1.1085e-13,5.0618e-06,-1.221e-05,-91.737,1.2878
29968,16.9,5.9091,0.1,9.2729e-06,92.665,8.9749e-06,84.689,-2.6412e-06,-2.5901,-3.9678e-06,-12.558,1.2865
29969,16.9,5.8182,0.05,7.5522e-06,75.469,5.7991e-06,43.572,1.2169e-13,3.0377e-06,-5.7991e-06,-43.572,1.2869
29970,17.067,0.27273,0.1,2.1342e-05,213.28,2.0345e-05,188.44,-5.3279e-06,-4.4545,-1.0138e-05,-40.599,1.3134
29971,17.067,0.090909,0.1,7.676e-06,76.707,7.5361e-06,73.118,-2.1433e-06,0.39057,-3.1309e-06,-7.03,1.313
29972,17.067,0.18182,0.05,5.1557e-06,51.521,3.9589e-06,29.746,-1.6342e-13,-4.4717e-06,-3.9589e-06,-29.746,1.3132
29973,17.067,0.45455,0.1,3.3658e-05,336.35,3.1644e-05,288.76,-7.4752e-06,-5.168,-1.7176e-05,-78.054,1.3138
29974,17.067,0.36364,0.05,1.108e-05,110.72,8.5077e-06,63.923,5.4669e-13,4.8217e-06,-8.5077e-06,-63.923,1.3136
29975,17.067,0.63636,0.1,4.6009e-05,459.77,4.273e-05,385.03,-9.2501e-06,-5.5302,-2.4708e-05,-121.68,1.3142
29976,17.067,0.54545,0.05,1.6918e-05,169.07,1.2991e-05,97.611,6.658e-13,3.719e-06,-1.2991e-05,-97.611,1.314
29977,17.067,0.81818,0.1,5.9535e-05,594.94,5.4702e-05,487.41,-1.1017e-05,-6.3773,-3.3208e-05,-173.11,1.3147
29978,17.067,0.72727,0.05,2.3263e-05,232.47,1.7863e-05,134.22,6.6499e-13,3.0921e-06,-1.7863e-05,-134.22,1.3144
29979,17.067,1,0.1,7.5223e-05,751.71,6.8453e-05,603.95,-1.2911e-05,-7.3841,-4.3252e-05,-235.36,1.3151
29980,17.067,0.90909,0.05,3.0481e-05,304.6,2.3405e-05,175.86,6.6352e-13,2.7206e-06,-2.3405e-05,-175.86,1.3149
29981,17.067,1.1818,0.1,9.4486e-05,944.21,8.5236e-05,745,-1.5219e-05,-9.78,-5.5677e-05,-313.76,1.3156
29982,17.067,1.0909,0.05,3.9105e-05,390.78,3.0028e-05,225.62,1.2461e-12,3.3364e-06,-3.0028e-05,-225.62,1.3154
29983,17.067,1.3636,0.1,0.00012026,1201.8,0.00010745,930.49,-1.7878e-05,-11.209,-7.2694e-05,-423.07,1.3162
29984,17.067,1.2727,0.05,5.003e-05,499.96,3.8417e-05,288.65,1.5987e-12,4.1126e-06,-3.8417e-05,-288.65,1.3159
29985,17.067,1.5455,0.1,0.00015411,1540,0.00013762,1185.7,-2.3855e-05,-27.572,-9.2967e-05,-546.86,1.3167
29986,17.067,1.4545,0.05,6.4851e-05,648.07,4.9798e-05,374.16,-1.1678e-14,-7.3516e-06,-4.9798e-05,-374.16,1.3164
29987,17.067,1.7273,0.1,0.00023586,2357,0.00020225,1679.9,-2.4534e-05,-24.065,-0.00015574,-1009.9,1.3173
29988,17.067,1.6364,0.05,8.8241e-05,881.8,6.7758e-05,509.11,3.0697e-12,1.6482e-05,-6.7758e-05,-509.11,1.317
29989,17.067,1.9091,0.1,0.00049187,4915.3,0.00046863,4554.2,-6.6183e-05,535.83,-0.00026078,-926.31,1.318
29990,17.067,1.8182,0.05,0.0001499,1497.9,0.0001151,864.84,-1.4289e-11,-0.00013298,-0.0001151,-864.84,1.3176
29991,16.983,2,0.1,0.00072753,7270.3,0.00070918,7020.9,-0.0001259,746.4,-0.00035122,-946.53,1.3072
29992,17.067,2,0.05,0.00012901,1289.2,9.9063e-05,744.32,1.09e-10,0.0013086,-9.9063e-05,-744.32,1.3183
29993,16.9,1.9091,0.1,0.00054501,5446.3,0.00047707,4241.3,-3.461e-05,396.69,-0.0003524,-1991.1,1.2957
29994,16.9,2,0.05,0.00017313,1730.1,0.00013294,998.86,5.1108e-11,0.00081944,-0.00013294,-998.86,1.2961
29995,16.9,1.7273,0.1,0.00028753,2873.3,0.00020948,1481.4,9.2923e-06,-22.723,-0.00023147,-1831.7,1.2947
29996,16.9,1.8182,0.05,0.00018705,1869.3,0.00014363,1079.2,-1.8784e-11,-0.0001425,-0.00014363,-1079.2,1.2952
29997,16.9,1.5455,0.1,0.000189,1888.7,0.00014484,1070.8,-1.8345e-06,-31.268,-0.00014541,-1110,1.2938
29998,16.9,1.6364,0.05,0.00011692,1168.4,8.9782e-05,674.59,1.6296e-12,2.5963e-05,-8.9782e-05,-674.59,1.2943
29999,16.9,1.3636,0.1,0.00014799,1478.9,0.00011491,866.24,-2.1938e-06,-13.654,-0.00011233,-841.18,1.2929
30000,16.9,1.4545,0.05,8.7538e-05,874.78,6.7218e-05,505.05,-9.1747e-13,-9.428e-06,-6.7218e-05,-505.05,1.2933
30001,16.9,1.1818,0.1,0.00011668,1166,9.2785e-05,715.36,-4.0902e-06,-12.525,-8.6199e-05,-629.46,1.2919
30002,16.9,1.2727,0.05,6.899e-05,689.42,5.2976e-05,398.04,2.3338e-13,4.2738e-06,-5.2976e-05,-398.04,1.2924
30003,16.9,1,0.1,9.2825e-05,927.61,7.5646e-05,597.54,-5.1865e-06,-9.8098,-6.6461e-05,-470.21,1.291
30004,16.9,1.0909,0.05,5.4779e-05,547.42,4.2064e-05,316.05,2.3564e-13,9.8218e-07,-4.2064e-05,-316.05,1.2914
30005,16.9,0.81818,0.1,7.315e-05,730.99,6.1238e-05,496.19,-5.9668e-06,-8.7585,-5.0325e-05,-342.05,1.2901
30006,16.9,0.90909,0.05,4.3196e-05,431.66,3.3169e-05,249.22,5.0462e-13,3.0562e-06,-3.3169e-05,-249.22,1.2905
30007,16.9,0.63636,0.1,5.6122e-05,560.83,4.8384e-05,403.12,-6.3071e-06,-7.8118,-3.665e-05,-235.8,1.2891
30008,16.9,0.72727,0.05,3.3213e-05,331.9,2.5503e-05,191.62,7.0448e-13,4.0391e-06,-2.5503e-05,-191.62,1.2896
30009,16.9,0.45455,0.1,4.0704e-05,406.76,3.624e-05,311.23,-6.1641e-06,-7.3836,-2.4738e-05,-146.94,1.2882
30010,16.9,0.54545,0.05,2.4246e-05,242.29,1.8618e-05,139.89,4.7983e-13,3.8272e-06,-1.8618e-05,-139.89,1.2887
30011,16.9,0.27273,0.1,2.5684e-05,256.66,2.366e-05,210.01,-5.174e-06,-6.6406,-1.4066e-05,-73.453,1.2873
30012,16.9,0.36364,0.05,1.59e-05,158.89,1.221e-05,91.737,4.0807e-13,5.0573e-06,-1.221e-05,-91.737,1.2878
30013,16.9,0.090909,0.1,9.2729e-06,92.665,8.9749e-06,84.689,-2.6412e-06,-2.5901,-3.9678e-06,-12.558,1.2865
30014,16.9,0.18182,0.05,7.5522e-06,75.469,5.7991e-06,43.572,1.6524e-13,3.2935e-06,-5.7991e-06,-43.572,1.2869
30015,17.158,6,0.1,9.0078e-06,90.016,9.0392e-06,91.522,-2.3363e-06,6.0512,-3.466e-06,-2.4367,1.3255
30016,17.067,6,0.05,1.6767e-06,16.755,1.2875e-06,9.6735,-8.8695e-13,-2.1826e-06,-1.2875e-06,-9.6735,1.3128
30017,17.34,6,0.1,2.5586e-05,255.69,2.5445e-05,251.67,-8.097e-06,-0.34904,-9.0531e-06,-7.5332,1.351
30018,17.249,6,0.05,1.5865e-06,15.854,1.2183e-06,9.1535,-1.2356e-14,1.6247e-06,-1.2183e-06,-9.1535,1.3383
30019,17.523,6,0.1,4.0607e-05,405.79,4.0422e-05,400.5,-1.2998e-05,-0.88144,-1.4154e-05,-9.5732,1.3765
30020,17.432,6,0.05,3.9189e-06,39.162,3.0092e-06,22.61,1.037e-14,6.1179e-06,-3.0092e-06,-22.61,1.3638
30021,17.705,6,0.1,5.3363e-05,533.26,5.3171e-05,527.76,-1.7119e-05,-0.37126,-1.8466e-05,-10.489,1.4021
30022,17.614,6,0.05,5.2372e-06,52.336,4.0215e-06,30.216,2.0137e-14,4.5732e-06,-4.0215e-06,-30.216,1.3893
30023,17.888,6,0.1,6.4049e-05,640.05,6.3861e-05,634.66,-2.0626e-05,-0.14702,-2.2004e-05,-10.505,1.4277
30024,17.796,6,0.05,6.0517e-06,60.476,4.647e-06,34.916,5.8545e-15,5.934e-06,-4.647e-06,-34.916,1.4149
30025,18.07,6,0.1,7.2692e-05,726.42,7.2517e-05,721.39,-2.3488e-05,0.039785,-2.4824e-05,-9.9961,1.4533
30026,17.979,6,0.05,6.4984e-06,64.939,4.9899e-06,37.492,-4.2836e-21,5.2508e-06,-4.9899e-06,-37.492,1.4405
30027,18.253,6,0.1,7.9392e-05,793.37,7.9232e-05,788.77,-2.5727e-05,0.14094,-2.6978e-05,-9.2586,1.479
30028,18.161,6,0.05,6.7049e-06,67.002,5.1485e-06,38.684,-4.5065e-13,4.3849e-06,-5.1485e-06,-38.684,1.4661
30029,18.435,6,0.1,8.4307e-05,842.49,8.4163e-05,838.32,-2.7385e-05,0.18867,-2.8536e-05,-8.4575,1.5047
30030,18.344,6,0.05,6.7601e-06,67.554,5.1909e-06,39.002,-5.2177e-15,5.304e-06,-5.1909e-06,-39.002,1.4918
30031,18.618,6,0.1,8.7637e-05,875.77,8.7507e-05,871.99,-2.8522e-05,0.19733,-2.9572e-05,-7.6942,1.5304
30032,18.526,6,0.05,6.7295e-06,67.249,5.1675e-06,38.826,9.0934e-13,3.7544e-06,-5.1675e-06,-38.826,1.5175
30033,18.8,6,0.1,8.9596e-05,895.35,8.9478e-05,891.9,-2.9203e-05,0.18278,-3.0162e-05,-7.0216,1.5563
30034,18.709,6,0.05,6.6583e-06,66.537,5.1127e-06,38.415,1.358e-12,1.2616e-05,-5.1127e-06,-38.415,1.5433
30035,18.982,6,0.1,9.0394e-05,903.32,9.0285e-05,900.15,-2.9496e-05,0.15602,-3.0377e-05,-6.464,1.5822
30036,18.891,6,0.05,6.5753e-06,65.707,5.049e-06,37.936,9.0891e-13,5.147e-06,-5.049e-06,-37.936,1.5692
30037,19.165,6,0.1,9.0226e-05,901.63,9.0124e-05,898.67,-2.9465e-05,0.12482,-3.0284e-05,-6.0278,1.6081
30038,19.074,6,0.05,6.4976e-06,64.932,4.9894e-06,37.488,-4.7006e-15,-3.1988e-06,-4.9894e-06,-37.488,1.5951
30039,19.347,6,0.1,8.9262e-05,892,8.9165e-05,889.18,-2.9165e-05,0.094118,-2.9938e-05,-5.7097,1.6341
30040,19.256,6,0.05,6.434e-06,64.296,4.9405e-06,37.121,9.1275e-13,7.6728e-06,-4.9405e-06,-37.121,1.6211
30041,19.53,6,0.1,8.7652e-05,875.92,8.7559e-05,873.19,-2.8647e-05,0.066849,-2.9388e-05,-5.5014,1.6602
30042,19.439,6,0.05,6.3874e-06,63.83,4.9047e-06,36.852,9.1083e-13,3.8965e-06,-4.9047e-06,-36.852,1.6471
30043,19.712,6,0.1,8.5523e-05,854.64,8.543e-05,851.95,-2.7951e-05,0.044524,-2.8675e-05,-5.3923,1.6863
30044,19.621,6,0.05,6.3572e-06,63.528,4.8816e-06,36.678,9.0842e-13,5.4449e-06,-4.8816e-06,-36.678,1.6732
30045,19.895,6,0.1,8.2977e-05,829.2,8.2885e-05,826.51,-2.7114e-05,0.027727,-2.7832e-05,-5.3715,1.7125
30046,19.804,6,0.05,6.3408e-06,63.364,4.8689e-06,36.583,1.8182e-12,6.878e-06,-4.8689e-06,-36.583,1.6994
30047,20.077,6,0.1,8.0102e-05,800.47,8.0009e-05,797.75,-2.6163e-05,0.01649,-2.6888e-05,-5.4281,1.7387
30048,19.986,6,0.05,6.3343e-06,63.3,4.864e-06,36.546,9.0896e-13,5.743e-06,-4.864e-06,-36.546,1.7256
30049,20.26,6,0.1,7.6968e-05,769.15,7.6872e-05,766.36,-2.5123e-05,0.010533,-2.5863e-05,-5.552,1.765
30050,20.168,6,0.05,6.3336e-06,63.293,4.8634e-06,36.542,9.0875e-13,5.5699e-06,-4.8634e-06,-36.542,1.7519
30051,20.442,6,0.1,7.3632e-05,735.81,7.3533e-05,732.93,-2.4013e-05,0.0094106,-2.4778e-05,-5.7338,1.7914
30052,20.351,6,0.05,6.3344e-06,63.3,4.864e-06,36.546,9.0978e-13,6.857e-06,-4.864e-06,-36.546,1.7782
30053,20.625,6,0.1,7.0139e-05,700.91,7.0036e-05,697.91,-2.2849e-05,0.012632,-2.3644e-05,-5.9646,1.8178
30054,20.533,6,0.05,6.3325e-06,63.281,4.8625e-06,36.535,9.1083e-13,5.9098e-06,-4.8625e-06,-36.535,1.8045
30055,20.807,6,0.1,6.6527e-05,664.81,6.6419e-05,661.68,-2.1643e-05,0.019707,-2.2475e-05,-6.2366,1.8442
30056,20.716,6,0.05,6.3241e-06,63.197,4.8561e-06,36.487,9.1038e-13,5.7568e-06,-4.8561e-06,-36.487,1.831
30057,20.989,6,0.1,6.2824e-05,627.81,6.2711e-05,624.53,-2.0405e-05,0.030186,-2.1279e-05,-6.5425,1.8707
30058,20.898,6,0.05,6.3057e-06,63.014,4.842e-06,36.381,9.1023e-13,6.1423e-06,-4.842e-06,-36.381,1.8574
30059,21.172,6,0.1,5.9055e-05,590.14,5.8935e-05,586.69,-1.9143e-05,0.043687,-2.0064e-05,-6.8753,1.8972
30060,21.081,6,0.05,6.2743e-06,62.699,4.8179e-06,36.2,9.1045e-13,7.0116e-06,-4.8179e-06,-36.2,1.8839
30061,21.354,6,0.1,5.5237e-05,551.98,5.5111e-05,548.36,-1.7864e-05,0.059907,-1.8834e-05,-7.2288,1.9238
30062,21.263,6,0.05,6.2268e-06,62.225,4.7814e-06,35.926,9.1012e-13,5.6082e-06,-4.7814e-06,-35.926,1.9105
30063,21.537,6,0.1,5.1385e-05,513.5,5.1253e-05,509.69,-1.6573e-05,0.078636,-1.7594e-05,-7.597,1.9503
30064,21.446,6,0.05,6.1607e-06,61.564,4.7306e-06,35.544,1.3634e-12,7.0559e-06,-4.7306e-06,-35.544,1.937
30065,21.719,6,0.1,4.7511e-05,474.79,4.7372e-05,470.8,-1.5274e-05,0.099755,-1.6348e-05,-7.974,1.977
30066,21.628,6,0.05,6.0734e-06,60.693,4.6636e-06,35.041,4.5474e-13,7.659e-06,-4.6636e-06,-35.041,1.9636
30067,21.902,6,0.1,4.3625e-05,435.95,4.3479e-05,431.78,-1.397e-05,0.12324,-1.5098e-05,-8.3542,2.0036
30068,21.811,6,0.05,5.9626e-06,59.585,4.5786e-06,34.402,9.1477e-13,7.6327e-06,-4.5786e-06,-34.402,1.9903
30069,22.084,6,0.1,3.9734e-05,397.07,3.9581e-05,392.7,-1.2665e-05,0.14915,-1.3847e-05,-8.7317,2.0303
30070,21.993,6,0.05,5.8258e-06,58.218,4.4735e-06,33.612,1.3658e-12,6.7787e-06,-4.4735e-06,-33.612,2.017
30071,22.267,6,0.1,3.5845e-05,358.2,3.5684e-05,353.65,-1.136e-05,0.17772,-1.2595e-05,-9.1006,2.057
30072,22.175,6,0.05,5.6604e-06,56.564,4.3464e-06,32.658,4.526e-13,5.0356e-06,-4.3464e-06,-32.658,2.0437
30073,22.449,6,0.1,3.1963e-05,319.41,3.1794e-05,314.67,-1.0058e-05,0.20931,-1.1344e-05,-9.454,2.0838
30074,22.358,6,0.05,5.4634e-06,54.596,4.1952e-06,31.521,9.1425e-13,6.9323e-06,-4.1952e-06,-31.521,2.0704
30075,22.632,6,0.1,2.8093e-05,280.73,2.7917e-05,275.83,-8.7611e-06,0.24453,-1.0096e-05,-9.7842,2.1105
30076,22.54,6,0.05,5.2316e-06,52.28,4.0172e-06,30.184,9.1221e-13,7.2705e-06,-4.0172e-06,-30.184,2.0971
30077,22.814,6,0.1,2.4241e-05,242.24,2.4058e-05,237.18,-7.4709e-06,0.28419,-8.8505e-06,-10.081,2.1373
30078,22.723,6,0.05,4.9607e-06,49.573,3.8092e-06,28.621,9.0888e-13,5.0595e-06,-3.8092e-06,-28.621,2.1239
30079,22.996,6,0.1,2.0414e-05,204,2.0223e-05,198.79,-6.1904e-06,0.33009,-7.6094e-06,-10.332,2.1641
30080,22.905,6,0.05,4.6456e-06,46.424,3.5672e-06,26.803,7.8125e-13,7.5382e-06,-3.5672e-06,-26.803,2.1507
30081,23.179,6,0.1,1.6621e-05,166.09,1.6422e-05,160.76,-4.9231e-06,0.38274,-6.3738e-06,-10.517,2.1909
30082,23.088,6,0.05,4.2788e-06,42.758,3.2856e-06,24.687,6.8137e-13,6.4926e-06,-3.2856e-06,-24.687,2.1775
30083,23.361,6,0.1,1.2875e-05,128.66,1.2667e-05,123.24,-3.6743e-06,0.45365,-5.1447e-06,-10.594,2.2177
30084,23.27,6,0.05,3.8498e-06,38.471,2.9562e-06,22.211,6.6571e-13,6.539e-06,-2.9562e-06,-22.211,2.2043
30085,23.544,6,0.1,9.2057e-06,91.993,8.9851e-06,86.483,-2.4547e-06,0.52921,-3.9288e-06,-10.547,2.2445
30086,23.453,6,0.05,3.3421e-06,33.398,2.5663e-06,19.282,5.5319e-13,8.3756e-06,-2.5663e-06,-19.282,2.2311
30087,23.726,6,0.1,5.6429e-06,56.39,5.414e-06,51.112,-1.289e-06,0.74807,-2.6943e-06,-9.8104,2.2713
30088,23.635,6,0.05,2.7234e-06,27.216,2.0913e-06,15.713,4.9434e-13,6.7287e-06,-2.0913e-06,-15.713,2.2579
30089,23.909,6,0.1,2.3534e-06,23.518,2.138e-06,19.129,-3.3729e-07,0.53048,-1.3804e-06,-7.3071,2.2982
30090,23.818,6,0.05,1.8968e-06,18.955,1.4565e-06,10.943,4.4164e-13,1.021e-05,-1.4565e-06,-10.943,2.2847
30091,24,5.9091,0.1,2.0988e-06,20.973,1.2741e-06,6.0274,1.4481e-07,-2.4573,-1.905e-06,-17.859,2.3116
30092,24,6,0.05,7.9312e-07,7.9257,6.0902e-07,4.5759,2.4774e-12,2.6251e-05,-6.0902e-07,-4.5759,2.3116
30093,24,5.7273,0.1,4.6381e-06,46.349,2.1881e-06,6.78,9.8191e-07,-2.2826,-4.4946e-06,-43.431,2.3118
30094,24,5.8182,0.05,7.1594e-07,7.1545,5.4976e-07,4.1307,8.5012e-13,1.0947e-05,-5.4976e-07,-4.1307,2.3117
30095,24,5.5455,0.1,6.623e-06,66.185,2.8655e-06,6.9318,1.6288e-06,-2.3599,-6.4961e-06,-63.408,2.3119
30096,24,5.6364,0.05,7.6799e-07,7.6746,5.8972e-07,4.4309,1.2821e-12,1.567e-05,-5.8972e-07,-4.4309,2.3118
30097,24,5.3636,0.1,8.1437e-06,81.38,3.3776e-06,6.9664,2.1236e-06,-2.4558,-8.0259e-06,-78.715,2.312
30098,24,5.4545,0.05,8.1865e-07,8.1808,6.2862e-07,4.7232,1.4477e-12,1.9535e-05,-6.2862e-07,-4.7232,2.3119
30099,24,5.1818,0.1,9.378e-06,93.715,3.7869e-06,6.9546,2.5313e-06,-2.4798,-9.2661e-06,-91.121,2.3121
30100,24,5.2727,0.05,8.4101e-07,8.4042,6.4579e-07,4.8522,1.7496e-12,1.9199e-05,-6.4579e-07,-4.8522,2.312
30101,24,5,0.1,1.0399e-05,103.91,4.123e-06,6.92,2.8694e-06,-2.4992,-1.0291e-05,-101.38,2.3122
30102,24,5.0909,0.05,8.4785e-07,8.4726,6.5104e-07,4.8917,1.17e-12,1.7007e-05,-6.5104e-07,-4.8917,2.3121
30103,24,4.8182,0.1,1.125e-05,112.42,4.4021e-06,6.8802,3.1523e-06,-2.5102,-1.1146e-05,-109.94,2.3123
30104,24,4.9091,0.05,8.451e-07,8.4452,6.4893e-07,4.8758,1.4644e-12,1.6819e-05,-6.4893e-07,-4.8758,2.3122
30105,24,4.6364,0.1,1.1962e-05,119.54,4.6346e-06,6.84,3.3892e-06,-2.5177,-1.1861e-05,-117.1,2.3124
30106,24,4.7273,0.05,8.3673e-07,8.3615,6.425e-07,4.8275,1.7394e-12,2.2291e-05,-6.425e-07,-4.8275,2.3123
30107,24,4.4545,0.1,1.2556e-05,125.47,4.8281e-06,6.8025,3.587e-06,-2.5224,-1.2457e-05,-123.07,2.3124
30108,24,4.5455,0.05,8.2537e-07,8.248,6.3378e-07,4.762,1.5706e-12,1.921e-05,-6.3378e-07,-4.762,2.3124
30109,24,4.2727,0.1,1.3048e-05,130.39,4.9882e-06,6.7689,3.7512e-06,-2.5253,-1.2951e-05,-128.02,2.3125
30110,24,4.3636,0.05,8.1283e-07,8.1226,6.2415e-07,4.6896,1.6337e-12,2.1393e-05,-6.2415e-07,-4.6896,2.3125
30111,24,4.0909,0.1,1.3451e-05,134.42,5.1193e-06,6.7397,3.886e-06,-2.527,-1.3356e-05,-132.07,2.3126
30112,24,4.1818,0.05,8.0033e-07,7.9978,6.1456e-07,4.6175,1.4821e-12,1.4821e-05,-6.1456e-07,-4.6175,2.3125
30113,24,3.9091,0.1,1.3777e-05,137.67,5.2249e-06,6.7152,3.9947e-06,-2.5278,-1.3682e-05,-135.34,2.3126
30114,24,4,0.05,7.8872e-07,7.8818,6.0564e-07,4.5506,1.4638e-12,1.4545e-05,-6.0564e-07,-4.5506,2.3126
30115,24,3.7273,0.1,1.4032e-05,140.22,5.3077e-06,6.6954,4.0802e-06,-2.5282,-1.3938e-05,-137.91,2.3127
30116,24,3.8182,0.05,7.7854e-07,7.7801,5.9783e-07,4.4918,1.3421e-12,1.5185e-05,-5.9783e-07,-4.4918,2.3126
30117,24,3.5455,0.1,1.4224e-05,142.14,5.37e-06,6.68,4.1444e-06,-2.5283,-1.4131e-05,-139.84,2.3127
30118,24,3.6364,0.05,7.7014e-07,7.6961,5.9137e-07,4.4433,1.1512e-12,1.534e-05,-5.9137e-07,-4.4433,2.3127
30119,24,3.3636,0.1,1.4358e-05,143.48,5.4133e-06,6.6692,4.1892e-06,-2.5282,-1.4265e-05,-141.19,2.3127
30120,24,3.4545,0.05,7.6371e-07,7.6319,5.8644e-07,4.4063,9.1462e-13,1.149e-05,-5.8644e-07,-4.4063,2.3127
30121,24,3.1818,0.1,1.4437e-05,144.27,5.4389e-06,6.6627,4.2156e-06,-2.5282,-1.4345e-05,-141.98,2.3127
30122,24,3.2727,0.05,7.5938e-07,7.5886,5.8311e-07,4.3813,6.969e-13,1.5341e-05,-5.8311e-07,-4.3813,2.3127
30123,24,3,0.1,1.4463e-05,144.53,5.4473e-06,6.6606,4.2244e-06,-2.5281,-1.4371e-05,-142.24,2.3127
30124,24,3.0909,0.05,7.5721e-07,7.5669,5.8144e-07,4.3687,6.8671e-13,7.6655e-06,-5.8144e-07,-4.3687,2.3127
30125,24,2.8182,0.1,1.4437e-05,144.27,5.4389e-06,6.6627,4.2156e-06,-2.5282,-1.4345e-05,-141.98,2.3127
30126,24,2.9091,0.05,7.5721e-07,7.5669,5.8144e-07,4.3687,4.5059e-13,7.5983e-06,-5.8144e-07,-4.3687,2.3127
30127,24,2.6364,0.1,1.4358e-05,143.48,5.4133e-06,6.6692,4.1892e-06,-2.5282,-1.4265e-05,-141.19,2.3127
30128,24,2.7273,0.05,7.5938e-07,7.5886,5.8311e-07,4.3813,-2.1832e-15,3.7903e-06,-5.8311e-07,-4.3813,2.3127
30129,24,2.4545,0.1,1.4224e-05,142.14,5.37e-06,6.68,4.1444e-06,-2.5283,-1.4131e-05,-139.84,2.3127
30130,24,2.5455,0.05,7.6371e-07,7.6319,5.8644e-07,4.4063,2.2583e-13,3.838e-06,-5.8644e-07,-4.4063,2.3127
30131,24,2.2727,0.1,1.4032e-05,140.22,5.3077e-06,6.6954,4.0802e-06,-2.5282,-1.3938e-05,-137.91,2.3127
30132,24,2.3636,0.05,7.7014e-07,7.6961,5.9137e-07,4.4433,-1.6354e-15,3.7673e-06,-5.9137e-07,-4.4433,2.3127
30133,24,2.0909,0.1,1.3777e-05,137.67,5.2249e-06,6.7152,3.9947e-06,-2.5278,-1.3682e-05,-135.34,2.3126
30134,24,2.1818,0.05,7.7855e-07,7.7801,5.9783e-07,4.4918,1.6468e-14,1.7617e-07,-5.9783e-07,-4.4918,2.3126
30135,24,1.9091,0.1,1.3451e-05,134.42,5.1193e-06,6.7397,3.886e-06,-2.527,-1.3356e-05,-132.07,2.3126
30136,24,2,0.05,7.8873e-07,7.8818,6.0564e-07,4.5506,-2.0423e-13,1.6128e-07,-6.0564e-07,-4.5506,2.3126
30137,24,1.7273,0.1,1.3048e-05,130.39,4.9882e-06,6.7689,3.7512e-06,-2.5253,-1.2951e-05,-128.02,2.3125
30138,24,1.8182,0.05,8.0033e-07,7.9978,6.1456e-07,4.6176,-3.4279e-13,7.0439e-07,-6.1456e-07,-4.6175,2.3125
30139,24,1.5455,0.1,1.2556e-05,125.47,4.8281e-06,6.8025,3.587e-06,-2.5224,-1.2457e-05,-123.07,2.3124
30140,24,1.6364,0.05,8.1283e-07,8.1227,6.2415e-07,4.6896,-3.0017e-13,-7.6545e-07,-6.2415e-07,-4.6896,2.3125
30141,24,1.3636,0.1,1.1962e-05,119.54,4.6346e-06,6.84,3.3892e-06,-2.5177,-1.1861e-05,-117.1,2.3124
30142,24,1.4545,0.05,8.2537e-07,8.248,6.3378e-07,4.762,-2.9123e-13,-2.2866e-06,-6.3378e-07,-4.762,2.3124
30143,24,1.1818,0.1,1.125e-05,112.42,4.4021e-06,6.8802,3.1523e-06,-2.5102,-1.1146e-05,-109.94,2.3123
30144,24,1.2727,0.05,8.3673e-07,8.3615,6.425e-07,4.8275,-4.3604e-13,-2.0002e-06,-6.425e-07,-4.8275,2.3123
30145,24,1,0.1,1.0399e-05,103.91,4.123e-06,6.92,2.8694e-06,-2.4992,-1.0291e-05,-101.38,2.3122
30146,24,1.0909,0.05,8.451e-07,8.4452,6.4893e-07,4.8758,-6.1181e-13,-1.8816e-06,-6.4893e-07,-4.8758,2.3122
30147,24,0.81818,0.1,9.378e-06,93.715,3.7869e-06,6.9546,2.5313e-06,-2.4798,-9.2661e-06,-91.121,2.3121
30148,24,0.90909,0.05,8.4785e-07,8.4726,6.5104e-07,4.8917,-6.1078e-13,-5.3252e-06,-6.5104e-07,-4.8917,2.3121
30149,24,0.63636,0.1,8.1437e-06,81.38,3.3776e-06,6.9664,2.1236e-06,-2.4558,-8.0259e-06,-78.715,2.312
30150,24,0.72727,0.05,8.4101e-07,8.4043,6.4579e-07,4.8522,-1.1374e-12,-8.3271e-06,-6.4579e-07,-4.8522,2.312
30151,24,0.45455,0.1,6.6231e-06,66.185,2.8655e-06,6.9318,1.6288e-06,-2.3599,-6.4961e-06,-63.408,2.3119
30152,24,0.54545,0.05,8.1865e-07,8.1808,6.2862e-07,4.7232,-1.1758e-12,-1.0143e-05,-6.2862e-07,-4.7232,2.3119
30153,24,0.27273,0.1,4.6381e-06,46.349,2.1881e-06,6.78,9.8191e-07,-2.2826,-4.4946e-06,-43.431,2.3118
30154,24,0.36364,0.05,7.6799e-07,7.6746,5.8972e-07,4.4309,-1.0606e-12,-5.5334e-06,-5.8972e-07,-4.4309,2.3118
30155,24,0.090909,0.1,2.0988e-06,20.973,1.2741e-06,6.0274,1.4481e-07,-2.4573,-1.905e-06,-17.859,2.3116
30156,24,0.18182,0.05,7.1594e-07,7.1545,5.4976e-07,4.1307,1.757e-13,-9.1425e-07,-5.4976e-07,-4.1307,2.3117
30157,2.3842e-15,0.27273,0.1,0.00018315,1830.3,0.00024126,3541.9,4.5343e-06,1763.3,-8.6685e-06,1664.1,0
30158,7.9472e-16,0.090909,0.1,0.00013958,1394.8,0.00013599,1435.4,-4.8956e-06,376.86,-7.437e-05,-145.14,0
30159,1.6109e-15,0.18182,0.05,1.654e-05,165.29,1.2701e-05,95.429,3.5592e-12,0.00016941,-1.2701e-05,-95.429,0
30160,3.9736e-15,0.45455,0.1,0.00026234,2621.6,0.00034873,5161.4,3.3253e-06,2566.1,-3.5967e-06,2514.1,0
30161,3.2219e-15,0.36364,0.05,8.6183e-06,86.123,6.6177e-06,49.723,1.0464e-11,0.00025309,-6.6177e-06,-49.723,0
30162,5.563e-15,0.63636,0.1,0.00030484,3046.3,0.00040565,6009.5,2.3317e-06,2979.1,-1.8721e-06,2947.5,0
30163,4.8328e-15,0.54545,0.05,7.7967e-06,77.913,5.9869e-06,44.983,6.5828e-12,0.00016464,-5.9869e-06,-44.983,0
30164,7.1525e-15,0.81818,0.1,0.00033227,3320.4,0.00044207,6547.6,1.4947e-06,3237.4,-1.1794e-06,3217.3,0
30165,6.4438e-15,0.72727,0.05,6.8606e-06,68.559,5.2681e-06,39.583,2.8034e-12,0.00014453,-5.2681e-06,-39.582,0
30166,8.7419e-15,1,0.1,0.00035108,3508.4,0.00046705,6916.8,1.0307e-06,3415.3,-8.1398e-07,3401.5,0
30167,8.0547e-15,0.90909,0.05,5.8405e-06,58.364,4.4847e-06,33.697,1.6942e-12,7.7856e-05,-4.4847e-06,-33.696,0
30168,1.0331e-14,1.1818,0.1,0.00036472,3644.7,0.00048515,7184.4,7.4662e-07,3544.8,-5.9151e-07,3534.7,0
30169,9.6657e-15,1.0909,0.05,4.9625e-06,49.59,3.8106e-06,28.631,1.1204e-12,0.00012162,-3.8106e-06,-28.631,0
30170,1.1921e-14,1.3636,0.1,0.00037491,3746.6,0.00049869,7384.6,5.568e-07,3641.8,-4.4321e-07,3634.3,0
30171,1.1277e-14,1.2727,0.05,4.2504e-06,42.475,3.2638e-06,24.523,7.3018e-13,6.5092e-05,-3.2638e-06,-24.523,0
30172,1.351e-14,1.5455,0.1,0.0003827,3824.3,0.00050903,7537.4,4.2406e-07,3716,-3.3794e-07,3710.2,0
30173,1.2888e-14,1.4545,0.05,3.6719e-06,36.694,2.8196e-06,21.185,1.5067e-13,6.3582e-05,-2.8196e-06,-21.185,0
30174,1.51e-14,1.7273,0.1,0.00038871,3884.4,0.00051701,7655.5,3.2696e-07,3773.3,-2.5965e-07,3768.9,0
30175,1.4498e-14,1.6364,0.05,3.2035e-06,32.012,2.4599e-06,18.483,3.0296e-13,6.4537e-05,-2.4599e-06,-18.482,0
30176,1.6689e-14,1.9091,0.1,0.00039336,3930.9,0.0005232,7747,2.5328e-07,3817.8,-1.9913e-07,3814.4,0
30177,1.6109e-14,1.8182,0.05,2.8257e-06,28.237,2.1698e-06,16.303,-2.6008e-14,1.4277e-06,-2.1698e-06,-16.303,0
30178,1.8279e-14,2.0909,0.1,0.00039696,3966.8,0.00052797,7817.6,1.9551e-07,3852.1,-1.507e-07,3849.5,0
30179,1.772e-14,2,0.05,2.5236e-06,25.218,1.9378e-06,14.56,-6.738e-14,6.1119e-05,-1.9378e-06,-14.56,0
30180,1.9868e-14,2.2727,0.1,0.00039968,3994.1,0.0005316,7871.2,1.488e-07,3878.1,-1.106e-07,3876.2,0
30181,1.9331e-14,2.1818,0.05,2.286e-06,22.844,1.7554e-06,13.189,-8.9391e-14,1.6125e-07,-1.7554e-06,-13.189,0
30182,2.1457e-14,2.4545,0.1,0.00040168,4014.1,0.00053425,7910.5,1.0989e-07,3897.2,-7.6285e-08,3895.8,0
30183,2.0942e-14,2.3636,0.05,2.1046e-06,21.031,1.6161e-06,12.142,-9.2764e-14,-1.7438e-07,-1.6161e-06,-12.142,0
30184,2.3047e-14,2.6364,0.1,0.00040305,4027.7,0.00053607,7937.4,7.6611e-08,3910.2,-4.6036e-08,3909.2,0
30185,2.2553e-14,2.5455,0.05,1.9733e-06,19.719,1.5152e-06,11.385,-4.5546e-14,-5.9922e-07,-1.5152e-06,-11.385,0
30186,2.4636e-14,2.8182,0.1,0.00040385,4035.7,0.00053713,7953.1,4.823e-08,3917.7,-1.9373e-08,3917.2,0
30187,2.4164e-14,2.7273,0.05,1.8879e-06,18.866,1.4497e-06,10.892,-5.3849e-14,-4.0541e-07,-1.4497e-06,-10.892,0
30188,2.6226e-14,3,0.1,0.00040411,4038.3,0.00053748,7958.2,3.2036e-08,3920.1,-3.7376e-09,3919.8,0
30189,2.5775e-14,2.9091,0.05,1.8459e-06,18.446,1.4174e-06,10.65,-1.9361e-14,-1.4538e-07,-1.4174e-06,-10.65,0
30190,2.7815e-14,3.1818,0.1,0.00040385,4035.7,0.00053713,7953.1,4.823e-08,3917.7,-1.9373e-08,3917.2,0
30191,2.7386e-14,3.0909,0.05,1.8459e-06,18.446,1.4174e-06,10.65,1.9956e-14,1.6193e-07,-1.4174e-06,-10.65,0
30192,2.9405e-14,3.3636,0.1,0.00040305,4027.7,0.00053607,7937.4,7.6611e-08,3910.2,-4.6036e-08,3909.2,0
30193,2.8997e-14,3.2727,0.05,1.8879e-06,18.866,1.4497e-06,10.892,5.9474e-14,4.4648e-07,-1.4497e-06,-10.892,0
30194,3.0994e-14,3.5455,0.1,0.00040168,4014.1,0.00053425,7910.5,1.0989e-07,3897.2,-7.6285e-08,3895.8,0
30195,3.0608e-14,3.4545,0.05,1.9733e-06,19.719,1.5152e-06,11.385,9.5017e-14,7.1391e-07,-1.5152e-06,-11.385,0
30196,3.2583e-14,3.7273,0.1,0.00039968,3994.1,0.0005316,7871.2,1.488e-07,3878.1,-1.106e-07,3876.2,0
30197,3.2219e-14,3.6364,0.05,2.1046e-06,21.031,1.6161e-06,12.142,1.2181e-13,-5.9857e-05,-1.6161e-06,-12.142,0
30198,3.4173e-14,3.9091,0.1,0.00039696,3966.8,0.00052797,7817.6,1.9551e-07,3852.1,-1.507e-07,3849.5,0
30199,3.383e-14,3.8182,0.05,2.286e-06,22.844,1.7554e-06,13.189,1.3879e-13,-0.00012103,-1.7554e-06,-13.189,0
30200,3.5762e-14,4.0909,0.1,0.00039336,3930.9,0.0005232,7747,2.5328e-07,3817.8,-1.9913e-07,3814.4,0
30201,3.5441e-14,4,0.05,2.5236e-06,25.218,1.9378e-06,14.56,-3.0282e-15,-6.0589e-05,-1.9378e-06,-14.56,0
30202,3.7352e-14,4.2727,0.1,0.00038871,3884.4,0.00051701,7655.5,3.2696e-07,3773.3,-2.5965e-07,3768.9,0
30203,3.7052e-14,4.1818,0.05,2.8257e-06,28.237,2.1698e-06,16.303,1.2354e-13,-6.0917e-05,-2.1698e-06,-16.303,0
30204,3.8941e-14,4.4545,0.1,0.0003827,3824.3,0.00050903,7537.4,4.2406e-07,3716,-3.3794e-07,3710.2,0
30205,3.8663e-14,4.3636,0.05,3.2035e-06,32.012,2.4599e-06,18.482,8.5132e-14,-1.4857e-06,-2.4599e-06,-18.483,0
30206,4.0531e-14,4.6364,0.1,0.00037491,3746.6,0.00049869,7384.6,5.568e-07,3641.8,-4.4321e-07,3634.3,0
30207,4.0274e-14,4.5455,0.05,3.6719e-06,36.694,2.8196e-06,21.185,-6.2868e-13,-5.9541e-05,-2.8196e-06,-21.185,0
30208,4.212e-14,4.8182,0.1,0.00036472,3644.7,0.00048515,7184.4,7.4662e-07,3544.8,-5.9151e-07,3534.7,0
30209,4.1885e-14,4.7273,0.05,4.2504e-06,42.475,3.2638e-06,24.523,-9.4854e-14,-0.00012621,-3.2638e-06,-24.523,0
30210,4.371e-14,5,0.1,0.00035108,3508.4,0.00046705,6916.8,1.0307e-06,3415.3,-8.1398e-07,3401.5,0
30211,4.3495e-14,4.9091,0.05,4.9625e-06,49.59,3.8106e-06,28.631,-5.3843e-13,-1.122e-05,-3.8106e-06,-28.631,0
30212,4.5299e-14,5.1818,0.1,0.00033227,3320.4,0.00044207,6547.6,1.4947e-06,3237.4,-1.1794e-06,3217.3,0
30213,4.5106e-14,5.0909,0.05,5.8405e-06,58.364,4.4847e-06,33.696,-1.2857e-12,-0.00013264,-4.4847e-06,-33.697,0
30214,4.6888e-14,5.3636,0.1,0.00030484,3046.3,0.00040565,6009.5,2.3317e-06,2979.1,-1.8721e-06,2947.5,0
30215,4.6717e-14,5.2727,0.05,6.8606e-06,68.559,5.2681e-06,39.582,-2.2352e-12,-7.3588e-05,-5.2681e-06,-39.583,0
30216,4.8478e-14,5.5455,0.1,0.00026234,2621.6,0.00034873,5161.4,3.3253e-06,2566.1,-3.5967e-06,2514.1,0
30217,4.8328e-14,5.4545,0.05,7.7967e-06,77.913,5.9869e-06,44.983,-4.5601e-12,-0.0001162,-5.9869e-06,-44.983,0
30218,5.0067e-14,5.7273,0.1,0.00018315,1830.3,0.00024126,3541.9,4.5343e-06,1763.3,-8.6685e-06,1664.1,0
30219,4.9939e-14,5.6364,0.05,8.6183e-06,86.123,6.6177e-06,49.723,-9.8006e-12,-0.00015176,-6.6177e-06,-49.723,0
30220,5.1657e-14,5.9091,0.1,0.00013958,1394.8,0.00013599,1435.4,-4.8956e-06,376.86,-7.437e-05,-145.14,0
30221,5.155e-14,5.8182,0.05,1.654e-05,165.29,1.2701e-05,95.429,-3.5839e-12,-0.000131,-1.2701e-05,-95.429,0
30222,23.909,0,0.1,2.3534e-06,23.518,2.138e-06,19.129,-3.3729e-07,0.53048,-1.3804e-06,-7.3071,2.2982
30223,24,0,0.05,7.9312e-07,7.9257,6.0902e-07,4.5759,2.3011e-12,2.7986e-05,-6.0902e-07,-4.5759,2.3116
30224,23.726,0,0.1,5.6429e-06,56.39,5.414e-06,51.112,-1.289e-06,0.74807,-2.6943e-06,-9.8104,2.2713
30225,23.818,0,0.05,1.8968e-06,18.955,1.4565e-06,10.943,6.4055e-13,8.4193e-06,-1.4565e-06,-10.943,2.2847
30226,23.544,0,0.1,9.2057e-06,91.993,8.9851e-06,86.483,-2.4547e-06,0.52922,-3.9288e-06,-10.547,2.2445
30227,23.635,0,0.05,2.7234e-06,27.216,2.0913e-06,15.713,6.5727e-13,1.0776e-05,-2.0913e-06,-15.713,2.2579
30228,23.361,0,0.1,1.2875e-05,128.66,1.2667e-05,123.24,-3.6743e-06,0.45366,-5.1447e-06,-10.594,2.2177
30229,23.453,0,0.05,3.3421e-06,33.398,2.5663e-06,19.282,7.9738e-15,6.193e-06,-2.5663e-06,-19.282,2.2311
30230,23.179,0,0.1,1.6621e-05,166.09,1.6422e-05,160.76,-4.9231e-06,0.38275,-6.3738e-06,-10.517,2.1909
30231,23.27,0,0.05,3.8498e-06,38.471,2.9562e-06,22.211,1.1558e-13,8.7498e-06,-2.9562e-06,-22.211,2.2043
30232,22.996,0,0.1,2.0414e-05,204,2.0223e-05,198.79,-6.1904e-06,0.33009,-7.6094e-06,-10.332,2.1641
30233,23.088,0,0.05,4.2788e-06,42.758,3.2856e-06,24.687,-9.4939e-14,5.7119e-06,-3.2856e-06,-24.687,2.1775
30234,22.814,0,0.1,2.4241e-05,242.24,2.4058e-05,237.18,-7.4709e-06,0.28419,-8.8505e-06,-10.081,2.1373
30235,22.905,0,0.05,4.6456e-06,46.424,3.5672e-06,26.803,1.4796e-14,9.7777e-06,-3.5672e-06,-26.803,2.1507
30236,22.632,0,0.1,2.8093e-05,280.73,2.7917e-05,275.83,-8.7611e-06,0.24453,-1.0096e-05,-9.7842,2.1105
30237,22.723,0,0.05,4.9607e-06,49.573,3.8092e-06,28.621,-2.3776e-13,7.512e-06,-3.8092e-06,-28.621,2.1239
30238,22.449,0,0.1,3.1963e-05,319.41,3.1794e-05,314.67,-1.0058e-05,0.20931,-1.1344e-05,-9.454,2.0838
30239,22.54,0,0.05,5.2316e-06,52.28,4.0172e-06,30.184,-2.3308e-13,5.4669e-06,-4.0172e-06,-30.184,2.0971
30240,22.267,0,0.1,3.5845e-05,358.2,3.5684e-05,353.65,-1.136e-05,0.17772,-1.2595e-05,-9.1006,2.057
30241,22.358,0,0.05,5.4634e-06,54.596,4.1952e-06,31.521,2.2011e-13,9.4767e-06,-4.1952e-06,-31.521,2.0704
30242,22.084,0,0.1,3.9734e-05,397.07,3.9581e-05,392.7,-1.2665e-05,0.14916,-1.3847e-05,-8.7317,2.0303
30243,22.175,0,0.05,5.6604e-06,56.565,4.3465e-06,32.658,2.214e-13,5.2544e-06,-4.3465e-06,-32.658,2.0437
30244,21.902,0,0.1,4.3625e-05,435.95,4.3479e-05,431.78,-1.397e-05,0.12324,-1.5098e-05,-8.3542,2.0036
30245,21.993,0,0.05,5.8258e-06,58.218,4.4735e-06,33.612,-2.2556e-13,6.7207e-06,-4.4735e-06,-33.612,2.017
30246,21.719,0,0.1,4.7511e-05,474.79,4.7372e-05,470.8,-1.5274e-05,0.099757,-1.6348e-05,-7.974,1.977
30247,21.811,0,0.05,5.9626e-06,59.585,4.5786e-06,34.402,6.2708e-17,7.3614e-06,-4.5786e-06,-34.402,1.9903
30248,21.537,0,0.1,5.1385e-05,513.49,5.1253e-05,509.69,-1.6573e-05,0.078637,-1.7594e-05,-7.597,1.9503
30249,21.628,0,0.05,6.0734e-06,60.693,4.6637e-06,35.041,-3.1287e-15,7.1054e-06,-4.6637e-06,-35.041,1.9636
30250,21.354,0,0.1,5.5237e-05,551.98,5.5111e-05,548.36,-1.7864e-05,0.059909,-1.8834e-05,-7.2289,1.9238
30251,21.446,0,0.05,6.1607e-06,61.564,4.7307e-06,35.544,-9.1111e-13,6.2747e-06,-4.7306e-06,-35.544,1.937
30252,21.172,0,0.1,5.9055e-05,590.14,5.8935e-05,586.69,-1.9143e-05,0.043688,-2.0064e-05,-6.8753,1.8972
30253,21.263,0,0.05,6.2268e-06,62.225,4.7814e-06,35.926,-4.5537e-13,4.2321e-06,-4.7814e-06,-35.926,1.9105
30254,20.989,0,0.1,6.2824e-05,627.81,6.2711e-05,624.53,-2.0404e-05,0.030187,-2.1279e-05,-6.5425,1.8707
30255,21.081,0,0.05,6.2743e-06,62.699,4.8179e-06,36.2,-4.5522e-13,6.936e-06,-4.8179e-06,-36.2,1.8839
30256,20.807,0,0.1,6.6527e-05,664.81,6.6419e-05,661.68,-2.1643e-05,0.019709,-2.2475e-05,-6.2367,1.8442
30257,20.898,0,0.05,6.3057e-06,63.014,4.842e-06,36.381,-4.5548e-13,5.1229e-06,-4.842e-06,-36.381,1.8574
30258,20.625,0,0.1,7.0139e-05,700.91,7.0036e-05,697.91,-2.2849e-05,0.012633,-2.3644e-05,-5.9646,1.8178
30259,20.716,0,0.05,6.3241e-06,63.197,4.8561e-06,36.487,-9.1008e-13,8.6974e-06,-4.8561e-06,-36.487,1.831
30260,20.442,0,0.1,7.3632e-05,735.81,7.3533e-05,732.93,-2.4013e-05,0.0094119,-2.4778e-05,-5.7338,1.7914
30261,20.533,0,0.05,6.3325e-06,63.281,4.8626e-06,36.535,-4.5501e-13,5.1558e-06,-4.8626e-06,-36.535,1.8045
30262,20.26,0,0.1,7.6968e-05,769.15,7.6872e-05,766.36,-2.5123e-05,0.010535,-2.5863e-05,-5.5521,1.765
30263,20.351,0,0.05,6.3344e-06,63.3,4.864e-06,36.546,-9.0861e-13,4.9546e-06,-4.864e-06,-36.546,1.7782
30264,20.077,0,0.1,8.0102e-05,800.47,8.0009e-05,797.75,-2.6163e-05,0.016493,-2.6888e-05,-5.4281,1.7387
30265,20.168,0,0.05,6.3336e-06,63.293,4.8634e-06,36.542,-9.0837e-13,6.5958e-06,-4.8634e-06,-36.542,1.7519
30266,19.895,0,0.1,8.2977e-05,829.2,8.2885e-05,826.51,-2.7114e-05,0.027729,-2.7832e-05,-5.3715,1.7125
30267,19.986,0,0.05,6.3343e-06,63.3,4.864e-06,36.546,-4.5317e-13,6.2375e-06,-4.864e-06,-36.546,1.7256
30268,19.712,0,0.1,8.5523e-05,854.64,8.543e-05,851.95,-2.7951e-05,0.044525,-2.8675e-05,-5.3923,1.6863
30269,19.804,0,0.05,6.3408e-06,63.364,4.869e-06,36.583,-9.0945e-13,6.3248e-06,-4.8689e-06,-36.583,1.6994
30270,19.53,0,0.1,8.7652e-05,875.92,8.7559e-05,873.19,-2.8647e-05,0.066849,-2.9388e-05,-5.5014,1.6602
30271,19.621,0,0.05,6.3572e-06,63.528,4.8816e-06,36.678,-9.0839e-13,4.8583e-06,-4.8816e-06,-36.678,1.6732
30272,19.347,0,0.1,8.9262e-05,892,8.9165e-05,889.18,-2.9165e-05,0.09412,-2.9938e-05,-5.7097,1.6341
30273,19.439,0,0.05,6.3874e-06,63.83,4.9047e-06,36.852,-9.0927e-13,6.4089e-06,-4.9047e-06,-36.852,1.6471
30274,19.165,0,0.1,9.0226e-05,901.63,9.0124e-05,898.67,-2.9465e-05,0.12482,-3.0284e-05,-6.0278,1.6081
30275,19.256,0,0.05,6.434e-06,64.296,4.9405e-06,37.121,-4.545e-13,5.2672e-06,-4.9405e-06,-37.121,1.6211
30276,18.982,0,0.1,9.0394e-05,903.32,9.0285e-05,900.15,-2.9496e-05,0.15602,-3.0377e-05,-6.464,1.5822
30277,19.074,0,0.05,6.4976e-06,64.932,4.9894e-06,37.488,-9.0908e-13,6.1145e-06,-4.9894e-06,-37.488,1.5951
30278,18.8,0,0.1,8.9596e-05,895.35,8.9478e-05,891.9,-2.9203e-05,0.18278,-3.0162e-05,-7.0216,1.5563
30279,18.891,0,0.05,6.5753e-06,65.707,5.049e-06,37.936,-4.5469e-13,5.9465e-06,-5.049e-06,-37.936,1.5692
30280,18.618,0,0.1,8.7637e-05,875.77,8.7507e-05,871.99,-2.8522e-05,0.19733,-2.9572e-05,-7.6942,1.5304
30281,18.709,0,0.05,6.6583e-06,66.537,5.1127e-06,38.415,-5.7484e-15,5.5612e-06,-5.1127e-06,-38.415,1.5433
30282,18.435,0,0.1,8.4307e-05,842.49,8.4163e-05,838.32,-2.7385e-05,0.18867,-2.8536e-05,-8.4576,1.5047
30283,18.526,0,0.05,6.7295e-06,67.249,5.1675e-06,38.826,9.0339e-13,4.8368e-06,-5.1675e-06,-38.826,1.5175
30284,18.253,0,0.1,7.9392e-05,793.37,7.9232e-05,788.77,-2.5727e-05,0.14093,-2.6978e-05,-9.2586,1.479
30285,18.344,0,0.05,6.7601e-06,67.554,5.1909e-06,39.002,9.0936e-13,5.5126e-06,-5.1909e-06,-39.002,1.4918
30286,18.07,0,0.1,7.2692e-05,726.42,7.2517e-05,721.39,-2.3488e-05,0.039784,-2.4824e-05,-9.9961,1.4533
30287,18.161,0,0.05,6.7049e-06,67.002,5.1485e-06,38.684,-1.3589e-16,3.8729e-06,-5.1485e-06,-38.684,1.4661
30288,17.888,0,0.1,6.4049e-05,640.05,6.3861e-05,634.66,-2.0626e-05,-0.14702,-2.2004e-05,-10.505,1.4277
30289,17.979,0,0.05,6.4984e-06,64.939,4.9899e-06,37.492,9.0882e-13,4.5299e-06,-4.9899e-06,-37.492,1.4405
30290,17.705,0,0.1,5.3363e-05,533.26,5.3171e-05,527.76,-1.7119e-05,-0.37126,-1.8466e-05,-10.489,1.4021
30291,17.796,0,0.05,6.0517e-06,60.476,4.647e-06,34.916,4.6026e-13,4.4101e-06,-4.647e-06,-34.916,1.4149
30292,17.523,0,0.1,4.0607e-05,405.79,4.0422e-05,400.5,-1.2998e-05,-0.88144,-1.4154e-05,-9.5732,1.3765
30293,17.614,0,0.05,5.2372e-06,52.336,4.0215e-06,30.216,6.9857e-13,3.9281e-06,-4.0215e-06,-30.216,1.3893
30294,17.34,0,0.1,2.5586e-05,255.69,2.5445e-05,251.67,-8.097e-06,-0.34904,-9.0531e-06,-7.5332,1.351
30295,17.432,0,0.05,3.9189e-06,39.162,3.0092e-06,22.61,4.9784e-13,5.5927e-06,-3.0092e-06,-22.61,1.3638
30296,17.158,0,0.1,9.0078e-06,90.016,9.0392e-06,91.522,-2.3363e-06,6.0511,-3.466e-06,-2.4367,1.3255
30297,17.249,0,0.05,1.5865e-06,15.854,1.2183e-06,9.1535,2.7852e-13,2.5227e-06,-1.2183e-06,-9.1535,1.3383
30298,17.067,0,0.05,1.6767e-06,16.755,1.2875e-06,9.6735,-6.5865e-13,-1.6329e-06,-1.2875e-06,-9.6735,1.3128
30299,16.808,-6.9982e-30,0.1,1.1928e-05,119.19,1.1999e-05,121.84,-3.2007e-06,7.6351,-4.4539e-06,-1.7804,1.2745
30300,16.9,-7.0365e-30,0.05,2.1113e-06,21.098,1.6212e-06,12.181,2.6022e-13,4.2091e-06,-1.6212e-06,-12.181,1.286
30301,16.624,-6.9217e-30,0.1,3.4813e-05,347.89,3.473e-05,345.5,-1.1195e-05,0.43662,-1.194e-05,-5.1544,1.2516
30302,16.716,0,0.05,6.2707e-07,6.2664,4.8151e-07,3.6179,6.0656e-14,1.4623e-06,-4.8151e-07,-3.6179,1.2631
30303,16.441,-6.8453e-30,0.1,5.7459e-05,574.19,5.7362e-05,571.37,-1.8715e-05,-0.23708,-1.9398e-05,-5.3676,1.2287
30304,16.533,0,0.05,2.1503e-06,21.489,1.6512e-06,12.406,6.7074e-13,4.4215e-06,-1.6512e-06,-12.406,1.2401
30305,16.257,-6.7688e-30,0.1,7.8472e-05,784.18,7.8389e-05,781.76,-2.5599e-05,0.43389,-2.6356e-05,-5.2519,1.2058
30306,16.349,0,0.05,2.4243e-06,24.226,1.8616e-06,13.987,9.0482e-13,5.3151e-06,-1.8616e-06,-13.987,1.2172
30307,16.073,-6.6923e-30,0.1,9.7917e-05,978.49,9.7846e-05,976.42,-3.2011e-05,0.73362,-3.2754e-05,-4.8492,1.183
30308,16.165,0,0.05,2.0739e-06,20.725,1.5925e-06,11.966,5.0385e-13,2.5812e-06,-1.5925e-06,-11.966,1.1944
30309,15.89,-6.6158e-30,0.1,0.00011567,1155.9,0.00011561,1154.2,-3.787e-05,0.98154,-3.8587e-05,-4.4084,1.1602
30310,15.982,0,0.05,1.3101e-06,13.092,1.006e-06,7.5588,7.6799e-13,1.8955e-06,-1.006e-06,-7.5589,1.1716
30311,15.706,-6.5393e-30,0.1,0.0001317,1316.1,0.00013165,1314.6,-4.3166e-05,1.1075,-4.3856e-05,-4.0811,1.1375
30312,15.798,0,0.05,4.5798e-07,4.5767,3.5167e-07,2.6423,4.7306e-14,1.3514e-06,-3.5167e-07,-2.6423,1.1488
30313,15.522,-6.4628e-30,0.1,0.00014607,1459.7,0.00014602,1458.3,-4.7913e-05,1.1508,-4.8585e-05,-3.8975,1.1149
30314,15.614,0,0.05,1.0383e-06,10.376,7.973e-07,5.9906,8.3705e-14,3.5517e-06,-7.973e-07,-5.9906,1.1262
30315,15.339,-6.3864e-30,0.1,0.00015891,1588,0.00015886,1586.6,-5.2154e-05,1.1301,-5.2817e-05,-3.8505,1.0924
30316,15.43,0,0.05,2.1867e-06,21.852,1.6791e-06,12.616,2.147e-14,6.5253e-06,-1.6791e-06,-12.616,1.1036
30317,15.155,-6.3099e-30,0.1,0.00017038,1702.6,0.00017033,1701.2,-5.5942e-05,1.0679,-5.6605e-05,-3.9122,1.07
30318,15.247,0,0.05,3.338e-06,33.357,2.5632e-06,19.259,3.496e-14,4.1068e-06,-2.5632e-06,-19.259,1.0812
30319,14.971,-6.2334e-30,0.1,0.00018067,1805.5,0.00018062,1803.9,-5.9339e-05,0.98199,-6.0009e-05,-4.0506,1.0477
30320,15.063,0,0.05,4.4294e-06,44.263,3.4012e-06,25.555,1.3837e-14,3.5651e-06,-3.4012e-06,-25.555,1.0588
30321,14.788,-6.1569e-30,0.1,0.00018996,1898.3,0.0001899,1896.6,-6.2402e-05,0.8855,-6.3084e-05,-4.2361,1.0256
30322,14.879,0,0.05,5.4354e-06,54.316,4.1737e-06,31.36,-1.7884e-12,3.8373e-06,-4.1737e-06,-31.36,1.0366
30323,14.604,-6.0804e-30,0.1,0.00019841,1982.7,0.00019834,1980.9,-6.5188e-05,0.78744,-6.5884e-05,-4.4443,1.0036
30324,14.696,0,0.05,6.3458e-06,63.414,4.8728e-06,36.612,-1.8014e-12,3.1275e-06,-4.8728e-06,-36.612,1.0145
30325,14.42,-6.0039e-30,0.1,0.00020616,2060.2,0.00020609,2058.2,-6.7745e-05,0.6934,-6.8457e-05,-4.6568,0.98166
30326,14.512,0,0.05,7.159e-06,71.54,5.4972e-06,41.304,-3.6252e-12,3.5964e-06,-5.4972e-06,-41.304,0.99257
30327,14.236,-5.9275e-30,0.1,0.00021335,2132.1,0.00021328,2129.9,-7.0115e-05,0.60647,-7.0843e-05,-4.8604,0.9599
30328,14.328,0,0.05,7.8787e-06,78.733,6.0499e-06,45.456,-1.8069e-12,3.4322e-06,-6.0499e-06,-45.456,0.97074
30329,14.053,-5.851e-30,0.1,0.00022009,2199.4,0.00022001,2197.1,-7.2334e-05,0.52802,-7.3076e-05,-5.0467,0.93829
30330,14.145,0,0.05,8.5116e-06,85.058,6.5359e-06,49.108,-1.803e-12,3.7755e-06,-6.5359e-06,-49.108,0.94906
30331,13.869,-5.7745e-30,0.1,0.00022645,2263,0.00022637,2260.6,-7.4433e-05,0.45832,-7.5187e-05,-5.211,0.91682
30332,13.961,0,0.05,9.0658e-06,90.595,6.9614e-06,52.305,-3.6345e-12,3.6731e-06,-6.9614e-06,-52.305,0.92751
30333,13.685,-5.698e-30,0.1,0.00023253,2323.7,0.00023244,2321.2,-7.6435e-05,0.39701,-7.72e-05,-5.3508,0.89551
30334,13.777,0,0.05,9.5494e-06,95.428,7.3328e-06,55.095,-3.6349e-12,3.4863e-06,-7.3327e-06,-55.095,0.90612
30335,13.502,-5.6215e-30,0.1,0.00023837,2382,0.00023828,2379.4,-7.8361e-05,0.34349,-7.9134e-05,-5.4657,0.87435
30336,13.593,0,0.05,9.9707e-06,99.638,7.6562e-06,57.526,-3.6408e-12,3.1166e-06,-7.6562e-06,-57.526,0.88489
30337,13.318,-5.545e-30,0.1,0.00024402,2438.6,0.00024393,2435.9,-8.0228e-05,0.29696,-8.1007e-05,-5.5561,0.85335
30338,13.41,0,0.05,1.0337e-05,103.3,7.9376e-06,59.64,-3.6362e-12,3.507e-06,-7.9376e-06,-59.64,0.86381
30339,13.134,-5.4686e-30,0.1,0.00024954,2493.7,0.00024945,2491,-8.2048e-05,0.25651,-8.283e-05,-5.6235,0.83252
30340,13.226,0,0.05,1.0656e-05,106.48,8.1822e-06,61.478,-3.6367e-12,2.9011e-06,-8.1822e-06,-61.478,0.84289
30341,12.951,-5.3921e-30,0.1,0.00025494,2547.7,0.00025485,2544.9,-8.3832e-05,0.2213,-8.4616e-05,-5.6695,0.81185
30342,13.042,0,0.05,1.0932e-05,109.25,8.3946e-06,63.074,-3.6371e-12,3.1649e-06,-8.3946e-06,-63.074,0.82214
30343,12.767,-5.3156e-30,0.1,0.00026026,2600.8,0.00026017,2598.1,-8.5589e-05,0.19056,-8.6372e-05,-5.6957,0.79136
30344,12.859,0,0.05,1.1172e-05,111.64,8.5789e-06,64.458,-3.6373e-12,2.5075e-06,-8.5789e-06,-64.458,0.80156
30345,12.583,-5.2391e-30,0.1,0.00026552,2653.4,0.00026543,2650.6,-8.7326e-05,0.16363,-8.8107e-05,-5.7038,0.77104
30346,12.675,0,0.05,1.138e-05,113.72,8.7384e-06,65.657,-3.6375e-12,3.0428e-06,-8.7384e-06,-65.657,0.78116
30347,12.399,-5.1626e-30,0.1,0.00027073,2705.5,0.00027064,2702.7,-8.9049e-05,0.13991,-8.9825e-05,-5.6954,0.7509
30348,12.491,0,0.05,1.1559e-05,115.51,8.8762e-06,66.692,-5.4566e-12,2.0286e-06,-8.8762e-06,-66.692,0.76093
30349,12.216,-5.0861e-30,0.1,0.00027591,2757.2,0.00027582,2754.5,-9.0761e-05,0.11878,-9.1531e-05,-5.6719,0.73094
30350,12.308,0,0.05,1.1714e-05,117.06,8.9947e-06,67.583,-5.4566e-12,2.4453e-06,-8.9947e-06,-67.583,0.74088
30351,12.032,-5.0097e-30,0.1,0.00028107,2808.8,0.00028098,2806,-9.2466e-05,0.099774,-9.323e-05,-5.6347,0.71117
30352,12.124,0,0.05,1.1846e-05,118.38,9.0961e-06,68.344,-5.4568e-12,1.968e-06,-9.096e-06,-68.344,0.72101
30353,11.848,-4.9332e-30,0.1,0.00028622,2860.2,0.00028612,2857.4,-9.4168e-05,0.082488,-9.4922e-05,-5.5847,0.69159
30354,11.94,0,0.05,1.1957e-05,119.49,9.1818e-06,68.989,-3.6379e-12,1.9087e-06,-9.1818e-06,-68.989,0.70133
30355,11.665,-4.8567e-30,0.1,0.00029136,2911.6,0.00029126,2908.8,-9.5869e-05,0.066622,-9.6612e-05,-5.5228,0.6722
30356,11.757,0,0.05,1.2051e-05,120.42,9.2534e-06,69.527,-3.6379e-12,2.2132e-06,-9.2534e-06,-69.526,0.68184
30357,11.481,-4.7802e-30,0.1,0.0002965,2962.9,0.0002964,2960.2,-9.7569e-05,0.051851,-9.8301e-05,-5.4496,0.653
30358,11.573,0,0.05,1.2127e-05,121.19,9.3119e-06,69.966,-5.4562e-12,2.1998e-06,-9.3119e-06,-69.966,0.66255
30359,11.297,-4.7037e-30,0.1,0.00030164,3014.3,0.00030155,3011.6,-9.9272e-05,0.037849,-9.9991e-05,-5.3658,0.63401
30360,11.389,0,0.05,1.2187e-05,121.79,9.3582e-06,70.314,-3.6379e-12,1.7839e-06,-9.3582e-06,-70.314,0.64345
30361,11.114,-4.6272e-30,0.1,0.00030679,3065.8,0.0003067,3063.2,-0.00010098,0.0244,-0.00010168,-5.2719,0.61521
30362,11.205,0,0.05,1.2232e-05,122.24,9.393e-06,70.575,-5.4573e-12,2.4439e-06,-9.3929e-06,-70.575,0.62456
30363,10.93,-4.5508e-30,0.1,0.00031195,3117.4,0.00031187,3114.8,-0.00010269,0.011362,-0.00010338,-5.168,0.59663
30364,11.022,0,0.05,1.2263e-05,122.55,9.4165e-06,70.752,-3.6382e-12,1.4288e-06,-9.4165e-06,-70.752,0.60587
30365,10.746,-4.4743e-30,0.1,0.00031713,3169.1,0.00031704,3166.6,-0.0001044,-0.001446,-0.00010508,-5.0544,0.57825
30366,10.838,0,0.05,1.228e-05,122.71,9.4292e-06,70.848,-5.457e-12,2.1453e-06,-9.4292e-06,-70.847,0.58739
30367,10.563,-4.3978e-30,0.1,0.00032232,3221,0.00032224,3218.5,-0.00010612,-0.014236,-0.00010678,-4.9311,0.56009
30368,10.654,0,0.05,1.2282e-05,122.74,9.4313e-06,70.863,-5.4571e-12,1.8478e-06,-9.4313e-06,-70.863,0.56912
30369,10.379,-4.3213e-30,0.1,0.00032753,3273.1,0.00032745,3270.6,-0.00010785,-0.027174,-0.00010849,-4.7983,0.54215
30370,10.471,0,0.05,1.2271e-05,122.63,9.4226e-06,70.798,-7.2762e-12,1.7862e-06,-9.4226e-06,-70.798,0.55107
30371,10.195,-4.2448e-30,0.1,0.00033276,3325.3,0.00033268,3323,-0.00010958,-0.040373,-0.0001102,-4.6559,0.52442
30372,10.287,0,0.05,1.2246e-05,122.37,9.4032e-06,70.652,-5.4573e-12,1.7883e-06,-9.4032e-06,-70.652,0.53323
30373,10.011,-4.1683e-30,0.1,0.00033801,3377.8,0.00033793,3375.5,-0.00011132,-0.053911,-0.00011192,-4.5037,0.50692
30374,10.103,0,0.05,1.2206e-05,121.98,9.3728e-06,70.424,-7.2759e-12,1.6096e-06,-9.3728e-06,-70.423,0.51562
30375,9.8277,-4.0919e-30,0.1,0.00034328,3430.4,0.00034321,3428.2,-0.00011307,-0.067931,-0.00011364,-4.3415,0.48965
30376,9.9196,0,0.05,1.2152e-05,121.43,9.3311e-06,70.11,-5.4569e-12,1.544e-06,-9.331e-06,-70.11,0.49823
30377,9.644,-4.0154e-30,0.1,0.00034857,3483.3,0.0003485,3481.2,-0.00011483,-0.082587,-0.00011537,-4.1693,0.47261
30378,9.7359,0,0.05,1.2082e-05,120.74,9.2776e-06,69.708,-3.6379e-12,1.9676e-06,-9.2776e-06,-69.708,0.48107
30379,9.4603,-3.9389e-30,0.1,0.00035389,3536.5,0.00035382,3534.4,-0.0001166,-0.097976,-0.00011711,-3.9867,0.4558
30380,9.5522,0,0.05,1.1997e-05,119.88,9.2119e-06,69.214,-7.2747e-12,1.4401e-06,-9.2118e-06,-69.214,0.46415
30381,9.2766,-3.8624e-30,0.1,0.00035923,3589.9,0.00035917,3587.9,-0.00011837,-0.11421,-0.00011886,-3.7935,0.43923
30382,9.3685,0,0.05,1.1894e-05,118.86,9.1333e-06,68.624,-5.4568e-12,1.4915e-06,-9.1333e-06,-68.624,0.44746
30383,9.0929,-3.7859e-30,0.1,0.0003646,3643.5,0.00036454,3641.6,-0.00012015,-0.13141,-0.00012061,-3.5894,0.42291
30384,9.1848,0,0.05,1.1774e-05,117.66,9.0411e-06,67.932,-5.4582e-12,1.3735e-06,-9.0411e-06,-67.931,0.43101
30385,8.9092,-3.7094e-30,0.1,0.00037,3697.4,0.00036994,3695.7,-0.00012194,-0.14969,-0.00012237,-3.3742,0.40683
30386,9.0011,0,0.05,1.1635e-05,116.27,8.9346e-06,67.131,-5.4584e-12,1.2551e-06,-8.9346e-06,-67.131,0.41481
30387,8.7255,-3.633e-30,0.1,0.00037542,3751.6,0.00037536,3749.9,-0.00012375,-0.16919,-0.00012414,-3.1476,0.39099
30388,8.8174,0,0.05,1.1477e-05,114.69,8.8128e-06,66.216,-7.2735e-12,1.3323e-06,-8.8128e-06,-66.216,0.39885
30389,8.5418,-3.5565e-30,0.1,0.00038087,3806.1,0.00038082,3804.5,-0.00012556,-0.19003,-0.00012592,-2.9094,0.37542
30390,8.6337,0,0.05,1.1297e-05,112.89,8.6747e-06,65.178,-3.6398e-12,1.2546e-06,-8.6747e-06,-65.178,0.38315
30391,8.3582,-3.48e-30,0.1,0.00038635,3860.9,0.0003863,3859.4,-0.00012738,-0.21235,-0.00012771,-2.6593,0.3601
30392,8.45,0,0.05,1.1094e-05,110.87,8.5191e-06,64.01,-7.2727e-12,1.1402e-06,-8.5191e-06,-64.009,0.3677
30393,8.1745,-3.4035e-30,0.1,0.00039186,3915.9,0.00039182,3914.6,-0.00012922,-0.2363,-0.0001295,-2.3973,0.34503
30394,8.2663,0,0.05,1.0868e-05,108.6,8.345e-06,62.701,-7.2777e-12,1.3539e-06,-8.345e-06,-62.701,0.3525
30395,7.9908,-3.327e-30,0.1,0.00039741,3971.3,0.00039737,3970.1,-0.00013106,-0.26203,-0.00013131,-2.1234,0.33024
30396,8.0826,0,0.05,1.0615e-05,106.07,8.1508e-06,61.242,-7.2744e-12,9.9839e-07,-8.1508e-06,-61.242,0.33758
30397,7.8071,-3.2505e-30,0.1,0.00040299,4027.1,0.00040295,4026,-0.00013292,-0.2897,-0.00013312,-1.8375,0.31571
30398,7.8989,0,0.05,1.0334e-05,103.27,7.9352e-06,59.622,-7.2697e-12,1.1211e-06,-7.9352e-06,-59.622,0.32291
30399,7.6234,-3.1741e-30,0.1,0.0004086,4083.2,0.00040857,4082.2,-0.00013479,-0.31949,-0.00013495,-1.5398,0.30145
30400,7.7152,0,0.05,1.0023e-05,100.16,7.6964e-06,57.828,-3.6321e-12,1.024e-06,-7.6964e-06,-57.828,0.30852
30401,7.4397,-3.0976e-30,0.1,0.00041425,4139.6,0.00041422,4138.8,-0.00013667,-0.35158,-0.00013679,-1.2308,0.28747
30402,7.5315,0,0.05,9.6797e-06,96.731,7.4329e-06,55.848,-7.2669e-12,9.8627e-07,-7.4328e-06,-55.847,0.2944
30403,7.256,-3.0211e-30,0.1,0.00041993,4196.4,0.00041991,4195.8,-0.00013856,-0.38613,-0.00013863,-0.91101,0.27377
30404,7.3478,0,0.05,9.3016e-06,92.952,7.1425e-06,53.666,-7.2782e-12,9.3079e-07,-7.1425e-06,-53.666,0.28056
30405,7.0723,-2.9446e-30,0.1,0.00042566,4253.6,0.00042564,4253.1,-0.00014047,-0.42311,-0.00014049,-0.58153,0.26035
30406,7.1641,0,0.05,8.886e-06,88.798,6.8233e-06,51.268,-7.2652e-12,8.2331e-07,-6.8233e-06,-51.268,0.267
30407,6.8886,-2.8681e-30,0.1,0.00043143,4311.3,0.00043141,4310.9,-0.00014237,-0.24192,-0.0001424,-0.46432,0.24722
30408,6.9804,0,0.05,8.4298e-06,84.24,6.4731e-06,48.636,-7.2663e-12,9.0158e-07,-6.4731e-06,-48.636,0.25372
30409,6.7049,-2.7916e-30,0.1,0.00043723,4369.3,0.00043723,4369.1,-0.00014425,0.10388,-0.00014434,-0.50758,0.23438
30410,6.7967,0,0.05,7.9301e-06,79.246,6.0893e-06,45.753,-7.2655e-12,1.0175e-06,-6.0893e-06,-45.753,0.24073
30411,6.5212,-2.7152e-30,0.1,0.00044309,4427.8,0.00044309,4427.8,-0.00014615,0.45526,-0.00014629,-0.5545,0.22184
30412,6.613,0,0.05,7.3832e-06,73.781,5.6694e-06,42.598,-7.2616e-12,8.9511e-07,-5.6694e-06,-42.598,0.22804
30413,6.3375,-2.6387e-30,0.1,0.00044899,4486.8,0.00044899,4486.9,-0.00014807,0.80956,-0.00014826,-0.60521,0.20959
30414,6.4293,0,0.05,6.7857e-06,67.81,5.2106e-06,39.15,-7.2446e-12,8.8486e-07,-5.2105e-06,-39.15,0.21565
30415,6.1538,-2.5622e-30,0.1,0.00045494,4546.3,0.00045495,4546.5,-0.00015,1.1636,-0.00015024,-0.66,0.19765
30416,6.2457,0,0.05,6.1334e-06,61.292,4.7097e-06,35.387,-7.2463e-12,9.0364e-07,-4.7097e-06,-35.387,0.20355
30417,5.9701,-2.4857e-30,0.1,0.00046094,4606.2,0.00046095,4606.6,-0.00015195,1.5137,-0.00015225,-0.71919,0.18601
30418,6.062,0,0.05,5.4223e-06,54.185,4.1636e-06,31.284,-7.2222e-12,9.709e-07,-4.1636e-06,-31.284,0.19176
30419,5.7864,-2.4092e-30,0.1,0.000467,4666.7,0.00046701,4667.3,-0.00015391,1.8549,-0.00015427,-0.78315,0.17469
30420,5.8783,0,0.05,4.6477e-06,46.445,3.5689e-06,26.815,-7.215e-12,1.3548e-06,-3.5689e-06,-26.815,0.18028
30421,5.6027,-2.3327e-30,0.1,0.00047311,4727.8,0.00047313,4728.5,-0.0001559,2.1815,-0.0001563,-0.85226,0.16368
30422,5.6946,0,0.05,3.8052e-06,38.025,2.9219e-06,21.954,-7.1091e-12,1.6069e-06,-2.9219e-06,-21.954,0.16911
30423,5.419,-2.2563e-30,0.1,0.00047927,4789.4,0.0004793,4790.2,-0.00015791,2.4867,-0.00015836,-0.92698,0.15299
30424,5.5109,0,0.05,2.8903e-06,28.883,2.2194e-06,16.676,-7.091e-12,2.7064e-06,-2.2194e-06,-16.675,0.15826
30425,5.2353,-2.1798e-30,0.1,0.0004855,4851.6,0.00048553,4852.5,-0.00015993,2.7621,-0.00016044,-1.0078,0.14263
30426,5.3272,0,0.05,1.9009e-06,18.995,1.4596e-06,10.967,-6.5644e-12,6.4053e-06,-1.4596e-06,-10.967,0.14774
30427,5.0516,-2.1033e-30,0.1,0.00049178,4914.4,0.00049182,4915.4,-0.00016198,2.9978,-0.00016253,-1.0952,0.13259
30428,5.1435,0,0.05,8.543e-07,8.5371,6.56e-07,4.929,-2.0932e-12,3.5198e-05,-6.5599e-07,-4.9288,0.13753
30429,4.8679,-2.0268e-30,0.1,0.00049813,4977.9,0.00049817,4978.9,-0.00016406,3.182,-0.00016464,-1.1898,0.12288
30430,4.9598,0,0.05,5.2307e-07,5.2271,4.0166e-07,3.018,8.9777e-12,0.0001095,-4.0165e-07,-3.0178,0.12766
30431,4.6842,-1.9503e-30,0.1,0.00050454,5041.9,0.00050458,5042.9,-0.00016616,3.3009,-0.00016677,-1.2923,0.11351
30432,4.7761,0,0.05,1.7119e-06,17.107,1.3145e-06,9.8771,-5.4895e-12,1.2414e-05,-1.3145e-06,-9.8768,0.11812
30433,4.5005,-1.8738e-30,0.1,0.00051101,5106.6,0.00051105,5107.6,-0.00016829,3.3383,-0.00016892,-1.4036,0.10449
30434,4.5924,0,0.05,3.0861e-06,30.839,2.3697e-06,17.805,-6.6606e-12,4.7116e-06,-2.3697e-06,-17.805,0.10892
30435,4.3168,-1.7974e-30,0.1,0.00051754,5171.9,0.00051757,5172.7,-0.00017044,3.2751,-0.00017108,-1.5249,0.095804
30436,4.4087,0,0.05,4.5866e-06,45.834,3.5219e-06,26.463,-6.9553e-12,2.3809e-06,-3.5219e-06,-26.462,0.10007
30437,4.1332,-1.7209e-30,0.1,0.00052413,5237.7,0.00052416,5238.4,-0.00017262,3.0893,-0.00017325,-1.6575,0.087471
30438,4.225,0,0.05,6.2164e-06,62.121,4.7734e-06,35.866,-7.0574e-12,1.4665e-06,-4.7734e-06,-35.865,0.09156
30439,3.9495,-1.6444e-30,0.1,0.00053077,5304,0.00053079,5304.5,-0.00017483,2.7556,-0.00017544,-1.8037,0.079493
30440,4.0413,0,0.05,7.9838e-06,79.783,6.1306e-06,46.063,-7.1209e-12,1.0406e-06,-6.1306e-06,-46.063,0.083404
30441,3.7658,-1.5679e-30,0.1,0.00053745,5370.8,0.00053745,5370.9,-0.00017707,2.2456,-0.00017763,-1.9672,0.071873
30442,3.8576,0,0.05,9.8991e-06,98.923,7.6013e-06,57.113,-7.2052e-12,1.0085e-06,-7.6013e-06,-57.113,0.075604
30443,3.5821,-1.4914e-30,0.1,0.00054416,5437.8,0.00054415,5437.5,-0.00017934,1.529,-0.00017983,-2.1556,0.064616
30444,3.6739,0,0.05,1.1974e-05,119.66,9.1944e-06,69.083,-7.1817e-12,6.3228e-07,-9.1944e-06,-69.083,0.068164
30445,3.3984,-1.4149e-30,0.1,0.00055088,5505,0.00055085,5504.1,-0.00018162,0.5808,-0.00018202,-2.3877,0.057726
30446,3.4902,0,0.05,1.4221e-05,142.11,1.092e-05,82.046,-7.1979e-12,5.2351e-07,-1.092e-05,-82.046,0.06109
30447,3.2147,-1.3385e-30,0.1,0.00055758,5572,0.00055753,5570.3,-0.00018392,-0.58522,-0.0001842,-2.7292,0.051209
30448,3.3065,0,0.05,1.6654e-05,166.42,1.2788e-05,96.084,-7.2096e-12,4.4558e-07,-1.2788e-05,-96.084,0.054386
30449,3.031,-1.262e-30,0.1,0.00056424,5638.5,0.00056415,5635.9,-0.00018617,-1.7366,-0.0001864,-3.474,0.045067
30450,3.1228,0,0.05,1.9289e-05,192.76,1.4811e-05,111.29,-7.2182e-12,3.8761e-07,-1.4811e-05,-111.29,0.048055
30451,2.8473,-1.1855e-30,0.1,0.00057081,5704.2,0.00057068,5700.4,-0.00018831,-2.4047,-0.00018868,-5.1634,0.039307
30452,2.9391,0,0.05,2.2144e-05,221.28,1.7004e-05,127.76,-7.2248e-12,3.4322e-07,-1.7004e-05,-127.76,0.042104
30453,2.6636,-1.109e-30,0.1,0.00057723,5768.3,0.00057705,5763,-0.00019034,-2.7829,-0.00019099,-7.6915,0.033931
30454,2.7554,0,0.05,2.5238e-05,252.21,1.938e-05,145.61,-7.2484e-12,3.0841e-07,-1.938e-05,-145.61,0.036535
30455,2.4799,-1.0325e-30,0.1,0.00058341,5830.1,0.00058317,5823,-0.00019224,-3.0968,-0.00019329,-10.939,0.028944
30456,2.5717,0,0.05,2.8595e-05,285.75,2.1957e-05,164.98,-1.4518e-11,4.2095e-07,-2.1957e-05,-164.98,0.031353
30457,2.2962,-9.5604e-31,0.1,0.00058925,5888.4,0.00058893,5879.2,-0.00019399,-3.4063,-0.00019553,-14.977,0.024351
30458,2.388,0,0.05,3.2241e-05,322.19,2.4757e-05,186.01,-1.0872e-11,2.5814e-07,-2.4757e-05,-186.01,0.026562
30459,2.1125,-8.7956e-31,0.1,0.0005946,5941.9,0.00059419,5930,-0.00019554,-3.7324,-0.0001977,-19.95,0.020153
30460,2.2043,0,0.05,3.6208e-05,361.83,2.7803e-05,208.9,-7.2402e-12,2.3976e-07,-2.7803e-05,-208.9,0.022165
30461,1.9288,-8.0308e-31,0.1,0.00059926,5988.4,0.00059874,5973.3,-0.0001968,-4.0868,-0.00019973,-26.058,0.016355
30462,2.0207,0,0.05,4.0534e-05,405.06,3.1125e-05,233.86,-7.2425e-12,3.3696e-07,-3.1125e-05,-233.86,0.018167
30463,1.7451,-7.2659e-31,0.1,0.00060295,6025.3,0.00060229,6006.2,-0.00019768,-4.4814,-0.00020155,-33.572,0.012959
30464,1.837,0,0.05,4.5266e-05,452.34,3.4758e-05,261.16,-1.0892e-11,2.1218e-07,-3.4758e-05,-261.16,0.014569
30465,1.5614,-6.5011e-31,0.1,0.00060528,6048.6,0.00060445,6024.6,-0.00019803,-4.9236,-0.00020308,-42.864,0.0099668
30466,1.6533,0,0.05,5.0463e-05,504.28,3.875e-05,291.15,-1.0893e-11,2.019e-07,-3.875e-05,-291.15,0.011375
30467,1.3777,-5.7363e-31,0.1,0.00060568,6052.6,0.00060465,6022.5,-0.00019763,-5.445,-0.00020415,-54.481,0.0073791
30468,1.4696,0,0.05,5.6205e-05,561.66,4.3158e-05,324.28,-7.2471e-12,2.9012e-07,-4.3158e-05,-324.28,0.0085847
30469,1.194,-4.9714e-31,0.1,0.0006033,6028.9,0.000602,5991,-0.00019616,-6.0122,-0.00020457,-69.2,0.0051951
30470,1.2859,0,0.05,6.2595e-05,625.52,4.8065e-05,361.14,-7.2482e-12,1.8633e-07,-4.8065e-05,-361.14,0.0061988
30471,1.0103,-4.2066e-31,0.1,0.00059681,5963.9,0.00059514,5915.9,-0.00019312,-6.8252,-0.00020398,-88.452,0.0034117
30472,1.1022,0,0.05,6.9788e-05,697.4,5.3589e-05,402.64,-7.2491e-12,1.7999e-07,-5.3589e-05,-402.64,0.0042155
30473,0.82663,-3.4418e-31,0.1,0.00058395,5835.4,0.0005818,5773.8,-0.00018764,-7.4393,-0.00020186,-114.31,0.0020229
30474,0.91848,0,0.05,7.7997e-05,779.44,5.9892e-05,450.01,-7.25e-12,9.8817e-07,-5.9892e-05,-450.01,0.0026301
30475,0.64293,-2.6769e-31,0.1,0.00056053,5601.4,0.00055765,5519.5,-0.00017814,-8.8808,-0.0001972,-152.11,0.0010179
30476,0.73478,0,0.05,8.7655e-05,875.94,6.7308e-05,505.72,-1.0887e-11,9.5252e-07,-6.7308e-05,-505.72,0.0014345
30477,0.45924,-1.9121e-31,0.1,0.00051869,5183.3,0.00051453,5066.8,-0.0001616,-13.401,-0.00018827,-213.79,0.00037909
30478,0.55109,0,0.05,9.9351e-05,992.83,7.6289e-05,573.21,-1.4525e-11,2.2922e-07,-7.6289e-05,-573.21,0.00061378
30479,0.27554,-1.1473e-31,0.1,0.00043309,4327.9,0.00042661,4158.7,-0.00012433,19.162,-0.00017155,-335.59,8.3656e-05
30480,0.36739,0,0.05,0.00011513,1150.5,8.8405e-05,664.24,-7.255e-12,1.4089e-07,-8.8405e-05,-664.24,0.00014262
30481,0.091848,-3.8242e-32,0.1,0.00025611,2559.3,0.00022994,1945.9,-5.1153e-05,-166.13,-0.00014886,-900.3,2.87e-05
30482,0.1837,0,0.05,0.00014648,1463.8,0.00011248,845.14,-1.2733e-11,-2.6716e-05,-0.00011248,-845.14,2.6303e-05
30483,0,0,0.05,0.00019393,1938,0.00014891,1118.9,-7.7636e-13,0.00022369,-0.00014891,-1118.9,0
30484,0.091848,6,0.1,0.00025611,2559.3,0.00022994,1945.9,-5.1153e-05,-166.13,-0.00014886,-900.3,2.87e-05
30485,5.2451e-14,6,0.05,0.00019393,1938,0.00014891,1118.9,6.2091e-13,-0.00019447,-0.00014891,-1118.9,0
30486,0.27554,6,0.1,0.00043309,4327.9,0.00042661,4158.7,-0.00012433,19.162,-0.00017155,-335.59,8.3656e-05
30487,0.1837,6,0.05,0.00014648,1463.8,0.00011248,845.14,1.0914e-11,2.0994e-05,-0.00011248,-845.14,2.6303e-05
30488,0.45924,6,0.1,0.00051869,5183.3,0.00051453,5066.8,-0.0001616,-13.401,-0.00018827,-213.79,0.00037909
30489,0.36739,6,0.05,0.00011513,1150.5,8.8405e-05,664.24,7.255e-12,-1.4089e-07,-8.8405e-05,-664.24,0.00014262
30490,0.64293,6,0.1,0.00056053,5601.4,0.00055765,5519.5,-0.00017814,-8.8808,-0.0001972,-152.11,0.0010179
30491,0.55109,6,0.05,9.9351e-05,992.83,7.6289e-05,573.21,7.2532e-12,-1.5282e-07,-7.6289e-05,-573.21,0.00061378
30492,0.82663,6,0.1,0.00058395,5835.4,0.0005818,5773.8,-0.00018764,-7.4393,-0.00020186,-114.31,0.0020229
30493,0.73478,6,0.05,8.7655e-05,875.94,6.7308e-05,505.72,7.2516e-12,-1.6337e-07,-6.7308e-05,-505.72,0.0014345
30494,1.0103,6,0.1,0.0005968,5963.9,0.00059514,5915.9,-0.00019312,-6.8252,-0.00020398,-88.452,0.0034117
30495,0.91848,6,0.05,7.7997e-05,779.44,5.9892e-05,450.01,7.25e-12,-8.6962e-08,-5.9892e-05,-450.01,0.0026301
30496,1.194,6,0.1,0.0006033,6028.9,0.000602,5991,-0.00019616,-6.0122,-0.00020457,-69.201,0.0051951
30497,1.1022,6,0.05,6.9788e-05,697.4,5.3589e-05,402.64,7.2599e-12,-1.8e-07,-5.3589e-05,-402.64,0.0042155
30498,1.3777,6,0.1,0.00060568,6052.6,0.00060465,6022.5,-0.00019763,-5.445,-0.00020415,-54.481,0.0073791
30499,1.2859,6,0.05,6.2595e-05,625.52,4.8065e-05,361.14,7.2593e-12,-1.8633e-07,-4.8065e-05,-361.14,0.0061988
30500,1.5614,6,0.1,0.00060528,6048.6,0.00060445,6024.6,-0.00019803,-4.9236,-0.00020308,-42.864,0.0099668
30501,1.4696,6,0.05,5.6205e-05,561.66,4.3158e-05,324.28,1.0882e-11,-1.9342e-07,-4.3158e-05,-324.28,0.0085847
30502,1.7451,6,0.1,0.00060295,6025.3,0.00060229,6006.2,-0.00019768,-4.4814,-0.00020155,-33.572,0.012959
30503,1.6533,6,0.05,5.0463e-05,504.28,3.875e-05,291.15,7.2579e-12,-1.0095e-07,-3.875e-05,-291.15,0.011375
30504,1.9288,6,0.1,0.00059926,5988.4,0.00059874,5973.3,-0.0001968,-4.0868,-0.00019973,-26.058,0.016355
30505,1.837,6,0.05,4.5266e-05,452.34,3.4758e-05,261.16,7.2443e-12,-2.1218e-07,-3.4758e-05,-261.16,0.014569
30506,2.1125,6,0.1,0.0005946,5941.9,0.00059419,5930,-0.00019554,-3.7324,-0.0001977,-19.95,0.020153
30507,2.0207,6,0.05,4.0534e-05,405.06,3.1125e-05,233.86,7.2559e-12,-2.2464e-07,-3.1125e-05,-233.86,0.018167
30508,2.2962,6,0.1,0.00058925,5888.4,0.00058893,5879.2,-0.00019399,-3.4063,-0.00019553,-14.977,0.024351
30509,2.2043,6,0.05,3.6208e-05,361.83,2.7803e-05,208.9,7.2402e-12,-1.1988e-07,-2.7803e-05,-208.9,0.022165
30510,2.4799,6,0.1,0.00058341,5830.1,0.00058317,5823,-0.00019224,-3.0968,-0.00019329,-10.939,0.028944
30511,2.388,6,0.05,3.2241e-05,322.19,2.4757e-05,186.01,7.2683e-12,-1.2907e-07,-2.4757e-05,-186.01,0.026562
30512,2.6636,6,0.1,0.00057723,5768.3,0.00057705,5763,-0.00019034,-2.7829,-0.00019099,-7.6915,0.033931
30513,2.5717,6,0.05,2.8595e-05,285.75,2.1957e-05,164.98,7.2509e-12,-2.8063e-07,-2.1957e-05,-164.98,0.031353
30514,2.8473,6,0.1,0.00057081,5704.2,0.00057068,5700.4,-0.00018831,-2.4047,-0.00018868,-5.1634,0.039307
30515,2.7554,6,0.05,2.5238e-05,252.21,1.938e-05,145.61,3.5966e-12,-1.5421e-07,-1.938e-05,-145.61,0.036535
30516,3.031,6,0.1,0.00056424,5638.5,0.00056415,5635.9,-0.00018617,-1.7366,-0.0001864,-3.474,0.045067
30517,2.9391,6,0.05,2.2144e-05,221.28,1.7004e-05,127.76,7.2248e-12,-3.4322e-07,-1.7004e-05,-127.76,0.042104
30518,3.2147,6,0.1,0.00055758,5572,0.00055753,5570.3,-0.00018392,-0.58524,-0.0001842,-2.7292,0.051209
30519,3.1228,6,0.05,1.9289e-05,192.76,1.4811e-05,111.29,7.2413e-12,-3.8761e-07,-1.4811e-05,-111.29,0.048055
30520,3.3984,6,0.1,0.00055088,5505,0.00055085,5504.1,-0.00018162,0.58078,-0.00018202,-2.3877,0.057726
30521,3.3065,6,0.05,1.6654e-05,166.42,1.2788e-05,96.084,7.2096e-12,-4.4558e-07,-1.2788e-05,-96.084,0.054386
30522,3.5821,6,0.1,0.00054416,5437.8,0.00054415,5437.5,-0.00017934,1.529,-0.00017983,-2.1556,0.064616
30523,3.4902,6,0.05,1.4221e-05,142.11,1.092e-05,82.046,7.2292e-12,-8.7642e-07,-1.092e-05,-82.046,0.06109
30524,3.7658,6,0.1,0.00053745,5370.8,0.00053745,5370.9,-0.00017707,2.2456,-0.00017763,-1.9672,0.071873
30525,3.6739,6,0.05,1.1974e-05,119.66,9.1944e-06,69.083,7.1817e-12,-4.384e-07,-9.1944e-06,-69.083,0.068164
30526,3.9495,6,0.1,0.00053077,5304,0.00053079,5304.5,-0.00017483,2.7556,-0.00017544,-1.8037,0.079493
30527,3.8576,6,0.05,9.8991e-06,98.923,7.6013e-06,57.113,7.2524e-12,-3.9581e-07,-7.6013e-06,-57.113,0.075604
30528,4.1332,6,0.1,0.00052413,5237.7,0.00052416,5238.4,-0.00017262,3.0893,-0.00017325,-1.6575,0.087471
30529,4.0413,6,0.05,7.9839e-06,79.783,6.1306e-06,46.063,7.1209e-12,-1.2891e-06,-6.1306e-06,-46.063,0.083404
30530,4.3168,6,0.1,0.00051754,5171.9,0.00051757,5172.7,-0.00017044,3.2751,-0.00017108,-1.5249,0.095804
30531,4.225,6,0.05,6.2164e-06,62.121,4.7734e-06,35.866,7.0926e-12,-1.1717e-06,-4.7734e-06,-35.866,0.09156
30532,4.5005,6,0.1,0.00051101,5106.6,0.00051105,5107.6,-0.00016829,3.3383,-0.00016892,-1.4036,0.10449
30533,4.4087,6,0.05,4.5866e-06,45.835,3.5219e-06,26.462,6.9114e-12,-1.9451e-06,-3.522e-06,-26.463,0.10007
30534,4.6842,6,0.1,0.00050454,5041.9,0.00050458,5042.9,-0.00016616,3.3009,-0.00016677,-1.2923,0.11351
30535,4.5924,6,0.05,3.0861e-06,30.84,2.3697e-06,17.805,3.3453e-12,-4.0675e-06,-2.3697e-06,-17.805,0.10892
30536,4.8679,6,0.1,0.00049813,4977.9,0.00049817,4978.9,-0.00016406,3.182,-0.00016464,-1.1898,0.12288
30537,4.7761,6,0.05,1.7119e-06,17.108,1.3146e-06,9.877,6.2041e-12,-1.1499e-05,-1.3146e-06,-9.8772,0.11812
30538,5.0516,6,0.1,0.00049178,4914.4,0.00049182,4915.4,-0.00016198,2.9978,-0.00016253,-1.0952,0.13259
30539,4.9598,6,0.05,5.2309e-07,5.2273,4.0167e-07,3.0179,-8.9766e-12,-0.00010933,-4.0167e-07,-3.0181,0.12766
30540,5.2353,6,0.1,0.0004855,4851.6,0.00048553,4852.5,-0.00015993,2.7621,-0.00016044,-1.0078,0.14263
30541,5.1435,6,0.05,8.5428e-07,8.5369,6.5597e-07,4.9287,2.088e-12,-3.4391e-05,-6.5599e-07,-4.9289,0.13753
30542,5.419,6,0.1,0.00047927,4789.4,0.0004793,4790.2,-0.00015791,2.4867,-0.00015836,-0.92698,0.15299
30543,5.3272,6,0.05,1.9008e-06,18.995,1.4596e-06,10.967,6.7335e-12,-5.5333e-06,-1.4596e-06,-10.967,0.14774
30544,5.6027,6,0.1,0.00047311,4727.8,0.00047313,4728.4,-0.0001559,2.1815,-0.0001563,-0.85226,0.16368
30545,5.5109,6,0.05,2.8903e-06,28.883,2.2194e-06,16.675,7.0695e-12,-1.7009e-06,-2.2194e-06,-16.675,0.15826
30546,5.7864,6,0.1,0.000467,4666.7,0.00046701,4667.3,-0.00015391,1.8549,-0.00015427,-0.78314,0.17469
30547,5.6946,6,0.05,3.8051e-06,38.025,2.9219e-06,21.954,3.4871e-12,-5.3509e-07,-2.9219e-06,-21.954,0.16911
30548,5.9701,6,0.1,0.00046094,4606.2,0.00046095,4606.6,-0.00015195,1.5137,-0.00015225,-0.71919,0.18601
30549,5.8783,6,0.05,4.6477e-06,46.445,3.5688e-06,26.815,7.2037e-12,8.3574e-08,-3.5689e-06,-26.815,0.18028
30550,6.1538,6,0.1,0.00045494,4546.3,0.00045495,4546.5,-0.00015,1.1637,-0.00015024,-0.66,0.19765
30551,6.062,6,0.05,5.4222e-06,54.185,4.1636e-06,31.284,7.2424e-12,3.5364e-07,-4.1636e-06,-31.284,0.19176
30552,6.3375,6,0.1,0.00044899,4486.8,0.00044899,4486.9,-0.00014807,0.80957,-0.00014826,-0.60521,0.20959
30553,6.2457,6,0.05,6.1334e-06,61.292,4.7097e-06,35.387,7.2318e-12,4.6703e-07,-4.7097e-06,-35.387,0.20355
30554,6.5212,6,0.1,0.00044309,4427.8,0.00044309,4427.8,-0.00014615,0.45527,-0.00014629,-0.5545,0.22184
30555,6.4293,6,0.05,6.7857e-06,67.81,5.2105e-06,39.15,7.2557e-12,4.8509e-07,-5.2105e-06,-39.15,0.21565
30556,6.7049,6,0.1,0.00043723,4369.3,0.00043723,4369.1,-0.00014425,0.10389,-0.00014434,-0.50758,0.23438
30557,6.613,6,0.05,7.3832e-06,73.781,5.6694e-06,42.597,7.2616e-12,5.3469e-07,-5.6694e-06,-42.598,0.22804
30558,6.8886,6,0.1,0.00043143,4311.3,0.00043141,4310.9,-0.00014237,-0.24191,-0.0001424,-0.46432,0.24722
30559,6.7967,6,0.05,7.93e-06,79.246,6.0893e-06,45.752,7.2681e-12,6.9465e-07,-6.0893e-06,-45.753,0.24073
30560,7.0723,6,0.1,0.00042566,4253.6,0.00042564,4253.1,-0.00014047,-0.42311,-0.00014049,-0.58151,0.26035
30561,6.9804,6,0.05,8.4298e-06,84.24,6.473e-06,48.636,7.2608e-12,8.3159e-07,-6.4731e-06,-48.636,0.25372
30562,7.256,6,0.1,0.00041993,4196.4,0.00041991,4195.8,-0.00013856,-0.38613,-0.00013863,-0.91099,0.27377
30563,7.1641,6,0.05,8.8859e-06,88.798,6.8233e-06,51.268,7.2652e-12,7.857e-07,-6.8233e-06,-51.268,0.267
30564,7.4397,6,0.1,0.00041425,4139.6,0.00041422,4138.8,-0.00013667,-0.35158,-0.00013679,-1.2308,0.28747
30565,7.3478,6,0.05,9.3016e-06,92.952,7.1425e-06,53.666,7.2782e-12,9.7627e-07,-7.1425e-06,-53.666,0.28056
30566,7.6234,6,0.1,0.0004086,4083.2,0.00040857,4082.2,-0.00013479,-0.31949,-0.00013495,-1.5398,0.30145
30567,7.5315,6,0.05,9.6797e-06,96.73,7.4328e-06,55.847,7.2686e-12,8.9397e-07,-7.4328e-06,-55.847,0.2944
30568,7.8071,6,0.1,0.00040299,4027.1,0.00040295,4026,-0.00013292,-0.2897,-0.00013312,-1.8375,0.31571
30569,7.7152,6,0.05,1.0023e-05,100.16,7.6964e-06,57.828,3.6364e-12,9.0681e-07,-7.6964e-06,-57.828,0.30852
30570,7.9908,6,0.1,0.00039741,3971.3,0.00039737,3970.1,-0.00013106,-0.26203,-0.00013131,-2.1234,0.33024
30571,7.8989,6,0.05,1.0334e-05,103.27,7.9351e-06,59.621,3.6362e-12,9.6846e-07,-7.9352e-06,-59.622,0.32291
30572,8.1745,6,0.1,0.00039186,3915.9,0.00039182,3914.6,-0.00012922,-0.2363,-0.0001295,-2.3973,0.34503
30573,8.0826,6,0.05,1.0615e-05,106.07,8.1508e-06,61.242,3.6366e-12,1.0941e-06,-8.1508e-06,-61.242,0.33758
30574,8.3582,6,0.1,0.00038635,3860.9,0.0003863,3859.4,-0.00012738,-0.21235,-0.00012771,-2.6593,0.3601
30575,8.2663,6,0.05,1.0868e-05,108.6,8.345e-06,62.701,7.2751e-12,1.0434e-06,-8.345e-06,-62.701,0.3525
30576,8.5418,6,0.1,0.00038087,3806.1,0.00038082,3804.5,-0.00012556,-0.19003,-0.00012592,-2.9093,0.37542
30577,8.45,6,0.05,1.1094e-05,110.87,8.5191e-06,64.009,7.2753e-12,1.3436e-06,-8.5191e-06,-64.009,0.3677
30578,8.7255,6,0.1,0.00037542,3751.6,0.00037536,3749.9,-0.00012375,-0.16919,-0.00012414,-3.1476,0.39099
30579,8.6337,6,0.05,1.1297e-05,112.89,8.6746e-06,65.178,3.6375e-12,1.1106e-06,-8.6746e-06,-65.178,0.38315
30580,8.9092,6,0.1,0.00037,3697.4,0.00036994,3695.7,-0.00012194,-0.14969,-0.00012237,-3.3742,0.40683
30581,8.8174,6,0.05,1.1477e-05,114.69,8.8127e-06,66.215,7.2756e-12,1.204e-06,-8.8128e-06,-66.216,0.39885
30582,9.0929,6,0.1,0.0003646,3643.5,0.00036454,3641.6,-0.00012015,-0.13141,-0.00012061,-3.5894,0.42291
30583,9.0011,6,0.05,1.1635e-05,116.27,8.9346e-06,67.131,5.4584e-12,1.4288e-06,-8.9346e-06,-67.131,0.41481
30584,9.2766,6,0.1,0.00035923,3589.9,0.00035917,3587.9,-0.00011837,-0.11421,-0.00011886,-3.7934,0.43923
30585,9.1848,6,0.05,1.1774e-05,117.66,9.0411e-06,67.931,5.4582e-12,1.369e-06,-9.0411e-06,-67.931,0.43101
30586,9.4603,6,0.1,0.00035389,3536.5,0.00035382,3534.4,-0.0001166,-0.097976,-0.00011711,-3.9866,0.4558
30587,9.3685,6,0.05,1.1894e-05,118.86,9.1333e-06,68.624,3.6378e-12,1.4993e-06,-9.1333e-06,-68.624,0.44746
30588,9.644,6,0.1,0.00034857,3483.3,0.0003485,3481.2,-0.00011483,-0.082587,-0.00011537,-4.1692,0.47261
30589,9.5522,6,0.05,1.1997e-05,119.88,9.2118e-06,69.214,3.6379e-12,1.4894e-06,-9.2118e-06,-69.214,0.46415
30590,9.8277,6,0.1,0.00034328,3430.4,0.00034321,3428.2,-0.00011307,-0.06793,-0.00011364,-4.3415,0.48965
30591,9.7359,6,0.05,1.2082e-05,120.74,9.2776e-06,69.708,3.6379e-12,1.3106e-06,-9.2776e-06,-69.708,0.48107
30592,10.011,6,0.1,0.00033801,3377.8,0.00033793,3375.5,-0.00011132,-0.05391,-0.00011192,-4.5036,0.50692
30593,9.9196,6,0.05,1.2152e-05,121.43,9.331e-06,70.11,5.4569e-12,1.7878e-06,-9.331e-06,-70.11,0.49823
30594,10.195,6,0.1,0.00033276,3325.3,0.00033268,3323,-0.00010958,-0.040372,-0.0001102,-4.6559,0.52442
30595,10.103,6,0.05,1.2206e-05,121.98,9.3728e-06,70.423,5.4569e-12,1.4852e-06,-9.3728e-06,-70.423,0.51562
30596,10.379,6,0.1,0.00032753,3273.1,0.00032745,3270.6,-0.00010785,-0.027174,-0.00010849,-4.7983,0.54215
30597,10.287,6,0.05,1.2246e-05,122.37,9.4032e-06,70.652,5.457e-12,1.6721e-06,-9.4032e-06,-70.652,0.53323
30598,10.563,6,0.1,0.00032232,3221,0.00032224,3218.5,-0.00010612,-0.014235,-0.00010678,-4.9311,0.56009
30599,10.471,6,0.05,1.2271e-05,122.63,9.4226e-06,70.798,5.457e-12,2.0245e-06,-9.4226e-06,-70.798,0.55107
30600,10.746,6,0.1,0.00031713,3169.1,0.00031704,3166.6,-0.0001044,-0.0014454,-0.00010508,-5.0543,0.57825
30601,10.654,6,0.05,1.2282e-05,122.74,9.4313e-06,70.863,3.638e-12,1.7881e-06,-9.4313e-06,-70.863,0.56912
30602,10.93,6,0.1,0.00031195,3117.4,0.00031187,3114.8,-0.00010269,0.011362,-0.00010338,-5.168,0.59663
30603,10.838,6,0.05,1.228e-05,122.71,9.4292e-06,70.847,5.457e-12,1.7881e-06,-9.4292e-06,-70.848,0.58739
30604,11.114,6,0.1,0.00030679,3065.8,0.0003067,3063.2,-0.00010098,0.0244,-0.00010168,-5.2719,0.61521
30605,11.022,6,0.05,1.2263e-05,122.55,9.4165e-06,70.752,3.6382e-12,1.6689e-06,-9.4165e-06,-70.752,0.60587
30606,11.297,6,0.1,0.00030164,3014.3,0.00030155,3011.6,-9.9272e-05,0.037849,-9.9991e-05,-5.3658,0.63401
30607,11.205,6,0.05,1.2232e-05,122.24,9.3929e-06,70.575,3.6376e-12,1.8476e-06,-9.3929e-06,-70.575,0.62456
30608,11.481,6,0.1,0.0002965,2962.9,0.0002964,2960.2,-9.7569e-05,0.051851,-9.8301e-05,-5.4496,0.653
30609,11.389,6,0.05,1.2187e-05,121.79,9.3582e-06,70.314,3.6374e-12,2.3288e-06,-9.3582e-06,-70.314,0.64345
30610,11.665,6,0.1,0.00029136,2911.6,0.00029126,2908.8,-9.5869e-05,0.066622,-9.6612e-05,-5.5227,0.6722
30611,11.573,6,0.05,1.2127e-05,121.18,9.3119e-06,69.966,5.4569e-12,1.609e-06,-9.3119e-06,-69.966,0.66255
30612,11.848,6,0.1,0.00028622,2860.2,0.00028612,2857.4,-9.4168e-05,0.082488,-9.4922e-05,-5.5847,0.69159
30613,11.757,6,0.05,1.2051e-05,120.42,9.2534e-06,69.526,3.6379e-12,2.6817e-06,-9.2534e-06,-69.526,0.68184
30614,12.032,6,0.1,0.00028107,2808.8,0.00028098,2806,-9.2466e-05,0.099774,-9.323e-05,-5.6347,0.71117
30615,11.94,6,0.05,1.1957e-05,119.49,9.1818e-06,68.988,3.639e-12,2.3926e-06,-9.1818e-06,-68.989,0.70133
30616,12.216,6,0.1,0.00027591,2757.2,0.00027582,2754.5,-9.0761e-05,0.11878,-9.1531e-05,-5.6719,0.73094
30617,12.124,6,0.05,1.1846e-05,118.38,9.096e-06,68.344,3.6378e-12,1.7275e-06,-9.096e-06,-68.344,0.72101
30618,12.399,6,0.1,0.00027073,2705.5,0.00027064,2702.7,-8.9049e-05,0.13991,-8.9825e-05,-5.6954,0.7509
30619,12.308,6,0.05,1.1714e-05,117.06,8.9947e-06,67.583,3.6378e-12,2.6807e-06,-8.9947e-06,-67.583,0.74088
30620,12.583,6,0.1,0.00026552,2653.4,0.00026543,2650.6,-8.7326e-05,0.16363,-8.8107e-05,-5.7038,0.77104
30621,12.491,6,0.05,1.1559e-05,115.51,8.8762e-06,66.692,3.6377e-12,2.3224e-06,-8.8762e-06,-66.692,0.76093
30622,12.767,6,0.1,0.00026026,2600.8,0.00026017,2598.1,-8.5589e-05,0.19056,-8.6372e-05,-5.6957,0.79136
30623,12.675,6,0.05,1.138e-05,113.72,8.7384e-06,65.657,3.6375e-12,2.781e-06,-8.7384e-06,-65.657,0.78116
30624,12.951,6,0.1,0.00025494,2547.7,0.00025485,2544.9,-8.3832e-05,0.2213,-8.4616e-05,-5.6694,0.81185
30625,12.859,6,0.05,1.1172e-05,111.64,8.5788e-06,64.458,3.6376e-12,2.3574e-06,-8.5788e-06,-64.458,0.80156
30626,13.134,6,0.1,0.00024954,2493.7,0.00024945,2491,-8.2048e-05,0.25651,-8.283e-05,-5.6235,0.83252
30627,13.042,6,0.05,1.0932e-05,109.25,8.3946e-06,63.074,3.6406e-12,2.2918e-06,-8.3946e-06,-63.074,0.82214
30628,13.318,6,0.1,0.00024402,2438.6,0.00024393,2435.9,-8.0228e-05,0.29696,-8.1007e-05,-5.5561,0.85335
30629,13.226,6,0.05,1.0656e-05,106.48,8.1822e-06,61.478,3.6372e-12,3.3652e-06,-8.1822e-06,-61.478,0.84289
30630,13.502,6,0.1,0.00023837,2382,0.00023828,2379.4,-7.8361e-05,0.34349,-7.9134e-05,-5.4656,0.87435
30631,13.41,6,0.05,1.0337e-05,103.3,7.9376e-06,59.64,3.6411e-12,2.4314e-06,-7.9376e-06,-59.64,0.86381
30632,13.685,6,0.1,0.00023253,2323.7,0.00023244,2321.2,-7.6435e-05,0.39701,-7.72e-05,-5.3508,0.89551
30633,13.593,6,0.05,9.9706e-06,99.638,7.6562e-06,57.526,3.6359e-12,2.6046e-06,-7.6562e-06,-57.526,0.88489
30634,13.869,6,0.1,0.00022645,2263,0.00022637,2260.6,-7.4433e-05,0.45832,-7.5187e-05,-5.2109,0.91682
30635,13.777,6,0.05,9.5494e-06,95.428,7.3327e-06,55.095,3.6357e-12,3.3751e-06,-7.3327e-06,-55.095,0.90612
30636,14.053,6,0.1,0.00022009,2199.4,0.00022001,2197.1,-7.2334e-05,0.52802,-7.3076e-05,-5.0467,0.93829
30637,13.961,6,0.05,9.0657e-06,90.595,6.9614e-06,52.305,1.815e-12,3.1116e-06,-6.9614e-06,-52.305,0.92751
30638,14.236,6,0.1,0.00021335,2132.1,0.00021328,2129.9,-7.0115e-05,0.60647,-7.0843e-05,-4.8604,0.9599
30639,14.145,6,0.05,8.5116e-06,85.057,6.5359e-06,49.108,3.6328e-12,3.4859e-06,-6.5359e-06,-49.108,0.94905
30640,14.42,6,0.1,0.00020616,2060.2,0.00020609,2058.2,-6.7745e-05,0.6934,-6.8457e-05,-4.6568,0.98166
30641,14.328,6,0.05,7.8787e-06,78.732,6.0498e-06,45.456,3.6299e-12,2.0464e-06,-6.0499e-06,-45.456,0.97074
30642,14.604,6,0.1,0.00019841,1982.7,0.00019834,1980.9,-6.5188e-05,0.78744,-6.5884e-05,-4.4443,1.0036
30643,14.512,6,0.05,7.1589e-06,71.54,5.4972e-06,41.304,3.6252e-12,3.6195e-06,-5.4972e-06,-41.304,0.99257
30644,14.788,6,0.1,0.00018996,1898.3,0.0001899,1896.6,-6.2402e-05,0.8855,-6.3084e-05,-4.2361,1.0256
30645,14.696,6,0.05,6.3457e-06,63.414,4.8727e-06,36.612,1.7914e-12,2.4995e-06,-4.8727e-06,-36.612,1.0145
30646,14.971,6,0.1,0.00018067,1805.5,0.00018062,1803.9,-5.9339e-05,0.98199,-6.0009e-05,-4.0506,1.0477
30647,14.879,6,0.05,5.4354e-06,54.316,4.1737e-06,31.36,1.8006e-12,3.0536e-06,-4.1737e-06,-31.36,1.0366
30648,15.155,6,0.1,0.00017038,1702.6,0.00017033,1701.2,-5.5942e-05,1.0679,-5.6605e-05,-3.9122,1.07
30649,15.063,6,0.05,4.4294e-06,44.263,3.4012e-06,25.555,1.8117e-12,3.8116e-06,-3.4012e-06,-25.555,1.0588
30650,15.339,6,0.1,0.00015891,1588,0.00015886,1586.6,-5.2154e-05,1.1301,-5.2817e-05,-3.8505,1.0924
30651,15.247,6,0.05,3.338e-06,33.357,2.5632e-06,19.259,1.7821e-12,2.023e-06,-2.5632e-06,-19.259,1.0812
30652,15.522,6,0.1,0.00014607,1459.7,0.00014602,1458.3,-4.7913e-05,1.1508,-4.8585e-05,-3.8975,1.1149
30653,15.43,6,0.05,2.1867e-06,21.852,1.6791e-06,12.616,1.6144e-12,3.6416e-06,-1.6791e-06,-12.616,1.1036
30654,15.706,6,0.1,0.0001317,1316.1,0.00013165,1314.6,-4.3166e-05,1.1075,-4.3856e-05,-4.0811,1.1375
30655,15.614,6,0.05,1.0383e-06,10.376,7.9729e-07,5.9905,1.8834e-13,4.0271e-06,-7.9729e-07,-5.9905,1.1262
30656,15.89,6,0.1,0.00011567,1155.9,0.00011561,1154.2,-3.787e-05,0.98154,-3.8587e-05,-4.4084,1.1602
30657,15.798,6,0.05,4.5799e-07,4.5767,3.5168e-07,2.6424,3.1065e-13,-5.0024e-08,-3.5168e-07,-2.6424,1.1488
30658,16.073,6,0.1,9.7917e-05,978.49,9.7846e-05,976.42,-3.2011e-05,0.73362,-3.2754e-05,-4.8492,1.183
30659,15.982,6,0.05,1.3101e-06,13.092,1.006e-06,7.5589,-2.1339e-22,3.367e-06,-1.006e-06,-7.5589,1.1716
30660,16.257,6,0.1,7.8472e-05,784.18,7.8389e-05,781.76,-2.5599e-05,0.43389,-2.6356e-05,-5.2519,1.2058
30661,16.165,6,0.05,2.0739e-06,20.725,1.5925e-06,11.966,5.6236e-14,4.2274e-06,-1.5925e-06,-11.966,1.1944
30662,16.441,6,0.1,5.7459e-05,574.19,5.7362e-05,571.37,-1.8715e-05,-0.23708,-1.9398e-05,-5.3676,1.2287
30663,16.349,6,0.05,2.4243e-06,24.227,1.8616e-06,13.987,2.1912e-14,4.8913e-06,-1.8616e-06,-13.987,1.2172
30664,16.624,6,0.1,3.4813e-05,347.89,3.473e-05,345.5,-1.1196e-05,0.43663,-1.194e-05,-5.1544,1.2516
30665,16.533,6,0.05,2.1503e-06,21.489,1.6512e-06,12.406,-1.2654e-14,3.9725e-06,-1.6512e-06,-12.406,1.2401
30666,16.808,6,0.1,1.1928e-05,119.19,1.1999e-05,121.84,-3.2007e-06,7.6351,-4.4539e-06,-1.7804,1.2745
30667,16.716,6,0.05,6.2707e-07,6.2664,4.8151e-07,3.6179,3.3854e-13,5.0309e-06,-4.8151e-07,-3.6179,1.2631
30668,16.9,6,0.05,2.1113e-06,21.098,1.6212e-06,12.181,-7.2066e-13,-6.7085e-07,-1.6212e-06,-12.181,1.286
30669,16.624,6,0,3.4813e-05,347.89,1.194e-05,5.1544,1.1196e-05,-0.43663,-3.473e-05,-345.5,1.2516
30670,16.808,6,0,1.1928e-05,119.19,4.4539e-06,1.7804,3.2007e-06,-7.6351,-1.1999e-05,-121.84,1.2745
30671,16.441,6,0,5.7459e-05,574.19,1.9398e-05,5.3677,1.8715e-05,0.23708,-5.7362e-05,-571.37,1.2287
30672,16.257,6,0,7.8472e-05,784.18,2.6356e-05,5.2519,2.5599e-05,-0.43389,-7.8389e-05,-781.76,1.2058
30673,16.073,6,0,9.7917e-05,978.49,3.2754e-05,4.8492,3.2011e-05,-0.73362,-9.7846e-05,-976.42,1.183
30674,15.89,6,0,0.00011567,1155.9,3.8587e-05,4.4084,3.787e-05,-0.98154,-0.00011561,-1154.2,1.1602
30675,15.706,6,0,0.0001317,1316.1,4.3856e-05,4.0811,4.3166e-05,-1.1075,-0.00013165,-1314.6,1.1375
30676,15.522,6,0,0.00014607,1459.7,4.8585e-05,3.8975,4.7913e-05,-1.1508,-0.00014602,-1458.3,1.1149
30677,15.339,6,0,0.00015891,1588,5.2817e-05,3.8505,5.2154e-05,-1.1301,-0.00015886,-1586.6,1.0924
30678,15.155,6,0,0.00017038,1702.6,5.6605e-05,3.9122,5.5942e-05,-1.0679,-0.00017033,-1701.2,1.07
30679,14.971,6,0,0.00018067,1805.5,6.0009e-05,4.0506,5.9339e-05,-0.98199,-0.00018062,-1803.9,1.0477
30680,14.788,6,0,0.00018996,1898.3,6.3084e-05,4.2361,6.2402e-05,-0.88549,-0.0001899,-1896.6,1.0256
30681,14.604,6,0,0.00019841,1982.7,6.5884e-05,4.4443,6.5188e-05,-0.78744,-0.00019834,-1980.9,1.0036
30682,14.42,6,0,0.00020616,2060.2,6.8457e-05,4.6568,6.7745e-05,-0.6934,-0.00020609,-2058.2,0.98166
30683,14.236,6,0,0.00021335,2132.1,7.0843e-05,4.8604,7.0115e-05,-0.60647,-0.00021328,-2129.9,0.9599
30684,14.053,6,0,0.00022009,2199.4,7.3076e-05,5.0467,7.2334e-05,-0.52802,-0.00022001,-2197.1,0.93829
30685,13.869,6,0,0.00022645,2263,7.5187e-05,5.2109,7.4433e-05,-0.45832,-0.00022637,-2260.6,0.91682
30686,13.685,6,0,0.00023253,2323.7,7.72e-05,5.3508,7.6435e-05,-0.39701,-0.00023244,-2321.2,0.89551
30687,13.502,6,0,0.00023837,2382,7.9134e-05,5.4656,7.8361e-05,-0.34349,-0.00023828,-2379.4,0.87435
30688,13.318,6,0,0.00024402,2438.6,8.1007e-05,5.5561,8.0228e-05,-0.29696,-0.00024393,-2435.9,0.85335
30689,13.134,6,0,0.00024954,2493.7,8.283e-05,5.6235,8.2048e-05,-0.25651,-0.00024945,-2491,0.83252
30690,12.951,6,0,0.00025494,2547.7,8.4616e-05,5.6694,8.3832e-05,-0.2213,-0.00025485,-2544.9,0.81185
30691,12.767,6,0,0.00026026,2600.8,8.6372e-05,5.6957,8.5589e-05,-0.19056,-0.00026017,-2598.1,0.79136
30692,12.583,6,0,0.00026552,2653.4,8.8107e-05,5.7038,8.7326e-05,-0.16363,-0.00026543,-2650.6,0.77104
30693,12.399,6,0,0.00027073,2705.5,8.9825e-05,5.6954,8.9049e-05,-0.13991,-0.00027064,-2702.7,0.7509
30694,12.216,6,0,0.00027591,2757.2,9.1531e-05,5.6719,9.0761e-05,-0.11878,-0.00027582,-2754.5,0.73094
30695,12.032,6,0,0.00028107,2808.8,9.323e-05,5.6347,9.2466e-05,-0.099773,-0.00028098,-2806,0.71117
30696,11.848,6,0,0.00028622,2860.2,9.4922e-05,5.5847,9.4168e-05,-0.082487,-0.00028612,-2857.4,0.69159
30697,11.665,6,0,0.00029136,2911.6,9.6612e-05,5.5227,9.5869e-05,-0.066621,-0.00029126,-2908.8,0.6722
30698,11.481,6,0,0.0002965,2962.9,9.8301e-05,5.4496,9.7569e-05,-0.051851,-0.0002964,-2960.2,0.653
30699,11.297,6,0,0.00030164,3014.3,9.9991e-05,5.3658,9.9272e-05,-0.037849,-0.00030155,-3011.6,0.63401
30700,11.114,6,0,0.00030679,3065.8,0.00010168,5.2719,0.00010098,-0.0244,-0.0003067,-3063.2,0.61521
30701,10.93,6,0,0.00031195,3117.4,0.00010338,5.168,0.00010269,-0.011362,-0.00031187,-3114.8,0.59663
30702,10.746,6,0,0.00031713,3169.1,0.00010508,5.0543,0.0001044,0.0014458,-0.00031704,-3166.6,0.57825
30703,10.563,6,0,0.00032232,3221,0.00010678,4.9311,0.00010612,0.014236,-0.00032224,-3218.5,0.56009
30704,10.379,6,0,0.00032753,3273.1,0.00010849,4.7983,0.00010785,0.027174,-0.00032745,-3270.6,0.54215
30705,10.195,6,0,0.00033276,3325.3,0.0001102,4.6559,0.00010958,0.040373,-0.00033268,-3323,0.52442
30706,10.011,6,0,0.00033801,3377.8,0.00011192,4.5036,0.00011132,0.053911,-0.00033793,-3375.5,0.50692
30707,9.8277,6,0,0.00034328,3430.4,0.00011364,4.3415,0.00011307,0.067931,-0.00034321,-3428.2,0.48965
30708,9.644,6,0,0.00034857,3483.3,0.00011537,4.1692,0.00011483,0.082587,-0.0003485,-3481.2,0.47261
30709,9.4603,6,0,0.00035389,3536.5,0.00011711,3.9866,0.0001166,0.097976,-0.00035382,-3534.4,0.4558
30710,9.2766,6,0,0.00035923,3589.9,0.00011886,3.7934,0.00011837,0.11421,-0.00035917,-3587.9,0.43923
30711,9.0929,6,0,0.0003646,3643.5,0.00012061,3.5894,0.00012015,0.13141,-0.00036454,-3641.6,0.42291
30712,8.9092,6,0,0.00037,3697.4,0.00012237,3.3742,0.00012194,0.14969,-0.00036994,-3695.7,0.40683
30713,8.7255,6,0,0.00037542,3751.6,0.00012414,3.1476,0.00012375,0.16919,-0.00037536,-3749.9,0.39099
30714,8.5418,6,0,0.00038087,3806.1,0.00012592,2.9093,0.00012556,0.19003,-0.00038082,-3804.5,0.37542
30715,8.3582,6,0,0.00038635,3860.9,0.00012771,2.6593,0.00012738,0.21235,-0.0003863,-3859.4,0.3601
30716,8.1745,6,0,0.00039186,3915.9,0.0001295,2.3973,0.00012922,0.2363,-0.00039182,-3914.6,0.34503
30717,7.9908,6,0,0.00039741,3971.3,0.00013131,2.1234,0.00013106,0.26203,-0.00039737,-3970.1,0.33024
30718,7.8071,6,0,0.00040299,4027.1,0.00013312,1.8375,0.00013292,0.2897,-0.00040295,-4026,0.31571
30719,7.6234,6,0,0.0004086,4083.2,0.00013495,1.5398,0.00013479,0.31949,-0.00040857,-4082.2,0.30145
30720,7.4397,6,0,0.00041425,4139.6,0.00013679,1.2308,0.00013667,0.35158,-0.00041422,-4138.8,0.28747
30721,7.256,6,0,0.00041993,4196.4,0.00013863,0.911,0.00013856,0.38613,-0.00041991,-4195.8,0.27377
30722,7.0723,6,0,0.00042566,4253.6,0.00014049,0.58152,0.00014047,0.42311,-0.00042564,-4253.1,0.26035
30723,6.8886,6,0,0.00043143,4311.3,0.0001424,0.46432,0.00014237,0.24191,-0.00043141,-4310.9,0.24722
30724,6.7049,6,0,0.00043723,4369.3,0.00014434,0.50758,0.00014425,-0.10389,-0.00043723,-4369.1,0.23438
30725,6.5212,6,0,0.00044309,4427.8,0.00014629,0.5545,0.00014615,-0.45526,-0.00044309,-4427.8,0.22184
30726,6.3375,6,0,0.00044899,4486.8,0.00014826,0.60521,0.00014807,-0.80956,-0.00044899,-4486.9,0.20959
30727,6.1538,6,0,0.00045494,4546.3,0.00015024,0.66,0.00015,-1.1637,-0.00045495,-4546.5,0.19765
30728,5.9701,6,0,0.00046094,4606.2,0.00015225,0.71919,0.00015195,-1.5137,-0.00046095,-4606.6,0.18601
30729,5.7864,6,0,0.000467,4666.7,0.00015427,0.78314,0.00015391,-1.8549,-0.00046701,-4667.3,0.17469
30730,5.6027,6,0,0.00047311,4727.8,0.0001563,0.85226,0.0001559,-2.1815,-0.00047313,-4728.5,0.16368
30731,5.419,6,0,0.00047927,4789.4,0.00015836,0.92698,0.00015791,-2.4867,-0.0004793,-4790.2,0.15299
30732,5.2353,6,0,0.0004855,4851.6,0.00016044,1.0078,0.00015993,-2.7621,-0.00048553,-4852.5,0.14263
30733,5.0516,6,0,0.00049178,4914.4,0.00016253,1.0952,0.00016198,-2.9978,-0.00049182,-4915.4,0.13259
30734,4.8679,6,0,0.00049813,4977.9,0.00016464,1.1898,0.00016406,-3.182,-0.00049817,-4978.9,0.12288
30735,4.6842,6,0,0.00050454,5041.9,0.00016677,1.2923,0.00016616,-3.3009,-0.00050458,-5042.9,0.11351
30736,4.5005,6,0,0.00051101,5106.6,0.00016892,1.4036,0.00016829,-3.3383,-0.00051105,-5107.6,0.10449
30737,4.3168,6,0,0.00051754,5171.9,0.00017108,1.5249,0.00017044,-3.2751,-0.00051757,-5172.7,0.095804
30738,4.1332,6,0,0.00052413,5237.7,0.00017325,1.6575,0.00017262,-3.0893,-0.00052416,-5238.4,0.087471
30739,3.9495,6,0,0.00053077,5304,0.00017544,1.8037,0.00017483,-2.7556,-0.00053079,-5304.5,0.079493
30740,3.7658,6,0,0.00053745,5370.8,0.00017763,1.9672,0.00017707,-2.2456,-0.00053745,-5370.9,0.071873
30741,3.5821,6,0,0.00054416,5437.8,0.00017983,2.1556,0.00017934,-1.529,-0.00054415,-5437.5,0.064616
30742,3.3984,6,0,0.00055088,5505,0.00018202,2.3877,0.00018162,-0.58078,-0.00055085,-5504.1,0.057726
30743,3.2147,6,0,0.00055758,5572,0.0001842,2.7292,0.00018392,0.58524,-0.00055753,-5570.3,0.051209
30744,3.031,6,0,0.00056424,5638.5,0.0001864,3.474,0.00018617,1.7366,-0.00056415,-5635.9,0.045067
30745,2.8473,6,0,0.00057081,5704.2,0.00018868,5.1634,0.00018831,2.4047,-0.00057068,-5700.4,0.039307
30746,2.6636,6,0,0.00057723,5768.3,0.00019099,7.6915,0.00019034,2.7829,-0.00057705,-5763,0.033931
30747,2.4799,6,0,0.00058341,5830.1,0.00019329,10.939,0.00019224,3.0968,-0.00058317,-5823,0.028944
30748,2.2962,6,0,0.00058925,5888.4,0.00019553,14.977,0.00019399,3.4063,-0.00058893,-5879.2,0.024351
30749,2.1125,6,0,0.0005946,5941.9,0.0001977,19.95,0.00019554,3.7324,-0.00059419,-5930,0.020153
30750,1.9288,6,0,0.00059926,5988.4,0.00019973,26.058,0.0001968,4.0868,-0.00059874,-5973.3,0.016355
30751,1.7451,6,0,0.00060295,6025.3,0.00020155,33.572,0.00019768,4.4814,-0.00060229,-6006.2,0.012959
30752,1.5614,6,0,0.00060528,6048.6,0.00020308,42.864,0.00019803,4.9236,-0.00060445,-6024.6,0.0099668
30753,1.3777,6,0,0.00060568,6052.6,0.00020415,54.481,0.00019763,5.445,-0.00060465,-6022.5,0.0073791
30754,1.194,6,0,0.0006033,6028.9,0.00020457,69.201,0.00019616,6.0122,-0.000602,-5991,0.0051951
30755,1.0103,6,0,0.00059681,5963.9,0.00020398,88.452,0.00019312,6.8252,-0.00059514,-5915.9,0.0034117
30756,0.82663,6,0,0.00058395,5835.4,0.00020186,114.31,0.00018764,7.4393,-0.0005818,-5773.8,0.0020229
30757,0.64293,6,0,0.00056053,5601.4,0.0001972,152.11,0.00017814,8.8808,-0.00055765,-5519.5,0.0010179
30758,0.45924,6,0,0.00051869,5183.3,0.00018827,213.79,0.0001616,13.401,-0.00051453,-5066.8,0.00037909
30759,0.27554,6,0,0.00043309,4327.9,0.00017155,335.59,0.00012433,-19.162,-0.00042661,-4158.7,8.3656e-05
30760,0.091848,6,0,0.00025611,2559.3,0.00014886,900.3,5.1153e-05,166.13,-0.00022994,-1945.9,2.87e-05
30761,16.9,5.9091,0,9.2729e-06,92.665,3.9678e-06,12.558,2.6412e-06,2.5901,-8.9749e-06,-84.689,1.2865
30762,5.1657e-14,5.9091,0,0.00013958,1394.8,7.437e-05,145.14,4.8956e-06,-376.86,-0.00013599,-1435.4,0
30763,0.27554,-1.1473e-31,0,0.00043309,4327.9,0.00017155,335.59,0.00012433,-19.162,-0.00042661,-4158.7,8.3656e-05
30764,0.091848,-3.8242e-32,0,0.00025611,2559.3,0.00014886,900.3,5.1153e-05,166.13,-0.00022994,-1945.9,2.87e-05
30765,0.45924,-1.9121e-31,0,0.00051869,5183.3,0.00018827,213.79,0.0001616,13.401,-0.00051453,-5066.8,0.00037909
30766,0.64293,-2.6769e-31,0,0.00056053,5601.4,0.0001972,152.11,0.00017814,8.8808,-0.00055765,-5519.5,0.0010179
30767,0.82663,-3.4418e-31,0,0.00058395,5835.4,0.00020186,114.31,0.00018764,7.4393,-0.0005818,-5773.8,0.0020229
30768,1.0103,-4.2066e-31,0,0.00059681,5963.9,0.00020398,88.452,0.00019312,6.8252,-0.00059514,-5915.9,0.0034117
30769,1.194,-4.9714e-31,0,0.0006033,6028.9,0.00020457,69.2,0.00019616,6.0122,-0.000602,-5991,0.0051951
30770,1.3777,-5.7363e-31,0,0.00060568,6052.6,0.00020415,54.481,0.00019763,5.445,-0.00060465,-6022.5,0.0073791
30771,1.5614,-6.5011e-31,0,0.00060528,6048.6,0.00020308,42.864,0.00019803,4.9236,-0.00060445,-6024.6,0.0099668
30772,1.7451,-7.2659e-31,0,0.00060295,6025.3,0.00020155,33.572,0.00019768,4.4814,-0.00060229,-6006.2,0.012959
30773,1.9288,-8.0308e-31,0,0.00059926,5988.4,0.00019973,26.058,0.0001968,4.0868,-0.00059874,-5973.3,0.016355
30774,2.1125,-8.7956e-31,0,0.0005946,5941.9,0.0001977,19.95,0.00019554,3.7324,-0.00059419,-5930,0.020153
30775,2.2962,-9.5604e-31,0,0.00058925,5888.4,0.00019553,14.977,0.00019399,3.4063,-0.00058893,-5879.2,0.024351
30776,2.4799,-1.0325e-30,0,0.00058341,5830.1,0.00019329,10.939,0.00019224,3.0968,-0.00058317,-5823,0.028944
30777,2.6636,-1.109e-30,0,0.00057723,5768.3,0.00019099,7.6915,0.00019034,2.7829,-0.00057705,-5763,0.033931
30778,2.8473,-1.1855e-30,0,0.00057081,5704.2,0.00018868,5.1634,0.00018831,2.4047,-0.00057068,-5700.4,0.039307
30779,3.031,-1.262e-30,0,0.00056424,5638.5,0.0001864,3.474,0.00018617,1.7366,-0.00056415,-5635.9,0.045067
30780,3.2147,-1.3385e-30,0,0.00055758,5572,0.0001842,2.7292,0.00018392,0.58522,-0.00055753,-5570.3,0.051209
30781,3.3984,-1.4149e-30,0,0.00055088,5505,0.00018202,2.3877,0.00018162,-0.5808,-0.00055085,-5504.1,0.057726
30782,3.5821,-1.4914e-30,0,0.00054416,5437.8,0.00017983,2.1556,0.00017934,-1.529,-0.00054415,-5437.5,0.064616
30783,3.7658,-1.5679e-30,0,0.00053745,5370.8,0.00017763,1.9672,0.00017707,-2.2456,-0.00053745,-5370.9,0.071873
30784,3.9495,-1.6444e-30,0,0.00053077,5304,0.00017544,1.8037,0.00017483,-2.7556,-0.00053079,-5304.5,0.079493
30785,4.1332,-1.7209e-30,0,0.00052413,5237.7,0.00017325,1.6575,0.00017262,-3.0893,-0.00052416,-5238.4,0.087471
30786,4.3168,-1.7974e-30,0,0.00051754,5171.9,0.00017108,1.5249,0.00017044,-3.2751,-0.00051757,-5172.7,0.095804
30787,4.5005,-1.8738e-30,0,0.00051101,5106.6,0.00016892,1.4036,0.00016829,-3.3383,-0.00051105,-5107.6,0.10449
30788,4.6842,-1.9503e-30,0,0.00050454,5041.9,0.00016677,1.2923,0.00016616,-3.3009,-0.00050458,-5042.9,0.11351
30789,4.8679,-2.0268e-30,0,0.00049813,4977.9,0.00016464,1.1898,0.00016406,-3.182,-0.00049817,-4978.9,0.12288
30790,5.0516,-2.1033e-30,0,0.00049178,4914.4,0.00016253,1.0952,0.00016198,-2.9978,-0.00049182,-4915.4,0.13259
30791,5.2353,-2.1798e-30,0,0.0004855,4851.6,0.00016044,1.0078,0.00015993,-2.7621,-0.00048553,-4852.5,0.14263
30792,5.419,-2.2563e-30,0,0.00047927,4789.4,0.00015836,0.92698,0.00015791,-2.4867,-0.0004793,-4790.2,0.15299
30793,5.6027,-2.3327e-30,0,0.00047311,4727.8,0.0001563,0.85226,0.0001559,-2.1815,-0.00047313,-4728.4,0.16368
30794,5.7864,-2.4092e-30,0,0.000467,4666.7,0.00015427,0.78315,0.00015391,-1.8549,-0.00046701,-4667.3,0.17469
30795,5.9701,-2.4857e-30,0,0.00046094,4606.2,0.00015225,0.71919,0.00015195,-1.5137,-0.00046095,-4606.6,0.18601
30796,6.1538,-2.5622e-30,0,0.00045494,4546.3,0.00015024,0.66,0.00015,-1.1636,-0.00045495,-4546.5,0.19765
30797,6.3375,-2.6387e-30,0,0.00044899,4486.8,0.00014826,0.60521,0.00014807,-0.80956,-0.00044899,-4486.9,0.20959
30798,6.5212,-2.7152e-30,0,0.00044309,4427.8,0.00014629,0.5545,0.00014615,-0.45526,-0.00044309,-4427.8,0.22184
30799,6.7049,-2.7916e-30,0,0.00043723,4369.3,0.00014434,0.50758,0.00014425,-0.10388,-0.00043723,-4369.1,0.23438
30800,6.8886,-2.8681e-30,0,0.00043143,4311.3,0.0001424,0.46432,0.00014237,0.24192,-0.00043141,-4310.9,0.24722
30801,7.0723,-2.9446e-30,0,0.00042566,4253.6,0.00014049,0.58153,0.00014047,0.42311,-0.00042564,-4253.1,0.26035
30802,7.256,-3.0211e-30,0,0.00041993,4196.4,0.00013863,0.91101,0.00013856,0.38613,-0.00041991,-4195.8,0.27377
30803,7.4397,-3.0976e-30,0,0.00041425,4139.6,0.00013679,1.2308,0.00013667,0.35158,-0.00041422,-4138.8,0.28747
30804,7.6234,-3.1741e-30,0,0.0004086,4083.2,0.00013495,1.5398,0.00013479,0.31949,-0.00040857,-4082.2,0.30145
30805,7.8071,-3.2505e-30,0,0.00040299,4027.1,0.00013312,1.8375,0.00013292,0.2897,-0.00040295,-4026,0.31571
30806,7.9908,-3.327e-30,0,0.00039741,3971.3,0.00013131,2.1234,0.00013106,0.26203,-0.00039737,-3970.1,0.33024
30807,8.1745,-3.4035e-30,0,0.00039186,3915.9,0.0001295,2.3973,0.00012922,0.2363,-0.00039182,-3914.6,0.34503
30808,8.3582,-3.48e-30,0,0.00038635,3860.9,0.00012771,2.6593,0.00012738,0.21235,-0.0003863,-3859.4,0.3601
30809,8.5418,-3.5565e-30,0,0.00038087,3806.1,0.00012592,2.9094,0.00012556,0.19003,-0.00038082,-3804.5,0.37542
30810,8.7255,-3.633e-30,0,0.00037542,3751.6,0.00012414,3.1476,0.00012375,0.16919,-0.00037536,-3749.9,0.39099
30811,8.9092,-3.7094e-30,0,0.00037,3697.4,0.00012237,3.3742,0.00012194,0.14969,-0.00036994,-3695.7,0.40683
30812,9.0929,-3.7859e-30,0,0.0003646,3643.5,0.00012061,3.5894,0.00012015,0.13141,-0.00036454,-3641.6,0.42291
30813,9.2766,-3.8624e-30,0,0.00035923,3589.9,0.00011886,3.7935,0.00011837,0.11421,-0.00035917,-3587.9,0.43923
30814,9.4603,-3.9389e-30,0,0.00035389,3536.5,0.00011711,3.9867,0.0001166,0.097977,-0.00035382,-3534.4,0.4558
30815,9.644,-4.0154e-30,0,0.00034857,3483.3,0.00011537,4.1693,0.00011483,0.082588,-0.0003485,-3481.2,0.47261
30816,9.8277,-4.0919e-30,0,0.00034328,3430.4,0.00011364,4.3415,0.00011307,0.067931,-0.00034321,-3428.2,0.48965
30817,10.011,-4.1683e-30,0,0.00033801,3377.8,0.00011192,4.5037,0.00011132,0.053911,-0.00033793,-3375.5,0.50692
30818,10.195,-4.2448e-30,0,0.00033276,3325.3,0.0001102,4.6559,0.00010958,0.040373,-0.00033268,-3323,0.52442
30819,10.379,-4.3213e-30,0,0.00032753,3273.1,0.00010849,4.7983,0.00010785,0.027174,-0.00032745,-3270.6,0.54215
30820,10.563,-4.3978e-30,0,0.00032232,3221,0.00010678,4.9311,0.00010612,0.014236,-0.00032224,-3218.5,0.56009
30821,10.746,-4.4743e-30,0,0.00031713,3169.1,0.00010508,5.0544,0.0001044,0.0014465,-0.00031704,-3166.6,0.57825
30822,10.93,-4.5508e-30,0,0.00031195,3117.4,0.00010338,5.168,0.00010269,-0.011362,-0.00031187,-3114.8,0.59663
30823,11.114,-4.6272e-30,0,0.00030679,3065.8,0.00010168,5.2719,0.00010098,-0.0244,-0.0003067,-3063.2,0.61521
30824,11.297,-4.7037e-30,0,0.00030164,3014.3,9.9991e-05,5.3658,9.9272e-05,-0.037849,-0.00030155,-3011.6,0.63401
30825,11.481,-4.7802e-30,0,0.0002965,2962.9,9.8301e-05,5.4496,9.7569e-05,-0.051851,-0.0002964,-2960.2,0.653
30826,11.665,-4.8567e-30,0,0.00029136,2911.6,9.6612e-05,5.5228,9.5869e-05,-0.066621,-0.00029126,-2908.8,0.6722
30827,11.848,-4.9332e-30,0,0.00028622,2860.2,9.4922e-05,5.5847,9.4168e-05,-0.082487,-0.00028612,-2857.4,0.69159
30828,12.032,-5.0097e-30,0,0.00028107,2808.8,9.323e-05,5.6347,9.2466e-05,-0.099774,-0.00028098,-2806,0.71117
30829,12.216,-5.0861e-30,0,0.00027591,2757.2,9.1531e-05,5.6719,9.0761e-05,-0.11878,-0.00027582,-2754.5,0.73094
30830,12.399,-5.1626e-30,0,0.00027073,2705.5,8.9825e-05,5.6954,8.9049e-05,-0.13991,-0.00027064,-2702.7,0.7509
30831,12.583,-5.2391e-30,0,0.00026552,2653.4,8.8107e-05,5.7038,8.7326e-05,-0.16363,-0.00026543,-2650.6,0.77104
30832,12.767,-5.3156e-30,0,0.00026026,2600.8,8.6372e-05,5.6957,8.5589e-05,-0.19056,-0.00026017,-2598.1,0.79136
30833,12.951,-5.3921e-30,0,0.00025494,2547.7,8.4616e-05,5.6695,8.3832e-05,-0.2213,-0.00025485,-2544.9,0.81185
30834,13.134,-5.4686e-30,0,0.00024954,2493.7,8.283e-05,5.6235,8.2048e-05,-0.25651,-0.00024945,-2491,0.83252
30835,13.318,-5.545e-30,0,0.00024402,2438.6,8.1007e-05,5.5561,8.0228e-05,-0.29696,-0.00024393,-2435.9,0.85335
30836,13.502,-5.6215e-30,0,0.00023837,2382,7.9134e-05,5.4657,7.8361e-05,-0.34349,-0.00023828,-2379.4,0.87435
30837,13.685,-5.698e-30,0,0.00023253,2323.7,7.72e-05,5.3508,7.6435e-05,-0.39701,-0.00023244,-2321.2,0.89551
30838,13.869,-5.7745e-30,0,0.00022645,2263,7.5187e-05,5.211,7.4433e-05,-0.45832,-0.00022637,-2260.6,0.91682
30839,14.053,-5.851e-30,0,0.00022009,2199.4,7.3076e-05,5.0467,7.2334e-05,-0.52802,-0.00022001,-2197.1,0.93829
30840,14.236,-5.9275e-30,0,0.00021335,2132.1,7.0843e-05,4.8604,7.0115e-05,-0.60647,-0.00021328,-2129.9,0.9599
30841,14.42,-6.0039e-30,0,0.00020616,2060.2,6.8457e-05,4.6568,6.7745e-05,-0.6934,-0.00020609,-2058.2,0.98166
30842,14.604,-6.0804e-30,0,0.00019841,1982.7,6.5884e-05,4.4444,6.5188e-05,-0.78744,-0.00019834,-1980.9,1.0036
30843,14.788,-6.1569e-30,0,0.00018996,1898.3,6.3084e-05,4.2361,6.2402e-05,-0.8855,-0.0001899,-1896.6,1.0256
30844,14.971,-6.2334e-30,0,0.00018067,1805.5,6.0009e-05,4.0506,5.9339e-05,-0.98199,-0.00018062,-1803.9,1.0477
30845,15.155,-6.3099e-30,0,0.00017038,1702.6,5.6605e-05,3.9122,5.5942e-05,-1.0679,-0.00017033,-1701.2,1.07
30846,15.339,-6.3864e-30,0,0.00015891,1588,5.2817e-05,3.8506,5.2154e-05,-1.1301,-0.00015886,-1586.6,1.0924
30847,15.522,-6.4628e-30,0,0.00014607,1459.7,4.8585e-05,3.8975,4.7913e-05,-1.1508,-0.00014602,-1458.3,1.1149
30848,15.706,-6.5393e-30,0,0.0001317,1316.1,4.3856e-05,4.0811,4.3166e-05,-1.1075,-0.00013165,-1314.6,1.1375
30849,15.89,-6.6158e-30,0,0.00011567,1155.9,3.8587e-05,4.4084,3.787e-05,-0.98154,-0.00011561,-1154.2,1.1602
30850,16.073,-6.6923e-30,0,9.7917e-05,978.49,3.2754e-05,4.8492,3.2011e-05,-0.73362,-9.7846e-05,-976.42,1.183
30851,16.257,-6.7688e-30,0,7.8472e-05,784.18,2.6356e-05,5.2519,2.5599e-05,-0.43389,-7.8389e-05,-781.76,1.2058
30852,16.441,-6.8453e-30,0,5.7459e-05,574.19,1.9398e-05,5.3676,1.8715e-05,0.23708,-5.7362e-05,-571.37,1.2287
30853,16.624,-6.9217e-30,0,3.4813e-05,347.89,1.194e-05,5.1544,1.1195e-05,-0.43662,-3.473e-05,-345.5,1.2516
30854,16.808,-6.9982e-30,0,1.1928e-05,119.19,4.4539e-06,1.7804,3.2007e-06,-7.6351,-1.1999e-05,-121.84,1.2745
30855,16.9,0.090909,0,9.2729e-06,92.665,3.9678e-06,12.558,2.6412e-06,2.5901,-8.9749e-06,-84.689,1.2865
30856,7.9472e-16,0.090909,0,0.00013958,1394.8,7.437e-05,145.14,4.8956e-06,-376.86,-0.00013599,-1435.4,0
30857,17.34,0,0,2.5586e-05,255.69,9.0531e-06,7.5332,8.097e-06,0.34905,-2.5445e-05,-251.67,1.351
30858,17.158,0,0,9.0078e-06,90.016,3.466e-06,2.4367,2.3363e-06,-6.0511,-9.0392e-06,-91.522,1.3255
30859,17.523,0,0,4.0607e-05,405.79,1.4154e-05,9.5732,1.2998e-05,0.88144,-4.0422e-05,-400.5,1.3765
30860,17.705,0,0,5.3363e-05,533.26,1.8466e-05,10.489,1.7119e-05,0.37126,-5.3171e-05,-527.76,1.4021
30861,17.888,0,0,6.4049e-05,640.05,2.2004e-05,10.505,2.0626e-05,0.14702,-6.3861e-05,-634.66,1.4277
30862,18.07,0,0,7.2692e-05,726.42,2.4824e-05,9.9961,2.3488e-05,-0.039783,-7.2517e-05,-721.39,1.4533
30863,18.253,0,0,7.9392e-05,793.37,2.6978e-05,9.2586,2.5727e-05,-0.14093,-7.9232e-05,-788.77,1.479
30864,18.435,0,0,8.4307e-05,842.49,2.8536e-05,8.4576,2.7385e-05,-0.18867,-8.4163e-05,-838.32,1.5047
30865,18.618,0,0,8.7637e-05,875.77,2.9572e-05,7.6942,2.8522e-05,-0.19733,-8.7507e-05,-871.99,1.5304
30866,18.8,0,0,8.9596e-05,895.35,3.0162e-05,7.0217,2.9203e-05,-0.18278,-8.9478e-05,-891.9,1.5563
30867,18.982,0,0,9.0394e-05,903.32,3.0377e-05,6.464,2.9496e-05,-0.15602,-9.0285e-05,-900.15,1.5822
30868,19.165,0,0,9.0226e-05,901.63,3.0284e-05,6.0278,2.9465e-05,-0.12482,-9.0124e-05,-898.67,1.6081
30869,19.347,0,0,8.9262e-05,892,2.9938e-05,5.7097,2.9165e-05,-0.094118,-8.9165e-05,-889.18,1.6341
30870,19.53,0,0,8.7652e-05,875.92,2.9388e-05,5.5014,2.8647e-05,-0.066849,-8.7559e-05,-873.19,1.6602
30871,19.712,0,0,8.5523e-05,854.64,2.8675e-05,5.3923,2.7951e-05,-0.044524,-8.543e-05,-851.95,1.6863
30872,19.895,0,0,8.2977e-05,829.2,2.7832e-05,5.3715,2.7114e-05,-0.027728,-8.2885e-05,-826.51,1.7125
30873,20.077,0,0,8.0102e-05,800.47,2.6888e-05,5.4282,2.6163e-05,-0.016491,-8.0009e-05,-797.75,1.7387
30874,20.26,0,0,7.6968e-05,769.15,2.5863e-05,5.5521,2.5123e-05,-0.010533,-7.6872e-05,-766.36,1.765
30875,20.442,0,0,7.3632e-05,735.81,2.4778e-05,5.7338,2.4013e-05,-0.0094111,-7.3533e-05,-732.93,1.7914
30876,20.625,0,0,7.0139e-05,700.91,2.3644e-05,5.9647,2.2849e-05,-0.012632,-7.0036e-05,-697.91,1.8178
30877,20.807,0,0,6.6527e-05,664.81,2.2475e-05,6.2367,2.1643e-05,-0.019707,-6.6419e-05,-661.68,1.8442
30878,20.989,0,0,6.2824e-05,627.81,2.1279e-05,6.5425,2.0404e-05,-0.030187,-6.2711e-05,-624.53,1.8707
30879,21.172,0,0,5.9055e-05,590.14,2.0064e-05,6.8754,1.9143e-05,-0.043689,-5.8935e-05,-586.69,1.8972
30880,21.354,0,0,5.5237e-05,551.98,1.8834e-05,7.2289,1.7864e-05,-0.059907,-5.5111e-05,-548.36,1.9238
30881,21.537,0,0,5.1385e-05,513.49,1.7594e-05,7.597,1.6573e-05,-0.078632,-5.1253e-05,-509.69,1.9503
30882,21.719,0,0,4.7511e-05,474.79,1.6348e-05,7.974,1.5274e-05,-0.099751,-4.7372e-05,-470.8,1.977
30883,21.902,0,0,4.3625e-05,435.95,1.5098e-05,8.3542,1.397e-05,-0.12323,-4.3479e-05,-431.78,2.0036
30884,22.084,0,0,3.9734e-05,397.07,1.3847e-05,8.7317,1.2665e-05,-0.14915,-3.9581e-05,-392.7,2.0303
30885,22.267,0,0,3.5845e-05,358.2,1.2595e-05,9.1006,1.136e-05,-0.17772,-3.5684e-05,-353.65,2.057
30886,22.449,0,0,3.1963e-05,319.41,1.1344e-05,9.454,1.0058e-05,-0.20931,-3.1794e-05,-314.67,2.0838
30887,22.632,0,0,2.8093e-05,280.73,1.0096e-05,9.7842,8.7611e-06,-0.24453,-2.7917e-05,-275.83,2.1105
30888,22.814,0,0,2.4241e-05,242.24,8.8505e-06,10.081,7.4709e-06,-0.28419,-2.4058e-05,-237.18,2.1373
30889,22.996,0,0,2.0414e-05,204,7.6094e-06,10.332,6.1904e-06,-0.33009,-2.0223e-05,-198.79,2.1641
30890,23.179,0,0,1.6621e-05,166.09,6.3738e-06,10.517,4.9231e-06,-0.38274,-1.6422e-05,-160.76,2.1909
30891,23.361,0,0,1.2875e-05,128.66,5.1447e-06,10.594,3.6743e-06,-0.45365,-1.2667e-05,-123.24,2.2177
30892,23.544,0,0,9.2057e-06,91.993,3.9288e-06,10.547,2.4547e-06,-0.52921,-8.9851e-06,-86.483,2.2445
30893,23.726,0,0,5.6429e-06,56.39,2.6943e-06,9.8104,1.289e-06,-0.74807,-5.414e-06,-51.112,2.2713
30894,23.909,0,0,2.3534e-06,23.518,1.3804e-06,7.3071,3.3729e-07,-0.53047,-2.138e-06,-19.129,2.2982
30895,17.067,0.090909,0,7.676e-06,76.707,3.1309e-06,7.0301,2.1433e-06,-0.39056,-7.5361e-06,-73.118,1.313
30896,24,0.090909,0,2.0988e-06,20.973,1.905e-06,17.859,-1.4481e-07,2.4573,-1.274e-06,-6.0273,2.3116
30897,5.0067e-14,5.7273,0,0.00018315,1830.3,8.6685e-06,-1664.1,-4.5343e-06,-1763.3,-0.00024126,-3541.9,0
30898,4.8478e-14,5.5455,0,0.00026234,2621.6,3.5967e-06,-2514.1,-3.3253e-06,-2566.1,-0.00034873,-5161.4,0
30899,4.6888e-14,5.3636,0,0.00030484,3046.3,1.8721e-06,-2947.5,-2.3317e-06,-2979.1,-0.00040565,-6009.5,0
30900,4.5299e-14,5.1818,0,0.00033227,3320.4,1.1794e-06,-3217.3,-1.4947e-06,-3237.4,-0.00044207,-6547.6,0
30901,4.371e-14,5,0,0.00035108,3508.4,8.1398e-07,-3401.5,-1.0307e-06,-3415.3,-0.00046705,-6916.8,0
30902,4.212e-14,4.8182,0,0.00036472,3644.7,5.9151e-07,-3534.7,-7.4662e-07,-3544.8,-0.00048515,-7184.4,0
30903,4.0531e-14,4.6364,0,0.00037491,3746.6,4.4321e-07,-3634.3,-5.568e-07,-3641.8,-0.00049869,-7384.6,0
30904,3.8941e-14,4.4545,0,0.0003827,3824.3,3.3794e-07,-3710.2,-4.2406e-07,-3716,-0.00050903,-7537.4,0
30905,3.7352e-14,4.2727,0,0.00038871,3884.4,2.5965e-07,-3768.9,-3.2696e-07,-3773.3,-0.00051701,-7655.5,0
30906,3.5762e-14,4.0909,0,0.00039336,3930.9,1.9913e-07,-3814.4,-2.5328e-07,-3817.8,-0.0005232,-7747,0
30907,3.4173e-14,3.9091,0,0.00039696,3966.8,1.507e-07,-3849.5,-1.9551e-07,-3852.1,-0.00052797,-7817.6,0
30908,3.2583e-14,3.7273,0,0.00039968,3994.1,1.106e-07,-3876.2,-1.488e-07,-3878.1,-0.0005316,-7871.2,0
30909,3.0994e-14,3.5455,0,0.00040168,4014.1,7.6285e-08,-3895.8,-1.0989e-07,-3897.2,-0.00053425,-7910.5,0
30910,2.9405e-14,3.3636,0,0.00040305,4027.7,4.6036e-08,-3909.2,-7.6611e-08,-3910.2,-0.00053607,-7937.4,0
30911,2.7815e-14,3.1818,0,0.00040385,4035.7,1.9373e-08,-3917.2,-4.823e-08,-3917.7,-0.00053713,-7953.1,0
30912,2.6226e-14,3,0,0.00040411,4038.3,3.7376e-09,-3919.8,-3.2036e-08,-3920.1,-0.00053748,-7958.2,0
30913,2.4636e-14,2.8182,0,0.00040385,4035.7,1.9373e-08,-3917.2,-4.823e-08,-3917.7,-0.00053713,-7953.1,0
30914,2.3047e-14,2.6364,0,0.00040305,4027.7,4.6036e-08,-3909.2,-7.6611e-08,-3910.2,-0.00053607,-7937.4,0
30915,2.1457e-14,2.4545,0,0.00040168,4014.1,7.6285e-08,-3895.8,-1.0989e-07,-3897.2,-0.00053425,-7910.5,0
30916,1.9868e-14,2.2727,0,0.00039968,3994.1,1.106e-07,-3876.2,-1.488e-07,-3878.1,-0.0005316,-7871.2,0
30917,1.8279e-14,2.0909,0,0.00039696,3966.8,1.507e-07,-3849.5,-1.9551e-07,-3852.1,-0.00052797,-7817.6,0
30918,1.6689e-14,1.9091,0,0.00039336,3930.9,1.9913e-07,-3814.4,-2.5328e-07,-3817.8,-0.0005232,-7747,0
30919,1.51e-14,1.7273,0,0.00038871,3884.4,2.5965e-07,-3768.9,-3.2696e-07,-3773.3,-0.00051701,-7655.5,0
30920,1.351e-14,1.5455,0,0.0003827,3824.3,3.3794e-07,-3710.2,-4.2406e-07,-3716,-0.00050903,-7537.4,0
30921,1.1921e-14,1.3636,0,0.00037491,3746.6,4.4321e-07,-3634.3,-5.568e-07,-3641.8,-0.00049869,-7384.6,0
30922,1.0331e-14,1.1818,0,0.00036472,3644.7,5.9151e-07,-3534.7,-7.4662e-07,-3544.8,-0.00048515,-7184.4,0
30923,8.7419e-15,1,0,0.00035108,3508.4,8.1398e-07,-3401.5,-1.0307e-06,-3415.3,-0.00046705,-6916.8,0
30924,7.1525e-15,0.81818,0,0.00033227,3320.4,1.1794e-06,-3217.3,-1.4947e-06,-3237.4,-0.00044207,-6547.6,0
30925,5.563e-15,0.63636,0,0.00030484,3046.3,1.8721e-06,-2947.5,-2.3317e-06,-2979.1,-0.00040565,-6009.5,0
30926,3.9736e-15,0.45455,0,0.00026234,2621.6,3.5967e-06,-2514.1,-3.3253e-06,-2566.1,-0.00034873,-5161.4,0
30927,2.3842e-15,0.27273,0,0.00018315,1830.3,8.6685e-06,-1664.1,-4.5343e-06,-1763.3,-0.00024126,-3541.9,0
30928,24,0.27273,0,4.6381e-06,46.349,4.4946e-06,43.431,-9.8191e-07,2.2826,-2.1881e-06,-6.78,2.3118
30929,24,0.45455,0,6.6231e-06,66.185,6.4961e-06,63.408,-1.6288e-06,2.36,-2.8655e-06,-6.9318,2.3119
30930,24,0.63636,0,8.1437e-06,81.38,8.0259e-06,78.715,-2.1236e-06,2.4558,-3.3776e-06,-6.9664,2.312
30931,24,0.81818,0,9.378e-06,93.715,9.2661e-06,91.121,-2.5313e-06,2.4798,-3.7869e-06,-6.9546,2.3121
30932,24,1,0,1.0399e-05,103.91,1.0291e-05,101.38,-2.8694e-06,2.4992,-4.123e-06,-6.9199,2.3122
30933,24,1.1818,0,1.125e-05,112.42,1.1146e-05,109.94,-3.1523e-06,2.5102,-4.4021e-06,-6.8802,2.3123
30934,24,1.3636,0,1.1962e-05,119.54,1.1861e-05,117.1,-3.3892e-06,2.5177,-4.6346e-06,-6.84,2.3124
30935,24,1.5455,0,1.2556e-05,125.47,1.2457e-05,123.07,-3.587e-06,2.5224,-4.8281e-06,-6.8025,2.3124
30936,24,1.7273,0,1.3048e-05,130.39,1.2951e-05,128.02,-3.7512e-06,2.5253,-4.9882e-06,-6.7689,2.3125
30937,24,1.9091,0,1.3451e-05,134.42,1.3356e-05,132.07,-3.886e-06,2.527,-5.1193e-06,-6.7397,2.3126
30938,24,2.0909,0,1.3777e-05,137.67,1.3682e-05,135.34,-3.9947e-06,2.5278,-5.2249e-06,-6.7152,2.3126
30939,24,2.2727,0,1.4032e-05,140.22,1.3938e-05,137.91,-4.0802e-06,2.5282,-5.3077e-06,-6.6953,2.3127
30940,24,2.4545,0,1.4224e-05,142.14,1.4131e-05,139.84,-4.1444e-06,2.5283,-5.37e-06,-6.68,2.3127
30941,24,2.6364,0,1.4358e-05,143.48,1.4265e-05,141.19,-4.1892e-06,2.5282,-5.4133e-06,-6.6692,2.3127
30942,24,2.8182,0,1.4437e-05,144.27,1.4345e-05,141.98,-4.2156e-06,2.5282,-5.4389e-06,-6.6627,2.3127
30943,24,3,0,1.4463e-05,144.53,1.4371e-05,142.24,-4.2244e-06,2.5281,-5.4473e-06,-6.6606,2.3127
30944,24,3.1818,0,1.4437e-05,144.27,1.4345e-05,141.98,-4.2156e-06,2.5282,-5.4389e-06,-6.6627,2.3127
30945,24,3.3636,0,1.4358e-05,143.48,1.4265e-05,141.19,-4.1892e-06,2.5282,-5.4133e-06,-6.6692,2.3127
30946,24,3.5455,0,1.4224e-05,142.14,1.4131e-05,139.84,-4.1444e-06,2.5283,-5.37e-06,-6.68,2.3127
30947,24,3.7273,0,1.4032e-05,140.22,1.3938e-05,137.91,-4.0802e-06,2.5282,-5.3077e-06,-6.6953,2.3127
30948,24,3.9091,0,1.3777e-05,137.67,1.3682e-05,135.34,-3.9947e-06,2.5278,-5.2249e-06,-6.7152,2.3126
30949,24,4.0909,0,1.3451e-05,134.42,1.3356e-05,132.07,-3.886e-06,2.527,-5.1193e-06,-6.7397,2.3126
30950,24,4.2727,0,1.3048e-05,130.39,1.2951e-05,128.02,-3.7512e-06,2.5253,-4.9882e-06,-6.7689,2.3125
30951,24,4.4545,0,1.2556e-05,125.47,1.2457e-05,123.07,-3.587e-06,2.5224,-4.8281e-06,-6.8025,2.3124
30952,24,4.6364,0,1.1962e-05,119.54,1.1861e-05,117.1,-3.3892e-06,2.5177,-4.6346e-06,-6.84,2.3124
30953,24,4.8182,0,1.125e-05,112.42,1.1146e-05,109.94,-3.1523e-06,2.5102,-4.4021e-06,-6.8802,2.3123
30954,24,5,0,1.0399e-05,103.91,1.0291e-05,101.38,-2.8694e-06,2.4992,-4.123e-06,-6.9199,2.3122
30955,24,5.1818,0,9.378e-06,93.715,9.2661e-06,91.121,-2.5313e-06,2.4798,-3.7869e-06,-6.9546,2.3121
30956,24,5.3636,0,8.1437e-06,81.38,8.0259e-06,78.715,-2.1236e-06,2.4558,-3.3776e-06,-6.9663,2.312
30957,24,5.5455,0,6.6231e-06,66.185,6.4961e-06,63.408,-1.6288e-06,2.36,-2.8655e-06,-6.9318,2.3119
30958,24,5.7273,0,4.6381e-06,46.349,4.4946e-06,43.431,-9.8191e-07,2.2826,-2.1881e-06,-6.78,2.3118
30959,24,5.9091,0,2.0988e-06,20.973,1.905e-06,17.859,-1.4481e-07,2.4573,-1.274e-06,-6.0273,2.3116
30960,23.909,6,0,2.3534e-06,23.518,1.3804e-06,7.3071,3.3729e-07,-0.53048,-2.138e-06,-19.129,2.2982
30961,23.726,6,0,5.6429e-06,56.39,2.6943e-06,9.8104,1.289e-06,-0.74807,-5.414e-06,-51.112,2.2713
30962,23.544,6,0,9.2057e-06,91.993,3.9288e-06,10.547,2.4547e-06,-0.52921,-8.9851e-06,-86.483,2.2445
30963,23.361,6,0,1.2875e-05,128.66,5.1447e-06,10.594,3.6743e-06,-0.45365,-1.2667e-05,-123.24,2.2177
30964,23.179,6,0,1.6621e-05,166.09,6.3738e-06,10.517,4.9231e-06,-0.38274,-1.6422e-05,-160.76,2.1909
30965,22.996,6,0,2.0414e-05,204,7.6094e-06,10.332,6.1904e-06,-0.33009,-2.0223e-05,-198.79,2.1641
30966,22.814,6,0,2.4241e-05,242.24,8.8505e-06,10.081,7.4709e-06,-0.28419,-2.4058e-05,-237.18,2.1373
30967,22.632,6,0,2.8093e-05,280.73,1.0096e-05,9.7842,8.7611e-06,-0.24453,-2.7917e-05,-275.83,2.1105
30968,22.449,6,0,3.1963e-05,319.41,1.1344e-05,9.454,1.0058e-05,-0.20931,-3.1794e-05,-314.67,2.0838
30969,22.267,6,0,3.5845e-05,358.2,1.2595e-05,9.1006,1.136e-05,-0.17772,-3.5684e-05,-353.65,2.057
30970,22.084,6,0,3.9734e-05,397.07,1.3847e-05,8.7317,1.2665e-05,-0.14915,-3.9581e-05,-392.7,2.0303
30971,21.902,6,0,4.3625e-05,435.95,1.5098e-05,8.3542,1.397e-05,-0.12323,-4.3479e-05,-431.78,2.0036
30972,21.719,6,0,4.7511e-05,474.79,1.6348e-05,7.974,1.5274e-05,-0.099754,-4.7372e-05,-470.8,1.977
30973,21.537,6,0,5.1385e-05,513.5,1.7594e-05,7.597,1.6573e-05,-0.078635,-5.1253e-05,-509.69,1.9503
30974,21.354,6,0,5.5237e-05,551.98,1.8834e-05,7.2289,1.7864e-05,-0.059907,-5.5111e-05,-548.36,1.9238
30975,21.172,6,0,5.9055e-05,590.14,2.0064e-05,6.8753,1.9143e-05,-0.043685,-5.8935e-05,-586.69,1.8972
30976,20.989,6,0,6.2824e-05,627.81,2.1279e-05,6.5425,2.0405e-05,-0.030183,-6.2711e-05,-624.53,1.8707
30977,20.807,6,0,6.6527e-05,664.81,2.2475e-05,6.2367,2.1643e-05,-0.019706,-6.6419e-05,-661.68,1.8442
30978,20.625,6,0,7.0139e-05,700.91,2.3644e-05,5.9646,2.2849e-05,-0.012631,-7.0036e-05,-697.91,1.8178
30979,20.442,6,0,7.3632e-05,735.81,2.4778e-05,5.7338,2.4013e-05,-0.0094091,-7.3533e-05,-732.93,1.7914
30980,20.26,6,0,7.6968e-05,769.15,2.5863e-05,5.5521,2.5123e-05,-0.010532,-7.6872e-05,-766.36,1.765
30981,20.077,6,0,8.0102e-05,800.47,2.6888e-05,5.4281,2.6163e-05,-0.01649,-8.0009e-05,-797.75,1.7387
30982,19.895,6,0,8.2977e-05,829.2,2.7832e-05,5.3715,2.7114e-05,-0.027726,-8.2885e-05,-826.51,1.7125
30983,19.712,6,0,8.5523e-05,854.64,2.8675e-05,5.3923,2.7951e-05,-0.044523,-8.543e-05,-851.95,1.6863
30984,19.53,6,0,8.7652e-05,875.92,2.9388e-05,5.5014,2.8647e-05,-0.066849,-8.7559e-05,-873.19,1.6602
30985,19.347,6,0,8.9262e-05,892,2.9938e-05,5.7097,2.9165e-05,-0.094118,-8.9165e-05,-889.18,1.6341
30986,19.165,6,0,9.0226e-05,901.63,3.0284e-05,6.0278,2.9465e-05,-0.12482,-9.0124e-05,-898.67,1.6081
30987,18.982,6,0,9.0394e-05,903.32,3.0377e-05,6.464,2.9496e-05,-0.15602,-9.0285e-05,-900.15,1.5822
30988,18.8,6,0,8.9596e-05,895.35,3.0162e-05,7.0216,2.9203e-05,-0.18278,-8.9478e-05,-891.9,1.5563
30989,18.618,6,0,8.7637e-05,875.77,2.9572e-05,7.6942,2.8522e-05,-0.19733,-8.7507e-05,-871.99,1.5304
30990,18.435,6,0,8.4307e-05,842.49,2.8536e-05,8.4576,2.7385e-05,-0.18867,-8.4163e-05,-838.32,1.5047
30991,18.253,6,0,7.9392e-05,793.37,2.6978e-05,9.2586,2.5727e-05,-0.14094,-7.9232e-05,-788.77,1.479
30992,18.07,6,0,7.2692e-05,726.42,2.4824e-05,9.9961,2.3488e-05,-0.039785,-7.2517e-05,-721.39,1.4533
30993,17.888,6,0,6.4049e-05,640.05,2.2004e-05,10.505,2.0626e-05,0.14702,-6.3861e-05,-634.66,1.4277
30994,17.705,6,0,5.3363e-05,533.26,1.8466e-05,10.489,1.7119e-05,0.37126,-5.3171e-05,-527.76,1.4021
30995,17.523,6,0,4.0607e-05,405.79,1.4154e-05,9.5732,1.2998e-05,0.88144,-4.0422e-05,-400.5,1.3765
30996,17.34,6,0,2.5586e-05,255.69,9.0531e-06,7.5332,8.097e-06,0.34904,-2.5445e-05,-251.67,1.351
30997,17.158,6,0,9.0078e-06,90.016,3.466e-06,2.4367,2.3363e-06,-6.0511,-9.0392e-06,-91.522,1.3255
30998,17.067,5.9091,0,7.676e-06,76.707,3.1309e-06,7.0301,2.1433e-06,-0.39056,-7.5361e-06,-73.118,1.313
30999,16.9,1.7273,0,0.00028753,2873.3,0.00023147,1831.7,-9.2923e-06,22.723,-0.00020948,-1481.4,1.2947
31000,16.9,1.9091,0,0.00054501,5446.3,0.0003524,1991.1,3.461e-05,-396.69,-0.00047707,-4241.3,1.2957
31001,16.9,1.5455,0,0.000189,1888.7,0.00014541,1110,1.8345e-06,31.268,-0.00014484,-1070.8,1.2938
31002,16.9,1.3636,0,0.00014799,1478.9,0.00011233,841.18,2.1938e-06,13.654,-0.00011491,-866.24,1.2929
31003,16.9,1.1818,0,0.00011668,1166,8.6199e-05,629.46,4.0902e-06,12.525,-9.2785e-05,-715.36,1.2919
31004,16.9,1,0,9.2825e-05,927.61,6.6461e-05,470.21,5.1865e-06,9.8098,-7.5646e-05,-597.54,1.291
31005,16.9,0.81818,0,7.315e-05,730.99,5.0325e-05,342.05,5.9668e-06,8.7585,-6.1238e-05,-496.19,1.2901
31006,16.9,0.63636,0,5.6122e-05,560.83,3.665e-05,235.8,6.3071e-06,7.8118,-4.8384e-05,-403.12,1.2891
31007,16.9,0.45455,0,4.0704e-05,406.76,2.4738e-05,146.94,6.1641e-06,7.3836,-3.624e-05,-311.23,1.2882
31008,16.9,0.27273,0,2.5684e-05,256.66,1.4066e-05,73.453,5.174e-06,6.6406,-2.366e-05,-210.01,1.2873
31009,16.983,2,0,0.00072753,7270.3,0.00035122,946.53,0.0001259,-746.4,-0.00070918,-7020.9,1.3072
31010,17.067,0.27273,0,2.1342e-05,213.28,1.0138e-05,40.599,5.3279e-06,4.4545,-2.0345e-05,-188.44,1.3134
31011,17.067,0.45455,0,3.3658e-05,336.35,1.7176e-05,78.054,7.4752e-06,5.168,-3.1644e-05,-288.76,1.3138
31012,17.067,0.63636,0,4.6009e-05,459.77,2.4708e-05,121.68,9.2501e-06,5.5302,-4.273e-05,-385.03,1.3142
31013,17.067,0.81818,0,5.9535e-05,594.94,3.3208e-05,173.11,1.1017e-05,6.3773,-5.4702e-05,-487.41,1.3147
31014,17.067,1,0,7.5223e-05,751.71,4.3252e-05,235.36,1.2911e-05,7.3841,-6.8453e-05,-603.95,1.3151
31015,17.067,1.1818,0,9.4486e-05,944.21,5.5677e-05,313.76,1.5219e-05,9.78,-8.5236e-05,-745,1.3156
31016,17.067,1.3636,0,0.00012026,1201.8,7.2694e-05,423.07,1.7878e-05,11.209,-0.00010745,-930.49,1.3162
31017,17.067,1.5455,0,0.00015411,1540,9.2967e-05,546.86,2.3855e-05,27.572,-0.00013762,-1185.7,1.3167
31018,17.067,1.7273,0,0.00023586,2357,0.00015574,1009.9,2.4534e-05,24.065,-0.00020225,-1679.9,1.3173
31019,17.067,1.9091,0,0.00049187,4915.3,0.00026078,926.31,6.6183e-05,-535.83,-0.00046863,-4554.2,1.318
31020,16.9,4.2727,0,0.00028753,2873.3,0.00023147,1831.7,-9.2922e-06,22.723,-0.00020948,-1481.4,1.2947
31021,16.9,4.0909,0,0.00054501,5446.3,0.0003524,1991.1,3.461e-05,-396.69,-0.00047707,-4241.3,1.2957
31022,16.9,4.4545,0,0.000189,1888.7,0.00014541,1110,1.8345e-06,31.268,-0.00014484,-1070.8,1.2938
31023,16.9,4.6364,0,0.00014799,1478.9,0.00011233,841.18,2.1938e-06,13.654,-0.00011491,-866.24,1.2929
31024,16.9,4.8182,0,0.00011668,1166,8.6199e-05,629.46,4.0902e-06,12.525,-9.2786e-05,-715.36,1.2919
31025,16.9,5,0,9.2825e-05,927.61,6.6461e-05,470.2,5.1865e-06,9.8098,-7.5646e-05,-597.54,1.291
31026,16.9,5.1818,0,7.315e-05,730.99,5.0325e-05,342.05,5.9668e-06,8.7585,-6.1238e-05,-496.19,1.2901
31027,16.9,5.3636,0,5.6122e-05,560.83,3.665e-05,235.8,6.3071e-06,7.8118,-4.8384e-05,-403.12,1.2891
31028,16.9,5.5455,0,4.0704e-05,406.76,2.4738e-05,146.94,6.1641e-06,7.3836,-3.624e-05,-311.23,1.2882
31029,16.9,5.7273,0,2.5684e-05,256.66,1.4066e-05,73.453,5.174e-06,6.6406,-2.366e-05,-210.01,1.2873
31030,16.983,4,0,0.00072753,7270.3,0.00035122,946.53,0.0001259,-746.4,-0.00070918,-7020.9,1.3072
31031,17.067,5.7273,0,2.1342e-05,213.28,1.0138e-05,40.599,5.3279e-06,4.4545,-2.0345e-05,-188.44,1.3134
31032,17.067,5.5455,0,3.3658e-05,336.35,1.7176e-05,78.054,7.4752e-06,5.168,-3.1644e-05,-288.76,1.3138
31033,17.067,5.3636,0,4.6009e-05,459.77,2.4708e-05,121.68,9.2501e-06,5.5302,-4.273e-05,-385.03,1.3142
31034,17.067,5.1818,0,5.9535e-05,594.94,3.3208e-05,173.11,1.1017e-05,6.3773,-5.4702e-05,-487.41,1.3147
31035,17.067,5,0,7.5223e-05,751.71,4.3252e-05,235.36,1.2911e-05,7.3841,-6.8453e-05,-603.95,1.3151
31036,17.067,4.8182,0,9.4486e-05,944.21,5.5677e-05,313.76,1.5219e-05,9.78,-8.5235e-05,-745,1.3156
31037,17.067,4.6364,0,0.00012026,1201.8,7.2694e-05,423.07,1.7878e-05,11.209,-0.00010745,-930.49,1.3162
31038,17.067,4.4545,0,0.00015411,1540,9.2967e-05,546.86,2.3855e-05,27.572,-0.00013762,-1185.7,1.3167
31039,17.067,4.2727,0,0.00023586,2356.9,0.00015574,1009.9,2.4534e-05,24.065,-0.00020225,-1679.9,1.3173
31040,17.067,4.0909,0,0.00049187,4915.3,0.00026078,926.31,6.6183e-05,-535.83,-0.00046863,-4554.2,1.318
