Node Numbers,X Locations (inches),Y Locations (inches),Z Locations (inches),Equivalent Elastic Strains (in/in),Equivalent Stress (psi),Max Principal Elastic Strain (in/in),Max Principal Stress (psi),Middle Principal Elastic Strain (in/in),Middle Principal Stress (psi),Min Principal Elastic Strain (in/in),Min Principal Stress (psi),Total Deformation (in)
1,5.0917,2.2855,0,0.00031475,3145.3,0.0001395,577.58,9.5398e-05,246.23,-0.00029942,-2720.3,0.036377
2,5.3006,3.7523,0,0.00032024,3200.2,0.00015166,656.6,8.5558e-05,159.91,-0.00030344,-2762.9,0.039601
3,4.3869,0.3522,0,6.6201e-05,661.55,2.5665e-05,47.613,1.9654e-05,2.4481,-6.5233e-05,-635.36,0.024028
4,4.55,0.99227,0,8.8965e-05,889.04,4.5534e-05,187.11,1.7499e-05,-23.534,-8.4289e-05,-788.33,0.027
5,5.7473,2.2815,0,0.00016763,1675.1,6.3823e-05,52.145,4.5354e-05,-86.624,-0.00016778,-1688.1,0.047538
6,6.0142,0.82615,0,6.5199e-05,651.54,2.8453e-05,84.877,1.7207e-05,0.37792,-6.3336e-05,-604.79,0.051096
7,4.697,3.9165,0,0.00019476,1946.3,7.4324e-05,46.382,5.1027e-05,-128.66,-0.00019557,-1981.5,0.030555
8,5.8309,4.9048,0,7.1561e-05,715.11,3.5337e-05,134.06,1.5002e-05,-18.722,-6.8363e-05,-645.1,0.047675
9,5.6445,2.6397,0,0.000201,2008.6,7.2402e-05,27.34,5.8407e-05,-77.81,-0.00020166,-2031.8,0.045909
10,4.6749,5.165,0,7.9904e-05,798.49,4.9162e-05,279.96,9.7601e-06,-16.09,-7.1184e-05,-624.28,0.02805
11,4.8936,3.1504,0,0.0002297,2295.4,8.4068e-05,93.516,7.0247e-05,-10.332,-0.00022811,-2252,0.033895
12,5.6139,3.1611,0,0.00020515,2050.1,7.5225e-05,77.926,6.1969e-05,-21.669,-0.00020401,-2020.2,0.045428
13,4.3155,5.4126,0,7.5291e-05,752.39,3.0612e-05,73.72,2.1657e-05,6.4331,-7.3701e-05,-710.05,0.023725
14,3.7101,3.8463,0,0.00012493,1248.5,4.9859e-05,-9.1652,2.4889e-05,-196.78,-0.00012737,-1340.8,0.019326
15,6.1418,4.1571,0,0.00011012,1100.4,4.2074e-05,64.606,3.2412e-05,-7.9914,-0.00010898,-1070.3,0.054706
16,5.2799,2.9295,0,0.00023537,2352.1,9.065e-05,155.69,6.9661e-05,-2.0053,-0.00023236,-2271.3,0.039809
17,4.6211,2.8647,0,0.00020096,2008.2,7.1653e-05,50.374,6.1831e-05,-23.423,-0.0002004,-1993.7,0.030147
18,6.2915,2.1401,0,0.00011429,1142.1,4.2969e-05,36.605,3.2004e-05,-45.782,-0.00011422,-1144.5,0.057942
19,6.0825,0.4518,0,5.3366e-05,533.29,2.1534e-05,42.691,1.4732e-05,-8.4157,-5.2599e-05,-514.31,0.051982
20,3.9926,1.0383,0,0.00010187,1018,3.8629e-05,75.775,3.2009e-05,26.034,-0.00010005,-966.19,0.021144
21,4.2387,1.3532,0,0.00011364,1135.6,4.8976e-05,160.02,3.2312e-05,34.81,-0.0001098,-1033,0.024174
22,6.2811,4.6761,0,8.9941e-05,898.79,3.4975e-05,83.039,2.8246e-05,32.482,-8.7869e-05,-839.96,0.057034
23,3.581,5.377,0,0.00010633,1062.5,3.6117e-05,21.293,3.5297e-05,15.134,-0.0001057,-1044.3,0.016572
24,6.8185,5.4201,0,6.9965e-05,699.17,2.5271e-05,34.438,2.2535e-05,13.877,-6.9121e-05,-674.79,0.067503
25,3.2164,2.7185,0,0.00012821,1281.2,5.3237e-05,0.28407,2.2508e-05,-230.6,-0.00013056,-1380.7,0.014813
26,3.0386,1.318,0,0.00011834,1182.6,4.51e-05,8.6613,2.924e-05,-110.51,-0.00011962,-1229,0.012663
27,7.3963,3.5618,0,8.1796e-05,817.39,3.1937e-05,-2.5528,1.7968e-05,-107.51,-8.3161e-05,-867.35,0.081328
28,2.9414,2.1101,0,0.0001239,1238.2,4.9109e-05,-9.6194,2.5275e-05,-188.7,-0.0001263,-1327.6,0.012329
29,8.3005,1.4296,0,7.0628e-05,705.8,2.4602e-05,-0.40256,2.1053e-05,-27.069,-7.1058e-05,-719.15,0.1016
30,8.3174,2.1758,0,7.0929e-05,708.8,2.5924e-05,0.68497,1.9099e-05,-50.593,-7.1638e-05,-732.36,0.10232
31,0.72659,2.2473,0,0.00015976,1596.5,9.2085e-05,280.82,2.1272e-06,-395.09,-0.00015058,-1542.5,0.00077504
32,22.534,1.4776,0,1.5417e-06,15.406,1.2433e-06,9.5812,-9.3087e-08,-0.46006,-1.1174e-06,-8.1564,0.51428
33,22.524,4.5328,0,1.5455e-06,15.444,1.243e-06,9.5688,-8.7287e-08,-0.42684,-1.1244e-06,-8.219,0.51393
34,9.7638,1.4395,0,5.8746e-05,587.06,2.0062e-05,-0.35795,1.8203e-05,-14.328,-5.8984e-05,-594.28,0.13747
35,10.512,1.4208,0,5.2996e-05,529.6,1.7884e-05,-0.15554,1.6803e-05,-8.2795,-5.3135e-05,-533.77,0.15681
36,11.261,1.4208,0,4.7508e-05,474.75,1.583e-05,-0.2101,1.54e-05,-3.4378,-4.7569e-05,-476.56,0.17678
37,12.011,1.4208,0,4.2278e-05,422.49,1.3992e-05,0.29811,1.3911e-05,-0.3069,-4.2278e-05,-422.49,0.19729
38,12.76,1.4208,0,3.7333e-05,373.08,1.2597e-05,3.1096,1.2135e-05,-0.36351,-3.7285e-05,-371.69,0.21826
39,13.509,1.4208,0,3.2684e-05,326.61,1.1236e-05,5.1442,1.0493e-05,-0.4336,-3.26e-05,-324.22,0.23966
40,14.259,1.4208,0,2.8353e-05,283.33,9.9175e-06,6.6407,9.0116e-06,-0.1661,-2.8237e-05,-280.03,0.26142
41,15.008,1.4208,0,2.4284e-05,242.67,8.6595e-06,7.556,7.6064e-06,-0.35662,-2.4152e-05,-238.98,0.28349
42,15.752,1.4506,0,2.0581e-05,205.67,7.5342e-06,8.5925,6.3115e-06,-0.59482,-2.043e-05,-201.52,0.30569
43,16.5,1.4309,0,1.7173e-05,171.61,6.4374e-06,9.0405,5.177e-06,-0.42988,-1.7007e-05,-167.11,0.32821
44,17.256,1.4208,0,1.4052e-05,140.42,5.43e-06,9.3361,4.1304e-06,-0.42818,-1.3875e-05,-135.71,0.35116
45,18.005,1.4208,0,1.1288e-05,112.8,4.5444e-06,9.7323,3.2025e-06,-0.35024,-1.1094e-05,-107.77,0.37407
46,18.755,1.4208,0,8.8217e-06,88.156,3.7416e-06,9.8461,2.3702e-06,-0.45844,-8.6166e-06,-83.009,0.39711
47,19.508,1.4484,0,6.7022e-06,66.976,3.0685e-06,10.224,1.644e-06,-0.47863,-6.472e-06,-61.459,0.42038
48,20.257,1.4458,0,4.9021e-06,48.987,2.4561e-06,10.096,1.0498e-06,-0.47015,-4.652e-06,-43.312,0.44357
49,21.012,1.4835,0,3.4542e-06,34.519,1.9655e-06,10.105,5.6193e-07,-0.44034,-3.1667e-06,-28.456,0.46697
50,21.773,1.495,0,2.3128e-06,23.112,1.5532e-06,9.9081,1.7585e-07,-0.44113,-1.9708e-06,-16.57,0.49064
51,22.518,2.2571,0,1.7431e-06,17.419,1.4483e-06,11.591,-1.3861e-07,-0.33176,-1.2123e-06,-8.3993,0.51382
52,22.51,3.0195,0,1.8133e-06,18.121,1.5208e-06,12.272,-1.6285e-07,-0.37823,-1.242e-06,-8.4869,0.51355
53,22.509,3.7771,0,1.7435e-06,17.423,1.447e-06,11.552,-1.3927e-07,-0.36603,-1.2144e-06,-8.4441,0.51351
54,21.762,4.5501,0,2.3214e-06,23.198,1.5495e-06,9.7898,1.8205e-07,-0.48443,-1.9855e-06,-16.771,0.49024
55,21.01,4.5408,0,3.4392e-06,34.368,1.9522e-06,10.001,5.6336e-07,-0.43356,-3.1554e-06,-28.375,0.46689
56,20.262,4.5569,0,4.8997e-06,48.963,2.4463e-06,10.003,1.0575e-06,-0.43183,-4.6527e-06,-43.336,0.44368
57,19.511,4.5734,0,6.6883e-06,66.837,3.0383e-06,9.9269,1.6588e-06,-0.43842,-6.4663e-06,-61.487,0.4204
58,18.755,4.5792,0,8.8258e-06,88.197,3.741e-06,9.843,2.3749e-06,-0.42145,-8.6206e-06,-83.038,0.39707
59,18.005,4.5792,0,1.1279e-05,112.71,4.5429e-06,9.6894,3.1926e-06,-0.45574,-1.1087e-05,-107.75,0.37403
60,17.256,4.5792,0,1.4044e-05,140.34,5.4341e-06,9.3861,4.1205e-06,-0.48352,-1.3866e-05,-135.63,0.35112
61,16.507,4.5792,0,1.715e-05,171.38,6.4193e-06,8.9761,5.1816e-06,-0.32298,-1.6984e-05,-166.87,0.32836
62,15.757,4.5792,0,2.0559e-05,205.44,7.5029e-06,8.4533,6.3323e-06,-0.34222,-2.0406e-05,-201.25,0.30579
63,15.008,4.5792,0,2.428e-05,242.64,8.6748e-06,7.6683,7.5871e-06,-0.50451,-2.4148e-05,-238.95,0.28345
64,14.259,4.5792,0,2.8338e-05,283.18,9.9191e-06,6.5682,8.9886e-06,-0.42327,-2.8227e-05,-280.04,0.26137
65,13.509,4.5792,0,3.2678e-05,326.56,1.1225e-05,5.1011,1.0503e-05,-0.327,-3.2594e-05,-324.14,0.23962
66,12.76,4.5792,0,3.7321e-05,372.95,1.2591e-05,3.1171,1.2136e-05,-0.30216,-3.7272e-05,-371.53,0.21822
67,12.011,4.5792,0,4.2251e-05,422.22,1.3988e-05,0.37739,1.3902e-05,-0.27231,-4.225e-05,-422.17,0.19724
68,11.261,4.5792,0,4.7452e-05,474.2,1.5805e-05,-0.23185,1.5391e-05,-3.3443,-4.7512e-05,-475.98,0.17674
69,10.512,4.5792,0,5.2921e-05,528.84,1.7841e-05,-0.42075,1.6786e-05,-8.3478,-5.3065e-05,-533.18,0.15677
70,9.7627,4.5792,0,5.8705e-05,586.65,2.0138e-05,0.26314,1.8092e-05,-15.114,-5.8943e-05,-593.92,0.13739
71,8.9721,4.5476,0,6.497e-05,649.25,2.2518e-05,-1.8549,1.9425e-05,-25.094,-6.5397e-05,-662.41,0.11768
72,5.0203,3.6284,0,0.00027455,2743.6,0.00012873,513.11,7.0889e-05,78.53,-0.00026189,-2421.8,0.035405
73,5.3065,2.45,0,0.00026412,2639.4,0.00012932,540.29,6.22e-05,35.945,-0.00025068,-2314.9,0.039987
74,23.258,5.259,0,7.8617e-07,7.8562,7.0354e-07,6.0789,-1.2288e-07,-0.13045,-4.7194e-07,-2.7532,0.53675
75,22.513,5.2652,0,1.3105e-06,13.096,9.6552e-07,6.8854,2.9382e-08,-0.14836,-1.0455e-06,-8.2247,0.51355
76,21.759,5.2709,0,2.1686e-06,21.671,1.3157e-06,7.5244,2.9967e-07,-0.10954,-1.9391e-06,-16.931,0.4901
77,21.007,5.2735,0,3.3322e-06,33.299,1.7416e-06,7.8894,6.7273e-07,-0.14192,-3.1269e-06,-28.691,0.46673
78,20.258,5.2784,0,4.8232e-06,48.198,2.2525e-06,8.0382,1.1655e-06,-0.12904,-4.6364e-06,-43.722,0.44348
79,19.504,5.2896,0,6.6479e-06,66.433,2.8617e-06,8.06,1.7703e-06,-0.14027,-6.4751e-06,-62.093,0.4201
80,18.755,5.2896,0,8.784e-06,87.78,3.5745e-06,8.1171,2.475e-06,-0.14412,-8.6192e-06,-83.501,0.39695
81,18.005,5.2896,0,1.1246e-05,112.39,4.3824e-06,8.0413,3.2946e-06,-0.13254,-1.109e-05,-108.21,0.3739
82,17.256,5.2896,0,1.4033e-05,140.24,5.2892e-06,7.8692,4.225e-06,-0.12728,-1.3885e-05,-136.2,0.35096
83,16.507,5.2896,0,1.7143e-05,171.31,6.2989e-06,7.6235,5.2596e-06,-0.18599,-1.7003e-05,-167.46,0.32818
84,15.757,5.2896,0,2.058e-05,205.65,7.403e-06,7.2681,6.4149e-06,-0.15588,-2.0449e-05,-202,0.30558
85,15.008,5.2896,0,2.433e-05,243.13,8.6027e-06,6.8037,7.6766e-06,-0.15483,-2.421e-05,-239.74,0.2832
86,14.259,5.2896,0,2.8404e-05,283.84,9.8955e-06,6.1489,9.0498e-06,-0.20567,-2.8298e-05,-280.82,0.26109
87,13.509,5.2896,0,3.2801e-05,327.79,1.1267e-05,5.1792,1.0549e-05,-0.21852,-3.2714e-05,-325.27,0.2393
88,12.76,5.2896,0,3.7503e-05,374.77,1.2714e-05,3.9027,1.2161e-05,-0.25894,-3.744e-05,-372.93,0.21787
89,12.011,5.2896,0,4.2514e-05,424.85,1.4232e-05,2.2393,1.3893e-05,-0.30568,-4.2481e-05,-423.88,0.19685
90,11.261,5.2896,0,4.7822e-05,477.89,1.5806e-05,0.075172,1.5746e-05,-0.37398,-4.7827e-05,-478.04,0.17631
91,10.512,5.2896,0,5.3424e-05,533.87,1.7735e-05,-0.44429,1.7412e-05,-2.8743,-5.348e-05,-535.53,0.15631
92,9.7554,5.2832,0,5.9371e-05,593.3,1.9843e-05,-0.20244,1.9149e-05,-5.4185,-5.9465e-05,-596.09,0.13672
93,8.9873,5.2647,0,6.5233e-05,651.88,2.1727e-05,-2.0773,2.0997e-05,-7.5626,-6.5395e-05,-656.68,0.11754
94,8.2278,5.2427,0,7.0756e-05,707.08,2.3815e-05,2.7077,2.281e-05,-4.8388,-7.079e-05,-708.11,0.099334
95,7.5206,5.2793,0,7.3511e-05,734.6,2.4953e-05,9.5849,2.3962e-05,2.1378,-7.3309e-05,-728.71,0.083064
96,6.0581,5.5738,0,5.1997e-05,519.61,2.0888e-05,42.313,1.4594e-05,-4.9786,-5.12e-05,-499.32,0.051337
97,5.9934,5.2114,0,6.117e-05,611.28,2.6672e-05,77.527,1.598e-05,-2.8065,-5.9502e-05,-569.95,0.050526
98,5.6992,4.5905,0,0.00010568,1056,6.0375e-05,309.92,1.6734e-05,-17.984,-9.6816e-05,-871.15,0.045525
99,5.6918,4.2375,0,0.00014486,1447.6,6.8567e-05,247.84,3.3868e-05,-12.878,-0.00013909,-1312.5,0.045878
100,5.69,3.9175,0,0.00017101,1708.9,6.1044e-05,-2.9293,4.8203e-05,-99.416,-0.00017254,-1758,0.046239
101,23.26,0.74316,0,7.8677e-07,7.8622,7.0413e-07,6.0876,-1.2243e-07,-0.12285,-4.7241e-07,-2.7524,0.53686
102,23.263,1.4919,0,1.1317e-06,11.31,1.052e-06,9.3739,-2.5834e-07,-0.47139,-5.9211e-07,-2.9792,0.53697
103,23.257,2.2514,0,1.3483e-06,13.474,1.2683e-06,11.521,-3.1763e-07,-0.39531,-6.7764e-07,-3.1002,0.53682
104,23.26,3.0091,0,1.4227e-06,14.217,1.342e-06,12.238,-3.3981e-07,-0.39829,-7.0674e-07,-3.1553,0.5369
105,23.256,3.7615,0,1.3472e-06,13.463,1.2666e-06,11.504,-3.1448e-07,-0.37574,-6.7963e-07,-3.1193,0.53674
106,23.261,4.514,0,1.1279e-06,11.272,1.0479e-06,9.3311,-2.5652e-07,-0.4696,-5.9146e-07,-2.9863,0.53688
107,6.8351,0.58876,0,7.0888e-05,708.39,2.5903e-05,40.09,2.2799e-05,16.773,-6.9892e-05,-679.67,0.06796
108,7.5545,0.6685,0,7.3577e-05,735.26,2.4702e-05,7.4659,2.4251e-05,4.0765,-7.338e-05,-729.49,0.083851
109,8.2847,0.70111,0,7.0372e-05,703.23,2.3536e-05,0.53941,2.2742e-05,-5.4256,-7.0453e-05,-705.66,0.10069
110,9.0133,0.71041,0,6.5195e-05,651.5,2.183e-05,-0.19012,2.0963e-05,-6.6985,-6.531e-05,-654.92,0.11822
111,9.7627,0.71041,0,5.9327e-05,592.86,1.9799e-05,-0.34918,1.9171e-05,-5.0675,-5.9417e-05,-595.55,0.13696
112,10.512,0.71041,0,5.3501e-05,534.64,1.774e-05,-0.40926,1.7475e-05,-2.4021,-5.3548e-05,-536.04,0.15637
113,11.261,0.71041,0,4.7876e-05,478.43,1.5827e-05,0.1023,1.5761e-05,-0.39076,-4.7881e-05,-478.57,0.17638
114,12.011,0.71041,0,4.2546e-05,425.17,1.424e-05,2.2073,1.3905e-05,-0.31107,-4.2513e-05,-424.21,0.19692
115,12.76,0.71041,0,3.7524e-05,374.98,1.2715e-05,3.8639,1.2174e-05,-0.20745,-3.746e-05,-373.13,0.21793
116,13.509,0.71041,0,3.2808e-05,327.85,1.127e-05,5.1896,1.055e-05,-0.21883,-3.272e-05,-325.33,0.23936
117,14.259,0.71041,0,2.8403e-05,283.84,9.9069e-06,6.1679,9.0316e-06,-0.40875,-2.83e-05,-280.9,0.26115
118,15.008,0.71041,0,2.4354e-05,243.37,8.5997e-06,6.7235,7.6959e-06,-0.066869,-2.4234e-05,-239.98,0.28326
119,15.757,0.71874,0,2.0576e-05,205.62,7.3923e-06,7.2485,6.4288e-06,0.0087914,-2.0443e-05,-201.9,0.30563
120,16.507,0.71041,0,1.7139e-05,171.28,6.3088e-06,7.7301,5.2491e-06,-0.23212,-1.6998e-05,-167.39,0.32824
121,17.256,0.71041,0,1.4045e-05,140.35,5.2958e-06,7.9137,4.2279e-06,-0.11017,-1.3895e-05,-136.28,0.35102
122,18.005,0.71041,0,1.1243e-05,112.36,4.3852e-06,8.0447,3.2872e-06,-0.20534,-1.1087e-05,-108.21,0.37396
123,18.755,0.71041,0,8.7865e-06,87.804,3.5763e-06,8.1342,2.4756e-06,-0.13616,-8.6211e-06,-83.512,0.39701
124,19.506,0.72068,0,6.6376e-06,66.331,2.8589e-06,8.1049,1.7701e-06,-0.076161,-6.4631e-06,-61.937,0.42023
125,20.26,0.72827,0,4.8287e-06,48.253,2.2563e-06,8.085,1.1681e-06,-0.091168,-4.6404e-06,-43.734,0.44357
126,21.013,0.7396,0,3.323e-06,33.207,1.7398e-06,7.9322,6.7147e-07,-0.094583,-3.116e-06,-28.552,0.46698
127,21.763,0.74532,0,2.1591e-06,21.576,1.3206e-06,7.6051,2.8642e-07,-0.1655,-1.9248e-06,-16.78,0.49029
128,22.517,0.7384,0,1.3156e-06,13.147,9.6895e-07,6.9117,3.0334e-08,-0.14069,-1.0498e-06,-8.2566,0.51372
129,4.4413,0.68156,0,7.0872e-05,708.23,3.044e-05,70.976,1.7537e-05,-25.972,-6.9607e-05,-680.74,0.025236
130,4.6312,1.3236,0,0.00011924,1191.6,6.9167e-05,376.06,1.9462e-05,2.5938,-0.00010833,-957.56,0.028537
131,4.6383,1.6857,0,0.0001598,1596.9,8.509e-05,393.14,3.0549e-05,-16.66,-0.0001494,-1368.7,0.029254
132,4.66,2.0353,0,0.00018546,1853.4,7.2732e-05,91.683,4.9593e-05,-82.171,-0.00018469,-1842.5,0.030036
133,0.72367,0.74002,0,0.00014114,1410.5,7.3933e-05,233.13,1.7415e-05,-191.53,-0.00013555,-1340.9,0.00064665
134,1.4487,0.72158,0,0.00013782,1377.3,5.0217e-05,-47.201,3.2763e-05,-178.35,-0.00014119,-1485.4,0.002657
135,2.1857,0.71041,0,0.0001344,1343.1,5.0089e-05,16.627,3.5914e-05,-89.882,-0.00013533,-1376.5,0.0061809
136,2.8865,0.63296,0,0.00012468,1246,4.1749e-05,-4.302,3.9728e-05,-19.492,-0.00012508,-1257.8,0.010786
137,3.5981,0.4738,0,0.00010421,1041.4,3.7069e-05,37.034,3.3227e-05,8.1674,-0.00010341,-1018.5,0.016514
138,0.72032,5.2542,0,0.00014095,1408.5,7.3787e-05,232.67,1.7471e-05,-190.47,-0.00013538,-1338.9,0.00064186
139,0.72204,4.4979,0,0.00015513,1550.2,8.9101e-05,288.95,4.7478e-06,-344.84,-0.00014603,-1477.7,0.0007331
140,0.73817,3.7412,0,0.0001602,1600.9,9.2656e-05,288.38,2.1484e-06,-391.66,-0.00015072,-1540.3,0.00080076
141,0.74082,2.9987,0,0.00016123,1611.2,9.3405e-05,287.59,1.461e-06,-403.24,-0.00015167,-1553.8,0.0008157
142,0.71744,1.4945,0,0.00015482,1547.2,8.8832e-05,285.76,4.6624e-06,-346.65,-0.00014583,-1477.4,0.00072251
143,2.8574,5.3377,0,0.00012401,1239.3,4.307e-05,0.23325,3.7275e-05,-43.308,-0.00012469,-1260.2,0.010591
144,2.1422,5.2849,0,0.00013453,1344.4,4.9667e-05,10.973,3.6255e-05,-89.804,-0.00013559,-1381,0.0059313
145,1.4423,5.2601,0,0.00013768,1375.9,5.0365e-05,-46.847,3.2394e-05,-181.87,-0.00014107,-1485.2,0.0026415
146,4.6476,4.9244,0,9.9486e-05,994.18,5.4851e-05,265,1.7188e-05,-17.988,-9.2214e-05,-839.99,0.028229
147,4.6406,4.5947,0,0.00013,1299.1,7.2587e-05,378.59,2.3962e-05,13.249,-0.00011942,-1064.1,0.028776
148,4.6728,4.2645,0,0.00016709,1669.7,8.9922e-05,410.35,2.9863e-05,-40.912,-0.00015616,-1438.6,0.029737
149,5.8414,1.123,0,7.6609e-05,765.56,3.7649e-05,153.92,1.7483e-05,2.3977,-7.2816e-05,-676.07,0.048011
150,5.7938,1.528,0,0.00010724,1071.7,5.1974e-05,201.93,2.4547e-05,-4.1436,-0.00010238,-957.83,0.047607
151,5.794,1.9142,0,0.00014174,1416.4,5.9904e-05,143.4,3.7035e-05,-28.434,-0.000139,-1351.1,0.048064
152,5.5657,3.6101,0,0.00022377,2236.1,8.2745e-05,100.58,6.7836e-05,-11.447,-0.00022204,-2189.5,0.044311
153,5.2689,3.3817,0,0.00025249,2523.1,0.00010211,231.51,7.2118e-05,6.1598,-0.00024769,-2396.7,0.039498
154,4.8564,2.3797,0,0.00024485,2446.8,9.9042e-05,212.79,6.8776e-05,-14.623,-0.00024068,-2339.8,0.03307
155,3.7701,0.79278,0,0.00011117,1110.9,4.4127e-05,114.1,3.4407e-05,41.076,-0.00010835,-1031.5,0.018598
156,1.4478,1.4703,0,0.00013371,1336.1,5.6148e-05,-57.634,1.6319e-05,-356.89,-0.00013822,-1518,0.0029481
157,1.4367,4.5062,0,0.00013347,1333.8,5.6085e-05,-58.939,1.6076e-05,-359.55,-0.00013803,-1517.4,0.0029104
158,4.1681,4.892,0,0.00010498,1049,3.9812e-05,75.491,3.2733e-05,22.305,-0.00010321,-999.12,0.023048
159,4.5542,3.4199,0,0.00019452,1943.8,6.5683e-05,16.104,6.3139e-05,-3.0063,-0.00019429,-1937.2,0.029163
160,4.9918,2.6893,0,0.00024287,2427,9.4918e-05,192.04,7.239e-05,22.783,-0.00023877,-2315.1,0.035272
161,8.1742,4.4744,0,7.2298e-05,722.48,2.6081e-05,4.3103,2.042e-05,-38.228,-7.2781e-05,-738.5,0.098646
162,7.3542,4.4781,0,7.8519e-05,784.65,2.7624e-05,-0.56487,2.2918e-05,-35.924,-7.908e-05,-802.29,0.080005
163,6.0536,4.4774,0,9.5151e-05,950.86,3.662e-05,97.694,3.1474e-05,59.028,-9.2426e-05,-871.91,0.052647
164,6.6931,4.9316,0,7.7347e-05,772.94,2.7163e-05,26.38,2.5163e-05,11.359,-7.6694e-05,-753.96,0.065355
165,6.7802,1.1941,0,7.8636e-05,785.82,2.7403e-05,24.274,2.5711e-05,11.559,-7.8019e-05,-767.82,0.06739
166,7.5619,1.3513,0,7.6452e-05,763.99,2.7084e-05,7.6343,2.2751e-05,-24.924,-7.6694e-05,-772.12,0.084575
167,9.0338,1.4501,0,6.4645e-05,646.01,2.2393e-05,0.33534,1.9552e-05,-21.014,-6.497e-05,-656.08,0.11924
168,2.2065,1.4416,0,0.00013012,1300.3,5.4866e-05,28.444,2.4045e-05,-203.13,-0.00013154,-1372.1,0.0068013
169,1.5061,2.2407,0,0.00013398,1338.8,5.9597e-05,-67.328,8.3615e-06,-452.29,-0.00013859,-1556.5,0.0033304
170,1.4797,3.7338,0,0.00013396,1338.7,5.9709e-05,-66.265,8.2199e-06,-453.14,-0.00013853,-1555.8,0.0032186
171,1.5166,2.9835,0,0.00013465,1345.6,6.1414e-05,-60.432,5.8817e-06,-477.68,-0.00013886,-1565.2,0.003414
172,2.1322,4.5509,0,0.00013004,1299.5,5.4468e-05,21.061,2.3997e-05,-207.89,-0.0001317,-1377.7,0.0063591
173,3.5122,4.8049,0,0.00011542,1153.4,4e-05,7.5902,3.5528e-05,-26.009,-0.0001157,-1162.3,0.016659
174,2.8263,4.6548,0,0.00012407,1239.9,4.738e-05,7.2948,3.0313e-05,-120.94,-0.00012551,-1291.7,0.010998
175,4.1467,4.4826,0,0.00012356,1234.7,4.6021e-05,68.496,3.809e-05,8.9097,-0.00012213,-1195,0.02337
176,4.2009,4.1262,0,0.00014621,1461.1,4.9498e-05,32.716,4.9137e-05,30.006,-0.00014515,-1429.8,0.024353
177,6.3175,1.7145,0,9.9654e-05,995.85,3.6324e-05,45.04,3.1152e-05,6.179,-9.8726e-05,-969.67,0.058191
178,6.1318,3.7818,0,0.00012465,1245.7,4.5093e-05,7.5056,3.499e-05,-68.404,-0.00012551,-1274.4,0.054783
179,5.9035,3.436,0,0.00016152,1614,5.4734e-05,-2.4341,5.0639e-05,-33.205,-0.0001621,-1631.6,0.050593
180,6.3391,1.3769,0,8.7118e-05,870.58,3.524e-05,106.56,2.7408e-05,47.715,-8.4344e-05,-791.95,0.058347
181,21.757,3.7935,0,2.4709e-06,24.692,1.723e-06,11.537,1.3909e-07,-0.36365,-2.0553e-06,-16.851,0.49014
182,21.764,2.2537,0,2.4705e-06,24.688,1.7307e-06,11.63,1.2962e-07,-0.39971,-2.0487e-06,-16.767,0.49036
183,4.196,2.0738,0,0.00014432,1442.2,5.0597e-05,17.323,4.414e-05,-31.189,-0.00014449,-1448.5,0.024494
184,2.2383,2.1843,0,0.00012847,1283.8,5.6696e-05,15.285,1.7382e-05,-280.11,-0.0001304,-1390.5,0.0072613
185,2.1959,3.8075,0,0.00012836,1282.7,5.7105e-05,16.482,1.6558e-05,-288.18,-0.00013024,-1391.1,0.0069943
186,3.5339,4.2617,0,0.00012158,1215,4.3874e-05,-1.8557,3.3456e-05,-80.131,-0.00012279,-1254.1,0.017344
187,4.2335,3.5958,0,0.00016171,1616,5.7649e-05,22.224,4.8062e-05,-49.807,-0.00016206,-1628.6,0.025138
188,5.9687,2.9077,0,0.00015894,1588.3,5.4104e-05,-4.9372,4.9185e-05,-41.896,-0.00015971,-1611.4,0.051923
189,4.3579,2.4819,0,0.00016923,1691.1,5.8292e-05,-3.1401,5.1378e-05,-55.087,-0.00017016,-1719.6,0.02667
190,20.263,3.8103,0,4.9796e-06,49.761,2.5857e-06,11.479,1.0079e-06,-0.3752,-4.6835e-06,-43.139,0.44376
191,19.51,3.8183,0,6.7579e-06,67.532,3.1784e-06,11.417,1.6049e-06,-0.40573,-6.4924e-06,-61.246,0.42045
192,18.756,3.83,0,8.8733e-06,88.672,3.8628e-06,11.213,2.3266e-06,-0.32968,-8.6316e-06,-82.665,0.39717
193,18.005,3.849,0,1.1319e-05,113.11,4.6456e-06,10.893,3.1583e-06,-0.28192,-1.1097e-05,-107.39,0.37413
194,17.256,3.8494,0,1.4079e-05,140.69,5.5361e-06,10.567,4.0821e-06,-0.35814,-1.3873e-05,-135.27,0.35124
195,16.507,3.8506,0,1.7161e-05,171.5,6.5153e-06,10.083,5.1266e-06,-0.35052,-1.6972e-05,-166.39,0.32851
196,15.758,3.8523,0,2.0544e-05,205.3,7.5874e-06,9.4252,6.262e-06,-0.53358,-2.0374e-05,-200.67,0.30596
197,15.013,3.8456,0,2.4253e-05,242.37,8.7152e-06,8.4083,7.5616e-06,-0.25979,-2.4103e-05,-238.18,0.28375
198,14.264,3.8612,0,2.828e-05,282.61,9.9194e-06,7.0003,8.9763e-06,-0.085555,-2.8156e-05,-279.08,0.26171
199,13.509,3.8688,0,3.2599e-05,325.76,1.1206e-05,5.1765,1.0471e-05,-0.34429,-3.2513e-05,-323.31,0.23982
200,12.76,3.8688,0,3.7202e-05,371.76,1.2505e-05,2.5752,1.2126e-05,-0.27374,-3.7162e-05,-370.6,0.21845
201,12.011,3.8688,0,4.2069e-05,420.4,1.392e-05,-0.21098,1.3801e-05,-1.0994,-4.2091e-05,-421.05,0.19749
202,11.261,3.8688,0,4.7191e-05,471.59,1.5868e-05,-0.10448,1.5064e-05,-6.1428,-4.7295e-05,-474.68,0.17701
203,10.508,3.8611,0,5.2567e-05,525.3,1.7992e-05,-0.15517,1.6233e-05,-13.369,-5.2784e-05,-531.94,0.15696
204,9.7475,3.836,0,5.8275e-05,582.35,2.0377e-05,-0.34059,1.7235e-05,-23.947,-5.8652e-05,-594.13,0.13732
205,8.9839,3.7897,0,6.4617e-05,645.73,2.3282e-05,-0.26639,1.7913e-05,-40.604,-6.5218e-05,-665.22,0.1183
206,8.2084,3.7272,0,7.2403e-05,723.53,2.6968e-05,0.6336,1.858e-05,-62.392,-7.3247e-05,-752.35,0.099766
207,6.98,1.9031,0,8.6972e-05,869.12,3.1829e-05,7.6092,2.3986e-05,-51.318,-8.7565e-05,-889.47,0.072115
208,7.615,2.0585,0,7.8632e-05,785.77,2.9121e-05,3.9047,2.0787e-05,-58.711,-7.9377e-05,-811.3,0.086123
209,9.0321,2.2188,0,6.4263e-05,642.19,2.2993e-05,0.34913,1.8157e-05,-35.99,-6.4793e-05,-659.24,0.11951
210,9.7718,2.2392,0,5.8181e-05,581.41,2.036e-05,0.26461,1.7235e-05,-23.212,-5.8535e-05,-592.52,0.13798
211,10.512,2.2104,0,5.2567e-05,525.31,1.7997e-05,-0.009507,1.6239e-05,-13.221,-5.2779e-05,-531.8,0.15711
212,11.261,2.2104,0,4.7198e-05,471.65,1.5883e-05,-0.084865,1.5046e-05,-6.3693,-4.7305e-05,-474.85,0.17705
213,12.011,2.2104,0,4.207e-05,420.41,1.393e-05,-0.1781,1.3788e-05,-1.2456,-4.2094e-05,-421.12,0.19753
214,12.76,2.2104,0,3.72e-05,371.74,1.2491e-05,2.4292,1.2135e-05,-0.2386,-3.7162e-05,-370.64,0.21848
215,13.509,2.2104,0,3.2606e-05,325.84,1.119e-05,5.0034,1.049e-05,-0.25721,-3.2522e-05,-323.43,0.23986
216,14.257,2.2463,0,2.8298e-05,282.78,9.9253e-06,6.8794,8.9709e-06,-0.29141,-2.8179e-05,-279.42,0.26155
217,15.002,2.271,0,2.4294e-05,242.78,8.7373e-06,8.3732,7.557e-06,-0.49552,-2.4148e-05,-238.72,0.28347
218,15.757,2.2104,0,2.0566e-05,205.52,7.5773e-06,9.3507,6.2931e-06,-0.2983,-2.0395e-05,-200.82,0.30596
219,16.507,2.195,0,1.7164e-05,171.52,6.5113e-06,10.062,5.1342e-06,-0.28417,-1.6974e-05,-166.4,0.32852
220,17.256,2.1912,0,1.4077e-05,140.67,5.54e-06,10.578,4.0748e-06,-0.43084,-1.3872e-05,-135.28,0.35125
221,18.005,2.1906,0,1.1315e-05,113.07,4.6467e-06,10.842,3.1477e-06,-0.4215,-1.1095e-05,-107.44,0.37415
222,18.752,2.2535,0,8.8953e-06,88.891,3.8731e-06,11.24,2.3308e-06,-0.34863,-8.6531e-06,-82.877,0.39708
223,19.492,2.2523,0,6.8027e-06,67.98,3.1719e-06,11.176,1.6374e-06,-0.35379,-6.5448e-06,-61.831,0.41991
224,20.229,2.2498,0,5.0423e-06,50.388,2.6031e-06,11.404,1.029e-06,-0.42284,-4.7502e-06,-43.845,0.44274
225,21.002,2.2244,0,3.5619e-06,35.594,2.0998e-06,11.431,5.2785e-07,-0.38055,-3.2237e-06,-28.568,0.4667
226,4.1361,1.6725,0,0.00012718,1270.9,4.7638e-05,69.663,3.8653e-05,2.1531,-0.00012582,-1233.6,0.023449
227,6.6922,3.6998,0,0.00010081,1007.4,3.8297e-05,-6.4545,2.3803e-05,-115.35,-0.00010244,-1063.9,0.06616
228,6.3639,3.2602,0,0.00012169,1216,4.52e-05,-15.877,2.9831e-05,-131.35,-0.00012378,-1285.5,0.059581
229,21.756,3.0145,0,2.5286e-06,25.268,1.7904e-06,12.164,1.1426e-07,-0.42988,-2.0813e-06,-16.926,0.49012
230,21.011,3.773,0,3.5512e-06,35.488,2.1111e-06,11.648,5.1455e-07,-0.34749,-3.2034e-06,-28.283,0.46695
231,2.4188,2.9892,0,0.00012552,1254.3,5.7338e-05,12.54,1.2688e-05,-322.94,-0.00012738,-1375.4,0.0085403
232,3.6355,1.5586,0,0.00012556,1254.7,4.4547e-05,18.673,3.7823e-05,-31.852,-0.00012571,-1260.6,0.018183
233,2.87,4.0028,0,0.00012412,1240.4,5.0697e-05,7.7995,2.4179e-05,-191.45,-0.00012604,-1320.1,0.011702
234,3.592,2.0661,0,0.00012743,1273.4,4.7011e-05,-11.248,3.234e-05,-121.48,-0.00012933,-1336.2,0.018122
235,4.1503,3.0191,0,0.0001581,1579.9,5.7398e-05,-2.8909,4.284e-05,-112.27,-0.00015977,-1634.6,0.024341
236,6.2227,2.5839,0,0.00012914,1290.5,4.9882e-05,31.686,3.2832e-05,-96.417,-0.00012976,-1318.1,0.056759
237,21.002,3.0102,0,3.611e-06,36.085,2.1663e-06,12.085,5.052e-07,-0.39562,-3.2463e-06,-28.583,0.46669
238,20.251,3.0229,0,5.0308e-06,50.273,2.6443e-06,11.994,9.9349e-07,-0.4096,-4.7175e-06,-43.32,0.4434
239,19.5,3.0375,0,6.8127e-06,68.08,3.2255e-06,11.812,1.6067e-06,-0.3508,-6.5357e-06,-61.53,0.42018
240,18.748,3.0358,0,8.9148e-06,89.087,3.9102e-06,11.552,2.3105e-06,-0.46758,-8.6652e-06,-82.935,0.39696
241,18.002,3.0524,0,1.1341e-05,113.33,4.6918e-06,11.271,3.1308e-06,-0.45788,-1.1111e-05,-107.47,0.37406
242,17.256,3.0792,0,1.4093e-05,140.83,5.5677e-06,10.915,4.0718e-06,-0.32483,-1.3879e-05,-135.2,0.35128
243,16.509,3.0841,0,1.7147e-05,171.36,6.5426e-06,10.39,5.0943e-06,-0.49185,-1.6953e-05,-166.15,0.32861
244,15.761,3.0646,0,2.0558e-05,205.44,7.5905e-06,9.622,6.2882e-06,-0.16279,-2.038e-05,-200.54,0.30611
245,15.008,3.099,0,2.4266e-05,242.5,8.7394e-06,8.6257,7.5516e-06,-0.2983,-2.4112e-05,-238.21,0.28369
246,14.259,3.1584,0,2.8264e-05,282.44,9.9396e-06,7.0218,8.9289e-06,-0.57283,-2.8146e-05,-279.14,0.26164
247,13.509,3.1584,0,3.2578e-05,325.55,1.1187e-05,5.0996,1.0478e-05,-0.23028,-3.2492e-05,-323.08,0.23991
248,12.76,3.1584,0,3.7156e-05,371.3,1.2455e-05,2.2157,1.2136e-05,-0.17985,-3.712e-05,-370.28,0.21855
249,12.011,3.1584,0,4.1988e-05,419.59,1.3929e-05,-0.1798,1.3717e-05,-1.7708,-4.2021e-05,-420.56,0.1976
250,11.261,3.1584,0,4.7075e-05,470.43,1.5895e-05,-0.052838,1.4919e-05,-7.3862,-4.7197e-05,-474.1,0.17713
251,10.512,3.1584,0,5.2395e-05,523.59,1.8053e-05,0.11163,1.5999e-05,-15.319,-5.2637e-05,-531.02,0.15718
252,9.7638,3.0974,0,5.8017e-05,579.77,2.047e-05,0.29884,1.6898e-05,-26.543,-5.8417e-05,-592.43,0.13786
253,9.0208,3.0303,0,6.409e-05,640.46,2.3166e-05,-1.3814,1.7529e-05,-43.738,-6.4752e-05,-661.96,0.11932
254,8.2796,2.9442,0,7.1728e-05,716.79,2.703e-05,2.4945,1.8017e-05,-65.226,-7.2555e-05,-745.75,0.10154
255,7.5873,2.7925,0,8.0322e-05,802.67,3.0546e-05,-0.1305,1.9388e-05,-83.97,-8.1424e-05,-841.43,0.085649
256,6.9574,2.5053,0,9.252e-05,924.56,3.5396e-05,4.3923,2.2383e-05,-93.378,-9.3645e-05,-965.17,0.071834
257,3.6673,3.1983,0,0.00013161,1315.2,5.2043e-05,-15.353,2.6569e-05,-206.75,-0.00013434,-1415.7,0.019106
258,3.8314,2.5916,0,0.00013868,1385.9,5.2369e-05,-6.6656,3.3535e-05,-148.17,-0.00014077,-1457.9,0.020763
259,6.7433,2.9582,0,0.00010542,1053.5,3.9905e-05,-5.9726,2.5228e-05,-116.26,-0.00010707,-1110.3,0.067363
260,4.3671,3.8887,0,0.00014947,1493.7,5.3873e-05,20.938,4.3433e-05,-57.506,-0.00014994,-1510.4,0.026498
261,6.7267,4.2098,0,8.8808e-05,887.47,3.1174e-05,7.2345,2.6777e-05,-25.802,-8.9078e-05,-896.29,0.066633
262,3.1244,3.4956,0,0.00012804,1279.5,5.2381e-05,-8.3929,2.3142e-05,-228.08,-0.00013064,-1383.5,0.013965
263,3.1244,3.4956,0.1,0.00012804,1279.5,0.00013064,1383.5,-2.3142e-05,228.08,-5.2381e-05,8.3929,0.013965
264,6.7267,4.2098,0.1,8.8808e-05,887.47,8.9078e-05,896.29,-2.6777e-05,25.802,-3.1174e-05,-7.2345,0.066633
265,4.3671,3.8887,0.1,0.00014947,1493.7,0.00014994,1510.4,-4.3433e-05,57.506,-5.3873e-05,-20.938,0.026498
266,6.7433,2.9582,0.1,0.00010542,1053.5,0.00010707,1110.3,-2.5228e-05,116.26,-3.9905e-05,5.9726,0.067363
267,3.8314,2.5916,0.1,0.00013868,1385.9,0.00014077,1457.9,-3.3535e-05,148.17,-5.2369e-05,6.6656,0.020763
268,3.6673,3.1983,0.1,0.00013161,1315.2,0.00013434,1415.7,-2.6569e-05,206.75,-5.2043e-05,15.353,0.019106
269,6.9574,2.5053,0.1,9.252e-05,924.56,9.3645e-05,965.17,-2.2383e-05,93.378,-3.5396e-05,-4.3923,0.071834
270,7.5873,2.7925,0.1,8.0322e-05,802.67,8.1424e-05,841.43,-1.9388e-05,83.97,-3.0546e-05,0.1305,0.085649
271,8.2796,2.9442,0.1,7.1728e-05,716.79,7.2555e-05,745.75,-1.8017e-05,65.226,-2.703e-05,-2.4945,0.10154
272,9.0208,3.0303,0.1,6.409e-05,640.46,6.4752e-05,661.96,-1.7529e-05,43.738,-2.3166e-05,1.3814,0.11932
273,9.7638,3.0974,0.1,5.8017e-05,579.77,5.8417e-05,592.43,-1.6898e-05,26.543,-2.047e-05,-0.29884,0.13786
274,10.512,3.1584,0.1,5.2395e-05,523.59,5.2637e-05,531.02,-1.5999e-05,15.319,-1.8053e-05,-0.11163,0.15718
275,11.261,3.1584,0.1,4.7075e-05,470.43,4.7197e-05,474.1,-1.4919e-05,7.3862,-1.5895e-05,0.052838,0.17713
276,12.011,3.1584,0.1,4.1988e-05,419.59,4.2021e-05,420.56,-1.3717e-05,1.7708,-1.3929e-05,0.1798,0.1976
277,12.76,3.1584,0.1,3.7156e-05,371.3,3.712e-05,370.28,-1.2136e-05,0.17985,-1.2455e-05,-2.2157,0.21855
278,13.509,3.1584,0.1,3.2578e-05,325.55,3.2492e-05,323.08,-1.0478e-05,0.23028,-1.1187e-05,-5.0996,0.23991
279,14.259,3.1584,0.1,2.8264e-05,282.44,2.8146e-05,279.14,-8.9289e-06,0.57283,-9.9396e-06,-7.0218,0.26164
280,15.008,3.099,0.1,2.4266e-05,242.5,2.4112e-05,238.21,-7.5516e-06,0.2983,-8.7394e-06,-8.6257,0.28369
281,15.761,3.0646,0.1,2.0558e-05,205.44,2.038e-05,200.54,-6.2882e-06,0.16279,-7.5905e-06,-9.622,0.30611
282,16.509,3.0841,0.1,1.7147e-05,171.36,1.6953e-05,166.15,-5.0943e-06,0.49185,-6.5426e-06,-10.39,0.32861
283,17.256,3.0792,0.1,1.4093e-05,140.83,1.3879e-05,135.2,-4.0718e-06,0.32483,-5.5677e-06,-10.915,0.35128
284,18.002,3.0524,0.1,1.1341e-05,113.33,1.1111e-05,107.47,-3.1308e-06,0.45788,-4.6918e-06,-11.271,0.37406
285,18.748,3.0358,0.1,8.9148e-06,89.087,8.6652e-06,82.935,-2.3105e-06,0.46758,-3.9102e-06,-11.552,0.39696
286,19.5,3.0375,0.1,6.8127e-06,68.08,6.5357e-06,61.53,-1.6067e-06,0.3508,-3.2255e-06,-11.812,0.42018
287,20.251,3.0229,0.1,5.0308e-06,50.273,4.7175e-06,43.32,-9.9349e-07,0.4096,-2.6443e-06,-11.994,0.4434
288,21.002,3.0102,0.1,3.611e-06,36.085,3.2463e-06,28.583,-5.052e-07,0.39562,-2.1663e-06,-12.085,0.46669
289,6.2227,2.5839,0.1,0.00012914,1290.5,0.00012976,1318.1,-3.2832e-05,96.417,-4.9882e-05,-31.686,0.056759
290,4.1503,3.0191,0.1,0.0001581,1579.9,0.00015977,1634.6,-4.284e-05,112.27,-5.7398e-05,2.8909,0.024341
291,3.592,2.0661,0.1,0.00012743,1273.4,0.00012933,1336.2,-3.234e-05,121.48,-4.7011e-05,11.248,0.018122
292,2.87,4.0028,0.1,0.00012412,1240.4,0.00012604,1320.1,-2.4179e-05,191.45,-5.0697e-05,-7.7995,0.011702
293,3.6355,1.5586,0.1,0.00012556,1254.7,0.00012571,1260.6,-3.7823e-05,31.852,-4.4547e-05,-18.673,0.018183
294,2.4188,2.9892,0.1,0.00012552,1254.3,0.00012738,1375.4,-1.2688e-05,322.94,-5.7338e-05,-12.54,0.0085403
295,21.011,3.773,0.1,3.5512e-06,35.488,3.2034e-06,28.283,-5.1455e-07,0.34749,-2.1111e-06,-11.648,0.46695
296,21.756,3.0145,0.1,2.5286e-06,25.268,2.0813e-06,16.926,-1.1426e-07,0.42988,-1.7904e-06,-12.164,0.49012
297,6.3639,3.2602,0.1,0.00012169,1216,0.00012378,1285.5,-2.9831e-05,131.35,-4.52e-05,15.877,0.059581
298,6.6922,3.6998,0.1,0.00010081,1007.4,0.00010244,1063.9,-2.3803e-05,115.35,-3.8297e-05,6.4545,0.06616
299,4.1361,1.6725,0.1,0.00012718,1270.9,0.00012582,1233.6,-3.8653e-05,-2.1531,-4.7638e-05,-69.663,0.023449
300,21.002,2.2244,0.1,3.5619e-06,35.594,3.2237e-06,28.568,-5.2785e-07,0.38055,-2.0998e-06,-11.431,0.4667
301,20.229,2.2498,0.1,5.0423e-06,50.388,4.7502e-06,43.845,-1.029e-06,0.42284,-2.6031e-06,-11.404,0.44274
302,19.492,2.2523,0.1,6.8027e-06,67.98,6.5448e-06,61.831,-1.6374e-06,0.35379,-3.1719e-06,-11.176,0.41991
303,18.752,2.2535,0.1,8.8953e-06,88.891,8.6531e-06,82.877,-2.3308e-06,0.34863,-3.8731e-06,-11.24,0.39708
304,18.005,2.1906,0.1,1.1315e-05,113.07,1.1095e-05,107.44,-3.1477e-06,0.4215,-4.6467e-06,-10.842,0.37415
305,17.256,2.1912,0.1,1.4077e-05,140.67,1.3872e-05,135.28,-4.0748e-06,0.43084,-5.54e-06,-10.578,0.35125
306,16.507,2.195,0.1,1.7164e-05,171.52,1.6974e-05,166.4,-5.1342e-06,0.28417,-6.5113e-06,-10.062,0.32852
307,15.757,2.2104,0.1,2.0566e-05,205.52,2.0395e-05,200.82,-6.2931e-06,0.2983,-7.5773e-06,-9.3507,0.30596
308,15.002,2.271,0.1,2.4294e-05,242.78,2.4148e-05,238.72,-7.557e-06,0.49552,-8.7373e-06,-8.3732,0.28347
309,14.257,2.2463,0.1,2.8298e-05,282.78,2.8179e-05,279.42,-8.9709e-06,0.29141,-9.9253e-06,-6.8794,0.26155
310,13.509,2.2104,0.1,3.2606e-05,325.84,3.2522e-05,323.43,-1.049e-05,0.25721,-1.119e-05,-5.0034,0.23986
311,12.76,2.2104,0.1,3.72e-05,371.74,3.7162e-05,370.64,-1.2135e-05,0.2386,-1.2491e-05,-2.4292,0.21848
312,12.011,2.2104,0.1,4.207e-05,420.41,4.2094e-05,421.12,-1.3788e-05,1.2456,-1.393e-05,0.1781,0.19753
313,11.261,2.2104,0.1,4.7198e-05,471.65,4.7305e-05,474.85,-1.5046e-05,6.3693,-1.5883e-05,0.084865,0.17705
314,10.512,2.2104,0.1,5.2567e-05,525.31,5.2779e-05,531.8,-1.6239e-05,13.221,-1.7997e-05,0.009507,0.15711
315,9.7718,2.2392,0.1,5.8181e-05,581.41,5.8535e-05,592.52,-1.7235e-05,23.212,-2.036e-05,-0.26461,0.13798
316,9.0321,2.2188,0.1,6.4263e-05,642.19,6.4793e-05,659.24,-1.8157e-05,35.99,-2.2993e-05,-0.34913,0.11951
317,7.615,2.0585,0.1,7.8632e-05,785.77,7.9377e-05,811.3,-2.0787e-05,58.711,-2.9121e-05,-3.9047,0.086123
318,6.98,1.9031,0.1,8.6972e-05,869.12,8.7565e-05,889.47,-2.3986e-05,51.318,-3.1829e-05,-7.6092,0.072115
319,8.2084,3.7272,0.1,7.2403e-05,723.53,7.3247e-05,752.35,-1.858e-05,62.392,-2.6968e-05,-0.6336,0.099766
320,8.9839,3.7897,0.1,6.4617e-05,645.73,6.5218e-05,665.22,-1.7913e-05,40.604,-2.3282e-05,0.26639,0.1183
321,9.7475,3.836,0.1,5.8275e-05,582.35,5.8652e-05,594.13,-1.7235e-05,23.947,-2.0377e-05,0.34059,0.13732
322,10.508,3.8611,0.1,5.2567e-05,525.3,5.2784e-05,531.94,-1.6233e-05,13.369,-1.7992e-05,0.15517,0.15696
323,11.261,3.8688,0.1,4.7191e-05,471.59,4.7295e-05,474.68,-1.5064e-05,6.1428,-1.5868e-05,0.10448,0.17701
324,12.011,3.8688,0.1,4.2069e-05,420.4,4.2091e-05,421.05,-1.3801e-05,1.0994,-1.392e-05,0.21098,0.19749
325,12.76,3.8688,0.1,3.7202e-05,371.76,3.7162e-05,370.6,-1.2126e-05,0.27375,-1.2505e-05,-2.5752,0.21845
326,13.509,3.8688,0.1,3.2599e-05,325.76,3.2513e-05,323.31,-1.0471e-05,0.34428,-1.1206e-05,-5.1765,0.23982
327,14.264,3.8612,0.1,2.828e-05,282.61,2.8156e-05,279.08,-8.9763e-06,0.085556,-9.9194e-06,-7.0003,0.26171
328,15.013,3.8456,0.1,2.4253e-05,242.37,2.4103e-05,238.18,-7.5616e-06,0.25979,-8.7152e-06,-8.4083,0.28375
329,15.758,3.8523,0.1,2.0544e-05,205.3,2.0374e-05,200.67,-6.262e-06,0.53358,-7.5874e-06,-9.4252,0.30596
330,16.507,3.8506,0.1,1.7161e-05,171.5,1.6972e-05,166.39,-5.1266e-06,0.35052,-6.5153e-06,-10.083,0.32851
331,17.256,3.8494,0.1,1.4079e-05,140.69,1.3873e-05,135.27,-4.0821e-06,0.35814,-5.5361e-06,-10.567,0.35124
332,18.005,3.849,0.1,1.1319e-05,113.11,1.1097e-05,107.39,-3.1583e-06,0.28192,-4.6456e-06,-10.893,0.37413
333,18.756,3.83,0.1,8.8733e-06,88.672,8.6316e-06,82.665,-2.3266e-06,0.32968,-3.8628e-06,-11.213,0.39717
334,19.51,3.8183,0.1,6.7579e-06,67.532,6.4924e-06,61.246,-1.6049e-06,0.40573,-3.1784e-06,-11.417,0.42045
335,20.263,3.8103,0.1,4.9796e-06,49.761,4.6835e-06,43.139,-1.0079e-06,0.3752,-2.5857e-06,-11.479,0.44376
336,4.3579,2.4819,0.1,0.00016923,1691.1,0.00017016,1719.6,-5.1378e-05,55.087,-5.8292e-05,3.1401,0.02667
337,5.9687,2.9077,0.1,0.00015894,1588.3,0.00015971,1611.4,-4.9185e-05,41.896,-5.4104e-05,4.9372,0.051923
338,4.2335,3.5958,0.1,0.00016171,1616,0.00016206,1628.6,-4.8062e-05,49.807,-5.7649e-05,-22.224,0.025138
339,3.5339,4.2617,0.1,0.00012158,1215,0.00012279,1254.1,-3.3456e-05,80.131,-4.3874e-05,1.8557,0.017344
340,2.1959,3.8075,0.1,0.00012836,1282.7,0.00013024,1391.1,-1.6558e-05,288.18,-5.7105e-05,-16.482,0.0069943
341,2.2383,2.1843,0.1,0.00012847,1283.8,0.0001304,1390.5,-1.7382e-05,280.11,-5.6696e-05,-15.285,0.0072613
342,4.196,2.0738,0.1,0.00014432,1442.2,0.00014449,1448.5,-4.414e-05,31.189,-5.0597e-05,-17.323,0.024494
343,21.764,2.2537,0.1,2.4705e-06,24.688,2.0487e-06,16.767,-1.2962e-07,0.39971,-1.7307e-06,-11.63,0.49036
344,21.757,3.7935,0.1,2.4709e-06,24.692,2.0553e-06,16.851,-1.3909e-07,0.36365,-1.723e-06,-11.537,0.49014
345,6.3391,1.3769,0.1,8.7118e-05,870.58,8.4344e-05,791.95,-2.7408e-05,-47.715,-3.524e-05,-106.56,0.058347
346,5.9035,3.436,0.1,0.00016152,1614,0.0001621,1631.6,-5.0639e-05,33.205,-5.4734e-05,2.4341,0.050593
347,6.1318,3.7818,0.1,0.00012465,1245.7,0.00012551,1274.4,-3.499e-05,68.404,-4.5093e-05,-7.5056,0.054783
348,6.3175,1.7145,0.1,9.9654e-05,995.85,9.8726e-05,969.67,-3.1152e-05,-6.179,-3.6324e-05,-45.04,0.058191
349,4.2009,4.1262,0.1,0.00014621,1461.1,0.00014515,1429.8,-4.9137e-05,-30.006,-4.9498e-05,-32.716,0.024353
350,4.1467,4.4826,0.1,0.00012356,1234.7,0.00012213,1195,-3.809e-05,-8.9097,-4.6021e-05,-68.496,0.02337
351,2.8263,4.6548,0.1,0.00012407,1239.9,0.00012551,1291.7,-3.0313e-05,120.94,-4.738e-05,-7.2948,0.010998
352,3.5122,4.8049,0.1,0.00011542,1153.4,0.0001157,1162.3,-3.5528e-05,26.009,-4e-05,-7.5902,0.016659
353,2.1322,4.5509,0.1,0.00013004,1299.5,0.0001317,1377.7,-2.3997e-05,207.89,-5.4468e-05,-21.061,0.0063591
354,1.5166,2.9835,0.1,0.00013465,1345.6,0.00013886,1565.2,-5.8817e-06,477.68,-6.1414e-05,60.432,0.003414
355,1.4797,3.7338,0.1,0.00013396,1338.7,0.00013853,1555.8,-8.2199e-06,453.14,-5.9709e-05,66.265,0.0032186
356,1.5061,2.2407,0.1,0.00013398,1338.8,0.00013859,1556.5,-8.3615e-06,452.29,-5.9597e-05,67.328,0.0033304
357,2.2065,1.4416,0.1,0.00013012,1300.3,0.00013154,1372.1,-2.4045e-05,203.13,-5.4866e-05,-28.444,0.0068013
358,9.0338,1.4501,0.1,6.4645e-05,646.01,6.497e-05,656.08,-1.9552e-05,21.014,-2.2393e-05,-0.33534,0.11924
359,7.5619,1.3513,0.1,7.6452e-05,763.99,7.6694e-05,772.12,-2.2751e-05,24.924,-2.7084e-05,-7.6343,0.084575
360,6.7802,1.1941,0.1,7.8636e-05,785.82,7.8019e-05,767.82,-2.5711e-05,-11.559,-2.7403e-05,-24.274,0.06739
361,6.6931,4.9316,0.1,7.7347e-05,772.94,7.6694e-05,753.96,-2.5163e-05,-11.359,-2.7163e-05,-26.38,0.065355
362,6.0536,4.4774,0.1,9.5151e-05,950.86,9.2426e-05,871.91,-3.1474e-05,-59.028,-3.662e-05,-97.694,0.052647
363,7.3542,4.4781,0.1,7.8519e-05,784.65,7.908e-05,802.29,-2.2918e-05,35.924,-2.7624e-05,0.56487,0.080005
364,8.1742,4.4744,0.1,7.2298e-05,722.48,7.2781e-05,738.5,-2.042e-05,38.228,-2.6081e-05,-4.3103,0.098646
365,4.9918,2.6893,0.1,0.00024287,2427,0.00023877,2315.1,-7.239e-05,-22.783,-9.4918e-05,-192.04,0.035272
366,4.5542,3.4199,0.1,0.00019452,1943.8,0.00019429,1937.2,-6.3139e-05,3.0063,-6.5683e-05,-16.104,0.029163
367,4.1681,4.892,0.1,0.00010498,1049,0.00010321,999.12,-3.2733e-05,-22.305,-3.9812e-05,-75.491,0.023048
368,1.4367,4.5062,0.1,0.00013347,1333.8,0.00013803,1517.4,-1.6076e-05,359.55,-5.6085e-05,58.939,0.0029104
369,1.4478,1.4703,0.1,0.00013371,1336.1,0.00013822,1518,-1.6319e-05,356.89,-5.6148e-05,57.634,0.0029481
370,3.7701,0.79278,0.1,0.00011117,1110.9,0.00010835,1031.5,-3.4407e-05,-41.076,-4.4127e-05,-114.1,0.018598
371,4.8564,2.3797,0.1,0.00024485,2446.8,0.00024068,2339.8,-6.8776e-05,14.623,-9.9042e-05,-212.79,0.03307
372,5.2689,3.3817,0.1,0.00025249,2523.1,0.00024769,2396.7,-7.2118e-05,-6.1598,-0.00010211,-231.51,0.039498
373,5.5657,3.6101,0.1,0.00022377,2236.1,0.00022204,2189.5,-6.7836e-05,11.447,-8.2745e-05,-100.58,0.044311
374,5.794,1.9142,0.1,0.00014174,1416.4,0.000139,1351.1,-3.7035e-05,28.434,-5.9904e-05,-143.4,0.048064
375,5.7938,1.528,0.1,0.00010724,1071.7,0.00010238,957.83,-2.4547e-05,4.1436,-5.1974e-05,-201.93,0.047607
376,5.8414,1.123,0.1,7.6609e-05,765.56,7.2816e-05,676.07,-1.7483e-05,-2.3977,-3.7649e-05,-153.92,0.048011
377,4.6728,4.2645,0.1,0.00016709,1669.7,0.00015616,1438.6,-2.9863e-05,40.912,-8.9922e-05,-410.35,0.029737
378,4.6406,4.5947,0.1,0.00013,1299.1,0.00011942,1064.1,-2.3962e-05,-13.249,-7.2587e-05,-378.59,0.028776
379,4.6476,4.9244,0.1,9.9486e-05,994.18,9.2214e-05,839.99,-1.7188e-05,17.988,-5.4851e-05,-265,0.028229
380,1.4423,5.2601,0.1,0.00013768,1375.9,0.00014107,1485.2,-3.2394e-05,181.87,-5.0365e-05,46.847,0.0026415
381,2.1422,5.2849,0.1,0.00013453,1344.4,0.00013559,1381,-3.6255e-05,89.804,-4.9667e-05,-10.973,0.0059313
382,2.8574,5.3377,0.1,0.00012401,1239.3,0.00012469,1260.2,-3.7275e-05,43.308,-4.307e-05,-0.23325,0.010591
383,0.71744,1.4945,0.1,0.00015482,1547.2,0.00014583,1477.4,-4.6624e-06,346.65,-8.8832e-05,-285.76,0.00072251
384,0.74082,2.9987,0.1,0.00016123,1611.2,0.00015167,1553.8,-1.461e-06,403.24,-9.3405e-05,-287.59,0.0008157
385,0.73817,3.7412,0.1,0.0001602,1600.9,0.00015072,1540.3,-2.1484e-06,391.66,-9.2656e-05,-288.38,0.00080076
386,0.72204,4.4979,0.1,0.00015513,1550.2,0.00014603,1477.7,-4.7478e-06,344.84,-8.9101e-05,-288.95,0.0007331
387,0.72032,5.2542,0.1,0.00014095,1408.5,0.00013538,1338.9,-1.7471e-05,190.47,-7.3787e-05,-232.67,0.00064186
388,3.5981,0.4738,0.1,0.00010421,1041.4,0.00010341,1018.5,-3.3227e-05,-8.1674,-3.7069e-05,-37.034,0.016514
389,2.8865,0.63296,0.1,0.00012468,1246,0.00012508,1257.8,-3.9728e-05,19.492,-4.1749e-05,4.302,0.010786
390,2.1857,0.71041,0.1,0.0001344,1343.1,0.00013533,1376.5,-3.5914e-05,89.882,-5.0089e-05,-16.627,0.0061809
391,1.4487,0.72158,0.1,0.00013782,1377.3,0.00014119,1485.4,-3.2763e-05,178.35,-5.0217e-05,47.201,0.002657
392,0.72367,0.74002,0.1,0.00014114,1410.5,0.00013555,1340.9,-1.7415e-05,191.53,-7.3933e-05,-233.13,0.00064665
393,4.66,2.0353,0.1,0.00018546,1853.4,0.00018469,1842.5,-4.9593e-05,82.171,-7.2732e-05,-91.683,0.030036
394,4.6383,1.6857,0.1,0.0001598,1596.9,0.0001494,1368.7,-3.0549e-05,16.66,-8.509e-05,-393.14,0.029254
395,4.6312,1.3236,0.1,0.00011924,1191.6,0.00010833,957.56,-1.9462e-05,-2.5938,-6.9167e-05,-376.06,0.028537
396,4.4413,0.68156,0.1,7.0872e-05,708.23,6.9607e-05,680.74,-1.7537e-05,25.972,-3.044e-05,-70.976,0.025236
397,22.517,0.7384,0.1,1.3156e-06,13.147,1.0498e-06,8.2566,-3.0335e-08,0.14069,-9.6895e-07,-6.9117,0.51372
398,21.763,0.74532,0.1,2.1591e-06,21.576,1.9248e-06,16.78,-2.8642e-07,0.1655,-1.3206e-06,-7.6051,0.49029
399,21.013,0.7396,0.1,3.323e-06,33.207,3.116e-06,28.552,-6.7147e-07,0.094583,-1.7398e-06,-7.9322,0.46698
400,20.26,0.72827,0.1,4.8287e-06,48.253,4.6404e-06,43.734,-1.1681e-06,0.091168,-2.2563e-06,-8.085,0.44357
401,19.506,0.72068,0.1,6.6376e-06,66.331,6.4631e-06,61.937,-1.7701e-06,0.076161,-2.8589e-06,-8.1049,0.42023
402,18.755,0.71041,0.1,8.7865e-06,87.804,8.6211e-06,83.512,-2.4756e-06,0.13616,-3.5763e-06,-8.1342,0.39701
403,18.005,0.71041,0.1,1.1243e-05,112.36,1.1087e-05,108.21,-3.2872e-06,0.20534,-4.3852e-06,-8.0447,0.37396
404,17.256,0.71041,0.1,1.4045e-05,140.35,1.3895e-05,136.28,-4.2279e-06,0.11018,-5.2958e-06,-7.9137,0.35102
405,16.507,0.71041,0.1,1.7139e-05,171.28,1.6998e-05,167.39,-5.2491e-06,0.23212,-6.3088e-06,-7.7301,0.32824
406,15.757,0.71874,0.1,2.0576e-05,205.62,2.0443e-05,201.9,-6.4288e-06,-0.0087909,-7.3923e-06,-7.2485,0.30563
407,15.008,0.71041,0.1,2.4354e-05,243.37,2.4234e-05,239.98,-7.6959e-06,0.066869,-8.5997e-06,-6.7235,0.28326
408,14.259,0.71041,0.1,2.8403e-05,283.84,2.83e-05,280.9,-9.0316e-06,0.40875,-9.9069e-06,-6.1679,0.26115
409,13.509,0.71041,0.1,3.2808e-05,327.85,3.272e-05,325.33,-1.055e-05,0.21883,-1.127e-05,-5.1896,0.23936
410,12.76,0.71041,0.1,3.7524e-05,374.98,3.746e-05,373.13,-1.2174e-05,0.20745,-1.2715e-05,-3.8639,0.21793
411,12.011,0.71041,0.1,4.2546e-05,425.17,4.2513e-05,424.21,-1.3905e-05,0.31107,-1.424e-05,-2.2073,0.19692
412,11.261,0.71041,0.1,4.7876e-05,478.43,4.7881e-05,478.57,-1.5761e-05,0.39076,-1.5827e-05,-0.1023,0.17638
413,10.512,0.71041,0.1,5.3501e-05,534.64,5.3548e-05,536.04,-1.7475e-05,2.4021,-1.774e-05,0.40926,0.15637
414,9.7627,0.71041,0.1,5.9327e-05,592.86,5.9417e-05,595.55,-1.9171e-05,5.0675,-1.9799e-05,0.34918,0.13696
415,9.0133,0.71041,0.1,6.5195e-05,651.5,6.531e-05,654.92,-2.0963e-05,6.6985,-2.183e-05,0.19012,0.11822
416,8.2847,0.70111,0.1,7.0372e-05,703.23,7.0453e-05,705.66,-2.2742e-05,5.4256,-2.3536e-05,-0.53941,0.10069
417,7.5545,0.6685,0.1,7.3577e-05,735.26,7.338e-05,729.49,-2.4251e-05,-4.0765,-2.4702e-05,-7.4659,0.083851
418,6.8351,0.58876,0.1,7.0888e-05,708.39,6.9892e-05,679.67,-2.2799e-05,-16.773,-2.5903e-05,-40.09,0.06796
419,23.261,4.514,0.1,1.1279e-06,11.272,5.9146e-07,2.9863,2.5652e-07,0.4696,-1.0479e-06,-9.331,0.53688
420,23.256,3.7615,0.1,1.3472e-06,13.463,6.7963e-07,3.1193,3.1448e-07,0.37574,-1.2666e-06,-11.504,0.53674
421,23.26,3.0091,0.1,1.4227e-06,14.217,7.0674e-07,3.1553,3.3981e-07,0.39829,-1.342e-06,-12.238,0.5369
422,23.257,2.2514,0.1,1.3483e-06,13.474,6.7764e-07,3.1002,3.1763e-07,0.39531,-1.2683e-06,-11.521,0.53682
423,23.263,1.4919,0.1,1.1317e-06,11.31,5.9211e-07,2.9792,2.5834e-07,0.47139,-1.052e-06,-9.3739,0.53697
424,23.26,0.74316,0.1,7.8677e-07,7.8622,4.7241e-07,2.7524,1.2243e-07,0.12285,-7.0413e-07,-6.0876,0.53686
425,5.69,3.9175,0.1,0.00017101,1708.9,0.00017254,1758,-4.8203e-05,99.416,-6.1044e-05,2.9293,0.046239
426,5.6918,4.2375,0.1,0.00014486,1447.6,0.00013909,1312.5,-3.3868e-05,12.878,-6.8567e-05,-247.84,0.045878
427,5.6992,4.5905,0.1,0.00010568,1056,9.6816e-05,871.15,-1.6734e-05,17.984,-6.0375e-05,-309.92,0.045525
428,5.9934,5.2114,0.1,6.117e-05,611.28,5.9502e-05,569.95,-1.598e-05,2.8065,-2.6672e-05,-77.527,0.050526
429,6.0581,5.5738,0.1,5.1997e-05,519.61,5.12e-05,499.32,-1.4594e-05,4.9786,-2.0888e-05,-42.313,0.051337
430,7.5206,5.2793,0.1,7.3511e-05,734.6,7.3309e-05,728.71,-2.3962e-05,-2.1378,-2.4953e-05,-9.5849,0.083064
431,8.2278,5.2427,0.1,7.0756e-05,707.08,7.079e-05,708.11,-2.281e-05,4.8388,-2.3815e-05,-2.7077,0.099334
432,8.9873,5.2647,0.1,6.5233e-05,651.88,6.5395e-05,656.68,-2.0997e-05,7.5626,-2.1727e-05,2.0773,0.11754
433,9.7554,5.2832,0.1,5.9371e-05,593.3,5.9465e-05,596.09,-1.9149e-05,5.4185,-1.9843e-05,0.20244,0.13672
434,10.512,5.2896,0.1,5.3424e-05,533.87,5.348e-05,535.53,-1.7412e-05,2.8743,-1.7735e-05,0.44429,0.15631
435,11.261,5.2896,0.1,4.7822e-05,477.89,4.7827e-05,478.04,-1.5746e-05,0.37398,-1.5806e-05,-0.07517,0.17631
436,12.011,5.2896,0.1,4.2514e-05,424.85,4.2481e-05,423.88,-1.3893e-05,0.30568,-1.4232e-05,-2.2392,0.19685
437,12.76,5.2896,0.1,3.7503e-05,374.77,3.744e-05,372.93,-1.2161e-05,0.25894,-1.2714e-05,-3.9027,0.21787
438,13.509,5.2896,0.1,3.2801e-05,327.79,3.2714e-05,325.27,-1.0549e-05,0.21852,-1.1267e-05,-5.1792,0.2393
439,14.259,5.2896,0.1,2.8404e-05,283.84,2.8298e-05,280.82,-9.0498e-06,0.20567,-9.8955e-06,-6.1489,0.26109
440,15.008,5.2896,0.1,2.433e-05,243.13,2.421e-05,239.74,-7.6766e-06,0.15483,-8.6027e-06,-6.8037,0.2832
441,15.757,5.2896,0.1,2.058e-05,205.65,2.0449e-05,202,-6.4149e-06,0.15588,-7.403e-06,-7.2681,0.30558
442,16.507,5.2896,0.1,1.7143e-05,171.31,1.7003e-05,167.46,-5.2596e-06,0.18599,-6.2989e-06,-7.6235,0.32818
443,17.256,5.2896,0.1,1.4033e-05,140.24,1.3885e-05,136.2,-4.225e-06,0.12728,-5.2892e-06,-7.8692,0.35096
444,18.005,5.2896,0.1,1.1246e-05,112.39,1.109e-05,108.21,-3.2946e-06,0.13254,-4.3824e-06,-8.0413,0.3739
445,18.755,5.2896,0.1,8.784e-06,87.78,8.6192e-06,83.501,-2.475e-06,0.14412,-3.5745e-06,-8.1171,0.39695
446,19.504,5.2896,0.1,6.6479e-06,66.433,6.4751e-06,62.093,-1.7703e-06,0.14027,-2.8617e-06,-8.06,0.4201
447,20.258,5.2784,0.1,4.8232e-06,48.198,4.6364e-06,43.722,-1.1655e-06,0.12904,-2.2525e-06,-8.0382,0.44348
448,21.007,5.2735,0.1,3.3322e-06,33.299,3.1269e-06,28.691,-6.7273e-07,0.14192,-1.7416e-06,-7.8893,0.46673
449,21.759,5.2709,0.1,2.1686e-06,21.671,1.9391e-06,16.931,-2.9967e-07,0.10954,-1.3157e-06,-7.5243,0.4901
450,22.513,5.2652,0.1,1.3105e-06,13.096,1.0455e-06,8.2248,-2.9382e-08,0.14836,-9.6552e-07,-6.8854,0.51355
451,23.258,5.259,0.1,7.8617e-07,7.8562,4.7194e-07,2.7532,1.2288e-07,0.13045,-7.0354e-07,-6.0789,0.53675
452,5.3065,2.45,0.1,0.00026412,2639.4,0.00025068,2314.9,-6.22e-05,-35.945,-0.00012932,-540.29,0.039987
453,5.0203,3.6284,0.1,0.00027455,2743.6,0.00026189,2421.8,-7.0889e-05,-78.53,-0.00012873,-513.11,0.035405
454,8.9721,4.5476,0.1,6.497e-05,649.25,6.5397e-05,662.41,-1.9425e-05,25.094,-2.2518e-05,1.8549,0.11768
455,9.7627,4.5792,0.1,5.8705e-05,586.65,5.8943e-05,593.92,-1.8092e-05,15.114,-2.0138e-05,-0.26314,0.13739
456,10.512,4.5792,0.1,5.2921e-05,528.84,5.3065e-05,533.18,-1.6786e-05,8.3478,-1.7841e-05,0.42075,0.15677
457,11.261,4.5792,0.1,4.7452e-05,474.2,4.7512e-05,475.98,-1.5391e-05,3.3443,-1.5805e-05,0.23185,0.17674
458,12.011,4.5792,0.1,4.2251e-05,422.22,4.225e-05,422.17,-1.3902e-05,0.27231,-1.3988e-05,-0.37739,0.19724
459,12.76,4.5792,0.1,3.7321e-05,372.95,3.7272e-05,371.53,-1.2136e-05,0.30215,-1.2591e-05,-3.1171,0.21822
460,13.509,4.5792,0.1,3.2678e-05,326.56,3.2594e-05,324.14,-1.0503e-05,0.327,-1.1225e-05,-5.1011,0.23962
461,14.259,4.5792,0.1,2.8338e-05,283.18,2.8227e-05,280.04,-8.9886e-06,0.42327,-9.9191e-06,-6.5682,0.26137
462,15.008,4.5792,0.1,2.428e-05,242.64,2.4148e-05,238.95,-7.5871e-06,0.50451,-8.6748e-06,-7.6683,0.28345
463,15.757,4.5792,0.1,2.0559e-05,205.44,2.0406e-05,201.25,-6.3323e-06,0.34222,-7.5029e-06,-8.4533,0.30579
464,16.507,4.5792,0.1,1.715e-05,171.38,1.6984e-05,166.87,-5.1816e-06,0.32298,-6.4193e-06,-8.9761,0.32836
465,17.256,4.5792,0.1,1.4044e-05,140.34,1.3866e-05,135.63,-4.1205e-06,0.48352,-5.4341e-06,-9.3861,0.35112
466,18.005,4.5792,0.1,1.1279e-05,112.71,1.1087e-05,107.75,-3.1926e-06,0.45574,-4.5429e-06,-9.6894,0.37403
467,18.755,4.5792,0.1,8.8258e-06,88.197,8.6206e-06,83.038,-2.3749e-06,0.42145,-3.741e-06,-9.843,0.39707
468,19.511,4.5734,0.1,6.6883e-06,66.837,6.4663e-06,61.487,-1.6588e-06,0.43842,-3.0383e-06,-9.9269,0.4204
469,20.262,4.5569,0.1,4.8997e-06,48.963,4.6527e-06,43.336,-1.0575e-06,0.43182,-2.4463e-06,-10.003,0.44368
470,21.01,4.5408,0.1,3.4392e-06,34.368,3.1554e-06,28.375,-5.6336e-07,0.43356,-1.9522e-06,-10.001,0.46689
471,21.762,4.5501,0.1,2.3214e-06,23.198,1.9855e-06,16.771,-1.8206e-07,0.48443,-1.5495e-06,-9.7898,0.49024
472,22.509,3.7771,0.1,1.7435e-06,17.423,1.2144e-06,8.4441,1.3927e-07,0.36603,-1.447e-06,-11.552,0.51351
473,22.51,3.0195,0.1,1.8133e-06,18.121,1.242e-06,8.4869,1.6285e-07,0.37823,-1.5208e-06,-12.272,0.51355
474,22.518,2.2571,0.1,1.7431e-06,17.419,1.2123e-06,8.3993,1.3861e-07,0.33176,-1.4483e-06,-11.591,0.51382
475,21.773,1.495,0.1,2.3128e-06,23.112,1.9708e-06,16.57,-1.7585e-07,0.44113,-1.5532e-06,-9.9081,0.49064
476,21.012,1.4835,0.1,3.4542e-06,34.519,3.1667e-06,28.456,-5.6193e-07,0.44034,-1.9655e-06,-10.105,0.46697
477,20.257,1.4458,0.1,4.9021e-06,48.987,4.652e-06,43.312,-1.0498e-06,0.47015,-2.4561e-06,-10.096,0.44357
478,19.508,1.4484,0.1,6.7022e-06,66.976,6.472e-06,61.459,-1.644e-06,0.47863,-3.0685e-06,-10.224,0.42038
479,18.755,1.4208,0.1,8.8217e-06,88.156,8.6166e-06,83.009,-2.3702e-06,0.45844,-3.7416e-06,-9.8461,0.39711
480,18.005,1.4208,0.1,1.1288e-05,112.8,1.1094e-05,107.77,-3.2025e-06,0.35024,-4.5444e-06,-9.7323,0.37407
481,17.256,1.4208,0.1,1.4052e-05,140.42,1.3875e-05,135.71,-4.1304e-06,0.42818,-5.43e-06,-9.3361,0.35116
482,16.5,1.4309,0.1,1.7173e-05,171.61,1.7007e-05,167.11,-5.177e-06,0.42988,-6.4374e-06,-9.0405,0.32821
483,15.752,1.4506,0.1,2.0581e-05,205.67,2.043e-05,201.52,-6.3115e-06,0.59482,-7.5342e-06,-8.5925,0.30569
484,15.008,1.4208,0.1,2.4284e-05,242.67,2.4152e-05,238.98,-7.6064e-06,0.35662,-8.6595e-06,-7.556,0.28349
485,14.259,1.4208,0.1,2.8353e-05,283.33,2.8237e-05,280.03,-9.0116e-06,0.1661,-9.9175e-06,-6.6407,0.26142
486,13.509,1.4208,0.1,3.2684e-05,326.61,3.26e-05,324.22,-1.0493e-05,0.4336,-1.1236e-05,-5.1442,0.23966
487,12.76,1.4208,0.1,3.7333e-05,373.08,3.7285e-05,371.69,-1.2135e-05,0.36351,-1.2597e-05,-3.1096,0.21826
488,12.011,1.4208,0.1,4.2278e-05,422.49,4.2278e-05,422.49,-1.3911e-05,0.3069,-1.3992e-05,-0.29811,0.19729
489,11.261,1.4208,0.1,4.7508e-05,474.75,4.7569e-05,476.56,-1.54e-05,3.4378,-1.583e-05,0.2101,0.17678
490,10.512,1.4208,0.1,5.2996e-05,529.6,5.3135e-05,533.77,-1.6803e-05,8.2795,-1.7884e-05,0.15554,0.15681
491,9.7638,1.4395,0.1,5.8746e-05,587.06,5.8984e-05,594.28,-1.8203e-05,14.329,-2.0062e-05,0.35795,0.13747
492,22.524,4.5328,0.1,1.5455e-06,15.444,1.1244e-06,8.219,8.7287e-08,0.42684,-1.243e-06,-9.5688,0.51393
493,22.534,1.4776,0.1,1.5417e-06,15.406,1.1174e-06,8.1564,9.3086e-08,0.46006,-1.2433e-06,-9.5812,0.51428
494,0.72659,2.2473,0.1,0.00015976,1596.5,0.00015058,1542.5,-2.1272e-06,395.09,-9.2085e-05,-280.82,0.00077504
495,8.3174,2.1758,0.1,7.0929e-05,708.8,7.1638e-05,732.36,-1.9099e-05,50.592,-2.5924e-05,-0.68497,0.10232
496,8.3005,1.4296,0.1,7.0628e-05,705.8,7.1058e-05,719.15,-2.1053e-05,27.069,-2.4602e-05,0.40256,0.1016
497,2.9414,2.1101,0.1,0.0001239,1238.2,0.0001263,1327.6,-2.5275e-05,188.7,-4.9109e-05,9.6194,0.012329
498,7.3963,3.5618,0.1,8.1796e-05,817.39,8.3161e-05,867.35,-1.7968e-05,107.51,-3.1937e-05,2.5528,0.081328
499,3.0386,1.318,0.1,0.00011834,1182.6,0.00011962,1229,-2.924e-05,110.51,-4.51e-05,-8.6613,0.012663
500,3.2164,2.7185,0.1,0.00012821,1281.2,0.00013056,1380.7,-2.2508e-05,230.6,-5.3237e-05,-0.28407,0.014813
501,6.8185,5.4201,0.1,6.9965e-05,699.17,6.9121e-05,674.79,-2.2535e-05,-13.877,-2.5271e-05,-34.438,0.067503
502,3.581,5.377,0.1,0.00010633,1062.5,0.0001057,1044.3,-3.5297e-05,-15.134,-3.6117e-05,-21.293,0.016572
503,6.2811,4.6761,0.1,8.9941e-05,898.79,8.7869e-05,839.96,-2.8246e-05,-32.482,-3.4975e-05,-83.039,0.057034
504,4.2387,1.3532,0.1,0.00011364,1135.6,0.0001098,1033,-3.2312e-05,-34.81,-4.8976e-05,-160.02,0.024174
505,3.9926,1.0383,0.1,0.00010187,1018,0.00010005,966.19,-3.2009e-05,-26.034,-3.8629e-05,-75.775,0.021144
506,6.0825,0.4518,0.1,5.3366e-05,533.29,5.2599e-05,514.31,-1.4732e-05,8.4157,-2.1534e-05,-42.691,0.051982
507,6.2915,2.1401,0.1,0.00011429,1142.1,0.00011422,1144.5,-3.2004e-05,45.782,-4.2969e-05,-36.605,0.057942
508,4.6211,2.8647,0.1,0.00020096,2008.2,0.0002004,1993.7,-6.1831e-05,23.423,-7.1653e-05,-50.374,0.030147
509,5.2799,2.9295,0.1,0.00023537,2352.1,0.00023236,2271.3,-6.9661e-05,2.0053,-9.065e-05,-155.69,0.039809
510,6.1418,4.1571,0.1,0.00011012,1100.4,0.00010898,1070.3,-3.2412e-05,7.9914,-4.2074e-05,-64.606,0.054706
511,3.7101,3.8463,0.1,0.00012493,1248.5,0.00012737,1340.8,-2.4889e-05,196.78,-4.9859e-05,9.1652,0.019326
512,4.3155,5.4126,0.1,7.5291e-05,752.39,7.3701e-05,710.05,-2.1657e-05,-6.4331,-3.0612e-05,-73.72,0.023725
513,5.6139,3.1611,0.1,0.00020515,2050.1,0.00020401,2020.2,-6.1969e-05,21.669,-7.5225e-05,-77.926,0.045428
514,4.8936,3.1504,0.1,0.0002297,2295.4,0.00022811,2252,-7.0247e-05,10.332,-8.4068e-05,-93.516,0.033895
515,4.6749,5.165,0.1,7.9904e-05,798.49,7.1184e-05,624.28,-9.7601e-06,16.09,-4.9162e-05,-279.96,0.02805
516,5.6445,2.6397,0.1,0.000201,2008.6,0.00020166,2031.8,-5.8407e-05,77.81,-7.2402e-05,-27.34,0.045909
517,5.8309,4.9048,0.1,7.1561e-05,715.11,6.8363e-05,645.1,-1.5002e-05,18.722,-3.5337e-05,-134.06,0.047675
518,4.697,3.9165,0.1,0.00019476,1946.3,0.00019557,1981.5,-5.1027e-05,128.66,-7.4324e-05,-46.382,0.030555
519,6.0142,0.82615,0.1,6.5199e-05,651.54,6.3336e-05,604.79,-1.7207e-05,-0.37792,-2.8453e-05,-84.877,0.051096
520,5.7473,2.2815,0.1,0.00016763,1675.1,0.00016778,1688.1,-4.5354e-05,86.624,-6.3823e-05,-52.145,0.047538
521,4.55,0.99227,0.1,8.8965e-05,889.04,8.4289e-05,788.33,-1.7499e-05,23.534,-4.5534e-05,-187.11,0.027
522,4.3869,0.3522,0.1,6.6201e-05,661.55,6.5233e-05,635.36,-1.9654e-05,-2.4481,-2.5665e-05,-47.613,0.024028
523,5.3006,3.7523,0.1,0.00032024,3200.2,0.00030344,2762.9,-8.5558e-05,-159.91,-0.00015166,-656.6,0.039601
524,5.0917,2.2855,0.1,0.00031475,3145.3,0.00029942,2720.3,-9.5398e-05,-246.23,-0.0001395,-577.58,0.036377
525,5.2667,5.6667,0.1,2.898e-05,289.6,3.1084e-05,358.94,-3.3191e-06,100.45,-1.057e-05,45.97,0.035083
526,5.2667,5.3333,0.1,4.2984e-05,429.54,4.4916e-05,486.39,-1.1831e-05,60.021,-1.2665e-05,53.755,0.035679
527,5.2667,5,0.1,6.4489e-05,644.44,6.3488e-05,626.15,-1.4929e-05,36.963,-2.811e-05,-62.072,0.03631
528,5.2667,4.6667,0.1,9.9069e-05,990,9.3342e-05,872.16,-1.7636e-05,38.317,-5.2281e-05,-221.99,0.03699
529,5.2667,4.3333,0.1,0.00020498,2048.4,0.00018382,1645.8,-2.2212e-05,97.772,-0.00012532,-676.92,0.037736
530,5.2667,4,0.1,0.00048448,4841.5,0.00048429,4898.4,-0.00011295,411,-0.00019862,-232.68,0.038555
531,5.1,4,0.1,0.00047915,4788.2,0.00047248,4665,-0.00011378,260.07,-0.0002058,-431.36,0.035916
532,5.1,4.3333,0.1,0.00023362,2334.6,0.00019937,1707.5,-1.3448e-05,108.48,-0.00015719,-971.52,0.034974
533,5.1,4.6667,0.1,0.00012537,1252.9,0.0001137,1034.9,-1.3994e-05,75.472,-7.4944e-05,-382.48,0.034052
534,5.1,5,0.1,7.9387e-05,793.32,7.3688e-05,681.04,-1.1931e-05,37.735,-4.429e-05,-205.39,0.033176
535,5.1,5.3333,0.1,4.2057e-05,420.28,4.0389e-05,377.41,-1.1166e-05,-9.9571,-1.9084e-05,-69.443,0.03235
536,5.1,5.6667,0.1,4.3427e-05,433.97,4.5288e-05,489.67,-1.0771e-05,68.466,-1.4032e-05,43.966,0.031571
537,5.2667,0.33333,0.1,3.139e-05,313.69,3.3455e-05,383.16,-3.6131e-06,104.64,-1.1771e-05,43.344,0.035213
538,5.2667,0.66667,0.1,4.5297e-05,452.66,4.726e-05,510.75,-1.1902e-05,66.23,-1.4013e-05,50.367,0.035801
539,5.2667,1,0.1,6.6394e-05,663.49,6.6194e-05,670.41,-1.4063e-05,67.385,-2.8403e-05,-40.358,0.036423
540,5.2667,1.3333,0.1,0.00012076,1206.8,0.00011696,1138.6,-2.2859e-05,88.101,-5.8466e-05,-179.44,0.037094
541,5.2667,1.6667,0.1,0.00022074,2205.9,0.00021256,2031.6,-4.6765e-05,83.152,-0.00010621,-363.47,0.037823
542,5.2667,2,0.1,0.00045177,4514.6,0.00045989,4772,-0.000117,437.5,-0.00016236,96.629,0.038602
543,5.1,2,0.1,0.00048353,4831.9,0.0004743,4688.1,-9.9114e-05,379.68,-0.00022101,-536.21,0.035947
544,5.1,1.6667,0.1,0.00023456,2343.9,0.00019958,1693.3,-1.4685e-05,83.389,-0.00015833,-995.89,0.035
545,5.1,1.3333,0.1,0.0001252,1251.1,0.00011337,1023.1,-1.5136e-05,57.592,-7.4744e-05,-390.28,0.034072
546,5.1,1,0.1,8.1051e-05,809.96,7.7749e-05,743.95,-1.561e-05,42.486,-4.0229e-05,-142.49,0.033197
547,5.1,0.66667,0.1,5.6199e-05,561.6,5.736e-05,597.48,-1.4817e-05,55.17,-1.9711e-05,18.4,0.032371
548,5.1,0.33333,0.1,3.4623e-05,346,3.7602e-05,437.26,-5.4032e-06,114.13,-1.0982e-05,72.215,0.031586
549,5.2667,6,0.1,2.1289e-05,212.75,2.306e-05,273.56,-1.3019e-06,90.516,-8.0049e-06,40.152,0.034503
550,6.016,6,0.1,4.3353e-05,433.23,4.285e-05,419.73,-1.2877e-05,1.0159,-1.6566e-05,-26.697,0.049818
551,6.7653,6,0.1,6.5478e-05,654.33,6.4482e-05,625.23,-2.1748e-05,-22.669,-2.3436e-05,-35.357,0.065597
552,7.5147,6,0.1,7.1344e-05,712.94,7.1027e-05,703.74,-2.3226e-05,-4.4493,-2.4481e-05,-13.872,0.082089
553,8.264,6,0.1,6.9592e-05,695.44,6.9494e-05,692.64,-2.2446e-05,1.8406,-2.367e-05,-7.3573,0.099369
554,9.0133,6,0.1,6.5678e-05,656.32,6.5594e-05,653.86,-2.1698e-05,-2.0166,-2.1816e-05,-2.901,0.11743
555,9.7627,6,0.1,5.9761e-05,597.2,5.9775e-05,597.62,-1.967e-05,0.70308,-1.9743e-05,0.1532,0.13622
556,10.512,6,0.1,5.3904e-05,538.67,5.3897e-05,538.44,-1.7675e-05,0.68002,-1.7917e-05,-1.1343,0.15567
557,11.261,6,0.1,4.8189e-05,481.56,4.8152e-05,480.47,-1.5734e-05,0.45704,-1.6144e-05,-2.6196,0.17573
558,12.011,6,0.1,4.2773e-05,427.44,4.2706e-05,425.51,-1.389e-05,0.26226,-1.4469e-05,-4.0819,0.19633
559,12.76,6,0.1,3.7678e-05,376.52,3.7588e-05,373.94,-1.2164e-05,0.11857,-1.2874e-05,-5.2141,0.21739
560,13.509,6,0.1,3.2908e-05,328.85,3.28e-05,325.76,-1.0557e-05,-0.0003198,-1.1367e-05,-6.0869,0.23888
561,14.259,6,0.1,2.8467e-05,284.47,2.8345e-05,281.01,-9.0654e-06,-0.080912,-9.9509e-06,-6.7339,0.26072
562,15.008,6,0.1,2.4359e-05,243.42,2.4227e-05,239.68,-7.6907e-06,-0.13638,-8.631e-06,-7.2019,0.28287
563,15.757,6,0.1,2.0579e-05,205.65,2.0437e-05,201.67,-6.4282e-06,-0.18043,-7.4106e-06,-7.5623,0.30529
564,16.507,6,0.1,1.7128e-05,171.16,1.6978e-05,167.01,-5.2785e-06,-0.21831,-6.2911e-06,-7.8266,0.32793
565,17.256,6,0.1,1.4005e-05,139.96,1.3849e-05,135.69,-4.2418e-06,-0.24395,-5.2707e-06,-7.9749,0.35076
566,18.005,6,0.1,1.1207e-05,112,1.1045e-05,107.63,-3.3141e-06,-0.26097,-4.3525e-06,-8.0631,0.37373
567,18.755,6,0.1,8.7395e-06,87.335,8.5702e-06,82.873,-2.4954e-06,-0.26932,-3.5407e-06,-8.1231,0.39681
568,19.504,6,0.1,6.598e-06,65.934,6.4196e-06,61.375,-1.7861e-06,-0.27995,-2.8316e-06,-8.1353,0.41998
569,20.253,6,0.1,4.7714e-06,47.681,4.5842e-06,43.088,-1.187e-06,-0.27447,-2.2119e-06,-7.9753,0.44322
570,21.003,6,0.1,3.2845e-06,32.822,3.0806e-06,28.099,-6.9991e-07,-0.30625,-1.7016e-06,-7.8324,0.4665
571,21.752,6,0.1,2.1066e-06,21.052,1.8823e-06,16.258,-3.215e-07,-0.30093,-1.2708e-06,-7.4339,0.48981
572,22.501,6,0.1,1.2185e-06,12.177,9.6983e-07,7.4293,-5.1494e-08,-0.24447,-8.988e-07,-6.6108,0.51314
573,23.251,6,0.1,6.0255e-07,6.0213,3.401e-07,1.5877,8.4986e-08,-0.32919,-5.5779e-07,-5.1588,0.53646
574,24,6,0.1,2.6294e-07,2.6276,1.067e-07,-0.39979,9.7924e-09,-1.1279,-2.8124e-07,-3.3146,0.55979
575,24,5.25,0.1,5.7973e-07,5.7933,2.2847e-07,0.48451,1.7188e-07,0.059259,-5.6931e-07,-5.5097,0.55984
576,24,4.5,0.1,9.7527e-07,9.746,3.8802e-07,1.0663,3.0639e-07,0.45302,-9.4797e-07,-8.9718,0.55988
577,24,3.75,0.1,1.1965e-06,11.956,4.727e-07,1.193,3.7092e-07,0.42837,-1.167e-06,-11.127,0.55991
578,24,3,0.1,1.2697e-06,12.688,4.9928e-07,1.2418,3.9552e-07,0.46221,-1.2389e-06,-11.818,0.55992
579,24,2.25,0.1,1.1976e-06,11.967,4.7409e-07,1.2014,3.7026e-07,0.42128,-1.1681e-06,-11.137,0.55993
580,24,1.5,0.1,9.758e-07,9.7512,3.9031e-07,1.0891,3.0497e-07,0.4479,-9.4807e-07,-8.9669,0.55992
581,24,0.75,0.1,5.8018e-07,5.7978,2.292e-07,0.49409,1.719e-07,0.06354,-5.695e-07,-5.507,0.5599
582,6.5564e-15,0.75,0.1,9.3042e-05,929.78,0.0001239,1836.7,5.4438e-07,909.85,-2.3845e-07,903.97,0
583,1.3113e-14,1.5,0.1,0.00010203,1019.6,0.00013597,2017.1,1.0502e-06,1003.4,-5.0292e-07,991.76,0
584,1.9669e-14,2.25,0.1,0.00010694,1068.7,0.00014235,2109.5,4.8808e-07,1043.6,-2.4233e-07,1038.1,0
585,2.6226e-14,3,0.1,0.00010858,1085,0.00014448,2140.1,1.3719e-07,1055.6,-1.8812e-09,1054.6,0
586,3.2782e-14,3.75,0.1,0.00010716,1070.9,0.00014264,2113.8,4.6867e-07,1045.5,-2.2467e-07,1040.3,0
587,3.9339e-14,4.5,0.1,0.0001022,1021.3,0.00013619,2020.6,1.0698e-06,1005.3,-5.1031e-07,993.45,0
588,4.5895e-14,5.25,0.1,9.3197e-05,931.33,0.0001241,1839.5,5.0481e-07,910.9,-2.1375e-07,905.5,0
589,24,0,0.1,2.6339e-07,2.6321,1.0661e-07,-0.40333,1.0092e-08,-1.1285,-2.8185e-07,-3.322,0.55987
590,23.251,0,0.1,6.0246e-07,6.0204,3.3906e-07,1.584,8.6784e-08,-0.31155,-5.5798e-07,-5.1561,0.53654
591,22.501,0,0.1,1.2272e-06,12.264,9.7839e-07,7.4903,-5.6096e-08,-0.28242,-9.0322e-07,-6.6474,0.51321
592,21.752,0,0.1,2.1084e-06,21.07,1.8811e-06,16.204,-3.2131e-07,-0.34365,-1.2758e-06,-7.5155,0.48989
593,21.003,0,0.1,3.2789e-06,32.766,3.075e-06,28.059,-6.9405e-07,-0.25979,-1.7015e-06,-7.8292,0.46658
594,20.253,0,0.1,4.7817e-06,47.784,4.5928e-06,43.155,-1.1868e-06,-0.27043,-2.2203e-06,-8.0364,0.4433
595,19.504,0,0.1,6.5914e-06,65.868,6.4142e-06,61.338,-1.785e-06,-0.26739,-2.8266e-06,-8.0936,0.42006
596,18.755,0,0.1,8.7408e-06,87.348,8.5705e-06,82.866,-2.4923e-06,-0.25632,-3.5456e-06,-8.1702,0.39689
597,18.005,0,0.1,1.1208e-05,112,1.1044e-05,107.59,-3.3149e-06,-0.29857,-4.3552e-06,-8.1147,0.3738
598,17.256,0,0.1,1.4003e-05,139.93,1.3847e-05,135.66,-4.2414e-06,-0.25222,-5.2701e-06,-7.9816,0.35083
599,16.507,0,0.1,1.7147e-05,171.35,1.6997e-05,167.18,-5.2916e-06,-0.28796,-6.2931e-06,-7.8133,0.32801
600,15.757,0,0.1,2.0575e-05,205.61,2.0436e-05,201.73,-6.424e-06,-0.089237,-7.4059e-06,-7.4667,0.30537
601,15.008,0,0.1,2.4363e-05,243.47,2.4232e-05,239.75,-7.6814e-06,-0.034231,-8.6408e-06,-7.2426,0.28295
602,14.259,0,0.1,2.8479e-05,284.59,2.8354e-05,281.05,-9.0758e-06,-0.18477,-9.9532e-06,-6.7775,0.2608
603,13.509,0,0.1,3.2918e-05,328.95,3.281e-05,325.87,-1.0565e-05,-0.037253,-1.1365e-05,-6.0485,0.23895
604,12.76,0,0.1,3.7697e-05,376.71,3.7609e-05,374.17,-1.2171e-05,0.14632,-1.2879e-05,-5.1747,0.21747
605,12.011,0,0.1,4.2808e-05,427.78,4.2741e-05,425.85,-1.3902e-05,0.26417,-1.448e-05,-4.0845,0.19641
606,11.261,0,0.1,4.8233e-05,482,4.8194e-05,480.85,-1.574e-05,0.47126,-1.6171e-05,-2.7646,0.17581
607,10.512,0,0.1,5.3954e-05,539.17,5.3944e-05,538.86,-1.7697e-05,0.58189,-1.7933e-05,-1.1922,0.15576
608,9.7627,0,0.1,5.9862e-05,598.21,5.9867e-05,598.34,-1.9709e-05,0.43751,-1.9791e-05,-0.1746,0.1363
609,9.0133,0,0.1,6.552e-05,654.75,6.5524e-05,654.84,-2.1582e-05,0.37001,-2.1655e-05,-0.18288,0.11751
610,8.264,0,0.1,7.0321e-05,702.72,7.0194e-05,698.99,-2.3273e-05,-3.2814,-2.3392e-05,-4.1687,0.09946
611,7.5147,0,0.1,7.105e-05,710.01,7.0767e-05,701.92,-2.2693e-05,-0.29716,-2.4734e-05,-15.629,0.082189
612,6.7653,0,0.1,6.582e-05,657.75,6.4919e-05,631.5,-2.1591e-05,-18.496,-2.3619e-05,-33.736,0.065706
613,6.016,0,0.1,4.4382e-05,443.52,4.3592e-05,421.76,-1.3353e-05,-6.1057,-1.7318e-05,-35.898,0.049936
614,5.2667,0,0.1,2.269e-05,226.75,2.461e-05,291.61,-1.5949e-06,94.715,-8.3844e-06,43.701,0.034642
615,5.1,0,0.1,2.4229e-05,242.12,2.6702e-05,320.94,-2.1096e-06,104.46,-8.0953e-06,59.484,0.030823
616,4.3714,1.8718e-30,0.1,6.0638e-05,605.96,6.0848e-05,612.45,-1.8713e-05,14.659,-2.0845e-05,-1.3639,0.023152
617,3.6429,1.5598e-30,0.1,0.00010013,1000.6,9.8765e-05,960.69,-3.3144e-05,-30.42,-3.5644e-05,-49.21,0.016095
618,2.9143,1.2478e-30,0.1,0.00012372,1236.3,0.00012371,1236.1,-3.992e-05,6.6736,-4.1743e-05,-7.0233,0.010079
619,2.1857,9.3588e-31,0.1,0.00013883,1387.4,0.00013947,1406.4,-4.3727e-05,29.927,-4.6592e-05,8.4005,0.0053581
620,1.4571,6.2392e-31,0.1,0.00015008,1499.7,0.00015175,1549.4,-4.5951e-05,63.949,-4.969e-05,35.851,0.0021006
621,0.72857,3.1196e-31,0.1,0.00014383,1437.3,0.00014119,1367.7,-4.126e-05,-3.2158,-5.7863e-05,-127.97,0.00040224
622,0,0,0.1,6.6876e-05,668.3,8.0793e-05,1089.1,-4.571e-07,478.59,-1.4239e-05,375.04,0
623,3.937e-14,6,0.1,6.7054e-05,670.08,8.0797e-05,1086.2,-5.0566e-07,475.34,-1.4589e-05,369.52,0
624,0.72857,6,0.1,0.00014364,1435.4,0.00014106,1367.5,-4.1153e-05,-1.5638,-5.7725e-05,-126.08,0.00040044
625,1.4571,6,0.1,0.00014974,1496.4,0.00015153,1549.4,-4.5446e-05,69.389,-4.9745e-05,37.085,0.0020945
626,2.1857,6,0.1,0.00013983,1397.3,0.00014037,1413.7,-4.3699e-05,30.655,-4.7446e-05,2.4968,0.0053456
627,2.9143,6,0.1,0.00012398,1238.9,0.00012407,1241.7,-4.0584e-05,4.5069,-4.1057e-05,0.95065,0.010068
628,3.6429,6,0.1,9.9005e-05,989.37,9.8159e-05,964.62,-3.2673e-05,-18.403,-3.4347e-05,-30.983,0.016095
629,4.3714,6,0.1,6.2766e-05,627.23,6.2077e-05,611.23,-1.7088e-05,16.412,-2.5133e-05,-44.039,0.023146
630,5.1,6,0.1,2.8712e-05,286.93,3.1845e-05,400.06,1.107e-06,169.1,-1.0904e-05,78.856,0.030811
631,4.3714,6,0,6.2766e-05,627.23,2.5133e-05,44.039,1.7088e-05,-16.412,-6.2077e-05,-611.23,0.023146
632,3.6429,6,0,9.9005e-05,989.37,3.4347e-05,30.983,3.2673e-05,18.403,-9.8159e-05,-964.62,0.016095
633,2.9143,6,0,0.00012398,1238.9,4.1057e-05,-0.95065,4.0584e-05,-4.5069,-0.00012407,-1241.7,0.010068
634,2.1857,6,0,0.00013983,1397.3,4.7446e-05,-2.4968,4.3699e-05,-30.655,-0.00014037,-1413.7,0.0053456
635,1.4571,6,0,0.00014974,1496.4,4.9745e-05,-37.085,4.5446e-05,-69.389,-0.00015153,-1549.4,0.0020945
636,0.72857,6,0,0.00014364,1435.4,5.7725e-05,126.08,4.1153e-05,1.5638,-0.00014106,-1367.5,0.00040044
637,5.1,6,0,2.8712e-05,286.93,1.0904e-05,-78.856,-1.107e-06,-169.1,-3.1845e-05,-400.06,0.030811
638,3.937e-14,6,0,6.7054e-05,670.08,1.4589e-05,-369.52,5.0566e-07,-475.34,-8.0797e-05,-1086.2,0
639,0.72857,3.1196e-31,0,0.00014383,1437.3,5.7863e-05,127.97,4.126e-05,3.2159,-0.00014119,-1367.7,0.00040224
640,1.4571,6.2392e-31,0,0.00015008,1499.7,4.969e-05,-35.851,4.5951e-05,-63.949,-0.00015175,-1549.4,0.0021006
641,2.1857,9.3588e-31,0,0.00013883,1387.4,4.6592e-05,-8.4005,4.3727e-05,-29.927,-0.00013947,-1406.4,0.0053581
642,2.9143,1.2478e-30,0,0.00012372,1236.3,4.1743e-05,7.0233,3.992e-05,-6.6736,-0.00012371,-1236.1,0.010079
643,3.6429,1.5598e-30,0,0.00010013,1000.6,3.5644e-05,49.21,3.3144e-05,30.42,-9.8765e-05,-960.69,0.016095
644,4.3714,1.8718e-30,0,6.0638e-05,605.96,2.0845e-05,1.3639,1.8713e-05,-14.659,-6.0848e-05,-612.45,0.023152
645,5.1,0,0,2.4229e-05,242.12,8.0953e-06,-59.484,2.1096e-06,-104.46,-2.6702e-05,-320.94,0.030823
646,0,0,0,6.6876e-05,668.3,1.4239e-05,-375.04,4.571e-07,-478.59,-8.0793e-05,-1089.1,0
647,6.016,0,0,4.4382e-05,443.52,1.7318e-05,35.898,1.3353e-05,6.1057,-4.3592e-05,-421.76,0.049936
648,6.7653,0,0,6.582e-05,657.75,2.3619e-05,33.736,2.1591e-05,18.496,-6.4919e-05,-631.5,0.065706
649,7.5147,0,0,7.105e-05,710.01,2.4734e-05,15.629,2.2693e-05,0.29716,-7.0767e-05,-701.92,0.082189
650,8.264,0,0,7.0321e-05,702.72,2.3392e-05,4.1687,2.3273e-05,3.2814,-7.0194e-05,-698.99,0.09946
651,9.0133,0,0,6.552e-05,654.75,2.1655e-05,0.18288,2.1582e-05,-0.37001,-6.5524e-05,-654.84,0.11751
652,9.7627,0,0,5.9862e-05,598.21,1.9791e-05,0.1746,1.9709e-05,-0.43751,-5.9867e-05,-598.34,0.1363
653,10.512,0,0,5.3954e-05,539.17,1.7933e-05,1.1922,1.7697e-05,-0.58189,-5.3944e-05,-538.86,0.15576
654,11.261,0,0,4.8233e-05,482,1.6171e-05,2.7646,1.574e-05,-0.47126,-4.8194e-05,-480.85,0.17581
655,12.011,0,0,4.2808e-05,427.78,1.448e-05,4.0845,1.3902e-05,-0.26417,-4.2741e-05,-425.85,0.19641
656,12.76,0,0,3.7697e-05,376.71,1.2879e-05,5.1747,1.2171e-05,-0.14632,-3.7609e-05,-374.17,0.21747
657,13.509,0,0,3.2918e-05,328.95,1.1365e-05,6.0485,1.0565e-05,0.037253,-3.281e-05,-325.87,0.23895
658,14.259,0,0,2.8479e-05,284.59,9.9532e-06,6.7775,9.0758e-06,0.18477,-2.8354e-05,-281.05,0.2608
659,15.008,0,0,2.4363e-05,243.47,8.6408e-06,7.2426,7.6814e-06,0.034231,-2.4232e-05,-239.75,0.28295
660,15.757,0,0,2.0575e-05,205.61,7.4059e-06,7.4668,6.424e-06,0.089237,-2.0436e-05,-201.73,0.30537
661,16.507,0,0,1.7147e-05,171.35,6.2931e-06,7.8133,5.2916e-06,0.28796,-1.6997e-05,-167.18,0.32801
662,17.256,0,0,1.4003e-05,139.93,5.2701e-06,7.9816,4.2414e-06,0.25222,-1.3847e-05,-135.66,0.35083
663,18.005,0,0,1.1208e-05,112,4.3552e-06,8.1147,3.3149e-06,0.29857,-1.1044e-05,-107.59,0.3738
664,18.755,0,0,8.7408e-06,87.348,3.5456e-06,8.1702,2.4923e-06,0.25632,-8.5705e-06,-82.866,0.39689
665,19.504,0,0,6.5914e-06,65.868,2.8266e-06,8.0936,1.785e-06,0.26739,-6.4142e-06,-61.338,0.42006
666,20.253,0,0,4.7817e-06,47.784,2.2203e-06,8.0364,1.1868e-06,0.27043,-4.5928e-06,-43.155,0.4433
667,21.003,0,0,3.2789e-06,32.766,1.7015e-06,7.8292,6.9405e-07,0.25979,-3.075e-06,-28.059,0.46658
668,21.752,0,0,2.1084e-06,21.07,1.2758e-06,7.5155,3.2131e-07,0.34365,-1.8811e-06,-16.204,0.48989
669,22.501,0,0,1.2272e-06,12.264,9.0322e-07,6.6474,5.6096e-08,0.28242,-9.7839e-07,-7.4903,0.51321
670,23.251,0,0,6.0246e-07,6.0204,5.5798e-07,5.1561,-8.6785e-08,0.31155,-3.3906e-07,-1.584,0.53654
671,5.2667,0,0,2.269e-05,226.75,8.3844e-06,-43.701,1.5949e-06,-94.715,-2.461e-05,-291.61,0.034642
672,24,0,0,2.6339e-07,2.6321,2.8185e-07,3.322,-1.0091e-08,1.1285,-1.0661e-07,0.40333,0.55987
673,4.5895e-14,5.25,0,9.3197e-05,931.33,2.1375e-07,-905.5,-5.0481e-07,-910.9,-0.0001241,-1839.5,0
674,3.9339e-14,4.5,0,0.0001022,1021.3,5.1031e-07,-993.45,-1.0698e-06,-1005.3,-0.00013619,-2020.6,0
675,3.2782e-14,3.75,0,0.00010716,1070.9,2.2467e-07,-1040.3,-4.6867e-07,-1045.5,-0.00014264,-2113.8,0
676,2.6226e-14,3,0,0.00010858,1085,1.8812e-09,-1054.6,-1.3719e-07,-1055.6,-0.00014448,-2140.1,0
677,1.9669e-14,2.25,0,0.00010694,1068.7,2.4233e-07,-1038.1,-4.8808e-07,-1043.6,-0.00014235,-2109.5,0
678,1.3113e-14,1.5,0,0.00010203,1019.6,5.0292e-07,-991.76,-1.0502e-06,-1003.4,-0.00013597,-2017.1,0
679,6.5564e-15,0.75,0,9.3042e-05,929.78,2.3845e-07,-903.97,-5.4438e-07,-909.85,-0.0001239,-1836.7,0
680,24,0.75,0,5.8018e-07,5.7978,5.695e-07,5.507,-1.719e-07,-0.063541,-2.292e-07,-0.49408,0.5599
681,24,1.5,0,9.758e-07,9.7512,9.4807e-07,8.9669,-3.0497e-07,-0.4479,-3.9031e-07,-1.0891,0.55992
682,24,2.25,0,1.1976e-06,11.967,1.1681e-06,11.137,-3.7026e-07,-0.42128,-4.7409e-07,-1.2014,0.55993
683,24,3,0,1.2697e-06,12.688,1.2389e-06,11.818,-3.9552e-07,-0.46221,-4.9928e-07,-1.2418,0.55992
684,24,3.75,0,1.1965e-06,11.956,1.167e-06,11.127,-3.7092e-07,-0.42837,-4.727e-07,-1.193,0.55991
685,24,4.5,0,9.7527e-07,9.746,9.4797e-07,8.9718,-3.064e-07,-0.45302,-3.8802e-07,-1.0663,0.55988
686,24,5.25,0,5.7973e-07,5.7933,5.6931e-07,5.5097,-1.7188e-07,-0.059259,-2.2847e-07,-0.4845,0.55984
687,24,6,0,2.6294e-07,2.6276,2.8124e-07,3.3146,-9.7908e-09,1.1279,-1.067e-07,0.39979,0.55979
688,23.251,6,0,6.0255e-07,6.0214,5.5779e-07,5.1588,-8.4987e-08,0.32919,-3.401e-07,-1.5876,0.53646
689,22.501,6,0,1.2185e-06,12.177,8.988e-07,6.6108,5.1494e-08,0.24447,-9.6983e-07,-7.4293,0.51314
690,21.752,6,0,2.1066e-06,21.052,1.2708e-06,7.4339,3.215e-07,0.30093,-1.8823e-06,-16.258,0.48981
691,21.003,6,0,3.2845e-06,32.822,1.7016e-06,7.8324,6.9991e-07,0.30625,-3.0806e-06,-28.099,0.4665
692,20.253,6,0,4.7714e-06,47.681,2.2119e-06,7.9753,1.187e-06,0.27447,-4.5842e-06,-43.088,0.44322
693,19.504,6,0,6.598e-06,65.934,2.8316e-06,8.1353,1.7861e-06,0.27995,-6.4196e-06,-61.375,0.41998
694,18.755,6,0,8.7395e-06,87.335,3.5407e-06,8.1231,2.4954e-06,0.26932,-8.5702e-06,-82.873,0.39681
695,18.005,6,0,1.1207e-05,112,4.3525e-06,8.0631,3.3141e-06,0.26097,-1.1045e-05,-107.63,0.37373
696,17.256,6,0,1.4005e-05,139.96,5.2707e-06,7.9749,4.2418e-06,0.24395,-1.3849e-05,-135.69,0.35076
697,16.507,6,0,1.7128e-05,171.16,6.2911e-06,7.8266,5.2785e-06,0.2183,-1.6978e-05,-167.01,0.32793
698,15.757,6,0,2.0579e-05,205.65,7.4106e-06,7.5623,6.4282e-06,0.18043,-2.0437e-05,-201.67,0.30529
699,15.008,6,0,2.4359e-05,243.42,8.631e-06,7.2019,7.6907e-06,0.13638,-2.4227e-05,-239.68,0.28287
700,14.259,6,0,2.8467e-05,284.47,9.9509e-06,6.7339,9.0654e-06,0.080912,-2.8345e-05,-281.01,0.26072
701,13.509,6,0,3.2908e-05,328.85,1.1367e-05,6.0869,1.0557e-05,0.00031933,-3.28e-05,-325.76,0.23888
702,12.76,6,0,3.7678e-05,376.52,1.2874e-05,5.2141,1.2164e-05,-0.11857,-3.7588e-05,-373.94,0.21739
703,12.011,6,0,4.2773e-05,427.44,1.4469e-05,4.0819,1.389e-05,-0.26226,-4.2706e-05,-425.51,0.19633
704,11.261,6,0,4.8189e-05,481.56,1.6144e-05,2.6197,1.5734e-05,-0.45704,-4.8152e-05,-480.47,0.17573
705,10.512,6,0,5.3904e-05,538.67,1.7917e-05,1.1343,1.7675e-05,-0.68002,-5.3897e-05,-538.44,0.15567
706,9.7627,6,0,5.9761e-05,597.2,1.9743e-05,-0.1532,1.967e-05,-0.70308,-5.9775e-05,-597.62,0.13622
707,9.0133,6,0,6.5678e-05,656.32,2.1816e-05,2.901,2.1698e-05,2.0166,-6.5594e-05,-653.86,0.11743
708,8.264,6,0,6.9592e-05,695.44,2.367e-05,7.3573,2.2446e-05,-1.8406,-6.9494e-05,-692.64,0.099369
709,7.5147,6,0,7.1344e-05,712.94,2.4481e-05,13.872,2.3226e-05,4.4493,-7.1027e-05,-703.74,0.082089
710,6.7653,6,0,6.5478e-05,654.33,2.3436e-05,35.357,2.1748e-05,22.669,-6.4482e-05,-625.23,0.065597
711,6.016,6,0,4.3353e-05,433.23,1.6566e-05,26.697,1.2877e-05,-1.0159,-4.285e-05,-419.73,0.049818
712,5.2667,6,0,2.1289e-05,212.75,8.0049e-06,-40.152,1.3019e-06,-90.516,-2.306e-05,-273.56,0.034503
713,5.1,1.6667,0,0.00023456,2343.9,0.00015833,995.89,1.4685e-05,-83.389,-0.00019958,-1693.3,0.035
714,5.1,1.3333,0,0.0001252,1251.1,7.4744e-05,390.28,1.5136e-05,-57.592,-0.00011337,-1023.1,0.034072
715,5.1,1,0,8.1051e-05,809.96,4.0229e-05,142.49,1.561e-05,-42.486,-7.7749e-05,-743.95,0.033197
716,5.1,0.66667,0,5.6199e-05,561.6,1.9711e-05,-18.4,1.4817e-05,-55.17,-5.736e-05,-597.48,0.032371
717,5.1,0.33333,0,3.4623e-05,346,1.0982e-05,-72.215,5.4032e-06,-114.13,-3.7602e-05,-437.26,0.031586
718,5.1,2,0,0.00048353,4831.9,0.00022101,536.21,9.9114e-05,-379.68,-0.0004743,-4688.1,0.035947
719,5.2667,0.33333,0,3.139e-05,313.69,1.1771e-05,-43.344,3.6131e-06,-104.64,-3.3455e-05,-383.16,0.035213
720,5.2667,0.66667,0,4.5297e-05,452.66,1.4013e-05,-50.367,1.1902e-05,-66.23,-4.726e-05,-510.75,0.035801
721,5.2667,1,0,6.6394e-05,663.49,2.8403e-05,40.358,1.4063e-05,-67.385,-6.6194e-05,-670.41,0.036423
722,5.2667,1.3333,0,0.00012076,1206.8,5.8466e-05,179.44,2.2859e-05,-88.101,-0.00011696,-1138.6,0.037094
723,5.2667,1.6667,0,0.00022074,2205.9,0.00010621,363.47,4.6765e-05,-83.152,-0.00021256,-2031.6,0.037823
724,5.2667,2,0,0.00045177,4514.6,0.00016236,-96.629,0.000117,-437.5,-0.00045989,-4772,0.038602
725,5.1,4.3333,0,0.00023362,2334.6,0.00015719,971.52,1.3448e-05,-108.48,-0.00019937,-1707.5,0.034974
726,5.1,4.6667,0,0.00012537,1252.9,7.4944e-05,382.48,1.3994e-05,-75.472,-0.0001137,-1034.9,0.034052
727,5.1,5,0,7.9387e-05,793.32,4.429e-05,205.39,1.1931e-05,-37.735,-7.3688e-05,-681.04,0.033176
728,5.1,5.3333,0,4.2057e-05,420.28,1.9084e-05,69.443,1.1166e-05,9.9571,-4.0389e-05,-377.41,0.03235
729,5.1,5.6667,0,4.3427e-05,433.97,1.4032e-05,-43.966,1.0771e-05,-68.466,-4.5288e-05,-489.67,0.031571
730,5.1,4,0,0.00047915,4788.2,0.0002058,431.36,0.00011378,-260.07,-0.00047248,-4665,0.035916
731,5.2667,5.6667,0,2.898e-05,289.6,1.057e-05,-45.97,3.3191e-06,-100.45,-3.1084e-05,-358.94,0.035083
732,5.2667,5.3333,0,4.2984e-05,429.54,1.2665e-05,-53.755,1.1831e-05,-60.021,-4.4916e-05,-486.39,0.035679
733,5.2667,5,0,6.4489e-05,644.44,2.811e-05,62.072,1.4929e-05,-36.963,-6.3488e-05,-626.15,0.03631
734,5.2667,4.6667,0,9.9069e-05,990,5.2281e-05,221.99,1.7636e-05,-38.317,-9.3342e-05,-872.16,0.03699
735,5.2667,4.3333,0,0.00020498,2048.4,0.00012532,676.92,2.2212e-05,-97.772,-0.00018382,-1645.8,0.037736
736,5.2667,4,0,0.00048448,4841.5,0.00019862,232.68,0.00011295,-411,-0.00048429,-4898.4,0.038555
737,5.1991,2.3678,0,0.00028723,2870.3,0.00013279,546.76,7.8738e-05,140.63,-0.00027337,-2505,0.038159
738,4.974,2.3326,0,0.00027872,2785.3,0.00011787,384.63,8.2635e-05,119.92,-0.0002692,-2523.6,0.034693
739,5.0917,2.2855,0.05,6.9699e-06,69.651,5.352e-06,40.213,2.1222e-12,1.3841e-05,-5.352e-06,-40.213,0.036367
740,5.0959,2.1428,0,0.00039166,3913.9,0.00017414,510.93,9.7395e-05,-65.677,-0.00038088,-3659.3,0.0362
741,5.1604,3.6903,0,0.0002925,2923,0.00013627,555.39,7.8055e-05,117.95,-0.00027858,-2561.6,0.037447
742,5.4331,3.6812,0,0.00027098,2708,0.00011512,362.95,7.8313e-05,86.373,-0.00026228,-2472.7,0.041927
743,5.3006,3.7523,0.05,1.0474e-05,104.67,8.0428e-06,60.43,1.0388e-12,8.7145e-06,-8.0428e-06,-60.43,0.039591
744,5.2836,3.8762,0,0.00039314,3928.7,0.00016621,377.56,0.00010066,-114.97,-0.00038635,-3774.2,0.039105
745,4.4141,0.51688,0,6.8318e-05,682.71,2.7925e-05,58.334,1.8561e-05,-12.022,-6.7258e-05,-656.83,0.024635
746,3.9925,0.413,0,8.4383e-05,843.25,3.0622e-05,36.725,2.6483e-05,5.629,-8.362e-05,-821.64,0.02015
747,4.3869,0.3522,0.05,6.2465e-06,62.422,4.7966e-06,36.039,-1.0174e-21,-7.6445e-15,-4.7966e-06,-36.039,0.024022
748,4.3792,0.1761,0,6.2855e-05,628.12,2.2749e-05,20.687,1.921e-05,-5.9082,-6.2561e-05,-620.3,0.023595
749,4.7435,0.34277,0,4.8338e-05,483.05,1.6074e-05,-29.202,1.3039e-05,-52.005,-4.9679e-05,-523.25,0.027771
750,4.2713,1.0153,0,9.2911e-05,928.47,3.9331e-05,110.78,2.579e-05,9.0328,-9.0454e-05,-864.37,0.024016
751,4.4956,0.83692,0,7.9401e-05,793.46,3.7532e-05,125.62,1.7631e-05,-23.9,-7.6606e-05,-731.97,0.026113
752,4.5906,1.158,0,0.00010397,1039,5.7269e-05,280.97,1.8508e-05,-10.265,-9.6253e-05,-872.54,0.027765
753,4.55,0.99227,0.05,6.0793e-06,60.751,4.6682e-06,35.075,3.0054e-13,-7.4399e-15,-4.6682e-06,-35.075,0.026994
754,4.825,0.99614,0,8.0701e-05,806.46,3.9335e-05,138.15,1.662e-05,-32.52,-7.7537e-05,-739.98,0.030076
755,5.6959,2.4606,0,0.00018281,1826.8,6.1601e-05,-9.1803,5.7319e-05,-41.351,-0.00018365,-1851.9,0.046725
756,5.7706,2.0978,0,0.00015398,1538.8,6.1248e-05,93.143,4.1242e-05,-57.175,-0.00015282,-1515.3,0.047811
757,5.985,2.4327,0,0.00014681,1467.1,4.9641e-05,-12.271,4.5293e-05,-44.938,-0.00014776,-1495.5,0.052095
758,5.7473,2.2815,0.05,7.2338e-06,72.288,5.5547e-06,41.736,1.8843e-12,1.4563e-05,-5.5547e-06,-41.736,0.047528
759,5.507,2.1407,0,0.00030868,3084.7,0.00010731,-65.708,8.6411e-05,-222.72,-0.00031329,-3225.9,0.043029
760,6.0483,0.63898,0,5.9045e-05,590.04,2.4805e-05,62.366,1.5962e-05,-4.0723,-5.7771e-05,-558.08,0.051541
761,5.9278,0.97458,0,7.0505e-05,704.57,3.2756e-05,117.18,1.7335e-05,1.3122,-6.7771e-05,-638.14,0.049545
762,6.3972,1.0101,0,7.025e-05,702.02,2.6384e-05,42.977,2.1651e-05,7.411,-6.9326e-05,-676.15,0.059178
763,6.0142,0.82615,0.05,3.9782e-06,39.754,3.0548e-06,22.952,1.8744e-13,-1.7394e-14,-3.0548e-06,-22.952,0.051086
764,5.6404,0.74641,0,5.1979e-05,519.43,1.7501e-05,-10.79,1.5567e-05,-25.321,-5.2578e-05,-537.33,0.043428
765,4.6849,4.0905,0,0.00017906,1789.4,8.0742e-05,217.99,4.0813e-05,-82.022,-0.00017485,-1702.4,0.03016
766,4.6256,3.6682,0,0.00019259,1924.6,6.7252e-05,10.567,5.8206e-05,-57.399,-0.0001933,-1947.1,0.029901
767,4.532,3.9026,0,0.00017161,1714.9,5.9608e-05,-0.077716,5.1528e-05,-60.789,-0.00017256,-1744.5,0.028483
768,4.697,3.9165,0.05,9.8236e-06,98.168,7.5433e-06,56.678,5.7091e-15,-8.3599e-07,-7.5433e-06,-56.678,0.030547
769,4.8985,3.9582,0,0.00033636,3361.3,0.00013732,218.25,8.5019e-05,-174.72,-0.00033389,-3322.3,0.033163
770,6.056,4.7905,0,7.8292e-05,782.38,3.336e-05,95.06,2.1495e-05,5.9126,-7.6192e-05,-728.07,0.052342
771,5.9122,5.0581,0,6.5892e-05,658.46,3.0694e-05,103.46,1.5438e-05,-11.166,-6.3569e-05,-604.79,0.049093
772,5.7651,4.7476,0,8.8415e-05,883.54,4.7699e-05,220.81,1.5946e-05,-17.769,-8.251e-05,-757.53,0.04659
773,5.8309,4.9048,0.05,5.6147e-06,56.109,4.3114e-06,32.394,-9.1452e-22,-6.8713e-15,-4.3114e-06,-32.394,0.047664
774,5.5488,4.9524,0,6.452e-05,644.76,2.8659e-05,75.043,1.5194e-05,-26.128,-6.3089e-05,-614.32,0.041986
775,5.4622,2.7846,0,0.00021734,2171.9,7.7701e-05,62.776,6.7282e-05,-15.507,-0.00021643,-2147.2,0.042797
776,5.4755,2.5448,0,0.00023152,2313.6,9.6571e-05,251.57,6.4544e-05,10.928,-0.00022612,-2173,0.042898
777,5.8066,2.7737,0,0.00017967,1795.5,6.2582e-05,6.1641,5.4233e-05,-56.568,-0.00018045,-1819.9,0.048886
778,5.6445,2.6397,0.05,9.0369e-06,90.307,6.9392e-06,52.139,9.1076e-13,-3.8126e-06,-6.9392e-06,-52.139,0.045899
779,4.4952,5.2888,0,7.5072e-05,750.2,3.8377e-05,165.49,1.565e-05,-5.272,-7.0873e-05,-655.37,0.025859
780,4.6613,5.0447,0,8.9534e-05,894.72,5.1993e-05,272.38,1.3388e-05,-17.686,-8.16e-05,-731.39,0.028143
781,4.6749,5.165,0.05,3.6543e-06,36.518,2.8061e-06,21.084,-5.9521e-22,-5.1358e-09,-2.8061e-06,-21.084,0.028044
782,4.8875,5.2492,0,5.6486e-05,564.47,2.9333e-05,138.71,1.2311e-05,10.815,-5.2844e-05,-478.73,0.030207
783,5.0867,3.04,0,0.00023249,2323.3,8.721e-05,123.49,7.0084e-05,-5.1882,-0.00023021,-2261.5,0.036776
784,4.7573,3.0076,0,0.00021508,2149.3,7.7054e-05,65.888,6.6648e-05,-12.3,-0.00021406,-2121.4,0.031998
785,5.0813,3.2661,0,0.00024082,2406.6,9.2881e-05,160.94,7.1197e-05,-1.9789,-0.0002377,-2322.9,0.036627
786,4.7239,3.2852,0,0.00021142,2112.8,7.3468e-05,44.235,6.7543e-05,-0.2851,-0.00021064,-2090.4,0.031472
787,4.8936,3.1504,0.05,2.1423e-06,21.408,1.645e-06,12.36,-6.075e-15,-5.8159e-08,-1.645e-06,-12.36,0.033886
788,5.4469,3.0453,0,0.00022006,2199.1,8.2634e-05,114.53,6.5958e-05,-10.768,-0.00021802,-2144.5,0.042568
789,5.4414,3.2714,0,0.00022876,2286.1,8.8643e-05,154.53,6.7053e-05,-7.6898,-0.00022583,-2208.3,0.042411
790,5.7587,3.2986,0,0.00018267,1825.4,6.2981e-05,22.732,5.7774e-05,-16.392,-0.00018253,-1821.9,0.047976
791,5.7913,3.0344,0,0.00018162,1815,6.1997e-05,16.451,5.7946e-05,-13.982,-0.00018156,-1813.6,0.04863
792,5.6139,3.1611,0.05,3.747e-06,37.444,2.8772e-06,21.618,4.2858e-13,5.3449e-06,-2.8772e-06,-21.618,0.045418
793,3.9483,5.3948,0,8.9571e-05,895.1,3.2138e-05,38.291,2.8683e-05,12.33,-8.8682e-05,-869.5,0.020031
794,4.2418,5.1523,0,8.9966e-05,899.04,3.5049e-05,73.378,2.7227e-05,14.612,-8.8325e-05,-853.6,0.023412
795,4.3155,5.4126,0.05,4.78e-06,47.767,3.6704e-06,27.578,-7.7855e-22,-5.8497e-15,-3.6704e-06,-27.578,0.023719
796,4.3435,5.7063,0,6.8772e-05,687.25,2.7565e-05,56.563,1.9472e-05,-4.2424,-6.768e-05,-659.07,0.023455
797,4.7078,5.5396,0,5.702e-05,569.8,1.9327e-05,-7.6277,1.7244e-05,-23.275,-5.7529e-05,-585.09,0.027624
798,3.9555,3.9863,0,0.0001349,1348.1,4.9492e-05,10.376,3.6852e-05,-84.601,-0.00013591,-1382.7,0.021787
799,3.622,4.054,0,0.00012317,1230.8,4.6849e-05,-5.6438,2.919e-05,-138.33,-0.00012508,-1297.5,0.018333
800,3.9718,3.7211,0,0.000143,1429,5.2214e-05,-5.0393,3.7988e-05,-111.93,-0.00014469,-1484.5,0.022132
801,3.4173,3.671,0,0.00012626,1261.8,5.1038e-05,-9.3958,2.3899e-05,-213.31,-0.00012881,-1360.7,0.016556
802,3.7101,3.8463,0.05,3.9094e-06,39.067,3.0019e-06,22.555,9.7846e-14,2.4624e-06,-3.0019e-06,-22.555,0.019318
803,5.9168,4.1973,0,0.0001248,1247.2,5.1405e-05,126.8,3.5137e-05,4.5698,-0.00012212,-1177,0.05025
804,6.0977,4.3172,0,0.00010204,1019.7,3.8766e-05,76.783,3.2019e-05,26.093,-0.0001002,-967.32,0.05369
805,6.1368,3.9694,0,0.00011725,1171.7,4.2285e-05,26.301,3.4953e-05,-28.794,-0.0001172,-1172,0.054754
806,6.4342,4.1834,0,9.9149e-05,990.8,3.6482e-05,34.851,2.9464e-05,-17.875,-9.8754e-05,-981.26,0.060587
807,6.1418,4.1571,0.05,6.3338e-06,63.294,4.8636e-06,36.543,-8.9707e-13,9.9971e-10,-4.8636e-06,-36.543,0.054696
808,5.1358,2.8094,0,0.00023897,2388.1,9.2615e-05,172.6,7.1071e-05,10.726,-0.00023544,-2292.3,0.037504
809,5.2799,2.9295,0.05,1.6085e-06,16.074,1.2351e-06,9.2802,1.3794e-13,1.1252e-06,-1.2351e-06,-9.2801,0.039799
810,4.8064,2.777,0,0.00022188,2217.3,8.3152e-05,120.21,6.7243e-05,0.67351,-0.00021958,-2154.4,0.032644
811,4.4895,2.6733,0,0.00018446,1843.3,6.2623e-05,5.9661,5.8442e-05,-25.453,-0.00018477,-1852.8,0.028389
812,4.3857,2.9419,0,0.00017928,1791.5,6.1361e-05,-0.032395,5.5411e-05,-44.737,-0.00018,-1813.5,0.02715
813,4.6211,2.8647,0.05,5.2603e-06,52.566,4.0392e-06,30.349,-1.0364e-12,-2.8563e-06,-4.0392e-06,-30.349,0.030138
814,6.0427,2.0271,0,0.00012606,1259.7,4.538e-05,44.492,3.9236e-05,-1.6688,-0.00012527,-1237.7,0.052956
815,6.3045,1.9273,0,0.00010681,1067.3,3.9243e-05,37.789,3.1862e-05,-17.665,-0.00010636,-1056.2,0.058077
816,6.2571,2.362,0,0.00012152,1214.3,4.6347e-05,33.555,3.2329e-05,-71.772,-0.00012183,-1230,0.057362
817,6.6244,2.3227,0,0.00010292,1028.5,3.9138e-05,20.165,2.6799e-05,-72.541,-0.0001035,-1051.5,0.064792
818,6.2915,2.1401,0.05,2.0228e-06,20.214,1.5533e-06,11.671,-3.3347e-13,1.2465e-06,-1.5533e-06,-11.671,0.057932
819,6.4588,0.52028,0,6.1673e-05,616.3,2.3341e-05,38.554,1.8771e-05,4.22,-6.0873e-05,-594.2,0.059891
820,6.0825,0.4518,0.05,3.507e-06,35.045,2.6929e-06,20.234,-3.1174e-21,4.0334e-08,-2.6929e-06,-20.234,0.051971
821,6.0492,0.2259,0,4.8687e-05,486.53,1.9264e-05,38.077,1.4048e-05,-1.1113,-4.7939e-05,-466.86,0.050968
822,5.6746,0.39257,0,4.047e-05,404.42,1.3488e-05,-24.099,1.0896e-05,-43.58,-4.1586e-05,-437.91,0.043559
823,4.1156,1.1957,0,0.00010756,1074.8,4.2776e-05,110.19,3.312e-05,37.634,-0.00010486,-999.09,0.02264
824,3.8813,0.91552,0,0.00010626,1061.8,3.9959e-05,84.28,3.4461e-05,42.97,-0.00010403,-997.62,0.019859
825,3.8141,1.2984,0,0.00011301,1129.3,4.1224e-05,44.489,3.4654e-05,-4.8757,-0.00011225,-1108.7,0.019677
826,3.9926,1.0383,0.05,4.4218e-06,44.187,3.3954e-06,25.512,5.5608e-13,1.7556e-06,-3.3954e-06,-25.512,0.021137
827,4.4349,1.3384,0,0.00011333,1132.5,5.6924e-05,251.9,2.5876e-05,18.618,-0.00010691,-979.06,0.026325
828,4.1874,1.5129,0,0.00012012,1200.4,4.784e-05,111.34,3.5754e-05,20.527,-0.00011762,-1131.8,0.023827
829,4.2387,1.3532,0.05,3.0085e-06,30.064,2.3101e-06,17.357,8.6991e-13,1.3958e-07,-2.3101e-06,-17.357,0.024167
830,6.1674,4.5768,0,9.2147e-05,920.83,3.5552e-05,88.527,2.9756e-05,44.973,-8.9799e-05,-853.31,0.054828
831,6.4871,4.8038,0,8.3406e-05,833.48,3.0864e-05,53.172,2.6711e-05,21.969,-8.2083e-05,-795.47,0.061158
832,6.5039,4.4429,0,8.889e-05,888.28,3.1903e-05,36.336,2.8293e-05,9.2135,-8.8084e-05,-865.2,0.061826
833,6.2811,4.6761,0.05,3.5329e-06,35.305,2.7129e-06,20.383,-2.0632e-13,3.7351e-07,-2.7129e-06,-20.383,0.057024
834,3.2192,5.3574,0,0.00011511,1150.3,3.9526e-05,10.258,3.6312e-05,-13.889,-0.00011516,-1152,0.013433
835,3.5466,5.091,0,0.00011087,1107.9,3.802e-05,14.152,3.545e-05,-5.1539,-0.0001107,-1103.3,0.016645
836,3.581,5.377,0.05,2.6842e-06,26.824,2.0612e-06,15.487,-1.5263e-14,-3.285e-15,-2.0612e-06,-15.487,0.016564
837,3.6119,5.6885,0,0.00010253,1024.6,3.4742e-05,22.457,3.4356e-05,19.557,-0.00010181,-1003.6,0.016367
838,7.1696,5.3497,0,7.1685e-05,716.36,2.5058e-05,21.606,2.3258e-05,8.0824,-7.1171e-05,-701.42,0.075199
839,6.4383,5.497,0,6.0319e-05,602.77,2.2525e-05,34.21,1.8564e-05,4.452,-5.9606e-05,-582.89,0.059341
840,6.7558,5.1758,0,7.3623e-05,735.72,2.614e-05,29.83,2.3899e-05,12.992,-7.288e-05,-714.17,0.066437
841,6.8185,5.4201,0.05,1.204e-06,12.032,9.2452e-07,6.9465,-1.961e-22,1.4524e-07,-9.2452e-07,-6.9465,0.067494
842,6.7919,5.7101,0,6.7701e-05,676.54,2.4331e-05,34.725,2.2147e-05,18.314,-6.6784e-05,-649.87,0.06657
843,3.0789,2.4143,0,0.00012601,1259.2,5.115e-05,-4.8423,2.3889e-05,-209.67,-0.0001284,-1353.9,0.013563
844,2.8176,2.8538,0,0.00012674,1266.5,5.5275e-05,6.3221,1.7587e-05,-276.85,-0.00012895,-1377.8,0.01148
845,3.4418,2.9584,0,0.00012979,1297.1,5.2633e-05,-7.5813,2.445e-05,-219.34,-0.00013235,-1397.5,0.016907
846,3.5239,2.655,0,0.00013331,1332.2,5.2781e-05,-3.3495,2.7995e-05,-189.59,-0.00013562,-1418.9,0.017667
847,3.2164,2.7185,0.05,1.3605e-06,13.595,1.0447e-06,7.8493,1.8097e-12,2.6779e-07,-1.0447e-06,-7.8493,0.014805
848,2.99,1.714,0,0.00012094,1208.5,4.7094e-05,-0.56198,2.7115e-05,-150.68,-0.00012281,-1277.1,0.01254
849,2.9626,0.97548,0,0.00012141,1213.3,4.3422e-05,2.1588,3.4479e-05,-65.037,-0.00012234,-1243.3,0.011748
850,3.4044,1.0554,0,0.00011421,1141.3,3.9747e-05,24.819,3.6466e-05,0.16615,-0.00011376,-1128.6,0.015542
851,2.6226,1.3798,0,0.00012415,1240.6,4.9975e-05,18.49,2.6639e-05,-156.85,-0.00012557,-1300.5,0.0095203
852,3.3371,1.4383,0,0.00012187,1217.8,4.4382e-05,10.347,3.3966e-05,-67.918,-0.00012266,-1244.7,0.015314
853,3.0386,1.318,0.05,2.9723e-06,29.702,2.2823e-06,17.149,-6.6253e-14,1.2101e-06,-2.2823e-06,-17.149,0.012656
854,7.3753,4.0199,0,8.0053e-05,799.98,2.973e-05,-1.936,2.045e-05,-71.667,-8.1077e-05,-834.5,0.080711
855,7.8024,3.6445,0,7.7085e-05,770.32,2.9452e-05,-0.96554,1.8273e-05,-84.959,-7.8202e-05,-809.84,0.090419
856,7.0443,3.6308,0,9.117e-05,911.07,3.5115e-05,-4.517,2.0764e-05,-112.34,-9.2678e-05,-964.71,0.073634
857,7.4918,3.1772,0,8.1044e-05,809.88,3.1239e-05,-1.363,1.8671e-05,-95.792,-8.2282e-05,-854.32,0.083511
858,7.0698,3.26,0,9.3583e-05,935.19,3.59e-05,-4.4227,2.1602e-05,-111.85,-9.5097e-05,-988.68,0.074262
859,7.3963,3.5618,0.05,1.1607e-06,11.599,8.9127e-07,6.6967,4.6677e-14,1.145e-06,-8.9127e-07,-6.6967,0.08132
860,2.5899,2.1472,0,0.00012609,1260.1,5.2895e-05,2.772,2.1335e-05,-234.35,-0.00012835,-1359,0.0096408
861,3.2667,2.0881,0,0.00012551,1254.2,4.8049e-05,-10.521,2.8706e-05,-155.85,-0.0001277,-1331,0.015095
862,2.9414,2.1101,0.05,7.8806e-07,7.8751,6.0513e-07,4.5467,-9.8711e-15,1.9514e-07,-6.0513e-07,-4.5467,0.012321
863,8.3089,1.8027,0,7.0765e-05,707.16,2.5259e-05,0.11413,2.0074e-05,-38.843,-7.1343e-05,-725.72,0.10199
864,8.2926,1.0654,0,7.0486e-05,704.37,2.4065e-05,0.036806,2.1894e-05,-16.272,-7.0748e-05,-712.35,0.10118
865,7.9312,1.3905,0,7.3526e-05,734.76,2.5841e-05,3.5956,2.1893e-05,-26.068,-7.3864e-05,-745.54,0.09299
866,8.6671,1.4399,0,6.7637e-05,675.9,2.3497e-05,-0.036317,2.0303e-05,-24.039,-6.8014e-05,-687.62,0.11033
867,8.3005,1.4296,0.05,6.9524e-07,6.9477,5.3386e-07,4.0112,-8.002e-14,-9.762e-07,-5.3386e-07,-4.0112,0.1016
868,7.9662,2.1171,0,7.4775e-05,747.23,2.7522e-05,2.2897,1.994e-05,-54.68,-7.5503e-05,-771.8,0.094131
869,8.6748,2.1973,0,6.7594e-05,675.48,2.4458e-05,0.51625,1.8628e-05,-43.291,-6.8215e-05,-695.8,0.11083
870,8.2985,2.56,0,7.1323e-05,712.73,2.6477e-05,1.5893,1.8556e-05,-57.927,-7.2094e-05,-739.04,0.10196
871,8.3174,2.1758,0.05,9.5486e-07,9.542,7.3322e-07,5.5091,-4.2465e-13,-2.3551e-07,-7.3322e-07,-5.5091,0.10232
872,0.7337,2.623,0,0.00016048,1603.7,9.2745e-05,284.2,1.7759e-06,-399.3,-0.0001511,-1548,0.00079714
873,0.72201,1.8709,0,0.00015723,1571.2,9.0458e-05,283.29,3.3272e-06,-371.38,-0.00014814,-1509.4,0.00075139
874,1.1163,2.244,0,0.00014657,1464.7,7.5839e-05,106.73,5.2296e-06,-423.8,-0.00014457,-1549.3,0.0018293
875,0.72659,2.2473,0.05,1.1321e-06,11.313,8.6931e-07,6.5317,-2.603e-14,3.9125e-06,-8.6931e-07,-6.5317,0.00076543
876,0.36329,2.2486,0,0.0001311,1310.1,4.6042e-05,-379.55,9.2161e-07,-718.57,-0.00014645,-1825.8,0.00019751
877,22.153,1.4863,0,1.9178e-06,19.165,1.3983e-06,9.7445,4.1352e-08,-0.45081,-1.544e-06,-12.363,0.50246
878,22.526,1.8673,0,1.6328e-06,16.317,1.3385e-06,10.532,-1.157e-07,-0.39478,-1.1578e-06,-8.2245,0.51405
879,22.898,1.4848,0,1.3257e-06,13.248,1.1473e-06,9.4749,-1.7581e-07,-0.46646,-8.5431e-07,-5.5644,0.52562
880,22.525,1.108,0,1.4061e-06,14.052,1.0906e-06,8.13,-3.1205e-08,-0.29909,-1.0683e-06,-8.0914,0.514
881,22.534,1.4776,0.05,7.429e-08,0.74238,5.7045e-08,0.42862,1.4144e-13,2.5632e-06,-5.7045e-08,-0.42861,0.51428
882,22.516,4.155,0,1.6348e-06,16.337,1.3377e-06,10.506,-1.1314e-07,-0.39541,-1.1622e-06,-8.2779,0.51372
883,22.143,4.5415,0,1.924e-06,19.227,1.3963e-06,9.6792,4.7343e-08,-0.45594,-1.5549e-06,-12.495,0.50208
884,22.518,4.899,0,1.4067e-06,14.057,1.0895e-06,8.1162,-2.8779e-08,-0.2863,-1.0704e-06,-8.1123,0.51374
885,22.892,4.5234,0,1.3253e-06,13.244,1.145e-06,9.4464,-1.7196e-07,-0.44869,-8.5738e-07,-5.5987,0.5254
886,22.524,4.5328,0.05,7.5275e-08,0.75223,5.7802e-08,0.4343,1.9613e-13,2.8189e-06,-5.7802e-08,-0.4343,0.51393
887,10.138,1.4302,0,5.587e-05,558.31,1.8973e-05,-0.25714,1.7502e-05,-11.313,-5.6058e-05,-564.01,0.14706
888,9.7632,1.075,0,5.9026e-05,589.85,1.993e-05,-0.35703,1.8679e-05,-9.7565,-5.9192e-05,-594.85,0.13724
889,9.3988,1.4448,0,6.1694e-05,616.52,2.1227e-05,-0.012726,1.8877e-05,-17.676,-6.1976e-05,-625.17,0.12827
890,9.7678,1.8394,0,5.8456e-05,584.16,2.0211e-05,-0.04728,1.7714e-05,-18.807,-5.8755e-05,-593.36,0.13776
891,9.7638,1.4395,0.05,6.39e-07,6.3856,4.9067e-07,3.6867,-1.0408e-22,9.9746e-07,-4.9067e-07,-3.6867,0.13747
892,10.887,1.4208,0,5.0251e-05,502.16,1.6857e-05,-0.18307,1.6101e-05,-5.8656,-5.0351e-05,-505.16,0.16673
893,10.512,1.0656,0,5.3239e-05,532.02,1.7812e-05,-0.2837,1.7131e-05,-5.4018,-5.3333e-05,-534.84,0.15661
894,10.512,1.8156,0,5.2774e-05,527.38,1.7941e-05,-0.082585,1.6515e-05,-10.798,-5.2951e-05,-532.73,0.15698
895,10.512,1.4208,0.05,6.1362e-07,6.132,4.7119e-07,3.5403,-9.9946e-23,6.9915e-07,-4.7119e-07,-3.5403,0.1568
896,11.636,1.4208,0,4.4892e-05,448.61,1.4873e-05,-0.24211,1.4693e-05,-1.5918,-4.4923e-05,-449.52,0.18697
897,11.261,1.0656,0,4.7682e-05,476.49,1.5797e-05,-0.28933,1.5603e-05,-1.7443,-4.7716e-05,-477.5,0.1766
898,11.261,1.8156,0,4.7344e-05,473.11,1.5856e-05,-0.1475,1.5216e-05,-4.9619,-4.7429e-05,-475.65,0.17694
899,11.261,1.4208,0.05,5.8328e-07,5.8288,4.4789e-07,3.3653,2.3498e-15,9.5857e-07,-4.4789e-07,-3.3653,0.17678
900,12.385,1.4208,0,3.9805e-05,397.77,1.3293e-05,1.6935,1.3024e-05,-0.32962,-3.9781e-05,-397.09,0.20772
901,12.011,1.0656,0,4.2401e-05,423.72,1.4106e-05,1.1784,1.3908e-05,-0.30605,-4.2386e-05,-423.28,0.19712
902,12.011,1.8156,0,4.2164e-05,421.35,1.3925e-05,-0.20941,1.3877e-05,-0.57384,-4.2177e-05,-421.74,0.19743
903,12.011,1.4208,0.05,5.424e-07,5.4202,4.1649e-07,3.1294,1.052e-15,1.5537e-06,-4.1649e-07,-3.1294,0.19728
904,13.135,1.4208,0,3.5008e-05,349.83,1.1916e-05,4.1219,1.1314e-05,-0.39836,-3.4942e-05,-347.95,0.22891
905,12.76,1.0656,0,3.7417e-05,373.91,1.2646e-05,3.4112,1.2154e-05,-0.28599,-3.7362e-05,-372.34,0.21811
906,12.76,1.8156,0,3.7255e-05,372.3,1.2534e-05,2.6932,1.2135e-05,-0.30024,-3.7214e-05,-371.09,0.21839
907,12.76,1.4208,0.05,5.1502e-07,5.1466,3.9547e-07,2.9714,-3.3194e-15,1.2829e-06,-3.9547e-07,-2.9714,0.21826
908,13.884,1.4208,0,3.0518e-05,304.97,1.0576e-05,5.8883,9.7526e-06,-0.29892,-3.0418e-05,-302.12,0.25049
909,13.509,1.0656,0,3.2734e-05,327.11,1.1243e-05,5.0897,1.0522e-05,-0.32603,-3.265e-05,-324.7,0.23952
910,13.509,1.8156,0,3.2631e-05,326.09,1.1201e-05,4.9819,1.0492e-05,-0.34322,-3.2549e-05,-323.74,0.23977
911,13.509,1.4208,0.05,4.9077e-07,4.9043,3.7685e-07,2.8315,6.7343e-16,1.4284e-06,-3.7685e-07,-2.8315,0.23965
912,14.633,1.4208,0,2.6318e-05,263,9.2883e-06,7.0967,8.309e-06,-0.26137,-2.6194e-05,-259.5,0.27242
913,14.259,1.0656,0,2.8365e-05,283.46,9.9003e-06,6.3152,9.0222e-06,-0.28282,-2.8257e-05,-280.38,0.2613
914,14.258,1.8336,0,2.831e-05,282.9,9.9077e-06,6.657,8.9914e-06,-0.22803,-2.8194e-05,-279.63,0.2615
915,14.259,1.4208,0.05,4.2112e-07,4.2083,3.2337e-07,2.4297,1.3926e-17,9.459e-07,-3.2337e-07,-2.4297,0.26141
916,15.38,1.4357,0,2.2432e-05,224.16,8.0961e-06,8.0682,6.959e-06,-0.47547,-2.229e-05,-220.24,0.29456
917,15.008,1.0656,0,2.4304e-05,242.87,8.6161e-06,7.0383,7.6515e-06,-0.20952,-2.418e-05,-239.38,0.28339
918,15.005,1.8459,0,2.4276e-05,242.6,8.6873e-06,7.881,7.5817e-06,-0.4262,-2.4139e-05,-238.76,0.2835
919,15.008,1.4208,0.05,3.8005e-07,3.7979,2.9183e-07,2.1927,1.1088e-13,1.0959e-06,-2.9183e-07,-2.1927,0.28349
920,16.126,1.4408,0,1.8877e-05,188.64,6.9854e-06,8.8134,5.7442e-06,-0.51236,-1.8718e-05,-184.31,0.31692
921,15.755,1.0847,0,2.0566e-05,205.52,7.452e-06,7.8356,6.3702e-06,-0.29277,-2.0425e-05,-201.62,0.30567
922,15.755,1.8305,0,2.0558e-05,205.44,7.5421e-06,8.8691,6.3023e-06,-0.44632,-2.0399e-05,-201.07,0.30584
923,15.752,1.4506,0.05,3.8269e-07,3.8243,2.9386e-07,2.208,5.6527e-14,1.7237e-06,-2.9386e-07,-2.208,0.30568
924,16.878,1.4259,0,1.5612e-05,156.01,5.9331e-06,9.1838,4.6537e-06,-0.42902,-1.544e-05,-151.41,0.33966
925,16.503,1.0707,0,1.7141e-05,171.3,6.3603e-06,8.2889,5.2131e-06,-0.33034,-1.699e-05,-167.15,0.32823
926,16.504,1.8129,0,1.7154e-05,171.42,6.4617e-06,9.4566,5.1558e-06,-0.35528,-1.6978e-05,-166.66,0.32837
927,16.5,1.4309,0.05,3.5078e-07,3.5054,2.6936e-07,2.0238,1.6772e-13,1.7489e-06,-2.6936e-07,-2.0238,0.32821
928,17.631,1.4208,0,1.2669e-05,126.6,4.9865e-06,9.5291,3.6665e-06,-0.38921,-1.2484e-05,-121.74,0.3626
929,17.256,1.0656,0,1.4033e-05,140.24,5.3501e-06,8.5289,4.1793e-06,-0.26825,-1.3872e-05,-135.9,0.3511
930,17.256,1.806,0,1.405e-05,140.4,5.4723e-06,9.8616,4.1028e-06,-0.42849,-1.3861e-05,-135.4,0.35121
931,17.256,1.4208,0.05,3.1387e-07,3.1366,2.4102e-07,1.8109,1.1021e-15,1.9554e-06,-2.4102e-07,-1.8109,0.35116
932,18.38,1.4208,0,1.0054e-05,100.47,4.1426e-06,9.7865,2.7863e-06,-0.40435,-9.8551e-06,-95.387,0.38558
933,18.005,1.0656,0,1.1251e-05,112.43,4.4522e-06,8.7942,3.2451e-06,-0.27562,-1.1079e-05,-107.9,0.37402
934,18.005,1.8057,0,1.1285e-05,112.77,4.5817e-06,10.183,3.1752e-06,-0.38458,-1.1081e-05,-107.5,0.37412
935,18.005,1.4208,0.05,2.7714e-07,2.7695,2.1281e-07,1.5989,1.1306e-13,2.0486e-06,-2.1281e-07,-1.5989,0.37407
936,19.132,1.4346,0,7.7598e-06,77.544,3.4044e-06,10.03,2.0071e-06,-0.46857,-7.5436e-06,-72.229,0.40873
937,18.755,1.0656,0,8.7871e-06,87.81,3.6447e-06,8.8831,2.4232e-06,-0.29513,-8.6049e-06,-83.156,0.39707
938,18.753,1.8372,0,8.8434e-06,88.373,3.7947e-06,10.447,2.3507e-06,-0.40217,-8.6223e-06,-82.849,0.3971
939,18.755,1.4208,0.05,2.2882e-07,2.2866,1.757e-07,1.3202,1.399e-13,1.9943e-06,-1.757e-07,-1.3202,0.3971
940,19.883,1.4471,0,5.7999e-06,57.959,2.7618e-06,10.156,1.3469e-06,-0.47457,-5.5615e-06,-52.382,0.43196
941,19.507,1.0845,0,6.6532e-06,66.486,2.9502e-06,9.0633,1.7073e-06,-0.27585,-6.4543e-06,-61.598,0.42031
942,19.5,1.8503,0,6.735e-06,67.303,3.1057e-06,10.591,1.6408e-06,-0.41542,-6.494e-06,-61.537,0.42015
943,19.508,1.4484,0.05,1.9539e-07,1.9526,1.5004e-07,1.1273,1.3984e-13,2.0082e-06,-1.5004e-07,-1.1273,0.42037
944,20.635,1.4647,0,4.1743e-06,41.715,2.2103e-06,10.097,8.0586e-07,-0.45544,-3.9089e-06,-35.88,0.45526
945,20.259,1.087,0,4.8465e-06,48.431,2.3414e-06,8.9792,1.1092e-06,-0.27918,-4.6316e-06,-43.413,0.44357
946,20.243,1.8478,0,4.9571e-06,49.536,2.5174e-06,10.658,1.0395e-06,-0.44553,-4.689e-06,-43.488,0.44316
947,20.257,1.4458,0.05,1.7191e-07,1.718,1.3201e-07,0.99187,1.3053e-13,2.44e-06,-1.3201e-07,-0.99186,0.44356
948,21.393,1.4892,0,2.8774e-06,28.754,1.7592e-06,10.005,3.6887e-07,-0.4409,-2.5686e-06,-22.512,0.4788
949,21.013,1.1116,0,3.369e-06,33.667,1.8379e-06,8.9079,6.1689e-07,-0.26603,-3.1268e-06,-28.395,0.46698
950,21.007,1.854,0,3.4936e-06,34.912,2.0213e-06,10.683,5.4498e-07,-0.40971,-3.184e-06,-28.428,0.46684
951,21.012,1.4835,0.05,1.4249e-07,1.4239,1.0941e-07,0.8221,1.4417e-13,2.4257e-06,-1.0941e-07,-0.8221,0.46697
952,21.768,1.1201,0,2.214e-06,22.124,1.4211e-06,8.6379,2.3131e-07,-0.302,-1.9322e-06,-16.558,0.49047
953,21.769,1.8743,0,2.3795e-06,23.779,1.6328e-06,10.701,1.5286e-07,-0.41943,-2.0007e-06,-16.601,0.4905
954,21.773,1.495,0.05,1.0625e-07,1.0617,8.1585e-08,0.613,1.2503e-13,2.4257e-06,-8.1585e-08,-0.613,0.49064
955,22.514,2.6383,0,1.7718e-06,17.706,1.4796e-06,11.895,-1.5064e-07,-0.35429,-1.2223e-06,-8.4066,0.51369
956,22.888,2.2542,0,1.5348e-06,15.337,1.3582e-06,11.555,-2.283e-07,-0.36491,-9.4471e-07,-5.7477,0.52532
957,22.141,2.2554,0,2.0967e-06,20.952,1.5895e-06,11.611,-4.5445e-09,-0.3661,-1.6305e-06,-12.583,0.50209
958,22.518,2.2571,0.05,7.1411e-08,0.71362,5.4835e-08,0.41201,1.7091e-13,2.6431e-06,-5.4835e-08,-0.41201,0.51382
959,22.509,3.3983,0,1.772e-06,17.708,1.4789e-06,11.875,-1.5096e-07,-0.37139,-1.2233e-06,-8.4288,0.51353
960,22.885,3.0143,0,1.6075e-06,16.064,1.4314e-06,12.255,-2.5153e-07,-0.38978,-9.7419e-07,-5.8195,0.52522
961,22.133,3.017,0,2.16e-06,21.585,1.6556e-06,12.218,-2.4382e-08,-0.40469,-1.6616e-06,-12.706,0.50183
962,22.51,3.0195,0.05,7.2167e-08,0.72117,5.5416e-08,0.41637,1.7051e-13,2.7417e-06,-5.5416e-08,-0.41637,0.51355
963,22.882,3.7693,0,1.5346e-06,15.335,1.3566e-06,11.527,-2.2704e-07,-0.37211,-9.4672e-07,-5.7795,0.52512
964,22.133,3.7853,0,2.0966e-06,20.951,1.585e-06,11.545,-1.6286e-10,-0.36539,-1.6347e-06,-12.647,0.50182
965,22.509,3.7771,0.05,7.3169e-08,0.73119,5.6185e-08,0.42215,2.0777e-13,2.7209e-06,-5.6185e-08,-0.42215,0.51351
966,21.386,4.5455,0,2.8742e-06,28.722,1.7505e-06,9.8931,3.7268e-07,-0.4592,-2.5701e-06,-22.57,0.47856
967,21.761,4.9105,0,2.2235e-06,22.22,1.4172e-06,8.5418,2.4105e-07,-0.2956,-1.9472e-06,-16.737,0.49017
968,21.76,4.1718,0,2.3831e-06,23.815,1.6264e-06,10.59,1.6072e-07,-0.42294,-2.0107e-06,-16.738,0.49019
969,21.762,4.5501,0.05,1.0627e-07,1.062,8.1603e-08,0.61314,1.8052e-13,2.5964e-06,-8.1603e-08,-0.61313,0.49024
970,20.636,4.5488,0,4.1657e-06,41.628,2.1989e-06,9.9993,8.1044e-07,-0.43279,-3.9036e-06,-35.853,0.45528
971,21.009,4.9072,0,3.3659e-06,33.636,1.832e-06,8.8333,6.1823e-07,-0.28636,-3.1264e-06,-28.422,0.46681
972,21.011,4.1569,0,3.4813e-06,34.789,2.0208e-06,10.744,5.3909e-07,-0.38951,-3.1688e-06,-28.249,0.46692
973,21.01,4.5408,0.05,1.3661e-07,1.3652,1.049e-07,0.7882,1.7752e-13,2.7791e-06,-1.049e-07,-0.7882,0.46689
974,19.886,4.5652,0,5.7915e-06,57.875,2.7418e-06,9.9608,1.3581e-06,-0.43521,-5.5589e-06,-52.407,0.43203
975,20.26,4.9177,0,4.8436e-06,48.403,2.3354e-06,8.9152,1.1117e-06,-0.27897,-4.6307e-06,-43.425,0.44358
976,20.263,4.1836,0,4.9249e-06,49.215,2.5042e-06,10.653,1.0328e-06,-0.40274,-4.6565e-06,-43.15,0.44372
977,20.262,4.5569,0.05,1.7166e-07,1.7154,1.3181e-07,0.99041,1.725e-13,2.2116e-06,-1.3181e-07,-0.9904,0.44368
978,19.133,4.5763,0,7.7552e-06,77.498,3.389e-06,9.8802,2.0168e-06,-0.42999,-7.5428e-06,-72.257,0.40872
979,19.507,4.9315,0,6.6514e-06,66.468,2.9364e-06,8.8914,1.7147e-06,-0.28806,-6.4573e-06,-61.689,0.42025
980,19.51,4.1959,0,6.7086e-06,67.04,3.0965e-06,10.583,1.6319e-06,-0.42134,-6.4676e-06,-61.278,0.42043
981,19.511,4.5734,0.05,2.0456e-07,2.0442,1.5708e-07,1.1802,1.487e-13,2.2275e-06,-1.5708e-07,-1.1802,0.42039
982,18.38,4.5792,0,1.0051e-05,100.44,4.1414e-06,9.7623,2.7838e-06,-0.43861,-9.8535e-06,-95.39,0.38554
983,18.755,4.9344,0,8.7888e-06,87.827,3.6443e-06,8.8788,2.4251e-06,-0.28147,-8.6066e-06,-83.169,0.39701
984,18.755,4.2046,0,8.8353e-06,88.292,3.7899e-06,10.438,2.3509e-06,-0.37402,-8.6143e-06,-82.763,0.39712
985,18.755,4.5792,0.05,2.3899e-07,2.3883,1.8352e-07,1.3789,1.1606e-13,2.1878e-06,-1.8352e-07,-1.3789,0.39706
986,17.631,4.5792,0,1.266e-05,126.51,4.9879e-06,9.5331,3.6566e-06,-0.46967,-1.2476e-05,-121.69,0.36256
987,18.005,4.9344,0,1.1248e-05,112.4,4.45e-06,8.7701,3.2437e-06,-0.29332,-1.1076e-05,-107.89,0.37397
988,18.005,4.2141,0,1.1285e-05,112.77,4.5821e-06,10.2,3.1758e-06,-0.36671,-1.108e-05,-107.48,0.37408
989,18.005,4.5792,0.05,2.7572e-07,2.7553,2.1172e-07,1.5908,6.6273e-14,2.1158e-06,-2.1172e-07,-1.5908,0.37403
990,16.881,4.5792,0,1.5596e-05,155.85,5.9262e-06,9.1773,4.6511e-06,-0.40317,-1.5425e-05,-151.24,0.33972
991,17.256,4.9344,0,1.4024e-05,140.14,5.349e-06,8.5323,4.1728e-06,-0.30462,-1.3863e-05,-135.82,0.35105
992,17.256,4.2143,0,1.4048e-05,140.39,5.474e-06,9.8929,4.1014e-06,-0.41969,-1.3859e-05,-135.37,0.35118
993,17.256,4.5792,0.05,3.0615e-07,3.0594,2.3509e-07,1.7664,1.1531e-13,1.9786e-06,-2.3509e-07,-1.7663,0.35112
994,16.132,4.5792,0,1.8854e-05,188.41,6.9607e-06,8.7115,5.757e-06,-0.33261,-1.8695e-05,-184.05,0.31705
995,16.507,4.9344,0,1.7132e-05,171.2,6.3466e-06,8.2061,5.2208e-06,-0.25278,-1.6981e-05,-167.07,0.32828
996,16.507,4.2149,0,1.7143e-05,171.31,6.4564e-06,9.4482,5.1542e-06,-0.33626,-1.6967e-05,-166.55,0.32844
997,16.507,4.5792,0.05,3.4239e-07,3.4216,2.6292e-07,1.9755,6.488e-14,1.888e-06,-2.6292e-07,-1.9754,0.32836
998,15.383,4.5792,0,2.2419e-05,224.03,8.0883e-06,8.0564,6.9597e-06,-0.42316,-2.2277e-05,-220.09,0.29459
999,15.757,4.9344,0,2.0555e-05,205.41,7.4411e-06,7.7712,6.3738e-06,-0.24796,-2.0416e-05,-201.53,0.30569
1000,15.758,4.2158,0,2.0538e-05,205.23,7.5335e-06,8.8512,6.2972e-06,-0.43768,-2.0379e-05,-200.87,0.30588
1001,15.757,4.5792,0.05,3.7383e-07,3.7357,2.8706e-07,2.1568,5.6527e-15,1.747e-06,-2.8706e-07,-2.1568,0.30579
1002,14.633,4.5792,0,2.6308e-05,262.9,9.2965e-06,7.1151,8.2878e-06,-0.46389,-2.6187e-05,-259.49,0.27237
1003,15.008,4.9344,0,2.4292e-05,242.75,8.6269e-06,7.1467,7.6318e-06,-0.32954,-2.4167e-05,-239.25,0.28334
1004,15.01,4.2124,0,2.4255e-05,242.38,8.6843e-06,7.9574,7.5745e-06,-0.38057,-2.4115e-05,-238.48,0.28361
1005,15.008,4.5792,0.05,4.0514e-07,4.0486,3.111e-07,2.3375,1.1958e-13,1.6512e-06,-3.111e-07,-2.3375,0.28344
1006,13.884,4.5792,0,3.0507e-05,304.86,1.0572e-05,5.8312,9.7456e-06,-0.37514,-3.041e-05,-302.09,0.25045
1007,14.259,4.9344,0,2.8358e-05,283.38,9.8961e-06,6.2743,9.0192e-06,-0.31419,-2.8251e-05,-280.35,0.26125
1008,14.261,4.2202,0,2.8298e-05,282.78,9.9093e-06,6.7097,8.9828e-06,-0.25163,-2.8182e-05,-279.49,0.26155
1009,14.259,4.5792,0.05,4.416e-07,4.4129,3.3909e-07,2.5478,6.6751e-15,1.6978e-06,-3.3909e-07,-2.5478,0.26137
1010,13.135,4.5792,0,3.4999e-05,349.75,1.1907e-05,4.1048,1.1319e-05,-0.31445,-3.4932e-05,-347.83,0.22887
1011,13.509,4.9344,0,3.2728e-05,327.05,1.1235e-05,5.0601,1.0526e-05,-0.27259,-3.2643e-05,-324.63,0.23947
1012,13.509,4.224,0,3.2628e-05,326.06,1.1206e-05,5.0697,1.0487e-05,-0.33483,-3.2544e-05,-323.66,0.23973
1013,13.509,4.5792,0.05,4.7416e-07,4.7384,3.641e-07,2.7357,1.1974e-13,1.6276e-06,-3.641e-07,-2.7357,0.23961
1014,12.385,4.5792,0,3.9785e-05,397.58,1.3288e-05,1.7386,1.3019e-05,-0.2832,-3.976e-05,-396.84,0.20768
1015,12.76,4.9344,0,3.74e-05,373.75,1.2643e-05,3.4342,1.2148e-05,-0.28082,-3.7345e-05,-372.16,0.21806
1016,12.76,4.224,0,3.7252e-05,372.26,1.254e-05,2.7842,1.2131e-05,-0.28787,-3.7208e-05,-371,0.21835
1017,12.76,4.5792,0.05,5.0708e-07,5.0673,3.8938e-07,2.9256,1.162e-13,1.4368e-06,-3.8937e-07,-2.9256,0.21822
1018,11.636,4.5792,0,4.4851e-05,448.2,1.4855e-05,-0.2381,1.4687e-05,-1.5029,-4.488e-05,-449.07,0.18693
1019,12.011,4.9344,0,4.2372e-05,423.43,1.41e-05,1.2364,1.3897e-05,-0.28769,-4.2356e-05,-422.95,0.19707
1020,12.011,4.224,0,4.2152e-05,421.23,1.3916e-05,-0.20083,1.3882e-05,-0.45669,-4.2163e-05,-421.56,0.19738
1021,12.011,4.5792,0.05,5.4138e-07,5.41,4.1571e-07,3.1235,-6.8657e-16,1.3122e-06,-4.1571e-07,-3.1235,0.19724
1022,10.887,4.5792,0,5.0185e-05,501.5,1.6823e-05,-0.32706,1.6088e-05,-5.8524,-5.0288e-05,-504.57,0.16668
1023,11.261,4.9344,0,4.7627e-05,475.94,1.5777e-05,-0.29075,1.5588e-05,-1.7109,-4.7661e-05,-476.94,0.17655
1024,11.261,4.224,0,4.7315e-05,472.82,1.5837e-05,-0.16822,1.5221e-05,-4.7908,-4.7397e-05,-475.28,0.17689
1025,11.261,4.5792,0.05,5.7386e-07,5.7346,4.4065e-07,3.3109,-2.0882e-15,8.9983e-07,-4.4065e-07,-3.3109,0.17673
1026,10.137,4.5792,0,5.5811e-05,557.72,1.8989e-05,-0.07903,1.7437e-05,-11.742,-5.6003e-05,-563.54,0.147
1027,10.512,4.9344,0,5.3163e-05,531.27,1.7788e-05,-0.43279,1.7091e-05,-5.6684,-5.3265e-05,-534.3,0.15656
1028,10.51,4.2202,0,5.2738e-05,527.01,1.7916e-05,-0.28815,1.6505e-05,-10.895,-5.292e-05,-532.52,0.15688
1029,10.512,4.5792,0.05,6.1308e-07,6.1265,4.7077e-07,3.5372,-4.5275e-15,5.1939e-07,-4.7077e-07,-3.5371,0.15676
1030,9.3674,4.5634,0,6.1836e-05,617.93,2.1328e-05,-0.79624,1.8757e-05,-20.114,-6.2169e-05,-628.16,0.12744
1031,9.759,4.9312,0,5.9027e-05,589.86,1.9991e-05,0.029787,1.8612e-05,-10.327,-5.9195e-05,-594.94,0.13708
1032,9.7551,4.2076,0,5.8486e-05,584.45,2.0257e-05,-0.039635,1.766e-05,-19.552,-5.8795e-05,-594,0.13738
1033,9.7627,4.5792,0.05,6.5222e-07,6.5177,5.0082e-07,3.763,-2.8787e-14,3.5671e-07,-5.0082e-07,-3.763,0.13738
1034,8.9797,4.9061,0,6.5087e-05,650.42,2.2122e-05,-1.9682,2.0203e-05,-16.391,-6.5388e-05,-659.48,0.11764
1035,8.5732,4.511,0,6.8629e-05,685.82,2.4296e-05,1.198,1.9925e-05,-31.639,-6.9088e-05,-700.45,0.10805
1036,8.978,4.1686,0,6.4788e-05,647.43,2.2899e-05,-1.0661,1.8668e-05,-32.854,-6.5306e-05,-663.81,0.11802
1037,8.9721,4.5476,0.05,7.248e-07,7.243,5.5656e-07,4.1818,-2.5642e-14,1.797e-07,-5.5656e-07,-4.1818,0.11768
1038,5.1446,3.505,0,0.00026208,2618.9,0.00011411,362.49,7.1726e-05,44.015,-0.0002537,-2401.1,0.037424
1039,4.7872,3.5241,0,0.0002338,2336.3,9.6092e-05,256.24,6.7994e-05,45.121,-0.00022795,-2178.5,0.032186
1040,5.0203,3.6284,0.05,1.7943e-05,179.31,1.3778e-05,103.52,-2.9225e-21,-5.0444e-06,-1.3778e-05,-103.52,0.035395
1041,5.0601,3.8142,0,0.00036932,3690.7,0.00016091,424.49,9.244e-05,-89.98,-0.00036093,-3496.4,0.035718
1042,5.1491,2.5697,0,0.00025195,2517.8,0.00011106,358.16,6.7373e-05,29.948,-0.00024374,-2307.6,0.037579
1043,5.3065,2.45,0.05,8.1603e-06,81.547,6.2661e-06,47.081,-4.0237e-13,8.7796e-06,-6.2661e-06,-47.081,0.039977
1044,5.2866,2.225,0,0.00034934,3491,0.00013475,138.45,9.4221e-05,-166.04,-0.00034881,-3494.8,0.039363
1045,22.886,5.2621,0,1.0392e-06,10.385,8.3436e-07,6.4809,-4.675e-08,-0.13942,-7.5856e-07,-5.4877,0.52515
1046,23.26,4.8865,0,9.4283e-07,9.4218,8.6518e-07,7.6259,-1.8958e-07,-0.29916,-5.2129e-07,-2.7915,0.53682
1047,23.258,5.259,0.05,5.6903e-08,0.56864,4.3695e-08,0.32831,2.2696e-13,3.3157e-06,-4.3695e-08,-0.3283,0.53675
1048,23.629,5.2545,0,6.6959e-07,6.6913,6.292e-07,5.7401,-1.4766e-07,-0.096976,-3.427e-07,-1.5625,0.54829
1049,23.255,5.6295,0,6.6662e-07,6.6616,6.0867e-07,5.4536,-1.0369e-07,0.10117,-3.8427e-07,-2.007,0.53661
1050,22.136,5.268,0,1.7326e-06,17.314,1.14e-06,7.2001,1.6453e-07,-0.12895,-1.4917e-06,-12.573,0.50182
1051,22.513,5.2652,0.05,7.6535e-08,0.76482,5.8769e-08,0.44157,2.2199e-13,2.9633e-06,-5.8769e-08,-0.44157,0.51355
1052,22.507,5.6326,0,1.2394e-06,12.385,9.1257e-07,6.6009,4.0996e-08,0.052249,-9.8864e-07,-7.684,0.51334
1053,21.383,5.2722,0,2.7449e-06,27.43,1.5269e-06,7.6934,4.862e-07,-0.12576,-2.5312e-06,-22.797,0.47841
1054,21.759,5.2709,0.05,1.0678e-07,1.0671,8.1994e-08,0.61607,1.7974e-13,2.9377e-06,-8.1994e-08,-0.61607,0.4901
1055,21.756,5.6354,0,2.1176e-06,21.161,1.277e-06,7.3568,3.1135e-07,0.10142,-1.8952e-06,-16.478,0.48996
1056,20.633,5.276,0,4.0735e-06,40.707,1.9952e-06,7.9499,9.191e-07,-0.13548,-3.8798e-06,-36.193,0.4551
1057,21.007,5.2735,0.05,1.3501e-07,1.3491,1.0367e-07,0.77893,1.8641e-13,3.1048e-06,-1.0367e-07,-0.77893,0.46672
1058,21.005,5.6368,0,3.2909e-06,32.886,1.7069e-06,7.7503,6.8708e-07,0.087888,-3.0898e-06,-28.29,0.46662
1059,19.881,5.284,0,5.7323e-06,57.283,2.5553e-06,8.0357,1.4679e-06,-0.13466,-5.554e-06,-52.894,0.43178
1060,20.258,5.2784,0.05,1.6745e-07,1.6733,1.2858e-07,0.96611,1.7652e-13,2.9684e-06,-1.2858e-07,-0.96611,0.44347
1061,20.256,5.6392,0,4.782e-06,47.787,2.2189e-06,7.9067,1.177e-06,0.078599,-4.5978e-06,-43.311,0.44335
1062,19.129,5.2896,0,7.7134e-06,77.081,3.2164e-06,8.076,2.1226e-06,-0.14219,-7.5455e-06,-72.784,0.40852
1063,19.504,5.2896,0.05,1.9881e-07,1.9868,1.5266e-07,1.1471,1.1921e-13,2.4461e-06,-1.5266e-07,-1.1471,0.4201
1064,19.504,5.6448,0,6.6084e-06,66.038,2.8337e-06,8.0004,1.779e-06,0.075736,-6.4352e-06,-61.642,0.42005
1065,18.38,5.2896,0,1.0013e-05,100.06,3.9769e-06,8.0676,2.8848e-06,-0.13833,-9.8528e-06,-95.844,0.38541
1066,18.755,5.2896,0.05,2.3219e-07,2.3203,1.783e-07,1.3397,1.5213e-13,2.5939e-06,-1.783e-07,-1.3396,0.39695
1067,18.755,5.6448,0,8.7482e-06,87.422,3.5455e-06,8.0292,2.4858e-06,0.067553,-8.5832e-06,-83.101,0.39689
1068,17.631,5.2896,0,1.2638e-05,126.29,4.8345e-06,7.9452,3.7598e-06,-0.12991,-1.2486e-05,-122.19,0.36241
1069,18.005,5.2896,0.05,2.6426e-07,2.6408,2.0292e-07,1.5247,2.1184e-13,2.7331e-06,-2.0292e-07,-1.5247,0.3739
1070,18.005,5.6448,0,1.1214e-05,112.06,4.3555e-06,7.9627,3.305e-06,0.069514,-1.1056e-05,-107.84,0.37382
1071,16.881,5.2896,0,1.5587e-05,155.76,5.7929e-06,7.7373,4.7423e-06,-0.15663,-1.5443e-05,-151.82,0.33955
1072,17.256,5.2896,0.05,2.9398e-07,2.9377,2.2574e-07,1.6961,1.2388e-13,2.5771e-06,-2.2574e-07,-1.6961,0.35096
1073,17.256,5.6448,0,1.4007e-05,139.97,5.2682e-06,7.8338,4.2341e-06,0.063477,-1.3856e-05,-135.86,0.35086
1074,16.132,5.2896,0,1.886e-05,188.47,6.8499e-06,7.4379,5.8372e-06,-0.17093,-1.8725e-05,-184.72,0.31685
1075,16.507,5.2896,0.05,3.2705e-07,3.2682,2.5113e-07,1.8869,1.1558e-13,2.1394e-06,-2.5113e-07,-1.8869,0.32817
1076,16.507,5.6448,0,1.7123e-05,171.11,6.2835e-06,7.6389,5.2696e-06,0.020851,-1.698e-05,-167.15,0.32806
1077,15.383,5.2896,0,2.2454e-05,224.38,8.0018e-06,7.0281,7.0457e-06,-0.15535,-2.2328e-05,-220.86,0.29436
1078,15.757,5.2896,0.05,3.6084e-07,3.6059,2.7708e-07,2.0819,1.8462e-13,2.1222e-06,-2.7708e-07,-2.0819,0.30557
1079,15.757,5.6448,0,2.0567e-05,205.53,7.3956e-06,7.3306,6.4222e-06,0.017483,-2.0432e-05,-201.76,0.30544
1080,14.633,5.2896,0,2.6366e-05,263.48,9.2481e-06,6.4687,8.3632e-06,-0.18023,-2.6253e-05,-260.27,0.27211
1081,15.008,5.2896,0.05,3.9113e-07,3.9086,3.0034e-07,2.2566,2.3047e-13,2.0133e-06,-3.0034e-07,-2.2566,0.2832
1082,15.008,5.6448,0,2.4333e-05,243.16,8.6057e-06,6.9193,7.6843e-06,-0.004096,-2.4208e-05,-239.63,0.28305
1083,13.884,5.2896,0,3.0601e-05,305.8,1.058e-05,5.6566,9.7992e-06,-0.21209,-3.0505e-05,-303.04,0.25016
1084,14.259,5.2896,0.05,4.261e-07,4.258,3.2719e-07,2.4584,9.82e-15,1.8833e-06,-3.2719e-07,-2.4584,0.26109
1085,14.259,5.6448,0,2.8424e-05,284.04,9.9124e-06,6.3605,9.0582e-06,-0.058056,-2.8311e-05,-280.84,0.26092
1086,13.135,5.2896,0,3.5151e-05,351.27,1.199e-05,4.533,1.1355e-05,-0.2387,-3.5076e-05,-349.1,0.22854
1087,13.509,5.2896,0.05,4.5823e-07,4.5791,3.5186e-07,2.6438,1.1345e-13,1.6654e-06,-3.5186e-07,-2.6438,0.2393
1088,13.509,5.6448,0,3.2843e-05,328.21,1.1306e-05,5.5553,1.0553e-05,-0.1061,-3.2747e-05,-325.44,0.2391
1089,12.385,5.2896,0,4.0007e-05,399.8,1.3472e-05,3.062,1.3027e-05,-0.28218,-3.9959e-05,-398.4,0.20731
1090,12.76,5.2896,0.05,4.9112e-07,4.9078,3.7712e-07,2.8335,2.7387e-15,1.6794e-06,-3.7712e-07,-2.8335,0.21786
1091,12.76,5.6448,0,3.7579e-05,375.53,1.2785e-05,4.4848,1.2163e-05,-0.18758,-3.7504e-05,-373.36,0.21765
1092,11.636,5.2896,0,4.5166e-05,451.35,1.5017e-05,1.1439,1.482e-05,-0.33687,-4.5152e-05,-450.95,0.18652
1093,12.011,5.2896,0.05,5.252e-07,5.2484,4.0329e-07,3.0301,1.7561e-18,1.3113e-06,-4.0329e-07,-3.0301,0.19685
1094,12.011,5.6448,0,4.2633e-05,426.04,1.4341e-05,3.0923,1.3892e-05,-0.28565,-4.2584e-05,-424.62,0.19661
1095,10.887,5.2896,0,5.0621e-05,505.86,1.6742e-05,-0.4006,1.6606e-05,-1.4204,-5.0652e-05,-506.77,0.16624
1096,11.261,5.2896,0.05,5.6021e-07,5.5982,4.3017e-07,3.2321,1.3066e-14,8.3335e-07,-4.3017e-07,-3.2321,0.17631
1097,11.261,5.6448,0,4.7995e-05,479.62,1.5967e-05,1.287,1.5739e-05,-0.42242,-4.798e-05,-479.19,0.17604
1098,10.134,5.2864,0,5.6396e-05,563.57,1.8789e-05,-0.32345,1.8279e-05,-4.1585,-5.6471e-05,-565.8,0.14643
1099,10.512,5.2896,0.05,5.9984e-07,5.9943,4.606e-07,3.4608,-9.7701e-23,1.0524e-06,-4.606e-07,-3.4608,0.1563
1100,10.512,5.6448,0,5.3654e-05,536.17,1.7716e-05,-0.47959,1.7645e-05,-1.0171,-5.368e-05,-536.92,0.15601
1101,9.3714,5.2739,0,6.23e-05,622.57,2.0785e-05,-1.1406,2.0071e-05,-6.5033,-6.2428e-05,-626.37,0.12704
1102,9.7554,5.2832,0.05,6.4078e-07,6.4034,4.9204e-07,3.697,-6.1815e-15,8.8337e-07,-4.9204e-07,-3.697,0.13671
1103,9.759,5.6416,0,5.9556e-05,595.15,1.9758e-05,-0.44399,1.9436e-05,-2.8581,-5.9612e-05,-596.79,0.13649
1104,8.6076,5.2537,0,6.7994e-05,679.47,2.2766e-05,0.27968,2.1908e-05,-6.1677,-6.8092e-05,-682.39,0.10834
1105,8.9873,5.2647,0.05,4.2766e-07,4.2737,3.2839e-07,2.4674,-6.9657e-23,4.6611e-07,-3.2839e-07,-2.4674,0.11753
1106,9.0003,5.6323,0,6.5442e-05,653.97,2.1722e-05,0.037986,2.1386e-05,-2.4833,-6.5483e-05,-655.19,0.11751
1107,7.8742,5.261,0,7.2088e-05,720.38,2.4115e-05,4.126,2.3616e-05,0.38113,-7.2011e-05,-718.12,0.091108
1108,8.201,4.8585,0,7.1509e-05,714.59,2.4943e-05,3.4713,2.1617e-05,-21.515,-7.1783e-05,-723.29,0.099021
1109,8.2278,5.2427,0.05,5.0119e-07,5.0085,3.8486e-07,2.8917,-5.156e-14,3.1312e-07,-3.8486e-07,-2.8917,0.099326
1110,8.2459,5.6213,0,7.0162e-05,701.14,2.3276e-05,1.5271,2.3087e-05,0.11086,-7.0134e-05,-700.32,0.099384
1111,7.4374,4.8787,0,7.5986e-05,759.34,2.5915e-05,1.7065,2.3804e-05,-14.154,-7.6186e-05,-765.44,0.081564
1112,7.5206,5.2793,0.05,5.6616e-07,5.6577,4.3474e-07,3.2665,-9.2215e-23,-1.3743e-07,-4.3474e-07,-3.2665,0.083055
1113,7.5177,5.6396,0,7.2423e-05,723.73,2.4622e-05,11.016,2.3686e-05,3.9877,-7.2165e-05,-716.21,0.082608
1114,6.0258,5.3926,0,5.6365e-05,563.26,2.3609e-05,58.639,1.528e-05,-3.9467,-5.5173e-05,-533.3,0.050933
1115,6.0581,5.5738,0.05,3.895e-06,38.924,2.9909e-06,22.473,-6.3442e-22,-4.7668e-15,-2.9909e-06,-22.473,0.051326
1116,6.0371,5.7869,0,4.7415e-05,473.82,1.8478e-05,32.637,1.3767e-05,-2.761,-4.6807e-05,-457.89,0.050585
1117,5.6624,5.6202,0,3.8707e-05,386.8,1.2908e-05,-23.022,1.041e-05,-41.791,-3.9775e-05,-418.86,0.043176
1118,6.3433,5.0715,0,6.7808e-05,677.61,2.5748e-05,43.166,2.0562e-05,4.1984,-6.6918e-05,-653.09,0.057884
1119,5.9934,5.2114,0.05,4.5511e-06,45.48,3.4947e-06,26.258,-3.2554e-13,-1.3654e-06,-3.4947e-06,-26.258,0.050516
1120,5.63,5.2724,0,4.8962e-05,489.29,1.6698e-05,-10.431,1.4269e-05,-28.681,-4.9602e-05,-508.59,0.043083
1121,5.6955,4.414,0,0.00012425,1241.6,6.3812e-05,273.93,2.5296e-05,-15.467,-0.00011729,-1086.8,0.045709
1122,5.8764,4.534,0,9.7706e-05,976.39,4.6659e-05,189.99,2.433e-05,22.22,-9.3008e-05,-859.41,0.049074
1123,5.6992,4.5905,0.05,7.4182e-06,74.131,5.6963e-06,42.799,-1.2083e-21,-1.6302e-06,-5.6963e-06,-42.799,0.045514
1124,5.4829,4.6286,0,9.7593e-05,975.25,5.2118e-05,234.32,1.7728e-05,-24.069,-9.1412e-05,-844.11,0.041257
1125,5.6909,4.0775,0,0.00015674,1566.3,6.352e-05,112.8,4.1553e-05,-52.257,-0.00015505,-1529.5,0.046069
1126,5.6918,4.2375,0.05,8.3539e-06,83.482,6.4148e-06,48.198,-5.1471e-13,-7.5095e-07,-6.4148e-06,-48.198,0.045867
1127,5.4792,4.2854,0,0.00016344,1633.3,8.9014e-05,402.81,2.7107e-05,-62.333,-0.0001526,-1412.6,0.041803
1128,5.6279,3.7638,0,0.00019614,1960.1,6.7405e-05,15.089,6.1558e-05,-28.843,-0.00019634,-1966.6,0.045266
1129,5.9109,3.8496,0,0.00014673,1466.3,4.9393e-05,-25.33,4.4437e-05,-62.568,-0.00014819,-1509.9,0.050458
1130,5.69,3.9175,0.05,8.2934e-06,82.876,6.3683e-06,47.849,4.7618e-14,-4.5721e-06,-6.3683e-06,-47.849,0.046228
1131,5.4783,3.9587,0,0.00032689,3266.6,0.00012597,85.897,8.4186e-05,-228.08,-0.00032817,-3326.4,0.042329
1132,23.261,1.1175,0,9.4501e-07,9.4435,8.6754e-07,7.6517,-1.9025e-07,-0.29613,-5.2188e-07,-2.7878,0.53692
1133,22.888,0.74078,0,1.042e-06,10.413,8.3637e-07,6.4984,-4.6046e-08,-0.13176,-7.6095e-07,-5.5033,0.52529
1134,23.26,0.74316,0.05,5.7287e-08,0.57248,4.399e-08,0.33052,1.5624e-13,2.6863e-06,-4.399e-08,-0.33052,0.53686
1135,23.255,0.37158,0,6.6695e-07,6.6649,6.091e-07,5.4568,-1.0426e-07,0.096923,-3.8412e-07,-2.0058,0.5367
1136,23.63,0.74658,0,6.7003e-07,6.6957,6.2951e-07,5.7424,-1.4739e-07,-0.094928,-3.4327e-07,-1.5667,0.54838
1137,23.26,1.8717,0,1.2352e-06,12.343,1.1562e-06,10.418,-2.8784e-07,-0.4322,-6.3109e-07,-3.0113,0.5369
1138,23.263,1.4919,0.05,5.1911e-08,0.51876,3.9862e-08,0.29951,2.3949e-13,3.5048e-06,-3.9862e-08,-0.2995,0.53697
1139,23.631,1.496,0,1.0491e-06,10.483,9.9819e-07,9.1566,-2.8205e-07,-0.46256,-4.8898e-07,-2.0174,0.54844
1140,23.259,2.6303,0,1.3824e-06,13.815,1.3026e-06,11.861,-3.2862e-07,-0.39605,-6.8974e-07,-3.1094,0.53686
1141,23.257,2.2514,0.05,4.4622e-08,0.44591,3.4264e-08,0.25745,2.1511e-13,3.3553e-06,-3.4264e-08,-0.25744,0.53681
1142,23.629,2.2507,0,1.2703e-06,12.694,1.2179e-06,11.326,-3.4438e-07,-0.41153,-5.751e-07,-2.1451,0.54837
1143,23.258,3.3853,0,1.3818e-06,13.808,1.3017e-06,11.851,-3.2704e-07,-0.38623,-6.9067e-07,-3.1184,0.53682
1144,23.26,3.0091,0.05,4.272e-08,0.42691,3.2804e-08,0.24648,1.9898e-13,3.3381e-06,-3.2804e-08,-0.24647,0.5369
1145,23.63,3.0046,0,1.3439e-06,13.43,1.2905e-06,12.028,-3.6821e-07,-0.43435,-6.0246e-07,-2.1944,0.54841
1146,23.258,4.1378,0,1.2329e-06,12.321,1.1535e-06,10.389,-2.8536e-07,-0.42166,-6.319e-07,-3.0254,0.53681
1147,23.256,3.7615,0.05,4.4735e-08,0.44704,3.4351e-08,0.2581,2.1995e-13,3.279e-06,-3.4351e-08,-0.2581,0.53674
1148,23.628,3.7558,0,1.269e-06,12.681,1.2164e-06,11.313,-3.4309e-07,-0.40497,-5.7539e-07,-2.1504,0.54832
1149,23.261,4.514,0.05,5.0693e-08,0.50658,3.8926e-08,0.29248,2.2081e-13,3.493e-06,-3.8926e-08,-0.29247,0.53688
1150,23.631,4.507,0,1.0467e-06,10.46,9.9603e-07,9.1372,-2.8187e-07,-0.46443,-4.8743e-07,-2.0089,0.54838
1151,7.1948,0.62863,0,7.2056e-05,720.07,2.5046e-05,21.849,2.3633e-05,11.238,-7.1488e-05,-703.46,0.075813
1152,6.8077,0.89141,0,7.4753e-05,747.01,2.6419e-05,30.423,2.4488e-05,15.916,-7.3954e-05,-723.74,0.067695
1153,6.8351,0.58876,0.05,1.0114e-06,10.107,7.766e-07,5.8351,3.2674e-14,6.1504e-07,-7.766e-07,-5.8351,0.067951
1154,6.8002,0.29438,0,6.8315e-05,682.68,2.4712e-05,36.547,2.2211e-05,17.753,-6.7372e-05,-655.34,0.066854
1155,7.9196,0.68481,0,7.1969e-05,719.19,2.4077e-05,3.6851,2.3534e-05,-0.39047,-7.1912e-05,-717.54,0.092177
1156,7.5582,1.0099,0,7.5e-05,749.49,2.5825e-05,7.0363,2.3567e-05,-9.9254,-7.5035e-05,-750.79,0.084241
1157,7.5545,0.6685,0.05,3.2239e-07,3.2217,2.4756e-07,1.86,-8.0298e-14,-9.5598e-07,-2.4756e-07,-1.86,0.083843
1158,7.5346,0.33425,0,7.2309e-05,722.59,2.4545e-05,10.248,2.3644e-05,3.4817,-7.2073e-05,-715.7,0.083048
1159,8.649,0.70576,0,6.7783e-05,677.37,2.2681e-05,0.16072,2.1854e-05,-6.0491,-6.7881e-05,-680.29,0.10937
1160,8.2847,0.70111,0.05,4.0232e-07,4.0205,3.0894e-07,2.3212,-2.7115e-13,1.2698e-07,-3.0893e-07,-2.3212,0.10069
1161,8.2744,0.35055,0,7.0339e-05,702.9,2.3405e-05,1.9103,2.3061e-05,-0.67519,-7.0317e-05,-702.28,0.10011
1162,9.388,0.71041,0,6.226e-05,622.17,2.0814e-05,-0.2699,2.0066e-05,-5.8899,-6.2363e-05,-625.23,0.12751
1163,9.0236,1.0802,0,6.4907e-05,648.63,2.2111e-05,0.068309,2.025e-05,-13.916,-6.5132e-05,-655.44,0.11876
1164,9.0133,0.71041,0.05,5.8398e-07,5.8358,4.4842e-07,3.3693,-1.1013e-14,9.8402e-07,-4.4842e-07,-3.3693,0.11822
1165,9.0133,0.3552,0,6.5349e-05,653.04,2.1706e-05,-0.2741,2.1301e-05,-3.3184,-6.5409e-05,-654.83,0.1179
1166,10.137,0.71041,0,5.6412e-05,563.73,1.8769e-05,-0.37939,1.8321e-05,-3.7469,-5.6481e-05,-565.78,0.14659
1167,9.7627,0.71041,0.05,6.0449e-07,6.0407,4.6417e-07,3.4876,9.8855e-16,6.4291e-07,-4.6417e-07,-3.4876,0.13696
1168,9.7627,0.3552,0,5.9585e-05,595.43,1.9757e-05,-0.37126,1.947e-05,-2.5317,-5.9634e-05,-596.88,0.13666
1169,10.887,0.71041,0,5.0687e-05,506.52,1.6752e-05,-0.39333,1.6648e-05,-1.1677,-5.0713e-05,-507.3,0.1663
1170,10.512,0.71041,0.05,6.045e-07,6.0408,4.6418e-07,3.4877,3.3627e-15,9.4662e-07,-4.6418e-07,-3.4877,0.15636
1171,10.512,0.3552,0,5.3718e-05,536.8,1.7733e-05,-0.38772,1.7681e-05,-0.77703,-5.3737e-05,-537.39,0.15609
1172,11.636,0.71041,0,4.5209e-05,451.78,1.5032e-05,1.1419,1.4833e-05,-0.34834,-4.5196e-05,-451.38,0.18658
1173,11.261,0.71041,0.05,5.6498e-07,5.6459,4.3384e-07,3.2597,-2.2591e-13,1.0764e-06,-4.3383e-07,-3.2597,0.17637
1174,11.261,0.3552,0,4.8044e-05,480.11,1.5991e-05,1.3725,1.575e-05,-0.43795,-4.8028e-05,-479.64,0.17611
1175,12.385,0.71041,0,4.0033e-05,400.06,1.3476e-05,3.0266,1.3039e-05,-0.25914,-3.9985e-05,-398.66,0.20737
1176,12.011,0.71041,0.05,5.2588e-07,5.2552,4.0381e-07,3.0341,-1.1368e-13,1.4328e-06,-4.0381e-07,-3.0341,0.19691
1177,12.011,0.3552,0,4.2666e-05,426.37,1.4351e-05,3.0763,1.3903e-05,-0.28882,-4.2618e-05,-424.96,0.19668
1178,13.135,0.71041,0,3.5164e-05,351.4,1.1992e-05,4.5189,1.1362e-05,-0.21313,-3.5089e-05,-349.22,0.2286
1179,12.76,0.71041,0.05,4.8881e-07,4.8847,3.7535e-07,2.8202,5.245e-16,1.6604e-06,-3.7535e-07,-2.8202,0.21792
1180,12.76,0.3552,0,3.7599e-05,375.73,1.2787e-05,4.4448,1.2172e-05,-0.17561,-3.7525e-05,-373.58,0.21772
1181,13.884,0.71041,0,3.0604e-05,305.83,1.0587e-05,5.6706,9.7908e-06,-0.31373,-3.0509e-05,-303.11,0.25022
1182,13.509,0.71041,0.05,4.5986e-07,4.5955,3.5312e-07,2.6532,-7.4902e-23,1.5299e-06,-3.5312e-07,-2.6532,0.23936
1183,13.509,0.3552,0,3.2851e-05,328.29,1.1308e-05,5.544,1.0558e-05,-0.090567,-3.2755e-05,-325.52,0.23917
1184,14.633,0.71041,0,2.6378e-05,263.59,9.2522e-06,6.4373,8.3638e-06,-0.23721,-2.6266e-05,-260.43,0.27217
1185,14.259,0.71041,0.05,4.3625e-07,4.3595,3.3499e-07,2.517,-1.1241e-13,1.6213e-06,-3.3499e-07,-2.517,0.26115
1186,14.259,0.3552,0,2.843e-05,284.1,9.9202e-06,6.3986,9.0535e-06,-0.11297,-2.8317e-05,-280.9,0.26099
1187,15.383,0.71457,0,2.2464e-05,224.49,7.9952e-06,6.9802,7.0624e-06,-0.028979,-2.2338e-05,-220.93,0.29442
1188,15.008,0.71041,0.05,3.9167e-07,3.914,3.0076e-07,2.2598,1.1533e-13,1.5093e-06,-3.0076e-07,-2.2598,0.28326
1189,15.008,0.3552,0,2.4347e-05,243.3,8.6087e-06,6.8964,7.6897e-06,-0.0089084,-2.4222e-05,-239.78,0.28312
1190,16.132,0.71457,0,1.8856e-05,188.43,6.8492e-06,7.4792,5.839e-06,-0.11149,-1.8719e-05,-184.63,0.31691
1191,15.757,0.71874,0.05,3.5747e-07,3.5722,2.7449e-07,2.0624,1.708e-13,2.0443e-06,-2.7449e-07,-2.0624,0.30563
1192,15.757,0.35937,0,2.0563e-05,205.49,7.3871e-06,7.2674,6.4278e-06,0.059741,-2.0429e-05,-201.73,0.30551
1193,16.881,0.71041,0,1.559e-05,155.8,5.8011e-06,7.8128,4.7385e-06,-0.17114,-1.5445e-05,-151.82,0.33961
1194,16.507,0.71041,0.05,3.1975e-07,3.1953,2.4553e-07,1.8448,5.2288e-14,2.1213e-06,-2.4553e-07,-1.8448,0.32823
1195,16.507,0.3552,0,1.713e-05,171.19,6.2892e-06,7.6835,5.2709e-06,0.032224,-1.6986e-05,-167.2,0.32813
1196,17.631,0.71041,0,1.2642e-05,126.34,4.8392e-06,7.9695,3.7575e-06,-0.15771,-1.249e-05,-122.23,0.36247
1197,17.256,0.71041,0.05,2.9485e-07,2.9465,2.2641e-07,1.7012,4.7914e-14,2.368e-06,-2.2641e-07,-1.7012,0.35102
1198,17.256,0.3552,0,1.4011e-05,140.01,5.2713e-06,7.8601,4.2353e-06,0.075701,-1.386e-05,-135.88,0.35093
1199,18.38,0.71041,0,1.0013e-05,100.06,3.9791e-06,8.0775,2.8814e-06,-0.17074,-9.8526e-06,-95.849,0.38547
1200,18.005,0.71041,0.05,2.6838e-07,2.682,2.0609e-07,1.5484,1.3071e-13,2.1041e-06,-2.0609e-07,-1.5484,0.37395
1201,18.005,0.3552,0,1.1213e-05,112.05,4.3586e-06,7.9931,3.3014e-06,0.04959,-1.1055e-05,-107.82,0.37389
1202,19.13,0.71554,0,7.7097e-06,77.044,3.2161e-06,8.1085,2.1228e-06,-0.10614,-7.5406e-06,-72.714,0.40861
1203,18.755,0.71041,0.05,2.3201e-07,2.3185,1.7815e-07,1.3386,1.4958e-13,2.2499e-06,-1.7815e-07,-1.3386,0.39701
1204,18.755,0.3552,0,8.7498e-06,87.438,3.5486e-06,8.0596,2.4845e-06,0.064585,-8.5841e-06,-83.101,0.39696
1205,19.883,0.72447,0,5.7297e-06,57.257,2.5557e-06,8.0804,1.4691e-06,-0.083666,-5.5498e-06,-52.821,0.4319
1206,19.506,0.72068,0.05,2.0101e-07,2.0087,1.5435e-07,1.1597,1.401e-13,2.6342e-06,-1.5435e-07,-1.1597,0.42023
1207,19.505,0.36034,0,6.6001e-06,65.955,2.8299e-06,8.0028,1.7784e-06,0.10172,-6.4266e-06,-61.547,0.42015
1208,20.637,0.73393,0,4.0718e-06,40.69,1.9964e-06,7.9964,9.1979e-07,-0.092879,-3.8766e-06,-36.131,0.45527
1209,20.26,0.72827,0.05,1.675e-07,1.6738,1.2862e-07,0.96637,1.7263e-13,2.4908e-06,-1.2862e-07,-0.96637,0.44357
1210,20.256,0.36413,0,4.7894e-06,47.861,2.2246e-06,7.9578,1.1783e-06,0.095762,-4.6037e-06,-43.348,0.44344
1211,21.388,0.74246,0,2.7354e-06,27.335,1.5286e-06,7.7567,4.7895e-07,-0.13004,-2.5188e-06,-22.654,0.47863
1212,21.013,0.7396,0.05,1.3512e-07,1.3503,1.0376e-07,0.77958,2.0036e-13,2.7596e-06,-1.0376e-07,-0.77958,0.46697
1213,21.008,0.3698,0,3.2831e-06,32.809,1.7055e-06,7.7667,6.8378e-07,0.090244,-3.0814e-06,-28.2,0.46678
1214,22.14,0.74186,0,1.7307e-06,17.295,1.144e-06,7.2521,1.5838e-07,-0.1531,-1.4865e-06,-12.512,0.502
1215,21.763,0.74532,0.05,1.0364e-07,1.0357,7.958e-08,0.59794,1.5838e-13,2.7875e-06,-7.958e-08,-0.59793,0.49029
1216,21.758,0.37266,0,2.1126e-06,21.111,1.2812e-06,7.4322,3.0453e-07,0.094038,-1.8866e-06,-16.369,0.49009
1217,22.517,0.7384,0.05,7.665e-08,0.76597,5.8858e-08,0.44223,1.4881e-13,2.3257e-06,-5.8858e-08,-0.44223,0.51372
1218,22.509,0.3692,0,1.246e-06,12.451,9.1633e-07,6.6311,4.3638e-08,0.074042,-9.9478e-07,-7.7282,0.51347
1219,4.1057,0.73717,0,8.9793e-05,897.31,3.5962e-05,82.613,2.631e-05,10.094,-8.7996e-05,-848.76,0.021837
1220,4.4413,0.68156,0.05,6.0289e-06,60.248,4.6295e-06,34.784,-9.8198e-22,-7.3782e-15,-4.6295e-06,-34.784,0.02523
1221,4.7706,0.67411,0,5.9236e-05,591.95,2.1193e-05,-2.8827,1.6437e-05,-38.619,-5.9861e-05,-611.89,0.028774
1222,4.6347,1.5047,0,0.00013835,1382.5,7.6223e-05,377.8,2.5007e-05,-7.028,-0.00012796,-1156.3,0.028907
1223,4.6312,1.3236,0.05,7.6546e-06,76.494,5.8778e-06,44.164,3.9893e-13,2.8095e-06,-5.8778e-06,-44.164,0.02853
1224,4.8656,1.3285,0,0.00011734,1172.5,6.7783e-05,351.82,1.777e-05,-23.958,-0.00010715,-962.55,0.031284
1225,4.6491,1.8605,0,0.0001715,1713.8,7.8238e-05,237.35,4.0188e-05,-48.536,-0.00016649,-1601.4,0.02966
1226,4.3872,1.6791,0,0.00014128,1411.8,6.4556e-05,217.82,3.5123e-05,-3.3304,-0.00013632,-1291.5,0.026277
1227,4.6383,1.6857,0.05,6.7692e-06,67.646,5.1979e-06,39.055,1.8302e-12,1.1969e-05,-5.1979e-06,-39.055,0.029247
1228,4.8691,1.6762,0,0.00018388,1837.6,0.00011285,627.96,2.1272e-05,-60.127,-0.00016428,-1454.3,0.032092
1229,4.7582,2.2075,0,0.00021321,2130.6,8.2812e-05,129.13,6.0725e-05,-36.819,-0.00021115,-2079.6,0.031531
1230,4.428,2.0546,0,0.00016339,1632.7,5.7461e-05,22.925,4.997e-05,-33.363,-0.00016349,-1637.2,0.027189
1231,4.66,2.0353,0.05,7.9805e-06,79.749,6.128e-06,46.043,-8.6496e-13,3.6846e-06,-6.128e-06,-46.043,0.030028
1232,4.88,2.0177,0,0.00033363,3334,0.00014453,296.34,7.6487e-05,-214.89,-0.00032929,-3263.7,0.032893
1233,1.0862,0.7308,0,0.0001389,1388,6.205e-05,92.775,2.5108e-05,-184.8,-0.00013837,-1413.1,0.0014703
1234,0.72056,1.1172,0,0.00014748,1473.8,8.1358e-05,259.26,1.0703e-05,-271.61,-0.00014033,-1406.4,0.00069433
1235,0.72367,0.74002,0.05,3.2653e-06,32.631,2.5074e-06,18.839,-5.3185e-22,1.5492e-05,-2.5074e-06,-18.839,0.00063866
1236,0.72612,0.37001,0,0.0001413,1412,6.5838e-05,180.09,2.8853e-05,-97.798,-0.00013783,-1350.2,0.00055718
1237,0.36183,0.74501,0,0.00011521,1151.3,3.7006e-05,-336.02,7.5847e-06,-557.08,-0.0001288,-1581.8,0.00016596
1238,1.8172,0.71599,0,0.00013605,1359.6,5.015e-05,-15.311,3.4286e-05,-134.5,-0.00013821,-1430.5,0.0042366
1239,1.4482,1.0959,0,0.00013544,1353.4,5.3155e-05,-52.623,2.4461e-05,-268.22,-0.0001396,-1500.9,0.0028307
1240,1.4487,0.72158,0.05,2.4735e-06,24.718,1.8993e-06,14.271,1.5782e-12,1.2764e-05,-1.8993e-06,-14.271,0.0026488
1241,1.4529,0.36079,0,0.00014381,1437.1,4.9763e-05,-42.959,3.9506e-05,-120.03,-0.00014643,-1517.1,0.0024308
1242,2.5361,0.67168,0,0.00012948,1293.9,4.5915e-05,6.1339,3.7817e-05,-54.713,-0.0001302,-1317.1,0.0083303
1243,2.1961,1.076,0,0.00013213,1320.4,5.2461e-05,22.411,2.9986e-05,-146.46,-0.00013342,-1374.3,0.0065265
1244,2.1857,0.71041,0.05,1.5385e-06,15.375,1.1814e-06,8.8766,9.9374e-14,1.5325e-05,-1.1814e-06,-8.8766,0.0061727
1245,2.1857,0.3552,0,0.00013654,1364.5,4.8335e-05,4.0705,3.9803e-05,-60.038,-0.00013738,-1391.3,0.0058207
1246,3.2423,0.55338,0,0.00011443,1143.5,3.8513e-05,9.6293,3.737e-05,1.044,-0.00011424,-1138.1,0.013519
1247,2.8865,0.63296,0.05,1.9888e-06,19.874,1.5271e-06,11.474,-3.2392e-22,7.4935e-09,-1.5271e-06,-11.474,0.010778
1248,2.9004,0.31648,0,0.00012414,1240.5,4.1594e-05,0.21744,3.9923e-05,-12.339,-0.00012434,-1246.6,0.010472
1249,3.6841,0.63329,0,0.00010753,1074.6,4.0419e-05,74.227,3.3875e-05,25.06,-0.00010576,-1024.1,0.017552
1250,3.5981,0.4738,0.05,3.2334e-06,32.311,2.4828e-06,18.655,7.4756e-14,9.2764e-08,-2.4828e-06,-18.655,0.016506
1251,3.6205,0.2369,0,0.00010209,1020.2,3.6286e-05,42.592,3.3182e-05,19.271,-0.00010101,-989.03,0.016324
1252,0.72118,4.876,0,0.00014753,1474.3,8.1419e-05,260.62,1.0771e-05,-270.2,-0.00014034,-1405.6,0.00069676
1253,1.0813,5.2572,0,0.00013875,1386.6,6.2054e-05,92.751,2.4949e-05,-186.05,-0.00013822,-1412,0.0014608
1254,0.72032,5.2542,0.05,3.2711e-06,32.689,2.5118e-06,18.873,-5.3279e-22,-4.0032e-15,-2.5118e-06,-18.873,0.00063386
1255,0.72445,5.6271,0,0.0001411,1410,6.5695e-05,178.92,2.8817e-05,-98.166,-0.00013766,-1349,0.00055458
1256,0.36016,5.2521,0,0.00011518,1151,3.6937e-05,-336.89,7.6043e-06,-557.29,-0.00012879,-1582.1,0.00016478
1257,0.7301,4.1195,0,0.0001576,1574.9,9.0878e-05,288.66,3.3762e-06,-368.79,-0.0001483,-1508.5,0.00076953
1258,1.0794,4.502,0,0.00014377,1436.7,7.2579e-05,114.9,1.0386e-05,-352.39,-0.00014199,-1497.3,0.0016393
1259,0.72204,4.4979,0.05,1.377e-06,13.761,1.0574e-06,7.9448,-2.3483e-14,-1.6852e-15,-1.0574e-06,-7.9448,0.00072385
1260,0.36102,4.4989,0,0.00012653,1264.4,4.4555e-05,-354.13,1.9201e-06,-674.48,-0.00014094,-1747.9,0.00018616
1261,0.73949,3.3699,0,0.0001607,1605.9,9.303e-05,287.98,1.7885e-06,-397.57,-0.00015118,-1546.9,0.00081014
1262,1.1089,3.7375,0,0.00014679,1466.9,7.6181e-05,111.04,5.1715e-06,-422.49,-0.00014461,-1547.9,0.0018071
1263,0.73817,3.7412,0.05,1.2481e-06,12.472,9.5835e-07,7.2007,-2.8274e-14,3.426e-08,-9.5835e-07,-7.2007,0.00079113
1264,0.36908,3.7456,0,0.00013141,1313.2,4.6327e-05,-376.83,9.3519e-07,-717.89,-0.00014667,-1826.9,0.00020396
1265,1.1287,2.9911,0,0.00014772,1476.2,7.7408e-05,113.56,3.6713e-06,-440.46,-0.00014526,-1559.5,0.0018919
1266,0.74082,2.9987,0.05,1.2584e-06,12.575,9.6628e-07,7.2602,-8.5262e-14,-1.54e-15,-9.6628e-07,-7.2602,0.00080597
1267,0.37041,2.9993,0,0.00013257,1324.8,4.6701e-05,-383.51,6.6234e-07,-729.43,-0.00014807,-1846.9,0.0002081
1268,1.0826,1.4824,0,0.00014372,1436.2,7.2475e-05,113.95,1.046e-05,-352,-0.00014198,-1497.4,0.0016457
1269,0.71744,1.4945,0.05,1.4606e-06,14.596,1.1216e-06,8.4271,2.9515e-13,7.1241e-07,-1.1216e-06,-8.4271,0.00071328
1270,0.35872,1.4972,0,0.00012629,1262.1,4.442e-05,-354.85,1.8822e-06,-674.47,-0.00014073,-1746,0.00018351
1271,2.4998,5.3113,0,0.00012925,1291.6,4.6367e-05,5.5922,3.676e-05,-66.595,-0.00013013,-1320.6,0.0080992
1272,2.8419,4.9962,0,0.00012398,1239,4.5222e-05,3.7364,3.3792e-05,-82.14,-0.00012509,-1275.9,0.010833
1273,2.8574,5.3377,0.05,1.8036e-06,18.023,1.3849e-06,10.406,-1.2558e-13,-2.2072e-15,-1.3849e-06,-10.406,0.010583
1274,2.8859,5.6689,0,0.00012394,1238.6,4.2056e-05,-0.41936,3.8902e-05,-24.118,-0.00012434,-1250.7,0.010373
1275,1.7923,5.2725,0,0.00013605,1359.5,5.0014e-05,-17.953,3.4279e-05,-136.18,-0.00013828,-1432.7,0.0041231
1276,2.1372,4.9179,0,0.00013213,1320.4,5.2054e-05,15.913,3.0116e-05,-148.92,-0.00013362,-1379.2,0.0061832
1277,2.1422,5.2849,0.05,1.4471e-06,14.461,1.1112e-06,8.3489,-2.357e-22,-6.7477e-15,-1.1112e-06,-8.3489,0.0059231
1278,2.164,5.6424,0,0.00013711,1370.2,4.8549e-05,4.18,3.9959e-05,-60.36,-0.00013796,-1397.1,0.0056924
1279,1.4395,4.8832,0,0.00013524,1351.4,5.32e-05,-53.08,2.4138e-05,-271.44,-0.00013943,-1500.4,0.0028045
1280,1.4423,5.2601,0.05,2.4014e-06,23.997,1.844e-06,13.855,3.0891e-14,-2.9388e-15,-1.844e-06,-13.855,0.0026333
1281,1.4497,5.6301,0,0.00014358,1434.8,4.9886e-05,-43.236,3.9053e-05,-124.63,-0.00014626,-1517,0.0024227
1282,4.6441,4.7595,0,0.00011452,1144.5,6.3541e-05,320.46,2.058e-05,-2.3349,-0.00010564,-950.73,0.028508
1283,4.4078,4.9082,0,9.7384e-05,973.17,4.3753e-05,143.36,2.4962e-05,2.1713,-9.4136e-05,-892.69,0.025599
1284,4.6476,4.9244,0.05,7.7382e-06,77.329,5.942e-06,44.646,-1.1289e-13,-1.1838e-06,-5.942e-06,-44.646,0.028223
1285,4.8738,4.9622,0,8.6415e-05,863.55,4.7102e-05,216.65,1.4645e-05,-27.22,-8.0568e-05,-742.61,0.030702
1286,4.6567,4.4296,0,0.00014749,1473.8,8.0408e-05,388.12,2.6912e-05,-13.831,-0.00013695,-1245,0.029262
1287,4.3937,4.5387,0,0.00012214,1220.5,5.6004e-05,198.75,3.1026e-05,11.078,-0.00011748,-1104.7,0.026027
1288,4.6406,4.5947,0.05,1.0645e-05,106.38,8.1744e-06,61.419,-1.7339e-21,-1.3028e-14,-8.1744e-06,-61.419,0.028769
1289,4.8703,4.6307,0,0.00012225,1221.7,6.9143e-05,345.81,1.9518e-05,-27.051,-0.00011248,-1018.8,0.031411
1290,4.4369,4.1954,0,0.00015348,1533.8,6.7965e-05,208.42,3.9499e-05,-5.4613,-0.00014891,-1421.1,0.026995
1291,4.6728,4.2645,0.05,1.1696e-05,116.88,8.9808e-06,67.478,-5.8204e-13,-6.0636e-06,-8.9808e-06,-67.478,0.02973
1292,4.8864,4.2989,0,0.00018671,1865.8,0.00011419,620.56,2.0592e-05,-82.681,-0.00016734,-1494.7,0.032342
1293,5.8176,1.3255,0,9.189e-05,918.27,4.4753e-05,177.49,2.1051e-05,-0.60493,-8.7576e-05,-816.78,0.047811
1294,6.0903,1.25,0,7.9781e-05,797.26,3.4813e-05,117.98,2.2438e-05,24.996,-7.6941e-05,-721.69,0.053159
1295,5.8414,1.123,0.05,5.7379e-06,57.34,4.406e-06,33.105,5.138e-13,2.8592e-06,-4.406e-06,-33.105,0.048
1296,5.554,1.0615,0,6.8027e-05,679.81,2.9956e-05,74.07,1.6019e-05,-30.649,-6.6681e-05,-652.02,0.042212
1297,5.7939,1.7211,0,0.00012365,1235.6,5.5273e-05,167.66,3.0806e-05,-16.174,-0.00012004,-1149.6,0.047847
1298,6.0557,1.6212,0,0.00010058,1005.1,4.0658e-05,97.254,2.9246e-05,11.51,-9.8458e-05,-948.01,0.052858
1299,5.7938,1.528,0.05,7.0039e-06,69.99,5.3781e-06,40.409,8.7319e-13,5.0017e-06,-5.3781e-06,-40.409,0.047597
1300,5.5302,1.4306,0,0.00010892,1088.5,5.0928e-05,158.43,2.3883e-05,-44.775,-0.00010556,-1017.3,0.042359
1301,5.794,1.9142,0.05,8.1096e-06,81.04,6.2272e-06,46.788,7.5017e-13,4.4922e-06,-6.2272e-06,-46.788,0.048053
1302,5.5303,1.7904,0,0.00017217,1720.5,7.5858e-05,199.35,4.1634e-05,-57.79,-0.00016831,-1635.2,0.042947
1303,5.4173,3.4959,0,0.00023562,2354.5,8.9619e-05,144.94,7.0702e-05,2.8019,-0.00023278,-2277.4,0.041853
1304,5.7346,3.5231,0,0.00019239,1922.5,6.8048e-05,43.876,5.9739e-05,-18.56,-0.00019188,-1909.1,0.047415
1305,5.5657,3.6101,0.05,9.7559e-06,97.492,7.4913e-06,56.287,4.0964e-13,8.0936e-07,-7.4913e-06,-56.287,0.044301
1306,5.2689,3.3817,0.05,7.0278e-06,70.229,5.3965e-06,40.547,1.0405e-14,5.4672e-08,-5.3965e-06,-40.547,0.039488
1307,4.9241,2.5345,0,0.00024248,2423.1,9.5705e-05,192.84,7.0696e-05,4.9293,-0.00023856,-2318.7,0.034178
1308,4.6071,2.4308,0,0.00020673,2065.8,7.5942e-05,84.345,6.2747e-05,-14.797,-0.00020537,-2029.3,0.029761
1309,4.8564,2.3797,0.05,1.2984e-05,129.75,9.9698e-06,74.909,-4.5184e-13,-6.3116e-06,-9.9698e-06,-74.909,0.033061
1310,3.7701,0.79278,0.05,4.774e-06,47.707,3.6658e-06,27.543,-7.7757e-22,-5.8424e-15,-3.6658e-06,-27.543,0.018591
1311,1.8271,1.4559,0,0.00013189,1317.9,5.5504e-05,-14.619,2.0184e-05,-280,-0.00013488,-1445.1,0.0046861
1312,1.4769,1.8555,0,0.00013367,1335.8,5.7862e-05,-62.557,1.2231e-05,-405.41,-0.00013829,-1536.4,0.0031515
1313,1.4478,1.4703,0.05,2.694e-06,26.922,2.0687e-06,15.543,2.2615e-13,6.8396e-06,-2.0687e-06,-15.543,0.0029396
1314,1.4582,4.12,0,0.00013355,1334.5,5.7888e-05,-62.673,1.2036e-05,-407.18,-0.00013816,-1535.7,0.0030779
1315,1.7844,4.5286,0,0.00013172,1316.3,5.5274e-05,-18.956,2.0037e-05,-283.71,-0.00013486,-1447.6,0.0044774
1316,1.4367,4.5062,0.05,2.6753e-06,26.735,2.0543e-06,15.435,1.1262e-13,-3.274e-15,-2.0543e-06,-15.435,0.0029019
1317,3.8402,4.8484,0,0.00010955,1094.8,3.7493e-05,23.41,3.6027e-05,12.394,-0.00010894,-1076.8,0.01975
1318,4.1574,4.6873,0,0.00011425,1141.7,4.2895e-05,71.838,3.5415e-05,15.629,-0.00011265,-1096.9,0.023225
1319,4.1681,4.892,0.05,3.7772e-06,37.746,2.9005e-06,21.793,-6.1523e-22,-4.6226e-15,-2.9005e-06,-21.793,0.023041
1320,4.3938,3.5079,0,0.00017806,1779.4,6.0562e-05,10.873,5.6698e-05,-18.16,-0.00017817,-1782.9,0.027102
1321,4.3522,3.2195,0,0.00017561,1754.9,6.1211e-05,4.1329,5.2758e-05,-59.38,-0.00017647,-1781.7,0.026711
1322,4.5542,3.4199,0.05,6.14e-06,61.358,4.7148e-06,35.425,1.1395e-13,1.9697e-06,-4.7148e-06,-35.425,0.029154
1323,4.9918,2.6893,0.05,5.1799e-06,51.763,3.9775e-06,29.885,-4.3238e-13,1.6119e-07,-3.9775e-06,-29.885,0.035262
1324,7.7642,4.4762,0,7.538e-05,753.28,2.6845e-05,1.8188,2.1651e-05,-37.209,-7.5906e-05,-770.21,0.089197
1325,8.1913,4.1008,0,7.2335e-05,722.86,2.651e-05,2.3636,1.9506e-05,-50.261,-7.3006e-05,-745.37,0.099233
1326,8.1742,4.4744,0.05,1.2883e-06,12.874,9.8928e-07,7.4331,2.2642e-13,-1.0111e-07,-9.8928e-07,-7.4331,0.098638
1327,7.0237,4.7048,0,7.7659e-05,776.05,2.6762e-05,8.1634,2.4447e-05,-9.2276,-7.7662e-05,-776.44,0.072621
1328,7.0404,4.3439,0,8.3536e-05,834.79,2.9283e-05,2.4635,2.4853e-05,-30.818,-8.3969e-05,-848.47,0.073235
1329,7.3542,4.4781,0.05,9.6882e-07,9.6815,7.4393e-07,5.5896,-1.4023e-14,2.9509e-08,-7.4393e-07,-5.5896,0.079997
1330,6.0536,4.4774,0.05,3.7697e-06,37.671,2.8947e-06,21.75,6.9396e-14,-1.5579e-05,-2.8947e-06,-21.75,0.052637
1331,6.6931,4.9316,0.05,2.0229e-06,20.215,1.5533e-06,11.671,-3.2949e-22,2.0669e-07,-1.5533e-06,-11.671,0.065346
1332,7.1711,1.2727,0,7.734e-05,772.86,2.6904e-05,13.403,2.4401e-05,-5.4072,-7.7186e-05,-768.69,0.075868
1333,6.5597,1.2855,0,8.247e-05,824.13,3.0863e-05,61.976,2.6687e-05,30.595,-8.0851e-05,-777.4,0.062828
1334,6.8801,1.5486,0,8.2627e-05,825.7,2.9255e-05,13.23,2.5083e-05,-18.114,-8.2666e-05,-827.7,0.069782
1335,6.7802,1.1941,0.05,1.8778e-06,18.765,1.4419e-06,10.834,5.4716e-13,3.31e-06,-1.4419e-06,-10.834,0.067381
1336,7.5884,1.7049,0,7.7515e-05,774.62,2.8092e-05,5.6898,2.1765e-05,-41.846,-7.8021e-05,-791.6,0.085376
1337,7.5619,1.3513,0.05,7.3818e-07,7.3767,5.6683e-07,4.2589,-1.4696e-13,-1.2802e-06,-5.6683e-07,-4.2589,0.084567
1338,9.033,1.8345,0,6.4447e-05,644.02,2.2693e-05,0.33776,1.8851e-05,-28.527,-6.4878e-05,-657.63,0.1194
1339,9.0338,1.4501,0.05,7.0929e-07,7.088,5.4465e-07,4.0923,-4.4676e-13,-6.4982e-09,-5.4465e-07,-4.0923,0.11923
1340,2.2224,1.8129,0,0.00012918,1290.9,5.5773e-05,21.801,2.0639e-05,-242.18,-0.00013088,-1380.7,0.0070561
1341,2.2065,1.4416,0.05,1.0647e-06,10.64,8.1757e-07,6.1429,1.5505e-12,-3.772e-07,-8.1757e-07,-6.1429,0.0067931
1342,1.5114,2.6121,0,0.00013424,1341.5,6.0505e-05,-63.887,7.055e-06,-465.49,-0.00013866,-1560.3,0.0033818
1343,1.8722,2.2125,0,0.00013117,1310.8,5.8144e-05,-26.043,1.2871e-05,-366.21,-0.00013449,-1473.4,0.0051207
1344,1.5061,2.2407,0.05,2.261e-06,22.595,1.7362e-06,13.045,-1.269e-13,3.666e-07,-1.7362e-06,-13.045,0.0033216
1345,1.4981,3.3586,0,0.00013425,1341.6,6.0561e-05,-63.353,6.9967e-06,-465.81,-0.00013864,-1560.1,0.0033249
1346,1.8378,3.7707,0,0.00013112,1310.3,5.8405e-05,-24.906,1.2381e-05,-370.71,-0.00013438,-1473.4,0.0049396
1347,1.4797,3.7338,0.05,2.2406e-06,22.39,1.7205e-06,12.927,7.1069e-14,1.8479e-07,-1.7205e-06,-12.927,0.0032098
1348,1.9677,2.9864,0,0.00013006,1299.7,5.9375e-05,-23.953,9.2848e-06,-400.31,-0.00013312,-1470.3,0.0057101
1349,1.5166,2.9835,0.05,2.5042e-06,25.025,1.9229e-06,14.448,-1.1364e-13,6.9252e-09,-1.9229e-06,-14.448,0.0034051
1350,2.4792,4.6029,0,0.00012699,1269,5.0919e-05,14.14,2.716e-05,-164.38,-0.0001286,-1334.7,0.0085303
1351,2.164,4.1792,0,0.0001291,1290.1,5.578e-05,18.723,2.0226e-05,-248.41,-0.00013091,-1384,0.006698
1352,2.1322,4.5509,0.05,1.2183e-06,12.174,9.3549e-07,7.0289,-1.9843e-22,-1.4909e-15,-9.3549e-07,-7.0289,0.0063508
1353,3.1693,4.7299,0,0.0001196,1195.2,4.3657e-05,7.1977,3.2875e-05,-73.814,-0.00012053,-1226.4,0.013698
1354,3.523,4.5333,0,0.00011846,1183.7,4.1905e-05,2.6278,3.4496e-05,-53.043,-0.00011922,-1208,0.017024
1355,3.5122,4.8049,0.05,2.2323e-06,22.308,1.7141e-06,12.879,-3.636e-22,-2.78e-06,-1.7141e-06,-12.879,0.016652
1356,2.8481,4.3288,0,0.00012402,1239.3,4.9031e-05,7.4877,2.7214e-05,-156.44,-0.00012573,-1305.6,0.011375
1357,2.8263,4.6548,0.05,1.6133e-06,16.122,1.2388e-06,9.3082,-2.6278e-22,-1.9744e-15,-1.2388e-06,-9.3082,0.01099
1358,4.1738,4.3044,0,0.00013481,1347.1,4.7711e-05,50.241,4.3615e-05,19.463,-0.00013359,-1312,0.023869
1359,3.8403,4.3722,0,0.00012172,1216.4,4.1186e-05,5.06,3.8907e-05,-12.069,-0.00012183,-1219.8,0.02027
1360,4.1467,4.4826,0.05,3.3559e-06,33.536,2.5769e-06,19.362,-5.466e-22,-3.9804e-07,-2.5769e-06,-19.362,0.023363
1361,4.284,4.0075,0,0.00014768,1475.8,5.1403e-05,24.706,4.6461e-05,-12.424,-0.00014744,-1469.3,0.025416
1362,4.2009,4.1262,0.05,2.9168e-06,29.148,2.2398e-06,16.829,4.3719e-13,1.4739e-06,-2.2398e-06,-16.829,0.024345
1363,6.3283,1.5457,0,9.3299e-05,932.35,3.4782e-05,68.283,3.0254e-05,34.264,-9.1508e-05,-880.61,0.058276
1364,6.6488,1.8088,0,9.2569e-05,925.05,3.3696e-05,23.465,2.7299e-05,-24.598,-9.2495e-05,-924.68,0.065063
1365,6.3175,1.7145,0.05,3.088e-06,30.858,2.3712e-06,17.816,1.0957e-12,4.932e-06,-2.3712e-06,-17.816,0.058181
1366,6.0177,3.6089,0,0.00014296,1428.6,4.9794e-05,1.6379,4.2849e-05,-50.548,-0.00014372,-1452.4,0.05267
1367,6.412,3.7408,0,0.00011236,1122.8,4.1688e-05,0.4758,2.9077e-05,-94.279,-0.00011365,-1166.7,0.06039
1368,6.1318,3.7818,0.05,3.5355e-06,35.331,2.7149e-06,20.398,-5.7586e-22,2.4972e-06,-2.7149e-06,-20.398,0.054773
1369,6.1337,3.3481,0,0.00014113,1410.4,4.9822e-05,-10.25,4.0031e-05,-83.81,-0.00014259,-1456,0.055022
1370,5.9035,3.436,0.05,3.5739e-06,35.714,2.7443e-06,20.619,6.9454e-13,6.4264e-06,-2.7443e-06,-20.619,0.050582
1371,6.3391,1.3769,0.05,2.2028e-06,22.013,1.6915e-06,12.709,-2.6015e-13,-1.6414e-06,-1.6915e-06,-12.709,0.058337
1372,21.757,3.404,0,2.4904e-06,24.887,1.7495e-06,11.797,1.2676e-07,-0.39613,-2.0612e-06,-16.836,0.49013
1373,21.384,3.7832,0,3.0045e-06,30.024,1.917e-06,11.592,3.2678e-07,-0.35587,-2.6293e-06,-22.566,0.47854
1374,21.757,3.7935,0.05,1.0403e-07,1.0395,7.9879e-08,0.60018,1.855e-13,2.687e-06,-7.9879e-08,-0.60018,0.49014
1375,21.383,2.2391,0,3.0085e-06,30.065,1.9152e-06,11.53,3.2869e-07,-0.39046,-2.6361e-06,-22.667,0.47852
1376,21.76,2.6341,0,2.4897e-06,24.88,1.7529e-06,11.84,1.2205e-07,-0.41393,-2.0575e-06,-16.79,0.49024
1377,21.764,2.2537,0.05,1.0746e-07,1.0739,8.2517e-08,0.62,1.5258e-13,2.3649e-06,-8.2517e-08,-0.62,0.49035
1378,4.2769,2.2779,0,0.00015672,1566.1,5.4442e-05,7.0735,4.7713e-05,-43.485,-0.00015728,-1583.7,0.025581
1379,4.166,1.8732,0,0.0001354,1353.1,4.6467e-05,23.584,4.3819e-05,3.6863,-0.00013493,-1339.4,0.023982
1380,3.894,2.07,0,0.0001357,1356.1,4.8713e-05,2.3561,3.8214e-05,-76.535,-0.00013679,-1391.5,0.021186
1381,4.196,2.0738,0.05,2.5133e-06,25.116,1.9299e-06,14.501,-6.0925e-13,3.6095e-06,-1.9299e-06,-14.501,0.024486
1382,2.3285,2.5867,0,0.00012687,1267.8,5.7016e-05,13.908,1.4929e-05,-302.32,-0.00012878,-1382.1,0.0079126
1383,2.2383,2.1843,0.05,1.2084e-06,12.076,9.279e-07,6.9719,-8.2432e-14,-2.434e-06,-9.279e-07,-6.9719,0.0072529
1384,2.3073,3.3984,0,0.00012684,1267.5,5.7222e-05,14.51,1.4528e-05,-306.27,-0.00012871,-1382.5,0.0077724
1385,2.5329,3.9052,0,0.00012617,1260.8,5.3897e-05,12.113,2.0369e-05,-239.81,-0.00012814,-1355.6,0.0092113
1386,2.1959,3.8075,0.05,9.8756e-07,9.8687,7.5832e-07,5.6977,3.307e-14,-1.2741e-07,-7.5832e-07,-5.6977,0.0069859
1387,3.2019,4.1322,0,0.00012264,1225.6,4.728e-05,2.9271,2.8726e-05,-136.48,-0.00012432,-1286.4,0.014401
1388,3.5339,4.2617,0.05,2.1147e-06,21.132,1.6238e-06,12.201,-3.4443e-22,1.0756e-06,-1.6238e-06,-12.201,0.017337
1389,3.9504,3.3971,0,0.0001461,1460,5.3115e-05,-9.5682,3.8801e-05,-117.12,-0.00014795,-1520.3,0.022037
1390,4.3003,3.7423,0,0.00015479,1546.8,5.4312e-05,10.694,4.6535e-05,-47.737,-0.00015534,-1564.5,0.025829
1391,4.2335,3.5958,0.05,7.0616e-06,70.567,5.4224e-06,40.742,-4.122e-13,-1.0619e-06,-5.4224e-06,-40.742,0.02513
1392,6.1663,3.0839,0,0.00013997,1398.7,4.9649e-05,-10.432,3.9257e-05,-88.509,-0.00014149,-1446.6,0.055707
1393,6.0957,2.7458,0,0.00014384,1437.4,5.1983e-05,13.3,4.0907e-05,-69.923,-0.00014462,-1463.9,0.054324
1394,5.9687,2.9077,0.05,1.9588e-06,19.575,1.5041e-06,11.302,7.0027e-14,1.2118e-06,-1.5041e-06,-11.302,0.051913
1395,4.0946,2.5367,0,0.00015364,1535.4,5.5313e-05,-5.035,4.2256e-05,-103.14,-0.00015525,-1587.1,0.023618
1396,4.3579,2.4819,0.05,3.1342e-06,31.32,2.4067e-06,18.083,-2.8042e-13,-1.5813e-06,-2.4067e-06,-18.083,0.026662
1397,19.887,3.8143,0,5.8664e-06,58.624,2.882e-06,11.448,1.3064e-06,-0.39065,-5.5879e-06,-52.192,0.4321
1398,20.637,3.7916,0,4.2612e-06,42.582,2.3483e-06,11.563,7.6123e-07,-0.36151,-3.9434e-06,-35.71,0.45535
1399,20.257,3.4166,0,4.9925e-06,49.891,2.6047e-06,11.659,1.0008e-06,-0.39142,-4.6904e-06,-43.153,0.44358
1400,20.263,3.8103,0.05,1.7199e-07,1.7187,1.3207e-07,0.9923,1.4831e-13,2.2633e-06,-1.3207e-07,-0.9923,0.44376
1401,19.133,3.8241,0,7.814e-06,78.086,3.5205e-06,11.314,1.9657e-06,-0.3677,-7.5619e-06,-71.954,0.4088
1402,19.505,3.4279,0,6.7709e-06,67.663,3.19e-06,11.525,1.6059e-06,-0.37724,-6.5023e-06,-61.299,0.42032
1403,19.51,3.8183,0.05,2.0096e-07,2.0082,1.5431e-07,1.1595,1.4799e-13,2.379e-06,-1.5431e-07,-1.1595,0.42045
1404,18.38,3.8395,0,1.0095e-05,100.88,4.2541e-06,11.052,2.7424e-06,-0.30588,-9.864e-06,-95.026,0.38564
1405,18.752,3.4329,0,8.8806e-06,88.745,3.8751e-06,11.297,2.3186e-06,-0.39792,-8.6372e-06,-82.715,0.39707
1406,18.756,3.83,0.05,2.3505e-07,2.3489,1.8049e-07,1.3561,5.778e-14,2.182e-06,-1.8049e-07,-1.3561,0.39717
1407,17.631,3.8492,0,1.2698e-05,126.89,5.0907e-06,10.729,3.6202e-06,-0.31994,-1.2485e-05,-121.33,0.36266
1408,18.004,3.4507,0,1.1315e-05,113.07,4.656e-06,10.987,3.1446e-06,-0.36935,-1.1091e-05,-107.33,0.3741
1409,18.005,3.849,0.05,2.6709e-07,2.669,2.0509e-07,1.541,5.8471e-14,2.0629e-06,-2.0509e-07,-1.541,0.37412
1410,16.882,3.85,0,1.5619e-05,156.09,6.0255e-06,10.324,4.6043e-06,-0.35441,-1.5422e-05,-150.83,0.33985
1411,17.256,3.4643,0,1.4071e-05,140.62,5.5394e-06,10.647,4.0771e-06,-0.34044,-1.3864e-05,-135.14,0.35126
1412,17.256,3.8494,0.05,3.1917e-07,3.1895,2.4509e-07,1.8415,2.3109e-13,1.9515e-06,-2.4509e-07,-1.8415,0.35123
1413,16.133,3.8515,0,1.8852e-05,188.39,7.0511e-06,9.7522,5.6943e-06,-0.44202,-1.8673e-05,-183.53,0.3172
1414,16.508,3.4673,0,1.714e-05,171.28,6.5164e-06,10.142,5.1105e-06,-0.42078,-1.695e-05,-166.17,0.32857
1415,16.507,3.8506,0.05,3.4633e-07,3.4609,2.6594e-07,1.9982,5.8572e-14,1.9188e-06,-2.6594e-07,-1.9982,0.3285
1416,15.385,3.849,0,2.2398e-05,223.83,8.1512e-06,8.9159,6.9118e-06,-0.39656,-2.2239e-05,-219.42,0.29482
1417,15.76,3.4584,0,2.0538e-05,205.24,7.5773e-06,9.4355,6.2754e-06,-0.34581,-2.0366e-05,-200.52,0.30605
1418,15.758,3.8523,0.05,3.5543e-07,3.5518,2.7293e-07,2.0507,6.3703e-14,1.593e-06,-2.7293e-07,-2.0507,0.30595
1419,14.638,3.8534,0,2.6266e-05,262.48,9.3172e-06,7.7035,8.269e-06,-0.17238,-2.6129e-05,-258.63,0.27269
1420,15.01,3.4723,0,2.4249e-05,242.32,8.7176e-06,8.4441,7.5569e-06,-0.27653,-2.4098e-05,-238.12,0.28373
1421,15.013,3.8456,0.05,4.0257e-07,4.0229,3.0912e-07,2.3226,1.1534e-13,1.7545e-06,-3.0912e-07,-2.3226,0.28374
1422,13.887,3.865,0,3.0439e-05,304.18,1.0563e-05,6.0869,9.7238e-06,-0.21456,-3.0334e-05,-301.2,0.25072
1423,14.261,3.5098,0,2.8261e-05,282.42,9.92e-06,6.9395,8.9526e-06,-0.32915,-2.8142e-05,-279.04,0.26168
1424,14.264,3.8612,0.05,4.4809e-07,4.4778,3.4408e-07,2.5853,-2.0497e-15,1.4785e-06,-3.4408e-07,-2.5853,0.2617
1425,13.135,3.8688,0,3.49e-05,348.76,1.1855e-05,3.8743,1.1299e-05,-0.30872,-3.4837e-05,-346.96,0.22908
1426,13.509,3.5136,0,3.2579e-05,325.56,1.1188e-05,5.0735,1.0475e-05,-0.28674,-3.2494e-05,-323.13,0.23988
1427,13.509,3.8688,0.05,4.8233e-07,4.8199,3.7037e-07,2.7828,2.2864e-13,1.6774e-06,-3.7037e-07,-2.7828,0.23981
1428,12.385,3.8688,0,3.9635e-05,396.07,1.3154e-05,0.7429,1.3022e-05,-0.24892,-3.9626e-05,-395.83,0.20791
1429,12.76,3.5136,0,3.717e-05,371.45,1.2473e-05,2.3387,1.2131e-05,-0.22553,-3.7134e-05,-370.38,0.21851
1430,12.76,3.8688,0.05,5.1249e-07,5.1214,3.9353e-07,2.9568,1.1429e-15,1.4326e-06,-3.9353e-07,-2.9568,0.21844
1431,11.636,3.8688,0,4.4629e-05,445.99,1.4893e-05,-0.15921,1.4433e-05,-3.6216,-4.4693e-05,-447.87,0.18719
1432,12.011,3.5136,0,4.2021e-05,419.92,1.3924e-05,-0.19631,1.3753e-05,-1.4812,-4.205e-05,-420.76,0.19756
1433,12.011,3.8688,0.05,5.4024e-07,5.3986,4.1484e-07,3.1169,-1.0296e-15,1.4264e-06,-4.1484e-07,-3.1169,0.19749
1434,10.885,3.865,0,4.9878e-05,498.44,1.693e-05,-0.13007,1.5649e-05,-9.7579,-5.0039e-05,-503.31,0.16691
1435,11.261,3.5136,0,4.7128e-05,470.95,1.5881e-05,-0.078663,1.4987e-05,-6.8004,-4.7241e-05,-474.36,0.17709
1436,11.261,3.8688,0.05,5.8099e-07,5.8059,4.4613e-07,3.3521,-2.7815e-15,1.1703e-06,-4.4613e-07,-3.352,0.177
1437,10.128,3.8486,0,5.5419e-05,553.81,1.9184e-05,-0.24797,1.6734e-05,-18.661,-5.5718e-05,-563.03,0.14706
1438,10.51,3.5098,0,5.2477e-05,524.41,1.8022e-05,-0.022463,1.6113e-05,-14.369,-5.2707e-05,-531.46,0.15709
1439,10.508,3.8611,0.05,6.1037e-07,6.0995,4.6869e-07,3.5215,-7.0704e-15,8.0526e-07,-4.6869e-07,-3.5215,0.15695
1440,9.3657,3.8128,0,6.1443e-05,614.01,2.1829e-05,-0.30386,1.7574e-05,-32.278,-6.1935e-05,-629.67,0.12772
1441,9.7557,3.4667,0,5.8144e-05,581.04,2.0423e-05,-0.022631,1.7064e-05,-25.258,-5.8533e-05,-593.27,0.13762
1442,9.7475,3.836,0.05,6.3839e-07,6.3795,4.9021e-07,3.6832,-1.6084e-14,6.5686e-07,-4.9021e-07,-3.6832,0.13731
1443,8.5962,3.7584,0,6.8506e-05,684.58,2.5125e-05,0.18321,1.8246e-05,-51.501,-6.9232e-05,-708.78,0.10893
1444,9.0024,3.41,0,6.4353e-05,643.08,2.3224e-05,-0.82429,1.772e-05,-42.177,-6.4984e-05,-663.58,0.11884
1445,8.9839,3.7897,0.05,8.6625e-07,8.6565,6.6517e-07,4.9979,-1.8669e-14,2.1063e-07,-6.6517e-07,-4.9979,0.11829
1446,8.244,3.3357,0,7.2065e-05,720.15,2.6998e-05,1.5538,1.83e-05,-63.799,-7.2901e-05,-749.05,0.10068
1447,8.2084,3.7272,0.05,1.1309e-06,11.301,8.6837e-07,6.5246,-2.3143e-14,-1.1362e-07,-8.6837e-07,-6.5246,0.099758
1448,7.2975,1.9808,0,8.2759e-05,827.02,3.046e-05,5.6417,2.2365e-05,-55.181,-8.3433e-05,-850.11,0.079038
1449,6.9687,2.2042,0,8.9706e-05,896.44,3.3566e-05,5.6515,2.321e-05,-72.16,-9.0584e-05,-927.16,0.071994
1450,6.98,1.9031,0.05,1.2838e-06,12.829,9.858e-07,7.4069,-1.467e-13,-4.0641e-07,-9.858e-07,-7.4069,0.072107
1451,7.6011,2.4255,0,7.9467e-05,794.12,2.9827e-05,1.8398,2.0089e-05,-71.329,-8.0395e-05,-826.33,0.085912
1452,7.615,2.0585,0.05,9.5203e-07,9.5137,7.3104e-07,5.4928,-2.1755e-13,-1.4582e-06,-7.3104e-07,-5.4928,0.086115
1453,9.402,2.229,0,6.122e-05,611.78,2.1677e-05,0.30672,1.7696e-05,-29.603,-6.1664e-05,-625.88,0.12866
1454,9.0265,2.6246,0,6.4174e-05,641.3,2.3079e-05,-0.52455,1.7842e-05,-39.868,-6.4771e-05,-660.59,0.11945
1455,9.0321,2.2188,0.05,7.9645e-07,7.959,6.1157e-07,4.5951,5.6336e-15,1.4449e-07,-6.1157e-07,-4.5951,0.1195
1456,10.142,2.2248,0,5.5372e-05,553.34,1.9178e-05,0.12741,1.6736e-05,-18.22,-5.5657e-05,-562.16,0.14747
1457,9.7678,2.6683,0,5.8096e-05,580.56,2.0415e-05,0.28037,1.7064e-05,-24.897,-5.8473e-05,-592.45,0.13796
1458,9.7718,2.2392,0.05,6.768e-07,6.7633,5.197e-07,3.9048,-2.1928e-13,1.3003e-07,-5.197e-07,-3.9048,0.13798
1459,10.887,2.2104,0,4.9881e-05,498.47,1.694e-05,-0.047269,1.5642e-05,-9.7977,-5.0042e-05,-503.32,0.16701
1460,10.512,2.6844,0,5.2474e-05,524.38,1.8025e-05,0.050843,1.6113e-05,-14.313,-5.2702e-05,-531.37,0.15718
1461,10.512,2.2104,0.05,6.0601e-07,6.0559,4.6534e-07,3.4964,4.2843e-15,4.6011e-07,-4.6534e-07,-3.4964,0.1571
1462,11.636,2.2104,0,4.4633e-05,446.02,1.4906e-05,-0.13238,1.4417e-05,-3.8085,-4.4699e-05,-447.98,0.18723
1463,11.261,2.6844,0,4.7127e-05,470.94,1.5889e-05,-0.06893,1.4974e-05,-6.9433,-4.7242e-05,-474.41,0.17712
1464,11.261,2.2104,0.05,5.6732e-07,5.6693,4.3563e-07,3.2732,2.2263e-15,1.0339e-06,-4.3563e-07,-3.2732,0.17705
1465,12.385,2.2104,0,3.9635e-05,396.07,1.314e-05,0.59471,1.3032e-05,-0.21262,-3.9628e-05,-395.88,0.20795
1466,12.011,2.6844,0,4.2016e-05,419.87,1.3929e-05,-0.17959,1.3741e-05,-1.592,-4.2046e-05,-420.76,0.1976
1467,12.011,2.2104,0.05,5.4047e-07,5.401,4.1501e-07,3.1183,1.1015e-15,1.2016e-06,-4.1501e-07,-3.1183,0.19753
1468,13.135,2.2104,0,3.4903e-05,348.79,1.184e-05,3.7154,1.1313e-05,-0.24762,-3.4842e-05,-347.04,0.22912
1469,12.76,2.6844,0,3.7163e-05,371.37,1.246e-05,2.222,1.2136e-05,-0.20881,-3.7128e-05,-370.36,0.21854
1470,12.76,2.2104,0.05,5.0537e-07,5.0502,3.8806e-07,2.9158,1.878e-17,1.1923e-06,-3.8806e-07,-2.9158,0.21848
1471,13.883,2.2284,0,3.0452e-05,304.31,1.0558e-05,5.9412,9.7303e-06,-0.27429,-3.0351e-05,-301.43,0.25066
1472,13.509,2.6844,0,3.2576e-05,325.54,1.1174e-05,4.9466,1.0484e-05,-0.24347,-3.2493e-05,-323.15,0.23991
1473,13.509,2.2104,0.05,4.5948e-07,4.5916,3.5282e-07,2.651,1.0537e-15,1.4379e-06,-3.5282e-07,-2.651,0.23985
1474,14.63,2.2587,0,2.6295e-05,262.77,9.3309e-06,7.6235,8.264e-06,-0.39319,-2.6163e-05,-259.07,0.27248
1475,14.258,2.7024,0,2.8266e-05,282.46,9.919e-06,6.8497,8.9499e-06,-0.43203,-2.8149e-05,-279.18,0.26161
1476,14.257,2.2463,0.05,4.193e-07,4.1901,3.2197e-07,2.4192,1.2357e-15,1.2016e-06,-3.2197e-07,-2.4192,0.26154
1477,15.38,2.2407,0,2.243e-05,224.14,8.1572e-06,8.8615,6.925e-06,-0.39696,-2.2272e-05,-219.77,0.29469
1478,15.005,2.685,0,2.4262e-05,242.45,8.7224e-06,8.38,7.5543e-06,-0.39691,-2.4114e-05,-238.34,0.2836
1479,15.002,2.271,0.05,4.1849e-07,4.182,3.2135e-07,2.4145,-2.0852e-15,1.6851e-06,-3.2135e-07,-2.4145,0.28347
1480,16.132,2.2027,0,1.8864e-05,188.51,7.044e-06,9.7045,5.7137e-06,-0.29099,-1.8684e-05,-183.61,0.31722
1481,15.759,2.6375,0,2.0547e-05,205.33,7.5705e-06,9.3854,6.2908e-06,-0.2295,-2.0374e-05,-200.58,0.30605
1482,15.757,2.2104,0.05,4.0257e-07,4.0229,3.0912e-07,2.3226,-2.7929e-20,1.2914e-06,-3.0912e-07,-2.3226,0.30596
1483,16.881,2.1931,0,1.562e-05,156.09,6.0255e-06,10.319,4.6045e-06,-0.35749,-1.5423e-05,-150.84,0.33986
1484,16.508,2.6395,0,1.7139e-05,171.27,6.512e-06,10.114,5.1144e-06,-0.38673,-1.6949e-05,-166.16,0.32858
1485,16.507,2.195,0.05,3.4239e-07,3.4215,2.6291e-07,1.9754,1.1379e-13,1.8349e-06,-2.6291e-07,-1.9754,0.32852
1486,17.631,2.1909,0,1.2695e-05,126.87,5.0933e-06,10.709,3.6112e-06,-0.42618,-1.2484e-05,-121.36,0.36268
1487,17.256,2.6352,0,1.4067e-05,140.57,5.5384e-06,10.63,4.0734e-06,-0.37701,-1.386e-05,-135.12,0.35127
1488,17.256,2.1912,0.05,2.9328e-07,2.9308,2.252e-07,1.6921,1.1234e-13,1.9035e-06,-2.252e-07,-1.6921,0.35125
1489,18.379,2.222,0,1.0104e-05,100.97,4.2598e-06,11.04,2.7392e-06,-0.38519,-9.874e-06,-95.156,0.3856
1490,18.004,2.6215,0,1.1311e-05,113.03,4.6553e-06,10.952,3.1393e-06,-0.43933,-1.1089e-05,-107.35,0.37411
1491,18.005,2.1906,0.05,2.6813e-07,2.6795,2.0589e-07,1.547,1.1284e-13,2.2216e-06,-2.0589e-07,-1.547,0.37414
1492,19.122,2.2529,0,7.8478e-06,78.424,3.5225e-06,11.208,1.9841e-06,-0.3512,-7.5989e-06,-72.354,0.40849
1493,18.75,2.6446,0,8.8882e-06,88.821,3.8775e-06,11.29,2.3206e-06,-0.40791,-8.6451e-06,-82.8,0.39703
1494,18.752,2.2535,0.05,2.421e-07,2.4193,1.859e-07,1.3968,5.6636e-14,2.1691e-06,-1.859e-07,-1.3968,0.39708
1495,19.861,2.251,0,5.9198e-06,59.157,2.8873e-06,11.289,1.3331e-06,-0.38842,-5.6472e-06,-52.836,0.43132
1496,19.496,2.6449,0,6.7947e-06,67.9,3.1879e-06,11.413,1.6222e-06,-0.35141,-6.5296e-06,-61.6,0.42005
1497,19.492,2.2523,0.05,2.0832e-07,2.0817,1.5996e-07,1.2019,1.0955e-13,2.238e-06,-1.5996e-07,-1.2019,0.41991
1498,20.616,2.2371,0,4.298e-06,42.951,2.3514e-06,11.417,7.7836e-07,-0.40201,-3.9868e-06,-36.206,0.45471
1499,20.24,2.6363,0,5.0228e-06,50.193,2.6126e-06,11.616,1.0113e-06,-0.41542,-4.7228e-06,-43.5,0.44307
1500,20.229,2.2498,0.05,1.7111e-07,1.7099,1.3139e-07,0.98724,1.3731e-13,2.3534e-06,-1.3139e-07,-0.98724,0.44273
1501,21.002,2.6173,0,3.5759e-06,35.734,2.1248e-06,11.696,5.1662e-07,-0.38733,-3.2268e-06,-28.514,0.4667
1502,21.002,2.2244,0.05,1.4269e-07,1.4259,1.0957e-07,0.82323,1.9344e-13,2.3619e-06,-1.0957e-07,-0.82323,0.4667
1503,3.8858,1.6156,0,0.00012583,1257.5,4.5097e-05,36.688,3.8794e-05,-10.673,-0.00012532,-1243.8,0.020737
1504,4.1361,1.6725,0.05,4.6105e-06,46.074,3.5403e-06,26.601,9.09e-13,1.5251e-05,-3.5403e-06,-26.601,0.023441
1505,6.528,3.48,0,0.0001112,1111.2,4.1748e-05,-11.168,2.6773e-05,-123.68,-0.00011307,-1174.4,0.062848
1506,6.7094,3.9548,0,9.4683e-05,946.18,3.4338e-05,-2.5978,2.5641e-05,-67.939,-9.5713e-05,-979.75,0.066411
1507,6.6922,3.6998,0.05,1.5673e-06,15.662,1.2035e-06,9.0424,1.892e-13,2.4924e-06,-1.2035e-06,-9.0424,0.066151
1508,6.5536,3.1092,0,0.00011344,1133.6,4.2509e-05,-11.256,2.7468e-05,-124.27,-0.00011532,-1197.1,0.06344
1509,6.3639,3.2602,0.05,2.5973e-06,25.956,1.9944e-06,14.985,2.1116e-13,2.6705e-06,-1.9944e-06,-14.985,0.059571
1510,21.379,3.0124,0,3.0622e-06,30.601,1.9783e-06,12.124,3.0969e-07,-0.41307,-2.6637e-06,-22.754,0.4784
1511,21.756,3.0145,0.05,1.034e-07,1.0333,7.9401e-08,0.59659,1.4239e-13,2.6247e-06,-7.9401e-08,-0.59658,0.49012
1512,21.006,3.3916,0,3.5684e-06,35.66,2.1287e-06,11.791,5.0999e-07,-0.37066,-3.2149e-06,-28.358,0.46682
1513,21.011,3.773,0.05,1.3615e-07,1.3606,1.0455e-07,0.78553,1.1732e-13,2.5318e-06,-1.0455e-07,-0.78553,0.46695
1514,2.7716,3.2424,0,0.00012661,1265.2,5.4859e-05,2.0717,1.7858e-05,-275.94,-0.00012895,-1379,0.011111
1515,2.4188,2.9892,0.05,1.2567e-06,12.558,9.6497e-07,7.2504,-9.2747e-14,-1.4715e-08,-9.6497e-07,-7.2504,0.0085319
1516,3.6138,1.8124,0,0.00012642,1263.3,4.54e-05,0.86548,3.544e-05,-73.97,-0.0001275,-1298.2,0.018175
1517,3.6355,1.5586,0.05,3.8048e-06,38.022,2.9216e-06,21.952,-6.1973e-22,2.9335e-06,-2.9216e-06,-21.952,0.018175
1518,2.9972,3.7492,0,0.00012606,1259.7,5.1535e-05,-0.3261,2.3646e-05,-209.87,-0.00012832,-1351.7,0.012822
1519,2.87,4.0028,0.05,6.9362e-07,6.9314,5.3262e-07,4.0019,8.5714e-14,1.4079e-05,-5.3262e-07,-4.0019,0.011694
1520,3.7117,2.3289,0,0.00013295,1328.5,4.9577e-05,-9.8049,3.2961e-05,-134.65,-0.00013496,-1396.4,0.019437
1521,3.592,2.0661,0.05,1.5373e-06,15.362,1.1804e-06,8.8692,3.2606e-12,1.4195e-05,-1.1804e-06,-8.8692,0.018115
1522,3.9088,3.1087,0,0.00014475,1446.5,5.4695e-05,-9.3079,3.4706e-05,-159.5,-0.00014703,-1525,0.02164
1523,3.9909,2.8054,0,0.00014817,1480.6,5.4879e-05,-4.8121,3.7999e-05,-131.64,-0.00015008,-1544.8,0.022528
1524,4.1503,3.0191,0.05,3.8817e-06,38.79,2.9807e-06,22.395,-9.6021e-14,-3.1508e-06,-2.9807e-06,-22.395,0.024333
1525,6.483,2.771,0,0.00011707,1169.9,4.4888e-05,12.814,2.8843e-05,-107.74,-0.00011822,-1212.7,0.061998
1526,6.2227,2.5839,0.05,1.9964e-06,19.95,1.533e-06,11.518,-7.1658e-13,3.3943e-06,-1.533e-06,-11.518,0.05675
1527,20.626,3.0166,0,4.3166e-06,43.137,2.4053e-06,12.039,7.4931e-07,-0.40287,-3.9818e-06,-35.951,0.45504
1528,21.002,3.0102,0.05,1.3778e-07,1.3768,1.058e-07,0.79493,1.4171e-13,2.6194e-06,-1.058e-07,-0.79492,0.46669
1529,19.875,3.0302,0,5.9191e-06,59.15,2.9349e-06,11.903,1.3001e-06,-0.38027,-5.6266e-06,-52.425,0.43178
1530,20.251,3.0229,0.05,1.6852e-07,1.6841,1.294e-07,0.97229,1.136e-13,2.3835e-06,-1.294e-07,-0.97229,0.4434
1531,19.124,3.0367,0,7.8623e-06,78.569,3.5678e-06,11.682,1.9586e-06,-0.4093,-7.6004e-06,-72.232,0.40856
1532,19.5,3.0375,0.05,2.1402e-07,2.1388,1.6434e-07,1.2348,8.533e-14,2.1463e-06,-1.6434e-07,-1.2348,0.42018
1533,18.375,3.0441,0,1.0127e-05,101.2,4.301e-06,11.411,2.7206e-06,-0.46295,-9.8881e-06,-95.199,0.3855
1534,18.748,3.0358,0.05,2.4936e-07,2.4919,1.9148e-07,1.4387,1.1261e-13,2.0195e-06,-1.9148e-07,-1.4387,0.39696
1535,17.629,3.0658,0,1.2716e-05,127.07,5.1297e-06,11.093,3.6013e-06,-0.39144,-1.2495e-05,-121.33,0.36265
1536,18.002,3.0524,0.05,2.6656e-07,2.6637,2.0468e-07,1.5379,1.1307e-13,1.9919e-06,-2.0468e-07,-1.5379,0.37406
1537,16.882,3.0816,0,1.562e-05,156.09,6.0551e-06,10.652,4.5831e-06,-0.40822,-1.5416e-05,-150.67,0.33992
1538,17.256,3.0792,0.05,2.9531e-07,2.9511,2.2676e-07,1.7038,1.131e-13,1.9328e-06,-2.2676e-07,-1.7038,0.35127
1539,16.135,3.0743,0,1.8852e-05,188.39,7.0665e-06,10.006,5.6913e-06,-0.327,-1.8666e-05,-183.34,0.31733
1540,16.509,3.0841,0.05,3.2685e-07,3.2662,2.5098e-07,1.8858,1.1572e-13,1.8848e-06,-2.5098e-07,-1.8858,0.3286
1541,15.385,3.0818,0,2.2412e-05,223.97,8.1648e-06,9.1231,6.92e-06,-0.23031,-2.2246e-05,-219.37,0.29487
1542,15.761,3.0646,0.05,3.7846e-07,3.782,2.9061e-07,2.1835,5.5322e-14,1.5459e-06,-2.9061e-07,-2.1835,0.30611
1543,14.633,3.1287,0,2.6265e-05,262.47,9.3394e-06,7.8232,8.2403e-06,-0.43511,-2.6129e-05,-258.68,0.27263
1544,15.008,3.099,0.05,4.3477e-07,4.3447,3.3385e-07,2.5084,-3.0142e-15,1.43e-06,-3.3385e-07,-2.5084,0.28369
1545,13.884,3.1584,0,3.042e-05,303.99,1.0563e-05,6.0607,9.7033e-06,-0.40166,-3.0319e-05,-301.11,0.25073
1546,14.259,3.1584,0.05,4.4842e-07,4.4811,3.4433e-07,2.5872,-7.1776e-17,1.6683e-06,-3.4433e-07,-2.5872,0.26163
1547,13.135,3.1584,0,3.4866e-05,348.42,1.1821e-05,3.6576,1.1307e-05,-0.20505,-3.4806e-05,-346.68,0.22918
1548,13.509,3.1584,0.05,4.5231e-07,4.52,3.4732e-07,2.6096,-3.2955e-17,1.3706e-06,-3.4732e-07,-2.6096,0.23991
1549,12.385,3.1584,0,3.9571e-05,395.44,1.3086e-05,0.22242,1.3032e-05,-0.17985,-3.9571e-05,-395.42,0.20802
1550,12.76,3.1584,0.05,4.9734e-07,4.9699,3.8189e-07,2.8694,-1.1306e-15,1.184e-06,-3.8189e-07,-2.8694,0.21854
1551,11.636,3.1584,0,4.4531e-05,445,1.4912e-05,-0.11638,1.4318e-05,-4.5785,-4.4609e-05,-447.33,0.1873
1552,12.011,3.1584,0.05,5.3527e-07,5.349,4.1102e-07,3.0883,2.27e-13,1.1893e-06,-4.1102e-07,-3.0883,0.1976
1553,10.887,3.1584,0,4.9734e-05,497,1.6974e-05,0.029328,1.5459e-05,-11.353,-4.9917e-05,-502.56,0.16709
1554,11.261,3.1584,0.05,5.6869e-07,5.683,4.3668e-07,3.2811,-1.2281e-15,1.0035e-06,-4.3668e-07,-3.2811,0.17712
1555,10.138,3.1279,0,5.5205e-05,551.67,1.9261e-05,0.20522,1.6448e-05,-20.931,-5.5527e-05,-561.73,0.14745
1556,10.512,3.1584,0.05,6.1851e-07,6.1808,4.7494e-07,3.5685,5.1505e-16,8.5259e-07,-4.7494e-07,-3.5685,0.15718
1557,9.3923,3.0638,0,6.1051e-05,610.09,2.1818e-05,-0.54218,1.7213e-05,-35.139,-6.1585e-05,-627.2,0.12851
1558,9.7638,3.0974,0.05,6.7584e-07,6.7538,5.1896e-07,3.8993,2.315e-16,7.1704e-07,-5.1896e-07,-3.8993,0.13786
1559,8.6502,2.9873,0,6.7904e-05,678.57,2.5097e-05,0.54732,1.7774e-05,-54.474,-6.8653e-05,-703.86,0.11034
1560,9.0208,3.0303,0.05,6.9779e-07,6.9731,5.3581e-07,4.0259,-1.4203e-14,-1.8259e-08,-5.3582e-07,-4.0259,0.11932
1561,7.9335,2.8684,0,7.6021e-05,759.69,2.8785e-05,1.1541,1.8704e-05,-74.59,-7.6987e-05,-793.57,0.093505
1562,8.2796,2.9442,0.05,1.0853e-06,10.845,8.3336e-07,6.2615,-1.8851e-13,6.8468e-07,-8.3336e-07,-6.2615,0.10154
1563,7.2724,2.6489,0,8.6404e-05,863.45,3.2971e-05,2.1294,2.087e-05,-88.792,-8.7518e-05,-903.18,0.078661
1564,7.5873,2.7925,0.05,8.3049e-07,8.2992,6.3771e-07,4.7915,-1.1482e-13,-1.2709e-06,-6.3771e-07,-4.7915,0.085641
1565,6.8504,2.7318,0,9.8952e-05,988.84,3.7641e-05,-0.86048,2.3798e-05,-104.87,-0.00010034,-1037.6,0.069598
1566,6.9574,2.5053,0.05,1.2897e-06,12.889,9.9036e-07,7.4412,-2.4827e-13,-1.2848e-06,-9.9036e-07,-7.4412,0.071825
1567,3.3959,3.347,0,0.0001298,1297.1,5.2183e-05,-12.091,2.4873e-05,-217.28,-0.00013248,-1399.6,0.016442
1568,3.6673,3.1983,0.05,2.0905e-06,20.891,1.6053e-06,12.061,5.0766e-14,4.2935e-07,-1.6053e-06,-12.061,0.019098
1569,3.8314,2.5916,0.05,2.5275e-06,25.258,1.9408e-06,14.583,-1.8961e-13,1.9118e-05,-1.9408e-06,-14.583,0.020755
1570,6.7433,2.9582,0.05,1.2635e-06,12.626,9.702e-07,7.2897,1.0143e-12,9.7824e-07,-9.702e-07,-7.2897,0.067354
1571,4.3671,3.8887,0.05,9.0412e-06,90.35,6.9425e-06,52.164,-1.4726e-21,1.2004e-06,-6.9425e-06,-52.164,0.02649
1572,6.7267,4.2098,0.05,2.2861e-06,22.845,1.7555e-06,13.19,5.3283e-15,3.4441e-07,-1.7555e-06,-13.19,0.066624
1573,3.1244,3.4956,0.05,1.7607e-06,17.595,1.352e-06,10.158,-2.3308e-13,-7.3728e-08,-1.352e-06,-10.158,0.013957
1574,3.3959,3.347,0.1,0.0001298,1297.1,0.00013248,1399.6,-2.4873e-05,217.28,-5.2183e-05,12.091,0.016442
1575,2.9972,3.7492,0.1,0.00012606,1259.7,0.00012832,1351.7,-2.3646e-05,209.87,-5.1535e-05,0.3261,0.012822
1576,2.7716,3.2424,0.1,0.00012661,1265.2,0.00012895,1379,-1.7858e-05,275.94,-5.4859e-05,-2.0717,0.011111
1577,3.4173,3.671,0.1,0.00012626,1261.8,0.00012881,1360.7,-2.3899e-05,213.31,-5.1038e-05,9.3958,0.016556
1578,6.7094,3.9548,0.1,9.4683e-05,946.18,9.5713e-05,979.75,-2.5641e-05,67.939,-3.4338e-05,2.5978,0.066411
1579,7.0404,4.3439,0.1,8.3536e-05,834.79,8.3969e-05,848.47,-2.4853e-05,30.818,-2.9283e-05,-2.4635,0.073235
1580,6.5039,4.4429,0.1,8.889e-05,888.28,8.8084e-05,865.2,-2.8293e-05,-9.2135,-3.1903e-05,-36.336,0.061826
1581,6.4342,4.1834,0.1,9.9149e-05,990.8,9.8754e-05,981.26,-2.9464e-05,17.875,-3.6482e-05,-34.851,0.060587
1582,4.3003,3.7423,0.1,0.00015479,1546.8,0.00015534,1564.5,-4.6535e-05,47.737,-5.4312e-05,-10.694,0.025829
1583,4.284,4.0075,0.1,0.00014768,1475.8,0.00014744,1469.3,-4.6461e-05,12.424,-5.1403e-05,-24.706,0.025416
1584,4.532,3.9026,0.1,0.00017161,1714.9,0.00017256,1744.5,-5.1528e-05,60.789,-5.9608e-05,0.077717,0.028483
1585,6.8504,2.7318,0.1,9.8952e-05,988.84,0.00010034,1037.6,-2.3798e-05,104.87,-3.7641e-05,0.86048,0.069598
1586,6.483,2.771,0.1,0.00011707,1169.9,0.00011822,1212.7,-2.8843e-05,107.74,-4.4888e-05,-12.814,0.061998
1587,6.5536,3.1092,0.1,0.00011344,1133.6,0.00011532,1197.1,-2.7468e-05,124.27,-4.2509e-05,11.256,0.06344
1588,7.0698,3.26,0.1,9.3583e-05,935.19,9.5097e-05,988.68,-2.1602e-05,111.85,-3.59e-05,4.4227,0.074262
1589,3.9909,2.8054,0.1,0.00014817,1480.6,0.00015008,1544.8,-3.7999e-05,131.64,-5.4879e-05,4.8121,0.022528
1590,3.7117,2.3289,0.1,0.00013295,1328.5,0.00013496,1396.4,-3.2961e-05,134.65,-4.9577e-05,9.8049,0.019437
1591,4.0946,2.5367,0.1,0.00015364,1535.4,0.00015525,1587.1,-4.2256e-05,103.14,-5.5313e-05,5.035,0.023618
1592,3.5239,2.655,0.1,0.00013331,1332.2,0.00013562,1418.9,-2.7995e-05,189.59,-5.2781e-05,3.3495,0.017667
1593,3.9088,3.1087,0.1,0.00014475,1446.5,0.00014703,1525,-3.4706e-05,159.5,-5.4695e-05,9.3079,0.02164
1594,3.9504,3.3971,0.1,0.0001461,1460,0.00014795,1520.3,-3.8801e-05,117.12,-5.3115e-05,9.5682,0.022037
1595,3.4418,2.9584,0.1,0.00012979,1297.1,0.00013235,1397.5,-2.445e-05,219.34,-5.2633e-05,7.5813,0.016907
1596,7.2724,2.6489,0.1,8.6404e-05,863.45,8.7518e-05,903.18,-2.087e-05,88.792,-3.2971e-05,-2.1294,0.078661
1597,6.9687,2.2042,0.1,8.9706e-05,896.44,9.0584e-05,927.16,-2.321e-05,72.16,-3.3566e-05,-5.6515,0.071994
1598,6.6244,2.3227,0.1,0.00010292,1028.5,0.0001035,1051.5,-2.6799e-05,72.541,-3.9138e-05,-20.165,0.064792
1599,7.9335,2.8684,0.1,7.6021e-05,759.69,7.6987e-05,793.57,-1.8704e-05,74.59,-2.8785e-05,-1.1541,0.093505
1600,7.6011,2.4255,0.1,7.9467e-05,794.12,8.0395e-05,826.33,-2.0089e-05,71.329,-2.9827e-05,-1.8398,0.085912
1601,7.4918,3.1772,0.1,8.1044e-05,809.88,8.2282e-05,854.32,-1.8671e-05,95.792,-3.1239e-05,1.363,0.083511
1602,8.6502,2.9873,0.1,6.7904e-05,678.57,6.8653e-05,703.86,-1.7774e-05,54.474,-2.5097e-05,-0.54732,0.11034
1603,8.244,3.3357,0.1,7.2065e-05,720.15,7.2901e-05,749.05,-1.83e-05,63.799,-2.6998e-05,-1.5538,0.10068
1604,8.2985,2.56,0.1,7.1323e-05,712.73,7.2094e-05,739.04,-1.8556e-05,57.927,-2.6477e-05,-1.5893,0.10196
1605,9.3923,3.0638,0.1,6.1051e-05,610.09,6.1585e-05,627.2,-1.7213e-05,35.139,-2.1818e-05,0.54218,0.12851
1606,9.0265,2.6246,0.1,6.4174e-05,641.3,6.4771e-05,660.59,-1.7842e-05,39.868,-2.3079e-05,0.52455,0.11945
1607,9.0024,3.41,0.1,6.4353e-05,643.08,6.4984e-05,663.58,-1.772e-05,42.177,-2.3224e-05,0.82429,0.11884
1608,10.138,3.1279,0.1,5.5205e-05,551.67,5.5527e-05,561.73,-1.6448e-05,20.931,-1.9261e-05,-0.20522,0.14745
1609,9.7678,2.6683,0.1,5.8096e-05,580.56,5.8473e-05,592.45,-1.7064e-05,24.897,-2.0415e-05,-0.28037,0.13796
1610,9.7557,3.4667,0.1,5.8144e-05,581.04,5.8533e-05,593.27,-1.7064e-05,25.258,-2.0423e-05,0.022631,0.13762
1611,10.887,3.1584,0.1,4.9734e-05,497,4.9917e-05,502.56,-1.5459e-05,11.353,-1.6974e-05,-0.029328,0.16709
1612,10.512,2.6844,0.1,5.2474e-05,524.38,5.2702e-05,531.37,-1.6113e-05,14.313,-1.8025e-05,-0.050843,0.15718
1613,10.51,3.5098,0.1,5.2477e-05,524.41,5.2707e-05,531.46,-1.6113e-05,14.369,-1.8022e-05,0.022463,0.15709
1614,11.636,3.1584,0.1,4.4531e-05,445,4.4609e-05,447.33,-1.4318e-05,4.5785,-1.4912e-05,0.11638,0.1873
1615,11.261,2.6844,0.1,4.7127e-05,470.94,4.7242e-05,474.41,-1.4974e-05,6.9433,-1.5889e-05,0.06893,0.17712
1616,11.261,3.5136,0.1,4.7128e-05,470.95,4.7241e-05,474.36,-1.4987e-05,6.8004,-1.5881e-05,0.078664,0.17709
1617,12.385,3.1584,0.1,3.9571e-05,395.44,3.9571e-05,395.42,-1.3032e-05,0.17985,-1.3086e-05,-0.22242,0.20802
1618,12.011,2.6844,0.1,4.2016e-05,419.87,4.2046e-05,420.76,-1.3741e-05,1.592,-1.3929e-05,0.17959,0.1976
1619,12.011,3.5136,0.1,4.2021e-05,419.92,4.205e-05,420.76,-1.3753e-05,1.4812,-1.3924e-05,0.19631,0.19756
1620,13.135,3.1584,0.1,3.4866e-05,348.42,3.4806e-05,346.68,-1.1307e-05,0.20505,-1.1821e-05,-3.6576,0.22918
1621,12.76,2.6844,0.1,3.7163e-05,371.37,3.7128e-05,370.36,-1.2136e-05,0.20881,-1.246e-05,-2.222,0.21854
1622,12.76,3.5136,0.1,3.717e-05,371.45,3.7134e-05,370.38,-1.2131e-05,0.22553,-1.2473e-05,-2.3387,0.21851
1623,13.884,3.1584,0.1,3.042e-05,303.99,3.0319e-05,301.11,-9.7033e-06,0.40166,-1.0563e-05,-6.0607,0.25073
1624,13.509,2.6844,0.1,3.2576e-05,325.54,3.2493e-05,323.15,-1.0484e-05,0.24347,-1.1174e-05,-4.9466,0.23991
1625,13.509,3.5136,0.1,3.2579e-05,325.56,3.2494e-05,323.13,-1.0475e-05,0.28674,-1.1188e-05,-5.0735,0.23988
1626,14.633,3.1287,0.1,2.6265e-05,262.47,2.6129e-05,258.68,-8.2403e-06,0.43511,-9.3394e-06,-7.8232,0.27263
1627,14.258,2.7024,0.1,2.8266e-05,282.46,2.8149e-05,279.18,-8.9499e-06,0.43203,-9.919e-06,-6.8497,0.26161
1628,14.261,3.5098,0.1,2.8261e-05,282.42,2.8142e-05,279.04,-8.9526e-06,0.32915,-9.92e-06,-6.9395,0.26168
1629,15.385,3.0818,0.1,2.2412e-05,223.97,2.2246e-05,219.37,-6.92e-06,0.23031,-8.1648e-06,-9.1231,0.29487
1630,15.005,2.685,0.1,2.4262e-05,242.45,2.4114e-05,238.34,-7.5543e-06,0.39691,-8.7224e-06,-8.38,0.2836
1631,15.01,3.4723,0.1,2.4249e-05,242.32,2.4098e-05,238.12,-7.5569e-06,0.27653,-8.7176e-06,-8.4441,0.28373
1632,16.135,3.0743,0.1,1.8852e-05,188.39,1.8666e-05,183.34,-5.6913e-06,0.327,-7.0665e-06,-10.006,0.31733
1633,15.759,2.6375,0.1,2.0547e-05,205.33,2.0374e-05,200.58,-6.2908e-06,0.2295,-7.5705e-06,-9.3854,0.30605
1634,15.76,3.4584,0.1,2.0538e-05,205.24,2.0366e-05,200.52,-6.2754e-06,0.34581,-7.5773e-06,-9.4355,0.30605
1635,16.882,3.0816,0.1,1.562e-05,156.09,1.5416e-05,150.67,-4.5831e-06,0.40822,-6.0551e-06,-10.652,0.33992
1636,16.508,2.6395,0.1,1.7139e-05,171.27,1.6949e-05,166.16,-5.1144e-06,0.38673,-6.512e-06,-10.114,0.32858
1637,16.508,3.4673,0.1,1.714e-05,171.28,1.695e-05,166.17,-5.1105e-06,0.42078,-6.5164e-06,-10.142,0.32857
1638,17.629,3.0658,0.1,1.2716e-05,127.07,1.2495e-05,121.33,-3.6013e-06,0.39144,-5.1297e-06,-11.093,0.36265
1639,17.256,2.6352,0.1,1.4067e-05,140.57,1.386e-05,135.12,-4.0734e-06,0.37701,-5.5384e-06,-10.63,0.35127
1640,17.256,3.4643,0.1,1.4071e-05,140.62,1.3864e-05,135.14,-4.0771e-06,0.34044,-5.5394e-06,-10.647,0.35126
1641,18.375,3.0441,0.1,1.0127e-05,101.2,9.8881e-06,95.199,-2.7206e-06,0.46295,-4.301e-06,-11.411,0.3855
1642,18.004,2.6215,0.1,1.1311e-05,113.03,1.1089e-05,107.35,-3.1393e-06,0.43933,-4.6553e-06,-10.952,0.37411
1643,18.004,3.4507,0.1,1.1315e-05,113.07,1.1091e-05,107.33,-3.1446e-06,0.36935,-4.656e-06,-10.987,0.3741
1644,19.124,3.0367,0.1,7.8623e-06,78.569,7.6004e-06,72.232,-1.9586e-06,0.4093,-3.5678e-06,-11.682,0.40856
1645,18.75,2.6446,0.1,8.8882e-06,88.821,8.6451e-06,82.8,-2.3206e-06,0.40791,-3.8775e-06,-11.29,0.39703
1646,18.752,3.4329,0.1,8.8806e-06,88.745,8.6372e-06,82.715,-2.3186e-06,0.39792,-3.8751e-06,-11.297,0.39707
1647,19.875,3.0302,0.1,5.9191e-06,59.15,5.6266e-06,52.425,-1.3001e-06,0.38027,-2.9349e-06,-11.903,0.43178
1648,19.496,2.6449,0.1,6.7947e-06,67.9,6.5296e-06,61.6,-1.6222e-06,0.35141,-3.1879e-06,-11.413,0.42005
1649,19.505,3.4279,0.1,6.7709e-06,67.663,6.5023e-06,61.299,-1.6059e-06,0.37724,-3.19e-06,-11.525,0.42032
1650,20.626,3.0166,0.1,4.3166e-06,43.137,3.9818e-06,35.951,-7.4931e-07,0.40287,-2.4053e-06,-12.039,0.45504
1651,20.24,2.6363,0.1,5.0228e-06,50.193,4.7228e-06,43.5,-1.0113e-06,0.41542,-2.6126e-06,-11.616,0.44307
1652,20.257,3.4166,0.1,4.9925e-06,49.891,4.6904e-06,43.153,-1.0008e-06,0.39142,-2.6047e-06,-11.659,0.44358
1653,21.006,3.3916,0.1,3.5684e-06,35.66,3.2149e-06,28.358,-5.1e-07,0.37066,-2.1287e-06,-11.791,0.46682
1654,21.379,3.0124,0.1,3.0622e-06,30.601,2.6637e-06,22.754,-3.0969e-07,0.41307,-1.9783e-06,-12.124,0.4784
1655,21.002,2.6173,0.1,3.5759e-06,35.734,3.2268e-06,28.514,-5.1662e-07,0.38733,-2.1248e-06,-11.696,0.4667
1656,6.0957,2.7458,0.1,0.00014384,1437.4,0.00014462,1463.9,-4.0907e-05,69.923,-5.1983e-05,-13.3,0.054324
1657,6.2571,2.362,0.1,0.00012152,1214.3,0.00012183,1230,-3.2329e-05,71.772,-4.6347e-05,-33.555,0.057362
1658,5.985,2.4327,0.1,0.00014681,1467.1,0.00014776,1495.5,-4.5293e-05,44.938,-4.9641e-05,12.271,0.052095
1659,4.3522,3.2195,0.1,0.00017561,1754.9,0.00017647,1781.7,-5.2758e-05,59.38,-6.1211e-05,-4.1329,0.026711
1660,4.3857,2.9419,0.1,0.00017928,1791.5,0.00018,1813.5,-5.5411e-05,44.737,-6.1361e-05,0.032396,0.02715
1661,3.6138,1.8124,0.1,0.00012642,1263.3,0.0001275,1298.2,-3.544e-05,73.97,-4.54e-05,-0.86548,0.018175
1662,3.894,2.07,0.1,0.0001357,1356.1,0.00013679,1391.5,-3.8214e-05,76.535,-4.8713e-05,-2.3561,0.021186
1663,3.2667,2.0881,0.1,0.00012551,1254.2,0.0001277,1331,-2.8706e-05,155.85,-4.8049e-05,10.521,0.015095
1664,3.2019,4.1322,0.1,0.00012264,1225.6,0.00012432,1286.4,-2.8726e-05,136.48,-4.728e-05,-2.9271,0.014401
1665,2.5329,3.9052,0.1,0.00012617,1260.8,0.00012814,1355.6,-2.0369e-05,239.81,-5.3897e-05,-12.113,0.0092113
1666,2.8481,4.3288,0.1,0.00012402,1239.3,0.00012573,1305.6,-2.7214e-05,156.44,-4.9031e-05,-7.4877,0.011375
1667,3.8858,1.6156,0.1,0.00012583,1257.5,0.00012532,1243.8,-3.8794e-05,10.673,-4.5097e-05,-36.688,0.020737
1668,3.3371,1.4383,0.1,0.00012187,1217.8,0.00012266,1244.7,-3.3966e-05,67.918,-4.4382e-05,-10.347,0.015314
1669,3.8141,1.2984,0.1,0.00011301,1129.3,0.00011225,1108.7,-3.4654e-05,4.8757,-4.1224e-05,-44.489,0.019677
1670,2.3073,3.3984,0.1,0.00012684,1267.5,0.00012871,1382.5,-1.4528e-05,306.27,-5.7222e-05,-14.51,0.0077724
1671,2.3285,2.5867,0.1,0.00012687,1267.8,0.00012878,1382.1,-1.4929e-05,302.32,-5.7016e-05,-13.908,0.0079126
1672,1.9677,2.9864,0.1,0.00013006,1299.7,0.00013312,1470.3,-9.2848e-06,400.31,-5.9375e-05,23.953,0.0057101
1673,2.8176,2.8538,0.1,0.00012674,1266.5,0.00012895,1377.8,-1.7587e-05,276.85,-5.5275e-05,-6.3221,0.01148
1674,20.637,3.7916,0.1,4.2612e-06,42.582,3.9434e-06,35.71,-7.6123e-07,0.36151,-2.3483e-06,-11.563,0.45535
1675,21.384,3.7832,0.1,3.0045e-06,30.024,2.6293e-06,22.566,-3.2678e-07,0.35587,-1.917e-06,-11.592,0.47854
1676,21.011,4.1569,0.1,3.4813e-06,34.789,3.1688e-06,28.249,-5.3909e-07,0.38951,-2.0208e-06,-10.744,0.46692
1677,21.76,2.6341,0.1,2.4897e-06,24.88,2.0575e-06,16.79,-1.2205e-07,0.41393,-1.7529e-06,-11.84,0.49024
1678,21.757,3.404,0.1,2.4904e-06,24.887,2.0612e-06,16.836,-1.2676e-07,0.39613,-1.7495e-06,-11.797,0.49013
1679,22.133,3.017,0.1,2.16e-06,21.585,1.6616e-06,12.706,2.4382e-08,0.40469,-1.6556e-06,-12.218,0.50183
1680,6.528,3.48,0.1,0.0001112,1111.2,0.00011307,1174.4,-2.6773e-05,123.68,-4.1748e-05,11.168,0.062848
1681,6.1663,3.0839,0.1,0.00013997,1398.7,0.00014149,1446.6,-3.9257e-05,88.509,-4.9649e-05,10.432,0.055707
1682,6.1337,3.3481,0.1,0.00014113,1410.4,0.00014259,1456,-4.0031e-05,83.81,-4.9822e-05,10.25,0.055022
1683,6.412,3.7408,0.1,0.00011236,1122.8,0.00011365,1166.7,-2.9077e-05,94.279,-4.1688e-05,-0.4758,0.06039
1684,7.0443,3.6308,0.1,9.117e-05,911.07,9.2678e-05,964.71,-2.0764e-05,112.34,-3.5115e-05,4.517,0.073634
1685,4.166,1.8732,0.1,0.0001354,1353.1,0.00013493,1339.4,-4.3819e-05,-3.6863,-4.6467e-05,-23.584,0.023982
1686,4.3872,1.6791,0.1,0.00014128,1411.8,0.00013632,1291.5,-3.5123e-05,3.3304,-6.4556e-05,-217.82,0.026277
1687,4.1874,1.5129,0.1,0.00012012,1200.4,0.00011762,1131.8,-3.5754e-05,-20.527,-4.784e-05,-111.34,0.023827
1688,20.616,2.2371,0.1,4.298e-06,42.951,3.9868e-06,36.206,-7.7836e-07,0.40201,-2.3514e-06,-11.417,0.45471
1689,21.383,2.2391,0.1,3.0085e-06,30.065,2.6361e-06,22.667,-3.2869e-07,0.39046,-1.9152e-06,-11.53,0.47852
1690,21.007,1.854,0.1,3.4936e-06,34.912,3.184e-06,28.428,-5.4499e-07,0.40971,-2.0213e-06,-10.683,0.46684
1691,19.861,2.251,0.1,5.9198e-06,59.157,5.6472e-06,52.836,-1.3331e-06,0.38842,-2.8873e-06,-11.289,0.43132
1692,20.243,1.8478,0.1,4.9571e-06,49.536,4.689e-06,43.488,-1.0395e-06,0.44553,-2.5174e-06,-10.658,0.44316
1693,19.122,2.2529,0.1,7.8478e-06,78.424,7.5989e-06,72.354,-1.9841e-06,0.3512,-3.5225e-06,-11.208,0.40849
1694,19.5,1.8503,0.1,6.735e-06,67.303,6.494e-06,61.537,-1.6408e-06,0.41542,-3.1057e-06,-10.591,0.42015
1695,18.379,2.222,0.1,1.0104e-05,100.97,9.874e-06,95.156,-2.7392e-06,0.38519,-4.2598e-06,-11.04,0.3856
1696,18.753,1.8372,0.1,8.8434e-06,88.373,8.6223e-06,82.849,-2.3507e-06,0.40217,-3.7947e-06,-10.447,0.3971
1697,17.631,2.1909,0.1,1.2695e-05,126.87,1.2484e-05,121.36,-3.6112e-06,0.42618,-5.0933e-06,-10.709,0.36268
1698,18.005,1.8057,0.1,1.1285e-05,112.77,1.1081e-05,107.5,-3.1752e-06,0.38458,-4.5817e-06,-10.183,0.37412
1699,16.881,2.1931,0.1,1.562e-05,156.09,1.5423e-05,150.84,-4.6045e-06,0.35749,-6.0255e-06,-10.319,0.33986
1700,17.256,1.806,0.1,1.405e-05,140.4,1.3861e-05,135.4,-4.1028e-06,0.42849,-5.4723e-06,-9.8616,0.35121
1701,16.132,2.2027,0.1,1.8864e-05,188.51,1.8684e-05,183.61,-5.7137e-06,0.29099,-7.044e-06,-9.7045,0.31722
1702,16.504,1.8129,0.1,1.7154e-05,171.42,1.6978e-05,166.66,-5.1558e-06,0.35528,-6.4617e-06,-9.4566,0.32837
1703,15.38,2.2407,0.1,2.243e-05,224.14,2.2272e-05,219.77,-6.925e-06,0.39696,-8.1572e-06,-8.8615,0.29469
1704,15.755,1.8305,0.1,2.0558e-05,205.44,2.0399e-05,201.07,-6.3023e-06,0.44632,-7.5421e-06,-8.8691,0.30584
1705,14.63,2.2587,0.1,2.6295e-05,262.77,2.6163e-05,259.07,-8.264e-06,0.39319,-9.3309e-06,-7.6235,0.27248
1706,15.005,1.8459,0.1,2.4276e-05,242.6,2.4139e-05,238.76,-7.5817e-06,0.4262,-8.6873e-06,-7.881,0.2835
1707,13.883,2.2284,0.1,3.0452e-05,304.31,3.0351e-05,301.43,-9.7303e-06,0.27429,-1.0558e-05,-5.9411,0.25066
1708,14.258,1.8336,0.1,2.831e-05,282.9,2.8194e-05,279.63,-8.9914e-06,0.22803,-9.9077e-06,-6.657,0.2615
1709,13.135,2.2104,0.1,3.4903e-05,348.79,3.4842e-05,347.04,-1.1313e-05,0.24762,-1.184e-05,-3.7154,0.22912
1710,13.509,1.8156,0.1,3.2631e-05,326.09,3.2549e-05,323.74,-1.0492e-05,0.34322,-1.1201e-05,-4.9819,0.23977
1711,12.385,2.2104,0.1,3.9635e-05,396.07,3.9628e-05,395.88,-1.3032e-05,0.21262,-1.314e-05,-0.59471,0.20795
1712,12.76,1.8156,0.1,3.7255e-05,372.3,3.7214e-05,371.09,-1.2135e-05,0.30024,-1.2534e-05,-2.6932,0.21839
1713,11.636,2.2104,0.1,4.4633e-05,446.02,4.4699e-05,447.98,-1.4417e-05,3.8085,-1.4906e-05,0.13238,0.18723
1714,12.011,1.8156,0.1,4.2164e-05,421.35,4.2177e-05,421.74,-1.3877e-05,0.57384,-1.3925e-05,0.20941,0.19743
1715,10.887,2.2104,0.1,4.9881e-05,498.47,5.0042e-05,503.32,-1.5642e-05,9.7977,-1.694e-05,0.047268,0.16701
1716,11.261,1.8156,0.1,4.7344e-05,473.11,4.7429e-05,475.65,-1.5216e-05,4.9619,-1.5856e-05,0.1475,0.17694
1717,10.142,2.2248,0.1,5.5372e-05,553.34,5.5657e-05,562.16,-1.6737e-05,18.22,-1.9178e-05,-0.12741,0.14747
1718,10.512,1.8156,0.1,5.2774e-05,527.38,5.2951e-05,532.73,-1.6515e-05,10.798,-1.7941e-05,0.082585,0.15698
1719,9.402,2.229,0.1,6.122e-05,611.78,6.1664e-05,625.88,-1.7696e-05,29.603,-2.1677e-05,-0.30672,0.12866
1720,9.7678,1.8394,0.1,5.8456e-05,584.16,5.8755e-05,593.36,-1.7714e-05,18.807,-2.0211e-05,0.04728,0.13776
1721,9.033,1.8345,0.1,6.4447e-05,644.02,6.4878e-05,657.63,-1.8851e-05,28.527,-2.2693e-05,-0.33776,0.1194
1722,8.6748,2.1973,0.1,6.7594e-05,675.48,6.8215e-05,695.8,-1.8628e-05,43.291,-2.4458e-05,-0.51625,0.11083
1723,7.2975,1.9808,0.1,8.2759e-05,827.02,8.3433e-05,850.11,-2.2365e-05,55.181,-3.046e-05,-5.6417,0.079038
1724,7.5884,1.7049,0.1,7.7515e-05,774.62,7.8021e-05,791.6,-2.1765e-05,41.846,-2.8092e-05,-5.6898,0.085376
1725,7.9662,2.1171,0.1,7.4775e-05,747.23,7.5503e-05,771.8,-1.994e-05,54.68,-2.7522e-05,-2.2897,0.094131
1726,6.6488,1.8088,0.1,9.2569e-05,925.05,9.2495e-05,924.68,-2.7299e-05,24.598,-3.3696e-05,-23.465,0.065063
1727,6.8801,1.5486,0.1,8.2627e-05,825.7,8.2666e-05,827.7,-2.5083e-05,18.114,-2.9255e-05,-13.23,0.069782
1728,8.5962,3.7584,0.1,6.8506e-05,684.58,6.9232e-05,708.78,-1.8246e-05,51.501,-2.5125e-05,-0.18321,0.10893
1729,8.1913,4.1008,0.1,7.2335e-05,722.86,7.3006e-05,745.37,-1.9506e-05,50.261,-2.651e-05,-2.3636,0.099233
1730,7.8024,3.6445,0.1,7.7085e-05,770.32,7.8202e-05,809.84,-1.8273e-05,84.959,-2.9452e-05,0.96554,0.090419
1731,9.3657,3.8128,0.1,6.1443e-05,614.01,6.1935e-05,629.67,-1.7574e-05,32.278,-2.1829e-05,0.30386,0.12772
1732,8.978,4.1686,0.1,6.4788e-05,647.43,6.5306e-05,663.81,-1.8668e-05,32.854,-2.2899e-05,1.0661,0.11802
1733,10.128,3.8486,0.1,5.5419e-05,553.81,5.5718e-05,563.03,-1.6734e-05,18.661,-1.9184e-05,0.24797,0.14706
1734,9.7551,4.2076,0.1,5.8486e-05,584.45,5.8795e-05,594,-1.766e-05,19.552,-2.0257e-05,0.039635,0.13738
1735,10.885,3.865,0.1,4.9878e-05,498.44,5.0039e-05,503.31,-1.5649e-05,9.7579,-1.693e-05,0.13008,0.16691
1736,10.51,4.2202,0.1,5.2738e-05,527.01,5.292e-05,532.52,-1.6505e-05,10.895,-1.7916e-05,0.28815,0.15688
1737,11.636,3.8688,0.1,4.4629e-05,445.99,4.4693e-05,447.87,-1.4433e-05,3.6216,-1.4893e-05,0.15921,0.18719
1738,11.261,4.224,0.1,4.7315e-05,472.82,4.7397e-05,475.28,-1.5221e-05,4.7908,-1.5837e-05,0.16822,0.17689
1739,12.385,3.8688,0.1,3.9635e-05,396.07,3.9626e-05,395.83,-1.3022e-05,0.24892,-1.3154e-05,-0.7429,0.20791
1740,12.011,4.224,0.1,4.2152e-05,421.23,4.2163e-05,421.56,-1.3882e-05,0.45669,-1.3916e-05,0.20083,0.19738
1741,13.135,3.8688,0.1,3.49e-05,348.76,3.4837e-05,346.96,-1.1299e-05,0.30872,-1.1855e-05,-3.8743,0.22908
1742,12.76,4.224,0.1,3.7252e-05,372.26,3.7208e-05,371,-1.2131e-05,0.28787,-1.254e-05,-2.7842,0.21835
1743,13.887,3.865,0.1,3.0439e-05,304.18,3.0334e-05,301.2,-9.7238e-06,0.21456,-1.0563e-05,-6.0868,0.25072
1744,13.509,4.224,0.1,3.2628e-05,326.06,3.2544e-05,323.66,-1.0487e-05,0.33483,-1.1206e-05,-5.0697,0.23973
1745,14.638,3.8534,0.1,2.6266e-05,262.48,2.6129e-05,258.63,-8.269e-06,0.17238,-9.3172e-06,-7.7035,0.27269
1746,14.261,4.2202,0.1,2.8298e-05,282.78,2.8182e-05,279.49,-8.9828e-06,0.25163,-9.9093e-06,-6.7097,0.26155
1747,15.385,3.849,0.1,2.2398e-05,223.83,2.2239e-05,219.42,-6.9118e-06,0.39656,-8.1512e-06,-8.9159,0.29482
1748,15.01,4.2124,0.1,2.4255e-05,242.38,2.4115e-05,238.48,-7.5745e-06,0.38057,-8.6843e-06,-7.9574,0.28361
1749,16.133,3.8515,0.1,1.8852e-05,188.39,1.8673e-05,183.53,-5.6943e-06,0.44202,-7.0511e-06,-9.7522,0.3172
1750,15.758,4.2158,0.1,2.0538e-05,205.23,2.0379e-05,200.87,-6.2972e-06,0.43768,-7.5335e-06,-8.8512,0.30588
1751,16.882,3.85,0.1,1.5619e-05,156.09,1.5422e-05,150.83,-4.6043e-06,0.35441,-6.0255e-06,-10.324,0.33985
1752,16.507,4.2149,0.1,1.7143e-05,171.31,1.6967e-05,166.55,-5.1542e-06,0.33626,-6.4564e-06,-9.4482,0.32844
1753,17.631,3.8492,0.1,1.2698e-05,126.89,1.2485e-05,121.33,-3.6202e-06,0.31994,-5.0907e-06,-10.729,0.36266
1754,17.256,4.2143,0.1,1.4048e-05,140.39,1.3859e-05,135.37,-4.1014e-06,0.41969,-5.474e-06,-9.8929,0.35118
1755,18.38,3.8395,0.1,1.0095e-05,100.88,9.864e-06,95.026,-2.7424e-06,0.30588,-4.2541e-06,-11.052,0.38564
1756,18.005,4.2141,0.1,1.1285e-05,112.77,1.108e-05,107.48,-3.1758e-06,0.36671,-4.5821e-06,-10.2,0.37408
1757,19.133,3.8241,0.1,7.814e-06,78.086,7.5619e-06,71.954,-1.9657e-06,0.3677,-3.5205e-06,-11.314,0.4088
1758,18.755,4.2046,0.1,8.8353e-06,88.292,8.6143e-06,82.763,-2.3509e-06,0.37402,-3.7899e-06,-10.438,0.39712
1759,19.887,3.8143,0.1,5.8664e-06,58.624,5.5879e-06,52.192,-1.3064e-06,0.39065,-2.882e-06,-11.448,0.4321
1760,19.51,4.1959,0.1,6.7086e-06,67.04,6.4676e-06,61.278,-1.6319e-06,0.42134,-3.0965e-06,-10.583,0.42043
1761,20.263,4.1836,0.1,4.9249e-06,49.215,4.6565e-06,43.15,-1.0328e-06,0.40274,-2.5042e-06,-10.653,0.44372
1762,4.2769,2.2779,0.1,0.00015672,1566.1,0.00015728,1583.7,-4.7713e-05,43.485,-5.4442e-05,-7.0735,0.025581
1763,4.6071,2.4308,0.1,0.00020673,2065.8,0.00020537,2029.3,-6.2747e-05,14.797,-7.5942e-05,-84.345,0.029761
1764,4.4895,2.6733,0.1,0.00018446,1843.3,0.00018477,1852.8,-5.8442e-05,25.453,-6.2623e-05,-5.9661,0.028389
1765,5.7913,3.0344,0.1,0.00018162,1815,0.00018156,1813.6,-5.7946e-05,13.982,-6.1997e-05,-16.451,0.04863
1766,5.8066,2.7737,0.1,0.00017967,1795.5,0.00018045,1819.9,-5.4233e-05,56.568,-6.2582e-05,-6.1641,0.048886
1767,4.3938,3.5079,0.1,0.00017806,1779.4,0.00017817,1782.9,-5.6698e-05,18.16,-6.0562e-05,-10.873,0.027102
1768,3.9718,3.7211,0.1,0.000143,1429,0.00014469,1484.5,-3.7988e-05,111.93,-5.2214e-05,5.0393,0.022132
1769,3.8403,4.3722,0.1,0.00012172,1216.4,0.00012183,1219.8,-3.8907e-05,12.069,-4.1186e-05,-5.06,0.02027
1770,3.523,4.5333,0.1,0.00011846,1183.7,0.00011922,1208,-3.4496e-05,53.043,-4.1905e-05,-2.6278,0.017024
1771,3.622,4.054,0.1,0.00012317,1230.8,0.00012508,1297.5,-2.919e-05,138.33,-4.6849e-05,5.6438,0.018333
1772,2.164,4.1792,0.1,0.0001291,1290.1,0.00013091,1384,-2.0226e-05,248.41,-5.578e-05,-18.723,0.006698
1773,1.8378,3.7707,0.1,0.00013112,1310.3,0.00013438,1473.4,-1.2381e-05,370.71,-5.8405e-05,24.906,0.0049396
1774,1.8722,2.2125,0.1,0.00013117,1310.8,0.00013449,1473.4,-1.2871e-05,366.21,-5.8144e-05,26.043,0.0051207
1775,2.2224,1.8129,0.1,0.00012918,1290.9,0.00013088,1380.7,-2.0639e-05,242.18,-5.5773e-05,-21.801,0.0070561
1776,2.5899,2.1472,0.1,0.00012609,1260.1,0.00012835,1359,-2.1335e-05,234.35,-5.2895e-05,-2.772,0.0096408
1777,4.428,2.0546,0.1,0.00016339,1632.7,0.00016349,1637.2,-4.997e-05,33.363,-5.7461e-05,-22.925,0.027189
1778,22.141,2.2554,0.1,2.0967e-06,20.952,1.6305e-06,12.583,4.5441e-09,0.3661,-1.5895e-06,-11.611,0.50209
1779,21.769,1.8743,0.1,2.3795e-06,23.779,2.0007e-06,16.601,-1.5286e-07,0.41943,-1.6328e-06,-10.701,0.4905
1780,21.76,4.1718,0.1,2.3831e-06,23.815,2.0107e-06,16.738,-1.6072e-07,0.42294,-1.6264e-06,-10.59,0.49019
1781,22.133,3.7853,0.1,2.0966e-06,20.951,1.6347e-06,12.647,1.6246e-10,0.36539,-1.585e-06,-11.545,0.50182
1782,6.3283,1.5457,0.1,9.3299e-05,932.35,9.1508e-05,880.61,-3.0254e-05,-34.264,-3.4782e-05,-68.283,0.058276
1783,6.5597,1.2855,0.1,8.247e-05,824.13,8.0851e-05,777.4,-2.6687e-05,-30.595,-3.0863e-05,-61.976,0.062828
1784,6.0903,1.25,0.1,7.9781e-05,797.26,7.6941e-05,721.69,-2.2438e-05,-24.996,-3.4813e-05,-117.98,0.053159
1785,6.0177,3.6089,0.1,0.00014296,1428.6,0.00014372,1452.4,-4.2849e-05,50.548,-4.9794e-05,-1.6379,0.05267
1786,5.7346,3.5231,0.1,0.00019239,1922.5,0.00019188,1909.1,-5.9739e-05,18.56,-6.8048e-05,-43.876,0.047415
1787,5.7587,3.2986,0.1,0.00018267,1825.4,0.00018253,1821.9,-5.7774e-05,16.392,-6.2981e-05,-22.732,0.047976
1788,5.9109,3.8496,0.1,0.00014673,1466.3,0.00014819,1509.9,-4.4437e-05,62.568,-4.9393e-05,25.33,0.050458
1789,6.1368,3.9694,0.1,0.00011725,1171.7,0.0001172,1172,-3.4953e-05,28.794,-4.2285e-05,-26.301,0.054754
1790,6.0557,1.6212,0.1,0.00010058,1005.1,9.8458e-05,948.01,-2.9246e-05,-11.51,-4.0658e-05,-97.254,0.052858
1791,6.3045,1.9273,0.1,0.00010681,1067.3,0.00010636,1056.2,-3.1862e-05,17.665,-3.9243e-05,-37.789,0.058077
1792,4.1738,4.3044,0.1,0.00013481,1347.1,0.00013359,1312,-4.3615e-05,-19.463,-4.7711e-05,-50.241,0.023869
1793,4.4369,4.1954,0.1,0.00015348,1533.8,0.00014891,1421.1,-3.9499e-05,5.4613,-6.7965e-05,-208.42,0.026995
1794,3.9555,3.9863,0.1,0.0001349,1348.1,0.00013591,1382.7,-3.6852e-05,84.601,-4.9492e-05,-10.376,0.021787
1795,4.1574,4.6873,0.1,0.00011425,1141.7,0.00011265,1096.9,-3.5415e-05,-15.629,-4.2895e-05,-71.838,0.023225
1796,4.3937,4.5387,0.1,0.00012214,1220.5,0.00011748,1104.7,-3.1026e-05,-11.078,-5.6004e-05,-198.75,0.026027
1797,3.1693,4.7299,0.1,0.0001196,1195.2,0.00012053,1226.4,-3.2875e-05,73.814,-4.3657e-05,-7.1977,0.013698
1798,2.4792,4.6029,0.1,0.00012699,1269,0.0001286,1334.7,-2.716e-05,164.38,-5.0919e-05,-14.14,0.0085303
1799,2.8419,4.9962,0.1,0.00012398,1239,0.00012509,1275.9,-3.3792e-05,82.14,-4.5222e-05,-3.7364,0.010833
1800,3.8402,4.8484,0.1,0.00010955,1094.8,0.00010894,1076.8,-3.6027e-05,-12.394,-3.7493e-05,-23.41,0.01975
1801,3.5466,5.091,0.1,0.00011087,1107.9,0.0001107,1103.3,-3.545e-05,5.1539,-3.802e-05,-14.152,0.016645
1802,1.7844,4.5286,0.1,0.00013172,1316.3,0.00013486,1447.6,-2.0037e-05,283.71,-5.5274e-05,18.956,0.0044774
1803,2.1372,4.9179,0.1,0.00013213,1320.4,0.00013362,1379.2,-3.0116e-05,148.92,-5.2054e-05,-15.913,0.0061832
1804,1.4981,3.3586,0.1,0.00013425,1341.6,0.00013864,1560.1,-6.9967e-06,465.81,-6.0561e-05,63.353,0.0033249
1805,1.5114,2.6121,0.1,0.00013424,1341.5,0.00013866,1560.3,-7.055e-06,465.49,-6.0505e-05,63.887,0.0033818
1806,1.1287,2.9911,0.1,0.00014772,1476.2,0.00014526,1559.5,-3.6713e-06,440.46,-7.7408e-05,-113.56,0.0018919
1807,1.4582,4.12,0.1,0.00013355,1334.5,0.00013816,1535.7,-1.2036e-05,407.18,-5.7888e-05,62.673,0.0030779
1808,1.1089,3.7375,0.1,0.00014679,1466.9,0.00014461,1547.9,-5.1715e-06,422.49,-7.6181e-05,-111.04,0.0018071
1809,1.4769,1.8555,0.1,0.00013367,1335.8,0.00013829,1536.4,-1.2231e-05,405.41,-5.7862e-05,62.557,0.0031515
1810,1.1163,2.244,0.1,0.00014657,1464.7,0.00014457,1549.3,-5.2296e-06,423.8,-7.5839e-05,-106.73,0.0018293
1811,1.8271,1.4559,0.1,0.00013189,1317.9,0.00013488,1445.1,-2.0184e-05,280,-5.5504e-05,14.619,0.0046861
1812,2.1961,1.076,0.1,0.00013213,1320.4,0.00013342,1374.3,-2.9986e-05,146.46,-5.2461e-05,-22.411,0.0065265
1813,2.6226,1.3798,0.1,0.00012415,1240.6,0.00012557,1300.5,-2.6639e-05,156.85,-4.9975e-05,-18.49,0.0095203
1814,9.0236,1.0802,0.1,6.4907e-05,648.63,6.5132e-05,655.44,-2.025e-05,13.916,-2.2111e-05,-0.068309,0.11876
1815,9.3988,1.4448,0.1,6.1694e-05,616.52,6.1976e-05,625.17,-1.8877e-05,17.676,-2.1227e-05,0.012726,0.12827
1816,8.6671,1.4399,0.1,6.7637e-05,675.9,6.8014e-05,687.62,-2.0303e-05,24.039,-2.3497e-05,0.036317,0.11033
1817,7.1711,1.2727,0.1,7.734e-05,772.86,7.7186e-05,768.69,-2.4401e-05,5.4072,-2.6904e-05,-13.403,0.075868
1818,7.5582,1.0099,0.1,7.5e-05,749.49,7.5035e-05,750.79,-2.3567e-05,9.9254,-2.5825e-05,-7.0363,0.084241
1819,7.9312,1.3905,0.1,7.3526e-05,734.76,7.3864e-05,745.54,-2.1893e-05,26.068,-2.5841e-05,-3.5956,0.09299
1820,6.8077,0.89141,0.1,7.4753e-05,747.01,7.3954e-05,723.74,-2.4488e-05,-15.916,-2.6419e-05,-30.423,0.067695
1821,6.3972,1.0101,0.1,7.0251e-05,702.02,6.9326e-05,676.15,-2.1651e-05,-7.411,-2.6384e-05,-42.977,0.059178
1822,7.0237,4.7048,0.1,7.7659e-05,776.05,7.7662e-05,776.44,-2.4447e-05,9.2276,-2.6762e-05,-8.1634,0.072621
1823,6.3433,5.0715,0.1,6.7808e-05,677.61,6.6918e-05,653.09,-2.0562e-05,-4.1984,-2.5748e-05,-43.166,0.057884
1824,6.7558,5.1758,0.1,7.3623e-05,735.72,7.288e-05,714.17,-2.3899e-05,-12.992,-2.614e-05,-29.83,0.066437
1825,6.4871,4.8038,0.1,8.3406e-05,833.48,8.2083e-05,795.47,-2.6711e-05,-21.969,-3.0864e-05,-53.172,0.061158
1826,5.8764,4.534,0.1,9.7706e-05,976.39,9.3008e-05,859.41,-2.433e-05,-22.22,-4.6659e-05,-189.99,0.049074
1827,6.1674,4.5768,0.1,9.2147e-05,920.83,8.9799e-05,853.31,-2.9756e-05,-44.973,-3.5552e-05,-88.527,0.054828
1828,6.0977,4.3172,0.1,0.00010204,1019.7,0.0001002,967.32,-3.2019e-05,-26.093,-3.8766e-05,-76.783,0.05369
1829,7.7642,4.4762,0.1,7.538e-05,753.28,7.5906e-05,770.21,-2.1651e-05,37.209,-2.6845e-05,-1.8188,0.089197
1830,7.4374,4.8787,0.1,7.5986e-05,759.34,7.6186e-05,765.44,-2.3804e-05,14.154,-2.5915e-05,-1.7065,0.081564
1831,7.3753,4.0199,0.1,8.0053e-05,799.98,8.1077e-05,834.5,-2.045e-05,71.667,-2.973e-05,1.936,0.080711
1832,8.201,4.8585,0.1,7.1509e-05,714.59,7.1783e-05,723.29,-2.1617e-05,21.515,-2.4943e-05,-3.4713,0.099021
1833,8.5732,4.511,0.1,6.8629e-05,685.82,6.9088e-05,700.45,-1.9925e-05,31.639,-2.4296e-05,-1.198,0.10805
1834,4.9241,2.5345,0.1,0.00024248,2423.1,0.00023856,2318.7,-7.0696e-05,-4.9293,-9.5705e-05,-192.84,0.034178
1835,5.1491,2.5697,0.1,0.00025195,2517.8,0.00024374,2307.6,-6.7373e-05,-29.948,-0.00011106,-358.16,0.037579
1836,4.8064,2.777,0.1,0.00022188,2217.3,0.00021958,2154.4,-6.7243e-05,-0.67351,-8.3152e-05,-120.21,0.032644
1837,5.1358,2.8094,0.1,0.00023897,2388.1,0.00023544,2292.3,-7.1071e-05,-10.726,-9.2615e-05,-172.6,0.037504
1838,4.7872,3.5241,0.1,0.0002338,2336.3,0.00022795,2178.5,-6.7994e-05,-45.121,-9.6092e-05,-256.24,0.032186
1839,4.7239,3.2852,0.1,0.00021142,2112.8,0.00021064,2090.4,-6.7543e-05,0.2851,-7.3468e-05,-44.235,0.031472
1840,4.6256,3.6682,0.1,0.00019259,1924.6,0.0001933,1947.1,-5.8206e-05,57.399,-6.7252e-05,-10.567,0.029901
1841,4.4078,4.9082,0.1,9.7384e-05,973.17,9.4136e-05,892.69,-2.4962e-05,-2.1713,-4.3753e-05,-143.36,0.025599
1842,4.2418,5.1523,0.1,8.9966e-05,899.04,8.8325e-05,853.6,-2.7227e-05,-14.612,-3.5049e-05,-73.378,0.023412
1843,1.4395,4.8832,0.1,0.00013524,1351.4,0.00013943,1500.4,-2.4138e-05,271.44,-5.32e-05,53.08,0.0028045
1844,1.0794,4.502,0.1,0.00014377,1436.7,0.00014199,1497.3,-1.0386e-05,352.39,-7.2579e-05,-114.9,0.0016393
1845,1.0826,1.4824,0.1,0.00014372,1436.2,0.00014198,1497.4,-1.046e-05,352,-7.2475e-05,-113.95,0.0016457
1846,1.4482,1.0959,0.1,0.00013544,1353.4,0.0001396,1500.9,-2.4461e-05,268.22,-5.3155e-05,52.623,0.0028307
1847,3.6841,0.63329,0.1,0.00010753,1074.6,0.00010576,1024.1,-3.3875e-05,-25.06,-4.0419e-05,-74.227,0.017552
1848,4.1057,0.73717,0.1,8.9793e-05,897.31,8.7996e-05,848.76,-2.631e-05,-10.094,-3.5962e-05,-82.613,0.021837
1849,3.4044,1.0554,0.1,0.00011421,1141.3,0.00011376,1128.6,-3.6466e-05,-0.16615,-3.9747e-05,-24.819,0.015542
1850,3.8813,0.91552,0.1,0.00010626,1061.8,0.00010403,997.62,-3.4461e-05,-42.97,-3.9959e-05,-84.28,0.019859
1851,4.7582,2.2075,0.1,0.00021321,2130.6,0.00021115,2079.6,-6.0725e-05,36.819,-8.2812e-05,-129.13,0.031531
1852,4.974,2.3326,0.1,0.00027872,2785.3,0.0002692,2523.6,-8.2635e-05,-119.92,-0.00011787,-384.63,0.034693
1853,5.4173,3.4959,0.1,0.00023562,2354.5,0.00023278,2277.4,-7.0702e-05,-2.8019,-8.9619e-05,-144.94,0.041853
1854,5.1446,3.505,0.1,0.00026208,2618.9,0.0002537,2401.1,-7.1726e-05,-44.015,-0.00011411,-362.49,0.037424
1855,5.4414,3.2714,0.1,0.00022876,2286.1,0.00022583,2208.3,-6.7053e-05,7.6898,-8.8643e-05,-154.53,0.042411
1856,5.0813,3.2661,0.1,0.00024082,2406.6,0.0002377,2322.9,-7.1197e-05,1.9789,-9.2881e-05,-160.94,0.036627
1857,5.6279,3.7638,0.1,0.00019614,1960.1,0.00019634,1966.6,-6.1558e-05,28.843,-6.7405e-05,-15.089,0.045266
1858,5.4331,3.6812,0.1,0.00027098,2708,0.00026228,2472.7,-7.8313e-05,-86.373,-0.00011512,-362.95,0.041927
1859,5.7939,1.7211,0.1,0.00012365,1235.6,0.00012004,1149.6,-3.0806e-05,16.174,-5.5273e-05,-167.66,0.047847
1860,6.0427,2.0271,0.1,0.00012606,1259.7,0.00012527,1237.7,-3.9236e-05,1.6688,-4.538e-05,-44.492,0.052956
1861,5.7706,2.0978,0.1,0.00015398,1538.8,0.00015282,1515.3,-4.1242e-05,57.175,-6.1248e-05,-93.143,0.047811
1862,5.5303,1.7904,0.1,0.00017217,1720.5,0.00016831,1635.2,-4.1634e-05,57.79,-7.5858e-05,-199.35,0.042947
1863,5.8176,1.3255,0.1,9.189e-05,918.27,8.7576e-05,816.78,-2.1051e-05,0.60493,-4.4753e-05,-177.49,0.047811
1864,5.5302,1.4306,0.1,0.00010892,1088.5,0.00010556,1017.3,-2.3883e-05,44.775,-5.0928e-05,-158.43,0.042359
1865,5.9278,0.97458,0.1,7.0505e-05,704.57,6.7771e-05,638.14,-1.7335e-05,-1.3122,-3.2756e-05,-117.18,0.049545
1866,5.554,1.0615,0.1,6.8027e-05,679.81,6.6681e-05,652.02,-1.6019e-05,30.649,-2.9956e-05,-74.07,0.042212
1867,4.6567,4.4296,0.1,0.00014749,1473.8,0.00013695,1245,-2.6912e-05,13.831,-8.0408e-05,-388.12,0.029262
1868,4.6849,4.0905,0.1,0.00017906,1789.4,0.00017485,1702.4,-4.0813e-05,82.022,-8.0742e-05,-217.99,0.03016
1869,4.8864,4.2989,0.1,0.00018671,1865.8,0.00016734,1494.7,-2.0592e-05,82.681,-0.00011419,-620.56,0.032342
1870,4.6441,4.7595,0.1,0.00011452,1144.5,0.00010564,950.73,-2.058e-05,2.3349,-6.3541e-05,-320.46,0.028508
1871,4.8703,4.6307,0.1,0.00012225,1221.7,0.00011248,1018.8,-1.9518e-05,27.051,-6.9143e-05,-345.81,0.031411
1872,4.6613,5.0447,0.1,8.9534e-05,894.72,8.16e-05,731.39,-1.3388e-05,17.686,-5.1993e-05,-272.38,0.028143
1873,4.8738,4.9622,0.1,8.6415e-05,863.55,8.0568e-05,742.61,-1.4645e-05,27.22,-4.7102e-05,-216.65,0.030702
1874,1.7923,5.2725,0.1,0.00013605,1359.5,0.00013828,1432.7,-3.4279e-05,136.18,-5.0014e-05,17.953,0.0041231
1875,1.0813,5.2572,0.1,0.00013875,1386.6,0.00013822,1412,-2.4949e-05,186.05,-6.2054e-05,-92.751,0.0014608
1876,1.4497,5.6301,0.1,0.00014358,1434.8,0.00014626,1517,-3.9053e-05,124.63,-4.9886e-05,43.236,0.0024227
1877,2.4998,5.3113,0.1,0.00012925,1291.6,0.00013013,1320.6,-3.676e-05,66.595,-4.6367e-05,-5.5922,0.0080992
1878,2.164,5.6424,0.1,0.00013711,1370.2,0.00013796,1397.1,-3.9959e-05,60.36,-4.8549e-05,-4.18,0.0056924
1879,3.2192,5.3574,0.1,0.00011511,1150.3,0.00011516,1152,-3.6312e-05,13.889,-3.9526e-05,-10.258,0.013433
1880,2.8859,5.6689,0.1,0.00012394,1238.6,0.00012434,1250.7,-3.8902e-05,24.118,-4.2056e-05,0.41936,0.010373
1881,0.72056,1.1172,0.1,0.00014748,1473.8,0.00014033,1406.4,-1.0703e-05,271.61,-8.1358e-05,-259.26,0.00069433
1882,0.72201,1.8709,0.1,0.00015723,1571.2,0.00014814,1509.4,-3.3272e-06,371.38,-9.0458e-05,-283.29,0.00075139
1883,0.35872,1.4972,0.1,0.00012629,1262.1,0.00014073,1746,-1.8822e-06,674.47,-4.442e-05,354.85,0.00018351
1884,0.73949,3.3699,0.1,0.0001607,1605.9,0.00015118,1546.9,-1.7885e-06,397.57,-9.303e-05,-287.98,0.00081014
1885,0.7337,2.623,0.1,0.00016048,1603.7,0.0001511,1548,-1.7759e-06,399.3,-9.2745e-05,-284.2,0.00079714
1886,0.37041,2.9993,0.1,0.00013257,1324.8,0.00014807,1846.9,-6.6234e-07,729.43,-4.6701e-05,383.51,0.0002081
1887,0.7301,4.1195,0.1,0.0001576,1574.9,0.0001483,1508.5,-3.3762e-06,368.79,-9.0878e-05,-288.66,0.00076953
1888,0.36908,3.7456,0.1,0.00013141,1313.2,0.00014667,1826.9,-9.3519e-07,717.89,-4.6327e-05,376.83,0.00020396
1889,0.72118,4.876,0.1,0.00014753,1474.3,0.00014034,1405.6,-1.0771e-05,270.2,-8.1419e-05,-260.62,0.00069676
1890,0.36102,4.4989,0.1,0.00012653,1264.4,0.00014094,1747.9,-1.9201e-06,674.48,-4.4555e-05,354.13,0.00018616
1891,0.36016,5.2521,0.1,0.00011518,1151,0.00012879,1582.1,-7.6043e-06,557.29,-3.6937e-05,336.89,0.00016478
1892,0.72445,5.6271,0.1,0.0001411,1410,0.00013766,1349,-2.8817e-05,98.166,-6.5695e-05,-178.92,0.00055458
1893,3.2423,0.55338,0.1,0.00011443,1143.5,0.00011424,1138.1,-3.737e-05,-1.044,-3.8513e-05,-9.6293,0.013519
1894,3.9925,0.413,0.1,8.4383e-05,843.25,8.362e-05,821.64,-2.6483e-05,-5.629,-3.0622e-05,-36.725,0.02015
1895,3.6205,0.2369,0.1,0.00010209,1020.2,0.00010101,989.03,-3.3182e-05,-19.271,-3.6286e-05,-42.592,0.016324
1896,2.5361,0.67168,0.1,0.00012948,1293.9,0.0001302,1317.1,-3.7817e-05,54.713,-4.5915e-05,-6.1339,0.0083303
1897,2.9626,0.97548,0.1,0.00012141,1213.3,0.00012234,1243.3,-3.4479e-05,65.037,-4.3422e-05,-2.1588,0.011748
1898,2.9004,0.31648,0.1,0.00012414,1240.5,0.00012434,1246.6,-3.9923e-05,12.339,-4.1594e-05,-0.21744,0.010472
1899,1.8172,0.71599,0.1,0.00013605,1359.6,0.00013821,1430.5,-3.4286e-05,134.5,-5.015e-05,15.311,0.0042366
1900,2.1857,0.3552,0.1,0.00013654,1364.5,0.00013738,1391.3,-3.9803e-05,60.038,-4.8335e-05,-4.0705,0.0058207
1901,1.0862,0.7308,0.1,0.0001389,1388,0.00013837,1413.1,-2.5108e-05,184.8,-6.205e-05,-92.775,0.0014703
1902,1.4529,0.36079,0.1,0.00014381,1437.1,0.00014643,1517.1,-3.9506e-05,120.03,-4.9763e-05,42.959,0.0024308
1903,0.36183,0.74501,0.1,0.00011521,1151.3,0.0001288,1581.8,-7.5847e-06,557.08,-3.7006e-05,336.02,0.00016596
1904,0.72612,0.37001,0.1,0.0001413,1412,0.00013783,1350.2,-2.8853e-05,97.798,-6.5838e-05,-180.09,0.00055718
1905,4.6491,1.8605,0.1,0.0001715,1713.8,0.00016649,1601.4,-4.0188e-05,48.536,-7.8238e-05,-237.35,0.02966
1906,4.88,2.0177,0.1,0.00033363,3334,0.00032929,3263.7,-7.6487e-05,214.89,-0.00014453,-296.34,0.032893
1907,4.6347,1.5047,0.1,0.00013835,1382.5,0.00012796,1156.3,-2.5007e-05,7.028,-7.6223e-05,-377.8,0.028907
1908,4.8691,1.6762,0.1,0.00018388,1837.6,0.00016428,1454.3,-2.1272e-05,60.127,-0.00011285,-627.96,0.032092
1909,4.4349,1.3384,0.1,0.00011333,1132.5,0.00010691,979.06,-2.5876e-05,-18.618,-5.6924e-05,-251.9,0.026325
1910,4.5906,1.158,0.1,0.00010397,1039,9.6253e-05,872.54,-1.8508e-05,10.265,-5.7269e-05,-280.97,0.027765
1911,4.8656,1.3285,0.1,0.00011734,1172.5,0.00010715,962.55,-1.777e-05,23.958,-6.7783e-05,-351.82,0.031284
1912,4.4956,0.83692,0.1,7.9401e-05,793.46,7.6606e-05,731.97,-1.7631e-05,23.9,-3.7532e-05,-125.62,0.026113
1913,4.4141,0.51688,0.1,6.8318e-05,682.71,6.7258e-05,656.83,-1.8561e-05,12.022,-2.7925e-05,-58.334,0.024635
1914,4.7706,0.67411,0.1,5.9236e-05,591.95,5.9861e-05,611.89,-1.6437e-05,38.619,-2.1193e-05,2.8827,0.028774
1915,22.14,0.74186,0.1,1.7307e-06,17.295,1.4865e-06,12.512,-1.5838e-07,0.1531,-1.144e-06,-7.2521,0.502
1916,22.888,0.74078,0.1,1.042e-06,10.413,7.6095e-07,5.5033,4.6046e-08,0.13176,-8.3637e-07,-6.4984,0.52529
1917,22.525,1.108,0.1,1.4061e-06,14.052,1.0683e-06,8.0914,3.1204e-08,0.29909,-1.0906e-06,-8.13,0.514
1918,22.509,0.3692,0.1,1.246e-06,12.451,9.9478e-07,7.7282,-4.3638e-08,-0.074042,-9.1633e-07,-6.6311,0.51347
1919,21.388,0.74246,0.1,2.7354e-06,27.335,2.5188e-06,22.654,-4.7895e-07,0.13004,-1.5286e-06,-7.7567,0.47863
1920,21.768,1.1201,0.1,2.214e-06,22.124,1.9322e-06,16.558,-2.3131e-07,0.302,-1.4211e-06,-8.6379,0.49047
1921,21.758,0.37266,0.1,2.1126e-06,21.111,1.8866e-06,16.369,-3.0453e-07,-0.094038,-1.2812e-06,-7.4322,0.49009
1922,20.637,0.73393,0.1,4.0718e-06,40.69,3.8766e-06,36.131,-9.1979e-07,0.092879,-1.9964e-06,-7.9963,0.45527
1923,21.013,1.1116,0.1,3.369e-06,33.667,3.1268e-06,28.395,-6.1689e-07,0.26603,-1.8379e-06,-8.9079,0.46698
1924,21.008,0.3698,0.1,3.2831e-06,32.809,3.0814e-06,28.2,-6.8378e-07,-0.090244,-1.7055e-06,-7.7667,0.46678
1925,19.883,0.72447,0.1,5.7297e-06,57.257,5.5498e-06,52.821,-1.4691e-06,0.083666,-2.5557e-06,-8.0804,0.4319
1926,20.259,1.087,0.1,4.8465e-06,48.431,4.6316e-06,43.413,-1.1092e-06,0.27918,-2.3414e-06,-8.9792,0.44357
1927,20.256,0.36413,0.1,4.7894e-06,47.861,4.6037e-06,43.348,-1.1783e-06,-0.095761,-2.2246e-06,-7.9578,0.44344
1928,19.13,0.71554,0.1,7.7097e-06,77.044,7.5406e-06,72.714,-2.1228e-06,0.10614,-3.2161e-06,-8.1085,0.40861
1929,19.507,1.0845,0.1,6.6532e-06,66.486,6.4543e-06,61.598,-1.7073e-06,0.27585,-2.9502e-06,-9.0633,0.42031
1930,19.505,0.36034,0.1,6.6001e-06,65.955,6.4266e-06,61.547,-1.7784e-06,-0.10172,-2.8299e-06,-8.0028,0.42015
1931,18.38,0.71041,0.1,1.0013e-05,100.06,9.8526e-06,95.849,-2.8814e-06,0.17074,-3.9791e-06,-8.0775,0.38547
1932,18.755,1.0656,0.1,8.7871e-06,87.81,8.6049e-06,83.156,-2.4232e-06,0.29513,-3.6447e-06,-8.8831,0.39707
1933,18.755,0.3552,0.1,8.7498e-06,87.438,8.5841e-06,83.101,-2.4845e-06,-0.064585,-3.5486e-06,-8.0596,0.39696
1934,17.631,0.71041,0.1,1.2642e-05,126.34,1.249e-05,122.23,-3.7575e-06,0.15771,-4.8392e-06,-7.9695,0.36247
1935,18.005,1.0656,0.1,1.1251e-05,112.43,1.1079e-05,107.9,-3.2451e-06,0.27562,-4.4522e-06,-8.7942,0.37402
1936,18.005,0.3552,0.1,1.1213e-05,112.05,1.1055e-05,107.82,-3.3014e-06,-0.04959,-4.3586e-06,-7.9931,0.37389
1937,16.881,0.71041,0.1,1.559e-05,155.8,1.5445e-05,151.82,-4.7385e-06,0.17114,-5.8011e-06,-7.8128,0.33961
1938,17.256,1.0656,0.1,1.4033e-05,140.24,1.3872e-05,135.9,-4.1793e-06,0.26825,-5.3501e-06,-8.5289,0.3511
1939,17.256,0.3552,0.1,1.4011e-05,140.01,1.386e-05,135.88,-4.2353e-06,-0.075701,-5.2713e-06,-7.8601,0.35093
1940,16.132,0.71457,0.1,1.8856e-05,188.43,1.8719e-05,184.63,-5.839e-06,0.11149,-6.8492e-06,-7.4792,0.31691
1941,16.503,1.0707,0.1,1.7141e-05,171.3,1.699e-05,167.15,-5.2131e-06,0.33034,-6.3603e-06,-8.2889,0.32823
1942,16.507,0.3552,0.1,1.713e-05,171.19,1.6986e-05,167.2,-5.2709e-06,-0.032224,-6.2892e-06,-7.6835,0.32813
1943,15.383,0.71457,0.1,2.2464e-05,224.49,2.2338e-05,220.93,-7.0624e-06,0.02898,-7.9952e-06,-6.9802,0.29442
1944,15.755,1.0847,0.1,2.0566e-05,205.52,2.0425e-05,201.62,-6.3702e-06,0.29277,-7.452e-06,-7.8356,0.30567
1945,15.757,0.35937,0.1,2.0563e-05,205.49,2.0429e-05,201.73,-6.4278e-06,-0.059741,-7.3871e-06,-7.2674,0.30551
1946,14.633,0.71041,0.1,2.6378e-05,263.59,2.6266e-05,260.43,-8.3638e-06,0.23721,-9.2522e-06,-6.4373,0.27217
1947,15.008,1.0656,0.1,2.4304e-05,242.87,2.418e-05,239.38,-7.6515e-06,0.20952,-8.6161e-06,-7.0383,0.28339
1948,15.008,0.3552,0.1,2.4347e-05,243.3,2.4222e-05,239.78,-7.6897e-06,0.0089084,-8.6087e-06,-6.8964,0.28312
1949,13.884,0.71041,0.1,3.0604e-05,305.83,3.0509e-05,303.11,-9.7908e-06,0.31373,-1.0587e-05,-5.6706,0.25022
1950,14.259,1.0656,0.1,2.8365e-05,283.46,2.8257e-05,280.38,-9.0222e-06,0.28282,-9.9003e-06,-6.3152,0.2613
1951,14.259,0.3552,0.1,2.843e-05,284.1,2.8317e-05,280.9,-9.0535e-06,0.11297,-9.9202e-06,-6.3986,0.26099
1952,13.135,0.71041,0.1,3.5164e-05,351.4,3.5089e-05,349.22,-1.1362e-05,0.21313,-1.1992e-05,-4.5188,0.2286
1953,13.509,1.0656,0.1,3.2734e-05,327.11,3.265e-05,324.7,-1.0522e-05,0.32603,-1.1243e-05,-5.0897,0.23952
1954,13.509,0.3552,0.1,3.2851e-05,328.29,3.2755e-05,325.52,-1.0558e-05,0.090567,-1.1308e-05,-5.544,0.23917
1955,12.385,0.71041,0.1,4.0033e-05,400.06,3.9985e-05,398.66,-1.3039e-05,0.25914,-1.3476e-05,-3.0266,0.20737
1956,12.76,1.0656,0.1,3.7417e-05,373.91,3.7362e-05,372.34,-1.2154e-05,0.28599,-1.2646e-05,-3.4112,0.21811
1957,12.76,0.3552,0.1,3.7599e-05,375.73,3.7525e-05,373.58,-1.2172e-05,0.17561,-1.2787e-05,-4.4448,0.21772
1958,11.636,0.71041,0.1,4.5209e-05,451.78,4.5196e-05,451.38,-1.4833e-05,0.34834,-1.5032e-05,-1.1419,0.18658
1959,12.011,1.0656,0.1,4.2401e-05,423.72,4.2386e-05,423.28,-1.3908e-05,0.30605,-1.4106e-05,-1.1784,0.19712
1960,12.011,0.3552,0.1,4.2666e-05,426.37,4.2618e-05,424.96,-1.3903e-05,0.28882,-1.4351e-05,-3.0763,0.19668
1961,10.887,0.71041,0.1,5.0687e-05,506.52,5.0713e-05,507.3,-1.6648e-05,1.1677,-1.6752e-05,0.39333,0.1663
1962,11.261,1.0656,0.1,4.7682e-05,476.49,4.7716e-05,477.5,-1.5603e-05,1.7443,-1.5797e-05,0.28933,0.1766
1963,11.261,0.3552,0.1,4.8044e-05,480.11,4.8028e-05,479.64,-1.575e-05,0.43795,-1.5991e-05,-1.3725,0.17611
1964,10.137,0.71041,0.1,5.6412e-05,563.73,5.6481e-05,565.78,-1.8321e-05,3.7469,-1.8769e-05,0.37939,0.14659
1965,10.512,1.0656,0.1,5.3239e-05,532.02,5.3333e-05,534.84,-1.7131e-05,5.4018,-1.7812e-05,0.2837,0.15661
1966,10.512,0.3552,0.1,5.3718e-05,536.8,5.3737e-05,537.39,-1.7681e-05,0.77703,-1.7733e-05,0.38772,0.15609
1967,9.388,0.71041,0.1,6.226e-05,622.17,6.2363e-05,625.23,-2.0066e-05,5.8899,-2.0814e-05,0.2699,0.12751
1968,9.7632,1.075,0.1,5.9026e-05,589.85,5.9192e-05,594.85,-1.8679e-05,9.7565,-1.993e-05,0.35703,0.13724
1969,9.7627,0.3552,0.1,5.9585e-05,595.43,5.9634e-05,596.88,-1.947e-05,2.5317,-1.9757e-05,0.37126,0.13666
1970,8.649,0.70576,0.1,6.7783e-05,677.37,6.7881e-05,680.29,-2.1854e-05,6.0491,-2.2681e-05,-0.16072,0.10937
1971,9.0133,0.3552,0.1,6.5349e-05,653.04,6.5409e-05,654.83,-2.1301e-05,3.3184,-2.1706e-05,0.2741,0.1179
1972,7.9196,0.68481,0.1,7.1969e-05,719.19,7.1912e-05,717.54,-2.3534e-05,0.39048,-2.4077e-05,-3.6851,0.092177
1973,8.2926,1.0654,0.1,7.0486e-05,704.37,7.0748e-05,712.35,-2.1894e-05,16.272,-2.4065e-05,-0.036806,0.10118
1974,8.2744,0.35055,0.1,7.0339e-05,702.9,7.0317e-05,702.28,-2.3061e-05,0.67519,-2.3405e-05,-1.9103,0.10011
1975,7.1948,0.62863,0.1,7.2056e-05,720.07,7.1488e-05,703.46,-2.3633e-05,-11.238,-2.5046e-05,-21.849,0.075813
1976,7.5346,0.33425,0.1,7.2309e-05,722.59,7.2073e-05,715.7,-2.3644e-05,-3.4817,-2.4545e-05,-10.248,0.083048
1977,6.4588,0.52028,0.1,6.1673e-05,616.3,6.0873e-05,594.2,-1.8771e-05,-4.22,-2.3341e-05,-38.554,0.059891
1978,6.8002,0.29438,0.1,6.8315e-05,682.68,6.7372e-05,655.34,-2.2211e-05,-17.753,-2.4712e-05,-36.547,0.066854
1979,23.258,4.1378,0.1,1.2329e-06,12.321,6.319e-07,3.0254,2.8536e-07,0.42166,-1.1535e-06,-10.389,0.53681
1980,23.26,4.8865,0.1,9.4283e-07,9.4218,5.2129e-07,2.7915,1.8958e-07,0.29916,-8.6518e-07,-7.6259,0.53682
1981,22.892,4.5234,0.1,1.3253e-06,13.244,8.5738e-07,5.5987,1.7196e-07,0.44869,-1.145e-06,-9.4464,0.5254
1982,23.631,4.507,0.1,1.0467e-06,10.46,4.8743e-07,2.0089,2.8187e-07,0.46443,-9.9602e-07,-9.1372,0.54838
1983,23.258,3.3853,0.1,1.3818e-06,13.808,6.9067e-07,3.1184,3.2704e-07,0.38623,-1.3017e-06,-11.851,0.53682
1984,22.882,3.7693,0.1,1.5346e-06,15.335,9.4672e-07,5.7795,2.2704e-07,0.37211,-1.3566e-06,-11.527,0.52512
1985,23.628,3.7558,0.1,1.269e-06,12.681,5.7539e-07,2.1504,3.4309e-07,0.40497,-1.2164e-06,-11.313,0.54832
1986,23.259,2.6303,0.1,1.3824e-06,13.815,6.8974e-07,3.1094,3.2862e-07,0.39605,-1.3026e-06,-11.861,0.53686
1987,22.885,3.0143,0.1,1.6075e-06,16.064,9.7419e-07,5.8195,2.5153e-07,0.38978,-1.4314e-06,-12.255,0.52522
1988,23.63,3.0046,0.1,1.3439e-06,13.43,6.0246e-07,2.1944,3.6821e-07,0.43435,-1.2905e-06,-12.028,0.54841
1989,23.26,1.8717,0.1,1.2352e-06,12.343,6.3109e-07,3.0113,2.8784e-07,0.4322,-1.1562e-06,-10.418,0.5369
1990,22.888,2.2542,0.1,1.5348e-06,15.337,9.4471e-07,5.7477,2.283e-07,0.36491,-1.3582e-06,-11.555,0.52532
1991,23.629,2.2507,0.1,1.2703e-06,12.694,5.751e-07,2.1451,3.4438e-07,0.41153,-1.2179e-06,-11.326,0.54837
1992,23.261,1.1175,0.1,9.4501e-07,9.4435,5.2188e-07,2.7878,1.9025e-07,0.29613,-8.6754e-07,-7.6517,0.53692
1993,22.898,1.4848,0.1,1.3257e-06,13.248,8.5431e-07,5.5644,1.7581e-07,0.46646,-1.1473e-06,-9.4749,0.52562
1994,23.631,1.496,0.1,1.0491e-06,10.483,4.8898e-07,2.0174,2.8204e-07,0.46256,-9.9819e-07,-9.1566,0.54844
1995,23.63,0.74658,0.1,6.7003e-07,6.6957,3.4327e-07,1.5667,1.4739e-07,0.094928,-6.2951e-07,-5.7424,0.54838
1996,23.255,0.37158,0.1,6.6695e-07,6.6649,3.8412e-07,2.0058,1.0426e-07,-0.096922,-6.0909e-07,-5.4568,0.5367
1997,5.6909,4.0775,0.1,0.00015674,1566.3,0.00015505,1529.5,-4.1553e-05,52.257,-6.352e-05,-112.8,0.046069
1998,5.4783,3.9587,0.1,0.00032689,3266.6,0.00032817,3326.4,-8.4186e-05,228.08,-0.00012597,-85.897,0.042329
1999,5.6955,4.414,0.1,0.00012425,1241.6,0.00011729,1086.8,-2.5296e-05,15.467,-6.3812e-05,-273.93,0.045709
2000,5.9168,4.1973,0.1,0.0001248,1247.2,0.00012212,1177,-3.5137e-05,-4.5698,-5.1405e-05,-126.8,0.05025
2001,5.4792,4.2854,0.1,0.00016344,1633.3,0.0001526,1412.6,-2.7107e-05,62.333,-8.9014e-05,-402.81,0.041803
2002,5.7651,4.7476,0.1,8.8415e-05,883.54,8.251e-05,757.53,-1.5946e-05,17.769,-4.7699e-05,-220.81,0.04659
2003,5.4829,4.6286,0.1,9.7593e-05,975.25,9.1412e-05,844.11,-1.7728e-05,24.069,-5.2118e-05,-234.32,0.041257
2004,6.0258,5.3926,0.1,5.6365e-05,563.26,5.5173e-05,533.3,-1.528e-05,3.9467,-2.3609e-05,-58.639,0.050933
2005,5.9122,5.0581,0.1,6.5892e-05,658.46,6.3569e-05,604.79,-1.5438e-05,11.166,-3.0694e-05,-103.46,0.049093
2006,5.63,5.2724,0.1,4.8962e-05,489.29,4.9602e-05,508.59,-1.4269e-05,28.681,-1.6698e-05,10.431,0.043083
2007,6.4383,5.497,0.1,6.0319e-05,602.77,5.9606e-05,582.89,-1.8564e-05,-4.452,-2.2525e-05,-34.21,0.059341
2008,5.6624,5.6202,0.1,3.8707e-05,386.8,3.9775e-05,418.86,-1.041e-05,41.791,-1.2908e-05,23.022,0.043176
2009,6.0371,5.7869,0.1,4.7415e-05,473.82,4.6807e-05,457.89,-1.3767e-05,2.761,-1.8478e-05,-32.637,0.050585
2010,7.8742,5.261,0.1,7.2088e-05,720.38,7.2011e-05,718.12,-2.3616e-05,-0.38113,-2.4115e-05,-4.126,0.091108
2011,7.1696,5.3497,0.1,7.1685e-05,716.36,7.1171e-05,701.42,-2.3258e-05,-8.0824,-2.5058e-05,-21.606,0.075199
2012,7.5177,5.6396,0.1,7.2423e-05,723.73,7.2165e-05,716.21,-2.3686e-05,-3.9877,-2.4622e-05,-11.016,0.082608
2013,8.6076,5.2537,0.1,6.7994e-05,679.47,6.8092e-05,682.39,-2.1908e-05,6.1677,-2.2766e-05,-0.27968,0.10834
2014,8.2459,5.6213,0.1,7.0162e-05,701.14,7.0134e-05,700.32,-2.3087e-05,-0.11086,-2.3276e-05,-1.5271,0.099384
2015,9.3714,5.2739,0.1,6.23e-05,622.57,6.2428e-05,626.37,-2.0071e-05,6.5033,-2.0785e-05,1.1406,0.12704
2016,8.9797,4.9061,0.1,6.5087e-05,650.42,6.5388e-05,659.48,-2.0203e-05,16.391,-2.2122e-05,1.9682,0.11764
2017,9.0003,5.6323,0.1,6.5442e-05,653.97,6.5483e-05,655.19,-2.1386e-05,2.4833,-2.1722e-05,-0.037986,0.11751
2018,10.134,5.2864,0.1,5.6396e-05,563.57,5.6471e-05,565.8,-1.8279e-05,4.1585,-1.8789e-05,0.32345,0.14643
2019,9.759,4.9312,0.1,5.9027e-05,589.86,5.9195e-05,594.94,-1.8612e-05,10.327,-1.9991e-05,-0.029787,0.13708
2020,9.759,5.6416,0.1,5.9556e-05,595.15,5.9612e-05,596.79,-1.9436e-05,2.8581,-1.9758e-05,0.44399,0.13649
2021,10.887,5.2896,0.1,5.0621e-05,505.86,5.0652e-05,506.77,-1.6606e-05,1.4204,-1.6742e-05,0.4006,0.16624
2022,10.512,4.9344,0.1,5.3163e-05,531.27,5.3265e-05,534.3,-1.7091e-05,5.6684,-1.7788e-05,0.43279,0.15656
2023,10.512,5.6448,0.1,5.3654e-05,536.17,5.368e-05,536.92,-1.7645e-05,1.0171,-1.7716e-05,0.47959,0.15601
2024,11.636,5.2896,0.1,4.5166e-05,451.35,4.5152e-05,450.95,-1.482e-05,0.33687,-1.5017e-05,-1.1439,0.18652
2025,11.261,4.9344,0.1,4.7627e-05,475.94,4.7661e-05,476.94,-1.5588e-05,1.7109,-1.5777e-05,0.29075,0.17655
2026,11.261,5.6448,0.1,4.7995e-05,479.62,4.798e-05,479.19,-1.5739e-05,0.42242,-1.5967e-05,-1.287,0.17604
2027,12.385,5.2896,0.1,4.0007e-05,399.8,3.9959e-05,398.4,-1.3027e-05,0.28218,-1.3472e-05,-3.062,0.20731
2028,12.011,4.9344,0.1,4.2372e-05,423.43,4.2356e-05,422.95,-1.3897e-05,0.28769,-1.41e-05,-1.2364,0.19707
2029,12.011,5.6448,0.1,4.2633e-05,426.04,4.2584e-05,424.62,-1.3892e-05,0.28565,-1.4341e-05,-3.0923,0.19661
2030,13.135,5.2896,0.1,3.5151e-05,351.27,3.5076e-05,349.1,-1.1355e-05,0.2387,-1.199e-05,-4.533,0.22854
2031,12.76,4.9344,0.1,3.74e-05,373.75,3.7345e-05,372.16,-1.2148e-05,0.28082,-1.2643e-05,-3.4342,0.21806
2032,12.76,5.6448,0.1,3.7579e-05,375.53,3.7504e-05,373.36,-1.2163e-05,0.18758,-1.2785e-05,-4.4848,0.21765
2033,13.884,5.2896,0.1,3.0601e-05,305.8,3.0505e-05,303.04,-9.7992e-06,0.21209,-1.058e-05,-5.6566,0.25016
2034,13.509,4.9344,0.1,3.2728e-05,327.05,3.2643e-05,324.63,-1.0526e-05,0.27259,-1.1235e-05,-5.0601,0.23947
2035,13.509,5.6448,0.1,3.2843e-05,328.21,3.2747e-05,325.44,-1.0553e-05,0.1061,-1.1306e-05,-5.5553,0.2391
2036,14.633,5.2896,0.1,2.6366e-05,263.48,2.6253e-05,260.27,-8.3632e-06,0.18023,-9.2481e-06,-6.4687,0.27211
2037,14.259,4.9344,0.1,2.8358e-05,283.38,2.8251e-05,280.35,-9.0192e-06,0.31419,-9.8961e-06,-6.2743,0.26125
2038,14.259,5.6448,0.1,2.8424e-05,284.04,2.8311e-05,280.84,-9.0582e-06,0.058057,-9.9124e-06,-6.3605,0.26092
2039,15.383,5.2896,0.1,2.2454e-05,224.38,2.2328e-05,220.86,-7.0457e-06,0.15535,-8.0018e-06,-7.0281,0.29436
2040,15.008,4.9344,0.1,2.4292e-05,242.75,2.4167e-05,239.25,-7.6319e-06,0.32954,-8.6269e-06,-7.1467,0.28334
2041,15.008,5.6448,0.1,2.4333e-05,243.16,2.4208e-05,239.63,-7.6843e-06,0.004096,-8.6057e-06,-6.9193,0.28305
2042,16.132,5.2896,0.1,1.886e-05,188.47,1.8725e-05,184.72,-5.8372e-06,0.17093,-6.8499e-06,-7.4379,0.31685
2043,15.757,4.9344,0.1,2.0555e-05,205.41,2.0416e-05,201.53,-6.3738e-06,0.24796,-7.4411e-06,-7.7712,0.30569
2044,15.757,5.6448,0.1,2.0567e-05,205.53,2.0432e-05,201.76,-6.4222e-06,-0.017483,-7.3956e-06,-7.3306,0.30544
2045,16.881,5.2896,0.1,1.5587e-05,155.76,1.5443e-05,151.82,-4.7423e-06,0.15663,-5.7929e-06,-7.7373,0.33955
2046,16.507,4.9344,0.1,1.7132e-05,171.2,1.6981e-05,167.07,-5.2208e-06,0.25278,-6.3466e-06,-8.2061,0.32828
2047,16.507,5.6448,0.1,1.7123e-05,171.11,1.698e-05,167.15,-5.2696e-06,-0.020851,-6.2835e-06,-7.6389,0.32806
2048,17.631,5.2896,0.1,1.2638e-05,126.29,1.2486e-05,122.19,-3.7598e-06,0.12991,-4.8345e-06,-7.9452,0.36241
2049,17.256,4.9344,0.1,1.4024e-05,140.14,1.3863e-05,135.82,-4.1728e-06,0.30462,-5.349e-06,-8.5323,0.35105
2050,17.256,5.6448,0.1,1.4007e-05,139.97,1.3856e-05,135.86,-4.2341e-06,-0.063477,-5.2682e-06,-7.8338,0.35086
2051,18.38,5.2896,0.1,1.0013e-05,100.06,9.8528e-06,95.844,-2.8848e-06,0.13833,-3.9769e-06,-8.0676,0.38541
2052,18.005,4.9344,0.1,1.1248e-05,112.4,1.1076e-05,107.89,-3.2437e-06,0.29332,-4.45e-06,-8.7701,0.37397
2053,18.005,5.6448,0.1,1.1214e-05,112.06,1.1056e-05,107.84,-3.305e-06,-0.069513,-4.3555e-06,-7.9627,0.37382
2054,19.129,5.2896,0.1,7.7134e-06,77.081,7.5455e-06,72.784,-2.1226e-06,0.14219,-3.2164e-06,-8.076,0.40852
2055,18.755,4.9344,0.1,8.7888e-06,87.827,8.6066e-06,83.169,-2.4251e-06,0.28147,-3.6443e-06,-8.8788,0.39701
2056,18.755,5.6448,0.1,8.7482e-06,87.422,8.5832e-06,83.101,-2.4858e-06,-0.067553,-3.5455e-06,-8.0292,0.39689
2057,19.881,5.284,0.1,5.7323e-06,57.283,5.554e-06,52.894,-1.4679e-06,0.13466,-2.5553e-06,-8.0357,0.43178
2058,19.507,4.9315,0.1,6.6514e-06,66.468,6.4573e-06,61.689,-1.7147e-06,0.28806,-2.9364e-06,-8.8914,0.42025
2059,19.504,5.6448,0.1,6.6084e-06,66.038,6.4352e-06,61.642,-1.779e-06,-0.075736,-2.8337e-06,-8.0004,0.42005
2060,20.633,5.276,0.1,4.0735e-06,40.707,3.8798e-06,36.193,-9.191e-07,0.13548,-1.9952e-06,-7.9499,0.4551
2061,20.26,4.9177,0.1,4.8436e-06,48.403,4.6307e-06,43.425,-1.1117e-06,0.27897,-2.3354e-06,-8.9152,0.44358
2062,20.256,5.6392,0.1,4.782e-06,47.787,4.5978e-06,43.311,-1.177e-06,-0.078599,-2.2189e-06,-7.9066,0.44335
2063,21.383,5.2722,0.1,2.7449e-06,27.43,2.5312e-06,22.797,-4.862e-07,0.12576,-1.5269e-06,-7.6934,0.47841
2064,21.009,4.9072,0.1,3.3659e-06,33.636,3.1264e-06,28.422,-6.1823e-07,0.28636,-1.832e-06,-8.8333,0.46681
2065,21.005,5.6368,0.1,3.2909e-06,32.886,3.0898e-06,28.29,-6.8708e-07,-0.087888,-1.7069e-06,-7.7503,0.46662
2066,22.136,5.268,0.1,1.7326e-06,17.314,1.4917e-06,12.573,-1.6453e-07,0.12895,-1.14e-06,-7.2001,0.50182
2067,21.761,4.9105,0.1,2.2235e-06,22.22,1.9472e-06,16.737,-2.4105e-07,0.29559,-1.4172e-06,-8.5418,0.49017
2068,21.756,5.6354,0.1,2.1176e-06,21.161,1.8952e-06,16.478,-3.1135e-07,-0.10142,-1.277e-06,-7.3568,0.48996
2069,22.886,5.2621,0.1,1.0392e-06,10.385,7.5856e-07,5.4877,4.675e-08,0.13942,-8.3436e-07,-6.4809,0.52515
2070,22.518,4.899,0.1,1.4067e-06,14.057,1.0704e-06,8.1123,2.8779e-08,0.2863,-1.0895e-06,-8.1162,0.51374
2071,22.507,5.6326,0.1,1.2394e-06,12.385,9.8864e-07,7.684,-4.0997e-08,-0.052249,-9.1257e-07,-6.6009,0.51334
2072,23.255,5.6295,0.1,6.6662e-07,6.6616,3.8427e-07,2.007,1.0369e-07,-0.10117,-6.0867e-07,-5.4536,0.53661
2073,23.629,5.2545,0.1,6.6959e-07,6.6912,3.427e-07,1.5625,1.4766e-07,0.096976,-6.292e-07,-5.7401,0.54829
2074,5.4755,2.5448,0.1,0.00023152,2313.6,0.00022612,2173,-6.4544e-05,-10.928,-9.6571e-05,-251.57,0.042898
2075,5.1991,2.3678,0.1,0.00028723,2870.3,0.00027337,2505,-7.8738e-05,-140.63,-0.00013279,-546.76,0.038159
2076,5.2866,2.225,0.1,0.00034934,3491,0.00034881,3494.8,-9.4221e-05,166.04,-0.00013475,-138.45,0.039363
2077,5.1604,3.6903,0.1,0.0002925,2923,0.00027858,2561.6,-7.8055e-05,-117.95,-0.00013627,-555.39,0.037447
2078,5.0601,3.8142,0.1,0.00036932,3690.7,0.00036093,3496.4,-9.244e-05,89.98,-0.00016091,-424.49,0.035718
2079,9.3674,4.5634,0.1,6.1836e-05,617.93,6.2169e-05,628.16,-1.8757e-05,20.114,-2.1328e-05,0.79624,0.12744
2080,10.137,4.5792,0.1,5.5811e-05,557.72,5.6003e-05,563.54,-1.7437e-05,11.742,-1.8989e-05,0.07903,0.147
2081,10.887,4.5792,0.1,5.0185e-05,501.5,5.0288e-05,504.57,-1.6088e-05,5.8524,-1.6823e-05,0.32706,0.16668
2082,11.636,4.5792,0.1,4.4851e-05,448.2,4.488e-05,449.07,-1.4687e-05,1.5029,-1.4855e-05,0.2381,0.18693
2083,12.385,4.5792,0.1,3.9785e-05,397.58,3.976e-05,396.84,-1.3019e-05,0.2832,-1.3288e-05,-1.7386,0.20768
2084,13.135,4.5792,0.1,3.4999e-05,349.75,3.4932e-05,347.83,-1.1319e-05,0.31445,-1.1907e-05,-4.1048,0.22887
2085,13.884,4.5792,0.1,3.0507e-05,304.86,3.041e-05,302.09,-9.7456e-06,0.37514,-1.0572e-05,-5.8312,0.25045
2086,14.633,4.5792,0.1,2.6308e-05,262.9,2.6187e-05,259.49,-8.2878e-06,0.46389,-9.2965e-06,-7.1151,0.27237
2087,15.383,4.5792,0.1,2.2419e-05,224.03,2.2277e-05,220.09,-6.9597e-06,0.42316,-8.0883e-06,-8.0564,0.29459
2088,16.132,4.5792,0.1,1.8854e-05,188.41,1.8695e-05,184.05,-5.757e-06,0.33261,-6.9607e-06,-8.7115,0.31705
2089,16.881,4.5792,0.1,1.5596e-05,155.85,1.5425e-05,151.24,-4.6511e-06,0.40317,-5.9262e-06,-9.1773,0.33972
2090,17.631,4.5792,0.1,1.266e-05,126.51,1.2476e-05,121.69,-3.6566e-06,0.46967,-4.9879e-06,-9.5331,0.36256
2091,18.38,4.5792,0.1,1.0051e-05,100.44,9.8535e-06,95.39,-2.7838e-06,0.43861,-4.1414e-06,-9.7623,0.38554
2092,19.133,4.5763,0.1,7.7552e-06,77.498,7.5428e-06,72.257,-2.0168e-06,0.42999,-3.389e-06,-9.8802,0.40872
2093,19.886,4.5652,0.1,5.7915e-06,57.875,5.5589e-06,52.407,-1.3581e-06,0.43521,-2.7418e-06,-9.9608,0.43203
2094,20.636,4.5488,0.1,4.1657e-06,41.628,3.9036e-06,35.853,-8.1044e-07,0.43279,-2.1989e-06,-9.9993,0.45528
2095,21.386,4.5455,0.1,2.8742e-06,28.722,2.5701e-06,22.57,-3.7268e-07,0.4592,-1.7505e-06,-9.8931,0.47856
2096,22.143,4.5415,0.1,1.924e-06,19.227,1.5549e-06,12.495,-4.7343e-08,0.45594,-1.3963e-06,-9.6792,0.50208
2097,22.509,3.3983,0.1,1.772e-06,17.708,1.2233e-06,8.4288,1.5096e-07,0.37139,-1.4789e-06,-11.875,0.51353
2098,22.516,4.155,0.1,1.6348e-06,16.337,1.1622e-06,8.2779,1.1314e-07,0.39541,-1.3377e-06,-10.506,0.51372
2099,22.514,2.6383,0.1,1.7718e-06,17.706,1.2223e-06,8.4066,1.5064e-07,0.35429,-1.4796e-06,-11.895,0.51369
2100,22.526,1.8673,0.1,1.6328e-06,16.317,1.1578e-06,8.2245,1.157e-07,0.39478,-1.3385e-06,-10.532,0.51405
2101,21.393,1.4892,0.1,2.8774e-06,28.754,2.5686e-06,22.512,-3.6887e-07,0.4409,-1.7592e-06,-10.005,0.4788
2102,22.153,1.4863,0.1,1.9178e-06,19.165,1.544e-06,12.363,-4.1353e-08,0.45081,-1.3983e-06,-9.7445,0.50246
2103,20.635,1.4647,0.1,4.1743e-06,41.715,3.9089e-06,35.88,-8.0586e-07,0.45544,-2.2103e-06,-10.097,0.45526
2104,19.883,1.4471,0.1,5.7999e-06,57.959,5.5615e-06,52.382,-1.3469e-06,0.47457,-2.7618e-06,-10.156,0.43196
2105,19.132,1.4346,0.1,7.7598e-06,77.544,7.5436e-06,72.229,-2.0071e-06,0.46857,-3.4044e-06,-10.03,0.40873
2106,18.38,1.4208,0.1,1.0054e-05,100.47,9.8551e-06,95.387,-2.7863e-06,0.40435,-4.1426e-06,-9.7865,0.38558
2107,17.631,1.4208,0.1,1.2669e-05,126.6,1.2484e-05,121.74,-3.6665e-06,0.38921,-4.9865e-06,-9.5291,0.3626
2108,16.878,1.4259,0.1,1.5612e-05,156.01,1.544e-05,151.41,-4.6537e-06,0.42902,-5.9331e-06,-9.1838,0.33966
2109,16.126,1.4408,0.1,1.8877e-05,188.64,1.8718e-05,184.31,-5.7442e-06,0.51236,-6.9854e-06,-8.8134,0.31692
2110,15.38,1.4357,0.1,2.2432e-05,224.16,2.229e-05,220.24,-6.959e-06,0.47547,-8.0961e-06,-8.0682,0.29456
2111,14.633,1.4208,0.1,2.6318e-05,263,2.6194e-05,259.5,-8.309e-06,0.26137,-9.2883e-06,-7.0967,0.27242
2112,13.884,1.4208,0.1,3.0518e-05,304.97,3.0418e-05,302.12,-9.7526e-06,0.29892,-1.0576e-05,-5.8883,0.25049
2113,13.135,1.4208,0.1,3.5008e-05,349.83,3.4942e-05,347.95,-1.1314e-05,0.39836,-1.1916e-05,-4.1219,0.22891
2114,12.385,1.4208,0.1,3.9805e-05,397.77,3.9781e-05,397.09,-1.3024e-05,0.32962,-1.3293e-05,-1.6935,0.20772
2115,11.636,1.4208,0.1,4.4892e-05,448.61,4.4923e-05,449.52,-1.4693e-05,1.5918,-1.4873e-05,0.24211,0.18697
2116,10.887,1.4208,0.1,5.0251e-05,502.16,5.0351e-05,505.16,-1.6101e-05,5.8656,-1.6857e-05,0.18307,0.16673
2117,10.138,1.4302,0.1,5.587e-05,558.31,5.6058e-05,564.01,-1.7502e-05,11.313,-1.8973e-05,0.25714,0.14706
2118,0.36329,2.2486,0.1,0.0001311,1310.1,0.00014645,1825.8,-9.2161e-07,718.57,-4.6042e-05,379.55,0.00019751
2119,8.3089,1.8027,0.1,7.0765e-05,707.16,7.1343e-05,725.72,-2.0074e-05,38.843,-2.5259e-05,-0.11413,0.10199
2120,2.99,1.714,0.1,0.00012094,1208.5,0.00012281,1277.1,-2.7115e-05,150.68,-4.7094e-05,0.56198,0.01254
2121,3.0789,2.4143,0.1,0.00012601,1259.2,0.0001284,1353.9,-2.3889e-05,209.67,-5.115e-05,4.8423,0.013563
2122,6.7919,5.7101,0.1,6.7701e-05,676.54,6.6784e-05,649.87,-2.2147e-05,-18.314,-2.4331e-05,-34.725,0.06657
2123,3.9483,5.3948,0.1,8.9571e-05,895.1,8.8682e-05,869.5,-2.8683e-05,-12.33,-3.2138e-05,-38.291,0.020031
2124,3.6119,5.6885,0.1,0.00010253,1024.6,0.00010181,1003.6,-3.4356e-05,-19.557,-3.4742e-05,-22.457,0.016367
2125,6.056,4.7905,0.1,7.8292e-05,782.38,7.6192e-05,728.07,-2.1495e-05,-5.9126,-3.336e-05,-95.06,0.052342
2126,4.1156,1.1957,0.1,0.00010756,1074.8,0.00010486,999.09,-3.312e-05,-37.634,-4.2776e-05,-110.19,0.02264
2127,4.2713,1.0153,0.1,9.2911e-05,928.47,9.0454e-05,864.37,-2.579e-05,-9.0328,-3.9331e-05,-110.78,0.024016
2128,6.0483,0.63898,0.1,5.9045e-05,590.04,5.7771e-05,558.08,-1.5962e-05,4.0723,-2.4805e-05,-62.366,0.051541
2129,5.6746,0.39257,0.1,4.047e-05,404.42,4.1586e-05,437.91,-1.0896e-05,43.58,-1.3488e-05,24.099,0.043559
2130,6.0492,0.2259,0.1,4.8687e-05,486.53,4.7939e-05,466.86,-1.4048e-05,1.1113,-1.9264e-05,-38.077,0.050968
2131,4.7573,3.0076,0.1,0.00021508,2149.3,0.00021406,2121.4,-6.6648e-05,12.3,-7.7054e-05,-65.888,0.031998
2132,5.4469,3.0453,0.1,0.00022006,2199.1,0.00021802,2144.5,-6.5958e-05,10.768,-8.2634e-05,-114.53,0.042568
2133,5.0867,3.04,0.1,0.00023249,2323.3,0.00023021,2261.5,-7.0084e-05,5.1882,-8.721e-05,-123.49,0.036776
2134,5.4622,2.7846,0.1,0.00021734,2171.9,0.00021643,2147.2,-6.7282e-05,15.507,-7.7701e-05,-62.776,0.042797
2135,4.4952,5.2888,0.1,7.5072e-05,750.2,7.0873e-05,655.37,-1.565e-05,5.272,-3.8377e-05,-165.49,0.025859
2136,4.7078,5.5396,0.1,5.702e-05,569.8,5.7529e-05,585.09,-1.7244e-05,23.275,-1.9327e-05,7.6277,0.027624
2137,4.3435,5.7063,0.1,6.8772e-05,687.25,6.768e-05,659.07,-1.9472e-05,4.2424,-2.7565e-05,-56.563,0.023455
2138,4.8875,5.2492,0.1,5.6486e-05,564.47,5.2844e-05,478.73,-1.2311e-05,-10.815,-2.9333e-05,-138.71,0.030207
2139,5.6959,2.4606,0.1,0.00018281,1826.8,0.00018365,1851.9,-5.7319e-05,41.351,-6.1601e-05,9.1803,0.046725
2140,5.5488,4.9524,0.1,6.452e-05,644.76,6.3089e-05,614.32,-1.5194e-05,26.128,-2.8659e-05,-75.043,0.041986
2141,4.8985,3.9582,0.1,0.00033636,3361.3,0.00033389,3322.3,-8.5019e-05,174.72,-0.00013732,-218.25,0.033163
2142,5.6404,0.74641,0.1,5.1979e-05,519.43,5.2578e-05,537.33,-1.5567e-05,25.321,-1.7501e-05,10.79,0.043428
2143,5.507,2.1407,0.1,0.00030868,3084.7,0.00031329,3225.9,-8.6411e-05,222.72,-0.00010731,65.708,0.043029
2144,4.825,0.99614,0.1,8.0701e-05,806.46,7.7537e-05,739.98,-1.662e-05,32.52,-3.9335e-05,-138.15,0.030076
2145,4.7435,0.34277,0.1,4.8338e-05,483.05,4.9679e-05,523.25,-1.3039e-05,52.005,-1.6074e-05,29.202,0.027771
2146,4.3792,0.1761,0.1,6.2855e-05,628.12,6.2561e-05,620.3,-1.921e-05,5.9082,-2.2749e-05,-20.687,0.023595
2147,5.2836,3.8762,0.1,0.00039314,3928.7,0.00038635,3774.2,-0.00010066,114.97,-0.00016621,-377.56,0.039105
2148,5.0959,2.1428,0.1,0.00039166,3913.9,0.00038088,3659.3,-9.7395e-05,65.677,-0.00017414,-510.93,0.0362
2149,5.2667,5.5,0.1,3.5633e-05,356.09,3.7771e-05,420.95,-7.3893e-06,81.633,-1.1575e-05,50.184,0.035377
2150,5.2667,5.8333,0.1,2.3759e-05,237.42,2.5789e-05,306.61,-1.4687e-06,101.81,-8.8464e-06,46.377,0.034792
2151,5.2667,5.6667,0.05,5.3629e-06,53.592,4.118e-06,30.941,-8.735e-22,-6.5631e-15,-4.118e-06,-30.941,0.035068
2152,5.2667,5.1667,0.1,5.3509e-05,534.72,5.4123e-05,555.68,-1.3768e-05,45.579,-1.9921e-05,-0.65278,0.03599
2153,5.2667,5.3333,0.05,6.4197e-06,64.153,4.9296e-06,37.039,-1.0456e-21,-7.8565e-15,-4.9296e-06,-37.039,0.035665
2154,5.2667,4.8333,0.1,8.1612e-05,815.56,7.837e-05,748.82,-1.6367e-05,37.004,-4.0065e-05,-141.06,0.036643
2155,5.2667,5,0.05,1.0725e-05,107.18,8.2356e-06,61.879,-1.7469e-21,2.5855e-06,-8.2356e-06,-61.879,0.036296
2156,5.2667,4.5,0.1,0.00015147,1513.7,0.00013835,1257.3,-2.0143e-05,66.402,-8.8352e-05,-446.1,0.037355
2157,5.2667,4.6667,0.05,2.387e-05,238.53,1.8329e-05,137.72,-3.8879e-21,-2.9212e-14,-1.8329e-05,-137.72,0.036976
2158,5.2667,4.1667,0.1,0.00031924,3190.2,0.00031402,3121.6,-6.431e-05,278.96,-0.0001452,-328.8,0.038147
2159,5.2667,4.3333,0.05,4.9065e-05,490.31,3.7676e-05,283.08,3.5254e-13,-6.0046e-14,-3.7676e-05,-283.08,0.037724
2160,5.1833,4,0.1,0.00040409,4038.1,0.00041107,4275.9,-9.5784e-05,467.63,-0.00015247,41.676,0.037193
2161,5.2667,4,0.05,4.5484e-05,454.53,3.4926e-05,262.42,-7.3397e-21,-2.4359e-13,-3.4926e-05,-262.42,0.038542
2162,5.1,4.1667,0.1,0.00032398,3237.6,0.00031129,3001.1,-5.8635e-05,221.69,-0.00016184,-553.76,0.035459
2163,5.1,4,0.05,2.8437e-05,284.18,2.1836e-05,164.07,-4.1158e-12,-4.0603e-05,-2.1836e-05,-164.07,0.035906
2164,5.1,4.5,0.1,0.00017894,1788.2,0.00015628,1369.3,-1.3854e-05,90.973,-0.00011568,-674.1,0.03451
2165,5.1,4.3333,0.05,5.7496e-05,574.56,4.415e-05,331.72,-9.4942e-14,-7.0364e-14,-4.415e-05,-331.72,0.034968
2166,5.1,4.8333,0.1,0.00010221,1021.4,9.3617e-05,857.4,-1.3052e-05,55.931,-5.9448e-05,-292.67,0.033608
2167,5.1,4.6667,0.05,3.0065e-05,300.44,2.3086e-05,173.46,-1.8928e-14,-3.6793e-14,-2.3086e-05,-173.46,0.034046
2168,5.1,5.1667,0.1,5.9899e-05,598.58,5.6775e-05,527.25,-1.2885e-05,3.851,-3.0087e-05,-125.4,0.032758
2169,5.1,5,0.05,1.5319e-05,153.09,1.1763e-05,88.384,-2.4951e-21,-1.8748e-14,-1.1763e-05,-88.384,0.033171
2170,5.1,5.5,0.1,4.1166e-05,411.37,4.1472e-05,423.28,-1.0393e-05,33.582,-1.5767e-05,-6.8023,0.03196
2171,5.1,5.3333,0.05,8.3643e-06,83.585,6.4227e-06,48.258,-1.3624e-21,-1.0236e-14,-6.4227e-06,-48.258,0.032344
2172,5.1,5.8333,0.1,3.023e-05,302.1,3.3271e-05,405.07,-1.0281e-06,147.36,-1.0976e-05,72.621,0.031187
2173,5.1,5.6667,0.05,1.0473e-05,104.66,8.0419e-06,60.423,5.3988e-14,-1.2817e-14,-8.0419e-06,-60.423,0.031566
2174,5.2667,0.5,0.1,3.7982e-05,379.56,4.0105e-05,445.06,-7.5311e-06,87.136,-1.2866e-05,47.048,0.035504
2175,5.2667,0.16667,0.1,2.5594e-05,255.77,2.7691e-05,327.3,-1.7613e-06,106.01,-9.5784e-06,47.274,0.034926
2176,5.2667,0.33333,0.05,5.843e-06,58.389,4.4867e-06,33.711,-9.5169e-22,-7.1506e-15,-4.4867e-06,-33.711,0.035199
2177,5.2667,0.83333,0.1,5.5595e-05,555.57,5.6681e-05,590.23,-1.4034e-05,58.908,-2.0111e-05,13.248,0.036108
2178,5.2667,0.66667,0.05,7.0253e-06,70.205,5.3946e-06,40.533,-1.1443e-21,-8.5976e-15,-5.3946e-06,-40.533,0.035787
2179,5.2667,1.1667,0.1,9.3445e-05,933.8,9.1501e-05,903.96,-1.851e-05,77.375,-4.331e-05,-108.97,0.036752
2180,5.2667,1,0.05,1.0212e-05,102.05,7.8419e-06,58.921,-1.5464e-13,-1.2498e-14,-7.8419e-06,-58.921,0.036409
2181,5.2667,1.5,0.1,0.0001701,1699.8,0.00016427,1581.4,-3.5008e-05,84.154,-8.1652e-05,-266.31,0.037454
2182,5.2667,1.3333,0.05,2.432e-05,243.03,1.8675e-05,140.31,-9.0262e-14,-9.6479e-14,-1.8675e-05,-140.31,0.037081
2183,5.2667,1.8333,0.1,0.00031916,3189.4,0.00032211,3295.8,-8.1543e-05,262.86,-0.00012051,-29.928,0.038215
2184,5.2667,1.6667,0.05,4.4063e-05,440.32,3.3835e-05,254.22,-3.2453e-12,-5.3924e-14,-3.3835e-05,-254.22,0.037811
2185,5.1833,2,0.1,0.00040836,4080.7,0.00041631,4348.5,-9.5487e-05,503.01,-0.00015347,67.383,0.037233
2186,5.2667,2,0.05,2.9574e-05,295.53,2.2709e-05,170.63,5.5549e-13,4.6598e-06,-2.2709e-05,-170.63,0.03859
2187,5.1,1.8333,0.1,0.00032369,3234.7,0.00030964,2985.6,-5.3242e-05,259.02,-0.00016603,-588.44,0.035486
2188,5.1,2,0.05,4.608e-05,460.48,3.5384e-05,265.86,9.3946e-12,3.4607e-05,-3.5384e-05,-265.86,0.035937
2189,5.1,1.5,0.1,0.00017924,1791.2,0.00015626,1356.6,-1.5277e-05,67.734,-0.00011595,-688.72,0.034532
2190,5.1,1.6667,0.05,5.2642e-05,526.05,4.0422e-05,303.72,-8.5742e-21,-6.4423e-14,-4.0422e-05,-303.72,0.034993
2191,5.1,1.1667,0.1,0.00010289,1028.1,9.5542e-05,883.41,-1.5523e-05,48.912,-5.7319e-05,-265.12,0.033629
2192,5.1,1.3333,0.05,2.9906e-05,298.85,2.2964e-05,172.54,-4.871e-21,-3.6599e-14,-2.2964e-05,-172.54,0.034066
2193,5.1,0.83333,0.1,6.8414e-05,683.67,6.7516e-05,670.42,-1.5193e-05,48.984,-2.9952e-05,-61.908,0.032779
2194,5.1,1,0.05,1.5296e-05,152.85,1.1745e-05,88.251,-2.4914e-21,-2.0634e-06,-1.1745e-05,-88.251,0.033192
2195,5.1,0.5,0.1,4.4941e-05,449.1,4.7186e-05,515.16,-1.218e-05,69.099,-1.2982e-05,63.074,0.031975
2196,5.1,0.66667,0.05,8.855e-06,88.489,6.7995e-06,51.089,-1.9278e-13,-1.0837e-14,-6.7995e-06,-51.089,0.032366
2197,5.1,0.16667,0.1,2.8209e-05,281.9,3.1049e-05,370.81,-3.0487e-06,114.61,-9.1433e-06,68.82,0.031204
2198,5.1,0.33333,0.05,6.61e-06,66.055,5.0757e-06,38.137,-1.0766e-21,-6.4784e-06,-5.0757e-06,-38.137,0.031581
2199,5.6413,6,0.1,3.206e-05,320.38,3.291e-05,346.31,-8.3067e-06,36.621,-1.1023e-05,16.21,0.042123
2200,5.2667,6,0.05,4.311e-06,43.08,3.3103e-06,24.872,2.5468e-14,-5.2758e-15,-3.3103e-06,-24.872,0.034488
2201,6.3907,6,0.1,5.4283e-05,542.46,5.3559e-05,521.67,-1.7313e-05,-10.83,-1.9893e-05,-30.219,0.057628
2202,6.016,6,0.05,1.885e-07,1.8837,1.4474e-07,1.0875,-3.0702e-23,-4.5545e-07,-1.4474e-07,-1.0875,0.049807
2203,7.14,6,0.1,6.8392e-05,683.45,6.7738e-05,664.36,-2.2516e-05,-13.775,-2.3914e-05,-24.277,0.073745
2204,6.7653,6,0.05,6.6739e-07,6.6692,5.1247e-07,3.8505,-1.087e-22,1.1704e-07,-5.1247e-07,-3.8505,0.065588
2205,7.8893,6,0.1,7.0463e-05,704.14,7.0256e-05,698.15,-2.2837e-05,-1.3138,-2.407e-05,-10.572,0.09063
2206,7.5147,6,0.05,1.0554e-06,10.547,8.1044e-07,6.0894,4.0171e-13,6.3183e-07,-8.1044e-07,-6.0894,0.08208
2207,8.6387,6,0.1,6.7632e-05,675.85,6.7542e-05,673.24,-2.2094e-05,-0.25349,-2.2719e-05,-4.9489,0.1083
2208,8.264,6,0.05,9.774e-07,9.7672,7.5052e-07,5.6391,-1.592e-22,1.4075e-06,-7.5052e-07,-5.6391,0.099361
2209,9.388,6,0.1,6.2718e-05,626.75,6.2684e-05,625.74,-2.0693e-05,-0.72337,-2.077e-05,-1.2993,0.12673
2210,9.0133,6,0.05,1.4674e-06,14.663,1.1267e-06,8.4659,2.0576e-14,9.458e-07,-1.1267e-06,-8.4659,0.11742
2211,10.137,6,0.1,5.683e-05,567.91,5.6834e-05,568.02,-1.8673e-05,0.69104,-1.8828e-05,-0.47543,0.14587
2212,9.7627,6,0.05,1.5742e-06,15.732,1.2088e-06,9.0826,-1.0758e-14,9.5153e-07,-1.2088e-06,-9.0826,0.13621
2213,10.887,6,0.1,5.1044e-05,510.09,5.1022e-05,509.44,-1.6705e-05,0.56824,-1.7028e-05,-1.8611,0.16563
2214,10.512,6,0.05,1.5841e-06,15.83,1.2164e-06,9.1395,-2.5802e-22,1.0049e-06,-1.2164e-06,-9.1395,0.15567
2215,11.636,6,0.1,4.5479e-05,454.48,4.5427e-05,452.98,-1.4812e-05,0.35898,-1.5304e-05,-3.3363,0.18597
2216,11.261,6,0.05,1.5884e-06,15.873,1.2197e-06,9.1642,-2.8287e-15,1.1919e-06,-1.2197e-06,-9.1642,0.17573
2217,12.385,6,0.1,4.0223e-05,401.96,4.0146e-05,399.71,-1.3027e-05,0.1903,-1.367e-05,-4.6354,0.2068
2218,12.011,6,0.05,1.5522e-06,15.511,1.1919e-06,8.9552,-2.5281e-22,1.1922e-06,-1.1919e-06,-8.9552,0.19632
2219,13.135,6,0.1,3.5291e-05,352.66,3.5192e-05,349.84,-1.1361e-05,0.05909,-1.2119e-05,-5.6388,0.22809
2220,12.76,6,0.05,1.4969e-06,14.959,1.1494e-06,8.6364,-4.1037e-22,1.4305e-06,-1.1494e-06,-8.6364,0.21739
2221,13.884,6,0.1,3.0686e-05,306.64,3.0571e-05,303.38,-9.811e-06,-0.040625,-1.0657e-05,-6.3991,0.24976
2222,13.509,6,0.05,1.427e-06,14.26,1.0957e-06,8.2329,-2.9956e-22,1.6686e-06,-1.0957e-06,-8.2329,0.23887
2223,14.633,6,0.1,2.6411e-05,263.93,2.6284e-05,260.33,-8.378e-06,-0.10865,-9.2894e-06,-6.9562,0.27176
2224,14.259,6,0.05,1.3451e-06,13.442,1.0329e-06,7.7607,1.8157e-16,1.6683e-06,-1.0329e-06,-7.7607,0.26071
2225,15.383,6,0.1,2.2467e-05,224.52,2.233e-05,220.66,-7.0594e-06,-0.1584,-8.0192e-06,-7.37,0.29405
2226,15.008,6,0.05,1.2571e-06,12.562,9.6528e-07,7.2528,2.2723e-13,1.8634e-06,-9.6528e-07,-7.2528,0.28287
2227,16.132,6,0.1,1.8851e-05,188.38,1.8706e-05,184.33,-5.8533e-06,-0.19936,-6.8491e-06,-7.6811,0.31659
2228,15.757,6,0.05,1.1629e-06,11.621,8.9295e-07,6.7093,1.2049e-13,2.2664e-06,-8.9295e-07,-6.7093,0.30529
2229,16.881,6,0.1,1.5564e-05,155.53,1.5412e-05,151.33,-4.7601e-06,-0.23112,-5.7789e-06,-7.8856,0.33932
2230,16.507,6,0.05,1.0639e-06,10.632,8.1696e-07,6.1383,1.2206e-13,2.3861e-06,-8.1696e-07,-6.1383,0.32793
2231,17.631,6,0.1,1.2603e-05,125.95,1.2445e-05,121.64,-3.7779e-06,-0.25245,-4.8093e-06,-8.0019,0.36222
2232,17.256,6,0.05,9.6343e-07,9.6277,7.398e-07,5.5585,-5.2401e-22,2.5024e-06,-7.398e-07,-5.5585,0.35075
2233,18.38,6,0.1,9.9699e-06,99.63,9.805e-06,95.231,-2.9047e-06,-0.26512,-3.9439e-06,-8.0729,0.38526
2234,18.005,6,0.05,8.5886e-07,8.5827,6.595e-07,4.9552,1.7605e-13,2.502e-06,-6.595e-07,-4.9552,0.37372
2235,19.129,6,0.1,7.6642e-06,76.589,7.4915e-06,72.099,-2.1408e-06,-0.2746,-3.1828e-06,-8.1041,0.40839
2236,18.755,6,0.05,7.55e-07,7.5448,5.7975e-07,4.356,1.1441e-13,2.5609e-06,-5.7975e-07,-4.356,0.39681
2237,19.879,6,0.1,5.6794e-06,56.754,5.4982e-06,52.204,-1.4866e-06,-0.27721,-2.5181e-06,-8.0277,0.4316
2238,19.504,6,0.05,6.5181e-07,6.5136,5.0051e-07,3.7606,2.1977e-13,2.8523e-06,-5.0051e-07,-3.7606,0.41998
2239,20.628,6,0.1,4.0205e-06,40.177,3.8277e-06,35.558,-9.4344e-07,-0.29032,-1.952e-06,-7.8683,0.45486
2240,20.253,6,0.05,5.3425e-07,5.3388,4.1024e-07,3.0824,2.2737e-13,3.0748e-06,-4.1024e-07,-3.0824,0.44322
2241,21.377,6,0.1,2.6858e-06,26.839,2.4761e-06,22.138,-5.1069e-07,-0.30344,-1.4808e-06,-7.5928,0.47816
2242,21.003,6,0.05,4.2718e-07,4.2689,3.2802e-07,2.4646,2.2737e-13,3.3698e-06,-3.2802e-07,-2.4646,0.4665
2243,22.127,6,0.1,1.6503e-06,16.492,1.421e-06,11.805,-1.8648e-07,-0.27259,-1.0797e-06,-6.9842,0.50147
2244,21.752,6,0.05,3.2264e-07,3.2241,2.4775e-07,1.8615,2.3331e-13,3.3547e-06,-2.4775e-07,-1.8615,0.48981
2245,22.876,6,0.1,8.9924e-07,8.9862,6.5303e-07,4.494,1.6961e-08,-0.28522,-7.2658e-07,-5.8719,0.5248
2246,22.501,6,0.05,2.0868e-07,2.0854,1.6024e-07,1.204,2.3246e-13,3.4359e-06,-1.6024e-07,-1.204,0.51313
2247,23.625,6,0.1,4.1437e-07,4.1409,1.7111e-07,0.20103,9.4478e-08,-0.37474,-4.1431e-07,-4.1976,0.54813
2248,23.251,6,0.05,1.0966e-07,1.0959,8.4206e-08,0.6327,2.7453e-13,4.1028e-06,-8.4207e-08,-0.63269,0.53646
2249,24,5.625,0.1,4.0924e-07,4.0896,1.3944e-07,-0.1691,1.1183e-07,-0.37658,-4.1813e-07,-4.3585,0.55981
2250,24,6,0.05,2.996e-08,0.29939,2.3005e-08,0.17285,1.0769e-13,2.2482e-06,-2.3005e-08,-0.17285,0.55979
2251,24,4.875,0.1,7.7595e-07,7.7542,3.0711e-07,0.76685,2.3894e-07,0.25463,-7.573e-07,-7.2307,0.55986
2252,24,5.25,0.05,2.8068e-08,0.28049,2.1553e-08,0.16194,2.9305e-13,4.2921e-06,-2.1553e-08,-0.16194,0.55984
2253,24,4.125,0.1,1.0848e-06,10.841,4.2953e-07,1.1234,3.3858e-07,0.44006,-1.0566e-06,-10.043,0.55989
2254,24,4.5,0.05,2.4432e-08,0.24415,1.8761e-08,0.14096,2.495e-13,3.444e-06,-1.8761e-08,-0.14096,0.55988
2255,24,3.375,0.1,1.2321e-06,12.313,4.852e-07,1.2115,3.8319e-07,0.44503,-1.2022e-06,-11.467,0.55992
2256,24,3.75,0.05,2.4689e-08,0.24672,1.8958e-08,0.14245,2.3178e-13,3.6059e-06,-1.8958e-08,-0.14244,0.55991
2257,24,2.625,0.1,1.2327e-06,12.318,4.8591e-07,1.2158,3.8285e-07,0.44143,-1.2027e-06,-11.472,0.55993
2258,24,3,0.05,2.7077e-08,0.27059,2.0792e-08,0.15622,2.846e-13,3.5792e-06,-2.0792e-08,-0.15622,0.55992
2259,24,1.875,0.1,1.0856e-06,10.848,4.3132e-07,1.1387,3.3753e-07,0.43395,-1.0571e-06,-10.045,0.55992
2260,24,2.25,0.05,2.5835e-08,0.25818,1.9838e-08,0.14906,2.8212e-13,4.0379e-06,-1.9838e-08,-0.14906,0.55992
2261,24,1.125,0.1,7.7653e-07,7.76,3.0869e-07,0.78358,2.3824e-07,0.25426,-7.5752e-07,-7.2275,0.55991
2262,24,1.5,0.05,2.4973e-08,0.24956,1.9176e-08,0.14408,2.8821e-13,4.2972e-06,-1.9176e-08,-0.14408,0.55991
2263,24,0.375,0.1,4.0946e-07,4.0918,1.3937e-07,-0.16904,1.1217e-07,-0.37341,-4.1831e-07,-4.3592,0.55988
2264,24,0.75,0.05,2.82e-08,0.2818,2.1654e-08,0.1627,4.5888e-13,6.3236e-06,-2.1654e-08,-0.1627,0.55989
2265,9.8347e-15,1.125,0.1,9.7449e-05,973.81,0.00012986,1926.3,6.1396e-07,955.26,-1.1202e-07,949.81,0
2266,3.2782e-15,0.375,0.1,7.3843e-05,737.92,9.7179e-05,1424.1,6.5495e-08,694.38,-2.0941e-06,678.16,0
2267,6.6451e-15,0.75,0.05,5.9825e-06,59.784,4.5938e-06,34.516,-1.2566e-14,-9.9555e-08,-4.5938e-06,-34.516,0
2268,1.6391e-14,1.875,0.1,0.00010448,1044.1,0.00013916,2063.3,7.6923e-07,1023.5,-3.7135e-07,1014.9,0
2269,1.329e-14,1.5,0.05,2.1627e-06,21.612,1.6607e-06,12.478,6.1261e-13,5.1621e-06,-1.6607e-06,-12.478,0
2270,2.2948e-14,2.625,0.1,0.00010776,1076.8,0.00014341,2124.8,2.98e-07,1049.5,-1.0668e-07,1046.5,0
2271,1.9935e-14,2.25,0.05,1.3694e-06,13.684,1.0515e-06,7.9005,-1.7536e-14,-1.2871e-07,-1.0515e-06,-7.9005,0
2272,2.9504e-14,3.375,0.1,0.00010787,1077.9,0.00014356,2127,2.7932e-07,1050.4,-8.8951e-08,1047.6,0
2273,2.6581e-14,3,0.05,4.9107e-07,4.9073,3.7708e-07,2.8332,9.5003e-16,7.084e-09,-3.7708e-07,-2.8332,0
2274,3.606e-14,4.125,0.1,0.00010468,1046,0.00013942,2067.2,7.6929e-07,1025.4,-3.6623e-07,1016.9,0
2275,3.3226e-14,3.75,0.05,1.2938e-06,12.929,9.9345e-07,7.4644,-2.6271e-14,-2.2038e-07,-9.9345e-07,-7.4644,0
2276,4.2617e-14,4.875,0.1,9.7608e-05,975.41,0.00013007,1929.5,6.404e-07,957.01,-1.3835e-07,951.16,0
2277,3.9871e-14,4.5,0.05,2.1636e-06,21.621,1.6614e-06,12.483,-4.4815e-14,-3.7593e-07,-1.6614e-06,-12.483,0
2278,4.9173e-14,5.625,0.1,7.3858e-05,738.07,9.7157e-05,1423.1,2.1331e-08,693.28,-2.1342e-06,677.09,0
2279,4.6516e-14,5.25,0.05,6.0757e-06,60.715,4.6654e-06,35.054,-4.0179e-15,-2.5279e-08,-4.6654e-06,-35.054,0
2280,23.625,0,0.1,4.1489e-07,4.1461,1.7082e-07,0.19949,9.537e-08,-0.36741,-4.1483e-07,-4.2008,0.54821
2281,24,0,0.05,3.0123e-08,0.30102,2.3131e-08,0.1738,-5.262e-13,-3.922e-06,-2.3131e-08,-0.17379,0.55987
2282,22.876,0,0.1,9.0319e-07,9.0256,6.5686e-07,4.5231,1.5548e-08,-0.29545,-7.2894e-07,-5.8892,0.52488
2283,23.251,0,0.05,1.0933e-07,1.0925,8.3949e-08,0.63076,2.2698e-13,2.7928e-06,-8.395e-08,-0.63076,0.53654
2284,22.127,0,0.1,1.6557e-06,16.545,1.4244e-06,11.808,-1.8866e-07,-0.31269,-1.0843e-06,-7.0421,0.50155
2285,22.501,0,0.05,2.1047e-07,2.1033,1.6162e-07,1.2143,2.6573e-13,3.4042e-06,-1.6162e-07,-1.2143,0.51321
2286,21.377,0,0.1,2.6838e-06,26.82,2.4726e-06,22.091,-5.0767e-07,-0.30163,-1.4833e-06,-7.6318,0.47823
2287,21.752,0,0.05,3.1663e-07,3.1641,2.4313e-07,1.8268,2.5351e-13,3.1452e-06,-2.4313e-07,-1.8268,0.48989
2288,20.628,0,0.1,4.0231e-06,40.203,3.8294e-06,35.574,-9.4041e-07,-0.2651,-1.9565e-06,-7.8995,0.45494
2289,21.003,0,0.05,4.209e-07,4.2061,3.232e-07,2.4284,1.9858e-13,3.2389e-06,-3.232e-07,-2.4284,0.46658
2290,19.879,0,0.1,5.6806e-06,56.767,5.4994e-06,52.216,-1.4859e-06,-0.26888,-2.5194e-06,-8.0343,0.43168
2291,20.253,0,0.05,5.346e-07,5.3423,4.1051e-07,3.0844,2.1784e-13,3.0419e-06,-4.1051e-07,-3.0844,0.4433
2292,19.129,0,0.1,7.6621e-06,76.568,7.4894e-06,72.08,-2.1387e-06,-0.26187,-3.1831e-06,-8.1097,0.40847
2293,19.504,0,0.05,6.3904e-07,6.3859,4.907e-07,3.6869,2.1901e-13,3.0435e-06,-4.907e-07,-3.6869,0.42006
2294,18.38,0,0.1,9.9707e-06,99.638,9.8046e-06,95.207,-2.9036e-06,-0.27743,-3.9475e-06,-8.1205,0.38533
2295,18.755,0,0.05,7.5932e-07,7.588,5.8306e-07,4.3809,1.638e-13,2.803e-06,-5.8306e-07,-4.3809,0.39689
2296,17.631,0,0.1,1.2603e-05,125.94,1.2444e-05,121.61,-3.7782e-06,-0.27539,-4.8104e-06,-8.0316,0.3623
2297,18.005,0,0.05,8.5631e-07,8.5572,6.5754e-07,4.9405,1.1392e-13,2.5061e-06,-6.5754e-07,-4.9405,0.3738
2298,16.881,0,0.1,1.5573e-05,155.62,1.542e-05,151.4,-4.7665e-06,-0.27012,-5.7797e-06,-7.8831,0.3394
2299,17.256,0,0.05,9.6489e-07,9.6422,7.4091e-07,5.5669,2.2737e-13,2.7377e-06,-7.4091e-07,-5.5669,0.35083
2300,16.132,0,0.1,1.8859e-05,188.46,1.8715e-05,184.44,-5.8578e-06,-0.18856,-6.8474e-06,-7.624,0.31667
2301,16.507,0,0.05,1.0744e-06,10.737,8.2502e-07,6.1988,2.2737e-13,2.0285e-06,-8.2502e-07,-6.1988,0.32801
2302,15.383,0,0.1,2.2468e-05,224.52,2.2333e-05,220.73,-7.0527e-06,-0.061741,-8.022e-06,-7.3449,0.29413
2303,15.757,0,0.05,1.1412e-06,11.404,8.7632e-07,6.5843,2.2704e-13,2.2728e-06,-8.7632e-07,-6.5843,0.30537
2304,14.633,0,0.1,2.6419e-05,264.01,2.6291e-05,260.39,-8.3786e-06,-0.10955,-9.2953e-06,-6.9972,0.27184
2305,15.008,0,0.05,1.2632e-06,12.624,9.7001e-07,7.2883,-6.9633e-15,1.964e-06,-9.7001e-07,-7.2883,0.28295
2306,13.884,0,0.1,3.0697e-05,306.75,3.0581e-05,303.45,-9.8204e-06,-0.11102,-1.0658e-05,-6.4017,0.24983
2307,14.259,0,0.05,1.3429e-06,13.419,1.0311e-06,7.7477,2.2373e-13,1.9088e-06,-1.0311e-06,-7.7476,0.26079
2308,13.135,0,0.1,3.5306e-05,352.81,3.5208e-05,350.01,-1.1368e-05,0.054434,-1.212e-05,-5.6001,0.22816
2309,13.509,0,0.05,1.4242e-06,14.233,1.0936e-06,8.2172,-2.3198e-22,1.9072e-06,-1.0936e-06,-8.2172,0.23895
2310,12.385,0,0.1,4.025e-05,402.23,4.0173e-05,400,-1.3036e-05,0.20511,-1.3678e-05,-4.617,0.20688
2311,12.76,0,0.05,1.4988e-06,14.978,1.1509e-06,8.6475,-1.1648e-15,1.4305e-06,-1.1509e-06,-8.6475,0.21747
2312,11.636,0,0.1,4.5518e-05,454.87,4.5465e-05,453.34,-1.4821e-05,0.36742,-1.5324e-05,-3.4105,0.18605
2313,12.011,0,0.05,1.553e-06,15.519,1.1925e-06,8.9601,6.7643e-18,1.4357e-06,-1.1925e-06,-8.9601,0.1964
2314,10.887,0,0.1,5.1092e-05,510.56,5.1067e-05,509.84,-1.6719e-05,0.52519,-1.705e-05,-1.9621,0.16571
2315,11.261,0,0.05,1.5817e-06,15.806,1.2145e-06,9.1254,2.5518e-15,9.5355e-07,-1.2145e-06,-9.1254,0.17581
2316,10.137,0,0.1,5.6906e-05,568.67,5.6903e-05,568.59,-1.8704e-05,0.50674,-1.886e-05,-0.66553,0.14595
2317,10.512,0,0.05,1.5938e-06,15.927,1.2238e-06,9.1955,-4.4797e-13,9.5813e-07,-1.2238e-06,-9.1955,0.15575
2318,9.388,0,0.1,6.269e-05,626.46,6.2694e-05,626.58,-2.0646e-05,0.40265,-2.0721e-05,-0.16522,0.12682
2319,9.7627,0,0.05,1.5465e-06,15.455,1.1875e-06,8.9227,-4.8299e-22,8.9961e-07,-1.1875e-06,-8.9227,0.13629
2320,8.6387,0,0.1,6.792e-05,678.73,6.7858e-05,676.92,-2.2428e-05,-1.4555,-2.2523e-05,-2.1734,0.10839
2321,9.0133,0,0.05,1.4429e-06,14.419,1.108e-06,8.3248,-3.4917e-22,8.8023e-07,-1.108e-06,-8.3248,0.11751
2322,7.8893,0,0.1,7.0681e-05,706.32,7.0479e-05,700.45,-2.2982e-05,-1.7812,-2.4063e-05,-9.8984,0.090724
2323,8.264,0,0.05,1.2563e-06,12.554,9.6468e-07,7.2482,-2.0462e-22,5.6101e-07,-9.6468e-07,-7.2482,0.099452
2324,7.14,0,0.1,6.8393e-05,683.46,6.7806e-05,666.44,-2.2149e-05,-9.4463,-2.4133e-05,-24.358,0.073852
2325,7.5147,0,0.05,8.3219e-07,8.3161,6.3901e-07,4.8013,1.1232e-13,1.2446e-06,-6.3902e-07,-4.8013,0.08218
2326,6.3907,0,0.1,5.4973e-05,549.35,5.4153e-05,525.86,-1.7488e-05,-12.421,-2.035e-05,-33.927,0.05774
2327,6.7653,0,0.05,1.0693e-06,10.686,8.2108e-07,6.1693,-1.1402e-13,1.0561e-06,-8.2108e-07,-6.1693,0.065697
2328,5.6413,0,0.1,3.33e-05,332.77,3.4066e-05,356.42,-8.623e-06,35.672,-1.1667e-05,12.801,0.042249
2329,6.016,0,0.05,1.1642e-07,1.1634,8.9399e-08,0.67171,-1.8963e-23,-1.4248e-16,-8.9399e-08,-0.67171,0.049925
2330,5.2667,0,0.05,4.4566e-06,44.535,3.4221e-06,25.712,-7.2588e-22,-5.454e-15,-3.4221e-06,-25.712,0.034627
2331,4.7357,2.0278e-30,0.1,4.2041e-05,420.12,4.3538e-05,464.91,-1.0903e-05,55.862,-1.3741e-05,34.541,0.026945
2332,5.1,2.1837e-30,0.05,3.9097e-06,39.07,3.0021e-06,22.557,3.2955e-14,-4.7847e-15,-3.0021e-06,-22.557,0.030818
2333,4.0071,1.7158e-30,0.1,8.0295e-05,802.4,7.9728e-05,785.98,-2.5929e-05,-7.8857,-2.8165e-05,-24.689,0.019513
2334,4.3714,0,0.05,1.2712e-06,12.703,9.7611e-07,7.3341,-2.0705e-22,-1.5557e-15,-9.7611e-07,-7.3341,0.023145
2335,3.2786,1.4038e-30,0.1,0.00011192,1118.4,0.00011123,1098.4,-3.6816e-05,-14.005,-3.8407e-05,-25.965,0.012935
2336,3.6429,0,0.05,7.7821e-07,7.7768,5.9757e-07,4.4899,-1.2675e-22,-9.5238e-16,-5.9757e-07,-4.4899,0.016088
2337,2.55,1.0919e-30,0.1,0.00013127,1311.8,0.00013159,1321.3,-4.1993e-05,17.024,-4.3997e-05,1.9668,0.0075457
2338,2.9143,0,0.05,2.2553e-06,22.537,1.7318e-06,13.012,-3.6734e-22,6.4318e-07,-1.7318e-06,-13.012,0.01007
2339,1.8214,7.799e-31,0.1,0.0001442,1441,0.00014539,1476.2,-4.4698e-05,47.999,-4.8059e-05,22.74,0.0035371
2340,2.1857,0,0.05,1.635e-06,16.339,1.2555e-06,9.4332,-2.6631e-22,-2.0009e-15,-1.2555e-06,-9.4332,0.0053493
2341,1.0929,4.6794e-31,0.1,0.00014623,1461.3,0.00014588,1454.1,-4.3153e-05,33.767,-5.3635e-05,-44.99,0.0010592
2342,1.4571,0,0.05,6.732e-06,67.273,5.1693e-06,38.84,2.1393e-16,1.7946e-09,-5.1693e-06,-38.84,0.0020917
2343,0.36429,1.5598e-31,0.1,0.00010064,1005.7,0.00010702,1198.5,-2.0804e-05,238.09,-3.2133e-05,152.98,8.3124e-05
2344,0.72857,0,0.05,9.7449e-06,97.382,7.4829e-06,56.223,3.662e-13,3.0719e-06,-7.4829e-06,-56.223,0.0003949
2345,0,0,0.05,4.2289e-05,422.6,3.2473e-05,243.99,-3.0331e-14,-5.1754e-14,-3.2473e-05,-243.99,0
2346,0.36429,6,0.1,0.00010052,1004.5,0.00010687,1196.4,-2.0796e-05,237.14,-3.213e-05,151.98,8.2494e-05
2347,5.2451e-14,6,0.05,4.2757e-05,427.27,3.2832e-05,246.69,-6.9642e-21,-5.2326e-14,-3.2832e-05,-246.69,0
2348,1.0929,6,0.1,0.00014595,1458.5,0.00014568,1453.8,-4.2816e-05,37.541,-5.3604e-05,-43.511,0.0010554
2349,0.72857,6,0.05,9.6483e-06,96.416,7.4087e-06,55.666,-1.5715e-21,-1.1808e-14,-7.4087e-06,-55.666,0.0003931
2350,1.8214,6,0.1,0.00014457,1444.8,0.00014576,1480.1,-4.4471e-05,50.782,-4.8509e-05,20.442,0.0035287
2351,1.4571,6,0.05,6.4529e-06,64.484,4.955e-06,37.23,-1.051e-21,-7.897e-15,-4.955e-06,-37.23,0.0020856
2352,2.55,6,0.1,0.00013188,1317.9,0.0001322,1327.5,-4.2128e-05,17.683,-4.4246e-05,1.7648,0.0075311
2353,2.1857,6,0.05,2.3819e-06,23.803,1.829e-06,13.742,-3.8796e-22,-2.915e-15,-1.829e-06,-13.742,0.0053368
2354,3.2786,6,0.1,0.00011149,1114.1,0.00011111,1103.1,-3.6858e-05,-8.6728,-3.747e-05,-13.273,0.012932
2355,2.9143,6,0.05,1.6701e-07,1.669,1.2825e-07,0.96359,-2.7203e-23,-2.0439e-16,-1.2825e-07,-0.96359,0.01006
2356,4.0071,6,0.1,8.0075e-05,800.19,7.9459e-05,782.97,-2.4932e-05,-1.3808,-2.903e-05,-32.176,0.019516
2357,3.6429,6,0.05,1.4152e-06,14.142,1.0867e-06,8.1651,-2.3051e-22,-1.7319e-15,-1.0867e-06,-8.1651,0.016087
2358,4.7357,6,0.1,4.3345e-05,433.15,4.5266e-05,492.9,-9.2089e-06,83.602,-1.5105e-05,39.303,0.026925
2359,4.3714,6,0.05,1.0322e-06,10.315,7.9258e-07,5.9552,-1.6812e-22,-1.2632e-15,-7.9258e-07,-5.9552,0.02314
2360,5.1,6,0.05,1.1153e-05,111.46,8.5643e-06,64.349,-1.8166e-21,-1.3649e-14,-8.5643e-06,-64.349,0.030806
2361,4.0071,6,0,8.0075e-05,800.19,2.903e-05,32.176,2.4932e-05,1.3808,-7.9459e-05,-782.97,0.019516
2362,4.7357,6,0,4.3345e-05,433.15,1.5105e-05,-39.303,9.2089e-06,-83.602,-4.5266e-05,-492.9,0.026925
2363,3.2786,6,0,0.00011149,1114.1,3.747e-05,13.273,3.6858e-05,8.6728,-0.00011111,-1103.1,0.012932
2364,2.55,6,0,0.00013188,1317.9,4.4246e-05,-1.7648,4.2128e-05,-17.683,-0.0001322,-1327.5,0.0075311
2365,1.8214,6,0,0.00014457,1444.8,4.8509e-05,-20.442,4.4471e-05,-50.782,-0.00014576,-1480.1,0.0035287
2366,1.0929,6,0,0.00014595,1458.5,5.3604e-05,43.511,4.2816e-05,-37.541,-0.00014568,-1453.8,0.0010554
2367,0.36429,6,0,0.00010052,1004.5,3.213e-05,-151.98,2.0796e-05,-237.14,-0.00010687,-1196.4,8.2494e-05
2368,5.1,5.8333,0,3.023e-05,302.1,1.0976e-05,-72.621,1.0281e-06,-147.36,-3.3271e-05,-405.07,0.031187
2369,4.9173e-14,5.625,0,7.3858e-05,738.07,2.1342e-06,-677.09,-2.1331e-08,-693.28,-9.7157e-05,-1423.1,0
2370,1.0929,4.6794e-31,0,0.00014623,1461.3,5.3635e-05,44.99,4.3153e-05,-33.767,-0.00014588,-1454.1,0.0010592
2371,0.36429,1.5598e-31,0,0.00010064,1005.7,3.2133e-05,-152.98,2.0804e-05,-238.09,-0.00010702,-1198.5,8.3124e-05
2372,1.8214,7.799e-31,0,0.0001442,1441,4.8059e-05,-22.74,4.4698e-05,-47.999,-0.00014539,-1476.2,0.0035371
2373,2.55,1.0919e-30,0,0.00013127,1311.8,4.3997e-05,-1.9668,4.1993e-05,-17.024,-0.00013159,-1321.3,0.0075457
2374,3.2786,1.4038e-30,0,0.00011192,1118.4,3.8407e-05,25.965,3.6816e-05,14.005,-0.00011123,-1098.4,0.012935
2375,4.0071,1.7158e-30,0,8.0295e-05,802.4,2.8165e-05,24.689,2.5929e-05,7.8857,-7.9728e-05,-785.98,0.019513
2376,4.7357,2.0278e-30,0,4.2041e-05,420.12,1.3741e-05,-34.541,1.0903e-05,-55.862,-4.3538e-05,-464.91,0.026945
2377,5.1,0.16667,0,2.8209e-05,281.9,9.1433e-06,-68.82,3.0487e-06,-114.61,-3.1049e-05,-370.81,0.031204
2378,3.2782e-15,0.375,0,7.3843e-05,737.92,2.0941e-06,-678.16,-6.5495e-08,-694.38,-9.7179e-05,-1424.1,0
2379,6.3907,0,0,5.4973e-05,549.35,2.035e-05,33.927,1.7488e-05,12.421,-5.4153e-05,-525.86,0.05774
2380,5.6413,0,0,3.33e-05,332.77,1.1667e-05,-12.801,8.623e-06,-35.672,-3.4066e-05,-356.42,0.042249
2381,7.14,0,0,6.8393e-05,683.46,2.4133e-05,24.358,2.2149e-05,9.4463,-6.7806e-05,-666.44,0.073852
2382,7.8893,0,0,7.0681e-05,706.32,2.4063e-05,9.8984,2.2982e-05,1.7812,-7.0479e-05,-700.45,0.090724
2383,8.6387,0,0,6.792e-05,678.73,2.2523e-05,2.1734,2.2428e-05,1.4555,-6.7858e-05,-676.92,0.10839
2384,9.388,0,0,6.269e-05,626.46,2.0721e-05,0.16523,2.0646e-05,-0.40265,-6.2694e-05,-626.58,0.12682
2385,10.137,0,0,5.6906e-05,568.67,1.886e-05,0.66553,1.8704e-05,-0.50674,-5.6903e-05,-568.59,0.14595
2386,10.887,0,0,5.1092e-05,510.56,1.705e-05,1.9621,1.6719e-05,-0.52519,-5.1067e-05,-509.84,0.16571
2387,11.636,0,0,4.5518e-05,454.87,1.5324e-05,3.4105,1.4821e-05,-0.36742,-4.5465e-05,-453.34,0.18605
2388,12.385,0,0,4.025e-05,402.23,1.3678e-05,4.617,1.3036e-05,-0.20511,-4.0173e-05,-400,0.20688
2389,13.135,0,0,3.5306e-05,352.81,1.212e-05,5.6001,1.1368e-05,-0.054435,-3.5208e-05,-350.01,0.22816
2390,13.884,0,0,3.0697e-05,306.75,1.0658e-05,6.4017,9.8204e-06,0.11102,-3.0581e-05,-303.45,0.24983
2391,14.633,0,0,2.6419e-05,264.01,9.2953e-06,6.9972,8.3786e-06,0.10955,-2.6291e-05,-260.39,0.27184
2392,15.383,0,0,2.2468e-05,224.52,8.022e-06,7.3449,7.0527e-06,0.061741,-2.2333e-05,-220.73,0.29413
2393,16.132,0,0,1.8859e-05,188.46,6.8474e-06,7.624,5.8578e-06,0.18856,-1.8715e-05,-184.44,0.31667
2394,16.881,0,0,1.5573e-05,155.62,5.7797e-06,7.8831,4.7665e-06,0.27012,-1.542e-05,-151.4,0.3394
2395,17.631,0,0,1.2603e-05,125.94,4.8104e-06,8.0316,3.7782e-06,0.27539,-1.2444e-05,-121.61,0.3623
2396,18.38,0,0,9.9707e-06,99.638,3.9475e-06,8.1205,2.9036e-06,0.27743,-9.8046e-06,-95.207,0.38533
2397,19.129,0,0,7.6621e-06,76.568,3.1832e-06,8.1097,2.1387e-06,0.26187,-7.4894e-06,-72.08,0.40847
2398,19.879,0,0,5.6806e-06,56.767,2.5194e-06,8.0343,1.4859e-06,0.26888,-5.4994e-06,-52.216,0.43168
2399,20.628,0,0,4.0231e-06,40.203,1.9565e-06,7.8995,9.4041e-07,0.2651,-3.8294e-06,-35.574,0.45494
2400,21.377,0,0,2.6838e-06,26.82,1.4833e-06,7.6318,5.0767e-07,0.30163,-2.4726e-06,-22.091,0.47823
2401,22.127,0,0,1.6557e-06,16.545,1.0843e-06,7.0421,1.8866e-07,0.31268,-1.4244e-06,-11.808,0.50155
2402,22.876,0,0,9.0319e-07,9.0256,7.2894e-07,5.8892,-1.5548e-08,0.29545,-6.5686e-07,-4.5231,0.52488
2403,23.625,0,0,4.1489e-07,4.1461,4.1483e-07,4.2008,-9.537e-08,0.36741,-1.7082e-07,-0.19949,0.54821
2404,5.2667,0.16667,0,2.5594e-05,255.77,9.5784e-06,-47.274,1.7613e-06,-106.01,-2.7691e-05,-327.3,0.034926
2405,24,0.375,0,4.0946e-07,4.0918,4.1831e-07,4.3592,-1.1217e-07,0.37341,-1.3937e-07,0.16904,0.55988
2406,4.2617e-14,4.875,0,9.7608e-05,975.41,1.3835e-07,-951.16,-6.404e-07,-957.01,-0.00013007,-1929.5,0
2407,3.606e-14,4.125,0,0.00010468,1046,3.6623e-07,-1016.9,-7.6929e-07,-1025.4,-0.00013942,-2067.2,0
2408,2.9504e-14,3.375,0,0.00010787,1077.9,8.8951e-08,-1047.6,-2.7932e-07,-1050.4,-0.00014356,-2127,0
2409,2.2948e-14,2.625,0,0.00010776,1076.8,1.0668e-07,-1046.5,-2.98e-07,-1049.5,-0.00014341,-2124.8,0
2410,1.6391e-14,1.875,0,0.00010448,1044.1,3.7135e-07,-1014.9,-7.6923e-07,-1023.5,-0.00013916,-2063.3,0
2411,9.8347e-15,1.125,0,9.7449e-05,973.81,1.1202e-07,-949.81,-6.1396e-07,-955.26,-0.00012986,-1926.3,0
2412,24,1.125,0,7.7653e-07,7.76,7.5752e-07,7.2275,-2.3824e-07,-0.25426,-3.0869e-07,-0.78357,0.55991
2413,24,1.875,0,1.0856e-06,10.848,1.0571e-06,10.045,-3.3753e-07,-0.43395,-4.3132e-07,-1.1387,0.55992
2414,24,2.625,0,1.2327e-06,12.318,1.2027e-06,11.472,-3.8285e-07,-0.44143,-4.8591e-07,-1.2158,0.55993
2415,24,3.375,0,1.2321e-06,12.313,1.2022e-06,11.467,-3.8319e-07,-0.44503,-4.852e-07,-1.2115,0.55992
2416,24,4.125,0,1.0848e-06,10.841,1.0566e-06,10.043,-3.3858e-07,-0.44006,-4.2953e-07,-1.1234,0.55989
2417,24,4.875,0,7.7595e-07,7.7542,7.573e-07,7.2307,-2.3894e-07,-0.25463,-3.0711e-07,-0.76684,0.55986
2418,24,5.625,0,4.0924e-07,4.0896,4.1813e-07,4.3585,-1.1183e-07,0.37659,-1.3944e-07,0.1691,0.55981
2419,23.625,6,0,4.1437e-07,4.1409,4.1431e-07,4.1976,-9.4478e-08,0.37474,-1.7111e-07,-0.20102,0.54813
2420,22.876,6,0,8.9924e-07,8.9862,7.2658e-07,5.8719,-1.6962e-08,0.28522,-6.5303e-07,-4.494,0.5248
2421,22.127,6,0,1.6503e-06,16.492,1.0797e-06,6.9843,1.8648e-07,0.27259,-1.421e-06,-11.805,0.50147
2422,21.377,6,0,2.6858e-06,26.839,1.4808e-06,7.5928,5.1069e-07,0.30344,-2.4761e-06,-22.138,0.47816
2423,20.628,6,0,4.0205e-06,40.177,1.952e-06,7.8683,9.4344e-07,0.29032,-3.8277e-06,-35.558,0.45486
2424,19.879,6,0,5.6794e-06,56.754,2.5181e-06,8.0277,1.4866e-06,0.27721,-5.4982e-06,-52.204,0.4316
2425,19.129,6,0,7.6642e-06,76.589,3.1828e-06,8.1041,2.1408e-06,0.2746,-7.4915e-06,-72.099,0.40839
2426,18.38,6,0,9.9699e-06,99.63,3.9439e-06,8.0729,2.9047e-06,0.26512,-9.805e-06,-95.231,0.38526
2427,17.631,6,0,1.2603e-05,125.95,4.8093e-06,8.0019,3.7779e-06,0.25245,-1.2445e-05,-121.64,0.36222
2428,16.881,6,0,1.5564e-05,155.53,5.7789e-06,7.8856,4.7601e-06,0.23112,-1.5412e-05,-151.33,0.33932
2429,16.132,6,0,1.8851e-05,188.38,6.8491e-06,7.6811,5.8533e-06,0.19936,-1.8706e-05,-184.33,0.31659
2430,15.383,6,0,2.2467e-05,224.52,8.0192e-06,7.37,7.0594e-06,0.1584,-2.233e-05,-220.66,0.29405
2431,14.633,6,0,2.6411e-05,263.93,9.2894e-06,6.9562,8.378e-06,0.10865,-2.6284e-05,-260.33,0.27176
2432,13.884,6,0,3.0686e-05,306.64,1.0657e-05,6.3991,9.811e-06,0.040625,-3.0571e-05,-303.38,0.24976
2433,13.135,6,0,3.5291e-05,352.66,1.2119e-05,5.6388,1.1361e-05,-0.05909,-3.5192e-05,-349.84,0.22809
2434,12.385,6,0,4.0223e-05,401.96,1.367e-05,4.6354,1.3027e-05,-0.1903,-4.0146e-05,-399.71,0.2068
2435,11.636,6,0,4.5479e-05,454.48,1.5304e-05,3.3363,1.4812e-05,-0.35898,-4.5427e-05,-452.98,0.18597
2436,10.887,6,0,5.1044e-05,510.09,1.7028e-05,1.8611,1.6705e-05,-0.56824,-5.1022e-05,-509.44,0.16563
2437,10.137,6,0,5.683e-05,567.91,1.8828e-05,0.47543,1.8673e-05,-0.69104,-5.6834e-05,-568.02,0.14587
2438,9.388,6,0,6.2718e-05,626.75,2.077e-05,1.2993,2.0693e-05,0.72337,-6.2684e-05,-625.74,0.12673
2439,8.6387,6,0,6.7632e-05,675.85,2.2719e-05,4.9489,2.2094e-05,0.25349,-6.7542e-05,-673.24,0.1083
2440,7.8893,6,0,7.0463e-05,704.14,2.407e-05,10.572,2.2837e-05,1.3138,-7.0256e-05,-698.15,0.09063
2441,7.14,6,0,6.8392e-05,683.45,2.3914e-05,24.277,2.2516e-05,13.775,-6.7738e-05,-664.36,0.073745
2442,6.3907,6,0,5.4283e-05,542.46,1.9893e-05,30.219,1.7313e-05,10.83,-5.3559e-05,-521.67,0.057628
2443,5.6413,6,0,3.206e-05,320.38,1.1023e-05,-16.21,8.3067e-06,-36.621,-3.291e-05,-346.31,0.042123
2444,5.2667,5.8333,0,2.3759e-05,237.42,8.8464e-06,-46.377,1.4687e-06,-101.81,-2.5789e-05,-306.61,0.034792
2445,5.1,1.5,0,0.00017924,1791.2,0.00011595,688.72,1.5277e-05,-67.734,-0.00015626,-1356.6,0.034532
2446,5.1,1.8333,0,0.00032369,3234.7,0.00016603,588.44,5.3242e-05,-259.02,-0.00030964,-2985.6,0.035486
2447,5.1,1.1667,0,0.00010289,1028.1,5.7319e-05,265.12,1.5523e-05,-48.912,-9.5542e-05,-883.41,0.033629
2448,5.1,0.83333,0,6.8414e-05,683.67,2.9952e-05,61.908,1.5193e-05,-48.984,-6.7516e-05,-670.42,0.032779
2449,5.1,0.5,0,4.4941e-05,449.1,1.2982e-05,-63.074,1.218e-05,-69.099,-4.7186e-05,-515.16,0.031975
2450,5.1833,2,0,0.00040836,4080.7,0.00015347,-67.383,9.5487e-05,-503.01,-0.00041631,-4348.5,0.037233
2451,5.2667,0.5,0,3.7982e-05,379.56,1.2866e-05,-47.048,7.5311e-06,-87.136,-4.0105e-05,-445.06,0.035504
2452,5.2667,0.83333,0,5.5595e-05,555.57,2.0111e-05,-13.248,1.4034e-05,-58.908,-5.6681e-05,-590.23,0.036108
2453,5.2667,1.1667,0,9.3445e-05,933.8,4.331e-05,108.97,1.851e-05,-77.375,-9.1501e-05,-903.96,0.036752
2454,5.2667,1.5,0,0.0001701,1699.8,8.1652e-05,266.31,3.5008e-05,-84.154,-0.00016427,-1581.4,0.037454
2455,5.2667,1.8333,0,0.00031916,3189.4,0.00012051,29.928,8.1543e-05,-262.86,-0.00032211,-3295.8,0.038215
2456,5.1,4.5,0,0.00017894,1788.2,0.00011568,674.1,1.3854e-05,-90.973,-0.00015628,-1369.3,0.03451
2457,5.1,4.1667,0,0.00032398,3237.6,0.00016184,553.76,5.8635e-05,-221.69,-0.00031129,-3001.1,0.035459
2458,5.1,4.8333,0,0.00010221,1021.4,5.9448e-05,292.67,1.3052e-05,-55.931,-9.3617e-05,-857.4,0.033608
2459,5.1,5.1667,0,5.9899e-05,598.58,3.0087e-05,125.4,1.2885e-05,-3.851,-5.6775e-05,-527.25,0.032758
2460,5.1,5.5,0,4.1166e-05,411.37,1.5767e-05,6.8023,1.0393e-05,-33.582,-4.1472e-05,-423.28,0.03196
2461,5.1833,4,0,0.00040409,4038.1,0.00015247,-41.676,9.5784e-05,-467.63,-0.00041107,-4275.9,0.037193
2462,5.2667,5.5,0,3.5633e-05,356.09,1.1575e-05,-50.184,7.3893e-06,-81.633,-3.7771e-05,-420.95,0.035377
2463,5.2667,5.1667,0,5.3509e-05,534.72,1.9921e-05,0.65278,1.3768e-05,-45.579,-5.4123e-05,-555.68,0.03599
2464,5.2667,4.8333,0,8.1612e-05,815.56,4.0065e-05,141.06,1.6367e-05,-37.004,-7.837e-05,-748.82,0.036643
2465,5.2667,4.5,0,0.00015147,1513.7,8.8352e-05,446.1,2.0143e-05,-66.402,-0.00013835,-1257.3,0.037355
2466,5.2667,4.1667,0,0.00031924,3190.2,0.0001452,328.8,6.431e-05,-278.96,-0.00031402,-3121.6,0.038147
