Node Number	X Location (in)	Y Location (in)	Z Location (in)	Equivalent (von-Mises) Stress (psi)
1	2.4	2.1818	0.	20978
2	2.4	2.3636	0.	16526
3	2.4	2.5455	0.	14469
4	2.4	2.7273	0.	13411
5	2.4	2.9091	0.	12959
6	2.4	3.0909	0.	12959
7	2.4	3.2727	0.	13411
8	2.4	3.4545	0.	14469
9	2.4	3.6364	0.	16526
10	2.4	3.8182	0.	20978
11	2.5667	2.1818	0.	20778
12	2.5667	2.3636	0.	16398
13	2.5667	2.5455	0.	14404
14	2.5667	2.7273	0.	13368
15	2.5667	2.9091	0.	12925
16	2.5667	3.0909	0.	12925
17	2.5667	3.2727	0.	13368
18	2.5667	3.4545	0.	14404
19	2.5667	3.6364	0.	16398
20	2.5667	3.8182	0.	20778
21	2.2154	5.8182	0.	1441.
22	2.2154	5.6364	0.	2062.4
23	2.2154	5.4545	0.	2819.2
24	2.2154	5.2727	0.	3632.7
25	2.2154	5.0909	0.	4522.9
26	2.2154	4.9091	0.	5536.3
27	2.2154	4.7273	0.	6754.8
28	2.2154	4.5455	0.	8310.7
29	2.2154	4.3636	0.	10547
30	2.2154	4.1818	0.	13759
31	2.2154	4.	0.	16243
32	2.2154	3.8182	0.	15597
33	2.2154	3.6364	0.	14512
34	2.2154	3.4545	0.	13358
35	2.2154	3.2727	0.	12690
36	2.2154	3.0909	0.	12377
37	2.2154	2.9091	0.	12377
38	2.2154	2.7273	0.	12690
39	2.2154	2.5455	0.	13358
40	2.2154	2.3636	0.	14512
41	2.2154	2.1818	0.	15597
42	2.2154	2.	0.	16243
43	2.2154	1.8182	0.	13759
44	2.2154	1.6364	0.	10547
45	2.2154	1.4545	0.	8310.7
46	2.2154	1.2727	0.	6754.8
47	2.2154	1.0909	0.	5536.3
48	2.2154	0.90909	0.	4522.9
49	2.2154	0.72727	0.	3632.7
50	2.2154	0.54545	0.	2819.2
51	2.2154	0.36364	0.	2062.4
52	2.2154	0.18182	0.	1441.
53	2.0308	5.8182	0.	2111.8
54	2.0308	5.6364	0.	2385.9
55	2.0308	5.4545	0.	2894.2
56	2.0308	5.2727	0.	3518.4
57	2.0308	5.0909	0.	4231.8
58	2.0308	4.9091	0.	5044.4
59	2.0308	4.7273	0.	5989.5
60	2.0308	4.5455	0.	7094.2
61	2.0308	4.3636	0.	8388.7
62	2.0308	4.1818	0.	9795.6
63	2.0308	4.	0.	10804
64	2.0308	3.8182	0.	11631
65	2.0308	3.6364	0.	11829
66	2.0308	3.4545	0.	11701
67	2.0308	3.2727	0.	11492
68	2.0308	3.0909	0.	11368
69	2.0308	2.9091	0.	11368
70	2.0308	2.7273	0.	11492
71	2.0308	2.5455	0.	11701
72	2.0308	2.3636	0.	11829
73	2.0308	2.1818	0.	11631
74	2.0308	2.	0.	10804
75	2.0308	1.8182	0.	9795.6
76	2.0308	1.6364	0.	8388.8
77	2.0308	1.4545	0.	7094.2
78	2.0308	1.2727	0.	5989.5
79	2.0308	1.0909	0.	5044.4
80	2.0308	0.90909	0.	4231.8
81	2.0308	0.72727	0.	3518.4
82	2.0308	0.54545	0.	2894.2
83	2.0308	0.36364	0.	2385.9
84	2.0308	0.18182	0.	2111.8
85	1.8462	5.8182	0.	2814.5
86	1.8462	5.6364	0.	2949.8
87	1.8462	5.4545	0.	3287.1
88	1.8462	5.2727	0.	3749.9
89	1.8462	5.0909	0.	4308.1
90	1.8462	4.9091	0.	4951.2
91	1.8462	4.7273	0.	5677.2
92	1.8462	4.5455	0.	6483.6
93	1.8462	4.3636	0.	7319.6
94	1.8462	4.1818	0.	8139.4
95	1.8462	4.	0.	8894.2
96	1.8462	3.8182	0.	9521.2
97	1.8462	3.6364	0.	9969.9
98	1.8462	3.4545	0.	10174
99	1.8462	3.2727	0.	10238
100	1.8462	3.0909	0.	10247
101	1.8462	2.9091	0.	10247
102	1.8462	2.7273	0.	10238
103	1.8462	2.5455	0.	10174
104	1.8462	2.3636	0.	9969.9
105	1.8462	2.1818	0.	9521.2
106	1.8462	2.	0.	8894.2
107	1.8462	1.8182	0.	8139.4
108	1.8462	1.6364	0.	7319.6
109	1.8462	1.4545	0.	6483.6
110	1.8462	1.2727	0.	5677.2
111	1.8462	1.0909	0.	4951.2
112	1.8462	0.90909	0.	4308.1
113	1.8462	0.72727	0.	3749.9
114	1.8462	0.54545	0.	3287.1
115	1.8462	0.36364	0.	2949.8
116	1.8462	0.18182	0.	2814.5
117	1.6615	5.8182	0.	3436.6
118	1.6615	5.6364	0.	3502.7
119	1.6615	5.4545	0.	3727.9
120	1.6615	5.2727	0.	4058.9
121	1.6615	5.0909	0.	4475.3
122	1.6615	4.9091	0.	4962.4
123	1.6615	4.7273	0.	5507.1
124	1.6615	4.5455	0.	6092.3
125	1.6615	4.3636	0.	6694.3
126	1.6615	4.1818	0.	7279.
127	1.6615	4.	0.	7836.1
128	1.6615	3.8182	0.	8334.6
129	1.6615	3.6364	0.	8733.
130	1.6615	3.4545	0.	9008.4
131	1.6615	3.2727	0.	9165.2
132	1.6615	3.0909	0.	9233.1
133	1.6615	2.9091	0.	9233.1
134	1.6615	2.7273	0.	9165.2
135	1.6615	2.5455	0.	9008.5
136	1.6615	2.3636	0.	8733.
137	1.6615	2.1818	0.	8334.6
138	1.6615	2.	0.	7836.1
139	1.6615	1.8182	0.	7279.
140	1.6615	1.6364	0.	6694.3
141	1.6615	1.4545	0.	6092.3
142	1.6615	1.2727	0.	5507.1
143	1.6615	1.0909	0.	4962.4
144	1.6615	0.90909	0.	4475.3
145	1.6615	0.72727	0.	4058.9
146	1.6615	0.54545	0.	3727.9
147	1.6615	0.36364	0.	3502.7
148	1.6615	0.18182	0.	3436.6
149	1.4769	5.8182	0.	3962.5
150	1.4769	5.6364	0.	3981.3
151	1.4769	5.4545	0.	4127.4
152	1.4769	5.2727	0.	4356.8
153	1.4769	5.0909	0.	4657.4
154	1.4769	4.9091	0.	5017.1
155	1.4769	4.7273	0.	5422.8
156	1.4769	4.5455	0.	5858.9
157	1.4769	4.3636	0.	6306.9
158	1.4769	4.1818	0.	6752.2
159	1.4769	4.	0.	7179.9
160	1.4769	3.8182	0.	7574.3
161	1.4769	3.6364	0.	7911.6
162	1.4769	3.4545	0.	8168.5
163	1.4769	3.2727	0.	8336.4
164	1.4769	3.0909	0.	8417.9
165	1.4769	2.9091	0.	8417.9
166	1.4769	2.7273	0.	8336.4
167	1.4769	2.5455	0.	8168.5
168	1.4769	2.3636	0.	7911.6
169	1.4769	2.1818	0.	7574.3
170	1.4769	2.	0.	7179.9
171	1.4769	1.8182	0.	6752.2
172	1.4769	1.6364	0.	6306.9
173	1.4769	1.4545	0.	5858.9
174	1.4769	1.2727	0.	5422.8
175	1.4769	1.0909	0.	5017.1
176	1.4769	0.90909	0.	4657.4
177	1.4769	0.72727	0.	4356.8
178	1.4769	0.54545	0.	4127.4
179	1.4769	0.36364	0.	3981.3
180	1.4769	0.18182	0.	3962.5
181	1.2923	5.8182	0.	4389.2
182	1.2923	5.6364	0.	4367.
183	1.2923	5.4545	0.	4451.7
184	1.2923	5.2727	0.	4603.9
185	1.2923	5.0909	0.	4816.9
186	1.2923	4.9091	0.	5082.6
187	1.2923	4.7273	0.	5389.8
188	1.2923	4.5455	0.	5725.6
189	1.2923	4.3636	0.	6075.9
190	1.2923	4.1818	0.	6427.7
191	1.2923	4.	0.	6769.1
192	1.2923	3.8182	0.	7086.2
193	1.2923	3.6364	0.	7362.7
194	1.2923	3.4545	0.	7582.4
195	1.2923	3.2727	0.	7733.3
196	1.2923	3.0909	0.	7809.5
197	1.2923	2.9091	0.	7809.5
198	1.2923	2.7273	0.	7733.3
199	1.2923	2.5455	0.	7582.4
200	1.2923	2.3636	0.	7362.7
201	1.2923	2.1818	0.	7086.2
202	1.2923	2.	0.	6769.1
203	1.2923	1.8182	0.	6427.7
204	1.2923	1.6364	0.	6075.9
205	1.2923	1.4545	0.	5725.6
206	1.2923	1.2727	0.	5389.8
207	1.2923	1.0909	0.	5082.6
208	1.2923	0.90909	0.	4816.9
209	1.2923	0.72727	0.	4603.9
210	1.2923	0.54545	0.	4451.7
211	1.2923	0.36364	0.	4367.
212	1.2923	0.18182	0.	4389.2
213	1.1077	5.8182	0.	4714.1
214	1.1077	5.6364	0.	4651.4
215	1.1077	5.4545	0.	4686.5
216	1.1077	5.2727	0.	4782.2
217	1.1077	5.0909	0.	4935.5
218	1.1077	4.9091	0.	5139.9
219	1.1077	4.7273	0.	5384.8
220	1.1077	4.5455	0.	5657.4
221	1.1077	4.3636	0.	5944.7
222	1.1077	4.1818	0.	6234.3
223	1.1077	4.	0.	6515.2
224	1.1077	3.8182	0.	6775.8
225	1.1077	3.6364	0.	7003.9
226	1.1077	3.4545	0.	7187.2
227	1.1077	3.2727	0.	7315.1
228	1.1077	3.0909	0.	7380.8
229	1.1077	2.9091	0.	7380.8
230	1.1077	2.7273	0.	7315.1
231	1.1077	2.5455	0.	7187.2
232	1.1077	2.3636	0.	7003.9
233	1.1077	2.1818	0.	6775.8
234	1.1077	2.	0.	6515.2
235	1.1077	1.8182	0.	6234.3
236	1.1077	1.6364	0.	5944.7
237	1.1077	1.4545	0.	5657.4
238	1.1077	1.2727	0.	5384.8
239	1.1077	1.0909	0.	5139.9
240	1.1077	0.90909	0.	4935.5
241	1.1077	0.72727	0.	4782.2
242	1.1077	0.54545	0.	4686.5
243	1.1077	0.36364	0.	4651.4
244	1.1077	0.18182	0.	4714.1
245	0.92308	5.8182	0.	4932.
246	0.92308	5.6364	0.	4829.5
247	0.92308	5.4545	0.	4827.1
248	0.92308	5.2727	0.	4889.2
249	0.92308	5.0909	0.	5012.9
250	0.92308	4.9091	0.	5189.1
251	0.92308	4.7273	0.	5403.9
252	0.92308	4.5455	0.	5642.8
253	0.92308	4.3636	0.	5892.6
254	0.92308	4.1818	0.	6141.9
255	0.92308	4.	0.	6380.8
256	0.92308	3.8182	0.	6600.
257	0.92308	3.6364	0.	6790.5
258	0.92308	3.4545	0.	6943.1
259	0.92308	3.2727	0.	7049.8
260	0.92308	3.0909	0.	7104.7
261	0.92308	2.9091	0.	7104.7
262	0.92308	2.7273	0.	7049.8
263	0.92308	2.5455	0.	6943.1
264	0.92308	2.3636	0.	6790.5
265	0.92308	2.1818	0.	6600.
266	0.92308	2.	0.	6380.8
267	0.92308	1.8182	0.	6141.9
268	0.92308	1.6364	0.	5892.6
269	0.92308	1.4545	0.	5642.8
270	0.92308	1.2727	0.	5403.9
271	0.92308	1.0909	0.	5189.1
272	0.92308	0.90909	0.	5012.9
273	0.92308	0.72727	0.	4889.2
274	0.92308	0.54545	0.	4827.1
275	0.92308	0.36364	0.	4829.5
276	0.92308	0.18182	0.	4932.
277	0.73846	5.8182	0.	5022.7
278	0.73846	5.6364	0.	4877.7
279	0.73846	5.4545	0.	4852.8
280	0.73846	5.2727	0.	4910.6
281	0.73846	5.0909	0.	5039.5
282	0.73846	4.9091	0.	5219.8
283	0.73846	4.7273	0.	5431.4
284	0.73846	4.5455	0.	5658.2
285	0.73846	4.3636	0.	5887.6
286	0.73846	4.1818	0.	6110.3
287	0.73846	4.	0.	6318.8
288	0.73846	3.8182	0.	6506.6
289	0.73846	3.6364	0.	6667.2
290	0.73846	3.4545	0.	6794.6
291	0.73846	3.2727	0.	6883.1
292	0.73846	3.0909	0.	6928.6
293	0.73846	2.9091	0.	6928.6
294	0.73846	2.7273	0.	6883.1
295	0.73846	2.5455	0.	6794.6
296	0.73846	2.3636	0.	6667.2
297	0.73846	2.1818	0.	6506.6
298	0.73846	2.	0.	6318.8
299	0.73846	1.8182	0.	6110.3
300	0.73846	1.6364	0.	5887.6
301	0.73846	1.4545	0.	5658.2
302	0.73846	1.2727	0.	5431.4
303	0.73846	1.0909	0.	5219.8
304	0.73846	0.90909	0.	5039.5
305	0.73846	0.72727	0.	4910.6
306	0.73846	0.54545	0.	4852.8
307	0.73846	0.36364	0.	4877.7
308	0.73846	0.18182	0.	5022.7
309	0.55385	5.8182	0.	4957.7
310	0.55385	5.6364	0.	4799.2
311	0.55385	5.4545	0.	4804.9
312	0.55385	5.2727	0.	4920.3
313	0.55385	5.0909	0.	5106.9
314	0.55385	4.9091	0.	5328.3
315	0.55385	4.7273	0.	5561.2
316	0.55385	4.5455	0.	5791.9
317	0.55385	4.3636	0.	6012.3
318	0.55385	4.1818	0.	6217.4
319	0.55385	4.	0.	6403.1
320	0.55385	3.8182	0.	6566.1
321	0.55385	3.6364	0.	6702.8
322	0.55385	3.4545	0.	6809.6
323	0.55385	3.2727	0.	6883.1
324	0.55385	3.0909	0.	6920.6
325	0.55385	2.9091	0.	6920.6
326	0.55385	2.7273	0.	6883.1
327	0.55385	2.5455	0.	6809.6
328	0.55385	2.3636	0.	6702.8
329	0.55385	2.1818	0.	6566.1
330	0.55385	2.	0.	6403.1
331	0.55385	1.8182	0.	6217.4
332	0.55385	1.6364	0.	6012.3
333	0.55385	1.4545	0.	5791.9
334	0.55385	1.2727	0.	5561.2
335	0.55385	1.0909	0.	5328.3
336	0.55385	0.90909	0.	5106.9
337	0.55385	0.72727	0.	4920.3
338	0.55385	0.54545	0.	4804.9
339	0.55385	0.36364	0.	4799.2
340	0.55385	0.18182	0.	4957.7
341	0.36923	5.8182	0.	4588.4
342	0.36923	5.6364	0.	4387.6
343	0.36923	5.4545	0.	4481.7
344	0.36923	5.2727	0.	4715.5
345	0.36923	5.0909	0.	4986.
346	0.36923	4.9091	0.	5252.3
347	0.36923	4.7273	0.	5500.7
348	0.36923	4.5455	0.	5727.2
349	0.36923	4.3636	0.	5931.3
350	0.36923	4.1818	0.	6113.
351	0.36923	4.	0.	6272.1
352	0.36923	3.8182	0.	6408.2
353	0.36923	3.6364	0.	6520.2
354	0.36923	3.4545	0.	6606.4
355	0.36923	3.2727	0.	6665.1
356	0.36923	3.0909	0.	6694.9
357	0.36923	2.9091	0.	6694.9
358	0.36923	2.7273	0.	6665.1
359	0.36923	2.5455	0.	6606.4
360	0.36923	2.3636	0.	6520.2
361	0.36923	2.1818	0.	6408.2
362	0.36923	2.	0.	6272.1
363	0.36923	1.8182	0.	6113.
364	0.36923	1.6364	0.	5931.3
365	0.36923	1.4545	0.	5727.2
366	0.36923	1.2727	0.	5500.7
367	0.36923	1.0909	0.	5252.3
368	0.36923	0.90909	0.	4986.
369	0.36923	0.72727	0.	4715.5
370	0.36923	0.54545	0.	4481.7
371	0.36923	0.36364	0.	4387.6
372	0.36923	0.18182	0.	4588.4
373	0.18462	5.8182	0.	3764.8
374	0.18462	5.6364	0.	4259.7
375	0.18462	5.4545	0.	4928.1
376	0.18462	5.2727	0.	5476.
377	0.18462	5.0909	0.	5912.1
378	0.18462	4.9091	0.	6264.7
379	0.18462	4.7273	0.	6555.6
380	0.18462	4.5455	0.	6799.3
381	0.18462	4.3636	0.	7005.4
382	0.18462	4.1818	0.	7180.
383	0.18462	4.	0.	7327.2
384	0.18462	3.8182	0.	7449.7
385	0.18462	3.6364	0.	7548.5
386	0.18462	3.4545	0.	7623.7
387	0.18462	3.2727	0.	7674.5
388	0.18462	3.0909	0.	7700.3
389	0.18462	2.9091	0.	7700.3
390	0.18462	2.7273	0.	7674.5
391	0.18462	2.5455	0.	7623.7
392	0.18462	2.3636	0.	7548.5
393	0.18462	2.1818	0.	7449.7
394	0.18462	2.	0.	7327.2
395	0.18462	1.8182	0.	7180.
396	0.18462	1.6364	0.	7005.4
397	0.18462	1.4545	0.	6799.3
398	0.18462	1.2727	0.	6555.6
399	0.18462	1.0909	0.	6264.7
400	0.18462	0.90909	0.	5912.1
401	0.18462	0.72727	0.	5476.
402	0.18462	0.54545	0.	4928.1
403	0.18462	0.36364	0.	4259.7
404	0.18462	0.18182	0.	3764.8
405	2.7514	5.8182	0.	1068.4
406	2.9362	5.8182	0.	1610.5
407	3.121	5.8182	0.	2178.8
408	3.3057	5.8182	0.	2687.7
409	3.4905	5.8182	0.	3124.7
410	3.6753	5.8182	0.	3489.5
411	3.8601	5.8182	0.	3786.3
412	4.0448	5.8182	0.	4021.7
413	4.2296	5.8182	0.	4203.6
414	4.4144	5.8182	0.	4339.8
415	4.5991	5.8182	0.	4437.9
416	4.7839	5.8182	0.	4504.5
417	4.9687	5.8182	0.	4545.6
418	5.1534	5.8182	0.	4565.9
419	5.3382	5.8182	0.	4569.7
420	5.523	5.8182	0.	4560.3
421	5.7078	5.8182	0.	4540.6
422	5.8925	5.8182	0.	4512.6
423	6.0773	5.8182	0.	4478.3
424	6.2621	5.8182	0.	4439.
425	6.4468	5.8182	0.	4395.9
426	6.6316	5.8182	0.	4349.9
427	6.8164	5.8182	0.	4301.6
428	7.0011	5.8182	0.	4251.7
429	7.1859	5.8182	0.	4200.6
430	7.3707	5.8182	0.	4148.6
431	7.5555	5.8182	0.	4095.9
432	7.7402	5.8182	0.	4042.8
433	7.925	5.8182	0.	3989.5
434	8.1098	5.8182	0.	3936.
435	8.2945	5.8182	0.	3882.4
436	8.4793	5.8182	0.	3828.9
437	8.6641	5.8182	0.	3775.4
438	8.8489	5.8182	0.	3722.
439	9.0336	5.8182	0.	3668.8
440	9.2184	5.8182	0.	3615.7
441	9.4032	5.8182	0.	3562.8
442	9.5879	5.8182	0.	3510.1
443	9.7727	5.8182	0.	3457.6
444	9.9575	5.8182	0.	3405.3
445	10.142	5.8182	0.	3353.2
446	10.327	5.8182	0.	3301.4
447	10.512	5.8182	0.	3249.7
448	10.697	5.8182	0.	3198.2
449	10.881	5.8182	0.	3147.
450	11.066	5.8182	0.	3096.
451	11.251	5.8182	0.	3045.2
452	11.436	5.8182	0.	2994.6
453	11.62	5.8182	0.	2944.2
454	11.805	5.8182	0.	2894.1
455	11.99	5.8182	0.	2844.1
456	12.175	5.8182	0.	2794.4
457	12.359	5.8182	0.	2744.9
458	12.544	5.8182	0.	2695.6
459	12.729	5.8182	0.	2646.5
460	12.914	5.8182	0.	2597.6
461	13.099	5.8182	0.	2548.9
462	13.283	5.8182	0.	2500.4
463	13.468	5.8182	0.	2452.1
464	13.653	5.8182	0.	2404.1
465	13.838	5.8182	0.	2356.2
466	14.022	5.8182	0.	2308.6
467	14.207	5.8182	0.	2261.2
468	14.392	5.8182	0.	2213.9
469	14.577	5.8182	0.	2166.9
470	14.761	5.8182	0.	2120.1
471	14.946	5.8182	0.	2073.5
472	15.131	5.8182	0.	2027.1
473	15.316	5.8182	0.	1980.9
474	15.501	5.8182	0.	1934.9
475	15.685	5.8182	0.	1889.1
476	15.87	5.8182	0.	1843.5
477	16.055	5.8182	0.	1798.1
478	16.24	5.8182	0.	1753.
479	16.424	5.8182	0.	1708.
480	16.609	5.8182	0.	1663.2
481	16.794	5.8182	0.	1618.6
482	16.979	5.8182	0.	1574.3
483	17.164	5.8182	0.	1530.1
484	17.348	5.8182	0.	1486.1
485	17.533	5.8182	0.	1442.3
486	17.718	5.8182	0.	1398.8
487	17.903	5.8182	0.	1355.4
488	18.087	5.8182	0.	1312.2
489	18.272	5.8182	0.	1269.2
490	18.457	5.8182	0.	1226.4
491	18.642	5.8182	0.	1183.7
492	18.826	5.8182	0.	1141.3
493	19.011	5.8182	0.	1099.
494	19.196	5.8182	0.	1056.9
495	19.381	5.8182	0.	1015.
496	19.566	5.8182	0.	973.3
497	19.75	5.8182	0.	931.73
498	19.935	5.8182	0.	890.33
499	20.12	5.8182	0.	849.1
500	20.305	5.8182	0.	808.01
501	20.489	5.8182	0.	767.08
502	20.674	5.8182	0.	726.29
503	20.859	5.8182	0.	685.65
504	21.044	5.8182	0.	645.14
505	21.228	5.8182	0.	604.76
506	21.413	5.8182	0.	564.51
507	21.598	5.8182	0.	524.38
508	21.783	5.8182	0.	484.37
509	21.968	5.8182	0.	444.47
510	22.152	5.8182	0.	404.69
511	22.337	5.8182	0.	365.03
512	22.522	5.8182	0.	325.49
513	22.707	5.8182	0.	286.09
514	22.891	5.8182	0.	246.86
515	23.076	5.8182	0.	207.85
516	23.261	5.8182	0.	169.17
517	23.446	5.8182	0.	131.04
518	23.63	5.8182	0.	94.131
519	23.815	5.8182	0.	61.789
520	2.7514	5.6364	0.	1558.
521	2.9362	5.6364	0.	1865.
522	3.121	5.6364	0.	2359.6
523	3.3057	5.6364	0.	2840.7
524	3.4905	5.6364	0.	3261.8
525	3.6753	5.6364	0.	3612.6
526	3.8601	5.6364	0.	3894.8
527	4.0448	5.6364	0.	4115.1
528	4.2296	5.6364	0.	4282.1
529	4.4144	5.6364	0.	4404.2
530	4.5991	5.6364	0.	4489.5
531	4.7839	5.6364	0.	4544.8
532	4.9687	5.6364	0.	4576.1
533	5.1534	5.6364	0.	4588.2
534	5.3382	5.6364	0.	4585.1
535	5.523	5.6364	0.	4570.1
536	5.7078	5.6364	0.	4545.8
537	5.8925	5.6364	0.	4514.2
538	6.0773	5.6364	0.	4477.
539	6.2621	5.6364	0.	4435.6
540	6.4468	5.6364	0.	4390.8
541	6.6316	5.6364	0.	4343.6
542	6.8164	5.6364	0.	4294.4
543	7.0011	5.6364	0.	4243.9
544	7.1859	5.6364	0.	4192.4
545	7.3707	5.6364	0.	4140.2
546	7.5555	5.6364	0.	4087.5
547	7.7402	5.6364	0.	4034.4
548	7.925	5.6364	0.	3981.2
549	8.1098	5.6364	0.	3927.8
550	8.2945	5.6364	0.	3874.4
551	8.4793	5.6364	0.	3821.1
552	8.6641	5.6364	0.	3767.9
553	8.8489	5.6364	0.	3714.7
554	9.0336	5.6364	0.	3661.7
555	9.2184	5.6364	0.	3608.9
556	9.4032	5.6364	0.	3556.2
557	9.5879	5.6364	0.	3503.7
558	9.7727	5.6364	0.	3451.4
559	9.9575	5.6364	0.	3399.3
560	10.142	5.6364	0.	3347.4
561	10.327	5.6364	0.	3295.7
562	10.512	5.6364	0.	3244.2
563	10.697	5.6364	0.	3192.9
564	10.881	5.6364	0.	3141.8
565	11.066	5.6364	0.	3090.9
566	11.251	5.6364	0.	3040.2
567	11.436	5.6364	0.	2989.7
568	11.62	5.6364	0.	2939.4
569	11.805	5.6364	0.	2889.3
570	11.99	5.6364	0.	2839.4
571	12.175	5.6364	0.	2789.7
572	12.359	5.6364	0.	2740.3
573	12.544	5.6364	0.	2691.
574	12.729	5.6364	0.	2641.9
575	12.914	5.6364	0.	2593.1
576	13.099	5.6364	0.	2544.4
577	13.283	5.6364	0.	2495.9
578	13.468	5.6364	0.	2447.7
579	13.653	5.6364	0.	2399.6
580	13.838	5.6364	0.	2351.8
581	14.022	5.6364	0.	2304.1
582	14.207	5.6364	0.	2256.7
583	14.392	5.6364	0.	2209.5
584	14.577	5.6364	0.	2162.4
585	14.761	5.6364	0.	2115.6
586	14.946	5.6364	0.	2069.
587	15.131	5.6364	0.	2022.5
588	15.316	5.6364	0.	1976.3
589	15.501	5.6364	0.	1930.3
590	15.685	5.6364	0.	1884.5
591	15.87	5.6364	0.	1838.9
592	16.055	5.6364	0.	1793.5
593	16.24	5.6364	0.	1748.3
594	16.424	5.6364	0.	1703.3
595	16.609	5.6364	0.	1658.5
596	16.794	5.6364	0.	1613.9
597	16.979	5.6364	0.	1569.5
598	17.164	5.6364	0.	1525.3
599	17.348	5.6364	0.	1481.3
600	17.533	5.6364	0.	1437.5
601	17.718	5.6364	0.	1393.8
602	17.903	5.6364	0.	1350.4
603	18.087	5.6364	0.	1307.2
604	18.272	5.6364	0.	1264.2
605	18.457	5.6364	0.	1221.4
606	18.642	5.6364	0.	1178.8
607	18.826	5.6364	0.	1136.3
608	19.011	5.6364	0.	1094.1
609	19.196	5.6364	0.	1052.
610	19.381	5.6364	0.	1010.1
611	19.566	5.6364	0.	968.46
612	19.75	5.6364	0.	926.94
613	19.935	5.6364	0.	885.61
614	20.12	5.6364	0.	844.45
615	20.305	5.6364	0.	803.46
616	20.489	5.6364	0.	762.65
617	20.674	5.6364	0.	722.
618	20.859	5.6364	0.	681.52
619	21.044	5.6364	0.	641.2
620	21.228	5.6364	0.	601.04
621	21.413	5.6364	0.	561.05
622	21.598	5.6364	0.	521.22
623	21.783	5.6364	0.	481.56
624	21.968	5.6364	0.	442.09
625	22.152	5.6364	0.	402.81
626	22.337	5.6364	0.	363.75
627	22.522	5.6364	0.	324.95
628	22.707	5.6364	0.	286.47
629	22.891	5.6364	0.	248.42
630	23.076	5.6364	0.	210.97
631	23.261	5.6364	0.	174.49
632	23.446	5.6364	0.	139.64
633	23.63	5.6364	0.	108.04
634	23.815	5.6364	0.	83.389
635	2.7514	5.4545	0.	2180.4
636	2.9362	5.4545	0.	2302.7
637	3.121	5.4545	0.	2685.8
638	3.3057	5.4545	0.	3099.4
639	3.4905	5.4545	0.	3474.3
640	3.6753	5.4545	0.	3788.9
641	3.8601	5.4545	0.	4040.5
642	4.0448	5.4545	0.	4234.3
643	4.2296	5.4545	0.	4378.2
644	4.4144	5.4545	0.	4480.6
645	4.5991	5.4545	0.	4549.2
646	4.7839	5.4545	0.	4590.5
647	4.9687	5.4545	0.	4610.2
648	5.1534	5.4545	0.	4612.9
649	5.3382	5.4545	0.	4602.1
650	5.523	5.4545	0.	4581.
651	5.7078	5.4545	0.	4551.8
652	5.8925	5.4545	0.	4516.5
653	6.0773	5.4545	0.	4476.4
654	6.2621	5.4545	0.	4432.7
655	6.4468	5.4545	0.	4386.3
656	6.6316	5.4545	0.	4337.8
657	6.8164	5.4545	0.	4287.9
658	7.0011	5.4545	0.	4236.9
659	7.1859	5.4545	0.	4185.1
660	7.3707	5.4545	0.	4132.7
661	7.5555	5.4545	0.	4080.
662	7.7402	5.4545	0.	4027.
663	7.925	5.4545	0.	3973.9
664	8.1098	5.4545	0.	3920.8
665	8.2945	5.4545	0.	3867.7
666	8.4793	5.4545	0.	3814.6
667	8.6641	5.4545	0.	3761.7
668	8.8489	5.4545	0.	3708.8
669	9.0336	5.4545	0.	3656.1
670	9.2184	5.4545	0.	3603.6
671	9.4032	5.4545	0.	3551.2
672	9.5879	5.4545	0.	3499.
673	9.7727	5.4545	0.	3446.9
674	9.9575	5.4545	0.	3395.
675	10.142	5.4545	0.	3343.4
676	10.327	5.4545	0.	3291.9
677	10.512	5.4545	0.	3240.5
678	10.697	5.4545	0.	3189.4
679	10.881	5.4545	0.	3138.5
680	11.066	5.4545	0.	3087.7
681	11.251	5.4545	0.	3037.2
682	11.436	5.4545	0.	2986.8
683	11.62	5.4545	0.	2936.7
684	11.805	5.4545	0.	2886.7
685	11.99	5.4545	0.	2836.9
686	12.175	5.4545	0.	2787.3
687	12.359	5.4545	0.	2737.9
688	12.544	5.4545	0.	2688.7
689	12.729	5.4545	0.	2639.7
690	12.914	5.4545	0.	2590.9
691	13.099	5.4545	0.	2542.3
692	13.283	5.4545	0.	2493.9
693	13.468	5.4545	0.	2445.7
694	13.653	5.4545	0.	2397.7
695	13.838	5.4545	0.	2349.9
696	14.022	5.4545	0.	2302.3
697	14.207	5.4545	0.	2254.9
698	14.392	5.4545	0.	2207.7
699	14.577	5.4545	0.	2160.7
700	14.761	5.4545	0.	2113.9
701	14.946	5.4545	0.	2067.3
702	15.131	5.4545	0.	2020.9
703	15.316	5.4545	0.	1974.7
704	15.501	5.4545	0.	1928.7
705	15.685	5.4545	0.	1882.9
706	15.87	5.4545	0.	1837.3
707	16.055	5.4545	0.	1791.9
708	16.24	5.4545	0.	1746.7
709	16.424	5.4545	0.	1701.7
710	16.609	5.4545	0.	1656.9
711	16.794	5.4545	0.	1612.3
712	16.979	5.4545	0.	1568.
713	17.164	5.4545	0.	1523.8
714	17.348	5.4545	0.	1479.8
715	17.533	5.4545	0.	1436.
716	17.718	5.4545	0.	1392.5
717	17.903	5.4545	0.	1349.1
718	18.087	5.4545	0.	1305.9
719	18.272	5.4545	0.	1263.
720	18.457	5.4545	0.	1220.2
721	18.642	5.4545	0.	1177.6
722	18.826	5.4545	0.	1135.3
723	19.011	5.4545	0.	1093.1
724	19.196	5.4545	0.	1051.1
725	19.381	5.4545	0.	1009.3
726	19.566	5.4545	0.	967.74
727	19.75	5.4545	0.	926.35
728	19.935	5.4545	0.	885.14
729	20.12	5.4545	0.	844.13
730	20.305	5.4545	0.	803.31
731	20.489	5.4545	0.	762.67
732	20.674	5.4545	0.	722.23
733	20.859	5.4545	0.	681.97
734	21.044	5.4545	0.	641.91
735	21.228	5.4545	0.	602.04
736	21.413	5.4545	0.	562.37
737	21.598	5.4545	0.	522.91
738	21.783	5.4545	0.	483.68
739	21.968	5.4545	0.	444.69
740	22.152	5.4545	0.	405.97
741	22.337	5.4545	0.	367.58
742	22.522	5.4545	0.	329.58
743	22.707	5.4545	0.	292.08
744	22.891	5.4545	0.	255.26
745	23.076	5.4545	0.	219.4
746	23.261	5.4545	0.	184.98
747	23.446	5.4545	0.	152.86
748	23.63	5.4545	0.	124.6
749	23.815	5.4545	0.	102.84
750	2.7514	5.2727	0.	2884.6
751	2.9362	5.2727	0.	2861.4
752	3.121	5.2727	0.	3130.3
753	3.3057	5.2727	0.	3452.8
754	3.4905	5.2727	0.	3756.8
755	3.6753	5.2727	0.	4014.9
756	3.8601	5.2727	0.	4220.4
757	4.0448	5.2727	0.	4376.5
758	4.2296	5.2727	0.	4489.6
759	4.4144	5.2727	0.	4566.9
760	4.5991	5.2727	0.	4615.1
761	4.7839	5.2727	0.	4640.
762	4.9687	5.2727	0.	4646.5
763	5.1534	5.2727	0.	4638.6
764	5.3382	5.2727	0.	4619.6
765	5.523	5.2727	0.	4591.9
766	5.7078	5.2727	0.	4557.7
767	5.8925	5.2727	0.	4518.4
768	6.0773	5.2727	0.	4475.4
769	6.2621	5.2727	0.	4429.5
770	6.4468	5.2727	0.	4381.5
771	6.6316	5.2727	0.	4331.9
772	6.8164	5.2727	0.	4281.2
773	7.0011	5.2727	0.	4229.7
774	7.1859	5.2727	0.	4177.7
775	7.3707	5.2727	0.	4125.2
776	7.5555	5.2727	0.	4072.5
777	7.7402	5.2727	0.	4019.7
778	7.925	5.2727	0.	3966.8
779	8.1098	5.2727	0.	3914.
780	8.2945	5.2727	0.	3861.1
781	8.4793	5.2727	0.	3808.4
782	8.6641	5.2727	0.	3755.7
783	8.8489	5.2727	0.	3703.2
784	9.0336	5.2727	0.	3650.8
785	9.2184	5.2727	0.	3598.5
786	9.4032	5.2727	0.	3546.4
787	9.5879	5.2727	0.	3494.5
788	9.7727	5.2727	0.	3442.7
789	9.9575	5.2727	0.	3391.
790	10.142	5.2727	0.	3339.6
791	10.327	5.2727	0.	3288.3
792	10.512	5.2727	0.	3237.2
793	10.697	5.2727	0.	3186.2
794	10.881	5.2727	0.	3135.4
795	11.066	5.2727	0.	3084.9
796	11.251	5.2727	0.	3034.4
797	11.436	5.2727	0.	2984.2
798	11.62	5.2727	0.	2934.2
799	11.805	5.2727	0.	2884.3
800	11.99	5.2727	0.	2834.6
801	12.175	5.2727	0.	2785.1
802	12.359	5.2727	0.	2735.8
803	12.544	5.2727	0.	2686.7
804	12.729	5.2727	0.	2637.8
805	12.914	5.2727	0.	2589.1
806	13.099	5.2727	0.	2540.5
807	13.283	5.2727	0.	2492.2
808	13.468	5.2727	0.	2444.
809	13.653	5.2727	0.	2396.
810	13.838	5.2727	0.	2348.3
811	14.022	5.2727	0.	2300.7
812	14.207	5.2727	0.	2253.3
813	14.392	5.2727	0.	2206.2
814	14.577	5.2727	0.	2159.2
815	14.761	5.2727	0.	2112.4
816	14.946	5.2727	0.	2065.8
817	15.131	5.2727	0.	2019.4
818	15.316	5.2727	0.	1973.3
819	15.501	5.2727	0.	1927.3
820	15.685	5.2727	0.	1881.5
821	15.87	5.2727	0.	1835.9
822	16.055	5.2727	0.	1790.6
823	16.24	5.2727	0.	1745.4
824	16.424	5.2727	0.	1700.4
825	16.609	5.2727	0.	1655.7
826	16.794	5.2727	0.	1611.1
827	16.979	5.2727	0.	1566.8
828	17.164	5.2727	0.	1522.6
829	17.348	5.2727	0.	1478.7
830	17.533	5.2727	0.	1435.
831	17.718	5.2727	0.	1391.4
832	17.903	5.2727	0.	1348.1
833	18.087	5.2727	0.	1305.
834	18.272	5.2727	0.	1262.1
835	18.457	5.2727	0.	1219.4
836	18.642	5.2727	0.	1176.9
837	18.826	5.2727	0.	1134.6
838	19.011	5.2727	0.	1092.5
839	19.196	5.2727	0.	1050.6
840	19.381	5.2727	0.	1009.
841	19.566	5.2727	0.	967.5
842	19.75	5.2727	0.	926.24
843	19.935	5.2727	0.	885.18
844	20.12	5.2727	0.	844.33
845	20.305	5.2727	0.	803.69
846	20.489	5.2727	0.	763.27
847	20.674	5.2727	0.	723.05
848	20.859	5.2727	0.	683.05
849	21.044	5.2727	0.	643.27
850	21.228	5.2727	0.	603.72
851	21.413	5.2727	0.	564.41
852	21.598	5.2727	0.	525.36
853	21.783	5.2727	0.	486.59
854	21.968	5.2727	0.	448.13
855	22.152	5.2727	0.	410.03
856	22.337	5.2727	0.	372.36
857	22.522	5.2727	0.	335.2
858	22.707	5.2727	0.	298.72
859	22.891	5.2727	0.	263.11
860	23.076	5.2727	0.	228.72
861	23.261	5.2727	0.	196.07
862	23.446	5.2727	0.	165.98
863	23.63	5.2727	0.	139.74
864	23.815	5.2727	0.	119.46
865	2.7514	5.0909	0.	3691.1
866	2.9362	5.0909	0.	3529.8
867	3.121	5.0909	0.	3681.1
868	3.3057	5.0909	0.	3894.2
869	3.4905	5.0909	0.	4105.2
870	3.6753	5.0909	0.	4287.3
871	3.8601	5.0909	0.	4432.
872	4.0448	5.0909	0.	4539.7
873	4.2296	5.0909	0.	4614.5
874	4.4144	5.0909	0.	4661.5
875	4.5991	5.0909	0.	4685.9
876	4.7839	5.0909	0.	4692.1
877	4.9687	5.0909	0.	4684.
878	5.1534	5.0909	0.	4664.7
879	5.3382	5.0909	0.	4636.8
880	5.523	5.0909	0.	4602.4
881	5.7078	5.0909	0.	4562.9
882	5.8925	5.0909	0.	4519.8
883	6.0773	5.0909	0.	4473.8
884	6.2621	5.0909	0.	4425.8
885	6.4468	5.0909	0.	4376.2
886	6.6316	5.0909	0.	4325.6
887	6.8164	5.0909	0.	4274.3
888	7.0011	5.0909	0.	4222.4
889	7.1859	5.0909	0.	4170.1
890	7.3707	5.0909	0.	4117.7
891	7.5555	5.0909	0.	4065.1
892	7.7402	5.0909	0.	4012.5
893	7.925	5.0909	0.	3959.8
894	8.1098	5.0909	0.	3907.2
895	8.2945	5.0909	0.	3854.7
896	8.4793	5.0909	0.	3802.3
897	8.6641	5.0909	0.	3749.9
898	8.8489	5.0909	0.	3697.7
899	9.0336	5.0909	0.	3645.6
900	9.2184	5.0909	0.	3593.6
901	9.4032	5.0909	0.	3541.8
902	9.5879	5.0909	0.	3490.1
903	9.7727	5.0909	0.	3438.6
904	9.9575	5.0909	0.	3387.2
905	10.142	5.0909	0.	3336.
906	10.327	5.0909	0.	3284.9
907	10.512	5.0909	0.	3233.9
908	10.697	5.0909	0.	3183.2
909	10.881	5.0909	0.	3132.6
910	11.066	5.0909	0.	3082.1
911	11.251	5.0909	0.	3031.9
912	11.436	5.0909	0.	2981.8
913	11.62	5.0909	0.	2931.8
914	11.805	5.0909	0.	2882.1
915	11.99	5.0909	0.	2832.5
916	12.175	5.0909	0.	2783.1
917	12.359	5.0909	0.	2733.9
918	12.544	5.0909	0.	2684.8
919	12.729	5.0909	0.	2636.
920	12.914	5.0909	0.	2587.3
921	13.099	5.0909	0.	2538.8
922	13.283	5.0909	0.	2490.5
923	13.468	5.0909	0.	2442.4
924	13.653	5.0909	0.	2394.5
925	13.838	5.0909	0.	2346.8
926	14.022	5.0909	0.	2299.3
927	14.207	5.0909	0.	2251.9
928	14.392	5.0909	0.	2204.8
929	14.577	5.0909	0.	2157.8
930	14.761	5.0909	0.	2111.1
931	14.946	5.0909	0.	2064.5
932	15.131	5.0909	0.	2018.2
933	15.316	5.0909	0.	1972.
934	15.501	5.0909	0.	1926.1
935	15.685	5.0909	0.	1880.3
936	15.87	5.0909	0.	1834.8
937	16.055	5.0909	0.	1789.4
938	16.24	5.0909	0.	1744.3
939	16.424	5.0909	0.	1699.3
940	16.609	5.0909	0.	1654.6
941	16.794	5.0909	0.	1610.1
942	16.979	5.0909	0.	1565.8
943	17.164	5.0909	0.	1521.7
944	17.348	5.0909	0.	1477.8
945	17.533	5.0909	0.	1434.1
946	17.718	5.0909	0.	1390.6
947	17.903	5.0909	0.	1347.3
948	18.087	5.0909	0.	1304.2
949	18.272	5.0909	0.	1261.4
950	18.457	5.0909	0.	1218.8
951	18.642	5.0909	0.	1176.3
952	18.826	5.0909	0.	1134.1
953	19.011	5.0909	0.	1092.1
954	19.196	5.0909	0.	1050.4
955	19.381	5.0909	0.	1008.8
956	19.566	5.0909	0.	967.47
957	19.75	5.0909	0.	926.36
958	19.935	5.0909	0.	885.46
959	20.12	5.0909	0.	844.79
960	20.305	5.0909	0.	804.35
961	20.489	5.0909	0.	764.13
962	20.674	5.0909	0.	724.16
963	20.859	5.0909	0.	684.43
964	21.044	5.0909	0.	644.95
965	21.228	5.0909	0.	605.74
966	21.413	5.0909	0.	566.81
967	21.598	5.0909	0.	528.19
968	21.783	5.0909	0.	489.9
969	21.968	5.0909	0.	451.99
970	22.152	5.0909	0.	414.51
971	22.337	5.0909	0.	377.55
972	22.522	5.0909	0.	341.22
973	22.707	5.0909	0.	305.68
974	22.891	5.0909	0.	271.17
975	23.076	5.0909	0.	238.02
976	23.261	5.0909	0.	206.75
977	23.446	5.0909	0.	178.09
978	23.63	5.0909	0.	153.17
979	23.815	5.0909	0.	133.76
980	2.7514	4.9091	0.	4644.6
981	2.9362	4.9091	0.	4322.2
982	3.121	4.9091	0.	4335.6
983	3.3057	4.9091	0.	4415.
984	3.4905	4.9091	0.	4510.1
985	3.6753	4.9091	0.	4598.2
986	3.8601	4.9091	0.	4668.9
987	4.0448	4.9091	0.	4719.1
988	4.2296	4.9091	0.	4749.4
989	4.4144	4.9091	0.	4762.1
990	4.5991	4.9091	0.	4759.9
991	4.7839	4.9091	0.	4745.7
992	4.9687	4.9091	0.	4721.9
993	5.1534	4.9091	0.	4690.5
994	5.3382	4.9091	0.	4653.4
995	5.523	4.9091	0.	4612.
996	5.7078	4.9091	0.	4567.3
997	5.8925	4.9091	0.	4520.2
998	6.0773	4.9091	0.	4471.4
999	6.2621	4.9091	0.	4421.4
1000	6.4468	4.9091	0.	4370.5
1001	6.6316	4.9091	0.	4318.9
1002	6.8164	4.9091	0.	4267.
1003	7.0011	4.9091	0.	4214.8
1004	7.1859	4.9091	0.	4162.5
1005	7.3707	4.9091	0.	4110.1
1006	7.5555	4.9091	0.	4057.7
1007	7.7402	4.9091	0.	4005.3
1008	7.925	4.9091	0.	3952.9
1009	8.1098	4.9091	0.	3900.6
1010	8.2945	4.9091	0.	3848.4
1011	8.4793	4.9091	0.	3796.3
1012	8.6641	4.9091	0.	3744.3
1013	8.8489	4.9091	0.	3692.4
1014	9.0336	4.9091	0.	3640.6
1015	9.2184	4.9091	0.	3589.
1016	9.4032	4.9091	0.	3537.4
1017	9.5879	4.9091	0.	3486.
1018	9.7727	4.9091	0.	3434.7
1019	9.9575	4.9091	0.	3383.5
1020	10.142	4.9091	0.	3332.5
1021	10.327	4.9091	0.	3281.6
1022	10.512	4.9091	0.	3230.9
1023	10.697	4.9091	0.	3180.3
1024	10.881	4.9091	0.	3129.9
1025	11.066	4.9091	0.	3079.6
1026	11.251	4.9091	0.	3029.4
1027	11.436	4.9091	0.	2979.5
1028	11.62	4.9091	0.	2929.7
1029	11.805	4.9091	0.	2880.
1030	11.99	4.9091	0.	2830.5
1031	12.175	4.9091	0.	2781.2
1032	12.359	4.9091	0.	2732.1
1033	12.544	4.9091	0.	2683.1
1034	12.729	4.9091	0.	2634.3
1035	12.914	4.9091	0.	2585.7
1036	13.099	4.9091	0.	2537.3
1037	13.283	4.9091	0.	2489.
1038	13.468	4.9091	0.	2441.
1039	13.653	4.9091	0.	2393.1
1040	13.838	4.9091	0.	2345.4
1041	14.022	4.9091	0.	2297.9
1042	14.207	4.9091	0.	2250.6
1043	14.392	4.9091	0.	2203.5
1044	14.577	4.9091	0.	2156.6
1045	14.761	4.9091	0.	2109.9
1046	14.946	4.9091	0.	2063.3
1047	15.131	4.9091	0.	2017.
1048	15.316	4.9091	0.	1970.9
1049	15.501	4.9091	0.	1924.9
1050	15.685	4.9091	0.	1879.2
1051	15.87	4.9091	0.	1833.7
1052	16.055	4.9091	0.	1788.4
1053	16.24	4.9091	0.	1743.3
1054	16.424	4.9091	0.	1698.4
1055	16.609	4.9091	0.	1653.6
1056	16.794	4.9091	0.	1609.2
1057	16.979	4.9091	0.	1564.9
1058	17.164	4.9091	0.	1520.8
1059	17.348	4.9091	0.	1476.9
1060	17.533	4.9091	0.	1433.3
1061	17.718	4.9091	0.	1389.8
1062	17.903	4.9091	0.	1346.6
1063	18.087	4.9091	0.	1303.6
1064	18.272	4.9091	0.	1260.8
1065	18.457	4.9091	0.	1218.3
1066	18.642	4.9091	0.	1175.9
1067	18.826	4.9091	0.	1133.8
1068	19.011	4.9091	0.	1091.9
1069	19.196	4.9091	0.	1050.3
1070	19.381	4.9091	0.	1008.8
1071	19.566	4.9091	0.	967.62
1072	19.75	4.9091	0.	926.65
1073	19.935	4.9091	0.	885.91
1074	20.12	4.9091	0.	845.43
1075	20.305	4.9091	0.	805.18
1076	20.489	4.9091	0.	765.2
1077	20.674	4.9091	0.	725.47
1078	20.859	4.9091	0.	686.01
1079	21.044	4.9091	0.	646.84
1080	21.228	4.9091	0.	607.97
1081	21.413	4.9091	0.	569.42
1082	21.598	4.9091	0.	531.22
1083	21.783	4.9091	0.	493.41
1084	21.968	4.9091	0.	456.03
1085	22.152	4.9091	0.	419.15
1086	22.337	4.9091	0.	382.86
1087	22.522	4.9091	0.	347.28
1088	22.707	4.9091	0.	312.58
1089	22.891	4.9091	0.	278.99
1090	23.076	4.9091	0.	246.85
1091	23.261	4.9091	0.	216.63
1092	23.446	4.9091	0.	189.
1093	23.63	4.9091	0.	164.97
1094	23.815	4.9091	0.	146.16
1095	2.7514	4.7273	0.	5824.1
1096	2.9362	4.7273	0.	5274.9
1097	3.121	4.7273	0.	5093.7
1098	3.3057	4.7273	0.	5001.8
1099	3.4905	4.7273	0.	4956.6
1100	3.6753	4.7273	0.	4935.2
1101	3.8601	4.7273	0.	4922.
1102	4.0448	4.7273	0.	4908.4
1103	4.2296	4.7273	0.	4890.1
1104	4.4144	4.7273	0.	4865.7
1105	4.5991	4.7273	0.	4835.3
1106	4.7839	4.7273	0.	4799.5
1107	4.9687	4.7273	0.	4759.2
1108	5.1534	4.7273	0.	4715.4
1109	5.3382	4.7273	0.	4669.
1110	5.523	4.7273	0.	4620.5
1111	5.7078	4.7273	0.	4570.7
1112	5.8925	4.7273	0.	4519.8
1113	6.0773	4.7273	0.	4468.3
1114	6.2621	4.7273	0.	4416.4
1115	6.4468	4.7273	0.	4364.2
1116	6.6316	4.7273	0.	4311.9
1117	6.8164	4.7273	0.	4259.5
1118	7.0011	4.7273	0.	4207.1
1119	7.1859	4.7273	0.	4154.8
1120	7.3707	4.7273	0.	4102.5
1121	7.5555	4.7273	0.	4050.3
1122	7.7402	4.7273	0.	3998.2
1123	7.925	4.7273	0.	3946.2
1124	8.1098	4.7273	0.	3894.2
1125	8.2945	4.7273	0.	3842.4
1126	8.4793	4.7273	0.	3790.6
1127	8.6641	4.7273	0.	3738.9
1128	8.8489	4.7273	0.	3687.4
1129	9.0336	4.7273	0.	3635.9
1130	9.2184	4.7273	0.	3584.5
1131	9.4032	4.7273	0.	3533.3
1132	9.5879	4.7273	0.	3482.1
1133	9.7727	4.7273	0.	3431.1
1134	9.9575	4.7273	0.	3380.1
1135	10.142	4.7273	0.	3329.3
1136	10.327	4.7273	0.	3278.6
1137	10.512	4.7273	0.	3228.1
1138	10.697	4.7273	0.	3177.6
1139	10.881	4.7273	0.	3127.3
1140	11.066	4.7273	0.	3077.2
1141	11.251	4.7273	0.	3027.2
1142	11.436	4.7273	0.	2977.3
1143	11.62	4.7273	0.	2927.6
1144	11.805	4.7273	0.	2878.1
1145	11.99	4.7273	0.	2828.7
1146	12.175	4.7273	0.	2779.5
1147	12.359	4.7273	0.	2730.4
1148	12.544	4.7273	0.	2681.5
1149	12.729	4.7273	0.	2632.8
1150	12.914	4.7273	0.	2584.2
1151	13.099	4.7273	0.	2535.9
1152	13.283	4.7273	0.	2487.7
1153	13.468	4.7273	0.	2439.6
1154	13.653	4.7273	0.	2391.8
1155	13.838	4.7273	0.	2344.2
1156	14.022	4.7273	0.	2296.7
1157	14.207	4.7273	0.	2249.4
1158	14.392	4.7273	0.	2202.3
1159	14.577	4.7273	0.	2155.5
1160	14.761	4.7273	0.	2108.8
1161	14.946	4.7273	0.	2062.3
1162	15.131	4.7273	0.	2016.
1163	15.316	4.7273	0.	1969.9
1164	15.501	4.7273	0.	1924.
1165	15.685	4.7273	0.	1878.2
1166	15.87	4.7273	0.	1832.7
1167	16.055	4.7273	0.	1787.5
1168	16.24	4.7273	0.	1742.4
1169	16.424	4.7273	0.	1697.5
1170	16.609	4.7273	0.	1652.8
1171	16.794	4.7273	0.	1608.3
1172	16.979	4.7273	0.	1564.1
1173	17.164	4.7273	0.	1520.1
1174	17.348	4.7273	0.	1476.2
1175	17.533	4.7273	0.	1432.6
1176	17.718	4.7273	0.	1389.2
1177	17.903	4.7273	0.	1346.1
1178	18.087	4.7273	0.	1303.1
1179	18.272	4.7273	0.	1260.4
1180	18.457	4.7273	0.	1217.9
1181	18.642	4.7273	0.	1175.7
1182	18.826	4.7273	0.	1133.6
1183	19.011	4.7273	0.	1091.8
1184	19.196	4.7273	0.	1050.3
1185	19.381	4.7273	0.	1009.
1186	19.566	4.7273	0.	967.89
1187	19.75	4.7273	0.	927.07
1188	19.935	4.7273	0.	886.5
1189	20.12	4.7273	0.	846.19
1190	20.305	4.7273	0.	806.15
1191	20.489	4.7273	0.	766.38
1192	20.674	4.7273	0.	726.9
1193	20.859	4.7273	0.	687.72
1194	21.044	4.7273	0.	648.85
1195	21.228	4.7273	0.	610.31
1196	21.413	4.7273	0.	572.13
1197	21.598	4.7273	0.	534.33
1198	21.783	4.7273	0.	496.97
1199	21.968	4.7273	0.	460.08
1200	22.152	4.7273	0.	423.75
1201	22.337	4.7273	0.	388.06
1202	22.522	4.7273	0.	353.14
1203	22.707	4.7273	0.	319.15
1204	22.891	4.7273	0.	286.33
1205	23.076	4.7273	0.	254.98
1206	23.261	4.7273	0.	225.56
1207	23.446	4.7273	0.	198.68
1208	23.63	4.7273	0.	175.32
1209	23.815	4.7273	0.	156.93
1210	2.7514	4.5455	0.	7366.7
1211	2.9362	4.5455	0.	6414.8
1212	3.121	4.5455	0.	5950.4
1213	3.3057	4.5455	0.	5631.6
1214	3.4905	4.5455	0.	5423.7
1215	3.6753	4.5455	0.	5282.7
1216	3.8601	4.5455	0.	5180.7
1217	4.0448	4.5455	0.	5100.4
1218	4.2296	4.5455	0.	5031.8
1219	4.4144	4.5455	0.	4969.3
1220	4.5991	4.5455	0.	4909.9
1221	4.7839	4.5455	0.	4852.1
1222	4.9687	4.5455	0.	4795.3
1223	5.1534	4.5455	0.	4739.
1224	5.3382	4.5455	0.	4683.2
1225	5.523	4.5455	0.	4627.9
1226	5.7078	4.5455	0.	4573.
1227	5.8925	4.5455	0.	4518.6
1228	6.0773	4.5455	0.	4464.5
1229	6.2621	4.5455	0.	4410.9
1230	6.4468	4.5455	0.	4357.6
1231	6.6316	4.5455	0.	4304.6
1232	6.8164	4.5455	0.	4251.9
1233	7.0011	4.5455	0.	4199.4
1234	7.1859	4.5455	0.	4147.2
1235	7.3707	4.5455	0.	4095.1
1236	7.5555	4.5455	0.	4043.1
1237	7.7402	4.5455	0.	3991.3
1238	7.925	4.5455	0.	3939.6
1239	8.1098	4.5455	0.	3888.1
1240	8.2945	4.5455	0.	3836.6
1241	8.4793	4.5455	0.	3785.2
1242	8.6641	4.5455	0.	3733.8
1243	8.8489	4.5455	0.	3682.6
1244	9.0336	4.5455	0.	3631.4
1245	9.2184	4.5455	0.	3580.4
1246	9.4032	4.5455	0.	3529.4
1247	9.5879	4.5455	0.	3478.5
1248	9.7727	4.5455	0.	3427.6
1249	9.9575	4.5455	0.	3376.9
1250	10.142	4.5455	0.	3326.3
1251	10.327	4.5455	0.	3275.8
1252	10.512	4.5455	0.	3225.4
1253	10.697	4.5455	0.	3175.2
1254	10.881	4.5455	0.	3125.
1255	11.066	4.5455	0.	3075.
1256	11.251	4.5455	0.	3025.1
1257	11.436	4.5455	0.	2975.4
1258	11.62	4.5455	0.	2925.8
1259	11.805	4.5455	0.	2876.3
1260	11.99	4.5455	0.	2827.
1261	12.175	4.5455	0.	2777.9
1262	12.359	4.5455	0.	2728.9
1263	12.544	4.5455	0.	2680.
1264	12.729	4.5455	0.	2631.4
1265	12.914	4.5455	0.	2582.9
1266	13.099	4.5455	0.	2534.6
1267	13.283	4.5455	0.	2486.4
1268	13.468	4.5455	0.	2438.4
1269	13.653	4.5455	0.	2390.6
1270	13.838	4.5455	0.	2343.
1271	14.022	4.5455	0.	2295.6
1272	14.207	4.5455	0.	2248.4
1273	14.392	4.5455	0.	2201.3
1274	14.577	4.5455	0.	2154.4
1275	14.761	4.5455	0.	2107.8
1276	14.946	4.5455	0.	2061.3
1277	15.131	4.5455	0.	2015.
1278	15.316	4.5455	0.	1968.9
1279	15.501	4.5455	0.	1923.1
1280	15.685	4.5455	0.	1877.4
1281	15.87	4.5455	0.	1831.9
1282	16.055	4.5455	0.	1786.6
1283	16.24	4.5455	0.	1741.6
1284	16.424	4.5455	0.	1696.7
1285	16.609	4.5455	0.	1652.1
1286	16.794	4.5455	0.	1607.6
1287	16.979	4.5455	0.	1563.4
1288	17.164	4.5455	0.	1519.4
1289	17.348	4.5455	0.	1475.6
1290	17.533	4.5455	0.	1432.1
1291	17.718	4.5455	0.	1388.7
1292	17.903	4.5455	0.	1345.6
1293	18.087	4.5455	0.	1302.7
1294	18.272	4.5455	0.	1260.1
1295	18.457	4.5455	0.	1217.7
1296	18.642	4.5455	0.	1175.5
1297	18.826	4.5455	0.	1133.5
1298	19.011	4.5455	0.	1091.8
1299	19.196	4.5455	0.	1050.4
1300	19.381	4.5455	0.	1009.2
1301	19.566	4.5455	0.	968.25
1302	19.75	4.5455	0.	927.57
1303	19.935	4.5455	0.	887.16
1304	20.12	4.5455	0.	847.03
1305	20.305	4.5455	0.	807.18
1306	20.489	4.5455	0.	767.63
1307	20.674	4.5455	0.	728.38
1308	20.859	4.5455	0.	689.46
1309	21.044	4.5455	0.	650.87
1310	21.228	4.5455	0.	612.65
1311	21.413	4.5455	0.	574.81
1312	21.598	4.5455	0.	537.4
1313	21.783	4.5455	0.	500.44
1314	21.968	4.5455	0.	464.01
1315	22.152	4.5455	0.	428.17
1316	22.337	4.5455	0.	393.
1317	22.522	4.5455	0.	358.64
1318	22.707	4.5455	0.	325.25
1319	22.891	4.5455	0.	293.03
1320	23.076	4.5455	0.	262.31
1321	23.261	4.5455	0.	233.5
1322	23.446	4.5455	0.	207.2
1323	23.63	4.5455	0.	184.33
1324	23.815	4.5455	0.	166.26
1325	2.7514	4.3636	0.	9595.9
1326	2.9362	4.3636	0.	7787.4
1327	3.121	4.3636	0.	6842.8
1328	3.3057	4.3636	0.	6269.1
1329	3.4905	4.3636	0.	5886.5
1330	3.6753	4.3636	0.	5625.5
1331	3.8601	4.3636	0.	5435.3
1332	4.0448	4.3636	0.	5289.
1333	4.2296	4.3636	0.	5170.5
1334	4.4144	4.3636	0.	5070.1
1335	4.5991	4.3636	0.	4982.
1336	4.7839	4.3636	0.	4902.5
1337	4.9687	4.3636	0.	4829.3
1338	5.1534	4.3636	0.	4760.8
1339	5.3382	4.3636	0.	4696.
1340	5.523	4.3636	0.	4634.1
1341	5.7078	4.3636	0.	4574.4
1342	5.8925	4.3636	0.	4516.6
1343	6.0773	4.3636	0.	4460.2
1344	6.2621	4.3636	0.	4405.
1345	6.4468	4.3636	0.	4350.8
1346	6.6316	4.3636	0.	4297.3
1347	6.8164	4.3636	0.	4244.3
1348	7.0011	4.3636	0.	4191.8
1349	7.1859	4.3636	0.	4139.7
1350	7.3707	4.3636	0.	4087.9
1351	7.5555	4.3636	0.	4036.3
1352	7.7402	4.3636	0.	3984.8
1353	7.925	4.3636	0.	3933.5
1354	8.1098	4.3636	0.	3882.3
1355	8.2945	4.3636	0.	3831.1
1356	8.4793	4.3636	0.	3780.1
1357	8.6641	4.3636	0.	3729.1
1358	8.8489	4.3636	0.	3678.2
1359	9.0336	4.3636	0.	3627.3
1360	9.2184	4.3636	0.	3576.5
1361	9.4032	4.3636	0.	3525.8
1362	9.5879	4.3636	0.	3475.1
1363	9.7727	4.3636	0.	3424.5
1364	9.9575	4.3636	0.	3374.
1365	10.142	4.3636	0.	3323.6
1366	10.327	4.3636	0.	3273.3
1367	10.512	4.3636	0.	3223.
1368	10.697	4.3636	0.	3172.9
1369	10.881	4.3636	0.	3122.9
1370	11.066	4.3636	0.	3073.
1371	11.251	4.3636	0.	3023.2
1372	11.436	4.3636	0.	2973.6
1373	11.62	4.3636	0.	2924.1
1374	11.805	4.3636	0.	2874.7
1375	11.99	4.3636	0.	2825.5
1376	12.175	4.3636	0.	2776.4
1377	12.359	4.3636	0.	2727.5
1378	12.544	4.3636	0.	2678.7
1379	12.729	4.3636	0.	2630.1
1380	12.914	4.3636	0.	2581.7
1381	13.099	4.3636	0.	2533.4
1382	13.283	4.3636	0.	2485.3
1383	13.468	4.3636	0.	2437.4
1384	13.653	4.3636	0.	2389.6
1385	13.838	4.3636	0.	2342.
1386	14.022	4.3636	0.	2294.6
1387	14.207	4.3636	0.	2247.4
1388	14.392	4.3636	0.	2200.4
1389	14.577	4.3636	0.	2153.6
1390	14.761	4.3636	0.	2106.9
1391	14.946	4.3636	0.	2060.5
1392	15.131	4.3636	0.	2014.2
1393	15.316	4.3636	0.	1968.1
1394	15.501	4.3636	0.	1922.3
1395	15.685	4.3636	0.	1876.6
1396	15.87	4.3636	0.	1831.2
1397	16.055	4.3636	0.	1785.9
1398	16.24	4.3636	0.	1740.9
1399	16.424	4.3636	0.	1696.1
1400	16.609	4.3636	0.	1651.4
1401	16.794	4.3636	0.	1607.
1402	16.979	4.3636	0.	1562.9
1403	17.164	4.3636	0.	1518.9
1404	17.348	4.3636	0.	1475.1
1405	17.533	4.3636	0.	1431.6
1406	17.718	4.3636	0.	1388.3
1407	17.903	4.3636	0.	1345.3
1408	18.087	4.3636	0.	1302.4
1409	18.272	4.3636	0.	1259.8
1410	18.457	4.3636	0.	1217.5
1411	18.642	4.3636	0.	1175.4
1412	18.826	4.3636	0.	1133.5
1413	19.011	4.3636	0.	1091.9
1414	19.196	4.3636	0.	1050.6
1415	19.381	4.3636	0.	1009.5
1416	19.566	4.3636	0.	968.66
1417	19.75	4.3636	0.	928.12
1418	19.935	4.3636	0.	887.86
1419	20.12	4.3636	0.	847.89
1420	20.305	4.3636	0.	808.23
1421	20.489	4.3636	0.	768.88
1422	20.674	4.3636	0.	729.85
1423	20.859	4.3636	0.	691.17
1424	21.044	4.3636	0.	652.85
1425	21.228	4.3636	0.	614.92
1426	21.413	4.3636	0.	577.39
1427	21.598	4.3636	0.	540.32
1428	21.783	4.3636	0.	503.73
1429	21.968	4.3636	0.	467.7
1430	22.152	4.3636	0.	432.27
1431	22.337	4.3636	0.	397.56
1432	22.522	4.3636	0.	363.67
1433	22.707	4.3636	0.	330.75
1434	22.891	4.3636	0.	299.03
1435	23.076	4.3636	0.	268.8
1436	23.261	4.3636	0.	240.46
1437	23.446	4.3636	0.	214.61
1438	23.63	4.3636	0.	192.14
1439	23.815	4.3636	0.	174.31
1440	2.7514	4.1818	0.	12899
1441	2.9362	4.1818	0.	9250.4
1442	3.121	4.1818	0.	7702.5
1443	3.3057	4.1818	0.	6868.7
1444	3.4905	4.1818	0.	6327.1
1445	3.6753	4.1818	0.	5952.8
1446	3.8601	4.1818	0.	5679.
1447	4.0448	4.1818	0.	5469.7
1448	4.2296	4.1818	0.	5303.1
1449	4.4144	4.1818	0.	5166.2
1450	4.5991	4.1818	0.	5050.3
1451	4.7839	4.1818	0.	4949.8
1452	4.9687	4.1818	0.	4860.9
1453	5.1534	4.1818	0.	4780.7
1454	5.3382	4.1818	0.	4707.3
1455	5.523	4.1818	0.	4639.1
1456	5.7078	4.1818	0.	4575.
1457	5.8925	4.1818	0.	4514.1
1458	6.0773	4.1818	0.	4455.6
1459	6.2621	4.1818	0.	4399.1
1460	6.4468	4.1818	0.	4344.
1461	6.6316	4.1818	0.	4290.1
1462	6.8164	4.1818	0.	4237.
1463	7.0011	4.1818	0.	4184.6
1464	7.1859	4.1818	0.	4132.7
1465	7.3707	4.1818	0.	4081.1
1466	7.5555	4.1818	0.	4029.8
1467	7.7402	4.1818	0.	3978.7
1468	7.925	4.1818	0.	3927.7
1469	8.1098	4.1818	0.	3876.9
1470	8.2945	4.1818	0.	3826.1
1471	8.4793	4.1818	0.	3775.4
1472	8.6641	4.1818	0.	3724.7
1473	8.8489	4.1818	0.	3674.1
1474	9.0336	4.1818	0.	3623.6
1475	9.2184	4.1818	0.	3573.
1476	9.4032	4.1818	0.	3522.5
1477	9.5879	4.1818	0.	3472.1
1478	9.7727	4.1818	0.	3421.7
1479	9.9575	4.1818	0.	3371.4
1480	10.142	4.1818	0.	3321.1
1481	10.327	4.1818	0.	3271.
1482	10.512	4.1818	0.	3220.9
1483	10.697	4.1818	0.	3170.9
1484	10.881	4.1818	0.	3121.
1485	11.066	4.1818	0.	3071.2
1486	11.251	4.1818	0.	3021.6
1487	11.436	4.1818	0.	2972.
1488	11.62	4.1818	0.	2922.6
1489	11.805	4.1818	0.	2873.3
1490	11.99	4.1818	0.	2824.1
1491	12.175	4.1818	0.	2775.1
1492	12.359	4.1818	0.	2726.3
1493	12.544	4.1818	0.	2677.6
1494	12.729	4.1818	0.	2629.
1495	12.914	4.1818	0.	2580.6
1496	13.099	4.1818	0.	2532.4
1497	13.283	4.1818	0.	2484.3
1498	13.468	4.1818	0.	2436.4
1499	13.653	4.1818	0.	2388.7
1500	13.838	4.1818	0.	2341.1
1501	14.022	4.1818	0.	2293.8
1502	14.207	4.1818	0.	2246.6
1503	14.392	4.1818	0.	2199.6
1504	14.577	4.1818	0.	2152.8
1505	14.761	4.1818	0.	2106.1
1506	14.946	4.1818	0.	2059.7
1507	15.131	4.1818	0.	2013.5
1508	15.316	4.1818	0.	1967.4
1509	15.501	4.1818	0.	1921.6
1510	15.685	4.1818	0.	1876.
1511	15.87	4.1818	0.	1830.5
1512	16.055	4.1818	0.	1785.3
1513	16.24	4.1818	0.	1740.3
1514	16.424	4.1818	0.	1695.5
1515	16.609	4.1818	0.	1650.9
1516	16.794	4.1818	0.	1606.5
1517	16.979	4.1818	0.	1562.4
1518	17.164	4.1818	0.	1518.4
1519	17.348	4.1818	0.	1474.7
1520	17.533	4.1818	0.	1431.3
1521	17.718	4.1818	0.	1388.
1522	17.903	4.1818	0.	1345.
1523	18.087	4.1818	0.	1302.2
1524	18.272	4.1818	0.	1259.7
1525	18.457	4.1818	0.	1217.4
1526	18.642	4.1818	0.	1175.3
1527	18.826	4.1818	0.	1133.6
1528	19.011	4.1818	0.	1092.
1529	19.196	4.1818	0.	1050.8
1530	19.381	4.1818	0.	1009.8
1531	19.566	4.1818	0.	969.09
1532	19.75	4.1818	0.	928.68
1533	19.935	4.1818	0.	888.56
1534	20.12	4.1818	0.	848.74
1535	20.305	4.1818	0.	809.25
1536	20.489	4.1818	0.	770.08
1537	20.674	4.1818	0.	731.26
1538	20.859	4.1818	0.	692.79
1539	21.044	4.1818	0.	654.71
1540	21.228	4.1818	0.	617.04
1541	21.413	4.1818	0.	579.79
1542	21.598	4.1818	0.	543.02
1543	21.783	4.1818	0.	506.75
1544	21.968	4.1818	0.	471.06
1545	22.152	4.1818	0.	435.99
1546	22.337	4.1818	0.	401.65
1547	22.522	4.1818	0.	368.14
1548	22.707	4.1818	0.	335.62
1549	22.891	4.1818	0.	304.29
1550	23.076	4.1818	0.	274.44
1551	23.261	4.1818	0.	246.47
1552	23.446	4.1818	0.	220.97
1553	23.63	4.1818	0.	198.81
1554	23.815	4.1818	0.	181.17
1555	2.7514	4.	0.	15510
1556	2.9362	4.	0.	10308
1557	3.121	4.	0.	8467.2
1558	3.3057	4.	0.	7422.
1559	3.4905	4.	0.	6736.4
1560	3.6753	4.	0.	6259.6
1561	3.8601	4.	0.	5908.
1562	4.0448	4.	0.	5639.3
1563	4.2296	4.	0.	5427.3
1564	4.4144	4.	0.	5255.6
1565	4.5991	4.	0.	5113.4
1566	4.7839	4.	0.	4993.2
1567	4.9687	4.	0.	4889.5
1568	5.1534	4.	0.	4798.4
1569	5.3382	4.	0.	4717.
1570	5.523	4.	0.	4643.2
1571	5.7078	4.	0.	4575.
1572	5.8925	4.	0.	4511.3
1573	6.0773	4.	0.	4451.
1574	6.2621	4.	0.	4393.3
1575	6.4468	4.	0.	4337.6
1576	6.6316	4.	0.	4283.3
1577	6.8164	4.	0.	4230.2
1578	7.0011	4.	0.	4177.9
1579	7.1859	4.	0.	4126.1
1580	7.3707	4.	0.	4074.9
1581	7.5555	4.	0.	4023.9
1582	7.7402	4.	0.	3973.2
1583	7.925	4.	0.	3922.6
1584	8.1098	4.	0.	3872.1
1585	8.2945	4.	0.	3821.6
1586	8.4793	4.	0.	3771.2
1587	8.6641	4.	0.	3720.9
1588	8.8489	4.	0.	3670.5
1589	9.0336	4.	0.	3620.2
1590	9.2184	4.	0.	3569.9
1591	9.4032	4.	0.	3519.7
1592	9.5879	4.	0.	3469.4
1593	9.7727	4.	0.	3419.2
1594	9.9575	4.	0.	3369.1
1595	10.142	4.	0.	3319.
1596	10.327	4.	0.	3269.
1597	10.512	4.	0.	3219.
1598	10.697	4.	0.	3169.2
1599	10.881	4.	0.	3119.4
1600	11.066	4.	0.	3069.7
1601	11.251	4.	0.	3020.1
1602	11.436	4.	0.	2970.6
1603	11.62	4.	0.	2921.3
1604	11.805	4.	0.	2872.1
1605	11.99	4.	0.	2823.
1606	12.175	4.	0.	2774.
1607	12.359	4.	0.	2725.2
1608	12.544	4.	0.	2676.6
1609	12.729	4.	0.	2628.
1610	12.914	4.	0.	2579.7
1611	13.099	4.	0.	2531.5
1612	13.283	4.	0.	2483.5
1613	13.468	4.	0.	2435.6
1614	13.653	4.	0.	2387.9
1615	13.838	4.	0.	2340.4
1616	14.022	4.	0.	2293.
1617	14.207	4.	0.	2245.9
1618	14.392	4.	0.	2198.9
1619	14.577	4.	0.	2152.1
1620	14.761	4.	0.	2105.5
1621	14.946	4.	0.	2059.1
1622	15.131	4.	0.	2012.9
1623	15.316	4.	0.	1966.9
1624	15.501	4.	0.	1921.
1625	15.685	4.	0.	1875.4
1626	15.87	4.	0.	1830.
1627	16.055	4.	0.	1784.8
1628	16.24	4.	0.	1739.8
1629	16.424	4.	0.	1695.
1630	16.609	4.	0.	1650.5
1631	16.794	4.	0.	1606.1
1632	16.979	4.	0.	1562.
1633	17.164	4.	0.	1518.1
1634	17.348	4.	0.	1474.4
1635	17.533	4.	0.	1431.
1636	17.718	4.	0.	1387.7
1637	17.903	4.	0.	1344.8
1638	18.087	4.	0.	1302.
1639	18.272	4.	0.	1259.6
1640	18.457	4.	0.	1217.3
1641	18.642	4.	0.	1175.3
1642	18.826	4.	0.	1133.6
1643	19.011	4.	0.	1092.2
1644	19.196	4.	0.	1051.
1645	19.381	4.	0.	1010.1
1646	19.566	4.	0.	969.52
1647	19.75	4.	0.	929.22
1648	19.935	4.	0.	889.22
1649	20.12	4.	0.	849.54
1650	20.305	4.	0.	810.19
1651	20.489	4.	0.	771.19
1652	20.674	4.	0.	732.54
1653	20.859	4.	0.	694.27
1654	21.044	4.	0.	656.4
1655	21.228	4.	0.	618.95
1656	21.413	4.	0.	581.95
1657	21.598	4.	0.	545.43
1658	21.783	4.	0.	509.44
1659	21.968	4.	0.	474.03
1660	22.152	4.	0.	439.26
1661	22.337	4.	0.	405.22
1662	22.522	4.	0.	372.02
1663	22.707	4.	0.	339.81
1664	22.891	4.	0.	308.79
1665	23.076	4.	0.	279.24
1666	23.261	4.	0.	251.56
1667	23.446	4.	0.	226.34
1668	23.63	4.	0.	204.42
1669	23.815	4.	0.	186.93
1670	2.7514	3.8182	0.	15071
1671	2.9362	3.8182	0.	11170
1672	3.121	3.8182	0.	9106.9
1673	3.3057	3.8182	0.	7916.4
1674	3.4905	3.8182	0.	7111.1
1675	3.6753	3.8182	0.	6541.7
1676	3.8601	3.8182	0.	6118.6
1677	4.0448	3.8182	0.	5794.8
1678	4.2296	3.8182	0.	5540.6
1679	4.4144	3.8182	0.	5336.7
1680	4.5991	3.8182	0.	5170.3
1681	4.7839	3.8182	0.	5031.8
1682	4.9687	3.8182	0.	4914.7
1683	5.1534	3.8182	0.	4813.8
1684	5.3382	3.8182	0.	4725.3
1685	5.523	3.8182	0.	4646.3
1686	5.7078	3.8182	0.	4574.6
1687	5.8925	3.8182	0.	4508.5
1688	6.0773	3.8182	0.	4446.6
1689	6.2621	3.8182	0.	4387.9
1690	6.4468	3.8182	0.	4331.7
1691	6.6316	3.8182	0.	4277.2
1692	6.8164	3.8182	0.	4224.
1693	7.0011	3.8182	0.	4171.9
1694	7.1859	3.8182	0.	4120.4
1695	7.3707	3.8182	0.	4069.4
1696	7.5555	3.8182	0.	4018.7
1697	7.7402	3.8182	0.	3968.3
1698	7.925	3.8182	0.	3918.
1699	8.1098	3.8182	0.	3867.9
1700	8.2945	3.8182	0.	3817.7
1701	8.4793	3.8182	0.	3767.6
1702	8.6641	3.8182	0.	3717.5
1703	8.8489	3.8182	0.	3667.4
1704	9.0336	3.8182	0.	3617.4
1705	9.2184	3.8182	0.	3567.3
1706	9.4032	3.8182	0.	3517.2
1707	9.5879	3.8182	0.	3467.2
1708	9.7727	3.8182	0.	3417.1
1709	9.9575	3.8182	0.	3367.1
1710	10.142	3.8182	0.	3317.2
1711	10.327	3.8182	0.	3267.3
1712	10.512	3.8182	0.	3217.4
1713	10.697	3.8182	0.	3167.7
1714	10.881	3.8182	0.	3118.
1715	11.066	3.8182	0.	3068.4
1716	11.251	3.8182	0.	3018.9
1717	11.436	3.8182	0.	2969.5
1718	11.62	3.8182	0.	2920.2
1719	11.805	3.8182	0.	2871.
1720	11.99	3.8182	0.	2822.
1721	12.175	3.8182	0.	2773.1
1722	12.359	3.8182	0.	2724.3
1723	12.544	3.8182	0.	2675.7
1724	12.729	3.8182	0.	2627.2
1725	12.914	3.8182	0.	2578.9
1726	13.099	3.8182	0.	2530.7
1727	13.283	3.8182	0.	2482.7
1728	13.468	3.8182	0.	2434.9
1729	13.653	3.8182	0.	2387.2
1730	13.838	3.8182	0.	2339.7
1731	14.022	3.8182	0.	2292.4
1732	14.207	3.8182	0.	2245.3
1733	14.392	3.8182	0.	2198.3
1734	14.577	3.8182	0.	2151.5
1735	14.761	3.8182	0.	2105.
1736	14.946	3.8182	0.	2058.6
1737	15.131	3.8182	0.	2012.4
1738	15.316	3.8182	0.	1966.4
1739	15.501	3.8182	0.	1920.6
1740	15.685	3.8182	0.	1875.
1741	15.87	3.8182	0.	1829.6
1742	16.055	3.8182	0.	1784.4
1743	16.24	3.8182	0.	1739.4
1744	16.424	3.8182	0.	1694.6
1745	16.609	3.8182	0.	1650.1
1746	16.794	3.8182	0.	1605.8
1747	16.979	3.8182	0.	1561.7
1748	17.164	3.8182	0.	1517.8
1749	17.348	3.8182	0.	1474.1
1750	17.533	3.8182	0.	1430.7
1751	17.718	3.8182	0.	1387.5
1752	17.903	3.8182	0.	1344.6
1753	18.087	3.8182	0.	1301.9
1754	18.272	3.8182	0.	1259.5
1755	18.457	3.8182	0.	1217.3
1756	18.642	3.8182	0.	1175.4
1757	18.826	3.8182	0.	1133.7
1758	19.011	3.8182	0.	1092.3
1759	19.196	3.8182	0.	1051.2
1760	19.381	3.8182	0.	1010.4
1761	19.566	3.8182	0.	969.91
1762	19.75	3.8182	0.	929.71
1763	19.935	3.8182	0.	889.82
1764	20.12	3.8182	0.	850.26
1765	20.305	3.8182	0.	811.04
1766	20.489	3.8182	0.	772.17
1767	20.674	3.8182	0.	733.68
1768	20.859	3.8182	0.	695.57
1769	21.044	3.8182	0.	657.88
1770	21.228	3.8182	0.	620.61
1771	21.413	3.8182	0.	583.81
1772	21.598	3.8182	0.	547.51
1773	21.783	3.8182	0.	511.74
1774	21.968	3.8182	0.	476.56
1775	22.152	3.8182	0.	442.03
1776	22.337	3.8182	0.	408.23
1777	22.522	3.8182	0.	375.28
1778	22.707	3.8182	0.	343.31
1779	22.891	3.8182	0.	312.52
1780	23.076	3.8182	0.	283.21
1781	23.261	3.8182	0.	255.76
1782	23.446	3.8182	0.	230.76
1783	23.63	3.8182	0.	209.02
1784	23.815	3.8182	0.	191.65
1785	2.7514	3.6364	0.	14203
1786	2.9362	3.6364	0.	11470
1787	3.121	3.6364	0.	9595.5
1788	3.3057	3.6364	0.	8324.6
1789	3.4905	3.6364	0.	7437.4
1790	3.6753	3.6364	0.	6790.5
1791	3.8601	3.6364	0.	6304.9
1792	4.0448	3.6364	0.	5931.8
1793	4.2296	3.6364	0.	5639.7
1794	4.4144	3.6364	0.	5407.3
1795	4.5991	3.6364	0.	5219.3
1796	4.7839	3.6364	0.	5064.9
1797	4.9687	3.6364	0.	4936.
1798	5.1534	3.6364	0.	4826.6
1799	5.3382	3.6364	0.	4732.
1800	5.523	3.6364	0.	4648.7
1801	5.7078	3.6364	0.	4574.1
1802	5.8925	3.6364	0.	4505.9
1803	6.0773	3.6364	0.	4442.7
1804	6.2621	3.6364	0.	4383.3
1805	6.4468	3.6364	0.	4326.6
1806	6.6316	3.6364	0.	4272.
1807	6.8164	3.6364	0.	4218.8
1808	7.0011	3.6364	0.	4166.8
1809	7.1859	3.6364	0.	4115.5
1810	7.3707	3.6364	0.	4064.8
1811	7.5555	3.6364	0.	4014.4
1812	7.7402	3.6364	0.	3964.3
1813	7.925	3.6364	0.	3914.3
1814	8.1098	3.6364	0.	3864.4
1815	8.2945	3.6364	0.	3814.5
1816	8.4793	3.6364	0.	3764.6
1817	8.6641	3.6364	0.	3714.8
1818	8.8489	3.6364	0.	3664.9
1819	9.0336	3.6364	0.	3615.
1820	9.2184	3.6364	0.	3565.1
1821	9.4032	3.6364	0.	3515.2
1822	9.5879	3.6364	0.	3465.3
1823	9.7727	3.6364	0.	3415.4
1824	9.9575	3.6364	0.	3365.5
1825	10.142	3.6364	0.	3315.7
1826	10.327	3.6364	0.	3265.9
1827	10.512	3.6364	0.	3216.1
1828	10.697	3.6364	0.	3166.5
1829	10.881	3.6364	0.	3116.9
1830	11.066	3.6364	0.	3067.3
1831	11.251	3.6364	0.	3017.9
1832	11.436	3.6364	0.	2968.6
1833	11.62	3.6364	0.	2919.3
1834	11.805	3.6364	0.	2870.2
1835	11.99	3.6364	0.	2821.2
1836	12.175	3.6364	0.	2772.4
1837	12.359	3.6364	0.	2723.6
1838	12.544	3.6364	0.	2675.
1839	12.729	3.6364	0.	2626.6
1840	12.914	3.6364	0.	2578.3
1841	13.099	3.6364	0.	2530.1
1842	13.283	3.6364	0.	2482.2
1843	13.468	3.6364	0.	2434.4
1844	13.653	3.6364	0.	2386.7
1845	13.838	3.6364	0.	2339.2
1846	14.022	3.6364	0.	2291.9
1847	14.207	3.6364	0.	2244.8
1848	14.392	3.6364	0.	2197.9
1849	14.577	3.6364	0.	2151.1
1850	14.761	3.6364	0.	2104.5
1851	14.946	3.6364	0.	2058.1
1852	15.131	3.6364	0.	2012.
1853	15.316	3.6364	0.	1966.
1854	15.501	3.6364	0.	1920.2
1855	15.685	3.6364	0.	1874.6
1856	15.87	3.6364	0.	1829.2
1857	16.055	3.6364	0.	1784.
1858	16.24	3.6364	0.	1739.1
1859	16.424	3.6364	0.	1694.3
1860	16.609	3.6364	0.	1649.8
1861	16.794	3.6364	0.	1605.5
1862	16.979	3.6364	0.	1561.4
1863	17.164	3.6364	0.	1517.6
1864	17.348	3.6364	0.	1473.9
1865	17.533	3.6364	0.	1430.5
1866	17.718	3.6364	0.	1387.4
1867	17.903	3.6364	0.	1344.5
1868	18.087	3.6364	0.	1301.8
1869	18.272	3.6364	0.	1259.4
1870	18.457	3.6364	0.	1217.3
1871	18.642	3.6364	0.	1175.4
1872	18.826	3.6364	0.	1133.8
1873	19.011	3.6364	0.	1092.5
1874	19.196	3.6364	0.	1051.4
1875	19.381	3.6364	0.	1010.7
1876	19.566	3.6364	0.	970.25
1877	19.75	3.6364	0.	930.13
1878	19.935	3.6364	0.	890.33
1879	20.12	3.6364	0.	850.86
1880	20.305	3.6364	0.	811.75
1881	20.489	3.6364	0.	772.99
1882	20.674	3.6364	0.	734.62
1883	20.859	3.6364	0.	696.65
1884	21.044	3.6364	0.	659.1
1885	21.228	3.6364	0.	621.98
1886	21.413	3.6364	0.	585.34
1887	21.598	3.6364	0.	549.21
1888	21.783	3.6364	0.	513.62
1889	21.968	3.6364	0.	478.62
1890	22.152	3.6364	0.	444.27
1891	22.337	3.6364	0.	410.66
1892	22.522	3.6364	0.	377.9
1893	22.707	3.6364	0.	346.11
1894	22.891	3.6364	0.	315.51
1895	23.076	3.6364	0.	286.37
1896	23.261	3.6364	0.	259.09
1897	23.446	3.6364	0.	234.25
1898	23.63	3.6364	0.	212.66
1899	23.815	3.6364	0.	195.37
1900	2.7514	3.4545	0.	13171
1901	2.9362	3.4545	0.	11435
1902	3.121	3.4545	0.	9852.4
1903	3.3057	3.4545	0.	8621.3
1904	3.4905	3.4545	0.	7693.2
1905	3.6753	3.4545	0.	6992.2
1906	3.8601	3.4545	0.	6457.2
1907	4.0448	3.4545	0.	6043.8
1908	4.2296	3.4545	0.	5720.4
1909	4.4144	3.4545	0.	5464.2
1910	4.5991	3.4545	0.	5258.6
1911	4.7839	3.4545	0.	5091.2
1912	4.9687	3.4545	0.	4952.9
1913	5.1534	3.4545	0.	4836.6
1914	5.3382	3.4545	0.	4737.2
1915	5.523	3.4545	0.	4650.5
1916	5.7078	3.4545	0.	4573.5
1917	5.8925	3.4545	0.	4503.8
1918	6.0773	3.4545	0.	4439.6
1919	6.2621	3.4545	0.	4379.6
1920	6.4468	3.4545	0.	4322.6
1921	6.6316	3.4545	0.	4267.8
1922	6.8164	3.4545	0.	4214.7
1923	7.0011	3.4545	0.	4162.8
1924	7.1859	3.4545	0.	4111.7
1925	7.3707	3.4545	0.	4061.2
1926	7.5555	3.4545	0.	4011.
1927	7.7402	3.4545	0.	3961.1
1928	7.925	3.4545	0.	3911.4
1929	8.1098	3.4545	0.	3861.7
1930	8.2945	3.4545	0.	3812.
1931	8.4793	3.4545	0.	3762.4
1932	8.6641	3.4545	0.	3712.7
1933	8.8489	3.4545	0.	3663.
1934	9.0336	3.4545	0.	3613.2
1935	9.2184	3.4545	0.	3563.5
1936	9.4032	3.4545	0.	3513.7
1937	9.5879	3.4545	0.	3463.9
1938	9.7727	3.4545	0.	3414.1
1939	9.9575	3.4545	0.	3364.3
1940	10.142	3.4545	0.	3314.6
1941	10.327	3.4545	0.	3264.8
1942	10.512	3.4545	0.	3215.2
1943	10.697	3.4545	0.	3165.6
1944	10.881	3.4545	0.	3116.
1945	11.066	3.4545	0.	3066.5
1946	11.251	3.4545	0.	3017.1
1947	11.436	3.4545	0.	2967.8
1948	11.62	3.4545	0.	2918.7
1949	11.805	3.4545	0.	2869.6
1950	11.99	3.4545	0.	2820.6
1951	12.175	3.4545	0.	2771.8
1952	12.359	3.4545	0.	2723.1
1953	12.544	3.4545	0.	2674.5
1954	12.729	3.4545	0.	2626.1
1955	12.914	3.4545	0.	2577.8
1956	13.099	3.4545	0.	2529.7
1957	13.283	3.4545	0.	2481.7
1958	13.468	3.4545	0.	2433.9
1959	13.653	3.4545	0.	2386.3
1960	13.838	3.4545	0.	2338.8
1961	14.022	3.4545	0.	2291.6
1962	14.207	3.4545	0.	2244.4
1963	14.392	3.4545	0.	2197.5
1964	14.577	3.4545	0.	2150.8
1965	14.761	3.4545	0.	2104.2
1966	14.946	3.4545	0.	2057.8
1967	15.131	3.4545	0.	2011.7
1968	15.316	3.4545	0.	1965.7
1969	15.501	3.4545	0.	1919.9
1970	15.685	3.4545	0.	1874.3
1971	15.87	3.4545	0.	1829.
1972	16.055	3.4545	0.	1783.8
1973	16.24	3.4545	0.	1738.8
1974	16.424	3.4545	0.	1694.1
1975	16.609	3.4545	0.	1649.6
1976	16.794	3.4545	0.	1605.3
1977	16.979	3.4545	0.	1561.2
1978	17.164	3.4545	0.	1517.4
1979	17.348	3.4545	0.	1473.8
1980	17.533	3.4545	0.	1430.4
1981	17.718	3.4545	0.	1387.3
1982	17.903	3.4545	0.	1344.4
1983	18.087	3.4545	0.	1301.8
1984	18.272	3.4545	0.	1259.4
1985	18.457	3.4545	0.	1217.3
1986	18.642	3.4545	0.	1175.4
1987	18.826	3.4545	0.	1133.9
1988	19.011	3.4545	0.	1092.6
1989	19.196	3.4545	0.	1051.6
1990	19.381	3.4545	0.	1010.9
1991	19.566	3.4545	0.	970.52
1992	19.75	3.4545	0.	930.46
1993	19.935	3.4545	0.	890.73
1994	20.12	3.4545	0.	851.33
1995	20.305	3.4545	0.	812.3
1996	20.489	3.4545	0.	773.63
1997	20.674	3.4545	0.	735.35
1998	20.859	3.4545	0.	697.48
1999	21.044	3.4545	0.	660.03
2000	21.228	3.4545	0.	623.04
2001	21.413	3.4545	0.	586.52
2002	21.598	3.4545	0.	550.51
2003	21.783	3.4545	0.	515.05
2004	21.968	3.4545	0.	480.18
2005	22.152	3.4545	0.	445.97
2006	22.337	3.4545	0.	412.5
2007	22.522	3.4545	0.	379.86
2008	22.707	3.4545	0.	348.21
2009	22.891	3.4545	0.	317.74
2010	23.076	3.4545	0.	288.72
2011	23.261	3.4545	0.	261.57
2012	23.446	3.4545	0.	236.85
2013	23.63	3.4545	0.	215.36
2014	23.815	3.4545	0.	198.14
2015	2.7514	3.2727	0.	12561
2016	2.9362	3.2727	0.	11285
2017	3.121	3.2727	0.	9956.7
2018	3.3057	3.2727	0.	8798.9
2019	3.4905	3.2727	0.	7864.9
2020	3.6753	3.2727	0.	7133.5
2021	3.8601	3.2727	0.	6565.5
2022	4.0448	3.2727	0.	6123.7
2023	4.2296	3.2727	0.	5777.8
2024	4.4144	3.2727	0.	5504.6
2025	4.5991	3.2727	0.	5286.3
2026	4.7839	3.2727	0.	5109.6
2027	4.9687	3.2727	0.	4964.6
2028	5.1534	3.2727	0.	4843.5
2029	5.3382	3.2727	0.	4740.7
2030	5.523	3.2727	0.	4651.6
2031	5.7078	3.2727	0.	4573.
2032	5.8925	3.2727	0.	4502.3
2033	6.0773	3.2727	0.	4437.4
2034	6.2621	3.2727	0.	4377.
2035	6.4468	3.2727	0.	4319.8
2036	6.6316	3.2727	0.	4265.
2037	6.8164	3.2727	0.	4211.9
2038	7.0011	3.2727	0.	4160.1
2039	7.1859	3.2727	0.	4109.1
2040	7.3707	3.2727	0.	4058.7
2041	7.5555	3.2727	0.	4008.7
2042	7.7402	3.2727	0.	3959.
2043	7.925	3.2727	0.	3909.4
2044	8.1098	3.2727	0.	3859.9
2045	8.2945	3.2727	0.	3810.3
2046	8.4793	3.2727	0.	3760.8
2047	8.6641	3.2727	0.	3711.2
2048	8.8489	3.2727	0.	3661.6
2049	9.0336	3.2727	0.	3612.
2050	9.2184	3.2727	0.	3562.3
2051	9.4032	3.2727	0.	3512.6
2052	9.5879	3.2727	0.	3462.9
2053	9.7727	3.2727	0.	3413.2
2054	9.9575	3.2727	0.	3363.5
2055	10.142	3.2727	0.	3313.8
2056	10.327	3.2727	0.	3264.1
2057	10.512	3.2727	0.	3214.5
2058	10.697	3.2727	0.	3164.9
2059	10.881	3.2727	0.	3115.4
2060	11.066	3.2727	0.	3066.
2061	11.251	3.2727	0.	3016.6
2062	11.436	3.2727	0.	2967.4
2063	11.62	3.2727	0.	2918.2
2064	11.805	3.2727	0.	2869.2
2065	11.99	3.2727	0.	2820.2
2066	12.175	3.2727	0.	2771.4
2067	12.359	3.2727	0.	2722.7
2068	12.544	3.2727	0.	2674.2
2069	12.729	3.2727	0.	2625.8
2070	12.914	3.2727	0.	2577.5
2071	13.099	3.2727	0.	2529.4
2072	13.283	3.2727	0.	2481.5
2073	13.468	3.2727	0.	2433.7
2074	13.653	3.2727	0.	2386.
2075	13.838	3.2727	0.	2338.6
2076	14.022	3.2727	0.	2291.3
2077	14.207	3.2727	0.	2244.2
2078	14.392	3.2727	0.	2197.3
2079	14.577	3.2727	0.	2150.5
2080	14.761	3.2727	0.	2104.
2081	14.946	3.2727	0.	2057.6
2082	15.131	3.2727	0.	2011.5
2083	15.316	3.2727	0.	1965.5
2084	15.501	3.2727	0.	1919.7
2085	15.685	3.2727	0.	1874.1
2086	15.87	3.2727	0.	1828.8
2087	16.055	3.2727	0.	1783.6
2088	16.24	3.2727	0.	1738.7
2089	16.424	3.2727	0.	1694.
2090	16.609	3.2727	0.	1649.5
2091	16.794	3.2727	0.	1605.2
2092	16.979	3.2727	0.	1561.1
2093	17.164	3.2727	0.	1517.3
2094	17.348	3.2727	0.	1473.7
2095	17.533	3.2727	0.	1430.3
2096	17.718	3.2727	0.	1387.2
2097	17.903	3.2727	0.	1344.3
2098	18.087	3.2727	0.	1301.7
2099	18.272	3.2727	0.	1259.4
2100	18.457	3.2727	0.	1217.3
2101	18.642	3.2727	0.	1175.5
2102	18.826	3.2727	0.	1133.9
2103	19.011	3.2727	0.	1092.7
2104	19.196	3.2727	0.	1051.7
2105	19.381	3.2727	0.	1011.1
2106	19.566	3.2727	0.	970.71
2107	19.75	3.2727	0.	930.69
2108	19.935	3.2727	0.	891.
2109	20.12	3.2727	0.	851.66
2110	20.305	3.2727	0.	812.68
2111	20.489	3.2727	0.	774.07
2112	20.674	3.2727	0.	735.85
2113	20.859	3.2727	0.	698.05
2114	21.044	3.2727	0.	660.67
2115	21.228	3.2727	0.	623.75
2116	21.413	3.2727	0.	587.31
2117	21.598	3.2727	0.	551.38
2118	21.783	3.2727	0.	516.01
2119	21.968	3.2727	0.	481.23
2120	22.152	3.2727	0.	447.11
2121	22.337	3.2727	0.	413.72
2122	22.522	3.2727	0.	381.18
2123	22.707	3.2727	0.	349.61
2124	22.891	3.2727	0.	319.22
2125	23.076	3.2727	0.	290.29
2126	23.261	3.2727	0.	263.22
2127	23.446	3.2727	0.	238.57
2128	23.63	3.2727	0.	217.15
2129	23.815	3.2727	0.	199.97
2130	2.7514	3.0909	0.	12270
2131	2.9362	3.0909	0.	11188
2132	3.121	3.0909	0.	9987.1
2133	3.3057	3.0909	0.	8878.8
2134	3.4905	3.0909	0.	7949.7
2135	3.6753	3.0909	0.	7205.8
2136	3.8601	3.0909	0.	6621.7
2137	4.0448	3.0909	0.	6165.3
2138	4.2296	3.0909	0.	5807.7
2139	4.4144	3.0909	0.	5525.5
2140	4.5991	3.0909	0.	5300.6
2141	4.7839	3.0909	0.	5119.1
2142	4.9687	3.0909	0.	4970.6
2143	5.1534	3.0909	0.	4847.
2144	5.3382	3.0909	0.	4742.4
2145	5.523	3.0909	0.	4652.2
2146	5.7078	3.0909	0.	4572.8
2147	5.8925	3.0909	0.	4501.5
2148	6.0773	3.0909	0.	4436.3
2149	6.2621	3.0909	0.	4375.6
2150	6.4468	3.0909	0.	4318.4
2151	6.6316	3.0909	0.	4263.5
2152	6.8164	3.0909	0.	4210.5
2153	7.0011	3.0909	0.	4158.7
2154	7.1859	3.0909	0.	4107.8
2155	7.3707	3.0909	0.	4057.5
2156	7.5555	3.0909	0.	4007.6
2157	7.7402	3.0909	0.	3957.9
2158	7.925	3.0909	0.	3908.4
2159	8.1098	3.0909	0.	3858.9
2160	8.2945	3.0909	0.	3809.5
2161	8.4793	3.0909	0.	3760.
2162	8.6641	3.0909	0.	3710.5
2163	8.8489	3.0909	0.	3661.
2164	9.0336	3.0909	0.	3611.4
2165	9.2184	3.0909	0.	3561.8
2166	9.4032	3.0909	0.	3512.1
2167	9.5879	3.0909	0.	3462.5
2168	9.7727	3.0909	0.	3412.8
2169	9.9575	3.0909	0.	3363.1
2170	10.142	3.0909	0.	3313.4
2171	10.327	3.0909	0.	3263.8
2172	10.512	3.0909	0.	3214.2
2173	10.697	3.0909	0.	3164.6
2174	10.881	3.0909	0.	3115.1
2175	11.066	3.0909	0.	3065.7
2176	11.251	3.0909	0.	3016.4
2177	11.436	3.0909	0.	2967.1
2178	11.62	3.0909	0.	2918.
2179	11.805	3.0909	0.	2868.9
2180	11.99	3.0909	0.	2820.
2181	12.175	3.0909	0.	2771.2
2182	12.359	3.0909	0.	2722.5
2183	12.544	3.0909	0.	2674.
2184	12.729	3.0909	0.	2625.6
2185	12.914	3.0909	0.	2577.4
2186	13.099	3.0909	0.	2529.3
2187	13.283	3.0909	0.	2481.3
2188	13.468	3.0909	0.	2433.5
2189	13.653	3.0909	0.	2385.9
2190	13.838	3.0909	0.	2338.5
2191	14.022	3.0909	0.	2291.2
2192	14.207	3.0909	0.	2244.1
2193	14.392	3.0909	0.	2197.2
2194	14.577	3.0909	0.	2150.4
2195	14.761	3.0909	0.	2103.9
2196	14.946	3.0909	0.	2057.5
2197	15.131	3.0909	0.	2011.4
2198	15.316	3.0909	0.	1965.4
2199	15.501	3.0909	0.	1919.6
2200	15.685	3.0909	0.	1874.1
2201	15.87	3.0909	0.	1828.7
2202	16.055	3.0909	0.	1783.5
2203	16.24	3.0909	0.	1738.6
2204	16.424	3.0909	0.	1693.9
2205	16.609	3.0909	0.	1649.4
2206	16.794	3.0909	0.	1605.1
2207	16.979	3.0909	0.	1561.
2208	17.164	3.0909	0.	1517.2
2209	17.348	3.0909	0.	1473.6
2210	17.533	3.0909	0.	1430.3
2211	17.718	3.0909	0.	1387.2
2212	17.903	3.0909	0.	1344.3
2213	18.087	3.0909	0.	1301.7
2214	18.272	3.0909	0.	1259.4
2215	18.457	3.0909	0.	1217.3
2216	18.642	3.0909	0.	1175.5
2217	18.826	3.0909	0.	1134.
2218	19.011	3.0909	0.	1092.7
2219	19.196	3.0909	0.	1051.8
2220	19.381	3.0909	0.	1011.1
2221	19.566	3.0909	0.	970.81
2222	19.75	3.0909	0.	930.81
2223	19.935	3.0909	0.	891.14
2224	20.12	3.0909	0.	851.82
2225	20.305	3.0909	0.	812.87
2226	20.489	3.0909	0.	774.29
2227	20.674	3.0909	0.	736.1
2228	20.859	3.0909	0.	698.33
2229	21.044	3.0909	0.	660.99
2230	21.228	3.0909	0.	624.11
2231	21.413	3.0909	0.	587.71
2232	21.598	3.0909	0.	551.82
2233	21.783	3.0909	0.	516.49
2234	21.968	3.0909	0.	481.76
2235	22.152	3.0909	0.	447.68
2236	22.337	3.0909	0.	414.34
2237	22.522	3.0909	0.	381.83
2238	22.707	3.0909	0.	350.31
2239	22.891	3.0909	0.	319.96
2240	23.076	3.0909	0.	291.07
2241	23.261	3.0909	0.	264.04
2242	23.446	3.0909	0.	239.43
2243	23.63	3.0909	0.	218.05
2244	23.815	3.0909	0.	200.88
2245	2.7514	2.9091	0.	12270
2246	2.9362	2.9091	0.	11188
2247	3.121	2.9091	0.	9987.1
2248	3.3057	2.9091	0.	8878.8
2249	3.4905	2.9091	0.	7949.7
2250	3.6753	2.9091	0.	7205.8
2251	3.8601	2.9091	0.	6621.7
2252	4.0448	2.9091	0.	6165.3
2253	4.2296	2.9091	0.	5807.7
2254	4.4144	2.9091	0.	5525.5
2255	4.5991	2.9091	0.	5300.6
2256	4.7839	2.9091	0.	5119.1
2257	4.9687	2.9091	0.	4970.6
2258	5.1534	2.9091	0.	4847.
2259	5.3382	2.9091	0.	4742.4
2260	5.523	2.9091	0.	4652.2
2261	5.7078	2.9091	0.	4572.8
2262	5.8925	2.9091	0.	4501.5
2263	6.0773	2.9091	0.	4436.3
2264	6.2621	2.9091	0.	4375.6
2265	6.4468	2.9091	0.	4318.4
2266	6.6316	2.9091	0.	4263.5
2267	6.8164	2.9091	0.	4210.5
2268	7.0011	2.9091	0.	4158.7
2269	7.1859	2.9091	0.	4107.8
2270	7.3707	2.9091	0.	4057.5
2271	7.5555	2.9091	0.	4007.6
2272	7.7402	2.9091	0.	3957.9
2273	7.925	2.9091	0.	3908.4
2274	8.1098	2.9091	0.	3858.9
2275	8.2945	2.9091	0.	3809.5
2276	8.4793	2.9091	0.	3760.
2277	8.6641	2.9091	0.	3710.5
2278	8.8489	2.9091	0.	3661.
2279	9.0336	2.9091	0.	3611.4
2280	9.2184	2.9091	0.	3561.8
2281	9.4032	2.9091	0.	3512.1
2282	9.5879	2.9091	0.	3462.5
2283	9.7727	2.9091	0.	3412.8
2284	9.9575	2.9091	0.	3363.1
2285	10.142	2.9091	0.	3313.4
2286	10.327	2.9091	0.	3263.8
2287	10.512	2.9091	0.	3214.2
2288	10.697	2.9091	0.	3164.6
2289	10.881	2.9091	0.	3115.1
2290	11.066	2.9091	0.	3065.7
2291	11.251	2.9091	0.	3016.4
2292	11.436	2.9091	0.	2967.1
2293	11.62	2.9091	0.	2918.
2294	11.805	2.9091	0.	2868.9
2295	11.99	2.9091	0.	2820.
2296	12.175	2.9091	0.	2771.2
2297	12.359	2.9091	0.	2722.5
2298	12.544	2.9091	0.	2674.
2299	12.729	2.9091	0.	2625.6
2300	12.914	2.9091	0.	2577.4
2301	13.099	2.9091	0.	2529.3
2302	13.283	2.9091	0.	2481.3
2303	13.468	2.9091	0.	2433.5
2304	13.653	2.9091	0.	2385.9
2305	13.838	2.9091	0.	2338.5
2306	14.022	2.9091	0.	2291.2
2307	14.207	2.9091	0.	2244.1
2308	14.392	2.9091	0.	2197.2
2309	14.577	2.9091	0.	2150.4
2310	14.761	2.9091	0.	2103.9
2311	14.946	2.9091	0.	2057.5
2312	15.131	2.9091	0.	2011.4
2313	15.316	2.9091	0.	1965.4
2314	15.501	2.9091	0.	1919.6
2315	15.685	2.9091	0.	1874.1
2316	15.87	2.9091	0.	1828.7
2317	16.055	2.9091	0.	1783.5
2318	16.24	2.9091	0.	1738.6
2319	16.424	2.9091	0.	1693.9
2320	16.609	2.9091	0.	1649.4
2321	16.794	2.9091	0.	1605.1
2322	16.979	2.9091	0.	1561.
2323	17.164	2.9091	0.	1517.2
2324	17.348	2.9091	0.	1473.6
2325	17.533	2.9091	0.	1430.3
2326	17.718	2.9091	0.	1387.2
2327	17.903	2.9091	0.	1344.3
2328	18.087	2.9091	0.	1301.7
2329	18.272	2.9091	0.	1259.4
2330	18.457	2.9091	0.	1217.3
2331	18.642	2.9091	0.	1175.5
2332	18.826	2.9091	0.	1134.
2333	19.011	2.9091	0.	1092.7
2334	19.196	2.9091	0.	1051.8
2335	19.381	2.9091	0.	1011.1
2336	19.566	2.9091	0.	970.81
2337	19.75	2.9091	0.	930.81
2338	19.935	2.9091	0.	891.14
2339	20.12	2.9091	0.	851.82
2340	20.305	2.9091	0.	812.87
2341	20.489	2.9091	0.	774.29
2342	20.674	2.9091	0.	736.1
2343	20.859	2.9091	0.	698.33
2344	21.044	2.9091	0.	660.99
2345	21.228	2.9091	0.	624.11
2346	21.413	2.9091	0.	587.71
2347	21.598	2.9091	0.	551.82
2348	21.783	2.9091	0.	516.49
2349	21.968	2.9091	0.	481.76
2350	22.152	2.9091	0.	447.68
2351	22.337	2.9091	0.	414.34
2352	22.522	2.9091	0.	381.83
2353	22.707	2.9091	0.	350.31
2354	22.891	2.9091	0.	319.96
2355	23.076	2.9091	0.	291.07
2356	23.261	2.9091	0.	264.04
2357	23.446	2.9091	0.	239.43
2358	23.63	2.9091	0.	218.05
2359	23.815	2.9091	0.	200.88
2360	2.7514	2.7273	0.	12561
2361	2.9362	2.7273	0.	11285
2362	3.121	2.7273	0.	9956.7
2363	3.3057	2.7273	0.	8798.9
2364	3.4905	2.7273	0.	7864.9
2365	3.6753	2.7273	0.	7133.5
2366	3.8601	2.7273	0.	6565.5
2367	4.0448	2.7273	0.	6123.7
2368	4.2296	2.7273	0.	5777.8
2369	4.4144	2.7273	0.	5504.6
2370	4.5991	2.7273	0.	5286.3
2371	4.7839	2.7273	0.	5109.6
2372	4.9687	2.7273	0.	4964.6
2373	5.1534	2.7273	0.	4843.5
2374	5.3382	2.7273	0.	4740.7
2375	5.523	2.7273	0.	4651.6
2376	5.7078	2.7273	0.	4573.
2377	5.8925	2.7273	0.	4502.3
2378	6.0773	2.7273	0.	4437.4
2379	6.2621	2.7273	0.	4377.
2380	6.4468	2.7273	0.	4319.8
2381	6.6316	2.7273	0.	4265.
2382	6.8164	2.7273	0.	4211.9
2383	7.0011	2.7273	0.	4160.1
2384	7.1859	2.7273	0.	4109.1
2385	7.3707	2.7273	0.	4058.7
2386	7.5555	2.7273	0.	4008.7
2387	7.7402	2.7273	0.	3959.
2388	7.925	2.7273	0.	3909.4
2389	8.1098	2.7273	0.	3859.9
2390	8.2945	2.7273	0.	3810.3
2391	8.4793	2.7273	0.	3760.8
2392	8.6641	2.7273	0.	3711.2
2393	8.8489	2.7273	0.	3661.6
2394	9.0336	2.7273	0.	3612.
2395	9.2184	2.7273	0.	3562.3
2396	9.4032	2.7273	0.	3512.6
2397	9.5879	2.7273	0.	3462.9
2398	9.7727	2.7273	0.	3413.2
2399	9.9575	2.7273	0.	3363.5
2400	10.142	2.7273	0.	3313.8
2401	10.327	2.7273	0.	3264.1
2402	10.512	2.7273	0.	3214.5
2403	10.697	2.7273	0.	3164.9
2404	10.881	2.7273	0.	3115.4
2405	11.066	2.7273	0.	3066.
2406	11.251	2.7273	0.	3016.6
2407	11.436	2.7273	0.	2967.4
2408	11.62	2.7273	0.	2918.2
2409	11.805	2.7273	0.	2869.2
2410	11.99	2.7273	0.	2820.2
2411	12.175	2.7273	0.	2771.4
2412	12.359	2.7273	0.	2722.7
2413	12.544	2.7273	0.	2674.2
2414	12.729	2.7273	0.	2625.8
2415	12.914	2.7273	0.	2577.5
2416	13.099	2.7273	0.	2529.4
2417	13.283	2.7273	0.	2481.5
2418	13.468	2.7273	0.	2433.7
2419	13.653	2.7273	0.	2386.
2420	13.838	2.7273	0.	2338.6
2421	14.022	2.7273	0.	2291.3
2422	14.207	2.7273	0.	2244.2
2423	14.392	2.7273	0.	2197.3
2424	14.577	2.7273	0.	2150.5
2425	14.761	2.7273	0.	2104.
2426	14.946	2.7273	0.	2057.6
2427	15.131	2.7273	0.	2011.5
2428	15.316	2.7273	0.	1965.5
2429	15.501	2.7273	0.	1919.7
2430	15.685	2.7273	0.	1874.1
2431	15.87	2.7273	0.	1828.8
2432	16.055	2.7273	0.	1783.6
2433	16.24	2.7273	0.	1738.7
2434	16.424	2.7273	0.	1694.
2435	16.609	2.7273	0.	1649.5
2436	16.794	2.7273	0.	1605.2
2437	16.979	2.7273	0.	1561.1
2438	17.164	2.7273	0.	1517.3
2439	17.348	2.7273	0.	1473.7
2440	17.533	2.7273	0.	1430.3
2441	17.718	2.7273	0.	1387.2
2442	17.903	2.7273	0.	1344.3
2443	18.087	2.7273	0.	1301.7
2444	18.272	2.7273	0.	1259.4
2445	18.457	2.7273	0.	1217.3
2446	18.642	2.7273	0.	1175.5
2447	18.826	2.7273	0.	1133.9
2448	19.011	2.7273	0.	1092.7
2449	19.196	2.7273	0.	1051.7
2450	19.381	2.7273	0.	1011.1
2451	19.566	2.7273	0.	970.71
2452	19.75	2.7273	0.	930.69
2453	19.935	2.7273	0.	891.
2454	20.12	2.7273	0.	851.66
2455	20.305	2.7273	0.	812.68
2456	20.489	2.7273	0.	774.07
2457	20.674	2.7273	0.	735.85
2458	20.859	2.7273	0.	698.05
2459	21.044	2.7273	0.	660.67
2460	21.228	2.7273	0.	623.75
2461	21.413	2.7273	0.	587.31
2462	21.598	2.7273	0.	551.38
2463	21.783	2.7273	0.	516.01
2464	21.968	2.7273	0.	481.23
2465	22.152	2.7273	0.	447.11
2466	22.337	2.7273	0.	413.72
2467	22.522	2.7273	0.	381.18
2468	22.707	2.7273	0.	349.61
2469	22.891	2.7273	0.	319.22
2470	23.076	2.7273	0.	290.29
2471	23.261	2.7273	0.	263.22
2472	23.446	2.7273	0.	238.57
2473	23.63	2.7273	0.	217.15
2474	23.815	2.7273	0.	199.97
2475	2.7514	2.5455	0.	13171
2476	2.9362	2.5455	0.	11435
2477	3.121	2.5455	0.	9852.4
2478	3.3057	2.5455	0.	8621.3
2479	3.4905	2.5455	0.	7693.2
2480	3.6753	2.5455	0.	6992.2
2481	3.8601	2.5455	0.	6457.2
2482	4.0448	2.5455	0.	6043.8
2483	4.2296	2.5455	0.	5720.4
2484	4.4144	2.5455	0.	5464.2
2485	4.5991	2.5455	0.	5258.6
2486	4.7839	2.5455	0.	5091.2
2487	4.9687	2.5455	0.	4952.9
2488	5.1534	2.5455	0.	4836.6
2489	5.3382	2.5455	0.	4737.2
2490	5.523	2.5455	0.	4650.5
2491	5.7078	2.5455	0.	4573.5
2492	5.8925	2.5455	0.	4503.8
2493	6.0773	2.5455	0.	4439.6
2494	6.2621	2.5455	0.	4379.6
2495	6.4468	2.5455	0.	4322.6
2496	6.6316	2.5455	0.	4267.8
2497	6.8164	2.5455	0.	4214.7
2498	7.0011	2.5455	0.	4162.8
2499	7.1859	2.5455	0.	4111.7
2500	7.3707	2.5455	0.	4061.2
2501	7.5555	2.5455	0.	4011.
2502	7.7402	2.5455	0.	3961.1
2503	7.925	2.5455	0.	3911.4
2504	8.1098	2.5455	0.	3861.7
2505	8.2945	2.5455	0.	3812.
2506	8.4793	2.5455	0.	3762.4
2507	8.6641	2.5455	0.	3712.7
2508	8.8489	2.5455	0.	3663.
2509	9.0336	2.5455	0.	3613.2
2510	9.2184	2.5455	0.	3563.5
2511	9.4032	2.5455	0.	3513.7
2512	9.5879	2.5455	0.	3463.9
2513	9.7727	2.5455	0.	3414.1
2514	9.9575	2.5455	0.	3364.3
2515	10.142	2.5455	0.	3314.6
2516	10.327	2.5455	0.	3264.8
2517	10.512	2.5455	0.	3215.2
2518	10.697	2.5455	0.	3165.6
2519	10.881	2.5455	0.	3116.
2520	11.066	2.5455	0.	3066.5
2521	11.251	2.5455	0.	3017.1
2522	11.436	2.5455	0.	2967.8
2523	11.62	2.5455	0.	2918.7
2524	11.805	2.5455	0.	2869.6
2525	11.99	2.5455	0.	2820.6
2526	12.175	2.5455	0.	2771.8
2527	12.359	2.5455	0.	2723.1
2528	12.544	2.5455	0.	2674.5
2529	12.729	2.5455	0.	2626.1
2530	12.914	2.5455	0.	2577.8
2531	13.099	2.5455	0.	2529.7
2532	13.283	2.5455	0.	2481.7
2533	13.468	2.5455	0.	2433.9
2534	13.653	2.5455	0.	2386.3
2535	13.838	2.5455	0.	2338.8
2536	14.022	2.5455	0.	2291.6
2537	14.207	2.5455	0.	2244.4
2538	14.392	2.5455	0.	2197.5
2539	14.577	2.5455	0.	2150.8
2540	14.761	2.5455	0.	2104.2
2541	14.946	2.5455	0.	2057.8
2542	15.131	2.5455	0.	2011.7
2543	15.316	2.5455	0.	1965.7
2544	15.501	2.5455	0.	1919.9
2545	15.685	2.5455	0.	1874.3
2546	15.87	2.5455	0.	1829.
2547	16.055	2.5455	0.	1783.8
2548	16.24	2.5455	0.	1738.8
2549	16.424	2.5455	0.	1694.1
2550	16.609	2.5455	0.	1649.6
2551	16.794	2.5455	0.	1605.3
2552	16.979	2.5455	0.	1561.2
2553	17.164	2.5455	0.	1517.4
2554	17.348	2.5455	0.	1473.8
2555	17.533	2.5455	0.	1430.4
2556	17.718	2.5455	0.	1387.3
2557	17.903	2.5455	0.	1344.4
2558	18.087	2.5455	0.	1301.8
2559	18.272	2.5455	0.	1259.4
2560	18.457	2.5455	0.	1217.3
2561	18.642	2.5455	0.	1175.4
2562	18.826	2.5455	0.	1133.9
2563	19.011	2.5455	0.	1092.6
2564	19.196	2.5455	0.	1051.6
2565	19.381	2.5455	0.	1010.9
2566	19.566	2.5455	0.	970.52
2567	19.75	2.5455	0.	930.46
2568	19.935	2.5455	0.	890.73
2569	20.12	2.5455	0.	851.33
2570	20.305	2.5455	0.	812.3
2571	20.489	2.5455	0.	773.63
2572	20.674	2.5455	0.	735.35
2573	20.859	2.5455	0.	697.48
2574	21.044	2.5455	0.	660.03
2575	21.228	2.5455	0.	623.04
2576	21.413	2.5455	0.	586.52
2577	21.598	2.5455	0.	550.51
2578	21.783	2.5455	0.	515.05
2579	21.968	2.5455	0.	480.18
2580	22.152	2.5455	0.	445.97
2581	22.337	2.5455	0.	412.5
2582	22.522	2.5455	0.	379.86
2583	22.707	2.5455	0.	348.21
2584	22.891	2.5455	0.	317.74
2585	23.076	2.5455	0.	288.72
2586	23.261	2.5455	0.	261.57
2587	23.446	2.5455	0.	236.85
2588	23.63	2.5455	0.	215.36
2589	23.815	2.5455	0.	198.14
2590	2.7514	2.3636	0.	14203
2591	2.9362	2.3636	0.	11470
2592	3.121	2.3636	0.	9595.5
2593	3.3057	2.3636	0.	8324.6
2594	3.4905	2.3636	0.	7437.4
2595	3.6753	2.3636	0.	6790.5
2596	3.8601	2.3636	0.	6304.9
2597	4.0448	2.3636	0.	5931.8
2598	4.2296	2.3636	0.	5639.7
2599	4.4144	2.3636	0.	5407.3
2600	4.5991	2.3636	0.	5219.3
2601	4.7839	2.3636	0.	5064.9
2602	4.9687	2.3636	0.	4936.
2603	5.1534	2.3636	0.	4826.6
2604	5.3382	2.3636	0.	4732.
2605	5.523	2.3636	0.	4648.7
2606	5.7078	2.3636	0.	4574.1
2607	5.8925	2.3636	0.	4505.9
2608	6.0773	2.3636	0.	4442.7
2609	6.2621	2.3636	0.	4383.3
2610	6.4468	2.3636	0.	4326.6
2611	6.6316	2.3636	0.	4272.
2612	6.8164	2.3636	0.	4218.8
2613	7.0011	2.3636	0.	4166.8
2614	7.1859	2.3636	0.	4115.5
2615	7.3707	2.3636	0.	4064.8
2616	7.5555	2.3636	0.	4014.4
2617	7.7402	2.3636	0.	3964.3
2618	7.925	2.3636	0.	3914.3
2619	8.1098	2.3636	0.	3864.4
2620	8.2945	2.3636	0.	3814.5
2621	8.4793	2.3636	0.	3764.6
2622	8.6641	2.3636	0.	3714.8
2623	8.8489	2.3636	0.	3664.9
2624	9.0336	2.3636	0.	3615.
2625	9.2184	2.3636	0.	3565.1
2626	9.4032	2.3636	0.	3515.2
2627	9.5879	2.3636	0.	3465.3
2628	9.7727	2.3636	0.	3415.4
2629	9.9575	2.3636	0.	3365.5
2630	10.142	2.3636	0.	3315.7
2631	10.327	2.3636	0.	3265.9
2632	10.512	2.3636	0.	3216.1
2633	10.697	2.3636	0.	3166.5
2634	10.881	2.3636	0.	3116.9
2635	11.066	2.3636	0.	3067.3
2636	11.251	2.3636	0.	3017.9
2637	11.436	2.3636	0.	2968.6
2638	11.62	2.3636	0.	2919.3
2639	11.805	2.3636	0.	2870.2
2640	11.99	2.3636	0.	2821.2
2641	12.175	2.3636	0.	2772.4
2642	12.359	2.3636	0.	2723.6
2643	12.544	2.3636	0.	2675.
2644	12.729	2.3636	0.	2626.6
2645	12.914	2.3636	0.	2578.3
2646	13.099	2.3636	0.	2530.1
2647	13.283	2.3636	0.	2482.2
2648	13.468	2.3636	0.	2434.4
2649	13.653	2.3636	0.	2386.7
2650	13.838	2.3636	0.	2339.2
2651	14.022	2.3636	0.	2291.9
2652	14.207	2.3636	0.	2244.8
2653	14.392	2.3636	0.	2197.9
2654	14.577	2.3636	0.	2151.1
2655	14.761	2.3636	0.	2104.5
2656	14.946	2.3636	0.	2058.1
2657	15.131	2.3636	0.	2012.
2658	15.316	2.3636	0.	1966.
2659	15.501	2.3636	0.	1920.2
2660	15.685	2.3636	0.	1874.6
2661	15.87	2.3636	0.	1829.2
2662	16.055	2.3636	0.	1784.
2663	16.24	2.3636	0.	1739.1
2664	16.424	2.3636	0.	1694.3
2665	16.609	2.3636	0.	1649.8
2666	16.794	2.3636	0.	1605.5
2667	16.979	2.3636	0.	1561.4
2668	17.164	2.3636	0.	1517.6
2669	17.348	2.3636	0.	1473.9
2670	17.533	2.3636	0.	1430.5
2671	17.718	2.3636	0.	1387.4
2672	17.903	2.3636	0.	1344.5
2673	18.087	2.3636	0.	1301.8
2674	18.272	2.3636	0.	1259.4
2675	18.457	2.3636	0.	1217.3
2676	18.642	2.3636	0.	1175.4
2677	18.826	2.3636	0.	1133.8
2678	19.011	2.3636	0.	1092.5
2679	19.196	2.3636	0.	1051.4
2680	19.381	2.3636	0.	1010.7
2681	19.566	2.3636	0.	970.25
2682	19.75	2.3636	0.	930.13
2683	19.935	2.3636	0.	890.33
2684	20.12	2.3636	0.	850.86
2685	20.305	2.3636	0.	811.75
2686	20.489	2.3636	0.	772.99
2687	20.674	2.3636	0.	734.62
2688	20.859	2.3636	0.	696.65
2689	21.044	2.3636	0.	659.1
2690	21.228	2.3636	0.	621.98
2691	21.413	2.3636	0.	585.34
2692	21.598	2.3636	0.	549.21
2693	21.783	2.3636	0.	513.62
2694	21.968	2.3636	0.	478.62
2695	22.152	2.3636	0.	444.27
2696	22.337	2.3636	0.	410.66
2697	22.522	2.3636	0.	377.9
2698	22.707	2.3636	0.	346.11
2699	22.891	2.3636	0.	315.51
2700	23.076	2.3636	0.	286.37
2701	23.261	2.3636	0.	259.09
2702	23.446	2.3636	0.	234.25
2703	23.63	2.3636	0.	212.66
2704	23.815	2.3636	0.	195.37
2705	2.7514	2.1818	0.	15071
2706	2.9362	2.1818	0.	11170
2707	3.121	2.1818	0.	9106.9
2708	3.3057	2.1818	0.	7916.4
2709	3.4905	2.1818	0.	7111.1
2710	3.6753	2.1818	0.	6541.8
2711	3.8601	2.1818	0.	6118.6
2712	4.0448	2.1818	0.	5794.8
2713	4.2296	2.1818	0.	5540.6
2714	4.4144	2.1818	0.	5336.7
2715	4.5991	2.1818	0.	5170.3
2716	4.7839	2.1818	0.	5031.8
2717	4.9687	2.1818	0.	4914.7
2718	5.1534	2.1818	0.	4813.8
2719	5.3382	2.1818	0.	4725.3
2720	5.523	2.1818	0.	4646.3
2721	5.7078	2.1818	0.	4574.6
2722	5.8925	2.1818	0.	4508.5
2723	6.0773	2.1818	0.	4446.6
2724	6.2621	2.1818	0.	4387.9
2725	6.4468	2.1818	0.	4331.7
2726	6.6316	2.1818	0.	4277.2
2727	6.8164	2.1818	0.	4224.
2728	7.0011	2.1818	0.	4171.9
2729	7.1859	2.1818	0.	4120.4
2730	7.3707	2.1818	0.	4069.4
2731	7.5555	2.1818	0.	4018.7
2732	7.7402	2.1818	0.	3968.3
2733	7.925	2.1818	0.	3918.
2734	8.1098	2.1818	0.	3867.9
2735	8.2945	2.1818	0.	3817.7
2736	8.4793	2.1818	0.	3767.6
2737	8.6641	2.1818	0.	3717.5
2738	8.8489	2.1818	0.	3667.4
2739	9.0336	2.1818	0.	3617.4
2740	9.2184	2.1818	0.	3567.3
2741	9.4032	2.1818	0.	3517.2
2742	9.5879	2.1818	0.	3467.2
2743	9.7727	2.1818	0.	3417.1
2744	9.9575	2.1818	0.	3367.1
2745	10.142	2.1818	0.	3317.2
2746	10.327	2.1818	0.	3267.3
2747	10.512	2.1818	0.	3217.4
2748	10.697	2.1818	0.	3167.7
2749	10.881	2.1818	0.	3118.
2750	11.066	2.1818	0.	3068.4
2751	11.251	2.1818	0.	3018.9
2752	11.436	2.1818	0.	2969.5
2753	11.62	2.1818	0.	2920.2
2754	11.805	2.1818	0.	2871.
2755	11.99	2.1818	0.	2822.
2756	12.175	2.1818	0.	2773.1
2757	12.359	2.1818	0.	2724.3
2758	12.544	2.1818	0.	2675.7
2759	12.729	2.1818	0.	2627.2
2760	12.914	2.1818	0.	2578.9
2761	13.099	2.1818	0.	2530.7
2762	13.283	2.1818	0.	2482.7
2763	13.468	2.1818	0.	2434.9
2764	13.653	2.1818	0.	2387.2
2765	13.838	2.1818	0.	2339.7
2766	14.022	2.1818	0.	2292.4
2767	14.207	2.1818	0.	2245.3
2768	14.392	2.1818	0.	2198.3
2769	14.577	2.1818	0.	2151.5
2770	14.761	2.1818	0.	2105.
2771	14.946	2.1818	0.	2058.6
2772	15.131	2.1818	0.	2012.4
2773	15.316	2.1818	0.	1966.4
2774	15.501	2.1818	0.	1920.6
2775	15.685	2.1818	0.	1875.
2776	15.87	2.1818	0.	1829.6
2777	16.055	2.1818	0.	1784.4
2778	16.24	2.1818	0.	1739.4
2779	16.424	2.1818	0.	1694.6
2780	16.609	2.1818	0.	1650.1
2781	16.794	2.1818	0.	1605.8
2782	16.979	2.1818	0.	1561.7
2783	17.164	2.1818	0.	1517.8
2784	17.348	2.1818	0.	1474.1
2785	17.533	2.1818	0.	1430.7
2786	17.718	2.1818	0.	1387.5
2787	17.903	2.1818	0.	1344.6
2788	18.087	2.1818	0.	1301.9
2789	18.272	2.1818	0.	1259.5
2790	18.457	2.1818	0.	1217.3
2791	18.642	2.1818	0.	1175.4
2792	18.826	2.1818	0.	1133.7
2793	19.011	2.1818	0.	1092.3
2794	19.196	2.1818	0.	1051.2
2795	19.381	2.1818	0.	1010.4
2796	19.566	2.1818	0.	969.91
2797	19.75	2.1818	0.	929.71
2798	19.935	2.1818	0.	889.82
2799	20.12	2.1818	0.	850.26
2800	20.305	2.1818	0.	811.04
2801	20.489	2.1818	0.	772.17
2802	20.674	2.1818	0.	733.68
2803	20.859	2.1818	0.	695.57
2804	21.044	2.1818	0.	657.88
2805	21.228	2.1818	0.	620.61
2806	21.413	2.1818	0.	583.81
2807	21.598	2.1818	0.	547.51
2808	21.783	2.1818	0.	511.74
2809	21.968	2.1818	0.	476.56
2810	22.152	2.1818	0.	442.03
2811	22.337	2.1818	0.	408.23
2812	22.522	2.1818	0.	375.28
2813	22.707	2.1818	0.	343.31
2814	22.891	2.1818	0.	312.52
2815	23.076	2.1818	0.	283.21
2816	23.261	2.1818	0.	255.76
2817	23.446	2.1818	0.	230.76
2818	23.63	2.1818	0.	209.02
2819	23.815	2.1818	0.	191.65
2820	2.7514	2.	0.	15510
2821	2.9362	2.	0.	10308
2822	3.121	2.	0.	8467.2
2823	3.3057	2.	0.	7422.
2824	3.4905	2.	0.	6736.4
2825	3.6753	2.	0.	6259.6
2826	3.8601	2.	0.	5908.
2827	4.0448	2.	0.	5639.3
2828	4.2296	2.	0.	5427.3
2829	4.4144	2.	0.	5255.6
2830	4.5991	2.	0.	5113.4
2831	4.7839	2.	0.	4993.2
2832	4.9687	2.	0.	4889.5
2833	5.1534	2.	0.	4798.4
2834	5.3382	2.	0.	4717.
2835	5.523	2.	0.	4643.2
2836	5.7078	2.	0.	4575.
2837	5.8925	2.	0.	4511.3
2838	6.0773	2.	0.	4451.
2839	6.2621	2.	0.	4393.3
2840	6.4468	2.	0.	4337.6
2841	6.6316	2.	0.	4283.3
2842	6.8164	2.	0.	4230.2
2843	7.0011	2.	0.	4177.9
2844	7.1859	2.	0.	4126.1
2845	7.3707	2.	0.	4074.9
2846	7.5555	2.	0.	4023.9
2847	7.7402	2.	0.	3973.2
2848	7.925	2.	0.	3922.6
2849	8.1098	2.	0.	3872.1
2850	8.2945	2.	0.	3821.6
2851	8.4793	2.	0.	3771.2
2852	8.6641	2.	0.	3720.9
2853	8.8489	2.	0.	3670.5
2854	9.0336	2.	0.	3620.2
2855	9.2184	2.	0.	3569.9
2856	9.4032	2.	0.	3519.7
2857	9.5879	2.	0.	3469.4
2858	9.7727	2.	0.	3419.2
2859	9.9575	2.	0.	3369.1
2860	10.142	2.	0.	3319.
2861	10.327	2.	0.	3269.
2862	10.512	2.	0.	3219.
2863	10.697	2.	0.	3169.2
2864	10.881	2.	0.	3119.4
2865	11.066	2.	0.	3069.7
2866	11.251	2.	0.	3020.1
2867	11.436	2.	0.	2970.6
2868	11.62	2.	0.	2921.3
2869	11.805	2.	0.	2872.1
2870	11.99	2.	0.	2823.
2871	12.175	2.	0.	2774.
2872	12.359	2.	0.	2725.2
2873	12.544	2.	0.	2676.6
2874	12.729	2.	0.	2628.
2875	12.914	2.	0.	2579.7
2876	13.099	2.	0.	2531.5
2877	13.283	2.	0.	2483.5
2878	13.468	2.	0.	2435.6
2879	13.653	2.	0.	2387.9
2880	13.838	2.	0.	2340.4
2881	14.022	2.	0.	2293.
2882	14.207	2.	0.	2245.9
2883	14.392	2.	0.	2198.9
2884	14.577	2.	0.	2152.1
2885	14.761	2.	0.	2105.5
2886	14.946	2.	0.	2059.1
2887	15.131	2.	0.	2012.9
2888	15.316	2.	0.	1966.9
2889	15.501	2.	0.	1921.
2890	15.685	2.	0.	1875.4
2891	15.87	2.	0.	1830.
2892	16.055	2.	0.	1784.8
2893	16.24	2.	0.	1739.8
2894	16.424	2.	0.	1695.
2895	16.609	2.	0.	1650.5
2896	16.794	2.	0.	1606.1
2897	16.979	2.	0.	1562.
2898	17.164	2.	0.	1518.1
2899	17.348	2.	0.	1474.4
2900	17.533	2.	0.	1431.
2901	17.718	2.	0.	1387.7
2902	17.903	2.	0.	1344.8
2903	18.087	2.	0.	1302.
2904	18.272	2.	0.	1259.6
2905	18.457	2.	0.	1217.3
2906	18.642	2.	0.	1175.3
2907	18.826	2.	0.	1133.6
2908	19.011	2.	0.	1092.2
2909	19.196	2.	0.	1051.
2910	19.381	2.	0.	1010.1
2911	19.566	2.	0.	969.52
2912	19.75	2.	0.	929.22
2913	19.935	2.	0.	889.22
2914	20.12	2.	0.	849.54
2915	20.305	2.	0.	810.19
2916	20.489	2.	0.	771.19
2917	20.674	2.	0.	732.54
2918	20.859	2.	0.	694.27
2919	21.044	2.	0.	656.4
2920	21.228	2.	0.	618.95
2921	21.413	2.	0.	581.95
2922	21.598	2.	0.	545.43
2923	21.783	2.	0.	509.44
2924	21.968	2.	0.	474.03
2925	22.152	2.	0.	439.26
2926	22.337	2.	0.	405.22
2927	22.522	2.	0.	372.02
2928	22.707	2.	0.	339.81
2929	22.891	2.	0.	308.79
2930	23.076	2.	0.	279.24
2931	23.261	2.	0.	251.56
2932	23.446	2.	0.	226.34
2933	23.63	2.	0.	204.42
2934	23.815	2.	0.	186.93
2935	2.7514	1.8182	0.	12899
2936	2.9362	1.8182	0.	9250.4
2937	3.121	1.8182	0.	7702.5
2938	3.3057	1.8182	0.	6868.7
2939	3.4905	1.8182	0.	6327.1
2940	3.6753	1.8182	0.	5952.8
2941	3.8601	1.8182	0.	5679.
2942	4.0448	1.8182	0.	5469.7
2943	4.2296	1.8182	0.	5303.1
2944	4.4144	1.8182	0.	5166.2
2945	4.5991	1.8182	0.	5050.3
2946	4.7839	1.8182	0.	4949.8
2947	4.9687	1.8182	0.	4860.9
2948	5.1534	1.8182	0.	4780.7
2949	5.3382	1.8182	0.	4707.3
2950	5.523	1.8182	0.	4639.1
2951	5.7078	1.8182	0.	4575.
2952	5.8925	1.8182	0.	4514.1
2953	6.0773	1.8182	0.	4455.6
2954	6.2621	1.8182	0.	4399.1
2955	6.4468	1.8182	0.	4344.
2956	6.6316	1.8182	0.	4290.1
2957	6.8164	1.8182	0.	4237.
2958	7.0011	1.8182	0.	4184.6
2959	7.1859	1.8182	0.	4132.7
2960	7.3707	1.8182	0.	4081.1
2961	7.5555	1.8182	0.	4029.8
2962	7.7402	1.8182	0.	3978.7
2963	7.925	1.8182	0.	3927.7
2964	8.1098	1.8182	0.	3876.9
2965	8.2945	1.8182	0.	3826.1
2966	8.4793	1.8182	0.	3775.4
2967	8.6641	1.8182	0.	3724.7
2968	8.8489	1.8182	0.	3674.1
2969	9.0336	1.8182	0.	3623.6
2970	9.2184	1.8182	0.	3573.
2971	9.4032	1.8182	0.	3522.5
2972	9.5879	1.8182	0.	3472.1
2973	9.7727	1.8182	0.	3421.7
2974	9.9575	1.8182	0.	3371.4
2975	10.142	1.8182	0.	3321.1
2976	10.327	1.8182	0.	3271.
2977	10.512	1.8182	0.	3220.9
2978	10.697	1.8182	0.	3170.9
2979	10.881	1.8182	0.	3121.
2980	11.066	1.8182	0.	3071.2
2981	11.251	1.8182	0.	3021.6
2982	11.436	1.8182	0.	2972.
2983	11.62	1.8182	0.	2922.6
2984	11.805	1.8182	0.	2873.3
2985	11.99	1.8182	0.	2824.2
2986	12.175	1.8182	0.	2775.1
2987	12.359	1.8182	0.	2726.3
2988	12.544	1.8182	0.	2677.6
2989	12.729	1.8182	0.	2629.
2990	12.914	1.8182	0.	2580.6
2991	13.099	1.8182	0.	2532.4
2992	13.283	1.8182	0.	2484.3
2993	13.468	1.8182	0.	2436.4
2994	13.653	1.8182	0.	2388.7
2995	13.838	1.8182	0.	2341.1
2996	14.022	1.8182	0.	2293.8
2997	14.207	1.8182	0.	2246.6
2998	14.392	1.8182	0.	2199.6
2999	14.577	1.8182	0.	2152.8
3000	14.761	1.8182	0.	2106.1
3001	14.946	1.8182	0.	2059.7
3002	15.131	1.8182	0.	2013.5
3003	15.316	1.8182	0.	1967.4
3004	15.501	1.8182	0.	1921.6
3005	15.685	1.8182	0.	1876.
3006	15.87	1.8182	0.	1830.5
3007	16.055	1.8182	0.	1785.3
3008	16.24	1.8182	0.	1740.3
3009	16.424	1.8182	0.	1695.5
3010	16.609	1.8182	0.	1650.9
3011	16.794	1.8182	0.	1606.5
3012	16.979	1.8182	0.	1562.4
3013	17.164	1.8182	0.	1518.4
3014	17.348	1.8182	0.	1474.7
3015	17.533	1.8182	0.	1431.3
3016	17.718	1.8182	0.	1388.
3017	17.903	1.8182	0.	1345.
3018	18.087	1.8182	0.	1302.2
3019	18.272	1.8182	0.	1259.7
3020	18.457	1.8182	0.	1217.4
3021	18.642	1.8182	0.	1175.3
3022	18.826	1.8182	0.	1133.6
3023	19.011	1.8182	0.	1092.
3024	19.196	1.8182	0.	1050.8
3025	19.381	1.8182	0.	1009.8
3026	19.566	1.8182	0.	969.09
3027	19.75	1.8182	0.	928.68
3028	19.935	1.8182	0.	888.56
3029	20.12	1.8182	0.	848.74
3030	20.305	1.8182	0.	809.25
3031	20.489	1.8182	0.	770.08
3032	20.674	1.8182	0.	731.26
3033	20.859	1.8182	0.	692.79
3034	21.044	1.8182	0.	654.71
3035	21.228	1.8182	0.	617.04
3036	21.413	1.8182	0.	579.79
3037	21.598	1.8182	0.	543.02
3038	21.783	1.8182	0.	506.75
3039	21.968	1.8182	0.	471.06
3040	22.152	1.8182	0.	435.99
3041	22.337	1.8182	0.	401.65
3042	22.522	1.8182	0.	368.14
3043	22.707	1.8182	0.	335.62
3044	22.891	1.8182	0.	304.29
3045	23.076	1.8182	0.	274.44
3046	23.261	1.8182	0.	246.47
3047	23.446	1.8182	0.	220.97
3048	23.63	1.8182	0.	198.81
3049	23.815	1.8182	0.	181.17
3050	2.7514	1.6364	0.	9595.9
3051	2.9362	1.6364	0.	7787.4
3052	3.121	1.6364	0.	6842.8
3053	3.3057	1.6364	0.	6269.1
3054	3.4905	1.6364	0.	5886.5
3055	3.6753	1.6364	0.	5625.5
3056	3.8601	1.6364	0.	5435.3
3057	4.0448	1.6364	0.	5289.
3058	4.2296	1.6364	0.	5170.5
3059	4.4144	1.6364	0.	5070.1
3060	4.5991	1.6364	0.	4982.
3061	4.7839	1.6364	0.	4902.5
3062	4.9687	1.6364	0.	4829.3
3063	5.1534	1.6364	0.	4760.8
3064	5.3382	1.6364	0.	4696.
3065	5.523	1.6364	0.	4634.1
3066	5.7078	1.6364	0.	4574.4
3067	5.8925	1.6364	0.	4516.6
3068	6.0773	1.6364	0.	4460.2
3069	6.2621	1.6364	0.	4405.
3070	6.4468	1.6364	0.	4350.8
3071	6.6316	1.6364	0.	4297.3
3072	6.8164	1.6364	0.	4244.3
3073	7.0011	1.6364	0.	4191.8
3074	7.1859	1.6364	0.	4139.7
3075	7.3707	1.6364	0.	4087.9
3076	7.5555	1.6364	0.	4036.3
3077	7.7402	1.6364	0.	3984.8
3078	7.925	1.6364	0.	3933.5
3079	8.1098	1.6364	0.	3882.3
3080	8.2945	1.6364	0.	3831.1
3081	8.4793	1.6364	0.	3780.1
3082	8.6641	1.6364	0.	3729.1
3083	8.8489	1.6364	0.	3678.2
3084	9.0336	1.6364	0.	3627.3
3085	9.2184	1.6364	0.	3576.5
3086	9.4032	1.6364	0.	3525.8
3087	9.5879	1.6364	0.	3475.1
3088	9.7727	1.6364	0.	3424.5
3089	9.9575	1.6364	0.	3374.
3090	10.142	1.6364	0.	3323.6
3091	10.327	1.6364	0.	3273.3
3092	10.512	1.6364	0.	3223.
3093	10.697	1.6364	0.	3172.9
3094	10.881	1.6364	0.	3122.9
3095	11.066	1.6364	0.	3073.
3096	11.251	1.6364	0.	3023.2
3097	11.436	1.6364	0.	2973.6
3098	11.62	1.6364	0.	2924.1
3099	11.805	1.6364	0.	2874.7
3100	11.99	1.6364	0.	2825.5
3101	12.175	1.6364	0.	2776.4
3102	12.359	1.6364	0.	2727.5
3103	12.544	1.6364	0.	2678.7
3104	12.729	1.6364	0.	2630.1
3105	12.914	1.6364	0.	2581.7
3106	13.099	1.6364	0.	2533.4
3107	13.283	1.6364	0.	2485.3
3108	13.468	1.6364	0.	2437.4
3109	13.653	1.6364	0.	2389.6
3110	13.838	1.6364	0.	2342.
3111	14.022	1.6364	0.	2294.6
3112	14.207	1.6364	0.	2247.4
3113	14.392	1.6364	0.	2200.4
3114	14.577	1.6364	0.	2153.6
3115	14.761	1.6364	0.	2106.9
3116	14.946	1.6364	0.	2060.5
3117	15.131	1.6364	0.	2014.2
3118	15.316	1.6364	0.	1968.1
3119	15.501	1.6364	0.	1922.3
3120	15.685	1.6364	0.	1876.6
3121	15.87	1.6364	0.	1831.2
3122	16.055	1.6364	0.	1785.9
3123	16.24	1.6364	0.	1740.9
3124	16.424	1.6364	0.	1696.1
3125	16.609	1.6364	0.	1651.4
3126	16.794	1.6364	0.	1607.
3127	16.979	1.6364	0.	1562.9
3128	17.164	1.6364	0.	1518.9
3129	17.348	1.6364	0.	1475.1
3130	17.533	1.6364	0.	1431.6
3131	17.718	1.6364	0.	1388.3
3132	17.903	1.6364	0.	1345.3
3133	18.087	1.6364	0.	1302.4
3134	18.272	1.6364	0.	1259.8
3135	18.457	1.6364	0.	1217.5
3136	18.642	1.6364	0.	1175.4
3137	18.826	1.6364	0.	1133.5
3138	19.011	1.6364	0.	1091.9
3139	19.196	1.6364	0.	1050.6
3140	19.381	1.6364	0.	1009.5
3141	19.566	1.6364	0.	968.66
3142	19.75	1.6364	0.	928.12
3143	19.935	1.6364	0.	887.86
3144	20.12	1.6364	0.	847.89
3145	20.305	1.6364	0.	808.23
3146	20.489	1.6364	0.	768.88
3147	20.674	1.6364	0.	729.85
3148	20.859	1.6364	0.	691.17
3149	21.044	1.6364	0.	652.85
3150	21.228	1.6364	0.	614.91
3151	21.413	1.6364	0.	577.39
3152	21.598	1.6364	0.	540.32
3153	21.783	1.6364	0.	503.73
3154	21.968	1.6364	0.	467.7
3155	22.152	1.6364	0.	432.27
3156	22.337	1.6364	0.	397.56
3157	22.522	1.6364	0.	363.67
3158	22.707	1.6364	0.	330.75
3159	22.891	1.6364	0.	299.03
3160	23.076	1.6364	0.	268.8
3161	23.261	1.6364	0.	240.46
3162	23.446	1.6364	0.	214.61
3163	23.63	1.6364	0.	192.13
3164	23.815	1.6364	0.	174.31
3165	2.7514	1.4545	0.	7366.7
3166	2.9362	1.4545	0.	6414.8
3167	3.121	1.4545	0.	5950.4
3168	3.3057	1.4545	0.	5631.6
3169	3.4905	1.4545	0.	5423.7
3170	3.6753	1.4545	0.	5282.7
3171	3.8601	1.4545	0.	5180.7
3172	4.0448	1.4545	0.	5100.4
3173	4.2296	1.4545	0.	5031.8
3174	4.4144	1.4545	0.	4969.3
3175	4.5991	1.4545	0.	4909.9
3176	4.7839	1.4545	0.	4852.1
3177	4.9687	1.4545	0.	4795.3
3178	5.1534	1.4545	0.	4739.
3179	5.3382	1.4545	0.	4683.2
3180	5.523	1.4545	0.	4627.9
3181	5.7078	1.4545	0.	4573.
3182	5.8925	1.4545	0.	4518.6
3183	6.0773	1.4545	0.	4464.5
3184	6.2621	1.4545	0.	4410.9
3185	6.4468	1.4545	0.	4357.6
3186	6.6316	1.4545	0.	4304.6
3187	6.8164	1.4545	0.	4251.9
3188	7.0011	1.4545	0.	4199.4
3189	7.1859	1.4545	0.	4147.2
3190	7.3707	1.4545	0.	4095.1
3191	7.5555	1.4545	0.	4043.1
3192	7.7402	1.4545	0.	3991.3
3193	7.925	1.4545	0.	3939.7
3194	8.1098	1.4545	0.	3888.1
3195	8.2945	1.4545	0.	3836.6
3196	8.4793	1.4545	0.	3785.2
3197	8.6641	1.4545	0.	3733.8
3198	8.8489	1.4545	0.	3682.6
3199	9.0336	1.4545	0.	3631.4
3200	9.2184	1.4545	0.	3580.4
3201	9.4032	1.4545	0.	3529.4
3202	9.5879	1.4545	0.	3478.5
3203	9.7727	1.4545	0.	3427.6
3204	9.9575	1.4545	0.	3376.9
3205	10.142	1.4545	0.	3326.3
3206	10.327	1.4545	0.	3275.8
3207	10.512	1.4545	0.	3225.4
3208	10.697	1.4545	0.	3175.2
3209	10.881	1.4545	0.	3125.
3210	11.066	1.4545	0.	3075.
3211	11.251	1.4545	0.	3025.1
3212	11.436	1.4545	0.	2975.4
3213	11.62	1.4545	0.	2925.8
3214	11.805	1.4545	0.	2876.3
3215	11.99	1.4545	0.	2827.
3216	12.175	1.4545	0.	2777.9
3217	12.359	1.4545	0.	2728.9
3218	12.544	1.4545	0.	2680.
3219	12.729	1.4545	0.	2631.4
3220	12.914	1.4545	0.	2582.9
3221	13.099	1.4545	0.	2534.6
3222	13.283	1.4545	0.	2486.4
3223	13.468	1.4545	0.	2438.4
3224	13.653	1.4545	0.	2390.6
3225	13.838	1.4545	0.	2343.
3226	14.022	1.4545	0.	2295.6
3227	14.207	1.4545	0.	2248.4
3228	14.392	1.4545	0.	2201.3
3229	14.577	1.4545	0.	2154.4
3230	14.761	1.4545	0.	2107.8
3231	14.946	1.4545	0.	2061.3
3232	15.131	1.4545	0.	2015.
3233	15.316	1.4545	0.	1968.9
3234	15.501	1.4545	0.	1923.1
3235	15.685	1.4545	0.	1877.4
3236	15.87	1.4545	0.	1831.9
3237	16.055	1.4545	0.	1786.6
3238	16.24	1.4545	0.	1741.6
3239	16.424	1.4545	0.	1696.7
3240	16.609	1.4545	0.	1652.1
3241	16.794	1.4545	0.	1607.6
3242	16.979	1.4545	0.	1563.4
3243	17.164	1.4545	0.	1519.4
3244	17.348	1.4545	0.	1475.6
3245	17.533	1.4545	0.	1432.1
3246	17.718	1.4545	0.	1388.7
3247	17.903	1.4545	0.	1345.6
3248	18.087	1.4545	0.	1302.7
3249	18.272	1.4545	0.	1260.1
3250	18.457	1.4545	0.	1217.7
3251	18.642	1.4545	0.	1175.5
3252	18.826	1.4545	0.	1133.5
3253	19.011	1.4545	0.	1091.8
3254	19.196	1.4545	0.	1050.4
3255	19.381	1.4545	0.	1009.2
3256	19.566	1.4545	0.	968.25
3257	19.75	1.4545	0.	927.57
3258	19.935	1.4545	0.	887.16
3259	20.12	1.4545	0.	847.03
3260	20.305	1.4545	0.	807.18
3261	20.489	1.4545	0.	767.63
3262	20.674	1.4545	0.	728.38
3263	20.859	1.4545	0.	689.46
3264	21.044	1.4545	0.	650.87
3265	21.228	1.4545	0.	612.65
3266	21.413	1.4545	0.	574.81
3267	21.598	1.4545	0.	537.4
3268	21.783	1.4545	0.	500.44
3269	21.968	1.4545	0.	464.01
3270	22.152	1.4545	0.	428.16
3271	22.337	1.4545	0.	393.
3272	22.522	1.4545	0.	358.64
3273	22.707	1.4545	0.	325.25
3274	22.891	1.4545	0.	293.03
3275	23.076	1.4545	0.	262.31
3276	23.261	1.4545	0.	233.5
3277	23.446	1.4545	0.	207.2
3278	23.63	1.4545	0.	184.33
3279	23.815	1.4545	0.	166.26
3280	2.7514	1.2727	0.	5824.1
3281	2.9362	1.2727	0.	5274.9
3282	3.121	1.2727	0.	5093.7
3283	3.3057	1.2727	0.	5001.8
3284	3.4905	1.2727	0.	4956.6
3285	3.6753	1.2727	0.	4935.2
3286	3.8601	1.2727	0.	4922.
3287	4.0448	1.2727	0.	4908.4
3288	4.2296	1.2727	0.	4890.1
3289	4.4144	1.2727	0.	4865.7
3290	4.5991	1.2727	0.	4835.3
3291	4.7839	1.2727	0.	4799.5
3292	4.9687	1.2727	0.	4759.2
3293	5.1534	1.2727	0.	4715.4
3294	5.3382	1.2727	0.	4669.
3295	5.523	1.2727	0.	4620.5
3296	5.7078	1.2727	0.	4570.7
3297	5.8925	1.2727	0.	4519.8
3298	6.0773	1.2727	0.	4468.3
3299	6.2621	1.2727	0.	4416.4
3300	6.4468	1.2727	0.	4364.2
3301	6.6316	1.2727	0.	4311.9
3302	6.8164	1.2727	0.	4259.5
3303	7.0011	1.2727	0.	4207.1
3304	7.1859	1.2727	0.	4154.8
3305	7.3707	1.2727	0.	4102.5
3306	7.5555	1.2727	0.	4050.3
3307	7.7402	1.2727	0.	3998.2
3308	7.925	1.2727	0.	3946.2
3309	8.1098	1.2727	0.	3894.2
3310	8.2945	1.2727	0.	3842.4
3311	8.4793	1.2727	0.	3790.6
3312	8.6641	1.2727	0.	3738.9
3313	8.8489	1.2727	0.	3687.4
3314	9.0336	1.2727	0.	3635.9
3315	9.2184	1.2727	0.	3584.5
3316	9.4032	1.2727	0.	3533.3
3317	9.5879	1.2727	0.	3482.1
3318	9.7727	1.2727	0.	3431.1
3319	9.9575	1.2727	0.	3380.1
3320	10.142	1.2727	0.	3329.3
3321	10.327	1.2727	0.	3278.6
3322	10.512	1.2727	0.	3228.1
3323	10.697	1.2727	0.	3177.6
3324	10.881	1.2727	0.	3127.3
3325	11.066	1.2727	0.	3077.2
3326	11.251	1.2727	0.	3027.2
3327	11.436	1.2727	0.	2977.3
3328	11.62	1.2727	0.	2927.6
3329	11.805	1.2727	0.	2878.1
3330	11.99	1.2727	0.	2828.7
3331	12.175	1.2727	0.	2779.5
3332	12.359	1.2727	0.	2730.4
3333	12.544	1.2727	0.	2681.5
3334	12.729	1.2727	0.	2632.8
3335	12.914	1.2727	0.	2584.2
3336	13.099	1.2727	0.	2535.9
3337	13.283	1.2727	0.	2487.7
3338	13.468	1.2727	0.	2439.6
3339	13.653	1.2727	0.	2391.8
3340	13.838	1.2727	0.	2344.2
3341	14.022	1.2727	0.	2296.7
3342	14.207	1.2727	0.	2249.4
3343	14.392	1.2727	0.	2202.3
3344	14.577	1.2727	0.	2155.5
3345	14.761	1.2727	0.	2108.8
3346	14.946	1.2727	0.	2062.3
3347	15.131	1.2727	0.	2016.
3348	15.316	1.2727	0.	1969.9
3349	15.501	1.2727	0.	1924.
3350	15.685	1.2727	0.	1878.2
3351	15.87	1.2727	0.	1832.7
3352	16.055	1.2727	0.	1787.5
3353	16.24	1.2727	0.	1742.4
3354	16.424	1.2727	0.	1697.5
3355	16.609	1.2727	0.	1652.8
3356	16.794	1.2727	0.	1608.3
3357	16.979	1.2727	0.	1564.1
3358	17.164	1.2727	0.	1520.1
3359	17.348	1.2727	0.	1476.2
3360	17.533	1.2727	0.	1432.6
3361	17.718	1.2727	0.	1389.2
3362	17.903	1.2727	0.	1346.1
3363	18.087	1.2727	0.	1303.1
3364	18.272	1.2727	0.	1260.4
3365	18.457	1.2727	0.	1217.9
3366	18.642	1.2727	0.	1175.7
3367	18.826	1.2727	0.	1133.6
3368	19.011	1.2727	0.	1091.8
3369	19.196	1.2727	0.	1050.3
3370	19.381	1.2727	0.	1009.
3371	19.566	1.2727	0.	967.89
3372	19.75	1.2727	0.	927.07
3373	19.935	1.2727	0.	886.5
3374	20.12	1.2727	0.	846.19
3375	20.305	1.2727	0.	806.15
3376	20.489	1.2727	0.	766.38
3377	20.674	1.2727	0.	726.9
3378	20.859	1.2727	0.	687.72
3379	21.044	1.2727	0.	648.85
3380	21.228	1.2727	0.	610.31
3381	21.413	1.2727	0.	572.13
3382	21.598	1.2727	0.	534.33
3383	21.783	1.2727	0.	496.97
3384	21.968	1.2727	0.	460.08
3385	22.152	1.2727	0.	423.75
3386	22.337	1.2727	0.	388.06
3387	22.522	1.2727	0.	353.14
3388	22.707	1.2727	0.	319.15
3389	22.891	1.2727	0.	286.33
3390	23.076	1.2727	0.	254.98
3391	23.261	1.2727	0.	225.56
3392	23.446	1.2727	0.	198.68
3393	23.63	1.2727	0.	175.32
3394	23.815	1.2727	0.	156.93
3395	2.7514	1.0909	0.	4644.6
3396	2.9362	1.0909	0.	4322.2
3397	3.121	1.0909	0.	4335.6
3398	3.3057	1.0909	0.	4415.
3399	3.4905	1.0909	0.	4510.1
3400	3.6753	1.0909	0.	4598.2
3401	3.8601	1.0909	0.	4668.9
3402	4.0448	1.0909	0.	4719.1
3403	4.2296	1.0909	0.	4749.4
3404	4.4144	1.0909	0.	4762.1
3405	4.5991	1.0909	0.	4759.9
3406	4.7839	1.0909	0.	4745.7
3407	4.9687	1.0909	0.	4721.9
3408	5.1534	1.0909	0.	4690.5
3409	5.3382	1.0909	0.	4653.4
3410	5.523	1.0909	0.	4612.
3411	5.7078	1.0909	0.	4567.3
3412	5.8925	1.0909	0.	4520.2
3413	6.0773	1.0909	0.	4471.4
3414	6.2621	1.0909	0.	4421.4
3415	6.4468	1.0909	0.	4370.5
3416	6.6316	1.0909	0.	4318.9
3417	6.8164	1.0909	0.	4267.
3418	7.0011	1.0909	0.	4214.8
3419	7.1859	1.0909	0.	4162.5
3420	7.3707	1.0909	0.	4110.1
3421	7.5555	1.0909	0.	4057.7
3422	7.7402	1.0909	0.	4005.3
3423	7.925	1.0909	0.	3952.9
3424	8.1098	1.0909	0.	3900.6
3425	8.2945	1.0909	0.	3848.4
3426	8.4793	1.0909	0.	3796.3
3427	8.6641	1.0909	0.	3744.3
3428	8.8489	1.0909	0.	3692.4
3429	9.0336	1.0909	0.	3640.6
3430	9.2184	1.0909	0.	3589.
3431	9.4032	1.0909	0.	3537.4
3432	9.5879	1.0909	0.	3486.
3433	9.7727	1.0909	0.	3434.7
3434	9.9575	1.0909	0.	3383.5
3435	10.142	1.0909	0.	3332.5
3436	10.327	1.0909	0.	3281.6
3437	10.512	1.0909	0.	3230.9
3438	10.697	1.0909	0.	3180.3
3439	10.881	1.0909	0.	3129.9
3440	11.066	1.0909	0.	3079.6
3441	11.251	1.0909	0.	3029.4
3442	11.436	1.0909	0.	2979.5
3443	11.62	1.0909	0.	2929.7
3444	11.805	1.0909	0.	2880.
3445	11.99	1.0909	0.	2830.5
3446	12.175	1.0909	0.	2781.2
3447	12.359	1.0909	0.	2732.1
3448	12.544	1.0909	0.	2683.1
3449	12.729	1.0909	0.	2634.3
3450	12.914	1.0909	0.	2585.7
3451	13.099	1.0909	0.	2537.3
3452	13.283	1.0909	0.	2489.
3453	13.468	1.0909	0.	2441.
3454	13.653	1.0909	0.	2393.1
3455	13.838	1.0909	0.	2345.4
3456	14.022	1.0909	0.	2297.9
3457	14.207	1.0909	0.	2250.6
3458	14.392	1.0909	0.	2203.5
3459	14.577	1.0909	0.	2156.6
3460	14.761	1.0909	0.	2109.9
3461	14.946	1.0909	0.	2063.3
3462	15.131	1.0909	0.	2017.
3463	15.316	1.0909	0.	1970.9
3464	15.501	1.0909	0.	1924.9
3465	15.685	1.0909	0.	1879.2
3466	15.87	1.0909	0.	1833.7
3467	16.055	1.0909	0.	1788.4
3468	16.24	1.0909	0.	1743.3
3469	16.424	1.0909	0.	1698.4
3470	16.609	1.0909	0.	1653.6
3471	16.794	1.0909	0.	1609.2
3472	16.979	1.0909	0.	1564.9
3473	17.164	1.0909	0.	1520.8
3474	17.348	1.0909	0.	1476.9
3475	17.533	1.0909	0.	1433.3
3476	17.718	1.0909	0.	1389.8
3477	17.903	1.0909	0.	1346.6
3478	18.087	1.0909	0.	1303.6
3479	18.272	1.0909	0.	1260.8
3480	18.457	1.0909	0.	1218.3
3481	18.642	1.0909	0.	1175.9
3482	18.826	1.0909	0.	1133.8
3483	19.011	1.0909	0.	1091.9
3484	19.196	1.0909	0.	1050.3
3485	19.381	1.0909	0.	1008.8
3486	19.566	1.0909	0.	967.62
3487	19.75	1.0909	0.	926.65
3488	19.935	1.0909	0.	885.91
3489	20.12	1.0909	0.	845.43
3490	20.305	1.0909	0.	805.18
3491	20.489	1.0909	0.	765.2
3492	20.674	1.0909	0.	725.47
3493	20.859	1.0909	0.	686.01
3494	21.044	1.0909	0.	646.84
3495	21.228	1.0909	0.	607.97
3496	21.413	1.0909	0.	569.42
3497	21.598	1.0909	0.	531.22
3498	21.783	1.0909	0.	493.41
3499	21.968	1.0909	0.	456.03
3500	22.152	1.0909	0.	419.15
3501	22.337	1.0909	0.	382.86
3502	22.522	1.0909	0.	347.28
3503	22.707	1.0909	0.	312.58
3504	22.891	1.0909	0.	278.99
3505	23.076	1.0909	0.	246.85
3506	23.261	1.0909	0.	216.63
3507	23.446	1.0909	0.	189.
3508	23.63	1.0909	0.	164.97
3509	23.815	1.0909	0.	146.16
3510	2.7514	0.90909	0.	3691.1
3511	2.9362	0.90909	0.	3529.8
3512	3.121	0.90909	0.	3681.1
3513	3.3057	0.90909	0.	3894.2
3514	3.4905	0.90909	0.	4105.2
3515	3.6753	0.90909	0.	4287.3
3516	3.8601	0.90909	0.	4432.
3517	4.0448	0.90909	0.	4539.7
3518	4.2296	0.90909	0.	4614.5
3519	4.4144	0.90909	0.	4661.5
3520	4.5991	0.90909	0.	4685.9
3521	4.7839	0.90909	0.	4692.1
3522	4.9687	0.90909	0.	4684.
3523	5.1534	0.90909	0.	4664.7
3524	5.3382	0.90909	0.	4636.8
3525	5.523	0.90909	0.	4602.4
3526	5.7078	0.90909	0.	4562.9
3527	5.8925	0.90909	0.	4519.8
3528	6.0773	0.90909	0.	4473.8
3529	6.2621	0.90909	0.	4425.8
3530	6.4468	0.90909	0.	4376.2
3531	6.6316	0.90909	0.	4325.6
3532	6.8164	0.90909	0.	4274.3
3533	7.0011	0.90909	0.	4222.4
3534	7.1859	0.90909	0.	4170.1
3535	7.3707	0.90909	0.	4117.7
3536	7.5555	0.90909	0.	4065.1
3537	7.7402	0.90909	0.	4012.5
3538	7.925	0.90909	0.	3959.8
3539	8.1098	0.90909	0.	3907.2
3540	8.2945	0.90909	0.	3854.7
3541	8.4793	0.90909	0.	3802.3
3542	8.6641	0.90909	0.	3749.9
3543	8.8489	0.90909	0.	3697.7
3544	9.0336	0.90909	0.	3645.6
3545	9.2184	0.90909	0.	3593.6
3546	9.4032	0.90909	0.	3541.8
3547	9.5879	0.90909	0.	3490.1
3548	9.7727	0.90909	0.	3438.6
3549	9.9575	0.90909	0.	3387.2
3550	10.142	0.90909	0.	3336.
3551	10.327	0.90909	0.	3284.9
3552	10.512	0.90909	0.	3233.9
3553	10.697	0.90909	0.	3183.2
3554	10.881	0.90909	0.	3132.6
3555	11.066	0.90909	0.	3082.1
3556	11.251	0.90909	0.	3031.9
3557	11.436	0.90909	0.	2981.8
3558	11.62	0.90909	0.	2931.8
3559	11.805	0.90909	0.	2882.1
3560	11.99	0.90909	0.	2832.5
3561	12.175	0.90909	0.	2783.1
3562	12.359	0.90909	0.	2733.9
3563	12.544	0.90909	0.	2684.8
3564	12.729	0.90909	0.	2636.
3565	12.914	0.90909	0.	2587.3
3566	13.099	0.90909	0.	2538.8
3567	13.283	0.90909	0.	2490.5
3568	13.468	0.90909	0.	2442.4
3569	13.653	0.90909	0.	2394.5
3570	13.838	0.90909	0.	2346.8
3571	14.022	0.90909	0.	2299.3
3572	14.207	0.90909	0.	2251.9
3573	14.392	0.90909	0.	2204.8
3574	14.577	0.90909	0.	2157.8
3575	14.761	0.90909	0.	2111.1
3576	14.946	0.90909	0.	2064.5
3577	15.131	0.90909	0.	2018.2
3578	15.316	0.90909	0.	1972.
3579	15.501	0.90909	0.	1926.1
3580	15.685	0.90909	0.	1880.3
3581	15.87	0.90909	0.	1834.8
3582	16.055	0.90909	0.	1789.4
3583	16.24	0.90909	0.	1744.3
3584	16.424	0.90909	0.	1699.3
3585	16.609	0.90909	0.	1654.6
3586	16.794	0.90909	0.	1610.1
3587	16.979	0.90909	0.	1565.8
3588	17.164	0.90909	0.	1521.7
3589	17.348	0.90909	0.	1477.8
3590	17.533	0.90909	0.	1434.1
3591	17.718	0.90909	0.	1390.6
3592	17.903	0.90909	0.	1347.3
3593	18.087	0.90909	0.	1304.2
3594	18.272	0.90909	0.	1261.4
3595	18.457	0.90909	0.	1218.8
3596	18.642	0.90909	0.	1176.3
3597	18.826	0.90909	0.	1134.1
3598	19.011	0.90909	0.	1092.1
3599	19.196	0.90909	0.	1050.4
3600	19.381	0.90909	0.	1008.8
3601	19.566	0.90909	0.	967.47
3602	19.75	0.90909	0.	926.36
3603	19.935	0.90909	0.	885.46
3604	20.12	0.90909	0.	844.79
3605	20.305	0.90909	0.	804.35
3606	20.489	0.90909	0.	764.13
3607	20.674	0.90909	0.	724.16
3608	20.859	0.90909	0.	684.43
3609	21.044	0.90909	0.	644.95
3610	21.228	0.90909	0.	605.74
3611	21.413	0.90909	0.	566.81
3612	21.598	0.90909	0.	528.19
3613	21.783	0.90909	0.	489.9
3614	21.968	0.90909	0.	451.99
3615	22.152	0.90909	0.	414.51
3616	22.337	0.90909	0.	377.55
3617	22.522	0.90909	0.	341.22
3618	22.707	0.90909	0.	305.68
3619	22.891	0.90909	0.	271.17
3620	23.076	0.90909	0.	238.02
3621	23.261	0.90909	0.	206.75
3622	23.446	0.90909	0.	178.09
3623	23.63	0.90909	0.	153.17
3624	23.815	0.90909	0.	133.76
3625	2.7514	0.72727	0.	2884.6
3626	2.9362	0.72727	0.	2861.4
3627	3.121	0.72727	0.	3130.3
3628	3.3057	0.72727	0.	3452.8
3629	3.4905	0.72727	0.	3756.8
3630	3.6753	0.72727	0.	4014.9
3631	3.8601	0.72727	0.	4220.4
3632	4.0448	0.72727	0.	4376.5
3633	4.2296	0.72727	0.	4489.6
3634	4.4144	0.72727	0.	4566.9
3635	4.5991	0.72727	0.	4615.1
3636	4.7839	0.72727	0.	4640.
3637	4.9687	0.72727	0.	4646.5
3638	5.1534	0.72727	0.	4638.6
3639	5.3382	0.72727	0.	4619.6
3640	5.523	0.72727	0.	4591.9
3641	5.7078	0.72727	0.	4557.7
3642	5.8925	0.72727	0.	4518.4
3643	6.0773	0.72727	0.	4475.4
3644	6.2621	0.72727	0.	4429.5
3645	6.4468	0.72727	0.	4381.5
3646	6.6316	0.72727	0.	4331.9
3647	6.8164	0.72727	0.	4281.2
3648	7.0011	0.72727	0.	4229.7
3649	7.1859	0.72727	0.	4177.7
3650	7.3707	0.72727	0.	4125.2
3651	7.5555	0.72727	0.	4072.5
3652	7.7402	0.72727	0.	4019.7
3653	7.925	0.72727	0.	3966.8
3654	8.1098	0.72727	0.	3914.
3655	8.2945	0.72727	0.	3861.1
3656	8.4793	0.72727	0.	3808.4
3657	8.6641	0.72727	0.	3755.7
3658	8.8489	0.72727	0.	3703.2
3659	9.0336	0.72727	0.	3650.8
3660	9.2184	0.72727	0.	3598.5
3661	9.4032	0.72727	0.	3546.4
3662	9.5879	0.72727	0.	3494.5
3663	9.7727	0.72727	0.	3442.7
3664	9.9575	0.72727	0.	3391.
3665	10.142	0.72727	0.	3339.6
3666	10.327	0.72727	0.	3288.3
3667	10.512	0.72727	0.	3237.2
3668	10.697	0.72727	0.	3186.2
3669	10.881	0.72727	0.	3135.4
3670	11.066	0.72727	0.	3084.9
3671	11.251	0.72727	0.	3034.4
3672	11.436	0.72727	0.	2984.2
3673	11.62	0.72727	0.	2934.2
3674	11.805	0.72727	0.	2884.3
3675	11.99	0.72727	0.	2834.6
3676	12.175	0.72727	0.	2785.1
3677	12.359	0.72727	0.	2735.8
3678	12.544	0.72727	0.	2686.7
3679	12.729	0.72727	0.	2637.8
3680	12.914	0.72727	0.	2589.1
3681	13.099	0.72727	0.	2540.5
3682	13.283	0.72727	0.	2492.2
3683	13.468	0.72727	0.	2444.
3684	13.653	0.72727	0.	2396.
3685	13.838	0.72727	0.	2348.3
3686	14.022	0.72727	0.	2300.7
3687	14.207	0.72727	0.	2253.3
3688	14.392	0.72727	0.	2206.2
3689	14.577	0.72727	0.	2159.2
3690	14.761	0.72727	0.	2112.4
3691	14.946	0.72727	0.	2065.8
3692	15.131	0.72727	0.	2019.4
3693	15.316	0.72727	0.	1973.3
3694	15.501	0.72727	0.	1927.3
3695	15.685	0.72727	0.	1881.5
3696	15.87	0.72727	0.	1835.9
3697	16.055	0.72727	0.	1790.6
3698	16.24	0.72727	0.	1745.4
3699	16.424	0.72727	0.	1700.4
3700	16.609	0.72727	0.	1655.7
3701	16.794	0.72727	0.	1611.1
3702	16.979	0.72727	0.	1566.8
3703	17.164	0.72727	0.	1522.6
3704	17.348	0.72727	0.	1478.7
3705	17.533	0.72727	0.	1435.
3706	17.718	0.72727	0.	1391.4
3707	17.903	0.72727	0.	1348.1
3708	18.087	0.72727	0.	1305.
3709	18.272	0.72727	0.	1262.1
3710	18.457	0.72727	0.	1219.4
3711	18.642	0.72727	0.	1176.9
3712	18.826	0.72727	0.	1134.6
3713	19.011	0.72727	0.	1092.5
3714	19.196	0.72727	0.	1050.6
3715	19.381	0.72727	0.	1009.
3716	19.566	0.72727	0.	967.5
3717	19.75	0.72727	0.	926.24
3718	19.935	0.72727	0.	885.18
3719	20.12	0.72727	0.	844.33
3720	20.305	0.72727	0.	803.69
3721	20.489	0.72727	0.	763.27
3722	20.674	0.72727	0.	723.05
3723	20.859	0.72727	0.	683.05
3724	21.044	0.72727	0.	643.27
3725	21.228	0.72727	0.	603.72
3726	21.413	0.72727	0.	564.41
3727	21.598	0.72727	0.	525.36
3728	21.783	0.72727	0.	486.59
3729	21.968	0.72727	0.	448.13
3730	22.152	0.72727	0.	410.03
3731	22.337	0.72727	0.	372.36
3732	22.522	0.72727	0.	335.2
3733	22.707	0.72727	0.	298.72
3734	22.891	0.72727	0.	263.11
3735	23.076	0.72727	0.	228.72
3736	23.261	0.72727	0.	196.07
3737	23.446	0.72727	0.	165.98
3738	23.63	0.72727	0.	139.74
3739	23.815	0.72727	0.	119.46
3740	2.7514	0.54545	0.	2180.4
3741	2.9362	0.54545	0.	2302.7
3742	3.121	0.54545	0.	2685.8
3743	3.3057	0.54545	0.	3099.4
3744	3.4905	0.54545	0.	3474.3
3745	3.6753	0.54545	0.	3788.9
3746	3.8601	0.54545	0.	4040.5
3747	4.0448	0.54545	0.	4234.3
3748	4.2296	0.54545	0.	4378.2
3749	4.4144	0.54545	0.	4480.6
3750	4.5991	0.54545	0.	4549.2
3751	4.7839	0.54545	0.	4590.5
3752	4.9687	0.54545	0.	4610.2
3753	5.1534	0.54545	0.	4612.9
3754	5.3382	0.54545	0.	4602.1
3755	5.523	0.54545	0.	4581.
3756	5.7078	0.54545	0.	4551.8
3757	5.8925	0.54545	0.	4516.5
3758	6.0773	0.54545	0.	4476.4
3759	6.2621	0.54545	0.	4432.7
3760	6.4468	0.54545	0.	4386.3
3761	6.6316	0.54545	0.	4337.9
3762	6.8164	0.54545	0.	4287.9
3763	7.0011	0.54545	0.	4236.9
3764	7.1859	0.54545	0.	4185.1
3765	7.3707	0.54545	0.	4132.7
3766	7.5555	0.54545	0.	4080.
3767	7.7402	0.54545	0.	4027.
3768	7.925	0.54545	0.	3973.9
3769	8.1098	0.54545	0.	3920.8
3770	8.2945	0.54545	0.	3867.7
3771	8.4793	0.54545	0.	3814.6
3772	8.6641	0.54545	0.	3761.7
3773	8.8489	0.54545	0.	3708.8
3774	9.0336	0.54545	0.	3656.1
3775	9.2184	0.54545	0.	3603.6
3776	9.4032	0.54545	0.	3551.2
3777	9.5879	0.54545	0.	3499.
3778	9.7727	0.54545	0.	3446.9
3779	9.9575	0.54545	0.	3395.1
3780	10.142	0.54545	0.	3343.4
3781	10.327	0.54545	0.	3291.9
3782	10.512	0.54545	0.	3240.5
3783	10.697	0.54545	0.	3189.4
3784	10.881	0.54545	0.	3138.5
3785	11.066	0.54545	0.	3087.7
3786	11.251	0.54545	0.	3037.2
3787	11.436	0.54545	0.	2986.8
3788	11.62	0.54545	0.	2936.7
3789	11.805	0.54545	0.	2886.7
3790	11.99	0.54545	0.	2836.9
3791	12.175	0.54545	0.	2787.3
3792	12.359	0.54545	0.	2737.9
3793	12.544	0.54545	0.	2688.7
3794	12.729	0.54545	0.	2639.7
3795	12.914	0.54545	0.	2590.9
3796	13.099	0.54545	0.	2542.3
3797	13.283	0.54545	0.	2493.9
3798	13.468	0.54545	0.	2445.7
3799	13.653	0.54545	0.	2397.7
3800	13.838	0.54545	0.	2349.9
3801	14.022	0.54545	0.	2302.3
3802	14.207	0.54545	0.	2254.9
3803	14.392	0.54545	0.	2207.7
3804	14.577	0.54545	0.	2160.7
3805	14.761	0.54545	0.	2113.9
3806	14.946	0.54545	0.	2067.3
3807	15.131	0.54545	0.	2020.9
3808	15.316	0.54545	0.	1974.7
3809	15.501	0.54545	0.	1928.7
3810	15.685	0.54545	0.	1882.9
3811	15.87	0.54545	0.	1837.3
3812	16.055	0.54545	0.	1791.9
3813	16.24	0.54545	0.	1746.7
3814	16.424	0.54545	0.	1701.7
3815	16.609	0.54545	0.	1656.9
3816	16.794	0.54545	0.	1612.3
3817	16.979	0.54545	0.	1568.
3818	17.164	0.54545	0.	1523.8
3819	17.348	0.54545	0.	1479.8
3820	17.533	0.54545	0.	1436.
3821	17.718	0.54545	0.	1392.5
3822	17.903	0.54545	0.	1349.1
3823	18.087	0.54545	0.	1305.9
3824	18.272	0.54545	0.	1263.
3825	18.457	0.54545	0.	1220.2
3826	18.642	0.54545	0.	1177.6
3827	18.826	0.54545	0.	1135.3
3828	19.011	0.54545	0.	1093.1
3829	19.196	0.54545	0.	1051.1
3830	19.381	0.54545	0.	1009.3
3831	19.566	0.54545	0.	967.74
3832	19.75	0.54545	0.	926.35
3833	19.935	0.54545	0.	885.14
3834	20.12	0.54545	0.	844.13
3835	20.305	0.54545	0.	803.31
3836	20.489	0.54545	0.	762.67
3837	20.674	0.54545	0.	722.23
3838	20.859	0.54545	0.	681.97
3839	21.044	0.54545	0.	641.91
3840	21.228	0.54545	0.	602.04
3841	21.413	0.54545	0.	562.37
3842	21.598	0.54545	0.	522.91
3843	21.783	0.54545	0.	483.68
3844	21.968	0.54545	0.	444.69
3845	22.152	0.54545	0.	405.97
3846	22.337	0.54545	0.	367.58
3847	22.522	0.54545	0.	329.58
3848	22.707	0.54545	0.	292.08
3849	22.891	0.54545	0.	255.26
3850	23.076	0.54545	0.	219.4
3851	23.261	0.54545	0.	184.98
3852	23.446	0.54545	0.	152.86
3853	23.63	0.54545	0.	124.6
3854	23.815	0.54545	0.	102.84
3855	2.7514	0.36364	0.	1558.
3856	2.9362	0.36364	0.	1865.
3857	3.121	0.36364	0.	2359.6
3858	3.3057	0.36364	0.	2840.7
3859	3.4905	0.36364	0.	3261.8
3860	3.6753	0.36364	0.	3612.6
3861	3.8601	0.36364	0.	3894.8
3862	4.0448	0.36364	0.	4115.1
3863	4.2296	0.36364	0.	4282.1
3864	4.4144	0.36364	0.	4404.2
3865	4.5991	0.36364	0.	4489.5
3866	4.7839	0.36364	0.	4544.8
3867	4.9687	0.36364	0.	4576.1
3868	5.1534	0.36364	0.	4588.2
3869	5.3382	0.36364	0.	4585.1
3870	5.523	0.36364	0.	4570.1
3871	5.7078	0.36364	0.	4545.8
3872	5.8925	0.36364	0.	4514.2
3873	6.0773	0.36364	0.	4477.
3874	6.2621	0.36364	0.	4435.6
3875	6.4468	0.36364	0.	4390.8
3876	6.6316	0.36364	0.	4343.6
3877	6.8164	0.36364	0.	4294.4
3878	7.0011	0.36364	0.	4243.9
3879	7.1859	0.36364	0.	4192.4
3880	7.3707	0.36364	0.	4140.2
3881	7.5555	0.36364	0.	4087.5
3882	7.7402	0.36364	0.	4034.4
3883	7.925	0.36364	0.	3981.2
3884	8.1098	0.36364	0.	3927.8
3885	8.2945	0.36364	0.	3874.4
3886	8.4793	0.36364	0.	3821.1
3887	8.6641	0.36364	0.	3767.9
3888	8.8489	0.36364	0.	3714.7
3889	9.0336	0.36364	0.	3661.7
3890	9.2184	0.36364	0.	3608.9
3891	9.4032	0.36364	0.	3556.2
3892	9.5879	0.36364	0.	3503.7
3893	9.7727	0.36364	0.	3451.4
3894	9.9575	0.36364	0.	3399.3
3895	10.142	0.36364	0.	3347.4
3896	10.327	0.36364	0.	3295.7
3897	10.512	0.36364	0.	3244.2
3898	10.697	0.36364	0.	3192.9
3899	10.881	0.36364	0.	3141.8
3900	11.066	0.36364	0.	3090.9
3901	11.251	0.36364	0.	3040.2
3902	11.436	0.36364	0.	2989.7
3903	11.62	0.36364	0.	2939.4
3904	11.805	0.36364	0.	2889.3
3905	11.99	0.36364	0.	2839.4
3906	12.175	0.36364	0.	2789.7
3907	12.359	0.36364	0.	2740.3
3908	12.544	0.36364	0.	2691.
3909	12.729	0.36364	0.	2641.9
3910	12.914	0.36364	0.	2593.1
3911	13.099	0.36364	0.	2544.4
3912	13.283	0.36364	0.	2495.9
3913	13.468	0.36364	0.	2447.7
3914	13.653	0.36364	0.	2399.6
3915	13.838	0.36364	0.	2351.8
3916	14.022	0.36364	0.	2304.1
3917	14.207	0.36364	0.	2256.7
3918	14.392	0.36364	0.	2209.5
3919	14.577	0.36364	0.	2162.4
3920	14.761	0.36364	0.	2115.6
3921	14.946	0.36364	0.	2069.
3922	15.131	0.36364	0.	2022.5
3923	15.316	0.36364	0.	1976.3
3924	15.501	0.36364	0.	1930.3
3925	15.685	0.36364	0.	1884.5
3926	15.87	0.36364	0.	1838.9
3927	16.055	0.36364	0.	1793.5
3928	16.24	0.36364	0.	1748.3
3929	16.424	0.36364	0.	1703.3
3930	16.609	0.36364	0.	1658.5
3931	16.794	0.36364	0.	1613.9
3932	16.979	0.36364	0.	1569.5
3933	17.164	0.36364	0.	1525.3
3934	17.348	0.36364	0.	1481.3
3935	17.533	0.36364	0.	1437.5
3936	17.718	0.36364	0.	1393.8
3937	17.903	0.36364	0.	1350.4
3938	18.087	0.36364	0.	1307.2
3939	18.272	0.36364	0.	1264.2
3940	18.457	0.36364	0.	1221.4
3941	18.642	0.36364	0.	1178.8
3942	18.826	0.36364	0.	1136.3
3943	19.011	0.36364	0.	1094.1
3944	19.196	0.36364	0.	1052.
3945	19.381	0.36364	0.	1010.1
3946	19.566	0.36364	0.	968.46
3947	19.75	0.36364	0.	926.94
3948	19.935	0.36364	0.	885.61
3949	20.12	0.36364	0.	844.45
3950	20.305	0.36364	0.	803.46
3951	20.489	0.36364	0.	762.65
3952	20.674	0.36364	0.	722.
3953	20.859	0.36364	0.	681.52
3954	21.044	0.36364	0.	641.2
3955	21.228	0.36364	0.	601.04
3956	21.413	0.36364	0.	561.05
3957	21.598	0.36364	0.	521.22
3958	21.783	0.36364	0.	481.56
3959	21.968	0.36364	0.	442.09
3960	22.152	0.36364	0.	402.81
3961	22.337	0.36364	0.	363.75
3962	22.522	0.36364	0.	324.95
3963	22.707	0.36364	0.	286.47
3964	22.891	0.36364	0.	248.42
3965	23.076	0.36364	0.	210.97
3966	23.261	0.36364	0.	174.49
3967	23.446	0.36364	0.	139.64
3968	23.63	0.36364	0.	108.04
3969	23.815	0.36364	0.	83.389
3970	2.7514	0.18182	0.	1068.4
3971	2.9362	0.18182	0.	1610.5
3972	3.121	0.18182	0.	2178.8
3973	3.3057	0.18182	0.	2687.7
3974	3.4905	0.18182	0.	3124.7
3975	3.6753	0.18182	0.	3489.5
3976	3.8601	0.18182	0.	3786.3
3977	4.0448	0.18182	0.	4021.7
3978	4.2296	0.18182	0.	4203.6
3979	4.4144	0.18182	0.	4339.8
3980	4.5991	0.18182	0.	4437.9
3981	4.7839	0.18182	0.	4504.5
3982	4.9687	0.18182	0.	4545.6
3983	5.1534	0.18182	0.	4565.9
3984	5.3382	0.18182	0.	4569.7
3985	5.523	0.18182	0.	4560.3
3986	5.7078	0.18182	0.	4540.6
3987	5.8925	0.18182	0.	4512.6
3988	6.0773	0.18182	0.	4478.3
3989	6.2621	0.18182	0.	4439.
3990	6.4468	0.18182	0.	4395.9
3991	6.6316	0.18182	0.	4349.9
3992	6.8164	0.18182	0.	4301.6
3993	7.0011	0.18182	0.	4251.7
3994	7.1859	0.18182	0.	4200.6
3995	7.3707	0.18182	0.	4148.6
3996	7.5555	0.18182	0.	4095.9
3997	7.7402	0.18182	0.	4042.8
3998	7.925	0.18182	0.	3989.5
3999	8.1098	0.18182	0.	3936.
4000	8.2945	0.18182	0.	3882.4
4001	8.4793	0.18182	0.	3828.9
4002	8.6641	0.18182	0.	3775.4
4003	8.8489	0.18182	0.	3722.
4004	9.0336	0.18182	0.	3668.8
4005	9.2184	0.18182	0.	3615.7
4006	9.4032	0.18182	0.	3562.8
4007	9.5879	0.18182	0.	3510.1
4008	9.7727	0.18182	0.	3457.6
4009	9.9575	0.18182	0.	3405.3
4010	10.142	0.18182	0.	3353.2
4011	10.327	0.18182	0.	3301.4
4012	10.512	0.18182	0.	3249.7
4013	10.697	0.18182	0.	3198.2
4014	10.881	0.18182	0.	3147.
4015	11.066	0.18182	0.	3096.
4016	11.251	0.18182	0.	3045.2
4017	11.436	0.18182	0.	2994.6
4018	11.62	0.18182	0.	2944.2
4019	11.805	0.18182	0.	2894.1
4020	11.99	0.18182	0.	2844.1
4021	12.175	0.18182	0.	2794.4
4022	12.359	0.18182	0.	2744.9
4023	12.544	0.18182	0.	2695.6
4024	12.729	0.18182	0.	2646.5
4025	12.914	0.18182	0.	2597.6
4026	13.099	0.18182	0.	2548.9
4027	13.283	0.18182	0.	2500.4
4028	13.468	0.18182	0.	2452.1
4029	13.653	0.18182	0.	2404.1
4030	13.838	0.18182	0.	2356.2
4031	14.022	0.18182	0.	2308.6
4032	14.207	0.18182	0.	2261.2
4033	14.392	0.18182	0.	2213.9
4034	14.577	0.18182	0.	2166.9
4035	14.761	0.18182	0.	2120.1
4036	14.946	0.18182	0.	2073.5
4037	15.131	0.18182	0.	2027.1
4038	15.316	0.18182	0.	1980.9
4039	15.501	0.18182	0.	1934.9
4040	15.685	0.18182	0.	1889.1
4041	15.87	0.18182	0.	1843.5
4042	16.055	0.18182	0.	1798.1
4043	16.24	0.18182	0.	1753.
4044	16.424	0.18182	0.	1708.
4045	16.609	0.18182	0.	1663.2
4046	16.794	0.18182	0.	1618.6
4047	16.979	0.18182	0.	1574.3
4048	17.164	0.18182	0.	1530.1
4049	17.348	0.18182	0.	1486.1
4050	17.533	0.18182	0.	1442.3
4051	17.718	0.18182	0.	1398.8
4052	17.903	0.18182	0.	1355.4
4053	18.087	0.18182	0.	1312.2
4054	18.272	0.18182	0.	1269.2
4055	18.457	0.18182	0.	1226.4
4056	18.642	0.18182	0.	1183.7
4057	18.826	0.18182	0.	1141.3
4058	19.011	0.18182	0.	1099.
4059	19.196	0.18182	0.	1056.9
4060	19.381	0.18182	0.	1015.
4061	19.566	0.18182	0.	973.3
4062	19.75	0.18182	0.	931.73
4063	19.935	0.18182	0.	890.33
4064	20.12	0.18182	0.	849.1
4065	20.305	0.18182	0.	808.01
4066	20.489	0.18182	0.	767.08
4067	20.674	0.18182	0.	726.29
4068	20.859	0.18182	0.	685.65
4069	21.044	0.18182	0.	645.14
4070	21.228	0.18182	0.	604.76
4071	21.413	0.18182	0.	564.51
4072	21.598	0.18182	0.	524.38
4073	21.783	0.18182	0.	484.37
4074	21.968	0.18182	0.	444.47
4075	22.152	0.18182	0.	404.69
4076	22.337	0.18182	0.	365.03
4077	22.522	0.18182	0.	325.49
4078	22.707	0.18182	0.	286.09
4079	22.891	0.18182	0.	246.86
4080	23.076	0.18182	0.	207.85
4081	23.261	0.18182	0.	169.17
4082	23.446	0.18182	0.	131.04
4083	23.63	0.18182	0.	94.131
4084	23.815	0.18182	0.	61.789
4085	23.815	0.18182	0.1	61.789
4086	23.63	0.18182	0.1	94.131
4087	23.446	0.18182	0.1	131.04
4088	23.261	0.18182	0.1	169.17
4089	23.076	0.18182	0.1	207.85
4090	22.891	0.18182	0.1	246.86
4091	22.707	0.18182	0.1	286.09
4092	22.522	0.18182	0.1	325.49
4093	22.337	0.18182	0.1	365.03
4094	22.152	0.18182	0.1	404.69
4095	21.968	0.18182	0.1	444.47
4096	21.783	0.18182	0.1	484.37
4097	21.598	0.18182	0.1	524.38
4098	21.413	0.18182	0.1	564.51
4099	21.228	0.18182	0.1	604.76
4100	21.044	0.18182	0.1	645.14
4101	20.859	0.18182	0.1	685.65
4102	20.674	0.18182	0.1	726.29
4103	20.489	0.18182	0.1	767.08
4104	20.305	0.18182	0.1	808.01
4105	20.12	0.18182	0.1	849.1
4106	19.935	0.18182	0.1	890.33
4107	19.75	0.18182	0.1	931.73
4108	19.566	0.18182	0.1	973.3
4109	19.381	0.18182	0.1	1015.
4110	19.196	0.18182	0.1	1056.9
4111	19.011	0.18182	0.1	1099.
4112	18.826	0.18182	0.1	1141.3
4113	18.642	0.18182	0.1	1183.7
4114	18.457	0.18182	0.1	1226.4
4115	18.272	0.18182	0.1	1269.2
4116	18.087	0.18182	0.1	1312.2
4117	17.903	0.18182	0.1	1355.4
4118	17.718	0.18182	0.1	1398.8
4119	17.533	0.18182	0.1	1442.3
4120	17.348	0.18182	0.1	1486.1
4121	17.164	0.18182	0.1	1530.1
4122	16.979	0.18182	0.1	1574.3
4123	16.794	0.18182	0.1	1618.6
4124	16.609	0.18182	0.1	1663.2
4125	16.424	0.18182	0.1	1708.
4126	16.24	0.18182	0.1	1753.
4127	16.055	0.18182	0.1	1798.1
4128	15.87	0.18182	0.1	1843.5
4129	15.685	0.18182	0.1	1889.1
4130	15.501	0.18182	0.1	1934.9
4131	15.316	0.18182	0.1	1980.9
4132	15.131	0.18182	0.1	2027.1
4133	14.946	0.18182	0.1	2073.5
4134	14.761	0.18182	0.1	2120.1
4135	14.577	0.18182	0.1	2166.9
4136	14.392	0.18182	0.1	2213.9
4137	14.207	0.18182	0.1	2261.2
4138	14.022	0.18182	0.1	2308.6
4139	13.838	0.18182	0.1	2356.2
4140	13.653	0.18182	0.1	2404.1
4141	13.468	0.18182	0.1	2452.1
4142	13.283	0.18182	0.1	2500.4
4143	13.099	0.18182	0.1	2548.9
4144	12.914	0.18182	0.1	2597.6
4145	12.729	0.18182	0.1	2646.5
4146	12.544	0.18182	0.1	2695.6
4147	12.359	0.18182	0.1	2744.9
4148	12.175	0.18182	0.1	2794.4
4149	11.99	0.18182	0.1	2844.1
4150	11.805	0.18182	0.1	2894.1
4151	11.62	0.18182	0.1	2944.2
4152	11.436	0.18182	0.1	2994.6
4153	11.251	0.18182	0.1	3045.2
4154	11.066	0.18182	0.1	3096.
4155	10.881	0.18182	0.1	3147.
4156	10.697	0.18182	0.1	3198.2
4157	10.512	0.18182	0.1	3249.7
4158	10.327	0.18182	0.1	3301.4
4159	10.142	0.18182	0.1	3353.2
4160	9.9575	0.18182	0.1	3405.3
4161	9.7727	0.18182	0.1	3457.6
4162	9.5879	0.18182	0.1	3510.1
4163	9.4032	0.18182	0.1	3562.8
4164	9.2184	0.18182	0.1	3615.7
4165	9.0336	0.18182	0.1	3668.8
4166	8.8489	0.18182	0.1	3722.
4167	8.6641	0.18182	0.1	3775.4
4168	8.4793	0.18182	0.1	3828.9
4169	8.2945	0.18182	0.1	3882.4
4170	8.1098	0.18182	0.1	3936.
4171	7.925	0.18182	0.1	3989.5
4172	7.7402	0.18182	0.1	4042.8
4173	7.5555	0.18182	0.1	4095.9
4174	7.3707	0.18182	0.1	4148.6
4175	7.1859	0.18182	0.1	4200.6
4176	7.0011	0.18182	0.1	4251.7
4177	6.8164	0.18182	0.1	4301.6
4178	6.6316	0.18182	0.1	4349.9
4179	6.4468	0.18182	0.1	4395.9
4180	6.2621	0.18182	0.1	4439.
4181	6.0773	0.18182	0.1	4478.3
4182	5.8925	0.18182	0.1	4512.6
4183	5.7078	0.18182	0.1	4540.6
4184	5.523	0.18182	0.1	4560.3
4185	5.3382	0.18182	0.1	4569.7
4186	5.1534	0.18182	0.1	4565.9
4187	4.9687	0.18182	0.1	4545.6
4188	4.7839	0.18182	0.1	4504.5
4189	4.5991	0.18182	0.1	4437.9
4190	4.4144	0.18182	0.1	4339.8
4191	4.2296	0.18182	0.1	4203.6
4192	4.0448	0.18182	0.1	4021.7
4193	3.8601	0.18182	0.1	3786.3
4194	3.6753	0.18182	0.1	3489.5
4195	3.4905	0.18182	0.1	3124.7
4196	3.3057	0.18182	0.1	2687.7
4197	3.121	0.18182	0.1	2178.8
4198	2.9362	0.18182	0.1	1610.5
4199	2.7514	0.18182	0.1	1068.4
4200	23.815	0.36364	0.1	83.389
4201	23.63	0.36364	0.1	108.04
4202	23.446	0.36364	0.1	139.64
4203	23.261	0.36364	0.1	174.49
4204	23.076	0.36364	0.1	210.97
4205	22.891	0.36364	0.1	248.42
4206	22.707	0.36364	0.1	286.47
4207	22.522	0.36364	0.1	324.95
4208	22.337	0.36364	0.1	363.75
4209	22.152	0.36364	0.1	402.81
4210	21.968	0.36364	0.1	442.09
4211	21.783	0.36364	0.1	481.56
4212	21.598	0.36364	0.1	521.22
4213	21.413	0.36364	0.1	561.05
4214	21.228	0.36364	0.1	601.04
4215	21.044	0.36364	0.1	641.2
4216	20.859	0.36364	0.1	681.52
4217	20.674	0.36364	0.1	722.
4218	20.489	0.36364	0.1	762.65
4219	20.305	0.36364	0.1	803.46
4220	20.12	0.36364	0.1	844.45
4221	19.935	0.36364	0.1	885.61
4222	19.75	0.36364	0.1	926.94
4223	19.566	0.36364	0.1	968.46
4224	19.381	0.36364	0.1	1010.1
4225	19.196	0.36364	0.1	1052.
4226	19.011	0.36364	0.1	1094.1
4227	18.826	0.36364	0.1	1136.3
4228	18.642	0.36364	0.1	1178.8
4229	18.457	0.36364	0.1	1221.4
4230	18.272	0.36364	0.1	1264.2
4231	18.087	0.36364	0.1	1307.2
4232	17.903	0.36364	0.1	1350.4
4233	17.718	0.36364	0.1	1393.8
4234	17.533	0.36364	0.1	1437.5
4235	17.348	0.36364	0.1	1481.3
4236	17.164	0.36364	0.1	1525.3
4237	16.979	0.36364	0.1	1569.5
4238	16.794	0.36364	0.1	1613.9
4239	16.609	0.36364	0.1	1658.5
4240	16.424	0.36364	0.1	1703.3
4241	16.24	0.36364	0.1	1748.3
4242	16.055	0.36364	0.1	1793.5
4243	15.87	0.36364	0.1	1838.9
4244	15.685	0.36364	0.1	1884.5
4245	15.501	0.36364	0.1	1930.3
4246	15.316	0.36364	0.1	1976.3
4247	15.131	0.36364	0.1	2022.5
4248	14.946	0.36364	0.1	2069.
4249	14.761	0.36364	0.1	2115.6
4250	14.577	0.36364	0.1	2162.4
4251	14.392	0.36364	0.1	2209.5
4252	14.207	0.36364	0.1	2256.7
4253	14.022	0.36364	0.1	2304.1
4254	13.838	0.36364	0.1	2351.8
4255	13.653	0.36364	0.1	2399.6
4256	13.468	0.36364	0.1	2447.7
4257	13.283	0.36364	0.1	2495.9
4258	13.099	0.36364	0.1	2544.4
4259	12.914	0.36364	0.1	2593.1
4260	12.729	0.36364	0.1	2641.9
4261	12.544	0.36364	0.1	2691.
4262	12.359	0.36364	0.1	2740.3
4263	12.175	0.36364	0.1	2789.7
4264	11.99	0.36364	0.1	2839.4
4265	11.805	0.36364	0.1	2889.3
4266	11.62	0.36364	0.1	2939.4
4267	11.436	0.36364	0.1	2989.7
4268	11.251	0.36364	0.1	3040.2
4269	11.066	0.36364	0.1	3090.9
4270	10.881	0.36364	0.1	3141.8
4271	10.697	0.36364	0.1	3192.9
4272	10.512	0.36364	0.1	3244.2
4273	10.327	0.36364	0.1	3295.7
4274	10.142	0.36364	0.1	3347.4
4275	9.9575	0.36364	0.1	3399.3
4276	9.7727	0.36364	0.1	3451.4
4277	9.5879	0.36364	0.1	3503.7
4278	9.4032	0.36364	0.1	3556.2
4279	9.2184	0.36364	0.1	3608.9
4280	9.0336	0.36364	0.1	3661.7
4281	8.8489	0.36364	0.1	3714.7
4282	8.6641	0.36364	0.1	3767.9
4283	8.4793	0.36364	0.1	3821.1
4284	8.2945	0.36364	0.1	3874.4
4285	8.1098	0.36364	0.1	3927.8
4286	7.925	0.36364	0.1	3981.2
4287	7.7402	0.36364	0.1	4034.4
4288	7.5555	0.36364	0.1	4087.5
4289	7.3707	0.36364	0.1	4140.2
4290	7.1859	0.36364	0.1	4192.4
4291	7.0011	0.36364	0.1	4243.9
4292	6.8164	0.36364	0.1	4294.4
4293	6.6316	0.36364	0.1	4343.6
4294	6.4468	0.36364	0.1	4390.8
4295	6.2621	0.36364	0.1	4435.6
4296	6.0773	0.36364	0.1	4477.
4297	5.8925	0.36364	0.1	4514.2
4298	5.7078	0.36364	0.1	4545.8
4299	5.523	0.36364	0.1	4570.1
4300	5.3382	0.36364	0.1	4585.1
4301	5.1534	0.36364	0.1	4588.2
4302	4.9687	0.36364	0.1	4576.1
4303	4.7839	0.36364	0.1	4544.8
4304	4.5991	0.36364	0.1	4489.5
4305	4.4144	0.36364	0.1	4404.2
4306	4.2296	0.36364	0.1	4282.1
4307	4.0448	0.36364	0.1	4115.1
4308	3.8601	0.36364	0.1	3894.8
4309	3.6753	0.36364	0.1	3612.6
4310	3.4905	0.36364	0.1	3261.8
4311	3.3057	0.36364	0.1	2840.7
4312	3.121	0.36364	0.1	2359.6
4313	2.9362	0.36364	0.1	1865.
4314	2.7514	0.36364	0.1	1558.
4315	23.815	0.54545	0.1	102.84
4316	23.63	0.54545	0.1	124.6
4317	23.446	0.54545	0.1	152.86
4318	23.261	0.54545	0.1	184.98
4319	23.076	0.54545	0.1	219.4
4320	22.891	0.54545	0.1	255.26
4321	22.707	0.54545	0.1	292.08
4322	22.522	0.54545	0.1	329.58
4323	22.337	0.54545	0.1	367.58
4324	22.152	0.54545	0.1	405.97
4325	21.968	0.54545	0.1	444.69
4326	21.783	0.54545	0.1	483.68
4327	21.598	0.54545	0.1	522.91
4328	21.413	0.54545	0.1	562.37
4329	21.228	0.54545	0.1	602.04
4330	21.044	0.54545	0.1	641.91
4331	20.859	0.54545	0.1	681.97
4332	20.674	0.54545	0.1	722.23
4333	20.489	0.54545	0.1	762.67
4334	20.305	0.54545	0.1	803.31
4335	20.12	0.54545	0.1	844.13
4336	19.935	0.54545	0.1	885.14
4337	19.75	0.54545	0.1	926.35
4338	19.566	0.54545	0.1	967.74
4339	19.381	0.54545	0.1	1009.3
4340	19.196	0.54545	0.1	1051.1
4341	19.011	0.54545	0.1	1093.1
4342	18.826	0.54545	0.1	1135.3
4343	18.642	0.54545	0.1	1177.6
4344	18.457	0.54545	0.1	1220.2
4345	18.272	0.54545	0.1	1263.
4346	18.087	0.54545	0.1	1305.9
4347	17.903	0.54545	0.1	1349.1
4348	17.718	0.54545	0.1	1392.5
4349	17.533	0.54545	0.1	1436.
4350	17.348	0.54545	0.1	1479.8
4351	17.164	0.54545	0.1	1523.8
4352	16.979	0.54545	0.1	1568.
4353	16.794	0.54545	0.1	1612.3
4354	16.609	0.54545	0.1	1656.9
4355	16.424	0.54545	0.1	1701.7
4356	16.24	0.54545	0.1	1746.7
4357	16.055	0.54545	0.1	1791.9
4358	15.87	0.54545	0.1	1837.3
4359	15.685	0.54545	0.1	1882.9
4360	15.501	0.54545	0.1	1928.7
4361	15.316	0.54545	0.1	1974.7
4362	15.131	0.54545	0.1	2020.9
4363	14.946	0.54545	0.1	2067.3
4364	14.761	0.54545	0.1	2113.9
4365	14.577	0.54545	0.1	2160.7
4366	14.392	0.54545	0.1	2207.7
4367	14.207	0.54545	0.1	2254.9
4368	14.022	0.54545	0.1	2302.3
4369	13.838	0.54545	0.1	2349.9
4370	13.653	0.54545	0.1	2397.7
4371	13.468	0.54545	0.1	2445.7
4372	13.283	0.54545	0.1	2493.9
4373	13.099	0.54545	0.1	2542.3
4374	12.914	0.54545	0.1	2590.9
4375	12.729	0.54545	0.1	2639.7
4376	12.544	0.54545	0.1	2688.7
4377	12.359	0.54545	0.1	2737.9
4378	12.175	0.54545	0.1	2787.3
4379	11.99	0.54545	0.1	2836.9
4380	11.805	0.54545	0.1	2886.7
4381	11.62	0.54545	0.1	2936.7
4382	11.436	0.54545	0.1	2986.8
4383	11.251	0.54545	0.1	3037.2
4384	11.066	0.54545	0.1	3087.7
4385	10.881	0.54545	0.1	3138.5
4386	10.697	0.54545	0.1	3189.4
4387	10.512	0.54545	0.1	3240.5
4388	10.327	0.54545	0.1	3291.9
4389	10.142	0.54545	0.1	3343.4
4390	9.9575	0.54545	0.1	3395.
4391	9.7727	0.54545	0.1	3446.9
4392	9.5879	0.54545	0.1	3499.
4393	9.4032	0.54545	0.1	3551.2
4394	9.2184	0.54545	0.1	3603.6
4395	9.0336	0.54545	0.1	3656.1
4396	8.8489	0.54545	0.1	3708.8
4397	8.6641	0.54545	0.1	3761.7
4398	8.4793	0.54545	0.1	3814.6
4399	8.2945	0.54545	0.1	3867.7
4400	8.1098	0.54545	0.1	3920.8
4401	7.925	0.54545	0.1	3973.9
4402	7.7402	0.54545	0.1	4027.
4403	7.5555	0.54545	0.1	4080.
4404	7.3707	0.54545	0.1	4132.7
4405	7.1859	0.54545	0.1	4185.1
4406	7.0011	0.54545	0.1	4236.9
4407	6.8164	0.54545	0.1	4287.9
4408	6.6316	0.54545	0.1	4337.8
4409	6.4468	0.54545	0.1	4386.3
4410	6.2621	0.54545	0.1	4432.7
4411	6.0773	0.54545	0.1	4476.4
4412	5.8925	0.54545	0.1	4516.5
4413	5.7078	0.54545	0.1	4551.8
4414	5.523	0.54545	0.1	4581.
4415	5.3382	0.54545	0.1	4602.1
4416	5.1534	0.54545	0.1	4612.9
4417	4.9687	0.54545	0.1	4610.2
4418	4.7839	0.54545	0.1	4590.5
4419	4.5991	0.54545	0.1	4549.2
4420	4.4144	0.54545	0.1	4480.6
4421	4.2296	0.54545	0.1	4378.2
4422	4.0448	0.54545	0.1	4234.3
4423	3.8601	0.54545	0.1	4040.5
4424	3.6753	0.54545	0.1	3788.9
4425	3.4905	0.54545	0.1	3474.3
4426	3.3057	0.54545	0.1	3099.4
4427	3.121	0.54545	0.1	2685.8
4428	2.9362	0.54545	0.1	2302.7
4429	2.7514	0.54545	0.1	2180.4
4430	23.815	0.72727	0.1	119.46
4431	23.63	0.72727	0.1	139.74
4432	23.446	0.72727	0.1	165.98
4433	23.261	0.72727	0.1	196.07
4434	23.076	0.72727	0.1	228.72
4435	22.891	0.72727	0.1	263.11
4436	22.707	0.72727	0.1	298.72
4437	22.522	0.72727	0.1	335.2
4438	22.337	0.72727	0.1	372.36
4439	22.152	0.72727	0.1	410.03
4440	21.968	0.72727	0.1	448.13
4441	21.783	0.72727	0.1	486.59
4442	21.598	0.72727	0.1	525.36
4443	21.413	0.72727	0.1	564.41
4444	21.228	0.72727	0.1	603.72
4445	21.044	0.72727	0.1	643.27
4446	20.859	0.72727	0.1	683.05
4447	20.674	0.72727	0.1	723.05
4448	20.489	0.72727	0.1	763.27
4449	20.305	0.72727	0.1	803.69
4450	20.12	0.72727	0.1	844.33
4451	19.935	0.72727	0.1	885.18
4452	19.75	0.72727	0.1	926.24
4453	19.566	0.72727	0.1	967.5
4454	19.381	0.72727	0.1	1009.
4455	19.196	0.72727	0.1	1050.6
4456	19.011	0.72727	0.1	1092.5
4457	18.826	0.72727	0.1	1134.6
4458	18.642	0.72727	0.1	1176.9
4459	18.457	0.72727	0.1	1219.4
4460	18.272	0.72727	0.1	1262.1
4461	18.087	0.72727	0.1	1305.
4462	17.903	0.72727	0.1	1348.1
4463	17.718	0.72727	0.1	1391.4
4464	17.533	0.72727	0.1	1435.
4465	17.348	0.72727	0.1	1478.7
4466	17.164	0.72727	0.1	1522.6
4467	16.979	0.72727	0.1	1566.8
4468	16.794	0.72727	0.1	1611.1
4469	16.609	0.72727	0.1	1655.7
4470	16.424	0.72727	0.1	1700.4
4471	16.24	0.72727	0.1	1745.4
4472	16.055	0.72727	0.1	1790.6
4473	15.87	0.72727	0.1	1835.9
4474	15.685	0.72727	0.1	1881.5
4475	15.501	0.72727	0.1	1927.3
4476	15.316	0.72727	0.1	1973.3
4477	15.131	0.72727	0.1	2019.4
4478	14.946	0.72727	0.1	2065.8
4479	14.761	0.72727	0.1	2112.4
4480	14.577	0.72727	0.1	2159.2
4481	14.392	0.72727	0.1	2206.2
4482	14.207	0.72727	0.1	2253.3
4483	14.022	0.72727	0.1	2300.7
4484	13.838	0.72727	0.1	2348.3
4485	13.653	0.72727	0.1	2396.
4486	13.468	0.72727	0.1	2444.
4487	13.283	0.72727	0.1	2492.2
4488	13.099	0.72727	0.1	2540.5
4489	12.914	0.72727	0.1	2589.1
4490	12.729	0.72727	0.1	2637.8
4491	12.544	0.72727	0.1	2686.7
4492	12.359	0.72727	0.1	2735.8
4493	12.175	0.72727	0.1	2785.1
4494	11.99	0.72727	0.1	2834.6
4495	11.805	0.72727	0.1	2884.3
4496	11.62	0.72727	0.1	2934.2
4497	11.436	0.72727	0.1	2984.2
4498	11.251	0.72727	0.1	3034.4
4499	11.066	0.72727	0.1	3084.9
4500	10.881	0.72727	0.1	3135.4
4501	10.697	0.72727	0.1	3186.2
4502	10.512	0.72727	0.1	3237.2
4503	10.327	0.72727	0.1	3288.3
4504	10.142	0.72727	0.1	3339.6
4505	9.9575	0.72727	0.1	3391.
4506	9.7727	0.72727	0.1	3442.7
4507	9.5879	0.72727	0.1	3494.5
4508	9.4032	0.72727	0.1	3546.4
4509	9.2184	0.72727	0.1	3598.5
4510	9.0336	0.72727	0.1	3650.8
4511	8.8489	0.72727	0.1	3703.2
4512	8.6641	0.72727	0.1	3755.7
4513	8.4793	0.72727	0.1	3808.4
4514	8.2945	0.72727	0.1	3861.1
4515	8.1098	0.72727	0.1	3914.
4516	7.925	0.72727	0.1	3966.8
4517	7.7402	0.72727	0.1	4019.7
4518	7.5555	0.72727	0.1	4072.5
4519	7.3707	0.72727	0.1	4125.2
4520	7.1859	0.72727	0.1	4177.7
4521	7.0011	0.72727	0.1	4229.7
4522	6.8164	0.72727	0.1	4281.2
4523	6.6316	0.72727	0.1	4331.9
4524	6.4468	0.72727	0.1	4381.5
4525	6.2621	0.72727	0.1	4429.5
4526	6.0773	0.72727	0.1	4475.4
4527	5.8925	0.72727	0.1	4518.4
4528	5.7078	0.72727	0.1	4557.7
4529	5.523	0.72727	0.1	4591.9
4530	5.3382	0.72727	0.1	4619.6
4531	5.1534	0.72727	0.1	4638.6
4532	4.9687	0.72727	0.1	4646.5
4533	4.7839	0.72727	0.1	4640.
4534	4.5991	0.72727	0.1	4615.1
4535	4.4144	0.72727	0.1	4566.9
4536	4.2296	0.72727	0.1	4489.6
4537	4.0448	0.72727	0.1	4376.5
4538	3.8601	0.72727	0.1	4220.4
4539	3.6753	0.72727	0.1	4014.9
4540	3.4905	0.72727	0.1	3756.8
4541	3.3057	0.72727	0.1	3452.8
4542	3.121	0.72727	0.1	3130.3
4543	2.9362	0.72727	0.1	2861.4
4544	2.7514	0.72727	0.1	2884.6
4545	23.815	0.90909	0.1	133.76
4546	23.63	0.90909	0.1	153.17
4547	23.446	0.90909	0.1	178.09
4548	23.261	0.90909	0.1	206.75
4549	23.076	0.90909	0.1	238.02
4550	22.891	0.90909	0.1	271.17
4551	22.707	0.90909	0.1	305.68
4552	22.522	0.90909	0.1	341.22
4553	22.337	0.90909	0.1	377.55
4554	22.152	0.90909	0.1	414.51
4555	21.968	0.90909	0.1	451.99
4556	21.783	0.90909	0.1	489.9
4557	21.598	0.90909	0.1	528.19
4558	21.413	0.90909	0.1	566.81
4559	21.228	0.90909	0.1	605.74
4560	21.044	0.90909	0.1	644.95
4561	20.859	0.90909	0.1	684.43
4562	20.674	0.90909	0.1	724.16
4563	20.489	0.90909	0.1	764.13
4564	20.305	0.90909	0.1	804.35
4565	20.12	0.90909	0.1	844.79
4566	19.935	0.90909	0.1	885.46
4567	19.75	0.90909	0.1	926.36
4568	19.566	0.90909	0.1	967.47
4569	19.381	0.90909	0.1	1008.8
4570	19.196	0.90909	0.1	1050.4
4571	19.011	0.90909	0.1	1092.1
4572	18.826	0.90909	0.1	1134.1
4573	18.642	0.90909	0.1	1176.3
4574	18.457	0.90909	0.1	1218.8
4575	18.272	0.90909	0.1	1261.4
4576	18.087	0.90909	0.1	1304.2
4577	17.903	0.90909	0.1	1347.3
4578	17.718	0.90909	0.1	1390.6
4579	17.533	0.90909	0.1	1434.1
4580	17.348	0.90909	0.1	1477.8
4581	17.164	0.90909	0.1	1521.7
4582	16.979	0.90909	0.1	1565.8
4583	16.794	0.90909	0.1	1610.1
4584	16.609	0.90909	0.1	1654.6
4585	16.424	0.90909	0.1	1699.3
4586	16.24	0.90909	0.1	1744.3
4587	16.055	0.90909	0.1	1789.4
4588	15.87	0.90909	0.1	1834.8
4589	15.685	0.90909	0.1	1880.3
4590	15.501	0.90909	0.1	1926.1
4591	15.316	0.90909	0.1	1972.
4592	15.131	0.90909	0.1	2018.2
4593	14.946	0.90909	0.1	2064.5
4594	14.761	0.90909	0.1	2111.1
4595	14.577	0.90909	0.1	2157.8
4596	14.392	0.90909	0.1	2204.8
4597	14.207	0.90909	0.1	2251.9
4598	14.022	0.90909	0.1	2299.3
4599	13.838	0.90909	0.1	2346.8
4600	13.653	0.90909	0.1	2394.5
4601	13.468	0.90909	0.1	2442.4
4602	13.283	0.90909	0.1	2490.5
4603	13.099	0.90909	0.1	2538.8
4604	12.914	0.90909	0.1	2587.3
4605	12.729	0.90909	0.1	2636.
4606	12.544	0.90909	0.1	2684.8
4607	12.359	0.90909	0.1	2733.9
4608	12.175	0.90909	0.1	2783.1
4609	11.99	0.90909	0.1	2832.5
4610	11.805	0.90909	0.1	2882.1
4611	11.62	0.90909	0.1	2931.8
4612	11.436	0.90909	0.1	2981.8
4613	11.251	0.90909	0.1	3031.9
4614	11.066	0.90909	0.1	3082.1
4615	10.881	0.90909	0.1	3132.6
4616	10.697	0.90909	0.1	3183.2
4617	10.512	0.90909	0.1	3233.9
4618	10.327	0.90909	0.1	3284.9
4619	10.142	0.90909	0.1	3336.
4620	9.9575	0.90909	0.1	3387.2
4621	9.7727	0.90909	0.1	3438.6
4622	9.5879	0.90909	0.1	3490.1
4623	9.4032	0.90909	0.1	3541.8
4624	9.2184	0.90909	0.1	3593.6
4625	9.0336	0.90909	0.1	3645.6
4626	8.8489	0.90909	0.1	3697.7
4627	8.6641	0.90909	0.1	3749.9
4628	8.4793	0.90909	0.1	3802.3
4629	8.2945	0.90909	0.1	3854.7
4630	8.1098	0.90909	0.1	3907.2
4631	7.925	0.90909	0.1	3959.8
4632	7.7402	0.90909	0.1	4012.5
4633	7.5555	0.90909	0.1	4065.1
4634	7.3707	0.90909	0.1	4117.7
4635	7.1859	0.90909	0.1	4170.1
4636	7.0011	0.90909	0.1	4222.4
4637	6.8164	0.90909	0.1	4274.3
4638	6.6316	0.90909	0.1	4325.6
4639	6.4468	0.90909	0.1	4376.2
4640	6.2621	0.90909	0.1	4425.8
4641	6.0773	0.90909	0.1	4473.8
4642	5.8925	0.90909	0.1	4519.8
4643	5.7078	0.90909	0.1	4562.9
4644	5.523	0.90909	0.1	4602.4
4645	5.3382	0.90909	0.1	4636.8
4646	5.1534	0.90909	0.1	4664.7
4647	4.9687	0.90909	0.1	4684.
4648	4.7839	0.90909	0.1	4692.1
4649	4.5991	0.90909	0.1	4685.9
4650	4.4144	0.90909	0.1	4661.5
4651	4.2296	0.90909	0.1	4614.5
4652	4.0448	0.90909	0.1	4539.7
4653	3.8601	0.90909	0.1	4432.
4654	3.6753	0.90909	0.1	4287.3
4655	3.4905	0.90909	0.1	4105.2
4656	3.3057	0.90909	0.1	3894.2
4657	3.121	0.90909	0.1	3681.1
4658	2.9362	0.90909	0.1	3529.8
4659	2.7514	0.90909	0.1	3691.1
4660	23.815	1.0909	0.1	146.16
4661	23.63	1.0909	0.1	164.97
4662	23.446	1.0909	0.1	189.
4663	23.261	1.0909	0.1	216.63
4664	23.076	1.0909	0.1	246.85
4665	22.891	1.0909	0.1	278.99
4666	22.707	1.0909	0.1	312.58
4667	22.522	1.0909	0.1	347.28
4668	22.337	1.0909	0.1	382.86
4669	22.152	1.0909	0.1	419.15
4670	21.968	1.0909	0.1	456.03
4671	21.783	1.0909	0.1	493.41
4672	21.598	1.0909	0.1	531.22
4673	21.413	1.0909	0.1	569.42
4674	21.228	1.0909	0.1	607.97
4675	21.044	1.0909	0.1	646.84
4676	20.859	1.0909	0.1	686.01
4677	20.674	1.0909	0.1	725.47
4678	20.489	1.0909	0.1	765.2
4679	20.305	1.0909	0.1	805.18
4680	20.12	1.0909	0.1	845.43
4681	19.935	1.0909	0.1	885.91
4682	19.75	1.0909	0.1	926.65
4683	19.566	1.0909	0.1	967.62
4684	19.381	1.0909	0.1	1008.8
4685	19.196	1.0909	0.1	1050.3
4686	19.011	1.0909	0.1	1091.9
4687	18.826	1.0909	0.1	1133.8
4688	18.642	1.0909	0.1	1175.9
4689	18.457	1.0909	0.1	1218.3
4690	18.272	1.0909	0.1	1260.8
4691	18.087	1.0909	0.1	1303.6
4692	17.903	1.0909	0.1	1346.6
4693	17.718	1.0909	0.1	1389.8
4694	17.533	1.0909	0.1	1433.3
4695	17.348	1.0909	0.1	1476.9
4696	17.164	1.0909	0.1	1520.8
4697	16.979	1.0909	0.1	1564.9
4698	16.794	1.0909	0.1	1609.2
4699	16.609	1.0909	0.1	1653.6
4700	16.424	1.0909	0.1	1698.4
4701	16.24	1.0909	0.1	1743.3
4702	16.055	1.0909	0.1	1788.4
4703	15.87	1.0909	0.1	1833.7
4704	15.685	1.0909	0.1	1879.2
4705	15.501	1.0909	0.1	1924.9
4706	15.316	1.0909	0.1	1970.9
4707	15.131	1.0909	0.1	2017.
4708	14.946	1.0909	0.1	2063.3
4709	14.761	1.0909	0.1	2109.9
4710	14.577	1.0909	0.1	2156.6
4711	14.392	1.0909	0.1	2203.5
4712	14.207	1.0909	0.1	2250.6
4713	14.022	1.0909	0.1	2297.9
4714	13.838	1.0909	0.1	2345.4
4715	13.653	1.0909	0.1	2393.1
4716	13.468	1.0909	0.1	2441.
4717	13.283	1.0909	0.1	2489.
4718	13.099	1.0909	0.1	2537.3
4719	12.914	1.0909	0.1	2585.7
4720	12.729	1.0909	0.1	2634.3
4721	12.544	1.0909	0.1	2683.1
4722	12.359	1.0909	0.1	2732.1
4723	12.175	1.0909	0.1	2781.2
4724	11.99	1.0909	0.1	2830.5
4725	11.805	1.0909	0.1	2880.
4726	11.62	1.0909	0.1	2929.7
4727	11.436	1.0909	0.1	2979.5
4728	11.251	1.0909	0.1	3029.4
4729	11.066	1.0909	0.1	3079.6
4730	10.881	1.0909	0.1	3129.9
4731	10.697	1.0909	0.1	3180.3
4732	10.512	1.0909	0.1	3230.9
4733	10.327	1.0909	0.1	3281.6
4734	10.142	1.0909	0.1	3332.5
4735	9.9575	1.0909	0.1	3383.5
4736	9.7727	1.0909	0.1	3434.7
4737	9.5879	1.0909	0.1	3486.
4738	9.4032	1.0909	0.1	3537.4
4739	9.2184	1.0909	0.1	3589.
4740	9.0336	1.0909	0.1	3640.6
4741	8.8489	1.0909	0.1	3692.4
4742	8.6641	1.0909	0.1	3744.3
4743	8.4793	1.0909	0.1	3796.3
4744	8.2945	1.0909	0.1	3848.4
4745	8.1098	1.0909	0.1	3900.6
4746	7.925	1.0909	0.1	3952.9
4747	7.7402	1.0909	0.1	4005.3
4748	7.5555	1.0909	0.1	4057.7
4749	7.3707	1.0909	0.1	4110.1
4750	7.1859	1.0909	0.1	4162.5
4751	7.0011	1.0909	0.1	4214.8
4752	6.8164	1.0909	0.1	4267.
4753	6.6316	1.0909	0.1	4318.9
4754	6.4468	1.0909	0.1	4370.5
4755	6.2621	1.0909	0.1	4421.4
4756	6.0773	1.0909	0.1	4471.4
4757	5.8925	1.0909	0.1	4520.2
4758	5.7078	1.0909	0.1	4567.3
4759	5.523	1.0909	0.1	4612.
4760	5.3382	1.0909	0.1	4653.4
4761	5.1534	1.0909	0.1	4690.5
4762	4.9687	1.0909	0.1	4721.9
4763	4.7839	1.0909	0.1	4745.7
4764	4.5991	1.0909	0.1	4759.9
4765	4.4144	1.0909	0.1	4762.1
4766	4.2296	1.0909	0.1	4749.4
4767	4.0448	1.0909	0.1	4719.1
4768	3.8601	1.0909	0.1	4668.9
4769	3.6753	1.0909	0.1	4598.2
4770	3.4905	1.0909	0.1	4510.1
4771	3.3057	1.0909	0.1	4415.
4772	3.121	1.0909	0.1	4335.6
4773	2.9362	1.0909	0.1	4322.2
4774	2.7514	1.0909	0.1	4644.6
4775	23.815	1.2727	0.1	156.93
4776	23.63	1.2727	0.1	175.32
4777	23.446	1.2727	0.1	198.68
4778	23.261	1.2727	0.1	225.56
4779	23.076	1.2727	0.1	254.98
4780	22.891	1.2727	0.1	286.33
4781	22.707	1.2727	0.1	319.15
4782	22.522	1.2727	0.1	353.14
4783	22.337	1.2727	0.1	388.06
4784	22.152	1.2727	0.1	423.75
4785	21.968	1.2727	0.1	460.08
4786	21.783	1.2727	0.1	496.97
4787	21.598	1.2727	0.1	534.33
4788	21.413	1.2727	0.1	572.13
4789	21.228	1.2727	0.1	610.31
4790	21.044	1.2727	0.1	648.85
4791	20.859	1.2727	0.1	687.72
4792	20.674	1.2727	0.1	726.9
4793	20.489	1.2727	0.1	766.38
4794	20.305	1.2727	0.1	806.15
4795	20.12	1.2727	0.1	846.19
4796	19.935	1.2727	0.1	886.5
4797	19.75	1.2727	0.1	927.07
4798	19.566	1.2727	0.1	967.89
4799	19.381	1.2727	0.1	1009.
4800	19.196	1.2727	0.1	1050.3
4801	19.011	1.2727	0.1	1091.8
4802	18.826	1.2727	0.1	1133.6
4803	18.642	1.2727	0.1	1175.7
4804	18.457	1.2727	0.1	1217.9
4805	18.272	1.2727	0.1	1260.4
4806	18.087	1.2727	0.1	1303.1
4807	17.903	1.2727	0.1	1346.1
4808	17.718	1.2727	0.1	1389.2
4809	17.533	1.2727	0.1	1432.6
4810	17.348	1.2727	0.1	1476.2
4811	17.164	1.2727	0.1	1520.1
4812	16.979	1.2727	0.1	1564.1
4813	16.794	1.2727	0.1	1608.3
4814	16.609	1.2727	0.1	1652.8
4815	16.424	1.2727	0.1	1697.5
4816	16.24	1.2727	0.1	1742.4
4817	16.055	1.2727	0.1	1787.5
4818	15.87	1.2727	0.1	1832.7
4819	15.685	1.2727	0.1	1878.2
4820	15.501	1.2727	0.1	1924.
4821	15.316	1.2727	0.1	1969.9
4822	15.131	1.2727	0.1	2016.
4823	14.946	1.2727	0.1	2062.3
4824	14.761	1.2727	0.1	2108.8
4825	14.577	1.2727	0.1	2155.5
4826	14.392	1.2727	0.1	2202.3
4827	14.207	1.2727	0.1	2249.4
4828	14.022	1.2727	0.1	2296.7
4829	13.838	1.2727	0.1	2344.2
4830	13.653	1.2727	0.1	2391.8
4831	13.468	1.2727	0.1	2439.6
4832	13.283	1.2727	0.1	2487.7
4833	13.099	1.2727	0.1	2535.9
4834	12.914	1.2727	0.1	2584.2
4835	12.729	1.2727	0.1	2632.8
4836	12.544	1.2727	0.1	2681.5
4837	12.359	1.2727	0.1	2730.4
4838	12.175	1.2727	0.1	2779.5
4839	11.99	1.2727	0.1	2828.7
4840	11.805	1.2727	0.1	2878.1
4841	11.62	1.2727	0.1	2927.6
4842	11.436	1.2727	0.1	2977.3
4843	11.251	1.2727	0.1	3027.2
4844	11.066	1.2727	0.1	3077.2
4845	10.881	1.2727	0.1	3127.3
4846	10.697	1.2727	0.1	3177.6
4847	10.512	1.2727	0.1	3228.1
4848	10.327	1.2727	0.1	3278.6
4849	10.142	1.2727	0.1	3329.3
4850	9.9575	1.2727	0.1	3380.1
4851	9.7727	1.2727	0.1	3431.1
4852	9.5879	1.2727	0.1	3482.1
4853	9.4032	1.2727	0.1	3533.3
4854	9.2184	1.2727	0.1	3584.5
4855	9.0336	1.2727	0.1	3635.9
4856	8.8489	1.2727	0.1	3687.4
4857	8.6641	1.2727	0.1	3738.9
4858	8.4793	1.2727	0.1	3790.6
4859	8.2945	1.2727	0.1	3842.4
4860	8.1098	1.2727	0.1	3894.2
4861	7.925	1.2727	0.1	3946.2
4862	7.7402	1.2727	0.1	3998.2
4863	7.5555	1.2727	0.1	4050.3
4864	7.3707	1.2727	0.1	4102.5
4865	7.1859	1.2727	0.1	4154.8
4866	7.0011	1.2727	0.1	4207.1
4867	6.8164	1.2727	0.1	4259.5
4868	6.6316	1.2727	0.1	4311.9
4869	6.4468	1.2727	0.1	4364.2
4870	6.2621	1.2727	0.1	4416.4
4871	6.0773	1.2727	0.1	4468.3
4872	5.8925	1.2727	0.1	4519.8
4873	5.7078	1.2727	0.1	4570.7
4874	5.523	1.2727	0.1	4620.5
4875	5.3382	1.2727	0.1	4669.
4876	5.1534	1.2727	0.1	4715.4
4877	4.9687	1.2727	0.1	4759.2
4878	4.7839	1.2727	0.1	4799.5
4879	4.5991	1.2727	0.1	4835.3
4880	4.4144	1.2727	0.1	4865.7
4881	4.2296	1.2727	0.1	4890.1
4882	4.0448	1.2727	0.1	4908.4
4883	3.8601	1.2727	0.1	4922.
4884	3.6753	1.2727	0.1	4935.2
4885	3.4905	1.2727	0.1	4956.6
4886	3.3057	1.2727	0.1	5001.8
4887	3.121	1.2727	0.1	5093.7
4888	2.9362	1.2727	0.1	5274.9
4889	2.7514	1.2727	0.1	5824.1
4890	23.815	1.4545	0.1	166.26
4891	23.63	1.4545	0.1	184.33
4892	23.446	1.4545	0.1	207.2
4893	23.261	1.4545	0.1	233.5
4894	23.076	1.4545	0.1	262.31
4895	22.891	1.4545	0.1	293.03
4896	22.707	1.4545	0.1	325.25
4897	22.522	1.4545	0.1	358.64
4898	22.337	1.4545	0.1	393.
4899	22.152	1.4545	0.1	428.16
4900	21.968	1.4545	0.1	464.01
4901	21.783	1.4545	0.1	500.44
4902	21.598	1.4545	0.1	537.4
4903	21.413	1.4545	0.1	574.81
4904	21.228	1.4545	0.1	612.65
4905	21.044	1.4545	0.1	650.87
4906	20.859	1.4545	0.1	689.46
4907	20.674	1.4545	0.1	728.38
4908	20.489	1.4545	0.1	767.63
4909	20.305	1.4545	0.1	807.18
4910	20.12	1.4545	0.1	847.03
4911	19.935	1.4545	0.1	887.16
4912	19.75	1.4545	0.1	927.57
4913	19.566	1.4545	0.1	968.25
4914	19.381	1.4545	0.1	1009.2
4915	19.196	1.4545	0.1	1050.4
4916	19.011	1.4545	0.1	1091.8
4917	18.826	1.4545	0.1	1133.5
4918	18.642	1.4545	0.1	1175.5
4919	18.457	1.4545	0.1	1217.7
4920	18.272	1.4545	0.1	1260.1
4921	18.087	1.4545	0.1	1302.7
4922	17.903	1.4545	0.1	1345.6
4923	17.718	1.4545	0.1	1388.7
4924	17.533	1.4545	0.1	1432.1
4925	17.348	1.4545	0.1	1475.6
4926	17.164	1.4545	0.1	1519.4
4927	16.979	1.4545	0.1	1563.4
4928	16.794	1.4545	0.1	1607.6
4929	16.609	1.4545	0.1	1652.1
4930	16.424	1.4545	0.1	1696.7
4931	16.24	1.4545	0.1	1741.6
4932	16.055	1.4545	0.1	1786.6
4933	15.87	1.4545	0.1	1831.9
4934	15.685	1.4545	0.1	1877.4
4935	15.501	1.4545	0.1	1923.1
4936	15.316	1.4545	0.1	1968.9
4937	15.131	1.4545	0.1	2015.
4938	14.946	1.4545	0.1	2061.3
4939	14.761	1.4545	0.1	2107.8
4940	14.577	1.4545	0.1	2154.4
4941	14.392	1.4545	0.1	2201.3
4942	14.207	1.4545	0.1	2248.4
4943	14.022	1.4545	0.1	2295.6
4944	13.838	1.4545	0.1	2343.
4945	13.653	1.4545	0.1	2390.6
4946	13.468	1.4545	0.1	2438.4
4947	13.283	1.4545	0.1	2486.4
4948	13.099	1.4545	0.1	2534.6
4949	12.914	1.4545	0.1	2582.9
4950	12.729	1.4545	0.1	2631.4
4951	12.544	1.4545	0.1	2680.
4952	12.359	1.4545	0.1	2728.9
4953	12.175	1.4545	0.1	2777.9
4954	11.99	1.4545	0.1	2827.
4955	11.805	1.4545	0.1	2876.3
4956	11.62	1.4545	0.1	2925.8
4957	11.436	1.4545	0.1	2975.4
4958	11.251	1.4545	0.1	3025.1
4959	11.066	1.4545	0.1	3075.
4960	10.881	1.4545	0.1	3125.
4961	10.697	1.4545	0.1	3175.2
4962	10.512	1.4545	0.1	3225.4
4963	10.327	1.4545	0.1	3275.8
4964	10.142	1.4545	0.1	3326.3
4965	9.9575	1.4545	0.1	3376.9
4966	9.7727	1.4545	0.1	3427.6
4967	9.5879	1.4545	0.1	3478.5
4968	9.4032	1.4545	0.1	3529.4
4969	9.2184	1.4545	0.1	3580.4
4970	9.0336	1.4545	0.1	3631.4
4971	8.8489	1.4545	0.1	3682.6
4972	8.6641	1.4545	0.1	3733.8
4973	8.4793	1.4545	0.1	3785.2
4974	8.2945	1.4545	0.1	3836.6
4975	8.1098	1.4545	0.1	3888.1
4976	7.925	1.4545	0.1	3939.6
4977	7.7402	1.4545	0.1	3991.3
4978	7.5555	1.4545	0.1	4043.1
4979	7.3707	1.4545	0.1	4095.1
4980	7.1859	1.4545	0.1	4147.2
4981	7.0011	1.4545	0.1	4199.4
4982	6.8164	1.4545	0.1	4251.9
4983	6.6316	1.4545	0.1	4304.6
4984	6.4468	1.4545	0.1	4357.6
4985	6.2621	1.4545	0.1	4410.9
4986	6.0773	1.4545	0.1	4464.5
4987	5.8925	1.4545	0.1	4518.6
4988	5.7078	1.4545	0.1	4573.
4989	5.523	1.4545	0.1	4627.9
4990	5.3382	1.4545	0.1	4683.2
4991	5.1534	1.4545	0.1	4739.
4992	4.9687	1.4545	0.1	4795.3
4993	4.7839	1.4545	0.1	4852.1
4994	4.5991	1.4545	0.1	4909.9
4995	4.4144	1.4545	0.1	4969.3
4996	4.2296	1.4545	0.1	5031.8
4997	4.0448	1.4545	0.1	5100.4
4998	3.8601	1.4545	0.1	5180.7
4999	3.6753	1.4545	0.1	5282.7
5000	3.4905	1.4545	0.1	5423.7
5001	3.3057	1.4545	0.1	5631.6
5002	3.121	1.4545	0.1	5950.4
5003	2.9362	1.4545	0.1	6414.8
5004	2.7514	1.4545	0.1	7366.7
5005	23.815	1.6364	0.1	174.31
5006	23.63	1.6364	0.1	192.13
5007	23.446	1.6364	0.1	214.61
5008	23.261	1.6364	0.1	240.46
5009	23.076	1.6364	0.1	268.8
5010	22.891	1.6364	0.1	299.03
5011	22.707	1.6364	0.1	330.75
5012	22.522	1.6364	0.1	363.67
5013	22.337	1.6364	0.1	397.56
5014	22.152	1.6364	0.1	432.27
5015	21.968	1.6364	0.1	467.7
5016	21.783	1.6364	0.1	503.73
5017	21.598	1.6364	0.1	540.32
5018	21.413	1.6364	0.1	577.39
5019	21.228	1.6364	0.1	614.91
5020	21.044	1.6364	0.1	652.85
5021	20.859	1.6364	0.1	691.17
5022	20.674	1.6364	0.1	729.85
5023	20.489	1.6364	0.1	768.88
5024	20.305	1.6364	0.1	808.23
5025	20.12	1.6364	0.1	847.89
5026	19.935	1.6364	0.1	887.86
5027	19.75	1.6364	0.1	928.12
5028	19.566	1.6364	0.1	968.66
5029	19.381	1.6364	0.1	1009.5
5030	19.196	1.6364	0.1	1050.6
5031	19.011	1.6364	0.1	1091.9
5032	18.826	1.6364	0.1	1133.5
5033	18.642	1.6364	0.1	1175.4
5034	18.457	1.6364	0.1	1217.5
5035	18.272	1.6364	0.1	1259.8
5036	18.087	1.6364	0.1	1302.4
5037	17.903	1.6364	0.1	1345.3
5038	17.718	1.6364	0.1	1388.3
5039	17.533	1.6364	0.1	1431.6
5040	17.348	1.6364	0.1	1475.1
5041	17.164	1.6364	0.1	1518.9
5042	16.979	1.6364	0.1	1562.9
5043	16.794	1.6364	0.1	1607.
5044	16.609	1.6364	0.1	1651.4
5045	16.424	1.6364	0.1	1696.1
5046	16.24	1.6364	0.1	1740.9
5047	16.055	1.6364	0.1	1785.9
5048	15.87	1.6364	0.1	1831.2
5049	15.685	1.6364	0.1	1876.6
5050	15.501	1.6364	0.1	1922.3
5051	15.316	1.6364	0.1	1968.1
5052	15.131	1.6364	0.1	2014.2
5053	14.946	1.6364	0.1	2060.5
5054	14.761	1.6364	0.1	2106.9
5055	14.577	1.6364	0.1	2153.6
5056	14.392	1.6364	0.1	2200.4
5057	14.207	1.6364	0.1	2247.4
5058	14.022	1.6364	0.1	2294.6
5059	13.838	1.6364	0.1	2342.
5060	13.653	1.6364	0.1	2389.6
5061	13.468	1.6364	0.1	2437.4
5062	13.283	1.6364	0.1	2485.3
5063	13.099	1.6364	0.1	2533.4
5064	12.914	1.6364	0.1	2581.7
5065	12.729	1.6364	0.1	2630.1
5066	12.544	1.6364	0.1	2678.7
5067	12.359	1.6364	0.1	2727.5
5068	12.175	1.6364	0.1	2776.4
5069	11.99	1.6364	0.1	2825.5
5070	11.805	1.6364	0.1	2874.7
5071	11.62	1.6364	0.1	2924.1
5072	11.436	1.6364	0.1	2973.6
5073	11.251	1.6364	0.1	3023.2
5074	11.066	1.6364	0.1	3073.
5075	10.881	1.6364	0.1	3122.9
5076	10.697	1.6364	0.1	3172.9
5077	10.512	1.6364	0.1	3223.
5078	10.327	1.6364	0.1	3273.3
5079	10.142	1.6364	0.1	3323.6
5080	9.9575	1.6364	0.1	3374.
5081	9.7727	1.6364	0.1	3424.5
5082	9.5879	1.6364	0.1	3475.1
5083	9.4032	1.6364	0.1	3525.8
5084	9.2184	1.6364	0.1	3576.5
5085	9.0336	1.6364	0.1	3627.3
5086	8.8489	1.6364	0.1	3678.2
5087	8.6641	1.6364	0.1	3729.1
5088	8.4793	1.6364	0.1	3780.1
5089	8.2945	1.6364	0.1	3831.1
5090	8.1098	1.6364	0.1	3882.3
5091	7.925	1.6364	0.1	3933.5
5092	7.7402	1.6364	0.1	3984.8
5093	7.5555	1.6364	0.1	4036.3
5094	7.3707	1.6364	0.1	4087.9
5095	7.1859	1.6364	0.1	4139.7
5096	7.0011	1.6364	0.1	4191.8
5097	6.8164	1.6364	0.1	4244.3
5098	6.6316	1.6364	0.1	4297.3
5099	6.4468	1.6364	0.1	4350.8
5100	6.2621	1.6364	0.1	4405.
5101	6.0773	1.6364	0.1	4460.2
5102	5.8925	1.6364	0.1	4516.6
5103	5.7078	1.6364	0.1	4574.4
5104	5.523	1.6364	0.1	4634.1
5105	5.3382	1.6364	0.1	4696.
5106	5.1534	1.6364	0.1	4760.8
5107	4.9687	1.6364	0.1	4829.3
5108	4.7839	1.6364	0.1	4902.5
5109	4.5991	1.6364	0.1	4982.
5110	4.4144	1.6364	0.1	5070.1
5111	4.2296	1.6364	0.1	5170.5
5112	4.0448	1.6364	0.1	5289.
5113	3.8601	1.6364	0.1	5435.3
5114	3.6753	1.6364	0.1	5625.5
5115	3.4905	1.6364	0.1	5886.5
5116	3.3057	1.6364	0.1	6269.1
5117	3.121	1.6364	0.1	6842.8
5118	2.9362	1.6364	0.1	7787.4
5119	2.7514	1.6364	0.1	9595.9
5120	23.815	1.8182	0.1	181.17
5121	23.63	1.8182	0.1	198.81
5122	23.446	1.8182	0.1	220.97
5123	23.261	1.8182	0.1	246.47
5124	23.076	1.8182	0.1	274.44
5125	22.891	1.8182	0.1	304.29
5126	22.707	1.8182	0.1	335.62
5127	22.522	1.8182	0.1	368.14
5128	22.337	1.8182	0.1	401.65
5129	22.152	1.8182	0.1	435.99
5130	21.968	1.8182	0.1	471.06
5131	21.783	1.8182	0.1	506.75
5132	21.598	1.8182	0.1	543.02
5133	21.413	1.8182	0.1	579.79
5134	21.228	1.8182	0.1	617.04
5135	21.044	1.8182	0.1	654.71
5136	20.859	1.8182	0.1	692.79
5137	20.674	1.8182	0.1	731.26
5138	20.489	1.8182	0.1	770.08
5139	20.305	1.8182	0.1	809.25
5140	20.12	1.8182	0.1	848.74
5141	19.935	1.8182	0.1	888.56
5142	19.75	1.8182	0.1	928.68
5143	19.566	1.8182	0.1	969.09
5144	19.381	1.8182	0.1	1009.8
5145	19.196	1.8182	0.1	1050.8
5146	19.011	1.8182	0.1	1092.
5147	18.826	1.8182	0.1	1133.6
5148	18.642	1.8182	0.1	1175.3
5149	18.457	1.8182	0.1	1217.4
5150	18.272	1.8182	0.1	1259.7
5151	18.087	1.8182	0.1	1302.2
5152	17.903	1.8182	0.1	1345.
5153	17.718	1.8182	0.1	1388.
5154	17.533	1.8182	0.1	1431.3
5155	17.348	1.8182	0.1	1474.7
5156	17.164	1.8182	0.1	1518.4
5157	16.979	1.8182	0.1	1562.4
5158	16.794	1.8182	0.1	1606.5
5159	16.609	1.8182	0.1	1650.9
5160	16.424	1.8182	0.1	1695.5
5161	16.24	1.8182	0.1	1740.3
5162	16.055	1.8182	0.1	1785.3
5163	15.87	1.8182	0.1	1830.5
5164	15.685	1.8182	0.1	1876.
5165	15.501	1.8182	0.1	1921.6
5166	15.316	1.8182	0.1	1967.4
5167	15.131	1.8182	0.1	2013.5
5168	14.946	1.8182	0.1	2059.7
5169	14.761	1.8182	0.1	2106.1
5170	14.577	1.8182	0.1	2152.8
5171	14.392	1.8182	0.1	2199.6
5172	14.207	1.8182	0.1	2246.6
5173	14.022	1.8182	0.1	2293.8
5174	13.838	1.8182	0.1	2341.1
5175	13.653	1.8182	0.1	2388.7
5176	13.468	1.8182	0.1	2436.4
5177	13.283	1.8182	0.1	2484.3
5178	13.099	1.8182	0.1	2532.4
5179	12.914	1.8182	0.1	2580.6
5180	12.729	1.8182	0.1	2629.
5181	12.544	1.8182	0.1	2677.6
5182	12.359	1.8182	0.1	2726.3
5183	12.175	1.8182	0.1	2775.1
5184	11.99	1.8182	0.1	2824.1
5185	11.805	1.8182	0.1	2873.3
5186	11.62	1.8182	0.1	2922.6
5187	11.436	1.8182	0.1	2972.
5188	11.251	1.8182	0.1	3021.6
5189	11.066	1.8182	0.1	3071.2
5190	10.881	1.8182	0.1	3121.
5191	10.697	1.8182	0.1	3170.9
5192	10.512	1.8182	0.1	3220.9
5193	10.327	1.8182	0.1	3271.
5194	10.142	1.8182	0.1	3321.1
5195	9.9575	1.8182	0.1	3371.4
5196	9.7727	1.8182	0.1	3421.7
5197	9.5879	1.8182	0.1	3472.1
5198	9.4032	1.8182	0.1	3522.5
5199	9.2184	1.8182	0.1	3573.
5200	9.0336	1.8182	0.1	3623.6
5201	8.8489	1.8182	0.1	3674.1
5202	8.6641	1.8182	0.1	3724.7
5203	8.4793	1.8182	0.1	3775.4
5204	8.2945	1.8182	0.1	3826.1
5205	8.1098	1.8182	0.1	3876.9
5206	7.925	1.8182	0.1	3927.7
5207	7.7402	1.8182	0.1	3978.7
5208	7.5555	1.8182	0.1	4029.8
5209	7.3707	1.8182	0.1	4081.1
5210	7.1859	1.8182	0.1	4132.7
5211	7.0011	1.8182	0.1	4184.6
5212	6.8164	1.8182	0.1	4237.
5213	6.6316	1.8182	0.1	4290.1
5214	6.4468	1.8182	0.1	4344.
5215	6.2621	1.8182	0.1	4399.1
5216	6.0773	1.8182	0.1	4455.6
5217	5.8925	1.8182	0.1	4514.1
5218	5.7078	1.8182	0.1	4575.
5219	5.523	1.8182	0.1	4639.1
5220	5.3382	1.8182	0.1	4707.3
5221	5.1534	1.8182	0.1	4780.7
5222	4.9687	1.8182	0.1	4860.9
5223	4.7839	1.8182	0.1	4949.8
5224	4.5991	1.8182	0.1	5050.3
5225	4.4144	1.8182	0.1	5166.2
5226	4.2296	1.8182	0.1	5303.1
5227	4.0448	1.8182	0.1	5469.7
5228	3.8601	1.8182	0.1	5679.
5229	3.6753	1.8182	0.1	5952.8
5230	3.4905	1.8182	0.1	6327.1
5231	3.3057	1.8182	0.1	6868.7
5232	3.121	1.8182	0.1	7702.5
5233	2.9362	1.8182	0.1	9250.4
5234	2.7514	1.8182	0.1	12899
5235	23.815	2.	0.1	186.93
5236	23.63	2.	0.1	204.42
5237	23.446	2.	0.1	226.34
5238	23.261	2.	0.1	251.56
5239	23.076	2.	0.1	279.24
5240	22.891	2.	0.1	308.79
5241	22.707	2.	0.1	339.81
5242	22.522	2.	0.1	372.02
5243	22.337	2.	0.1	405.22
5244	22.152	2.	0.1	439.26
5245	21.968	2.	0.1	474.03
5246	21.783	2.	0.1	509.44
5247	21.598	2.	0.1	545.43
5248	21.413	2.	0.1	581.95
5249	21.228	2.	0.1	618.95
5250	21.044	2.	0.1	656.4
5251	20.859	2.	0.1	694.27
5252	20.674	2.	0.1	732.54
5253	20.489	2.	0.1	771.19
5254	20.305	2.	0.1	810.19
5255	20.12	2.	0.1	849.54
5256	19.935	2.	0.1	889.22
5257	19.75	2.	0.1	929.22
5258	19.566	2.	0.1	969.52
5259	19.381	2.	0.1	1010.1
5260	19.196	2.	0.1	1051.
5261	19.011	2.	0.1	1092.2
5262	18.826	2.	0.1	1133.6
5263	18.642	2.	0.1	1175.3
5264	18.457	2.	0.1	1217.3
5265	18.272	2.	0.1	1259.6
5266	18.087	2.	0.1	1302.
5267	17.903	2.	0.1	1344.8
5268	17.718	2.	0.1	1387.7
5269	17.533	2.	0.1	1431.
5270	17.348	2.	0.1	1474.4
5271	17.164	2.	0.1	1518.1
5272	16.979	2.	0.1	1562.
5273	16.794	2.	0.1	1606.1
5274	16.609	2.	0.1	1650.5
5275	16.424	2.	0.1	1695.
5276	16.24	2.	0.1	1739.8
5277	16.055	2.	0.1	1784.8
5278	15.87	2.	0.1	1830.
5279	15.685	2.	0.1	1875.4
5280	15.501	2.	0.1	1921.
5281	15.316	2.	0.1	1966.9
5282	15.131	2.	0.1	2012.9
5283	14.946	2.	0.1	2059.1
5284	14.761	2.	0.1	2105.5
5285	14.577	2.	0.1	2152.1
5286	14.392	2.	0.1	2198.9
5287	14.207	2.	0.1	2245.9
5288	14.022	2.	0.1	2293.
5289	13.838	2.	0.1	2340.4
5290	13.653	2.	0.1	2387.9
5291	13.468	2.	0.1	2435.6
5292	13.283	2.	0.1	2483.5
5293	13.099	2.	0.1	2531.5
5294	12.914	2.	0.1	2579.7
5295	12.729	2.	0.1	2628.
5296	12.544	2.	0.1	2676.6
5297	12.359	2.	0.1	2725.2
5298	12.175	2.	0.1	2774.
5299	11.99	2.	0.1	2823.
5300	11.805	2.	0.1	2872.1
5301	11.62	2.	0.1	2921.3
5302	11.436	2.	0.1	2970.6
5303	11.251	2.	0.1	3020.1
5304	11.066	2.	0.1	3069.7
5305	10.881	2.	0.1	3119.4
5306	10.697	2.	0.1	3169.2
5307	10.512	2.	0.1	3219.
5308	10.327	2.	0.1	3269.
5309	10.142	2.	0.1	3319.
5310	9.9575	2.	0.1	3369.1
5311	9.7727	2.	0.1	3419.2
5312	9.5879	2.	0.1	3469.4
5313	9.4032	2.	0.1	3519.7
5314	9.2184	2.	0.1	3569.9
5315	9.0336	2.	0.1	3620.2
5316	8.8489	2.	0.1	3670.5
5317	8.6641	2.	0.1	3720.9
5318	8.4793	2.	0.1	3771.2
5319	8.2945	2.	0.1	3821.6
5320	8.1098	2.	0.1	3872.1
5321	7.925	2.	0.1	3922.6
5322	7.7402	2.	0.1	3973.2
5323	7.5555	2.	0.1	4023.9
5324	7.3707	2.	0.1	4074.9
5325	7.1859	2.	0.1	4126.1
5326	7.0011	2.	0.1	4177.9
5327	6.8164	2.	0.1	4230.2
5328	6.6316	2.	0.1	4283.3
5329	6.4468	2.	0.1	4337.6
5330	6.2621	2.	0.1	4393.3
5331	6.0773	2.	0.1	4451.
5332	5.8925	2.	0.1	4511.3
5333	5.7078	2.	0.1	4575.
5334	5.523	2.	0.1	4643.2
5335	5.3382	2.	0.1	4717.
5336	5.1534	2.	0.1	4798.4
5337	4.9687	2.	0.1	4889.5
5338	4.7839	2.	0.1	4993.2
5339	4.5991	2.	0.1	5113.4
5340	4.4144	2.	0.1	5255.6
5341	4.2296	2.	0.1	5427.3
5342	4.0448	2.	0.1	5639.3
5343	3.8601	2.	0.1	5908.
5344	3.6753	2.	0.1	6259.6
5345	3.4905	2.	0.1	6736.4
5346	3.3057	2.	0.1	7422.
5347	3.121	2.	0.1	8467.2
5348	2.9362	2.	0.1	10308
5349	2.7514	2.	0.1	15510
5350	23.815	2.1818	0.1	191.65
5351	23.63	2.1818	0.1	209.02
5352	23.446	2.1818	0.1	230.76
5353	23.261	2.1818	0.1	255.76
5354	23.076	2.1818	0.1	283.21
5355	22.891	2.1818	0.1	312.52
5356	22.707	2.1818	0.1	343.31
5357	22.522	2.1818	0.1	375.28
5358	22.337	2.1818	0.1	408.23
5359	22.152	2.1818	0.1	442.03
5360	21.968	2.1818	0.1	476.56
5361	21.783	2.1818	0.1	511.74
5362	21.598	2.1818	0.1	547.51
5363	21.413	2.1818	0.1	583.81
5364	21.228	2.1818	0.1	620.61
5365	21.044	2.1818	0.1	657.88
5366	20.859	2.1818	0.1	695.57
5367	20.674	2.1818	0.1	733.68
5368	20.489	2.1818	0.1	772.17
5369	20.305	2.1818	0.1	811.04
5370	20.12	2.1818	0.1	850.26
5371	19.935	2.1818	0.1	889.82
5372	19.75	2.1818	0.1	929.71
5373	19.566	2.1818	0.1	969.91
5374	19.381	2.1818	0.1	1010.4
5375	19.196	2.1818	0.1	1051.2
5376	19.011	2.1818	0.1	1092.3
5377	18.826	2.1818	0.1	1133.7
5378	18.642	2.1818	0.1	1175.4
5379	18.457	2.1818	0.1	1217.3
5380	18.272	2.1818	0.1	1259.5
5381	18.087	2.1818	0.1	1301.9
5382	17.903	2.1818	0.1	1344.6
5383	17.718	2.1818	0.1	1387.5
5384	17.533	2.1818	0.1	1430.7
5385	17.348	2.1818	0.1	1474.1
5386	17.164	2.1818	0.1	1517.8
5387	16.979	2.1818	0.1	1561.7
5388	16.794	2.1818	0.1	1605.8
5389	16.609	2.1818	0.1	1650.1
5390	16.424	2.1818	0.1	1694.6
5391	16.24	2.1818	0.1	1739.4
5392	16.055	2.1818	0.1	1784.4
5393	15.87	2.1818	0.1	1829.6
5394	15.685	2.1818	0.1	1875.
5395	15.501	2.1818	0.1	1920.6
5396	15.316	2.1818	0.1	1966.4
5397	15.131	2.1818	0.1	2012.4
5398	14.946	2.1818	0.1	2058.6
5399	14.761	2.1818	0.1	2105.
5400	14.577	2.1818	0.1	2151.5
5401	14.392	2.1818	0.1	2198.3
5402	14.207	2.1818	0.1	2245.3
5403	14.022	2.1818	0.1	2292.4
5404	13.838	2.1818	0.1	2339.7
5405	13.653	2.1818	0.1	2387.2
5406	13.468	2.1818	0.1	2434.9
5407	13.283	2.1818	0.1	2482.7
5408	13.099	2.1818	0.1	2530.7
5409	12.914	2.1818	0.1	2578.9
5410	12.729	2.1818	0.1	2627.2
5411	12.544	2.1818	0.1	2675.7
5412	12.359	2.1818	0.1	2724.3
5413	12.175	2.1818	0.1	2773.1
5414	11.99	2.1818	0.1	2822.
5415	11.805	2.1818	0.1	2871.
5416	11.62	2.1818	0.1	2920.2
5417	11.436	2.1818	0.1	2969.5
5418	11.251	2.1818	0.1	3018.9
5419	11.066	2.1818	0.1	3068.4
5420	10.881	2.1818	0.1	3118.
5421	10.697	2.1818	0.1	3167.7
5422	10.512	2.1818	0.1	3217.4
5423	10.327	2.1818	0.1	3267.3
5424	10.142	2.1818	0.1	3317.2
5425	9.9575	2.1818	0.1	3367.1
5426	9.7727	2.1818	0.1	3417.1
5427	9.5879	2.1818	0.1	3467.2
5428	9.4032	2.1818	0.1	3517.2
5429	9.2184	2.1818	0.1	3567.3
5430	9.0336	2.1818	0.1	3617.4
5431	8.8489	2.1818	0.1	3667.4
5432	8.6641	2.1818	0.1	3717.5
5433	8.4793	2.1818	0.1	3767.6
5434	8.2945	2.1818	0.1	3817.7
5435	8.1098	2.1818	0.1	3867.9
5436	7.925	2.1818	0.1	3918.
5437	7.7402	2.1818	0.1	3968.3
5438	7.5555	2.1818	0.1	4018.7
5439	7.3707	2.1818	0.1	4069.4
5440	7.1859	2.1818	0.1	4120.4
5441	7.0011	2.1818	0.1	4171.9
5442	6.8164	2.1818	0.1	4224.
5443	6.6316	2.1818	0.1	4277.2
5444	6.4468	2.1818	0.1	4331.7
5445	6.2621	2.1818	0.1	4387.9
5446	6.0773	2.1818	0.1	4446.6
5447	5.8925	2.1818	0.1	4508.5
5448	5.7078	2.1818	0.1	4574.6
5449	5.523	2.1818	0.1	4646.3
5450	5.3382	2.1818	0.1	4725.3
5451	5.1534	2.1818	0.1	4813.8
5452	4.9687	2.1818	0.1	4914.7
5453	4.7839	2.1818	0.1	5031.8
5454	4.5991	2.1818	0.1	5170.3
5455	4.4144	2.1818	0.1	5336.7
5456	4.2296	2.1818	0.1	5540.6
5457	4.0448	2.1818	0.1	5794.8
5458	3.8601	2.1818	0.1	6118.6
5459	3.6753	2.1818	0.1	6541.8
5460	3.4905	2.1818	0.1	7111.1
5461	3.3057	2.1818	0.1	7916.4
5462	3.121	2.1818	0.1	9106.9
5463	2.9362	2.1818	0.1	11170
5464	2.7514	2.1818	0.1	15071
5465	23.815	2.3636	0.1	195.37
5466	23.63	2.3636	0.1	212.66
5467	23.446	2.3636	0.1	234.25
5468	23.261	2.3636	0.1	259.09
5469	23.076	2.3636	0.1	286.37
5470	22.891	2.3636	0.1	315.51
5471	22.707	2.3636	0.1	346.11
5472	22.522	2.3636	0.1	377.9
5473	22.337	2.3636	0.1	410.66
5474	22.152	2.3636	0.1	444.27
5475	21.968	2.3636	0.1	478.62
5476	21.783	2.3636	0.1	513.62
5477	21.598	2.3636	0.1	549.21
5478	21.413	2.3636	0.1	585.34
5479	21.228	2.3636	0.1	621.98
5480	21.044	2.3636	0.1	659.1
5481	20.859	2.3636	0.1	696.65
5482	20.674	2.3636	0.1	734.62
5483	20.489	2.3636	0.1	772.99
5484	20.305	2.3636	0.1	811.75
5485	20.12	2.3636	0.1	850.86
5486	19.935	2.3636	0.1	890.33
5487	19.75	2.3636	0.1	930.13
5488	19.566	2.3636	0.1	970.25
5489	19.381	2.3636	0.1	1010.7
5490	19.196	2.3636	0.1	1051.4
5491	19.011	2.3636	0.1	1092.5
5492	18.826	2.3636	0.1	1133.8
5493	18.642	2.3636	0.1	1175.4
5494	18.457	2.3636	0.1	1217.3
5495	18.272	2.3636	0.1	1259.4
5496	18.087	2.3636	0.1	1301.8
5497	17.903	2.3636	0.1	1344.5
5498	17.718	2.3636	0.1	1387.4
5499	17.533	2.3636	0.1	1430.5
5500	17.348	2.3636	0.1	1473.9
5501	17.164	2.3636	0.1	1517.6
5502	16.979	2.3636	0.1	1561.4
5503	16.794	2.3636	0.1	1605.5
5504	16.609	2.3636	0.1	1649.8
5505	16.424	2.3636	0.1	1694.3
5506	16.24	2.3636	0.1	1739.1
5507	16.055	2.3636	0.1	1784.
5508	15.87	2.3636	0.1	1829.2
5509	15.685	2.3636	0.1	1874.6
5510	15.501	2.3636	0.1	1920.2
5511	15.316	2.3636	0.1	1966.
5512	15.131	2.3636	0.1	2012.
5513	14.946	2.3636	0.1	2058.1
5514	14.761	2.3636	0.1	2104.5
5515	14.577	2.3636	0.1	2151.1
5516	14.392	2.3636	0.1	2197.9
5517	14.207	2.3636	0.1	2244.8
5518	14.022	2.3636	0.1	2291.9
5519	13.838	2.3636	0.1	2339.2
5520	13.653	2.3636	0.1	2386.7
5521	13.468	2.3636	0.1	2434.4
5522	13.283	2.3636	0.1	2482.2
5523	13.099	2.3636	0.1	2530.1
5524	12.914	2.3636	0.1	2578.3
5525	12.729	2.3636	0.1	2626.6
5526	12.544	2.3636	0.1	2675.
5527	12.359	2.3636	0.1	2723.6
5528	12.175	2.3636	0.1	2772.4
5529	11.99	2.3636	0.1	2821.2
5530	11.805	2.3636	0.1	2870.2
5531	11.62	2.3636	0.1	2919.3
5532	11.436	2.3636	0.1	2968.6
5533	11.251	2.3636	0.1	3017.9
5534	11.066	2.3636	0.1	3067.3
5535	10.881	2.3636	0.1	3116.9
5536	10.697	2.3636	0.1	3166.5
5537	10.512	2.3636	0.1	3216.1
5538	10.327	2.3636	0.1	3265.9
5539	10.142	2.3636	0.1	3315.7
5540	9.9575	2.3636	0.1	3365.5
5541	9.7727	2.3636	0.1	3415.4
5542	9.5879	2.3636	0.1	3465.3
5543	9.4032	2.3636	0.1	3515.2
5544	9.2184	2.3636	0.1	3565.1
5545	9.0336	2.3636	0.1	3615.
5546	8.8489	2.3636	0.1	3664.9
5547	8.6641	2.3636	0.1	3714.8
5548	8.4793	2.3636	0.1	3764.6
5549	8.2945	2.3636	0.1	3814.5
5550	8.1098	2.3636	0.1	3864.4
5551	7.925	2.3636	0.1	3914.3
5552	7.7402	2.3636	0.1	3964.3
5553	7.5555	2.3636	0.1	4014.4
5554	7.3707	2.3636	0.1	4064.8
5555	7.1859	2.3636	0.1	4115.5
5556	7.0011	2.3636	0.1	4166.8
5557	6.8164	2.3636	0.1	4218.8
5558	6.6316	2.3636	0.1	4272.
5559	6.4468	2.3636	0.1	4326.6
5560	6.2621	2.3636	0.1	4383.3
5561	6.0773	2.3636	0.1	4442.7
5562	5.8925	2.3636	0.1	4505.9
5563	5.7078	2.3636	0.1	4574.1
5564	5.523	2.3636	0.1	4648.7
5565	5.3382	2.3636	0.1	4732.
5566	5.1534	2.3636	0.1	4826.6
5567	4.9687	2.3636	0.1	4936.
5568	4.7839	2.3636	0.1	5064.9
5569	4.5991	2.3636	0.1	5219.3
5570	4.4144	2.3636	0.1	5407.3
5571	4.2296	2.3636	0.1	5639.7
5572	4.0448	2.3636	0.1	5931.8
5573	3.8601	2.3636	0.1	6304.9
5574	3.6753	2.3636	0.1	6790.5
5575	3.4905	2.3636	0.1	7437.4
5576	3.3057	2.3636	0.1	8324.6
5577	3.121	2.3636	0.1	9595.5
5578	2.9362	2.3636	0.1	11470
5579	2.7514	2.3636	0.1	14203
5580	23.815	2.5455	0.1	198.14
5581	23.63	2.5455	0.1	215.36
5582	23.446	2.5455	0.1	236.85
5583	23.261	2.5455	0.1	261.57
5584	23.076	2.5455	0.1	288.72
5585	22.891	2.5455	0.1	317.74
5586	22.707	2.5455	0.1	348.21
5587	22.522	2.5455	0.1	379.86
5588	22.337	2.5455	0.1	412.5
5589	22.152	2.5455	0.1	445.97
5590	21.968	2.5455	0.1	480.18
5591	21.783	2.5455	0.1	515.05
5592	21.598	2.5455	0.1	550.51
5593	21.413	2.5455	0.1	586.52
5594	21.228	2.5455	0.1	623.04
5595	21.044	2.5455	0.1	660.03
5596	20.859	2.5455	0.1	697.48
5597	20.674	2.5455	0.1	735.35
5598	20.489	2.5455	0.1	773.63
5599	20.305	2.5455	0.1	812.3
5600	20.12	2.5455	0.1	851.33
5601	19.935	2.5455	0.1	890.73
5602	19.75	2.5455	0.1	930.46
5603	19.566	2.5455	0.1	970.52
5604	19.381	2.5455	0.1	1010.9
5605	19.196	2.5455	0.1	1051.6
5606	19.011	2.5455	0.1	1092.6
5607	18.826	2.5455	0.1	1133.9
5608	18.642	2.5455	0.1	1175.4
5609	18.457	2.5455	0.1	1217.3
5610	18.272	2.5455	0.1	1259.4
5611	18.087	2.5455	0.1	1301.8
5612	17.903	2.5455	0.1	1344.4
5613	17.718	2.5455	0.1	1387.3
5614	17.533	2.5455	0.1	1430.4
5615	17.348	2.5455	0.1	1473.8
5616	17.164	2.5455	0.1	1517.4
5617	16.979	2.5455	0.1	1561.2
5618	16.794	2.5455	0.1	1605.3
5619	16.609	2.5455	0.1	1649.6
5620	16.424	2.5455	0.1	1694.1
5621	16.24	2.5455	0.1	1738.8
5622	16.055	2.5455	0.1	1783.8
5623	15.87	2.5455	0.1	1829.
5624	15.685	2.5455	0.1	1874.3
5625	15.501	2.5455	0.1	1919.9
5626	15.316	2.5455	0.1	1965.7
5627	15.131	2.5455	0.1	2011.7
5628	14.946	2.5455	0.1	2057.8
5629	14.761	2.5455	0.1	2104.2
5630	14.577	2.5455	0.1	2150.8
5631	14.392	2.5455	0.1	2197.5
5632	14.207	2.5455	0.1	2244.4
5633	14.022	2.5455	0.1	2291.6
5634	13.838	2.5455	0.1	2338.8
5635	13.653	2.5455	0.1	2386.3
5636	13.468	2.5455	0.1	2433.9
5637	13.283	2.5455	0.1	2481.7
5638	13.099	2.5455	0.1	2529.7
5639	12.914	2.5455	0.1	2577.8
5640	12.729	2.5455	0.1	2626.1
5641	12.544	2.5455	0.1	2674.5
5642	12.359	2.5455	0.1	2723.1
5643	12.175	2.5455	0.1	2771.8
5644	11.99	2.5455	0.1	2820.6
5645	11.805	2.5455	0.1	2869.6
5646	11.62	2.5455	0.1	2918.7
5647	11.436	2.5455	0.1	2967.8
5648	11.251	2.5455	0.1	3017.1
5649	11.066	2.5455	0.1	3066.5
5650	10.881	2.5455	0.1	3116.
5651	10.697	2.5455	0.1	3165.6
5652	10.512	2.5455	0.1	3215.2
5653	10.327	2.5455	0.1	3264.8
5654	10.142	2.5455	0.1	3314.6
5655	9.9575	2.5455	0.1	3364.3
5656	9.7727	2.5455	0.1	3414.1
5657	9.5879	2.5455	0.1	3463.9
5658	9.4032	2.5455	0.1	3513.7
5659	9.2184	2.5455	0.1	3563.5
5660	9.0336	2.5455	0.1	3613.2
5661	8.8489	2.5455	0.1	3663.
5662	8.6641	2.5455	0.1	3712.7
5663	8.4793	2.5455	0.1	3762.4
5664	8.2945	2.5455	0.1	3812.
5665	8.1098	2.5455	0.1	3861.7
5666	7.925	2.5455	0.1	3911.4
5667	7.7402	2.5455	0.1	3961.1
5668	7.5555	2.5455	0.1	4011.
5669	7.3707	2.5455	0.1	4061.2
5670	7.1859	2.5455	0.1	4111.7
5671	7.0011	2.5455	0.1	4162.8
5672	6.8164	2.5455	0.1	4214.7
5673	6.6316	2.5455	0.1	4267.8
5674	6.4468	2.5455	0.1	4322.6
5675	6.2621	2.5455	0.1	4379.6
5676	6.0773	2.5455	0.1	4439.6
5677	5.8925	2.5455	0.1	4503.8
5678	5.7078	2.5455	0.1	4573.5
5679	5.523	2.5455	0.1	4650.5
5680	5.3382	2.5455	0.1	4737.2
5681	5.1534	2.5455	0.1	4836.6
5682	4.9687	2.5455	0.1	4952.9
5683	4.7839	2.5455	0.1	5091.2
5684	4.5991	2.5455	0.1	5258.6
5685	4.4144	2.5455	0.1	5464.2
5686	4.2296	2.5455	0.1	5720.4
5687	4.0448	2.5455	0.1	6043.8
5688	3.8601	2.5455	0.1	6457.2
5689	3.6753	2.5455	0.1	6992.2
5690	3.4905	2.5455	0.1	7693.2
5691	3.3057	2.5455	0.1	8621.3
5692	3.121	2.5455	0.1	9852.4
5693	2.9362	2.5455	0.1	11435
5694	2.7514	2.5455	0.1	13171
5695	23.815	2.7273	0.1	199.97
5696	23.63	2.7273	0.1	217.15
5697	23.446	2.7273	0.1	238.57
5698	23.261	2.7273	0.1	263.22
5699	23.076	2.7273	0.1	290.29
5700	22.891	2.7273	0.1	319.22
5701	22.707	2.7273	0.1	349.61
5702	22.522	2.7273	0.1	381.18
5703	22.337	2.7273	0.1	413.72
5704	22.152	2.7273	0.1	447.11
5705	21.968	2.7273	0.1	481.23
5706	21.783	2.7273	0.1	516.01
5707	21.598	2.7273	0.1	551.38
5708	21.413	2.7273	0.1	587.31
5709	21.228	2.7273	0.1	623.75
5710	21.044	2.7273	0.1	660.67
5711	20.859	2.7273	0.1	698.05
5712	20.674	2.7273	0.1	735.85
5713	20.489	2.7273	0.1	774.07
5714	20.305	2.7273	0.1	812.68
5715	20.12	2.7273	0.1	851.66
5716	19.935	2.7273	0.1	891.
5717	19.75	2.7273	0.1	930.69
5718	19.566	2.7273	0.1	970.71
5719	19.381	2.7273	0.1	1011.1
5720	19.196	2.7273	0.1	1051.7
5721	19.011	2.7273	0.1	1092.7
5722	18.826	2.7273	0.1	1133.9
5723	18.642	2.7273	0.1	1175.5
5724	18.457	2.7273	0.1	1217.3
5725	18.272	2.7273	0.1	1259.4
5726	18.087	2.7273	0.1	1301.7
5727	17.903	2.7273	0.1	1344.3
5728	17.718	2.7273	0.1	1387.2
5729	17.533	2.7273	0.1	1430.3
5730	17.348	2.7273	0.1	1473.7
5731	17.164	2.7273	0.1	1517.3
5732	16.979	2.7273	0.1	1561.1
5733	16.794	2.7273	0.1	1605.2
5734	16.609	2.7273	0.1	1649.5
5735	16.424	2.7273	0.1	1694.
5736	16.24	2.7273	0.1	1738.7
5737	16.055	2.7273	0.1	1783.6
5738	15.87	2.7273	0.1	1828.8
5739	15.685	2.7273	0.1	1874.1
5740	15.501	2.7273	0.1	1919.7
5741	15.316	2.7273	0.1	1965.5
5742	15.131	2.7273	0.1	2011.5
5743	14.946	2.7273	0.1	2057.6
5744	14.761	2.7273	0.1	2104.
5745	14.577	2.7273	0.1	2150.5
5746	14.392	2.7273	0.1	2197.3
5747	14.207	2.7273	0.1	2244.2
5748	14.022	2.7273	0.1	2291.3
5749	13.838	2.7273	0.1	2338.6
5750	13.653	2.7273	0.1	2386.
5751	13.468	2.7273	0.1	2433.7
5752	13.283	2.7273	0.1	2481.5
5753	13.099	2.7273	0.1	2529.4
5754	12.914	2.7273	0.1	2577.5
5755	12.729	2.7273	0.1	2625.8
5756	12.544	2.7273	0.1	2674.2
5757	12.359	2.7273	0.1	2722.7
5758	12.175	2.7273	0.1	2771.4
5759	11.99	2.7273	0.1	2820.2
5760	11.805	2.7273	0.1	2869.2
5761	11.62	2.7273	0.1	2918.2
5762	11.436	2.7273	0.1	2967.4
5763	11.251	2.7273	0.1	3016.6
5764	11.066	2.7273	0.1	3066.
5765	10.881	2.7273	0.1	3115.4
5766	10.697	2.7273	0.1	3164.9
5767	10.512	2.7273	0.1	3214.5
5768	10.327	2.7273	0.1	3264.1
5769	10.142	2.7273	0.1	3313.8
5770	9.9575	2.7273	0.1	3363.5
5771	9.7727	2.7273	0.1	3413.2
5772	9.5879	2.7273	0.1	3462.9
5773	9.4032	2.7273	0.1	3512.6
5774	9.2184	2.7273	0.1	3562.3
5775	9.0336	2.7273	0.1	3612.
5776	8.8489	2.7273	0.1	3661.6
5777	8.6641	2.7273	0.1	3711.2
5778	8.4793	2.7273	0.1	3760.8
5779	8.2945	2.7273	0.1	3810.3
5780	8.1098	2.7273	0.1	3859.9
5781	7.925	2.7273	0.1	3909.4
5782	7.7402	2.7273	0.1	3959.
5783	7.5555	2.7273	0.1	4008.7
5784	7.3707	2.7273	0.1	4058.7
5785	7.1859	2.7273	0.1	4109.1
5786	7.0011	2.7273	0.1	4160.1
5787	6.8164	2.7273	0.1	4211.9
5788	6.6316	2.7273	0.1	4265.
5789	6.4468	2.7273	0.1	4319.8
5790	6.2621	2.7273	0.1	4377.
5791	6.0773	2.7273	0.1	4437.4
5792	5.8925	2.7273	0.1	4502.3
5793	5.7078	2.7273	0.1	4573.
5794	5.523	2.7273	0.1	4651.6
5795	5.3382	2.7273	0.1	4740.7
5796	5.1534	2.7273	0.1	4843.5
5797	4.9687	2.7273	0.1	4964.6
5798	4.7839	2.7273	0.1	5109.6
5799	4.5991	2.7273	0.1	5286.3
5800	4.4144	2.7273	0.1	5504.6
5801	4.2296	2.7273	0.1	5777.8
5802	4.0448	2.7273	0.1	6123.7
5803	3.8601	2.7273	0.1	6565.5
5804	3.6753	2.7273	0.1	7133.5
5805	3.4905	2.7273	0.1	7864.9
5806	3.3057	2.7273	0.1	8798.9
5807	3.121	2.7273	0.1	9956.7
5808	2.9362	2.7273	0.1	11285
5809	2.7514	2.7273	0.1	12561
5810	23.815	2.9091	0.1	200.88
5811	23.63	2.9091	0.1	218.05
5812	23.446	2.9091	0.1	239.43
5813	23.261	2.9091	0.1	264.04
5814	23.076	2.9091	0.1	291.07
5815	22.891	2.9091	0.1	319.96
5816	22.707	2.9091	0.1	350.31
5817	22.522	2.9091	0.1	381.83
5818	22.337	2.9091	0.1	414.34
5819	22.152	2.9091	0.1	447.68
5820	21.968	2.9091	0.1	481.76
5821	21.783	2.9091	0.1	516.49
5822	21.598	2.9091	0.1	551.82
5823	21.413	2.9091	0.1	587.71
5824	21.228	2.9091	0.1	624.11
5825	21.044	2.9091	0.1	660.99
5826	20.859	2.9091	0.1	698.33
5827	20.674	2.9091	0.1	736.1
5828	20.489	2.9091	0.1	774.29
5829	20.305	2.9091	0.1	812.87
5830	20.12	2.9091	0.1	851.82
5831	19.935	2.9091	0.1	891.14
5832	19.75	2.9091	0.1	930.81
5833	19.566	2.9091	0.1	970.81
5834	19.381	2.9091	0.1	1011.1
5835	19.196	2.9091	0.1	1051.8
5836	19.011	2.9091	0.1	1092.7
5837	18.826	2.9091	0.1	1134.
5838	18.642	2.9091	0.1	1175.5
5839	18.457	2.9091	0.1	1217.3
5840	18.272	2.9091	0.1	1259.4
5841	18.087	2.9091	0.1	1301.7
5842	17.903	2.9091	0.1	1344.3
5843	17.718	2.9091	0.1	1387.2
5844	17.533	2.9091	0.1	1430.3
5845	17.348	2.9091	0.1	1473.6
5846	17.164	2.9091	0.1	1517.2
5847	16.979	2.9091	0.1	1561.
5848	16.794	2.9091	0.1	1605.1
5849	16.609	2.9091	0.1	1649.4
5850	16.424	2.9091	0.1	1693.9
5851	16.24	2.9091	0.1	1738.6
5852	16.055	2.9091	0.1	1783.5
5853	15.87	2.9091	0.1	1828.7
5854	15.685	2.9091	0.1	1874.1
5855	15.501	2.9091	0.1	1919.6
5856	15.316	2.9091	0.1	1965.4
5857	15.131	2.9091	0.1	2011.4
5858	14.946	2.9091	0.1	2057.5
5859	14.761	2.9091	0.1	2103.9
5860	14.577	2.9091	0.1	2150.4
5861	14.392	2.9091	0.1	2197.2
5862	14.207	2.9091	0.1	2244.1
5863	14.022	2.9091	0.1	2291.2
5864	13.838	2.9091	0.1	2338.5
5865	13.653	2.9091	0.1	2385.9
5866	13.468	2.9091	0.1	2433.5
5867	13.283	2.9091	0.1	2481.3
5868	13.099	2.9091	0.1	2529.3
5869	12.914	2.9091	0.1	2577.4
5870	12.729	2.9091	0.1	2625.6
5871	12.544	2.9091	0.1	2674.
5872	12.359	2.9091	0.1	2722.5
5873	12.175	2.9091	0.1	2771.2
5874	11.99	2.9091	0.1	2820.
5875	11.805	2.9091	0.1	2868.9
5876	11.62	2.9091	0.1	2918.
5877	11.436	2.9091	0.1	2967.1
5878	11.251	2.9091	0.1	3016.4
5879	11.066	2.9091	0.1	3065.7
5880	10.881	2.9091	0.1	3115.1
5881	10.697	2.9091	0.1	3164.6
5882	10.512	2.9091	0.1	3214.2
5883	10.327	2.9091	0.1	3263.8
5884	10.142	2.9091	0.1	3313.4
5885	9.9575	2.9091	0.1	3363.1
5886	9.7727	2.9091	0.1	3412.8
5887	9.5879	2.9091	0.1	3462.5
5888	9.4032	2.9091	0.1	3512.1
5889	9.2184	2.9091	0.1	3561.8
5890	9.0336	2.9091	0.1	3611.4
5891	8.8489	2.9091	0.1	3661.
5892	8.6641	2.9091	0.1	3710.5
5893	8.4793	2.9091	0.1	3760.
5894	8.2945	2.9091	0.1	3809.5
5895	8.1098	2.9091	0.1	3858.9
5896	7.925	2.9091	0.1	3908.4
5897	7.7402	2.9091	0.1	3957.9
5898	7.5555	2.9091	0.1	4007.6
5899	7.3707	2.9091	0.1	4057.5
5900	7.1859	2.9091	0.1	4107.8
5901	7.0011	2.9091	0.1	4158.7
5902	6.8164	2.9091	0.1	4210.5
5903	6.6316	2.9091	0.1	4263.5
5904	6.4468	2.9091	0.1	4318.4
5905	6.2621	2.9091	0.1	4375.6
5906	6.0773	2.9091	0.1	4436.3
5907	5.8925	2.9091	0.1	4501.5
5908	5.7078	2.9091	0.1	4572.8
5909	5.523	2.9091	0.1	4652.2
5910	5.3382	2.9091	0.1	4742.4
5911	5.1534	2.9091	0.1	4847.
5912	4.9687	2.9091	0.1	4970.6
5913	4.7839	2.9091	0.1	5119.1
5914	4.5991	2.9091	0.1	5300.6
5915	4.4144	2.9091	0.1	5525.5
5916	4.2296	2.9091	0.1	5807.7
5917	4.0448	2.9091	0.1	6165.3
5918	3.8601	2.9091	0.1	6621.7
5919	3.6753	2.9091	0.1	7205.8
5920	3.4905	2.9091	0.1	7949.7
5921	3.3057	2.9091	0.1	8878.8
5922	3.121	2.9091	0.1	9987.1
5923	2.9362	2.9091	0.1	11188
5924	2.7514	2.9091	0.1	12270
5925	23.815	3.0909	0.1	200.88
5926	23.63	3.0909	0.1	218.05
5927	23.446	3.0909	0.1	239.43
5928	23.261	3.0909	0.1	264.04
5929	23.076	3.0909	0.1	291.07
5930	22.891	3.0909	0.1	319.96
5931	22.707	3.0909	0.1	350.31
5932	22.522	3.0909	0.1	381.83
5933	22.337	3.0909	0.1	414.34
5934	22.152	3.0909	0.1	447.68
5935	21.968	3.0909	0.1	481.76
5936	21.783	3.0909	0.1	516.49
5937	21.598	3.0909	0.1	551.82
5938	21.413	3.0909	0.1	587.71
5939	21.228	3.0909	0.1	624.11
5940	21.044	3.0909	0.1	660.99
5941	20.859	3.0909	0.1	698.33
5942	20.674	3.0909	0.1	736.1
5943	20.489	3.0909	0.1	774.29
5944	20.305	3.0909	0.1	812.87
5945	20.12	3.0909	0.1	851.82
5946	19.935	3.0909	0.1	891.14
5947	19.75	3.0909	0.1	930.81
5948	19.566	3.0909	0.1	970.81
5949	19.381	3.0909	0.1	1011.1
5950	19.196	3.0909	0.1	1051.8
5951	19.011	3.0909	0.1	1092.7
5952	18.826	3.0909	0.1	1134.
5953	18.642	3.0909	0.1	1175.5
5954	18.457	3.0909	0.1	1217.3
5955	18.272	3.0909	0.1	1259.4
5956	18.087	3.0909	0.1	1301.7
5957	17.903	3.0909	0.1	1344.3
5958	17.718	3.0909	0.1	1387.2
5959	17.533	3.0909	0.1	1430.3
5960	17.348	3.0909	0.1	1473.6
5961	17.164	3.0909	0.1	1517.2
5962	16.979	3.0909	0.1	1561.
5963	16.794	3.0909	0.1	1605.1
5964	16.609	3.0909	0.1	1649.4
5965	16.424	3.0909	0.1	1693.9
5966	16.24	3.0909	0.1	1738.6
5967	16.055	3.0909	0.1	1783.5
5968	15.87	3.0909	0.1	1828.7
5969	15.685	3.0909	0.1	1874.1
5970	15.501	3.0909	0.1	1919.6
5971	15.316	3.0909	0.1	1965.4
5972	15.131	3.0909	0.1	2011.4
5973	14.946	3.0909	0.1	2057.5
5974	14.761	3.0909	0.1	2103.9
5975	14.577	3.0909	0.1	2150.4
5976	14.392	3.0909	0.1	2197.2
5977	14.207	3.0909	0.1	2244.1
5978	14.022	3.0909	0.1	2291.2
5979	13.838	3.0909	0.1	2338.5
5980	13.653	3.0909	0.1	2385.9
5981	13.468	3.0909	0.1	2433.5
5982	13.283	3.0909	0.1	2481.3
5983	13.099	3.0909	0.1	2529.3
5984	12.914	3.0909	0.1	2577.4
5985	12.729	3.0909	0.1	2625.6
5986	12.544	3.0909	0.1	2674.
5987	12.359	3.0909	0.1	2722.5
5988	12.175	3.0909	0.1	2771.2
5989	11.99	3.0909	0.1	2820.
5990	11.805	3.0909	0.1	2868.9
5991	11.62	3.0909	0.1	2918.
5992	11.436	3.0909	0.1	2967.1
5993	11.251	3.0909	0.1	3016.4
5994	11.066	3.0909	0.1	3065.7
5995	10.881	3.0909	0.1	3115.1
5996	10.697	3.0909	0.1	3164.6
5997	10.512	3.0909	0.1	3214.2
5998	10.327	3.0909	0.1	3263.8
5999	10.142	3.0909	0.1	3313.4
6000	9.9575	3.0909	0.1	3363.1
6001	9.7727	3.0909	0.1	3412.8
6002	9.5879	3.0909	0.1	3462.5
6003	9.4032	3.0909	0.1	3512.1
6004	9.2184	3.0909	0.1	3561.8
6005	9.0336	3.0909	0.1	3611.4
6006	8.8489	3.0909	0.1	3661.
6007	8.6641	3.0909	0.1	3710.5
6008	8.4793	3.0909	0.1	3760.
6009	8.2945	3.0909	0.1	3809.5
6010	8.1098	3.0909	0.1	3858.9
6011	7.925	3.0909	0.1	3908.4
6012	7.7402	3.0909	0.1	3957.9
6013	7.5555	3.0909	0.1	4007.6
6014	7.3707	3.0909	0.1	4057.5
6015	7.1859	3.0909	0.1	4107.8
6016	7.0011	3.0909	0.1	4158.7
6017	6.8164	3.0909	0.1	4210.5
6018	6.6316	3.0909	0.1	4263.5
6019	6.4468	3.0909	0.1	4318.4
6020	6.2621	3.0909	0.1	4375.6
6021	6.0773	3.0909	0.1	4436.3
6022	5.8925	3.0909	0.1	4501.5
6023	5.7078	3.0909	0.1	4572.8
6024	5.523	3.0909	0.1	4652.2
6025	5.3382	3.0909	0.1	4742.4
6026	5.1534	3.0909	0.1	4847.
6027	4.9687	3.0909	0.1	4970.6
6028	4.7839	3.0909	0.1	5119.1
6029	4.5991	3.0909	0.1	5300.6
6030	4.4144	3.0909	0.1	5525.5
6031	4.2296	3.0909	0.1	5807.7
6032	4.0448	3.0909	0.1	6165.3
6033	3.8601	3.0909	0.1	6621.7
6034	3.6753	3.0909	0.1	7205.8
6035	3.4905	3.0909	0.1	7949.7
6036	3.3057	3.0909	0.1	8878.8
6037	3.121	3.0909	0.1	9987.1
6038	2.9362	3.0909	0.1	11188
6039	2.7514	3.0909	0.1	12270
6040	23.815	3.2727	0.1	199.97
6041	23.63	3.2727	0.1	217.15
6042	23.446	3.2727	0.1	238.57
6043	23.261	3.2727	0.1	263.22
6044	23.076	3.2727	0.1	290.29
6045	22.891	3.2727	0.1	319.22
6046	22.707	3.2727	0.1	349.61
6047	22.522	3.2727	0.1	381.18
6048	22.337	3.2727	0.1	413.72
6049	22.152	3.2727	0.1	447.11
6050	21.968	3.2727	0.1	481.23
6051	21.783	3.2727	0.1	516.01
6052	21.598	3.2727	0.1	551.38
6053	21.413	3.2727	0.1	587.31
6054	21.228	3.2727	0.1	623.75
6055	21.044	3.2727	0.1	660.67
6056	20.859	3.2727	0.1	698.05
6057	20.674	3.2727	0.1	735.85
6058	20.489	3.2727	0.1	774.07
6059	20.305	3.2727	0.1	812.68
6060	20.12	3.2727	0.1	851.66
6061	19.935	3.2727	0.1	891.
6062	19.75	3.2727	0.1	930.69
6063	19.566	3.2727	0.1	970.71
6064	19.381	3.2727	0.1	1011.1
6065	19.196	3.2727	0.1	1051.7
6066	19.011	3.2727	0.1	1092.7
6067	18.826	3.2727	0.1	1133.9
6068	18.642	3.2727	0.1	1175.5
6069	18.457	3.2727	0.1	1217.3
6070	18.272	3.2727	0.1	1259.4
6071	18.087	3.2727	0.1	1301.7
6072	17.903	3.2727	0.1	1344.3
6073	17.718	3.2727	0.1	1387.2
6074	17.533	3.2727	0.1	1430.3
6075	17.348	3.2727	0.1	1473.7
6076	17.164	3.2727	0.1	1517.3
6077	16.979	3.2727	0.1	1561.1
6078	16.794	3.2727	0.1	1605.2
6079	16.609	3.2727	0.1	1649.5
6080	16.424	3.2727	0.1	1694.
6081	16.24	3.2727	0.1	1738.7
6082	16.055	3.2727	0.1	1783.6
6083	15.87	3.2727	0.1	1828.8
6084	15.685	3.2727	0.1	1874.1
6085	15.501	3.2727	0.1	1919.7
6086	15.316	3.2727	0.1	1965.5
6087	15.131	3.2727	0.1	2011.5
6088	14.946	3.2727	0.1	2057.6
6089	14.761	3.2727	0.1	2104.
6090	14.577	3.2727	0.1	2150.5
6091	14.392	3.2727	0.1	2197.3
6092	14.207	3.2727	0.1	2244.2
6093	14.022	3.2727	0.1	2291.3
6094	13.838	3.2727	0.1	2338.6
6095	13.653	3.2727	0.1	2386.
6096	13.468	3.2727	0.1	2433.7
6097	13.283	3.2727	0.1	2481.5
6098	13.099	3.2727	0.1	2529.4
6099	12.914	3.2727	0.1	2577.5
6100	12.729	3.2727	0.1	2625.8
6101	12.544	3.2727	0.1	2674.2
6102	12.359	3.2727	0.1	2722.7
6103	12.175	3.2727	0.1	2771.4
6104	11.99	3.2727	0.1	2820.2
6105	11.805	3.2727	0.1	2869.2
6106	11.62	3.2727	0.1	2918.2
6107	11.436	3.2727	0.1	2967.4
6108	11.251	3.2727	0.1	3016.6
6109	11.066	3.2727	0.1	3066.
6110	10.881	3.2727	0.1	3115.4
6111	10.697	3.2727	0.1	3164.9
6112	10.512	3.2727	0.1	3214.5
6113	10.327	3.2727	0.1	3264.1
6114	10.142	3.2727	0.1	3313.8
6115	9.9575	3.2727	0.1	3363.5
6116	9.7727	3.2727	0.1	3413.2
6117	9.5879	3.2727	0.1	3462.9
6118	9.4032	3.2727	0.1	3512.6
6119	9.2184	3.2727	0.1	3562.3
6120	9.0336	3.2727	0.1	3612.
6121	8.8489	3.2727	0.1	3661.6
6122	8.6641	3.2727	0.1	3711.2
6123	8.4793	3.2727	0.1	3760.8
6124	8.2945	3.2727	0.1	3810.3
6125	8.1098	3.2727	0.1	3859.9
6126	7.925	3.2727	0.1	3909.4
6127	7.7402	3.2727	0.1	3959.
6128	7.5555	3.2727	0.1	4008.7
6129	7.3707	3.2727	0.1	4058.7
6130	7.1859	3.2727	0.1	4109.1
6131	7.0011	3.2727	0.1	4160.1
6132	6.8164	3.2727	0.1	4211.9
6133	6.6316	3.2727	0.1	4265.
6134	6.4468	3.2727	0.1	4319.8
6135	6.2621	3.2727	0.1	4377.
6136	6.0773	3.2727	0.1	4437.4
6137	5.8925	3.2727	0.1	4502.3
6138	5.7078	3.2727	0.1	4573.
6139	5.523	3.2727	0.1	4651.6
6140	5.3382	3.2727	0.1	4740.7
6141	5.1534	3.2727	0.1	4843.5
6142	4.9687	3.2727	0.1	4964.6
6143	4.7839	3.2727	0.1	5109.6
6144	4.5991	3.2727	0.1	5286.3
6145	4.4144	3.2727	0.1	5504.6
6146	4.2296	3.2727	0.1	5777.8
6147	4.0448	3.2727	0.1	6123.7
6148	3.8601	3.2727	0.1	6565.5
6149	3.6753	3.2727	0.1	7133.5
6150	3.4905	3.2727	0.1	7864.9
6151	3.3057	3.2727	0.1	8798.9
6152	3.121	3.2727	0.1	9956.7
6153	2.9362	3.2727	0.1	11285
6154	2.7514	3.2727	0.1	12561
6155	23.815	3.4545	0.1	198.14
6156	23.63	3.4545	0.1	215.36
6157	23.446	3.4545	0.1	236.85
6158	23.261	3.4545	0.1	261.57
6159	23.076	3.4545	0.1	288.72
6160	22.891	3.4545	0.1	317.74
6161	22.707	3.4545	0.1	348.21
6162	22.522	3.4545	0.1	379.86
6163	22.337	3.4545	0.1	412.5
6164	22.152	3.4545	0.1	445.97
6165	21.968	3.4545	0.1	480.18
6166	21.783	3.4545	0.1	515.05
6167	21.598	3.4545	0.1	550.51
6168	21.413	3.4545	0.1	586.52
6169	21.228	3.4545	0.1	623.04
6170	21.044	3.4545	0.1	660.03
6171	20.859	3.4545	0.1	697.48
6172	20.674	3.4545	0.1	735.35
6173	20.489	3.4545	0.1	773.63
6174	20.305	3.4545	0.1	812.3
6175	20.12	3.4545	0.1	851.33
6176	19.935	3.4545	0.1	890.73
6177	19.75	3.4545	0.1	930.46
6178	19.566	3.4545	0.1	970.52
6179	19.381	3.4545	0.1	1010.9
6180	19.196	3.4545	0.1	1051.6
6181	19.011	3.4545	0.1	1092.6
6182	18.826	3.4545	0.1	1133.9
6183	18.642	3.4545	0.1	1175.4
6184	18.457	3.4545	0.1	1217.3
6185	18.272	3.4545	0.1	1259.4
6186	18.087	3.4545	0.1	1301.8
6187	17.903	3.4545	0.1	1344.4
6188	17.718	3.4545	0.1	1387.3
6189	17.533	3.4545	0.1	1430.4
6190	17.348	3.4545	0.1	1473.8
6191	17.164	3.4545	0.1	1517.4
6192	16.979	3.4545	0.1	1561.2
6193	16.794	3.4545	0.1	1605.3
6194	16.609	3.4545	0.1	1649.6
6195	16.424	3.4545	0.1	1694.1
6196	16.24	3.4545	0.1	1738.8
6197	16.055	3.4545	0.1	1783.8
6198	15.87	3.4545	0.1	1829.
6199	15.685	3.4545	0.1	1874.3
6200	15.501	3.4545	0.1	1919.9
6201	15.316	3.4545	0.1	1965.7
6202	15.131	3.4545	0.1	2011.7
6203	14.946	3.4545	0.1	2057.8
6204	14.761	3.4545	0.1	2104.2
6205	14.577	3.4545	0.1	2150.8
6206	14.392	3.4545	0.1	2197.5
6207	14.207	3.4545	0.1	2244.4
6208	14.022	3.4545	0.1	2291.6
6209	13.838	3.4545	0.1	2338.8
6210	13.653	3.4545	0.1	2386.3
6211	13.468	3.4545	0.1	2433.9
6212	13.283	3.4545	0.1	2481.7
6213	13.099	3.4545	0.1	2529.7
6214	12.914	3.4545	0.1	2577.8
6215	12.729	3.4545	0.1	2626.1
6216	12.544	3.4545	0.1	2674.5
6217	12.359	3.4545	0.1	2723.1
6218	12.175	3.4545	0.1	2771.8
6219	11.99	3.4545	0.1	2820.6
6220	11.805	3.4545	0.1	2869.6
6221	11.62	3.4545	0.1	2918.7
6222	11.436	3.4545	0.1	2967.9
6223	11.251	3.4545	0.1	3017.1
6224	11.066	3.4545	0.1	3066.5
6225	10.881	3.4545	0.1	3116.
6226	10.697	3.4545	0.1	3165.6
6227	10.512	3.4545	0.1	3215.2
6228	10.327	3.4545	0.1	3264.8
6229	10.142	3.4545	0.1	3314.6
6230	9.9575	3.4545	0.1	3364.3
6231	9.7727	3.4545	0.1	3414.1
6232	9.5879	3.4545	0.1	3463.9
6233	9.4032	3.4545	0.1	3513.7
6234	9.2184	3.4545	0.1	3563.5
6235	9.0336	3.4545	0.1	3613.2
6236	8.8489	3.4545	0.1	3663.
6237	8.6641	3.4545	0.1	3712.7
6238	8.4793	3.4545	0.1	3762.4
6239	8.2945	3.4545	0.1	3812.
6240	8.1098	3.4545	0.1	3861.7
6241	7.925	3.4545	0.1	3911.4
6242	7.7402	3.4545	0.1	3961.1
6243	7.5555	3.4545	0.1	4011.
6244	7.3707	3.4545	0.1	4061.2
6245	7.1859	3.4545	0.1	4111.7
6246	7.0011	3.4545	0.1	4162.8
6247	6.8164	3.4545	0.1	4214.7
6248	6.6316	3.4545	0.1	4267.8
6249	6.4468	3.4545	0.1	4322.6
6250	6.2621	3.4545	0.1	4379.6
6251	6.0773	3.4545	0.1	4439.6
6252	5.8925	3.4545	0.1	4503.8
6253	5.7078	3.4545	0.1	4573.5
6254	5.523	3.4545	0.1	4650.5
6255	5.3382	3.4545	0.1	4737.2
6256	5.1534	3.4545	0.1	4836.6
6257	4.9687	3.4545	0.1	4952.9
6258	4.7839	3.4545	0.1	5091.2
6259	4.5991	3.4545	0.1	5258.6
6260	4.4144	3.4545	0.1	5464.2
6261	4.2296	3.4545	0.1	5720.4
6262	4.0448	3.4545	0.1	6043.8
6263	3.8601	3.4545	0.1	6457.2
6264	3.6753	3.4545	0.1	6992.2
6265	3.4905	3.4545	0.1	7693.2
6266	3.3057	3.4545	0.1	8621.3
6267	3.121	3.4545	0.1	9852.4
6268	2.9362	3.4545	0.1	11435
6269	2.7514	3.4545	0.1	13171
6270	23.815	3.6364	0.1	195.37
6271	23.63	3.6364	0.1	212.66
6272	23.446	3.6364	0.1	234.25
6273	23.261	3.6364	0.1	259.09
6274	23.076	3.6364	0.1	286.37
6275	22.891	3.6364	0.1	315.51
6276	22.707	3.6364	0.1	346.11
6277	22.522	3.6364	0.1	377.9
6278	22.337	3.6364	0.1	410.66
6279	22.152	3.6364	0.1	444.27
6280	21.968	3.6364	0.1	478.62
6281	21.783	3.6364	0.1	513.62
6282	21.598	3.6364	0.1	549.21
6283	21.413	3.6364	0.1	585.34
6284	21.228	3.6364	0.1	621.98
6285	21.044	3.6364	0.1	659.1
6286	20.859	3.6364	0.1	696.65
6287	20.674	3.6364	0.1	734.62
6288	20.489	3.6364	0.1	772.99
6289	20.305	3.6364	0.1	811.75
6290	20.12	3.6364	0.1	850.86
6291	19.935	3.6364	0.1	890.33
6292	19.75	3.6364	0.1	930.13
6293	19.566	3.6364	0.1	970.25
6294	19.381	3.6364	0.1	1010.7
6295	19.196	3.6364	0.1	1051.4
6296	19.011	3.6364	0.1	1092.5
6297	18.826	3.6364	0.1	1133.8
6298	18.642	3.6364	0.1	1175.4
6299	18.457	3.6364	0.1	1217.3
6300	18.272	3.6364	0.1	1259.4
6301	18.087	3.6364	0.1	1301.8
6302	17.903	3.6364	0.1	1344.5
6303	17.718	3.6364	0.1	1387.4
6304	17.533	3.6364	0.1	1430.5
6305	17.348	3.6364	0.1	1473.9
6306	17.164	3.6364	0.1	1517.6
6307	16.979	3.6364	0.1	1561.4
6308	16.794	3.6364	0.1	1605.5
6309	16.609	3.6364	0.1	1649.8
6310	16.424	3.6364	0.1	1694.3
6311	16.24	3.6364	0.1	1739.1
6312	16.055	3.6364	0.1	1784.
6313	15.87	3.6364	0.1	1829.2
6314	15.685	3.6364	0.1	1874.6
6315	15.501	3.6364	0.1	1920.2
6316	15.316	3.6364	0.1	1966.
6317	15.131	3.6364	0.1	2012.
6318	14.946	3.6364	0.1	2058.1
6319	14.761	3.6364	0.1	2104.5
6320	14.577	3.6364	0.1	2151.1
6321	14.392	3.6364	0.1	2197.9
6322	14.207	3.6364	0.1	2244.8
6323	14.022	3.6364	0.1	2291.9
6324	13.838	3.6364	0.1	2339.2
6325	13.653	3.6364	0.1	2386.7
6326	13.468	3.6364	0.1	2434.4
6327	13.283	3.6364	0.1	2482.2
6328	13.099	3.6364	0.1	2530.1
6329	12.914	3.6364	0.1	2578.3
6330	12.729	3.6364	0.1	2626.6
6331	12.544	3.6364	0.1	2675.
6332	12.359	3.6364	0.1	2723.6
6333	12.175	3.6364	0.1	2772.4
6334	11.99	3.6364	0.1	2821.2
6335	11.805	3.6364	0.1	2870.2
6336	11.62	3.6364	0.1	2919.3
6337	11.436	3.6364	0.1	2968.6
6338	11.251	3.6364	0.1	3017.9
6339	11.066	3.6364	0.1	3067.3
6340	10.881	3.6364	0.1	3116.9
6341	10.697	3.6364	0.1	3166.5
6342	10.512	3.6364	0.1	3216.1
6343	10.327	3.6364	0.1	3265.9
6344	10.142	3.6364	0.1	3315.7
6345	9.9575	3.6364	0.1	3365.5
6346	9.7727	3.6364	0.1	3415.4
6347	9.5879	3.6364	0.1	3465.3
6348	9.4032	3.6364	0.1	3515.2
6349	9.2184	3.6364	0.1	3565.1
6350	9.0336	3.6364	0.1	3615.
6351	8.8489	3.6364	0.1	3664.9
6352	8.6641	3.6364	0.1	3714.8
6353	8.4793	3.6364	0.1	3764.6
6354	8.2945	3.6364	0.1	3814.5
6355	8.1098	3.6364	0.1	3864.4
6356	7.925	3.6364	0.1	3914.3
6357	7.7402	3.6364	0.1	3964.3
6358	7.5555	3.6364	0.1	4014.4
6359	7.3707	3.6364	0.1	4064.8
6360	7.1859	3.6364	0.1	4115.5
6361	7.0011	3.6364	0.1	4166.8
6362	6.8164	3.6364	0.1	4218.8
6363	6.6316	3.6364	0.1	4272.
6364	6.4468	3.6364	0.1	4326.6
6365	6.2621	3.6364	0.1	4383.3
6366	6.0773	3.6364	0.1	4442.7
6367	5.8925	3.6364	0.1	4505.9
6368	5.7078	3.6364	0.1	4574.1
6369	5.523	3.6364	0.1	4648.7
6370	5.3382	3.6364	0.1	4732.
6371	5.1534	3.6364	0.1	4826.6
6372	4.9687	3.6364	0.1	4936.
6373	4.7839	3.6364	0.1	5064.9
6374	4.5991	3.6364	0.1	5219.3
6375	4.4144	3.6364	0.1	5407.3
6376	4.2296	3.6364	0.1	5639.7
6377	4.0448	3.6364	0.1	5931.8
6378	3.8601	3.6364	0.1	6304.9
6379	3.6753	3.6364	0.1	6790.5
6380	3.4905	3.6364	0.1	7437.4
6381	3.3057	3.6364	0.1	8324.6
6382	3.121	3.6364	0.1	9595.5
6383	2.9362	3.6364	0.1	11470
6384	2.7514	3.6364	0.1	14203
6385	23.815	3.8182	0.1	191.65
6386	23.63	3.8182	0.1	209.02
6387	23.446	3.8182	0.1	230.76
6388	23.261	3.8182	0.1	255.76
6389	23.076	3.8182	0.1	283.21
6390	22.891	3.8182	0.1	312.52
6391	22.707	3.8182	0.1	343.31
6392	22.522	3.8182	0.1	375.28
6393	22.337	3.8182	0.1	408.23
6394	22.152	3.8182	0.1	442.03
6395	21.968	3.8182	0.1	476.56
6396	21.783	3.8182	0.1	511.74
6397	21.598	3.8182	0.1	547.51
6398	21.413	3.8182	0.1	583.81
6399	21.228	3.8182	0.1	620.61
6400	21.044	3.8182	0.1	657.88
6401	20.859	3.8182	0.1	695.57
6402	20.674	3.8182	0.1	733.68
6403	20.489	3.8182	0.1	772.17
6404	20.305	3.8182	0.1	811.04
6405	20.12	3.8182	0.1	850.26
6406	19.935	3.8182	0.1	889.82
6407	19.75	3.8182	0.1	929.71
6408	19.566	3.8182	0.1	969.91
6409	19.381	3.8182	0.1	1010.4
6410	19.196	3.8182	0.1	1051.2
6411	19.011	3.8182	0.1	1092.3
6412	18.826	3.8182	0.1	1133.7
6413	18.642	3.8182	0.1	1175.4
6414	18.457	3.8182	0.1	1217.3
6415	18.272	3.8182	0.1	1259.5
6416	18.087	3.8182	0.1	1301.9
6417	17.903	3.8182	0.1	1344.6
6418	17.718	3.8182	0.1	1387.5
6419	17.533	3.8182	0.1	1430.7
6420	17.348	3.8182	0.1	1474.1
6421	17.164	3.8182	0.1	1517.8
6422	16.979	3.8182	0.1	1561.7
6423	16.794	3.8182	0.1	1605.8
6424	16.609	3.8182	0.1	1650.1
6425	16.424	3.8182	0.1	1694.6
6426	16.24	3.8182	0.1	1739.4
6427	16.055	3.8182	0.1	1784.4
6428	15.87	3.8182	0.1	1829.6
6429	15.685	3.8182	0.1	1875.
6430	15.501	3.8182	0.1	1920.6
6431	15.316	3.8182	0.1	1966.4
6432	15.131	3.8182	0.1	2012.4
6433	14.946	3.8182	0.1	2058.6
6434	14.761	3.8182	0.1	2105.
6435	14.577	3.8182	0.1	2151.5
6436	14.392	3.8182	0.1	2198.3
6437	14.207	3.8182	0.1	2245.3
6438	14.022	3.8182	0.1	2292.4
6439	13.838	3.8182	0.1	2339.7
6440	13.653	3.8182	0.1	2387.2
6441	13.468	3.8182	0.1	2434.9
6442	13.283	3.8182	0.1	2482.7
6443	13.099	3.8182	0.1	2530.7
6444	12.914	3.8182	0.1	2578.9
6445	12.729	3.8182	0.1	2627.2
6446	12.544	3.8182	0.1	2675.7
6447	12.359	3.8182	0.1	2724.3
6448	12.175	3.8182	0.1	2773.1
6449	11.99	3.8182	0.1	2822.
6450	11.805	3.8182	0.1	2871.
6451	11.62	3.8182	0.1	2920.2
6452	11.436	3.8182	0.1	2969.5
6453	11.251	3.8182	0.1	3018.9
6454	11.066	3.8182	0.1	3068.4
6455	10.881	3.8182	0.1	3118.
6456	10.697	3.8182	0.1	3167.7
6457	10.512	3.8182	0.1	3217.4
6458	10.327	3.8182	0.1	3267.3
6459	10.142	3.8182	0.1	3317.2
6460	9.9575	3.8182	0.1	3367.1
6461	9.7727	3.8182	0.1	3417.1
6462	9.5879	3.8182	0.1	3467.2
6463	9.4032	3.8182	0.1	3517.2
6464	9.2184	3.8182	0.1	3567.3
6465	9.0336	3.8182	0.1	3617.4
6466	8.8489	3.8182	0.1	3667.4
6467	8.6641	3.8182	0.1	3717.5
6468	8.4793	3.8182	0.1	3767.6
6469	8.2945	3.8182	0.1	3817.7
6470	8.1098	3.8182	0.1	3867.9
6471	7.925	3.8182	0.1	3918.
6472	7.7402	3.8182	0.1	3968.3
6473	7.5555	3.8182	0.1	4018.7
6474	7.3707	3.8182	0.1	4069.4
6475	7.1859	3.8182	0.1	4120.4
6476	7.0011	3.8182	0.1	4171.9
6477	6.8164	3.8182	0.1	4224.
6478	6.6316	3.8182	0.1	4277.2
6479	6.4468	3.8182	0.1	4331.7
6480	6.2621	3.8182	0.1	4387.9
6481	6.0773	3.8182	0.1	4446.6
6482	5.8925	3.8182	0.1	4508.5
6483	5.7078	3.8182	0.1	4574.6
6484	5.523	3.8182	0.1	4646.3
6485	5.3382	3.8182	0.1	4725.3
6486	5.1534	3.8182	0.1	4813.8
6487	4.9687	3.8182	0.1	4914.7
6488	4.7839	3.8182	0.1	5031.8
6489	4.5991	3.8182	0.1	5170.3
6490	4.4144	3.8182	0.1	5336.7
6491	4.2296	3.8182	0.1	5540.6
6492	4.0448	3.8182	0.1	5794.8
6493	3.8601	3.8182	0.1	6118.6
6494	3.6753	3.8182	0.1	6541.8
6495	3.4905	3.8182	0.1	7111.1
6496	3.3057	3.8182	0.1	7916.4
6497	3.121	3.8182	0.1	9106.9
6498	2.9362	3.8182	0.1	11170
6499	2.7514	3.8182	0.1	15071
6500	23.815	4.	0.1	186.93
6501	23.63	4.	0.1	204.42
6502	23.446	4.	0.1	226.34
6503	23.261	4.	0.1	251.56
6504	23.076	4.	0.1	279.24
6505	22.891	4.	0.1	308.79
6506	22.707	4.	0.1	339.81
6507	22.522	4.	0.1	372.02
6508	22.337	4.	0.1	405.22
6509	22.152	4.	0.1	439.26
6510	21.968	4.	0.1	474.03
6511	21.783	4.	0.1	509.44
6512	21.598	4.	0.1	545.43
6513	21.413	4.	0.1	581.95
6514	21.228	4.	0.1	618.95
6515	21.044	4.	0.1	656.4
6516	20.859	4.	0.1	694.27
6517	20.674	4.	0.1	732.54
6518	20.489	4.	0.1	771.19
6519	20.305	4.	0.1	810.19
6520	20.12	4.	0.1	849.54
6521	19.935	4.	0.1	889.22
6522	19.75	4.	0.1	929.22
6523	19.566	4.	0.1	969.52
6524	19.381	4.	0.1	1010.1
6525	19.196	4.	0.1	1051.
6526	19.011	4.	0.1	1092.2
6527	18.826	4.	0.1	1133.6
6528	18.642	4.	0.1	1175.3
6529	18.457	4.	0.1	1217.3
6530	18.272	4.	0.1	1259.6
6531	18.087	4.	0.1	1302.
6532	17.903	4.	0.1	1344.8
6533	17.718	4.	0.1	1387.7
6534	17.533	4.	0.1	1431.
6535	17.348	4.	0.1	1474.4
6536	17.164	4.	0.1	1518.1
6537	16.979	4.	0.1	1562.
6538	16.794	4.	0.1	1606.1
6539	16.609	4.	0.1	1650.5
6540	16.424	4.	0.1	1695.
6541	16.24	4.	0.1	1739.8
6542	16.055	4.	0.1	1784.8
6543	15.87	4.	0.1	1830.
6544	15.685	4.	0.1	1875.4
6545	15.501	4.	0.1	1921.
6546	15.316	4.	0.1	1966.9
6547	15.131	4.	0.1	2012.9
6548	14.946	4.	0.1	2059.1
6549	14.761	4.	0.1	2105.5
6550	14.577	4.	0.1	2152.1
6551	14.392	4.	0.1	2198.9
6552	14.207	4.	0.1	2245.9
6553	14.022	4.	0.1	2293.
6554	13.838	4.	0.1	2340.4
6555	13.653	4.	0.1	2387.9
6556	13.468	4.	0.1	2435.6
6557	13.283	4.	0.1	2483.5
6558	13.099	4.	0.1	2531.5
6559	12.914	4.	0.1	2579.7
6560	12.729	4.	0.1	2628.
6561	12.544	4.	0.1	2676.6
6562	12.359	4.	0.1	2725.2
6563	12.175	4.	0.1	2774.
6564	11.99	4.	0.1	2823.
6565	11.805	4.	0.1	2872.1
6566	11.62	4.	0.1	2921.3
6567	11.436	4.	0.1	2970.6
6568	11.251	4.	0.1	3020.1
6569	11.066	4.	0.1	3069.7
6570	10.881	4.	0.1	3119.4
6571	10.697	4.	0.1	3169.2
6572	10.512	4.	0.1	3219.
6573	10.327	4.	0.1	3269.
6574	10.142	4.	0.1	3319.
6575	9.9575	4.	0.1	3369.1
6576	9.7727	4.	0.1	3419.2
6577	9.5879	4.	0.1	3469.4
6578	9.4032	4.	0.1	3519.7
6579	9.2184	4.	0.1	3569.9
6580	9.0336	4.	0.1	3620.2
6581	8.8489	4.	0.1	3670.5
6582	8.6641	4.	0.1	3720.9
6583	8.4793	4.	0.1	3771.2
6584	8.2945	4.	0.1	3821.6
6585	8.1098	4.	0.1	3872.1
6586	7.925	4.	0.1	3922.6
6587	7.7402	4.	0.1	3973.2
6588	7.5555	4.	0.1	4023.9
6589	7.3707	4.	0.1	4074.9
6590	7.1859	4.	0.1	4126.1
6591	7.0011	4.	0.1	4177.9
6592	6.8164	4.	0.1	4230.2
6593	6.6316	4.	0.1	4283.3
6594	6.4468	4.	0.1	4337.6
6595	6.2621	4.	0.1	4393.3
6596	6.0773	4.	0.1	4451.
6597	5.8925	4.	0.1	4511.3
6598	5.7078	4.	0.1	4575.
6599	5.523	4.	0.1	4643.2
6600	5.3382	4.	0.1	4717.
6601	5.1534	4.	0.1	4798.4
6602	4.9687	4.	0.1	4889.5
6603	4.7839	4.	0.1	4993.2
6604	4.5991	4.	0.1	5113.4
6605	4.4144	4.	0.1	5255.6
6606	4.2296	4.	0.1	5427.3
6607	4.0448	4.	0.1	5639.3
6608	3.8601	4.	0.1	5908.
6609	3.6753	4.	0.1	6259.6
6610	3.4905	4.	0.1	6736.4
6611	3.3057	4.	0.1	7422.
6612	3.121	4.	0.1	8467.2
6613	2.9362	4.	0.1	10308
6614	2.7514	4.	0.1	15510
6615	23.815	4.1818	0.1	181.17
6616	23.63	4.1818	0.1	198.81
6617	23.446	4.1818	0.1	220.97
6618	23.261	4.1818	0.1	246.47
6619	23.076	4.1818	0.1	274.44
6620	22.891	4.1818	0.1	304.29
6621	22.707	4.1818	0.1	335.62
6622	22.522	4.1818	0.1	368.14
6623	22.337	4.1818	0.1	401.65
6624	22.152	4.1818	0.1	435.99
6625	21.968	4.1818	0.1	471.06
6626	21.783	4.1818	0.1	506.75
6627	21.598	4.1818	0.1	543.02
6628	21.413	4.1818	0.1	579.79
6629	21.228	4.1818	0.1	617.04
6630	21.044	4.1818	0.1	654.71
6631	20.859	4.1818	0.1	692.79
6632	20.674	4.1818	0.1	731.26
6633	20.489	4.1818	0.1	770.08
6634	20.305	4.1818	0.1	809.25
6635	20.12	4.1818	0.1	848.74
6636	19.935	4.1818	0.1	888.56
6637	19.75	4.1818	0.1	928.68
6638	19.566	4.1818	0.1	969.09
6639	19.381	4.1818	0.1	1009.8
6640	19.196	4.1818	0.1	1050.8
6641	19.011	4.1818	0.1	1092.
6642	18.826	4.1818	0.1	1133.6
6643	18.642	4.1818	0.1	1175.3
6644	18.457	4.1818	0.1	1217.4
6645	18.272	4.1818	0.1	1259.7
6646	18.087	4.1818	0.1	1302.2
6647	17.903	4.1818	0.1	1345.
6648	17.718	4.1818	0.1	1388.
6649	17.533	4.1818	0.1	1431.3
6650	17.348	4.1818	0.1	1474.7
6651	17.164	4.1818	0.1	1518.4
6652	16.979	4.1818	0.1	1562.4
6653	16.794	4.1818	0.1	1606.5
6654	16.609	4.1818	0.1	1650.9
6655	16.424	4.1818	0.1	1695.5
6656	16.24	4.1818	0.1	1740.3
6657	16.055	4.1818	0.1	1785.3
6658	15.87	4.1818	0.1	1830.5
6659	15.685	4.1818	0.1	1876.
6660	15.501	4.1818	0.1	1921.6
6661	15.316	4.1818	0.1	1967.4
6662	15.131	4.1818	0.1	2013.5
6663	14.946	4.1818	0.1	2059.7
6664	14.761	4.1818	0.1	2106.1
6665	14.577	4.1818	0.1	2152.8
6666	14.392	4.1818	0.1	2199.6
6667	14.207	4.1818	0.1	2246.6
6668	14.022	4.1818	0.1	2293.8
6669	13.838	4.1818	0.1	2341.1
6670	13.653	4.1818	0.1	2388.7
6671	13.468	4.1818	0.1	2436.4
6672	13.283	4.1818	0.1	2484.3
6673	13.099	4.1818	0.1	2532.4
6674	12.914	4.1818	0.1	2580.6
6675	12.729	4.1818	0.1	2629.
6676	12.544	4.1818	0.1	2677.6
6677	12.359	4.1818	0.1	2726.3
6678	12.175	4.1818	0.1	2775.1
6679	11.99	4.1818	0.1	2824.2
6680	11.805	4.1818	0.1	2873.3
6681	11.62	4.1818	0.1	2922.6
6682	11.436	4.1818	0.1	2972.
6683	11.251	4.1818	0.1	3021.6
6684	11.066	4.1818	0.1	3071.2
6685	10.881	4.1818	0.1	3121.
6686	10.697	4.1818	0.1	3170.9
6687	10.512	4.1818	0.1	3220.9
6688	10.327	4.1818	0.1	3271.
6689	10.142	4.1818	0.1	3321.1
6690	9.9575	4.1818	0.1	3371.4
6691	9.7727	4.1818	0.1	3421.7
6692	9.5879	4.1818	0.1	3472.1
6693	9.4032	4.1818	0.1	3522.5
6694	9.2184	4.1818	0.1	3573.
6695	9.0336	4.1818	0.1	3623.6
6696	8.8489	4.1818	0.1	3674.1
6697	8.6641	4.1818	0.1	3724.7
6698	8.4793	4.1818	0.1	3775.4
6699	8.2945	4.1818	0.1	3826.1
6700	8.1098	4.1818	0.1	3876.9
6701	7.925	4.1818	0.1	3927.7
6702	7.7402	4.1818	0.1	3978.7
6703	7.5555	4.1818	0.1	4029.8
6704	7.3707	4.1818	0.1	4081.1
6705	7.1859	4.1818	0.1	4132.7
6706	7.0011	4.1818	0.1	4184.6
6707	6.8164	4.1818	0.1	4237.
6708	6.6316	4.1818	0.1	4290.1
6709	6.4468	4.1818	0.1	4344.
6710	6.2621	4.1818	0.1	4399.1
6711	6.0773	4.1818	0.1	4455.6
6712	5.8925	4.1818	0.1	4514.1
6713	5.7078	4.1818	0.1	4575.
6714	5.523	4.1818	0.1	4639.1
6715	5.3382	4.1818	0.1	4707.3
6716	5.1534	4.1818	0.1	4780.7
6717	4.9687	4.1818	0.1	4860.9
6718	4.7839	4.1818	0.1	4949.8
6719	4.5991	4.1818	0.1	5050.3
6720	4.4144	4.1818	0.1	5166.2
6721	4.2296	4.1818	0.1	5303.1
6722	4.0448	4.1818	0.1	5469.7
6723	3.8601	4.1818	0.1	5679.
6724	3.6753	4.1818	0.1	5952.8
6725	3.4905	4.1818	0.1	6327.1
6726	3.3057	4.1818	0.1	6868.7
6727	3.121	4.1818	0.1	7702.5
6728	2.9362	4.1818	0.1	9250.4
6729	2.7514	4.1818	0.1	12899
6730	23.815	4.3636	0.1	174.31
6731	23.63	4.3636	0.1	192.14
6732	23.446	4.3636	0.1	214.61
6733	23.261	4.3636	0.1	240.46
6734	23.076	4.3636	0.1	268.8
6735	22.891	4.3636	0.1	299.03
6736	22.707	4.3636	0.1	330.75
6737	22.522	4.3636	0.1	363.67
6738	22.337	4.3636	0.1	397.56
6739	22.152	4.3636	0.1	432.27
6740	21.968	4.3636	0.1	467.7
6741	21.783	4.3636	0.1	503.73
6742	21.598	4.3636	0.1	540.32
6743	21.413	4.3636	0.1	577.39
6744	21.228	4.3636	0.1	614.92
6745	21.044	4.3636	0.1	652.85
6746	20.859	4.3636	0.1	691.17
6747	20.674	4.3636	0.1	729.85
6748	20.489	4.3636	0.1	768.88
6749	20.305	4.3636	0.1	808.23
6750	20.12	4.3636	0.1	847.89
6751	19.935	4.3636	0.1	887.86
6752	19.75	4.3636	0.1	928.12
6753	19.566	4.3636	0.1	968.66
6754	19.381	4.3636	0.1	1009.5
6755	19.196	4.3636	0.1	1050.6
6756	19.011	4.3636	0.1	1091.9
6757	18.826	4.3636	0.1	1133.5
6758	18.642	4.3636	0.1	1175.4
6759	18.457	4.3636	0.1	1217.5
6760	18.272	4.3636	0.1	1259.8
6761	18.087	4.3636	0.1	1302.4
6762	17.903	4.3636	0.1	1345.3
6763	17.718	4.3636	0.1	1388.3
6764	17.533	4.3636	0.1	1431.6
6765	17.348	4.3636	0.1	1475.1
6766	17.164	4.3636	0.1	1518.9
6767	16.979	4.3636	0.1	1562.9
6768	16.794	4.3636	0.1	1607.
6769	16.609	4.3636	0.1	1651.4
6770	16.424	4.3636	0.1	1696.1
6771	16.24	4.3636	0.1	1740.9
6772	16.055	4.3636	0.1	1785.9
6773	15.87	4.3636	0.1	1831.2
6774	15.685	4.3636	0.1	1876.6
6775	15.501	4.3636	0.1	1922.3
6776	15.316	4.3636	0.1	1968.1
6777	15.131	4.3636	0.1	2014.2
6778	14.946	4.3636	0.1	2060.5
6779	14.761	4.3636	0.1	2106.9
6780	14.577	4.3636	0.1	2153.6
6781	14.392	4.3636	0.1	2200.4
6782	14.207	4.3636	0.1	2247.4
6783	14.022	4.3636	0.1	2294.6
6784	13.838	4.3636	0.1	2342.
6785	13.653	4.3636	0.1	2389.6
6786	13.468	4.3636	0.1	2437.4
6787	13.283	4.3636	0.1	2485.3
6788	13.099	4.3636	0.1	2533.4
6789	12.914	4.3636	0.1	2581.7
6790	12.729	4.3636	0.1	2630.1
6791	12.544	4.3636	0.1	2678.7
6792	12.359	4.3636	0.1	2727.5
6793	12.175	4.3636	0.1	2776.4
6794	11.99	4.3636	0.1	2825.5
6795	11.805	4.3636	0.1	2874.7
6796	11.62	4.3636	0.1	2924.1
6797	11.436	4.3636	0.1	2973.6
6798	11.251	4.3636	0.1	3023.2
6799	11.066	4.3636	0.1	3073.
6800	10.881	4.3636	0.1	3122.9
6801	10.697	4.3636	0.1	3172.9
6802	10.512	4.3636	0.1	3223.
6803	10.327	4.3636	0.1	3273.3
6804	10.142	4.3636	0.1	3323.6
6805	9.9575	4.3636	0.1	3374.
6806	9.7727	4.3636	0.1	3424.5
6807	9.5879	4.3636	0.1	3475.1
6808	9.4032	4.3636	0.1	3525.8
6809	9.2184	4.3636	0.1	3576.5
6810	9.0336	4.3636	0.1	3627.3
6811	8.8489	4.3636	0.1	3678.2
6812	8.6641	4.3636	0.1	3729.1
6813	8.4793	4.3636	0.1	3780.1
6814	8.2945	4.3636	0.1	3831.1
6815	8.1098	4.3636	0.1	3882.3
6816	7.925	4.3636	0.1	3933.5
6817	7.7402	4.3636	0.1	3984.8
6818	7.5555	4.3636	0.1	4036.3
6819	7.3707	4.3636	0.1	4087.9
6820	7.1859	4.3636	0.1	4139.7
6821	7.0011	4.3636	0.1	4191.8
6822	6.8164	4.3636	0.1	4244.3
6823	6.6316	4.3636	0.1	4297.3
6824	6.4468	4.3636	0.1	4350.8
6825	6.2621	4.3636	0.1	4405.
6826	6.0773	4.3636	0.1	4460.2
6827	5.8925	4.3636	0.1	4516.6
6828	5.7078	4.3636	0.1	4574.4
6829	5.523	4.3636	0.1	4634.1
6830	5.3382	4.3636	0.1	4696.
6831	5.1534	4.3636	0.1	4760.8
6832	4.9687	4.3636	0.1	4829.3
6833	4.7839	4.3636	0.1	4902.5
6834	4.5991	4.3636	0.1	4982.
6835	4.4144	4.3636	0.1	5070.1
6836	4.2296	4.3636	0.1	5170.5
6837	4.0448	4.3636	0.1	5289.
6838	3.8601	4.3636	0.1	5435.3
6839	3.6753	4.3636	0.1	5625.5
6840	3.4905	4.3636	0.1	5886.5
6841	3.3057	4.3636	0.1	6269.1
6842	3.121	4.3636	0.1	6842.8
6843	2.9362	4.3636	0.1	7787.4
6844	2.7514	4.3636	0.1	9595.9
6845	23.815	4.5455	0.1	166.26
6846	23.63	4.5455	0.1	184.33
6847	23.446	4.5455	0.1	207.2
6848	23.261	4.5455	0.1	233.5
6849	23.076	4.5455	0.1	262.31
6850	22.891	4.5455	0.1	293.03
6851	22.707	4.5455	0.1	325.25
6852	22.522	4.5455	0.1	358.64
6853	22.337	4.5455	0.1	393.
6854	22.152	4.5455	0.1	428.17
6855	21.968	4.5455	0.1	464.01
6856	21.783	4.5455	0.1	500.44
6857	21.598	4.5455	0.1	537.4
6858	21.413	4.5455	0.1	574.81
6859	21.228	4.5455	0.1	612.65
6860	21.044	4.5455	0.1	650.87
6861	20.859	4.5455	0.1	689.46
6862	20.674	4.5455	0.1	728.38
6863	20.489	4.5455	0.1	767.63
6864	20.305	4.5455	0.1	807.18
6865	20.12	4.5455	0.1	847.03
6866	19.935	4.5455	0.1	887.16
6867	19.75	4.5455	0.1	927.57
6868	19.566	4.5455	0.1	968.25
6869	19.381	4.5455	0.1	1009.2
6870	19.196	4.5455	0.1	1050.4
6871	19.011	4.5455	0.1	1091.8
6872	18.826	4.5455	0.1	1133.5
6873	18.642	4.5455	0.1	1175.5
6874	18.457	4.5455	0.1	1217.7
6875	18.272	4.5455	0.1	1260.1
6876	18.087	4.5455	0.1	1302.7
6877	17.903	4.5455	0.1	1345.6
6878	17.718	4.5455	0.1	1388.7
6879	17.533	4.5455	0.1	1432.1
6880	17.348	4.5455	0.1	1475.6
6881	17.164	4.5455	0.1	1519.4
6882	16.979	4.5455	0.1	1563.4
6883	16.794	4.5455	0.1	1607.6
6884	16.609	4.5455	0.1	1652.1
6885	16.424	4.5455	0.1	1696.7
6886	16.24	4.5455	0.1	1741.6
6887	16.055	4.5455	0.1	1786.6
6888	15.87	4.5455	0.1	1831.9
6889	15.685	4.5455	0.1	1877.4
6890	15.501	4.5455	0.1	1923.1
6891	15.316	4.5455	0.1	1968.9
6892	15.131	4.5455	0.1	2015.
6893	14.946	4.5455	0.1	2061.3
6894	14.761	4.5455	0.1	2107.8
6895	14.577	4.5455	0.1	2154.4
6896	14.392	4.5455	0.1	2201.3
6897	14.207	4.5455	0.1	2248.4
6898	14.022	4.5455	0.1	2295.6
6899	13.838	4.5455	0.1	2343.
6900	13.653	4.5455	0.1	2390.6
6901	13.468	4.5455	0.1	2438.4
6902	13.283	4.5455	0.1	2486.4
6903	13.099	4.5455	0.1	2534.6
6904	12.914	4.5455	0.1	2582.9
6905	12.729	4.5455	0.1	2631.4
6906	12.544	4.5455	0.1	2680.
6907	12.359	4.5455	0.1	2728.9
6908	12.175	4.5455	0.1	2777.9
6909	11.99	4.5455	0.1	2827.
6910	11.805	4.5455	0.1	2876.3
6911	11.62	4.5455	0.1	2925.8
6912	11.436	4.5455	0.1	2975.4
6913	11.251	4.5455	0.1	3025.1
6914	11.066	4.5455	0.1	3075.
6915	10.881	4.5455	0.1	3125.
6916	10.697	4.5455	0.1	3175.2
6917	10.512	4.5455	0.1	3225.4
6918	10.327	4.5455	0.1	3275.8
6919	10.142	4.5455	0.1	3326.3
6920	9.9575	4.5455	0.1	3376.9
6921	9.7727	4.5455	0.1	3427.6
6922	9.5879	4.5455	0.1	3478.5
6923	9.4032	4.5455	0.1	3529.4
6924	9.2184	4.5455	0.1	3580.4
6925	9.0336	4.5455	0.1	3631.4
6926	8.8489	4.5455	0.1	3682.6
6927	8.6641	4.5455	0.1	3733.8
6928	8.4793	4.5455	0.1	3785.2
6929	8.2945	4.5455	0.1	3836.6
6930	8.1098	4.5455	0.1	3888.1
6931	7.925	4.5455	0.1	3939.7
6932	7.7402	4.5455	0.1	3991.3
6933	7.5555	4.5455	0.1	4043.1
6934	7.3707	4.5455	0.1	4095.1
6935	7.1859	4.5455	0.1	4147.2
6936	7.0011	4.5455	0.1	4199.4
6937	6.8164	4.5455	0.1	4251.9
6938	6.6316	4.5455	0.1	4304.6
6939	6.4468	4.5455	0.1	4357.6
6940	6.2621	4.5455	0.1	4410.9
6941	6.0773	4.5455	0.1	4464.5
6942	5.8925	4.5455	0.1	4518.6
6943	5.7078	4.5455	0.1	4573.
6944	5.523	4.5455	0.1	4627.9
6945	5.3382	4.5455	0.1	4683.2
6946	5.1534	4.5455	0.1	4739.
6947	4.9687	4.5455	0.1	4795.3
6948	4.7839	4.5455	0.1	4852.1
6949	4.5991	4.5455	0.1	4909.9
6950	4.4144	4.5455	0.1	4969.3
6951	4.2296	4.5455	0.1	5031.8
6952	4.0448	4.5455	0.1	5100.4
6953	3.8601	4.5455	0.1	5180.7
6954	3.6753	4.5455	0.1	5282.7
6955	3.4905	4.5455	0.1	5423.7
6956	3.3057	4.5455	0.1	5631.6
6957	3.121	4.5455	0.1	5950.4
6958	2.9362	4.5455	0.1	6414.8
6959	2.7514	4.5455	0.1	7366.7
6960	23.815	4.7273	0.1	156.93
6961	23.63	4.7273	0.1	175.32
6962	23.446	4.7273	0.1	198.68
6963	23.261	4.7273	0.1	225.56
6964	23.076	4.7273	0.1	254.98
6965	22.891	4.7273	0.1	286.33
6966	22.707	4.7273	0.1	319.15
6967	22.522	4.7273	0.1	353.14
6968	22.337	4.7273	0.1	388.06
6969	22.152	4.7273	0.1	423.75
6970	21.968	4.7273	0.1	460.08
6971	21.783	4.7273	0.1	496.97
6972	21.598	4.7273	0.1	534.33
6973	21.413	4.7273	0.1	572.13
6974	21.228	4.7273	0.1	610.31
6975	21.044	4.7273	0.1	648.85
6976	20.859	4.7273	0.1	687.72
6977	20.674	4.7273	0.1	726.9
6978	20.489	4.7273	0.1	766.38
6979	20.305	4.7273	0.1	806.15
6980	20.12	4.7273	0.1	846.19
6981	19.935	4.7273	0.1	886.5
6982	19.75	4.7273	0.1	927.07
6983	19.566	4.7273	0.1	967.89
6984	19.381	4.7273	0.1	1009.
6985	19.196	4.7273	0.1	1050.3
6986	19.011	4.7273	0.1	1091.8
6987	18.826	4.7273	0.1	1133.6
6988	18.642	4.7273	0.1	1175.7
6989	18.457	4.7273	0.1	1217.9
6990	18.272	4.7273	0.1	1260.4
6991	18.087	4.7273	0.1	1303.1
6992	17.903	4.7273	0.1	1346.1
6993	17.718	4.7273	0.1	1389.2
6994	17.533	4.7273	0.1	1432.6
6995	17.348	4.7273	0.1	1476.2
6996	17.164	4.7273	0.1	1520.1
6997	16.979	4.7273	0.1	1564.1
6998	16.794	4.7273	0.1	1608.3
6999	16.609	4.7273	0.1	1652.8
7000	16.424	4.7273	0.1	1697.5
7001	16.24	4.7273	0.1	1742.4
7002	16.055	4.7273	0.1	1787.5
7003	15.87	4.7273	0.1	1832.7
7004	15.685	4.7273	0.1	1878.2
7005	15.501	4.7273	0.1	1924.
7006	15.316	4.7273	0.1	1969.9
7007	15.131	4.7273	0.1	2016.
7008	14.946	4.7273	0.1	2062.3
7009	14.761	4.7273	0.1	2108.8
7010	14.577	4.7273	0.1	2155.5
7011	14.392	4.7273	0.1	2202.3
7012	14.207	4.7273	0.1	2249.4
7013	14.022	4.7273	0.1	2296.7
7014	13.838	4.7273	0.1	2344.2
7015	13.653	4.7273	0.1	2391.8
7016	13.468	4.7273	0.1	2439.6
7017	13.283	4.7273	0.1	2487.7
7018	13.099	4.7273	0.1	2535.9
7019	12.914	4.7273	0.1	2584.2
7020	12.729	4.7273	0.1	2632.8
7021	12.544	4.7273	0.1	2681.5
7022	12.359	4.7273	0.1	2730.4
7023	12.175	4.7273	0.1	2779.5
7024	11.99	4.7273	0.1	2828.7
7025	11.805	4.7273	0.1	2878.1
7026	11.62	4.7273	0.1	2927.6
7027	11.436	4.7273	0.1	2977.3
7028	11.251	4.7273	0.1	3027.2
7029	11.066	4.7273	0.1	3077.2
7030	10.881	4.7273	0.1	3127.3
7031	10.697	4.7273	0.1	3177.6
7032	10.512	4.7273	0.1	3228.1
7033	10.327	4.7273	0.1	3278.6
7034	10.142	4.7273	0.1	3329.3
7035	9.9575	4.7273	0.1	3380.1
7036	9.7727	4.7273	0.1	3431.1
7037	9.5879	4.7273	0.1	3482.1
7038	9.4032	4.7273	0.1	3533.3
7039	9.2184	4.7273	0.1	3584.5
7040	9.0336	4.7273	0.1	3635.9
7041	8.8489	4.7273	0.1	3687.4
7042	8.6641	4.7273	0.1	3738.9
7043	8.4793	4.7273	0.1	3790.6
7044	8.2945	4.7273	0.1	3842.4
7045	8.1098	4.7273	0.1	3894.2
7046	7.925	4.7273	0.1	3946.2
7047	7.7402	4.7273	0.1	3998.2
7048	7.5555	4.7273	0.1	4050.3
7049	7.3707	4.7273	0.1	4102.5
7050	7.1859	4.7273	0.1	4154.8
7051	7.0011	4.7273	0.1	4207.1
7052	6.8164	4.7273	0.1	4259.5
7053	6.6316	4.7273	0.1	4311.9
7054	6.4468	4.7273	0.1	4364.2
7055	6.2621	4.7273	0.1	4416.4
7056	6.0773	4.7273	0.1	4468.3
7057	5.8925	4.7273	0.1	4519.8
7058	5.7078	4.7273	0.1	4570.7
7059	5.523	4.7273	0.1	4620.5
7060	5.3382	4.7273	0.1	4669.
7061	5.1534	4.7273	0.1	4715.4
7062	4.9687	4.7273	0.1	4759.2
7063	4.7839	4.7273	0.1	4799.5
7064	4.5991	4.7273	0.1	4835.3
7065	4.4144	4.7273	0.1	4865.7
7066	4.2296	4.7273	0.1	4890.1
7067	4.0448	4.7273	0.1	4908.4
7068	3.8601	4.7273	0.1	4922.
7069	3.6753	4.7273	0.1	4935.2
7070	3.4905	4.7273	0.1	4956.6
7071	3.3057	4.7273	0.1	5001.8
7072	3.121	4.7273	0.1	5093.7
7073	2.9362	4.7273	0.1	5274.9
7074	2.7514	4.7273	0.1	5824.1
7075	23.815	4.9091	0.1	146.16
7076	23.63	4.9091	0.1	164.97
7077	23.446	4.9091	0.1	189.
7078	23.261	4.9091	0.1	216.63
7079	23.076	4.9091	0.1	246.85
7080	22.891	4.9091	0.1	278.99
7081	22.707	4.9091	0.1	312.58
7082	22.522	4.9091	0.1	347.28
7083	22.337	4.9091	0.1	382.86
7084	22.152	4.9091	0.1	419.15
7085	21.968	4.9091	0.1	456.03
7086	21.783	4.9091	0.1	493.41
7087	21.598	4.9091	0.1	531.22
7088	21.413	4.9091	0.1	569.42
7089	21.228	4.9091	0.1	607.97
7090	21.044	4.9091	0.1	646.84
7091	20.859	4.9091	0.1	686.01
7092	20.674	4.9091	0.1	725.47
7093	20.489	4.9091	0.1	765.2
7094	20.305	4.9091	0.1	805.18
7095	20.12	4.9091	0.1	845.43
7096	19.935	4.9091	0.1	885.91
7097	19.75	4.9091	0.1	926.65
7098	19.566	4.9091	0.1	967.62
7099	19.381	4.9091	0.1	1008.8
7100	19.196	4.9091	0.1	1050.3
7101	19.011	4.9091	0.1	1091.9
7102	18.826	4.9091	0.1	1133.8
7103	18.642	4.9091	0.1	1175.9
7104	18.457	4.9091	0.1	1218.3
7105	18.272	4.9091	0.1	1260.8
7106	18.087	4.9091	0.1	1303.6
7107	17.903	4.9091	0.1	1346.6
7108	17.718	4.9091	0.1	1389.9
7109	17.533	4.9091	0.1	1433.3
7110	17.348	4.9091	0.1	1476.9
7111	17.164	4.9091	0.1	1520.8
7112	16.979	4.9091	0.1	1564.9
7113	16.794	4.9091	0.1	1609.2
7114	16.609	4.9091	0.1	1653.6
7115	16.424	4.9091	0.1	1698.4
7116	16.24	4.9091	0.1	1743.3
7117	16.055	4.9091	0.1	1788.4
7118	15.87	4.9091	0.1	1833.7
7119	15.685	4.9091	0.1	1879.2
7120	15.501	4.9091	0.1	1924.9
7121	15.316	4.9091	0.1	1970.9
7122	15.131	4.9091	0.1	2017.
7123	14.946	4.9091	0.1	2063.3
7124	14.761	4.9091	0.1	2109.9
7125	14.577	4.9091	0.1	2156.6
7126	14.392	4.9091	0.1	2203.5
7127	14.207	4.9091	0.1	2250.6
7128	14.022	4.9091	0.1	2297.9
7129	13.838	4.9091	0.1	2345.4
7130	13.653	4.9091	0.1	2393.1
7131	13.468	4.9091	0.1	2441.
7132	13.283	4.9091	0.1	2489.
7133	13.099	4.9091	0.1	2537.3
7134	12.914	4.9091	0.1	2585.7
7135	12.729	4.9091	0.1	2634.3
7136	12.544	4.9091	0.1	2683.1
7137	12.359	4.9091	0.1	2732.1
7138	12.175	4.9091	0.1	2781.2
7139	11.99	4.9091	0.1	2830.5
7140	11.805	4.9091	0.1	2880.
7141	11.62	4.9091	0.1	2929.7
7142	11.436	4.9091	0.1	2979.5
7143	11.251	4.9091	0.1	3029.4
7144	11.066	4.9091	0.1	3079.6
7145	10.881	4.9091	0.1	3129.9
7146	10.697	4.9091	0.1	3180.3
7147	10.512	4.9091	0.1	3230.9
7148	10.327	4.9091	0.1	3281.6
7149	10.142	4.9091	0.1	3332.5
7150	9.9575	4.9091	0.1	3383.5
7151	9.7727	4.9091	0.1	3434.7
7152	9.5879	4.9091	0.1	3486.
7153	9.4032	4.9091	0.1	3537.4
7154	9.2184	4.9091	0.1	3589.
7155	9.0336	4.9091	0.1	3640.6
7156	8.8489	4.9091	0.1	3692.4
7157	8.6641	4.9091	0.1	3744.3
7158	8.4793	4.9091	0.1	3796.3
7159	8.2945	4.9091	0.1	3848.4
7160	8.1098	4.9091	0.1	3900.6
7161	7.925	4.9091	0.1	3952.9
7162	7.7402	4.9091	0.1	4005.3
7163	7.5555	4.9091	0.1	4057.7
7164	7.3707	4.9091	0.1	4110.1
7165	7.1859	4.9091	0.1	4162.5
7166	7.0011	4.9091	0.1	4214.8
7167	6.8164	4.9091	0.1	4267.
7168	6.6316	4.9091	0.1	4318.9
7169	6.4468	4.9091	0.1	4370.5
7170	6.2621	4.9091	0.1	4421.4
7171	6.0773	4.9091	0.1	4471.4
7172	5.8925	4.9091	0.1	4520.2
7173	5.7078	4.9091	0.1	4567.3
7174	5.523	4.9091	0.1	4612.
7175	5.3382	4.9091	0.1	4653.4
7176	5.1534	4.9091	0.1	4690.5
7177	4.9687	4.9091	0.1	4721.9
7178	4.7839	4.9091	0.1	4745.7
7179	4.5991	4.9091	0.1	4759.9
7180	4.4144	4.9091	0.1	4762.1
7181	4.2296	4.9091	0.1	4749.4
7182	4.0448	4.9091	0.1	4719.1
7183	3.8601	4.9091	0.1	4668.9
7184	3.6753	4.9091	0.1	4598.2
7185	3.4905	4.9091	0.1	4510.1
7186	3.3057	4.9091	0.1	4415.
7187	3.121	4.9091	0.1	4335.6
7188	2.9362	4.9091	0.1	4322.2
7189	2.7514	4.9091	0.1	4644.6
7190	23.815	5.0909	0.1	133.76
7191	23.63	5.0909	0.1	153.17
7192	23.446	5.0909	0.1	178.09
7193	23.261	5.0909	0.1	206.75
7194	23.076	5.0909	0.1	238.02
7195	22.891	5.0909	0.1	271.17
7196	22.707	5.0909	0.1	305.68
7197	22.522	5.0909	0.1	341.22
7198	22.337	5.0909	0.1	377.55
7199	22.152	5.0909	0.1	414.51
7200	21.968	5.0909	0.1	451.99
7201	21.783	5.0909	0.1	489.9
7202	21.598	5.0909	0.1	528.19
7203	21.413	5.0909	0.1	566.81
7204	21.228	5.0909	0.1	605.74
7205	21.044	5.0909	0.1	644.95
7206	20.859	5.0909	0.1	684.43
7207	20.674	5.0909	0.1	724.16
7208	20.489	5.0909	0.1	764.13
7209	20.305	5.0909	0.1	804.35
7210	20.12	5.0909	0.1	844.79
7211	19.935	5.0909	0.1	885.46
7212	19.75	5.0909	0.1	926.36
7213	19.566	5.0909	0.1	967.47
7214	19.381	5.0909	0.1	1008.8
7215	19.196	5.0909	0.1	1050.4
7216	19.011	5.0909	0.1	1092.1
7217	18.826	5.0909	0.1	1134.1
7218	18.642	5.0909	0.1	1176.3
7219	18.457	5.0909	0.1	1218.8
7220	18.272	5.0909	0.1	1261.4
7221	18.087	5.0909	0.1	1304.2
7222	17.903	5.0909	0.1	1347.3
7223	17.718	5.0909	0.1	1390.6
7224	17.533	5.0909	0.1	1434.1
7225	17.348	5.0909	0.1	1477.8
7226	17.164	5.0909	0.1	1521.7
7227	16.979	5.0909	0.1	1565.8
7228	16.794	5.0909	0.1	1610.1
7229	16.609	5.0909	0.1	1654.6
7230	16.424	5.0909	0.1	1699.3
7231	16.24	5.0909	0.1	1744.3
7232	16.055	5.0909	0.1	1789.4
7233	15.87	5.0909	0.1	1834.8
7234	15.685	5.0909	0.1	1880.3
7235	15.501	5.0909	0.1	1926.1
7236	15.316	5.0909	0.1	1972.
7237	15.131	5.0909	0.1	2018.2
7238	14.946	5.0909	0.1	2064.5
7239	14.761	5.0909	0.1	2111.1
7240	14.577	5.0909	0.1	2157.8
7241	14.392	5.0909	0.1	2204.8
7242	14.207	5.0909	0.1	2251.9
7243	14.022	5.0909	0.1	2299.3
7244	13.838	5.0909	0.1	2346.8
7245	13.653	5.0909	0.1	2394.5
7246	13.468	5.0909	0.1	2442.4
7247	13.283	5.0909	0.1	2490.5
7248	13.099	5.0909	0.1	2538.8
7249	12.914	5.0909	0.1	2587.3
7250	12.729	5.0909	0.1	2636.
7251	12.544	5.0909	0.1	2684.8
7252	12.359	5.0909	0.1	2733.9
7253	12.175	5.0909	0.1	2783.1
7254	11.99	5.0909	0.1	2832.5
7255	11.805	5.0909	0.1	2882.1
7256	11.62	5.0909	0.1	2931.8
7257	11.436	5.0909	0.1	2981.8
7258	11.251	5.0909	0.1	3031.9
7259	11.066	5.0909	0.1	3082.1
7260	10.881	5.0909	0.1	3132.6
7261	10.697	5.0909	0.1	3183.2
7262	10.512	5.0909	0.1	3233.9
7263	10.327	5.0909	0.1	3284.9
7264	10.142	5.0909	0.1	3336.
7265	9.9575	5.0909	0.1	3387.2
7266	9.7727	5.0909	0.1	3438.6
7267	9.5879	5.0909	0.1	3490.1
7268	9.4032	5.0909	0.1	3541.8
7269	9.2184	5.0909	0.1	3593.6
7270	9.0336	5.0909	0.1	3645.6
7271	8.8489	5.0909	0.1	3697.7
7272	8.6641	5.0909	0.1	3749.9
7273	8.4793	5.0909	0.1	3802.3
7274	8.2945	5.0909	0.1	3854.7
7275	8.1098	5.0909	0.1	3907.2
7276	7.925	5.0909	0.1	3959.8
7277	7.7402	5.0909	0.1	4012.5
7278	7.5555	5.0909	0.1	4065.1
7279	7.3707	5.0909	0.1	4117.7
7280	7.1859	5.0909	0.1	4170.1
7281	7.0011	5.0909	0.1	4222.4
7282	6.8164	5.0909	0.1	4274.3
7283	6.6316	5.0909	0.1	4325.6
7284	6.4468	5.0909	0.1	4376.2
7285	6.2621	5.0909	0.1	4425.8
7286	6.0773	5.0909	0.1	4473.8
7287	5.8925	5.0909	0.1	4519.8
7288	5.7078	5.0909	0.1	4562.9
7289	5.523	5.0909	0.1	4602.4
7290	5.3382	5.0909	0.1	4636.8
7291	5.1534	5.0909	0.1	4664.7
7292	4.9687	5.0909	0.1	4684.
7293	4.7839	5.0909	0.1	4692.1
7294	4.5991	5.0909	0.1	4685.9
7295	4.4144	5.0909	0.1	4661.5
7296	4.2296	5.0909	0.1	4614.5
7297	4.0448	5.0909	0.1	4539.7
7298	3.8601	5.0909	0.1	4432.
7299	3.6753	5.0909	0.1	4287.3
7300	3.4905	5.0909	0.1	4105.2
7301	3.3057	5.0909	0.1	3894.2
7302	3.121	5.0909	0.1	3681.1
7303	2.9362	5.0909	0.1	3529.8
7304	2.7514	5.0909	0.1	3691.1
7305	23.815	5.2727	0.1	119.46
7306	23.63	5.2727	0.1	139.74
7307	23.446	5.2727	0.1	165.98
7308	23.261	5.2727	0.1	196.07
7309	23.076	5.2727	0.1	228.72
7310	22.891	5.2727	0.1	263.11
7311	22.707	5.2727	0.1	298.72
7312	22.522	5.2727	0.1	335.2
7313	22.337	5.2727	0.1	372.36
7314	22.152	5.2727	0.1	410.03
7315	21.968	5.2727	0.1	448.13
7316	21.783	5.2727	0.1	486.59
7317	21.598	5.2727	0.1	525.36
7318	21.413	5.2727	0.1	564.41
7319	21.228	5.2727	0.1	603.72
7320	21.044	5.2727	0.1	643.27
7321	20.859	5.2727	0.1	683.05
7322	20.674	5.2727	0.1	723.05
7323	20.489	5.2727	0.1	763.27
7324	20.305	5.2727	0.1	803.69
7325	20.12	5.2727	0.1	844.33
7326	19.935	5.2727	0.1	885.18
7327	19.75	5.2727	0.1	926.24
7328	19.566	5.2727	0.1	967.5
7329	19.381	5.2727	0.1	1009.
7330	19.196	5.2727	0.1	1050.6
7331	19.011	5.2727	0.1	1092.5
7332	18.826	5.2727	0.1	1134.6
7333	18.642	5.2727	0.1	1176.9
7334	18.457	5.2727	0.1	1219.4
7335	18.272	5.2727	0.1	1262.1
7336	18.087	5.2727	0.1	1305.
7337	17.903	5.2727	0.1	1348.1
7338	17.718	5.2727	0.1	1391.4
7339	17.533	5.2727	0.1	1435.
7340	17.348	5.2727	0.1	1478.7
7341	17.164	5.2727	0.1	1522.6
7342	16.979	5.2727	0.1	1566.8
7343	16.794	5.2727	0.1	1611.1
7344	16.609	5.2727	0.1	1655.7
7345	16.424	5.2727	0.1	1700.4
7346	16.24	5.2727	0.1	1745.4
7347	16.055	5.2727	0.1	1790.6
7348	15.87	5.2727	0.1	1835.9
7349	15.685	5.2727	0.1	1881.5
7350	15.501	5.2727	0.1	1927.3
7351	15.316	5.2727	0.1	1973.3
7352	15.131	5.2727	0.1	2019.4
7353	14.946	5.2727	0.1	2065.8
7354	14.761	5.2727	0.1	2112.4
7355	14.577	5.2727	0.1	2159.2
7356	14.392	5.2727	0.1	2206.2
7357	14.207	5.2727	0.1	2253.3
7358	14.022	5.2727	0.1	2300.7
7359	13.838	5.2727	0.1	2348.3
7360	13.653	5.2727	0.1	2396.
7361	13.468	5.2727	0.1	2444.
7362	13.283	5.2727	0.1	2492.2
7363	13.099	5.2727	0.1	2540.5
7364	12.914	5.2727	0.1	2589.1
7365	12.729	5.2727	0.1	2637.8
7366	12.544	5.2727	0.1	2686.7
7367	12.359	5.2727	0.1	2735.8
7368	12.175	5.2727	0.1	2785.1
7369	11.99	5.2727	0.1	2834.6
7370	11.805	5.2727	0.1	2884.3
7371	11.62	5.2727	0.1	2934.2
7372	11.436	5.2727	0.1	2984.2
7373	11.251	5.2727	0.1	3034.4
7374	11.066	5.2727	0.1	3084.9
7375	10.881	5.2727	0.1	3135.4
7376	10.697	5.2727	0.1	3186.2
7377	10.512	5.2727	0.1	3237.2
7378	10.327	5.2727	0.1	3288.3
7379	10.142	5.2727	0.1	3339.6
7380	9.9575	5.2727	0.1	3391.
7381	9.7727	5.2727	0.1	3442.7
7382	9.5879	5.2727	0.1	3494.5
7383	9.4032	5.2727	0.1	3546.4
7384	9.2184	5.2727	0.1	3598.5
7385	9.0336	5.2727	0.1	3650.8
7386	8.8489	5.2727	0.1	3703.2
7387	8.6641	5.2727	0.1	3755.7
7388	8.4793	5.2727	0.1	3808.4
7389	8.2945	5.2727	0.1	3861.1
7390	8.1098	5.2727	0.1	3914.
7391	7.925	5.2727	0.1	3966.8
7392	7.7402	5.2727	0.1	4019.7
7393	7.5555	5.2727	0.1	4072.5
7394	7.3707	5.2727	0.1	4125.2
7395	7.1859	5.2727	0.1	4177.7
7396	7.0011	5.2727	0.1	4229.7
7397	6.8164	5.2727	0.1	4281.2
7398	6.6316	5.2727	0.1	4331.9
7399	6.4468	5.2727	0.1	4381.5
7400	6.2621	5.2727	0.1	4429.5
7401	6.0773	5.2727	0.1	4475.4
7402	5.8925	5.2727	0.1	4518.4
7403	5.7078	5.2727	0.1	4557.7
7404	5.523	5.2727	0.1	4591.9
7405	5.3382	5.2727	0.1	4619.6
7406	5.1534	5.2727	0.1	4638.6
7407	4.9687	5.2727	0.1	4646.5
7408	4.7839	5.2727	0.1	4640.
7409	4.5991	5.2727	0.1	4615.1
7410	4.4144	5.2727	0.1	4566.9
7411	4.2296	5.2727	0.1	4489.6
7412	4.0448	5.2727	0.1	4376.5
7413	3.8601	5.2727	0.1	4220.4
7414	3.6753	5.2727	0.1	4014.9
7415	3.4905	5.2727	0.1	3756.8
7416	3.3057	5.2727	0.1	3452.8
7417	3.121	5.2727	0.1	3130.3
7418	2.9362	5.2727	0.1	2861.4
7419	2.7514	5.2727	0.1	2884.6
7420	23.815	5.4545	0.1	102.84
7421	23.63	5.4545	0.1	124.6
7422	23.446	5.4545	0.1	152.86
7423	23.261	5.4545	0.1	184.98
7424	23.076	5.4545	0.1	219.4
7425	22.891	5.4545	0.1	255.26
7426	22.707	5.4545	0.1	292.08
7427	22.522	5.4545	0.1	329.58
7428	22.337	5.4545	0.1	367.58
7429	22.152	5.4545	0.1	405.97
7430	21.968	5.4545	0.1	444.69
7431	21.783	5.4545	0.1	483.68
7432	21.598	5.4545	0.1	522.91
7433	21.413	5.4545	0.1	562.37
7434	21.228	5.4545	0.1	602.04
7435	21.044	5.4545	0.1	641.91
7436	20.859	5.4545	0.1	681.97
7437	20.674	5.4545	0.1	722.23
7438	20.489	5.4545	0.1	762.67
7439	20.305	5.4545	0.1	803.31
7440	20.12	5.4545	0.1	844.13
7441	19.935	5.4545	0.1	885.14
7442	19.75	5.4545	0.1	926.35
7443	19.566	5.4545	0.1	967.74
7444	19.381	5.4545	0.1	1009.3
7445	19.196	5.4545	0.1	1051.1
7446	19.011	5.4545	0.1	1093.1
7447	18.826	5.4545	0.1	1135.3
7448	18.642	5.4545	0.1	1177.6
7449	18.457	5.4545	0.1	1220.2
7450	18.272	5.4545	0.1	1263.
7451	18.087	5.4545	0.1	1305.9
7452	17.903	5.4545	0.1	1349.1
7453	17.718	5.4545	0.1	1392.5
7454	17.533	5.4545	0.1	1436.
7455	17.348	5.4545	0.1	1479.8
7456	17.164	5.4545	0.1	1523.8
7457	16.979	5.4545	0.1	1568.
7458	16.794	5.4545	0.1	1612.3
7459	16.609	5.4545	0.1	1656.9
7460	16.424	5.4545	0.1	1701.7
7461	16.24	5.4545	0.1	1746.7
7462	16.055	5.4545	0.1	1791.9
7463	15.87	5.4545	0.1	1837.3
7464	15.685	5.4545	0.1	1882.9
7465	15.501	5.4545	0.1	1928.7
7466	15.316	5.4545	0.1	1974.7
7467	15.131	5.4545	0.1	2020.9
7468	14.946	5.4545	0.1	2067.3
7469	14.761	5.4545	0.1	2113.9
7470	14.577	5.4545	0.1	2160.7
7471	14.392	5.4545	0.1	2207.7
7472	14.207	5.4545	0.1	2254.9
7473	14.022	5.4545	0.1	2302.3
7474	13.838	5.4545	0.1	2349.9
7475	13.653	5.4545	0.1	2397.7
7476	13.468	5.4545	0.1	2445.7
7477	13.283	5.4545	0.1	2493.9
7478	13.099	5.4545	0.1	2542.3
7479	12.914	5.4545	0.1	2590.9
7480	12.729	5.4545	0.1	2639.7
7481	12.544	5.4545	0.1	2688.7
7482	12.359	5.4545	0.1	2737.9
7483	12.175	5.4545	0.1	2787.3
7484	11.99	5.4545	0.1	2836.9
7485	11.805	5.4545	0.1	2886.7
7486	11.62	5.4545	0.1	2936.7
7487	11.436	5.4545	0.1	2986.8
7488	11.251	5.4545	0.1	3037.2
7489	11.066	5.4545	0.1	3087.7
7490	10.881	5.4545	0.1	3138.5
7491	10.697	5.4545	0.1	3189.4
7492	10.512	5.4545	0.1	3240.5
7493	10.327	5.4545	0.1	3291.9
7494	10.142	5.4545	0.1	3343.4
7495	9.9575	5.4545	0.1	3395.1
7496	9.7727	5.4545	0.1	3446.9
7497	9.5879	5.4545	0.1	3499.
7498	9.4032	5.4545	0.1	3551.2
7499	9.2184	5.4545	0.1	3603.6
7500	9.0336	5.4545	0.1	3656.1
7501	8.8489	5.4545	0.1	3708.8
7502	8.6641	5.4545	0.1	3761.7
7503	8.4793	5.4545	0.1	3814.6
7504	8.2945	5.4545	0.1	3867.7
7505	8.1098	5.4545	0.1	3920.8
7506	7.925	5.4545	0.1	3973.9
7507	7.7402	5.4545	0.1	4027.
7508	7.5555	5.4545	0.1	4080.
7509	7.3707	5.4545	0.1	4132.7
7510	7.1859	5.4545	0.1	4185.1
7511	7.0011	5.4545	0.1	4236.9
7512	6.8164	5.4545	0.1	4287.9
7513	6.6316	5.4545	0.1	4337.9
7514	6.4468	5.4545	0.1	4386.3
7515	6.2621	5.4545	0.1	4432.7
7516	6.0773	5.4545	0.1	4476.4
7517	5.8925	5.4545	0.1	4516.5
7518	5.7078	5.4545	0.1	4551.8
7519	5.523	5.4545	0.1	4581.
7520	5.3382	5.4545	0.1	4602.1
7521	5.1534	5.4545	0.1	4612.9
7522	4.9687	5.4545	0.1	4610.2
7523	4.7839	5.4545	0.1	4590.5
7524	4.5991	5.4545	0.1	4549.2
7525	4.4144	5.4545	0.1	4480.6
7526	4.2296	5.4545	0.1	4378.2
7527	4.0448	5.4545	0.1	4234.3
7528	3.8601	5.4545	0.1	4040.5
7529	3.6753	5.4545	0.1	3788.9
7530	3.4905	5.4545	0.1	3474.3
7531	3.3057	5.4545	0.1	3099.4
7532	3.121	5.4545	0.1	2685.8
7533	2.9362	5.4545	0.1	2302.7
7534	2.7514	5.4545	0.1	2180.4
7535	23.815	5.6364	0.1	83.389
7536	23.63	5.6364	0.1	108.04
7537	23.446	5.6364	0.1	139.64
7538	23.261	5.6364	0.1	174.49
7539	23.076	5.6364	0.1	210.97
7540	22.891	5.6364	0.1	248.42
7541	22.707	5.6364	0.1	286.47
7542	22.522	5.6364	0.1	324.95
7543	22.337	5.6364	0.1	363.75
7544	22.152	5.6364	0.1	402.81
7545	21.968	5.6364	0.1	442.09
7546	21.783	5.6364	0.1	481.56
7547	21.598	5.6364	0.1	521.22
7548	21.413	5.6364	0.1	561.05
7549	21.228	5.6364	0.1	601.04
7550	21.044	5.6364	0.1	641.2
7551	20.859	5.6364	0.1	681.52
7552	20.674	5.6364	0.1	722.
7553	20.489	5.6364	0.1	762.65
7554	20.305	5.6364	0.1	803.46
7555	20.12	5.6364	0.1	844.45
7556	19.935	5.6364	0.1	885.61
7557	19.75	5.6364	0.1	926.94
7558	19.566	5.6364	0.1	968.46
7559	19.381	5.6364	0.1	1010.1
7560	19.196	5.6364	0.1	1052.
7561	19.011	5.6364	0.1	1094.1
7562	18.826	5.6364	0.1	1136.3
7563	18.642	5.6364	0.1	1178.8
7564	18.457	5.6364	0.1	1221.4
7565	18.272	5.6364	0.1	1264.2
7566	18.087	5.6364	0.1	1307.2
7567	17.903	5.6364	0.1	1350.4
7568	17.718	5.6364	0.1	1393.8
7569	17.533	5.6364	0.1	1437.5
7570	17.348	5.6364	0.1	1481.3
7571	17.164	5.6364	0.1	1525.3
7572	16.979	5.6364	0.1	1569.5
7573	16.794	5.6364	0.1	1613.9
7574	16.609	5.6364	0.1	1658.5
7575	16.424	5.6364	0.1	1703.3
7576	16.24	5.6364	0.1	1748.3
7577	16.055	5.6364	0.1	1793.5
7578	15.87	5.6364	0.1	1838.9
7579	15.685	5.6364	0.1	1884.5
7580	15.501	5.6364	0.1	1930.3
7581	15.316	5.6364	0.1	1976.3
7582	15.131	5.6364	0.1	2022.5
7583	14.946	5.6364	0.1	2069.
7584	14.761	5.6364	0.1	2115.6
7585	14.577	5.6364	0.1	2162.4
7586	14.392	5.6364	0.1	2209.5
7587	14.207	5.6364	0.1	2256.7
7588	14.022	5.6364	0.1	2304.1
7589	13.838	5.6364	0.1	2351.8
7590	13.653	5.6364	0.1	2399.6
7591	13.468	5.6364	0.1	2447.7
7592	13.283	5.6364	0.1	2495.9
7593	13.099	5.6364	0.1	2544.4
7594	12.914	5.6364	0.1	2593.1
7595	12.729	5.6364	0.1	2641.9
7596	12.544	5.6364	0.1	2691.
7597	12.359	5.6364	0.1	2740.3
7598	12.175	5.6364	0.1	2789.7
7599	11.99	5.6364	0.1	2839.4
7600	11.805	5.6364	0.1	2889.3
7601	11.62	5.6364	0.1	2939.4
7602	11.436	5.6364	0.1	2989.7
7603	11.251	5.6364	0.1	3040.2
7604	11.066	5.6364	0.1	3090.9
7605	10.881	5.6364	0.1	3141.8
7606	10.697	5.6364	0.1	3192.9
7607	10.512	5.6364	0.1	3244.2
7608	10.327	5.6364	0.1	3295.7
7609	10.142	5.6364	0.1	3347.4
7610	9.9575	5.6364	0.1	3399.3
7611	9.7727	5.6364	0.1	3451.4
7612	9.5879	5.6364	0.1	3503.7
7613	9.4032	5.6364	0.1	3556.2
7614	9.2184	5.6364	0.1	3608.9
7615	9.0336	5.6364	0.1	3661.7
7616	8.8489	5.6364	0.1	3714.7
7617	8.6641	5.6364	0.1	3767.9
7618	8.4793	5.6364	0.1	3821.1
7619	8.2945	5.6364	0.1	3874.4
7620	8.1098	5.6364	0.1	3927.8
7621	7.925	5.6364	0.1	3981.2
7622	7.7402	5.6364	0.1	4034.4
7623	7.5555	5.6364	0.1	4087.5
7624	7.3707	5.6364	0.1	4140.2
7625	7.1859	5.6364	0.1	4192.4
7626	7.0011	5.6364	0.1	4243.9
7627	6.8164	5.6364	0.1	4294.4
7628	6.6316	5.6364	0.1	4343.6
7629	6.4468	5.6364	0.1	4390.8
7630	6.2621	5.6364	0.1	4435.6
7631	6.0773	5.6364	0.1	4477.
7632	5.8925	5.6364	0.1	4514.2
7633	5.7078	5.6364	0.1	4545.8
7634	5.523	5.6364	0.1	4570.1
7635	5.3382	5.6364	0.1	4585.1
7636	5.1534	5.6364	0.1	4588.2
7637	4.9687	5.6364	0.1	4576.1
7638	4.7839	5.6364	0.1	4544.8
7639	4.5991	5.6364	0.1	4489.5
7640	4.4144	5.6364	0.1	4404.2
7641	4.2296	5.6364	0.1	4282.1
7642	4.0448	5.6364	0.1	4115.1
7643	3.8601	5.6364	0.1	3894.8
7644	3.6753	5.6364	0.1	3612.6
7645	3.4905	5.6364	0.1	3261.8
7646	3.3057	5.6364	0.1	2840.7
7647	3.121	5.6364	0.1	2359.6
7648	2.9362	5.6364	0.1	1865.
7649	2.7514	5.6364	0.1	1558.
7650	23.815	5.8182	0.1	61.789
7651	23.63	5.8182	0.1	94.131
7652	23.446	5.8182	0.1	131.04
7653	23.261	5.8182	0.1	169.17
7654	23.076	5.8182	0.1	207.85
7655	22.891	5.8182	0.1	246.86
7656	22.707	5.8182	0.1	286.09
7657	22.522	5.8182	0.1	325.49
7658	22.337	5.8182	0.1	365.03
7659	22.152	5.8182	0.1	404.69
7660	21.968	5.8182	0.1	444.47
7661	21.783	5.8182	0.1	484.37
7662	21.598	5.8182	0.1	524.38
7663	21.413	5.8182	0.1	564.51
7664	21.228	5.8182	0.1	604.76
7665	21.044	5.8182	0.1	645.14
7666	20.859	5.8182	0.1	685.65
7667	20.674	5.8182	0.1	726.29
7668	20.489	5.8182	0.1	767.08
7669	20.305	5.8182	0.1	808.01
7670	20.12	5.8182	0.1	849.1
7671	19.935	5.8182	0.1	890.33
7672	19.75	5.8182	0.1	931.73
7673	19.566	5.8182	0.1	973.3
7674	19.381	5.8182	0.1	1015.
7675	19.196	5.8182	0.1	1056.9
7676	19.011	5.8182	0.1	1099.
7677	18.826	5.8182	0.1	1141.3
7678	18.642	5.8182	0.1	1183.7
7679	18.457	5.8182	0.1	1226.4
7680	18.272	5.8182	0.1	1269.2
7681	18.087	5.8182	0.1	1312.2
7682	17.903	5.8182	0.1	1355.4
7683	17.718	5.8182	0.1	1398.8
7684	17.533	5.8182	0.1	1442.3
7685	17.348	5.8182	0.1	1486.1
7686	17.164	5.8182	0.1	1530.1
7687	16.979	5.8182	0.1	1574.3
7688	16.794	5.8182	0.1	1618.6
7689	16.609	5.8182	0.1	1663.2
7690	16.424	5.8182	0.1	1708.
7691	16.24	5.8182	0.1	1753.
7692	16.055	5.8182	0.1	1798.1
7693	15.87	5.8182	0.1	1843.5
7694	15.685	5.8182	0.1	1889.1
7695	15.501	5.8182	0.1	1934.9
7696	15.316	5.8182	0.1	1980.9
7697	15.131	5.8182	0.1	2027.1
7698	14.946	5.8182	0.1	2073.5
7699	14.761	5.8182	0.1	2120.1
7700	14.577	5.8182	0.1	2166.9
7701	14.392	5.8182	0.1	2213.9
7702	14.207	5.8182	0.1	2261.2
7703	14.022	5.8182	0.1	2308.6
7704	13.838	5.8182	0.1	2356.2
7705	13.653	5.8182	0.1	2404.1
7706	13.468	5.8182	0.1	2452.1
7707	13.283	5.8182	0.1	2500.4
7708	13.099	5.8182	0.1	2548.9
7709	12.914	5.8182	0.1	2597.6
7710	12.729	5.8182	0.1	2646.5
7711	12.544	5.8182	0.1	2695.6
7712	12.359	5.8182	0.1	2744.9
7713	12.175	5.8182	0.1	2794.4
7714	11.99	5.8182	0.1	2844.1
7715	11.805	5.8182	0.1	2894.1
7716	11.62	5.8182	0.1	2944.2
7717	11.436	5.8182	0.1	2994.6
7718	11.251	5.8182	0.1	3045.2
7719	11.066	5.8182	0.1	3096.
7720	10.881	5.8182	0.1	3147.
7721	10.697	5.8182	0.1	3198.2
7722	10.512	5.8182	0.1	3249.7
7723	10.327	5.8182	0.1	3301.4
7724	10.142	5.8182	0.1	3353.2
7725	9.9575	5.8182	0.1	3405.3
7726	9.7727	5.8182	0.1	3457.6
7727	9.5879	5.8182	0.1	3510.1
7728	9.4032	5.8182	0.1	3562.8
7729	9.2184	5.8182	0.1	3615.7
7730	9.0336	5.8182	0.1	3668.8
7731	8.8489	5.8182	0.1	3722.
7732	8.6641	5.8182	0.1	3775.4
7733	8.4793	5.8182	0.1	3828.9
7734	8.2945	5.8182	0.1	3882.4
7735	8.1098	5.8182	0.1	3936.
7736	7.925	5.8182	0.1	3989.5
7737	7.7402	5.8182	0.1	4042.8
7738	7.5555	5.8182	0.1	4095.9
7739	7.3707	5.8182	0.1	4148.6
7740	7.1859	5.8182	0.1	4200.6
7741	7.0011	5.8182	0.1	4251.7
7742	6.8164	5.8182	0.1	4301.6
7743	6.6316	5.8182	0.1	4349.9
7744	6.4468	5.8182	0.1	4395.9
7745	6.2621	5.8182	0.1	4439.
7746	6.0773	5.8182	0.1	4478.3
7747	5.8925	5.8182	0.1	4512.6
7748	5.7078	5.8182	0.1	4540.6
7749	5.523	5.8182	0.1	4560.3
7750	5.3382	5.8182	0.1	4569.7
7751	5.1534	5.8182	0.1	4565.9
7752	4.9687	5.8182	0.1	4545.6
7753	4.7839	5.8182	0.1	4504.5
7754	4.5991	5.8182	0.1	4437.9
7755	4.4144	5.8182	0.1	4339.8
7756	4.2296	5.8182	0.1	4203.6
7757	4.0448	5.8182	0.1	4021.7
7758	3.8601	5.8182	0.1	3786.3
7759	3.6753	5.8182	0.1	3489.5
7760	3.4905	5.8182	0.1	3124.7
7761	3.3057	5.8182	0.1	2687.7
7762	3.121	5.8182	0.1	2178.8
7763	2.9362	5.8182	0.1	1610.5
7764	2.7514	5.8182	0.1	1068.4
7765	0.18462	0.18182	0.1	3764.8
7766	0.18462	0.36364	0.1	4259.7
7767	0.18462	0.54545	0.1	4928.1
7768	0.18462	0.72727	0.1	5476.
7769	0.18462	0.90909	0.1	5912.1
7770	0.18462	1.0909	0.1	6264.7
7771	0.18462	1.2727	0.1	6555.6
7772	0.18462	1.4545	0.1	6799.3
7773	0.18462	1.6364	0.1	7005.4
7774	0.18462	1.8182	0.1	7180.
7775	0.18462	2.	0.1	7327.2
7776	0.18462	2.1818	0.1	7449.7
7777	0.18462	2.3636	0.1	7548.5
7778	0.18462	2.5455	0.1	7623.7
7779	0.18462	2.7273	0.1	7674.5
7780	0.18462	2.9091	0.1	7700.3
7781	0.18462	3.0909	0.1	7700.3
7782	0.18462	3.2727	0.1	7674.5
7783	0.18462	3.4545	0.1	7623.7
7784	0.18462	3.6364	0.1	7548.5
7785	0.18462	3.8182	0.1	7449.7
7786	0.18462	4.	0.1	7327.2
7787	0.18462	4.1818	0.1	7180.
7788	0.18462	4.3636	0.1	7005.4
7789	0.18462	4.5455	0.1	6799.3
7790	0.18462	4.7273	0.1	6555.6
7791	0.18462	4.9091	0.1	6264.7
7792	0.18462	5.0909	0.1	5912.1
7793	0.18462	5.2727	0.1	5476.
7794	0.18462	5.4545	0.1	4928.1
7795	0.18462	5.6364	0.1	4259.7
7796	0.18462	5.8182	0.1	3764.8
7797	0.36923	0.18182	0.1	4588.4
7798	0.36923	0.36364	0.1	4387.6
7799	0.36923	0.54545	0.1	4481.7
7800	0.36923	0.72727	0.1	4715.5
7801	0.36923	0.90909	0.1	4986.
7802	0.36923	1.0909	0.1	5252.3
7803	0.36923	1.2727	0.1	5500.7
7804	0.36923	1.4545	0.1	5727.2
7805	0.36923	1.6364	0.1	5931.3
7806	0.36923	1.8182	0.1	6113.
7807	0.36923	2.	0.1	6272.1
7808	0.36923	2.1818	0.1	6408.2
7809	0.36923	2.3636	0.1	6520.2
7810	0.36923	2.5455	0.1	6606.4
7811	0.36923	2.7273	0.1	6665.1
7812	0.36923	2.9091	0.1	6694.9
7813	0.36923	3.0909	0.1	6694.9
7814	0.36923	3.2727	0.1	6665.1
7815	0.36923	3.4545	0.1	6606.4
7816	0.36923	3.6364	0.1	6520.2
7817	0.36923	3.8182	0.1	6408.2
7818	0.36923	4.	0.1	6272.1
7819	0.36923	4.1818	0.1	6113.
7820	0.36923	4.3636	0.1	5931.3
7821	0.36923	4.5455	0.1	5727.2
7822	0.36923	4.7273	0.1	5500.7
7823	0.36923	4.9091	0.1	5252.3
7824	0.36923	5.0909	0.1	4986.
7825	0.36923	5.2727	0.1	4715.5
7826	0.36923	5.4545	0.1	4481.7
7827	0.36923	5.6364	0.1	4387.6
7828	0.36923	5.8182	0.1	4588.4
7829	0.55385	0.18182	0.1	4957.7
7830	0.55385	0.36364	0.1	4799.2
7831	0.55385	0.54545	0.1	4804.9
7832	0.55385	0.72727	0.1	4920.3
7833	0.55385	0.90909	0.1	5106.9
7834	0.55385	1.0909	0.1	5328.3
7835	0.55385	1.2727	0.1	5561.2
7836	0.55385	1.4545	0.1	5791.9
7837	0.55385	1.6364	0.1	6012.3
7838	0.55385	1.8182	0.1	6217.4
7839	0.55385	2.	0.1	6403.1
7840	0.55385	2.1818	0.1	6566.1
7841	0.55385	2.3636	0.1	6702.8
7842	0.55385	2.5455	0.1	6809.6
7843	0.55385	2.7273	0.1	6883.1
7844	0.55385	2.9091	0.1	6920.6
7845	0.55385	3.0909	0.1	6920.6
7846	0.55385	3.2727	0.1	6883.1
7847	0.55385	3.4545	0.1	6809.6
7848	0.55385	3.6364	0.1	6702.8
7849	0.55385	3.8182	0.1	6566.1
7850	0.55385	4.	0.1	6403.1
7851	0.55385	4.1818	0.1	6217.4
7852	0.55385	4.3636	0.1	6012.3
7853	0.55385	4.5455	0.1	5791.9
7854	0.55385	4.7273	0.1	5561.2
7855	0.55385	4.9091	0.1	5328.3
7856	0.55385	5.0909	0.1	5106.9
7857	0.55385	5.2727	0.1	4920.3
7858	0.55385	5.4545	0.1	4804.9
7859	0.55385	5.6364	0.1	4799.2
7860	0.55385	5.8182	0.1	4957.7
7861	0.73846	0.18182	0.1	5022.7
7862	0.73846	0.36364	0.1	4877.7
7863	0.73846	0.54545	0.1	4852.8
7864	0.73846	0.72727	0.1	4910.6
7865	0.73846	0.90909	0.1	5039.5
7866	0.73846	1.0909	0.1	5219.8
7867	0.73846	1.2727	0.1	5431.4
7868	0.73846	1.4545	0.1	5658.2
7869	0.73846	1.6364	0.1	5887.6
7870	0.73846	1.8182	0.1	6110.3
7871	0.73846	2.	0.1	6318.8
7872	0.73846	2.1818	0.1	6506.6
7873	0.73846	2.3636	0.1	6667.2
7874	0.73846	2.5455	0.1	6794.6
7875	0.73846	2.7273	0.1	6883.1
7876	0.73846	2.9091	0.1	6928.6
7877	0.73846	3.0909	0.1	6928.6
7878	0.73846	3.2727	0.1	6883.1
7879	0.73846	3.4545	0.1	6794.6
7880	0.73846	3.6364	0.1	6667.2
7881	0.73846	3.8182	0.1	6506.6
7882	0.73846	4.	0.1	6318.8
7883	0.73846	4.1818	0.1	6110.3
7884	0.73846	4.3636	0.1	5887.6
7885	0.73846	4.5455	0.1	5658.2
7886	0.73846	4.7273	0.1	5431.4
7887	0.73846	4.9091	0.1	5219.8
7888	0.73846	5.0909	0.1	5039.5
7889	0.73846	5.2727	0.1	4910.6
7890	0.73846	5.4545	0.1	4852.8
7891	0.73846	5.6364	0.1	4877.7
7892	0.73846	5.8182	0.1	5022.7
7893	0.92308	0.18182	0.1	4932.
7894	0.92308	0.36364	0.1	4829.5
7895	0.92308	0.54545	0.1	4827.1
7896	0.92308	0.72727	0.1	4889.2
7897	0.92308	0.90909	0.1	5012.9
7898	0.92308	1.0909	0.1	5189.1
7899	0.92308	1.2727	0.1	5403.9
7900	0.92308	1.4545	0.1	5642.8
7901	0.92308	1.6364	0.1	5892.6
7902	0.92308	1.8182	0.1	6141.9
7903	0.92308	2.	0.1	6380.8
7904	0.92308	2.1818	0.1	6600.
7905	0.92308	2.3636	0.1	6790.5
7906	0.92308	2.5455	0.1	6943.1
7907	0.92308	2.7273	0.1	7049.8
7908	0.92308	2.9091	0.1	7104.7
7909	0.92308	3.0909	0.1	7104.7
7910	0.92308	3.2727	0.1	7049.8
7911	0.92308	3.4545	0.1	6943.1
7912	0.92308	3.6364	0.1	6790.5
7913	0.92308	3.8182	0.1	6600.
7914	0.92308	4.	0.1	6380.8
7915	0.92308	4.1818	0.1	6141.9
7916	0.92308	4.3636	0.1	5892.6
7917	0.92308	4.5455	0.1	5642.8
7918	0.92308	4.7273	0.1	5403.9
7919	0.92308	4.9091	0.1	5189.1
7920	0.92308	5.0909	0.1	5012.9
7921	0.92308	5.2727	0.1	4889.2
7922	0.92308	5.4545	0.1	4827.1
7923	0.92308	5.6364	0.1	4829.5
7924	0.92308	5.8182	0.1	4932.
7925	1.1077	0.18182	0.1	4714.1
7926	1.1077	0.36364	0.1	4651.4
7927	1.1077	0.54545	0.1	4686.5
7928	1.1077	0.72727	0.1	4782.2
7929	1.1077	0.90909	0.1	4935.5
7930	1.1077	1.0909	0.1	5139.9
7931	1.1077	1.2727	0.1	5384.8
7932	1.1077	1.4545	0.1	5657.4
7933	1.1077	1.6364	0.1	5944.7
7934	1.1077	1.8182	0.1	6234.3
7935	1.1077	2.	0.1	6515.2
7936	1.1077	2.1818	0.1	6775.8
7937	1.1077	2.3636	0.1	7003.9
7938	1.1077	2.5455	0.1	7187.2
7939	1.1077	2.7273	0.1	7315.1
7940	1.1077	2.9091	0.1	7380.8
7941	1.1077	3.0909	0.1	7380.8
7942	1.1077	3.2727	0.1	7315.1
7943	1.1077	3.4545	0.1	7187.2
7944	1.1077	3.6364	0.1	7003.9
7945	1.1077	3.8182	0.1	6775.8
7946	1.1077	4.	0.1	6515.2
7947	1.1077	4.1818	0.1	6234.3
7948	1.1077	4.3636	0.1	5944.7
7949	1.1077	4.5455	0.1	5657.4
7950	1.1077	4.7273	0.1	5384.8
7951	1.1077	4.9091	0.1	5139.9
7952	1.1077	5.0909	0.1	4935.5
7953	1.1077	5.2727	0.1	4782.2
7954	1.1077	5.4545	0.1	4686.5
7955	1.1077	5.6364	0.1	4651.4
7956	1.1077	5.8182	0.1	4714.1
7957	1.2923	0.18182	0.1	4389.2
7958	1.2923	0.36364	0.1	4367.
7959	1.2923	0.54545	0.1	4451.7
7960	1.2923	0.72727	0.1	4603.9
7961	1.2923	0.90909	0.1	4816.9
7962	1.2923	1.0909	0.1	5082.6
7963	1.2923	1.2727	0.1	5389.8
7964	1.2923	1.4545	0.1	5725.6
7965	1.2923	1.6364	0.1	6075.9
7966	1.2923	1.8182	0.1	6427.7
7967	1.2923	2.	0.1	6769.1
7968	1.2923	2.1818	0.1	7086.2
7969	1.2923	2.3636	0.1	7362.7
7970	1.2923	2.5455	0.1	7582.4
7971	1.2923	2.7273	0.1	7733.3
7972	1.2923	2.9091	0.1	7809.5
7973	1.2923	3.0909	0.1	7809.5
7974	1.2923	3.2727	0.1	7733.3
7975	1.2923	3.4545	0.1	7582.4
7976	1.2923	3.6364	0.1	7362.7
7977	1.2923	3.8182	0.1	7086.2
7978	1.2923	4.	0.1	6769.1
7979	1.2923	4.1818	0.1	6427.7
7980	1.2923	4.3636	0.1	6075.9
7981	1.2923	4.5455	0.1	5725.6
7982	1.2923	4.7273	0.1	5389.8
7983	1.2923	4.9091	0.1	5082.6
7984	1.2923	5.0909	0.1	4816.9
7985	1.2923	5.2727	0.1	4603.9
7986	1.2923	5.4545	0.1	4451.7
7987	1.2923	5.6364	0.1	4367.
7988	1.2923	5.8182	0.1	4389.2
7989	1.4769	0.18182	0.1	3962.5
7990	1.4769	0.36364	0.1	3981.3
7991	1.4769	0.54545	0.1	4127.4
7992	1.4769	0.72727	0.1	4356.8
7993	1.4769	0.90909	0.1	4657.4
7994	1.4769	1.0909	0.1	5017.1
7995	1.4769	1.2727	0.1	5422.8
7996	1.4769	1.4545	0.1	5858.9
7997	1.4769	1.6364	0.1	6306.9
7998	1.4769	1.8182	0.1	6752.2
7999	1.4769	2.	0.1	7179.9
8000	1.4769	2.1818	0.1	7574.3
8001	1.4769	2.3636	0.1	7911.6
8002	1.4769	2.5455	0.1	8168.5
8003	1.4769	2.7273	0.1	8336.4
8004	1.4769	2.9091	0.1	8417.9
8005	1.4769	3.0909	0.1	8417.9
8006	1.4769	3.2727	0.1	8336.4
8007	1.4769	3.4545	0.1	8168.5
8008	1.4769	3.6364	0.1	7911.6
8009	1.4769	3.8182	0.1	7574.3
8010	1.4769	4.	0.1	7179.9
8011	1.4769	4.1818	0.1	6752.2
8012	1.4769	4.3636	0.1	6306.9
8013	1.4769	4.5455	0.1	5858.9
8014	1.4769	4.7273	0.1	5422.8
8015	1.4769	4.9091	0.1	5017.1
8016	1.4769	5.0909	0.1	4657.4
8017	1.4769	5.2727	0.1	4356.8
8018	1.4769	5.4545	0.1	4127.4
8019	1.4769	5.6364	0.1	3981.3
8020	1.4769	5.8182	0.1	3962.5
8021	1.6615	0.18182	0.1	3436.6
8022	1.6615	0.36364	0.1	3502.7
8023	1.6615	0.54545	0.1	3727.9
8024	1.6615	0.72727	0.1	4058.9
8025	1.6615	0.90909	0.1	4475.3
8026	1.6615	1.0909	0.1	4962.4
8027	1.6615	1.2727	0.1	5507.1
8028	1.6615	1.4545	0.1	6092.3
8029	1.6615	1.6364	0.1	6694.3
8030	1.6615	1.8182	0.1	7279.
8031	1.6615	2.	0.1	7836.1
8032	1.6615	2.1818	0.1	8334.6
8033	1.6615	2.3636	0.1	8733.
8034	1.6615	2.5455	0.1	9008.4
8035	1.6615	2.7273	0.1	9165.2
8036	1.6615	2.9091	0.1	9233.1
8037	1.6615	3.0909	0.1	9233.1
8038	1.6615	3.2727	0.1	9165.2
8039	1.6615	3.4545	0.1	9008.5
8040	1.6615	3.6364	0.1	8733.
8041	1.6615	3.8182	0.1	8334.6
8042	1.6615	4.	0.1	7836.1
8043	1.6615	4.1818	0.1	7279.
8044	1.6615	4.3636	0.1	6694.3
8045	1.6615	4.5455	0.1	6092.3
8046	1.6615	4.7273	0.1	5507.1
8047	1.6615	4.9091	0.1	4962.4
8048	1.6615	5.0909	0.1	4475.3
8049	1.6615	5.2727	0.1	4058.9
8050	1.6615	5.4545	0.1	3727.9
8051	1.6615	5.6364	0.1	3502.7
8052	1.6615	5.8182	0.1	3436.6
8053	1.8462	0.18182	0.1	2814.5
8054	1.8462	0.36364	0.1	2949.8
8055	1.8462	0.54545	0.1	3287.1
8056	1.8462	0.72727	0.1	3749.9
8057	1.8462	0.90909	0.1	4308.1
8058	1.8462	1.0909	0.1	4951.2
8059	1.8462	1.2727	0.1	5677.2
8060	1.8462	1.4545	0.1	6483.6
8061	1.8462	1.6364	0.1	7319.6
8062	1.8462	1.8182	0.1	8139.4
8063	1.8462	2.	0.1	8894.2
8064	1.8462	2.1818	0.1	9521.2
8065	1.8462	2.3636	0.1	9969.9
8066	1.8462	2.5455	0.1	10174
8067	1.8462	2.7273	0.1	10238
8068	1.8462	2.9091	0.1	10247
8069	1.8462	3.0909	0.1	10247
8070	1.8462	3.2727	0.1	10238
8071	1.8462	3.4545	0.1	10174
8072	1.8462	3.6364	0.1	9969.9
8073	1.8462	3.8182	0.1	9521.2
8074	1.8462	4.	0.1	8894.2
8075	1.8462	4.1818	0.1	8139.4
8076	1.8462	4.3636	0.1	7319.6
8077	1.8462	4.5455	0.1	6483.6
8078	1.8462	4.7273	0.1	5677.2
8079	1.8462	4.9091	0.1	4951.2
8080	1.8462	5.0909	0.1	4308.1
8081	1.8462	5.2727	0.1	3749.9
8082	1.8462	5.4545	0.1	3287.1
8083	1.8462	5.6364	0.1	2949.8
8084	1.8462	5.8182	0.1	2814.5
8085	2.0308	0.18182	0.1	2111.8
8086	2.0308	0.36364	0.1	2385.9
8087	2.0308	0.54545	0.1	2894.2
8088	2.0308	0.72727	0.1	3518.4
8089	2.0308	0.90909	0.1	4231.8
8090	2.0308	1.0909	0.1	5044.4
8091	2.0308	1.2727	0.1	5989.5
8092	2.0308	1.4545	0.1	7094.2
8093	2.0308	1.6364	0.1	8388.7
8094	2.0308	1.8182	0.1	9795.6
8095	2.0308	2.	0.1	10804
8096	2.0308	2.1818	0.1	11631
8097	2.0308	2.3636	0.1	11829
8098	2.0308	2.5455	0.1	11701
8099	2.0308	2.7273	0.1	11492
8100	2.0308	2.9091	0.1	11368
8101	2.0308	3.0909	0.1	11368
8102	2.0308	3.2727	0.1	11492
8103	2.0308	3.4545	0.1	11701
8104	2.0308	3.6364	0.1	11829
8105	2.0308	3.8182	0.1	11631
8106	2.0308	4.	0.1	10804
8107	2.0308	4.1818	0.1	9795.6
8108	2.0308	4.3636	0.1	8388.8
8109	2.0308	4.5455	0.1	7094.2
8110	2.0308	4.7273	0.1	5989.5
8111	2.0308	4.9091	0.1	5044.4
8112	2.0308	5.0909	0.1	4231.8
8113	2.0308	5.2727	0.1	3518.4
8114	2.0308	5.4545	0.1	2894.2
8115	2.0308	5.6364	0.1	2385.9
8116	2.0308	5.8182	0.1	2111.8
8117	2.2154	0.18182	0.1	1441.
8118	2.2154	0.36364	0.1	2062.4
8119	2.2154	0.54545	0.1	2819.2
8120	2.2154	0.72727	0.1	3632.7
8121	2.2154	0.90909	0.1	4522.9
8122	2.2154	1.0909	0.1	5536.3
8123	2.2154	1.2727	0.1	6754.8
8124	2.2154	1.4545	0.1	8310.7
8125	2.2154	1.6364	0.1	10547
8126	2.2154	1.8182	0.1	13759
8127	2.2154	2.	0.1	16243
8128	2.2154	2.1818	0.1	15597
8129	2.2154	2.3636	0.1	14512
8130	2.2154	2.5455	0.1	13358
8131	2.2154	2.7273	0.1	12690
8132	2.2154	2.9091	0.1	12377
8133	2.2154	3.0909	0.1	12377
8134	2.2154	3.2727	0.1	12690
8135	2.2154	3.4545	0.1	13358
8136	2.2154	3.6364	0.1	14512
8137	2.2154	3.8182	0.1	15597
8138	2.2154	4.	0.1	16243
8139	2.2154	4.1818	0.1	13759
8140	2.2154	4.3636	0.1	10547
8141	2.2154	4.5455	0.1	8310.7
8142	2.2154	4.7273	0.1	6754.8
8143	2.2154	4.9091	0.1	5536.3
8144	2.2154	5.0909	0.1	4522.9
8145	2.2154	5.2727	0.1	3632.7
8146	2.2154	5.4545	0.1	2819.2
8147	2.2154	5.6364	0.1	2062.4
8148	2.2154	5.8182	0.1	1441.
8149	2.5667	3.8182	0.1	20778
8150	2.5667	3.6364	0.1	16398
8151	2.5667	3.4545	0.1	14404
8152	2.5667	3.2727	0.1	13368
8153	2.5667	3.0909	0.1	12925
8154	2.5667	2.9091	0.1	12925
8155	2.5667	2.7273	0.1	13368
8156	2.5667	2.5455	0.1	14404
8157	2.5667	2.3636	0.1	16398
8158	2.5667	2.1818	0.1	20778
8159	2.4	3.8182	0.1	20978
8160	2.4	3.6364	0.1	16526
8161	2.4	3.4545	0.1	14469
8162	2.4	3.2727	0.1	13411
8163	2.4	3.0909	0.1	12959
8164	2.4	2.9091	0.1	12959
8165	2.4	2.7273	0.1	13411
8166	2.4	2.5455	0.1	14469
8167	2.4	2.3636	0.1	16526
8168	2.4	2.1818	0.1	20978
8169	2.5667	5.8182	0.1	584.05
8170	2.5667	5.6364	0.1	1071.1
8171	2.5667	5.4545	0.1	1534.3
8172	2.5667	5.2727	0.1	2026.3
8173	2.5667	5.0909	0.1	2579.
8174	2.5667	4.9091	0.1	3233.
8175	2.5667	4.7273	0.1	4052.8
8176	2.5667	4.5455	0.1	5193.7
8177	2.5667	4.3636	0.1	6637.3
8178	2.5667	4.1818	0.1	11684
8179	2.5667	4.	0.1	30431
8180	2.4	4.	0.1	31296
8181	2.4	4.1818	0.1	12629
8182	2.4	4.3636	0.1	7544.5
8183	2.4	4.5455	0.1	6103.5
8184	2.4	4.7273	0.1	4939.4
8185	2.4	4.9091	0.1	4076.3
8186	2.4	5.0909	0.1	3357.9
8187	2.4	5.2727	0.1	2716.4
8188	2.4	5.4545	0.1	2108.7
8189	2.4	5.6364	0.1	1499.1
8190	2.4	5.8182	0.1	821.11
8191	2.5667	0.18182	0.1	584.05
8192	2.5667	0.36364	0.1	1071.1
8193	2.5667	0.54545	0.1	1534.3
8194	2.5667	0.72727	0.1	2026.3
8195	2.5667	0.90909	0.1	2579.
8196	2.5667	1.0909	0.1	3233.
8197	2.5667	1.2727	0.1	4052.8
8198	2.5667	1.4545	0.1	5193.7
8199	2.5667	1.6364	0.1	6637.3
8200	2.5667	1.8182	0.1	11684
8201	2.5667	2.	0.1	30431
8202	2.4	2.	0.1	31296
8203	2.4	1.8182	0.1	12629
8204	2.4	1.6364	0.1	7544.5
8205	2.4	1.4545	0.1	6103.5
8206	2.4	1.2727	0.1	4939.4
8207	2.4	1.0909	0.1	4076.3
8208	2.4	0.90909	0.1	3357.9
8209	2.4	0.72727	0.1	2716.4
8210	2.4	0.54545	0.1	2108.7
8211	2.4	0.36364	0.1	1499.1
8212	2.4	0.18182	0.1	821.11
8213	2.5667	6.	0.1	74.636
8214	2.7514	6.	0.1	712.09
8215	2.9362	6.	0.1	1393.5
8216	3.121	6.	0.1	1993.2
8217	3.3057	6.	0.1	2523.
8218	3.4905	6.	0.1	2979.9
8219	3.6753	6.	0.1	3364.5
8220	3.8601	6.	0.1	3680.4
8221	4.0448	6.	0.1	3933.7
8222	4.2296	6.	0.1	4131.5
8223	4.4144	6.	0.1	4281.8
8224	4.5991	6.	0.1	4391.9
8225	4.7839	6.	0.1	4468.6
8226	4.9687	6.	0.1	4518.1
8227	5.1534	6.	0.1	4545.4
8228	5.3382	6.	0.1	4554.8
8229	5.523	6.	0.1	4549.9
8230	5.7078	6.	0.1	4533.8
8231	5.8925	6.	0.1	4508.6
8232	6.0773	6.	0.1	4476.4
8233	6.2621	6.	0.1	4438.7
8234	6.4468	6.	0.1	4396.7
8235	6.6316	6.	0.1	4351.4
8236	6.8164	6.	0.1	4303.6
8237	7.0011	6.	0.1	4253.8
8238	7.1859	6.	0.1	4202.7
8239	7.3707	6.	0.1	4150.5
8240	7.5555	6.	0.1	4097.5
8241	7.7402	6.	0.1	4044.1
8242	7.925	6.	0.1	3990.3
8243	8.1098	6.	0.1	3936.3
8244	8.2945	6.	0.1	3882.2
8245	8.4793	6.	0.1	3828.1
8246	8.6641	6.	0.1	3774.1
8247	8.8489	6.	0.1	3720.2
8248	9.0336	6.	0.1	3666.4
8249	9.2184	6.	0.1	3612.8
8250	9.4032	6.	0.1	3559.4
8251	9.5879	6.	0.1	3506.2
8252	9.7727	6.	0.1	3453.2
8253	9.9575	6.	0.1	3400.5
8254	10.142	6.	0.1	3347.9
8255	10.327	6.	0.1	3295.6
8256	10.512	6.	0.1	3243.5
8257	10.697	6.	0.1	3191.7
8258	10.881	6.	0.1	3140.1
8259	11.066	6.	0.1	3088.7
8260	11.251	6.	0.1	3037.5
8261	11.436	6.	0.1	2986.6
8262	11.62	6.	0.1	2935.9
8263	11.805	6.	0.1	2885.4
8264	11.99	6.	0.1	2835.2
8265	12.175	6.	0.1	2785.2
8266	12.359	6.	0.1	2735.4
8267	12.544	6.	0.1	2685.8
8268	12.729	6.	0.1	2636.4
8269	12.914	6.	0.1	2587.3
8270	13.099	6.	0.1	2538.4
8271	13.283	6.	0.1	2489.6
8272	13.468	6.	0.1	2441.1
8273	13.653	6.	0.1	2392.9
8274	13.838	6.	0.1	2344.8
8275	14.022	6.	0.1	2296.9
8276	14.207	6.	0.1	2249.2
8277	14.392	6.	0.1	2201.8
8278	14.577	6.	0.1	2154.6
8279	14.761	6.	0.1	2107.5
8280	14.946	6.	0.1	2060.7
8281	15.131	6.	0.1	2014.1
8282	15.316	6.	0.1	1967.6
8283	15.501	6.	0.1	1921.4
8284	15.685	6.	0.1	1875.4
8285	15.87	6.	0.1	1829.6
8286	16.055	6.	0.1	1784.
8287	16.24	6.	0.1	1738.5
8288	16.424	6.	0.1	1693.3
8289	16.609	6.	0.1	1648.3
8290	16.794	6.	0.1	1603.5
8291	16.979	6.	0.1	1558.9
8292	17.164	6.	0.1	1514.4
8293	17.348	6.	0.1	1470.2
8294	17.533	6.	0.1	1426.1
8295	17.718	6.	0.1	1382.3
8296	17.903	6.	0.1	1338.6
8297	18.087	6.	0.1	1295.1
8298	18.272	6.	0.1	1251.8
8299	18.457	6.	0.1	1208.7
8300	18.642	6.	0.1	1165.8
8301	18.826	6.	0.1	1123.
8302	19.011	6.	0.1	1080.5
8303	19.196	6.	0.1	1038.1
8304	19.381	6.	0.1	995.84
8305	19.566	6.	0.1	953.79
8306	19.75	6.	0.1	911.91
8307	19.935	6.	0.1	870.18
8308	20.12	6.	0.1	828.63
8309	20.305	6.	0.1	787.23
8310	20.489	6.	0.1	745.99
8311	20.674	6.	0.1	704.9
8312	20.859	6.	0.1	663.97
8313	21.044	6.	0.1	623.19
8314	21.228	6.	0.1	582.56
8315	21.413	6.	0.1	542.09
8316	21.598	6.	0.1	501.77
8317	21.783	6.	0.1	461.6
8318	21.968	6.	0.1	421.61
8319	22.152	6.	0.1	381.79
8320	22.337	6.	0.1	342.16
8321	22.522	6.	0.1	302.75
8322	22.707	6.	0.1	263.6
8323	22.891	6.	0.1	224.75
8324	23.076	6.	0.1	186.28
8325	23.261	6.	0.1	148.32
8326	23.446	6.	0.1	111.06
8327	23.63	6.	0.1	74.976
8328	23.815	6.	0.1	40.169
8329	24.	6.	0.1	9.4742
8330	24.	5.8182	0.1	39.724
8331	24.	5.6364	0.1	67.089
8332	24.	5.4545	0.1	88.165
8333	24.	5.2727	0.1	105.73
8334	24.	5.0909	0.1	120.7
8335	24.	4.9091	0.1	133.62
8336	24.	4.7273	0.1	144.82
8337	24.	4.5455	0.1	154.51
8338	24.	4.3636	0.1	162.85
8339	24.	4.1818	0.1	169.96
8340	24.	4.	0.1	175.92
8341	24.	3.8182	0.1	180.81
8342	24.	3.6364	0.1	184.67
8343	24.	3.4545	0.1	187.53
8344	24.	3.2727	0.1	189.42
8345	24.	3.0909	0.1	190.37
8346	24.	2.9091	0.1	190.37
8347	24.	2.7273	0.1	189.42
8348	24.	2.5455	0.1	187.53
8349	24.	2.3636	0.1	184.67
8350	24.	2.1818	0.1	180.81
8351	24.	2.	0.1	175.92
8352	24.	1.8182	0.1	169.96
8353	24.	1.6364	0.1	162.85
8354	24.	1.4545	0.1	154.51
8355	24.	1.2727	0.1	144.82
8356	24.	1.0909	0.1	133.62
8357	24.	0.90909	0.1	120.7
8358	24.	0.72727	0.1	105.73
8359	24.	0.54545	0.1	88.165
8360	24.	0.36364	0.1	67.089
8361	24.	0.18182	0.1	39.724
8362	1.5894e-015	0.18182	0.1	1300.6
8363	3.1789e-015	0.36364	0.1	2244.7
8364	4.7683e-015	0.54545	0.1	2758.
8365	6.3578e-015	0.72727	0.1	3098.3
8366	7.9472e-015	0.90909	0.1	3339.
8367	9.5366e-015	1.0909	0.1	3521.5
8368	1.1126e-014	1.2727	0.1	3665.
8369	1.2716e-014	1.4545	0.1	3780.6
8370	1.4305e-014	1.6364	0.1	3874.7
8371	1.5894e-014	1.8182	0.1	3951.9
8372	1.7484e-014	2.	0.1	4015.4
8373	1.9073e-014	2.1818	0.1	4067.3
8374	2.0663e-014	2.3636	0.1	4108.9
8375	2.2252e-014	2.5455	0.1	4140.5
8376	2.3842e-014	2.7273	0.1	4162.1
8377	2.5431e-014	2.9091	0.1	4173.
8378	2.702e-014	3.0909	0.1	4173.
8379	2.861e-014	3.2727	0.1	4162.1
8380	3.0199e-014	3.4545	0.1	4140.5
8381	3.1789e-014	3.6364	0.1	4108.9
8382	3.3378e-014	3.8182	0.1	4067.3
8383	3.4968e-014	4.	0.1	4015.4
8384	3.6557e-014	4.1818	0.1	3951.9
8385	3.8147e-014	4.3636	0.1	3874.7
8386	3.9736e-014	4.5455	0.1	3780.6
8387	4.1325e-014	4.7273	0.1	3665.
8388	4.2915e-014	4.9091	0.1	3521.5
8389	4.4504e-014	5.0909	0.1	3339.
8390	4.6094e-014	5.2727	0.1	3098.3
8391	4.7683e-014	5.4545	0.1	2758.
8392	4.9273e-014	5.6364	0.1	2244.7
8393	5.0862e-014	5.8182	0.1	1300.6
8394	24.	0.	0.1	9.4742
8395	23.815	0.	0.1	40.169
8396	23.63	0.	0.1	74.976
8397	23.446	0.	0.1	111.06
8398	23.261	0.	0.1	148.32
8399	23.076	0.	0.1	186.28
8400	22.891	0.	0.1	224.75
8401	22.707	0.	0.1	263.6
8402	22.522	0.	0.1	302.75
8403	22.337	0.	0.1	342.16
8404	22.152	0.	0.1	381.79
8405	21.968	0.	0.1	421.61
8406	21.783	0.	0.1	461.6
8407	21.598	0.	0.1	501.77
8408	21.413	0.	0.1	542.09
8409	21.228	0.	0.1	582.56
8410	21.044	0.	0.1	623.19
8411	20.859	0.	0.1	663.97
8412	20.674	0.	0.1	704.9
8413	20.489	0.	0.1	745.99
8414	20.305	0.	0.1	787.23
8415	20.12	0.	0.1	828.63
8416	19.935	0.	0.1	870.18
8417	19.75	0.	0.1	911.91
8418	19.566	0.	0.1	953.79
8419	19.381	0.	0.1	995.84
8420	19.196	0.	0.1	1038.1
8421	19.011	0.	0.1	1080.5
8422	18.826	0.	0.1	1123.
8423	18.642	0.	0.1	1165.8
8424	18.457	0.	0.1	1208.7
8425	18.272	0.	0.1	1251.8
8426	18.087	0.	0.1	1295.1
8427	17.903	0.	0.1	1338.6
8428	17.718	0.	0.1	1382.3
8429	17.533	0.	0.1	1426.1
8430	17.348	0.	0.1	1470.2
8431	17.164	0.	0.1	1514.4
8432	16.979	0.	0.1	1558.9
8433	16.794	0.	0.1	1603.5
8434	16.609	0.	0.1	1648.3
8435	16.424	0.	0.1	1693.3
8436	16.24	0.	0.1	1738.5
8437	16.055	0.	0.1	1784.
8438	15.87	0.	0.1	1829.6
8439	15.685	0.	0.1	1875.4
8440	15.501	0.	0.1	1921.4
8441	15.316	0.	0.1	1967.6
8442	15.131	0.	0.1	2014.1
8443	14.946	0.	0.1	2060.7
8444	14.761	0.	0.1	2107.5
8445	14.577	0.	0.1	2154.5
8446	14.392	0.	0.1	2201.8
8447	14.207	0.	0.1	2249.2
8448	14.022	0.	0.1	2296.9
8449	13.838	0.	0.1	2344.8
8450	13.653	0.	0.1	2392.9
8451	13.468	0.	0.1	2441.1
8452	13.283	0.	0.1	2489.6
8453	13.099	0.	0.1	2538.4
8454	12.914	0.	0.1	2587.3
8455	12.729	0.	0.1	2636.4
8456	12.544	0.	0.1	2685.8
8457	12.359	0.	0.1	2735.4
8458	12.175	0.	0.1	2785.2
8459	11.99	0.	0.1	2835.2
8460	11.805	0.	0.1	2885.4
8461	11.62	0.	0.1	2935.9
8462	11.436	0.	0.1	2986.6
8463	11.251	0.	0.1	3037.5
8464	11.066	0.	0.1	3088.7
8465	10.881	0.	0.1	3140.1
8466	10.697	0.	0.1	3191.7
8467	10.512	0.	0.1	3243.5
8468	10.327	0.	0.1	3295.6
8469	10.142	0.	0.1	3347.9
8470	9.9575	0.	0.1	3400.5
8471	9.7727	0.	0.1	3453.2
8472	9.5879	0.	0.1	3506.2
8473	9.4032	0.	0.1	3559.4
8474	9.2184	0.	0.1	3612.8
8475	9.0336	0.	0.1	3666.4
8476	8.8489	0.	0.1	3720.2
8477	8.6641	0.	0.1	3774.1
8478	8.4793	0.	0.1	3828.1
8479	8.2945	0.	0.1	3882.2
8480	8.1098	0.	0.1	3936.3
8481	7.925	0.	0.1	3990.3
8482	7.7402	0.	0.1	4044.1
8483	7.5555	0.	0.1	4097.5
8484	7.3707	0.	0.1	4150.5
8485	7.1859	0.	0.1	4202.7
8486	7.0011	0.	0.1	4253.8
8487	6.8164	0.	0.1	4303.6
8488	6.6316	0.	0.1	4351.4
8489	6.4468	0.	0.1	4396.7
8490	6.2621	0.	0.1	4438.7
8491	6.0773	0.	0.1	4476.4
8492	5.8925	0.	0.1	4508.6
8493	5.7078	0.	0.1	4533.8
8494	5.523	0.	0.1	4549.9
8495	5.3382	0.	0.1	4554.8
8496	5.1534	0.	0.1	4545.4
8497	4.9687	0.	0.1	4518.1
8498	4.7839	0.	0.1	4468.6
8499	4.5991	0.	0.1	4391.9
8500	4.4144	0.	0.1	4281.8
8501	4.2296	0.	0.1	4131.5
8502	4.0448	0.	0.1	3933.7
8503	3.8601	0.	0.1	3680.4
8504	3.6753	0.	0.1	3364.5
8505	3.4905	0.	0.1	2979.9
8506	3.3057	0.	0.1	2523.
8507	3.121	0.	0.1	1993.2
8508	2.9362	0.	0.1	1393.5
8509	2.7514	0.	0.1	712.09
8510	2.5667	0.	0.1	74.636
8511	2.4	0.	0.1	102.07
8512	2.2154	1.1199e-031	0.1	937.73
8513	2.0308	1.0265e-031	0.1	1791.2
8514	1.8462	9.3322e-032	0.1	2524.4
8515	1.6615	8.399e-032	0.1	3163.
8516	1.4769	7.4657e-032	0.1	3705.3
8517	1.2923	6.5325e-032	0.1	4149.2
8518	1.1077	5.5993e-032	0.1	4490.6
8519	0.92308	4.6661e-032	0.1	4721.3
8520	0.73846	3.7329e-032	0.1	4822.6
8521	0.55385	2.7997e-032	0.1	4750.6
8522	0.36923	1.8664e-032	0.1	4418.
8523	0.18462	9.3322e-033	0.1	3484.1
8524	0.	0.	0.1	2075.7
8525	3.937e-014	6.	0.1	2075.7
8526	0.18462	6.	0.1	3484.1
8527	0.36923	6.	0.1	4418.
8528	0.55385	6.	0.1	4750.6
8529	0.73846	6.	0.1	4822.6
8530	0.92308	6.	0.1	4721.3
8531	1.1077	6.	0.1	4490.6
8532	1.2923	6.	0.1	4149.2
8533	1.4769	6.	0.1	3705.3
8534	1.6615	6.	0.1	3163.
8535	1.8462	6.	0.1	2524.4
8536	2.0308	6.	0.1	1791.2
8537	2.2154	6.	0.1	937.73
8538	2.4	6.	0.1	102.07
8539	2.2154	6.	0.	937.73
8540	2.0308	6.	0.	1791.2
8541	1.8462	6.	0.	2524.4
8542	1.6615	6.	0.	3163.
8543	1.4769	6.	0.	3705.3
8544	1.2923	6.	0.	4149.2
8545	1.1077	6.	0.	4490.6
8546	0.92308	6.	0.	4721.3
8547	0.73846	6.	0.	4822.6
8548	0.55385	6.	0.	4750.6
8549	0.36923	6.	0.	4418.
8550	0.18462	6.	0.	3484.1
8551	2.4	6.	0.	102.07
8552	3.937e-014	6.	0.	2075.7
8553	0.18462	9.3322e-033	0.	3484.1
8554	0.36923	1.8664e-032	0.	4418.
8555	0.55385	2.7997e-032	0.	4750.6
8556	0.73846	3.7329e-032	0.	4822.6
8557	0.92308	4.6661e-032	0.	4721.3
8558	1.1077	5.5993e-032	0.	4490.6
8559	1.2923	6.5325e-032	0.	4149.2
8560	1.4769	7.4657e-032	0.	3705.3
8561	1.6615	8.399e-032	0.	3163.
8562	1.8462	9.3322e-032	0.	2524.4
8563	2.0308	1.0265e-031	0.	1791.2
8564	2.2154	1.1199e-031	0.	937.73
8565	2.4	0.	0.	102.07
8566	0.	0.	0.	2075.7
8567	2.7514	0.	0.	712.09
8568	2.9362	0.	0.	1393.5
8569	3.121	0.	0.	1993.2
8570	3.3057	0.	0.	2523.
8571	3.4905	0.	0.	2979.9
8572	3.6753	0.	0.	3364.5
8573	3.8601	0.	0.	3680.4
8574	4.0448	0.	0.	3933.7
8575	4.2296	0.	0.	4131.5
8576	4.4144	0.	0.	4281.8
8577	4.5991	0.	0.	4391.9
8578	4.7839	0.	0.	4468.6
8579	4.9687	0.	0.	4518.1
8580	5.1534	0.	0.	4545.4
8581	5.3382	0.	0.	4554.8
8582	5.523	0.	0.	4549.9
8583	5.7078	0.	0.	4533.8
8584	5.8925	0.	0.	4508.6
8585	6.0773	0.	0.	4476.4
8586	6.2621	0.	0.	4438.7
8587	6.4468	0.	0.	4396.7
8588	6.6316	0.	0.	4351.4
8589	6.8164	0.	0.	4303.6
8590	7.0011	0.	0.	4253.8
8591	7.1859	0.	0.	4202.7
8592	7.3707	0.	0.	4150.5
8593	7.5555	0.	0.	4097.5
8594	7.7402	0.	0.	4044.1
8595	7.925	0.	0.	3990.3
8596	8.1098	0.	0.	3936.3
8597	8.2945	0.	0.	3882.2
8598	8.4793	0.	0.	3828.1
8599	8.6641	0.	0.	3774.1
8600	8.8489	0.	0.	3720.2
8601	9.0336	0.	0.	3666.4
8602	9.2184	0.	0.	3612.8
8603	9.4032	0.	0.	3559.4
8604	9.5879	0.	0.	3506.2
8605	9.7727	0.	0.	3453.2
8606	9.9575	0.	0.	3400.5
8607	10.142	0.	0.	3347.9
8608	10.327	0.	0.	3295.6
8609	10.512	0.	0.	3243.5
8610	10.697	0.	0.	3191.7
8611	10.881	0.	0.	3140.1
8612	11.066	0.	0.	3088.7
8613	11.251	0.	0.	3037.5
8614	11.436	0.	0.	2986.6
8615	11.62	0.	0.	2935.9
8616	11.805	0.	0.	2885.4
8617	11.99	0.	0.	2835.2
8618	12.175	0.	0.	2785.2
8619	12.359	0.	0.	2735.4
8620	12.544	0.	0.	2685.8
8621	12.729	0.	0.	2636.4
8622	12.914	0.	0.	2587.3
8623	13.099	0.	0.	2538.4
8624	13.283	0.	0.	2489.6
8625	13.468	0.	0.	2441.1
8626	13.653	0.	0.	2392.9
8627	13.838	0.	0.	2344.8
8628	14.022	0.	0.	2296.9
8629	14.207	0.	0.	2249.2
8630	14.392	0.	0.	2201.8
8631	14.577	0.	0.	2154.6
8632	14.761	0.	0.	2107.5
8633	14.946	0.	0.	2060.7
8634	15.131	0.	0.	2014.1
8635	15.316	0.	0.	1967.6
8636	15.501	0.	0.	1921.4
8637	15.685	0.	0.	1875.4
8638	15.87	0.	0.	1829.6
8639	16.055	0.	0.	1784.
8640	16.24	0.	0.	1738.5
8641	16.424	0.	0.	1693.3
8642	16.609	0.	0.	1648.3
8643	16.794	0.	0.	1603.5
8644	16.979	0.	0.	1558.9
8645	17.164	0.	0.	1514.4
8646	17.348	0.	0.	1470.2
8647	17.533	0.	0.	1426.1
8648	17.718	0.	0.	1382.3
8649	17.903	0.	0.	1338.6
8650	18.087	0.	0.	1295.1
8651	18.272	0.	0.	1251.8
8652	18.457	0.	0.	1208.7
8653	18.642	0.	0.	1165.8
8654	18.826	0.	0.	1123.
8655	19.011	0.	0.	1080.5
8656	19.196	0.	0.	1038.1
8657	19.381	0.	0.	995.84
8658	19.566	0.	0.	953.79
8659	19.75	0.	0.	911.91
8660	19.935	0.	0.	870.18
8661	20.12	0.	0.	828.63
8662	20.305	0.	0.	787.23
8663	20.489	0.	0.	745.99
8664	20.674	0.	0.	704.9
8665	20.859	0.	0.	663.97
8666	21.044	0.	0.	623.19
8667	21.228	0.	0.	582.56
8668	21.413	0.	0.	542.09
8669	21.598	0.	0.	501.77
8670	21.783	0.	0.	461.6
8671	21.968	0.	0.	421.61
8672	22.152	0.	0.	381.79
8673	22.337	0.	0.	342.16
8674	22.522	0.	0.	302.75
8675	22.707	0.	0.	263.6
8676	22.891	0.	0.	224.75
8677	23.076	0.	0.	186.28
8678	23.261	0.	0.	148.32
8679	23.446	0.	0.	111.06
8680	23.63	0.	0.	74.976
8681	23.815	0.	0.	40.169
8682	2.5667	0.	0.	74.636
8683	24.	0.	0.	9.4742
8684	5.0862e-014	5.8182	0.	1300.6
8685	4.9273e-014	5.6364	0.	2244.7
8686	4.7683e-014	5.4545	0.	2758.
8687	4.6094e-014	5.2727	0.	3098.3
8688	4.4504e-014	5.0909	0.	3339.
8689	4.2915e-014	4.9091	0.	3521.5
8690	4.1325e-014	4.7273	0.	3665.
8691	3.9736e-014	4.5455	0.	3780.6
8692	3.8147e-014	4.3636	0.	3874.7
8693	3.6557e-014	4.1818	0.	3951.9
8694	3.4968e-014	4.	0.	4015.4
8695	3.3378e-014	3.8182	0.	4067.3
8696	3.1789e-014	3.6364	0.	4108.9
8697	3.0199e-014	3.4545	0.	4140.5
8698	2.861e-014	3.2727	0.	4162.1
8699	2.702e-014	3.0909	0.	4173.
8700	2.5431e-014	2.9091	0.	4173.
8701	2.3842e-014	2.7273	0.	4162.1
8702	2.2252e-014	2.5455	0.	4140.5
8703	2.0663e-014	2.3636	0.	4108.9
8704	1.9073e-014	2.1818	0.	4067.3
8705	1.7484e-014	2.	0.	4015.4
8706	1.5894e-014	1.8182	0.	3951.9
8707	1.4305e-014	1.6364	0.	3874.7
8708	1.2716e-014	1.4545	0.	3780.6
8709	1.1126e-014	1.2727	0.	3665.
8710	9.5366e-015	1.0909	0.	3521.5
8711	7.9472e-015	0.90909	0.	3339.
8712	6.3578e-015	0.72727	0.	3098.3
8713	4.7683e-015	0.54545	0.	2758.
8714	3.1789e-015	0.36364	0.	2244.7
8715	1.5894e-015	0.18182	0.	1300.6
8716	24.	0.18182	0.	39.724
8717	24.	0.36364	0.	67.089
8718	24.	0.54545	0.	88.165
8719	24.	0.72727	0.	105.73
8720	24.	0.90909	0.	120.7
8721	24.	1.0909	0.	133.62
8722	24.	1.2727	0.	144.82
8723	24.	1.4545	0.	154.51
8724	24.	1.6364	0.	162.85
8725	24.	1.8182	0.	169.96
8726	24.	2.	0.	175.92
8727	24.	2.1818	0.	180.81
8728	24.	2.3636	0.	184.67
8729	24.	2.5455	0.	187.53
8730	24.	2.7273	0.	189.42
8731	24.	2.9091	0.	190.37
8732	24.	3.0909	0.	190.37
8733	24.	3.2727	0.	189.42
8734	24.	3.4545	0.	187.53
8735	24.	3.6364	0.	184.67
8736	24.	3.8182	0.	180.81
8737	24.	4.	0.	175.92
8738	24.	4.1818	0.	169.96
8739	24.	4.3636	0.	162.85
8740	24.	4.5455	0.	154.51
8741	24.	4.7273	0.	144.82
8742	24.	4.9091	0.	133.62
8743	24.	5.0909	0.	120.7
8744	24.	5.2727	0.	105.73
8745	24.	5.4545	0.	88.165
8746	24.	5.6364	0.	67.089
8747	24.	5.8182	0.	39.724
8748	24.	6.	0.	9.4742
8749	23.815	6.	0.	40.169
8750	23.63	6.	0.	74.976
8751	23.446	6.	0.	111.06
8752	23.261	6.	0.	148.32
8753	23.076	6.	0.	186.28
8754	22.891	6.	0.	224.75
8755	22.707	6.	0.	263.6
8756	22.522	6.	0.	302.75
8757	22.337	6.	0.	342.16
8758	22.152	6.	0.	381.79
8759	21.968	6.	0.	421.61
8760	21.783	6.	0.	461.6
8761	21.598	6.	0.	501.77
8762	21.413	6.	0.	542.09
8763	21.228	6.	0.	582.56
8764	21.044	6.	0.	623.19
8765	20.859	6.	0.	663.97
8766	20.674	6.	0.	704.9
8767	20.489	6.	0.	745.99
8768	20.305	6.	0.	787.23
8769	20.12	6.	0.	828.63
8770	19.935	6.	0.	870.18
8771	19.75	6.	0.	911.91
8772	19.566	6.	0.	953.79
8773	19.381	6.	0.	995.84
8774	19.196	6.	0.	1038.1
8775	19.011	6.	0.	1080.5
8776	18.826	6.	0.	1123.
8777	18.642	6.	0.	1165.8
8778	18.457	6.	0.	1208.7
8779	18.272	6.	0.	1251.8
8780	18.087	6.	0.	1295.1
8781	17.903	6.	0.	1338.6
8782	17.718	6.	0.	1382.3
8783	17.533	6.	0.	1426.1
8784	17.348	6.	0.	1470.2
8785	17.164	6.	0.	1514.4
8786	16.979	6.	0.	1558.9
8787	16.794	6.	0.	1603.5
8788	16.609	6.	0.	1648.3
8789	16.424	6.	0.	1693.3
8790	16.24	6.	0.	1738.5
8791	16.055	6.	0.	1784.
8792	15.87	6.	0.	1829.6
8793	15.685	6.	0.	1875.4
8794	15.501	6.	0.	1921.4
8795	15.316	6.	0.	1967.6
8796	15.131	6.	0.	2014.1
8797	14.946	6.	0.	2060.7
8798	14.761	6.	0.	2107.5
8799	14.577	6.	0.	2154.5
8800	14.392	6.	0.	2201.8
8801	14.207	6.	0.	2249.2
8802	14.022	6.	0.	2296.9
8803	13.838	6.	0.	2344.8
8804	13.653	6.	0.	2392.9
8805	13.468	6.	0.	2441.1
8806	13.283	6.	0.	2489.6
8807	13.099	6.	0.	2538.4
8808	12.914	6.	0.	2587.3
8809	12.729	6.	0.	2636.4
8810	12.544	6.	0.	2685.8
8811	12.359	6.	0.	2735.4
8812	12.175	6.	0.	2785.2
8813	11.99	6.	0.	2835.2
8814	11.805	6.	0.	2885.4
8815	11.62	6.	0.	2935.9
8816	11.436	6.	0.	2986.6
8817	11.251	6.	0.	3037.5
8818	11.066	6.	0.	3088.7
8819	10.881	6.	0.	3140.1
8820	10.697	6.	0.	3191.7
8821	10.512	6.	0.	3243.5
8822	10.327	6.	0.	3295.6
8823	10.142	6.	0.	3347.9
8824	9.9575	6.	0.	3400.5
8825	9.7727	6.	0.	3453.2
8826	9.5879	6.	0.	3506.2
8827	9.4032	6.	0.	3559.4
8828	9.2184	6.	0.	3612.8
8829	9.0336	6.	0.	3666.4
8830	8.8489	6.	0.	3720.2
8831	8.6641	6.	0.	3774.1
8832	8.4793	6.	0.	3828.1
8833	8.2945	6.	0.	3882.2
8834	8.1098	6.	0.	3936.3
8835	7.925	6.	0.	3990.3
8836	7.7402	6.	0.	4044.1
8837	7.5555	6.	0.	4097.5
8838	7.3707	6.	0.	4150.5
8839	7.1859	6.	0.	4202.7
8840	7.0011	6.	0.	4253.8
8841	6.8164	6.	0.	4303.6
8842	6.6316	6.	0.	4351.4
8843	6.4468	6.	0.	4396.7
8844	6.2621	6.	0.	4438.7
8845	6.0773	6.	0.	4476.4
8846	5.8925	6.	0.	4508.6
8847	5.7078	6.	0.	4533.8
8848	5.523	6.	0.	4549.9
8849	5.3382	6.	0.	4554.8
8850	5.1534	6.	0.	4545.4
8851	4.9687	6.	0.	4518.1
8852	4.7839	6.	0.	4468.6
8853	4.5991	6.	0.	4391.9
8854	4.4144	6.	0.	4281.8
8855	4.2296	6.	0.	4131.5
8856	4.0448	6.	0.	3933.7
8857	3.8601	6.	0.	3680.4
8858	3.6753	6.	0.	3364.5
8859	3.4905	6.	0.	2979.9
8860	3.3057	6.	0.	2523.
8861	3.121	6.	0.	1993.2
8862	2.9362	6.	0.	1393.5
8863	2.7514	6.	0.	712.09
8864	2.5667	6.	0.	74.636
8865	2.4	1.8182	0.	12629
8866	2.4	1.6364	0.	7544.5
8867	2.4	1.4545	0.	6103.5
8868	2.4	1.2727	0.	4939.4
8869	2.4	1.0909	0.	4076.3
8870	2.4	0.90909	0.	3357.9
8871	2.4	0.72727	0.	2716.4
8872	2.4	0.54545	0.	2108.7
8873	2.4	0.36364	0.	1499.1
8874	2.4	0.18182	0.	821.11
8875	2.4	2.	0.	31296
8876	2.5667	0.18182	0.	584.05
8877	2.5667	0.36364	0.	1071.1
8878	2.5667	0.54545	0.	1534.3
8879	2.5667	0.72727	0.	2026.3
8880	2.5667	0.90909	0.	2579.
8881	2.5667	1.0909	0.	3233.
8882	2.5667	1.2727	0.	4052.8
8883	2.5667	1.4545	0.	5193.7
8884	2.5667	1.6364	0.	6637.3
8885	2.5667	1.8182	0.	11684
8886	2.5667	2.	0.	30431
8887	2.4	4.1818	0.	12629
8888	2.4	4.3636	0.	7544.5
8889	2.4	4.5455	0.	6103.5
8890	2.4	4.7273	0.	4939.4
8891	2.4	4.9091	0.	4076.3
8892	2.4	5.0909	0.	3357.9
8893	2.4	5.2727	0.	2716.4
8894	2.4	5.4545	0.	2108.7
8895	2.4	5.6364	0.	1499.1
8896	2.4	5.8182	0.	821.11
8897	2.4	4.	0.	31296
8898	2.5667	5.8182	0.	584.05
8899	2.5667	5.6364	0.	1071.1
8900	2.5667	5.4545	0.	1534.3
8901	2.5667	5.2727	0.	2026.3
8902	2.5667	5.0909	0.	2579.
8903	2.5667	4.9091	0.	3233.
8904	2.5667	4.7273	0.	4052.8
8905	2.5667	4.5455	0.	5193.7
8906	2.5667	4.3636	0.	6637.3
8907	2.5667	4.1818	0.	11684
8908	2.5667	4.	0.	30431
8909	2.4	2.2727	0.	18738
8910	2.4833	2.1818	0.	20566
8911	2.3077	2.1818	0.	18067
8912	2.4	2.1818	5.e-002	1098.6
8913	2.4	2.0909	0.	25519
8914	2.4	2.4545	0.	15492
8915	2.4833	2.3636	0.	16367
8916	2.3077	2.3636	0.	15452
8917	2.4	2.3636	5.e-002	203.4
8918	2.4	2.6364	0.	13938
8919	2.4833	2.5455	0.	14411
8920	2.3077	2.5455	0.	13890
8921	2.4	2.5455	5.e-002	83.76
8922	2.4	2.8182	0.	13184
8923	2.4833	2.7273	0.	13383
8924	2.3077	2.7273	0.	13044
8925	2.4	2.7273	5.e-002	38.599
8926	2.4	3.	0.	12958
8927	2.4833	2.9091	0.	12941
8928	2.3077	2.9091	0.	12667
8929	2.4	2.9091	5.e-002	12.229
8930	2.4	3.1818	0.	13184
8931	2.4833	3.0909	0.	12941
8932	2.3077	3.0909	0.	12667
8933	2.4	3.0909	5.e-002	12.229
8934	2.4	3.3636	0.	13938
8935	2.4833	3.2727	0.	13383
8936	2.3077	3.2727	0.	13044
8937	2.4	3.2727	5.e-002	38.599
8938	2.4	3.5455	0.	15492
8939	2.4833	3.4545	0.	14411
8940	2.3077	3.4545	0.	13890
8941	2.4	3.4545	5.e-002	83.76
8942	2.4	3.7273	0.	18738
8943	2.4833	3.6364	0.	16367
8944	2.3077	3.6364	0.	15452
8945	2.4	3.6364	5.e-002	203.4
8946	2.4833	3.8182	0.	20566
8947	2.3077	3.8182	0.	18067
8948	2.4	3.8182	5.e-002	1098.6
8949	2.4	3.9091	0.	25519
8950	2.5667	2.2727	0.	18577
8951	2.6591	2.1818	0.	17725
8952	2.5667	2.1818	5.e-002	1210.8
8953	2.5667	2.0909	0.	24972
8954	2.5667	2.4545	0.	15397
8955	2.6591	2.3636	0.	15241
8956	2.5667	2.3636	5.e-002	234.55
8957	2.5667	2.6364	0.	13885
8958	2.6591	2.5455	0.	13766
8959	2.5667	2.5455	5.e-002	129.
8960	2.5667	2.8182	0.	13146
8961	2.6591	2.7273	0.	12959
8962	2.5667	2.7273	5.e-002	79.082
8963	2.5667	3.	0.	12924
8964	2.6591	2.9091	0.	12597
8965	2.5667	2.9091	5.e-002	60.819
8966	2.5667	3.1818	0.	13146
8967	2.6591	3.0909	0.	12597
8968	2.5667	3.0909	5.e-002	60.819
8969	2.5667	3.3636	0.	13885
8970	2.6591	3.2727	0.	12959
8971	2.5667	3.2727	5.e-002	79.082
8972	2.5667	3.5455	0.	15397
8973	2.6591	3.4545	0.	13766
8974	2.5667	3.4545	5.e-002	129.
8975	2.5667	3.7273	0.	18577
8976	2.6591	3.6364	0.	15241
8977	2.5667	3.6364	5.e-002	234.55
8978	2.6591	3.8182	0.	17725
8979	2.5667	3.8182	5.e-002	1210.8
8980	2.5667	3.9091	0.	24972
8981	2.2154	5.7273	0.	1737.9
8982	2.1231	5.8182	0.	1745.3
8983	2.2154	5.8182	5.e-002	188.41
8984	2.2154	5.9091	0.	1109.2
8985	2.3077	5.8182	0.	1022.5
8986	2.2154	5.5455	0.	2438.3
8987	2.1231	5.6364	0.	2176.7
8988	2.2154	5.6364	5.e-002	167.3
8989	2.3077	5.6364	0.	1664.2
8990	2.2154	5.3636	0.	3225.3
8991	2.1231	5.4545	0.	2810.6
8992	2.2154	5.4545	5.e-002	174.61
8993	2.3077	5.4545	0.	2330.9
8994	2.2154	5.1818	0.	4077.4
8995	2.1231	5.2727	0.	3531.1
8996	2.2154	5.2727	5.e-002	191.01
8997	2.3077	5.2727	0.	3017.2
8998	2.2154	5.	0.	5028.8
8999	2.1231	5.0909	0.	4331.5
9000	2.2154	5.0909	5.e-002	215.72
9001	2.3077	5.0909	0.	3751.6
9002	2.2154	4.8182	0.	6143.8
9003	2.1231	4.9091	0.	5238.5
9004	2.2154	4.9091	5.e-002	250.78
9005	2.3077	4.9091	0.	4577.3
9006	2.2154	4.6364	0.	7528.2
9007	2.1231	4.7273	0.	6307.3
9008	2.2154	4.7273	5.e-002	305.12
9009	2.3077	4.7273	0.	5564.9
9010	2.2154	4.4545	0.	9420.9
9011	2.1231	4.5455	0.	7615.1
9012	2.2154	4.5455	5.e-002	374.8
9013	2.3077	4.5455	0.	6847.6
9014	2.2154	4.2727	0.	12077
9015	2.1231	4.3636	0.	9322.6
9016	2.2154	4.3636	5.e-002	553.84
9017	2.3077	4.3636	0.	8558.4
9018	2.2154	4.0909	0.	14785
9019	2.1231	4.1818	0.	11650
9020	2.2154	4.1818	5.e-002	984.87
9021	2.3077	4.1818	0.	11984
9022	2.2154	3.9091	0.	15665
9023	2.1231	4.	0.	13451
9024	2.2154	4.	5.e-002	1714.2
9025	2.3077	4.	0.	23418
9026	2.2154	3.7273	0.	14982
9027	2.1231	3.8182	0.	13607
9028	2.2154	3.8182	5.e-002	870.13
9029	2.2154	3.5455	0.	13909
9030	2.1231	3.6364	0.	13158
9031	2.2154	3.6364	5.e-002	348.89
9032	2.2154	3.3636	0.	13012
9033	2.1231	3.4545	0.	12522
9034	2.2154	3.4545	5.e-002	182.1
9035	2.2154	3.1818	0.	12526
9036	2.1231	3.2727	0.	12087
9037	2.2154	3.2727	5.e-002	99.522
9038	2.2154	3.	0.	12370
9039	2.1231	3.0909	0.	11870
9040	2.2154	3.0909	5.e-002	70.35
9041	2.2154	2.8182	0.	12526
9042	2.1231	2.9091	0.	11870
9043	2.2154	2.9091	5.e-002	70.35
9044	2.2154	2.6364	0.	13012
9045	2.1231	2.7273	0.	12087
9046	2.2154	2.7273	5.e-002	99.522
9047	2.2154	2.4545	0.	13909
9048	2.1231	2.5455	0.	12522
9049	2.2154	2.5455	5.e-002	182.1
9050	2.2154	2.2727	0.	14982
9051	2.1231	2.3636	0.	13158
9052	2.2154	2.3636	5.e-002	348.89
9053	2.2154	2.0909	0.	15665
9054	2.1231	2.1818	0.	13607
9055	2.2154	2.1818	5.e-002	870.13
9056	2.2154	1.9091	0.	14785
9057	2.1231	2.	0.	13451
9058	2.2154	2.	5.e-002	1714.2
9059	2.3077	2.	0.	23418
9060	2.2154	1.7273	0.	12077
9061	2.1231	1.8182	0.	11650
9062	2.2154	1.8182	5.e-002	984.87
9063	2.3077	1.8182	0.	11984
9064	2.2154	1.5455	0.	9420.9
9065	2.1231	1.6364	0.	9322.6
9066	2.2154	1.6364	5.e-002	553.84
9067	2.3077	1.6364	0.	8558.4
9068	2.2154	1.3636	0.	7528.2
9069	2.1231	1.4545	0.	7615.1
9070	2.2154	1.4545	5.e-002	374.8
9071	2.3077	1.4545	0.	6847.6
9072	2.2154	1.1818	0.	6143.8
9073	2.1231	1.2727	0.	6307.3
9074	2.2154	1.2727	5.e-002	305.12
9075	2.3077	1.2727	0.	5564.9
9076	2.2154	1.	0.	5028.8
9077	2.1231	1.0909	0.	5238.5
9078	2.2154	1.0909	5.e-002	250.78
9079	2.3077	1.0909	0.	4577.3
9080	2.2154	0.81818	0.	4077.4
9081	2.1231	0.90909	0.	4331.5
9082	2.2154	0.90909	5.e-002	215.72
9083	2.3077	0.90909	0.	3751.6
9084	2.2154	0.63636	0.	3225.3
9085	2.1231	0.72727	0.	3531.1
9086	2.2154	0.72727	5.e-002	191.01
9087	2.3077	0.72727	0.	3017.2
9088	2.2154	0.45455	0.	2438.3
9089	2.1231	0.54545	0.	2810.6
9090	2.2154	0.54545	5.e-002	174.61
9091	2.3077	0.54545	0.	2330.9
9092	2.2154	0.27273	0.	1737.9
9093	2.1231	0.36364	0.	2176.7
9094	2.2154	0.36364	5.e-002	167.3
9095	2.3077	0.36364	0.	1664.2
9096	2.1231	0.18182	0.	1745.3
9097	2.2154	0.18182	5.e-002	188.41
9098	2.2154	9.0909e-002	0.	1109.2
9099	2.3077	0.18182	0.	1022.5
9100	2.0308	5.7273	0.	2235.6
9101	1.9385	5.8182	0.	2455.7
9102	2.0308	5.8182	5.e-002	164.72
9103	2.0308	5.9091	0.	1891.6
9104	2.0308	5.5455	0.	2633.3
9105	1.9385	5.6364	0.	2649.6
9106	2.0308	5.6364	5.e-002	137.24
9107	2.0308	5.3636	0.	3204.
9108	1.9385	5.4545	0.	3065.
9109	2.0308	5.4545	5.e-002	136.18
9110	2.0308	5.1818	0.	3874.5
9111	1.9385	5.2727	0.	3604.5
9112	2.0308	5.2727	5.e-002	141.08
9113	2.0308	5.	0.	4637.7
9114	1.9385	5.0909	0.	4237.1
9115	2.0308	5.0909	5.e-002	151.37
9116	2.0308	4.8182	0.	5515.5
9117	1.9385	4.9091	0.	4960.9
9118	2.0308	4.9091	5.e-002	167.82
9119	2.0308	4.6364	0.	6537.1
9120	1.9385	4.7273	0.	5791.
9121	2.0308	4.7273	5.e-002	188.99
9122	2.0308	4.4545	0.	7726.3
9123	1.9385	4.5455	0.	6740.7
9124	2.0308	4.5455	5.e-002	229.71
9125	2.0308	4.2727	0.	9065.8
9126	1.9385	4.3636	0.	7808.9
9127	2.0308	4.3636	5.e-002	225.91
9128	2.0308	4.0909	0.	10250
9129	1.9385	4.1818	0.	8929.5
9130	2.0308	4.1818	5.e-002	321.36
9131	2.0308	3.9091	0.	11185
9132	1.9385	4.	0.	9836.1
9133	2.0308	4.	5.e-002	270.1
9134	2.0308	3.7273	0.	11696
9135	1.9385	3.8182	0.	10570
9136	2.0308	3.8182	5.e-002	385.39
9137	2.0308	3.5455	0.	11740
9138	1.9385	3.6364	0.	10896
9139	2.0308	3.6364	5.e-002	268.84
9140	2.0308	3.3636	0.	11580
9141	1.9385	3.4545	0.	10934
9142	2.0308	3.4545	5.e-002	193.64
9143	2.0308	3.1818	0.	11418
9144	1.9385	3.2727	0.	10862
9145	2.0308	3.2727	5.e-002	132.22
9146	2.0308	3.	0.	11357
9147	1.9385	3.0909	0.	10805
9148	2.0308	3.0909	5.e-002	105.63
9149	2.0308	2.8182	0.	11418
9150	1.9385	2.9091	0.	10805
9151	2.0308	2.9091	5.e-002	105.63
9152	2.0308	2.6364	0.	11580
9153	1.9385	2.7273	0.	10862
9154	2.0308	2.7273	5.e-002	132.22
9155	2.0308	2.4545	0.	11740
9156	1.9385	2.5455	0.	10934
9157	2.0308	2.5455	5.e-002	193.64
9158	2.0308	2.2727	0.	11696
9159	1.9385	2.3636	0.	10896
9160	2.0308	2.3636	5.e-002	268.84
9161	2.0308	2.0909	0.	11185
9162	1.9385	2.1818	0.	10570
9163	2.0308	2.1818	5.e-002	385.39
9164	2.0308	1.9091	0.	10250
9165	1.9385	2.	0.	9836.1
9166	2.0308	2.	5.e-002	270.1
9167	2.0308	1.7273	0.	9065.8
9168	1.9385	1.8182	0.	8929.5
9169	2.0308	1.8182	5.e-002	321.36
9170	2.0308	1.5455	0.	7726.3
9171	1.9385	1.6364	0.	7808.9
9172	2.0308	1.6364	5.e-002	225.91
9173	2.0308	1.3636	0.	6537.2
9174	1.9385	1.4545	0.	6740.7
9175	2.0308	1.4545	5.e-002	229.71
9176	2.0308	1.1818	0.	5515.5
9177	1.9385	1.2727	0.	5791.
9178	2.0308	1.2727	5.e-002	188.99
9179	2.0308	1.	0.	4637.7
9180	1.9385	1.0909	0.	4960.9
9181	2.0308	1.0909	5.e-002	167.82
9182	2.0308	0.81818	0.	3874.5
9183	1.9385	0.90909	0.	4237.1
9184	2.0308	0.90909	5.e-002	151.37
9185	2.0308	0.63636	0.	3204.
9186	1.9385	0.72727	0.	3604.5
9187	2.0308	0.72727	5.e-002	141.08
9188	2.0308	0.45455	0.	2633.3
9189	1.9385	0.54545	0.	3065.
9190	2.0308	0.54545	5.e-002	136.18
9191	2.0308	0.27273	0.	2235.6
9192	1.9385	0.36364	0.	2649.6
9193	2.0308	0.36364	5.e-002	137.24
9194	1.9385	0.18182	0.	2455.7
9195	2.0308	0.18182	5.e-002	164.72
9196	2.0308	9.0909e-002	0.	1891.6
9197	1.8462	5.7273	0.	2875.4
9198	1.7538	5.8182	0.	3122.6
9199	1.8462	5.8182	5.e-002	154.32
9200	1.8462	5.9091	0.	2618.3
9201	1.8462	5.5455	0.	3112.8
9202	1.7538	5.6364	0.	3218.6
9203	1.8462	5.6364	5.e-002	124.75
9204	1.8462	5.3636	0.	3515.9
9205	1.7538	5.4545	0.	3494.7
9206	1.8462	5.4545	5.e-002	124.48
9207	1.8462	5.1818	0.	4028.3
9208	1.7538	5.2727	0.	3887.3
9209	1.8462	5.2727	5.e-002	127.92
9210	1.8462	5.	0.	4629.6
9211	1.7538	5.0909	0.	4371.1
9212	1.8462	5.0909	5.e-002	133.65
9213	1.8462	4.8182	0.	5313.3
9214	1.7538	4.9091	0.	4933.2
9215	1.8462	4.9091	5.e-002	141.1
9216	1.8462	4.6364	0.	6077.
9217	1.7538	4.7273	0.	5566.4
9218	1.8462	4.7273	5.e-002	148.59
9219	1.8462	4.4545	0.	6894.
9220	1.7538	4.5455	0.	6261.8
9221	1.8462	4.5455	5.e-002	149.09
9222	1.8462	4.2727	0.	7716.6
9223	1.7538	4.3636	0.	6983.4
9224	1.8462	4.3636	5.e-002	148.25
9225	1.8462	4.0909	0.	8503.3
9226	1.7538	4.1818	0.	7692.4
9227	1.8462	4.1818	5.e-002	143.61
9228	1.8462	3.9091	0.	9194.
9229	1.7538	4.	0.	8353.9
9230	1.8462	4.	5.e-002	168.33
9231	1.8462	3.7273	0.	9731.
9232	1.7538	3.8182	0.	8921.
9233	1.8462	3.8182	5.e-002	180.49
9234	1.8462	3.5455	0.	10057
9235	1.7538	3.6364	0.	9347.1
9236	1.8462	3.6364	5.e-002	183.16
9237	1.8462	3.3636	0.	10192
9238	1.7538	3.4545	0.	9587.9
9239	1.8462	3.4545	5.e-002	152.75
9240	1.8462	3.1818	0.	10230
9241	1.7538	3.2727	0.	9698.5
9242	1.8462	3.2727	5.e-002	127.56
9243	1.8462	3.	0.	10236
9244	1.7538	3.0909	0.	9737.3
9245	1.8462	3.0909	5.e-002	112.7
9246	1.8462	2.8182	0.	10230
9247	1.7538	2.9091	0.	9737.3
9248	1.8462	2.9091	5.e-002	112.7
9249	1.8462	2.6364	0.	10192
9250	1.7538	2.7273	0.	9698.5
9251	1.8462	2.7273	5.e-002	127.56
9252	1.8462	2.4545	0.	10057
9253	1.7538	2.5455	0.	9587.9
9254	1.8462	2.5455	5.e-002	152.75
9255	1.8462	2.2727	0.	9731.
9256	1.7538	2.3636	0.	9347.1
9257	1.8462	2.3636	5.e-002	183.16
9258	1.8462	2.0909	0.	9194.
9259	1.7538	2.1818	0.	8921.
9260	1.8462	2.1818	5.e-002	180.49
9261	1.8462	1.9091	0.	8503.3
9262	1.7538	2.	0.	8353.9
9263	1.8462	2.	5.e-002	168.33
9264	1.8462	1.7273	0.	7716.6
9265	1.7538	1.8182	0.	7692.4
9266	1.8462	1.8182	5.e-002	143.61
9267	1.8462	1.5455	0.	6894.
9268	1.7538	1.6364	0.	6983.4
9269	1.8462	1.6364	5.e-002	148.25
9270	1.8462	1.3636	0.	6077.
9271	1.7538	1.4545	0.	6261.8
9272	1.8462	1.4545	5.e-002	149.09
9273	1.8462	1.1818	0.	5313.3
9274	1.7538	1.2727	0.	5566.4
9275	1.8462	1.2727	5.e-002	148.59
9276	1.8462	1.	0.	4629.6
9277	1.7538	1.0909	0.	4933.2
9278	1.8462	1.0909	5.e-002	141.1
9279	1.8462	0.81818	0.	4028.3
9280	1.7538	0.90909	0.	4371.1
9281	1.8462	0.90909	5.e-002	133.65
9282	1.8462	0.63636	0.	3515.9
9283	1.7538	0.72727	0.	3887.3
9284	1.8462	0.72727	5.e-002	127.92
9285	1.8462	0.45455	0.	3112.8
9286	1.7538	0.54545	0.	3494.7
9287	1.8462	0.54545	5.e-002	124.48
9288	1.8462	0.27273	0.	2875.4
9289	1.7538	0.36364	0.	3218.6
9290	1.8462	0.36364	5.e-002	124.75
9291	1.7538	0.18182	0.	3122.6
9292	1.8462	0.18182	5.e-002	154.32
9293	1.8462	9.0909e-002	0.	2618.3
9294	1.6615	5.7273	0.	3466.3
9295	1.5692	5.8182	0.	3698.2
9296	1.6615	5.8182	5.e-002	142.87
9297	1.6615	5.9091	0.	3253.8
9298	1.6615	5.5455	0.	3611.7
9299	1.5692	5.6364	0.	3738.6
9300	1.6615	5.6364	5.e-002	110.53
9301	1.6615	5.3636	0.	3891.5
9302	1.5692	5.4545	0.	3921.4
9303	1.6615	5.4545	5.e-002	110.98
9304	1.6615	5.1818	0.	4266.6
9305	1.5692	5.2727	0.	4198.6
9306	1.6615	5.2727	5.e-002	113.6
9307	1.6615	5.	0.	4718.8
9308	1.5692	5.0909	0.	4554.4
9309	1.6615	5.0909	5.e-002	116.37
9310	1.6615	4.8182	0.	5234.2
9311	1.5692	4.9091	0.	4975.7
9312	1.6615	4.9091	5.e-002	118.38
9313	1.6615	4.6364	0.	5797.7
9314	1.5692	4.7273	0.	5449.7
9315	1.6615	4.7273	5.e-002	117.94
9316	1.6615	4.4545	0.	6389.2
9317	1.5692	4.5455	0.	5960.5
9318	1.6615	4.5455	5.e-002	114.45
9319	1.6615	4.2727	0.	6980.9
9320	1.5692	4.3636	0.	6487.3
9321	1.6615	4.3636	5.e-002	108.34
9322	1.6615	4.0909	0.	7551.2
9323	1.5692	4.1818	0.	7005.1
9324	1.6615	4.1818	5.e-002	104.53
9325	1.6615	3.9091	0.	8078.8
9326	1.5692	4.	0.	7500.3
9327	1.6615	4.	5.e-002	108.24
9328	1.6615	3.7273	0.	8526.5
9329	1.5692	3.8182	0.	7948.9
9330	1.6615	3.8182	5.e-002	114.12
9331	1.6615	3.5455	0.	8862.2
9332	1.5692	3.6364	0.	8318.1
9333	1.6615	3.6364	5.e-002	117.69
9334	1.6615	3.3636	0.	9077.9
9335	1.5692	3.4545	0.	8585.3
9336	1.6615	3.4545	5.e-002	113.88
9337	1.6615	3.1818	0.	9190.3
9338	1.5692	3.2727	0.	8748.2
9339	1.6615	3.2727	5.e-002	106.28
9340	1.6615	3.	0.	9224.3
9341	1.5692	3.0909	0.	8823.1
9342	1.6615	3.0909	5.e-002	100.88
9343	1.6615	2.8182	0.	9190.3
9344	1.5692	2.9091	0.	8823.1
9345	1.6615	2.9091	5.e-002	100.88
9346	1.6615	2.6364	0.	9077.9
9347	1.5692	2.7273	0.	8748.2
9348	1.6615	2.7273	5.e-002	106.28
9349	1.6615	2.4545	0.	8862.2
9350	1.5692	2.5455	0.	8585.3
9351	1.6615	2.5455	5.e-002	113.88
9352	1.6615	2.2727	0.	8526.5
9353	1.5692	2.3636	0.	8318.1
9354	1.6615	2.3636	5.e-002	117.69
9355	1.6615	2.0909	0.	8078.8
9356	1.5692	2.1818	0.	7948.9
9357	1.6615	2.1818	5.e-002	114.12
9358	1.6615	1.9091	0.	7551.2
9359	1.5692	2.	0.	7500.3
9360	1.6615	2.	5.e-002	108.24
9361	1.6615	1.7273	0.	6980.9
9362	1.5692	1.8182	0.	7005.1
9363	1.6615	1.8182	5.e-002	104.53
9364	1.6615	1.5455	0.	6389.2
9365	1.5692	1.6364	0.	6487.3
9366	1.6615	1.6364	5.e-002	108.34
9367	1.6615	1.3636	0.	5797.7
9368	1.5692	1.4545	0.	5960.5
9369	1.6615	1.4545	5.e-002	114.45
9370	1.6615	1.1818	0.	5234.2
9371	1.5692	1.2727	0.	5449.7
9372	1.6615	1.2727	5.e-002	117.94
9373	1.6615	1.	0.	4718.8
9374	1.5692	1.0909	0.	4975.7
9375	1.6615	1.0909	5.e-002	118.38
9376	1.6615	0.81818	0.	4266.6
9377	1.5692	0.90909	0.	4554.4
9378	1.6615	0.90909	5.e-002	116.37
9379	1.6615	0.63636	0.	3891.5
9380	1.5692	0.72727	0.	4198.6
9381	1.6615	0.72727	5.e-002	113.6
9382	1.6615	0.45455	0.	3611.7
9383	1.5692	0.54545	0.	3921.4
9384	1.6615	0.54545	5.e-002	110.98
9385	1.6615	0.27273	0.	3466.3
9386	1.5692	0.36364	0.	3738.6
9387	1.6615	0.36364	5.e-002	110.53
9388	1.5692	0.18182	0.	3698.2
9389	1.6615	0.18182	5.e-002	142.87
9390	1.6615	9.0909e-002	0.	3253.8
9391	1.4769	5.7273	0.	3970.2
9392	1.3846	5.8182	0.	4175.3
9393	1.4769	5.8182	5.e-002	130.17
9394	1.4769	5.9091	0.	3791.1
9395	1.4769	5.5455	0.	4052.3
9396	1.3846	5.6364	0.	4172.6
9397	1.4769	5.6364	5.e-002	95.995
9398	1.4769	5.3636	0.	4241.
9399	1.3846	5.4545	0.	4286.5
9400	1.4769	5.4545	5.e-002	97.273
9401	1.4769	5.1818	0.	4506.7
9402	1.3846	5.2727	0.	4475.5
9403	1.4769	5.2727	5.e-002	99.9
9404	1.4769	5.	0.	4837.1
9405	1.3846	5.0909	0.	4730.4
9406	1.4769	5.0909	5.e-002	101.5
9407	1.4769	4.8182	0.	5219.5
9408	1.3846	4.9091	0.	5041.6
9409	1.4769	4.9091	5.e-002	101.36
9410	1.4769	4.6364	0.	5639.5
9411	1.3846	4.7273	0.	5397.2
9412	1.4769	4.7273	5.e-002	98.917
9413	1.4769	4.4545	0.	6080.6
9414	1.3846	4.5455	0.	5783.
9415	1.4769	4.5455	5.e-002	93.903
9416	1.4769	4.2727	0.	6526.5
9417	1.3846	4.3636	0.	6183.1
9418	1.4769	4.3636	5.e-002	87.683
9419	1.4769	4.0909	0.	6962.7
9420	1.3846	4.1818	0.	6583.
9421	1.4769	4.1818	5.e-002	82.59
9422	1.4769	3.9091	0.	7373.6
9423	1.3846	4.	0.	6968.9
9424	1.4769	4.	5.e-002	79.431
9425	1.4769	3.7273	0.	7738.9
9426	1.3846	3.8182	0.	7325.9
9427	1.4769	3.8182	5.e-002	78.952
9428	1.4769	3.5455	0.	8035.2
9429	1.3846	3.6364	0.	7633.8
9430	1.4769	3.6364	5.e-002	80.605
9431	1.4769	3.3636	0.	8247.
9432	1.3846	3.4545	0.	7872.8
9433	1.4769	3.4545	5.e-002	82.03
9434	1.4769	3.1818	0.	8371.3
9435	1.3846	3.2727	0.	8032.7
9436	1.4769	3.2727	5.e-002	81.69
9437	1.4769	3.	0.	8412.
9438	1.3846	3.0909	0.	8111.9
9439	1.4769	3.0909	5.e-002	80.901
9440	1.4769	2.8182	0.	8371.3
9441	1.3846	2.9091	0.	8111.9
9442	1.4769	2.9091	5.e-002	80.901
9443	1.4769	2.6364	0.	8247.
9444	1.3846	2.7273	0.	8032.8
9445	1.4769	2.7273	5.e-002	81.69
9446	1.4769	2.4545	0.	8035.2
9447	1.3846	2.5455	0.	7872.8
9448	1.4769	2.5455	5.e-002	82.03
9449	1.4769	2.2727	0.	7738.9
9450	1.3846	2.3636	0.	7633.8
9451	1.4769	2.3636	5.e-002	80.605
9452	1.4769	2.0909	0.	7373.6
9453	1.3846	2.1818	0.	7325.9
9454	1.4769	2.1818	5.e-002	78.952
9455	1.4769	1.9091	0.	6962.7
9456	1.3846	2.	0.	6968.9
9457	1.4769	2.	5.e-002	79.431
9458	1.4769	1.7273	0.	6526.5
9459	1.3846	1.8182	0.	6583.
9460	1.4769	1.8182	5.e-002	82.59
9461	1.4769	1.5455	0.	6080.6
9462	1.3846	1.6364	0.	6183.1
9463	1.4769	1.6364	5.e-002	87.683
9464	1.4769	1.3636	0.	5639.5
9465	1.3846	1.4545	0.	5783.
9466	1.4769	1.4545	5.e-002	93.903
9467	1.4769	1.1818	0.	5219.5
9468	1.3846	1.2727	0.	5397.2
9469	1.4769	1.2727	5.e-002	98.917
9470	1.4769	1.	0.	4837.1
9471	1.3846	1.0909	0.	5041.6
9472	1.4769	1.0909	5.e-002	101.36
9473	1.4769	0.81818	0.	4506.7
9474	1.3846	0.90909	0.	4730.4
9475	1.4769	0.90909	5.e-002	101.5
9476	1.4769	0.63636	0.	4241.
9477	1.3846	0.72727	0.	4475.5
9478	1.4769	0.72727	5.e-002	99.9
9479	1.4769	0.45455	0.	4052.3
9480	1.3846	0.54545	0.	4286.5
9481	1.4769	0.54545	5.e-002	97.273
9482	1.4769	0.27273	0.	3970.2
9483	1.3846	0.36364	0.	4172.6
9484	1.4769	0.36364	5.e-002	95.995
9485	1.3846	0.18182	0.	4175.3
9486	1.4769	0.18182	5.e-002	130.17
9487	1.4769	9.0909e-002	0.	3791.1
9488	1.2923	5.7273	0.	4377.
9489	1.2	5.8182	0.	4551.5
9490	1.2923	5.8182	5.e-002	116.77
9491	1.2923	5.9091	0.	4228.3
9492	1.2923	5.5455	0.	4408.1
9493	1.2	5.6364	0.	4508.5
9494	1.2923	5.6364	5.e-002	82.209
9495	1.2923	5.3636	0.	4527.
9496	1.2	5.4545	0.	4567.6
9497	1.2923	5.4545	5.e-002	85.018
9498	1.2923	5.1818	0.	4710.
9499	1.2	5.2727	0.	4690.4
9500	1.2923	5.2727	5.e-002	88.505
9501	1.2923	5.	0.	4949.4
9502	1.2	5.0909	0.	4872.2
9503	1.2923	5.0909	5.e-002	90.197
9504	1.2923	4.8182	0.	5235.6
9505	1.2	4.9091	0.	5106.1
9506	1.2923	4.9091	5.e-002	89.701
9507	1.2923	4.6364	0.	5556.6
9508	1.2	4.7273	0.	5381.5
9509	1.2923	4.7273	5.e-002	86.873
9510	1.2923	4.4545	0.	5899.2
9511	1.2	4.5455	0.	5685.5
9512	1.2923	4.5455	5.e-002	81.945
9513	1.2923	4.2727	0.	6250.
9514	1.2	4.3636	0.	6004.7
9515	1.2923	4.3636	5.e-002	75.53
9516	1.2923	4.0909	0.	6596.5
9517	1.2	4.1818	0.	6326.2
9518	1.2923	4.1818	5.e-002	68.597
9519	1.2923	3.9091	0.	6925.6
9520	1.2	4.	0.	6638.1
9521	1.2923	4.	5.e-002	62.195
9522	1.2923	3.7273	0.	7222.1
9523	1.2	3.8182	0.	6927.7
9524	1.2923	3.8182	5.e-002	57.848
9525	1.2923	3.5455	0.	7469.7
9526	1.2	3.6364	0.	7180.8
9527	1.2923	3.6364	5.e-002	56.602
9528	1.2923	3.3636	0.	7654.6
9529	1.2	3.4545	0.	7382.9
9530	1.2923	3.4545	5.e-002	57.525
9531	1.2923	3.1818	0.	7767.9
9532	1.2	3.2727	0.	7522.7
9533	1.2923	3.2727	5.e-002	58.751
9534	1.2923	3.	0.	7805.9
9535	1.2	3.0909	0.	7593.9
9536	1.2923	3.0909	5.e-002	59.402
9537	1.2923	2.8182	0.	7767.9
9538	1.2	2.9091	0.	7593.9
9539	1.2923	2.9091	5.e-002	59.402
9540	1.2923	2.6364	0.	7654.6
9541	1.2	2.7273	0.	7522.7
9542	1.2923	2.7273	5.e-002	58.751
9543	1.2923	2.4545	0.	7469.7
9544	1.2	2.5455	0.	7382.9
9545	1.2923	2.5455	5.e-002	57.525
9546	1.2923	2.2727	0.	7222.1
9547	1.2	2.3636	0.	7180.8
9548	1.2923	2.3636	5.e-002	56.602
9549	1.2923	2.0909	0.	6925.6
9550	1.2	2.1818	0.	6927.7
9551	1.2923	2.1818	5.e-002	57.848
9552	1.2923	1.9091	0.	6596.5
9553	1.2	2.	0.	6638.1
9554	1.2923	2.	5.e-002	62.195
9555	1.2923	1.7273	0.	6250.
9556	1.2	1.8182	0.	6326.2
9557	1.2923	1.8182	5.e-002	68.597
9558	1.2923	1.5455	0.	5899.2
9559	1.2	1.6364	0.	6004.7
9560	1.2923	1.6364	5.e-002	75.53
9561	1.2923	1.3636	0.	5556.6
9562	1.2	1.4545	0.	5685.5
9563	1.2923	1.4545	5.e-002	81.945
9564	1.2923	1.1818	0.	5235.6
9565	1.2	1.2727	0.	5381.5
9566	1.2923	1.2727	5.e-002	86.873
9567	1.2923	1.	0.	4949.4
9568	1.2	1.0909	0.	5106.1
9569	1.2923	1.0909	5.e-002	89.701
9570	1.2923	0.81818	0.	4710.
9571	1.2	0.90909	0.	4872.2
9572	1.2923	0.90909	5.e-002	90.197
9573	1.2923	0.63636	0.	4527.
9574	1.2	0.72727	0.	4690.4
9575	1.2923	0.72727	5.e-002	88.505
9576	1.2923	0.45455	0.	4408.1
9577	1.2	0.54545	0.	4567.6
9578	1.2923	0.54545	5.e-002	85.018
9579	1.2923	0.27273	0.	4377.
9580	1.2	0.36364	0.	4508.5
9581	1.2923	0.36364	5.e-002	82.209
9582	1.2	0.18182	0.	4551.5
9583	1.2923	0.18182	5.e-002	116.77
9584	1.2923	9.0909e-002	0.	4228.3
9585	1.1077	5.7273	0.	4681.8
9586	1.0154	5.8182	0.	4823.
9587	1.1077	5.8182	5.e-002	103.07
9588	1.1077	5.9091	0.	4562.
9589	1.1077	5.5455	0.	4667.8
9590	1.0154	5.6364	0.	4740.2
9591	1.1077	5.6364	5.e-002	70.567
9592	1.1077	5.3636	0.	4733.4
9593	1.0154	5.4545	0.	4756.
9594	1.1077	5.4545	5.e-002	75.835
9595	1.1077	5.1818	0.	4858.1
9596	1.0154	5.2727	0.	4833.9
9597	1.1077	5.2727	5.e-002	80.63
9598	1.1077	5.	0.	5037.
9599	1.0154	5.0909	0.	4971.4
9600	1.1077	5.0909	5.e-002	82.82
9601	1.1077	4.8182	0.	5261.6
9602	1.0154	4.9091	0.	5160.8
9603	1.1077	4.9091	5.e-002	82.373
9604	1.1077	4.6364	0.	5520.1
9605	1.0154	4.7273	0.	5390.1
9606	1.1077	4.7273	5.e-002	79.462
9607	1.1077	4.4545	0.	5799.9
9608	1.0154	4.5455	0.	5645.7
9609	1.1077	4.5455	5.e-002	74.376
9610	1.1077	4.2727	0.	6088.3
9611	1.0154	4.3636	0.	5914.6
9612	1.1077	4.3636	5.e-002	67.59
9613	1.1077	4.0909	0.	6373.5
9614	1.0154	4.1818	0.	6184.6
9615	1.1077	4.1818	5.e-002	59.696
9616	1.1077	3.9091	0.	6644.2
9617	1.0154	4.	0.	6445.
9618	1.1077	4.	5.e-002	51.56
9619	1.1077	3.7273	0.	6888.5
9620	1.0154	3.8182	0.	6685.5
9621	1.1077	3.8182	5.e-002	44.543
9622	1.1077	3.5455	0.	7094.
9623	1.0154	3.6364	0.	6895.4
9624	1.1077	3.6364	5.e-002	40.148
9625	1.1077	3.3636	0.	7249.3
9626	1.0154	3.4545	0.	7063.8
9627	1.1077	3.4545	5.e-002	38.682
9628	1.1077	3.1818	0.	7346.
9629	1.0154	3.2727	0.	7181.5
9630	1.1077	3.2727	5.e-002	38.922
9631	1.1077	3.	0.	7378.7
9632	1.0154	3.0909	0.	7241.9
9633	1.1077	3.0909	5.e-002	39.408
9634	1.1077	2.8182	0.	7346.
9635	1.0154	2.9091	0.	7241.9
9636	1.1077	2.9091	5.e-002	39.408
9637	1.1077	2.6364	0.	7249.3
9638	1.0154	2.7273	0.	7181.5
9639	1.1077	2.7273	5.e-002	38.922
9640	1.1077	2.4545	0.	7094.
9641	1.0154	2.5455	0.	7063.8
9642	1.1077	2.5455	5.e-002	38.682
9643	1.1077	2.2727	0.	6888.5
9644	1.0154	2.3636	0.	6895.4
9645	1.1077	2.3636	5.e-002	40.148
9646	1.1077	2.0909	0.	6644.2
9647	1.0154	2.1818	0.	6685.5
9648	1.1077	2.1818	5.e-002	44.543
9649	1.1077	1.9091	0.	6373.5
9650	1.0154	2.	0.	6445.
9651	1.1077	2.	5.e-002	51.56
9652	1.1077	1.7273	0.	6088.3
9653	1.0154	1.8182	0.	6184.6
9654	1.1077	1.8182	5.e-002	59.696
9655	1.1077	1.5455	0.	5799.9
9656	1.0154	1.6364	0.	5914.6
9657	1.1077	1.6364	5.e-002	67.59
9658	1.1077	1.3636	0.	5520.1
9659	1.0154	1.4545	0.	5645.7
9660	1.1077	1.4545	5.e-002	74.376
9661	1.1077	1.1818	0.	5261.6
9662	1.0154	1.2727	0.	5390.1
9663	1.1077	1.2727	5.e-002	79.462
9664	1.1077	1.	0.	5037.
9665	1.0154	1.0909	0.	5160.8
9666	1.1077	1.0909	5.e-002	82.373
9667	1.1077	0.81818	0.	4858.1
9668	1.0154	0.90909	0.	4971.4
9669	1.1077	0.90909	5.e-002	82.82
9670	1.1077	0.63636	0.	4733.4
9671	1.0154	0.72727	0.	4833.9
9672	1.1077	0.72727	5.e-002	80.63
9673	1.1077	0.45455	0.	4667.8
9674	1.0154	0.54545	0.	4756.
9675	1.1077	0.54545	5.e-002	75.835
9676	1.1077	0.27273	0.	4681.8
9677	1.0154	0.36364	0.	4740.2
9678	1.1077	0.36364	5.e-002	70.567
9679	1.0154	0.18182	0.	4823.
9680	1.1077	0.18182	5.e-002	103.07
9681	1.1077	9.0909e-002	0.	4562.
9682	0.92308	5.7273	0.	4879.4
9683	0.83077	5.8182	0.	4977.3
9684	0.92308	5.8182	5.e-002	89.173
9685	0.92308	5.9091	0.	4785.5
9686	0.92308	5.5455	0.	4827.
9687	0.83077	5.6364	0.	4853.5
9688	0.92308	5.6364	5.e-002	63.462
9689	0.92308	5.3636	0.	4856.8
9690	0.83077	5.4545	0.	4839.3
9691	0.92308	5.4545	5.e-002	71.542
9692	0.92308	5.1818	0.	4949.8
9693	0.83077	5.2727	0.	4898.3
9694	0.92308	5.2727	5.e-002	77.115
9695	0.92308	5.	0.	5099.9
9696	0.83077	5.0909	0.	5023.7
9697	0.92308	5.0909	5.e-002	79.27
9698	0.92308	4.8182	0.	5295.5
9699	0.83077	4.9091	0.	5201.3
9700	0.92308	4.9091	5.e-002	78.491
9701	0.92308	4.6364	0.	5522.4
9702	0.83077	4.7273	0.	5414.2
9703	0.92308	4.7273	5.e-002	75.198
9704	0.92308	4.4545	0.	5766.8
9705	0.83077	4.5455	0.	5647.1
9706	0.92308	4.5455	5.e-002	69.777
9707	0.92308	4.2727	0.	6016.4
9708	0.83077	4.3636	0.	5887.1
9709	0.92308	4.3636	5.e-002	62.648
9710	0.92308	4.0909	0.	6260.6
9711	0.83077	4.1818	0.	6123.5
9712	0.92308	4.1818	5.e-002	54.3
9713	0.92308	3.9091	0.	6489.7
9714	0.83077	4.	0.	6347.7
9715	0.92308	4.	5.e-002	45.367
9716	0.92308	3.7273	0.	6694.5
9717	0.83077	3.8182	0.	6551.7
9718	0.92308	3.8182	5.e-002	36.756
9719	0.92308	3.5455	0.	6865.9
9720	0.83077	3.6364	0.	6727.6
9721	0.92308	3.6364	5.e-002	29.621
9722	0.92308	3.3636	0.	6995.4
9723	0.83077	3.4545	0.	6868.
9724	0.92308	3.4545	5.e-002	24.939
9725	0.92308	3.1818	0.	7076.2
9726	0.83077	3.2727	0.	6965.9
9727	0.92308	3.2727	5.e-002	22.748
9728	0.92308	3.	0.	7103.6
9729	0.83077	3.0909	0.	7016.2
9730	0.92308	3.0909	5.e-002	22.1
9731	0.92308	2.8182	0.	7076.2
9732	0.83077	2.9091	0.	7016.2
9733	0.92308	2.9091	5.e-002	22.1
9734	0.92308	2.6364	0.	6995.4
9735	0.83077	2.7273	0.	6965.9
9736	0.92308	2.7273	5.e-002	22.748
9737	0.92308	2.4545	0.	6865.9
9738	0.83077	2.5455	0.	6868.
9739	0.92308	2.5455	5.e-002	24.939
9740	0.92308	2.2727	0.	6694.5
9741	0.83077	2.3636	0.	6727.6
9742	0.92308	2.3636	5.e-002	29.621
9743	0.92308	2.0909	0.	6489.7
9744	0.83077	2.1818	0.	6551.7
9745	0.92308	2.1818	5.e-002	36.756
9746	0.92308	1.9091	0.	6260.6
9747	0.83077	2.	0.	6347.7
9748	0.92308	2.	5.e-002	45.367
9749	0.92308	1.7273	0.	6016.4
9750	0.83077	1.8182	0.	6123.5
9751	0.92308	1.8182	5.e-002	54.3
9752	0.92308	1.5455	0.	5766.8
9753	0.83077	1.6364	0.	5887.1
9754	0.92308	1.6364	5.e-002	62.648
9755	0.92308	1.3636	0.	5522.4
9756	0.83077	1.4545	0.	5647.1
9757	0.92308	1.4545	5.e-002	69.777
9758	0.92308	1.1818	0.	5295.5
9759	0.83077	1.2727	0.	5414.2
9760	0.92308	1.2727	5.e-002	75.198
9761	0.92308	1.	0.	5099.9
9762	0.83077	1.0909	0.	5201.3
9763	0.92308	1.0909	5.e-002	78.491
9764	0.92308	0.81818	0.	4949.8
9765	0.83077	0.90909	0.	5023.7
9766	0.92308	0.90909	5.e-002	79.27
9767	0.92308	0.63636	0.	4856.8
9768	0.83077	0.72727	0.	4898.3
9769	0.92308	0.72727	5.e-002	77.115
9770	0.92308	0.45455	0.	4827.
9771	0.83077	0.54545	0.	4839.3
9772	0.92308	0.54545	5.e-002	71.542
9773	0.92308	0.27273	0.	4879.4
9774	0.83077	0.36364	0.	4853.5
9775	0.92308	0.36364	5.e-002	63.462
9776	0.83077	0.18182	0.	4977.3
9777	0.92308	0.18182	5.e-002	89.173
9778	0.92308	9.0909e-002	0.	4785.5
9779	0.73846	5.7273	0.	4947.9
9780	0.64615	5.8182	0.	4989.8
9781	0.73846	5.8182	5.e-002	76.192
9782	0.73846	5.9091	0.	4879.4
9783	0.73846	5.5455	0.	4863.
9784	0.64615	5.6364	0.	4838.
9785	0.73846	5.6364	5.e-002	65.8
9786	0.73846	5.3636	0.	4879.4
9787	0.64615	5.4545	0.	4827.3
9788	0.73846	5.4545	5.e-002	74.63
9789	0.73846	5.1818	0.	4973.2
9790	0.64615	5.2727	0.	4912.6
9791	0.73846	5.2727	5.e-002	78.859
9792	0.73846	5.	0.	5128.2
9793	0.64615	5.0909	0.	5069.5
9794	0.73846	5.0909	5.e-002	79.688
9795	0.73846	4.8182	0.	5324.5
9796	0.64615	4.9091	0.	5270.2
9797	0.73846	4.9091	5.e-002	77.872
9798	0.73846	4.6364	0.	5544.
9799	0.64615	4.7273	0.	5492.7
9800	0.73846	4.7273	5.e-002	73.81
9801	0.73846	4.4545	0.	5772.2
9802	0.64615	4.5455	0.	5721.8
9803	0.73846	4.5455	5.e-002	67.873
9804	0.73846	4.2727	0.	5998.4
9805	0.64615	4.3636	0.	5947.2
9806	0.73846	4.3636	5.e-002	60.455
9807	0.73846	4.0909	0.	6214.1
9808	0.64615	4.1818	0.	6161.6
9809	0.73846	4.1818	5.e-002	51.978
9810	0.73846	3.9091	0.	6412.3
9811	0.64615	4.	0.	6359.2
9812	0.73846	4.	5.e-002	42.907
9813	0.73846	3.7273	0.	6586.5
9814	0.64615	3.8182	0.	6535.
9815	0.73846	3.8182	5.e-002	33.766
9816	0.73846	3.5455	0.	6730.5
9817	0.64615	3.6364	0.	6684.
9818	0.73846	3.6364	5.e-002	25.126
9819	0.73846	3.3636	0.	6838.4
9820	0.64615	3.4545	0.	6801.4
9821	0.73846	3.4545	5.e-002	17.518
9822	0.73846	3.1818	0.	6905.3
9823	0.64615	3.2727	0.	6882.7
9824	0.73846	3.2727	5.e-002	11.389
9825	0.73846	3.	0.	6928.
9826	0.64615	3.0909	0.	6924.2
9827	0.73846	3.0909	5.e-002	7.4482
9828	0.73846	2.8182	0.	6905.3
9829	0.64615	2.9091	0.	6924.2
9830	0.73846	2.9091	5.e-002	7.4482
9831	0.73846	2.6364	0.	6838.4
9832	0.64615	2.7273	0.	6882.7
9833	0.73846	2.7273	5.e-002	11.389
9834	0.73846	2.4545	0.	6730.5
9835	0.64615	2.5455	0.	6801.4
9836	0.73846	2.5455	5.e-002	17.518
9837	0.73846	2.2727	0.	6586.5
9838	0.64615	2.3636	0.	6684.
9839	0.73846	2.3636	5.e-002	25.126
9840	0.73846	2.0909	0.	6412.3
9841	0.64615	2.1818	0.	6535.
9842	0.73846	2.1818	5.e-002	33.766
9843	0.73846	1.9091	0.	6214.1
9844	0.64615	2.	0.	6359.2
9845	0.73846	2.	5.e-002	42.907
9846	0.73846	1.7273	0.	5998.4
9847	0.64615	1.8182	0.	6161.6
9848	0.73846	1.8182	5.e-002	51.978
9849	0.73846	1.5455	0.	5772.2
9850	0.64615	1.6364	0.	5947.2
9851	0.73846	1.6364	5.e-002	60.455
9852	0.73846	1.3636	0.	5544.
9853	0.64615	1.4545	0.	5721.8
9854	0.73846	1.4545	5.e-002	67.873
9855	0.73846	1.1818	0.	5324.5
9856	0.64615	1.2727	0.	5492.7
9857	0.73846	1.2727	5.e-002	73.81
9858	0.73846	1.	0.	5128.2
9859	0.64615	1.0909	0.	5270.2
9860	0.73846	1.0909	5.e-002	77.872
9861	0.73846	0.81818	0.	4973.2
9862	0.64615	0.90909	0.	5069.5
9863	0.73846	0.90909	5.e-002	79.688
9864	0.73846	0.63636	0.	4879.4
9865	0.64615	0.72727	0.	4912.6
9866	0.73846	0.72727	5.e-002	78.859
9867	0.73846	0.45455	0.	4863.
9868	0.64615	0.54545	0.	4827.3
9869	0.73846	0.54545	5.e-002	74.63
9870	0.73846	0.27273	0.	4947.9
9871	0.64615	0.36364	0.	4838.
9872	0.73846	0.36364	5.e-002	65.8
9873	0.64615	0.18182	0.	4989.8
9874	0.73846	0.18182	5.e-002	76.192
9875	0.73846	9.0909e-002	0.	4879.4
9876	0.55385	5.7273	0.	4873.3
9877	0.46154	5.8182	0.	4771.2
9878	0.55385	5.8182	5.e-002	69.527
9879	0.55385	5.9091	0.	4807.8
9880	0.55385	5.5455	0.	4797.6
9881	0.46154	5.6364	0.	4593.
9882	0.55385	5.6364	5.e-002	83.373
9883	0.55385	5.3636	0.	4859.
9884	0.46154	5.4545	0.	4641.5
9885	0.55385	5.4545	5.e-002	86.117
9886	0.55385	5.1818	0.	5011.2
9887	0.46154	5.2727	0.	4814.8
9888	0.55385	5.2727	5.e-002	85.145
9889	0.55385	5.	0.	5216.1
9890	0.46154	5.0909	0.	5043.1
9891	0.55385	5.0909	5.e-002	83.056
9892	0.55385	4.8182	0.	5443.9
9893	0.46154	4.9091	0.	5287.4
9894	0.55385	4.9091	5.e-002	79.37
9895	0.55385	4.6364	0.	5675.9
9896	0.46154	4.7273	0.	5528.4
9897	0.55385	4.7273	5.e-002	74.094
9898	0.55385	4.4545	0.	5901.7
9899	0.46154	4.5455	0.	5757.5
9900	0.55385	4.5455	5.e-002	67.417
9901	0.55385	4.2727	0.	6114.5
9902	0.46154	4.3636	0.	5970.2
9903	0.55385	4.3636	5.e-002	59.677
9904	0.55385	4.0909	0.	6310.
9905	0.46154	4.1818	0.	6163.9
9906	0.55385	4.1818	5.e-002	51.248
9907	0.55385	3.9091	0.	6484.4
9908	0.46154	4.	0.	6336.7
9909	0.55385	4.	5.e-002	42.508
9910	0.55385	3.7273	0.	6634.2
9911	0.46154	3.8182	0.	6486.5
9912	0.55385	3.8182	5.e-002	33.82
9913	0.55385	3.5455	0.	6756.
9914	0.46154	3.6364	0.	6611.
9915	0.55385	3.6364	5.e-002	25.512
9916	0.55385	3.3636	0.	6846.1
9917	0.46154	3.4545	0.	6707.7
9918	0.55385	3.4545	5.e-002	17.833
9919	0.55385	3.1818	0.	6901.6
9920	0.46154	3.2727	0.	6774.
9921	0.55385	3.2727	5.e-002	10.959
9922	0.55385	3.	0.	6920.4
9923	0.46154	3.0909	0.	6807.7
9924	0.55385	3.0909	5.e-002	5.459
9925	0.55385	2.8182	0.	6901.6
9926	0.46154	2.9091	0.	6807.7
9927	0.55385	2.9091	5.e-002	5.459
9928	0.55385	2.6364	0.	6846.1
9929	0.46154	2.7273	0.	6774.
9930	0.55385	2.7273	5.e-002	10.959
9931	0.55385	2.4545	0.	6756.
9932	0.46154	2.5455	0.	6707.7
9933	0.55385	2.5455	5.e-002	17.833
9934	0.55385	2.2727	0.	6634.2
9935	0.46154	2.3636	0.	6611.
9936	0.55385	2.3636	5.e-002	25.512
9937	0.55385	2.0909	0.	6484.4
9938	0.46154	2.1818	0.	6486.5
9939	0.55385	2.1818	5.e-002	33.82
9940	0.55385	1.9091	0.	6310.
9941	0.46154	2.	0.	6336.7
9942	0.55385	2.	5.e-002	42.508
9943	0.55385	1.7273	0.	6114.5
9944	0.46154	1.8182	0.	6163.9
9945	0.55385	1.8182	5.e-002	51.248
9946	0.55385	1.5455	0.	5901.7
9947	0.46154	1.6364	0.	5970.2
9948	0.55385	1.6364	5.e-002	59.677
9949	0.55385	1.3636	0.	5675.9
9950	0.46154	1.4545	0.	5757.5
9951	0.55385	1.4545	5.e-002	67.417
9952	0.55385	1.1818	0.	5443.9
9953	0.46154	1.2727	0.	5528.4
9954	0.55385	1.2727	5.e-002	74.094
9955	0.55385	1.	0.	5216.1
9956	0.46154	1.0909	0.	5287.4
9957	0.55385	1.0909	5.e-002	79.37
9958	0.55385	0.81818	0.	5011.2
9959	0.46154	0.90909	0.	5043.1
9960	0.55385	0.90909	5.e-002	83.056
9961	0.55385	0.63636	0.	4859.
9962	0.46154	0.72727	0.	4814.8
9963	0.55385	0.72727	5.e-002	85.145
9964	0.55385	0.45455	0.	4797.6
9965	0.46154	0.54545	0.	4641.5
9966	0.55385	0.54545	5.e-002	86.117
9967	0.55385	0.27273	0.	4873.3
9968	0.46154	0.36364	0.	4593.
9969	0.55385	0.36364	5.e-002	83.373
9970	0.46154	0.18182	0.	4771.2
9971	0.55385	0.18182	5.e-002	69.527
9972	0.55385	9.0909e-002	0.	4807.8
9973	0.36923	5.7273	0.	4476.7
9974	0.27692	5.8182	0.	4172.
9975	0.36923	5.8182	5.e-002	103.79
9976	0.36923	5.9091	0.	4451.7
9977	0.36923	5.5455	0.	4425.8
9978	0.27692	5.6364	0.	4298.8
9979	0.36923	5.6364	5.e-002	124.58
9980	0.36923	5.3636	0.	4593.7
9981	0.27692	5.4545	0.	4679.9
9982	0.36923	5.4545	5.e-002	108.44
9983	0.36923	5.1818	0.	4848.4
9984	0.27692	5.2727	0.	5077.1
9985	0.36923	5.2727	5.e-002	100.38
9986	0.36923	5.	0.	5118.1
9987	0.27692	5.0909	0.	5435.7
9988	0.36923	5.0909	5.e-002	94.417
9989	0.36923	4.8182	0.	5375.9
9990	0.27692	4.9091	0.	5748.5
9991	0.36923	4.9091	5.e-002	88.499
9992	0.36923	4.6364	0.	5613.6
9993	0.27692	4.7273	0.	6020.2
9994	0.36923	4.7273	5.e-002	81.663
9995	0.36923	4.4545	0.	5829.1
9996	0.27692	4.5455	0.	6256.6
9997	0.36923	4.5455	5.e-002	73.974
9998	0.36923	4.2727	0.	6022.
9999	0.27692	4.3636	0.	6462.6
10000	0.36923	4.3636	5.e-002	65.7
10001	0.36923	4.0909	0.	6192.5
10002	0.27692	4.1818	0.	6641.4
10003	0.36923	4.1818	5.e-002	57.174
10004	0.36923	3.9091	0.	6340.1
10005	0.27692	4.	0.	6795.
10006	0.36923	4.	5.e-002	48.732
10007	0.36923	3.7273	0.	6464.1
10008	0.27692	3.8182	0.	6924.7
10009	0.36923	3.8182	5.e-002	40.703
10010	0.36923	3.5455	0.	6563.2
10011	0.27692	3.6364	0.	7030.2
10012	0.36923	3.6364	5.e-002	33.398
10013	0.36923	3.3636	0.	6635.7
10014	0.27692	3.4545	0.	7111.1
10015	0.36923	3.4545	5.e-002	27.148
10016	0.36923	3.1818	0.	6679.9
10017	0.27692	3.2727	0.	7166.
10018	0.36923	3.2727	5.e-002	22.382
10019	0.36923	3.	0.	6694.8
10020	0.27692	3.0909	0.	7193.8
10021	0.36923	3.0909	5.e-002	19.708
10022	0.36923	2.8182	0.	6679.9
10023	0.27692	2.9091	0.	7193.8
10024	0.36923	2.9091	5.e-002	19.708
10025	0.36923	2.6364	0.	6635.7
10026	0.27692	2.7273	0.	7166.
10027	0.36923	2.7273	5.e-002	22.382
10028	0.36923	2.4545	0.	6563.2
10029	0.27692	2.5455	0.	7111.1
10030	0.36923	2.5455	5.e-002	27.148
10031	0.36923	2.2727	0.	6464.1
10032	0.27692	2.3636	0.	7030.2
10033	0.36923	2.3636	5.e-002	33.398
10034	0.36923	2.0909	0.	6340.1
10035	0.27692	2.1818	0.	6924.7
10036	0.36923	2.1818	5.e-002	40.703
10037	0.36923	1.9091	0.	6192.5
10038	0.27692	2.	0.	6795.
10039	0.36923	2.	5.e-002	48.732
10040	0.36923	1.7273	0.	6022.
10041	0.27692	1.8182	0.	6641.4
10042	0.36923	1.8182	5.e-002	57.174
10043	0.36923	1.5455	0.	5829.1
10044	0.27692	1.6364	0.	6462.6
10045	0.36923	1.6364	5.e-002	65.7
10046	0.36923	1.3636	0.	5613.6
10047	0.27692	1.4545	0.	6256.6
10048	0.36923	1.4545	5.e-002	73.974
10049	0.36923	1.1818	0.	5375.9
10050	0.27692	1.2727	0.	6020.2
10051	0.36923	1.2727	5.e-002	81.663
10052	0.36923	1.	0.	5118.1
10053	0.27692	1.0909	0.	5748.5
10054	0.36923	1.0909	5.e-002	88.499
10055	0.36923	0.81818	0.	4848.4
10056	0.27692	0.90909	0.	5435.7
10057	0.36923	0.90909	5.e-002	94.417
10058	0.36923	0.63636	0.	4593.7
10059	0.27692	0.72727	0.	5077.1
10060	0.36923	0.72727	5.e-002	100.38
10061	0.36923	0.45455	0.	4425.8
10062	0.27692	0.54545	0.	4679.9
10063	0.36923	0.54545	5.e-002	108.44
10064	0.36923	0.27273	0.	4476.7
10065	0.27692	0.36364	0.	4298.8
10066	0.36923	0.36364	5.e-002	124.58
10067	0.27692	0.18182	0.	4172.
10068	0.36923	0.18182	5.e-002	103.79
10069	0.36923	9.0909e-002	0.	4451.7
10070	0.18462	5.7273	0.	3967.1
10071	0.18462	5.8182	5.e-002	267.56
10072	0.18462	5.9091	0.	3552.3
10073	9.2308e-002	5.8182	0.	2527.5
10074	0.18462	5.5455	0.	4584.7
10075	0.18462	5.6364	5.e-002	180.08
10076	9.2308e-002	5.6364	0.	3203.1
10077	0.18462	5.3636	0.	5199.8
10078	0.18462	5.4545	5.e-002	134.84
10079	9.2308e-002	5.4545	0.	3782.8
10080	0.18462	5.1818	0.	5693.4
10081	0.18462	5.2727	5.e-002	111.54
10082	9.2308e-002	5.2727	0.	4218.4
10083	0.18462	5.	0.	6088.1
10084	0.18462	5.0909	5.e-002	97.726
10085	9.2308e-002	5.0909	0.	4550.8
10086	0.18462	4.8182	0.	6410.
10087	0.18462	4.9091	5.e-002	86.029
10088	9.2308e-002	4.9091	0.	4813.9
10089	0.18462	4.6364	0.	6677.4
10090	0.18462	4.7273	5.e-002	75.277
10091	9.2308e-002	4.7273	0.	5027.6
10092	0.18462	4.4545	0.	6902.3
10093	0.18462	4.5455	5.e-002	64.994
10094	9.2308e-002	4.5455	0.	5204.5
10095	0.18462	4.2727	0.	7092.6
10096	0.18462	4.3636	5.e-002	55.104
10097	9.2308e-002	4.3636	0.	5352.3
10098	0.18462	4.0909	0.	7253.6
10099	0.18462	4.1818	5.e-002	45.716
10100	9.2308e-002	4.1818	0.	5476.3
10101	0.18462	3.9091	0.	7388.5
10102	0.18462	4.	5.e-002	37.021
10103	9.2308e-002	4.	0.	5580.2
10104	0.18462	3.7273	0.	7499.1
10105	0.18462	3.8182	5.e-002	29.2
10106	9.2308e-002	3.8182	0.	5666.1
10107	0.18462	3.5455	0.	7586.1
10108	0.18462	3.6364	5.e-002	22.361
10109	9.2308e-002	3.6364	0.	5735.4
10110	0.18462	3.3636	0.	7649.1
10111	0.18462	3.4545	5.e-002	16.553
10112	9.2308e-002	3.4545	0.	5788.1
10113	0.18462	3.1818	0.	7687.4
10114	0.18462	3.2727	5.e-002	11.904
10115	9.2308e-002	3.2727	0.	5823.8
10116	0.18462	3.	0.	7700.2
10117	0.18462	3.0909	5.e-002	8.9935
10118	9.2308e-002	3.0909	0.	5841.9
10119	0.18462	2.8182	0.	7687.4
10120	0.18462	2.9091	5.e-002	8.9935
10121	9.2308e-002	2.9091	0.	5841.9
10122	0.18462	2.6364	0.	7649.1
10123	0.18462	2.7273	5.e-002	11.904
10124	9.2308e-002	2.7273	0.	5823.8
10125	0.18462	2.4545	0.	7586.1
10126	0.18462	2.5455	5.e-002	16.553
10127	9.2308e-002	2.5455	0.	5788.1
10128	0.18462	2.2727	0.	7499.1
10129	0.18462	2.3636	5.e-002	22.361
10130	9.2308e-002	2.3636	0.	5735.4
10131	0.18462	2.0909	0.	7388.5
10132	0.18462	2.1818	5.e-002	29.2
10133	9.2308e-002	2.1818	0.	5666.1
10134	0.18462	1.9091	0.	7253.6
10135	0.18462	2.	5.e-002	37.021
10136	9.2308e-002	2.	0.	5580.2
10137	0.18462	1.7273	0.	7092.6
10138	0.18462	1.8182	5.e-002	45.716
10139	9.2308e-002	1.8182	0.	5476.3
10140	0.18462	1.5455	0.	6902.3
10141	0.18462	1.6364	5.e-002	55.104
10142	9.2308e-002	1.6364	0.	5352.3
10143	0.18462	1.3636	0.	6677.4
10144	0.18462	1.4545	5.e-002	64.994
10145	9.2308e-002	1.4545	0.	5204.5
10146	0.18462	1.1818	0.	6410.
10147	0.18462	1.2727	5.e-002	75.277
10148	9.2308e-002	1.2727	0.	5027.6
10149	0.18462	1.	0.	6088.1
10150	0.18462	1.0909	5.e-002	86.029
10151	9.2308e-002	1.0909	0.	4813.9
10152	0.18462	0.81818	0.	5693.4
10153	0.18462	0.90909	5.e-002	97.726
10154	9.2308e-002	0.90909	0.	4550.8
10155	0.18462	0.63636	0.	5199.8
10156	0.18462	0.72727	5.e-002	111.54
10157	9.2308e-002	0.72727	0.	4218.4
10158	0.18462	0.45455	0.	4584.7
10159	0.18462	0.54545	5.e-002	134.84
10160	9.2308e-002	0.54545	0.	3782.8
10161	0.18462	0.27273	0.	3967.1
10162	0.18462	0.36364	5.e-002	180.08
10163	9.2308e-002	0.36364	0.	3203.1
10164	0.18462	0.18182	5.e-002	267.56
10165	0.18462	9.0909e-002	0.	3552.3
10166	9.2308e-002	0.18182	0.	2527.5
10167	2.8438	5.8182	0.	1311.5
10168	2.7514	5.7273	0.	1304.2
10169	2.7514	5.8182	5.e-002	140.72
10170	2.7514	5.9091	0.	837.31
10171	2.6591	5.8182	0.	742.13
10172	3.0286	5.8182	0.	1887.1
10173	2.9362	5.7273	0.	1729.8
10174	2.9362	5.8182	5.e-002	125.29
10175	2.9362	5.9091	0.	1468.4
10176	3.2134	5.8182	0.	2429.6
10177	3.121	5.7273	0.	2265.3
10178	3.121	5.8182	5.e-002	115.65
10179	3.121	5.9091	0.	2062.
10180	3.3981	5.8182	0.	2904.
10181	3.3057	5.7273	0.	2762.3
10182	3.3057	5.8182	5.e-002	103.81
10183	3.3057	5.9091	0.	2587.9
10184	3.5829	5.8182	0.	3305.7
10185	3.4905	5.7273	0.	3192.4
10186	3.4905	5.8182	5.e-002	90.597
10187	3.4905	5.9091	0.	3039.7
10188	3.7677	5.8182	0.	3637.
10189	3.6753	5.7273	0.	3550.6
10190	3.6753	5.8182	5.e-002	77.079
10191	3.6753	5.9091	0.	3418.
10192	3.9524	5.8182	0.	3903.4
10193	3.8601	5.7273	0.	3840.3
10194	3.8601	5.8182	5.e-002	64.094
10195	3.8601	5.9091	0.	3727.
10196	4.1372	5.8182	0.	4112.3
10197	4.0448	5.7273	0.	4068.3
10198	4.0448	5.8182	5.e-002	52.203
10199	4.0448	5.9091	0.	3973.3
10200	4.322	5.8182	0.	4271.5
10201	4.2296	5.7273	0.	4242.8
10202	4.2296	5.8182	5.e-002	41.7
10203	4.2296	5.9091	0.	4164.5
10204	4.5068	5.8182	0.	4388.7
10205	4.4144	5.7273	0.	4372.
10206	4.4144	5.8182	5.e-002	32.676
10207	4.4144	5.9091	0.	4308.6
10208	4.6915	5.8182	0.	4471.1
10209	4.5991	5.7273	0.	4463.7
10210	4.5991	5.8182	5.e-002	25.09
10211	4.5991	5.9091	0.	4413.4
10212	4.8763	5.8182	0.	4525.
10213	4.7839	5.7273	0.	4524.7
10214	4.7839	5.8182	5.e-002	18.827
10215	4.7839	5.9091	0.	4485.5
10216	5.0611	5.8182	0.	4555.7
10217	4.9687	5.7273	0.	4560.8
10218	4.9687	5.8182	5.e-002	13.733
10219	4.9687	5.9091	0.	4531.
10220	5.2458	5.8182	0.	4567.8
10221	5.1534	5.7273	0.	4577.
10222	5.1534	5.8182	5.e-002	9.6484
10223	5.1534	5.9091	0.	4555.
10224	5.4306	5.8182	0.	4565.
10225	5.3382	5.7273	0.	4577.4
10226	5.3382	5.8182	5.e-002	6.4206
10227	5.3382	5.9091	0.	4561.7
10228	5.6154	5.8182	0.	4550.4
10229	5.523	5.7273	0.	4565.2
10230	5.523	5.8182	5.e-002	3.9168
10231	5.523	5.9091	0.	4554.7
10232	5.8001	5.8182	0.	4526.6
10233	5.7078	5.7273	0.	4543.1
10234	5.7078	5.8182	5.e-002	2.0493
10235	5.7078	5.9091	0.	4536.7
10236	5.9849	5.8182	0.	4495.5
10237	5.8925	5.7273	0.	4513.4
10238	5.8925	5.8182	5.e-002	0.93998
10239	5.8925	5.9091	0.	4510.2
10240	6.1697	5.8182	0.	4458.7
10241	6.0773	5.7273	0.	4477.6
10242	6.0773	5.8182	5.e-002	1.1422
10243	6.0773	5.9091	0.	4477.
10244	6.3545	5.8182	0.	4417.5
10245	6.2621	5.7273	0.	4437.3
10246	6.2621	5.8182	5.e-002	1.7777
10247	6.2621	5.9091	0.	4438.5
10248	6.5392	5.8182	0.	4372.9
10249	6.4468	5.7273	0.	4393.3
10250	6.4468	5.8182	5.e-002	2.2894
10251	6.4468	5.9091	0.	4395.9
10252	6.724	5.8182	0.	4325.8
10253	6.6316	5.7273	0.	4346.7
10254	6.6316	5.8182	5.e-002	2.6426
10255	6.6316	5.9091	0.	4350.2
10256	6.9088	5.8182	0.	4276.7
10257	6.8164	5.7273	0.	4298.
10258	6.8164	5.8182	5.e-002	2.8605
10259	6.8164	5.9091	0.	4302.2
10260	7.0935	5.8182	0.	4226.2
10261	7.0011	5.7273	0.	4247.8
10262	7.0011	5.8182	5.e-002	2.9707
10263	7.0011	5.9091	0.	4252.3
10264	7.2783	5.8182	0.	4174.6
10265	7.1859	5.7273	0.	4196.5
10266	7.1859	5.8182	5.e-002	2.9979
10267	7.1859	5.9091	0.	4201.1
10268	7.4631	5.8182	0.	4122.2
10269	7.3707	5.7273	0.	4144.3
10270	7.3707	5.8182	5.e-002	2.9624
10271	7.3707	5.9091	0.	4149.
10272	7.6478	5.8182	0.	4069.4
10273	7.5555	5.7273	0.	4091.6
10274	7.5555	5.8182	5.e-002	2.8806
10275	7.5555	5.9091	0.	4096.1
10276	7.8326	5.8182	0.	4016.1
10277	7.7402	5.7273	0.	4038.6
10278	7.7402	5.8182	5.e-002	2.7656
10279	7.7402	5.9091	0.	4042.8
10280	8.0174	5.8182	0.	3962.7
10281	7.925	5.7273	0.	3985.3
10282	7.925	5.8182	5.e-002	2.6278
10283	7.925	5.9091	0.	3989.2
10284	8.2022	5.8182	0.	3909.2
10285	8.1098	5.7273	0.	3931.8
10286	8.1098	5.8182	5.e-002	2.4752
10287	8.1098	5.9091	0.	3935.4
10288	8.3869	5.8182	0.	3855.6
10289	8.2945	5.7273	0.	3878.4
10290	8.2945	5.8182	5.e-002	2.3142
10291	8.2945	5.9091	0.	3881.6
10292	8.5717	5.8182	0.	3802.1
10293	8.4793	5.7273	0.	3824.9
10294	8.4793	5.8182	5.e-002	2.1494
10295	8.4793	5.9091	0.	3827.7
10296	8.7565	5.8182	0.	3748.7
10297	8.6641	5.7273	0.	3771.6
10298	8.6641	5.8182	5.e-002	1.9845
10299	8.6641	5.9091	0.	3773.9
10300	8.9412	5.8182	0.	3695.4
10301	8.8489	5.7273	0.	3718.3
10302	8.8489	5.8182	5.e-002	1.8221
10303	8.8489	5.9091	0.	3720.2
10304	9.126	5.8182	0.	3642.2
10305	9.0336	5.7273	0.	3665.2
10306	9.0336	5.8182	5.e-002	1.6642
10307	9.0336	5.9091	0.	3666.7
10308	9.3108	5.8182	0.	3589.3
10309	9.2184	5.7273	0.	3612.2
10310	9.2184	5.8182	5.e-002	1.5121
10311	9.2184	5.9091	0.	3613.3
10312	9.4955	5.8182	0.	3536.5
10313	9.4032	5.7273	0.	3559.5
10314	9.4032	5.8182	5.e-002	1.3668
10315	9.4032	5.9091	0.	3560.1
10316	9.6803	5.8182	0.	3483.9
10317	9.5879	5.7273	0.	3506.9
10318	9.5879	5.8182	5.e-002	1.2288
10319	9.5879	5.9091	0.	3507.1
10320	9.8651	5.8182	0.	3431.5
10321	9.7727	5.7273	0.	3454.5
10322	9.7727	5.8182	5.e-002	1.0984
10323	9.7727	5.9091	0.	3454.3
10324	10.05	5.8182	0.	3379.3
10325	9.9575	5.7273	0.	3402.3
10326	9.9575	5.8182	5.e-002	0.97583
10327	9.9575	5.9091	0.	3401.7
10328	10.235	5.8182	0.	3327.3
10329	10.142	5.7273	0.	3350.3
10330	10.142	5.8182	5.e-002	0.86091
10331	10.142	5.9091	0.	3349.4
10332	10.419	5.8182	0.	3275.5
10333	10.327	5.7273	0.	3298.5
10334	10.327	5.8182	5.e-002	0.75344
10335	10.327	5.9091	0.	3297.3
10336	10.604	5.8182	0.	3224.
10337	10.512	5.7273	0.	3246.9
10338	10.512	5.8182	5.e-002	0.65345
10339	10.512	5.9091	0.	3245.4
10340	10.789	5.8182	0.	3172.6
10341	10.697	5.7273	0.	3195.5
10342	10.697	5.8182	5.e-002	0.56056
10343	10.697	5.9091	0.	3193.7
10344	10.974	5.8182	0.	3121.5
10345	10.881	5.7273	0.	3144.3
10346	10.881	5.8182	5.e-002	0.47423
10347	10.881	5.9091	0.	3142.2
10348	11.158	5.8182	0.	3070.6
10349	11.066	5.7273	0.	3093.4
10350	11.066	5.8182	5.e-002	0.39425
10351	11.066	5.9091	0.	3091.
10352	11.343	5.8182	0.	3019.9
10353	11.251	5.7273	0.	3042.6
10354	11.251	5.8182	5.e-002	0.32039
10355	11.251	5.9091	0.	3040.
10356	11.528	5.8182	0.	2969.4
10357	11.436	5.7273	0.	2992.1
10358	11.436	5.8182	5.e-002	0.2524
10359	11.436	5.9091	0.	2989.2
10360	11.713	5.8182	0.	2919.2
10361	11.62	5.7273	0.	2941.7
10362	11.62	5.8182	5.e-002	0.18981
10363	11.62	5.9091	0.	2938.6
10364	11.898	5.8182	0.	2869.1
10365	11.805	5.7273	0.	2891.6
10366	11.805	5.8182	5.e-002	0.13214
10367	11.805	5.9091	0.	2888.3
10368	12.082	5.8182	0.	2819.3
10369	11.99	5.7273	0.	2841.7
10370	11.99	5.8182	5.e-002	7.931e-002
10371	11.99	5.9091	0.	2838.2
10372	12.267	5.8182	0.	2769.6
10373	12.175	5.7273	0.	2792.
10374	12.175	5.8182	5.e-002	3.1785e-002
10375	12.175	5.9091	0.	2788.2
10376	12.452	5.8182	0.	2720.2
10377	12.359	5.7273	0.	2742.5
10378	12.359	5.8182	5.e-002	1.7978e-002
10379	12.359	5.9091	0.	2738.6
10380	12.637	5.8182	0.	2671.
10381	12.544	5.7273	0.	2693.2
10382	12.544	5.8182	5.e-002	5.6028e-002
10383	12.544	5.9091	0.	2689.1
10384	12.821	5.8182	0.	2622.
10385	12.729	5.7273	0.	2644.1
10386	12.729	5.8182	5.e-002	9.2715e-002
10387	12.729	5.9091	0.	2639.8
10388	13.006	5.8182	0.	2573.2
10389	12.914	5.7273	0.	2595.2
10390	12.914	5.8182	5.e-002	0.12633
10391	12.914	5.9091	0.	2590.8
10392	13.191	5.8182	0.	2524.6
10393	13.099	5.7273	0.	2546.6
10394	13.099	5.8182	5.e-002	0.15683
10395	13.099	5.9091	0.	2541.9
10396	13.376	5.8182	0.	2476.3
10397	13.283	5.7273	0.	2498.1
10398	13.283	5.8182	5.e-002	0.1843
10399	13.283	5.9091	0.	2493.3
10400	13.56	5.8182	0.	2428.1
10401	13.468	5.7273	0.	2449.8
10402	13.468	5.8182	5.e-002	0.20906
10403	13.468	5.9091	0.	2444.9
10404	13.745	5.8182	0.	2380.2
10405	13.653	5.7273	0.	2401.8
10406	13.653	5.8182	5.e-002	0.23139
10407	13.653	5.9091	0.	2396.7
10408	13.93	5.8182	0.	2332.4
10409	13.838	5.7273	0.	2353.9
10410	13.838	5.8182	5.e-002	0.25138
10411	13.838	5.9091	0.	2348.7
10412	14.115	5.8182	0.	2284.9
10413	14.022	5.7273	0.	2306.3
10414	14.022	5.8182	5.e-002	0.2691
10415	14.022	5.9091	0.	2300.9
10416	14.3	5.8182	0.	2237.6
10417	14.207	5.7273	0.	2258.8
10418	14.207	5.8182	5.e-002	0.2846
10419	14.207	5.9091	0.	2253.4
10420	14.484	5.8182	0.	2190.4
10421	14.392	5.7273	0.	2211.6
10422	14.392	5.8182	5.e-002	0.29816
10423	14.392	5.9091	0.	2206.
10424	14.669	5.8182	0.	2143.5
10425	14.577	5.7273	0.	2164.6
10426	14.577	5.8182	5.e-002	0.31001
10427	14.577	5.9091	0.	2158.8
10428	14.854	5.8182	0.	2096.8
10429	14.761	5.7273	0.	2117.8
10430	14.761	5.8182	5.e-002	0.32019
10431	14.761	5.9091	0.	2111.9
10432	15.039	5.8182	0.	2050.3
10433	14.946	5.7273	0.	2071.1
10434	14.946	5.8182	5.e-002	0.32875
10435	14.946	5.9091	0.	2065.1
10436	15.223	5.8182	0.	2004.
10437	15.131	5.7273	0.	2024.7
10438	15.131	5.8182	5.e-002	0.33575
10439	15.131	5.9091	0.	2018.6
10440	15.408	5.8182	0.	1957.9
10441	15.316	5.7273	0.	1978.5
10442	15.316	5.8182	5.e-002	0.34142
10443	15.316	5.9091	0.	1972.2
10444	15.593	5.8182	0.	1912.
10445	15.501	5.7273	0.	1932.5
10446	15.501	5.8182	5.e-002	0.34598
10447	15.501	5.9091	0.	1926.1
10448	15.778	5.8182	0.	1866.3
10449	15.685	5.7273	0.	1886.7
10450	15.685	5.8182	5.e-002	0.34949
10451	15.685	5.9091	0.	1880.2
10452	15.963	5.8182	0.	1820.8
10453	15.87	5.7273	0.	1841.1
10454	15.87	5.8182	5.e-002	0.352
10455	15.87	5.9091	0.	1834.4
10456	16.147	5.8182	0.	1775.6
10457	16.055	5.7273	0.	1795.7
10458	16.055	5.8182	5.e-002	0.35375
10459	16.055	5.9091	0.	1788.9
10460	16.332	5.8182	0.	1730.5
10461	16.24	5.7273	0.	1750.5
10462	16.24	5.8182	5.e-002	0.35504
10463	16.24	5.9091	0.	1743.6
10464	16.517	5.8182	0.	1685.6
10465	16.424	5.7273	0.	1705.5
10466	16.424	5.8182	5.e-002	0.35604
10467	16.424	5.9091	0.	1698.5
10468	16.702	5.8182	0.	1640.9
10469	16.609	5.7273	0.	1660.7
10470	16.609	5.8182	5.e-002	0.357
10471	16.609	5.9091	0.	1653.5
10472	16.886	5.8182	0.	1596.5
10473	16.794	5.7273	0.	1616.1
10474	16.794	5.8182	5.e-002	0.3582
10475	16.794	5.9091	0.	1608.8
10476	17.071	5.8182	0.	1552.2
10477	16.979	5.7273	0.	1571.7
10478	16.979	5.8182	5.e-002	0.36011
10479	16.979	5.9091	0.	1564.3
10480	17.256	5.8182	0.	1508.1
10481	17.164	5.7273	0.	1527.6
10482	17.164	5.8182	5.e-002	0.36322
10483	17.164	5.9091	0.	1519.9
10484	17.441	5.8182	0.	1464.2
10485	17.348	5.7273	0.	1483.6
10486	17.348	5.8182	5.e-002	0.36798
10487	17.348	5.9091	0.	1475.8
10488	17.625	5.8182	0.	1420.5
10489	17.533	5.7273	0.	1439.8
10490	17.533	5.8182	5.e-002	0.37495
10491	17.533	5.9091	0.	1431.8
10492	17.81	5.8182	0.	1377.1
10493	17.718	5.7273	0.	1396.2
10494	17.718	5.8182	5.e-002	0.38474
10495	17.718	5.9091	0.	1388.1
10496	17.995	5.8182	0.	1333.8
10497	17.903	5.7273	0.	1352.8
10498	17.903	5.8182	5.e-002	0.39798
10499	17.903	5.9091	0.	1344.5
10500	18.18	5.8182	0.	1290.7
10501	18.087	5.7273	0.	1309.6
10502	18.087	5.8182	5.e-002	0.41531
10503	18.087	5.9091	0.	1301.2
10504	18.365	5.8182	0.	1247.8
10505	18.272	5.7273	0.	1266.6
10506	18.272	5.8182	5.e-002	0.43727
10507	18.272	5.9091	0.	1258.
10508	18.549	5.8182	0.	1205.
10509	18.457	5.7273	0.	1223.7
10510	18.457	5.8182	5.e-002	0.46439
10511	18.457	5.9091	0.	1215.
10512	18.734	5.8182	0.	1162.5
10513	18.642	5.7273	0.	1181.1
10514	18.642	5.8182	5.e-002	0.49716
10515	18.642	5.9091	0.	1172.2
10516	18.919	5.8182	0.	1120.1
10517	18.826	5.7273	0.	1138.7
10518	18.826	5.8182	5.e-002	0.53594
10519	18.826	5.9091	0.	1129.5
10520	19.104	5.8182	0.	1078.
10521	19.011	5.7273	0.	1096.4
10522	19.011	5.8182	5.e-002	0.58107
10523	19.011	5.9091	0.	1087.1
10524	19.288	5.8182	0.	1036.
10525	19.196	5.7273	0.	1054.3
10526	19.196	5.8182	5.e-002	0.63286
10527	19.196	5.9091	0.	1044.8
10528	19.473	5.8182	0.	994.16
10529	19.381	5.7273	0.	1012.4
10530	19.381	5.8182	5.e-002	0.69164
10531	19.381	5.9091	0.	1002.7
10532	19.658	5.8182	0.	952.51
10533	19.566	5.7273	0.	970.73
10534	19.566	5.8182	5.e-002	0.75774
10535	19.566	5.9091	0.	960.78
10536	19.843	5.8182	0.	911.03
10537	19.75	5.7273	0.	929.19
10538	19.75	5.8182	5.e-002	0.83147
10539	19.75	5.9091	0.	919.03
10540	20.027	5.8182	0.	869.71
10541	19.935	5.7273	0.	887.82
10542	19.935	5.8182	5.e-002	0.91317
10543	19.935	5.9091	0.	877.44
10544	20.212	5.8182	0.	828.54
10545	20.12	5.7273	0.	846.61
10546	20.12	5.8182	5.e-002	1.0033
10547	20.12	5.9091	0.	836.01
10548	20.397	5.8182	0.	787.54
10549	20.305	5.7273	0.	805.57
10550	20.305	5.8182	5.e-002	1.1022
10551	20.305	5.9091	0.	794.75
10552	20.582	5.8182	0.	746.68
10553	20.489	5.7273	0.	764.69
10554	20.489	5.8182	5.e-002	1.2106
10555	20.489	5.9091	0.	753.64
10556	20.767	5.8182	0.	705.96
10557	20.674	5.7273	0.	723.97
10558	20.674	5.8182	5.e-002	1.329
10559	20.674	5.9091	0.	712.69
10560	20.951	5.8182	0.	665.38
10561	20.859	5.7273	0.	683.4
10562	20.859	5.8182	5.e-002	1.458
10563	20.859	5.9091	0.	671.88
10564	21.136	5.8182	0.	624.94
10565	21.044	5.7273	0.	642.98
10566	21.044	5.8182	5.e-002	1.5983
10567	21.044	5.9091	0.	631.23
10568	21.321	5.8182	0.	584.62
10569	21.228	5.7273	0.	602.7
10570	21.228	5.8182	5.e-002	1.7508
10571	21.228	5.9091	0.	590.72
10572	21.506	5.8182	0.	544.43
10573	21.413	5.7273	0.	562.57
10574	21.413	5.8182	5.e-002	1.9163
10575	21.413	5.9091	0.	550.36
10576	21.69	5.8182	0.	504.36
10577	21.598	5.7273	0.	522.58
10578	21.598	5.8182	5.e-002	2.0959
10579	21.598	5.9091	0.	510.15
10580	21.875	5.8182	0.	464.4
10581	21.783	5.7273	0.	482.73
10582	21.783	5.8182	5.e-002	2.2908
10583	21.783	5.9091	0.	470.08
10584	22.06	5.8182	0.	424.56
10585	21.968	5.7273	0.	443.03
10586	21.968	5.8182	5.e-002	2.5023
10587	21.968	5.9091	0.	430.17
10588	22.245	5.8182	0.	384.84
10589	22.152	5.7273	0.	403.48
10590	22.152	5.8182	5.e-002	2.7319
10591	22.152	5.9091	0.	390.41
10592	22.429	5.8182	0.	345.24
10593	22.337	5.7273	0.	364.1
10594	22.337	5.8182	5.e-002	2.9816
10595	22.337	5.9091	0.	350.83
10596	22.614	5.8182	0.	305.77
10597	22.522	5.7273	0.	324.9
10598	22.522	5.8182	5.e-002	3.2535
10599	22.522	5.9091	0.	311.44
10600	22.799	5.8182	0.	266.45
10601	22.707	5.7273	0.	285.93
10602	22.707	5.8182	5.e-002	3.5507
10603	22.707	5.9091	0.	272.26
10604	22.984	5.8182	0.	227.32
10605	22.891	5.7273	0.	247.24
10606	22.891	5.8182	5.e-002	3.8772
10607	22.891	5.9091	0.	233.34
10608	23.169	5.8182	0.	188.47
10609	23.076	5.7273	0.	208.96
10610	23.076	5.8182	5.e-002	4.2384
10611	23.076	5.9091	0.	194.76
10612	23.353	5.8182	0.	150.04
10613	23.261	5.7273	0.	171.28
10614	23.261	5.8182	5.e-002	4.644
10615	23.261	5.9091	0.	156.61
10616	23.538	5.8182	0.	112.48
10617	23.446	5.7273	0.	134.67
10618	23.446	5.8182	5.e-002	5.107
10619	23.446	5.9091	0.	119.1
10620	23.723	5.8182	0.	77.587
10621	23.63	5.7273	0.	100.3
10622	23.63	5.8182	5.e-002	5.6872
10623	23.63	5.9091	0.	82.741
10624	23.815	5.7273	0.	71.929
10625	23.815	5.8182	5.e-002	6.9274
10626	23.908	5.8182	0.	48.637
10627	23.815	5.9091	0.	49.
10628	2.8438	5.6364	0.	1667.2
10629	2.7514	5.5455	0.	1867.2
10630	2.7514	5.6364	5.e-002	127.35
10631	2.6591	5.6364	0.	1220.8
10632	3.0286	5.6364	0.	2095.5
10633	2.9362	5.5455	0.	2078.9
10634	2.9362	5.6364	5.e-002	108.57
10635	3.2134	5.6364	0.	2592.4
10636	3.121	5.5455	0.	2518.8
10637	3.121	5.6364	5.e-002	98.827
10638	3.3981	5.6364	0.	3047.1
10639	3.3057	5.5455	0.	2967.7
10640	3.3057	5.6364	5.e-002	86.572
10641	3.5829	5.6364	0.	3434.7
10642	3.4905	5.5455	0.	3366.8
10643	3.4905	5.6364	5.e-002	73.608
10644	3.7677	5.6364	0.	3752.2
10645	3.6753	5.5455	0.	3700.1
10646	3.6753	5.6364	5.e-002	60.929
10647	3.9524	5.6364	0.	4004.
10648	3.8601	5.5455	0.	3967.4
10649	3.8601	5.6364	5.e-002	49.208
10650	4.1372	5.6364	0.	4198.
10651	4.0448	5.5455	0.	4174.6
10652	4.0448	5.6364	5.e-002	38.8
10653	4.322	5.6364	0.	4342.8
10654	4.2296	5.5455	0.	4330.1
10655	4.2296	5.6364	5.e-002	29.824
10656	4.5068	5.6364	0.	4446.6
10657	4.4144	5.5455	0.	4442.4
10658	4.4144	5.6364	5.e-002	22.251
10659	4.6915	5.6364	0.	4517.
10660	4.5991	5.5455	0.	4519.3
10661	4.5991	5.6364	5.e-002	15.971
10662	4.8763	5.6364	0.	4560.4
10663	4.7839	5.5455	0.	4567.7
10664	4.7839	5.6364	5.e-002	10.842
10665	5.0611	5.6364	0.	4582.1
10666	4.9687	5.5455	0.	4593.1
10667	4.9687	5.6364	5.e-002	6.7323
10668	5.2458	5.6364	0.	4586.6
10669	5.1534	5.5455	0.	4600.5
10670	5.1534	5.6364	5.e-002	3.5916
10671	5.4306	5.6364	0.	4577.6
10672	5.3382	5.5455	0.	4593.6
10673	5.3382	5.6364	5.e-002	1.8836
10674	5.6154	5.6364	0.	4557.9
10675	5.523	5.5455	0.	4575.5
10676	5.523	5.6364	5.e-002	2.5777
10677	5.8001	5.6364	0.	4530.
10678	5.7078	5.5455	0.	4548.8
10679	5.7078	5.6364	5.e-002	3.9608
10680	5.9849	5.6364	0.	4495.6
10681	5.8925	5.5455	0.	4515.3
10682	5.8925	5.6364	5.e-002	5.1829
10683	6.1697	5.6364	0.	4456.3
10684	6.0773	5.5455	0.	4476.7
10685	6.0773	5.6364	5.e-002	6.1689
10686	6.3545	5.6364	0.	4413.2
10687	6.2621	5.5455	0.	4434.1
10688	6.2621	5.6364	5.e-002	6.9425
10689	6.5392	5.6364	0.	4367.2
10690	6.4468	5.5455	0.	4388.5
10691	6.4468	5.6364	5.e-002	7.5394
10692	6.724	5.6364	0.	4319.
10693	6.6316	5.5455	0.	4340.7
10694	6.6316	5.6364	5.e-002	7.9932
10695	6.9088	5.6364	0.	4269.2
10696	6.8164	5.5455	0.	4291.2
10697	6.8164	5.6364	5.e-002	8.3327
10698	7.0935	5.6364	0.	4218.2
10699	7.0011	5.5455	0.	4240.4
10700	7.0011	5.6364	5.e-002	8.5814
10701	7.2783	5.6364	0.	4166.3
10702	7.1859	5.5455	0.	4188.7
10703	7.1859	5.6364	5.e-002	8.7588
10704	7.4631	5.6364	0.	4113.8
10705	7.3707	5.5455	0.	4136.4
10706	7.3707	5.6364	5.e-002	8.8804
10707	7.6478	5.6364	0.	4060.9
10708	7.5555	5.5455	0.	4083.7
10709	7.5555	5.6364	5.e-002	8.9586
10710	7.8326	5.6364	0.	4007.8
10711	7.7402	5.5455	0.	4030.7
10712	7.7402	5.6364	5.e-002	9.0033
10713	8.0174	5.6364	0.	3954.5
10714	7.925	5.5455	0.	3977.5
10715	7.925	5.6364	5.e-002	9.0222
10716	8.2022	5.6364	0.	3901.1
10717	8.1098	5.5455	0.	3924.3
10718	8.1098	5.6364	5.e-002	9.0217
10719	8.3869	5.6364	0.	3847.8
10720	8.2945	5.5455	0.	3871.
10721	8.2945	5.6364	5.e-002	9.0066
10722	8.5717	5.6364	0.	3794.5
10723	8.4793	5.5455	0.	3817.9
10724	8.4793	5.6364	5.e-002	8.9805
10725	8.7565	5.6364	0.	3741.3
10726	8.6641	5.5455	0.	3764.7
10727	8.6641	5.6364	5.e-002	8.9465
10728	8.9412	5.6364	0.	3688.2
10729	8.8489	5.5455	0.	3711.8
10730	8.8489	5.6364	5.e-002	8.9068
10731	9.126	5.6364	0.	3635.3
10732	9.0336	5.5455	0.	3658.9
10733	9.0336	5.6364	5.e-002	8.8631
10734	9.3108	5.6364	0.	3582.5
10735	9.2184	5.5455	0.	3606.2
10736	9.2184	5.6364	5.e-002	8.8169
10737	9.4955	5.6364	0.	3530.
10738	9.4032	5.5455	0.	3553.7
10739	9.4032	5.6364	5.e-002	8.7691
10740	9.6803	5.6364	0.	3477.6
10741	9.5879	5.5455	0.	3501.3
10742	9.5879	5.6364	5.e-002	8.7204
10743	9.8651	5.6364	0.	3425.4
10744	9.7727	5.5455	0.	3449.2
10745	9.7727	5.6364	5.e-002	8.6714
10746	10.05	5.6364	0.	3373.4
10747	9.9575	5.5455	0.	3397.2
10748	9.9575	5.6364	5.e-002	8.6226
10749	10.235	5.6364	0.	3321.5
10750	10.142	5.5455	0.	3345.4
10751	10.142	5.6364	5.e-002	8.5741
10752	10.419	5.6364	0.	3269.9
10753	10.327	5.5455	0.	3293.8
10754	10.327	5.6364	5.e-002	8.5261
10755	10.604	5.6364	0.	3218.5
10756	10.512	5.5455	0.	3242.3
10757	10.512	5.6364	5.e-002	8.4791
10758	10.789	5.6364	0.	3167.3
10759	10.697	5.5455	0.	3191.1
10760	10.697	5.6364	5.e-002	8.4328
10761	10.974	5.6364	0.	3116.3
10762	10.881	5.5455	0.	3140.1
10763	10.881	5.6364	5.e-002	8.3873
10764	11.158	5.6364	0.	3065.5
10765	11.066	5.5455	0.	3089.3
10766	11.066	5.6364	5.e-002	8.3426
10767	11.343	5.6364	0.	3014.9
10768	11.251	5.5455	0.	3038.7
10769	11.251	5.6364	5.e-002	8.2988
10770	11.528	5.6364	0.	2964.5
10771	11.436	5.5455	0.	2988.2
10772	11.436	5.6364	5.e-002	8.256
10773	11.713	5.6364	0.	2914.3
10774	11.62	5.5455	0.	2938.
10775	11.62	5.6364	5.e-002	8.214
10776	11.898	5.6364	0.	2864.3
10777	11.805	5.5455	0.	2888.
10778	11.805	5.6364	5.e-002	8.1727
10779	12.082	5.6364	0.	2814.6
10780	11.99	5.5455	0.	2838.1
10781	11.99	5.6364	5.e-002	8.132
10782	12.267	5.6364	0.	2765.
10783	12.175	5.5455	0.	2788.5
10784	12.175	5.6364	5.e-002	8.0922
10785	12.452	5.6364	0.	2715.6
10786	12.359	5.5455	0.	2739.1
10787	12.359	5.6364	5.e-002	8.0531
10788	12.637	5.6364	0.	2666.4
10789	12.544	5.5455	0.	2689.8
10790	12.544	5.6364	5.e-002	8.0147
10791	12.821	5.6364	0.	2617.5
10792	12.729	5.5455	0.	2640.8
10793	12.729	5.6364	5.e-002	7.9767
10794	13.006	5.6364	0.	2568.7
10795	12.914	5.5455	0.	2592.
10796	12.914	5.6364	5.e-002	7.9393
10797	13.191	5.6364	0.	2520.2
10798	13.099	5.5455	0.	2543.3
10799	13.099	5.6364	5.e-002	7.9024
10800	13.376	5.6364	0.	2471.8
10801	13.283	5.5455	0.	2494.9
10802	13.283	5.6364	5.e-002	7.8662
10803	13.56	5.6364	0.	2423.7
10804	13.468	5.5455	0.	2446.7
10805	13.468	5.6364	5.e-002	7.8304
10806	13.745	5.6364	0.	2375.7
10807	13.653	5.5455	0.	2398.6
10808	13.653	5.6364	5.e-002	7.795
10809	13.93	5.6364	0.	2328.
10810	13.838	5.5455	0.	2350.8
10811	13.838	5.6364	5.e-002	7.7599
10812	14.115	5.6364	0.	2280.4
10813	14.022	5.5455	0.	2303.2
10814	14.022	5.6364	5.e-002	7.7253
10815	14.3	5.6364	0.	2233.1
10816	14.207	5.5455	0.	2255.8
10817	14.207	5.6364	5.e-002	7.6912
10818	14.484	5.6364	0.	2185.9
10819	14.392	5.5455	0.	2208.5
10820	14.392	5.6364	5.e-002	7.6575
10821	14.669	5.6364	0.	2139.
10822	14.577	5.5455	0.	2161.5
10823	14.577	5.6364	5.e-002	7.6241
10824	14.854	5.6364	0.	2092.3
10825	14.761	5.5455	0.	2114.7
10826	14.761	5.6364	5.e-002	7.5909
10827	15.039	5.6364	0.	2045.8
10828	14.946	5.5455	0.	2068.1
10829	14.946	5.6364	5.e-002	7.5581
10830	15.223	5.6364	0.	1999.4
10831	15.131	5.5455	0.	2021.7
10832	15.131	5.6364	5.e-002	7.5258
10833	15.408	5.6364	0.	1953.3
10834	15.316	5.5455	0.	1975.5
10835	15.316	5.6364	5.e-002	7.4939
10836	15.593	5.6364	0.	1907.4
10837	15.501	5.5455	0.	1929.5
10838	15.501	5.6364	5.e-002	7.4622
10839	15.778	5.6364	0.	1861.7
10840	15.685	5.5455	0.	1883.6
10841	15.685	5.6364	5.e-002	7.4307
10842	15.963	5.6364	0.	1816.2
10843	15.87	5.5455	0.	1838.
10844	15.87	5.6364	5.e-002	7.3998
10845	16.147	5.6364	0.	1770.9
10846	16.055	5.5455	0.	1792.6
10847	16.055	5.6364	5.e-002	7.3692
10848	16.332	5.6364	0.	1725.8
10849	16.24	5.5455	0.	1747.4
10850	16.24	5.6364	5.e-002	7.3389
10851	16.517	5.6364	0.	1680.9
10852	16.424	5.5455	0.	1702.4
10853	16.424	5.6364	5.e-002	7.3089
10854	16.702	5.6364	0.	1636.2
10855	16.609	5.5455	0.	1657.7
10856	16.609	5.6364	5.e-002	7.2794
10857	16.886	5.6364	0.	1591.7
10858	16.794	5.5455	0.	1613.1
10859	16.794	5.6364	5.e-002	7.2504
10860	17.071	5.6364	0.	1547.4
10861	16.979	5.5455	0.	1568.7
10862	16.979	5.6364	5.e-002	7.2218
10863	17.256	5.6364	0.	1503.2
10864	17.164	5.5455	0.	1524.5
10865	17.164	5.6364	5.e-002	7.1935
10866	17.441	5.6364	0.	1459.3
10867	17.348	5.5455	0.	1480.5
10868	17.348	5.6364	5.e-002	7.1657
10869	17.625	5.6364	0.	1415.6
10870	17.533	5.5455	0.	1436.7
10871	17.533	5.6364	5.e-002	7.1385
10872	17.81	5.6364	0.	1372.1
10873	17.718	5.5455	0.	1393.1
10874	17.718	5.6364	5.e-002	7.1119
10875	17.995	5.6364	0.	1328.8
10876	17.903	5.5455	0.	1349.7
10877	17.903	5.6364	5.e-002	7.0858
10878	18.18	5.6364	0.	1285.7
10879	18.087	5.5455	0.	1306.5
10880	18.087	5.6364	5.e-002	7.0603
10881	18.365	5.6364	0.	1242.8
10882	18.272	5.5455	0.	1263.6
10883	18.272	5.6364	5.e-002	7.0355
10884	18.549	5.6364	0.	1200.1
10885	18.457	5.5455	0.	1220.8
10886	18.457	5.6364	5.e-002	7.0113
10887	18.734	5.6364	0.	1157.5
10888	18.642	5.5455	0.	1178.2
10889	18.642	5.6364	5.e-002	6.988
10890	18.919	5.6364	0.	1115.2
10891	18.826	5.5455	0.	1135.8
10892	18.826	5.6364	5.e-002	6.9656
10893	19.104	5.6364	0.	1073.1
10894	19.011	5.5455	0.	1093.5
10895	19.011	5.6364	5.e-002	6.9439
10896	19.288	5.6364	0.	1031.1
10897	19.196	5.5455	0.	1051.5
10898	19.196	5.6364	5.e-002	6.9231
10899	19.473	5.6364	0.	989.3
10900	19.381	5.5455	0.	1009.7
10901	19.381	5.6364	5.e-002	6.9034
10902	19.658	5.6364	0.	947.7
10903	19.566	5.5455	0.	968.05
10904	19.566	5.6364	5.e-002	6.8848
10905	19.843	5.6364	0.	906.27
10906	19.75	5.5455	0.	926.6
10907	19.75	5.6364	5.e-002	6.8674
10908	20.027	5.6364	0.	865.02
10909	19.935	5.5455	0.	885.33
10910	19.935	5.6364	5.e-002	6.8512
10911	20.212	5.6364	0.	823.95
10912	20.12	5.5455	0.	844.24
10913	20.12	5.6364	5.e-002	6.8363
10914	20.397	5.6364	0.	783.05
10915	20.305	5.5455	0.	803.33
10916	20.305	5.6364	5.e-002	6.8228
10917	20.582	5.6364	0.	742.32
10918	20.489	5.5455	0.	762.61
10919	20.489	5.6364	5.e-002	6.8109
10920	20.767	5.6364	0.	701.75
10921	20.674	5.5455	0.	722.06
10922	20.674	5.6364	5.e-002	6.8006
10923	20.951	5.6364	0.	661.35
10924	20.859	5.5455	0.	681.68
10925	20.859	5.6364	5.e-002	6.792
10926	21.136	5.6364	0.	621.11
10927	21.044	5.5455	0.	641.49
10928	21.044	5.6364	5.e-002	6.7852
10929	21.321	5.6364	0.	581.03
10930	21.228	5.5455	0.	601.47
10931	21.228	5.6364	5.e-002	6.7803
10932	21.506	5.6364	0.	541.12
10933	21.413	5.5455	0.	561.63
10934	21.413	5.6364	5.e-002	6.7775
10935	21.69	5.6364	0.	501.38
10936	21.598	5.5455	0.	521.98
10937	21.598	5.6364	5.e-002	6.7768
10938	21.875	5.6364	0.	461.82
10939	21.783	5.5455	0.	482.53
10940	21.783	5.6364	5.e-002	6.7784
10941	22.06	5.6364	0.	422.44
10942	21.968	5.5455	0.	443.29
10943	21.968	5.6364	5.e-002	6.7825
10944	22.245	5.6364	0.	383.26
10945	22.152	5.5455	0.	404.28
10946	22.152	5.6364	5.e-002	6.7894
10947	22.429	5.6364	0.	344.33
10948	22.337	5.5455	0.	365.54
10949	22.337	5.6364	5.e-002	6.7992
10950	22.614	5.6364	0.	305.69
10951	22.522	5.5455	0.	327.12
10952	22.522	5.6364	5.e-002	6.8126
10953	22.799	5.6364	0.	267.42
10954	22.707	5.5455	0.	289.11
10955	22.707	5.6364	5.e-002	6.8303
10956	22.984	5.6364	0.	229.66
10957	22.891	5.5455	0.	251.65
10958	22.891	5.6364	5.e-002	6.8538
10959	23.169	5.6364	0.	192.68
10960	23.076	5.5455	0.	214.97
10961	23.076	5.6364	5.e-002	6.8861
10962	23.353	5.6364	0.	156.96
10963	23.261	5.5455	0.	179.49
10964	23.261	5.6364	5.e-002	6.9333
10965	23.538	5.6364	0.	123.6
10966	23.446	5.5455	0.	145.98
10967	23.446	5.6364	5.e-002	7.0138
10968	23.723	5.6364	0.	95.104
10969	23.63	5.5455	0.	116.07
10970	23.63	5.6364	5.e-002	7.1979
10971	23.815	5.5455	0.	92.964
10972	23.815	5.6364	5.e-002	7.8555
10973	23.908	5.6364	0.	73.59
10974	2.8438	5.4545	0.	2195.4
10975	2.7514	5.3636	0.	2531.8
10976	2.7514	5.4545	5.e-002	135.88
10977	2.6591	5.4545	0.	1748.4
10978	3.0286	5.4545	0.	2469.9
10979	2.9362	5.3636	0.	2580.
10980	2.9362	5.4545	5.e-002	109.89
10981	3.2134	5.4545	0.	2879.9
10982	3.121	5.3636	0.	2905.8
10983	3.121	5.4545	5.e-002	99.247
10984	3.3981	5.4545	0.	3279.9
10985	3.3057	5.3636	0.	3274.6
10986	3.3057	5.4545	5.e-002	86.015
10987	3.5829	5.4545	0.	3627.7
10988	3.4905	5.3636	0.	3614.7
10989	3.4905	5.4545	5.e-002	72.131
10990	3.7677	5.4545	0.	3912.4
10991	3.6753	5.3636	0.	3901.5
10992	3.6753	5.4545	5.e-002	58.857
10993	3.9524	5.4545	0.	4136.
10994	3.8601	5.3636	0.	4130.3
10995	3.8601	5.4545	5.e-002	46.919
10996	4.1372	5.4545	0.	4305.4
10997	4.0448	5.3636	0.	4305.4
10998	4.0448	5.4545	5.e-002	36.587
10999	4.322	5.4545	0.	4428.9
11000	4.2296	5.3636	0.	4433.9
11001	4.2296	5.4545	5.e-002	27.878
11002	4.5068	5.4545	0.	4514.6
11003	4.4144	5.3636	0.	4523.8
11004	4.4144	5.4545	5.e-002	20.682
11005	4.6915	5.4545	0.	4569.7
11006	4.5991	5.3636	0.	4582.1
11007	4.5991	5.4545	5.e-002	14.845
11008	4.8763	5.4545	0.	4600.3
11009	4.7839	5.3636	0.	4615.2
11010	4.7839	5.4545	5.e-002	10.228
11011	5.0611	5.4545	0.	4611.5
11012	4.9687	5.3636	0.	4628.3
11013	4.9687	5.4545	5.e-002	6.7649
11014	5.2458	5.4545	0.	4607.5
11015	5.1534	5.3636	0.	4625.7
11016	5.1534	5.4545	5.e-002	4.5731
11017	5.4306	5.4545	0.	4591.5
11018	5.3382	5.3636	0.	4610.8
11019	5.3382	5.4545	5.e-002	3.9194
11020	5.6154	5.4545	0.	4566.4
11021	5.523	5.3636	0.	4586.4
11022	5.523	5.4545	5.e-002	4.4684
11023	5.8001	5.4545	0.	4534.1
11024	5.7078	5.3636	0.	4554.7
11025	5.7078	5.4545	5.e-002	5.4059
11026	5.9849	5.4545	0.	4496.4
11027	5.8925	5.3636	0.	4517.4
11028	5.8925	5.4545	5.e-002	6.3212
11029	6.1697	5.4545	0.	4454.5
11030	6.0773	5.3636	0.	4475.9
11031	6.0773	5.4545	5.e-002	7.102
11032	6.3545	5.4545	0.	4409.5
11033	6.2621	5.3636	0.	4431.1
11034	6.2621	5.4545	5.e-002	7.734
11035	6.5392	5.4545	0.	4362.1
11036	6.4468	5.3636	0.	4383.9
11037	6.4468	5.4545	5.e-002	8.2314
11038	6.724	5.4545	0.	4312.9
11039	6.6316	5.3636	0.	4334.9
11040	6.6316	5.4545	5.e-002	8.6145
11041	6.9088	5.4545	0.	4262.4
11042	6.8164	5.3636	0.	4284.6
11043	6.8164	5.4545	5.e-002	8.9039
11044	7.0935	5.4545	0.	4211.
11045	7.0011	5.3636	0.	4233.3
11046	7.0011	5.4545	5.e-002	9.1177
11047	7.2783	5.4545	0.	4158.9
11048	7.1859	5.3636	0.	4181.3
11049	7.1859	5.4545	5.e-002	9.2711
11050	7.4631	5.4545	0.	4106.3
11051	7.3707	5.3636	0.	4128.9
11052	7.3707	5.4545	5.e-002	9.3769
11053	7.6478	5.4545	0.	4053.5
11054	7.5555	5.3636	0.	4076.2
11055	7.5555	5.4545	5.e-002	9.4454
11056	7.8326	5.4545	0.	4000.5
11057	7.7402	5.3636	0.	4023.3
11058	7.7402	5.4545	5.e-002	9.4848
11059	8.0174	5.4545	0.	3947.4
11060	7.925	5.3636	0.	3970.4
11061	7.925	5.4545	5.e-002	9.5017
11062	8.2022	5.4545	0.	3894.2
11063	8.1098	5.3636	0.	3917.4
11064	8.1098	5.4545	5.e-002	9.5015
11065	8.3869	5.4545	0.	3841.2
11066	8.2945	5.3636	0.	3864.4
11067	8.2945	5.4545	5.e-002	9.4881
11068	8.5717	5.4545	0.	3788.2
11069	8.4793	5.3636	0.	3811.5
11070	8.4793	5.4545	5.e-002	9.4649
11071	8.7565	5.4545	0.	3735.3
11072	8.6641	5.3636	0.	3758.7
11073	8.6641	5.4545	5.e-002	9.4345
11074	8.9412	5.4545	0.	3682.5
11075	8.8489	5.3636	0.	3706.
11076	8.8489	5.4545	5.e-002	9.3987
11077	9.126	5.4545	0.	3629.9
11078	9.0336	5.3636	0.	3653.4
11079	9.0336	5.4545	5.e-002	9.3591
11080	9.3108	5.4545	0.	3577.4
11081	9.2184	5.3636	0.	3601.
11082	9.2184	5.4545	5.e-002	9.3169
11083	9.4955	5.4545	0.	3525.1
11084	9.4032	5.3636	0.	3548.8
11085	9.4032	5.4545	5.e-002	9.273
11086	9.6803	5.4545	0.	3472.9
11087	9.5879	5.3636	0.	3496.7
11088	9.5879	5.4545	5.e-002	9.2281
11089	9.8651	5.4545	0.	3421.
11090	9.7727	5.3636	0.	3444.8
11091	9.7727	5.4545	5.e-002	9.1825
11092	10.05	5.4545	0.	3369.2
11093	9.9575	5.3636	0.	3393.
11094	9.9575	5.4545	5.e-002	9.1369
11095	10.235	5.4545	0.	3317.6
11096	10.142	5.3636	0.	3341.5
11097	10.142	5.4545	5.e-002	9.0913
11098	10.419	5.4545	0.	3266.2
11099	10.327	5.3636	0.	3290.1
11100	10.327	5.4545	5.e-002	9.0459
11101	10.604	5.4545	0.	3215.
11102	10.512	5.3636	0.	3238.8
11103	10.512	5.4545	5.e-002	9.001
11104	10.789	5.4545	0.	3163.9
11105	10.697	5.3636	0.	3187.8
11106	10.697	5.4545	5.e-002	8.9567
11107	10.974	5.4545	0.	3113.1
11108	10.881	5.3636	0.	3136.9
11109	10.881	5.4545	5.e-002	8.9128
11110	11.158	5.4545	0.	3062.5
11111	11.066	5.3636	0.	3086.3
11112	11.066	5.4545	5.e-002	8.8694
11113	11.343	5.4545	0.	3012.
11114	11.251	5.3636	0.	3035.8
11115	11.251	5.4545	5.e-002	8.8267
11116	11.528	5.4545	0.	2961.7
11117	11.436	5.3636	0.	2985.5
11118	11.436	5.4545	5.e-002	8.7847
11119	11.713	5.4545	0.	2911.7
11120	11.62	5.3636	0.	2935.4
11121	11.62	5.4545	5.e-002	8.7433
11122	11.898	5.4545	0.	2861.8
11123	11.805	5.3636	0.	2885.5
11124	11.805	5.4545	5.e-002	8.7023
11125	12.082	5.4545	0.	2812.1
11126	11.99	5.3636	0.	2835.7
11127	11.99	5.4545	5.e-002	8.6618
11128	12.267	5.4545	0.	2762.6
11129	12.175	5.3636	0.	2786.2
11130	12.175	5.4545	5.e-002	8.6218
11131	12.452	5.4545	0.	2713.3
11132	12.359	5.3636	0.	2736.9
11133	12.359	5.4545	5.e-002	8.5825
11134	12.637	5.4545	0.	2664.2
11135	12.544	5.3636	0.	2687.7
11136	12.544	5.4545	5.e-002	8.5436
11137	12.821	5.4545	0.	2615.3
11138	12.729	5.3636	0.	2638.7
11139	12.729	5.4545	5.e-002	8.5051
11140	13.006	5.4545	0.	2566.6
11141	12.914	5.3636	0.	2590.
11142	12.914	5.4545	5.e-002	8.4668
11143	13.191	5.4545	0.	2518.1
11144	13.099	5.3636	0.	2541.4
11145	13.099	5.4545	5.e-002	8.429
11146	13.376	5.4545	0.	2469.8
11147	13.283	5.3636	0.	2493.
11148	13.283	5.4545	5.e-002	8.3918
11149	13.56	5.4545	0.	2421.7
11150	13.468	5.3636	0.	2444.8
11151	13.468	5.4545	5.e-002	8.3548
11152	13.745	5.4545	0.	2373.8
11153	13.653	5.3636	0.	2396.9
11154	13.653	5.4545	5.e-002	8.3181
11155	13.93	5.4545	0.	2326.1
11156	13.838	5.3636	0.	2349.1
11157	13.838	5.4545	5.e-002	8.2816
11158	14.115	5.4545	0.	2278.6
11159	14.022	5.3636	0.	2301.5
11160	14.022	5.4545	5.e-002	8.2454
11161	14.3	5.4545	0.	2231.3
11162	14.207	5.3636	0.	2254.1
11163	14.207	5.4545	5.e-002	8.2097
11164	14.484	5.4545	0.	2184.2
11165	14.392	5.3636	0.	2206.9
11166	14.392	5.4545	5.e-002	8.1742
11167	14.669	5.4545	0.	2137.3
11168	14.577	5.3636	0.	2159.9
11169	14.577	5.4545	5.e-002	8.1389
11170	14.854	5.4545	0.	2090.6
11171	14.761	5.3636	0.	2113.1
11172	14.761	5.4545	5.e-002	8.1038
11173	15.039	5.4545	0.	2044.1
11174	14.946	5.3636	0.	2066.5
11175	14.946	5.4545	5.e-002	8.069
11176	15.223	5.4545	0.	1997.8
11177	15.131	5.3636	0.	2020.1
11178	15.131	5.4545	5.e-002	8.0346
11179	15.408	5.4545	0.	1951.7
11180	15.316	5.3636	0.	1973.9
11181	15.316	5.4545	5.e-002	8.0004
11182	15.593	5.4545	0.	1905.8
11183	15.501	5.3636	0.	1928.
11184	15.501	5.4545	5.e-002	7.9664
11185	15.778	5.4545	0.	1860.1
11186	15.685	5.3636	0.	1882.2
11187	15.685	5.4545	5.e-002	7.9325
11188	15.963	5.4545	0.	1814.6
11189	15.87	5.3636	0.	1836.6
11190	15.87	5.4545	5.e-002	7.8991
11191	16.147	5.4545	0.	1769.3
11192	16.055	5.3636	0.	1791.2
11193	16.055	5.4545	5.e-002	7.8659
11194	16.332	5.4545	0.	1724.2
11195	16.24	5.3636	0.	1746.
11196	16.24	5.4545	5.e-002	7.8329
11197	16.517	5.4545	0.	1679.3
11198	16.424	5.3636	0.	1701.
11199	16.424	5.4545	5.e-002	7.8001
11200	16.702	5.4545	0.	1634.6
11201	16.609	5.3636	0.	1656.3
11202	16.609	5.4545	5.e-002	7.7677
11203	16.886	5.4545	0.	1590.1
11204	16.794	5.3636	0.	1611.7
11205	16.794	5.4545	5.e-002	7.7356
11206	17.071	5.4545	0.	1545.9
11207	16.979	5.3636	0.	1567.3
11208	16.979	5.4545	5.e-002	7.7039
11209	17.256	5.4545	0.	1501.8
11210	17.164	5.3636	0.	1523.2
11211	17.164	5.4545	5.e-002	7.6724
11212	17.441	5.4545	0.	1457.9
11213	17.348	5.3636	0.	1479.2
11214	17.348	5.4545	5.e-002	7.6413
11215	17.625	5.4545	0.	1414.2
11216	17.533	5.3636	0.	1435.5
11217	17.533	5.4545	5.e-002	7.6105
11218	17.81	5.4545	0.	1370.8
11219	17.718	5.3636	0.	1391.9
11220	17.718	5.4545	5.e-002	7.5802
11221	17.995	5.4545	0.	1327.5
11222	17.903	5.3636	0.	1348.6
11223	17.903	5.4545	5.e-002	7.5504
11224	18.18	5.4545	0.	1284.4
11225	18.087	5.3636	0.	1305.4
11226	18.087	5.4545	5.e-002	7.5209
11227	18.365	5.4545	0.	1241.6
11228	18.272	5.3636	0.	1262.5
11229	18.272	5.4545	5.e-002	7.4919
11230	18.549	5.4545	0.	1198.9
11231	18.457	5.3636	0.	1219.8
11232	18.457	5.4545	5.e-002	7.4635
11233	18.734	5.4545	0.	1156.4
11234	18.642	5.3636	0.	1177.2
11235	18.642	5.4545	5.e-002	7.4357
11236	18.919	5.4545	0.	1114.2
11237	18.826	5.3636	0.	1134.9
11238	18.826	5.4545	5.e-002	7.4085
11239	19.104	5.4545	0.	1072.1
11240	19.011	5.3636	0.	1092.8
11241	19.011	5.4545	5.e-002	7.3818
11242	19.288	5.4545	0.	1030.2
11243	19.196	5.3636	0.	1050.8
11244	19.196	5.4545	5.e-002	7.3559
11245	19.473	5.4545	0.	988.53
11246	19.381	5.3636	0.	1009.1
11247	19.381	5.4545	5.e-002	7.3307
11248	19.658	5.4545	0.	947.04
11249	19.566	5.3636	0.	967.58
11250	19.566	5.4545	5.e-002	7.3064
11251	19.843	5.4545	0.	905.74
11252	19.75	5.3636	0.	926.25
11253	19.75	5.4545	5.e-002	7.2829
11254	20.027	5.4545	0.	864.63
11255	19.935	5.3636	0.	885.12
11256	19.935	5.4545	5.e-002	7.2604
11257	20.212	5.4545	0.	823.71
11258	20.12	5.3636	0.	844.19
11259	20.12	5.4545	5.e-002	7.2387
11260	20.397	5.4545	0.	782.99
11261	20.305	5.3636	0.	803.46
11262	20.305	5.4545	5.e-002	7.2182
11263	20.582	5.4545	0.	742.45
11264	20.489	5.3636	0.	762.92
11265	20.489	5.4545	5.e-002	7.1988
11266	20.767	5.4545	0.	702.1
11267	20.674	5.3636	0.	722.59
11268	20.674	5.4545	5.e-002	7.1806
11269	20.951	5.4545	0.	661.94
11270	20.859	5.3636	0.	682.46
11271	20.859	5.4545	5.e-002	7.1637
11272	21.136	5.4545	0.	621.97
11273	21.044	5.3636	0.	642.53
11274	21.044	5.4545	5.e-002	7.1481
11275	21.321	5.4545	0.	582.2
11276	21.228	5.3636	0.	602.82
11277	21.228	5.4545	5.e-002	7.134
11278	21.506	5.4545	0.	542.63
11279	21.413	5.3636	0.	563.33
11280	21.413	5.4545	5.e-002	7.1214
11281	21.69	5.4545	0.	503.29
11282	21.598	5.3636	0.	524.07
11283	21.598	5.4545	5.e-002	7.1105
11284	21.875	5.4545	0.	464.17
11285	21.783	5.3636	0.	485.06
11286	21.783	5.4545	5.e-002	7.1014
11287	22.06	5.4545	0.	425.32
11288	21.968	5.3636	0.	446.33
11289	21.968	5.4545	5.e-002	7.0944
11290	22.245	5.4545	0.	386.76
11291	22.152	5.3636	0.	407.91
11292	22.152	5.4545	5.e-002	7.0898
11293	22.429	5.4545	0.	348.56
11294	22.337	5.3636	0.	369.87
11295	22.337	5.4545	5.e-002	7.0879
11296	22.614	5.4545	0.	310.81
11297	22.522	5.3636	0.	332.28
11298	22.522	5.4545	5.e-002	7.0896
11299	22.799	5.4545	0.	273.64
11300	22.707	5.3636	0.	295.28
11301	22.707	5.4545	5.e-002	7.096
11302	22.984	5.4545	0.	237.28
11303	22.891	5.3636	0.	259.05
11304	22.891	5.4545	5.e-002	7.1096
11305	23.169	5.4545	0.	202.1
11306	23.076	5.3636	0.	223.91
11307	23.076	5.4545	5.e-002	7.1343
11308	23.353	5.4545	0.	168.75
11309	23.261	5.3636	0.	190.37
11310	23.261	5.4545	5.e-002	7.1794
11311	23.538	5.4545	0.	138.4
11312	23.446	5.3636	0.	159.27
11313	23.446	5.4545	5.e-002	7.2631
11314	23.723	5.4545	0.	113.06
11315	23.63	5.3636	0.	132.05
11316	23.63	5.4545	5.e-002	7.4323
11317	23.815	5.3636	0.	111.08
11318	23.815	5.4545	5.e-002	7.9523
11319	23.908	5.4545	0.	94.102
11320	2.8438	5.2727	0.	2826.3
11321	2.7514	5.1818	0.	3287.5
11322	2.7514	5.2727	5.e-002	152.8
11323	2.6591	5.2727	0.	2324.9
11324	3.0286	5.2727	0.	2966.5
11325	2.9362	5.1818	0.	3194.9
11326	2.9362	5.2727	5.e-002	116.38
11327	3.2134	5.2727	0.	3274.3
11328	3.121	5.1818	0.	3404.8
11329	3.121	5.2727	5.e-002	102.75
11330	3.3981	5.2727	0.	3595.
11331	3.3057	5.1818	0.	3672.9
11332	3.3057	5.2727	5.e-002	87.023
11333	3.5829	5.2727	0.	3880.2
11334	3.4905	5.1818	0.	3930.6
11335	3.4905	5.2727	5.e-002	71.434
11336	3.7677	5.2727	0.	4114.4
11337	3.6753	5.1818	0.	4150.9
11338	3.6753	5.2727	5.e-002	57.288
11339	3.9524	5.2727	0.	4296.6
11340	3.8601	5.1818	0.	4326.2
11341	3.8601	5.2727	5.e-002	45.122
11342	4.1372	5.2727	0.	4432.
11343	4.0448	5.1818	0.	4458.1
11344	4.0448	5.2727	5.e-002	34.976
11345	4.322	5.2727	0.	4527.6
11346	4.2296	5.1818	0.	4552.
11347	4.2296	5.2727	5.e-002	26.684
11348	4.5068	5.2727	0.	4590.6
11349	4.4144	5.1818	0.	4614.2
11350	4.4144	5.2727	5.e-002	20.024
11351	4.6915	5.2727	0.	4627.3
11352	4.5991	5.1818	0.	4650.5
11353	4.5991	5.2727	5.e-002	14.79
11354	4.8763	5.2727	0.	4643.1
11355	4.7839	5.1818	0.	4666.
11356	4.7839	5.2727	5.e-002	10.836
11357	5.0611	5.2727	0.	4642.5
11358	4.9687	5.1818	0.	4665.2
11359	4.9687	5.2727	5.e-002	8.0965
11360	5.2458	5.2727	0.	4629.1
11361	5.1534	5.1818	0.	4651.6
11362	5.1534	5.2727	5.e-002	6.553
11363	5.4306	5.2727	0.	4605.7
11364	5.3382	5.1818	0.	4628.2
11365	5.3382	5.2727	5.e-002	6.0737
11366	5.6154	5.2727	0.	4574.8
11367	5.523	5.1818	0.	4597.1
11368	5.523	5.2727	5.e-002	6.292
11369	5.8001	5.2727	0.	4538.1
11370	5.7078	5.1818	0.	4560.3
11371	5.7078	5.2727	5.e-002	6.8091
11372	5.9849	5.2727	0.	4496.9
11373	5.8925	5.1818	0.	4519.1
11374	5.8925	5.2727	5.e-002	7.3838
11375	6.1697	5.2727	0.	4452.4
11376	6.0773	5.1818	0.	4474.6
11377	6.0773	5.2727	5.e-002	7.911
11378	6.3545	5.2727	0.	4405.5
11379	6.2621	5.1818	0.	4427.6
11380	6.2621	5.2727	5.e-002	8.3561
11381	6.5392	5.2727	0.	4356.7
11382	6.4468	5.1818	0.	4378.8
11383	6.4468	5.2727	5.e-002	8.7145
11384	6.724	5.2727	0.	4306.6
11385	6.6316	5.1818	0.	4328.8
11386	6.6316	5.2727	5.e-002	8.9935
11387	6.9088	5.2727	0.	4255.5
11388	6.8164	5.1818	0.	4277.7
11389	6.8164	5.2727	5.e-002	9.2043
11390	7.0935	5.2727	0.	4203.7
11391	7.0011	5.1818	0.	4226.
11392	7.0011	5.2727	5.e-002	9.3583
11393	7.2783	5.2727	0.	4151.4
11394	7.1859	5.1818	0.	4173.9
11395	7.1859	5.2727	5.e-002	9.4661
11396	7.4631	5.2727	0.	4098.9
11397	7.3707	5.1818	0.	4121.4
11398	7.3707	5.2727	5.e-002	9.537
11399	7.6478	5.2727	0.	4046.1
11400	7.5555	5.1818	0.	4068.8
11401	7.5555	5.2727	5.e-002	9.5787
11402	7.8326	5.2727	0.	3993.3
11403	7.7402	5.1818	0.	4016.1
11404	7.7402	5.2727	5.e-002	9.5974
11405	8.0174	5.2727	0.	3940.4
11406	7.925	5.1818	0.	3963.3
11407	7.925	5.2727	5.e-002	9.5985
11408	8.2022	5.2727	0.	3887.5
11409	8.1098	5.1818	0.	3910.6
11410	8.1098	5.2727	5.e-002	9.5859
11411	8.3869	5.2727	0.	3834.8
11412	8.2945	5.1818	0.	3857.9
11413	8.2945	5.2727	5.e-002	9.563
11414	8.5717	5.2727	0.	3782.
11415	8.4793	5.1818	0.	3805.3
11416	8.4793	5.2727	5.e-002	9.5325
11417	8.7565	5.2727	0.	3729.5
11418	8.6641	5.1818	0.	3752.8
11419	8.6641	5.2727	5.e-002	9.4963
11420	8.9412	5.2727	0.	3677.
11421	8.8489	5.1818	0.	3700.4
11422	8.8489	5.2727	5.e-002	9.4561
11423	9.126	5.2727	0.	3624.7
11424	9.0336	5.1818	0.	3648.2
11425	9.0336	5.2727	5.e-002	9.413
11426	9.3108	5.2727	0.	3572.5
11427	9.2184	5.1818	0.	3596.1
11428	9.2184	5.2727	5.e-002	9.368
11429	9.4955	5.2727	0.	3520.4
11430	9.4032	5.1818	0.	3544.1
11431	9.4032	5.2727	5.e-002	9.3219
11432	9.6803	5.2727	0.	3468.6
11433	9.5879	5.1818	0.	3492.3
11434	9.5879	5.2727	5.e-002	9.2752
11435	9.8651	5.2727	0.	3416.8
11436	9.7727	5.1818	0.	3440.6
11437	9.7727	5.2727	5.e-002	9.2282
11438	10.05	5.2727	0.	3365.3
11439	9.9575	5.1818	0.	3389.1
11440	9.9575	5.2727	5.e-002	9.1814
11441	10.235	5.2727	0.	3313.9
11442	10.142	5.1818	0.	3337.7
11443	10.142	5.2727	5.e-002	9.1348
11444	10.419	5.2727	0.	3262.7
11445	10.327	5.1818	0.	3286.6
11446	10.327	5.2727	5.e-002	9.0886
11447	10.604	5.2727	0.	3211.7
11448	10.512	5.1818	0.	3235.5
11449	10.512	5.2727	5.e-002	9.043
11450	10.789	5.2727	0.	3160.8
11451	10.697	5.1818	0.	3184.7
11452	10.697	5.2727	5.e-002	8.9982
11453	10.974	5.2727	0.	3110.2
11454	10.881	5.1818	0.	3134.
11455	10.881	5.2727	5.e-002	8.9537
11456	11.158	5.2727	0.	3059.7
11457	11.066	5.1818	0.	3083.5
11458	11.066	5.2727	5.e-002	8.9098
11459	11.343	5.2727	0.	3009.3
11460	11.251	5.1818	0.	3033.1
11461	11.251	5.2727	5.e-002	8.8667
11462	11.528	5.2727	0.	2959.2
11463	11.436	5.1818	0.	2983.
11464	11.436	5.2727	5.e-002	8.8243
11465	11.713	5.2727	0.	2909.2
11466	11.62	5.1818	0.	2933.
11467	11.62	5.2727	5.e-002	8.7825
11468	11.898	5.2727	0.	2859.5
11469	11.805	5.1818	0.	2883.2
11470	11.805	5.2727	5.e-002	8.7412
11471	12.082	5.2727	0.	2809.9
11472	11.99	5.1818	0.	2833.5
11473	11.99	5.2727	5.e-002	8.7003
11474	12.267	5.2727	0.	2760.5
11475	12.175	5.1818	0.	2784.1
11476	12.175	5.2727	5.e-002	8.66
11477	12.452	5.2727	0.	2711.3
11478	12.359	5.1818	0.	2734.8
11479	12.359	5.2727	5.e-002	8.6204
11480	12.637	5.2727	0.	2662.3
11481	12.544	5.1818	0.	2685.8
11482	12.544	5.2727	5.e-002	8.5813
11483	12.821	5.2727	0.	2613.4
11484	12.729	5.1818	0.	2636.9
11485	12.729	5.2727	5.e-002	8.5424
11486	13.006	5.2727	0.	2564.8
11487	12.914	5.1818	0.	2588.2
11488	12.914	5.2727	5.e-002	8.504
11489	13.191	5.2727	0.	2516.3
11490	13.099	5.1818	0.	2539.7
11491	13.099	5.2727	5.e-002	8.4659
11492	13.376	5.2727	0.	2468.1
11493	13.283	5.1818	0.	2491.3
11494	13.283	5.2727	5.e-002	8.4284
11495	13.56	5.2727	0.	2420.
11496	13.468	5.1818	0.	2443.2
11497	13.468	5.2727	5.e-002	8.3912
11498	13.745	5.2727	0.	2372.2
11499	13.653	5.1818	0.	2395.3
11500	13.653	5.2727	5.e-002	8.3543
11501	13.93	5.2727	0.	2324.5
11502	13.838	5.1818	0.	2347.5
11503	13.838	5.2727	5.e-002	8.3175
11504	14.115	5.2727	0.	2277.
11505	14.022	5.1818	0.	2300.
11506	14.022	5.2727	5.e-002	8.2812
11507	14.3	5.2727	0.	2229.7
11508	14.207	5.1818	0.	2252.6
11509	14.207	5.2727	5.e-002	8.2453
11510	14.484	5.2727	0.	2182.7
11511	14.392	5.1818	0.	2205.4
11512	14.392	5.2727	5.e-002	8.2096
11513	14.669	5.2727	0.	2135.8
11514	14.577	5.1818	0.	2158.5
11515	14.577	5.2727	5.e-002	8.1741
11516	14.854	5.2727	0.	2089.1
11517	14.761	5.1818	0.	2111.7
11518	14.761	5.2727	5.e-002	8.1388
11519	15.039	5.2727	0.	2042.6
11520	14.946	5.1818	0.	2065.2
11521	14.946	5.2727	5.e-002	8.1038
11522	15.223	5.2727	0.	1996.4
11523	15.131	5.1818	0.	2018.8
11524	15.131	5.2727	5.e-002	8.0692
11525	15.408	5.2727	0.	1950.3
11526	15.316	5.1818	0.	1972.6
11527	15.316	5.2727	5.e-002	8.0348
11528	15.593	5.2727	0.	1904.4
11529	15.501	5.1818	0.	1926.7
11530	15.501	5.2727	5.e-002	8.0006
11531	15.778	5.2727	0.	1858.7
11532	15.685	5.1818	0.	1880.9
11533	15.685	5.2727	5.e-002	7.9666
11534	15.963	5.2727	0.	1813.3
11535	15.87	5.1818	0.	1835.3
11536	15.87	5.2727	5.e-002	7.933
11537	16.147	5.2727	0.	1768.
11538	16.055	5.1818	0.	1790.
11539	16.055	5.2727	5.e-002	7.8997
11540	16.332	5.2727	0.	1722.9
11541	16.24	5.1818	0.	1744.8
11542	16.24	5.2727	5.e-002	7.8665
11543	16.517	5.2727	0.	1678.1
11544	16.424	5.1818	0.	1699.9
11545	16.424	5.2727	5.e-002	7.8336
11546	16.702	5.2727	0.	1633.4
11547	16.609	5.1818	0.	1655.1
11548	16.609	5.2727	5.e-002	7.801
11549	16.886	5.2727	0.	1589.
11550	16.794	5.1818	0.	1610.6
11551	16.794	5.2727	5.e-002	7.7688
11552	17.071	5.2727	0.	1544.7
11553	16.979	5.1818	0.	1566.2
11554	16.979	5.2727	5.e-002	7.7369
11555	17.256	5.2727	0.	1500.7
11556	17.164	5.1818	0.	1522.1
11557	17.164	5.2727	5.e-002	7.7053
11558	17.441	5.2727	0.	1456.8
11559	17.348	5.1818	0.	1478.2
11560	17.348	5.2727	5.e-002	7.674
11561	17.625	5.2727	0.	1413.2
11562	17.533	5.1818	0.	1434.5
11563	17.533	5.2727	5.e-002	7.6431
11564	17.81	5.2727	0.	1369.8
11565	17.718	5.1818	0.	1391.
11566	17.718	5.2727	5.e-002	7.6127
11567	17.995	5.2727	0.	1326.6
11568	17.903	5.1818	0.	1347.7
11569	17.903	5.2727	5.e-002	7.5828
11570	18.18	5.2727	0.	1283.5
11571	18.087	5.1818	0.	1304.6
11572	18.087	5.2727	5.e-002	7.5532
11573	18.365	5.2727	0.	1240.7
11574	18.272	5.1818	0.	1261.7
11575	18.272	5.2727	5.e-002	7.5241
11576	18.549	5.2727	0.	1198.1
11577	18.457	5.1818	0.	1219.
11578	18.457	5.2727	5.e-002	7.4955
11579	18.734	5.2727	0.	1155.7
11580	18.642	5.1818	0.	1176.6
11581	18.642	5.2727	5.e-002	7.4676
11582	18.919	5.2727	0.	1113.6
11583	18.826	5.1818	0.	1134.3
11584	18.826	5.2727	5.e-002	7.4403
11585	19.104	5.2727	0.	1071.6
11586	19.011	5.1818	0.	1092.3
11587	19.011	5.2727	5.e-002	7.4136
11588	19.288	5.2727	0.	1029.8
11589	19.196	5.1818	0.	1050.5
11590	19.196	5.2727	5.e-002	7.3876
11591	19.473	5.2727	0.	988.23
11592	19.381	5.1818	0.	1008.9
11593	19.381	5.2727	5.e-002	7.3624
11594	19.658	5.2727	0.	946.86
11595	19.566	5.1818	0.	967.45
11596	19.566	5.2727	5.e-002	7.338
11597	19.843	5.2727	0.	905.7
11598	19.75	5.1818	0.	926.26
11599	19.75	5.2727	5.e-002	7.3146
11600	20.027	5.2727	0.	864.75
11601	19.935	5.1818	0.	885.28
11602	19.935	5.2727	5.e-002	7.292
11603	20.212	5.2727	0.	824.01
11604	20.12	5.1818	0.	844.52
11605	20.12	5.2727	5.e-002	7.2704
11606	20.397	5.2727	0.	783.48
11607	20.305	5.1818	0.	803.98
11608	20.305	5.2727	5.e-002	7.25
11609	20.582	5.2727	0.	743.15
11610	20.489	5.1818	0.	763.65
11611	20.489	5.2727	5.e-002	7.2308
11612	20.767	5.2727	0.	703.04
11613	20.674	5.1818	0.	723.56
11614	20.674	5.2727	5.e-002	7.2128
11615	20.951	5.2727	0.	663.15
11616	20.859	5.1818	0.	683.69
11617	20.859	5.2727	5.e-002	7.1962
11618	21.136	5.2727	0.	623.49
11619	21.044	5.1818	0.	644.06
11620	21.044	5.2727	5.e-002	7.181
11621	21.321	5.2727	0.	584.06
11622	21.228	5.1818	0.	604.68
11623	21.228	5.2727	5.e-002	7.1675
11624	21.506	5.2727	0.	544.88
11625	21.413	5.1818	0.	565.55
11626	21.413	5.2727	5.e-002	7.1558
11627	21.69	5.2727	0.	505.97
11628	21.598	5.1818	0.	526.71
11629	21.598	5.2727	5.e-002	7.1459
11630	21.875	5.2727	0.	467.35
11631	21.783	5.1818	0.	488.18
11632	21.783	5.2727	5.e-002	7.1383
11633	22.06	5.2727	0.	429.07
11634	21.968	5.1818	0.	449.99
11635	21.968	5.2727	5.e-002	7.1331
11636	22.245	5.2727	0.	391.18
11637	22.152	5.1818	0.	412.2
11638	22.152	5.2727	5.e-002	7.1309
11639	22.429	5.2727	0.	353.76
11640	22.337	5.1818	0.	374.87
11641	22.337	5.2727	5.e-002	7.1324
11642	22.614	5.2727	0.	316.93
11643	22.522	5.1818	0.	338.12
11644	22.522	5.2727	5.e-002	7.1385
11645	22.799	5.2727	0.	280.87
11646	22.707	5.1818	0.	302.1
11647	22.707	5.2727	5.e-002	7.151
11648	22.984	5.2727	0.	245.84
11649	22.891	5.1818	0.	267.04
11650	22.891	5.2727	5.e-002	7.1726
11651	23.169	5.2727	0.	212.28
11652	23.076	5.1818	0.	233.27
11653	23.076	5.2727	5.e-002	7.2082
11654	23.353	5.2727	0.	180.81
11655	23.261	5.1818	0.	201.31
11656	23.261	5.2727	5.e-002	7.2661
11657	23.538	5.2727	0.	152.48
11658	23.446	5.1818	0.	171.94
11659	23.446	5.2727	5.e-002	7.3603
11660	23.723	5.2727	0.	128.93
11661	23.63	5.1818	0.	146.38
11662	23.63	5.2727	5.e-002	7.5232
11663	23.815	5.1818	0.	126.57
11664	23.815	5.2727	5.e-002	7.9595
11665	23.908	5.2727	0.	111.37
11666	2.8438	5.0909	0.	3560.5
11667	2.7514	5.	0.	4167.4
11668	2.7514	5.0909	5.e-002	178.15
11669	2.6591	5.0909	0.	2976.6
11670	3.0286	5.0909	0.	3571.8
11671	2.9362	5.	0.	3925.7
11672	2.9362	5.0909	5.e-002	127.72
11673	3.2134	5.0909	0.	3766.6
11674	3.121	5.	0.	4008.2
11675	3.121	5.0909	5.e-002	108.31
11676	3.3981	5.0909	0.	3987.3
11677	3.3057	5.	0.	4154.5
11678	3.3057	5.0909	5.e-002	88.284
11679	3.5829	5.0909	0.	4189.1
11680	3.4905	5.	0.	4307.6
11681	3.4905	5.0909	5.e-002	70.281
11682	3.7677	5.0909	0.	4355.6
11683	3.6753	5.	0.	4442.7
11684	3.6753	5.0909	5.e-002	55.235
11685	3.9524	5.0909	0.	4483.6
11686	3.8601	5.	0.	4550.4
11687	3.8601	5.0909	5.e-002	43.11
11688	4.1372	5.0909	0.	4575.8
11689	4.0448	5.	0.	4629.4
11690	4.0448	5.0909	5.e-002	33.482
11691	4.322	5.0909	0.	4637.3
11692	4.2296	5.	0.	4681.9
11693	4.2296	5.0909	5.e-002	25.903
11694	4.5068	5.0909	0.	4673.3
11695	4.4144	5.	0.	4711.8
11696	4.4144	5.0909	5.e-002	20.004
11697	4.6915	5.0909	0.	4688.8
11698	4.5991	5.	0.	4722.9
11699	4.5991	5.0909	5.e-002	15.517
11700	4.8763	5.0909	0.	4687.9
11701	4.7839	5.	0.	4718.9
11702	4.7839	5.0909	5.e-002	12.251
11703	5.0611	5.0909	0.	4674.3
11704	4.9687	5.	0.	4702.9
11705	4.9687	5.0909	5.e-002	10.06
11706	5.2458	5.0909	0.	4650.7
11707	5.1534	5.	0.	4677.6
11708	5.1534	5.0909	5.e-002	8.7921
11709	5.4306	5.0909	0.	4619.6
11710	5.3382	5.	0.	4645.1
11711	5.3382	5.0909	5.e-002	8.2362
11712	5.6154	5.0909	0.	4582.6
11713	5.523	5.	0.	4607.1
11714	5.523	5.0909	5.e-002	8.1433
11715	5.8001	5.0909	0.	4541.3
11716	5.7078	5.	0.	4565.1
11717	5.7078	5.0909	5.e-002	8.2952
11718	5.9849	5.0909	0.	4496.8
11719	5.8925	5.	0.	4520.
11720	5.8925	5.0909	5.e-002	8.5446
11721	6.1697	5.0909	0.	4449.8
11722	6.0773	5.	0.	4472.6
11723	6.0773	5.0909	5.e-002	8.8095
11724	6.3545	5.0909	0.	4401.
11725	6.2621	5.	0.	4423.5
11726	6.2621	5.0909	5.e-002	9.0505
11727	6.5392	5.0909	0.	4350.9
11728	6.4468	5.	0.	4373.3
11729	6.4468	5.0909	5.e-002	9.2521
11730	6.724	5.0909	0.	4299.9
11731	6.6316	5.	0.	4322.3
11732	6.6316	5.0909	5.e-002	9.4109
11733	6.9088	5.0909	0.	4248.3
11734	6.8164	5.	0.	4270.6
11735	6.8164	5.0909	5.e-002	9.5295
11736	7.0935	5.0909	0.	4196.2
11737	7.0011	5.	0.	4218.6
11738	7.0011	5.0909	5.e-002	9.6127
11739	7.2783	5.0909	0.	4143.9
11740	7.1859	5.	0.	4166.3
11741	7.1859	5.0909	5.e-002	9.6661
11742	7.4631	5.0909	0.	4091.4
11743	7.3707	5.	0.	4113.9
11744	7.3707	5.0909	5.e-002	9.6949
11745	7.6478	5.0909	0.	4038.8
11746	7.5555	5.	0.	4061.4
11747	7.5555	5.0909	5.e-002	9.704
11748	7.8326	5.0909	0.	3986.1
11749	7.7402	5.	0.	4008.8
11750	7.7402	5.0909	5.e-002	9.6975
11751	8.0174	5.0909	0.	3933.5
11752	7.925	5.	0.	3956.4
11753	7.925	5.0909	5.e-002	9.679
11754	8.2022	5.0909	0.	3881.
11755	8.1098	5.	0.	3903.9
11756	8.1098	5.0909	5.e-002	9.6511
11757	8.3869	5.0909	0.	3828.5
11758	8.2945	5.	0.	3851.6
11759	8.2945	5.0909	5.e-002	9.6164
11760	8.5717	5.0909	0.	3776.1
11761	8.4793	5.	0.	3799.3
11762	8.4793	5.0909	5.e-002	9.5765
11763	8.7565	5.0909	0.	3723.8
11764	8.6641	5.	0.	3747.1
11765	8.6641	5.0909	5.e-002	9.533
11766	8.9412	5.0909	0.	3671.7
11767	8.8489	5.	0.	3695.
11768	8.8489	5.0909	5.e-002	9.4869
11769	9.126	5.0909	0.	3619.6
11770	9.0336	5.	0.	3643.1
11771	9.0336	5.0909	5.e-002	9.4393
11772	9.3108	5.0909	0.	3567.7
11773	9.2184	5.	0.	3591.3
11774	9.2184	5.0909	5.e-002	9.3907
11775	9.4955	5.0909	0.	3516.
11776	9.4032	5.	0.	3539.6
11777	9.4032	5.0909	5.e-002	9.3416
11778	9.6803	5.0909	0.	3464.4
11779	9.5879	5.	0.	3488.1
11780	9.5879	5.0909	5.e-002	9.2925
11781	9.8651	5.0909	0.	3412.9
11782	9.7727	5.	0.	3436.6
11783	9.7727	5.0909	5.e-002	9.2436
11784	10.05	5.0909	0.	3361.6
11785	9.9575	5.	0.	3385.4
11786	9.9575	5.0909	5.e-002	9.1952
11787	10.235	5.0909	0.	3310.4
11788	10.142	5.	0.	3334.2
11789	10.142	5.0909	5.e-002	9.1473
11790	10.419	5.0909	0.	3259.4
11791	10.327	5.	0.	3283.2
11792	10.327	5.0909	5.e-002	9.1
11793	10.604	5.0909	0.	3208.6
11794	10.512	5.	0.	3232.4
11795	10.512	5.0909	5.e-002	9.0535
11796	10.789	5.0909	0.	3157.9
11797	10.697	5.	0.	3181.7
11798	10.697	5.0909	5.e-002	9.0078
11799	10.974	5.0909	0.	3107.4
11800	10.881	5.	0.	3131.2
11801	10.881	5.0909	5.e-002	8.9626
11802	11.158	5.0909	0.	3057.
11803	11.066	5.	0.	3080.8
11804	11.066	5.0909	5.e-002	8.9182
11805	11.343	5.0909	0.	3006.8
11806	11.251	5.	0.	3030.6
11807	11.251	5.0909	5.e-002	8.8745
11808	11.528	5.0909	0.	2956.8
11809	11.436	5.	0.	2980.6
11810	11.436	5.0909	5.e-002	8.8316
11811	11.713	5.0909	0.	2907.
11812	11.62	5.	0.	2930.7
11813	11.62	5.0909	5.e-002	8.7895
11814	11.898	5.0909	0.	2857.3
11815	11.805	5.	0.	2881.
11816	11.805	5.0909	5.e-002	8.7477
11817	12.082	5.0909	0.	2807.8
11818	11.99	5.	0.	2831.5
11819	11.99	5.0909	5.e-002	8.7066
11820	12.267	5.0909	0.	2758.5
11821	12.175	5.	0.	2782.1
11822	12.175	5.0909	5.e-002	8.666
11823	12.452	5.0909	0.	2709.4
11824	12.359	5.	0.	2733.
11825	12.359	5.0909	5.e-002	8.6261
11826	12.637	5.0909	0.	2660.4
11827	12.544	5.	0.	2684.
11828	12.544	5.0909	5.e-002	8.5867
11829	12.821	5.0909	0.	2611.7
11830	12.729	5.	0.	2635.1
11831	12.729	5.0909	5.e-002	8.5476
11832	13.006	5.0909	0.	2563.1
11833	12.914	5.	0.	2586.5
11834	12.914	5.0909	5.e-002	8.5089
11835	13.191	5.0909	0.	2514.7
11836	13.099	5.	0.	2538.
11837	13.099	5.0909	5.e-002	8.4707
11838	13.376	5.0909	0.	2466.5
11839	13.283	5.	0.	2489.8
11840	13.283	5.0909	5.e-002	8.433
11841	13.56	5.0909	0.	2418.5
11842	13.468	5.	0.	2441.7
11843	13.468	5.0909	5.e-002	8.3957
11844	13.745	5.0909	0.	2370.7
11845	13.653	5.	0.	2393.8
11846	13.653	5.0909	5.e-002	8.3586
11847	13.93	5.0909	0.	2323.
11848	13.838	5.	0.	2346.1
11849	13.838	5.0909	5.e-002	8.3217
11850	14.115	5.0909	0.	2275.6
11851	14.022	5.	0.	2298.6
11852	14.022	5.0909	5.e-002	8.2852
11853	14.3	5.0909	0.	2228.3
11854	14.207	5.	0.	2251.2
11855	14.207	5.0909	5.e-002	8.2492
11856	14.484	5.0909	0.	2181.3
11857	14.392	5.	0.	2204.1
11858	14.392	5.0909	5.e-002	8.2135
11859	14.669	5.0909	0.	2134.4
11860	14.577	5.	0.	2157.2
11861	14.577	5.0909	5.e-002	8.1779
11862	14.854	5.0909	0.	2087.8
11863	14.761	5.	0.	2110.4
11864	14.761	5.0909	5.e-002	8.1425
11865	15.039	5.0909	0.	2041.3
11866	14.946	5.	0.	2063.9
11867	14.946	5.0909	5.e-002	8.1075
11868	15.223	5.0909	0.	1995.1
11869	15.131	5.	0.	2017.6
11870	15.131	5.0909	5.e-002	8.0728
11871	15.408	5.0909	0.	1949.
11872	15.316	5.	0.	1971.4
11873	15.316	5.0909	5.e-002	8.0384
11874	15.593	5.0909	0.	1903.2
11875	15.501	5.	0.	1925.5
11876	15.501	5.0909	5.e-002	8.0041
11877	15.778	5.0909	0.	1857.5
11878	15.685	5.	0.	1879.7
11879	15.685	5.0909	5.e-002	7.9701
11880	15.963	5.0909	0.	1812.1
11881	15.87	5.	0.	1834.2
11882	15.87	5.0909	5.e-002	7.9365
11883	16.147	5.0909	0.	1766.8
11884	16.055	5.	0.	1788.9
11885	16.055	5.0909	5.e-002	7.9031
11886	16.332	5.0909	0.	1721.8
11887	16.24	5.	0.	1743.7
11888	16.24	5.0909	5.e-002	7.87
11889	16.517	5.0909	0.	1677.
11890	16.424	5.	0.	1698.8
11891	16.424	5.0909	5.e-002	7.8371
11892	16.702	5.0909	0.	1632.3
11893	16.609	5.	0.	1654.1
11894	16.609	5.0909	5.e-002	7.8045
11895	16.886	5.0909	0.	1587.9
11896	16.794	5.	0.	1609.6
11897	16.794	5.0909	5.e-002	7.7724
11898	17.071	5.0909	0.	1543.7
11899	16.979	5.	0.	1565.3
11900	16.979	5.0909	5.e-002	7.7405
11901	17.256	5.0909	0.	1499.7
11902	17.164	5.	0.	1521.2
11903	17.164	5.0909	5.e-002	7.709
11904	17.441	5.0909	0.	1455.9
11905	17.348	5.	0.	1477.3
11906	17.348	5.0909	5.e-002	7.6777
11907	17.625	5.0909	0.	1412.3
11908	17.533	5.	0.	1433.6
11909	17.533	5.0909	5.e-002	7.6469
11910	17.81	5.0909	0.	1368.9
11911	17.718	5.	0.	1390.2
11912	17.718	5.0909	5.e-002	7.6166
11913	17.995	5.0909	0.	1325.8
11914	17.903	5.	0.	1346.9
11915	17.903	5.0909	5.e-002	7.5868
11916	18.18	5.0909	0.	1282.8
11917	18.087	5.	0.	1303.9
11918	18.087	5.0909	5.e-002	7.5573
11919	18.365	5.0909	0.	1240.1
11920	18.272	5.	0.	1261.1
11921	18.272	5.0909	5.e-002	7.5283
11922	18.549	5.0909	0.	1197.5
11923	18.457	5.	0.	1218.5
11924	18.457	5.0909	5.e-002	7.4999
11925	18.734	5.0909	0.	1155.2
11926	18.642	5.	0.	1176.1
11927	18.642	5.0909	5.e-002	7.4722
11928	18.919	5.0909	0.	1113.1
11929	18.826	5.	0.	1133.9
11930	18.826	5.0909	5.e-002	7.4451
11931	19.104	5.0909	0.	1071.3
11932	19.011	5.	0.	1092.
11933	19.011	5.0909	5.e-002	7.4186
11934	19.288	5.0909	0.	1029.6
11935	19.196	5.	0.	1050.3
11936	19.196	5.0909	5.e-002	7.3929
11937	19.473	5.0909	0.	988.14
11938	19.381	5.	0.	1008.8
11939	19.381	5.0909	5.e-002	7.3679
11940	19.658	5.0909	0.	946.91
11941	19.566	5.	0.	967.51
11942	19.566	5.0909	5.e-002	7.3439
11943	19.843	5.0909	0.	905.9
11944	19.75	5.	0.	926.46
11945	19.75	5.0909	5.e-002	7.3208
11946	20.027	5.0909	0.	865.12
11947	19.935	5.	0.	885.65
11948	19.935	5.0909	5.e-002	7.2986
11949	20.212	5.0909	0.	824.56
11950	20.12	5.	0.	845.07
11951	20.12	5.0909	5.e-002	7.2775
11952	20.397	5.0909	0.	784.24
11953	20.305	5.	0.	804.72
11954	20.305	5.0909	5.e-002	7.2576
11955	20.582	5.0909	0.	744.14
11956	20.489	5.	0.	764.62
11957	20.489	5.0909	5.e-002	7.2391
11958	20.767	5.0909	0.	704.29
11959	20.674	5.	0.	724.77
11960	20.674	5.0909	5.e-002	7.2219
11961	20.951	5.0909	0.	664.69
11962	20.859	5.	0.	685.18
11963	20.859	5.0909	5.e-002	7.2061
11964	21.136	5.0909	0.	625.34
11965	21.044	5.	0.	645.85
11966	21.044	5.0909	5.e-002	7.192
11967	21.321	5.0909	0.	586.27
11968	21.228	5.	0.	606.81
11969	21.228	5.0909	5.e-002	7.1798
11970	21.506	5.0909	0.	547.49
11971	21.413	5.	0.	568.07
11972	21.413	5.0909	5.e-002	7.1695
11973	21.69	5.0909	0.	509.03
11974	21.598	5.	0.	529.65
11975	21.598	5.0909	5.e-002	7.1615
11976	21.875	5.0909	0.	470.93
11977	21.783	5.	0.	491.6
11978	21.783	5.0909	5.e-002	7.156
11979	22.06	5.0909	0.	433.23
11980	21.968	5.	0.	453.95
11981	21.968	5.0909	5.e-002	7.1536
11982	22.245	5.0909	0.	396.01
11983	22.152	5.	0.	416.77
11984	22.152	5.0909	5.e-002	7.1548
11985	22.429	5.0909	0.	359.36
11986	22.337	5.	0.	380.14
11987	22.337	5.0909	5.e-002	7.1603
11988	22.614	5.0909	0.	323.41
11989	22.522	5.	0.	344.18
11990	22.522	5.0909	5.e-002	7.1716
11991	22.799	5.0909	0.	288.36
11992	22.707	5.	0.	309.05
11993	22.707	5.0909	5.e-002	7.1904
11994	22.984	5.0909	0.	254.5
11995	22.891	5.	0.	275.
11996	22.891	5.0909	5.e-002	7.2198
11997	23.169	5.0909	0.	222.24
11998	23.076	5.	0.	242.36
11999	23.076	5.0909	5.e-002	7.2642
12000	23.353	5.0909	0.	192.18
12001	23.261	5.	0.	211.62
12002	23.261	5.0909	5.e-002	7.3305
12003	23.538	5.0909	0.	165.23
12004	23.446	5.	0.	183.48
12005	23.446	5.0909	5.e-002	7.428
12006	23.723	5.0909	0.	142.8
12007	23.63	5.	0.	159.03
12008	23.63	5.0909	5.e-002	7.5778
12009	23.815	5.	0.	139.94
12010	23.815	5.0909	5.e-002	7.953
12011	23.908	5.0909	0.	126.14
12012	2.8438	4.9091	0.	4426.1
12013	2.7514	4.8182	0.	5233.5
12014	2.7514	4.9091	5.e-002	214.06
12015	2.6591	4.9091	0.	3744.3
12016	3.0286	4.9091	0.	4290.4
12017	2.9362	4.8182	0.	4797.8
12018	2.9362	4.9091	5.e-002	144.68
12019	3.2134	4.9091	0.	4351.1
12020	3.121	4.8182	0.	4714.3
12021	3.121	4.9091	5.e-002	115.37
12022	3.3981	4.9091	0.	4448.3
12023	3.3057	4.8182	0.	4708.2
12024	3.3057	4.9091	5.e-002	89.003
12025	3.5829	4.9091	0.	4546.
12026	3.4905	4.8182	0.	4733.2
12027	3.4905	4.9091	5.e-002	68.343
12028	3.7677	4.9091	0.	4629.
12029	3.6753	4.8182	0.	4766.6
12030	3.6753	4.9091	5.e-002	52.891
12031	3.9524	4.9091	0.	4691.4
12032	3.8601	4.8182	0.	4795.4
12033	3.8601	4.9091	5.e-002	41.355
12034	4.1372	4.9091	0.	4732.8
12035	4.0448	4.8182	0.	4813.7
12036	4.0448	4.9091	5.e-002	32.644
12037	4.322	4.9091	0.	4755.
12038	4.2296	4.8182	0.	4819.7
12039	4.2296	4.9091	5.e-002	25.998
12040	4.5068	4.9091	0.	4760.6
12041	4.4144	4.8182	0.	4813.8
12042	4.4144	4.9091	5.e-002	20.929
12043	4.6915	4.9091	0.	4752.6
12044	4.5991	4.8182	0.	4797.5
12045	4.5991	4.9091	5.e-002	17.113
12046	4.8763	4.9091	0.	4733.6
12047	4.7839	4.8182	0.	4772.5
12048	4.7839	4.9091	5.e-002	14.326
12049	5.0611	4.9091	0.	4706.1
12050	4.9687	4.8182	0.	4740.5
12051	4.9687	4.9091	5.e-002	12.385
12052	5.2458	4.9091	0.	4671.9
12053	5.1534	4.8182	0.	4702.9
12054	5.1534	4.9091	5.e-002	11.122
12055	5.4306	4.9091	0.	4632.7
12056	5.3382	4.8182	0.	4661.2
12057	5.3382	4.9091	5.e-002	10.37
12058	5.6154	4.9091	0.	4589.6
12059	5.523	4.8182	0.	4616.2
12060	5.523	4.9091	5.e-002	9.9694
12061	5.8001	4.9091	0.	4543.8
12062	5.7078	4.8182	0.	4569.
12063	5.7078	4.9091	5.e-002	9.7916
12064	5.9849	4.9091	0.	4495.8
12065	5.8925	4.8182	0.	4520.
12066	5.8925	4.9091	5.e-002	9.7402
12067	6.1697	4.9091	0.	4446.4
12068	6.0773	4.8182	0.	4469.9
12069	6.0773	4.9091	5.e-002	9.7519
12070	6.3545	4.9091	0.	4395.9
12071	6.2621	4.8182	0.	4418.9
12072	6.2621	4.9091	5.e-002	9.7885
12073	6.5392	4.9091	0.	4344.7
12074	6.4468	4.8182	0.	4367.3
12075	6.4468	4.9091	5.e-002	9.8285
12076	6.724	4.9091	0.	4293.
12077	6.6316	4.8182	0.	4315.4
12078	6.6316	4.9091	5.e-002	9.861
12079	6.9088	4.9091	0.	4240.9
12080	6.8164	4.8182	0.	4263.2
12081	6.8164	4.9091	5.e-002	9.8812
12082	7.0935	4.9091	0.	4188.7
12083	7.0011	4.8182	0.	4211.
12084	7.0011	4.9091	5.e-002	9.8881
12085	7.2783	4.9091	0.	4136.3
12086	7.1859	4.8182	0.	4158.6
12087	7.1859	4.9091	5.e-002	9.8822
12088	7.4631	4.9091	0.	4083.9
12089	7.3707	4.8182	0.	4106.3
12090	7.3707	4.9091	5.e-002	9.865
12091	7.6478	4.9091	0.	4031.5
12092	7.5555	4.8182	0.	4054.
12093	7.5555	4.9091	5.e-002	9.8384
12094	7.8326	4.9091	0.	3979.1
12095	7.7402	4.8182	0.	4001.7
12096	7.7402	4.9091	5.e-002	9.8042
12097	8.0174	4.9091	0.	3926.8
12098	7.925	4.8182	0.	3949.5
12099	7.925	4.9091	5.e-002	9.764
12100	8.2022	4.9091	0.	3874.5
12101	8.1098	4.8182	0.	3897.4
12102	8.1098	4.9091	5.e-002	9.7193
12103	8.3869	4.9091	0.	3822.4
12104	8.2945	4.8182	0.	3845.4
12105	8.2945	4.9091	5.e-002	9.6714
12106	8.5717	4.9091	0.	3770.3
12107	8.4793	4.8182	0.	3793.4
12108	8.4793	4.9091	5.e-002	9.6212
12109	8.7565	4.9091	0.	3718.4
12110	8.6641	4.8182	0.	3741.6
12111	8.6641	4.9091	5.e-002	9.5695
12112	8.9412	4.9091	0.	3666.5
12113	8.8489	4.8182	0.	3689.9
12114	8.8489	4.9091	5.e-002	9.5171
12115	9.126	4.9091	0.	3614.8
12116	9.0336	4.8182	0.	3638.3
12117	9.0336	4.9091	5.e-002	9.4644
12118	9.3108	4.9091	0.	3563.2
12119	9.2184	4.8182	0.	3586.7
12120	9.2184	4.9091	5.e-002	9.4118
12121	9.4955	4.9091	0.	3511.7
12122	9.4032	4.8182	0.	3535.3
12123	9.4032	4.9091	5.e-002	9.3595
12124	9.6803	4.9091	0.	3460.4
12125	9.5879	4.8182	0.	3484.
12126	9.5879	4.9091	5.e-002	9.3078
12127	9.8651	4.9091	0.	3409.1
12128	9.7727	4.8182	0.	3432.9
12129	9.7727	4.9091	5.e-002	9.2569
12130	10.05	4.9091	0.	3358.
12131	9.9575	4.8182	0.	3381.8
12132	9.9575	4.9091	5.e-002	9.2068
12133	10.235	4.9091	0.	3307.1
12134	10.142	4.8182	0.	3330.9
12135	10.142	4.9091	5.e-002	9.1575
12136	10.419	4.9091	0.	3256.3
12137	10.327	4.8182	0.	3280.1
12138	10.327	4.9091	5.e-002	9.109
12139	10.604	4.9091	0.	3205.6
12140	10.512	4.8182	0.	3229.5
12141	10.512	4.9091	5.e-002	9.0615
12142	10.789	4.9091	0.	3155.1
12143	10.697	4.8182	0.	3179.
12144	10.697	4.9091	5.e-002	9.015
12145	10.974	4.9091	0.	3104.7
12146	10.881	4.8182	0.	3128.6
12147	10.881	4.9091	5.e-002	8.9692
12148	11.158	4.9091	0.	3054.5
12149	11.066	4.8182	0.	3078.4
12150	11.066	4.9091	5.e-002	8.9241
12151	11.343	4.9091	0.	3004.5
12152	11.251	4.8182	0.	3028.3
12153	11.251	4.9091	5.e-002	8.8799
12154	11.528	4.9091	0.	2954.6
12155	11.436	4.8182	0.	2978.4
12156	11.436	4.9091	5.e-002	8.8366
12157	11.713	4.9091	0.	2904.8
12158	11.62	4.8182	0.	2928.6
12159	11.62	4.9091	5.e-002	8.794
12160	11.898	4.9091	0.	2855.3
12161	11.805	4.8182	0.	2879.
12162	11.805	4.9091	5.e-002	8.7519
12163	12.082	4.9091	0.	2805.9
12164	11.99	4.8182	0.	2829.6
12165	11.99	4.9091	5.e-002	8.7104
12166	12.267	4.9091	0.	2756.6
12167	12.175	4.8182	0.	2780.3
12168	12.175	4.9091	5.e-002	8.6695
12169	12.452	4.9091	0.	2707.6
12170	12.359	4.8182	0.	2731.2
12171	12.359	4.9091	5.e-002	8.6294
12172	12.637	4.9091	0.	2658.7
12173	12.544	4.8182	0.	2682.3
12174	12.544	4.9091	5.e-002	8.5898
12175	12.821	4.9091	0.	2610.
12176	12.729	4.8182	0.	2633.5
12177	12.729	4.9091	5.e-002	8.5505
12178	13.006	4.9091	0.	2561.5
12179	12.914	4.8182	0.	2584.9
12180	12.914	4.9091	5.e-002	8.5116
12181	13.191	4.9091	0.	2513.2
12182	13.099	4.8182	0.	2536.5
12183	13.099	4.9091	5.e-002	8.4732
12184	13.376	4.9091	0.	2465.
12185	13.283	4.8182	0.	2488.3
12186	13.283	4.9091	5.e-002	8.4354
12187	13.56	4.9091	0.	2417.
12188	13.468	4.8182	0.	2440.3
12189	13.468	4.9091	5.e-002	8.3979
12190	13.745	4.9091	0.	2369.3
12191	13.653	4.8182	0.	2392.4
12192	13.653	4.9091	5.e-002	8.3606
12193	13.93	4.9091	0.	2321.7
12194	13.838	4.8182	0.	2344.8
12195	13.838	4.9091	5.e-002	8.3237
12196	14.115	4.9091	0.	2274.3
12197	14.022	4.8182	0.	2297.3
12198	14.022	4.9091	5.e-002	8.2871
12199	14.3	4.9091	0.	2227.1
12200	14.207	4.8182	0.	2250.
12201	14.207	4.9091	5.e-002	8.251
12202	14.484	4.9091	0.	2180.
12203	14.392	4.8182	0.	2202.9
12204	14.392	4.9091	5.e-002	8.2152
12205	14.669	4.9091	0.	2133.2
12206	14.577	4.8182	0.	2156.
12207	14.577	4.9091	5.e-002	8.1795
12208	14.854	4.9091	0.	2086.6
12209	14.761	4.8182	0.	2109.3
12210	14.761	4.9091	5.e-002	8.1441
12211	15.039	4.9091	0.	2040.2
12212	14.946	4.8182	0.	2062.8
12213	14.946	4.9091	5.e-002	8.109
12214	15.223	4.9091	0.	1993.9
12215	15.131	4.8182	0.	2016.5
12216	15.131	4.9091	5.e-002	8.0743
12217	15.408	4.9091	0.	1947.9
12218	15.316	4.8182	0.	1970.3
12219	15.316	4.9091	5.e-002	8.0398
12220	15.593	4.9091	0.	1902.1
12221	15.501	4.8182	0.	1924.4
12222	15.501	4.9091	5.e-002	8.0056
12223	15.778	4.9091	0.	1856.5
12224	15.685	4.8182	0.	1878.7
12225	15.685	4.9091	5.e-002	7.9715
12226	15.963	4.9091	0.	1811.
12227	15.87	4.8182	0.	1833.2
12228	15.87	4.9091	5.e-002	7.9379
12229	16.147	4.9091	0.	1765.8
12230	16.055	4.8182	0.	1787.9
12231	16.055	4.9091	5.e-002	7.9045
12232	16.332	4.9091	0.	1720.8
12233	16.24	4.8182	0.	1742.8
12234	16.24	4.9091	5.e-002	7.8714
12235	16.517	4.9091	0.	1676.
12236	16.424	4.8182	0.	1697.9
12237	16.424	4.9091	5.e-002	7.8385
12238	16.702	4.9091	0.	1631.4
12239	16.609	4.8182	0.	1653.2
12240	16.609	4.9091	5.e-002	7.806
12241	16.886	4.9091	0.	1587.
12242	16.794	4.8182	0.	1608.7
12243	16.794	4.9091	5.e-002	7.7739
12244	17.071	4.9091	0.	1542.8
12245	16.979	4.8182	0.	1564.5
12246	16.979	4.9091	5.e-002	7.7421
12247	17.256	4.9091	0.	1498.9
12248	17.164	4.8182	0.	1520.4
12249	17.164	4.9091	5.e-002	7.7106
12250	17.441	4.9091	0.	1455.1
12251	17.348	4.8182	0.	1476.6
12252	17.348	4.9091	5.e-002	7.6794
12253	17.625	4.9091	0.	1411.6
12254	17.533	4.8182	0.	1432.9
12255	17.533	4.9091	5.e-002	7.6487
12256	17.81	4.9091	0.	1368.2
12257	17.718	4.8182	0.	1389.5
12258	17.718	4.9091	5.e-002	7.6185
12259	17.995	4.9091	0.	1325.1
12260	17.903	4.8182	0.	1346.3
12261	17.903	4.9091	5.e-002	7.5888
12262	18.18	4.9091	0.	1282.2
12263	18.087	4.8182	0.	1303.4
12264	18.087	4.9091	5.e-002	7.5594
12265	18.365	4.9091	0.	1239.6
12266	18.272	4.8182	0.	1260.6
12267	18.272	4.9091	5.e-002	7.5306
12268	18.549	4.9091	0.	1197.1
12269	18.457	4.8182	0.	1218.1
12270	18.457	4.9091	5.e-002	7.5023
12271	18.734	4.9091	0.	1154.9
12272	18.642	4.8182	0.	1175.8
12273	18.642	4.9091	5.e-002	7.4748
12274	18.919	4.9091	0.	1112.9
12275	18.826	4.8182	0.	1133.7
12276	18.826	4.9091	5.e-002	7.4479
12277	19.104	4.9091	0.	1071.1
12278	19.011	4.8182	0.	1091.8
12279	19.011	4.9091	5.e-002	7.4216
12280	19.288	4.9091	0.	1029.5
12281	19.196	4.8182	0.	1050.2
12282	19.196	4.9091	5.e-002	7.3961
12283	19.473	4.9091	0.	988.22
12284	19.381	4.8182	0.	1008.9
12285	19.381	4.9091	5.e-002	7.3714
12286	19.658	4.9091	0.	947.13
12287	19.566	4.8182	0.	967.72
12288	19.566	4.9091	5.e-002	7.3477
12289	19.843	4.9091	0.	906.28
12290	19.75	4.8182	0.	926.82
12291	19.75	4.9091	5.e-002	7.325
12292	20.027	4.9091	0.	865.67
12293	19.935	4.8182	0.	886.17
12294	19.935	4.9091	5.e-002	7.3032
12295	20.212	4.9091	0.	825.3
12296	20.12	4.8182	0.	845.77
12297	20.12	4.9091	5.e-002	7.2827
12298	20.397	4.9091	0.	785.19
12299	20.305	4.8182	0.	805.63
12300	20.305	4.9091	5.e-002	7.2633
12301	20.582	4.9091	0.	745.33
12302	20.489	4.8182	0.	765.75
12303	20.489	4.9091	5.e-002	7.2454
12304	20.767	4.9091	0.	705.74
12305	20.674	4.8182	0.	726.14
12306	20.674	4.9091	5.e-002	7.229
12307	20.951	4.9091	0.	666.42
12308	20.859	4.8182	0.	686.82
12309	20.859	4.9091	5.e-002	7.2142
12310	21.136	4.9091	0.	627.4
12311	21.044	4.8182	0.	647.8
12312	21.044	4.9091	5.e-002	7.2011
12313	21.321	4.9091	0.	588.69
12314	21.228	4.8182	0.	609.1
12315	21.228	4.9091	5.e-002	7.1902
12316	21.506	4.9091	0.	550.32
12317	21.413	4.8182	0.	570.73
12318	21.413	4.9091	5.e-002	7.1815
12319	21.69	4.9091	0.	512.31
12320	21.598	4.8182	0.	532.73
12321	21.598	4.9091	5.e-002	7.1753
12322	21.875	4.9091	0.	474.7
12323	21.783	4.8182	0.	495.14
12324	21.783	4.9091	5.e-002	7.172
12325	22.06	4.9091	0.	437.57
12326	21.968	4.8182	0.	458.
12327	21.968	4.9091	5.e-002	7.1723
12328	22.245	4.9091	0.	400.98
12329	22.152	4.8182	0.	421.4
12330	22.152	4.9091	5.e-002	7.1767
12331	22.429	4.9091	0.	365.03
12332	22.337	4.8182	0.	385.4
12333	22.337	4.9091	5.e-002	7.1862
12334	22.614	4.9091	0.	329.88
12335	22.522	4.8182	0.	350.15
12336	22.522	4.9091	5.e-002	7.2021
12337	22.799	4.9091	0.	295.71
12338	22.707	4.8182	0.	315.81
12339	22.707	4.9091	5.e-002	7.2264
12340	22.984	4.9091	0.	262.81
12341	22.891	4.8182	0.	282.6
12342	22.891	4.9091	5.e-002	7.2618
12343	23.169	4.9091	0.	231.57
12344	23.076	4.8182	0.	250.86
12345	23.076	4.9091	5.e-002	7.3121
12346	23.353	4.9091	0.	202.55
12347	23.261	4.8182	0.	221.04
12348	23.261	4.9091	5.e-002	7.3826
12349	23.538	4.9091	0.	176.57
12350	23.446	4.8182	0.	193.8
12351	23.446	4.9091	5.e-002	7.4791
12352	23.723	4.9091	0.	154.92
12353	23.63	4.8182	0.	170.11
12354	23.63	4.9091	5.e-002	7.6158
12355	23.815	4.8182	0.	151.52
12356	23.815	4.9091	5.e-002	7.9383
12357	23.908	4.9091	0.	138.9
12358	2.8438	4.7273	0.	5477.3
12359	2.7514	4.6364	0.	6593.
12360	2.7514	4.7273	5.e-002	269.4
12361	2.6591	4.7273	0.	4695.7
12362	3.0286	4.7273	0.	5139.5
12363	2.9362	4.6364	0.	5842.
12364	2.9362	4.7273	5.e-002	166.09
12365	3.2134	4.7273	0.	5021.3
12366	3.121	4.6364	0.	5520.
12367	3.121	4.7273	5.e-002	122.34
12368	3.3981	4.7273	0.	4964.1
12369	3.3057	4.6364	0.	5315.6
12370	3.3057	4.7273	5.e-002	88.169
12371	3.5829	4.7273	0.	4937.4
12372	3.4905	4.6364	0.	5189.6
12373	3.4905	4.7273	5.e-002	66.114
12374	3.7677	4.7273	0.	4923.9
12375	3.6753	4.6364	0.	5108.6
12376	3.6753	4.7273	5.e-002	51.3
12377	3.9524	4.7273	0.	4912.6
12378	3.8601	4.6364	0.	5051.1
12379	3.8601	4.7273	5.e-002	40.939
12380	4.1372	4.7273	0.	4897.8
12381	4.0448	4.6364	0.	5004.2
12382	4.0448	4.7273	5.e-002	33.292
12383	4.322	4.7273	0.	4877.1
12384	4.2296	4.6364	0.	4960.8
12385	4.2296	4.7273	5.e-002	27.466
12386	4.5068	4.7273	0.	4850.
12387	4.4144	4.6364	0.	4917.4
12388	4.4144	4.7273	5.e-002	22.968
12389	4.6915	4.7273	0.	4817.1
12390	4.5991	4.6364	0.	4872.5
12391	4.5991	4.7273	5.e-002	19.5
12392	4.8763	4.7273	0.	4779.2
12393	4.7839	4.6364	0.	4825.7
12394	4.7839	4.7273	5.e-002	16.859
12395	5.0611	4.7273	0.	4737.3
12396	4.9687	4.6364	0.	4777.2
12397	4.9687	4.7273	5.e-002	14.887
12398	5.2458	4.7273	0.	4692.2
12399	5.1534	4.6364	0.	4727.2
12400	5.1534	4.7273	5.e-002	13.45
12401	5.4306	4.7273	0.	4644.7
12402	5.3382	4.6364	0.	4676.1
12403	5.3382	4.7273	5.e-002	12.43
12404	5.6154	4.7273	0.	4595.6
12405	5.523	4.6364	0.	4624.2
12406	5.523	4.7273	5.e-002	11.723
12407	5.8001	4.7273	0.	4545.3
12408	5.7078	4.6364	0.	4571.8
12409	5.7078	4.7273	5.e-002	11.241
12410	5.9849	4.7273	0.	4494.1
12411	5.8925	4.6364	0.	4519.2
12412	5.8925	4.7273	5.e-002	10.913
12413	6.1697	4.7273	0.	4442.4
12414	6.0773	4.6364	0.	4466.4
12415	6.0773	4.7273	5.e-002	10.689
12416	6.3545	4.7273	0.	4390.3
12417	6.2621	4.6364	0.	4413.6
12418	6.2621	4.7273	5.e-002	10.531
12419	6.5392	4.7273	0.	4338.
12420	6.4468	4.6364	0.	4360.9
12421	6.4468	4.7273	5.e-002	10.413
12422	6.724	4.7273	0.	4285.7
12423	6.6316	4.6364	0.	4308.2
12424	6.6316	4.7273	5.e-002	10.321
12425	6.9088	4.7273	0.	4233.3
12426	6.8164	4.6364	0.	4255.7
12427	6.8164	4.7273	5.e-002	10.242
12428	7.0935	4.7273	0.	4181.
12429	7.0011	4.6364	0.	4203.3
12430	7.0011	4.7273	5.e-002	10.172
12431	7.2783	4.7273	0.	4128.7
12432	7.1859	4.6364	0.	4151.
12433	7.1859	4.7273	5.e-002	10.105
12434	7.4631	4.7273	0.	4076.4
12435	7.3707	4.6364	0.	4098.8
12436	7.3707	4.7273	5.e-002	10.041
12437	7.6478	4.7273	0.	4024.3
12438	7.5555	4.6364	0.	4046.7
12439	7.5555	4.7273	5.e-002	9.9775
12440	7.8326	4.7273	0.	3972.2
12441	7.7402	4.6364	0.	3994.8
12442	7.7402	4.7273	5.e-002	9.9144
12443	8.0174	4.7273	0.	3920.2
12444	7.925	4.6364	0.	3942.9
12445	7.925	4.7273	5.e-002	9.8517
12446	8.2022	4.7273	0.	3868.3
12447	8.1098	4.6364	0.	3891.1
12448	8.1098	4.7273	5.e-002	9.7894
12449	8.3869	4.7273	0.	3816.5
12450	8.2945	4.6364	0.	3839.5
12451	8.2945	4.7273	5.e-002	9.7277
12452	8.5717	4.7273	0.	3764.8
12453	8.4793	4.6364	0.	3787.9
12454	8.4793	4.7273	5.e-002	9.6667
12455	8.7565	4.7273	0.	3713.1
12456	8.6641	4.6364	0.	3736.4
12457	8.6641	4.7273	5.e-002	9.6065
12458	8.9412	4.7273	0.	3661.6
12459	8.8489	4.6364	0.	3685.
12460	8.8489	4.7273	5.e-002	9.5474
12461	9.126	4.7273	0.	3610.2
12462	9.0336	4.6364	0.	3633.7
12463	9.0336	4.7273	5.e-002	9.4894
12464	9.3108	4.7273	0.	3558.9
12465	9.2184	4.6364	0.	3582.4
12466	9.2184	4.7273	5.e-002	9.4326
12467	9.4955	4.7273	0.	3507.7
12468	9.4032	4.6364	0.	3531.3
12469	9.4032	4.7273	5.e-002	9.3771
12470	9.6803	4.7273	0.	3456.6
12471	9.5879	4.6364	0.	3480.3
12472	9.5879	4.7273	5.e-002	9.3227
12473	9.8651	4.7273	0.	3405.6
12474	9.7727	4.6364	0.	3429.3
12475	9.7727	4.7273	5.e-002	9.2696
12476	10.05	4.7273	0.	3354.7
12477	9.9575	4.6364	0.	3378.5
12478	9.9575	4.7273	5.e-002	9.2178
12479	10.235	4.7273	0.	3304.
12480	10.142	4.6364	0.	3327.8
12481	10.142	4.7273	5.e-002	9.167
12482	10.419	4.7273	0.	3253.3
12483	10.327	4.6364	0.	3277.2
12484	10.327	4.7273	5.e-002	9.1174
12485	10.604	4.7273	0.	3202.8
12486	10.512	4.6364	0.	3226.7
12487	10.512	4.7273	5.e-002	9.069
12488	10.789	4.7273	0.	3152.5
12489	10.697	4.6364	0.	3176.4
12490	10.697	4.7273	5.e-002	9.0216
12491	10.974	4.7273	0.	3102.3
12492	10.881	4.6364	0.	3126.2
12493	10.881	4.7273	5.e-002	8.9751
12494	11.158	4.7273	0.	3052.2
12495	11.066	4.6364	0.	3076.1
12496	11.066	4.7273	5.e-002	8.9295
12497	11.343	4.7273	0.	3002.3
12498	11.251	4.6364	0.	3026.1
12499	11.251	4.7273	5.e-002	8.8847
12500	11.528	4.7273	0.	2952.5
12501	11.436	4.6364	0.	2976.3
12502	11.436	4.7273	5.e-002	8.841
12503	11.713	4.7273	0.	2902.8
12504	11.62	4.6364	0.	2926.7
12505	11.62	4.7273	5.e-002	8.7981
12506	11.898	4.7273	0.	2853.4
12507	11.805	4.6364	0.	2877.2
12508	11.805	4.7273	5.e-002	8.7556
12509	12.082	4.7273	0.	2804.1
12510	11.99	4.6364	0.	2827.8
12511	11.99	4.7273	5.e-002	8.7138
12512	12.267	4.7273	0.	2754.9
12513	12.175	4.6364	0.	2778.6
12514	12.175	4.7273	5.e-002	8.6727
12515	12.452	4.7273	0.	2705.9
12516	12.359	4.6364	0.	2729.6
12517	12.359	4.7273	5.e-002	8.6323
12518	12.637	4.7273	0.	2657.1
12519	12.544	4.6364	0.	2680.7
12520	12.544	4.7273	5.e-002	8.5925
12521	12.821	4.7273	0.	2608.5
12522	12.729	4.6364	0.	2632.1
12523	12.729	4.7273	5.e-002	8.553
12524	13.006	4.7273	0.	2560.
12525	12.914	4.6364	0.	2583.5
12526	12.914	4.7273	5.e-002	8.5139
12527	13.191	4.7273	0.	2511.8
12528	13.099	4.6364	0.	2535.2
12529	13.099	4.7273	5.e-002	8.4754
12530	13.376	4.7273	0.	2463.6
12531	13.283	4.6364	0.	2487.
12532	13.283	4.7273	5.e-002	8.4374
12533	13.56	4.7273	0.	2415.7
12534	13.468	4.6364	0.	2439.
12535	13.468	4.7273	5.e-002	8.3998
12536	13.745	4.7273	0.	2368.
12537	13.653	4.6364	0.	2391.2
12538	13.653	4.7273	5.e-002	8.3624
12539	13.93	4.7273	0.	2320.4
12540	13.838	4.6364	0.	2343.6
12541	13.838	4.7273	5.e-002	8.3253
12542	14.115	4.7273	0.	2273.1
12543	14.022	4.6364	0.	2296.1
12544	14.022	4.7273	5.e-002	8.2887
12545	14.3	4.7273	0.	2225.9
12546	14.207	4.6364	0.	2248.9
12547	14.207	4.7273	5.e-002	8.2525
12548	14.484	4.7273	0.	2178.9
12549	14.392	4.6364	0.	2201.8
12550	14.392	4.7273	5.e-002	8.2166
12551	14.669	4.7273	0.	2132.1
12552	14.577	4.6364	0.	2154.9
12553	14.577	4.7273	5.e-002	8.1808
12554	14.854	4.7273	0.	2085.5
12555	14.761	4.6364	0.	2108.2
12556	14.761	4.7273	5.e-002	8.1454
12557	15.039	4.7273	0.	2039.1
12558	14.946	4.6364	0.	2061.8
12559	14.946	4.7273	5.e-002	8.1102
12560	15.223	4.7273	0.	1992.9
12561	15.131	4.6364	0.	2015.5
12562	15.131	4.7273	5.e-002	8.0755
12563	15.408	4.7273	0.	1946.9
12564	15.316	4.6364	0.	1969.4
12565	15.316	4.7273	5.e-002	8.041
12566	15.593	4.7273	0.	1901.1
12567	15.501	4.6364	0.	1923.5
12568	15.501	4.7273	5.e-002	8.0067
12569	15.778	4.7273	0.	1855.5
12570	15.685	4.6364	0.	1877.8
12571	15.685	4.7273	5.e-002	7.9727
12572	15.963	4.7273	0.	1810.1
12573	15.87	4.6364	0.	1832.3
12574	15.87	4.7273	5.e-002	7.939
12575	16.147	4.7273	0.	1764.9
12576	16.055	4.6364	0.	1787.
12577	16.055	4.7273	5.e-002	7.9057
12578	16.332	4.7273	0.	1719.9
12579	16.24	4.6364	0.	1741.9
12580	16.24	4.7273	5.e-002	7.8725
12581	16.517	4.7273	0.	1675.1
12582	16.424	4.6364	0.	1697.1
12583	16.424	4.7273	5.e-002	7.8397
12584	16.702	4.7273	0.	1630.6
12585	16.609	4.6364	0.	1652.4
12586	16.609	4.7273	5.e-002	7.8072
12587	16.886	4.7273	0.	1586.2
12588	16.794	4.6364	0.	1608.
12589	16.794	4.7273	5.e-002	7.7751
12590	17.071	4.7273	0.	1542.1
12591	16.979	4.6364	0.	1563.7
12592	16.979	4.7273	5.e-002	7.7434
12593	17.256	4.7273	0.	1498.1
12594	17.164	4.6364	0.	1519.7
12595	17.164	4.7273	5.e-002	7.7119
12596	17.441	4.7273	0.	1454.4
12597	17.348	4.6364	0.	1475.9
12598	17.348	4.7273	5.e-002	7.6808
12599	17.625	4.7273	0.	1410.9
12600	17.533	4.6364	0.	1432.3
12601	17.533	4.7273	5.e-002	7.6502
12602	17.81	4.7273	0.	1367.7
12603	17.718	4.6364	0.	1389.
12604	17.718	4.7273	5.e-002	7.6201
12605	17.995	4.7273	0.	1324.6
12606	17.903	4.6364	0.	1345.8
12607	17.903	4.7273	5.e-002	7.5904
12608	18.18	4.7273	0.	1281.8
12609	18.087	4.6364	0.	1302.9
12610	18.087	4.7273	5.e-002	7.5612
12611	18.365	4.7273	0.	1239.2
12612	18.272	4.6364	0.	1260.2
12613	18.272	4.7273	5.e-002	7.5325
12614	18.549	4.7273	0.	1196.8
12615	18.457	4.6364	0.	1217.8
12616	18.457	4.7273	5.e-002	7.5044
12617	18.734	4.7273	0.	1154.6
12618	18.642	4.6364	0.	1175.5
12619	18.642	4.7273	5.e-002	7.477
12620	18.919	4.7273	0.	1112.7
12621	18.826	4.6364	0.	1133.6
12622	18.826	4.7273	5.e-002	7.4502
12623	19.104	4.7273	0.	1071.1
12624	19.011	4.6364	0.	1091.8
12625	19.011	4.7273	5.e-002	7.4242
12626	19.288	4.7273	0.	1029.6
12627	19.196	4.6364	0.	1050.3
12628	19.196	4.7273	5.e-002	7.3989
12629	19.473	4.7273	0.	988.42
12630	19.381	4.6364	0.	1009.
12631	19.381	4.7273	5.e-002	7.3745
12632	19.658	4.7273	0.	947.47
12633	19.566	4.6364	0.	968.03
12634	19.566	4.7273	5.e-002	7.3511
12635	19.843	4.7273	0.	906.78
12636	19.75	4.6364	0.	927.28
12637	19.75	4.7273	5.e-002	7.3287
12638	20.027	4.7273	0.	866.34
12639	19.935	4.6364	0.	886.79
12640	19.935	4.7273	5.e-002	7.3074
12641	20.212	4.7273	0.	826.16
12642	20.12	4.6364	0.	846.57
12643	20.12	4.7273	5.e-002	7.2872
12644	20.397	4.7273	0.	786.26
12645	20.305	4.6364	0.	806.63
12646	20.305	4.7273	5.e-002	7.2685
12647	20.582	4.7273	0.	746.64
12648	20.489	4.6364	0.	766.97
12649	20.489	4.7273	5.e-002	7.2512
12650	20.767	4.7273	0.	707.3
12651	20.674	4.6364	0.	727.6
12652	20.674	4.7273	5.e-002	7.2355
12653	20.951	4.7273	0.	668.28
12654	20.859	4.6364	0.	688.55
12655	20.859	4.7273	5.e-002	7.2216
12656	21.136	4.7273	0.	629.57
12657	21.044	4.6364	0.	649.82
12658	21.044	4.7273	5.e-002	7.2096
12659	21.321	4.7273	0.	591.21
12660	21.228	4.6364	0.	611.44
12661	21.228	4.7273	5.e-002	7.1999
12662	21.506	4.7273	0.	553.22
12663	21.413	4.6364	0.	573.43
12664	21.413	4.7273	5.e-002	7.1927
12665	21.69	4.7273	0.	515.64
12666	21.598	4.6364	0.	535.82
12667	21.598	4.7273	5.e-002	7.1883
12668	21.875	4.7273	0.	478.51
12669	21.783	4.6364	0.	498.66
12670	21.783	4.7273	5.e-002	7.1872
12671	22.06	4.7273	0.	441.9
12672	21.968	4.6364	0.	462.
12673	21.968	4.7273	5.e-002	7.19
12674	22.245	4.7273	0.	405.88
12675	22.152	4.6364	0.	425.91
12676	22.152	4.7273	5.e-002	7.1974
12677	22.429	4.7273	0.	370.56
12678	22.337	4.6364	0.	390.49
12679	22.337	4.7273	5.e-002	7.2104
12680	22.614	4.7273	0.	336.09
12681	22.522	4.6364	0.	355.85
12682	22.522	4.7273	5.e-002	7.2304
12683	22.799	4.7273	0.	302.66
12684	22.707	4.6364	0.	322.16
12685	22.707	4.7273	5.e-002	7.2591
12686	22.984	4.7273	0.	270.53
12687	22.891	4.6364	0.	289.64
12688	22.891	4.7273	5.e-002	7.2989
12689	23.169	4.7273	0.	240.08
12690	23.076	4.6364	0.	258.6
12691	23.076	4.7273	5.e-002	7.353
12692	23.353	4.7273	0.	211.84
12693	23.261	4.6364	0.	229.49
12694	23.261	4.7273	5.e-002	7.4249
12695	23.538	4.7273	0.	186.58
12696	23.446	4.6364	0.	202.91
12697	23.446	4.7273	5.e-002	7.5182
12698	23.723	4.7273	0.	165.48
12699	23.63	4.6364	0.	179.8
12700	23.63	4.7273	5.e-002	7.6429
12701	23.815	4.6364	0.	161.58
12702	23.815	4.7273	5.e-002	7.9201
12703	23.908	4.7273	0.	149.97
12704	2.8438	4.5455	0.	6793.6
12705	2.7514	4.4545	0.	8476.8
12706	2.7514	4.5455	5.e-002	339.69
12707	2.6591	4.5455	0.	5965.6
12708	3.0286	4.5455	0.	6131.4
12709	2.9362	4.4545	0.	7089.6
12710	2.9362	4.5455	5.e-002	206.88
12711	3.2134	4.5455	0.	5764.4
12712	3.121	4.4545	0.	6391.
12713	3.121	4.5455	5.e-002	123.73
12714	3.3981	4.5455	0.	5513.3
12715	3.3057	4.4545	0.	5947.6
12716	3.3057	4.5455	5.e-002	87.364
12717	3.5829	4.5455	0.	5345.3
12718	3.4905	4.4545	0.	5653.8
12719	3.4905	4.5455	5.e-002	65.757
12720	3.7677	4.5455	0.	5227.3
12721	3.6753	4.4545	0.	5453.4
12722	3.6753	4.5455	5.e-002	52.559
12723	3.9524	4.5455	0.	5138.1
12724	3.8601	4.4545	0.	5307.6
12725	3.8601	4.5455	5.e-002	43.14
12726	4.1372	4.5455	0.	5064.7
12727	4.0448	4.4545	0.	5194.5
12728	4.0448	4.5455	5.e-002	36.023
12729	4.322	4.5455	0.	4999.8
12730	4.2296	4.4545	0.	5101.
12731	4.2296	4.5455	5.e-002	30.435
12732	4.5068	4.5455	0.	4939.2
12733	4.4144	4.4545	0.	5019.6
12734	4.4144	4.5455	5.e-002	25.991
12735	4.6915	4.5455	0.	4880.8
12736	4.5991	4.4545	0.	4945.8
12737	4.5991	4.5455	5.e-002	22.448
12738	4.8763	4.5455	0.	4823.6
12739	4.7839	4.4545	0.	4877.2
12740	4.7839	4.5455	5.e-002	19.635
12741	5.0611	4.5455	0.	4767.1
12742	4.9687	4.4545	0.	4812.2
12743	4.9687	4.5455	5.e-002	17.422
12744	5.2458	4.5455	0.	4711.1
12745	5.1534	4.4545	0.	4749.9
12746	5.1534	4.5455	5.e-002	15.7
12747	5.4306	4.5455	0.	4655.6
12748	5.3382	4.4545	0.	4689.6
12749	5.3382	4.5455	5.e-002	14.374
12750	5.6154	4.5455	0.	4600.5
12751	5.523	4.4545	0.	4631.
12752	5.523	4.5455	5.e-002	13.364
12753	5.8001	4.5455	0.	4545.8
12754	5.7078	4.4545	0.	4573.7
12755	5.7078	4.5455	5.e-002	12.599
12756	5.9849	4.5455	0.	4491.6
12757	5.8925	4.4545	0.	4517.6
12758	5.8925	4.5455	5.e-002	12.021
12759	6.1697	4.5455	0.	4437.7
12760	6.0773	4.4545	0.	4462.4
12761	6.0773	4.5455	5.e-002	11.581
12762	6.3545	4.5455	0.	4384.2
12763	6.2621	4.4545	0.	4407.9
12764	6.2621	4.5455	5.e-002	11.244
12765	6.5392	4.5455	0.	4331.1
12766	6.4468	4.4545	0.	4354.2
12767	6.4468	4.5455	5.e-002	10.98
12768	6.724	4.5455	0.	4278.2
12769	6.6316	4.4545	0.	4300.9
12770	6.6316	4.5455	5.e-002	10.77
12771	6.9088	4.5455	0.	4225.6
12772	6.8164	4.4545	0.	4248.1
12773	6.8164	4.5455	5.e-002	10.597
12774	7.0935	4.5455	0.	4173.3
12775	7.0011	4.4545	0.	4195.6
12776	7.0011	4.5455	5.e-002	10.452
12777	7.2783	4.5455	0.	4121.1
12778	7.1859	4.4545	0.	4143.4
12779	7.1859	4.5455	5.e-002	10.326
12780	7.4631	4.5455	0.	4069.1
12781	7.3707	4.4545	0.	4091.5
12782	7.3707	4.5455	5.e-002	10.216
12783	7.6478	4.5455	0.	4017.2
12784	7.5555	4.4545	0.	4039.7
12785	7.5555	4.5455	5.e-002	10.116
12786	7.8326	4.5455	0.	3965.5
12787	7.7402	4.4545	0.	3988.1
12788	7.7402	4.5455	5.e-002	10.024
12789	8.0174	4.5455	0.	3913.9
12790	7.925	4.4545	0.	3936.6
12791	7.925	4.5455	5.e-002	9.9389
12792	8.2022	4.5455	0.	3862.3
12793	8.1098	4.4545	0.	3885.2
12794	8.1098	4.5455	5.e-002	9.859
12795	8.3869	4.5455	0.	3810.9
12796	8.2945	4.4545	0.	3833.8
12797	8.2945	4.5455	5.e-002	9.7835
12798	8.5717	4.5455	0.	3759.5
12799	8.4793	4.4545	0.	3782.6
12800	8.4793	4.5455	5.e-002	9.7116
12801	8.7565	4.5455	0.	3708.2
12802	8.6641	4.4545	0.	3731.5
12803	8.6641	4.5455	5.e-002	9.643
12804	8.9412	4.5455	0.	3657.
12805	8.8489	4.4545	0.	3680.4
12806	8.8489	4.5455	5.e-002	9.5772
12807	9.126	4.5455	0.	3605.9
12808	9.0336	4.4545	0.	3629.4
12809	9.0336	4.5455	5.e-002	9.5139
12810	9.3108	4.5455	0.	3554.9
12811	9.2184	4.4545	0.	3578.4
12812	9.2184	4.5455	5.e-002	9.4529
12813	9.4955	4.5455	0.	3503.9
12814	9.4032	4.4545	0.	3527.6
12815	9.4032	4.5455	5.e-002	9.394
12816	9.6803	4.5455	0.	3453.1
12817	9.5879	4.4545	0.	3476.8
12818	9.5879	4.5455	5.e-002	9.337
12819	9.8651	4.5455	0.	3402.3
12820	9.7727	4.4545	0.	3426.1
12821	9.7727	4.5455	5.e-002	9.2817
12822	10.05	4.5455	0.	3351.6
12823	9.9575	4.4545	0.	3375.5
12824	9.9575	4.5455	5.e-002	9.2282
12825	10.235	4.5455	0.	3301.1
12826	10.142	4.4545	0.	3324.9
12827	10.142	4.5455	5.e-002	9.1761
12828	10.419	4.5455	0.	3250.6
12829	10.327	4.4545	0.	3274.5
12830	10.327	4.5455	5.e-002	9.1252
12831	10.604	4.5455	0.	3200.3
12832	10.512	4.4545	0.	3224.2
12833	10.512	4.5455	5.e-002	9.0759
12834	10.789	4.5455	0.	3150.1
12835	10.697	4.4545	0.	3174.
12836	10.697	4.5455	5.e-002	9.0278
12837	10.974	4.5455	0.	3100.
12838	10.881	4.4545	0.	3123.9
12839	10.881	4.5455	5.e-002	8.9806
12840	11.158	4.5455	0.	3050.1
12841	11.066	4.4545	0.	3074.
12842	11.066	4.5455	5.e-002	8.9344
12843	11.343	4.5455	0.	3000.2
12844	11.251	4.4545	0.	3024.2
12845	11.251	4.5455	5.e-002	8.8892
12846	11.528	4.5455	0.	2950.6
12847	11.436	4.4545	0.	2974.5
12848	11.436	4.5455	5.e-002	8.845
12849	11.713	4.5455	0.	2901.
12850	11.62	4.4545	0.	2924.9
12851	11.62	4.5455	5.e-002	8.8017
12852	11.898	4.5455	0.	2851.7
12853	11.805	4.4545	0.	2875.5
12854	11.805	4.5455	5.e-002	8.759
12855	12.082	4.5455	0.	2802.4
12856	11.99	4.4545	0.	2826.2
12857	11.99	4.5455	5.e-002	8.7169
12858	12.267	4.5455	0.	2753.4
12859	12.175	4.4545	0.	2777.1
12860	12.175	4.5455	5.e-002	8.6755
12861	12.452	4.5455	0.	2704.4
12862	12.359	4.4545	0.	2728.2
12863	12.359	4.5455	5.e-002	8.6349
12864	12.637	4.5455	0.	2655.7
12865	12.544	4.4545	0.	2679.4
12866	12.544	4.5455	5.e-002	8.5949
12867	12.821	4.5455	0.	2607.1
12868	12.729	4.4545	0.	2630.7
12869	12.729	4.5455	5.e-002	8.5552
12870	13.006	4.5455	0.	2558.7
12871	12.914	4.4545	0.	2582.3
12872	12.914	4.5455	5.e-002	8.516
12873	13.191	4.5455	0.	2510.5
12874	13.099	4.4545	0.	2534.
12875	13.099	4.5455	5.e-002	8.4773
12876	13.376	4.5455	0.	2462.4
12877	13.283	4.4545	0.	2485.8
12878	13.283	4.5455	5.e-002	8.4392
12879	13.56	4.5455	0.	2414.5
12880	13.468	4.4545	0.	2437.9
12881	13.468	4.5455	5.e-002	8.4015
12882	13.745	4.5455	0.	2366.8
12883	13.653	4.4545	0.	2390.1
12884	13.653	4.5455	5.e-002	8.364
12885	13.93	4.5455	0.	2319.3
12886	13.838	4.4545	0.	2342.5
12887	13.838	4.5455	5.e-002	8.3268
12888	14.115	4.5455	0.	2272.
12889	14.022	4.4545	0.	2295.1
12890	14.022	4.5455	5.e-002	8.2901
12891	14.3	4.5455	0.	2224.8
12892	14.207	4.4545	0.	2247.9
12893	14.207	4.5455	5.e-002	8.2538
12894	14.484	4.5455	0.	2177.9
12895	14.392	4.4545	0.	2200.8
12896	14.392	4.5455	5.e-002	8.2178
12897	14.669	4.5455	0.	2131.1
12898	14.577	4.4545	0.	2154.
12899	14.577	4.5455	5.e-002	8.182
12900	14.854	4.5455	0.	2084.5
12901	14.761	4.4545	0.	2107.3
12902	14.761	4.5455	5.e-002	8.1465
12903	15.039	4.5455	0.	2038.2
12904	14.946	4.4545	0.	2060.9
12905	14.946	4.5455	5.e-002	8.1113
12906	15.223	4.5455	0.	1992.
12907	15.131	4.4545	0.	2014.6
12908	15.131	4.5455	5.e-002	8.0766
12909	15.408	4.5455	0.	1946.
12910	15.316	4.4545	0.	1968.5
12911	15.316	4.5455	5.e-002	8.0421
12912	15.593	4.5455	0.	1900.2
12913	15.501	4.4545	0.	1922.7
12914	15.501	4.5455	5.e-002	8.0078
12915	15.778	4.5455	0.	1854.6
12916	15.685	4.4545	0.	1877.
12917	15.685	4.5455	5.e-002	7.9737
12918	15.963	4.5455	0.	1809.3
12919	15.87	4.4545	0.	1831.5
12920	15.87	4.5455	5.e-002	7.94
12921	16.147	4.5455	0.	1764.1
12922	16.055	4.4545	0.	1786.3
12923	16.055	4.5455	5.e-002	7.9067
12924	16.332	4.5455	0.	1719.1
12925	16.24	4.4545	0.	1741.2
12926	16.24	4.5455	5.e-002	7.8736
12927	16.517	4.5455	0.	1674.4
12928	16.424	4.4545	0.	1696.4
12929	16.424	4.5455	5.e-002	7.8407
12930	16.702	4.5455	0.	1629.9
12931	16.609	4.4545	0.	1651.7
12932	16.609	4.5455	5.e-002	7.8082
12933	16.886	4.5455	0.	1585.5
12934	16.794	4.4545	0.	1607.3
12935	16.794	4.5455	5.e-002	7.7762
12936	17.071	4.5455	0.	1541.4
12937	16.979	4.4545	0.	1563.1
12938	16.979	4.5455	5.e-002	7.7445
12939	17.256	4.5455	0.	1497.5
12940	17.164	4.4545	0.	1519.1
12941	17.164	4.5455	5.e-002	7.7131
12942	17.441	4.5455	0.	1453.9
12943	17.348	4.4545	0.	1475.4
12944	17.348	4.5455	5.e-002	7.6821
12945	17.625	4.5455	0.	1410.4
12946	17.533	4.4545	0.	1431.8
12947	17.533	4.5455	5.e-002	7.6515
12948	17.81	4.5455	0.	1367.2
12949	17.718	4.4545	0.	1388.5
12950	17.718	4.5455	5.e-002	7.6214
12951	17.995	4.5455	0.	1324.2
12952	17.903	4.4545	0.	1345.4
12953	17.903	4.5455	5.e-002	7.5919
12954	18.18	4.5455	0.	1281.4
12955	18.087	4.4545	0.	1302.6
12956	18.087	4.5455	5.e-002	7.5627
12957	18.365	4.5455	0.	1238.9
12958	18.272	4.4545	0.	1259.9
12959	18.272	4.5455	5.e-002	7.5341
12960	18.549	4.5455	0.	1196.6
12961	18.457	4.4545	0.	1217.6
12962	18.457	4.5455	5.e-002	7.5061
12963	18.734	4.5455	0.	1154.5
12964	18.642	4.4545	0.	1175.4
12965	18.642	4.5455	5.e-002	7.4789
12966	18.919	4.5455	0.	1112.7
12967	18.826	4.4545	0.	1133.5
12968	18.826	4.5455	5.e-002	7.4523
12969	19.104	4.5455	0.	1071.1
12970	19.011	4.4545	0.	1091.8
12971	19.011	4.5455	5.e-002	7.4264
12972	19.288	4.5455	0.	1029.8
12973	19.196	4.4545	0.	1050.4
12974	19.196	4.5455	5.e-002	7.4014
12975	19.473	4.5455	0.	988.72
12976	19.381	4.4545	0.	1009.3
12977	19.381	4.5455	5.e-002	7.3772
12978	19.658	4.5455	0.	947.91
12979	19.566	4.4545	0.	968.42
12980	19.566	4.5455	5.e-002	7.3541
12981	19.843	4.5455	0.	907.36
12982	19.75	4.4545	0.	927.81
12983	19.75	4.5455	5.e-002	7.332
12984	20.027	4.5455	0.	867.09
12985	19.935	4.4545	0.	887.48
12986	19.935	4.5455	5.e-002	7.3111
12987	20.212	4.5455	0.	827.1
12988	20.12	4.4545	0.	847.43
12989	20.12	4.5455	5.e-002	7.2914
12990	20.397	4.5455	0.	787.4
12991	20.305	4.4545	0.	807.67
12992	20.305	4.5455	5.e-002	7.2732
12993	20.582	4.5455	0.	748.
12994	20.489	4.4545	0.	768.22
12995	20.489	4.5455	5.e-002	7.2565
12996	20.767	4.5455	0.	708.92
12997	20.674	4.4545	0.	729.08
12998	20.674	4.5455	5.e-002	7.2416
12999	20.951	4.5455	0.	670.16
13000	20.859	4.4545	0.	690.28
13001	20.859	4.5455	5.e-002	7.2285
13002	21.136	4.5455	0.	631.75
13003	21.044	4.4545	0.	651.83
13004	21.044	4.5455	5.e-002	7.2175
13005	21.321	4.5455	0.	593.72
13006	21.228	4.4545	0.	613.75
13007	21.228	4.5455	5.e-002	7.209
13008	21.506	4.5455	0.	556.09
13009	21.413	4.4545	0.	576.07
13010	21.413	4.5455	5.e-002	7.2033
13011	21.69	4.5455	0.	518.91
13012	21.598	4.4545	0.	538.82
13013	21.598	4.5455	5.e-002	7.2006
13014	21.875	4.5455	0.	482.21
13015	21.783	4.4545	0.	502.05
13016	21.783	4.5455	5.e-002	7.2015
13017	22.06	4.5455	0.	446.06
13018	21.968	4.4545	0.	465.82
13019	21.968	4.5455	5.e-002	7.2066
13020	22.245	4.5455	0.	410.55
13021	22.152	4.4545	0.	430.18
13022	22.152	4.5455	5.e-002	7.2167
13023	22.429	4.5455	0.	375.78
13024	22.337	4.4545	0.	395.24
13025	22.337	4.5455	5.e-002	7.2328
13026	22.614	4.5455	0.	341.88
13027	22.522	4.4545	0.	361.12
13028	22.522	4.5455	5.e-002	7.2561
13029	22.799	4.5455	0.	309.05
13030	22.707	4.4545	0.	327.97
13031	22.707	4.5455	5.e-002	7.2883
13032	22.984	4.5455	0.	277.54
13033	22.891	4.4545	0.	296.
13034	22.891	4.5455	5.e-002	7.3313
13035	23.169	4.5455	0.	247.71
13036	23.076	4.4545	0.	265.52
13037	23.076	4.5455	5.e-002	7.3874
13038	23.353	4.5455	0.	220.06
13039	23.261	4.4545	0.	236.95
13040	23.261	4.5455	5.e-002	7.4591
13041	23.538	4.5455	0.	195.34
13042	23.446	4.4545	0.	210.88
13043	23.446	4.5455	5.e-002	7.5486
13044	23.723	4.5455	0.	174.67
13045	23.63	4.4545	0.	188.22
13046	23.63	4.5455	5.e-002	7.6628
13047	23.815	4.4545	0.	170.27
13048	23.815	4.5455	5.e-002	7.9008
13049	23.908	4.5455	0.	159.55
13050	2.8438	4.3636	0.	8529.2
13051	2.7514	4.2727	0.	11181
13052	2.7514	4.3636	5.e-002	519.76
13053	2.6591	4.3636	0.	7683.3
13054	3.0286	4.3636	0.	7267.1
13055	2.9362	4.2727	0.	8496.5
13056	2.9362	4.3636	5.e-002	206.34
13057	3.2134	4.3636	0.	6532.7
13058	3.121	4.2727	0.	7261.9
13059	3.121	4.3636	5.e-002	129.2
13060	3.3981	4.3636	0.	6065.8
13061	3.3057	4.2727	0.	6564.7
13062	3.3057	4.3636	5.e-002	92.349
13063	3.5829	4.3636	0.	5749.4
13064	3.4905	4.2727	0.	6104.9
13065	3.4905	4.3636	5.e-002	71.421
13066	3.7677	4.3636	0.	5526.6
13067	3.6753	4.2727	0.	5788.2
13068	3.6753	4.3636	5.e-002	58.252
13069	3.9524	4.3636	0.	5360.
13070	3.8601	4.2727	0.	5556.6
13071	3.8601	4.3636	5.e-002	48.332
13072	4.1372	4.3636	0.	5228.6
13073	4.0448	4.2727	0.	5379.
13074	4.0448	4.3636	5.e-002	40.647
13075	4.322	4.3636	0.	5119.6
13076	4.2296	4.2727	0.	5236.6
13077	4.2296	4.3636	5.e-002	34.543
13078	4.5068	4.3636	0.	5025.7
13079	4.4144	4.2727	0.	5118.
13080	4.4144	4.3636	5.e-002	29.634
13081	4.6915	4.3636	0.	4942.1
13082	4.5991	4.2727	0.	5016.
13083	4.5991	4.3636	5.e-002	25.666
13084	4.8763	4.3636	0.	4865.8
13085	4.7839	4.2727	0.	4926.
13086	4.7839	4.3636	5.e-002	22.459
13087	5.0611	4.3636	0.	4795.
13088	4.9687	4.2727	0.	4845.
13089	4.9687	4.3636	5.e-002	19.876
13090	5.2458	4.3636	0.	4728.4
13091	5.1534	4.2727	0.	4770.7
13092	5.1534	4.3636	5.e-002	17.807
13093	5.4306	4.3636	0.	4665.
13094	5.3382	4.2727	0.	4701.6
13095	5.3382	4.3636	5.e-002	16.161
13096	5.6154	4.3636	0.	4604.3
13097	5.523	4.2727	0.	4636.6
13098	5.523	4.3636	5.e-002	14.86
13099	5.8001	4.3636	0.	4545.5
13100	5.7078	4.2727	0.	4574.7
13101	5.7078	4.3636	5.e-002	13.836
13102	5.9849	4.3636	0.	4488.4
13103	5.8925	4.2727	0.	4515.3
13104	5.8925	4.3636	5.e-002	13.032
13105	6.1697	4.3636	0.	4432.6
13106	6.0773	4.2727	0.	4457.9
13107	6.0773	4.3636	5.e-002	12.401
13108	6.3545	4.3636	0.	4377.9
13109	6.2621	4.2727	0.	4402.1
13110	6.2621	4.3636	5.e-002	11.903
13111	6.5392	4.3636	0.	4324.
13112	6.4468	4.2727	0.	4347.4
13113	6.4468	4.3636	5.e-002	11.508
13114	6.724	4.3636	0.	4270.8
13115	6.6316	4.2727	0.	4293.7
13116	6.6316	4.3636	5.e-002	11.19
13117	6.9088	4.3636	0.	4218.1
13118	6.8164	4.2727	0.	4240.7
13119	6.8164	4.3636	5.e-002	10.931
13120	7.0935	4.3636	0.	4165.8
13121	7.0011	4.2727	0.	4188.2
13122	7.0011	4.3636	5.e-002	10.717
13123	7.2783	4.3636	0.	4113.8
13124	7.1859	4.2727	0.	4136.2
13125	7.1859	4.3636	5.e-002	10.536
13126	7.4631	4.3636	0.	4062.1
13127	7.3707	4.2727	0.	4084.5
13128	7.3707	4.3636	5.e-002	10.382
13129	7.6478	4.3636	0.	4010.5
13130	7.5555	4.2727	0.	4033.
13131	7.5555	4.3636	5.e-002	10.248
13132	7.8326	4.3636	0.	3959.1
13133	7.7402	4.2727	0.	3981.7
13134	7.7402	4.3636	5.e-002	10.129
13135	8.0174	4.3636	0.	3907.9
13136	7.925	4.2727	0.	3930.6
13137	7.925	4.3636	5.e-002	10.022
13138	8.2022	4.3636	0.	3856.7
13139	8.1098	4.2727	0.	3879.6
13140	8.1098	4.3636	5.e-002	9.9257
13141	8.3869	4.3636	0.	3805.6
13142	8.2945	4.2727	0.	3828.6
13143	8.2945	4.3636	5.e-002	9.837
13144	8.5717	4.3636	0.	3754.6
13145	8.4793	4.2727	0.	3777.7
13146	8.4793	4.3636	5.e-002	9.7547
13147	8.7565	4.3636	0.	3703.6
13148	8.6641	4.2727	0.	3726.9
13149	8.6641	4.3636	5.e-002	9.6778
13150	8.9412	4.3636	0.	3652.7
13151	8.8489	4.2727	0.	3676.1
13152	8.8489	4.3636	5.e-002	9.6055
13153	9.126	4.3636	0.	3601.9
13154	9.0336	4.2727	0.	3625.4
13155	9.0336	4.3636	5.e-002	9.5371
13156	9.3108	4.3636	0.	3551.1
13157	9.2184	4.2727	0.	3574.8
13158	9.2184	4.3636	5.e-002	9.4721
13159	9.4955	4.3636	0.	3500.4
13160	9.4032	4.2727	0.	3524.1
13161	9.4032	4.3636	5.e-002	9.4099
13162	9.6803	4.3636	0.	3449.8
13163	9.5879	4.2727	0.	3473.6
13164	9.5879	4.3636	5.e-002	9.3503
13165	9.8651	4.3636	0.	3399.3
13166	9.7727	4.2727	0.	3423.1
13167	9.7727	4.3636	5.e-002	9.293
13168	10.05	4.3636	0.	3348.8
13169	9.9575	4.2727	0.	3372.7
13170	9.9575	4.3636	5.e-002	9.2378
13171	10.235	4.3636	0.	3298.4
13172	10.142	4.2727	0.	3322.4
13173	10.142	4.3636	5.e-002	9.1844
13174	10.419	4.3636	0.	3248.2
13175	10.327	4.2727	0.	3272.1
13176	10.327	4.3636	5.e-002	9.1324
13177	10.604	4.3636	0.	3198.
13178	10.512	4.2727	0.	3222.
13179	10.512	4.3636	5.e-002	9.0822
13180	10.789	4.3636	0.	3147.9
13181	10.697	4.2727	0.	3171.9
13182	10.697	4.3636	5.e-002	9.0334
13183	10.974	4.3636	0.	3098.
13184	10.881	4.2727	0.	3121.9
13185	10.881	4.3636	5.e-002	8.9856
13186	11.158	4.3636	0.	3048.1
13187	11.066	4.2727	0.	3072.1
13188	11.066	4.3636	5.e-002	8.9388
13189	11.343	4.3636	0.	2998.4
13190	11.251	4.2727	0.	3022.4
13191	11.251	4.3636	5.e-002	8.8932
13192	11.528	4.3636	0.	2948.8
13193	11.436	4.2727	0.	2972.8
13194	11.436	4.3636	5.e-002	8.8487
13195	11.713	4.3636	0.	2899.4
13196	11.62	4.2727	0.	2923.3
13197	11.62	4.3636	5.e-002	8.805
13198	11.898	4.3636	0.	2850.1
13199	11.805	4.2727	0.	2874.
13200	11.805	4.3636	5.e-002	8.762
13201	12.082	4.3636	0.	2801.
13202	11.99	4.2727	0.	2824.8
13203	11.99	4.3636	5.e-002	8.7197
13204	12.267	4.3636	0.	2752.
13205	12.175	4.2727	0.	2775.8
13206	12.175	4.3636	5.e-002	8.6781
13207	12.452	4.3636	0.	2703.1
13208	12.359	4.2727	0.	2726.9
13209	12.359	4.3636	5.e-002	8.6373
13210	12.637	4.3636	0.	2654.4
13211	12.544	4.2727	0.	2678.1
13212	12.544	4.3636	5.e-002	8.5971
13213	12.821	4.3636	0.	2605.9
13214	12.729	4.2727	0.	2629.5
13215	12.729	4.3636	5.e-002	8.5572
13216	13.006	4.3636	0.	2557.5
13217	12.914	4.2727	0.	2581.1
13218	12.914	4.3636	5.e-002	8.5179
13219	13.191	4.3636	0.	2509.3
13220	13.099	4.2727	0.	2532.9
13221	13.099	4.3636	5.e-002	8.479
13222	13.376	4.3636	0.	2461.3
13223	13.283	4.2727	0.	2484.8
13224	13.283	4.3636	5.e-002	8.4408
13225	13.56	4.3636	0.	2413.5
13226	13.468	4.2727	0.	2436.9
13227	13.468	4.3636	5.e-002	8.403
13228	13.745	4.3636	0.	2365.8
13229	13.653	4.2727	0.	2389.1
13230	13.653	4.3636	5.e-002	8.3654
13231	13.93	4.3636	0.	2318.3
13232	13.838	4.2727	0.	2341.6
13233	13.838	4.3636	5.e-002	8.3282
13234	14.115	4.3636	0.	2271.
13235	14.022	4.2727	0.	2294.2
13236	14.022	4.3636	5.e-002	8.2913
13237	14.3	4.3636	0.	2223.9
13238	14.207	4.2727	0.	2247.
13239	14.207	4.3636	5.e-002	8.255
13240	14.484	4.3636	0.	2177.
13241	14.392	4.2727	0.	2200.
13242	14.392	4.3636	5.e-002	8.219
13243	14.669	4.3636	0.	2130.2
13244	14.577	4.2727	0.	2153.1
13245	14.577	4.3636	5.e-002	8.1831
13246	14.854	4.3636	0.	2083.7
13247	14.761	4.2727	0.	2106.5
13248	14.761	4.3636	5.e-002	8.1475
13249	15.039	4.3636	0.	2037.3
13250	14.946	4.2727	0.	2060.1
13251	14.946	4.3636	5.e-002	8.1123
13252	15.223	4.3636	0.	1991.2
13253	15.131	4.2727	0.	2013.8
13254	15.131	4.3636	5.e-002	8.0775
13255	15.408	4.3636	0.	1945.2
13256	15.316	4.2727	0.	1967.8
13257	15.316	4.3636	5.e-002	8.043
13258	15.593	4.3636	0.	1899.5
13259	15.501	4.2727	0.	1921.9
13260	15.501	4.3636	5.e-002	8.0087
13261	15.778	4.3636	0.	1853.9
13262	15.685	4.2727	0.	1876.3
13263	15.685	4.3636	5.e-002	7.9746
13264	15.963	4.3636	0.	1808.6
13265	15.87	4.2727	0.	1830.8
13266	15.87	4.3636	5.e-002	7.9409
13267	16.147	4.3636	0.	1763.4
13268	16.055	4.2727	0.	1785.6
13269	16.055	4.3636	5.e-002	7.9076
13270	16.332	4.3636	0.	1718.5
13271	16.24	4.2727	0.	1740.6
13272	16.24	4.3636	5.e-002	7.8745
13273	16.517	4.3636	0.	1673.8
13274	16.424	4.2727	0.	1695.8
13275	16.424	4.3636	5.e-002	7.8416
13276	16.702	4.3636	0.	1629.2
13277	16.609	4.2727	0.	1651.1
13278	16.609	4.3636	5.e-002	7.8092
13279	16.886	4.3636	0.	1584.9
13280	16.794	4.2727	0.	1606.8
13281	16.794	4.3636	5.e-002	7.7772
13282	17.071	4.3636	0.	1540.9
13283	16.979	4.2727	0.	1562.6
13284	16.979	4.3636	5.e-002	7.7455
13285	17.256	4.3636	0.	1497.
13286	17.164	4.2727	0.	1518.6
13287	17.164	4.3636	5.e-002	7.7141
13288	17.441	4.3636	0.	1453.4
13289	17.348	4.2727	0.	1474.9
13290	17.348	4.3636	5.e-002	7.6831
13291	17.625	4.3636	0.	1410.
13292	17.533	4.2727	0.	1431.4
13293	17.533	4.3636	5.e-002	7.6526
13294	17.81	4.3636	0.	1366.8
13295	17.718	4.2727	0.	1388.1
13296	17.718	4.3636	5.e-002	7.6226
13297	17.995	4.3636	0.	1323.9
13298	17.903	4.2727	0.	1345.1
13299	17.903	4.3636	5.e-002	7.5931
13300	18.18	4.3636	0.	1281.1
13301	18.087	4.2727	0.	1302.3
13302	18.087	4.3636	5.e-002	7.5641
13303	18.365	4.3636	0.	1238.7
13304	18.272	4.2727	0.	1259.7
13305	18.272	4.3636	5.e-002	7.5356
13306	18.549	4.3636	0.	1196.4
13307	18.457	4.2727	0.	1217.4
13308	18.457	4.3636	5.e-002	7.5077
13309	18.734	4.3636	0.	1154.5
13310	18.642	4.2727	0.	1175.3
13311	18.642	4.3636	5.e-002	7.4806
13312	18.919	4.3636	0.	1112.7
13313	18.826	4.2727	0.	1133.5
13314	18.826	4.3636	5.e-002	7.4542
13315	19.104	4.3636	0.	1071.2
13316	19.011	4.2727	0.	1091.9
13317	19.011	4.3636	5.e-002	7.4285
13318	19.288	4.3636	0.	1030.
13319	19.196	4.2727	0.	1050.6
13320	19.196	4.3636	5.e-002	7.4036
13321	19.473	4.3636	0.	989.07
13322	19.381	4.2727	0.	1009.6
13323	19.381	4.3636	5.e-002	7.3796
13324	19.658	4.3636	0.	948.39
13325	19.566	4.2727	0.	968.85
13326	19.566	4.3636	5.e-002	7.3568
13327	19.843	4.3636	0.	907.99
13328	19.75	4.2727	0.	928.37
13329	19.75	4.3636	5.e-002	7.335
13330	20.027	4.3636	0.	867.87
13331	19.935	4.2727	0.	888.18
13332	19.935	4.3636	5.e-002	7.3144
13333	20.212	4.3636	0.	828.06
13334	20.12	4.2727	0.	848.29
13335	20.12	4.3636	5.e-002	7.2952
13336	20.397	4.3636	0.	788.55
13337	20.305	4.2727	0.	808.7
13338	20.305	4.3636	5.e-002	7.2774
13339	20.582	4.3636	0.	749.36
13340	20.489	4.2727	0.	769.45
13341	20.489	4.3636	5.e-002	7.2613
13342	20.767	4.3636	0.	710.51
13343	20.674	4.2727	0.	730.52
13344	20.674	4.3636	5.e-002	7.2471
13345	20.951	4.3636	0.	672.
13346	20.859	4.2727	0.	691.95
13347	20.859	4.3636	5.e-002	7.2348
13348	21.136	4.3636	0.	633.88
13349	21.044	4.2727	0.	653.75
13350	21.044	4.3636	5.e-002	7.2248
13351	21.321	4.3636	0.	596.14
13352	21.228	4.2727	0.	615.94
13353	21.228	4.3636	5.e-002	7.2174
13354	21.506	4.3636	0.	558.84
13355	21.413	4.2727	0.	578.56
13356	21.413	4.3636	5.e-002	7.213
13357	21.69	4.3636	0.	522.01
13358	21.598	4.2727	0.	541.64
13359	21.598	4.3636	5.e-002	7.2119
13360	21.875	4.3636	0.	485.7
13361	21.783	4.2727	0.	505.21
13362	21.783	4.3636	5.e-002	7.2146
13363	22.06	4.3636	0.	449.96
13364	21.968	4.2727	0.	469.34
13365	21.968	4.3636	5.e-002	7.2219
13366	22.245	4.3636	0.	414.88
13367	22.152	4.2727	0.	434.1
13368	22.152	4.3636	5.e-002	7.2344
13369	22.429	4.3636	0.	380.56
13370	22.337	4.2727	0.	399.57
13371	22.337	4.3636	5.e-002	7.2531
13372	22.614	4.3636	0.	347.14
13373	22.522	4.2727	0.	365.87
13374	22.522	4.3636	5.e-002	7.2791
13375	22.799	4.3636	0.	314.79
13376	22.707	4.2727	0.	333.16
13377	22.707	4.3636	5.e-002	7.3139
13378	22.984	4.3636	0.	283.77
13379	22.891	4.2727	0.	301.63
13380	22.891	4.3636	5.e-002	7.3589
13381	23.169	4.3636	0.	254.42
13382	23.076	4.2727	0.	271.59
13383	23.076	4.3636	5.e-002	7.416
13384	23.353	4.3636	0.	227.24
13385	23.261	4.2727	0.	243.44
13386	23.261	4.3636	5.e-002	7.4867
13387	23.538	4.3636	0.	202.94
13388	23.446	4.2727	0.	217.77
13389	23.446	4.3636	5.e-002	7.5722
13390	23.723	4.3636	0.	182.6
13391	23.63	4.2727	0.	195.46
13392	23.63	4.3636	5.e-002	7.6775
13393	23.815	4.2727	0.	177.73
13394	23.815	4.3636	5.e-002	7.8818
13395	23.908	4.3636	0.	167.8
13396	2.8438	4.1818	0.	10933
13397	2.7514	4.0909	0.	14000
13398	2.7514	4.1818	5.e-002	950.62
13399	2.6591	4.1818	0.	11124
13400	3.0286	4.1818	0.	8436.7
13401	2.9362	4.0909	0.	9732.3
13402	2.9362	4.1818	5.e-002	321.79
13403	3.2134	4.1818	0.	7270.
13404	3.121	4.0909	0.	8073.9
13405	3.121	4.1818	5.e-002	148.85
13406	3.3981	4.1818	0.	6589.1
13407	3.3057	4.0909	0.	7140.7
13408	3.3057	4.1818	5.e-002	107.86
13409	3.5829	4.1818	0.	6134.8
13410	3.4905	4.0909	0.	6529.7
13411	3.4905	4.1818	5.e-002	84.111
13412	3.7677	4.1818	0.	5812.9
13413	3.6753	4.0909	0.	6105.1
13414	3.6753	4.1818	5.e-002	67.433
13415	3.9524	4.1818	0.	5572.6
13416	3.8601	4.0909	0.	5792.9
13417	3.8601	4.1818	5.e-002	55.446
13418	4.1372	4.1818	0.	5385.4
13419	4.0448	4.0909	0.	5554.1
13420	4.0448	4.1818	5.e-002	46.326
13421	4.322	4.1818	0.	5234.1
13422	4.2296	4.0909	0.	5364.9
13423	4.2296	4.1818	5.e-002	39.189
13424	4.5068	4.1818	0.	5107.9
13425	4.4144	4.0909	0.	5210.7
13426	4.4144	4.1818	5.e-002	33.491
13427	4.6915	4.1818	0.	4999.9
13428	4.5991	4.0909	0.	5081.7
13429	4.5991	4.1818	5.e-002	28.895
13430	4.8763	4.1818	0.	4905.2
13431	4.7839	4.0909	0.	4971.4
13432	4.7839	4.1818	5.e-002	25.173
13433	5.0611	4.1818	0.	4820.7
13434	4.9687	4.0909	0.	4875.1
13435	4.9687	4.1818	5.e-002	22.157
13436	5.2458	4.1818	0.	4744.
13437	5.1534	4.0909	0.	4789.5
13438	5.1534	4.1818	5.e-002	19.72
13439	5.4306	4.1818	0.	4673.2
13440	5.3382	4.0909	0.	4712.1
13441	5.3382	4.1818	5.e-002	17.758
13442	5.6154	4.1818	0.	4607.1
13443	5.523	4.0909	0.	4641.1
13444	5.523	4.1818	5.e-002	16.185
13445	5.8001	4.1818	0.	4544.6
13446	5.7078	4.0909	0.	4575.
13447	5.7078	4.1818	5.e-002	14.928
13448	5.9849	4.1818	0.	4484.9
13449	5.8925	4.0909	0.	4512.7
13450	5.8925	4.1818	5.e-002	13.926
13451	6.1697	4.1818	0.	4427.4
13452	6.0773	4.0909	0.	4453.3
13453	6.0773	4.1818	5.e-002	13.128
13454	6.3545	4.1818	0.	4371.6
13455	6.2621	4.0909	0.	4396.2
13456	6.2621	4.1818	5.e-002	12.491
13457	6.5392	4.1818	0.	4317.1
13458	6.4468	4.0909	0.	4340.8
13459	6.4468	4.1818	5.e-002	11.98
13460	6.724	4.1818	0.	4263.5
13461	6.6316	4.0909	0.	4286.7
13462	6.6316	4.1818	5.e-002	11.568
13463	6.9088	4.1818	0.	4210.8
13464	6.8164	4.0909	0.	4233.6
13465	6.8164	4.1818	5.e-002	11.233
13466	7.0935	4.1818	0.	4158.6
13467	7.0011	4.0909	0.	4181.2
13468	7.0011	4.1818	5.e-002	10.958
13469	7.2783	4.1818	0.	4106.9
13470	7.1859	4.0909	0.	4129.4
13471	7.1859	4.1818	5.e-002	10.728
13472	7.4631	4.1818	0.	4055.4
13473	7.3707	4.0909	0.	4078.
13474	7.3707	4.1818	5.e-002	10.535
13475	7.6478	4.1818	0.	4004.2
13476	7.5555	4.0909	0.	4026.8
13477	7.5555	4.1818	5.e-002	10.369
13478	7.8326	4.1818	0.	3953.2
13479	7.7402	4.0909	0.	3975.9
13480	7.7402	4.1818	5.e-002	10.226
13481	8.0174	4.1818	0.	3902.3
13482	7.925	4.0909	0.	3925.1
13483	7.925	4.1818	5.e-002	10.1
13484	8.2022	4.1818	0.	3851.5
13485	8.1098	4.0909	0.	3874.5
13486	8.1098	4.1818	5.e-002	9.9876
13487	8.3869	4.1818	0.	3800.8
13488	8.2945	4.0909	0.	3823.9
13489	8.2945	4.1818	5.e-002	9.8866
13490	8.5717	4.1818	0.	3750.1
13491	8.4793	4.0909	0.	3773.3
13492	8.4793	4.1818	5.e-002	9.7946
13493	8.7565	4.1818	0.	3699.4
13494	8.6641	4.0909	0.	3722.8
13495	8.6641	4.1818	5.e-002	9.7101
13496	8.9412	4.1818	0.	3648.8
13497	8.8489	4.0909	0.	3672.3
13498	8.8489	4.1818	5.e-002	9.6318
13499	9.126	4.1818	0.	3598.3
13500	9.0336	4.0909	0.	3621.9
13501	9.0336	4.1818	5.e-002	9.5586
13502	9.3108	4.1818	0.	3547.8
13503	9.2184	4.0909	0.	3571.5
13504	9.2184	4.1818	5.e-002	9.4897
13505	9.4955	4.1818	0.	3497.3
13506	9.4032	4.0909	0.	3521.1
13507	9.4032	4.1818	5.e-002	9.4245
13508	9.6803	4.1818	0.	3446.9
13509	9.5879	4.0909	0.	3470.7
13510	9.5879	4.1818	5.e-002	9.3626
13511	9.8651	4.1818	0.	3396.6
13512	9.7727	4.0909	0.	3420.5
13513	9.7727	4.1818	5.e-002	9.3033
13514	10.05	4.1818	0.	3346.3
13515	9.9575	4.0909	0.	3370.2
13516	9.9575	4.1818	5.e-002	9.2466
13517	10.235	4.1818	0.	3296.1
13518	10.142	4.0909	0.	3320.1
13519	10.142	4.1818	5.e-002	9.1919
13520	10.419	4.1818	0.	3245.9
13521	10.327	4.0909	0.	3270.
13522	10.327	4.1818	5.e-002	9.1389
13523	10.604	4.1818	0.	3195.9
13524	10.512	4.0909	0.	3219.9
13525	10.512	4.1818	5.e-002	9.0879
13526	10.789	4.1818	0.	3146.
13527	10.697	4.0909	0.	3170.
13528	10.697	4.1818	5.e-002	9.0383
13529	10.974	4.1818	0.	3096.1
13530	10.881	4.0909	0.	3120.2
13531	10.881	4.1818	5.e-002	8.99
13532	11.158	4.1818	0.	3046.4
13533	11.066	4.0909	0.	3070.4
13534	11.066	4.1818	5.e-002	8.9428
13535	11.343	4.1818	0.	2996.8
13536	11.251	4.0909	0.	3020.8
13537	11.251	4.1818	5.e-002	8.8967
13538	11.528	4.1818	0.	2947.3
13539	11.436	4.0909	0.	2971.3
13540	11.436	4.1818	5.e-002	8.8519
13541	11.713	4.1818	0.	2897.9
13542	11.62	4.0909	0.	2921.9
13543	11.62	4.1818	5.e-002	8.8079
13544	11.898	4.1818	0.	2848.7
13545	11.805	4.0909	0.	2872.7
13546	11.805	4.1818	5.e-002	8.7646
13547	12.082	4.1818	0.	2799.6
13548	11.99	4.0909	0.	2823.6
13549	11.99	4.1818	5.e-002	8.7221
13550	12.267	4.1818	0.	2750.7
13551	12.175	4.0909	0.	2774.6
13552	12.175	4.1818	5.e-002	8.6803
13553	12.452	4.1818	0.	2701.9
13554	12.359	4.0909	0.	2725.7
13555	12.359	4.1818	5.e-002	8.6393
13556	12.637	4.1818	0.	2653.3
13557	12.544	4.0909	0.	2677.
13558	12.544	4.1818	5.e-002	8.599
13559	12.821	4.1818	0.	2604.8
13560	12.729	4.0909	0.	2628.5
13561	12.729	4.1818	5.e-002	8.559
13562	13.006	4.1818	0.	2556.5
13563	12.914	4.0909	0.	2580.1
13564	12.914	4.1818	5.e-002	8.5195
13565	13.191	4.1818	0.	2508.3
13566	13.099	4.0909	0.	2531.9
13567	13.099	4.1818	5.e-002	8.4805
13568	13.376	4.1818	0.	2460.4
13569	13.283	4.0909	0.	2483.9
13570	13.283	4.1818	5.e-002	8.4422
13571	13.56	4.1818	0.	2412.5
13572	13.468	4.0909	0.	2436.
13573	13.468	4.1818	5.e-002	8.4043
13574	13.745	4.1818	0.	2364.9
13575	13.653	4.0909	0.	2388.3
13576	13.653	4.1818	5.e-002	8.3666
13577	13.93	4.1818	0.	2317.4
13578	13.838	4.0909	0.	2340.7
13579	13.838	4.1818	5.e-002	8.3293
13580	14.115	4.1818	0.	2270.2
13581	14.022	4.0909	0.	2293.4
13582	14.022	4.1818	5.e-002	8.2924
13583	14.3	4.1818	0.	2223.1
13584	14.207	4.0909	0.	2246.2
13585	14.207	4.1818	5.e-002	8.256
13586	14.484	4.1818	0.	2176.2
13587	14.392	4.0909	0.	2199.2
13588	14.392	4.1818	5.e-002	8.2199
13589	14.669	4.1818	0.	2129.5
13590	14.577	4.0909	0.	2152.4
13591	14.577	4.1818	5.e-002	8.1841
13592	14.854	4.1818	0.	2082.9
13593	14.761	4.0909	0.	2105.8
13594	14.761	4.1818	5.e-002	8.1484
13595	15.039	4.1818	0.	2036.6
13596	14.946	4.0909	0.	2059.4
13597	14.946	4.1818	5.e-002	8.1132
13598	15.223	4.1818	0.	1990.5
13599	15.131	4.0909	0.	2013.2
13600	15.131	4.1818	5.e-002	8.0784
13601	15.408	4.1818	0.	1944.5
13602	15.316	4.0909	0.	1967.1
13603	15.316	4.1818	5.e-002	8.0438
13604	15.593	4.1818	0.	1898.8
13605	15.501	4.0909	0.	1921.3
13606	15.501	4.1818	5.e-002	8.0095
13607	15.778	4.1818	0.	1853.3
13608	15.685	4.0909	0.	1875.7
13609	15.685	4.1818	5.e-002	7.9754
13610	15.963	4.1818	0.	1807.9
13611	15.87	4.0909	0.	1830.3
13612	15.87	4.1818	5.e-002	7.9417
13613	16.147	4.1818	0.	1762.8
13614	16.055	4.0909	0.	1785.
13615	16.055	4.1818	5.e-002	7.9084
13616	16.332	4.1818	0.	1717.9
13617	16.24	4.0909	0.	1740.
13618	16.24	4.1818	5.e-002	7.8753
13619	16.517	4.1818	0.	1673.2
13620	16.424	4.0909	0.	1695.2
13621	16.424	4.1818	5.e-002	7.8424
13622	16.702	4.1818	0.	1628.7
13623	16.609	4.0909	0.	1650.7
13624	16.609	4.1818	5.e-002	7.81
13625	16.886	4.1818	0.	1584.5
13626	16.794	4.0909	0.	1606.3
13627	16.794	4.1818	5.e-002	7.778
13628	17.071	4.1818	0.	1540.4
13629	16.979	4.0909	0.	1562.2
13630	16.979	4.1818	5.e-002	7.7464
13631	17.256	4.1818	0.	1496.6
13632	17.164	4.0909	0.	1518.2
13633	17.164	4.1818	5.e-002	7.715
13634	17.441	4.1818	0.	1453.
13635	17.348	4.0909	0.	1474.5
13636	17.348	4.1818	5.e-002	7.6841
13637	17.625	4.1818	0.	1409.6
13638	17.533	4.0909	0.	1431.1
13639	17.533	4.1818	5.e-002	7.6536
13640	17.81	4.1818	0.	1366.5
13641	17.718	4.0909	0.	1387.8
13642	17.718	4.1818	5.e-002	7.6237
13643	17.995	4.1818	0.	1323.6
13644	17.903	4.0909	0.	1344.9
13645	17.903	4.1818	5.e-002	7.5942
13646	18.18	4.1818	0.	1280.9
13647	18.087	4.0909	0.	1302.1
13648	18.087	4.1818	5.e-002	7.5653
13649	18.365	4.1818	0.	1238.5
13650	18.272	4.0909	0.	1259.6
13651	18.272	4.1818	5.e-002	7.5368
13652	18.549	4.1818	0.	1196.4
13653	18.457	4.0909	0.	1217.3
13654	18.457	4.1818	5.e-002	7.5091
13655	18.734	4.1818	0.	1154.5
13656	18.642	4.0909	0.	1175.3
13657	18.642	4.1818	5.e-002	7.482
13658	18.919	4.1818	0.	1112.8
13659	18.826	4.0909	0.	1133.6
13660	18.826	4.1818	5.e-002	7.4558
13661	19.104	4.1818	0.	1071.4
13662	19.011	4.0909	0.	1092.1
13663	19.011	4.1818	5.e-002	7.4302
13664	19.288	4.1818	0.	1030.3
13665	19.196	4.0909	0.	1050.9
13666	19.196	4.1818	5.e-002	7.4055
13667	19.473	4.1818	0.	989.44
13668	19.381	4.0909	0.	1009.9
13669	19.381	4.1818	5.e-002	7.3818
13670	19.658	4.1818	0.	948.88
13671	19.566	4.0909	0.	969.28
13672	19.566	4.1818	5.e-002	7.3591
13673	19.843	4.1818	0.	908.62
13674	19.75	4.0909	0.	928.92
13675	19.75	4.1818	5.e-002	7.3376
13676	20.027	4.1818	0.	868.65
13677	19.935	4.0909	0.	888.86
13678	19.935	4.1818	5.e-002	7.3174
13679	20.212	4.1818	0.	828.99
13680	20.12	4.0909	0.	849.11
13681	20.12	4.1818	5.e-002	7.2985
13682	20.397	4.1818	0.	789.66
13683	20.305	4.0909	0.	809.69
13684	20.305	4.1818	5.e-002	7.2812
13685	20.582	4.1818	0.	750.66
13686	20.489	4.0909	0.	770.6
13687	20.489	4.1818	5.e-002	7.2656
13688	20.767	4.1818	0.	712.02
13689	20.674	4.0909	0.	731.87
13690	20.674	4.1818	5.e-002	7.252
13691	20.951	4.1818	0.	673.75
13692	20.859	4.0909	0.	693.5
13693	20.859	4.1818	5.e-002	7.2405
13694	21.136	4.1818	0.	635.87
13695	21.044	4.0909	0.	655.53
13696	21.044	4.1818	5.e-002	7.2314
13697	21.321	4.1818	0.	598.4
13698	21.228	4.0909	0.	617.96
13699	21.228	4.1818	5.e-002	7.225
13700	21.506	4.1818	0.	561.39
13701	21.413	4.0909	0.	580.84
13702	21.413	4.1818	5.e-002	7.2218
13703	21.69	4.1818	0.	524.87
13704	21.598	4.0909	0.	544.19
13705	21.598	4.1818	5.e-002	7.2222
13706	21.875	4.1818	0.	488.88
13707	21.783	4.0909	0.	508.07
13708	21.783	4.1818	5.e-002	7.2265
13709	22.06	4.1818	0.	453.5
13710	21.968	4.0909	0.	472.51
13711	21.968	4.1818	5.e-002	7.2356
13712	22.245	4.1818	0.	418.78
13713	22.152	4.0909	0.	437.6
13714	22.152	4.1818	5.e-002	7.2502
13715	22.429	4.1818	0.	384.84
13716	22.337	4.0909	0.	403.41
13717	22.337	4.1818	5.e-002	7.271
13718	22.614	4.1818	0.	351.81
13719	22.522	4.0909	0.	370.06
13720	22.522	4.1818	5.e-002	7.2992
13721	22.799	4.1818	0.	319.85
13722	22.707	4.0909	0.	337.69
13723	22.707	4.1818	5.e-002	7.3358
13724	22.984	4.1818	0.	289.21
13725	22.891	4.0909	0.	306.52
13726	22.891	4.1818	5.e-002	7.3822
13727	23.169	4.1818	0.	260.24
13728	23.076	4.0909	0.	276.82
13729	23.076	4.1818	5.e-002	7.4395
13730	23.353	4.1818	0.	233.42
13731	23.261	4.0909	0.	249.
13732	23.261	4.1818	5.e-002	7.5089
13733	23.538	4.1818	0.	209.46
13734	23.446	4.0909	0.	223.64
13735	23.446	4.1818	5.e-002	7.5907
13736	23.723	4.1818	0.	189.38
13737	23.63	4.0909	0.	201.6
13738	23.63	4.1818	5.e-002	7.6885
13739	23.815	4.0909	0.	184.04
13740	23.815	4.1818	5.e-002	7.8639
13741	23.908	4.1818	0.	174.84
13742	2.8438	4.	0.	12832
13743	2.7514	3.9091	0.	15044
13744	2.7514	4.	5.e-002	1747.1
13745	2.6591	4.	0.	22643
13746	3.0286	4.	0.	9375.
13747	2.9362	3.9091	0.	10714
13748	2.9362	4.	5.e-002	302.3
13749	3.2134	4.	0.	7935.
13750	3.121	3.9091	0.	8777.1
13751	3.121	4.	5.e-002	195.82
13752	3.3981	4.	0.	7073.3
13753	3.3057	3.9091	0.	7665.
13754	3.3057	4.	5.e-002	130.91
13755	3.5829	4.	0.	6494.2
13756	3.4905	3.9091	0.	6921.7
13757	3.4905	4.	5.e-002	98.437
13758	3.7677	4.	0.	6081.4
13759	3.6753	3.9091	0.	6399.6
13760	3.6753	4.	5.e-002	77.51
13761	3.9524	4.	0.	5772.2
13762	3.8601	3.9091	0.	6012.7
13763	3.8601	4.	5.e-002	63.005
13764	4.1372	4.	0.	5532.4
13765	4.0448	3.9091	0.	5716.7
13766	4.0448	4.	5.e-002	52.203
13767	4.322	4.	0.	5341.
13768	4.2296	3.9091	0.	5483.7
13769	4.2296	4.	5.e-002	43.854
13770	4.5068	4.	0.	5184.3
13771	4.4144	3.9091	0.	5296.
13772	4.4144	4.	5.e-002	37.245
13773	4.6915	4.	0.	5053.2
13774	4.5991	3.9091	0.	5141.7
13775	4.5991	4.	5.e-002	31.943
13776	4.8763	4.	0.	4941.2
13777	4.7839	3.9091	0.	5012.4
13778	4.7839	4.	5.e-002	27.663
13779	5.0611	4.	0.	4843.9
13780	4.9687	3.9091	0.	4902.
13781	4.9687	4.	5.e-002	24.202
13782	5.2458	4.	0.	4757.7
13783	5.1534	3.9091	0.	4806.
13784	5.1534	4.	5.e-002	21.402
13785	5.4306	4.	0.	4680.1
13786	5.3382	3.9091	0.	4721.1
13787	5.3382	4.	5.e-002	19.143
13788	5.6154	4.	0.	4609.1
13789	5.523	3.9091	0.	4644.7
13790	5.523	4.	5.e-002	17.324
13791	5.8001	4.	0.	4543.2
13792	5.7078	3.9091	0.	4574.8
13793	5.7078	4.	5.e-002	15.862
13794	5.9849	4.	0.	4481.2
13795	5.8925	3.9091	0.	4509.9
13796	5.8925	4.	5.e-002	14.69
13797	6.1697	4.	0.	4422.2
13798	6.0773	3.9091	0.	4448.8
13799	6.0773	4.	5.e-002	13.75
13800	6.3545	4.	0.	4365.4
13801	6.2621	3.9091	0.	4390.6
13802	6.2621	4.	5.e-002	12.996
13803	6.5392	4.	0.	4310.4
13804	6.4468	3.9091	0.	4334.6
13805	6.4468	4.	5.e-002	12.388
13806	6.724	4.	0.	4256.7
13807	6.6316	3.9091	0.	4280.2
13808	6.6316	4.	5.e-002	11.897
13809	6.9088	4.	0.	4204.
13810	6.8164	3.9091	0.	4227.1
13811	6.8164	4.	5.e-002	11.498
13812	7.0935	4.	0.	4152.
13813	7.0011	3.9091	0.	4174.9
13814	7.0011	4.	5.e-002	11.169
13815	7.2783	4.	0.	4100.5
13816	7.1859	3.9091	0.	4123.3
13817	7.1859	4.	5.e-002	10.898
13818	7.4631	4.	0.	4049.4
13819	7.3707	3.9091	0.	4072.1
13820	7.3707	4.	5.e-002	10.67
13821	7.6478	4.	0.	3998.5
13822	7.5555	3.9091	0.	4021.3
13823	7.5555	4.	5.e-002	10.477
13824	7.8326	4.	0.	3947.9
13825	7.7402	3.9091	0.	3970.7
13826	7.7402	4.	5.e-002	10.312
13827	8.0174	4.	0.	3897.3
13828	7.925	3.9091	0.	3920.3
13829	7.925	4.	5.e-002	10.169
13830	8.2022	4.	0.	3846.8
13831	8.1098	3.9091	0.	3869.9
13832	8.1098	4.	5.e-002	10.043
13833	8.3869	4.	0.	3796.4
13834	8.2945	3.9091	0.	3819.7
13835	8.2945	4.	5.e-002	9.931
13836	8.5717	4.	0.	3746.1
13837	8.4793	3.9091	0.	3769.4
13838	8.4793	4.	5.e-002	9.8304
13839	8.7565	4.	0.	3695.7
13840	8.6641	3.9091	0.	3719.2
13841	8.6641	4.	5.e-002	9.739
13842	8.9412	4.	0.	3645.4
13843	8.8489	3.9091	0.	3669.
13844	8.8489	4.	5.e-002	9.6552
13845	9.126	4.	0.	3595.1
13846	9.0336	3.9091	0.	3618.8
13847	9.0336	4.	5.e-002	9.5777
13848	9.3108	4.	0.	3544.8
13849	9.2184	3.9091	0.	3568.6
13850	9.2184	4.	5.e-002	9.5054
13851	9.4955	4.	0.	3494.5
13852	9.4032	3.9091	0.	3518.4
13853	9.4032	4.	5.e-002	9.4376
13854	9.6803	4.	0.	3444.3
13855	9.5879	3.9091	0.	3468.3
13856	9.5879	4.	5.e-002	9.3734
13857	9.8651	4.	0.	3394.2
13858	9.7727	3.9091	0.	3418.2
13859	9.7727	4.	5.e-002	9.3125
13860	10.05	4.	0.	3344.
13861	9.9575	3.9091	0.	3368.1
13862	9.9575	4.	5.e-002	9.2543
13863	10.235	4.	0.	3294.
13864	10.142	3.9091	0.	3318.1
13865	10.142	4.	5.e-002	9.1985
13866	10.419	4.	0.	3244.
13867	10.327	3.9091	0.	3268.1
13868	10.327	4.	5.e-002	9.1446
13869	10.604	4.	0.	3194.1
13870	10.512	3.9091	0.	3218.2
13871	10.512	4.	5.e-002	9.0928
13872	10.789	4.	0.	3144.3
13873	10.697	3.9091	0.	3168.4
13874	10.697	4.	5.e-002	9.0427
13875	10.974	4.	0.	3094.5
13876	10.881	3.9091	0.	3118.7
13877	10.881	4.	5.e-002	8.9938
13878	11.158	4.	0.	3044.9
13879	11.066	3.9091	0.	3069.
13880	11.066	4.	5.e-002	8.9462
13881	11.343	4.	0.	2995.4
13882	11.251	3.9091	0.	3019.5
13883	11.251	4.	5.e-002	8.8998
13884	11.528	4.	0.	2946.
13885	11.436	3.9091	0.	2970.1
13886	11.436	4.	5.e-002	8.8546
13887	11.713	4.	0.	2896.7
13888	11.62	3.9091	0.	2920.7
13889	11.62	4.	5.e-002	8.8104
13890	11.898	4.	0.	2847.5
13891	11.805	3.9091	0.	2871.5
13892	11.805	4.	5.e-002	8.7669
13893	12.082	4.	0.	2798.5
13894	11.99	3.9091	0.	2822.5
13895	11.99	4.	5.e-002	8.7242
13896	12.267	4.	0.	2749.6
13897	12.175	3.9091	0.	2773.6
13898	12.175	4.	5.e-002	8.6822
13899	12.452	4.	0.	2700.9
13900	12.359	3.9091	0.	2724.8
13901	12.359	4.	5.e-002	8.6411
13902	12.637	4.	0.	2652.3
13903	12.544	3.9091	0.	2676.1
13904	12.544	4.	5.e-002	8.6006
13905	12.821	4.	0.	2603.9
13906	12.729	3.9091	0.	2627.6
13907	12.729	4.	5.e-002	8.5605
13908	13.006	4.	0.	2555.6
13909	12.914	3.9091	0.	2579.3
13910	12.914	4.	5.e-002	8.5209
13911	13.191	4.	0.	2507.5
13912	13.099	3.9091	0.	2531.1
13913	13.099	4.	5.e-002	8.4818
13914	13.376	4.	0.	2459.5
13915	13.283	3.9091	0.	2483.1
13916	13.283	4.	5.e-002	8.4434
13917	13.56	4.	0.	2411.7
13918	13.468	3.9091	0.	2435.2
13919	13.468	4.	5.e-002	8.4054
13920	13.745	4.	0.	2364.1
13921	13.653	3.9091	0.	2387.5
13922	13.653	4.	5.e-002	8.3677
13923	13.93	4.	0.	2316.7
13924	13.838	3.9091	0.	2340.
13925	13.838	4.	5.e-002	8.3303
13926	14.115	4.	0.	2269.4
13927	14.022	3.9091	0.	2292.7
13928	14.022	4.	5.e-002	8.2934
13929	14.3	4.	0.	2222.4
13930	14.207	3.9091	0.	2245.5
13931	14.207	4.	5.e-002	8.2569
13932	14.484	4.	0.	2175.5
13933	14.392	3.9091	0.	2198.6
13934	14.392	4.	5.e-002	8.2208
13935	14.669	4.	0.	2128.8
13936	14.577	3.9091	0.	2151.8
13937	14.577	4.	5.e-002	8.1849
13938	14.854	4.	0.	2082.3
13939	14.761	3.9091	0.	2105.2
13940	14.761	4.	5.e-002	8.1492
13941	15.039	4.	0.	2036.
13942	14.946	3.9091	0.	2058.8
13943	14.946	4.	5.e-002	8.1139
13944	15.223	4.	0.	1989.9
13945	15.131	3.9091	0.	2012.6
13946	15.131	4.	5.e-002	8.0791
13947	15.408	4.	0.	1943.9
13948	15.316	3.9091	0.	1966.6
13949	15.316	4.	5.e-002	8.0445
13950	15.593	4.	0.	1898.2
13951	15.501	3.9091	0.	1920.8
13952	15.501	4.	5.e-002	8.0102
13953	15.778	4.	0.	1852.7
13954	15.685	3.9091	0.	1875.2
13955	15.685	4.	5.e-002	7.9761
13956	15.963	4.	0.	1807.4
13957	15.87	3.9091	0.	1829.8
13958	15.87	4.	5.e-002	7.9424
13959	16.147	4.	0.	1762.3
13960	16.055	3.9091	0.	1784.6
13961	16.055	4.	5.e-002	7.909
13962	16.332	4.	0.	1717.4
13963	16.24	3.9091	0.	1739.6
13964	16.24	4.	5.e-002	7.8759
13965	16.517	4.	0.	1672.7
13966	16.424	3.9091	0.	1694.8
13967	16.424	4.	5.e-002	7.8431
13968	16.702	4.	0.	1628.3
13969	16.609	3.9091	0.	1650.2
13970	16.609	4.	5.e-002	7.8107
13971	16.886	4.	0.	1584.
13972	16.794	3.9091	0.	1605.9
13973	16.794	4.	5.e-002	7.7787
13974	17.071	4.	0.	1540.
13975	16.979	3.9091	0.	1561.8
13976	16.979	4.	5.e-002	7.7471
13977	17.256	4.	0.	1496.2
13978	17.164	3.9091	0.	1517.9
13979	17.164	4.	5.e-002	7.7158
13980	17.441	4.	0.	1452.7
13981	17.348	3.9091	0.	1474.2
13982	17.348	4.	5.e-002	7.6849
13983	17.625	4.	0.	1409.3
13984	17.533	3.9091	0.	1430.8
13985	17.533	4.	5.e-002	7.6544
13986	17.81	4.	0.	1366.3
13987	17.718	3.9091	0.	1387.6
13988	17.718	4.	5.e-002	7.6245
13989	17.995	4.	0.	1323.4
13990	17.903	3.9091	0.	1344.7
13991	17.903	4.	5.e-002	7.5952
13992	18.18	4.	0.	1280.8
13993	18.087	3.9091	0.	1301.9
13994	18.087	4.	5.e-002	7.5662
13995	18.365	4.	0.	1238.4
13996	18.272	3.9091	0.	1259.5
13997	18.272	4.	5.e-002	7.5379
13998	18.549	4.	0.	1196.3
13999	18.457	3.9091	0.	1217.3
14000	18.457	4.	5.e-002	7.5102
14001	18.734	4.	0.	1154.5
14002	18.642	3.9091	0.	1175.3
14003	18.642	4.	5.e-002	7.4833
14004	18.919	4.	0.	1112.9
14005	18.826	3.9091	0.	1133.6
14006	18.826	4.	5.e-002	7.4571
14007	19.104	4.	0.	1071.6
14008	19.011	3.9091	0.	1092.2
14009	19.011	4.	5.e-002	7.4317
14010	19.288	4.	0.	1030.6
14011	19.196	3.9091	0.	1051.1
14012	19.196	4.	5.e-002	7.4071
14013	19.473	4.	0.	989.82
14014	19.381	3.9091	0.	1010.2
14015	19.381	4.	5.e-002	7.3836
14016	19.658	4.	0.	949.37
14017	19.566	3.9091	0.	969.69
14018	19.566	4.	5.e-002	7.3611
14019	19.843	4.	0.	909.22
14020	19.75	3.9091	0.	929.43
14021	19.75	4.	5.e-002	7.3399
14022	20.027	4.	0.	869.38
14023	19.935	3.9091	0.	889.49
14024	19.935	4.	5.e-002	7.3199
14025	20.212	4.	0.	829.87
14026	20.12	3.9091	0.	849.87
14027	20.12	4.	5.e-002	7.3014
14028	20.397	4.	0.	790.69
14029	20.305	3.9091	0.	810.59
14030	20.305	4.	5.e-002	7.2844
14031	20.582	4.	0.	751.86
14032	20.489	3.9091	0.	771.65
14033	20.489	4.	5.e-002	7.2694
14034	20.767	4.	0.	713.4
14035	20.674	3.9091	0.	733.08
14036	20.674	4.	5.e-002	7.2563
14037	20.951	4.	0.	675.33
14038	20.859	3.9091	0.	694.89
14039	20.859	4.	5.e-002	7.2455
14040	21.136	4.	0.	637.67
14041	21.044	3.9091	0.	657.11
14042	21.044	4.	5.e-002	7.2372
14043	21.321	4.	0.	600.44
14044	21.228	3.9091	0.	619.75
14045	21.228	4.	5.e-002	7.2318
14046	21.506	4.	0.	563.68
14047	21.413	3.9091	0.	582.85
14048	21.413	4.	5.e-002	7.2297
14049	21.69	4.	0.	527.42
14050	21.598	3.9091	0.	546.44
14051	21.598	4.	5.e-002	7.2312
14052	21.875	4.	0.	491.71
14053	21.783	3.9091	0.	510.56
14054	21.783	4.	5.e-002	7.237
14055	22.06	4.	0.	456.61
14056	21.968	3.9091	0.	475.27
14057	21.968	4.	5.e-002	7.2477
14058	22.245	4.	0.	422.2
14059	22.152	3.9091	0.	440.62
14060	22.152	4.	5.e-002	7.2639
14061	22.429	4.	0.	388.56
14062	22.337	3.9091	0.	406.7
14063	22.337	4.	5.e-002	7.2865
14064	22.614	4.	0.	355.84
14065	22.522	3.9091	0.	373.63
14066	22.522	4.	5.e-002	7.3163
14067	22.799	4.	0.	324.19
14068	22.707	3.9091	0.	341.54
14069	22.707	4.	5.e-002	7.3543
14070	22.984	4.	0.	293.86
14071	22.891	3.9091	0.	310.64
14072	22.891	4.	5.e-002	7.4015
14073	23.169	4.	0.	265.18
14074	23.076	3.9091	0.	281.21
14075	23.076	4.	5.e-002	7.4586
14076	23.353	4.	0.	238.65
14077	23.261	3.9091	0.	253.65
14078	23.261	4.	5.e-002	7.5265
14079	23.538	4.	0.	214.95
14080	23.446	3.9091	0.	228.54
14081	23.446	4.	5.e-002	7.6051
14082	23.723	4.	0.	195.07
14083	23.63	3.9091	0.	206.71
14084	23.63	4.	5.e-002	7.6968
14085	23.815	3.9091	0.	189.28
14086	23.815	4.	5.e-002	7.8479
14087	23.908	4.	0.	180.74
14088	2.8438	3.8182	0.	13118
14089	2.7514	3.7273	0.	14578
14090	2.7514	3.8182	5.e-002	885.76
14091	3.0286	3.8182	0.	10134
14092	2.9362	3.7273	0.	11295
14093	2.9362	3.8182	5.e-002	420.21
14094	3.2134	3.8182	0.	8506.5
14095	3.121	3.7273	0.	9341.7
14096	3.121	3.8182	5.e-002	216.83
14097	3.3981	3.8182	0.	7509.9
14098	3.3057	3.7273	0.	8116.3
14099	3.3057	3.8182	5.e-002	148.71
14100	3.5829	3.8182	0.	6823.7
14101	3.4905	3.7273	0.	7272.1
14102	3.4905	3.8182	5.e-002	110.64
14103	3.7677	3.8182	0.	6328.5
14104	3.6753	3.7273	0.	6664.9
14105	3.6753	3.8182	5.e-002	86.733
14106	3.9524	3.8182	0.	5955.7
14107	3.8601	3.7273	0.	6211.1
14108	3.8601	3.8182	5.e-002	70.105
14109	4.1372	3.8182	0.	5667.1
14110	4.0448	3.7273	0.	5862.9
14111	4.0448	3.8182	5.e-002	57.755
14112	4.322	3.8182	0.	5438.3
14113	4.2296	3.7273	0.	5589.9
14114	4.2296	3.8182	5.e-002	48.222
14115	4.5068	3.8182	0.	5253.3
14116	4.4144	3.7273	0.	5371.9
14117	4.4144	3.8182	5.e-002	40.698
14118	4.6915	3.8182	0.	5101.
14119	4.5991	3.7273	0.	5194.7
14120	4.5991	3.8182	5.e-002	34.687
14121	4.8763	3.8182	0.	4973.2
14122	4.7839	3.7273	0.	5048.3
14123	4.7839	3.8182	5.e-002	29.858
14124	5.0611	3.8182	0.	4864.2
14125	4.9687	3.7273	0.	4925.3
14126	4.9687	3.8182	5.e-002	25.967
14127	5.2458	3.8182	0.	4769.5
14128	5.1534	3.7273	0.	4820.1
14129	5.1534	3.8182	5.e-002	22.83
14130	5.4306	3.8182	0.	4685.8
14131	5.3382	3.7273	0.	4728.6
14132	5.3382	3.8182	5.e-002	20.303
14133	5.6154	3.8182	0.	4610.5
14134	5.523	3.7273	0.	4647.5
14135	5.523	3.8182	5.e-002	18.269
14136	5.8001	3.8182	0.	4541.6
14137	5.7078	3.7273	0.	4574.3
14138	5.7078	3.8182	5.e-002	16.634
14139	5.9849	3.8182	0.	4477.6
14140	5.8925	3.7273	0.	4507.2
14141	5.8925	3.8182	5.e-002	15.32
14142	6.1697	3.8182	0.	4417.3
14143	6.0773	3.7273	0.	4444.7
14144	6.0773	3.8182	5.e-002	14.263
14145	6.3545	3.8182	0.	4359.8
14146	6.2621	3.7273	0.	4385.6
14147	6.2621	3.8182	5.e-002	13.413
14148	6.5392	3.8182	0.	4304.4
14149	6.4468	3.7273	0.	4329.1
14150	6.4468	3.8182	5.e-002	12.727
14151	6.724	3.8182	0.	4250.6
14152	6.6316	3.7273	0.	4274.6
14153	6.6316	3.8182	5.e-002	12.171
14154	6.9088	3.8182	0.	4197.9
14155	6.8164	3.7273	0.	4221.4
14156	6.8164	3.8182	5.e-002	11.719
14157	7.0935	3.8182	0.	4146.1
14158	7.0011	3.7273	0.	4169.3
14159	7.0011	3.8182	5.e-002	11.348
14160	7.2783	3.8182	0.	4094.9
14161	7.1859	3.7273	0.	4117.9
14162	7.1859	3.8182	5.e-002	11.041
14163	7.4631	3.8182	0.	4044.1
14164	7.3707	3.7273	0.	4067.1
14165	7.3707	3.8182	5.e-002	10.785
14166	7.6478	3.8182	0.	3993.5
14167	7.5555	3.7273	0.	4016.6
14168	7.5555	3.8182	5.e-002	10.57
14169	7.8326	3.8182	0.	3943.2
14170	7.7402	3.7273	0.	3966.3
14171	7.7402	3.8182	5.e-002	10.386
14172	8.0174	3.8182	0.	3892.9
14173	7.925	3.7273	0.	3916.2
14174	7.925	3.8182	5.e-002	10.228
14175	8.2022	3.8182	0.	3842.8
14176	8.1098	3.7273	0.	3866.1
14177	8.1098	3.8182	5.e-002	10.09
14178	8.3869	3.8182	0.	3792.7
14179	8.2945	3.7273	0.	3816.1
14180	8.2945	3.8182	5.e-002	9.9692
14181	8.5717	3.8182	0.	3742.6
14182	8.4793	3.7273	0.	3766.1
14183	8.4793	3.8182	5.e-002	9.8612
14184	8.7565	3.8182	0.	3692.5
14185	8.6641	3.7273	0.	3716.2
14186	8.6641	3.8182	5.e-002	9.7639
14187	8.9412	3.8182	0.	3642.4
14188	8.8489	3.7273	0.	3666.2
14189	8.8489	3.8182	5.e-002	9.6755
14190	9.126	3.8182	0.	3592.3
14191	9.0336	3.7273	0.	3616.2
14192	9.0336	3.8182	5.e-002	9.5942
14193	9.3108	3.8182	0.	3542.2
14194	9.2184	3.7273	0.	3566.2
14195	9.2184	3.8182	5.e-002	9.519
14196	9.4955	3.8182	0.	3492.2
14197	9.4032	3.7273	0.	3516.2
14198	9.4032	3.8182	5.e-002	9.4487
14199	9.6803	3.8182	0.	3442.1
14200	9.5879	3.7273	0.	3466.2
14201	9.5879	3.8182	5.e-002	9.3827
14202	9.8651	3.8182	0.	3392.1
14203	9.7727	3.7273	0.	3416.3
14204	9.7727	3.8182	5.e-002	9.3203
14205	10.05	3.8182	0.	3342.2
14206	9.9575	3.7273	0.	3366.3
14207	9.9575	3.8182	5.e-002	9.2609
14208	10.235	3.8182	0.	3292.2
14209	10.142	3.7273	0.	3316.4
14210	10.142	3.8182	5.e-002	9.2041
14211	10.419	3.8182	0.	3242.4
14212	10.327	3.7273	0.	3266.6
14213	10.327	3.8182	5.e-002	9.1495
14214	10.604	3.8182	0.	3192.6
14215	10.512	3.7273	0.	3216.8
14216	10.512	3.8182	5.e-002	9.097
14217	10.789	3.8182	0.	3142.8
14218	10.697	3.7273	0.	3167.1
14219	10.697	3.8182	5.e-002	9.0464
14220	10.974	3.8182	0.	3093.2
14221	10.881	3.7273	0.	3117.4
14222	10.881	3.8182	5.e-002	8.9971
14223	11.158	3.8182	0.	3043.6
14224	11.066	3.7273	0.	3067.8
14225	11.066	3.8182	5.e-002	8.9491
14226	11.343	3.8182	0.	2994.2
14227	11.251	3.7273	0.	3018.4
14228	11.251	3.8182	5.e-002	8.9024
14229	11.528	3.8182	0.	2944.8
14230	11.436	3.7273	0.	2969.
14231	11.436	3.8182	5.e-002	8.8569
14232	11.713	3.8182	0.	2895.6
14233	11.62	3.7273	0.	2919.8
14234	11.62	3.8182	5.e-002	8.8125
14235	11.898	3.8182	0.	2846.5
14236	11.805	3.7273	0.	2870.6
14237	11.805	3.8182	5.e-002	8.7688
14238	12.082	3.8182	0.	2797.6
14239	11.99	3.7273	0.	2821.6
14240	11.99	3.8182	5.e-002	8.7259
14241	12.267	3.8182	0.	2748.7
14242	12.175	3.7273	0.	2772.7
14243	12.175	3.8182	5.e-002	8.6838
14244	12.452	3.8182	0.	2700.
14245	12.359	3.7273	0.	2724.
14246	12.359	3.8182	5.e-002	8.6426
14247	12.637	3.8182	0.	2651.5
14248	12.544	3.7273	0.	2675.4
14249	12.544	3.8182	5.e-002	8.6019
14250	12.821	3.8182	0.	2603.1
14251	12.729	3.7273	0.	2626.9
14252	12.729	3.8182	5.e-002	8.5618
14253	13.006	3.8182	0.	2554.8
14254	12.914	3.7273	0.	2578.6
14255	12.914	3.8182	5.e-002	8.5221
14256	13.191	3.8182	0.	2506.7
14257	13.099	3.7273	0.	2530.4
14258	13.099	3.8182	5.e-002	8.4829
14259	13.376	3.8182	0.	2458.8
14260	13.283	3.7273	0.	2482.4
14261	13.283	3.8182	5.e-002	8.4444
14262	13.56	3.8182	0.	2411.1
14263	13.468	3.7273	0.	2434.6
14264	13.468	3.8182	5.e-002	8.4064
14265	13.745	3.8182	0.	2363.5
14266	13.653	3.7273	0.	2386.9
14267	13.653	3.8182	5.e-002	8.3686
14268	13.93	3.8182	0.	2316.1
14269	13.838	3.7273	0.	2339.5
14270	13.838	3.8182	5.e-002	8.3312
14271	14.115	3.8182	0.	2268.8
14272	14.022	3.7273	0.	2292.1
14273	14.022	3.8182	5.e-002	8.2942
14274	14.3	3.8182	0.	2221.8
14275	14.207	3.7273	0.	2245.
14276	14.207	3.8182	5.e-002	8.2577
14277	14.484	3.8182	0.	2174.9
14278	14.392	3.7273	0.	2198.1
14279	14.392	3.8182	5.e-002	8.2215
14280	14.669	3.8182	0.	2128.2
14281	14.577	3.7273	0.	2151.3
14282	14.577	3.8182	5.e-002	8.1855
14283	14.854	3.8182	0.	2081.8
14284	14.761	3.7273	0.	2104.7
14285	14.761	3.8182	5.e-002	8.1499
14286	15.039	3.8182	0.	2035.5
14287	14.946	3.7273	0.	2058.3
14288	14.946	3.8182	5.e-002	8.1146
14289	15.223	3.8182	0.	1989.4
14290	15.131	3.7273	0.	2012.1
14291	15.131	3.8182	5.e-002	8.0797
14292	15.408	3.8182	0.	1943.5
14293	15.316	3.7273	0.	1966.1
14294	15.316	3.8182	5.e-002	8.0451
14295	15.593	3.8182	0.	1897.8
14296	15.501	3.7273	0.	1920.3
14297	15.501	3.8182	5.e-002	8.0107
14298	15.778	3.8182	0.	1852.3
14299	15.685	3.7273	0.	1874.8
14300	15.685	3.8182	5.e-002	7.9766
14301	15.963	3.8182	0.	1807.
14302	15.87	3.7273	0.	1829.4
14303	15.87	3.8182	5.e-002	7.9429
14304	16.147	3.8182	0.	1761.9
14305	16.055	3.7273	0.	1784.2
14306	16.055	3.8182	5.e-002	7.9096
14307	16.332	3.8182	0.	1717.
14308	16.24	3.7273	0.	1739.2
14309	16.24	3.8182	5.e-002	7.8765
14310	16.517	3.8182	0.	1672.4
14311	16.424	3.7273	0.	1694.5
14312	16.424	3.8182	5.e-002	7.8437
14313	16.702	3.8182	0.	1627.9
14314	16.609	3.7273	0.	1649.9
14315	16.609	3.8182	5.e-002	7.8112
14316	16.886	3.8182	0.	1583.7
14317	16.794	3.7273	0.	1605.6
14318	16.794	3.8182	5.e-002	7.7793
14319	17.071	3.8182	0.	1539.7
14320	16.979	3.7273	0.	1561.5
14321	16.979	3.8182	5.e-002	7.7477
14322	17.256	3.8182	0.	1496.
14323	17.164	3.7273	0.	1517.6
14324	17.164	3.8182	5.e-002	7.7164
14325	17.441	3.8182	0.	1452.4
14326	17.348	3.7273	0.	1474.
14327	17.348	3.8182	5.e-002	7.6855
14328	17.625	3.8182	0.	1409.1
14329	17.533	3.7273	0.	1430.6
14330	17.533	3.8182	5.e-002	7.6551
14331	17.81	3.8182	0.	1366.1
14332	17.718	3.7273	0.	1387.4
14333	17.718	3.8182	5.e-002	7.6253
14334	17.995	3.8182	0.	1323.3
14335	17.903	3.7273	0.	1344.5
14336	17.903	3.8182	5.e-002	7.5959
14337	18.18	3.8182	0.	1280.7
14338	18.087	3.7273	0.	1301.8
14339	18.087	3.8182	5.e-002	7.5671
14340	18.365	3.8182	0.	1238.4
14341	18.272	3.7273	0.	1259.4
14342	18.272	3.8182	5.e-002	7.5388
14343	18.549	3.8182	0.	1196.3
14344	18.457	3.7273	0.	1217.3
14345	18.457	3.8182	5.e-002	7.5112
14346	18.734	3.8182	0.	1154.5
14347	18.642	3.7273	0.	1175.4
14348	18.642	3.8182	5.e-002	7.4843
14349	18.919	3.8182	0.	1113.
14350	18.826	3.7273	0.	1133.7
14351	18.826	3.8182	5.e-002	7.4582
14352	19.104	3.8182	0.	1071.8
14353	19.011	3.7273	0.	1092.4
14354	19.011	3.8182	5.e-002	7.4329
14355	19.288	3.8182	0.	1030.8
14356	19.196	3.7273	0.	1051.3
14357	19.196	3.8182	5.e-002	7.4085
14358	19.473	3.8182	0.	990.17
14359	19.381	3.7273	0.	1010.5
14360	19.381	3.8182	5.e-002	7.3851
14361	19.658	3.8182	0.	949.81
14362	19.566	3.7273	0.	970.06
14363	19.566	3.8182	5.e-002	7.3628
14364	19.843	3.8182	0.	909.76
14365	19.75	3.7273	0.	929.89
14366	19.75	3.8182	5.e-002	7.3418
14367	20.027	3.8182	0.	870.04
14368	19.935	3.7273	0.	890.04
14369	19.935	3.8182	5.e-002	7.322
14370	20.212	3.8182	0.	830.64
14371	20.12	3.7273	0.	850.53
14372	20.12	3.8182	5.e-002	7.3038
14373	20.397	3.8182	0.	791.6
14374	20.305	3.7273	0.	811.36
14375	20.305	3.8182	5.e-002	7.2872
14376	20.582	3.8182	0.	752.92
14377	20.489	3.7273	0.	772.56
14378	20.489	3.8182	5.e-002	7.2726
14379	20.767	3.8182	0.	714.62
14380	20.674	3.7273	0.	734.12
14381	20.674	3.8182	5.e-002	7.26
14382	20.951	3.8182	0.	676.72
14383	20.859	3.7273	0.	696.08
14384	20.859	3.8182	5.e-002	7.2497
14385	21.136	3.8182	0.	639.23
14386	21.044	3.7273	0.	658.46
14387	21.044	3.8182	5.e-002	7.2421
14388	21.321	3.8182	0.	602.2
14389	21.228	3.7273	0.	621.27
14390	21.228	3.8182	5.e-002	7.2375
14391	21.506	3.8182	0.	565.64
14392	21.413	3.7273	0.	584.55
14393	21.413	3.8182	5.e-002	7.2363
14394	21.69	3.8182	0.	529.6
14395	21.598	3.7273	0.	548.33
14396	21.598	3.8182	5.e-002	7.2389
14397	21.875	3.8182	0.	494.12
14398	21.783	3.7273	0.	512.65
14399	21.783	3.8182	5.e-002	7.2459
14400	22.06	3.8182	0.	459.26
14401	21.968	3.7273	0.	477.57
14402	21.968	3.8182	5.e-002	7.2579
14403	22.245	3.8182	0.	425.09
14404	22.152	3.7273	0.	443.13
14405	22.152	3.8182	5.e-002	7.2755
14406	22.429	3.8182	0.	391.7
14407	22.337	3.7273	0.	409.43
14408	22.337	3.8182	5.e-002	7.2994
14409	22.614	3.8182	0.	359.21
14410	22.522	3.7273	0.	376.57
14411	22.522	3.8182	5.e-002	7.3305
14412	22.799	3.8182	0.	327.8
14413	22.707	3.7273	0.	344.69
14414	22.707	3.8182	5.e-002	7.3694
14415	22.984	3.8182	0.	297.71
14416	22.891	3.7273	0.	314.
14417	22.891	3.8182	5.e-002	7.417
14418	23.169	3.8182	0.	269.26
14419	23.076	3.7273	0.	284.77
14420	23.076	3.8182	5.e-002	7.4738
14421	23.353	3.8182	0.	242.95
14422	23.261	3.7273	0.	257.41
14423	23.261	3.8182	5.e-002	7.5402
14424	23.538	3.8182	0.	219.46
14425	23.446	3.7273	0.	232.49
14426	23.446	3.8182	5.e-002	7.6161
14427	23.723	3.8182	0.	199.74
14428	23.63	3.7273	0.	210.83
14429	23.63	3.8182	5.e-002	7.7029
14430	23.815	3.7273	0.	193.5
14431	23.815	3.8182	5.e-002	7.8341
14432	23.908	3.8182	0.	185.58
14433	2.8438	3.6364	0.	12830
14434	2.7514	3.5455	0.	13667
14435	2.7514	3.6364	5.e-002	394.19
14436	3.0286	3.6364	0.	10531
14437	2.9362	3.5455	0.	11435
14438	2.9362	3.6364	5.e-002	307.6
14439	3.2134	3.6364	0.	8957.7
14440	3.121	3.5455	0.	9714.2
14441	3.121	3.6364	5.e-002	222.82
14442	3.3981	3.6364	0.	7878.7
14443	3.3057	3.5455	0.	8468.
14444	3.3057	3.6364	5.e-002	157.28
14445	3.5829	3.6364	0.	7112.2
14446	3.4905	3.5455	0.	7562.7
14447	3.4905	3.6364	5.e-002	119.48
14448	3.7677	3.6364	0.	6546.5
14449	3.6753	3.5455	0.	6889.9
14450	3.6753	3.6364	5.e-002	94.406
14451	3.9524	3.6364	0.	6117.6
14452	3.8601	3.5455	0.	6380.3
14453	3.8601	3.6364	5.e-002	76.356
14454	4.1372	3.6364	0.	5785.4
14455	4.0448	3.5455	0.	5987.4
14456	4.0448	3.6364	5.e-002	62.71
14457	4.322	3.6364	0.	5523.3
14458	4.2296	3.5455	0.	5679.9
14459	4.2296	3.6364	5.e-002	52.1
14460	4.5068	3.6364	0.	5313.1
14461	4.4144	3.5455	0.	5435.6
14462	4.4144	3.6364	5.e-002	43.719
14463	4.6915	3.6364	0.	5142.
14464	4.5991	3.5455	0.	5238.9
14465	4.5991	3.6364	5.e-002	37.044
14466	4.8763	3.6364	0.	5000.4
14467	4.7839	3.5455	0.	5078.
14468	4.7839	3.6364	5.e-002	31.705
14469	5.0611	3.6364	0.	4881.3
14470	4.9687	3.5455	0.	4944.4
14471	4.9687	3.6364	5.e-002	27.425
14472	5.2458	3.6364	0.	4779.3
14473	5.1534	3.5455	0.	4831.6
14474	5.1534	3.6364	5.e-002	23.991
14475	5.4306	3.6364	0.	4690.3
14476	5.3382	3.5455	0.	4734.6
14477	5.3382	3.6364	5.e-002	21.234
14478	5.6154	3.6364	0.	4611.4
14479	5.523	3.5455	0.	4649.6
14480	5.523	3.6364	5.e-002	19.021
14481	5.8001	3.6364	0.	4540.
14482	5.7078	3.5455	0.	4573.7
14483	5.7078	3.6364	5.e-002	17.243
14484	5.9849	3.6364	0.	4474.3
14485	5.8925	3.5455	0.	4504.8
14486	5.8925	3.6364	5.e-002	15.816
14487	6.1697	3.6364	0.	4413.
14488	6.0773	3.5455	0.	4441.2
14489	6.0773	3.6364	5.e-002	14.667
14490	6.3545	3.6364	0.	4354.9
14491	6.2621	3.5455	0.	4381.4
14492	6.2621	3.6364	5.e-002	13.742
14493	6.5392	3.6364	0.	4299.3
14494	6.4468	3.5455	0.	4324.6
14495	6.4468	3.6364	5.e-002	12.995
14496	6.724	3.6364	0.	4245.4
14497	6.6316	3.5455	0.	4269.9
14498	6.6316	3.6364	5.e-002	12.389
14499	6.9088	3.6364	0.	4192.8
14500	6.8164	3.5455	0.	4216.8
14501	6.8164	3.6364	5.e-002	11.895
14502	7.0935	3.6364	0.	4141.1
14503	7.0011	3.5455	0.	4164.8
14504	7.0011	3.6364	5.e-002	11.49
14505	7.2783	3.6364	0.	4090.1
14506	7.1859	3.5455	0.	4113.6
14507	7.1859	3.6364	5.e-002	11.156
14508	7.4631	3.6364	0.	4039.6
14509	7.3707	3.5455	0.	4063.
14510	7.3707	3.6364	5.e-002	10.878
14511	7.6478	3.6364	0.	3989.3
14512	7.5555	3.5455	0.	4012.7
14513	7.5555	3.6364	5.e-002	10.644
14514	7.8326	3.6364	0.	3939.3
14515	7.7402	3.5455	0.	3962.7
14516	7.7402	3.6364	5.e-002	10.446
14517	8.0174	3.6364	0.	3889.3
14518	7.925	3.5455	0.	3912.8
14519	7.925	3.6364	5.e-002	10.276
14520	8.2022	3.6364	0.	3839.4
14521	8.1098	3.5455	0.	3863.
14522	8.1098	3.6364	5.e-002	10.129
14523	8.3869	3.6364	0.	3789.6
14524	8.2945	3.5455	0.	3813.3
14525	8.2945	3.6364	5.e-002	10.
14526	8.5717	3.6364	0.	3739.7
14527	8.4793	3.5455	0.	3763.5
14528	8.4793	3.6364	5.e-002	9.8864
14529	8.7565	3.6364	0.	3689.8
14530	8.6641	3.5455	0.	3713.7
14531	8.6641	3.6364	5.e-002	9.7843
14532	8.9412	3.6364	0.	3640.
14533	8.8489	3.5455	0.	3663.9
14534	8.8489	3.6364	5.e-002	9.692
14535	9.126	3.6364	0.	3590.1
14536	9.0336	3.5455	0.	3614.1
14537	9.0336	3.6364	5.e-002	9.6077
14538	9.3108	3.6364	0.	3540.2
14539	9.2184	3.5455	0.	3564.3
14540	9.2184	3.6364	5.e-002	9.5301
14541	9.4955	3.6364	0.	3490.3
14542	9.4032	3.5455	0.	3514.4
14543	9.4032	3.6364	5.e-002	9.4579
14544	9.6803	3.6364	0.	3440.4
14545	9.5879	3.5455	0.	3464.6
14546	9.5879	3.6364	5.e-002	9.3903
14547	9.8651	3.6364	0.	3390.5
14548	9.7727	3.5455	0.	3414.7
14549	9.7727	3.6364	5.e-002	9.3266
14550	10.05	3.6364	0.	3340.6
14551	9.9575	3.5455	0.	3364.9
14552	9.9575	3.6364	5.e-002	9.2663
14553	10.235	3.6364	0.	3290.8
14554	10.142	3.5455	0.	3315.1
14555	10.142	3.6364	5.e-002	9.2087
14556	10.419	3.6364	0.	3241.
14557	10.327	3.5455	0.	3265.4
14558	10.327	3.6364	5.e-002	9.1534
14559	10.604	3.6364	0.	3191.3
14560	10.512	3.5455	0.	3215.6
14561	10.512	3.6364	5.e-002	9.1004
14562	10.789	3.6364	0.	3141.7
14563	10.697	3.5455	0.	3166.
14564	10.697	3.6364	5.e-002	9.0493
14565	10.974	3.6364	0.	3092.1
14566	10.881	3.5455	0.	3116.4
14567	10.881	3.6364	5.e-002	8.9997
14568	11.158	3.6364	0.	3042.6
14569	11.066	3.5455	0.	3066.9
14570	11.066	3.6364	5.e-002	8.9514
14571	11.343	3.6364	0.	2993.2
14572	11.251	3.5455	0.	3017.5
14573	11.251	3.6364	5.e-002	8.9044
14574	11.528	3.6364	0.	2943.9
14575	11.436	3.5455	0.	2968.2
14576	11.436	3.6364	5.e-002	8.8588
14577	11.713	3.6364	0.	2894.8
14578	11.62	3.5455	0.	2919.
14579	11.62	3.6364	5.e-002	8.8142
14580	11.898	3.6364	0.	2845.7
14581	11.805	3.5455	0.	2869.9
14582	11.805	3.6364	5.e-002	8.7704
14583	12.082	3.6364	0.	2796.8
14584	11.99	3.5455	0.	2820.9
14585	11.99	3.6364	5.e-002	8.7273
14586	12.267	3.6364	0.	2748.
14587	12.175	3.5455	0.	2772.1
14588	12.175	3.6364	5.e-002	8.6851
14589	12.452	3.6364	0.	2699.3
14590	12.359	3.5455	0.	2723.3
14591	12.359	3.6364	5.e-002	8.6437
14592	12.637	3.6364	0.	2650.8
14593	12.544	3.5455	0.	2674.8
14594	12.544	3.6364	5.e-002	8.603
14595	12.821	3.6364	0.	2602.4
14596	12.729	3.5455	0.	2626.3
14597	12.729	3.6364	5.e-002	8.5628
14598	13.006	3.6364	0.	2554.2
14599	12.914	3.5455	0.	2578.
14600	12.914	3.6364	5.e-002	8.523
14601	13.191	3.6364	0.	2506.2
14602	13.099	3.5455	0.	2529.9
14603	13.099	3.6364	5.e-002	8.4838
14604	13.376	3.6364	0.	2458.3
14605	13.283	3.5455	0.	2481.9
14606	13.283	3.6364	5.e-002	8.4452
14607	13.56	3.6364	0.	2410.5
14608	13.468	3.5455	0.	2434.1
14609	13.468	3.6364	5.e-002	8.4071
14610	13.745	3.6364	0.	2363.
14611	13.653	3.5455	0.	2386.5
14612	13.653	3.6364	5.e-002	8.3693
14613	13.93	3.6364	0.	2315.6
14614	13.838	3.5455	0.	2339.
14615	13.838	3.6364	5.e-002	8.3318
14616	14.115	3.6364	0.	2268.4
14617	14.022	3.5455	0.	2291.7
14618	14.022	3.6364	5.e-002	8.2948
14619	14.3	3.6364	0.	2221.3
14620	14.207	3.5455	0.	2244.6
14621	14.207	3.6364	5.e-002	8.2583
14622	14.484	3.6364	0.	2174.5
14623	14.392	3.5455	0.	2197.7
14624	14.392	3.6364	5.e-002	8.2221
14625	14.669	3.6364	0.	2127.8
14626	14.577	3.5455	0.	2150.9
14627	14.577	3.6364	5.e-002	8.1861
14628	14.854	3.6364	0.	2081.3
14629	14.761	3.5455	0.	2104.3
14630	14.761	3.6364	5.e-002	8.1504
14631	15.039	3.6364	0.	2035.1
14632	14.946	3.5455	0.	2058.
14633	14.946	3.6364	5.e-002	8.115
14634	15.223	3.6364	0.	1989.
14635	15.131	3.5455	0.	2011.8
14636	15.131	3.6364	5.e-002	8.0802
14637	15.408	3.6364	0.	1943.1
14638	15.316	3.5455	0.	1965.8
14639	15.316	3.6364	5.e-002	8.0456
14640	15.593	3.6364	0.	1897.4
14641	15.501	3.5455	0.	1920.
14642	15.501	3.6364	5.e-002	8.0112
14643	15.778	3.6364	0.	1851.9
14644	15.685	3.5455	0.	1874.4
14645	15.685	3.6364	5.e-002	7.9771
14646	15.963	3.6364	0.	1806.6
14647	15.87	3.5455	0.	1829.1
14648	15.87	3.6364	5.e-002	7.9434
14649	16.147	3.6364	0.	1761.6
14650	16.055	3.5455	0.	1783.9
14651	16.055	3.6364	5.e-002	7.91
14652	16.332	3.6364	0.	1716.7
14653	16.24	3.5455	0.	1738.9
14654	16.24	3.6364	5.e-002	7.8769
14655	16.517	3.6364	0.	1672.1
14656	16.424	3.5455	0.	1694.2
14657	16.424	3.6364	5.e-002	7.8441
14658	16.702	3.6364	0.	1627.6
14659	16.609	3.5455	0.	1649.7
14660	16.609	3.6364	5.e-002	7.8117
14661	16.886	3.6364	0.	1583.5
14662	16.794	3.5455	0.	1605.4
14663	16.794	3.6364	5.e-002	7.7797
14664	17.071	3.6364	0.	1539.5
14665	16.979	3.5455	0.	1561.3
14666	16.979	3.6364	5.e-002	7.7482
14667	17.256	3.6364	0.	1495.7
14668	17.164	3.5455	0.	1517.4
14669	17.164	3.6364	5.e-002	7.7169
14670	17.441	3.6364	0.	1452.2
14671	17.348	3.5455	0.	1473.8
14672	17.348	3.6364	5.e-002	7.686
14673	17.625	3.6364	0.	1409.
14674	17.533	3.5455	0.	1430.4
14675	17.533	3.6364	5.e-002	7.6556
14676	17.81	3.6364	0.	1365.9
14677	17.718	3.5455	0.	1387.3
14678	17.718	3.6364	5.e-002	7.6258
14679	17.995	3.6364	0.	1323.2
14680	17.903	3.5455	0.	1344.4
14681	17.903	3.6364	5.e-002	7.5965
14682	18.18	3.6364	0.	1280.6
14683	18.087	3.5455	0.	1301.8
14684	18.087	3.6364	5.e-002	7.5677
14685	18.365	3.6364	0.	1238.4
14686	18.272	3.5455	0.	1259.4
14687	18.272	3.6364	5.e-002	7.5395
14688	18.549	3.6364	0.	1196.3
14689	18.457	3.5455	0.	1217.3
14690	18.457	3.6364	5.e-002	7.5119
14691	18.734	3.6364	0.	1154.6
14692	18.642	3.5455	0.	1175.4
14693	18.642	3.6364	5.e-002	7.4851
14694	18.919	3.6364	0.	1113.1
14695	18.826	3.5455	0.	1133.8
14696	18.826	3.6364	5.e-002	7.4591
14697	19.104	3.6364	0.	1072.
14698	19.011	3.5455	0.	1092.5
14699	19.011	3.6364	5.e-002	7.4339
14700	19.288	3.6364	0.	1031.1
14701	19.196	3.5455	0.	1051.5
14702	19.196	3.6364	5.e-002	7.4096
14703	19.473	3.6364	0.	990.47
14704	19.381	3.5455	0.	1010.8
14705	19.381	3.6364	5.e-002	7.3863
14706	19.658	3.6364	0.	950.19
14707	19.566	3.5455	0.	970.36
14708	19.566	3.6364	5.e-002	7.3642
14709	19.843	3.6364	0.	910.23
14710	19.75	3.5455	0.	930.27
14711	19.75	3.6364	5.e-002	7.3433
14712	20.027	3.6364	0.	870.59
14713	19.935	3.5455	0.	890.5
14714	19.935	3.6364	5.e-002	7.3238
14715	20.212	3.6364	0.	831.3
14716	20.12	3.5455	0.	851.07
14717	20.12	3.6364	5.e-002	7.3057
14718	20.397	3.6364	0.	792.37
14719	20.305	3.5455	0.	812.
14720	20.305	3.6364	5.e-002	7.2895
14721	20.582	3.6364	0.	753.8
14722	20.489	3.5455	0.	773.29
14723	20.489	3.6364	5.e-002	7.2751
14724	20.767	3.6364	0.	715.63
14725	20.674	3.5455	0.	734.96
14726	20.674	3.6364	5.e-002	7.263
14727	20.951	3.6364	0.	677.87
14728	20.859	3.5455	0.	697.04
14729	20.859	3.6364	5.e-002	7.2532
14730	21.136	3.6364	0.	640.53
14731	21.044	3.5455	0.	659.54
14732	21.044	3.6364	5.e-002	7.2461
14733	21.321	3.6364	0.	603.65
14734	21.228	3.5455	0.	622.49
14735	21.228	3.6364	5.e-002	7.2422
14736	21.506	3.6364	0.	567.26
14737	21.413	3.5455	0.	585.91
14738	21.413	3.6364	5.e-002	7.2418
14739	21.69	3.6364	0.	531.39
14740	21.598	3.5455	0.	549.84
14741	21.598	3.6364	5.e-002	7.2453
14742	21.875	3.6364	0.	496.09
14743	21.783	3.5455	0.	514.31
14744	21.783	3.6364	5.e-002	7.2532
14745	22.06	3.6364	0.	461.41
14746	21.968	3.5455	0.	479.38
14747	21.968	3.6364	5.e-002	7.2662
14748	22.245	3.6364	0.	427.42
14749	22.152	3.5455	0.	445.1
14750	22.152	3.6364	5.e-002	7.2848
14751	22.429	3.6364	0.	394.22
14752	22.337	3.5455	0.	411.56
14753	22.337	3.6364	5.e-002	7.3098
14754	22.614	3.6364	0.	361.92
14755	22.522	3.5455	0.	378.86
14756	22.522	3.6364	5.e-002	7.3417
14757	22.799	3.6364	0.	330.69
14758	22.707	3.5455	0.	347.14
14759	22.707	3.6364	5.e-002	7.3813
14760	22.984	3.6364	0.	300.77
14761	22.891	3.5455	0.	316.61
14762	22.891	3.6364	5.e-002	7.4291
14763	23.169	3.6364	0.	272.5
14764	23.076	3.5455	0.	287.53
14765	23.076	3.6364	5.e-002	7.4854
14766	23.353	3.6364	0.	246.36
14767	23.261	3.5455	0.	260.32
14768	23.261	3.6364	5.e-002	7.5507
14769	23.538	3.6364	0.	223.03
14770	23.446	3.5455	0.	235.54
14771	23.446	3.6364	5.e-002	7.6244
14772	23.723	3.6364	0.	203.43
14773	23.63	3.5455	0.	214.
14774	23.63	3.6364	5.e-002	7.7074
14775	23.815	3.5455	0.	196.75
14776	23.815	3.6364	5.e-002	7.8227
14777	23.908	3.6364	0.	189.39
14778	2.8438	3.4545	0.	12298
14779	2.7514	3.3636	0.	12858
14780	2.7514	3.4545	5.e-002	228.11
14781	3.0286	3.4545	0.	10643
14782	2.9362	3.3636	0.	11349
14783	2.9362	3.4545	5.e-002	237.59
14784	3.2134	3.4545	0.	9235.8
14785	3.121	3.3636	0.	9895.8
14786	3.121	3.4545	5.e-002	195.31
14787	3.3981	3.4545	0.	8156.
14788	3.3057	3.3636	0.	8704.6
14789	3.3057	3.4545	5.e-002	156.13
14790	3.5829	3.4545	0.	7341.7
14791	3.4905	3.3636	0.	7775.9
14792	3.4905	3.4545	5.e-002	124.34
14793	3.7677	3.4545	0.	6724.
14794	3.6753	3.3636	0.	7061.1
14795	3.6753	3.4545	5.e-002	100.07
14796	3.9524	3.4545	0.	6250.1
14797	3.8601	3.3636	0.	6510.4
14798	3.8601	3.4545	5.e-002	81.397
14799	4.1372	3.4545	0.	5881.9
14800	4.0448	3.3636	0.	6083.3
14801	4.0448	3.4545	5.e-002	66.809
14802	4.322	3.4545	0.	5592.2
14803	4.2296	3.3636	0.	5748.9
14804	4.2296	3.4545	5.e-002	55.304
14805	4.5068	3.4545	0.	5361.3
14806	4.4144	3.3636	0.	5484.3
14807	4.4144	3.4545	5.e-002	46.184
14808	4.6915	3.4545	0.	5174.9
14809	4.5991	3.3636	0.	5272.4
14810	4.5991	3.4545	5.e-002	38.934
14811	4.8763	3.4545	0.	5022.
14812	4.7839	3.3636	0.	5100.4
14813	4.7839	3.4545	5.e-002	33.159
14814	5.0611	3.4545	0.	4894.7
14815	4.9687	3.3636	0.	4958.7
14816	4.9687	3.4545	5.e-002	28.553
14817	5.2458	3.4545	0.	4786.9
14818	5.1534	3.3636	0.	4840.
14819	5.1534	3.4545	5.e-002	24.874
14820	5.4306	3.4545	0.	4693.8
14821	5.3382	3.3636	0.	4738.9
14822	5.3382	3.4545	5.e-002	21.933
14823	5.6154	3.4545	0.	4612.
14824	5.523	3.3636	0.	4651.
14825	5.523	3.4545	5.e-002	19.58
14826	5.8001	3.4545	0.	4538.6
14827	5.7078	3.3636	0.	4573.2
14828	5.7078	3.4545	5.e-002	17.694
14829	5.9849	3.4545	0.	4471.7
14830	5.8925	3.3636	0.	4503.
14831	5.8925	3.4545	5.e-002	16.181
14832	6.1697	3.4545	0.	4409.6
14833	6.0773	3.3636	0.	4438.5
14834	6.0773	3.4545	5.e-002	14.965
14835	6.3545	3.4545	0.	4351.1
14836	6.2621	3.3636	0.	4378.3
14837	6.2621	3.4545	5.e-002	13.985
14838	6.5392	3.4545	0.	4295.2
14839	6.4468	3.3636	0.	4321.2
14840	6.4468	3.4545	5.e-002	13.192
14841	6.724	3.4545	0.	4241.3
14842	6.6316	3.3636	0.	4266.4
14843	6.6316	3.4545	5.e-002	12.55
14844	6.9088	3.4545	0.	4188.8
14845	6.8164	3.3636	0.	4213.3
14846	6.8164	3.4545	5.e-002	12.026
14847	7.0935	3.4545	0.	4137.3
14848	7.0011	3.3636	0.	4161.4
14849	7.0011	3.4545	5.e-002	11.596
14850	7.2783	3.4545	0.	4086.4
14851	7.1859	3.3636	0.	4110.4
14852	7.1859	3.4545	5.e-002	11.242
14853	7.4631	3.4545	0.	4036.1
14854	7.3707	3.3636	0.	4060.
14855	7.3707	3.4545	5.e-002	10.947
14856	7.6478	3.4545	0.	3986.1
14857	7.5555	3.3636	0.	4009.9
14858	7.5555	3.4545	5.e-002	10.7
14859	7.8326	3.4545	0.	3936.2
14860	7.7402	3.3636	0.	3960.1
14861	7.7402	3.4545	5.e-002	10.491
14862	8.0174	3.4545	0.	3886.5
14863	7.925	3.3636	0.	3910.4
14864	7.925	3.4545	5.e-002	10.313
14865	8.2022	3.4545	0.	3836.8
14866	8.1098	3.3636	0.	3860.8
14867	8.1098	3.4545	5.e-002	10.159
14868	8.3869	3.4545	0.	3787.2
14869	8.2945	3.3636	0.	3811.2
14870	8.2945	3.4545	5.e-002	10.024
14871	8.5717	3.4545	0.	3737.5
14872	8.4793	3.3636	0.	3761.6
14873	8.4793	3.4545	5.e-002	9.9056
14874	8.7565	3.4545	0.	3687.8
14875	8.6641	3.3636	0.	3712.
14876	8.6641	3.4545	5.e-002	9.7999
14877	8.9412	3.4545	0.	3638.1
14878	8.8489	3.3636	0.	3662.3
14879	8.8489	3.4545	5.e-002	9.7047
14880	9.126	3.4545	0.	3588.3
14881	9.0336	3.3636	0.	3612.6
14882	9.0336	3.4545	5.e-002	9.6181
14883	9.3108	3.4545	0.	3538.6
14884	9.2184	3.3636	0.	3562.9
14885	9.2184	3.4545	5.e-002	9.5385
14886	9.4955	3.4545	0.	3488.8
14887	9.4032	3.3636	0.	3513.2
14888	9.4032	3.4545	5.e-002	9.4649
14889	9.6803	3.4545	0.	3439.
14890	9.5879	3.3636	0.	3463.4
14891	9.5879	3.4545	5.e-002	9.3961
14892	9.8651	3.4545	0.	3389.2
14893	9.7727	3.3636	0.	3413.6
14894	9.7727	3.4545	5.e-002	9.3315
14895	10.05	3.4545	0.	3339.4
14896	9.9575	3.3636	0.	3363.9
14897	9.9575	3.4545	5.e-002	9.2704
14898	10.235	3.4545	0.	3289.7
14899	10.142	3.3636	0.	3314.2
14900	10.142	3.4545	5.e-002	9.2122
14901	10.419	3.4545	0.	3240.
14902	10.327	3.3636	0.	3264.5
14903	10.327	3.4545	5.e-002	9.1564
14904	10.604	3.4545	0.	3190.4
14905	10.512	3.3636	0.	3214.8
14906	10.512	3.4545	5.e-002	9.103
14907	10.789	3.4545	0.	3140.8
14908	10.697	3.3636	0.	3165.2
14909	10.697	3.4545	5.e-002	9.0516
14910	10.974	3.4545	0.	3091.3
14911	10.881	3.3636	0.	3115.7
14912	10.881	3.4545	5.e-002	9.0017
14913	11.158	3.4545	0.	3041.8
14914	11.066	3.3636	0.	3066.2
14915	11.066	3.4545	5.e-002	8.9531
14916	11.343	3.4545	0.	2992.5
14917	11.251	3.3636	0.	3016.9
14918	11.251	3.4545	5.e-002	8.906
14919	11.528	3.4545	0.	2943.3
14920	11.436	3.3636	0.	2967.6
14921	11.436	3.4545	5.e-002	8.8602
14922	11.713	3.4545	0.	2894.1
14923	11.62	3.3636	0.	2918.4
14924	11.62	3.4545	5.e-002	8.8155
14925	11.898	3.4545	0.	2845.1
14926	11.805	3.3636	0.	2869.4
14927	11.805	3.4545	5.e-002	8.7715
14928	12.082	3.4545	0.	2796.2
14929	11.99	3.3636	0.	2820.4
14930	11.99	3.4545	5.e-002	8.7284
14931	12.267	3.4545	0.	2747.4
14932	12.175	3.3636	0.	2771.6
14933	12.175	3.4545	5.e-002	8.686
14934	12.452	3.4545	0.	2698.8
14935	12.359	3.3636	0.	2722.9
14936	12.359	3.4545	5.e-002	8.6446
14937	12.637	3.4545	0.	2650.3
14938	12.544	3.3636	0.	2674.3
14939	12.544	3.4545	5.e-002	8.6038
14940	12.821	3.4545	0.	2602.
14941	12.729	3.3636	0.	2625.9
14942	12.729	3.4545	5.e-002	8.5635
14943	13.006	3.4545	0.	2553.8
14944	12.914	3.3636	0.	2577.6
14945	12.914	3.4545	5.e-002	8.5237
14946	13.191	3.4545	0.	2505.7
14947	13.099	3.3636	0.	2529.5
14948	13.099	3.4545	5.e-002	8.4845
14949	13.376	3.4545	0.	2457.8
14950	13.283	3.3636	0.	2481.6
14951	13.283	3.4545	5.e-002	8.4459
14952	13.56	3.4545	0.	2410.1
14953	13.468	3.3636	0.	2433.8
14954	13.468	3.4545	5.e-002	8.4077
14955	13.745	3.4545	0.	2362.6
14956	13.653	3.3636	0.	2386.2
14957	13.653	3.4545	5.e-002	8.3698
14958	13.93	3.4545	0.	2315.2
14959	13.838	3.3636	0.	2338.7
14960	13.838	3.4545	5.e-002	8.3323
14961	14.115	3.4545	0.	2268.
14962	14.022	3.3636	0.	2291.4
14963	14.022	3.4545	5.e-002	8.2953
14964	14.3	3.4545	0.	2221.
14965	14.207	3.3636	0.	2244.3
14966	14.207	3.4545	5.e-002	8.2587
14967	14.484	3.4545	0.	2174.1
14968	14.392	3.3636	0.	2197.4
14969	14.392	3.4545	5.e-002	8.2225
14970	14.669	3.4545	0.	2127.5
14971	14.577	3.3636	0.	2150.6
14972	14.577	3.4545	5.e-002	8.1865
14973	14.854	3.4545	0.	2081.
14974	14.761	3.3636	0.	2104.1
14975	14.761	3.4545	5.e-002	8.1508
14976	15.039	3.4545	0.	2034.7
14977	14.946	3.3636	0.	2057.7
14978	14.946	3.4545	5.e-002	8.1154
14979	15.223	3.4545	0.	1988.7
14980	15.131	3.3636	0.	2011.5
14981	15.131	3.4545	5.e-002	8.0805
14982	15.408	3.4545	0.	1942.8
14983	15.316	3.3636	0.	1965.6
14984	15.316	3.4545	5.e-002	8.0459
14985	15.593	3.4545	0.	1897.1
14986	15.501	3.3636	0.	1919.8
14987	15.501	3.4545	5.e-002	8.0115
14988	15.778	3.4545	0.	1851.6
14989	15.685	3.3636	0.	1874.2
14990	15.685	3.4545	5.e-002	7.9774
14991	15.963	3.4545	0.	1806.4
14992	15.87	3.3636	0.	1828.8
14993	15.87	3.4545	5.e-002	7.9437
14994	16.147	3.4545	0.	1761.3
14995	16.055	3.3636	0.	1783.7
14996	16.055	3.4545	5.e-002	7.9104
14997	16.332	3.4545	0.	1716.5
14998	16.24	3.3636	0.	1738.7
14999	16.24	3.4545	5.e-002	7.8773
15000	16.517	3.4545	0.	1671.9
15001	16.424	3.3636	0.	1694.
15002	16.424	3.4545	5.e-002	7.8444
15003	16.702	3.4545	0.	1627.4
15004	16.609	3.3636	0.	1649.5
15005	16.609	3.4545	5.e-002	7.812
15006	16.886	3.4545	0.	1583.3
15007	16.794	3.3636	0.	1605.2
15008	16.794	3.4545	5.e-002	7.7801
15009	17.071	3.4545	0.	1539.3
15010	16.979	3.3636	0.	1561.1
15011	16.979	3.4545	5.e-002	7.7485
15012	17.256	3.4545	0.	1495.6
15013	17.164	3.3636	0.	1517.3
15014	17.164	3.4545	5.e-002	7.7173
15015	17.441	3.4545	0.	1452.1
15016	17.348	3.3636	0.	1473.7
15017	17.348	3.4545	5.e-002	7.6864
15018	17.625	3.4545	0.	1408.8
15019	17.533	3.3636	0.	1430.3
15020	17.533	3.4545	5.e-002	7.656
15021	17.81	3.4545	0.	1365.8
15022	17.718	3.3636	0.	1387.2
15023	17.718	3.4545	5.e-002	7.6263
15024	17.995	3.4545	0.	1323.1
15025	17.903	3.3636	0.	1344.3
15026	17.903	3.4545	5.e-002	7.597
15027	18.18	3.4545	0.	1280.6
15028	18.087	3.3636	0.	1301.7
15029	18.087	3.4545	5.e-002	7.5682
15030	18.365	3.4545	0.	1238.3
15031	18.272	3.3636	0.	1259.4
15032	18.272	3.4545	5.e-002	7.54
15033	18.549	3.4545	0.	1196.4
15034	18.457	3.3636	0.	1217.3
15035	18.457	3.4545	5.e-002	7.5125
15036	18.734	3.4545	0.	1154.7
15037	18.642	3.3636	0.	1175.4
15038	18.642	3.4545	5.e-002	7.4857
15039	18.919	3.4545	0.	1113.2
15040	18.826	3.3636	0.	1133.9
15041	18.826	3.4545	5.e-002	7.4598
15042	19.104	3.4545	0.	1072.1
15043	19.011	3.3636	0.	1092.6
15044	19.011	3.4545	5.e-002	7.4346
15045	19.288	3.4545	0.	1031.3
15046	19.196	3.3636	0.	1051.6
15047	19.196	3.4545	5.e-002	7.4104
15048	19.473	3.4545	0.	990.71
15049	19.381	3.3636	0.	1011.
15050	19.381	3.4545	5.e-002	7.3872
15051	19.658	3.4545	0.	950.49
15052	19.566	3.3636	0.	970.59
15053	19.566	3.4545	5.e-002	7.3652
15054	19.843	3.4545	0.	910.59
15055	19.75	3.3636	0.	930.55
15056	19.75	3.4545	5.e-002	7.3444
15057	20.027	3.4545	0.	871.03
15058	19.935	3.3636	0.	890.84
15059	19.935	3.4545	5.e-002	7.3251
15060	20.212	3.4545	0.	831.81
15061	20.12	3.3636	0.	851.47
15062	20.12	3.4545	5.e-002	7.3072
15063	20.397	3.4545	0.	792.96
15064	20.305	3.3636	0.	812.46
15065	20.305	3.4545	5.e-002	7.2912
15066	20.582	3.4545	0.	754.49
15067	20.489	3.3636	0.	773.82
15068	20.489	3.4545	5.e-002	7.2771
15069	20.767	3.4545	0.	716.41
15070	20.674	3.3636	0.	735.58
15071	20.674	3.4545	5.e-002	7.2653
15072	20.951	3.4545	0.	678.75
15073	20.859	3.3636	0.	697.74
15074	20.859	3.4545	5.e-002	7.2558
15075	21.136	3.4545	0.	641.53
15076	21.044	3.3636	0.	660.33
15077	21.044	3.4545	5.e-002	7.2492
15078	21.321	3.4545	0.	604.76
15079	21.228	3.3636	0.	623.37
15080	21.228	3.4545	5.e-002	7.2458
15081	21.506	3.4545	0.	568.5
15082	21.413	3.3636	0.	586.89
15083	21.413	3.4545	5.e-002	7.2459
15084	21.69	3.4545	0.	532.75
15085	21.598	3.3636	0.	550.92
15086	21.598	3.4545	5.e-002	7.2501
15087	21.875	3.4545	0.	497.58
15088	21.783	3.3636	0.	515.51
15089	21.783	3.4545	5.e-002	7.2587
15090	22.06	3.4545	0.	463.04
15091	21.968	3.3636	0.	480.69
15092	21.968	3.4545	5.e-002	7.2724
15093	22.245	3.4545	0.	429.19
15094	22.152	3.3636	0.	446.52
15095	22.152	3.4545	5.e-002	7.2919
15096	22.429	3.4545	0.	396.12
15097	22.337	3.3636	0.	413.09
15098	22.337	3.4545	5.e-002	7.3176
15099	22.614	3.4545	0.	363.95
15100	22.522	3.3636	0.	380.5
15101	22.522	3.4545	5.e-002	7.3501
15102	22.799	3.4545	0.	332.85
15103	22.707	3.3636	0.	348.9
15104	22.707	3.4545	5.e-002	7.3901
15105	22.984	3.4545	0.	303.07
15106	22.891	3.3636	0.	318.46
15107	22.891	3.4545	5.e-002	7.4379
15108	23.169	3.4545	0.	274.92
15109	23.076	3.3636	0.	289.49
15110	23.076	3.4545	5.e-002	7.4939
15111	23.353	3.4545	0.	248.9
15112	23.261	3.3636	0.	262.39
15113	23.261	3.4545	5.e-002	7.5582
15114	23.538	3.4545	0.	225.68
15115	23.446	3.3636	0.	237.7
15116	23.446	3.4545	5.e-002	7.6303
15117	23.723	3.4545	0.	206.16
15118	23.63	3.3636	0.	216.25
15119	23.63	3.4545	5.e-002	7.7105
15120	23.815	3.3636	0.	199.05
15121	23.815	3.4545	5.e-002	7.8141
15122	23.908	3.4545	0.	192.22
15123	2.8438	3.2727	0.	11921
15124	2.7514	3.1818	0.	12411
15125	2.7514	3.2727	5.e-002	148.94
15126	3.0286	3.2727	0.	10620
15127	2.9362	3.1818	0.	11229
15128	2.9362	3.2727	5.e-002	178.97
15129	3.2134	3.2727	0.	9377.1
15130	3.121	3.1818	0.	9964.2
15131	3.121	3.2727	5.e-002	172.35
15132	3.3981	3.2727	0.	8331.2
15133	3.3057	3.1818	0.	8833.3
15134	3.3057	3.2727	5.e-002	150.18
15135	3.5829	3.2727	0.	7498.7
15136	3.4905	3.1818	0.	7903.8
15137	3.4905	3.2727	5.e-002	125.66
15138	3.7677	3.2727	0.	6849.1
15139	3.6753	3.1818	0.	7167.7
15140	3.6753	3.2727	5.e-002	103.5
15141	3.9524	3.2727	0.	6344.4
15142	3.8601	3.1818	0.	6592.5
15143	3.8601	3.2727	5.e-002	84.888
15144	4.1372	3.2727	0.	5950.6
15145	4.0448	3.1818	0.	6143.9
15146	4.0448	3.2727	5.e-002	69.749
15147	4.322	3.2727	0.	5641.1
15148	4.2296	3.1818	0.	5792.5
15149	4.2296	3.2727	5.e-002	57.613
15150	4.5068	3.2727	0.	5395.4
15151	4.4144	3.1818	0.	5514.9
15152	4.4144	3.2727	5.e-002	47.947
15153	4.6915	3.2727	0.	5197.9
15154	4.5991	3.1818	0.	5293.4
15155	4.5991	3.2727	5.e-002	40.267
15156	4.8763	3.2727	0.	5037.1
15157	4.7839	3.1818	0.	5114.3
15158	4.7839	3.2727	5.e-002	34.17
15159	5.0611	3.2727	0.	4904.
15160	4.9687	3.1818	0.	4967.6
15161	4.9687	3.2727	5.e-002	29.325
15162	5.2458	3.2727	0.	4792.1
15163	5.1534	3.1818	0.	4845.3
15164	5.1534	3.2727	5.e-002	25.471
15165	5.4306	3.2727	0.	4696.1
15166	5.3382	3.1818	0.	4741.6
15167	5.3382	3.2727	5.e-002	22.4
15168	5.6154	3.2727	0.	4612.3
15169	5.523	3.1818	0.	4651.9
15170	5.523	3.2727	5.e-002	19.95
15171	5.8001	3.2727	0.	4537.6
15172	5.7078	3.1818	0.	4572.9
15173	5.7078	3.2727	5.e-002	17.991
15174	5.9849	3.2727	0.	4469.8
15175	5.8925	3.1818	0.	4501.9
15176	5.8925	3.2727	5.e-002	16.421
15177	6.1697	3.2727	0.	4407.2
15178	6.0773	3.1818	0.	4436.8
15179	6.0773	3.2727	5.e-002	15.16
15180	6.3545	3.2727	0.	4348.4
15181	6.2621	3.1818	0.	4376.3
15182	6.2621	3.2727	5.e-002	14.144
15183	6.5392	3.2727	0.	4292.4
15184	6.4468	3.1818	0.	4319.1
15185	6.4468	3.2727	5.e-002	13.322
15186	6.724	3.2727	0.	4238.4
15187	6.6316	3.1818	0.	4264.3
15188	6.6316	3.2727	5.e-002	12.656
15189	6.9088	3.2727	0.	4186.
15190	6.8164	3.1818	0.	4211.2
15191	6.8164	3.2727	5.e-002	12.112
15192	7.0935	3.2727	0.	4134.6
15193	7.0011	3.1818	0.	4159.4
15194	7.0011	3.2727	5.e-002	11.667
15195	7.2783	3.2727	0.	4083.9
15196	7.1859	3.1818	0.	4108.4
15197	7.1859	3.2727	5.e-002	11.299
15198	7.4631	3.2727	0.	4033.7
15199	7.3707	3.1818	0.	4058.1
15200	7.3707	3.2727	5.e-002	10.994
15201	7.6478	3.2727	0.	3983.9
15202	7.5555	3.1818	0.	4008.2
15203	7.5555	3.2727	5.e-002	10.738
15204	7.8326	3.2727	0.	3934.2
15205	7.7402	3.1818	0.	3958.5
15206	7.7402	3.2727	5.e-002	10.522
15207	8.0174	3.2727	0.	3884.6
15208	7.925	3.1818	0.	3908.9
15209	7.925	3.2727	5.e-002	10.337
15210	8.2022	3.2727	0.	3835.1
15211	8.1098	3.1818	0.	3859.4
15212	8.1098	3.2727	5.e-002	10.178
15213	8.3869	3.2727	0.	3785.6
15214	8.2945	3.1818	0.	3809.9
15215	8.2945	3.2727	5.e-002	10.04
15216	8.5717	3.2727	0.	3736.
15217	8.4793	3.1818	0.	3760.4
15218	8.4793	3.2727	5.e-002	9.9185
15219	8.7565	3.2727	0.	3686.4
15220	8.6641	3.1818	0.	3710.9
15221	8.6641	3.2727	5.e-002	9.8104
15222	8.9412	3.2727	0.	3636.8
15223	8.8489	3.1818	0.	3661.3
15224	8.8489	3.2727	5.e-002	9.7132
15225	9.126	3.2727	0.	3587.2
15226	9.0336	3.1818	0.	3611.7
15227	9.0336	3.2727	5.e-002	9.625
15228	9.3108	3.2727	0.	3537.5
15229	9.2184	3.1818	0.	3562.1
15230	9.2184	3.2727	5.e-002	9.5442
15231	9.4955	3.2727	0.	3487.8
15232	9.4032	3.1818	0.	3512.4
15233	9.4032	3.2727	5.e-002	9.4696
15234	9.6803	3.2727	0.	3438.1
15235	9.5879	3.1818	0.	3462.7
15236	9.5879	3.2727	5.e-002	9.4
15237	9.8651	3.2727	0.	3388.4
15238	9.7727	3.1818	0.	3413.
15239	9.7727	3.2727	5.e-002	9.3347
15240	10.05	3.2727	0.	3338.7
15241	9.9575	3.1818	0.	3363.3
15242	9.9575	3.2727	5.e-002	9.2731
15243	10.235	3.2727	0.	3289.
15244	10.142	3.1818	0.	3313.6
15245	10.142	3.2727	5.e-002	9.2145
15246	10.419	3.2727	0.	3239.3
15247	10.327	3.1818	0.	3264.
15248	10.327	3.2727	5.e-002	9.1584
15249	10.604	3.2727	0.	3189.7
15250	10.512	3.1818	0.	3214.3
15251	10.512	3.2727	5.e-002	9.1047
15252	10.789	3.2727	0.	3140.2
15253	10.697	3.1818	0.	3164.8
15254	10.697	3.2727	5.e-002	9.0531
15255	10.974	3.2727	0.	3090.7
15256	10.881	3.1818	0.	3115.3
15257	10.881	3.2727	5.e-002	9.003
15258	11.158	3.2727	0.	3041.3
15259	11.066	3.1818	0.	3065.8
15260	11.066	3.2727	5.e-002	8.9543
15261	11.343	3.2727	0.	2992.
15262	11.251	3.1818	0.	3016.5
15263	11.251	3.2727	5.e-002	8.907
15264	11.528	3.2727	0.	2942.8
15265	11.436	3.1818	0.	2967.2
15266	11.436	3.2727	5.e-002	8.8612
15267	11.713	3.2727	0.	2893.7
15268	11.62	3.1818	0.	2918.1
15269	11.62	3.2727	5.e-002	8.8163
15270	11.898	3.2727	0.	2844.7
15271	11.805	3.1818	0.	2869.
15272	11.805	3.2727	5.e-002	8.7723
15273	12.082	3.2727	0.	2795.8
15274	11.99	3.1818	0.	2820.1
15275	11.99	3.2727	5.e-002	8.7291
15276	12.267	3.2727	0.	2747.1
15277	12.175	3.1818	0.	2771.3
15278	12.175	3.2727	5.e-002	8.6867
15279	12.452	3.2727	0.	2698.5
15280	12.359	3.1818	0.	2722.6
15281	12.359	3.2727	5.e-002	8.6452
15282	12.637	3.2727	0.	2650.
15283	12.544	3.1818	0.	2674.1
15284	12.544	3.2727	5.e-002	8.6044
15285	12.821	3.2727	0.	2601.6
15286	12.729	3.1818	0.	2625.7
15287	12.729	3.2727	5.e-002	8.564
15288	13.006	3.2727	0.	2553.5
15289	12.914	3.1818	0.	2577.4
15290	12.914	3.2727	5.e-002	8.5242
15291	13.191	3.2727	0.	2505.4
15292	13.099	3.1818	0.	2529.3
15293	13.099	3.2727	5.e-002	8.4849
15294	13.376	3.2727	0.	2457.6
15295	13.283	3.1818	0.	2481.4
15296	13.283	3.2727	5.e-002	8.4463
15297	13.56	3.2727	0.	2409.9
15298	13.468	3.1818	0.	2433.6
15299	13.468	3.2727	5.e-002	8.4081
15300	13.745	3.2727	0.	2362.3
15301	13.653	3.1818	0.	2386.
15302	13.653	3.2727	5.e-002	8.3702
15303	13.93	3.2727	0.	2314.9
15304	13.838	3.1818	0.	2338.5
15305	13.838	3.2727	5.e-002	8.3327
15306	14.115	3.2727	0.	2267.8
15307	14.022	3.1818	0.	2291.2
15308	14.022	3.2727	5.e-002	8.2956
15309	14.3	3.2727	0.	2220.7
15310	14.207	3.1818	0.	2244.1
15311	14.207	3.2727	5.e-002	8.259
15312	14.484	3.2727	0.	2173.9
15313	14.392	3.1818	0.	2197.2
15314	14.392	3.2727	5.e-002	8.2228
15315	14.669	3.2727	0.	2127.3
15316	14.577	3.1818	0.	2150.5
15317	14.577	3.2727	5.e-002	8.1868
15318	14.854	3.2727	0.	2080.8
15319	14.761	3.1818	0.	2103.9
15320	14.761	3.2727	5.e-002	8.151
15321	15.039	3.2727	0.	2034.5
15322	14.946	3.1818	0.	2057.6
15323	14.946	3.2727	5.e-002	8.1157
15324	15.223	3.2727	0.	1988.5
15325	15.131	3.1818	0.	2011.4
15326	15.131	3.2727	5.e-002	8.0808
15327	15.408	3.2727	0.	1942.6
15328	15.316	3.1818	0.	1965.4
15329	15.316	3.2727	5.e-002	8.0461
15330	15.593	3.2727	0.	1896.9
15331	15.501	3.1818	0.	1919.6
15332	15.501	3.2727	5.e-002	8.0117
15333	15.778	3.2727	0.	1851.5
15334	15.685	3.1818	0.	1874.1
15335	15.685	3.2727	5.e-002	7.9776
15336	15.963	3.2727	0.	1806.2
15337	15.87	3.1818	0.	1828.7
15338	15.87	3.2727	5.e-002	7.9439
15339	16.147	3.2727	0.	1761.2
15340	16.055	3.1818	0.	1783.6
15341	16.055	3.2727	5.e-002	7.9106
15342	16.332	3.2727	0.	1716.3
15343	16.24	3.1818	0.	1738.6
15344	16.24	3.2727	5.e-002	7.8775
15345	16.517	3.2727	0.	1671.7
15346	16.424	3.1818	0.	1693.9
15347	16.424	3.2727	5.e-002	7.8447
15348	16.702	3.2727	0.	1627.3
15349	16.609	3.1818	0.	1649.4
15350	16.609	3.2727	5.e-002	7.8123
15351	16.886	3.2727	0.	1583.1
15352	16.794	3.1818	0.	1605.1
15353	16.794	3.2727	5.e-002	7.7803
15354	17.071	3.2727	0.	1539.2
15355	16.979	3.1818	0.	1561.1
15356	16.979	3.2727	5.e-002	7.7488
15357	17.256	3.2727	0.	1495.5
15358	17.164	3.1818	0.	1517.2
15359	17.164	3.2727	5.e-002	7.7175
15360	17.441	3.2727	0.	1452.
15361	17.348	3.1818	0.	1473.6
15362	17.348	3.2727	5.e-002	7.6867
15363	17.625	3.2727	0.	1408.8
15364	17.533	3.1818	0.	1430.3
15365	17.533	3.2727	5.e-002	7.6563
15366	17.81	3.2727	0.	1365.8
15367	17.718	3.1818	0.	1387.2
15368	17.718	3.2727	5.e-002	7.6265
15369	17.995	3.2727	0.	1323.
15370	17.903	3.1818	0.	1344.3
15371	17.903	3.2727	5.e-002	7.5973
15372	18.18	3.2727	0.	1280.6
15373	18.087	3.1818	0.	1301.7
15374	18.087	3.2727	5.e-002	7.5685
15375	18.365	3.2727	0.	1238.3
15376	18.272	3.1818	0.	1259.3
15377	18.272	3.2727	5.e-002	7.5403
15378	18.549	3.2727	0.	1196.4
15379	18.457	3.1818	0.	1217.3
15380	18.457	3.2727	5.e-002	7.5128
15381	18.734	3.2727	0.	1154.7
15382	18.642	3.1818	0.	1175.5
15383	18.642	3.2727	5.e-002	7.4861
15384	18.919	3.2727	0.	1113.3
15385	18.826	3.1818	0.	1133.9
15386	18.826	3.2727	5.e-002	7.4602
15387	19.104	3.2727	0.	1072.2
15388	19.011	3.1818	0.	1092.7
15389	19.011	3.2727	5.e-002	7.4351
15390	19.288	3.2727	0.	1031.4
15391	19.196	3.1818	0.	1051.7
15392	19.196	3.2727	5.e-002	7.4109
15393	19.473	3.2727	0.	990.88
15394	19.381	3.1818	0.	1011.1
15395	19.381	3.2727	5.e-002	7.3878
15396	19.658	3.2727	0.	950.7
15397	19.566	3.1818	0.	970.73
15398	19.566	3.2727	5.e-002	7.3658
15399	19.843	3.2727	0.	910.84
15400	19.75	3.1818	0.	930.72
15401	19.75	3.2727	5.e-002	7.3452
15402	20.027	3.2727	0.	871.33
15403	19.935	3.1818	0.	891.04
15404	19.935	3.2727	5.e-002	7.3259
15405	20.212	3.2727	0.	832.16
15406	20.12	3.1818	0.	851.71
15407	20.12	3.2727	5.e-002	7.3082
15408	20.397	3.2727	0.	793.37
15409	20.305	3.1818	0.	812.74
15410	20.305	3.2727	5.e-002	7.2923
15411	20.582	3.2727	0.	754.96
15412	20.489	3.1818	0.	774.15
15413	20.489	3.2727	5.e-002	7.2784
15414	20.767	3.2727	0.	716.94
15415	20.674	3.1818	0.	735.95
15416	20.674	3.2727	5.e-002	7.2668
15417	20.951	3.2727	0.	679.35
15418	20.859	3.1818	0.	698.16
15419	20.859	3.2727	5.e-002	7.2576
15420	21.136	3.2727	0.	642.2
15421	21.044	3.1818	0.	660.81
15422	21.044	3.2727	5.e-002	7.2513
15423	21.321	3.2727	0.	605.52
15424	21.228	3.1818	0.	623.91
15425	21.228	3.2727	5.e-002	7.2482
15426	21.506	3.2727	0.	569.33
15427	21.413	3.1818	0.	587.49
15428	21.413	3.2727	5.e-002	7.2487
15429	21.69	3.2727	0.	533.67
15430	21.598	3.1818	0.	551.58
15431	21.598	3.2727	5.e-002	7.2533
15432	21.875	3.2727	0.	498.59
15433	21.783	3.1818	0.	516.23
15434	21.783	3.2727	5.e-002	7.2624
15435	22.06	3.2727	0.	464.13
15436	21.968	3.1818	0.	481.47
15437	21.968	3.2727	5.e-002	7.2766
15438	22.245	3.2727	0.	430.37
15439	22.152	3.1818	0.	447.38
15440	22.152	3.2727	5.e-002	7.2966
15441	22.429	3.2727	0.	397.38
15442	22.337	3.1818	0.	414.01
15443	22.337	3.2727	5.e-002	7.3227
15444	22.614	3.2727	0.	365.3
15445	22.522	3.1818	0.	381.49
15446	22.522	3.2727	5.e-002	7.3557
15447	22.799	3.2727	0.	334.29
15448	22.707	3.1818	0.	349.95
15449	22.707	3.2727	5.e-002	7.3958
15450	22.984	3.2727	0.	304.59
15451	22.891	3.1818	0.	319.58
15452	22.891	3.2727	5.e-002	7.4437
15453	23.169	3.2727	0.	276.53
15454	23.076	3.1818	0.	290.67
15455	23.076	3.2727	5.e-002	7.4994
15456	23.353	3.2727	0.	250.58
15457	23.261	3.1818	0.	263.62
15458	23.261	3.2727	5.e-002	7.5631
15459	23.538	3.2727	0.	227.44
15460	23.446	3.1818	0.	238.99
15461	23.446	3.2727	5.e-002	7.6341
15462	23.723	3.2727	0.	207.98
15463	23.63	3.1818	0.	217.59
15464	23.63	3.2727	5.e-002	7.7125
15465	23.815	3.1818	0.	200.42
15466	23.815	3.2727	5.e-002	7.8083
15467	23.908	3.2727	0.	194.1
15468	2.8438	3.0909	0.	11729
15469	2.7514	3.	0.	12267
15470	2.7514	3.0909	5.e-002	121.34
15471	3.0286	3.0909	0.	10587
15472	2.9362	3.	0.	11182
15473	2.9362	3.0909	5.e-002	154.03
15474	3.2134	3.0909	0.	9432.4
15475	3.121	3.	0.	9979.8
15476	3.121	3.0909	5.e-002	158.74
15477	3.3981	3.0909	0.	8413.8
15478	3.3057	3.	0.	8873.3
15479	3.3057	3.0909	5.e-002	145.65
15480	3.5829	3.0909	0.	7577.5
15481	3.4905	3.	0.	7946.1
15482	3.4905	3.0909	5.e-002	125.6
15483	3.7677	3.0909	0.	6913.6
15484	3.6753	3.	0.	7203.8
15485	3.6753	3.0909	5.e-002	105.
15486	3.9524	3.0909	0.	6393.4
15487	3.8601	3.	0.	6620.6
15488	3.8601	3.0909	5.e-002	86.641
15489	4.1372	3.0909	0.	5986.4
15490	4.0448	3.	0.	6164.7
15491	4.0448	3.0909	5.e-002	71.283
15492	4.322	3.0909	0.	5666.6
15493	4.2296	3.	0.	5807.4
15494	4.2296	3.0909	5.e-002	58.827
15495	4.5068	3.0909	0.	5413.
15496	4.4144	3.	0.	5525.4
15497	4.4144	3.0909	5.e-002	48.87
15498	4.6915	3.0909	0.	5209.8
15499	4.5991	3.	0.	5300.5
15500	4.5991	3.0909	5.e-002	40.96
15501	4.8763	3.0909	0.	5044.8
15502	4.7839	3.	0.	5119.1
15503	4.7839	3.0909	5.e-002	34.689
15504	5.0611	3.0909	0.	4908.8
15505	4.9687	3.	0.	4970.6
15506	4.9687	3.0909	5.e-002	29.718
15507	5.2458	3.0909	0.	4794.7
15508	5.1534	3.	0.	4847.
15509	5.1534	3.0909	5.e-002	25.772
15510	5.4306	3.0909	0.	4697.3
15511	5.3382	3.	0.	4742.4
15512	5.3382	3.0909	5.e-002	22.635
15513	5.6154	3.0909	0.	4612.5
15514	5.523	3.	0.	4652.2
15515	5.523	3.0909	5.e-002	20.135
15516	5.8001	3.0909	0.	4537.1
15517	5.7078	3.	0.	4572.8
15518	5.7078	3.0909	5.e-002	18.138
15519	5.9849	3.0909	0.	4468.9
15520	5.8925	3.	0.	4501.5
15521	5.8925	3.0909	5.e-002	16.539
15522	6.1697	3.0909	0.	4405.9
15523	6.0773	3.	0.	4436.3
15524	6.0773	3.0909	5.e-002	15.256
15525	6.3545	3.0909	0.	4347.
15526	6.2621	3.	0.	4375.6
15527	6.2621	3.0909	5.e-002	14.222
15528	6.5392	3.0909	0.	4290.9
15529	6.4468	3.	0.	4318.4
15530	6.4468	3.0909	5.e-002	13.387
15531	6.724	3.0909	0.	4237.
15532	6.6316	3.	0.	4263.5
15533	6.6316	3.0909	5.e-002	12.708
15534	6.9088	3.0909	0.	4184.6
15535	6.8164	3.	0.	4210.5
15536	6.8164	3.0909	5.e-002	12.155
15537	7.0935	3.0909	0.	4133.2
15538	7.0011	3.	0.	4158.7
15539	7.0011	3.0909	5.e-002	11.702
15540	7.2783	3.0909	0.	4082.6
15541	7.1859	3.	0.	4107.8
15542	7.1859	3.0909	5.e-002	11.328
15543	7.4631	3.0909	0.	4032.5
15544	7.3707	3.	0.	4057.5
15545	7.3707	3.0909	5.e-002	11.017
15546	7.6478	3.0909	0.	3982.7
15547	7.5555	3.	0.	4007.6
15548	7.5555	3.0909	5.e-002	10.757
15549	7.8326	3.0909	0.	3933.1
15550	7.7402	3.	0.	3957.9
15551	7.7402	3.0909	5.e-002	10.537
15552	8.0174	3.0909	0.	3883.7
15553	7.925	3.	0.	3908.4
15554	7.925	3.0909	5.e-002	10.35
15555	8.2022	3.0909	0.	3834.2
15556	8.1098	3.	0.	3858.9
15557	8.1098	3.0909	5.e-002	10.188
15558	8.3869	3.0909	0.	3784.7
15559	8.2945	3.	0.	3809.5
15560	8.2945	3.0909	5.e-002	10.048
15561	8.5717	3.0909	0.	3735.3
15562	8.4793	3.	0.	3760.
15563	8.4793	3.0909	5.e-002	9.925
15564	8.7565	3.0909	0.	3685.8
15565	8.6641	3.	0.	3710.5
15566	8.6641	3.0909	5.e-002	9.8156
15567	8.9412	3.0909	0.	3636.2
15568	8.8489	3.	0.	3661.
15569	8.8489	3.0909	5.e-002	9.7175
15570	9.126	3.0909	0.	3586.6
15571	9.0336	3.	0.	3611.4
15572	9.0336	3.0909	5.e-002	9.6285
15573	9.3108	3.0909	0.	3537.
15574	9.2184	3.	0.	3561.8
15575	9.2184	3.0909	5.e-002	9.5471
15576	9.4955	3.0909	0.	3487.3
15577	9.4032	3.	0.	3512.1
15578	9.4032	3.0909	5.e-002	9.4719
15579	9.6803	3.0909	0.	3437.6
15580	9.5879	3.	0.	3462.4
15581	9.5879	3.0909	5.e-002	9.402
15582	9.8651	3.0909	0.	3387.9
15583	9.7727	3.	0.	3412.8
15584	9.7727	3.0909	5.e-002	9.3364
15585	10.05	3.0909	0.	3338.3
15586	9.9575	3.	0.	3363.1
15587	9.9575	3.0909	5.e-002	9.2745
15588	10.235	3.0909	0.	3288.6
15589	10.142	3.	0.	3313.4
15590	10.142	3.0909	5.e-002	9.2157
15591	10.419	3.0909	0.	3239.
15592	10.327	3.	0.	3263.8
15593	10.327	3.0909	5.e-002	9.1594
15594	10.604	3.0909	0.	3189.4
15595	10.512	3.	0.	3214.2
15596	10.512	3.0909	5.e-002	9.1056
15597	10.789	3.0909	0.	3139.9
15598	10.697	3.	0.	3164.6
15599	10.697	3.0909	5.e-002	9.0538
15600	10.974	3.0909	0.	3090.4
15601	10.881	3.	0.	3115.1
15602	10.881	3.0909	5.e-002	9.0036
15603	11.158	3.0909	0.	3041.1
15604	11.066	3.	0.	3065.7
15605	11.066	3.0909	5.e-002	8.9549
15606	11.343	3.0909	0.	2991.8
15607	11.251	3.	0.	3016.4
15608	11.251	3.0909	5.e-002	8.9076
15609	11.528	3.0909	0.	2942.6
15610	11.436	3.	0.	2967.1
15611	11.436	3.0909	5.e-002	8.8616
15612	11.713	3.0909	0.	2893.5
15613	11.62	3.	0.	2918.
15614	11.62	3.0909	5.e-002	8.8168
15615	11.898	3.0909	0.	2844.5
15616	11.805	3.	0.	2868.9
15617	11.805	3.0909	5.e-002	8.7727
15618	12.082	3.0909	0.	2795.6
15619	11.99	3.	0.	2820.
15620	11.99	3.0909	5.e-002	8.7294
15621	12.267	3.0909	0.	2746.9
15622	12.175	3.	0.	2771.2
15623	12.175	3.0909	5.e-002	8.687
15624	12.452	3.0909	0.	2698.3
15625	12.359	3.	0.	2722.5
15626	12.359	3.0909	5.e-002	8.6455
15627	12.637	3.0909	0.	2649.8
15628	12.544	3.	0.	2674.
15629	12.544	3.0909	5.e-002	8.6047
15630	12.821	3.0909	0.	2601.5
15631	12.729	3.	0.	2625.6
15632	12.729	3.0909	5.e-002	8.5643
15633	13.006	3.0909	0.	2553.3
15634	12.914	3.	0.	2577.3
15635	12.914	3.0909	5.e-002	8.5244
15636	13.191	3.0909	0.	2505.3
15637	13.099	3.	0.	2529.2
15638	13.099	3.0909	5.e-002	8.4851
15639	13.376	3.0909	0.	2457.4
15640	13.283	3.	0.	2481.3
15641	13.283	3.0909	5.e-002	8.4465
15642	13.56	3.0909	0.	2409.7
15643	13.468	3.	0.	2433.5
15644	13.468	3.0909	5.e-002	8.4083
15645	13.745	3.0909	0.	2362.2
15646	13.653	3.	0.	2385.9
15647	13.653	3.0909	5.e-002	8.3704
15648	13.93	3.0909	0.	2314.8
15649	13.838	3.	0.	2338.4
15650	13.838	3.0909	5.e-002	8.3328
15651	14.115	3.0909	0.	2267.6
15652	14.022	3.	0.	2291.2
15653	14.022	3.0909	5.e-002	8.2957
15654	14.3	3.0909	0.	2220.6
15655	14.207	3.	0.	2244.1
15656	14.207	3.0909	5.e-002	8.2591
15657	14.484	3.0909	0.	2173.8
15658	14.392	3.	0.	2197.1
15659	14.392	3.0909	5.e-002	8.2229
15660	14.669	3.0909	0.	2127.2
15661	14.577	3.	0.	2150.4
15662	14.577	3.0909	5.e-002	8.1869
15663	14.854	3.0909	0.	2080.7
15664	14.761	3.	0.	2103.9
15665	14.761	3.0909	5.e-002	8.1512
15666	15.039	3.0909	0.	2034.4
15667	14.946	3.	0.	2057.5
15668	14.946	3.0909	5.e-002	8.1158
15669	15.223	3.0909	0.	1988.4
15670	15.131	3.	0.	2011.3
15671	15.131	3.0909	5.e-002	8.0809
15672	15.408	3.0909	0.	1942.5
15673	15.316	3.	0.	1965.4
15674	15.316	3.0909	5.e-002	8.0463
15675	15.593	3.0909	0.	1896.8
15676	15.501	3.	0.	1919.6
15677	15.501	3.0909	5.e-002	8.0119
15678	15.778	3.0909	0.	1851.4
15679	15.685	3.	0.	1874.
15680	15.685	3.0909	5.e-002	7.9777
15681	15.963	3.0909	0.	1806.1
15682	15.87	3.	0.	1828.7
15683	15.87	3.0909	5.e-002	7.944
15684	16.147	3.0909	0.	1761.1
15685	16.055	3.	0.	1783.5
15686	16.055	3.0909	5.e-002	7.9107
15687	16.332	3.0909	0.	1716.2
15688	16.24	3.	0.	1738.6
15689	16.24	3.0909	5.e-002	7.8776
15690	16.517	3.0909	0.	1671.6
15691	16.424	3.	0.	1693.9
15692	16.424	3.0909	5.e-002	7.8448
15693	16.702	3.0909	0.	1627.2
15694	16.609	3.	0.	1649.4
15695	16.609	3.0909	5.e-002	7.8124
15696	16.886	3.0909	0.	1583.1
15697	16.794	3.	0.	1605.1
15698	16.794	3.0909	5.e-002	7.7804
15699	17.071	3.0909	0.	1539.1
15700	16.979	3.	0.	1561.
15701	16.979	3.0909	5.e-002	7.7489
15702	17.256	3.0909	0.	1495.4
15703	17.164	3.	0.	1517.2
15704	17.164	3.0909	5.e-002	7.7176
15705	17.441	3.0909	0.	1452.
15706	17.348	3.	0.	1473.6
15707	17.348	3.0909	5.e-002	7.6868
15708	17.625	3.0909	0.	1408.7
15709	17.533	3.	0.	1430.3
15710	17.533	3.0909	5.e-002	7.6564
15711	17.81	3.0909	0.	1365.7
15712	17.718	3.	0.	1387.2
15713	17.718	3.0909	5.e-002	7.6267
15714	17.995	3.0909	0.	1323.
15715	17.903	3.	0.	1344.3
15716	17.903	3.0909	5.e-002	7.5974
15717	18.18	3.0909	0.	1280.5
15718	18.087	3.	0.	1301.7
15719	18.087	3.0909	5.e-002	7.5687
15720	18.365	3.0909	0.	1238.3
15721	18.272	3.	0.	1259.3
15722	18.272	3.0909	5.e-002	7.5405
15723	18.549	3.0909	0.	1196.4
15724	18.457	3.	0.	1217.3
15725	18.457	3.0909	5.e-002	7.513
15726	18.734	3.0909	0.	1154.7
15727	18.642	3.	0.	1175.5
15728	18.642	3.0909	5.e-002	7.4863
15729	18.919	3.0909	0.	1113.3
15730	18.826	3.	0.	1133.9
15731	18.826	3.0909	5.e-002	7.4604
15732	19.104	3.0909	0.	1072.2
15733	19.011	3.	0.	1092.7
15734	19.011	3.0909	5.e-002	7.4353
15735	19.288	3.0909	0.	1031.5
15736	19.196	3.	0.	1051.7
15737	19.196	3.0909	5.e-002	7.4112
15738	19.473	3.0909	0.	990.97
15739	19.381	3.	0.	1011.1
15740	19.381	3.0909	5.e-002	7.3881
15741	19.658	3.0909	0.	950.8
15742	19.566	3.	0.	970.78
15743	19.566	3.0909	5.e-002	7.3662
15744	19.843	3.0909	0.	910.97
15745	19.75	3.	0.	930.78
15746	19.75	3.0909	5.e-002	7.3456
15747	20.027	3.0909	0.	871.48
15748	19.935	3.	0.	891.11
15749	19.935	3.0909	5.e-002	7.3264
15750	20.212	3.0909	0.	832.34
15751	20.12	3.	0.	851.8
15752	20.12	3.0909	5.e-002	7.3087
15753	20.397	3.0909	0.	793.57
15754	20.305	3.	0.	812.84
15755	20.305	3.0909	5.e-002	7.2929
15756	20.582	3.0909	0.	755.19
15757	20.489	3.	0.	774.26
15758	20.489	3.0909	5.e-002	7.2791
15759	20.767	3.0909	0.	717.21
15760	20.674	3.	0.	736.08
15761	20.674	3.0909	5.e-002	7.2676
15762	20.951	3.0909	0.	679.65
15763	20.859	3.	0.	698.31
15764	20.859	3.0909	5.e-002	7.2585
15765	21.136	3.0909	0.	642.54
15766	21.044	3.	0.	660.97
15767	21.044	3.0909	5.e-002	7.2523
15768	21.321	3.0909	0.	605.9
15769	21.228	3.	0.	624.09
15770	21.228	3.0909	5.e-002	7.2494
15771	21.506	3.0909	0.	569.75
15772	21.413	3.	0.	587.69
15773	21.413	3.0909	5.e-002	7.2501
15774	21.69	3.0909	0.	534.14
15775	21.598	3.	0.	551.8
15776	21.598	3.0909	5.e-002	7.2549
15777	21.875	3.0909	0.	499.1
15778	21.783	3.	0.	516.47
15779	21.783	3.0909	5.e-002	7.2643
15780	22.06	3.0909	0.	464.68
15781	21.968	3.	0.	481.74
15782	21.968	3.0909	5.e-002	7.2787
15783	22.245	3.0909	0.	430.96
15784	22.152	3.	0.	447.66
15785	22.152	3.0909	5.e-002	7.2989
15786	22.429	3.0909	0.	398.02
15787	22.337	3.	0.	414.32
15788	22.337	3.0909	5.e-002	7.3253
15789	22.614	3.0909	0.	365.98
15790	22.522	3.	0.	381.82
15791	22.522	3.0909	5.e-002	7.3584
15792	22.799	3.0909	0.	335.01
15793	22.707	3.	0.	350.3
15794	22.707	3.0909	5.e-002	7.3987
15795	22.984	3.0909	0.	305.35
15796	22.891	3.	0.	319.95
15797	22.891	3.0909	5.e-002	7.4466
15798	23.169	3.0909	0.	277.33
15799	23.076	3.	0.	291.06
15800	23.076	3.0909	5.e-002	7.5021
15801	23.353	3.0909	0.	251.42
15802	23.261	3.	0.	264.03
15803	23.261	3.0909	5.e-002	7.5655
15804	23.538	3.0909	0.	228.31
15805	23.446	3.	0.	239.42
15806	23.446	3.0909	5.e-002	7.636
15807	23.723	3.0909	0.	208.88
15808	23.63	3.	0.	218.04
15809	23.63	3.0909	5.e-002	7.7134
15810	23.815	3.	0.	200.87
15811	23.815	3.0909	5.e-002	7.8053
15812	23.908	3.0909	0.	195.03
15813	2.8438	2.9091	0.	11729
15814	2.7514	2.8182	0.	12411
15815	2.7514	2.9091	5.e-002	121.34
15816	3.0286	2.9091	0.	10587
15817	2.9362	2.8182	0.	11229
15818	2.9362	2.9091	5.e-002	154.03
15819	3.2134	2.9091	0.	9432.4
15820	3.121	2.8182	0.	9964.2
15821	3.121	2.9091	5.e-002	158.74
15822	3.3981	2.9091	0.	8413.8
15823	3.3057	2.8182	0.	8833.3
15824	3.3057	2.9091	5.e-002	145.65
15825	3.5829	2.9091	0.	7577.5
15826	3.4905	2.8182	0.	7903.8
15827	3.4905	2.9091	5.e-002	125.6
15828	3.7677	2.9091	0.	6913.6
15829	3.6753	2.8182	0.	7167.7
15830	3.6753	2.9091	5.e-002	105.
15831	3.9524	2.9091	0.	6393.4
15832	3.8601	2.8182	0.	6592.5
15833	3.8601	2.9091	5.e-002	86.641
15834	4.1372	2.9091	0.	5986.5
15835	4.0448	2.8182	0.	6143.9
15836	4.0448	2.9091	5.e-002	71.283
15837	4.322	2.9091	0.	5666.6
15838	4.2296	2.8182	0.	5792.5
15839	4.2296	2.9091	5.e-002	58.827
15840	4.5068	2.9091	0.	5413.
15841	4.4144	2.8182	0.	5514.9
15842	4.4144	2.9091	5.e-002	48.87
15843	4.6915	2.9091	0.	5209.8
15844	4.5991	2.8182	0.	5293.4
15845	4.5991	2.9091	5.e-002	40.96
15846	4.8763	2.9091	0.	5044.8
15847	4.7839	2.8182	0.	5114.3
15848	4.7839	2.9091	5.e-002	34.689
15849	5.0611	2.9091	0.	4908.8
15850	4.9687	2.8182	0.	4967.6
15851	4.9687	2.9091	5.e-002	29.718
15852	5.2458	2.9091	0.	4794.7
15853	5.1534	2.8182	0.	4845.3
15854	5.1534	2.9091	5.e-002	25.772
15855	5.4306	2.9091	0.	4697.3
15856	5.3382	2.8182	0.	4741.6
15857	5.3382	2.9091	5.e-002	22.635
15858	5.6154	2.9091	0.	4612.5
15859	5.523	2.8182	0.	4651.9
15860	5.523	2.9091	5.e-002	20.135
15861	5.8001	2.9091	0.	4537.1
15862	5.7078	2.8182	0.	4572.9
15863	5.7078	2.9091	5.e-002	18.138
15864	5.9849	2.9091	0.	4468.9
15865	5.8925	2.8182	0.	4501.9
15866	5.8925	2.9091	5.e-002	16.539
15867	6.1697	2.9091	0.	4405.9
15868	6.0773	2.8182	0.	4436.8
15869	6.0773	2.9091	5.e-002	15.256
15870	6.3545	2.9091	0.	4347.
15871	6.2621	2.8182	0.	4376.3
15872	6.2621	2.9091	5.e-002	14.222
15873	6.5392	2.9091	0.	4290.9
15874	6.4468	2.8182	0.	4319.1
15875	6.4468	2.9091	5.e-002	13.387
15876	6.724	2.9091	0.	4237.
15877	6.6316	2.8182	0.	4264.3
15878	6.6316	2.9091	5.e-002	12.708
15879	6.9088	2.9091	0.	4184.6
15880	6.8164	2.8182	0.	4211.2
15881	6.8164	2.9091	5.e-002	12.155
15882	7.0935	2.9091	0.	4133.2
15883	7.0011	2.8182	0.	4159.4
15884	7.0011	2.9091	5.e-002	11.702
15885	7.2783	2.9091	0.	4082.6
15886	7.1859	2.8182	0.	4108.4
15887	7.1859	2.9091	5.e-002	11.328
15888	7.4631	2.9091	0.	4032.5
15889	7.3707	2.8182	0.	4058.1
15890	7.3707	2.9091	5.e-002	11.017
15891	7.6478	2.9091	0.	3982.7
15892	7.5555	2.8182	0.	4008.2
15893	7.5555	2.9091	5.e-002	10.757
15894	7.8326	2.9091	0.	3933.1
15895	7.7402	2.8182	0.	3958.5
15896	7.7402	2.9091	5.e-002	10.537
15897	8.0174	2.9091	0.	3883.7
15898	7.925	2.8182	0.	3908.9
15899	7.925	2.9091	5.e-002	10.35
15900	8.2022	2.9091	0.	3834.2
15901	8.1098	2.8182	0.	3859.4
15902	8.1098	2.9091	5.e-002	10.188
15903	8.3869	2.9091	0.	3784.7
15904	8.2945	2.8182	0.	3809.9
15905	8.2945	2.9091	5.e-002	10.048
15906	8.5717	2.9091	0.	3735.3
15907	8.4793	2.8182	0.	3760.4
15908	8.4793	2.9091	5.e-002	9.925
15909	8.7565	2.9091	0.	3685.8
15910	8.6641	2.8182	0.	3710.9
15911	8.6641	2.9091	5.e-002	9.8156
15912	8.9412	2.9091	0.	3636.2
15913	8.8489	2.8182	0.	3661.3
15914	8.8489	2.9091	5.e-002	9.7175
15915	9.126	2.9091	0.	3586.6
15916	9.0336	2.8182	0.	3611.7
15917	9.0336	2.9091	5.e-002	9.6285
15918	9.3108	2.9091	0.	3537.
15919	9.2184	2.8182	0.	3562.1
15920	9.2184	2.9091	5.e-002	9.5471
15921	9.4955	2.9091	0.	3487.3
15922	9.4032	2.8182	0.	3512.4
15923	9.4032	2.9091	5.e-002	9.4719
15924	9.6803	2.9091	0.	3437.6
15925	9.5879	2.8182	0.	3462.7
15926	9.5879	2.9091	5.e-002	9.402
15927	9.8651	2.9091	0.	3387.9
15928	9.7727	2.8182	0.	3413.
15929	9.7727	2.9091	5.e-002	9.3364
15930	10.05	2.9091	0.	3338.3
15931	9.9575	2.8182	0.	3363.3
15932	9.9575	2.9091	5.e-002	9.2745
15933	10.235	2.9091	0.	3288.6
15934	10.142	2.8182	0.	3313.6
15935	10.142	2.9091	5.e-002	9.2157
15936	10.419	2.9091	0.	3239.
15937	10.327	2.8182	0.	3264.
15938	10.327	2.9091	5.e-002	9.1594
15939	10.604	2.9091	0.	3189.4
15940	10.512	2.8182	0.	3214.3
15941	10.512	2.9091	5.e-002	9.1056
15942	10.789	2.9091	0.	3139.9
15943	10.697	2.8182	0.	3164.8
15944	10.697	2.9091	5.e-002	9.0538
15945	10.974	2.9091	0.	3090.4
15946	10.881	2.8182	0.	3115.3
15947	10.881	2.9091	5.e-002	9.0036
15948	11.158	2.9091	0.	3041.1
15949	11.066	2.8182	0.	3065.8
15950	11.066	2.9091	5.e-002	8.9549
15951	11.343	2.9091	0.	2991.8
15952	11.251	2.8182	0.	3016.5
15953	11.251	2.9091	5.e-002	8.9076
15954	11.528	2.9091	0.	2942.6
15955	11.436	2.8182	0.	2967.2
15956	11.436	2.9091	5.e-002	8.8616
15957	11.713	2.9091	0.	2893.5
15958	11.62	2.8182	0.	2918.1
15959	11.62	2.9091	5.e-002	8.8168
15960	11.898	2.9091	0.	2844.5
15961	11.805	2.8182	0.	2869.
15962	11.805	2.9091	5.e-002	8.7727
15963	12.082	2.9091	0.	2795.6
15964	11.99	2.8182	0.	2820.1
15965	11.99	2.9091	5.e-002	8.7294
15966	12.267	2.9091	0.	2746.9
15967	12.175	2.8182	0.	2771.3
15968	12.175	2.9091	5.e-002	8.687
15969	12.452	2.9091	0.	2698.3
15970	12.359	2.8182	0.	2722.6
15971	12.359	2.9091	5.e-002	8.6455
15972	12.637	2.9091	0.	2649.8
15973	12.544	2.8182	0.	2674.1
15974	12.544	2.9091	5.e-002	8.6047
15975	12.821	2.9091	0.	2601.5
15976	12.729	2.8182	0.	2625.7
15977	12.729	2.9091	5.e-002	8.5643
15978	13.006	2.9091	0.	2553.3
15979	12.914	2.8182	0.	2577.4
15980	12.914	2.9091	5.e-002	8.5244
15981	13.191	2.9091	0.	2505.3
15982	13.099	2.8182	0.	2529.3
15983	13.099	2.9091	5.e-002	8.4851
15984	13.376	2.9091	0.	2457.4
15985	13.283	2.8182	0.	2481.4
15986	13.283	2.9091	5.e-002	8.4465
15987	13.56	2.9091	0.	2409.7
15988	13.468	2.8182	0.	2433.6
15989	13.468	2.9091	5.e-002	8.4083
15990	13.745	2.9091	0.	2362.2
15991	13.653	2.8182	0.	2386.
15992	13.653	2.9091	5.e-002	8.3704
15993	13.93	2.9091	0.	2314.8
15994	13.838	2.8182	0.	2338.5
15995	13.838	2.9091	5.e-002	8.3328
15996	14.115	2.9091	0.	2267.6
15997	14.022	2.8182	0.	2291.2
15998	14.022	2.9091	5.e-002	8.2957
15999	14.3	2.9091	0.	2220.6
16000	14.207	2.8182	0.	2244.1
16001	14.207	2.9091	5.e-002	8.2591
16002	14.484	2.9091	0.	2173.8
16003	14.392	2.8182	0.	2197.2
16004	14.392	2.9091	5.e-002	8.2229
16005	14.669	2.9091	0.	2127.2
16006	14.577	2.8182	0.	2150.5
16007	14.577	2.9091	5.e-002	8.1869
16008	14.854	2.9091	0.	2080.7
16009	14.761	2.8182	0.	2103.9
16010	14.761	2.9091	5.e-002	8.1512
16011	15.039	2.9091	0.	2034.4
16012	14.946	2.8182	0.	2057.6
16013	14.946	2.9091	5.e-002	8.1158
16014	15.223	2.9091	0.	1988.4
16015	15.131	2.8182	0.	2011.4
16016	15.131	2.9091	5.e-002	8.0809
16017	15.408	2.9091	0.	1942.5
16018	15.316	2.8182	0.	1965.4
16019	15.316	2.9091	5.e-002	8.0463
16020	15.593	2.9091	0.	1896.8
16021	15.501	2.8182	0.	1919.6
16022	15.501	2.9091	5.e-002	8.0119
16023	15.778	2.9091	0.	1851.4
16024	15.685	2.8182	0.	1874.1
16025	15.685	2.9091	5.e-002	7.9777
16026	15.963	2.9091	0.	1806.1
16027	15.87	2.8182	0.	1828.7
16028	15.87	2.9091	5.e-002	7.944
16029	16.147	2.9091	0.	1761.1
16030	16.055	2.8182	0.	1783.6
16031	16.055	2.9091	5.e-002	7.9107
16032	16.332	2.9091	0.	1716.2
16033	16.24	2.8182	0.	1738.6
16034	16.24	2.9091	5.e-002	7.8776
16035	16.517	2.9091	0.	1671.6
16036	16.424	2.8182	0.	1693.9
16037	16.424	2.9091	5.e-002	7.8448
16038	16.702	2.9091	0.	1627.2
16039	16.609	2.8182	0.	1649.4
16040	16.609	2.9091	5.e-002	7.8124
16041	16.886	2.9091	0.	1583.1
16042	16.794	2.8182	0.	1605.1
16043	16.794	2.9091	5.e-002	7.7804
16044	17.071	2.9091	0.	1539.1
16045	16.979	2.8182	0.	1561.1
16046	16.979	2.9091	5.e-002	7.7489
16047	17.256	2.9091	0.	1495.4
16048	17.164	2.8182	0.	1517.2
16049	17.164	2.9091	5.e-002	7.7176
16050	17.441	2.9091	0.	1452.
16051	17.348	2.8182	0.	1473.6
16052	17.348	2.9091	5.e-002	7.6868
16053	17.625	2.9091	0.	1408.7
16054	17.533	2.8182	0.	1430.3
16055	17.533	2.9091	5.e-002	7.6564
16056	17.81	2.9091	0.	1365.7
16057	17.718	2.8182	0.	1387.2
16058	17.718	2.9091	5.e-002	7.6267
16059	17.995	2.9091	0.	1323.
16060	17.903	2.8182	0.	1344.3
16061	17.903	2.9091	5.e-002	7.5974
16062	18.18	2.9091	0.	1280.5
16063	18.087	2.8182	0.	1301.7
16064	18.087	2.9091	5.e-002	7.5687
16065	18.365	2.9091	0.	1238.3
16066	18.272	2.8182	0.	1259.3
16067	18.272	2.9091	5.e-002	7.5405
16068	18.549	2.9091	0.	1196.4
16069	18.457	2.8182	0.	1217.3
16070	18.457	2.9091	5.e-002	7.513
16071	18.734	2.9091	0.	1154.7
16072	18.642	2.8182	0.	1175.5
16073	18.642	2.9091	5.e-002	7.4863
16074	18.919	2.9091	0.	1113.3
16075	18.826	2.8182	0.	1133.9
16076	18.826	2.9091	5.e-002	7.4604
16077	19.104	2.9091	0.	1072.2
16078	19.011	2.8182	0.	1092.7
16079	19.011	2.9091	5.e-002	7.4353
16080	19.288	2.9091	0.	1031.5
16081	19.196	2.8182	0.	1051.7
16082	19.196	2.9091	5.e-002	7.4112
16083	19.473	2.9091	0.	990.97
16084	19.381	2.8182	0.	1011.1
16085	19.381	2.9091	5.e-002	7.3881
16086	19.658	2.9091	0.	950.8
16087	19.566	2.8182	0.	970.73
16088	19.566	2.9091	5.e-002	7.3662
16089	19.843	2.9091	0.	910.97
16090	19.75	2.8182	0.	930.72
16091	19.75	2.9091	5.e-002	7.3456
16092	20.027	2.9091	0.	871.48
16093	19.935	2.8182	0.	891.04
16094	19.935	2.9091	5.e-002	7.3264
16095	20.212	2.9091	0.	832.34
16096	20.12	2.8182	0.	851.71
16097	20.12	2.9091	5.e-002	7.3087
16098	20.397	2.9091	0.	793.57
16099	20.305	2.8182	0.	812.74
16100	20.305	2.9091	5.e-002	7.2929
16101	20.582	2.9091	0.	755.19
16102	20.489	2.8182	0.	774.15
16103	20.489	2.9091	5.e-002	7.2791
16104	20.767	2.9091	0.	717.21
16105	20.674	2.8182	0.	735.95
16106	20.674	2.9091	5.e-002	7.2676
16107	20.951	2.9091	0.	679.65
16108	20.859	2.8182	0.	698.16
16109	20.859	2.9091	5.e-002	7.2585
16110	21.136	2.9091	0.	642.54
16111	21.044	2.8182	0.	660.81
16112	21.044	2.9091	5.e-002	7.2523
16113	21.321	2.9091	0.	605.9
16114	21.228	2.8182	0.	623.91
16115	21.228	2.9091	5.e-002	7.2494
16116	21.506	2.9091	0.	569.75
16117	21.413	2.8182	0.	587.49
16118	21.413	2.9091	5.e-002	7.2501
16119	21.69	2.9091	0.	534.14
16120	21.598	2.8182	0.	551.58
16121	21.598	2.9091	5.e-002	7.2549
16122	21.875	2.9091	0.	499.1
16123	21.783	2.8182	0.	516.23
16124	21.783	2.9091	5.e-002	7.2643
16125	22.06	2.9091	0.	464.68
16126	21.968	2.8182	0.	481.47
16127	21.968	2.9091	5.e-002	7.2788
16128	22.245	2.9091	0.	430.96
16129	22.152	2.8182	0.	447.38
16130	22.152	2.9091	5.e-002	7.2989
16131	22.429	2.9091	0.	398.02
16132	22.337	2.8182	0.	414.01
16133	22.337	2.9091	5.e-002	7.3253
16134	22.614	2.9091	0.	365.98
16135	22.522	2.8182	0.	381.49
16136	22.522	2.9091	5.e-002	7.3584
16137	22.799	2.9091	0.	335.01
16138	22.707	2.8182	0.	349.95
16139	22.707	2.9091	5.e-002	7.3987
16140	22.984	2.9091	0.	305.35
16141	22.891	2.8182	0.	319.58
16142	22.891	2.9091	5.e-002	7.4466
16143	23.169	2.9091	0.	277.33
16144	23.076	2.8182	0.	290.67
16145	23.076	2.9091	5.e-002	7.5021
16146	23.353	2.9091	0.	251.42
16147	23.261	2.8182	0.	263.62
16148	23.261	2.9091	5.e-002	7.5655
16149	23.538	2.9091	0.	228.31
16150	23.446	2.8182	0.	238.99
16151	23.446	2.9091	5.e-002	7.636
16152	23.723	2.9091	0.	208.88
16153	23.63	2.8182	0.	217.59
16154	23.63	2.9091	5.e-002	7.7134
16155	23.815	2.8182	0.	200.42
16156	23.815	2.9091	5.e-002	7.8053
16157	23.908	2.9091	0.	195.03
16158	2.8438	2.7273	0.	11921
16159	2.7514	2.6364	0.	12858
16160	2.7514	2.7273	5.e-002	148.94
16161	3.0286	2.7273	0.	10620
16162	2.9362	2.6364	0.	11349
16163	2.9362	2.7273	5.e-002	178.97
16164	3.2134	2.7273	0.	9377.1
16165	3.121	2.6364	0.	9895.8
16166	3.121	2.7273	5.e-002	172.35
16167	3.3981	2.7273	0.	8331.2
16168	3.3057	2.6364	0.	8704.6
16169	3.3057	2.7273	5.e-002	150.18
16170	3.5829	2.7273	0.	7498.7
16171	3.4905	2.6364	0.	7775.9
16172	3.4905	2.7273	5.e-002	125.66
16173	3.7677	2.7273	0.	6849.1
16174	3.6753	2.6364	0.	7061.1
16175	3.6753	2.7273	5.e-002	103.5
16176	3.9524	2.7273	0.	6344.4
16177	3.8601	2.6364	0.	6510.4
16178	3.8601	2.7273	5.e-002	84.888
16179	4.1372	2.7273	0.	5950.6
16180	4.0448	2.6364	0.	6083.3
16181	4.0448	2.7273	5.e-002	69.749
16182	4.322	2.7273	0.	5641.1
16183	4.2296	2.6364	0.	5748.9
16184	4.2296	2.7273	5.e-002	57.613
16185	4.5068	2.7273	0.	5395.4
16186	4.4144	2.6364	0.	5484.3
16187	4.4144	2.7273	5.e-002	47.947
16188	4.6915	2.7273	0.	5197.9
16189	4.5991	2.6364	0.	5272.4
16190	4.5991	2.7273	5.e-002	40.267
16191	4.8763	2.7273	0.	5037.1
16192	4.7839	2.6364	0.	5100.4
16193	4.7839	2.7273	5.e-002	34.17
16194	5.0611	2.7273	0.	4904.
16195	4.9687	2.6364	0.	4958.7
16196	4.9687	2.7273	5.e-002	29.325
16197	5.2458	2.7273	0.	4792.1
16198	5.1534	2.6364	0.	4840.
16199	5.1534	2.7273	5.e-002	25.471
16200	5.4306	2.7273	0.	4696.1
16201	5.3382	2.6364	0.	4738.9
16202	5.3382	2.7273	5.e-002	22.4
16203	5.6154	2.7273	0.	4612.3
16204	5.523	2.6364	0.	4651.
16205	5.523	2.7273	5.e-002	19.95
16206	5.8001	2.7273	0.	4537.6
16207	5.7078	2.6364	0.	4573.2
16208	5.7078	2.7273	5.e-002	17.991
16209	5.9849	2.7273	0.	4469.8
16210	5.8925	2.6364	0.	4503.
16211	5.8925	2.7273	5.e-002	16.421
16212	6.1697	2.7273	0.	4407.2
16213	6.0773	2.6364	0.	4438.5
16214	6.0773	2.7273	5.e-002	15.16
16215	6.3545	2.7273	0.	4348.4
16216	6.2621	2.6364	0.	4378.3
16217	6.2621	2.7273	5.e-002	14.144
16218	6.5392	2.7273	0.	4292.4
16219	6.4468	2.6364	0.	4321.2
16220	6.4468	2.7273	5.e-002	13.322
16221	6.724	2.7273	0.	4238.4
16222	6.6316	2.6364	0.	4266.4
16223	6.6316	2.7273	5.e-002	12.656
16224	6.9088	2.7273	0.	4186.
16225	6.8164	2.6364	0.	4213.3
16226	6.8164	2.7273	5.e-002	12.112
16227	7.0935	2.7273	0.	4134.6
16228	7.0011	2.6364	0.	4161.4
16229	7.0011	2.7273	5.e-002	11.667
16230	7.2783	2.7273	0.	4083.9
16231	7.1859	2.6364	0.	4110.4
16232	7.1859	2.7273	5.e-002	11.299
16233	7.4631	2.7273	0.	4033.7
16234	7.3707	2.6364	0.	4060.
16235	7.3707	2.7273	5.e-002	10.994
16236	7.6478	2.7273	0.	3983.9
16237	7.5555	2.6364	0.	4009.9
16238	7.5555	2.7273	5.e-002	10.738
16239	7.8326	2.7273	0.	3934.2
16240	7.7402	2.6364	0.	3960.1
16241	7.7402	2.7273	5.e-002	10.522
16242	8.0174	2.7273	0.	3884.6
16243	7.925	2.6364	0.	3910.4
16244	7.925	2.7273	5.e-002	10.337
16245	8.2022	2.7273	0.	3835.1
16246	8.1098	2.6364	0.	3860.8
16247	8.1098	2.7273	5.e-002	10.178
16248	8.3869	2.7273	0.	3785.6
16249	8.2945	2.6364	0.	3811.2
16250	8.2945	2.7273	5.e-002	10.04
16251	8.5717	2.7273	0.	3736.
16252	8.4793	2.6364	0.	3761.6
16253	8.4793	2.7273	5.e-002	9.9185
16254	8.7565	2.7273	0.	3686.4
16255	8.6641	2.6364	0.	3712.
16256	8.6641	2.7273	5.e-002	9.8104
16257	8.9412	2.7273	0.	3636.8
16258	8.8489	2.6364	0.	3662.3
16259	8.8489	2.7273	5.e-002	9.7132
16260	9.126	2.7273	0.	3587.2
16261	9.0336	2.6364	0.	3612.6
16262	9.0336	2.7273	5.e-002	9.625
16263	9.3108	2.7273	0.	3537.5
16264	9.2184	2.6364	0.	3562.9
16265	9.2184	2.7273	5.e-002	9.5442
16266	9.4955	2.7273	0.	3487.8
16267	9.4032	2.6364	0.	3513.2
16268	9.4032	2.7273	5.e-002	9.4696
16269	9.6803	2.7273	0.	3438.1
16270	9.5879	2.6364	0.	3463.4
16271	9.5879	2.7273	5.e-002	9.4
16272	9.8651	2.7273	0.	3388.4
16273	9.7727	2.6364	0.	3413.6
16274	9.7727	2.7273	5.e-002	9.3347
16275	10.05	2.7273	0.	3338.7
16276	9.9575	2.6364	0.	3363.9
16277	9.9575	2.7273	5.e-002	9.2731
16278	10.235	2.7273	0.	3289.
16279	10.142	2.6364	0.	3314.2
16280	10.142	2.7273	5.e-002	9.2145
16281	10.419	2.7273	0.	3239.3
16282	10.327	2.6364	0.	3264.5
16283	10.327	2.7273	5.e-002	9.1584
16284	10.604	2.7273	0.	3189.7
16285	10.512	2.6364	0.	3214.8
16286	10.512	2.7273	5.e-002	9.1047
16287	10.789	2.7273	0.	3140.2
16288	10.697	2.6364	0.	3165.2
16289	10.697	2.7273	5.e-002	9.0531
16290	10.974	2.7273	0.	3090.7
16291	10.881	2.6364	0.	3115.7
16292	10.881	2.7273	5.e-002	9.003
16293	11.158	2.7273	0.	3041.3
16294	11.066	2.6364	0.	3066.2
16295	11.066	2.7273	5.e-002	8.9543
16296	11.343	2.7273	0.	2992.
16297	11.251	2.6364	0.	3016.9
16298	11.251	2.7273	5.e-002	8.907
16299	11.528	2.7273	0.	2942.8
16300	11.436	2.6364	0.	2967.6
16301	11.436	2.7273	5.e-002	8.8612
16302	11.713	2.7273	0.	2893.7
16303	11.62	2.6364	0.	2918.4
16304	11.62	2.7273	5.e-002	8.8163
16305	11.898	2.7273	0.	2844.7
16306	11.805	2.6364	0.	2869.4
16307	11.805	2.7273	5.e-002	8.7723
16308	12.082	2.7273	0.	2795.8
16309	11.99	2.6364	0.	2820.4
16310	11.99	2.7273	5.e-002	8.7291
16311	12.267	2.7273	0.	2747.1
16312	12.175	2.6364	0.	2771.6
16313	12.175	2.7273	5.e-002	8.6867
16314	12.452	2.7273	0.	2698.5
16315	12.359	2.6364	0.	2722.9
16316	12.359	2.7273	5.e-002	8.6452
16317	12.637	2.7273	0.	2650.
16318	12.544	2.6364	0.	2674.3
16319	12.544	2.7273	5.e-002	8.6044
16320	12.821	2.7273	0.	2601.6
16321	12.729	2.6364	0.	2625.9
16322	12.729	2.7273	5.e-002	8.564
16323	13.006	2.7273	0.	2553.5
16324	12.914	2.6364	0.	2577.6
16325	12.914	2.7273	5.e-002	8.5242
16326	13.191	2.7273	0.	2505.4
16327	13.099	2.6364	0.	2529.5
16328	13.099	2.7273	5.e-002	8.4849
16329	13.376	2.7273	0.	2457.6
16330	13.283	2.6364	0.	2481.6
16331	13.283	2.7273	5.e-002	8.4463
16332	13.56	2.7273	0.	2409.9
16333	13.468	2.6364	0.	2433.8
16334	13.468	2.7273	5.e-002	8.4081
16335	13.745	2.7273	0.	2362.3
16336	13.653	2.6364	0.	2386.2
16337	13.653	2.7273	5.e-002	8.3702
16338	13.93	2.7273	0.	2314.9
16339	13.838	2.6364	0.	2338.7
16340	13.838	2.7273	5.e-002	8.3327
16341	14.115	2.7273	0.	2267.8
16342	14.022	2.6364	0.	2291.4
16343	14.022	2.7273	5.e-002	8.2956
16344	14.3	2.7273	0.	2220.7
16345	14.207	2.6364	0.	2244.3
16346	14.207	2.7273	5.e-002	8.259
16347	14.484	2.7273	0.	2173.9
16348	14.392	2.6364	0.	2197.4
16349	14.392	2.7273	5.e-002	8.2228
16350	14.669	2.7273	0.	2127.3
16351	14.577	2.6364	0.	2150.6
16352	14.577	2.7273	5.e-002	8.1868
16353	14.854	2.7273	0.	2080.8
16354	14.761	2.6364	0.	2104.1
16355	14.761	2.7273	5.e-002	8.151
16356	15.039	2.7273	0.	2034.5
16357	14.946	2.6364	0.	2057.7
16358	14.946	2.7273	5.e-002	8.1157
16359	15.223	2.7273	0.	1988.5
16360	15.131	2.6364	0.	2011.5
16361	15.131	2.7273	5.e-002	8.0808
16362	15.408	2.7273	0.	1942.6
16363	15.316	2.6364	0.	1965.6
16364	15.316	2.7273	5.e-002	8.0461
16365	15.593	2.7273	0.	1896.9
16366	15.501	2.6364	0.	1919.8
16367	15.501	2.7273	5.e-002	8.0117
16368	15.778	2.7273	0.	1851.5
16369	15.685	2.6364	0.	1874.2
16370	15.685	2.7273	5.e-002	7.9776
16371	15.963	2.7273	0.	1806.2
16372	15.87	2.6364	0.	1828.8
16373	15.87	2.7273	5.e-002	7.9439
16374	16.147	2.7273	0.	1761.2
16375	16.055	2.6364	0.	1783.7
16376	16.055	2.7273	5.e-002	7.9106
16377	16.332	2.7273	0.	1716.3
16378	16.24	2.6364	0.	1738.7
16379	16.24	2.7273	5.e-002	7.8775
16380	16.517	2.7273	0.	1671.7
16381	16.424	2.6364	0.	1694.
16382	16.424	2.7273	5.e-002	7.8447
16383	16.702	2.7273	0.	1627.3
16384	16.609	2.6364	0.	1649.5
16385	16.609	2.7273	5.e-002	7.8123
16386	16.886	2.7273	0.	1583.1
16387	16.794	2.6364	0.	1605.2
16388	16.794	2.7273	5.e-002	7.7803
16389	17.071	2.7273	0.	1539.2
16390	16.979	2.6364	0.	1561.1
16391	16.979	2.7273	5.e-002	7.7488
16392	17.256	2.7273	0.	1495.5
16393	17.164	2.6364	0.	1517.3
16394	17.164	2.7273	5.e-002	7.7175
16395	17.441	2.7273	0.	1452.
16396	17.348	2.6364	0.	1473.7
16397	17.348	2.7273	5.e-002	7.6867
16398	17.625	2.7273	0.	1408.8
16399	17.533	2.6364	0.	1430.3
16400	17.533	2.7273	5.e-002	7.6563
16401	17.81	2.7273	0.	1365.8
16402	17.718	2.6364	0.	1387.2
16403	17.718	2.7273	5.e-002	7.6265
16404	17.995	2.7273	0.	1323.
16405	17.903	2.6364	0.	1344.3
16406	17.903	2.7273	5.e-002	7.5973
16407	18.18	2.7273	0.	1280.6
16408	18.087	2.6364	0.	1301.7
16409	18.087	2.7273	5.e-002	7.5685
16410	18.365	2.7273	0.	1238.3
16411	18.272	2.6364	0.	1259.4
16412	18.272	2.7273	5.e-002	7.5403
16413	18.549	2.7273	0.	1196.4
16414	18.457	2.6364	0.	1217.3
16415	18.457	2.7273	5.e-002	7.5128
16416	18.734	2.7273	0.	1154.7
16417	18.642	2.6364	0.	1175.4
16418	18.642	2.7273	5.e-002	7.4861
16419	18.919	2.7273	0.	1113.3
16420	18.826	2.6364	0.	1133.9
16421	18.826	2.7273	5.e-002	7.4602
16422	19.104	2.7273	0.	1072.2
16423	19.011	2.6364	0.	1092.6
16424	19.011	2.7273	5.e-002	7.4351
16425	19.288	2.7273	0.	1031.4
16426	19.196	2.6364	0.	1051.6
16427	19.196	2.7273	5.e-002	7.4109
16428	19.473	2.7273	0.	990.88
16429	19.381	2.6364	0.	1011.
16430	19.381	2.7273	5.e-002	7.3878
16431	19.658	2.7273	0.	950.7
16432	19.566	2.6364	0.	970.59
16433	19.566	2.7273	5.e-002	7.3658
16434	19.843	2.7273	0.	910.84
16435	19.75	2.6364	0.	930.55
16436	19.75	2.7273	5.e-002	7.3452
16437	20.027	2.7273	0.	871.33
16438	19.935	2.6364	0.	890.84
16439	19.935	2.7273	5.e-002	7.3259
16440	20.212	2.7273	0.	832.16
16441	20.12	2.6364	0.	851.47
16442	20.12	2.7273	5.e-002	7.3082
16443	20.397	2.7273	0.	793.37
16444	20.305	2.6364	0.	812.46
16445	20.305	2.7273	5.e-002	7.2923
16446	20.582	2.7273	0.	754.96
16447	20.489	2.6364	0.	773.82
16448	20.489	2.7273	5.e-002	7.2784
16449	20.767	2.7273	0.	716.94
16450	20.674	2.6364	0.	735.58
16451	20.674	2.7273	5.e-002	7.2668
16452	20.951	2.7273	0.	679.35
16453	20.859	2.6364	0.	697.74
16454	20.859	2.7273	5.e-002	7.2576
16455	21.136	2.7273	0.	642.2
16456	21.044	2.6364	0.	660.33
16457	21.044	2.7273	5.e-002	7.2513
16458	21.321	2.7273	0.	605.52
16459	21.228	2.6364	0.	623.37
16460	21.228	2.7273	5.e-002	7.2482
16461	21.506	2.7273	0.	569.33
16462	21.413	2.6364	0.	586.89
16463	21.413	2.7273	5.e-002	7.2487
16464	21.69	2.7273	0.	533.67
16465	21.598	2.6364	0.	550.92
16466	21.598	2.7273	5.e-002	7.2533
16467	21.875	2.7273	0.	498.59
16468	21.783	2.6364	0.	515.51
16469	21.783	2.7273	5.e-002	7.2624
16470	22.06	2.7273	0.	464.13
16471	21.968	2.6364	0.	480.69
16472	21.968	2.7273	5.e-002	7.2766
16473	22.245	2.7273	0.	430.37
16474	22.152	2.6364	0.	446.52
16475	22.152	2.7273	5.e-002	7.2966
16476	22.429	2.7273	0.	397.38
16477	22.337	2.6364	0.	413.09
16478	22.337	2.7273	5.e-002	7.3227
16479	22.614	2.7273	0.	365.3
16480	22.522	2.6364	0.	380.5
16481	22.522	2.7273	5.e-002	7.3557
16482	22.799	2.7273	0.	334.29
16483	22.707	2.6364	0.	348.9
16484	22.707	2.7273	5.e-002	7.3958
16485	22.984	2.7273	0.	304.59
16486	22.891	2.6364	0.	318.46
16487	22.891	2.7273	5.e-002	7.4437
16488	23.169	2.7273	0.	276.53
16489	23.076	2.6364	0.	289.49
16490	23.076	2.7273	5.e-002	7.4994
16491	23.353	2.7273	0.	250.58
16492	23.261	2.6364	0.	262.39
16493	23.261	2.7273	5.e-002	7.5631
16494	23.538	2.7273	0.	227.44
16495	23.446	2.6364	0.	237.7
16496	23.446	2.7273	5.e-002	7.6341
16497	23.723	2.7273	0.	207.98
16498	23.63	2.6364	0.	216.25
16499	23.63	2.7273	5.e-002	7.7125
16500	23.815	2.6364	0.	199.05
16501	23.815	2.7273	5.e-002	7.8083
16502	23.908	2.7273	0.	194.1
16503	2.8438	2.5455	0.	12298
16504	2.7514	2.4545	0.	13667
16505	2.7514	2.5455	5.e-002	228.11
16506	3.0286	2.5455	0.	10643
16507	2.9362	2.4545	0.	11435
16508	2.9362	2.5455	5.e-002	237.59
16509	3.2134	2.5455	0.	9235.8
16510	3.121	2.4545	0.	9714.2
16511	3.121	2.5455	5.e-002	195.31
16512	3.3981	2.5455	0.	8156.
16513	3.3057	2.4545	0.	8468.
16514	3.3057	2.5455	5.e-002	156.13
16515	3.5829	2.5455	0.	7341.7
16516	3.4905	2.4545	0.	7562.7
16517	3.4905	2.5455	5.e-002	124.34
16518	3.7677	2.5455	0.	6724.
16519	3.6753	2.4545	0.	6889.9
16520	3.6753	2.5455	5.e-002	100.07
16521	3.9524	2.5455	0.	6250.1
16522	3.8601	2.4545	0.	6380.3
16523	3.8601	2.5455	5.e-002	81.397
16524	4.1372	2.5455	0.	5881.9
16525	4.0448	2.4545	0.	5987.4
16526	4.0448	2.5455	5.e-002	66.809
16527	4.322	2.5455	0.	5592.2
16528	4.2296	2.4545	0.	5679.9
16529	4.2296	2.5455	5.e-002	55.304
16530	4.5068	2.5455	0.	5361.3
16531	4.4144	2.4545	0.	5435.6
16532	4.4144	2.5455	5.e-002	46.184
16533	4.6915	2.5455	0.	5174.9
16534	4.5991	2.4545	0.	5238.9
16535	4.5991	2.5455	5.e-002	38.934
16536	4.8763	2.5455	0.	5022.
16537	4.7839	2.4545	0.	5078.
16538	4.7839	2.5455	5.e-002	33.159
16539	5.0611	2.5455	0.	4894.7
16540	4.9687	2.4545	0.	4944.4
16541	4.9687	2.5455	5.e-002	28.553
16542	5.2458	2.5455	0.	4786.9
16543	5.1534	2.4545	0.	4831.6
16544	5.1534	2.5455	5.e-002	24.874
16545	5.4306	2.5455	0.	4693.8
16546	5.3382	2.4545	0.	4734.6
16547	5.3382	2.5455	5.e-002	21.933
16548	5.6154	2.5455	0.	4612.
16549	5.523	2.4545	0.	4649.6
16550	5.523	2.5455	5.e-002	19.58
16551	5.8001	2.5455	0.	4538.6
16552	5.7078	2.4545	0.	4573.7
16553	5.7078	2.5455	5.e-002	17.694
16554	5.9849	2.5455	0.	4471.7
16555	5.8925	2.4545	0.	4504.8
16556	5.8925	2.5455	5.e-002	16.181
16557	6.1697	2.5455	0.	4409.6
16558	6.0773	2.4545	0.	4441.2
16559	6.0773	2.5455	5.e-002	14.965
16560	6.3545	2.5455	0.	4351.1
16561	6.2621	2.4545	0.	4381.4
16562	6.2621	2.5455	5.e-002	13.985
16563	6.5392	2.5455	0.	4295.2
16564	6.4468	2.4545	0.	4324.6
16565	6.4468	2.5455	5.e-002	13.192
16566	6.724	2.5455	0.	4241.3
16567	6.6316	2.4545	0.	4269.9
16568	6.6316	2.5455	5.e-002	12.55
16569	6.9088	2.5455	0.	4188.8
16570	6.8164	2.4545	0.	4216.8
16571	6.8164	2.5455	5.e-002	12.026
16572	7.0935	2.5455	0.	4137.3
16573	7.0011	2.4545	0.	4164.8
16574	7.0011	2.5455	5.e-002	11.596
16575	7.2783	2.5455	0.	4086.4
16576	7.1859	2.4545	0.	4113.6
16577	7.1859	2.5455	5.e-002	11.242
16578	7.4631	2.5455	0.	4036.1
16579	7.3707	2.4545	0.	4063.
16580	7.3707	2.5455	5.e-002	10.947
16581	7.6478	2.5455	0.	3986.1
16582	7.5555	2.4545	0.	4012.7
16583	7.5555	2.5455	5.e-002	10.7
16584	7.8326	2.5455	0.	3936.2
16585	7.7402	2.4545	0.	3962.7
16586	7.7402	2.5455	5.e-002	10.491
16587	8.0174	2.5455	0.	3886.5
16588	7.925	2.4545	0.	3912.8
16589	7.925	2.5455	5.e-002	10.313
16590	8.2022	2.5455	0.	3836.8
16591	8.1098	2.4545	0.	3863.
16592	8.1098	2.5455	5.e-002	10.159
16593	8.3869	2.5455	0.	3787.2
16594	8.2945	2.4545	0.	3813.3
16595	8.2945	2.5455	5.e-002	10.024
16596	8.5717	2.5455	0.	3737.5
16597	8.4793	2.4545	0.	3763.5
16598	8.4793	2.5455	5.e-002	9.9056
16599	8.7565	2.5455	0.	3687.8
16600	8.6641	2.4545	0.	3713.7
16601	8.6641	2.5455	5.e-002	9.7999
16602	8.9412	2.5455	0.	3638.1
16603	8.8489	2.4545	0.	3663.9
16604	8.8489	2.5455	5.e-002	9.7047
16605	9.126	2.5455	0.	3588.3
16606	9.0336	2.4545	0.	3614.1
16607	9.0336	2.5455	5.e-002	9.6181
16608	9.3108	2.5455	0.	3538.6
16609	9.2184	2.4545	0.	3564.3
16610	9.2184	2.5455	5.e-002	9.5385
16611	9.4955	2.5455	0.	3488.8
16612	9.4032	2.4545	0.	3514.4
16613	9.4032	2.5455	5.e-002	9.4649
16614	9.6803	2.5455	0.	3439.
16615	9.5879	2.4545	0.	3464.6
16616	9.5879	2.5455	5.e-002	9.3961
16617	9.8651	2.5455	0.	3389.2
16618	9.7727	2.4545	0.	3414.7
16619	9.7727	2.5455	5.e-002	9.3315
16620	10.05	2.5455	0.	3339.4
16621	9.9575	2.4545	0.	3364.9
16622	9.9575	2.5455	5.e-002	9.2704
16623	10.235	2.5455	0.	3289.7
16624	10.142	2.4545	0.	3315.1
16625	10.142	2.5455	5.e-002	9.2122
16626	10.419	2.5455	0.	3240.
16627	10.327	2.4545	0.	3265.4
16628	10.327	2.5455	5.e-002	9.1564
16629	10.604	2.5455	0.	3190.4
16630	10.512	2.4545	0.	3215.6
16631	10.512	2.5455	5.e-002	9.103
16632	10.789	2.5455	0.	3140.8
16633	10.697	2.4545	0.	3166.
16634	10.697	2.5455	5.e-002	9.0516
16635	10.974	2.5455	0.	3091.3
16636	10.881	2.4545	0.	3116.4
16637	10.881	2.5455	5.e-002	9.0017
16638	11.158	2.5455	0.	3041.8
16639	11.066	2.4545	0.	3066.9
16640	11.066	2.5455	5.e-002	8.9531
16641	11.343	2.5455	0.	2992.5
16642	11.251	2.4545	0.	3017.5
16643	11.251	2.5455	5.e-002	8.906
16644	11.528	2.5455	0.	2943.3
16645	11.436	2.4545	0.	2968.2
16646	11.436	2.5455	5.e-002	8.8602
16647	11.713	2.5455	0.	2894.1
16648	11.62	2.4545	0.	2919.
16649	11.62	2.5455	5.e-002	8.8155
16650	11.898	2.5455	0.	2845.1
16651	11.805	2.4545	0.	2869.9
16652	11.805	2.5455	5.e-002	8.7715
16653	12.082	2.5455	0.	2796.2
16654	11.99	2.4545	0.	2820.9
16655	11.99	2.5455	5.e-002	8.7284
16656	12.267	2.5455	0.	2747.4
16657	12.175	2.4545	0.	2772.1
16658	12.175	2.5455	5.e-002	8.686
16659	12.452	2.5455	0.	2698.8
16660	12.359	2.4545	0.	2723.3
16661	12.359	2.5455	5.e-002	8.6446
16662	12.637	2.5455	0.	2650.3
16663	12.544	2.4545	0.	2674.8
16664	12.544	2.5455	5.e-002	8.6038
16665	12.821	2.5455	0.	2602.
16666	12.729	2.4545	0.	2626.3
16667	12.729	2.5455	5.e-002	8.5635
16668	13.006	2.5455	0.	2553.8
16669	12.914	2.4545	0.	2578.
16670	12.914	2.5455	5.e-002	8.5237
16671	13.191	2.5455	0.	2505.7
16672	13.099	2.4545	0.	2529.9
16673	13.099	2.5455	5.e-002	8.4845
16674	13.376	2.5455	0.	2457.8
16675	13.283	2.4545	0.	2481.9
16676	13.283	2.5455	5.e-002	8.4459
16677	13.56	2.5455	0.	2410.1
16678	13.468	2.4545	0.	2434.1
16679	13.468	2.5455	5.e-002	8.4077
16680	13.745	2.5455	0.	2362.6
16681	13.653	2.4545	0.	2386.5
16682	13.653	2.5455	5.e-002	8.3698
16683	13.93	2.5455	0.	2315.2
16684	13.838	2.4545	0.	2339.
16685	13.838	2.5455	5.e-002	8.3323
16686	14.115	2.5455	0.	2268.
16687	14.022	2.4545	0.	2291.7
16688	14.022	2.5455	5.e-002	8.2953
16689	14.3	2.5455	0.	2221.
16690	14.207	2.4545	0.	2244.6
16691	14.207	2.5455	5.e-002	8.2587
16692	14.484	2.5455	0.	2174.1
16693	14.392	2.4545	0.	2197.7
16694	14.392	2.5455	5.e-002	8.2225
16695	14.669	2.5455	0.	2127.5
16696	14.577	2.4545	0.	2150.9
16697	14.577	2.5455	5.e-002	8.1865
16698	14.854	2.5455	0.	2081.
16699	14.761	2.4545	0.	2104.3
16700	14.761	2.5455	5.e-002	8.1508
16701	15.039	2.5455	0.	2034.7
16702	14.946	2.4545	0.	2058.
16703	14.946	2.5455	5.e-002	8.1154
16704	15.223	2.5455	0.	1988.7
16705	15.131	2.4545	0.	2011.8
16706	15.131	2.5455	5.e-002	8.0805
16707	15.408	2.5455	0.	1942.8
16708	15.316	2.4545	0.	1965.8
16709	15.316	2.5455	5.e-002	8.0459
16710	15.593	2.5455	0.	1897.1
16711	15.501	2.4545	0.	1920.
16712	15.501	2.5455	5.e-002	8.0115
16713	15.778	2.5455	0.	1851.6
16714	15.685	2.4545	0.	1874.4
16715	15.685	2.5455	5.e-002	7.9774
16716	15.963	2.5455	0.	1806.4
16717	15.87	2.4545	0.	1829.1
16718	15.87	2.5455	5.e-002	7.9437
16719	16.147	2.5455	0.	1761.3
16720	16.055	2.4545	0.	1783.9
16721	16.055	2.5455	5.e-002	7.9104
16722	16.332	2.5455	0.	1716.5
16723	16.24	2.4545	0.	1738.9
16724	16.24	2.5455	5.e-002	7.8773
16725	16.517	2.5455	0.	1671.9
16726	16.424	2.4545	0.	1694.2
16727	16.424	2.5455	5.e-002	7.8445
16728	16.702	2.5455	0.	1627.4
16729	16.609	2.4545	0.	1649.7
16730	16.609	2.5455	5.e-002	7.812
16731	16.886	2.5455	0.	1583.3
16732	16.794	2.4545	0.	1605.4
16733	16.794	2.5455	5.e-002	7.7801
16734	17.071	2.5455	0.	1539.3
16735	16.979	2.4545	0.	1561.3
16736	16.979	2.5455	5.e-002	7.7485
16737	17.256	2.5455	0.	1495.6
16738	17.164	2.4545	0.	1517.4
16739	17.164	2.5455	5.e-002	7.7173
16740	17.441	2.5455	0.	1452.1
16741	17.348	2.4545	0.	1473.8
16742	17.348	2.5455	5.e-002	7.6864
16743	17.625	2.5455	0.	1408.8
16744	17.533	2.4545	0.	1430.4
16745	17.533	2.5455	5.e-002	7.656
16746	17.81	2.5455	0.	1365.8
16747	17.718	2.4545	0.	1387.3
16748	17.718	2.5455	5.e-002	7.6263
16749	17.995	2.5455	0.	1323.1
16750	17.903	2.4545	0.	1344.4
16751	17.903	2.5455	5.e-002	7.597
16752	18.18	2.5455	0.	1280.6
16753	18.087	2.4545	0.	1301.8
16754	18.087	2.5455	5.e-002	7.5682
16755	18.365	2.5455	0.	1238.3
16756	18.272	2.4545	0.	1259.4
16757	18.272	2.5455	5.e-002	7.54
16758	18.549	2.5455	0.	1196.4
16759	18.457	2.4545	0.	1217.3
16760	18.457	2.5455	5.e-002	7.5125
16761	18.734	2.5455	0.	1154.7
16762	18.642	2.4545	0.	1175.4
16763	18.642	2.5455	5.e-002	7.4857
16764	18.919	2.5455	0.	1113.2
16765	18.826	2.4545	0.	1133.8
16766	18.826	2.5455	5.e-002	7.4598
16767	19.104	2.5455	0.	1072.1
16768	19.011	2.4545	0.	1092.5
16769	19.011	2.5455	5.e-002	7.4346
16770	19.288	2.5455	0.	1031.3
16771	19.196	2.4545	0.	1051.5
16772	19.196	2.5455	5.e-002	7.4104
16773	19.473	2.5455	0.	990.71
16774	19.381	2.4545	0.	1010.8
16775	19.381	2.5455	5.e-002	7.3872
16776	19.658	2.5455	0.	950.49
16777	19.566	2.4545	0.	970.36
16778	19.566	2.5455	5.e-002	7.3652
16779	19.843	2.5455	0.	910.59
16780	19.75	2.4545	0.	930.27
16781	19.75	2.5455	5.e-002	7.3444
16782	20.027	2.5455	0.	871.03
16783	19.935	2.4545	0.	890.5
16784	19.935	2.5455	5.e-002	7.3251
16785	20.212	2.5455	0.	831.81
16786	20.12	2.4545	0.	851.07
16787	20.12	2.5455	5.e-002	7.3072
16788	20.397	2.5455	0.	792.96
16789	20.305	2.4545	0.	812.
16790	20.305	2.5455	5.e-002	7.2912
16791	20.582	2.5455	0.	754.49
16792	20.489	2.4545	0.	773.29
16793	20.489	2.5455	5.e-002	7.2771
16794	20.767	2.5455	0.	716.41
16795	20.674	2.4545	0.	734.96
16796	20.674	2.5455	5.e-002	7.2653
16797	20.951	2.5455	0.	678.75
16798	20.859	2.4545	0.	697.04
16799	20.859	2.5455	5.e-002	7.2558
16800	21.136	2.5455	0.	641.53
16801	21.044	2.4545	0.	659.54
16802	21.044	2.5455	5.e-002	7.2492
16803	21.321	2.5455	0.	604.76
16804	21.228	2.4545	0.	622.49
16805	21.228	2.5455	5.e-002	7.2458
16806	21.506	2.5455	0.	568.5
16807	21.413	2.4545	0.	585.91
16808	21.413	2.5455	5.e-002	7.2459
16809	21.69	2.5455	0.	532.75
16810	21.598	2.4545	0.	549.84
16811	21.598	2.5455	5.e-002	7.2501
16812	21.875	2.5455	0.	497.58
16813	21.783	2.4545	0.	514.31
16814	21.783	2.5455	5.e-002	7.2587
16815	22.06	2.5455	0.	463.04
16816	21.968	2.4545	0.	479.38
16817	21.968	2.5455	5.e-002	7.2724
16818	22.245	2.5455	0.	429.19
16819	22.152	2.4545	0.	445.1
16820	22.152	2.5455	5.e-002	7.2919
16821	22.429	2.5455	0.	396.12
16822	22.337	2.4545	0.	411.56
16823	22.337	2.5455	5.e-002	7.3176
16824	22.614	2.5455	0.	363.95
16825	22.522	2.4545	0.	378.86
16826	22.522	2.5455	5.e-002	7.3501
16827	22.799	2.5455	0.	332.85
16828	22.707	2.4545	0.	347.14
16829	22.707	2.5455	5.e-002	7.3901
16830	22.984	2.5455	0.	303.07
16831	22.891	2.4545	0.	316.61
16832	22.891	2.5455	5.e-002	7.4379
16833	23.169	2.5455	0.	274.92
16834	23.076	2.4545	0.	287.53
16835	23.076	2.5455	5.e-002	7.4939
16836	23.353	2.5455	0.	248.9
16837	23.261	2.4545	0.	260.32
16838	23.261	2.5455	5.e-002	7.5582
16839	23.538	2.5455	0.	225.68
16840	23.446	2.4545	0.	235.54
16841	23.446	2.5455	5.e-002	7.6303
16842	23.723	2.5455	0.	206.16
16843	23.63	2.4545	0.	214.
16844	23.63	2.5455	5.e-002	7.7105
16845	23.815	2.4545	0.	196.75
16846	23.815	2.5455	5.e-002	7.8141
16847	23.908	2.5455	0.	192.22
16848	2.8438	2.3636	0.	12830
16849	2.7514	2.2727	0.	14578
16850	2.7514	2.3636	5.e-002	394.19
16851	3.0286	2.3636	0.	10531
16852	2.9362	2.2727	0.	11295
16853	2.9362	2.3636	5.e-002	307.6
16854	3.2134	2.3636	0.	8957.7
16855	3.121	2.2727	0.	9341.7
16856	3.121	2.3636	5.e-002	222.82
16857	3.3981	2.3636	0.	7878.7
16858	3.3057	2.2727	0.	8116.3
16859	3.3057	2.3636	5.e-002	157.28
16860	3.5829	2.3636	0.	7112.2
16861	3.4905	2.2727	0.	7272.1
16862	3.4905	2.3636	5.e-002	119.48
16863	3.7677	2.3636	0.	6546.5
16864	3.6753	2.2727	0.	6664.9
16865	3.6753	2.3636	5.e-002	94.406
16866	3.9524	2.3636	0.	6117.6
16867	3.8601	2.2727	0.	6211.1
16868	3.8601	2.3636	5.e-002	76.356
16869	4.1372	2.3636	0.	5785.4
16870	4.0448	2.2727	0.	5862.9
16871	4.0448	2.3636	5.e-002	62.71
16872	4.322	2.3636	0.	5523.3
16873	4.2296	2.2727	0.	5589.9
16874	4.2296	2.3636	5.e-002	52.1
16875	4.5068	2.3636	0.	5313.1
16876	4.4144	2.2727	0.	5371.9
16877	4.4144	2.3636	5.e-002	43.719
16878	4.6915	2.3636	0.	5142.
16879	4.5991	2.2727	0.	5194.7
16880	4.5991	2.3636	5.e-002	37.044
16881	4.8763	2.3636	0.	5000.4
16882	4.7839	2.2727	0.	5048.3
16883	4.7839	2.3636	5.e-002	31.705
16884	5.0611	2.3636	0.	4881.3
16885	4.9687	2.2727	0.	4925.3
16886	4.9687	2.3636	5.e-002	27.425
16887	5.2458	2.3636	0.	4779.3
16888	5.1534	2.2727	0.	4820.1
16889	5.1534	2.3636	5.e-002	23.991
16890	5.4306	2.3636	0.	4690.3
16891	5.3382	2.2727	0.	4728.6
16892	5.3382	2.3636	5.e-002	21.234
16893	5.6154	2.3636	0.	4611.4
16894	5.523	2.2727	0.	4647.5
16895	5.523	2.3636	5.e-002	19.021
16896	5.8001	2.3636	0.	4540.
16897	5.7078	2.2727	0.	4574.3
16898	5.7078	2.3636	5.e-002	17.243
16899	5.9849	2.3636	0.	4474.3
16900	5.8925	2.2727	0.	4507.2
16901	5.8925	2.3636	5.e-002	15.816
16902	6.1697	2.3636	0.	4413.
16903	6.0773	2.2727	0.	4444.7
16904	6.0773	2.3636	5.e-002	14.667
16905	6.3545	2.3636	0.	4354.9
16906	6.2621	2.2727	0.	4385.6
16907	6.2621	2.3636	5.e-002	13.742
16908	6.5392	2.3636	0.	4299.3
16909	6.4468	2.2727	0.	4329.1
16910	6.4468	2.3636	5.e-002	12.995
16911	6.724	2.3636	0.	4245.4
16912	6.6316	2.2727	0.	4274.6
16913	6.6316	2.3636	5.e-002	12.389
16914	6.9088	2.3636	0.	4192.8
16915	6.8164	2.2727	0.	4221.4
16916	6.8164	2.3636	5.e-002	11.895
16917	7.0935	2.3636	0.	4141.1
16918	7.0011	2.2727	0.	4169.3
16919	7.0011	2.3636	5.e-002	11.49
16920	7.2783	2.3636	0.	4090.1
16921	7.1859	2.2727	0.	4117.9
16922	7.1859	2.3636	5.e-002	11.156
16923	7.4631	2.3636	0.	4039.6
16924	7.3707	2.2727	0.	4067.1
16925	7.3707	2.3636	5.e-002	10.878
16926	7.6478	2.3636	0.	3989.3
16927	7.5555	2.2727	0.	4016.6
16928	7.5555	2.3636	5.e-002	10.644
16929	7.8326	2.3636	0.	3939.3
16930	7.7402	2.2727	0.	3966.3
16931	7.7402	2.3636	5.e-002	10.446
16932	8.0174	2.3636	0.	3889.3
16933	7.925	2.2727	0.	3916.2
16934	7.925	2.3636	5.e-002	10.276
16935	8.2022	2.3636	0.	3839.4
16936	8.1098	2.2727	0.	3866.1
16937	8.1098	2.3636	5.e-002	10.129
16938	8.3869	2.3636	0.	3789.6
16939	8.2945	2.2727	0.	3816.1
16940	8.2945	2.3636	5.e-002	10.
16941	8.5717	2.3636	0.	3739.7
16942	8.4793	2.2727	0.	3766.1
16943	8.4793	2.3636	5.e-002	9.8864
16944	8.7565	2.3636	0.	3689.8
16945	8.6641	2.2727	0.	3716.2
16946	8.6641	2.3636	5.e-002	9.7843
16947	8.9412	2.3636	0.	3640.
16948	8.8489	2.2727	0.	3666.2
16949	8.8489	2.3636	5.e-002	9.692
16950	9.126	2.3636	0.	3590.1
16951	9.0336	2.2727	0.	3616.2
16952	9.0336	2.3636	5.e-002	9.6077
16953	9.3108	2.3636	0.	3540.2
16954	9.2184	2.2727	0.	3566.2
16955	9.2184	2.3636	5.e-002	9.5301
16956	9.4955	2.3636	0.	3490.3
16957	9.4032	2.2727	0.	3516.2
16958	9.4032	2.3636	5.e-002	9.4579
16959	9.6803	2.3636	0.	3440.4
16960	9.5879	2.2727	0.	3466.2
16961	9.5879	2.3636	5.e-002	9.3903
16962	9.8651	2.3636	0.	3390.5
16963	9.7727	2.2727	0.	3416.3
16964	9.7727	2.3636	5.e-002	9.3266
16965	10.05	2.3636	0.	3340.6
16966	9.9575	2.2727	0.	3366.3
16967	9.9575	2.3636	5.e-002	9.2663
16968	10.235	2.3636	0.	3290.8
16969	10.142	2.2727	0.	3316.4
16970	10.142	2.3636	5.e-002	9.2087
16971	10.419	2.3636	0.	3241.
16972	10.327	2.2727	0.	3266.6
16973	10.327	2.3636	5.e-002	9.1534
16974	10.604	2.3636	0.	3191.3
16975	10.512	2.2727	0.	3216.8
16976	10.512	2.3636	5.e-002	9.1004
16977	10.789	2.3636	0.	3141.7
16978	10.697	2.2727	0.	3167.1
16979	10.697	2.3636	5.e-002	9.0493
16980	10.974	2.3636	0.	3092.1
16981	10.881	2.2727	0.	3117.4
16982	10.881	2.3636	5.e-002	8.9997
16983	11.158	2.3636	0.	3042.6
16984	11.066	2.2727	0.	3067.8
16985	11.066	2.3636	5.e-002	8.9514
16986	11.343	2.3636	0.	2993.2
16987	11.251	2.2727	0.	3018.4
16988	11.251	2.3636	5.e-002	8.9044
16989	11.528	2.3636	0.	2943.9
16990	11.436	2.2727	0.	2969.
16991	11.436	2.3636	5.e-002	8.8588
16992	11.713	2.3636	0.	2894.8
16993	11.62	2.2727	0.	2919.8
16994	11.62	2.3636	5.e-002	8.8142
16995	11.898	2.3636	0.	2845.7
16996	11.805	2.2727	0.	2870.6
16997	11.805	2.3636	5.e-002	8.7704
16998	12.082	2.3636	0.	2796.8
16999	11.99	2.2727	0.	2821.6
17000	11.99	2.3636	5.e-002	8.7273
17001	12.267	2.3636	0.	2748.
17002	12.175	2.2727	0.	2772.7
17003	12.175	2.3636	5.e-002	8.6851
17004	12.452	2.3636	0.	2699.3
17005	12.359	2.2727	0.	2724.
17006	12.359	2.3636	5.e-002	8.6437
17007	12.637	2.3636	0.	2650.8
17008	12.544	2.2727	0.	2675.4
17009	12.544	2.3636	5.e-002	8.603
17010	12.821	2.3636	0.	2602.4
17011	12.729	2.2727	0.	2626.9
17012	12.729	2.3636	5.e-002	8.5628
17013	13.006	2.3636	0.	2554.2
17014	12.914	2.2727	0.	2578.6
17015	12.914	2.3636	5.e-002	8.523
17016	13.191	2.3636	0.	2506.2
17017	13.099	2.2727	0.	2530.4
17018	13.099	2.3636	5.e-002	8.4838
17019	13.376	2.3636	0.	2458.3
17020	13.283	2.2727	0.	2482.4
17021	13.283	2.3636	5.e-002	8.4452
17022	13.56	2.3636	0.	2410.5
17023	13.468	2.2727	0.	2434.6
17024	13.468	2.3636	5.e-002	8.4071
17025	13.745	2.3636	0.	2363.
17026	13.653	2.2727	0.	2386.9
17027	13.653	2.3636	5.e-002	8.3693
17028	13.93	2.3636	0.	2315.6
17029	13.838	2.2727	0.	2339.5
17030	13.838	2.3636	5.e-002	8.3318
17031	14.115	2.3636	0.	2268.4
17032	14.022	2.2727	0.	2292.1
17033	14.022	2.3636	5.e-002	8.2948
17034	14.3	2.3636	0.	2221.3
17035	14.207	2.2727	0.	2245.
17036	14.207	2.3636	5.e-002	8.2583
17037	14.484	2.3636	0.	2174.5
17038	14.392	2.2727	0.	2198.1
17039	14.392	2.3636	5.e-002	8.2221
17040	14.669	2.3636	0.	2127.8
17041	14.577	2.2727	0.	2151.3
17042	14.577	2.3636	5.e-002	8.1861
17043	14.854	2.3636	0.	2081.3
17044	14.761	2.2727	0.	2104.7
17045	14.761	2.3636	5.e-002	8.1504
17046	15.039	2.3636	0.	2035.1
17047	14.946	2.2727	0.	2058.3
17048	14.946	2.3636	5.e-002	8.115
17049	15.223	2.3636	0.	1989.
17050	15.131	2.2727	0.	2012.1
17051	15.131	2.3636	5.e-002	8.0802
17052	15.408	2.3636	0.	1943.1
17053	15.316	2.2727	0.	1966.1
17054	15.316	2.3636	5.e-002	8.0456
17055	15.593	2.3636	0.	1897.4
17056	15.501	2.2727	0.	1920.3
17057	15.501	2.3636	5.e-002	8.0112
17058	15.778	2.3636	0.	1851.9
17059	15.685	2.2727	0.	1874.8
17060	15.685	2.3636	5.e-002	7.9771
17061	15.963	2.3636	0.	1806.6
17062	15.87	2.2727	0.	1829.4
17063	15.87	2.3636	5.e-002	7.9434
17064	16.147	2.3636	0.	1761.6
17065	16.055	2.2727	0.	1784.2
17066	16.055	2.3636	5.e-002	7.91
17067	16.332	2.3636	0.	1716.7
17068	16.24	2.2727	0.	1739.2
17069	16.24	2.3636	5.e-002	7.8769
17070	16.517	2.3636	0.	1672.1
17071	16.424	2.2727	0.	1694.5
17072	16.424	2.3636	5.e-002	7.8441
17073	16.702	2.3636	0.	1627.6
17074	16.609	2.2727	0.	1649.9
17075	16.609	2.3636	5.e-002	7.8117
17076	16.886	2.3636	0.	1583.5
17077	16.794	2.2727	0.	1605.6
17078	16.794	2.3636	5.e-002	7.7797
17079	17.071	2.3636	0.	1539.5
17080	16.979	2.2727	0.	1561.5
17081	16.979	2.3636	5.e-002	7.7482
17082	17.256	2.3636	0.	1495.7
17083	17.164	2.2727	0.	1517.6
17084	17.164	2.3636	5.e-002	7.7169
17085	17.441	2.3636	0.	1452.2
17086	17.348	2.2727	0.	1474.
17087	17.348	2.3636	5.e-002	7.686
17088	17.625	2.3636	0.	1409.
17089	17.533	2.2727	0.	1430.6
17090	17.533	2.3636	5.e-002	7.6556
17091	17.81	2.3636	0.	1365.9
17092	17.718	2.2727	0.	1387.4
17093	17.718	2.3636	5.e-002	7.6258
17094	17.995	2.3636	0.	1323.2
17095	17.903	2.2727	0.	1344.5
17096	17.903	2.3636	5.e-002	7.5965
17097	18.18	2.3636	0.	1280.6
17098	18.087	2.2727	0.	1301.8
17099	18.087	2.3636	5.e-002	7.5677
17100	18.365	2.3636	0.	1238.4
17101	18.272	2.2727	0.	1259.4
17102	18.272	2.3636	5.e-002	7.5395
17103	18.549	2.3636	0.	1196.3
17104	18.457	2.2727	0.	1217.3
17105	18.457	2.3636	5.e-002	7.5119
17106	18.734	2.3636	0.	1154.6
17107	18.642	2.2727	0.	1175.4
17108	18.642	2.3636	5.e-002	7.4851
17109	18.919	2.3636	0.	1113.1
17110	18.826	2.2727	0.	1133.7
17111	18.826	2.3636	5.e-002	7.4591
17112	19.104	2.3636	0.	1072.
17113	19.011	2.2727	0.	1092.4
17114	19.011	2.3636	5.e-002	7.4339
17115	19.288	2.3636	0.	1031.1
17116	19.196	2.2727	0.	1051.3
17117	19.196	2.3636	5.e-002	7.4096
17118	19.473	2.3636	0.	990.47
17119	19.381	2.2727	0.	1010.5
17120	19.381	2.3636	5.e-002	7.3863
17121	19.658	2.3636	0.	950.19
17122	19.566	2.2727	0.	970.06
17123	19.566	2.3636	5.e-002	7.3642
17124	19.843	2.3636	0.	910.23
17125	19.75	2.2727	0.	929.89
17126	19.75	2.3636	5.e-002	7.3433
17127	20.027	2.3636	0.	870.59
17128	19.935	2.2727	0.	890.04
17129	19.935	2.3636	5.e-002	7.3238
17130	20.212	2.3636	0.	831.3
17131	20.12	2.2727	0.	850.53
17132	20.12	2.3636	5.e-002	7.3057
17133	20.397	2.3636	0.	792.37
17134	20.305	2.2727	0.	811.36
17135	20.305	2.3636	5.e-002	7.2895
17136	20.582	2.3636	0.	753.8
17137	20.489	2.2727	0.	772.56
17138	20.489	2.3636	5.e-002	7.2751
17139	20.767	2.3636	0.	715.63
17140	20.674	2.2727	0.	734.12
17141	20.674	2.3636	5.e-002	7.263
17142	20.951	2.3636	0.	677.87
17143	20.859	2.2727	0.	696.08
17144	20.859	2.3636	5.e-002	7.2532
17145	21.136	2.3636	0.	640.53
17146	21.044	2.2727	0.	658.46
17147	21.044	2.3636	5.e-002	7.2461
17148	21.321	2.3636	0.	603.65
17149	21.228	2.2727	0.	621.27
17150	21.228	2.3636	5.e-002	7.2422
17151	21.506	2.3636	0.	567.26
17152	21.413	2.2727	0.	584.55
17153	21.413	2.3636	5.e-002	7.2418
17154	21.69	2.3636	0.	531.39
17155	21.598	2.2727	0.	548.33
17156	21.598	2.3636	5.e-002	7.2453
17157	21.875	2.3636	0.	496.09
17158	21.783	2.2727	0.	512.65
17159	21.783	2.3636	5.e-002	7.2532
17160	22.06	2.3636	0.	461.41
17161	21.968	2.2727	0.	477.57
17162	21.968	2.3636	5.e-002	7.2662
17163	22.245	2.3636	0.	427.42
17164	22.152	2.2727	0.	443.13
17165	22.152	2.3636	5.e-002	7.2848
17166	22.429	2.3636	0.	394.22
17167	22.337	2.2727	0.	409.43
17168	22.337	2.3636	5.e-002	7.3098
17169	22.614	2.3636	0.	361.92
17170	22.522	2.2727	0.	376.57
17171	22.522	2.3636	5.e-002	7.3417
17172	22.799	2.3636	0.	330.69
17173	22.707	2.2727	0.	344.69
17174	22.707	2.3636	5.e-002	7.3813
17175	22.984	2.3636	0.	300.77
17176	22.891	2.2727	0.	314.
17177	22.891	2.3636	5.e-002	7.4291
17178	23.169	2.3636	0.	272.5
17179	23.076	2.2727	0.	284.77
17180	23.076	2.3636	5.e-002	7.4854
17181	23.353	2.3636	0.	246.36
17182	23.261	2.2727	0.	257.41
17183	23.261	2.3636	5.e-002	7.5507
17184	23.538	2.3636	0.	223.03
17185	23.446	2.2727	0.	232.49
17186	23.446	2.3636	5.e-002	7.6244
17187	23.723	2.3636	0.	203.43
17188	23.63	2.2727	0.	210.83
17189	23.63	2.3636	5.e-002	7.7074
17190	23.815	2.2727	0.	193.5
17191	23.815	2.3636	5.e-002	7.8227
17192	23.908	2.3636	0.	189.39
17193	2.8438	2.1818	0.	13118
17194	2.7514	2.0909	0.	15044
17195	2.7514	2.1818	5.e-002	885.76
17196	3.0286	2.1818	0.	10134
17197	2.9362	2.0909	0.	10714
17198	2.9362	2.1818	5.e-002	420.21
17199	3.2134	2.1818	0.	8506.5
17200	3.121	2.0909	0.	8777.1
17201	3.121	2.1818	5.e-002	216.83
17202	3.3981	2.1818	0.	7509.9
17203	3.3057	2.0909	0.	7665.
17204	3.3057	2.1818	5.e-002	148.71
17205	3.5829	2.1818	0.	6823.8
17206	3.4905	2.0909	0.	6921.7
17207	3.4905	2.1818	5.e-002	110.64
17208	3.7677	2.1818	0.	6328.5
17209	3.6753	2.0909	0.	6399.6
17210	3.6753	2.1818	5.e-002	86.733
17211	3.9524	2.1818	0.	5955.7
17212	3.8601	2.0909	0.	6012.7
17213	3.8601	2.1818	5.e-002	70.105
17214	4.1372	2.1818	0.	5667.1
17215	4.0448	2.0909	0.	5716.7
17216	4.0448	2.1818	5.e-002	57.755
17217	4.322	2.1818	0.	5438.3
17218	4.2296	2.0909	0.	5483.7
17219	4.2296	2.1818	5.e-002	48.222
17220	4.5068	2.1818	0.	5253.3
17221	4.4144	2.0909	0.	5296.
17222	4.4144	2.1818	5.e-002	40.698
17223	4.6915	2.1818	0.	5101.
17224	4.5991	2.0909	0.	5141.7
17225	4.5991	2.1818	5.e-002	34.687
17226	4.8763	2.1818	0.	4973.2
17227	4.7839	2.0909	0.	5012.4
17228	4.7839	2.1818	5.e-002	29.858
17229	5.0611	2.1818	0.	4864.2
17230	4.9687	2.0909	0.	4902.
17231	4.9687	2.1818	5.e-002	25.967
17232	5.2458	2.1818	0.	4769.5
17233	5.1534	2.0909	0.	4806.
17234	5.1534	2.1818	5.e-002	22.83
17235	5.4306	2.1818	0.	4685.8
17236	5.3382	2.0909	0.	4721.1
17237	5.3382	2.1818	5.e-002	20.303
17238	5.6154	2.1818	0.	4610.5
17239	5.523	2.0909	0.	4644.7
17240	5.523	2.1818	5.e-002	18.269
17241	5.8001	2.1818	0.	4541.6
17242	5.7078	2.0909	0.	4574.8
17243	5.7078	2.1818	5.e-002	16.634
17244	5.9849	2.1818	0.	4477.6
17245	5.8925	2.0909	0.	4509.9
17246	5.8925	2.1818	5.e-002	15.32
17247	6.1697	2.1818	0.	4417.3
17248	6.0773	2.0909	0.	4448.8
17249	6.0773	2.1818	5.e-002	14.263
17250	6.3545	2.1818	0.	4359.8
17251	6.2621	2.0909	0.	4390.6
17252	6.2621	2.1818	5.e-002	13.413
17253	6.5392	2.1818	0.	4304.4
17254	6.4468	2.0909	0.	4334.6
17255	6.4468	2.1818	5.e-002	12.727
17256	6.724	2.1818	0.	4250.6
17257	6.6316	2.0909	0.	4280.2
17258	6.6316	2.1818	5.e-002	12.171
17259	6.9088	2.1818	0.	4197.9
17260	6.8164	2.0909	0.	4227.1
17261	6.8164	2.1818	5.e-002	11.719
17262	7.0935	2.1818	0.	4146.1
17263	7.0011	2.0909	0.	4174.9
17264	7.0011	2.1818	5.e-002	11.348
17265	7.2783	2.1818	0.	4094.9
17266	7.1859	2.0909	0.	4123.3
17267	7.1859	2.1818	5.e-002	11.041
17268	7.4631	2.1818	0.	4044.1
17269	7.3707	2.0909	0.	4072.1
17270	7.3707	2.1818	5.e-002	10.785
17271	7.6478	2.1818	0.	3993.5
17272	7.5555	2.0909	0.	4021.3
17273	7.5555	2.1818	5.e-002	10.57
17274	7.8326	2.1818	0.	3943.2
17275	7.7402	2.0909	0.	3970.7
17276	7.7402	2.1818	5.e-002	10.386
17277	8.0174	2.1818	0.	3892.9
17278	7.925	2.0909	0.	3920.3
17279	7.925	2.1818	5.e-002	10.228
17280	8.2022	2.1818	0.	3842.8
17281	8.1098	2.0909	0.	3869.9
17282	8.1098	2.1818	5.e-002	10.09
17283	8.3869	2.1818	0.	3792.7
17284	8.2945	2.0909	0.	3819.7
17285	8.2945	2.1818	5.e-002	9.9692
17286	8.5717	2.1818	0.	3742.6
17287	8.4793	2.0909	0.	3769.4
17288	8.4793	2.1818	5.e-002	9.8612
17289	8.7565	2.1818	0.	3692.5
17290	8.6641	2.0909	0.	3719.2
17291	8.6641	2.1818	5.e-002	9.7639
17292	8.9412	2.1818	0.	3642.4
17293	8.8489	2.0909	0.	3669.
17294	8.8489	2.1818	5.e-002	9.6755
17295	9.126	2.1818	0.	3592.3
17296	9.0336	2.0909	0.	3618.8
17297	9.0336	2.1818	5.e-002	9.5942
17298	9.3108	2.1818	0.	3542.2
17299	9.2184	2.0909	0.	3568.6
17300	9.2184	2.1818	5.e-002	9.519
17301	9.4955	2.1818	0.	3492.2
17302	9.4032	2.0909	0.	3518.4
17303	9.4032	2.1818	5.e-002	9.4487
17304	9.6803	2.1818	0.	3442.1
17305	9.5879	2.0909	0.	3468.3
17306	9.5879	2.1818	5.e-002	9.3827
17307	9.8651	2.1818	0.	3392.1
17308	9.7727	2.0909	0.	3418.2
17309	9.7727	2.1818	5.e-002	9.3203
17310	10.05	2.1818	0.	3342.2
17311	9.9575	2.0909	0.	3368.1
17312	9.9575	2.1818	5.e-002	9.2609
17313	10.235	2.1818	0.	3292.2
17314	10.142	2.0909	0.	3318.1
17315	10.142	2.1818	5.e-002	9.2041
17316	10.419	2.1818	0.	3242.4
17317	10.327	2.0909	0.	3268.1
17318	10.327	2.1818	5.e-002	9.1495
17319	10.604	2.1818	0.	3192.6
17320	10.512	2.0909	0.	3218.2
17321	10.512	2.1818	5.e-002	9.097
17322	10.789	2.1818	0.	3142.8
17323	10.697	2.0909	0.	3168.4
17324	10.697	2.1818	5.e-002	9.0464
17325	10.974	2.1818	0.	3093.2
17326	10.881	2.0909	0.	3118.7
17327	10.881	2.1818	5.e-002	8.9971
17328	11.158	2.1818	0.	3043.6
17329	11.066	2.0909	0.	3069.
17330	11.066	2.1818	5.e-002	8.9491
17331	11.343	2.1818	0.	2994.2
17332	11.251	2.0909	0.	3019.5
17333	11.251	2.1818	5.e-002	8.9024
17334	11.528	2.1818	0.	2944.8
17335	11.436	2.0909	0.	2970.1
17336	11.436	2.1818	5.e-002	8.8569
17337	11.713	2.1818	0.	2895.6
17338	11.62	2.0909	0.	2920.7
17339	11.62	2.1818	5.e-002	8.8125
17340	11.898	2.1818	0.	2846.5
17341	11.805	2.0909	0.	2871.5
17342	11.805	2.1818	5.e-002	8.7688
17343	12.082	2.1818	0.	2797.6
17344	11.99	2.0909	0.	2822.5
17345	11.99	2.1818	5.e-002	8.7259
17346	12.267	2.1818	0.	2748.7
17347	12.175	2.0909	0.	2773.6
17348	12.175	2.1818	5.e-002	8.6838
17349	12.452	2.1818	0.	2700.
17350	12.359	2.0909	0.	2724.8
17351	12.359	2.1818	5.e-002	8.6426
17352	12.637	2.1818	0.	2651.5
17353	12.544	2.0909	0.	2676.1
17354	12.544	2.1818	5.e-002	8.6019
17355	12.821	2.1818	0.	2603.1
17356	12.729	2.0909	0.	2627.6
17357	12.729	2.1818	5.e-002	8.5618
17358	13.006	2.1818	0.	2554.8
17359	12.914	2.0909	0.	2579.3
17360	12.914	2.1818	5.e-002	8.5221
17361	13.191	2.1818	0.	2506.7
17362	13.099	2.0909	0.	2531.1
17363	13.099	2.1818	5.e-002	8.4829
17364	13.376	2.1818	0.	2458.8
17365	13.283	2.0909	0.	2483.1
17366	13.283	2.1818	5.e-002	8.4444
17367	13.56	2.1818	0.	2411.1
17368	13.468	2.0909	0.	2435.2
17369	13.468	2.1818	5.e-002	8.4064
17370	13.745	2.1818	0.	2363.5
17371	13.653	2.0909	0.	2387.5
17372	13.653	2.1818	5.e-002	8.3686
17373	13.93	2.1818	0.	2316.1
17374	13.838	2.0909	0.	2340.
17375	13.838	2.1818	5.e-002	8.3312
17376	14.115	2.1818	0.	2268.8
17377	14.022	2.0909	0.	2292.7
17378	14.022	2.1818	5.e-002	8.2942
17379	14.3	2.1818	0.	2221.8
17380	14.207	2.0909	0.	2245.5
17381	14.207	2.1818	5.e-002	8.2577
17382	14.484	2.1818	0.	2174.9
17383	14.392	2.0909	0.	2198.6
17384	14.392	2.1818	5.e-002	8.2215
17385	14.669	2.1818	0.	2128.2
17386	14.577	2.0909	0.	2151.8
17387	14.577	2.1818	5.e-002	8.1855
17388	14.854	2.1818	0.	2081.8
17389	14.761	2.0909	0.	2105.2
17390	14.761	2.1818	5.e-002	8.1499
17391	15.039	2.1818	0.	2035.5
17392	14.946	2.0909	0.	2058.8
17393	14.946	2.1818	5.e-002	8.1146
17394	15.223	2.1818	0.	1989.4
17395	15.131	2.0909	0.	2012.6
17396	15.131	2.1818	5.e-002	8.0797
17397	15.408	2.1818	0.	1943.5
17398	15.316	2.0909	0.	1966.6
17399	15.316	2.1818	5.e-002	8.0451
17400	15.593	2.1818	0.	1897.8
17401	15.501	2.0909	0.	1920.8
17402	15.501	2.1818	5.e-002	8.0107
17403	15.778	2.1818	0.	1852.3
17404	15.685	2.0909	0.	1875.2
17405	15.685	2.1818	5.e-002	7.9766
17406	15.963	2.1818	0.	1807.
17407	15.87	2.0909	0.	1829.8
17408	15.87	2.1818	5.e-002	7.9429
17409	16.147	2.1818	0.	1761.9
17410	16.055	2.0909	0.	1784.6
17411	16.055	2.1818	5.e-002	7.9096
17412	16.332	2.1818	0.	1717.
17413	16.24	2.0909	0.	1739.6
17414	16.24	2.1818	5.e-002	7.8765
17415	16.517	2.1818	0.	1672.4
17416	16.424	2.0909	0.	1694.8
17417	16.424	2.1818	5.e-002	7.8437
17418	16.702	2.1818	0.	1627.9
17419	16.609	2.0909	0.	1650.2
17420	16.609	2.1818	5.e-002	7.8112
17421	16.886	2.1818	0.	1583.7
17422	16.794	2.0909	0.	1605.9
17423	16.794	2.1818	5.e-002	7.7793
17424	17.071	2.1818	0.	1539.7
17425	16.979	2.0909	0.	1561.8
17426	16.979	2.1818	5.e-002	7.7477
17427	17.256	2.1818	0.	1496.
17428	17.164	2.0909	0.	1517.9
17429	17.164	2.1818	5.e-002	7.7164
17430	17.441	2.1818	0.	1452.4
17431	17.348	2.0909	0.	1474.2
17432	17.348	2.1818	5.e-002	7.6855
17433	17.625	2.1818	0.	1409.1
17434	17.533	2.0909	0.	1430.8
17435	17.533	2.1818	5.e-002	7.6551
17436	17.81	2.1818	0.	1366.1
17437	17.718	2.0909	0.	1387.6
17438	17.718	2.1818	5.e-002	7.6253
17439	17.995	2.1818	0.	1323.3
17440	17.903	2.0909	0.	1344.7
17441	17.903	2.1818	5.e-002	7.5959
17442	18.18	2.1818	0.	1280.7
17443	18.087	2.0909	0.	1301.9
17444	18.087	2.1818	5.e-002	7.5671
17445	18.365	2.1818	0.	1238.4
17446	18.272	2.0909	0.	1259.5
17447	18.272	2.1818	5.e-002	7.5388
17448	18.549	2.1818	0.	1196.3
17449	18.457	2.0909	0.	1217.3
17450	18.457	2.1818	5.e-002	7.5112
17451	18.734	2.1818	0.	1154.5
17452	18.642	2.0909	0.	1175.3
17453	18.642	2.1818	5.e-002	7.4843
17454	18.919	2.1818	0.	1113.
17455	18.826	2.0909	0.	1133.6
17456	18.826	2.1818	5.e-002	7.4582
17457	19.104	2.1818	0.	1071.8
17458	19.011	2.0909	0.	1092.2
17459	19.011	2.1818	5.e-002	7.4329
17460	19.288	2.1818	0.	1030.8
17461	19.196	2.0909	0.	1051.1
17462	19.196	2.1818	5.e-002	7.4085
17463	19.473	2.1818	0.	990.17
17464	19.381	2.0909	0.	1010.2
17465	19.381	2.1818	5.e-002	7.3851
17466	19.658	2.1818	0.	949.81
17467	19.566	2.0909	0.	969.69
17468	19.566	2.1818	5.e-002	7.3628
17469	19.843	2.1818	0.	909.76
17470	19.75	2.0909	0.	929.43
17471	19.75	2.1818	5.e-002	7.3418
17472	20.027	2.1818	0.	870.04
17473	19.935	2.0909	0.	889.49
17474	19.935	2.1818	5.e-002	7.322
17475	20.212	2.1818	0.	830.64
17476	20.12	2.0909	0.	849.87
17477	20.12	2.1818	5.e-002	7.3038
17478	20.397	2.1818	0.	791.6
17479	20.305	2.0909	0.	810.59
17480	20.305	2.1818	5.e-002	7.2872
17481	20.582	2.1818	0.	752.92
17482	20.489	2.0909	0.	771.65
17483	20.489	2.1818	5.e-002	7.2726
17484	20.767	2.1818	0.	714.62
17485	20.674	2.0909	0.	733.08
17486	20.674	2.1818	5.e-002	7.26
17487	20.951	2.1818	0.	676.72
17488	20.859	2.0909	0.	694.89
17489	20.859	2.1818	5.e-002	7.2497
17490	21.136	2.1818	0.	639.23
17491	21.044	2.0909	0.	657.11
17492	21.044	2.1818	5.e-002	7.2421
17493	21.321	2.1818	0.	602.2
17494	21.228	2.0909	0.	619.75
17495	21.228	2.1818	5.e-002	7.2375
17496	21.506	2.1818	0.	565.64
17497	21.413	2.0909	0.	582.85
17498	21.413	2.1818	5.e-002	7.2363
17499	21.69	2.1818	0.	529.6
17500	21.598	2.0909	0.	546.44
17501	21.598	2.1818	5.e-002	7.2389
17502	21.875	2.1818	0.	494.12
17503	21.783	2.0909	0.	510.56
17504	21.783	2.1818	5.e-002	7.2459
17505	22.06	2.1818	0.	459.26
17506	21.968	2.0909	0.	475.27
17507	21.968	2.1818	5.e-002	7.2579
17508	22.245	2.1818	0.	425.09
17509	22.152	2.0909	0.	440.62
17510	22.152	2.1818	5.e-002	7.2755
17511	22.429	2.1818	0.	391.7
17512	22.337	2.0909	0.	406.7
17513	22.337	2.1818	5.e-002	7.2994
17514	22.614	2.1818	0.	359.21
17515	22.522	2.0909	0.	373.63
17516	22.522	2.1818	5.e-002	7.3305
17517	22.799	2.1818	0.	327.8
17518	22.707	2.0909	0.	341.54
17519	22.707	2.1818	5.e-002	7.3694
17520	22.984	2.1818	0.	297.71
17521	22.891	2.0909	0.	310.64
17522	22.891	2.1818	5.e-002	7.417
17523	23.169	2.1818	0.	269.26
17524	23.076	2.0909	0.	281.21
17525	23.076	2.1818	5.e-002	7.4738
17526	23.353	2.1818	0.	242.95
17527	23.261	2.0909	0.	253.65
17528	23.261	2.1818	5.e-002	7.5402
17529	23.538	2.1818	0.	219.46
17530	23.446	2.0909	0.	228.54
17531	23.446	2.1818	5.e-002	7.6161
17532	23.723	2.1818	0.	199.74
17533	23.63	2.0909	0.	206.71
17534	23.63	2.1818	5.e-002	7.7029
17535	23.815	2.0909	0.	189.28
17536	23.815	2.1818	5.e-002	7.8341
17537	23.908	2.1818	0.	185.58
17538	2.8438	2.	0.	12832
17539	2.7514	1.9091	0.	14000
17540	2.7514	2.	5.e-002	1747.1
17541	2.6591	2.	0.	22643
17542	3.0286	2.	0.	9375.
17543	2.9362	1.9091	0.	9732.3
17544	2.9362	2.	5.e-002	302.3
17545	3.2134	2.	0.	7935.
17546	3.121	1.9091	0.	8073.9
17547	3.121	2.	5.e-002	195.82
17548	3.3981	2.	0.	7073.3
17549	3.3057	1.9091	0.	7140.7
17550	3.3057	2.	5.e-002	130.91
17551	3.5829	2.	0.	6494.2
17552	3.4905	1.9091	0.	6529.7
17553	3.4905	2.	5.e-002	98.437
17554	3.7677	2.	0.	6081.4
17555	3.6753	1.9091	0.	6105.1
17556	3.6753	2.	5.e-002	77.51
17557	3.9524	2.	0.	5772.2
17558	3.8601	1.9091	0.	5792.9
17559	3.8601	2.	5.e-002	63.005
17560	4.1372	2.	0.	5532.4
17561	4.0448	1.9091	0.	5554.1
17562	4.0448	2.	5.e-002	52.203
17563	4.322	2.	0.	5341.
17564	4.2296	1.9091	0.	5364.9
17565	4.2296	2.	5.e-002	43.854
17566	4.5068	2.	0.	5184.3
17567	4.4144	1.9091	0.	5210.7
17568	4.4144	2.	5.e-002	37.245
17569	4.6915	2.	0.	5053.2
17570	4.5991	1.9091	0.	5081.7
17571	4.5991	2.	5.e-002	31.943
17572	4.8763	2.	0.	4941.2
17573	4.7839	1.9091	0.	4971.4
17574	4.7839	2.	5.e-002	27.663
17575	5.0611	2.	0.	4843.9
17576	4.9687	1.9091	0.	4875.1
17577	4.9687	2.	5.e-002	24.202
17578	5.2458	2.	0.	4757.7
17579	5.1534	1.9091	0.	4789.5
17580	5.1534	2.	5.e-002	21.402
17581	5.4306	2.	0.	4680.1
17582	5.3382	1.9091	0.	4712.1
17583	5.3382	2.	5.e-002	19.143
17584	5.6154	2.	0.	4609.1
17585	5.523	1.9091	0.	4641.1
17586	5.523	2.	5.e-002	17.324
17587	5.8001	2.	0.	4543.2
17588	5.7078	1.9091	0.	4575.
17589	5.7078	2.	5.e-002	15.862
17590	5.9849	2.	0.	4481.2
17591	5.8925	1.9091	0.	4512.7
17592	5.8925	2.	5.e-002	14.69
17593	6.1697	2.	0.	4422.2
17594	6.0773	1.9091	0.	4453.3
17595	6.0773	2.	5.e-002	13.75
17596	6.3545	2.	0.	4365.4
17597	6.2621	1.9091	0.	4396.2
17598	6.2621	2.	5.e-002	12.996
17599	6.5392	2.	0.	4310.4
17600	6.4468	1.9091	0.	4340.8
17601	6.4468	2.	5.e-002	12.388
17602	6.724	2.	0.	4256.7
17603	6.6316	1.9091	0.	4286.7
17604	6.6316	2.	5.e-002	11.897
17605	6.9088	2.	0.	4204.
17606	6.8164	1.9091	0.	4233.6
17607	6.8164	2.	5.e-002	11.498
17608	7.0935	2.	0.	4152.
17609	7.0011	1.9091	0.	4181.2
17610	7.0011	2.	5.e-002	11.169
17611	7.2783	2.	0.	4100.5
17612	7.1859	1.9091	0.	4129.4
17613	7.1859	2.	5.e-002	10.898
17614	7.4631	2.	0.	4049.4
17615	7.3707	1.9091	0.	4078.
17616	7.3707	2.	5.e-002	10.67
17617	7.6478	2.	0.	3998.5
17618	7.5555	1.9091	0.	4026.8
17619	7.5555	2.	5.e-002	10.477
17620	7.8326	2.	0.	3947.9
17621	7.7402	1.9091	0.	3975.9
17622	7.7402	2.	5.e-002	10.312
17623	8.0174	2.	0.	3897.3
17624	7.925	1.9091	0.	3925.1
17625	7.925	2.	5.e-002	10.169
17626	8.2022	2.	0.	3846.8
17627	8.1098	1.9091	0.	3874.5
17628	8.1098	2.	5.e-002	10.043
17629	8.3869	2.	0.	3796.4
17630	8.2945	1.9091	0.	3823.9
17631	8.2945	2.	5.e-002	9.931
17632	8.5717	2.	0.	3746.1
17633	8.4793	1.9091	0.	3773.3
17634	8.4793	2.	5.e-002	9.8304
17635	8.7565	2.	0.	3695.7
17636	8.6641	1.9091	0.	3722.8
17637	8.6641	2.	5.e-002	9.739
17638	8.9412	2.	0.	3645.4
17639	8.8489	1.9091	0.	3672.3
17640	8.8489	2.	5.e-002	9.6552
17641	9.126	2.	0.	3595.1
17642	9.0336	1.9091	0.	3621.9
17643	9.0336	2.	5.e-002	9.5777
17644	9.3108	2.	0.	3544.8
17645	9.2184	1.9091	0.	3571.5
17646	9.2184	2.	5.e-002	9.5054
17647	9.4955	2.	0.	3494.5
17648	9.4032	1.9091	0.	3521.1
17649	9.4032	2.	5.e-002	9.4376
17650	9.6803	2.	0.	3444.3
17651	9.5879	1.9091	0.	3470.7
17652	9.5879	2.	5.e-002	9.3734
17653	9.8651	2.	0.	3394.2
17654	9.7727	1.9091	0.	3420.5
17655	9.7727	2.	5.e-002	9.3125
17656	10.05	2.	0.	3344.
17657	9.9575	1.9091	0.	3370.2
17658	9.9575	2.	5.e-002	9.2543
17659	10.235	2.	0.	3294.
17660	10.142	1.9091	0.	3320.1
17661	10.142	2.	5.e-002	9.1985
17662	10.419	2.	0.	3244.
17663	10.327	1.9091	0.	3270.
17664	10.327	2.	5.e-002	9.1446
17665	10.604	2.	0.	3194.1
17666	10.512	1.9091	0.	3219.9
17667	10.512	2.	5.e-002	9.0928
17668	10.789	2.	0.	3144.3
17669	10.697	1.9091	0.	3170.
17670	10.697	2.	5.e-002	9.0427
17671	10.974	2.	0.	3094.5
17672	10.881	1.9091	0.	3120.2
17673	10.881	2.	5.e-002	8.9938
17674	11.158	2.	0.	3044.9
17675	11.066	1.9091	0.	3070.4
17676	11.066	2.	5.e-002	8.9462
17677	11.343	2.	0.	2995.4
17678	11.251	1.9091	0.	3020.8
17679	11.251	2.	5.e-002	8.8998
17680	11.528	2.	0.	2946.
17681	11.436	1.9091	0.	2971.3
17682	11.436	2.	5.e-002	8.8546
17683	11.713	2.	0.	2896.7
17684	11.62	1.9091	0.	2921.9
17685	11.62	2.	5.e-002	8.8104
17686	11.898	2.	0.	2847.5
17687	11.805	1.9091	0.	2872.7
17688	11.805	2.	5.e-002	8.7669
17689	12.082	2.	0.	2798.5
17690	11.99	1.9091	0.	2823.6
17691	11.99	2.	5.e-002	8.7242
17692	12.267	2.	0.	2749.6
17693	12.175	1.9091	0.	2774.6
17694	12.175	2.	5.e-002	8.6822
17695	12.452	2.	0.	2700.9
17696	12.359	1.9091	0.	2725.7
17697	12.359	2.	5.e-002	8.6411
17698	12.637	2.	0.	2652.3
17699	12.544	1.9091	0.	2677.
17700	12.544	2.	5.e-002	8.6006
17701	12.821	2.	0.	2603.9
17702	12.729	1.9091	0.	2628.5
17703	12.729	2.	5.e-002	8.5605
17704	13.006	2.	0.	2555.6
17705	12.914	1.9091	0.	2580.1
17706	12.914	2.	5.e-002	8.5209
17707	13.191	2.	0.	2507.5
17708	13.099	1.9091	0.	2531.9
17709	13.099	2.	5.e-002	8.4818
17710	13.376	2.	0.	2459.5
17711	13.283	1.9091	0.	2483.9
17712	13.283	2.	5.e-002	8.4434
17713	13.56	2.	0.	2411.7
17714	13.468	1.9091	0.	2436.
17715	13.468	2.	5.e-002	8.4054
17716	13.745	2.	0.	2364.1
17717	13.653	1.9091	0.	2388.3
17718	13.653	2.	5.e-002	8.3677
17719	13.93	2.	0.	2316.7
17720	13.838	1.9091	0.	2340.7
17721	13.838	2.	5.e-002	8.3303
17722	14.115	2.	0.	2269.4
17723	14.022	1.9091	0.	2293.4
17724	14.022	2.	5.e-002	8.2934
17725	14.3	2.	0.	2222.4
17726	14.207	1.9091	0.	2246.2
17727	14.207	2.	5.e-002	8.2569
17728	14.484	2.	0.	2175.5
17729	14.392	1.9091	0.	2199.2
17730	14.392	2.	5.e-002	8.2208
17731	14.669	2.	0.	2128.8
17732	14.577	1.9091	0.	2152.4
17733	14.577	2.	5.e-002	8.1849
17734	14.854	2.	0.	2082.3
17735	14.761	1.9091	0.	2105.8
17736	14.761	2.	5.e-002	8.1492
17737	15.039	2.	0.	2036.
17738	14.946	1.9091	0.	2059.4
17739	14.946	2.	5.e-002	8.1139
17740	15.223	2.	0.	1989.9
17741	15.131	1.9091	0.	2013.2
17742	15.131	2.	5.e-002	8.0791
17743	15.408	2.	0.	1943.9
17744	15.316	1.9091	0.	1967.1
17745	15.316	2.	5.e-002	8.0445
17746	15.593	2.	0.	1898.2
17747	15.501	1.9091	0.	1921.3
17748	15.501	2.	5.e-002	8.0102
17749	15.778	2.	0.	1852.7
17750	15.685	1.9091	0.	1875.7
17751	15.685	2.	5.e-002	7.9761
17752	15.963	2.	0.	1807.4
17753	15.87	1.9091	0.	1830.3
17754	15.87	2.	5.e-002	7.9424
17755	16.147	2.	0.	1762.3
17756	16.055	1.9091	0.	1785.
17757	16.055	2.	5.e-002	7.909
17758	16.332	2.	0.	1717.4
17759	16.24	1.9091	0.	1740.
17760	16.24	2.	5.e-002	7.8759
17761	16.517	2.	0.	1672.7
17762	16.424	1.9091	0.	1695.2
17763	16.424	2.	5.e-002	7.8431
17764	16.702	2.	0.	1628.3
17765	16.609	1.9091	0.	1650.7
17766	16.609	2.	5.e-002	7.8107
17767	16.886	2.	0.	1584.
17768	16.794	1.9091	0.	1606.3
17769	16.794	2.	5.e-002	7.7787
17770	17.071	2.	0.	1540.
17771	16.979	1.9091	0.	1562.2
17772	16.979	2.	5.e-002	7.7471
17773	17.256	2.	0.	1496.2
17774	17.164	1.9091	0.	1518.2
17775	17.164	2.	5.e-002	7.7158
17776	17.441	2.	0.	1452.7
17777	17.348	1.9091	0.	1474.5
17778	17.348	2.	5.e-002	7.6849
17779	17.625	2.	0.	1409.3
17780	17.533	1.9091	0.	1431.1
17781	17.533	2.	5.e-002	7.6544
17782	17.81	2.	0.	1366.3
17783	17.718	1.9091	0.	1387.8
17784	17.718	2.	5.e-002	7.6245
17785	17.995	2.	0.	1323.4
17786	17.903	1.9091	0.	1344.9
17787	17.903	2.	5.e-002	7.5952
17788	18.18	2.	0.	1280.8
17789	18.087	1.9091	0.	1302.1
17790	18.087	2.	5.e-002	7.5662
17791	18.365	2.	0.	1238.4
17792	18.272	1.9091	0.	1259.6
17793	18.272	2.	5.e-002	7.5379
17794	18.549	2.	0.	1196.3
17795	18.457	1.9091	0.	1217.3
17796	18.457	2.	5.e-002	7.5102
17797	18.734	2.	0.	1154.5
17798	18.642	1.9091	0.	1175.3
17799	18.642	2.	5.e-002	7.4833
17800	18.919	2.	0.	1112.9
17801	18.826	1.9091	0.	1133.6
17802	18.826	2.	5.e-002	7.4571
17803	19.104	2.	0.	1071.6
17804	19.011	1.9091	0.	1092.1
17805	19.011	2.	5.e-002	7.4317
17806	19.288	2.	0.	1030.6
17807	19.196	1.9091	0.	1050.9
17808	19.196	2.	5.e-002	7.4071
17809	19.473	2.	0.	989.82
17810	19.381	1.9091	0.	1009.9
17811	19.381	2.	5.e-002	7.3836
17812	19.658	2.	0.	949.37
17813	19.566	1.9091	0.	969.28
17814	19.566	2.	5.e-002	7.3611
17815	19.843	2.	0.	909.22
17816	19.75	1.9091	0.	928.92
17817	19.75	2.	5.e-002	7.3399
17818	20.027	2.	0.	869.38
17819	19.935	1.9091	0.	888.86
17820	19.935	2.	5.e-002	7.3199
17821	20.212	2.	0.	829.87
17822	20.12	1.9091	0.	849.11
17823	20.12	2.	5.e-002	7.3014
17824	20.397	2.	0.	790.69
17825	20.305	1.9091	0.	809.69
17826	20.305	2.	5.e-002	7.2844
17827	20.582	2.	0.	751.86
17828	20.489	1.9091	0.	770.6
17829	20.489	2.	5.e-002	7.2694
17830	20.767	2.	0.	713.4
17831	20.674	1.9091	0.	731.87
17832	20.674	2.	5.e-002	7.2563
17833	20.951	2.	0.	675.33
17834	20.859	1.9091	0.	693.5
17835	20.859	2.	5.e-002	7.2455
17836	21.136	2.	0.	637.67
17837	21.044	1.9091	0.	655.53
17838	21.044	2.	5.e-002	7.2372
17839	21.321	2.	0.	600.44
17840	21.228	1.9091	0.	617.96
17841	21.228	2.	5.e-002	7.2318
17842	21.506	2.	0.	563.68
17843	21.413	1.9091	0.	580.84
17844	21.413	2.	5.e-002	7.2296
17845	21.69	2.	0.	527.42
17846	21.598	1.9091	0.	544.19
17847	21.598	2.	5.e-002	7.2312
17848	21.875	2.	0.	491.71
17849	21.783	1.9091	0.	508.07
17850	21.783	2.	5.e-002	7.237
17851	22.06	2.	0.	456.61
17852	21.968	1.9091	0.	472.51
17853	21.968	2.	5.e-002	7.2477
17854	22.245	2.	0.	422.2
17855	22.152	1.9091	0.	437.6
17856	22.152	2.	5.e-002	7.2639
17857	22.429	2.	0.	388.56
17858	22.337	1.9091	0.	403.41
17859	22.337	2.	5.e-002	7.2865
17860	22.614	2.	0.	355.84
17861	22.522	1.9091	0.	370.06
17862	22.522	2.	5.e-002	7.3163
17863	22.799	2.	0.	324.19
17864	22.707	1.9091	0.	337.69
17865	22.707	2.	5.e-002	7.3543
17866	22.984	2.	0.	293.86
17867	22.891	1.9091	0.	306.52
17868	22.891	2.	5.e-002	7.4015
17869	23.169	2.	0.	265.18
17870	23.076	1.9091	0.	276.82
17871	23.076	2.	5.e-002	7.4586
17872	23.353	2.	0.	238.65
17873	23.261	1.9091	0.	249.
17874	23.261	2.	5.e-002	7.5265
17875	23.538	2.	0.	214.95
17876	23.446	1.9091	0.	223.64
17877	23.446	2.	5.e-002	7.6051
17878	23.723	2.	0.	195.07
17879	23.63	1.9091	0.	201.6
17880	23.63	2.	5.e-002	7.6968
17881	23.815	1.9091	0.	184.04
17882	23.815	2.	5.e-002	7.8479
17883	23.908	2.	0.	180.74
17884	2.8438	1.8182	0.	10933
17885	2.7514	1.7273	0.	11181
17886	2.7514	1.8182	5.e-002	950.62
17887	2.6591	1.8182	0.	11124
17888	3.0286	1.8182	0.	8436.7
17889	2.9362	1.7273	0.	8496.5
17890	2.9362	1.8182	5.e-002	321.79
17891	3.2134	1.8182	0.	7270.
17892	3.121	1.7273	0.	7261.9
17893	3.121	1.8182	5.e-002	148.85
17894	3.3981	1.8182	0.	6589.1
17895	3.3057	1.7273	0.	6564.7
17896	3.3057	1.8182	5.e-002	107.86
17897	3.5829	1.8182	0.	6134.8
17898	3.4905	1.7273	0.	6104.9
17899	3.4905	1.8182	5.e-002	84.111
17900	3.7677	1.8182	0.	5812.9
17901	3.6753	1.7273	0.	5788.2
17902	3.6753	1.8182	5.e-002	67.433
17903	3.9524	1.8182	0.	5572.6
17904	3.8601	1.7273	0.	5556.6
17905	3.8601	1.8182	5.e-002	55.446
17906	4.1372	1.8182	0.	5385.4
17907	4.0448	1.7273	0.	5379.
17908	4.0448	1.8182	5.e-002	46.326
17909	4.322	1.8182	0.	5234.1
17910	4.2296	1.7273	0.	5236.6
17911	4.2296	1.8182	5.e-002	39.189
17912	4.5068	1.8182	0.	5107.9
17913	4.4144	1.7273	0.	5118.
17914	4.4144	1.8182	5.e-002	33.491
17915	4.6915	1.8182	0.	4999.9
17916	4.5991	1.7273	0.	5016.
17917	4.5991	1.8182	5.e-002	28.895
17918	4.8763	1.8182	0.	4905.2
17919	4.7839	1.7273	0.	4926.
17920	4.7839	1.8182	5.e-002	25.173
17921	5.0611	1.8182	0.	4820.7
17922	4.9687	1.7273	0.	4845.
17923	4.9687	1.8182	5.e-002	22.157
17924	5.2458	1.8182	0.	4744.
17925	5.1534	1.7273	0.	4770.7
17926	5.1534	1.8182	5.e-002	19.72
17927	5.4306	1.8182	0.	4673.2
17928	5.3382	1.7273	0.	4701.6
17929	5.3382	1.8182	5.e-002	17.758
17930	5.6154	1.8182	0.	4607.1
17931	5.523	1.7273	0.	4636.6
17932	5.523	1.8182	5.e-002	16.185
17933	5.8001	1.8182	0.	4544.6
17934	5.7078	1.7273	0.	4574.7
17935	5.7078	1.8182	5.e-002	14.928
17936	5.9849	1.8182	0.	4484.9
17937	5.8925	1.7273	0.	4515.3
17938	5.8925	1.8182	5.e-002	13.926
17939	6.1697	1.8182	0.	4427.4
17940	6.0773	1.7273	0.	4457.9
17941	6.0773	1.8182	5.e-002	13.128
17942	6.3545	1.8182	0.	4371.6
17943	6.2621	1.7273	0.	4402.1
17944	6.2621	1.8182	5.e-002	12.491
17945	6.5392	1.8182	0.	4317.1
17946	6.4468	1.7273	0.	4347.4
17947	6.4468	1.8182	5.e-002	11.98
17948	6.724	1.8182	0.	4263.5
17949	6.6316	1.7273	0.	4293.7
17950	6.6316	1.8182	5.e-002	11.568
17951	6.9088	1.8182	0.	4210.8
17952	6.8164	1.7273	0.	4240.7
17953	6.8164	1.8182	5.e-002	11.233
17954	7.0935	1.8182	0.	4158.6
17955	7.0011	1.7273	0.	4188.2
17956	7.0011	1.8182	5.e-002	10.958
17957	7.2783	1.8182	0.	4106.9
17958	7.1859	1.7273	0.	4136.2
17959	7.1859	1.8182	5.e-002	10.728
17960	7.4631	1.8182	0.	4055.4
17961	7.3707	1.7273	0.	4084.5
17962	7.3707	1.8182	5.e-002	10.535
17963	7.6478	1.8182	0.	4004.2
17964	7.5555	1.7273	0.	4033.
17965	7.5555	1.8182	5.e-002	10.369
17966	7.8326	1.8182	0.	3953.2
17967	7.7402	1.7273	0.	3981.7
17968	7.7402	1.8182	5.e-002	10.226
17969	8.0174	1.8182	0.	3902.3
17970	7.925	1.7273	0.	3930.6
17971	7.925	1.8182	5.e-002	10.1
17972	8.2022	1.8182	0.	3851.5
17973	8.1098	1.7273	0.	3879.6
17974	8.1098	1.8182	5.e-002	9.9876
17975	8.3869	1.8182	0.	3800.8
17976	8.2945	1.7273	0.	3828.6
17977	8.2945	1.8182	5.e-002	9.8866
17978	8.5717	1.8182	0.	3750.1
17979	8.4793	1.7273	0.	3777.7
17980	8.4793	1.8182	5.e-002	9.7946
17981	8.7565	1.8182	0.	3699.4
17982	8.6641	1.7273	0.	3726.9
17983	8.6641	1.8182	5.e-002	9.7101
17984	8.9412	1.8182	0.	3648.8
17985	8.8489	1.7273	0.	3676.1
17986	8.8489	1.8182	5.e-002	9.6318
17987	9.126	1.8182	0.	3598.3
17988	9.0336	1.7273	0.	3625.4
17989	9.0336	1.8182	5.e-002	9.5586
17990	9.3108	1.8182	0.	3547.8
17991	9.2184	1.7273	0.	3574.8
17992	9.2184	1.8182	5.e-002	9.4897
17993	9.4955	1.8182	0.	3497.3
17994	9.4032	1.7273	0.	3524.1
17995	9.4032	1.8182	5.e-002	9.4245
17996	9.6803	1.8182	0.	3446.9
17997	9.5879	1.7273	0.	3473.6
17998	9.5879	1.8182	5.e-002	9.3626
17999	9.8651	1.8182	0.	3396.6
18000	9.7727	1.7273	0.	3423.1
18001	9.7727	1.8182	5.e-002	9.3033
18002	10.05	1.8182	0.	3346.3
18003	9.9575	1.7273	0.	3372.7
18004	9.9575	1.8182	5.e-002	9.2466
18005	10.235	1.8182	0.	3296.1
18006	10.142	1.7273	0.	3322.4
18007	10.142	1.8182	5.e-002	9.1919
18008	10.419	1.8182	0.	3245.9
18009	10.327	1.7273	0.	3272.1
18010	10.327	1.8182	5.e-002	9.1389
18011	10.604	1.8182	0.	3195.9
18012	10.512	1.7273	0.	3222.
18013	10.512	1.8182	5.e-002	9.0879
18014	10.789	1.8182	0.	3146.
18015	10.697	1.7273	0.	3171.9
18016	10.697	1.8182	5.e-002	9.0383
18017	10.974	1.8182	0.	3096.1
18018	10.881	1.7273	0.	3121.9
18019	10.881	1.8182	5.e-002	8.99
18020	11.158	1.8182	0.	3046.4
18021	11.066	1.7273	0.	3072.1
18022	11.066	1.8182	5.e-002	8.9428
18023	11.343	1.8182	0.	2996.8
18024	11.251	1.7273	0.	3022.4
18025	11.251	1.8182	5.e-002	8.8967
18026	11.528	1.8182	0.	2947.3
18027	11.436	1.7273	0.	2972.8
18028	11.436	1.8182	5.e-002	8.8519
18029	11.713	1.8182	0.	2897.9
18030	11.62	1.7273	0.	2923.3
18031	11.62	1.8182	5.e-002	8.8079
18032	11.898	1.8182	0.	2848.7
18033	11.805	1.7273	0.	2874.
18034	11.805	1.8182	5.e-002	8.7646
18035	12.082	1.8182	0.	2799.6
18036	11.99	1.7273	0.	2824.8
18037	11.99	1.8182	5.e-002	8.7221
18038	12.267	1.8182	0.	2750.7
18039	12.175	1.7273	0.	2775.8
18040	12.175	1.8182	5.e-002	8.6803
18041	12.452	1.8182	0.	2701.9
18042	12.359	1.7273	0.	2726.9
18043	12.359	1.8182	5.e-002	8.6393
18044	12.637	1.8182	0.	2653.3
18045	12.544	1.7273	0.	2678.1
18046	12.544	1.8182	5.e-002	8.5989
18047	12.821	1.8182	0.	2604.8
18048	12.729	1.7273	0.	2629.5
18049	12.729	1.8182	5.e-002	8.559
18050	13.006	1.8182	0.	2556.5
18051	12.914	1.7273	0.	2581.1
18052	12.914	1.8182	5.e-002	8.5195
18053	13.191	1.8182	0.	2508.3
18054	13.099	1.7273	0.	2532.9
18055	13.099	1.8182	5.e-002	8.4805
18056	13.376	1.8182	0.	2460.4
18057	13.283	1.7273	0.	2484.8
18058	13.283	1.8182	5.e-002	8.4422
18059	13.56	1.8182	0.	2412.5
18060	13.468	1.7273	0.	2436.9
18061	13.468	1.8182	5.e-002	8.4043
18062	13.745	1.8182	0.	2364.9
18063	13.653	1.7273	0.	2389.1
18064	13.653	1.8182	5.e-002	8.3666
18065	13.93	1.8182	0.	2317.4
18066	13.838	1.7273	0.	2341.6
18067	13.838	1.8182	5.e-002	8.3293
18068	14.115	1.8182	0.	2270.2
18069	14.022	1.7273	0.	2294.2
18070	14.022	1.8182	5.e-002	8.2924
18071	14.3	1.8182	0.	2223.1
18072	14.207	1.7273	0.	2247.
18073	14.207	1.8182	5.e-002	8.256
18074	14.484	1.8182	0.	2176.2
18075	14.392	1.7273	0.	2200.
18076	14.392	1.8182	5.e-002	8.2199
18077	14.669	1.8182	0.	2129.5
18078	14.577	1.7273	0.	2153.1
18079	14.577	1.8182	5.e-002	8.1841
18080	14.854	1.8182	0.	2082.9
18081	14.761	1.7273	0.	2106.5
18082	14.761	1.8182	5.e-002	8.1485
18083	15.039	1.8182	0.	2036.6
18084	14.946	1.7273	0.	2060.1
18085	14.946	1.8182	5.e-002	8.1132
18086	15.223	1.8182	0.	1990.5
18087	15.131	1.7273	0.	2013.8
18088	15.131	1.8182	5.e-002	8.0784
18089	15.408	1.8182	0.	1944.5
18090	15.316	1.7273	0.	1967.8
18091	15.316	1.8182	5.e-002	8.0438
18092	15.593	1.8182	0.	1898.8
18093	15.501	1.7273	0.	1921.9
18094	15.501	1.8182	5.e-002	8.0095
18095	15.778	1.8182	0.	1853.3
18096	15.685	1.7273	0.	1876.3
18097	15.685	1.8182	5.e-002	7.9754
18098	15.963	1.8182	0.	1807.9
18099	15.87	1.7273	0.	1830.8
18100	15.87	1.8182	5.e-002	7.9417
18101	16.147	1.8182	0.	1762.8
18102	16.055	1.7273	0.	1785.6
18103	16.055	1.8182	5.e-002	7.9084
18104	16.332	1.8182	0.	1717.9
18105	16.24	1.7273	0.	1740.6
18106	16.24	1.8182	5.e-002	7.8753
18107	16.517	1.8182	0.	1673.2
18108	16.424	1.7273	0.	1695.8
18109	16.424	1.8182	5.e-002	7.8424
18110	16.702	1.8182	0.	1628.7
18111	16.609	1.7273	0.	1651.1
18112	16.609	1.8182	5.e-002	7.81
18113	16.886	1.8182	0.	1584.5
18114	16.794	1.7273	0.	1606.8
18115	16.794	1.8182	5.e-002	7.778
18116	17.071	1.8182	0.	1540.4
18117	16.979	1.7273	0.	1562.6
18118	16.979	1.8182	5.e-002	7.7464
18119	17.256	1.8182	0.	1496.6
18120	17.164	1.7273	0.	1518.6
18121	17.164	1.8182	5.e-002	7.715
18122	17.441	1.8182	0.	1453.
18123	17.348	1.7273	0.	1474.9
18124	17.348	1.8182	5.e-002	7.6841
18125	17.625	1.8182	0.	1409.6
18126	17.533	1.7273	0.	1431.4
18127	17.533	1.8182	5.e-002	7.6536
18128	17.81	1.8182	0.	1366.5
18129	17.718	1.7273	0.	1388.1
18130	17.718	1.8182	5.e-002	7.6237
18131	17.995	1.8182	0.	1323.6
18132	17.903	1.7273	0.	1345.1
18133	17.903	1.8182	5.e-002	7.5942
18134	18.18	1.8182	0.	1280.9
18135	18.087	1.7273	0.	1302.3
18136	18.087	1.8182	5.e-002	7.5653
18137	18.365	1.8182	0.	1238.5
18138	18.272	1.7273	0.	1259.7
18139	18.272	1.8182	5.e-002	7.5368
18140	18.549	1.8182	0.	1196.4
18141	18.457	1.7273	0.	1217.4
18142	18.457	1.8182	5.e-002	7.5091
18143	18.734	1.8182	0.	1154.5
18144	18.642	1.7273	0.	1175.3
18145	18.642	1.8182	5.e-002	7.482
18146	18.919	1.8182	0.	1112.8
18147	18.826	1.7273	0.	1133.5
18148	18.826	1.8182	5.e-002	7.4558
18149	19.104	1.8182	0.	1071.4
18150	19.011	1.7273	0.	1091.9
18151	19.011	1.8182	5.e-002	7.4302
18152	19.288	1.8182	0.	1030.3
18153	19.196	1.7273	0.	1050.6
18154	19.196	1.8182	5.e-002	7.4055
18155	19.473	1.8182	0.	989.44
18156	19.381	1.7273	0.	1009.6
18157	19.381	1.8182	5.e-002	7.3818
18158	19.658	1.8182	0.	948.88
18159	19.566	1.7273	0.	968.85
18160	19.566	1.8182	5.e-002	7.3591
18161	19.843	1.8182	0.	908.62
18162	19.75	1.7273	0.	928.37
18163	19.75	1.8182	5.e-002	7.3376
18164	20.027	1.8182	0.	868.65
18165	19.935	1.7273	0.	888.18
18166	19.935	1.8182	5.e-002	7.3174
18167	20.212	1.8182	0.	828.99
18168	20.12	1.7273	0.	848.29
18169	20.12	1.8182	5.e-002	7.2985
18170	20.397	1.8182	0.	789.66
18171	20.305	1.7273	0.	808.7
18172	20.305	1.8182	5.e-002	7.2812
18173	20.582	1.8182	0.	750.66
18174	20.489	1.7273	0.	769.45
18175	20.489	1.8182	5.e-002	7.2656
18176	20.767	1.8182	0.	712.02
18177	20.674	1.7273	0.	730.52
18178	20.674	1.8182	5.e-002	7.252
18179	20.951	1.8182	0.	673.75
18180	20.859	1.7273	0.	691.95
18181	20.859	1.8182	5.e-002	7.2405
18182	21.136	1.8182	0.	635.87
18183	21.044	1.7273	0.	653.75
18184	21.044	1.8182	5.e-002	7.2314
18185	21.321	1.8182	0.	598.4
18186	21.228	1.7273	0.	615.94
18187	21.228	1.8182	5.e-002	7.225
18188	21.506	1.8182	0.	561.39
18189	21.413	1.7273	0.	578.56
18190	21.413	1.8182	5.e-002	7.2218
18191	21.69	1.8182	0.	524.87
18192	21.598	1.7273	0.	541.64
18193	21.598	1.8182	5.e-002	7.2222
18194	21.875	1.8182	0.	488.88
18195	21.783	1.7273	0.	505.21
18196	21.783	1.8182	5.e-002	7.2265
18197	22.06	1.8182	0.	453.5
18198	21.968	1.7273	0.	469.34
18199	21.968	1.8182	5.e-002	7.2356
18200	22.245	1.8182	0.	418.78
18201	22.152	1.7273	0.	434.1
18202	22.152	1.8182	5.e-002	7.2502
18203	22.429	1.8182	0.	384.84
18204	22.337	1.7273	0.	399.57
18205	22.337	1.8182	5.e-002	7.271
18206	22.614	1.8182	0.	351.81
18207	22.522	1.7273	0.	365.87
18208	22.522	1.8182	5.e-002	7.2992
18209	22.799	1.8182	0.	319.85
18210	22.707	1.7273	0.	333.16
18211	22.707	1.8182	5.e-002	7.3358
18212	22.984	1.8182	0.	289.21
18213	22.891	1.7273	0.	301.63
18214	22.891	1.8182	5.e-002	7.3822
18215	23.169	1.8182	0.	260.24
18216	23.076	1.7273	0.	271.59
18217	23.076	1.8182	5.e-002	7.4395
18218	23.353	1.8182	0.	233.42
18219	23.261	1.7273	0.	243.44
18220	23.261	1.8182	5.e-002	7.5089
18221	23.538	1.8182	0.	209.46
18222	23.446	1.7273	0.	217.77
18223	23.446	1.8182	5.e-002	7.5907
18224	23.723	1.8182	0.	189.38
18225	23.63	1.7273	0.	195.46
18226	23.63	1.8182	5.e-002	7.6885
18227	23.815	1.7273	0.	177.73
18228	23.815	1.8182	5.e-002	7.8639
18229	23.908	1.8182	0.	174.84
18230	2.8438	1.6364	0.	8529.2
18231	2.7514	1.5455	0.	8476.8
18232	2.7514	1.6364	5.e-002	519.76
18233	2.6591	1.6364	0.	7683.3
18234	3.0286	1.6364	0.	7267.1
18235	2.9362	1.5455	0.	7089.6
18236	2.9362	1.6364	5.e-002	206.34
18237	3.2134	1.6364	0.	6532.7
18238	3.121	1.5455	0.	6391.
18239	3.121	1.6364	5.e-002	129.2
18240	3.3981	1.6364	0.	6065.8
18241	3.3057	1.5455	0.	5947.6
18242	3.3057	1.6364	5.e-002	92.349
18243	3.5829	1.6364	0.	5749.4
18244	3.4905	1.5455	0.	5653.8
18245	3.4905	1.6364	5.e-002	71.421
18246	3.7677	1.6364	0.	5526.6
18247	3.6753	1.5455	0.	5453.4
18248	3.6753	1.6364	5.e-002	58.252
18249	3.9524	1.6364	0.	5360.
18250	3.8601	1.5455	0.	5307.6
18251	3.8601	1.6364	5.e-002	48.332
18252	4.1372	1.6364	0.	5228.6
18253	4.0448	1.5455	0.	5194.5
18254	4.0448	1.6364	5.e-002	40.647
18255	4.322	1.6364	0.	5119.6
18256	4.2296	1.5455	0.	5101.
18257	4.2296	1.6364	5.e-002	34.543
18258	4.5068	1.6364	0.	5025.7
18259	4.4144	1.5455	0.	5019.6
18260	4.4144	1.6364	5.e-002	29.634
18261	4.6915	1.6364	0.	4942.1
18262	4.5991	1.5455	0.	4945.8
18263	4.5991	1.6364	5.e-002	25.666
18264	4.8763	1.6364	0.	4865.8
18265	4.7839	1.5455	0.	4877.2
18266	4.7839	1.6364	5.e-002	22.459
18267	5.0611	1.6364	0.	4795.
18268	4.9687	1.5455	0.	4812.2
18269	4.9687	1.6364	5.e-002	19.876
18270	5.2458	1.6364	0.	4728.4
18271	5.1534	1.5455	0.	4749.9
18272	5.1534	1.6364	5.e-002	17.807
18273	5.4306	1.6364	0.	4665.
18274	5.3382	1.5455	0.	4689.6
18275	5.3382	1.6364	5.e-002	16.161
18276	5.6154	1.6364	0.	4604.3
18277	5.523	1.5455	0.	4631.
18278	5.523	1.6364	5.e-002	14.86
18279	5.8001	1.6364	0.	4545.5
18280	5.7078	1.5455	0.	4573.7
18281	5.7078	1.6364	5.e-002	13.836
18282	5.9849	1.6364	0.	4488.4
18283	5.8925	1.5455	0.	4517.6
18284	5.8925	1.6364	5.e-002	13.032
18285	6.1697	1.6364	0.	4432.6
18286	6.0773	1.5455	0.	4462.4
18287	6.0773	1.6364	5.e-002	12.401
18288	6.3545	1.6364	0.	4377.9
18289	6.2621	1.5455	0.	4407.9
18290	6.2621	1.6364	5.e-002	11.903
18291	6.5392	1.6364	0.	4324.
18292	6.4468	1.5455	0.	4354.2
18293	6.4468	1.6364	5.e-002	11.508
18294	6.724	1.6364	0.	4270.8
18295	6.6316	1.5455	0.	4300.9
18296	6.6316	1.6364	5.e-002	11.19
18297	6.9088	1.6364	0.	4218.1
18298	6.8164	1.5455	0.	4248.1
18299	6.8164	1.6364	5.e-002	10.931
18300	7.0935	1.6364	0.	4165.8
18301	7.0011	1.5455	0.	4195.6
18302	7.0011	1.6364	5.e-002	10.717
18303	7.2783	1.6364	0.	4113.8
18304	7.1859	1.5455	0.	4143.4
18305	7.1859	1.6364	5.e-002	10.536
18306	7.4631	1.6364	0.	4062.1
18307	7.3707	1.5455	0.	4091.5
18308	7.3707	1.6364	5.e-002	10.382
18309	7.6478	1.6364	0.	4010.5
18310	7.5555	1.5455	0.	4039.7
18311	7.5555	1.6364	5.e-002	10.248
18312	7.8326	1.6364	0.	3959.1
18313	7.7402	1.5455	0.	3988.1
18314	7.7402	1.6364	5.e-002	10.129
18315	8.0174	1.6364	0.	3907.9
18316	7.925	1.5455	0.	3936.6
18317	7.925	1.6364	5.e-002	10.022
18318	8.2022	1.6364	0.	3856.7
18319	8.1098	1.5455	0.	3885.2
18320	8.1098	1.6364	5.e-002	9.9257
18321	8.3869	1.6364	0.	3805.6
18322	8.2945	1.5455	0.	3833.8
18323	8.2945	1.6364	5.e-002	9.837
18324	8.5717	1.6364	0.	3754.6
18325	8.4793	1.5455	0.	3782.6
18326	8.4793	1.6364	5.e-002	9.7547
18327	8.7565	1.6364	0.	3703.6
18328	8.6641	1.5455	0.	3731.5
18329	8.6641	1.6364	5.e-002	9.6778
18330	8.9412	1.6364	0.	3652.7
18331	8.8489	1.5455	0.	3680.4
18332	8.8489	1.6364	5.e-002	9.6055
18333	9.126	1.6364	0.	3601.9
18334	9.0336	1.5455	0.	3629.4
18335	9.0336	1.6364	5.e-002	9.5371
18336	9.3108	1.6364	0.	3551.1
18337	9.2184	1.5455	0.	3578.4
18338	9.2184	1.6364	5.e-002	9.4721
18339	9.4955	1.6364	0.	3500.4
18340	9.4032	1.5455	0.	3527.6
18341	9.4032	1.6364	5.e-002	9.4099
18342	9.6803	1.6364	0.	3449.8
18343	9.5879	1.5455	0.	3476.8
18344	9.5879	1.6364	5.e-002	9.3503
18345	9.8651	1.6364	0.	3399.3
18346	9.7727	1.5455	0.	3426.1
18347	9.7727	1.6364	5.e-002	9.293
18348	10.05	1.6364	0.	3348.8
18349	9.9575	1.5455	0.	3375.5
18350	9.9575	1.6364	5.e-002	9.2378
18351	10.235	1.6364	0.	3298.4
18352	10.142	1.5455	0.	3324.9
18353	10.142	1.6364	5.e-002	9.1844
18354	10.419	1.6364	0.	3248.2
18355	10.327	1.5455	0.	3274.5
18356	10.327	1.6364	5.e-002	9.1324
18357	10.604	1.6364	0.	3198.
18358	10.512	1.5455	0.	3224.2
18359	10.512	1.6364	5.e-002	9.0822
18360	10.789	1.6364	0.	3147.9
18361	10.697	1.5455	0.	3174.
18362	10.697	1.6364	5.e-002	9.0334
18363	10.974	1.6364	0.	3098.
18364	10.881	1.5455	0.	3123.9
18365	10.881	1.6364	5.e-002	8.9856
18366	11.158	1.6364	0.	3048.1
18367	11.066	1.5455	0.	3074.
18368	11.066	1.6364	5.e-002	8.9388
18369	11.343	1.6364	0.	2998.4
18370	11.251	1.5455	0.	3024.2
18371	11.251	1.6364	5.e-002	8.8932
18372	11.528	1.6364	0.	2948.8
18373	11.436	1.5455	0.	2974.5
18374	11.436	1.6364	5.e-002	8.8487
18375	11.713	1.6364	0.	2899.4
18376	11.62	1.5455	0.	2924.9
18377	11.62	1.6364	5.e-002	8.805
18378	11.898	1.6364	0.	2850.1
18379	11.805	1.5455	0.	2875.5
18380	11.805	1.6364	5.e-002	8.762
18381	12.082	1.6364	0.	2801.
18382	11.99	1.5455	0.	2826.2
18383	11.99	1.6364	5.e-002	8.7197
18384	12.267	1.6364	0.	2752.
18385	12.175	1.5455	0.	2777.1
18386	12.175	1.6364	5.e-002	8.6781
18387	12.452	1.6364	0.	2703.1
18388	12.359	1.5455	0.	2728.2
18389	12.359	1.6364	5.e-002	8.6373
18390	12.637	1.6364	0.	2654.4
18391	12.544	1.5455	0.	2679.4
18392	12.544	1.6364	5.e-002	8.5971
18393	12.821	1.6364	0.	2605.9
18394	12.729	1.5455	0.	2630.7
18395	12.729	1.6364	5.e-002	8.5572
18396	13.006	1.6364	0.	2557.5
18397	12.914	1.5455	0.	2582.3
18398	12.914	1.6364	5.e-002	8.5179
18399	13.191	1.6364	0.	2509.3
18400	13.099	1.5455	0.	2534.
18401	13.099	1.6364	5.e-002	8.479
18402	13.376	1.6364	0.	2461.3
18403	13.283	1.5455	0.	2485.8
18404	13.283	1.6364	5.e-002	8.4408
18405	13.56	1.6364	0.	2413.5
18406	13.468	1.5455	0.	2437.9
18407	13.468	1.6364	5.e-002	8.403
18408	13.745	1.6364	0.	2365.8
18409	13.653	1.5455	0.	2390.1
18410	13.653	1.6364	5.e-002	8.3654
18411	13.93	1.6364	0.	2318.3
18412	13.838	1.5455	0.	2342.5
18413	13.838	1.6364	5.e-002	8.3282
18414	14.115	1.6364	0.	2271.
18415	14.022	1.5455	0.	2295.1
18416	14.022	1.6364	5.e-002	8.2913
18417	14.3	1.6364	0.	2223.9
18418	14.207	1.5455	0.	2247.9
18419	14.207	1.6364	5.e-002	8.255
18420	14.484	1.6364	0.	2177.
18421	14.392	1.5455	0.	2200.8
18422	14.392	1.6364	5.e-002	8.219
18423	14.669	1.6364	0.	2130.2
18424	14.577	1.5455	0.	2154.
18425	14.577	1.6364	5.e-002	8.1831
18426	14.854	1.6364	0.	2083.7
18427	14.761	1.5455	0.	2107.3
18428	14.761	1.6364	5.e-002	8.1475
18429	15.039	1.6364	0.	2037.3
18430	14.946	1.5455	0.	2060.9
18431	14.946	1.6364	5.e-002	8.1123
18432	15.223	1.6364	0.	1991.2
18433	15.131	1.5455	0.	2014.6
18434	15.131	1.6364	5.e-002	8.0775
18435	15.408	1.6364	0.	1945.2
18436	15.316	1.5455	0.	1968.5
18437	15.316	1.6364	5.e-002	8.043
18438	15.593	1.6364	0.	1899.5
18439	15.501	1.5455	0.	1922.7
18440	15.501	1.6364	5.e-002	8.0087
18441	15.778	1.6364	0.	1853.9
18442	15.685	1.5455	0.	1877.
18443	15.685	1.6364	5.e-002	7.9746
18444	15.963	1.6364	0.	1808.6
18445	15.87	1.5455	0.	1831.5
18446	15.87	1.6364	5.e-002	7.9409
18447	16.147	1.6364	0.	1763.4
18448	16.055	1.5455	0.	1786.3
18449	16.055	1.6364	5.e-002	7.9076
18450	16.332	1.6364	0.	1718.5
18451	16.24	1.5455	0.	1741.2
18452	16.24	1.6364	5.e-002	7.8745
18453	16.517	1.6364	0.	1673.8
18454	16.424	1.5455	0.	1696.4
18455	16.424	1.6364	5.e-002	7.8416
18456	16.702	1.6364	0.	1629.2
18457	16.609	1.5455	0.	1651.7
18458	16.609	1.6364	5.e-002	7.8092
18459	16.886	1.6364	0.	1584.9
18460	16.794	1.5455	0.	1607.3
18461	16.794	1.6364	5.e-002	7.7772
18462	17.071	1.6364	0.	1540.9
18463	16.979	1.5455	0.	1563.1
18464	16.979	1.6364	5.e-002	7.7455
18465	17.256	1.6364	0.	1497.
18466	17.164	1.5455	0.	1519.1
18467	17.164	1.6364	5.e-002	7.7141
18468	17.441	1.6364	0.	1453.4
18469	17.348	1.5455	0.	1475.4
18470	17.348	1.6364	5.e-002	7.6831
18471	17.625	1.6364	0.	1410.
18472	17.533	1.5455	0.	1431.8
18473	17.533	1.6364	5.e-002	7.6526
18474	17.81	1.6364	0.	1366.8
18475	17.718	1.5455	0.	1388.5
18476	17.718	1.6364	5.e-002	7.6226
18477	17.995	1.6364	0.	1323.9
18478	17.903	1.5455	0.	1345.4
18479	17.903	1.6364	5.e-002	7.5931
18480	18.18	1.6364	0.	1281.1
18481	18.087	1.5455	0.	1302.6
18482	18.087	1.6364	5.e-002	7.5641
18483	18.365	1.6364	0.	1238.7
18484	18.272	1.5455	0.	1259.9
18485	18.272	1.6364	5.e-002	7.5356
18486	18.549	1.6364	0.	1196.4
18487	18.457	1.5455	0.	1217.6
18488	18.457	1.6364	5.e-002	7.5077
18489	18.734	1.6364	0.	1154.5
18490	18.642	1.5455	0.	1175.4
18491	18.642	1.6364	5.e-002	7.4806
18492	18.919	1.6364	0.	1112.7
18493	18.826	1.5455	0.	1133.5
18494	18.826	1.6364	5.e-002	7.4542
18495	19.104	1.6364	0.	1071.2
18496	19.011	1.5455	0.	1091.8
18497	19.011	1.6364	5.e-002	7.4285
18498	19.288	1.6364	0.	1030.
18499	19.196	1.5455	0.	1050.4
18500	19.196	1.6364	5.e-002	7.4036
18501	19.473	1.6364	0.	989.07
18502	19.381	1.5455	0.	1009.3
18503	19.381	1.6364	5.e-002	7.3796
18504	19.658	1.6364	0.	948.39
18505	19.566	1.5455	0.	968.42
18506	19.566	1.6364	5.e-002	7.3568
18507	19.843	1.6364	0.	907.99
18508	19.75	1.5455	0.	927.81
18509	19.75	1.6364	5.e-002	7.335
18510	20.027	1.6364	0.	867.87
18511	19.935	1.5455	0.	887.48
18512	19.935	1.6364	5.e-002	7.3144
18513	20.212	1.6364	0.	828.06
18514	20.12	1.5455	0.	847.43
18515	20.12	1.6364	5.e-002	7.2952
18516	20.397	1.6364	0.	788.55
18517	20.305	1.5455	0.	807.67
18518	20.305	1.6364	5.e-002	7.2774
18519	20.582	1.6364	0.	749.36
18520	20.489	1.5455	0.	768.22
18521	20.489	1.6364	5.e-002	7.2613
18522	20.767	1.6364	0.	710.51
18523	20.674	1.5455	0.	729.08
18524	20.674	1.6364	5.e-002	7.2471
18525	20.951	1.6364	0.	672.
18526	20.859	1.5455	0.	690.28
18527	20.859	1.6364	5.e-002	7.2348
18528	21.136	1.6364	0.	633.88
18529	21.044	1.5455	0.	651.83
18530	21.044	1.6364	5.e-002	7.2248
18531	21.321	1.6364	0.	596.14
18532	21.228	1.5455	0.	613.75
18533	21.228	1.6364	5.e-002	7.2174
18534	21.506	1.6364	0.	558.84
18535	21.413	1.5455	0.	576.07
18536	21.413	1.6364	5.e-002	7.213
18537	21.69	1.6364	0.	522.01
18538	21.598	1.5455	0.	538.82
18539	21.598	1.6364	5.e-002	7.2119
18540	21.875	1.6364	0.	485.7
18541	21.783	1.5455	0.	502.05
18542	21.783	1.6364	5.e-002	7.2146
18543	22.06	1.6364	0.	449.96
18544	21.968	1.5455	0.	465.82
18545	21.968	1.6364	5.e-002	7.2219
18546	22.245	1.6364	0.	414.88
18547	22.152	1.5455	0.	430.18
18548	22.152	1.6364	5.e-002	7.2344
18549	22.429	1.6364	0.	380.56
18550	22.337	1.5455	0.	395.24
18551	22.337	1.6364	5.e-002	7.2531
18552	22.614	1.6364	0.	347.14
18553	22.522	1.5455	0.	361.12
18554	22.522	1.6364	5.e-002	7.2791
18555	22.799	1.6364	0.	314.79
18556	22.707	1.5455	0.	327.97
18557	22.707	1.6364	5.e-002	7.3139
18558	22.984	1.6364	0.	283.77
18559	22.891	1.5455	0.	296.
18560	22.891	1.6364	5.e-002	7.3589
18561	23.169	1.6364	0.	254.42
18562	23.076	1.5455	0.	265.52
18563	23.076	1.6364	5.e-002	7.416
18564	23.353	1.6364	0.	227.24
18565	23.261	1.5455	0.	236.95
18566	23.261	1.6364	5.e-002	7.4867
18567	23.538	1.6364	0.	202.94
18568	23.446	1.5455	0.	210.88
18569	23.446	1.6364	5.e-002	7.5722
18570	23.723	1.6364	0.	182.6
18571	23.63	1.5455	0.	188.22
18572	23.63	1.6364	5.e-002	7.6775
18573	23.815	1.5455	0.	170.27
18574	23.815	1.6364	5.e-002	7.8818
18575	23.908	1.6364	0.	167.8
18576	2.8438	1.4545	0.	6793.6
18577	2.7514	1.3636	0.	6593.
18578	2.7514	1.4545	5.e-002	339.69
18579	2.6591	1.4545	0.	5965.6
18580	3.0286	1.4545	0.	6131.4
18581	2.9362	1.3636	0.	5842.
18582	2.9362	1.4545	5.e-002	206.88
18583	3.2134	1.4545	0.	5764.4
18584	3.121	1.3636	0.	5520.
18585	3.121	1.4545	5.e-002	123.73
18586	3.3981	1.4545	0.	5513.3
18587	3.3057	1.3636	0.	5315.6
18588	3.3057	1.4545	5.e-002	87.364
18589	3.5829	1.4545	0.	5345.3
18590	3.4905	1.3636	0.	5189.6
18591	3.4905	1.4545	5.e-002	65.757
18592	3.7677	1.4545	0.	5227.3
18593	3.6753	1.3636	0.	5108.6
18594	3.6753	1.4545	5.e-002	52.559
18595	3.9524	1.4545	0.	5138.1
18596	3.8601	1.3636	0.	5051.1
18597	3.8601	1.4545	5.e-002	43.14
18598	4.1372	1.4545	0.	5064.7
18599	4.0448	1.3636	0.	5004.2
18600	4.0448	1.4545	5.e-002	36.023
18601	4.322	1.4545	0.	4999.8
18602	4.2296	1.3636	0.	4960.8
18603	4.2296	1.4545	5.e-002	30.435
18604	4.5068	1.4545	0.	4939.2
18605	4.4144	1.3636	0.	4917.4
18606	4.4144	1.4545	5.e-002	25.991
18607	4.6915	1.4545	0.	4880.8
18608	4.5991	1.3636	0.	4872.5
18609	4.5991	1.4545	5.e-002	22.448
18610	4.8763	1.4545	0.	4823.6
18611	4.7839	1.3636	0.	4825.7
18612	4.7839	1.4545	5.e-002	19.635
18613	5.0611	1.4545	0.	4767.1
18614	4.9687	1.3636	0.	4777.2
18615	4.9687	1.4545	5.e-002	17.422
18616	5.2458	1.4545	0.	4711.1
18617	5.1534	1.3636	0.	4727.2
18618	5.1534	1.4545	5.e-002	15.7
18619	5.4306	1.4545	0.	4655.6
18620	5.3382	1.3636	0.	4676.1
18621	5.3382	1.4545	5.e-002	14.374
18622	5.6154	1.4545	0.	4600.5
18623	5.523	1.3636	0.	4624.2
18624	5.523	1.4545	5.e-002	13.364
18625	5.8001	1.4545	0.	4545.8
18626	5.7078	1.3636	0.	4571.8
18627	5.7078	1.4545	5.e-002	12.599
18628	5.9849	1.4545	0.	4491.6
18629	5.8925	1.3636	0.	4519.2
18630	5.8925	1.4545	5.e-002	12.021
18631	6.1697	1.4545	0.	4437.7
18632	6.0773	1.3636	0.	4466.4
18633	6.0773	1.4545	5.e-002	11.581
18634	6.3545	1.4545	0.	4384.2
18635	6.2621	1.3636	0.	4413.6
18636	6.2621	1.4545	5.e-002	11.244
18637	6.5392	1.4545	0.	4331.1
18638	6.4468	1.3636	0.	4360.9
18639	6.4468	1.4545	5.e-002	10.98
18640	6.724	1.4545	0.	4278.2
18641	6.6316	1.3636	0.	4308.2
18642	6.6316	1.4545	5.e-002	10.77
18643	6.9088	1.4545	0.	4225.7
18644	6.8164	1.3636	0.	4255.7
18645	6.8164	1.4545	5.e-002	10.597
18646	7.0935	1.4545	0.	4173.3
18647	7.0011	1.3636	0.	4203.3
18648	7.0011	1.4545	5.e-002	10.452
18649	7.2783	1.4545	0.	4121.1
18650	7.1859	1.3636	0.	4151.
18651	7.1859	1.4545	5.e-002	10.326
18652	7.4631	1.4545	0.	4069.1
18653	7.3707	1.3636	0.	4098.8
18654	7.3707	1.4545	5.e-002	10.216
18655	7.6478	1.4545	0.	4017.2
18656	7.5555	1.3636	0.	4046.7
18657	7.5555	1.4545	5.e-002	10.116
18658	7.8326	1.4545	0.	3965.5
18659	7.7402	1.3636	0.	3994.8
18660	7.7402	1.4545	5.e-002	10.024
18661	8.0174	1.4545	0.	3913.9
18662	7.925	1.3636	0.	3942.9
18663	7.925	1.4545	5.e-002	9.9389
18664	8.2022	1.4545	0.	3862.3
18665	8.1098	1.3636	0.	3891.1
18666	8.1098	1.4545	5.e-002	9.859
18667	8.3869	1.4545	0.	3810.9
18668	8.2945	1.3636	0.	3839.5
18669	8.2945	1.4545	5.e-002	9.7835
18670	8.5717	1.4545	0.	3759.5
18671	8.4793	1.3636	0.	3787.9
18672	8.4793	1.4545	5.e-002	9.7116
18673	8.7565	1.4545	0.	3708.2
18674	8.6641	1.3636	0.	3736.4
18675	8.6641	1.4545	5.e-002	9.643
18676	8.9412	1.4545	0.	3657.
18677	8.8489	1.3636	0.	3685.
18678	8.8489	1.4545	5.e-002	9.5772
18679	9.126	1.4545	0.	3605.9
18680	9.0336	1.3636	0.	3633.7
18681	9.0336	1.4545	5.e-002	9.5139
18682	9.3108	1.4545	0.	3554.9
18683	9.2184	1.3636	0.	3582.4
18684	9.2184	1.4545	5.e-002	9.4529
18685	9.4955	1.4545	0.	3503.9
18686	9.4032	1.3636	0.	3531.3
18687	9.4032	1.4545	5.e-002	9.394
18688	9.6803	1.4545	0.	3453.1
18689	9.5879	1.3636	0.	3480.3
18690	9.5879	1.4545	5.e-002	9.337
18691	9.8651	1.4545	0.	3402.3
18692	9.7727	1.3636	0.	3429.3
18693	9.7727	1.4545	5.e-002	9.2817
18694	10.05	1.4545	0.	3351.6
18695	9.9575	1.3636	0.	3378.5
18696	9.9575	1.4545	5.e-002	9.2282
18697	10.235	1.4545	0.	3301.1
18698	10.142	1.3636	0.	3327.8
18699	10.142	1.4545	5.e-002	9.1761
18700	10.419	1.4545	0.	3250.6
18701	10.327	1.3636	0.	3277.2
18702	10.327	1.4545	5.e-002	9.1252
18703	10.604	1.4545	0.	3200.3
18704	10.512	1.3636	0.	3226.7
18705	10.512	1.4545	5.e-002	9.0759
18706	10.789	1.4545	0.	3150.1
18707	10.697	1.3636	0.	3176.4
18708	10.697	1.4545	5.e-002	9.0278
18709	10.974	1.4545	0.	3100.
18710	10.881	1.3636	0.	3126.2
18711	10.881	1.4545	5.e-002	8.9806
18712	11.158	1.4545	0.	3050.1
18713	11.066	1.3636	0.	3076.1
18714	11.066	1.4545	5.e-002	8.9344
18715	11.343	1.4545	0.	3000.2
18716	11.251	1.3636	0.	3026.1
18717	11.251	1.4545	5.e-002	8.8892
18718	11.528	1.4545	0.	2950.6
18719	11.436	1.3636	0.	2976.3
18720	11.436	1.4545	5.e-002	8.845
18721	11.713	1.4545	0.	2901.
18722	11.62	1.3636	0.	2926.7
18723	11.62	1.4545	5.e-002	8.8017
18724	11.898	1.4545	0.	2851.7
18725	11.805	1.3636	0.	2877.2
18726	11.805	1.4545	5.e-002	8.759
18727	12.082	1.4545	0.	2802.4
18728	11.99	1.3636	0.	2827.8
18729	11.99	1.4545	5.e-002	8.7169
18730	12.267	1.4545	0.	2753.4
18731	12.175	1.3636	0.	2778.6
18732	12.175	1.4545	5.e-002	8.6755
18733	12.452	1.4545	0.	2704.4
18734	12.359	1.3636	0.	2729.6
18735	12.359	1.4545	5.e-002	8.6349
18736	12.637	1.4545	0.	2655.7
18737	12.544	1.3636	0.	2680.7
18738	12.544	1.4545	5.e-002	8.5949
18739	12.821	1.4545	0.	2607.1
18740	12.729	1.3636	0.	2632.1
18741	12.729	1.4545	5.e-002	8.5552
18742	13.006	1.4545	0.	2558.7
18743	12.914	1.3636	0.	2583.5
18744	12.914	1.4545	5.e-002	8.516
18745	13.191	1.4545	0.	2510.5
18746	13.099	1.3636	0.	2535.2
18747	13.099	1.4545	5.e-002	8.4773
18748	13.376	1.4545	0.	2462.4
18749	13.283	1.3636	0.	2487.
18750	13.283	1.4545	5.e-002	8.4392
18751	13.56	1.4545	0.	2414.5
18752	13.468	1.3636	0.	2439.
18753	13.468	1.4545	5.e-002	8.4015
18754	13.745	1.4545	0.	2366.8
18755	13.653	1.3636	0.	2391.2
18756	13.653	1.4545	5.e-002	8.364
18757	13.93	1.4545	0.	2319.3
18758	13.838	1.3636	0.	2343.6
18759	13.838	1.4545	5.e-002	8.3268
18760	14.115	1.4545	0.	2272.
18761	14.022	1.3636	0.	2296.1
18762	14.022	1.4545	5.e-002	8.2901
18763	14.3	1.4545	0.	2224.8
18764	14.207	1.3636	0.	2248.9
18765	14.207	1.4545	5.e-002	8.2538
18766	14.484	1.4545	0.	2177.9
18767	14.392	1.3636	0.	2201.8
18768	14.392	1.4545	5.e-002	8.2178
18769	14.669	1.4545	0.	2131.1
18770	14.577	1.3636	0.	2154.9
18771	14.577	1.4545	5.e-002	8.182
18772	14.854	1.4545	0.	2084.5
18773	14.761	1.3636	0.	2108.2
18774	14.761	1.4545	5.e-002	8.1465
18775	15.039	1.4545	0.	2038.2
18776	14.946	1.3636	0.	2061.8
18777	14.946	1.4545	5.e-002	8.1113
18778	15.223	1.4545	0.	1992.
18779	15.131	1.3636	0.	2015.5
18780	15.131	1.4545	5.e-002	8.0766
18781	15.408	1.4545	0.	1946.
18782	15.316	1.3636	0.	1969.4
18783	15.316	1.4545	5.e-002	8.0421
18784	15.593	1.4545	0.	1900.2
18785	15.501	1.3636	0.	1923.5
18786	15.501	1.4545	5.e-002	8.0078
18787	15.778	1.4545	0.	1854.6
18788	15.685	1.3636	0.	1877.8
18789	15.685	1.4545	5.e-002	7.9737
18790	15.963	1.4545	0.	1809.3
18791	15.87	1.3636	0.	1832.3
18792	15.87	1.4545	5.e-002	7.94
18793	16.147	1.4545	0.	1764.1
18794	16.055	1.3636	0.	1787.
18795	16.055	1.4545	5.e-002	7.9067
18796	16.332	1.4545	0.	1719.1
18797	16.24	1.3636	0.	1741.9
18798	16.24	1.4545	5.e-002	7.8736
18799	16.517	1.4545	0.	1674.4
18800	16.424	1.3636	0.	1697.1
18801	16.424	1.4545	5.e-002	7.8407
18802	16.702	1.4545	0.	1629.9
18803	16.609	1.3636	0.	1652.4
18804	16.609	1.4545	5.e-002	7.8082
18805	16.886	1.4545	0.	1585.5
18806	16.794	1.3636	0.	1608.
18807	16.794	1.4545	5.e-002	7.7762
18808	17.071	1.4545	0.	1541.4
18809	16.979	1.3636	0.	1563.7
18810	16.979	1.4545	5.e-002	7.7445
18811	17.256	1.4545	0.	1497.5
18812	17.164	1.3636	0.	1519.7
18813	17.164	1.4545	5.e-002	7.7131
18814	17.441	1.4545	0.	1453.9
18815	17.348	1.3636	0.	1475.9
18816	17.348	1.4545	5.e-002	7.6821
18817	17.625	1.4545	0.	1410.4
18818	17.533	1.3636	0.	1432.3
18819	17.533	1.4545	5.e-002	7.6515
18820	17.81	1.4545	0.	1367.2
18821	17.718	1.3636	0.	1389.
18822	17.718	1.4545	5.e-002	7.6214
18823	17.995	1.4545	0.	1324.2
18824	17.903	1.3636	0.	1345.8
18825	17.903	1.4545	5.e-002	7.5919
18826	18.18	1.4545	0.	1281.4
18827	18.087	1.3636	0.	1302.9
18828	18.087	1.4545	5.e-002	7.5627
18829	18.365	1.4545	0.	1238.9
18830	18.272	1.3636	0.	1260.2
18831	18.272	1.4545	5.e-002	7.5341
18832	18.549	1.4545	0.	1196.6
18833	18.457	1.3636	0.	1217.8
18834	18.457	1.4545	5.e-002	7.5061
18835	18.734	1.4545	0.	1154.5
18836	18.642	1.3636	0.	1175.5
18837	18.642	1.4545	5.e-002	7.4789
18838	18.919	1.4545	0.	1112.7
18839	18.826	1.3636	0.	1133.6
18840	18.826	1.4545	5.e-002	7.4523
18841	19.104	1.4545	0.	1071.1
18842	19.011	1.3636	0.	1091.8
18843	19.011	1.4545	5.e-002	7.4264
18844	19.288	1.4545	0.	1029.8
18845	19.196	1.3636	0.	1050.3
18846	19.196	1.4545	5.e-002	7.4014
18847	19.473	1.4545	0.	988.72
18848	19.381	1.3636	0.	1009.
18849	19.381	1.4545	5.e-002	7.3772
18850	19.658	1.4545	0.	947.91
18851	19.566	1.3636	0.	968.03
18852	19.566	1.4545	5.e-002	7.3541
18853	19.843	1.4545	0.	907.36
18854	19.75	1.3636	0.	927.28
18855	19.75	1.4545	5.e-002	7.332
18856	20.027	1.4545	0.	867.09
18857	19.935	1.3636	0.	886.79
18858	19.935	1.4545	5.e-002	7.3111
18859	20.212	1.4545	0.	827.1
18860	20.12	1.3636	0.	846.57
18861	20.12	1.4545	5.e-002	7.2914
18862	20.397	1.4545	0.	787.4
18863	20.305	1.3636	0.	806.63
18864	20.305	1.4545	5.e-002	7.2732
18865	20.582	1.4545	0.	748.
18866	20.489	1.3636	0.	766.97
18867	20.489	1.4545	5.e-002	7.2565
18868	20.767	1.4545	0.	708.92
18869	20.674	1.3636	0.	727.6
18870	20.674	1.4545	5.e-002	7.2416
18871	20.951	1.4545	0.	670.16
18872	20.859	1.3636	0.	688.55
18873	20.859	1.4545	5.e-002	7.2285
18874	21.136	1.4545	0.	631.75
18875	21.044	1.3636	0.	649.82
18876	21.044	1.4545	5.e-002	7.2175
18877	21.321	1.4545	0.	593.72
18878	21.228	1.3636	0.	611.44
18879	21.228	1.4545	5.e-002	7.209
18880	21.506	1.4545	0.	556.09
18881	21.413	1.3636	0.	573.43
18882	21.413	1.4545	5.e-002	7.2033
18883	21.69	1.4545	0.	518.91
18884	21.598	1.3636	0.	535.82
18885	21.598	1.4545	5.e-002	7.2006
18886	21.875	1.4545	0.	482.21
18887	21.783	1.3636	0.	498.66
18888	21.783	1.4545	5.e-002	7.2015
18889	22.06	1.4545	0.	446.06
18890	21.968	1.3636	0.	462.
18891	21.968	1.4545	5.e-002	7.2066
18892	22.245	1.4545	0.	410.55
18893	22.152	1.3636	0.	425.91
18894	22.152	1.4545	5.e-002	7.2167
18895	22.429	1.4545	0.	375.78
18896	22.337	1.3636	0.	390.49
18897	22.337	1.4545	5.e-002	7.2328
18898	22.614	1.4545	0.	341.88
18899	22.522	1.3636	0.	355.85
18900	22.522	1.4545	5.e-002	7.2561
18901	22.799	1.4545	0.	309.05
18902	22.707	1.3636	0.	322.16
18903	22.707	1.4545	5.e-002	7.2883
18904	22.984	1.4545	0.	277.54
18905	22.891	1.3636	0.	289.64
18906	22.891	1.4545	5.e-002	7.3313
18907	23.169	1.4545	0.	247.71
18908	23.076	1.3636	0.	258.6
18909	23.076	1.4545	5.e-002	7.3874
18910	23.353	1.4545	0.	220.06
18911	23.261	1.3636	0.	229.49
18912	23.261	1.4545	5.e-002	7.4591
18913	23.538	1.4545	0.	195.34
18914	23.446	1.3636	0.	202.91
18915	23.446	1.4545	5.e-002	7.5486
18916	23.723	1.4545	0.	174.67
18917	23.63	1.3636	0.	179.8
18918	23.63	1.4545	5.e-002	7.6628
18919	23.815	1.3636	0.	161.58
18920	23.815	1.4545	5.e-002	7.9008
18921	23.908	1.4545	0.	159.55
18922	2.8438	1.2727	0.	5477.3
18923	2.7514	1.1818	0.	5233.5
18924	2.7514	1.2727	5.e-002	269.4
18925	2.6591	1.2727	0.	4695.7
18926	3.0286	1.2727	0.	5139.5
18927	2.9362	1.1818	0.	4797.8
18928	2.9362	1.2727	5.e-002	166.09
18929	3.2134	1.2727	0.	5021.3
18930	3.121	1.1818	0.	4714.3
18931	3.121	1.2727	5.e-002	122.34
18932	3.3981	1.2727	0.	4964.1
18933	3.3057	1.1818	0.	4708.2
18934	3.3057	1.2727	5.e-002	88.169
18935	3.5829	1.2727	0.	4937.4
18936	3.4905	1.1818	0.	4733.2
18937	3.4905	1.2727	5.e-002	66.114
18938	3.7677	1.2727	0.	4923.9
18939	3.6753	1.1818	0.	4766.6
18940	3.6753	1.2727	5.e-002	51.3
18941	3.9524	1.2727	0.	4912.6
18942	3.8601	1.1818	0.	4795.4
18943	3.8601	1.2727	5.e-002	40.939
18944	4.1372	1.2727	0.	4897.8
18945	4.0448	1.1818	0.	4813.7
18946	4.0448	1.2727	5.e-002	33.292
18947	4.322	1.2727	0.	4877.1
18948	4.2296	1.1818	0.	4819.7
18949	4.2296	1.2727	5.e-002	27.466
18950	4.5068	1.2727	0.	4850.
18951	4.4144	1.1818	0.	4813.8
18952	4.4144	1.2727	5.e-002	22.968
18953	4.6915	1.2727	0.	4817.1
18954	4.5991	1.1818	0.	4797.5
18955	4.5991	1.2727	5.e-002	19.5
18956	4.8763	1.2727	0.	4779.2
18957	4.7839	1.1818	0.	4772.5
18958	4.7839	1.2727	5.e-002	16.859
18959	5.0611	1.2727	0.	4737.3
18960	4.9687	1.1818	0.	4740.5
18961	4.9687	1.2727	5.e-002	14.887
18962	5.2458	1.2727	0.	4692.2
18963	5.1534	1.1818	0.	4702.9
18964	5.1534	1.2727	5.e-002	13.45
18965	5.4306	1.2727	0.	4644.7
18966	5.3382	1.1818	0.	4661.2
18967	5.3382	1.2727	5.e-002	12.43
18968	5.6154	1.2727	0.	4595.6
18969	5.523	1.1818	0.	4616.2
18970	5.523	1.2727	5.e-002	11.723
18971	5.8001	1.2727	0.	4545.3
18972	5.7078	1.1818	0.	4569.
18973	5.7078	1.2727	5.e-002	11.241
18974	5.9849	1.2727	0.	4494.1
18975	5.8925	1.1818	0.	4520.
18976	5.8925	1.2727	5.e-002	10.913
18977	6.1697	1.2727	0.	4442.4
18978	6.0773	1.1818	0.	4469.9
18979	6.0773	1.2727	5.e-002	10.689
18980	6.3545	1.2727	0.	4390.3
18981	6.2621	1.1818	0.	4418.9
18982	6.2621	1.2727	5.e-002	10.531
18983	6.5392	1.2727	0.	4338.
18984	6.4468	1.1818	0.	4367.3
18985	6.4468	1.2727	5.e-002	10.413
18986	6.724	1.2727	0.	4285.7
18987	6.6316	1.1818	0.	4315.4
18988	6.6316	1.2727	5.e-002	10.321
18989	6.9088	1.2727	0.	4233.3
18990	6.8164	1.1818	0.	4263.2
18991	6.8164	1.2727	5.e-002	10.242
18992	7.0935	1.2727	0.	4181.
18993	7.0011	1.1818	0.	4211.
18994	7.0011	1.2727	5.e-002	10.172
18995	7.2783	1.2727	0.	4128.7
18996	7.1859	1.1818	0.	4158.6
18997	7.1859	1.2727	5.e-002	10.105
18998	7.4631	1.2727	0.	4076.4
18999	7.3707	1.1818	0.	4106.3
19000	7.3707	1.2727	5.e-002	10.041
19001	7.6478	1.2727	0.	4024.3
19002	7.5555	1.1818	0.	4054.
19003	7.5555	1.2727	5.e-002	9.9775
19004	7.8326	1.2727	0.	3972.2
19005	7.7402	1.1818	0.	4001.7
19006	7.7402	1.2727	5.e-002	9.9144
19007	8.0174	1.2727	0.	3920.2
19008	7.925	1.1818	0.	3949.5
19009	7.925	1.2727	5.e-002	9.8517
19010	8.2022	1.2727	0.	3868.3
19011	8.1098	1.1818	0.	3897.4
19012	8.1098	1.2727	5.e-002	9.7894
19013	8.3869	1.2727	0.	3816.5
19014	8.2945	1.1818	0.	3845.4
19015	8.2945	1.2727	5.e-002	9.7277
19016	8.5717	1.2727	0.	3764.8
19017	8.4793	1.1818	0.	3793.4
19018	8.4793	1.2727	5.e-002	9.6667
19019	8.7565	1.2727	0.	3713.1
19020	8.6641	1.1818	0.	3741.6
19021	8.6641	1.2727	5.e-002	9.6065
19022	8.9412	1.2727	0.	3661.6
19023	8.8489	1.1818	0.	3689.9
19024	8.8489	1.2727	5.e-002	9.5474
19025	9.126	1.2727	0.	3610.2
19026	9.0336	1.1818	0.	3638.3
19027	9.0336	1.2727	5.e-002	9.4894
19028	9.3108	1.2727	0.	3558.9
19029	9.2184	1.1818	0.	3586.7
19030	9.2184	1.2727	5.e-002	9.4326
19031	9.4955	1.2727	0.	3507.7
19032	9.4032	1.1818	0.	3535.3
19033	9.4032	1.2727	5.e-002	9.3771
19034	9.6803	1.2727	0.	3456.6
19035	9.5879	1.1818	0.	3484.
19036	9.5879	1.2727	5.e-002	9.3227
19037	9.8651	1.2727	0.	3405.6
19038	9.7727	1.1818	0.	3432.9
19039	9.7727	1.2727	5.e-002	9.2696
19040	10.05	1.2727	0.	3354.7
19041	9.9575	1.1818	0.	3381.8
19042	9.9575	1.2727	5.e-002	9.2178
19043	10.235	1.2727	0.	3304.
19044	10.142	1.1818	0.	3330.9
19045	10.142	1.2727	5.e-002	9.167
19046	10.419	1.2727	0.	3253.3
19047	10.327	1.1818	0.	3280.1
19048	10.327	1.2727	5.e-002	9.1174
19049	10.604	1.2727	0.	3202.8
19050	10.512	1.1818	0.	3229.5
19051	10.512	1.2727	5.e-002	9.069
19052	10.789	1.2727	0.	3152.5
19053	10.697	1.1818	0.	3179.
19054	10.697	1.2727	5.e-002	9.0216
19055	10.974	1.2727	0.	3102.3
19056	10.881	1.1818	0.	3128.6
19057	10.881	1.2727	5.e-002	8.9751
19058	11.158	1.2727	0.	3052.2
19059	11.066	1.1818	0.	3078.4
19060	11.066	1.2727	5.e-002	8.9295
19061	11.343	1.2727	0.	3002.3
19062	11.251	1.1818	0.	3028.3
19063	11.251	1.2727	5.e-002	8.8847
19064	11.528	1.2727	0.	2952.5
19065	11.436	1.1818	0.	2978.4
19066	11.436	1.2727	5.e-002	8.841
19067	11.713	1.2727	0.	2902.8
19068	11.62	1.1818	0.	2928.6
19069	11.62	1.2727	5.e-002	8.7981
19070	11.898	1.2727	0.	2853.4
19071	11.805	1.1818	0.	2879.
19072	11.805	1.2727	5.e-002	8.7556
19073	12.082	1.2727	0.	2804.1
19074	11.99	1.1818	0.	2829.6
19075	11.99	1.2727	5.e-002	8.7138
19076	12.267	1.2727	0.	2754.9
19077	12.175	1.1818	0.	2780.3
19078	12.175	1.2727	5.e-002	8.6727
19079	12.452	1.2727	0.	2705.9
19080	12.359	1.1818	0.	2731.2
19081	12.359	1.2727	5.e-002	8.6323
19082	12.637	1.2727	0.	2657.1
19083	12.544	1.1818	0.	2682.3
19084	12.544	1.2727	5.e-002	8.5925
19085	12.821	1.2727	0.	2608.5
19086	12.729	1.1818	0.	2633.5
19087	12.729	1.2727	5.e-002	8.553
19088	13.006	1.2727	0.	2560.
19089	12.914	1.1818	0.	2584.9
19090	12.914	1.2727	5.e-002	8.5139
19091	13.191	1.2727	0.	2511.8
19092	13.099	1.1818	0.	2536.5
19093	13.099	1.2727	5.e-002	8.4754
19094	13.376	1.2727	0.	2463.6
19095	13.283	1.1818	0.	2488.3
19096	13.283	1.2727	5.e-002	8.4374
19097	13.56	1.2727	0.	2415.7
19098	13.468	1.1818	0.	2440.3
19099	13.468	1.2727	5.e-002	8.3998
19100	13.745	1.2727	0.	2368.
19101	13.653	1.1818	0.	2392.4
19102	13.653	1.2727	5.e-002	8.3624
19103	13.93	1.2727	0.	2320.4
19104	13.838	1.1818	0.	2344.8
19105	13.838	1.2727	5.e-002	8.3253
19106	14.115	1.2727	0.	2273.1
19107	14.022	1.1818	0.	2297.3
19108	14.022	1.2727	5.e-002	8.2887
19109	14.3	1.2727	0.	2225.9
19110	14.207	1.1818	0.	2250.
19111	14.207	1.2727	5.e-002	8.2525
19112	14.484	1.2727	0.	2178.9
19113	14.392	1.1818	0.	2202.9
19114	14.392	1.2727	5.e-002	8.2166
19115	14.669	1.2727	0.	2132.1
19116	14.577	1.1818	0.	2156.
19117	14.577	1.2727	5.e-002	8.1808
19118	14.854	1.2727	0.	2085.5
19119	14.761	1.1818	0.	2109.3
19120	14.761	1.2727	5.e-002	8.1454
19121	15.039	1.2727	0.	2039.1
19122	14.946	1.1818	0.	2062.8
19123	14.946	1.2727	5.e-002	8.1102
19124	15.223	1.2727	0.	1992.9
19125	15.131	1.1818	0.	2016.5
19126	15.131	1.2727	5.e-002	8.0755
19127	15.408	1.2727	0.	1946.9
19128	15.316	1.1818	0.	1970.3
19129	15.316	1.2727	5.e-002	8.041
19130	15.593	1.2727	0.	1901.1
19131	15.501	1.1818	0.	1924.4
19132	15.501	1.2727	5.e-002	8.0067
19133	15.778	1.2727	0.	1855.5
19134	15.685	1.1818	0.	1878.7
19135	15.685	1.2727	5.e-002	7.9727
19136	15.963	1.2727	0.	1810.1
19137	15.87	1.1818	0.	1833.2
19138	15.87	1.2727	5.e-002	7.939
19139	16.147	1.2727	0.	1764.9
19140	16.055	1.1818	0.	1787.9
19141	16.055	1.2727	5.e-002	7.9057
19142	16.332	1.2727	0.	1719.9
19143	16.24	1.1818	0.	1742.8
19144	16.24	1.2727	5.e-002	7.8725
19145	16.517	1.2727	0.	1675.1
19146	16.424	1.1818	0.	1697.9
19147	16.424	1.2727	5.e-002	7.8397
19148	16.702	1.2727	0.	1630.6
19149	16.609	1.1818	0.	1653.2
19150	16.609	1.2727	5.e-002	7.8072
19151	16.886	1.2727	0.	1586.2
19152	16.794	1.1818	0.	1608.7
19153	16.794	1.2727	5.e-002	7.7751
19154	17.071	1.2727	0.	1542.1
19155	16.979	1.1818	0.	1564.5
19156	16.979	1.2727	5.e-002	7.7434
19157	17.256	1.2727	0.	1498.1
19158	17.164	1.1818	0.	1520.4
19159	17.164	1.2727	5.e-002	7.7119
19160	17.441	1.2727	0.	1454.4
19161	17.348	1.1818	0.	1476.6
19162	17.348	1.2727	5.e-002	7.6808
19163	17.625	1.2727	0.	1410.9
19164	17.533	1.1818	0.	1432.9
19165	17.533	1.2727	5.e-002	7.6502
19166	17.81	1.2727	0.	1367.7
19167	17.718	1.1818	0.	1389.5
19168	17.718	1.2727	5.e-002	7.6201
19169	17.995	1.2727	0.	1324.6
19170	17.903	1.1818	0.	1346.3
19171	17.903	1.2727	5.e-002	7.5904
19172	18.18	1.2727	0.	1281.8
19173	18.087	1.1818	0.	1303.4
19174	18.087	1.2727	5.e-002	7.5612
19175	18.365	1.2727	0.	1239.2
19176	18.272	1.1818	0.	1260.6
19177	18.272	1.2727	5.e-002	7.5325
19178	18.549	1.2727	0.	1196.8
19179	18.457	1.1818	0.	1218.1
19180	18.457	1.2727	5.e-002	7.5044
19181	18.734	1.2727	0.	1154.6
19182	18.642	1.1818	0.	1175.8
19183	18.642	1.2727	5.e-002	7.477
19184	18.919	1.2727	0.	1112.7
19185	18.826	1.1818	0.	1133.7
19186	18.826	1.2727	5.e-002	7.4502
19187	19.104	1.2727	0.	1071.1
19188	19.011	1.1818	0.	1091.8
19189	19.011	1.2727	5.e-002	7.4242
19190	19.288	1.2727	0.	1029.6
19191	19.196	1.1818	0.	1050.2
19192	19.196	1.2727	5.e-002	7.3989
19193	19.473	1.2727	0.	988.42
19194	19.381	1.1818	0.	1008.9
19195	19.381	1.2727	5.e-002	7.3745
19196	19.658	1.2727	0.	947.47
19197	19.566	1.1818	0.	967.72
19198	19.566	1.2727	5.e-002	7.3511
19199	19.843	1.2727	0.	906.78
19200	19.75	1.1818	0.	926.82
19201	19.75	1.2727	5.e-002	7.3287
19202	20.027	1.2727	0.	866.34
19203	19.935	1.1818	0.	886.17
19204	19.935	1.2727	5.e-002	7.3074
19205	20.212	1.2727	0.	826.16
19206	20.12	1.1818	0.	845.77
19207	20.12	1.2727	5.e-002	7.2872
19208	20.397	1.2727	0.	786.26
19209	20.305	1.1818	0.	805.63
19210	20.305	1.2727	5.e-002	7.2685
19211	20.582	1.2727	0.	746.64
19212	20.489	1.1818	0.	765.75
19213	20.489	1.2727	5.e-002	7.2512
19214	20.767	1.2727	0.	707.3
19215	20.674	1.1818	0.	726.14
19216	20.674	1.2727	5.e-002	7.2355
19217	20.951	1.2727	0.	668.28
19218	20.859	1.1818	0.	686.82
19219	20.859	1.2727	5.e-002	7.2216
19220	21.136	1.2727	0.	629.57
19221	21.044	1.1818	0.	647.8
19222	21.044	1.2727	5.e-002	7.2096
19223	21.321	1.2727	0.	591.21
19224	21.228	1.1818	0.	609.1
19225	21.228	1.2727	5.e-002	7.1999
19226	21.506	1.2727	0.	553.22
19227	21.413	1.1818	0.	570.73
19228	21.413	1.2727	5.e-002	7.1927
19229	21.69	1.2727	0.	515.64
19230	21.598	1.1818	0.	532.73
19231	21.598	1.2727	5.e-002	7.1883
19232	21.875	1.2727	0.	478.51
19233	21.783	1.1818	0.	495.14
19234	21.783	1.2727	5.e-002	7.1872
19235	22.06	1.2727	0.	441.9
19236	21.968	1.1818	0.	458.
19237	21.968	1.2727	5.e-002	7.19
19238	22.245	1.2727	0.	405.88
19239	22.152	1.1818	0.	421.4
19240	22.152	1.2727	5.e-002	7.1974
19241	22.429	1.2727	0.	370.56
19242	22.337	1.1818	0.	385.4
19243	22.337	1.2727	5.e-002	7.2104
19244	22.614	1.2727	0.	336.09
19245	22.522	1.1818	0.	350.15
19246	22.522	1.2727	5.e-002	7.2304
19247	22.799	1.2727	0.	302.66
19248	22.707	1.1818	0.	315.81
19249	22.707	1.2727	5.e-002	7.2591
19250	22.984	1.2727	0.	270.53
19251	22.891	1.1818	0.	282.6
19252	22.891	1.2727	5.e-002	7.2989
19253	23.169	1.2727	0.	240.08
19254	23.076	1.1818	0.	250.86
19255	23.076	1.2727	5.e-002	7.353
19256	23.353	1.2727	0.	211.84
19257	23.261	1.1818	0.	221.04
19258	23.261	1.2727	5.e-002	7.4249
19259	23.538	1.2727	0.	186.58
19260	23.446	1.1818	0.	193.8
19261	23.446	1.2727	5.e-002	7.5182
19262	23.723	1.2727	0.	165.48
19263	23.63	1.1818	0.	170.11
19264	23.63	1.2727	5.e-002	7.6429
19265	23.815	1.1818	0.	151.52
19266	23.815	1.2727	5.e-002	7.9201
19267	23.908	1.2727	0.	149.97
19268	2.8438	1.0909	0.	4426.1
19269	2.7514	1.	0.	4167.4
19270	2.7514	1.0909	5.e-002	214.06
19271	2.6591	1.0909	0.	3744.3
19272	3.0286	1.0909	0.	4290.4
19273	2.9362	1.	0.	3925.7
19274	2.9362	1.0909	5.e-002	144.68
19275	3.2134	1.0909	0.	4351.1
19276	3.121	1.	0.	4008.2
19277	3.121	1.0909	5.e-002	115.37
19278	3.3981	1.0909	0.	4448.3
19279	3.3057	1.	0.	4154.5
19280	3.3057	1.0909	5.e-002	89.003
19281	3.5829	1.0909	0.	4546.
19282	3.4905	1.	0.	4307.6
19283	3.4905	1.0909	5.e-002	68.343
19284	3.7677	1.0909	0.	4629.
19285	3.6753	1.	0.	4442.7
19286	3.6753	1.0909	5.e-002	52.891
19287	3.9524	1.0909	0.	4691.4
19288	3.8601	1.	0.	4550.4
19289	3.8601	1.0909	5.e-002	41.355
19290	4.1372	1.0909	0.	4732.8
19291	4.0448	1.	0.	4629.4
19292	4.0448	1.0909	5.e-002	32.644
19293	4.322	1.0909	0.	4755.
19294	4.2296	1.	0.	4681.9
19295	4.2296	1.0909	5.e-002	25.998
19296	4.5068	1.0909	0.	4760.6
19297	4.4144	1.	0.	4711.8
19298	4.4144	1.0909	5.e-002	20.929
19299	4.6915	1.0909	0.	4752.6
19300	4.5991	1.	0.	4722.9
19301	4.5991	1.0909	5.e-002	17.113
19302	4.8763	1.0909	0.	4733.6
19303	4.7839	1.	0.	4718.9
19304	4.7839	1.0909	5.e-002	14.326
19305	5.0611	1.0909	0.	4706.1
19306	4.9687	1.	0.	4702.9
19307	4.9687	1.0909	5.e-002	12.385
19308	5.2458	1.0909	0.	4671.9
19309	5.1534	1.	0.	4677.6
19310	5.1534	1.0909	5.e-002	11.122
19311	5.4306	1.0909	0.	4632.7
19312	5.3382	1.	0.	4645.1
19313	5.3382	1.0909	5.e-002	10.37
19314	5.6154	1.0909	0.	4589.6
19315	5.523	1.	0.	4607.1
19316	5.523	1.0909	5.e-002	9.9694
19317	5.8001	1.0909	0.	4543.8
19318	5.7078	1.	0.	4565.1
19319	5.7078	1.0909	5.e-002	9.7916
19320	5.9849	1.0909	0.	4495.8
19321	5.8925	1.	0.	4520.
19322	5.8925	1.0909	5.e-002	9.7402
19323	6.1697	1.0909	0.	4446.4
19324	6.0773	1.	0.	4472.6
19325	6.0773	1.0909	5.e-002	9.7519
19326	6.3545	1.0909	0.	4395.9
19327	6.2621	1.	0.	4423.6
19328	6.2621	1.0909	5.e-002	9.7885
19329	6.5392	1.0909	0.	4344.7
19330	6.4468	1.	0.	4373.3
19331	6.4468	1.0909	5.e-002	9.8285
19332	6.724	1.0909	0.	4293.
19333	6.6316	1.	0.	4322.3
19334	6.6316	1.0909	5.e-002	9.861
19335	6.9088	1.0909	0.	4240.9
19336	6.8164	1.	0.	4270.6
19337	6.8164	1.0909	5.e-002	9.8812
19338	7.0935	1.0909	0.	4188.7
19339	7.0011	1.	0.	4218.6
19340	7.0011	1.0909	5.e-002	9.8881
19341	7.2783	1.0909	0.	4136.3
19342	7.1859	1.	0.	4166.3
19343	7.1859	1.0909	5.e-002	9.8822
19344	7.4631	1.0909	0.	4083.9
19345	7.3707	1.	0.	4113.9
19346	7.3707	1.0909	5.e-002	9.865
19347	7.6478	1.0909	0.	4031.5
19348	7.5555	1.	0.	4061.4
19349	7.5555	1.0909	5.e-002	9.8384
19350	7.8326	1.0909	0.	3979.1
19351	7.7402	1.	0.	4008.8
19352	7.7402	1.0909	5.e-002	9.8042
19353	8.0174	1.0909	0.	3926.8
19354	7.925	1.	0.	3956.4
19355	7.925	1.0909	5.e-002	9.764
19356	8.2022	1.0909	0.	3874.5
19357	8.1098	1.	0.	3903.9
19358	8.1098	1.0909	5.e-002	9.7193
19359	8.3869	1.0909	0.	3822.4
19360	8.2945	1.	0.	3851.6
19361	8.2945	1.0909	5.e-002	9.6714
19362	8.5717	1.0909	0.	3770.3
19363	8.4793	1.	0.	3799.3
19364	8.4793	1.0909	5.e-002	9.6212
19365	8.7565	1.0909	0.	3718.4
19366	8.6641	1.	0.	3747.1
19367	8.6641	1.0909	5.e-002	9.5695
19368	8.9412	1.0909	0.	3666.5
19369	8.8489	1.	0.	3695.
19370	8.8489	1.0909	5.e-002	9.5171
19371	9.126	1.0909	0.	3614.8
19372	9.0336	1.	0.	3643.1
19373	9.0336	1.0909	5.e-002	9.4644
19374	9.3108	1.0909	0.	3563.2
19375	9.2184	1.	0.	3591.3
19376	9.2184	1.0909	5.e-002	9.4118
19377	9.4955	1.0909	0.	3511.7
19378	9.4032	1.	0.	3539.6
19379	9.4032	1.0909	5.e-002	9.3595
19380	9.6803	1.0909	0.	3460.4
19381	9.5879	1.	0.	3488.1
19382	9.5879	1.0909	5.e-002	9.3078
19383	9.8651	1.0909	0.	3409.1
19384	9.7727	1.	0.	3436.6
19385	9.7727	1.0909	5.e-002	9.2569
19386	10.05	1.0909	0.	3358.
19387	9.9575	1.	0.	3385.4
19388	9.9575	1.0909	5.e-002	9.2068
19389	10.235	1.0909	0.	3307.1
19390	10.142	1.	0.	3334.2
19391	10.142	1.0909	5.e-002	9.1575
19392	10.419	1.0909	0.	3256.3
19393	10.327	1.	0.	3283.2
19394	10.327	1.0909	5.e-002	9.109
19395	10.604	1.0909	0.	3205.6
19396	10.512	1.	0.	3232.4
19397	10.512	1.0909	5.e-002	9.0615
19398	10.789	1.0909	0.	3155.1
19399	10.697	1.	0.	3181.7
19400	10.697	1.0909	5.e-002	9.015
19401	10.974	1.0909	0.	3104.7
19402	10.881	1.	0.	3131.2
19403	10.881	1.0909	5.e-002	8.9692
19404	11.158	1.0909	0.	3054.5
19405	11.066	1.	0.	3080.8
19406	11.066	1.0909	5.e-002	8.9241
19407	11.343	1.0909	0.	3004.5
19408	11.251	1.	0.	3030.6
19409	11.251	1.0909	5.e-002	8.8799
19410	11.528	1.0909	0.	2954.6
19411	11.436	1.	0.	2980.6
19412	11.436	1.0909	5.e-002	8.8366
19413	11.713	1.0909	0.	2904.8
19414	11.62	1.	0.	2930.7
19415	11.62	1.0909	5.e-002	8.794
19416	11.898	1.0909	0.	2855.3
19417	11.805	1.	0.	2881.
19418	11.805	1.0909	5.e-002	8.7519
19419	12.082	1.0909	0.	2805.9
19420	11.99	1.	0.	2831.5
19421	11.99	1.0909	5.e-002	8.7104
19422	12.267	1.0909	0.	2756.6
19423	12.175	1.	0.	2782.1
19424	12.175	1.0909	5.e-002	8.6695
19425	12.452	1.0909	0.	2707.6
19426	12.359	1.	0.	2733.
19427	12.359	1.0909	5.e-002	8.6294
19428	12.637	1.0909	0.	2658.7
19429	12.544	1.	0.	2684.
19430	12.544	1.0909	5.e-002	8.5898
19431	12.821	1.0909	0.	2610.
19432	12.729	1.	0.	2635.1
19433	12.729	1.0909	5.e-002	8.5505
19434	13.006	1.0909	0.	2561.5
19435	12.914	1.	0.	2586.5
19436	12.914	1.0909	5.e-002	8.5116
19437	13.191	1.0909	0.	2513.2
19438	13.099	1.	0.	2538.
19439	13.099	1.0909	5.e-002	8.4732
19440	13.376	1.0909	0.	2465.
19441	13.283	1.	0.	2489.8
19442	13.283	1.0909	5.e-002	8.4354
19443	13.56	1.0909	0.	2417.
19444	13.468	1.	0.	2441.7
19445	13.468	1.0909	5.e-002	8.3979
19446	13.745	1.0909	0.	2369.3
19447	13.653	1.	0.	2393.8
19448	13.653	1.0909	5.e-002	8.3606
19449	13.93	1.0909	0.	2321.7
19450	13.838	1.	0.	2346.1
19451	13.838	1.0909	5.e-002	8.3237
19452	14.115	1.0909	0.	2274.3
19453	14.022	1.	0.	2298.6
19454	14.022	1.0909	5.e-002	8.2871
19455	14.3	1.0909	0.	2227.1
19456	14.207	1.	0.	2251.2
19457	14.207	1.0909	5.e-002	8.251
19458	14.484	1.0909	0.	2180.
19459	14.392	1.	0.	2204.1
19460	14.392	1.0909	5.e-002	8.2152
19461	14.669	1.0909	0.	2133.2
19462	14.577	1.	0.	2157.2
19463	14.577	1.0909	5.e-002	8.1795
19464	14.854	1.0909	0.	2086.6
19465	14.761	1.	0.	2110.4
19466	14.761	1.0909	5.e-002	8.1441
19467	15.039	1.0909	0.	2040.2
19468	14.946	1.	0.	2063.9
19469	14.946	1.0909	5.e-002	8.109
19470	15.223	1.0909	0.	1993.9
19471	15.131	1.	0.	2017.6
19472	15.131	1.0909	5.e-002	8.0743
19473	15.408	1.0909	0.	1947.9
19474	15.316	1.	0.	1971.4
19475	15.316	1.0909	5.e-002	8.0398
19476	15.593	1.0909	0.	1902.1
19477	15.501	1.	0.	1925.5
19478	15.501	1.0909	5.e-002	8.0056
19479	15.778	1.0909	0.	1856.5
19480	15.685	1.	0.	1879.7
19481	15.685	1.0909	5.e-002	7.9715
19482	15.963	1.0909	0.	1811.
19483	15.87	1.	0.	1834.2
19484	15.87	1.0909	5.e-002	7.9379
19485	16.147	1.0909	0.	1765.8
19486	16.055	1.	0.	1788.9
19487	16.055	1.0909	5.e-002	7.9045
19488	16.332	1.0909	0.	1720.8
19489	16.24	1.	0.	1743.7
19490	16.24	1.0909	5.e-002	7.8714
19491	16.517	1.0909	0.	1676.
19492	16.424	1.	0.	1698.8
19493	16.424	1.0909	5.e-002	7.8385
19494	16.702	1.0909	0.	1631.4
19495	16.609	1.	0.	1654.1
19496	16.609	1.0909	5.e-002	7.806
19497	16.886	1.0909	0.	1587.
19498	16.794	1.	0.	1609.6
19499	16.794	1.0909	5.e-002	7.7739
19500	17.071	1.0909	0.	1542.8
19501	16.979	1.	0.	1565.3
19502	16.979	1.0909	5.e-002	7.7421
19503	17.256	1.0909	0.	1498.9
19504	17.164	1.	0.	1521.2
19505	17.164	1.0909	5.e-002	7.7106
19506	17.441	1.0909	0.	1455.1
19507	17.348	1.	0.	1477.3
19508	17.348	1.0909	5.e-002	7.6794
19509	17.625	1.0909	0.	1411.6
19510	17.533	1.	0.	1433.6
19511	17.533	1.0909	5.e-002	7.6487
19512	17.81	1.0909	0.	1368.2
19513	17.718	1.	0.	1390.2
19514	17.718	1.0909	5.e-002	7.6185
19515	17.995	1.0909	0.	1325.1
19516	17.903	1.	0.	1346.9
19517	17.903	1.0909	5.e-002	7.5888
19518	18.18	1.0909	0.	1282.2
19519	18.087	1.	0.	1303.9
19520	18.087	1.0909	5.e-002	7.5594
19521	18.365	1.0909	0.	1239.6
19522	18.272	1.	0.	1261.1
19523	18.272	1.0909	5.e-002	7.5306
19524	18.549	1.0909	0.	1197.1
19525	18.457	1.	0.	1218.5
19526	18.457	1.0909	5.e-002	7.5023
19527	18.734	1.0909	0.	1154.9
19528	18.642	1.	0.	1176.1
19529	18.642	1.0909	5.e-002	7.4748
19530	18.919	1.0909	0.	1112.9
19531	18.826	1.	0.	1133.9
19532	18.826	1.0909	5.e-002	7.4479
19533	19.104	1.0909	0.	1071.1
19534	19.011	1.	0.	1092.
19535	19.011	1.0909	5.e-002	7.4216
19536	19.288	1.0909	0.	1029.5
19537	19.196	1.	0.	1050.3
19538	19.196	1.0909	5.e-002	7.3961
19539	19.473	1.0909	0.	988.22
19540	19.381	1.	0.	1008.8
19541	19.381	1.0909	5.e-002	7.3714
19542	19.658	1.0909	0.	947.13
19543	19.566	1.	0.	967.51
19544	19.566	1.0909	5.e-002	7.3477
19545	19.843	1.0909	0.	906.28
19546	19.75	1.	0.	926.46
19547	19.75	1.0909	5.e-002	7.325
19548	20.027	1.0909	0.	865.67
19549	19.935	1.	0.	885.65
19550	19.935	1.0909	5.e-002	7.3032
19551	20.212	1.0909	0.	825.3
19552	20.12	1.	0.	845.07
19553	20.12	1.0909	5.e-002	7.2827
19554	20.397	1.0909	0.	785.19
19555	20.305	1.	0.	804.72
19556	20.305	1.0909	5.e-002	7.2633
19557	20.582	1.0909	0.	745.33
19558	20.489	1.	0.	764.62
19559	20.489	1.0909	5.e-002	7.2454
19560	20.767	1.0909	0.	705.74
19561	20.674	1.	0.	724.77
19562	20.674	1.0909	5.e-002	7.229
19563	20.951	1.0909	0.	666.42
19564	20.859	1.	0.	685.18
19565	20.859	1.0909	5.e-002	7.2142
19566	21.136	1.0909	0.	627.4
19567	21.044	1.	0.	645.85
19568	21.044	1.0909	5.e-002	7.2011
19569	21.321	1.0909	0.	588.69
19570	21.228	1.	0.	606.81
19571	21.228	1.0909	5.e-002	7.1902
19572	21.506	1.0909	0.	550.32
19573	21.413	1.	0.	568.07
19574	21.413	1.0909	5.e-002	7.1815
19575	21.69	1.0909	0.	512.31
19576	21.598	1.	0.	529.65
19577	21.598	1.0909	5.e-002	7.1753
19578	21.875	1.0909	0.	474.7
19579	21.783	1.	0.	491.6
19580	21.783	1.0909	5.e-002	7.172
19581	22.06	1.0909	0.	437.57
19582	21.968	1.	0.	453.95
19583	21.968	1.0909	5.e-002	7.1723
19584	22.245	1.0909	0.	400.98
19585	22.152	1.	0.	416.77
19586	22.152	1.0909	5.e-002	7.1767
19587	22.429	1.0909	0.	365.03
19588	22.337	1.	0.	380.14
19589	22.337	1.0909	5.e-002	7.1862
19590	22.614	1.0909	0.	329.88
19591	22.522	1.	0.	344.18
19592	22.522	1.0909	5.e-002	7.2021
19593	22.799	1.0909	0.	295.71
19594	22.707	1.	0.	309.05
19595	22.707	1.0909	5.e-002	7.2264
19596	22.984	1.0909	0.	262.81
19597	22.891	1.	0.	275.
19598	22.891	1.0909	5.e-002	7.2618
19599	23.169	1.0909	0.	231.57
19600	23.076	1.	0.	242.36
19601	23.076	1.0909	5.e-002	7.3121
19602	23.353	1.0909	0.	202.55
19603	23.261	1.	0.	211.62
19604	23.261	1.0909	5.e-002	7.3826
19605	23.538	1.0909	0.	176.57
19606	23.446	1.	0.	183.48
19607	23.446	1.0909	5.e-002	7.4791
19608	23.723	1.0909	0.	154.92
19609	23.63	1.	0.	159.02
19610	23.63	1.0909	5.e-002	7.6158
19611	23.815	1.	0.	139.94
19612	23.815	1.0909	5.e-002	7.9383
19613	23.908	1.0909	0.	138.9
19614	2.8438	0.90909	0.	3560.5
19615	2.7514	0.81818	0.	3287.5
19616	2.7514	0.90909	5.e-002	178.15
19617	2.6591	0.90909	0.	2976.6
19618	3.0286	0.90909	0.	3571.8
19619	2.9362	0.81818	0.	3194.9
19620	2.9362	0.90909	5.e-002	127.72
19621	3.2134	0.90909	0.	3766.6
19622	3.121	0.81818	0.	3404.8
19623	3.121	0.90909	5.e-002	108.31
19624	3.3981	0.90909	0.	3987.3
19625	3.3057	0.81818	0.	3672.9
19626	3.3057	0.90909	5.e-002	88.284
19627	3.5829	0.90909	0.	4189.1
19628	3.4905	0.81818	0.	3930.6
19629	3.4905	0.90909	5.e-002	70.281
19630	3.7677	0.90909	0.	4355.6
19631	3.6753	0.81818	0.	4150.9
19632	3.6753	0.90909	5.e-002	55.235
19633	3.9524	0.90909	0.	4483.6
19634	3.8601	0.81818	0.	4326.2
19635	3.8601	0.90909	5.e-002	43.11
19636	4.1372	0.90909	0.	4575.8
19637	4.0448	0.81818	0.	4458.1
19638	4.0448	0.90909	5.e-002	33.482
19639	4.322	0.90909	0.	4637.3
19640	4.2296	0.81818	0.	4552.
19641	4.2296	0.90909	5.e-002	25.903
19642	4.5068	0.90909	0.	4673.3
19643	4.4144	0.81818	0.	4614.2
19644	4.4144	0.90909	5.e-002	20.004
19645	4.6915	0.90909	0.	4688.8
19646	4.5991	0.81818	0.	4650.5
19647	4.5991	0.90909	5.e-002	15.517
19648	4.8763	0.90909	0.	4687.9
19649	4.7839	0.81818	0.	4666.
19650	4.7839	0.90909	5.e-002	12.251
19651	5.0611	0.90909	0.	4674.3
19652	4.9687	0.81818	0.	4665.2
19653	4.9687	0.90909	5.e-002	10.06
19654	5.2458	0.90909	0.	4650.7
19655	5.1534	0.81818	0.	4651.6
19656	5.1534	0.90909	5.e-002	8.7921
19657	5.4306	0.90909	0.	4619.6
19658	5.3382	0.81818	0.	4628.2
19659	5.3382	0.90909	5.e-002	8.2362
19660	5.6154	0.90909	0.	4582.6
19661	5.523	0.81818	0.	4597.1
19662	5.523	0.90909	5.e-002	8.1433
19663	5.8001	0.90909	0.	4541.3
19664	5.7078	0.81818	0.	4560.3
19665	5.7078	0.90909	5.e-002	8.2952
19666	5.9849	0.90909	0.	4496.8
19667	5.8925	0.81818	0.	4519.1
19668	5.8925	0.90909	5.e-002	8.5446
19669	6.1697	0.90909	0.	4449.8
19670	6.0773	0.81818	0.	4474.6
19671	6.0773	0.90909	5.e-002	8.8095
19672	6.3545	0.90909	0.	4401.
19673	6.2621	0.81818	0.	4427.6
19674	6.2621	0.90909	5.e-002	9.0505
19675	6.5392	0.90909	0.	4350.9
19676	6.4468	0.81818	0.	4378.8
19677	6.4468	0.90909	5.e-002	9.2521
19678	6.724	0.90909	0.	4299.9
19679	6.6316	0.81818	0.	4328.8
19680	6.6316	0.90909	5.e-002	9.4109
19681	6.9088	0.90909	0.	4248.3
19682	6.8164	0.81818	0.	4277.7
19683	6.8164	0.90909	5.e-002	9.5295
19684	7.0935	0.90909	0.	4196.3
19685	7.0011	0.81818	0.	4226.
19686	7.0011	0.90909	5.e-002	9.6127
19687	7.2783	0.90909	0.	4143.9
19688	7.1859	0.81818	0.	4173.9
19689	7.1859	0.90909	5.e-002	9.6661
19690	7.4631	0.90909	0.	4091.4
19691	7.3707	0.81818	0.	4121.4
19692	7.3707	0.90909	5.e-002	9.6949
19693	7.6478	0.90909	0.	4038.8
19694	7.5555	0.81818	0.	4068.8
19695	7.5555	0.90909	5.e-002	9.704
19696	7.8326	0.90909	0.	3986.1
19697	7.7402	0.81818	0.	4016.1
19698	7.7402	0.90909	5.e-002	9.6975
19699	8.0174	0.90909	0.	3933.5
19700	7.925	0.81818	0.	3963.3
19701	7.925	0.90909	5.e-002	9.679
19702	8.2022	0.90909	0.	3881.
19703	8.1098	0.81818	0.	3910.6
19704	8.1098	0.90909	5.e-002	9.6511
19705	8.3869	0.90909	0.	3828.5
19706	8.2945	0.81818	0.	3857.9
19707	8.2945	0.90909	5.e-002	9.6164
19708	8.5717	0.90909	0.	3776.1
19709	8.4793	0.81818	0.	3805.3
19710	8.4793	0.90909	5.e-002	9.5765
19711	8.7565	0.90909	0.	3723.8
19712	8.6641	0.81818	0.	3752.8
19713	8.6641	0.90909	5.e-002	9.533
19714	8.9412	0.90909	0.	3671.7
19715	8.8489	0.81818	0.	3700.4
19716	8.8489	0.90909	5.e-002	9.4869
19717	9.126	0.90909	0.	3619.6
19718	9.0336	0.81818	0.	3648.2
19719	9.0336	0.90909	5.e-002	9.4393
19720	9.3108	0.90909	0.	3567.7
19721	9.2184	0.81818	0.	3596.1
19722	9.2184	0.90909	5.e-002	9.3907
19723	9.4955	0.90909	0.	3516.
19724	9.4032	0.81818	0.	3544.1
19725	9.4032	0.90909	5.e-002	9.3416
19726	9.6803	0.90909	0.	3464.4
19727	9.5879	0.81818	0.	3492.3
19728	9.5879	0.90909	5.e-002	9.2925
19729	9.8651	0.90909	0.	3412.9
19730	9.7727	0.81818	0.	3440.6
19731	9.7727	0.90909	5.e-002	9.2436
19732	10.05	0.90909	0.	3361.6
19733	9.9575	0.81818	0.	3389.1
19734	9.9575	0.90909	5.e-002	9.1952
19735	10.235	0.90909	0.	3310.4
19736	10.142	0.81818	0.	3337.7
19737	10.142	0.90909	5.e-002	9.1473
19738	10.419	0.90909	0.	3259.4
19739	10.327	0.81818	0.	3286.6
19740	10.327	0.90909	5.e-002	9.1
19741	10.604	0.90909	0.	3208.6
19742	10.512	0.81818	0.	3235.5
19743	10.512	0.90909	5.e-002	9.0535
19744	10.789	0.90909	0.	3157.9
19745	10.697	0.81818	0.	3184.7
19746	10.697	0.90909	5.e-002	9.0078
19747	10.974	0.90909	0.	3107.4
19748	10.881	0.81818	0.	3134.
19749	10.881	0.90909	5.e-002	8.9626
19750	11.158	0.90909	0.	3057.
19751	11.066	0.81818	0.	3083.5
19752	11.066	0.90909	5.e-002	8.9182
19753	11.343	0.90909	0.	3006.8
19754	11.251	0.81818	0.	3033.1
19755	11.251	0.90909	5.e-002	8.8745
19756	11.528	0.90909	0.	2956.8
19757	11.436	0.81818	0.	2983.
19758	11.436	0.90909	5.e-002	8.8316
19759	11.713	0.90909	0.	2907.
19760	11.62	0.81818	0.	2933.
19761	11.62	0.90909	5.e-002	8.7895
19762	11.898	0.90909	0.	2857.3
19763	11.805	0.81818	0.	2883.2
19764	11.805	0.90909	5.e-002	8.7477
19765	12.082	0.90909	0.	2807.8
19766	11.99	0.81818	0.	2833.6
19767	11.99	0.90909	5.e-002	8.7066
19768	12.267	0.90909	0.	2758.5
19769	12.175	0.81818	0.	2784.1
19770	12.175	0.90909	5.e-002	8.666
19771	12.452	0.90909	0.	2709.4
19772	12.359	0.81818	0.	2734.8
19773	12.359	0.90909	5.e-002	8.6261
19774	12.637	0.90909	0.	2660.4
19775	12.544	0.81818	0.	2685.8
19776	12.544	0.90909	5.e-002	8.5867
19777	12.821	0.90909	0.	2611.7
19778	12.729	0.81818	0.	2636.9
19779	12.729	0.90909	5.e-002	8.5476
19780	13.006	0.90909	0.	2563.1
19781	12.914	0.81818	0.	2588.2
19782	12.914	0.90909	5.e-002	8.5089
19783	13.191	0.90909	0.	2514.7
19784	13.099	0.81818	0.	2539.7
19785	13.099	0.90909	5.e-002	8.4707
19786	13.376	0.90909	0.	2466.5
19787	13.283	0.81818	0.	2491.3
19788	13.283	0.90909	5.e-002	8.433
19789	13.56	0.90909	0.	2418.5
19790	13.468	0.81818	0.	2443.2
19791	13.468	0.90909	5.e-002	8.3957
19792	13.745	0.90909	0.	2370.7
19793	13.653	0.81818	0.	2395.3
19794	13.653	0.90909	5.e-002	8.3586
19795	13.93	0.90909	0.	2323.
19796	13.838	0.81818	0.	2347.5
19797	13.838	0.90909	5.e-002	8.3217
19798	14.115	0.90909	0.	2275.6
19799	14.022	0.81818	0.	2300.
19800	14.022	0.90909	5.e-002	8.2852
19801	14.3	0.90909	0.	2228.3
19802	14.207	0.81818	0.	2252.6
19803	14.207	0.90909	5.e-002	8.2492
19804	14.484	0.90909	0.	2181.3
19805	14.392	0.81818	0.	2205.4
19806	14.392	0.90909	5.e-002	8.2135
19807	14.669	0.90909	0.	2134.4
19808	14.577	0.81818	0.	2158.5
19809	14.577	0.90909	5.e-002	8.1779
19810	14.854	0.90909	0.	2087.8
19811	14.761	0.81818	0.	2111.7
19812	14.761	0.90909	5.e-002	8.1425
19813	15.039	0.90909	0.	2041.3
19814	14.946	0.81818	0.	2065.2
19815	14.946	0.90909	5.e-002	8.1075
19816	15.223	0.90909	0.	1995.1
19817	15.131	0.81818	0.	2018.8
19818	15.131	0.90909	5.e-002	8.0728
19819	15.408	0.90909	0.	1949.
19820	15.316	0.81818	0.	1972.6
19821	15.316	0.90909	5.e-002	8.0384
19822	15.593	0.90909	0.	1903.2
19823	15.501	0.81818	0.	1926.7
19824	15.501	0.90909	5.e-002	8.0041
19825	15.778	0.90909	0.	1857.5
19826	15.685	0.81818	0.	1880.9
19827	15.685	0.90909	5.e-002	7.9701
19828	15.963	0.90909	0.	1812.1
19829	15.87	0.81818	0.	1835.3
19830	15.87	0.90909	5.e-002	7.9365
19831	16.147	0.90909	0.	1766.8
19832	16.055	0.81818	0.	1790.
19833	16.055	0.90909	5.e-002	7.9031
19834	16.332	0.90909	0.	1721.8
19835	16.24	0.81818	0.	1744.8
19836	16.24	0.90909	5.e-002	7.87
19837	16.517	0.90909	0.	1677.
19838	16.424	0.81818	0.	1699.9
19839	16.424	0.90909	5.e-002	7.8371
19840	16.702	0.90909	0.	1632.3
19841	16.609	0.81818	0.	1655.1
19842	16.609	0.90909	5.e-002	7.8045
19843	16.886	0.90909	0.	1587.9
19844	16.794	0.81818	0.	1610.6
19845	16.794	0.90909	5.e-002	7.7724
19846	17.071	0.90909	0.	1543.7
19847	16.979	0.81818	0.	1566.2
19848	16.979	0.90909	5.e-002	7.7405
19849	17.256	0.90909	0.	1499.7
19850	17.164	0.81818	0.	1522.1
19851	17.164	0.90909	5.e-002	7.709
19852	17.441	0.90909	0.	1455.9
19853	17.348	0.81818	0.	1478.2
19854	17.348	0.90909	5.e-002	7.6777
19855	17.625	0.90909	0.	1412.3
19856	17.533	0.81818	0.	1434.5
19857	17.533	0.90909	5.e-002	7.6469
19858	17.81	0.90909	0.	1368.9
19859	17.718	0.81818	0.	1391.
19860	17.718	0.90909	5.e-002	7.6166
19861	17.995	0.90909	0.	1325.8
19862	17.903	0.81818	0.	1347.7
19863	17.903	0.90909	5.e-002	7.5868
19864	18.18	0.90909	0.	1282.8
19865	18.087	0.81818	0.	1304.6
19866	18.087	0.90909	5.e-002	7.5573
19867	18.365	0.90909	0.	1240.1
19868	18.272	0.81818	0.	1261.7
19869	18.272	0.90909	5.e-002	7.5283
19870	18.549	0.90909	0.	1197.5
19871	18.457	0.81818	0.	1219.
19872	18.457	0.90909	5.e-002	7.4999
19873	18.734	0.90909	0.	1155.2
19874	18.642	0.81818	0.	1176.6
19875	18.642	0.90909	5.e-002	7.4722
19876	18.919	0.90909	0.	1113.1
19877	18.826	0.81818	0.	1134.3
19878	18.826	0.90909	5.e-002	7.4451
19879	19.104	0.90909	0.	1071.3
19880	19.011	0.81818	0.	1092.3
19881	19.011	0.90909	5.e-002	7.4186
19882	19.288	0.90909	0.	1029.6
19883	19.196	0.81818	0.	1050.5
19884	19.196	0.90909	5.e-002	7.3929
19885	19.473	0.90909	0.	988.14
19886	19.381	0.81818	0.	1008.9
19887	19.381	0.90909	5.e-002	7.3679
19888	19.658	0.90909	0.	946.91
19889	19.566	0.81818	0.	967.45
19890	19.566	0.90909	5.e-002	7.3439
19891	19.843	0.90909	0.	905.9
19892	19.75	0.81818	0.	926.26
19893	19.75	0.90909	5.e-002	7.3208
19894	20.027	0.90909	0.	865.12
19895	19.935	0.81818	0.	885.28
19896	19.935	0.90909	5.e-002	7.2986
19897	20.212	0.90909	0.	824.56
19898	20.12	0.81818	0.	844.52
19899	20.12	0.90909	5.e-002	7.2775
19900	20.397	0.90909	0.	784.24
19901	20.305	0.81818	0.	803.98
19902	20.305	0.90909	5.e-002	7.2576
19903	20.582	0.90909	0.	744.14
19904	20.489	0.81818	0.	763.65
19905	20.489	0.90909	5.e-002	7.2391
19906	20.767	0.90909	0.	704.29
19907	20.674	0.81818	0.	723.56
19908	20.674	0.90909	5.e-002	7.2219
19909	20.951	0.90909	0.	664.69
19910	20.859	0.81818	0.	683.69
19911	20.859	0.90909	5.e-002	7.2061
19912	21.136	0.90909	0.	625.34
19913	21.044	0.81818	0.	644.06
19914	21.044	0.90909	5.e-002	7.192
19915	21.321	0.90909	0.	586.27
19916	21.228	0.81818	0.	604.68
19917	21.228	0.90909	5.e-002	7.1798
19918	21.506	0.90909	0.	547.49
19919	21.413	0.81818	0.	565.55
19920	21.413	0.90909	5.e-002	7.1695
19921	21.69	0.90909	0.	509.03
19922	21.598	0.81818	0.	526.71
19923	21.598	0.90909	5.e-002	7.1615
19924	21.875	0.90909	0.	470.93
19925	21.783	0.81818	0.	488.18
19926	21.783	0.90909	5.e-002	7.156
19927	22.06	0.90909	0.	433.23
19928	21.968	0.81818	0.	449.99
19929	21.968	0.90909	5.e-002	7.1536
19930	22.245	0.90909	0.	396.01
19931	22.152	0.81818	0.	412.2
19932	22.152	0.90909	5.e-002	7.1547
19933	22.429	0.90909	0.	359.36
19934	22.337	0.81818	0.	374.87
19935	22.337	0.90909	5.e-002	7.1603
19936	22.614	0.90909	0.	323.41
19937	22.522	0.81818	0.	338.12
19938	22.522	0.90909	5.e-002	7.1716
19939	22.799	0.90909	0.	288.36
19940	22.707	0.81818	0.	302.1
19941	22.707	0.90909	5.e-002	7.1904
19942	22.984	0.90909	0.	254.5
19943	22.891	0.81818	0.	267.04
19944	22.891	0.90909	5.e-002	7.2198
19945	23.169	0.90909	0.	222.24
19946	23.076	0.81818	0.	233.27
19947	23.076	0.90909	5.e-002	7.2642
19948	23.353	0.90909	0.	192.18
19949	23.261	0.81818	0.	201.31
19950	23.261	0.90909	5.e-002	7.3305
19951	23.538	0.90909	0.	165.23
19952	23.446	0.81818	0.	171.94
19953	23.446	0.90909	5.e-002	7.428
19954	23.723	0.90909	0.	142.8
19955	23.63	0.81818	0.	146.38
19956	23.63	0.90909	5.e-002	7.5778
19957	23.815	0.81818	0.	126.57
19958	23.815	0.90909	5.e-002	7.953
19959	23.908	0.90909	0.	126.14
19960	2.8438	0.72727	0.	2826.3
19961	2.7514	0.63636	0.	2531.8
19962	2.7514	0.72727	5.e-002	152.8
19963	2.6591	0.72727	0.	2324.9
19964	3.0286	0.72727	0.	2966.5
19965	2.9362	0.63636	0.	2580.
19966	2.9362	0.72727	5.e-002	116.38
19967	3.2134	0.72727	0.	3274.3
19968	3.121	0.63636	0.	2905.8
19969	3.121	0.72727	5.e-002	102.75
19970	3.3981	0.72727	0.	3595.
19971	3.3057	0.63636	0.	3274.6
19972	3.3057	0.72727	5.e-002	87.023
19973	3.5829	0.72727	0.	3880.2
19974	3.4905	0.63636	0.	3614.7
19975	3.4905	0.72727	5.e-002	71.434
19976	3.7677	0.72727	0.	4114.4
19977	3.6753	0.63636	0.	3901.5
19978	3.6753	0.72727	5.e-002	57.288
19979	3.9524	0.72727	0.	4296.6
19980	3.8601	0.63636	0.	4130.3
19981	3.8601	0.72727	5.e-002	45.122
19982	4.1372	0.72727	0.	4432.
19983	4.0448	0.63636	0.	4305.4
19984	4.0448	0.72727	5.e-002	34.976
19985	4.322	0.72727	0.	4527.6
19986	4.2296	0.63636	0.	4433.9
19987	4.2296	0.72727	5.e-002	26.684
19988	4.5068	0.72727	0.	4590.6
19989	4.4144	0.63636	0.	4523.8
19990	4.4144	0.72727	5.e-002	20.024
19991	4.6915	0.72727	0.	4627.3
19992	4.5991	0.63636	0.	4582.1
19993	4.5991	0.72727	5.e-002	14.79
19994	4.8763	0.72727	0.	4643.1
19995	4.7839	0.63636	0.	4615.2
19996	4.7839	0.72727	5.e-002	10.836
19997	5.0611	0.72727	0.	4642.5
19998	4.9687	0.63636	0.	4628.3
19999	4.9687	0.72727	5.e-002	8.0965
20000	5.2458	0.72727	0.	4629.1
20001	5.1534	0.63636	0.	4625.7
20002	5.1534	0.72727	5.e-002	6.553
20003	5.4306	0.72727	0.	4605.7
20004	5.3382	0.63636	0.	4610.8
20005	5.3382	0.72727	5.e-002	6.0737
20006	5.6154	0.72727	0.	4574.8
20007	5.523	0.63636	0.	4586.4
20008	5.523	0.72727	5.e-002	6.292
20009	5.8001	0.72727	0.	4538.1
20010	5.7078	0.63636	0.	4554.7
20011	5.7078	0.72727	5.e-002	6.8091
20012	5.9849	0.72727	0.	4496.9
20013	5.8925	0.63636	0.	4517.4
20014	5.8925	0.72727	5.e-002	7.3838
20015	6.1697	0.72727	0.	4452.4
20016	6.0773	0.63636	0.	4475.9
20017	6.0773	0.72727	5.e-002	7.911
20018	6.3545	0.72727	0.	4405.5
20019	6.2621	0.63636	0.	4431.1
20020	6.2621	0.72727	5.e-002	8.3561
20021	6.5392	0.72727	0.	4356.7
20022	6.4468	0.63636	0.	4383.9
20023	6.4468	0.72727	5.e-002	8.7145
20024	6.724	0.72727	0.	4306.6
20025	6.6316	0.63636	0.	4334.9
20026	6.6316	0.72727	5.e-002	8.9935
20027	6.9088	0.72727	0.	4255.5
20028	6.8164	0.63636	0.	4284.6
20029	6.8164	0.72727	5.e-002	9.2043
20030	7.0935	0.72727	0.	4203.7
20031	7.0011	0.63636	0.	4233.3
20032	7.0011	0.72727	5.e-002	9.3583
20033	7.2783	0.72727	0.	4151.4
20034	7.1859	0.63636	0.	4181.3
20035	7.1859	0.72727	5.e-002	9.4661
20036	7.4631	0.72727	0.	4098.9
20037	7.3707	0.63636	0.	4128.9
20038	7.3707	0.72727	5.e-002	9.537
20039	7.6478	0.72727	0.	4046.1
20040	7.5555	0.63636	0.	4076.2
20041	7.5555	0.72727	5.e-002	9.5787
20042	7.8326	0.72727	0.	3993.3
20043	7.7402	0.63636	0.	4023.3
20044	7.7402	0.72727	5.e-002	9.5974
20045	8.0174	0.72727	0.	3940.4
20046	7.925	0.63636	0.	3970.4
20047	7.925	0.72727	5.e-002	9.5985
20048	8.2022	0.72727	0.	3887.5
20049	8.1098	0.63636	0.	3917.4
20050	8.1098	0.72727	5.e-002	9.5859
20051	8.3869	0.72727	0.	3834.8
20052	8.2945	0.63636	0.	3864.4
20053	8.2945	0.72727	5.e-002	9.563
20054	8.5717	0.72727	0.	3782.1
20055	8.4793	0.63636	0.	3811.5
20056	8.4793	0.72727	5.e-002	9.5325
20057	8.7565	0.72727	0.	3729.5
20058	8.6641	0.63636	0.	3758.7
20059	8.6641	0.72727	5.e-002	9.4963
20060	8.9412	0.72727	0.	3677.
20061	8.8489	0.63636	0.	3706.
20062	8.8489	0.72727	5.e-002	9.4561
20063	9.126	0.72727	0.	3624.7
20064	9.0336	0.63636	0.	3653.4
20065	9.0336	0.72727	5.e-002	9.413
20066	9.3108	0.72727	0.	3572.5
20067	9.2184	0.63636	0.	3601.
20068	9.2184	0.72727	5.e-002	9.368
20069	9.4955	0.72727	0.	3520.4
20070	9.4032	0.63636	0.	3548.8
20071	9.4032	0.72727	5.e-002	9.3219
20072	9.6803	0.72727	0.	3468.6
20073	9.5879	0.63636	0.	3496.7
20074	9.5879	0.72727	5.e-002	9.2752
20075	9.8651	0.72727	0.	3416.8
20076	9.7727	0.63636	0.	3444.8
20077	9.7727	0.72727	5.e-002	9.2282
20078	10.05	0.72727	0.	3365.3
20079	9.9575	0.63636	0.	3393.
20080	9.9575	0.72727	5.e-002	9.1814
20081	10.235	0.72727	0.	3313.9
20082	10.142	0.63636	0.	3341.5
20083	10.142	0.72727	5.e-002	9.1348
20084	10.419	0.72727	0.	3262.7
20085	10.327	0.63636	0.	3290.1
20086	10.327	0.72727	5.e-002	9.0886
20087	10.604	0.72727	0.	3211.7
20088	10.512	0.63636	0.	3238.8
20089	10.512	0.72727	5.e-002	9.043
20090	10.789	0.72727	0.	3160.8
20091	10.697	0.63636	0.	3187.8
20092	10.697	0.72727	5.e-002	8.9982
20093	10.974	0.72727	0.	3110.2
20094	10.881	0.63636	0.	3136.9
20095	10.881	0.72727	5.e-002	8.9537
20096	11.158	0.72727	0.	3059.7
20097	11.066	0.63636	0.	3086.3
20098	11.066	0.72727	5.e-002	8.9098
20099	11.343	0.72727	0.	3009.3
20100	11.251	0.63636	0.	3035.8
20101	11.251	0.72727	5.e-002	8.8667
20102	11.528	0.72727	0.	2959.2
20103	11.436	0.63636	0.	2985.5
20104	11.436	0.72727	5.e-002	8.8243
20105	11.713	0.72727	0.	2909.2
20106	11.62	0.63636	0.	2935.4
20107	11.62	0.72727	5.e-002	8.7825
20108	11.898	0.72727	0.	2859.5
20109	11.805	0.63636	0.	2885.5
20110	11.805	0.72727	5.e-002	8.7412
20111	12.082	0.72727	0.	2809.9
20112	11.99	0.63636	0.	2835.7
20113	11.99	0.72727	5.e-002	8.7003
20114	12.267	0.72727	0.	2760.5
20115	12.175	0.63636	0.	2786.2
20116	12.175	0.72727	5.e-002	8.66
20117	12.452	0.72727	0.	2711.3
20118	12.359	0.63636	0.	2736.9
20119	12.359	0.72727	5.e-002	8.6204
20120	12.637	0.72727	0.	2662.3
20121	12.544	0.63636	0.	2687.7
20122	12.544	0.72727	5.e-002	8.5813
20123	12.821	0.72727	0.	2613.4
20124	12.729	0.63636	0.	2638.7
20125	12.729	0.72727	5.e-002	8.5424
20126	13.006	0.72727	0.	2564.8
20127	12.914	0.63636	0.	2590.
20128	12.914	0.72727	5.e-002	8.504
20129	13.191	0.72727	0.	2516.3
20130	13.099	0.63636	0.	2541.4
20131	13.099	0.72727	5.e-002	8.4659
20132	13.376	0.72727	0.	2468.1
20133	13.283	0.63636	0.	2493.
20134	13.283	0.72727	5.e-002	8.4284
20135	13.56	0.72727	0.	2420.
20136	13.468	0.63636	0.	2444.8
20137	13.468	0.72727	5.e-002	8.3912
20138	13.745	0.72727	0.	2372.2
20139	13.653	0.63636	0.	2396.9
20140	13.653	0.72727	5.e-002	8.3543
20141	13.93	0.72727	0.	2324.5
20142	13.838	0.63636	0.	2349.1
20143	13.838	0.72727	5.e-002	8.3175
20144	14.115	0.72727	0.	2277.
20145	14.022	0.63636	0.	2301.5
20146	14.022	0.72727	5.e-002	8.2812
20147	14.3	0.72727	0.	2229.7
20148	14.207	0.63636	0.	2254.1
20149	14.207	0.72727	5.e-002	8.2453
20150	14.484	0.72727	0.	2182.7
20151	14.392	0.63636	0.	2206.9
20152	14.392	0.72727	5.e-002	8.2096
20153	14.669	0.72727	0.	2135.8
20154	14.577	0.63636	0.	2159.9
20155	14.577	0.72727	5.e-002	8.1741
20156	14.854	0.72727	0.	2089.1
20157	14.761	0.63636	0.	2113.1
20158	14.761	0.72727	5.e-002	8.1388
20159	15.039	0.72727	0.	2042.6
20160	14.946	0.63636	0.	2066.5
20161	14.946	0.72727	5.e-002	8.1038
20162	15.223	0.72727	0.	1996.4
20163	15.131	0.63636	0.	2020.1
20164	15.131	0.72727	5.e-002	8.0692
20165	15.408	0.72727	0.	1950.3
20166	15.316	0.63636	0.	1973.9
20167	15.316	0.72727	5.e-002	8.0348
20168	15.593	0.72727	0.	1904.4
20169	15.501	0.63636	0.	1928.
20170	15.501	0.72727	5.e-002	8.0006
20171	15.778	0.72727	0.	1858.7
20172	15.685	0.63636	0.	1882.2
20173	15.685	0.72727	5.e-002	7.9666
20174	15.963	0.72727	0.	1813.3
20175	15.87	0.63636	0.	1836.6
20176	15.87	0.72727	5.e-002	7.933
20177	16.147	0.72727	0.	1768.
20178	16.055	0.63636	0.	1791.2
20179	16.055	0.72727	5.e-002	7.8997
20180	16.332	0.72727	0.	1722.9
20181	16.24	0.63636	0.	1746.
20182	16.24	0.72727	5.e-002	7.8665
20183	16.517	0.72727	0.	1678.1
20184	16.424	0.63636	0.	1701.
20185	16.424	0.72727	5.e-002	7.8336
20186	16.702	0.72727	0.	1633.4
20187	16.609	0.63636	0.	1656.3
20188	16.609	0.72727	5.e-002	7.801
20189	16.886	0.72727	0.	1589.
20190	16.794	0.63636	0.	1611.7
20191	16.794	0.72727	5.e-002	7.7688
20192	17.071	0.72727	0.	1544.7
20193	16.979	0.63636	0.	1567.3
20194	16.979	0.72727	5.e-002	7.7369
20195	17.256	0.72727	0.	1500.7
20196	17.164	0.63636	0.	1523.2
20197	17.164	0.72727	5.e-002	7.7053
20198	17.441	0.72727	0.	1456.8
20199	17.348	0.63636	0.	1479.2
20200	17.348	0.72727	5.e-002	7.674
20201	17.625	0.72727	0.	1413.2
20202	17.533	0.63636	0.	1435.5
20203	17.533	0.72727	5.e-002	7.6431
20204	17.81	0.72727	0.	1369.8
20205	17.718	0.63636	0.	1391.9
20206	17.718	0.72727	5.e-002	7.6127
20207	17.995	0.72727	0.	1326.6
20208	17.903	0.63636	0.	1348.6
20209	17.903	0.72727	5.e-002	7.5828
20210	18.18	0.72727	0.	1283.5
20211	18.087	0.63636	0.	1305.4
20212	18.087	0.72727	5.e-002	7.5532
20213	18.365	0.72727	0.	1240.7
20214	18.272	0.63636	0.	1262.5
20215	18.272	0.72727	5.e-002	7.5241
20216	18.549	0.72727	0.	1198.1
20217	18.457	0.63636	0.	1219.8
20218	18.457	0.72727	5.e-002	7.4955
20219	18.734	0.72727	0.	1155.7
20220	18.642	0.63636	0.	1177.2
20221	18.642	0.72727	5.e-002	7.4676
20222	18.919	0.72727	0.	1113.6
20223	18.826	0.63636	0.	1134.9
20224	18.826	0.72727	5.e-002	7.4403
20225	19.104	0.72727	0.	1071.6
20226	19.011	0.63636	0.	1092.8
20227	19.011	0.72727	5.e-002	7.4136
20228	19.288	0.72727	0.	1029.8
20229	19.196	0.63636	0.	1050.8
20230	19.196	0.72727	5.e-002	7.3876
20231	19.473	0.72727	0.	988.23
20232	19.381	0.63636	0.	1009.1
20233	19.381	0.72727	5.e-002	7.3624
20234	19.658	0.72727	0.	946.86
20235	19.566	0.63636	0.	967.58
20236	19.566	0.72727	5.e-002	7.338
20237	19.843	0.72727	0.	905.7
20238	19.75	0.63636	0.	926.25
20239	19.75	0.72727	5.e-002	7.3146
20240	20.027	0.72727	0.	864.75
20241	19.935	0.63636	0.	885.12
20242	19.935	0.72727	5.e-002	7.292
20243	20.212	0.72727	0.	824.01
20244	20.12	0.63636	0.	844.19
20245	20.12	0.72727	5.e-002	7.2704
20246	20.397	0.72727	0.	783.48
20247	20.305	0.63636	0.	803.46
20248	20.305	0.72727	5.e-002	7.25
20249	20.582	0.72727	0.	743.15
20250	20.489	0.63636	0.	762.92
20251	20.489	0.72727	5.e-002	7.2308
20252	20.767	0.72727	0.	703.04
20253	20.674	0.63636	0.	722.59
20254	20.674	0.72727	5.e-002	7.2128
20255	20.951	0.72727	0.	663.15
20256	20.859	0.63636	0.	682.46
20257	20.859	0.72727	5.e-002	7.1962
20258	21.136	0.72727	0.	623.49
20259	21.044	0.63636	0.	642.53
20260	21.044	0.72727	5.e-002	7.181
20261	21.321	0.72727	0.	584.06
20262	21.228	0.63636	0.	602.82
20263	21.228	0.72727	5.e-002	7.1675
20264	21.506	0.72727	0.	544.88
20265	21.413	0.63636	0.	563.33
20266	21.413	0.72727	5.e-002	7.1558
20267	21.69	0.72727	0.	505.97
20268	21.598	0.63636	0.	524.07
20269	21.598	0.72727	5.e-002	7.1459
20270	21.875	0.72727	0.	467.35
20271	21.783	0.63636	0.	485.06
20272	21.783	0.72727	5.e-002	7.1383
20273	22.06	0.72727	0.	429.07
20274	21.968	0.63636	0.	446.33
20275	21.968	0.72727	5.e-002	7.1331
20276	22.245	0.72727	0.	391.18
20277	22.152	0.63636	0.	407.91
20278	22.152	0.72727	5.e-002	7.1309
20279	22.429	0.72727	0.	353.76
20280	22.337	0.63636	0.	369.87
20281	22.337	0.72727	5.e-002	7.1324
20282	22.614	0.72727	0.	316.93
20283	22.522	0.63636	0.	332.28
20284	22.522	0.72727	5.e-002	7.1385
20285	22.799	0.72727	0.	280.87
20286	22.707	0.63636	0.	295.28
20287	22.707	0.72727	5.e-002	7.151
20288	22.984	0.72727	0.	245.84
20289	22.891	0.63636	0.	259.05
20290	22.891	0.72727	5.e-002	7.1726
20291	23.169	0.72727	0.	212.28
20292	23.076	0.63636	0.	223.91
20293	23.076	0.72727	5.e-002	7.2082
20294	23.353	0.72727	0.	180.81
20295	23.261	0.63636	0.	190.37
20296	23.261	0.72727	5.e-002	7.2661
20297	23.538	0.72727	0.	152.48
20298	23.446	0.63636	0.	159.27
20299	23.446	0.72727	5.e-002	7.3603
20300	23.723	0.72727	0.	128.93
20301	23.63	0.63636	0.	132.05
20302	23.63	0.72727	5.e-002	7.5232
20303	23.815	0.63636	0.	111.08
20304	23.815	0.72727	5.e-002	7.9595
20305	23.908	0.72727	0.	111.37
20306	2.8438	0.54545	0.	2195.4
20307	2.7514	0.45455	0.	1867.2
20308	2.7514	0.54545	5.e-002	135.88
20309	2.6591	0.54545	0.	1748.4
20310	3.0286	0.54545	0.	2469.9
20311	2.9362	0.45455	0.	2078.9
20312	2.9362	0.54545	5.e-002	109.89
20313	3.2134	0.54545	0.	2879.9
20314	3.121	0.45455	0.	2518.8
20315	3.121	0.54545	5.e-002	99.247
20316	3.3981	0.54545	0.	3279.9
20317	3.3057	0.45455	0.	2967.7
20318	3.3057	0.54545	5.e-002	86.015
20319	3.5829	0.54545	0.	3627.7
20320	3.4905	0.45455	0.	3366.8
20321	3.4905	0.54545	5.e-002	72.131
20322	3.7677	0.54545	0.	3912.4
20323	3.6753	0.45455	0.	3700.1
20324	3.6753	0.54545	5.e-002	58.857
20325	3.9524	0.54545	0.	4136.
20326	3.8601	0.45455	0.	3967.4
20327	3.8601	0.54545	5.e-002	46.919
20328	4.1372	0.54545	0.	4305.4
20329	4.0448	0.45455	0.	4174.6
20330	4.0448	0.54545	5.e-002	36.587
20331	4.322	0.54545	0.	4428.9
20332	4.2296	0.45455	0.	4330.1
20333	4.2296	0.54545	5.e-002	27.878
20334	4.5068	0.54545	0.	4514.6
20335	4.4144	0.45455	0.	4442.4
20336	4.4144	0.54545	5.e-002	20.682
20337	4.6915	0.54545	0.	4569.7
20338	4.5991	0.45455	0.	4519.3
20339	4.5991	0.54545	5.e-002	14.845
20340	4.8763	0.54545	0.	4600.3
20341	4.7839	0.45455	0.	4567.7
20342	4.7839	0.54545	5.e-002	10.228
20343	5.0611	0.54545	0.	4611.5
20344	4.9687	0.45455	0.	4593.1
20345	4.9687	0.54545	5.e-002	6.7649
20346	5.2458	0.54545	0.	4607.5
20347	5.1534	0.45455	0.	4600.5
20348	5.1534	0.54545	5.e-002	4.5731
20349	5.4306	0.54545	0.	4591.5
20350	5.3382	0.45455	0.	4593.6
20351	5.3382	0.54545	5.e-002	3.9194
20352	5.6154	0.54545	0.	4566.4
20353	5.523	0.45455	0.	4575.5
20354	5.523	0.54545	5.e-002	4.4684
20355	5.8001	0.54545	0.	4534.1
20356	5.7078	0.45455	0.	4548.8
20357	5.7078	0.54545	5.e-002	5.4059
20358	5.9849	0.54545	0.	4496.4
20359	5.8925	0.45455	0.	4515.3
20360	5.8925	0.54545	5.e-002	6.3212
20361	6.1697	0.54545	0.	4454.5
20362	6.0773	0.45455	0.	4476.7
20363	6.0773	0.54545	5.e-002	7.1019
20364	6.3545	0.54545	0.	4409.5
20365	6.2621	0.45455	0.	4434.1
20366	6.2621	0.54545	5.e-002	7.734
20367	6.5392	0.54545	0.	4362.1
20368	6.4468	0.45455	0.	4388.5
20369	6.4468	0.54545	5.e-002	8.2314
20370	6.724	0.54545	0.	4312.9
20371	6.6316	0.45455	0.	4340.7
20372	6.6316	0.54545	5.e-002	8.6145
20373	6.9088	0.54545	0.	4262.4
20374	6.8164	0.45455	0.	4291.2
20375	6.8164	0.54545	5.e-002	8.9039
20376	7.0935	0.54545	0.	4211.
20377	7.0011	0.45455	0.	4240.4
20378	7.0011	0.54545	5.e-002	9.1177
20379	7.2783	0.54545	0.	4158.9
20380	7.1859	0.45455	0.	4188.7
20381	7.1859	0.54545	5.e-002	9.2711
20382	7.4631	0.54545	0.	4106.3
20383	7.3707	0.45455	0.	4136.4
20384	7.3707	0.54545	5.e-002	9.3769
20385	7.6478	0.54545	0.	4053.5
20386	7.5555	0.45455	0.	4083.7
20387	7.5555	0.54545	5.e-002	9.4454
20388	7.8326	0.54545	0.	4000.5
20389	7.7402	0.45455	0.	4030.7
20390	7.7402	0.54545	5.e-002	9.4848
20391	8.0174	0.54545	0.	3947.4
20392	7.925	0.45455	0.	3977.5
20393	7.925	0.54545	5.e-002	9.5017
20394	8.2022	0.54545	0.	3894.2
20395	8.1098	0.45455	0.	3924.3
20396	8.1098	0.54545	5.e-002	9.5015
20397	8.3869	0.54545	0.	3841.2
20398	8.2945	0.45455	0.	3871.
20399	8.2945	0.54545	5.e-002	9.4881
20400	8.5717	0.54545	0.	3788.2
20401	8.4793	0.45455	0.	3817.9
20402	8.4793	0.54545	5.e-002	9.4649
20403	8.7565	0.54545	0.	3735.3
20404	8.6641	0.45455	0.	3764.7
20405	8.6641	0.54545	5.e-002	9.4345
20406	8.9412	0.54545	0.	3682.5
20407	8.8489	0.45455	0.	3711.8
20408	8.8489	0.54545	5.e-002	9.3987
20409	9.126	0.54545	0.	3629.9
20410	9.0336	0.45455	0.	3658.9
20411	9.0336	0.54545	5.e-002	9.3591
20412	9.3108	0.54545	0.	3577.4
20413	9.2184	0.45455	0.	3606.2
20414	9.2184	0.54545	5.e-002	9.3169
20415	9.4955	0.54545	0.	3525.1
20416	9.4032	0.45455	0.	3553.7
20417	9.4032	0.54545	5.e-002	9.273
20418	9.6803	0.54545	0.	3472.9
20419	9.5879	0.45455	0.	3501.3
20420	9.5879	0.54545	5.e-002	9.2281
20421	9.8651	0.54545	0.	3421.
20422	9.7727	0.45455	0.	3449.2
20423	9.7727	0.54545	5.e-002	9.1825
20424	10.05	0.54545	0.	3369.2
20425	9.9575	0.45455	0.	3397.2
20426	9.9575	0.54545	5.e-002	9.1369
20427	10.235	0.54545	0.	3317.6
20428	10.142	0.45455	0.	3345.4
20429	10.142	0.54545	5.e-002	9.0913
20430	10.419	0.54545	0.	3266.2
20431	10.327	0.45455	0.	3293.8
20432	10.327	0.54545	5.e-002	9.0459
20433	10.604	0.54545	0.	3215.
20434	10.512	0.45455	0.	3242.3
20435	10.512	0.54545	5.e-002	9.001
20436	10.789	0.54545	0.	3163.9
20437	10.697	0.45455	0.	3191.1
20438	10.697	0.54545	5.e-002	8.9567
20439	10.974	0.54545	0.	3113.1
20440	10.881	0.45455	0.	3140.1
20441	10.881	0.54545	5.e-002	8.9128
20442	11.158	0.54545	0.	3062.5
20443	11.066	0.45455	0.	3089.3
20444	11.066	0.54545	5.e-002	8.8694
20445	11.343	0.54545	0.	3012.
20446	11.251	0.45455	0.	3038.7
20447	11.251	0.54545	5.e-002	8.8267
20448	11.528	0.54545	0.	2961.7
20449	11.436	0.45455	0.	2988.2
20450	11.436	0.54545	5.e-002	8.7847
20451	11.713	0.54545	0.	2911.7
20452	11.62	0.45455	0.	2938.
20453	11.62	0.54545	5.e-002	8.7433
20454	11.898	0.54545	0.	2861.8
20455	11.805	0.45455	0.	2888.
20456	11.805	0.54545	5.e-002	8.7023
20457	12.082	0.54545	0.	2812.1
20458	11.99	0.45455	0.	2838.1
20459	11.99	0.54545	5.e-002	8.6618
20460	12.267	0.54545	0.	2762.6
20461	12.175	0.45455	0.	2788.5
20462	12.175	0.54545	5.e-002	8.6218
20463	12.452	0.54545	0.	2713.3
20464	12.359	0.45455	0.	2739.1
20465	12.359	0.54545	5.e-002	8.5825
20466	12.637	0.54545	0.	2664.2
20467	12.544	0.45455	0.	2689.8
20468	12.544	0.54545	5.e-002	8.5436
20469	12.821	0.54545	0.	2615.3
20470	12.729	0.45455	0.	2640.8
20471	12.729	0.54545	5.e-002	8.5051
20472	13.006	0.54545	0.	2566.6
20473	12.914	0.45455	0.	2592.
20474	12.914	0.54545	5.e-002	8.4668
20475	13.191	0.54545	0.	2518.1
20476	13.099	0.45455	0.	2543.3
20477	13.099	0.54545	5.e-002	8.429
20478	13.376	0.54545	0.	2469.8
20479	13.283	0.45455	0.	2494.9
20480	13.283	0.54545	5.e-002	8.3918
20481	13.56	0.54545	0.	2421.7
20482	13.468	0.45455	0.	2446.7
20483	13.468	0.54545	5.e-002	8.3548
20484	13.745	0.54545	0.	2373.8
20485	13.653	0.45455	0.	2398.6
20486	13.653	0.54545	5.e-002	8.3181
20487	13.93	0.54545	0.	2326.1
20488	13.838	0.45455	0.	2350.8
20489	13.838	0.54545	5.e-002	8.2816
20490	14.115	0.54545	0.	2278.6
20491	14.022	0.45455	0.	2303.2
20492	14.022	0.54545	5.e-002	8.2454
20493	14.3	0.54545	0.	2231.3
20494	14.207	0.45455	0.	2255.8
20495	14.207	0.54545	5.e-002	8.2097
20496	14.484	0.54545	0.	2184.2
20497	14.392	0.45455	0.	2208.5
20498	14.392	0.54545	5.e-002	8.1742
20499	14.669	0.54545	0.	2137.3
20500	14.577	0.45455	0.	2161.5
20501	14.577	0.54545	5.e-002	8.1389
20502	14.854	0.54545	0.	2090.6
20503	14.761	0.45455	0.	2114.7
20504	14.761	0.54545	5.e-002	8.1038
20505	15.039	0.54545	0.	2044.1
20506	14.946	0.45455	0.	2068.1
20507	14.946	0.54545	5.e-002	8.069
20508	15.223	0.54545	0.	1997.8
20509	15.131	0.45455	0.	2021.7
20510	15.131	0.54545	5.e-002	8.0346
20511	15.408	0.54545	0.	1951.7
20512	15.316	0.45455	0.	1975.5
20513	15.316	0.54545	5.e-002	8.0004
20514	15.593	0.54545	0.	1905.8
20515	15.501	0.45455	0.	1929.5
20516	15.501	0.54545	5.e-002	7.9664
20517	15.778	0.54545	0.	1860.1
20518	15.685	0.45455	0.	1883.6
20519	15.685	0.54545	5.e-002	7.9325
20520	15.963	0.54545	0.	1814.6
20521	15.87	0.45455	0.	1838.
20522	15.87	0.54545	5.e-002	7.8991
20523	16.147	0.54545	0.	1769.3
20524	16.055	0.45455	0.	1792.6
20525	16.055	0.54545	5.e-002	7.8659
20526	16.332	0.54545	0.	1724.2
20527	16.24	0.45455	0.	1747.4
20528	16.24	0.54545	5.e-002	7.8329
20529	16.517	0.54545	0.	1679.3
20530	16.424	0.45455	0.	1702.4
20531	16.424	0.54545	5.e-002	7.8001
20532	16.702	0.54545	0.	1634.6
20533	16.609	0.45455	0.	1657.7
20534	16.609	0.54545	5.e-002	7.7677
20535	16.886	0.54545	0.	1590.1
20536	16.794	0.45455	0.	1613.1
20537	16.794	0.54545	5.e-002	7.7356
20538	17.071	0.54545	0.	1545.9
20539	16.979	0.45455	0.	1568.7
20540	16.979	0.54545	5.e-002	7.7039
20541	17.256	0.54545	0.	1501.8
20542	17.164	0.45455	0.	1524.5
20543	17.164	0.54545	5.e-002	7.6724
20544	17.441	0.54545	0.	1457.9
20545	17.348	0.45455	0.	1480.5
20546	17.348	0.54545	5.e-002	7.6413
20547	17.625	0.54545	0.	1414.2
20548	17.533	0.45455	0.	1436.7
20549	17.533	0.54545	5.e-002	7.6105
20550	17.81	0.54545	0.	1370.8
20551	17.718	0.45455	0.	1393.1
20552	17.718	0.54545	5.e-002	7.5802
20553	17.995	0.54545	0.	1327.5
20554	17.903	0.45455	0.	1349.7
20555	17.903	0.54545	5.e-002	7.5504
20556	18.18	0.54545	0.	1284.4
20557	18.087	0.45455	0.	1306.5
20558	18.087	0.54545	5.e-002	7.5209
20559	18.365	0.54545	0.	1241.6
20560	18.272	0.45455	0.	1263.6
20561	18.272	0.54545	5.e-002	7.4919
20562	18.549	0.54545	0.	1198.9
20563	18.457	0.45455	0.	1220.8
20564	18.457	0.54545	5.e-002	7.4635
20565	18.734	0.54545	0.	1156.4
20566	18.642	0.45455	0.	1178.2
20567	18.642	0.54545	5.e-002	7.4357
20568	18.919	0.54545	0.	1114.2
20569	18.826	0.45455	0.	1135.8
20570	18.826	0.54545	5.e-002	7.4085
20571	19.104	0.54545	0.	1072.1
20572	19.011	0.45455	0.	1093.5
20573	19.011	0.54545	5.e-002	7.3818
20574	19.288	0.54545	0.	1030.2
20575	19.196	0.45455	0.	1051.5
20576	19.196	0.54545	5.e-002	7.3559
20577	19.473	0.54545	0.	988.53
20578	19.381	0.45455	0.	1009.7
20579	19.381	0.54545	5.e-002	7.3307
20580	19.658	0.54545	0.	947.04
20581	19.566	0.45455	0.	968.05
20582	19.566	0.54545	5.e-002	7.3064
20583	19.843	0.54545	0.	905.74
20584	19.75	0.45455	0.	926.6
20585	19.75	0.54545	5.e-002	7.2829
20586	20.027	0.54545	0.	864.63
20587	19.935	0.45455	0.	885.33
20588	19.935	0.54545	5.e-002	7.2603
20589	20.212	0.54545	0.	823.71
20590	20.12	0.45455	0.	844.24
20591	20.12	0.54545	5.e-002	7.2387
20592	20.397	0.54545	0.	782.99
20593	20.305	0.45455	0.	803.33
20594	20.305	0.54545	5.e-002	7.2182
20595	20.582	0.54545	0.	742.45
20596	20.489	0.45455	0.	762.6
20597	20.489	0.54545	5.e-002	7.1988
20598	20.767	0.54545	0.	702.1
20599	20.674	0.45455	0.	722.05
20600	20.674	0.54545	5.e-002	7.1806
20601	20.951	0.54545	0.	661.94
20602	20.859	0.45455	0.	681.68
20603	20.859	0.54545	5.e-002	7.1637
20604	21.136	0.54545	0.	621.97
20605	21.044	0.45455	0.	641.49
20606	21.044	0.54545	5.e-002	7.1481
20607	21.321	0.54545	0.	582.2
20608	21.228	0.45455	0.	601.47
20609	21.228	0.54545	5.e-002	7.1339
20610	21.506	0.54545	0.	542.63
20611	21.413	0.45455	0.	561.63
20612	21.413	0.54545	5.e-002	7.1214
20613	21.69	0.54545	0.	503.29
20614	21.598	0.45455	0.	521.98
20615	21.598	0.54545	5.e-002	7.1105
20616	21.875	0.54545	0.	464.17
20617	21.783	0.45455	0.	482.53
20618	21.783	0.54545	5.e-002	7.1014
20619	22.06	0.54545	0.	425.32
20620	21.968	0.45455	0.	443.29
20621	21.968	0.54545	5.e-002	7.0944
20622	22.245	0.54545	0.	386.76
20623	22.152	0.45455	0.	404.28
20624	22.152	0.54545	5.e-002	7.0898
20625	22.429	0.54545	0.	348.56
20626	22.337	0.45455	0.	365.54
20627	22.337	0.54545	5.e-002	7.0879
20628	22.614	0.54545	0.	310.81
20629	22.522	0.45455	0.	327.12
20630	22.522	0.54545	5.e-002	7.0896
20631	22.799	0.54545	0.	273.64
20632	22.707	0.45455	0.	289.11
20633	22.707	0.54545	5.e-002	7.096
20634	22.984	0.54545	0.	237.28
20635	22.891	0.45455	0.	251.65
20636	22.891	0.54545	5.e-002	7.1095
20637	23.169	0.54545	0.	202.1
20638	23.076	0.45455	0.	214.97
20639	23.076	0.54545	5.e-002	7.1343
20640	23.353	0.54545	0.	168.75
20641	23.261	0.45455	0.	179.49
20642	23.261	0.54545	5.e-002	7.1794
20643	23.538	0.54545	0.	138.4
20644	23.446	0.45455	0.	145.98
20645	23.446	0.54545	5.e-002	7.2631
20646	23.723	0.54545	0.	113.06
20647	23.63	0.45455	0.	116.07
20648	23.63	0.54545	5.e-002	7.4323
20649	23.815	0.45455	0.	92.964
20650	23.815	0.54545	5.e-002	7.9524
20651	23.908	0.54545	0.	94.102
20652	2.8438	0.36364	0.	1667.2
20653	2.7514	0.27273	0.	1304.2
20654	2.7514	0.36364	5.e-002	127.35
20655	2.6591	0.36364	0.	1220.8
20656	3.0286	0.36364	0.	2095.5
20657	2.9362	0.27273	0.	1729.8
20658	2.9362	0.36364	5.e-002	108.57
20659	3.2134	0.36364	0.	2592.4
20660	3.121	0.27273	0.	2265.3
20661	3.121	0.36364	5.e-002	98.827
20662	3.3981	0.36364	0.	3047.1
20663	3.3057	0.27273	0.	2762.3
20664	3.3057	0.36364	5.e-002	86.572
20665	3.5829	0.36364	0.	3434.7
20666	3.4905	0.27273	0.	3192.4
20667	3.4905	0.36364	5.e-002	73.608
20668	3.7677	0.36364	0.	3752.2
20669	3.6753	0.27273	0.	3550.6
20670	3.6753	0.36364	5.e-002	60.929
20671	3.9524	0.36364	0.	4004.
20672	3.8601	0.27273	0.	3840.3
20673	3.8601	0.36364	5.e-002	49.208
20674	4.1372	0.36364	0.	4198.
20675	4.0448	0.27273	0.	4068.3
20676	4.0448	0.36364	5.e-002	38.8
20677	4.322	0.36364	0.	4342.8
20678	4.2296	0.27273	0.	4242.8
20679	4.2296	0.36364	5.e-002	29.824
20680	4.5068	0.36364	0.	4446.6
20681	4.4144	0.27273	0.	4372.
20682	4.4144	0.36364	5.e-002	22.251
20683	4.6915	0.36364	0.	4517.
20684	4.5991	0.27273	0.	4463.7
20685	4.5991	0.36364	5.e-002	15.971
20686	4.8763	0.36364	0.	4560.4
20687	4.7839	0.27273	0.	4524.7
20688	4.7839	0.36364	5.e-002	10.842
20689	5.0611	0.36364	0.	4582.1
20690	4.9687	0.27273	0.	4560.8
20691	4.9687	0.36364	5.e-002	6.7323
20692	5.2458	0.36364	0.	4586.6
20693	5.1534	0.27273	0.	4577.
20694	5.1534	0.36364	5.e-002	3.5916
20695	5.4306	0.36364	0.	4577.6
20696	5.3382	0.27273	0.	4577.4
20697	5.3382	0.36364	5.e-002	1.8836
20698	5.6154	0.36364	0.	4557.9
20699	5.523	0.27273	0.	4565.2
20700	5.523	0.36364	5.e-002	2.5777
20701	5.8001	0.36364	0.	4530.
20702	5.7078	0.27273	0.	4543.1
20703	5.7078	0.36364	5.e-002	3.9608
20704	5.9849	0.36364	0.	4495.6
20705	5.8925	0.27273	0.	4513.4
20706	5.8925	0.36364	5.e-002	5.1829
20707	6.1697	0.36364	0.	4456.3
20708	6.0773	0.27273	0.	4477.6
20709	6.0773	0.36364	5.e-002	6.1689
20710	6.3545	0.36364	0.	4413.2
20711	6.2621	0.27273	0.	4437.3
20712	6.2621	0.36364	5.e-002	6.9425
20713	6.5392	0.36364	0.	4367.2
20714	6.4468	0.27273	0.	4393.3
20715	6.4468	0.36364	5.e-002	7.5394
20716	6.724	0.36364	0.	4319.
20717	6.6316	0.27273	0.	4346.7
20718	6.6316	0.36364	5.e-002	7.9932
20719	6.9088	0.36364	0.	4269.2
20720	6.8164	0.27273	0.	4298.
20721	6.8164	0.36364	5.e-002	8.3327
20722	7.0935	0.36364	0.	4218.2
20723	7.0011	0.27273	0.	4247.8
20724	7.0011	0.36364	5.e-002	8.5814
20725	7.2783	0.36364	0.	4166.3
20726	7.1859	0.27273	0.	4196.5
20727	7.1859	0.36364	5.e-002	8.7588
20728	7.4631	0.36364	0.	4113.8
20729	7.3707	0.27273	0.	4144.3
20730	7.3707	0.36364	5.e-002	8.8804
20731	7.6478	0.36364	0.	4060.9
20732	7.5555	0.27273	0.	4091.6
20733	7.5555	0.36364	5.e-002	8.9586
20734	7.8326	0.36364	0.	4007.8
20735	7.7402	0.27273	0.	4038.6
20736	7.7402	0.36364	5.e-002	9.0033
20737	8.0174	0.36364	0.	3954.5
20738	7.925	0.27273	0.	3985.3
20739	7.925	0.36364	5.e-002	9.0222
20740	8.2022	0.36364	0.	3901.1
20741	8.1098	0.27273	0.	3931.8
20742	8.1098	0.36364	5.e-002	9.0217
20743	8.3869	0.36364	0.	3847.8
20744	8.2945	0.27273	0.	3878.4
20745	8.2945	0.36364	5.e-002	9.0066
20746	8.5717	0.36364	0.	3794.5
20747	8.4793	0.27273	0.	3824.9
20748	8.4793	0.36364	5.e-002	8.9805
20749	8.7565	0.36364	0.	3741.3
20750	8.6641	0.27273	0.	3771.6
20751	8.6641	0.36364	5.e-002	8.9465
20752	8.9412	0.36364	0.	3688.2
20753	8.8489	0.27273	0.	3718.3
20754	8.8489	0.36364	5.e-002	8.9068
20755	9.126	0.36364	0.	3635.3
20756	9.0336	0.27273	0.	3665.2
20757	9.0336	0.36364	5.e-002	8.8631
20758	9.3108	0.36364	0.	3582.5
20759	9.2184	0.27273	0.	3612.2
20760	9.2184	0.36364	5.e-002	8.8169
20761	9.4955	0.36364	0.	3530.
20762	9.4032	0.27273	0.	3559.5
20763	9.4032	0.36364	5.e-002	8.7691
20764	9.6803	0.36364	0.	3477.6
20765	9.5879	0.27273	0.	3506.9
20766	9.5879	0.36364	5.e-002	8.7204
20767	9.8651	0.36364	0.	3425.4
20768	9.7727	0.27273	0.	3454.5
20769	9.7727	0.36364	5.e-002	8.6714
20770	10.05	0.36364	0.	3373.4
20771	9.9575	0.27273	0.	3402.3
20772	9.9575	0.36364	5.e-002	8.6226
20773	10.235	0.36364	0.	3321.5
20774	10.142	0.27273	0.	3350.3
20775	10.142	0.36364	5.e-002	8.5741
20776	10.419	0.36364	0.	3269.9
20777	10.327	0.27273	0.	3298.5
20778	10.327	0.36364	5.e-002	8.5261
20779	10.604	0.36364	0.	3218.5
20780	10.512	0.27273	0.	3246.9
20781	10.512	0.36364	5.e-002	8.4791
20782	10.789	0.36364	0.	3167.3
20783	10.697	0.27273	0.	3195.5
20784	10.697	0.36364	5.e-002	8.4328
20785	10.974	0.36364	0.	3116.3
20786	10.881	0.27273	0.	3144.3
20787	10.881	0.36364	5.e-002	8.3873
20788	11.158	0.36364	0.	3065.5
20789	11.066	0.27273	0.	3093.4
20790	11.066	0.36364	5.e-002	8.3426
20791	11.343	0.36364	0.	3014.9
20792	11.251	0.27273	0.	3042.6
20793	11.251	0.36364	5.e-002	8.2988
20794	11.528	0.36364	0.	2964.5
20795	11.436	0.27273	0.	2992.1
20796	11.436	0.36364	5.e-002	8.256
20797	11.713	0.36364	0.	2914.3
20798	11.62	0.27273	0.	2941.7
20799	11.62	0.36364	5.e-002	8.214
20800	11.898	0.36364	0.	2864.3
20801	11.805	0.27273	0.	2891.6
20802	11.805	0.36364	5.e-002	8.1727
20803	12.082	0.36364	0.	2814.6
20804	11.99	0.27273	0.	2841.7
20805	11.99	0.36364	5.e-002	8.132
20806	12.267	0.36364	0.	2765.
20807	12.175	0.27273	0.	2792.
20808	12.175	0.36364	5.e-002	8.0922
20809	12.452	0.36364	0.	2715.6
20810	12.359	0.27273	0.	2742.5
20811	12.359	0.36364	5.e-002	8.0531
20812	12.637	0.36364	0.	2666.4
20813	12.544	0.27273	0.	2693.2
20814	12.544	0.36364	5.e-002	8.0147
20815	12.821	0.36364	0.	2617.5
20816	12.729	0.27273	0.	2644.1
20817	12.729	0.36364	5.e-002	7.9767
20818	13.006	0.36364	0.	2568.7
20819	12.914	0.27273	0.	2595.2
20820	12.914	0.36364	5.e-002	7.9393
20821	13.191	0.36364	0.	2520.2
20822	13.099	0.27273	0.	2546.6
20823	13.099	0.36364	5.e-002	7.9024
20824	13.376	0.36364	0.	2471.8
20825	13.283	0.27273	0.	2498.1
20826	13.283	0.36364	5.e-002	7.8662
20827	13.56	0.36364	0.	2423.7
20828	13.468	0.27273	0.	2449.8
20829	13.468	0.36364	5.e-002	7.8304
20830	13.745	0.36364	0.	2375.7
20831	13.653	0.27273	0.	2401.8
20832	13.653	0.36364	5.e-002	7.795
20833	13.93	0.36364	0.	2328.
20834	13.838	0.27273	0.	2353.9
20835	13.838	0.36364	5.e-002	7.7599
20836	14.115	0.36364	0.	2280.4
20837	14.022	0.27273	0.	2306.3
20838	14.022	0.36364	5.e-002	7.7253
20839	14.3	0.36364	0.	2233.1
20840	14.207	0.27273	0.	2258.8
20841	14.207	0.36364	5.e-002	7.6912
20842	14.484	0.36364	0.	2185.9
20843	14.392	0.27273	0.	2211.6
20844	14.392	0.36364	5.e-002	7.6575
20845	14.669	0.36364	0.	2139.
20846	14.577	0.27273	0.	2164.6
20847	14.577	0.36364	5.e-002	7.6241
20848	14.854	0.36364	0.	2092.3
20849	14.761	0.27273	0.	2117.8
20850	14.761	0.36364	5.e-002	7.5909
20851	15.039	0.36364	0.	2045.8
20852	14.946	0.27273	0.	2071.1
20853	14.946	0.36364	5.e-002	7.5581
20854	15.223	0.36364	0.	1999.4
20855	15.131	0.27273	0.	2024.7
20856	15.131	0.36364	5.e-002	7.5258
20857	15.408	0.36364	0.	1953.3
20858	15.316	0.27273	0.	1978.5
20859	15.316	0.36364	5.e-002	7.4939
20860	15.593	0.36364	0.	1907.4
20861	15.501	0.27273	0.	1932.5
20862	15.501	0.36364	5.e-002	7.4622
20863	15.778	0.36364	0.	1861.7
20864	15.685	0.27273	0.	1886.7
20865	15.685	0.36364	5.e-002	7.4307
20866	15.963	0.36364	0.	1816.2
20867	15.87	0.27273	0.	1841.1
20868	15.87	0.36364	5.e-002	7.3998
20869	16.147	0.36364	0.	1770.9
20870	16.055	0.27273	0.	1795.7
20871	16.055	0.36364	5.e-002	7.3692
20872	16.332	0.36364	0.	1725.8
20873	16.24	0.27273	0.	1750.5
20874	16.24	0.36364	5.e-002	7.3389
20875	16.517	0.36364	0.	1680.9
20876	16.424	0.27273	0.	1705.5
20877	16.424	0.36364	5.e-002	7.3089
20878	16.702	0.36364	0.	1636.2
20879	16.609	0.27273	0.	1660.7
20880	16.609	0.36364	5.e-002	7.2794
20881	16.886	0.36364	0.	1591.7
20882	16.794	0.27273	0.	1616.1
20883	16.794	0.36364	5.e-002	7.2504
20884	17.071	0.36364	0.	1547.4
20885	16.979	0.27273	0.	1571.7
20886	16.979	0.36364	5.e-002	7.2218
20887	17.256	0.36364	0.	1503.2
20888	17.164	0.27273	0.	1527.6
20889	17.164	0.36364	5.e-002	7.1935
20890	17.441	0.36364	0.	1459.3
20891	17.348	0.27273	0.	1483.6
20892	17.348	0.36364	5.e-002	7.1657
20893	17.625	0.36364	0.	1415.6
20894	17.533	0.27273	0.	1439.8
20895	17.533	0.36364	5.e-002	7.1385
20896	17.81	0.36364	0.	1372.1
20897	17.718	0.27273	0.	1396.2
20898	17.718	0.36364	5.e-002	7.1119
20899	17.995	0.36364	0.	1328.8
20900	17.903	0.27273	0.	1352.8
20901	17.903	0.36364	5.e-002	7.0858
20902	18.18	0.36364	0.	1285.7
20903	18.087	0.27273	0.	1309.6
20904	18.087	0.36364	5.e-002	7.0603
20905	18.365	0.36364	0.	1242.8
20906	18.272	0.27273	0.	1266.6
20907	18.272	0.36364	5.e-002	7.0355
20908	18.549	0.36364	0.	1200.1
20909	18.457	0.27273	0.	1223.7
20910	18.457	0.36364	5.e-002	7.0113
20911	18.734	0.36364	0.	1157.5
20912	18.642	0.27273	0.	1181.1
20913	18.642	0.36364	5.e-002	6.988
20914	18.919	0.36364	0.	1115.2
20915	18.826	0.27273	0.	1138.7
20916	18.826	0.36364	5.e-002	6.9656
20917	19.104	0.36364	0.	1073.1
20918	19.011	0.27273	0.	1096.4
20919	19.011	0.36364	5.e-002	6.9439
20920	19.288	0.36364	0.	1031.1
20921	19.196	0.27273	0.	1054.3
20922	19.196	0.36364	5.e-002	6.9231
20923	19.473	0.36364	0.	989.3
20924	19.381	0.27273	0.	1012.4
20925	19.381	0.36364	5.e-002	6.9034
20926	19.658	0.36364	0.	947.7
20927	19.566	0.27273	0.	970.73
20928	19.566	0.36364	5.e-002	6.8848
20929	19.843	0.36364	0.	906.27
20930	19.75	0.27273	0.	929.19
20931	19.75	0.36364	5.e-002	6.8674
20932	20.027	0.36364	0.	865.02
20933	19.935	0.27273	0.	887.82
20934	19.935	0.36364	5.e-002	6.8512
20935	20.212	0.36364	0.	823.95
20936	20.12	0.27273	0.	846.61
20937	20.12	0.36364	5.e-002	6.8363
20938	20.397	0.36364	0.	783.05
20939	20.305	0.27273	0.	805.57
20940	20.305	0.36364	5.e-002	6.8228
20941	20.582	0.36364	0.	742.32
20942	20.489	0.27273	0.	764.69
20943	20.489	0.36364	5.e-002	6.8109
20944	20.767	0.36364	0.	701.75
20945	20.674	0.27273	0.	723.97
20946	20.674	0.36364	5.e-002	6.8006
20947	20.951	0.36364	0.	661.35
20948	20.859	0.27273	0.	683.4
20949	20.859	0.36364	5.e-002	6.792
20950	21.136	0.36364	0.	621.11
20951	21.044	0.27273	0.	642.98
20952	21.044	0.36364	5.e-002	6.7852
20953	21.321	0.36364	0.	581.03
20954	21.228	0.27273	0.	602.7
20955	21.228	0.36364	5.e-002	6.7803
20956	21.506	0.36364	0.	541.12
20957	21.413	0.27273	0.	562.57
20958	21.413	0.36364	5.e-002	6.7775
20959	21.69	0.36364	0.	501.38
20960	21.598	0.27273	0.	522.58
20961	21.598	0.36364	5.e-002	6.7768
20962	21.875	0.36364	0.	461.82
20963	21.783	0.27273	0.	482.73
20964	21.783	0.36364	5.e-002	6.7784
20965	22.06	0.36364	0.	422.44
20966	21.968	0.27273	0.	443.03
20967	21.968	0.36364	5.e-002	6.7825
20968	22.245	0.36364	0.	383.26
20969	22.152	0.27273	0.	403.48
20970	22.152	0.36364	5.e-002	6.7894
20971	22.429	0.36364	0.	344.33
20972	22.337	0.27273	0.	364.1
20973	22.337	0.36364	5.e-002	6.7992
20974	22.614	0.36364	0.	305.69
20975	22.522	0.27273	0.	324.9
20976	22.522	0.36364	5.e-002	6.8126
20977	22.799	0.36364	0.	267.42
20978	22.707	0.27273	0.	285.93
20979	22.707	0.36364	5.e-002	6.8303
20980	22.984	0.36364	0.	229.66
20981	22.891	0.27273	0.	247.24
20982	22.891	0.36364	5.e-002	6.8538
20983	23.169	0.36364	0.	192.68
20984	23.076	0.27273	0.	208.96
20985	23.076	0.36364	5.e-002	6.8861
20986	23.353	0.36364	0.	156.96
20987	23.261	0.27273	0.	171.28
20988	23.261	0.36364	5.e-002	6.9333
20989	23.538	0.36364	0.	123.6
20990	23.446	0.27273	0.	134.67
20991	23.446	0.36364	5.e-002	7.0138
20992	23.723	0.36364	0.	95.104
20993	23.63	0.27273	0.	100.3
20994	23.63	0.36364	5.e-002	7.1979
20995	23.815	0.27273	0.	71.929
20996	23.815	0.36364	5.e-002	7.8555
20997	23.908	0.36364	0.	73.59
20998	2.8438	0.18182	0.	1311.5
20999	2.7514	0.18182	5.e-002	140.72
21000	2.7514	9.0909e-002	0.	837.31
21001	2.6591	0.18182	0.	742.13
21002	3.0286	0.18182	0.	1887.1
21003	2.9362	0.18182	5.e-002	125.29
21004	2.9362	9.0909e-002	0.	1468.4
21005	3.2134	0.18182	0.	2429.6
21006	3.121	0.18182	5.e-002	115.65
21007	3.121	9.0909e-002	0.	2062.
21008	3.3981	0.18182	0.	2904.
21009	3.3057	0.18182	5.e-002	103.81
21010	3.3057	9.0909e-002	0.	2587.9
21011	3.5829	0.18182	0.	3305.7
21012	3.4905	0.18182	5.e-002	90.597
21013	3.4905	9.0909e-002	0.	3039.7
21014	3.7677	0.18182	0.	3637.
21015	3.6753	0.18182	5.e-002	77.079
21016	3.6753	9.0909e-002	0.	3418.
21017	3.9524	0.18182	0.	3903.4
21018	3.8601	0.18182	5.e-002	64.094
21019	3.8601	9.0909e-002	0.	3727.
21020	4.1372	0.18182	0.	4112.3
21021	4.0448	0.18182	5.e-002	52.203
21022	4.0448	9.0909e-002	0.	3973.3
21023	4.322	0.18182	0.	4271.5
21024	4.2296	0.18182	5.e-002	41.7
21025	4.2296	9.0909e-002	0.	4164.5
21026	4.5068	0.18182	0.	4388.7
21027	4.4144	0.18182	5.e-002	32.676
21028	4.4144	9.0909e-002	0.	4308.6
21029	4.6915	0.18182	0.	4471.1
21030	4.5991	0.18182	5.e-002	25.09
21031	4.5991	9.0909e-002	0.	4413.4
21032	4.8763	0.18182	0.	4525.
21033	4.7839	0.18182	5.e-002	18.827
21034	4.7839	9.0909e-002	0.	4485.5
21035	5.0611	0.18182	0.	4555.7
21036	4.9687	0.18182	5.e-002	13.733
21037	4.9687	9.0909e-002	0.	4531.
21038	5.2458	0.18182	0.	4567.8
21039	5.1534	0.18182	5.e-002	9.6484
21040	5.1534	9.0909e-002	0.	4555.
21041	5.4306	0.18182	0.	4565.
21042	5.3382	0.18182	5.e-002	6.4206
21043	5.3382	9.0909e-002	0.	4561.7
21044	5.6154	0.18182	0.	4550.4
21045	5.523	0.18182	5.e-002	3.9168
21046	5.523	9.0909e-002	0.	4554.7
21047	5.8001	0.18182	0.	4526.6
21048	5.7078	0.18182	5.e-002	2.0493
21049	5.7078	9.0909e-002	0.	4536.7
21050	5.9849	0.18182	0.	4495.5
21051	5.8925	0.18182	5.e-002	0.93998
21052	5.8925	9.0909e-002	0.	4510.2
21053	6.1697	0.18182	0.	4458.7
21054	6.0773	0.18182	5.e-002	1.1422
21055	6.0773	9.0909e-002	0.	4477.
21056	6.3545	0.18182	0.	4417.5
21057	6.2621	0.18182	5.e-002	1.7777
21058	6.2621	9.0909e-002	0.	4438.5
21059	6.5392	0.18182	0.	4372.9
21060	6.4468	0.18182	5.e-002	2.2894
21061	6.4468	9.0909e-002	0.	4395.9
21062	6.724	0.18182	0.	4325.8
21063	6.6316	0.18182	5.e-002	2.6426
21064	6.6316	9.0909e-002	0.	4350.2
21065	6.9088	0.18182	0.	4276.7
21066	6.8164	0.18182	5.e-002	2.8604
21067	6.8164	9.0909e-002	0.	4302.2
21068	7.0935	0.18182	0.	4226.2
21069	7.0011	0.18182	5.e-002	2.9707
21070	7.0011	9.0909e-002	0.	4252.3
21071	7.2783	0.18182	0.	4174.6
21072	7.1859	0.18182	5.e-002	2.9979
21073	7.1859	9.0909e-002	0.	4201.1
21074	7.4631	0.18182	0.	4122.2
21075	7.3707	0.18182	5.e-002	2.9624
21076	7.3707	9.0909e-002	0.	4149.
21077	7.6478	0.18182	0.	4069.4
21078	7.5555	0.18182	5.e-002	2.8806
21079	7.5555	9.0909e-002	0.	4096.1
21080	7.8326	0.18182	0.	4016.2
21081	7.7402	0.18182	5.e-002	2.7656
21082	7.7402	9.0909e-002	0.	4042.8
21083	8.0174	0.18182	0.	3962.7
21084	7.925	0.18182	5.e-002	2.6278
21085	7.925	9.0909e-002	0.	3989.2
21086	8.2022	0.18182	0.	3909.2
21087	8.1098	0.18182	5.e-002	2.4752
21088	8.1098	9.0909e-002	0.	3935.4
21089	8.3869	0.18182	0.	3855.6
21090	8.2945	0.18182	5.e-002	2.3142
21091	8.2945	9.0909e-002	0.	3881.6
21092	8.5717	0.18182	0.	3802.1
21093	8.4793	0.18182	5.e-002	2.1494
21094	8.4793	9.0909e-002	0.	3827.7
21095	8.7565	0.18182	0.	3748.7
21096	8.6641	0.18182	5.e-002	1.9845
21097	8.6641	9.0909e-002	0.	3773.9
21098	8.9412	0.18182	0.	3695.4
21099	8.8489	0.18182	5.e-002	1.8221
21100	8.8489	9.0909e-002	0.	3720.2
21101	9.126	0.18182	0.	3642.2
21102	9.0336	0.18182	5.e-002	1.6642
21103	9.0336	9.0909e-002	0.	3666.7
21104	9.3108	0.18182	0.	3589.3
21105	9.2184	0.18182	5.e-002	1.5121
21106	9.2184	9.0909e-002	0.	3613.3
21107	9.4955	0.18182	0.	3536.5
21108	9.4032	0.18182	5.e-002	1.3668
21109	9.4032	9.0909e-002	0.	3560.1
21110	9.6803	0.18182	0.	3483.9
21111	9.5879	0.18182	5.e-002	1.2288
21112	9.5879	9.0909e-002	0.	3507.1
21113	9.8651	0.18182	0.	3431.5
21114	9.7727	0.18182	5.e-002	1.0984
21115	9.7727	9.0909e-002	0.	3454.3
21116	10.05	0.18182	0.	3379.3
21117	9.9575	0.18182	5.e-002	0.97582
21118	9.9575	9.0909e-002	0.	3401.7
21119	10.235	0.18182	0.	3327.3
21120	10.142	0.18182	5.e-002	0.8609
21121	10.142	9.0909e-002	0.	3349.4
21122	10.419	0.18182	0.	3275.5
21123	10.327	0.18182	5.e-002	0.75343
21124	10.327	9.0909e-002	0.	3297.3
21125	10.604	0.18182	0.	3224.
21126	10.512	0.18182	5.e-002	0.65344
21127	10.512	9.0909e-002	0.	3245.4
21128	10.789	0.18182	0.	3172.6
21129	10.697	0.18182	5.e-002	0.56055
21130	10.697	9.0909e-002	0.	3193.7
21131	10.974	0.18182	0.	3121.5
21132	10.881	0.18182	5.e-002	0.47423
21133	10.881	9.0909e-002	0.	3142.2
21134	11.158	0.18182	0.	3070.6
21135	11.066	0.18182	5.e-002	0.39425
21136	11.066	9.0909e-002	0.	3091.
21137	11.343	0.18182	0.	3019.9
21138	11.251	0.18182	5.e-002	0.32039
21139	11.251	9.0909e-002	0.	3040.
21140	11.528	0.18182	0.	2969.4
21141	11.436	0.18182	5.e-002	0.2524
21142	11.436	9.0909e-002	0.	2989.2
21143	11.713	0.18182	0.	2919.2
21144	11.62	0.18182	5.e-002	0.1898
21145	11.62	9.0909e-002	0.	2938.6
21146	11.898	0.18182	0.	2869.1
21147	11.805	0.18182	5.e-002	0.13214
21148	11.805	9.0909e-002	0.	2888.3
21149	12.082	0.18182	0.	2819.3
21150	11.99	0.18182	5.e-002	7.9309e-002
21151	11.99	9.0909e-002	0.	2838.2
21152	12.267	0.18182	0.	2769.6
21153	12.175	0.18182	5.e-002	3.1779e-002
21154	12.175	9.0909e-002	0.	2788.2
21155	12.452	0.18182	0.	2720.2
21156	12.359	0.18182	5.e-002	1.7983e-002
21157	12.359	9.0909e-002	0.	2738.6
21158	12.637	0.18182	0.	2671.
21159	12.544	0.18182	5.e-002	5.6034e-002
21160	12.544	9.0909e-002	0.	2689.1
21161	12.821	0.18182	0.	2622.
21162	12.729	0.18182	5.e-002	9.2721e-002
21163	12.729	9.0909e-002	0.	2639.8
21164	13.006	0.18182	0.	2573.2
21165	12.914	0.18182	5.e-002	0.12634
21166	12.914	9.0909e-002	0.	2590.8
21167	13.191	0.18182	0.	2524.6
21168	13.099	0.18182	5.e-002	0.15684
21169	13.099	9.0909e-002	0.	2541.9
21170	13.376	0.18182	0.	2476.3
21171	13.283	0.18182	5.e-002	0.1843
21172	13.283	9.0909e-002	0.	2493.3
21173	13.56	0.18182	0.	2428.1
21174	13.468	0.18182	5.e-002	0.20906
21175	13.468	9.0909e-002	0.	2444.9
21176	13.745	0.18182	0.	2380.2
21177	13.653	0.18182	5.e-002	0.2314
21178	13.653	9.0909e-002	0.	2396.7
21179	13.93	0.18182	0.	2332.4
21180	13.838	0.18182	5.e-002	0.25139
21181	13.838	9.0909e-002	0.	2348.7
21182	14.115	0.18182	0.	2284.9
21183	14.022	0.18182	5.e-002	0.2691
21184	14.022	9.0909e-002	0.	2300.9
21185	14.3	0.18182	0.	2237.6
21186	14.207	0.18182	5.e-002	0.28461
21187	14.207	9.0909e-002	0.	2253.4
21188	14.484	0.18182	0.	2190.4
21189	14.392	0.18182	5.e-002	0.29817
21190	14.392	9.0909e-002	0.	2206.
21191	14.669	0.18182	0.	2143.5
21192	14.577	0.18182	5.e-002	0.31001
21193	14.577	9.0909e-002	0.	2158.8
21194	14.854	0.18182	0.	2096.8
21195	14.761	0.18182	5.e-002	0.32019
21196	14.761	9.0909e-002	0.	2111.9
21197	15.039	0.18182	0.	2050.3
21198	14.946	0.18182	5.e-002	0.32875
21199	14.946	9.0909e-002	0.	2065.1
21200	15.223	0.18182	0.	2004.
21201	15.131	0.18182	5.e-002	0.33575
21202	15.131	9.0909e-002	0.	2018.6
21203	15.408	0.18182	0.	1957.9
21204	15.316	0.18182	5.e-002	0.34142
21205	15.316	9.0909e-002	0.	1972.2
21206	15.593	0.18182	0.	1912.
21207	15.501	0.18182	5.e-002	0.34598
21208	15.501	9.0909e-002	0.	1926.1
21209	15.778	0.18182	0.	1866.3
21210	15.685	0.18182	5.e-002	0.34949
21211	15.685	9.0909e-002	0.	1880.2
21212	15.963	0.18182	0.	1820.8
21213	15.87	0.18182	5.e-002	0.35201
21214	15.87	9.0909e-002	0.	1834.4
21215	16.147	0.18182	0.	1775.6
21216	16.055	0.18182	5.e-002	0.35376
21217	16.055	9.0909e-002	0.	1788.9
21218	16.332	0.18182	0.	1730.5
21219	16.24	0.18182	5.e-002	0.35504
21220	16.24	9.0909e-002	0.	1743.6
21221	16.517	0.18182	0.	1685.6
21222	16.424	0.18182	5.e-002	0.35604
21223	16.424	9.0909e-002	0.	1698.5
21224	16.702	0.18182	0.	1640.9
21225	16.609	0.18182	5.e-002	0.357
21226	16.609	9.0909e-002	0.	1653.5
21227	16.886	0.18182	0.	1596.5
21228	16.794	0.18182	5.e-002	0.35821
21229	16.794	9.0909e-002	0.	1608.8
21230	17.071	0.18182	0.	1552.2
21231	16.979	0.18182	5.e-002	0.36012
21232	16.979	9.0909e-002	0.	1564.3
21233	17.256	0.18182	0.	1508.1
21234	17.164	0.18182	5.e-002	0.36322
21235	17.164	9.0909e-002	0.	1519.9
21236	17.441	0.18182	0.	1464.2
21237	17.348	0.18182	5.e-002	0.36798
21238	17.348	9.0909e-002	0.	1475.8
21239	17.625	0.18182	0.	1420.5
21240	17.533	0.18182	5.e-002	0.37495
21241	17.533	9.0909e-002	0.	1431.8
21242	17.81	0.18182	0.	1377.1
21243	17.718	0.18182	5.e-002	0.38474
21244	17.718	9.0909e-002	0.	1388.1
21245	17.995	0.18182	0.	1333.8
21246	17.903	0.18182	5.e-002	0.39798
21247	17.903	9.0909e-002	0.	1344.5
21248	18.18	0.18182	0.	1290.7
21249	18.087	0.18182	5.e-002	0.4153
21250	18.087	9.0909e-002	0.	1301.2
21251	18.365	0.18182	0.	1247.8
21252	18.272	0.18182	5.e-002	0.43727
21253	18.272	9.0909e-002	0.	1258.
21254	18.549	0.18182	0.	1205.
21255	18.457	0.18182	5.e-002	0.46439
21256	18.457	9.0909e-002	0.	1215.
21257	18.734	0.18182	0.	1162.5
21258	18.642	0.18182	5.e-002	0.49716
21259	18.642	9.0909e-002	0.	1172.2
21260	18.919	0.18182	0.	1120.1
21261	18.826	0.18182	5.e-002	0.53594
21262	18.826	9.0909e-002	0.	1129.5
21263	19.104	0.18182	0.	1078.
21264	19.011	0.18182	5.e-002	0.58107
21265	19.011	9.0909e-002	0.	1087.1
21266	19.288	0.18182	0.	1036.
21267	19.196	0.18182	5.e-002	0.63286
21268	19.196	9.0909e-002	0.	1044.8
21269	19.473	0.18182	0.	994.16
21270	19.381	0.18182	5.e-002	0.69163
21271	19.381	9.0909e-002	0.	1002.7
21272	19.658	0.18182	0.	952.51
21273	19.566	0.18182	5.e-002	0.75774
21274	19.566	9.0909e-002	0.	960.78
21275	19.843	0.18182	0.	911.03
21276	19.75	0.18182	5.e-002	0.83147
21277	19.75	9.0909e-002	0.	919.03
21278	20.027	0.18182	0.	869.71
21279	19.935	0.18182	5.e-002	0.91317
21280	19.935	9.0909e-002	0.	877.44
21281	20.212	0.18182	0.	828.54
21282	20.12	0.18182	5.e-002	1.0033
21283	20.12	9.0909e-002	0.	836.01
21284	20.397	0.18182	0.	787.54
21285	20.305	0.18182	5.e-002	1.1022
21286	20.305	9.0909e-002	0.	794.75
21287	20.582	0.18182	0.	746.68
21288	20.489	0.18182	5.e-002	1.2106
21289	20.489	9.0909e-002	0.	753.64
21290	20.767	0.18182	0.	705.96
21291	20.674	0.18182	5.e-002	1.329
21292	20.674	9.0909e-002	0.	712.69
21293	20.951	0.18182	0.	665.38
21294	20.859	0.18182	5.e-002	1.458
21295	20.859	9.0909e-002	0.	671.88
21296	21.136	0.18182	0.	624.94
21297	21.044	0.18182	5.e-002	1.5983
21298	21.044	9.0909e-002	0.	631.23
21299	21.321	0.18182	0.	584.62
21300	21.228	0.18182	5.e-002	1.7507
21301	21.228	9.0909e-002	0.	590.72
21302	21.506	0.18182	0.	544.43
21303	21.413	0.18182	5.e-002	1.9163
21304	21.413	9.0909e-002	0.	550.36
21305	21.69	0.18182	0.	504.36
21306	21.598	0.18182	5.e-002	2.0959
21307	21.598	9.0909e-002	0.	510.15
21308	21.875	0.18182	0.	464.4
21309	21.783	0.18182	5.e-002	2.2908
21310	21.783	9.0909e-002	0.	470.08
21311	22.06	0.18182	0.	424.56
21312	21.968	0.18182	5.e-002	2.5023
21313	21.968	9.0909e-002	0.	430.17
21314	22.245	0.18182	0.	384.84
21315	22.152	0.18182	5.e-002	2.7319
21316	22.152	9.0909e-002	0.	390.41
21317	22.429	0.18182	0.	345.24
21318	22.337	0.18182	5.e-002	2.9815
21319	22.337	9.0909e-002	0.	350.83
21320	22.614	0.18182	0.	305.77
21321	22.522	0.18182	5.e-002	3.2535
21322	22.522	9.0909e-002	0.	311.44
21323	22.799	0.18182	0.	266.45
21324	22.707	0.18182	5.e-002	3.5507
21325	22.707	9.0909e-002	0.	272.26
21326	22.984	0.18182	0.	227.32
21327	22.891	0.18182	5.e-002	3.8772
21328	22.891	9.0909e-002	0.	233.34
21329	23.169	0.18182	0.	188.47
21330	23.076	0.18182	5.e-002	4.2384
21331	23.076	9.0909e-002	0.	194.76
21332	23.353	0.18182	0.	150.04
21333	23.261	0.18182	5.e-002	4.644
21334	23.261	9.0909e-002	0.	156.61
21335	23.538	0.18182	0.	112.48
21336	23.446	0.18182	5.e-002	5.107
21337	23.446	9.0909e-002	0.	119.1
21338	23.723	0.18182	0.	77.587
21339	23.63	0.18182	5.e-002	5.6872
21340	23.63	9.0909e-002	0.	82.741
21341	23.815	0.18182	5.e-002	6.9274
21342	23.815	9.0909e-002	0.	49.
21343	23.908	0.18182	0.	48.637
21344	23.723	0.18182	0.1	77.587
21345	23.815	0.27273	0.1	71.929
21346	23.908	0.18182	0.1	48.637
21347	23.815	9.0909e-002	0.1	49.
21348	23.538	0.18182	0.1	112.48
21349	23.63	0.27273	0.1	100.3
21350	23.63	9.0909e-002	0.1	82.741
21351	23.353	0.18182	0.1	150.04
21352	23.446	0.27273	0.1	134.67
21353	23.446	9.0909e-002	0.1	119.1
21354	23.169	0.18182	0.1	188.47
21355	23.261	0.27273	0.1	171.28
21356	23.261	9.0909e-002	0.1	156.61
21357	22.984	0.18182	0.1	227.32
21358	23.076	0.27273	0.1	208.96
21359	23.076	9.0909e-002	0.1	194.76
21360	22.799	0.18182	0.1	266.45
21361	22.891	0.27273	0.1	247.24
21362	22.891	9.0909e-002	0.1	233.34
21363	22.614	0.18182	0.1	305.77
21364	22.707	0.27273	0.1	285.93
21365	22.707	9.0909e-002	0.1	272.26
21366	22.429	0.18182	0.1	345.24
21367	22.522	0.27273	0.1	324.9
21368	22.522	9.0909e-002	0.1	311.44
21369	22.245	0.18182	0.1	384.84
21370	22.337	0.27273	0.1	364.1
21371	22.337	9.0909e-002	0.1	350.83
21372	22.06	0.18182	0.1	424.56
21373	22.152	0.27273	0.1	403.48
21374	22.152	9.0909e-002	0.1	390.41
21375	21.875	0.18182	0.1	464.4
21376	21.968	0.27273	0.1	443.03
21377	21.968	9.0909e-002	0.1	430.17
21378	21.69	0.18182	0.1	504.36
21379	21.783	0.27273	0.1	482.73
21380	21.783	9.0909e-002	0.1	470.08
21381	21.506	0.18182	0.1	544.43
21382	21.598	0.27273	0.1	522.58
21383	21.598	9.0909e-002	0.1	510.15
21384	21.321	0.18182	0.1	584.62
21385	21.413	0.27273	0.1	562.57
21386	21.413	9.0909e-002	0.1	550.36
21387	21.136	0.18182	0.1	624.94
21388	21.228	0.27273	0.1	602.7
21389	21.228	9.0909e-002	0.1	590.72
21390	20.951	0.18182	0.1	665.38
21391	21.044	0.27273	0.1	642.98
21392	21.044	9.0909e-002	0.1	631.23
21393	20.767	0.18182	0.1	705.96
21394	20.859	0.27273	0.1	683.4
21395	20.859	9.0909e-002	0.1	671.88
21396	20.582	0.18182	0.1	746.68
21397	20.674	0.27273	0.1	723.97
21398	20.674	9.0909e-002	0.1	712.69
21399	20.397	0.18182	0.1	787.54
21400	20.489	0.27273	0.1	764.69
21401	20.489	9.0909e-002	0.1	753.64
21402	20.212	0.18182	0.1	828.54
21403	20.305	0.27273	0.1	805.57
21404	20.305	9.0909e-002	0.1	794.75
21405	20.027	0.18182	0.1	869.71
21406	20.12	0.27273	0.1	846.61
21407	20.12	9.0909e-002	0.1	836.01
21408	19.843	0.18182	0.1	911.03
21409	19.935	0.27273	0.1	887.82
21410	19.935	9.0909e-002	0.1	877.44
21411	19.658	0.18182	0.1	952.51
21412	19.75	0.27273	0.1	929.19
21413	19.75	9.0909e-002	0.1	919.03
21414	19.473	0.18182	0.1	994.16
21415	19.566	0.27273	0.1	970.73
21416	19.566	9.0909e-002	0.1	960.78
21417	19.288	0.18182	0.1	1036.
21418	19.381	0.27273	0.1	1012.4
21419	19.381	9.0909e-002	0.1	1002.7
21420	19.104	0.18182	0.1	1078.
21421	19.196	0.27273	0.1	1054.3
21422	19.196	9.0909e-002	0.1	1044.8
21423	18.919	0.18182	0.1	1120.1
21424	19.011	0.27273	0.1	1096.4
21425	19.011	9.0909e-002	0.1	1087.1
21426	18.734	0.18182	0.1	1162.5
21427	18.826	0.27273	0.1	1138.7
21428	18.826	9.0909e-002	0.1	1129.5
21429	18.549	0.18182	0.1	1205.
21430	18.642	0.27273	0.1	1181.1
21431	18.642	9.0909e-002	0.1	1172.2
21432	18.365	0.18182	0.1	1247.8
21433	18.457	0.27273	0.1	1223.7
21434	18.457	9.0909e-002	0.1	1215.
21435	18.18	0.18182	0.1	1290.7
21436	18.272	0.27273	0.1	1266.6
21437	18.272	9.0909e-002	0.1	1258.
21438	17.995	0.18182	0.1	1333.8
21439	18.087	0.27273	0.1	1309.6
21440	18.087	9.0909e-002	0.1	1301.2
21441	17.81	0.18182	0.1	1377.1
21442	17.903	0.27273	0.1	1352.8
21443	17.903	9.0909e-002	0.1	1344.5
21444	17.625	0.18182	0.1	1420.5
21445	17.718	0.27273	0.1	1396.2
21446	17.718	9.0909e-002	0.1	1388.1
21447	17.441	0.18182	0.1	1464.2
21448	17.533	0.27273	0.1	1439.8
21449	17.533	9.0909e-002	0.1	1431.8
21450	17.256	0.18182	0.1	1508.1
21451	17.348	0.27273	0.1	1483.6
21452	17.348	9.0909e-002	0.1	1475.8
21453	17.071	0.18182	0.1	1552.2
21454	17.164	0.27273	0.1	1527.6
21455	17.164	9.0909e-002	0.1	1519.9
21456	16.886	0.18182	0.1	1596.5
21457	16.979	0.27273	0.1	1571.7
21458	16.979	9.0909e-002	0.1	1564.3
21459	16.702	0.18182	0.1	1640.9
21460	16.794	0.27273	0.1	1616.1
21461	16.794	9.0909e-002	0.1	1608.8
21462	16.517	0.18182	0.1	1685.6
21463	16.609	0.27273	0.1	1660.7
21464	16.609	9.0909e-002	0.1	1653.5
21465	16.332	0.18182	0.1	1730.5
21466	16.424	0.27273	0.1	1705.5
21467	16.424	9.0909e-002	0.1	1698.5
21468	16.147	0.18182	0.1	1775.6
21469	16.24	0.27273	0.1	1750.5
21470	16.24	9.0909e-002	0.1	1743.6
21471	15.963	0.18182	0.1	1820.8
21472	16.055	0.27273	0.1	1795.7
21473	16.055	9.0909e-002	0.1	1788.9
21474	15.778	0.18182	0.1	1866.3
21475	15.87	0.27273	0.1	1841.1
21476	15.87	9.0909e-002	0.1	1834.4
21477	15.593	0.18182	0.1	1912.
21478	15.685	0.27273	0.1	1886.7
21479	15.685	9.0909e-002	0.1	1880.2
21480	15.408	0.18182	0.1	1957.9
21481	15.501	0.27273	0.1	1932.5
21482	15.501	9.0909e-002	0.1	1926.1
21483	15.223	0.18182	0.1	2004.
21484	15.316	0.27273	0.1	1978.5
21485	15.316	9.0909e-002	0.1	1972.2
21486	15.039	0.18182	0.1	2050.3
21487	15.131	0.27273	0.1	2024.7
21488	15.131	9.0909e-002	0.1	2018.6
21489	14.854	0.18182	0.1	2096.8
21490	14.946	0.27273	0.1	2071.1
21491	14.946	9.0909e-002	0.1	2065.1
21492	14.669	0.18182	0.1	2143.5
21493	14.761	0.27273	0.1	2117.8
21494	14.761	9.0909e-002	0.1	2111.9
21495	14.484	0.18182	0.1	2190.4
21496	14.577	0.27273	0.1	2164.6
21497	14.577	9.0909e-002	0.1	2158.8
21498	14.3	0.18182	0.1	2237.6
21499	14.392	0.27273	0.1	2211.6
21500	14.392	9.0909e-002	0.1	2206.
21501	14.115	0.18182	0.1	2284.9
21502	14.207	0.27273	0.1	2258.8
21503	14.207	9.0909e-002	0.1	2253.4
21504	13.93	0.18182	0.1	2332.4
21505	14.022	0.27273	0.1	2306.3
21506	14.022	9.0909e-002	0.1	2300.9
21507	13.745	0.18182	0.1	2380.2
21508	13.838	0.27273	0.1	2353.9
21509	13.838	9.0909e-002	0.1	2348.7
21510	13.56	0.18182	0.1	2428.1
21511	13.653	0.27273	0.1	2401.8
21512	13.653	9.0909e-002	0.1	2396.7
21513	13.376	0.18182	0.1	2476.3
21514	13.468	0.27273	0.1	2449.8
21515	13.468	9.0909e-002	0.1	2444.9
21516	13.191	0.18182	0.1	2524.6
21517	13.283	0.27273	0.1	2498.1
21518	13.283	9.0909e-002	0.1	2493.3
21519	13.006	0.18182	0.1	2573.2
21520	13.099	0.27273	0.1	2546.6
21521	13.099	9.0909e-002	0.1	2541.9
21522	12.821	0.18182	0.1	2622.
21523	12.914	0.27273	0.1	2595.2
21524	12.914	9.0909e-002	0.1	2590.8
21525	12.637	0.18182	0.1	2671.
21526	12.729	0.27273	0.1	2644.1
21527	12.729	9.0909e-002	0.1	2639.8
21528	12.452	0.18182	0.1	2720.2
21529	12.544	0.27273	0.1	2693.2
21530	12.544	9.0909e-002	0.1	2689.1
21531	12.267	0.18182	0.1	2769.6
21532	12.359	0.27273	0.1	2742.5
21533	12.359	9.0909e-002	0.1	2738.6
21534	12.082	0.18182	0.1	2819.3
21535	12.175	0.27273	0.1	2792.
21536	12.175	9.0909e-002	0.1	2788.2
21537	11.898	0.18182	0.1	2869.1
21538	11.99	0.27273	0.1	2841.7
21539	11.99	9.0909e-002	0.1	2838.2
21540	11.713	0.18182	0.1	2919.2
21541	11.805	0.27273	0.1	2891.6
21542	11.805	9.0909e-002	0.1	2888.3
21543	11.528	0.18182	0.1	2969.4
21544	11.62	0.27273	0.1	2941.7
21545	11.62	9.0909e-002	0.1	2938.6
21546	11.343	0.18182	0.1	3019.9
21547	11.436	0.27273	0.1	2992.1
21548	11.436	9.0909e-002	0.1	2989.2
21549	11.158	0.18182	0.1	3070.6
21550	11.251	0.27273	0.1	3042.6
21551	11.251	9.0909e-002	0.1	3040.
21552	10.974	0.18182	0.1	3121.5
21553	11.066	0.27273	0.1	3093.4
21554	11.066	9.0909e-002	0.1	3091.
21555	10.789	0.18182	0.1	3172.6
21556	10.881	0.27273	0.1	3144.3
21557	10.881	9.0909e-002	0.1	3142.2
21558	10.604	0.18182	0.1	3224.
21559	10.697	0.27273	0.1	3195.5
21560	10.697	9.0909e-002	0.1	3193.7
21561	10.419	0.18182	0.1	3275.5
21562	10.512	0.27273	0.1	3246.9
21563	10.512	9.0909e-002	0.1	3245.4
21564	10.235	0.18182	0.1	3327.3
21565	10.327	0.27273	0.1	3298.5
21566	10.327	9.0909e-002	0.1	3297.3
21567	10.05	0.18182	0.1	3379.3
21568	10.142	0.27273	0.1	3350.3
21569	10.142	9.0909e-002	0.1	3349.4
21570	9.8651	0.18182	0.1	3431.5
21571	9.9575	0.27273	0.1	3402.3
21572	9.9575	9.0909e-002	0.1	3401.7
21573	9.6803	0.18182	0.1	3483.9
21574	9.7727	0.27273	0.1	3454.5
21575	9.7727	9.0909e-002	0.1	3454.3
21576	9.4955	0.18182	0.1	3536.5
21577	9.5879	0.27273	0.1	3506.9
21578	9.5879	9.0909e-002	0.1	3507.1
21579	9.3108	0.18182	0.1	3589.3
21580	9.4032	0.27273	0.1	3559.5
21581	9.4032	9.0909e-002	0.1	3560.1
21582	9.126	0.18182	0.1	3642.2
21583	9.2184	0.27273	0.1	3612.2
21584	9.2184	9.0909e-002	0.1	3613.3
21585	8.9412	0.18182	0.1	3695.4
21586	9.0336	0.27273	0.1	3665.2
21587	9.0336	9.0909e-002	0.1	3666.7
21588	8.7565	0.18182	0.1	3748.7
21589	8.8489	0.27273	0.1	3718.3
21590	8.8489	9.0909e-002	0.1	3720.2
21591	8.5717	0.18182	0.1	3802.1
21592	8.6641	0.27273	0.1	3771.6
21593	8.6641	9.0909e-002	0.1	3773.9
21594	8.3869	0.18182	0.1	3855.6
21595	8.4793	0.27273	0.1	3824.9
21596	8.4793	9.0909e-002	0.1	3827.7
21597	8.2022	0.18182	0.1	3909.2
21598	8.2945	0.27273	0.1	3878.4
21599	8.2945	9.0909e-002	0.1	3881.6
21600	8.0174	0.18182	0.1	3962.7
21601	8.1098	0.27273	0.1	3931.8
21602	8.1098	9.0909e-002	0.1	3935.4
21603	7.8326	0.18182	0.1	4016.1
21604	7.925	0.27273	0.1	3985.3
21605	7.925	9.0909e-002	0.1	3989.2
21606	7.6478	0.18182	0.1	4069.4
21607	7.7402	0.27273	0.1	4038.6
21608	7.7402	9.0909e-002	0.1	4042.8
21609	7.4631	0.18182	0.1	4122.2
21610	7.5555	0.27273	0.1	4091.6
21611	7.5555	9.0909e-002	0.1	4096.1
21612	7.2783	0.18182	0.1	4174.6
21613	7.3707	0.27273	0.1	4144.3
21614	7.3707	9.0909e-002	0.1	4149.
21615	7.0935	0.18182	0.1	4226.2
21616	7.1859	0.27273	0.1	4196.5
21617	7.1859	9.0909e-002	0.1	4201.1
21618	6.9088	0.18182	0.1	4276.7
21619	7.0011	0.27273	0.1	4247.8
21620	7.0011	9.0909e-002	0.1	4252.3
21621	6.724	0.18182	0.1	4325.8
21622	6.8164	0.27273	0.1	4298.
21623	6.8164	9.0909e-002	0.1	4302.2
21624	6.5392	0.18182	0.1	4372.9
21625	6.6316	0.27273	0.1	4346.7
21626	6.6316	9.0909e-002	0.1	4350.2
21627	6.3545	0.18182	0.1	4417.5
21628	6.4468	0.27273	0.1	4393.3
21629	6.4468	9.0909e-002	0.1	4395.9
21630	6.1697	0.18182	0.1	4458.7
21631	6.2621	0.27273	0.1	4437.3
21632	6.2621	9.0909e-002	0.1	4438.5
21633	5.9849	0.18182	0.1	4495.5
21634	6.0773	0.27273	0.1	4477.6
21635	6.0773	9.0909e-002	0.1	4477.
21636	5.8001	0.18182	0.1	4526.6
21637	5.8925	0.27273	0.1	4513.4
21638	5.8925	9.0909e-002	0.1	4510.2
21639	5.6154	0.18182	0.1	4550.4
21640	5.7078	0.27273	0.1	4543.1
21641	5.7078	9.0909e-002	0.1	4536.7
21642	5.4306	0.18182	0.1	4565.
21643	5.523	0.27273	0.1	4565.2
21644	5.523	9.0909e-002	0.1	4554.7
21645	5.2458	0.18182	0.1	4567.8
21646	5.3382	0.27273	0.1	4577.4
21647	5.3382	9.0909e-002	0.1	4561.7
21648	5.0611	0.18182	0.1	4555.7
21649	5.1534	0.27273	0.1	4577.
21650	5.1534	9.0909e-002	0.1	4555.
21651	4.8763	0.18182	0.1	4525.
21652	4.9687	0.27273	0.1	4560.8
21653	4.9687	9.0909e-002	0.1	4531.
21654	4.6915	0.18182	0.1	4471.1
21655	4.7839	0.27273	0.1	4524.7
21656	4.7839	9.0909e-002	0.1	4485.5
21657	4.5068	0.18182	0.1	4388.7
21658	4.5991	0.27273	0.1	4463.7
21659	4.5991	9.0909e-002	0.1	4413.4
21660	4.322	0.18182	0.1	4271.5
21661	4.4144	0.27273	0.1	4372.
21662	4.4144	9.0909e-002	0.1	4308.6
21663	4.1372	0.18182	0.1	4112.3
21664	4.2296	0.27273	0.1	4242.8
21665	4.2296	9.0909e-002	0.1	4164.5
21666	3.9524	0.18182	0.1	3903.4
21667	4.0448	0.27273	0.1	4068.3
21668	4.0448	9.0909e-002	0.1	3973.3
21669	3.7677	0.18182	0.1	3637.
21670	3.8601	0.27273	0.1	3840.3
21671	3.8601	9.0909e-002	0.1	3727.
21672	3.5829	0.18182	0.1	3305.7
21673	3.6753	0.27273	0.1	3550.6
21674	3.6753	9.0909e-002	0.1	3418.
21675	3.3981	0.18182	0.1	2904.
21676	3.4905	0.27273	0.1	3192.4
21677	3.4905	9.0909e-002	0.1	3039.7
21678	3.2134	0.18182	0.1	2429.6
21679	3.3057	0.27273	0.1	2762.3
21680	3.3057	9.0909e-002	0.1	2587.9
21681	3.0286	0.18182	0.1	1887.1
21682	3.121	0.27273	0.1	2265.3
21683	3.121	9.0909e-002	0.1	2062.
21684	2.8438	0.18182	0.1	1311.5
21685	2.9362	0.27273	0.1	1729.8
21686	2.9362	9.0909e-002	0.1	1468.4
21687	2.7514	0.27273	0.1	1304.2
21688	2.6591	0.18182	0.1	742.13
21689	2.7514	9.0909e-002	0.1	837.31
21690	23.723	0.36364	0.1	95.104
21691	23.815	0.45455	0.1	92.964
21692	23.908	0.36364	0.1	73.59
21693	23.538	0.36364	0.1	123.6
21694	23.63	0.45455	0.1	116.07
21695	23.353	0.36364	0.1	156.96
21696	23.446	0.45455	0.1	145.98
21697	23.169	0.36364	0.1	192.68
21698	23.261	0.45455	0.1	179.49
21699	22.984	0.36364	0.1	229.66
21700	23.076	0.45455	0.1	214.97
21701	22.799	0.36364	0.1	267.42
21702	22.891	0.45455	0.1	251.65
21703	22.614	0.36364	0.1	305.69
21704	22.707	0.45455	0.1	289.11
21705	22.429	0.36364	0.1	344.33
21706	22.522	0.45455	0.1	327.12
21707	22.245	0.36364	0.1	383.26
21708	22.337	0.45455	0.1	365.54
21709	22.06	0.36364	0.1	422.44
21710	22.152	0.45455	0.1	404.28
21711	21.875	0.36364	0.1	461.82
21712	21.968	0.45455	0.1	443.29
21713	21.69	0.36364	0.1	501.38
21714	21.783	0.45455	0.1	482.53
21715	21.506	0.36364	0.1	541.12
21716	21.598	0.45455	0.1	521.98
21717	21.321	0.36364	0.1	581.03
21718	21.413	0.45455	0.1	561.63
21719	21.136	0.36364	0.1	621.11
21720	21.228	0.45455	0.1	601.47
21721	20.951	0.36364	0.1	661.35
21722	21.044	0.45455	0.1	641.49
21723	20.767	0.36364	0.1	701.75
21724	20.859	0.45455	0.1	681.68
21725	20.582	0.36364	0.1	742.32
21726	20.674	0.45455	0.1	722.06
21727	20.397	0.36364	0.1	783.05
21728	20.489	0.45455	0.1	762.61
21729	20.212	0.36364	0.1	823.95
21730	20.305	0.45455	0.1	803.33
21731	20.027	0.36364	0.1	865.03
21732	20.12	0.45455	0.1	844.24
21733	19.843	0.36364	0.1	906.27
21734	19.935	0.45455	0.1	885.33
21735	19.658	0.36364	0.1	947.7
21736	19.75	0.45455	0.1	926.6
21737	19.473	0.36364	0.1	989.3
21738	19.566	0.45455	0.1	968.05
21739	19.288	0.36364	0.1	1031.1
21740	19.381	0.45455	0.1	1009.7
21741	19.104	0.36364	0.1	1073.1
21742	19.196	0.45455	0.1	1051.5
21743	18.919	0.36364	0.1	1115.2
21744	19.011	0.45455	0.1	1093.5
21745	18.734	0.36364	0.1	1157.5
21746	18.826	0.45455	0.1	1135.8
21747	18.549	0.36364	0.1	1200.1
21748	18.642	0.45455	0.1	1178.2
21749	18.365	0.36364	0.1	1242.8
21750	18.457	0.45455	0.1	1220.8
21751	18.18	0.36364	0.1	1285.7
21752	18.272	0.45455	0.1	1263.6
21753	17.995	0.36364	0.1	1328.8
21754	18.087	0.45455	0.1	1306.5
21755	17.81	0.36364	0.1	1372.1
21756	17.903	0.45455	0.1	1349.7
21757	17.625	0.36364	0.1	1415.6
21758	17.718	0.45455	0.1	1393.1
21759	17.441	0.36364	0.1	1459.3
21760	17.533	0.45455	0.1	1436.7
21761	17.256	0.36364	0.1	1503.2
21762	17.348	0.45455	0.1	1480.5
21763	17.071	0.36364	0.1	1547.4
21764	17.164	0.45455	0.1	1524.5
21765	16.886	0.36364	0.1	1591.7
21766	16.979	0.45455	0.1	1568.7
21767	16.702	0.36364	0.1	1636.2
21768	16.794	0.45455	0.1	1613.1
21769	16.517	0.36364	0.1	1680.9
21770	16.609	0.45455	0.1	1657.7
21771	16.332	0.36364	0.1	1725.8
21772	16.424	0.45455	0.1	1702.4
21773	16.147	0.36364	0.1	1770.9
21774	16.24	0.45455	0.1	1747.4
21775	15.963	0.36364	0.1	1816.2
21776	16.055	0.45455	0.1	1792.6
21777	15.778	0.36364	0.1	1861.7
21778	15.87	0.45455	0.1	1838.
21779	15.593	0.36364	0.1	1907.4
21780	15.685	0.45455	0.1	1883.6
21781	15.408	0.36364	0.1	1953.3
21782	15.501	0.45455	0.1	1929.5
21783	15.223	0.36364	0.1	1999.4
21784	15.316	0.45455	0.1	1975.5
21785	15.039	0.36364	0.1	2045.8
21786	15.131	0.45455	0.1	2021.7
21787	14.854	0.36364	0.1	2092.3
21788	14.946	0.45455	0.1	2068.1
21789	14.669	0.36364	0.1	2139.
21790	14.761	0.45455	0.1	2114.7
21791	14.484	0.36364	0.1	2185.9
21792	14.577	0.45455	0.1	2161.5
21793	14.3	0.36364	0.1	2233.1
21794	14.392	0.45455	0.1	2208.5
21795	14.115	0.36364	0.1	2280.4
21796	14.207	0.45455	0.1	2255.8
21797	13.93	0.36364	0.1	2328.
21798	14.022	0.45455	0.1	2303.2
21799	13.745	0.36364	0.1	2375.7
21800	13.838	0.45455	0.1	2350.8
21801	13.56	0.36364	0.1	2423.7
21802	13.653	0.45455	0.1	2398.6
21803	13.376	0.36364	0.1	2471.8
21804	13.468	0.45455	0.1	2446.7
21805	13.191	0.36364	0.1	2520.2
21806	13.283	0.45455	0.1	2494.9
21807	13.006	0.36364	0.1	2568.7
21808	13.099	0.45455	0.1	2543.3
21809	12.821	0.36364	0.1	2617.5
21810	12.914	0.45455	0.1	2592.
21811	12.637	0.36364	0.1	2666.4
21812	12.729	0.45455	0.1	2640.8
21813	12.452	0.36364	0.1	2715.6
21814	12.544	0.45455	0.1	2689.8
21815	12.267	0.36364	0.1	2765.
21816	12.359	0.45455	0.1	2739.1
21817	12.082	0.36364	0.1	2814.6
21818	12.175	0.45455	0.1	2788.5
21819	11.898	0.36364	0.1	2864.3
21820	11.99	0.45455	0.1	2838.1
21821	11.713	0.36364	0.1	2914.3
21822	11.805	0.45455	0.1	2888.
21823	11.528	0.36364	0.1	2964.5
21824	11.62	0.45455	0.1	2938.
21825	11.343	0.36364	0.1	3014.9
21826	11.436	0.45455	0.1	2988.2
21827	11.158	0.36364	0.1	3065.5
21828	11.251	0.45455	0.1	3038.7
21829	10.974	0.36364	0.1	3116.3
21830	11.066	0.45455	0.1	3089.3
21831	10.789	0.36364	0.1	3167.3
21832	10.881	0.45455	0.1	3140.1
21833	10.604	0.36364	0.1	3218.5
21834	10.697	0.45455	0.1	3191.1
21835	10.419	0.36364	0.1	3269.9
21836	10.512	0.45455	0.1	3242.3
21837	10.235	0.36364	0.1	3321.5
21838	10.327	0.45455	0.1	3293.8
21839	10.05	0.36364	0.1	3373.4
21840	10.142	0.45455	0.1	3345.4
21841	9.8651	0.36364	0.1	3425.4
21842	9.9575	0.45455	0.1	3397.2
21843	9.6803	0.36364	0.1	3477.6
21844	9.7727	0.45455	0.1	3449.2
21845	9.4955	0.36364	0.1	3530.
21846	9.5879	0.45455	0.1	3501.3
21847	9.3108	0.36364	0.1	3582.5
21848	9.4032	0.45455	0.1	3553.7
21849	9.126	0.36364	0.1	3635.3
21850	9.2184	0.45455	0.1	3606.2
21851	8.9412	0.36364	0.1	3688.2
21852	9.0336	0.45455	0.1	3658.9
21853	8.7565	0.36364	0.1	3741.3
21854	8.8489	0.45455	0.1	3711.8
21855	8.5717	0.36364	0.1	3794.5
21856	8.6641	0.45455	0.1	3764.7
21857	8.3869	0.36364	0.1	3847.8
21858	8.4793	0.45455	0.1	3817.9
21859	8.2022	0.36364	0.1	3901.1
21860	8.2945	0.45455	0.1	3871.
21861	8.0174	0.36364	0.1	3954.5
21862	8.1098	0.45455	0.1	3924.3
21863	7.8326	0.36364	0.1	4007.8
21864	7.925	0.45455	0.1	3977.5
21865	7.6478	0.36364	0.1	4060.9
21866	7.7402	0.45455	0.1	4030.7
21867	7.4631	0.36364	0.1	4113.8
21868	7.5555	0.45455	0.1	4083.7
21869	7.2783	0.36364	0.1	4166.3
21870	7.3707	0.45455	0.1	4136.4
21871	7.0935	0.36364	0.1	4218.2
21872	7.1859	0.45455	0.1	4188.7
21873	6.9088	0.36364	0.1	4269.2
21874	7.0011	0.45455	0.1	4240.4
21875	6.724	0.36364	0.1	4319.
21876	6.8164	0.45455	0.1	4291.2
21877	6.5392	0.36364	0.1	4367.2
21878	6.6316	0.45455	0.1	4340.7
21879	6.3545	0.36364	0.1	4413.2
21880	6.4468	0.45455	0.1	4388.5
21881	6.1697	0.36364	0.1	4456.3
21882	6.2621	0.45455	0.1	4434.1
21883	5.9849	0.36364	0.1	4495.6
21884	6.0773	0.45455	0.1	4476.7
21885	5.8001	0.36364	0.1	4530.
21886	5.8925	0.45455	0.1	4515.3
21887	5.6154	0.36364	0.1	4557.9
21888	5.7078	0.45455	0.1	4548.8
21889	5.4306	0.36364	0.1	4577.6
21890	5.523	0.45455	0.1	4575.5
21891	5.2458	0.36364	0.1	4586.6
21892	5.3382	0.45455	0.1	4593.6
21893	5.0611	0.36364	0.1	4582.1
21894	5.1534	0.45455	0.1	4600.5
21895	4.8763	0.36364	0.1	4560.4
21896	4.9687	0.45455	0.1	4593.1
21897	4.6915	0.36364	0.1	4517.
21898	4.7839	0.45455	0.1	4567.7
21899	4.5068	0.36364	0.1	4446.6
21900	4.5991	0.45455	0.1	4519.3
21901	4.322	0.36364	0.1	4342.8
21902	4.4144	0.45455	0.1	4442.4
21903	4.1372	0.36364	0.1	4198.
21904	4.2296	0.45455	0.1	4330.1
21905	3.9524	0.36364	0.1	4004.
21906	4.0448	0.45455	0.1	4174.6
21907	3.7677	0.36364	0.1	3752.2
21908	3.8601	0.45455	0.1	3967.4
21909	3.5829	0.36364	0.1	3434.7
21910	3.6753	0.45455	0.1	3700.1
21911	3.3981	0.36364	0.1	3047.1
21912	3.4905	0.45455	0.1	3366.8
21913	3.2134	0.36364	0.1	2592.4
21914	3.3057	0.45455	0.1	2967.7
21915	3.0286	0.36364	0.1	2095.5
21916	3.121	0.45455	0.1	2518.8
21917	2.8438	0.36364	0.1	1667.2
21918	2.9362	0.45455	0.1	2078.9
21919	2.7514	0.45455	0.1	1867.2
21920	2.6591	0.36364	0.1	1220.8
21921	23.723	0.54545	0.1	113.06
21922	23.815	0.63636	0.1	111.08
21923	23.908	0.54545	0.1	94.102
21924	23.538	0.54545	0.1	138.4
21925	23.63	0.63636	0.1	132.05
21926	23.353	0.54545	0.1	168.75
21927	23.446	0.63636	0.1	159.27
21928	23.169	0.54545	0.1	202.1
21929	23.261	0.63636	0.1	190.37
21930	22.984	0.54545	0.1	237.28
21931	23.076	0.63636	0.1	223.91
21932	22.799	0.54545	0.1	273.64
21933	22.891	0.63636	0.1	259.05
21934	22.614	0.54545	0.1	310.81
21935	22.707	0.63636	0.1	295.28
21936	22.429	0.54545	0.1	348.56
21937	22.522	0.63636	0.1	332.28
21938	22.245	0.54545	0.1	386.76
21939	22.337	0.63636	0.1	369.87
21940	22.06	0.54545	0.1	425.32
21941	22.152	0.63636	0.1	407.91
21942	21.875	0.54545	0.1	464.17
21943	21.968	0.63636	0.1	446.33
21944	21.69	0.54545	0.1	503.29
21945	21.783	0.63636	0.1	485.06
21946	21.506	0.54545	0.1	542.63
21947	21.598	0.63636	0.1	524.07
21948	21.321	0.54545	0.1	582.2
21949	21.413	0.63636	0.1	563.33
21950	21.136	0.54545	0.1	621.97
21951	21.228	0.63636	0.1	602.82
21952	20.951	0.54545	0.1	661.94
21953	21.044	0.63636	0.1	642.53
21954	20.767	0.54545	0.1	702.1
21955	20.859	0.63636	0.1	682.46
21956	20.582	0.54545	0.1	742.45
21957	20.674	0.63636	0.1	722.59
21958	20.397	0.54545	0.1	782.99
21959	20.489	0.63636	0.1	762.92
21960	20.212	0.54545	0.1	823.71
21961	20.305	0.63636	0.1	803.46
21962	20.027	0.54545	0.1	864.63
21963	20.12	0.63636	0.1	844.19
21964	19.843	0.54545	0.1	905.74
21965	19.935	0.63636	0.1	885.12
21966	19.658	0.54545	0.1	947.04
21967	19.75	0.63636	0.1	926.25
21968	19.473	0.54545	0.1	988.53
21969	19.566	0.63636	0.1	967.58
21970	19.288	0.54545	0.1	1030.2
21971	19.381	0.63636	0.1	1009.1
21972	19.104	0.54545	0.1	1072.1
21973	19.196	0.63636	0.1	1050.8
21974	18.919	0.54545	0.1	1114.2
21975	19.011	0.63636	0.1	1092.8
21976	18.734	0.54545	0.1	1156.4
21977	18.826	0.63636	0.1	1134.9
21978	18.549	0.54545	0.1	1198.9
21979	18.642	0.63636	0.1	1177.2
21980	18.365	0.54545	0.1	1241.6
21981	18.457	0.63636	0.1	1219.8
21982	18.18	0.54545	0.1	1284.4
21983	18.272	0.63636	0.1	1262.5
21984	17.995	0.54545	0.1	1327.5
21985	18.087	0.63636	0.1	1305.4
21986	17.81	0.54545	0.1	1370.8
21987	17.903	0.63636	0.1	1348.6
21988	17.625	0.54545	0.1	1414.2
21989	17.718	0.63636	0.1	1391.9
21990	17.441	0.54545	0.1	1457.9
21991	17.533	0.63636	0.1	1435.5
21992	17.256	0.54545	0.1	1501.8
21993	17.348	0.63636	0.1	1479.2
21994	17.071	0.54545	0.1	1545.9
21995	17.164	0.63636	0.1	1523.2
21996	16.886	0.54545	0.1	1590.1
21997	16.979	0.63636	0.1	1567.3
21998	16.702	0.54545	0.1	1634.6
21999	16.794	0.63636	0.1	1611.7
22000	16.517	0.54545	0.1	1679.3
22001	16.609	0.63636	0.1	1656.3
22002	16.332	0.54545	0.1	1724.2
22003	16.424	0.63636	0.1	1701.
22004	16.147	0.54545	0.1	1769.3
22005	16.24	0.63636	0.1	1746.
22006	15.963	0.54545	0.1	1814.6
22007	16.055	0.63636	0.1	1791.2
22008	15.778	0.54545	0.1	1860.1
22009	15.87	0.63636	0.1	1836.6
22010	15.593	0.54545	0.1	1905.8
22011	15.685	0.63636	0.1	1882.2
22012	15.408	0.54545	0.1	1951.7
22013	15.501	0.63636	0.1	1928.
22014	15.223	0.54545	0.1	1997.8
22015	15.316	0.63636	0.1	1973.9
22016	15.039	0.54545	0.1	2044.1
22017	15.131	0.63636	0.1	2020.1
22018	14.854	0.54545	0.1	2090.6
22019	14.946	0.63636	0.1	2066.5
22020	14.669	0.54545	0.1	2137.3
22021	14.761	0.63636	0.1	2113.1
22022	14.484	0.54545	0.1	2184.2
22023	14.577	0.63636	0.1	2159.9
22024	14.3	0.54545	0.1	2231.3
22025	14.392	0.63636	0.1	2206.9
22026	14.115	0.54545	0.1	2278.6
22027	14.207	0.63636	0.1	2254.1
22028	13.93	0.54545	0.1	2326.1
22029	14.022	0.63636	0.1	2301.5
22030	13.745	0.54545	0.1	2373.8
22031	13.838	0.63636	0.1	2349.1
22032	13.56	0.54545	0.1	2421.7
22033	13.653	0.63636	0.1	2396.9
22034	13.376	0.54545	0.1	2469.8
22035	13.468	0.63636	0.1	2444.8
22036	13.191	0.54545	0.1	2518.1
22037	13.283	0.63636	0.1	2493.
22038	13.006	0.54545	0.1	2566.6
22039	13.099	0.63636	0.1	2541.4
22040	12.821	0.54545	0.1	2615.3
22041	12.914	0.63636	0.1	2590.
22042	12.637	0.54545	0.1	2664.2
22043	12.729	0.63636	0.1	2638.7
22044	12.452	0.54545	0.1	2713.3
22045	12.544	0.63636	0.1	2687.7
22046	12.267	0.54545	0.1	2762.6
22047	12.359	0.63636	0.1	2736.9
22048	12.082	0.54545	0.1	2812.1
22049	12.175	0.63636	0.1	2786.2
22050	11.898	0.54545	0.1	2861.8
22051	11.99	0.63636	0.1	2835.7
22052	11.713	0.54545	0.1	2911.7
22053	11.805	0.63636	0.1	2885.5
22054	11.528	0.54545	0.1	2961.7
22055	11.62	0.63636	0.1	2935.4
22056	11.343	0.54545	0.1	3012.
22057	11.436	0.63636	0.1	2985.5
22058	11.158	0.54545	0.1	3062.5
22059	11.251	0.63636	0.1	3035.8
22060	10.974	0.54545	0.1	3113.1
22061	11.066	0.63636	0.1	3086.3
22062	10.789	0.54545	0.1	3163.9
22063	10.881	0.63636	0.1	3136.9
22064	10.604	0.54545	0.1	3215.
22065	10.697	0.63636	0.1	3187.8
22066	10.419	0.54545	0.1	3266.2
22067	10.512	0.63636	0.1	3238.8
22068	10.235	0.54545	0.1	3317.6
22069	10.327	0.63636	0.1	3290.1
22070	10.05	0.54545	0.1	3369.2
22071	10.142	0.63636	0.1	3341.5
22072	9.8651	0.54545	0.1	3421.
22073	9.9575	0.63636	0.1	3393.
22074	9.6803	0.54545	0.1	3472.9
22075	9.7727	0.63636	0.1	3444.8
22076	9.4955	0.54545	0.1	3525.1
22077	9.5879	0.63636	0.1	3496.7
22078	9.3108	0.54545	0.1	3577.4
22079	9.4032	0.63636	0.1	3548.8
22080	9.126	0.54545	0.1	3629.9
22081	9.2184	0.63636	0.1	3601.
22082	8.9412	0.54545	0.1	3682.5
22083	9.0336	0.63636	0.1	3653.4
22084	8.7565	0.54545	0.1	3735.3
22085	8.8489	0.63636	0.1	3706.
22086	8.5717	0.54545	0.1	3788.2
22087	8.6641	0.63636	0.1	3758.7
22088	8.3869	0.54545	0.1	3841.2
22089	8.4793	0.63636	0.1	3811.5
22090	8.2022	0.54545	0.1	3894.2
22091	8.2945	0.63636	0.1	3864.4
22092	8.0174	0.54545	0.1	3947.4
22093	8.1098	0.63636	0.1	3917.4
22094	7.8326	0.54545	0.1	4000.5
22095	7.925	0.63636	0.1	3970.4
22096	7.6478	0.54545	0.1	4053.5
22097	7.7402	0.63636	0.1	4023.3
22098	7.4631	0.54545	0.1	4106.3
22099	7.5555	0.63636	0.1	4076.2
22100	7.2783	0.54545	0.1	4158.9
22101	7.3707	0.63636	0.1	4128.9
22102	7.0935	0.54545	0.1	4211.
22103	7.1859	0.63636	0.1	4181.3
22104	6.9088	0.54545	0.1	4262.4
22105	7.0011	0.63636	0.1	4233.3
22106	6.724	0.54545	0.1	4312.9
22107	6.8164	0.63636	0.1	4284.6
22108	6.5392	0.54545	0.1	4362.1
22109	6.6316	0.63636	0.1	4334.9
22110	6.3545	0.54545	0.1	4409.5
22111	6.4468	0.63636	0.1	4383.9
22112	6.1697	0.54545	0.1	4454.5
22113	6.2621	0.63636	0.1	4431.1
22114	5.9849	0.54545	0.1	4496.4
22115	6.0773	0.63636	0.1	4475.9
22116	5.8001	0.54545	0.1	4534.1
22117	5.8925	0.63636	0.1	4517.4
22118	5.6154	0.54545	0.1	4566.4
22119	5.7078	0.63636	0.1	4554.7
22120	5.4306	0.54545	0.1	4591.5
22121	5.523	0.63636	0.1	4586.4
22122	5.2458	0.54545	0.1	4607.5
22123	5.3382	0.63636	0.1	4610.8
22124	5.0611	0.54545	0.1	4611.5
22125	5.1534	0.63636	0.1	4625.7
22126	4.8763	0.54545	0.1	4600.3
22127	4.9687	0.63636	0.1	4628.3
22128	4.6915	0.54545	0.1	4569.7
22129	4.7839	0.63636	0.1	4615.2
22130	4.5068	0.54545	0.1	4514.6
22131	4.5991	0.63636	0.1	4582.1
22132	4.322	0.54545	0.1	4428.9
22133	4.4144	0.63636	0.1	4523.8
22134	4.1372	0.54545	0.1	4305.4
22135	4.2296	0.63636	0.1	4433.9
22136	3.9524	0.54545	0.1	4136.
22137	4.0448	0.63636	0.1	4305.4
22138	3.7677	0.54545	0.1	3912.4
22139	3.8601	0.63636	0.1	4130.3
22140	3.5829	0.54545	0.1	3627.7
22141	3.6753	0.63636	0.1	3901.5
22142	3.3981	0.54545	0.1	3279.9
22143	3.4905	0.63636	0.1	3614.7
22144	3.2134	0.54545	0.1	2879.9
22145	3.3057	0.63636	0.1	3274.6
22146	3.0286	0.54545	0.1	2469.9
22147	3.121	0.63636	0.1	2905.8
22148	2.8438	0.54545	0.1	2195.4
22149	2.9362	0.63636	0.1	2580.
22150	2.7514	0.63636	0.1	2531.8
22151	2.6591	0.54545	0.1	1748.4
22152	23.723	0.72727	0.1	128.93
22153	23.815	0.81818	0.1	126.57
22154	23.908	0.72727	0.1	111.37
22155	23.538	0.72727	0.1	152.48
22156	23.63	0.81818	0.1	146.38
22157	23.353	0.72727	0.1	180.81
22158	23.446	0.81818	0.1	171.94
22159	23.169	0.72727	0.1	212.28
22160	23.261	0.81818	0.1	201.31
22161	22.984	0.72727	0.1	245.84
22162	23.076	0.81818	0.1	233.27
22163	22.799	0.72727	0.1	280.87
22164	22.891	0.81818	0.1	267.04
22165	22.614	0.72727	0.1	316.93
22166	22.707	0.81818	0.1	302.1
22167	22.429	0.72727	0.1	353.76
22168	22.522	0.81818	0.1	338.12
22169	22.245	0.72727	0.1	391.18
22170	22.337	0.81818	0.1	374.87
22171	22.06	0.72727	0.1	429.07
22172	22.152	0.81818	0.1	412.2
22173	21.875	0.72727	0.1	467.35
22174	21.968	0.81818	0.1	449.99
22175	21.69	0.72727	0.1	505.97
22176	21.783	0.81818	0.1	488.18
22177	21.506	0.72727	0.1	544.88
22178	21.598	0.81818	0.1	526.71
22179	21.321	0.72727	0.1	584.06
22180	21.413	0.81818	0.1	565.55
22181	21.136	0.72727	0.1	623.49
22182	21.228	0.81818	0.1	604.68
22183	20.951	0.72727	0.1	663.15
22184	21.044	0.81818	0.1	644.06
22185	20.767	0.72727	0.1	703.04
22186	20.859	0.81818	0.1	683.69
22187	20.582	0.72727	0.1	743.15
22188	20.674	0.81818	0.1	723.56
22189	20.397	0.72727	0.1	783.48
22190	20.489	0.81818	0.1	763.65
22191	20.212	0.72727	0.1	824.01
22192	20.305	0.81818	0.1	803.98
22193	20.027	0.72727	0.1	864.75
22194	20.12	0.81818	0.1	844.52
22195	19.843	0.72727	0.1	905.7
22196	19.935	0.81818	0.1	885.28
22197	19.658	0.72727	0.1	946.86
22198	19.75	0.81818	0.1	926.26
22199	19.473	0.72727	0.1	988.23
22200	19.566	0.81818	0.1	967.45
22201	19.288	0.72727	0.1	1029.8
22202	19.381	0.81818	0.1	1008.9
22203	19.104	0.72727	0.1	1071.6
22204	19.196	0.81818	0.1	1050.5
22205	18.919	0.72727	0.1	1113.6
22206	19.011	0.81818	0.1	1092.3
22207	18.734	0.72727	0.1	1155.7
22208	18.826	0.81818	0.1	1134.3
22209	18.549	0.72727	0.1	1198.1
22210	18.642	0.81818	0.1	1176.6
22211	18.365	0.72727	0.1	1240.7
22212	18.457	0.81818	0.1	1219.
22213	18.18	0.72727	0.1	1283.5
22214	18.272	0.81818	0.1	1261.7
22215	17.995	0.72727	0.1	1326.6
22216	18.087	0.81818	0.1	1304.6
22217	17.81	0.72727	0.1	1369.8
22218	17.903	0.81818	0.1	1347.7
22219	17.625	0.72727	0.1	1413.2
22220	17.718	0.81818	0.1	1391.
22221	17.441	0.72727	0.1	1456.8
22222	17.533	0.81818	0.1	1434.5
22223	17.256	0.72727	0.1	1500.7
22224	17.348	0.81818	0.1	1478.2
22225	17.071	0.72727	0.1	1544.7
22226	17.164	0.81818	0.1	1522.1
22227	16.886	0.72727	0.1	1589.
22228	16.979	0.81818	0.1	1566.2
22229	16.702	0.72727	0.1	1633.4
22230	16.794	0.81818	0.1	1610.6
22231	16.517	0.72727	0.1	1678.1
22232	16.609	0.81818	0.1	1655.1
22233	16.332	0.72727	0.1	1722.9
22234	16.424	0.81818	0.1	1699.9
22235	16.147	0.72727	0.1	1768.
22236	16.24	0.81818	0.1	1744.8
22237	15.963	0.72727	0.1	1813.3
22238	16.055	0.81818	0.1	1790.
22239	15.778	0.72727	0.1	1858.7
22240	15.87	0.81818	0.1	1835.3
22241	15.593	0.72727	0.1	1904.4
22242	15.685	0.81818	0.1	1880.9
22243	15.408	0.72727	0.1	1950.3
22244	15.501	0.81818	0.1	1926.7
22245	15.223	0.72727	0.1	1996.4
22246	15.316	0.81818	0.1	1972.6
22247	15.039	0.72727	0.1	2042.6
22248	15.131	0.81818	0.1	2018.8
22249	14.854	0.72727	0.1	2089.1
22250	14.946	0.81818	0.1	2065.2
22251	14.669	0.72727	0.1	2135.8
22252	14.761	0.81818	0.1	2111.7
22253	14.484	0.72727	0.1	2182.7
22254	14.577	0.81818	0.1	2158.5
22255	14.3	0.72727	0.1	2229.7
22256	14.392	0.81818	0.1	2205.4
22257	14.115	0.72727	0.1	2277.
22258	14.207	0.81818	0.1	2252.6
22259	13.93	0.72727	0.1	2324.5
22260	14.022	0.81818	0.1	2300.
22261	13.745	0.72727	0.1	2372.2
22262	13.838	0.81818	0.1	2347.5
22263	13.56	0.72727	0.1	2420.
22264	13.653	0.81818	0.1	2395.3
22265	13.376	0.72727	0.1	2468.1
22266	13.468	0.81818	0.1	2443.2
22267	13.191	0.72727	0.1	2516.3
22268	13.283	0.81818	0.1	2491.3
22269	13.006	0.72727	0.1	2564.8
22270	13.099	0.81818	0.1	2539.7
22271	12.821	0.72727	0.1	2613.4
22272	12.914	0.81818	0.1	2588.2
22273	12.637	0.72727	0.1	2662.3
22274	12.729	0.81818	0.1	2636.9
22275	12.452	0.72727	0.1	2711.3
22276	12.544	0.81818	0.1	2685.8
22277	12.267	0.72727	0.1	2760.5
22278	12.359	0.81818	0.1	2734.8
22279	12.082	0.72727	0.1	2809.9
22280	12.175	0.81818	0.1	2784.1
22281	11.898	0.72727	0.1	2859.5
22282	11.99	0.81818	0.1	2833.5
22283	11.713	0.72727	0.1	2909.2
22284	11.805	0.81818	0.1	2883.2
22285	11.528	0.72727	0.1	2959.2
22286	11.62	0.81818	0.1	2933.
22287	11.343	0.72727	0.1	3009.3
22288	11.436	0.81818	0.1	2983.
22289	11.158	0.72727	0.1	3059.7
22290	11.251	0.81818	0.1	3033.1
22291	10.974	0.72727	0.1	3110.2
22292	11.066	0.81818	0.1	3083.5
22293	10.789	0.72727	0.1	3160.8
22294	10.881	0.81818	0.1	3134.
22295	10.604	0.72727	0.1	3211.7
22296	10.697	0.81818	0.1	3184.7
22297	10.419	0.72727	0.1	3262.7
22298	10.512	0.81818	0.1	3235.5
22299	10.235	0.72727	0.1	3313.9
22300	10.327	0.81818	0.1	3286.6
22301	10.05	0.72727	0.1	3365.3
22302	10.142	0.81818	0.1	3337.7
22303	9.8651	0.72727	0.1	3416.8
22304	9.9575	0.81818	0.1	3389.1
22305	9.6803	0.72727	0.1	3468.6
22306	9.7727	0.81818	0.1	3440.6
22307	9.4955	0.72727	0.1	3520.4
22308	9.5879	0.81818	0.1	3492.3
22309	9.3108	0.72727	0.1	3572.5
22310	9.4032	0.81818	0.1	3544.1
22311	9.126	0.72727	0.1	3624.7
22312	9.2184	0.81818	0.1	3596.1
22313	8.9412	0.72727	0.1	3677.
22314	9.0336	0.81818	0.1	3648.2
22315	8.7565	0.72727	0.1	3729.5
22316	8.8489	0.81818	0.1	3700.4
22317	8.5717	0.72727	0.1	3782.
22318	8.6641	0.81818	0.1	3752.8
22319	8.3869	0.72727	0.1	3834.8
22320	8.4793	0.81818	0.1	3805.3
22321	8.2022	0.72727	0.1	3887.5
22322	8.2945	0.81818	0.1	3857.9
22323	8.0174	0.72727	0.1	3940.4
22324	8.1098	0.81818	0.1	3910.6
22325	7.8326	0.72727	0.1	3993.3
22326	7.925	0.81818	0.1	3963.3
22327	7.6478	0.72727	0.1	4046.1
22328	7.7402	0.81818	0.1	4016.1
22329	7.4631	0.72727	0.1	4098.9
22330	7.5555	0.81818	0.1	4068.8
22331	7.2783	0.72727	0.1	4151.4
22332	7.3707	0.81818	0.1	4121.4
22333	7.0935	0.72727	0.1	4203.7
22334	7.1859	0.81818	0.1	4173.9
22335	6.9088	0.72727	0.1	4255.5
22336	7.0011	0.81818	0.1	4226.
22337	6.724	0.72727	0.1	4306.6
22338	6.8164	0.81818	0.1	4277.7
22339	6.5392	0.72727	0.1	4356.7
22340	6.6316	0.81818	0.1	4328.8
22341	6.3545	0.72727	0.1	4405.5
22342	6.4468	0.81818	0.1	4378.8
22343	6.1697	0.72727	0.1	4452.4
22344	6.2621	0.81818	0.1	4427.6
22345	5.9849	0.72727	0.1	4496.9
22346	6.0773	0.81818	0.1	4474.6
22347	5.8001	0.72727	0.1	4538.1
22348	5.8925	0.81818	0.1	4519.1
22349	5.6154	0.72727	0.1	4574.8
22350	5.7078	0.81818	0.1	4560.3
22351	5.4306	0.72727	0.1	4605.7
22352	5.523	0.81818	0.1	4597.1
22353	5.2458	0.72727	0.1	4629.1
22354	5.3382	0.81818	0.1	4628.2
22355	5.0611	0.72727	0.1	4642.5
22356	5.1534	0.81818	0.1	4651.6
22357	4.8763	0.72727	0.1	4643.1
22358	4.9687	0.81818	0.1	4665.2
22359	4.6915	0.72727	0.1	4627.3
22360	4.7839	0.81818	0.1	4666.
22361	4.5068	0.72727	0.1	4590.6
22362	4.5991	0.81818	0.1	4650.5
22363	4.322	0.72727	0.1	4527.6
22364	4.4144	0.81818	0.1	4614.2
22365	4.1372	0.72727	0.1	4432.
22366	4.2296	0.81818	0.1	4552.
22367	3.9524	0.72727	0.1	4296.6
22368	4.0448	0.81818	0.1	4458.1
22369	3.7677	0.72727	0.1	4114.4
22370	3.8601	0.81818	0.1	4326.2
22371	3.5829	0.72727	0.1	3880.2
22372	3.6753	0.81818	0.1	4150.9
22373	3.3981	0.72727	0.1	3595.
22374	3.4905	0.81818	0.1	3930.6
22375	3.2134	0.72727	0.1	3274.3
22376	3.3057	0.81818	0.1	3672.9
22377	3.0286	0.72727	0.1	2966.5
22378	3.121	0.81818	0.1	3404.8
22379	2.8438	0.72727	0.1	2826.3
22380	2.9362	0.81818	0.1	3194.9
22381	2.7514	0.81818	0.1	3287.5
22382	2.6591	0.72727	0.1	2324.9
22383	23.723	0.90909	0.1	142.8
22384	23.815	1.	0.1	139.94
22385	23.908	0.90909	0.1	126.14
22386	23.538	0.90909	0.1	165.23
22387	23.63	1.	0.1	159.02
22388	23.353	0.90909	0.1	192.18
22389	23.446	1.	0.1	183.48
22390	23.169	0.90909	0.1	222.24
22391	23.261	1.	0.1	211.62
22392	22.984	0.90909	0.1	254.5
22393	23.076	1.	0.1	242.36
22394	22.799	0.90909	0.1	288.36
22395	22.891	1.	0.1	275.
22396	22.614	0.90909	0.1	323.41
22397	22.707	1.	0.1	309.05
22398	22.429	0.90909	0.1	359.36
22399	22.522	1.	0.1	344.18
22400	22.245	0.90909	0.1	396.01
22401	22.337	1.	0.1	380.14
22402	22.06	0.90909	0.1	433.23
22403	22.152	1.	0.1	416.77
22404	21.875	0.90909	0.1	470.93
22405	21.968	1.	0.1	453.95
22406	21.69	0.90909	0.1	509.03
22407	21.783	1.	0.1	491.6
22408	21.506	0.90909	0.1	547.49
22409	21.598	1.	0.1	529.65
22410	21.321	0.90909	0.1	586.27
22411	21.413	1.	0.1	568.07
22412	21.136	0.90909	0.1	625.34
22413	21.228	1.	0.1	606.81
22414	20.951	0.90909	0.1	664.69
22415	21.044	1.	0.1	645.85
22416	20.767	0.90909	0.1	704.29
22417	20.859	1.	0.1	685.18
22418	20.582	0.90909	0.1	744.14
22419	20.674	1.	0.1	724.77
22420	20.397	0.90909	0.1	784.24
22421	20.489	1.	0.1	764.62
22422	20.212	0.90909	0.1	824.56
22423	20.305	1.	0.1	804.72
22424	20.027	0.90909	0.1	865.12
22425	20.12	1.	0.1	845.07
22426	19.843	0.90909	0.1	905.9
22427	19.935	1.	0.1	885.65
22428	19.658	0.90909	0.1	946.91
22429	19.75	1.	0.1	926.46
22430	19.473	0.90909	0.1	988.14
22431	19.566	1.	0.1	967.51
22432	19.288	0.90909	0.1	1029.6
22433	19.381	1.	0.1	1008.8
22434	19.104	0.90909	0.1	1071.3
22435	19.196	1.	0.1	1050.3
22436	18.919	0.90909	0.1	1113.1
22437	19.011	1.	0.1	1092.
22438	18.734	0.90909	0.1	1155.2
22439	18.826	1.	0.1	1133.9
22440	18.549	0.90909	0.1	1197.5
22441	18.642	1.	0.1	1176.1
22442	18.365	0.90909	0.1	1240.1
22443	18.457	1.	0.1	1218.5
22444	18.18	0.90909	0.1	1282.8
22445	18.272	1.	0.1	1261.1
22446	17.995	0.90909	0.1	1325.8
22447	18.087	1.	0.1	1303.9
22448	17.81	0.90909	0.1	1368.9
22449	17.903	1.	0.1	1346.9
22450	17.625	0.90909	0.1	1412.3
22451	17.718	1.	0.1	1390.2
22452	17.441	0.90909	0.1	1455.9
22453	17.533	1.	0.1	1433.6
22454	17.256	0.90909	0.1	1499.7
22455	17.348	1.	0.1	1477.3
22456	17.071	0.90909	0.1	1543.7
22457	17.164	1.	0.1	1521.2
22458	16.886	0.90909	0.1	1587.9
22459	16.979	1.	0.1	1565.3
22460	16.702	0.90909	0.1	1632.3
22461	16.794	1.	0.1	1609.6
22462	16.517	0.90909	0.1	1677.
22463	16.609	1.	0.1	1654.1
22464	16.332	0.90909	0.1	1721.8
22465	16.424	1.	0.1	1698.8
22466	16.147	0.90909	0.1	1766.8
22467	16.24	1.	0.1	1743.7
22468	15.963	0.90909	0.1	1812.1
22469	16.055	1.	0.1	1788.9
22470	15.778	0.90909	0.1	1857.5
22471	15.87	1.	0.1	1834.2
22472	15.593	0.90909	0.1	1903.2
22473	15.685	1.	0.1	1879.7
22474	15.408	0.90909	0.1	1949.
22475	15.501	1.	0.1	1925.5
22476	15.223	0.90909	0.1	1995.1
22477	15.316	1.	0.1	1971.4
22478	15.039	0.90909	0.1	2041.3
22479	15.131	1.	0.1	2017.6
22480	14.854	0.90909	0.1	2087.8
22481	14.946	1.	0.1	2063.9
22482	14.669	0.90909	0.1	2134.4
22483	14.761	1.	0.1	2110.4
22484	14.484	0.90909	0.1	2181.3
22485	14.577	1.	0.1	2157.2
22486	14.3	0.90909	0.1	2228.3
22487	14.392	1.	0.1	2204.1
22488	14.115	0.90909	0.1	2275.6
22489	14.207	1.	0.1	2251.2
22490	13.93	0.90909	0.1	2323.
22491	14.022	1.	0.1	2298.6
22492	13.745	0.90909	0.1	2370.7
22493	13.838	1.	0.1	2346.1
22494	13.56	0.90909	0.1	2418.5
22495	13.653	1.	0.1	2393.8
22496	13.376	0.90909	0.1	2466.5
22497	13.468	1.	0.1	2441.7
22498	13.191	0.90909	0.1	2514.7
22499	13.283	1.	0.1	2489.8
22500	13.006	0.90909	0.1	2563.1
22501	13.099	1.	0.1	2538.
22502	12.821	0.90909	0.1	2611.7
22503	12.914	1.	0.1	2586.5
22504	12.637	0.90909	0.1	2660.4
22505	12.729	1.	0.1	2635.1
22506	12.452	0.90909	0.1	2709.4
22507	12.544	1.	0.1	2684.
22508	12.267	0.90909	0.1	2758.5
22509	12.359	1.	0.1	2733.
22510	12.082	0.90909	0.1	2807.8
22511	12.175	1.	0.1	2782.1
22512	11.898	0.90909	0.1	2857.3
22513	11.99	1.	0.1	2831.5
22514	11.713	0.90909	0.1	2907.
22515	11.805	1.	0.1	2881.
22516	11.528	0.90909	0.1	2956.8
22517	11.62	1.	0.1	2930.7
22518	11.343	0.90909	0.1	3006.8
22519	11.436	1.	0.1	2980.6
22520	11.158	0.90909	0.1	3057.
22521	11.251	1.	0.1	3030.6
22522	10.974	0.90909	0.1	3107.4
22523	11.066	1.	0.1	3080.8
22524	10.789	0.90909	0.1	3157.9
22525	10.881	1.	0.1	3131.2
22526	10.604	0.90909	0.1	3208.6
22527	10.697	1.	0.1	3181.7
22528	10.419	0.90909	0.1	3259.4
22529	10.512	1.	0.1	3232.4
22530	10.235	0.90909	0.1	3310.4
22531	10.327	1.	0.1	3283.2
22532	10.05	0.90909	0.1	3361.6
22533	10.142	1.	0.1	3334.2
22534	9.8651	0.90909	0.1	3412.9
22535	9.9575	1.	0.1	3385.4
22536	9.6803	0.90909	0.1	3464.4
22537	9.7727	1.	0.1	3436.6
22538	9.4955	0.90909	0.1	3516.
22539	9.5879	1.	0.1	3488.1
22540	9.3108	0.90909	0.1	3567.7
22541	9.4032	1.	0.1	3539.6
22542	9.126	0.90909	0.1	3619.6
22543	9.2184	1.	0.1	3591.3
22544	8.9412	0.90909	0.1	3671.7
22545	9.0336	1.	0.1	3643.1
22546	8.7565	0.90909	0.1	3723.8
22547	8.8489	1.	0.1	3695.
22548	8.5717	0.90909	0.1	3776.1
22549	8.6641	1.	0.1	3747.1
22550	8.3869	0.90909	0.1	3828.5
22551	8.4793	1.	0.1	3799.3
22552	8.2022	0.90909	0.1	3881.
22553	8.2945	1.	0.1	3851.6
22554	8.0174	0.90909	0.1	3933.5
22555	8.1098	1.	0.1	3903.9
22556	7.8326	0.90909	0.1	3986.1
22557	7.925	1.	0.1	3956.4
22558	7.6478	0.90909	0.1	4038.8
22559	7.7402	1.	0.1	4008.8
22560	7.4631	0.90909	0.1	4091.4
22561	7.5555	1.	0.1	4061.4
22562	7.2783	0.90909	0.1	4143.9
22563	7.3707	1.	0.1	4113.9
22564	7.0935	0.90909	0.1	4196.3
22565	7.1859	1.	0.1	4166.3
22566	6.9088	0.90909	0.1	4248.3
22567	7.0011	1.	0.1	4218.6
22568	6.724	0.90909	0.1	4299.9
22569	6.8164	1.	0.1	4270.6
22570	6.5392	0.90909	0.1	4350.9
22571	6.6316	1.	0.1	4322.3
22572	6.3545	0.90909	0.1	4401.
22573	6.4468	1.	0.1	4373.3
22574	6.1697	0.90909	0.1	4449.8
22575	6.2621	1.	0.1	4423.5
22576	5.9849	0.90909	0.1	4496.8
22577	6.0773	1.	0.1	4472.6
22578	5.8001	0.90909	0.1	4541.3
22579	5.8925	1.	0.1	4520.
22580	5.6154	0.90909	0.1	4582.6
22581	5.7078	1.	0.1	4565.1
22582	5.4306	0.90909	0.1	4619.6
22583	5.523	1.	0.1	4607.1
22584	5.2458	0.90909	0.1	4650.7
22585	5.3382	1.	0.1	4645.1
22586	5.0611	0.90909	0.1	4674.3
22587	5.1534	1.	0.1	4677.6
22588	4.8763	0.90909	0.1	4687.9
22589	4.9687	1.	0.1	4702.9
22590	4.6915	0.90909	0.1	4688.8
22591	4.7839	1.	0.1	4718.9
22592	4.5068	0.90909	0.1	4673.3
22593	4.5991	1.	0.1	4722.9
22594	4.322	0.90909	0.1	4637.3
22595	4.4144	1.	0.1	4711.8
22596	4.1372	0.90909	0.1	4575.8
22597	4.2296	1.	0.1	4681.9
22598	3.9524	0.90909	0.1	4483.6
22599	4.0448	1.	0.1	4629.4
22600	3.7677	0.90909	0.1	4355.6
22601	3.8601	1.	0.1	4550.4
22602	3.5829	0.90909	0.1	4189.1
22603	3.6753	1.	0.1	4442.7
22604	3.3981	0.90909	0.1	3987.3
22605	3.4905	1.	0.1	4307.6
22606	3.2134	0.90909	0.1	3766.6
22607	3.3057	1.	0.1	4154.5
22608	3.0286	0.90909	0.1	3571.8
22609	3.121	1.	0.1	4008.2
22610	2.8438	0.90909	0.1	3560.5
22611	2.9362	1.	0.1	3925.7
22612	2.7514	1.	0.1	4167.4
22613	2.6591	0.90909	0.1	2976.6
22614	23.723	1.0909	0.1	154.92
22615	23.815	1.1818	0.1	151.52
22616	23.908	1.0909	0.1	138.9
22617	23.538	1.0909	0.1	176.57
22618	23.63	1.1818	0.1	170.11
22619	23.353	1.0909	0.1	202.55
22620	23.446	1.1818	0.1	193.8
22621	23.169	1.0909	0.1	231.57
22622	23.261	1.1818	0.1	221.04
22623	22.984	1.0909	0.1	262.81
22624	23.076	1.1818	0.1	250.86
22625	22.799	1.0909	0.1	295.71
22626	22.891	1.1818	0.1	282.6
22627	22.614	1.0909	0.1	329.88
22628	22.707	1.1818	0.1	315.81
22629	22.429	1.0909	0.1	365.03
22630	22.522	1.1818	0.1	350.15
22631	22.245	1.0909	0.1	400.98
22632	22.337	1.1818	0.1	385.4
22633	22.06	1.0909	0.1	437.57
22634	22.152	1.1818	0.1	421.4
22635	21.875	1.0909	0.1	474.7
22636	21.968	1.1818	0.1	458.
22637	21.69	1.0909	0.1	512.31
22638	21.783	1.1818	0.1	495.14
22639	21.506	1.0909	0.1	550.32
22640	21.598	1.1818	0.1	532.73
22641	21.321	1.0909	0.1	588.69
22642	21.413	1.1818	0.1	570.73
22643	21.136	1.0909	0.1	627.4
22644	21.228	1.1818	0.1	609.1
22645	20.951	1.0909	0.1	666.42
22646	21.044	1.1818	0.1	647.8
22647	20.767	1.0909	0.1	705.74
22648	20.859	1.1818	0.1	686.82
22649	20.582	1.0909	0.1	745.33
22650	20.674	1.1818	0.1	726.14
22651	20.397	1.0909	0.1	785.19
22652	20.489	1.1818	0.1	765.75
22653	20.212	1.0909	0.1	825.3
22654	20.305	1.1818	0.1	805.63
22655	20.027	1.0909	0.1	865.67
22656	20.12	1.1818	0.1	845.77
22657	19.843	1.0909	0.1	906.28
22658	19.935	1.1818	0.1	886.17
22659	19.658	1.0909	0.1	947.13
22660	19.75	1.1818	0.1	926.82
22661	19.473	1.0909	0.1	988.22
22662	19.566	1.1818	0.1	967.72
22663	19.288	1.0909	0.1	1029.5
22664	19.381	1.1818	0.1	1008.9
22665	19.104	1.0909	0.1	1071.1
22666	19.196	1.1818	0.1	1050.2
22667	18.919	1.0909	0.1	1112.9
22668	19.011	1.1818	0.1	1091.8
22669	18.734	1.0909	0.1	1154.9
22670	18.826	1.1818	0.1	1133.7
22671	18.549	1.0909	0.1	1197.1
22672	18.642	1.1818	0.1	1175.8
22673	18.365	1.0909	0.1	1239.6
22674	18.457	1.1818	0.1	1218.1
22675	18.18	1.0909	0.1	1282.2
22676	18.272	1.1818	0.1	1260.6
22677	17.995	1.0909	0.1	1325.1
22678	18.087	1.1818	0.1	1303.4
22679	17.81	1.0909	0.1	1368.2
22680	17.903	1.1818	0.1	1346.3
22681	17.625	1.0909	0.1	1411.6
22682	17.718	1.1818	0.1	1389.5
22683	17.441	1.0909	0.1	1455.1
22684	17.533	1.1818	0.1	1432.9
22685	17.256	1.0909	0.1	1498.9
22686	17.348	1.1818	0.1	1476.6
22687	17.071	1.0909	0.1	1542.8
22688	17.164	1.1818	0.1	1520.4
22689	16.886	1.0909	0.1	1587.
22690	16.979	1.1818	0.1	1564.5
22691	16.702	1.0909	0.1	1631.4
22692	16.794	1.1818	0.1	1608.7
22693	16.517	1.0909	0.1	1676.
22694	16.609	1.1818	0.1	1653.2
22695	16.332	1.0909	0.1	1720.8
22696	16.424	1.1818	0.1	1697.9
22697	16.147	1.0909	0.1	1765.8
22698	16.24	1.1818	0.1	1742.8
22699	15.963	1.0909	0.1	1811.
22700	16.055	1.1818	0.1	1787.9
22701	15.778	1.0909	0.1	1856.5
22702	15.87	1.1818	0.1	1833.2
22703	15.593	1.0909	0.1	1902.1
22704	15.685	1.1818	0.1	1878.7
22705	15.408	1.0909	0.1	1947.9
22706	15.501	1.1818	0.1	1924.4
22707	15.223	1.0909	0.1	1993.9
22708	15.316	1.1818	0.1	1970.3
22709	15.039	1.0909	0.1	2040.2
22710	15.131	1.1818	0.1	2016.5
22711	14.854	1.0909	0.1	2086.6
22712	14.946	1.1818	0.1	2062.8
22713	14.669	1.0909	0.1	2133.2
22714	14.761	1.1818	0.1	2109.3
22715	14.484	1.0909	0.1	2180.
22716	14.577	1.1818	0.1	2156.
22717	14.3	1.0909	0.1	2227.1
22718	14.392	1.1818	0.1	2202.9
22719	14.115	1.0909	0.1	2274.3
22720	14.207	1.1818	0.1	2250.
22721	13.93	1.0909	0.1	2321.7
22722	14.022	1.1818	0.1	2297.3
22723	13.745	1.0909	0.1	2369.3
22724	13.838	1.1818	0.1	2344.8
22725	13.56	1.0909	0.1	2417.
22726	13.653	1.1818	0.1	2392.4
22727	13.376	1.0909	0.1	2465.
22728	13.468	1.1818	0.1	2440.3
22729	13.191	1.0909	0.1	2513.2
22730	13.283	1.1818	0.1	2488.3
22731	13.006	1.0909	0.1	2561.5
22732	13.099	1.1818	0.1	2536.5
22733	12.821	1.0909	0.1	2610.
22734	12.914	1.1818	0.1	2584.9
22735	12.637	1.0909	0.1	2658.7
22736	12.729	1.1818	0.1	2633.5
22737	12.452	1.0909	0.1	2707.6
22738	12.544	1.1818	0.1	2682.3
22739	12.267	1.0909	0.1	2756.6
22740	12.359	1.1818	0.1	2731.2
22741	12.082	1.0909	0.1	2805.9
22742	12.175	1.1818	0.1	2780.3
22743	11.898	1.0909	0.1	2855.3
22744	11.99	1.1818	0.1	2829.6
22745	11.713	1.0909	0.1	2904.8
22746	11.805	1.1818	0.1	2879.
22747	11.528	1.0909	0.1	2954.6
22748	11.62	1.1818	0.1	2928.6
22749	11.343	1.0909	0.1	3004.5
22750	11.436	1.1818	0.1	2978.4
22751	11.158	1.0909	0.1	3054.5
22752	11.251	1.1818	0.1	3028.3
22753	10.974	1.0909	0.1	3104.7
22754	11.066	1.1818	0.1	3078.4
22755	10.789	1.0909	0.1	3155.1
22756	10.881	1.1818	0.1	3128.6
22757	10.604	1.0909	0.1	3205.6
22758	10.697	1.1818	0.1	3179.
22759	10.419	1.0909	0.1	3256.3
22760	10.512	1.1818	0.1	3229.5
22761	10.235	1.0909	0.1	3307.1
22762	10.327	1.1818	0.1	3280.1
22763	10.05	1.0909	0.1	3358.
22764	10.142	1.1818	0.1	3330.9
22765	9.8651	1.0909	0.1	3409.1
22766	9.9575	1.1818	0.1	3381.8
22767	9.6803	1.0909	0.1	3460.4
22768	9.7727	1.1818	0.1	3432.9
22769	9.4955	1.0909	0.1	3511.7
22770	9.5879	1.1818	0.1	3484.
22771	9.3108	1.0909	0.1	3563.2
22772	9.4032	1.1818	0.1	3535.3
22773	9.126	1.0909	0.1	3614.8
22774	9.2184	1.1818	0.1	3586.7
22775	8.9412	1.0909	0.1	3666.5
22776	9.0336	1.1818	0.1	3638.3
22777	8.7565	1.0909	0.1	3718.4
22778	8.8489	1.1818	0.1	3689.9
22779	8.5717	1.0909	0.1	3770.3
22780	8.6641	1.1818	0.1	3741.6
22781	8.3869	1.0909	0.1	3822.4
22782	8.4793	1.1818	0.1	3793.4
22783	8.2022	1.0909	0.1	3874.5
22784	8.2945	1.1818	0.1	3845.4
22785	8.0174	1.0909	0.1	3926.8
22786	8.1098	1.1818	0.1	3897.4
22787	7.8326	1.0909	0.1	3979.1
22788	7.925	1.1818	0.1	3949.5
22789	7.6478	1.0909	0.1	4031.5
22790	7.7402	1.1818	0.1	4001.7
22791	7.4631	1.0909	0.1	4083.9
22792	7.5555	1.1818	0.1	4054.
22793	7.2783	1.0909	0.1	4136.3
22794	7.3707	1.1818	0.1	4106.3
22795	7.0935	1.0909	0.1	4188.7
22796	7.1859	1.1818	0.1	4158.6
22797	6.9088	1.0909	0.1	4240.9
22798	7.0011	1.1818	0.1	4211.
22799	6.724	1.0909	0.1	4293.
22800	6.8164	1.1818	0.1	4263.2
22801	6.5392	1.0909	0.1	4344.7
22802	6.6316	1.1818	0.1	4315.4
22803	6.3545	1.0909	0.1	4395.9
22804	6.4468	1.1818	0.1	4367.3
22805	6.1697	1.0909	0.1	4446.4
22806	6.2621	1.1818	0.1	4418.9
22807	5.9849	1.0909	0.1	4495.8
22808	6.0773	1.1818	0.1	4469.9
22809	5.8001	1.0909	0.1	4543.8
22810	5.8925	1.1818	0.1	4520.
22811	5.6154	1.0909	0.1	4589.6
22812	5.7078	1.1818	0.1	4569.
22813	5.4306	1.0909	0.1	4632.7
22814	5.523	1.1818	0.1	4616.2
22815	5.2458	1.0909	0.1	4671.9
22816	5.3382	1.1818	0.1	4661.2
22817	5.0611	1.0909	0.1	4706.1
22818	5.1534	1.1818	0.1	4702.9
22819	4.8763	1.0909	0.1	4733.6
22820	4.9687	1.1818	0.1	4740.5
22821	4.6915	1.0909	0.1	4752.6
22822	4.7839	1.1818	0.1	4772.5
22823	4.5068	1.0909	0.1	4760.6
22824	4.5991	1.1818	0.1	4797.5
22825	4.322	1.0909	0.1	4755.
22826	4.4144	1.1818	0.1	4813.8
22827	4.1372	1.0909	0.1	4732.8
22828	4.2296	1.1818	0.1	4819.7
22829	3.9524	1.0909	0.1	4691.4
22830	4.0448	1.1818	0.1	4813.7
22831	3.7677	1.0909	0.1	4629.
22832	3.8601	1.1818	0.1	4795.4
22833	3.5829	1.0909	0.1	4546.
22834	3.6753	1.1818	0.1	4766.6
22835	3.3981	1.0909	0.1	4448.3
22836	3.4905	1.1818	0.1	4733.2
22837	3.2134	1.0909	0.1	4351.1
22838	3.3057	1.1818	0.1	4708.2
22839	3.0286	1.0909	0.1	4290.4
22840	3.121	1.1818	0.1	4714.3
22841	2.8438	1.0909	0.1	4426.1
22842	2.9362	1.1818	0.1	4797.8
22843	2.7514	1.1818	0.1	5233.5
22844	2.6591	1.0909	0.1	3744.3
22845	23.723	1.2727	0.1	165.48
22846	23.815	1.3636	0.1	161.58
22847	23.908	1.2727	0.1	149.97
22848	23.538	1.2727	0.1	186.58
22849	23.63	1.3636	0.1	179.8
22850	23.353	1.2727	0.1	211.84
22851	23.446	1.3636	0.1	202.91
22852	23.169	1.2727	0.1	240.08
22853	23.261	1.3636	0.1	229.49
22854	22.984	1.2727	0.1	270.53
22855	23.076	1.3636	0.1	258.6
22856	22.799	1.2727	0.1	302.66
22857	22.891	1.3636	0.1	289.64
22858	22.614	1.2727	0.1	336.09
22859	22.707	1.3636	0.1	322.16
22860	22.429	1.2727	0.1	370.56
22861	22.522	1.3636	0.1	355.85
22862	22.245	1.2727	0.1	405.88
22863	22.337	1.3636	0.1	390.49
22864	22.06	1.2727	0.1	441.9
22865	22.152	1.3636	0.1	425.91
22866	21.875	1.2727	0.1	478.51
22867	21.968	1.3636	0.1	462.
22868	21.69	1.2727	0.1	515.64
22869	21.783	1.3636	0.1	498.66
22870	21.506	1.2727	0.1	553.22
22871	21.598	1.3636	0.1	535.82
22872	21.321	1.2727	0.1	591.21
22873	21.413	1.3636	0.1	573.43
22874	21.136	1.2727	0.1	629.57
22875	21.228	1.3636	0.1	611.44
22876	20.951	1.2727	0.1	668.28
22877	21.044	1.3636	0.1	649.82
22878	20.767	1.2727	0.1	707.3
22879	20.859	1.3636	0.1	688.55
22880	20.582	1.2727	0.1	746.64
22881	20.674	1.3636	0.1	727.6
22882	20.397	1.2727	0.1	786.26
22883	20.489	1.3636	0.1	766.97
22884	20.212	1.2727	0.1	826.16
22885	20.305	1.3636	0.1	806.63
22886	20.027	1.2727	0.1	866.34
22887	20.12	1.3636	0.1	846.57
22888	19.843	1.2727	0.1	906.78
22889	19.935	1.3636	0.1	886.79
22890	19.658	1.2727	0.1	947.47
22891	19.75	1.3636	0.1	927.28
22892	19.473	1.2727	0.1	988.42
22893	19.566	1.3636	0.1	968.03
22894	19.288	1.2727	0.1	1029.6
22895	19.381	1.3636	0.1	1009.
22896	19.104	1.2727	0.1	1071.1
22897	19.196	1.3636	0.1	1050.3
22898	18.919	1.2727	0.1	1112.7
22899	19.011	1.3636	0.1	1091.8
22900	18.734	1.2727	0.1	1154.6
22901	18.826	1.3636	0.1	1133.6
22902	18.549	1.2727	0.1	1196.8
22903	18.642	1.3636	0.1	1175.5
22904	18.365	1.2727	0.1	1239.2
22905	18.457	1.3636	0.1	1217.8
22906	18.18	1.2727	0.1	1281.8
22907	18.272	1.3636	0.1	1260.2
22908	17.995	1.2727	0.1	1324.6
22909	18.087	1.3636	0.1	1302.9
22910	17.81	1.2727	0.1	1367.7
22911	17.903	1.3636	0.1	1345.8
22912	17.625	1.2727	0.1	1410.9
22913	17.718	1.3636	0.1	1389.
22914	17.441	1.2727	0.1	1454.4
22915	17.533	1.3636	0.1	1432.3
22916	17.256	1.2727	0.1	1498.1
22917	17.348	1.3636	0.1	1475.9
22918	17.071	1.2727	0.1	1542.1
22919	17.164	1.3636	0.1	1519.7
22920	16.886	1.2727	0.1	1586.2
22921	16.979	1.3636	0.1	1563.7
22922	16.702	1.2727	0.1	1630.6
22923	16.794	1.3636	0.1	1608.
22924	16.517	1.2727	0.1	1675.1
22925	16.609	1.3636	0.1	1652.4
22926	16.332	1.2727	0.1	1719.9
22927	16.424	1.3636	0.1	1697.1
22928	16.147	1.2727	0.1	1764.9
22929	16.24	1.3636	0.1	1741.9
22930	15.963	1.2727	0.1	1810.1
22931	16.055	1.3636	0.1	1787.
22932	15.778	1.2727	0.1	1855.5
22933	15.87	1.3636	0.1	1832.3
22934	15.593	1.2727	0.1	1901.1
22935	15.685	1.3636	0.1	1877.8
22936	15.408	1.2727	0.1	1946.9
22937	15.501	1.3636	0.1	1923.5
22938	15.223	1.2727	0.1	1992.9
22939	15.316	1.3636	0.1	1969.4
22940	15.039	1.2727	0.1	2039.1
22941	15.131	1.3636	0.1	2015.5
22942	14.854	1.2727	0.1	2085.5
22943	14.946	1.3636	0.1	2061.8
22944	14.669	1.2727	0.1	2132.1
22945	14.761	1.3636	0.1	2108.2
22946	14.484	1.2727	0.1	2178.9
22947	14.577	1.3636	0.1	2154.9
22948	14.3	1.2727	0.1	2225.9
22949	14.392	1.3636	0.1	2201.8
22950	14.115	1.2727	0.1	2273.1
22951	14.207	1.3636	0.1	2248.9
22952	13.93	1.2727	0.1	2320.4
22953	14.022	1.3636	0.1	2296.1
22954	13.745	1.2727	0.1	2368.
22955	13.838	1.3636	0.1	2343.6
22956	13.56	1.2727	0.1	2415.7
22957	13.653	1.3636	0.1	2391.2
22958	13.376	1.2727	0.1	2463.6
22959	13.468	1.3636	0.1	2439.
22960	13.191	1.2727	0.1	2511.8
22961	13.283	1.3636	0.1	2487.
22962	13.006	1.2727	0.1	2560.
22963	13.099	1.3636	0.1	2535.2
22964	12.821	1.2727	0.1	2608.5
22965	12.914	1.3636	0.1	2583.5
22966	12.637	1.2727	0.1	2657.1
22967	12.729	1.3636	0.1	2632.1
22968	12.452	1.2727	0.1	2705.9
22969	12.544	1.3636	0.1	2680.7
22970	12.267	1.2727	0.1	2754.9
22971	12.359	1.3636	0.1	2729.6
22972	12.082	1.2727	0.1	2804.1
22973	12.175	1.3636	0.1	2778.6
22974	11.898	1.2727	0.1	2853.4
22975	11.99	1.3636	0.1	2827.8
22976	11.713	1.2727	0.1	2902.8
22977	11.805	1.3636	0.1	2877.2
22978	11.528	1.2727	0.1	2952.5
22979	11.62	1.3636	0.1	2926.7
22980	11.343	1.2727	0.1	3002.3
22981	11.436	1.3636	0.1	2976.3
22982	11.158	1.2727	0.1	3052.2
22983	11.251	1.3636	0.1	3026.1
22984	10.974	1.2727	0.1	3102.3
22985	11.066	1.3636	0.1	3076.1
22986	10.789	1.2727	0.1	3152.5
22987	10.881	1.3636	0.1	3126.2
22988	10.604	1.2727	0.1	3202.8
22989	10.697	1.3636	0.1	3176.4
22990	10.419	1.2727	0.1	3253.3
22991	10.512	1.3636	0.1	3226.7
22992	10.235	1.2727	0.1	3304.
22993	10.327	1.3636	0.1	3277.2
22994	10.05	1.2727	0.1	3354.7
22995	10.142	1.3636	0.1	3327.8
22996	9.8651	1.2727	0.1	3405.6
22997	9.9575	1.3636	0.1	3378.5
22998	9.6803	1.2727	0.1	3456.6
22999	9.7727	1.3636	0.1	3429.3
23000	9.4955	1.2727	0.1	3507.7
23001	9.5879	1.3636	0.1	3480.3
23002	9.3108	1.2727	0.1	3558.9
23003	9.4032	1.3636	0.1	3531.3
23004	9.126	1.2727	0.1	3610.2
23005	9.2184	1.3636	0.1	3582.4
23006	8.9412	1.2727	0.1	3661.6
23007	9.0336	1.3636	0.1	3633.7
23008	8.7565	1.2727	0.1	3713.1
23009	8.8489	1.3636	0.1	3685.
23010	8.5717	1.2727	0.1	3764.8
23011	8.6641	1.3636	0.1	3736.4
23012	8.3869	1.2727	0.1	3816.5
23013	8.4793	1.3636	0.1	3787.9
23014	8.2022	1.2727	0.1	3868.3
23015	8.2945	1.3636	0.1	3839.5
23016	8.0174	1.2727	0.1	3920.2
23017	8.1098	1.3636	0.1	3891.1
23018	7.8326	1.2727	0.1	3972.2
23019	7.925	1.3636	0.1	3942.9
23020	7.6478	1.2727	0.1	4024.3
23021	7.7402	1.3636	0.1	3994.8
23022	7.4631	1.2727	0.1	4076.4
23023	7.5555	1.3636	0.1	4046.7
23024	7.2783	1.2727	0.1	4128.7
23025	7.3707	1.3636	0.1	4098.8
23026	7.0935	1.2727	0.1	4181.
23027	7.1859	1.3636	0.1	4151.
23028	6.9088	1.2727	0.1	4233.3
23029	7.0011	1.3636	0.1	4203.3
23030	6.724	1.2727	0.1	4285.7
23031	6.8164	1.3636	0.1	4255.7
23032	6.5392	1.2727	0.1	4338.
23033	6.6316	1.3636	0.1	4308.2
23034	6.3545	1.2727	0.1	4390.3
23035	6.4468	1.3636	0.1	4360.9
23036	6.1697	1.2727	0.1	4442.4
23037	6.2621	1.3636	0.1	4413.6
23038	5.9849	1.2727	0.1	4494.1
23039	6.0773	1.3636	0.1	4466.4
23040	5.8001	1.2727	0.1	4545.3
23041	5.8925	1.3636	0.1	4519.2
23042	5.6154	1.2727	0.1	4595.6
23043	5.7078	1.3636	0.1	4571.8
23044	5.4306	1.2727	0.1	4644.7
23045	5.523	1.3636	0.1	4624.2
23046	5.2458	1.2727	0.1	4692.2
23047	5.3382	1.3636	0.1	4676.1
23048	5.0611	1.2727	0.1	4737.3
23049	5.1534	1.3636	0.1	4727.2
23050	4.8763	1.2727	0.1	4779.2
23051	4.9687	1.3636	0.1	4777.2
23052	4.6915	1.2727	0.1	4817.1
23053	4.7839	1.3636	0.1	4825.7
23054	4.5068	1.2727	0.1	4850.
23055	4.5991	1.3636	0.1	4872.5
23056	4.322	1.2727	0.1	4877.1
23057	4.4144	1.3636	0.1	4917.4
23058	4.1372	1.2727	0.1	4897.8
23059	4.2296	1.3636	0.1	4960.8
23060	3.9524	1.2727	0.1	4912.6
23061	4.0448	1.3636	0.1	5004.2
23062	3.7677	1.2727	0.1	4923.9
23063	3.8601	1.3636	0.1	5051.1
23064	3.5829	1.2727	0.1	4937.4
23065	3.6753	1.3636	0.1	5108.6
23066	3.3981	1.2727	0.1	4964.1
23067	3.4905	1.3636	0.1	5189.6
23068	3.2134	1.2727	0.1	5021.3
23069	3.3057	1.3636	0.1	5315.6
23070	3.0286	1.2727	0.1	5139.5
23071	3.121	1.3636	0.1	5520.
23072	2.8438	1.2727	0.1	5477.3
23073	2.9362	1.3636	0.1	5842.
23074	2.7514	1.3636	0.1	6593.
23075	2.6591	1.2727	0.1	4695.7
23076	23.723	1.4545	0.1	174.67
23077	23.815	1.5455	0.1	170.27
23078	23.908	1.4545	0.1	159.55
23079	23.538	1.4545	0.1	195.34
23080	23.63	1.5455	0.1	188.22
23081	23.353	1.4545	0.1	220.06
23082	23.446	1.5455	0.1	210.88
23083	23.169	1.4545	0.1	247.71
23084	23.261	1.5455	0.1	236.95
23085	22.984	1.4545	0.1	277.54
23086	23.076	1.5455	0.1	265.52
23087	22.799	1.4545	0.1	309.05
23088	22.891	1.5455	0.1	296.
23089	22.614	1.4545	0.1	341.88
23090	22.707	1.5455	0.1	327.97
23091	22.429	1.4545	0.1	375.78
23092	22.522	1.5455	0.1	361.12
23093	22.245	1.4545	0.1	410.55
23094	22.337	1.5455	0.1	395.24
23095	22.06	1.4545	0.1	446.06
23096	22.152	1.5455	0.1	430.18
23097	21.875	1.4545	0.1	482.21
23098	21.968	1.5455	0.1	465.82
23099	21.69	1.4545	0.1	518.91
23100	21.783	1.5455	0.1	502.05
23101	21.506	1.4545	0.1	556.09
23102	21.598	1.5455	0.1	538.82
23103	21.321	1.4545	0.1	593.72
23104	21.413	1.5455	0.1	576.07
23105	21.136	1.4545	0.1	631.75
23106	21.228	1.5455	0.1	613.75
23107	20.951	1.4545	0.1	670.16
23108	21.044	1.5455	0.1	651.83
23109	20.767	1.4545	0.1	708.92
23110	20.859	1.5455	0.1	690.28
23111	20.582	1.4545	0.1	748.
23112	20.674	1.5455	0.1	729.08
23113	20.397	1.4545	0.1	787.4
23114	20.489	1.5455	0.1	768.22
23115	20.212	1.4545	0.1	827.1
23116	20.305	1.5455	0.1	807.67
23117	20.027	1.4545	0.1	867.09
23118	20.12	1.5455	0.1	847.43
23119	19.843	1.4545	0.1	907.36
23120	19.935	1.5455	0.1	887.48
23121	19.658	1.4545	0.1	947.91
23122	19.75	1.5455	0.1	927.81
23123	19.473	1.4545	0.1	988.72
23124	19.566	1.5455	0.1	968.42
23125	19.288	1.4545	0.1	1029.8
23126	19.381	1.5455	0.1	1009.3
23127	19.104	1.4545	0.1	1071.1
23128	19.196	1.5455	0.1	1050.4
23129	18.919	1.4545	0.1	1112.7
23130	19.011	1.5455	0.1	1091.8
23131	18.734	1.4545	0.1	1154.5
23132	18.826	1.5455	0.1	1133.5
23133	18.549	1.4545	0.1	1196.6
23134	18.642	1.5455	0.1	1175.4
23135	18.365	1.4545	0.1	1238.9
23136	18.457	1.5455	0.1	1217.6
23137	18.18	1.4545	0.1	1281.4
23138	18.272	1.5455	0.1	1259.9
23139	17.995	1.4545	0.1	1324.2
23140	18.087	1.5455	0.1	1302.6
23141	17.81	1.4545	0.1	1367.2
23142	17.903	1.5455	0.1	1345.4
23143	17.625	1.4545	0.1	1410.4
23144	17.718	1.5455	0.1	1388.5
23145	17.441	1.4545	0.1	1453.9
23146	17.533	1.5455	0.1	1431.8
23147	17.256	1.4545	0.1	1497.5
23148	17.348	1.5455	0.1	1475.4
23149	17.071	1.4545	0.1	1541.4
23150	17.164	1.5455	0.1	1519.1
23151	16.886	1.4545	0.1	1585.5
23152	16.979	1.5455	0.1	1563.1
23153	16.702	1.4545	0.1	1629.9
23154	16.794	1.5455	0.1	1607.3
23155	16.517	1.4545	0.1	1674.4
23156	16.609	1.5455	0.1	1651.7
23157	16.332	1.4545	0.1	1719.1
23158	16.424	1.5455	0.1	1696.4
23159	16.147	1.4545	0.1	1764.1
23160	16.24	1.5455	0.1	1741.2
23161	15.963	1.4545	0.1	1809.3
23162	16.055	1.5455	0.1	1786.3
23163	15.778	1.4545	0.1	1854.6
23164	15.87	1.5455	0.1	1831.5
23165	15.593	1.4545	0.1	1900.2
23166	15.685	1.5455	0.1	1877.
23167	15.408	1.4545	0.1	1946.
23168	15.501	1.5455	0.1	1922.7
23169	15.223	1.4545	0.1	1992.
23170	15.316	1.5455	0.1	1968.5
23171	15.039	1.4545	0.1	2038.2
23172	15.131	1.5455	0.1	2014.6
23173	14.854	1.4545	0.1	2084.5
23174	14.946	1.5455	0.1	2060.9
23175	14.669	1.4545	0.1	2131.1
23176	14.761	1.5455	0.1	2107.3
23177	14.484	1.4545	0.1	2177.9
23178	14.577	1.5455	0.1	2154.
23179	14.3	1.4545	0.1	2224.8
23180	14.392	1.5455	0.1	2200.8
23181	14.115	1.4545	0.1	2272.
23182	14.207	1.5455	0.1	2247.9
23183	13.93	1.4545	0.1	2319.3
23184	14.022	1.5455	0.1	2295.1
23185	13.745	1.4545	0.1	2366.8
23186	13.838	1.5455	0.1	2342.5
23187	13.56	1.4545	0.1	2414.5
23188	13.653	1.5455	0.1	2390.1
23189	13.376	1.4545	0.1	2462.4
23190	13.468	1.5455	0.1	2437.9
23191	13.191	1.4545	0.1	2510.5
23192	13.283	1.5455	0.1	2485.8
23193	13.006	1.4545	0.1	2558.7
23194	13.099	1.5455	0.1	2534.
23195	12.821	1.4545	0.1	2607.1
23196	12.914	1.5455	0.1	2582.3
23197	12.637	1.4545	0.1	2655.7
23198	12.729	1.5455	0.1	2630.7
23199	12.452	1.4545	0.1	2704.4
23200	12.544	1.5455	0.1	2679.4
23201	12.267	1.4545	0.1	2753.4
23202	12.359	1.5455	0.1	2728.2
23203	12.082	1.4545	0.1	2802.4
23204	12.175	1.5455	0.1	2777.1
23205	11.898	1.4545	0.1	2851.7
23206	11.99	1.5455	0.1	2826.2
23207	11.713	1.4545	0.1	2901.
23208	11.805	1.5455	0.1	2875.5
23209	11.528	1.4545	0.1	2950.6
23210	11.62	1.5455	0.1	2924.9
23211	11.343	1.4545	0.1	3000.2
23212	11.436	1.5455	0.1	2974.5
23213	11.158	1.4545	0.1	3050.1
23214	11.251	1.5455	0.1	3024.2
23215	10.974	1.4545	0.1	3100.
23216	11.066	1.5455	0.1	3074.
23217	10.789	1.4545	0.1	3150.1
23218	10.881	1.5455	0.1	3123.9
23219	10.604	1.4545	0.1	3200.3
23220	10.697	1.5455	0.1	3174.
23221	10.419	1.4545	0.1	3250.6
23222	10.512	1.5455	0.1	3224.2
23223	10.235	1.4545	0.1	3301.1
23224	10.327	1.5455	0.1	3274.5
23225	10.05	1.4545	0.1	3351.6
23226	10.142	1.5455	0.1	3324.9
23227	9.8651	1.4545	0.1	3402.3
23228	9.9575	1.5455	0.1	3375.5
23229	9.6803	1.4545	0.1	3453.1
23230	9.7727	1.5455	0.1	3426.1
23231	9.4955	1.4545	0.1	3503.9
23232	9.5879	1.5455	0.1	3476.8
23233	9.3108	1.4545	0.1	3554.9
23234	9.4032	1.5455	0.1	3527.6
23235	9.126	1.4545	0.1	3605.9
23236	9.2184	1.5455	0.1	3578.4
23237	8.9412	1.4545	0.1	3657.
23238	9.0336	1.5455	0.1	3629.4
23239	8.7565	1.4545	0.1	3708.2
23240	8.8489	1.5455	0.1	3680.4
23241	8.5717	1.4545	0.1	3759.5
23242	8.6641	1.5455	0.1	3731.5
23243	8.3869	1.4545	0.1	3810.9
23244	8.4793	1.5455	0.1	3782.6
23245	8.2022	1.4545	0.1	3862.3
23246	8.2945	1.5455	0.1	3833.8
23247	8.0174	1.4545	0.1	3913.9
23248	8.1098	1.5455	0.1	3885.2
23249	7.8326	1.4545	0.1	3965.5
23250	7.925	1.5455	0.1	3936.6
23251	7.6478	1.4545	0.1	4017.2
23252	7.7402	1.5455	0.1	3988.1
23253	7.4631	1.4545	0.1	4069.1
23254	7.5555	1.5455	0.1	4039.7
23255	7.2783	1.4545	0.1	4121.1
23256	7.3707	1.5455	0.1	4091.5
23257	7.0935	1.4545	0.1	4173.3
23258	7.1859	1.5455	0.1	4143.4
23259	6.9088	1.4545	0.1	4225.6
23260	7.0011	1.5455	0.1	4195.6
23261	6.724	1.4545	0.1	4278.2
23262	6.8164	1.5455	0.1	4248.1
23263	6.5392	1.4545	0.1	4331.1
23264	6.6316	1.5455	0.1	4300.9
23265	6.3545	1.4545	0.1	4384.2
23266	6.4468	1.5455	0.1	4354.2
23267	6.1697	1.4545	0.1	4437.7
23268	6.2621	1.5455	0.1	4407.9
23269	5.9849	1.4545	0.1	4491.6
23270	6.0773	1.5455	0.1	4462.4
23271	5.8001	1.4545	0.1	4545.8
23272	5.8925	1.5455	0.1	4517.6
23273	5.6154	1.4545	0.1	4600.5
23274	5.7078	1.5455	0.1	4573.7
23275	5.4306	1.4545	0.1	4655.6
23276	5.523	1.5455	0.1	4631.
23277	5.2458	1.4545	0.1	4711.1
23278	5.3382	1.5455	0.1	4689.6
23279	5.0611	1.4545	0.1	4767.1
23280	5.1534	1.5455	0.1	4749.9
23281	4.8763	1.4545	0.1	4823.6
23282	4.9687	1.5455	0.1	4812.2
23283	4.6915	1.4545	0.1	4880.8
23284	4.7839	1.5455	0.1	4877.2
23285	4.5068	1.4545	0.1	4939.2
23286	4.5991	1.5455	0.1	4945.8
23287	4.322	1.4545	0.1	4999.8
23288	4.4144	1.5455	0.1	5019.6
23289	4.1372	1.4545	0.1	5064.7
23290	4.2296	1.5455	0.1	5101.
23291	3.9524	1.4545	0.1	5138.1
23292	4.0448	1.5455	0.1	5194.5
23293	3.7677	1.4545	0.1	5227.3
23294	3.8601	1.5455	0.1	5307.6
23295	3.5829	1.4545	0.1	5345.3
23296	3.6753	1.5455	0.1	5453.4
23297	3.3981	1.4545	0.1	5513.3
23298	3.4905	1.5455	0.1	5653.8
23299	3.2134	1.4545	0.1	5764.4
23300	3.3057	1.5455	0.1	5947.6
23301	3.0286	1.4545	0.1	6131.4
23302	3.121	1.5455	0.1	6391.
23303	2.8438	1.4545	0.1	6793.6
23304	2.9362	1.5455	0.1	7089.6
23305	2.7514	1.5455	0.1	8476.8
23306	2.6591	1.4545	0.1	5965.6
23307	23.723	1.6364	0.1	182.6
23308	23.815	1.7273	0.1	177.73
23309	23.908	1.6364	0.1	167.8
23310	23.538	1.6364	0.1	202.94
23311	23.63	1.7273	0.1	195.46
23312	23.353	1.6364	0.1	227.24
23313	23.446	1.7273	0.1	217.77
23314	23.169	1.6364	0.1	254.42
23315	23.261	1.7273	0.1	243.44
23316	22.984	1.6364	0.1	283.77
23317	23.076	1.7273	0.1	271.59
23318	22.799	1.6364	0.1	314.79
23319	22.891	1.7273	0.1	301.63
23320	22.614	1.6364	0.1	347.14
23321	22.707	1.7273	0.1	333.16
23322	22.429	1.6364	0.1	380.56
23323	22.522	1.7273	0.1	365.87
23324	22.245	1.6364	0.1	414.88
23325	22.337	1.7273	0.1	399.57
23326	22.06	1.6364	0.1	449.96
23327	22.152	1.7273	0.1	434.1
23328	21.875	1.6364	0.1	485.7
23329	21.968	1.7273	0.1	469.34
23330	21.69	1.6364	0.1	522.01
23331	21.783	1.7273	0.1	505.21
23332	21.506	1.6364	0.1	558.84
23333	21.598	1.7273	0.1	541.64
23334	21.321	1.6364	0.1	596.14
23335	21.413	1.7273	0.1	578.56
23336	21.136	1.6364	0.1	633.88
23337	21.228	1.7273	0.1	615.94
23338	20.951	1.6364	0.1	672.
23339	21.044	1.7273	0.1	653.75
23340	20.767	1.6364	0.1	710.51
23341	20.859	1.7273	0.1	691.95
23342	20.582	1.6364	0.1	749.36
23343	20.674	1.7273	0.1	730.52
23344	20.397	1.6364	0.1	788.55
23345	20.489	1.7273	0.1	769.45
23346	20.212	1.6364	0.1	828.06
23347	20.305	1.7273	0.1	808.7
23348	20.027	1.6364	0.1	867.87
23349	20.12	1.7273	0.1	848.29
23350	19.843	1.6364	0.1	907.99
23351	19.935	1.7273	0.1	888.18
23352	19.658	1.6364	0.1	948.39
23353	19.75	1.7273	0.1	928.37
23354	19.473	1.6364	0.1	989.07
23355	19.566	1.7273	0.1	968.85
23356	19.288	1.6364	0.1	1030.
23357	19.381	1.7273	0.1	1009.6
23358	19.104	1.6364	0.1	1071.2
23359	19.196	1.7273	0.1	1050.6
23360	18.919	1.6364	0.1	1112.7
23361	19.011	1.7273	0.1	1091.9
23362	18.734	1.6364	0.1	1154.5
23363	18.826	1.7273	0.1	1133.5
23364	18.549	1.6364	0.1	1196.4
23365	18.642	1.7273	0.1	1175.3
23366	18.365	1.6364	0.1	1238.7
23367	18.457	1.7273	0.1	1217.4
23368	18.18	1.6364	0.1	1281.1
23369	18.272	1.7273	0.1	1259.7
23370	17.995	1.6364	0.1	1323.9
23371	18.087	1.7273	0.1	1302.3
23372	17.81	1.6364	0.1	1366.8
23373	17.903	1.7273	0.1	1345.1
23374	17.625	1.6364	0.1	1410.
23375	17.718	1.7273	0.1	1388.1
23376	17.441	1.6364	0.1	1453.4
23377	17.533	1.7273	0.1	1431.4
23378	17.256	1.6364	0.1	1497.
23379	17.348	1.7273	0.1	1474.9
23380	17.071	1.6364	0.1	1540.9
23381	17.164	1.7273	0.1	1518.6
23382	16.886	1.6364	0.1	1584.9
23383	16.979	1.7273	0.1	1562.6
23384	16.702	1.6364	0.1	1629.2
23385	16.794	1.7273	0.1	1606.8
23386	16.517	1.6364	0.1	1673.8
23387	16.609	1.7273	0.1	1651.1
23388	16.332	1.6364	0.1	1718.5
23389	16.424	1.7273	0.1	1695.8
23390	16.147	1.6364	0.1	1763.4
23391	16.24	1.7273	0.1	1740.6
23392	15.963	1.6364	0.1	1808.6
23393	16.055	1.7273	0.1	1785.6
23394	15.778	1.6364	0.1	1853.9
23395	15.87	1.7273	0.1	1830.8
23396	15.593	1.6364	0.1	1899.5
23397	15.685	1.7273	0.1	1876.3
23398	15.408	1.6364	0.1	1945.2
23399	15.501	1.7273	0.1	1921.9
23400	15.223	1.6364	0.1	1991.2
23401	15.316	1.7273	0.1	1967.8
23402	15.039	1.6364	0.1	2037.3
23403	15.131	1.7273	0.1	2013.8
23404	14.854	1.6364	0.1	2083.7
23405	14.946	1.7273	0.1	2060.1
23406	14.669	1.6364	0.1	2130.2
23407	14.761	1.7273	0.1	2106.5
23408	14.484	1.6364	0.1	2177.
23409	14.577	1.7273	0.1	2153.1
23410	14.3	1.6364	0.1	2223.9
23411	14.392	1.7273	0.1	2200.
23412	14.115	1.6364	0.1	2271.
23413	14.207	1.7273	0.1	2247.
23414	13.93	1.6364	0.1	2318.3
23415	14.022	1.7273	0.1	2294.2
23416	13.745	1.6364	0.1	2365.8
23417	13.838	1.7273	0.1	2341.6
23418	13.56	1.6364	0.1	2413.5
23419	13.653	1.7273	0.1	2389.1
23420	13.376	1.6364	0.1	2461.3
23421	13.468	1.7273	0.1	2436.9
23422	13.191	1.6364	0.1	2509.3
23423	13.283	1.7273	0.1	2484.8
23424	13.006	1.6364	0.1	2557.5
23425	13.099	1.7273	0.1	2532.9
23426	12.821	1.6364	0.1	2605.9
23427	12.914	1.7273	0.1	2581.1
23428	12.637	1.6364	0.1	2654.4
23429	12.729	1.7273	0.1	2629.5
23430	12.452	1.6364	0.1	2703.1
23431	12.544	1.7273	0.1	2678.1
23432	12.267	1.6364	0.1	2752.
23433	12.359	1.7273	0.1	2726.9
23434	12.082	1.6364	0.1	2801.
23435	12.175	1.7273	0.1	2775.8
23436	11.898	1.6364	0.1	2850.1
23437	11.99	1.7273	0.1	2824.8
23438	11.713	1.6364	0.1	2899.4
23439	11.805	1.7273	0.1	2874.
23440	11.528	1.6364	0.1	2948.8
23441	11.62	1.7273	0.1	2923.3
23442	11.343	1.6364	0.1	2998.4
23443	11.436	1.7273	0.1	2972.8
23444	11.158	1.6364	0.1	3048.1
23445	11.251	1.7273	0.1	3022.4
23446	10.974	1.6364	0.1	3098.
23447	11.066	1.7273	0.1	3072.1
23448	10.789	1.6364	0.1	3147.9
23449	10.881	1.7273	0.1	3121.9
23450	10.604	1.6364	0.1	3198.
23451	10.697	1.7273	0.1	3171.9
23452	10.419	1.6364	0.1	3248.2
23453	10.512	1.7273	0.1	3222.
23454	10.235	1.6364	0.1	3298.4
23455	10.327	1.7273	0.1	3272.1
23456	10.05	1.6364	0.1	3348.8
23457	10.142	1.7273	0.1	3322.4
23458	9.8651	1.6364	0.1	3399.3
23459	9.9575	1.7273	0.1	3372.7
23460	9.6803	1.6364	0.1	3449.8
23461	9.7727	1.7273	0.1	3423.1
23462	9.4955	1.6364	0.1	3500.4
23463	9.5879	1.7273	0.1	3473.6
23464	9.3108	1.6364	0.1	3551.1
23465	9.4032	1.7273	0.1	3524.1
23466	9.126	1.6364	0.1	3601.9
23467	9.2184	1.7273	0.1	3574.8
23468	8.9412	1.6364	0.1	3652.7
23469	9.0336	1.7273	0.1	3625.4
23470	8.7565	1.6364	0.1	3703.6
23471	8.8489	1.7273	0.1	3676.1
23472	8.5717	1.6364	0.1	3754.6
23473	8.6641	1.7273	0.1	3726.9
23474	8.3869	1.6364	0.1	3805.6
23475	8.4793	1.7273	0.1	3777.7
23476	8.2022	1.6364	0.1	3856.7
23477	8.2945	1.7273	0.1	3828.6
23478	8.0174	1.6364	0.1	3907.9
23479	8.1098	1.7273	0.1	3879.6
23480	7.8326	1.6364	0.1	3959.1
23481	7.925	1.7273	0.1	3930.6
23482	7.6478	1.6364	0.1	4010.5
23483	7.7402	1.7273	0.1	3981.7
23484	7.4631	1.6364	0.1	4062.1
23485	7.5555	1.7273	0.1	4033.
23486	7.2783	1.6364	0.1	4113.8
23487	7.3707	1.7273	0.1	4084.5
23488	7.0935	1.6364	0.1	4165.8
23489	7.1859	1.7273	0.1	4136.2
23490	6.9088	1.6364	0.1	4218.1
23491	7.0011	1.7273	0.1	4188.2
23492	6.724	1.6364	0.1	4270.8
23493	6.8164	1.7273	0.1	4240.7
23494	6.5392	1.6364	0.1	4324.
23495	6.6316	1.7273	0.1	4293.7
23496	6.3545	1.6364	0.1	4377.9
23497	6.4468	1.7273	0.1	4347.4
23498	6.1697	1.6364	0.1	4432.6
23499	6.2621	1.7273	0.1	4402.1
23500	5.9849	1.6364	0.1	4488.4
23501	6.0773	1.7273	0.1	4457.9
23502	5.8001	1.6364	0.1	4545.5
23503	5.8925	1.7273	0.1	4515.3
23504	5.6154	1.6364	0.1	4604.3
23505	5.7078	1.7273	0.1	4574.7
23506	5.4306	1.6364	0.1	4665.
23507	5.523	1.7273	0.1	4636.6
23508	5.2458	1.6364	0.1	4728.4
23509	5.3382	1.7273	0.1	4701.6
23510	5.0611	1.6364	0.1	4795.
23511	5.1534	1.7273	0.1	4770.7
23512	4.8763	1.6364	0.1	4865.8
23513	4.9687	1.7273	0.1	4845.
23514	4.6915	1.6364	0.1	4942.1
23515	4.7839	1.7273	0.1	4926.
23516	4.5068	1.6364	0.1	5025.7
23517	4.5991	1.7273	0.1	5016.
23518	4.322	1.6364	0.1	5119.6
23519	4.4144	1.7273	0.1	5118.
23520	4.1372	1.6364	0.1	5228.6
23521	4.2296	1.7273	0.1	5236.6
23522	3.9524	1.6364	0.1	5360.
23523	4.0448	1.7273	0.1	5379.
23524	3.7677	1.6364	0.1	5526.6
23525	3.8601	1.7273	0.1	5556.6
23526	3.5829	1.6364	0.1	5749.4
23527	3.6753	1.7273	0.1	5788.2
23528	3.3981	1.6364	0.1	6065.8
23529	3.4905	1.7273	0.1	6104.9
23530	3.2134	1.6364	0.1	6532.7
23531	3.3057	1.7273	0.1	6564.7
23532	3.0286	1.6364	0.1	7267.1
23533	3.121	1.7273	0.1	7261.9
23534	2.8438	1.6364	0.1	8529.2
23535	2.9362	1.7273	0.1	8496.5
23536	2.7514	1.7273	0.1	11181
23537	2.6591	1.6364	0.1	7683.3
23538	23.723	1.8182	0.1	189.38
23539	23.815	1.9091	0.1	184.04
23540	23.908	1.8182	0.1	174.84
23541	23.538	1.8182	0.1	209.46
23542	23.63	1.9091	0.1	201.6
23543	23.353	1.8182	0.1	233.42
23544	23.446	1.9091	0.1	223.64
23545	23.169	1.8182	0.1	260.24
23546	23.261	1.9091	0.1	249.
23547	22.984	1.8182	0.1	289.21
23548	23.076	1.9091	0.1	276.82
23549	22.799	1.8182	0.1	319.85
23550	22.891	1.9091	0.1	306.52
23551	22.614	1.8182	0.1	351.81
23552	22.707	1.9091	0.1	337.69
23553	22.429	1.8182	0.1	384.84
23554	22.522	1.9091	0.1	370.06
23555	22.245	1.8182	0.1	418.78
23556	22.337	1.9091	0.1	403.41
23557	22.06	1.8182	0.1	453.5
23558	22.152	1.9091	0.1	437.6
23559	21.875	1.8182	0.1	488.88
23560	21.968	1.9091	0.1	472.51
23561	21.69	1.8182	0.1	524.87
23562	21.783	1.9091	0.1	508.07
23563	21.506	1.8182	0.1	561.39
23564	21.598	1.9091	0.1	544.19
23565	21.321	1.8182	0.1	598.4
23566	21.413	1.9091	0.1	580.84
23567	21.136	1.8182	0.1	635.87
23568	21.228	1.9091	0.1	617.96
23569	20.951	1.8182	0.1	673.75
23570	21.044	1.9091	0.1	655.53
23571	20.767	1.8182	0.1	712.02
23572	20.859	1.9091	0.1	693.5
23573	20.582	1.8182	0.1	750.66
23574	20.674	1.9091	0.1	731.87
23575	20.397	1.8182	0.1	789.66
23576	20.489	1.9091	0.1	770.6
23577	20.212	1.8182	0.1	828.99
23578	20.305	1.9091	0.1	809.69
23579	20.027	1.8182	0.1	868.65
23580	20.12	1.9091	0.1	849.11
23581	19.843	1.8182	0.1	908.62
23582	19.935	1.9091	0.1	888.86
23583	19.658	1.8182	0.1	948.88
23584	19.75	1.9091	0.1	928.92
23585	19.473	1.8182	0.1	989.44
23586	19.566	1.9091	0.1	969.28
23587	19.288	1.8182	0.1	1030.3
23588	19.381	1.9091	0.1	1009.9
23589	19.104	1.8182	0.1	1071.4
23590	19.196	1.9091	0.1	1050.9
23591	18.919	1.8182	0.1	1112.8
23592	19.011	1.9091	0.1	1092.1
23593	18.734	1.8182	0.1	1154.5
23594	18.826	1.9091	0.1	1133.6
23595	18.549	1.8182	0.1	1196.4
23596	18.642	1.9091	0.1	1175.3
23597	18.365	1.8182	0.1	1238.5
23598	18.457	1.9091	0.1	1217.3
23599	18.18	1.8182	0.1	1280.9
23600	18.272	1.9091	0.1	1259.6
23601	17.995	1.8182	0.1	1323.6
23602	18.087	1.9091	0.1	1302.1
23603	17.81	1.8182	0.1	1366.5
23604	17.903	1.9091	0.1	1344.9
23605	17.625	1.8182	0.1	1409.6
23606	17.718	1.9091	0.1	1387.8
23607	17.441	1.8182	0.1	1453.
23608	17.533	1.9091	0.1	1431.1
23609	17.256	1.8182	0.1	1496.6
23610	17.348	1.9091	0.1	1474.5
23611	17.071	1.8182	0.1	1540.4
23612	17.164	1.9091	0.1	1518.2
23613	16.886	1.8182	0.1	1584.5
23614	16.979	1.9091	0.1	1562.2
23615	16.702	1.8182	0.1	1628.7
23616	16.794	1.9091	0.1	1606.3
23617	16.517	1.8182	0.1	1673.2
23618	16.609	1.9091	0.1	1650.7
23619	16.332	1.8182	0.1	1717.9
23620	16.424	1.9091	0.1	1695.2
23621	16.147	1.8182	0.1	1762.8
23622	16.24	1.9091	0.1	1740.
23623	15.963	1.8182	0.1	1807.9
23624	16.055	1.9091	0.1	1785.
23625	15.778	1.8182	0.1	1853.3
23626	15.87	1.9091	0.1	1830.3
23627	15.593	1.8182	0.1	1898.8
23628	15.685	1.9091	0.1	1875.7
23629	15.408	1.8182	0.1	1944.5
23630	15.501	1.9091	0.1	1921.3
23631	15.223	1.8182	0.1	1990.5
23632	15.316	1.9091	0.1	1967.1
23633	15.039	1.8182	0.1	2036.6
23634	15.131	1.9091	0.1	2013.2
23635	14.854	1.8182	0.1	2082.9
23636	14.946	1.9091	0.1	2059.4
23637	14.669	1.8182	0.1	2129.5
23638	14.761	1.9091	0.1	2105.8
23639	14.484	1.8182	0.1	2176.2
23640	14.577	1.9091	0.1	2152.4
23641	14.3	1.8182	0.1	2223.1
23642	14.392	1.9091	0.1	2199.2
23643	14.115	1.8182	0.1	2270.2
23644	14.207	1.9091	0.1	2246.2
23645	13.93	1.8182	0.1	2317.4
23646	14.022	1.9091	0.1	2293.4
23647	13.745	1.8182	0.1	2364.9
23648	13.838	1.9091	0.1	2340.7
23649	13.56	1.8182	0.1	2412.5
23650	13.653	1.9091	0.1	2388.3
23651	13.376	1.8182	0.1	2460.4
23652	13.468	1.9091	0.1	2436.
23653	13.191	1.8182	0.1	2508.3
23654	13.283	1.9091	0.1	2483.9
23655	13.006	1.8182	0.1	2556.5
23656	13.099	1.9091	0.1	2531.9
23657	12.821	1.8182	0.1	2604.8
23658	12.914	1.9091	0.1	2580.1
23659	12.637	1.8182	0.1	2653.3
23660	12.729	1.9091	0.1	2628.5
23661	12.452	1.8182	0.1	2701.9
23662	12.544	1.9091	0.1	2677.
23663	12.267	1.8182	0.1	2750.7
23664	12.359	1.9091	0.1	2725.7
23665	12.082	1.8182	0.1	2799.6
23666	12.175	1.9091	0.1	2774.6
23667	11.898	1.8182	0.1	2848.7
23668	11.99	1.9091	0.1	2823.6
23669	11.713	1.8182	0.1	2897.9
23670	11.805	1.9091	0.1	2872.7
23671	11.528	1.8182	0.1	2947.3
23672	11.62	1.9091	0.1	2921.9
23673	11.343	1.8182	0.1	2996.8
23674	11.436	1.9091	0.1	2971.3
23675	11.158	1.8182	0.1	3046.4
23676	11.251	1.9091	0.1	3020.8
23677	10.974	1.8182	0.1	3096.1
23678	11.066	1.9091	0.1	3070.4
23679	10.789	1.8182	0.1	3146.
23680	10.881	1.9091	0.1	3120.2
23681	10.604	1.8182	0.1	3195.9
23682	10.697	1.9091	0.1	3170.
23683	10.419	1.8182	0.1	3245.9
23684	10.512	1.9091	0.1	3219.9
23685	10.235	1.8182	0.1	3296.1
23686	10.327	1.9091	0.1	3270.
23687	10.05	1.8182	0.1	3346.3
23688	10.142	1.9091	0.1	3320.1
23689	9.8651	1.8182	0.1	3396.6
23690	9.9575	1.9091	0.1	3370.2
23691	9.6803	1.8182	0.1	3446.9
23692	9.7727	1.9091	0.1	3420.5
23693	9.4955	1.8182	0.1	3497.3
23694	9.5879	1.9091	0.1	3470.7
23695	9.3108	1.8182	0.1	3547.8
23696	9.4032	1.9091	0.1	3521.1
23697	9.126	1.8182	0.1	3598.3
23698	9.2184	1.9091	0.1	3571.5
23699	8.9412	1.8182	0.1	3648.8
23700	9.0336	1.9091	0.1	3621.9
23701	8.7565	1.8182	0.1	3699.4
23702	8.8489	1.9091	0.1	3672.3
23703	8.5717	1.8182	0.1	3750.1
23704	8.6641	1.9091	0.1	3722.8
23705	8.3869	1.8182	0.1	3800.8
23706	8.4793	1.9091	0.1	3773.3
23707	8.2022	1.8182	0.1	3851.5
23708	8.2945	1.9091	0.1	3823.9
23709	8.0174	1.8182	0.1	3902.3
23710	8.1098	1.9091	0.1	3874.5
23711	7.8326	1.8182	0.1	3953.2
23712	7.925	1.9091	0.1	3925.1
23713	7.6478	1.8182	0.1	4004.2
23714	7.7402	1.9091	0.1	3975.9
23715	7.4631	1.8182	0.1	4055.4
23716	7.5555	1.9091	0.1	4026.8
23717	7.2783	1.8182	0.1	4106.9
23718	7.3707	1.9091	0.1	4078.
23719	7.0935	1.8182	0.1	4158.6
23720	7.1859	1.9091	0.1	4129.4
23721	6.9088	1.8182	0.1	4210.8
23722	7.0011	1.9091	0.1	4181.2
23723	6.724	1.8182	0.1	4263.5
23724	6.8164	1.9091	0.1	4233.6
23725	6.5392	1.8182	0.1	4317.1
23726	6.6316	1.9091	0.1	4286.7
23727	6.3545	1.8182	0.1	4371.6
23728	6.4468	1.9091	0.1	4340.8
23729	6.1697	1.8182	0.1	4427.4
23730	6.2621	1.9091	0.1	4396.2
23731	5.9849	1.8182	0.1	4484.9
23732	6.0773	1.9091	0.1	4453.3
23733	5.8001	1.8182	0.1	4544.6
23734	5.8925	1.9091	0.1	4512.7
23735	5.6154	1.8182	0.1	4607.1
23736	5.7078	1.9091	0.1	4575.
23737	5.4306	1.8182	0.1	4673.2
23738	5.523	1.9091	0.1	4641.1
23739	5.2458	1.8182	0.1	4744.
23740	5.3382	1.9091	0.1	4712.1
23741	5.0611	1.8182	0.1	4820.7
23742	5.1534	1.9091	0.1	4789.5
23743	4.8763	1.8182	0.1	4905.2
23744	4.9687	1.9091	0.1	4875.1
23745	4.6915	1.8182	0.1	4999.9
23746	4.7839	1.9091	0.1	4971.4
23747	4.5068	1.8182	0.1	5107.9
23748	4.5991	1.9091	0.1	5081.7
23749	4.322	1.8182	0.1	5234.1
23750	4.4144	1.9091	0.1	5210.7
23751	4.1372	1.8182	0.1	5385.4
23752	4.2296	1.9091	0.1	5364.9
23753	3.9524	1.8182	0.1	5572.6
23754	4.0448	1.9091	0.1	5554.1
23755	3.7677	1.8182	0.1	5812.9
23756	3.8601	1.9091	0.1	5792.9
23757	3.5829	1.8182	0.1	6134.8
23758	3.6753	1.9091	0.1	6105.1
23759	3.3981	1.8182	0.1	6589.1
23760	3.4905	1.9091	0.1	6529.7
23761	3.2134	1.8182	0.1	7270.
23762	3.3057	1.9091	0.1	7140.7
23763	3.0286	1.8182	0.1	8436.7
23764	3.121	1.9091	0.1	8073.9
23765	2.8438	1.8182	0.1	10933
23766	2.9362	1.9091	0.1	9732.3
23767	2.7514	1.9091	0.1	14000
23768	2.6591	1.8182	0.1	11124
23769	23.723	2.	0.1	195.07
23770	23.815	2.0909	0.1	189.28
23771	23.908	2.	0.1	180.74
23772	23.538	2.	0.1	214.95
23773	23.63	2.0909	0.1	206.71
23774	23.353	2.	0.1	238.65
23775	23.446	2.0909	0.1	228.54
23776	23.169	2.	0.1	265.18
23777	23.261	2.0909	0.1	253.65
23778	22.984	2.	0.1	293.86
23779	23.076	2.0909	0.1	281.21
23780	22.799	2.	0.1	324.19
23781	22.891	2.0909	0.1	310.64
23782	22.614	2.	0.1	355.84
23783	22.707	2.0909	0.1	341.54
23784	22.429	2.	0.1	388.56
23785	22.522	2.0909	0.1	373.63
23786	22.245	2.	0.1	422.2
23787	22.337	2.0909	0.1	406.7
23788	22.06	2.	0.1	456.61
23789	22.152	2.0909	0.1	440.62
23790	21.875	2.	0.1	491.71
23791	21.968	2.0909	0.1	475.27
23792	21.69	2.	0.1	527.42
23793	21.783	2.0909	0.1	510.56
23794	21.506	2.	0.1	563.68
23795	21.598	2.0909	0.1	546.44
23796	21.321	2.	0.1	600.44
23797	21.413	2.0909	0.1	582.85
23798	21.136	2.	0.1	637.67
23799	21.228	2.0909	0.1	619.75
23800	20.951	2.	0.1	675.33
23801	21.044	2.0909	0.1	657.11
23802	20.767	2.	0.1	713.4
23803	20.859	2.0909	0.1	694.89
23804	20.582	2.	0.1	751.86
23805	20.674	2.0909	0.1	733.08
23806	20.397	2.	0.1	790.69
23807	20.489	2.0909	0.1	771.65
23808	20.212	2.	0.1	829.87
23809	20.305	2.0909	0.1	810.59
23810	20.027	2.	0.1	869.38
23811	20.12	2.0909	0.1	849.87
23812	19.843	2.	0.1	909.22
23813	19.935	2.0909	0.1	889.49
23814	19.658	2.	0.1	949.37
23815	19.75	2.0909	0.1	929.43
23816	19.473	2.	0.1	989.82
23817	19.566	2.0909	0.1	969.69
23818	19.288	2.	0.1	1030.6
23819	19.381	2.0909	0.1	1010.2
23820	19.104	2.	0.1	1071.6
23821	19.196	2.0909	0.1	1051.1
23822	18.919	2.	0.1	1112.9
23823	19.011	2.0909	0.1	1092.2
23824	18.734	2.	0.1	1154.5
23825	18.826	2.0909	0.1	1133.6
23826	18.549	2.	0.1	1196.3
23827	18.642	2.0909	0.1	1175.3
23828	18.365	2.	0.1	1238.4
23829	18.457	2.0909	0.1	1217.3
23830	18.18	2.	0.1	1280.8
23831	18.272	2.0909	0.1	1259.5
23832	17.995	2.	0.1	1323.4
23833	18.087	2.0909	0.1	1301.9
23834	17.81	2.	0.1	1366.3
23835	17.903	2.0909	0.1	1344.7
23836	17.625	2.	0.1	1409.3
23837	17.718	2.0909	0.1	1387.6
23838	17.441	2.	0.1	1452.7
23839	17.533	2.0909	0.1	1430.8
23840	17.256	2.	0.1	1496.2
23841	17.348	2.0909	0.1	1474.2
23842	17.071	2.	0.1	1540.
23843	17.164	2.0909	0.1	1517.9
23844	16.886	2.	0.1	1584.
23845	16.979	2.0909	0.1	1561.8
23846	16.702	2.	0.1	1628.3
23847	16.794	2.0909	0.1	1605.9
23848	16.517	2.	0.1	1672.7
23849	16.609	2.0909	0.1	1650.2
23850	16.332	2.	0.1	1717.4
23851	16.424	2.0909	0.1	1694.8
23852	16.147	2.	0.1	1762.3
23853	16.24	2.0909	0.1	1739.6
23854	15.963	2.	0.1	1807.4
23855	16.055	2.0909	0.1	1784.6
23856	15.778	2.	0.1	1852.7
23857	15.87	2.0909	0.1	1829.8
23858	15.593	2.	0.1	1898.2
23859	15.685	2.0909	0.1	1875.2
23860	15.408	2.	0.1	1943.9
23861	15.501	2.0909	0.1	1920.8
23862	15.223	2.	0.1	1989.9
23863	15.316	2.0909	0.1	1966.6
23864	15.039	2.	0.1	2036.
23865	15.131	2.0909	0.1	2012.6
23866	14.854	2.	0.1	2082.3
23867	14.946	2.0909	0.1	2058.8
23868	14.669	2.	0.1	2128.8
23869	14.761	2.0909	0.1	2105.2
23870	14.484	2.	0.1	2175.5
23871	14.577	2.0909	0.1	2151.8
23872	14.3	2.	0.1	2222.4
23873	14.392	2.0909	0.1	2198.6
23874	14.115	2.	0.1	2269.4
23875	14.207	2.0909	0.1	2245.5
23876	13.93	2.	0.1	2316.7
23877	14.022	2.0909	0.1	2292.7
23878	13.745	2.	0.1	2364.1
23879	13.838	2.0909	0.1	2340.
23880	13.56	2.	0.1	2411.7
23881	13.653	2.0909	0.1	2387.5
23882	13.376	2.	0.1	2459.5
23883	13.468	2.0909	0.1	2435.2
23884	13.191	2.	0.1	2507.5
23885	13.283	2.0909	0.1	2483.1
23886	13.006	2.	0.1	2555.6
23887	13.099	2.0909	0.1	2531.1
23888	12.821	2.	0.1	2603.9
23889	12.914	2.0909	0.1	2579.3
23890	12.637	2.	0.1	2652.3
23891	12.729	2.0909	0.1	2627.6
23892	12.452	2.	0.1	2700.9
23893	12.544	2.0909	0.1	2676.1
23894	12.267	2.	0.1	2749.6
23895	12.359	2.0909	0.1	2724.8
23896	12.082	2.	0.1	2798.5
23897	12.175	2.0909	0.1	2773.6
23898	11.898	2.	0.1	2847.5
23899	11.99	2.0909	0.1	2822.5
23900	11.713	2.	0.1	2896.7
23901	11.805	2.0909	0.1	2871.5
23902	11.528	2.	0.1	2946.
23903	11.62	2.0909	0.1	2920.7
23904	11.343	2.	0.1	2995.4
23905	11.436	2.0909	0.1	2970.1
23906	11.158	2.	0.1	3044.9
23907	11.251	2.0909	0.1	3019.5
23908	10.974	2.	0.1	3094.5
23909	11.066	2.0909	0.1	3069.
23910	10.789	2.	0.1	3144.3
23911	10.881	2.0909	0.1	3118.7
23912	10.604	2.	0.1	3194.1
23913	10.697	2.0909	0.1	3168.4
23914	10.419	2.	0.1	3244.
23915	10.512	2.0909	0.1	3218.2
23916	10.235	2.	0.1	3294.
23917	10.327	2.0909	0.1	3268.1
23918	10.05	2.	0.1	3344.
23919	10.142	2.0909	0.1	3318.1
23920	9.8651	2.	0.1	3394.2
23921	9.9575	2.0909	0.1	3368.1
23922	9.6803	2.	0.1	3444.3
23923	9.7727	2.0909	0.1	3418.2
23924	9.4955	2.	0.1	3494.5
23925	9.5879	2.0909	0.1	3468.3
23926	9.3108	2.	0.1	3544.8
23927	9.4032	2.0909	0.1	3518.4
23928	9.126	2.	0.1	3595.1
23929	9.2184	2.0909	0.1	3568.6
23930	8.9412	2.	0.1	3645.4
23931	9.0336	2.0909	0.1	3618.8
23932	8.7565	2.	0.1	3695.7
23933	8.8489	2.0909	0.1	3669.
23934	8.5717	2.	0.1	3746.1
23935	8.6641	2.0909	0.1	3719.2
23936	8.3869	2.	0.1	3796.4
23937	8.4793	2.0909	0.1	3769.4
23938	8.2022	2.	0.1	3846.8
23939	8.2945	2.0909	0.1	3819.7
23940	8.0174	2.	0.1	3897.3
23941	8.1098	2.0909	0.1	3869.9
23942	7.8326	2.	0.1	3947.9
23943	7.925	2.0909	0.1	3920.3
23944	7.6478	2.	0.1	3998.5
23945	7.7402	2.0909	0.1	3970.7
23946	7.4631	2.	0.1	4049.4
23947	7.5555	2.0909	0.1	4021.3
23948	7.2783	2.	0.1	4100.5
23949	7.3707	2.0909	0.1	4072.1
23950	7.0935	2.	0.1	4152.
23951	7.1859	2.0909	0.1	4123.3
23952	6.9088	2.	0.1	4204.
23953	7.0011	2.0909	0.1	4174.9
23954	6.724	2.	0.1	4256.7
23955	6.8164	2.0909	0.1	4227.1
23956	6.5392	2.	0.1	4310.4
23957	6.6316	2.0909	0.1	4280.2
23958	6.3545	2.	0.1	4365.4
23959	6.4468	2.0909	0.1	4334.6
23960	6.1697	2.	0.1	4422.2
23961	6.2621	2.0909	0.1	4390.6
23962	5.9849	2.	0.1	4481.2
23963	6.0773	2.0909	0.1	4448.8
23964	5.8001	2.	0.1	4543.2
23965	5.8925	2.0909	0.1	4509.9
23966	5.6154	2.	0.1	4609.1
23967	5.7078	2.0909	0.1	4574.8
23968	5.4306	2.	0.1	4680.1
23969	5.523	2.0909	0.1	4644.7
23970	5.2458	2.	0.1	4757.7
23971	5.3382	2.0909	0.1	4721.1
23972	5.0611	2.	0.1	4843.9
23973	5.1534	2.0909	0.1	4806.
23974	4.8763	2.	0.1	4941.2
23975	4.9687	2.0909	0.1	4902.
23976	4.6915	2.	0.1	5053.2
23977	4.7839	2.0909	0.1	5012.4
23978	4.5068	2.	0.1	5184.3
23979	4.5991	2.0909	0.1	5141.7
23980	4.322	2.	0.1	5341.
23981	4.4144	2.0909	0.1	5296.
23982	4.1372	2.	0.1	5532.4
23983	4.2296	2.0909	0.1	5483.7
23984	3.9524	2.	0.1	5772.2
23985	4.0448	2.0909	0.1	5716.7
23986	3.7677	2.	0.1	6081.4
23987	3.8601	2.0909	0.1	6012.7
23988	3.5829	2.	0.1	6494.2
23989	3.6753	2.0909	0.1	6399.6
23990	3.3981	2.	0.1	7073.3
23991	3.4905	2.0909	0.1	6921.7
23992	3.2134	2.	0.1	7935.
23993	3.3057	2.0909	0.1	7665.
23994	3.0286	2.	0.1	9375.
23995	3.121	2.0909	0.1	8777.1
23996	2.8438	2.	0.1	12832
23997	2.9362	2.0909	0.1	10714
23998	2.7514	2.0909	0.1	15044
23999	2.6591	2.	0.1	22643
24000	23.723	2.1818	0.1	199.74
24001	23.815	2.2727	0.1	193.5
24002	23.908	2.1818	0.1	185.58
24003	23.538	2.1818	0.1	219.46
24004	23.63	2.2727	0.1	210.83
24005	23.353	2.1818	0.1	242.95
24006	23.446	2.2727	0.1	232.49
24007	23.169	2.1818	0.1	269.26
24008	23.261	2.2727	0.1	257.41
24009	22.984	2.1818	0.1	297.71
24010	23.076	2.2727	0.1	284.77
24011	22.799	2.1818	0.1	327.8
24012	22.891	2.2727	0.1	314.
24013	22.614	2.1818	0.1	359.21
24014	22.707	2.2727	0.1	344.69
24015	22.429	2.1818	0.1	391.7
24016	22.522	2.2727	0.1	376.57
24017	22.245	2.1818	0.1	425.09
24018	22.337	2.2727	0.1	409.43
24019	22.06	2.1818	0.1	459.26
24020	22.152	2.2727	0.1	443.13
24021	21.875	2.1818	0.1	494.12
24022	21.968	2.2727	0.1	477.57
24023	21.69	2.1818	0.1	529.6
24024	21.783	2.2727	0.1	512.65
24025	21.506	2.1818	0.1	565.64
24026	21.598	2.2727	0.1	548.33
24027	21.321	2.1818	0.1	602.2
24028	21.413	2.2727	0.1	584.55
24029	21.136	2.1818	0.1	639.23
24030	21.228	2.2727	0.1	621.27
24031	20.951	2.1818	0.1	676.72
24032	21.044	2.2727	0.1	658.46
24033	20.767	2.1818	0.1	714.62
24034	20.859	2.2727	0.1	696.08
24035	20.582	2.1818	0.1	752.92
24036	20.674	2.2727	0.1	734.12
24037	20.397	2.1818	0.1	791.6
24038	20.489	2.2727	0.1	772.56
24039	20.212	2.1818	0.1	830.65
24040	20.305	2.2727	0.1	811.36
24041	20.027	2.1818	0.1	870.04
24042	20.12	2.2727	0.1	850.53
24043	19.843	2.1818	0.1	909.76
24044	19.935	2.2727	0.1	890.04
24045	19.658	2.1818	0.1	949.81
24046	19.75	2.2727	0.1	929.89
24047	19.473	2.1818	0.1	990.17
24048	19.566	2.2727	0.1	970.06
24049	19.288	2.1818	0.1	1030.8
24050	19.381	2.2727	0.1	1010.5
24051	19.104	2.1818	0.1	1071.8
24052	19.196	2.2727	0.1	1051.3
24053	18.919	2.1818	0.1	1113.
24054	19.011	2.2727	0.1	1092.4
24055	18.734	2.1818	0.1	1154.5
24056	18.826	2.2727	0.1	1133.7
24057	18.549	2.1818	0.1	1196.3
24058	18.642	2.2727	0.1	1175.4
24059	18.365	2.1818	0.1	1238.4
24060	18.457	2.2727	0.1	1217.3
24061	18.18	2.1818	0.1	1280.7
24062	18.272	2.2727	0.1	1259.4
24063	17.995	2.1818	0.1	1323.3
24064	18.087	2.2727	0.1	1301.8
24065	17.81	2.1818	0.1	1366.1
24066	17.903	2.2727	0.1	1344.5
24067	17.625	2.1818	0.1	1409.1
24068	17.718	2.2727	0.1	1387.4
24069	17.441	2.1818	0.1	1452.4
24070	17.533	2.2727	0.1	1430.6
24071	17.256	2.1818	0.1	1496.
24072	17.348	2.2727	0.1	1474.
24073	17.071	2.1818	0.1	1539.7
24074	17.164	2.2727	0.1	1517.6
24075	16.886	2.1818	0.1	1583.7
24076	16.979	2.2727	0.1	1561.5
24077	16.702	2.1818	0.1	1627.9
24078	16.794	2.2727	0.1	1605.6
24079	16.517	2.1818	0.1	1672.4
24080	16.609	2.2727	0.1	1649.9
24081	16.332	2.1818	0.1	1717.
24082	16.424	2.2727	0.1	1694.5
24083	16.147	2.1818	0.1	1761.9
24084	16.24	2.2727	0.1	1739.2
24085	15.963	2.1818	0.1	1807.
24086	16.055	2.2727	0.1	1784.2
24087	15.778	2.1818	0.1	1852.3
24088	15.87	2.2727	0.1	1829.4
24089	15.593	2.1818	0.1	1897.8
24090	15.685	2.2727	0.1	1874.8
24091	15.408	2.1818	0.1	1943.5
24092	15.501	2.2727	0.1	1920.3
24093	15.223	2.1818	0.1	1989.4
24094	15.316	2.2727	0.1	1966.1
24095	15.039	2.1818	0.1	2035.5
24096	15.131	2.2727	0.1	2012.1
24097	14.854	2.1818	0.1	2081.8
24098	14.946	2.2727	0.1	2058.3
24099	14.669	2.1818	0.1	2128.2
24100	14.761	2.2727	0.1	2104.7
24101	14.484	2.1818	0.1	2174.9
24102	14.577	2.2727	0.1	2151.3
24103	14.3	2.1818	0.1	2221.8
24104	14.392	2.2727	0.1	2198.1
24105	14.115	2.1818	0.1	2268.8
24106	14.207	2.2727	0.1	2245.
24107	13.93	2.1818	0.1	2316.1
24108	14.022	2.2727	0.1	2292.1
24109	13.745	2.1818	0.1	2363.5
24110	13.838	2.2727	0.1	2339.5
24111	13.56	2.1818	0.1	2411.1
24112	13.653	2.2727	0.1	2386.9
24113	13.376	2.1818	0.1	2458.8
24114	13.468	2.2727	0.1	2434.6
24115	13.191	2.1818	0.1	2506.7
24116	13.283	2.2727	0.1	2482.4
24117	13.006	2.1818	0.1	2554.8
24118	13.099	2.2727	0.1	2530.4
24119	12.821	2.1818	0.1	2603.1
24120	12.914	2.2727	0.1	2578.6
24121	12.637	2.1818	0.1	2651.5
24122	12.729	2.2727	0.1	2626.9
24123	12.452	2.1818	0.1	2700.
24124	12.544	2.2727	0.1	2675.4
24125	12.267	2.1818	0.1	2748.7
24126	12.359	2.2727	0.1	2724.
24127	12.082	2.1818	0.1	2797.6
24128	12.175	2.2727	0.1	2772.7
24129	11.898	2.1818	0.1	2846.5
24130	11.99	2.2727	0.1	2821.6
24131	11.713	2.1818	0.1	2895.6
24132	11.805	2.2727	0.1	2870.6
24133	11.528	2.1818	0.1	2944.8
24134	11.62	2.2727	0.1	2919.8
24135	11.343	2.1818	0.1	2994.2
24136	11.436	2.2727	0.1	2969.
24137	11.158	2.1818	0.1	3043.6
24138	11.251	2.2727	0.1	3018.4
24139	10.974	2.1818	0.1	3093.2
24140	11.066	2.2727	0.1	3067.8
24141	10.789	2.1818	0.1	3142.8
24142	10.881	2.2727	0.1	3117.4
24143	10.604	2.1818	0.1	3192.6
24144	10.697	2.2727	0.1	3167.1
24145	10.419	2.1818	0.1	3242.4
24146	10.512	2.2727	0.1	3216.8
24147	10.235	2.1818	0.1	3292.2
24148	10.327	2.2727	0.1	3266.6
24149	10.05	2.1818	0.1	3342.2
24150	10.142	2.2727	0.1	3316.4
24151	9.8651	2.1818	0.1	3392.1
24152	9.9575	2.2727	0.1	3366.3
24153	9.6803	2.1818	0.1	3442.1
24154	9.7727	2.2727	0.1	3416.3
24155	9.4955	2.1818	0.1	3492.2
24156	9.5879	2.2727	0.1	3466.2
24157	9.3108	2.1818	0.1	3542.2
24158	9.4032	2.2727	0.1	3516.2
24159	9.126	2.1818	0.1	3592.3
24160	9.2184	2.2727	0.1	3566.2
24161	8.9412	2.1818	0.1	3642.4
24162	9.0336	2.2727	0.1	3616.2
24163	8.7565	2.1818	0.1	3692.5
24164	8.8489	2.2727	0.1	3666.2
24165	8.5717	2.1818	0.1	3742.6
24166	8.6641	2.2727	0.1	3716.2
24167	8.3869	2.1818	0.1	3792.7
24168	8.4793	2.2727	0.1	3766.1
24169	8.2022	2.1818	0.1	3842.8
24170	8.2945	2.2727	0.1	3816.1
24171	8.0174	2.1818	0.1	3892.9
24172	8.1098	2.2727	0.1	3866.1
24173	7.8326	2.1818	0.1	3943.2
24174	7.925	2.2727	0.1	3916.2
24175	7.6478	2.1818	0.1	3993.5
24176	7.7402	2.2727	0.1	3966.3
24177	7.4631	2.1818	0.1	4044.1
24178	7.5555	2.2727	0.1	4016.6
24179	7.2783	2.1818	0.1	4094.9
24180	7.3707	2.2727	0.1	4067.1
24181	7.0935	2.1818	0.1	4146.1
24182	7.1859	2.2727	0.1	4117.9
24183	6.9088	2.1818	0.1	4197.9
24184	7.0011	2.2727	0.1	4169.3
24185	6.724	2.1818	0.1	4250.6
24186	6.8164	2.2727	0.1	4221.4
24187	6.5392	2.1818	0.1	4304.4
24188	6.6316	2.2727	0.1	4274.6
24189	6.3545	2.1818	0.1	4359.8
24190	6.4468	2.2727	0.1	4329.1
24191	6.1697	2.1818	0.1	4417.3
24192	6.2621	2.2727	0.1	4385.6
24193	5.9849	2.1818	0.1	4477.6
24194	6.0773	2.2727	0.1	4444.7
24195	5.8001	2.1818	0.1	4541.6
24196	5.8925	2.2727	0.1	4507.2
24197	5.6154	2.1818	0.1	4610.5
24198	5.7078	2.2727	0.1	4574.3
24199	5.4306	2.1818	0.1	4685.8
24200	5.523	2.2727	0.1	4647.5
24201	5.2458	2.1818	0.1	4769.5
24202	5.3382	2.2727	0.1	4728.6
24203	5.0611	2.1818	0.1	4864.2
24204	5.1534	2.2727	0.1	4820.1
24205	4.8763	2.1818	0.1	4973.2
24206	4.9687	2.2727	0.1	4925.3
24207	4.6915	2.1818	0.1	5101.
24208	4.7839	2.2727	0.1	5048.3
24209	4.5068	2.1818	0.1	5253.3
24210	4.5991	2.2727	0.1	5194.7
24211	4.322	2.1818	0.1	5438.3
24212	4.4144	2.2727	0.1	5371.9
24213	4.1372	2.1818	0.1	5667.1
24214	4.2296	2.2727	0.1	5589.9
24215	3.9524	2.1818	0.1	5955.7
24216	4.0448	2.2727	0.1	5862.9
24217	3.7677	2.1818	0.1	6328.5
24218	3.8601	2.2727	0.1	6211.1
24219	3.5829	2.1818	0.1	6823.8
24220	3.6753	2.2727	0.1	6664.9
24221	3.3981	2.1818	0.1	7509.9
24222	3.4905	2.2727	0.1	7272.1
24223	3.2134	2.1818	0.1	8506.5
24224	3.3057	2.2727	0.1	8116.3
24225	3.0286	2.1818	0.1	10134
24226	3.121	2.2727	0.1	9341.7
24227	2.8438	2.1818	0.1	13118
24228	2.9362	2.2727	0.1	11295
24229	2.7514	2.2727	0.1	14578
24230	2.6591	2.1818	0.1	17725
24231	23.723	2.3636	0.1	203.43
24232	23.815	2.4545	0.1	196.75
24233	23.908	2.3636	0.1	189.39
24234	23.538	2.3636	0.1	223.03
24235	23.63	2.4545	0.1	214.
24236	23.353	2.3636	0.1	246.36
24237	23.446	2.4545	0.1	235.54
24238	23.169	2.3636	0.1	272.5
24239	23.261	2.4545	0.1	260.32
24240	22.984	2.3636	0.1	300.77
24241	23.076	2.4545	0.1	287.53
24242	22.799	2.3636	0.1	330.69
24243	22.891	2.4545	0.1	316.61
24244	22.614	2.3636	0.1	361.92
24245	22.707	2.4545	0.1	347.14
24246	22.429	2.3636	0.1	394.22
24247	22.522	2.4545	0.1	378.86
24248	22.245	2.3636	0.1	427.42
24249	22.337	2.4545	0.1	411.56
24250	22.06	2.3636	0.1	461.41
24251	22.152	2.4545	0.1	445.1
24252	21.875	2.3636	0.1	496.09
24253	21.968	2.4545	0.1	479.38
24254	21.69	2.3636	0.1	531.39
24255	21.783	2.4545	0.1	514.31
24256	21.506	2.3636	0.1	567.26
24257	21.598	2.4545	0.1	549.84
24258	21.321	2.3636	0.1	603.65
24259	21.413	2.4545	0.1	585.91
24260	21.136	2.3636	0.1	640.53
24261	21.228	2.4545	0.1	622.49
24262	20.951	2.3636	0.1	677.87
24263	21.044	2.4545	0.1	659.54
24264	20.767	2.3636	0.1	715.63
24265	20.859	2.4545	0.1	697.04
24266	20.582	2.3636	0.1	753.8
24267	20.674	2.4545	0.1	734.96
24268	20.397	2.3636	0.1	792.37
24269	20.489	2.4545	0.1	773.29
24270	20.212	2.3636	0.1	831.3
24271	20.305	2.4545	0.1	812.
24272	20.027	2.3636	0.1	870.59
24273	20.12	2.4545	0.1	851.07
24274	19.843	2.3636	0.1	910.23
24275	19.935	2.4545	0.1	890.5
24276	19.658	2.3636	0.1	950.19
24277	19.75	2.4545	0.1	930.27
24278	19.473	2.3636	0.1	990.47
24279	19.566	2.4545	0.1	970.36
24280	19.288	2.3636	0.1	1031.1
24281	19.381	2.4545	0.1	1010.8
24282	19.104	2.3636	0.1	1072.
24283	19.196	2.4545	0.1	1051.5
24284	18.919	2.3636	0.1	1113.1
24285	19.011	2.4545	0.1	1092.5
24286	18.734	2.3636	0.1	1154.6
24287	18.826	2.4545	0.1	1133.8
24288	18.549	2.3636	0.1	1196.3
24289	18.642	2.4545	0.1	1175.4
24290	18.365	2.3636	0.1	1238.4
24291	18.457	2.4545	0.1	1217.3
24292	18.18	2.3636	0.1	1280.6
24293	18.272	2.4545	0.1	1259.4
24294	17.995	2.3636	0.1	1323.2
24295	18.087	2.4545	0.1	1301.8
24296	17.81	2.3636	0.1	1365.9
24297	17.903	2.4545	0.1	1344.4
24298	17.625	2.3636	0.1	1409.
24299	17.718	2.4545	0.1	1387.3
24300	17.441	2.3636	0.1	1452.2
24301	17.533	2.4545	0.1	1430.4
24302	17.256	2.3636	0.1	1495.7
24303	17.348	2.4545	0.1	1473.8
24304	17.071	2.3636	0.1	1539.5
24305	17.164	2.4545	0.1	1517.4
24306	16.886	2.3636	0.1	1583.5
24307	16.979	2.4545	0.1	1561.3
24308	16.702	2.3636	0.1	1627.6
24309	16.794	2.4545	0.1	1605.4
24310	16.517	2.3636	0.1	1672.1
24311	16.609	2.4545	0.1	1649.7
24312	16.332	2.3636	0.1	1716.7
24313	16.424	2.4545	0.1	1694.2
24314	16.147	2.3636	0.1	1761.6
24315	16.24	2.4545	0.1	1738.9
24316	15.963	2.3636	0.1	1806.6
24317	16.055	2.4545	0.1	1783.9
24318	15.778	2.3636	0.1	1851.9
24319	15.87	2.4545	0.1	1829.1
24320	15.593	2.3636	0.1	1897.4
24321	15.685	2.4545	0.1	1874.4
24322	15.408	2.3636	0.1	1943.1
24323	15.501	2.4545	0.1	1920.
24324	15.223	2.3636	0.1	1989.
24325	15.316	2.4545	0.1	1965.8
24326	15.039	2.3636	0.1	2035.1
24327	15.131	2.4545	0.1	2011.8
24328	14.854	2.3636	0.1	2081.3
24329	14.946	2.4545	0.1	2058.
24330	14.669	2.3636	0.1	2127.8
24331	14.761	2.4545	0.1	2104.3
24332	14.484	2.3636	0.1	2174.5
24333	14.577	2.4545	0.1	2150.9
24334	14.3	2.3636	0.1	2221.3
24335	14.392	2.4545	0.1	2197.7
24336	14.115	2.3636	0.1	2268.4
24337	14.207	2.4545	0.1	2244.6
24338	13.93	2.3636	0.1	2315.6
24339	14.022	2.4545	0.1	2291.7
24340	13.745	2.3636	0.1	2363.
24341	13.838	2.4545	0.1	2339.
24342	13.56	2.3636	0.1	2410.5
24343	13.653	2.4545	0.1	2386.5
24344	13.376	2.3636	0.1	2458.3
24345	13.468	2.4545	0.1	2434.1
24346	13.191	2.3636	0.1	2506.2
24347	13.283	2.4545	0.1	2481.9
24348	13.006	2.3636	0.1	2554.2
24349	13.099	2.4545	0.1	2529.9
24350	12.821	2.3636	0.1	2602.4
24351	12.914	2.4545	0.1	2578.
24352	12.637	2.3636	0.1	2650.8
24353	12.729	2.4545	0.1	2626.3
24354	12.452	2.3636	0.1	2699.3
24355	12.544	2.4545	0.1	2674.8
24356	12.267	2.3636	0.1	2748.
24357	12.359	2.4545	0.1	2723.3
24358	12.082	2.3636	0.1	2796.8
24359	12.175	2.4545	0.1	2772.1
24360	11.898	2.3636	0.1	2845.7
24361	11.99	2.4545	0.1	2820.9
24362	11.713	2.3636	0.1	2894.8
24363	11.805	2.4545	0.1	2869.9
24364	11.528	2.3636	0.1	2943.9
24365	11.62	2.4545	0.1	2919.
24366	11.343	2.3636	0.1	2993.2
24367	11.436	2.4545	0.1	2968.2
24368	11.158	2.3636	0.1	3042.6
24369	11.251	2.4545	0.1	3017.5
24370	10.974	2.3636	0.1	3092.1
24371	11.066	2.4545	0.1	3066.9
24372	10.789	2.3636	0.1	3141.7
24373	10.881	2.4545	0.1	3116.4
24374	10.604	2.3636	0.1	3191.3
24375	10.697	2.4545	0.1	3166.
24376	10.419	2.3636	0.1	3241.
24377	10.512	2.4545	0.1	3215.6
24378	10.235	2.3636	0.1	3290.8
24379	10.327	2.4545	0.1	3265.4
24380	10.05	2.3636	0.1	3340.6
24381	10.142	2.4545	0.1	3315.1
24382	9.8651	2.3636	0.1	3390.5
24383	9.9575	2.4545	0.1	3364.9
24384	9.6803	2.3636	0.1	3440.4
24385	9.7727	2.4545	0.1	3414.7
24386	9.4955	2.3636	0.1	3490.3
24387	9.5879	2.4545	0.1	3464.6
24388	9.3108	2.3636	0.1	3540.2
24389	9.4032	2.4545	0.1	3514.4
24390	9.126	2.3636	0.1	3590.1
24391	9.2184	2.4545	0.1	3564.3
24392	8.9412	2.3636	0.1	3640.
24393	9.0336	2.4545	0.1	3614.1
24394	8.7565	2.3636	0.1	3689.8
24395	8.8489	2.4545	0.1	3663.9
24396	8.5717	2.3636	0.1	3739.7
24397	8.6641	2.4545	0.1	3713.7
24398	8.3869	2.3636	0.1	3789.6
24399	8.4793	2.4545	0.1	3763.5
24400	8.2022	2.3636	0.1	3839.4
24401	8.2945	2.4545	0.1	3813.3
24402	8.0174	2.3636	0.1	3889.3
24403	8.1098	2.4545	0.1	3863.
24404	7.8326	2.3636	0.1	3939.3
24405	7.925	2.4545	0.1	3912.8
24406	7.6478	2.3636	0.1	3989.3
24407	7.7402	2.4545	0.1	3962.7
24408	7.4631	2.3636	0.1	4039.6
24409	7.5555	2.4545	0.1	4012.7
24410	7.2783	2.3636	0.1	4090.1
24411	7.3707	2.4545	0.1	4063.
24412	7.0935	2.3636	0.1	4141.1
24413	7.1859	2.4545	0.1	4113.6
24414	6.9088	2.3636	0.1	4192.8
24415	7.0011	2.4545	0.1	4164.8
24416	6.724	2.3636	0.1	4245.4
24417	6.8164	2.4545	0.1	4216.8
24418	6.5392	2.3636	0.1	4299.3
24419	6.6316	2.4545	0.1	4269.9
24420	6.3545	2.3636	0.1	4354.9
24421	6.4468	2.4545	0.1	4324.6
24422	6.1697	2.3636	0.1	4413.
24423	6.2621	2.4545	0.1	4381.4
24424	5.9849	2.3636	0.1	4474.3
24425	6.0773	2.4545	0.1	4441.2
24426	5.8001	2.3636	0.1	4540.
24427	5.8925	2.4545	0.1	4504.8
24428	5.6154	2.3636	0.1	4611.4
24429	5.7078	2.4545	0.1	4573.7
24430	5.4306	2.3636	0.1	4690.3
24431	5.523	2.4545	0.1	4649.6
24432	5.2458	2.3636	0.1	4779.3
24433	5.3382	2.4545	0.1	4734.6
24434	5.0611	2.3636	0.1	4881.3
24435	5.1534	2.4545	0.1	4831.6
24436	4.8763	2.3636	0.1	5000.4
24437	4.9687	2.4545	0.1	4944.4
24438	4.6915	2.3636	0.1	5142.
24439	4.7839	2.4545	0.1	5078.
24440	4.5068	2.3636	0.1	5313.1
24441	4.5991	2.4545	0.1	5238.9
24442	4.322	2.3636	0.1	5523.3
24443	4.4144	2.4545	0.1	5435.6
24444	4.1372	2.3636	0.1	5785.4
24445	4.2296	2.4545	0.1	5679.9
24446	3.9524	2.3636	0.1	6117.6
24447	4.0448	2.4545	0.1	5987.4
24448	3.7677	2.3636	0.1	6546.5
24449	3.8601	2.4545	0.1	6380.3
24450	3.5829	2.3636	0.1	7112.2
24451	3.6753	2.4545	0.1	6889.9
24452	3.3981	2.3636	0.1	7878.7
24453	3.4905	2.4545	0.1	7562.7
24454	3.2134	2.3636	0.1	8957.7
24455	3.3057	2.4545	0.1	8468.
24456	3.0286	2.3636	0.1	10531
24457	3.121	2.4545	0.1	9714.2
24458	2.8438	2.3636	0.1	12830
24459	2.9362	2.4545	0.1	11435
24460	2.7514	2.4545	0.1	13667
24461	2.6591	2.3636	0.1	15241
24462	23.723	2.5455	0.1	206.16
24463	23.815	2.6364	0.1	199.05
24464	23.908	2.5455	0.1	192.22
24465	23.538	2.5455	0.1	225.68
24466	23.63	2.6364	0.1	216.25
24467	23.353	2.5455	0.1	248.9
24468	23.446	2.6364	0.1	237.7
24469	23.169	2.5455	0.1	274.92
24470	23.261	2.6364	0.1	262.39
24471	22.984	2.5455	0.1	303.07
24472	23.076	2.6364	0.1	289.49
24473	22.799	2.5455	0.1	332.85
24474	22.891	2.6364	0.1	318.46
24475	22.614	2.5455	0.1	363.95
24476	22.707	2.6364	0.1	348.9
24477	22.429	2.5455	0.1	396.12
24478	22.522	2.6364	0.1	380.5
24479	22.245	2.5455	0.1	429.19
24480	22.337	2.6364	0.1	413.09
24481	22.06	2.5455	0.1	463.04
24482	22.152	2.6364	0.1	446.52
24483	21.875	2.5455	0.1	497.58
24484	21.968	2.6364	0.1	480.69
24485	21.69	2.5455	0.1	532.75
24486	21.783	2.6364	0.1	515.51
24487	21.506	2.5455	0.1	568.5
24488	21.598	2.6364	0.1	550.92
24489	21.321	2.5455	0.1	604.76
24490	21.413	2.6364	0.1	586.89
24491	21.136	2.5455	0.1	641.53
24492	21.228	2.6364	0.1	623.37
24493	20.951	2.5455	0.1	678.75
24494	21.044	2.6364	0.1	660.33
24495	20.767	2.5455	0.1	716.41
24496	20.859	2.6364	0.1	697.74
24497	20.582	2.5455	0.1	754.49
24498	20.674	2.6364	0.1	735.58
24499	20.397	2.5455	0.1	792.96
24500	20.489	2.6364	0.1	773.82
24501	20.212	2.5455	0.1	831.81
24502	20.305	2.6364	0.1	812.46
24503	20.027	2.5455	0.1	871.03
24504	20.12	2.6364	0.1	851.47
24505	19.843	2.5455	0.1	910.59
24506	19.935	2.6364	0.1	890.84
24507	19.658	2.5455	0.1	950.49
24508	19.75	2.6364	0.1	930.55
24509	19.473	2.5455	0.1	990.71
24510	19.566	2.6364	0.1	970.59
24511	19.288	2.5455	0.1	1031.3
24512	19.381	2.6364	0.1	1011.
24513	19.104	2.5455	0.1	1072.1
24514	19.196	2.6364	0.1	1051.6
24515	18.919	2.5455	0.1	1113.2
24516	19.011	2.6364	0.1	1092.6
24517	18.734	2.5455	0.1	1154.7
24518	18.826	2.6364	0.1	1133.9
24519	18.549	2.5455	0.1	1196.4
24520	18.642	2.6364	0.1	1175.4
24521	18.365	2.5455	0.1	1238.3
24522	18.457	2.6364	0.1	1217.3
24523	18.18	2.5455	0.1	1280.6
24524	18.272	2.6364	0.1	1259.4
24525	17.995	2.5455	0.1	1323.1
24526	18.087	2.6364	0.1	1301.7
24527	17.81	2.5455	0.1	1365.8
24528	17.903	2.6364	0.1	1344.3
24529	17.625	2.5455	0.1	1408.8
24530	17.718	2.6364	0.1	1387.2
24531	17.441	2.5455	0.1	1452.1
24532	17.533	2.6364	0.1	1430.3
24533	17.256	2.5455	0.1	1495.6
24534	17.348	2.6364	0.1	1473.7
24535	17.071	2.5455	0.1	1539.3
24536	17.164	2.6364	0.1	1517.3
24537	16.886	2.5455	0.1	1583.3
24538	16.979	2.6364	0.1	1561.1
24539	16.702	2.5455	0.1	1627.4
24540	16.794	2.6364	0.1	1605.2
24541	16.517	2.5455	0.1	1671.9
24542	16.609	2.6364	0.1	1649.5
24543	16.332	2.5455	0.1	1716.5
24544	16.424	2.6364	0.1	1694.
24545	16.147	2.5455	0.1	1761.3
24546	16.24	2.6364	0.1	1738.7
24547	15.963	2.5455	0.1	1806.4
24548	16.055	2.6364	0.1	1783.7
24549	15.778	2.5455	0.1	1851.6
24550	15.87	2.6364	0.1	1828.8
24551	15.593	2.5455	0.1	1897.1
24552	15.685	2.6364	0.1	1874.2
24553	15.408	2.5455	0.1	1942.8
24554	15.501	2.6364	0.1	1919.8
24555	15.223	2.5455	0.1	1988.7
24556	15.316	2.6364	0.1	1965.6
24557	15.039	2.5455	0.1	2034.7
24558	15.131	2.6364	0.1	2011.5
24559	14.854	2.5455	0.1	2081.
24560	14.946	2.6364	0.1	2057.7
24561	14.669	2.5455	0.1	2127.5
24562	14.761	2.6364	0.1	2104.1
24563	14.484	2.5455	0.1	2174.1
24564	14.577	2.6364	0.1	2150.6
24565	14.3	2.5455	0.1	2221.
24566	14.392	2.6364	0.1	2197.4
24567	14.115	2.5455	0.1	2268.
24568	14.207	2.6364	0.1	2244.3
24569	13.93	2.5455	0.1	2315.2
24570	14.022	2.6364	0.1	2291.4
24571	13.745	2.5455	0.1	2362.6
24572	13.838	2.6364	0.1	2338.7
24573	13.56	2.5455	0.1	2410.1
24574	13.653	2.6364	0.1	2386.2
24575	13.376	2.5455	0.1	2457.8
24576	13.468	2.6364	0.1	2433.8
24577	13.191	2.5455	0.1	2505.7
24578	13.283	2.6364	0.1	2481.6
24579	13.006	2.5455	0.1	2553.8
24580	13.099	2.6364	0.1	2529.5
24581	12.821	2.5455	0.1	2602.
24582	12.914	2.6364	0.1	2577.6
24583	12.637	2.5455	0.1	2650.3
24584	12.729	2.6364	0.1	2625.9
24585	12.452	2.5455	0.1	2698.8
24586	12.544	2.6364	0.1	2674.3
24587	12.267	2.5455	0.1	2747.4
24588	12.359	2.6364	0.1	2722.9
24589	12.082	2.5455	0.1	2796.2
24590	12.175	2.6364	0.1	2771.6
24591	11.898	2.5455	0.1	2845.1
24592	11.99	2.6364	0.1	2820.4
24593	11.713	2.5455	0.1	2894.1
24594	11.805	2.6364	0.1	2869.4
24595	11.528	2.5455	0.1	2943.3
24596	11.62	2.6364	0.1	2918.4
24597	11.343	2.5455	0.1	2992.5
24598	11.436	2.6364	0.1	2967.6
24599	11.158	2.5455	0.1	3041.8
24600	11.251	2.6364	0.1	3016.9
24601	10.974	2.5455	0.1	3091.3
24602	11.066	2.6364	0.1	3066.2
24603	10.789	2.5455	0.1	3140.8
24604	10.881	2.6364	0.1	3115.7
24605	10.604	2.5455	0.1	3190.4
24606	10.697	2.6364	0.1	3165.2
24607	10.419	2.5455	0.1	3240.
24608	10.512	2.6364	0.1	3214.8
24609	10.235	2.5455	0.1	3289.7
24610	10.327	2.6364	0.1	3264.5
24611	10.05	2.5455	0.1	3339.4
24612	10.142	2.6364	0.1	3314.2
24613	9.8651	2.5455	0.1	3389.2
24614	9.9575	2.6364	0.1	3363.9
24615	9.6803	2.5455	0.1	3439.
24616	9.7727	2.6364	0.1	3413.6
24617	9.4955	2.5455	0.1	3488.8
24618	9.5879	2.6364	0.1	3463.4
24619	9.3108	2.5455	0.1	3538.6
24620	9.4032	2.6364	0.1	3513.2
24621	9.126	2.5455	0.1	3588.3
24622	9.2184	2.6364	0.1	3562.9
24623	8.9412	2.5455	0.1	3638.1
24624	9.0336	2.6364	0.1	3612.6
24625	8.7565	2.5455	0.1	3687.8
24626	8.8489	2.6364	0.1	3662.3
24627	8.5717	2.5455	0.1	3737.5
24628	8.6641	2.6364	0.1	3712.
24629	8.3869	2.5455	0.1	3787.2
24630	8.4793	2.6364	0.1	3761.6
24631	8.2022	2.5455	0.1	3836.8
24632	8.2945	2.6364	0.1	3811.2
24633	8.0174	2.5455	0.1	3886.5
24634	8.1098	2.6364	0.1	3860.8
24635	7.8326	2.5455	0.1	3936.2
24636	7.925	2.6364	0.1	3910.4
24637	7.6478	2.5455	0.1	3986.1
24638	7.7402	2.6364	0.1	3960.1
24639	7.4631	2.5455	0.1	4036.1
24640	7.5555	2.6364	0.1	4009.9
24641	7.2783	2.5455	0.1	4086.4
24642	7.3707	2.6364	0.1	4060.
24643	7.0935	2.5455	0.1	4137.3
24644	7.1859	2.6364	0.1	4110.4
24645	6.9088	2.5455	0.1	4188.8
24646	7.0011	2.6364	0.1	4161.4
24647	6.724	2.5455	0.1	4241.3
24648	6.8164	2.6364	0.1	4213.3
24649	6.5392	2.5455	0.1	4295.2
24650	6.6316	2.6364	0.1	4266.4
24651	6.3545	2.5455	0.1	4351.1
24652	6.4468	2.6364	0.1	4321.2
24653	6.1697	2.5455	0.1	4409.6
24654	6.2621	2.6364	0.1	4378.3
24655	5.9849	2.5455	0.1	4471.7
24656	6.0773	2.6364	0.1	4438.5
24657	5.8001	2.5455	0.1	4538.6
24658	5.8925	2.6364	0.1	4503.
24659	5.6154	2.5455	0.1	4612.
24660	5.7078	2.6364	0.1	4573.2
24661	5.4306	2.5455	0.1	4693.8
24662	5.523	2.6364	0.1	4651.
24663	5.2458	2.5455	0.1	4786.9
24664	5.3382	2.6364	0.1	4738.9
24665	5.0611	2.5455	0.1	4894.7
24666	5.1534	2.6364	0.1	4840.
24667	4.8763	2.5455	0.1	5022.
24668	4.9687	2.6364	0.1	4958.7
24669	4.6915	2.5455	0.1	5174.9
24670	4.7839	2.6364	0.1	5100.4
24671	4.5068	2.5455	0.1	5361.3
24672	4.5991	2.6364	0.1	5272.4
24673	4.322	2.5455	0.1	5592.2
24674	4.4144	2.6364	0.1	5484.3
24675	4.1372	2.5455	0.1	5881.9
24676	4.2296	2.6364	0.1	5748.9
24677	3.9524	2.5455	0.1	6250.1
24678	4.0448	2.6364	0.1	6083.3
24679	3.7677	2.5455	0.1	6724.
24680	3.8601	2.6364	0.1	6510.4
24681	3.5829	2.5455	0.1	7341.7
24682	3.6753	2.6364	0.1	7061.1
24683	3.3981	2.5455	0.1	8156.
24684	3.4905	2.6364	0.1	7775.9
24685	3.2134	2.5455	0.1	9235.8
24686	3.3057	2.6364	0.1	8704.6
24687	3.0286	2.5455	0.1	10643
24688	3.121	2.6364	0.1	9895.8
24689	2.8438	2.5455	0.1	12298
24690	2.9362	2.6364	0.1	11349
24691	2.7514	2.6364	0.1	12858
24692	2.6591	2.5455	0.1	13766
24693	23.723	2.7273	0.1	207.98
24694	23.815	2.8182	0.1	200.42
24695	23.908	2.7273	0.1	194.1
24696	23.538	2.7273	0.1	227.44
24697	23.63	2.8182	0.1	217.59
24698	23.353	2.7273	0.1	250.58
24699	23.446	2.8182	0.1	238.99
24700	23.169	2.7273	0.1	276.53
24701	23.261	2.8182	0.1	263.62
24702	22.984	2.7273	0.1	304.59
24703	23.076	2.8182	0.1	290.67
24704	22.799	2.7273	0.1	334.29
24705	22.891	2.8182	0.1	319.58
24706	22.614	2.7273	0.1	365.3
24707	22.707	2.8182	0.1	349.95
24708	22.429	2.7273	0.1	397.38
24709	22.522	2.8182	0.1	381.49
24710	22.245	2.7273	0.1	430.37
24711	22.337	2.8182	0.1	414.01
24712	22.06	2.7273	0.1	464.13
24713	22.152	2.8182	0.1	447.38
24714	21.875	2.7273	0.1	498.59
24715	21.968	2.8182	0.1	481.47
24716	21.69	2.7273	0.1	533.67
24717	21.783	2.8182	0.1	516.23
24718	21.506	2.7273	0.1	569.33
24719	21.598	2.8182	0.1	551.58
24720	21.321	2.7273	0.1	605.52
24721	21.413	2.8182	0.1	587.49
24722	21.136	2.7273	0.1	642.2
24723	21.228	2.8182	0.1	623.91
24724	20.951	2.7273	0.1	679.35
24725	21.044	2.8182	0.1	660.81
24726	20.767	2.7273	0.1	716.94
24727	20.859	2.8182	0.1	698.16
24728	20.582	2.7273	0.1	754.96
24729	20.674	2.8182	0.1	735.95
24730	20.397	2.7273	0.1	793.37
24731	20.489	2.8182	0.1	774.15
24732	20.212	2.7273	0.1	832.16
24733	20.305	2.8182	0.1	812.74
24734	20.027	2.7273	0.1	871.33
24735	20.12	2.8182	0.1	851.71
24736	19.843	2.7273	0.1	910.84
24737	19.935	2.8182	0.1	891.04
24738	19.658	2.7273	0.1	950.7
24739	19.75	2.8182	0.1	930.72
24740	19.473	2.7273	0.1	990.88
24741	19.566	2.8182	0.1	970.73
24742	19.288	2.7273	0.1	1031.4
24743	19.381	2.8182	0.1	1011.1
24744	19.104	2.7273	0.1	1072.2
24745	19.196	2.8182	0.1	1051.7
24746	18.919	2.7273	0.1	1113.3
24747	19.011	2.8182	0.1	1092.7
24748	18.734	2.7273	0.1	1154.7
24749	18.826	2.8182	0.1	1133.9
24750	18.549	2.7273	0.1	1196.4
24751	18.642	2.8182	0.1	1175.5
24752	18.365	2.7273	0.1	1238.3
24753	18.457	2.8182	0.1	1217.3
24754	18.18	2.7273	0.1	1280.6
24755	18.272	2.8182	0.1	1259.3
24756	17.995	2.7273	0.1	1323.
24757	18.087	2.8182	0.1	1301.7
24758	17.81	2.7273	0.1	1365.8
24759	17.903	2.8182	0.1	1344.3
24760	17.625	2.7273	0.1	1408.8
24761	17.718	2.8182	0.1	1387.2
24762	17.441	2.7273	0.1	1452.
24763	17.533	2.8182	0.1	1430.3
24764	17.256	2.7273	0.1	1495.5
24765	17.348	2.8182	0.1	1473.6
24766	17.071	2.7273	0.1	1539.2
24767	17.164	2.8182	0.1	1517.2
24768	16.886	2.7273	0.1	1583.1
24769	16.979	2.8182	0.1	1561.1
24770	16.702	2.7273	0.1	1627.3
24771	16.794	2.8182	0.1	1605.1
24772	16.517	2.7273	0.1	1671.7
24773	16.609	2.8182	0.1	1649.4
24774	16.332	2.7273	0.1	1716.3
24775	16.424	2.8182	0.1	1693.9
24776	16.147	2.7273	0.1	1761.2
24777	16.24	2.8182	0.1	1738.6
24778	15.963	2.7273	0.1	1806.2
24779	16.055	2.8182	0.1	1783.6
24780	15.778	2.7273	0.1	1851.5
24781	15.87	2.8182	0.1	1828.7
24782	15.593	2.7273	0.1	1896.9
24783	15.685	2.8182	0.1	1874.1
24784	15.408	2.7273	0.1	1942.6
24785	15.501	2.8182	0.1	1919.6
24786	15.223	2.7273	0.1	1988.5
24787	15.316	2.8182	0.1	1965.4
24788	15.039	2.7273	0.1	2034.5
24789	15.131	2.8182	0.1	2011.4
24790	14.854	2.7273	0.1	2080.8
24791	14.946	2.8182	0.1	2057.6
24792	14.669	2.7273	0.1	2127.3
24793	14.761	2.8182	0.1	2103.9
24794	14.484	2.7273	0.1	2173.9
24795	14.577	2.8182	0.1	2150.5
24796	14.3	2.7273	0.1	2220.7
24797	14.392	2.8182	0.1	2197.2
24798	14.115	2.7273	0.1	2267.8
24799	14.207	2.8182	0.1	2244.1
24800	13.93	2.7273	0.1	2314.9
24801	14.022	2.8182	0.1	2291.2
24802	13.745	2.7273	0.1	2362.3
24803	13.838	2.8182	0.1	2338.5
24804	13.56	2.7273	0.1	2409.9
24805	13.653	2.8182	0.1	2386.
24806	13.376	2.7273	0.1	2457.6
24807	13.468	2.8182	0.1	2433.6
24808	13.191	2.7273	0.1	2505.4
24809	13.283	2.8182	0.1	2481.4
24810	13.006	2.7273	0.1	2553.5
24811	13.099	2.8182	0.1	2529.3
24812	12.821	2.7273	0.1	2601.6
24813	12.914	2.8182	0.1	2577.4
24814	12.637	2.7273	0.1	2650.
24815	12.729	2.8182	0.1	2625.7
24816	12.452	2.7273	0.1	2698.5
24817	12.544	2.8182	0.1	2674.1
24818	12.267	2.7273	0.1	2747.1
24819	12.359	2.8182	0.1	2722.6
24820	12.082	2.7273	0.1	2795.8
24821	12.175	2.8182	0.1	2771.3
24822	11.898	2.7273	0.1	2844.7
24823	11.99	2.8182	0.1	2820.1
24824	11.713	2.7273	0.1	2893.7
24825	11.805	2.8182	0.1	2869.
24826	11.528	2.7273	0.1	2942.8
24827	11.62	2.8182	0.1	2918.1
24828	11.343	2.7273	0.1	2992.
24829	11.436	2.8182	0.1	2967.2
24830	11.158	2.7273	0.1	3041.3
24831	11.251	2.8182	0.1	3016.5
24832	10.974	2.7273	0.1	3090.7
24833	11.066	2.8182	0.1	3065.8
24834	10.789	2.7273	0.1	3140.2
24835	10.881	2.8182	0.1	3115.3
24836	10.604	2.7273	0.1	3189.7
24837	10.697	2.8182	0.1	3164.8
24838	10.419	2.7273	0.1	3239.3
24839	10.512	2.8182	0.1	3214.3
24840	10.235	2.7273	0.1	3289.
24841	10.327	2.8182	0.1	3264.
24842	10.05	2.7273	0.1	3338.7
24843	10.142	2.8182	0.1	3313.6
24844	9.8651	2.7273	0.1	3388.4
24845	9.9575	2.8182	0.1	3363.3
24846	9.6803	2.7273	0.1	3438.1
24847	9.7727	2.8182	0.1	3413.
24848	9.4955	2.7273	0.1	3487.8
24849	9.5879	2.8182	0.1	3462.7
24850	9.3108	2.7273	0.1	3537.5
24851	9.4032	2.8182	0.1	3512.4
24852	9.126	2.7273	0.1	3587.2
24853	9.2184	2.8182	0.1	3562.1
24854	8.9412	2.7273	0.1	3636.8
24855	9.0336	2.8182	0.1	3611.7
24856	8.7565	2.7273	0.1	3686.4
24857	8.8489	2.8182	0.1	3661.3
24858	8.5717	2.7273	0.1	3736.
24859	8.6641	2.8182	0.1	3710.9
24860	8.3869	2.7273	0.1	3785.6
24861	8.4793	2.8182	0.1	3760.4
24862	8.2022	2.7273	0.1	3835.1
24863	8.2945	2.8182	0.1	3809.9
24864	8.0174	2.7273	0.1	3884.6
24865	8.1098	2.8182	0.1	3859.4
24866	7.8326	2.7273	0.1	3934.2
24867	7.925	2.8182	0.1	3908.9
24868	7.6478	2.7273	0.1	3983.9
24869	7.7402	2.8182	0.1	3958.5
24870	7.4631	2.7273	0.1	4033.7
24871	7.5555	2.8182	0.1	4008.2
24872	7.2783	2.7273	0.1	4083.9
24873	7.3707	2.8182	0.1	4058.1
24874	7.0935	2.7273	0.1	4134.6
24875	7.1859	2.8182	0.1	4108.4
24876	6.9088	2.7273	0.1	4186.
24877	7.0011	2.8182	0.1	4159.4
24878	6.724	2.7273	0.1	4238.4
24879	6.8164	2.8182	0.1	4211.2
24880	6.5392	2.7273	0.1	4292.4
24881	6.6316	2.8182	0.1	4264.3
24882	6.3545	2.7273	0.1	4348.4
24883	6.4468	2.8182	0.1	4319.1
24884	6.1697	2.7273	0.1	4407.2
24885	6.2621	2.8182	0.1	4376.3
24886	5.9849	2.7273	0.1	4469.8
24887	6.0773	2.8182	0.1	4436.8
24888	5.8001	2.7273	0.1	4537.6
24889	5.8925	2.8182	0.1	4501.9
24890	5.6154	2.7273	0.1	4612.3
24891	5.7078	2.8182	0.1	4572.9
24892	5.4306	2.7273	0.1	4696.1
24893	5.523	2.8182	0.1	4651.9
24894	5.2458	2.7273	0.1	4792.1
24895	5.3382	2.8182	0.1	4741.6
24896	5.0611	2.7273	0.1	4904.
24897	5.1534	2.8182	0.1	4845.3
24898	4.8763	2.7273	0.1	5037.1
24899	4.9687	2.8182	0.1	4967.6
24900	4.6915	2.7273	0.1	5197.9
24901	4.7839	2.8182	0.1	5114.3
24902	4.5068	2.7273	0.1	5395.4
24903	4.5991	2.8182	0.1	5293.4
24904	4.322	2.7273	0.1	5641.1
24905	4.4144	2.8182	0.1	5514.9
24906	4.1372	2.7273	0.1	5950.6
24907	4.2296	2.8182	0.1	5792.5
24908	3.9524	2.7273	0.1	6344.4
24909	4.0448	2.8182	0.1	6143.9
24910	3.7677	2.7273	0.1	6849.1
24911	3.8601	2.8182	0.1	6592.5
24912	3.5829	2.7273	0.1	7498.7
24913	3.6753	2.8182	0.1	7167.7
24914	3.3981	2.7273	0.1	8331.2
24915	3.4905	2.8182	0.1	7903.8
24916	3.2134	2.7273	0.1	9377.1
24917	3.3057	2.8182	0.1	8833.3
24918	3.0286	2.7273	0.1	10620
24919	3.121	2.8182	0.1	9964.2
24920	2.8438	2.7273	0.1	11921
24921	2.9362	2.8182	0.1	11229
24922	2.7514	2.8182	0.1	12411
24923	2.6591	2.7273	0.1	12959
24924	23.723	2.9091	0.1	208.88
24925	23.815	3.	0.1	200.87
24926	23.908	2.9091	0.1	195.03
24927	23.538	2.9091	0.1	228.31
24928	23.63	3.	0.1	218.04
24929	23.353	2.9091	0.1	251.42
24930	23.446	3.	0.1	239.42
24931	23.169	2.9091	0.1	277.33
24932	23.261	3.	0.1	264.03
24933	22.984	2.9091	0.1	305.35
24934	23.076	3.	0.1	291.06
24935	22.799	2.9091	0.1	335.01
24936	22.891	3.	0.1	319.95
24937	22.614	2.9091	0.1	365.98
24938	22.707	3.	0.1	350.3
24939	22.429	2.9091	0.1	398.02
24940	22.522	3.	0.1	381.82
24941	22.245	2.9091	0.1	430.96
24942	22.337	3.	0.1	414.32
24943	22.06	2.9091	0.1	464.68
24944	22.152	3.	0.1	447.66
24945	21.875	2.9091	0.1	499.1
24946	21.968	3.	0.1	481.74
24947	21.69	2.9091	0.1	534.14
24948	21.783	3.	0.1	516.47
24949	21.506	2.9091	0.1	569.75
24950	21.598	3.	0.1	551.8
24951	21.321	2.9091	0.1	605.9
24952	21.413	3.	0.1	587.69
24953	21.136	2.9091	0.1	642.54
24954	21.228	3.	0.1	624.09
24955	20.951	2.9091	0.1	679.65
24956	21.044	3.	0.1	660.97
24957	20.767	2.9091	0.1	717.21
24958	20.859	3.	0.1	698.31
24959	20.582	2.9091	0.1	755.19
24960	20.674	3.	0.1	736.08
24961	20.397	2.9091	0.1	793.57
24962	20.489	3.	0.1	774.26
24963	20.212	2.9091	0.1	832.34
24964	20.305	3.	0.1	812.84
24965	20.027	2.9091	0.1	871.48
24966	20.12	3.	0.1	851.8
24967	19.843	2.9091	0.1	910.97
24968	19.935	3.	0.1	891.11
24969	19.658	2.9091	0.1	950.8
24970	19.75	3.	0.1	930.78
24971	19.473	2.9091	0.1	990.97
24972	19.566	3.	0.1	970.78
24973	19.288	2.9091	0.1	1031.5
24974	19.381	3.	0.1	1011.1
24975	19.104	2.9091	0.1	1072.2
24976	19.196	3.	0.1	1051.7
24977	18.919	2.9091	0.1	1113.3
24978	19.011	3.	0.1	1092.7
24979	18.734	2.9091	0.1	1154.7
24980	18.826	3.	0.1	1133.9
24981	18.549	2.9091	0.1	1196.4
24982	18.642	3.	0.1	1175.5
24983	18.365	2.9091	0.1	1238.3
24984	18.457	3.	0.1	1217.3
24985	18.18	2.9091	0.1	1280.5
24986	18.272	3.	0.1	1259.3
24987	17.995	2.9091	0.1	1323.
24988	18.087	3.	0.1	1301.7
24989	17.81	2.9091	0.1	1365.7
24990	17.903	3.	0.1	1344.3
24991	17.625	2.9091	0.1	1408.7
24992	17.718	3.	0.1	1387.2
24993	17.441	2.9091	0.1	1452.
24994	17.533	3.	0.1	1430.3
24995	17.256	2.9091	0.1	1495.4
24996	17.348	3.	0.1	1473.6
24997	17.071	2.9091	0.1	1539.1
24998	17.164	3.	0.1	1517.2
24999	16.886	2.9091	0.1	1583.1
25000	16.979	3.	0.1	1561.
25001	16.702	2.9091	0.1	1627.2
25002	16.794	3.	0.1	1605.1
25003	16.517	2.9091	0.1	1671.6
25004	16.609	3.	0.1	1649.4
25005	16.332	2.9091	0.1	1716.2
25006	16.424	3.	0.1	1693.9
25007	16.147	2.9091	0.1	1761.1
25008	16.24	3.	0.1	1738.6
25009	15.963	2.9091	0.1	1806.1
25010	16.055	3.	0.1	1783.5
25011	15.778	2.9091	0.1	1851.4
25012	15.87	3.	0.1	1828.7
25013	15.593	2.9091	0.1	1896.8
25014	15.685	3.	0.1	1874.
25015	15.408	2.9091	0.1	1942.5
25016	15.501	3.	0.1	1919.6
25017	15.223	2.9091	0.1	1988.4
25018	15.316	3.	0.1	1965.4
25019	15.039	2.9091	0.1	2034.4
25020	15.131	3.	0.1	2011.3
25021	14.854	2.9091	0.1	2080.7
25022	14.946	3.	0.1	2057.5
25023	14.669	2.9091	0.1	2127.2
25024	14.761	3.	0.1	2103.9
25025	14.484	2.9091	0.1	2173.8
25026	14.577	3.	0.1	2150.4
25027	14.3	2.9091	0.1	2220.6
25028	14.392	3.	0.1	2197.1
25029	14.115	2.9091	0.1	2267.6
25030	14.207	3.	0.1	2244.1
25031	13.93	2.9091	0.1	2314.8
25032	14.022	3.	0.1	2291.2
25033	13.745	2.9091	0.1	2362.2
25034	13.838	3.	0.1	2338.4
25035	13.56	2.9091	0.1	2409.7
25036	13.653	3.	0.1	2385.9
25037	13.376	2.9091	0.1	2457.4
25038	13.468	3.	0.1	2433.5
25039	13.191	2.9091	0.1	2505.3
25040	13.283	3.	0.1	2481.3
25041	13.006	2.9091	0.1	2553.3
25042	13.099	3.	0.1	2529.2
25043	12.821	2.9091	0.1	2601.5
25044	12.914	3.	0.1	2577.3
25045	12.637	2.9091	0.1	2649.8
25046	12.729	3.	0.1	2625.6
25047	12.452	2.9091	0.1	2698.3
25048	12.544	3.	0.1	2674.
25049	12.267	2.9091	0.1	2746.9
25050	12.359	3.	0.1	2722.5
25051	12.082	2.9091	0.1	2795.6
25052	12.175	3.	0.1	2771.2
25053	11.898	2.9091	0.1	2844.5
25054	11.99	3.	0.1	2820.
25055	11.713	2.9091	0.1	2893.5
25056	11.805	3.	0.1	2868.9
25057	11.528	2.9091	0.1	2942.6
25058	11.62	3.	0.1	2918.
25059	11.343	2.9091	0.1	2991.8
25060	11.436	3.	0.1	2967.1
25061	11.158	2.9091	0.1	3041.1
25062	11.251	3.	0.1	3016.4
25063	10.974	2.9091	0.1	3090.4
25064	11.066	3.	0.1	3065.7
25065	10.789	2.9091	0.1	3139.9
25066	10.881	3.	0.1	3115.1
25067	10.604	2.9091	0.1	3189.4
25068	10.697	3.	0.1	3164.6
25069	10.419	2.9091	0.1	3239.
25070	10.512	3.	0.1	3214.2
25071	10.235	2.9091	0.1	3288.6
25072	10.327	3.	0.1	3263.8
25073	10.05	2.9091	0.1	3338.3
25074	10.142	3.	0.1	3313.4
25075	9.8651	2.9091	0.1	3387.9
25076	9.9575	3.	0.1	3363.1
25077	9.6803	2.9091	0.1	3437.6
25078	9.7727	3.	0.1	3412.8
25079	9.4955	2.9091	0.1	3487.3
25080	9.5879	3.	0.1	3462.4
25081	9.3108	2.9091	0.1	3537.
25082	9.4032	3.	0.1	3512.1
25083	9.126	2.9091	0.1	3586.6
25084	9.2184	3.	0.1	3561.8
25085	8.9412	2.9091	0.1	3636.2
25086	9.0336	3.	0.1	3611.4
25087	8.7565	2.9091	0.1	3685.8
25088	8.8489	3.	0.1	3661.
25089	8.5717	2.9091	0.1	3735.3
25090	8.6641	3.	0.1	3710.5
25091	8.3869	2.9091	0.1	3784.7
25092	8.4793	3.	0.1	3760.
25093	8.2022	2.9091	0.1	3834.2
25094	8.2945	3.	0.1	3809.5
25095	8.0174	2.9091	0.1	3883.7
25096	8.1098	3.	0.1	3858.9
25097	7.8326	2.9091	0.1	3933.1
25098	7.925	3.	0.1	3908.4
25099	7.6478	2.9091	0.1	3982.7
25100	7.7402	3.	0.1	3957.9
25101	7.4631	2.9091	0.1	4032.5
25102	7.5555	3.	0.1	4007.6
25103	7.2783	2.9091	0.1	4082.6
25104	7.3707	3.	0.1	4057.5
25105	7.0935	2.9091	0.1	4133.2
25106	7.1859	3.	0.1	4107.8
25107	6.9088	2.9091	0.1	4184.6
25108	7.0011	3.	0.1	4158.7
25109	6.724	2.9091	0.1	4237.
25110	6.8164	3.	0.1	4210.5
25111	6.5392	2.9091	0.1	4290.9
25112	6.6316	3.	0.1	4263.5
25113	6.3545	2.9091	0.1	4347.
25114	6.4468	3.	0.1	4318.4
25115	6.1697	2.9091	0.1	4405.9
25116	6.2621	3.	0.1	4375.6
25117	5.9849	2.9091	0.1	4468.9
25118	6.0773	3.	0.1	4436.3
25119	5.8001	2.9091	0.1	4537.1
25120	5.8925	3.	0.1	4501.5
25121	5.6154	2.9091	0.1	4612.5
25122	5.7078	3.	0.1	4572.8
25123	5.4306	2.9091	0.1	4697.3
25124	5.523	3.	0.1	4652.2
25125	5.2458	2.9091	0.1	4794.7
25126	5.3382	3.	0.1	4742.4
25127	5.0611	2.9091	0.1	4908.8
25128	5.1534	3.	0.1	4847.
25129	4.8763	2.9091	0.1	5044.8
25130	4.9687	3.	0.1	4970.6
25131	4.6915	2.9091	0.1	5209.8
25132	4.7839	3.	0.1	5119.1
25133	4.5068	2.9091	0.1	5413.
25134	4.5991	3.	0.1	5300.5
25135	4.322	2.9091	0.1	5666.6
25136	4.4144	3.	0.1	5525.4
25137	4.1372	2.9091	0.1	5986.5
25138	4.2296	3.	0.1	5807.4
25139	3.9524	2.9091	0.1	6393.4
25140	4.0448	3.	0.1	6164.7
25141	3.7677	2.9091	0.1	6913.6
25142	3.8601	3.	0.1	6620.6
25143	3.5829	2.9091	0.1	7577.5
25144	3.6753	3.	0.1	7203.8
25145	3.3981	2.9091	0.1	8413.8
25146	3.4905	3.	0.1	7946.1
25147	3.2134	2.9091	0.1	9432.4
25148	3.3057	3.	0.1	8873.3
25149	3.0286	2.9091	0.1	10587
25150	3.121	3.	0.1	9979.8
25151	2.8438	2.9091	0.1	11729
25152	2.9362	3.	0.1	11182
25153	2.7514	3.	0.1	12267
25154	2.6591	2.9091	0.1	12597
25155	23.723	3.0909	0.1	208.88
25156	23.815	3.1818	0.1	200.42
25157	23.908	3.0909	0.1	195.03
25158	23.538	3.0909	0.1	228.31
25159	23.63	3.1818	0.1	217.59
25160	23.353	3.0909	0.1	251.42
25161	23.446	3.1818	0.1	238.99
25162	23.169	3.0909	0.1	277.33
25163	23.261	3.1818	0.1	263.62
25164	22.984	3.0909	0.1	305.35
25165	23.076	3.1818	0.1	290.67
25166	22.799	3.0909	0.1	335.01
25167	22.891	3.1818	0.1	319.58
25168	22.614	3.0909	0.1	365.98
25169	22.707	3.1818	0.1	349.95
25170	22.429	3.0909	0.1	398.02
25171	22.522	3.1818	0.1	381.49
25172	22.245	3.0909	0.1	430.96
25173	22.337	3.1818	0.1	414.01
25174	22.06	3.0909	0.1	464.68
25175	22.152	3.1818	0.1	447.38
25176	21.875	3.0909	0.1	499.1
25177	21.968	3.1818	0.1	481.47
25178	21.69	3.0909	0.1	534.14
25179	21.783	3.1818	0.1	516.23
25180	21.506	3.0909	0.1	569.75
25181	21.598	3.1818	0.1	551.58
25182	21.321	3.0909	0.1	605.9
25183	21.413	3.1818	0.1	587.49
25184	21.136	3.0909	0.1	642.54
25185	21.228	3.1818	0.1	623.91
25186	20.951	3.0909	0.1	679.65
25187	21.044	3.1818	0.1	660.81
25188	20.767	3.0909	0.1	717.21
25189	20.859	3.1818	0.1	698.16
25190	20.582	3.0909	0.1	755.19
25191	20.674	3.1818	0.1	735.95
25192	20.397	3.0909	0.1	793.57
25193	20.489	3.1818	0.1	774.15
25194	20.212	3.0909	0.1	832.34
25195	20.305	3.1818	0.1	812.74
25196	20.027	3.0909	0.1	871.48
25197	20.12	3.1818	0.1	851.71
25198	19.843	3.0909	0.1	910.97
25199	19.935	3.1818	0.1	891.04
25200	19.658	3.0909	0.1	950.8
25201	19.75	3.1818	0.1	930.72
25202	19.473	3.0909	0.1	990.97
25203	19.566	3.1818	0.1	970.73
25204	19.288	3.0909	0.1	1031.5
25205	19.381	3.1818	0.1	1011.1
25206	19.104	3.0909	0.1	1072.2
25207	19.196	3.1818	0.1	1051.7
25208	18.919	3.0909	0.1	1113.3
25209	19.011	3.1818	0.1	1092.7
25210	18.734	3.0909	0.1	1154.7
25211	18.826	3.1818	0.1	1133.9
25212	18.549	3.0909	0.1	1196.4
25213	18.642	3.1818	0.1	1175.5
25214	18.365	3.0909	0.1	1238.3
25215	18.457	3.1818	0.1	1217.3
25216	18.18	3.0909	0.1	1280.5
25217	18.272	3.1818	0.1	1259.3
25218	17.995	3.0909	0.1	1323.
25219	18.087	3.1818	0.1	1301.7
25220	17.81	3.0909	0.1	1365.7
25221	17.903	3.1818	0.1	1344.3
25222	17.625	3.0909	0.1	1408.7
25223	17.718	3.1818	0.1	1387.2
25224	17.441	3.0909	0.1	1452.
25225	17.533	3.1818	0.1	1430.3
25226	17.256	3.0909	0.1	1495.4
25227	17.348	3.1818	0.1	1473.6
25228	17.071	3.0909	0.1	1539.1
25229	17.164	3.1818	0.1	1517.2
25230	16.886	3.0909	0.1	1583.1
25231	16.979	3.1818	0.1	1561.1
25232	16.702	3.0909	0.1	1627.2
25233	16.794	3.1818	0.1	1605.1
25234	16.517	3.0909	0.1	1671.6
25235	16.609	3.1818	0.1	1649.4
25236	16.332	3.0909	0.1	1716.2
25237	16.424	3.1818	0.1	1693.9
25238	16.147	3.0909	0.1	1761.1
25239	16.24	3.1818	0.1	1738.6
25240	15.963	3.0909	0.1	1806.1
25241	16.055	3.1818	0.1	1783.6
25242	15.778	3.0909	0.1	1851.4
25243	15.87	3.1818	0.1	1828.7
25244	15.593	3.0909	0.1	1896.8
25245	15.685	3.1818	0.1	1874.1
25246	15.408	3.0909	0.1	1942.5
25247	15.501	3.1818	0.1	1919.6
25248	15.223	3.0909	0.1	1988.4
25249	15.316	3.1818	0.1	1965.4
25250	15.039	3.0909	0.1	2034.4
25251	15.131	3.1818	0.1	2011.4
25252	14.854	3.0909	0.1	2080.7
25253	14.946	3.1818	0.1	2057.6
25254	14.669	3.0909	0.1	2127.2
25255	14.761	3.1818	0.1	2103.9
25256	14.484	3.0909	0.1	2173.8
25257	14.577	3.1818	0.1	2150.5
25258	14.3	3.0909	0.1	2220.6
25259	14.392	3.1818	0.1	2197.2
25260	14.115	3.0909	0.1	2267.6
25261	14.207	3.1818	0.1	2244.1
25262	13.93	3.0909	0.1	2314.8
25263	14.022	3.1818	0.1	2291.2
25264	13.745	3.0909	0.1	2362.2
25265	13.838	3.1818	0.1	2338.5
25266	13.56	3.0909	0.1	2409.7
25267	13.653	3.1818	0.1	2386.
25268	13.376	3.0909	0.1	2457.4
25269	13.468	3.1818	0.1	2433.6
25270	13.191	3.0909	0.1	2505.3
25271	13.283	3.1818	0.1	2481.4
25272	13.006	3.0909	0.1	2553.3
25273	13.099	3.1818	0.1	2529.3
25274	12.821	3.0909	0.1	2601.5
25275	12.914	3.1818	0.1	2577.4
25276	12.637	3.0909	0.1	2649.8
25277	12.729	3.1818	0.1	2625.7
25278	12.452	3.0909	0.1	2698.3
25279	12.544	3.1818	0.1	2674.1
25280	12.267	3.0909	0.1	2746.9
25281	12.359	3.1818	0.1	2722.6
25282	12.082	3.0909	0.1	2795.6
25283	12.175	3.1818	0.1	2771.3
25284	11.898	3.0909	0.1	2844.5
25285	11.99	3.1818	0.1	2820.1
25286	11.713	3.0909	0.1	2893.5
25287	11.805	3.1818	0.1	2869.
25288	11.528	3.0909	0.1	2942.6
25289	11.62	3.1818	0.1	2918.1
25290	11.343	3.0909	0.1	2991.8
25291	11.436	3.1818	0.1	2967.2
25292	11.158	3.0909	0.1	3041.1
25293	11.251	3.1818	0.1	3016.5
25294	10.974	3.0909	0.1	3090.4
25295	11.066	3.1818	0.1	3065.8
25296	10.789	3.0909	0.1	3139.9
25297	10.881	3.1818	0.1	3115.3
25298	10.604	3.0909	0.1	3189.4
25299	10.697	3.1818	0.1	3164.8
25300	10.419	3.0909	0.1	3239.
25301	10.512	3.1818	0.1	3214.3
25302	10.235	3.0909	0.1	3288.6
25303	10.327	3.1818	0.1	3264.
25304	10.05	3.0909	0.1	3338.3
25305	10.142	3.1818	0.1	3313.6
25306	9.8651	3.0909	0.1	3387.9
25307	9.9575	3.1818	0.1	3363.3
25308	9.6803	3.0909	0.1	3437.6
25309	9.7727	3.1818	0.1	3413.
25310	9.4955	3.0909	0.1	3487.3
25311	9.5879	3.1818	0.1	3462.7
25312	9.3108	3.0909	0.1	3537.
25313	9.4032	3.1818	0.1	3512.4
25314	9.126	3.0909	0.1	3586.6
25315	9.2184	3.1818	0.1	3562.1
25316	8.9412	3.0909	0.1	3636.2
25317	9.0336	3.1818	0.1	3611.7
25318	8.7565	3.0909	0.1	3685.8
25319	8.8489	3.1818	0.1	3661.3
25320	8.5717	3.0909	0.1	3735.3
25321	8.6641	3.1818	0.1	3710.9
25322	8.3869	3.0909	0.1	3784.7
25323	8.4793	3.1818	0.1	3760.4
25324	8.2022	3.0909	0.1	3834.2
25325	8.2945	3.1818	0.1	3809.9
25326	8.0174	3.0909	0.1	3883.7
25327	8.1098	3.1818	0.1	3859.4
25328	7.8326	3.0909	0.1	3933.1
25329	7.925	3.1818	0.1	3908.9
25330	7.6478	3.0909	0.1	3982.7
25331	7.7402	3.1818	0.1	3958.5
25332	7.4631	3.0909	0.1	4032.5
25333	7.5555	3.1818	0.1	4008.2
25334	7.2783	3.0909	0.1	4082.6
25335	7.3707	3.1818	0.1	4058.1
25336	7.0935	3.0909	0.1	4133.2
25337	7.1859	3.1818	0.1	4108.4
25338	6.9088	3.0909	0.1	4184.6
25339	7.0011	3.1818	0.1	4159.4
25340	6.724	3.0909	0.1	4237.
25341	6.8164	3.1818	0.1	4211.2
25342	6.5392	3.0909	0.1	4290.9
25343	6.6316	3.1818	0.1	4264.3
25344	6.3545	3.0909	0.1	4347.
25345	6.4468	3.1818	0.1	4319.1
25346	6.1697	3.0909	0.1	4405.9
25347	6.2621	3.1818	0.1	4376.3
25348	5.9849	3.0909	0.1	4468.9
25349	6.0773	3.1818	0.1	4436.8
25350	5.8001	3.0909	0.1	4537.1
25351	5.8925	3.1818	0.1	4501.9
25352	5.6154	3.0909	0.1	4612.5
25353	5.7078	3.1818	0.1	4572.9
25354	5.4306	3.0909	0.1	4697.3
25355	5.523	3.1818	0.1	4651.9
25356	5.2458	3.0909	0.1	4794.7
25357	5.3382	3.1818	0.1	4741.6
25358	5.0611	3.0909	0.1	4908.8
25359	5.1534	3.1818	0.1	4845.3
25360	4.8763	3.0909	0.1	5044.8
25361	4.9687	3.1818	0.1	4967.6
25362	4.6915	3.0909	0.1	5209.8
25363	4.7839	3.1818	0.1	5114.3
25364	4.5068	3.0909	0.1	5413.
25365	4.5991	3.1818	0.1	5293.4
25366	4.322	3.0909	0.1	5666.6
25367	4.4144	3.1818	0.1	5514.9
25368	4.1372	3.0909	0.1	5986.5
25369	4.2296	3.1818	0.1	5792.5
25370	3.9524	3.0909	0.1	6393.4
25371	4.0448	3.1818	0.1	6143.9
25372	3.7677	3.0909	0.1	6913.6
25373	3.8601	3.1818	0.1	6592.5
25374	3.5829	3.0909	0.1	7577.5
25375	3.6753	3.1818	0.1	7167.7
25376	3.3981	3.0909	0.1	8413.8
25377	3.4905	3.1818	0.1	7903.8
25378	3.2134	3.0909	0.1	9432.4
25379	3.3057	3.1818	0.1	8833.3
25380	3.0286	3.0909	0.1	10587
25381	3.121	3.1818	0.1	9964.2
25382	2.8438	3.0909	0.1	11729
25383	2.9362	3.1818	0.1	11229
25384	2.7514	3.1818	0.1	12411
25385	2.6591	3.0909	0.1	12597
25386	23.723	3.2727	0.1	207.98
25387	23.815	3.3636	0.1	199.05
25388	23.908	3.2727	0.1	194.1
25389	23.538	3.2727	0.1	227.44
25390	23.63	3.3636	0.1	216.25
25391	23.353	3.2727	0.1	250.58
25392	23.446	3.3636	0.1	237.7
25393	23.169	3.2727	0.1	276.53
25394	23.261	3.3636	0.1	262.39
25395	22.984	3.2727	0.1	304.59
25396	23.076	3.3636	0.1	289.49
25397	22.799	3.2727	0.1	334.29
25398	22.891	3.3636	0.1	318.46
25399	22.614	3.2727	0.1	365.3
25400	22.707	3.3636	0.1	348.9
25401	22.429	3.2727	0.1	397.38
25402	22.522	3.3636	0.1	380.5
25403	22.245	3.2727	0.1	430.37
25404	22.337	3.3636	0.1	413.09
25405	22.06	3.2727	0.1	464.13
25406	22.152	3.3636	0.1	446.52
25407	21.875	3.2727	0.1	498.59
25408	21.968	3.3636	0.1	480.69
25409	21.69	3.2727	0.1	533.67
25410	21.783	3.3636	0.1	515.51
25411	21.506	3.2727	0.1	569.33
25412	21.598	3.3636	0.1	550.92
25413	21.321	3.2727	0.1	605.52
25414	21.413	3.3636	0.1	586.89
25415	21.136	3.2727	0.1	642.2
25416	21.228	3.3636	0.1	623.37
25417	20.951	3.2727	0.1	679.35
25418	21.044	3.3636	0.1	660.33
25419	20.767	3.2727	0.1	716.94
25420	20.859	3.3636	0.1	697.74
25421	20.582	3.2727	0.1	754.96
25422	20.674	3.3636	0.1	735.58
25423	20.397	3.2727	0.1	793.37
25424	20.489	3.3636	0.1	773.82
25425	20.212	3.2727	0.1	832.16
25426	20.305	3.3636	0.1	812.46
25427	20.027	3.2727	0.1	871.33
25428	20.12	3.3636	0.1	851.47
25429	19.843	3.2727	0.1	910.84
25430	19.935	3.3636	0.1	890.84
25431	19.658	3.2727	0.1	950.7
25432	19.75	3.3636	0.1	930.55
25433	19.473	3.2727	0.1	990.88
25434	19.566	3.3636	0.1	970.59
25435	19.288	3.2727	0.1	1031.4
25436	19.381	3.3636	0.1	1011.
25437	19.104	3.2727	0.1	1072.2
25438	19.196	3.3636	0.1	1051.6
25439	18.919	3.2727	0.1	1113.3
25440	19.011	3.3636	0.1	1092.6
25441	18.734	3.2727	0.1	1154.7
25442	18.826	3.3636	0.1	1133.9
25443	18.549	3.2727	0.1	1196.4
25444	18.642	3.3636	0.1	1175.4
25445	18.365	3.2727	0.1	1238.3
25446	18.457	3.3636	0.1	1217.3
25447	18.18	3.2727	0.1	1280.6
25448	18.272	3.3636	0.1	1259.4
25449	17.995	3.2727	0.1	1323.
25450	18.087	3.3636	0.1	1301.7
25451	17.81	3.2727	0.1	1365.8
25452	17.903	3.3636	0.1	1344.3
25453	17.625	3.2727	0.1	1408.8
25454	17.718	3.3636	0.1	1387.2
25455	17.441	3.2727	0.1	1452.
25456	17.533	3.3636	0.1	1430.3
25457	17.256	3.2727	0.1	1495.5
25458	17.348	3.3636	0.1	1473.7
25459	17.071	3.2727	0.1	1539.2
25460	17.164	3.3636	0.1	1517.3
25461	16.886	3.2727	0.1	1583.1
25462	16.979	3.3636	0.1	1561.1
25463	16.702	3.2727	0.1	1627.3
25464	16.794	3.3636	0.1	1605.2
25465	16.517	3.2727	0.1	1671.7
25466	16.609	3.3636	0.1	1649.5
25467	16.332	3.2727	0.1	1716.3
25468	16.424	3.3636	0.1	1694.
25469	16.147	3.2727	0.1	1761.2
25470	16.24	3.3636	0.1	1738.7
25471	15.963	3.2727	0.1	1806.2
25472	16.055	3.3636	0.1	1783.7
25473	15.778	3.2727	0.1	1851.5
25474	15.87	3.3636	0.1	1828.8
25475	15.593	3.2727	0.1	1896.9
25476	15.685	3.3636	0.1	1874.2
25477	15.408	3.2727	0.1	1942.6
25478	15.501	3.3636	0.1	1919.8
25479	15.223	3.2727	0.1	1988.5
25480	15.316	3.3636	0.1	1965.6
25481	15.039	3.2727	0.1	2034.5
25482	15.131	3.3636	0.1	2011.5
25483	14.854	3.2727	0.1	2080.8
25484	14.946	3.3636	0.1	2057.7
25485	14.669	3.2727	0.1	2127.3
25486	14.761	3.3636	0.1	2104.1
25487	14.484	3.2727	0.1	2173.9
25488	14.577	3.3636	0.1	2150.6
25489	14.3	3.2727	0.1	2220.7
25490	14.392	3.3636	0.1	2197.4
25491	14.115	3.2727	0.1	2267.8
25492	14.207	3.3636	0.1	2244.3
25493	13.93	3.2727	0.1	2314.9
25494	14.022	3.3636	0.1	2291.4
25495	13.745	3.2727	0.1	2362.3
25496	13.838	3.3636	0.1	2338.7
25497	13.56	3.2727	0.1	2409.9
25498	13.653	3.3636	0.1	2386.2
25499	13.376	3.2727	0.1	2457.6
25500	13.468	3.3636	0.1	2433.8
25501	13.191	3.2727	0.1	2505.4
25502	13.283	3.3636	0.1	2481.6
25503	13.006	3.2727	0.1	2553.5
25504	13.099	3.3636	0.1	2529.5
25505	12.821	3.2727	0.1	2601.6
25506	12.914	3.3636	0.1	2577.6
25507	12.637	3.2727	0.1	2650.
25508	12.729	3.3636	0.1	2625.9
25509	12.452	3.2727	0.1	2698.5
25510	12.544	3.3636	0.1	2674.3
25511	12.267	3.2727	0.1	2747.1
25512	12.359	3.3636	0.1	2722.9
25513	12.082	3.2727	0.1	2795.8
25514	12.175	3.3636	0.1	2771.6
25515	11.898	3.2727	0.1	2844.7
25516	11.99	3.3636	0.1	2820.4
25517	11.713	3.2727	0.1	2893.7
25518	11.805	3.3636	0.1	2869.4
25519	11.528	3.2727	0.1	2942.8
25520	11.62	3.3636	0.1	2918.4
25521	11.343	3.2727	0.1	2992.
25522	11.436	3.3636	0.1	2967.6
25523	11.158	3.2727	0.1	3041.3
25524	11.251	3.3636	0.1	3016.9
25525	10.974	3.2727	0.1	3090.7
25526	11.066	3.3636	0.1	3066.2
25527	10.789	3.2727	0.1	3140.2
25528	10.881	3.3636	0.1	3115.7
25529	10.604	3.2727	0.1	3189.7
25530	10.697	3.3636	0.1	3165.2
25531	10.419	3.2727	0.1	3239.3
25532	10.512	3.3636	0.1	3214.8
25533	10.235	3.2727	0.1	3289.
25534	10.327	3.3636	0.1	3264.5
25535	10.05	3.2727	0.1	3338.7
25536	10.142	3.3636	0.1	3314.2
25537	9.8651	3.2727	0.1	3388.4
25538	9.9575	3.3636	0.1	3363.9
25539	9.6803	3.2727	0.1	3438.1
25540	9.7727	3.3636	0.1	3413.6
25541	9.4955	3.2727	0.1	3487.8
25542	9.5879	3.3636	0.1	3463.4
25543	9.3108	3.2727	0.1	3537.5
25544	9.4032	3.3636	0.1	3513.2
25545	9.126	3.2727	0.1	3587.2
25546	9.2184	3.3636	0.1	3562.9
25547	8.9412	3.2727	0.1	3636.8
25548	9.0336	3.3636	0.1	3612.6
25549	8.7565	3.2727	0.1	3686.4
25550	8.8489	3.3636	0.1	3662.3
25551	8.5717	3.2727	0.1	3736.
25552	8.6641	3.3636	0.1	3712.
25553	8.3869	3.2727	0.1	3785.6
25554	8.4793	3.3636	0.1	3761.6
25555	8.2022	3.2727	0.1	3835.1
25556	8.2945	3.3636	0.1	3811.2
25557	8.0174	3.2727	0.1	3884.6
25558	8.1098	3.3636	0.1	3860.8
25559	7.8326	3.2727	0.1	3934.2
25560	7.925	3.3636	0.1	3910.4
25561	7.6478	3.2727	0.1	3983.9
25562	7.7402	3.3636	0.1	3960.1
25563	7.4631	3.2727	0.1	4033.7
25564	7.5555	3.3636	0.1	4009.9
25565	7.2783	3.2727	0.1	4083.9
25566	7.3707	3.3636	0.1	4060.
25567	7.0935	3.2727	0.1	4134.6
25568	7.1859	3.3636	0.1	4110.4
25569	6.9088	3.2727	0.1	4186.
25570	7.0011	3.3636	0.1	4161.4
25571	6.724	3.2727	0.1	4238.4
25572	6.8164	3.3636	0.1	4213.3
25573	6.5392	3.2727	0.1	4292.4
25574	6.6316	3.3636	0.1	4266.4
25575	6.3545	3.2727	0.1	4348.4
25576	6.4468	3.3636	0.1	4321.2
25577	6.1697	3.2727	0.1	4407.2
25578	6.2621	3.3636	0.1	4378.3
25579	5.9849	3.2727	0.1	4469.8
25580	6.0773	3.3636	0.1	4438.5
25581	5.8001	3.2727	0.1	4537.6
25582	5.8925	3.3636	0.1	4503.
25583	5.6154	3.2727	0.1	4612.3
25584	5.7078	3.3636	0.1	4573.2
25585	5.4306	3.2727	0.1	4696.1
25586	5.523	3.3636	0.1	4651.
25587	5.2458	3.2727	0.1	4792.1
25588	5.3382	3.3636	0.1	4738.9
25589	5.0611	3.2727	0.1	4904.
25590	5.1534	3.3636	0.1	4840.
25591	4.8763	3.2727	0.1	5037.1
25592	4.9687	3.3636	0.1	4958.7
25593	4.6915	3.2727	0.1	5197.9
25594	4.7839	3.3636	0.1	5100.4
25595	4.5068	3.2727	0.1	5395.4
25596	4.5991	3.3636	0.1	5272.4
25597	4.322	3.2727	0.1	5641.1
25598	4.4144	3.3636	0.1	5484.3
25599	4.1372	3.2727	0.1	5950.6
25600	4.2296	3.3636	0.1	5748.9
25601	3.9524	3.2727	0.1	6344.4
25602	4.0448	3.3636	0.1	6083.3
25603	3.7677	3.2727	0.1	6849.1
25604	3.8601	3.3636	0.1	6510.4
25605	3.5829	3.2727	0.1	7498.7
25606	3.6753	3.3636	0.1	7061.1
25607	3.3981	3.2727	0.1	8331.2
25608	3.4905	3.3636	0.1	7775.9
25609	3.2134	3.2727	0.1	9377.1
25610	3.3057	3.3636	0.1	8704.6
25611	3.0286	3.2727	0.1	10620
25612	3.121	3.3636	0.1	9895.8
25613	2.8438	3.2727	0.1	11921
25614	2.9362	3.3636	0.1	11349
25615	2.7514	3.3636	0.1	12858
25616	2.6591	3.2727	0.1	12959
25617	23.723	3.4545	0.1	206.16
25618	23.815	3.5455	0.1	196.75
25619	23.908	3.4545	0.1	192.22
25620	23.538	3.4545	0.1	225.68
25621	23.63	3.5455	0.1	214.
25622	23.353	3.4545	0.1	248.9
25623	23.446	3.5455	0.1	235.54
25624	23.169	3.4545	0.1	274.92
25625	23.261	3.5455	0.1	260.32
25626	22.984	3.4545	0.1	303.07
25627	23.076	3.5455	0.1	287.53
25628	22.799	3.4545	0.1	332.85
25629	22.891	3.5455	0.1	316.61
25630	22.614	3.4545	0.1	363.95
25631	22.707	3.5455	0.1	347.14
25632	22.429	3.4545	0.1	396.12
25633	22.522	3.5455	0.1	378.86
25634	22.245	3.4545	0.1	429.19
25635	22.337	3.5455	0.1	411.56
25636	22.06	3.4545	0.1	463.04
25637	22.152	3.5455	0.1	445.1
25638	21.875	3.4545	0.1	497.58
25639	21.968	3.5455	0.1	479.38
25640	21.69	3.4545	0.1	532.76
25641	21.783	3.5455	0.1	514.31
25642	21.506	3.4545	0.1	568.5
25643	21.598	3.5455	0.1	549.84
25644	21.321	3.4545	0.1	604.76
25645	21.413	3.5455	0.1	585.91
25646	21.136	3.4545	0.1	641.53
25647	21.228	3.5455	0.1	622.49
25648	20.951	3.4545	0.1	678.75
25649	21.044	3.5455	0.1	659.54
25650	20.767	3.4545	0.1	716.41
25651	20.859	3.5455	0.1	697.04
25652	20.582	3.4545	0.1	754.49
25653	20.674	3.5455	0.1	734.96
25654	20.397	3.4545	0.1	792.96
25655	20.489	3.5455	0.1	773.29
25656	20.212	3.4545	0.1	831.81
25657	20.305	3.5455	0.1	812.
25658	20.027	3.4545	0.1	871.03
25659	20.12	3.5455	0.1	851.07
25660	19.843	3.4545	0.1	910.59
25661	19.935	3.5455	0.1	890.5
25662	19.658	3.4545	0.1	950.49
25663	19.75	3.5455	0.1	930.27
25664	19.473	3.4545	0.1	990.71
25665	19.566	3.5455	0.1	970.36
25666	19.288	3.4545	0.1	1031.3
25667	19.381	3.5455	0.1	1010.8
25668	19.104	3.4545	0.1	1072.1
25669	19.196	3.5455	0.1	1051.5
25670	18.919	3.4545	0.1	1113.2
25671	19.011	3.5455	0.1	1092.5
25672	18.734	3.4545	0.1	1154.7
25673	18.826	3.5455	0.1	1133.8
25674	18.549	3.4545	0.1	1196.4
25675	18.642	3.5455	0.1	1175.4
25676	18.365	3.4545	0.1	1238.3
25677	18.457	3.5455	0.1	1217.3
25678	18.18	3.4545	0.1	1280.6
25679	18.272	3.5455	0.1	1259.4
25680	17.995	3.4545	0.1	1323.1
25681	18.087	3.5455	0.1	1301.8
25682	17.81	3.4545	0.1	1365.8
25683	17.903	3.5455	0.1	1344.4
25684	17.625	3.4545	0.1	1408.8
25685	17.718	3.5455	0.1	1387.3
25686	17.441	3.4545	0.1	1452.1
25687	17.533	3.5455	0.1	1430.4
25688	17.256	3.4545	0.1	1495.6
25689	17.348	3.5455	0.1	1473.8
25690	17.071	3.4545	0.1	1539.3
25691	17.164	3.5455	0.1	1517.4
25692	16.886	3.4545	0.1	1583.3
25693	16.979	3.5455	0.1	1561.3
25694	16.702	3.4545	0.1	1627.4
25695	16.794	3.5455	0.1	1605.4
25696	16.517	3.4545	0.1	1671.9
25697	16.609	3.5455	0.1	1649.7
25698	16.332	3.4545	0.1	1716.5
25699	16.424	3.5455	0.1	1694.2
25700	16.147	3.4545	0.1	1761.3
25701	16.24	3.5455	0.1	1738.9
25702	15.963	3.4545	0.1	1806.4
25703	16.055	3.5455	0.1	1783.9
25704	15.778	3.4545	0.1	1851.6
25705	15.87	3.5455	0.1	1829.1
25706	15.593	3.4545	0.1	1897.1
25707	15.685	3.5455	0.1	1874.4
25708	15.408	3.4545	0.1	1942.8
25709	15.501	3.5455	0.1	1920.
25710	15.223	3.4545	0.1	1988.7
25711	15.316	3.5455	0.1	1965.8
25712	15.039	3.4545	0.1	2034.7
25713	15.131	3.5455	0.1	2011.8
25714	14.854	3.4545	0.1	2081.
25715	14.946	3.5455	0.1	2058.
25716	14.669	3.4545	0.1	2127.5
25717	14.761	3.5455	0.1	2104.3
25718	14.484	3.4545	0.1	2174.1
25719	14.577	3.5455	0.1	2150.9
25720	14.3	3.4545	0.1	2221.
25721	14.392	3.5455	0.1	2197.7
25722	14.115	3.4545	0.1	2268.
25723	14.207	3.5455	0.1	2244.6
25724	13.93	3.4545	0.1	2315.2
25725	14.022	3.5455	0.1	2291.7
25726	13.745	3.4545	0.1	2362.6
25727	13.838	3.5455	0.1	2339.
25728	13.56	3.4545	0.1	2410.1
25729	13.653	3.5455	0.1	2386.5
25730	13.376	3.4545	0.1	2457.8
25731	13.468	3.5455	0.1	2434.1
25732	13.191	3.4545	0.1	2505.7
25733	13.283	3.5455	0.1	2481.9
25734	13.006	3.4545	0.1	2553.8
25735	13.099	3.5455	0.1	2529.9
25736	12.821	3.4545	0.1	2602.
25737	12.914	3.5455	0.1	2578.
25738	12.637	3.4545	0.1	2650.3
25739	12.729	3.5455	0.1	2626.3
25740	12.452	3.4545	0.1	2698.8
25741	12.544	3.5455	0.1	2674.8
25742	12.267	3.4545	0.1	2747.4
25743	12.359	3.5455	0.1	2723.3
25744	12.082	3.4545	0.1	2796.2
25745	12.175	3.5455	0.1	2772.1
25746	11.898	3.4545	0.1	2845.1
25747	11.99	3.5455	0.1	2820.9
25748	11.713	3.4545	0.1	2894.1
25749	11.805	3.5455	0.1	2869.9
25750	11.528	3.4545	0.1	2943.3
25751	11.62	3.5455	0.1	2919.
25752	11.343	3.4545	0.1	2992.5
25753	11.436	3.5455	0.1	2968.2
25754	11.158	3.4545	0.1	3041.8
25755	11.251	3.5455	0.1	3017.5
25756	10.974	3.4545	0.1	3091.3
25757	11.066	3.5455	0.1	3066.9
25758	10.789	3.4545	0.1	3140.8
25759	10.881	3.5455	0.1	3116.4
25760	10.604	3.4545	0.1	3190.4
25761	10.697	3.5455	0.1	3166.
25762	10.419	3.4545	0.1	3240.
25763	10.512	3.5455	0.1	3215.6
25764	10.235	3.4545	0.1	3289.7
25765	10.327	3.5455	0.1	3265.4
25766	10.05	3.4545	0.1	3339.4
25767	10.142	3.5455	0.1	3315.1
25768	9.8651	3.4545	0.1	3389.2
25769	9.9575	3.5455	0.1	3364.9
25770	9.6803	3.4545	0.1	3439.
25771	9.7727	3.5455	0.1	3414.7
25772	9.4955	3.4545	0.1	3488.8
25773	9.5879	3.5455	0.1	3464.6
25774	9.3108	3.4545	0.1	3538.6
25775	9.4032	3.5455	0.1	3514.4
25776	9.126	3.4545	0.1	3588.3
25777	9.2184	3.5455	0.1	3564.3
25778	8.9412	3.4545	0.1	3638.1
25779	9.0336	3.5455	0.1	3614.1
25780	8.7565	3.4545	0.1	3687.8
25781	8.8489	3.5455	0.1	3663.9
25782	8.5717	3.4545	0.1	3737.5
25783	8.6641	3.5455	0.1	3713.7
25784	8.3869	3.4545	0.1	3787.2
25785	8.4793	3.5455	0.1	3763.5
25786	8.2022	3.4545	0.1	3836.8
25787	8.2945	3.5455	0.1	3813.3
25788	8.0174	3.4545	0.1	3886.5
25789	8.1098	3.5455	0.1	3863.
25790	7.8326	3.4545	0.1	3936.3
25791	7.925	3.5455	0.1	3912.8
25792	7.6478	3.4545	0.1	3986.1
25793	7.7402	3.5455	0.1	3962.7
25794	7.4631	3.4545	0.1	4036.1
25795	7.5555	3.5455	0.1	4012.7
25796	7.2783	3.4545	0.1	4086.4
25797	7.3707	3.5455	0.1	4063.
25798	7.0935	3.4545	0.1	4137.3
25799	7.1859	3.5455	0.1	4113.6
25800	6.9088	3.4545	0.1	4188.8
25801	7.0011	3.5455	0.1	4164.8
25802	6.724	3.4545	0.1	4241.3
25803	6.8164	3.5455	0.1	4216.8
25804	6.5392	3.4545	0.1	4295.2
25805	6.6316	3.5455	0.1	4269.9
25806	6.3545	3.4545	0.1	4351.1
25807	6.4468	3.5455	0.1	4324.6
25808	6.1697	3.4545	0.1	4409.6
25809	6.2621	3.5455	0.1	4381.4
25810	5.9849	3.4545	0.1	4471.7
25811	6.0773	3.5455	0.1	4441.2
25812	5.8001	3.4545	0.1	4538.6
25813	5.8925	3.5455	0.1	4504.8
25814	5.6154	3.4545	0.1	4612.
25815	5.7078	3.5455	0.1	4573.7
25816	5.4306	3.4545	0.1	4693.8
25817	5.523	3.5455	0.1	4649.6
25818	5.2458	3.4545	0.1	4786.9
25819	5.3382	3.5455	0.1	4734.6
25820	5.0611	3.4545	0.1	4894.7
25821	5.1534	3.5455	0.1	4831.6
25822	4.8763	3.4545	0.1	5022.
25823	4.9687	3.5455	0.1	4944.4
25824	4.6915	3.4545	0.1	5174.9
25825	4.7839	3.5455	0.1	5078.
25826	4.5068	3.4545	0.1	5361.3
25827	4.5991	3.5455	0.1	5238.9
25828	4.322	3.4545	0.1	5592.2
25829	4.4144	3.5455	0.1	5435.6
25830	4.1372	3.4545	0.1	5881.9
25831	4.2296	3.5455	0.1	5679.9
25832	3.9524	3.4545	0.1	6250.1
25833	4.0448	3.5455	0.1	5987.4
25834	3.7677	3.4545	0.1	6724.
25835	3.8601	3.5455	0.1	6380.3
25836	3.5829	3.4545	0.1	7341.7
25837	3.6753	3.5455	0.1	6889.9
25838	3.3981	3.4545	0.1	8156.
25839	3.4905	3.5455	0.1	7562.7
25840	3.2134	3.4545	0.1	9235.8
25841	3.3057	3.5455	0.1	8468.
25842	3.0286	3.4545	0.1	10643
25843	3.121	3.5455	0.1	9714.2
25844	2.8438	3.4545	0.1	12298
25845	2.9362	3.5455	0.1	11435
25846	2.7514	3.5455	0.1	13667
25847	2.6591	3.4545	0.1	13766
25848	23.723	3.6364	0.1	203.43
25849	23.815	3.7273	0.1	193.5
25850	23.908	3.6364	0.1	189.39
25851	23.538	3.6364	0.1	223.03
25852	23.63	3.7273	0.1	210.83
25853	23.353	3.6364	0.1	246.36
25854	23.446	3.7273	0.1	232.49
25855	23.169	3.6364	0.1	272.5
25856	23.261	3.7273	0.1	257.41
25857	22.984	3.6364	0.1	300.77
25858	23.076	3.7273	0.1	284.77
25859	22.799	3.6364	0.1	330.69
25860	22.891	3.7273	0.1	314.
25861	22.614	3.6364	0.1	361.92
25862	22.707	3.7273	0.1	344.69
25863	22.429	3.6364	0.1	394.22
25864	22.522	3.7273	0.1	376.57
25865	22.245	3.6364	0.1	427.42
25866	22.337	3.7273	0.1	409.43
25867	22.06	3.6364	0.1	461.41
25868	22.152	3.7273	0.1	443.13
25869	21.875	3.6364	0.1	496.09
25870	21.968	3.7273	0.1	477.57
25871	21.69	3.6364	0.1	531.39
25872	21.783	3.7273	0.1	512.65
25873	21.506	3.6364	0.1	567.26
25874	21.598	3.7273	0.1	548.33
25875	21.321	3.6364	0.1	603.65
25876	21.413	3.7273	0.1	584.55
25877	21.136	3.6364	0.1	640.53
25878	21.228	3.7273	0.1	621.27
25879	20.951	3.6364	0.1	677.87
25880	21.044	3.7273	0.1	658.46
25881	20.767	3.6364	0.1	715.63
25882	20.859	3.7273	0.1	696.08
25883	20.582	3.6364	0.1	753.8
25884	20.674	3.7273	0.1	734.12
25885	20.397	3.6364	0.1	792.37
25886	20.489	3.7273	0.1	772.56
25887	20.212	3.6364	0.1	831.3
25888	20.305	3.7273	0.1	811.36
25889	20.027	3.6364	0.1	870.59
25890	20.12	3.7273	0.1	850.53
25891	19.843	3.6364	0.1	910.23
25892	19.935	3.7273	0.1	890.04
25893	19.658	3.6364	0.1	950.19
25894	19.75	3.7273	0.1	929.89
25895	19.473	3.6364	0.1	990.47
25896	19.566	3.7273	0.1	970.06
25897	19.288	3.6364	0.1	1031.1
25898	19.381	3.7273	0.1	1010.5
25899	19.104	3.6364	0.1	1072.
25900	19.196	3.7273	0.1	1051.3
25901	18.919	3.6364	0.1	1113.1
25902	19.011	3.7273	0.1	1092.4
25903	18.734	3.6364	0.1	1154.6
25904	18.826	3.7273	0.1	1133.7
25905	18.549	3.6364	0.1	1196.3
25906	18.642	3.7273	0.1	1175.4
25907	18.365	3.6364	0.1	1238.4
25908	18.457	3.7273	0.1	1217.3
25909	18.18	3.6364	0.1	1280.6
25910	18.272	3.7273	0.1	1259.4
25911	17.995	3.6364	0.1	1323.2
25912	18.087	3.7273	0.1	1301.8
25913	17.81	3.6364	0.1	1365.9
25914	17.903	3.7273	0.1	1344.5
25915	17.625	3.6364	0.1	1409.
25916	17.718	3.7273	0.1	1387.4
25917	17.441	3.6364	0.1	1452.2
25918	17.533	3.7273	0.1	1430.6
25919	17.256	3.6364	0.1	1495.7
25920	17.348	3.7273	0.1	1474.
25921	17.071	3.6364	0.1	1539.5
25922	17.164	3.7273	0.1	1517.6
25923	16.886	3.6364	0.1	1583.5
25924	16.979	3.7273	0.1	1561.5
25925	16.702	3.6364	0.1	1627.6
25926	16.794	3.7273	0.1	1605.6
25927	16.517	3.6364	0.1	1672.1
25928	16.609	3.7273	0.1	1649.9
25929	16.332	3.6364	0.1	1716.7
25930	16.424	3.7273	0.1	1694.5
25931	16.147	3.6364	0.1	1761.6
25932	16.24	3.7273	0.1	1739.2
25933	15.963	3.6364	0.1	1806.6
25934	16.055	3.7273	0.1	1784.2
25935	15.778	3.6364	0.1	1851.9
25936	15.87	3.7273	0.1	1829.4
25937	15.593	3.6364	0.1	1897.4
25938	15.685	3.7273	0.1	1874.8
25939	15.408	3.6364	0.1	1943.1
25940	15.501	3.7273	0.1	1920.3
25941	15.223	3.6364	0.1	1989.
25942	15.316	3.7273	0.1	1966.1
25943	15.039	3.6364	0.1	2035.1
25944	15.131	3.7273	0.1	2012.1
25945	14.854	3.6364	0.1	2081.3
25946	14.946	3.7273	0.1	2058.3
25947	14.669	3.6364	0.1	2127.8
25948	14.761	3.7273	0.1	2104.7
25949	14.484	3.6364	0.1	2174.5
25950	14.577	3.7273	0.1	2151.3
25951	14.3	3.6364	0.1	2221.3
25952	14.392	3.7273	0.1	2198.1
25953	14.115	3.6364	0.1	2268.4
25954	14.207	3.7273	0.1	2245.
25955	13.93	3.6364	0.1	2315.6
25956	14.022	3.7273	0.1	2292.1
25957	13.745	3.6364	0.1	2363.
25958	13.838	3.7273	0.1	2339.5
25959	13.56	3.6364	0.1	2410.5
25960	13.653	3.7273	0.1	2386.9
25961	13.376	3.6364	0.1	2458.3
25962	13.468	3.7273	0.1	2434.6
25963	13.191	3.6364	0.1	2506.2
25964	13.283	3.7273	0.1	2482.4
25965	13.006	3.6364	0.1	2554.2
25966	13.099	3.7273	0.1	2530.4
25967	12.821	3.6364	0.1	2602.4
25968	12.914	3.7273	0.1	2578.6
25969	12.637	3.6364	0.1	2650.8
25970	12.729	3.7273	0.1	2626.9
25971	12.452	3.6364	0.1	2699.3
25972	12.544	3.7273	0.1	2675.4
25973	12.267	3.6364	0.1	2748.
25974	12.359	3.7273	0.1	2724.
25975	12.082	3.6364	0.1	2796.8
25976	12.175	3.7273	0.1	2772.7
25977	11.898	3.6364	0.1	2845.7
25978	11.99	3.7273	0.1	2821.6
25979	11.713	3.6364	0.1	2894.8
25980	11.805	3.7273	0.1	2870.6
25981	11.528	3.6364	0.1	2943.9
25982	11.62	3.7273	0.1	2919.8
25983	11.343	3.6364	0.1	2993.2
25984	11.436	3.7273	0.1	2969.
25985	11.158	3.6364	0.1	3042.6
25986	11.251	3.7273	0.1	3018.4
25987	10.974	3.6364	0.1	3092.1
25988	11.066	3.7273	0.1	3067.8
25989	10.789	3.6364	0.1	3141.7
25990	10.881	3.7273	0.1	3117.4
25991	10.604	3.6364	0.1	3191.3
25992	10.697	3.7273	0.1	3167.1
25993	10.419	3.6364	0.1	3241.
25994	10.512	3.7273	0.1	3216.8
25995	10.235	3.6364	0.1	3290.8
25996	10.327	3.7273	0.1	3266.6
25997	10.05	3.6364	0.1	3340.6
25998	10.142	3.7273	0.1	3316.4
25999	9.8651	3.6364	0.1	3390.5
26000	9.9575	3.7273	0.1	3366.3
26001	9.6803	3.6364	0.1	3440.4
26002	9.7727	3.7273	0.1	3416.3
26003	9.4955	3.6364	0.1	3490.3
26004	9.5879	3.7273	0.1	3466.2
26005	9.3108	3.6364	0.1	3540.2
26006	9.4032	3.7273	0.1	3516.2
26007	9.126	3.6364	0.1	3590.1
26008	9.2184	3.7273	0.1	3566.2
26009	8.9412	3.6364	0.1	3640.
26010	9.0336	3.7273	0.1	3616.2
26011	8.7565	3.6364	0.1	3689.8
26012	8.8489	3.7273	0.1	3666.2
26013	8.5717	3.6364	0.1	3739.7
26014	8.6641	3.7273	0.1	3716.2
26015	8.3869	3.6364	0.1	3789.6
26016	8.4793	3.7273	0.1	3766.1
26017	8.2022	3.6364	0.1	3839.4
26018	8.2945	3.7273	0.1	3816.1
26019	8.0174	3.6364	0.1	3889.3
26020	8.1098	3.7273	0.1	3866.1
26021	7.8326	3.6364	0.1	3939.3
26022	7.925	3.7273	0.1	3916.2
26023	7.6478	3.6364	0.1	3989.3
26024	7.7402	3.7273	0.1	3966.3
26025	7.4631	3.6364	0.1	4039.6
26026	7.5555	3.7273	0.1	4016.6
26027	7.2783	3.6364	0.1	4090.1
26028	7.3707	3.7273	0.1	4067.1
26029	7.0935	3.6364	0.1	4141.1
26030	7.1859	3.7273	0.1	4117.9
26031	6.9088	3.6364	0.1	4192.8
26032	7.0011	3.7273	0.1	4169.3
26033	6.724	3.6364	0.1	4245.4
26034	6.8164	3.7273	0.1	4221.4
26035	6.5392	3.6364	0.1	4299.3
26036	6.6316	3.7273	0.1	4274.6
26037	6.3545	3.6364	0.1	4354.9
26038	6.4468	3.7273	0.1	4329.1
26039	6.1697	3.6364	0.1	4413.
26040	6.2621	3.7273	0.1	4385.6
26041	5.9849	3.6364	0.1	4474.3
26042	6.0773	3.7273	0.1	4444.7
26043	5.8001	3.6364	0.1	4540.
26044	5.8925	3.7273	0.1	4507.2
26045	5.6154	3.6364	0.1	4611.4
26046	5.7078	3.7273	0.1	4574.3
26047	5.4306	3.6364	0.1	4690.3
26048	5.523	3.7273	0.1	4647.5
26049	5.2458	3.6364	0.1	4779.3
26050	5.3382	3.7273	0.1	4728.6
26051	5.0611	3.6364	0.1	4881.3
26052	5.1534	3.7273	0.1	4820.1
26053	4.8763	3.6364	0.1	5000.4
26054	4.9687	3.7273	0.1	4925.3
26055	4.6915	3.6364	0.1	5142.
26056	4.7839	3.7273	0.1	5048.3
26057	4.5068	3.6364	0.1	5313.1
26058	4.5991	3.7273	0.1	5194.7
26059	4.322	3.6364	0.1	5523.3
26060	4.4144	3.7273	0.1	5371.9
26061	4.1372	3.6364	0.1	5785.4
26062	4.2296	3.7273	0.1	5589.9
26063	3.9524	3.6364	0.1	6117.6
26064	4.0448	3.7273	0.1	5862.9
26065	3.7677	3.6364	0.1	6546.5
26066	3.8601	3.7273	0.1	6211.1
26067	3.5829	3.6364	0.1	7112.2
26068	3.6753	3.7273	0.1	6664.9
26069	3.3981	3.6364	0.1	7878.7
26070	3.4905	3.7273	0.1	7272.1
26071	3.2134	3.6364	0.1	8957.7
26072	3.3057	3.7273	0.1	8116.3
26073	3.0286	3.6364	0.1	10531
26074	3.121	3.7273	0.1	9341.7
26075	2.8438	3.6364	0.1	12830
26076	2.9362	3.7273	0.1	11295
26077	2.7514	3.7273	0.1	14578
26078	2.6591	3.6364	0.1	15241
26079	23.723	3.8182	0.1	199.74
26080	23.815	3.9091	0.1	189.28
26081	23.908	3.8182	0.1	185.58
26082	23.538	3.8182	0.1	219.46
26083	23.63	3.9091	0.1	206.71
26084	23.353	3.8182	0.1	242.95
26085	23.446	3.9091	0.1	228.54
26086	23.169	3.8182	0.1	269.26
26087	23.261	3.9091	0.1	253.65
26088	22.984	3.8182	0.1	297.71
26089	23.076	3.9091	0.1	281.21
26090	22.799	3.8182	0.1	327.8
26091	22.891	3.9091	0.1	310.64
26092	22.614	3.8182	0.1	359.21
26093	22.707	3.9091	0.1	341.54
26094	22.429	3.8182	0.1	391.7
26095	22.522	3.9091	0.1	373.63
26096	22.245	3.8182	0.1	425.09
26097	22.337	3.9091	0.1	406.7
26098	22.06	3.8182	0.1	459.26
26099	22.152	3.9091	0.1	440.62
26100	21.875	3.8182	0.1	494.12
26101	21.968	3.9091	0.1	475.27
26102	21.69	3.8182	0.1	529.6
26103	21.783	3.9091	0.1	510.56
26104	21.506	3.8182	0.1	565.64
26105	21.598	3.9091	0.1	546.44
26106	21.321	3.8182	0.1	602.2
26107	21.413	3.9091	0.1	582.85
26108	21.136	3.8182	0.1	639.23
26109	21.228	3.9091	0.1	619.75
26110	20.951	3.8182	0.1	676.72
26111	21.044	3.9091	0.1	657.11
26112	20.767	3.8182	0.1	714.62
26113	20.859	3.9091	0.1	694.89
26114	20.582	3.8182	0.1	752.92
26115	20.674	3.9091	0.1	733.08
26116	20.397	3.8182	0.1	791.6
26117	20.489	3.9091	0.1	771.65
26118	20.212	3.8182	0.1	830.65
26119	20.305	3.9091	0.1	810.59
26120	20.027	3.8182	0.1	870.04
26121	20.12	3.9091	0.1	849.87
26122	19.843	3.8182	0.1	909.76
26123	19.935	3.9091	0.1	889.49
26124	19.658	3.8182	0.1	949.81
26125	19.75	3.9091	0.1	929.43
26126	19.473	3.8182	0.1	990.17
26127	19.566	3.9091	0.1	969.69
26128	19.288	3.8182	0.1	1030.8
26129	19.381	3.9091	0.1	1010.2
26130	19.104	3.8182	0.1	1071.8
26131	19.196	3.9091	0.1	1051.1
26132	18.919	3.8182	0.1	1113.
26133	19.011	3.9091	0.1	1092.2
26134	18.734	3.8182	0.1	1154.5
26135	18.826	3.9091	0.1	1133.6
26136	18.549	3.8182	0.1	1196.3
26137	18.642	3.9091	0.1	1175.3
26138	18.365	3.8182	0.1	1238.4
26139	18.457	3.9091	0.1	1217.3
26140	18.18	3.8182	0.1	1280.7
26141	18.272	3.9091	0.1	1259.5
26142	17.995	3.8182	0.1	1323.3
26143	18.087	3.9091	0.1	1301.9
26144	17.81	3.8182	0.1	1366.1
26145	17.903	3.9091	0.1	1344.7
26146	17.625	3.8182	0.1	1409.1
26147	17.718	3.9091	0.1	1387.6
26148	17.441	3.8182	0.1	1452.4
26149	17.533	3.9091	0.1	1430.8
26150	17.256	3.8182	0.1	1496.
26151	17.348	3.9091	0.1	1474.2
26152	17.071	3.8182	0.1	1539.7
26153	17.164	3.9091	0.1	1517.9
26154	16.886	3.8182	0.1	1583.7
26155	16.979	3.9091	0.1	1561.8
26156	16.702	3.8182	0.1	1627.9
26157	16.794	3.9091	0.1	1605.9
26158	16.517	3.8182	0.1	1672.4
26159	16.609	3.9091	0.1	1650.2
26160	16.332	3.8182	0.1	1717.
26161	16.424	3.9091	0.1	1694.8
26162	16.147	3.8182	0.1	1761.9
26163	16.24	3.9091	0.1	1739.6
26164	15.963	3.8182	0.1	1807.
26165	16.055	3.9091	0.1	1784.6
26166	15.778	3.8182	0.1	1852.3
26167	15.87	3.9091	0.1	1829.8
26168	15.593	3.8182	0.1	1897.8
26169	15.685	3.9091	0.1	1875.2
26170	15.408	3.8182	0.1	1943.5
26171	15.501	3.9091	0.1	1920.8
26172	15.223	3.8182	0.1	1989.4
26173	15.316	3.9091	0.1	1966.6
26174	15.039	3.8182	0.1	2035.5
26175	15.131	3.9091	0.1	2012.6
26176	14.854	3.8182	0.1	2081.8
26177	14.946	3.9091	0.1	2058.8
26178	14.669	3.8182	0.1	2128.2
26179	14.761	3.9091	0.1	2105.2
26180	14.484	3.8182	0.1	2174.9
26181	14.577	3.9091	0.1	2151.8
26182	14.3	3.8182	0.1	2221.8
26183	14.392	3.9091	0.1	2198.6
26184	14.115	3.8182	0.1	2268.8
26185	14.207	3.9091	0.1	2245.5
26186	13.93	3.8182	0.1	2316.1
26187	14.022	3.9091	0.1	2292.7
26188	13.745	3.8182	0.1	2363.5
26189	13.838	3.9091	0.1	2340.
26190	13.56	3.8182	0.1	2411.1
26191	13.653	3.9091	0.1	2387.5
26192	13.376	3.8182	0.1	2458.8
26193	13.468	3.9091	0.1	2435.2
26194	13.191	3.8182	0.1	2506.7
26195	13.283	3.9091	0.1	2483.1
26196	13.006	3.8182	0.1	2554.8
26197	13.099	3.9091	0.1	2531.1
26198	12.821	3.8182	0.1	2603.1
26199	12.914	3.9091	0.1	2579.3
26200	12.637	3.8182	0.1	2651.5
26201	12.729	3.9091	0.1	2627.6
26202	12.452	3.8182	0.1	2700.
26203	12.544	3.9091	0.1	2676.1
26204	12.267	3.8182	0.1	2748.7
26205	12.359	3.9091	0.1	2724.8
26206	12.082	3.8182	0.1	2797.6
26207	12.175	3.9091	0.1	2773.6
26208	11.898	3.8182	0.1	2846.5
26209	11.99	3.9091	0.1	2822.5
26210	11.713	3.8182	0.1	2895.6
26211	11.805	3.9091	0.1	2871.5
26212	11.528	3.8182	0.1	2944.8
26213	11.62	3.9091	0.1	2920.7
26214	11.343	3.8182	0.1	2994.2
26215	11.436	3.9091	0.1	2970.1
26216	11.158	3.8182	0.1	3043.6
26217	11.251	3.9091	0.1	3019.5
26218	10.974	3.8182	0.1	3093.2
26219	11.066	3.9091	0.1	3069.
26220	10.789	3.8182	0.1	3142.8
26221	10.881	3.9091	0.1	3118.7
26222	10.604	3.8182	0.1	3192.6
26223	10.697	3.9091	0.1	3168.4
26224	10.419	3.8182	0.1	3242.4
26225	10.512	3.9091	0.1	3218.2
26226	10.235	3.8182	0.1	3292.2
26227	10.327	3.9091	0.1	3268.1
26228	10.05	3.8182	0.1	3342.2
26229	10.142	3.9091	0.1	3318.1
26230	9.8651	3.8182	0.1	3392.1
26231	9.9575	3.9091	0.1	3368.1
26232	9.6803	3.8182	0.1	3442.1
26233	9.7727	3.9091	0.1	3418.2
26234	9.4955	3.8182	0.1	3492.2
26235	9.5879	3.9091	0.1	3468.3
26236	9.3108	3.8182	0.1	3542.2
26237	9.4032	3.9091	0.1	3518.4
26238	9.126	3.8182	0.1	3592.3
26239	9.2184	3.9091	0.1	3568.6
26240	8.9412	3.8182	0.1	3642.4
26241	9.0336	3.9091	0.1	3618.8
26242	8.7565	3.8182	0.1	3692.5
26243	8.8489	3.9091	0.1	3669.
26244	8.5717	3.8182	0.1	3742.6
26245	8.6641	3.9091	0.1	3719.2
26246	8.3869	3.8182	0.1	3792.7
26247	8.4793	3.9091	0.1	3769.4
26248	8.2022	3.8182	0.1	3842.8
26249	8.2945	3.9091	0.1	3819.7
26250	8.0174	3.8182	0.1	3892.9
26251	8.1098	3.9091	0.1	3869.9
26252	7.8326	3.8182	0.1	3943.2
26253	7.925	3.9091	0.1	3920.3
26254	7.6478	3.8182	0.1	3993.5
26255	7.7402	3.9091	0.1	3970.7
26256	7.4631	3.8182	0.1	4044.1
26257	7.5555	3.9091	0.1	4021.3
26258	7.2783	3.8182	0.1	4094.9
26259	7.3707	3.9091	0.1	4072.1
26260	7.0935	3.8182	0.1	4146.1
26261	7.1859	3.9091	0.1	4123.3
26262	6.9088	3.8182	0.1	4197.9
26263	7.0011	3.9091	0.1	4174.9
26264	6.724	3.8182	0.1	4250.6
26265	6.8164	3.9091	0.1	4227.1
26266	6.5392	3.8182	0.1	4304.4
26267	6.6316	3.9091	0.1	4280.2
26268	6.3545	3.8182	0.1	4359.8
26269	6.4468	3.9091	0.1	4334.6
26270	6.1697	3.8182	0.1	4417.3
26271	6.2621	3.9091	0.1	4390.6
26272	5.9849	3.8182	0.1	4477.6
26273	6.0773	3.9091	0.1	4448.8
26274	5.8001	3.8182	0.1	4541.6
26275	5.8925	3.9091	0.1	4509.9
26276	5.6154	3.8182	0.1	4610.5
26277	5.7078	3.9091	0.1	4574.8
26278	5.4306	3.8182	0.1	4685.8
26279	5.523	3.9091	0.1	4644.7
26280	5.2458	3.8182	0.1	4769.5
26281	5.3382	3.9091	0.1	4721.1
26282	5.0611	3.8182	0.1	4864.2
26283	5.1534	3.9091	0.1	4806.
26284	4.8763	3.8182	0.1	4973.2
26285	4.9687	3.9091	0.1	4902.
26286	4.6915	3.8182	0.1	5101.
26287	4.7839	3.9091	0.1	5012.4
26288	4.5068	3.8182	0.1	5253.3
26289	4.5991	3.9091	0.1	5141.7
26290	4.322	3.8182	0.1	5438.3
26291	4.4144	3.9091	0.1	5296.
26292	4.1372	3.8182	0.1	5667.1
26293	4.2296	3.9091	0.1	5483.7
26294	3.9524	3.8182	0.1	5955.7
26295	4.0448	3.9091	0.1	5716.7
26296	3.7677	3.8182	0.1	6328.5
26297	3.8601	3.9091	0.1	6012.7
26298	3.5829	3.8182	0.1	6823.8
26299	3.6753	3.9091	0.1	6399.6
26300	3.3981	3.8182	0.1	7509.9
26301	3.4905	3.9091	0.1	6921.7
26302	3.2134	3.8182	0.1	8506.5
26303	3.3057	3.9091	0.1	7665.
26304	3.0286	3.8182	0.1	10134
26305	3.121	3.9091	0.1	8777.1
26306	2.8438	3.8182	0.1	13118
26307	2.9362	3.9091	0.1	10714
26308	2.7514	3.9091	0.1	15044
26309	2.6591	3.8182	0.1	17725
26310	23.723	4.	0.1	195.07
26311	23.815	4.0909	0.1	184.04
26312	23.908	4.	0.1	180.74
26313	23.538	4.	0.1	214.95
26314	23.63	4.0909	0.1	201.6
26315	23.353	4.	0.1	238.65
26316	23.446	4.0909	0.1	223.64
26317	23.169	4.	0.1	265.18
26318	23.261	4.0909	0.1	249.
26319	22.984	4.	0.1	293.86
26320	23.076	4.0909	0.1	276.82
26321	22.799	4.	0.1	324.19
26322	22.891	4.0909	0.1	306.52
26323	22.614	4.	0.1	355.84
26324	22.707	4.0909	0.1	337.69
26325	22.429	4.	0.1	388.56
26326	22.522	4.0909	0.1	370.06
26327	22.245	4.	0.1	422.2
26328	22.337	4.0909	0.1	403.41
26329	22.06	4.	0.1	456.61
26330	22.152	4.0909	0.1	437.6
26331	21.875	4.	0.1	491.71
26332	21.968	4.0909	0.1	472.51
26333	21.69	4.	0.1	527.42
26334	21.783	4.0909	0.1	508.07
26335	21.506	4.	0.1	563.68
26336	21.598	4.0909	0.1	544.19
26337	21.321	4.	0.1	600.44
26338	21.413	4.0909	0.1	580.84
26339	21.136	4.	0.1	637.67
26340	21.228	4.0909	0.1	617.96
26341	20.951	4.	0.1	675.33
26342	21.044	4.0909	0.1	655.53
26343	20.767	4.	0.1	713.4
26344	20.859	4.0909	0.1	693.5
26345	20.582	4.	0.1	751.86
26346	20.674	4.0909	0.1	731.87
26347	20.397	4.	0.1	790.69
26348	20.489	4.0909	0.1	770.6
26349	20.212	4.	0.1	829.87
26350	20.305	4.0909	0.1	809.69
26351	20.027	4.	0.1	869.38
26352	20.12	4.0909	0.1	849.11
26353	19.843	4.	0.1	909.22
26354	19.935	4.0909	0.1	888.86
26355	19.658	4.	0.1	949.37
26356	19.75	4.0909	0.1	928.92
26357	19.473	4.	0.1	989.82
26358	19.566	4.0909	0.1	969.28
26359	19.288	4.	0.1	1030.6
26360	19.381	4.0909	0.1	1009.9
26361	19.104	4.	0.1	1071.6
26362	19.196	4.0909	0.1	1050.9
26363	18.919	4.	0.1	1112.9
26364	19.011	4.0909	0.1	1092.1
26365	18.734	4.	0.1	1154.5
26366	18.826	4.0909	0.1	1133.6
26367	18.549	4.	0.1	1196.3
26368	18.642	4.0909	0.1	1175.3
26369	18.365	4.	0.1	1238.4
26370	18.457	4.0909	0.1	1217.3
26371	18.18	4.	0.1	1280.8
26372	18.272	4.0909	0.1	1259.6
26373	17.995	4.	0.1	1323.4
26374	18.087	4.0909	0.1	1302.1
26375	17.81	4.	0.1	1366.3
26376	17.903	4.0909	0.1	1344.9
26377	17.625	4.	0.1	1409.3
26378	17.718	4.0909	0.1	1387.8
26379	17.441	4.	0.1	1452.7
26380	17.533	4.0909	0.1	1431.1
26381	17.256	4.	0.1	1496.2
26382	17.348	4.0909	0.1	1474.5
26383	17.071	4.	0.1	1540.
26384	17.164	4.0909	0.1	1518.2
26385	16.886	4.	0.1	1584.
26386	16.979	4.0909	0.1	1562.2
26387	16.702	4.	0.1	1628.3
26388	16.794	4.0909	0.1	1606.3
26389	16.517	4.	0.1	1672.7
26390	16.609	4.0909	0.1	1650.7
26391	16.332	4.	0.1	1717.4
26392	16.424	4.0909	0.1	1695.2
26393	16.147	4.	0.1	1762.3
26394	16.24	4.0909	0.1	1740.
26395	15.963	4.	0.1	1807.4
26396	16.055	4.0909	0.1	1785.
26397	15.778	4.	0.1	1852.7
26398	15.87	4.0909	0.1	1830.3
26399	15.593	4.	0.1	1898.2
26400	15.685	4.0909	0.1	1875.7
26401	15.408	4.	0.1	1943.9
26402	15.501	4.0909	0.1	1921.3
26403	15.223	4.	0.1	1989.9
26404	15.316	4.0909	0.1	1967.1
26405	15.039	4.	0.1	2036.
26406	15.131	4.0909	0.1	2013.2
26407	14.854	4.	0.1	2082.3
26408	14.946	4.0909	0.1	2059.4
26409	14.669	4.	0.1	2128.8
26410	14.761	4.0909	0.1	2105.8
26411	14.484	4.	0.1	2175.5
26412	14.577	4.0909	0.1	2152.4
26413	14.3	4.	0.1	2222.4
26414	14.392	4.0909	0.1	2199.2
26415	14.115	4.	0.1	2269.4
26416	14.207	4.0909	0.1	2246.2
26417	13.93	4.	0.1	2316.7
26418	14.022	4.0909	0.1	2293.4
26419	13.745	4.	0.1	2364.1
26420	13.838	4.0909	0.1	2340.7
26421	13.56	4.	0.1	2411.7
26422	13.653	4.0909	0.1	2388.3
26423	13.376	4.	0.1	2459.5
26424	13.468	4.0909	0.1	2436.
26425	13.191	4.	0.1	2507.5
26426	13.283	4.0909	0.1	2483.9
26427	13.006	4.	0.1	2555.6
26428	13.099	4.0909	0.1	2531.9
26429	12.821	4.	0.1	2603.9
26430	12.914	4.0909	0.1	2580.1
26431	12.637	4.	0.1	2652.3
26432	12.729	4.0909	0.1	2628.5
26433	12.452	4.	0.1	2700.9
26434	12.544	4.0909	0.1	2677.
26435	12.267	4.	0.1	2749.6
26436	12.359	4.0909	0.1	2725.7
26437	12.082	4.	0.1	2798.5
26438	12.175	4.0909	0.1	2774.6
26439	11.898	4.	0.1	2847.5
26440	11.99	4.0909	0.1	2823.6
26441	11.713	4.	0.1	2896.7
26442	11.805	4.0909	0.1	2872.7
26443	11.528	4.	0.1	2946.
26444	11.62	4.0909	0.1	2921.9
26445	11.343	4.	0.1	2995.4
26446	11.436	4.0909	0.1	2971.3
26447	11.158	4.	0.1	3044.9
26448	11.251	4.0909	0.1	3020.8
26449	10.974	4.	0.1	3094.5
26450	11.066	4.0909	0.1	3070.4
26451	10.789	4.	0.1	3144.3
26452	10.881	4.0909	0.1	3120.2
26453	10.604	4.	0.1	3194.1
26454	10.697	4.0909	0.1	3170.
26455	10.419	4.	0.1	3244.
26456	10.512	4.0909	0.1	3219.9
26457	10.235	4.	0.1	3294.
26458	10.327	4.0909	0.1	3270.
26459	10.05	4.	0.1	3344.
26460	10.142	4.0909	0.1	3320.1
26461	9.8651	4.	0.1	3394.2
26462	9.9575	4.0909	0.1	3370.2
26463	9.6803	4.	0.1	3444.3
26464	9.7727	4.0909	0.1	3420.5
26465	9.4955	4.	0.1	3494.5
26466	9.5879	4.0909	0.1	3470.7
26467	9.3108	4.	0.1	3544.8
26468	9.4032	4.0909	0.1	3521.1
26469	9.126	4.	0.1	3595.1
26470	9.2184	4.0909	0.1	3571.5
26471	8.9412	4.	0.1	3645.4
26472	9.0336	4.0909	0.1	3621.9
26473	8.7565	4.	0.1	3695.7
26474	8.8489	4.0909	0.1	3672.3
26475	8.5717	4.	0.1	3746.1
26476	8.6641	4.0909	0.1	3722.8
26477	8.3869	4.	0.1	3796.4
26478	8.4793	4.0909	0.1	3773.3
26479	8.2022	4.	0.1	3846.8
26480	8.2945	4.0909	0.1	3823.9
26481	8.0174	4.	0.1	3897.3
26482	8.1098	4.0909	0.1	3874.5
26483	7.8326	4.	0.1	3947.9
26484	7.925	4.0909	0.1	3925.1
26485	7.6478	4.	0.1	3998.5
26486	7.7402	4.0909	0.1	3975.9
26487	7.4631	4.	0.1	4049.4
26488	7.5555	4.0909	0.1	4026.8
26489	7.2783	4.	0.1	4100.5
26490	7.3707	4.0909	0.1	4078.
26491	7.0935	4.	0.1	4152.
26492	7.1859	4.0909	0.1	4129.4
26493	6.9088	4.	0.1	4204.
26494	7.0011	4.0909	0.1	4181.2
26495	6.724	4.	0.1	4256.7
26496	6.8164	4.0909	0.1	4233.6
26497	6.5392	4.	0.1	4310.4
26498	6.6316	4.0909	0.1	4286.7
26499	6.3545	4.	0.1	4365.4
26500	6.4468	4.0909	0.1	4340.8
26501	6.1697	4.	0.1	4422.2
26502	6.2621	4.0909	0.1	4396.2
26503	5.9849	4.	0.1	4481.2
26504	6.0773	4.0909	0.1	4453.3
26505	5.8001	4.	0.1	4543.2
26506	5.8925	4.0909	0.1	4512.7
26507	5.6154	4.	0.1	4609.1
26508	5.7078	4.0909	0.1	4575.
26509	5.4306	4.	0.1	4680.1
26510	5.523	4.0909	0.1	4641.1
26511	5.2458	4.	0.1	4757.7
26512	5.3382	4.0909	0.1	4712.1
26513	5.0611	4.	0.1	4843.9
26514	5.1534	4.0909	0.1	4789.5
26515	4.8763	4.	0.1	4941.2
26516	4.9687	4.0909	0.1	4875.1
26517	4.6915	4.	0.1	5053.2
26518	4.7839	4.0909	0.1	4971.4
26519	4.5068	4.	0.1	5184.3
26520	4.5991	4.0909	0.1	5081.7
26521	4.322	4.	0.1	5341.
26522	4.4144	4.0909	0.1	5210.7
26523	4.1372	4.	0.1	5532.4
26524	4.2296	4.0909	0.1	5364.9
26525	3.9524	4.	0.1	5772.2
26526	4.0448	4.0909	0.1	5554.1
26527	3.7677	4.	0.1	6081.4
26528	3.8601	4.0909	0.1	5792.9
26529	3.5829	4.	0.1	6494.2
26530	3.6753	4.0909	0.1	6105.1
26531	3.3981	4.	0.1	7073.3
26532	3.4905	4.0909	0.1	6529.7
26533	3.2134	4.	0.1	7935.
26534	3.3057	4.0909	0.1	7140.7
26535	3.0286	4.	0.1	9375.
26536	3.121	4.0909	0.1	8073.9
26537	2.8438	4.	0.1	12832
26538	2.9362	4.0909	0.1	9732.3
26539	2.7514	4.0909	0.1	14000
26540	2.6591	4.	0.1	22643
26541	23.723	4.1818	0.1	189.38
26542	23.815	4.2727	0.1	177.73
26543	23.908	4.1818	0.1	174.84
26544	23.538	4.1818	0.1	209.46
26545	23.63	4.2727	0.1	195.46
26546	23.353	4.1818	0.1	233.42
26547	23.446	4.2727	0.1	217.77
26548	23.169	4.1818	0.1	260.24
26549	23.261	4.2727	0.1	243.44
26550	22.984	4.1818	0.1	289.21
26551	23.076	4.2727	0.1	271.59
26552	22.799	4.1818	0.1	319.85
26553	22.891	4.2727	0.1	301.63
26554	22.614	4.1818	0.1	351.81
26555	22.707	4.2727	0.1	333.16
26556	22.429	4.1818	0.1	384.84
26557	22.522	4.2727	0.1	365.87
26558	22.245	4.1818	0.1	418.78
26559	22.337	4.2727	0.1	399.57
26560	22.06	4.1818	0.1	453.5
26561	22.152	4.2727	0.1	434.1
26562	21.875	4.1818	0.1	488.88
26563	21.968	4.2727	0.1	469.35
26564	21.69	4.1818	0.1	524.87
26565	21.783	4.2727	0.1	505.21
26566	21.506	4.1818	0.1	561.39
26567	21.598	4.2727	0.1	541.64
26568	21.321	4.1818	0.1	598.4
26569	21.413	4.2727	0.1	578.56
26570	21.136	4.1818	0.1	635.87
26571	21.228	4.2727	0.1	615.94
26572	20.951	4.1818	0.1	673.75
26573	21.044	4.2727	0.1	653.75
26574	20.767	4.1818	0.1	712.02
26575	20.859	4.2727	0.1	691.95
26576	20.582	4.1818	0.1	750.66
26577	20.674	4.2727	0.1	730.52
26578	20.397	4.1818	0.1	789.66
26579	20.489	4.2727	0.1	769.45
26580	20.212	4.1818	0.1	828.99
26581	20.305	4.2727	0.1	808.71
26582	20.027	4.1818	0.1	868.65
26583	20.12	4.2727	0.1	848.29
26584	19.843	4.1818	0.1	908.62
26585	19.935	4.2727	0.1	888.18
26586	19.658	4.1818	0.1	948.88
26587	19.75	4.2727	0.1	928.37
26588	19.473	4.1818	0.1	989.44
26589	19.566	4.2727	0.1	968.85
26590	19.288	4.1818	0.1	1030.3
26591	19.381	4.2727	0.1	1009.6
26592	19.104	4.1818	0.1	1071.4
26593	19.196	4.2727	0.1	1050.6
26594	18.919	4.1818	0.1	1112.8
26595	19.011	4.2727	0.1	1091.9
26596	18.734	4.1818	0.1	1154.5
26597	18.826	4.2727	0.1	1133.5
26598	18.549	4.1818	0.1	1196.4
26599	18.642	4.2727	0.1	1175.3
26600	18.365	4.1818	0.1	1238.5
26601	18.457	4.2727	0.1	1217.4
26602	18.18	4.1818	0.1	1280.9
26603	18.272	4.2727	0.1	1259.7
26604	17.995	4.1818	0.1	1323.6
26605	18.087	4.2727	0.1	1302.3
26606	17.81	4.1818	0.1	1366.5
26607	17.903	4.2727	0.1	1345.1
26608	17.625	4.1818	0.1	1409.6
26609	17.718	4.2727	0.1	1388.1
26610	17.441	4.1818	0.1	1453.
26611	17.533	4.2727	0.1	1431.4
26612	17.256	4.1818	0.1	1496.6
26613	17.348	4.2727	0.1	1474.9
26614	17.071	4.1818	0.1	1540.4
26615	17.164	4.2727	0.1	1518.6
26616	16.886	4.1818	0.1	1584.5
26617	16.979	4.2727	0.1	1562.6
26618	16.702	4.1818	0.1	1628.7
26619	16.794	4.2727	0.1	1606.8
26620	16.517	4.1818	0.1	1673.2
26621	16.609	4.2727	0.1	1651.1
26622	16.332	4.1818	0.1	1717.9
26623	16.424	4.2727	0.1	1695.8
26624	16.147	4.1818	0.1	1762.8
26625	16.24	4.2727	0.1	1740.6
26626	15.963	4.1818	0.1	1807.9
26627	16.055	4.2727	0.1	1785.6
26628	15.778	4.1818	0.1	1853.3
26629	15.87	4.2727	0.1	1830.8
26630	15.593	4.1818	0.1	1898.8
26631	15.685	4.2727	0.1	1876.3
26632	15.408	4.1818	0.1	1944.5
26633	15.501	4.2727	0.1	1921.9
26634	15.223	4.1818	0.1	1990.5
26635	15.316	4.2727	0.1	1967.8
26636	15.039	4.1818	0.1	2036.6
26637	15.131	4.2727	0.1	2013.8
26638	14.854	4.1818	0.1	2082.9
26639	14.946	4.2727	0.1	2060.1
26640	14.669	4.1818	0.1	2129.5
26641	14.761	4.2727	0.1	2106.5
26642	14.484	4.1818	0.1	2176.2
26643	14.577	4.2727	0.1	2153.1
26644	14.3	4.1818	0.1	2223.1
26645	14.392	4.2727	0.1	2200.
26646	14.115	4.1818	0.1	2270.2
26647	14.207	4.2727	0.1	2247.
26648	13.93	4.1818	0.1	2317.4
26649	14.022	4.2727	0.1	2294.2
26650	13.745	4.1818	0.1	2364.9
26651	13.838	4.2727	0.1	2341.6
26652	13.56	4.1818	0.1	2412.5
26653	13.653	4.2727	0.1	2389.1
26654	13.376	4.1818	0.1	2460.4
26655	13.468	4.2727	0.1	2436.9
26656	13.191	4.1818	0.1	2508.3
26657	13.283	4.2727	0.1	2484.8
26658	13.006	4.1818	0.1	2556.5
26659	13.099	4.2727	0.1	2532.9
26660	12.821	4.1818	0.1	2604.8
26661	12.914	4.2727	0.1	2581.1
26662	12.637	4.1818	0.1	2653.3
26663	12.729	4.2727	0.1	2629.5
26664	12.452	4.1818	0.1	2701.9
26665	12.544	4.2727	0.1	2678.1
26666	12.267	4.1818	0.1	2750.7
26667	12.359	4.2727	0.1	2726.9
26668	12.082	4.1818	0.1	2799.6
26669	12.175	4.2727	0.1	2775.8
26670	11.898	4.1818	0.1	2848.7
26671	11.99	4.2727	0.1	2824.8
26672	11.713	4.1818	0.1	2897.9
26673	11.805	4.2727	0.1	2874.
26674	11.528	4.1818	0.1	2947.3
26675	11.62	4.2727	0.1	2923.3
26676	11.343	4.1818	0.1	2996.8
26677	11.436	4.2727	0.1	2972.8
26678	11.158	4.1818	0.1	3046.4
26679	11.251	4.2727	0.1	3022.4
26680	10.974	4.1818	0.1	3096.1
26681	11.066	4.2727	0.1	3072.1
26682	10.789	4.1818	0.1	3146.
26683	10.881	4.2727	0.1	3121.9
26684	10.604	4.1818	0.1	3195.9
26685	10.697	4.2727	0.1	3171.9
26686	10.419	4.1818	0.1	3245.9
26687	10.512	4.2727	0.1	3222.
26688	10.235	4.1818	0.1	3296.1
26689	10.327	4.2727	0.1	3272.1
26690	10.05	4.1818	0.1	3346.3
26691	10.142	4.2727	0.1	3322.4
26692	9.8651	4.1818	0.1	3396.6
26693	9.9575	4.2727	0.1	3372.7
26694	9.6803	4.1818	0.1	3446.9
26695	9.7727	4.2727	0.1	3423.1
26696	9.4955	4.1818	0.1	3497.3
26697	9.5879	4.2727	0.1	3473.6
26698	9.3108	4.1818	0.1	3547.8
26699	9.4032	4.2727	0.1	3524.1
26700	9.126	4.1818	0.1	3598.3
26701	9.2184	4.2727	0.1	3574.8
26702	8.9412	4.1818	0.1	3648.8
26703	9.0336	4.2727	0.1	3625.4
26704	8.7565	4.1818	0.1	3699.4
26705	8.8489	4.2727	0.1	3676.1
26706	8.5717	4.1818	0.1	3750.1
26707	8.6641	4.2727	0.1	3726.9
26708	8.3869	4.1818	0.1	3800.8
26709	8.4793	4.2727	0.1	3777.7
26710	8.2022	4.1818	0.1	3851.5
26711	8.2945	4.2727	0.1	3828.6
26712	8.0174	4.1818	0.1	3902.3
26713	8.1098	4.2727	0.1	3879.6
26714	7.8326	4.1818	0.1	3953.2
26715	7.925	4.2727	0.1	3930.6
26716	7.6478	4.1818	0.1	4004.2
26717	7.7402	4.2727	0.1	3981.7
26718	7.4631	4.1818	0.1	4055.4
26719	7.5555	4.2727	0.1	4033.
26720	7.2783	4.1818	0.1	4106.9
26721	7.3707	4.2727	0.1	4084.5
26722	7.0935	4.1818	0.1	4158.6
26723	7.1859	4.2727	0.1	4136.2
26724	6.9088	4.1818	0.1	4210.8
26725	7.0011	4.2727	0.1	4188.2
26726	6.724	4.1818	0.1	4263.5
26727	6.8164	4.2727	0.1	4240.7
26728	6.5392	4.1818	0.1	4317.1
26729	6.6316	4.2727	0.1	4293.7
26730	6.3545	4.1818	0.1	4371.6
26731	6.4468	4.2727	0.1	4347.4
26732	6.1697	4.1818	0.1	4427.4
26733	6.2621	4.2727	0.1	4402.1
26734	5.9849	4.1818	0.1	4484.9
26735	6.0773	4.2727	0.1	4457.9
26736	5.8001	4.1818	0.1	4544.6
26737	5.8925	4.2727	0.1	4515.3
26738	5.6154	4.1818	0.1	4607.1
26739	5.7078	4.2727	0.1	4574.7
26740	5.4306	4.1818	0.1	4673.2
26741	5.523	4.2727	0.1	4636.6
26742	5.2458	4.1818	0.1	4744.
26743	5.3382	4.2727	0.1	4701.6
26744	5.0611	4.1818	0.1	4820.7
26745	5.1534	4.2727	0.1	4770.7
26746	4.8763	4.1818	0.1	4905.2
26747	4.9687	4.2727	0.1	4845.
26748	4.6915	4.1818	0.1	4999.9
26749	4.7839	4.2727	0.1	4926.
26750	4.5068	4.1818	0.1	5107.9
26751	4.5991	4.2727	0.1	5016.
26752	4.322	4.1818	0.1	5234.1
26753	4.4144	4.2727	0.1	5118.
26754	4.1372	4.1818	0.1	5385.4
26755	4.2296	4.2727	0.1	5236.6
26756	3.9524	4.1818	0.1	5572.6
26757	4.0448	4.2727	0.1	5379.
26758	3.7677	4.1818	0.1	5812.9
26759	3.8601	4.2727	0.1	5556.6
26760	3.5829	4.1818	0.1	6134.8
26761	3.6753	4.2727	0.1	5788.2
26762	3.3981	4.1818	0.1	6589.1
26763	3.4905	4.2727	0.1	6104.9
26764	3.2134	4.1818	0.1	7270.
26765	3.3057	4.2727	0.1	6564.7
26766	3.0286	4.1818	0.1	8436.7
26767	3.121	4.2727	0.1	7261.9
26768	2.8438	4.1818	0.1	10933
26769	2.9362	4.2727	0.1	8496.5
26770	2.7514	4.2727	0.1	11181
26771	2.6591	4.1818	0.1	11124
26772	23.723	4.3636	0.1	182.6
26773	23.815	4.4545	0.1	170.27
26774	23.908	4.3636	0.1	167.8
26775	23.538	4.3636	0.1	202.94
26776	23.63	4.4545	0.1	188.22
26777	23.353	4.3636	0.1	227.24
26778	23.446	4.4545	0.1	210.88
26779	23.169	4.3636	0.1	254.42
26780	23.261	4.4545	0.1	236.95
26781	22.984	4.3636	0.1	283.77
26782	23.076	4.4545	0.1	265.52
26783	22.799	4.3636	0.1	314.79
26784	22.891	4.4545	0.1	296.
26785	22.614	4.3636	0.1	347.14
26786	22.707	4.4545	0.1	327.97
26787	22.429	4.3636	0.1	380.56
26788	22.522	4.4545	0.1	361.12
26789	22.245	4.3636	0.1	414.88
26790	22.337	4.4545	0.1	395.24
26791	22.06	4.3636	0.1	449.96
26792	22.152	4.4545	0.1	430.18
26793	21.875	4.3636	0.1	485.7
26794	21.968	4.4545	0.1	465.82
26795	21.69	4.3636	0.1	522.01
26796	21.783	4.4545	0.1	502.05
26797	21.506	4.3636	0.1	558.84
26798	21.598	4.4545	0.1	538.82
26799	21.321	4.3636	0.1	596.14
26800	21.413	4.4545	0.1	576.07
26801	21.136	4.3636	0.1	633.88
26802	21.228	4.4545	0.1	613.75
26803	20.951	4.3636	0.1	672.
26804	21.044	4.4545	0.1	651.83
26805	20.767	4.3636	0.1	710.51
26806	20.859	4.4545	0.1	690.28
26807	20.582	4.3636	0.1	749.36
26808	20.674	4.4545	0.1	729.08
26809	20.397	4.3636	0.1	788.55
26810	20.489	4.4545	0.1	768.22
26811	20.212	4.3636	0.1	828.06
26812	20.305	4.4545	0.1	807.67
26813	20.027	4.3636	0.1	867.87
26814	20.12	4.4545	0.1	847.43
26815	19.843	4.3636	0.1	907.99
26816	19.935	4.4545	0.1	887.48
26817	19.658	4.3636	0.1	948.39
26818	19.75	4.4545	0.1	927.81
26819	19.473	4.3636	0.1	989.07
26820	19.566	4.4545	0.1	968.42
26821	19.288	4.3636	0.1	1030.
26822	19.381	4.4545	0.1	1009.3
26823	19.104	4.3636	0.1	1071.2
26824	19.196	4.4545	0.1	1050.4
26825	18.919	4.3636	0.1	1112.7
26826	19.011	4.4545	0.1	1091.8
26827	18.734	4.3636	0.1	1154.5
26828	18.826	4.4545	0.1	1133.5
26829	18.549	4.3636	0.1	1196.4
26830	18.642	4.4545	0.1	1175.4
26831	18.365	4.3636	0.1	1238.7
26832	18.457	4.4545	0.1	1217.6
26833	18.18	4.3636	0.1	1281.1
26834	18.272	4.4545	0.1	1259.9
26835	17.995	4.3636	0.1	1323.9
26836	18.087	4.4545	0.1	1302.6
26837	17.81	4.3636	0.1	1366.8
26838	17.903	4.4545	0.1	1345.4
26839	17.625	4.3636	0.1	1410.
26840	17.718	4.4545	0.1	1388.5
26841	17.441	4.3636	0.1	1453.4
26842	17.533	4.4545	0.1	1431.8
26843	17.256	4.3636	0.1	1497.
26844	17.348	4.4545	0.1	1475.4
26845	17.071	4.3636	0.1	1540.9
26846	17.164	4.4545	0.1	1519.1
26847	16.886	4.3636	0.1	1584.9
26848	16.979	4.4545	0.1	1563.1
26849	16.702	4.3636	0.1	1629.2
26850	16.794	4.4545	0.1	1607.3
26851	16.517	4.3636	0.1	1673.8
26852	16.609	4.4545	0.1	1651.7
26853	16.332	4.3636	0.1	1718.5
26854	16.424	4.4545	0.1	1696.4
26855	16.147	4.3636	0.1	1763.4
26856	16.24	4.4545	0.1	1741.2
26857	15.963	4.3636	0.1	1808.6
26858	16.055	4.4545	0.1	1786.3
26859	15.778	4.3636	0.1	1853.9
26860	15.87	4.4545	0.1	1831.5
26861	15.593	4.3636	0.1	1899.5
26862	15.685	4.4545	0.1	1877.
26863	15.408	4.3636	0.1	1945.2
26864	15.501	4.4545	0.1	1922.7
26865	15.223	4.3636	0.1	1991.2
26866	15.316	4.4545	0.1	1968.5
26867	15.039	4.3636	0.1	2037.3
26868	15.131	4.4545	0.1	2014.6
26869	14.854	4.3636	0.1	2083.7
26870	14.946	4.4545	0.1	2060.9
26871	14.669	4.3636	0.1	2130.2
26872	14.761	4.4545	0.1	2107.3
26873	14.484	4.3636	0.1	2177.
26874	14.577	4.4545	0.1	2154.
26875	14.3	4.3636	0.1	2223.9
26876	14.392	4.4545	0.1	2200.8
26877	14.115	4.3636	0.1	2271.
26878	14.207	4.4545	0.1	2247.9
26879	13.93	4.3636	0.1	2318.3
26880	14.022	4.4545	0.1	2295.1
26881	13.745	4.3636	0.1	2365.8
26882	13.838	4.4545	0.1	2342.5
26883	13.56	4.3636	0.1	2413.5
26884	13.653	4.4545	0.1	2390.1
26885	13.376	4.3636	0.1	2461.3
26886	13.468	4.4545	0.1	2437.9
26887	13.191	4.3636	0.1	2509.3
26888	13.283	4.4545	0.1	2485.8
26889	13.006	4.3636	0.1	2557.5
26890	13.099	4.4545	0.1	2534.
26891	12.821	4.3636	0.1	2605.9
26892	12.914	4.4545	0.1	2582.3
26893	12.637	4.3636	0.1	2654.4
26894	12.729	4.4545	0.1	2630.7
26895	12.452	4.3636	0.1	2703.1
26896	12.544	4.4545	0.1	2679.4
26897	12.267	4.3636	0.1	2752.
26898	12.359	4.4545	0.1	2728.2
26899	12.082	4.3636	0.1	2801.
26900	12.175	4.4545	0.1	2777.1
26901	11.898	4.3636	0.1	2850.1
26902	11.99	4.4545	0.1	2826.2
26903	11.713	4.3636	0.1	2899.4
26904	11.805	4.4545	0.1	2875.5
26905	11.528	4.3636	0.1	2948.8
26906	11.62	4.4545	0.1	2924.9
26907	11.343	4.3636	0.1	2998.4
26908	11.436	4.4545	0.1	2974.5
26909	11.158	4.3636	0.1	3048.1
26910	11.251	4.4545	0.1	3024.2
26911	10.974	4.3636	0.1	3098.
26912	11.066	4.4545	0.1	3074.
26913	10.789	4.3636	0.1	3147.9
26914	10.881	4.4545	0.1	3123.9
26915	10.604	4.3636	0.1	3198.
26916	10.697	4.4545	0.1	3174.
26917	10.419	4.3636	0.1	3248.2
26918	10.512	4.4545	0.1	3224.2
26919	10.235	4.3636	0.1	3298.4
26920	10.327	4.4545	0.1	3274.5
26921	10.05	4.3636	0.1	3348.8
26922	10.142	4.4545	0.1	3324.9
26923	9.8651	4.3636	0.1	3399.3
26924	9.9575	4.4545	0.1	3375.5
26925	9.6803	4.3636	0.1	3449.8
26926	9.7727	4.4545	0.1	3426.1
26927	9.4955	4.3636	0.1	3500.4
26928	9.5879	4.4545	0.1	3476.8
26929	9.3108	4.3636	0.1	3551.1
26930	9.4032	4.4545	0.1	3527.6
26931	9.126	4.3636	0.1	3601.9
26932	9.2184	4.4545	0.1	3578.4
26933	8.9412	4.3636	0.1	3652.7
26934	9.0336	4.4545	0.1	3629.4
26935	8.7565	4.3636	0.1	3703.6
26936	8.8489	4.4545	0.1	3680.4
26937	8.5717	4.3636	0.1	3754.6
26938	8.6641	4.4545	0.1	3731.5
26939	8.3869	4.3636	0.1	3805.6
26940	8.4793	4.4545	0.1	3782.6
26941	8.2022	4.3636	0.1	3856.7
26942	8.2945	4.4545	0.1	3833.8
26943	8.0174	4.3636	0.1	3907.9
26944	8.1098	4.4545	0.1	3885.2
26945	7.8326	4.3636	0.1	3959.1
26946	7.925	4.4545	0.1	3936.6
26947	7.6478	4.3636	0.1	4010.5
26948	7.7402	4.4545	0.1	3988.1
26949	7.4631	4.3636	0.1	4062.1
26950	7.5555	4.4545	0.1	4039.7
26951	7.2783	4.3636	0.1	4113.8
26952	7.3707	4.4545	0.1	4091.5
26953	7.0935	4.3636	0.1	4165.8
26954	7.1859	4.4545	0.1	4143.4
26955	6.9088	4.3636	0.1	4218.1
26956	7.0011	4.4545	0.1	4195.6
26957	6.724	4.3636	0.1	4270.8
26958	6.8164	4.4545	0.1	4248.1
26959	6.5392	4.3636	0.1	4324.
26960	6.6316	4.4545	0.1	4300.9
26961	6.3545	4.3636	0.1	4377.9
26962	6.4468	4.4545	0.1	4354.2
26963	6.1697	4.3636	0.1	4432.6
26964	6.2621	4.4545	0.1	4407.9
26965	5.9849	4.3636	0.1	4488.4
26966	6.0773	4.4545	0.1	4462.4
26967	5.8001	4.3636	0.1	4545.5
26968	5.8925	4.4545	0.1	4517.6
26969	5.6154	4.3636	0.1	4604.3
26970	5.7078	4.4545	0.1	4573.7
26971	5.4306	4.3636	0.1	4665.
26972	5.523	4.4545	0.1	4631.
26973	5.2458	4.3636	0.1	4728.4
26974	5.3382	4.4545	0.1	4689.6
26975	5.0611	4.3636	0.1	4795.
26976	5.1534	4.4545	0.1	4749.9
26977	4.8763	4.3636	0.1	4865.8
26978	4.9687	4.4545	0.1	4812.2
26979	4.6915	4.3636	0.1	4942.1
26980	4.7839	4.4545	0.1	4877.2
26981	4.5068	4.3636	0.1	5025.7
26982	4.5991	4.4545	0.1	4945.8
26983	4.322	4.3636	0.1	5119.6
26984	4.4144	4.4545	0.1	5019.6
26985	4.1372	4.3636	0.1	5228.6
26986	4.2296	4.4545	0.1	5101.
26987	3.9524	4.3636	0.1	5360.
26988	4.0448	4.4545	0.1	5194.5
26989	3.7677	4.3636	0.1	5526.6
26990	3.8601	4.4545	0.1	5307.6
26991	3.5829	4.3636	0.1	5749.4
26992	3.6753	4.4545	0.1	5453.4
26993	3.3981	4.3636	0.1	6065.8
26994	3.4905	4.4545	0.1	5653.8
26995	3.2134	4.3636	0.1	6532.7
26996	3.3057	4.4545	0.1	5947.6
26997	3.0286	4.3636	0.1	7267.1
26998	3.121	4.4545	0.1	6391.
26999	2.8438	4.3636	0.1	8529.2
27000	2.9362	4.4545	0.1	7089.6
27001	2.7514	4.4545	0.1	8476.8
27002	2.6591	4.3636	0.1	7683.3
27003	23.723	4.5455	0.1	174.67
27004	23.815	4.6364	0.1	161.58
27005	23.908	4.5455	0.1	159.55
27006	23.538	4.5455	0.1	195.34
27007	23.63	4.6364	0.1	179.8
27008	23.353	4.5455	0.1	220.06
27009	23.446	4.6364	0.1	202.91
27010	23.169	4.5455	0.1	247.71
27011	23.261	4.6364	0.1	229.49
27012	22.984	4.5455	0.1	277.54
27013	23.076	4.6364	0.1	258.6
27014	22.799	4.5455	0.1	309.05
27015	22.891	4.6364	0.1	289.64
27016	22.614	4.5455	0.1	341.88
27017	22.707	4.6364	0.1	322.16
27018	22.429	4.5455	0.1	375.78
27019	22.522	4.6364	0.1	355.85
27020	22.245	4.5455	0.1	410.55
27021	22.337	4.6364	0.1	390.49
27022	22.06	4.5455	0.1	446.06
27023	22.152	4.6364	0.1	425.91
27024	21.875	4.5455	0.1	482.21
27025	21.968	4.6364	0.1	462.
27026	21.69	4.5455	0.1	518.91
27027	21.783	4.6364	0.1	498.66
27028	21.506	4.5455	0.1	556.09
27029	21.598	4.6364	0.1	535.82
27030	21.321	4.5455	0.1	593.72
27031	21.413	4.6364	0.1	573.43
27032	21.136	4.5455	0.1	631.75
27033	21.228	4.6364	0.1	611.44
27034	20.951	4.5455	0.1	670.16
27035	21.044	4.6364	0.1	649.82
27036	20.767	4.5455	0.1	708.92
27037	20.859	4.6364	0.1	688.55
27038	20.582	4.5455	0.1	748.
27039	20.674	4.6364	0.1	727.6
27040	20.397	4.5455	0.1	787.4
27041	20.489	4.6364	0.1	766.97
27042	20.212	4.5455	0.1	827.1
27043	20.305	4.6364	0.1	806.63
27044	20.027	4.5455	0.1	867.09
27045	20.12	4.6364	0.1	846.57
27046	19.843	4.5455	0.1	907.36
27047	19.935	4.6364	0.1	886.79
27048	19.658	4.5455	0.1	947.91
27049	19.75	4.6364	0.1	927.28
27050	19.473	4.5455	0.1	988.72
27051	19.566	4.6364	0.1	968.03
27052	19.288	4.5455	0.1	1029.8
27053	19.381	4.6364	0.1	1009.
27054	19.104	4.5455	0.1	1071.1
27055	19.196	4.6364	0.1	1050.3
27056	18.919	4.5455	0.1	1112.7
27057	19.011	4.6364	0.1	1091.8
27058	18.734	4.5455	0.1	1154.5
27059	18.826	4.6364	0.1	1133.6
27060	18.549	4.5455	0.1	1196.6
27061	18.642	4.6364	0.1	1175.5
27062	18.365	4.5455	0.1	1238.9
27063	18.457	4.6364	0.1	1217.8
27064	18.18	4.5455	0.1	1281.4
27065	18.272	4.6364	0.1	1260.2
27066	17.995	4.5455	0.1	1324.2
27067	18.087	4.6364	0.1	1302.9
27068	17.81	4.5455	0.1	1367.2
27069	17.903	4.6364	0.1	1345.8
27070	17.625	4.5455	0.1	1410.4
27071	17.718	4.6364	0.1	1389.
27072	17.441	4.5455	0.1	1453.9
27073	17.533	4.6364	0.1	1432.3
27074	17.256	4.5455	0.1	1497.5
27075	17.348	4.6364	0.1	1475.9
27076	17.071	4.5455	0.1	1541.4
27077	17.164	4.6364	0.1	1519.7
27078	16.886	4.5455	0.1	1585.5
27079	16.979	4.6364	0.1	1563.7
27080	16.702	4.5455	0.1	1629.9
27081	16.794	4.6364	0.1	1608.
27082	16.517	4.5455	0.1	1674.4
27083	16.609	4.6364	0.1	1652.4
27084	16.332	4.5455	0.1	1719.1
27085	16.424	4.6364	0.1	1697.1
27086	16.147	4.5455	0.1	1764.1
27087	16.24	4.6364	0.1	1741.9
27088	15.963	4.5455	0.1	1809.3
27089	16.055	4.6364	0.1	1787.
27090	15.778	4.5455	0.1	1854.6
27091	15.87	4.6364	0.1	1832.3
27092	15.593	4.5455	0.1	1900.2
27093	15.685	4.6364	0.1	1877.8
27094	15.408	4.5455	0.1	1946.
27095	15.501	4.6364	0.1	1923.5
27096	15.223	4.5455	0.1	1992.
27097	15.316	4.6364	0.1	1969.4
27098	15.039	4.5455	0.1	2038.2
27099	15.131	4.6364	0.1	2015.5
27100	14.854	4.5455	0.1	2084.5
27101	14.946	4.6364	0.1	2061.8
27102	14.669	4.5455	0.1	2131.1
27103	14.761	4.6364	0.1	2108.2
27104	14.484	4.5455	0.1	2177.9
27105	14.577	4.6364	0.1	2154.9
27106	14.3	4.5455	0.1	2224.8
27107	14.392	4.6364	0.1	2201.8
27108	14.115	4.5455	0.1	2272.
27109	14.207	4.6364	0.1	2248.9
27110	13.93	4.5455	0.1	2319.3
27111	14.022	4.6364	0.1	2296.1
27112	13.745	4.5455	0.1	2366.8
27113	13.838	4.6364	0.1	2343.6
27114	13.56	4.5455	0.1	2414.5
27115	13.653	4.6364	0.1	2391.2
27116	13.376	4.5455	0.1	2462.4
27117	13.468	4.6364	0.1	2439.
27118	13.191	4.5455	0.1	2510.5
27119	13.283	4.6364	0.1	2487.
27120	13.006	4.5455	0.1	2558.7
27121	13.099	4.6364	0.1	2535.2
27122	12.821	4.5455	0.1	2607.1
27123	12.914	4.6364	0.1	2583.5
27124	12.637	4.5455	0.1	2655.7
27125	12.729	4.6364	0.1	2632.1
27126	12.452	4.5455	0.1	2704.4
27127	12.544	4.6364	0.1	2680.7
27128	12.267	4.5455	0.1	2753.4
27129	12.359	4.6364	0.1	2729.6
27130	12.082	4.5455	0.1	2802.4
27131	12.175	4.6364	0.1	2778.6
27132	11.898	4.5455	0.1	2851.7
27133	11.99	4.6364	0.1	2827.8
27134	11.713	4.5455	0.1	2901.
27135	11.805	4.6364	0.1	2877.2
27136	11.528	4.5455	0.1	2950.6
27137	11.62	4.6364	0.1	2926.7
27138	11.343	4.5455	0.1	3000.2
27139	11.436	4.6364	0.1	2976.3
27140	11.158	4.5455	0.1	3050.1
27141	11.251	4.6364	0.1	3026.1
27142	10.974	4.5455	0.1	3100.
27143	11.066	4.6364	0.1	3076.1
27144	10.789	4.5455	0.1	3150.1
27145	10.881	4.6364	0.1	3126.2
27146	10.604	4.5455	0.1	3200.3
27147	10.697	4.6364	0.1	3176.4
27148	10.419	4.5455	0.1	3250.6
27149	10.512	4.6364	0.1	3226.7
27150	10.235	4.5455	0.1	3301.1
27151	10.327	4.6364	0.1	3277.2
27152	10.05	4.5455	0.1	3351.6
27153	10.142	4.6364	0.1	3327.8
27154	9.8651	4.5455	0.1	3402.3
27155	9.9575	4.6364	0.1	3378.5
27156	9.6803	4.5455	0.1	3453.1
27157	9.7727	4.6364	0.1	3429.3
27158	9.4955	4.5455	0.1	3503.9
27159	9.5879	4.6364	0.1	3480.3
27160	9.3108	4.5455	0.1	3554.9
27161	9.4032	4.6364	0.1	3531.3
27162	9.126	4.5455	0.1	3605.9
27163	9.2184	4.6364	0.1	3582.4
27164	8.9412	4.5455	0.1	3657.
27165	9.0336	4.6364	0.1	3633.7
27166	8.7565	4.5455	0.1	3708.2
27167	8.8489	4.6364	0.1	3685.
27168	8.5717	4.5455	0.1	3759.5
27169	8.6641	4.6364	0.1	3736.4
27170	8.3869	4.5455	0.1	3810.9
27171	8.4793	4.6364	0.1	3787.9
27172	8.2022	4.5455	0.1	3862.3
27173	8.2945	4.6364	0.1	3839.5
27174	8.0174	4.5455	0.1	3913.9
27175	8.1098	4.6364	0.1	3891.1
27176	7.8326	4.5455	0.1	3965.5
27177	7.925	4.6364	0.1	3942.9
27178	7.6478	4.5455	0.1	4017.2
27179	7.7402	4.6364	0.1	3994.8
27180	7.4631	4.5455	0.1	4069.1
27181	7.5555	4.6364	0.1	4046.7
27182	7.2783	4.5455	0.1	4121.1
27183	7.3707	4.6364	0.1	4098.8
27184	7.0935	4.5455	0.1	4173.3
27185	7.1859	4.6364	0.1	4151.
27186	6.9088	4.5455	0.1	4225.7
27187	7.0011	4.6364	0.1	4203.3
27188	6.724	4.5455	0.1	4278.2
27189	6.8164	4.6364	0.1	4255.7
27190	6.5392	4.5455	0.1	4331.1
27191	6.6316	4.6364	0.1	4308.2
27192	6.3545	4.5455	0.1	4384.2
27193	6.4468	4.6364	0.1	4360.9
27194	6.1697	4.5455	0.1	4437.7
27195	6.2621	4.6364	0.1	4413.6
27196	5.9849	4.5455	0.1	4491.6
27197	6.0773	4.6364	0.1	4466.4
27198	5.8001	4.5455	0.1	4545.8
27199	5.8925	4.6364	0.1	4519.2
27200	5.6154	4.5455	0.1	4600.5
27201	5.7078	4.6364	0.1	4571.8
27202	5.4306	4.5455	0.1	4655.6
27203	5.523	4.6364	0.1	4624.2
27204	5.2458	4.5455	0.1	4711.1
27205	5.3382	4.6364	0.1	4676.1
27206	5.0611	4.5455	0.1	4767.1
27207	5.1534	4.6364	0.1	4727.2
27208	4.8763	4.5455	0.1	4823.6
27209	4.9687	4.6364	0.1	4777.2
27210	4.6915	4.5455	0.1	4880.8
27211	4.7839	4.6364	0.1	4825.7
27212	4.5068	4.5455	0.1	4939.2
27213	4.5991	4.6364	0.1	4872.5
27214	4.322	4.5455	0.1	4999.8
27215	4.4144	4.6364	0.1	4917.4
27216	4.1372	4.5455	0.1	5064.7
27217	4.2296	4.6364	0.1	4960.8
27218	3.9524	4.5455	0.1	5138.1
27219	4.0448	4.6364	0.1	5004.2
27220	3.7677	4.5455	0.1	5227.3
27221	3.8601	4.6364	0.1	5051.1
27222	3.5829	4.5455	0.1	5345.3
27223	3.6753	4.6364	0.1	5108.6
27224	3.3981	4.5455	0.1	5513.3
27225	3.4905	4.6364	0.1	5189.6
27226	3.2134	4.5455	0.1	5764.4
27227	3.3057	4.6364	0.1	5315.6
27228	3.0286	4.5455	0.1	6131.4
27229	3.121	4.6364	0.1	5520.
27230	2.8438	4.5455	0.1	6793.6
27231	2.9362	4.6364	0.1	5842.
27232	2.7514	4.6364	0.1	6593.
27233	2.6591	4.5455	0.1	5965.6
27234	23.723	4.7273	0.1	165.48
27235	23.815	4.8182	0.1	151.52
27236	23.908	4.7273	0.1	149.97
27237	23.538	4.7273	0.1	186.58
27238	23.63	4.8182	0.1	170.11
27239	23.353	4.7273	0.1	211.84
27240	23.446	4.8182	0.1	193.8
27241	23.169	4.7273	0.1	240.08
27242	23.261	4.8182	0.1	221.04
27243	22.984	4.7273	0.1	270.53
27244	23.076	4.8182	0.1	250.86
27245	22.799	4.7273	0.1	302.66
27246	22.891	4.8182	0.1	282.6
27247	22.614	4.7273	0.1	336.09
27248	22.707	4.8182	0.1	315.81
27249	22.429	4.7273	0.1	370.56
27250	22.522	4.8182	0.1	350.15
27251	22.245	4.7273	0.1	405.88
27252	22.337	4.8182	0.1	385.4
27253	22.06	4.7273	0.1	441.9
27254	22.152	4.8182	0.1	421.4
27255	21.875	4.7273	0.1	478.51
27256	21.968	4.8182	0.1	458.
27257	21.69	4.7273	0.1	515.64
27258	21.783	4.8182	0.1	495.14
27259	21.506	4.7273	0.1	553.22
27260	21.598	4.8182	0.1	532.73
27261	21.321	4.7273	0.1	591.21
27262	21.413	4.8182	0.1	570.73
27263	21.136	4.7273	0.1	629.57
27264	21.228	4.8182	0.1	609.1
27265	20.951	4.7273	0.1	668.28
27266	21.044	4.8182	0.1	647.8
27267	20.767	4.7273	0.1	707.3
27268	20.859	4.8182	0.1	686.82
27269	20.582	4.7273	0.1	746.64
27270	20.674	4.8182	0.1	726.14
27271	20.397	4.7273	0.1	786.26
27272	20.489	4.8182	0.1	765.75
27273	20.212	4.7273	0.1	826.16
27274	20.305	4.8182	0.1	805.63
27275	20.027	4.7273	0.1	866.34
27276	20.12	4.8182	0.1	845.77
27277	19.843	4.7273	0.1	906.78
27278	19.935	4.8182	0.1	886.17
27279	19.658	4.7273	0.1	947.47
27280	19.75	4.8182	0.1	926.82
27281	19.473	4.7273	0.1	988.42
27282	19.566	4.8182	0.1	967.72
27283	19.288	4.7273	0.1	1029.6
27284	19.381	4.8182	0.1	1008.9
27285	19.104	4.7273	0.1	1071.1
27286	19.196	4.8182	0.1	1050.2
27287	18.919	4.7273	0.1	1112.7
27288	19.011	4.8182	0.1	1091.8
27289	18.734	4.7273	0.1	1154.6
27290	18.826	4.8182	0.1	1133.7
27291	18.549	4.7273	0.1	1196.8
27292	18.642	4.8182	0.1	1175.8
27293	18.365	4.7273	0.1	1239.2
27294	18.457	4.8182	0.1	1218.1
27295	18.18	4.7273	0.1	1281.8
27296	18.272	4.8182	0.1	1260.6
27297	17.995	4.7273	0.1	1324.6
27298	18.087	4.8182	0.1	1303.4
27299	17.81	4.7273	0.1	1367.7
27300	17.903	4.8182	0.1	1346.3
27301	17.625	4.7273	0.1	1410.9
27302	17.718	4.8182	0.1	1389.5
27303	17.441	4.7273	0.1	1454.4
27304	17.533	4.8182	0.1	1432.9
27305	17.256	4.7273	0.1	1498.1
27306	17.348	4.8182	0.1	1476.6
27307	17.071	4.7273	0.1	1542.1
27308	17.164	4.8182	0.1	1520.4
27309	16.886	4.7273	0.1	1586.2
27310	16.979	4.8182	0.1	1564.5
27311	16.702	4.7273	0.1	1630.6
27312	16.794	4.8182	0.1	1608.7
27313	16.517	4.7273	0.1	1675.1
27314	16.609	4.8182	0.1	1653.2
27315	16.332	4.7273	0.1	1719.9
27316	16.424	4.8182	0.1	1697.9
27317	16.147	4.7273	0.1	1764.9
27318	16.24	4.8182	0.1	1742.8
27319	15.963	4.7273	0.1	1810.1
27320	16.055	4.8182	0.1	1787.9
27321	15.778	4.7273	0.1	1855.5
27322	15.87	4.8182	0.1	1833.2
27323	15.593	4.7273	0.1	1901.1
27324	15.685	4.8182	0.1	1878.7
27325	15.408	4.7273	0.1	1946.9
27326	15.501	4.8182	0.1	1924.4
27327	15.223	4.7273	0.1	1992.9
27328	15.316	4.8182	0.1	1970.3
27329	15.039	4.7273	0.1	2039.1
27330	15.131	4.8182	0.1	2016.5
27331	14.854	4.7273	0.1	2085.5
27332	14.946	4.8182	0.1	2062.8
27333	14.669	4.7273	0.1	2132.1
27334	14.761	4.8182	0.1	2109.3
27335	14.484	4.7273	0.1	2178.9
27336	14.577	4.8182	0.1	2156.
27337	14.3	4.7273	0.1	2225.9
27338	14.392	4.8182	0.1	2202.9
27339	14.115	4.7273	0.1	2273.1
27340	14.207	4.8182	0.1	2250.
27341	13.93	4.7273	0.1	2320.4
27342	14.022	4.8182	0.1	2297.3
27343	13.745	4.7273	0.1	2368.
27344	13.838	4.8182	0.1	2344.8
27345	13.56	4.7273	0.1	2415.7
27346	13.653	4.8182	0.1	2392.4
27347	13.376	4.7273	0.1	2463.6
27348	13.468	4.8182	0.1	2440.3
27349	13.191	4.7273	0.1	2511.8
27350	13.283	4.8182	0.1	2488.3
27351	13.006	4.7273	0.1	2560.
27352	13.099	4.8182	0.1	2536.5
27353	12.821	4.7273	0.1	2608.5
27354	12.914	4.8182	0.1	2584.9
27355	12.637	4.7273	0.1	2657.1
27356	12.729	4.8182	0.1	2633.5
27357	12.452	4.7273	0.1	2705.9
27358	12.544	4.8182	0.1	2682.3
27359	12.267	4.7273	0.1	2754.9
27360	12.359	4.8182	0.1	2731.2
27361	12.082	4.7273	0.1	2804.1
27362	12.175	4.8182	0.1	2780.3
27363	11.898	4.7273	0.1	2853.4
27364	11.99	4.8182	0.1	2829.6
27365	11.713	4.7273	0.1	2902.8
27366	11.805	4.8182	0.1	2879.
27367	11.528	4.7273	0.1	2952.5
27368	11.62	4.8182	0.1	2928.6
27369	11.343	4.7273	0.1	3002.3
27370	11.436	4.8182	0.1	2978.4
27371	11.158	4.7273	0.1	3052.2
27372	11.251	4.8182	0.1	3028.3
27373	10.974	4.7273	0.1	3102.3
27374	11.066	4.8182	0.1	3078.4
27375	10.789	4.7273	0.1	3152.5
27376	10.881	4.8182	0.1	3128.6
27377	10.604	4.7273	0.1	3202.8
27378	10.697	4.8182	0.1	3179.
27379	10.419	4.7273	0.1	3253.3
27380	10.512	4.8182	0.1	3229.5
27381	10.235	4.7273	0.1	3304.
27382	10.327	4.8182	0.1	3280.1
27383	10.05	4.7273	0.1	3354.7
27384	10.142	4.8182	0.1	3330.9
27385	9.8651	4.7273	0.1	3405.6
27386	9.9575	4.8182	0.1	3381.8
27387	9.6803	4.7273	0.1	3456.6
27388	9.7727	4.8182	0.1	3432.9
27389	9.4955	4.7273	0.1	3507.7
27390	9.5879	4.8182	0.1	3484.
27391	9.3108	4.7273	0.1	3558.9
27392	9.4032	4.8182	0.1	3535.3
27393	9.126	4.7273	0.1	3610.2
27394	9.2184	4.8182	0.1	3586.7
27395	8.9412	4.7273	0.1	3661.6
27396	9.0336	4.8182	0.1	3638.3
27397	8.7565	4.7273	0.1	3713.2
27398	8.8489	4.8182	0.1	3689.9
27399	8.5717	4.7273	0.1	3764.8
27400	8.6641	4.8182	0.1	3741.6
27401	8.3869	4.7273	0.1	3816.5
27402	8.4793	4.8182	0.1	3793.4
27403	8.2022	4.7273	0.1	3868.3
27404	8.2945	4.8182	0.1	3845.4
27405	8.0174	4.7273	0.1	3920.2
27406	8.1098	4.8182	0.1	3897.4
27407	7.8326	4.7273	0.1	3972.2
27408	7.925	4.8182	0.1	3949.5
27409	7.6478	4.7273	0.1	4024.3
27410	7.7402	4.8182	0.1	4001.7
27411	7.4631	4.7273	0.1	4076.4
27412	7.5555	4.8182	0.1	4054.
27413	7.2783	4.7273	0.1	4128.7
27414	7.3707	4.8182	0.1	4106.3
27415	7.0935	4.7273	0.1	4181.
27416	7.1859	4.8182	0.1	4158.6
27417	6.9088	4.7273	0.1	4233.3
27418	7.0011	4.8182	0.1	4211.
27419	6.724	4.7273	0.1	4285.7
27420	6.8164	4.8182	0.1	4263.2
27421	6.5392	4.7273	0.1	4338.
27422	6.6316	4.8182	0.1	4315.4
27423	6.3545	4.7273	0.1	4390.3
27424	6.4468	4.8182	0.1	4367.3
27425	6.1697	4.7273	0.1	4442.4
27426	6.2621	4.8182	0.1	4418.9
27427	5.9849	4.7273	0.1	4494.1
27428	6.0773	4.8182	0.1	4469.9
27429	5.8001	4.7273	0.1	4545.3
27430	5.8925	4.8182	0.1	4520.
27431	5.6154	4.7273	0.1	4595.6
27432	5.7078	4.8182	0.1	4569.
27433	5.4306	4.7273	0.1	4644.7
27434	5.523	4.8182	0.1	4616.2
27435	5.2458	4.7273	0.1	4692.2
27436	5.3382	4.8182	0.1	4661.2
27437	5.0611	4.7273	0.1	4737.3
27438	5.1534	4.8182	0.1	4702.9
27439	4.8763	4.7273	0.1	4779.2
27440	4.9687	4.8182	0.1	4740.5
27441	4.6915	4.7273	0.1	4817.1
27442	4.7839	4.8182	0.1	4772.5
27443	4.5068	4.7273	0.1	4850.
27444	4.5991	4.8182	0.1	4797.5
27445	4.322	4.7273	0.1	4877.1
27446	4.4144	4.8182	0.1	4813.8
27447	4.1372	4.7273	0.1	4897.8
27448	4.2296	4.8182	0.1	4819.7
27449	3.9524	4.7273	0.1	4912.6
27450	4.0448	4.8182	0.1	4813.7
27451	3.7677	4.7273	0.1	4923.9
27452	3.8601	4.8182	0.1	4795.4
27453	3.5829	4.7273	0.1	4937.4
27454	3.6753	4.8182	0.1	4766.6
27455	3.3981	4.7273	0.1	4964.1
27456	3.4905	4.8182	0.1	4733.2
27457	3.2134	4.7273	0.1	5021.3
27458	3.3057	4.8182	0.1	4708.2
27459	3.0286	4.7273	0.1	5139.5
27460	3.121	4.8182	0.1	4714.3
27461	2.8438	4.7273	0.1	5477.3
27462	2.9362	4.8182	0.1	4797.8
27463	2.7514	4.8182	0.1	5233.5
27464	2.6591	4.7273	0.1	4695.7
27465	23.723	4.9091	0.1	154.92
27466	23.815	5.	0.1	139.94
27467	23.908	4.9091	0.1	138.9
27468	23.538	4.9091	0.1	176.57
27469	23.63	5.	0.1	159.03
27470	23.353	4.9091	0.1	202.55
27471	23.446	5.	0.1	183.48
27472	23.169	4.9091	0.1	231.57
27473	23.261	5.	0.1	211.62
27474	22.984	4.9091	0.1	262.81
27475	23.076	5.	0.1	242.36
27476	22.799	4.9091	0.1	295.71
27477	22.891	5.	0.1	275.
27478	22.614	4.9091	0.1	329.88
27479	22.707	5.	0.1	309.05
27480	22.429	4.9091	0.1	365.03
27481	22.522	5.	0.1	344.18
27482	22.245	4.9091	0.1	400.98
27483	22.337	5.	0.1	380.14
27484	22.06	4.9091	0.1	437.57
27485	22.152	5.	0.1	416.77
27486	21.875	4.9091	0.1	474.7
27487	21.968	5.	0.1	453.95
27488	21.69	4.9091	0.1	512.31
27489	21.783	5.	0.1	491.6
27490	21.506	4.9091	0.1	550.32
27491	21.598	5.	0.1	529.65
27492	21.321	4.9091	0.1	588.69
27493	21.413	5.	0.1	568.07
27494	21.136	4.9091	0.1	627.4
27495	21.228	5.	0.1	606.81
27496	20.951	4.9091	0.1	666.42
27497	21.044	5.	0.1	645.85
27498	20.767	4.9091	0.1	705.74
27499	20.859	5.	0.1	685.18
27500	20.582	4.9091	0.1	745.33
27501	20.674	5.	0.1	724.77
27502	20.397	4.9091	0.1	785.19
27503	20.489	5.	0.1	764.62
27504	20.212	4.9091	0.1	825.3
27505	20.305	5.	0.1	804.72
27506	20.027	4.9091	0.1	865.67
27507	20.12	5.	0.1	845.07
27508	19.843	4.9091	0.1	906.28
27509	19.935	5.	0.1	885.65
27510	19.658	4.9091	0.1	947.13
27511	19.75	5.	0.1	926.46
27512	19.473	4.9091	0.1	988.22
27513	19.566	5.	0.1	967.51
27514	19.288	4.9091	0.1	1029.5
27515	19.381	5.	0.1	1008.8
27516	19.104	4.9091	0.1	1071.1
27517	19.196	5.	0.1	1050.3
27518	18.919	4.9091	0.1	1112.9
27519	19.011	5.	0.1	1092.
27520	18.734	4.9091	0.1	1154.9
27521	18.826	5.	0.1	1133.9
27522	18.549	4.9091	0.1	1197.1
27523	18.642	5.	0.1	1176.1
27524	18.365	4.9091	0.1	1239.6
27525	18.457	5.	0.1	1218.5
27526	18.18	4.9091	0.1	1282.2
27527	18.272	5.	0.1	1261.1
27528	17.995	4.9091	0.1	1325.1
27529	18.087	5.	0.1	1303.9
27530	17.81	4.9091	0.1	1368.2
27531	17.903	5.	0.1	1346.9
27532	17.625	4.9091	0.1	1411.6
27533	17.718	5.	0.1	1390.2
27534	17.441	4.9091	0.1	1455.1
27535	17.533	5.	0.1	1433.6
27536	17.256	4.9091	0.1	1498.9
27537	17.348	5.	0.1	1477.3
27538	17.071	4.9091	0.1	1542.8
27539	17.164	5.	0.1	1521.2
27540	16.886	4.9091	0.1	1587.
27541	16.979	5.	0.1	1565.3
27542	16.702	4.9091	0.1	1631.4
27543	16.794	5.	0.1	1609.6
27544	16.517	4.9091	0.1	1676.
27545	16.609	5.	0.1	1654.1
27546	16.332	4.9091	0.1	1720.8
27547	16.424	5.	0.1	1698.8
27548	16.147	4.9091	0.1	1765.8
27549	16.24	5.	0.1	1743.7
27550	15.963	4.9091	0.1	1811.
27551	16.055	5.	0.1	1788.9
27552	15.778	4.9091	0.1	1856.5
27553	15.87	5.	0.1	1834.2
27554	15.593	4.9091	0.1	1902.1
27555	15.685	5.	0.1	1879.7
27556	15.408	4.9091	0.1	1947.9
27557	15.501	5.	0.1	1925.5
27558	15.223	4.9091	0.1	1993.9
27559	15.316	5.	0.1	1971.4
27560	15.039	4.9091	0.1	2040.2
27561	15.131	5.	0.1	2017.6
27562	14.854	4.9091	0.1	2086.6
27563	14.946	5.	0.1	2063.9
27564	14.669	4.9091	0.1	2133.2
27565	14.761	5.	0.1	2110.4
27566	14.484	4.9091	0.1	2180.
27567	14.577	5.	0.1	2157.2
27568	14.3	4.9091	0.1	2227.1
27569	14.392	5.	0.1	2204.1
27570	14.115	4.9091	0.1	2274.3
27571	14.207	5.	0.1	2251.2
27572	13.93	4.9091	0.1	2321.7
27573	14.022	5.	0.1	2298.6
27574	13.745	4.9091	0.1	2369.3
27575	13.838	5.	0.1	2346.1
27576	13.56	4.9091	0.1	2417.
27577	13.653	5.	0.1	2393.8
27578	13.376	4.9091	0.1	2465.
27579	13.468	5.	0.1	2441.7
27580	13.191	4.9091	0.1	2513.2
27581	13.283	5.	0.1	2489.8
27582	13.006	4.9091	0.1	2561.5
27583	13.099	5.	0.1	2538.
27584	12.821	4.9091	0.1	2610.
27585	12.914	5.	0.1	2586.5
27586	12.637	4.9091	0.1	2658.7
27587	12.729	5.	0.1	2635.1
27588	12.452	4.9091	0.1	2707.6
27589	12.544	5.	0.1	2684.
27590	12.267	4.9091	0.1	2756.6
27591	12.359	5.	0.1	2733.
27592	12.082	4.9091	0.1	2805.9
27593	12.175	5.	0.1	2782.1
27594	11.898	4.9091	0.1	2855.3
27595	11.99	5.	0.1	2831.5
27596	11.713	4.9091	0.1	2904.8
27597	11.805	5.	0.1	2881.
27598	11.528	4.9091	0.1	2954.6
27599	11.62	5.	0.1	2930.7
27600	11.343	4.9091	0.1	3004.5
27601	11.436	5.	0.1	2980.6
27602	11.158	4.9091	0.1	3054.5
27603	11.251	5.	0.1	3030.6
27604	10.974	4.9091	0.1	3104.7
27605	11.066	5.	0.1	3080.8
27606	10.789	4.9091	0.1	3155.1
27607	10.881	5.	0.1	3131.2
27608	10.604	4.9091	0.1	3205.6
27609	10.697	5.	0.1	3181.7
27610	10.419	4.9091	0.1	3256.3
27611	10.512	5.	0.1	3232.4
27612	10.235	4.9091	0.1	3307.1
27613	10.327	5.	0.1	3283.2
27614	10.05	4.9091	0.1	3358.
27615	10.142	5.	0.1	3334.2
27616	9.8651	4.9091	0.1	3409.1
27617	9.9575	5.	0.1	3385.4
27618	9.6803	4.9091	0.1	3460.4
27619	9.7727	5.	0.1	3436.6
27620	9.4955	4.9091	0.1	3511.7
27621	9.5879	5.	0.1	3488.1
27622	9.3108	4.9091	0.1	3563.2
27623	9.4032	5.	0.1	3539.6
27624	9.126	4.9091	0.1	3614.8
27625	9.2184	5.	0.1	3591.3
27626	8.9412	4.9091	0.1	3666.5
27627	9.0336	5.	0.1	3643.1
27628	8.7565	4.9091	0.1	3718.4
27629	8.8489	5.	0.1	3695.
27630	8.5717	4.9091	0.1	3770.3
27631	8.6641	5.	0.1	3747.1
27632	8.3869	4.9091	0.1	3822.4
27633	8.4793	5.	0.1	3799.3
27634	8.2022	4.9091	0.1	3874.5
27635	8.2945	5.	0.1	3851.6
27636	8.0174	4.9091	0.1	3926.8
27637	8.1098	5.	0.1	3903.9
27638	7.8326	4.9091	0.1	3979.1
27639	7.925	5.	0.1	3956.4
27640	7.6478	4.9091	0.1	4031.5
27641	7.7402	5.	0.1	4008.8
27642	7.4631	4.9091	0.1	4083.9
27643	7.5555	5.	0.1	4061.4
27644	7.2783	4.9091	0.1	4136.3
27645	7.3707	5.	0.1	4113.9
27646	7.0935	4.9091	0.1	4188.7
27647	7.1859	5.	0.1	4166.3
27648	6.9088	4.9091	0.1	4240.9
27649	7.0011	5.	0.1	4218.6
27650	6.724	4.9091	0.1	4293.
27651	6.8164	5.	0.1	4270.6
27652	6.5392	4.9091	0.1	4344.7
27653	6.6316	5.	0.1	4322.3
27654	6.3545	4.9091	0.1	4395.9
27655	6.4468	5.	0.1	4373.3
27656	6.1697	4.9091	0.1	4446.4
27657	6.2621	5.	0.1	4423.6
27658	5.9849	4.9091	0.1	4495.8
27659	6.0773	5.	0.1	4472.6
27660	5.8001	4.9091	0.1	4543.8
27661	5.8925	5.	0.1	4520.
27662	5.6154	4.9091	0.1	4589.6
27663	5.7078	5.	0.1	4565.1
27664	5.4306	4.9091	0.1	4632.7
27665	5.523	5.	0.1	4607.1
27666	5.2458	4.9091	0.1	4671.9
27667	5.3382	5.	0.1	4645.1
27668	5.0611	4.9091	0.1	4706.1
27669	5.1534	5.	0.1	4677.6
27670	4.8763	4.9091	0.1	4733.6
27671	4.9687	5.	0.1	4702.9
27672	4.6915	4.9091	0.1	4752.6
27673	4.7839	5.	0.1	4718.9
27674	4.5068	4.9091	0.1	4760.6
27675	4.5991	5.	0.1	4722.9
27676	4.322	4.9091	0.1	4755.
27677	4.4144	5.	0.1	4711.8
27678	4.1372	4.9091	0.1	4732.8
27679	4.2296	5.	0.1	4681.9
27680	3.9524	4.9091	0.1	4691.4
27681	4.0448	5.	0.1	4629.4
27682	3.7677	4.9091	0.1	4629.
27683	3.8601	5.	0.1	4550.4
27684	3.5829	4.9091	0.1	4546.
27685	3.6753	5.	0.1	4442.7
27686	3.3981	4.9091	0.1	4448.3
27687	3.4905	5.	0.1	4307.6
27688	3.2134	4.9091	0.1	4351.1
27689	3.3057	5.	0.1	4154.5
27690	3.0286	4.9091	0.1	4290.4
27691	3.121	5.	0.1	4008.2
27692	2.8438	4.9091	0.1	4426.1
27693	2.9362	5.	0.1	3925.7
27694	2.7514	5.	0.1	4167.4
27695	2.6591	4.9091	0.1	3744.3
27696	23.723	5.0909	0.1	142.8
27697	23.815	5.1818	0.1	126.57
27698	23.908	5.0909	0.1	126.14
27699	23.538	5.0909	0.1	165.23
27700	23.63	5.1818	0.1	146.38
27701	23.353	5.0909	0.1	192.18
27702	23.446	5.1818	0.1	171.94
27703	23.169	5.0909	0.1	222.24
27704	23.261	5.1818	0.1	201.31
27705	22.984	5.0909	0.1	254.5
27706	23.076	5.1818	0.1	233.27
27707	22.799	5.0909	0.1	288.36
27708	22.891	5.1818	0.1	267.04
27709	22.614	5.0909	0.1	323.41
27710	22.707	5.1818	0.1	302.1
27711	22.429	5.0909	0.1	359.36
27712	22.522	5.1818	0.1	338.12
27713	22.245	5.0909	0.1	396.01
27714	22.337	5.1818	0.1	374.87
27715	22.06	5.0909	0.1	433.23
27716	22.152	5.1818	0.1	412.2
27717	21.875	5.0909	0.1	470.93
27718	21.968	5.1818	0.1	449.99
27719	21.69	5.0909	0.1	509.03
27720	21.783	5.1818	0.1	488.18
27721	21.506	5.0909	0.1	547.49
27722	21.598	5.1818	0.1	526.71
27723	21.321	5.0909	0.1	586.27
27724	21.413	5.1818	0.1	565.55
27725	21.136	5.0909	0.1	625.34
27726	21.228	5.1818	0.1	604.68
27727	20.951	5.0909	0.1	664.69
27728	21.044	5.1818	0.1	644.06
27729	20.767	5.0909	0.1	704.29
27730	20.859	5.1818	0.1	683.69
27731	20.582	5.0909	0.1	744.14
27732	20.674	5.1818	0.1	723.56
27733	20.397	5.0909	0.1	784.24
27734	20.489	5.1818	0.1	763.65
27735	20.212	5.0909	0.1	824.56
27736	20.305	5.1818	0.1	803.98
27737	20.027	5.0909	0.1	865.12
27738	20.12	5.1818	0.1	844.52
27739	19.843	5.0909	0.1	905.9
27740	19.935	5.1818	0.1	885.28
27741	19.658	5.0909	0.1	946.91
27742	19.75	5.1818	0.1	926.26
27743	19.473	5.0909	0.1	988.14
27744	19.566	5.1818	0.1	967.45
27745	19.288	5.0909	0.1	1029.6
27746	19.381	5.1818	0.1	1008.9
27747	19.104	5.0909	0.1	1071.3
27748	19.196	5.1818	0.1	1050.5
27749	18.919	5.0909	0.1	1113.1
27750	19.011	5.1818	0.1	1092.3
27751	18.734	5.0909	0.1	1155.2
27752	18.826	5.1818	0.1	1134.3
27753	18.549	5.0909	0.1	1197.5
27754	18.642	5.1818	0.1	1176.6
27755	18.365	5.0909	0.1	1240.1
27756	18.457	5.1818	0.1	1219.
27757	18.18	5.0909	0.1	1282.8
27758	18.272	5.1818	0.1	1261.7
27759	17.995	5.0909	0.1	1325.8
27760	18.087	5.1818	0.1	1304.6
27761	17.81	5.0909	0.1	1368.9
27762	17.903	5.1818	0.1	1347.7
27763	17.625	5.0909	0.1	1412.3
27764	17.718	5.1818	0.1	1391.
27765	17.441	5.0909	0.1	1455.9
27766	17.533	5.1818	0.1	1434.5
27767	17.256	5.0909	0.1	1499.7
27768	17.348	5.1818	0.1	1478.2
27769	17.071	5.0909	0.1	1543.7
27770	17.164	5.1818	0.1	1522.1
27771	16.886	5.0909	0.1	1587.9
27772	16.979	5.1818	0.1	1566.2
27773	16.702	5.0909	0.1	1632.3
27774	16.794	5.1818	0.1	1610.6
27775	16.517	5.0909	0.1	1677.
27776	16.609	5.1818	0.1	1655.1
27777	16.332	5.0909	0.1	1721.8
27778	16.424	5.1818	0.1	1699.9
27779	16.147	5.0909	0.1	1766.8
27780	16.24	5.1818	0.1	1744.8
27781	15.963	5.0909	0.1	1812.1
27782	16.055	5.1818	0.1	1790.
27783	15.778	5.0909	0.1	1857.5
27784	15.87	5.1818	0.1	1835.3
27785	15.593	5.0909	0.1	1903.2
27786	15.685	5.1818	0.1	1880.9
27787	15.408	5.0909	0.1	1949.
27788	15.501	5.1818	0.1	1926.7
27789	15.223	5.0909	0.1	1995.1
27790	15.316	5.1818	0.1	1972.6
27791	15.039	5.0909	0.1	2041.3
27792	15.131	5.1818	0.1	2018.8
27793	14.854	5.0909	0.1	2087.8
27794	14.946	5.1818	0.1	2065.2
27795	14.669	5.0909	0.1	2134.5
27796	14.761	5.1818	0.1	2111.7
27797	14.484	5.0909	0.1	2181.3
27798	14.577	5.1818	0.1	2158.5
27799	14.3	5.0909	0.1	2228.3
27800	14.392	5.1818	0.1	2205.4
27801	14.115	5.0909	0.1	2275.6
27802	14.207	5.1818	0.1	2252.6
27803	13.93	5.0909	0.1	2323.
27804	14.022	5.1818	0.1	2300.
27805	13.745	5.0909	0.1	2370.7
27806	13.838	5.1818	0.1	2347.5
27807	13.56	5.0909	0.1	2418.5
27808	13.653	5.1818	0.1	2395.3
27809	13.376	5.0909	0.1	2466.5
27810	13.468	5.1818	0.1	2443.2
27811	13.191	5.0909	0.1	2514.7
27812	13.283	5.1818	0.1	2491.3
27813	13.006	5.0909	0.1	2563.1
27814	13.099	5.1818	0.1	2539.7
27815	12.821	5.0909	0.1	2611.7
27816	12.914	5.1818	0.1	2588.2
27817	12.637	5.0909	0.1	2660.4
27818	12.729	5.1818	0.1	2636.9
27819	12.452	5.0909	0.1	2709.4
27820	12.544	5.1818	0.1	2685.8
27821	12.267	5.0909	0.1	2758.5
27822	12.359	5.1818	0.1	2734.8
27823	12.082	5.0909	0.1	2807.8
27824	12.175	5.1818	0.1	2784.1
27825	11.898	5.0909	0.1	2857.3
27826	11.99	5.1818	0.1	2833.6
27827	11.713	5.0909	0.1	2907.
27828	11.805	5.1818	0.1	2883.2
27829	11.528	5.0909	0.1	2956.8
27830	11.62	5.1818	0.1	2933.
27831	11.343	5.0909	0.1	3006.8
27832	11.436	5.1818	0.1	2983.
27833	11.158	5.0909	0.1	3057.
27834	11.251	5.1818	0.1	3033.1
27835	10.974	5.0909	0.1	3107.4
27836	11.066	5.1818	0.1	3083.5
27837	10.789	5.0909	0.1	3157.9
27838	10.881	5.1818	0.1	3134.
27839	10.604	5.0909	0.1	3208.6
27840	10.697	5.1818	0.1	3184.7
27841	10.419	5.0909	0.1	3259.4
27842	10.512	5.1818	0.1	3235.5
27843	10.235	5.0909	0.1	3310.4
27844	10.327	5.1818	0.1	3286.6
27845	10.05	5.0909	0.1	3361.6
27846	10.142	5.1818	0.1	3337.7
27847	9.8651	5.0909	0.1	3412.9
27848	9.9575	5.1818	0.1	3389.1
27849	9.6803	5.0909	0.1	3464.4
27850	9.7727	5.1818	0.1	3440.6
27851	9.4955	5.0909	0.1	3516.
27852	9.5879	5.1818	0.1	3492.3
27853	9.3108	5.0909	0.1	3567.7
27854	9.4032	5.1818	0.1	3544.1
27855	9.126	5.0909	0.1	3619.6
27856	9.2184	5.1818	0.1	3596.1
27857	8.9412	5.0909	0.1	3671.7
27858	9.0336	5.1818	0.1	3648.2
27859	8.7565	5.0909	0.1	3723.8
27860	8.8489	5.1818	0.1	3700.4
27861	8.5717	5.0909	0.1	3776.1
27862	8.6641	5.1818	0.1	3752.8
27863	8.3869	5.0909	0.1	3828.5
27864	8.4793	5.1818	0.1	3805.3
27865	8.2022	5.0909	0.1	3881.
27866	8.2945	5.1818	0.1	3857.9
27867	8.0174	5.0909	0.1	3933.5
27868	8.1098	5.1818	0.1	3910.6
27869	7.8326	5.0909	0.1	3986.1
27870	7.925	5.1818	0.1	3963.3
27871	7.6478	5.0909	0.1	4038.8
27872	7.7402	5.1818	0.1	4016.1
27873	7.4631	5.0909	0.1	4091.4
27874	7.5555	5.1818	0.1	4068.8
27875	7.2783	5.0909	0.1	4143.9
27876	7.3707	5.1818	0.1	4121.4
27877	7.0935	5.0909	0.1	4196.3
27878	7.1859	5.1818	0.1	4173.9
27879	6.9088	5.0909	0.1	4248.3
27880	7.0011	5.1818	0.1	4226.
27881	6.724	5.0909	0.1	4299.9
27882	6.8164	5.1818	0.1	4277.7
27883	6.5392	5.0909	0.1	4350.9
27884	6.6316	5.1818	0.1	4328.8
27885	6.3545	5.0909	0.1	4401.
27886	6.4468	5.1818	0.1	4378.8
27887	6.1697	5.0909	0.1	4449.8
27888	6.2621	5.1818	0.1	4427.6
27889	5.9849	5.0909	0.1	4496.8
27890	6.0773	5.1818	0.1	4474.6
27891	5.8001	5.0909	0.1	4541.3
27892	5.8925	5.1818	0.1	4519.1
27893	5.6154	5.0909	0.1	4582.6
27894	5.7078	5.1818	0.1	4560.3
27895	5.4306	5.0909	0.1	4619.6
27896	5.523	5.1818	0.1	4597.1
27897	5.2458	5.0909	0.1	4650.7
27898	5.3382	5.1818	0.1	4628.2
27899	5.0611	5.0909	0.1	4674.3
27900	5.1534	5.1818	0.1	4651.6
27901	4.8763	5.0909	0.1	4687.9
27902	4.9687	5.1818	0.1	4665.2
27903	4.6915	5.0909	0.1	4688.8
27904	4.7839	5.1818	0.1	4666.
27905	4.5068	5.0909	0.1	4673.3
27906	4.5991	5.1818	0.1	4650.5
27907	4.322	5.0909	0.1	4637.3
27908	4.4144	5.1818	0.1	4614.2
27909	4.1372	5.0909	0.1	4575.8
27910	4.2296	5.1818	0.1	4552.
27911	3.9524	5.0909	0.1	4483.6
27912	4.0448	5.1818	0.1	4458.1
27913	3.7677	5.0909	0.1	4355.6
27914	3.8601	5.1818	0.1	4326.2
27915	3.5829	5.0909	0.1	4189.1
27916	3.6753	5.1818	0.1	4150.9
27917	3.3981	5.0909	0.1	3987.3
27918	3.4905	5.1818	0.1	3930.6
27919	3.2134	5.0909	0.1	3766.6
27920	3.3057	5.1818	0.1	3672.9
27921	3.0286	5.0909	0.1	3571.8
27922	3.121	5.1818	0.1	3404.8
27923	2.8438	5.0909	0.1	3560.5
27924	2.9362	5.1818	0.1	3194.9
27925	2.7514	5.1818	0.1	3287.5
27926	2.6591	5.0909	0.1	2976.6
27927	23.723	5.2727	0.1	128.93
27928	23.815	5.3636	0.1	111.08
27929	23.908	5.2727	0.1	111.37
27930	23.538	5.2727	0.1	152.48
27931	23.63	5.3636	0.1	132.05
27932	23.353	5.2727	0.1	180.81
27933	23.446	5.3636	0.1	159.27
27934	23.169	5.2727	0.1	212.28
27935	23.261	5.3636	0.1	190.37
27936	22.984	5.2727	0.1	245.84
27937	23.076	5.3636	0.1	223.91
27938	22.799	5.2727	0.1	280.87
27939	22.891	5.3636	0.1	259.05
27940	22.614	5.2727	0.1	316.93
27941	22.707	5.3636	0.1	295.28
27942	22.429	5.2727	0.1	353.76
27943	22.522	5.3636	0.1	332.28
27944	22.245	5.2727	0.1	391.18
27945	22.337	5.3636	0.1	369.87
27946	22.06	5.2727	0.1	429.07
27947	22.152	5.3636	0.1	407.91
27948	21.875	5.2727	0.1	467.35
27949	21.968	5.3636	0.1	446.33
27950	21.69	5.2727	0.1	505.97
27951	21.783	5.3636	0.1	485.06
27952	21.506	5.2727	0.1	544.88
27953	21.598	5.3636	0.1	524.07
27954	21.321	5.2727	0.1	584.06
27955	21.413	5.3636	0.1	563.33
27956	21.136	5.2727	0.1	623.49
27957	21.228	5.3636	0.1	602.82
27958	20.951	5.2727	0.1	663.15
27959	21.044	5.3636	0.1	642.53
27960	20.767	5.2727	0.1	703.04
27961	20.859	5.3636	0.1	682.46
27962	20.582	5.2727	0.1	743.15
27963	20.674	5.3636	0.1	722.59
27964	20.397	5.2727	0.1	783.48
27965	20.489	5.3636	0.1	762.92
27966	20.212	5.2727	0.1	824.01
27967	20.305	5.3636	0.1	803.46
27968	20.027	5.2727	0.1	864.75
27969	20.12	5.3636	0.1	844.19
27970	19.843	5.2727	0.1	905.7
27971	19.935	5.3636	0.1	885.12
27972	19.658	5.2727	0.1	946.86
27973	19.75	5.3636	0.1	926.25
27974	19.473	5.2727	0.1	988.23
27975	19.566	5.3636	0.1	967.58
27976	19.288	5.2727	0.1	1029.8
27977	19.381	5.3636	0.1	1009.1
27978	19.104	5.2727	0.1	1071.6
27979	19.196	5.3636	0.1	1050.8
27980	18.919	5.2727	0.1	1113.6
27981	19.011	5.3636	0.1	1092.8
27982	18.734	5.2727	0.1	1155.7
27983	18.826	5.3636	0.1	1134.9
27984	18.549	5.2727	0.1	1198.1
27985	18.642	5.3636	0.1	1177.2
27986	18.365	5.2727	0.1	1240.7
27987	18.457	5.3636	0.1	1219.8
27988	18.18	5.2727	0.1	1283.5
27989	18.272	5.3636	0.1	1262.5
27990	17.995	5.2727	0.1	1326.6
27991	18.087	5.3636	0.1	1305.4
27992	17.81	5.2727	0.1	1369.8
27993	17.903	5.3636	0.1	1348.6
27994	17.625	5.2727	0.1	1413.2
27995	17.718	5.3636	0.1	1391.9
27996	17.441	5.2727	0.1	1456.8
27997	17.533	5.3636	0.1	1435.5
27998	17.256	5.2727	0.1	1500.7
27999	17.348	5.3636	0.1	1479.2
28000	17.071	5.2727	0.1	1544.7
28001	17.164	5.3636	0.1	1523.2
28002	16.886	5.2727	0.1	1589.
28003	16.979	5.3636	0.1	1567.3
28004	16.702	5.2727	0.1	1633.4
28005	16.794	5.3636	0.1	1611.7
28006	16.517	5.2727	0.1	1678.1
28007	16.609	5.3636	0.1	1656.3
28008	16.332	5.2727	0.1	1722.9
28009	16.424	5.3636	0.1	1701.
28010	16.147	5.2727	0.1	1768.
28011	16.24	5.3636	0.1	1746.
28012	15.963	5.2727	0.1	1813.3
28013	16.055	5.3636	0.1	1791.2
28014	15.778	5.2727	0.1	1858.7
28015	15.87	5.3636	0.1	1836.6
28016	15.593	5.2727	0.1	1904.4
28017	15.685	5.3636	0.1	1882.2
28018	15.408	5.2727	0.1	1950.3
28019	15.501	5.3636	0.1	1928.
28020	15.223	5.2727	0.1	1996.4
28021	15.316	5.3636	0.1	1973.9
28022	15.039	5.2727	0.1	2042.6
28023	15.131	5.3636	0.1	2020.1
28024	14.854	5.2727	0.1	2089.1
28025	14.946	5.3636	0.1	2066.5
28026	14.669	5.2727	0.1	2135.8
28027	14.761	5.3636	0.1	2113.1
28028	14.484	5.2727	0.1	2182.7
28029	14.577	5.3636	0.1	2159.9
28030	14.3	5.2727	0.1	2229.8
28031	14.392	5.3636	0.1	2206.9
28032	14.115	5.2727	0.1	2277.
28033	14.207	5.3636	0.1	2254.1
28034	13.93	5.2727	0.1	2324.5
28035	14.022	5.3636	0.1	2301.5
28036	13.745	5.2727	0.1	2372.2
28037	13.838	5.3636	0.1	2349.1
28038	13.56	5.2727	0.1	2420.
28039	13.653	5.3636	0.1	2396.9
28040	13.376	5.2727	0.1	2468.1
28041	13.468	5.3636	0.1	2444.8
28042	13.191	5.2727	0.1	2516.3
28043	13.283	5.3636	0.1	2493.
28044	13.006	5.2727	0.1	2564.8
28045	13.099	5.3636	0.1	2541.4
28046	12.821	5.2727	0.1	2613.4
28047	12.914	5.3636	0.1	2590.
28048	12.637	5.2727	0.1	2662.3
28049	12.729	5.3636	0.1	2638.7
28050	12.452	5.2727	0.1	2711.3
28051	12.544	5.3636	0.1	2687.7
28052	12.267	5.2727	0.1	2760.5
28053	12.359	5.3636	0.1	2736.9
28054	12.082	5.2727	0.1	2809.9
28055	12.175	5.3636	0.1	2786.2
28056	11.898	5.2727	0.1	2859.5
28057	11.99	5.3636	0.1	2835.7
28058	11.713	5.2727	0.1	2909.2
28059	11.805	5.3636	0.1	2885.5
28060	11.528	5.2727	0.1	2959.2
28061	11.62	5.3636	0.1	2935.4
28062	11.343	5.2727	0.1	3009.3
28063	11.436	5.3636	0.1	2985.5
28064	11.158	5.2727	0.1	3059.7
28065	11.251	5.3636	0.1	3035.8
28066	10.974	5.2727	0.1	3110.2
28067	11.066	5.3636	0.1	3086.3
28068	10.789	5.2727	0.1	3160.8
28069	10.881	5.3636	0.1	3136.9
28070	10.604	5.2727	0.1	3211.7
28071	10.697	5.3636	0.1	3187.8
28072	10.419	5.2727	0.1	3262.7
28073	10.512	5.3636	0.1	3238.8
28074	10.235	5.2727	0.1	3313.9
28075	10.327	5.3636	0.1	3290.1
28076	10.05	5.2727	0.1	3365.3
28077	10.142	5.3636	0.1	3341.5
28078	9.8651	5.2727	0.1	3416.8
28079	9.9575	5.3636	0.1	3393.
28080	9.6803	5.2727	0.1	3468.6
28081	9.7727	5.3636	0.1	3444.8
28082	9.4955	5.2727	0.1	3520.4
28083	9.5879	5.3636	0.1	3496.7
28084	9.3108	5.2727	0.1	3572.5
28085	9.4032	5.3636	0.1	3548.8
28086	9.126	5.2727	0.1	3624.7
28087	9.2184	5.3636	0.1	3601.
28088	8.9412	5.2727	0.1	3677.
28089	9.0336	5.3636	0.1	3653.4
28090	8.7565	5.2727	0.1	3729.5
28091	8.8489	5.3636	0.1	3706.
28092	8.5717	5.2727	0.1	3782.1
28093	8.6641	5.3636	0.1	3758.7
28094	8.3869	5.2727	0.1	3834.8
28095	8.4793	5.3636	0.1	3811.5
28096	8.2022	5.2727	0.1	3887.5
28097	8.2945	5.3636	0.1	3864.4
28098	8.0174	5.2727	0.1	3940.4
28099	8.1098	5.3636	0.1	3917.4
28100	7.8326	5.2727	0.1	3993.3
28101	7.925	5.3636	0.1	3970.4
28102	7.6478	5.2727	0.1	4046.1
28103	7.7402	5.3636	0.1	4023.3
28104	7.4631	5.2727	0.1	4098.9
28105	7.5555	5.3636	0.1	4076.2
28106	7.2783	5.2727	0.1	4151.4
28107	7.3707	5.3636	0.1	4128.9
28108	7.0935	5.2727	0.1	4203.7
28109	7.1859	5.3636	0.1	4181.3
28110	6.9088	5.2727	0.1	4255.5
28111	7.0011	5.3636	0.1	4233.3
28112	6.724	5.2727	0.1	4306.6
28113	6.8164	5.3636	0.1	4284.6
28114	6.5392	5.2727	0.1	4356.7
28115	6.6316	5.3636	0.1	4334.9
28116	6.3545	5.2727	0.1	4405.5
28117	6.4468	5.3636	0.1	4383.9
28118	6.1697	5.2727	0.1	4452.4
28119	6.2621	5.3636	0.1	4431.1
28120	5.9849	5.2727	0.1	4496.9
28121	6.0773	5.3636	0.1	4475.9
28122	5.8001	5.2727	0.1	4538.1
28123	5.8925	5.3636	0.1	4517.4
28124	5.6154	5.2727	0.1	4574.8
28125	5.7078	5.3636	0.1	4554.7
28126	5.4306	5.2727	0.1	4605.7
28127	5.523	5.3636	0.1	4586.4
28128	5.2458	5.2727	0.1	4629.1
28129	5.3382	5.3636	0.1	4610.8
28130	5.0611	5.2727	0.1	4642.5
28131	5.1534	5.3636	0.1	4625.7
28132	4.8763	5.2727	0.1	4643.1
28133	4.9687	5.3636	0.1	4628.3
28134	4.6915	5.2727	0.1	4627.3
28135	4.7839	5.3636	0.1	4615.2
28136	4.5068	5.2727	0.1	4590.6
28137	4.5991	5.3636	0.1	4582.1
28138	4.322	5.2727	0.1	4527.6
28139	4.4144	5.3636	0.1	4523.8
28140	4.1372	5.2727	0.1	4432.
28141	4.2296	5.3636	0.1	4433.9
28142	3.9524	5.2727	0.1	4296.6
28143	4.0448	5.3636	0.1	4305.4
28144	3.7677	5.2727	0.1	4114.4
28145	3.8601	5.3636	0.1	4130.3
28146	3.5829	5.2727	0.1	3880.2
28147	3.6753	5.3636	0.1	3901.5
28148	3.3981	5.2727	0.1	3595.
28149	3.4905	5.3636	0.1	3614.7
28150	3.2134	5.2727	0.1	3274.3
28151	3.3057	5.3636	0.1	3274.6
28152	3.0286	5.2727	0.1	2966.5
28153	3.121	5.3636	0.1	2905.8
28154	2.8438	5.2727	0.1	2826.3
28155	2.9362	5.3636	0.1	2580.
28156	2.7514	5.3636	0.1	2531.8
28157	2.6591	5.2727	0.1	2324.9
28158	23.723	5.4545	0.1	113.06
28159	23.815	5.5455	0.1	92.964
28160	23.908	5.4545	0.1	94.102
28161	23.538	5.4545	0.1	138.4
28162	23.63	5.5455	0.1	116.07
28163	23.353	5.4545	0.1	168.75
28164	23.446	5.5455	0.1	145.98
28165	23.169	5.4545	0.1	202.1
28166	23.261	5.5455	0.1	179.49
28167	22.984	5.4545	0.1	237.28
28168	23.076	5.5455	0.1	214.97
28169	22.799	5.4545	0.1	273.64
28170	22.891	5.5455	0.1	251.65
28171	22.614	5.4545	0.1	310.81
28172	22.707	5.5455	0.1	289.11
28173	22.429	5.4545	0.1	348.56
28174	22.522	5.5455	0.1	327.12
28175	22.245	5.4545	0.1	386.76
28176	22.337	5.5455	0.1	365.54
28177	22.06	5.4545	0.1	425.32
28178	22.152	5.5455	0.1	404.28
28179	21.875	5.4545	0.1	464.17
28180	21.968	5.5455	0.1	443.29
28181	21.69	5.4545	0.1	503.29
28182	21.783	5.5455	0.1	482.53
28183	21.506	5.4545	0.1	542.63
28184	21.598	5.5455	0.1	521.98
28185	21.321	5.4545	0.1	582.2
28186	21.413	5.5455	0.1	561.63
28187	21.136	5.4545	0.1	621.97
28188	21.228	5.5455	0.1	601.47
28189	20.951	5.4545	0.1	661.94
28190	21.044	5.5455	0.1	641.49
28191	20.767	5.4545	0.1	702.1
28192	20.859	5.5455	0.1	681.68
28193	20.582	5.4545	0.1	742.45
28194	20.674	5.5455	0.1	722.06
28195	20.397	5.4545	0.1	782.99
28196	20.489	5.5455	0.1	762.61
28197	20.212	5.4545	0.1	823.72
28198	20.305	5.5455	0.1	803.33
28199	20.027	5.4545	0.1	864.63
28200	20.12	5.5455	0.1	844.24
28201	19.843	5.4545	0.1	905.74
28202	19.935	5.5455	0.1	885.33
28203	19.658	5.4545	0.1	947.04
28204	19.75	5.5455	0.1	926.6
28205	19.473	5.4545	0.1	988.53
28206	19.566	5.5455	0.1	968.05
28207	19.288	5.4545	0.1	1030.2
28208	19.381	5.5455	0.1	1009.7
28209	19.104	5.4545	0.1	1072.1
28210	19.196	5.5455	0.1	1051.5
28211	18.919	5.4545	0.1	1114.2
28212	19.011	5.5455	0.1	1093.5
28213	18.734	5.4545	0.1	1156.4
28214	18.826	5.5455	0.1	1135.8
28215	18.549	5.4545	0.1	1198.9
28216	18.642	5.5455	0.1	1178.2
28217	18.365	5.4545	0.1	1241.6
28218	18.457	5.5455	0.1	1220.8
28219	18.18	5.4545	0.1	1284.4
28220	18.272	5.5455	0.1	1263.6
28221	17.995	5.4545	0.1	1327.5
28222	18.087	5.5455	0.1	1306.5
28223	17.81	5.4545	0.1	1370.8
28224	17.903	5.5455	0.1	1349.7
28225	17.625	5.4545	0.1	1414.2
28226	17.718	5.5455	0.1	1393.1
28227	17.441	5.4545	0.1	1457.9
28228	17.533	5.5455	0.1	1436.7
28229	17.256	5.4545	0.1	1501.8
28230	17.348	5.5455	0.1	1480.5
28231	17.071	5.4545	0.1	1545.9
28232	17.164	5.5455	0.1	1524.5
28233	16.886	5.4545	0.1	1590.1
28234	16.979	5.5455	0.1	1568.7
28235	16.702	5.4545	0.1	1634.6
28236	16.794	5.5455	0.1	1613.1
28237	16.517	5.4545	0.1	1679.3
28238	16.609	5.5455	0.1	1657.7
28239	16.332	5.4545	0.1	1724.2
28240	16.424	5.5455	0.1	1702.4
28241	16.147	5.4545	0.1	1769.3
28242	16.24	5.5455	0.1	1747.4
28243	15.963	5.4545	0.1	1814.6
28244	16.055	5.5455	0.1	1792.6
28245	15.778	5.4545	0.1	1860.1
28246	15.87	5.5455	0.1	1838.
28247	15.593	5.4545	0.1	1905.8
28248	15.685	5.5455	0.1	1883.6
28249	15.408	5.4545	0.1	1951.7
28250	15.501	5.5455	0.1	1929.5
28251	15.223	5.4545	0.1	1997.8
28252	15.316	5.5455	0.1	1975.5
28253	15.039	5.4545	0.1	2044.1
28254	15.131	5.5455	0.1	2021.7
28255	14.854	5.4545	0.1	2090.6
28256	14.946	5.5455	0.1	2068.1
28257	14.669	5.4545	0.1	2137.3
28258	14.761	5.5455	0.1	2114.7
28259	14.484	5.4545	0.1	2184.2
28260	14.577	5.5455	0.1	2161.5
28261	14.3	5.4545	0.1	2231.3
28262	14.392	5.5455	0.1	2208.5
28263	14.115	5.4545	0.1	2278.6
28264	14.207	5.5455	0.1	2255.8
28265	13.93	5.4545	0.1	2326.1
28266	14.022	5.5455	0.1	2303.2
28267	13.745	5.4545	0.1	2373.8
28268	13.838	5.5455	0.1	2350.8
28269	13.56	5.4545	0.1	2421.7
28270	13.653	5.5455	0.1	2398.6
28271	13.376	5.4545	0.1	2469.8
28272	13.468	5.5455	0.1	2446.7
28273	13.191	5.4545	0.1	2518.1
28274	13.283	5.5455	0.1	2494.9
28275	13.006	5.4545	0.1	2566.6
28276	13.099	5.5455	0.1	2543.3
28277	12.821	5.4545	0.1	2615.3
28278	12.914	5.5455	0.1	2592.
28279	12.637	5.4545	0.1	2664.2
28280	12.729	5.5455	0.1	2640.8
28281	12.452	5.4545	0.1	2713.3
28282	12.544	5.5455	0.1	2689.8
28283	12.267	5.4545	0.1	2762.6
28284	12.359	5.5455	0.1	2739.1
28285	12.082	5.4545	0.1	2812.1
28286	12.175	5.5455	0.1	2788.5
28287	11.898	5.4545	0.1	2861.8
28288	11.99	5.5455	0.1	2838.1
28289	11.713	5.4545	0.1	2911.7
28290	11.805	5.5455	0.1	2888.
28291	11.528	5.4545	0.1	2961.7
28292	11.62	5.5455	0.1	2938.
28293	11.343	5.4545	0.1	3012.
28294	11.436	5.5455	0.1	2988.2
28295	11.158	5.4545	0.1	3062.5
28296	11.251	5.5455	0.1	3038.7
28297	10.974	5.4545	0.1	3113.1
28298	11.066	5.5455	0.1	3089.3
28299	10.789	5.4545	0.1	3163.9
28300	10.881	5.5455	0.1	3140.1
28301	10.604	5.4545	0.1	3215.
28302	10.697	5.5455	0.1	3191.1
28303	10.419	5.4545	0.1	3266.2
28304	10.512	5.5455	0.1	3242.3
28305	10.235	5.4545	0.1	3317.6
28306	10.327	5.5455	0.1	3293.8
28307	10.05	5.4545	0.1	3369.2
28308	10.142	5.5455	0.1	3345.4
28309	9.8651	5.4545	0.1	3421.
28310	9.9575	5.5455	0.1	3397.2
28311	9.6803	5.4545	0.1	3472.9
28312	9.7727	5.5455	0.1	3449.2
28313	9.4955	5.4545	0.1	3525.1
28314	9.5879	5.5455	0.1	3501.3
28315	9.3108	5.4545	0.1	3577.4
28316	9.4032	5.5455	0.1	3553.7
28317	9.126	5.4545	0.1	3629.9
28318	9.2184	5.5455	0.1	3606.2
28319	8.9412	5.4545	0.1	3682.5
28320	9.0336	5.5455	0.1	3658.9
28321	8.7565	5.4545	0.1	3735.3
28322	8.8489	5.5455	0.1	3711.8
28323	8.5717	5.4545	0.1	3788.2
28324	8.6641	5.5455	0.1	3764.7
28325	8.3869	5.4545	0.1	3841.2
28326	8.4793	5.5455	0.1	3817.9
28327	8.2022	5.4545	0.1	3894.2
28328	8.2945	5.5455	0.1	3871.
28329	8.0174	5.4545	0.1	3947.4
28330	8.1098	5.5455	0.1	3924.3
28331	7.8326	5.4545	0.1	4000.5
28332	7.925	5.5455	0.1	3977.5
28333	7.6478	5.4545	0.1	4053.5
28334	7.7402	5.5455	0.1	4030.7
28335	7.4631	5.4545	0.1	4106.3
28336	7.5555	5.5455	0.1	4083.7
28337	7.2783	5.4545	0.1	4158.9
28338	7.3707	5.5455	0.1	4136.4
28339	7.0935	5.4545	0.1	4211.
28340	7.1859	5.5455	0.1	4188.7
28341	6.9088	5.4545	0.1	4262.4
28342	7.0011	5.5455	0.1	4240.4
28343	6.724	5.4545	0.1	4312.9
28344	6.8164	5.5455	0.1	4291.2
28345	6.5392	5.4545	0.1	4362.1
28346	6.6316	5.5455	0.1	4340.7
28347	6.3545	5.4545	0.1	4409.5
28348	6.4468	5.5455	0.1	4388.5
28349	6.1697	5.4545	0.1	4454.5
28350	6.2621	5.5455	0.1	4434.1
28351	5.9849	5.4545	0.1	4496.4
28352	6.0773	5.5455	0.1	4476.7
28353	5.8001	5.4545	0.1	4534.1
28354	5.8925	5.5455	0.1	4515.3
28355	5.6154	5.4545	0.1	4566.4
28356	5.7078	5.5455	0.1	4548.8
28357	5.4306	5.4545	0.1	4591.5
28358	5.523	5.5455	0.1	4575.5
28359	5.2458	5.4545	0.1	4607.5
28360	5.3382	5.5455	0.1	4593.6
28361	5.0611	5.4545	0.1	4611.5
28362	5.1534	5.5455	0.1	4600.5
28363	4.8763	5.4545	0.1	4600.3
28364	4.9687	5.5455	0.1	4593.1
28365	4.6915	5.4545	0.1	4569.7
28366	4.7839	5.5455	0.1	4567.7
28367	4.5068	5.4545	0.1	4514.6
28368	4.5991	5.5455	0.1	4519.3
28369	4.322	5.4545	0.1	4428.9
28370	4.4144	5.5455	0.1	4442.4
28371	4.1372	5.4545	0.1	4305.4
28372	4.2296	5.5455	0.1	4330.1
28373	3.9524	5.4545	0.1	4136.
28374	4.0448	5.5455	0.1	4174.6
28375	3.7677	5.4545	0.1	3912.4
28376	3.8601	5.5455	0.1	3967.4
28377	3.5829	5.4545	0.1	3627.7
28378	3.6753	5.5455	0.1	3700.1
28379	3.3981	5.4545	0.1	3279.9
28380	3.4905	5.5455	0.1	3366.8
28381	3.2134	5.4545	0.1	2879.9
28382	3.3057	5.5455	0.1	2967.7
28383	3.0286	5.4545	0.1	2469.9
28384	3.121	5.5455	0.1	2518.8
28385	2.8438	5.4545	0.1	2195.4
28386	2.9362	5.5455	0.1	2078.9
28387	2.7514	5.5455	0.1	1867.2
28388	2.6591	5.4545	0.1	1748.4
28389	23.723	5.6364	0.1	95.104
28390	23.815	5.7273	0.1	71.929
28391	23.908	5.6364	0.1	73.59
28392	23.538	5.6364	0.1	123.6
28393	23.63	5.7273	0.1	100.3
28394	23.353	5.6364	0.1	156.96
28395	23.446	5.7273	0.1	134.67
28396	23.169	5.6364	0.1	192.68
28397	23.261	5.7273	0.1	171.28
28398	22.984	5.6364	0.1	229.66
28399	23.076	5.7273	0.1	208.96
28400	22.799	5.6364	0.1	267.42
28401	22.891	5.7273	0.1	247.24
28402	22.614	5.6364	0.1	305.69
28403	22.707	5.7273	0.1	285.93
28404	22.429	5.6364	0.1	344.33
28405	22.522	5.7273	0.1	324.9
28406	22.245	5.6364	0.1	383.26
28407	22.337	5.7273	0.1	364.1
28408	22.06	5.6364	0.1	422.44
28409	22.152	5.7273	0.1	403.48
28410	21.875	5.6364	0.1	461.82
28411	21.968	5.7273	0.1	443.03
28412	21.69	5.6364	0.1	501.38
28413	21.783	5.7273	0.1	482.73
28414	21.506	5.6364	0.1	541.12
28415	21.598	5.7273	0.1	522.58
28416	21.321	5.6364	0.1	581.03
28417	21.413	5.7273	0.1	562.57
28418	21.136	5.6364	0.1	621.11
28419	21.228	5.7273	0.1	602.7
28420	20.951	5.6364	0.1	661.35
28421	21.044	5.7273	0.1	642.98
28422	20.767	5.6364	0.1	701.75
28423	20.859	5.7273	0.1	683.4
28424	20.582	5.6364	0.1	742.32
28425	20.674	5.7273	0.1	723.97
28426	20.397	5.6364	0.1	783.05
28427	20.489	5.7273	0.1	764.69
28428	20.212	5.6364	0.1	823.95
28429	20.305	5.7273	0.1	805.57
28430	20.027	5.6364	0.1	865.03
28431	20.12	5.7273	0.1	846.61
28432	19.843	5.6364	0.1	906.27
28433	19.935	5.7273	0.1	887.82
28434	19.658	5.6364	0.1	947.7
28435	19.75	5.7273	0.1	929.19
28436	19.473	5.6364	0.1	989.3
28437	19.566	5.7273	0.1	970.73
28438	19.288	5.6364	0.1	1031.1
28439	19.381	5.7273	0.1	1012.4
28440	19.104	5.6364	0.1	1073.1
28441	19.196	5.7273	0.1	1054.3
28442	18.919	5.6364	0.1	1115.2
28443	19.011	5.7273	0.1	1096.4
28444	18.734	5.6364	0.1	1157.5
28445	18.826	5.7273	0.1	1138.7
28446	18.549	5.6364	0.1	1200.1
28447	18.642	5.7273	0.1	1181.1
28448	18.365	5.6364	0.1	1242.8
28449	18.457	5.7273	0.1	1223.7
28450	18.18	5.6364	0.1	1285.7
28451	18.272	5.7273	0.1	1266.6
28452	17.995	5.6364	0.1	1328.8
28453	18.087	5.7273	0.1	1309.6
28454	17.81	5.6364	0.1	1372.1
28455	17.903	5.7273	0.1	1352.8
28456	17.625	5.6364	0.1	1415.6
28457	17.718	5.7273	0.1	1396.2
28458	17.441	5.6364	0.1	1459.3
28459	17.533	5.7273	0.1	1439.8
28460	17.256	5.6364	0.1	1503.2
28461	17.348	5.7273	0.1	1483.6
28462	17.071	5.6364	0.1	1547.4
28463	17.164	5.7273	0.1	1527.6
28464	16.886	5.6364	0.1	1591.7
28465	16.979	5.7273	0.1	1571.7
28466	16.702	5.6364	0.1	1636.2
28467	16.794	5.7273	0.1	1616.1
28468	16.517	5.6364	0.1	1680.9
28469	16.609	5.7273	0.1	1660.7
28470	16.332	5.6364	0.1	1725.8
28471	16.424	5.7273	0.1	1705.5
28472	16.147	5.6364	0.1	1770.9
28473	16.24	5.7273	0.1	1750.5
28474	15.963	5.6364	0.1	1816.2
28475	16.055	5.7273	0.1	1795.7
28476	15.778	5.6364	0.1	1861.7
28477	15.87	5.7273	0.1	1841.1
28478	15.593	5.6364	0.1	1907.4
28479	15.685	5.7273	0.1	1886.7
28480	15.408	5.6364	0.1	1953.3
28481	15.501	5.7273	0.1	1932.5
28482	15.223	5.6364	0.1	1999.4
28483	15.316	5.7273	0.1	1978.5
28484	15.039	5.6364	0.1	2045.8
28485	15.131	5.7273	0.1	2024.7
28486	14.854	5.6364	0.1	2092.3
28487	14.946	5.7273	0.1	2071.1
28488	14.669	5.6364	0.1	2139.
28489	14.761	5.7273	0.1	2117.8
28490	14.484	5.6364	0.1	2185.9
28491	14.577	5.7273	0.1	2164.6
28492	14.3	5.6364	0.1	2233.1
28493	14.392	5.7273	0.1	2211.6
28494	14.115	5.6364	0.1	2280.4
28495	14.207	5.7273	0.1	2258.8
28496	13.93	5.6364	0.1	2328.
28497	14.022	5.7273	0.1	2306.3
28498	13.745	5.6364	0.1	2375.7
28499	13.838	5.7273	0.1	2353.9
28500	13.56	5.6364	0.1	2423.7
28501	13.653	5.7273	0.1	2401.8
28502	13.376	5.6364	0.1	2471.8
28503	13.468	5.7273	0.1	2449.8
28504	13.191	5.6364	0.1	2520.2
28505	13.283	5.7273	0.1	2498.1
28506	13.006	5.6364	0.1	2568.7
28507	13.099	5.7273	0.1	2546.6
28508	12.821	5.6364	0.1	2617.5
28509	12.914	5.7273	0.1	2595.2
28510	12.637	5.6364	0.1	2666.4
28511	12.729	5.7273	0.1	2644.1
28512	12.452	5.6364	0.1	2715.6
28513	12.544	5.7273	0.1	2693.2
28514	12.267	5.6364	0.1	2765.
28515	12.359	5.7273	0.1	2742.5
28516	12.082	5.6364	0.1	2814.6
28517	12.175	5.7273	0.1	2792.
28518	11.898	5.6364	0.1	2864.3
28519	11.99	5.7273	0.1	2841.7
28520	11.713	5.6364	0.1	2914.3
28521	11.805	5.7273	0.1	2891.6
28522	11.528	5.6364	0.1	2964.5
28523	11.62	5.7273	0.1	2941.7
28524	11.343	5.6364	0.1	3014.9
28525	11.436	5.7273	0.1	2992.1
28526	11.158	5.6364	0.1	3065.5
28527	11.251	5.7273	0.1	3042.6
28528	10.974	5.6364	0.1	3116.3
28529	11.066	5.7273	0.1	3093.4
28530	10.789	5.6364	0.1	3167.3
28531	10.881	5.7273	0.1	3144.3
28532	10.604	5.6364	0.1	3218.5
28533	10.697	5.7273	0.1	3195.5
28534	10.419	5.6364	0.1	3269.9
28535	10.512	5.7273	0.1	3246.9
28536	10.235	5.6364	0.1	3321.5
28537	10.327	5.7273	0.1	3298.5
28538	10.05	5.6364	0.1	3373.4
28539	10.142	5.7273	0.1	3350.3
28540	9.8651	5.6364	0.1	3425.4
28541	9.9575	5.7273	0.1	3402.3
28542	9.6803	5.6364	0.1	3477.6
28543	9.7727	5.7273	0.1	3454.5
28544	9.4955	5.6364	0.1	3530.
28545	9.5879	5.7273	0.1	3506.9
28546	9.3108	5.6364	0.1	3582.5
28547	9.4032	5.7273	0.1	3559.5
28548	9.126	5.6364	0.1	3635.3
28549	9.2184	5.7273	0.1	3612.2
28550	8.9412	5.6364	0.1	3688.2
28551	9.0336	5.7273	0.1	3665.2
28552	8.7565	5.6364	0.1	3741.3
28553	8.8489	5.7273	0.1	3718.3
28554	8.5717	5.6364	0.1	3794.5
28555	8.6641	5.7273	0.1	3771.6
28556	8.3869	5.6364	0.1	3847.8
28557	8.4793	5.7273	0.1	3824.9
28558	8.2022	5.6364	0.1	3901.1
28559	8.2945	5.7273	0.1	3878.4
28560	8.0174	5.6364	0.1	3954.5
28561	8.1098	5.7273	0.1	3931.8
28562	7.8326	5.6364	0.1	4007.8
28563	7.925	5.7273	0.1	3985.3
28564	7.6478	5.6364	0.1	4060.9
28565	7.7402	5.7273	0.1	4038.6
28566	7.4631	5.6364	0.1	4113.8
28567	7.5555	5.7273	0.1	4091.6
28568	7.2783	5.6364	0.1	4166.3
28569	7.3707	5.7273	0.1	4144.3
28570	7.0935	5.6364	0.1	4218.2
28571	7.1859	5.7273	0.1	4196.5
28572	6.9088	5.6364	0.1	4269.2
28573	7.0011	5.7273	0.1	4247.8
28574	6.724	5.6364	0.1	4319.
28575	6.8164	5.7273	0.1	4298.
28576	6.5392	5.6364	0.1	4367.2
28577	6.6316	5.7273	0.1	4346.7
28578	6.3545	5.6364	0.1	4413.2
28579	6.4468	5.7273	0.1	4393.3
28580	6.1697	5.6364	0.1	4456.3
28581	6.2621	5.7273	0.1	4437.3
28582	5.9849	5.6364	0.1	4495.6
28583	6.0773	5.7273	0.1	4477.6
28584	5.8001	5.6364	0.1	4530.
28585	5.8925	5.7273	0.1	4513.4
28586	5.6154	5.6364	0.1	4557.9
28587	5.7078	5.7273	0.1	4543.1
28588	5.4306	5.6364	0.1	4577.6
28589	5.523	5.7273	0.1	4565.2
28590	5.2458	5.6364	0.1	4586.6
28591	5.3382	5.7273	0.1	4577.4
28592	5.0611	5.6364	0.1	4582.1
28593	5.1534	5.7273	0.1	4577.
28594	4.8763	5.6364	0.1	4560.4
28595	4.9687	5.7273	0.1	4560.8
28596	4.6915	5.6364	0.1	4517.
28597	4.7839	5.7273	0.1	4524.7
28598	4.5068	5.6364	0.1	4446.6
28599	4.5991	5.7273	0.1	4463.7
28600	4.322	5.6364	0.1	4342.8
28601	4.4144	5.7273	0.1	4372.
28602	4.1372	5.6364	0.1	4198.
28603	4.2296	5.7273	0.1	4242.8
28604	3.9524	5.6364	0.1	4004.
28605	4.0448	5.7273	0.1	4068.3
28606	3.7677	5.6364	0.1	3752.2
28607	3.8601	5.7273	0.1	3840.3
28608	3.5829	5.6364	0.1	3434.7
28609	3.6753	5.7273	0.1	3550.6
28610	3.3981	5.6364	0.1	3047.1
28611	3.4905	5.7273	0.1	3192.4
28612	3.2134	5.6364	0.1	2592.4
28613	3.3057	5.7273	0.1	2762.3
28614	3.0286	5.6364	0.1	2095.5
28615	3.121	5.7273	0.1	2265.3
28616	2.8438	5.6364	0.1	1667.2
28617	2.9362	5.7273	0.1	1729.8
28618	2.7514	5.7273	0.1	1304.2
28619	2.6591	5.6364	0.1	1220.8
28620	23.723	5.8182	0.1	77.587
28621	23.815	5.9091	0.1	49.
28622	23.908	5.8182	0.1	48.637
28623	23.538	5.8182	0.1	112.48
28624	23.63	5.9091	0.1	82.741
28625	23.353	5.8182	0.1	150.04
28626	23.446	5.9091	0.1	119.1
28627	23.169	5.8182	0.1	188.47
28628	23.261	5.9091	0.1	156.61
28629	22.984	5.8182	0.1	227.32
28630	23.076	5.9091	0.1	194.76
28631	22.799	5.8182	0.1	266.45
28632	22.891	5.9091	0.1	233.34
28633	22.614	5.8182	0.1	305.77
28634	22.707	5.9091	0.1	272.26
28635	22.429	5.8182	0.1	345.24
28636	22.522	5.9091	0.1	311.44
28637	22.245	5.8182	0.1	384.84
28638	22.337	5.9091	0.1	350.83
28639	22.06	5.8182	0.1	424.56
28640	22.152	5.9091	0.1	390.41
28641	21.875	5.8182	0.1	464.4
28642	21.968	5.9091	0.1	430.17
28643	21.69	5.8182	0.1	504.36
28644	21.783	5.9091	0.1	470.08
28645	21.506	5.8182	0.1	544.43
28646	21.598	5.9091	0.1	510.15
28647	21.321	5.8182	0.1	584.62
28648	21.413	5.9091	0.1	550.36
28649	21.136	5.8182	0.1	624.94
28650	21.228	5.9091	0.1	590.72
28651	20.951	5.8182	0.1	665.38
28652	21.044	5.9091	0.1	631.23
28653	20.767	5.8182	0.1	705.96
28654	20.859	5.9091	0.1	671.88
28655	20.582	5.8182	0.1	746.68
28656	20.674	5.9091	0.1	712.69
28657	20.397	5.8182	0.1	787.54
28658	20.489	5.9091	0.1	753.64
28659	20.212	5.8182	0.1	828.54
28660	20.305	5.9091	0.1	794.75
28661	20.027	5.8182	0.1	869.71
28662	20.12	5.9091	0.1	836.01
28663	19.843	5.8182	0.1	911.03
28664	19.935	5.9091	0.1	877.44
28665	19.658	5.8182	0.1	952.51
28666	19.75	5.9091	0.1	919.03
28667	19.473	5.8182	0.1	994.16
28668	19.566	5.9091	0.1	960.78
28669	19.288	5.8182	0.1	1036.
28670	19.381	5.9091	0.1	1002.7
28671	19.104	5.8182	0.1	1078.
28672	19.196	5.9091	0.1	1044.8
28673	18.919	5.8182	0.1	1120.1
28674	19.011	5.9091	0.1	1087.1
28675	18.734	5.8182	0.1	1162.5
28676	18.826	5.9091	0.1	1129.5
28677	18.549	5.8182	0.1	1205.
28678	18.642	5.9091	0.1	1172.2
28679	18.365	5.8182	0.1	1247.8
28680	18.457	5.9091	0.1	1215.
28681	18.18	5.8182	0.1	1290.7
28682	18.272	5.9091	0.1	1258.
28683	17.995	5.8182	0.1	1333.8
28684	18.087	5.9091	0.1	1301.2
28685	17.81	5.8182	0.1	1377.1
28686	17.903	5.9091	0.1	1344.5
28687	17.625	5.8182	0.1	1420.5
28688	17.718	5.9091	0.1	1388.1
28689	17.441	5.8182	0.1	1464.2
28690	17.533	5.9091	0.1	1431.8
28691	17.256	5.8182	0.1	1508.1
28692	17.348	5.9091	0.1	1475.8
28693	17.071	5.8182	0.1	1552.2
28694	17.164	5.9091	0.1	1519.9
28695	16.886	5.8182	0.1	1596.5
28696	16.979	5.9091	0.1	1564.3
28697	16.702	5.8182	0.1	1640.9
28698	16.794	5.9091	0.1	1608.8
28699	16.517	5.8182	0.1	1685.6
28700	16.609	5.9091	0.1	1653.5
28701	16.332	5.8182	0.1	1730.5
28702	16.424	5.9091	0.1	1698.5
28703	16.147	5.8182	0.1	1775.6
28704	16.24	5.9091	0.1	1743.6
28705	15.963	5.8182	0.1	1820.8
28706	16.055	5.9091	0.1	1788.9
28707	15.778	5.8182	0.1	1866.3
28708	15.87	5.9091	0.1	1834.4
28709	15.593	5.8182	0.1	1912.
28710	15.685	5.9091	0.1	1880.2
28711	15.408	5.8182	0.1	1957.9
28712	15.501	5.9091	0.1	1926.1
28713	15.223	5.8182	0.1	2004.
28714	15.316	5.9091	0.1	1972.2
28715	15.039	5.8182	0.1	2050.3
28716	15.131	5.9091	0.1	2018.6
28717	14.854	5.8182	0.1	2096.8
28718	14.946	5.9091	0.1	2065.1
28719	14.669	5.8182	0.1	2143.5
28720	14.761	5.9091	0.1	2111.9
28721	14.484	5.8182	0.1	2190.4
28722	14.577	5.9091	0.1	2158.8
28723	14.3	5.8182	0.1	2237.6
28724	14.392	5.9091	0.1	2206.
28725	14.115	5.8182	0.1	2284.9
28726	14.207	5.9091	0.1	2253.4
28727	13.93	5.8182	0.1	2332.4
28728	14.022	5.9091	0.1	2300.9
28729	13.745	5.8182	0.1	2380.2
28730	13.838	5.9091	0.1	2348.7
28731	13.56	5.8182	0.1	2428.1
28732	13.653	5.9091	0.1	2396.7
28733	13.376	5.8182	0.1	2476.3
28734	13.468	5.9091	0.1	2444.9
28735	13.191	5.8182	0.1	2524.6
28736	13.283	5.9091	0.1	2493.3
28737	13.006	5.8182	0.1	2573.2
28738	13.099	5.9091	0.1	2541.9
28739	12.821	5.8182	0.1	2622.
28740	12.914	5.9091	0.1	2590.8
28741	12.637	5.8182	0.1	2671.
28742	12.729	5.9091	0.1	2639.8
28743	12.452	5.8182	0.1	2720.2
28744	12.544	5.9091	0.1	2689.1
28745	12.267	5.8182	0.1	2769.6
28746	12.359	5.9091	0.1	2738.6
28747	12.082	5.8182	0.1	2819.3
28748	12.175	5.9091	0.1	2788.2
28749	11.898	5.8182	0.1	2869.1
28750	11.99	5.9091	0.1	2838.2
28751	11.713	5.8182	0.1	2919.2
28752	11.805	5.9091	0.1	2888.3
28753	11.528	5.8182	0.1	2969.4
28754	11.62	5.9091	0.1	2938.6
28755	11.343	5.8182	0.1	3019.9
28756	11.436	5.9091	0.1	2989.2
28757	11.158	5.8182	0.1	3070.6
28758	11.251	5.9091	0.1	3040.
28759	10.974	5.8182	0.1	3121.5
28760	11.066	5.9091	0.1	3091.
28761	10.789	5.8182	0.1	3172.6
28762	10.881	5.9091	0.1	3142.2
28763	10.604	5.8182	0.1	3224.
28764	10.697	5.9091	0.1	3193.7
28765	10.419	5.8182	0.1	3275.5
28766	10.512	5.9091	0.1	3245.4
28767	10.235	5.8182	0.1	3327.3
28768	10.327	5.9091	0.1	3297.3
28769	10.05	5.8182	0.1	3379.3
28770	10.142	5.9091	0.1	3349.4
28771	9.8651	5.8182	0.1	3431.5
28772	9.9575	5.9091	0.1	3401.7
28773	9.6803	5.8182	0.1	3483.9
28774	9.7727	5.9091	0.1	3454.3
28775	9.4955	5.8182	0.1	3536.5
28776	9.5879	5.9091	0.1	3507.1
28777	9.3108	5.8182	0.1	3589.3
28778	9.4032	5.9091	0.1	3560.1
28779	9.126	5.8182	0.1	3642.2
28780	9.2184	5.9091	0.1	3613.3
28781	8.9412	5.8182	0.1	3695.4
28782	9.0336	5.9091	0.1	3666.7
28783	8.7565	5.8182	0.1	3748.7
28784	8.8489	5.9091	0.1	3720.2
28785	8.5717	5.8182	0.1	3802.1
28786	8.6641	5.9091	0.1	3773.9
28787	8.3869	5.8182	0.1	3855.6
28788	8.4793	5.9091	0.1	3827.7
28789	8.2022	5.8182	0.1	3909.2
28790	8.2945	5.9091	0.1	3881.6
28791	8.0174	5.8182	0.1	3962.7
28792	8.1098	5.9091	0.1	3935.4
28793	7.8326	5.8182	0.1	4016.2
28794	7.925	5.9091	0.1	3989.2
28795	7.6478	5.8182	0.1	4069.4
28796	7.7402	5.9091	0.1	4042.8
28797	7.4631	5.8182	0.1	4122.2
28798	7.5555	5.9091	0.1	4096.1
28799	7.2783	5.8182	0.1	4174.6
28800	7.3707	5.9091	0.1	4149.
28801	7.0935	5.8182	0.1	4226.2
28802	7.1859	5.9091	0.1	4201.1
28803	6.9088	5.8182	0.1	4276.7
28804	7.0011	5.9091	0.1	4252.3
28805	6.724	5.8182	0.1	4325.8
28806	6.8164	5.9091	0.1	4302.2
28807	6.5392	5.8182	0.1	4372.9
28808	6.6316	5.9091	0.1	4350.2
28809	6.3545	5.8182	0.1	4417.5
28810	6.4468	5.9091	0.1	4395.9
28811	6.1697	5.8182	0.1	4458.7
28812	6.2621	5.9091	0.1	4438.5
28813	5.9849	5.8182	0.1	4495.5
28814	6.0773	5.9091	0.1	4477.
28815	5.8001	5.8182	0.1	4526.6
28816	5.8925	5.9091	0.1	4510.2
28817	5.6154	5.8182	0.1	4550.4
28818	5.7078	5.9091	0.1	4536.7
28819	5.4306	5.8182	0.1	4565.
28820	5.523	5.9091	0.1	4554.7
28821	5.2458	5.8182	0.1	4567.8
28822	5.3382	5.9091	0.1	4561.7
28823	5.0611	5.8182	0.1	4555.7
28824	5.1534	5.9091	0.1	4555.
28825	4.8763	5.8182	0.1	4525.
28826	4.9687	5.9091	0.1	4531.
28827	4.6915	5.8182	0.1	4471.1
28828	4.7839	5.9091	0.1	4485.5
28829	4.5068	5.8182	0.1	4388.7
28830	4.5991	5.9091	0.1	4413.4
28831	4.322	5.8182	0.1	4271.5
28832	4.4144	5.9091	0.1	4308.6
28833	4.1372	5.8182	0.1	4112.3
28834	4.2296	5.9091	0.1	4164.5
28835	3.9524	5.8182	0.1	3903.4
28836	4.0448	5.9091	0.1	3973.3
28837	3.7677	5.8182	0.1	3637.
28838	3.8601	5.9091	0.1	3727.
28839	3.5829	5.8182	0.1	3305.7
28840	3.6753	5.9091	0.1	3418.
28841	3.3981	5.8182	0.1	2904.
28842	3.4905	5.9091	0.1	3039.7
28843	3.2134	5.8182	0.1	2429.6
28844	3.3057	5.9091	0.1	2587.9
28845	3.0286	5.8182	0.1	1887.1
28846	3.121	5.9091	0.1	2062.
28847	2.8438	5.8182	0.1	1311.5
28848	2.9362	5.9091	0.1	1468.4
28849	2.6591	5.8182	0.1	742.13
28850	2.7514	5.9091	0.1	837.31
28851	0.18462	0.27273	0.1	3967.1
28852	0.27692	0.18182	0.1	4172.
28853	9.2308e-002	0.18182	0.1	2527.5
28854	0.18462	9.0909e-002	0.1	3552.3
28855	0.18462	0.45455	0.1	4584.7
28856	0.27692	0.36364	0.1	4298.8
28857	9.2308e-002	0.36364	0.1	3203.1
28858	0.18462	0.63636	0.1	5199.8
28859	0.27692	0.54545	0.1	4679.9
28860	9.2308e-002	0.54545	0.1	3782.8
28861	0.18462	0.81818	0.1	5693.4
28862	0.27692	0.72727	0.1	5077.1
28863	9.2308e-002	0.72727	0.1	4218.4
28864	0.18462	1.	0.1	6088.1
28865	0.27692	0.90909	0.1	5435.7
28866	9.2308e-002	0.90909	0.1	4550.8
28867	0.18462	1.1818	0.1	6410.
28868	0.27692	1.0909	0.1	5748.5
28869	9.2308e-002	1.0909	0.1	4813.9
28870	0.18462	1.3636	0.1	6677.4
28871	0.27692	1.2727	0.1	6020.2
28872	9.2308e-002	1.2727	0.1	5027.6
28873	0.18462	1.5455	0.1	6902.3
28874	0.27692	1.4545	0.1	6256.6
28875	9.2308e-002	1.4545	0.1	5204.5
28876	0.18462	1.7273	0.1	7092.6
28877	0.27692	1.6364	0.1	6462.6
28878	9.2308e-002	1.6364	0.1	5352.3
28879	0.18462	1.9091	0.1	7253.6
28880	0.27692	1.8182	0.1	6641.4
28881	9.2308e-002	1.8182	0.1	5476.3
28882	0.18462	2.0909	0.1	7388.5
28883	0.27692	2.	0.1	6795.
28884	9.2308e-002	2.	0.1	5580.2
28885	0.18462	2.2727	0.1	7499.1
28886	0.27692	2.1818	0.1	6924.7
28887	9.2308e-002	2.1818	0.1	5666.1
28888	0.18462	2.4545	0.1	7586.1
28889	0.27692	2.3636	0.1	7030.2
28890	9.2308e-002	2.3636	0.1	5735.4
28891	0.18462	2.6364	0.1	7649.1
28892	0.27692	2.5455	0.1	7111.1
28893	9.2308e-002	2.5455	0.1	5788.1
28894	0.18462	2.8182	0.1	7687.4
28895	0.27692	2.7273	0.1	7166.
28896	9.2308e-002	2.7273	0.1	5823.8
28897	0.18462	3.	0.1	7700.2
28898	0.27692	2.9091	0.1	7193.8
28899	9.2308e-002	2.9091	0.1	5841.9
28900	0.18462	3.1818	0.1	7687.4
28901	0.27692	3.0909	0.1	7193.8
28902	9.2308e-002	3.0909	0.1	5841.9
28903	0.18462	3.3636	0.1	7649.1
28904	0.27692	3.2727	0.1	7166.
28905	9.2308e-002	3.2727	0.1	5823.8
28906	0.18462	3.5455	0.1	7586.1
28907	0.27692	3.4545	0.1	7111.1
28908	9.2308e-002	3.4545	0.1	5788.1
28909	0.18462	3.7273	0.1	7499.1
28910	0.27692	3.6364	0.1	7030.2
28911	9.2308e-002	3.6364	0.1	5735.4
28912	0.18462	3.9091	0.1	7388.5
28913	0.27692	3.8182	0.1	6924.7
28914	9.2308e-002	3.8182	0.1	5666.1
28915	0.18462	4.0909	0.1	7253.6
28916	0.27692	4.	0.1	6795.
28917	9.2308e-002	4.	0.1	5580.2
28918	0.18462	4.2727	0.1	7092.6
28919	0.27692	4.1818	0.1	6641.4
28920	9.2308e-002	4.1818	0.1	5476.3
28921	0.18462	4.4545	0.1	6902.3
28922	0.27692	4.3636	0.1	6462.6
28923	9.2308e-002	4.3636	0.1	5352.3
28924	0.18462	4.6364	0.1	6677.4
28925	0.27692	4.5455	0.1	6256.6
28926	9.2308e-002	4.5455	0.1	5204.5
28927	0.18462	4.8182	0.1	6410.
28928	0.27692	4.7273	0.1	6020.2
28929	9.2308e-002	4.7273	0.1	5027.6
28930	0.18462	5.	0.1	6088.1
28931	0.27692	4.9091	0.1	5748.5
28932	9.2308e-002	4.9091	0.1	4813.9
28933	0.18462	5.1818	0.1	5693.4
28934	0.27692	5.0909	0.1	5435.7
28935	9.2308e-002	5.0909	0.1	4550.8
28936	0.18462	5.3636	0.1	5199.8
28937	0.27692	5.2727	0.1	5077.1
28938	9.2308e-002	5.2727	0.1	4218.4
28939	0.18462	5.5455	0.1	4584.7
28940	0.27692	5.4545	0.1	4679.9
28941	9.2308e-002	5.4545	0.1	3782.8
28942	0.18462	5.7273	0.1	3967.1
28943	0.27692	5.6364	0.1	4298.8
28944	9.2308e-002	5.6364	0.1	3203.1
28945	0.27692	5.8182	0.1	4172.
28946	9.2308e-002	5.8182	0.1	2527.5
28947	0.18462	5.9091	0.1	3552.3
28948	0.36923	0.27273	0.1	4476.7
28949	0.46154	0.18182	0.1	4771.2
28950	0.36923	9.0909e-002	0.1	4451.7
28951	0.36923	0.45455	0.1	4425.8
28952	0.46154	0.36364	0.1	4593.
28953	0.36923	0.63636	0.1	4593.7
28954	0.46154	0.54545	0.1	4641.5
28955	0.36923	0.81818	0.1	4848.4
28956	0.46154	0.72727	0.1	4814.8
28957	0.36923	1.	0.1	5118.1
28958	0.46154	0.90909	0.1	5043.1
28959	0.36923	1.1818	0.1	5375.9
28960	0.46154	1.0909	0.1	5287.4
28961	0.36923	1.3636	0.1	5613.6
28962	0.46154	1.2727	0.1	5528.4
28963	0.36923	1.5455	0.1	5829.1
28964	0.46154	1.4545	0.1	5757.5
28965	0.36923	1.7273	0.1	6022.
28966	0.46154	1.6364	0.1	5970.2
28967	0.36923	1.9091	0.1	6192.5
28968	0.46154	1.8182	0.1	6163.9
28969	0.36923	2.0909	0.1	6340.1
28970	0.46154	2.	0.1	6336.7
28971	0.36923	2.2727	0.1	6464.1
28972	0.46154	2.1818	0.1	6486.5
28973	0.36923	2.4545	0.1	6563.2
28974	0.46154	2.3636	0.1	6611.
28975	0.36923	2.6364	0.1	6635.7
28976	0.46154	2.5455	0.1	6707.7
28977	0.36923	2.8182	0.1	6679.9
28978	0.46154	2.7273	0.1	6774.
28979	0.36923	3.	0.1	6694.8
28980	0.46154	2.9091	0.1	6807.7
28981	0.36923	3.1818	0.1	6679.9
28982	0.46154	3.0909	0.1	6807.7
28983	0.36923	3.3636	0.1	6635.7
28984	0.46154	3.2727	0.1	6774.
28985	0.36923	3.5455	0.1	6563.2
28986	0.46154	3.4545	0.1	6707.7
28987	0.36923	3.7273	0.1	6464.1
28988	0.46154	3.6364	0.1	6611.
28989	0.36923	3.9091	0.1	6340.1
28990	0.46154	3.8182	0.1	6486.5
28991	0.36923	4.0909	0.1	6192.5
28992	0.46154	4.	0.1	6336.7
28993	0.36923	4.2727	0.1	6022.
28994	0.46154	4.1818	0.1	6163.9
28995	0.36923	4.4545	0.1	5829.1
28996	0.46154	4.3636	0.1	5970.2
28997	0.36923	4.6364	0.1	5613.6
28998	0.46154	4.5455	0.1	5757.5
28999	0.36923	4.8182	0.1	5375.9
29000	0.46154	4.7273	0.1	5528.4
29001	0.36923	5.	0.1	5118.1
29002	0.46154	4.9091	0.1	5287.4
29003	0.36923	5.1818	0.1	4848.4
29004	0.46154	5.0909	0.1	5043.1
29005	0.36923	5.3636	0.1	4593.7
29006	0.46154	5.2727	0.1	4814.8
29007	0.36923	5.5455	0.1	4425.8
29008	0.46154	5.4545	0.1	4641.5
29009	0.36923	5.7273	0.1	4476.7
29010	0.46154	5.6364	0.1	4593.
29011	0.46154	5.8182	0.1	4771.2
29012	0.36923	5.9091	0.1	4451.7
29013	0.55385	0.27273	0.1	4873.3
29014	0.64615	0.18182	0.1	4989.8
29015	0.55385	9.0909e-002	0.1	4807.8
29016	0.55385	0.45455	0.1	4797.6
29017	0.64615	0.36364	0.1	4838.
29018	0.55385	0.63636	0.1	4859.
29019	0.64615	0.54545	0.1	4827.3
29020	0.55385	0.81818	0.1	5011.2
29021	0.64615	0.72727	0.1	4912.6
29022	0.55385	1.	0.1	5216.1
29023	0.64615	0.90909	0.1	5069.5
29024	0.55385	1.1818	0.1	5443.9
29025	0.64615	1.0909	0.1	5270.2
29026	0.55385	1.3636	0.1	5675.9
29027	0.64615	1.2727	0.1	5492.7
29028	0.55385	1.5455	0.1	5901.7
29029	0.64615	1.4545	0.1	5721.8
29030	0.55385	1.7273	0.1	6114.5
29031	0.64615	1.6364	0.1	5947.2
29032	0.55385	1.9091	0.1	6310.
29033	0.64615	1.8182	0.1	6161.6
29034	0.55385	2.0909	0.1	6484.4
29035	0.64615	2.	0.1	6359.2
29036	0.55385	2.2727	0.1	6634.2
29037	0.64615	2.1818	0.1	6535.
29038	0.55385	2.4545	0.1	6756.
29039	0.64615	2.3636	0.1	6684.
29040	0.55385	2.6364	0.1	6846.1
29041	0.64615	2.5455	0.1	6801.4
29042	0.55385	2.8182	0.1	6901.6
29043	0.64615	2.7273	0.1	6882.7
29044	0.55385	3.	0.1	6920.4
29045	0.64615	2.9091	0.1	6924.2
29046	0.55385	3.1818	0.1	6901.6
29047	0.64615	3.0909	0.1	6924.2
29048	0.55385	3.3636	0.1	6846.1
29049	0.64615	3.2727	0.1	6882.7
29050	0.55385	3.5455	0.1	6756.
29051	0.64615	3.4545	0.1	6801.4
29052	0.55385	3.7273	0.1	6634.2
29053	0.64615	3.6364	0.1	6684.
29054	0.55385	3.9091	0.1	6484.4
29055	0.64615	3.8182	0.1	6535.
29056	0.55385	4.0909	0.1	6310.
29057	0.64615	4.	0.1	6359.2
29058	0.55385	4.2727	0.1	6114.5
29059	0.64615	4.1818	0.1	6161.6
29060	0.55385	4.4545	0.1	5901.7
29061	0.64615	4.3636	0.1	5947.2
29062	0.55385	4.6364	0.1	5675.9
29063	0.64615	4.5455	0.1	5721.8
29064	0.55385	4.8182	0.1	5443.9
29065	0.64615	4.7273	0.1	5492.7
29066	0.55385	5.	0.1	5216.1
29067	0.64615	4.9091	0.1	5270.2
29068	0.55385	5.1818	0.1	5011.2
29069	0.64615	5.0909	0.1	5069.5
29070	0.55385	5.3636	0.1	4859.
29071	0.64615	5.2727	0.1	4912.6
29072	0.55385	5.5455	0.1	4797.6
29073	0.64615	5.4545	0.1	4827.3
29074	0.55385	5.7273	0.1	4873.3
29075	0.64615	5.6364	0.1	4838.
29076	0.64615	5.8182	0.1	4989.8
29077	0.55385	5.9091	0.1	4807.8
29078	0.73846	0.27273	0.1	4947.9
29079	0.83077	0.18182	0.1	4977.3
29080	0.73846	9.0909e-002	0.1	4879.4
29081	0.73846	0.45455	0.1	4863.
29082	0.83077	0.36364	0.1	4853.5
29083	0.73846	0.63636	0.1	4879.4
29084	0.83077	0.54545	0.1	4839.3
29085	0.73846	0.81818	0.1	4973.2
29086	0.83077	0.72727	0.1	4898.3
29087	0.73846	1.	0.1	5128.2
29088	0.83077	0.90909	0.1	5023.7
29089	0.73846	1.1818	0.1	5324.5
29090	0.83077	1.0909	0.1	5201.3
29091	0.73846	1.3636	0.1	5544.
29092	0.83077	1.2727	0.1	5414.2
29093	0.73846	1.5455	0.1	5772.2
29094	0.83077	1.4545	0.1	5647.1
29095	0.73846	1.7273	0.1	5998.4
29096	0.83077	1.6364	0.1	5887.1
29097	0.73846	1.9091	0.1	6214.1
29098	0.83077	1.8182	0.1	6123.5
29099	0.73846	2.0909	0.1	6412.3
29100	0.83077	2.	0.1	6347.7
29101	0.73846	2.2727	0.1	6586.5
29102	0.83077	2.1818	0.1	6551.7
29103	0.73846	2.4545	0.1	6730.5
29104	0.83077	2.3636	0.1	6727.6
29105	0.73846	2.6364	0.1	6838.4
29106	0.83077	2.5455	0.1	6868.
29107	0.73846	2.8182	0.1	6905.3
29108	0.83077	2.7273	0.1	6965.9
29109	0.73846	3.	0.1	6928.
29110	0.83077	2.9091	0.1	7016.2
29111	0.73846	3.1818	0.1	6905.3
29112	0.83077	3.0909	0.1	7016.2
29113	0.73846	3.3636	0.1	6838.4
29114	0.83077	3.2727	0.1	6965.9
29115	0.73846	3.5455	0.1	6730.5
29116	0.83077	3.4545	0.1	6868.
29117	0.73846	3.7273	0.1	6586.5
29118	0.83077	3.6364	0.1	6727.6
29119	0.73846	3.9091	0.1	6412.3
29120	0.83077	3.8182	0.1	6551.7
29121	0.73846	4.0909	0.1	6214.1
29122	0.83077	4.	0.1	6347.7
29123	0.73846	4.2727	0.1	5998.4
29124	0.83077	4.1818	0.1	6123.5
29125	0.73846	4.4545	0.1	5772.2
29126	0.83077	4.3636	0.1	5887.1
29127	0.73846	4.6364	0.1	5544.
29128	0.83077	4.5455	0.1	5647.1
29129	0.73846	4.8182	0.1	5324.5
29130	0.83077	4.7273	0.1	5414.2
29131	0.73846	5.	0.1	5128.2
29132	0.83077	4.9091	0.1	5201.3
29133	0.73846	5.1818	0.1	4973.2
29134	0.83077	5.0909	0.1	5023.7
29135	0.73846	5.3636	0.1	4879.4
29136	0.83077	5.2727	0.1	4898.3
29137	0.73846	5.5455	0.1	4863.
29138	0.83077	5.4545	0.1	4839.3
29139	0.73846	5.7273	0.1	4947.9
29140	0.83077	5.6364	0.1	4853.5
29141	0.83077	5.8182	0.1	4977.3
29142	0.73846	5.9091	0.1	4879.4
29143	0.92308	0.27273	0.1	4879.4
29144	1.0154	0.18182	0.1	4823.
29145	0.92308	9.0909e-002	0.1	4785.5
29146	0.92308	0.45455	0.1	4827.
29147	1.0154	0.36364	0.1	4740.2
29148	0.92308	0.63636	0.1	4856.8
29149	1.0154	0.54545	0.1	4756.
29150	0.92308	0.81818	0.1	4949.8
29151	1.0154	0.72727	0.1	4833.9
29152	0.92308	1.	0.1	5099.9
29153	1.0154	0.90909	0.1	4971.4
29154	0.92308	1.1818	0.1	5295.5
29155	1.0154	1.0909	0.1	5160.8
29156	0.92308	1.3636	0.1	5522.4
29157	1.0154	1.2727	0.1	5390.1
29158	0.92308	1.5455	0.1	5766.8
29159	1.0154	1.4545	0.1	5645.7
29160	0.92308	1.7273	0.1	6016.4
29161	1.0154	1.6364	0.1	5914.6
29162	0.92308	1.9091	0.1	6260.6
29163	1.0154	1.8182	0.1	6184.6
29164	0.92308	2.0909	0.1	6489.7
29165	1.0154	2.	0.1	6445.
29166	0.92308	2.2727	0.1	6694.5
29167	1.0154	2.1818	0.1	6685.5
29168	0.92308	2.4545	0.1	6865.9
29169	1.0154	2.3636	0.1	6895.4
29170	0.92308	2.6364	0.1	6995.4
29171	1.0154	2.5455	0.1	7063.8
29172	0.92308	2.8182	0.1	7076.2
29173	1.0154	2.7273	0.1	7181.5
29174	0.92308	3.	0.1	7103.6
29175	1.0154	2.9091	0.1	7241.9
29176	0.92308	3.1818	0.1	7076.2
29177	1.0154	3.0909	0.1	7241.9
29178	0.92308	3.3636	0.1	6995.4
29179	1.0154	3.2727	0.1	7181.5
29180	0.92308	3.5455	0.1	6865.9
29181	1.0154	3.4545	0.1	7063.8
29182	0.92308	3.7273	0.1	6694.5
29183	1.0154	3.6364	0.1	6895.4
29184	0.92308	3.9091	0.1	6489.7
29185	1.0154	3.8182	0.1	6685.5
29186	0.92308	4.0909	0.1	6260.6
29187	1.0154	4.	0.1	6445.
29188	0.92308	4.2727	0.1	6016.4
29189	1.0154	4.1818	0.1	6184.6
29190	0.92308	4.4545	0.1	5766.8
29191	1.0154	4.3636	0.1	5914.6
29192	0.92308	4.6364	0.1	5522.4
29193	1.0154	4.5455	0.1	5645.7
29194	0.92308	4.8182	0.1	5295.5
29195	1.0154	4.7273	0.1	5390.1
29196	0.92308	5.	0.1	5099.9
29197	1.0154	4.9091	0.1	5160.8
29198	0.92308	5.1818	0.1	4949.8
29199	1.0154	5.0909	0.1	4971.4
29200	0.92308	5.3636	0.1	4856.8
29201	1.0154	5.2727	0.1	4833.9
29202	0.92308	5.5455	0.1	4827.
29203	1.0154	5.4545	0.1	4756.
29204	0.92308	5.7273	0.1	4879.4
29205	1.0154	5.6364	0.1	4740.2
29206	1.0154	5.8182	0.1	4823.
29207	0.92308	5.9091	0.1	4785.5
29208	1.1077	0.27273	0.1	4681.8
29209	1.2	0.18182	0.1	4551.5
29210	1.1077	9.0909e-002	0.1	4562.
29211	1.1077	0.45455	0.1	4667.8
29212	1.2	0.36364	0.1	4508.5
29213	1.1077	0.63636	0.1	4733.4
29214	1.2	0.54545	0.1	4567.6
29215	1.1077	0.81818	0.1	4858.1
29216	1.2	0.72727	0.1	4690.4
29217	1.1077	1.	0.1	5037.
29218	1.2	0.90909	0.1	4872.2
29219	1.1077	1.1818	0.1	5261.6
29220	1.2	1.0909	0.1	5106.1
29221	1.1077	1.3636	0.1	5520.1
29222	1.2	1.2727	0.1	5381.5
29223	1.1077	1.5455	0.1	5799.9
29224	1.2	1.4545	0.1	5685.5
29225	1.1077	1.7273	0.1	6088.3
29226	1.2	1.6364	0.1	6004.7
29227	1.1077	1.9091	0.1	6373.5
29228	1.2	1.8182	0.1	6326.2
29229	1.1077	2.0909	0.1	6644.2
29230	1.2	2.	0.1	6638.1
29231	1.1077	2.2727	0.1	6888.5
29232	1.2	2.1818	0.1	6927.7
29233	1.1077	2.4545	0.1	7094.
29234	1.2	2.3636	0.1	7180.8
29235	1.1077	2.6364	0.1	7249.3
29236	1.2	2.5455	0.1	7382.9
29237	1.1077	2.8182	0.1	7346.
29238	1.2	2.7273	0.1	7522.7
29239	1.1077	3.	0.1	7378.7
29240	1.2	2.9091	0.1	7593.9
29241	1.1077	3.1818	0.1	7346.
29242	1.2	3.0909	0.1	7593.9
29243	1.1077	3.3636	0.1	7249.3
29244	1.2	3.2727	0.1	7522.7
29245	1.1077	3.5455	0.1	7094.
29246	1.2	3.4545	0.1	7382.9
29247	1.1077	3.7273	0.1	6888.5
29248	1.2	3.6364	0.1	7180.8
29249	1.1077	3.9091	0.1	6644.2
29250	1.2	3.8182	0.1	6927.7
29251	1.1077	4.0909	0.1	6373.5
29252	1.2	4.	0.1	6638.1
29253	1.1077	4.2727	0.1	6088.3
29254	1.2	4.1818	0.1	6326.2
29255	1.1077	4.4545	0.1	5799.9
29256	1.2	4.3636	0.1	6004.7
29257	1.1077	4.6364	0.1	5520.1
29258	1.2	4.5455	0.1	5685.5
29259	1.1077	4.8182	0.1	5261.6
29260	1.2	4.7273	0.1	5381.5
29261	1.1077	5.	0.1	5037.
29262	1.2	4.9091	0.1	5106.1
29263	1.1077	5.1818	0.1	4858.1
29264	1.2	5.0909	0.1	4872.2
29265	1.1077	5.3636	0.1	4733.4
29266	1.2	5.2727	0.1	4690.4
29267	1.1077	5.5455	0.1	4667.8
29268	1.2	5.4545	0.1	4567.6
29269	1.1077	5.7273	0.1	4681.8
29270	1.2	5.6364	0.1	4508.5
29271	1.2	5.8182	0.1	4551.5
29272	1.1077	5.9091	0.1	4562.
29273	1.2923	0.27273	0.1	4377.
29274	1.3846	0.18182	0.1	4175.3
29275	1.2923	9.0909e-002	0.1	4228.3
29276	1.2923	0.45455	0.1	4408.1
29277	1.3846	0.36364	0.1	4172.6
29278	1.2923	0.63636	0.1	4527.
29279	1.3846	0.54545	0.1	4286.5
29280	1.2923	0.81818	0.1	4710.
29281	1.3846	0.72727	0.1	4475.5
29282	1.2923	1.	0.1	4949.4
29283	1.3846	0.90909	0.1	4730.4
29284	1.2923	1.1818	0.1	5235.6
29285	1.3846	1.0909	0.1	5041.6
29286	1.2923	1.3636	0.1	5556.6
29287	1.3846	1.2727	0.1	5397.2
29288	1.2923	1.5455	0.1	5899.2
29289	1.3846	1.4545	0.1	5783.
29290	1.2923	1.7273	0.1	6250.
29291	1.3846	1.6364	0.1	6183.1
29292	1.2923	1.9091	0.1	6596.5
29293	1.3846	1.8182	0.1	6583.
29294	1.2923	2.0909	0.1	6925.6
29295	1.3846	2.	0.1	6968.9
29296	1.2923	2.2727	0.1	7222.1
29297	1.3846	2.1818	0.1	7325.9
29298	1.2923	2.4545	0.1	7469.7
29299	1.3846	2.3636	0.1	7633.8
29300	1.2923	2.6364	0.1	7654.6
29301	1.3846	2.5455	0.1	7872.8
29302	1.2923	2.8182	0.1	7767.9
29303	1.3846	2.7273	0.1	8032.7
29304	1.2923	3.	0.1	7805.9
29305	1.3846	2.9091	0.1	8111.9
29306	1.2923	3.1818	0.1	7767.9
29307	1.3846	3.0909	0.1	8111.9
29308	1.2923	3.3636	0.1	7654.6
29309	1.3846	3.2727	0.1	8032.8
29310	1.2923	3.5455	0.1	7469.7
29311	1.3846	3.4545	0.1	7872.8
29312	1.2923	3.7273	0.1	7222.1
29313	1.3846	3.6364	0.1	7633.8
29314	1.2923	3.9091	0.1	6925.6
29315	1.3846	3.8182	0.1	7325.9
29316	1.2923	4.0909	0.1	6596.5
29317	1.3846	4.	0.1	6968.9
29318	1.2923	4.2727	0.1	6250.
29319	1.3846	4.1818	0.1	6583.
29320	1.2923	4.4545	0.1	5899.2
29321	1.3846	4.3636	0.1	6183.1
29322	1.2923	4.6364	0.1	5556.6
29323	1.3846	4.5455	0.1	5783.
29324	1.2923	4.8182	0.1	5235.6
29325	1.3846	4.7273	0.1	5397.2
29326	1.2923	5.	0.1	4949.4
29327	1.3846	4.9091	0.1	5041.6
29328	1.2923	5.1818	0.1	4710.
29329	1.3846	5.0909	0.1	4730.4
29330	1.2923	5.3636	0.1	4527.
29331	1.3846	5.2727	0.1	4475.5
29332	1.2923	5.5455	0.1	4408.1
29333	1.3846	5.4545	0.1	4286.5
29334	1.2923	5.7273	0.1	4377.
29335	1.3846	5.6364	0.1	4172.6
29336	1.3846	5.8182	0.1	4175.3
29337	1.2923	5.9091	0.1	4228.3
29338	1.4769	0.27273	0.1	3970.2
29339	1.5692	0.18182	0.1	3698.2
29340	1.4769	9.0909e-002	0.1	3791.1
29341	1.4769	0.45455	0.1	4052.3
29342	1.5692	0.36364	0.1	3738.6
29343	1.4769	0.63636	0.1	4241.
29344	1.5692	0.54545	0.1	3921.4
29345	1.4769	0.81818	0.1	4506.7
29346	1.5692	0.72727	0.1	4198.6
29347	1.4769	1.	0.1	4837.1
29348	1.5692	0.90909	0.1	4554.4
29349	1.4769	1.1818	0.1	5219.5
29350	1.5692	1.0909	0.1	4975.7
29351	1.4769	1.3636	0.1	5639.5
29352	1.5692	1.2727	0.1	5449.7
29353	1.4769	1.5455	0.1	6080.6
29354	1.5692	1.4545	0.1	5960.5
29355	1.4769	1.7273	0.1	6526.5
29356	1.5692	1.6364	0.1	6487.3
29357	1.4769	1.9091	0.1	6962.7
29358	1.5692	1.8182	0.1	7005.1
29359	1.4769	2.0909	0.1	7373.6
29360	1.5692	2.	0.1	7500.3
29361	1.4769	2.2727	0.1	7738.9
29362	1.5692	2.1818	0.1	7948.9
29363	1.4769	2.4545	0.1	8035.2
29364	1.5692	2.3636	0.1	8318.1
29365	1.4769	2.6364	0.1	8247.
29366	1.5692	2.5455	0.1	8585.3
29367	1.4769	2.8182	0.1	8371.3
29368	1.5692	2.7273	0.1	8748.2
29369	1.4769	3.	0.1	8412.
29370	1.5692	2.9091	0.1	8823.1
29371	1.4769	3.1818	0.1	8371.3
29372	1.5692	3.0909	0.1	8823.1
29373	1.4769	3.3636	0.1	8247.
29374	1.5692	3.2727	0.1	8748.2
29375	1.4769	3.5455	0.1	8035.2
29376	1.5692	3.4545	0.1	8585.3
29377	1.4769	3.7273	0.1	7738.9
29378	1.5692	3.6364	0.1	8318.1
29379	1.4769	3.9091	0.1	7373.6
29380	1.5692	3.8182	0.1	7948.9
29381	1.4769	4.0909	0.1	6962.7
29382	1.5692	4.	0.1	7500.3
29383	1.4769	4.2727	0.1	6526.5
29384	1.5692	4.1818	0.1	7005.1
29385	1.4769	4.4545	0.1	6080.6
29386	1.5692	4.3636	0.1	6487.3
29387	1.4769	4.6364	0.1	5639.5
29388	1.5692	4.5455	0.1	5960.5
29389	1.4769	4.8182	0.1	5219.5
29390	1.5692	4.7273	0.1	5449.7
29391	1.4769	5.	0.1	4837.1
29392	1.5692	4.9091	0.1	4975.7
29393	1.4769	5.1818	0.1	4506.7
29394	1.5692	5.0909	0.1	4554.4
29395	1.4769	5.3636	0.1	4241.
29396	1.5692	5.2727	0.1	4198.6
29397	1.4769	5.5455	0.1	4052.3
29398	1.5692	5.4545	0.1	3921.4
29399	1.4769	5.7273	0.1	3970.2
29400	1.5692	5.6364	0.1	3738.6
29401	1.5692	5.8182	0.1	3698.2
29402	1.4769	5.9091	0.1	3791.1
29403	1.6615	0.27273	0.1	3466.3
29404	1.7538	0.18182	0.1	3122.6
29405	1.6615	9.0909e-002	0.1	3253.8
29406	1.6615	0.45455	0.1	3611.7
29407	1.7538	0.36364	0.1	3218.6
29408	1.6615	0.63636	0.1	3891.5
29409	1.7538	0.54545	0.1	3494.7
29410	1.6615	0.81818	0.1	4266.6
29411	1.7538	0.72727	0.1	3887.3
29412	1.6615	1.	0.1	4718.8
29413	1.7538	0.90909	0.1	4371.1
29414	1.6615	1.1818	0.1	5234.2
29415	1.7538	1.0909	0.1	4933.2
29416	1.6615	1.3636	0.1	5797.7
29417	1.7538	1.2727	0.1	5566.4
29418	1.6615	1.5455	0.1	6389.2
29419	1.7538	1.4545	0.1	6261.8
29420	1.6615	1.7273	0.1	6980.9
29421	1.7538	1.6364	0.1	6983.4
29422	1.6615	1.9091	0.1	7551.2
29423	1.7538	1.8182	0.1	7692.4
29424	1.6615	2.0909	0.1	8078.8
29425	1.7538	2.	0.1	8353.9
29426	1.6615	2.2727	0.1	8526.5
29427	1.7538	2.1818	0.1	8921.
29428	1.6615	2.4545	0.1	8862.2
29429	1.7538	2.3636	0.1	9347.1
29430	1.6615	2.6364	0.1	9077.9
29431	1.7538	2.5455	0.1	9587.9
29432	1.6615	2.8182	0.1	9190.3
29433	1.7538	2.7273	0.1	9698.5
29434	1.6615	3.	0.1	9224.3
29435	1.7538	2.9091	0.1	9737.3
29436	1.6615	3.1818	0.1	9190.3
29437	1.7538	3.0909	0.1	9737.3
29438	1.6615	3.3636	0.1	9077.9
29439	1.7538	3.2727	0.1	9698.5
29440	1.6615	3.5455	0.1	8862.2
29441	1.7538	3.4545	0.1	9587.9
29442	1.6615	3.7273	0.1	8526.5
29443	1.7538	3.6364	0.1	9347.1
29444	1.6615	3.9091	0.1	8078.8
29445	1.7538	3.8182	0.1	8921.
29446	1.6615	4.0909	0.1	7551.2
29447	1.7538	4.	0.1	8353.9
29448	1.6615	4.2727	0.1	6980.9
29449	1.7538	4.1818	0.1	7692.4
29450	1.6615	4.4545	0.1	6389.2
29451	1.7538	4.3636	0.1	6983.4
29452	1.6615	4.6364	0.1	5797.7
29453	1.7538	4.5455	0.1	6261.8
29454	1.6615	4.8182	0.1	5234.2
29455	1.7538	4.7273	0.1	5566.4
29456	1.6615	5.	0.1	4718.8
29457	1.7538	4.9091	0.1	4933.2
29458	1.6615	5.1818	0.1	4266.6
29459	1.7538	5.0909	0.1	4371.1
29460	1.6615	5.3636	0.1	3891.5
29461	1.7538	5.2727	0.1	3887.3
29462	1.6615	5.5455	0.1	3611.7
29463	1.7538	5.4545	0.1	3494.7
29464	1.6615	5.7273	0.1	3466.3
29465	1.7538	5.6364	0.1	3218.6
29466	1.7538	5.8182	0.1	3122.6
29467	1.6615	5.9091	0.1	3253.8
29468	1.8462	0.27273	0.1	2875.4
29469	1.9385	0.18182	0.1	2455.7
29470	1.8462	9.0909e-002	0.1	2618.3
29471	1.8462	0.45455	0.1	3112.8
29472	1.9385	0.36364	0.1	2649.6
29473	1.8462	0.63636	0.1	3515.9
29474	1.9385	0.54545	0.1	3065.
29475	1.8462	0.81818	0.1	4028.3
29476	1.9385	0.72727	0.1	3604.5
29477	1.8462	1.	0.1	4629.6
29478	1.9385	0.90909	0.1	4237.1
29479	1.8462	1.1818	0.1	5313.3
29480	1.9385	1.0909	0.1	4960.9
29481	1.8462	1.3636	0.1	6077.
29482	1.9385	1.2727	0.1	5791.
29483	1.8462	1.5455	0.1	6894.
29484	1.9385	1.4545	0.1	6740.7
29485	1.8462	1.7273	0.1	7716.6
29486	1.9385	1.6364	0.1	7808.9
29487	1.8462	1.9091	0.1	8503.3
29488	1.9385	1.8182	0.1	8929.5
29489	1.8462	2.0909	0.1	9194.
29490	1.9385	2.	0.1	9836.1
29491	1.8462	2.2727	0.1	9731.
29492	1.9385	2.1818	0.1	10570
29493	1.8462	2.4545	0.1	10057
29494	1.9385	2.3636	0.1	10896
29495	1.8462	2.6364	0.1	10192
29496	1.9385	2.5455	0.1	10934
29497	1.8462	2.8182	0.1	10230
29498	1.9385	2.7273	0.1	10862
29499	1.8462	3.	0.1	10236
29500	1.9385	2.9091	0.1	10805
29501	1.8462	3.1818	0.1	10230
29502	1.9385	3.0909	0.1	10805
29503	1.8462	3.3636	0.1	10192
29504	1.9385	3.2727	0.1	10862
29505	1.8462	3.5455	0.1	10057
29506	1.9385	3.4545	0.1	10934
29507	1.8462	3.7273	0.1	9731.
29508	1.9385	3.6364	0.1	10896
29509	1.8462	3.9091	0.1	9194.
29510	1.9385	3.8182	0.1	10570
29511	1.8462	4.0909	0.1	8503.3
29512	1.9385	4.	0.1	9836.1
29513	1.8462	4.2727	0.1	7716.6
29514	1.9385	4.1818	0.1	8929.5
29515	1.8462	4.4545	0.1	6894.
29516	1.9385	4.3636	0.1	7808.9
29517	1.8462	4.6364	0.1	6077.
29518	1.9385	4.5455	0.1	6740.7
29519	1.8462	4.8182	0.1	5313.3
29520	1.9385	4.7273	0.1	5791.
29521	1.8462	5.	0.1	4629.6
29522	1.9385	4.9091	0.1	4960.9
29523	1.8462	5.1818	0.1	4028.3
29524	1.9385	5.0909	0.1	4237.1
29525	1.8462	5.3636	0.1	3515.9
29526	1.9385	5.2727	0.1	3604.5
29527	1.8462	5.5455	0.1	3112.8
29528	1.9385	5.4545	0.1	3065.
29529	1.8462	5.7273	0.1	2875.4
29530	1.9385	5.6364	0.1	2649.6
29531	1.9385	5.8182	0.1	2455.7
29532	1.8462	5.9091	0.1	2618.3
29533	2.0308	0.27273	0.1	2235.6
29534	2.1231	0.18182	0.1	1745.3
29535	2.0308	9.0909e-002	0.1	1891.6
29536	2.0308	0.45455	0.1	2633.3
29537	2.1231	0.36364	0.1	2176.7
29538	2.0308	0.63636	0.1	3204.
29539	2.1231	0.54545	0.1	2810.6
29540	2.0308	0.81818	0.1	3874.5
29541	2.1231	0.72727	0.1	3531.1
29542	2.0308	1.	0.1	4637.7
29543	2.1231	0.90909	0.1	4331.5
29544	2.0308	1.1818	0.1	5515.5
29545	2.1231	1.0909	0.1	5238.5
29546	2.0308	1.3636	0.1	6537.1
29547	2.1231	1.2727	0.1	6307.3
29548	2.0308	1.5455	0.1	7726.3
29549	2.1231	1.4545	0.1	7615.1
29550	2.0308	1.7273	0.1	9065.8
29551	2.1231	1.6364	0.1	9322.6
29552	2.0308	1.9091	0.1	10250
29553	2.1231	1.8182	0.1	11650
29554	2.0308	2.0909	0.1	11185
29555	2.1231	2.	0.1	13451
29556	2.0308	2.2727	0.1	11696
29557	2.1231	2.1818	0.1	13607
29558	2.0308	2.4545	0.1	11740
29559	2.1231	2.3636	0.1	13158
29560	2.0308	2.6364	0.1	11580
29561	2.1231	2.5455	0.1	12522
29562	2.0308	2.8182	0.1	11418
29563	2.1231	2.7273	0.1	12087
29564	2.0308	3.	0.1	11357
29565	2.1231	2.9091	0.1	11870
29566	2.0308	3.1818	0.1	11418
29567	2.1231	3.0909	0.1	11870
29568	2.0308	3.3636	0.1	11580
29569	2.1231	3.2727	0.1	12087
29570	2.0308	3.5455	0.1	11740
29571	2.1231	3.4545	0.1	12522
29572	2.0308	3.7273	0.1	11696
29573	2.1231	3.6364	0.1	13158
29574	2.0308	3.9091	0.1	11185
29575	2.1231	3.8182	0.1	13607
29576	2.0308	4.0909	0.1	10250
29577	2.1231	4.	0.1	13451
29578	2.0308	4.2727	0.1	9065.8
29579	2.1231	4.1818	0.1	11650
29580	2.0308	4.4545	0.1	7726.3
29581	2.1231	4.3636	0.1	9322.6
29582	2.0308	4.6364	0.1	6537.2
29583	2.1231	4.5455	0.1	7615.1
29584	2.0308	4.8182	0.1	5515.5
29585	2.1231	4.7273	0.1	6307.3
29586	2.0308	5.	0.1	4637.7
29587	2.1231	4.9091	0.1	5238.5
29588	2.0308	5.1818	0.1	3874.5
29589	2.1231	5.0909	0.1	4331.5
29590	2.0308	5.3636	0.1	3204.
29591	2.1231	5.2727	0.1	3531.1
29592	2.0308	5.5455	0.1	2633.3
29593	2.1231	5.4545	0.1	2810.6
29594	2.0308	5.7273	0.1	2235.6
29595	2.1231	5.6364	0.1	2176.7
29596	2.1231	5.8182	0.1	1745.3
29597	2.0308	5.9091	0.1	1891.6
29598	2.2154	0.27273	0.1	1737.9
29599	2.3077	0.18182	0.1	1022.5
29600	2.2154	9.0909e-002	0.1	1109.2
29601	2.2154	0.45455	0.1	2438.3
29602	2.3077	0.36364	0.1	1664.2
29603	2.2154	0.63636	0.1	3225.3
29604	2.3077	0.54545	0.1	2330.9
29605	2.2154	0.81818	0.1	4077.4
29606	2.3077	0.72727	0.1	3017.2
29607	2.2154	1.	0.1	5028.8
29608	2.3077	0.90909	0.1	3751.6
29609	2.2154	1.1818	0.1	6143.8
29610	2.3077	1.0909	0.1	4577.3
29611	2.2154	1.3636	0.1	7528.2
29612	2.3077	1.2727	0.1	5564.9
29613	2.2154	1.5455	0.1	9420.9
29614	2.3077	1.4545	0.1	6847.6
29615	2.2154	1.7273	0.1	12077
29616	2.3077	1.6364	0.1	8558.4
29617	2.2154	1.9091	0.1	14785
29618	2.3077	1.8182	0.1	11984
29619	2.2154	2.0909	0.1	15665
29620	2.3077	2.	0.1	23418
29621	2.2154	2.2727	0.1	14982
29622	2.3077	2.1818	0.1	18067
29623	2.2154	2.4545	0.1	13909
29624	2.3077	2.3636	0.1	15452
29625	2.2154	2.6364	0.1	13012
29626	2.3077	2.5455	0.1	13890
29627	2.2154	2.8182	0.1	12526
29628	2.3077	2.7273	0.1	13044
29629	2.2154	3.	0.1	12370
29630	2.3077	2.9091	0.1	12667
29631	2.2154	3.1818	0.1	12526
29632	2.3077	3.0909	0.1	12667
29633	2.2154	3.3636	0.1	13012
29634	2.3077	3.2727	0.1	13044
29635	2.2154	3.5455	0.1	13909
29636	2.3077	3.4545	0.1	13890
29637	2.2154	3.7273	0.1	14982
29638	2.3077	3.6364	0.1	15452
29639	2.2154	3.9091	0.1	15665
29640	2.3077	3.8182	0.1	18067
29641	2.2154	4.0909	0.1	14785
29642	2.3077	4.	0.1	23418
29643	2.2154	4.2727	0.1	12077
29644	2.3077	4.1818	0.1	11984
29645	2.2154	4.4545	0.1	9420.9
29646	2.3077	4.3636	0.1	8558.4
29647	2.2154	4.6364	0.1	7528.2
29648	2.3077	4.5455	0.1	6847.6
29649	2.2154	4.8182	0.1	6143.8
29650	2.3077	4.7273	0.1	5564.9
29651	2.2154	5.	0.1	5028.8
29652	2.3077	4.9091	0.1	4577.3
29653	2.2154	5.1818	0.1	4077.4
29654	2.3077	5.0909	0.1	3751.6
29655	2.2154	5.3636	0.1	3225.3
29656	2.3077	5.2727	0.1	3017.2
29657	2.2154	5.5455	0.1	2438.3
29658	2.3077	5.4545	0.1	2330.9
29659	2.2154	5.7273	0.1	1737.9
29660	2.3077	5.6364	0.1	1664.2
29661	2.3077	5.8182	0.1	1022.5
29662	2.2154	5.9091	0.1	1109.2
29663	2.5667	3.7273	0.1	18577
29664	2.4833	3.8182	0.1	20566
29665	2.5667	3.9091	0.1	24972
29666	2.5667	3.5455	0.1	15397
29667	2.4833	3.6364	0.1	16367
29668	2.5667	3.3636	0.1	13885
29669	2.4833	3.4545	0.1	14411
29670	2.5667	3.1818	0.1	13146
29671	2.4833	3.2727	0.1	13383
29672	2.5667	3.	0.1	12924
29673	2.4833	3.0909	0.1	12941
29674	2.5667	2.8182	0.1	13146
29675	2.4833	2.9091	0.1	12941
29676	2.5667	2.6364	0.1	13885
29677	2.4833	2.7273	0.1	13383
29678	2.5667	2.4545	0.1	15397
29679	2.4833	2.5455	0.1	14411
29680	2.5667	2.2727	0.1	18577
29681	2.4833	2.3636	0.1	16367
29682	2.4833	2.1818	0.1	20566
29683	2.5667	2.0909	0.1	24972
29684	2.4	3.7273	0.1	18738
29685	2.4	3.9091	0.1	25519
29686	2.4	3.5455	0.1	15492
29687	2.4	3.3636	0.1	13938
29688	2.4	3.1818	0.1	13184
29689	2.4	3.	0.1	12958
29690	2.4	2.8182	0.1	13184
29691	2.4	2.6364	0.1	13938
29692	2.4	2.4545	0.1	15492
29693	2.4	2.2727	0.1	18738
29694	2.4	2.0909	0.1	25519
29695	2.5667	5.7273	0.1	826.54
29696	2.5667	5.9091	0.1	298.73
29697	2.5667	5.8182	5.e-002	215.85
29698	2.5667	5.5455	0.1	1301.7
29699	2.5667	5.6364	5.e-002	459.66
29700	2.5667	5.3636	0.1	1779.3
29701	2.5667	5.4545	5.e-002	701.57
29702	2.5667	5.1818	0.1	2301.6
29703	2.5667	5.2727	5.e-002	963.35
29704	2.5667	5.	0.1	2904.9
29705	2.5667	5.0909	5.e-002	1258.8
29706	2.5667	4.8182	0.1	3641.8
29707	2.5667	4.9091	5.e-002	1608.1
29708	2.5667	4.6364	0.1	4621.5
29709	2.5667	4.7273	5.e-002	2046.1
29710	2.5667	4.4545	0.1	5909.
29711	2.5667	4.5455	5.e-002	2631.6
29712	2.5667	4.2727	0.1	9098.5
29713	2.5667	4.3636	5.e-002	3572.2
29714	2.5667	4.0909	0.1	18151
29715	2.5667	4.1818	5.e-002	5925.5
29716	2.4833	4.	0.1	25995
29717	2.5667	4.	5.e-002	5145.8
29718	2.4	4.0909	0.1	18867
29719	2.4	4.	5.e-002	5360.3
29720	2.4	4.2727	0.1	10021
29721	2.4	4.1818	5.e-002	6352.7
29722	2.4	4.4545	0.1	6814.8
29723	2.4	4.3636	5.e-002	3909.6
29724	2.4	4.6364	0.1	5517.6
29725	2.4	4.5455	5.e-002	2933.4
29726	2.4	4.8182	0.1	4505.7
29727	2.4	4.7273	5.e-002	2311.9
29728	2.4	5.	0.1	3715.6
29729	2.4	4.9091	5.e-002	1840.7
29730	2.4	5.1818	0.1	3036.1
29731	2.4	5.0909	5.e-002	1458.9
29732	2.4	5.3636	0.1	2411.8
29733	2.4	5.2727	5.e-002	1130.2
29734	2.4	5.5455	0.1	1803.3
29735	2.4	5.4545	5.e-002	832.73
29736	2.4	5.7273	0.1	1159.2
29737	2.4	5.6364	5.e-002	550.91
29738	2.4	5.9091	0.1	419.85
29739	2.4	5.8182	5.e-002	255.56
29740	2.5667	0.27273	0.1	826.54
29741	2.5667	9.0909e-002	0.1	298.73
29742	2.5667	0.18182	5.e-002	215.85
29743	2.5667	0.45455	0.1	1301.7
29744	2.5667	0.36364	5.e-002	459.66
29745	2.5667	0.63636	0.1	1779.3
29746	2.5667	0.54545	5.e-002	701.57
29747	2.5667	0.81818	0.1	2301.6
29748	2.5667	0.72727	5.e-002	963.35
29749	2.5667	1.	0.1	2904.9
29750	2.5667	0.90909	5.e-002	1258.8
29751	2.5667	1.1818	0.1	3641.8
29752	2.5667	1.0909	5.e-002	1608.1
29753	2.5667	1.3636	0.1	4621.5
29754	2.5667	1.2727	5.e-002	2046.1
29755	2.5667	1.5455	0.1	5909.
29756	2.5667	1.4545	5.e-002	2631.6
29757	2.5667	1.7273	0.1	9098.5
29758	2.5667	1.6364	5.e-002	3572.2
29759	2.5667	1.9091	0.1	18151
29760	2.5667	1.8182	5.e-002	5925.5
29761	2.4833	2.	0.1	25995
29762	2.5667	2.	5.e-002	5145.8
29763	2.4	1.9091	0.1	18867
29764	2.4	2.	5.e-002	5360.3
29765	2.4	1.7273	0.1	10021
29766	2.4	1.8182	5.e-002	6352.7
29767	2.4	1.5455	0.1	6814.8
29768	2.4	1.6364	5.e-002	3909.6
29769	2.4	1.3636	0.1	5517.6
29770	2.4	1.4545	5.e-002	2933.4
29771	2.4	1.1818	0.1	4505.7
29772	2.4	1.2727	5.e-002	2311.9
29773	2.4	1.	0.1	3715.6
29774	2.4	1.0909	5.e-002	1840.7
29775	2.4	0.81818	0.1	3036.1
29776	2.4	0.90909	5.e-002	1458.9
29777	2.4	0.63636	0.1	2411.8
29778	2.4	0.72727	5.e-002	1130.2
29779	2.4	0.45455	0.1	1803.3
29780	2.4	0.54545	5.e-002	832.73
29781	2.4	0.27273	0.1	1159.2
29782	2.4	0.36364	5.e-002	550.91
29783	2.4	9.0909e-002	0.1	419.85
29784	2.4	0.18182	5.e-002	255.56
29785	2.6591	6.	0.1	367.29
29786	2.5667	6.	5.e-002	66.76
29787	2.8438	6.	0.1	1050.9
29788	2.7514	6.	5.e-002	45.853
29789	3.0286	6.	0.1	1692.6
29790	2.9362	6.	5.e-002	121.52
29791	3.2134	6.	0.1	2257.6
29792	3.121	6.	5.e-002	156.75
29793	3.3981	6.	0.1	2751.1
29794	3.3057	6.	5.e-002	172.29
29795	3.5829	6.	0.1	3171.9
29796	3.4905	6.	5.e-002	174.04
29797	3.7677	6.	0.1	3522.3
29798	3.6753	6.	5.e-002	167.42
29799	3.9524	6.	0.1	3806.9
29800	3.8601	6.	5.e-002	156.21
29801	4.1372	6.	0.1	4032.5
29802	4.0448	6.	5.e-002	143.12
29803	4.322	6.	0.1	4206.6
29804	4.2296	6.	5.e-002	129.97
29805	4.5068	6.	0.1	4336.8
29806	4.4144	6.	5.e-002	117.88
29807	4.6915	6.	0.1	4430.2
29808	4.5991	6.	5.e-002	107.45
29809	4.8763	6.	0.1	4493.3
29810	4.7839	6.	5.e-002	98.935
29811	5.0611	6.	0.1	4531.7
29812	4.9687	6.	5.e-002	92.354
29813	5.2458	6.	0.1	4550.1
29814	5.1534	6.	5.e-002	87.587
29815	5.4306	6.	0.1	4552.4
29816	5.3382	6.	5.e-002	84.439
29817	5.6154	6.	0.1	4541.8
29818	5.523	6.	5.e-002	82.683
29819	5.8001	6.	0.1	4521.2
29820	5.7078	6.	5.e-002	82.088
29821	5.9849	6.	0.1	4492.5
29822	5.8925	6.	5.e-002	82.435
29823	6.1697	6.	0.1	4457.5
29824	6.0773	6.	5.e-002	83.524
29825	6.3545	6.	0.1	4417.7
29826	6.2621	6.	5.e-002	85.18
29827	6.5392	6.	0.1	4374.
29828	6.4468	6.	5.e-002	87.254
29829	6.724	6.	0.1	4327.5
29830	6.6316	6.	5.e-002	89.621
29831	6.9088	6.	0.1	4278.7
29832	6.8164	6.	5.e-002	92.177
29833	7.0935	6.	0.1	4228.3
29834	7.0011	6.	5.e-002	94.836
29835	7.2783	6.	0.1	4176.6
29836	7.1859	6.	5.e-002	97.533
29837	7.4631	6.	0.1	4124.
29838	7.3707	6.	5.e-002	100.21
29839	7.6478	6.	0.1	4070.8
29840	7.5555	6.	5.e-002	102.84
29841	7.8326	6.	0.1	4017.2
29842	7.7402	6.	5.e-002	105.37
29843	8.0174	6.	0.1	3963.3
29844	7.925	6.	5.e-002	107.8
29845	8.2022	6.	0.1	3909.3
29846	8.1098	6.	5.e-002	110.1
29847	8.3869	6.	0.1	3855.2
29848	8.2945	6.	5.e-002	112.27
29849	8.5717	6.	0.1	3801.1
29850	8.4793	6.	5.e-002	114.29
29851	8.7565	6.	0.1	3747.2
29852	8.6641	6.	5.e-002	116.17
29853	8.9412	6.	0.1	3693.3
29854	8.8489	6.	5.e-002	117.91
29855	9.126	6.	0.1	3639.6
29856	9.0336	6.	5.e-002	119.51
29857	9.3108	6.	0.1	3586.1
29858	9.2184	6.	5.e-002	120.97
29859	9.4955	6.	0.1	3532.8
29860	9.4032	6.	5.e-002	122.29
29861	9.6803	6.	0.1	3479.7
29862	9.5879	6.	5.e-002	123.49
29863	9.8651	6.	0.1	3426.8
29864	9.7727	6.	5.e-002	124.56
29865	10.05	6.	0.1	3374.2
29866	9.9575	6.	5.e-002	125.53
29867	10.235	6.	0.1	3321.8
29868	10.142	6.	5.e-002	126.38
29869	10.419	6.	0.1	3269.6
29870	10.327	6.	5.e-002	127.12
29871	10.604	6.	0.1	3217.6
29872	10.512	6.	5.e-002	127.77
29873	10.789	6.	0.1	3165.9
29874	10.697	6.	5.e-002	128.33
29875	10.974	6.	0.1	3114.4
29876	10.881	6.	5.e-002	128.81
29877	11.158	6.	0.1	3063.1
29878	11.066	6.	5.e-002	129.2
29879	11.343	6.	0.1	3012.1
29880	11.251	6.	5.e-002	129.53
29881	11.528	6.	0.1	2961.3
29882	11.436	6.	5.e-002	129.78
29883	11.713	6.	0.1	2910.7
29884	11.62	6.	5.e-002	129.96
29885	11.898	6.	0.1	2860.3
29886	11.805	6.	5.e-002	130.09
29887	12.082	6.	0.1	2810.2
29888	11.99	6.	5.e-002	130.16
29889	12.267	6.	0.1	2760.3
29890	12.175	6.	5.e-002	130.18
29891	12.452	6.	0.1	2710.6
29892	12.359	6.	5.e-002	130.14
29893	12.637	6.	0.1	2661.1
29894	12.544	6.	5.e-002	130.07
29895	12.821	6.	0.1	2611.9
29896	12.729	6.	5.e-002	129.94
29897	13.006	6.	0.1	2562.8
29898	12.914	6.	5.e-002	129.78
29899	13.191	6.	0.1	2514.
29900	13.099	6.	5.e-002	129.58
29901	13.376	6.	0.1	2465.4
29902	13.283	6.	5.e-002	129.35
29903	13.56	6.	0.1	2417.
29904	13.468	6.	5.e-002	129.08
29905	13.745	6.	0.1	2368.8
29906	13.653	6.	5.e-002	128.78
29907	13.93	6.	0.1	2320.8
29908	13.838	6.	5.e-002	128.44
29909	14.115	6.	0.1	2273.1
29910	14.022	6.	5.e-002	128.08
29911	14.3	6.	0.1	2225.5
29912	14.207	6.	5.e-002	127.7
29913	14.484	6.	0.1	2178.2
29914	14.392	6.	5.e-002	127.28
29915	14.669	6.	0.1	2131.
29916	14.577	6.	5.e-002	126.84
29917	14.854	6.	0.1	2084.1
29918	14.761	6.	5.e-002	126.37
29919	15.039	6.	0.1	2037.4
29920	14.946	6.	5.e-002	125.88
29921	15.223	6.	0.1	1990.8
29922	15.131	6.	5.e-002	125.37
29923	15.408	6.	0.1	1944.5
29924	15.316	6.	5.e-002	124.83
29925	15.593	6.	0.1	1898.4
29926	15.501	6.	5.e-002	124.27
29927	15.778	6.	0.1	1852.5
29928	15.685	6.	5.e-002	123.68
29929	15.963	6.	0.1	1806.8
29930	15.87	6.	5.e-002	123.07
29931	16.147	6.	0.1	1761.3
29932	16.055	6.	5.e-002	122.44
29933	16.332	6.	0.1	1715.9
29934	16.24	6.	5.e-002	121.78
29935	16.517	6.	0.1	1670.8
29936	16.424	6.	5.e-002	121.1
29937	16.702	6.	0.1	1625.9
29938	16.609	6.	5.e-002	120.39
29939	16.886	6.	0.1	1581.2
29940	16.794	6.	5.e-002	119.65
29941	17.071	6.	0.1	1536.6
29942	16.979	6.	5.e-002	118.88
29943	17.256	6.	0.1	1492.3
29944	17.164	6.	5.e-002	118.08
29945	17.441	6.	0.1	1448.2
29946	17.348	6.	5.e-002	117.26
29947	17.625	6.	0.1	1404.2
29948	17.533	6.	5.e-002	116.4
29949	17.81	6.	0.1	1360.4
29950	17.718	6.	5.e-002	115.5
29951	17.995	6.	0.1	1316.9
29952	17.903	6.	5.e-002	114.56
29953	18.18	6.	0.1	1273.5
29954	18.087	6.	5.e-002	113.59
29955	18.365	6.	0.1	1230.3
29956	18.272	6.	5.e-002	112.57
29957	18.549	6.	0.1	1187.3
29958	18.457	6.	5.e-002	111.51
29959	18.734	6.	0.1	1144.4
29960	18.642	6.	5.e-002	110.4
29961	18.919	6.	0.1	1101.7
29962	18.826	6.	5.e-002	109.24
29963	19.104	6.	0.1	1059.3
29964	19.011	6.	5.e-002	108.02
29965	19.288	6.	0.1	1017.
29966	19.196	6.	5.e-002	106.74
29967	19.473	6.	0.1	974.81
29968	19.381	6.	5.e-002	105.39
29969	19.658	6.	0.1	932.84
29970	19.566	6.	5.e-002	103.98
29971	19.843	6.	0.1	891.04
29972	19.75	6.	5.e-002	102.48
29973	20.027	6.	0.1	849.4
29974	19.935	6.	5.e-002	100.91
29975	20.212	6.	0.1	807.92
29976	20.12	6.	5.e-002	99.245
29977	20.397	6.	0.1	766.6
29978	20.305	6.	5.e-002	97.485
29979	20.582	6.	0.1	725.44
29980	20.489	6.	5.e-002	95.62
29981	20.767	6.	0.1	684.43
29982	20.674	6.	5.e-002	93.642
29983	20.951	6.	0.1	643.57
29984	20.859	6.	5.e-002	91.541
29985	21.136	6.	0.1	602.87
29986	21.044	6.	5.e-002	89.305
29987	21.321	6.	0.1	562.32
29988	21.228	6.	5.e-002	86.923
29989	21.506	6.	0.1	521.92
29990	21.413	6.	5.e-002	84.38
29991	21.69	6.	0.1	481.67
29992	21.598	6.	5.e-002	81.662
29993	21.875	6.	0.1	441.59
29994	21.783	6.	5.e-002	78.749
29995	22.06	6.	0.1	401.68
29996	21.968	6.	5.e-002	75.622
29997	22.245	6.	0.1	361.96
29998	22.152	6.	5.e-002	72.256
29999	22.429	6.	0.1	322.44
30000	22.337	6.	5.e-002	68.621
30001	22.614	6.	0.1	283.15
30002	22.522	6.	5.e-002	64.682
30003	22.799	6.	0.1	244.14
30004	22.707	6.	5.e-002	60.394
30005	22.984	6.	0.1	205.47
30006	22.891	6.	5.e-002	55.699
30007	23.169	6.	0.1	167.24
30008	23.076	6.	5.e-002	50.516
30009	23.353	6.	0.1	129.6
30010	23.261	6.	5.e-002	44.729
30011	23.538	6.	0.1	92.874
30012	23.446	6.	5.e-002	38.156
30013	23.723	6.	0.1	57.324
30014	23.63	6.	5.e-002	30.453
30015	23.908	6.	0.1	24.013
30016	23.815	6.	5.e-002	20.524
30017	24.	5.9091	0.1	23.229
30018	24.	6.	5.e-002	7.8633
30019	24.	5.7273	0.1	53.325
30020	24.	5.8182	5.e-002	6.9996
30021	24.	5.5455	0.1	77.61
30022	24.	5.6364	5.e-002	8.018
30023	24.	5.3636	0.1	96.939
30024	24.	5.4545	5.e-002	8.9032
30025	24.	5.1818	0.1	113.21
30026	24.	5.2727	5.e-002	9.3833
30027	24.	5.	0.1	127.16
30028	24.	5.0909	5.e-002	9.602
30029	24.	4.8182	0.1	139.22
30030	24.	4.9091	5.e-002	9.6399
30031	24.	4.6364	0.1	149.66
30032	24.	4.7273	5.e-002	9.5515
30033	24.	4.4545	0.1	158.68
30034	24.	4.5455	5.e-002	9.3767
30035	24.	4.2727	0.1	166.4
30036	24.	4.3636	5.e-002	9.1465
30037	24.	4.0909	0.1	172.94
30038	24.	4.1818	5.e-002	8.8862
30039	24.	3.9091	0.1	178.37
30040	24.	4.	5.e-002	8.6176
30041	24.	3.7273	0.1	182.74
30042	24.	3.8182	5.e-002	8.3598
30043	24.	3.5455	0.1	186.09
30044	24.	3.6364	5.e-002	8.1299
30045	24.	3.3636	0.1	188.47
30046	24.	3.4545	5.e-002	7.9427
30047	24.	3.1818	0.1	189.89
30048	24.	3.2727	5.e-002	7.8106
30049	24.	3.	0.1	190.36
30050	24.	3.0909	5.e-002	7.7422
30051	24.	2.8182	0.1	189.89
30052	24.	2.9091	5.e-002	7.7422
30053	24.	2.6364	0.1	188.47
30054	24.	2.7273	5.e-002	7.8106
30055	24.	2.4545	0.1	186.09
30056	24.	2.5455	5.e-002	7.9427
30057	24.	2.2727	0.1	182.74
30058	24.	2.3636	5.e-002	8.1299
30059	24.	2.0909	0.1	178.37
30060	24.	2.1818	5.e-002	8.3598
30061	24.	1.9091	0.1	172.94
30062	24.	2.	5.e-002	8.6176
30063	24.	1.7273	0.1	166.4
30064	24.	1.8182	5.e-002	8.8862
30065	24.	1.5455	0.1	158.68
30066	24.	1.6364	5.e-002	9.1465
30067	24.	1.3636	0.1	149.66
30068	24.	1.4545	5.e-002	9.3767
30069	24.	1.1818	0.1	139.22
30070	24.	1.2727	5.e-002	9.5515
30071	24.	1.	0.1	127.16
30072	24.	1.0909	5.e-002	9.6399
30073	24.	0.81818	0.1	113.21
30074	24.	0.90909	5.e-002	9.602
30075	24.	0.63636	0.1	96.939
30076	24.	0.72727	5.e-002	9.3833
30077	24.	0.45455	0.1	77.61
30078	24.	0.54545	5.e-002	8.9032
30079	24.	0.27273	0.1	53.325
30080	24.	0.36364	5.e-002	8.018
30081	24.	9.0909e-002	0.1	23.229
30082	24.	0.18182	5.e-002	6.9996
30083	2.3842e-015	0.27273	0.1	1737.5
30084	7.9472e-016	9.0909e-002	0.1	1295.5
30085	1.6109e-015	0.18182	5.e-002	144.78
30086	3.9736e-015	0.45455	0.1	2500.6
30087	3.2219e-015	0.36364	5.e-002	94.909
30088	5.563e-015	0.63636	0.1	2928.1
30089	4.8328e-015	0.54545	5.e-002	89.821
30090	7.1525e-015	0.81818	0.1	3218.6
30091	6.4438e-015	0.72727	5.e-002	81.279
30092	8.7419e-015	1.	0.1	3430.2
30093	8.0547e-015	0.90909	5.e-002	70.258
30094	1.0331e-014	1.1818	0.1	3593.2
30095	9.6657e-015	1.0909	5.e-002	59.21
30096	1.1921e-014	1.3636	0.1	3722.8
30097	1.1277e-014	1.2727	5.e-002	48.553
30098	1.351e-014	1.5455	0.1	3827.6
30099	1.2888e-014	1.4545	5.e-002	38.198
30100	1.51e-014	1.7273	0.1	3913.3
30101	1.4498e-014	1.6364	5.e-002	28.224
30102	1.6689e-014	1.9091	0.1	3983.6
30103	1.6109e-014	1.8182	5.e-002	18.862
30104	1.8279e-014	2.0909	0.1	4041.3
30105	1.772e-014	2.	5.e-002	10.489
30106	1.9868e-014	2.2727	0.1	4088.1
30107	1.9331e-014	2.1818	5.e-002	3.9702
30108	2.1457e-014	2.4545	0.1	4124.7
30109	2.0942e-014	2.3636	5.e-002	4.3339
30110	2.3047e-014	2.6364	0.1	4151.3
30111	2.2553e-014	2.5455	5.e-002	8.153
30112	2.4636e-014	2.8182	0.1	4167.5
30113	2.4164e-014	2.7273	5.e-002	10.879
30114	2.6226e-014	3.	0.1	4173.
30115	2.5775e-014	2.9091	5.e-002	12.236
30116	2.7815e-014	3.1818	0.1	4167.5
30117	2.7386e-014	3.0909	5.e-002	12.236
30118	2.9405e-014	3.3636	0.1	4151.3
30119	2.8997e-014	3.2727	5.e-002	10.879
30120	3.0994e-014	3.5455	0.1	4124.7
30121	3.0608e-014	3.4545	5.e-002	8.153
30122	3.2583e-014	3.7273	0.1	4088.1
30123	3.2219e-014	3.6364	5.e-002	4.3339
30124	3.4173e-014	3.9091	0.1	4041.3
30125	3.383e-014	3.8182	5.e-002	3.9702
30126	3.5762e-014	4.0909	0.1	3983.6
30127	3.5441e-014	4.	5.e-002	10.489
30128	3.7352e-014	4.2727	0.1	3913.3
30129	3.7052e-014	4.1818	5.e-002	18.862
30130	3.8941e-014	4.4545	0.1	3827.6
30131	3.8663e-014	4.3636	5.e-002	28.224
30132	4.0531e-014	4.6364	0.1	3722.8
30133	4.0274e-014	4.5455	5.e-002	38.197
30134	4.212e-014	4.8182	0.1	3593.2
30135	4.1885e-014	4.7273	5.e-002	48.553
30136	4.371e-014	5.	0.1	3430.2
30137	4.3495e-014	4.9091	5.e-002	59.21
30138	4.5299e-014	5.1818	0.1	3218.6
30139	4.5106e-014	5.0909	5.e-002	70.258
30140	4.6888e-014	5.3636	0.1	2928.1
30141	4.6717e-014	5.2727	5.e-002	81.279
30142	4.8478e-014	5.5455	0.1	2500.6
30143	4.8328e-014	5.4545	5.e-002	89.821
30144	5.0067e-014	5.7273	0.1	1737.5
30145	4.9939e-014	5.6364	5.e-002	94.909
30146	5.1657e-014	5.9091	0.1	1295.5
30147	5.155e-014	5.8182	5.e-002	144.78
30148	23.908	0.	0.1	24.013
30149	24.	0.	5.e-002	7.8633
30150	23.723	0.	0.1	57.324
30151	23.815	0.	5.e-002	20.524
30152	23.538	0.	0.1	92.874
30153	23.63	0.	5.e-002	30.453
30154	23.353	0.	0.1	129.6
30155	23.446	0.	5.e-002	38.156
30156	23.169	0.	0.1	167.24
30157	23.261	0.	5.e-002	44.729
30158	22.984	0.	0.1	205.47
30159	23.076	0.	5.e-002	50.516
30160	22.799	0.	0.1	244.14
30161	22.891	0.	5.e-002	55.699
30162	22.614	0.	0.1	283.15
30163	22.707	0.	5.e-002	60.394
30164	22.429	0.	0.1	322.44
30165	22.522	0.	5.e-002	64.682
30166	22.245	0.	0.1	361.96
30167	22.337	0.	5.e-002	68.621
30168	22.06	0.	0.1	401.68
30169	22.152	0.	5.e-002	72.256
30170	21.875	0.	0.1	441.59
30171	21.968	0.	5.e-002	75.622
30172	21.69	0.	0.1	481.67
30173	21.783	0.	5.e-002	78.749
30174	21.506	0.	0.1	521.92
30175	21.598	0.	5.e-002	81.662
30176	21.321	0.	0.1	562.32
30177	21.413	0.	5.e-002	84.38
30178	21.136	0.	0.1	602.87
30179	21.228	0.	5.e-002	86.923
30180	20.951	0.	0.1	643.57
30181	21.044	0.	5.e-002	89.305
30182	20.767	0.	0.1	684.43
30183	20.859	0.	5.e-002	91.541
30184	20.582	0.	0.1	725.44
30185	20.674	0.	5.e-002	93.642
30186	20.397	0.	0.1	766.6
30187	20.489	0.	5.e-002	95.62
30188	20.212	0.	0.1	807.92
30189	20.305	0.	5.e-002	97.485
30190	20.027	0.	0.1	849.4
30191	20.12	0.	5.e-002	99.245
30192	19.843	0.	0.1	891.04
30193	19.935	0.	5.e-002	100.91
30194	19.658	0.	0.1	932.84
30195	19.75	0.	5.e-002	102.48
30196	19.473	0.	0.1	974.81
30197	19.566	0.	5.e-002	103.98
30198	19.288	0.	0.1	1017.
30199	19.381	0.	5.e-002	105.39
30200	19.104	0.	0.1	1059.3
30201	19.196	0.	5.e-002	106.74
30202	18.919	0.	0.1	1101.7
30203	19.011	0.	5.e-002	108.02
30204	18.734	0.	0.1	1144.4
30205	18.826	0.	5.e-002	109.24
30206	18.549	0.	0.1	1187.2
30207	18.642	0.	5.e-002	110.4
30208	18.365	0.	0.1	1230.3
30209	18.457	0.	5.e-002	111.51
30210	18.18	0.	0.1	1273.5
30211	18.272	0.	5.e-002	112.57
30212	17.995	0.	0.1	1316.9
30213	18.087	0.	5.e-002	113.59
30214	17.81	0.	0.1	1360.4
30215	17.903	0.	5.e-002	114.56
30216	17.625	0.	0.1	1404.2
30217	17.718	0.	5.e-002	115.5
30218	17.441	0.	0.1	1448.2
30219	17.533	0.	5.e-002	116.4
30220	17.256	0.	0.1	1492.3
30221	17.348	0.	5.e-002	117.26
30222	17.071	0.	0.1	1536.6
30223	17.164	0.	5.e-002	118.08
30224	16.886	0.	0.1	1581.2
30225	16.979	0.	5.e-002	118.88
30226	16.702	0.	0.1	1625.9
30227	16.794	0.	5.e-002	119.65
30228	16.517	0.	0.1	1670.8
30229	16.609	0.	5.e-002	120.39
30230	16.332	0.	0.1	1715.9
30231	16.424	0.	5.e-002	121.1
30232	16.147	0.	0.1	1761.2
30233	16.24	0.	5.e-002	121.78
30234	15.963	0.	0.1	1806.8
30235	16.055	0.	5.e-002	122.44
30236	15.778	0.	0.1	1852.5
30237	15.87	0.	5.e-002	123.07
30238	15.593	0.	0.1	1898.4
30239	15.685	0.	5.e-002	123.68
30240	15.408	0.	0.1	1944.5
30241	15.501	0.	5.e-002	124.27
30242	15.223	0.	0.1	1990.8
30243	15.316	0.	5.e-002	124.83
30244	15.039	0.	0.1	2037.4
30245	15.131	0.	5.e-002	125.37
30246	14.854	0.	0.1	2084.1
30247	14.946	0.	5.e-002	125.88
30248	14.669	0.	0.1	2131.
30249	14.761	0.	5.e-002	126.37
30250	14.484	0.	0.1	2178.2
30251	14.577	0.	5.e-002	126.84
30252	14.3	0.	0.1	2225.5
30253	14.392	0.	5.e-002	127.28
30254	14.115	0.	0.1	2273.1
30255	14.207	0.	5.e-002	127.7
30256	13.93	0.	0.1	2320.8
30257	14.022	0.	5.e-002	128.08
30258	13.745	0.	0.1	2368.8
30259	13.838	0.	5.e-002	128.44
30260	13.56	0.	0.1	2417.
30261	13.653	0.	5.e-002	128.78
30262	13.376	0.	0.1	2465.4
30263	13.468	0.	5.e-002	129.08
30264	13.191	0.	0.1	2514.
30265	13.283	0.	5.e-002	129.35
30266	13.006	0.	0.1	2562.8
30267	13.099	0.	5.e-002	129.58
30268	12.821	0.	0.1	2611.9
30269	12.914	0.	5.e-002	129.78
30270	12.637	0.	0.1	2661.1
30271	12.729	0.	5.e-002	129.94
30272	12.452	0.	0.1	2710.6
30273	12.544	0.	5.e-002	130.07
30274	12.267	0.	0.1	2760.3
30275	12.359	0.	5.e-002	130.14
30276	12.082	0.	0.1	2810.2
30277	12.175	0.	5.e-002	130.18
30278	11.898	0.	0.1	2860.3
30279	11.99	0.	5.e-002	130.16
30280	11.713	0.	0.1	2910.7
30281	11.805	0.	5.e-002	130.09
30282	11.528	0.	0.1	2961.3
30283	11.62	0.	5.e-002	129.96
30284	11.343	0.	0.1	3012.1
30285	11.436	0.	5.e-002	129.78
30286	11.158	0.	0.1	3063.1
30287	11.251	0.	5.e-002	129.53
30288	10.974	0.	0.1	3114.4
30289	11.066	0.	5.e-002	129.21
30290	10.789	0.	0.1	3165.9
30291	10.881	0.	5.e-002	128.81
30292	10.604	0.	0.1	3217.6
30293	10.697	0.	5.e-002	128.33
30294	10.419	0.	0.1	3269.6
30295	10.512	0.	5.e-002	127.77
30296	10.235	0.	0.1	3321.8
30297	10.327	0.	5.e-002	127.12
30298	10.05	0.	0.1	3374.2
30299	10.142	0.	5.e-002	126.38
30300	9.8651	0.	0.1	3426.8
30301	9.9575	0.	5.e-002	125.53
30302	9.6803	0.	0.1	3479.7
30303	9.7727	0.	5.e-002	124.56
30304	9.4955	0.	0.1	3532.8
30305	9.5879	0.	5.e-002	123.49
30306	9.3108	0.	0.1	3586.1
30307	9.4032	0.	5.e-002	122.29
30308	9.126	0.	0.1	3639.6
30309	9.2184	0.	5.e-002	120.97
30310	8.9412	0.	0.1	3693.3
30311	9.0336	0.	5.e-002	119.51
30312	8.7565	0.	0.1	3747.2
30313	8.8489	0.	5.e-002	117.91
30314	8.5717	0.	0.1	3801.1
30315	8.6641	0.	5.e-002	116.17
30316	8.3869	0.	0.1	3855.2
30317	8.4793	0.	5.e-002	114.29
30318	8.2022	0.	0.1	3909.3
30319	8.2945	0.	5.e-002	112.27
30320	8.0174	0.	0.1	3963.3
30321	8.1098	0.	5.e-002	110.1
30322	7.8326	0.	0.1	4017.2
30323	7.925	0.	5.e-002	107.8
30324	7.6478	0.	0.1	4070.8
30325	7.7402	0.	5.e-002	105.37
30326	7.4631	0.	0.1	4124.
30327	7.5555	0.	5.e-002	102.84
30328	7.2783	0.	0.1	4176.6
30329	7.3707	0.	5.e-002	100.21
30330	7.0935	0.	0.1	4228.3
30331	7.1859	0.	5.e-002	97.533
30332	6.9088	0.	0.1	4278.7
30333	7.0011	0.	5.e-002	94.836
30334	6.724	0.	0.1	4327.5
30335	6.8164	0.	5.e-002	92.177
30336	6.5392	0.	0.1	4374.
30337	6.6316	0.	5.e-002	89.621
30338	6.3545	0.	0.1	4417.7
30339	6.4468	0.	5.e-002	87.255
30340	6.1697	0.	0.1	4457.5
30341	6.2621	0.	5.e-002	85.18
30342	5.9849	0.	0.1	4492.5
30343	6.0773	0.	5.e-002	83.524
30344	5.8001	0.	0.1	4521.2
30345	5.8925	0.	5.e-002	82.435
30346	5.6154	0.	0.1	4541.8
30347	5.7078	0.	5.e-002	82.088
30348	5.4306	0.	0.1	4552.4
30349	5.523	0.	5.e-002	82.684
30350	5.2458	0.	0.1	4550.1
30351	5.3382	0.	5.e-002	84.439
30352	5.0611	0.	0.1	4531.7
30353	5.1534	0.	5.e-002	87.587
30354	4.8763	0.	0.1	4493.3
30355	4.9687	0.	5.e-002	92.354
30356	4.6915	0.	0.1	4430.2
30357	4.7839	0.	5.e-002	98.935
30358	4.5068	0.	0.1	4336.8
30359	4.5991	0.	5.e-002	107.45
30360	4.322	0.	0.1	4206.6
30361	4.4144	0.	5.e-002	117.88
30362	4.1372	0.	0.1	4032.5
30363	4.2296	0.	5.e-002	129.97
30364	3.9524	0.	0.1	3806.9
30365	4.0448	0.	5.e-002	143.12
30366	3.7677	0.	0.1	3522.3
30367	3.8601	0.	5.e-002	156.21
30368	3.5829	0.	0.1	3171.9
30369	3.6753	0.	5.e-002	167.42
30370	3.3981	0.	0.1	2751.1
30371	3.4905	0.	5.e-002	174.04
30372	3.2134	0.	0.1	2257.6
30373	3.3057	0.	5.e-002	172.29
30374	3.0286	0.	0.1	1692.6
30375	3.121	0.	5.e-002	156.75
30376	2.8438	0.	0.1	1050.9
30377	2.9362	0.	5.e-002	121.52
30378	2.6591	0.	0.1	367.29
30379	2.7514	0.	5.e-002	45.853
30380	2.5667	0.	5.e-002	66.76
30381	2.3077	1.1665e-031	0.1	482.75
30382	2.4	1.2132e-031	5.e-002	91.077
30383	2.1231	1.0732e-031	0.1	1362.5
30384	2.2154	0.	5.e-002	109.65
30385	1.9385	9.7988e-032	0.1	2157.2
30386	2.0308	0.	5.e-002	260.53
30387	1.7538	8.8656e-032	0.1	2843.4
30388	1.8462	0.	5.e-002	362.78
30389	1.5692	7.9324e-032	0.1	3434.
30390	1.6615	0.	5.e-002	444.69
30391	1.3846	6.9991e-032	0.1	3927.2
30392	1.4769	0.	5.e-002	514.08
30393	1.2	6.0659e-032	0.1	4319.9
30394	1.2923	0.	5.e-002	578.45
30395	1.0154	5.1327e-032	0.1	4605.9
30396	1.1077	0.	5.e-002	643.72
30397	0.83077	4.1995e-032	0.1	4771.7
30398	0.92308	0.	5.e-002	715.21
30399	0.64615	3.2663e-032	0.1	4785.8
30400	0.73846	0.	5.e-002	799.37
30401	0.46154	2.333e-032	0.1	4581.2
30402	0.55385	0.	5.e-002	903.32
30403	0.27692	1.3998e-032	0.1	3928.6
30404	0.36923	0.	5.e-002	1047.8
30405	9.2308e-002	4.6661e-033	0.1	2364.6
30406	0.18462	0.	5.e-002	1341.
30407	0.	0.	5.e-002	1790.7
30408	9.2308e-002	6.	0.1	2364.6
30409	5.2451e-014	6.	5.e-002	1790.7
30410	0.27692	6.	0.1	3928.6
30411	0.18462	6.	5.e-002	1341.
30412	0.46154	6.	0.1	4581.2
30413	0.36923	6.	5.e-002	1047.8
30414	0.64615	6.	0.1	4785.8
30415	0.55385	6.	5.e-002	903.32
30416	0.83077	6.	0.1	4771.7
30417	0.73846	6.	5.e-002	799.37
30418	1.0154	6.	0.1	4605.9
30419	0.92308	6.	5.e-002	715.21
30420	1.2	6.	0.1	4319.9
30421	1.1077	6.	5.e-002	643.72
30422	1.3846	6.	0.1	3927.2
30423	1.2923	6.	5.e-002	578.45
30424	1.5692	6.	0.1	3434.
30425	1.4769	6.	5.e-002	514.08
30426	1.7538	6.	0.1	2843.4
30427	1.6615	6.	5.e-002	444.69
30428	1.9385	6.	0.1	2157.2
30429	1.8462	6.	5.e-002	362.78
30430	2.1231	6.	0.1	1362.5
30431	2.0308	6.	5.e-002	260.53
30432	2.3077	6.	0.1	482.75
30433	2.2154	6.	5.e-002	109.65
30434	2.4	6.	5.e-002	91.077
30435	2.1231	6.	0.	1362.5
30436	2.3077	6.	0.	482.75
30437	1.9385	6.	0.	2157.2
30438	1.7538	6.	0.	2843.4
30439	1.5692	6.	0.	3434.
30440	1.3846	6.	0.	3927.2
30441	1.2	6.	0.	4319.9
30442	1.0154	6.	0.	4605.9
30443	0.83077	6.	0.	4771.7
30444	0.64615	6.	0.	4785.8
30445	0.46154	6.	0.	4581.2
30446	0.27692	6.	0.	3928.6
30447	9.2308e-002	6.	0.	2364.6
30448	2.4	5.9091	0.	419.85
30449	5.1657e-014	5.9091	0.	1295.5
30450	0.27692	1.3998e-032	0.	3928.6
30451	9.2308e-002	4.6661e-033	0.	2364.6
30452	0.46154	2.333e-032	0.	4581.2
30453	0.64615	3.2663e-032	0.	4785.8
30454	0.83077	4.1995e-032	0.	4771.7
30455	1.0154	5.1327e-032	0.	4605.9
30456	1.2	6.0659e-032	0.	4319.9
30457	1.3846	6.9991e-032	0.	3927.2
30458	1.5692	7.9324e-032	0.	3434.
30459	1.7538	8.8656e-032	0.	2843.4
30460	1.9385	9.7988e-032	0.	2157.2
30461	2.1231	1.0732e-031	0.	1362.5
30462	2.3077	1.1665e-031	0.	482.75
30463	2.4	9.0909e-002	0.	419.85
30464	7.9472e-016	9.0909e-002	0.	1295.5
30465	2.8438	0.	0.	1050.9
30466	2.6591	0.	0.	367.29
30467	3.0286	0.	0.	1692.6
30468	3.2134	0.	0.	2257.6
30469	3.3981	0.	0.	2751.1
30470	3.5829	0.	0.	3171.9
30471	3.7677	0.	0.	3522.3
30472	3.9524	0.	0.	3806.9
30473	4.1372	0.	0.	4032.5
30474	4.322	0.	0.	4206.6
30475	4.5068	0.	0.	4336.8
30476	4.6915	0.	0.	4430.2
30477	4.8763	0.	0.	4493.3
30478	5.0611	0.	0.	4531.7
30479	5.2458	0.	0.	4550.1
30480	5.4306	0.	0.	4552.4
30481	5.6154	0.	0.	4541.8
30482	5.8001	0.	0.	4521.2
30483	5.9849	0.	0.	4492.5
30484	6.1697	0.	0.	4457.5
30485	6.3545	0.	0.	4417.7
30486	6.5392	0.	0.	4374.
30487	6.724	0.	0.	4327.5
30488	6.9088	0.	0.	4278.7
30489	7.0935	0.	0.	4228.3
30490	7.2783	0.	0.	4176.6
30491	7.4631	0.	0.	4124.
30492	7.6478	0.	0.	4070.8
30493	7.8326	0.	0.	4017.2
30494	8.0174	0.	0.	3963.3
30495	8.2022	0.	0.	3909.3
30496	8.3869	0.	0.	3855.2
30497	8.5717	0.	0.	3801.1
30498	8.7565	0.	0.	3747.2
30499	8.9412	0.	0.	3693.3
30500	9.126	0.	0.	3639.6
30501	9.3108	0.	0.	3586.1
30502	9.4955	0.	0.	3532.8
30503	9.6803	0.	0.	3479.7
30504	9.8651	0.	0.	3426.8
30505	10.05	0.	0.	3374.2
30506	10.235	0.	0.	3321.8
30507	10.419	0.	0.	3269.6
30508	10.604	0.	0.	3217.6
30509	10.789	0.	0.	3165.9
30510	10.974	0.	0.	3114.4
30511	11.158	0.	0.	3063.1
30512	11.343	0.	0.	3012.1
30513	11.528	0.	0.	2961.3
30514	11.713	0.	0.	2910.7
30515	11.898	0.	0.	2860.3
30516	12.082	0.	0.	2810.2
30517	12.267	0.	0.	2760.3
30518	12.452	0.	0.	2710.6
30519	12.637	0.	0.	2661.1
30520	12.821	0.	0.	2611.9
30521	13.006	0.	0.	2562.8
30522	13.191	0.	0.	2514.
30523	13.376	0.	0.	2465.4
30524	13.56	0.	0.	2417.
30525	13.745	0.	0.	2368.8
30526	13.93	0.	0.	2320.8
30527	14.115	0.	0.	2273.1
30528	14.3	0.	0.	2225.5
30529	14.484	0.	0.	2178.2
30530	14.669	0.	0.	2131.
30531	14.854	0.	0.	2084.1
30532	15.039	0.	0.	2037.4
30533	15.223	0.	0.	1990.8
30534	15.408	0.	0.	1944.5
30535	15.593	0.	0.	1898.4
30536	15.778	0.	0.	1852.5
30537	15.963	0.	0.	1806.8
30538	16.147	0.	0.	1761.3
30539	16.332	0.	0.	1715.9
30540	16.517	0.	0.	1670.8
30541	16.702	0.	0.	1625.9
30542	16.886	0.	0.	1581.2
30543	17.071	0.	0.	1536.6
30544	17.256	0.	0.	1492.3
30545	17.441	0.	0.	1448.2
30546	17.625	0.	0.	1404.2
30547	17.81	0.	0.	1360.4
30548	17.995	0.	0.	1316.9
30549	18.18	0.	0.	1273.5
30550	18.365	0.	0.	1230.3
30551	18.549	0.	0.	1187.2
30552	18.734	0.	0.	1144.4
30553	18.919	0.	0.	1101.7
30554	19.104	0.	0.	1059.3
30555	19.288	0.	0.	1017.
30556	19.473	0.	0.	974.81
30557	19.658	0.	0.	932.84
30558	19.843	0.	0.	891.04
30559	20.027	0.	0.	849.4
30560	20.212	0.	0.	807.92
30561	20.397	0.	0.	766.6
30562	20.582	0.	0.	725.44
30563	20.767	0.	0.	684.43
30564	20.951	0.	0.	643.57
30565	21.136	0.	0.	602.87
30566	21.321	0.	0.	562.32
30567	21.506	0.	0.	521.92
30568	21.69	0.	0.	481.67
30569	21.875	0.	0.	441.59
30570	22.06	0.	0.	401.68
30571	22.245	0.	0.	361.96
30572	22.429	0.	0.	322.44
30573	22.614	0.	0.	283.15
30574	22.799	0.	0.	244.14
30575	22.984	0.	0.	205.47
30576	23.169	0.	0.	167.24
30577	23.353	0.	0.	129.6
30578	23.538	0.	0.	92.874
30579	23.723	0.	0.	57.324
30580	23.908	0.	0.	24.013
30581	2.5667	9.0909e-002	0.	298.73
30582	24.	9.0909e-002	0.	23.229
30583	5.0067e-014	5.7273	0.	1737.5
30584	4.8478e-014	5.5455	0.	2500.6
30585	4.6888e-014	5.3636	0.	2928.1
30586	4.5299e-014	5.1818	0.	3218.6
30587	4.371e-014	5.	0.	3430.2
30588	4.212e-014	4.8182	0.	3593.2
30589	4.0531e-014	4.6364	0.	3722.8
30590	3.8941e-014	4.4545	0.	3827.6
30591	3.7352e-014	4.2727	0.	3913.3
30592	3.5762e-014	4.0909	0.	3983.6
30593	3.4173e-014	3.9091	0.	4041.3
30594	3.2583e-014	3.7273	0.	4088.1
30595	3.0994e-014	3.5455	0.	4124.7
30596	2.9405e-014	3.3636	0.	4151.3
30597	2.7815e-014	3.1818	0.	4167.5
30598	2.6226e-014	3.	0.	4173.
30599	2.4636e-014	2.8182	0.	4167.5
30600	2.3047e-014	2.6364	0.	4151.3
30601	2.1457e-014	2.4545	0.	4124.7
30602	1.9868e-014	2.2727	0.	4088.1
30603	1.8279e-014	2.0909	0.	4041.3
30604	1.6689e-014	1.9091	0.	3983.6
30605	1.51e-014	1.7273	0.	3913.3
30606	1.351e-014	1.5455	0.	3827.6
30607	1.1921e-014	1.3636	0.	3722.8
30608	1.0331e-014	1.1818	0.	3593.2
30609	8.7419e-015	1.	0.	3430.2
30610	7.1525e-015	0.81818	0.	3218.6
30611	5.563e-015	0.63636	0.	2928.1
30612	3.9736e-015	0.45455	0.	2500.6
30613	2.3842e-015	0.27273	0.	1737.5
30614	24.	0.27273	0.	53.325
30615	24.	0.45455	0.	77.61
30616	24.	0.63636	0.	96.939
30617	24.	0.81818	0.	113.21
30618	24.	1.	0.	127.16
30619	24.	1.1818	0.	139.22
30620	24.	1.3636	0.	149.66
30621	24.	1.5455	0.	158.68
30622	24.	1.7273	0.	166.4
30623	24.	1.9091	0.	172.94
30624	24.	2.0909	0.	178.37
30625	24.	2.2727	0.	182.74
30626	24.	2.4545	0.	186.09
30627	24.	2.6364	0.	188.47
30628	24.	2.8182	0.	189.89
30629	24.	3.	0.	190.36
30630	24.	3.1818	0.	189.89
30631	24.	3.3636	0.	188.47
30632	24.	3.5455	0.	186.09
30633	24.	3.7273	0.	182.74
30634	24.	3.9091	0.	178.37
30635	24.	4.0909	0.	172.94
30636	24.	4.2727	0.	166.4
30637	24.	4.4545	0.	158.68
30638	24.	4.6364	0.	149.66
30639	24.	4.8182	0.	139.22
30640	24.	5.	0.	127.16
30641	24.	5.1818	0.	113.21
30642	24.	5.3636	0.	96.939
30643	24.	5.5455	0.	77.61
30644	24.	5.7273	0.	53.325
30645	24.	5.9091	0.	23.229
30646	23.908	6.	0.	24.013
30647	23.723	6.	0.	57.324
30648	23.538	6.	0.	92.874
30649	23.353	6.	0.	129.6
30650	23.169	6.	0.	167.24
30651	22.984	6.	0.	205.47
30652	22.799	6.	0.	244.14
30653	22.614	6.	0.	283.15
30654	22.429	6.	0.	322.44
30655	22.245	6.	0.	361.96
30656	22.06	6.	0.	401.68
30657	21.875	6.	0.	441.59
30658	21.69	6.	0.	481.67
30659	21.506	6.	0.	521.92
30660	21.321	6.	0.	562.32
30661	21.136	6.	0.	602.87
30662	20.951	6.	0.	643.57
30663	20.767	6.	0.	684.43
30664	20.582	6.	0.	725.44
30665	20.397	6.	0.	766.6
30666	20.212	6.	0.	807.92
30667	20.027	6.	0.	849.4
30668	19.843	6.	0.	891.04
30669	19.658	6.	0.	932.84
30670	19.473	6.	0.	974.81
30671	19.288	6.	0.	1017.
30672	19.104	6.	0.	1059.3
30673	18.919	6.	0.	1101.7
30674	18.734	6.	0.	1144.4
30675	18.549	6.	0.	1187.2
30676	18.365	6.	0.	1230.3
30677	18.18	6.	0.	1273.5
30678	17.995	6.	0.	1316.9
30679	17.81	6.	0.	1360.4
30680	17.625	6.	0.	1404.2
30681	17.441	6.	0.	1448.2
30682	17.256	6.	0.	1492.3
30683	17.071	6.	0.	1536.6
30684	16.886	6.	0.	1581.2
30685	16.702	6.	0.	1625.9
30686	16.517	6.	0.	1670.8
30687	16.332	6.	0.	1715.9
30688	16.147	6.	0.	1761.2
30689	15.963	6.	0.	1806.8
30690	15.778	6.	0.	1852.5
30691	15.593	6.	0.	1898.4
30692	15.408	6.	0.	1944.5
30693	15.223	6.	0.	1990.8
30694	15.039	6.	0.	2037.4
30695	14.854	6.	0.	2084.1
30696	14.669	6.	0.	2131.
30697	14.484	6.	0.	2178.2
30698	14.3	6.	0.	2225.5
30699	14.115	6.	0.	2273.1
30700	13.93	6.	0.	2320.8
30701	13.745	6.	0.	2368.8
30702	13.56	6.	0.	2417.
30703	13.376	6.	0.	2465.4
30704	13.191	6.	0.	2514.
30705	13.006	6.	0.	2562.8
30706	12.821	6.	0.	2611.9
30707	12.637	6.	0.	2661.1
30708	12.452	6.	0.	2710.6
30709	12.267	6.	0.	2760.3
30710	12.082	6.	0.	2810.2
30711	11.898	6.	0.	2860.3
30712	11.713	6.	0.	2910.7
30713	11.528	6.	0.	2961.3
30714	11.343	6.	0.	3012.1
30715	11.158	6.	0.	3063.1
30716	10.974	6.	0.	3114.4
30717	10.789	6.	0.	3165.9
30718	10.604	6.	0.	3217.6
30719	10.419	6.	0.	3269.6
30720	10.235	6.	0.	3321.8
30721	10.05	6.	0.	3374.2
30722	9.8651	6.	0.	3426.8
30723	9.6803	6.	0.	3479.7
30724	9.4955	6.	0.	3532.8
30725	9.3108	6.	0.	3586.1
30726	9.126	6.	0.	3639.6
30727	8.9412	6.	0.	3693.3
30728	8.7565	6.	0.	3747.2
30729	8.5717	6.	0.	3801.1
30730	8.3869	6.	0.	3855.2
30731	8.2022	6.	0.	3909.3
30732	8.0174	6.	0.	3963.3
30733	7.8326	6.	0.	4017.2
30734	7.6478	6.	0.	4070.8
30735	7.4631	6.	0.	4124.
30736	7.2783	6.	0.	4176.6
30737	7.0935	6.	0.	4228.3
30738	6.9088	6.	0.	4278.7
30739	6.724	6.	0.	4327.5
30740	6.5392	6.	0.	4374.
30741	6.3545	6.	0.	4417.7
30742	6.1697	6.	0.	4457.5
30743	5.9849	6.	0.	4492.5
30744	5.8001	6.	0.	4521.2
30745	5.6154	6.	0.	4541.8
30746	5.4306	6.	0.	4552.4
30747	5.2458	6.	0.	4550.1
30748	5.0611	6.	0.	4531.7
30749	4.8763	6.	0.	4493.3
30750	4.6915	6.	0.	4430.2
30751	4.5068	6.	0.	4336.8
30752	4.322	6.	0.	4206.6
30753	4.1372	6.	0.	4032.5
30754	3.9524	6.	0.	3806.9
30755	3.7677	6.	0.	3522.3
30756	3.5829	6.	0.	3171.9
30757	3.3981	6.	0.	2751.1
30758	3.2134	6.	0.	2257.6
30759	3.0286	6.	0.	1692.6
30760	2.8438	6.	0.	1050.9
30761	2.6591	6.	0.	367.29
30762	2.5667	5.9091	0.	298.73
30763	2.4	1.7273	0.	10021
30764	2.4	1.9091	0.	18867
30765	2.4	1.5455	0.	6814.8
30766	2.4	1.3636	0.	5517.6
30767	2.4	1.1818	0.	4505.7
30768	2.4	1.	0.	3715.6
30769	2.4	0.81818	0.	3036.1
30770	2.4	0.63636	0.	2411.8
30771	2.4	0.45455	0.	1803.3
30772	2.4	0.27273	0.	1159.2
30773	2.4833	2.	0.	25995
30774	2.5667	0.27273	0.	826.54
30775	2.5667	0.45455	0.	1301.7
30776	2.5667	0.63636	0.	1779.3
30777	2.5667	0.81818	0.	2301.6
30778	2.5667	1.	0.	2904.9
30779	2.5667	1.1818	0.	3641.8
30780	2.5667	1.3636	0.	4621.5
30781	2.5667	1.5455	0.	5909.
30782	2.5667	1.7273	0.	9098.5
30783	2.5667	1.9091	0.	18151
30784	2.4	4.2727	0.	10021
30785	2.4	4.0909	0.	18867
30786	2.4	4.4545	0.	6814.8
30787	2.4	4.6364	0.	5517.6
30788	2.4	4.8182	0.	4505.7
30789	2.4	5.	0.	3715.6
30790	2.4	5.1818	0.	3036.1
30791	2.4	5.3636	0.	2411.8
30792	2.4	5.5455	0.	1803.3
30793	2.4	5.7273	0.	1159.2
30794	2.4833	4.	0.	25995
30795	2.5667	5.7273	0.	826.54
30796	2.5667	5.5455	0.	1301.7
30797	2.5667	5.3636	0.	1779.3
30798	2.5667	5.1818	0.	2301.6
30799	2.5667	5.	0.	2904.9
30800	2.5667	4.8182	0.	3641.8
30801	2.5667	4.6364	0.	4621.5
30802	2.5667	4.4545	0.	5909.
30803	2.5667	4.2727	0.	9098.5
30804	2.5667	4.0909	0.	18151
