Node Numbers,X Locations (inches),Y Locations (inches),Z Locations (inches),Equivalent Elastic Strains (in/in),Equivalent Stress (psi),Max Principal Elastic Strain (in/in),Max Principal Stress (psi),Middle Principal Elastic Strain (in/in),Middle Principal Stress (psi),Min Principal Elastic Strain (in/in),Min Principal Stress (psi),Total Deformation (in)
1,10.6,2.1818,0,0.001212,12112,0.00051243,1449.6,0.00033804,139.34,-0.0011797,-11264,0.5777
2,10.6,2.3636,0,0.0009599,9592.4,0.00041222,1145.9,0.0002557,-30.045,-0.00093549,-8980.2,0.57865
3,10.6,2.5455,0,0.0008471,8465.2,0.00035859,962.6,0.00023056,0.64221,-0.0008266,-7942.5,0.57932
4,10.6,2.7273,0,0.00078866,7881.1,0.00033154,865.29,0.00021593,-3.3559,-0.00077039,-7414.2,0.57975
5,10.6,2.9091,0,0.00076371,7631.8,0.00031965,821.44,0.00021009,-1.7589,-0.00074643,-7188.6,0.57996
6,10.6,3.0909,0,0.00076371,7631.8,0.00031965,821.44,0.00021009,-1.7589,-0.00074643,-7188.6,0.57996
7,10.6,3.2727,0,0.00078866,7881.1,0.00033154,865.29,0.00021593,-3.3559,-0.00077039,-7414.2,0.57975
8,10.6,3.4545,0,0.0008471,8465.2,0.00035859,962.6,0.00023056,0.64221,-0.0008266,-7942.5,0.57932
9,10.6,3.6364,0,0.0009599,9592.4,0.00041222,1145.9,0.0002557,-30.045,-0.00093549,-8980.2,0.57865
10,10.6,3.8182,0,0.001212,12112,0.00051243,1449.6,0.00033804,139.34,-0.0011797,-11264,0.5777
11,10.767,2.1818,0,0.0011966,11957,0.00048868,1172.9,0.00034038,58.638,-0.0011717,-11303,0.59563
12,10.767,2.3636,0,0.00095464,9539.8,0.00040357,1059.5,0.00025838,-31.403,-0.00093246,-8978.9,0.59655
13,10.767,2.5455,0,0.00084109,8405.1,0.00035201,906.15,0.00023156,1.179,-0.00082199,-7914.8,0.59721
14,10.767,2.7273,0,0.00078256,7820.2,0.000326,821.89,0.00021618,-3.3034,-0.00076536,-7378.2,0.59764
15,10.767,2.9091,0,0.00075753,7570,0.00031445,782.66,0.00021007,-1.5916,-0.00074118,-7149,0.59785
16,10.767,3.0909,0,0.00075753,7570,0.00031445,782.66,0.00021007,-1.5916,-0.00074118,-7149,0.59785
17,10.767,3.2727,0,0.00078256,7820.2,0.000326,821.89,0.00021618,-3.3034,-0.00076536,-7378.2,0.59764
18,10.767,3.4545,0,0.00084109,8405.1,0.00035201,906.15,0.00023156,1.179,-0.00082199,-7914.8,0.59721
19,10.767,3.6364,0,0.00095464,9539.8,0.00040357,1059.5,0.00025838,-31.403,-0.00093246,-8978.9,0.59655
20,10.767,3.8182,0,0.0011966,11957,0.00048868,1172.9,0.00034038,58.638,-0.0011717,-11303,0.59563
21,10.417,5.8182,0,6.8049e-05,680.02,3.2094e-05,108.96,1.5382e-05,-16.607,-6.5602e-05,-625.09,0.54284
22,10.417,5.6364,0,9.9964e-05,998.95,5.2933e-05,243.66,1.949e-05,-7.6204,-9.3547e-05,-856.94,0.54436
23,10.417,5.4545,0,0.0001404,1403,8.2245e-05,448.61,2.1764e-05,-5.8212,-0.00012723,-1125.3,0.54588
24,10.417,5.2727,0,0.00018602,1858.9,0.0001162,692.88,2.3299e-05,-5.159,-0.00016421,-1414,0.54741
25,10.417,5.0909,0,0.00023791,2377.4,0.00015515,976.31,2.4538e-05,-5.0666,-0.00020566,-1734.7,0.54894
26,10.417,4.9091,0,0.00029862,2984.2,0.00020071,1307.9,2.5761e-05,-6.5265,-0.0002539,-2107.8,0.55048
27,10.417,4.7273,0,0.00037277,3725.2,0.00025575,1707.5,2.7885e-05,-4.6592,-0.00031301,-2566,0.55201
28,10.417,4.5455,0,0.00046863,4683.1,0.00032543,2194.7,3.0777e-05,-19.202,-0.00039055,-3184.9,0.55353
29,10.417,4.3636,0,0.00060494,6045.2,0.00042121,2869.9,4.132e-05,15.57,-0.00050297,-4074,0.55501
30,10.417,4.1818,0,0.0008062,8056.4,0.00053213,3347.3,7.1996e-05,-109.95,-0.00069338,-5860.7,0.55642
31,10.417,4,0,0.0009557,9550.4,0.00053204,2453.1,0.000144,-462.48,-0.00088783,-8215.2,0.55769
32,10.417,3.8182,0,0.00090294,9023.2,0.00039569,1203.8,0.00023798,18.815,-0.00087628,-8353.3,0.55876
33,10.417,3.6364,0,0.00084678,8461.9,0.00035992,972.11,0.00022871,-13.716,-0.00082615,-7939.6,0.5596
34,10.417,3.4545,0,0.00078679,7862.5,0.00032803,834.05,0.0002176,4.2824,-0.00076924,-7410.4,0.56022
35,10.417,3.2727,0,0.00075188,7513.6,0.000312,774.74,0.00020851,-2.8412,-0.00073572,-7097.4,0.56063
36,10.417,3.0909,0,0.00073528,7347.8,0.00030405,745.76,0.00020471,-0.64239,-0.00071976,-6946.7,0.56083
37,10.417,2.9091,0,0.00073528,7347.8,0.00030405,745.76,0.00020471,-0.64239,-0.00071976,-6946.7,0.56083
38,10.417,2.7273,0,0.00075188,7513.6,0.000312,774.74,0.00020851,-2.8412,-0.00073572,-7097.4,0.56063
39,10.417,2.5455,0,0.00078679,7862.5,0.00032803,834.05,0.0002176,4.2824,-0.00076924,-7410.4,0.56022
40,10.417,2.3636,0,0.00084678,8461.9,0.00035992,972.11,0.00022871,-13.716,-0.00082615,-7939.6,0.5596
41,10.417,2.1818,0,0.00090294,9023.2,0.00039569,1203.8,0.00023798,18.815,-0.00087628,-8353.3,0.55876
42,10.417,2,0,0.0009557,9550.4,0.00053204,2453.1,0.000144,-462.48,-0.00088783,-8215.2,0.55769
43,10.417,1.8182,0,0.0008062,8056.4,0.00053213,3347.3,7.1996e-05,-109.95,-0.00069338,-5860.7,0.55642
44,10.417,1.6364,0,0.00060494,6045.2,0.00042121,2869.9,4.132e-05,15.57,-0.00050297,-4074,0.55501
45,10.417,1.4545,0,0.00046863,4683.1,0.00032543,2194.7,3.0777e-05,-19.202,-0.00039055,-3184.9,0.55353
46,10.417,1.2727,0,0.00037277,3725.2,0.00025575,1707.5,2.7885e-05,-4.6592,-0.00031301,-2566,0.55201
47,10.417,1.0909,0,0.00029862,2984.2,0.00020071,1307.9,2.5761e-05,-6.5265,-0.0002539,-2107.8,0.55048
48,10.417,0.90909,0,0.00023791,2377.4,0.00015515,976.31,2.4538e-05,-5.0666,-0.00020566,-1734.7,0.54894
49,10.417,0.72727,0,0.00018602,1858.9,0.0001162,692.88,2.3299e-05,-5.159,-0.00016421,-1414,0.54741
50,10.417,0.54545,0,0.0001404,1403,8.2245e-05,448.61,2.1764e-05,-5.8212,-0.00012723,-1125.3,0.54588
51,10.417,0.36364,0,9.9964e-05,998.95,5.2933e-05,243.66,1.949e-05,-7.6204,-9.3547e-05,-856.94,0.54436
52,10.417,0.18182,0,6.8049e-05,680.02,3.2094e-05,108.96,1.5382e-05,-16.607,-6.5602e-05,-625.09,0.54284
53,10.234,5.8182,0,0.00010425,1041.8,4.1131e-05,79.476,3.0102e-05,-3.3862,-0.00010271,-1001.3,0.52605
54,10.234,5.6364,0,0.00012164,1215.5,5.2507e-05,149.96,3.2358e-05,-1.4211,-0.0001184,-1134.2,0.52753
55,10.234,5.4545,0,0.00015052,1504.1,7.3279e-05,290.71,3.4536e-05,-0.38829,-0.00014345,-1337.7,0.529
56,10.234,5.2727,0,0.00018715,1870.3,9.9891e-05,474.53,3.6771e-05,0.27763,-0.00017451,-1587.2,0.53046
57,10.234,5.0909,0,0.00023073,2305.7,0.0001312,690.36,3.939e-05,0.53454,-0.0002111,-1881.5,0.5319
58,10.234,4.9091,0,0.00028203,2818.3,0.00016716,934,4.2965e-05,0.83106,-0.00025428,-2232.6,0.53331
59,10.234,4.7273,0,0.0003432,3429.6,0.00020841,1203.2,4.8363e-05,0.63483,-0.00030652,-2665.8,0.5347
60,10.234,4.5455,0,0.0004158,4155.1,0.00025363,1472.6,5.7661e-05,0.17517,-0.00037068,-3218.2,0.53603
61,10.234,4.3636,0,0.00050257,5022.3,0.00029984,1691.8,7.5191e-05,3.8737,-0.00045197,-3957,0.5373
62,10.234,4.1818,0,0.00059142,5910.2,0.00032928,1683.6,0.0001069,12.732,-0.00054457,-4882.1,0.53847
63,10.234,4,0,0.00064787,6474.2,0.00031036,1221.5,0.00015556,58.372,-0.0006182,-5755.4,0.5395
64,10.234,3.8182,0,0.00068941,6889.4,0.00029367,823.31,0.00018811,30.144,-0.00067146,-6428.3,0.54038
65,10.234,3.6364,0,0.00070161,7011.3,0.0002863,662.21,0.00019758,-4.4126,-0.00068804,-6658.6,0.54109
66,10.234,3.4545,0,0.00069758,6971,0.00028138,621.45,0.00019883,1.1893,-0.00068491,-6638.9,0.54163
67,10.234,3.2727,0,0.00068837,6879,0.00027661,599.46,0.00019681,-0.093734,-0.00067621,-6559.7,0.54199
68,10.234,3.0909,0,0.00068262,6821.5,0.00027399,590.67,0.00019536,-0.18227,-0.00067065,-6507,0.54218
69,10.234,2.9091,0,0.00068262,6821.5,0.00027399,590.67,0.00019536,-0.18227,-0.00067065,-6507,0.54218
70,10.234,2.7273,0,0.00068837,6879,0.00027661,599.46,0.00019681,-0.093734,-0.00067621,-6559.7,0.54199
71,10.234,2.5455,0,0.00069758,6971,0.00028138,621.45,0.00019883,1.1893,-0.00068491,-6638.9,0.54163
72,10.234,2.3636,0,0.00070161,7011.3,0.0002863,662.21,0.00019758,-4.4126,-0.00068804,-6658.6,0.54109
73,10.234,2.1818,0,0.00068941,6889.4,0.00029367,823.31,0.00018811,30.144,-0.00067146,-6428.3,0.54038
74,10.234,2,0,0.00064787,6474.2,0.00031036,1221.5,0.00015556,58.372,-0.0006182,-5755.4,0.5395
75,10.234,1.8182,0,0.00059142,5910.2,0.00032928,1683.6,0.0001069,12.732,-0.00054457,-4882.1,0.53847
76,10.234,1.6364,0,0.00050257,5022.3,0.00029984,1691.8,7.5191e-05,3.8737,-0.00045197,-3957,0.5373
77,10.234,1.4545,0,0.0004158,4155.1,0.00025363,1472.6,5.7661e-05,0.17517,-0.00037068,-3218.2,0.53603
78,10.234,1.2727,0,0.0003432,3429.6,0.00020841,1203.2,4.8363e-05,0.63483,-0.00030652,-2665.8,0.5347
79,10.234,1.0909,0,0.00028203,2818.3,0.00016716,934,4.2965e-05,0.83106,-0.00025428,-2232.6,0.53331
80,10.234,0.90909,0,0.00023073,2305.7,0.0001312,690.36,3.939e-05,0.53454,-0.0002111,-1881.5,0.5319
81,10.234,0.72727,0,0.00018715,1870.3,9.9891e-05,474.53,3.6771e-05,0.27764,-0.00017451,-1587.2,0.53046
82,10.234,0.54545,0,0.00015052,1504.1,7.3279e-05,290.71,3.4536e-05,-0.38829,-0.00014345,-1337.7,0.529
83,10.234,0.36364,0,0.00012164,1215.5,5.2507e-05,149.96,3.2358e-05,-1.4211,-0.0001184,-1134.2,0.52753
84,10.234,0.18182,0,0.00010425,1041.8,4.1131e-05,79.476,3.0102e-05,-3.3862,-0.00010271,-1001.3,0.52605
85,10.052,5.8182,0,0.00014334,1432.4,5.3889e-05,78.837,4.3248e-05,-1.118,-0.00014185,-1391.9,0.50932
86,10.052,5.6364,0,0.00015641,1563,6.2958e-05,136.89,4.4587e-05,-1.1508,-0.00015364,-1490.6,0.51077
87,10.052,5.4545,0,0.00017851,1783.9,7.8601e-05,239.94,4.6537e-05,-0.98024,-0.00017322,-1652.1,0.51219
88,10.052,5.2727,0,0.00020821,2080.6,9.9398e-05,376.97,4.9101e-05,-0.94082,-0.00019922,-1866.7,0.51358
89,10.052,5.0909,0,0.00024473,2445.6,0.00012427,537.89,5.2549e-05,-1.0045,-0.0002311,-2132.2,0.51493
90,10.052,4.9091,0,0.00028784,2876.4,0.00015236,712.31,5.7372e-05,-1.3609,-0.00026902,-2453.8,0.51624
91,10.052,4.7273,0,0.00033743,3371.9,0.00018241,884.39,6.4485e-05,-1.6299,-0.00031356,-2842.1,0.5175
92,10.052,4.5455,0,0.00039295,3926.8,0.0002122,1027.1,7.5276e-05,-1.6763,-0.00036526,-3311.7,0.51869
93,10.052,4.3636,0,0.00044985,4495.4,0.00023584,1080.7,9.0963e-05,-7.8481,-0.0004216,-3859,0.51979
94,10.052,4.1818,0,0.00050205,5017,0.00024565,983.56,0.00011416,-4.3925,-0.00047803,-4453.9,0.52079
95,10.052,4,0,0.0005447,5443.2,0.00024292,766.12,0.00013952,-10.778,-0.00052767,-5023.8,0.52167
96,10.052,3.8182,0,0.00057762,5772.2,0.00023667,555.2,0.00016184,-7.0632,-0.00056623,-5477.5,0.52242
97,10.052,3.6364,0,0.00060266,6022.5,0.00023601,452.21,0.00017647,4.8524,-0.00059364,-5781.5,0.52303
98,10.052,3.4545,0,0.00061586,6154.4,0.00023823,423.61,0.00018196,0.7603,-0.00060755,-5931.3,0.5235
99,10.052,3.2727,0,0.00062113,6207,0.00023955,418.36,0.00018396,0.72252,-0.00061294,-5986.9,0.52381
100,10.052,3.0909,0,0.00062261,6221.8,0.00024005,418.45,0.00018442,0.47085,-0.00061443,-6001.8,0.52397
101,10.052,2.9091,0,0.00062261,6221.8,0.00024005,418.45,0.00018442,0.47085,-0.00061443,-6001.8,0.52397
102,10.052,2.7273,0,0.00062113,6207,0.00023955,418.36,0.00018396,0.72252,-0.00061294,-5986.9,0.52381
103,10.052,2.5455,0,0.00061586,6154.4,0.00023823,423.61,0.00018196,0.7603,-0.00060755,-5931.3,0.5235
104,10.052,2.3636,0,0.00060266,6022.5,0.00023601,452.21,0.00017647,4.8524,-0.00059364,-5781.5,0.52303
105,10.052,2.1818,0,0.00057762,5772.2,0.00023667,555.2,0.00016184,-7.0632,-0.00056623,-5477.5,0.52242
106,10.052,2,0,0.0005447,5443.2,0.00024292,766.12,0.00013952,-10.778,-0.00052767,-5023.8,0.52167
107,10.052,1.8182,0,0.00050205,5017,0.00024565,983.56,0.00011416,-4.3925,-0.00047803,-4453.9,0.52079
108,10.052,1.6364,0,0.00044985,4495.4,0.00023584,1080.7,9.0963e-05,-7.8481,-0.0004216,-3859,0.51979
109,10.052,1.4545,0,0.00039295,3926.8,0.0002122,1027.1,7.5276e-05,-1.6763,-0.00036526,-3311.7,0.51869
110,10.052,1.2727,0,0.00033743,3371.9,0.00018241,884.39,6.4485e-05,-1.6299,-0.00031356,-2842.1,0.5175
111,10.052,1.0909,0,0.00028784,2876.4,0.00015236,712.31,5.7372e-05,-1.3609,-0.00026902,-2453.8,0.51624
112,10.052,0.90909,0,0.00024473,2445.6,0.00012427,537.89,5.2549e-05,-1.0045,-0.0002311,-2132.2,0.51493
113,10.052,0.72727,0,0.00020821,2080.6,9.9398e-05,376.97,4.9101e-05,-0.94082,-0.00019922,-1866.7,0.51358
114,10.052,0.54545,0,0.00017851,1783.9,7.8601e-05,239.94,4.6537e-05,-0.98024,-0.00017322,-1652.1,0.51219
115,10.052,0.36364,0,0.00015641,1563,6.2958e-05,136.89,4.4587e-05,-1.1508,-0.00015364,-1490.6,0.51077
116,10.052,0.18182,0,0.00014334,1432.4,5.3889e-05,78.837,4.3248e-05,-1.118,-0.00014185,-1391.9,0.50932
117,9.869,5.8182,0,0.00017981,1796.9,6.5867e-05,78.826,5.5415e-05,0.29799,-0.00017834,-1756,0.49268
118,9.869,5.6364,0,0.00019133,1912,7.444e-05,136.53,5.6234e-05,-0.25814,-0.00018865,-1840.2,0.49409
119,9.869,5.4545,0,0.00020938,2092.4,8.7045e-05,218,5.7988e-05,-0.32584,-0.00020482,-1975,0.49547
120,9.869,5.2727,0,0.00023355,2333.9,0.00010325,319.52,6.0662e-05,-0.45175,-0.00022647,-2157.9,0.49679
121,9.869,5.0909,0,0.00026342,2632.4,0.00012237,434.55,6.446e-05,-0.57871,-0.00025332,-2388.3,0.49807
122,9.869,4.9091,0,0.00029837,2981.7,0.00014337,552.33,6.9764e-05,-0.72055,-0.00028511,-2667.1,0.49929
123,9.869,4.7273,0,0.00033743,3372,0.00016468,656.79,7.7132e-05,-1.0285,-0.00032143,-2995.6,0.50045
124,9.869,4.5455,0,0.00037885,3785.9,0.00018391,724.73,8.727e-05,-1.3716,-0.00036128,-3371.6,0.50153
125,9.869,4.3636,0,0.0004198,4195.1,0.00019775,727.5,0.00010092,-0.10546,-0.00040266,-3783.8,0.50251
126,9.869,4.1818,0,0.00045659,4562.8,0.00020365,647.24,0.0001174,-0.83168,-0.00044213,-4204.9,0.5034
127,9.869,4,0,0.00048835,4880.1,0.00020334,513.73,0.00013516,1.4868,-0.00047756,-4602.3,0.50417
128,9.869,3.8182,0,0.0005153,5149.5,0.00020181,386.05,0.00015081,2.8709,-0.00050762,-4944.3,0.50482
129,9.869,3.6364,0,0.00053717,5368,0.00020265,306.73,0.00016191,0.59005,-0.00053129,-5207.8,0.50535
130,9.869,3.4545,0,0.00055317,5527.8,0.00020537,275.74,0.0001688,0.98035,-0.00054795,-5384.4,0.50576
131,9.869,3.2727,0,0.00056283,5624.4,0.00020801,268.99,0.00017232,0.82585,-0.00055776,-5484.7,0.50603
132,9.869,3.0909,0,0.00056719,5668,0.00020946,268.99,0.00017375,0.68263,-0.00056213,-5528.4,0.50617
133,9.869,2.9091,0,0.00056719,5668,0.00020946,268.99,0.00017375,0.68263,-0.00056213,-5528.4,0.50617
134,9.869,2.7273,0,0.00056283,5624.4,0.00020801,268.99,0.00017232,0.82585,-0.00055776,-5484.7,0.50603
135,9.869,2.5455,0,0.00055317,5527.8,0.00020537,275.74,0.0001688,0.98035,-0.00054795,-5384.4,0.50576
136,9.869,2.3636,0,0.00053717,5368,0.00020265,306.73,0.00016191,0.59005,-0.00053129,-5207.8,0.50535
137,9.869,2.1818,0,0.0005153,5149.5,0.00020181,386.05,0.00015081,2.8709,-0.00050762,-4944.3,0.50482
138,9.869,2,0,0.00048835,4880.1,0.00020334,513.73,0.00013516,1.4868,-0.00047756,-4602.3,0.50417
139,9.869,1.8182,0,0.00045659,4562.8,0.00020365,647.24,0.0001174,-0.83168,-0.00044213,-4204.9,0.5034
140,9.869,1.6364,0,0.0004198,4195.1,0.00019775,727.5,0.00010092,-0.10546,-0.00040266,-3783.8,0.50251
141,9.869,1.4545,0,0.00037885,3785.9,0.00018391,724.73,8.727e-05,-1.3716,-0.00036128,-3371.6,0.50153
142,9.869,1.2727,0,0.00033743,3372,0.00016468,656.79,7.7132e-05,-1.0285,-0.00032143,-2995.6,0.50045
143,9.869,1.0909,0,0.00029837,2981.7,0.00014337,552.33,6.9764e-05,-0.72055,-0.00028511,-2667.1,0.49929
144,9.869,0.90909,0,0.00026342,2632.4,0.00012237,434.55,6.446e-05,-0.57871,-0.00025332,-2388.3,0.49807
145,9.869,0.72727,0,0.00023355,2333.9,0.00010325,319.52,6.0662e-05,-0.45175,-0.00022647,-2157.9,0.49679
146,9.869,0.54545,0,0.00020938,2092.4,8.7045e-05,218,5.7988e-05,-0.32584,-0.00020482,-1975,0.49547
147,9.869,0.36364,0,0.00019133,1912,7.444e-05,136.53,5.6234e-05,-0.25814,-0.00018865,-1840.2,0.49409
148,9.869,0.18182,0,0.00017981,1796.9,6.5867e-05,78.826,5.5415e-05,0.29799,-0.00017834,-1756,0.49268
149,9.6862,5.8182,0,0.00021277,2126.2,7.6499e-05,75.915,6.6463e-05,0.505,-0.00021137,-2087,0.47615
150,9.6862,5.6364,0,0.00022342,2232.6,8.4892e-05,134.73,6.6941e-05,-0.14239,-0.00022082,-2162.3,0.47754
151,9.6862,5.4545,0,0.00023869,2385.3,9.5501e-05,202.69,6.8498e-05,-0.19415,-0.0002346,-2277.6,0.47887
152,9.6862,5.2727,0,0.00025853,2583.5,0.00010826,278.9,7.1092e-05,-0.37882,-0.00025265,-2432.9,0.48014
153,9.6862,5.0909,0,0.00028265,2824.6,0.00012276,359.33,7.4863e-05,-0.52253,-0.00027482,-2627.9,0.48136
154,9.6862,4.9091,0,0.0003104,3101.9,0.0001381,435.53,8.004e-05,-0.67513,-0.0003007,-2861.4,0.48251
155,9.6862,4.7273,0,0.00034068,3404.5,0.00015295,495.24,8.6928e-05,-0.79699,-0.00032955,-3130,0.48358
156,9.6862,4.5455,0,0.00037188,3716.2,0.00016558,523.38,9.5796e-05,-0.96112,-0.00036021,-3427.2,0.48458
157,9.6862,4.3636,0,0.000402,4017.2,0.00017425,506.53,0.00010666,-1.2995,-0.00039099,-3740.5,0.48547
158,9.6862,4.1818,0,0.00042949,4292,0.00017831,443.93,0.00011908,-1.1228,-0.00042022,-4053.2,0.48627
159,9.6862,4,0,0.00045372,4534.1,0.00017897,353.33,0.00013177,-1.2917,-0.00044669,-4347.6,0.48697
160,9.6862,3.8182,0,0.00047493,4746,0.00017877,265.44,0.00014331,-0.99593,-0.00046987,-4608.2,0.48755
161,9.6862,3.6364,0,0.00049301,4926.7,0.00017958,203.44,0.00015252,0.1527,-0.00048923,-4821.8,0.48803
162,9.6862,3.4545,0,0.00050715,5068,0.00018154,170.84,0.00015887,0.56621,-0.00050402,-4980.1,0.48839
163,9.6862,3.2727,0,0.00051668,5163.2,0.00018364,158.3,0.00016266,0.63358,-0.0005138,-5082,0.48863
164,9.6862,3.0909,0,0.00052141,5210.5,0.00018492,154.96,0.00016439,0.65922,-0.00051859,-5131,0.48875
165,9.6862,2.9091,0,0.00052141,5210.5,0.00018492,154.96,0.00016439,0.65922,-0.00051859,-5131,0.48875
166,9.6862,2.7273,0,0.00051668,5163.2,0.00018364,158.3,0.00016266,0.63358,-0.0005138,-5082,0.48863
167,9.6862,2.5455,0,0.00050715,5068,0.00018154,170.84,0.00015887,0.56621,-0.00050402,-4980.1,0.48839
168,9.6862,2.3636,0,0.00049301,4926.7,0.00017958,203.44,0.00015252,0.15269,-0.00048923,-4821.8,0.48803
169,9.6862,2.1818,0,0.00047493,4746,0.00017877,265.44,0.00014331,-0.99593,-0.00046987,-4608.2,0.48755
170,9.6862,2,0,0.00045372,4534.1,0.00017897,353.33,0.00013177,-1.2917,-0.00044669,-4347.6,0.48697
171,9.6862,1.8182,0,0.00042949,4292,0.00017831,443.93,0.00011908,-1.1228,-0.00042022,-4053.2,0.48627
172,9.6862,1.6364,0,0.000402,4017.2,0.00017425,506.53,0.00010666,-1.2995,-0.00039099,-3740.5,0.48547
173,9.6862,1.4545,0,0.00037188,3716.2,0.00016558,523.38,9.5796e-05,-0.96112,-0.00036021,-3427.2,0.48458
174,9.6862,1.2727,0,0.00034068,3404.5,0.00015295,495.24,8.6928e-05,-0.79698,-0.00032955,-3130,0.48358
175,9.6862,1.0909,0,0.0003104,3101.9,0.0001381,435.53,8.004e-05,-0.67513,-0.0003007,-2861.4,0.48251
176,9.6862,0.90909,0,0.00028265,2824.6,0.00012276,359.33,7.4863e-05,-0.52253,-0.00027482,-2627.9,0.48136
177,9.6862,0.72727,0,0.00025853,2583.5,0.00010826,278.9,7.1092e-05,-0.37882,-0.00025265,-2432.9,0.48014
178,9.6862,0.54545,0,0.00023869,2385.3,9.5501e-05,202.69,6.8498e-05,-0.19415,-0.0002346,-2277.6,0.47887
179,9.6862,0.36364,0,0.00022342,2232.6,8.4892e-05,134.73,6.6941e-05,-0.14239,-0.00022082,-2162.3,0.47754
180,9.6862,0.18182,0,0.00021277,2126.2,7.6499e-05,75.915,6.6463e-05,0.505,-0.00021137,-2087,0.47615
181,9.5034,5.8182,0,0.00024207,2419,8.5754e-05,70.854,7.6386e-05,0.46727,-0.00024078,-2382.6,0.45976
182,9.5034,5.6364,0,0.00025188,2517.1,9.3838e-05,129.18,7.6631e-05,-0.1072,-0.00024944,-2450.1,0.46112
183,9.5034,5.4545,0,0.00026495,2647.7,0.00010293,187.39,7.798e-05,-0.085895,-0.00026127,-2549,0.46242
184,9.5034,5.2727,0,0.00028128,2810.8,0.00011309,245.61,8.0367e-05,-0.25979,-0.00027629,-2680.1,0.46365
185,9.5034,5.0909,0,0.00030064,3004.4,0.00012404,301.45,8.3873e-05,-0.37676,-0.00029438,-2842.4,0.46482
186,9.5034,4.9091,0,0.00032247,3222.4,0.00013514,349.16,8.8607e-05,-0.492,-0.00031511,-3033.8,0.46591
187,9.5034,4.7273,0,0.0003458,3455.6,0.00014543,380.65,9.4687e-05,-0.59957,-0.00033775,-3249.8,0.46692
188,9.5034,4.5455,0,0.00036944,3691.9,0.00015382,387.43,0.00010216,-0.68047,-0.00036133,-3483.2,0.46785
189,9.5034,4.3636,0,0.00039215,3918.8,0.00015945,364.17,0.00011089,-0.72532,-0.00038469,-3724.3,0.46868
190,9.5034,4.1818,0,0.000413,4127.2,0.0001622,313.17,0.00012041,-0.81702,-0.00040679,-3962,0.46942
191,9.5034,4,0,0.00043168,4313.8,0.0001629,246.34,0.00013001,-0.73663,-0.00042697,-4185.7,0.47006
192,9.5034,3.8182,0,0.00044818,4478.7,0.00016292,180.57,0.00013882,-0.55308,-0.00044484,-4386,0.47059
193,9.5034,3.6364,0,0.00046237,4620.5,0.00016335,129.22,0.00014611,-0.33206,-0.00046004,-4554.7,0.47102
194,9.5034,3.4545,0,0.00047377,4734.4,0.00016441,96.81,0.00015153,0.056723,-0.00047205,-4685.3,0.47135
195,9.5034,3.2727,0,0.00048174,4814.1,0.00016564,80.142,0.00015502,0.38252,-0.00048032,-4773.3,0.47157
196,9.5034,3.0909,0,0.00048583,4854.9,0.00016644,73.658,0.0001567,0.52002,-0.00048452,-4817.4,0.47168
197,9.5034,2.9091,0,0.00048583,4854.9,0.00016644,73.658,0.0001567,0.52002,-0.00048452,-4817.4,0.47168
198,9.5034,2.7273,0,0.00048174,4814.1,0.00016564,80.142,0.00015502,0.38252,-0.00048032,-4773.3,0.47157
199,9.5034,2.5455,0,0.00047377,4734.4,0.00016441,96.81,0.00015153,0.056723,-0.00047205,-4685.3,0.47135
200,9.5034,2.3636,0,0.00046237,4620.5,0.00016335,129.22,0.00014611,-0.33206,-0.00046004,-4554.7,0.47102
201,9.5034,2.1818,0,0.00044818,4478.7,0.00016292,180.57,0.00013882,-0.55308,-0.00044484,-4386,0.47059
202,9.5034,2,0,0.00043168,4313.8,0.0001629,246.34,0.00013001,-0.73663,-0.00042697,-4185.7,0.47006
203,9.5034,1.8182,0,0.000413,4127.2,0.0001622,313.17,0.00012041,-0.81702,-0.00040679,-3962,0.46942
204,9.5034,1.6364,0,0.00039215,3918.8,0.00015945,364.17,0.00011089,-0.72532,-0.00038469,-3724.3,0.46868
205,9.5034,1.4545,0,0.00036944,3691.9,0.00015382,387.43,0.00010216,-0.68047,-0.00036133,-3483.2,0.46785
206,9.5034,1.2727,0,0.0003458,3455.6,0.00014543,380.65,9.4687e-05,-0.59957,-0.00033775,-3249.8,0.46692
207,9.5034,1.0909,0,0.00032247,3222.4,0.00013514,349.16,8.8607e-05,-0.492,-0.00031511,-3033.8,0.46591
208,9.5034,0.90909,0,0.00030064,3004.4,0.00012404,301.45,8.3873e-05,-0.37676,-0.00029438,-2842.4,0.46482
209,9.5034,0.72727,0,0.00028128,2810.8,0.00011309,245.61,8.0367e-05,-0.25979,-0.00027629,-2680.1,0.46365
210,9.5034,0.54545,0,0.00026495,2647.7,0.00010293,187.39,7.798e-05,-0.085894,-0.00026127,-2549,0.46242
211,9.5034,0.36364,0,0.00025188,2517.1,9.3838e-05,129.18,7.6631e-05,-0.10719,-0.00024944,-2450.1,0.46112
212,9.5034,0.18182,0,0.00024207,2419,8.5754e-05,70.854,7.6386e-05,0.46727,-0.00024078,-2382.6,0.45976
213,9.3207,5.8182,0,0.00026781,2676.2,9.3725e-05,64.429,8.5193e-05,0.32227,-0.00026665,-2643.3,0.44353
214,9.3207,5.6364,0,0.0002767,2765.1,0.0001013,120.22,8.528e-05,-0.12677,-0.00027446,-2703.1,0.44486
215,9.3207,5.4545,0,0.00028785,2876.5,0.00010911,170.46,8.6417e-05,-0.042693,-0.00028457,-2787.5,0.44613
216,9.3207,5.2727,0,0.00030126,3010.5,0.00011725,215.62,8.8528e-05,-0.18672,-0.00029701,-2897,0.44733
217,9.3207,5.0909,0,0.00031675,3165.3,0.00012554,254.41,9.1648e-05,-0.28084,-0.00031166,-3030.5,0.44846
218,9.3207,4.9091,0,0.00033383,3336,0.00013355,283.27,9.5803e-05,-0.37601,-0.00032811,-3185.5,0.44951
219,9.3207,4.7273,0,0.0003518,3515.5,0.00014066,297.46,0.00010101,-0.46583,-0.00034579,-3357.5,0.45047
220,9.3207,4.5455,0,0.00036979,3695.4,0.00014623,292.68,0.0001072,-0.56438,-0.00036395,-3540.6,0.45135
221,9.3207,4.3636,0,0.00038703,3867.6,0.00014985,267.26,0.00011419,-0.67981,-0.0003818,-3727.3,0.45214
222,9.3207,4.1818,0,0.00040294,4026.6,0.00015159,224.19,0.00012164,-0.79217,-0.00039867,-3910.2,0.45283
223,9.3207,4,0,0.00041729,4170,0.00015198,171.35,0.00012905,-0.89735,-0.00041412,-4082.1,0.45343
224,9.3207,3.8182,0,0.00043,4297,0.00015184,118.95,0.00013589,-0.91075,-0.00042786,-4236.7,0.45392
225,9.3207,3.6364,0,0.00044093,4406.2,0.00015183,75.436,0.00014169,-0.77171,-0.00043961,-4368.4,0.45432
226,9.3207,3.4545,0,0.00044974,4494.2,0.00015216,44.665,0.00014615,-0.50253,-0.00044897,-4472,0.45463
227,9.3207,3.2727,0,0.00045595,4556.4,0.00015265,26.174,0.00014916,-0.095203,-0.0004555,-4543.3,0.45483
228,9.3207,3.0909,0,0.00045918,4588.6,0.00015299,17.663,0.00015068,0.32659,-0.00045887,-4579.6,0.45493
229,9.3207,2.9091,0,0.00045918,4588.6,0.00015299,17.663,0.00015068,0.32659,-0.00045887,-4579.6,0.45493
230,9.3207,2.7273,0,0.00045595,4556.4,0.00015265,26.174,0.00014916,-0.095203,-0.0004555,-4543.3,0.45483
231,9.3207,2.5455,0,0.00044974,4494.2,0.00015216,44.665,0.00014615,-0.50253,-0.00044897,-4472,0.45463
232,9.3207,2.3636,0,0.00044093,4406.2,0.00015183,75.436,0.00014169,-0.77171,-0.00043961,-4368.4,0.45432
233,9.3207,2.1818,0,0.00043,4297,0.00015184,118.95,0.00013589,-0.91075,-0.00042786,-4236.7,0.45392
234,9.3207,2,0,0.00041729,4170,0.00015198,171.35,0.00012905,-0.89735,-0.00041412,-4082.1,0.45343
235,9.3207,1.8182,0,0.00040294,4026.6,0.00015159,224.19,0.00012164,-0.79217,-0.00039867,-3910.2,0.45283
236,9.3207,1.6364,0,0.00038703,3867.6,0.00014985,267.26,0.00011419,-0.67981,-0.0003818,-3727.3,0.45214
237,9.3207,1.4545,0,0.00036979,3695.4,0.00014623,292.68,0.0001072,-0.56438,-0.00036395,-3540.6,0.45135
238,9.3207,1.2727,0,0.0003518,3515.5,0.00014066,297.46,0.00010101,-0.46583,-0.00034579,-3357.5,0.45047
239,9.3207,1.0909,0,0.00033383,3336,0.00013355,283.27,9.5803e-05,-0.37601,-0.00032811,-3185.5,0.44951
240,9.3207,0.90909,0,0.00031675,3165.3,0.00012554,254.41,9.1648e-05,-0.28084,-0.00031166,-3030.5,0.44846
241,9.3207,0.72727,0,0.00030126,3010.5,0.00011725,215.62,8.8528e-05,-0.18672,-0.00029701,-2897,0.44733
242,9.3207,0.54545,0,0.00028785,2876.5,0.00010911,170.46,8.6417e-05,-0.042692,-0.00028457,-2787.5,0.44613
243,9.3207,0.36364,0,0.0002767,2765.1,0.0001013,120.22,8.528e-05,-0.12677,-0.00027446,-2703.1,0.44486
244,9.3207,0.18182,0,0.00026781,2676.2,9.3725e-05,64.429,8.5193e-05,0.32227,-0.00026665,-2643.3,0.44353
245,9.1379,5.8182,0,0.00029027,2900.7,0.00010056,57.363,9.2949e-05,0.18276,-0.00028925,-2871.5,0.42748
246,9.1379,5.6364,0,0.00029815,2979.5,0.00010745,108.97,9.2932e-05,-0.14066,-0.00029615,-2923.6,0.42879
247,9.1379,5.4545,0,0.00030759,3073.7,0.00011413,152.19,9.387e-05,-0.015373,-0.00030471,-2994.8,0.43004
248,9.1379,5.2727,0,0.00031856,3183.4,0.00012067,187.58,9.5685e-05,-0.12896,-0.00031495,-3085.5,0.43121
249,9.1379,5.0909,0,0.0003309,3306.7,0.00012696,214.57,9.8379e-05,-0.20246,-0.00032673,-3194.3,0.43231
250,9.1379,4.9091,0,0.00034424,3440.1,0.00013274,231.17,0.00010193,-0.28501,-0.00033973,-3318.8,0.43332
251,9.1379,4.7273,0,0.00035807,3578.2,0.00013762,234.92,0.0001063,-0.3689,-0.0003535,-3455.1,0.43425
252,9.1379,4.5455,0,0.0003718,3715.4,0.00014126,223.95,0.00011139,-0.46519,-0.00036749,-3598.6,0.43509
253,9.1379,4.3636,0,0.00038491,3846.5,0.00014349,198.33,0.00011702,-0.58054,-0.00038116,-3743.7,0.43584
254,9.1379,4.1818,0,0.00039704,3967.7,0.00014442,160.88,0.00012291,-0.71987,-0.00039407,-3885.2,0.4365
255,9.1379,4,0,0.000408,4077.2,0.00014442,117.08,0.00012873,-0.87633,-0.0004059,-4017.8,0.43707
256,9.1379,3.8182,0,0.00041769,4174.1,0.00014402,73.597,0.00013409,-1.0706,-0.00041641,-4137.3,0.43754
257,9.1379,3.6364,0,0.00042598,4256.9,0.00014367,36.303,0.00013865,-1.4229,-0.00042538,-4239.3,0.43792
258,9.1379,3.4545,0,0.00043263,4323.3,0.00014372,9.573,0.00014204,-2.9897,-0.00043252,-4320,0.4382
259,9.1379,3.2727,0,0.00043732,4370.1,0.00014503,1.0918,0.0001432,-12.675,-0.00043751,-4375.9,0.43839
260,9.1379,3.0909,0,0.00043975,4394.4,0.00014617,0.34341,0.00014337,-20.63,-0.00044009,-4404.5,0.43849
261,9.1379,2.9091,0,0.00043975,4394.4,0.00014617,0.34341,0.00014337,-20.63,-0.00044009,-4404.5,0.43849
262,9.1379,2.7273,0,0.00043732,4370.1,0.00014503,1.0918,0.0001432,-12.675,-0.00043751,-4375.9,0.43839
263,9.1379,2.5455,0,0.00043263,4323.3,0.00014372,9.5729,0.00014204,-2.9897,-0.00043252,-4320,0.4382
264,9.1379,2.3636,0,0.00042598,4256.9,0.00014367,36.303,0.00013865,-1.4229,-0.00042538,-4239.3,0.43792
265,9.1379,2.1818,0,0.00041769,4174.1,0.00014402,73.597,0.00013409,-1.0706,-0.00041641,-4137.3,0.43754
266,9.1379,2,0,0.000408,4077.2,0.00014442,117.08,0.00012873,-0.87633,-0.0004059,-4017.8,0.43707
267,9.1379,1.8182,0,0.00039704,3967.7,0.00014442,160.88,0.00012291,-0.71987,-0.00039407,-3885.2,0.4365
268,9.1379,1.6364,0,0.00038491,3846.5,0.00014349,198.33,0.00011702,-0.58054,-0.00038116,-3743.7,0.43584
269,9.1379,1.4545,0,0.0003718,3715.4,0.00014126,223.95,0.00011139,-0.46519,-0.00036749,-3598.6,0.43509
270,9.1379,1.2727,0,0.00035807,3578.2,0.00013762,234.92,0.0001063,-0.3689,-0.0003535,-3455.1,0.43425
271,9.1379,1.0909,0,0.00034424,3440.1,0.00013274,231.17,0.00010193,-0.28501,-0.00033973,-3318.8,0.43332
272,9.1379,0.90909,0,0.0003309,3306.7,0.00012696,214.57,9.8379e-05,-0.20246,-0.00032673,-3194.3,0.43231
273,9.1379,0.72727,0,0.00031856,3183.4,0.00012067,187.58,9.5685e-05,-0.12896,-0.00031495,-3085.5,0.43121
274,9.1379,0.54545,0,0.00030759,3073.7,0.00011413,152.19,9.387e-05,-0.015373,-0.00030471,-2994.8,0.43004
275,9.1379,0.36364,0,0.00029815,2979.5,0.00010745,108.97,9.2932e-05,-0.14066,-0.00029615,-2923.6,0.42879
276,9.1379,0.18182,0,0.00029027,2900.7,0.00010056,57.363,9.2949e-05,0.18276,-0.00028925,-2871.5,0.42748
277,8.9552,5.8182,0,0.00030981,3096,0.00010642,50.175,9.975e-05,0.073887,-0.00030893,-3070.6,0.41161
278,8.9552,5.6364,0,0.00031666,3164.4,0.00011253,96.484,9.967e-05,-0.14503,-0.00031491,-3115.2,0.41292
279,8.9552,5.4545,0,0.00032456,3243.3,0.00011818,133.32,0.00010043,-0.00012682,-0.00032208,-3174.6,0.41415
280,8.9552,5.2727,0,0.00033348,3332.5,0.00012342,161.17,0.00010196,-0.088403,-0.00033045,-3249,0.4153
281,8.9552,5.0909,0,0.00034328,3430.4,0.0001282,179.89,0.00010424,-0.14663,-0.00033987,-3337,0.41637
282,8.9552,4.9091,0,0.00035368,3534.3,0.00013235,188.53,0.00010723,-0.21969,-0.00035009,-3436.4,0.41736
283,8.9552,4.7273,0,0.0003643,3640.5,0.00013566,186.04,0.00011086,-0.30044,-0.00036079,-3544.1,0.41826
284,8.9552,4.5455,0,0.00037477,3745.1,0.00013796,171.93,0.00011503,-0.39916,-0.00037156,-3656.4,0.41908
285,8.9552,4.3636,0,0.00038474,3844.7,0.0001392,147.04,0.00011957,-0.52525,-0.00038203,-3769.3,0.4198
286,8.9552,4.1818,0,0.00039394,3936.7,0.00013951,113.87,0.00012426,-0.69325,-0.00039189,-3878.9,0.42044
287,8.9552,4,0,0.00040225,4019.7,0.00013916,76.449,0.00012886,-0.94425,-0.00040091,-3981.4,0.42098
288,8.9552,3.8182,0,0.00040956,4092.8,0.00013853,39.601,0.00013307,-1.4691,-0.0004089,-4073.6,0.42143
289,8.9552,3.6364,0,0.00041577,4154.8,0.00013821,9.5127,0.00013637,-4.3331,-0.00041568,-4152.2,0.4218
290,8.9552,3.4545,0,0.00042071,4204.2,0.00014001,1.1975,0.00013695,-21.772,-0.00042105,-4214.4,0.42207
291,8.9552,3.2727,0,0.00042417,4238.8,0.0001419,0.40645,0.00013675,-38.265,-0.0004248,-4257.6,0.42225
292,8.9552,3.0909,0,0.00042596,4256.6,0.00014289,0.22275,0.00013665,-46.663,-0.00042673,-4279.7,0.42234
293,8.9552,2.9091,0,0.00042596,4256.6,0.00014289,0.22275,0.00013665,-46.663,-0.00042673,-4279.7,0.42234
294,8.9552,2.7273,0,0.00042417,4238.8,0.0001419,0.40645,0.00013675,-38.265,-0.0004248,-4257.6,0.42225
295,8.9552,2.5455,0,0.00042071,4204.2,0.00014001,1.1975,0.00013695,-21.772,-0.00042105,-4214.4,0.42207
296,8.9552,2.3636,0,0.00041577,4154.8,0.00013821,9.5127,0.00013637,-4.3331,-0.00041568,-4152.2,0.4218
297,8.9552,2.1818,0,0.00040956,4092.8,0.00013853,39.601,0.00013307,-1.4691,-0.0004089,-4073.6,0.42143
298,8.9552,2,0,0.00040225,4019.7,0.00013916,76.449,0.00012886,-0.94425,-0.00040091,-3981.4,0.42098
299,8.9552,1.8182,0,0.00039394,3936.7,0.00013951,113.87,0.00012426,-0.69325,-0.00039189,-3878.9,0.42044
300,8.9552,1.6364,0,0.00038474,3844.7,0.0001392,147.04,0.00011957,-0.52525,-0.00038203,-3769.3,0.4198
301,8.9552,1.4545,0,0.00037477,3745.1,0.00013796,171.93,0.00011503,-0.39916,-0.00037156,-3656.4,0.41908
302,8.9552,1.2727,0,0.0003643,3640.5,0.00013566,186.04,0.00011086,-0.30044,-0.00036079,-3544.1,0.41826
303,8.9552,1.0909,0,0.00035368,3534.3,0.00013235,188.53,0.00010723,-0.21969,-0.00035009,-3436.4,0.41736
304,8.9552,0.90909,0,0.00034328,3430.4,0.0001282,179.89,0.00010424,-0.14663,-0.00033987,-3337,0.41637
305,8.9552,0.72727,0,0.00033348,3332.5,0.00012342,161.17,0.00010196,-0.088402,-0.00033045,-3249,0.4153
306,8.9552,0.54545,0,0.00032456,3243.3,0.00011818,133.32,0.00010043,-0.00012522,-0.00032208,-3174.6,0.41415
307,8.9552,0.36364,0,0.00031666,3164.4,0.00011253,96.484,9.967e-05,-0.14503,-0.00031491,-3115.2,0.41292
308,8.9552,0.18182,0,0.00030981,3096,0.00010642,50.175,9.975e-05,0.073888,-0.00030893,-3070.6,0.41161
309,8.7724,5.8182,0,0.00032684,3266.1,0.00011146,43.207,0.00010571,0.0016933,-0.00032608,-3244.3,0.39595
310,8.7724,5.6364,0,0.00033267,3324.4,0.00011675,83.642,0.0001056,-0.13903,-0.00033117,-3281.8,0.39725
311,8.7724,5.4545,0,0.0003392,3389.7,0.00012146,114.58,0.00010621,0.0089672,-0.00033711,-3330.9,0.39847
312,8.7724,5.2727,0,0.0003464,3461.6,0.00012565,136.4,0.00010748,-0.059637,-0.00034388,-3391.4,0.3996
313,8.7724,5.0909,0,0.00035415,3539,0.00012926,149.18,0.00010939,-0.10692,-0.00035137,-3462.1,0.40066
314,8.7724,4.9091,0,0.00036222,3619.7,0.00013221,152.6,0.00011188,-0.17268,-0.00035938,-3541.1,0.40163
315,8.7724,4.7273,0,0.00037037,3701.1,0.0001344,146.43,0.00011487,-0.25033,-0.00036766,-3625.8,0.40251
316,8.7724,4.5455,0,0.00037832,3780.6,0.00013575,130.93,0.00011827,-0.3504,-0.00037593,-3713.6,0.40331
317,8.7724,4.3636,0,0.00038585,3855.9,0.00013628,107.25,0.00012194,-0.48697,-0.00038392,-3801.4,0.40401
318,8.7724,4.1818,0,0.00039279,3925.2,0.00013612,77.577,0.0001257,-0.69588,-0.00039143,-3886.2,0.40463
319,8.7724,4,0,0.00039903,3987.5,0.0001355,45.104,0.00012935,-1.1143,-0.00039826,-3965.3,0.40516
320,8.7724,3.8182,0,0.00040448,4042,0.00013483,14.396,0.00013252,-2.9094,-0.00040429,-4036.3,0.4056
321,8.7724,3.6364,0,0.00040908,4087.9,0.00013608,1.6312,0.00013331,-19.142,-0.00040937,-4096.6,0.40595
322,8.7724,3.4545,0,0.0004127,4124.1,0.00013827,0.51315,0.00013272,-41.182,-0.00041337,-4144.3,0.40621
323,8.7724,3.2727,0,0.00041521,4149.3,0.00013985,0.24108,0.00013225,-56.834,-0.00041615,-4177.3,0.40639
324,8.7724,3.0909,0,0.00041651,4162.2,0.00014066,0.15236,0.00013201,-64.806,-0.00041757,-4194.2,0.40647
325,8.7724,2.9091,0,0.00041651,4162.2,0.00014066,0.15236,0.00013201,-64.806,-0.00041757,-4194.2,0.40647
326,8.7724,2.7273,0,0.00041521,4149.3,0.00013985,0.24108,0.00013225,-56.834,-0.00041615,-4177.3,0.40639
327,8.7724,2.5455,0,0.0004127,4124.1,0.00013827,0.51315,0.00013272,-41.182,-0.00041337,-4144.3,0.40621
328,8.7724,2.3636,0,0.00040908,4087.9,0.00013608,1.6312,0.00013331,-19.142,-0.00040937,-4096.6,0.40595
329,8.7724,2.1818,0,0.00040448,4042,0.00013483,14.396,0.00013252,-2.9094,-0.00040429,-4036.3,0.4056
330,8.7724,2,0,0.00039903,3987.5,0.0001355,45.104,0.00012935,-1.1143,-0.00039826,-3965.3,0.40516
331,8.7724,1.8182,0,0.00039279,3925.2,0.00013612,77.577,0.0001257,-0.69588,-0.00039143,-3886.2,0.40463
332,8.7724,1.6364,0,0.00038585,3855.9,0.00013628,107.25,0.00012194,-0.48697,-0.00038392,-3801.4,0.40401
333,8.7724,1.4545,0,0.00037832,3780.6,0.00013575,130.93,0.00011827,-0.3504,-0.00037593,-3713.6,0.40331
334,8.7724,1.2727,0,0.00037037,3701.1,0.0001344,146.43,0.00011487,-0.25033,-0.00036766,-3625.8,0.40251
335,8.7724,1.0909,0,0.00036222,3619.7,0.00013221,152.6,0.00011188,-0.17268,-0.00035938,-3541.1,0.40163
336,8.7724,0.90909,0,0.00035415,3539,0.00012926,149.18,0.00010939,-0.10692,-0.00035137,-3462.1,0.40066
337,8.7724,0.72727,0,0.0003464,3461.6,0.00012565,136.4,0.00010748,-0.059635,-0.00034388,-3391.4,0.3996
338,8.7724,0.54545,0,0.0003392,3389.7,0.00012146,114.58,0.00010621,0.0089673,-0.00033711,-3330.9,0.39847
339,8.7724,0.36364,0,0.00033267,3324.4,0.00011675,83.642,0.0001056,-0.13903,-0.00033117,-3281.8,0.39725
340,8.7724,0.18182,0,0.00032684,3266.1,0.00011146,43.207,0.00010571,0.0016945,-0.00032608,-3244.3,0.39595
341,8.5897,5.8182,0,0.00034172,3414.8,0.00011583,36.653,0.00011094,-0.039429,-0.00034108,-3396.3,0.38051
342,8.5897,5.6364,0,0.00034658,3463.5,0.0001203,71.038,0.00011083,-0.12592,-0.00034532,-3427.5,0.3818
343,8.5897,5.4545,0,0.00035192,3516.8,0.00012417,96.532,0.00011132,0.013857,-0.00035018,-3467.5,0.38301
344,8.5897,5.2727,0,0.00035769,3574.4,0.00012747,113.36,0.00011237,-0.040086,-0.00035562,-3516.4,0.38414
345,8.5897,5.0909,0,0.00036376,3635.1,0.00013017,121.72,0.00011396,-0.079893,-0.00036154,-3572.8,0.38518
346,8.5897,4.9091,0,0.00037,3697.4,0.00013222,121.64,0.00011601,-0.14018,-0.00036778,-3635.2,0.38614
347,8.5897,4.7273,0,0.00037621,3759.5,0.00013359,113.34,0.00011847,-0.21613,-0.00037415,-3701.6,0.38701
348,8.5897,4.5455,0,0.00038222,3819.5,0.00013426,97.436,0.00012125,-0.3203,-0.00038047,-3770,0.38779
349,8.5897,4.3636,0,0.00038787,3876,0.00013428,75.18,0.00012421,-0.47734,-0.00038654,-3838.1,0.38848
350,8.5897,4.1818,0,0.00039304,3927.7,0.00013379,48.536,0.00012723,-0.77083,-0.00039221,-3903.6,0.38909
351,8.5897,4,0,0.00039767,3974,0.00013302,20.439,0.00013007,-1.7262,-0.00039735,-3964.6,0.38961
352,8.5897,3.8182,0,0.00040169,4014.1,0.00013337,2.4451,0.00013141,-12.275,-0.00040185,-4019,0.39004
353,8.5897,3.6364,0,0.00040504,4047.6,0.0001355,0.63971,0.00013061,-36.055,-0.00040563,-4065.1,0.39038
354,8.5897,3.4545,0,0.00040765,4073.7,0.00013733,0.28783,0.00012979,-56.365,-0.00040858,-4101.5,0.39063
355,8.5897,3.2727,0,0.00040946,4091.8,0.00013862,0.15531,0.0001292,-70.629,-0.00041061,-4126.5,0.39081
356,8.5897,3.0909,0,0.00041038,4101,0.00013928,0.10483,0.00012889,-77.941,-0.00041165,-4139.4,0.39089
357,8.5897,2.9091,0,0.00041038,4101,0.00013928,0.10483,0.00012889,-77.941,-0.00041165,-4139.4,0.39089
358,8.5897,2.7273,0,0.00040946,4091.8,0.00013862,0.15531,0.0001292,-70.629,-0.00041061,-4126.5,0.39081
359,8.5897,2.5455,0,0.00040765,4073.7,0.00013733,0.28783,0.00012979,-56.365,-0.00040858,-4101.5,0.39063
360,8.5897,2.3636,0,0.00040504,4047.6,0.0001355,0.63971,0.00013061,-36.055,-0.00040563,-4065.1,0.39038
361,8.5897,2.1818,0,0.00040169,4014.1,0.00013337,2.4451,0.00013141,-12.275,-0.00040185,-4019,0.39004
362,8.5897,2,0,0.00039767,3974,0.00013302,20.439,0.00013007,-1.7262,-0.00039735,-3964.6,0.38961
363,8.5897,1.8182,0,0.00039304,3927.7,0.00013379,48.536,0.00012723,-0.77083,-0.00039221,-3903.6,0.38909
364,8.5897,1.6364,0,0.00038787,3876,0.00013428,75.18,0.00012421,-0.47734,-0.00038654,-3838.1,0.38848
365,8.5897,1.4545,0,0.00038222,3819.5,0.00013426,97.436,0.00012125,-0.3203,-0.00038047,-3770,0.38779
366,8.5897,1.2727,0,0.00037621,3759.5,0.00013359,113.34,0.00011847,-0.21613,-0.00037415,-3701.6,0.38701
367,8.5897,1.0909,0,0.00037,3697.4,0.00013222,121.64,0.00011601,-0.14018,-0.00036778,-3635.2,0.38614
368,8.5897,0.90909,0,0.00036376,3635.1,0.00013017,121.72,0.00011396,-0.079892,-0.00036154,-3572.8,0.38518
369,8.5897,0.72727,0,0.00035769,3574.4,0.00012747,113.36,0.00011237,-0.040085,-0.00035562,-3516.4,0.38414
370,8.5897,0.54545,0,0.00035192,3516.8,0.00012417,96.532,0.00011132,0.013858,-0.00035018,-3467.5,0.38301
371,8.5897,0.36364,0,0.00034658,3463.5,0.0001203,71.038,0.00011083,-0.12592,-0.00034532,-3427.5,0.3818
372,8.5897,0.18182,0,0.00034172,3414.8,0.00011583,36.653,0.00011094,-0.039427,-0.00034108,-3396.3,0.38051
373,8.4069,5.8182,0,0.00035481,3545.6,0.00011964,30.604,0.00011556,-0.057328,-0.00035428,-3530.2,0.3653
374,8.4069,5.6364,0,0.00035879,3585.5,0.00012333,59.047,0.00011546,-0.10855,-0.00035775,-3555.6,0.36659
375,8.4069,5.4545,0,0.00036309,3628.4,0.00012644,79.522,0.00011586,0.016019,-0.00036167,-3588,0.36779
376,8.4069,5.2727,0,0.00036765,3674,0.00012899,92.113,0.00011673,-0.027369,-0.000366,-3627.1,0.36891
377,8.4069,5.0909,0,0.00037237,3721.2,0.00013096,97.04,0.00011804,-0.062597,-0.00037063,-3671.7,0.36994
378,8.4069,4.9091,0,0.00037715,3768.8,0.00013233,94.517,0.00011974,-0.1196,-0.00037545,-3720.8,0.37089
379,8.4069,4.7273,0,0.00038184,3815.7,0.00013309,84.982,0.00012176,-0.19662,-0.00038032,-3772.6,0.37175
380,8.4069,4.5455,0,0.00038633,3860.6,0.00013327,69.218,0.00012402,-0.31193,-0.00038511,-3825.7,0.37252
381,8.4069,4.3636,0,0.00039052,3902.5,0.00013294,48.473,0.00012642,-0.51589,-0.00038968,-3878.3,0.37321
382,8.4069,4.1818,0,0.00039433,3940.6,0.00013224,24.637,0.00012882,-1.0643,-0.00039392,-3928.7,0.37381
383,8.4069,4,0,0.00039771,3974.3,0.00013189,3.9822,0.00013052,-6.2627,-0.00039774,-3975.5,0.37432
384,8.4069,3.8182,0,0.00040061,4003.4,0.00013366,0.76081,0.0001298,-28.268,-0.00040107,-4017,0.37474
385,8.4069,3.6364,0,0.00040301,4027.4,0.00013551,0.33374,0.00012875,-50.463,-0.00040384,-4052.2,0.37508
386,8.4069,3.4545,0,0.00040487,4045.9,0.00013701,0.17645,0.00012785,-68.665,-0.00040599,-4079.7,0.37533
387,8.4069,3.2727,0,0.00040615,4058.7,0.00013805,0.1029,0.0001272,-81.466,-0.00040747,-4098.7,0.3755
388,8.4069,3.0909,0,0.00040679,4065.1,0.00013859,0.072116,0.00012686,-88.055,-0.00040822,-4108.4,0.37558
389,8.4069,2.9091,0,0.00040679,4065.1,0.00013859,0.072116,0.00012686,-88.055,-0.00040822,-4108.4,0.37558
390,8.4069,2.7273,0,0.00040615,4058.7,0.00013805,0.1029,0.0001272,-81.466,-0.00040747,-4098.7,0.3755
391,8.4069,2.5455,0,0.00040487,4045.9,0.00013701,0.17645,0.00012785,-68.665,-0.00040599,-4079.7,0.37533
392,8.4069,2.3636,0,0.00040301,4027.4,0.00013551,0.33374,0.00012875,-50.463,-0.00040384,-4052.2,0.37508
393,8.4069,2.1818,0,0.00040061,4003.4,0.00013366,0.76081,0.0001298,-28.268,-0.00040107,-4017,0.37474
394,8.4069,2,0,0.00039771,3974.3,0.00013189,3.9822,0.00013052,-6.2627,-0.00039774,-3975.5,0.37432
395,8.4069,1.8182,0,0.00039433,3940.6,0.00013224,24.637,0.00012882,-1.0643,-0.00039392,-3928.7,0.37381
396,8.4069,1.6364,0,0.00039052,3902.5,0.00013294,48.472,0.00012642,-0.51589,-0.00038968,-3878.3,0.37321
397,8.4069,1.4545,0,0.00038633,3860.6,0.00013327,69.218,0.00012402,-0.31193,-0.00038511,-3825.7,0.37252
398,8.4069,1.2727,0,0.00038184,3815.7,0.00013309,84.982,0.00012176,-0.19662,-0.00038032,-3772.6,0.37175
399,8.4069,1.0909,0,0.00037715,3768.8,0.00013233,94.517,0.00011974,-0.1196,-0.00037545,-3720.8,0.37089
400,8.4069,0.90909,0,0.00037237,3721.2,0.00013096,97.04,0.00011804,-0.062596,-0.00037063,-3671.7,0.36994
401,8.4069,0.72727,0,0.00036765,3674,0.00012899,92.113,0.00011673,-0.027367,-0.000366,-3627.1,0.36891
402,8.4069,0.54545,0,0.00036309,3628.4,0.00012644,79.522,0.00011586,0.01602,-0.00036167,-3588,0.36779
403,8.4069,0.36364,0,0.00035879,3585.5,0.00012333,59.047,0.00011546,-0.10855,-0.00035775,-3555.6,0.36659
404,8.4069,0.18182,0,0.00035481,3545.6,0.00011964,30.604,0.00011556,-0.057327,-0.00035428,-3530.2,0.3653
405,8.2241,5.8182,0,0.00036642,3661.7,0.00012302,25.08,0.00011967,-0.059502,-0.00036599,-3649.1,0.35033
406,8.2241,5.6364,0,0.00036962,3693.6,0.00012597,47.868,0.00011959,-0.089194,-0.00036878,-3669.5,0.35161
407,8.2241,5.4545,0,0.00037302,3727.6,0.00012841,63.731,0.00011993,0.016277,-0.00037189,-3695.3,0.35281
408,8.2241,5.2727,0,0.00037657,3763.1,0.00013032,72.631,0.00012065,-0.019962,-0.00037528,-3726.2,0.35392
409,8.2241,5.0909,0,0.00038019,3799.2,0.00013169,74.775,0.00012173,-0.053344,-0.00037886,-3761.3,0.35495
410,8.2241,4.9091,0,0.00038379,3835.2,0.00013253,70.453,0.00012314,-0.11023,-0.00038254,-3799.6,0.3559
411,8.2241,4.7273,0,0.00038729,3870.2,0.00013283,60.198,0.00012479,-0.1945,-0.00038623,-3839.8,0.35675
412,8.2241,4.5455,0,0.00039059,3903.2,0.00013265,44.844,0.00012664,-0.34017,-0.00038982,-3880.8,0.35752
413,8.2241,4.3636,0,0.00039365,3933.7,0.00013208,25.654,0.00012857,-0.69106,-0.00039321,-3921.2,0.3582
414,8.2241,4.1818,0,0.00039639,3961.2,0.00013146,5.9399,0.00013025,-3.1377,-0.00039634,-3959.8,0.35879
415,8.2241,4,0,0.0003988,3985.3,0.00013272,0.84055,0.00012979,-21.183,-0.00039915,-3995.4,0.35929
416,8.2241,3.8182,0,0.00040086,4005.8,0.00013444,0.35885,0.00012866,-43.115,-0.00040157,-4027,0.35971
417,8.2241,3.6364,0,0.00040254,4022.6,0.00013596,0.19438,0.00012755,-63.004,-0.00040357,-4053.6,0.36005
418,8.2241,3.4545,0,0.00040383,4035.5,0.00013718,0.11262,0.00012662,-79.215,-0.00040511,-4074.4,0.3603
419,8.2241,3.2727,0,0.0004047,4044.2,0.00013802,0.068917,0.00012595,-90.626,-0.00040616,-4088.7,0.36046
420,8.2241,3.0909,0,0.00040514,4048.6,0.00013845,0.049411,0.0001256,-96.51,-0.0004067,-4096,0.36055
421,8.2241,2.9091,0,0.00040514,4048.6,0.00013845,0.049411,0.0001256,-96.51,-0.0004067,-4096,0.36055
422,8.2241,2.7273,0,0.0004047,4044.2,0.00013802,0.068917,0.00012595,-90.626,-0.00040616,-4088.7,0.36046
423,8.2241,2.5455,0,0.00040383,4035.5,0.00013718,0.11262,0.00012662,-79.215,-0.00040511,-4074.4,0.3603
424,8.2241,2.3636,0,0.00040254,4022.6,0.00013596,0.19438,0.00012755,-63.004,-0.00040357,-4053.6,0.36005
425,8.2241,2.1818,0,0.00040086,4005.8,0.00013444,0.35885,0.00012866,-43.115,-0.00040157,-4027,0.35971
426,8.2241,2,0,0.0003988,3985.3,0.00013272,0.84055,0.00012979,-21.183,-0.00039915,-3995.4,0.35929
427,8.2241,1.8182,0,0.00039639,3961.2,0.00013146,5.9399,0.00013025,-3.1377,-0.00039634,-3959.8,0.35879
428,8.2241,1.6364,0,0.00039365,3933.7,0.00013208,25.654,0.00012857,-0.69106,-0.00039321,-3921.2,0.3582
429,8.2241,1.4545,0,0.00039059,3903.2,0.00013265,44.844,0.00012664,-0.34017,-0.00038982,-3880.8,0.35752
430,8.2241,1.2727,0,0.00038729,3870.2,0.00013283,60.198,0.00012479,-0.1945,-0.00038623,-3839.8,0.35675
431,8.2241,1.0909,0,0.00038379,3835.2,0.00013253,70.453,0.00012314,-0.11023,-0.00038254,-3799.6,0.3559
432,8.2241,0.90909,0,0.00038019,3799.2,0.00013169,74.775,0.00012173,-0.053342,-0.00037886,-3761.3,0.35495
433,8.2241,0.72727,0,0.00037657,3763.1,0.00013032,72.631,0.00012065,-0.019961,-0.00037528,-3726.2,0.35392
434,8.2241,0.54545,0,0.00037302,3727.6,0.00012841,63.731,0.00011993,0.016278,-0.00037189,-3695.3,0.35281
435,8.2241,0.36364,0,0.00036962,3693.6,0.00012597,47.868,0.00011959,-0.089192,-0.00036878,-3669.5,0.35161
436,8.2241,0.18182,0,0.00036642,3661.7,0.00012302,25.08,0.00011967,-0.059501,-0.00036599,-3649.1,0.35033
437,8.0414,5.8182,0,0.00037684,3765.8,0.00012603,20.061,0.00012336,-0.051908,-0.00037649,-3755.7,0.3356
438,8.0414,5.6364,0,0.00037932,3790.6,0.00012832,37.577,0.0001233,-0.069395,-0.00037867,-3771.7,0.33688
439,8.0414,5.4545,0,0.00038195,3816.9,0.00013015,49.214,0.0001236,0.015069,-0.00038109,-3792,0.33808
440,8.0414,5.2727,0,0.00038466,3843.9,0.00013151,54.838,0.00012421,-0.017111,-0.00038369,-3816.2,0.33919
441,8.0414,5.0909,0,0.00038737,3871.1,0.00013239,54.626,0.00012511,-0.051918,-0.00038642,-3843.5,0.34022
442,8.0414,4.9091,0,0.00039004,3897.7,0.0001328,48.892,0.00012627,-0.11454,-0.00038919,-3873.1,0.34116
443,8.0414,4.7273,0,0.00039259,3923.1,0.00013275,38.192,0.00012764,-0.22227,-0.00039193,-3904,0.34201
444,8.0414,4.5455,0,0.00039496,3946.9,0.00013231,23.4,0.00012914,-0.47262,-0.00039457,-3935.4,0.34277
445,8.0414,4.3636,0,0.00039713,3968.5,0.0001317,6.609,0.00013056,-1.9414,-0.00039705,-3966.2,0.34344
446,8.0414,4.1818,0,0.00039905,3987.7,0.00013257,0.8215,0.00013027,-16.397,-0.00039931,-3995.5,0.34403
447,8.0414,4,0,0.00040071,4004.4,0.00013408,0.35006,0.00012914,-36.773,-0.00040132,-4022.5,0.34454
448,8.0414,3.8182,0,0.00040211,4018.4,0.00013551,0.19796,0.00012794,-56.645,-0.00040304,-4046.3,0.34495
449,8.0414,3.6364,0,0.00040325,4029.7,0.00013675,0.11978,0.00012683,-74.411,-0.00040446,-4066.3,0.34528
450,8.0414,3.4545,0,0.0004041,4038.2,0.00013774,0.073398,0.0001259,-88.844,-0.00040554,-4081.9,0.34553
451,8.0414,3.2727,0,0.00040468,4044,0.00013842,0.046245,0.00012524,-99,-0.00040627,-4092.6,0.3457
452,8.0414,3.0909,0,0.00040497,4046.9,0.00013877,0.033551,0.0001249,-104.24,-0.00040664,-4098,0.34578
453,8.0414,2.9091,0,0.00040497,4046.9,0.00013877,0.033551,0.0001249,-104.24,-0.00040664,-4098,0.34578
454,8.0414,2.7273,0,0.00040468,4044,0.00013842,0.046245,0.00012524,-99,-0.00040627,-4092.6,0.3457
455,8.0414,2.5455,0,0.0004041,4038.2,0.00013774,0.073398,0.0001259,-88.844,-0.00040554,-4081.9,0.34553
456,8.0414,2.3636,0,0.00040325,4029.7,0.00013675,0.11978,0.00012683,-74.411,-0.00040446,-4066.3,0.34528
457,8.0414,2.1818,0,0.00040211,4018.4,0.00013551,0.19796,0.00012794,-56.645,-0.00040304,-4046.3,0.34495
458,8.0414,2,0,0.00040071,4004.4,0.00013408,0.35006,0.00012914,-36.773,-0.00040132,-4022.5,0.34454
459,8.0414,1.8182,0,0.00039905,3987.7,0.00013257,0.8215,0.00013027,-16.397,-0.00039931,-3995.5,0.34403
460,8.0414,1.6364,0,0.00039713,3968.5,0.0001317,6.609,0.00013056,-1.9414,-0.00039705,-3966.2,0.34344
461,8.0414,1.4545,0,0.00039496,3946.9,0.00013231,23.4,0.00012914,-0.47262,-0.00039457,-3935.4,0.34277
462,8.0414,1.2727,0,0.00039259,3923.1,0.00013275,38.192,0.00012764,-0.22227,-0.00039193,-3904,0.34201
463,8.0414,1.0909,0,0.00039004,3897.7,0.0001328,48.892,0.00012627,-0.11454,-0.00038919,-3873.1,0.34116
464,8.0414,0.90909,0,0.00038737,3871.1,0.00013239,54.626,0.00012511,-0.051917,-0.00038642,-3843.5,0.34022
465,8.0414,0.72727,0,0.00038466,3843.9,0.00013151,54.838,0.00012421,-0.01711,-0.00038369,-3816.2,0.33919
466,8.0414,0.54545,0,0.00038195,3816.9,0.00013015,49.214,0.0001236,0.015069,-0.00038109,-3792,0.33808
467,8.0414,0.36364,0,0.00037932,3790.6,0.00012832,37.577,0.0001233,-0.069394,-0.00037867,-3771.7,0.33688
468,8.0414,0.18182,0,0.00037684,3765.8,0.00012603,20.061,0.00012336,-0.051907,-0.00037649,-3755.7,0.3356
469,7.8586,5.8182,0,0.00038628,3860.1,0.00012877,15.504,0.0001267,-0.038941,-0.00038601,-3852.4,0.32112
470,7.8586,5.6364,0,0.00038814,3878.7,0.00013044,28.169,0.00012668,-0.050278,-0.00038766,-3864.6,0.3224
471,7.8586,5.4545,0,0.0003901,3898.3,0.00013173,35.939,0.00012695,0.012253,-0.00038948,-3880.2,0.3236
472,7.8586,5.2727,0,0.0003921,3918.3,0.00013262,38.611,0.00012747,-0.01941,-0.00039143,-3898.9,0.32471
473,7.8586,5.0909,0,0.00039408,3938,0.00013308,36.33,0.00012824,-0.061451,-0.00039345,-3919.8,0.32574
474,7.8586,4.9091,0,0.00039598,3957.1,0.00013314,29.411,0.0001292,-0.14572,-0.00039547,-3942.4,0.32667
475,7.8586,4.7273,0,0.00039777,3975,0.00013282,18.444,0.00013032,-0.3477,-0.00039746,-3965.9,0.32752
476,7.8586,4.5455,0,0.00039941,3991.4,0.00013231,5.1012,0.00013142,-1.6211,-0.00039935,-3989.6,0.32828
477,7.8586,4.3636,0,0.00040088,4006,0.00013306,0.66377,0.00013106,-14.337,-0.00040111,-4012.8,0.32896
478,7.8586,4.1818,0,0.00040216,4018.8,0.00013435,0.30457,0.00012997,-32.599,-0.0004027,-4034.9,0.32955
479,7.8586,4,0,0.00040325,4029.7,0.00013563,0.18382,0.00012876,-51.394,-0.0004041,-4055.1,0.33005
480,7.8586,3.8182,0,0.00040415,4038.7,0.0001368,0.11835,0.00012756,-69.339,-0.00040528,-4072.9,0.33046
481,7.8586,3.6364,0,0.00040486,4045.9,0.00013781,0.07631,0.00012645,-85.264,-0.00040625,-4087.8,0.33079
482,7.8586,3.4545,0,0.0004054,4051.2,0.00013862,0.048308,0.00012555,-98.156,-0.00040698,-4099.3,0.33104
483,7.8586,3.2727,0,0.00040575,4054.7,0.00013918,0.030819,0.0001249,-107.21,-0.00040747,-4107.3,0.33121
484,7.8586,3.0909,0,0.00040593,4056.5,0.00013946,0.022361,0.00012457,-111.88,-0.00040772,-4111.3,0.33129
485,7.8586,2.9091,0,0.00040593,4056.5,0.00013946,0.022361,0.00012457,-111.88,-0.00040772,-4111.3,0.33129
486,7.8586,2.7273,0,0.00040575,4054.7,0.00013918,0.030819,0.0001249,-107.21,-0.00040747,-4107.3,0.33121
487,7.8586,2.5455,0,0.0004054,4051.2,0.00013862,0.048309,0.00012555,-98.156,-0.00040698,-4099.3,0.33104
488,7.8586,2.3636,0,0.00040486,4045.9,0.00013781,0.076311,0.00012645,-85.264,-0.00040625,-4087.8,0.33079
489,7.8586,2.1818,0,0.00040415,4038.7,0.0001368,0.11835,0.00012756,-69.339,-0.00040528,-4072.9,0.33046
490,7.8586,2,0,0.00040325,4029.7,0.00013563,0.18382,0.00012876,-51.394,-0.0004041,-4055.1,0.33005
491,7.8586,1.8182,0,0.00040216,4018.8,0.00013435,0.30457,0.00012997,-32.599,-0.0004027,-4034.9,0.32955
492,7.8586,1.6364,0,0.00040088,4006,0.00013306,0.66377,0.00013106,-14.337,-0.00040111,-4012.8,0.32896
493,7.8586,1.4545,0,0.00039941,3991.4,0.00013231,5.1012,0.00013142,-1.6211,-0.00039935,-3989.6,0.32828
494,7.8586,1.2727,0,0.00039777,3975,0.00013282,18.444,0.00013032,-0.3477,-0.00039746,-3965.9,0.32752
495,7.8586,1.0909,0,0.00039598,3957.1,0.00013314,29.411,0.0001292,-0.14572,-0.00039547,-3942.4,0.32667
496,7.8586,0.90909,0,0.00039408,3938,0.00013308,36.33,0.00012824,-0.061449,-0.00039345,-3919.8,0.32574
497,7.8586,0.72727,0,0.0003921,3918.3,0.00013262,38.611,0.00012747,-0.019409,-0.00039143,-3898.9,0.32471
498,7.8586,0.54545,0,0.0003901,3898.3,0.00013173,35.939,0.00012695,0.012254,-0.00038948,-3880.2,0.3236
499,7.8586,0.36364,0,0.00038814,3878.7,0.00013044,28.169,0.00012668,-0.050276,-0.00038766,-3864.6,0.3224
500,7.8586,0.18182,0,0.00038628,3860.1,0.00012877,15.504,0.0001267,-0.038939,-0.00038601,-3852.4,0.32112
501,7.6759,5.8182,0,0.00039494,3946.7,0.00013128,11.356,0.00012977,-0.023652,-0.00039475,-3941,0.30689
502,7.6759,5.6364,0,0.00039626,3959.8,0.0001324,19.591,0.00012979,-0.032797,-0.00039592,-3950,0.30818
503,7.6759,5.4545,0,0.00039765,3973.7,0.00013321,23.818,0.00013004,0.0065442,-0.00039724,-3961.8,0.30938
504,7.6759,5.2727,0,0.00039904,3987.7,0.00013367,23.797,0.0001305,-0.031187,-0.00039863,-3975.8,0.3105
505,7.6759,5.0909,0,0.00040041,4001.3,0.00013378,19.651,0.00013115,-0.099016,-0.00040007,-3991.5,0.31152
506,7.6759,4.9091,0,0.00040169,4014.1,0.00013355,11.746,0.00013195,-0.29765,-0.0004015,-4008.4,0.31246
507,7.6759,4.7273,0,0.00040287,4026,0.00013325,2.2166,0.00013265,-2.2872,-0.00040287,-4026,0.31331
508,7.6759,4.5455,0,0.00040393,4036.5,0.00013406,0.43286,0.00013204,-14.791,-0.00040417,-4043.7,0.31407
509,7.6759,4.3636,0,0.00040485,4045.7,0.00013514,0.23527,0.00013101,-30.843,-0.00040536,-4060.9,0.31474
510,7.6759,4.1818,0,0.00040563,4053.5,0.00013624,0.15571,0.00012983,-48.049,-0.00040642,-4077.2,0.31533
511,7.6759,4,0,0.00040627,4059.9,0.0001373,0.10793,0.00012859,-65.32,-0.00040734,-4092.1,0.31583
512,7.6759,3.8182,0,0.00040678,4065,0.00013827,0.074368,0.00012739,-81.626,-0.00040811,-4105.2,0.31624
513,7.6759,3.6364,0,0.00040718,4069,0.0001391,0.049636,0.00012632,-95.997,-0.00040873,-4116.1,0.31657
514,7.6759,3.4545,0,0.00040747,4071.9,0.00013976,0.031812,0.00012544,-107.58,-0.00040919,-4124.6,0.31682
515,7.6759,3.2727,0,0.00040766,4073.8,0.00014022,0.020156,0.00012482,-115.71,-0.0004095,-4130.4,0.31699
516,7.6759,3.0909,0,0.00040775,4074.7,0.00014045,0.014379,0.0001245,-119.89,-0.00040966,-4133.3,0.31707
517,7.6759,2.9091,0,0.00040775,4074.7,0.00014045,0.014379,0.0001245,-119.89,-0.00040966,-4133.3,0.31707
518,7.6759,2.7273,0,0.00040766,4073.8,0.00014022,0.020156,0.00012482,-115.71,-0.0004095,-4130.4,0.31699
519,7.6759,2.5455,0,0.00040747,4071.9,0.00013976,0.031812,0.00012544,-107.58,-0.00040919,-4124.6,0.31682
520,7.6759,2.3636,0,0.00040718,4069,0.0001391,0.049636,0.00012632,-95.997,-0.00040873,-4116.1,0.31657
521,7.6759,2.1818,0,0.00040678,4065,0.00013827,0.074368,0.00012739,-81.626,-0.00040811,-4105.2,0.31624
522,7.6759,2,0,0.00040627,4059.9,0.0001373,0.10794,0.00012859,-65.32,-0.00040734,-4092.1,0.31583
523,7.6759,1.8182,0,0.00040563,4053.5,0.00013624,0.15571,0.00012983,-48.049,-0.00040642,-4077.2,0.31533
524,7.6759,1.6364,0,0.00040485,4045.7,0.00013514,0.23527,0.00013101,-30.843,-0.00040536,-4060.9,0.31474
525,7.6759,1.4545,0,0.00040393,4036.5,0.00013406,0.43286,0.00013204,-14.791,-0.00040417,-4043.7,0.31407
526,7.6759,1.2727,0,0.00040287,4026,0.00013325,2.2166,0.00013265,-2.2873,-0.00040287,-4026,0.31331
527,7.6759,1.0909,0,0.00040169,4014.1,0.00013355,11.746,0.00013195,-0.29765,-0.0004015,-4008.4,0.31246
528,7.6759,0.90909,0,0.00040041,4001.3,0.00013378,19.651,0.00013115,-0.099014,-0.00040007,-3991.5,0.31152
529,7.6759,0.72727,0,0.00039904,3987.7,0.00013367,23.797,0.0001305,-0.031186,-0.00039863,-3975.8,0.3105
530,7.6759,0.54545,0,0.00039765,3973.7,0.00013321,23.818,0.00013004,0.0065446,-0.00039724,-3961.8,0.30938
531,7.6759,0.36364,0,0.00039626,3959.8,0.0001324,19.591,0.00012979,-0.032795,-0.00039592,-3950,0.30818
532,7.6759,0.18182,0,0.00039494,3946.7,0.00013128,11.356,0.00012977,-0.023651,-0.00039475,-3941,0.30689
533,7.4931,5.8182,0,0.00040298,4027,0.00013362,7.5584,0.00013261,-0.0082929,-0.00040285,-4023.2,0.29294
534,7.4931,5.6364,0,0.00040382,4035.4,0.00013424,11.759,0.00013268,-0.018709,-0.00040362,-4029.5,0.29423
535,7.4931,5.4545,0,0.00040471,4044.3,0.00013462,12.737,0.00013292,-0.0084544,-0.00040449,-4038,0.29543
536,7.4931,5.2727,0,0.0004056,4053.2,0.00013471,10.25,0.00013333,-0.081645,-0.00040543,-4048.1,0.29655
537,7.4931,5.0909,0,0.00040645,4061.7,0.00013453,4.586,0.00013387,-0.40117,-0.00040638,-4059.6,0.29757
538,7.4931,4.9091,0,0.00040723,4069.5,0.0001347,0.54808,0.0001339,-5.528,-0.00040731,-4072,0.29851
539,7.4931,4.7273,0,0.00040792,4076.3,0.00013548,0.24483,0.00013317,-17.143,-0.0004082,-4084.8,0.29936
540,7.4931,4.5455,0,0.0004085,4082.2,0.00013636,0.16502,0.00013219,-31.158,-0.00040902,-4097.6,0.30012
541,7.4931,4.3636,0,0.00040899,4087,0.00013728,0.12211,0.00013105,-46.677,-0.00040976,-4110.1,0.30079
542,7.4931,4.1818,0,0.00040937,4090.9,0.0001382,0.091824,0.00012982,-62.875,-0.0004104,-4121.9,0.30138
543,7.4931,4,0,0.00040966,4093.8,0.00013908,0.067898,0.00012858,-78.886,-0.00041095,-4132.6,0.30188
544,7.4931,3.8182,0,0.00040988,4096,0.00013989,0.048364,0.00012739,-93.847,-0.00041139,-4142.1,0.3023
545,7.4931,3.6364,0,0.00041003,4097.5,0.00014058,0.032661,0.00012634,-106.94,-0.00041174,-4149.9,0.30263
546,7.4931,3.4545,0,0.00041013,4098.5,0.00014112,0.020735,0.00012549,-117.45,-0.000412,-4155.9,0.30288
547,7.4931,3.2727,0,0.00041019,4099.1,0.0001415,0.012686,0.00012489,-124.79,-0.00041217,-4160.1,0.30304
548,7.4931,3.0909,0,0.00041022,4099.4,0.00014169,0.0086277,0.00012458,-128.57,-0.00041226,-4162.2,0.30312
549,7.4931,2.9091,0,0.00041022,4099.4,0.00014169,0.0086276,0.00012458,-128.57,-0.00041226,-4162.2,0.30312
550,7.4931,2.7273,0,0.00041019,4099.1,0.0001415,0.012686,0.00012489,-124.79,-0.00041217,-4160.1,0.30304
551,7.4931,2.5455,0,0.00041013,4098.5,0.00014112,0.020735,0.00012549,-117.45,-0.000412,-4155.9,0.30288
552,7.4931,2.3636,0,0.00041003,4097.5,0.00014058,0.032661,0.00012634,-106.94,-0.00041174,-4149.9,0.30263
553,7.4931,2.1818,0,0.00040988,4096,0.00013989,0.048364,0.00012739,-93.847,-0.00041139,-4142.1,0.3023
554,7.4931,2,0,0.00040966,4093.8,0.00013908,0.067898,0.00012858,-78.886,-0.00041095,-4132.6,0.30188
555,7.4931,1.8182,0,0.00040937,4090.9,0.0001382,0.091825,0.00012982,-62.875,-0.0004104,-4121.9,0.30138
556,7.4931,1.6364,0,0.00040899,4087,0.00013728,0.12211,0.00013105,-46.677,-0.00040976,-4110.1,0.30079
557,7.4931,1.4545,0,0.0004085,4082.2,0.00013636,0.16502,0.00013219,-31.158,-0.00040902,-4097.6,0.30012
558,7.4931,1.2727,0,0.00040792,4076.3,0.00013548,0.24483,0.00013317,-17.143,-0.0004082,-4084.8,0.29936
559,7.4931,1.0909,0,0.00040723,4069.5,0.0001347,0.54808,0.0001339,-5.528,-0.00040731,-4072,0.29851
560,7.4931,0.90909,0,0.00040645,4061.7,0.00013453,4.586,0.00013387,-0.40117,-0.00040638,-4059.6,0.29757
561,7.4931,0.72727,0,0.0004056,4053.2,0.00013471,10.25,0.00013333,-0.081643,-0.00040543,-4048.1,0.29655
562,7.4931,0.54545,0,0.00040471,4044.3,0.00013462,12.737,0.00013292,-0.0084535,-0.00040449,-4038,0.29543
563,7.4931,0.36364,0,0.00040382,4035.4,0.00013424,11.759,0.00013268,-0.018708,-0.00040362,-4029.5,0.29423
564,7.4931,0.18182,0,0.00040298,4027,0.00013362,7.5584,0.00013261,-0.0082915,-0.00040285,-4023.2,0.29294
565,7.3103,5.8182,0,0.00041053,4102.5,0.00013581,4.0591,0.00013527,0.0040742,-0.00041046,-4100.4,0.27925
566,7.3103,5.6364,0,0.00041095,4106.6,0.000136,4.5882,0.00013538,-0.018821,-0.00041087,-4104.3,0.28054
567,7.3103,5.4545,0,0.00041141,4111.3,0.00013599,2.6588,0.00013562,-0.13404,-0.00041137,-4110,0.28175
568,7.3103,5.2727,0,0.00041186,4115.8,0.00013608,0.36185,0.00013567,-2.7431,-0.00041191,-4117,0.28287
569,7.3103,5.0909,0,0.00041228,4120,0.00013657,0.1795,0.00013519,-10.242,-0.00041245,-4125,0.2839
570,7.3103,4.9091,0,0.00041263,4123.5,0.00013719,0.13529,0.00013445,-20.43,-0.00041298,-4133.6,0.28484
571,7.3103,4.7273,0,0.00041292,4126.3,0.00013789,0.11057,0.00013351,-32.807,-0.00041346,-4142.6,0.28568
572,7.3103,4.5455,0,0.00041312,4128.4,0.00013865,0.091385,0.0001324,-46.847,-0.0004139,-4151.6,0.28645
573,7.3103,4.3636,0,0.00041326,4129.7,0.00013944,0.074492,0.00013118,-61.927,-0.00041427,-4160.3,0.28712
574,7.3103,4.1818,0,0.00041332,4130.4,0.00014022,0.05899,0.00012991,-77.349,-0.00041458,-4168.5,0.28771
575,7.3103,4,0,0.00041334,4130.6,0.00014096,0.044807,0.00012866,-92.376,-0.00041484,-4176,0.28821
576,7.3103,3.8182,0,0.00041332,4130.4,0.00014163,0.032189,0.00012748,-106.27,-0.00041503,-4182.5,0.28862
577,7.3103,3.6364,0,0.00041329,4130,0.00014221,0.021503,0.00012645,-118.35,-0.00041517,-4187.9,0.28896
578,7.3103,3.4545,0,0.00041324,4129.6,0.00014266,0.013118,0.00012563,-127.98,-0.00041527,-4192.1,0.2892
579,7.3103,3.2727,0,0.00041321,4129.2,0.00014298,0.0073432,0.00012505,-134.7,-0.00041533,-4194.9,0.28937
580,7.3103,3.0909,0,0.00041319,4129,0.00014314,0.0043991,0.00012475,-138.14,-0.00041536,-4196.4,0.28945
581,7.3103,2.9091,0,0.00041319,4129,0.00014314,0.0043988,0.00012475,-138.14,-0.00041536,-4196.4,0.28945
582,7.3103,2.7273,0,0.00041321,4129.2,0.00014298,0.0073435,0.00012505,-134.7,-0.00041533,-4194.9,0.28937
583,7.3103,2.5455,0,0.00041324,4129.6,0.00014266,0.013118,0.00012563,-127.98,-0.00041527,-4192.1,0.2892
584,7.3103,2.3636,0,0.00041329,4130,0.00014221,0.021503,0.00012645,-118.35,-0.00041517,-4187.9,0.28896
585,7.3103,2.1818,0,0.00041332,4130.4,0.00014163,0.03219,0.00012748,-106.27,-0.00041503,-4182.5,0.28862
586,7.3103,2,0,0.00041334,4130.6,0.00014096,0.044807,0.00012866,-92.376,-0.00041484,-4176,0.28821
587,7.3103,1.8182,0,0.00041332,4130.4,0.00014022,0.05899,0.00012991,-77.349,-0.00041458,-4168.5,0.28771
588,7.3103,1.6364,0,0.00041326,4129.7,0.00013944,0.074493,0.00013118,-61.927,-0.00041427,-4160.3,0.28712
589,7.3103,1.4545,0,0.00041312,4128.4,0.00013865,0.091386,0.0001324,-46.847,-0.0004139,-4151.6,0.28645
590,7.3103,1.2727,0,0.00041292,4126.3,0.00013789,0.11057,0.00013351,-32.807,-0.00041346,-4142.6,0.28568
591,7.3103,1.0909,0,0.00041263,4123.5,0.00013719,0.13529,0.00013445,-20.43,-0.00041298,-4133.6,0.28484
592,7.3103,0.90909,0,0.00041228,4120,0.00013657,0.1795,0.00013519,-10.242,-0.00041245,-4125,0.2839
593,7.3103,0.72727,0,0.00041186,4115.8,0.00013608,0.36185,0.00013567,-2.7431,-0.00041191,-4117,0.28287
594,7.3103,0.54545,0,0.00041141,4111.3,0.00013599,2.6587,0.00013562,-0.13404,-0.00041137,-4110,0.28175
595,7.3103,0.36364,0,0.00041095,4106.6,0.000136,4.5883,0.00013538,-0.01882,-0.00041087,-4104.3,0.28054
596,7.3103,0.18182,0,0.00041053,4102.5,0.00013581,4.0591,0.00013527,0.0040754,-0.00041046,-4100.4,0.27925
597,7.1276,5.8182,0,0.00041769,4174,0.00013791,0.83846,0.0001378,-0.019996,-0.00041768,-4173.6,0.26583
598,7.1276,5.6364,0,0.00041774,4174.5,0.00013797,0.088234,0.00013767,-2.1435,-0.00041777,-4175.5,0.26713
599,7.1276,5.4545,0,0.00041782,4175.4,0.00013824,0.085516,0.00013729,-7.0141,-0.00041794,-4178.8,0.26834
600,7.1276,5.2727,0,0.0004179,4176.1,0.00013862,0.084113,0.00013672,-14.148,-0.00041814,-4183.2,0.26947
601,7.1276,5.0909,0,0.00041795,4176.6,0.00013909,0.080947,0.00013595,-23.485,-0.00041834,-4188.2,0.2705
602,7.1276,4.9091,0,0.00041795,4176.6,0.00013965,0.075418,0.00013501,-34.817,-0.00041853,-4193.8,0.27144
603,7.1276,4.7273,0,0.00041789,4176,0.00014027,0.068109,0.0001339,-47.802,-0.00041868,-4199.7,0.27229
604,7.1276,4.5455,0,0.00041778,4174.9,0.00014093,0.059469,0.00013267,-61.986,-0.0004188,-4205.5,0.27305
605,7.1276,4.3636,0,0.00041763,4173.4,0.00014161,0.05,0.00013138,-76.827,-0.00041888,-4211.3,0.27372
606,7.1276,4.1818,0,0.00041744,4171.5,0.00014228,0.040209,0.00013006,-91.719,-0.00041893,-4216.6,0.27431
607,7.1276,4,0,0.00041724,4169.5,0.00014291,0.030607,0.00012879,-106.03,-0.00041894,-4221.5,0.27481
608,7.1276,3.8182,0,0.00041703,4167.5,0.00014348,0.021695,0.00012762,-119.12,-0.00041893,-4225.7,0.27523
609,7.1276,3.6364,0,0.00041685,4165.6,0.00014397,0.01394,0.00012661,-130.41,-0.00041891,-4229.3,0.27556
610,7.1276,3.4545,0,0.00041669,4164,0.00014435,0.0077466,0.0001258,-139.38,-0.00041889,-4232,0.27581
611,7.1276,3.2727,0,0.00041658,4162.9,0.00014462,0.0034325,0.00012524,-145.6,-0.00041886,-4233.8,0.27598
612,7.1276,3.0909,0,0.00041652,4162.3,0.00014476,0.0012189,0.00012495,-148.79,-0.00041885,-4234.7,0.27606
613,7.1276,2.9091,0,0.00041652,4162.3,0.00014476,0.0012193,0.00012495,-148.79,-0.00041885,-4234.7,0.27606
614,7.1276,2.7273,0,0.00041658,4162.9,0.00014462,0.0034327,0.00012524,-145.6,-0.00041886,-4233.8,0.27598
615,7.1276,2.5455,0,0.00041669,4164,0.00014435,0.0077472,0.0001258,-139.38,-0.00041889,-4232,0.27581
616,7.1276,2.3636,0,0.00041685,4165.6,0.00014397,0.01394,0.00012661,-130.41,-0.00041891,-4229.3,0.27556
617,7.1276,2.1818,0,0.00041703,4167.5,0.00014348,0.021696,0.00012762,-119.12,-0.00041893,-4225.7,0.27523
618,7.1276,2,0,0.00041724,4169.5,0.00014291,0.030608,0.00012879,-106.03,-0.00041894,-4221.5,0.27481
619,7.1276,1.8182,0,0.00041744,4171.5,0.00014228,0.040209,0.00013006,-91.719,-0.00041893,-4216.6,0.27431
620,7.1276,1.6364,0,0.00041763,4173.4,0.00014161,0.050001,0.00013138,-76.827,-0.00041888,-4211.3,0.27372
621,7.1276,1.4545,0,0.00041778,4174.9,0.00014093,0.059469,0.00013267,-61.986,-0.0004188,-4205.5,0.27305
622,7.1276,1.2727,0,0.00041789,4176,0.00014027,0.06811,0.0001339,-47.802,-0.00041868,-4199.7,0.27229
623,7.1276,1.0909,0,0.00041795,4176.6,0.00013965,0.075418,0.00013501,-34.817,-0.00041853,-4193.8,0.27144
624,7.1276,0.90909,0,0.00041795,4176.6,0.00013909,0.080949,0.00013595,-23.485,-0.00041834,-4188.2,0.2705
625,7.1276,0.72727,0,0.0004179,4176.1,0.00013862,0.084113,0.00013672,-14.148,-0.00041814,-4183.2,0.26947
626,7.1276,0.54545,0,0.00041782,4175.4,0.00013824,0.085516,0.00013729,-7.0141,-0.00041794,-4178.8,0.26834
627,7.1276,0.36364,0,0.00041774,4174.5,0.00013797,0.088235,0.00013767,-2.1435,-0.00041777,-4175.5,0.26713
628,7.1276,0.18182,0,0.00041769,4174,0.00013791,0.83846,0.0001378,-0.019994,-0.00041768,-4173.6,0.26583
629,6.9448,5.8182,0,0.00042456,4242.6,0.00014022,0.064047,0.00013991,-2.295,-0.0004246,-4243.8,0.2527
630,6.9448,5.6364,0,0.00042427,4239.8,0.00014042,0.058974,0.00013931,-8.2913,-0.00042441,-4243.9,0.254
631,6.9448,5.4545,0,0.00042402,4237.3,0.00014072,0.053691,0.0001386,-15.825,-0.00042429,-4245.2,0.25522
632,6.9448,5.2727,0,0.00042377,4234.8,0.00014109,0.056709,0.00013774,-25.111,-0.00042419,-4247.3,0.25634
633,6.9448,5.0909,0,0.0004235,4232,0.00014154,0.055668,0.00013673,-36.101,-0.0004241,-4249.9,0.25737
634,6.9448,4.9091,0,0.00042319,4228.9,0.00014206,0.052991,0.00013558,-48.598,-0.00042399,-4253,0.25831
635,6.9448,4.7273,0,0.00042284,4225.5,0.00014262,0.048458,0.00013432,-62.296,-0.00042387,-4256.3,0.25917
636,6.9448,4.5455,0,0.00042247,4221.8,0.00014321,0.042613,0.00013298,-76.79,-0.00042372,-4259.6,0.25993
637,6.9448,4.3636,0,0.00042208,4217.9,0.0001438,0.035855,0.00013161,-91.602,-0.00042356,-4262.9,0.26061
638,6.9448,4.1818,0,0.00042168,4213.9,0.00014438,0.028645,0.00013025,-106.2,-0.00042339,-4266,0.2612
639,6.9448,4,0,0.0004213,4210.1,0.00014493,0.021426,0.00012895,-120.04,-0.00042321,-4268.8,0.2617
640,6.9448,3.8182,0,0.00042094,4206.5,0.00014543,0.014633,0.00012778,-132.58,-0.00042304,-4271.2,0.26211
641,6.9448,3.6364,0,0.00042063,4203.4,0.00014585,0.0086635,0.00012677,-143.31,-0.00042289,-4273.2,0.26245
642,6.9448,3.4545,0,0.00042039,4201,0.00014618,0.0038638,0.00012598,-151.77,-0.00042276,-4274.8,0.2627
643,6.9448,3.2727,0,0.00042021,4199.2,0.00014641,0.0005052,0.00012543,-157.63,-0.00042267,-4275.8,0.26286
644,6.9448,3.0909,0,0.00042013,4198.4,0.00014652,-0.001223,0.00012514,-160.62,-0.00042263,-4276.4,0.26294
645,6.9448,2.9091,0,0.00042013,4198.4,0.00014652,-0.001223,0.00012514,-160.62,-0.00042263,-4276.4,0.26294
646,6.9448,2.7273,0,0.00042021,4199.2,0.00014641,0.00050505,0.00012543,-157.63,-0.00042267,-4275.8,0.26286
647,6.9448,2.5455,0,0.00042039,4201,0.00014618,0.0038642,0.00012598,-151.77,-0.00042276,-4274.8,0.2627
648,6.9448,2.3636,0,0.00042063,4203.4,0.00014585,0.0086634,0.00012677,-143.31,-0.00042289,-4273.2,0.26245
649,6.9448,2.1818,0,0.00042094,4206.5,0.00014543,0.014633,0.00012778,-132.58,-0.00042304,-4271.2,0.26211
650,6.9448,2,0,0.0004213,4210.1,0.00014493,0.021427,0.00012895,-120.04,-0.00042321,-4268.8,0.2617
651,6.9448,1.8182,0,0.00042168,4213.9,0.00014438,0.028645,0.00013025,-106.2,-0.00042339,-4266,0.2612
652,6.9448,1.6364,0,0.00042208,4217.9,0.0001438,0.035856,0.00013161,-91.602,-0.00042356,-4262.9,0.26061
653,6.9448,1.4545,0,0.00042247,4221.8,0.00014321,0.042613,0.00013298,-76.79,-0.00042372,-4259.6,0.25993
654,6.9448,1.2727,0,0.00042284,4225.5,0.00014262,0.048459,0.00013432,-62.296,-0.00042387,-4256.3,0.25917
655,6.9448,1.0909,0,0.00042319,4228.9,0.00014206,0.052992,0.00013558,-48.598,-0.00042399,-4253,0.25831
656,6.9448,0.90909,0,0.0004235,4232,0.00014154,0.055669,0.00013673,-36.101,-0.0004241,-4249.9,0.25737
657,6.9448,0.72727,0,0.00042377,4234.8,0.00014109,0.056709,0.00013774,-25.111,-0.00042419,-4247.3,0.25634
658,6.9448,0.54545,0,0.00042402,4237.3,0.00014072,0.053691,0.0001386,-15.825,-0.00042429,-4245.2,0.25522
659,6.9448,0.36364,0,0.00042427,4239.8,0.00014042,0.058976,0.00013931,-8.2913,-0.00042441,-4243.9,0.254
660,6.9448,0.18182,0,0.00042456,4242.6,0.00014022,0.064049,0.00013991,-2.295,-0.0004246,-4243.8,0.2527
661,6.7621,5.8182,0,0.00043119,4309,0.00014256,0.069609,0.00014186,-5.1964,-0.00043128,-4311.5,0.23984
662,6.7621,5.6364,0,0.00043061,4303.1,0.0001428,0.067923,0.00014092,-14.123,-0.00043084,-4310.1,0.24115
663,6.7621,5.4545,0,0.00043006,4297.6,0.00014312,0.046226,0.0001399,-24.183,-0.00043047,-4309.7,0.24237
664,6.7621,5.2727,0,0.00042951,4292.2,0.0001435,0.047705,0.00013876,-35.565,-0.00043011,-4309.8,0.2435
665,6.7621,5.0909,0,0.00042896,4286.6,0.00014394,0.044756,0.00013752,-48.217,-0.00042975,-4310.5,0.24453
666,6.7621,4.9091,0,0.00042838,4280.8,0.00014443,0.041814,0.00013617,-61.953,-0.0004294,-4311.4,0.24548
667,6.7621,4.7273,0,0.00042778,4274.9,0.00014494,0.03762,0.00013476,-76.49,-0.00042903,-4312.6,0.24633
668,6.7621,4.5455,0,0.00042718,4268.9,0.00014548,0.032622,0.0001333,-91.466,-0.00042867,-4313.9,0.2471
669,6.7621,4.3636,0,0.00042659,4262.9,0.00014602,0.027002,0.00013184,-106.45,-0.0004283,-4315.2,0.24777
670,6.7621,4.1818,0,0.00042601,4257.2,0.00014654,0.021087,0.00013043,-120.99,-0.00042794,-4316.4,0.24836
671,6.7621,4,0,0.00042548,4251.8,0.00014702,0.015204,0.00012911,-134.6,-0.00042761,-4317.5,0.24886
672,6.7621,3.8182,0,0.00042499,4247,0.00014746,0.0096837,0.00012792,-146.8,-0.0004273,-4318.5,0.24928
673,6.7621,3.6364,0,0.00042458,4242.9,0.00014783,0.0048408,0.00012691,-157.16,-0.00042704,-4319.3,0.24962
674,6.7621,3.4545,0,0.00042426,4239.7,0.00014811,0.00094889,0.00012612,-165.3,-0.00042683,-4319.9,0.24987
675,6.7621,3.2727,0,0.00042404,4237.5,0.00014831,-0.0017743,0.00012557,-170.9,-0.00042669,-4320.3,0.25003
676,6.7621,3.0909,0,0.00042393,4236.4,0.00014841,-0.0031759,0.00012529,-173.75,-0.00042662,-4320.6,0.25011
677,6.7621,2.9091,0,0.00042393,4236.4,0.00014841,-0.0031759,0.00012529,-173.75,-0.00042662,-4320.6,0.25011
678,6.7621,2.7273,0,0.00042404,4237.5,0.00014831,-0.0017746,0.00012557,-170.9,-0.00042669,-4320.3,0.25003
679,6.7621,2.5455,0,0.00042426,4239.7,0.00014811,0.00094907,0.00012612,-165.3,-0.00042683,-4319.9,0.24987
680,6.7621,2.3636,0,0.00042458,4242.9,0.00014783,0.004841,0.00012691,-157.16,-0.00042704,-4319.3,0.24962
681,6.7621,2.1818,0,0.00042499,4247,0.00014746,0.0096845,0.00012792,-146.8,-0.0004273,-4318.5,0.24928
682,6.7621,2,0,0.00042548,4251.8,0.00014702,0.015205,0.00012911,-134.6,-0.00042761,-4317.5,0.24886
683,6.7621,1.8182,0,0.00042601,4257.2,0.00014654,0.021088,0.00013043,-120.99,-0.00042794,-4316.4,0.24836
684,6.7621,1.6364,0,0.00042659,4262.9,0.00014602,0.027002,0.00013184,-106.45,-0.0004283,-4315.2,0.24777
685,6.7621,1.4545,0,0.00042718,4268.9,0.00014548,0.032623,0.0001333,-91.466,-0.00042867,-4313.9,0.2471
686,6.7621,1.2727,0,0.00042778,4274.9,0.00014494,0.037621,0.00013476,-76.49,-0.00042903,-4312.6,0.24633
687,6.7621,1.0909,0,0.00042838,4280.8,0.00014443,0.041815,0.00013617,-61.953,-0.0004294,-4311.4,0.24548
688,6.7621,0.90909,0,0.00042896,4286.6,0.00014394,0.044758,0.00013752,-48.217,-0.00042975,-4310.5,0.24453
689,6.7621,0.72727,0,0.00042951,4292.2,0.0001435,0.047706,0.00013876,-35.565,-0.00043011,-4309.8,0.2435
690,6.7621,0.54545,0,0.00043006,4297.6,0.00014312,0.046226,0.0001399,-24.183,-0.00043047,-4309.7,0.24237
691,6.7621,0.36364,0,0.00043061,4303.1,0.0001428,0.067924,0.00014092,-14.123,-0.00043084,-4310.1,0.24115
692,6.7621,0.18182,0,0.00043119,4309,0.00014256,0.069611,0.00014186,-5.1964,-0.00043128,-4311.5,0.23984
693,6.5793,5.8182,0,0.00043766,4373.6,0.00014483,0.081803,0.00014376,-7.9866,-0.00043779,-4377.5,0.22728
694,6.5793,5.6364,0,0.0004368,4364.9,0.00014512,0.080483,0.00014249,-19.688,-0.00043713,-4374.7,0.22859
695,6.5793,5.4545,0,0.00043598,4356.8,0.00014547,0.043992,0.00014118,-32.192,-0.00043651,-4372.7,0.22982
696,6.5793,5.2727,0,0.00043516,4348.6,0.00014586,0.044127,0.00013978,-45.648,-0.00043592,-4371.3,0.23095
697,6.5793,5.0909,0,0.00043435,4340.5,0.0001463,0.039123,0.00013831,-59.999,-0.00043534,-4370.2,0.23198
698,6.5793,4.9091,0,0.00043353,4332.3,0.00014677,0.03546,0.00013678,-75.062,-0.00043476,-4369.3,0.23293
699,6.5793,4.7273,0,0.00043272,4324.2,0.00014726,0.031021,0.0001352,-90.573,-0.00043419,-4368.7,0.23378
700,6.5793,4.5455,0,0.00043192,4316.2,0.00014776,0.026233,0.00013362,-106.2,-0.00043362,-4368.3,0.23455
701,6.5793,4.3636,0,0.00043114,4308.4,0.00014826,0.021114,0.00013207,-121.57,-0.00043308,-4367.9,0.23522
702,6.5793,4.1818,0,0.00043041,4301.1,0.00014873,0.015891,0.0001306,-136.26,-0.00043256,-4367.6,0.23581
703,6.5793,4,0,0.00042974,4294.4,0.00014917,0.010793,0.00012923,-149.85,-0.00043209,-4367.4,0.23632
704,6.5793,3.8182,0,0.00042915,4288.5,0.00014956,0.0060664,0.00012801,-161.92,-0.00043167,-4367.2,0.23674
705,6.5793,3.6364,0,0.00042865,4283.5,0.00014989,0.0019516,0.00012699,-172.1,-0.00043132,-4367,0.23707
706,6.5793,3.4545,0,0.00042826,4279.7,0.00015015,-0.0013384,0.00012619,-180.05,-0.00043104,-4366.9,0.23732
707,6.5793,3.2727,0,0.000428,4277,0.00015033,-0.0036343,0.00012564,-185.51,-0.00043085,-4366.8,0.23748
708,6.5793,3.0909,0,0.00042787,4275.7,0.00015042,-0.0048135,0.00012536,-188.28,-0.00043076,-4366.7,0.23757
709,6.5793,2.9091,0,0.00042787,4275.7,0.00015042,-0.0048134,0.00012536,-188.28,-0.00043076,-4366.7,0.23757
710,6.5793,2.7273,0,0.000428,4277,0.00015033,-0.0036338,0.00012564,-185.51,-0.00043085,-4366.8,0.23748
711,6.5793,2.5455,0,0.00042826,4279.7,0.00015015,-0.0013386,0.00012619,-180.05,-0.00043104,-4366.9,0.23732
712,6.5793,2.3636,0,0.00042865,4283.5,0.00014989,0.0019517,0.00012699,-172.1,-0.00043132,-4367,0.23707
713,6.5793,2.1818,0,0.00042915,4288.5,0.00014956,0.0060666,0.00012801,-161.92,-0.00043167,-4367.2,0.23674
714,6.5793,2,0,0.00042974,4294.4,0.00014917,0.010794,0.00012923,-149.85,-0.00043209,-4367.4,0.23632
715,6.5793,1.8182,0,0.00043041,4301.1,0.00014873,0.015892,0.0001306,-136.26,-0.00043256,-4367.6,0.23581
716,6.5793,1.6364,0,0.00043114,4308.4,0.00014826,0.021115,0.00013207,-121.57,-0.00043308,-4367.9,0.23522
717,6.5793,1.4545,0,0.00043192,4316.2,0.00014776,0.026234,0.00013362,-106.2,-0.00043362,-4368.3,0.23455
718,6.5793,1.2727,0,0.00043272,4324.2,0.00014726,0.031021,0.0001352,-90.573,-0.00043419,-4368.7,0.23378
719,6.5793,1.0909,0,0.00043353,4332.3,0.00014677,0.035461,0.00013678,-75.062,-0.00043476,-4369.3,0.23293
720,6.5793,0.90909,0,0.00043435,4340.5,0.0001463,0.039125,0.00013831,-59.999,-0.00043534,-4370.2,0.23198
721,6.5793,0.72727,0,0.00043516,4348.6,0.00014586,0.044127,0.00013978,-45.648,-0.00043592,-4371.3,0.23095
722,6.5793,0.54545,0,0.00043598,4356.8,0.00014547,0.043993,0.00014118,-32.192,-0.00043651,-4372.7,0.22982
723,6.5793,0.36364,0,0.0004368,4364.9,0.00014512,0.080485,0.00014249,-19.688,-0.00043713,-4374.7,0.22859
724,6.5793,0.18182,0,0.00043766,4373.6,0.00014483,0.081805,0.00014376,-7.9866,-0.00043779,-4377.5,0.22728
725,6.3966,5.8182,0,0.000444,4436.9,0.00014706,0.095388,0.00014562,-10.691,-0.00044417,-4442.2,0.21501
726,6.3966,5.6364,0,0.00044288,4425.7,0.0001474,0.094161,0.00014405,-25.063,-0.0004433,-4438.2,0.21633
727,6.3966,5.4545,0,0.00044181,4415,0.00014777,0.043973,0.00014245,-39.964,-0.00044247,-4434.8,0.21755
728,6.3966,5.2727,0,0.00044075,4404.4,0.00014819,0.043019,0.0001408,-55.499,-0.00044166,-4431.9,0.21868
729,6.3966,5.0909,0,0.0004397,4393.9,0.00014864,0.036097,0.0001391,-71.604,-0.00044087,-4429.3,0.21972
730,6.3966,4.9091,0,0.00043866,4383.6,0.0001491,0.031651,0.00013737,-88.095,-0.00044009,-4426.9,0.22067
731,6.3966,4.7273,0,0.00043764,4373.4,0.00014958,0.026788,0.00013564,-104.72,-0.00043933,-4424.8,0.22152
732,6.3966,4.5455,0,0.00043666,4363.6,0.00015006,0.021952,0.00013393,-121.18,-0.00043859,-4422.9,0.22229
733,6.3966,4.3636,0,0.00043572,4354.2,0.00015053,0.01703,0.00013228,-137.11,-0.00043789,-4421.1,0.22297
734,6.3966,4.1818,0,0.00043485,4345.5,0.00015097,0.012177,0.00013072,-152.16,-0.00043724,-4419.5,0.22356
735,6.3966,4,0,0.00043406,4337.6,0.00015138,0.0075464,0.00012929,-165.94,-0.00043664,-4418.2,0.22406
736,6.3966,3.8182,0,0.00043337,4330.7,0.00015174,0.0033212,0.00012804,-178.08,-0.00043612,-4417,0.22448
737,6.3966,3.6364,0,0.00043279,4324.9,0.00015204,-0.00031771,0.00012699,-188.25,-0.00043569,-4416,0.22481
738,6.3966,3.4545,0,0.00043235,4320.5,0.00015228,-0.0032053,0.00012617,-196.15,-0.00043535,-4415.2,0.22506
739,6.3966,3.2727,0,0.00043204,4317.5,0.00015244,-0.0052107,0.00012562,-201.55,-0.00043512,-4414.7,0.22523
740,6.3966,3.0909,0,0.00043189,4315.9,0.00015252,-0.0062384,0.00012533,-204.3,-0.000435,-4414.5,0.22531
741,6.3966,2.9091,0,0.00043189,4315.9,0.00015252,-0.0062383,0.00012533,-204.3,-0.000435,-4414.5,0.22531
742,6.3966,2.7273,0,0.00043204,4317.5,0.00015244,-0.0052109,0.00012562,-201.55,-0.00043512,-4414.7,0.22523
743,6.3966,2.5455,0,0.00043235,4320.5,0.00015228,-0.0032051,0.00012617,-196.15,-0.00043535,-4415.2,0.22506
744,6.3966,2.3636,0,0.00043279,4324.9,0.00015204,-0.00031738,0.00012699,-188.25,-0.00043569,-4416,0.22481
745,6.3966,2.1818,0,0.00043337,4330.7,0.00015174,0.0033214,0.00012804,-178.08,-0.00043612,-4417,0.22448
746,6.3966,2,0,0.00043406,4337.6,0.00015138,0.0075469,0.00012929,-165.94,-0.00043664,-4418.2,0.22406
747,6.3966,1.8182,0,0.00043485,4345.5,0.00015097,0.012177,0.00013072,-152.16,-0.00043724,-4419.5,0.22356
748,6.3966,1.6364,0,0.00043572,4354.2,0.00015053,0.01703,0.00013228,-137.11,-0.00043789,-4421.1,0.22297
749,6.3966,1.4545,0,0.00043666,4363.6,0.00015006,0.021953,0.00013393,-121.18,-0.00043859,-4422.9,0.22229
750,6.3966,1.2727,0,0.00043764,4373.4,0.00014958,0.026788,0.00013564,-104.72,-0.00043933,-4424.8,0.22152
751,6.3966,1.0909,0,0.00043866,4383.6,0.0001491,0.031652,0.00013737,-88.095,-0.00044009,-4426.9,0.22067
752,6.3966,0.90909,0,0.0004397,4393.9,0.00014864,0.036098,0.0001391,-71.604,-0.00044087,-4429.3,0.21972
753,6.3966,0.72727,0,0.00044075,4404.4,0.00014819,0.04302,0.0001408,-55.499,-0.00044166,-4431.9,0.21868
754,6.3966,0.54545,0,0.00044181,4415,0.00014777,0.043974,0.00014245,-39.964,-0.00044247,-4434.8,0.21755
755,6.3966,0.36364,0,0.00044288,4425.7,0.0001474,0.094162,0.00014405,-25.063,-0.0004433,-4438.2,0.21633
756,6.3966,0.18182,0,0.000444,4436.9,0.00014706,0.09539,0.00014562,-10.691,-0.00044417,-4442.2,0.21501
757,6.2138,5.8182,0,0.00045024,4499.3,0.00014925,0.10983,0.00014746,-13.334,-0.00045047,-4505.9,0.20303
758,6.2138,5.6364,0,0.00044888,4485.7,0.00014964,0.1085,0.00014559,-30.316,-0.00044939,-4500.8,0.20435
759,6.2138,5.4545,0,0.00044757,4472.6,0.00015005,0.045266,0.00014371,-47.6,-0.00044836,-4496.2,0.20558
760,6.2138,5.2727,0,0.00044628,4459.7,0.0001505,0.043364,0.00014181,-65.245,-0.00044735,-4492,0.20672
761,6.2138,5.0909,0,0.00044501,4447,0.00015096,0.034627,0.00013988,-83.179,-0.00044637,-4488,0.20775
762,6.2138,4.9091,0,0.00044377,4434.6,0.00015143,0.029394,0.00013796,-101.21,-0.0004454,-4484.3,0.2087
763,6.2138,4.7273,0,0.00044256,4422.5,0.00015191,0.024031,0.00013605,-119.1,-0.00044446,-4480.9,0.20956
764,6.2138,4.5455,0,0.0004414,4411,0.00015238,0.019013,0.0001342,-136.55,-0.00044357,-4477.7,0.21032
765,6.2138,4.3636,0,0.00044031,4400.1,0.00015283,0.014114,0.00013243,-153.25,-0.00044272,-4474.7,0.211
766,6.2138,4.1818,0,0.00043931,4390.1,0.00015326,0.0094372,0.00013078,-168.84,-0.00044194,-4472,0.21159
767,6.2138,4,0,0.00043841,4381.1,0.00015365,0.0050756,0.00012929,-183,-0.00044123,-4469.7,0.21209
768,6.2138,3.8182,0,0.00043762,4373.2,0.00015399,0.0011614,0.00012798,-195.39,-0.00044062,-4467.6,0.21251
769,6.2138,3.6364,0,0.00043698,4366.8,0.00015427,-0.0021693,0.00012689,-205.71,-0.00044011,-4466,0.21284
770,6.2138,3.4545,0,0.00043648,4361.8,0.00015449,-0.0047901,0.00012605,-213.69,-0.00043972,-4464.7,0.21309
771,6.2138,3.2727,0,0.00043614,4358.4,0.00015464,-0.0066006,0.00012548,-219.13,-0.00043945,-4463.8,0.21326
772,6.2138,3.0909,0,0.00043597,4356.7,0.00015472,-0.0075252,0.00012519,-221.89,-0.00043932,-4463.4,0.21334
773,6.2138,2.9091,0,0.00043597,4356.7,0.00015472,-0.0075248,0.00012519,-221.89,-0.00043932,-4463.4,0.21334
774,6.2138,2.7273,0,0.00043614,4358.4,0.00015464,-0.0066003,0.00012548,-219.13,-0.00043945,-4463.8,0.21326
775,6.2138,2.5455,0,0.00043648,4361.8,0.00015449,-0.00479,0.00012605,-213.69,-0.00043972,-4464.7,0.21309
776,6.2138,2.3636,0,0.00043698,4366.8,0.00015427,-0.002169,0.00012689,-205.71,-0.00044011,-4466,0.21284
777,6.2138,2.1818,0,0.00043762,4373.2,0.00015399,0.0011617,0.00012798,-195.39,-0.00044062,-4467.6,0.21251
778,6.2138,2,0,0.00043841,4381.1,0.00015365,0.0050761,0.00012929,-183,-0.00044123,-4469.7,0.21209
779,6.2138,1.8182,0,0.00043931,4390.1,0.00015326,0.0094377,0.00013078,-168.84,-0.00044194,-4472,0.21159
780,6.2138,1.6364,0,0.00044031,4400.1,0.00015283,0.014115,0.00013243,-153.25,-0.00044272,-4474.7,0.211
781,6.2138,1.4545,0,0.0004414,4411,0.00015238,0.019013,0.0001342,-136.55,-0.00044357,-4477.7,0.21032
782,6.2138,1.2727,0,0.00044256,4422.5,0.00015191,0.024032,0.00013605,-119.1,-0.00044446,-4480.9,0.20956
783,6.2138,1.0909,0,0.00044377,4434.6,0.00015143,0.029394,0.00013796,-101.21,-0.0004454,-4484.3,0.2087
784,6.2138,0.90909,0,0.00044501,4447,0.00015096,0.034629,0.00013988,-83.179,-0.00044637,-4488,0.20775
785,6.2138,0.72727,0,0.00044628,4459.7,0.0001505,0.043364,0.00014181,-65.245,-0.00044735,-4492,0.20672
786,6.2138,0.54545,0,0.00044757,4472.6,0.00015005,0.045267,0.00014371,-47.6,-0.00044836,-4496.2,0.20558
787,6.2138,0.36364,0,0.00044888,4485.7,0.00014964,0.1085,0.00014559,-30.316,-0.00044939,-4500.8,0.20435
788,6.2138,0.18182,0,0.00045024,4499.3,0.00014925,0.10983,0.00014746,-13.334,-0.00045047,-4505.9,0.20303
789,6.031,5.8182,0,0.00045643,4561.2,0.00015142,0.12522,0.00014928,-15.937,-0.0004567,-4569.1,0.19135
790,6.031,5.6364,0,0.00045484,4545.3,0.00015186,0.12344,0.00014712,-35.508,-0.00045543,-4562.8,0.19268
791,6.031,5.4545,0,0.0004533,4529.8,0.00015232,0.04749,0.00014497,-55.191,-0.00045421,-4557.1,0.19391
792,6.031,5.2727,0,0.00045178,4514.7,0.00015279,0.044699,0.0001428,-75.003,-0.00045301,-4551.7,0.19505
793,6.031,5.0909,0,0.0004503,4499.9,0.00015328,0.034199,0.00014065,-94.857,-0.00045184,-4546.5,0.19609
794,6.031,4.9091,0,0.00044886,4485.5,0.00015376,0.028168,0.00013851,-114.55,-0.00045069,-4541.6,0.19703
795,6.031,4.7273,0,0.00044747,4471.6,0.00015425,0.022253,0.00013643,-133.85,-0.00044959,-4537,0.19789
796,6.031,4.5455,0,0.00044615,4458.4,0.00015472,0.016964,0.00013442,-152.47,-0.00044854,-4532.7,0.19865
797,6.031,4.3636,0,0.00044491,4446.1,0.00015517,0.011974,0.00013253,-170.11,-0.00044756,-4528.7,0.19933
798,6.031,4.1818,0,0.00044378,4434.7,0.00015559,0.0073412,0.00013077,-186.46,-0.00044666,-4525,0.19992
799,6.031,4,0,0.00044277,4424.7,0.00015597,0.0031109,0.00012919,-201.18,-0.00044585,-4521.8,0.20042
800,6.031,3.8182,0,0.0004419,4415.9,0.0001563,-0.00062452,0.00012782,-213.99,-0.00044515,-4519,0.20084
801,6.031,3.6364,0,0.00044118,4408.8,0.00015657,-0.0037655,0.00012668,-224.6,-0.00044457,-4516.8,0.20117
802,6.031,3.4545,0,0.00044063,4403.3,0.00015679,-0.0062157,0.00012581,-232.78,-0.00044413,-4515,0.20142
803,6.031,3.2727,0,0.00044026,4399.5,0.00015693,-0.0078984,0.00012521,-238.34,-0.00044383,-4513.9,0.20158
804,6.031,3.0909,0,0.00044007,4397.7,0.000157,-0.0087549,0.00012491,-241.15,-0.00044368,-4513.3,0.20167
805,6.031,2.9091,0,0.00044007,4397.7,0.000157,-0.0087551,0.00012491,-241.15,-0.00044368,-4513.3,0.20167
806,6.031,2.7273,0,0.00044026,4399.5,0.00015693,-0.0078983,0.00012521,-238.34,-0.00044383,-4513.9,0.20158
807,6.031,2.5455,0,0.00044063,4403.3,0.00015679,-0.0062154,0.00012581,-232.78,-0.00044413,-4515,0.20142
808,6.031,2.3636,0,0.00044118,4408.8,0.00015657,-0.0037651,0.00012668,-224.6,-0.00044457,-4516.8,0.20117
809,6.031,2.1818,0,0.0004419,4415.9,0.0001563,-0.0006242,0.00012782,-213.99,-0.00044515,-4519,0.20084
810,6.031,2,0,0.00044277,4424.7,0.00015597,0.0031115,0.00012919,-201.18,-0.00044585,-4521.8,0.20042
811,6.031,1.8182,0,0.00044378,4434.7,0.00015559,0.0073419,0.00013077,-186.46,-0.00044666,-4525,0.19992
812,6.031,1.6364,0,0.00044491,4446.1,0.00015517,0.011975,0.00013253,-170.11,-0.00044756,-4528.7,0.19933
813,6.031,1.4545,0,0.00044615,4458.4,0.00015472,0.016965,0.00013442,-152.47,-0.00044854,-4532.7,0.19865
814,6.031,1.2727,0,0.00044747,4471.6,0.00015425,0.022254,0.00013643,-133.85,-0.00044959,-4537,0.19789
815,6.031,1.0909,0,0.00044886,4485.5,0.00015376,0.028168,0.00013851,-114.55,-0.00045069,-4541.6,0.19703
816,6.031,0.90909,0,0.0004503,4499.9,0.00015328,0.034201,0.00014065,-94.857,-0.00045184,-4546.5,0.19609
817,6.031,0.72727,0,0.00045178,4514.7,0.00015279,0.0447,0.0001428,-75.003,-0.00045301,-4551.7,0.19505
818,6.031,0.54545,0,0.0004533,4529.8,0.00015232,0.047491,0.00014497,-55.191,-0.00045421,-4557.1,0.19391
819,6.031,0.36364,0,0.00045484,4545.3,0.00015186,0.12344,0.00014712,-35.508,-0.00045543,-4562.8,0.19268
820,6.031,0.18182,0,0.00045643,4561.2,0.00015142,0.12523,0.00014928,-15.937,-0.0004567,-4569.1,0.19135
821,5.8483,5.8182,0,0.00046259,4622.7,0.00015358,0.14188,0.0001511,-18.515,-0.0004629,-4631.9,0.17998
822,5.8483,5.6364,0,0.00046076,4604.5,0.00015408,0.13908,0.00014864,-40.692,-0.00046144,-4624.6,0.18131
823,5.8483,5.4545,0,0.00045899,4586.8,0.00015457,0.050486,0.00014621,-62.822,-0.00046003,-4617.8,0.18255
824,5.8483,5.2727,0,0.00045726,4569.4,0.00015508,0.046816,0.00014378,-84.879,-0.00045864,-4611.3,0.18368
825,5.8483,5.0909,0,0.00045557,4552.6,0.0001556,0.034557,0.00014138,-106.76,-0.00045729,-4605,0.18472
826,5.8483,4.9091,0,0.00045393,4536.2,0.00015611,0.027703,0.00013903,-128.26,-0.00045598,-4599,0.18567
827,5.8483,4.7273,0,0.00045237,4520.5,0.00015661,0.021188,0.00013676,-149.13,-0.00045472,-4593.2,0.18652
828,5.8483,4.5455,0,0.00045088,4505.7,0.00015709,0.015555,0.00013458,-169.1,-0.00045352,-4587.9,0.18728
829,5.8483,4.3636,0,0.00044951,4492,0.00015755,0.010386,0.00013254,-187.87,-0.00045241,-4582.9,0.18796
830,5.8483,4.1818,0,0.00044825,4479.4,0.00015797,0.0056979,0.00013066,-205.13,-0.00045139,-4578.4,0.18855
831,5.8483,4,0,0.00044713,4468.2,0.00015835,0.0014971,0.00012899,-220.6,-0.00045048,-4574.4,0.18905
832,5.8483,3.8182,0,0.00044617,4458.6,0.00015867,-0.0021584,0.00012753,-233.99,-0.00044969,-4571,0.18946
833,5.8483,3.6364,0,0.00044538,4450.8,0.00015895,-0.0051974,0.00012634,-245.03,-0.00044905,-4568.2,0.18979
834,5.8483,3.4545,0,0.00044478,4444.7,0.00015916,-0.0075486,0.00012541,-253.52,-0.00044855,-4566.1,0.19004
835,5.8483,3.2727,0,0.00044437,4440.7,0.0001593,-0.009154,0.00012479,-259.28,-0.00044821,-4564.6,0.19021
836,5.8483,3.0909,0,0.00044417,4438.6,0.00015937,-0.0099687,0.00012448,-262.19,-0.00044805,-4563.9,0.19029
837,5.8483,2.9091,0,0.00044417,4438.6,0.00015937,-0.0099685,0.00012448,-262.19,-0.00044805,-4563.9,0.19029
838,5.8483,2.7273,0,0.00044437,4440.7,0.0001593,-0.0091541,0.00012479,-259.28,-0.00044821,-4564.6,0.19021
839,5.8483,2.5455,0,0.00044478,4444.7,0.00015916,-0.0075484,0.00012541,-253.52,-0.00044855,-4566.1,0.19004
840,5.8483,2.3636,0,0.00044538,4450.8,0.00015895,-0.0051971,0.00012634,-245.03,-0.00044905,-4568.2,0.18979
841,5.8483,2.1818,0,0.00044617,4458.6,0.00015867,-0.002158,0.00012753,-233.99,-0.00044969,-4571,0.18946
842,5.8483,2,0,0.00044713,4468.2,0.00015835,0.0014974,0.00012899,-220.6,-0.00045048,-4574.4,0.18905
843,5.8483,1.8182,0,0.00044825,4479.4,0.00015797,0.0056985,0.00013066,-205.13,-0.00045139,-4578.4,0.18855
844,5.8483,1.6364,0,0.00044951,4492,0.00015755,0.010386,0.00013254,-187.87,-0.00045241,-4582.9,0.18796
845,5.8483,1.4545,0,0.00045088,4505.7,0.00015709,0.015556,0.00013458,-169.1,-0.00045352,-4587.9,0.18728
846,5.8483,1.2727,0,0.00045237,4520.5,0.00015661,0.021189,0.00013676,-149.13,-0.00045472,-4593.2,0.18652
847,5.8483,1.0909,0,0.00045393,4536.2,0.00015611,0.027704,0.00013903,-128.26,-0.00045598,-4599,0.18567
848,5.8483,0.90909,0,0.00045557,4552.6,0.0001556,0.034559,0.00014138,-106.76,-0.00045729,-4605,0.18472
849,5.8483,0.72727,0,0.00045726,4569.4,0.00015508,0.046817,0.00014378,-84.879,-0.00045864,-4611.3,0.18368
850,5.8483,0.54545,0,0.00045899,4586.8,0.00015457,0.050486,0.00014621,-62.822,-0.00046003,-4617.8,0.18255
851,5.8483,0.36364,0,0.00046076,4604.5,0.00015408,0.13908,0.00014864,-40.692,-0.00046144,-4624.6,0.18131
852,5.8483,0.18182,0,0.00046259,4622.7,0.00015358,0.14188,0.0001511,-18.515,-0.0004629,-4631.9,0.17998
853,5.6655,5.8182,0,0.00046873,4684.1,0.00015574,0.16021,0.00015291,-21.08,-0.00046908,-4694.5,0.16892
854,5.6655,5.6364,0,0.00046668,4663.5,0.00015628,0.15558,0.00015015,-45.915,-0.00046744,-4686.2,0.17025
855,5.6655,5.4545,0,0.00046468,4643.6,0.00015683,0.054205,0.00014743,-70.566,-0.00046584,-4678.4,0.17149
856,5.6655,5.2727,0,0.00046273,4624.1,0.00015738,0.049633,0.00014474,-94.969,-0.00046427,-4670.8,0.17262
857,5.6655,5.0909,0,0.00046083,4605.1,0.00015793,0.035582,0.00014209,-119.01,-0.00046274,-4663.4,0.17366
858,5.6655,4.9091,0,0.000459,4586.8,0.00015847,0.027866,0.00013951,-142.46,-0.00046126,-4656.4,0.1746
859,5.6655,4.7273,0,0.00045725,4569.4,0.000159,0.020696,0.00013703,-165.07,-0.00045984,-4649.7,0.17546
860,5.6655,4.5455,0,0.00045561,4552.9,0.0001595,0.014655,0.00013467,-186.56,-0.00045849,-4643.3,0.17622
861,5.6655,4.3636,0,0.00045408,4537.7,0.00015997,0.0092302,0.00013246,-206.64,-0.00045725,-4637.5,0.17689
862,5.6655,4.1818,0,0.0004527,4523.9,0.0001604,0.0044067,0.00013045,-225.02,-0.00045611,-4632.2,0.17747
863,5.6655,4,0,0.00045148,4511.6,0.00016078,0.00015344,0.00012866,-241.4,-0.0004551,-4627.5,0.17797
864,5.6655,3.8182,0,0.00045043,4501.1,0.00016112,-0.0034992,0.00012711,-255.53,-0.00045423,-4623.5,0.17839
865,5.6655,3.6364,0,0.00044957,4492.6,0.00016139,-0.0065048,0.00012584,-267.15,-0.00045351,-4620.2,0.17872
866,5.6655,3.4545,0,0.00044891,4486,0.0001616,-0.0088122,0.00012486,-276.05,-0.00045297,-4617.6,0.17896
867,5.6655,3.2727,0,0.00044847,4481.6,0.00016175,-0.01038,0.0001242,-282.08,-0.0004526,-4615.9,0.17913
868,5.6655,3.0909,0,0.00044824,4479.3,0.00016182,-0.011172,0.00012387,-285.13,-0.00045241,-4615.1,0.17921
869,5.6655,2.9091,0,0.00044824,4479.3,0.00016182,-0.011172,0.00012387,-285.13,-0.00045241,-4615.1,0.17921
870,5.6655,2.7273,0,0.00044847,4481.6,0.00016175,-0.010379,0.0001242,-282.08,-0.0004526,-4615.9,0.17913
871,5.6655,2.5455,0,0.00044891,4486,0.0001616,-0.0088121,0.00012486,-276.05,-0.00045297,-4617.6,0.17896
872,5.6655,2.3636,0,0.00044957,4492.6,0.00016139,-0.0065045,0.00012584,-267.15,-0.00045351,-4620.2,0.17872
873,5.6655,2.1818,0,0.00045043,4501.1,0.00016112,-0.0034988,0.00012711,-255.53,-0.00045423,-4623.5,0.17839
874,5.6655,2,0,0.00045148,4511.6,0.00016078,0.0001538,0.00012866,-241.4,-0.0004551,-4627.5,0.17797
875,5.6655,1.8182,0,0.0004527,4523.9,0.0001604,0.0044072,0.00013045,-225.02,-0.00045611,-4632.2,0.17747
876,5.6655,1.6364,0,0.00045408,4537.7,0.00015997,0.0092308,0.00013246,-206.64,-0.00045725,-4637.5,0.17689
877,5.6655,1.4545,0,0.00045561,4552.9,0.0001595,0.014655,0.00013467,-186.56,-0.00045849,-4643.3,0.17622
878,5.6655,1.2727,0,0.00045725,4569.4,0.000159,0.020697,0.00013703,-165.07,-0.00045984,-4649.7,0.17546
879,5.6655,1.0909,0,0.000459,4586.8,0.00015847,0.027867,0.00013951,-142.46,-0.00046126,-4656.4,0.1746
880,5.6655,0.90909,0,0.00046083,4605.1,0.00015793,0.035584,0.00014209,-119.01,-0.00046274,-4663.4,0.17366
881,5.6655,0.72727,0,0.00046273,4624.1,0.00015738,0.049634,0.00014474,-94.969,-0.00046427,-4670.8,0.17262
882,5.6655,0.54545,0,0.00046468,4643.6,0.00015683,0.054206,0.00014743,-70.566,-0.00046584,-4678.4,0.17149
883,5.6655,0.36364,0,0.00046668,4663.5,0.00015628,0.15558,0.00015015,-45.915,-0.00046744,-4686.2,0.17025
884,5.6655,0.18182,0,0.00046873,4684.1,0.00015574,0.16021,0.00015291,-21.08,-0.00046908,-4694.5,0.16892
885,5.4828,5.8182,0,0.00047487,4745.4,0.00015789,0.18068,0.00015472,-23.639,-0.00047527,-4757.1,0.15818
886,5.4828,5.6364,0,0.00047258,4722.6,0.0001585,0.17309,0.00015166,-51.215,-0.00047343,-4747.9,0.15951
887,5.4828,5.4545,0,0.00047036,4700.3,0.00015909,0.058601,0.00014864,-78.489,-0.00047164,-4739.1,0.16074
888,5.4828,5.2727,0,0.00046819,4678.6,0.0001597,0.053074,0.00014567,-105.36,-0.00046989,-4730.4,0.16187
889,5.4828,5.0909,0,0.00046608,4657.6,0.00016029,0.03717,0.00014275,-131.7,-0.00046818,-4722,0.16291
890,5.4828,4.9091,0,0.00046405,4637.3,0.00016086,0.028539,0.00013993,-157.27,-0.00046653,-4713.9,0.16385
891,5.4828,4.7273,0,0.00046212,4618.1,0.00016142,0.020656,0.00013722,-181.79,-0.00046495,-4706.3,0.1647
892,5.4828,4.5455,0,0.00046031,4600,0.00016195,0.014141,0.00013466,-204.99,-0.00046346,-4699,0.16546
893,5.4828,4.3636,0,0.00045864,4583.3,0.00016244,0.0083927,0.00013228,-226.57,-0.00046208,-4692.3,0.16613
894,5.4828,4.1818,0,0.00045713,4568.1,0.00016289,0.0033633,0.00013011,-246.25,-0.00046082,-4686.3,0.16671
895,5.4828,4,0,0.00045579,4554.8,0.00016329,-0.0010108,0.00012819,-263.72,-0.0004597,-4680.9,0.1672
896,5.4828,3.8182,0,0.00045465,4543.3,0.00016363,-0.0047244,0.00012653,-278.74,-0.00045875,-4676.3,0.16762
897,5.4828,3.6364,0,0.00045371,4534,0.00016391,-0.0077525,0.00012517,-291.07,-0.00045796,-4672.5,0.16794
898,5.4828,3.4545,0,0.000453,4526.9,0.00016413,-0.010061,0.00012414,-300.49,-0.00045736,-4669.7,0.16819
899,5.4828,3.2727,0,0.00045252,4522.1,0.00016427,-0.011621,0.00012343,-306.87,-0.00045696,-4667.7,0.16835
900,5.4828,3.0909,0,0.00045228,4519.7,0.00016435,-0.012408,0.00012308,-310.08,-0.00045676,-4666.7,0.16843
901,5.4828,2.9091,0,0.00045228,4519.7,0.00016435,-0.012408,0.00012308,-310.08,-0.00045676,-4666.7,0.16843
902,5.4828,2.7273,0,0.00045252,4522.1,0.00016427,-0.011621,0.00012343,-306.87,-0.00045696,-4667.7,0.16835
903,5.4828,2.5455,0,0.000453,4526.9,0.00016413,-0.010061,0.00012414,-300.49,-0.00045736,-4669.7,0.16819
904,5.4828,2.3636,0,0.00045371,4534,0.00016391,-0.0077521,0.00012517,-291.07,-0.00045796,-4672.5,0.16794
905,5.4828,2.1818,0,0.00045465,4543.3,0.00016363,-0.0047241,0.00012653,-278.74,-0.00045875,-4676.3,0.16762
906,5.4828,2,0,0.00045579,4554.8,0.00016329,-0.0010103,0.00012819,-263.72,-0.0004597,-4680.9,0.1672
907,5.4828,1.8182,0,0.00045713,4568.1,0.00016289,0.0033639,0.00013011,-246.25,-0.00046082,-4686.3,0.16671
908,5.4828,1.6364,0,0.00045864,4583.3,0.00016244,0.0083932,0.00013228,-226.57,-0.00046208,-4692.3,0.16613
909,5.4828,1.4545,0,0.00046031,4600,0.00016195,0.014141,0.00013466,-204.99,-0.00046346,-4699,0.16546
910,5.4828,1.2727,0,0.00046212,4618.1,0.00016142,0.020656,0.00013722,-181.79,-0.00046495,-4706.3,0.1647
911,5.4828,1.0909,0,0.00046405,4637.3,0.00016086,0.02854,0.00013993,-157.27,-0.00046653,-4713.9,0.16385
912,5.4828,0.90909,0,0.00046608,4657.6,0.00016029,0.037171,0.00014275,-131.7,-0.00046818,-4722,0.16291
913,5.4828,0.72727,0,0.00046819,4678.6,0.0001597,0.053075,0.00014567,-105.36,-0.00046989,-4730.4,0.16187
914,5.4828,0.54545,0,0.00047036,4700.3,0.00015909,0.058601,0.00014864,-78.489,-0.00047164,-4739.1,0.16074
915,5.4828,0.36364,0,0.00047258,4722.6,0.0001585,0.17309,0.00015166,-51.215,-0.00047343,-4747.9,0.15951
916,5.4828,0.18182,0,0.00047487,4745.4,0.00015789,0.18068,0.00015472,-23.639,-0.00047527,-4757.1,0.15818
917,5.3,5.8182,0,0.00048103,4807,0.00016005,0.20383,0.00015654,-26.193,-0.00048147,-4819.9,0.14775
918,5.3,5.6364,0,0.0004785,4781.7,0.00016072,0.1918,0.00015316,-56.627,-0.00047944,-4809.7,0.14908
919,5.3,5.4545,0,0.00047604,4757.1,0.00016137,0.063678,0.00014983,-86.651,-0.00047746,-4799.8,0.15031
920,5.3,5.2727,0,0.00047365,4733.2,0.00016203,0.057123,0.00014656,-116.14,-0.00047551,-4790.2,0.15143
921,5.3,5.0909,0,0.00047132,4710,0.00016266,0.039274,0.00014337,-144.95,-0.00047362,-4780.8,0.15247
922,5.3,4.9091,0,0.00046909,4687.7,0.00016328,0.029664,0.00014028,-172.8,-0.00047179,-4771.7,0.15341
923,5.3,4.7273,0,0.00046698,4666.6,0.00016388,0.021001,0.00013733,-199.43,-0.00047005,-4763.1,0.15425
924,5.3,4.5455,0,0.000465,4646.8,0.00016444,0.013949,0.00013455,-224.53,-0.00046841,-4755,0.15501
925,5.3,4.3636,0,0.00046317,4628.5,0.00016496,0.0078127,0.00013198,-247.81,-0.00046689,-4747.4,0.15567
926,5.3,4.1818,0,0.00046152,4612,0.00016543,0.0025144,0.00012963,-268.96,-0.00046551,-4740.6,0.15625
927,5.3,4,0,0.00046007,4597.5,0.00016585,-0.0020406,0.00012756,-287.71,-0.00046429,-4734.6,0.15674
928,5.3,3.8182,0,0.00045883,4585.1,0.00016621,-0.0058697,0.00012578,-303.78,-0.00046324,-4729.5,0.15715
929,5.3,3.6364,0,0.00045782,4575,0.00016651,-0.0089666,0.00012433,-316.93,-0.00046238,-4725.2,0.15748
930,5.3,3.4545,0,0.00045705,4567.3,0.00016673,-0.011313,0.00012321,-326.99,-0.00046173,-4722,0.15772
931,5.3,3.2727,0,0.00045653,4562.1,0.00016688,-0.012892,0.00012246,-333.78,-0.00046129,-4719.9,0.15788
932,5.3,3.0909,0,0.00045627,4559.5,0.00016696,-0.013686,0.00012208,-337.2,-0.00046107,-4718.8,0.15796
933,5.3,2.9091,0,0.00045627,4559.5,0.00016696,-0.013686,0.00012208,-337.2,-0.00046107,-4718.8,0.15796
934,5.3,2.7273,0,0.00045653,4562.1,0.00016688,-0.012892,0.00012246,-333.78,-0.00046129,-4719.9,0.15788
935,5.3,2.5455,0,0.00045705,4567.3,0.00016673,-0.011313,0.00012321,-326.99,-0.00046173,-4722,0.15772
936,5.3,2.3636,0,0.00045782,4575,0.00016651,-0.0089664,0.00012433,-316.93,-0.00046238,-4725.2,0.15748
937,5.3,2.1818,0,0.00045883,4585.1,0.00016621,-0.0058692,0.00012578,-303.78,-0.00046324,-4729.5,0.15715
938,5.3,2,0,0.00046007,4597.5,0.00016585,-0.0020401,0.00012756,-287.71,-0.00046429,-4734.6,0.15674
939,5.3,1.8182,0,0.00046152,4612,0.00016543,0.0025149,0.00012963,-268.96,-0.00046551,-4740.6,0.15625
940,5.3,1.6364,0,0.00046317,4628.5,0.00016496,0.0078134,0.00013198,-247.81,-0.00046689,-4747.4,0.15567
941,5.3,1.4545,0,0.000465,4646.8,0.00016444,0.01395,0.00013455,-224.53,-0.00046841,-4755,0.15501
942,5.3,1.2727,0,0.00046698,4666.6,0.00016388,0.021002,0.00013733,-199.43,-0.00047005,-4763.1,0.15425
943,5.3,1.0909,0,0.00046909,4687.7,0.00016328,0.029664,0.00014028,-172.8,-0.00047179,-4771.7,0.15341
944,5.3,0.90909,0,0.00047132,4710,0.00016266,0.039276,0.00014337,-144.95,-0.00047362,-4780.8,0.15247
945,5.3,0.72727,0,0.00047365,4733.2,0.00016203,0.057123,0.00014656,-116.14,-0.00047551,-4790.2,0.15143
946,5.3,0.54545,0,0.00047604,4757.1,0.00016137,0.063678,0.00014983,-86.651,-0.00047746,-4799.8,0.15031
947,5.3,0.36364,0,0.0004785,4781.7,0.00016072,0.1918,0.00015316,-56.627,-0.00047944,-4809.7,0.14908
948,5.3,0.18182,0,0.00048103,4807,0.00016005,0.20383,0.00015654,-26.193,-0.00048147,-4819.9,0.14775
949,5.1172,5.8182,0,0.00048722,4868.8,0.00016222,0.23034,0.00015837,-28.741,-0.00048769,-4883,0.13764
950,5.1172,5.6364,0,0.00048444,4841,0.00016295,0.21193,0.00015465,-62.178,-0.00048546,-4871.7,0.13897
951,5.1172,5.4545,0,0.00048174,4814,0.00016367,0.069488,0.000151,-95.105,-0.00048328,-4860.8,0.14019
952,5.1172,5.2727,0,0.00047911,4787.8,0.00016438,0.061806,0.00014742,-127.38,-0.00048114,-4850.1,0.14132
953,5.1172,5.0909,0,0.00047656,4762.3,0.00016507,0.041899,0.00014393,-158.83,-0.00047906,-4839.7,0.14234
954,5.1172,4.9091,0,0.00047412,4737.9,0.00016574,0.031232,0.00014056,-189.18,-0.00047706,-4829.7,0.14328
955,5.1172,4.7273,0,0.00047181,4714.9,0.00016638,0.021719,0.00013735,-218.11,-0.00047514,-4820.1,0.14412
956,5.1172,4.5455,0,0.00046965,4693.3,0.00016698,0.014062,0.00013433,-245.32,-0.00047334,-4811.1,0.14487
957,5.1172,4.3636,0,0.00046767,4673.4,0.00016754,0.0074749,0.00013153,-270.49,-0.00047168,-4802.8,0.14553
958,5.1172,4.1818,0,0.00046588,4655.6,0.00016804,0.0018489,0.000129,-293.32,-0.00047017,-4795.3,0.1461
959,5.1172,4,0,0.0004643,4639.8,0.00016849,-0.0029409,0.00012676,-313.5,-0.00046884,-4788.6,0.14659
960,5.1172,3.8182,0,0.00046296,4626.4,0.00016887,-0.0069329,0.00012484,-330.78,-0.0004677,-4782.9,0.147
961,5.1172,3.6364,0,0.00046187,4615.5,0.00016918,-0.010139,0.00012328,-344.9,-0.00046676,-4778.2,0.14732
962,5.1172,3.4545,0,0.00046103,4607.2,0.00016942,-0.012554,0.00012208,-355.68,-0.00046605,-4774.7,0.14756
963,5.1172,3.2727,0,0.00046047,4601.6,0.00016958,-0.014172,0.00012127,-362.96,-0.00046557,-4772.3,0.14772
964,5.1172,3.0909,0,0.00046019,4598.7,0.00016966,-0.014985,0.00012087,-366.62,-0.00046533,-4771.1,0.1478
965,5.1172,2.9091,0,0.00046019,4598.7,0.00016966,-0.014985,0.00012087,-366.62,-0.00046533,-4771.1,0.1478
966,5.1172,2.7273,0,0.00046047,4601.6,0.00016958,-0.014172,0.00012127,-362.96,-0.00046557,-4772.3,0.14772
967,5.1172,2.5455,0,0.00046103,4607.2,0.00016942,-0.012554,0.00012208,-355.68,-0.00046605,-4774.7,0.14756
968,5.1172,2.3636,0,0.00046187,4615.5,0.00016918,-0.010138,0.00012328,-344.9,-0.00046676,-4778.2,0.14732
969,5.1172,2.1818,0,0.00046296,4626.4,0.00016887,-0.0069325,0.00012484,-330.78,-0.0004677,-4782.9,0.147
970,5.1172,2,0,0.0004643,4639.8,0.00016849,-0.0029404,0.00012676,-313.5,-0.00046884,-4788.6,0.14659
971,5.1172,1.8182,0,0.00046588,4655.6,0.00016804,0.0018494,0.000129,-293.32,-0.00047017,-4795.3,0.1461
972,5.1172,1.6364,0,0.00046767,4673.4,0.00016754,0.0074756,0.00013153,-270.49,-0.00047168,-4802.8,0.14553
973,5.1172,1.4545,0,0.00046965,4693.3,0.00016698,0.014063,0.00013433,-245.32,-0.00047334,-4811.1,0.14487
974,5.1172,1.2727,0,0.00047181,4714.9,0.00016638,0.021719,0.00013735,-218.11,-0.00047514,-4820.1,0.14412
975,5.1172,1.0909,0,0.00047412,4737.9,0.00016574,0.031233,0.00014056,-189.18,-0.00047706,-4829.7,0.14328
976,5.1172,0.90909,0,0.00047656,4762.3,0.00016507,0.0419,0.00014393,-158.83,-0.00047906,-4839.7,0.14234
977,5.1172,0.72727,0,0.00047911,4787.8,0.00016438,0.061807,0.00014742,-127.38,-0.00048114,-4850.1,0.14132
978,5.1172,0.54545,0,0.00048174,4814,0.00016367,0.069488,0.000151,-95.105,-0.00048328,-4860.8,0.14019
979,5.1172,0.36364,0,0.00048444,4841,0.00016295,0.21193,0.00015465,-62.178,-0.00048546,-4871.7,0.13897
980,5.1172,0.18182,0,0.00048722,4868.8,0.00016222,0.23034,0.00015837,-28.741,-0.00048769,-4883,0.13764
981,4.9345,5.8182,0,0.00049344,4931,0.0001644,0.26094,0.00016021,-31.275,-0.00049396,-4946.4,0.12786
982,4.9345,5.6364,0,0.0004904,4900.6,0.0001652,0.23367,0.00015613,-67.89,-0.00049151,-4934.1,0.12918
983,4.9345,5.4545,0,0.00048744,4871.1,0.00016598,0.076051,0.00015214,-103.9,-0.00048913,-4922.1,0.1304
984,4.9345,5.2727,0,0.00048457,4842.4,0.00016676,0.06712,0.00014823,-139.15,-0.00048679,-4910.4,0.13152
985,4.9345,5.0909,0,0.00048179,4814.6,0.00016751,0.045014,0.00014442,-173.45,-0.00048451,-4899,0.13254
986,4.9345,4.9091,0,0.00047914,4788.1,0.00016824,0.033203,0.00014075,-206.49,-0.00048231,-4887.9,0.13347
987,4.9345,4.7273,0,0.00047662,4762.9,0.00016893,0.022759,0.00013725,-237.95,-0.00048022,-4877.4,0.1343
988,4.9345,4.5455,0,0.00047428,4739.5,0.00016958,0.01443,0.00013397,-267.48,-0.00047826,-4867.6,0.13505
989,4.9345,4.3636,0,0.00047212,4718,0.00017017,0.0073297,0.00013094,-294.76,-0.00047645,-4858.4,0.1357
990,4.9345,4.1818,0,0.00047018,4698.6,0.00017072,0.0013204,0.0001282,-319.46,-0.0004748,-4850.2,0.13627
991,4.9345,4,0,0.00046848,4681.6,0.00017119,-0.003753,0.00012577,-341.27,-0.00047335,-4842.9,0.13675
992,4.9345,3.8182,0,0.00046703,4667.1,0.0001716,-0.0079497,0.0001237,-359.91,-0.00047211,-4836.6,0.13715
993,4.9345,3.6364,0,0.00046585,4655.3,0.00017194,-0.011298,0.00012201,-375.14,-0.0004711,-4831.5,0.13747
994,4.9345,3.4545,0,0.00046495,4646.3,0.00017219,-0.013809,0.00012072,-386.75,-0.00047032,-4827.6,0.13771
995,4.9345,3.2727,0,0.00046435,4640.3,0.00017236,-0.015485,0.00011985,-394.58,-0.0004698,-4825,0.13787
996,4.9345,3.0909,0,0.00046405,4637.3,0.00017245,-0.016324,0.00011941,-398.52,-0.00046954,-4823.7,0.13795
997,4.9345,2.9091,0,0.00046405,4637.3,0.00017245,-0.016324,0.00011941,-398.52,-0.00046954,-4823.7,0.13795
998,4.9345,2.7273,0,0.00046435,4640.3,0.00017236,-0.015484,0.00011985,-394.58,-0.0004698,-4825,0.13787
999,4.9345,2.5455,0,0.00046495,4646.3,0.00017219,-0.013809,0.00012072,-386.75,-0.00047032,-4827.6,0.13771
1000,4.9345,2.3636,0,0.00046585,4655.3,0.00017194,-0.011298,0.00012201,-375.14,-0.0004711,-4831.5,0.13747
1001,4.9345,2.1818,0,0.00046703,4667.1,0.0001716,-0.0079494,0.0001237,-359.91,-0.00047211,-4836.6,0.13715
1002,4.9345,2,0,0.00046848,4681.6,0.00017119,-0.0037527,0.00012577,-341.27,-0.00047335,-4842.9,0.13675
1003,4.9345,1.8182,0,0.00047018,4698.6,0.00017072,0.0013208,0.0001282,-319.46,-0.0004748,-4850.2,0.13627
1004,4.9345,1.6364,0,0.00047212,4718,0.00017017,0.0073302,0.00013094,-294.76,-0.00047645,-4858.4,0.1357
1005,4.9345,1.4545,0,0.00047428,4739.5,0.00016958,0.014431,0.00013397,-267.48,-0.00047826,-4867.6,0.13505
1006,4.9345,1.2727,0,0.00047662,4762.9,0.00016893,0.02276,0.00013725,-237.95,-0.00048022,-4877.4,0.1343
1007,4.9345,1.0909,0,0.00047914,4788.1,0.00016824,0.033203,0.00014075,-206.49,-0.00048231,-4887.9,0.13347
1008,4.9345,0.90909,0,0.00048179,4814.6,0.00016751,0.045015,0.00014442,-173.45,-0.00048451,-4899,0.13254
1009,4.9345,0.72727,0,0.00048457,4842.4,0.00016676,0.067121,0.00014823,-139.15,-0.00048679,-4910.4,0.13152
1010,4.9345,0.54545,0,0.00048744,4871.1,0.00016598,0.076051,0.00015214,-103.9,-0.00048913,-4922.1,0.1304
1011,4.9345,0.36364,0,0.0004904,4900.6,0.0001652,0.23368,0.00015613,-67.89,-0.00049151,-4934.1,0.12918
1012,4.9345,0.18182,0,0.00049344,4931,0.0001644,0.26095,0.00016021,-31.275,-0.00049396,-4946.4,0.12786
1013,4.7517,5.8182,0,0.00049971,4993.6,0.0001666,0.29657,0.00016206,-33.783,-0.00050027,-5010.3,0.1184
1014,4.7517,5.6364,0,0.00049638,4960.4,0.00016747,0.25727,0.00015762,-73.781,-0.00049759,-4996.8,0.11972
1015,4.7517,5.4545,0,0.00049317,4928.3,0.00016832,0.083427,0.00015326,-113.07,-0.00049499,-4983.8,0.12094
1016,4.7517,5.2727,0,0.00049004,4897,0.00016917,0.073098,0.00014899,-151.51,-0.00049244,-4971,0.12205
1017,4.7517,5.0909,0,0.00048702,4866.8,0.00016999,0.048627,0.00014484,-188.89,-0.00048996,-4958.5,0.12306
1018,4.7517,4.9091,0,0.00048413,4838,0.00017078,0.035571,0.00014084,-224.86,-0.00048757,-4946.5,0.12398
1019,4.7517,4.7273,0,0.00048141,4810.7,0.00017153,0.024111,0.00013704,-259.08,-0.00048529,-4935,0.12481
1020,4.7517,4.5455,0,0.00047886,4785.3,0.00017223,0.015038,0.00013348,-291.16,-0.00048315,-4924.3,0.12554
1021,4.7517,4.3636,0,0.00047653,4762.1,0.00017288,0.0073617,0.00013019,-320.77,-0.00048118,-4914.3,0.12619
1022,4.7517,4.1818,0,0.00047444,4741.1,0.00017346,0.00091643,0.00012721,-347.55,-0.0004794,-4905.3,0.12675
1023,4.7517,4,0,0.0004726,4722.8,0.00017398,-0.0044851,0.00012458,-371.17,-0.00047782,-4897.4,0.12723
1024,4.7517,3.8182,0,0.00047104,4707.1,0.00017442,-0.0089228,0.00012234,-391.35,-0.00047647,-4890.6,0.12762
1025,4.7517,3.6364,0,0.00046977,4694.4,0.00017478,-0.012443,0.00012051,-407.82,-0.00047538,-4885.1,0.12794
1026,4.7517,3.4545,0,0.0004688,4684.8,0.00017506,-0.01507,0.00011911,-420.36,-0.00047454,-4880.8,0.12817
1027,4.7517,3.2727,0,0.00046816,4678.3,0.00017524,-0.016817,0.00011817,-428.82,-0.00047397,-4878,0.12833
1028,4.7517,3.0909,0,0.00046783,4675.1,0.00017534,-0.017691,0.0001177,-433.08,-0.00047369,-4876.5,0.12841
1029,4.7517,2.9091,0,0.00046783,4675.1,0.00017534,-0.01769,0.0001177,-433.08,-0.00047369,-4876.5,0.12841
1030,4.7517,2.7273,0,0.00046816,4678.3,0.00017524,-0.016817,0.00011817,-428.82,-0.00047397,-4878,0.12833
1031,4.7517,2.5455,0,0.0004688,4684.8,0.00017506,-0.01507,0.00011911,-420.36,-0.00047454,-4880.8,0.12817
1032,4.7517,2.3636,0,0.00046977,4694.4,0.00017478,-0.012443,0.00012051,-407.82,-0.00047538,-4885.1,0.12794
1033,4.7517,2.1818,0,0.00047104,4707.1,0.00017442,-0.0089225,0.00012234,-391.35,-0.00047647,-4890.6,0.12762
1034,4.7517,2,0,0.0004726,4722.8,0.00017398,-0.0044846,0.00012458,-371.17,-0.00047782,-4897.4,0.12723
1035,4.7517,1.8182,0,0.00047444,4741.1,0.00017346,0.00091693,0.00012721,-347.55,-0.0004794,-4905.3,0.12675
1036,4.7517,1.6364,0,0.00047653,4762.1,0.00017288,0.0073622,0.00013019,-320.77,-0.00048118,-4914.3,0.12619
1037,4.7517,1.4545,0,0.00047886,4785.3,0.00017223,0.015038,0.00013348,-291.16,-0.00048315,-4924.3,0.12554
1038,4.7517,1.2727,0,0.00048141,4810.7,0.00017153,0.024111,0.00013704,-259.08,-0.00048529,-4935,0.12481
1039,4.7517,1.0909,0,0.00048413,4838,0.00017078,0.035571,0.00014084,-224.86,-0.00048757,-4946.5,0.12398
1040,4.7517,0.90909,0,0.00048702,4866.8,0.00016999,0.048628,0.00014484,-188.89,-0.00048996,-4958.5,0.12306
1041,4.7517,0.72727,0,0.00049004,4897,0.00016917,0.073099,0.00014899,-151.51,-0.00049244,-4971,0.12205
1042,4.7517,0.54545,0,0.00049317,4928.3,0.00016832,0.083428,0.00015326,-113.07,-0.00049499,-4983.8,0.12094
1043,4.7517,0.36364,0,0.00049638,4960.4,0.00016747,0.25727,0.00015762,-73.781,-0.00049759,-4996.8,0.11972
1044,4.7517,0.18182,0,0.00049971,4993.6,0.0001666,0.29657,0.00016206,-33.783,-0.00050027,-5010.3,0.1184
1045,4.569,5.8182,0,0.00050603,5056.8,0.00016881,0.33838,0.00016394,-36.248,-0.00050663,-5074.6,0.10929
1046,4.569,5.6364,0,0.00050241,5020.6,0.00016976,0.283,0.00015909,-79.862,-0.00050371,-5059.9,0.1106
1047,4.569,5.4545,0,0.00049891,4985.7,0.00017069,0.091719,0.00015435,-122.66,-0.00050088,-5045.8,0.1118
1048,4.569,5.2727,0,0.00049552,4951.7,0.00017161,0.07981,0.0001497,-164.53,-0.00049811,-5031.9,0.11291
1049,4.569,5.0909,0,0.00049224,4919,0.0001725,0.052783,0.00014518,-205.24,-0.00049541,-5018.4,0.11391
1050,4.569,4.9091,0,0.00048911,4887.7,0.00017336,0.038366,0.00014083,-244.4,-0.00049281,-5005.3,0.11482
1051,4.569,4.7273,0,0.00048616,4858.2,0.00017418,0.025794,0.0001367,-281.62,-0.00049034,-4992.9,0.11564
1052,4.569,4.5455,0,0.00048341,4830.8,0.00017495,0.015902,0.00013282,-316.51,-0.00048802,-4981.3,0.11636
1053,4.569,4.3636,0,0.0004809,4805.7,0.00017565,0.0075888,0.00012925,-348.68,-0.00048588,-4970.5,0.117
1054,4.569,4.1818,0,0.00047864,4783.1,0.00017629,0.00065733,0.00012602,-377.76,-0.00048394,-4960.8,0.11755
1055,4.569,4,0,0.00047666,4763.3,0.00017686,-0.0051123,0.00012317,-403.39,-0.00048224,-4952.2,0.11803
1056,4.569,3.8182,0,0.00047498,4746.5,0.00017734,-0.0098222,0.00012074,-425.27,-0.00048078,-4944.8,0.11841
1057,4.569,3.6364,0,0.00047361,4732.9,0.00017773,-0.013538,0.00011875,-443.12,-0.00047959,-4938.9,0.11872
1058,4.569,3.4545,0,0.00047258,4722.5,0.00017802,-0.016298,0.00011724,-456.71,-0.00047869,-4934.3,0.11895
1059,4.569,3.2727,0,0.00047188,4715.6,0.00017823,-0.018127,0.00011622,-465.87,-0.00047808,-4931.2,0.11911
1060,4.569,3.0909,0,0.00047153,4712.1,0.00017833,-0.019039,0.00011571,-470.48,-0.00047777,-4929.7,0.11918
1061,4.569,2.9091,0,0.00047153,4712.1,0.00017833,-0.019039,0.00011571,-470.48,-0.00047777,-4929.7,0.11918
1062,4.569,2.7273,0,0.00047188,4715.6,0.00017823,-0.018127,0.00011622,-465.87,-0.00047808,-4931.2,0.11911
1063,4.569,2.5455,0,0.00047258,4722.5,0.00017802,-0.016297,0.00011724,-456.71,-0.00047869,-4934.3,0.11895
1064,4.569,2.3636,0,0.00047361,4732.9,0.00017773,-0.013538,0.00011875,-443.12,-0.00047959,-4938.9,0.11872
1065,4.569,2.1818,0,0.00047498,4746.5,0.00017734,-0.009822,0.00012074,-425.27,-0.00048078,-4944.8,0.11841
1066,4.569,2,0,0.00047666,4763.3,0.00017686,-0.0051119,0.00012317,-403.39,-0.00048224,-4952.2,0.11803
1067,4.569,1.8182,0,0.00047864,4783.1,0.00017629,0.00065776,0.00012602,-377.76,-0.00048394,-4960.8,0.11755
1068,4.569,1.6364,0,0.0004809,4805.7,0.00017565,0.0075896,0.00012925,-348.68,-0.00048588,-4970.5,0.117
1069,4.569,1.4545,0,0.00048341,4830.8,0.00017495,0.015902,0.00013282,-316.51,-0.00048802,-4981.3,0.11636
1070,4.569,1.2727,0,0.00048616,4858.2,0.00017418,0.025795,0.0001367,-281.62,-0.00049034,-4992.9,0.11564
1071,4.569,1.0909,0,0.00048911,4887.7,0.00017336,0.038367,0.00014083,-244.4,-0.00049281,-5005.3,0.11482
1072,4.569,0.90909,0,0.00049224,4919,0.0001725,0.052784,0.00014518,-205.24,-0.00049541,-5018.4,0.11391
1073,4.569,0.72727,0,0.00049552,4951.7,0.00017161,0.079811,0.0001497,-164.53,-0.00049811,-5031.9,0.11291
1074,4.569,0.54545,0,0.00049891,4985.7,0.00017069,0.091719,0.00015435,-122.66,-0.00050088,-5045.8,0.1118
1075,4.569,0.36364,0,0.00050241,5020.6,0.00016976,0.283,0.00015909,-79.862,-0.00050371,-5059.9,0.1106
1076,4.569,0.18182,0,0.00050603,5056.8,0.00016881,0.33838,0.00016394,-36.248,-0.00050663,-5074.6,0.10929
1077,4.3862,5.8182,0,0.0005124,5120.5,0.00017104,0.38775,0.00016584,-38.646,-0.00051304,-5139.5,0.1005
1078,4.3862,5.6364,0,0.00050846,5081.1,0.00017207,0.31113,0.00016056,-86.141,-0.00050987,-5123.5,0.10181
1079,4.3862,5.4545,0,0.00050467,5043.3,0.00017308,0.10099,0.00015541,-132.7,-0.0005068,-5108.2,0.103
1080,4.3862,5.2727,0,0.000501,5006.5,0.00017409,0.087289,0.00015035,-178.27,-0.00050379,-5093.2,0.10409
1081,4.3862,5.0909,0,0.00049745,4971.1,0.00017507,0.057482,0.00014543,-222.58,-0.00050086,-5078.6,0.10509
1082,4.3862,4.9091,0,0.00049407,4937.3,0.00017601,0.041576,0.0001407,-265.2,-0.00049804,-5064.5,0.10599
1083,4.3862,4.7273,0,0.00049088,4905.4,0.0001769,0.027789,0.00013621,-305.71,-0.00049536,-5051.1,0.10679
1084,4.3862,4.5455,0,0.00048792,4875.8,0.00017774,0.016997,0.00013199,-343.67,-0.00049285,-5038.5,0.10751
1085,4.3862,4.3636,0,0.00048521,4848.7,0.00017851,0.0079857,0.00012811,-378.66,-0.00049054,-5026.9,0.10814
1086,4.3862,4.1818,0,0.00048278,4824.4,0.00017921,0.00052116,0.0001246,-410.26,-0.00048845,-5016.5,0.10868
1087,4.3862,4,0,0.00048065,4803.2,0.00017982,-0.0056514,0.00012151,-438.12,-0.0004866,-5007.2,0.10914
1088,4.3862,3.8182,0,0.00047885,4785.2,0.00018034,-0.010659,0.00011887,-461.88,-0.00048503,-4999.4,0.10953
1089,4.3862,3.6364,0,0.00047739,4770.6,0.00018077,-0.014587,0.00011672,-481.25,-0.00048375,-4993,0.10983
1090,4.3862,3.4545,0,0.00047628,4759.5,0.0001811,-0.01749,0.00011509,-496,-0.00048277,-4988.1,0.11006
1091,4.3862,3.2727,0,0.00047553,4752,0.00018132,-0.019408,0.00011398,-505.94,-0.00048211,-4984.8,0.11021
1092,4.3862,3.0909,0,0.00047516,4748.3,0.00018143,-0.020362,0.00011343,-510.94,-0.00048178,-4983.1,0.11028
1093,4.3862,2.9091,0,0.00047516,4748.3,0.00018143,-0.020362,0.00011343,-510.94,-0.00048178,-4983.1,0.11028
1094,4.3862,2.7273,0,0.00047553,4752,0.00018132,-0.019408,0.00011398,-505.94,-0.00048211,-4984.8,0.11021
1095,4.3862,2.5455,0,0.00047628,4759.5,0.0001811,-0.01749,0.00011509,-496,-0.00048277,-4988.1,0.11006
1096,4.3862,2.3636,0,0.00047739,4770.6,0.00018077,-0.014586,0.00011672,-481.25,-0.00048375,-4993,0.10983
1097,4.3862,2.1818,0,0.00047885,4785.2,0.00018034,-0.010658,0.00011887,-461.88,-0.00048503,-4999.4,0.10953
1098,4.3862,2,0,0.00048065,4803.2,0.00017982,-0.005651,0.00012151,-438.12,-0.0004866,-5007.2,0.10914
1099,4.3862,1.8182,0,0.00048278,4824.4,0.00017921,0.00052162,0.0001246,-410.26,-0.00048845,-5016.5,0.10868
1100,4.3862,1.6364,0,0.00048521,4848.7,0.00017851,0.0079865,0.00012811,-378.66,-0.00049054,-5026.9,0.10814
1101,4.3862,1.4545,0,0.00048792,4875.8,0.00017774,0.016998,0.00013199,-343.67,-0.00049285,-5038.5,0.10751
1102,4.3862,1.2727,0,0.00049088,4905.4,0.0001769,0.027789,0.00013621,-305.71,-0.00049536,-5051.1,0.10679
1103,4.3862,1.0909,0,0.00049407,4937.3,0.00017601,0.041577,0.0001407,-265.2,-0.00049804,-5064.5,0.10599
1104,4.3862,0.90909,0,0.00049745,4971.1,0.00017507,0.057483,0.00014543,-222.58,-0.00050086,-5078.6,0.10509
1105,4.3862,0.72727,0,0.000501,5006.5,0.00017409,0.08729,0.00015035,-178.27,-0.00050379,-5093.2,0.10409
1106,4.3862,0.54545,0,0.00050467,5043.3,0.00017308,0.10099,0.00015541,-132.7,-0.0005068,-5108.2,0.103
1107,4.3862,0.36364,0,0.00050846,5081.1,0.00017207,0.31113,0.00016056,-86.141,-0.00050987,-5123.5,0.10181
1108,4.3862,0.18182,0,0.0005124,5120.5,0.00017104,0.38776,0.00016584,-38.646,-0.00051304,-5139.5,0.1005
1109,4.2034,5.8182,0,0.00051884,5184.8,0.00017328,0.44648,0.00016777,-40.947,-0.00051951,-5204.9,0.092067
1110,4.2034,5.6364,0,0.00051456,5142,0.0001744,0.34198,0.00016203,-92.62,-0.00051606,-5187.5,0.093357
1111,4.2034,5.4545,0,0.00051045,5101,0.0001755,0.11135,0.00015643,-143.24,-0.00051274,-5171.1,0.09454
1112,4.2034,5.2727,0,0.00050648,5061.3,0.0001766,0.095601,0.00015093,-192.79,-0.00050948,-5154.9,0.09562
1113,4.2034,5.0909,0,0.00050265,5023,0.00017767,0.06276,0.00014559,-241.01,-0.00050631,-5139.1,0.096601
1114,4.2034,4.9091,0,0.000499,4986.5,0.0001787,0.045218,0.00014045,-287.4,-0.00050326,-5124,0.097487
1115,4.2034,4.7273,0,0.00049556,4952.2,0.00017968,0.0301,0.00013556,-331.49,-0.00050037,-5109.6,0.098279
1116,4.2034,4.5455,0,0.00049237,4920.3,0.0001806,0.018327,0.00013098,-372.81,-0.00049765,-5096.1,0.098983
1117,4.2034,4.3636,0,0.00048946,4891.2,0.00018145,0.0085554,0.00012676,-410.88,-0.00049515,-5083.7,0.0996
1118,4.2034,4.1818,0,0.00048685,4865.2,0.00018221,0.00051456,0.00012295,-445.26,-0.0004929,-5072.5,0.10013
1119,4.2034,4,0,0.00048458,4842.4,0.00018289,-0.0060891,0.0001196,-475.55,-0.00049091,-5062.6,0.10059
1120,4.2034,3.8182,0,0.00048265,4823.1,0.00018346,-0.011411,0.00011673,-501.37,-0.00048922,-5054.2,0.10096
1121,4.2034,3.6364,0,0.00048108,4807.5,0.00018393,-0.01556,0.0001144,-522.42,-0.00048784,-5047.4,0.10126
1122,4.2034,3.4545,0,0.0004799,4795.7,0.00018429,-0.018612,0.00011263,-538.44,-0.00048679,-5042.2,0.10148
1123,4.2034,3.2727,0,0.00047911,4787.8,0.00018453,-0.02062,0.00011143,-549.23,-0.00048608,-5038.7,0.10163
1124,4.2034,3.0909,0,0.00047871,4783.8,0.00018465,-0.021616,0.00011083,-554.66,-0.00048573,-5037,0.1017
1125,4.2034,2.9091,0,0.00047871,4783.8,0.00018465,-0.021616,0.00011083,-554.66,-0.00048573,-5037,0.1017
1126,4.2034,2.7273,0,0.00047911,4787.8,0.00018453,-0.020619,0.00011143,-549.23,-0.00048608,-5038.7,0.10163
1127,4.2034,2.5455,0,0.0004799,4795.7,0.00018429,-0.018611,0.00011263,-538.44,-0.00048679,-5042.2,0.10148
1128,4.2034,2.3636,0,0.00048108,4807.5,0.00018393,-0.01556,0.0001144,-522.42,-0.00048784,-5047.4,0.10126
1129,4.2034,2.1818,0,0.00048265,4823.1,0.00018346,-0.01141,0.00011673,-501.37,-0.00048922,-5054.2,0.10096
1130,4.2034,2,0,0.00048458,4842.4,0.00018289,-0.0060887,0.0001196,-475.55,-0.00049091,-5062.6,0.10059
1131,4.2034,1.8182,0,0.00048685,4865.2,0.00018221,0.00051517,0.00012295,-445.26,-0.0004929,-5072.5,0.10013
1132,4.2034,1.6364,0,0.00048946,4891.2,0.00018145,0.0085559,0.00012676,-410.88,-0.00049515,-5083.7,0.0996
1133,4.2034,1.4545,0,0.00049237,4920.3,0.0001806,0.018327,0.00013098,-372.81,-0.00049765,-5096.1,0.098983
1134,4.2034,1.2727,0,0.00049556,4952.2,0.00017968,0.030101,0.00013556,-331.49,-0.00050037,-5109.6,0.098279
1135,4.2034,1.0909,0,0.000499,4986.5,0.0001787,0.045219,0.00014045,-287.4,-0.00050326,-5124,0.097487
1136,4.2034,0.90909,0,0.00050265,5023,0.00017767,0.062761,0.00014559,-241.01,-0.00050631,-5139.1,0.096601
1137,4.2034,0.72727,0,0.00050648,5061.3,0.0001766,0.095602,0.00015093,-192.79,-0.00050948,-5154.9,0.09562
1138,4.2034,0.54545,0,0.00051045,5101,0.0001755,0.11135,0.00015643,-143.24,-0.00051274,-5171.1,0.09454
1139,4.2034,0.36364,0,0.00051456,5142,0.0001744,0.34199,0.00016203,-92.62,-0.00051606,-5187.5,0.093357
1140,4.2034,0.18182,0,0.00051884,5184.8,0.00017328,0.44648,0.00016777,-40.947,-0.00051951,-5204.9,0.092067
1141,4.0207,5.8182,0,0.00052533,5249.7,0.00017553,0.51687,0.00016973,-43.114,-0.00052604,-5270.8,0.083976
1142,4.0207,5.6364,0,0.00052068,5203.2,0.00017675,0.37595,0.00016349,-99.298,-0.00052229,-5252,0.085252
1143,4.0207,5.4545,0,0.00051625,5158.9,0.00017796,0.12296,0.00015741,-154.28,-0.0005187,-5234.3,0.086421
1144,4.0207,5.2727,0,0.00051196,5116,0.00017916,0.10485,0.00015144,-208.16,-0.00051518,-5216.9,0.087486
1145,4.0207,5.0909,0,0.00050782,5074.7,0.00018033,0.068683,0.00014564,-260.62,-0.00051175,-5200,0.088452
1146,4.0207,4.9091,0,0.00050389,5035.5,0.00018146,0.049339,0.00014005,-311.11,-0.00050846,-5183.8,0.089322
1147,4.0207,4.7273,0,0.0005002,4998.5,0.00018254,0.032765,0.00013474,-359.11,-0.00050534,-5168.4,0.0901
1148,4.0207,4.5455,0,0.00049677,4964.3,0.00018355,0.019922,0.00012976,-404.09,-0.00050241,-5154,0.09079
1149,4.0207,4.3636,0,0.00049365,4933.1,0.00018448,0.0093314,0.00012518,-445.53,-0.00049972,-5140.8,0.091394
1150,4.0207,4.1818,0,0.00049087,4905.3,0.00018532,0.00067755,0.00012104,-482.95,-0.00049729,-5128.9,0.091916
1151,4.0207,4,0,0.00048843,4881,0.00018606,-0.0063774,0.0001174,-515.89,-0.00049516,-5118.4,0.092358
1152,4.0207,3.8182,0,0.00048638,4860.4,0.00018669,-0.012021,0.0001143,-543.98,-0.00049334,-5109.5,0.092723
1153,4.0207,3.6364,0,0.00048471,4843.8,0.00018721,-0.016392,0.00011177,-566.86,-0.00049186,-5102.3,0.093012
1154,4.0207,3.4545,0,0.00048346,4831.2,0.0001876,-0.019587,0.00010984,-584.27,-0.00049074,-5096.8,0.093228
1155,4.0207,3.2727,0,0.00048261,4822.8,0.00018787,-0.021681,0.00010855,-595.99,-0.00048998,-5093.1,0.093371
1156,4.0207,3.0909,0,0.00048219,4818.6,0.000188,-0.022717,0.0001079,-601.88,-0.0004896,-5091.3,0.093443
1157,4.0207,2.9091,0,0.00048219,4818.6,0.000188,-0.022717,0.0001079,-601.88,-0.0004896,-5091.3,0.093443
1158,4.0207,2.7273,0,0.00048261,4822.8,0.00018787,-0.021681,0.00010855,-595.99,-0.00048998,-5093.1,0.093371
1159,4.0207,2.5455,0,0.00048346,4831.2,0.0001876,-0.019587,0.00010984,-584.27,-0.00049074,-5096.8,0.093228
1160,4.0207,2.3636,0,0.00048471,4843.8,0.00018721,-0.016391,0.00011177,-566.86,-0.00049186,-5102.3,0.093012
1161,4.0207,2.1818,0,0.00048638,4860.4,0.00018669,-0.012021,0.0001143,-543.98,-0.00049334,-5109.5,0.092723
1162,4.0207,2,0,0.00048843,4881,0.00018606,-0.0063769,0.0001174,-515.89,-0.00049516,-5118.4,0.092358
1163,4.0207,1.8182,0,0.00049087,4905.3,0.00018532,0.00067804,0.00012104,-482.95,-0.00049729,-5128.9,0.091916
1164,4.0207,1.6364,0,0.00049365,4933.1,0.00018448,0.0093319,0.00012518,-445.53,-0.00049972,-5140.8,0.091394
1165,4.0207,1.4545,0,0.00049677,4964.3,0.00018355,0.019923,0.00012976,-404.09,-0.00050241,-5154,0.09079
1166,4.0207,1.2727,0,0.0005002,4998.5,0.00018254,0.032765,0.00013474,-359.11,-0.00050534,-5168.4,0.0901
1167,4.0207,1.0909,0,0.00050389,5035.5,0.00018146,0.04934,0.00014005,-311.11,-0.00050846,-5183.8,0.089322
1168,4.0207,0.90909,0,0.00050782,5074.7,0.00018033,0.068685,0.00014564,-260.62,-0.00051175,-5200,0.088452
1169,4.0207,0.72727,0,0.00051196,5116,0.00017916,0.10485,0.00015144,-208.16,-0.00051518,-5216.9,0.087486
1170,4.0207,0.54545,0,0.00051625,5158.9,0.00017796,0.12296,0.00015741,-154.28,-0.0005187,-5234.3,0.086421
1171,4.0207,0.36364,0,0.00052068,5203.2,0.00017675,0.37596,0.00016349,-99.298,-0.00052229,-5252,0.085252
1172,4.0207,0.18182,0,0.00052533,5249.7,0.00017553,0.51687,0.00016973,-43.114,-0.00052604,-5270.8,0.083976
1173,3.8379,5.8182,0,0.00053189,5315.2,0.0001778,0.60188,0.00017172,-45.105,-0.00053263,-5337.3,0.076235
1174,3.8379,5.6364,0,0.00052684,5264.7,0.00017912,0.41346,0.00016494,-106.17,-0.00052856,-5316.8,0.077495
1175,3.8379,5.4545,0,0.00052205,5216.9,0.00018044,0.13596,0.00015835,-165.88,-0.00052468,-5297.8,0.078647
1176,3.8379,5.2727,0,0.00051743,5170.7,0.00018176,0.11512,0.00015187,-224.44,-0.00052088,-5279.2,0.079695
1177,3.8379,5.0909,0,0.00051298,5126.2,0.00018304,0.075292,0.00014557,-281.51,-0.00051718,-5261.1,0.080643
1178,3.8379,4.9091,0,0.00050875,5084,0.00018428,0.053956,0.00013949,-336.47,-0.00051364,-5243.8,0.081496
1179,3.8379,4.7273,0,0.00050479,5044.4,0.00018547,0.035787,0.00013372,-388.74,-0.00051027,-5227.5,0.082258
1180,3.8379,4.5455,0,0.00050112,5007.7,0.00018658,0.021784,0.00012832,-437.72,-0.00050713,-5212.2,0.082931
1181,3.8379,4.3636,0,0.00049779,4974.4,0.00018761,0.010317,0.00012334,-482.83,-0.00050424,-5198.2,0.083521
1182,3.8379,4.1818,0,0.00049481,4944.7,0.00018853,0.0010217,0.00011885,-523.55,-0.00050164,-5185.7,0.084029
1183,3.8379,4,0,0.00049223,4918.9,0.00018935,-0.0064929,0.0001149,-559.39,-0.00049935,-5174.7,0.084459
1184,3.8379,3.8182,0,0.00049004,4897.1,0.00019005,-0.012453,0.00011154,-589.93,-0.00049741,-5165.3,0.084814
1185,3.8379,3.6364,0,0.00048828,4879.5,0.00019062,-0.017033,0.0001088,-614.79,-0.00049583,-5157.7,0.085095
1186,3.8379,3.4545,0,0.00048695,4866.2,0.00019106,-0.020359,0.00010672,-633.7,-0.00049463,-5152,0.085305
1187,3.8379,3.2727,0,0.00048606,4857.3,0.00019135,-0.022526,0.00010532,-646.43,-0.00049382,-5148.1,0.085443
1188,3.8379,3.0909,0,0.00048562,4852.8,0.0001915,-0.023595,0.00010461,-652.83,-0.00049342,-5146.2,0.085513
1189,3.8379,2.9091,0,0.00048562,4852.8,0.0001915,-0.023595,0.00010461,-652.83,-0.00049342,-5146.2,0.085513
1190,3.8379,2.7273,0,0.00048606,4857.3,0.00019135,-0.022526,0.00010532,-646.43,-0.00049382,-5148.1,0.085443
1191,3.8379,2.5455,0,0.00048695,4866.2,0.00019106,-0.020359,0.00010672,-633.7,-0.00049463,-5152,0.085305
1192,3.8379,2.3636,0,0.00048828,4879.5,0.00019062,-0.017033,0.0001088,-614.79,-0.00049583,-5157.7,0.085095
1193,3.8379,2.1818,0,0.00049004,4897.1,0.00019005,-0.012453,0.00011154,-589.93,-0.00049741,-5165.3,0.084814
1194,3.8379,2,0,0.00049223,4918.9,0.00018935,-0.0064924,0.0001149,-559.39,-0.00049935,-5174.7,0.084459
1195,3.8379,1.8182,0,0.00049481,4944.7,0.00018853,0.001022,0.00011885,-523.55,-0.00050164,-5185.7,0.084029
1196,3.8379,1.6364,0,0.00049779,4974.4,0.00018761,0.010318,0.00012334,-482.83,-0.00050424,-5198.2,0.083521
1197,3.8379,1.4545,0,0.00050112,5007.7,0.00018658,0.021785,0.00012832,-437.72,-0.00050713,-5212.2,0.082931
1198,3.8379,1.2727,0,0.00050479,5044.4,0.00018547,0.035787,0.00013372,-388.74,-0.00051027,-5227.5,0.082258
1199,3.8379,1.0909,0,0.00050875,5084,0.00018428,0.053957,0.00013949,-336.47,-0.00051364,-5243.8,0.081496
1200,3.8379,0.90909,0,0.00051298,5126.2,0.00018304,0.075293,0.00014557,-281.51,-0.00051718,-5261.1,0.080643
1201,3.8379,0.72727,0,0.00051743,5170.7,0.00018176,0.11512,0.00015187,-224.44,-0.00052088,-5279.2,0.079695
1202,3.8379,0.54545,0,0.00052205,5216.9,0.00018044,0.13596,0.00015835,-165.88,-0.00052468,-5297.8,0.078647
1203,3.8379,0.36364,0,0.00052684,5264.7,0.00017912,0.41346,0.00016494,-106.17,-0.00052856,-5316.8,0.077495
1204,3.8379,0.18182,0,0.00053189,5315.2,0.0001778,0.60188,0.00017172,-45.105,-0.00053263,-5337.3,0.076235
1205,3.6552,5.8182,0,0.0005385,5381.2,0.00018008,0.70542,0.00017375,-46.868,-0.00053927,-5404.2,0.06885
1206,3.6552,5.6364,0,0.00053302,5326.5,0.00018151,0.45499,0.00016638,-113.22,-0.00053484,-5382,0.070091
1207,3.6552,5.4545,0,0.00052786,5274.9,0.00018295,0.1505,0.00015923,-178.05,-0.00053066,-5361.6,0.071223
1208,3.6552,5.2727,0,0.00052288,5225.2,0.00018439,0.1265,0.00015221,-241.71,-0.00052657,-5341.7,0.072251
1209,3.6552,5.0909,0,0.00051809,5177.4,0.00018581,0.082624,0.00014536,-303.8,-0.00052259,-5322.5,0.07318
1210,3.6552,4.9091,0,0.00051356,5132.1,0.00018717,0.059081,0.00013877,-363.64,-0.00051878,-5304.2,0.074013
1211,3.6552,4.7273,0,0.00050932,5089.6,0.00018848,0.039164,0.0001325,-420.56,-0.00051516,-5286.9,0.074755
1212,3.6552,4.5455,0,0.0005054,5050.5,0.00018971,0.023908,0.00012663,-473.89,-0.00051179,-5270.8,0.075411
1213,3.6552,4.3636,0,0.00050185,5015.1,0.00019084,0.011515,0.00012123,-523.01,-0.0005087,-5256.1,0.075984
1214,3.6552,4.1818,0,0.0004987,4983.5,0.00019187,0.0015607,0.00011637,-567.31,-0.00050592,-5242.9,0.076477
1215,3.6552,4,0,0.00049596,4956.2,0.00019278,-0.0064066,0.00011209,-606.28,-0.00050348,-5231.4,0.076894
1216,3.6552,3.8182,0,0.00049366,4933.2,0.00019355,-0.012663,0.00010845,-639.46,-0.00050142,-5221.7,0.077237
1217,3.6552,3.6364,0,0.0004918,4914.6,0.00019418,-0.017424,0.00010548,-666.47,-0.00049974,-5213.9,0.077509
1218,3.6552,3.4545,0,0.0004904,4900.7,0.00019466,-0.020853,0.00010323,-686.99,-0.00049846,-5207.9,0.077711
1219,3.6552,3.2727,0,0.00048947,4891.3,0.00019499,-0.023073,0.00010172,-700.8,-0.00049761,-5203.9,0.077845
1220,3.6552,3.0909,0,0.000489,4886.6,0.00019515,-0.024164,0.00010096,-707.74,-0.00049718,-5201.9,0.077912
1221,3.6552,2.9091,0,0.000489,4886.6,0.00019515,-0.024164,0.00010096,-707.74,-0.00049718,-5201.9,0.077912
1222,3.6552,2.7273,0,0.00048947,4891.3,0.00019499,-0.023073,0.00010172,-700.8,-0.00049761,-5203.9,0.077845
1223,3.6552,2.5455,0,0.0004904,4900.7,0.00019466,-0.020853,0.00010323,-686.99,-0.00049846,-5207.9,0.077711
1224,3.6552,2.3636,0,0.0004918,4914.6,0.00019418,-0.017424,0.00010548,-666.47,-0.00049974,-5213.9,0.077509
1225,3.6552,2.1818,0,0.00049366,4933.2,0.00019355,-0.012662,0.00010845,-639.46,-0.00050142,-5221.7,0.077237
1226,3.6552,2,0,0.00049596,4956.2,0.00019278,-0.0064062,0.00011209,-606.28,-0.00050348,-5231.4,0.076894
1227,3.6552,1.8182,0,0.0004987,4983.5,0.00019187,0.0015612,0.00011637,-567.31,-0.00050592,-5242.9,0.076477
1228,3.6552,1.6364,0,0.00050185,5015.1,0.00019084,0.011515,0.00012123,-523.01,-0.0005087,-5256.1,0.075984
1229,3.6552,1.4545,0,0.0005054,5050.5,0.00018971,0.023908,0.00012663,-473.89,-0.00051179,-5270.8,0.075411
1230,3.6552,1.2727,0,0.00050932,5089.6,0.00018848,0.039165,0.0001325,-420.56,-0.00051516,-5286.9,0.074755
1231,3.6552,1.0909,0,0.00051356,5132.1,0.00018717,0.059082,0.00013877,-363.64,-0.00051878,-5304.2,0.074013
1232,3.6552,0.90909,0,0.00051809,5177.4,0.00018581,0.082625,0.00014536,-303.8,-0.00052259,-5322.5,0.07318
1233,3.6552,0.72727,0,0.00052288,5225.2,0.00018439,0.1265,0.00015221,-241.71,-0.00052657,-5341.7,0.072251
1234,3.6552,0.54545,0,0.00052786,5274.9,0.00018295,0.1505,0.00015923,-178.05,-0.00053066,-5361.6,0.071223
1235,3.6552,0.36364,0,0.00053302,5326.5,0.00018151,0.45499,0.00016638,-113.22,-0.00053484,-5382,0.070091
1236,3.6552,0.18182,0,0.0005385,5381.2,0.00018008,0.70542,0.00017375,-46.868,-0.00053927,-5404.2,0.06885
1237,3.4724,5.8182,0,0.00054515,5447.8,0.00018236,0.83281,0.00017581,-48.343,-0.00054595,-5471.4,0.061824
1238,3.4724,5.6364,0,0.00053921,5388.3,0.00018391,0.50112,0.00016781,-120.45,-0.00054114,-5447.3,0.063044
1239,3.4724,5.4545,0,0.00053365,5332.8,0.00018549,0.1668,0.00016007,-190.84,-0.00053664,-5425.6,0.064153
1240,3.4724,5.2727,0,0.00052829,5279.3,0.00018707,0.13912,0.00015244,-260.05,-0.00053223,-5404.4,0.065158
1241,3.4724,5.0909,0,0.00052316,5228,0.00018862,0.090749,0.00014501,-327.62,-0.00052796,-5384.1,0.066064
1242,3.4724,4.9091,0,0.00051831,5179.5,0.00019013,0.064753,0.00013785,-392.79,-0.00052387,-5364.7,0.066875
1243,3.4724,4.7273,0,0.00051378,5134.2,0.00019158,0.042922,0.00013105,-454.78,-0.00052,-5346.5,0.067596
1244,3.4724,4.5455,0,0.00050962,5092.7,0.00019294,0.026318,0.00012468,-512.85,-0.0005164,-5329.7,0.068232
1245,3.4724,4.3636,0,0.00050586,5055.1,0.0001942,0.012958,0.00011883,-566.31,-0.0005131,-5314.4,0.068786
1246,3.4724,4.1818,0,0.00050252,5021.8,0.00019534,0.0023449,0.00011355,-614.49,-0.00051015,-5300.7,0.069263
1247,3.4724,4,0,0.00049964,4993,0.00019634,-0.0060483,0.00010893,-656.83,-0.00050757,-5288.9,0.069665
1248,3.4724,3.8182,0,0.00049723,4968.9,0.0001972,-0.012558,0.00010499,-692.85,-0.00050538,-5278.9,0.069995
1249,3.4724,3.6364,0,0.00049529,4949.5,0.00019791,-0.017454,0.0001018,-722.14,-0.00050361,-5270.9,0.070257
1250,3.4724,3.4545,0,0.00049383,4934.9,0.00019844,-0.020944,9.9371e-05,-744.38,-0.00050227,-5264.8,0.070451
1251,3.4724,3.2727,0,0.00049286,4925.2,0.0001988,-0.023185,9.7741e-05,-759.33,-0.00050137,-5260.8,0.07058
1252,3.4724,3.0909,0,0.00049237,4920.3,0.00019898,-0.02428,9.6922e-05,-766.85,-0.00050091,-5258.8,0.070644
1253,3.4724,2.9091,0,0.00049237,4920.3,0.00019898,-0.02428,9.6922e-05,-766.85,-0.00050091,-5258.8,0.070644
1254,3.4724,2.7273,0,0.00049286,4925.2,0.0001988,-0.023185,9.7741e-05,-759.33,-0.00050137,-5260.8,0.07058
1255,3.4724,2.5455,0,0.00049383,4934.9,0.00019844,-0.020944,9.9371e-05,-744.38,-0.00050227,-5264.8,0.070451
1256,3.4724,2.3636,0,0.00049529,4949.5,0.00019791,-0.017454,0.0001018,-722.14,-0.00050361,-5270.9,0.070257
1257,3.4724,2.1818,0,0.00049723,4968.9,0.0001972,-0.012558,0.00010499,-692.85,-0.00050538,-5278.9,0.069995
1258,3.4724,2,0,0.00049964,4993,0.00019634,-0.006048,0.00010893,-656.83,-0.00050757,-5288.9,0.069665
1259,3.4724,1.8182,0,0.00050252,5021.8,0.00019534,0.0023454,0.00011355,-614.49,-0.00051015,-5300.7,0.069263
1260,3.4724,1.6364,0,0.00050586,5055.1,0.0001942,0.012959,0.00011883,-566.31,-0.0005131,-5314.4,0.068786
1261,3.4724,1.4545,0,0.00050962,5092.7,0.00019294,0.026319,0.00012468,-512.85,-0.0005164,-5329.7,0.068232
1262,3.4724,1.2727,0,0.00051378,5134.2,0.00019158,0.042923,0.00013105,-454.78,-0.00052,-5346.5,0.067596
1263,3.4724,1.0909,0,0.00051831,5179.5,0.00019013,0.064754,0.00013785,-392.79,-0.00052387,-5364.7,0.066875
1264,3.4724,0.90909,0,0.00052316,5228,0.00018862,0.09075,0.00014501,-327.62,-0.00052796,-5384.1,0.066064
1265,3.4724,0.72727,0,0.00052829,5279.3,0.00018707,0.13912,0.00015244,-260.05,-0.00053223,-5404.4,0.065158
1266,3.4724,0.54545,0,0.00053365,5332.8,0.00018549,0.1668,0.00016007,-190.84,-0.00053664,-5425.6,0.064153
1267,3.4724,0.36364,0,0.00053921,5388.3,0.00018391,0.50113,0.00016781,-120.45,-0.00054114,-5447.3,0.063044
1268,3.4724,0.18182,0,0.00054515,5447.8,0.00018236,0.83281,0.00017581,-48.343,-0.00054595,-5471.4,0.061824
1269,3.2897,5.8182,0,0.00055185,5514.6,0.00018464,0.99132,0.00017792,-49.462,-0.00055265,-5538.7,0.055162
1270,3.2897,5.6364,0,0.00054539,5450.1,0.00018632,0.5526,0.00016923,-127.85,-0.00054744,-5512.6,0.056356
1271,3.2897,5.4545,0,0.00053941,5390.3,0.00018804,0.18513,0.00016083,-204.29,-0.00054259,-5489.5,0.05744
1272,3.2897,5.2727,0,0.00053365,5332.9,0.00018978,0.15313,0.00015256,-279.56,-0.00053786,-5467.1,0.05842
1273,3.2897,5.0909,0,0.00052816,5278,0.0001915,0.099752,0.00014449,-353.13,-0.00053328,-5445.6,0.0593
1274,3.2897,4.9091,0,0.00052298,5226.2,0.00019317,0.07102,0.00013671,-424.12,-0.0005289,-5425.3,0.060086
1275,3.2897,4.7273,0,0.00051816,5178.1,0.00019477,0.047093,0.00012933,-491.65,-0.00052477,-5406.3,0.060784
1276,3.2897,4.5455,0,0.00051376,5134,0.00019628,0.02905,0.00012243,-554.87,-0.00052094,-5388.9,0.061397
1277,3.2897,4.3636,0,0.00050979,5094.4,0.00019768,0.014697,0.00011609,-613.02,-0.00051744,-5373.2,0.061931
1278,3.2897,4.1818,0,0.0005063,5059.5,0.00019895,0.0034474,0.00011039,-665.37,-0.00051432,-5359.2,0.062388
1279,3.2897,4,0,0.00050329,5029.4,0.00020007,-0.0053184,0.0001054,-711.32,-0.0005116,-5347.2,0.062774
1280,3.2897,3.8182,0,0.00050078,5004.3,0.00020103,-0.012014,0.00010116,-750.35,-0.0005093,-5337.1,0.06309
1281,3.2897,3.6364,0,0.00049877,4984.3,0.00020181,-0.016975,9.7722e-05,-782.06,-0.00050745,-5329.1,0.063341
1282,3.2897,3.4545,0,0.00049727,4969.2,0.0002024,-0.020465,9.5116e-05,-806.1,-0.00050605,-5323,0.063526
1283,3.2897,3.2727,0,0.00049627,4959.2,0.0002028,-0.022682,9.3366e-05,-822.26,-0.00050511,-5319,0.063649
1284,3.2897,3.0909,0,0.00049577,4954.2,0.000203,-0.023758,9.2487e-05,-830.38,-0.00050464,-5317,0.06371
1285,3.2897,2.9091,0,0.00049577,4954.2,0.000203,-0.023758,9.2487e-05,-830.38,-0.00050464,-5317,0.06371
1286,3.2897,2.7273,0,0.00049627,4959.2,0.0002028,-0.022682,9.3366e-05,-822.26,-0.00050511,-5319,0.063649
1287,3.2897,2.5455,0,0.00049727,4969.2,0.0002024,-0.020465,9.5116e-05,-806.1,-0.00050605,-5323,0.063526
1288,3.2897,2.3636,0,0.00049877,4984.3,0.00020181,-0.016975,9.7722e-05,-782.06,-0.00050745,-5329.1,0.063341
1289,3.2897,2.1818,0,0.00050078,5004.3,0.00020103,-0.012013,0.00010116,-750.35,-0.0005093,-5337.1,0.06309
1290,3.2897,2,0,0.00050329,5029.4,0.00020007,-0.0053181,0.0001054,-711.32,-0.0005116,-5347.2,0.062774
1291,3.2897,1.8182,0,0.0005063,5059.5,0.00019895,0.0034477,0.00011039,-665.37,-0.00051432,-5359.2,0.062388
1292,3.2897,1.6364,0,0.00050979,5094.4,0.00019768,0.014697,0.00011609,-613.02,-0.00051744,-5373.2,0.061931
1293,3.2897,1.4545,0,0.00051376,5134,0.00019628,0.02905,0.00012243,-554.87,-0.00052094,-5388.9,0.061397
1294,3.2897,1.2727,0,0.00051816,5178.1,0.00019477,0.047093,0.00012933,-491.65,-0.00052477,-5406.3,0.060784
1295,3.2897,1.0909,0,0.00052298,5226.2,0.00019317,0.071021,0.00013671,-424.12,-0.0005289,-5425.3,0.060086
1296,3.2897,0.90909,0,0.00052816,5278,0.0001915,0.099753,0.00014449,-353.13,-0.00053328,-5445.6,0.0593
1297,3.2897,0.72727,0,0.00053365,5332.9,0.00018978,0.15313,0.00015256,-279.56,-0.00053786,-5467.1,0.05842
1298,3.2897,0.54545,0,0.00053941,5390.3,0.00018804,0.18513,0.00016083,-204.29,-0.00054259,-5489.5,0.05744
1299,3.2897,0.36364,0,0.00054539,5450.1,0.00018632,0.5526,0.00016923,-127.85,-0.00054744,-5512.6,0.056356
1300,3.2897,0.18182,0,0.00055185,5514.6,0.00018464,0.99133,0.00017792,-49.462,-0.00055265,-5538.7,0.055162
1301,3.1069,5.8182,0,0.00055855,5581.7,0.0001869,1.1912,0.00018007,-50.15,-0.00055937,-5606,0.048866
1302,3.1069,5.6364,0,0.00055154,5511.6,0.00018872,0.61023,0.00017062,-135.39,-0.00055371,-5577.7,0.050033
1303,3.1069,5.4545,0,0.00054511,5447.3,0.00019061,0.20575,0.00016151,-218.45,-0.00054849,-5553.1,0.051088
1304,3.1069,5.2727,0,0.00053894,5385.6,0.00019253,0.16867,0.00015253,-300.38,-0.00054341,-5529.5,0.052039
1305,3.1069,5.0909,0,0.00053306,5327,0.00019443,0.10967,0.00014377,-380.53,-0.00053851,-5507,0.05289
1306,3.1069,4.9091,0,0.00052755,5271.9,0.00019629,0.077883,0.00013533,-457.89,-0.00053384,-5485.8,0.053649
1307,3.1069,4.7273,0,0.00052245,5220.9,0.00019807,0.051663,0.00012733,-531.46,-0.00052946,-5466.3,0.05432
1308,3.1069,4.5455,0,0.00051781,5174.5,0.00019975,0.032097,0.00011985,-600.27,-0.0005254,-5448.4,0.054909
1309,3.1069,4.3636,0,0.00051366,5133,0.00020131,0.016748,0.000113,-663.46,-0.00052172,-5432.5,0.055419
1310,3.1069,4.1818,0,0.00051002,5096.7,0.00020272,0.0049167,0.00010686,-720.27,-0.00051844,-5418.5,0.055857
1311,3.1069,4,0,0.00050691,5065.6,0.00020397,-0.0041347,0.00010148,-770.04,-0.0005156,-5406.6,0.056224
1312,3.1069,3.8182,0,0.00050433,5039.8,0.00020503,-0.010915,9.6931e-05,-812.25,-0.00051321,-5396.6,0.056525
1313,3.1069,3.6364,0,0.00050228,5019.3,0.0002059,-0.015845,9.3246e-05,-846.47,-0.00051129,-5388.7,0.056763
1314,3.1069,3.4545,0,0.00050075,5004,0.00020656,-0.019254,9.0458e-05,-872.39,-0.00050985,-5382.9,0.056939
1315,3.1069,3.2727,0,0.00049973,4993.9,0.00020701,-0.02139,8.8588e-05,-889.79,-0.00050888,-5379,0.057056
1316,3.1069,3.0909,0,0.00049922,4988.8,0.00020723,-0.022417,8.765e-05,-898.52,-0.0005084,-5377,0.057114
1317,3.1069,2.9091,0,0.00049922,4988.8,0.00020723,-0.022417,8.765e-05,-898.52,-0.0005084,-5377,0.057114
1318,3.1069,2.7273,0,0.00049973,4993.9,0.00020701,-0.02139,8.8588e-05,-889.79,-0.00050888,-5379,0.057056
1319,3.1069,2.5455,0,0.00050075,5004,0.00020656,-0.019254,9.0458e-05,-872.39,-0.00050985,-5382.9,0.056939
1320,3.1069,2.3636,0,0.00050228,5019.3,0.0002059,-0.015845,9.3246e-05,-846.47,-0.00051129,-5388.7,0.056763
1321,3.1069,2.1818,0,0.00050433,5039.8,0.00020503,-0.010915,9.6931e-05,-812.25,-0.00051321,-5396.6,0.056525
1322,3.1069,2,0,0.00050691,5065.6,0.00020397,-0.0041343,0.00010148,-770.04,-0.0005156,-5406.6,0.056224
1323,3.1069,1.8182,0,0.00051002,5096.7,0.00020272,0.0049171,0.00010686,-720.27,-0.00051844,-5418.5,0.055857
1324,3.1069,1.6364,0,0.00051366,5133,0.00020131,0.016749,0.000113,-663.46,-0.00052172,-5432.5,0.055419
1325,3.1069,1.4545,0,0.00051781,5174.5,0.00019975,0.032098,0.00011985,-600.27,-0.0005254,-5448.4,0.054909
1326,3.1069,1.2727,0,0.00052245,5220.9,0.00019807,0.051664,0.00012733,-531.46,-0.00052946,-5466.3,0.05432
1327,3.1069,1.0909,0,0.00052755,5271.9,0.00019629,0.077884,0.00013533,-457.89,-0.00053384,-5485.8,0.053649
1328,3.1069,0.90909,0,0.00053306,5327,0.00019443,0.10968,0.00014377,-380.53,-0.00053851,-5507,0.05289
1329,3.1069,0.72727,0,0.00053894,5385.6,0.00019253,0.16867,0.00015253,-300.38,-0.00054341,-5529.5,0.052039
1330,3.1069,0.54545,0,0.00054511,5447.3,0.00019061,0.20575,0.00016151,-218.45,-0.00054849,-5553.1,0.051088
1331,3.1069,0.36364,0,0.00055154,5511.6,0.00018872,0.61023,0.00017062,-135.39,-0.00055371,-5577.7,0.050033
1332,3.1069,0.18182,0,0.00055855,5581.7,0.0001869,1.1912,0.00018007,-50.15,-0.00055937,-5606,0.048866
1333,2.9241,5.8182,0,0.00056524,5648.5,0.00018914,1.4471,0.00018225,-50.32,-0.00056606,-5672.8,0.042943
1334,2.9241,5.6364,0,0.00055762,5572.4,0.00019111,0.67502,0.00017198,-143.07,-0.0005599,-5642.2,0.044077
1335,2.9241,5.4545,0,0.00055071,5503.3,0.00019319,0.22899,0.00016209,-233.42,-0.0005543,-5616.1,0.0451
1336,2.9241,5.2727,0,0.0005441,5437.3,0.00019531,0.18589,0.00015235,-322.67,-0.00054887,-5591.3,0.046018
1337,2.9241,5.0909,0,0.00053784,5374.7,0.00019742,0.12058,0.00014283,-410.07,-0.00054364,-5567.9,0.046838
1338,2.9241,4.9091,0,0.00053199,5316.3,0.00019948,0.085359,0.00013367,-494.42,-0.00053867,-5546.2,0.047567
1339,2.9241,4.7273,0,0.00052662,5262.6,0.00020147,0.056638,0.00012499,-574.56,-0.00053403,-5526.2,0.048208
1340,2.9241,4.5455,0,0.00052176,5214,0.00020335,0.035482,0.00011691,-649.42,-0.00052977,-5508.3,0.04877
1341,2.9241,4.3636,0,0.00051746,5171,0.00020509,0.019169,0.00010952,-718.02,-0.00052592,-5492.5,0.049256
1342,2.9241,4.1818,0,0.00051371,5133.6,0.00020667,0.0068502,0.00010291,-779.56,-0.00052251,-5478.8,0.04967
1343,2.9241,4,0,0.00051054,5101.8,0.00020806,-0.0023582,9.7152e-05,-833.33,-0.00051958,-5467.2,0.050018
1344,2.9241,3.8182,0,0.00050792,5075.7,0.00020925,-0.0090876,9.2287e-05,-878.83,-0.00051713,-5457.7,0.050303
1345,2.9241,3.6364,0,0.00050585,5055.1,0.00021022,-0.013861,8.8358e-05,-915.63,-0.00051517,-5450.3,0.050527
1346,2.9241,3.4545,0,0.00050432,5039.7,0.00021096,-0.017085,8.5392e-05,-943.46,-0.0005137,-5444.8,0.050693
1347,2.9241,3.2727,0,0.00050331,5029.6,0.00021145,-0.019068,8.3406e-05,-962.11,-0.00051272,-5441.2,0.050802
1348,2.9241,3.0909,0,0.0005028,5024.6,0.0002117,-0.020009,8.2411e-05,-971.47,-0.00051223,-5439.4,0.050857
1349,2.9241,2.9091,0,0.0005028,5024.6,0.0002117,-0.020009,8.2411e-05,-971.47,-0.00051223,-5439.4,0.050857
1350,2.9241,2.7273,0,0.00050331,5029.6,0.00021145,-0.019068,8.3406e-05,-962.11,-0.00051272,-5441.2,0.050802
1351,2.9241,2.5455,0,0.00050432,5039.7,0.00021096,-0.017085,8.5392e-05,-943.46,-0.0005137,-5444.8,0.050693
1352,2.9241,2.3636,0,0.00050585,5055.1,0.00021022,-0.013861,8.8358e-05,-915.63,-0.00051517,-5450.3,0.050527
1353,2.9241,2.1818,0,0.00050792,5075.7,0.00020925,-0.0090873,9.2287e-05,-878.83,-0.00051713,-5457.7,0.050303
1354,2.9241,2,0,0.00051054,5101.8,0.00020806,-0.0023578,9.7152e-05,-833.33,-0.00051958,-5467.2,0.050018
1355,2.9241,1.8182,0,0.00051371,5133.6,0.00020667,0.0068507,0.00010291,-779.56,-0.00052251,-5478.8,0.04967
1356,2.9241,1.6364,0,0.00051746,5171,0.00020509,0.019169,0.00010952,-718.02,-0.00052592,-5492.5,0.049256
1357,2.9241,1.4545,0,0.00052176,5214,0.00020335,0.035483,0.00011691,-649.42,-0.00052977,-5508.3,0.04877
1358,2.9241,1.2727,0,0.00052662,5262.6,0.00020147,0.056638,0.00012499,-574.56,-0.00053403,-5526.2,0.048208
1359,2.9241,1.0909,0,0.00053199,5316.3,0.00019948,0.08536,0.00013367,-494.42,-0.00053867,-5546.2,0.047567
1360,2.9241,0.90909,0,0.00053784,5374.7,0.00019742,0.12058,0.00014283,-410.07,-0.00054364,-5567.9,0.046838
1361,2.9241,0.72727,0,0.0005441,5437.3,0.00019531,0.18589,0.00015235,-322.67,-0.00054887,-5591.3,0.046018
1362,2.9241,0.54545,0,0.00055071,5503.3,0.00019319,0.22899,0.00016209,-233.42,-0.0005543,-5616.1,0.0451
1363,2.9241,0.36364,0,0.00055762,5572.4,0.00019111,0.67502,0.00017198,-143.07,-0.0005599,-5642.2,0.044077
1364,2.9241,0.18182,0,0.00056524,5648.5,0.00018914,1.4471,0.00018225,-50.32,-0.00056606,-5672.8,0.042943
1365,2.7414,5.8182,0,0.00057188,5714.8,0.00019133,1.781,0.00018446,-49.882,-0.00057268,-5738.7,0.037395
1366,2.7414,5.6364,0,0.00056359,5632,0.00019347,0.74827,0.00017329,-150.91,-0.00056599,-5705.6,0.038493
1367,2.7414,5.4545,0,0.00055616,5557.8,0.00019576,0.25529,0.00016255,-249.3,-0.00055998,-5678.1,0.03948
1368,2.7414,5.2727,0,0.0005491,5487.2,0.00019812,0.20504,0.00015196,-346.66,-0.00055417,-5652.2,0.040362
1369,2.7414,5.0909,0,0.00054244,5420.7,0.00020047,0.13257,0.00014162,-442.05,-0.00054861,-5628.1,0.041147
1370,2.7414,4.9091,0,0.00053627,5359,0.00020277,0.093499,0.00013168,-534.08,-0.00054335,-5606,0.041842
1371,2.7414,4.7273,0,0.00053064,5302.8,0.00020499,0.062063,0.00012228,-621.4,-0.00053847,-5586.1,0.042452
1372,2.7414,4.5455,0,0.00052561,5252.5,0.0002071,0.03928,0.00011356,-702.77,-0.00053402,-5568.4,0.042983
1373,2.7414,4.3636,0,0.00052119,5208.3,0.00020905,0.022081,0.00010561,-777.13,-0.00053004,-5553.2,0.043441
1374,2.7414,4.1818,0,0.00051739,5170.3,0.00021081,0.0094247,9.8533e-05,-843.61,-0.00052655,-5540.2,0.043832
1375,2.7414,4,0,0.00051419,5138.4,0.00021237,0.00023717,9.2384e-05,-901.53,-0.00052356,-5529.5,0.044158
1376,2.7414,3.8182,0,0.00051159,5112.4,0.0002137,-0.006265,8.7213e-05,-950.37,-0.00052109,-5520.9,0.044425
1377,2.7414,3.6364,0,0.00050955,5092,0.00021478,-0.010726,8.3052e-05,-989.77,-0.00051912,-5514.3,0.044634
1378,2.7414,3.4545,0,0.00050806,5077,0.0002156,-0.013646,7.9919e-05,-1019.5,-0.00051766,-5509.4,0.044789
1379,2.7414,3.2727,0,0.00050707,5067.2,0.00021615,-0.015392,7.7826e-05,-1039.4,-0.00051669,-5506.3,0.044891
1380,2.7414,3.0909,0,0.00050658,5062.3,0.00021643,-0.016206,7.6778e-05,-1049.3,-0.0005162,-5504.8,0.044942
1381,2.7414,2.9091,0,0.00050658,5062.3,0.00021643,-0.016206,7.6778e-05,-1049.3,-0.0005162,-5504.8,0.044942
1382,2.7414,2.7273,0,0.00050707,5067.2,0.00021615,-0.015392,7.7826e-05,-1039.4,-0.00051669,-5506.3,0.044891
1383,2.7414,2.5455,0,0.00050806,5077,0.0002156,-0.013646,7.9919e-05,-1019.5,-0.00051766,-5509.4,0.044789
1384,2.7414,2.3636,0,0.00050955,5092,0.00021478,-0.010726,8.3052e-05,-989.77,-0.00051912,-5514.3,0.044634
1385,2.7414,2.1818,0,0.00051159,5112.4,0.0002137,-0.0062647,8.7213e-05,-950.37,-0.00052109,-5520.9,0.044425
1386,2.7414,2,0,0.00051419,5138.4,0.00021237,0.00023744,9.2384e-05,-901.53,-0.00052356,-5529.5,0.044158
1387,2.7414,1.8182,0,0.00051739,5170.3,0.00021081,0.0094251,9.8533e-05,-843.61,-0.00052655,-5540.2,0.043832
1388,2.7414,1.6364,0,0.00052119,5208.3,0.00020905,0.022082,0.00010561,-777.13,-0.00053004,-5553.2,0.043441
1389,2.7414,1.4545,0,0.00052561,5252.5,0.0002071,0.039281,0.00011356,-702.77,-0.00053402,-5568.4,0.042983
1390,2.7414,1.2727,0,0.00053064,5302.8,0.00020499,0.062064,0.00012228,-621.4,-0.00053847,-5586.1,0.042452
1391,2.7414,1.0909,0,0.00053627,5359,0.00020277,0.093499,0.00013168,-534.08,-0.00054335,-5606,0.041842
1392,2.7414,0.90909,0,0.00054244,5420.7,0.00020047,0.13257,0.00014162,-442.05,-0.00054861,-5628.1,0.041147
1393,2.7414,0.72727,0,0.0005491,5487.2,0.00019812,0.20504,0.00015196,-346.66,-0.00055417,-5652.2,0.040362
1394,2.7414,0.54545,0,0.00055616,5557.8,0.00019576,0.25529,0.00016255,-249.3,-0.00055998,-5678.1,0.03948
1395,2.7414,0.36364,0,0.00056359,5632,0.00019347,0.74827,0.00017329,-150.91,-0.00056599,-5705.6,0.038493
1396,2.7414,0.18182,0,0.00057188,5714.8,0.00019133,1.781,0.00018446,-49.882,-0.00057268,-5738.7,0.037395
1397,2.5586,5.8182,0,0.00057839,5780,0.00019346,2.2264,0.00018668,-48.737,-0.00057917,-5803,0.032226
1398,2.5586,5.6364,0,0.00056938,5689.8,0.00019578,0.83147,0.00017452,-158.9,-0.0005719,-5767.2,0.033284
1399,2.5586,5.4545,0,0.0005614,5610.1,0.00019832,0.28507,0.00016284,-266.25,-0.00056545,-5738.4,0.034231
1400,2.5586,5.2727,0,0.00055386,5534.8,0.00020094,0.22627,0.00015132,-372.64,-0.00055926,-5711.6,0.035073
1401,2.5586,5.0909,0,0.00054681,5464.3,0.00020357,0.14566,0.00014007,-476.92,-0.00055336,-5687.1,0.03582
1402,2.5586,4.9091,0,0.00054033,5399.6,0.00020615,0.10226,0.00012929,-577.41,-0.00054783,-5665,0.036477
1403,2.5586,4.7273,0,0.00053449,5341.2,0.00020865,0.0679,0.00011913,-672.52,-0.00054274,-5645.6,0.037052
1404,2.5586,4.5455,0,0.00052933,5289.6,0.00021101,0.043501,0.00010974,-760.88,-0.00053815,-5628.8,0.037551
1405,2.5586,4.3636,0,0.00052485,5244.9,0.0002132,0.025561,0.00010122,-841.3,-0.00053408,-5614.7,0.03798
1406,2.5586,4.1818,0,0.00052106,5207,0.00021518,0.012782,9.3677e-05,-912.9,-0.00053055,-5603.1,0.038344
1407,2.5586,4,0,0.00051793,5175.7,0.00021692,0.003846,8.7157e-05,-975,-0.00052757,-5593.8,0.038647
1408,2.5586,3.8182,0,0.0005154,5150.5,0.00021841,-0.0022148,8.1701e-05,-1027.1,-0.00052513,-5586.6,0.038894
1409,2.5586,3.6364,0,0.00051345,5131,0.00021961,-0.0061872,7.7329e-05,-1069.1,-0.00052321,-5581.3,0.039088
1410,2.5586,3.4545,0,0.00051203,5116.8,0.00022053,-0.0086682,7.405e-05,-1100.6,-0.00052179,-5577.5,0.039231
1411,2.5586,3.2727,0,0.0005111,5107.5,0.00022114,-0.010092,7.1865e-05,-1121.6,-0.00052086,-5575.1,0.039325
1412,2.5586,3.0909,0,0.00051065,5102.9,0.00022145,-0.010735,7.0773e-05,-1132.2,-0.00052039,-5573.9,0.039372
1413,2.5586,2.9091,0,0.00051065,5102.9,0.00022145,-0.010735,7.0773e-05,-1132.2,-0.00052039,-5573.9,0.039372
1414,2.5586,2.7273,0,0.0005111,5107.5,0.00022114,-0.010092,7.1865e-05,-1121.6,-0.00052086,-5575.1,0.039325
1415,2.5586,2.5455,0,0.00051203,5116.8,0.00022053,-0.0086681,7.405e-05,-1100.6,-0.00052179,-5577.5,0.039231
1416,2.5586,2.3636,0,0.00051345,5131,0.00021961,-0.006187,7.7329e-05,-1069.1,-0.00052321,-5581.3,0.039088
1417,2.5586,2.1818,0,0.0005154,5150.5,0.00021841,-0.0022146,8.1701e-05,-1027.1,-0.00052513,-5586.6,0.038894
1418,2.5586,2,0,0.00051793,5175.7,0.00021692,0.0038464,8.7157e-05,-975,-0.00052757,-5593.8,0.038647
1419,2.5586,1.8182,0,0.00052106,5207,0.00021518,0.012782,9.3677e-05,-912.9,-0.00053055,-5603.1,0.038344
1420,2.5586,1.6364,0,0.00052485,5244.9,0.0002132,0.025562,0.00010122,-841.3,-0.00053408,-5614.7,0.03798
1421,2.5586,1.4545,0,0.00052933,5289.6,0.00021101,0.043501,0.00010974,-760.88,-0.00053815,-5628.8,0.037551
1422,2.5586,1.2727,0,0.00053449,5341.2,0.00020865,0.0679,0.00011913,-672.52,-0.00054274,-5645.6,0.037052
1423,2.5586,1.0909,0,0.00054033,5399.6,0.00020615,0.10226,0.00012929,-577.41,-0.00054783,-5665,0.036477
1424,2.5586,0.90909,0,0.00054681,5464.3,0.00020357,0.14566,0.00014007,-476.92,-0.00055336,-5687.1,0.03582
1425,2.5586,0.72727,0,0.00055386,5534.8,0.00020094,0.22628,0.00015132,-372.64,-0.00055926,-5711.6,0.035073
1426,2.5586,0.54545,0,0.0005614,5610.1,0.00019832,0.28507,0.00016284,-266.25,-0.00056545,-5738.4,0.034231
1427,2.5586,0.36364,0,0.00056938,5689.8,0.00019578,0.83147,0.00017452,-158.9,-0.0005719,-5767.2,0.033284
1428,2.5586,0.18182,0,0.00057839,5780,0.00019346,2.2264,0.00018668,-48.737,-0.00057917,-5803,0.032226
1429,2.3759,5.8182,0,0.00058472,5843.2,0.00019551,2.8371,0.0001889,-46.792,-0.00058545,-5865,0.02744
1430,2.3759,5.6364,0,0.00057489,5745,0.00019801,0.92664,0.00017564,-167.11,-0.00057753,-5826.2,0.028453
1431,2.3759,5.4545,0,0.00056633,5659.4,0.00020083,0.31902,0.00016292,-284.51,-0.00057063,-5796.1,0.029356
1432,2.3759,5.2727,0,0.00055831,5579.2,0.00020377,0.24996,0.00015036,-401.03,-0.00056404,-5768.8,0.030154
1433,2.3759,5.0909,0,0.00055087,5504.9,0.00020672,0.16004,0.00013813,-515.22,-0.00055782,-5744.3,0.030858
1434,2.3759,4.9091,0,0.00054411,5437.4,0.00020964,0.11177,0.00012643,-625.04,-0.00055204,-5722.8,0.031475
1435,2.3759,4.7273,0,0.00053811,5377.4,0.00021245,0.074329,0.00011546,-728.63,-0.00054679,-5704.5,0.032012
1436,2.3759,4.5455,0,0.0005329,5325.3,0.00021511,0.048407,0.00010538,-824.4,-0.00054211,-5689.4,0.032476
1437,2.3759,4.3636,0,0.00052846,5281,0.00021757,0.029964,9.6302e-05,-911.13,-0.00053803,-5677.3,0.032873
1438,2.3759,4.1818,0,0.00052478,5244.2,0.00021979,0.017352,8.8309e-05,-987.89,-0.00053455,-5667.8,0.033208
1439,2.3759,4,0,0.00052179,5214.3,0.00022174,0.008952,8.145e-05,-1054.1,-0.00053166,-5660.8,0.033487
1440,2.3759,3.8182,0,0.00051942,5190.7,0.0002234,0.0035738,7.5746e-05,-1109.4,-0.00052932,-5655.7,0.033714
1441,2.3759,3.6364,0,0.00051763,5172.7,0.00022475,0.00027634,7.1201e-05,-1153.7,-0.00052751,-5652.2,0.033891
1442,2.3759,3.4545,0,0.00051634,5159.9,0.00022577,-0.0016363,6.7808e-05,-1186.9,-0.00052619,-5649.9,0.034021
1443,2.3759,3.2727,0,0.00051551,5151.6,0.00022645,-0.0026558,6.5554e-05,-1208.9,-0.00052532,-5648.5,0.034107
1444,2.3759,3.0909,0,0.00051511,5147.5,0.0002268,-0.0030912,6.4431e-05,-1220,-0.0005249,-5647.9,0.03415
1445,2.3759,2.9091,0,0.00051511,5147.5,0.0002268,-0.0030912,6.4431e-05,-1220,-0.0005249,-5647.9,0.03415
1446,2.3759,2.7273,0,0.00051551,5151.6,0.00022645,-0.0026558,6.5554e-05,-1208.9,-0.00052532,-5648.5,0.034107
1447,2.3759,2.5455,0,0.00051634,5159.9,0.00022577,-0.0016362,6.7808e-05,-1186.9,-0.00052619,-5649.9,0.034021
1448,2.3759,2.3636,0,0.00051763,5172.7,0.00022475,0.00027654,7.1201e-05,-1153.7,-0.00052751,-5652.2,0.033891
1449,2.3759,2.1818,0,0.00051942,5190.7,0.0002234,0.0035741,7.5746e-05,-1109.4,-0.00052932,-5655.7,0.033714
1450,2.3759,2,0,0.00052179,5214.3,0.00022174,0.0089521,8.145e-05,-1054.1,-0.00053166,-5660.8,0.033487
1451,2.3759,1.8182,0,0.00052478,5244.2,0.00021979,0.017352,8.8309e-05,-987.89,-0.00053455,-5667.8,0.033208
1452,2.3759,1.6364,0,0.00052846,5281,0.00021757,0.029964,9.6302e-05,-911.13,-0.00053803,-5677.3,0.032873
1453,2.3759,1.4545,0,0.0005329,5325.3,0.00021511,0.048408,0.00010538,-824.4,-0.00054211,-5689.4,0.032476
1454,2.3759,1.2727,0,0.00053811,5377.4,0.00021245,0.074329,0.00011546,-728.63,-0.00054679,-5704.5,0.032012
1455,2.3759,1.0909,0,0.00054411,5437.4,0.00020964,0.11177,0.00012643,-625.04,-0.00055204,-5722.8,0.031475
1456,2.3759,0.90909,0,0.00055087,5504.9,0.00020672,0.16004,0.00013813,-515.22,-0.00055782,-5744.3,0.030858
1457,2.3759,0.72727,0,0.00055831,5579.2,0.00020377,0.24996,0.00015036,-401.03,-0.00056404,-5768.8,0.030154
1458,2.3759,0.54545,0,0.00056633,5659.4,0.00020083,0.31902,0.00016292,-284.51,-0.00057063,-5796.1,0.029356
1459,2.3759,0.36364,0,0.00057489,5745,0.00019801,0.92664,0.00017564,-167.11,-0.00057753,-5826.2,0.028453
1460,2.3759,0.18182,0,0.00058472,5843.2,0.00019551,2.8371,0.0001889,-46.792,-0.00058545,-5865,0.02744
1461,2.1931,5.8182,0,0.00059074,5903.3,0.00019743,3.7023,0.00019108,-43.965,-0.00059141,-5923.3,0.02304
1462,2.1931,5.6364,0,0.00058002,5796.1,0.00020012,1.036,0.00017661,-175.61,-0.00058278,-5881.4,0.024004
1463,2.1931,5.4545,0,0.00057083,5704.4,0.00020328,0.35752,0.00016272,-304.4,-0.00057539,-5850.3,0.024857
1464,2.1931,5.2727,0,0.00056231,5619.2,0.00020659,0.276,0.000149,-432.4,-0.00056841,-5822.8,0.025608
1465,2.1931,5.0909,0,0.00055451,5541.2,0.00020993,0.17535,0.00013568,-557.72,-0.00056188,-5798.9,0.026265
1466,2.1931,4.9091,0,0.00054754,5471.6,0.00021323,0.12165,0.000123,-677.85,-0.0005559,-5778.9,0.026838
1467,2.1931,4.7273,0,0.00054147,5410.9,0.00021642,0.081006,0.00011118,-790.59,-0.00055056,-5762.7,0.027334
1468,2.1931,4.5455,0,0.00053631,5359.4,0.00021942,0.053757,0.00010041,-894.18,-0.00054589,-5750.2,0.02776
1469,2.1931,4.3636,0,0.00053203,5316.7,0.00022219,0.035145,9.0787e-05,-987.31,-0.0005419,-5741.1,0.028123
1470,2.1931,4.1818,0,0.00052857,5282.1,0.00022469,0.02306,8.2392e-05,-1069.2,-0.00053858,-5734.9,0.028428
1471,2.1931,4,0,0.00052585,5254.8,0.00022688,0.015507,7.5249e-05,-1139.2,-0.00053587,-5731,0.028681
1472,2.1931,3.8182,0,0.00052375,5233.9,0.00022873,0.011049,6.9357e-05,-1197.4,-0.00053374,-5728.9,0.028886
1473,2.1931,3.6364,0,0.0005222,5218.4,0.00023022,0.0085868,6.4694e-05,-1243.7,-0.00053212,-5727.9,0.029045
1474,2.1931,3.4545,0,0.00052112,5207.6,0.00023136,0.0073412,6.1231e-05,-1278.2,-0.00053095,-5727.7,0.029163
1475,2.1931,3.2727,0,0.00052043,5200.7,0.00023211,0.0067789,5.8942e-05,-1301.1,-0.0005302,-5727.8,0.02924
1476,2.1931,3.0909,0,0.0005201,5197.4,0.0002325,0.0065747,5.7803e-05,-1312.6,-0.00052984,-5727.9,0.029278
1477,2.1931,2.9091,0,0.0005201,5197.4,0.0002325,0.0065747,5.7803e-05,-1312.6,-0.00052984,-5727.9,0.029278
1478,2.1931,2.7273,0,0.00052043,5200.7,0.00023211,0.006779,5.8942e-05,-1301.1,-0.0005302,-5727.8,0.02924
1479,2.1931,2.5455,0,0.00052112,5207.6,0.00023136,0.0073413,6.1231e-05,-1278.2,-0.00053095,-5727.7,0.029163
1480,2.1931,2.3636,0,0.0005222,5218.4,0.00023022,0.008587,6.4694e-05,-1243.7,-0.00053212,-5727.9,0.029045
1481,2.1931,2.1818,0,0.00052375,5233.9,0.00022873,0.011049,6.9357e-05,-1197.4,-0.00053374,-5728.9,0.028886
1482,2.1931,2,0,0.00052585,5254.8,0.00022688,0.015508,7.5249e-05,-1139.2,-0.00053587,-5731,0.028681
1483,2.1931,1.8182,0,0.00052857,5282.1,0.00022469,0.02306,8.2392e-05,-1069.2,-0.00053858,-5734.9,0.028428
1484,2.1931,1.6364,0,0.00053203,5316.7,0.00022219,0.035145,9.0787e-05,-987.31,-0.0005419,-5741.1,0.028123
1485,2.1931,1.4545,0,0.00053631,5359.4,0.00021942,0.053757,0.00010041,-894.18,-0.00054589,-5750.2,0.02776
1486,2.1931,1.2727,0,0.00054147,5410.9,0.00021642,0.081006,0.00011118,-790.59,-0.00055056,-5762.7,0.027334
1487,2.1931,1.0909,0,0.00054754,5471.6,0.00021323,0.12166,0.000123,-677.85,-0.0005559,-5778.9,0.026838
1488,2.1931,0.90909,0,0.00055451,5541.2,0.00020993,0.17535,0.00013568,-557.72,-0.00056188,-5798.9,0.026265
1489,2.1931,0.72727,0,0.00056231,5619.2,0.00020659,0.276,0.000149,-432.4,-0.00056841,-5822.8,0.025608
1490,2.1931,0.54545,0,0.00057083,5704.4,0.00020328,0.35752,0.00016272,-304.4,-0.00057539,-5850.3,0.024857
1491,2.1931,0.36364,0,0.00058002,5796.1,0.00020012,1.036,0.00017661,-175.61,-0.00058278,-5881.4,0.024004
1492,2.1931,0.18182,0,0.00059074,5903.3,0.00019743,3.7023,0.00019108,-43.965,-0.00059141,-5923.3,0.02304
1493,2.0103,5.8182,0,0.00059631,5959,0.00019919,4.9779,0.00019317,-40.214,-0.0005969,-5976.5,0.019029
1494,2.0103,5.6364,0,0.00058458,5841.7,0.00020208,1.1636,0.00017736,-184.55,-0.00058748,-5931.2,0.019938
1495,2.0103,5.4545,0,0.00057473,5743.4,0.00020563,0.40295,0.00016214,-326.43,-0.00057958,-5899.4,0.020737
1496,2.0103,5.2727,0,0.00056571,5653.2,0.00020939,0.30648,0.00014712,-467.58,-0.0005722,-5872.3,0.021436
1497,2.0103,5.0909,0,0.00055759,5572.1,0.00021319,0.19357,0.00013259,-605.46,-0.00056541,-5849.9,0.022043
1498,2.0103,4.9091,0,0.0005505,5501.2,0.00021695,0.13397,0.00011885,-736.98,-0.00055931,-5832.4,0.022568
1499,2.0103,4.7273,0,0.00054449,5441.1,0.00022057,0.090203,0.00010617,-859.54,-0.00055399,-5819.7,0.02302
1500,2.0103,4.5455,0,0.00053954,5391.7,0.00022398,0.062032,9.4716e-05,-971.18,-0.00054946,-5811.2,0.023406
1501,2.0103,4.3636,0,0.00053559,5352.2,0.00022711,0.043741,8.4609e-05,-1070.6,-0.0005457,-5806.6,0.023732
1502,2.0103,4.1818,0,0.00053252,5321.5,0.00022991,0.03262,7.5889e-05,-1157.2,-0.00054268,-5804.9,0.024006
1503,2.0103,4,0,0.0005302,5298.4,0.00023236,0.026239,6.8549e-05,-1230.8,-0.0005403,-5805.4,0.024232
1504,2.0103,3.8182,0,0.00052851,5281.4,0.00023442,0.022901,6.2553e-05,-1291.3,-0.00053849,-5807.3,0.024413
1505,2.0103,3.6364,0,0.00052731,5269.4,0.00023608,0.021379,5.7848e-05,-1339.1,-0.00053716,-5809.8,0.024555
1506,2.0103,3.4545,0,0.0005265,5261.4,0.00023733,0.02084,5.4378e-05,-1374.6,-0.00053623,-5812.2,0.024659
1507,2.0103,3.2727,0,0.00052601,5256.5,0.00023817,0.020741,5.2095e-05,-1398.1,-0.00053565,-5814.1,0.024727
1508,2.0103,3.0909,0,0.00052578,5254.1,0.00023859,0.020766,5.0963e-05,-1409.7,-0.00053537,-5815.2,0.024761
1509,2.0103,2.9091,0,0.00052578,5254.1,0.00023859,0.020766,5.0963e-05,-1409.7,-0.00053537,-5815.2,0.024761
1510,2.0103,2.7273,0,0.00052601,5256.5,0.00023817,0.020741,5.2095e-05,-1398.1,-0.00053565,-5814.1,0.024727
1511,2.0103,2.5455,0,0.0005265,5261.4,0.00023733,0.02084,5.4378e-05,-1374.6,-0.00053623,-5812.2,0.024659
1512,2.0103,2.3636,0,0.00052731,5269.4,0.00023608,0.021379,5.7848e-05,-1339.1,-0.00053716,-5809.8,0.024555
1513,2.0103,2.1818,0,0.00052851,5281.4,0.00023442,0.022901,6.2553e-05,-1291.3,-0.00053849,-5807.3,0.024413
1514,2.0103,2,0,0.0005302,5298.4,0.00023236,0.026239,6.8549e-05,-1230.8,-0.0005403,-5805.4,0.024232
1515,2.0103,1.8182,0,0.00053252,5321.5,0.00022991,0.032621,7.5889e-05,-1157.2,-0.00054268,-5804.9,0.024006
1516,2.0103,1.6364,0,0.00053559,5352.2,0.00022711,0.043742,8.4609e-05,-1070.6,-0.0005457,-5806.6,0.023732
1517,2.0103,1.4545,0,0.00053954,5391.7,0.00022398,0.062032,9.4716e-05,-971.18,-0.00054946,-5811.2,0.023406
1518,2.0103,1.2727,0,0.00054449,5441.1,0.00022057,0.090203,0.00010617,-859.54,-0.00055399,-5819.7,0.02302
1519,2.0103,1.0909,0,0.0005505,5501.2,0.00021695,0.13397,0.00011885,-736.98,-0.00055931,-5832.4,0.022568
1520,2.0103,0.90909,0,0.00055759,5572.1,0.00021319,0.19357,0.00013259,-605.46,-0.00056541,-5849.9,0.022043
1521,2.0103,0.72727,0,0.00056571,5653.2,0.00020939,0.30648,0.00014712,-467.58,-0.0005722,-5872.3,0.021436
1522,2.0103,0.54545,0,0.00057473,5743.4,0.00020563,0.40295,0.00016214,-326.43,-0.00057958,-5899.4,0.020737
1523,2.0103,0.36364,0,0.00058458,5841.7,0.00020208,1.1636,0.00017736,-184.55,-0.00058748,-5931.2,0.019938
1524,2.0103,0.18182,0,0.00059631,5959,0.00019919,4.9779,0.00019317,-40.214,-0.0005969,-5976.5,0.019029
1525,1.8276,5.8182,0,0.00060121,6007.9,0.00020074,6.9426,0.00019508,-35.593,-0.00060169,-6022.2,0.015409
1526,1.8276,5.6364,0,0.00058835,5879.4,0.0002038,1.3093,0.00017778,-194.2,-0.00059139,-5973.4,0.016258
1527,1.8276,5.4545,0,0.0005778,5774,0.00020785,0.45064,0.00016103,-351.36,-0.00058297,-5941.4,0.016998
1528,1.8276,5.2727,0,0.0005683,5679.1,0.00021215,0.33519,0.00014453,-507.73,-0.00057522,-5915.7,0.017639
1529,1.8276,5.0909,0,0.00055995,5595.6,0.00021652,0.20773,0.00012867,-659.89,-0.00056824,-5896.2,0.018192
1530,1.8276,4.9091,0,0.00055288,5525,0.00022083,0.14148,0.00011381,-803.96,-0.00056214,-5882.8,0.018666
1531,1.8276,4.7273,0,0.00054712,5467.4,0.00022496,0.094638,0.00010026,-936.89,-0.00055699,-5875.2,0.019071
1532,1.8276,4.5455,0,0.0005426,5422.2,0.00022883,0.065946,8.8197e-05,-1056.6,-0.00055279,-5872.7,0.019414
1533,1.8276,4.3636,0,0.00053919,5388.2,0.00023236,0.048408,7.7703e-05,-1162,-0.00054947,-5874.3,0.019703
1534,1.8276,4.1818,0,0.00053671,5363.4,0.00023551,0.038555,6.8776e-05,-1252.7,-0.00054693,-5878.9,0.019944
1535,1.8276,4,0,0.00053498,5346.2,0.00023824,0.033479,6.1362e-05,-1328.9,-0.00054505,-5885.2,0.020141
1536,1.8276,3.8182,0,0.00053383,5334.6,0.00024052,0.031259,5.5378e-05,-1391.1,-0.00054371,-5892.3,0.0203
1537,1.8276,3.6364,0,0.0005331,5327.3,0.00024236,0.030589,5.0729e-05,-1439.8,-0.00054278,-5899.2,0.020423
1538,1.8276,3.4545,0,0.00053266,5322.9,0.00024374,0.030639,4.7329e-05,-1475.7,-0.00054218,-5905,0.020513
1539,1.8276,3.2727,0,0.00053242,5320.5,0.00024465,0.030904,4.5106e-05,-1499.3,-0.00054182,-5909.3,0.020572
1540,1.8276,3.0909,0,0.00053231,5319.4,0.00024511,0.031098,4.4007e-05,-1511,-0.00054166,-5911.5,0.020601
1541,1.8276,2.9091,0,0.00053231,5319.4,0.00024511,0.031098,4.4007e-05,-1511,-0.00054166,-5911.5,0.020601
1542,1.8276,2.7273,0,0.00053242,5320.5,0.00024465,0.030904,4.5106e-05,-1499.3,-0.00054182,-5909.3,0.020572
1543,1.8276,2.5455,0,0.00053266,5322.9,0.00024374,0.030639,4.7329e-05,-1475.7,-0.00054218,-5905,0.020513
1544,1.8276,2.3636,0,0.0005331,5327.3,0.00024236,0.030589,5.0729e-05,-1439.8,-0.00054278,-5899.2,0.020423
1545,1.8276,2.1818,0,0.00053383,5334.6,0.00024052,0.031259,5.5378e-05,-1391.1,-0.00054371,-5892.3,0.0203
1546,1.8276,2,0,0.00053498,5346.2,0.00023824,0.033479,6.1362e-05,-1328.9,-0.00054505,-5885.2,0.020141
1547,1.8276,1.8182,0,0.00053671,5363.4,0.00023551,0.038555,6.8776e-05,-1252.7,-0.00054693,-5878.9,0.019944
1548,1.8276,1.6364,0,0.00053919,5388.2,0.00023236,0.048408,7.7703e-05,-1162,-0.00054947,-5874.3,0.019703
1549,1.8276,1.4545,0,0.0005426,5422.2,0.00022883,0.065946,8.8197e-05,-1056.6,-0.00055279,-5872.7,0.019414
1550,1.8276,1.2727,0,0.00054712,5467.4,0.00022496,0.094639,0.00010026,-936.89,-0.00055699,-5875.2,0.019071
1551,1.8276,1.0909,0,0.00055288,5525,0.00022083,0.14148,0.00011381,-803.96,-0.00056214,-5882.8,0.018666
1552,1.8276,0.90909,0,0.00055995,5595.6,0.00021652,0.20773,0.00012867,-659.89,-0.00056824,-5896.2,0.018192
1553,1.8276,0.72727,0,0.0005683,5679.1,0.00021215,0.33519,0.00014453,-507.73,-0.00057522,-5915.7,0.017639
1554,1.8276,0.54545,0,0.0005778,5774,0.00020785,0.45064,0.00016103,-351.36,-0.00058297,-5941.4,0.016998
1555,1.8276,0.36364,0,0.00058835,5879.4,0.0002038,1.3093,0.00017778,-194.2,-0.00059139,-5973.4,0.016258
1556,1.8276,0.18182,0,0.00060121,6007.9,0.00020074,6.9426,0.00019508,-35.593,-0.00060169,-6022.2,0.015409
1557,1.6448,5.8182,0,0.00060514,6047.3,0.00020204,10.113,0.00019666,-30.342,-0.00060548,-6057.3,0.012182
1558,1.6448,5.6364,0,0.00059101,5906,0.00020522,1.4958,0.00017774,-204.98,-0.0005942,-6005,0.012965
1559,1.6448,5.4545,0,0.00057973,5793.3,0.00020988,0.52604,0.0001592,-380.29,-0.00058525,-5973.7,0.013641
1560,1.6448,5.2727,0,0.0005698,5694.1,0.00021487,0.38998,0.00014101,-554.55,-0.0005772,-5950.8,0.01422
1561,1.6448,5.0909,0,0.00056137,5609.8,0.00021993,0.24748,0.00012367,-723.01,-0.00057015,-5936.1,0.014714
1562,1.6448,4.9091,0,0.00055455,5541.6,0.0002249,0.17547,0.00010765,-880.79,-0.00056425,-5929.2,0.015134
1563,1.6448,4.7273,0,0.00054931,5489.3,0.00022964,0.12688,9.3286e-05,-1024.4,-0.00055951,-5929.3,0.01549
1564,1.6448,4.5455,0,0.00054551,5451.4,0.00023404,0.098989,8.073e-05,-1151.8,-0.00055589,-5935.2,0.015789
1565,1.6448,4.3636,0,0.00054292,5425.5,0.00023803,0.083183,7.0007e-05,-1262.3,-0.00055326,-5945.3,0.016038
1566,1.6448,4.1818,0,0.00054129,5409.2,0.00024154,0.075172,6.1048e-05,-1356.1,-0.00055145,-5958.1,0.016245
1567,1.6448,4,0,0.00054036,5399.9,0.00024457,0.071633,5.3727e-05,-1433.9,-0.00055027,-5972.1,0.016414
1568,1.6448,3.8182,0,0.00053992,5395.5,0.00024709,0.070531,4.7902e-05,-1496.6,-0.00054957,-5985.7,0.016548
1569,1.6448,3.6364,0,0.00053978,5394,0.00024911,0.070592,4.3431e-05,-1545.3,-0.00054919,-5998,0.016653
1570,1.6448,3.4545,0,0.00053979,5394.2,0.00025061,0.071076,4.0192e-05,-1581,-0.000549,-6008,0.016729
1571,1.6448,3.2727,0,0.00053985,5394.8,0.00025162,0.071571,3.8088e-05,-1604.3,-0.00054893,-6014.9,0.016778
1572,1.6448,3.0909,0,0.0005399,5395.3,0.00025212,0.071862,3.7053e-05,-1615.8,-0.00054891,-6018.5,0.016803
1573,1.6448,2.9091,0,0.0005399,5395.3,0.00025212,0.071862,3.7053e-05,-1615.8,-0.00054891,-6018.5,0.016803
1574,1.6448,2.7273,0,0.00053985,5394.8,0.00025162,0.071571,3.8088e-05,-1604.3,-0.00054893,-6014.9,0.016778
1575,1.6448,2.5455,0,0.00053979,5394.2,0.00025061,0.071076,4.0192e-05,-1581,-0.000549,-6008,0.016729
1576,1.6448,2.3636,0,0.00053978,5394,0.00024911,0.070592,4.3431e-05,-1545.3,-0.00054919,-5998,0.016653
1577,1.6448,2.1818,0,0.00053992,5395.5,0.00024709,0.070531,4.7902e-05,-1496.6,-0.00054957,-5985.7,0.016548
1578,1.6448,2,0,0.00054036,5399.9,0.00024457,0.071633,5.3727e-05,-1433.9,-0.00055027,-5972.1,0.016414
1579,1.6448,1.8182,0,0.00054129,5409.2,0.00024154,0.075173,6.1048e-05,-1356.1,-0.00055145,-5958.1,0.016245
1580,1.6448,1.6364,0,0.00054292,5425.5,0.00023803,0.083184,7.0007e-05,-1262.3,-0.00055326,-5945.3,0.016038
1581,1.6448,1.4545,0,0.00054551,5451.4,0.00023404,0.098989,8.073e-05,-1151.8,-0.00055589,-5935.2,0.015789
1582,1.6448,1.2727,0,0.00054931,5489.3,0.00022964,0.12688,9.3286e-05,-1024.4,-0.00055951,-5929.3,0.01549
1583,1.6448,1.0909,0,0.00055455,5541.6,0.0002249,0.17547,0.00010765,-880.79,-0.00056425,-5929.2,0.015134
1584,1.6448,0.90909,0,0.00056137,5609.8,0.00021993,0.24748,0.00012367,-723.01,-0.00057015,-5936.1,0.014714
1585,1.6448,0.72727,0,0.0005698,5694.1,0.00021487,0.38998,0.00014101,-554.55,-0.0005772,-5950.8,0.01422
1586,1.6448,0.54545,0,0.00057973,5793.3,0.00020988,0.52604,0.0001592,-380.29,-0.00058525,-5973.7,0.013641
1587,1.6448,0.36364,0,0.00059101,5906,0.00020522,1.4958,0.00017774,-204.98,-0.0005942,-6005,0.012965
1588,1.6448,0.18182,0,0.00060514,6047.3,0.00020204,10.113,0.00019666,-30.342,-0.00060548,-6057.3,0.012182
1589,1.4621,5.8182,0,0.00060768,6072.7,0.00020305,15.316,0.00019768,-25.028,-0.00060784,-6077.4,0.0093491
1590,1.4621,5.6364,0,0.0005921,5916.9,0.00020621,1.6608,0.00017702,-217.66,-0.00059546,-6021.8,0.01006
1591,1.4621,5.4545,0,0.00058006,5796.6,0.00021165,0.53825,0.00015634,-415.04,-0.00058599,-5992.7,0.010665
1592,1.4621,5.2727,0,0.00056984,5694.4,0.00021751,0.36629,0.00013619,-610.6,-0.00057775,-5974.9,0.011178
1593,1.4621,5.0909,0,0.00056157,5611.9,0.00022344,0.20023,0.00011725,-797.66,-0.00057087,-5967.9,0.01161
1594,1.4621,4.9091,0,0.00055536,5549.8,0.00022922,0.11819,0.00010009,-970.12,-0.00056546,-5970.8,0.011973
1595,1.4621,4.7273,0,0.00055105,5506.7,0.00023467,0.065492,8.5043e-05,-1124.2,-0.00056149,-5982,0.012277
1596,1.4621,4.5455,0,0.00054837,5479.9,0.00023968,0.036674,7.2203e-05,-1258.3,-0.00055882,-5999.6,0.01253
1597,1.4621,4.3636,0,0.00054695,5465.8,0.00024416,0.020977,6.1493e-05,-1372.5,-0.00055721,-6021.2,0.01274
1598,1.4621,4.1818,0,0.00054646,5460.8,0.00024808,0.013158,5.2738e-05,-1467.7,-0.00055641,-6044.6,0.012912
1599,1.4621,4,0,0.00054656,5461.8,0.00025142,0.0095464,4.5724e-05,-1545.5,-0.00055618,-6068,0.013052
1600,1.4621,3.8182,0,0.00054699,5466.1,0.00025418,0.008099,4.0235e-05,-1607.5,-0.0005563,-6089.6,0.013163
1601,1.4621,3.6364,0,0.00054756,5471.8,0.00025637,0.0076613,3.6081e-05,-1655.2,-0.00055659,-6108.3,0.013249
1602,1.4621,3.4545,0,0.00054811,5477.3,0.000258,0.0076345,3.3104e-05,-1689.8,-0.00055693,-6123.1,0.013311
1603,1.4621,3.2727,0,0.00054853,5481.5,0.00025908,0.0077217,3.1185e-05,-1712.3,-0.0005572,-6133.2,0.013351
1604,1.4621,3.0909,0,0.00054875,5483.7,0.00025962,0.0077903,3.0245e-05,-1723.4,-0.00055735,-6138.4,0.013372
1605,1.4621,2.9091,0,0.00054875,5483.7,0.00025962,0.0077903,3.0245e-05,-1723.4,-0.00055735,-6138.4,0.013372
1606,1.4621,2.7273,0,0.00054853,5481.5,0.00025908,0.0077217,3.1185e-05,-1712.3,-0.0005572,-6133.2,0.013351
1607,1.4621,2.5455,0,0.00054811,5477.3,0.000258,0.0076344,3.3104e-05,-1689.8,-0.00055693,-6123.1,0.013311
1608,1.4621,2.3636,0,0.00054756,5471.8,0.00025637,0.0076613,3.6081e-05,-1655.2,-0.00055659,-6108.3,0.013249
1609,1.4621,2.1818,0,0.00054699,5466.1,0.00025418,0.0080992,4.0235e-05,-1607.5,-0.0005563,-6089.6,0.013163
1610,1.4621,2,0,0.00054656,5461.8,0.00025142,0.0095465,4.5724e-05,-1545.5,-0.00055618,-6068,0.013052
1611,1.4621,1.8182,0,0.00054646,5460.8,0.00024808,0.013159,5.2738e-05,-1467.7,-0.00055641,-6044.6,0.012912
1612,1.4621,1.6364,0,0.00054695,5465.8,0.00024416,0.020977,6.1493e-05,-1372.5,-0.00055721,-6021.2,0.01274
1613,1.4621,1.4545,0,0.00054837,5479.9,0.00023968,0.036674,7.2203e-05,-1258.3,-0.00055882,-5999.6,0.01253
1614,1.4621,1.2727,0,0.00055105,5506.7,0.00023467,0.065492,8.5043e-05,-1124.2,-0.00056149,-5982,0.012277
1615,1.4621,1.0909,0,0.00055536,5549.8,0.00022922,0.11819,0.00010009,-970.12,-0.00056546,-5970.8,0.011973
1616,1.4621,0.90909,0,0.00056157,5611.9,0.00022344,0.20023,0.00011725,-797.66,-0.00057087,-5967.9,0.01161
1617,1.4621,0.72727,0,0.00056984,5694.4,0.00021751,0.36629,0.00013619,-610.6,-0.00057775,-5974.9,0.011178
1618,1.4621,0.54545,0,0.00058006,5796.6,0.00021165,0.53825,0.00015634,-415.04,-0.00058599,-5992.7,0.010665
1619,1.4621,0.36364,0,0.0005921,5916.9,0.00020621,1.6608,0.00017702,-217.66,-0.00059546,-6021.8,0.01006
1620,1.4621,0.18182,0,0.00060768,6072.7,0.00020305,15.316,0.00019768,-25.028,-0.00060784,-6077.4,0.0093491
1621,1.2793,5.8182,0,0.0006082,6077.8,0.0002037,23.778,0.00019782,-20.345,-0.00060813,-6075.9,0.0069087
1622,1.2793,5.6364,0,0.00059096,5905.5,0.00020664,2.0923,0.00017529,-233.41,-0.00059454,-6017.7,0.0075405
1623,1.2793,5.4545,0,0.00057822,5778.2,0.00021313,0.86511,0.00015202,-458.3,-0.00058463,-5993.2,0.0080701
1624,1.2793,5.2727,0,0.00056795,5675.6,0.00022013,0.68946,0.0001296,-679.51,-0.00057643,-5984.3,0.0085115
1625,1.2793,5.0909,0,0.00056031,5599.2,0.00022716,0.5222,0.00010896,-887.57,-0.00057009,-5989.7,0.0088782
1626,1.2793,4.9091,0,0.00055526,5548.7,0.00023392,0.44765,9.0782e-05,-1075.1,-0.00056566,-6007.3,0.0091818
1627,1.2793,4.7273,0,0.00055245,5520.7,0.00024021,0.40391,7.5328e-05,-1238.5,-0.00056298,-6034.5,0.0094328
1628,1.2793,4.5455,0,0.0005514,5510.2,0.0002459,0.38362,6.2545e-05,-1377.3,-0.00056174,-6067.9,0.0096398
1629,1.2793,4.3636,0,0.00055158,5512,0.00025092,0.37455,5.219e-05,-1492.8,-0.00056157,-6104.3,0.0098097
1630,1.2793,4.1818,0,0.00055253,5521.5,0.00025525,0.37135,4.3947e-05,-1587.3,-0.00056212,-6141,0.0099482
1631,1.2793,4,0,0.00055389,5535.1,0.0002589,0.37069,3.7492e-05,-1663.2,-0.00056309,-6175.7,0.01006
1632,1.2793,3.8182,0,0.00055536,5549.8,0.00026189,0.37099,3.2538e-05,-1722.9,-0.00056421,-6206.6,0.010148
1633,1.2793,3.6364,0,0.00055674,5563.5,0.00026425,0.3715,2.8847e-05,-1768.3,-0.0005653,-6232.5,0.010216
1634,1.2793,3.4545,0,0.00055788,5575,0.00026599,0.37196,2.6232e-05,-1801.1,-0.00056622,-6252.6,0.010265
1635,1.2793,3.2727,0,0.00055869,5583,0.00026714,0.37226,2.4561e-05,-1822.3,-0.00056689,-6266.2,0.010297
1636,1.2793,3.0909,0,0.00055911,5587.2,0.00026771,0.37241,2.3746e-05,-1832.7,-0.00056724,-6273.1,0.010313
1637,1.2793,2.9091,0,0.00055911,5587.2,0.00026771,0.37241,2.3746e-05,-1832.7,-0.00056724,-6273.1,0.010313
1638,1.2793,2.7273,0,0.00055869,5583,0.00026714,0.37226,2.4561e-05,-1822.3,-0.00056689,-6266.2,0.010297
1639,1.2793,2.5455,0,0.00055788,5575,0.00026599,0.37196,2.6232e-05,-1801.1,-0.00056622,-6252.6,0.010265
1640,1.2793,2.3636,0,0.00055674,5563.5,0.00026425,0.3715,2.8847e-05,-1768.3,-0.0005653,-6232.5,0.010216
1641,1.2793,2.1818,0,0.00055536,5549.8,0.00026189,0.37099,3.2538e-05,-1722.9,-0.00056421,-6206.6,0.010148
1642,1.2793,2,0,0.00055389,5535.1,0.0002589,0.37069,3.7492e-05,-1663.2,-0.00056309,-6175.7,0.01006
1643,1.2793,1.8182,0,0.00055253,5521.5,0.00025525,0.37135,4.3947e-05,-1587.3,-0.00056212,-6141,0.0099482
1644,1.2793,1.6364,0,0.00055158,5512,0.00025092,0.37455,5.219e-05,-1492.8,-0.00056157,-6104.3,0.0098097
1645,1.2793,1.4545,0,0.0005514,5510.2,0.0002459,0.38362,6.2545e-05,-1377.3,-0.00056174,-6067.9,0.0096398
1646,1.2793,1.2727,0,0.00055245,5520.7,0.00024021,0.40391,7.5328e-05,-1238.5,-0.00056298,-6034.5,0.0094328
1647,1.2793,1.0909,0,0.00055526,5548.7,0.00023392,0.44765,9.0782e-05,-1075.1,-0.00056566,-6007.3,0.0091818
1648,1.2793,0.90909,0,0.00056031,5599.2,0.00022716,0.5222,0.00010896,-887.57,-0.00057009,-5989.7,0.0088782
1649,1.2793,0.72727,0,0.00056795,5675.6,0.00022013,0.68946,0.0001296,-679.51,-0.00057643,-5984.3,0.0085115
1650,1.2793,0.54545,0,0.00057822,5778.2,0.00021313,0.86511,0.00015202,-458.3,-0.00058463,-5993.2,0.0080701
1651,1.2793,0.36364,0,0.00059096,5905.5,0.00020664,2.0923,0.00017529,-233.41,-0.00059454,-6017.7,0.0075405
1652,1.2793,0.18182,0,0.0006082,6077.8,0.0002037,23.778,0.00019782,-20.345,-0.00060813,-6075.9,0.0069087
1653,1.0966,5.8182,0,0.00060568,6052.6,0.00020375,36.154,0.00019663,-17.291,-0.00060534,-6043,0.0048587
1654,1.0966,5.6364,0,0.00058654,5861.4,0.00020619,1.7007,0.00017203,-254.94,-0.00059043,-5983.8,0.0054046
1655,1.0966,5.4545,0,0.00057324,5728.4,0.00021412,0.039368,0.00014554,-515.27,-0.00058026,-5968.7,0.005853
1656,1.0966,5.2727,0,0.00056343,5630.5,0.00022263,-0.29977,0.00012051,-767.64,-0.00057256,-5975.1,0.0062193
1657,1.0966,5.0909,0,0.00055719,5568,0.00023106,-0.56733,9.8224e-05,-998.68,-0.00056743,-6000.2,0.0065179
1658,1.0966,4.9091,0,0.00055416,5537.8,0.00023902,-0.70227,7.9372e-05,-1200.2,-0.00056475,-6039.9,0.0067611
1659,1.0966,4.7273,0,0.00055364,5532.6,0.00024626,-0.78689,6.4003e-05,-1370.2,-0.0005641,-6089.5,0.0069592
1660,1.0966,4.5455,0,0.00055485,5544.7,0.00025268,-0.83748,5.1786e-05,-1510.3,-0.00056492,-6143.9,0.0071206
1661,1.0966,4.3636,0,0.00055708,5567,0.00025824,-0.87069,4.224e-05,-1623.8,-0.00056667,-6199,0.0072517
1662,1.0966,4.1818,0,0.0005598,5594.1,0.00026298,-0.8937,3.4872e-05,-1714.8,-0.00056892,-6251.4,0.0073577
1663,1.0966,4,0,0.0005626,5622.1,0.00026692,-0.9106,2.9252e-05,-1786.6,-0.0005713,-6299,0.0074426
1664,1.0966,3.8182,0,0.00056521,5648.2,0.00027011,-0.92335,2.5029e-05,-1842.4,-0.00057357,-6340,0.0075094
1665,1.0966,3.6364,0,0.00056745,5670.6,0.00027261,-0.93295,2.1935e-05,-1884.4,-0.00057554,-6373.6,0.0075604
1666,1.0966,3.4545,0,0.00056922,5688.2,0.00027445,-0.93988,1.977e-05,-1914.5,-0.00057711,-6399.2,0.0075972
1667,1.0966,3.2727,0,0.00057042,5700.3,0.00027565,-0.94441,1.8398e-05,-1933.9,-0.00057819,-6416.4,0.0076211
1668,1.0966,3.0909,0,0.00057104,5706.4,0.00027625,-0.94664,1.7733e-05,-1943.4,-0.00057874,-6425,0.0076329
1669,1.0966,2.9091,0,0.00057104,5706.4,0.00027625,-0.94664,1.7733e-05,-1943.4,-0.00057874,-6425,0.0076329
1670,1.0966,2.7273,0,0.00057042,5700.3,0.00027565,-0.94441,1.8398e-05,-1933.9,-0.00057819,-6416.4,0.0076211
1671,1.0966,2.5455,0,0.00056922,5688.2,0.00027445,-0.93988,1.977e-05,-1914.5,-0.00057711,-6399.2,0.0075972
1672,1.0966,2.3636,0,0.00056745,5670.6,0.00027261,-0.93295,2.1935e-05,-1884.4,-0.00057554,-6373.6,0.0075604
1673,1.0966,2.1818,0,0.00056521,5648.2,0.00027011,-0.92335,2.5029e-05,-1842.4,-0.00057357,-6340,0.0075094
1674,1.0966,2,0,0.0005626,5622.1,0.00026692,-0.9106,2.9252e-05,-1786.6,-0.0005713,-6299,0.0074426
1675,1.0966,1.8182,0,0.0005598,5594.1,0.00026298,-0.8937,3.4872e-05,-1714.8,-0.00056892,-6251.4,0.0073577
1676,1.0966,1.6364,0,0.00055708,5567,0.00025824,-0.87069,4.224e-05,-1623.8,-0.00056667,-6199,0.0072517
1677,1.0966,1.4545,0,0.00055485,5544.7,0.00025268,-0.83748,5.1786e-05,-1510.3,-0.00056492,-6143.9,0.0071206
1678,1.0966,1.2727,0,0.00055364,5532.6,0.00024626,-0.78689,6.4003e-05,-1370.2,-0.0005641,-6089.5,0.0069592
1679,1.0966,1.0909,0,0.00055416,5537.8,0.00023902,-0.70227,7.9372e-05,-1200.2,-0.00056475,-6039.9,0.0067611
1680,1.0966,0.90909,0,0.00055719,5568,0.00023106,-0.56733,9.8224e-05,-998.68,-0.00056743,-6000.2,0.0065179
1681,1.0966,0.72727,0,0.00056343,5630.5,0.00022263,-0.29977,0.00012051,-767.64,-0.00057256,-5975.1,0.0062193
1682,1.0966,0.54545,0,0.00057324,5728.4,0.00021412,0.039367,0.00014554,-515.27,-0.00058026,-5968.7,0.005853
1683,1.0966,0.36364,0,0.00058654,5861.4,0.00020619,1.7007,0.00017203,-254.94,-0.00059043,-5983.8,0.0054046
1684,1.0966,0.18182,0,0.00060568,6052.6,0.00020375,36.154,0.00019663,-17.291,-0.00060534,-6043,0.0048587
1685,0.91379,5.8182,0,0.00059864,5982.2,0.00020275,53.882,0.00019368,-14.235,-0.00059793,-5962.1,0.003194
1686,0.91379,5.6364,0,0.00057753,5771.4,0.00020494,4.9369,0.00016634,-285.14,-0.00058175,-5906,0.0036471
1687,0.91379,5.4545,0,0.00056424,5638.5,0.00021507,3.9644,0.00013576,-591.94,-0.00057187,-5908.8,0.0040092
1688,0.91379,5.2727,0,0.00055602,5556.4,0.00022572,4.0289,0.00010789,-881.29,-0.00056563,-5941.9,0.0042974
1689,0.91379,5.0909,0,0.00055258,5522,0.00023598,4.0292,8.4365e-05,-1135.2,-0.00056293,-5998.7,0.0045268
1690,0.91379,4.9091,0,0.0005529,5525.2,0.00024537,4.0929,6.5583e-05,-1346.8,-0.00056321,-6071.3,0.00471
1691,0.91379,4.7273,0,0.00055571,5553.3,0.00025368,4.1555,5.1104e-05,-1517.9,-0.00056558,-6151.5,0.0048568
1692,0.91379,4.5455,0,0.0005599,5595.1,0.00026086,4.2148,4.0156e-05,-1654.1,-0.0005692,-6232.6,0.0049747
1693,0.91379,4.3636,0,0.00056462,5642.3,0.00026696,4.264,3.1956e-05,-1761.5,-0.00057338,-6309.7,0.0050695
1694,0.91379,4.1818,0,0.00056933,5689.3,0.00027206,4.3033,2.5845e-05,-1845.6,-0.00057761,-6379.8,0.0051454
1695,0.91379,4,0,0.00057368,5732.8,0.00027624,4.3337,2.1314e-05,-1911.1,-0.00058157,-6441,0.0052058
1696,0.91379,3.8182,0,0.00057746,5770.6,0.0002796,4.3567,1.7984e-05,-1961.3,-0.00058506,-6492.3,0.0052531
1697,0.91379,3.6364,0,0.00058057,5801.7,0.0002822,4.3737,1.5585e-05,-1998.8,-0.00058793,-6533.4,0.005289
1698,0.91379,3.4545,0,0.00058293,5825.2,0.0002841,4.3855,1.3929e-05,-2025.6,-0.00059013,-6564.2,0.0053149
1699,0.91379,3.2727,0,0.00058451,5841.1,0.00028534,4.3931,1.2888e-05,-2042.7,-0.00059161,-6584.7,0.0053317
1700,0.91379,3.0909,0,0.00058531,5849,0.00028596,4.3967,1.2386e-05,-2051.1,-0.00059236,-6594.9,0.0053399
1701,0.91379,2.9091,0,0.00058531,5849,0.00028596,4.3967,1.2386e-05,-2051.1,-0.00059236,-6594.9,0.0053399
1702,0.91379,2.7273,0,0.00058451,5841.1,0.00028534,4.3931,1.2888e-05,-2042.7,-0.00059161,-6584.7,0.0053317
1703,0.91379,2.5455,0,0.00058293,5825.2,0.0002841,4.3855,1.3929e-05,-2025.6,-0.00059013,-6564.2,0.0053149
1704,0.91379,2.3636,0,0.00058057,5801.7,0.0002822,4.3737,1.5585e-05,-1998.8,-0.00058793,-6533.4,0.005289
1705,0.91379,2.1818,0,0.00057746,5770.6,0.0002796,4.3567,1.7984e-05,-1961.3,-0.00058506,-6492.3,0.0052531
1706,0.91379,2,0,0.00057368,5732.8,0.00027624,4.3337,2.1314e-05,-1911.1,-0.00058157,-6441,0.0052058
1707,0.91379,1.8182,0,0.00056933,5689.3,0.00027206,4.3033,2.5845e-05,-1845.6,-0.00057761,-6379.8,0.0051454
1708,0.91379,1.6364,0,0.00056462,5642.3,0.00026696,4.264,3.1956e-05,-1761.5,-0.00057338,-6309.7,0.0050695
1709,0.91379,1.4545,0,0.0005599,5595.1,0.00026086,4.2148,4.0156e-05,-1654.1,-0.0005692,-6232.6,0.0049747
1710,0.91379,1.2727,0,0.00055571,5553.3,0.00025368,4.1555,5.1104e-05,-1517.9,-0.00056558,-6151.5,0.0048568
1711,0.91379,1.0909,0,0.0005529,5525.2,0.00024537,4.0929,6.5583e-05,-1346.8,-0.00056321,-6071.3,0.00471
1712,0.91379,0.90909,0,0.00055258,5522,0.00023598,4.0292,8.4365e-05,-1135.2,-0.00056293,-5998.7,0.0045268
1713,0.91379,0.72727,0,0.00055602,5556.4,0.00022572,4.0289,0.00010789,-881.29,-0.00056563,-5941.9,0.0042974
1714,0.91379,0.54545,0,0.00056424,5638.5,0.00021507,3.9644,0.00013576,-591.94,-0.00057187,-5908.8,0.0040092
1715,0.91379,0.36364,0,0.00057753,5771.4,0.00020494,4.9369,0.00016634,-285.14,-0.00058175,-5906,0.0036471
1716,0.91379,0.18182,0,0.00059864,5982.2,0.00020275,53.882,0.00019368,-14.235,-0.00059793,-5962.1,0.003194
1717,0.73103,5.8182,0,0.00058395,5835.5,0.00019971,73.111,0.00018753,-18.417,-0.00058297,-5807.6,0.0019053
1718,0.73103,5.6364,0,0.00056045,5600.7,0.00020103,-5.742,0.00015664,-339.31,-0.00056558,-5765.7,0.002259
1719,0.73103,5.4545,0,0.00054818,5478.1,0.00021412,-10.627,0.00012091,-710.99,-0.00055709,-5805.2,0.0025311
1720,0.73103,5.2727,0,0.00054364,5432.6,0.00022757,-12.43,9.0466e-05,-1042.6,-0.0005542,-5886.4,0.0027401
1721,0.73103,5.0909,0,0.00054519,5448.1,0.00024,-13.673,6.6859e-05,-1314.6,-0.000556,-5994.5,0.0029018
1722,0.73103,4.9091,0,0.00055056,5501.8,0.00025092,-14.465,4.9513e-05,-1527.8,-0.00056095,-6114.6,0.0030278
1723,0.73103,4.7273,0,0.00055777,5573.8,0.00026026,-15.03,3.7077e-05,-1691.9,-0.00056754,-6234.8,0.0031269
1724,0.73103,4.5455,0,0.00056547,5650.8,0.0002681,-15.445,2.8219e-05,-1817.8,-0.00057465,-6347.5,0.0032054
1725,0.73103,4.3636,0,0.00057289,5724.9,0.0002746,-15.762,2.1893e-05,-1914.5,-0.00058158,-6448.8,0.0032678
1726,0.73103,4.1818,0,0.0005796,5792,0.00027994,-16.007,1.7351e-05,-1989,-0.00058791,-6536.8,0.0033174
1727,0.73103,4,0,0.00058542,5850.1,0.00028426,-16.196,1.4078e-05,-2046.3,-0.00059344,-6610.9,0.0033565
1728,0.73103,3.8182,0,0.00059026,5898.5,0.00028769,-16.341,1.1726e-05,-2089.8,-0.00059807,-6671.6,0.003387
1729,0.73103,3.6364,0,0.0005941,5936.9,0.00029032,-16.45,1.0059e-05,-2122.3,-0.00060176,-6719.2,0.00341
1730,0.73103,3.4545,0,0.00059696,5965.5,0.00029224,-16.527,8.9211e-06,-2145.2,-0.00060451,-6754.3,0.0034266
1731,0.73103,3.2727,0,0.00059885,5984.4,0.00029348,-16.577,8.2122e-06,-2160,-0.00060634,-6777.5,0.0034373
1732,0.73103,3.0909,0,0.00059979,5993.8,0.00029409,-16.602,7.8719e-06,-2167.2,-0.00060725,-6788.9,0.0034426
1733,0.73103,2.9091,0,0.00059979,5993.8,0.00029409,-16.602,7.8719e-06,-2167.2,-0.00060725,-6788.9,0.0034426
1734,0.73103,2.7273,0,0.00059885,5984.4,0.00029348,-16.577,8.2122e-06,-2160,-0.00060634,-6777.5,0.0034373
1735,0.73103,2.5455,0,0.00059696,5965.5,0.00029224,-16.527,8.9211e-06,-2145.2,-0.00060451,-6754.3,0.0034266
1736,0.73103,2.3636,0,0.0005941,5936.9,0.00029032,-16.45,1.0059e-05,-2122.3,-0.00060176,-6719.2,0.00341
1737,0.73103,2.1818,0,0.00059026,5898.5,0.00028769,-16.341,1.1726e-05,-2089.8,-0.00059807,-6671.6,0.003387
1738,0.73103,2,0,0.00058542,5850.1,0.00028426,-16.196,1.4078e-05,-2046.3,-0.00059344,-6610.9,0.0033565
1739,0.73103,1.8182,0,0.0005796,5792,0.00027994,-16.007,1.7351e-05,-1989,-0.00058791,-6536.8,0.0033174
1740,0.73103,1.6364,0,0.00057289,5724.9,0.0002746,-15.762,2.1893e-05,-1914.5,-0.00058158,-6448.8,0.0032678
1741,0.73103,1.4545,0,0.00056547,5650.8,0.0002681,-15.445,2.8219e-05,-1817.8,-0.00057465,-6347.5,0.0032054
1742,0.73103,1.2727,0,0.00055777,5573.8,0.00026026,-15.03,3.7077e-05,-1691.9,-0.00056754,-6234.8,0.0031269
1743,0.73103,1.0909,0,0.00055056,5501.8,0.00025092,-14.465,4.9513e-05,-1527.8,-0.00056095,-6114.6,0.0030278
1744,0.73103,0.90909,0,0.00054519,5448.1,0.00024,-13.673,6.6859e-05,-1314.6,-0.000556,-5994.5,0.0029018
1745,0.73103,0.72727,0,0.00054364,5432.6,0.00022757,-12.43,9.0466e-05,-1042.6,-0.0005542,-5886.4,0.0027401
1746,0.73103,0.54545,0,0.00054818,5478.1,0.00021412,-10.627,0.00012091,-710.99,-0.00055709,-5805.2,0.0025311
1747,0.73103,0.36364,0,0.00056045,5600.7,0.00020103,-5.742,0.00015664,-339.31,-0.00056558,-5765.7,0.002259
1748,0.73103,0.18182,0,0.00058395,5835.5,0.00019971,73.111,0.00018753,-18.417,-0.00058297,-5807.6,0.0019053
1749,0.54828,5.8182,0,0.00055778,5574,0.00019284,104.77,0.00017878,-0.83804,-0.00055594,-5521.3,0.00097776
1750,0.54828,5.6364,0,0.00053492,5345.5,0.00019997,40.551,0.00013938,-414.67,-0.00053982,-5518,0.0012267
1751,0.54828,5.4545,0,0.00052882,5284.6,0.00021951,49.28,9.7824e-05,-864.99,-0.00053673,-5632.8,0.0014079
1752,0.54828,5.2727,0,0.00053344,5330.7,0.00023755,53.943,6.682e-05,-1228.8,-0.00054171,-5801.1,0.0015407
1753,0.54828,5.0909,0,0.00054413,5437.6,0.00025303,57.19,4.5798e-05,-1499.9,-0.00055168,-5989.1,0.0016397
1754,0.54828,4.9091,0,0.00055696,5565.8,0.00026585,59.581,3.2013e-05,-1697.4,-0.00056361,-6172.7,0.0017148
1755,0.54828,4.7273,0,0.0005697,5693,0.00027633,61.36,2.2965e-05,-1842.3,-0.00057558,-6339.6,0.0017728
1756,0.54828,4.5455,0,0.00058131,5809.1,0.00028484,62.713,1.693e-05,-1950.2,-0.00058663,-6485.2,0.001818
1757,0.54828,4.3636,0,0.00059145,5910.4,0.00029172,63.755,1.2825e-05,-2031.7,-0.00059636,-6608.9,0.0018536
1758,0.54828,4.1818,0,0.00060003,5996.2,0.00029726,64.564,9.9814e-06,-2093.9,-0.00060465,-6712,0.0018816
1759,0.54828,4,0,0.00060712,6067.1,0.00030168,65.19,7.986e-06,-2141.5,-0.00061154,-6796.4,0.0019036
1760,0.54828,3.8182,0,0.00061283,6124,0.00030514,65.671,6.5794e-06,-2177.6,-0.0006171,-6863.7,0.0019206
1761,0.54828,3.6364,0,0.00061725,6168.2,0.00030778,66.03,5.5968e-06,-2204.4,-0.00062142,-6915.6,0.0019334
1762,0.54828,3.4545,0,0.00062048,6200.5,0.00030968,66.287,4.9331e-06,-2223.5,-0.00062459,-6953.5,0.0019426
1763,0.54828,3.2727,0,0.00062259,6221.6,0.00031092,66.452,4.5224e-06,-2235.7,-0.00062666,-6978.1,0.0019485
1764,0.54828,3.0909,0,0.00062364,6232.1,0.00031152,66.533,4.3259e-06,-2241.6,-0.00062769,-6990.3,0.0019515
1765,0.54828,2.9091,0,0.00062364,6232.1,0.00031152,66.533,4.3259e-06,-2241.6,-0.00062769,-6990.3,0.0019515
1766,0.54828,2.7273,0,0.00062259,6221.6,0.00031092,66.452,4.5224e-06,-2235.7,-0.00062666,-6978.1,0.0019485
1767,0.54828,2.5455,0,0.00062048,6200.5,0.00030968,66.287,4.9331e-06,-2223.5,-0.00062459,-6953.5,0.0019426
1768,0.54828,2.3636,0,0.00061725,6168.2,0.00030778,66.03,5.5968e-06,-2204.4,-0.00062142,-6915.6,0.0019334
1769,0.54828,2.1818,0,0.00061283,6124,0.00030514,65.671,6.5794e-06,-2177.6,-0.0006171,-6863.7,0.0019206
1770,0.54828,2,0,0.00060712,6067.1,0.00030168,65.19,7.986e-06,-2141.5,-0.00061154,-6796.4,0.0019036
1771,0.54828,1.8182,0,0.00060003,5996.2,0.00029726,64.564,9.9814e-06,-2093.9,-0.00060465,-6712,0.0018816
1772,0.54828,1.6364,0,0.00059145,5910.4,0.00029172,63.755,1.2825e-05,-2031.7,-0.00059636,-6608.9,0.0018536
1773,0.54828,1.4545,0,0.00058131,5809.1,0.00028484,62.713,1.693e-05,-1950.2,-0.00058663,-6485.2,0.001818
1774,0.54828,1.2727,0,0.0005697,5693,0.00027633,61.36,2.2965e-05,-1842.3,-0.00057558,-6339.6,0.0017728
1775,0.54828,1.0909,0,0.00055696,5565.8,0.00026585,59.581,3.2013e-05,-1697.4,-0.00056361,-6172.7,0.0017148
1776,0.54828,0.90909,0,0.00054413,5437.6,0.00025303,57.19,4.5798e-05,-1499.9,-0.00055168,-5989.1,0.0016397
1777,0.54828,0.72727,0,0.00053344,5330.7,0.00023755,53.943,6.682e-05,-1228.8,-0.00054171,-5801.1,0.0015407
1778,0.54828,0.54545,0,0.00052882,5284.6,0.00021951,49.28,9.7824e-05,-864.99,-0.00053673,-5632.8,0.0014079
1779,0.54828,0.36364,0,0.00053492,5345.5,0.00019997,40.551,0.00013938,-414.67,-0.00053982,-5518,0.0012267
1780,0.54828,0.18182,0,0.00055778,5574,0.00019284,104.77,0.00017878,-0.83804,-0.00055594,-5521.3,0.00097776
1781,0.36552,5.8182,0,0.00050336,5030.1,0.00017786,92.969,0.00015458,-81.99,-0.00050295,-5022.4,0.00038599
1782,0.36552,5.6364,0,0.00047806,4777.3,0.00017838,-137.95,0.00010843,-663.5,-0.00048952,-5156.3,0.00052924
1783,0.36552,5.4545,0,0.00048384,4835.1,0.00020212,-183.8,6.3746e-05,-1223.5,-0.00049932,-5454.2,0.00062495
1784,0.36552,5.2727,0,0.00050317,5028.2,0.000223,-206.99,3.8079e-05,-1596.4,-0.00051922,-5783.8,0.00069072
1785,0.36552,5.0909,0,0.00052479,5244.3,0.00023965,-221.94,2.3775e-05,-1843.9,-0.00054076,-6085.6,0.00073773
1786,0.36552,4.9091,0,0.00054464,5442.7,0.00025268,-232.43,1.5635e-05,-2013.5,-0.00056052,-6342.5,0.00077245
1787,0.36552,4.7273,0,0.00056164,5612.5,0.00026292,-240.1,1.0765e-05,-2134.7,-0.0005775,-6554.7,0.00079875
1788,0.36552,4.5455,0,0.00057577,5753.7,0.00027101,-245.88,7.7154e-06,-2224.2,-0.00059167,-6727.7,0.00081901
1789,0.36552,4.3636,0,0.00058735,5869.4,0.00027743,-250.31,5.7284e-06,-2291.7,-0.00060331,-6867.8,0.00083478
1790,0.36552,4.1818,0,0.00059673,5963.2,0.00028251,-253.74,4.3931e-06,-2343.4,-0.00061277,-6980.6,0.00084712
1791,0.36552,4,0,0.00060425,6038.3,0.00028652,-256.39,3.4759e-06,-2383.1,-0.00062036,-7070.3,0.00085675
1792,0.36552,3.8182,0,0.00061015,6097.3,0.00028964,-258.42,2.8394e-06,-2413.3,-0.00062632,-7140.6,0.00086417
1793,0.36552,3.6364,0,0.00061466,6142.3,0.00029199,-259.94,2.3997e-06,-2435.8,-0.00063088,-7194,0.00086975
1794,0.36552,3.4545,0,0.00061791,6174.8,0.00029368,-261.02,2.105e-06,-2451.8,-0.00063417,-7232.5,0.00087374
1795,0.36552,3.2727,0,0.00062002,6195.9,0.00029478,-261.71,1.9235e-06,-2462.1,-0.0006363,-7257.5,0.00087631
1796,0.36552,3.0909,0,0.00062106,6206.3,0.00029532,-262.05,1.837e-06,-2467.1,-0.00063735,-7269.8,0.00087757
1797,0.36552,2.9091,0,0.00062106,6206.3,0.00029532,-262.05,1.837e-06,-2467.1,-0.00063735,-7269.8,0.00087757
1798,0.36552,2.7273,0,0.00062002,6195.9,0.00029478,-261.71,1.9235e-06,-2462.1,-0.0006363,-7257.5,0.00087631
1799,0.36552,2.5455,0,0.00061791,6174.8,0.00029368,-261.02,2.105e-06,-2451.8,-0.00063417,-7232.5,0.00087374
1800,0.36552,2.3636,0,0.00061466,6142.3,0.00029199,-259.94,2.3997e-06,-2435.8,-0.00063088,-7194,0.00086975
1801,0.36552,2.1818,0,0.00061015,6097.3,0.00028964,-258.42,2.8394e-06,-2413.3,-0.00062632,-7140.6,0.00086417
1802,0.36552,2,0,0.00060425,6038.3,0.00028652,-256.39,3.4759e-06,-2383.1,-0.00062036,-7070.3,0.00085675
1803,0.36552,1.8182,0,0.00059673,5963.2,0.00028251,-253.74,4.3931e-06,-2343.4,-0.00061277,-6980.6,0.00084712
1804,0.36552,1.6364,0,0.00058735,5869.4,0.00027743,-250.31,5.7284e-06,-2291.7,-0.00060331,-6867.8,0.00083478
1805,0.36552,1.4545,0,0.00057577,5753.7,0.00027101,-245.88,7.7154e-06,-2224.2,-0.00059167,-6727.7,0.00081901
1806,0.36552,1.2727,0,0.00056164,5612.5,0.00026292,-240.1,1.0765e-05,-2134.7,-0.0005775,-6554.7,0.00079875
1807,0.36552,1.0909,0,0.00054464,5442.7,0.00025268,-232.43,1.5635e-05,-2013.5,-0.00056052,-6342.5,0.00077245
1808,0.36552,0.90909,0,0.00052479,5244.3,0.00023965,-221.94,2.3775e-05,-1843.9,-0.00054076,-6085.6,0.00073773
1809,0.36552,0.72727,0,0.00050317,5028.2,0.000223,-206.99,3.8079e-05,-1596.4,-0.00051922,-5783.8,0.00069072
1810,0.36552,0.54545,0,0.00048384,4835.1,0.00020212,-183.8,6.3746e-05,-1223.5,-0.00049932,-5454.2,0.00062495
1811,0.36552,0.36364,0,0.00047806,4777.3,0.00017838,-137.95,0.00010843,-663.5,-0.00048952,-5156.3,0.00052924
1812,0.36552,0.18182,0,0.00050336,5030.1,0.00017786,92.969,0.00015458,-81.99,-0.00050295,-5022.4,0.00038599
1813,0.18276,5.8182,0,0.00040498,4047,0.0001597,314.31,0.00011759,-2.0796,-0.00039873,-3881.6,8.74e-05
1814,0.18276,5.6364,0,0.0004557,4553.8,0.00023655,610.75,4.5504e-05,-824.72,-0.00044203,-4487.9,0.00013768
1815,0.18276,5.4545,0,0.00052272,5223.6,0.00028725,743.47,2.056e-05,-1260.4,-0.00050183,-5185.4,0.00016693
1816,0.18276,5.2727,0,0.00057502,5746.2,0.00032163,829.03,1.0359e-05,-1509.8,-0.00054969,-5717.8,0.00018546
1817,0.18276,5.0909,0,0.00061417,6137.4,0.00034552,883.91,6.0149e-06,-1667,-0.00058632,-6117.6,0.0001982
1818,0.18276,4.9091,0,0.00064368,6432.4,0.00036301,923.56,3.7893e-06,-1775.5,-0.00061417,-6418.6,0.0002074
1819,0.18276,4.7273,0,0.00066624,6657.8,0.00037614,952.69,2.5535e-06,-1854.3,-0.00063559,-6649,0.00021427
1820,0.18276,4.5455,0,0.00068373,6832.6,0.0003862,974.8,1.8069e-06,-1913.4,-0.00065224,-6827.6,0.00021951
1821,0.18276,4.3636,0,0.0006974,6969.2,0.00039401,991.81,1.3321e-06,-1958.6,-0.00066528,-6967.3,0.00022356
1822,0.18276,4.1818,0,0.00070812,7076.3,0.0004001,1005,1.0174e-06,-1993.5,-0.00067553,-7076.9,0.00022671
1823,0.18276,4,0,0.00071649,7160,0.00040484,1015.2,8.0328e-07,-2020.6,-0.00068355,-7162.5,0.00022916
1824,0.18276,3.8182,0,0.00072296,7224.6,0.0004085,1023,6.5554e-07,-2041.3,-0.00068974,-7228.7,0.00023105
1825,0.18276,3.6364,0,0.00072783,7273.2,0.00041124,1028.9,5.5385e-07,-2056.8,-0.00069441,-7278.5,0.00023246
1826,0.18276,3.4545,0,0.00073131,7308,0.0004132,1033.1,4.8587e-07,-2067.9,-0.00069774,-7314.1,0.00023346
1827,0.18276,3.2727,0,0.00073355,7330.5,0.00041446,1035.8,4.4407e-07,-2075,-0.0006999,-7337.1,0.00023411
1828,0.18276,3.0909,0,0.00073465,7341.5,0.00041508,1037.1,4.2415e-07,-2078.5,-0.00070095,-7348.4,0.00023443
1829,0.18276,2.9091,0,0.00073465,7341.5,0.00041508,1037.1,4.2415e-07,-2078.5,-0.00070095,-7348.4,0.00023443
1830,0.18276,2.7273,0,0.00073355,7330.5,0.00041446,1035.8,4.4407e-07,-2075,-0.0006999,-7337.1,0.00023411
1831,0.18276,2.5455,0,0.00073131,7308,0.0004132,1033.1,4.8587e-07,-2067.9,-0.00069774,-7314.1,0.00023346
1832,0.18276,2.3636,0,0.00072783,7273.2,0.00041124,1028.9,5.5385e-07,-2056.8,-0.00069441,-7278.5,0.00023246
1833,0.18276,2.1818,0,0.00072296,7224.6,0.0004085,1023,6.5553e-07,-2041.3,-0.00068974,-7228.7,0.00023105
1834,0.18276,2,0,0.00071649,7160,0.00040484,1015.2,8.0328e-07,-2020.6,-0.00068355,-7162.5,0.00022916
1835,0.18276,1.8182,0,0.00070812,7076.3,0.0004001,1005,1.0174e-06,-1993.5,-0.00067553,-7076.9,0.00022671
1836,0.18276,1.6364,0,0.0006974,6969.2,0.00039401,991.81,1.3321e-06,-1958.6,-0.00066528,-6967.3,0.00022356
1837,0.18276,1.4545,0,0.00068373,6832.6,0.0003862,974.8,1.8069e-06,-1913.4,-0.00065224,-6827.6,0.00021951
1838,0.18276,1.2727,0,0.00066624,6657.8,0.00037614,952.69,2.5535e-06,-1854.3,-0.00063559,-6649,0.00021427
1839,0.18276,1.0909,0,0.00064368,6432.4,0.00036301,923.56,3.7893e-06,-1775.5,-0.00061417,-6418.6,0.0002074
1840,0.18276,0.90909,0,0.00061417,6137.4,0.00034552,883.91,6.0149e-06,-1667,-0.00058632,-6117.6,0.0001982
1841,0.18276,0.72727,0,0.00057502,5746.2,0.00032163,829.03,1.0359e-05,-1509.8,-0.00054969,-5717.8,0.00018546
1842,0.18276,0.54545,0,0.00052272,5223.6,0.00028725,743.47,2.056e-05,-1260.4,-0.00050183,-5185.4,0.00016693
1843,0.18276,0.36364,0,0.0004557,4553.8,0.00023655,610.75,4.5504e-05,-824.72,-0.00044203,-4487.9,0.00013768
1844,0.18276,0.18182,0,0.00040498,4047,0.0001597,314.31,0.00011759,-2.0796,-0.00039873,-3881.6,8.74e-05
1845,10.95,5.8182,0,5.9121e-05,590.8,2.7654e-05,89.836,1.3328e-05,-17.805,-5.7155e-05,-547.38,0.60467
1846,11.134,5.8182,0,8.8215e-05,881.54,3.4893e-05,66.525,2.524e-05,-6.0099,-8.6961e-05,-849.04,0.62717
1847,11.318,5.8182,0,0.00011857,1184.9,4.4843e-05,67.274,3.5502e-05,-2.9172,-0.00011732,-1151.2,0.64971
1848,11.502,5.8182,0,0.00014544,1453.4,5.367e-05,67.838,4.4512e-05,-0.9759,-0.00014418,-1418.7,0.67233
1849,11.686,5.8182,0,0.00016816,1680.4,6.0921e-05,65.161,5.2206e-05,-0.31772,-0.00016696,-1647,0.69503
1850,11.869,5.8182,0,0.00018679,1866.6,6.6641e-05,60.133,5.8634e-05,-0.028594,-0.00018569,-1835.8,0.71785
1851,12.053,5.8182,0,0.00020159,2014.5,7.0991e-05,53.706,6.3852e-05,0.060694,-0.00020062,-1987.1,0.74078
1852,12.237,5.8182,0,0.00021297,2128.3,7.4169e-05,46.728,6.7961e-05,0.078104,-0.00021214,-2104.5,0.76385
1853,12.421,5.8182,0,0.00022139,2212.4,7.6372e-05,39.801,7.1084e-05,0.067635,-0.00022069,-2192.2,0.78705
1854,12.605,5.8182,0,0.00022729,2271.3,7.778e-05,33.314,7.3353e-05,0.050993,-0.0002267,-2254.4,0.81041
1855,12.788,5.8182,0,0.00023108,2309.2,7.8548e-05,27.483,7.4895e-05,0.035569,-0.0002306,-2295.4,0.83391
1856,12.972,5.8182,0,0.00023315,2329.9,7.8809e-05,22.404,7.583e-05,0.023423,-0.00023276,-2318.6,0.85758
1857,13.156,5.8182,0,0.00023382,2336.6,7.8669e-05,18.092,7.6263e-05,0.014184,-0.0002335,-2327.5,0.88139
1858,13.34,5.8182,0,0.00023335,2331.9,7.8217e-05,14.518,7.6286e-05,0.0068677,-0.0002331,-2324.6,0.90537
1859,13.524,5.8182,0,0.00023198,2318.2,7.7523e-05,11.624,7.5976e-05,0.00043481,-0.00023178,-2312.3,0.9295
1860,13.707,5.8182,0,0.00022988,2297.3,7.6642e-05,9.3422,7.5398e-05,-0.0059855,-0.00022972,-2292.6,0.95378
1861,13.891,5.8182,0,0.00022722,2270.7,7.5619e-05,7.5986,7.4606e-05,-0.012836,-0.00022709,-2266.9,0.97822
1862,14.075,5.8182,0,0.00022412,2239.6,7.4488e-05,6.3221,7.3644e-05,-0.020032,-0.00022401,-2236.5,1.0028
1863,14.259,5.8182,0,0.00022067,2205.2,7.3276e-05,5.445,7.2548e-05,-0.026945,-0.00022057,-2202.4,1.0276
1864,14.443,5.8182,0,0.00021695,2168,7.2004e-05,4.9054,7.1347e-05,-0.032476,-0.00021687,-2165.6,1.0525
1865,14.626,5.8182,0,0.00021303,2128.8,7.0688e-05,4.6476,7.0065e-05,-0.035615,-0.00021295,-2126.5,1.0775
1866,14.81,5.8182,0,0.00020895,2088,6.934e-05,4.6232,6.872e-05,-0.036064,-0.00020887,-2085.7,1.1027
1867,14.994,5.8182,0,0.00020475,2046.1,6.797e-05,4.7906,6.7328e-05,-0.034238,-0.00020467,-2043.7,1.128
1868,15.178,5.8182,0,0.00020047,2003.3,6.6585e-05,5.1142,6.59e-05,-0.030974,-0.00020039,-2000.8,1.1535
1869,15.362,5.8182,0,0.00019613,1960,6.519e-05,5.5639,6.4446e-05,-0.027141,-0.00019604,-1957.2,1.179
1870,15.545,5.8182,0,0.00019175,1916.2,6.3789e-05,6.1139,6.2972e-05,-0.023293,-0.00019165,-1913.1,1.2048
1871,15.729,5.8182,0,0.00018734,1872.1,6.2386e-05,6.7425,6.1486e-05,-0.019715,-0.00018722,-1868.7,1.2306
1872,15.913,5.8182,0,0.00018291,1827.9,6.0983e-05,7.4314,5.9991e-05,-0.01657,-0.00018279,-1824.1,1.2566
1873,16.097,5.8182,0,0.00017848,1783.6,5.9581e-05,8.1653,5.8492e-05,-0.013879,-0.00017834,-1779.5,1.2827
1874,16.281,5.8182,0,0.00017404,1739.2,5.8181e-05,8.9318,5.6991e-05,-0.011615,-0.00017389,-1734.8,1.3089
1875,16.464,5.8182,0,0.00016961,1695,5.6785e-05,9.7206,5.549e-05,-0.0097565,-0.00016945,-1690.1,1.3353
1876,16.648,5.8182,0,0.00016519,1650.8,5.5393e-05,10.524,5.3991e-05,-0.0082151,-0.00016501,-1645.5,1.3617
1877,16.832,5.8182,0,0.00016078,1606.7,5.4005e-05,11.335,5.2495e-05,-0.0069032,-0.00016059,-1601,1.3883
1878,17.016,5.8182,0,0.00015639,1562.8,5.2622e-05,12.149,5.1004e-05,-0.0057973,-0.00015618,-1556.7,1.415
1879,17.2,5.8182,0,0.000152,1519,5.1244e-05,12.963,4.9518e-05,-0.0048609,-0.00015178,-1512.5,1.4417
1880,17.383,5.8182,0,0.00014764,1475.4,4.9871e-05,13.773,4.8037e-05,-0.004068,-0.0001474,-1468.5,1.4686
1881,17.567,5.8182,0,0.00014329,1431.9,4.8503e-05,14.577,4.6562e-05,-0.0034206,-0.00014304,-1424.6,1.4956
1882,17.751,5.8182,0,0.00013896,1388.7,4.7141e-05,15.375,4.5094e-05,-0.0028747,-0.0001387,-1380.9,1.5227
1883,17.935,5.8182,0,0.00013465,1345.6,4.5784e-05,16.165,4.3632e-05,-0.002389,-0.00013437,-1337.4,1.5498
1884,18.119,5.8182,0,0.00013036,1302.7,4.4432e-05,16.947,4.2176e-05,-0.0019695,-0.00013006,-1294.1,1.5771
1885,18.302,5.8182,0,0.00012609,1260,4.3086e-05,17.722,4.0727e-05,-0.00161,-0.00012578,-1251,1.6044
1886,18.486,5.8182,0,0.00012183,1217.5,4.1746e-05,18.488,3.9285e-05,-0.001309,-0.00012151,-1208.1,1.6318
1887,18.67,5.8182,0,0.00011759,1175.1,4.041e-05,19.247,3.7849e-05,-0.0010853,-0.00011725,-1165.4,1.6593
1888,18.854,5.8182,0,0.00011338,1133,3.9081e-05,19.998,3.6419e-05,-0.0009159,-0.00011302,-1122.8,1.6869
1889,19.038,5.8182,0,0.00010918,1091,3.7756e-05,20.743,3.4995e-05,-0.00077787,-0.00010881,-1080.5,1.7146
1890,19.221,5.8182,0,0.00010499,1049.2,3.6437e-05,21.481,3.3578e-05,-0.00069295,-0.00010461,-1038.3,1.7423
1891,19.405,5.8182,0,0.00010083,1007.6,3.5123e-05,22.213,3.2167e-05,-0.00066199,-0.00010043,-996.3,1.7701
1892,19.589,5.8182,0,9.6681e-05,966.15,3.3815e-05,22.938,3.0762e-05,-0.00069474,-9.6271e-05,-954.47,1.7979
1893,19.773,5.8182,0,9.2551e-05,924.87,3.2511e-05,23.657,2.9362e-05,-0.00081466,-9.2126e-05,-912.81,1.8259
1894,19.956,5.8182,0,8.8437e-05,883.76,3.1212e-05,24.37,2.7969e-05,-0.0010199,-8.7997e-05,-871.32,1.8538
1895,20.14,5.8182,0,8.4339e-05,842.81,2.9918e-05,25.076,2.658e-05,-0.0013002,-8.3884e-05,-829.99,1.8819
1896,20.324,5.8182,0,8.0257e-05,802.01,2.8628e-05,25.774,2.5198e-05,-0.0016885,-7.9787e-05,-788.81,1.91
1897,20.508,5.8182,0,7.6189e-05,761.37,2.7342e-05,26.464,2.382e-05,-0.0022042,-7.5705e-05,-747.79,1.9381
1898,20.692,5.8182,0,7.2137e-05,720.87,2.6061e-05,27.143,2.2448e-05,-0.0028729,-7.1637e-05,-706.92,1.9663
1899,20.875,5.8182,0,6.8098e-05,680.51,2.4782e-05,27.81,2.108e-05,-0.0037381,-6.7582e-05,-666.18,1.9946
1900,21.059,5.8182,0,6.4073e-05,640.29,2.3507e-05,28.463,1.9718e-05,-0.0048293,-6.3542e-05,-625.59,2.0229
1901,21.243,5.8182,0,6.0061e-05,600.2,2.2234e-05,29.098,1.8361e-05,-0.0061777,-5.9513e-05,-585.12,2.0512
1902,21.427,5.8182,0,5.6062e-05,560.23,2.0964e-05,29.711,1.7009e-05,-0.0078536,-5.5497e-05,-544.79,2.0795
1903,21.611,5.8182,0,5.2075e-05,520.39,1.9695e-05,30.299,1.5661e-05,-0.0099364,-5.1493e-05,-504.58,2.1079
1904,21.794,5.8182,0,4.81e-05,480.66,1.8427e-05,30.855,1.4319e-05,-0.012529,-4.75e-05,-464.5,2.1364
1905,21.978,5.8182,0,4.4136e-05,441.05,1.7159e-05,31.373,1.2982e-05,-0.015766,-4.3518e-05,-424.54,2.1648
1906,22.162,5.8182,0,4.0184e-05,401.56,1.5891e-05,31.844,1.165e-05,-0.019813,-3.9547e-05,-384.7,2.1933
1907,22.346,5.8182,0,3.6243e-05,362.18,1.4621e-05,32.258,1.0325e-05,-0.024907,-3.5587e-05,-344.99,2.2219
1908,22.53,5.8182,0,3.2316e-05,322.93,1.3349e-05,32.603,9.0056e-06,-0.031344,-3.1637e-05,-305.41,2.2504
1909,22.713,5.8182,0,2.8402e-05,283.82,1.2073e-05,32.865,7.694e-06,-0.039686,-2.77e-05,-265.97,2.2789
1910,22.897,5.8182,0,2.4505e-05,244.88,1.0793e-05,33.026,6.391e-06,-0.050188,-2.3776e-05,-226.71,2.3075
1911,23.081,5.8182,0,2.063e-05,206.15,9.5076e-06,33.065,5.0982e-06,-0.065339,-1.9868e-05,-187.65,2.3361
1912,23.265,5.8182,0,1.6787e-05,167.75,8.2172e-06,32.968,3.8186e-06,-0.08069,-1.5981e-05,-148.85,2.3647
1913,23.449,5.8182,0,1.2999e-05,129.9,6.9272e-06,32.741,2.5537e-06,-0.12036,-1.2128e-05,-110.44,2.3933
1914,23.632,5.8182,0,9.3331e-06,93.267,5.6588e-06,32.532,1.3145e-06,-0.10856,-8.3425e-06,-72.668,2.4219
1915,23.816,5.8182,0,6.1195e-06,61.153,4.6028e-06,33.63,6.0023e-08,-0.50293,-4.7936e-06,-36.971,2.4506
1916,10.95,5.6364,0,8.6194e-05,861.34,4.3321e-05,178.91,1.8329e-05,-8.8696,-8.1751e-05,-760.83,0.60567
1917,11.134,5.6364,0,0.00010198,1019.1,4.1741e-05,95.647,2.8431e-05,-4.3579,-0.00010006,-969.8,0.62813
1918,11.318,5.6364,0,0.00012798,1278.9,4.919e-05,82.225,3.7825e-05,-3.1668,-0.00012642,-1237.2,0.65064
1919,11.502,5.6364,0,0.00015315,1530.4,5.7334e-05,81.098,4.6338e-05,-1.5208,-0.00015162,-1488.9,0.67323
1920,11.686,5.6364,0,0.00017493,1748.1,6.4378e-05,79.62,5.3662e-05,-0.88951,-0.00017345,-1707.3,0.6959
1921,11.869,5.6364,0,0.00019278,1926.5,6.9916e-05,75.482,5.9796e-05,-0.55521,-0.0001914,-1887.9,0.71869
1922,12.053,5.6364,0,0.00020682,2066.8,7.3997e-05,68.866,6.4779e-05,-0.39271,-0.00020557,-2031.7,0.7416
1923,12.237,5.6364,0,0.00021744,2172.9,7.6818e-05,60.671,6.8704e-05,-0.29572,-0.00021635,-2142.1,0.76464
1924,12.421,5.6364,0,0.00022511,2249.5,7.861e-05,51.8,7.1685e-05,-0.2321,-0.00022418,-2223.3,0.78783
1925,12.605,5.6364,0,0.0002303,2301.4,7.9588e-05,42.963,7.3845e-05,-0.18542,-0.00022954,-2279.7,0.81116
1926,12.788,5.6364,0,0.00023346,2333,7.9937e-05,34.641,7.5306e-05,-0.14945,-0.00023285,-2315.5,0.83465
1927,12.972,5.6364,0,0.00023496,2348,7.9806e-05,27.123,7.618e-05,-0.12126,-0.00023449,-2334.4,0.8583
1928,13.156,5.6364,0,0.00023514,2349.8,7.9316e-05,20.55,7.6568e-05,-0.099655,-0.00023479,-2339.5,0.8821
1929,13.34,5.6364,0,0.00023426,2341,7.8559e-05,14.963,7.6556e-05,-0.08419,-0.000234,-2333.5,0.90607
1930,13.524,5.6364,0,0.00023254,2323.8,7.7606e-05,10.338,7.622e-05,-0.075268,-0.00023237,-2318.7,0.93019
1931,13.707,5.6364,0,0.00023016,2300.1,7.651e-05,6.612,7.562e-05,-0.07505,-0.00023005,-2296.8,0.95446
1932,13.891,5.6364,0,0.00022727,2271.2,7.5315e-05,3.7092,7.4809e-05,-0.091116,-0.00022721,-2269.4,0.97889
1933,14.075,5.6364,0,0.00022398,2238.3,7.4054e-05,1.5724,7.3824e-05,-0.16,-0.00022396,-2237.6,1.0035
1934,14.259,5.6364,0,0.00022039,2202.4,7.2786e-05,0.3724,7.2664e-05,-0.5468,-0.00022039,-2202.4,1.0282
1935,14.443,5.6364,0,0.00021655,2164.1,7.1541e-05,0.12769,7.1343e-05,-1.3599,-0.00021658,-2164.7,1.0531
1936,14.626,5.6364,0,0.00021254,2124,7.0241e-05,0.078199,6.9975e-05,-1.9225,-0.00021258,-2124.9,1.0781
1937,14.81,5.6364,0,0.0002084,2082.6,6.8883e-05,0.059678,6.859e-05,-2.1456,-0.00020844,-2083.6,1.1033
1938,14.994,5.6364,0,0.00020416,2040.2,6.7479e-05,0.050438,6.7196e-05,-2.0738,-0.00020419,-2041.2,1.1286
1939,15.178,5.6364,0,0.00019984,1997.1,6.6039e-05,0.045342,6.5799e-05,-1.76,-0.00019987,-1997.9,1.1541
1940,15.362,5.6364,0,0.00019548,1953.4,6.4574e-05,0.043402,6.4401e-05,-1.253,-0.0001955,-1954.1,1.1796
1941,15.545,5.6364,0,0.00019108,1909.5,6.3091e-05,0.049333,6.3005e-05,-0.59954,-0.00019109,-1909.8,1.2054
1942,15.729,5.6364,0,0.00018666,1865.4,6.1622e-05,0.2539,6.1585e-05,-0.025808,-0.00018666,-1865.2,1.2312
1943,15.913,5.6364,0,0.00018224,1821.1,6.0228e-05,1.0832,6.0085e-05,0.012704,-0.00018222,-1820.5,1.2572
1944,16.097,5.6364,0,0.0001778,1776.8,5.8842e-05,2.0138,5.8576e-05,0.015212,-0.00017777,-1775.8,1.2833
1945,16.281,5.6364,0,0.00017337,1732.5,5.7462e-05,2.9935,5.7066e-05,0.014553,-0.00017332,-1731,1.3095
1946,16.464,5.6364,0,0.00016895,1688.3,5.6087e-05,4.004,5.5555e-05,0.01302,-0.00016888,-1686.3,1.3358
1947,16.648,5.6364,0,0.00016453,1644.2,5.4716e-05,5.0326,5.4048e-05,0.011183,-0.00016445,-1641.7,1.3622
1948,16.832,5.6364,0,0.00016013,1600.2,5.335e-05,6.0696,5.2543e-05,0.0092612,-0.00016003,-1597.2,1.3888
1949,17.016,5.6364,0,0.00015574,1556.4,5.1989e-05,7.1077,5.1044e-05,0.0073131,-0.00015562,-1552.8,1.4154
1950,17.2,5.6364,0,0.00015137,1512.7,5.0632e-05,8.1416,4.9549e-05,0.005371,-0.00015123,-1508.6,1.4422
1951,17.383,5.6364,0,0.00014702,1469.1,4.928e-05,9.1676,4.8061e-05,0.0034523,-0.00014686,-1464.5,1.4691
1952,17.567,5.6364,0,0.00014268,1425.8,4.7933e-05,10.183,4.6578e-05,0.0015324,-0.0001425,-1420.7,1.496
1953,17.751,5.6364,0,0.00013836,1382.6,4.6591e-05,11.187,4.5102e-05,-0.00036047,-0.00013816,-1377,1.5231
1954,17.935,5.6364,0,0.00013405,1339.6,4.5254e-05,12.179,4.3633e-05,-0.0022019,-0.00013384,-1333.5,1.5502
1955,18.119,5.6364,0,0.00012977,1296.8,4.3922e-05,13.16,4.217e-05,-0.004011,-0.00012954,-1290.2,1.5775
1956,18.302,5.6364,0,0.0001255,1254.2,4.2595e-05,14.128,4.0714e-05,-0.0058018,-0.00012526,-1247,1.6048
1957,18.486,5.6364,0,0.00012126,1211.7,4.1273e-05,15.087,3.9264e-05,-0.0075795,-0.00012099,-1204.1,1.6322
1958,18.67,5.6364,0,0.00011703,1169.5,3.9957e-05,16.038,3.7821e-05,-0.0093809,-0.00011675,-1161.4,1.6597
1959,18.854,5.6364,0,0.00011282,1127.4,3.8646e-05,16.981,3.6384e-05,-0.011191,-0.00011252,-1118.8,1.6873
1960,19.038,5.6364,0,0.00010863,1085.5,3.7341e-05,17.919,3.4954e-05,-0.012999,-0.00010831,-1076.4,1.7149
1961,19.221,5.6364,0,0.00010445,1043.8,3.6041e-05,18.854,3.353e-05,-0.014833,-0.00010412,-1034.2,1.7426
1962,19.405,5.6364,0,0.0001003,1002.3,3.4747e-05,19.787,3.2111e-05,-0.016702,-9.9944e-05,-992.23,1.7704
1963,19.589,5.6364,0,9.6157e-05,960.91,3.3459e-05,20.721,3.0698e-05,-0.018623,-9.5788e-05,-950.39,1.7983
1964,19.773,5.6364,0,9.2037e-05,919.74,3.2177e-05,21.657,2.9291e-05,-0.020629,-9.165e-05,-908.73,1.8262
1965,19.956,5.6364,0,8.7934e-05,878.73,3.09e-05,22.598,2.789e-05,-0.022713,-8.7528e-05,-867.23,1.8541
1966,20.14,5.6364,0,8.3848e-05,837.9,2.963e-05,23.545,2.6493e-05,-0.024874,-8.3423e-05,-825.89,1.8822
1967,20.324,5.6364,0,7.9779e-05,797.24,2.8366e-05,24.499,2.5102e-05,-0.027143,-7.9334e-05,-784.72,1.9103
1968,20.508,5.6364,0,7.5726e-05,756.74,2.7108e-05,25.463,2.3715e-05,-0.029531,-7.5262e-05,-743.7,1.9384
1969,20.692,5.6364,0,7.169e-05,716.41,2.5856e-05,26.439,2.2333e-05,-0.032066,-7.1205e-05,-702.84,1.9666
1970,20.875,5.6364,0,6.7671e-05,676.24,2.4611e-05,27.426,2.0956e-05,-0.034774,-6.7163e-05,-662.12,1.9948
1971,21.059,5.6364,0,6.3667e-05,636.23,2.3372e-05,28.428,1.9583e-05,-0.037664,-6.3136e-05,-621.56,2.0231
1972,21.243,5.6364,0,5.9679e-05,596.38,2.2139e-05,29.446,1.8214e-05,-0.040749,-5.9124e-05,-581.13,2.0514
1973,21.427,5.6364,0,5.5707e-05,556.69,2.0912e-05,30.482,1.6849e-05,-0.044055,-5.5127e-05,-540.84,2.0798
1974,21.611,5.6364,0,5.1752e-05,517.16,1.9692e-05,31.537,1.5488e-05,-0.047608,-5.1144e-05,-500.69,2.1082
1975,21.794,5.6364,0,4.7814e-05,477.81,1.8479e-05,32.615,1.4131e-05,-0.051431,-4.7176e-05,-460.69,2.1366
1976,21.978,5.6364,0,4.3893e-05,438.63,1.7273e-05,33.72,1.2777e-05,-0.055557,-4.3222e-05,-420.82,2.165
1977,22.162,5.6364,0,3.9991e-05,399.64,1.6075e-05,34.857,1.1428e-05,-0.059971,-3.9285e-05,-381.09,2.1935
1978,22.346,5.6364,0,3.6112e-05,360.87,1.4886e-05,36.035,1.0082e-05,-0.064665,-3.5364e-05,-341.53,2.222
1979,22.53,5.6364,0,3.2258e-05,322.35,1.3709e-05,37.268,8.7395e-06,-0.069556,-3.1462e-05,-302.13,2.2506
1980,22.713,5.6364,0,2.8436e-05,284.16,1.2546e-05,38.579,7.4012e-06,-0.074615,-2.7583e-05,-262.93,2.2791
1981,22.897,5.6364,0,2.4656e-05,246.39,1.1402e-05,40.01,6.0668e-06,-0.078985,-2.373e-05,-223.96,2.3077
1982,23.081,5.6364,0,2.0936e-05,209.22,1.0288e-05,41.632,4.736e-06,-0.083899,-1.9915e-05,-185.3,2.3363
1983,23.265,5.6364,0,1.7311e-05,172.99,9.2205e-06,43.587,3.4088e-06,-0.079808,-1.6152e-05,-147.05,2.3649
1984,23.449,5.6364,0,1.3847e-05,138.38,8.2353e-06,46.155,2.0801e-06,-0.092584,-1.2471e-05,-109.43,2.3935
1985,23.632,5.6364,0,1.0705e-05,106.97,7.4099e-06,50.029,7.5248e-07,0.0082206,-8.9365e-06,-72.791,2.4221
1986,23.816,5.6364,0,8.2469e-06,82.412,6.921e-06,56.537,-6.4049e-07,-0.27738,-5.6587e-06,-37.982,2.4507
1987,10.95,5.4545,0,0.00012048,1203.9,6.5937e-05,322.88,2.2068e-05,-6.7312,-0.00011166,-1011.5,0.60667
1988,11.134,5.4545,0,0.00012601,1259.2,5.6482e-05,180.79,3.2085e-05,-2.5284,-0.00012197,-1160,0.62909
1989,11.318,5.4545,0,0.00014566,1455.5,5.9135e-05,132.68,4.1104e-05,-2.7945,-0.00014297,-1385.9,0.65156
1990,11.502,5.4545,0,0.00016694,1668.3,6.4472e-05,112.39,4.9281e-05,-1.7499,-0.00016477,-1610,0.6741
1991,11.686,5.4545,0,0.0001861,1859.8,6.9766e-05,100.05,5.6289e-05,-1.2071,-0.00018422,-1808.3,0.69674
1992,11.869,5.4545,0,0.00020195,2018.1,7.4093e-05,89.275,6.2102e-05,-0.81631,-0.00020029,-1972.3,0.71949
1993,12.053,5.4545,0,0.00021432,2141.8,7.7254e-05,78.195,6.6769e-05,-0.58297,-0.00021289,-2101.9,0.74237
1994,12.237,5.4545,0,0.00022352,2233.7,7.9333e-05,66.716,7.0396e-05,-0.43004,-0.00022232,-2199.8,0.76539
1995,12.421,5.4545,0,0.00022997,2298.1,8.0508e-05,55.255,7.311e-05,-0.33024,-0.00022899,-2270.2,0.78855
1996,12.605,5.4545,0,0.00023413,2339.7,8.0967e-05,44.283,7.5038e-05,-0.26417,-0.00023335,-2317.4,0.81187
1997,12.788,5.4545,0,0.00023642,2362.6,8.0879e-05,34.164,7.6303e-05,-0.22207,-0.00023583,-2345.5,0.83534
1998,12.972,5.4545,0,0.00023721,2370.4,8.0384e-05,25.13,7.7013e-05,-0.19889,-0.00023677,-2357.9,0.85897
1999,13.156,5.4545,0,0.00023679,2366.2,7.9593e-05,17.295,7.7265e-05,-0.19441,-0.00023649,-2357.6,0.88277
2000,13.34,5.4545,0,0.00023542,2352.6,7.8592e-05,10.69,7.714e-05,-0.21701,-0.00023524,-2347.3,0.90672
2001,13.524,5.4545,0,0.00023331,2331.5,7.7451e-05,5.3194,7.6702e-05,-0.3095,-0.00023322,-2329,0.93082
2002,13.707,5.4545,0,0.00023062,2304.6,7.6266e-05,1.4563,7.5962e-05,-0.82591,-0.00023061,-2304.3,0.95509
2003,13.891,5.4545,0,0.00022748,2273.2,7.5243e-05,0.29478,7.4796e-05,-3.0625,-0.00022752,-2274.6,0.97951
2004,14.075,5.4545,0,0.00022399,2238.4,7.4196e-05,0.12774,7.3457e-05,-5.4249,-0.00022408,-2241,1.0041
2005,14.259,5.4545,0,0.00022024,2200.9,7.304e-05,0.075608,7.2079e-05,-7.1476,-0.00022036,-2204.4,1.0288
2006,14.443,5.4545,0,0.0002163,2161.5,7.179e-05,0.051535,7.0685e-05,-8.2538,-0.00021643,-2165.6,1.0537
2007,14.626,5.4545,0,0.0002122,2120.5,7.0466e-05,0.038069,6.9286e-05,-8.8279,-0.00021235,-2124.9,1.0787
2008,14.81,5.4545,0,0.000208,2078.5,6.9084e-05,0.029576,6.7888e-05,-8.9572,-0.00020815,-2083,1.1039
2009,14.994,5.4545,0,0.00020371,2035.7,6.7658e-05,0.023759,6.6494e-05,-8.7218,-0.00020386,-2040,1.1292
2010,15.178,5.4545,0,0.00019937,1992.3,6.6199e-05,0.019526,6.5107e-05,-8.1924,-0.00019951,-1996.4,1.1546
2011,15.362,5.4545,0,0.00019499,1948.6,6.4717e-05,0.016262,6.3726e-05,-7.4303,-0.00019512,-1952.3,1.1802
2012,15.545,5.4545,0,0.00019059,1904.6,6.3217e-05,0.013686,6.2352e-05,-6.4877,-0.0001907,-1907.8,1.2059
2013,15.729,5.4545,0,0.00018617,1860.4,6.1706e-05,0.01165,6.0984e-05,-5.4083,-0.00018626,-1863.1,1.2317
2014,15.913,5.4545,0,0.00018175,1816.3,6.0188e-05,0.010032,5.9624e-05,-4.2285,-0.00018182,-1818.4,1.2577
2015,16.097,5.4545,0,0.00017733,1772.1,5.8667e-05,0.0088422,5.8269e-05,-2.978,-0.00017738,-1773.5,1.2838
2016,16.281,5.4545,0,0.00017291,1727.9,5.7145e-05,0.0083971,5.692e-05,-1.681,-0.00017294,-1728.8,1.31
2017,16.464,5.4545,0,0.0001685,1683.9,5.5625e-05,0.01448,5.5575e-05,-0.36255,-0.00016851,-1684,1.3363
2018,16.648,5.4545,0,0.00016411,1639.9,5.4237e-05,0.98926,5.4106e-05,0.00059689,-0.00016409,-1639.4,1.3627
2019,16.832,5.4545,0,0.00015972,1596.1,5.2902e-05,2.3283,5.2593e-05,0.0016546,-0.00015968,-1594.9,1.3893
2020,17.016,5.4545,0,0.00015535,1552.4,5.1572e-05,3.6626,5.1084e-05,0.0013356,-0.00015529,-1550.6,1.4159
2021,17.2,5.4545,0,0.000151,1508.9,5.0245e-05,4.9851,4.9582e-05,0.00080166,-0.00015091,-1506.4,1.4427
2022,17.383,5.4545,0,0.00014666,1465.6,4.8923e-05,6.2919,4.8085e-05,0.00022563,-0.00014655,-1462.4,1.4695
2023,17.567,5.4545,0,0.00014234,1422.4,4.7604e-05,7.5807,4.6595e-05,-0.00038199,-0.00014221,-1418.6,1.4965
2024,17.751,5.4545,0,0.00013803,1379.4,4.629e-05,8.8507,4.5112e-05,-0.00097945,-0.00013788,-1374.9,1.5235
2025,17.935,5.4545,0,0.00013375,1336.6,4.4981e-05,10.102,4.3636e-05,-0.001531,-0.00013357,-1331.5,1.5506
2026,18.119,5.4545,0,0.00012948,1293.9,4.3675e-05,11.336,4.2166e-05,-0.0020628,-0.00012929,-1288.2,1.5779
2027,18.302,5.4545,0,0.00012523,1251.5,4.2375e-05,12.555,4.0703e-05,-0.0025721,-0.00012501,-1245.1,1.6052
2028,18.486,5.4545,0,0.000121,1209.2,4.1079e-05,13.76,3.9247e-05,-0.0030688,-0.00012076,-1202.3,1.6326
2029,18.67,5.4545,0,0.00011679,1167.1,3.9788e-05,14.954,3.7797e-05,-0.0035786,-0.00011653,-1159.6,1.6601
2030,18.854,5.4545,0,0.0001126,1125.2,3.8503e-05,16.142,3.6354e-05,-0.0040821,-0.00011231,-1117,1.6876
2031,19.038,5.4545,0,0.00010842,1083.5,3.7224e-05,17.324,3.4917e-05,-0.0045592,-0.00010812,-1074.7,1.7152
2032,19.221,5.4545,0,0.00010426,1041.9,3.595e-05,18.507,3.3486e-05,-0.0050283,-0.00010394,-1032.6,1.743
2033,19.405,5.4545,0,0.00010013,1000.6,3.4683e-05,19.692,3.2061e-05,-0.0054926,-9.9777e-05,-990.58,1.7707
2034,19.589,5.4545,0,9.6006e-05,959.4,3.3422e-05,20.883,3.0642e-05,-0.0059569,-9.5634e-05,-948.79,1.7986
2035,19.773,5.4545,0,9.1904e-05,918.41,3.2168e-05,22.085,2.9227e-05,-0.0064421,-9.1509e-05,-907.17,1.8265
2036,19.956,5.4545,0,8.7821e-05,877.6,3.0921e-05,23.301,2.7818e-05,-0.0069306,-8.7401e-05,-865.72,1.8544
2037,20.14,5.4545,0,8.3755e-05,836.97,2.9681e-05,24.536,2.6414e-05,-0.0074066,-8.3311e-05,-824.44,1.8824
2038,20.324,5.4545,0,7.9708e-05,796.53,2.8449e-05,25.793,2.5015e-05,-0.0078769,-7.9238e-05,-783.32,1.9105
2039,20.508,5.4545,0,7.5678e-05,756.26,2.7225e-05,27.077,2.362e-05,-0.0083456,-7.5181e-05,-742.36,1.9387
2040,20.692,5.4545,0,7.1667e-05,716.17,2.6009e-05,28.392,2.2229e-05,-0.0088066,-7.1142e-05,-701.56,1.9668
2041,20.875,5.4545,0,6.7674e-05,676.27,2.4802e-05,29.744,2.0842e-05,-0.009269,-6.7119e-05,-660.91,1.9951
2042,21.059,5.4545,0,6.3699e-05,636.55,2.3604e-05,31.137,1.9459e-05,-0.0097083,-6.3112e-05,-620.42,2.0233
2043,21.243,5.4545,0,5.9743e-05,597.02,2.2416e-05,32.577,1.8079e-05,-0.010095,-5.9123e-05,-580.07,2.0516
2044,21.427,5.4545,0,5.5807e-05,557.69,2.1238e-05,34.073,1.6702e-05,-0.010417,-5.5149e-05,-539.87,2.08
2045,21.611,5.4545,0,5.1891e-05,518.55,2.0072e-05,35.632,1.5328e-05,-0.010637,-5.1193e-05,-499.82,2.1084
2046,21.794,5.4545,0,4.7997e-05,479.64,1.8917e-05,37.265,1.3956e-05,-0.010708,-4.7254e-05,-459.92,2.1368
2047,21.978,5.4545,0,4.4127e-05,440.96,1.7777e-05,38.987,1.2587e-05,-0.01056,-4.3334e-05,-420.18,2.1652
2048,22.162,5.4545,0,4.0284e-05,402.56,1.6653e-05,40.817,1.122e-05,-0.010063,-3.9434e-05,-380.6,2.1937
2049,22.346,5.4545,0,3.6472e-05,364.47,1.5548e-05,42.779,9.8536e-06,-0.0090425,-3.5555e-05,-341.19,2.2222
2050,22.53,5.4545,0,3.2699e-05,326.76,1.4467e-05,44.913,8.4886e-06,-0.0071698,-3.1703e-05,-301.99,2.2507
2051,22.713,5.4545,0,2.8975e-05,289.55,1.3416e-05,47.272,7.1239e-06,-0.0041231,-2.788e-05,-263.01,2.2793
2052,22.897,5.4545,0,2.5318e-05,253.01,1.2405e-05,49.941,5.7585e-06,0.0014742,-2.4096e-05,-224.31,2.3078
2053,23.081,5.4545,0,2.1756e-05,217.41,1.145e-05,53.05,4.3903e-06,0.0088273,-2.0362e-05,-185.97,2.3364
2054,23.265,5.4545,0,1.8336e-05,183.23,1.0575e-05,56.817,3.0171e-06,0.029911,-1.6696e-05,-148.09,2.365
2055,23.449,5.4545,0,1.5142e-05,151.32,9.8195e-06,61.568,1.6299e-06,0.033719,-1.3124e-05,-110.82,2.3936
2056,23.632,5.4545,0,1.2327e-05,123.19,9.2405e-06,67.88,2.3102e-07,0.18565,-9.6841e-06,-74.313,2.4222
2057,23.816,5.4545,0,1.0154e-05,101.47,8.9212e-06,76.333,-1.2417e-06,-0.027011,-6.4039e-06,-38.814,2.4508
2058,10.95,5.2727,0,0.00015919,1590.8,9.2187e-05,494.83,2.5533e-05,-5.9777,-0.00014485,-1286.2,0.60769
2059,11.134,5.2727,0,0.00015665,1565.5,7.5878e-05,297.04,3.615e-05,-1.4599,-0.00014947,-1396.2,0.63005
2060,11.318,5.2727,0,0.00016988,1697.6,7.3109e-05,206.42,4.5311e-05,-2.4452,-0.00016544,-1585.9,0.65246
2061,11.502,5.2727,0,0.00018603,1859,7.43e-05,155.41,5.3375e-05,-1.8157,-0.00018292,-1777.2,0.67494
2062,11.686,5.2727,0,0.00020121,2010.8,7.6643e-05,122.83,6.0096e-05,-1.4996,-0.00019886,-1947.2,0.69753
2063,11.869,5.2727,0,0.00021393,2137.8,7.8889e-05,99.248,6.5523e-05,-1.1778,-0.00021208,-2087,0.72025
2064,12.053,5.2727,0,0.00022379,2236.4,8.0564e-05,80.211,6.9762e-05,-0.94678,-0.00022233,-2195.6,0.74309
2065,12.237,5.2727,0,0.00023095,2307.9,8.1566e-05,63.853,7.2965e-05,-0.77613,-0.00022981,-2275.7,0.76608
2066,12.421,5.2727,0,0.00023576,2355.9,8.195e-05,49.438,7.5283e-05,-0.6597,-0.00023489,-2331.2,0.78922
2067,12.605,5.2727,0,0.00023858,2384.2,8.1822e-05,36.707,7.6858e-05,-0.5889,-0.00023795,-2365.9,0.81252
2068,12.788,5.2727,0,0.0002398,2396.3,8.1295e-05,25.579,7.7815e-05,-0.56541,-0.00023936,-2383.7,0.83598
2069,12.972,5.2727,0,0.00023971,2395.5,8.0475e-05,16.036,7.8259e-05,-0.61057,-0.00023945,-2387.7,0.8596
2070,13.156,5.2727,0,0.0002386,2384.4,7.9459e-05,8.1317,7.8267e-05,-0.82732,-0.00023848,-2380.7,0.88338
2071,13.34,5.2727,0,0.00023669,2365.2,7.8407e-05,2.4768,7.7825e-05,-1.8993,-0.00023668,-2364.9,0.90731
2072,13.524,5.2727,0,0.00023414,2339.8,7.7587e-05,0.6137,7.6778e-05,-5.4659,-0.00023422,-2342.2,0.93141
2073,13.707,5.2727,0,0.0002311,2309.4,7.6749e-05,0.26087,7.5469e-05,-9.3603,-0.00023126,-2314,0.95567
2074,13.891,5.2727,0,0.0002277,2275.4,7.5768e-05,0.14587,7.4093e-05,-12.436,-0.0002279,-2281.5,0.98008
2075,14.075,5.2727,0,0.00022401,2238.5,7.4655e-05,0.093734,7.2693e-05,-14.646,-0.00022425,-2245.8,1.0046
2076,14.259,5.2727,0,0.00022011,2199.5,7.3435e-05,0.065602,7.1286e-05,-16.079,-0.00022037,-2207.5,1.0294
2077,14.443,5.2727,0,0.00021604,2158.9,7.2131e-05,0.048694,6.9883e-05,-16.843,-0.00021632,-2167.3,1.0542
2078,14.626,5.2727,0,0.00021186,2117.2,7.0761e-05,0.037761,6.8487e-05,-17.043,-0.00021215,-2125.6,1.0792
2079,14.81,5.2727,0,0.0002076,2074.6,6.934e-05,0.030262,6.7103e-05,-16.778,-0.00020788,-2082.9,1.1044
2080,14.994,5.2727,0,0.00020328,2031.4,6.7881e-05,0.024877,6.573e-05,-16.136,-0.00020355,-2039.4,1.1297
2081,15.178,5.2727,0,0.00019891,1987.8,6.6394e-05,0.020867,6.4369e-05,-15.194,-0.00019917,-1995.3,1.1551
2082,15.362,5.2727,0,0.00019452,1943.9,6.4887e-05,0.017756,6.3019e-05,-14.019,-0.00019476,-1950.8,1.1807
2083,15.545,5.2727,0,0.00019012,1899.9,6.3366e-05,0.015316,6.1678e-05,-12.667,-0.00019033,-1906.1,1.2064
2084,15.729,5.2727,0,0.0001857,1855.8,6.1837e-05,0.01342,6.0346e-05,-11.185,-0.00018589,-1861.3,1.2322
2085,15.913,5.2727,0,0.00018129,1811.7,6.0302e-05,0.011951,5.9022e-05,-9.6116,-0.00018145,-1816.4,1.2582
2086,16.097,5.2727,0,0.00017688,1767.6,5.8766e-05,0.010865,5.7703e-05,-7.9788,-0.00017702,-1771.6,1.2842
2087,16.281,5.2727,0,0.00017248,1723.6,5.7231e-05,0.010189,5.639e-05,-6.3118,-0.00017259,-1726.7,1.3104
2088,16.464,5.2727,0,0.00016809,1679.7,5.5699e-05,0.010067,5.5081e-05,-4.6304,-0.00016817,-1682,1.3367
2089,16.648,5.2727,0,0.00016371,1635.9,5.4171e-05,0.011212,5.3776e-05,-2.9504,-0.00016376,-1637.4,1.3632
2090,16.832,5.2727,0,0.00015934,1592.3,5.2648e-05,0.017956,5.2474e-05,-1.2871,-0.00015936,-1593,1.3897
2091,17.016,5.2727,0,0.00015499,1548.8,5.1184e-05,0.41993,5.1123e-05,-0.03823,-0.00015498,-1548.6,1.4163
2092,17.2,5.2727,0,0.00015066,1505.5,4.9885e-05,2.0139,4.9616e-05,-0.0056758,-0.00015062,-1504.5,1.4431
2093,17.383,5.2727,0,0.00014634,1462.4,4.8593e-05,3.61,4.8112e-05,-0.0024584,-0.00014628,-1460.6,1.4699
2094,17.567,5.2727,0,0.00014203,1419.4,4.7304e-05,5.18,4.6615e-05,-0.0015923,-0.00014195,-1416.8,1.4969
2095,17.751,5.2727,0,0.00013775,1376.6,4.6019e-05,6.7225,4.5124e-05,-0.0013725,-0.00013763,-1373.2,1.5239
2096,17.935,5.2727,0,0.00013348,1333.9,4.4737e-05,8.2388,4.3641e-05,-0.0013897,-0.00013334,-1329.8,1.551
2097,18.119,5.2727,0,0.00012923,1291.4,4.3459e-05,9.7311,4.2164e-05,-0.0015182,-0.00012907,-1286.6,1.5782
2098,18.302,5.2727,0,0.000125,1249.2,4.2186e-05,11.202,4.0695e-05,-0.0017033,-0.00012481,-1243.5,1.6055
2099,18.486,5.2727,0,0.00012079,1207.1,4.0917e-05,12.657,3.9232e-05,-0.001918,-0.00012057,-1200.7,1.6329
2100,18.67,5.2727,0,0.0001166,1165.1,3.9652e-05,14.098,3.7776e-05,-0.0021723,-0.00011635,-1158,1.6604
2101,18.854,5.2727,0,0.00011242,1123.4,3.8394e-05,15.532,3.6326e-05,-0.0024354,-0.00011215,-1115.6,1.6879
2102,19.038,5.2727,0,0.00010826,1081.9,3.7141e-05,16.962,3.4883e-05,-0.0026787,-0.00010796,-1073.3,1.7156
2103,19.221,5.2727,0,0.00010412,1040.5,3.5894e-05,18.394,3.3445e-05,-0.0029148,-0.0001038,-1031.2,1.7433
2104,19.405,5.2727,0,0.0001,999.34,3.4654e-05,19.834,3.2013e-05,-0.0031414,-9.9651e-05,-989.28,1.771
2105,19.589,5.2727,0,9.5902e-05,958.36,3.3421e-05,21.287,3.0587e-05,-0.0033569,-9.5523e-05,-947.54,1.7988
2106,19.773,5.2727,0,9.182e-05,917.57,3.2196e-05,22.759,2.9166e-05,-0.003579,-9.1412e-05,-905.98,1.8267
2107,19.956,5.2727,0,8.7758e-05,876.97,3.0979e-05,24.255,2.775e-05,-0.0037877,-8.732e-05,-864.59,1.8547
2108,20.14,5.2727,0,8.3714e-05,836.56,2.977e-05,25.783,2.6338e-05,-0.0039577,-8.3246e-05,-823.38,1.8827
2109,20.324,5.2727,0,7.969e-05,796.35,2.8572e-05,27.349,2.4931e-05,-0.0040985,-7.919e-05,-782.33,1.9108
2110,20.508,5.2727,0,7.5686e-05,756.34,2.7383e-05,28.96,2.3528e-05,-0.0042037,-7.5152e-05,-741.44,1.9389
2111,20.692,5.2727,0,7.1702e-05,716.52,2.6204e-05,30.623,2.2128e-05,-0.0042552,-7.1132e-05,-700.72,1.9671
2112,20.875,5.2727,0,6.7738e-05,676.91,2.5037e-05,32.347,2.0732e-05,-0.0042622,-6.713e-05,-660.16,1.9953
2113,21.059,5.2727,0,6.3795e-05,637.51,2.3883e-05,34.14,1.9338e-05,-0.0041911,-6.3146e-05,-619.76,2.0235
2114,21.243,5.2727,0,5.9874e-05,598.33,2.2741e-05,36.015,1.7947e-05,-0.0039932,-5.918e-05,-579.51,2.0518
2115,21.427,5.2727,0,5.5977e-05,559.38,2.1614e-05,37.983,1.6559e-05,-0.0036505,-5.5234e-05,-539.43,2.0802
2116,21.611,5.2727,0,5.2104e-05,520.68,2.0503e-05,40.058,1.5172e-05,-0.0031036,-5.1307e-05,-499.5,2.1086
2117,21.794,5.2727,0,4.8259e-05,482.25,1.9411e-05,42.26,1.3786e-05,-0.0022839,-4.7401e-05,-459.73,2.137
2118,21.978,5.2727,0,4.4443e-05,444.13,1.8338e-05,44.611,1.2401e-05,-0.0011008,-4.3516e-05,-420.14,2.1654
2119,22.162,5.2727,0,4.0663e-05,406.35,1.729e-05,47.141,1.1016e-05,0.00061344,-3.9655e-05,-380.72,2.1939
2120,22.346,5.2727,0,3.6924e-05,368.99,1.627e-05,49.891,9.6301e-06,0.0030755,-3.5821e-05,-341.5,2.2224
2121,22.53,5.2727,0,3.3236e-05,332.13,1.5284e-05,52.913,8.2427e-06,0.0066571,-3.2018e-05,-302.5,2.2509
2122,22.713,5.2727,0,2.9614e-05,295.93,1.4341e-05,56.283,6.8522e-06,0.011735,-2.8252e-05,-263.75,2.2794
2123,22.897,5.2727,0,2.6078e-05,260.6,1.3454e-05,60.105,5.4568e-06,0.019788,-2.453e-05,-225.29,2.308
2124,23.081,5.2727,0,2.2661e-05,226.46,1.2637e-05,64.525,4.0535e-06,0.029967,-2.0863e-05,-187.18,2.3366
2125,23.265,5.2727,0,1.9416e-05,194.03,1.1915e-05,69.75,2.6389e-06,0.054631,-1.7265e-05,-149.5,2.3652
2126,23.449,5.2727,0,1.6421e-05,164.1,1.1314e-05,76.031,1.2037e-06,0.063886,-1.3749e-05,-112.29,2.3938
2127,23.632,5.2727,0,1.3807e-05,137.97,1.0866e-05,83.731,-2.4876e-07,0.22253,-1.033e-05,-75.524,2.4224
2128,23.816,5.2727,0,1.1781e-05,117.72,1.0608e-05,93.044,-1.7716e-06,0.027162,-7.0075e-06,-39.313,2.451
2129,10.95,5.0909,0,0.00020355,2034.1,0.00012243,694.31,2.9223e-05,-5.9882,-0.00018258,-1597.4,0.60873
2130,11.134,5.0909,0,0.0001933,1931.6,9.8837e-05,433.44,4.1005e-05,-1.0819,-0.00018224,-1678.4,0.631
2131,11.318,5.0909,0,0.00019995,1998.2,9.0093e-05,293.63,5.0697e-05,-2.3682,-0.00019335,-1836,0.65334
2132,11.502,5.0909,0,0.00021001,2098.7,8.6188e-05,203.92,5.8792e-05,-1.9152,-0.00020582,-1990.1,0.67576
2133,11.686,5.0909,0,0.00022004,2198.8,8.4645e-05,144.4,6.519e-05,-1.7745,-0.00021724,-2123.9,0.69829
2134,11.869,5.0909,0,0.00022857,2284.1,8.4106e-05,103.65,7.0103e-05,-1.5678,-0.00022665,-2231.3,0.72096
2135,12.053,5.0909,0,0.00023511,2349.5,8.384e-05,74.36,7.3754e-05,-1.4293,-0.00023378,-2312.1,0.74377
2136,12.237,5.0909,0,0.00023965,2394.9,8.3506e-05,52.298,7.6367e-05,-1.3445,-0.00023874,-2368.9,0.76673
2137,12.421,5.0909,0,0.00024239,2422.2,8.2977e-05,35.046,7.8133e-05,-1.3459,-0.0002418,-2405.2,0.78984
2138,12.605,5.0909,0,0.00024359,2434.3,8.2237e-05,21.293,7.9203e-05,-1.5024,-0.00024325,-2424.3,0.81312
2139,12.788,5.0909,0,0.00024353,2433.6,8.1347e-05,10.516,7.967e-05,-2.0855,-0.00024339,-2429.4,0.83656
2140,12.972,5.0909,0,0.00024245,2422.8,8.0516e-05,3.4959,7.9471e-05,-4.3493,-0.00024246,-2423.2,0.86017
2141,13.156,5.0909,0,0.00024056,2403.9,7.9947e-05,1.1237,7.8534e-05,-9.4943,-0.0002407,-2408.1,0.88393
2142,13.34,5.0909,0,0.00023803,2378.6,7.9326e-05,0.51039,7.7281e-05,-14.854,-0.00023827,-2385.8,0.90786
2143,13.524,5.0909,0,0.00023501,2348.4,7.8527e-05,0.28382,7.5928e-05,-19.24,-0.00023532,-2357.9,0.93195
2144,13.707,5.0909,0,0.00023161,2314.5,7.7559e-05,0.17683,7.4535e-05,-22.547,-0.00023198,-2325.6,0.9562
2145,13.891,5.0909,0,0.00022792,2277.6,7.6452e-05,0.11867,7.3128e-05,-24.857,-0.00022833,-2289.9,0.9806
2146,14.075,5.0909,0,0.00022402,2238.7,7.5232e-05,0.084064,7.1722e-05,-26.285,-0.00022445,-2251.6,1.0052
2147,14.259,5.0909,0,0.00021996,2198.1,7.3923e-05,0.06205,7.0327e-05,-26.956,-0.0002204,-2211.4,1.0299
2148,14.443,5.0909,0,0.00021578,2156.3,7.2545e-05,0.047351,6.8947e-05,-26.988,-0.00021623,-2169.7,1.0547
2149,14.626,5.0909,0,0.00021152,2113.8,7.1113e-05,0.037182,6.7583e-05,-26.49,-0.00021196,-2126.9,1.0797
2150,14.81,5.0909,0,0.0002072,2070.6,6.9641e-05,0.029906,6.6235e-05,-25.562,-0.00020762,-2083.2,1.1049
2151,14.994,5.0909,0,0.00020284,2027,6.814e-05,0.024564,6.4904e-05,-24.292,-0.00020324,-2039.1,1.1302
2152,15.178,5.0909,0,0.00019846,1983.2,6.6617e-05,0.020558,6.3585e-05,-22.756,-0.00019884,-1994.5,1.1556
2153,15.362,5.0909,0,0.00019406,1939.2,6.5079e-05,0.017465,6.2279e-05,-21.019,-0.00019441,-1949.7,1.1812
2154,15.545,5.0909,0,0.00018965,1895.2,6.3532e-05,0.015072,6.0983e-05,-19.138,-0.00018997,-1904.7,1.2068
2155,15.729,5.0909,0,0.00018525,1851.2,6.198e-05,0.013249,5.9695e-05,-17.157,-0.00018553,-1859.7,1.2327
2156,15.913,5.0909,0,0.00018084,1807.2,6.0427e-05,0.011866,5.8414e-05,-15.113,-0.0001811,-1814.7,1.2586
2157,16.097,5.0909,0,0.00017645,1763.3,5.8874e-05,0.010853,5.7137e-05,-13.038,-0.00017667,-1769.7,1.2847
2158,16.281,5.0909,0,0.00017206,1719.4,5.7324e-05,0.01018,5.5864e-05,-10.953,-0.00017225,-1724.9,1.3108
2159,16.464,5.0909,0,0.00016769,1675.7,5.5778e-05,0.0098419,5.4595e-05,-8.8785,-0.00016784,-1680.2,1.3371
2160,16.648,5.0909,0,0.00016333,1632.2,5.4237e-05,0.0099918,5.3328e-05,-6.8263,-0.00016344,-1635.6,1.3636
2161,16.832,5.0909,0,0.00015898,1588.7,5.2703e-05,0.011065,5.2062e-05,-4.8065,-0.00015906,-1591.1,1.3901
2162,17.016,5.0909,0,0.00015465,1545.5,5.1176e-05,0.014591,5.0798e-05,-2.8269,-0.0001547,-1546.9,1.4167
2163,17.2,5.0909,0,0.00015034,1502.3,4.9659e-05,0.035059,4.9534e-05,-0.90527,-0.00015035,-1502.8,1.4434
2164,17.383,5.0909,0,0.00014604,1459.4,4.8281e-05,1.0526,4.8138e-05,-0.022921,-0.00014602,-1458.8,1.4703
2165,17.567,5.0909,0,0.00014175,1416.6,4.7021e-05,2.8941,4.6635e-05,-0.0062554,-0.0001417,-1415.1,1.4972
2166,17.751,5.0909,0,0.00013749,1373.9,4.5764e-05,4.7094,4.5137e-05,-0.0028382,-0.00013741,-1371.6,1.5242
2167,17.935,5.0909,0,0.00013324,1331.5,4.4511e-05,6.4906,4.3647e-05,-0.0014628,-0.00013313,-1328.2,1.5514
2168,18.119,5.0909,0,0.00012901,1289.2,4.3261e-05,8.2405,4.2164e-05,-0.00076176,-0.00012887,-1285.1,1.5786
2169,18.302,5.0909,0,0.00012479,1247.1,4.2014e-05,9.9636,4.0688e-05,-0.00035455,-0.00012462,-1242.1,1.6059
2170,18.486,5.0909,0,0.0001206,1205.2,4.0771e-05,11.665,3.9219e-05,-9.2097e-05,-0.0001204,-1199.3,1.6332
2171,18.67,5.0909,0,0.00011642,1163.4,3.9533e-05,13.352,3.7756e-05,6.8277e-05,-0.00011619,-1156.7,1.6607
2172,18.854,5.0909,0,0.00011227,1121.9,3.8301e-05,15.029,3.6301e-05,0.00018517,-0.000112,-1114.3,1.6882
2173,19.038,5.0909,0,0.00010813,1080.5,3.7074e-05,16.705,3.4851e-05,0.00030432,-0.00010783,-1072.1,1.7159
2174,19.221,5.0909,0,0.00010401,1039.3,3.5854e-05,18.385,3.3407e-05,0.00042313,-0.00010368,-1030,1.7435
2175,19.405,5.0909,0,9.9905e-05,998.36,3.4641e-05,20.077,3.1969e-05,0.00055271,-9.9548e-05,-988.17,1.7713
2176,19.589,5.0909,0,9.5824e-05,957.58,3.3436e-05,21.789,3.0536e-05,0.00069709,-9.5434e-05,-946.49,1.7991
2177,19.773,5.0909,0,9.1762e-05,916.99,3.224e-05,23.529,2.9109e-05,0.00084652,-9.1339e-05,-905,1.827
2178,19.956,5.0909,0,8.7721e-05,876.61,3.1053e-05,25.304,2.7686e-05,0.0010255,-8.7263e-05,-863.68,1.8549
2179,20.14,5.0909,0,8.3701e-05,836.43,2.9877e-05,27.124,2.6267e-05,0.0012613,-8.3206e-05,-822.54,1.8829
2180,20.324,5.0909,0,7.9701e-05,796.46,2.8711e-05,28.998,2.4852e-05,0.0015514,-7.9168e-05,-781.56,1.911
2181,20.508,5.0909,0,7.5723e-05,756.71,2.7558e-05,30.935,2.3441e-05,0.001913,-7.5149e-05,-740.76,1.9391
2182,20.692,5.0909,0,7.1767e-05,717.17,2.6417e-05,32.946,2.2033e-05,0.0023546,-7.1149e-05,-700.13,1.9673
2183,20.875,5.0909,0,6.7834e-05,677.87,2.529e-05,35.042,2.0627e-05,0.0028842,-6.7169e-05,-659.67,1.9955
2184,21.059,5.0909,0,6.3924e-05,638.8,2.4179e-05,37.236,1.9224e-05,0.0035447,-6.3209e-05,-619.37,2.0237
2185,21.243,5.0909,0,6.004e-05,599.99,2.3085e-05,39.544,1.7823e-05,0.0043801,-5.9269e-05,-579.23,2.052
2186,21.427,5.0909,0,5.6183e-05,561.44,2.2009e-05,41.981,1.6422e-05,0.0054354,-5.5351e-05,-539.27,2.0804
2187,21.611,5.0909,0,5.2355e-05,523.19,2.0954e-05,44.569,1.5023e-05,0.0067649,-5.1454e-05,-499.47,2.1087
2188,21.794,5.0909,0,4.8559e-05,485.25,1.9922e-05,47.332,1.3623e-05,0.0084569,-4.758e-05,-459.85,2.1371
2189,21.978,5.0909,0,4.48e-05,447.69,1.8916e-05,50.299,1.2223e-05,0.010621,-4.3731e-05,-420.41,2.1656
2190,22.162,5.0909,0,4.1083e-05,410.54,1.7941e-05,53.509,1.0821e-05,0.013433,-3.991e-05,-381.16,2.194
2191,22.346,5.0909,0,3.7416e-05,373.9,1.7002e-05,57.009,9.4167e-06,0.017131,-3.6118e-05,-342.12,2.2225
2192,22.53,5.0909,0,3.3811e-05,337.87,1.6105e-05,60.862,8.0081e-06,0.02211,-3.2361e-05,-303.3,2.251
2193,22.713,5.0909,0,3.0283e-05,302.62,1.526e-05,65.148,6.5936e-06,0.028765,-2.8643e-05,-264.73,2.2796
2194,22.897,5.0909,0,2.6855e-05,268.37,1.4478e-05,69.97,5.171e-06,0.038601,-2.4972e-05,-226.44,2.3081
2195,23.081,5.0909,0,2.3562e-05,235.46,1.3773e-05,75.461,3.7368e-06,0.050828,-2.1353e-05,-188.47,2.3367
2196,23.265,5.0909,0,2.0453e-05,204.39,1.3162e-05,81.783,2.2875e-06,0.077994,-1.7796e-05,-150.82,2.3653
2197,23.449,5.0909,0,1.76e-05,175.88,1.2661e-05,89.099,8.1444e-07,0.090132,-1.4302e-05,-113.49,2.3939
2198,23.632,5.0909,0,1.5115e-05,151.05,1.2283e-05,97.627,-6.7612e-07,0.25685,-1.0875e-05,-76.374,2.4225
2199,23.816,5.0909,0,1.3177e-05,131.68,1.2049e-05,107.38,-2.2315e-06,0.078832,-7.5081e-06,-39.568,2.4511
2200,10.95,4.9091,0,0.00025607,2559,0.00015809,928.22,3.3548e-05,-7.5095,-0.00022723,-1966.9,0.60979
2201,11.134,4.9091,0,0.00023678,2366.2,0.00012522,584.76,4.7287e-05,-0.83032,-0.00022135,-2019.2,0.63196
2202,11.318,4.9091,0,0.00023577,2356.1,0.00010925,384.21,5.7757e-05,-2.6834,-0.00022688,-2141.4,0.6542
2203,11.502,4.9091,0,0.00023844,2382.8,9.9234e-05,248.58,6.587e-05,-2.1007,-0.00023326,-2249.6,0.67654
2204,11.686,4.9091,0,0.0002421,2419.4,9.3089e-05,158.23,7.1747e-05,-2.1232,-0.00023905,-2337.3,0.69901
2205,11.869,4.9091,0,0.00024549,2453.3,8.9315e-05,98.717,7.5895e-05,-2.1163,-0.0002437,-2403.4,0.72163
2206,12.053,4.9091,0,0.000248,2478.3,8.687e-05,59.062,7.8703e-05,-2.3049,-0.00024698,-2449.3,0.74439
2207,12.237,4.9091,0,0.00024941,2492.4,8.5127e-05,32.183,8.0469e-05,-2.8224,-0.00024889,-2477.5,0.76732
2208,12.421,4.9091,0,0.00024973,2495.6,8.3812e-05,14.227,8.1341e-05,-4.3415,-0.00024955,-2490.6,0.79041
2209,12.605,4.9091,0,0.00024907,2488.9,8.3032e-05,4.6904,8.12e-05,-9.0771,-0.00024914,-2491.1,0.81367
2210,12.788,4.9091,0,0.00024756,2473.9,8.2675e-05,1.7618,8.0199e-05,-16.839,-0.00024781,-2481.4,0.83709
2211,12.972,4.9091,0,0.00024536,2452,8.223e-05,0.86897,7.8917e-05,-24.024,-0.00024575,-2463.4,0.86068
2212,13.156,4.9091,0,0.00024261,2424.5,8.1571e-05,0.49895,7.755e-05,-29.718,-0.0002431,-2438.9,0.88444
2213,13.34,4.9091,0,0.00023942,2392.6,8.0713e-05,0.31293,7.6149e-05,-33.975,-0.00023998,-2409.2,0.90836
2214,13.524,4.9091,0,0.0002359,2357.3,7.9687e-05,0.20822,7.4739e-05,-36.966,-0.0002365,-2375.5,0.93244
2215,13.707,4.9091,0,0.00023211,2319.5,7.8526e-05,0.14477,7.3334e-05,-38.865,-0.00023275,-2338.6,0.95668
2216,13.891,4.9091,0,0.00022814,2279.8,7.7258e-05,0.10427,7.1943e-05,-39.828,-0.00022879,-2299.4,0.98108
2217,14.075,4.9091,0,0.00022402,2238.7,7.5906e-05,0.077361,7.0572e-05,-39.997,-0.00022467,-2258.4,1.0056
2218,14.259,4.9091,0,0.0002198,2196.5,7.4488e-05,0.058846,6.9222e-05,-39.503,-0.00022045,-2216,1.0303
2219,14.443,4.9091,0,0.00021551,2153.6,7.3019e-05,0.045777,6.7894e-05,-38.463,-0.00021614,-2172.6,1.0552
2220,14.626,4.9091,0,0.00021117,2110.3,7.1514e-05,0.036381,6.6587e-05,-36.983,-0.00021178,-2128.5,1.0802
2221,14.81,4.9091,0,0.0002068,2066.6,6.998e-05,0.02948,6.5298e-05,-35.154,-0.00020738,-2083.9,1.1053
2222,14.994,4.9091,0,0.00020241,2022.7,6.8428e-05,0.024337,6.4024e-05,-33.06,-0.00020295,-2039,1.1306
2223,15.178,4.9091,0,0.00019801,1978.7,6.6862e-05,0.020447,6.2764e-05,-30.769,-0.00019851,-1993.9,1.156
2224,15.362,4.9091,0,0.0001936,1934.7,6.5289e-05,0.017441,6.1515e-05,-28.341,-0.00019407,-1948.7,1.1816
2225,15.545,4.9091,0,0.0001892,1890.7,6.3712e-05,0.015123,6.0273e-05,-25.825,-0.00018962,-1903.5,1.2073
2226,15.729,4.9091,0,0.0001848,1846.7,6.2134e-05,0.01337,5.9037e-05,-23.261,-0.00018519,-1858.3,1.2331
2227,15.913,4.9091,0,0.00018041,1802.9,6.0558e-05,0.012047,5.7804e-05,-20.681,-0.00018075,-1813.1,1.259
2228,16.097,4.9091,0,0.00017603,1759.1,5.8987e-05,0.011078,5.6575e-05,-18.111,-0.00017633,-1768.1,1.2851
2229,16.281,4.9091,0,0.00017167,1715.5,5.742e-05,0.010413,5.5346e-05,-15.57,-0.00017193,-1723.2,1.3112
2230,16.464,4.9091,0,0.00016731,1672,5.586e-05,0.010006,5.4119e-05,-13.072,-0.00016753,-1678.5,1.3375
2231,16.648,4.9091,0,0.00016297,1628.6,5.4307e-05,0.0099203,5.2891e-05,-10.626,-0.00016315,-1633.9,1.3639
2232,16.832,4.9091,0,0.00015864,1585.4,5.2761e-05,0.0103,5.1663e-05,-8.2395,-0.00015878,-1589.4,1.3904
2233,17.016,4.9091,0,0.00015433,1542.3,5.1224e-05,0.011459,5.0435e-05,-5.9147,-0.00015443,-1545.2,1.4171
2234,17.2,4.9091,0,0.00015004,1499.3,4.9694e-05,0.014577,4.9206e-05,-3.6536,-0.0001501,-1501.2,1.4438
2235,17.383,4.9091,0,0.00014576,1456.6,4.8175e-05,0.027782,4.7976e-05,-1.4631,-0.00014578,-1457.3,1.4706
2236,17.567,4.9091,0,0.00014149,1414,4.6757e-05,0.75041,4.6652e-05,-0.039252,-0.00014148,-1413.6,1.4975
2237,17.751,4.9091,0,0.00013725,1371.5,4.5526e-05,2.8117,4.5151e-05,-0.0068946,-0.0001372,-1370.1,1.5246
2238,17.935,4.9091,0,0.00013302,1329.2,4.4301e-05,4.8532,4.3654e-05,-0.0020559,-0.00013293,-1326.8,1.5517
2239,18.119,4.9091,0,0.0001288,1287.1,4.3077e-05,6.8567,4.2165e-05,-0.00013694,-0.00012868,-1283.7,1.5789
2240,18.302,4.9091,0,0.00012461,1245.2,4.1857e-05,8.8271,4.0683e-05,0.00090905,-0.00012446,-1240.8,1.6062
2241,18.486,4.9091,0,0.00012043,1203.5,4.0641e-05,10.771,3.9207e-05,0.0015886,-0.00012024,-1198,1.6335
2242,18.67,4.9091,0,0.00011627,1161.9,3.9429e-05,12.697,3.7739e-05,0.002069,-0.00011605,-1155.5,1.661
2243,18.854,4.9091,0,0.00011213,1120.5,3.8222e-05,14.613,3.6277e-05,0.0024561,-0.00011188,-1113.2,1.6885
2244,19.038,4.9091,0,0.00010801,1079.4,3.7021e-05,16.528,3.4822e-05,0.0028181,-0.00010772,-1071,1.7161
2245,19.221,4.9091,0,0.00010391,1038.4,3.5827e-05,18.45,3.3372e-05,0.0031703,-0.00010358,-1029,1.7438
2246,19.405,4.9091,0,9.9827e-05,997.58,3.4641e-05,20.389,3.1928e-05,0.003525,-9.9464e-05,-987.23,1.7715
2247,19.589,4.9091,0,9.5765e-05,956.99,3.3464e-05,22.354,3.0489e-05,0.0038995,-9.5365e-05,-945.62,1.7994
2248,19.773,4.9091,0,9.1725e-05,916.61,3.2296e-05,24.355,2.9055e-05,0.0042797,-9.1286e-05,-904.19,1.8272
2249,19.956,4.9091,0,8.7705e-05,876.45,3.1139e-05,26.403,2.7625e-05,0.0047021,-8.7226e-05,-862.95,1.8552
2250,20.14,4.9091,0,8.3708e-05,836.5,2.9993e-05,28.509,2.62e-05,0.0051917,-8.3186e-05,-821.88,1.8832
2251,20.324,4.9091,0,7.9733e-05,796.78,2.8861e-05,30.683,2.4778e-05,0.005749,-7.9166e-05,-780.99,1.9112
2252,20.508,4.9091,0,7.5781e-05,757.29,2.7742e-05,32.939,2.3359e-05,0.0063925,-7.5167e-05,-740.28,1.9393
2253,20.692,4.9091,0,7.1853e-05,718.04,2.6638e-05,35.29,2.1943e-05,0.0071403,-7.1188e-05,-699.74,1.9675
2254,20.875,4.9091,0,6.7951e-05,679.04,2.5552e-05,37.75,2.0529e-05,0.0079956,-6.723e-05,-659.37,1.9957
2255,21.059,4.9091,0,6.4075e-05,640.31,2.4483e-05,40.334,1.9116e-05,0.0090107,-6.3293e-05,-619.18,2.0239
2256,21.243,4.9091,0,6.0227e-05,601.86,2.3435e-05,43.063,1.7705e-05,0.010233,-5.9379e-05,-579.17,2.0522
2257,21.427,4.9091,0,5.641e-05,563.71,2.2408e-05,45.955,1.6294e-05,0.011705,-5.5488e-05,-539.33,2.0805
2258,21.611,4.9091,0,5.2627e-05,525.9,2.1407e-05,49.036,1.4882e-05,0.013494,-5.162e-05,-499.66,2.1089
2259,21.794,4.9091,0,4.888e-05,488.46,2.0433e-05,52.334,1.347e-05,0.015689,-4.7778e-05,-460.18,2.1373
2260,21.978,4.9091,0,4.5175e-05,451.44,1.949e-05,55.884,1.2055e-05,0.018399,-4.3964e-05,-420.88,2.1657
2261,22.162,4.9091,0,4.1518e-05,414.9,1.8584e-05,59.727,1.0637e-05,0.021813,-4.0178e-05,-381.79,2.1942
2262,22.346,4.9091,0,3.7919e-05,378.93,1.7718e-05,63.914,9.2153e-06,0.026169,-3.6425e-05,-342.89,2.2227
2263,22.53,4.9091,0,3.4389e-05,343.65,1.6901e-05,68.508,7.7872e-06,0.031862,-3.2707e-05,-304.22,2.2512
2264,22.713,4.9091,0,3.0944e-05,309.23,1.6139e-05,73.585,6.3509e-06,0.039291,-2.9028e-05,-265.79,2.2797
2265,22.897,4.9091,0,2.7609e-05,275.9,1.5443e-05,79.237,4.9042e-06,0.049978,-2.5394e-05,-227.6,2.3083
2266,23.081,4.9091,0,2.4415e-05,243.98,1.4824e-05,85.568,3.4436e-06,0.063145,-2.1806e-05,-189.66,2.3368
2267,23.265,4.9091,0,2.1409e-05,213.94,1.4291e-05,92.696,1.9659e-06,0.091593,-1.827e-05,-151.95,2.3654
2268,23.449,4.9091,0,1.8658e-05,186.45,1.3854e-05,100.71,4.6335e-07,0.10516,-1.478e-05,-114.43,2.394
2269,23.632,4.9091,0,1.6263e-05,162.52,1.3517e-05,109.76,-1.0552e-06,0.27672,-1.1336e-05,-76.971,2.4226
2270,23.816,4.9091,0,1.4385e-05,143.75,1.3292e-05,119.77,-2.6331e-06,0.11106,-7.9308e-06,-39.694,2.4512
2271,10.95,4.7273,0,0.00032123,3210.1,0.00020169,1211.7,3.9546e-05,-6.5926,-0.00028289,-2429.2,0.61086
2272,11.134,4.7273,0,0.00028915,2889.5,0.00015541,746.23,5.5935e-05,-1.1512,-0.00026913,-2443.5,0.6329
2273,11.318,4.7273,0,0.00027741,2772.2,0.00012945,463.54,6.735e-05,-3.07,-0.00026661,-2512.3,0.65504
2274,11.502,4.7273,0,0.00027071,2705.2,0.0001122,276.43,7.5071e-05,-2.559,-0.00026497,-2557.5,0.67729
2275,11.686,4.7273,0,0.00026671,2665.3,0.00010104,155.74,7.9963e-05,-2.637,-0.00026375,-2585.2,0.69969
2276,11.869,4.7273,0,0.00026412,2639.3,9.3961e-05,79.948,8.2903e-05,-3.1387,-0.00026271,-2599.9,0.72225
2277,12.053,4.7273,0,0.00026203,2618.5,8.9501e-05,33.486,8.4398e-05,-4.8509,-0.00026152,-2603.9,0.74497
2278,12.237,4.7273,0,0.00025993,2597.6,8.7137e-05,9.4156,8.4343e-05,-11.578,-0.00025997,-2598.6,0.76786
2279,12.421,4.7273,0,0.00025758,2574,8.6494e-05,2.9698,8.2744e-05,-25.206,-0.00025795,-2585,0.79093
2280,12.605,4.7273,0,0.00025487,2547,8.605e-05,1.4114,8.0941e-05,-36.977,-0.00025546,-2564.5,0.81416
2281,12.788,4.7273,0,0.0002518,2516.3,8.5397e-05,0.8114,7.9257e-05,-45.321,-0.00025253,-2538.2,0.83757
2282,12.972,4.7273,0,0.00024841,2482.3,8.4529e-05,0.51266,7.7675e-05,-50.986,-0.00024922,-2507.2,0.86115
2283,13.156,4.7273,0,0.00024474,2445.7,8.3484e-05,0.3425,7.6165e-05,-54.648,-0.00024561,-2472.4,0.88489
2284,13.34,4.7273,0,0.00024085,2406.8,8.2296e-05,0.23771,7.4708e-05,-56.777,-0.00024176,-2434.6,0.9088
2285,13.524,4.7273,0,0.00023679,2366.3,8.0997e-05,0.16986,7.3295e-05,-57.698,-0.00023772,-2394.5,0.93288
2286,13.707,4.7273,0,0.00023261,2324.5,7.961e-05,0.12432,7.1922e-05,-57.647,-0.00023354,-2352.7,0.95711
2287,13.891,4.7273,0,0.00022834,2281.8,7.8157e-05,0.092909,7.0584e-05,-56.808,-0.00022925,-2309.7,0.9815
2288,14.075,4.7273,0,0.00022401,2238.5,7.6652e-05,0.070766,6.9279e-05,-55.331,-0.0002249,-2265.7,1.006
2289,14.259,4.7273,0,0.00021963,2194.8,7.511e-05,0.054822,6.8003e-05,-53.344,-0.00022049,-2221,1.0307
2290,14.443,4.7273,0,0.00021523,2150.8,7.3539e-05,0.04318,6.6752e-05,-50.954,-0.00021605,-2175.8,1.0556
2291,14.626,4.7273,0,0.00021082,2106.7,7.1949e-05,0.034602,6.5522e-05,-48.257,-0.0002116,-2130.4,1.0806
2292,14.81,4.7273,0,0.0002064,2062.5,7.0347e-05,0.028201,6.4309e-05,-45.335,-0.00020713,-2084.8,1.1057
2293,14.994,4.7273,0,0.00020198,2018.4,6.8737e-05,0.023378,6.3109e-05,-42.257,-0.00020266,-2039.2,1.131
2294,15.178,4.7273,0,0.00019756,1974.3,6.7123e-05,0.019718,6.1919e-05,-39.081,-0.0001982,-1993.5,1.1564
2295,15.362,4.7273,0,0.00019315,1930.2,6.551e-05,0.016887,6.0736e-05,-35.856,-0.00019374,-1947.9,1.182
2296,15.545,4.7273,0,0.00018876,1886.3,6.39e-05,0.014714,5.9557e-05,-32.621,-0.00018929,-1902.4,1.2076
2297,15.729,4.7273,0,0.00018437,1842.4,6.2294e-05,0.013085,5.8379e-05,-29.408,-0.00018485,-1857,1.2334
2298,15.913,4.7273,0,0.00018,1798.7,6.0695e-05,0.011868,5.7201e-05,-26.241,-0.00018043,-1811.7,1.2594
2299,16.097,4.7273,0,0.00017564,1755.1,5.9103e-05,0.010985,5.6022e-05,-23.137,-0.00017602,-1766.6,1.2854
2300,16.281,4.7273,0,0.00017129,1711.7,5.7519e-05,0.01038,5.4841e-05,-20.11,-0.00017162,-1721.7,1.3116
2301,16.464,4.7273,0,0.00016695,1668.4,5.5944e-05,0.0099903,5.3657e-05,-17.167,-0.00016724,-1676.9,1.3379
2302,16.648,4.7273,0,0.00016263,1625.2,5.4377e-05,0.0098442,5.2471e-05,-14.314,-0.00016287,-1632.3,1.3643
2303,16.832,4.7273,0,0.00015833,1582.2,5.282e-05,0.010018,5.1281e-05,-11.551,-0.00015852,-1587.9,1.3908
2304,17.016,4.7273,0,0.00015404,1539.3,5.1272e-05,0.010606,5.0089e-05,-8.8779,-0.00015418,-1543.7,1.4174
2305,17.2,4.7273,0,0.00014976,1496.6,4.9733e-05,0.011952,4.8894e-05,-6.2916,-0.00014987,-1499.7,1.4441
2306,17.383,4.7273,0,0.0001455,1454,4.8203e-05,0.015323,4.7697e-05,-3.7883,-0.00014556,-1455.9,1.4709
2307,17.567,4.7273,0,0.00014125,1411.6,4.6684e-05,0.030668,4.6498e-05,-1.3722,-0.00014128,-1412.2,1.4978
2308,17.751,4.7273,0,0.00013703,1369.3,4.5307e-05,1.0481,4.5164e-05,-0.025757,-0.00013701,-1368.8,1.5249
2309,17.935,4.7273,0,0.00013281,1327.2,4.4107e-05,3.3303,4.3663e-05,-0.003701,-0.00013276,-1325.5,1.552
2310,18.119,4.7273,0,0.00012862,1285.3,4.291e-05,5.5795,4.2167e-05,0.00041727,-0.00012852,-1282.5,1.5792
2311,18.302,4.7273,0,0.00012444,1243.5,4.1715e-05,7.7893,4.0679e-05,0.0022218,-0.00012431,-1239.6,1.6064
2312,18.486,4.7273,0,0.00012028,1202,4.0524e-05,9.968,3.9198e-05,0.003297,-0.00012011,-1197,1.6338
2313,18.67,4.7273,0,0.00011614,1160.6,3.9337e-05,12.125,3.7724e-05,0.0040452,-0.00011593,-1154.5,1.6612
2314,18.854,4.7273,0,0.00011202,1119.4,3.8155e-05,14.27,3.6256e-05,0.0046438,-0.00011177,-1112.2,1.6888
2315,19.038,4.7273,0,0.00010791,1078.4,3.6979e-05,16.415,3.4795e-05,0.0051992,-0.00010762,-1070.1,1.7164
2316,19.221,4.7273,0,0.00010383,1037.6,3.5811e-05,18.57,3.334e-05,0.0057239,-0.0001035,-1028.2,1.744
2317,19.405,4.7273,0,9.9766e-05,996.97,3.465e-05,20.745,3.189e-05,0.0062542,-9.9396e-05,-986.43,1.7718
2318,19.589,4.7273,0,9.5724e-05,956.58,3.35e-05,22.954,3.0446e-05,0.006799,-9.5312e-05,-944.89,1.7996
2319,19.773,4.7273,0,9.1703e-05,916.4,3.2359e-05,25.207,2.9006e-05,0.0073592,-9.1248e-05,-903.53,1.8274
2320,19.956,4.7273,0,8.7705e-05,876.45,3.1231e-05,27.517,2.757e-05,0.0079657,-8.7205e-05,-862.36,1.8554
2321,20.14,4.7273,0,8.3731e-05,836.73,3.0116e-05,29.896,2.6138e-05,0.0086467,-8.3182e-05,-821.38,1.8834
2322,20.324,4.7273,0,7.978e-05,797.25,2.9015e-05,32.36,2.4709e-05,0.0094096,-7.918e-05,-780.57,1.9114
2323,20.508,4.7273,0,7.5854e-05,758.02,2.7929e-05,34.922,2.3283e-05,0.010264,-7.5199e-05,-739.95,1.9395
2324,20.692,4.7273,0,7.1954e-05,719.04,2.6862e-05,37.598,2.1859e-05,0.011244,-7.124e-05,-699.5,1.9677
2325,20.875,4.7273,0,6.8082e-05,680.35,2.5813e-05,40.405,2.0437e-05,0.012342,-6.7304e-05,-659.24,1.9958
2326,21.059,4.7273,0,6.4239e-05,641.94,2.4785e-05,43.362,1.9016e-05,0.013618,-6.3391e-05,-619.16,2.0241
2327,21.243,4.7273,0,6.0426e-05,603.85,2.378e-05,46.49,1.7595e-05,0.015119,-5.9501e-05,-579.25,2.0524
2328,21.427,4.7273,0,5.6648e-05,566.09,2.2801e-05,49.811,1.6174e-05,0.016892,-5.5636e-05,-539.53,2.0807
2329,21.611,4.7273,0,5.2906e-05,528.7,2.185e-05,53.355,1.4751e-05,0.019003,-5.1796e-05,-499.99,2.1091
2330,21.794,4.7273,0,4.9206e-05,491.72,2.093e-05,57.15,1.3326e-05,0.021546,-4.7984e-05,-460.64,2.1374
2331,21.978,4.7273,0,4.5551e-05,455.2,2.0045e-05,61.234,1.1899e-05,0.024625,-4.4199e-05,-421.47,2.1659
2332,22.162,4.7273,0,4.195e-05,419.21,1.92e-05,65.649,1.0466e-05,0.028436,-4.0446e-05,-382.51,2.1943
2333,22.346,4.7273,0,3.8411e-05,383.85,1.8399e-05,70.445,9.0282e-06,0.033213,-3.6725e-05,-343.74,2.2228
2334,22.53,4.7273,0,3.4947e-05,349.23,1.7649e-05,75.679,7.5824e-06,0.039353,-3.3039e-05,-305.17,2.2513
2335,22.713,4.7273,0,3.1574e-05,315.52,1.6957e-05,81.42,6.127e-06,0.04726,-2.939e-05,-266.81,2.2798
2336,22.897,4.7273,0,2.8314e-05,282.94,1.6329e-05,87.741,4.6594e-06,0.05848,-2.5781e-05,-228.66,2.3084
2337,23.081,4.7273,0,2.5198e-05,251.81,1.5774e-05,94.722,3.1766e-06,0.072255,-2.2213e-05,-190.7,2.337
2338,23.265,4.7273,0,2.2271e-05,222.56,1.5296e-05,102.44,1.6757e-06,0.10159,-1.8685e-05,-152.88,2.3655
2339,23.449,4.7273,0,1.9595e-05,195.82,1.4901e-05,110.95,1.5032e-07,0.1163,-1.519e-05,-115.15,2.3941
2340,23.632,4.7273,0,1.7267e-05,172.55,1.4589e-05,120.34,-1.3892e-06,0.29159,-1.1728e-05,-77.392,2.4227
2341,23.816,4.7273,0,1.5432e-05,154.22,1.4367e-05,130.5,-2.9833e-06,0.13618,-8.291e-06,-39.744,2.4513
2342,10.95,4.5455,0,0.00040663,4063.5,0.00025733,1555.1,4.7711e-05,-19.857,-0.00035692,-3060.1,0.61195
2343,11.134,4.5455,0,0.00035214,3519,0.000188,892.08,6.8997e-05,-2.0584,-0.00032837,-2987.7,0.63384
2344,11.318,4.5455,0,0.00032484,3246.1,0.00014889,508.95,8.0685e-05,-3.514,-0.00031319,-2962.9,0.65584
2345,11.502,4.5455,0,0.00030579,3055.8,0.00012342,271.12,8.6904e-05,-3.2593,-0.00030031,-2912.6,0.67799
2346,11.686,4.5455,0,0.00029291,2927,0.00010748,128.23,8.9927e-05,-3.6717,-0.00029056,-2862.5,0.70032
2347,11.869,4.5455,0,0.00028373,2835.3,9.7695e-05,45.112,9.0866e-05,-6.1984,-0.00028303,-2815.5,0.72281
2348,12.053,4.5455,0,0.00027672,2765.3,9.3074e-05,8.6206,8.9131e-05,-21.01,-0.00027692,-2771.4,0.74549
2349,12.237,4.5455,0,0.00027091,2707.2,9.1882e-05,2.6738,8.543e-05,-45.807,-0.00027161,-2728.5,0.76835
2350,12.421,4.5455,0,0.00026573,2655.5,9.0901e-05,1.3481,8.2351e-05,-62.889,-0.00026672,-2685.7,0.79139
2351,12.605,4.5455,0,0.00026087,2606.9,8.9757e-05,0.81492,7.9905e-05,-73.206,-0.00026203,-2642.3,0.81461
2352,12.788,4.5455,0,0.00025616,2559.9,8.8463e-05,0.53642,7.7872e-05,-79.036,-0.0002574,-2598.2,0.838
2353,12.972,4.5455,0,0.00025151,2513.4,8.7054e-05,0.37071,7.6105e-05,-81.897,-0.0002528,-2553.2,0.86156
2354,13.156,4.5455,0,0.00024689,2467.2,8.556e-05,0.26425,7.4514e-05,-82.737,-0.00024819,-2507.4,0.8853
2355,13.34,4.5455,0,0.00024228,2421.2,8.4005e-05,0.19261,7.3045e-05,-82.151,-0.00024357,-2461.1,0.9092
2356,13.524,4.5455,0,0.00023769,2375.2,8.2404e-05,0.14292,7.1667e-05,-80.527,-0.00023895,-2414.4,0.93327
2357,13.707,4.5455,0,0.0002331,2329.4,8.077e-05,0.1077,7.0358e-05,-78.129,-0.00023433,-2367.4,0.9575
2358,13.891,4.5455,0,0.00022853,2283.8,7.9115e-05,0.082269,6.9102e-05,-75.152,-0.00022972,-2320.4,0.98188
2359,14.075,4.5455,0,0.00022398,2238.3,7.7445e-05,0.063711,6.7889e-05,-71.742,-0.00022512,-2273.3,1.0064
2360,14.259,4.5455,0,0.00021946,2193,7.5768e-05,0.049963,6.6708e-05,-68.017,-0.00022053,-2226.2,1.0311
2361,14.443,4.5455,0,0.00021495,2148,7.4086e-05,0.039709,6.5554e-05,-64.073,-0.00021597,-2179.3,1.056
2362,14.626,4.5455,0,0.00021046,2103.2,7.2406e-05,0.032038,6.4417e-05,-59.989,-0.00021142,-2132.5,1.0809
2363,14.81,4.5455,0,0.000206,2058.6,7.0728e-05,0.026256,6.3294e-05,-55.831,-0.00020689,-2085.9,1.1061
2364,14.994,4.5455,0,0.00020155,2014.2,6.9057e-05,0.021879,6.2179e-05,-51.654,-0.00020238,-2039.5,1.1313
2365,15.178,4.5455,0,0.00019713,1969.9,6.7393e-05,0.018549,6.1069e-05,-47.5,-0.00019789,-1993.2,1.1568
2366,15.362,4.5455,0,0.00019272,1925.9,6.5738e-05,0.015981,5.9959e-05,-43.404,-0.00019342,-1947.2,1.1823
2367,15.545,4.5455,0,0.00018833,1882,6.4092e-05,0.014017,5.8848e-05,-39.393,-0.00018897,-1901.4,1.208
2368,15.729,4.5455,0,0.00018396,1838.3,6.2457e-05,0.012564,5.7733e-05,-35.486,-0.00018454,-1855.8,1.2338
2369,15.913,4.5455,0,0.0001796,1794.8,6.0833e-05,0.011492,5.6613e-05,-31.698,-0.00018012,-1810.4,1.2597
2370,16.097,4.5455,0,0.00017526,1751.4,5.922e-05,0.010729,5.5487e-05,-28.037,-0.00017572,-1765.2,1.2857
2371,16.281,4.5455,0,0.00017093,1708.1,5.7618e-05,0.010215,5.4355e-05,-24.507,-0.00017133,-1720.3,1.3119
2372,16.464,4.5455,0,0.00016662,1665,5.6027e-05,0.0098824,5.3216e-05,-21.11,-0.00016697,-1675.5,1.3382
2373,16.648,4.5455,0,0.00016232,1622.1,5.4447e-05,0.0097495,5.2071e-05,-17.844,-0.00016261,-1630.9,1.3646
2374,16.832,4.5455,0,0.00015803,1579.2,5.2878e-05,0.0098584,5.092e-05,-14.705,-0.00015828,-1586.5,1.3911
2375,17.016,4.5455,0,0.00015376,1536.5,5.132e-05,0.010237,4.9763e-05,-11.686,-0.00015396,-1542.4,1.4177
2376,17.2,4.5455,0,0.0001495,1494,4.9772e-05,0.011025,4.8602e-05,-8.7796,-0.00014965,-1498.4,1.4444
2377,17.383,4.5455,0,0.00014526,1451.6,4.8233e-05,0.012648,4.7436e-05,-5.9782,-0.00014536,-1454.6,1.4712
2378,17.567,4.5455,0,0.00014104,1409.4,4.6705e-05,0.016897,4.6267e-05,-3.2736,-0.00014109,-1411,1.4981
2379,17.751,4.5455,0,0.00013682,1367.3,4.519e-05,0.052118,4.5092e-05,-0.6838,-0.00013684,-1367.6,1.5251
2380,17.935,4.5455,0,0.00013263,1325.4,4.3929e-05,1.9289,4.3672e-05,-0.0083538,-0.0001326,-1324.4,1.5522
2381,18.119,4.5455,0,0.00012845,1283.6,4.2757e-05,4.4105,4.217e-05,0.00084494,-0.00012838,-1281.4,1.5794
2382,18.302,4.5455,0,0.00012429,1242,4.1588e-05,6.8488,4.0676e-05,0.0035468,-0.00012417,-1238.6,1.6067
2383,18.486,4.5455,0,0.00012015,1200.6,4.042e-05,9.2505,3.919e-05,0.0049595,-0.00011999,-1196,1.634
2384,18.67,4.5455,0,0.00011602,1159.4,3.9257e-05,11.627,3.7711e-05,0.0058993,-0.00011582,-1153.6,1.6615
2385,18.854,4.5455,0,0.00011192,1118.4,3.8099e-05,13.99,3.6238e-05,0.0066428,-0.00011167,-1111.3,1.689
2386,19.038,4.5455,0,0.00010783,1077.6,3.6947e-05,16.352,3.4771e-05,0.0073186,-0.00010754,-1069.3,1.7166
2387,19.221,4.5455,0,0.00010376,1036.9,3.5802e-05,18.727,3.3311e-05,0.0079649,-0.00010343,-1027.4,1.7442
2388,19.405,4.5455,0,9.9719e-05,996.5,3.4667e-05,21.126,3.1856e-05,0.0086093,-9.9343e-05,-985.77,1.772
2389,19.589,4.5455,0,9.5696e-05,956.3,3.3541e-05,23.564,3.0406e-05,0.0092773,-9.5273e-05,-944.29,1.7998
2390,19.773,4.5455,0,9.1695e-05,916.32,3.2427e-05,26.055,2.896e-05,0.0099597,-9.1224e-05,-903.01,1.8276
2391,19.956,4.5455,0,8.7718e-05,876.57,3.1325e-05,28.612,2.7519e-05,0.010694,-8.7196e-05,-861.91,1.8556
2392,20.14,4.5455,0,8.3764e-05,837.07,3.0238e-05,31.25,2.6081e-05,0.01151,-8.3189e-05,-821,1.8835
2393,20.324,4.5455,0,7.9837e-05,797.82,2.9167e-05,33.986,2.4646e-05,0.012413,-7.9204e-05,-780.28,1.9116
2394,20.508,4.5455,0,7.5936e-05,758.83,2.8114e-05,36.836,2.3213e-05,0.013423,-7.5242e-05,-739.74,1.9397
2395,20.692,4.5455,0,7.2063e-05,720.13,2.708e-05,39.818,2.1782e-05,0.014555,-7.1302e-05,-699.39,1.9678
2396,20.875,4.5455,0,6.8219e-05,681.72,2.6067e-05,42.95,2.0353e-05,0.015827,-6.7386e-05,-659.22,1.996
2397,21.059,4.5455,0,6.4406e-05,643.62,2.5077e-05,46.253,1.8923e-05,0.017278,-6.3495e-05,-619.24,2.0242
2398,21.243,4.5455,0,6.0628e-05,605.86,2.4113e-05,49.752,1.7494e-05,0.018972,-5.9628e-05,-579.44,2.0525
2399,21.427,4.5455,0,5.6886e-05,568.46,2.3177e-05,53.47,1.6063e-05,0.020944,-5.5787e-05,-539.83,2.0808
2400,21.611,4.5455,0,5.3183e-05,531.46,2.2271e-05,57.436,1.463e-05,0.023267,-5.1972e-05,-500.4,2.1092
2401,21.794,4.5455,0,4.9525e-05,494.91,2.14e-05,61.682,1.3195e-05,0.026028,-4.8186e-05,-461.16,2.1376
2402,21.978,4.5455,0,4.5916e-05,458.85,2.0567e-05,66.244,1.1755e-05,0.029347,-4.4429e-05,-422.11,2.166
2403,22.162,4.5455,0,4.2364e-05,423.35,1.9776e-05,71.163,1.0309e-05,0.033396,-4.0702e-05,-383.25,2.1945
2404,22.346,4.5455,0,3.8878e-05,388.51,1.9031e-05,76.485,8.8568e-06,0.038429,-3.7008e-05,-344.57,2.2229
2405,22.53,4.5455,0,3.547e-05,354.45,1.8338e-05,82.261,7.3955e-06,0.044833,-3.3347e-05,-306.08,2.2514
2406,22.713,4.5455,0,3.2155e-05,321.33,1.7701e-05,88.547,5.9234e-06,0.053026,-2.972e-05,-267.76,2.28
2407,22.897,4.5455,0,2.8956e-05,289.36,1.7127e-05,95.402,4.4381e-06,0.064574,-2.6129e-05,-229.6,2.3085
2408,23.081,4.5455,0,2.5903e-05,258.85,1.6619e-05,102.88,2.9368e-06,0.078754,-2.2571e-05,-191.57,2.3371
2409,23.265,4.5455,0,2.3036e-05,230.21,1.6181e-05,111.04,1.4173e-06,0.10872,-1.9044e-05,-153.63,2.3656
2410,23.449,4.5455,0,2.0418e-05,204.04,1.5814e-05,119.9,-1.2607e-07,0.12426,-1.5541e-05,-115.7,2.3942
2411,23.632,4.5455,0,1.814e-05,181.28,1.5517e-05,129.53,-1.6815e-06,0.30242,-1.2062e-05,-77.692,2.4228
2412,23.816,4.5455,0,1.6339e-05,163.28,1.5295e-05,139.78,-3.2877e-06,0.15537,-8.5988e-06,-39.751,2.4514
2413,10.95,4.3636,0,0.0005308,5304.3,0.00033562,2043.7,6.453e-05,6.8059,-0.00046571,-3977.2,0.61306
2414,11.134,4.3636,0,0.00042819,4279,0.0002197,971.49,9.0458e-05,0.39559,-0.00040331,-3709.6,0.63475
2415,11.318,4.3636,0,0.00037525,3749.9,0.00016338,477.21,9.8638e-05,-9.258,-0.00036492,-3492.2,0.65661
2416,11.502,4.3636,0,0.00034222,3419.8,0.00013109,217.53,0.00010172,-3.1077,-0.00033804,-3307.3,0.67865
2417,11.686,4.3636,0,0.0003196,3193.8,0.00011185,72.669,0.00010129,-6.688,-0.00031841,-3160.1,0.70089
2418,11.869,4.3636,0,0.00030366,3034.5,0.00010243,10.496,9.7404e-05,-27.259,-0.00030393,-3042.7,0.72333
2419,12.053,4.3636,0,0.00029163,2914.3,9.9779e-05,2.7726,9.0462e-05,-67.232,-0.00029266,-2945.9,0.74596
2420,12.237,4.3636,0,0.00028204,2818.5,9.7741e-05,1.3852,8.5223e-05,-92.676,-0.00028348,-2862.9,0.76879
2421,12.421,4.3636,0,0.00027399,2738,9.5718e-05,0.84231,8.1412e-05,-106.64,-0.00027563,-2789.3,0.7918
2422,12.605,4.3636,0,0.00026694,2667.5,9.3693e-05,0.56411,7.8526e-05,-113.39,-0.00026867,-2722.1,0.815
2423,12.788,4.3636,0,0.00026055,2603.7,9.1678e-05,0.39674,7.6235e-05,-115.64,-0.00026232,-2659.4,0.83837
2424,12.972,4.3636,0,0.00025463,2544.5,8.9684e-05,0.28772,7.4337e-05,-115.02,-0.00025638,-2599.9,0.86193
2425,13.156,4.3636,0,0.00024904,2488.7,8.7713e-05,0.21275,7.2703e-05,-112.57,-0.00025076,-2542.9,0.88565
2426,13.34,4.3636,0,0.0002437,2435.4,8.577e-05,0.15957,7.1254e-05,-108.91,-0.00024537,-2487.9,0.90955
2427,13.524,4.3636,0,0.00023856,2384,8.3852e-05,0.1211,6.9936e-05,-104.44,-0.00024016,-2434.4,0.93361
2428,13.707,4.3636,0,0.00023358,2334.1,8.1962e-05,0.092856,6.8713e-05,-99.455,-0.00023511,-2382.2,0.95783
2429,13.891,4.3636,0,0.00022871,2285.6,8.0096e-05,0.071919,6.7558e-05,-94.132,-0.00023017,-2331.1,0.98222
2430,14.075,4.3636,0,0.00022395,2238,7.8255e-05,0.05628,6.6454e-05,-88.613,-0.00022533,-2280.9,1.0068
2431,14.259,4.3636,0,0.00021928,2191.2,7.6437e-05,0.044488,6.5384e-05,-83.003,-0.00022057,-2231.5,1.0314
2432,14.443,4.3636,0,0.00021467,2145.2,7.4642e-05,0.035577,6.4338e-05,-77.381,-0.00021588,-2182.8,1.0563
2433,14.626,4.3636,0,0.00021012,2099.7,7.2867e-05,0.028862,6.3306e-05,-71.809,-0.00021125,-2134.7,1.0813
2434,14.81,4.3636,0,0.00020561,2054.7,7.1113e-05,0.023774,6.2282e-05,-66.334,-0.00020666,-2087.1,1.1064
2435,14.994,4.3636,0,0.00020115,2010.1,6.9378e-05,0.01992,6.1258e-05,-60.991,-0.00020211,-2039.9,1.1317
2436,15.178,4.3636,0,0.00019672,1965.8,6.7662e-05,0.016998,6.0232e-05,-55.808,-0.00019761,-1993.1,1.1571
2437,15.362,4.3636,0,0.00019231,1921.8,6.5964e-05,0.014752,5.9201e-05,-50.803,-0.00019313,-1946.7,1.1826
2438,15.545,4.3636,0,0.00018793,1878,6.4283e-05,0.013054,5.816e-05,-45.988,-0.00018867,-1900.6,1.2083
2439,15.729,4.3636,0,0.00018357,1834.5,6.2618e-05,0.011817,5.711e-05,-41.369,-0.00018424,-1854.8,1.2341
2440,15.913,4.3636,0,0.00017923,1791.1,6.0968e-05,0.010925,5.605e-05,-36.948,-0.00017983,-1809.3,1.26
2441,16.097,4.3636,0,0.00017491,1747.9,5.9334e-05,0.01031,5.4978e-05,-32.723,-0.00017544,-1764,1.286
2442,16.281,4.3636,0,0.0001706,1704.8,5.7714e-05,0.0099129,5.3895e-05,-28.69,-0.00017107,-1719,1.3122
2443,16.464,4.3636,0,0.00016631,1661.9,5.6108e-05,0.0096694,5.2801e-05,-24.841,-0.00016672,-1674.2,1.3385
2444,16.648,4.3636,0,0.00016203,1619.2,5.4515e-05,0.0095903,5.1696e-05,-21.168,-0.00016238,-1629.6,1.3648
2445,16.832,4.3636,0,0.00015776,1576.5,5.2935e-05,0.0097017,5.0583e-05,-17.66,-0.00015805,-1585.3,1.3913
2446,17.016,4.3636,0,0.00015351,1534,5.1366e-05,0.010006,4.9461e-05,-14.305,-0.00015375,-1541.1,1.4179
2447,17.2,4.3636,0,0.00014927,1491.7,4.9809e-05,0.010569,4.8331e-05,-11.09,-0.00014946,-1497.2,1.4446
2448,17.383,4.3636,0,0.00014505,1449.5,4.8263e-05,0.011569,4.7196e-05,-8.0039,-0.00014518,-1453.5,1.4715
2449,17.567,4.3636,0,0.00014084,1407.4,4.6727e-05,0.013616,4.6055e-05,-5.0327,-0.00014092,-1409.9,1.4984
2450,17.751,4.3636,0,0.00013664,1365.5,4.5202e-05,0.020658,4.4911e-05,-2.167,-0.00013668,-1366.6,1.5254
2451,17.935,4.3636,0,0.00013247,1323.8,4.3772e-05,0.67124,4.3678e-05,-0.031092,-0.00013246,-1323.4,1.5524
2452,18.119,4.3636,0,0.0001283,1282.2,4.262e-05,3.3531,4.2174e-05,0.0011057,-0.00012825,-1280.5,1.5796
2453,18.302,4.3636,0,0.00012416,1240.7,4.1474e-05,6.0052,4.0675e-05,0.0048918,-0.00012406,-1237.7,1.6069
2454,18.486,4.3636,0,0.00012003,1199.5,4.0329e-05,8.6154,3.9183e-05,0.006559,-0.00011988,-1195.2,1.6342
2455,18.67,4.3636,0,0.00011592,1158.4,3.9188e-05,11.196,3.7699e-05,0.0076154,-0.00011573,-1152.8,1.6617
2456,18.854,4.3636,0,0.00011183,1117.6,3.8052e-05,13.762,3.6222e-05,0.00844,-0.00011159,-1110.6,1.6892
2457,19.038,4.3636,0,0.00010776,1076.9,3.6922e-05,16.327,3.475e-05,0.0091882,-0.00010747,-1068.6,1.7168
2458,19.221,4.3636,0,0.00010371,1036.4,3.58e-05,18.906,3.3285e-05,0.0099104,-0.00010338,-1026.8,1.7444
2459,19.405,4.3636,0,9.9684e-05,996.15,3.4687e-05,21.513,3.1825e-05,0.010634,-9.9301e-05,-985.22,1.7722
2460,19.589,4.3636,0,9.5678e-05,956.12,3.3585e-05,24.164,3.037e-05,0.011382,-9.5244e-05,-943.81,1.8
2461,19.773,4.3636,0,9.1696e-05,916.33,3.2495e-05,26.874,2.892e-05,0.012152,-9.1209e-05,-902.59,1.8278
2462,19.956,4.3636,0,8.7738e-05,876.77,3.1419e-05,29.66,2.7473e-05,0.012977,-8.7195e-05,-861.56,1.8557
2463,20.14,4.3636,0,8.3805e-05,837.47,3.0358e-05,32.537,2.603e-05,0.013892,-8.3204e-05,-820.72,1.8837
2464,20.324,4.3636,0,7.9899e-05,798.44,2.9315e-05,35.524,2.4589e-05,0.014896,-7.9235e-05,-780.08,1.9117
2465,20.508,4.3636,0,7.6021e-05,759.69,2.829e-05,38.639,2.315e-05,0.016011,-7.529e-05,-739.62,1.9398
2466,20.692,4.3636,0,7.2173e-05,721.23,2.7287e-05,41.901,2.1713e-05,0.01726,-7.1368e-05,-699.36,1.968
2467,20.875,4.3636,0,6.8356e-05,683.08,2.6307e-05,45.331,2.0276e-05,0.01865,-6.7471e-05,-659.28,1.9961
2468,21.059,4.3636,0,6.4572e-05,645.27,2.5352e-05,48.952,1.884e-05,0.020229,-6.3599e-05,-619.39,2.0244
2469,21.243,4.3636,0,6.0824e-05,607.82,2.4425e-05,52.786,1.7402e-05,0.02205,-5.9753e-05,-579.69,2.0527
2470,21.427,4.3636,0,5.7114e-05,570.75,2.3528e-05,56.861,1.5963e-05,0.024161,-5.5934e-05,-540.18,2.081
2471,21.611,4.3636,0,5.3447e-05,534.1,2.2664e-05,61.206,1.4521e-05,0.026624,-5.2142e-05,-500.85,2.1093
2472,21.794,4.3636,0,4.9827e-05,497.93,2.1836e-05,65.851,1.3075e-05,0.029537,-4.8379e-05,-461.71,2.1377
2473,21.978,4.3636,0,4.6259e-05,462.27,2.1047e-05,70.831,1.1625e-05,0.033002,-4.4644e-05,-422.75,2.1661
2474,22.162,4.3636,0,4.2749e-05,427.2,2.0302e-05,76.185,1.0168e-05,0.03721,-4.094e-05,-383.97,2.1946
2475,22.346,4.3636,0,3.9308e-05,392.81,1.9604e-05,81.954,8.7024e-06,0.042399,-3.7267e-05,-345.35,2.223
2476,22.53,4.3636,0,3.5947e-05,359.22,1.8957e-05,88.18,7.2277e-06,0.048974,-3.3625e-05,-306.9,2.2515
2477,22.713,4.3636,0,3.268e-05,326.58,1.8365e-05,94.909,5.7413e-06,0.057354,-3.0014e-05,-268.59,2.2801
2478,22.897,4.3636,0,2.953e-05,295.1,1.7832e-05,102.18,4.2411e-06,0.06913,-2.6433e-05,-230.41,2.3086
2479,23.081,4.3636,0,2.6525e-05,265.07,1.736e-05,110.05,2.7246e-06,0.083612,-2.288e-05,-192.3,2.3372
2480,23.265,4.3636,0,2.3706e-05,236.9,1.6951e-05,118.53,1.1901e-06,0.11406,-1.9351e-05,-154.23,2.3657
2481,23.449,4.3636,0,2.1133e-05,211.19,1.6604e-05,127.64,-3.674e-07,0.13027,-1.584e-05,-116.12,2.3943
2482,23.632,4.3636,0,1.8895e-05,188.82,1.6317e-05,137.45,-1.9352e-06,0.31068,-1.2345e-05,-77.907,2.4229
2483,23.816,4.3636,0,1.7119e-05,171.07,1.6093e-05,147.76,-3.5504e-06,0.1706,-8.8611e-06,-39.732,2.4515
2484,10.95,4.1818,0,0.00071564,7151.5,0.00042034,2251.8,0.00010456,-120.89,-0.00064921,-5784.5,0.61415
2485,11.134,4.1818,0,0.00051345,5130.9,0.00024088,880.79,0.00012445,6.0245,-0.00049273,-4631.3,0.63562
2486,11.318,4.1818,0,0.00042612,4258.2,0.00016927,343.04,0.00012269,-6.8947,-0.00041932,-4079.4,0.65732
2487,11.502,4.1818,0,0.00037809,3778.3,0.00013482,117.56,0.00011843,-5.5845,-0.00037603,-3720.8,0.67925
2488,11.686,4.1818,0,0.00034608,3458.4,0.00011678,14.317,0.00011116,-27.95,-0.00034629,-3465,0.70141
2489,11.869,4.1818,0,0.00032342,3232,0.00011122,3.0407,9.9346e-05,-86.199,-0.00032475,-3272.7,0.72379
2490,12.053,4.1818,0,0.00030643,3062.2,0.00010729,1.4203,9.0679e-05,-123.39,-0.00030831,-3121.3,0.74638
2491,12.237,4.1818,0,0.00029309,2928.9,0.0001038,0.87502,8.4621e-05,-143.23,-0.00029524,-2997.4,0.76917
2492,12.421,4.1818,0,0.00028217,2819.8,0.00010061,0.58739,8.0262e-05,-152.28,-0.00028444,-2892.5,0.79216
2493,12.605,4.1818,0,0.00027293,2727.4,9.7653e-05,0.41962,7.7015e-05,-154.65,-0.00027522,-2801.2,0.81534
2494,12.788,4.1818,0,0.00026487,2646.9,9.4896e-05,0.30803,7.4508e-05,-152.88,-0.00026713,-2719.9,0.8387
2495,12.972,4.1818,0,0.00025768,2575,9.2305e-05,0.23055,7.2504e-05,-148.55,-0.00025988,-2646,0.86224
2496,13.156,4.1818,0,0.00025113,2509.6,8.9853e-05,0.17451,7.0847e-05,-142.63,-0.00025325,-2577.8,0.88596
2497,13.34,4.1818,0,0.00024508,2449.1,8.7519e-05,0.13324,6.9432e-05,-135.77,-0.0002471,-2514.1,0.90985
2498,13.524,4.1818,0,0.00023941,2392.4,8.5286e-05,0.10248,6.8187e-05,-128.37,-0.00024133,-2454,0.93391
2499,13.707,4.1818,0,0.00023403,2338.7,8.3138e-05,0.079386,6.7062e-05,-120.71,-0.00023585,-2396.6,0.95813
2500,13.891,4.1818,0,0.00022888,2287.2,8.1063e-05,0.06196,6.6019e-05,-112.97,-0.00023059,-2341.6,0.98251
2501,14.075,4.1818,0,0.00022392,2237.6,7.9051e-05,0.048773,6.5032e-05,-105.29,-0.00022552,-2288.4,1.007
2502,14.259,4.1818,0,0.0002191,2189.5,7.7094e-05,0.03873,6.408e-05,-97.746,-0.0002206,-2236.7,1.0317
2503,14.443,4.1818,0,0.0002144,2142.5,7.5185e-05,0.031094,6.3148e-05,-90.41,-0.00021579,-2186.3,1.0566
2504,14.626,4.1818,0,0.00020979,2096.4,7.3318e-05,0.025329,6.2225e-05,-83.322,-0.00021108,-2136.8,1.0815
2505,14.81,4.1818,0,0.00020525,2051,7.1488e-05,0.020969,6.1302e-05,-76.51,-0.00020644,-2088.2,1.1067
2506,14.994,4.1818,0,0.00020076,2006.3,6.969e-05,0.017677,6.0373e-05,-69.991,-0.00020186,-2040.3,1.1319
2507,15.178,4.1818,0,0.00019633,1961.9,6.7923e-05,0.015206,5.9433e-05,-63.773,-0.00019733,-1993,1.1573
2508,15.362,4.1818,0,0.00019193,1918,6.6182e-05,0.01332,5.848e-05,-57.859,-0.00019285,-1946.2,1.1829
2509,15.545,4.1818,0,0.00018756,1874.3,6.4466e-05,0.011916,5.7511e-05,-52.243,-0.00018839,-1899.9,1.2085
2510,15.729,4.1818,0,0.00018322,1830.9,6.2772e-05,0.010923,5.6525e-05,-46.919,-0.00018397,-1853.9,1.2343
2511,15.913,4.1818,0,0.00017889,1787.7,6.1098e-05,0.010233,5.5523e-05,-41.876,-0.00017957,-1808.3,1.2602
2512,16.097,4.1818,0,0.00017459,1744.7,5.9443e-05,0.0097824,5.4504e-05,-37.101,-0.00017519,-1762.9,1.2863
2513,16.281,4.1818,0,0.0001703,1701.8,5.7806e-05,0.0095223,5.3468e-05,-32.58,-0.00017083,-1717.9,1.3124
2514,16.464,4.1818,0,0.00016603,1659.1,5.6185e-05,0.0093832,5.2418e-05,-28.296,-0.00016649,-1673.1,1.3387
2515,16.648,4.1818,0,0.00016177,1616.5,5.4579e-05,0.0093775,5.1353e-05,-24.232,-0.00016216,-1628.5,1.3651
2516,16.832,4.1818,0,0.00015752,1574.1,5.2988e-05,0.0095301,5.0275e-05,-20.373,-0.00015785,-1584.2,1.3916
2517,17.016,4.1818,0,0.00015328,1531.8,5.141e-05,0.0098234,4.9186e-05,-16.699,-0.00015356,-1540.1,1.4182
2518,17.2,4.1818,0,0.00014906,1489.6,4.9844e-05,0.010289,4.8087e-05,-13.195,-0.00014928,-1496.2,1.4449
2519,17.383,4.1818,0,0.00014486,1447.6,4.8291e-05,0.011015,4.6979e-05,-9.8424,-0.00014502,-1452.5,1.4717
2520,17.567,4.1818,0,0.00014066,1405.7,4.6748e-05,0.012254,4.5865e-05,-6.6242,-0.00014078,-1409,1.4986
2521,17.751,4.1818,0,0.00013649,1363.9,4.5216e-05,0.015286,4.4745e-05,-3.5247,-0.00013655,-1365.7,1.5256
2522,17.935,4.1818,0,0.00013232,1322.3,4.3698e-05,0.04718,4.3618e-05,-0.55388,-0.00013233,-1322.6,1.5526
2523,18.119,4.1818,0,0.00012818,1280.9,4.2499e-05,2.4117,4.2179e-05,0.0010977,-0.00012813,-1279.7,1.5798
2524,18.302,4.1818,0,0.00012405,1239.6,4.1374e-05,5.2595,4.0675e-05,0.0062523,-0.00012395,-1237,1.6071
2525,18.486,4.1818,0,0.00011993,1198.5,4.025e-05,8.0605,3.9178e-05,0.0080672,-0.00011979,-1194.4,1.6344
2526,18.67,4.1818,0,0.00011584,1157.6,3.9129e-05,10.828,3.7689e-05,0.0091599,-0.00011565,-1152.1,1.6619
2527,18.854,4.1818,0,0.00011176,1116.8,3.8013e-05,13.578,3.6208e-05,0.010017,-0.00011152,-1110,1.6894
2528,19.038,4.1818,0,0.00010771,1076.3,3.6904e-05,16.328,3.4732e-05,0.010804,-0.00010742,-1068.1,1.7169
2529,19.221,4.1818,0,0.00010367,1036,3.5802e-05,19.092,3.3262e-05,0.011565,-0.00010333,-1026.3,1.7446
2530,19.405,4.1818,0,9.9659e-05,995.9,3.471e-05,21.887,3.1798e-05,0.012338,-9.9268e-05,-984.77,1.7723
2531,19.589,4.1818,0,9.5669e-05,956.03,3.3629e-05,24.731,3.0339e-05,0.01314,-9.5224e-05,-943.42,1.8001
2532,19.773,4.1818,0,9.1703e-05,916.4,3.2561e-05,27.641,2.8884e-05,0.013968,-9.1202e-05,-902.26,1.828
2533,19.956,4.1818,0,8.7763e-05,877.02,3.1507e-05,30.633,2.7432e-05,0.014859,-8.7201e-05,-861.3,1.8559
2534,20.14,4.1818,0,8.3849e-05,837.91,3.0471e-05,33.727,2.5984e-05,0.015839,-8.3224e-05,-820.53,1.8838
2535,20.324,4.1818,0,7.9963e-05,799.07,2.9452e-05,36.941,2.4538e-05,0.016916,-7.927e-05,-779.96,1.9119
2536,20.508,4.1818,0,7.6106e-05,760.53,2.8454e-05,40.295,2.3094e-05,0.018108,-7.534e-05,-739.58,1.94
2537,20.692,4.1818,0,7.228e-05,722.3,2.7479e-05,43.809,2.1651e-05,0.019437,-7.1434e-05,-699.39,1.9681
2538,20.875,4.1818,0,6.8487e-05,684.39,2.6528e-05,47.506,2.0208e-05,0.02091,-6.7554e-05,-659.39,1.9963
2539,21.059,4.1818,0,6.4728e-05,646.84,2.5604e-05,51.408,1.8765e-05,0.022576,-6.37e-05,-619.59,2.0245
2540,21.243,4.1818,0,6.1008e-05,609.66,2.471e-05,55.541,1.7321e-05,0.02449,-5.9873e-05,-579.98,2.0528
2541,21.427,4.1818,0,5.7328e-05,572.88,2.3847e-05,59.931,1.5874e-05,0.026691,-5.6072e-05,-540.55,2.0811
2542,21.611,4.1818,0,5.3692e-05,536.55,2.3019e-05,64.606,1.4424e-05,0.029252,-5.23e-05,-501.31,2.1094
2543,21.794,4.1818,0,5.0104e-05,500.69,2.2228e-05,69.597,1.2969e-05,0.032257,-4.8555e-05,-462.24,2.1378
2544,21.978,4.1818,0,4.657e-05,465.38,2.1478e-05,74.936,1.1509e-05,0.035818,-4.484e-05,-423.35,2.1662
2545,22.162,4.1818,0,4.3097e-05,430.67,2.0772e-05,80.658,1.0042e-05,0.040124,-4.1154e-05,-384.63,2.1947
2546,22.346,4.1818,0,3.9693e-05,396.66,2.0112e-05,86.797,8.5661e-06,0.045416,-3.7498e-05,-346.06,2.2231
2547,22.53,4.1818,0,3.637e-05,363.45,1.9503e-05,93.392,7.0799e-06,0.052103,-3.387e-05,-307.63,2.2516
2548,22.713,4.1818,0,3.3143e-05,331.2,1.8946e-05,100.48,5.5815e-06,0.060611,-3.027e-05,-269.31,2.2802
2549,22.897,4.1818,0,3.0032e-05,300.11,1.8444e-05,108.08,4.069e-06,0.072558,-2.6696e-05,-231.08,2.3087
2550,23.081,4.1818,0,2.7065e-05,270.46,1.7999e-05,116.24,2.54e-06,0.087272,-2.3144e-05,-192.89,2.3373
2551,23.265,4.1818,0,2.4284e-05,242.67,1.7611e-05,124.97,9.9349e-07,0.11811,-1.9612e-05,-154.7,2.3658
2552,23.449,4.1818,0,2.1746e-05,217.31,1.7278e-05,134.28,-5.7521e-07,0.13484,-1.6091e-05,-116.45,2.3944
2553,23.632,4.1818,0,1.9539e-05,195.26,1.6998e-05,144.21,-2.1526e-06,0.31703,-1.2584e-05,-78.061,2.423
2554,23.816,4.1818,0,1.7783e-05,177.71,1.6772e-05,154.56,-3.7748e-06,0.18271,-9.0829e-06,-39.7,2.4516
2555,10.95,4,0,0.00087547,8748.7,0.00042742,1458.1,0.00017471,-440.7,-0.00084256,-8084.1,0.61519
2556,11.134,4,0,0.00058173,5813.3,0.00022956,491.23,0.00017241,61.842,-0.00057113,-5524.9,0.63642
2557,11.318,4,0,0.00047484,4745.1,0.00017157,171,0.000147,-13.585,-0.00047189,-4663.7,0.65797
2558,11.502,4,0,0.00041299,4127.1,0.00013897,22.081,0.00013377,-16.981,-0.00041289,-4124.4,0.67979
2559,11.686,4,0,0.00037179,3715.3,0.00012761,2.4335,0.00011452,-95.962,-0.00037328,-3761.1,0.70187
2560,11.869,4,0,0.00034267,3424.4,0.00012048,1.5441,0.00010052,-148.41,-0.00034492,-3495.3,0.7242
2561,12.053,4,0,0.00032083,3206.1,0.00011461,0.84351,9.088e-05,-177.49,-0.00032347,-3290.7,0.74674
2562,12.237,4,0,0.00030382,3036.1,0.00010964,0.61191,8.4087e-05,-191.4,-0.00030661,-3127,0.7695
2563,12.421,4,0,0.0002901,2899,0.0001053,0.43642,7.9192e-05,-195.73,-0.00029292,-2991.7,0.79247
2564,12.605,4,0,0.00027871,2785.2,0.00010144,0.32775,7.5582e-05,-193.99,-0.0002815,-2877,0.81563
2565,12.788,4,0,0.00026903,2688.4,9.797e-05,0.24772,7.2855e-05,-188.46,-0.00027173,-2777.5,0.83898
2566,12.972,4,0,0.0002606,2604.2,9.4805e-05,0.18932,7.0743e-05,-180.6,-0.0002632,-2689.7,0.86251
2567,13.156,4,0,0.00025313,2529.5,9.189e-05,0.14528,6.906e-05,-171.39,-0.0002556,-2610.8,0.88622
2568,13.34,4,0,0.00024638,2462.1,8.9182e-05,0.11195,6.7679e-05,-161.45,-0.00024873,-2538.8,0.91011
2569,13.524,4,0,0.0002402,2400.3,8.6646e-05,0.086639,6.6508e-05,-151.22,-0.00024241,-2472.3,0.93416
2570,13.707,4,0,0.00023445,2342.9,8.4252e-05,0.067373,6.5481e-05,-140.97,-0.00023653,-2410.1,0.95838
2571,13.891,4,0,0.00022904,2288.8,8.1977e-05,0.05271,6.455e-05,-130.89,-0.00023098,-2351.4,0.98275
2572,14.075,4,0,0.00022389,2237.3,7.9803e-05,0.041557,6.368e-05,-121.1,-0.0002257,-2295.4,1.0073
2573,14.259,4,0,0.00021894,2187.9,7.7714e-05,0.033039,6.2845e-05,-111.68,-0.00022062,-2241.5,1.032
2574,14.443,4,0,0.00021415,2140,7.5696e-05,0.026568,6.2027e-05,-102.68,-0.00021571,-2189.5,1.0568
2575,14.626,4,0,0.00020948,2093.4,7.3741e-05,0.021705,6.1211e-05,-94.124,-0.00021092,-2138.8,1.0818
2576,14.81,4,0,0.00020491,2047.7,7.1838e-05,0.018054,6.0387e-05,-86.02,-0.00020624,-2089.3,1.1069
2577,14.994,4,0,0.00020041,2002.8,6.9982e-05,0.015329,5.955e-05,-78.368,-0.00020163,-2040.8,1.1322
2578,15.178,4,0,0.00019598,1958.4,6.8166e-05,0.013311,5.8694e-05,-71.156,-0.00019709,-1993,1.1576
2579,15.362,4,0,0.00019158,1914.5,6.6385e-05,0.011798,5.7816e-05,-64.371,-0.0001926,-1945.9,1.1831
2580,15.545,4,0,0.00018722,1871,6.4635e-05,0.010698,5.6916e-05,-57.993,-0.00018814,-1899.3,1.2087
2581,15.729,4,0,0.0001829,1827.7,6.2914e-05,0.0099579,5.5992e-05,-52,-0.00018372,-1853.1,1.2345
2582,15.913,4,0,0.00017859,1784.7,6.1217e-05,0.0094755,5.5045e-05,-46.369,-0.00017933,-1807.4,1.2604
2583,16.097,4,0,0.0001743,1741.8,5.9543e-05,0.0091967,5.4075e-05,-41.077,-0.00017496,-1762,1.2865
2584,16.281,4,0,0.00017003,1699.1,5.789e-05,0.0090788,5.3084e-05,-36.098,-0.00017062,-1716.9,1.3126
2585,16.464,4,0,0.00016578,1656.6,5.6255e-05,0.0090541,5.2074e-05,-31.408,-0.00016629,-1672.1,1.3389
2586,16.648,4,0,0.00016153,1614.2,5.4638e-05,0.0091342,5.1045e-05,-26.983,-0.00016198,-1627.5,1.3653
2587,16.832,4,0,0.0001573,1572,5.3036e-05,0.0093423,5.0001e-05,-22.8,-0.00015768,-1583.2,1.3918
2588,17.016,4,0,0.00015309,1529.8,5.145e-05,0.0096558,4.8942e-05,-18.835,-0.0001534,-1539.1,1.4184
2589,17.2,4,0,0.00014888,1487.8,4.9876e-05,0.01009,4.787e-05,-15.066,-0.00014913,-1495.3,1.4451
2590,17.383,4,0,0.00014469,1445.9,4.8316e-05,0.010685,4.6788e-05,-11.471,-0.00014488,-1451.6,1.4719
2591,17.567,4,0,0.00014051,1404.2,4.6767e-05,0.011551,4.5697e-05,-8.0295,-0.00014065,-1408.2,1.4987
2592,17.751,4,0,0.00013635,1362.5,4.523e-05,0.013238,4.46e-05,-4.7215,-0.00013643,-1364.9,1.5257
2593,17.935,4,0,0.0001322,1321.1,4.3703e-05,0.020547,4.3497e-05,-1.5319,-0.00013222,-1321.8,1.5528
2594,18.119,4,0,0.00012807,1279.8,4.2395e-05,1.5916,4.2183e-05,0.00058929,-0.00012804,-1279,1.58
2595,18.302,4,0,0.00012395,1238.6,4.1288e-05,4.6135,4.0675e-05,0.0076271,-0.00012387,-1236.3,1.6072
2596,18.486,4,0,0.00011985,1197.7,4.0182e-05,7.5845,3.9174e-05,0.0094502,-0.00011972,-1193.8,1.6346
2597,18.67,4,0,0.00011577,1156.9,3.908e-05,10.518,3.7681e-05,0.01052,-0.00011558,-1151.6,1.662
2598,18.854,4,0,0.0001117,1116.3,3.7982e-05,13.432,3.6196e-05,0.011366,-0.00011147,-1109.5,1.6895
2599,19.038,4,0,0.00010766,1075.9,3.689e-05,16.345,3.4716e-05,0.01216,-0.00010737,-1067.6,1.7171
2600,19.221,4,0,0.00010364,1035.7,3.5806e-05,19.273,3.3243e-05,0.012942,-0.0001033,-1025.9,1.7447
2601,19.405,4,0,9.9641e-05,995.72,3.4733e-05,22.236,3.1775e-05,0.013743,-9.9243e-05,-984.41,1.7725
2602,19.589,4,0,9.5665e-05,955.99,3.367e-05,25.25,3.0312e-05,0.014579,-9.521e-05,-943.11,1.8002
2603,19.773,4,0,9.1714e-05,916.51,3.2622e-05,28.335,2.8853e-05,0.015449,-9.1199e-05,-902.01,1.8281
2604,19.956,4,0,8.779e-05,877.29,3.1589e-05,31.51,2.7397e-05,0.016382,-8.7211e-05,-861.1,1.856
2605,20.14,4,0,8.3892e-05,838.34,3.0573e-05,34.794,2.5945e-05,0.017411,-8.3246e-05,-820.4,1.884
2606,20.324,4,0,8.0024e-05,799.68,2.9577e-05,38.207,2.4494e-05,0.018542,-7.9305e-05,-779.89,1.912
2607,20.508,4,0,7.6185e-05,761.33,2.8602e-05,41.77,2.3045e-05,0.01979,-7.5388e-05,-739.57,1.9401
2608,20.692,4,0,7.2379e-05,723.29,2.7651e-05,45.505,2.1597e-05,0.021173,-7.1497e-05,-699.45,1.9682
2609,20.875,4,0,6.8607e-05,685.6,2.6726e-05,49.434,2.0149e-05,0.022704,-6.7632e-05,-659.53,1.9964
2610,21.059,4,0,6.4871e-05,648.27,2.5829e-05,53.582,1.8701e-05,0.024431,-6.3793e-05,-619.8,2.0246
2611,21.243,4,0,6.1174e-05,611.32,2.4962e-05,57.973,1.725e-05,0.026405,-5.9981e-05,-580.26,2.0529
2612,21.427,4,0,5.7519e-05,574.8,2.4129e-05,62.633,1.5797e-05,0.02867,-5.6197e-05,-540.9,2.0812
2613,21.611,4,0,5.391e-05,538.73,2.3331e-05,67.59,1.434e-05,0.031293,-5.2441e-05,-501.73,2.1095
2614,21.794,4,0,5.035e-05,503.15,2.2572e-05,72.874,1.2878e-05,0.03436,-4.8713e-05,-462.73,2.1379
2615,21.978,4,0,4.6845e-05,468.13,2.1854e-05,78.513,1.1409e-05,0.037983,-4.5013e-05,-423.9,2.1663
2616,22.162,4,0,4.3402e-05,433.72,2.1179e-05,84.539,9.9334e-06,0.042353,-4.1341e-05,-385.21,2.1948
2617,22.346,4,0,4.0029e-05,400.01,2.0551e-05,90.982,8.4483e-06,0.047711,-3.7697e-05,-346.67,2.2232
2618,22.53,4,0,3.6737e-05,367.12,1.9971e-05,97.872,6.9526e-06,0.054474,-3.408e-05,-308.25,2.2517
2619,22.713,4,0,3.3541e-05,335.17,1.9442e-05,105.24,5.4442e-06,0.063078,-3.0487e-05,-269.91,2.2802
2620,22.897,4,0,3.046e-05,304.39,1.8965e-05,113.1,3.9216e-06,0.075157,-2.6917e-05,-231.63,2.3088
2621,23.081,4,0,2.7524e-05,275.05,1.854e-05,121.49,2.3827e-06,0.090054,-2.3365e-05,-193.37,2.3373
2622,23.265,4,0,2.4772e-05,247.55,1.8167e-05,130.41,8.266e-07,0.1212,-1.9828e-05,-155.07,2.3659
2623,23.449,4,0,2.2262e-05,222.47,1.7844e-05,139.85,-7.5087e-07,0.13834,-1.63e-05,-116.69,2.3945
2624,23.632,4,0,2.008e-05,200.66,1.7569e-05,149.88,-2.3357e-06,0.32194,-1.2782e-05,-78.17,2.4231
2625,23.816,4,0,1.834e-05,183.28,1.7341e-05,160.26,-3.9632e-06,0.19236,-9.2677e-06,-39.664,2.4517
2626,10.95,3.8182,0,0.00087169,8710.9,0.00034698,709.32,0.00025041,-16.259,-0.00085763,-8341.6,0.61612
2627,11.134,3.8182,0,0.00064157,6411.3,0.00023559,303.7,0.00019882,27.484,-0.00063549,-6241.2,0.63714
2628,11.318,3.8182,0,0.00051764,5172.9,0.00017653,64.871,0.0001671,-5.971,-0.0005166,-5143,0.65854
2629,11.502,3.8182,0,0.00044528,4449.7,0.00015067,4.5369,0.00014102,-67.944,-0.00044631,-4480.9,0.68027
2630,11.686,3.8182,0,0.00039603,3957.6,0.00013807,0.73517,0.00011812,-149.18,-0.00039835,-4029.7,0.70227
2631,11.869,3.8182,0,0.00036087,3606.2,0.00012875,0.99543,0.00010253,-195.99,-0.00036379,-3699.7,0.72454
2632,12.053,3.8182,0,0.00033445,3342.2,0.00012119,0.58975,9.1673e-05,-221.21,-0.00033765,-3447,0.74705
2633,12.237,3.8182,0,0.00031393,3137.2,0.00011492,0.47204,8.3975e-05,-232.01,-0.00031723,-3246.5,0.76978
2634,12.421,3.8182,0,0.00029754,2973.3,0.00010955,0.3517,7.8437e-05,-233.43,-0.00030081,-3082.9,0.79272
2635,12.605,3.8182,0,0.00028411,2839.2,0.00010488,0.27153,7.44e-05,-228.77,-0.00028731,-2946.5,0.81587
2636,12.788,3.8182,0,0.00027289,2727,0.00010076,0.20836,7.1415e-05,-220.28,-0.00027596,-2830.3,0.83921
2637,12.972,3.8182,0,0.0002633,2631.2,9.7072e-05,0.16052,6.917e-05,-209.48,-0.00026623,-2729.6,0.86273
2638,13.156,3.8182,0,0.00025496,2547.9,9.3737e-05,0.12358,6.7447e-05,-197.41,-0.00025774,-2640.8,0.88644
2639,13.34,3.8182,0,0.00024758,2474.1,9.0689e-05,0.095255,6.6088e-05,-184.74,-0.0002502,-2561.2,0.91032
2640,13.524,3.8182,0,0.00024092,2407.6,8.7877e-05,0.073601,6.4981e-05,-171.95,-0.00024339,-2488.9,0.93437
2641,13.707,3.8182,0,0.00023483,2346.7,8.5259e-05,0.057082,6.4044e-05,-159.35,-0.00023714,-2422.3,0.95858
2642,13.891,3.8182,0,0.00022918,2290.2,8.2803e-05,0.044521,6.3216e-05,-147.12,-0.00023132,-2360.2,0.98295
2643,14.075,3.8182,0,0.00022386,2237,8.0481e-05,0.034997,6.2455e-05,-135.4,-0.00022585,-2301.6,1.0075
2644,14.259,3.8182,0,0.00021879,2186.4,7.8271e-05,0.027757,6.173e-05,-124.26,-0.00022064,-2245.9,1.0322
2645,14.443,3.8182,0,0.00021393,2137.8,7.6156e-05,0.022299,6.1016e-05,-113.73,-0.00021563,-2192.4,1.057
2646,14.626,3.8182,0,0.00020921,2090.7,7.4121e-05,0.018245,6.03e-05,-103.83,-0.00021078,-2140.7,1.082
2647,14.81,3.8182,0,0.00020462,2044.7,7.2153e-05,0.015247,5.9569e-05,-94.537,-0.00020606,-2090.4,1.1071
2648,14.994,3.8182,0,0.00020011,1999.7,7.0243e-05,0.013049,5.8816e-05,-85.845,-0.00020143,-2041.2,1.1324
2649,15.178,3.8182,0,0.00019567,1955.3,6.8383e-05,0.011464,5.8037e-05,-77.726,-0.00019687,-1993,1.1577
2650,15.362,3.8182,0,0.00019128,1911.5,6.6566e-05,0.010305,5.7229e-05,-70.147,-0.00019238,-1945.6,1.1833
2651,15.545,3.8182,0,0.00018693,1868,6.4787e-05,0.0094976,5.6391e-05,-63.075,-0.00018793,-1898.8,1.2089
2652,15.729,3.8182,0,0.00018262,1824.9,6.304e-05,0.0089983,5.5523e-05,-56.476,-0.00018351,-1852.5,1.2347
2653,15.913,3.8182,0,0.00017833,1782,6.1323e-05,0.0087175,5.4625e-05,-50.315,-0.00017913,-1806.7,1.2606
2654,16.097,3.8182,0,0.00017406,1739.4,5.9632e-05,0.0086065,5.3701e-05,-44.556,-0.00017477,-1761.2,1.2867
2655,16.281,3.8182,0,0.0001698,1696.8,5.7964e-05,0.0086237,5.275e-05,-39.167,-0.00017043,-1716.1,1.3128
2656,16.464,3.8182,0,0.00016556,1654.5,5.6317e-05,0.0087094,5.1776e-05,-34.115,-0.00016612,-1671.3,1.3391
2657,16.648,3.8182,0,0.00016134,1612.2,5.469e-05,0.0088786,5.078e-05,-29.369,-0.00016181,-1626.7,1.3654
2658,16.832,3.8182,0,0.00015712,1570.1,5.3079e-05,0.0091509,4.9764e-05,-24.899,-0.00015753,-1582.4,1.3919
2659,17.016,3.8182,0,0.00015292,1528.1,5.1485e-05,0.0094994,4.8732e-05,-20.676,-0.00015326,-1538.4,1.4185
2660,17.2,3.8182,0,0.00014873,1486.3,4.9905e-05,0.0099322,4.7684e-05,-16.674,-0.000149,-1494.5,1.4452
2661,17.383,3.8182,0,0.00014455,1444.5,4.8338e-05,0.010467,4.6624e-05,-12.868,-0.00014476,-1450.9,1.472
2662,17.567,3.8182,0,0.00014038,1402.9,4.6784e-05,0.011145,4.5554e-05,-9.2314,-0.00014054,-1407.5,1.4989
2663,17.751,3.8182,0,0.00013623,1361.4,4.5242e-05,0.012234,4.4476e-05,-5.7426,-0.00013633,-1364.2,1.5259
2664,17.935,3.8182,0,0.0001321,1320,4.3711e-05,0.01534,4.3392e-05,-2.3803,-0.00013214,-1321.2,1.553
2665,18.119,3.8182,0,0.00012797,1278.9,4.2306e-05,0.89885,4.2187e-05,-0.0011797,-0.00012796,-1278.4,1.5801
2666,18.302,3.8182,0,0.00012387,1237.8,4.1216e-05,4.0694,4.0675e-05,0.0089813,-0.0001238,-1235.8,1.6074
2667,18.486,3.8182,0,0.00011978,1197,4.0126e-05,7.187,3.9171e-05,0.010679,-0.00011965,-1193.3,1.6347
2668,18.67,3.8182,0,0.00011571,1156.3,3.9039e-05,10.264,3.7675e-05,0.01167,-0.00011553,-1151.1,1.6621
2669,18.854,3.8182,0,0.00011166,1115.8,3.7957e-05,13.318,3.6186e-05,0.012485,-0.00011142,-1109.1,1.6896
2670,19.038,3.8182,0,0.00010762,1075.5,3.688e-05,16.371,3.4703e-05,0.013269,-0.00010734,-1067.2,1.7172
2671,19.221,3.8182,0,0.00010362,1035.4,3.5812e-05,19.44,3.3227e-05,0.014057,-0.00010327,-1025.6,1.7449
2672,19.405,3.8182,0,9.9628e-05,995.59,3.4754e-05,22.545,3.1755e-05,0.014872,-9.9225e-05,-984.12,1.7726
2673,19.589,3.8182,0,9.5665e-05,955.99,3.3708e-05,25.705,3.0289e-05,0.015732,-9.5202e-05,-942.87,1.8004
2674,19.773,3.8182,0,9.1727e-05,916.64,3.2676e-05,28.94,2.8827e-05,0.016627,-9.12e-05,-901.82,1.8282
2675,19.956,3.8182,0,8.7816e-05,877.55,3.166e-05,32.27,2.7368e-05,0.017591,-8.7222e-05,-860.96,1.8561
2676,20.14,3.8182,0,8.3933e-05,838.75,3.0662e-05,35.716,2.5911e-05,0.018654,-8.3268e-05,-820.31,1.8841
2677,20.324,3.8182,0,8.0079e-05,800.24,2.9685e-05,39.299,2.4457e-05,0.019819,-7.9338e-05,-779.85,1.9121
2678,20.508,3.8182,0,7.6256e-05,762.04,2.873e-05,43.04,2.3004e-05,0.021105,-7.5433e-05,-739.6,1.9402
2679,20.692,3.8182,0,7.2467e-05,724.17,2.7799e-05,46.961,2.1552e-05,0.02253,-7.1554e-05,-699.54,1.9683
2680,20.875,3.8182,0,6.8713e-05,686.66,2.6896e-05,51.086,2.01e-05,0.024104,-6.7701e-05,-659.67,1.9965
2681,21.059,3.8182,0,6.4996e-05,649.51,2.6021e-05,55.44,1.8646e-05,0.025871,-6.3875e-05,-620,2.0247
2682,21.243,3.8182,0,6.1319e-05,612.77,2.5178e-05,60.046,1.719e-05,0.027886,-6.0076e-05,-580.52,2.053
2683,21.427,3.8182,0,5.7685e-05,576.45,2.4369e-05,64.932,1.5732e-05,0.030193,-5.6305e-05,-541.23,2.0813
2684,21.611,3.8182,0,5.4098e-05,540.6,2.3597e-05,70.123,1.4269e-05,0.032854,-5.2562e-05,-502.11,2.1096
2685,21.794,3.8182,0,5.0561e-05,505.26,2.2863e-05,75.646,1.28e-05,0.035964,-4.8847e-05,-463.16,2.138
2686,21.978,3.8182,0,4.708e-05,470.47,2.2171e-05,81.53,1.1325e-05,0.039631,-4.5159e-05,-424.36,2.1664
2687,22.162,3.8182,0,4.3661e-05,436.3,2.1522e-05,87.801,9.8422e-06,0.044038,-4.1499e-05,-385.71,2.1948
2688,22.346,3.8182,0,4.0312e-05,402.84,2.0918e-05,94.486,8.3497e-06,0.049443,-3.7864e-05,-347.18,2.2233
2689,22.53,3.8182,0,3.7044e-05,370.19,2.0362e-05,101.61,6.8461e-06,0.056259,-3.4254e-05,-308.76,2.2518
2690,22.713,3.8182,0,3.3872e-05,338.49,1.9854e-05,109.2,5.3298e-06,0.064936,-3.0666e-05,-270.4,2.2803
2691,22.897,3.8182,0,3.0816e-05,307.94,1.9395e-05,117.26,3.7992e-06,0.077114,-2.7098e-05,-232.07,2.3088
2692,23.081,3.8182,0,2.7903e-05,278.83,1.8985e-05,125.82,2.2523e-06,0.092155,-2.3545e-05,-193.74,2.3374
2693,23.265,3.8182,0,2.5174e-05,251.56,1.8623e-05,134.88,6.8873e-07,0.12353,-2.0005e-05,-155.36,2.366
2694,23.449,3.8182,0,2.2686e-05,226.71,1.8308e-05,144.43,-8.9553e-07,0.14101,-1.647e-05,-116.88,2.3946
2695,23.632,3.8182,0,2.0524e-05,205.1,1.8036e-05,154.52,-2.4861e-06,0.32571,-1.2944e-05,-78.248,2.4231
2696,23.816,3.8182,0,1.8796e-05,187.83,1.7806e-05,164.93,-4.1177e-06,0.19994,-9.4184e-06,-39.627,2.4518
2697,10.95,3.6364,0,0.00082677,8262,0.00033299,721.28,0.00023512,-14.061,-0.00081228,-7883.8,0.61689
2698,11.134,3.6364,0,0.00066361,6631.6,0.00024549,314.63,0.00020253,-8.1606,-0.00065781,-6472.4,0.63775
2699,11.318,3.6364,0,0.00054998,5496,0.00018726,70.997,0.00017823,3.1531,-0.00054868,-5458.6,0.65903
2700,11.502,3.6364,0,0.00047207,4717.5,0.0001598,1.0379,0.00014905,-79.721,-0.00047336,-4756.3,0.68066
2701,11.686,3.6364,0,0.00041732,4170.3,0.00014612,0.98953,0.00012339,-169.78,-0.00041992,-4252.1,0.70261
2702,11.869,3.6364,0,0.00037711,3768.5,0.00013536,0.71285,0.00010566,-222.43,-0.00038039,-3874.4,0.72482
2703,12.053,3.6364,0,0.00034666,3464.2,0.00012662,0.53203,9.3221e-05,-250.44,-0.00035023,-3582.4,0.7473
2704,12.237,3.6364,0,0.00032299,3227.7,0.00011934,0.41233,8.4399e-05,-262.12,-0.00032664,-3350.5,0.77
2705,12.421,3.6364,0,0.00030417,3039.6,0.00011315,0.31575,7.8095e-05,-263.08,-0.00030778,-3162.4,0.79293
2706,12.605,3.6364,0,0.00028891,2887.1,0.00010781,0.24279,7.3561e-05,-257.09,-0.00029242,-3006.9,0.81606
2707,12.788,3.6364,0,0.00027629,2761,0.00010314,0.18587,7.0277e-05,-246.74,-0.00027966,-2876,0.83939
2708,12.972,3.6364,0,0.00026567,2654.9,9.901e-05,0.14215,6.7873e-05,-233.81,-0.00026887,-2764,0.86291
2709,13.156,3.6364,0,0.00025657,2563.9,9.5315e-05,0.10855,6.6089e-05,-219.49,-0.00025959,-2666.5,0.88661
2710,13.34,3.6364,0,0.00024862,2484.5,9.1976e-05,0.082901,6.4736e-05,-204.59,-0.00025146,-2580.4,0.91049
2711,13.524,3.6364,0,0.00024155,2413.9,8.8928e-05,0.063454,6.3677e-05,-189.66,-0.00024422,-2503.1,0.93453
2712,13.707,3.6364,0,0.00023517,2350.1,8.6119e-05,0.048758,6.2814e-05,-175.06,-0.00023765,-2432.7,0.95874
2713,13.891,3.6364,0,0.0002293,2291.4,8.3507e-05,0.037698,6.2075e-05,-161,-0.00023161,-2367.7,0.98312
2714,14.075,3.6364,0,0.00022383,2236.8,8.1059e-05,0.02941,6.1408e-05,-147.62,-0.00022598,-2306.9,1.0076
2715,14.259,3.6364,0,0.00021867,2185.2,7.8746e-05,0.023184,6.0777e-05,-134.99,-0.00022065,-2249.5,1.0323
2716,14.443,3.6364,0,0.00021374,2135.9,7.6547e-05,0.018555,6.0156e-05,-123.14,-0.00021557,-2194.8,1.0572
2717,14.626,3.6364,0,0.00020899,2088.4,7.4443e-05,0.015183,5.9526e-05,-112.07,-0.00021067,-2142.2,1.0821
2718,14.81,3.6364,0,0.00020437,2042.3,7.242e-05,0.012743,5.8875e-05,-101.76,-0.00020591,-2091.2,1.1072
2719,14.994,3.6364,0,0.00019985,1997.1,7.0464e-05,0.011006,5.8196e-05,-92.17,-0.00020126,-2041.6,1.1325
2720,15.178,3.6364,0,0.00019541,1952.7,6.8567e-05,0.0097999,5.7483e-05,-83.268,-0.00019669,-1993,1.1579
2721,15.362,3.6364,0,0.00019103,1909,6.6719e-05,0.0089553,5.6735e-05,-75.007,-0.00019219,-1945.4,1.1834
2722,15.545,3.6364,0,0.00018669,1865.6,6.4914e-05,0.0084087,5.595e-05,-67.341,-0.00018774,-1898.4,1.2091
2723,15.729,3.6364,0,0.00018239,1822.6,6.3147e-05,0.0081251,5.513e-05,-60.224,-0.00018334,-1852,1.2349
2724,15.913,3.6364,0,0.00017811,1779.9,6.1412e-05,0.0080246,5.4276e-05,-53.61,-0.00017896,-1806.1,1.2608
2725,16.097,3.6364,0,0.00017385,1737.3,5.9706e-05,0.0080626,5.339e-05,-47.455,-0.00017461,-1760.6,1.2868
2726,16.281,3.6364,0,0.00016961,1695,5.8026e-05,0.0082038,5.2473e-05,-41.718,-0.00017028,-1715.4,1.3129
2727,16.464,3.6364,0,0.00016539,1652.7,5.6369e-05,0.0083888,5.1529e-05,-36.359,-0.00016597,-1670.6,1.3392
2728,16.648,3.6364,0,0.00016117,1610.6,5.4733e-05,0.0086382,5.056e-05,-31.342,-0.00016168,-1626.1,1.3656
2729,16.832,3.6364,0,0.00015697,1568.6,5.3115e-05,0.0089689,4.9569e-05,-26.63,-0.00015741,-1581.8,1.3921
2730,17.016,3.6364,0,0.00015278,1526.8,5.1514e-05,0.0093586,4.8559e-05,-22.192,-0.00015315,-1537.7,1.4186
2731,17.2,3.6364,0,0.0001486,1485,4.9929e-05,0.0098039,4.7532e-05,-17.996,-0.0001489,-1493.9,1.4453
2732,17.383,3.6364,0,0.00014444,1443.4,4.8357e-05,0.010315,4.6491e-05,-14.012,-0.00014467,-1450.3,1.4721
2733,17.567,3.6364,0,0.00014028,1401.8,4.6799e-05,0.010892,4.5438e-05,-10.214,-0.00014045,-1406.9,1.499
2734,17.751,3.6364,0,0.00013614,1360.5,4.5253e-05,0.011681,4.4376e-05,-6.5757,-0.00013625,-1363.7,1.526
2735,17.935,3.6364,0,0.00013201,1319.2,4.3717e-05,0.013323,4.3307e-05,-3.0727,-0.00013206,-1320.7,1.5531
2736,18.119,3.6364,0,0.0001279,1278.1,4.2236e-05,0.34339,4.2189e-05,-0.0088747,-0.00012789,-1277.9,1.5802
2737,18.302,3.6364,0,0.0001238,1237.2,4.1158e-05,3.63,4.0676e-05,0.010269,-0.00012374,-1235.4,1.6075
2738,18.486,3.6364,0,0.00011972,1196.4,4.0081e-05,6.8681,3.9169e-05,0.01172,-0.0001196,-1193,1.6348
2739,18.67,3.6364,0,0.00011566,1155.8,3.9007e-05,10.062,3.767e-05,0.012605,-0.00011549,-1150.7,1.6622
2740,18.854,3.6364,0,0.00011162,1115.4,3.7937e-05,13.232,3.6178e-05,0.013372,-0.00011139,-1108.7,1.6897
2741,19.038,3.6364,0,0.0001076,1075.2,3.6874e-05,16.399,3.4693e-05,0.014138,-0.00010731,-1066.9,1.7173
2742,19.221,3.6364,0,0.0001036,1035.3,3.5818e-05,19.583,3.3214e-05,0.014925,-0.00010325,-1025.3,1.745
2743,19.405,3.6364,0,9.962e-05,995.51,3.4773e-05,22.804,3.174e-05,0.015748,-9.9212e-05,-983.9,1.7727
2744,19.589,3.6364,0,9.5667e-05,956.01,3.374e-05,26.083,3.0271e-05,0.016619,-9.5196e-05,-942.69,1.8004
2745,19.773,3.6364,0,9.1739e-05,916.76,3.2721e-05,29.441,2.8805e-05,0.017534,-9.1203e-05,-901.68,1.8283
2746,19.956,3.6364,0,8.7839e-05,877.79,3.172e-05,32.898,2.7344e-05,0.018518,-8.7233e-05,-860.87,1.8562
2747,20.14,3.6364,0,8.3968e-05,839.1,3.0737e-05,36.475,2.5885e-05,0.019604,-8.3287e-05,-820.25,1.8842
2748,20.324,3.6364,0,8.0126e-05,800.71,2.9774e-05,40.196,2.4427e-05,0.020796,-7.9366e-05,-779.84,1.9122
2749,20.508,3.6364,0,7.6317e-05,762.64,2.8835e-05,44.08,2.2971e-05,0.022108,-7.5471e-05,-739.63,1.9402
2750,20.692,3.6364,0,7.2541e-05,724.91,2.7921e-05,48.153,2.1516e-05,0.023559,-7.1601e-05,-699.62,1.9684
2751,20.875,3.6364,0,6.8801e-05,687.54,2.7035e-05,52.437,2.006e-05,0.02516,-6.7759e-05,-659.81,1.9965
2752,21.059,3.6364,0,6.51e-05,650.55,2.6179e-05,56.956,1.8602e-05,0.026957,-6.3943e-05,-620.18,2.0248
2753,21.243,3.6364,0,6.1439e-05,613.96,2.5355e-05,61.735,1.7142e-05,0.029,-6.0155e-05,-580.75,2.053
2754,21.427,3.6364,0,5.7822e-05,577.82,2.4565e-05,66.8,1.5679e-05,0.031331,-5.6394e-05,-541.5,2.0813
2755,21.611,3.6364,0,5.4252e-05,542.14,2.3813e-05,72.177,1.4211e-05,0.034023,-5.2662e-05,-502.42,2.1097
2756,21.794,3.6364,0,5.0733e-05,506.98,2.3099e-05,77.89,1.2738e-05,0.037158,-4.8956e-05,-463.51,2.138
2757,21.978,3.6364,0,4.727e-05,472.37,2.2427e-05,83.965,1.1258e-05,0.040846,-4.5278e-05,-424.75,2.1664
2758,22.162,3.6364,0,4.387e-05,438.39,2.1798e-05,90.426,9.769e-06,0.045285,-4.1626e-05,-386.11,2.1949
2759,22.346,3.6364,0,4.054e-05,405.12,2.1213e-05,97.298,8.2705e-06,0.050719,-3.7998e-05,-347.59,2.2233
2760,22.53,3.6364,0,3.7291e-05,372.65,2.0675e-05,104.6,6.7608e-06,0.057577,-3.4393e-05,-309.16,2.2518
2761,22.713,3.6364,0,3.4137e-05,341.14,2.0182e-05,112.35,5.2383e-06,0.066306,-3.0809e-05,-270.78,2.2804
2762,22.897,3.6364,0,3.1099e-05,310.77,1.9737e-05,120.56,3.7014e-06,0.078561,-2.7241e-05,-232.41,2.3089
2763,23.081,3.6364,0,2.8204e-05,281.84,1.9338e-05,129.25,2.1485e-06,0.09371,-2.3687e-05,-194.03,2.3374
2764,23.265,3.6364,0,2.5492e-05,254.75,1.8984e-05,138.41,5.7923e-07,0.12527,-2.0143e-05,-155.57,2.366
2765,23.449,3.6364,0,2.3022e-05,230.06,1.8674e-05,148.04,-1.0102e-06,0.14299,-1.6603e-05,-117.02,2.3946
2766,23.632,3.6364,0,2.0874e-05,208.6,1.8404e-05,158.18,-2.605e-06,0.32853,-1.307e-05,-78.302,2.4232
2767,23.816,3.6364,0,1.9156e-05,191.43,1.8173e-05,168.6,-4.2396e-06,0.20574,-9.5368e-06,-39.595,2.4518
2768,10.95,3.4545,0,0.00076729,7667.6,0.0003078,664.02,0.00021992,3.7592,-0.00075379,-7312.4,0.61747
2769,11.134,3.4545,0,0.00066301,6625.5,0.00024907,365.45,0.00020046,0.18313,-0.00065603,-6435.1,0.63822
2770,11.318,3.4545,0,0.00056677,5663.8,0.00019667,115.41,0.00018125,-0.4036,-0.00056472,-5605.4,0.65941
2771,11.502,3.4545,0,0.00049126,4909.2,0.00016511,1.7347,0.00015721,-57.622,-0.00049219,-4936.9,0.68098
2772,11.686,3.4545,0,0.0004339,4336.1,0.00015141,0.99747,0.0001292,-165.84,-0.00043647,-4416.1,0.70286
2773,11.869,3.4545,0,0.00039028,3900.1,0.00014011,0.70408,0.0001093,-230.81,-0.00039368,-4010,0.72504
2774,12.053,3.4545,0,0.00035669,3564.5,0.00013069,0.54357,9.5198e-05,-266.12,-0.00036046,-3689.8,0.74749
2775,12.237,3.4545,0,0.00033045,3302.2,0.00012273,0.41011,8.52e-05,-281.6,-0.00033433,-3433.8,0.77017
2776,12.421,3.4545,0,0.00030963,3094.1,0.00011595,0.31041,7.8103e-05,-284.04,-0.00031347,-3226.2,0.79308
2777,12.605,3.4545,0,0.00029283,2926.3,0.0001101,0.23386,7.306e-05,-278.08,-0.00029657,-3055.3,0.81621
2778,12.788,3.4545,0,0.00027907,2788.8,0.00010501,0.17584,6.9468e-05,-266.89,-0.00028265,-2912.5,0.83953
2779,12.972,3.4545,0,0.0002676,2674.1,0.00010054,0.13205,6.6897e-05,-252.61,-0.000271,-2791.4,0.86304
2780,13.156,3.4545,0,0.00025787,2576.9,9.6559e-05,0.09913,6.5042e-05,-236.71,-0.00026107,-2687,0.88674
2781,13.34,3.4545,0,0.00024946,2492.8,9.2991e-05,0.074489,6.368e-05,-220.16,-0.00025247,-2595.6,0.91061
2782,13.524,3.4545,0,0.00024206,2418.9,8.9757e-05,0.056154,6.2652e-05,-203.6,-0.00024488,-2514.3,0.93466
2783,13.707,3.4545,0,0.00023544,2352.7,8.6796e-05,0.042536,6.1845e-05,-187.43,-0.00023806,-2440.8,0.95887
2784,13.891,3.4545,0,0.0002294,2292.4,8.4062e-05,0.032461,6.1175e-05,-171.93,-0.00023184,-2373.5,0.98324
2785,14.075,3.4545,0,0.00022382,2236.6,8.1514e-05,0.025037,6.0583e-05,-157.24,-0.00022608,-2311.1,1.0078
2786,14.259,3.4545,0,0.00021858,2184.3,7.912e-05,0.019555,6.0027e-05,-143.44,-0.00022066,-2252.4,1.0324
2787,14.443,3.4545,0,0.00021359,2134.5,7.6855e-05,0.015556,5.9479e-05,-130.54,-0.00021552,-2196.7,1.0573
2788,14.626,3.4545,0,0.00020881,2086.7,7.4697e-05,0.012711,5.8918e-05,-118.54,-0.00021057,-2143.4,1.0822
2789,14.81,3.4545,0,0.00020417,2040.3,7.2629e-05,0.010711,5.8331e-05,-107.42,-0.00020579,-2091.9,1.1074
2790,14.994,3.4545,0,0.00019965,1995.1,7.0638e-05,0.0093412,5.771e-05,-97.121,-0.00020112,-2041.9,1.1326
2791,15.178,3.4545,0,0.00019521,1950.8,6.871e-05,0.0084407,5.7051e-05,-87.6,-0.00019655,-1993.1,1.158
2792,15.362,3.4545,0,0.00019083,1907,6.6838e-05,0.0078489,5.635e-05,-78.799,-0.00019205,-1945.2,1.1835
2793,15.545,3.4545,0,0.0001865,1863.7,6.5014e-05,0.0075143,5.5608e-05,-70.663,-0.0001876,-1898.1,1.2092
2794,15.729,3.4545,0,0.00018221,1820.8,6.323e-05,0.0074052,5.4826e-05,-63.136,-0.0001832,-1851.6,1.235
2795,15.913,3.4545,0,0.00017794,1778.2,6.1482e-05,0.0074512,5.4005e-05,-56.165,-0.00017883,-1805.6,1.2609
2796,16.097,3.4545,0,0.0001737,1735.8,5.9764e-05,0.0076094,5.3149e-05,-49.698,-0.00017449,-1760.1,1.2869
2797,16.281,3.4545,0,0.00016947,1693.5,5.8075e-05,0.007851,5.2259e-05,-43.688,-0.00017017,-1714.9,1.313
2798,16.464,3.4545,0,0.00016525,1651.4,5.641e-05,0.0081207,5.1339e-05,-38.09,-0.00016587,-1670.1,1.3393
2799,16.648,3.4545,0,0.00016105,1609.4,5.4766e-05,0.0084343,5.0392e-05,-32.861,-0.00016158,-1625.6,1.3657
2800,16.832,3.4545,0,0.00015686,1567.5,5.3143e-05,0.0088185,4.942e-05,-27.961,-0.00015731,-1581.3,1.3922
2801,17.016,3.4545,0,0.00015268,1525.7,5.1537e-05,0.0092427,4.8427e-05,-23.355,-0.00015306,-1537.3,1.4187
2802,17.2,3.4545,0,0.00014851,1484.1,4.9947e-05,0.0097071,4.7416e-05,-19.007,-0.00014882,-1493.5,1.4454
2803,17.383,3.4545,0,0.00014435,1442.5,4.8372e-05,0.010209,4.6389e-05,-14.887,-0.0001446,-1449.9,1.4722
2804,17.567,3.4545,0,0.0001402,1401.1,4.681e-05,0.010737,4.5349e-05,-10.964,-0.00014039,-1406.5,1.4991
2805,17.751,3.4545,0,0.00013607,1359.8,4.5261e-05,0.011363,4.4299e-05,-7.2104,-0.00013619,-1363.3,1.5261
2806,17.935,3.4545,0,0.00013195,1318.6,4.3723e-05,0.012354,4.3242e-05,-3.5996,-0.00013201,-1320.4,1.5532
2807,18.119,3.4545,0,0.00012784,1277.6,4.2198e-05,0.036835,4.2176e-05,-0.12935,-0.00012785,-1277.6,1.5803
2808,18.302,3.4545,0,0.00012375,1236.7,4.1114e-05,3.2977,4.0677e-05,0.011406,-0.0001237,-1235,1.6076
2809,18.486,3.4545,0,0.00011968,1196,4.0048e-05,6.6283,3.9167e-05,0.012537,-0.00011957,-1192.7,1.6349
2810,18.67,3.4545,0,0.00011563,1155.5,3.8984e-05,9.9118,3.7666e-05,0.013313,-0.00011546,-1150.5,1.6623
2811,18.854,3.4545,0,0.00011159,1115.2,3.7923e-05,13.17,3.6172e-05,0.014033,-0.00011136,-1108.5,1.6898
2812,19.038,3.4545,0,0.00010758,1075,3.6869e-05,16.424,3.4685e-05,0.01478,-0.00010729,-1066.7,1.7174
2813,19.221,3.4545,0,0.00010358,1035.1,3.5823e-05,19.696,3.3204e-05,0.01556,-0.00010324,-1025.1,1.745
2814,19.405,3.4545,0,9.9615e-05,995.46,3.4788e-05,23.006,3.1728e-05,0.016387,-9.9203e-05,-983.75,1.7727
2815,19.589,3.4545,0,9.5669e-05,956.03,3.3765e-05,26.376,3.0257e-05,0.017268,-9.5193e-05,-942.56,1.8005
2816,19.773,3.4545,0,9.175e-05,916.87,3.2757e-05,29.826,2.879e-05,0.018191,-9.1206e-05,-901.58,1.8283
2817,19.956,3.4545,0,8.7858e-05,877.98,3.1766e-05,33.38,2.7326e-05,0.019191,-8.7242e-05,-860.8,1.8563
2818,20.14,3.4545,0,8.3995e-05,839.37,3.0794e-05,37.057,2.5864e-05,0.020294,-8.3303e-05,-820.22,1.8842
2819,20.324,3.4545,0,8.0163e-05,801.08,2.9843e-05,40.882,2.4405e-05,0.021502,-7.9389e-05,-779.85,1.9122
2820,20.508,3.4545,0,7.6364e-05,763.11,2.8916e-05,44.876,2.2946e-05,0.022831,-7.5501e-05,-739.67,1.9403
2821,20.692,3.4545,0,7.2598e-05,725.48,2.8015e-05,49.062,2.1488e-05,0.024301,-7.1639e-05,-699.7,1.9684
2822,20.875,3.4545,0,6.887e-05,688.22,2.7142e-05,53.466,2.0029e-05,0.025921,-6.7804e-05,-659.92,1.9966
2823,21.059,3.4545,0,6.5179e-05,651.34,2.6299e-05,58.11,1.8569e-05,0.027735,-6.3996e-05,-620.33,2.0248
2824,21.243,3.4545,0,6.1531e-05,614.88,2.5489e-05,63.019,1.7106e-05,0.029796,-6.0215e-05,-580.93,2.0531
2825,21.427,3.4545,0,5.7926e-05,578.86,2.4714e-05,68.218,1.5639e-05,0.032147,-5.6463e-05,-541.71,2.0814
2826,21.611,3.4545,0,5.4369e-05,543.31,2.3977e-05,73.732,1.4168e-05,0.034852,-5.2738e-05,-502.67,2.1097
2827,21.794,3.4545,0,5.0863e-05,508.28,2.3278e-05,79.586,1.2691e-05,0.038,-4.9039e-05,-463.78,2.1381
2828,21.978,3.4545,0,4.7414e-05,473.82,2.2621e-05,85.802,1.1207e-05,0.041709,-4.5368e-05,-425.04,2.1665
2829,22.162,3.4545,0,4.4028e-05,439.97,2.2006e-05,92.403,9.7138e-06,0.046165,-4.1721e-05,-386.42,2.1949
2830,22.346,3.4545,0,4.0711e-05,406.83,2.1435e-05,99.41,8.211e-06,0.051622,-3.8098e-05,-347.9,2.2234
2831,22.53,3.4545,0,3.7476e-05,374.5,2.0909e-05,106.84,6.6968e-06,0.058507,-3.4497e-05,-309.46,2.2519
2832,22.713,3.4545,0,3.4336e-05,343.12,2.0428e-05,114.71,5.1697e-06,0.067274,-3.0915e-05,-271.06,2.2804
2833,22.897,3.4545,0,3.1311e-05,312.89,1.9992e-05,123.03,3.6283e-06,0.079584,-2.7347e-05,-232.66,2.3089
2834,23.081,3.4545,0,2.8428e-05,284.09,1.9601e-05,131.8,2.071e-06,0.094812,-2.3792e-05,-194.23,2.3375
2835,23.265,3.4545,0,2.5729e-05,257.12,1.9252e-05,141.04,4.9758e-07,0.1265,-2.0245e-05,-155.73,2.3661
2836,23.449,3.4545,0,2.3271e-05,232.55,1.8945e-05,150.72,-1.0955e-06,0.14441,-1.6701e-05,-117.11,2.3946
2837,23.632,3.4545,0,2.1134e-05,211.2,1.8677e-05,160.9,-2.6934e-06,0.33054,-1.3164e-05,-78.338,2.4232
2838,23.816,3.4545,0,1.9423e-05,194.09,1.8445e-05,171.33,-4.3302e-06,0.20994,-9.6244e-06,-39.569,2.4518
2839,10.95,3.2727,0,0.00073223,7317.3,0.00029441,638.47,0.00020911,-2.4088,-0.0007193,-6978.2,0.61785
2840,11.134,3.2727,0,0.00065457,6541.1,0.00024803,386.63,0.00019657,-0.065437,-0.00064713,-6339.3,0.63855
2841,11.318,3.2727,0,0.00057357,5731.7,0.00020186,151.5,0.00018178,0.62152,-0.00057083,-5654.2,0.65968
2842,11.502,3.2727,0,0.00050258,5022.3,0.0001675,1.7124,0.00016323,-30.35,-0.00050306,-5036.6,0.68119
2843,11.686,3.2727,0,0.00044493,4446.2,0.00015442,0.96418,0.00013393,-152.93,-0.00044731,-4520.2,0.70304
2844,11.869,3.2727,0,0.00039945,3991.7,0.00014309,0.75986,0.00011244,-229.53,-0.00040284,-4101.1,0.72519
2845,12.053,3.2727,0,0.00036381,3635.6,0.00013335,0.57554,9.7006e-05,-272.5,-0.00036767,-3763.9,0.74761
2846,12.237,3.2727,0,0.00033578,3355.5,0.00012501,0.43071,8.6038e-05,-292.39,-0.00033979,-3491.9,0.77029
2847,12.421,3.2727,0,0.00031352,3133.1,0.00011785,0.31912,7.8283e-05,-296.97,-0.00031751,-3270.8,0.79319
2848,12.605,3.2727,0,0.00029563,2954.3,0.00011167,0.2353,7.2815e-05,-291.71,-0.00029951,-3089.2,0.8163
2849,12.788,3.2727,0,0.00028105,2808.5,0.0001063,0.17321,6.8966e-05,-280.32,-0.00028476,-2938.1,0.83962
2850,12.972,3.2727,0,0.00026896,2687.8,0.00010159,0.12753,6.6254e-05,-265.35,-0.00027249,-2810.5,0.86313
2851,13.156,3.2727,0,0.00025878,2586,9.7417e-05,0.093987,6.4334e-05,-248.48,-0.00026211,-2701.2,0.88682
2852,13.34,3.2727,0,0.00025005,2498.7,9.3691e-05,0.069424,6.2958e-05,-230.85,-0.00025317,-2606.1,0.9107
2853,13.524,3.2727,0,0.00024242,2422.5,9.0329e-05,0.051503,6.1948e-05,-213.19,-0.00024534,-2522,0.93474
2854,13.707,3.2727,0,0.00023562,2354.6,8.7264e-05,0.038434,6.1177e-05,-195.97,-0.00023834,-2446.5,0.95895
2855,13.891,3.2727,0,0.00022947,2293.1,8.4444e-05,0.028929,6.0553e-05,-179.48,-0.000232,-2377.6,0.98332
2856,14.075,3.2727,0,0.00022381,2236.5,8.1827e-05,0.022045,6.0013e-05,-163.88,-0.00022614,-2314,1.0078
2857,14.259,3.2727,0,0.00021851,2183.6,7.9377e-05,0.017044,5.9509e-05,-149.26,-0.00022067,-2254.4,1.0325
2858,14.443,3.2727,0,0.0002135,2133.5,7.7067e-05,0.013466,5.9012e-05,-135.64,-0.00021548,-2198.1,1.0573
2859,14.626,3.2727,0,0.00020869,2085.5,7.4871e-05,0.010978,5.8499e-05,-123,-0.00021051,-2144.2,1.0823
2860,14.81,3.2727,0,0.00020404,2039,7.2773e-05,0.0092818,5.7957e-05,-111.31,-0.00020571,-2092.4,1.1074
2861,14.994,3.2727,0,0.00019951,1993.8,7.0757e-05,0.0081669,5.7377e-05,-100.52,-0.00020103,-2042.1,1.1327
2862,15.178,3.2727,0,0.00019507,1949.4,6.8809e-05,0.0074791,5.6754e-05,-90.573,-0.00019646,-1993.1,1.1581
2863,15.362,3.2727,0,0.0001907,1905.7,6.6921e-05,0.0070641,5.6086e-05,-81.398,-0.00019195,-1945.1,1.1836
2864,15.545,3.2727,0,0.00018638,1862.5,6.5082e-05,0.0068779,5.5374e-05,-72.937,-0.00018751,-1897.9,1.2093
2865,15.729,3.2727,0,0.00018209,1819.6,6.3287e-05,0.0068926,5.4618e-05,-65.127,-0.00018311,-1851.3,1.235
2866,15.913,3.2727,0,0.00017783,1777.1,6.1529e-05,0.0070406,5.3821e-05,-57.91,-0.00017874,-1805.3,1.2609
2867,16.097,3.2727,0,0.00017359,1734.7,5.9804e-05,0.0072864,5.2985e-05,-51.228,-0.0001744,-1759.7,1.287
2868,16.281,3.2727,0,0.00016937,1692.5,5.8108e-05,0.0075981,5.2114e-05,-45.03,-0.00017009,-1714.6,1.3131
2869,16.464,3.2727,0,0.00016516,1650.5,5.6437e-05,0.0079264,5.121e-05,-39.267,-0.00016579,-1669.8,1.3394
2870,16.648,3.2727,0,0.00016097,1608.5,5.4789e-05,0.0082878,5.0278e-05,-33.892,-0.00016152,-1625.2,1.3657
2871,16.832,3.2727,0,0.00015678,1566.7,5.3162e-05,0.0087094,4.9319e-05,-28.864,-0.00015725,-1581,1.3922
2872,17.016,3.2727,0,0.00015261,1525,5.1552e-05,0.00916,4.8338e-05,-24.142,-0.000153,-1536.9,1.4188
2873,17.2,3.2727,0,0.00014844,1483.4,4.9959e-05,0.0096379,4.7337e-05,-19.692,-0.00014877,-1493.2,1.4455
2874,17.383,3.2727,0,0.00014429,1441.9,4.8382e-05,0.01014,4.632e-05,-15.478,-0.00014455,-1449.6,1.4723
2875,17.567,3.2727,0,0.00014015,1400.5,4.6818e-05,0.010641,4.529e-05,-11.47,-0.00014034,-1406.2,1.4992
2876,17.751,3.2727,0,0.00013602,1359.3,4.5266e-05,0.011184,4.4248e-05,-7.6384,-0.00013615,-1363.1,1.5261
2877,17.935,3.2727,0,0.00013191,1318.2,4.3726e-05,0.011869,4.3198e-05,-3.9544,-0.00013197,-1320.1,1.5532
2878,18.119,3.2727,0,0.00012781,1277.2,4.2197e-05,0.015246,4.2143e-05,-0.39477,-0.00012781,-1277.4,1.5804
2879,18.302,3.2727,0,0.00012372,1236.4,4.1085e-05,3.0747,4.0677e-05,0.012272,-0.00012367,-1234.8,1.6076
2880,18.486,3.2727,0,0.00011965,1195.7,4.0025e-05,6.468,3.9166e-05,0.013101,-0.00011954,-1192.5,1.635
2881,18.67,3.2727,0,0.0001156,1155.3,3.8968e-05,9.8122,3.7664e-05,0.013789,-0.00011543,-1150.3,1.6624
2882,18.854,3.2727,0,0.00011157,1115,3.7914e-05,13.13,3.6168e-05,0.014472,-0.00011134,-1108.3,1.6899
2883,19.038,3.2727,0,0.00010756,1074.9,3.6866e-05,16.443,3.468e-05,0.015204,-0.00010728,-1066.6,1.7174
2884,19.221,3.2727,0,0.00010358,1035,3.5827e-05,19.774,3.3197e-05,0.015978,-0.00010323,-1025,1.7451
2885,19.405,3.2727,0,9.9612e-05,995.43,3.4798e-05,23.144,3.172e-05,0.016805,-9.9197e-05,-983.65,1.7728
2886,19.589,3.2727,0,9.5672e-05,956.06,3.3782e-05,26.575,3.0248e-05,0.01769,-9.5191e-05,-942.48,1.8006
2887,19.773,3.2727,0,9.1758e-05,916.94,3.2781e-05,30.088,2.8779e-05,0.018621,-9.1208e-05,-901.52,1.8284
2888,19.956,3.2727,0,8.7872e-05,878.11,3.1797e-05,33.706,2.7314e-05,0.019628,-8.7249e-05,-860.76,1.8563
2889,20.14,3.2727,0,8.4015e-05,839.57,3.0832e-05,37.451,2.5851e-05,0.02074,-8.3315e-05,-820.21,1.8843
2890,20.324,3.2727,0,8.0189e-05,801.34,2.989e-05,41.345,2.439e-05,0.021958,-7.9405e-05,-779.85,1.9123
2891,20.508,3.2727,0,7.6396e-05,763.43,2.8971e-05,45.413,2.293e-05,0.023298,-7.5522e-05,-739.7,1.9403
2892,20.692,3.2727,0,7.2637e-05,725.87,2.8078e-05,49.676,2.147e-05,0.024779,-7.1664e-05,-699.75,1.9685
2893,20.875,3.2727,0,6.8916e-05,688.68,2.7214e-05,54.159,2.0009e-05,0.026409,-6.7834e-05,-659.99,1.9966
2894,21.059,3.2727,0,6.5234e-05,651.89,2.638e-05,58.886,1.8547e-05,0.028236,-6.4032e-05,-620.43,2.0248
2895,21.243,3.2727,0,6.1593e-05,615.5,2.558e-05,63.882,1.7082e-05,0.030308,-6.0256e-05,-581.06,2.0531
2896,21.427,3.2727,0,5.7996e-05,579.56,2.4815e-05,69.171,1.5613e-05,0.03267,-5.6509e-05,-541.86,2.0814
2897,21.611,3.2727,0,5.4448e-05,544.1,2.4087e-05,74.776,1.4139e-05,0.035383,-5.2789e-05,-502.83,2.1097
2898,21.794,3.2727,0,5.0951e-05,509.16,2.3398e-05,80.722,1.266e-05,0.038543,-4.9095e-05,-463.96,2.1381
2899,21.978,3.2727,0,4.7511e-05,474.78,2.275e-05,87.031,1.1173e-05,0.042259,-4.5428e-05,-425.23,2.1665
2900,22.162,3.2727,0,4.4134e-05,441.03,2.2145e-05,93.724,9.6769e-06,0.046725,-4.1785e-05,-386.62,2.195
2901,22.346,3.2727,0,4.0826e-05,407.98,2.1582e-05,100.82,8.1712e-06,0.052197,-3.8165e-05,-348.1,2.2234
2902,22.53,3.2727,0,3.76e-05,375.74,2.1064e-05,108.33,6.6541e-06,0.059099,-3.4566e-05,-309.65,2.2519
2903,22.713,3.2727,0,3.4468e-05,344.44,2.0591e-05,116.28,5.124e-06,0.067891,-3.0985e-05,-271.24,2.2804
2904,22.897,3.2727,0,3.1451e-05,314.3,2.0161e-05,124.67,3.5796e-06,0.080239,-2.7418e-05,-232.82,2.309
2905,23.081,3.2727,0,2.8577e-05,285.58,1.9775e-05,133.5,2.0194e-06,0.095519,-2.3862e-05,-194.36,2.3375
2906,23.265,3.2727,0,2.5887e-05,258.69,1.943e-05,142.78,4.4337e-07,0.12729,-2.0313e-05,-155.82,2.3661
2907,23.449,3.2727,0,2.3436e-05,234.2,1.9125e-05,152.5,-1.1521e-06,0.14531,-1.6766e-05,-117.17,2.3947
2908,23.632,3.2727,0,2.1306e-05,212.92,1.8858e-05,162.7,-2.752e-06,0.33184,-1.3225e-05,-78.36,2.4233
2909,23.816,3.2727,0,1.9599e-05,195.86,1.8625e-05,173.14,-4.3901e-06,0.21268,-9.6823e-06,-39.551,2.4519
2910,10.95,3.0909,0,0.00071555,7150.6,0.00028753,623.09,0.00020458,-0.22332,-0.00070291,-6818.7,0.61804
2911,11.134,3.0909,0,0.00064901,6485.7,0.00024696,395.99,0.00019426,0.041333,-0.00064137,-6278.6,0.63871
2912,11.318,3.0909,0,0.00057557,5751.7,0.00020403,169.91,0.00018152,0.77881,-0.00057248,-5664.5,0.65981
2913,11.502,3.0909,0,0.00050762,5072.7,0.00016829,1.1819,0.00016631,-13.706,-0.00050783,-5079,0.6813
2914,11.686,3.0909,0,0.00045033,4500.2,0.00015574,0.95693,0.00013651,-143.54,-0.00045258,-4569.8,0.70313
2915,11.869,3.0909,0,0.00040412,4038.4,0.00014449,0.78014,0.00011422,-226.66,-0.00040748,-4146.6,0.72527
2916,12.053,3.0909,0,0.0003675,3672.5,0.00013465,0.60065,9.8074e-05,-274.26,-0.00037138,-3801.6,0.74768
2917,12.237,3.0909,0,0.00033856,3383.2,0.00012615,0.44714,8.6563e-05,-296.96,-0.00034262,-3521.7,0.77034
2918,12.421,3.0909,0,0.00031556,3153.4,0.00011881,0.32768,7.8435e-05,-303.03,-0.00031961,-3293.8,0.79324
2919,12.605,3.0909,0,0.00029709,2968.9,0.00011247,0.23853,7.2727e-05,-298.35,-0.00030103,-3106.6,0.81635
2920,12.788,3.0909,0,0.00028207,2818.8,0.00010695,0.17332,6.8731e-05,-287.01,-0.00028585,-2951.2,0.83966
2921,12.972,3.0909,0,0.00026967,2694.8,0.00010212,0.12604,6.5937e-05,-271.76,-0.00027326,-2820.4,0.86317
2922,13.156,3.0909,0,0.00025926,2590.8,9.7855e-05,0.091819,6.3979e-05,-254.44,-0.00026264,-2708.5,0.88687
2923,13.34,3.0909,0,0.00025035,2501.8,9.4049e-05,0.067087,6.2592e-05,-236.29,-0.00025353,-2611.5,0.91074
2924,13.524,3.0909,0,0.0002426,2424.3,9.0621e-05,0.049261,6.159e-05,-218.08,-0.00024557,-2526,0.93478
2925,13.707,3.0909,0,0.00023572,2355.6,8.7503e-05,0.036405,6.0836e-05,-200.32,-0.00023849,-2449.3,0.95899
2926,13.891,3.0909,0,0.00022951,2293.5,8.464e-05,0.027156,6.0236e-05,-183.33,-0.00023208,-2379.7,0.98336
2927,14.075,3.0909,0,0.0002238,2236.5,8.1987e-05,0.020526,5.9722e-05,-167.27,-0.00022618,-2315.4,1.0079
2928,14.259,3.0909,0,0.00021848,2183.3,7.9509e-05,0.015762,5.9245e-05,-152.24,-0.00022067,-2255.4,1.0326
2929,14.443,3.0909,0,0.00021344,2133,7.7175e-05,0.012393,5.8774e-05,-138.24,-0.00021546,-2198.7,1.0574
2930,14.626,3.0909,0,0.00020863,2084.8,7.496e-05,0.010088,5.8286e-05,-125.28,-0.00021048,-2144.7,1.0824
2931,14.81,3.0909,0,0.00020398,2038.3,7.2847e-05,0.0085433,5.7766e-05,-113.3,-0.00020567,-2092.6,1.1075
2932,14.994,3.0909,0,0.00019944,1993.1,7.0818e-05,0.0075592,5.7207e-05,-102.26,-0.00020099,-2042.2,1.1327
2933,15.178,3.0909,0,0.000195,1948.7,6.886e-05,0.0069813,5.6603e-05,-92.086,-0.00019641,-1993.1,1.1581
2934,15.362,3.0909,0,0.00019063,1905,6.6962e-05,0.0066579,5.5952e-05,-82.72,-0.00019191,-1945,1.1836
2935,15.545,3.0909,0,0.00018631,1861.8,6.5117e-05,0.0065481,5.5255e-05,-74.092,-0.00018746,-1897.8,1.2093
2936,15.729,3.0909,0,0.00018203,1819,6.3316e-05,0.0066258,5.4512e-05,-66.138,-0.00018306,-1851.2,1.2351
2937,15.913,3.0909,0,0.00017777,1776.5,6.1553e-05,0.0068289,5.3727e-05,-58.795,-0.0001787,-1805.1,1.261
2938,16.097,3.0909,0,0.00017354,1734.2,5.9824e-05,0.0071174,5.2902e-05,-52.004,-0.00017436,-1759.6,1.287
2939,16.281,3.0909,0,0.00016932,1692,5.8125e-05,0.0074659,5.204e-05,-45.71,-0.00017005,-1714.4,1.3131
2940,16.464,3.0909,0,0.00016512,1650,5.6451e-05,0.007825,5.1145e-05,-39.862,-0.00016576,-1669.6,1.3394
2941,16.648,3.0909,0,0.00016092,1608.1,5.4801e-05,0.0082119,5.022e-05,-34.414,-0.00016148,-1625.1,1.3658
2942,16.832,3.0909,0,0.00015674,1566.3,5.3171e-05,0.0086497,4.9268e-05,-29.32,-0.00015722,-1580.8,1.3923
2943,17.016,3.0909,0,0.00015257,1524.7,5.156e-05,0.0091151,4.8293e-05,-24.54,-0.00015297,-1536.8,1.4188
2944,17.2,3.0909,0,0.00014841,1483.1,4.9966e-05,0.009603,4.7298e-05,-20.037,-0.00014874,-1493,1.4455
2945,17.383,3.0909,0,0.00014426,1441.6,4.8387e-05,0.010106,4.6286e-05,-15.777,-0.00014452,-1449.4,1.4723
2946,17.567,3.0909,0,0.00014012,1400.3,4.6822e-05,0.010598,4.526e-05,-11.726,-0.00014032,-1406.1,1.4992
2947,17.751,3.0909,0,0.000136,1359.1,4.5269e-05,0.011103,4.4222e-05,-7.8539,-0.00013613,-1363,1.5262
2948,17.935,3.0909,0,0.00013189,1318,4.3728e-05,0.011661,4.3177e-05,-4.133,-0.00013196,-1320,1.5532
2949,18.119,3.0909,0,0.00012779,1277,4.2198e-05,0.012457,4.2125e-05,-0.53621,-0.0001278,-1277.3,1.5804
2950,18.302,3.0909,0,0.00012371,1236.2,4.107e-05,2.9628,4.0677e-05,0.012741,-0.00012366,-1234.7,1.6077
2951,18.486,3.0909,0,0.00011964,1195.6,4.0014e-05,6.3877,3.9166e-05,0.013391,-0.00011953,-1192.4,1.635
2952,18.67,3.0909,0,0.00011559,1155.1,3.896e-05,9.7625,3.7663e-05,0.014026,-0.00011542,-1150.2,1.6624
2953,18.854,3.0909,0,0.00011157,1114.9,3.7909e-05,13.11,3.6167e-05,0.01469,-0.00011134,-1108.3,1.6899
2954,19.038,3.0909,0,0.00010756,1074.8,3.6865e-05,16.453,3.4677e-05,0.015413,-0.00010727,-1066.5,1.7175
2955,19.221,3.0909,0,0.00010357,1035,3.5829e-05,19.814,3.3194e-05,0.016183,-0.00010322,-1025,1.7451
2956,19.405,3.0909,0,9.961e-05,995.42,3.4804e-05,23.214,3.1716e-05,0.017011,-9.9195e-05,-983.6,1.7728
2957,19.589,3.0909,0,9.5673e-05,956.07,3.3791e-05,26.675,3.0243e-05,0.017897,-9.5191e-05,-942.44,1.8006
2958,19.773,3.0909,0,9.1762e-05,916.98,3.2793e-05,30.22,2.8774e-05,0.018833,-9.121e-05,-901.49,1.8284
2959,19.956,3.0909,0,8.7878e-05,878.18,3.1813e-05,33.871,2.7308e-05,0.019843,-8.7253e-05,-860.74,1.8563
2960,20.14,3.0909,0,8.4025e-05,839.67,3.0852e-05,37.65,2.5844e-05,0.020958,-8.332e-05,-820.2,1.8843
2961,20.324,3.0909,0,8.0202e-05,801.47,2.9913e-05,41.579,2.4382e-05,0.022181,-7.9413e-05,-779.86,1.9123
2962,20.508,3.0909,0,7.6412e-05,763.59,2.8998e-05,45.683,2.2921e-05,0.02353,-7.5532e-05,-739.72,1.9404
2963,20.692,3.0909,0,7.2657e-05,726.07,2.811e-05,49.985,2.146e-05,0.025015,-7.1677e-05,-699.78,1.9685
2964,20.875,3.0909,0,6.8939e-05,688.92,2.725e-05,54.508,1.9999e-05,0.026651,-6.785e-05,-660.03,1.9966
2965,21.059,3.0909,0,6.5261e-05,652.16,2.6421e-05,59.277,1.8535e-05,0.02848,-6.405e-05,-620.48,2.0249
2966,21.243,3.0909,0,6.1624e-05,615.82,2.5625e-05,64.316,1.7069e-05,0.030556,-6.0277e-05,-581.12,2.0531
2967,21.427,3.0909,0,5.8032e-05,579.92,2.4865e-05,69.649,1.56e-05,0.032922,-5.6532e-05,-541.94,2.0814
2968,21.611,3.0909,0,5.4488e-05,544.5,2.4142e-05,75.3,1.4125e-05,0.035644,-5.2814e-05,-502.92,2.1098
2969,21.794,3.0909,0,5.0995e-05,509.6,2.3458e-05,81.292,1.2644e-05,0.038809,-4.9123e-05,-464.06,2.1381
2970,21.978,3.0909,0,4.756e-05,475.27,2.2815e-05,87.647,1.1155e-05,0.04253,-4.5458e-05,-425.33,2.1665
2971,22.162,3.0909,0,4.4187e-05,441.56,2.2214e-05,94.385,9.6584e-06,0.047,-4.1817e-05,-386.72,2.195
2972,22.346,3.0909,0,4.0884e-05,408.56,2.1656e-05,101.52,8.1513e-06,0.052476,-3.8199e-05,-348.2,2.2234
2973,22.53,3.0909,0,3.7662e-05,376.36,2.1142e-05,109.08,6.6327e-06,0.059388,-3.4601e-05,-309.75,2.2519
2974,22.713,3.0909,0,3.4534e-05,345.1,2.0672e-05,117.06,5.1011e-06,0.068194,-3.102e-05,-271.33,2.2804
2975,22.897,3.0909,0,3.1521e-05,315,2.0245e-05,125.48,3.5553e-06,0.080557,-2.7453e-05,-232.9,2.309
2976,23.081,3.0909,0,2.8652e-05,286.32,1.9861e-05,134.35,1.9937e-06,0.095863,-2.3896e-05,-194.43,2.3375
2977,23.265,3.0909,0,2.5965e-05,259.47,1.9518e-05,143.65,4.1634e-07,0.12768,-2.0346e-05,-155.87,2.3661
2978,23.449,3.0909,0,2.3518e-05,235.02,1.9215e-05,153.38,-1.1803e-06,0.14576,-1.6798e-05,-117.2,2.3947
2979,23.632,3.0909,0,2.1392e-05,213.77,1.8948e-05,163.6,-2.7811e-06,0.33248,-1.3256e-05,-78.37,2.4233
2980,23.816,3.0909,0,1.9687e-05,196.74,1.8714e-05,174.04,-4.42e-06,0.21403,-9.7111e-06,-39.542,2.4519
2981,10.95,2.9091,0,0.00071555,7150.6,0.00028753,623.09,0.00020458,-0.22332,-0.00070291,-6818.7,0.61804
2982,11.134,2.9091,0,0.00064901,6485.7,0.00024696,395.99,0.00019426,0.041335,-0.00064137,-6278.6,0.63871
2983,11.318,2.9091,0,0.00057557,5751.7,0.00020403,169.91,0.00018152,0.77881,-0.00057248,-5664.5,0.65981
2984,11.502,2.9091,0,0.00050762,5072.7,0.00016829,1.1819,0.00016631,-13.706,-0.00050783,-5079,0.6813
2985,11.686,2.9091,0,0.00045033,4500.2,0.00015574,0.95693,0.00013651,-143.54,-0.00045258,-4569.8,0.70313
2986,11.869,2.9091,0,0.00040412,4038.4,0.00014449,0.78014,0.00011422,-226.66,-0.00040748,-4146.6,0.72527
2987,12.053,2.9091,0,0.0003675,3672.5,0.00013465,0.60065,9.8074e-05,-274.26,-0.00037138,-3801.6,0.74768
2988,12.237,2.9091,0,0.00033856,3383.2,0.00012615,0.44714,8.6563e-05,-296.96,-0.00034262,-3521.7,0.77034
2989,12.421,2.9091,0,0.00031556,3153.4,0.00011881,0.32768,7.8435e-05,-303.03,-0.00031961,-3293.8,0.79324
2990,12.605,2.9091,0,0.00029709,2968.9,0.00011247,0.23853,7.2727e-05,-298.35,-0.00030103,-3106.6,0.81635
2991,12.788,2.9091,0,0.00028207,2818.8,0.00010695,0.17332,6.8731e-05,-287.01,-0.00028585,-2951.2,0.83966
2992,12.972,2.9091,0,0.00026967,2694.8,0.00010212,0.12604,6.5937e-05,-271.76,-0.00027326,-2820.4,0.86317
2993,13.156,2.9091,0,0.00025926,2590.8,9.7855e-05,0.091818,6.3979e-05,-254.44,-0.00026264,-2708.5,0.88687
2994,13.34,2.9091,0,0.00025035,2501.8,9.4049e-05,0.067087,6.2592e-05,-236.29,-0.00025353,-2611.5,0.91074
2995,13.524,2.9091,0,0.0002426,2424.3,9.0621e-05,0.04926,6.159e-05,-218.08,-0.00024557,-2526,0.93478
2996,13.707,2.9091,0,0.00023572,2355.6,8.7503e-05,0.036406,6.0836e-05,-200.32,-0.00023849,-2449.3,0.95899
2997,13.891,2.9091,0,0.00022951,2293.5,8.464e-05,0.027156,6.0236e-05,-183.33,-0.00023208,-2379.7,0.98336
2998,14.075,2.9091,0,0.0002238,2236.5,8.1987e-05,0.020527,5.9722e-05,-167.27,-0.00022618,-2315.4,1.0079
2999,14.259,2.9091,0,0.00021848,2183.3,7.9509e-05,0.015763,5.9245e-05,-152.24,-0.00022067,-2255.4,1.0326
3000,14.443,2.9091,0,0.00021344,2133,7.7175e-05,0.012392,5.8774e-05,-138.24,-0.00021546,-2198.7,1.0574
3001,14.626,2.9091,0,0.00020863,2084.8,7.496e-05,0.010088,5.8286e-05,-125.28,-0.00021048,-2144.7,1.0824
3002,14.81,2.9091,0,0.00020398,2038.3,7.2847e-05,0.0085452,5.7766e-05,-113.3,-0.00020567,-2092.6,1.1075
3003,14.994,2.9091,0,0.00019944,1993.1,7.0818e-05,0.0075602,5.7207e-05,-102.26,-0.00020099,-2042.2,1.1327
3004,15.178,2.9091,0,0.000195,1948.7,6.886e-05,0.006981,5.6603e-05,-92.086,-0.00019641,-1993.1,1.1581
3005,15.362,2.9091,0,0.00019063,1905,6.6962e-05,0.0066586,5.5952e-05,-82.72,-0.00019191,-1945,1.1836
3006,15.545,2.9091,0,0.00018631,1861.8,6.5117e-05,0.0065476,5.5255e-05,-74.092,-0.00018746,-1897.8,1.2093
3007,15.729,2.9091,0,0.00018203,1819,6.3316e-05,0.0066287,5.4512e-05,-66.138,-0.00018306,-1851.2,1.2351
3008,15.913,2.9091,0,0.00017777,1776.5,6.1553e-05,0.0068284,5.3727e-05,-58.795,-0.0001787,-1805.1,1.261
3009,16.097,2.9091,0,0.00017354,1734.2,5.9824e-05,0.0071158,5.2902e-05,-52.004,-0.00017436,-1759.6,1.287
3010,16.281,2.9091,0,0.00016932,1692,5.8125e-05,0.0074682,5.204e-05,-45.71,-0.00017005,-1714.4,1.3131
3011,16.464,2.9091,0,0.00016512,1650,5.6451e-05,0.0078231,5.1145e-05,-39.862,-0.00016576,-1669.6,1.3394
3012,16.648,2.9091,0,0.00016092,1608.1,5.4801e-05,0.0082091,5.022e-05,-34.414,-0.00016148,-1625.1,1.3658
3013,16.832,2.9091,0,0.00015674,1566.3,5.3171e-05,0.0086491,4.9268e-05,-29.32,-0.00015722,-1580.8,1.3923
3014,17.016,2.9091,0,0.00015257,1524.7,5.156e-05,0.0091169,4.8293e-05,-24.54,-0.00015297,-1536.8,1.4188
3015,17.2,2.9091,0,0.00014841,1483.1,4.9966e-05,0.009603,4.7298e-05,-20.037,-0.00014874,-1493,1.4455
3016,17.383,2.9091,0,0.00014426,1441.6,4.8387e-05,0.010106,4.6286e-05,-15.777,-0.00014452,-1449.4,1.4723
3017,17.567,2.9091,0,0.00014012,1400.3,4.6822e-05,0.010596,4.526e-05,-11.726,-0.00014032,-1406.1,1.4992
3018,17.751,2.9091,0,0.000136,1359.1,4.5269e-05,0.011103,4.4222e-05,-7.8539,-0.00013613,-1363,1.5262
3019,17.935,2.9091,0,0.00013189,1318,4.3728e-05,0.011662,4.3177e-05,-4.133,-0.00013196,-1320,1.5532
3020,18.119,2.9091,0,0.00012779,1277,4.2198e-05,0.012455,4.2125e-05,-0.53621,-0.0001278,-1277.3,1.5804
3021,18.302,2.9091,0,0.00012371,1236.2,4.107e-05,2.9628,4.0677e-05,0.012742,-0.00012366,-1234.7,1.6077
3022,18.486,2.9091,0,0.00011964,1195.6,4.0014e-05,6.3877,3.9166e-05,0.013388,-0.00011953,-1192.4,1.635
3023,18.67,2.9091,0,0.00011559,1155.1,3.896e-05,9.7625,3.7663e-05,0.014025,-0.00011542,-1150.2,1.6624
3024,18.854,2.9091,0,0.00011157,1114.9,3.7909e-05,13.11,3.6167e-05,0.014689,-0.00011134,-1108.3,1.6899
3025,19.038,2.9091,0,0.00010756,1074.8,3.6865e-05,16.453,3.4677e-05,0.015413,-0.00010727,-1066.5,1.7175
3026,19.221,2.9091,0,0.00010357,1035,3.5829e-05,19.814,3.3194e-05,0.016184,-0.00010322,-1025,1.7451
3027,19.405,2.9091,0,9.961e-05,995.41,3.4804e-05,23.214,3.1716e-05,0.017011,-9.9195e-05,-983.6,1.7728
3028,19.589,2.9091,0,9.5673e-05,956.07,3.3791e-05,26.675,3.0243e-05,0.017898,-9.5191e-05,-942.44,1.8006
3029,19.773,2.9091,0,9.1762e-05,916.98,3.2793e-05,30.22,2.8774e-05,0.018834,-9.121e-05,-901.49,1.8284
3030,19.956,2.9091,0,8.7878e-05,878.18,3.1813e-05,33.871,2.7308e-05,0.019843,-8.7253e-05,-860.74,1.8563
3031,20.14,2.9091,0,8.4025e-05,839.67,3.0852e-05,37.65,2.5844e-05,0.020961,-8.332e-05,-820.2,1.8843
3032,20.324,2.9091,0,8.0202e-05,801.47,2.9913e-05,41.579,2.4382e-05,0.022182,-7.9413e-05,-779.86,1.9123
3033,20.508,2.9091,0,7.6412e-05,763.59,2.8998e-05,45.683,2.2921e-05,0.023528,-7.5532e-05,-739.72,1.9404
3034,20.692,2.9091,0,7.2657e-05,726.07,2.811e-05,49.985,2.146e-05,0.025016,-7.1677e-05,-699.78,1.9685
3035,20.875,2.9091,0,6.8939e-05,688.92,2.725e-05,54.508,1.9999e-05,0.026652,-6.785e-05,-660.03,1.9966
3036,21.059,2.9091,0,6.5261e-05,652.16,2.6421e-05,59.277,1.8535e-05,0.028482,-6.405e-05,-620.48,2.0249
3037,21.243,2.9091,0,6.1624e-05,615.82,2.5625e-05,64.316,1.7069e-05,0.030558,-6.0277e-05,-581.12,2.0531
3038,21.427,2.9091,0,5.8032e-05,579.92,2.4865e-05,69.649,1.56e-05,0.032925,-5.6532e-05,-541.94,2.0814
3039,21.611,2.9091,0,5.4488e-05,544.5,2.4142e-05,75.3,1.4125e-05,0.035644,-5.2814e-05,-502.92,2.1098
3040,21.794,2.9091,0,5.0995e-05,509.6,2.3458e-05,81.292,1.2644e-05,0.038808,-4.9123e-05,-464.06,2.1381
3041,21.978,2.9091,0,4.756e-05,475.27,2.2815e-05,87.647,1.1155e-05,0.042529,-4.5458e-05,-425.33,2.1665
3042,22.162,2.9091,0,4.4187e-05,441.56,2.2214e-05,94.385,9.6584e-06,0.046999,-4.1817e-05,-386.72,2.195
3043,22.346,2.9091,0,4.0884e-05,408.56,2.1656e-05,101.52,8.1513e-06,0.052477,-3.8199e-05,-348.2,2.2234
3044,22.53,2.9091,0,3.7662e-05,376.36,2.1142e-05,109.08,6.6327e-06,0.059388,-3.4601e-05,-309.75,2.2519
3045,22.713,2.9091,0,3.4534e-05,345.1,2.0672e-05,117.06,5.1011e-06,0.068192,-3.102e-05,-271.33,2.2804
3046,22.897,2.9091,0,3.1521e-05,315,2.0245e-05,125.48,3.5553e-06,0.080556,-2.7453e-05,-232.9,2.309
3047,23.081,2.9091,0,2.8652e-05,286.32,1.9861e-05,134.35,1.9937e-06,0.095862,-2.3896e-05,-194.43,2.3375
3048,23.265,2.9091,0,2.5965e-05,259.47,1.9518e-05,143.65,4.1634e-07,0.12768,-2.0346e-05,-155.87,2.3661
3049,23.449,2.9091,0,2.3518e-05,235.02,1.9215e-05,153.38,-1.1803e-06,0.14575,-1.6798e-05,-117.2,2.3947
3050,23.632,2.9091,0,2.1392e-05,213.77,1.8948e-05,163.6,-2.7811e-06,0.33248,-1.3256e-05,-78.37,2.4233
3051,23.816,2.9091,0,1.9687e-05,196.74,1.8714e-05,174.04,-4.42e-06,0.21403,-9.7111e-06,-39.542,2.4519
3052,10.95,2.7273,0,0.00073223,7317.3,0.00029441,638.47,0.00020911,-2.4088,-0.0007193,-6978.2,0.61785
3053,11.134,2.7273,0,0.00065457,6541.1,0.00024803,386.63,0.00019657,-0.065438,-0.00064713,-6339.3,0.63855
3054,11.318,2.7273,0,0.00057357,5731.7,0.00020186,151.5,0.00018178,0.62152,-0.00057083,-5654.2,0.65968
3055,11.502,2.7273,0,0.00050258,5022.3,0.0001675,1.7124,0.00016323,-30.35,-0.00050306,-5036.6,0.68119
3056,11.686,2.7273,0,0.00044493,4446.2,0.00015442,0.96418,0.00013393,-152.93,-0.00044731,-4520.2,0.70304
3057,11.869,2.7273,0,0.00039945,3991.7,0.00014309,0.75986,0.00011244,-229.53,-0.00040284,-4101.1,0.72519
3058,12.053,2.7273,0,0.00036381,3635.6,0.00013335,0.57554,9.7006e-05,-272.5,-0.00036767,-3763.9,0.74761
3059,12.237,2.7273,0,0.00033578,3355.5,0.00012501,0.43071,8.6038e-05,-292.39,-0.00033979,-3491.9,0.77029
3060,12.421,2.7273,0,0.00031352,3133.1,0.00011785,0.31912,7.8283e-05,-296.97,-0.00031751,-3270.8,0.79319
3061,12.605,2.7273,0,0.00029563,2954.3,0.00011167,0.23531,7.2815e-05,-291.71,-0.00029951,-3089.2,0.8163
3062,12.788,2.7273,0,0.00028105,2808.5,0.0001063,0.17321,6.8966e-05,-280.32,-0.00028476,-2938.1,0.83962
3063,12.972,2.7273,0,0.00026896,2687.8,0.00010159,0.12753,6.6254e-05,-265.35,-0.00027249,-2810.5,0.86313
3064,13.156,2.7273,0,0.00025878,2586,9.7417e-05,0.093987,6.4334e-05,-248.48,-0.00026211,-2701.2,0.88682
3065,13.34,2.7273,0,0.00025005,2498.7,9.3691e-05,0.069424,6.2958e-05,-230.85,-0.00025317,-2606.1,0.9107
3066,13.524,2.7273,0,0.00024242,2422.5,9.0329e-05,0.051503,6.1948e-05,-213.19,-0.00024534,-2522,0.93474
3067,13.707,2.7273,0,0.00023562,2354.6,8.7264e-05,0.038434,6.1177e-05,-195.97,-0.00023834,-2446.5,0.95895
3068,13.891,2.7273,0,0.00022947,2293.1,8.4444e-05,0.02893,6.0553e-05,-179.48,-0.000232,-2377.6,0.98332
3069,14.075,2.7273,0,0.00022381,2236.5,8.1827e-05,0.022045,6.0013e-05,-163.88,-0.00022614,-2314,1.0078
3070,14.259,2.7273,0,0.00021851,2183.6,7.9377e-05,0.017044,5.9509e-05,-149.26,-0.00022067,-2254.4,1.0325
3071,14.443,2.7273,0,0.0002135,2133.5,7.7067e-05,0.013465,5.9012e-05,-135.64,-0.00021548,-2198.1,1.0573
3072,14.626,2.7273,0,0.00020869,2085.5,7.4871e-05,0.010979,5.8499e-05,-123,-0.00021051,-2144.2,1.0823
3073,14.81,2.7273,0,0.00020404,2039,7.2773e-05,0.0092819,5.7957e-05,-111.31,-0.00020571,-2092.4,1.1074
3074,14.994,2.7273,0,0.00019951,1993.8,7.0757e-05,0.0081669,5.7377e-05,-100.52,-0.00020103,-2042.1,1.1327
3075,15.178,2.7273,0,0.00019507,1949.4,6.8809e-05,0.0074786,5.6754e-05,-90.573,-0.00019646,-1993.1,1.1581
3076,15.362,2.7273,0,0.0001907,1905.7,6.6921e-05,0.0070648,5.6086e-05,-81.398,-0.00019195,-1945.1,1.1836
3077,15.545,2.7273,0,0.00018638,1862.5,6.5082e-05,0.0068778,5.5374e-05,-72.937,-0.00018751,-1897.9,1.2093
3078,15.729,2.7273,0,0.00018209,1819.6,6.3287e-05,0.0068926,5.4618e-05,-65.127,-0.00018311,-1851.3,1.235
3079,15.913,2.7273,0,0.00017783,1777.1,6.1529e-05,0.0070418,5.3821e-05,-57.91,-0.00017874,-1805.3,1.2609
3080,16.097,2.7273,0,0.00017359,1734.7,5.9804e-05,0.0072859,5.2985e-05,-51.228,-0.0001744,-1759.7,1.287
3081,16.281,2.7273,0,0.00016937,1692.5,5.8108e-05,0.0075981,5.2114e-05,-45.03,-0.00017009,-1714.6,1.3131
3082,16.464,2.7273,0,0.00016516,1650.5,5.6437e-05,0.0079265,5.121e-05,-39.267,-0.00016579,-1669.8,1.3394
3083,16.648,2.7273,0,0.00016097,1608.5,5.4789e-05,0.0082874,5.0278e-05,-33.892,-0.00016152,-1625.2,1.3657
3084,16.832,2.7273,0,0.00015678,1566.7,5.3162e-05,0.0087093,4.9319e-05,-28.864,-0.00015725,-1581,1.3922
3085,17.016,2.7273,0,0.00015261,1525,5.1552e-05,0.0091588,4.8338e-05,-24.142,-0.000153,-1536.9,1.4188
3086,17.2,2.7273,0,0.00014844,1483.4,4.9959e-05,0.0096363,4.7337e-05,-19.692,-0.00014877,-1493.2,1.4455
3087,17.383,2.7273,0,0.00014429,1441.9,4.8382e-05,0.010141,4.632e-05,-15.478,-0.00014455,-1449.6,1.4723
3088,17.567,2.7273,0,0.00014015,1400.5,4.6818e-05,0.01064,4.529e-05,-11.471,-0.00014034,-1406.2,1.4992
3089,17.751,2.7273,0,0.00013602,1359.3,4.5266e-05,0.011183,4.4248e-05,-7.6384,-0.00013615,-1363.1,1.5261
3090,17.935,2.7273,0,0.00013191,1318.2,4.3726e-05,0.01187,4.3198e-05,-3.9545,-0.00013197,-1320.1,1.5532
3091,18.119,2.7273,0,0.00012781,1277.2,4.2197e-05,0.015247,4.2143e-05,-0.39478,-0.00012781,-1277.4,1.5804
3092,18.302,2.7273,0,0.00012372,1236.4,4.1085e-05,3.0747,4.0677e-05,0.01227,-0.00012367,-1234.8,1.6076
3093,18.486,2.7273,0,0.00011965,1195.7,4.0025e-05,6.468,3.9166e-05,0.013101,-0.00011954,-1192.5,1.635
3094,18.67,2.7273,0,0.0001156,1155.3,3.8968e-05,9.8122,3.7664e-05,0.013787,-0.00011543,-1150.3,1.6624
3095,18.854,2.7273,0,0.00011157,1115,3.7914e-05,13.13,3.6168e-05,0.014473,-0.00011134,-1108.3,1.6899
3096,19.038,2.7273,0,0.00010756,1074.9,3.6866e-05,16.443,3.468e-05,0.015202,-0.00010728,-1066.6,1.7174
3097,19.221,2.7273,0,0.00010358,1035,3.5827e-05,19.774,3.3197e-05,0.015978,-0.00010323,-1025,1.7451
3098,19.405,2.7273,0,9.9612e-05,995.43,3.4798e-05,23.144,3.172e-05,0.016804,-9.9197e-05,-983.65,1.7728
3099,19.589,2.7273,0,9.5672e-05,956.06,3.3782e-05,26.575,3.0248e-05,0.017689,-9.5191e-05,-942.48,1.8006
3100,19.773,2.7273,0,9.1758e-05,916.94,3.2781e-05,30.088,2.8779e-05,0.01862,-9.1208e-05,-901.52,1.8284
3101,19.956,2.7273,0,8.7872e-05,878.11,3.1797e-05,33.706,2.7314e-05,0.019628,-8.7249e-05,-860.76,1.8563
3102,20.14,2.7273,0,8.4015e-05,839.57,3.0832e-05,37.451,2.5851e-05,0.02074,-8.3315e-05,-820.21,1.8843
3103,20.324,2.7273,0,8.0189e-05,801.34,2.989e-05,41.345,2.439e-05,0.021959,-7.9405e-05,-779.85,1.9123
3104,20.508,2.7273,0,7.6396e-05,763.43,2.8971e-05,45.413,2.293e-05,0.023299,-7.5522e-05,-739.7,1.9403
3105,20.692,2.7273,0,7.2637e-05,725.87,2.8078e-05,49.676,2.147e-05,0.024779,-7.1664e-05,-699.75,1.9685
3106,20.875,2.7273,0,6.8916e-05,688.68,2.7214e-05,54.159,2.0009e-05,0.026411,-6.7834e-05,-659.99,1.9966
3107,21.059,2.7273,0,6.5234e-05,651.89,2.638e-05,58.886,1.8547e-05,0.028235,-6.4032e-05,-620.43,2.0248
3108,21.243,2.7273,0,6.1593e-05,615.5,2.558e-05,63.882,1.7082e-05,0.030308,-6.0256e-05,-581.06,2.0531
3109,21.427,2.7273,0,5.7996e-05,579.56,2.4815e-05,69.171,1.5613e-05,0.032669,-5.6509e-05,-541.86,2.0814
3110,21.611,2.7273,0,5.4448e-05,544.1,2.4087e-05,74.776,1.4139e-05,0.035383,-5.2789e-05,-502.83,2.1097
3111,21.794,2.7273,0,5.0951e-05,509.16,2.3398e-05,80.722,1.266e-05,0.038541,-4.9095e-05,-463.96,2.1381
3112,21.978,2.7273,0,4.7511e-05,474.78,2.275e-05,87.031,1.1173e-05,0.042259,-4.5428e-05,-425.23,2.1665
3113,22.162,2.7273,0,4.4134e-05,441.03,2.2145e-05,93.724,9.6769e-06,0.046726,-4.1785e-05,-386.62,2.195
3114,22.346,2.7273,0,4.0826e-05,407.98,2.1582e-05,100.82,8.1712e-06,0.052196,-3.8165e-05,-348.1,2.2234
3115,22.53,2.7273,0,3.76e-05,375.74,2.1064e-05,108.33,6.6541e-06,0.059098,-3.4566e-05,-309.65,2.2519
3116,22.713,2.7273,0,3.4468e-05,344.44,2.0591e-05,116.28,5.124e-06,0.067891,-3.0985e-05,-271.24,2.2804
3117,22.897,2.7273,0,3.1451e-05,314.3,2.0161e-05,124.67,3.5796e-06,0.080237,-2.7418e-05,-232.82,2.309
3118,23.081,2.7273,0,2.8577e-05,285.58,1.9775e-05,133.5,2.0194e-06,0.095519,-2.3862e-05,-194.36,2.3375
3119,23.265,2.7273,0,2.5887e-05,258.69,1.943e-05,142.78,4.4337e-07,0.12729,-2.0312e-05,-155.82,2.3661
3120,23.449,2.7273,0,2.3436e-05,234.2,1.9125e-05,152.5,-1.1521e-06,0.14531,-1.6766e-05,-117.17,2.3947
3121,23.632,2.7273,0,2.1306e-05,212.92,1.8858e-05,162.7,-2.752e-06,0.33184,-1.3225e-05,-78.36,2.4233
3122,23.816,2.7273,0,1.9599e-05,195.86,1.8625e-05,173.14,-4.3901e-06,0.21268,-9.6823e-06,-39.551,2.4519
3123,10.95,2.5455,0,0.00076729,7667.6,0.0003078,664.02,0.00021992,3.7592,-0.00075379,-7312.4,0.61747
3124,11.134,2.5455,0,0.00066301,6625.5,0.00024907,365.45,0.00020046,0.18313,-0.00065603,-6435.1,0.63822
3125,11.318,2.5455,0,0.00056677,5663.8,0.00019667,115.41,0.00018125,-0.4036,-0.00056472,-5605.4,0.65941
3126,11.502,2.5455,0,0.00049126,4909.2,0.00016511,1.7347,0.00015721,-57.622,-0.00049219,-4936.9,0.68098
3127,11.686,2.5455,0,0.0004339,4336.1,0.00015141,0.99747,0.0001292,-165.84,-0.00043647,-4416.1,0.70286
3128,11.869,2.5455,0,0.00039028,3900.1,0.00014011,0.70408,0.0001093,-230.81,-0.00039368,-4010,0.72504
3129,12.053,2.5455,0,0.00035669,3564.5,0.00013069,0.54357,9.5198e-05,-266.12,-0.00036046,-3689.8,0.74749
3130,12.237,2.5455,0,0.00033045,3302.2,0.00012273,0.41011,8.52e-05,-281.6,-0.00033433,-3433.8,0.77017
3131,12.421,2.5455,0,0.00030963,3094.1,0.00011595,0.31041,7.8103e-05,-284.04,-0.00031347,-3226.2,0.79308
3132,12.605,2.5455,0,0.00029283,2926.3,0.0001101,0.23386,7.306e-05,-278.08,-0.00029657,-3055.3,0.81621
3133,12.788,2.5455,0,0.00027907,2788.8,0.00010501,0.17584,6.9468e-05,-266.89,-0.00028265,-2912.5,0.83953
3134,12.972,2.5455,0,0.0002676,2674.1,0.00010054,0.13205,6.6897e-05,-252.61,-0.000271,-2791.4,0.86304
3135,13.156,2.5455,0,0.00025787,2576.9,9.6559e-05,0.09913,6.5042e-05,-236.71,-0.00026107,-2687,0.88674
3136,13.34,2.5455,0,0.00024946,2492.8,9.2991e-05,0.07449,6.368e-05,-220.16,-0.00025247,-2595.6,0.91061
3137,13.524,2.5455,0,0.00024206,2418.9,8.9757e-05,0.056153,6.2652e-05,-203.6,-0.00024488,-2514.3,0.93466
3138,13.707,2.5455,0,0.00023544,2352.7,8.6796e-05,0.042536,6.1845e-05,-187.43,-0.00023806,-2440.8,0.95887
3139,13.891,2.5455,0,0.0002294,2292.4,8.4062e-05,0.03246,6.1175e-05,-171.93,-0.00023184,-2373.5,0.98324
3140,14.075,2.5455,0,0.00022382,2236.6,8.1514e-05,0.025038,6.0583e-05,-157.24,-0.00022608,-2311.1,1.0078
3141,14.259,2.5455,0,0.00021858,2184.3,7.912e-05,0.019555,6.0027e-05,-143.44,-0.00022066,-2252.4,1.0324
3142,14.443,2.5455,0,0.00021359,2134.5,7.6855e-05,0.015556,5.9479e-05,-130.54,-0.00021552,-2196.7,1.0573
3143,14.626,2.5455,0,0.00020881,2086.7,7.4697e-05,0.012711,5.8918e-05,-118.54,-0.00021057,-2143.4,1.0822
3144,14.81,2.5455,0,0.00020417,2040.3,7.2629e-05,0.010711,5.8331e-05,-107.42,-0.00020579,-2091.9,1.1074
3145,14.994,2.5455,0,0.00019965,1995.1,7.0638e-05,0.0093419,5.771e-05,-97.122,-0.00020112,-2041.9,1.1326
3146,15.178,2.5455,0,0.00019521,1950.8,6.871e-05,0.0084412,5.7051e-05,-87.6,-0.00019655,-1993.1,1.158
3147,15.362,2.5455,0,0.00019083,1907,6.6838e-05,0.0078492,5.635e-05,-78.799,-0.00019205,-1945.2,1.1835
3148,15.545,2.5455,0,0.0001865,1863.7,6.5014e-05,0.0075135,5.5608e-05,-70.663,-0.0001876,-1898.1,1.2092
3149,15.729,2.5455,0,0.00018221,1820.8,6.323e-05,0.007407,5.4826e-05,-63.136,-0.0001832,-1851.6,1.235
3150,15.913,2.5455,0,0.00017794,1778.2,6.1482e-05,0.0074507,5.4005e-05,-56.165,-0.00017883,-1805.6,1.2609
3151,16.097,2.5455,0,0.0001737,1735.8,5.9764e-05,0.0076092,5.3149e-05,-49.698,-0.00017449,-1760.1,1.2869
3152,16.281,2.5455,0,0.00016947,1693.5,5.8075e-05,0.0078525,5.2259e-05,-43.688,-0.00017017,-1714.9,1.313
3153,16.464,2.5455,0,0.00016525,1651.4,5.641e-05,0.0081195,5.1339e-05,-38.09,-0.00016587,-1670.1,1.3393
3154,16.648,2.5455,0,0.00016105,1609.4,5.4766e-05,0.0084339,5.0392e-05,-32.861,-0.00016158,-1625.6,1.3657
3155,16.832,2.5455,0,0.00015686,1567.5,5.3143e-05,0.0088176,4.942e-05,-27.961,-0.00015731,-1581.3,1.3922
3156,17.016,2.5455,0,0.00015268,1525.7,5.1537e-05,0.0092429,4.8427e-05,-23.355,-0.00015306,-1537.3,1.4187
3157,17.2,2.5455,0,0.00014851,1484.1,4.9947e-05,0.0097067,4.7416e-05,-19.007,-0.00014882,-1493.5,1.4454
3158,17.383,2.5455,0,0.00014435,1442.5,4.8372e-05,0.010209,4.6389e-05,-14.887,-0.0001446,-1449.9,1.4722
3159,17.567,2.5455,0,0.0001402,1401.1,4.681e-05,0.010737,4.5349e-05,-10.964,-0.00014039,-1406.5,1.4991
3160,17.751,2.5455,0,0.00013607,1359.8,4.5261e-05,0.011362,4.4299e-05,-7.2105,-0.00013619,-1363.3,1.5261
3161,17.935,2.5455,0,0.00013195,1318.6,4.3723e-05,0.012355,4.3242e-05,-3.5996,-0.00013201,-1320.4,1.5532
3162,18.119,2.5455,0,0.00012784,1277.6,4.2198e-05,0.036833,4.2176e-05,-0.12936,-0.00012785,-1277.6,1.5803
3163,18.302,2.5455,0,0.00012375,1236.7,4.1114e-05,3.2976,4.0677e-05,0.011406,-0.0001237,-1235,1.6076
3164,18.486,2.5455,0,0.00011968,1196,4.0048e-05,6.6283,3.9167e-05,0.012537,-0.00011957,-1192.7,1.6349
3165,18.67,2.5455,0,0.00011563,1155.5,3.8984e-05,9.9118,3.7666e-05,0.013311,-0.00011546,-1150.5,1.6623
3166,18.854,2.5455,0,0.00011159,1115.2,3.7923e-05,13.17,3.6172e-05,0.014033,-0.00011136,-1108.5,1.6898
3167,19.038,2.5455,0,0.00010758,1075,3.6869e-05,16.424,3.4685e-05,0.014781,-0.00010729,-1066.7,1.7174
3168,19.221,2.5455,0,0.00010358,1035.1,3.5823e-05,19.696,3.3204e-05,0.015561,-0.00010324,-1025.1,1.745
3169,19.405,2.5455,0,9.9615e-05,995.46,3.4788e-05,23.006,3.1728e-05,0.016386,-9.9203e-05,-983.75,1.7727
3170,19.589,2.5455,0,9.5669e-05,956.03,3.3765e-05,26.376,3.0257e-05,0.017267,-9.5193e-05,-942.56,1.8005
3171,19.773,2.5455,0,9.175e-05,916.87,3.2757e-05,29.826,2.879e-05,0.018192,-9.1206e-05,-901.58,1.8283
3172,19.956,2.5455,0,8.7858e-05,877.98,3.1766e-05,33.38,2.7326e-05,0.01919,-8.7242e-05,-860.8,1.8563
3173,20.14,2.5455,0,8.3995e-05,839.37,3.0794e-05,37.057,2.5864e-05,0.020293,-8.3303e-05,-820.22,1.8842
3174,20.324,2.5455,0,8.0163e-05,801.08,2.9843e-05,40.882,2.4405e-05,0.021501,-7.9389e-05,-779.85,1.9122
3175,20.508,2.5455,0,7.6364e-05,763.11,2.8916e-05,44.876,2.2946e-05,0.022831,-7.5501e-05,-739.67,1.9403
3176,20.692,2.5455,0,7.2598e-05,725.48,2.8015e-05,49.062,2.1488e-05,0.024302,-7.1639e-05,-699.7,1.9684
3177,20.875,2.5455,0,6.887e-05,688.22,2.7142e-05,53.466,2.0029e-05,0.025921,-6.7804e-05,-659.92,1.9966
3178,21.059,2.5455,0,6.5179e-05,651.34,2.6299e-05,58.11,1.8569e-05,0.027735,-6.3996e-05,-620.33,2.0248
3179,21.243,2.5455,0,6.1531e-05,614.88,2.5489e-05,63.019,1.7106e-05,0.029796,-6.0215e-05,-580.93,2.0531
3180,21.427,2.5455,0,5.7926e-05,578.86,2.4714e-05,68.218,1.5639e-05,0.032146,-5.6463e-05,-541.71,2.0814
3181,21.611,2.5455,0,5.4369e-05,543.31,2.3977e-05,73.732,1.4168e-05,0.034852,-5.2738e-05,-502.67,2.1097
3182,21.794,2.5455,0,5.0863e-05,508.28,2.3278e-05,79.586,1.2691e-05,0.038003,-4.9039e-05,-463.78,2.1381
3183,21.978,2.5455,0,4.7414e-05,473.82,2.2621e-05,85.802,1.1207e-05,0.041711,-4.5368e-05,-425.04,2.1665
3184,22.162,2.5455,0,4.4028e-05,439.97,2.2006e-05,92.403,9.7138e-06,0.046164,-4.1721e-05,-386.42,2.1949
3185,22.346,2.5455,0,4.0711e-05,406.83,2.1435e-05,99.41,8.211e-06,0.051623,-3.8098e-05,-347.9,2.2234
3186,22.53,2.5455,0,3.7476e-05,374.5,2.0909e-05,106.84,6.6968e-06,0.058505,-3.4497e-05,-309.46,2.2519
3187,22.713,2.5455,0,3.4336e-05,343.12,2.0428e-05,114.71,5.1697e-06,0.067273,-3.0915e-05,-271.06,2.2804
3188,22.897,2.5455,0,3.1311e-05,312.89,1.9992e-05,123.03,3.6283e-06,0.079584,-2.7347e-05,-232.66,2.3089
3189,23.081,2.5455,0,2.8428e-05,284.09,1.9601e-05,131.8,2.071e-06,0.094815,-2.3792e-05,-194.23,2.3375
3190,23.265,2.5455,0,2.5729e-05,257.12,1.9252e-05,141.04,4.9758e-07,0.1265,-2.0245e-05,-155.73,2.3661
3191,23.449,2.5455,0,2.3271e-05,232.55,1.8945e-05,150.72,-1.0955e-06,0.14441,-1.6701e-05,-117.11,2.3946
3192,23.632,2.5455,0,2.1134e-05,211.2,1.8677e-05,160.9,-2.6934e-06,0.33054,-1.3164e-05,-78.338,2.4232
3193,23.816,2.5455,0,1.9423e-05,194.09,1.8445e-05,171.33,-4.3302e-06,0.20995,-9.6244e-06,-39.569,2.4518
3194,10.95,2.3636,0,0.00082677,8262,0.00033299,721.28,0.00023512,-14.061,-0.00081228,-7883.8,0.61689
3195,11.134,2.3636,0,0.00066361,6631.6,0.00024549,314.63,0.00020253,-8.1606,-0.00065781,-6472.4,0.63775
3196,11.318,2.3636,0,0.00054998,5496,0.00018726,70.997,0.00017823,3.1531,-0.00054868,-5458.6,0.65903
3197,11.502,2.3636,0,0.00047207,4717.5,0.0001598,1.0379,0.00014905,-79.721,-0.00047336,-4756.3,0.68066
3198,11.686,2.3636,0,0.00041732,4170.3,0.00014612,0.98953,0.00012339,-169.78,-0.00041992,-4252,0.70261
3199,11.869,2.3636,0,0.00037711,3768.5,0.00013536,0.71285,0.00010566,-222.43,-0.00038039,-3874.4,0.72482
3200,12.053,2.3636,0,0.00034666,3464.2,0.00012662,0.53203,9.3221e-05,-250.44,-0.00035023,-3582.4,0.7473
3201,12.237,2.3636,0,0.00032299,3227.7,0.00011934,0.41233,8.4399e-05,-262.12,-0.00032664,-3350.5,0.77
3202,12.421,2.3636,0,0.00030417,3039.6,0.00011315,0.31575,7.8095e-05,-263.08,-0.00030778,-3162.4,0.79293
3203,12.605,2.3636,0,0.00028891,2887.1,0.00010781,0.24279,7.3561e-05,-257.09,-0.00029242,-3006.9,0.81606
3204,12.788,2.3636,0,0.00027629,2761,0.00010314,0.18587,7.0277e-05,-246.74,-0.00027966,-2876,0.83939
3205,12.972,2.3636,0,0.00026567,2654.9,9.901e-05,0.14215,6.7873e-05,-233.81,-0.00026887,-2764,0.86291
3206,13.156,2.3636,0,0.00025657,2563.9,9.5315e-05,0.10855,6.6089e-05,-219.49,-0.00025959,-2666.5,0.88661
3207,13.34,2.3636,0,0.00024862,2484.5,9.1976e-05,0.082899,6.4736e-05,-204.59,-0.00025146,-2580.4,0.91049
3208,13.524,2.3636,0,0.00024155,2413.9,8.8928e-05,0.063455,6.3677e-05,-189.66,-0.00024422,-2503.1,0.93453
3209,13.707,2.3636,0,0.00023517,2350.1,8.6119e-05,0.048758,6.2814e-05,-175.06,-0.00023765,-2432.7,0.95874
3210,13.891,2.3636,0,0.0002293,2291.4,8.3507e-05,0.037699,6.2075e-05,-161,-0.00023161,-2367.7,0.98312
3211,14.075,2.3636,0,0.00022383,2236.8,8.1059e-05,0.029409,6.1408e-05,-147.62,-0.00022598,-2306.9,1.0076
3212,14.259,2.3636,0,0.00021867,2185.2,7.8746e-05,0.023183,6.0777e-05,-134.99,-0.00022065,-2249.5,1.0323
3213,14.443,2.3636,0,0.00021374,2135.9,7.6547e-05,0.018556,6.0156e-05,-123.14,-0.00021557,-2194.8,1.0572
3214,14.626,2.3636,0,0.00020899,2088.4,7.4443e-05,0.015184,5.9526e-05,-112.07,-0.00021067,-2142.2,1.0821
3215,14.81,2.3636,0,0.00020437,2042.3,7.242e-05,0.012742,5.8875e-05,-101.76,-0.00020591,-2091.2,1.1072
3216,14.994,2.3636,0,0.00019985,1997.1,7.0464e-05,0.011006,5.8196e-05,-92.17,-0.00020126,-2041.6,1.1325
3217,15.178,2.3636,0,0.00019541,1952.7,6.8567e-05,0.0098004,5.7483e-05,-83.268,-0.00019669,-1993,1.1579
3218,15.362,2.3636,0,0.00019103,1909,6.6719e-05,0.0089557,5.6735e-05,-75.007,-0.00019219,-1945.4,1.1834
3219,15.545,2.3636,0,0.00018669,1865.6,6.4914e-05,0.0084085,5.595e-05,-67.341,-0.00018774,-1898.4,1.2091
3220,15.729,2.3636,0,0.00018239,1822.6,6.3147e-05,0.008126,5.513e-05,-60.224,-0.00018334,-1852,1.2349
3221,15.913,2.3636,0,0.00017811,1779.9,6.1412e-05,0.008023,5.4276e-05,-53.61,-0.00017896,-1806.1,1.2608
3222,16.097,2.3636,0,0.00017385,1737.3,5.9706e-05,0.0080633,5.339e-05,-47.455,-0.00017461,-1760.6,1.2868
3223,16.281,2.3636,0,0.00016961,1695,5.8026e-05,0.008203,5.2473e-05,-41.718,-0.00017028,-1715.4,1.3129
3224,16.464,2.3636,0,0.00016539,1652.7,5.6369e-05,0.0083891,5.1529e-05,-36.359,-0.00016597,-1670.6,1.3392
3225,16.648,2.3636,0,0.00016117,1610.6,5.4733e-05,0.0086387,5.056e-05,-31.342,-0.00016168,-1626.1,1.3656
3226,16.832,2.3636,0,0.00015697,1568.6,5.3115e-05,0.0089686,4.9569e-05,-26.63,-0.00015741,-1581.8,1.3921
3227,17.016,2.3636,0,0.00015278,1526.8,5.1514e-05,0.0093594,4.8559e-05,-22.192,-0.00015315,-1537.7,1.4186
3228,17.2,2.3636,0,0.0001486,1485,4.9929e-05,0.0098041,4.7532e-05,-17.996,-0.0001489,-1493.9,1.4453
3229,17.383,2.3636,0,0.00014444,1443.4,4.8357e-05,0.010315,4.6491e-05,-14.012,-0.00014467,-1450.3,1.4721
3230,17.567,2.3636,0,0.00014028,1401.8,4.6799e-05,0.010893,4.5438e-05,-10.214,-0.00014045,-1406.9,1.499
3231,17.751,2.3636,0,0.00013614,1360.5,4.5253e-05,0.011681,4.4376e-05,-6.5758,-0.00013625,-1363.7,1.526
3232,17.935,2.3636,0,0.00013201,1319.2,4.3717e-05,0.013322,4.3307e-05,-3.0727,-0.00013206,-1320.7,1.5531
3233,18.119,2.3636,0,0.0001279,1278.1,4.2236e-05,0.34336,4.2189e-05,-0.0088753,-0.00012789,-1277.9,1.5802
3234,18.302,2.3636,0,0.0001238,1237.2,4.1158e-05,3.6299,4.0676e-05,0.010271,-0.00012374,-1235.4,1.6075
3235,18.486,2.3636,0,0.00011972,1196.4,4.0081e-05,6.8681,3.9169e-05,0.011721,-0.0001196,-1193,1.6348
3236,18.67,2.3636,0,0.00011566,1155.8,3.9007e-05,10.062,3.767e-05,0.012606,-0.00011549,-1150.7,1.6622
3237,18.854,2.3636,0,0.00011162,1115.4,3.7937e-05,13.232,3.6178e-05,0.013371,-0.00011139,-1108.7,1.6897
3238,19.038,2.3636,0,0.0001076,1075.2,3.6874e-05,16.399,3.4693e-05,0.014138,-0.00010731,-1066.9,1.7173
3239,19.221,2.3636,0,0.0001036,1035.3,3.5818e-05,19.583,3.3214e-05,0.014926,-0.00010325,-1025.3,1.745
3240,19.405,2.3636,0,9.962e-05,995.51,3.4773e-05,22.804,3.174e-05,0.015747,-9.9212e-05,-983.9,1.7727
3241,19.589,2.3636,0,9.5667e-05,956.01,3.374e-05,26.083,3.0271e-05,0.016621,-9.5196e-05,-942.69,1.8004
3242,19.773,2.3636,0,9.1739e-05,916.76,3.2721e-05,29.441,2.8805e-05,0.017534,-9.1203e-05,-901.68,1.8283
3243,19.956,2.3636,0,8.7839e-05,877.79,3.172e-05,32.898,2.7344e-05,0.018519,-8.7233e-05,-860.87,1.8562
3244,20.14,2.3636,0,8.3968e-05,839.1,3.0737e-05,36.475,2.5885e-05,0.019606,-8.3287e-05,-820.25,1.8842
3245,20.324,2.3636,0,8.0126e-05,800.71,2.9774e-05,40.195,2.4427e-05,0.020796,-7.9366e-05,-779.84,1.9122
3246,20.508,2.3636,0,7.6317e-05,762.64,2.8835e-05,44.08,2.2971e-05,0.022108,-7.5471e-05,-739.63,1.9402
3247,20.692,2.3636,0,7.2541e-05,724.91,2.7921e-05,48.153,2.1516e-05,0.023559,-7.1601e-05,-699.62,1.9684
3248,20.875,2.3636,0,6.8801e-05,687.54,2.7035e-05,52.437,2.006e-05,0.025162,-6.7759e-05,-659.81,1.9965
3249,21.059,2.3636,0,6.51e-05,650.55,2.6179e-05,56.956,1.8602e-05,0.026955,-6.3943e-05,-620.18,2.0248
3250,21.243,2.3636,0,6.1439e-05,613.96,2.5355e-05,61.735,1.7142e-05,0.029001,-6.0155e-05,-580.75,2.053
3251,21.427,2.3636,0,5.7822e-05,577.82,2.4565e-05,66.8,1.5679e-05,0.031336,-5.6394e-05,-541.5,2.0813
3252,21.611,2.3636,0,5.4251e-05,542.14,2.3813e-05,72.177,1.4211e-05,0.034023,-5.2662e-05,-502.42,2.1097
3253,21.794,2.3636,0,5.0733e-05,506.98,2.3099e-05,77.89,1.2738e-05,0.037156,-4.8956e-05,-463.51,2.138
3254,21.978,2.3636,0,4.727e-05,472.37,2.2427e-05,83.965,1.1258e-05,0.040847,-4.5278e-05,-424.75,2.1664
3255,22.162,2.3636,0,4.387e-05,438.39,2.1798e-05,90.426,9.769e-06,0.045287,-4.1626e-05,-386.11,2.1949
3256,22.346,2.3636,0,4.054e-05,405.12,2.1213e-05,97.298,8.2705e-06,0.05072,-3.7998e-05,-347.59,2.2233
3257,22.53,2.3636,0,3.7291e-05,372.65,2.0675e-05,104.6,6.7608e-06,0.057579,-3.4393e-05,-309.16,2.2518
3258,22.713,2.3636,0,3.4137e-05,341.14,2.0182e-05,112.35,5.2383e-06,0.066308,-3.0809e-05,-270.78,2.2804
3259,22.897,2.3636,0,3.1099e-05,310.77,1.9737e-05,120.56,3.7014e-06,0.078563,-2.7241e-05,-232.41,2.3089
3260,23.081,2.3636,0,2.8204e-05,281.84,1.9338e-05,129.25,2.1485e-06,0.093713,-2.3687e-05,-194.03,2.3374
3261,23.265,2.3636,0,2.5492e-05,254.75,1.8984e-05,138.41,5.7924e-07,0.12527,-2.0143e-05,-155.57,2.366
3262,23.449,2.3636,0,2.3022e-05,230.06,1.8674e-05,148.04,-1.0102e-06,0.14299,-1.6603e-05,-117.02,2.3946
3263,23.632,2.3636,0,2.0874e-05,208.6,1.8404e-05,158.18,-2.605e-06,0.32853,-1.307e-05,-78.302,2.4232
3264,23.816,2.3636,0,1.9156e-05,191.43,1.8173e-05,168.6,-4.2396e-06,0.20574,-9.5368e-06,-39.595,2.4518
3265,10.95,2.1818,0,0.00087169,8710.9,0.00034698,709.32,0.00025041,-16.259,-0.00085763,-8341.6,0.61612
3266,11.134,2.1818,0,0.00064157,6411.3,0.00023559,303.7,0.00019882,27.484,-0.00063549,-6241.2,0.63714
3267,11.318,2.1818,0,0.00051764,5172.9,0.00017653,64.871,0.0001671,-5.971,-0.0005166,-5143,0.65854
3268,11.502,2.1818,0,0.00044528,4449.7,0.00015067,4.5369,0.00014102,-67.944,-0.00044631,-4480.9,0.68027
3269,11.686,2.1818,0,0.00039603,3957.6,0.00013807,0.73517,0.00011812,-149.18,-0.00039835,-4029.7,0.70227
3270,11.869,2.1818,0,0.00036087,3606.2,0.00012875,0.99543,0.00010253,-195.99,-0.00036379,-3699.7,0.72454
3271,12.053,2.1818,0,0.00033445,3342.2,0.00012119,0.58975,9.1673e-05,-221.21,-0.00033765,-3447,0.74705
3272,12.237,2.1818,0,0.00031393,3137.2,0.00011492,0.47204,8.3975e-05,-232.01,-0.00031723,-3246.5,0.76978
3273,12.421,2.1818,0,0.00029754,2973.3,0.00010955,0.3517,7.8437e-05,-233.43,-0.00030081,-3082.9,0.79272
3274,12.605,2.1818,0,0.00028411,2839.2,0.00010488,0.27153,7.44e-05,-228.77,-0.00028731,-2946.5,0.81587
3275,12.788,2.1818,0,0.00027289,2727,0.00010076,0.20836,7.1415e-05,-220.28,-0.00027596,-2830.3,0.83921
3276,12.972,2.1818,0,0.0002633,2631.2,9.7072e-05,0.16051,6.917e-05,-209.48,-0.00026623,-2729.6,0.86273
3277,13.156,2.1818,0,0.00025496,2547.9,9.3737e-05,0.12358,6.7447e-05,-197.41,-0.00025774,-2640.8,0.88644
3278,13.34,2.1818,0,0.00024758,2474.1,9.0689e-05,0.095255,6.6088e-05,-184.74,-0.0002502,-2561.2,0.91032
3279,13.524,2.1818,0,0.00024092,2407.6,8.7877e-05,0.0736,6.4981e-05,-171.95,-0.00024339,-2488.9,0.93437
3280,13.707,2.1818,0,0.00023483,2346.7,8.5259e-05,0.057083,6.4044e-05,-159.35,-0.00023714,-2422.3,0.95858
3281,13.891,2.1818,0,0.00022918,2290.2,8.2803e-05,0.044519,6.3216e-05,-147.12,-0.00023132,-2360.2,0.98295
3282,14.075,2.1818,0,0.00022386,2237,8.0481e-05,0.034997,6.2455e-05,-135.4,-0.00022585,-2301.6,1.0075
3283,14.259,2.1818,0,0.00021879,2186.4,7.8271e-05,0.027758,6.173e-05,-124.26,-0.00022064,-2245.9,1.0322
3284,14.443,2.1818,0,0.00021393,2137.8,7.6156e-05,0.0223,6.1016e-05,-113.73,-0.00021563,-2192.4,1.057
3285,14.626,2.1818,0,0.00020921,2090.7,7.4121e-05,0.018245,6.03e-05,-103.83,-0.00021078,-2140.7,1.082
3286,14.81,2.1818,0,0.00020462,2044.7,7.2153e-05,0.015246,5.9569e-05,-94.537,-0.00020606,-2090.4,1.1071
3287,14.994,2.1818,0,0.00020011,1999.7,7.0243e-05,0.013049,5.8816e-05,-85.845,-0.00020143,-2041.2,1.1324
3288,15.178,2.1818,0,0.00019567,1955.3,6.8383e-05,0.011463,5.8037e-05,-77.726,-0.00019687,-1993,1.1577
3289,15.362,2.1818,0,0.00019128,1911.5,6.6566e-05,0.010305,5.7229e-05,-70.147,-0.00019238,-1945.6,1.1833
3290,15.545,2.1818,0,0.00018693,1868,6.4787e-05,0.0094982,5.6391e-05,-63.075,-0.00018793,-1898.8,1.2089
3291,15.729,2.1818,0,0.00018262,1824.9,6.304e-05,0.0089983,5.5523e-05,-56.476,-0.00018351,-1852.5,1.2347
3292,15.913,2.1818,0,0.00017833,1782,6.1323e-05,0.0087179,5.4625e-05,-50.315,-0.00017913,-1806.7,1.2606
3293,16.097,2.1818,0,0.00017406,1739.4,5.9632e-05,0.0086063,5.3701e-05,-44.556,-0.00017477,-1761.2,1.2867
3294,16.281,2.1818,0,0.0001698,1696.8,5.7964e-05,0.0086246,5.275e-05,-39.167,-0.00017043,-1716.1,1.3128
3295,16.464,2.1818,0,0.00016556,1654.5,5.6317e-05,0.0087117,5.1776e-05,-34.115,-0.00016612,-1671.3,1.3391
3296,16.648,2.1818,0,0.00016134,1612.2,5.469e-05,0.0088774,5.078e-05,-29.369,-0.00016181,-1626.7,1.3654
3297,16.832,2.1818,0,0.00015712,1570.1,5.3079e-05,0.0091505,4.9764e-05,-24.899,-0.00015753,-1582.4,1.3919
3298,17.016,2.1818,0,0.00015292,1528.1,5.1485e-05,0.0094996,4.8732e-05,-20.676,-0.00015326,-1538.4,1.4185
3299,17.2,2.1818,0,0.00014873,1486.3,4.9905e-05,0.0099322,4.7684e-05,-16.674,-0.000149,-1494.5,1.4452
3300,17.383,2.1818,0,0.00014455,1444.5,4.8338e-05,0.010467,4.6624e-05,-12.868,-0.00014476,-1450.9,1.472
3301,17.567,2.1818,0,0.00014038,1402.9,4.6784e-05,0.011144,4.5554e-05,-9.2314,-0.00014054,-1407.5,1.4989
3302,17.751,2.1818,0,0.00013623,1361.4,4.5242e-05,0.012234,4.4476e-05,-5.7426,-0.00013633,-1364.2,1.5259
3303,17.935,2.1818,0,0.0001321,1320,4.3711e-05,0.015341,4.3392e-05,-2.3803,-0.00013214,-1321.2,1.553
3304,18.119,2.1818,0,0.00012797,1278.9,4.2306e-05,0.89882,4.2187e-05,-0.0011811,-0.00012796,-1278.4,1.5801
3305,18.302,2.1818,0,0.00012387,1237.8,4.1216e-05,4.0694,4.0675e-05,0.0089799,-0.0001238,-1235.8,1.6074
3306,18.486,2.1818,0,0.00011978,1197,4.0126e-05,7.187,3.9171e-05,0.010679,-0.00011965,-1193.3,1.6347
3307,18.67,2.1818,0,0.00011571,1156.3,3.9039e-05,10.264,3.7675e-05,0.011671,-0.00011553,-1151.1,1.6621
3308,18.854,2.1818,0,0.00011166,1115.8,3.7957e-05,13.318,3.6186e-05,0.012484,-0.00011142,-1109.1,1.6896
3309,19.038,2.1818,0,0.00010762,1075.5,3.688e-05,16.371,3.4703e-05,0.01327,-0.00010734,-1067.2,1.7172
3310,19.221,2.1818,0,0.00010362,1035.4,3.5812e-05,19.44,3.3227e-05,0.014053,-0.00010327,-1025.6,1.7449
3311,19.405,2.1818,0,9.9628e-05,995.59,3.4754e-05,22.545,3.1755e-05,0.014873,-9.9225e-05,-984.12,1.7726
3312,19.589,2.1818,0,9.5665e-05,955.99,3.3708e-05,25.705,3.0289e-05,0.015731,-9.5202e-05,-942.87,1.8004
3313,19.773,2.1818,0,9.1727e-05,916.64,3.2676e-05,28.94,2.8827e-05,0.016627,-9.12e-05,-901.82,1.8282
3314,19.956,2.1818,0,8.7816e-05,877.55,3.166e-05,32.27,2.7368e-05,0.017592,-8.7222e-05,-860.96,1.8561
3315,20.14,2.1818,0,8.3933e-05,838.75,3.0662e-05,35.716,2.5911e-05,0.018654,-8.3268e-05,-820.31,1.8841
3316,20.324,2.1818,0,8.0079e-05,800.24,2.9685e-05,39.299,2.4457e-05,0.019819,-7.9338e-05,-779.85,1.9121
3317,20.508,2.1818,0,7.6256e-05,762.04,2.873e-05,43.039,2.3004e-05,0.021104,-7.5433e-05,-739.6,1.9402
3318,20.692,2.1818,0,7.2467e-05,724.17,2.7799e-05,46.961,2.1552e-05,0.022532,-7.1554e-05,-699.54,1.9683
3319,20.875,2.1818,0,6.8713e-05,686.66,2.6896e-05,51.086,2.01e-05,0.024103,-6.7701e-05,-659.67,1.9965
3320,21.059,2.1818,0,6.4996e-05,649.51,2.6021e-05,55.44,1.8646e-05,0.025872,-6.3875e-05,-620,2.0247
3321,21.243,2.1818,0,6.1319e-05,612.77,2.5178e-05,60.046,1.719e-05,0.027888,-6.0076e-05,-580.52,2.053
3322,21.427,2.1818,0,5.7685e-05,576.45,2.4369e-05,64.932,1.5732e-05,0.03019,-5.6305e-05,-541.23,2.0813
3323,21.611,2.1818,0,5.4098e-05,540.6,2.3597e-05,70.123,1.4269e-05,0.032856,-5.2562e-05,-502.11,2.1096
3324,21.794,2.1818,0,5.0561e-05,505.26,2.2863e-05,75.646,1.28e-05,0.035963,-4.8847e-05,-463.16,2.138
3325,21.978,2.1818,0,4.708e-05,470.47,2.2171e-05,81.53,1.1325e-05,0.039626,-4.5159e-05,-424.36,2.1664
3326,22.162,2.1818,0,4.3661e-05,436.3,2.1522e-05,87.801,9.8422e-06,0.044038,-4.1499e-05,-385.71,2.1948
3327,22.346,2.1818,0,4.0312e-05,402.84,2.0918e-05,94.486,8.3497e-06,0.049442,-3.7864e-05,-347.18,2.2233
3328,22.53,2.1818,0,3.7044e-05,370.19,2.0362e-05,101.61,6.8461e-06,0.056259,-3.4254e-05,-308.76,2.2518
3329,22.713,2.1818,0,3.3872e-05,338.49,1.9854e-05,109.2,5.3298e-06,0.064936,-3.0666e-05,-270.4,2.2803
3330,22.897,2.1818,0,3.0816e-05,307.94,1.9395e-05,117.26,3.7992e-06,0.077112,-2.7098e-05,-232.07,2.3088
3331,23.081,2.1818,0,2.7903e-05,278.83,1.8985e-05,125.82,2.2523e-06,0.092152,-2.3545e-05,-193.74,2.3374
3332,23.265,2.1818,0,2.5174e-05,251.56,1.8623e-05,134.88,6.8873e-07,0.12353,-2.0005e-05,-155.36,2.366
3333,23.449,2.1818,0,2.2686e-05,226.71,1.8308e-05,144.43,-8.9553e-07,0.14101,-1.647e-05,-116.88,2.3946
3334,23.632,2.1818,0,2.0524e-05,205.1,1.8036e-05,154.52,-2.4861e-06,0.32571,-1.2944e-05,-78.248,2.4231
3335,23.816,2.1818,0,1.8796e-05,187.83,1.7806e-05,164.93,-4.1177e-06,0.19994,-9.4184e-06,-39.627,2.4518
3336,10.95,2,0,0.00087547,8748.7,0.00042742,1458.1,0.00017471,-440.7,-0.00084256,-8084.1,0.61519
3337,11.134,2,0,0.00058173,5813.3,0.00022956,491.23,0.00017241,61.842,-0.00057113,-5524.9,0.63642
3338,11.318,2,0,0.00047484,4745.1,0.00017157,171,0.000147,-13.585,-0.00047189,-4663.7,0.65797
3339,11.502,2,0,0.00041299,4127.1,0.00013897,22.081,0.00013377,-16.981,-0.00041289,-4124.4,0.67979
3340,11.686,2,0,0.00037179,3715.3,0.00012761,2.4335,0.00011452,-95.962,-0.00037328,-3761.1,0.70187
3341,11.869,2,0,0.00034267,3424.4,0.00012048,1.5441,0.00010052,-148.41,-0.00034492,-3495.3,0.7242
3342,12.053,2,0,0.00032083,3206.1,0.00011461,0.84351,9.088e-05,-177.49,-0.00032347,-3290.7,0.74674
3343,12.237,2,0,0.00030382,3036.1,0.00010964,0.61191,8.4087e-05,-191.4,-0.00030661,-3127,0.7695
3344,12.421,2,0,0.0002901,2899,0.0001053,0.43642,7.9192e-05,-195.73,-0.00029292,-2991.7,0.79247
3345,12.605,2,0,0.00027871,2785.2,0.00010144,0.32775,7.5581e-05,-193.99,-0.0002815,-2877,0.81563
3346,12.788,2,0,0.00026903,2688.4,9.797e-05,0.24772,7.2855e-05,-188.46,-0.00027173,-2777.5,0.83898
3347,12.972,2,0,0.0002606,2604.2,9.4805e-05,0.18932,7.0743e-05,-180.6,-0.0002632,-2689.7,0.86251
3348,13.156,2,0,0.00025313,2529.5,9.189e-05,0.14528,6.906e-05,-171.39,-0.0002556,-2610.8,0.88622
3349,13.34,2,0,0.00024638,2462.1,8.9182e-05,0.11195,6.7679e-05,-161.45,-0.00024873,-2538.8,0.91011
3350,13.524,2,0,0.0002402,2400.3,8.6646e-05,0.086639,6.6508e-05,-151.22,-0.00024241,-2472.3,0.93416
3351,13.707,2,0,0.00023445,2342.9,8.4252e-05,0.067373,6.5481e-05,-140.97,-0.00023653,-2410.1,0.95838
3352,13.891,2,0,0.00022904,2288.8,8.1977e-05,0.052711,6.455e-05,-130.89,-0.00023098,-2351.4,0.98275
3353,14.075,2,0,0.00022389,2237.3,7.9803e-05,0.041557,6.368e-05,-121.1,-0.0002257,-2295.4,1.0073
3354,14.259,2,0,0.00021894,2187.9,7.7714e-05,0.03304,6.2845e-05,-111.68,-0.00022062,-2241.5,1.032
3355,14.443,2,0,0.00021415,2140,7.5696e-05,0.026568,6.2027e-05,-102.68,-0.00021571,-2189.5,1.0568
3356,14.626,2,0,0.00020948,2093.4,7.3741e-05,0.021705,6.1211e-05,-94.124,-0.00021092,-2138.8,1.0818
3357,14.81,2,0,0.00020491,2047.7,7.1838e-05,0.018054,6.0387e-05,-86.02,-0.00020624,-2089.3,1.1069
3358,14.994,2,0,0.00020041,2002.8,6.9982e-05,0.015329,5.955e-05,-78.368,-0.00020163,-2040.8,1.1322
3359,15.178,2,0,0.00019598,1958.4,6.8166e-05,0.013312,5.8694e-05,-71.156,-0.00019709,-1993,1.1576
3360,15.362,2,0,0.00019158,1914.5,6.6385e-05,0.011798,5.7816e-05,-64.371,-0.0001926,-1945.9,1.1831
3361,15.545,2,0,0.00018722,1871,6.4635e-05,0.010699,5.6916e-05,-57.993,-0.00018814,-1899.3,1.2087
3362,15.729,2,0,0.0001829,1827.7,6.2914e-05,0.0099561,5.5992e-05,-52,-0.00018372,-1853.1,1.2345
3363,15.913,2,0,0.00017859,1784.7,6.1217e-05,0.0094753,5.5045e-05,-46.369,-0.00017933,-1807.4,1.2604
3364,16.097,2,0,0.0001743,1741.8,5.9543e-05,0.0091978,5.4075e-05,-41.077,-0.00017496,-1762,1.2865
3365,16.281,2,0,0.00017003,1699.1,5.789e-05,0.0090788,5.3084e-05,-36.098,-0.00017062,-1716.9,1.3126
3366,16.464,2,0,0.00016578,1656.6,5.6255e-05,0.0090517,5.2074e-05,-31.408,-0.00016629,-1672.1,1.3389
3367,16.648,2,0,0.00016153,1614.2,5.4638e-05,0.0091335,5.1045e-05,-26.983,-0.00016198,-1627.5,1.3653
3368,16.832,2,0,0.0001573,1572,5.3036e-05,0.0093422,5.0001e-05,-22.8,-0.00015768,-1583.2,1.3918
3369,17.016,2,0,0.00015309,1529.8,5.145e-05,0.009657,4.8942e-05,-18.835,-0.0001534,-1539.1,1.4184
3370,17.2,2,0,0.00014888,1487.8,4.9876e-05,0.010089,4.787e-05,-15.066,-0.00014913,-1495.3,1.4451
3371,17.383,2,0,0.00014469,1445.9,4.8316e-05,0.010685,4.6788e-05,-11.471,-0.00014488,-1451.6,1.4719
3372,17.567,2,0,0.00014051,1404.2,4.6767e-05,0.011552,4.5697e-05,-8.0295,-0.00014065,-1408.2,1.4987
3373,17.751,2,0,0.00013635,1362.5,4.523e-05,0.013239,4.46e-05,-4.7215,-0.00013643,-1364.9,1.5257
3374,17.935,2,0,0.0001322,1321.1,4.3703e-05,0.020548,4.3497e-05,-1.5319,-0.00013222,-1321.8,1.5528
3375,18.119,2,0,0.00012807,1279.8,4.2395e-05,1.5916,4.2183e-05,0.00059111,-0.00012804,-1279,1.58
3376,18.302,2,0,0.00012395,1238.6,4.1288e-05,4.6134,4.0675e-05,0.0076261,-0.00012387,-1236.3,1.6072
3377,18.486,2,0,0.00011985,1197.7,4.0182e-05,7.5844,3.9174e-05,0.0094517,-0.00011972,-1193.8,1.6346
3378,18.67,2,0,0.00011577,1156.9,3.908e-05,10.518,3.7681e-05,0.010519,-0.00011558,-1151.6,1.662
3379,18.854,2,0,0.0001117,1116.3,3.7982e-05,13.432,3.6196e-05,0.011367,-0.00011147,-1109.5,1.6895
3380,19.038,2,0,0.00010766,1075.9,3.689e-05,16.345,3.4716e-05,0.01216,-0.00010737,-1067.6,1.7171
3381,19.221,2,0,0.00010364,1035.7,3.5806e-05,19.273,3.3243e-05,0.012942,-0.0001033,-1025.9,1.7447
3382,19.405,2,0,9.9641e-05,995.72,3.4732e-05,22.236,3.1775e-05,0.013745,-9.9243e-05,-984.41,1.7725
3383,19.589,2,0,9.5665e-05,955.99,3.367e-05,25.25,3.0312e-05,0.01458,-9.521e-05,-943.11,1.8002
3384,19.773,2,0,9.1714e-05,916.51,3.2622e-05,28.335,2.8853e-05,0.01545,-9.1199e-05,-902.01,1.8281
3385,19.956,2,0,8.779e-05,877.29,3.1589e-05,31.51,2.7397e-05,0.016381,-8.7211e-05,-861.1,1.856
3386,20.14,2,0,8.3892e-05,838.34,3.0573e-05,34.794,2.5945e-05,0.017412,-8.3246e-05,-820.4,1.884
3387,20.324,2,0,8.0024e-05,799.68,2.9577e-05,38.207,2.4494e-05,0.01854,-7.9305e-05,-779.89,1.912
3388,20.508,2,0,7.6185e-05,761.33,2.8602e-05,41.77,2.3045e-05,0.019789,-7.5388e-05,-739.57,1.9401
3389,20.692,2,0,7.2379e-05,723.29,2.7651e-05,45.505,2.1597e-05,0.021172,-7.1497e-05,-699.45,1.9682
3390,20.875,2,0,6.8607e-05,685.6,2.6726e-05,49.434,2.0149e-05,0.022706,-6.7632e-05,-659.53,1.9964
3391,21.059,2,0,6.4871e-05,648.26,2.5829e-05,53.582,1.8701e-05,0.02443,-6.3793e-05,-619.8,2.0246
3392,21.243,2,0,6.1174e-05,611.32,2.4962e-05,57.973,1.725e-05,0.026406,-5.9981e-05,-580.26,2.0529
3393,21.427,2,0,5.7519e-05,574.8,2.4129e-05,62.633,1.5797e-05,0.028671,-5.6197e-05,-540.9,2.0812
3394,21.611,2,0,5.391e-05,538.73,2.3331e-05,67.59,1.434e-05,0.031291,-5.2441e-05,-501.73,2.1095
3395,21.794,2,0,5.035e-05,503.15,2.2572e-05,72.874,1.2878e-05,0.034359,-4.8713e-05,-462.73,2.1379
3396,21.978,2,0,4.6845e-05,468.13,2.1854e-05,78.513,1.1409e-05,0.037985,-4.5013e-05,-423.9,2.1663
3397,22.162,2,0,4.3402e-05,433.72,2.1179e-05,84.539,9.9334e-06,0.042353,-4.1341e-05,-385.21,2.1948
3398,22.346,2,0,4.0029e-05,400.01,2.0551e-05,90.982,8.4483e-06,0.047714,-3.7697e-05,-346.67,2.2232
3399,22.53,2,0,3.6737e-05,367.12,1.9971e-05,97.872,6.9526e-06,0.054474,-3.408e-05,-308.25,2.2517
3400,22.713,2,0,3.3541e-05,335.17,1.9442e-05,105.24,5.4442e-06,0.06308,-3.0487e-05,-269.91,2.2802
3401,22.897,2,0,3.046e-05,304.39,1.8965e-05,113.1,3.9216e-06,0.075157,-2.6917e-05,-231.63,2.3088
3402,23.081,2,0,2.7524e-05,275.05,1.854e-05,121.49,2.3827e-06,0.090053,-2.3365e-05,-193.37,2.3373
3403,23.265,2,0,2.4772e-05,247.55,1.8167e-05,130.41,8.266e-07,0.1212,-1.9828e-05,-155.07,2.3659
3404,23.449,2,0,2.2262e-05,222.47,1.7844e-05,139.85,-7.5086e-07,0.13834,-1.63e-05,-116.69,2.3945
3405,23.632,2,0,2.008e-05,200.66,1.7569e-05,149.88,-2.3357e-06,0.32194,-1.2782e-05,-78.17,2.4231
3406,23.816,2,0,1.834e-05,183.28,1.7341e-05,160.26,-3.9632e-06,0.19236,-9.2677e-06,-39.664,2.4517
3407,10.95,1.8182,0,0.00071564,7151.5,0.00042034,2251.8,0.00010456,-120.89,-0.00064921,-5784.5,0.61415
3408,11.134,1.8182,0,0.00051345,5130.9,0.00024088,880.79,0.00012445,6.0245,-0.00049273,-4631.3,0.63562
3409,11.318,1.8182,0,0.00042612,4258.2,0.00016927,343.04,0.00012269,-6.8947,-0.00041932,-4079.4,0.65732
3410,11.502,1.8182,0,0.00037809,3778.3,0.00013482,117.56,0.00011843,-5.5845,-0.00037603,-3720.8,0.67925
3411,11.686,1.8182,0,0.00034608,3458.4,0.00011678,14.317,0.00011116,-27.95,-0.00034629,-3465,0.70141
3412,11.869,1.8182,0,0.00032342,3232,0.00011122,3.0407,9.9346e-05,-86.199,-0.00032475,-3272.7,0.72379
3413,12.053,1.8182,0,0.00030643,3062.2,0.00010729,1.4203,9.0679e-05,-123.39,-0.00030831,-3121.3,0.74638
3414,12.237,1.8182,0,0.00029309,2928.9,0.0001038,0.87503,8.4621e-05,-143.23,-0.00029524,-2997.4,0.76917
3415,12.421,1.8182,0,0.00028217,2819.8,0.00010061,0.58739,8.0262e-05,-152.28,-0.00028444,-2892.5,0.79216
3416,12.605,1.8182,0,0.00027293,2727.4,9.7653e-05,0.41962,7.7015e-05,-154.65,-0.00027522,-2801.2,0.81534
3417,12.788,1.8182,0,0.00026487,2646.9,9.4896e-05,0.30802,7.4508e-05,-152.88,-0.00026713,-2719.9,0.8387
3418,12.972,1.8182,0,0.00025768,2575,9.2305e-05,0.23055,7.2504e-05,-148.55,-0.00025988,-2646,0.86224
3419,13.156,1.8182,0,0.00025113,2509.6,8.9853e-05,0.17451,7.0847e-05,-142.63,-0.00025325,-2577.8,0.88596
3420,13.34,1.8182,0,0.00024508,2449.1,8.7519e-05,0.13324,6.9432e-05,-135.77,-0.0002471,-2514.1,0.90985
3421,13.524,1.8182,0,0.00023941,2392.4,8.5286e-05,0.10248,6.8187e-05,-128.37,-0.00024133,-2454,0.93391
3422,13.707,1.8182,0,0.00023403,2338.7,8.3138e-05,0.079387,6.7062e-05,-120.71,-0.00023585,-2396.6,0.95813
3423,13.891,1.8182,0,0.00022888,2287.2,8.1063e-05,0.061961,6.6019e-05,-112.97,-0.00023059,-2341.6,0.98251
3424,14.075,1.8182,0,0.00022392,2237.6,7.9051e-05,0.048773,6.5032e-05,-105.29,-0.00022552,-2288.4,1.007
3425,14.259,1.8182,0,0.0002191,2189.5,7.7094e-05,0.038729,6.408e-05,-97.746,-0.0002206,-2236.7,1.0317
3426,14.443,1.8182,0,0.0002144,2142.5,7.5185e-05,0.031094,6.3148e-05,-90.41,-0.00021579,-2186.3,1.0566
3427,14.626,1.8182,0,0.00020979,2096.4,7.3318e-05,0.02533,6.2225e-05,-83.322,-0.00021108,-2136.8,1.0815
3428,14.81,1.8182,0,0.00020525,2051,7.1488e-05,0.020968,6.1302e-05,-76.51,-0.00020644,-2088.2,1.1067
3429,14.994,1.8182,0,0.00020076,2006.3,6.969e-05,0.017678,6.0373e-05,-69.991,-0.00020186,-2040.3,1.1319
3430,15.178,1.8182,0,0.00019633,1961.9,6.7923e-05,0.015204,5.9433e-05,-63.773,-0.00019733,-1993,1.1573
3431,15.362,1.8182,0,0.00019193,1918,6.6182e-05,0.01332,5.848e-05,-57.859,-0.00019285,-1946.2,1.1829
3432,15.545,1.8182,0,0.00018756,1874.3,6.4466e-05,0.011916,5.7511e-05,-52.243,-0.00018839,-1899.9,1.2085
3433,15.729,1.8182,0,0.00018322,1830.9,6.2772e-05,0.010923,5.6525e-05,-46.919,-0.00018397,-1853.9,1.2343
3434,15.913,1.8182,0,0.00017889,1787.7,6.1098e-05,0.010234,5.5523e-05,-41.876,-0.00017957,-1808.3,1.2602
3435,16.097,1.8182,0,0.00017459,1744.7,5.9443e-05,0.0097829,5.4504e-05,-37.101,-0.00017519,-1762.9,1.2863
3436,16.281,1.8182,0,0.0001703,1701.8,5.7806e-05,0.0095223,5.3468e-05,-32.58,-0.00017083,-1717.9,1.3124
3437,16.464,1.8182,0,0.00016603,1659.1,5.6185e-05,0.0093836,5.2418e-05,-28.296,-0.00016649,-1673.1,1.3387
3438,16.648,1.8182,0,0.00016177,1616.5,5.4579e-05,0.0093795,5.1353e-05,-24.232,-0.00016216,-1628.5,1.3651
3439,16.832,1.8182,0,0.00015752,1574.1,5.2988e-05,0.0095307,5.0275e-05,-20.373,-0.00015785,-1584.2,1.3916
3440,17.016,1.8182,0,0.00015328,1531.8,5.141e-05,0.0098238,4.9186e-05,-16.7,-0.00015356,-1540.1,1.4182
3441,17.2,1.8182,0,0.00014906,1489.6,4.9844e-05,0.01029,4.8087e-05,-13.195,-0.00014928,-1496.2,1.4449
3442,17.383,1.8182,0,0.00014486,1447.6,4.8291e-05,0.011016,4.6979e-05,-9.8424,-0.00014502,-1452.5,1.4717
3443,17.567,1.8182,0,0.00014066,1405.7,4.6748e-05,0.012254,4.5865e-05,-6.6242,-0.00014078,-1409,1.4986
3444,17.751,1.8182,0,0.00013649,1363.9,4.5216e-05,0.015286,4.4745e-05,-3.5247,-0.00013655,-1365.7,1.5256
3445,17.935,1.8182,0,0.00013232,1322.3,4.3698e-05,0.047178,4.3618e-05,-0.55392,-0.00013233,-1322.6,1.5526
3446,18.119,1.8182,0,0.00012818,1280.9,4.2499e-05,2.4117,4.2179e-05,0.0010976,-0.00012813,-1279.7,1.5798
3447,18.302,1.8182,0,0.00012405,1239.6,4.1374e-05,5.2595,4.0675e-05,0.0062528,-0.00012395,-1237,1.6071
3448,18.486,1.8182,0,0.00011993,1198.5,4.025e-05,8.0604,3.9178e-05,0.0080663,-0.00011979,-1194.4,1.6344
3449,18.67,1.8182,0,0.00011584,1157.6,3.9129e-05,10.828,3.7689e-05,0.0091614,-0.00011565,-1152.1,1.6619
3450,18.854,1.8182,0,0.00011176,1116.8,3.8013e-05,13.578,3.6208e-05,0.010016,-0.00011152,-1110,1.6894
3451,19.038,1.8182,0,0.00010771,1076.3,3.6904e-05,16.328,3.4732e-05,0.010803,-0.00010742,-1068.1,1.7169
3452,19.221,1.8182,0,0.00010367,1036,3.5802e-05,19.092,3.3262e-05,0.011566,-0.00010333,-1026.3,1.7446
3453,19.405,1.8182,0,9.9659e-05,995.9,3.471e-05,21.887,3.1798e-05,0.012337,-9.9268e-05,-984.77,1.7723
3454,19.589,1.8182,0,9.5669e-05,956.03,3.3629e-05,24.731,3.0339e-05,0.01314,-9.5224e-05,-943.42,1.8001
3455,19.773,1.8182,0,9.1703e-05,916.4,3.2561e-05,27.641,2.8884e-05,0.013967,-9.1202e-05,-902.26,1.828
3456,19.956,1.8182,0,8.7763e-05,877.02,3.1507e-05,30.633,2.7432e-05,0.014858,-8.7201e-05,-861.3,1.8559
3457,20.14,1.8182,0,8.3849e-05,837.91,3.0471e-05,33.727,2.5984e-05,0.015839,-8.3224e-05,-820.53,1.8838
3458,20.324,1.8182,0,7.9963e-05,799.07,2.9452e-05,36.941,2.4538e-05,0.016917,-7.927e-05,-779.96,1.9119
3459,20.508,1.8182,0,7.6106e-05,760.53,2.8454e-05,40.295,2.3094e-05,0.018108,-7.534e-05,-739.58,1.94
3460,20.692,1.8182,0,7.228e-05,722.3,2.7479e-05,43.809,2.1651e-05,0.019438,-7.1434e-05,-699.39,1.9681
3461,20.875,1.8182,0,6.8487e-05,684.39,2.6528e-05,47.506,2.0208e-05,0.020911,-6.7554e-05,-659.39,1.9963
3462,21.059,1.8182,0,6.4728e-05,646.84,2.5604e-05,51.408,1.8765e-05,0.022576,-6.37e-05,-619.59,2.0245
3463,21.243,1.8182,0,6.1008e-05,609.66,2.471e-05,55.541,1.7321e-05,0.024489,-5.9873e-05,-579.98,2.0528
3464,21.427,1.8182,0,5.7328e-05,572.88,2.3847e-05,59.931,1.5874e-05,0.026691,-5.6072e-05,-540.55,2.0811
3465,21.611,1.8182,0,5.3692e-05,536.55,2.3019e-05,64.606,1.4424e-05,0.029252,-5.23e-05,-501.31,2.1094
3466,21.794,1.8182,0,5.0104e-05,500.69,2.2228e-05,69.597,1.2969e-05,0.032255,-4.8555e-05,-462.24,2.1378
3467,21.978,1.8182,0,4.657e-05,465.38,2.1478e-05,74.936,1.1509e-05,0.035818,-4.484e-05,-423.35,2.1662
3468,22.162,1.8182,0,4.3097e-05,430.67,2.0772e-05,80.658,1.0042e-05,0.040124,-4.1154e-05,-384.63,2.1947
3469,22.346,1.8182,0,3.9693e-05,396.66,2.0112e-05,86.797,8.5661e-06,0.045414,-3.7498e-05,-346.06,2.2231
3470,22.53,1.8182,0,3.637e-05,363.45,1.9503e-05,93.392,7.0799e-06,0.052102,-3.387e-05,-307.63,2.2516
3471,22.713,1.8182,0,3.3143e-05,331.2,1.8946e-05,100.48,5.5815e-06,0.060611,-3.027e-05,-269.31,2.2802
3472,22.897,1.8182,0,3.0032e-05,300.11,1.8444e-05,108.08,4.069e-06,0.072559,-2.6696e-05,-231.08,2.3087
3473,23.081,1.8182,0,2.7065e-05,270.46,1.7999e-05,116.24,2.54e-06,0.087272,-2.3144e-05,-192.89,2.3373
3474,23.265,1.8182,0,2.4284e-05,242.67,1.7611e-05,124.97,9.9349e-07,0.11811,-1.9612e-05,-154.7,2.3658
3475,23.449,1.8182,0,2.1746e-05,217.31,1.7278e-05,134.28,-5.7521e-07,0.13484,-1.6091e-05,-116.45,2.3944
3476,23.632,1.8182,0,1.9539e-05,195.26,1.6998e-05,144.21,-2.1526e-06,0.31703,-1.2584e-05,-78.061,2.423
3477,23.816,1.8182,0,1.7783e-05,177.71,1.6772e-05,154.56,-3.7748e-06,0.18272,-9.0829e-06,-39.7,2.4516
3478,10.95,1.6364,0,0.0005308,5304.3,0.00033562,2043.7,6.453e-05,6.8059,-0.00046571,-3977.2,0.61306
3479,11.134,1.6364,0,0.00042819,4279,0.0002197,971.49,9.0458e-05,0.39559,-0.00040331,-3709.6,0.63475
3480,11.318,1.6364,0,0.00037525,3749.9,0.00016338,477.21,9.8638e-05,-9.258,-0.00036492,-3492.2,0.65661
3481,11.502,1.6364,0,0.00034222,3419.8,0.00013109,217.53,0.00010172,-3.1077,-0.00033804,-3307.3,0.67865
3482,11.686,1.6364,0,0.0003196,3193.8,0.00011185,72.669,0.00010129,-6.688,-0.00031841,-3160.1,0.70089
3483,11.869,1.6364,0,0.00030366,3034.5,0.00010243,10.496,9.7404e-05,-27.259,-0.00030393,-3042.7,0.72333
3484,12.053,1.6364,0,0.00029163,2914.3,9.9779e-05,2.7726,9.0462e-05,-67.232,-0.00029266,-2945.9,0.74596
3485,12.237,1.6364,0,0.00028204,2818.5,9.7741e-05,1.3852,8.5223e-05,-92.676,-0.00028348,-2862.9,0.76879
3486,12.421,1.6364,0,0.00027399,2738,9.5718e-05,0.84231,8.1412e-05,-106.64,-0.00027563,-2789.3,0.7918
3487,12.605,1.6364,0,0.00026694,2667.5,9.3693e-05,0.56411,7.8526e-05,-113.39,-0.00026867,-2722.1,0.815
3488,12.788,1.6364,0,0.00026055,2603.7,9.1678e-05,0.39674,7.6235e-05,-115.64,-0.00026232,-2659.4,0.83837
3489,12.972,1.6364,0,0.00025463,2544.5,8.9684e-05,0.28772,7.4337e-05,-115.02,-0.00025638,-2599.9,0.86193
3490,13.156,1.6364,0,0.00024904,2488.7,8.7713e-05,0.21275,7.2703e-05,-112.57,-0.00025076,-2542.9,0.88565
3491,13.34,1.6364,0,0.0002437,2435.4,8.577e-05,0.15957,7.1254e-05,-108.91,-0.00024537,-2487.9,0.90955
3492,13.524,1.6364,0,0.00023856,2384,8.3852e-05,0.1211,6.9936e-05,-104.44,-0.00024016,-2434.4,0.93361
3493,13.707,1.6364,0,0.00023358,2334.1,8.1962e-05,0.092856,6.8713e-05,-99.455,-0.00023511,-2382.2,0.95783
3494,13.891,1.6364,0,0.00022871,2285.6,8.0096e-05,0.071918,6.7558e-05,-94.132,-0.00023017,-2331.1,0.98222
3495,14.075,1.6364,0,0.00022395,2238,7.8255e-05,0.05628,6.6454e-05,-88.613,-0.00022533,-2280.9,1.0068
3496,14.259,1.6364,0,0.00021928,2191.2,7.6437e-05,0.044489,6.5384e-05,-83.003,-0.00022057,-2231.5,1.0314
3497,14.443,1.6364,0,0.00021467,2145.2,7.4642e-05,0.035578,6.4338e-05,-77.381,-0.00021588,-2182.8,1.0563
3498,14.626,1.6364,0,0.00021012,2099.7,7.2867e-05,0.028861,6.3306e-05,-71.809,-0.00021125,-2134.7,1.0813
3499,14.81,1.6364,0,0.00020561,2054.7,7.1113e-05,0.023775,6.2282e-05,-66.334,-0.00020666,-2087.1,1.1064
3500,14.994,1.6364,0,0.00020115,2010.1,6.9378e-05,0.01992,6.1258e-05,-60.991,-0.00020211,-2039.9,1.1317
3501,15.178,1.6364,0,0.00019672,1965.8,6.7662e-05,0.016999,6.0232e-05,-55.808,-0.00019761,-1993.1,1.1571
3502,15.362,1.6364,0,0.00019231,1921.8,6.5964e-05,0.014754,5.9201e-05,-50.803,-0.00019313,-1946.7,1.1826
3503,15.545,1.6364,0,0.00018793,1878,6.4283e-05,0.013055,5.816e-05,-45.988,-0.00018867,-1900.6,1.2083
3504,15.729,1.6364,0,0.00018357,1834.5,6.2618e-05,0.011817,5.711e-05,-41.369,-0.00018424,-1854.8,1.2341
3505,15.913,1.6364,0,0.00017923,1791.1,6.0968e-05,0.010926,5.605e-05,-36.948,-0.00017983,-1809.3,1.26
3506,16.097,1.6364,0,0.00017491,1747.9,5.9334e-05,0.01031,5.4978e-05,-32.723,-0.00017544,-1764,1.286
3507,16.281,1.6364,0,0.0001706,1704.8,5.7714e-05,0.0099136,5.3895e-05,-28.69,-0.00017107,-1719,1.3122
3508,16.464,1.6364,0,0.00016631,1661.9,5.6108e-05,0.0096701,5.2801e-05,-24.841,-0.00016672,-1674.2,1.3385
3509,16.648,1.6364,0,0.00016203,1619.2,5.4515e-05,0.0095888,5.1696e-05,-21.168,-0.00016238,-1629.6,1.3648
3510,16.832,1.6364,0,0.00015776,1576.5,5.2935e-05,0.0097027,5.0583e-05,-17.66,-0.00015805,-1585.3,1.3913
3511,17.016,1.6364,0,0.00015351,1534,5.1366e-05,0.010006,4.9461e-05,-14.305,-0.00015375,-1541.1,1.4179
3512,17.2,1.6364,0,0.00014927,1491.7,4.9809e-05,0.010567,4.8331e-05,-11.09,-0.00014946,-1497.2,1.4446
3513,17.383,1.6364,0,0.00014505,1449.5,4.8263e-05,0.011569,4.7196e-05,-8.0039,-0.00014518,-1453.5,1.4715
3514,17.567,1.6364,0,0.00014084,1407.4,4.6727e-05,0.013617,4.6055e-05,-5.0328,-0.00014092,-1409.9,1.4984
3515,17.751,1.6364,0,0.00013664,1365.5,4.5202e-05,0.020659,4.4911e-05,-2.167,-0.00013668,-1366.6,1.5254
3516,17.935,1.6364,0,0.00013247,1323.8,4.3772e-05,0.67119,4.3678e-05,-0.031094,-0.00013246,-1323.4,1.5524
3517,18.119,1.6364,0,0.0001283,1282.2,4.262e-05,3.3531,4.2174e-05,0.001104,-0.00012825,-1280.5,1.5796
3518,18.302,1.6364,0,0.00012416,1240.7,4.1474e-05,6.0052,4.0675e-05,0.004892,-0.00012406,-1237.7,1.6069
3519,18.486,1.6364,0,0.00012003,1199.5,4.0329e-05,8.6153,3.9184e-05,0.0065596,-0.00011988,-1195.2,1.6342
3520,18.67,1.6364,0,0.00011592,1158.4,3.9188e-05,11.196,3.7699e-05,0.0076146,-0.00011573,-1152.8,1.6617
3521,18.854,1.6364,0,0.00011183,1117.6,3.8052e-05,13.762,3.6222e-05,0.0084402,-0.00011159,-1110.6,1.6892
3522,19.038,1.6364,0,0.00010776,1076.9,3.6922e-05,16.327,3.475e-05,0.0091896,-0.00010747,-1068.6,1.7168
3523,19.221,1.6364,0,0.00010371,1036.4,3.58e-05,18.905,3.3285e-05,0.0099111,-0.00010338,-1026.8,1.7444
3524,19.405,1.6364,0,9.9684e-05,996.15,3.4687e-05,21.513,3.1825e-05,0.010635,-9.9301e-05,-985.22,1.7722
3525,19.589,1.6364,0,9.5678e-05,956.12,3.3585e-05,24.164,3.037e-05,0.011382,-9.5244e-05,-943.81,1.8
3526,19.773,1.6364,0,9.1696e-05,916.33,3.2495e-05,26.874,2.892e-05,0.012151,-9.1209e-05,-902.59,1.8278
3527,19.956,1.6364,0,8.7738e-05,876.77,3.1419e-05,29.66,2.7473e-05,0.012977,-8.7195e-05,-861.56,1.8557
3528,20.14,1.6364,0,8.3805e-05,837.47,3.0358e-05,32.537,2.603e-05,0.013891,-8.3204e-05,-820.72,1.8837
3529,20.324,1.6364,0,7.9899e-05,798.44,2.9315e-05,35.524,2.4589e-05,0.014895,-7.9235e-05,-780.08,1.9117
3530,20.508,1.6364,0,7.6021e-05,759.69,2.829e-05,38.639,2.315e-05,0.016011,-7.529e-05,-739.62,1.9398
3531,20.692,1.6364,0,7.2173e-05,721.23,2.7287e-05,41.901,2.1713e-05,0.01726,-7.1368e-05,-699.36,1.968
3532,20.875,1.6364,0,6.8356e-05,683.08,2.6307e-05,45.331,2.0276e-05,0.018649,-6.7471e-05,-659.28,1.9961
3533,21.059,1.6364,0,6.4572e-05,645.27,2.5352e-05,48.952,1.884e-05,0.020229,-6.3599e-05,-619.39,2.0244
3534,21.243,1.6364,0,6.0824e-05,607.82,2.4425e-05,52.786,1.7402e-05,0.022051,-5.9753e-05,-579.69,2.0527
3535,21.427,1.6364,0,5.7114e-05,570.75,2.3528e-05,56.861,1.5963e-05,0.024162,-5.5934e-05,-540.18,2.081
3536,21.611,1.6364,0,5.3447e-05,534.1,2.2664e-05,61.206,1.4521e-05,0.026626,-5.2142e-05,-500.85,2.1093
3537,21.794,1.6364,0,4.9827e-05,497.93,2.1836e-05,65.851,1.3075e-05,0.029536,-4.8379e-05,-461.71,2.1377
3538,21.978,1.6364,0,4.6259e-05,462.27,2.1047e-05,70.831,1.1625e-05,0.033002,-4.4644e-05,-422.75,2.1661
3539,22.162,1.6364,0,4.2749e-05,427.2,2.0302e-05,76.185,1.0168e-05,0.03721,-4.094e-05,-383.97,2.1946
3540,22.346,1.6364,0,3.9308e-05,392.81,1.9604e-05,81.953,8.7024e-06,0.0424,-3.7267e-05,-345.35,2.223
3541,22.53,1.6364,0,3.5947e-05,359.22,1.8957e-05,88.18,7.2277e-06,0.048974,-3.3625e-05,-306.9,2.2515
3542,22.713,1.6364,0,3.268e-05,326.58,1.8365e-05,94.909,5.7413e-06,0.057354,-3.0014e-05,-268.59,2.2801
3543,22.897,1.6364,0,2.953e-05,295.1,1.7832e-05,102.18,4.2412e-06,0.06913,-2.6433e-05,-230.41,2.3086
3544,23.081,1.6364,0,2.6525e-05,265.06,1.736e-05,110.05,2.7246e-06,0.083612,-2.288e-05,-192.3,2.3372
3545,23.265,1.6364,0,2.3706e-05,236.9,1.6951e-05,118.53,1.1901e-06,0.11406,-1.9351e-05,-154.23,2.3657
3546,23.449,1.6364,0,2.1133e-05,211.19,1.6604e-05,127.64,-3.674e-07,0.13027,-1.584e-05,-116.12,2.3943
3547,23.632,1.6364,0,1.8895e-05,188.82,1.6317e-05,137.45,-1.9352e-06,0.31068,-1.2345e-05,-77.907,2.4229
3548,23.816,1.6364,0,1.7119e-05,171.07,1.6093e-05,147.76,-3.5504e-06,0.1706,-8.8611e-06,-39.732,2.4515
3549,10.95,1.4545,0,0.00040663,4063.5,0.00025733,1555.1,4.7711e-05,-19.857,-0.00035692,-3060.1,0.61195
3550,11.134,1.4545,0,0.00035214,3519,0.000188,892.08,6.8997e-05,-2.0584,-0.00032837,-2987.7,0.63384
3551,11.318,1.4545,0,0.00032484,3246.1,0.00014889,508.95,8.0685e-05,-3.514,-0.00031319,-2962.9,0.65584
3552,11.502,1.4545,0,0.00030579,3055.8,0.00012342,271.12,8.6904e-05,-3.2593,-0.00030031,-2912.6,0.67799
3553,11.686,1.4545,0,0.00029291,2927,0.00010748,128.23,8.9927e-05,-3.6717,-0.00029056,-2862.5,0.70032
3554,11.869,1.4545,0,0.00028373,2835.3,9.7695e-05,45.112,9.0866e-05,-6.1984,-0.00028303,-2815.5,0.72281
3555,12.053,1.4545,0,0.00027672,2765.3,9.3074e-05,8.6206,8.9131e-05,-21.01,-0.00027692,-2771.4,0.74549
3556,12.237,1.4545,0,0.00027091,2707.2,9.1882e-05,2.6738,8.543e-05,-45.807,-0.00027161,-2728.5,0.76835
3557,12.421,1.4545,0,0.00026573,2655.5,9.0901e-05,1.3481,8.2351e-05,-62.889,-0.00026672,-2685.7,0.79139
3558,12.605,1.4545,0,0.00026087,2606.9,8.9757e-05,0.81492,7.9905e-05,-73.207,-0.00026203,-2642.3,0.81461
3559,12.788,1.4545,0,0.00025616,2559.9,8.8463e-05,0.53642,7.7872e-05,-79.036,-0.0002574,-2598.2,0.838
3560,12.972,1.4545,0,0.00025151,2513.4,8.7054e-05,0.37071,7.6105e-05,-81.897,-0.0002528,-2553.2,0.86156
3561,13.156,1.4545,0,0.00024689,2467.2,8.556e-05,0.26425,7.4514e-05,-82.737,-0.00024819,-2507.4,0.8853
3562,13.34,1.4545,0,0.00024228,2421.2,8.4005e-05,0.19261,7.3045e-05,-82.151,-0.00024357,-2461.1,0.9092
3563,13.524,1.4545,0,0.00023769,2375.2,8.2404e-05,0.14292,7.1667e-05,-80.527,-0.00023895,-2414.4,0.93327
3564,13.707,1.4545,0,0.0002331,2329.4,8.077e-05,0.1077,7.0358e-05,-78.129,-0.00023433,-2367.4,0.9575
3565,13.891,1.4545,0,0.00022853,2283.8,7.9115e-05,0.08227,6.9102e-05,-75.152,-0.00022972,-2320.4,0.98188
3566,14.075,1.4545,0,0.00022398,2238.3,7.7445e-05,0.063711,6.7889e-05,-71.742,-0.00022512,-2273.3,1.0064
3567,14.259,1.4545,0,0.00021946,2193,7.5768e-05,0.049963,6.6708e-05,-68.017,-0.00022053,-2226.2,1.0311
3568,14.443,1.4545,0,0.00021495,2148,7.4086e-05,0.039708,6.5554e-05,-64.073,-0.00021597,-2179.3,1.056
3569,14.626,1.4545,0,0.00021046,2103.2,7.2406e-05,0.032039,6.4417e-05,-59.989,-0.00021142,-2132.5,1.0809
3570,14.81,1.4545,0,0.000206,2058.6,7.0728e-05,0.026258,6.3294e-05,-55.831,-0.00020689,-2085.9,1.1061
3571,14.994,1.4545,0,0.00020155,2014.2,6.9057e-05,0.021878,6.2179e-05,-51.654,-0.00020238,-2039.5,1.1313
3572,15.178,1.4545,0,0.00019713,1969.9,6.7393e-05,0.01855,6.1069e-05,-47.5,-0.00019789,-1993.2,1.1568
3573,15.362,1.4545,0,0.00019272,1925.9,6.5738e-05,0.015979,5.9959e-05,-43.404,-0.00019342,-1947.2,1.1823
3574,15.545,1.4545,0,0.00018833,1882,6.4092e-05,0.014018,5.8848e-05,-39.393,-0.00018897,-1901.4,1.208
3575,15.729,1.4545,0,0.00018396,1838.3,6.2457e-05,0.012564,5.7733e-05,-35.486,-0.00018454,-1855.8,1.2338
3576,15.913,1.4545,0,0.0001796,1794.8,6.0833e-05,0.011493,5.6613e-05,-31.698,-0.00018012,-1810.4,1.2597
3577,16.097,1.4545,0,0.00017526,1751.4,5.922e-05,0.010728,5.5487e-05,-28.037,-0.00017572,-1765.2,1.2857
3578,16.281,1.4545,0,0.00017093,1708.1,5.7618e-05,0.010215,5.4355e-05,-24.507,-0.00017133,-1720.3,1.3119
3579,16.464,1.4545,0,0.00016662,1665,5.6027e-05,0.0098816,5.3216e-05,-21.11,-0.00016697,-1675.5,1.3382
3580,16.648,1.4545,0,0.00016232,1622.1,5.4447e-05,0.0097496,5.2071e-05,-17.844,-0.00016261,-1630.9,1.3646
3581,16.832,1.4545,0,0.00015803,1579.2,5.2878e-05,0.0098587,5.092e-05,-14.705,-0.00015828,-1586.5,1.3911
3582,17.016,1.4545,0,0.00015376,1536.5,5.132e-05,0.010237,4.9763e-05,-11.686,-0.00015396,-1542.4,1.4177
3583,17.2,1.4545,0,0.0001495,1494,4.9772e-05,0.011027,4.8602e-05,-8.7796,-0.00014965,-1498.4,1.4444
3584,17.383,1.4545,0,0.00014526,1451.6,4.8233e-05,0.012649,4.7436e-05,-5.9782,-0.00014536,-1454.6,1.4712
3585,17.567,1.4545,0,0.00014104,1409.4,4.6705e-05,0.016896,4.6267e-05,-3.2737,-0.00014109,-1411,1.4981
3586,17.751,1.4545,0,0.00013682,1367.3,4.519e-05,0.052113,4.5092e-05,-0.68385,-0.00013684,-1367.6,1.5251
3587,17.935,1.4545,0,0.00013263,1325.4,4.3929e-05,1.9289,4.3672e-05,-0.0083545,-0.0001326,-1324.4,1.5522
3588,18.119,1.4545,0,0.00012845,1283.6,4.2757e-05,4.4105,4.217e-05,0.00084654,-0.00012838,-1281.4,1.5794
3589,18.302,1.4545,0,0.00012429,1242,4.1588e-05,6.8487,4.0676e-05,0.0035459,-0.00012417,-1238.6,1.6067
3590,18.486,1.4545,0,0.00012015,1200.6,4.042e-05,9.2504,3.919e-05,0.0049598,-0.00011999,-1196,1.634
3591,18.67,1.4545,0,0.00011602,1159.4,3.9257e-05,11.627,3.7711e-05,0.0058992,-0.00011582,-1153.6,1.6615
3592,18.854,1.4545,0,0.00011192,1118.4,3.8099e-05,13.99,3.6238e-05,0.0066424,-0.00011167,-1111.3,1.689
3593,19.038,1.4545,0,0.00010783,1077.6,3.6947e-05,16.352,3.4771e-05,0.007317,-0.00010754,-1069.3,1.7166
3594,19.221,1.4545,0,0.00010376,1036.9,3.5802e-05,18.727,3.3311e-05,0.0079647,-0.00010343,-1027.4,1.7442
3595,19.405,1.4545,0,9.9719e-05,996.5,3.4667e-05,21.126,3.1856e-05,0.0086096,-9.9343e-05,-985.77,1.772
3596,19.589,1.4545,0,9.5696e-05,956.3,3.3541e-05,23.564,3.0406e-05,0.0092767,-9.5273e-05,-944.29,1.7998
3597,19.773,1.4545,0,9.1695e-05,916.32,3.2427e-05,26.055,2.896e-05,0.0099608,-9.1224e-05,-903.01,1.8276
3598,19.956,1.4545,0,8.7718e-05,876.57,3.1325e-05,28.612,2.7519e-05,0.010694,-8.7196e-05,-861.91,1.8556
3599,20.14,1.4545,0,8.3764e-05,837.07,3.0238e-05,31.25,2.6081e-05,0.01151,-8.3189e-05,-821,1.8835
3600,20.324,1.4545,0,7.9837e-05,797.82,2.9167e-05,33.986,2.4646e-05,0.012413,-7.9204e-05,-780.28,1.9116
3601,20.508,1.4545,0,7.5936e-05,758.83,2.8114e-05,36.836,2.3213e-05,0.013424,-7.5242e-05,-739.74,1.9397
3602,20.692,1.4545,0,7.2062e-05,720.13,2.708e-05,39.817,2.1782e-05,0.014556,-7.1302e-05,-699.39,1.9678
3603,20.875,1.4545,0,6.8219e-05,681.72,2.6067e-05,42.95,2.0353e-05,0.015824,-6.7386e-05,-659.22,1.996
3604,21.059,1.4545,0,6.4406e-05,643.62,2.5077e-05,46.253,1.8923e-05,0.017279,-6.3495e-05,-619.24,2.0242
3605,21.243,1.4545,0,6.0628e-05,605.86,2.4113e-05,49.751,1.7494e-05,0.018971,-5.9628e-05,-579.44,2.0525
3606,21.427,1.4545,0,5.6886e-05,568.46,2.3177e-05,53.469,1.6063e-05,0.020942,-5.5787e-05,-539.83,2.0808
3607,21.611,1.4545,0,5.3183e-05,531.46,2.2271e-05,57.435,1.463e-05,0.023266,-5.1972e-05,-500.4,2.1092
3608,21.794,1.4545,0,4.9525e-05,494.91,2.14e-05,61.681,1.3195e-05,0.02603,-4.8186e-05,-461.16,2.1376
3609,21.978,1.4545,0,4.5916e-05,458.85,2.0567e-05,66.244,1.1755e-05,0.029343,-4.4429e-05,-422.11,2.166
3610,22.162,1.4545,0,4.2364e-05,423.35,1.9776e-05,71.163,1.0309e-05,0.033398,-4.0702e-05,-383.25,2.1945
3611,22.346,1.4545,0,3.8878e-05,388.51,1.9031e-05,76.485,8.8568e-06,0.03843,-3.7008e-05,-344.57,2.2229
3612,22.53,1.4545,0,3.547e-05,354.45,1.8338e-05,82.261,7.3955e-06,0.044834,-3.3347e-05,-306.08,2.2514
3613,22.713,1.4545,0,3.2155e-05,321.33,1.7701e-05,88.547,5.9234e-06,0.053028,-2.972e-05,-267.76,2.28
3614,22.897,1.4545,0,2.8956e-05,289.36,1.7127e-05,95.402,4.4381e-06,0.064573,-2.6129e-05,-229.6,2.3085
3615,23.081,1.4545,0,2.5903e-05,258.85,1.6619e-05,102.88,2.9368e-06,0.078754,-2.2571e-05,-191.57,2.3371
3616,23.265,1.4545,0,2.3036e-05,230.21,1.6181e-05,111.04,1.4173e-06,0.10872,-1.9044e-05,-153.63,2.3656
3617,23.449,1.4545,0,2.0418e-05,204.04,1.5814e-05,119.9,-1.2607e-07,0.12426,-1.5541e-05,-115.7,2.3942
3618,23.632,1.4545,0,1.814e-05,181.28,1.5517e-05,129.53,-1.6815e-06,0.30242,-1.2062e-05,-77.692,2.4228
3619,23.816,1.4545,0,1.6339e-05,163.28,1.5295e-05,139.78,-3.2877e-06,0.15538,-8.5988e-06,-39.751,2.4514
3620,10.95,1.2727,0,0.00032123,3210.1,0.00020169,1211.7,3.9546e-05,-6.5926,-0.00028289,-2429.2,0.61086
3621,11.134,1.2727,0,0.00028915,2889.5,0.00015541,746.23,5.5935e-05,-1.1512,-0.00026913,-2443.5,0.6329
3622,11.318,1.2727,0,0.00027741,2772.2,0.00012945,463.54,6.735e-05,-3.07,-0.00026661,-2512.3,0.65504
3623,11.502,1.2727,0,0.00027071,2705.2,0.0001122,276.43,7.5071e-05,-2.559,-0.00026497,-2557.5,0.67729
3624,11.686,1.2727,0,0.00026671,2665.3,0.00010104,155.74,7.9963e-05,-2.637,-0.00026375,-2585.2,0.69969
3625,11.869,1.2727,0,0.00026412,2639.3,9.3961e-05,79.948,8.2903e-05,-3.1387,-0.00026271,-2599.9,0.72225
3626,12.053,1.2727,0,0.00026203,2618.5,8.9501e-05,33.486,8.4398e-05,-4.8509,-0.00026152,-2603.9,0.74497
3627,12.237,1.2727,0,0.00025993,2597.6,8.7137e-05,9.4156,8.4343e-05,-11.578,-0.00025997,-2598.6,0.76786
3628,12.421,1.2727,0,0.00025758,2574,8.6494e-05,2.9698,8.2744e-05,-25.206,-0.00025795,-2585,0.79093
3629,12.605,1.2727,0,0.00025487,2547,8.605e-05,1.4114,8.0941e-05,-36.977,-0.00025546,-2564.5,0.81416
3630,12.788,1.2727,0,0.0002518,2516.3,8.5397e-05,0.8114,7.9257e-05,-45.321,-0.00025253,-2538.2,0.83757
3631,12.972,1.2727,0,0.00024841,2482.3,8.4529e-05,0.51266,7.7675e-05,-50.986,-0.00024922,-2507.2,0.86115
3632,13.156,1.2727,0,0.00024474,2445.7,8.3484e-05,0.3425,7.6165e-05,-54.648,-0.00024561,-2472.4,0.88489
3633,13.34,1.2727,0,0.00024085,2406.8,8.2296e-05,0.23771,7.4708e-05,-56.777,-0.00024176,-2434.6,0.9088
3634,13.524,1.2727,0,0.00023679,2366.3,8.0997e-05,0.16986,7.3295e-05,-57.698,-0.00023772,-2394.5,0.93288
3635,13.707,1.2727,0,0.00023261,2324.5,7.961e-05,0.12432,7.1922e-05,-57.647,-0.00023354,-2352.7,0.95711
3636,13.891,1.2727,0,0.00022834,2281.8,7.8157e-05,0.092909,7.0584e-05,-56.808,-0.00022925,-2309.7,0.9815
3637,14.075,1.2727,0,0.00022401,2238.5,7.6652e-05,0.070767,6.9279e-05,-55.331,-0.0002249,-2265.7,1.006
3638,14.259,1.2727,0,0.00021963,2194.8,7.511e-05,0.054823,6.8003e-05,-53.344,-0.00022049,-2221,1.0307
3639,14.443,1.2727,0,0.00021523,2150.8,7.3539e-05,0.043181,6.6752e-05,-50.954,-0.00021605,-2175.8,1.0556
3640,14.626,1.2727,0,0.00021082,2106.7,7.1949e-05,0.034604,6.5522e-05,-48.257,-0.0002116,-2130.4,1.0806
3641,14.81,1.2727,0,0.0002064,2062.5,7.0347e-05,0.028202,6.4309e-05,-45.335,-0.00020713,-2084.8,1.1057
3642,14.994,1.2727,0,0.00020198,2018.4,6.8737e-05,0.023378,6.3109e-05,-42.257,-0.00020266,-2039.2,1.131
3643,15.178,1.2727,0,0.00019756,1974.3,6.7123e-05,0.019718,6.1919e-05,-39.081,-0.0001982,-1993.5,1.1564
3644,15.362,1.2727,0,0.00019315,1930.2,6.551e-05,0.016887,6.0736e-05,-35.856,-0.00019374,-1947.9,1.182
3645,15.545,1.2727,0,0.00018876,1886.3,6.39e-05,0.014714,5.9556e-05,-32.621,-0.00018929,-1902.4,1.2076
3646,15.729,1.2727,0,0.00018437,1842.4,6.2294e-05,0.013085,5.8379e-05,-29.408,-0.00018485,-1857,1.2334
3647,15.913,1.2727,0,0.00018,1798.7,6.0695e-05,0.011869,5.7201e-05,-26.241,-0.00018043,-1811.7,1.2594
3648,16.097,1.2727,0,0.00017564,1755.1,5.9103e-05,0.010985,5.6022e-05,-23.137,-0.00017602,-1766.6,1.2854
3649,16.281,1.2727,0,0.00017129,1711.7,5.7519e-05,0.01038,5.4841e-05,-20.11,-0.00017162,-1721.7,1.3116
3650,16.464,1.2727,0,0.00016695,1668.4,5.5944e-05,0.0099898,5.3657e-05,-17.167,-0.00016724,-1676.9,1.3379
3651,16.648,1.2727,0,0.00016263,1625.2,5.4377e-05,0.0098451,5.2471e-05,-14.314,-0.00016287,-1632.3,1.3643
3652,16.832,1.2727,0,0.00015833,1582.2,5.282e-05,0.010019,5.1281e-05,-11.551,-0.00015852,-1587.9,1.3908
3653,17.016,1.2727,0,0.00015404,1539.3,5.1272e-05,0.010605,5.0089e-05,-8.878,-0.00015418,-1543.7,1.4174
3654,17.2,1.2727,0,0.00014976,1496.6,4.9733e-05,0.011952,4.8894e-05,-6.2916,-0.00014987,-1499.7,1.4441
3655,17.383,1.2727,0,0.0001455,1454,4.8203e-05,0.015324,4.7697e-05,-3.7884,-0.00014556,-1455.9,1.4709
3656,17.567,1.2727,0,0.00014125,1411.6,4.6684e-05,0.030668,4.6498e-05,-1.3722,-0.00014128,-1412.2,1.4978
3657,17.751,1.2727,0,0.00013703,1369.3,4.5307e-05,1.048,4.5164e-05,-0.025759,-0.00013701,-1368.8,1.5249
3658,17.935,1.2727,0,0.00013281,1327.2,4.4107e-05,3.3302,4.3663e-05,-0.0037026,-0.00013276,-1325.5,1.552
3659,18.119,1.2727,0,0.00012862,1285.3,4.291e-05,5.5794,4.2167e-05,0.00041746,-0.00012852,-1282.5,1.5792
3660,18.302,1.2727,0,0.00012444,1243.5,4.1715e-05,7.7893,4.0679e-05,0.0022196,-0.00012431,-1239.6,1.6064
3661,18.486,1.2727,0,0.00012028,1202,4.0524e-05,9.9679,3.9198e-05,0.003299,-0.00012011,-1197,1.6338
3662,18.67,1.2727,0,0.00011614,1160.6,3.9337e-05,12.125,3.7724e-05,0.0040457,-0.00011593,-1154.5,1.6612
3663,18.854,1.2727,0,0.00011202,1119.4,3.8155e-05,14.27,3.6256e-05,0.0046445,-0.00011177,-1112.2,1.6888
3664,19.038,1.2727,0,0.00010791,1078.4,3.6979e-05,16.415,3.4795e-05,0.0051985,-0.00010762,-1070.1,1.7164
3665,19.221,1.2727,0,0.00010383,1037.6,3.5811e-05,18.57,3.334e-05,0.0057237,-0.0001035,-1028.2,1.744
3666,19.405,1.2727,0,9.9766e-05,996.97,3.465e-05,20.745,3.189e-05,0.0062534,-9.9396e-05,-986.43,1.7718
3667,19.589,1.2727,0,9.5724e-05,956.58,3.35e-05,22.954,3.0446e-05,0.006801,-9.5312e-05,-944.89,1.7996
3668,19.773,1.2727,0,9.1703e-05,916.4,3.2359e-05,25.207,2.9006e-05,0.0073592,-9.1248e-05,-903.53,1.8274
3669,19.956,1.2727,0,8.7705e-05,876.45,3.1231e-05,27.516,2.757e-05,0.0079654,-8.7205e-05,-862.36,1.8554
3670,20.14,1.2727,0,8.3731e-05,836.73,3.0116e-05,29.896,2.6138e-05,0.008647,-8.3182e-05,-821.38,1.8834
3671,20.324,1.2727,0,7.978e-05,797.25,2.9015e-05,32.36,2.4709e-05,0.0094091,-7.918e-05,-780.57,1.9114
3672,20.508,1.2727,0,7.5854e-05,758.02,2.7929e-05,34.922,2.3283e-05,0.010267,-7.5199e-05,-739.95,1.9395
3673,20.692,1.2727,0,7.1954e-05,719.04,2.6862e-05,37.598,2.1859e-05,0.011241,-7.124e-05,-699.5,1.9677
3674,20.875,1.2727,0,6.8082e-05,680.35,2.5813e-05,40.405,2.0437e-05,0.012344,-6.7304e-05,-659.24,1.9958
3675,21.059,1.2727,0,6.4239e-05,641.94,2.4785e-05,43.362,1.9016e-05,0.013618,-6.3391e-05,-619.16,2.0241
3676,21.243,1.2727,0,6.0426e-05,603.85,2.378e-05,46.489,1.7595e-05,0.015119,-5.9501e-05,-579.25,2.0524
3677,21.427,1.2727,0,5.6648e-05,566.09,2.2801e-05,49.811,1.6174e-05,0.016892,-5.5636e-05,-539.53,2.0807
3678,21.611,1.2727,0,5.2906e-05,528.7,2.185e-05,53.354,1.4751e-05,0.019003,-5.1796e-05,-499.99,2.1091
3679,21.794,1.2727,0,4.9206e-05,491.72,2.093e-05,57.15,1.3326e-05,0.021545,-4.7984e-05,-460.64,2.1374
3680,21.978,1.2727,0,4.5551e-05,455.2,2.0045e-05,61.234,1.1899e-05,0.024626,-4.4199e-05,-421.47,2.1659
3681,22.162,1.2727,0,4.195e-05,419.21,1.92e-05,65.649,1.0466e-05,0.028436,-4.0446e-05,-382.51,2.1943
3682,22.346,1.2727,0,3.8411e-05,383.85,1.8399e-05,70.445,9.0282e-06,0.033212,-3.6725e-05,-343.74,2.2228
3683,22.53,1.2727,0,3.4947e-05,349.23,1.7649e-05,75.679,7.5824e-06,0.039352,-3.3039e-05,-305.17,2.2513
3684,22.713,1.2727,0,3.1574e-05,315.52,1.6957e-05,81.42,6.127e-06,0.047261,-2.939e-05,-266.81,2.2798
3685,22.897,1.2727,0,2.8314e-05,282.94,1.6329e-05,87.741,4.6594e-06,0.058481,-2.5781e-05,-228.66,2.3084
3686,23.081,1.2727,0,2.5198e-05,251.81,1.5774e-05,94.722,3.1766e-06,0.072255,-2.2213e-05,-190.7,2.337
3687,23.265,1.2727,0,2.2271e-05,222.56,1.5296e-05,102.44,1.6757e-06,0.10159,-1.8685e-05,-152.88,2.3655
3688,23.449,1.2727,0,1.9595e-05,195.82,1.4901e-05,110.95,1.5033e-07,0.1163,-1.519e-05,-115.15,2.3941
3689,23.632,1.2727,0,1.7267e-05,172.55,1.4589e-05,120.34,-1.3892e-06,0.29159,-1.1728e-05,-77.392,2.4227
3690,23.816,1.2727,0,1.5432e-05,154.22,1.4367e-05,130.5,-2.9833e-06,0.13618,-8.291e-06,-39.744,2.4513
3691,10.95,1.0909,0,0.00025607,2559,0.00015809,928.22,3.3548e-05,-7.5095,-0.00022723,-1966.9,0.60979
3692,11.134,1.0909,0,0.00023678,2366.2,0.00012522,584.76,4.7287e-05,-0.83032,-0.00022135,-2019.2,0.63196
3693,11.318,1.0909,0,0.00023577,2356.1,0.00010925,384.21,5.7757e-05,-2.6834,-0.00022688,-2141.4,0.6542
3694,11.502,1.0909,0,0.00023844,2382.8,9.9234e-05,248.58,6.587e-05,-2.1007,-0.00023326,-2249.6,0.67654
3695,11.686,1.0909,0,0.0002421,2419.4,9.3089e-05,158.23,7.1747e-05,-2.1232,-0.00023905,-2337.3,0.69901
3696,11.869,1.0909,0,0.00024549,2453.3,8.9315e-05,98.717,7.5895e-05,-2.1163,-0.0002437,-2403.4,0.72163
3697,12.053,1.0909,0,0.000248,2478.3,8.687e-05,59.062,7.8703e-05,-2.3049,-0.00024698,-2449.3,0.74439
3698,12.237,1.0909,0,0.00024941,2492.4,8.5127e-05,32.183,8.0469e-05,-2.8224,-0.00024889,-2477.5,0.76732
3699,12.421,1.0909,0,0.00024973,2495.6,8.3812e-05,14.227,8.1341e-05,-4.3415,-0.00024955,-2490.6,0.79041
3700,12.605,1.0909,0,0.00024907,2488.9,8.3032e-05,4.6904,8.12e-05,-9.0771,-0.00024914,-2491.1,0.81367
3701,12.788,1.0909,0,0.00024756,2473.9,8.2675e-05,1.7618,8.0199e-05,-16.839,-0.00024781,-2481.4,0.83709
3702,12.972,1.0909,0,0.00024536,2452,8.223e-05,0.86897,7.8917e-05,-24.024,-0.00024575,-2463.4,0.86068
3703,13.156,1.0909,0,0.00024261,2424.5,8.1571e-05,0.49895,7.755e-05,-29.719,-0.0002431,-2438.9,0.88444
3704,13.34,1.0909,0,0.00023942,2392.6,8.0713e-05,0.31293,7.6149e-05,-33.975,-0.00023998,-2409.2,0.90836
3705,13.524,1.0909,0,0.0002359,2357.3,7.9687e-05,0.20822,7.4739e-05,-36.966,-0.0002365,-2375.5,0.93244
3706,13.707,1.0909,0,0.00023211,2319.5,7.8526e-05,0.14477,7.3334e-05,-38.865,-0.00023275,-2338.6,0.95668
3707,13.891,1.0909,0,0.00022814,2279.8,7.7258e-05,0.10427,7.1943e-05,-39.828,-0.00022879,-2299.4,0.98108
3708,14.075,1.0909,0,0.00022402,2238.7,7.5906e-05,0.07736,7.0572e-05,-39.997,-0.00022467,-2258.4,1.0056
3709,14.259,1.0909,0,0.0002198,2196.5,7.4488e-05,0.058847,6.9222e-05,-39.503,-0.00022045,-2216,1.0303
3710,14.443,1.0909,0,0.00021551,2153.6,7.3019e-05,0.045778,6.7894e-05,-38.464,-0.00021614,-2172.6,1.0552
3711,14.626,1.0909,0,0.00021117,2110.3,7.1514e-05,0.036381,6.6587e-05,-36.983,-0.00021178,-2128.5,1.0802
3712,14.81,1.0909,0,0.0002068,2066.6,6.998e-05,0.029481,6.5298e-05,-35.155,-0.00020738,-2083.9,1.1053
3713,14.994,1.0909,0,0.00020241,2022.7,6.8428e-05,0.024336,6.4024e-05,-33.06,-0.00020295,-2039,1.1306
3714,15.178,1.0909,0,0.00019801,1978.7,6.6862e-05,0.020448,6.2764e-05,-30.769,-0.00019851,-1993.9,1.156
3715,15.362,1.0909,0,0.0001936,1934.7,6.5289e-05,0.017441,6.1514e-05,-28.341,-0.00019407,-1948.7,1.1816
3716,15.545,1.0909,0,0.0001892,1890.7,6.3712e-05,0.015122,6.0273e-05,-25.825,-0.00018962,-1903.5,1.2073
3717,15.729,1.0909,0,0.0001848,1846.7,6.2134e-05,0.013371,5.9037e-05,-23.261,-0.00018519,-1858.3,1.2331
3718,15.913,1.0909,0,0.00018041,1802.9,6.0558e-05,0.012047,5.7804e-05,-20.681,-0.00018075,-1813.1,1.259
3719,16.097,1.0909,0,0.00017603,1759.1,5.8987e-05,0.011077,5.6575e-05,-18.112,-0.00017633,-1768.1,1.2851
3720,16.281,1.0909,0,0.00017167,1715.5,5.742e-05,0.010414,5.5346e-05,-15.57,-0.00017193,-1723.2,1.3112
3721,16.464,1.0909,0,0.00016731,1672,5.586e-05,0.010008,5.4119e-05,-13.072,-0.00016753,-1678.5,1.3375
3722,16.648,1.0909,0,0.00016297,1628.6,5.4307e-05,0.0099202,5.2891e-05,-10.626,-0.00016315,-1633.9,1.3639
3723,16.832,1.0909,0,0.00015864,1585.4,5.2761e-05,0.0103,5.1663e-05,-8.2396,-0.00015878,-1589.4,1.3904
3724,17.016,1.0909,0,0.00015433,1542.3,5.1224e-05,0.01146,5.0435e-05,-5.9147,-0.00015443,-1545.2,1.4171
3725,17.2,1.0909,0,0.00015004,1499.3,4.9694e-05,0.014577,4.9206e-05,-3.6537,-0.0001501,-1501.2,1.4438
3726,17.383,1.0909,0,0.00014576,1456.6,4.8175e-05,0.027784,4.7976e-05,-1.4631,-0.00014578,-1457.3,1.4706
3727,17.567,1.0909,0,0.00014149,1414,4.6757e-05,0.75035,4.6652e-05,-0.039256,-0.00014148,-1413.6,1.4975
3728,17.751,1.0909,0,0.00013725,1371.5,4.5526e-05,2.8116,4.5151e-05,-0.006894,-0.0001372,-1370.1,1.5246
3729,17.935,1.0909,0,0.00013302,1329.2,4.4301e-05,4.8532,4.3654e-05,-0.0020571,-0.00013293,-1326.8,1.5517
3730,18.119,1.0909,0,0.0001288,1287.1,4.3077e-05,6.8567,4.2165e-05,-0.00013573,-0.00012868,-1283.7,1.5789
3731,18.302,1.0909,0,0.00012461,1245.2,4.1857e-05,8.827,4.0683e-05,0.00090904,-0.00012446,-1240.8,1.6062
3732,18.486,1.0909,0,0.00012043,1203.5,4.0641e-05,10.771,3.9207e-05,0.0015879,-0.00012024,-1198,1.6335
3733,18.67,1.0909,0,0.00011627,1161.9,3.9429e-05,12.697,3.7739e-05,0.0020693,-0.00011605,-1155.5,1.661
3734,18.854,1.0909,0,0.00011213,1120.5,3.8222e-05,14.613,3.6277e-05,0.0024565,-0.00011188,-1113.2,1.6885
3735,19.038,1.0909,0,0.00010801,1079.4,3.7021e-05,16.528,3.4822e-05,0.0028213,-0.00010772,-1071,1.7161
3736,19.221,1.0909,0,0.00010391,1038.4,3.5827e-05,18.45,3.3372e-05,0.0031703,-0.00010358,-1029,1.7438
3737,19.405,1.0909,0,9.9827e-05,997.58,3.4641e-05,20.388,3.1928e-05,0.0035266,-9.9464e-05,-987.23,1.7715
3738,19.589,1.0909,0,9.5765e-05,956.99,3.3464e-05,22.354,3.0489e-05,0.0038987,-9.5365e-05,-945.62,1.7994
3739,19.773,1.0909,0,9.1725e-05,916.61,3.2296e-05,24.355,2.9055e-05,0.0042819,-9.1286e-05,-904.19,1.8272
3740,19.956,1.0909,0,8.7705e-05,876.45,3.1139e-05,26.403,2.7625e-05,0.0047031,-8.7226e-05,-862.95,1.8552
3741,20.14,1.0909,0,8.3708e-05,836.5,2.9993e-05,28.509,2.62e-05,0.0051913,-8.3186e-05,-821.88,1.8832
3742,20.324,1.0909,0,7.9733e-05,796.78,2.8861e-05,30.683,2.4778e-05,0.0057482,-7.9166e-05,-780.99,1.9112
3743,20.508,1.0909,0,7.5781e-05,757.29,2.7742e-05,32.939,2.3359e-05,0.0063936,-7.5167e-05,-740.28,1.9393
3744,20.692,1.0909,0,7.1853e-05,718.04,2.6638e-05,35.29,2.1943e-05,0.0071398,-7.1188e-05,-699.74,1.9675
3745,20.875,1.0909,0,6.7951e-05,679.04,2.5552e-05,37.749,2.0529e-05,0.007997,-6.723e-05,-659.37,1.9957
3746,21.059,1.0909,0,6.4075e-05,640.31,2.4483e-05,40.334,1.9116e-05,0.0090097,-6.3293e-05,-619.18,2.0239
3747,21.243,1.0909,0,6.0227e-05,601.86,2.3435e-05,43.063,1.7705e-05,0.010234,-5.9379e-05,-579.17,2.0522
3748,21.427,1.0909,0,5.641e-05,563.71,2.2408e-05,45.955,1.6294e-05,0.011707,-5.5488e-05,-539.33,2.0805
3749,21.611,1.0909,0,5.2627e-05,525.9,2.1407e-05,49.036,1.4882e-05,0.013495,-5.162e-05,-499.66,2.1089
3750,21.794,1.0909,0,4.888e-05,488.46,2.0433e-05,52.334,1.347e-05,0.015687,-4.7778e-05,-460.18,2.1373
3751,21.978,1.0909,0,4.5175e-05,451.44,1.949e-05,55.884,1.2055e-05,0.018401,-4.3964e-05,-420.88,2.1657
3752,22.162,1.0909,0,4.1518e-05,414.9,1.8584e-05,59.727,1.0637e-05,0.021814,-4.0178e-05,-381.79,2.1942
3753,22.346,1.0909,0,3.7919e-05,378.93,1.7718e-05,63.914,9.2153e-06,0.026167,-3.6425e-05,-342.89,2.2227
3754,22.53,1.0909,0,3.4389e-05,343.65,1.6901e-05,68.508,7.7872e-06,0.031863,-3.2707e-05,-304.22,2.2512
3755,22.713,1.0909,0,3.0944e-05,309.23,1.6139e-05,73.585,6.3509e-06,0.039291,-2.9028e-05,-265.79,2.2797
3756,22.897,1.0909,0,2.7609e-05,275.9,1.5443e-05,79.237,4.9042e-06,0.049979,-2.5394e-05,-227.6,2.3083
3757,23.081,1.0909,0,2.4415e-05,243.98,1.4824e-05,85.568,3.4436e-06,0.063144,-2.1806e-05,-189.66,2.3368
3758,23.265,1.0909,0,2.1409e-05,213.94,1.4291e-05,92.696,1.9659e-06,0.091595,-1.827e-05,-151.95,2.3654
3759,23.449,1.0909,0,1.8658e-05,186.45,1.3854e-05,100.71,4.6335e-07,0.10516,-1.478e-05,-114.43,2.394
3760,23.632,1.0909,0,1.6263e-05,162.52,1.3517e-05,109.76,-1.0552e-06,0.27672,-1.1336e-05,-76.971,2.4226
3761,23.816,1.0909,0,1.4385e-05,143.75,1.3292e-05,119.77,-2.6331e-06,0.11106,-7.9308e-06,-39.694,2.4512
3762,10.95,0.90909,0,0.00020355,2034.1,0.00012243,694.31,2.9223e-05,-5.9882,-0.00018258,-1597.4,0.60873
3763,11.134,0.90909,0,0.0001933,1931.6,9.8837e-05,433.44,4.1005e-05,-1.0819,-0.00018224,-1678.4,0.631
3764,11.318,0.90909,0,0.00019995,1998.2,9.0093e-05,293.63,5.0697e-05,-2.3682,-0.00019335,-1836,0.65334
3765,11.502,0.90909,0,0.00021001,2098.7,8.6188e-05,203.92,5.8792e-05,-1.9152,-0.00020582,-1990.1,0.67576
3766,11.686,0.90909,0,0.00022004,2198.8,8.4645e-05,144.4,6.519e-05,-1.7745,-0.00021724,-2123.9,0.69829
3767,11.869,0.90909,0,0.00022857,2284.1,8.4106e-05,103.65,7.0103e-05,-1.5678,-0.00022665,-2231.3,0.72096
3768,12.053,0.90909,0,0.00023511,2349.5,8.384e-05,74.36,7.3754e-05,-1.4293,-0.00023378,-2312.1,0.74377
3769,12.237,0.90909,0,0.00023965,2394.9,8.3506e-05,52.298,7.6367e-05,-1.3445,-0.00023874,-2368.9,0.76673
3770,12.421,0.90909,0,0.00024239,2422.2,8.2977e-05,35.046,7.8133e-05,-1.3459,-0.0002418,-2405.2,0.78984
3771,12.605,0.90909,0,0.00024359,2434.3,8.2237e-05,21.293,7.9203e-05,-1.5024,-0.00024325,-2424.3,0.81312
3772,12.788,0.90909,0,0.00024353,2433.6,8.1347e-05,10.516,7.967e-05,-2.0855,-0.00024339,-2429.4,0.83656
3773,12.972,0.90909,0,0.00024245,2422.8,8.0516e-05,3.4959,7.9471e-05,-4.3494,-0.00024246,-2423.2,0.86017
3774,13.156,0.90909,0,0.00024056,2403.9,7.9947e-05,1.1237,7.8534e-05,-9.4943,-0.0002407,-2408.1,0.88393
3775,13.34,0.90909,0,0.00023803,2378.6,7.9326e-05,0.51039,7.7281e-05,-14.854,-0.00023827,-2385.8,0.90786
3776,13.524,0.90909,0,0.00023501,2348.4,7.8527e-05,0.28382,7.5928e-05,-19.24,-0.00023532,-2357.9,0.93195
3777,13.707,0.90909,0,0.00023161,2314.5,7.7559e-05,0.17683,7.4535e-05,-22.547,-0.00023198,-2325.6,0.9562
3778,13.891,0.90909,0,0.00022792,2277.6,7.6452e-05,0.11867,7.3128e-05,-24.857,-0.00022833,-2289.9,0.9806
3779,14.075,0.90909,0,0.00022402,2238.7,7.5232e-05,0.084066,7.1722e-05,-26.285,-0.00022445,-2251.6,1.0052
3780,14.259,0.90909,0,0.00021996,2198.1,7.3923e-05,0.062051,7.0327e-05,-26.956,-0.0002204,-2211.4,1.0299
3781,14.443,0.90909,0,0.00021578,2156.3,7.2545e-05,0.047352,6.8947e-05,-26.988,-0.00021623,-2169.7,1.0547
3782,14.626,0.90909,0,0.00021152,2113.8,7.1113e-05,0.037182,6.7583e-05,-26.49,-0.00021196,-2126.9,1.0797
3783,14.81,0.90909,0,0.0002072,2070.6,6.9641e-05,0.029908,6.6235e-05,-25.562,-0.00020762,-2083.2,1.1049
3784,14.994,0.90909,0,0.00020284,2027,6.814e-05,0.024567,6.4904e-05,-24.292,-0.00020324,-2039.1,1.1302
3785,15.178,0.90909,0,0.00019846,1983.2,6.6617e-05,0.02056,6.3585e-05,-22.756,-0.00019884,-1994.5,1.1556
3786,15.362,0.90909,0,0.00019406,1939.2,6.5079e-05,0.017467,6.2279e-05,-21.019,-0.00019441,-1949.7,1.1812
3787,15.545,0.90909,0,0.00018965,1895.2,6.3532e-05,0.015073,6.0983e-05,-19.138,-0.00018997,-1904.7,1.2068
3788,15.729,0.90909,0,0.00018525,1851.2,6.198e-05,0.013252,5.9695e-05,-17.157,-0.00018553,-1859.7,1.2327
3789,15.913,0.90909,0,0.00018084,1807.2,6.0427e-05,0.011869,5.8414e-05,-15.113,-0.0001811,-1814.7,1.2586
3790,16.097,0.90909,0,0.00017645,1763.3,5.8874e-05,0.010854,5.7137e-05,-13.038,-0.00017667,-1769.7,1.2847
3791,16.281,0.90909,0,0.00017206,1719.4,5.7324e-05,0.010181,5.5864e-05,-10.953,-0.00017225,-1724.9,1.3108
3792,16.464,0.90909,0,0.00016769,1675.7,5.5778e-05,0.0098422,5.4595e-05,-8.8785,-0.00016784,-1680.2,1.3371
3793,16.648,0.90909,0,0.00016333,1632.2,5.4237e-05,0.0099943,5.3328e-05,-6.8263,-0.00016344,-1635.6,1.3636
3794,16.832,0.90909,0,0.00015898,1588.7,5.2703e-05,0.011064,5.2062e-05,-4.8066,-0.00015906,-1591.1,1.3901
3795,17.016,0.90909,0,0.00015465,1545.5,5.1176e-05,0.014592,5.0798e-05,-2.8269,-0.0001547,-1546.9,1.4167
3796,17.2,0.90909,0,0.00015034,1502.3,4.9659e-05,0.035058,4.9534e-05,-0.90533,-0.00015035,-1502.8,1.4434
3797,17.383,0.90909,0,0.00014604,1459.4,4.8281e-05,1.0525,4.8138e-05,-0.022924,-0.00014602,-1458.8,1.4703
3798,17.567,0.90909,0,0.00014175,1416.6,4.7021e-05,2.894,4.6635e-05,-0.0062535,-0.0001417,-1415.1,1.4972
3799,17.751,0.90909,0,0.00013749,1373.9,4.5764e-05,4.7094,4.5137e-05,-0.0028383,-0.00013741,-1371.6,1.5242
3800,17.935,0.90909,0,0.00013324,1331.5,4.4511e-05,6.4905,4.3647e-05,-0.0014616,-0.00013313,-1328.2,1.5514
3801,18.119,0.90909,0,0.00012901,1289.2,4.3261e-05,8.2404,4.2164e-05,-0.00076156,-0.00012887,-1285.1,1.5786
3802,18.302,0.90909,0,0.00012479,1247.1,4.2014e-05,9.9636,4.0688e-05,-0.00035267,-0.00012462,-1242.1,1.6059
3803,18.486,0.90909,0,0.0001206,1205.2,4.0771e-05,11.665,3.9219e-05,-9.0231e-05,-0.0001204,-1199.3,1.6332
3804,18.67,0.90909,0,0.00011642,1163.4,3.9533e-05,13.352,3.7756e-05,6.9433e-05,-0.00011619,-1156.7,1.6607
3805,18.854,0.90909,0,0.00011227,1121.9,3.8301e-05,15.029,3.6301e-05,0.00018523,-0.000112,-1114.3,1.6882
3806,19.038,0.90909,0,0.00010813,1080.5,3.7074e-05,16.705,3.4851e-05,0.00030407,-0.00010783,-1072.1,1.7159
3807,19.221,0.90909,0,0.00010401,1039.3,3.5854e-05,18.385,3.3407e-05,0.00042553,-0.00010368,-1030,1.7435
3808,19.405,0.90909,0,9.9905e-05,998.36,3.4641e-05,20.077,3.1969e-05,0.00055468,-9.9548e-05,-988.17,1.7713
3809,19.589,0.90909,0,9.5824e-05,957.57,3.3436e-05,21.789,3.0536e-05,0.00069899,-9.5434e-05,-946.49,1.7991
3810,19.773,0.90909,0,9.1762e-05,916.99,3.224e-05,23.529,2.9109e-05,0.00084867,-9.1339e-05,-905,1.827
3811,19.956,0.90909,0,8.7721e-05,876.61,3.1053e-05,25.304,2.7686e-05,0.0010272,-8.7263e-05,-863.68,1.8549
3812,20.14,0.90909,0,8.3701e-05,836.43,2.9877e-05,27.124,2.6267e-05,0.0012622,-8.3206e-05,-822.54,1.8829
3813,20.324,0.90909,0,7.9701e-05,796.46,2.8711e-05,28.998,2.4852e-05,0.0015535,-7.9168e-05,-781.56,1.911
3814,20.508,0.90909,0,7.5723e-05,756.71,2.7558e-05,30.935,2.3441e-05,0.001914,-7.5149e-05,-740.76,1.9391
3815,20.692,0.90909,0,7.1767e-05,717.17,2.6417e-05,32.945,2.2033e-05,0.0023578,-7.1149e-05,-700.13,1.9673
3816,20.875,0.90909,0,6.7834e-05,677.87,2.529e-05,35.042,2.0627e-05,0.0028858,-6.7169e-05,-659.67,1.9955
3817,21.059,0.90909,0,6.3924e-05,638.8,2.4179e-05,37.236,1.9224e-05,0.0035453,-6.3209e-05,-619.37,2.0237
3818,21.243,0.90909,0,6.004e-05,599.99,2.3085e-05,39.543,1.7823e-05,0.004383,-5.9269e-05,-579.23,2.052
3819,21.427,0.90909,0,5.6183e-05,561.44,2.2009e-05,41.981,1.6422e-05,0.0054355,-5.5351e-05,-539.27,2.0804
3820,21.611,0.90909,0,5.2355e-05,523.19,2.0954e-05,44.569,1.5023e-05,0.0067674,-5.1454e-05,-499.47,2.1087
3821,21.794,0.90909,0,4.8559e-05,485.25,1.9922e-05,47.331,1.3623e-05,0.0084617,-4.758e-05,-459.85,2.1371
3822,21.978,0.90909,0,4.48e-05,447.69,1.8916e-05,50.299,1.2223e-05,0.010621,-4.3731e-05,-420.41,2.1656
3823,22.162,0.90909,0,4.1083e-05,410.54,1.7941e-05,53.509,1.0821e-05,0.013434,-3.991e-05,-381.16,2.194
3824,22.346,0.90909,0,3.7416e-05,373.9,1.7002e-05,57.009,9.4167e-06,0.017132,-3.6118e-05,-342.12,2.2225
3825,22.53,0.90909,0,3.3811e-05,337.87,1.6105e-05,60.862,8.0081e-06,0.022112,-3.2361e-05,-303.3,2.251
3826,22.713,0.90909,0,3.0283e-05,302.62,1.526e-05,65.148,6.5936e-06,0.028764,-2.8643e-05,-264.73,2.2796
3827,22.897,0.90909,0,2.6855e-05,268.37,1.4478e-05,69.97,5.171e-06,0.038604,-2.4972e-05,-226.44,2.3081
3828,23.081,0.90909,0,2.3562e-05,235.46,1.3773e-05,75.461,3.7368e-06,0.050828,-2.1353e-05,-188.47,2.3367
3829,23.265,0.90909,0,2.0453e-05,204.39,1.3162e-05,81.783,2.2875e-06,0.077997,-1.7796e-05,-150.82,2.3653
3830,23.449,0.90909,0,1.76e-05,175.88,1.2661e-05,89.098,8.1445e-07,0.090134,-1.4302e-05,-113.49,2.3939
3831,23.632,0.90909,0,1.5115e-05,151.05,1.2283e-05,97.626,-6.7612e-07,0.25685,-1.0875e-05,-76.374,2.4225
3832,23.816,0.90909,0,1.3177e-05,131.68,1.2049e-05,107.38,-2.2315e-06,0.078833,-7.5081e-06,-39.568,2.4511
3833,10.95,0.72727,0,0.00015919,1590.8,9.2187e-05,494.83,2.5533e-05,-5.9777,-0.00014485,-1286.2,0.60769
3834,11.134,0.72727,0,0.00015665,1565.5,7.5878e-05,297.04,3.615e-05,-1.4599,-0.00014947,-1396.2,0.63005
3835,11.318,0.72727,0,0.00016988,1697.6,7.3109e-05,206.42,4.5311e-05,-2.4452,-0.00016544,-1585.9,0.65246
3836,11.502,0.72727,0,0.00018603,1859,7.43e-05,155.41,5.3375e-05,-1.8157,-0.00018292,-1777.2,0.67494
3837,11.686,0.72727,0,0.00020121,2010.8,7.6643e-05,122.83,6.0096e-05,-1.4996,-0.00019886,-1947.2,0.69753
3838,11.869,0.72727,0,0.00021393,2137.8,7.8889e-05,99.248,6.5523e-05,-1.1778,-0.00021208,-2087,0.72025
3839,12.053,0.72727,0,0.00022379,2236.4,8.0564e-05,80.211,6.9762e-05,-0.94678,-0.00022233,-2195.6,0.74309
3840,12.237,0.72727,0,0.00023095,2307.9,8.1566e-05,63.853,7.2965e-05,-0.77613,-0.00022981,-2275.7,0.76608
3841,12.421,0.72727,0,0.00023576,2355.9,8.195e-05,49.438,7.5283e-05,-0.6597,-0.00023489,-2331.2,0.78922
3842,12.605,0.72727,0,0.00023858,2384.2,8.1822e-05,36.707,7.6858e-05,-0.5889,-0.00023795,-2365.9,0.81252
3843,12.788,0.72727,0,0.0002398,2396.3,8.1295e-05,25.579,7.7815e-05,-0.56541,-0.00023936,-2383.7,0.83598
3844,12.972,0.72727,0,0.00023971,2395.5,8.0475e-05,16.036,7.8259e-05,-0.61057,-0.00023945,-2387.7,0.8596
3845,13.156,0.72727,0,0.0002386,2384.4,7.9459e-05,8.1316,7.8267e-05,-0.82733,-0.00023848,-2380.7,0.88338
3846,13.34,0.72727,0,0.00023669,2365.2,7.8407e-05,2.4767,7.7825e-05,-1.8993,-0.00023668,-2364.9,0.90731
3847,13.524,0.72727,0,0.00023414,2339.8,7.7587e-05,0.61369,7.6778e-05,-5.4659,-0.00023422,-2342.2,0.93141
3848,13.707,0.72727,0,0.0002311,2309.4,7.6749e-05,0.26087,7.5469e-05,-9.3603,-0.00023126,-2314,0.95567
3849,13.891,0.72727,0,0.0002277,2275.4,7.5768e-05,0.14587,7.4093e-05,-12.436,-0.0002279,-2281.5,0.98008
3850,14.075,0.72727,0,0.00022401,2238.5,7.4655e-05,0.093736,7.2693e-05,-14.646,-0.00022425,-2245.8,1.0046
3851,14.259,0.72727,0,0.00022011,2199.5,7.3435e-05,0.065604,7.1286e-05,-16.079,-0.00022037,-2207.5,1.0294
3852,14.443,0.72727,0,0.00021604,2158.9,7.2131e-05,0.048695,6.9883e-05,-16.843,-0.00021632,-2167.3,1.0542
3853,14.626,0.72727,0,0.00021186,2117.2,7.0761e-05,0.037763,6.8487e-05,-17.043,-0.00021215,-2125.6,1.0792
3854,14.81,0.72727,0,0.0002076,2074.6,6.934e-05,0.030262,6.7103e-05,-16.778,-0.00020788,-2082.9,1.1044
3855,14.994,0.72727,0,0.00020328,2031.4,6.7881e-05,0.024879,6.573e-05,-16.136,-0.00020355,-2039.4,1.1297
3856,15.178,0.72727,0,0.00019891,1987.8,6.6394e-05,0.020868,6.4369e-05,-15.194,-0.00019917,-1995.3,1.1551
3857,15.362,0.72727,0,0.00019452,1943.9,6.4887e-05,0.017758,6.3019e-05,-14.019,-0.00019476,-1950.8,1.1807
3858,15.545,0.72727,0,0.00019012,1899.9,6.3366e-05,0.015319,6.1678e-05,-12.667,-0.00019033,-1906.1,1.2064
3859,15.729,0.72727,0,0.0001857,1855.8,6.1837e-05,0.013421,6.0346e-05,-11.185,-0.00018589,-1861.3,1.2322
3860,15.913,0.72727,0,0.00018129,1811.7,6.0302e-05,0.011952,5.9022e-05,-9.6116,-0.00018145,-1816.4,1.2582
3861,16.097,0.72727,0,0.00017688,1767.6,5.8766e-05,0.010865,5.7703e-05,-7.9789,-0.00017702,-1771.6,1.2842
3862,16.281,0.72727,0,0.00017248,1723.6,5.7231e-05,0.010191,5.639e-05,-6.3118,-0.00017259,-1726.7,1.3104
3863,16.464,0.72727,0,0.00016809,1679.7,5.5699e-05,0.01007,5.5081e-05,-4.6304,-0.00016817,-1682,1.3367
3864,16.648,0.72727,0,0.00016371,1635.9,5.4171e-05,0.011212,5.3776e-05,-2.9504,-0.00016376,-1637.4,1.3632
3865,16.832,0.72727,0,0.00015934,1592.3,5.2648e-05,0.017959,5.2474e-05,-1.2872,-0.00015936,-1593,1.3897
3866,17.016,0.72727,0,0.00015499,1548.8,5.1184e-05,0.41988,5.1123e-05,-0.038232,-0.00015498,-1548.6,1.4163
3867,17.2,0.72727,0,0.00015066,1505.5,4.9885e-05,2.0139,4.9616e-05,-0.0056761,-0.00015062,-1504.5,1.4431
3868,17.383,0.72727,0,0.00014634,1462.4,4.8593e-05,3.61,4.8112e-05,-0.0024595,-0.00014628,-1460.6,1.4699
3869,17.567,0.72727,0,0.00014203,1419.4,4.7304e-05,5.1799,4.6615e-05,-0.0015891,-0.00014195,-1416.8,1.4969
3870,17.751,0.72727,0,0.00013775,1376.6,4.6019e-05,6.7225,4.5124e-05,-0.0013714,-0.00013763,-1373.2,1.5239
3871,17.935,0.72727,0,0.00013348,1333.9,4.4737e-05,8.2387,4.3641e-05,-0.0013875,-0.00013334,-1329.8,1.551
3872,18.119,0.72727,0,0.00012923,1291.4,4.3459e-05,9.731,4.2164e-05,-0.0015157,-0.00012907,-1286.6,1.5782
3873,18.302,0.72727,0,0.000125,1249.2,4.2186e-05,11.202,4.0695e-05,-0.0017005,-0.00012481,-1243.5,1.6055
3874,18.486,0.72727,0,0.00012079,1207.1,4.0917e-05,12.657,3.9232e-05,-0.0019153,-0.00012057,-1200.7,1.6329
3875,18.67,0.72727,0,0.0001166,1165.1,3.9652e-05,14.098,3.7776e-05,-0.002172,-0.00011635,-1158,1.6604
3876,18.854,0.72727,0,0.00011242,1123.4,3.8394e-05,15.532,3.6326e-05,-0.0024329,-0.00011215,-1115.6,1.6879
3877,19.038,0.72727,0,0.00010826,1081.9,3.7141e-05,16.962,3.4883e-05,-0.0026765,-0.00010796,-1073.3,1.7156
3878,19.221,0.72727,0,0.00010412,1040.5,3.5894e-05,18.394,3.3445e-05,-0.0029134,-0.0001038,-1031.2,1.7433
3879,19.405,0.72727,0,0.0001,999.34,3.4654e-05,19.834,3.2013e-05,-0.0031385,-9.9651e-05,-989.28,1.771
3880,19.589,0.72727,0,9.5902e-05,958.36,3.3421e-05,21.287,3.0587e-05,-0.0033546,-9.5523e-05,-947.54,1.7988
3881,19.773,0.72727,0,9.182e-05,917.57,3.2196e-05,22.759,2.9166e-05,-0.0035766,-9.1412e-05,-905.98,1.8267
3882,19.956,0.72727,0,8.7758e-05,876.97,3.0979e-05,24.255,2.775e-05,-0.0037848,-8.732e-05,-864.59,1.8547
3883,20.14,0.72727,0,8.3714e-05,836.56,2.977e-05,25.783,2.6338e-05,-0.0039567,-8.3246e-05,-823.38,1.8827
3884,20.324,0.72727,0,7.969e-05,796.35,2.8572e-05,27.349,2.4931e-05,-0.004097,-7.919e-05,-782.33,1.9108
3885,20.508,0.72727,0,7.5686e-05,756.34,2.7383e-05,28.96,2.3528e-05,-0.0042016,-7.5152e-05,-741.44,1.9389
3886,20.692,0.72727,0,7.1702e-05,716.52,2.6204e-05,30.623,2.2128e-05,-0.0042539,-7.1132e-05,-700.72,1.9671
3887,20.875,0.72727,0,6.7738e-05,676.91,2.5037e-05,32.346,2.0732e-05,-0.0042609,-6.713e-05,-660.16,1.9953
3888,21.059,0.72727,0,6.3795e-05,637.51,2.3883e-05,34.14,1.9338e-05,-0.0041858,-6.3146e-05,-619.76,2.0235
3889,21.243,0.72727,0,5.9874e-05,598.33,2.2741e-05,36.015,1.7947e-05,-0.0039919,-5.918e-05,-579.51,2.0518
3890,21.427,0.72727,0,5.5977e-05,559.38,2.1614e-05,37.982,1.6559e-05,-0.0036476,-5.5234e-05,-539.43,2.0802
3891,21.611,0.72727,0,5.2104e-05,520.68,2.0503e-05,40.058,1.5172e-05,-0.0031021,-5.1307e-05,-499.5,2.1086
3892,21.794,0.72727,0,4.8259e-05,482.25,1.9411e-05,42.26,1.3786e-05,-0.0022834,-4.7401e-05,-459.73,2.137
3893,21.978,0.72727,0,4.4443e-05,444.13,1.8338e-05,44.611,1.2401e-05,-0.0010992,-4.3516e-05,-420.14,2.1654
3894,22.162,0.72727,0,4.0663e-05,406.35,1.729e-05,47.141,1.1016e-05,0.00061246,-3.9655e-05,-380.72,2.1939
3895,22.346,0.72727,0,3.6924e-05,368.99,1.627e-05,49.891,9.6301e-06,0.0030773,-3.5821e-05,-341.5,2.2224
3896,22.53,0.72727,0,3.3236e-05,332.13,1.5284e-05,52.913,8.2427e-06,0.0066576,-3.2018e-05,-302.5,2.2509
3897,22.713,0.72727,0,2.9614e-05,295.93,1.4341e-05,56.283,6.8522e-06,0.011736,-2.8252e-05,-263.75,2.2794
3898,22.897,0.72727,0,2.6078e-05,260.6,1.3454e-05,60.105,5.4568e-06,0.01979,-2.453e-05,-225.29,2.308
3899,23.081,0.72727,0,2.2661e-05,226.46,1.2637e-05,64.525,4.0535e-06,0.029969,-2.0863e-05,-187.18,2.3366
3900,23.265,0.72727,0,1.9416e-05,194.03,1.1915e-05,69.75,2.6389e-06,0.05463,-1.7265e-05,-149.5,2.3652
3901,23.449,0.72727,0,1.6421e-05,164.1,1.1314e-05,76.031,1.2037e-06,0.063886,-1.3749e-05,-112.29,2.3938
3902,23.632,0.72727,0,1.3807e-05,137.97,1.0866e-05,83.731,-2.4875e-07,0.22254,-1.033e-05,-75.524,2.4224
3903,23.816,0.72727,0,1.1781e-05,117.72,1.0608e-05,93.044,-1.7716e-06,0.027165,-7.0075e-06,-39.313,2.451
3904,10.95,0.54545,0,0.00012048,1203.9,6.5937e-05,322.88,2.2068e-05,-6.7312,-0.00011166,-1011.5,0.60667
3905,11.134,0.54545,0,0.00012601,1259.2,5.6482e-05,180.79,3.2085e-05,-2.5284,-0.00012197,-1160,0.62909
3906,11.318,0.54545,0,0.00014566,1455.5,5.9135e-05,132.68,4.1104e-05,-2.7945,-0.00014297,-1385.9,0.65156
3907,11.502,0.54545,0,0.00016694,1668.3,6.4472e-05,112.39,4.9281e-05,-1.7499,-0.00016477,-1610,0.6741
3908,11.686,0.54545,0,0.0001861,1859.8,6.9766e-05,100.05,5.6289e-05,-1.2071,-0.00018422,-1808.3,0.69674
3909,11.869,0.54545,0,0.00020195,2018.1,7.4093e-05,89.275,6.2102e-05,-0.81631,-0.00020029,-1972.3,0.71949
3910,12.053,0.54545,0,0.00021432,2141.8,7.7254e-05,78.195,6.6769e-05,-0.58297,-0.00021289,-2101.9,0.74237
3911,12.237,0.54545,0,0.00022352,2233.7,7.9333e-05,66.716,7.0396e-05,-0.43005,-0.00022232,-2199.8,0.76539
3912,12.421,0.54545,0,0.00022997,2298.1,8.0508e-05,55.255,7.311e-05,-0.33024,-0.00022899,-2270.2,0.78855
3913,12.605,0.54545,0,0.00023413,2339.7,8.0967e-05,44.283,7.5038e-05,-0.26417,-0.00023335,-2317.4,0.81187
3914,12.788,0.54545,0,0.00023642,2362.6,8.0879e-05,34.164,7.6303e-05,-0.22207,-0.00023583,-2345.5,0.83534
3915,12.972,0.54545,0,0.00023721,2370.4,8.0384e-05,25.13,7.7013e-05,-0.19889,-0.00023677,-2357.9,0.85897
3916,13.156,0.54545,0,0.00023679,2366.2,7.9593e-05,17.295,7.7265e-05,-0.19441,-0.00023649,-2357.6,0.88277
3917,13.34,0.54545,0,0.00023542,2352.6,7.8592e-05,10.69,7.714e-05,-0.21701,-0.00023524,-2347.3,0.90672
3918,13.524,0.54545,0,0.00023331,2331.5,7.7451e-05,5.3194,7.6702e-05,-0.3095,-0.00023322,-2329,0.93082
3919,13.707,0.54545,0,0.00023062,2304.6,7.6266e-05,1.4563,7.5962e-05,-0.82592,-0.00023061,-2304.3,0.95509
3920,13.891,0.54545,0,0.00022748,2273.2,7.5243e-05,0.29478,7.4796e-05,-3.0625,-0.00022752,-2274.6,0.97951
3921,14.075,0.54545,0,0.00022399,2238.4,7.4196e-05,0.12774,7.3457e-05,-5.4249,-0.00022408,-2241,1.0041
3922,14.259,0.54545,0,0.00022024,2200.9,7.304e-05,0.075608,7.2079e-05,-7.1477,-0.00022036,-2204.4,1.0288
3923,14.443,0.54545,0,0.0002163,2161.5,7.179e-05,0.051536,7.0685e-05,-8.2538,-0.00021643,-2165.6,1.0537
3924,14.626,0.54545,0,0.0002122,2120.5,7.0466e-05,0.038071,6.9286e-05,-8.8279,-0.00021235,-2124.9,1.0787
3925,14.81,0.54545,0,0.000208,2078.5,6.9084e-05,0.029576,6.7888e-05,-8.9573,-0.00020815,-2083,1.1039
3926,14.994,0.54545,0,0.00020371,2035.7,6.7658e-05,0.02376,6.6494e-05,-8.7219,-0.00020386,-2040,1.1292
3927,15.178,0.54545,0,0.00019937,1992.3,6.6199e-05,0.019527,6.5107e-05,-8.1924,-0.00019951,-1996.4,1.1546
3928,15.362,0.54545,0,0.00019499,1948.6,6.4717e-05,0.016264,6.3726e-05,-7.4304,-0.00019512,-1952.3,1.1802
3929,15.545,0.54545,0,0.00019059,1904.6,6.3217e-05,0.013685,6.2352e-05,-6.4878,-0.0001907,-1907.8,1.2059
3930,15.729,0.54545,0,0.00018617,1860.4,6.1706e-05,0.011649,6.0984e-05,-5.4084,-0.00018626,-1863.1,1.2317
3931,15.913,0.54545,0,0.00018175,1816.3,6.0188e-05,0.010034,5.9624e-05,-4.2285,-0.00018182,-1818.4,1.2577
3932,16.097,0.54545,0,0.00017733,1772.1,5.8667e-05,0.0088437,5.8269e-05,-2.978,-0.00017738,-1773.5,1.2838
3933,16.281,0.54545,0,0.00017291,1727.9,5.7145e-05,0.0083978,5.692e-05,-1.681,-0.00017294,-1728.8,1.31
3934,16.464,0.54545,0,0.0001685,1683.9,5.5625e-05,0.01448,5.5575e-05,-0.36258,-0.00016851,-1684,1.3363
3935,16.648,0.54545,0,0.00016411,1639.9,5.4237e-05,0.98922,5.4106e-05,0.00059792,-0.00016409,-1639.4,1.3627
3936,16.832,0.54545,0,0.00015972,1596.1,5.2902e-05,2.3283,5.2593e-05,0.0016554,-0.00015968,-1594.9,1.3893
3937,17.016,0.54545,0,0.00015535,1552.4,5.1572e-05,3.6626,5.1084e-05,0.001335,-0.00015529,-1550.6,1.4159
3938,17.2,0.54545,0,0.000151,1508.9,5.0245e-05,4.9851,4.9582e-05,0.00080297,-0.00015091,-1506.4,1.4427
3939,17.383,0.54545,0,0.00014666,1465.6,4.8923e-05,6.2919,4.8085e-05,0.00022574,-0.00014655,-1462.4,1.4695
3940,17.567,0.54545,0,0.00014234,1422.4,4.7604e-05,7.5806,4.6595e-05,-0.00038255,-0.00014221,-1418.6,1.4965
3941,17.751,0.54545,0,0.00013803,1379.4,4.629e-05,8.8506,4.5112e-05,-0.00097732,-0.00013788,-1374.9,1.5235
3942,17.935,0.54545,0,0.00013375,1336.6,4.4981e-05,10.102,4.3636e-05,-0.0015323,-0.00013357,-1331.5,1.5506
3943,18.119,0.54545,0,0.00012948,1293.9,4.3675e-05,11.336,4.2166e-05,-0.0020621,-0.00012929,-1288.2,1.5779
3944,18.302,0.54545,0,0.00012523,1251.5,4.2375e-05,12.555,4.0703e-05,-0.0025729,-0.00012501,-1245.1,1.6052
3945,18.486,0.54545,0,0.000121,1209.2,4.1079e-05,13.76,3.9247e-05,-0.0030693,-0.00012076,-1202.3,1.6326
3946,18.67,0.54545,0,0.00011679,1167.1,3.9788e-05,14.954,3.7797e-05,-0.0035801,-0.00011653,-1159.6,1.6601
3947,18.854,0.54545,0,0.0001126,1125.2,3.8503e-05,16.142,3.6354e-05,-0.0040806,-0.00011231,-1117,1.6876
3948,19.038,0.54545,0,0.00010842,1083.5,3.7224e-05,17.324,3.4917e-05,-0.0045572,-0.00010812,-1074.7,1.7152
3949,19.221,0.54545,0,0.00010426,1041.9,3.595e-05,18.507,3.3486e-05,-0.0050279,-0.00010394,-1032.6,1.743
3950,19.405,0.54545,0,0.00010013,1000.6,3.4683e-05,19.692,3.2061e-05,-0.0054913,-9.9777e-05,-990.58,1.7707
3951,19.589,0.54545,0,9.6006e-05,959.4,3.3422e-05,20.883,3.0642e-05,-0.0059594,-9.5634e-05,-948.79,1.7986
3952,19.773,0.54545,0,9.1904e-05,918.41,3.2168e-05,22.085,2.9227e-05,-0.006445,-9.1509e-05,-907.17,1.8265
3953,19.956,0.54545,0,8.7821e-05,877.6,3.0921e-05,23.301,2.7818e-05,-0.0069316,-8.7401e-05,-865.72,1.8544
3954,20.14,0.54545,0,8.3755e-05,836.97,2.9681e-05,24.536,2.6414e-05,-0.0074035,-8.3311e-05,-824.44,1.8824
3955,20.324,0.54545,0,7.9708e-05,796.53,2.8449e-05,25.793,2.5015e-05,-0.0078767,-7.9238e-05,-783.32,1.9105
3956,20.508,0.54545,0,7.5678e-05,756.26,2.7225e-05,27.077,2.362e-05,-0.0083461,-7.5181e-05,-742.36,1.9387
3957,20.692,0.54545,0,7.1667e-05,716.17,2.6009e-05,28.392,2.2229e-05,-0.0088074,-7.1142e-05,-701.56,1.9668
3958,20.875,0.54545,0,6.7674e-05,676.27,2.4802e-05,29.744,2.0842e-05,-0.0092693,-6.7119e-05,-660.91,1.9951
3959,21.059,0.54545,0,6.3699e-05,636.55,2.3604e-05,31.137,1.9459e-05,-0.0097068,-6.3112e-05,-620.42,2.0233
3960,21.243,0.54545,0,5.9743e-05,597.02,2.2416e-05,32.577,1.8079e-05,-0.010097,-5.9123e-05,-580.07,2.0516
3961,21.427,0.54545,0,5.5807e-05,557.69,2.1238e-05,34.073,1.6702e-05,-0.010416,-5.5149e-05,-539.87,2.08
3962,21.611,0.54545,0,5.1891e-05,518.55,2.0072e-05,35.632,1.5328e-05,-0.010635,-5.1193e-05,-499.82,2.1084
3963,21.794,0.54545,0,4.7997e-05,479.64,1.8917e-05,37.265,1.3956e-05,-0.010708,-4.7254e-05,-459.92,2.1368
3964,21.978,0.54545,0,4.4127e-05,440.96,1.7777e-05,38.987,1.2587e-05,-0.010559,-4.3334e-05,-420.18,2.1652
3965,22.162,0.54545,0,4.0284e-05,402.56,1.6653e-05,40.817,1.122e-05,-0.010063,-3.9434e-05,-380.6,2.1937
3966,22.346,0.54545,0,3.6472e-05,364.47,1.5548e-05,42.779,9.8536e-06,-0.009042,-3.5555e-05,-341.19,2.2222
3967,22.53,0.54545,0,3.2699e-05,326.76,1.4467e-05,44.912,8.4886e-06,-0.0071714,-3.1703e-05,-301.99,2.2507
3968,22.713,0.54545,0,2.8975e-05,289.55,1.3416e-05,47.272,7.1239e-06,-0.0041256,-2.788e-05,-263.01,2.2793
3969,22.897,0.54545,0,2.5318e-05,253.01,1.2405e-05,49.941,5.7585e-06,0.0014737,-2.4096e-05,-224.31,2.3078
3970,23.081,0.54545,0,2.1756e-05,217.41,1.145e-05,53.05,4.3903e-06,0.0088258,-2.0362e-05,-185.97,2.3364
3971,23.265,0.54545,0,1.8336e-05,183.23,1.0575e-05,56.817,3.0171e-06,0.029912,-1.6696e-05,-148.09,2.365
3972,23.449,0.54545,0,1.5142e-05,151.32,9.8195e-06,61.568,1.6299e-06,0.03372,-1.3124e-05,-110.82,2.3936
3973,23.632,0.54545,0,1.2327e-05,123.19,9.2405e-06,67.879,2.3102e-07,0.18565,-9.6841e-06,-74.313,2.4222
3974,23.816,0.54545,0,1.0154e-05,101.47,8.9212e-06,76.333,-1.2417e-06,-0.027007,-6.4039e-06,-38.814,2.4508
3975,10.95,0.36364,0,8.6194e-05,861.34,4.3321e-05,178.91,1.8329e-05,-8.8696,-8.1751e-05,-760.83,0.60567
3976,11.134,0.36364,0,0.00010198,1019.1,4.1741e-05,95.647,2.8431e-05,-4.3579,-0.00010006,-969.8,0.62813
3977,11.318,0.36364,0,0.00012798,1278.9,4.919e-05,82.225,3.7825e-05,-3.1668,-0.00012642,-1237.2,0.65064
3978,11.502,0.36364,0,0.00015315,1530.4,5.7334e-05,81.098,4.6338e-05,-1.5208,-0.00015162,-1488.9,0.67323
3979,11.686,0.36364,0,0.00017493,1748.1,6.4378e-05,79.62,5.3662e-05,-0.88951,-0.00017345,-1707.3,0.6959
3980,11.869,0.36364,0,0.00019278,1926.5,6.9916e-05,75.482,5.9796e-05,-0.55521,-0.0001914,-1887.9,0.71869
3981,12.053,0.36364,0,0.00020682,2066.8,7.3997e-05,68.866,6.4779e-05,-0.39271,-0.00020557,-2031.7,0.7416
3982,12.237,0.36364,0,0.00021744,2172.9,7.6818e-05,60.671,6.8704e-05,-0.29572,-0.00021635,-2142.1,0.76464
3983,12.421,0.36364,0,0.00022511,2249.5,7.861e-05,51.8,7.1685e-05,-0.2321,-0.00022418,-2223.3,0.78783
3984,12.605,0.36364,0,0.0002303,2301.4,7.9588e-05,42.963,7.3845e-05,-0.18542,-0.00022954,-2279.7,0.81116
3985,12.788,0.36364,0,0.00023346,2333,7.9937e-05,34.641,7.5306e-05,-0.14945,-0.00023285,-2315.5,0.83465
3986,12.972,0.36364,0,0.00023496,2348,7.9806e-05,27.123,7.618e-05,-0.12126,-0.00023449,-2334.4,0.8583
3987,13.156,0.36364,0,0.00023514,2349.8,7.9316e-05,20.55,7.6568e-05,-0.099653,-0.00023479,-2339.5,0.8821
3988,13.34,0.36364,0,0.00023426,2341,7.8559e-05,14.963,7.6556e-05,-0.084189,-0.000234,-2333.5,0.90607
3989,13.524,0.36364,0,0.00023254,2323.8,7.7606e-05,10.338,7.622e-05,-0.075269,-0.00023237,-2318.7,0.93019
3990,13.707,0.36364,0,0.00023016,2300.1,7.651e-05,6.612,7.562e-05,-0.07505,-0.00023005,-2296.8,0.95446
3991,13.891,0.36364,0,0.00022727,2271.2,7.5315e-05,3.7092,7.4809e-05,-0.091117,-0.00022721,-2269.4,0.97889
3992,14.075,0.36364,0,0.00022398,2238.3,7.4054e-05,1.5724,7.3824e-05,-0.16,-0.00022396,-2237.6,1.0035
3993,14.259,0.36364,0,0.00022039,2202.4,7.2786e-05,0.37239,7.2664e-05,-0.5468,-0.00022039,-2202.4,1.0282
3994,14.443,0.36364,0,0.00021655,2164.1,7.1541e-05,0.12769,7.1343e-05,-1.3599,-0.00021658,-2164.7,1.0531
3995,14.626,0.36364,0,0.00021254,2124,7.0241e-05,0.078198,6.9975e-05,-1.9225,-0.00021258,-2124.9,1.0781
3996,14.81,0.36364,0,0.0002084,2082.6,6.8883e-05,0.059677,6.859e-05,-2.1456,-0.00020844,-2083.6,1.1033
3997,14.994,0.36364,0,0.00020416,2040.2,6.7479e-05,0.050438,6.7196e-05,-2.0738,-0.00020419,-2041.2,1.1286
3998,15.178,0.36364,0,0.00019984,1997.1,6.6039e-05,0.045341,6.5799e-05,-1.76,-0.00019987,-1997.9,1.1541
3999,15.362,0.36364,0,0.00019548,1953.4,6.4574e-05,0.043399,6.4401e-05,-1.253,-0.0001955,-1954.1,1.1796
4000,15.545,0.36364,0,0.00019108,1909.5,6.3091e-05,0.049333,6.3005e-05,-0.59955,-0.00019109,-1909.8,1.2054
4001,15.729,0.36364,0,0.00018666,1865.4,6.1622e-05,0.2539,6.1585e-05,-0.025806,-0.00018666,-1865.2,1.2312
4002,15.913,0.36364,0,0.00018224,1821.1,6.0228e-05,1.0832,6.0085e-05,0.012702,-0.00018222,-1820.5,1.2572
4003,16.097,0.36364,0,0.0001778,1776.8,5.8842e-05,2.0138,5.8576e-05,0.01521,-0.00017777,-1775.8,1.2833
4004,16.281,0.36364,0,0.00017337,1732.5,5.7462e-05,2.9935,5.7066e-05,0.014553,-0.00017332,-1731,1.3095
4005,16.464,0.36364,0,0.00016895,1688.3,5.6087e-05,4.004,5.5555e-05,0.013018,-0.00016888,-1686.3,1.3358
4006,16.648,0.36364,0,0.00016453,1644.2,5.4716e-05,5.0326,5.4048e-05,0.011182,-0.00016445,-1641.7,1.3622
4007,16.832,0.36364,0,0.00016013,1600.2,5.335e-05,6.0696,5.2543e-05,0.0092601,-0.00016003,-1597.2,1.3888
4008,17.016,0.36364,0,0.00015574,1556.4,5.1989e-05,7.1077,5.1044e-05,0.0073113,-0.00015562,-1552.8,1.4154
4009,17.2,0.36364,0,0.00015137,1512.7,5.0632e-05,8.1416,4.9549e-05,0.0053714,-0.00015123,-1508.6,1.4422
4010,17.383,0.36364,0,0.00014702,1469.1,4.928e-05,9.1676,4.8061e-05,0.0034511,-0.00014686,-1464.5,1.4691
4011,17.567,0.36364,0,0.00014268,1425.8,4.7933e-05,10.183,4.6578e-05,0.0015315,-0.0001425,-1420.7,1.496
4012,17.751,0.36364,0,0.00013836,1382.6,4.6591e-05,11.187,4.5102e-05,-0.00036405,-0.00013816,-1377,1.5231
4013,17.935,0.36364,0,0.00013405,1339.6,4.5254e-05,12.179,4.3633e-05,-0.002202,-0.00013384,-1333.5,1.5502
4014,18.119,0.36364,0,0.00012977,1296.8,4.3922e-05,13.16,4.217e-05,-0.0040096,-0.00012954,-1290.2,1.5775
4015,18.302,0.36364,0,0.0001255,1254.2,4.2595e-05,14.128,4.0714e-05,-0.0058021,-0.00012526,-1247,1.6048
4016,18.486,0.36364,0,0.00012126,1211.7,4.1273e-05,15.087,3.9264e-05,-0.0075809,-0.00012099,-1204.1,1.6322
4017,18.67,0.36364,0,0.00011703,1169.5,3.9957e-05,16.038,3.7821e-05,-0.0093804,-0.00011675,-1161.4,1.6597
4018,18.854,0.36364,0,0.00011282,1127.4,3.8646e-05,16.981,3.6384e-05,-0.011194,-0.00011252,-1118.8,1.6873
4019,19.038,0.36364,0,0.00010863,1085.5,3.7341e-05,17.919,3.4954e-05,-0.013001,-0.00010831,-1076.4,1.7149
4020,19.221,0.36364,0,0.00010445,1043.8,3.6041e-05,18.854,3.353e-05,-0.014835,-0.00010412,-1034.2,1.7426
4021,19.405,0.36364,0,0.0001003,1002.3,3.4747e-05,19.787,3.2111e-05,-0.016702,-9.9944e-05,-992.23,1.7704
4022,19.589,0.36364,0,9.6157e-05,960.91,3.3459e-05,20.721,3.0698e-05,-0.018624,-9.5788e-05,-950.39,1.7983
4023,19.773,0.36364,0,9.2037e-05,919.74,3.2177e-05,21.657,2.9291e-05,-0.02063,-9.165e-05,-908.73,1.8262
4024,19.956,0.36364,0,8.7934e-05,878.73,3.09e-05,22.598,2.789e-05,-0.022713,-8.7528e-05,-867.23,1.8541
4025,20.14,0.36364,0,8.3848e-05,837.9,2.963e-05,23.545,2.6493e-05,-0.024877,-8.3423e-05,-825.89,1.8822
4026,20.324,0.36364,0,7.9779e-05,797.24,2.8366e-05,24.499,2.5102e-05,-0.027145,-7.9334e-05,-784.72,1.9103
4027,20.508,0.36364,0,7.5726e-05,756.74,2.7108e-05,25.463,2.3715e-05,-0.029534,-7.5262e-05,-743.7,1.9384
4028,20.692,0.36364,0,7.169e-05,716.41,2.5856e-05,26.439,2.2333e-05,-0.032067,-7.1205e-05,-702.84,1.9666
4029,20.875,0.36364,0,6.7671e-05,676.24,2.4611e-05,27.426,2.0956e-05,-0.034776,-6.7163e-05,-662.12,1.9948
4030,21.059,0.36364,0,6.3667e-05,636.23,2.3372e-05,28.428,1.9583e-05,-0.037668,-6.3136e-05,-621.56,2.0231
4031,21.243,0.36364,0,5.9679e-05,596.38,2.2139e-05,29.446,1.8214e-05,-0.040751,-5.9124e-05,-581.13,2.0514
4032,21.427,0.36364,0,5.5707e-05,556.69,2.0912e-05,30.482,1.6849e-05,-0.044059,-5.5127e-05,-540.84,2.0798
4033,21.611,0.36364,0,5.1752e-05,517.16,1.9692e-05,31.537,1.5488e-05,-0.047613,-5.1144e-05,-500.69,2.1082
4034,21.794,0.36364,0,4.7814e-05,477.81,1.8479e-05,32.615,1.4131e-05,-0.051435,-4.7176e-05,-460.69,2.1366
4035,21.978,0.36364,0,4.3893e-05,438.63,1.7273e-05,33.72,1.2777e-05,-0.055558,-4.3222e-05,-420.82,2.165
4036,22.162,0.36364,0,3.9991e-05,399.64,1.6075e-05,34.857,1.1428e-05,-0.059974,-3.9285e-05,-381.09,2.1935
4037,22.346,0.36364,0,3.6112e-05,360.87,1.4886e-05,36.035,1.0082e-05,-0.064668,-3.5364e-05,-341.53,2.222
4038,22.53,0.36364,0,3.2258e-05,322.35,1.3709e-05,37.268,8.7395e-06,-0.069555,-3.1462e-05,-302.13,2.2506
4039,22.713,0.36364,0,2.8436e-05,284.16,1.2546e-05,38.579,7.4012e-06,-0.074615,-2.7583e-05,-262.93,2.2791
4040,22.897,0.36364,0,2.4656e-05,246.39,1.1402e-05,40.01,6.0668e-06,-0.078988,-2.373e-05,-223.96,2.3077
4041,23.081,0.36364,0,2.0936e-05,209.22,1.0288e-05,41.632,4.736e-06,-0.083902,-1.9915e-05,-185.3,2.3363
4042,23.265,0.36364,0,1.7311e-05,172.99,9.2205e-06,43.587,3.4088e-06,-0.079809,-1.6152e-05,-147.05,2.3649
4043,23.449,0.36364,0,1.3847e-05,138.38,8.2353e-06,46.155,2.0801e-06,-0.092585,-1.2471e-05,-109.43,2.3935
4044,23.632,0.36364,0,1.0705e-05,106.97,7.4099e-06,50.029,7.5248e-07,0.0082189,-8.9365e-06,-72.791,2.4221
4045,23.816,0.36364,0,8.2469e-06,82.412,6.921e-06,56.537,-6.4049e-07,-0.27738,-5.6587e-06,-37.982,2.4507
4046,10.95,0.18182,0,5.9121e-05,590.8,2.7654e-05,89.836,1.3328e-05,-17.805,-5.7155e-05,-547.38,0.60467
4047,11.134,0.18182,0,8.8215e-05,881.54,3.4893e-05,66.525,2.524e-05,-6.0099,-8.6961e-05,-849.04,0.62717
4048,11.318,0.18182,0,0.00011857,1184.9,4.4843e-05,67.274,3.5502e-05,-2.9172,-0.00011732,-1151.2,0.64971
4049,11.502,0.18182,0,0.00014544,1453.4,5.367e-05,67.838,4.4512e-05,-0.9759,-0.00014418,-1418.7,0.67233
4050,11.686,0.18182,0,0.00016816,1680.4,6.0921e-05,65.161,5.2206e-05,-0.31772,-0.00016696,-1647,0.69503
4051,11.869,0.18182,0,0.00018679,1866.6,6.6641e-05,60.133,5.8634e-05,-0.028594,-0.00018569,-1835.8,0.71785
4052,12.053,0.18182,0,0.00020159,2014.5,7.0991e-05,53.706,6.3852e-05,0.060694,-0.00020062,-1987.1,0.74078
4053,12.237,0.18182,0,0.00021297,2128.3,7.4169e-05,46.728,6.7961e-05,0.078105,-0.00021214,-2104.5,0.76385
4054,12.421,0.18182,0,0.00022139,2212.4,7.6372e-05,39.801,7.1084e-05,0.067635,-0.00022069,-2192.2,0.78705
4055,12.605,0.18182,0,0.00022729,2271.3,7.778e-05,33.314,7.3353e-05,0.050993,-0.0002267,-2254.4,0.81041
4056,12.788,0.18182,0,0.00023108,2309.2,7.8548e-05,27.483,7.4895e-05,0.03557,-0.0002306,-2295.4,0.83391
4057,12.972,0.18182,0,0.00023315,2329.9,7.8809e-05,22.404,7.583e-05,0.023425,-0.00023276,-2318.6,0.85758
4058,13.156,0.18182,0,0.00023382,2336.6,7.8669e-05,18.092,7.6263e-05,0.014185,-0.0002335,-2327.5,0.88139
4059,13.34,0.18182,0,0.00023335,2331.9,7.8217e-05,14.518,7.6286e-05,0.0068673,-0.0002331,-2324.6,0.90537
4060,13.524,0.18182,0,0.00023198,2318.2,7.7523e-05,11.624,7.5976e-05,0.00043531,-0.00023178,-2312.3,0.9295
4061,13.707,0.18182,0,0.00022988,2297.3,7.6642e-05,9.3422,7.5398e-05,-0.0059862,-0.00022972,-2292.6,0.95378
4062,13.891,0.18182,0,0.00022722,2270.7,7.5619e-05,7.5986,7.4606e-05,-0.012837,-0.00022709,-2266.9,0.97822
4063,14.075,0.18182,0,0.00022412,2239.6,7.4488e-05,6.3221,7.3644e-05,-0.020031,-0.00022401,-2236.5,1.0028
4064,14.259,0.18182,0,0.00022067,2205.2,7.3276e-05,5.445,7.2548e-05,-0.026946,-0.00022057,-2202.4,1.0276
4065,14.443,0.18182,0,0.00021695,2168,7.2004e-05,4.9054,7.1347e-05,-0.032476,-0.00021687,-2165.6,1.0525
4066,14.626,0.18182,0,0.00021303,2128.8,7.0688e-05,4.6476,7.0065e-05,-0.035617,-0.00021295,-2126.5,1.0775
4067,14.81,0.18182,0,0.00020895,2088,6.934e-05,4.6233,6.872e-05,-0.036065,-0.00020887,-2085.7,1.1027
4068,14.994,0.18182,0,0.00020475,2046.1,6.797e-05,4.7906,6.7328e-05,-0.034238,-0.00020467,-2043.7,1.128
4069,15.178,0.18182,0,0.00020047,2003.3,6.6585e-05,5.1142,6.59e-05,-0.030975,-0.00020039,-2000.8,1.1535
4070,15.362,0.18182,0,0.00019613,1960,6.519e-05,5.5639,6.4446e-05,-0.027142,-0.00019604,-1957.2,1.179
4071,15.545,0.18182,0,0.00019175,1916.2,6.3789e-05,6.1139,6.2972e-05,-0.023293,-0.00019165,-1913.1,1.2048
4072,15.729,0.18182,0,0.00018734,1872.1,6.2386e-05,6.7425,6.1486e-05,-0.019717,-0.00018722,-1868.7,1.2306
4073,15.913,0.18182,0,0.00018291,1827.9,6.0983e-05,7.4314,5.9991e-05,-0.016571,-0.00018279,-1824.1,1.2566
4074,16.097,0.18182,0,0.00017848,1783.6,5.9581e-05,8.1653,5.8492e-05,-0.013879,-0.00017834,-1779.5,1.2827
4075,16.281,0.18182,0,0.00017404,1739.2,5.8181e-05,8.9318,5.6991e-05,-0.011617,-0.00017389,-1734.8,1.3089
4076,16.464,0.18182,0,0.00016961,1695,5.6785e-05,9.7206,5.549e-05,-0.0097577,-0.00016945,-1690.1,1.3353
4077,16.648,0.18182,0,0.00016519,1650.8,5.5393e-05,10.524,5.3991e-05,-0.0082161,-0.00016501,-1645.5,1.3617
4078,16.832,0.18182,0,0.00016078,1606.7,5.4005e-05,11.335,5.2495e-05,-0.0069043,-0.00016059,-1601,1.3883
4079,17.016,0.18182,0,0.00015639,1562.8,5.2622e-05,12.149,5.1004e-05,-0.0057987,-0.00015618,-1556.7,1.415
4080,17.2,0.18182,0,0.000152,1519,5.1244e-05,12.963,4.9518e-05,-0.0048618,-0.00015178,-1512.5,1.4417
4081,17.383,0.18182,0,0.00014764,1475.4,4.9871e-05,13.773,4.8037e-05,-0.0040683,-0.0001474,-1468.5,1.4686
4082,17.567,0.18182,0,0.00014329,1431.9,4.8503e-05,14.577,4.6562e-05,-0.0034213,-0.00014304,-1424.6,1.4956
4083,17.751,0.18182,0,0.00013896,1388.7,4.7141e-05,15.375,4.5094e-05,-0.0028773,-0.0001387,-1380.9,1.5227
4084,17.935,0.18182,0,0.00013465,1345.6,4.5784e-05,16.165,4.3632e-05,-0.0023898,-0.00013437,-1337.4,1.5498
4085,18.119,0.18182,0,0.00013036,1302.7,4.4432e-05,16.947,4.2176e-05,-0.0019717,-0.00013006,-1294.1,1.5771
4086,18.302,0.18182,0,0.00012609,1260,4.3086e-05,17.722,4.0727e-05,-0.0016109,-0.00012578,-1251,1.6044
4087,18.486,0.18182,0,0.00012183,1217.5,4.1746e-05,18.488,3.9285e-05,-0.00131,-0.00012151,-1208.1,1.6318
4088,18.67,0.18182,0,0.00011759,1175.1,4.041e-05,19.247,3.7849e-05,-0.0010853,-0.00011725,-1165.4,1.6593
4089,18.854,0.18182,0,0.00011338,1133,3.9081e-05,19.998,3.6419e-05,-0.00091685,-0.00011302,-1122.8,1.6869
4090,19.038,0.18182,0,0.00010918,1091,3.7756e-05,20.743,3.4995e-05,-0.00078296,-0.00010881,-1080.5,1.7146
4091,19.221,0.18182,0,0.00010499,1049.2,3.6437e-05,21.481,3.3578e-05,-0.00069495,-0.00010461,-1038.3,1.7423
4092,19.405,0.18182,0,0.00010083,1007.6,3.5123e-05,22.213,3.2167e-05,-0.0006626,-0.00010043,-996.3,1.7701
4093,19.589,0.18182,0,9.6681e-05,966.15,3.3815e-05,22.938,3.0762e-05,-0.00069193,-9.6271e-05,-954.47,1.7979
4094,19.773,0.18182,0,9.2551e-05,924.87,3.2511e-05,23.657,2.9362e-05,-0.00081468,-9.2126e-05,-912.81,1.8259
4095,19.956,0.18182,0,8.8437e-05,883.76,3.1212e-05,24.37,2.7969e-05,-0.0010201,-8.7997e-05,-871.32,1.8538
4096,20.14,0.18182,0,8.4339e-05,842.81,2.9918e-05,25.076,2.658e-05,-0.0013022,-8.3884e-05,-829.99,1.8819
4097,20.324,0.18182,0,8.0257e-05,802.01,2.8628e-05,25.774,2.5198e-05,-0.0016893,-7.9787e-05,-788.81,1.91
4098,20.508,0.18182,0,7.6189e-05,761.37,2.7342e-05,26.464,2.382e-05,-0.0022052,-7.5705e-05,-747.79,1.9381
4099,20.692,0.18182,0,7.2137e-05,720.87,2.6061e-05,27.143,2.2448e-05,-0.0028748,-7.1637e-05,-706.92,1.9663
4100,20.875,0.18182,0,6.8098e-05,680.51,2.4782e-05,27.81,2.108e-05,-0.0037411,-6.7582e-05,-666.18,1.9946
4101,21.059,0.18182,0,6.4073e-05,640.29,2.3507e-05,28.463,1.9718e-05,-0.0048296,-6.3542e-05,-625.59,2.0229
4102,21.243,0.18182,0,6.0061e-05,600.2,2.2234e-05,29.098,1.8361e-05,-0.0061779,-5.9513e-05,-585.12,2.0512
4103,21.427,0.18182,0,5.6062e-05,560.23,2.0964e-05,29.711,1.7009e-05,-0.0078532,-5.5497e-05,-544.79,2.0795
4104,21.611,0.18182,0,5.2075e-05,520.39,1.9695e-05,30.299,1.5661e-05,-0.0099379,-5.1493e-05,-504.58,2.1079
4105,21.794,0.18182,0,4.81e-05,480.66,1.8427e-05,30.855,1.4319e-05,-0.012528,-4.75e-05,-464.5,2.1364
4106,21.978,0.18182,0,4.4136e-05,441.05,1.7159e-05,31.373,1.2982e-05,-0.015768,-4.3518e-05,-424.54,2.1648
4107,22.162,0.18182,0,4.0184e-05,401.56,1.5891e-05,31.844,1.165e-05,-0.019816,-3.9547e-05,-384.7,2.1933
4108,22.346,0.18182,0,3.6243e-05,362.18,1.4621e-05,32.258,1.0325e-05,-0.02491,-3.5587e-05,-344.99,2.2219
4109,22.53,0.18182,0,3.2316e-05,322.93,1.3349e-05,32.603,9.0056e-06,-0.031347,-3.1637e-05,-305.41,2.2504
4110,22.713,0.18182,0,2.8402e-05,283.82,1.2073e-05,32.865,7.694e-06,-0.039685,-2.77e-05,-265.97,2.2789
4111,22.897,0.18182,0,2.4505e-05,244.88,1.0793e-05,33.026,6.391e-06,-0.050189,-2.3776e-05,-226.71,2.3075
4112,23.081,0.18182,0,2.063e-05,206.15,9.5076e-06,33.065,5.0982e-06,-0.065339,-1.9868e-05,-187.65,2.3361
4113,23.265,0.18182,0,1.6787e-05,167.75,8.2172e-06,32.968,3.8186e-06,-0.080695,-1.5981e-05,-148.85,2.3647
4114,23.449,0.18182,0,1.2999e-05,129.9,6.9272e-06,32.741,2.5537e-06,-0.12037,-1.2128e-05,-110.44,2.3933
4115,23.632,0.18182,0,9.3331e-06,93.267,5.6588e-06,32.532,1.3145e-06,-0.10856,-8.3425e-06,-72.668,2.4219
4116,23.816,0.18182,0,6.1195e-06,61.153,4.6028e-06,33.63,6.0023e-08,-0.50293,-4.7936e-06,-36.971,2.4506
4117,23.816,0.18182,0.1,6.1195e-06,61.153,4.7936e-06,36.971,-6.0023e-08,0.50293,-4.6028e-06,-33.63,2.4506
4118,23.632,0.18182,0.1,9.3331e-06,93.267,8.3425e-06,72.668,-1.3145e-06,0.10856,-5.6588e-06,-32.532,2.4219
4119,23.449,0.18182,0.1,1.2999e-05,129.9,1.2128e-05,110.44,-2.5537e-06,0.12037,-6.9272e-06,-32.741,2.3933
4120,23.265,0.18182,0.1,1.6787e-05,167.75,1.5981e-05,148.85,-3.8186e-06,0.080691,-8.2172e-06,-32.968,2.3647
4121,23.081,0.18182,0.1,2.063e-05,206.15,1.9868e-05,187.65,-5.0982e-06,0.06534,-9.5076e-06,-33.065,2.3361
4122,22.897,0.18182,0.1,2.4505e-05,244.88,2.3776e-05,226.71,-6.391e-06,0.05019,-1.0793e-05,-33.026,2.3075
4123,22.713,0.18182,0.1,2.8402e-05,283.82,2.77e-05,265.97,-7.694e-06,0.039685,-1.2073e-05,-32.865,2.2789
4124,22.53,0.18182,0.1,3.2316e-05,322.93,3.1637e-05,305.41,-9.0056e-06,0.031346,-1.3349e-05,-32.603,2.2504
4125,22.346,0.18182,0.1,3.6243e-05,362.18,3.5587e-05,344.99,-1.0325e-05,0.024909,-1.4621e-05,-32.258,2.2219
4126,22.162,0.18182,0.1,4.0184e-05,401.56,3.9547e-05,384.7,-1.165e-05,0.019816,-1.5891e-05,-31.843,2.1933
4127,21.978,0.18182,0.1,4.4136e-05,441.05,4.3518e-05,424.54,-1.2982e-05,0.015768,-1.7159e-05,-31.373,2.1648
4128,21.794,0.18182,0.1,4.81e-05,480.66,4.75e-05,464.5,-1.4319e-05,0.012527,-1.8427e-05,-30.855,2.1364
4129,21.611,0.18182,0.1,5.2075e-05,520.39,5.1493e-05,504.58,-1.5661e-05,0.0099387,-1.9695e-05,-30.299,2.1079
4130,21.427,0.18182,0.1,5.6062e-05,560.23,5.5497e-05,544.79,-1.7009e-05,0.0078535,-2.0964e-05,-29.711,2.0795
4131,21.243,0.18182,0.1,6.0061e-05,600.2,5.9513e-05,585.12,-1.8361e-05,0.0061764,-2.2234e-05,-29.098,2.0512
4132,21.059,0.18182,0.1,6.4073e-05,640.29,6.3542e-05,625.59,-1.9718e-05,0.0048292,-2.3507e-05,-28.463,2.0229
4133,20.875,0.18182,0.1,6.8098e-05,680.51,6.7582e-05,666.18,-2.108e-05,0.0037413,-2.4782e-05,-27.81,1.9946
4134,20.692,0.18182,0.1,7.2137e-05,720.87,7.1637e-05,706.92,-2.2448e-05,0.002874,-2.6061e-05,-27.143,1.9663
4135,20.508,0.18182,0.1,7.6189e-05,761.37,7.5705e-05,747.79,-2.382e-05,0.0022037,-2.7342e-05,-26.464,1.9381
4136,20.324,0.18182,0.1,8.0257e-05,802.01,7.9787e-05,788.81,-2.5198e-05,0.0016901,-2.8628e-05,-25.774,1.91
4137,20.14,0.18182,0.1,8.4339e-05,842.81,8.3884e-05,829.99,-2.658e-05,0.001302,-2.9918e-05,-25.076,1.8819
4138,19.956,0.18182,0.1,8.8437e-05,883.76,8.7997e-05,871.32,-2.7969e-05,0.0010204,-3.1212e-05,-24.37,1.8538
4139,19.773,0.18182,0.1,9.2551e-05,924.87,9.2126e-05,912.81,-2.9362e-05,0.00081569,-3.2511e-05,-23.657,1.8259
4140,19.589,0.18182,0.1,9.6681e-05,966.15,9.6271e-05,954.47,-3.0762e-05,0.00069259,-3.3815e-05,-22.938,1.7979
4141,19.405,0.18182,0.1,0.00010083,1007.6,0.00010043,996.3,-3.2167e-05,0.00066387,-3.5123e-05,-22.213,1.7701
4142,19.221,0.18182,0.1,0.00010499,1049.2,0.00010461,1038.3,-3.3578e-05,0.0006942,-3.6437e-05,-21.481,1.7423
4143,19.038,0.18182,0.1,0.00010918,1091,0.00010881,1080.5,-3.4995e-05,0.00078199,-3.7756e-05,-20.743,1.7146
4144,18.854,0.18182,0.1,0.00011338,1133,0.00011302,1122.8,-3.6419e-05,0.00091688,-3.9081e-05,-19.998,1.6869
4145,18.67,0.18182,0.1,0.00011759,1175.1,0.00011725,1165.4,-3.7849e-05,0.0010858,-4.041e-05,-19.247,1.6593
4146,18.486,0.18182,0.1,0.00012183,1217.5,0.00012151,1208.1,-3.9285e-05,0.0013095,-4.1746e-05,-18.488,1.6318
4147,18.302,0.18182,0.1,0.00012609,1260,0.00012578,1251,-4.0727e-05,0.0016108,-4.3086e-05,-17.722,1.6044
4148,18.119,0.18182,0.1,0.00013036,1302.7,0.00013006,1294.1,-4.2176e-05,0.0019706,-4.4432e-05,-16.947,1.5771
4149,17.935,0.18182,0.1,0.00013465,1345.6,0.00013437,1337.4,-4.3632e-05,0.0023896,-4.5784e-05,-16.165,1.5498
4150,17.751,0.18182,0.1,0.00013896,1388.7,0.0001387,1380.9,-4.5094e-05,0.002877,-4.7141e-05,-15.375,1.5227
4151,17.567,0.18182,0.1,0.00014329,1431.9,0.00014304,1424.6,-4.6562e-05,0.0034223,-4.8503e-05,-14.577,1.4956
4152,17.383,0.18182,0.1,0.00014764,1475.4,0.0001474,1468.5,-4.8037e-05,0.0040677,-4.9871e-05,-13.773,1.4686
4153,17.2,0.18182,0.1,0.000152,1519,0.00015178,1512.5,-4.9518e-05,0.0048617,-5.1244e-05,-12.963,1.4417
4154,17.016,0.18182,0.1,0.00015639,1562.8,0.00015618,1556.7,-5.1004e-05,0.0057991,-5.2622e-05,-12.149,1.415
4155,16.832,0.18182,0.1,0.00016078,1606.7,0.00016059,1601,-5.2495e-05,0.0069043,-5.4005e-05,-11.335,1.3883
4156,16.648,0.18182,0.1,0.00016519,1650.8,0.00016501,1645.5,-5.3991e-05,0.0082153,-5.5393e-05,-10.524,1.3617
4157,16.464,0.18182,0.1,0.00016961,1695,0.00016945,1690.1,-5.549e-05,0.0097579,-5.6785e-05,-9.7206,1.3353
4158,16.281,0.18182,0.1,0.00017404,1739.2,0.00017389,1734.8,-5.6991e-05,0.011616,-5.8181e-05,-8.9318,1.3089
4159,16.097,0.18182,0.1,0.00017848,1783.6,0.00017834,1779.5,-5.8492e-05,0.01388,-5.9581e-05,-8.1653,1.2827
4160,15.913,0.18182,0.1,0.00018291,1827.9,0.00018279,1824.1,-5.9991e-05,0.01657,-6.0983e-05,-7.4314,1.2566
4161,15.729,0.18182,0.1,0.00018734,1872.1,0.00018722,1868.7,-6.1486e-05,0.019716,-6.2386e-05,-6.7425,1.2306
4162,15.545,0.18182,0.1,0.00019175,1916.2,0.00019165,1913.1,-6.2972e-05,0.023292,-6.3789e-05,-6.1139,1.2048
4163,15.362,0.18182,0.1,0.00019613,1960,0.00019604,1957.2,-6.4446e-05,0.027143,-6.519e-05,-5.5639,1.179
4164,15.178,0.18182,0.1,0.00020047,2003.3,0.00020039,2000.8,-6.59e-05,0.030974,-6.6585e-05,-5.1142,1.1535
4165,14.994,0.18182,0.1,0.00020475,2046.1,0.00020467,2043.7,-6.7328e-05,0.034238,-6.797e-05,-4.7906,1.128
4166,14.81,0.18182,0.1,0.00020895,2088,0.00020887,2085.7,-6.872e-05,0.036065,-6.934e-05,-4.6232,1.1027
4167,14.626,0.18182,0.1,0.00021303,2128.8,0.00021295,2126.5,-7.0065e-05,0.035616,-7.0688e-05,-4.6476,1.0775
4168,14.443,0.18182,0.1,0.00021695,2168,0.00021687,2165.6,-7.1347e-05,0.032475,-7.2004e-05,-4.9054,1.0525
4169,14.259,0.18182,0.1,0.00022067,2205.2,0.00022057,2202.4,-7.2548e-05,0.026945,-7.3276e-05,-5.445,1.0276
4170,14.075,0.18182,0.1,0.00022412,2239.6,0.00022401,2236.5,-7.3644e-05,0.020032,-7.4488e-05,-6.3221,1.0028
4171,13.891,0.18182,0.1,0.00022722,2270.7,0.00022709,2266.9,-7.4606e-05,0.012836,-7.5619e-05,-7.5986,0.97822
4172,13.707,0.18182,0.1,0.00022988,2297.3,0.00022972,2292.6,-7.5398e-05,0.005986,-7.6642e-05,-9.3422,0.95378
4173,13.524,0.18182,0.1,0.00023198,2318.2,0.00023178,2312.3,-7.5976e-05,-0.00043463,-7.7523e-05,-11.624,0.9295
4174,13.34,0.18182,0.1,0.00023335,2331.9,0.0002331,2324.6,-7.6286e-05,-0.0068675,-7.8217e-05,-14.518,0.90537
4175,13.156,0.18182,0.1,0.00023382,2336.6,0.0002335,2327.5,-7.6263e-05,-0.014185,-7.8669e-05,-18.092,0.88139
4176,12.972,0.18182,0.1,0.00023315,2329.9,0.00023276,2318.6,-7.583e-05,-0.023424,-7.8809e-05,-22.404,0.85758
4177,12.788,0.18182,0.1,0.00023108,2309.2,0.0002306,2295.4,-7.4895e-05,-0.03557,-7.8548e-05,-27.483,0.83391
4178,12.605,0.18182,0.1,0.00022729,2271.3,0.0002267,2254.4,-7.3353e-05,-0.050993,-7.778e-05,-33.314,0.81041
4179,12.421,0.18182,0.1,0.00022139,2212.4,0.00022069,2192.2,-7.1084e-05,-0.067635,-7.6372e-05,-39.801,0.78705
4180,12.237,0.18182,0.1,0.00021297,2128.3,0.00021214,2104.5,-6.7961e-05,-0.078105,-7.4169e-05,-46.728,0.76385
4181,12.053,0.18182,0.1,0.00020159,2014.5,0.00020062,1987.1,-6.3852e-05,-0.060694,-7.0991e-05,-53.706,0.74078
4182,11.869,0.18182,0.1,0.00018679,1866.6,0.00018569,1835.8,-5.8634e-05,0.028594,-6.6641e-05,-60.133,0.71785
4183,11.686,0.18182,0.1,0.00016816,1680.4,0.00016696,1647,-5.2206e-05,0.31772,-6.0921e-05,-65.161,0.69503
4184,11.502,0.18182,0.1,0.00014544,1453.4,0.00014418,1418.7,-4.4512e-05,0.9759,-5.367e-05,-67.838,0.67233
4185,11.318,0.18182,0.1,0.00011857,1184.9,0.00011732,1151.2,-3.5502e-05,2.9172,-4.4843e-05,-67.274,0.64971
4186,11.134,0.18182,0.1,8.8215e-05,881.54,8.6961e-05,849.04,-2.524e-05,6.0099,-3.4893e-05,-66.525,0.62717
4187,10.95,0.18182,0.1,5.9121e-05,590.8,5.7155e-05,547.38,-1.3328e-05,17.805,-2.7654e-05,-89.836,0.60467
4188,23.816,0.36364,0.1,8.2469e-06,82.412,5.6587e-06,37.982,6.4049e-07,0.27738,-6.921e-06,-56.537,2.4507
4189,23.632,0.36364,0.1,1.0705e-05,106.97,8.9365e-06,72.791,-7.5248e-07,-0.0082175,-7.4099e-06,-50.029,2.4221
4190,23.449,0.36364,0.1,1.3847e-05,138.38,1.2471e-05,109.43,-2.0801e-06,0.092586,-8.2352e-06,-46.155,2.3935
4191,23.265,0.36364,0.1,1.7311e-05,172.99,1.6152e-05,147.05,-3.4088e-06,0.07981,-9.2205e-06,-43.587,2.3649
4192,23.081,0.36364,0.1,2.0936e-05,209.22,1.9915e-05,185.3,-4.736e-06,0.083902,-1.0288e-05,-41.632,2.3363
4193,22.897,0.36364,0.1,2.4656e-05,246.39,2.373e-05,223.96,-6.0668e-06,0.07899,-1.1402e-05,-40.01,2.3077
4194,22.713,0.36364,0.1,2.8436e-05,284.16,2.7583e-05,262.93,-7.4012e-06,0.074614,-1.2546e-05,-38.579,2.2791
4195,22.53,0.36364,0.1,3.2258e-05,322.35,3.1462e-05,302.13,-8.7395e-06,0.069555,-1.3709e-05,-37.268,2.2506
4196,22.346,0.36364,0.1,3.6112e-05,360.87,3.5364e-05,341.53,-1.0082e-05,0.064667,-1.4886e-05,-36.035,2.222
4197,22.162,0.36364,0.1,3.9991e-05,399.64,3.9285e-05,381.09,-1.1428e-05,0.059974,-1.6075e-05,-34.857,2.1935
4198,21.978,0.36364,0.1,4.3893e-05,438.63,4.3222e-05,420.82,-1.2777e-05,0.055557,-1.7273e-05,-33.72,2.165
4199,21.794,0.36364,0.1,4.7814e-05,477.81,4.7176e-05,460.69,-1.4131e-05,0.051436,-1.8479e-05,-32.615,2.1366
4200,21.611,0.36364,0.1,5.1752e-05,517.16,5.1144e-05,500.69,-1.5488e-05,0.047614,-1.9692e-05,-31.537,2.1082
4201,21.427,0.36364,0.1,5.5707e-05,556.69,5.5127e-05,540.84,-1.6849e-05,0.044059,-2.0912e-05,-30.482,2.0798
4202,21.243,0.36364,0.1,5.9679e-05,596.38,5.9124e-05,581.13,-1.8214e-05,0.040753,-2.2139e-05,-29.446,2.0514
4203,21.059,0.36364,0.1,6.3667e-05,636.23,6.3136e-05,621.56,-1.9583e-05,0.037668,-2.3372e-05,-28.428,2.0231
4204,20.875,0.36364,0.1,6.7671e-05,676.24,6.7163e-05,662.12,-2.0956e-05,0.034776,-2.4611e-05,-27.426,1.9948
4205,20.692,0.36364,0.1,7.169e-05,716.41,7.1205e-05,702.84,-2.2333e-05,0.032067,-2.5856e-05,-26.439,1.9666
4206,20.508,0.36364,0.1,7.5726e-05,756.74,7.5262e-05,743.7,-2.3715e-05,0.029535,-2.7108e-05,-25.463,1.9384
4207,20.324,0.36364,0.1,7.9779e-05,797.24,7.9334e-05,784.72,-2.5102e-05,0.027144,-2.8366e-05,-24.499,1.9103
4208,20.14,0.36364,0.1,8.3848e-05,837.9,8.3423e-05,825.89,-2.6493e-05,0.024876,-2.963e-05,-23.545,1.8822
4209,19.956,0.36364,0.1,8.7934e-05,878.73,8.7528e-05,867.23,-2.789e-05,0.022714,-3.09e-05,-22.598,1.8541
4210,19.773,0.36364,0.1,9.2037e-05,919.74,9.165e-05,908.73,-2.9291e-05,0.02063,-3.2177e-05,-21.657,1.8262
4211,19.589,0.36364,0.1,9.6157e-05,960.91,9.5788e-05,950.39,-3.0698e-05,0.018624,-3.3459e-05,-20.721,1.7983
4212,19.405,0.36364,0.1,0.0001003,1002.3,9.9944e-05,992.23,-3.2111e-05,0.016701,-3.4747e-05,-19.787,1.7704
4213,19.221,0.36364,0.1,0.00010445,1043.8,0.00010412,1034.2,-3.353e-05,0.014834,-3.6041e-05,-18.854,1.7426
4214,19.038,0.36364,0.1,0.00010863,1085.5,0.00010831,1076.4,-3.4954e-05,0.013002,-3.7341e-05,-17.919,1.7149
4215,18.854,0.36364,0.1,0.00011282,1127.4,0.00011252,1118.8,-3.6384e-05,0.011195,-3.8646e-05,-16.981,1.6873
4216,18.67,0.36364,0.1,0.00011703,1169.5,0.00011675,1161.4,-3.7821e-05,0.0093817,-3.9957e-05,-16.038,1.6597
4217,18.486,0.36364,0.1,0.00012126,1211.7,0.00012099,1204.1,-3.9264e-05,0.0075807,-4.1273e-05,-15.087,1.6322
4218,18.302,0.36364,0.1,0.0001255,1254.2,0.00012526,1247,-4.0714e-05,0.0058018,-4.2595e-05,-14.128,1.6048
4219,18.119,0.36364,0.1,0.00012977,1296.8,0.00012954,1290.2,-4.217e-05,0.0040112,-4.3922e-05,-13.16,1.5775
4220,17.935,0.36364,0.1,0.00013405,1339.6,0.00013384,1333.5,-4.3633e-05,0.0022027,-4.5254e-05,-12.179,1.5502
4221,17.751,0.36364,0.1,0.00013836,1382.6,0.00013816,1377,-4.5102e-05,0.00036487,-4.6591e-05,-11.187,1.5231
4222,17.567,0.36364,0.1,0.00014268,1425.8,0.0001425,1420.7,-4.6578e-05,-0.0015307,-4.7933e-05,-10.183,1.496
4223,17.383,0.36364,0.1,0.00014702,1469.1,0.00014686,1464.5,-4.8061e-05,-0.003451,-4.928e-05,-9.1676,1.4691
4224,17.2,0.36364,0.1,0.00015137,1512.7,0.00015123,1508.6,-4.9549e-05,-0.0053706,-5.0632e-05,-8.1416,1.4422
4225,17.016,0.36364,0.1,0.00015574,1556.4,0.00015562,1552.8,-5.1044e-05,-0.0073105,-5.1989e-05,-7.1077,1.4154
4226,16.832,0.36364,0.1,0.00016013,1600.2,0.00016003,1597.2,-5.2543e-05,-0.0092598,-5.335e-05,-6.0696,1.3888
4227,16.648,0.36364,0.1,0.00016453,1644.2,0.00016445,1641.7,-5.4048e-05,-0.011181,-5.4716e-05,-5.0326,1.3622
4228,16.464,0.36364,0.1,0.00016895,1688.3,0.00016888,1686.3,-5.5555e-05,-0.013018,-5.6087e-05,-4.004,1.3358
4229,16.281,0.36364,0.1,0.00017337,1732.5,0.00017332,1731,-5.7066e-05,-0.014552,-5.7462e-05,-2.9935,1.3095
4230,16.097,0.36364,0.1,0.0001778,1776.8,0.00017777,1775.8,-5.8576e-05,-0.01521,-5.8842e-05,-2.0138,1.2833
4231,15.913,0.36364,0.1,0.00018224,1821.1,0.00018222,1820.5,-6.0085e-05,-0.012702,-6.0228e-05,-1.0832,1.2572
4232,15.729,0.36364,0.1,0.00018666,1865.4,0.00018666,1865.2,-6.1585e-05,0.025807,-6.1622e-05,-0.25389,1.2312
4233,15.545,0.36364,0.1,0.00019108,1909.5,0.00019109,1909.8,-6.3005e-05,0.59956,-6.3091e-05,-0.04933,1.2054
4234,15.362,0.36364,0.1,0.00019548,1953.4,0.0001955,1954.1,-6.4401e-05,1.253,-6.4574e-05,-0.043399,1.1796
4235,15.178,0.36364,0.1,0.00019984,1997.1,0.00019987,1997.9,-6.5799e-05,1.76,-6.6039e-05,-0.045341,1.1541
4236,14.994,0.36364,0.1,0.00020416,2040.2,0.00020419,2041.2,-6.7196e-05,2.0738,-6.7479e-05,-0.050436,1.1286
4237,14.81,0.36364,0.1,0.0002084,2082.6,0.00020844,2083.6,-6.859e-05,2.1456,-6.8883e-05,-0.059677,1.1033
4238,14.626,0.36364,0.1,0.00021254,2124,0.00021258,2124.9,-6.9975e-05,1.9225,-7.0241e-05,-0.078196,1.0781
4239,14.443,0.36364,0.1,0.00021655,2164.1,0.00021658,2164.7,-7.1343e-05,1.3599,-7.1541e-05,-0.12769,1.0531
4240,14.259,0.36364,0.1,0.00022039,2202.4,0.00022039,2202.4,-7.2664e-05,0.5468,-7.2786e-05,-0.37239,1.0282
4241,14.075,0.36364,0.1,0.00022398,2238.3,0.00022396,2237.6,-7.3824e-05,0.16,-7.4054e-05,-1.5724,1.0035
4242,13.891,0.36364,0.1,0.00022727,2271.2,0.00022721,2269.4,-7.4809e-05,0.091116,-7.5315e-05,-3.7092,0.97889
4243,13.707,0.36364,0.1,0.00023016,2300.1,0.00023005,2296.8,-7.562e-05,0.07505,-7.651e-05,-6.612,0.95446
4244,13.524,0.36364,0.1,0.00023254,2323.8,0.00023237,2318.7,-7.622e-05,0.075268,-7.7606e-05,-10.338,0.93019
4245,13.34,0.36364,0.1,0.00023426,2341,0.000234,2333.5,-7.6556e-05,0.084189,-7.8559e-05,-14.963,0.90607
4246,13.156,0.36364,0.1,0.00023514,2349.8,0.00023479,2339.5,-7.6568e-05,0.099655,-7.9316e-05,-20.55,0.8821
4247,12.972,0.36364,0.1,0.00023496,2348,0.00023449,2334.4,-7.618e-05,0.12126,-7.9806e-05,-27.123,0.8583
4248,12.788,0.36364,0.1,0.00023346,2333,0.00023285,2315.5,-7.5306e-05,0.14945,-7.9937e-05,-34.641,0.83465
4249,12.605,0.36364,0.1,0.0002303,2301.4,0.00022954,2279.7,-7.3845e-05,0.18542,-7.9588e-05,-42.963,0.81116
4250,12.421,0.36364,0.1,0.00022511,2249.5,0.00022418,2223.3,-7.1685e-05,0.2321,-7.861e-05,-51.8,0.78783
4251,12.237,0.36364,0.1,0.00021744,2172.9,0.00021635,2142.1,-6.8704e-05,0.29572,-7.6818e-05,-60.671,0.76464
4252,12.053,0.36364,0.1,0.00020682,2066.8,0.00020557,2031.7,-6.4779e-05,0.39271,-7.3997e-05,-68.866,0.7416
4253,11.869,0.36364,0.1,0.00019278,1926.5,0.0001914,1887.9,-5.9796e-05,0.55521,-6.9916e-05,-75.482,0.71869
4254,11.686,0.36364,0.1,0.00017493,1748.1,0.00017345,1707.3,-5.3662e-05,0.88951,-6.4378e-05,-79.62,0.6959
4255,11.502,0.36364,0.1,0.00015315,1530.4,0.00015162,1488.9,-4.6338e-05,1.5208,-5.7334e-05,-81.098,0.67323
4256,11.318,0.36364,0.1,0.00012798,1278.9,0.00012642,1237.2,-3.7825e-05,3.1668,-4.919e-05,-82.225,0.65064
4257,11.134,0.36364,0.1,0.00010198,1019.1,0.00010006,969.8,-2.8431e-05,4.3579,-4.1741e-05,-95.647,0.62813
4258,10.95,0.36364,0.1,8.6194e-05,861.34,8.1751e-05,760.83,-1.8329e-05,8.8696,-4.3321e-05,-178.91,0.60567
4259,23.816,0.54545,0.1,1.0154e-05,101.47,6.4039e-06,38.814,1.2417e-06,0.027009,-8.9212e-06,-76.333,2.4508
4260,23.632,0.54545,0.1,1.2327e-05,123.19,9.6841e-06,74.313,-2.3102e-07,-0.18565,-9.2405e-06,-67.879,2.4222
4261,23.449,0.54545,0.1,1.5142e-05,151.32,1.3124e-05,110.82,-1.6299e-06,-0.033722,-9.8195e-06,-61.568,2.3936
4262,23.265,0.54545,0.1,1.8336e-05,183.23,1.6696e-05,148.09,-3.0171e-06,-0.029914,-1.0575e-05,-56.817,2.365
4263,23.081,0.54545,0.1,2.1756e-05,217.41,2.0362e-05,185.97,-4.3903e-06,-0.0088283,-1.145e-05,-53.05,2.3364
4264,22.897,0.54545,0.1,2.5318e-05,253.01,2.4096e-05,224.31,-5.7585e-06,-0.0014724,-1.2405e-05,-49.941,2.3078
4265,22.713,0.54545,0.1,2.8975e-05,289.55,2.788e-05,263.01,-7.1239e-06,0.0041217,-1.3416e-05,-47.272,2.2793
4266,22.53,0.54545,0.1,3.2699e-05,326.76,3.1703e-05,301.99,-8.4886e-06,0.0071722,-1.4467e-05,-44.912,2.2507
4267,22.346,0.54545,0.1,3.6472e-05,364.47,3.5555e-05,341.19,-9.8536e-06,0.0090406,-1.5548e-05,-42.779,2.2222
4268,22.162,0.54545,0.1,4.0284e-05,402.56,3.9434e-05,380.6,-1.122e-05,0.010065,-1.6653e-05,-40.817,2.1937
4269,21.978,0.54545,0.1,4.4127e-05,440.96,4.3334e-05,420.18,-1.2587e-05,0.010559,-1.7777e-05,-38.987,2.1652
4270,21.794,0.54545,0.1,4.7997e-05,479.64,4.7254e-05,459.92,-1.3956e-05,0.010709,-1.8917e-05,-37.265,2.1368
4271,21.611,0.54545,0.1,5.1891e-05,518.55,5.1193e-05,499.82,-1.5328e-05,0.010636,-2.0072e-05,-35.632,2.1084
4272,21.427,0.54545,0.1,5.5807e-05,557.69,5.5149e-05,539.87,-1.6702e-05,0.010417,-2.1238e-05,-34.073,2.08
4273,21.243,0.54545,0.1,5.9743e-05,597.02,5.9123e-05,580.07,-1.8079e-05,0.010096,-2.2416e-05,-32.577,2.0516
4274,21.059,0.54545,0.1,6.3699e-05,636.55,6.3112e-05,620.42,-1.9459e-05,0.0097055,-2.3604e-05,-31.137,2.0233
4275,20.875,0.54545,0.1,6.7674e-05,676.27,6.7119e-05,660.91,-2.0842e-05,0.0092698,-2.4802e-05,-29.744,1.9951
4276,20.692,0.54545,0.1,7.1667e-05,716.17,7.1142e-05,701.56,-2.2229e-05,0.008809,-2.6009e-05,-28.392,1.9668
4277,20.508,0.54545,0.1,7.5678e-05,756.26,7.5181e-05,742.36,-2.362e-05,0.0083444,-2.7225e-05,-27.077,1.9387
4278,20.324,0.54545,0.1,7.9708e-05,796.53,7.9238e-05,783.32,-2.5015e-05,0.0078769,-2.8449e-05,-25.793,1.9105
4279,20.14,0.54545,0.1,8.3755e-05,836.97,8.3311e-05,824.44,-2.6414e-05,0.0074047,-2.9681e-05,-24.536,1.8824
4280,19.956,0.54545,0.1,8.7821e-05,877.6,8.7401e-05,865.72,-2.7818e-05,0.0069316,-3.0921e-05,-23.301,1.8544
4281,19.773,0.54545,0.1,9.1904e-05,918.41,9.1509e-05,907.17,-2.9227e-05,0.0064442,-3.2168e-05,-22.085,1.8265
4282,19.589,0.54545,0.1,9.6006e-05,959.4,9.5634e-05,948.79,-3.0642e-05,0.005961,-3.3422e-05,-20.883,1.7986
4283,19.405,0.54545,0.1,0.00010013,1000.6,9.9777e-05,990.59,-3.2061e-05,0.0054921,-3.4683e-05,-19.692,1.7707
4284,19.221,0.54545,0.1,0.00010426,1041.9,0.00010394,1032.6,-3.3486e-05,0.005028,-3.595e-05,-18.507,1.743
4285,19.038,0.54545,0.1,0.00010842,1083.5,0.00010812,1074.7,-3.4917e-05,0.0045571,-3.7224e-05,-17.324,1.7152
4286,18.854,0.54545,0.1,0.0001126,1125.2,0.00011231,1117,-3.6354e-05,0.0040788,-3.8503e-05,-16.142,1.6876
4287,18.67,0.54545,0.1,0.00011679,1167.1,0.00011653,1159.6,-3.7797e-05,0.003579,-3.9788e-05,-14.954,1.6601
4288,18.486,0.54545,0.1,0.000121,1209.2,0.00012076,1202.3,-3.9247e-05,0.0030694,-4.1079e-05,-13.76,1.6326
4289,18.302,0.54545,0.1,0.00012523,1251.5,0.00012501,1245.1,-4.0703e-05,0.002573,-4.2375e-05,-12.555,1.6052
4290,18.119,0.54545,0.1,0.00012948,1293.9,0.00012929,1288.2,-4.2166e-05,0.0020624,-4.3675e-05,-11.336,1.5779
4291,17.935,0.54545,0.1,0.00013375,1336.6,0.00013357,1331.5,-4.3636e-05,0.0015322,-4.4981e-05,-10.102,1.5506
4292,17.751,0.54545,0.1,0.00013803,1379.4,0.00013788,1374.9,-4.5112e-05,0.00097709,-4.629e-05,-8.8506,1.5235
4293,17.567,0.54545,0.1,0.00014234,1422.4,0.00014221,1418.6,-4.6595e-05,0.00038239,-4.7604e-05,-7.5806,1.4965
4294,17.383,0.54545,0.1,0.00014666,1465.6,0.00014655,1462.4,-4.8085e-05,-0.0002252,-4.8923e-05,-6.2918,1.4695
4295,17.2,0.54545,0.1,0.000151,1508.9,0.00015091,1506.4,-4.9582e-05,-0.00080315,-5.0245e-05,-4.985,1.4427
4296,17.016,0.54545,0.1,0.00015535,1552.4,0.00015529,1550.6,-5.1084e-05,-0.0013365,-5.1572e-05,-3.6625,1.4159
4297,16.832,0.54545,0.1,0.00015972,1596.1,0.00015968,1594.9,-5.2593e-05,-0.0016546,-5.2902e-05,-2.3283,1.3893
4298,16.648,0.54545,0.1,0.00016411,1639.9,0.00016409,1639.4,-5.4106e-05,-0.00059906,-5.4237e-05,-0.98922,1.3627
4299,16.464,0.54545,0.1,0.0001685,1683.9,0.00016851,1684,-5.5575e-05,0.36258,-5.5625e-05,-0.01448,1.3363
4300,16.281,0.54545,0.1,0.00017291,1727.9,0.00017294,1728.8,-5.692e-05,1.681,-5.7145e-05,-0.0083978,1.31
4301,16.097,0.54545,0.1,0.00017733,1772.1,0.00017738,1773.5,-5.8269e-05,2.978,-5.8667e-05,-0.0088427,1.2838
4302,15.913,0.54545,0.1,0.00018175,1816.3,0.00018182,1818.4,-5.9624e-05,4.2285,-6.0188e-05,-0.010033,1.2577
4303,15.729,0.54545,0.1,0.00018617,1860.4,0.00018626,1863.1,-6.0984e-05,5.4084,-6.1706e-05,-0.01165,1.2317
4304,15.545,0.54545,0.1,0.00019059,1904.6,0.0001907,1907.8,-6.2352e-05,6.4878,-6.3217e-05,-0.013686,1.2059
4305,15.362,0.54545,0.1,0.00019499,1948.6,0.00019512,1952.3,-6.3726e-05,7.4304,-6.4717e-05,-0.016264,1.1802
4306,15.178,0.54545,0.1,0.00019937,1992.3,0.00019951,1996.4,-6.5107e-05,8.1924,-6.6199e-05,-0.019527,1.1546
4307,14.994,0.54545,0.1,0.00020371,2035.7,0.00020386,2040,-6.6494e-05,8.7219,-6.7658e-05,-0.02376,1.1292
4308,14.81,0.54545,0.1,0.000208,2078.5,0.00020815,2083,-6.7888e-05,8.9573,-6.9084e-05,-0.029576,1.1039
4309,14.626,0.54545,0.1,0.0002122,2120.5,0.00021235,2124.9,-6.9286e-05,8.828,-7.0466e-05,-0.03807,1.0787
4310,14.443,0.54545,0.1,0.0002163,2161.5,0.00021643,2165.6,-7.0685e-05,8.2538,-7.179e-05,-0.051536,1.0537
4311,14.259,0.54545,0.1,0.00022024,2200.9,0.00022036,2204.4,-7.2079e-05,7.1477,-7.304e-05,-0.075608,1.0288
4312,14.075,0.54545,0.1,0.00022399,2238.4,0.00022408,2241,-7.3457e-05,5.4249,-7.4196e-05,-0.12774,1.0041
4313,13.891,0.54545,0.1,0.00022748,2273.2,0.00022752,2274.6,-7.4796e-05,3.0625,-7.5243e-05,-0.29478,0.97951
4314,13.707,0.54545,0.1,0.00023062,2304.6,0.00023061,2304.3,-7.5962e-05,0.82592,-7.6266e-05,-1.4563,0.95509
4315,13.524,0.54545,0.1,0.00023331,2331.5,0.00023322,2329,-7.6702e-05,0.3095,-7.7451e-05,-5.3194,0.93082
4316,13.34,0.54545,0.1,0.00023542,2352.6,0.00023524,2347.3,-7.714e-05,0.21701,-7.8592e-05,-10.69,0.90672
4317,13.156,0.54545,0.1,0.00023679,2366.2,0.00023649,2357.6,-7.7265e-05,0.19441,-7.9593e-05,-17.295,0.88277
4318,12.972,0.54545,0.1,0.00023721,2370.4,0.00023677,2357.9,-7.7013e-05,0.19889,-8.0384e-05,-25.13,0.85897
4319,12.788,0.54545,0.1,0.00023642,2362.6,0.00023583,2345.5,-7.6303e-05,0.22207,-8.0879e-05,-34.164,0.83534
4320,12.605,0.54545,0.1,0.00023413,2339.7,0.00023335,2317.4,-7.5038e-05,0.26417,-8.0967e-05,-44.283,0.81187
4321,12.421,0.54545,0.1,0.00022997,2298.1,0.00022899,2270.2,-7.311e-05,0.33024,-8.0508e-05,-55.255,0.78855
4322,12.237,0.54545,0.1,0.00022352,2233.7,0.00022232,2199.8,-7.0396e-05,0.43004,-7.9333e-05,-66.716,0.76539
4323,12.053,0.54545,0.1,0.00021432,2141.8,0.00021289,2101.9,-6.6769e-05,0.58297,-7.7254e-05,-78.195,0.74237
4324,11.869,0.54545,0.1,0.00020195,2018.1,0.00020029,1972.3,-6.2102e-05,0.81631,-7.4093e-05,-89.275,0.71949
4325,11.686,0.54545,0.1,0.0001861,1859.8,0.00018422,1808.3,-5.6289e-05,1.2071,-6.9766e-05,-100.05,0.69674
4326,11.502,0.54545,0.1,0.00016694,1668.3,0.00016477,1610,-4.9281e-05,1.7499,-6.4472e-05,-112.39,0.6741
4327,11.318,0.54545,0.1,0.00014566,1455.5,0.00014297,1385.9,-4.1104e-05,2.7945,-5.9135e-05,-132.68,0.65156
4328,11.134,0.54545,0.1,0.00012601,1259.2,0.00012197,1160,-3.2085e-05,2.5284,-5.6482e-05,-180.79,0.62909
4329,10.95,0.54545,0.1,0.00012048,1203.9,0.00011166,1011.5,-2.2068e-05,6.7312,-6.5937e-05,-322.88,0.60667
4330,23.816,0.72727,0.1,1.1781e-05,117.72,7.0075e-06,39.313,1.7716e-06,-0.027165,-1.0608e-05,-93.044,2.451
4331,23.632,0.72727,0.1,1.3807e-05,137.97,1.033e-05,75.524,2.4875e-07,-0.22253,-1.0866e-05,-83.731,2.4224
4332,23.449,0.72727,0.1,1.6421e-05,164.1,1.3749e-05,112.29,-1.2037e-06,-0.063884,-1.1314e-05,-76.031,2.3938
4333,23.265,0.72727,0.1,1.9416e-05,194.03,1.7265e-05,149.5,-2.6389e-06,-0.054632,-1.1915e-05,-69.75,2.3652
4334,23.081,0.72727,0.1,2.2661e-05,226.46,2.0863e-05,187.18,-4.0535e-06,-0.029968,-1.2637e-05,-64.525,2.3366
4335,22.897,0.72727,0.1,2.6078e-05,260.6,2.453e-05,225.29,-5.4568e-06,-0.01979,-1.3454e-05,-60.105,2.308
4336,22.713,0.72727,0.1,2.9614e-05,295.93,2.8252e-05,263.75,-6.8522e-06,-0.011737,-1.4341e-05,-56.283,2.2794
4337,22.53,0.72727,0.1,3.3236e-05,332.13,3.2018e-05,302.5,-8.2427e-06,-0.0066566,-1.5284e-05,-52.913,2.2509
4338,22.346,0.72727,0.1,3.6924e-05,368.99,3.5821e-05,341.5,-9.6301e-06,-0.0030768,-1.627e-05,-49.891,2.2224
4339,22.162,0.72727,0.1,4.0663e-05,406.35,3.9655e-05,380.72,-1.1016e-05,-0.00061481,-1.729e-05,-47.141,2.1939
4340,21.978,0.72727,0.1,4.4443e-05,444.13,4.3516e-05,420.14,-1.2401e-05,0.0010989,-1.8338e-05,-44.611,2.1654
4341,21.794,0.72727,0.1,4.8259e-05,482.25,4.7401e-05,459.73,-1.3786e-05,0.002283,-1.9411e-05,-42.26,2.137
4342,21.611,0.72727,0.1,5.2104e-05,520.68,5.1307e-05,499.5,-1.5172e-05,0.0031017,-2.0503e-05,-40.058,2.1086
4343,21.427,0.72727,0.1,5.5977e-05,559.38,5.5234e-05,539.43,-1.6559e-05,0.0036466,-2.1614e-05,-37.982,2.0802
4344,21.243,0.72727,0.1,5.9874e-05,598.33,5.918e-05,579.51,-1.7947e-05,0.0039929,-2.2741e-05,-36.015,2.0518
4345,21.059,0.72727,0.1,6.3795e-05,637.51,6.3146e-05,619.76,-1.9338e-05,0.0041864,-2.3883e-05,-34.14,2.0235
4346,20.875,0.72727,0.1,6.7738e-05,676.91,6.713e-05,660.16,-2.0732e-05,0.004261,-2.5037e-05,-32.346,1.9953
4347,20.692,0.72727,0.1,7.1702e-05,716.52,7.1132e-05,700.72,-2.2128e-05,0.0042559,-2.6204e-05,-30.623,1.9671
4348,20.508,0.72727,0.1,7.5686e-05,756.34,7.5152e-05,741.44,-2.3528e-05,0.0042007,-2.7383e-05,-28.959,1.9389
4349,20.324,0.72727,0.1,7.969e-05,796.35,7.919e-05,782.33,-2.4931e-05,0.0040959,-2.8572e-05,-27.349,1.9108
4350,20.14,0.72727,0.1,8.3714e-05,836.56,8.3246e-05,823.38,-2.6338e-05,0.0039561,-2.977e-05,-25.783,1.8827
4351,19.956,0.72727,0.1,8.7758e-05,876.97,8.732e-05,864.59,-2.775e-05,0.0037861,-3.0979e-05,-24.255,1.8547
4352,19.773,0.72727,0.1,9.182e-05,917.57,9.1412e-05,905.98,-2.9166e-05,0.0035771,-3.2196e-05,-22.759,1.8267
4353,19.589,0.72727,0.1,9.5902e-05,958.36,9.5523e-05,947.54,-3.0587e-05,0.0033551,-3.3421e-05,-21.287,1.7988
4354,19.405,0.72727,0.1,0.0001,999.34,9.9651e-05,989.28,-3.2013e-05,0.0031398,-3.4654e-05,-19.834,1.771
4355,19.221,0.72727,0.1,0.00010412,1040.5,0.0001038,1031.2,-3.3445e-05,0.0029125,-3.5894e-05,-18.394,1.7433
4356,19.038,0.72727,0.1,0.00010826,1081.9,0.00010796,1073.3,-3.4883e-05,0.0026781,-3.7141e-05,-16.962,1.7156
4357,18.854,0.72727,0.1,0.00011242,1123.4,0.00011215,1115.6,-3.6326e-05,0.0024344,-3.8394e-05,-15.532,1.6879
4358,18.67,0.72727,0.1,0.0001166,1165.1,0.00011635,1158,-3.7776e-05,0.0021717,-3.9652e-05,-14.098,1.6604
4359,18.486,0.72727,0.1,0.00012079,1207.1,0.00012057,1200.7,-3.9232e-05,0.0019155,-4.0917e-05,-12.657,1.6329
4360,18.302,0.72727,0.1,0.000125,1249.2,0.00012481,1243.5,-4.0695e-05,0.0016998,-4.2186e-05,-11.202,1.6055
4361,18.119,0.72727,0.1,0.00012923,1291.4,0.00012907,1286.6,-4.2164e-05,0.0015153,-4.3459e-05,-9.731,1.5782
4362,17.935,0.72727,0.1,0.00013348,1333.9,0.00013334,1329.8,-4.3641e-05,0.0013855,-4.4737e-05,-8.2387,1.551
4363,17.751,0.72727,0.1,0.00013775,1376.6,0.00013763,1373.2,-4.5124e-05,0.0013719,-4.6019e-05,-6.7224,1.5239
4364,17.567,0.72727,0.1,0.00014203,1419.4,0.00014195,1416.8,-4.6615e-05,0.0015902,-4.7304e-05,-5.1799,1.4969
4365,17.383,0.72727,0.1,0.00014634,1462.4,0.00014628,1460.6,-4.8112e-05,0.0024579,-4.8593e-05,-3.61,1.4699
4366,17.2,0.72727,0.1,0.00015066,1505.5,0.00015062,1504.5,-4.9616e-05,0.0056771,-4.9885e-05,-2.0139,1.4431
4367,17.016,0.72727,0.1,0.00015499,1548.8,0.00015498,1548.6,-5.1123e-05,0.038235,-5.1184e-05,-0.41988,1.4163
4368,16.832,0.72727,0.1,0.00015934,1592.3,0.00015936,1593,-5.2474e-05,1.2872,-5.2648e-05,-0.017959,1.3897
4369,16.648,0.72727,0.1,0.00016371,1635.9,0.00016376,1637.4,-5.3776e-05,2.9504,-5.4171e-05,-0.011212,1.3632
4370,16.464,0.72727,0.1,0.00016809,1679.7,0.00016817,1682,-5.5081e-05,4.6304,-5.5699e-05,-0.01007,1.3367
4371,16.281,0.72727,0.1,0.00017248,1723.6,0.00017259,1726.7,-5.639e-05,6.3118,-5.7231e-05,-0.010191,1.3104
4372,16.097,0.72727,0.1,0.00017688,1767.6,0.00017702,1771.6,-5.7703e-05,7.9789,-5.8766e-05,-0.010865,1.2842
4373,15.913,0.72727,0.1,0.00018129,1811.7,0.00018145,1816.4,-5.9022e-05,9.6116,-6.0302e-05,-0.011952,1.2582
4374,15.729,0.72727,0.1,0.0001857,1855.8,0.00018589,1861.3,-6.0346e-05,11.185,-6.1837e-05,-0.013422,1.2322
4375,15.545,0.72727,0.1,0.00019012,1899.9,0.00019033,1906.1,-6.1678e-05,12.667,-6.3366e-05,-0.015317,1.2064
4376,15.362,0.72727,0.1,0.00019452,1943.9,0.00019476,1950.8,-6.3019e-05,14.019,-6.4887e-05,-0.017758,1.1807
4377,15.178,0.72727,0.1,0.00019891,1987.8,0.00019917,1995.3,-6.4369e-05,15.194,-6.6394e-05,-0.020869,1.1551
4378,14.994,0.72727,0.1,0.00020328,2031.4,0.00020355,2039.4,-6.573e-05,16.136,-6.7881e-05,-0.024879,1.1297
4379,14.81,0.72727,0.1,0.0002076,2074.6,0.00020788,2082.9,-6.7103e-05,16.778,-6.934e-05,-0.030262,1.1044
4380,14.626,0.72727,0.1,0.00021186,2117.2,0.00021215,2125.6,-6.8487e-05,17.043,-7.0761e-05,-0.037763,1.0792
4381,14.443,0.72727,0.1,0.00021604,2158.9,0.00021632,2167.3,-6.9883e-05,16.843,-7.2131e-05,-0.048696,1.0542
4382,14.259,0.72727,0.1,0.00022011,2199.5,0.00022037,2207.5,-7.1286e-05,16.079,-7.3435e-05,-0.065603,1.0294
4383,14.075,0.72727,0.1,0.00022401,2238.5,0.00022425,2245.8,-7.2693e-05,14.646,-7.4655e-05,-0.093736,1.0046
4384,13.891,0.72727,0.1,0.0002277,2275.4,0.0002279,2281.5,-7.4093e-05,12.436,-7.5768e-05,-0.14587,0.98008
4385,13.707,0.72727,0.1,0.0002311,2309.4,0.00023126,2314,-7.5469e-05,9.3603,-7.6749e-05,-0.26087,0.95567
4386,13.524,0.72727,0.1,0.00023414,2339.8,0.00023422,2342.2,-7.6778e-05,5.4659,-7.7587e-05,-0.61369,0.93141
4387,13.34,0.72727,0.1,0.00023669,2365.2,0.00023668,2364.9,-7.7825e-05,1.8993,-7.8407e-05,-2.4767,0.90731
4388,13.156,0.72727,0.1,0.0002386,2384.4,0.00023848,2380.7,-7.8267e-05,0.82733,-7.9459e-05,-8.1316,0.88338
4389,12.972,0.72727,0.1,0.00023971,2395.5,0.00023945,2387.7,-7.8259e-05,0.61057,-8.0475e-05,-16.036,0.8596
4390,12.788,0.72727,0.1,0.0002398,2396.3,0.00023936,2383.7,-7.7815e-05,0.56541,-8.1295e-05,-25.579,0.83598
4391,12.605,0.72727,0.1,0.00023858,2384.2,0.00023795,2365.9,-7.6858e-05,0.5889,-8.1822e-05,-36.707,0.81252
4392,12.421,0.72727,0.1,0.00023576,2355.9,0.00023489,2331.2,-7.5283e-05,0.6597,-8.195e-05,-49.438,0.78922
4393,12.237,0.72727,0.1,0.00023095,2307.9,0.00022981,2275.7,-7.2965e-05,0.77613,-8.1566e-05,-63.853,0.76608
4394,12.053,0.72727,0.1,0.00022379,2236.4,0.00022233,2195.6,-6.9762e-05,0.94678,-8.0564e-05,-80.211,0.74309
4395,11.869,0.72727,0.1,0.00021393,2137.8,0.00021208,2087,-6.5523e-05,1.1778,-7.8889e-05,-99.248,0.72025
4396,11.686,0.72727,0.1,0.00020121,2010.8,0.00019886,1947.2,-6.0096e-05,1.4996,-7.6643e-05,-122.83,0.69753
4397,11.502,0.72727,0.1,0.00018603,1859,0.00018292,1777.2,-5.3375e-05,1.8157,-7.43e-05,-155.41,0.67494
4398,11.318,0.72727,0.1,0.00016988,1697.6,0.00016544,1585.9,-4.5311e-05,2.4452,-7.3109e-05,-206.42,0.65246
4399,11.134,0.72727,0.1,0.00015665,1565.5,0.00014947,1396.2,-3.615e-05,1.4599,-7.5878e-05,-297.04,0.63005
4400,10.95,0.72727,0.1,0.00015919,1590.8,0.00014485,1286.2,-2.5533e-05,5.9777,-9.2187e-05,-494.83,0.60769
4401,23.816,0.90909,0.1,1.3177e-05,131.68,7.5081e-06,39.568,2.2315e-06,-0.078831,-1.2049e-05,-107.38,2.4511
4402,23.632,0.90909,0.1,1.5115e-05,151.05,1.0875e-05,76.374,6.7612e-07,-0.25685,-1.2283e-05,-97.626,2.4225
4403,23.449,0.90909,0.1,1.76e-05,175.88,1.4302e-05,113.49,-8.1445e-07,-0.090134,-1.2661e-05,-89.098,2.3939
4404,23.265,0.90909,0.1,2.0453e-05,204.39,1.7796e-05,150.82,-2.2875e-06,-0.077996,-1.3162e-05,-81.783,2.3653
4405,23.081,0.90909,0.1,2.3562e-05,235.46,2.1353e-05,188.47,-3.7368e-06,-0.050825,-1.3773e-05,-75.461,2.3367
4406,22.897,0.90909,0.1,2.6855e-05,268.37,2.4972e-05,226.44,-5.171e-06,-0.038605,-1.4478e-05,-69.97,2.3081
4407,22.713,0.90909,0.1,3.0283e-05,302.62,2.8643e-05,264.73,-6.5936e-06,-0.028765,-1.526e-05,-65.148,2.2796
4408,22.53,0.90909,0.1,3.3811e-05,337.87,3.2361e-05,303.3,-8.0081e-06,-0.022111,-1.6105e-05,-60.862,2.251
4409,22.346,0.90909,0.1,3.7416e-05,373.9,3.6118e-05,342.12,-9.4167e-06,-0.017134,-1.7002e-05,-57.009,2.2225
4410,22.162,0.90909,0.1,4.1083e-05,410.54,3.991e-05,381.16,-1.0821e-05,-0.013434,-1.7941e-05,-53.509,2.194
4411,21.978,0.90909,0.1,4.48e-05,447.69,4.3731e-05,420.41,-1.2223e-05,-0.010623,-1.8916e-05,-50.299,2.1656
4412,21.794,0.90909,0.1,4.8559e-05,485.25,4.758e-05,459.85,-1.3623e-05,-0.0084607,-1.9922e-05,-47.331,2.1371
4413,21.611,0.90909,0.1,5.2355e-05,523.19,5.1454e-05,499.47,-1.5023e-05,-0.0067664,-2.0954e-05,-44.569,2.1087
4414,21.427,0.90909,0.1,5.6183e-05,561.44,5.5351e-05,539.27,-1.6422e-05,-0.0054367,-2.2009e-05,-41.981,2.0804
4415,21.243,0.90909,0.1,6.004e-05,599.99,5.9269e-05,579.23,-1.7823e-05,-0.0043834,-2.3085e-05,-39.543,2.052
4416,21.059,0.90909,0.1,6.3924e-05,638.8,6.3209e-05,619.37,-1.9224e-05,-0.0035461,-2.4179e-05,-37.236,2.0237
4417,20.875,0.90909,0.1,6.7834e-05,677.87,6.7169e-05,659.67,-2.0627e-05,-0.0028856,-2.529e-05,-35.042,1.9955
4418,20.692,0.90909,0.1,7.1767e-05,717.17,7.1149e-05,700.13,-2.2033e-05,-0.0023561,-2.6417e-05,-32.945,1.9673
4419,20.508,0.90909,0.1,7.5723e-05,756.71,7.5149e-05,740.76,-2.3441e-05,-0.0019147,-2.7558e-05,-30.935,1.9391
4420,20.324,0.90909,0.1,7.9701e-05,796.46,7.9168e-05,781.56,-2.4852e-05,-0.0015528,-2.8711e-05,-28.998,1.911
4421,20.14,0.90909,0.1,8.3701e-05,836.43,8.3206e-05,822.54,-2.6267e-05,-0.001263,-2.9877e-05,-27.124,1.8829
4422,19.956,0.90909,0.1,8.7721e-05,876.61,8.7263e-05,863.68,-2.7686e-05,-0.001028,-3.1053e-05,-25.304,1.8549
4423,19.773,0.90909,0.1,9.1762e-05,916.99,9.1339e-05,905,-2.9109e-05,-0.00084763,-3.224e-05,-23.529,1.827
4424,19.589,0.90909,0.1,9.5824e-05,957.58,9.5434e-05,946.49,-3.0536e-05,-0.00069972,-3.3436e-05,-21.789,1.7991
4425,19.405,0.90909,0.1,9.9905e-05,998.36,9.9548e-05,988.17,-3.1969e-05,-0.00055362,-3.4641e-05,-20.077,1.7713
4426,19.221,0.90909,0.1,0.00010401,1039.3,0.00010368,1030,-3.3407e-05,-0.00042587,-3.5854e-05,-18.385,1.7435
4427,19.038,0.90909,0.1,0.00010813,1080.5,0.00010783,1072.1,-3.4851e-05,-0.00030564,-3.7074e-05,-16.705,1.7159
4428,18.854,0.90909,0.1,0.00011227,1121.9,0.000112,1114.3,-3.6301e-05,-0.00018617,-3.8301e-05,-15.029,1.6882
4429,18.67,0.90909,0.1,0.00011642,1163.4,0.00011619,1156.7,-3.7756e-05,-6.8599e-05,-3.9533e-05,-13.352,1.6607
4430,18.486,0.90909,0.1,0.0001206,1205.2,0.0001204,1199.3,-3.9219e-05,9.0102e-05,-4.0771e-05,-11.665,1.6332
4431,18.302,0.90909,0.1,0.00012479,1247.1,0.00012462,1242.1,-4.0688e-05,0.00035183,-4.2014e-05,-9.9636,1.6059
4432,18.119,0.90909,0.1,0.00012901,1289.2,0.00012887,1285.1,-4.2164e-05,0.0007618,-4.3261e-05,-8.2404,1.5786
4433,17.935,0.90909,0.1,0.00013324,1331.5,0.00013313,1328.2,-4.3647e-05,0.0014612,-4.4511e-05,-6.4905,1.5514
4434,17.751,0.90909,0.1,0.00013749,1373.9,0.00013741,1371.6,-4.5137e-05,0.0028376,-4.5764e-05,-4.7093,1.5242
4435,17.567,0.90909,0.1,0.00014175,1416.6,0.0001417,1415.1,-4.6635e-05,0.0062536,-4.7021e-05,-2.894,1.4972
4436,17.383,0.90909,0.1,0.00014604,1459.4,0.00014602,1458.8,-4.8138e-05,0.022923,-4.8281e-05,-1.0525,1.4703
4437,17.2,0.90909,0.1,0.00015034,1502.3,0.00015035,1502.8,-4.9534e-05,0.90534,-4.9659e-05,-0.035058,1.4434
4438,17.016,0.90909,0.1,0.00015465,1545.5,0.0001547,1546.9,-5.0798e-05,2.8269,-5.1176e-05,-0.014592,1.4167
4439,16.832,0.90909,0.1,0.00015898,1588.7,0.00015906,1591.1,-5.2062e-05,4.8066,-5.2703e-05,-0.011066,1.3901
4440,16.648,0.90909,0.1,0.00016333,1632.2,0.00016344,1635.6,-5.3328e-05,6.8263,-5.4237e-05,-0.009995,1.3636
4441,16.464,0.90909,0.1,0.00016769,1675.7,0.00016784,1680.2,-5.4595e-05,8.8785,-5.5778e-05,-0.0098426,1.3371
4442,16.281,0.90909,0.1,0.00017206,1719.4,0.00017225,1724.9,-5.5864e-05,10.953,-5.7324e-05,-0.010181,1.3108
4443,16.097,0.90909,0.1,0.00017645,1763.3,0.00017667,1769.7,-5.7137e-05,13.038,-5.8874e-05,-0.010854,1.2847
4444,15.913,0.90909,0.1,0.00018084,1807.2,0.0001811,1814.7,-5.8414e-05,15.113,-6.0427e-05,-0.011867,1.2586
4445,15.729,0.90909,0.1,0.00018525,1851.2,0.00018553,1859.7,-5.9695e-05,17.157,-6.198e-05,-0.013253,1.2327
4446,15.545,0.90909,0.1,0.00018965,1895.2,0.00018997,1904.7,-6.0983e-05,19.138,-6.3532e-05,-0.015074,1.2068
4447,15.362,0.90909,0.1,0.00019406,1939.2,0.00019441,1949.7,-6.2279e-05,21.019,-6.5079e-05,-0.017466,1.1812
4448,15.178,0.90909,0.1,0.00019846,1983.2,0.00019884,1994.5,-6.3585e-05,22.756,-6.6617e-05,-0.02056,1.1556
4449,14.994,0.90909,0.1,0.00020284,2027,0.00020324,2039.1,-6.4904e-05,24.292,-6.814e-05,-0.024566,1.1302
4450,14.81,0.90909,0.1,0.0002072,2070.6,0.00020762,2083.2,-6.6235e-05,25.562,-6.9641e-05,-0.029907,1.1049
4451,14.626,0.90909,0.1,0.00021152,2113.8,0.00021196,2126.9,-6.7583e-05,26.49,-7.1113e-05,-0.037183,1.0797
4452,14.443,0.90909,0.1,0.00021578,2156.3,0.00021623,2169.7,-6.8947e-05,26.988,-7.2545e-05,-0.047352,1.0547
4453,14.259,0.90909,0.1,0.00021996,2198.1,0.0002204,2211.4,-7.0327e-05,26.956,-7.3923e-05,-0.062051,1.0299
4454,14.075,0.90909,0.1,0.00022402,2238.7,0.00022445,2251.6,-7.1722e-05,26.285,-7.5232e-05,-0.084066,1.0052
4455,13.891,0.90909,0.1,0.00022792,2277.6,0.00022833,2289.9,-7.3128e-05,24.857,-7.6452e-05,-0.11867,0.9806
4456,13.707,0.90909,0.1,0.00023161,2314.5,0.00023198,2325.6,-7.4535e-05,22.547,-7.7559e-05,-0.17683,0.9562
4457,13.524,0.90909,0.1,0.00023501,2348.4,0.00023532,2357.9,-7.5928e-05,19.24,-7.8527e-05,-0.28382,0.93195
4458,13.34,0.90909,0.1,0.00023803,2378.6,0.00023827,2385.8,-7.7281e-05,14.854,-7.9326e-05,-0.51039,0.90786
4459,13.156,0.90909,0.1,0.00024056,2403.9,0.0002407,2408.1,-7.8534e-05,9.4943,-7.9947e-05,-1.1237,0.88393
4460,12.972,0.90909,0.1,0.00024245,2422.8,0.00024246,2423.2,-7.9471e-05,4.3494,-8.0516e-05,-3.4959,0.86017
4461,12.788,0.90909,0.1,0.00024353,2433.6,0.00024339,2429.4,-7.967e-05,2.0855,-8.1347e-05,-10.516,0.83656
4462,12.605,0.90909,0.1,0.00024359,2434.3,0.00024325,2424.3,-7.9203e-05,1.5024,-8.2237e-05,-21.293,0.81312
4463,12.421,0.90909,0.1,0.00024239,2422.2,0.0002418,2405.2,-7.8133e-05,1.3459,-8.2977e-05,-35.046,0.78984
4464,12.237,0.90909,0.1,0.00023965,2394.9,0.00023874,2368.9,-7.6367e-05,1.3445,-8.3506e-05,-52.298,0.76673
4465,12.053,0.90909,0.1,0.00023511,2349.5,0.00023378,2312.1,-7.3754e-05,1.4293,-8.384e-05,-74.36,0.74377
4466,11.869,0.90909,0.1,0.00022857,2284.1,0.00022665,2231.3,-7.0103e-05,1.5678,-8.4106e-05,-103.65,0.72096
4467,11.686,0.90909,0.1,0.00022004,2198.8,0.00021724,2123.9,-6.519e-05,1.7745,-8.4645e-05,-144.4,0.69829
4468,11.502,0.90909,0.1,0.00021001,2098.7,0.00020582,1990.1,-5.8792e-05,1.9152,-8.6188e-05,-203.92,0.67576
4469,11.318,0.90909,0.1,0.00019995,1998.2,0.00019335,1836,-5.0697e-05,2.3682,-9.0093e-05,-293.63,0.65334
4470,11.134,0.90909,0.1,0.0001933,1931.6,0.00018224,1678.4,-4.1005e-05,1.0819,-9.8837e-05,-433.44,0.631
4471,10.95,0.90909,0.1,0.00020355,2034.1,0.00018258,1597.4,-2.9223e-05,5.9882,-0.00012243,-694.31,0.60873
4472,23.816,1.0909,0.1,1.4385e-05,143.75,7.9308e-06,39.694,2.6331e-06,-0.11106,-1.3292e-05,-119.77,2.4512
4473,23.632,1.0909,0.1,1.6263e-05,162.52,1.1336e-05,76.971,1.0552e-06,-0.27672,-1.3517e-05,-109.76,2.4226
4474,23.449,1.0909,0.1,1.8658e-05,186.45,1.478e-05,114.43,-4.6336e-07,-0.10516,-1.3854e-05,-100.71,2.394
4475,23.265,1.0909,0.1,2.1409e-05,213.94,1.827e-05,151.95,-1.9659e-06,-0.091596,-1.4291e-05,-92.696,2.3654
4476,23.081,1.0909,0.1,2.4415e-05,243.98,2.1806e-05,189.66,-3.4436e-06,-0.063143,-1.4824e-05,-85.568,2.3368
4477,22.897,1.0909,0.1,2.7609e-05,275.9,2.5394e-05,227.6,-4.9042e-06,-0.049981,-1.5443e-05,-79.237,2.3083
4478,22.713,1.0909,0.1,3.0944e-05,309.23,2.9028e-05,265.79,-6.3509e-06,-0.039292,-1.6139e-05,-73.585,2.2797
4479,22.53,1.0909,0.1,3.4389e-05,343.65,3.2707e-05,304.22,-7.7872e-06,-0.031863,-1.6901e-05,-68.508,2.2512
4480,22.346,1.0909,0.1,3.7919e-05,378.93,3.6425e-05,342.89,-9.2153e-06,-0.02617,-1.7718e-05,-63.914,2.2227
4481,22.162,1.0909,0.1,4.1518e-05,414.9,4.0178e-05,381.79,-1.0637e-05,-0.021812,-1.8584e-05,-59.727,2.1942
4482,21.978,1.0909,0.1,4.5175e-05,451.44,4.3964e-05,420.88,-1.2055e-05,-0.018401,-1.949e-05,-55.884,2.1657
4483,21.794,1.0909,0.1,4.888e-05,488.46,4.7778e-05,460.18,-1.347e-05,-0.015687,-2.0433e-05,-52.334,2.1373
4484,21.611,1.0909,0.1,5.2627e-05,525.9,5.162e-05,499.66,-1.4882e-05,-0.013494,-2.1407e-05,-49.036,2.1089
4485,21.427,1.0909,0.1,5.641e-05,563.71,5.5488e-05,539.33,-1.6294e-05,-0.011707,-2.2408e-05,-45.955,2.0805
4486,21.243,1.0909,0.1,6.0227e-05,601.86,5.9379e-05,579.17,-1.7705e-05,-0.010234,-2.3435e-05,-43.062,2.0522
4487,21.059,1.0909,0.1,6.4075e-05,640.31,6.3293e-05,619.18,-1.9116e-05,-0.0090111,-2.4483e-05,-40.334,2.0239
4488,20.875,1.0909,0.1,6.7951e-05,679.04,6.723e-05,659.37,-2.0529e-05,-0.0079962,-2.5552e-05,-37.749,1.9957
4489,20.692,1.0909,0.1,7.1853e-05,718.04,7.1188e-05,699.74,-2.1943e-05,-0.0071402,-2.6638e-05,-35.29,1.9675
4490,20.508,1.0909,0.1,7.5781e-05,757.29,7.5167e-05,740.28,-2.3359e-05,-0.0063939,-2.7742e-05,-32.939,1.9393
4491,20.324,1.0909,0.1,7.9733e-05,796.78,7.9166e-05,780.99,-2.4778e-05,-0.0057505,-2.8861e-05,-30.683,1.9112
4492,20.14,1.0909,0.1,8.3708e-05,836.5,8.3186e-05,821.88,-2.62e-05,-0.0051904,-2.9993e-05,-28.509,1.8832
4493,19.956,1.0909,0.1,8.7705e-05,876.45,8.7226e-05,862.95,-2.7625e-05,-0.0047005,-3.1139e-05,-26.403,1.8552
4494,19.773,1.0909,0.1,9.1725e-05,916.61,9.1286e-05,904.19,-2.9055e-05,-0.0042805,-3.2296e-05,-24.355,1.8272
4495,19.589,1.0909,0.1,9.5765e-05,956.99,9.5365e-05,945.62,-3.0489e-05,-0.0038983,-3.3464e-05,-22.354,1.7994
4496,19.405,1.0909,0.1,9.9827e-05,997.58,9.9464e-05,987.23,-3.1928e-05,-0.0035265,-3.4641e-05,-20.388,1.7715
4497,19.221,1.0909,0.1,0.00010391,1038.4,0.00010358,1029,-3.3372e-05,-0.003171,-3.5827e-05,-18.45,1.7438
4498,19.038,1.0909,0.1,0.00010801,1079.4,0.00010772,1071,-3.4822e-05,-0.0028214,-3.7021e-05,-16.528,1.7161
4499,18.854,1.0909,0.1,0.00011213,1120.5,0.00011188,1113.2,-3.6277e-05,-0.0024565,-3.8222e-05,-14.613,1.6885
4500,18.67,1.0909,0.1,0.00011627,1161.9,0.00011605,1155.5,-3.7739e-05,-0.0020699,-3.9429e-05,-12.697,1.661
4501,18.486,1.0909,0.1,0.00012043,1203.5,0.00012024,1198,-3.9207e-05,-0.0015879,-4.0641e-05,-10.771,1.6335
4502,18.302,1.0909,0.1,0.00012461,1245.2,0.00012446,1240.8,-4.0683e-05,-0.00090896,-4.1857e-05,-8.827,1.6062
4503,18.119,1.0909,0.1,0.0001288,1287.1,0.00012868,1283.7,-4.2165e-05,0.00013686,-4.3077e-05,-6.8566,1.5789
4504,17.935,1.0909,0.1,0.00013302,1329.2,0.00013293,1326.8,-4.3654e-05,0.0020561,-4.4301e-05,-4.8532,1.5517
4505,17.751,1.0909,0.1,0.00013725,1371.5,0.0001372,1370.1,-4.5151e-05,0.0068948,-4.5526e-05,-2.8116,1.5246
4506,17.567,1.0909,0.1,0.00014149,1414,0.00014148,1413.6,-4.6652e-05,0.039257,-4.6757e-05,-0.75035,1.4975
4507,17.383,1.0909,0.1,0.00014576,1456.6,0.00014578,1457.3,-4.7976e-05,1.4631,-4.8175e-05,-0.027783,1.4706
4508,17.2,1.0909,0.1,0.00015004,1499.3,0.0001501,1501.2,-4.9206e-05,3.6537,-4.9694e-05,-0.014578,1.4438
4509,17.016,1.0909,0.1,0.00015433,1542.3,0.00015443,1545.2,-5.0435e-05,5.9147,-5.1224e-05,-0.011459,1.4171
4510,16.832,1.0909,0.1,0.00015864,1585.4,0.00015878,1589.4,-5.1663e-05,8.2396,-5.2761e-05,-0.0103,1.3904
4511,16.648,1.0909,0.1,0.00016297,1628.6,0.00016315,1633.9,-5.2891e-05,10.626,-5.4307e-05,-0.0099201,1.3639
4512,16.464,1.0909,0.1,0.00016731,1672,0.00016753,1678.5,-5.4119e-05,13.072,-5.586e-05,-0.010007,1.3375
4513,16.281,1.0909,0.1,0.00017167,1715.5,0.00017193,1723.2,-5.5346e-05,15.57,-5.742e-05,-0.010414,1.3112
4514,16.097,1.0909,0.1,0.00017603,1759.1,0.00017633,1768.1,-5.6575e-05,18.112,-5.8987e-05,-0.011078,1.2851
4515,15.913,1.0909,0.1,0.00018041,1802.9,0.00018075,1813.1,-5.7804e-05,20.681,-6.0558e-05,-0.012047,1.259
4516,15.729,1.0909,0.1,0.0001848,1846.7,0.00018519,1858.3,-5.9037e-05,23.261,-6.2134e-05,-0.01337,1.2331
4517,15.545,1.0909,0.1,0.0001892,1890.7,0.00018962,1903.5,-6.0273e-05,25.825,-6.3712e-05,-0.015122,1.2073
4518,15.362,1.0909,0.1,0.0001936,1934.7,0.00019407,1948.7,-6.1515e-05,28.341,-6.5289e-05,-0.017441,1.1816
4519,15.178,1.0909,0.1,0.00019801,1978.7,0.00019851,1993.9,-6.2764e-05,30.769,-6.6862e-05,-0.020448,1.156
4520,14.994,1.0909,0.1,0.00020241,2022.7,0.00020295,2039,-6.4024e-05,33.06,-6.8428e-05,-0.024336,1.1306
4521,14.81,1.0909,0.1,0.0002068,2066.6,0.00020738,2083.9,-6.5298e-05,35.155,-6.998e-05,-0.029482,1.1053
4522,14.626,1.0909,0.1,0.00021117,2110.3,0.00021178,2128.5,-6.6587e-05,36.983,-7.1514e-05,-0.03638,1.0802
4523,14.443,1.0909,0.1,0.00021551,2153.6,0.00021614,2172.6,-6.7894e-05,38.464,-7.3019e-05,-0.045779,1.0552
4524,14.259,1.0909,0.1,0.0002198,2196.5,0.00022045,2216,-6.9222e-05,39.503,-7.4488e-05,-0.058846,1.0303
4525,14.075,1.0909,0.1,0.00022402,2238.7,0.00022467,2258.4,-7.0572e-05,39.997,-7.5906e-05,-0.077361,1.0056
4526,13.891,1.0909,0.1,0.00022814,2279.8,0.00022879,2299.4,-7.1943e-05,39.828,-7.7258e-05,-0.10427,0.98108
4527,13.707,1.0909,0.1,0.00023211,2319.5,0.00023275,2338.6,-7.3334e-05,38.865,-7.8526e-05,-0.14477,0.95668
4528,13.524,1.0909,0.1,0.0002359,2357.3,0.0002365,2375.5,-7.4739e-05,36.966,-7.9687e-05,-0.20822,0.93244
4529,13.34,1.0909,0.1,0.00023942,2392.6,0.00023998,2409.2,-7.6149e-05,33.975,-8.0713e-05,-0.31293,0.90836
4530,13.156,1.0909,0.1,0.00024261,2424.5,0.0002431,2438.9,-7.755e-05,29.719,-8.1571e-05,-0.49895,0.88444
4531,12.972,1.0909,0.1,0.00024536,2452,0.00024575,2463.4,-7.8917e-05,24.024,-8.223e-05,-0.86897,0.86068
4532,12.788,1.0909,0.1,0.00024756,2473.9,0.00024781,2481.4,-8.0199e-05,16.839,-8.2675e-05,-1.7618,0.83709
4533,12.605,1.0909,0.1,0.00024907,2488.9,0.00024914,2491.1,-8.12e-05,9.0771,-8.3032e-05,-4.6904,0.81367
4534,12.421,1.0909,0.1,0.00024973,2495.6,0.00024955,2490.6,-8.1341e-05,4.3415,-8.3812e-05,-14.227,0.79041
4535,12.237,1.0909,0.1,0.00024941,2492.4,0.00024889,2477.5,-8.0469e-05,2.8224,-8.5127e-05,-32.183,0.76732
4536,12.053,1.0909,0.1,0.000248,2478.3,0.00024698,2449.3,-7.8703e-05,2.3049,-8.687e-05,-59.062,0.74439
4537,11.869,1.0909,0.1,0.00024549,2453.3,0.0002437,2403.4,-7.5895e-05,2.1163,-8.9315e-05,-98.717,0.72163
4538,11.686,1.0909,0.1,0.0002421,2419.4,0.00023905,2337.3,-7.1747e-05,2.1232,-9.3089e-05,-158.23,0.69901
4539,11.502,1.0909,0.1,0.00023844,2382.8,0.00023326,2249.6,-6.587e-05,2.1007,-9.9234e-05,-248.58,0.67654
4540,11.318,1.0909,0.1,0.00023577,2356.1,0.00022688,2141.4,-5.7757e-05,2.6834,-0.00010925,-384.21,0.6542
4541,11.134,1.0909,0.1,0.00023678,2366.2,0.00022135,2019.2,-4.7287e-05,0.83032,-0.00012522,-584.76,0.63196
4542,10.95,1.0909,0.1,0.00025607,2559,0.00022723,1966.9,-3.3548e-05,7.5095,-0.00015809,-928.22,0.60979
4543,23.816,1.2727,0.1,1.5432e-05,154.22,8.291e-06,39.744,2.9833e-06,-0.13618,-1.4367e-05,-130.5,2.4513
4544,23.632,1.2727,0.1,1.7267e-05,172.55,1.1728e-05,77.392,1.3892e-06,-0.29159,-1.4589e-05,-120.34,2.4227
4545,23.449,1.2727,0.1,1.9595e-05,195.82,1.519e-05,115.15,-1.5033e-07,-0.1163,-1.4901e-05,-110.95,2.3941
4546,23.265,1.2727,0.1,2.2271e-05,222.56,1.8685e-05,152.88,-1.6757e-06,-0.10159,-1.5296e-05,-102.44,2.3655
4547,23.081,1.2727,0.1,2.5198e-05,251.81,2.2213e-05,190.7,-3.1766e-06,-0.072254,-1.5774e-05,-94.721,2.337
4548,22.897,1.2727,0.1,2.8314e-05,282.94,2.5781e-05,228.66,-4.6594e-06,-0.058481,-1.6329e-05,-87.741,2.3084
4549,22.713,1.2727,0.1,3.1574e-05,315.52,2.939e-05,266.81,-6.127e-06,-0.047262,-1.6957e-05,-81.42,2.2798
4550,22.53,1.2727,0.1,3.4947e-05,349.23,3.3039e-05,305.17,-7.5824e-06,-0.039353,-1.7649e-05,-75.679,2.2513
4551,22.346,1.2727,0.1,3.8411e-05,383.85,3.6725e-05,343.74,-9.0282e-06,-0.033211,-1.8399e-05,-70.445,2.2228
4552,22.162,1.2727,0.1,4.195e-05,419.21,4.0446e-05,382.51,-1.0466e-05,-0.028436,-1.92e-05,-65.649,2.1943
4553,21.978,1.2727,0.1,4.5551e-05,455.2,4.4199e-05,421.47,-1.1899e-05,-0.024627,-2.0045e-05,-61.234,2.1659
4554,21.794,1.2727,0.1,4.9206e-05,491.72,4.7984e-05,460.64,-1.3326e-05,-0.021544,-2.093e-05,-57.15,2.1374
4555,21.611,1.2727,0.1,5.2906e-05,528.7,5.1796e-05,499.99,-1.4751e-05,-0.019004,-2.185e-05,-53.354,2.1091
4556,21.427,1.2727,0.1,5.6648e-05,566.09,5.5636e-05,539.53,-1.6174e-05,-0.016892,-2.2801e-05,-49.811,2.0807
4557,21.243,1.2727,0.1,6.0426e-05,603.85,5.9501e-05,579.25,-1.7595e-05,-0.015119,-2.378e-05,-46.489,2.0524
4558,21.059,1.2727,0.1,6.4239e-05,641.94,6.3391e-05,619.16,-1.9016e-05,-0.013618,-2.4785e-05,-43.362,2.0241
4559,20.875,1.2727,0.1,6.8082e-05,680.35,6.7304e-05,659.24,-2.0437e-05,-0.012343,-2.5813e-05,-40.405,1.9958
4560,20.692,1.2727,0.1,7.1954e-05,719.04,7.124e-05,699.5,-2.1859e-05,-0.011241,-2.6862e-05,-37.598,1.9677
4561,20.508,1.2727,0.1,7.5854e-05,758.02,7.5199e-05,739.95,-2.3283e-05,-0.010267,-2.7929e-05,-34.922,1.9395
4562,20.324,1.2727,0.1,7.978e-05,797.25,7.918e-05,780.57,-2.4709e-05,-0.0094079,-2.9015e-05,-32.36,1.9114
4563,20.14,1.2727,0.1,8.3731e-05,836.73,8.3182e-05,821.38,-2.6138e-05,-0.0086479,-3.0116e-05,-29.896,1.8834
4564,19.956,1.2727,0.1,8.7705e-05,876.45,8.7205e-05,862.36,-2.757e-05,-0.0079647,-3.1231e-05,-27.516,1.8554
4565,19.773,1.2727,0.1,9.1703e-05,916.4,9.1248e-05,903.53,-2.9006e-05,-0.0073598,-3.2359e-05,-25.207,1.8274
4566,19.589,1.2727,0.1,9.5724e-05,956.58,9.5312e-05,944.89,-3.0446e-05,-0.0067998,-3.35e-05,-22.954,1.7996
4567,19.405,1.2727,0.1,9.9766e-05,996.97,9.9396e-05,986.43,-3.189e-05,-0.0062537,-3.465e-05,-20.745,1.7718
4568,19.221,1.2727,0.1,0.00010383,1037.6,0.0001035,1028.2,-3.334e-05,-0.0057238,-3.5811e-05,-18.57,1.744
4569,19.038,1.2727,0.1,0.00010791,1078.4,0.00010762,1070.1,-3.4795e-05,-0.0051969,-3.6979e-05,-16.415,1.7164
4570,18.854,1.2727,0.1,0.00011202,1119.4,0.00011177,1112.2,-3.6256e-05,-0.0046449,-3.8155e-05,-14.27,1.6888
4571,18.67,1.2727,0.1,0.00011614,1160.6,0.00011593,1154.5,-3.7724e-05,-0.004045,-3.9337e-05,-12.125,1.6612
4572,18.486,1.2727,0.1,0.00012028,1202,0.00012011,1197,-3.9198e-05,-0.0032979,-4.0524e-05,-9.9679,1.6338
4573,18.302,1.2727,0.1,0.00012444,1243.5,0.00012431,1239.6,-4.0679e-05,-0.0022212,-4.1715e-05,-7.7893,1.6064
4574,18.119,1.2727,0.1,0.00012862,1285.3,0.00012852,1282.5,-4.2167e-05,-0.00041697,-4.291e-05,-5.5794,1.5792
4575,17.935,1.2727,0.1,0.00013281,1327.2,0.00013276,1325.5,-4.3663e-05,0.0037018,-4.4107e-05,-3.3302,1.552
4576,17.751,1.2727,0.1,0.00013703,1369.3,0.00013701,1368.8,-4.5164e-05,0.025759,-4.5307e-05,-1.048,1.5249
4577,17.567,1.2727,0.1,0.00014125,1411.6,0.00014128,1412.2,-4.6498e-05,1.3722,-4.6684e-05,-0.030667,1.4978
4578,17.383,1.2727,0.1,0.0001455,1454,0.00014556,1455.9,-4.7697e-05,3.7884,-4.8203e-05,-0.015324,1.4709
4579,17.2,1.2727,0.1,0.00014976,1496.6,0.00014987,1499.7,-4.8894e-05,6.2916,-4.9733e-05,-0.011953,1.4441
4580,17.016,1.2727,0.1,0.00015404,1539.3,0.00015418,1543.7,-5.0089e-05,8.878,-5.1272e-05,-0.010605,1.4174
4581,16.832,1.2727,0.1,0.00015833,1582.2,0.00015852,1587.9,-5.1281e-05,11.551,-5.282e-05,-0.010018,1.3908
4582,16.648,1.2727,0.1,0.00016263,1625.2,0.00016287,1632.3,-5.2471e-05,14.314,-5.4377e-05,-0.0098451,1.3643
4583,16.464,1.2727,0.1,0.00016695,1668.4,0.00016724,1676.9,-5.3657e-05,17.167,-5.5944e-05,-0.0099898,1.3379
4584,16.281,1.2727,0.1,0.00017129,1711.7,0.00017162,1721.7,-5.4841e-05,20.11,-5.7519e-05,-0.01038,1.3116
4585,16.097,1.2727,0.1,0.00017564,1755.1,0.00017602,1766.6,-5.6022e-05,23.137,-5.9103e-05,-0.010985,1.2854
4586,15.913,1.2727,0.1,0.00018,1798.7,0.00018043,1811.7,-5.7201e-05,26.241,-6.0695e-05,-0.011869,1.2594
4587,15.729,1.2727,0.1,0.00018437,1842.4,0.00018485,1857,-5.8379e-05,29.408,-6.2294e-05,-0.013085,1.2334
4588,15.545,1.2727,0.1,0.00018876,1886.3,0.00018929,1902.4,-5.9556e-05,32.621,-6.39e-05,-0.014714,1.2076
4589,15.362,1.2727,0.1,0.00019315,1930.2,0.00019374,1947.9,-6.0736e-05,35.856,-6.551e-05,-0.016888,1.182
4590,15.178,1.2727,0.1,0.00019756,1974.3,0.0001982,1993.5,-6.1919e-05,39.081,-6.7123e-05,-0.019718,1.1564
4591,14.994,1.2727,0.1,0.00020198,2018.4,0.00020266,2039.2,-6.3109e-05,42.257,-6.8737e-05,-0.023378,1.131
4592,14.81,1.2727,0.1,0.0002064,2062.5,0.00020713,2084.8,-6.4309e-05,45.335,-7.0347e-05,-0.028202,1.1057
4593,14.626,1.2727,0.1,0.00021082,2106.7,0.0002116,2130.4,-6.5522e-05,48.257,-7.1949e-05,-0.034603,1.0806
4594,14.443,1.2727,0.1,0.00021523,2150.8,0.00021605,2175.8,-6.6752e-05,50.954,-7.3539e-05,-0.043181,1.0556
4595,14.259,1.2727,0.1,0.00021963,2194.8,0.00022049,2221,-6.8003e-05,53.344,-7.511e-05,-0.054823,1.0307
4596,14.075,1.2727,0.1,0.00022401,2238.5,0.0002249,2265.7,-6.9279e-05,55.331,-7.6652e-05,-0.070767,1.006
4597,13.891,1.2727,0.1,0.00022834,2281.8,0.00022925,2309.7,-7.0584e-05,56.808,-7.8157e-05,-0.092909,0.9815
4598,13.707,1.2727,0.1,0.00023261,2324.5,0.00023354,2352.7,-7.1922e-05,57.647,-7.961e-05,-0.12432,0.95711
4599,13.524,1.2727,0.1,0.00023679,2366.3,0.00023772,2394.5,-7.3295e-05,57.698,-8.0997e-05,-0.16986,0.93288
4600,13.34,1.2727,0.1,0.00024085,2406.8,0.00024176,2434.6,-7.4708e-05,56.777,-8.2296e-05,-0.23771,0.9088
4601,13.156,1.2727,0.1,0.00024474,2445.7,0.00024561,2472.4,-7.6165e-05,54.648,-8.3484e-05,-0.3425,0.88489
4602,12.972,1.2727,0.1,0.00024841,2482.3,0.00024922,2507.2,-7.7675e-05,50.986,-8.4529e-05,-0.51266,0.86115
4603,12.788,1.2727,0.1,0.0002518,2516.3,0.00025253,2538.2,-7.9257e-05,45.321,-8.5397e-05,-0.8114,0.83757
4604,12.605,1.2727,0.1,0.00025487,2547,0.00025546,2564.5,-8.0941e-05,36.977,-8.605e-05,-1.4114,0.81416
4605,12.421,1.2727,0.1,0.00025758,2574,0.00025795,2585,-8.2744e-05,25.206,-8.6494e-05,-2.9698,0.79093
4606,12.237,1.2727,0.1,0.00025993,2597.6,0.00025997,2598.6,-8.4343e-05,11.578,-8.7137e-05,-9.4156,0.76786
4607,12.053,1.2727,0.1,0.00026203,2618.5,0.00026152,2603.9,-8.4398e-05,4.8509,-8.9501e-05,-33.486,0.74497
4608,11.869,1.2727,0.1,0.00026412,2639.3,0.00026271,2599.9,-8.2903e-05,3.1387,-9.3961e-05,-79.948,0.72225
4609,11.686,1.2727,0.1,0.00026671,2665.3,0.00026375,2585.2,-7.9963e-05,2.637,-0.00010104,-155.74,0.69969
4610,11.502,1.2727,0.1,0.00027071,2705.2,0.00026497,2557.5,-7.5071e-05,2.559,-0.0001122,-276.43,0.67729
4611,11.318,1.2727,0.1,0.00027741,2772.2,0.00026661,2512.3,-6.735e-05,3.07,-0.00012945,-463.54,0.65504
4612,11.134,1.2727,0.1,0.00028915,2889.5,0.00026913,2443.5,-5.5935e-05,1.1512,-0.00015541,-746.23,0.6329
4613,10.95,1.2727,0.1,0.00032123,3210.1,0.00028289,2429.2,-3.9546e-05,6.5926,-0.00020169,-1211.7,0.61086
4614,23.816,1.4545,0.1,1.6339e-05,163.28,8.5988e-06,39.751,3.2877e-06,-0.15537,-1.5295e-05,-139.78,2.4514
4615,23.632,1.4545,0.1,1.814e-05,181.28,1.2062e-05,77.692,1.6815e-06,-0.30241,-1.5517e-05,-129.53,2.4228
4616,23.449,1.4545,0.1,2.0418e-05,204.04,1.5541e-05,115.7,1.2606e-07,-0.12426,-1.5814e-05,-119.9,2.3942
4617,23.265,1.4545,0.1,2.3036e-05,230.21,1.9044e-05,153.63,-1.4173e-06,-0.10872,-1.6181e-05,-111.04,2.3656
4618,23.081,1.4545,0.1,2.5903e-05,258.85,2.2571e-05,191.57,-2.9368e-06,-0.078752,-1.6619e-05,-102.88,2.3371
4619,22.897,1.4545,0.1,2.8956e-05,289.36,2.6129e-05,229.6,-4.4381e-06,-0.064574,-1.7127e-05,-95.402,2.3085
4620,22.713,1.4545,0.1,3.2155e-05,321.33,2.972e-05,267.76,-5.9234e-06,-0.053027,-1.7701e-05,-88.547,2.28
4621,22.53,1.4545,0.1,3.547e-05,354.45,3.3347e-05,306.08,-7.3955e-06,-0.044833,-1.8338e-05,-82.261,2.2514
4622,22.346,1.4545,0.1,3.8878e-05,388.51,3.7008e-05,344.57,-8.8568e-06,-0.038429,-1.9031e-05,-76.485,2.2229
4623,22.162,1.4545,0.1,4.2364e-05,423.35,4.0702e-05,383.25,-1.0309e-05,-0.033398,-1.9776e-05,-71.163,2.1945
4624,21.978,1.4545,0.1,4.5916e-05,458.85,4.4429e-05,422.11,-1.1755e-05,-0.029345,-2.0567e-05,-66.244,2.166
4625,21.794,1.4545,0.1,4.9525e-05,494.91,4.8186e-05,461.16,-1.3195e-05,-0.02603,-2.14e-05,-61.681,2.1376
4626,21.611,1.4545,0.1,5.3183e-05,531.46,5.1972e-05,500.4,-1.463e-05,-0.023266,-2.2271e-05,-57.435,2.1092
4627,21.427,1.4545,0.1,5.6886e-05,568.46,5.5787e-05,539.83,-1.6063e-05,-0.020943,-2.3177e-05,-53.469,2.0808
4628,21.243,1.4545,0.1,6.0628e-05,605.86,5.9628e-05,579.44,-1.7494e-05,-0.01897,-2.4113e-05,-49.751,2.0525
4629,21.059,1.4545,0.1,6.4406e-05,643.62,6.3495e-05,619.24,-1.8923e-05,-0.01728,-2.5077e-05,-46.253,2.0242
4630,20.875,1.4545,0.1,6.8219e-05,681.72,6.7386e-05,659.22,-2.0353e-05,-0.015825,-2.6067e-05,-42.95,1.996
4631,20.692,1.4545,0.1,7.2063e-05,720.13,7.1302e-05,699.39,-2.1782e-05,-0.014556,-2.708e-05,-39.817,1.9678
4632,20.508,1.4545,0.1,7.5936e-05,758.83,7.5242e-05,739.74,-2.3213e-05,-0.013423,-2.8114e-05,-36.836,1.9397
4633,20.324,1.4545,0.1,7.9837e-05,797.82,7.9204e-05,780.28,-2.4646e-05,-0.012414,-2.9167e-05,-33.986,1.9116
4634,20.14,1.4545,0.1,8.3765e-05,837.07,8.3189e-05,821,-2.6081e-05,-0.01151,-3.0238e-05,-31.25,1.8835
4635,19.956,1.4545,0.1,8.7718e-05,876.57,8.7196e-05,861.91,-2.7519e-05,-0.010694,-3.1325e-05,-28.612,1.8556
4636,19.773,1.4545,0.1,9.1695e-05,916.32,9.1224e-05,903.01,-2.896e-05,-0.009959,-3.2427e-05,-26.055,1.8276
4637,19.589,1.4545,0.1,9.5696e-05,956.3,9.5273e-05,944.29,-3.0406e-05,-0.009276,-3.3541e-05,-23.564,1.7998
4638,19.405,1.4545,0.1,9.9719e-05,996.5,9.9343e-05,985.77,-3.1856e-05,-0.00861,-3.4667e-05,-21.126,1.772
4639,19.221,1.4545,0.1,0.00010376,1036.9,0.00010343,1027.4,-3.3311e-05,-0.0079647,-3.5802e-05,-18.727,1.7442
4640,19.038,1.4545,0.1,0.00010783,1077.6,0.00010754,1069.3,-3.4771e-05,-0.007318,-3.6947e-05,-16.352,1.7166
4641,18.854,1.4545,0.1,0.00011192,1118.4,0.00011167,1111.3,-3.6238e-05,-0.0066421,-3.8099e-05,-13.99,1.689
4642,18.67,1.4545,0.1,0.00011602,1159.4,0.00011582,1153.6,-3.7711e-05,-0.0058993,-3.9257e-05,-11.627,1.6615
4643,18.486,1.4545,0.1,0.00012015,1200.6,0.00011999,1196,-3.919e-05,-0.0049611,-4.042e-05,-9.2504,1.634
4644,18.302,1.4545,0.1,0.00012429,1242,0.00012417,1238.6,-4.0676e-05,-0.0035461,-4.1588e-05,-6.8487,1.6067
4645,18.119,1.4545,0.1,0.00012845,1283.6,0.00012838,1281.4,-4.217e-05,-0.00084573,-4.2757e-05,-4.4105,1.5794
4646,17.935,1.4545,0.1,0.00013263,1325.4,0.0001326,1324.4,-4.3672e-05,0.0083546,-4.3929e-05,-1.9289,1.5522
4647,17.751,1.4545,0.1,0.00013682,1367.3,0.00013684,1367.6,-4.5092e-05,0.68386,-4.519e-05,-0.052112,1.5251
4648,17.567,1.4545,0.1,0.00014104,1409.4,0.00014109,1411,-4.6267e-05,3.2737,-4.6705e-05,-0.016897,1.4981
4649,17.383,1.4545,0.1,0.00014526,1451.6,0.00014536,1454.6,-4.7436e-05,5.9782,-4.8233e-05,-0.012649,1.4712
4650,17.2,1.4545,0.1,0.0001495,1494,0.00014965,1498.4,-4.8602e-05,8.7796,-4.9772e-05,-0.011026,1.4444
4651,17.016,1.4545,0.1,0.00015376,1536.5,0.00015396,1542.4,-4.9763e-05,11.686,-5.132e-05,-0.010237,1.4177
4652,16.832,1.4545,0.1,0.00015803,1579.2,0.00015828,1586.5,-5.092e-05,14.705,-5.2878e-05,-0.0098579,1.3911
4653,16.648,1.4545,0.1,0.00016232,1622.1,0.00016261,1630.9,-5.2071e-05,17.844,-5.4447e-05,-0.0097494,1.3646
4654,16.464,1.4545,0.1,0.00016662,1665,0.00016697,1675.5,-5.3216e-05,21.11,-5.6027e-05,-0.0098816,1.3382
4655,16.281,1.4545,0.1,0.00017093,1708.1,0.00017133,1720.3,-5.4355e-05,24.507,-5.7618e-05,-0.010215,1.3119
4656,16.097,1.4545,0.1,0.00017526,1751.4,0.00017572,1765.2,-5.5487e-05,28.037,-5.922e-05,-0.010728,1.2857
4657,15.913,1.4545,0.1,0.0001796,1794.8,0.00018012,1810.4,-5.6613e-05,31.698,-6.0833e-05,-0.011493,1.2597
4658,15.729,1.4545,0.1,0.00018396,1838.3,0.00018454,1855.8,-5.7733e-05,35.486,-6.2457e-05,-0.012564,1.2338
4659,15.545,1.4545,0.1,0.00018833,1882,0.00018897,1901.4,-5.8848e-05,39.393,-6.4092e-05,-0.014018,1.208
4660,15.362,1.4545,0.1,0.00019272,1925.9,0.00019342,1947.2,-5.9959e-05,43.404,-6.5738e-05,-0.01598,1.1823
4661,15.178,1.4545,0.1,0.00019713,1969.9,0.00019789,1993.2,-6.1069e-05,47.5,-6.7393e-05,-0.01855,1.1568
4662,14.994,1.4545,0.1,0.00020155,2014.2,0.00020238,2039.5,-6.2179e-05,51.654,-6.9057e-05,-0.021878,1.1313
4663,14.81,1.4545,0.1,0.000206,2058.6,0.00020689,2085.9,-6.3294e-05,55.831,-7.0728e-05,-0.026257,1.1061
4664,14.626,1.4545,0.1,0.00021046,2103.2,0.00021142,2132.5,-6.4417e-05,59.989,-7.2406e-05,-0.032039,1.0809
4665,14.443,1.4545,0.1,0.00021495,2148,0.00021597,2179.3,-6.5554e-05,64.073,-7.4086e-05,-0.039708,1.056
4666,14.259,1.4545,0.1,0.00021946,2193,0.00022053,2226.2,-6.6708e-05,68.017,-7.5768e-05,-0.049964,1.0311
4667,14.075,1.4545,0.1,0.00022398,2238.3,0.00022512,2273.3,-6.7889e-05,71.742,-7.7445e-05,-0.063711,1.0064
4668,13.891,1.4545,0.1,0.00022853,2283.8,0.00022972,2320.4,-6.9102e-05,75.152,-7.9115e-05,-0.08227,0.98188
4669,13.707,1.4545,0.1,0.0002331,2329.4,0.00023433,2367.4,-7.0358e-05,78.129,-8.077e-05,-0.1077,0.9575
4670,13.524,1.4545,0.1,0.00023769,2375.2,0.00023895,2414.4,-7.1667e-05,80.527,-8.2404e-05,-0.14292,0.93327
4671,13.34,1.4545,0.1,0.00024228,2421.2,0.00024357,2461.1,-7.3045e-05,82.151,-8.4005e-05,-0.19261,0.9092
4672,13.156,1.4545,0.1,0.00024689,2467.2,0.00024819,2507.4,-7.4514e-05,82.737,-8.556e-05,-0.26425,0.8853
4673,12.972,1.4545,0.1,0.00025151,2513.4,0.0002528,2553.2,-7.6105e-05,81.897,-8.7054e-05,-0.37071,0.86156
4674,12.788,1.4545,0.1,0.00025616,2559.9,0.0002574,2598.2,-7.7872e-05,79.036,-8.8463e-05,-0.53642,0.838
4675,12.605,1.4545,0.1,0.00026087,2606.9,0.00026203,2642.3,-7.9905e-05,73.207,-8.9757e-05,-0.81492,0.81461
4676,12.421,1.4545,0.1,0.00026573,2655.5,0.00026672,2685.7,-8.2351e-05,62.889,-9.0901e-05,-1.3481,0.79139
4677,12.237,1.4545,0.1,0.00027091,2707.2,0.00027161,2728.5,-8.543e-05,45.807,-9.1882e-05,-2.6738,0.76835
4678,12.053,1.4545,0.1,0.00027672,2765.3,0.00027692,2771.4,-8.9131e-05,21.01,-9.3074e-05,-8.6206,0.74549
4679,11.869,1.4545,0.1,0.00028373,2835.3,0.00028303,2815.5,-9.0866e-05,6.1984,-9.7695e-05,-45.112,0.72281
4680,11.686,1.4545,0.1,0.00029291,2927,0.00029056,2862.5,-8.9927e-05,3.6717,-0.00010748,-128.23,0.70032
4681,11.502,1.4545,0.1,0.00030579,3055.8,0.00030031,2912.6,-8.6904e-05,3.2593,-0.00012342,-271.12,0.67799
4682,11.318,1.4545,0.1,0.00032484,3246.1,0.00031319,2962.9,-8.0685e-05,3.514,-0.00014889,-508.95,0.65584
4683,11.134,1.4545,0.1,0.00035214,3519,0.00032837,2987.7,-6.8997e-05,2.0584,-0.000188,-892.08,0.63384
4684,10.95,1.4545,0.1,0.00040663,4063.5,0.00035692,3060.1,-4.7711e-05,19.857,-0.00025733,-1555.1,0.61195
4685,23.816,1.6364,0.1,1.7119e-05,171.07,8.8611e-06,39.732,3.5504e-06,-0.1706,-1.6093e-05,-147.76,2.4515
4686,23.632,1.6364,0.1,1.8895e-05,188.82,1.2345e-05,77.907,1.9352e-06,-0.31068,-1.6317e-05,-137.45,2.4229
4687,23.449,1.6364,0.1,2.1133e-05,211.19,1.584e-05,116.12,3.6739e-07,-0.13027,-1.6604e-05,-127.64,2.3943
4688,23.265,1.6364,0.1,2.3706e-05,236.9,1.9351e-05,154.23,-1.1901e-06,-0.11406,-1.6951e-05,-118.53,2.3657
4689,23.081,1.6364,0.1,2.6525e-05,265.07,2.288e-05,192.3,-2.7246e-06,-0.083612,-1.736e-05,-110.05,2.3372
4690,22.897,1.6364,0.1,2.953e-05,295.1,2.6433e-05,230.41,-4.2412e-06,-0.069131,-1.7832e-05,-102.18,2.3086
4691,22.713,1.6364,0.1,3.268e-05,326.58,3.0014e-05,268.59,-5.7413e-06,-0.057354,-1.8365e-05,-94.908,2.2801
4692,22.53,1.6364,0.1,3.5947e-05,359.22,3.3625e-05,306.9,-7.2277e-06,-0.048973,-1.8957e-05,-88.18,2.2515
4693,22.346,1.6364,0.1,3.9308e-05,392.81,3.7267e-05,345.35,-8.7024e-06,-0.042399,-1.9604e-05,-81.953,2.223
4694,22.162,1.6364,0.1,4.2749e-05,427.2,4.094e-05,383.97,-1.0168e-05,-0.037209,-2.0302e-05,-76.185,2.1946
4695,21.978,1.6364,0.1,4.6259e-05,462.27,4.4644e-05,422.75,-1.1625e-05,-0.033003,-2.1047e-05,-70.831,2.1661
4696,21.794,1.6364,0.1,4.9827e-05,497.93,4.8379e-05,461.71,-1.3075e-05,-0.029534,-2.1836e-05,-65.851,2.1377
4697,21.611,1.6364,0.1,5.3447e-05,534.11,5.2142e-05,500.85,-1.4521e-05,-0.026626,-2.2664e-05,-61.206,2.1093
4698,21.427,1.6364,0.1,5.7114e-05,570.75,5.5934e-05,540.18,-1.5963e-05,-0.02416,-2.3528e-05,-56.861,2.081
4699,21.243,1.6364,0.1,6.0824e-05,607.82,5.9753e-05,579.69,-1.7402e-05,-0.022051,-2.4425e-05,-52.786,2.0527
4700,21.059,1.6364,0.1,6.4572e-05,645.27,6.3599e-05,619.39,-1.884e-05,-0.020228,-2.5352e-05,-48.952,2.0244
4701,20.875,1.6364,0.1,6.8356e-05,683.08,6.7471e-05,659.28,-2.0276e-05,-0.018649,-2.6307e-05,-45.331,1.9961
4702,20.692,1.6364,0.1,7.2173e-05,721.23,7.1368e-05,699.36,-2.1713e-05,-0.017261,-2.7287e-05,-41.901,1.968
4703,20.508,1.6364,0.1,7.6021e-05,759.69,7.529e-05,739.62,-2.315e-05,-0.016012,-2.829e-05,-38.639,1.9398
4704,20.324,1.6364,0.1,7.9899e-05,798.44,7.9235e-05,780.08,-2.4589e-05,-0.014896,-2.9315e-05,-35.524,1.9117
4705,20.14,1.6364,0.1,8.3805e-05,837.47,8.3204e-05,820.72,-2.603e-05,-0.01389,-3.0358e-05,-32.537,1.8837
4706,19.956,1.6364,0.1,8.7738e-05,876.77,8.7195e-05,861.56,-2.7473e-05,-0.012977,-3.1419e-05,-29.66,1.8557
4707,19.773,1.6364,0.1,9.1696e-05,916.33,9.1209e-05,902.59,-2.892e-05,-0.012151,-3.2495e-05,-26.874,1.8278
4708,19.589,1.6364,0.1,9.5678e-05,956.12,9.5244e-05,943.81,-3.037e-05,-0.011382,-3.3585e-05,-24.164,1.8
4709,19.405,1.6364,0.1,9.9684e-05,996.15,9.9301e-05,985.22,-3.1825e-05,-0.010634,-3.4687e-05,-21.513,1.7722
4710,19.221,1.6364,0.1,0.00010371,1036.4,0.00010338,1026.8,-3.3285e-05,-0.0099104,-3.58e-05,-18.905,1.7444
4711,19.038,1.6364,0.1,0.00010776,1076.9,0.00010747,1068.6,-3.475e-05,-0.0091912,-3.6922e-05,-16.327,1.7168
4712,18.854,1.6364,0.1,0.00011183,1117.6,0.00011159,1110.6,-3.6222e-05,-0.0084406,-3.8052e-05,-13.762,1.6892
4713,18.67,1.6364,0.1,0.00011592,1158.4,0.00011573,1152.8,-3.7699e-05,-0.0076146,-3.9188e-05,-11.196,1.6617
4714,18.486,1.6364,0.1,0.00012003,1199.5,0.00011988,1195.2,-3.9184e-05,-0.0065594,-4.0329e-05,-8.6153,1.6342
4715,18.302,1.6364,0.1,0.00012416,1240.7,0.00012406,1237.7,-4.0675e-05,-0.004891,-4.1474e-05,-6.0051,1.6069
4716,18.119,1.6364,0.1,0.0001283,1282.2,0.00012825,1280.5,-4.2174e-05,-0.0011048,-4.262e-05,-3.3531,1.5796
4717,17.935,1.6364,0.1,0.00013247,1323.8,0.00013246,1323.4,-4.3678e-05,0.031096,-4.3772e-05,-0.67118,1.5524
4718,17.751,1.6364,0.1,0.00013664,1365.5,0.00013668,1366.6,-4.4911e-05,2.167,-4.5202e-05,-0.020658,1.5254
4719,17.567,1.6364,0.1,0.00014084,1407.4,0.00014092,1409.9,-4.6055e-05,5.0328,-4.6727e-05,-0.013616,1.4984
4720,17.383,1.6364,0.1,0.00014505,1449.5,0.00014518,1453.5,-4.7196e-05,8.0039,-4.8263e-05,-0.01157,1.4715
4721,17.2,1.6364,0.1,0.00014927,1491.7,0.00014946,1497.2,-4.8331e-05,11.09,-4.9809e-05,-0.010568,1.4446
4722,17.016,1.6364,0.1,0.00015351,1534,0.00015375,1541.1,-4.9461e-05,14.305,-5.1366e-05,-0.010007,1.4179
4723,16.832,1.6364,0.1,0.00015776,1576.5,0.00015805,1585.3,-5.0583e-05,17.66,-5.2935e-05,-0.0097026,1.3913
4724,16.648,1.6364,0.1,0.00016203,1619.2,0.00016238,1629.6,-5.1696e-05,21.168,-5.4515e-05,-0.0095892,1.3648
4725,16.464,1.6364,0.1,0.00016631,1661.9,0.00016672,1674.2,-5.2801e-05,24.841,-5.6108e-05,-0.0096703,1.3385
4726,16.281,1.6364,0.1,0.0001706,1704.8,0.00017107,1719,-5.3895e-05,28.69,-5.7714e-05,-0.0099136,1.3122
4727,16.097,1.6364,0.1,0.00017491,1747.9,0.00017544,1764,-5.4978e-05,32.723,-5.9334e-05,-0.010309,1.286
4728,15.913,1.6364,0.1,0.00017923,1791.1,0.00017983,1809.3,-5.605e-05,36.948,-6.0968e-05,-0.010925,1.26
4729,15.729,1.6364,0.1,0.00018357,1834.5,0.00018424,1854.8,-5.711e-05,41.369,-6.2618e-05,-0.011817,1.2341
4730,15.545,1.6364,0.1,0.00018793,1878,0.00018867,1900.6,-5.816e-05,45.988,-6.4283e-05,-0.013054,1.2083
4731,15.362,1.6364,0.1,0.00019231,1921.8,0.00019313,1946.7,-5.9201e-05,50.803,-6.5964e-05,-0.014753,1.1826
4732,15.178,1.6364,0.1,0.00019672,1965.8,0.00019761,1993.1,-6.0232e-05,55.808,-6.7662e-05,-0.016999,1.1571
4733,14.994,1.6364,0.1,0.00020115,2010.1,0.00020211,2039.9,-6.1258e-05,60.992,-6.9378e-05,-0.01992,1.1317
4734,14.81,1.6364,0.1,0.00020561,2054.7,0.00020666,2087.1,-6.2282e-05,66.334,-7.1113e-05,-0.023775,1.1064
4735,14.626,1.6364,0.1,0.00021012,2099.7,0.00021125,2134.7,-6.3306e-05,71.809,-7.2867e-05,-0.028861,1.0813
4736,14.443,1.6364,0.1,0.00021467,2145.2,0.00021588,2182.8,-6.4338e-05,77.381,-7.4642e-05,-0.035579,1.0563
4737,14.259,1.6364,0.1,0.00021928,2191.2,0.00022057,2231.5,-6.5384e-05,83.003,-7.6437e-05,-0.044489,1.0314
4738,14.075,1.6364,0.1,0.00022395,2238,0.00022533,2280.9,-6.6454e-05,88.613,-7.8255e-05,-0.05628,1.0068
4739,13.891,1.6364,0.1,0.00022871,2285.6,0.00023017,2331.1,-6.7558e-05,94.132,-8.0096e-05,-0.071918,0.98222
4740,13.707,1.6364,0.1,0.00023358,2334.1,0.00023511,2382.2,-6.8713e-05,99.455,-8.1962e-05,-0.092856,0.95783
4741,13.524,1.6364,0.1,0.00023856,2384,0.00024016,2434.4,-6.9936e-05,104.44,-8.3852e-05,-0.1211,0.93361
4742,13.34,1.6364,0.1,0.0002437,2435.4,0.00024537,2487.9,-7.1254e-05,108.91,-8.577e-05,-0.15957,0.90955
4743,13.156,1.6364,0.1,0.00024904,2488.7,0.00025076,2542.9,-7.2703e-05,112.57,-8.7713e-05,-0.21275,0.88565
4744,12.972,1.6364,0.1,0.00025463,2544.5,0.00025638,2599.9,-7.4337e-05,115.02,-8.9684e-05,-0.28772,0.86193
4745,12.788,1.6364,0.1,0.00026055,2603.7,0.00026232,2659.4,-7.6235e-05,115.64,-9.1678e-05,-0.39674,0.83837
4746,12.605,1.6364,0.1,0.00026694,2667.5,0.00026867,2722.1,-7.8526e-05,113.39,-9.3693e-05,-0.56411,0.815
4747,12.421,1.6364,0.1,0.00027399,2738,0.00027563,2789.3,-8.1412e-05,106.64,-9.5718e-05,-0.84231,0.7918
4748,12.237,1.6364,0.1,0.00028204,2818.5,0.00028348,2862.9,-8.5223e-05,92.676,-9.7741e-05,-1.3852,0.76879
4749,12.053,1.6364,0.1,0.00029163,2914.3,0.00029266,2945.9,-9.0462e-05,67.232,-9.9779e-05,-2.7726,0.74596
4750,11.869,1.6364,0.1,0.00030366,3034.5,0.00030393,3042.7,-9.7404e-05,27.259,-0.00010243,-10.496,0.72333
4751,11.686,1.6364,0.1,0.0003196,3193.8,0.00031841,3160.1,-0.00010129,6.688,-0.00011185,-72.669,0.70089
4752,11.502,1.6364,0.1,0.00034222,3419.8,0.00033804,3307.3,-0.00010172,3.1077,-0.00013109,-217.53,0.67865
4753,11.318,1.6364,0.1,0.00037525,3749.9,0.00036492,3492.2,-9.8638e-05,9.258,-0.00016338,-477.21,0.65661
4754,11.134,1.6364,0.1,0.00042819,4279,0.00040331,3709.6,-9.0458e-05,-0.39559,-0.0002197,-971.49,0.63475
4755,10.95,1.6364,0.1,0.0005308,5304.3,0.00046571,3977.2,-6.453e-05,-6.8059,-0.00033562,-2043.7,0.61306
4756,23.816,1.8182,0.1,1.7783e-05,177.71,9.0829e-06,39.7,3.7748e-06,-0.18271,-1.6772e-05,-154.56,2.4516
4757,23.632,1.8182,0.1,1.9539e-05,195.26,1.2584e-05,78.061,2.1526e-06,-0.31703,-1.6998e-05,-144.21,2.423
4758,23.449,1.8182,0.1,2.1746e-05,217.31,1.6091e-05,116.45,5.752e-07,-0.13484,-1.7278e-05,-134.28,2.3944
4759,23.265,1.8182,0.1,2.4284e-05,242.67,1.9612e-05,154.7,-9.9349e-07,-0.11811,-1.7611e-05,-124.97,2.3658
4760,23.081,1.8182,0.1,2.7065e-05,270.46,2.3144e-05,192.89,-2.54e-06,-0.087272,-1.7999e-05,-116.24,2.3373
4761,22.897,1.8182,0.1,3.0032e-05,300.11,2.6696e-05,231.08,-4.069e-06,-0.072559,-1.8444e-05,-108.08,2.3087
4762,22.713,1.8182,0.1,3.3143e-05,331.2,3.027e-05,269.31,-5.5815e-06,-0.060611,-1.8946e-05,-100.48,2.2802
4763,22.53,1.8182,0.1,3.637e-05,363.45,3.387e-05,307.63,-7.0799e-06,-0.052101,-1.9503e-05,-93.392,2.2516
4764,22.346,1.8182,0.1,3.9693e-05,396.66,3.7498e-05,346.06,-8.5661e-06,-0.045415,-2.0112e-05,-86.797,2.2231
4765,22.162,1.8182,0.1,4.3097e-05,430.67,4.1154e-05,384.63,-1.0042e-05,-0.040123,-2.0772e-05,-80.658,2.1947
4766,21.978,1.8182,0.1,4.657e-05,465.38,4.484e-05,423.35,-1.1509e-05,-0.03582,-2.1478e-05,-74.936,2.1662
4767,21.794,1.8182,0.1,5.0104e-05,500.69,4.8555e-05,462.24,-1.2969e-05,-0.032256,-2.2228e-05,-69.597,2.1378
4768,21.611,1.8182,0.1,5.3692e-05,536.55,5.23e-05,501.31,-1.4424e-05,-0.02925,-2.3019e-05,-64.606,2.1094
4769,21.427,1.8182,0.1,5.7328e-05,572.88,5.6072e-05,540.55,-1.5874e-05,-0.02669,-2.3847e-05,-59.931,2.0811
4770,21.243,1.8182,0.1,6.1008e-05,609.66,5.9873e-05,579.98,-1.7321e-05,-0.024488,-2.471e-05,-55.541,2.0528
4771,21.059,1.8182,0.1,6.4728e-05,646.84,6.37e-05,619.59,-1.8765e-05,-0.022577,-2.5604e-05,-51.408,2.0245
4772,20.875,1.8182,0.1,6.8487e-05,684.39,6.7554e-05,659.39,-2.0208e-05,-0.02091,-2.6528e-05,-47.506,1.9963
4773,20.692,1.8182,0.1,7.228e-05,722.3,7.1434e-05,699.39,-2.1651e-05,-0.019437,-2.7479e-05,-43.809,1.9681
4774,20.508,1.8182,0.1,7.6106e-05,760.53,7.534e-05,739.58,-2.3094e-05,-0.01811,-2.8454e-05,-40.295,1.94
4775,20.324,1.8182,0.1,7.9963e-05,799.07,7.927e-05,779.96,-2.4538e-05,-0.016917,-2.9452e-05,-36.941,1.9119
4776,20.14,1.8182,0.1,8.3849e-05,837.91,8.3224e-05,820.53,-2.5984e-05,-0.015839,-3.0471e-05,-33.727,1.8838
4777,19.956,1.8182,0.1,8.7763e-05,877.02,8.7201e-05,861.3,-2.7432e-05,-0.014857,-3.1507e-05,-30.633,1.8559
4778,19.773,1.8182,0.1,9.1703e-05,916.4,9.1202e-05,902.26,-2.8884e-05,-0.013968,-3.2561e-05,-27.641,1.828
4779,19.589,1.8182,0.1,9.5669e-05,956.03,9.5224e-05,943.42,-3.0339e-05,-0.01314,-3.3629e-05,-24.731,1.8001
4780,19.405,1.8182,0.1,9.9659e-05,995.9,9.9268e-05,984.77,-3.1798e-05,-0.012338,-3.471e-05,-21.887,1.7723
4781,19.221,1.8182,0.1,0.00010367,1036,0.00010333,1026.3,-3.3262e-05,-0.011566,-3.5802e-05,-19.092,1.7446
4782,19.038,1.8182,0.1,0.00010771,1076.3,0.00010742,1068.1,-3.4732e-05,-0.010802,-3.6904e-05,-16.328,1.7169
4783,18.854,1.8182,0.1,0.00011176,1116.8,0.00011152,1110,-3.6208e-05,-0.010016,-3.8013e-05,-13.578,1.6894
4784,18.67,1.8182,0.1,0.00011584,1157.6,0.00011565,1152.1,-3.7689e-05,-0.0091607,-3.9129e-05,-10.828,1.6619
4785,18.486,1.8182,0.1,0.00011993,1198.5,0.00011979,1194.4,-3.9178e-05,-0.008066,-4.025e-05,-8.0604,1.6344
4786,18.302,1.8182,0.1,0.00012405,1239.6,0.00012395,1237,-4.0675e-05,-0.0062539,-4.1374e-05,-5.2595,1.6071
4787,18.119,1.8182,0.1,0.00012818,1280.9,0.00012813,1279.7,-4.2179e-05,-0.0010974,-4.2499e-05,-2.4117,1.5798
4788,17.935,1.8182,0.1,0.00013232,1322.3,0.00013233,1322.6,-4.3618e-05,0.55392,-4.3698e-05,-0.047179,1.5526
4789,17.751,1.8182,0.1,0.00013649,1363.9,0.00013655,1365.7,-4.4745e-05,3.5247,-4.5216e-05,-0.015286,1.5256
4790,17.567,1.8182,0.1,0.00014066,1405.7,0.00014078,1409,-4.5865e-05,6.6242,-4.6748e-05,-0.012254,1.4986
4791,17.383,1.8182,0.1,0.00014486,1447.6,0.00014502,1452.5,-4.6979e-05,9.8424,-4.8291e-05,-0.011015,1.4717
4792,17.2,1.8182,0.1,0.00014906,1489.6,0.00014928,1496.2,-4.8087e-05,13.195,-4.9844e-05,-0.01029,1.4449
4793,17.016,1.8182,0.1,0.00015328,1531.8,0.00015356,1540.1,-4.9186e-05,16.7,-5.141e-05,-0.0098231,1.4182
4794,16.832,1.8182,0.1,0.00015752,1574.1,0.00015785,1584.2,-5.0275e-05,20.373,-5.2988e-05,-0.0095311,1.3916
4795,16.648,1.8182,0.1,0.00016177,1616.5,0.00016216,1628.5,-5.1353e-05,24.232,-5.4579e-05,-0.0093784,1.3651
4796,16.464,1.8182,0.1,0.00016603,1659.1,0.00016649,1673.1,-5.2418e-05,28.296,-5.6185e-05,-0.0093833,1.3387
4797,16.281,1.8182,0.1,0.0001703,1701.8,0.00017083,1717.9,-5.3468e-05,32.58,-5.7806e-05,-0.0095222,1.3124
4798,16.097,1.8182,0.1,0.00017459,1744.7,0.00017519,1762.9,-5.4504e-05,37.101,-5.9443e-05,-0.0097829,1.2863
4799,15.913,1.8182,0.1,0.00017889,1787.7,0.00017957,1808.3,-5.5523e-05,41.876,-6.1098e-05,-0.010233,1.2602
4800,15.729,1.8182,0.1,0.00018322,1830.9,0.00018397,1853.9,-5.6525e-05,46.919,-6.2772e-05,-0.010923,1.2343
4801,15.545,1.8182,0.1,0.00018756,1874.3,0.00018839,1899.9,-5.7511e-05,52.243,-6.4466e-05,-0.011917,1.2085
4802,15.362,1.8182,0.1,0.00019193,1918,0.00019285,1946.2,-5.848e-05,57.859,-6.6182e-05,-0.013321,1.1829
4803,15.178,1.8182,0.1,0.00019633,1961.9,0.00019734,1993,-5.9433e-05,63.773,-6.7923e-05,-0.015205,1.1573
4804,14.994,1.8182,0.1,0.00020076,2006.3,0.00020186,2040.3,-6.0373e-05,69.991,-6.969e-05,-0.017678,1.1319
4805,14.81,1.8182,0.1,0.00020525,2051,0.00020644,2088.2,-6.1302e-05,76.51,-7.1488e-05,-0.020968,1.1067
4806,14.626,1.8182,0.1,0.00020979,2096.4,0.00021108,2136.8,-6.2225e-05,83.322,-7.3318e-05,-0.025329,1.0815
4807,14.443,1.8182,0.1,0.0002144,2142.5,0.00021579,2186.3,-6.3148e-05,90.41,-7.5185e-05,-0.031095,1.0566
4808,14.259,1.8182,0.1,0.0002191,2189.5,0.0002206,2236.7,-6.408e-05,97.746,-7.7094e-05,-0.03873,1.0317
4809,14.075,1.8182,0.1,0.00022392,2237.6,0.00022552,2288.4,-6.5032e-05,105.29,-7.9051e-05,-0.048773,1.007
4810,13.891,1.8182,0.1,0.00022888,2287.2,0.00023059,2341.6,-6.6019e-05,112.97,-8.1063e-05,-0.061961,0.98251
4811,13.707,1.8182,0.1,0.00023403,2338.7,0.00023585,2396.6,-6.7062e-05,120.71,-8.3138e-05,-0.079387,0.95813
4812,13.524,1.8182,0.1,0.00023941,2392.4,0.00024133,2454,-6.8187e-05,128.37,-8.5286e-05,-0.10248,0.93391
4813,13.34,1.8182,0.1,0.00024508,2449.1,0.0002471,2514.1,-6.9432e-05,135.77,-8.7519e-05,-0.13324,0.90985
4814,13.156,1.8182,0.1,0.00025113,2509.6,0.00025325,2577.8,-7.0847e-05,142.63,-8.9853e-05,-0.17451,0.88596
4815,12.972,1.8182,0.1,0.00025768,2575,0.00025988,2646,-7.2504e-05,148.55,-9.2305e-05,-0.23055,0.86224
4816,12.788,1.8182,0.1,0.00026487,2646.9,0.00026713,2719.9,-7.4508e-05,152.88,-9.4896e-05,-0.30802,0.8387
4817,12.605,1.8182,0.1,0.00027293,2727.4,0.00027522,2801.2,-7.7015e-05,154.65,-9.7653e-05,-0.41962,0.81534
4818,12.421,1.8182,0.1,0.00028217,2819.8,0.00028444,2892.5,-8.0262e-05,152.28,-0.00010061,-0.58739,0.79216
4819,12.237,1.8182,0.1,0.00029309,2928.9,0.00029524,2997.4,-8.4621e-05,143.23,-0.0001038,-0.87503,0.76917
4820,12.053,1.8182,0.1,0.00030643,3062.2,0.00030831,3121.3,-9.0679e-05,123.39,-0.00010729,-1.4203,0.74638
4821,11.869,1.8182,0.1,0.00032342,3232,0.00032475,3272.7,-9.9346e-05,86.199,-0.00011122,-3.0407,0.72379
4822,11.686,1.8182,0.1,0.00034608,3458.4,0.00034629,3465,-0.00011116,27.95,-0.00011678,-14.317,0.70141
4823,11.502,1.8182,0.1,0.00037809,3778.3,0.00037603,3720.8,-0.00011843,5.5845,-0.00013482,-117.56,0.67925
4824,11.318,1.8182,0.1,0.00042612,4258.2,0.00041932,4079.4,-0.00012269,6.8947,-0.00016927,-343.04,0.65732
4825,11.134,1.8182,0.1,0.00051345,5130.9,0.00049273,4631.3,-0.00012445,-6.0245,-0.00024088,-880.79,0.63562
4826,10.95,1.8182,0.1,0.00071564,7151.5,0.00064921,5784.5,-0.00010456,120.89,-0.00042034,-2251.8,0.61415
4827,23.816,2,0.1,1.834e-05,183.28,9.2677e-06,39.664,3.9632e-06,-0.19236,-1.7341e-05,-160.26,2.4517
4828,23.632,2,0.1,2.008e-05,200.66,1.2782e-05,78.17,2.3357e-06,-0.32194,-1.7569e-05,-149.88,2.4231
4829,23.449,2,0.1,2.2262e-05,222.47,1.63e-05,116.69,7.5086e-07,-0.13834,-1.7844e-05,-139.85,2.3945
4830,23.265,2,0.1,2.4772e-05,247.55,1.9828e-05,155.07,-8.266e-07,-0.1212,-1.8167e-05,-130.41,2.3659
4831,23.081,2,0.1,2.7524e-05,275.05,2.3365e-05,193.37,-2.3827e-06,-0.090052,-1.854e-05,-121.49,2.3373
4832,22.897,2,0.1,3.046e-05,304.39,2.6917e-05,231.63,-3.9216e-06,-0.075157,-1.8965e-05,-113.1,2.3088
4833,22.713,2,0.1,3.3541e-05,335.17,3.0487e-05,269.91,-5.4442e-06,-0.063079,-1.9442e-05,-105.24,2.2802
4834,22.53,2,0.1,3.6737e-05,367.12,3.408e-05,308.25,-6.9526e-06,-0.054474,-1.9971e-05,-97.872,2.2517
4835,22.346,2,0.1,4.0029e-05,400.01,3.7697e-05,346.67,-8.4483e-06,-0.047712,-2.0551e-05,-90.982,2.2232
4836,22.162,2,0.1,4.3402e-05,433.72,4.1341e-05,385.21,-9.9334e-06,-0.042353,-2.1179e-05,-84.539,2.1948
4837,21.978,2,0.1,4.6845e-05,468.13,4.5013e-05,423.9,-1.1409e-05,-0.037985,-2.1854e-05,-78.513,2.1663
4838,21.794,2,0.1,5.035e-05,503.15,4.8713e-05,462.73,-1.2878e-05,-0.034359,-2.2572e-05,-72.874,2.1379
4839,21.611,2,0.1,5.391e-05,538.73,5.2441e-05,501.73,-1.434e-05,-0.031291,-2.3331e-05,-67.59,2.1095
4840,21.427,2,0.1,5.7519e-05,574.8,5.6197e-05,540.9,-1.5797e-05,-0.028671,-2.4129e-05,-62.633,2.0812
4841,21.243,2,0.1,6.1174e-05,611.32,5.9981e-05,580.26,-1.725e-05,-0.026406,-2.4962e-05,-57.973,2.0529
4842,21.059,2,0.1,6.4871e-05,648.27,6.3793e-05,619.8,-1.8701e-05,-0.024432,-2.5829e-05,-53.582,2.0246
4843,20.875,2,0.1,6.8607e-05,685.6,6.7632e-05,659.53,-2.0149e-05,-0.022704,-2.6726e-05,-49.434,1.9964
4844,20.692,2,0.1,7.2379e-05,723.29,7.1497e-05,699.46,-2.1597e-05,-0.021173,-2.7651e-05,-45.505,1.9682
4845,20.508,2,0.1,7.6185e-05,761.33,7.5388e-05,739.57,-2.3045e-05,-0.019789,-2.8602e-05,-41.77,1.9401
4846,20.324,2,0.1,8.0024e-05,799.68,7.9305e-05,779.89,-2.4494e-05,-0.01854,-2.9577e-05,-38.207,1.912
4847,20.14,2,0.1,8.3892e-05,838.34,8.3246e-05,820.4,-2.5945e-05,-0.017412,-3.0573e-05,-34.794,1.884
4848,19.956,2,0.1,8.779e-05,877.29,8.7211e-05,861.1,-2.7397e-05,-0.016381,-3.1589e-05,-31.51,1.856
4849,19.773,2,0.1,9.1714e-05,916.51,9.1199e-05,902.01,-2.8853e-05,-0.015449,-3.2622e-05,-28.335,1.8281
4850,19.589,2,0.1,9.5665e-05,955.99,9.521e-05,943.11,-3.0312e-05,-0.014579,-3.367e-05,-25.25,1.8002
4851,19.405,2,0.1,9.9641e-05,995.72,9.9243e-05,984.41,-3.1775e-05,-0.013743,-3.4733e-05,-22.236,1.7725
4852,19.221,2,0.1,0.00010364,1035.7,0.0001033,1025.9,-3.3243e-05,-0.012943,-3.5806e-05,-19.273,1.7447
4853,19.038,2,0.1,0.00010766,1075.9,0.00010737,1067.6,-3.4716e-05,-0.01216,-3.689e-05,-16.345,1.7171
4854,18.854,2,0.1,0.0001117,1116.3,0.00011147,1109.5,-3.6196e-05,-0.011367,-3.7982e-05,-13.432,1.6895
4855,18.67,2,0.1,0.00011577,1156.9,0.00011558,1151.6,-3.7681e-05,-0.010519,-3.908e-05,-10.518,1.662
4856,18.486,2,0.1,0.00011985,1197.7,0.00011972,1193.8,-3.9174e-05,-0.0094516,-4.0182e-05,-7.5844,1.6346
4857,18.302,2,0.1,0.00012395,1238.6,0.00012387,1236.3,-4.0675e-05,-0.0076259,-4.1288e-05,-4.6134,1.6072
4858,18.119,2,0.1,0.00012807,1279.8,0.00012804,1279,-4.2183e-05,-0.00058986,-4.2395e-05,-1.5916,1.58
4859,17.935,2,0.1,0.0001322,1321.1,0.00013222,1321.8,-4.3497e-05,1.5319,-4.3703e-05,-0.020546,1.5528
4860,17.751,2,0.1,0.00013635,1362.5,0.00013643,1364.9,-4.46e-05,4.7215,-4.523e-05,-0.013239,1.5257
4861,17.567,2,0.1,0.00014051,1404.2,0.00014065,1408.2,-4.5697e-05,8.0295,-4.6767e-05,-0.011551,1.4987
4862,17.383,2,0.1,0.00014469,1445.9,0.00014488,1451.6,-4.6788e-05,11.471,-4.8316e-05,-0.010685,1.4719
4863,17.2,2,0.1,0.00014888,1487.8,0.00014913,1495.3,-4.787e-05,15.066,-4.9876e-05,-0.01009,1.4451
4864,17.016,2,0.1,0.00015309,1529.8,0.0001534,1539.1,-4.8942e-05,18.835,-5.145e-05,-0.009657,1.4184
4865,16.832,2,0.1,0.0001573,1572,0.00015768,1583.2,-5.0001e-05,22.8,-5.3036e-05,-0.009342,1.3918
4866,16.648,2,0.1,0.00016153,1614.2,0.00016198,1627.5,-5.1045e-05,26.983,-5.4638e-05,-0.0091344,1.3653
4867,16.464,2,0.1,0.00016578,1656.6,0.00016629,1672.1,-5.2074e-05,31.408,-5.6255e-05,-0.0090522,1.3389
4868,16.281,2,0.1,0.00017003,1699.1,0.00017062,1716.9,-5.3084e-05,36.098,-5.789e-05,-0.0090779,1.3126
4869,16.097,2,0.1,0.0001743,1741.8,0.00017496,1762,-5.4075e-05,41.077,-5.9543e-05,-0.0091967,1.2865
4870,15.913,2,0.1,0.00017859,1784.7,0.00017933,1807.4,-5.5045e-05,46.369,-6.1217e-05,-0.0094746,1.2604
4871,15.729,2,0.1,0.0001829,1827.7,0.00018372,1853.1,-5.5992e-05,52,-6.2914e-05,-0.0099572,1.2345
4872,15.545,2,0.1,0.00018722,1871,0.00018814,1899.3,-5.6916e-05,57.993,-6.4635e-05,-0.010699,1.2087
4873,15.362,2,0.1,0.00019158,1914.5,0.0001926,1945.9,-5.7816e-05,64.371,-6.6385e-05,-0.011798,1.1831
4874,15.178,2,0.1,0.00019598,1958.4,0.00019709,1993,-5.8694e-05,71.156,-6.8166e-05,-0.013312,1.1576
4875,14.994,2,0.1,0.00020041,2002.8,0.00020163,2040.8,-5.955e-05,78.368,-6.9982e-05,-0.015329,1.1322
4876,14.81,2,0.1,0.00020491,2047.7,0.00020624,2089.3,-6.0387e-05,86.02,-7.1838e-05,-0.018053,1.1069
4877,14.626,2,0.1,0.00020948,2093.4,0.00021092,2138.8,-6.1211e-05,94.124,-7.3741e-05,-0.021705,1.0818
4878,14.443,2,0.1,0.00021415,2140,0.00021571,2189.5,-6.2027e-05,102.68,-7.5696e-05,-0.026568,1.0568
4879,14.259,2,0.1,0.00021894,2187.9,0.00022062,2241.5,-6.2845e-05,111.68,-7.7714e-05,-0.03304,1.032
4880,14.075,2,0.1,0.00022389,2237.3,0.0002257,2295.4,-6.368e-05,121.1,-7.9803e-05,-0.041557,1.0073
4881,13.891,2,0.1,0.00022904,2288.8,0.00023098,2351.4,-6.455e-05,130.89,-8.1977e-05,-0.05271,0.98275
4882,13.707,2,0.1,0.00023445,2342.9,0.00023653,2410.1,-6.5481e-05,140.97,-8.4252e-05,-0.067373,0.95838
4883,13.524,2,0.1,0.0002402,2400.3,0.00024241,2472.3,-6.6508e-05,151.22,-8.6646e-05,-0.086638,0.93416
4884,13.34,2,0.1,0.00024638,2462.1,0.00024873,2538.8,-6.7679e-05,161.45,-8.9182e-05,-0.11195,0.91011
4885,13.156,2,0.1,0.00025313,2529.5,0.0002556,2610.8,-6.906e-05,171.39,-9.189e-05,-0.14528,0.88622
4886,12.972,2,0.1,0.0002606,2604.2,0.0002632,2689.7,-7.0743e-05,180.6,-9.4805e-05,-0.18932,0.86251
4887,12.788,2,0.1,0.00026903,2688.4,0.00027173,2777.5,-7.2855e-05,188.46,-9.797e-05,-0.24772,0.83898
4888,12.605,2,0.1,0.00027871,2785.2,0.0002815,2877,-7.5582e-05,193.99,-0.00010144,-0.32775,0.81563
4889,12.421,2,0.1,0.0002901,2899,0.00029292,2991.7,-7.9192e-05,195.73,-0.0001053,-0.43642,0.79247
4890,12.237,2,0.1,0.00030382,3036.1,0.00030661,3127,-8.4087e-05,191.4,-0.00010964,-0.61191,0.7695
4891,12.053,2,0.1,0.00032083,3206.1,0.00032347,3290.7,-9.088e-05,177.49,-0.00011461,-0.84351,0.74674
4892,11.869,2,0.1,0.00034267,3424.4,0.00034492,3495.3,-0.00010052,148.41,-0.00012048,-1.5441,0.7242
4893,11.686,2,0.1,0.00037179,3715.3,0.00037328,3761.1,-0.00011452,95.962,-0.00012761,-2.4335,0.70187
4894,11.502,2,0.1,0.00041299,4127.1,0.00041289,4124.4,-0.00013377,16.981,-0.00013897,-22.081,0.67979
4895,11.318,2,0.1,0.00047484,4745.1,0.00047189,4663.7,-0.000147,13.585,-0.00017157,-171,0.65797
4896,11.134,2,0.1,0.00058173,5813.3,0.00057113,5524.9,-0.00017241,-61.842,-0.00022956,-491.23,0.63642
4897,10.95,2,0.1,0.00087547,8748.7,0.00084256,8084.1,-0.00017471,440.7,-0.00042742,-1458.1,0.61519
4898,23.816,2.1818,0.1,1.8796e-05,187.83,9.4184e-06,39.627,4.1177e-06,-0.19994,-1.7806e-05,-164.93,2.4518
4899,23.632,2.1818,0.1,2.0524e-05,205.1,1.2944e-05,78.248,2.4861e-06,-0.32571,-1.8036e-05,-154.52,2.4231
4900,23.449,2.1818,0.1,2.2686e-05,226.71,1.647e-05,116.88,8.9553e-07,-0.14101,-1.8308e-05,-144.43,2.3946
4901,23.265,2.1818,0.1,2.5174e-05,251.56,2.0005e-05,155.36,-6.8873e-07,-0.12353,-1.8623e-05,-134.88,2.366
4902,23.081,2.1818,0.1,2.7903e-05,278.83,2.3545e-05,193.74,-2.2523e-06,-0.092152,-1.8985e-05,-125.82,2.3374
4903,22.897,2.1818,0.1,3.0816e-05,307.94,2.7098e-05,232.07,-3.7992e-06,-0.077112,-1.9395e-05,-117.26,2.3088
4904,22.713,2.1818,0.1,3.3872e-05,338.49,3.0666e-05,270.4,-5.3298e-06,-0.064937,-1.9854e-05,-109.2,2.2803
4905,22.53,2.1818,0.1,3.7044e-05,370.19,3.4254e-05,308.76,-6.8461e-06,-0.05626,-2.0362e-05,-101.61,2.2518
4906,22.346,2.1818,0.1,4.0312e-05,402.84,3.7864e-05,347.18,-8.3497e-06,-0.049442,-2.0918e-05,-94.486,2.2233
4907,22.162,2.1818,0.1,4.3661e-05,436.3,4.1499e-05,385.71,-9.8422e-06,-0.044039,-2.1522e-05,-87.801,2.1948
4908,21.978,2.1818,0.1,4.708e-05,470.47,4.5159e-05,424.36,-1.1325e-05,-0.039629,-2.2171e-05,-81.53,2.1664
4909,21.794,2.1818,0.1,5.0561e-05,505.26,4.8847e-05,463.16,-1.28e-05,-0.035964,-2.2863e-05,-75.646,2.138
4910,21.611,2.1818,0.1,5.4098e-05,540.6,5.2562e-05,502.11,-1.4269e-05,-0.032855,-2.3597e-05,-70.123,2.1096
4911,21.427,2.1818,0.1,5.7685e-05,576.45,5.6305e-05,541.23,-1.5732e-05,-0.030192,-2.4369e-05,-64.932,2.0813
4912,21.243,2.1818,0.1,6.1319e-05,612.77,6.0076e-05,580.52,-1.719e-05,-0.027886,-2.5178e-05,-60.046,2.053
4913,21.059,2.1818,0.1,6.4996e-05,649.51,6.3875e-05,620,-1.8646e-05,-0.025871,-2.6021e-05,-55.44,2.0247
4914,20.875,2.1818,0.1,6.8713e-05,686.66,6.7701e-05,659.67,-2.01e-05,-0.024102,-2.6896e-05,-51.086,1.9965
4915,20.692,2.1818,0.1,7.2467e-05,724.17,7.1554e-05,699.54,-2.1552e-05,-0.02253,-2.7799e-05,-46.961,1.9683
4916,20.508,2.1818,0.1,7.6257e-05,762.04,7.5433e-05,739.6,-2.3004e-05,-0.021106,-2.873e-05,-43.039,1.9402
4917,20.324,2.1818,0.1,8.0079e-05,800.24,7.9338e-05,779.85,-2.4457e-05,-0.01982,-2.9685e-05,-39.299,1.9121
4918,20.14,2.1818,0.1,8.3933e-05,838.75,8.3268e-05,820.31,-2.5911e-05,-0.018655,-3.0662e-05,-35.716,1.8841
4919,19.956,2.1818,0.1,8.7816e-05,877.55,8.7222e-05,860.96,-2.7368e-05,-0.017591,-3.166e-05,-32.27,1.8561
4920,19.773,2.1818,0.1,9.1727e-05,916.64,9.12e-05,901.82,-2.8827e-05,-0.016627,-3.2676e-05,-28.94,1.8282
4921,19.589,2.1818,0.1,9.5665e-05,955.99,9.5202e-05,942.87,-3.0289e-05,-0.015731,-3.3708e-05,-25.705,1.8004
4922,19.405,2.1818,0.1,9.9628e-05,995.59,9.9225e-05,984.12,-3.1755e-05,-0.014873,-3.4754e-05,-22.545,1.7726
4923,19.221,2.1818,0.1,0.00010362,1035.4,0.00010327,1025.6,-3.3227e-05,-0.014055,-3.5812e-05,-19.44,1.7449
4924,19.038,2.1818,0.1,0.00010762,1075.5,0.00010734,1067.2,-3.4703e-05,-0.013268,-3.688e-05,-16.371,1.7172
4925,18.854,2.1818,0.1,0.00011166,1115.8,0.00011142,1109.1,-3.6186e-05,-0.012485,-3.7957e-05,-13.318,1.6896
4926,18.67,2.1818,0.1,0.00011571,1156.3,0.00011553,1151.1,-3.7675e-05,-0.011671,-3.9039e-05,-10.264,1.6621
4927,18.486,2.1818,0.1,0.00011978,1197,0.00011965,1193.3,-3.9171e-05,-0.010679,-4.0126e-05,-7.187,1.6347
4928,18.302,2.1818,0.1,0.00012387,1237.8,0.0001238,1235.8,-4.0675e-05,-0.0089813,-4.1216e-05,-4.0694,1.6074
4929,18.119,2.1818,0.1,0.00012797,1278.9,0.00012796,1278.4,-4.2187e-05,0.0011816,-4.2306e-05,-0.89881,1.5801
4930,17.935,2.1818,0.1,0.0001321,1320,0.00013214,1321.2,-4.3392e-05,2.3803,-4.3711e-05,-0.01534,1.553
4931,17.751,2.1818,0.1,0.00013623,1361.4,0.00013633,1364.2,-4.4476e-05,5.7426,-4.5242e-05,-0.012235,1.5259
4932,17.567,2.1818,0.1,0.00014038,1402.9,0.00014054,1407.5,-4.5554e-05,9.2314,-4.6784e-05,-0.011145,1.4989
4933,17.383,2.1818,0.1,0.00014455,1444.5,0.00014476,1450.9,-4.6624e-05,12.868,-4.8338e-05,-0.010467,1.472
4934,17.2,2.1818,0.1,0.00014873,1486.3,0.000149,1494.5,-4.7684e-05,16.674,-4.9905e-05,-0.0099317,1.4452
4935,17.016,2.1818,0.1,0.00015292,1528.1,0.00015326,1538.4,-4.8732e-05,20.676,-5.1485e-05,-0.0094992,1.4185
4936,16.832,2.1818,0.1,0.00015712,1570.1,0.00015753,1582.4,-4.9764e-05,24.899,-5.3079e-05,-0.0091503,1.3919
4937,16.648,2.1818,0.1,0.00016134,1612.2,0.00016181,1626.7,-5.078e-05,29.369,-5.469e-05,-0.0088782,1.3654
4938,16.464,2.1818,0.1,0.00016556,1654.5,0.00016612,1671.3,-5.1776e-05,34.115,-5.6317e-05,-0.0087117,1.3391
4939,16.281,2.1818,0.1,0.0001698,1696.8,0.00017043,1716.1,-5.275e-05,39.167,-5.7964e-05,-0.0086242,1.3128
4940,16.097,2.1818,0.1,0.00017406,1739.4,0.00017477,1761.2,-5.3701e-05,44.556,-5.9632e-05,-0.0086057,1.2867
4941,15.913,2.1818,0.1,0.00017833,1782,0.00017913,1806.7,-5.4625e-05,50.315,-6.1323e-05,-0.0087173,1.2606
4942,15.729,2.1818,0.1,0.00018262,1824.9,0.00018351,1852.5,-5.5523e-05,56.476,-6.304e-05,-0.008999,1.2347
4943,15.545,2.1818,0.1,0.00018693,1868,0.00018793,1898.8,-5.6391e-05,63.075,-6.4787e-05,-0.0094977,1.2089
4944,15.362,2.1818,0.1,0.00019128,1911.5,0.00019238,1945.6,-5.7229e-05,70.147,-6.6566e-05,-0.010305,1.1833
4945,15.178,2.1818,0.1,0.00019567,1955.3,0.00019687,1993,-5.8037e-05,77.726,-6.8383e-05,-0.011464,1.1577
4946,14.994,2.1818,0.1,0.00020011,1999.7,0.00020143,2041.2,-5.8816e-05,85.845,-7.0243e-05,-0.013049,1.1324
4947,14.81,2.1818,0.1,0.00020462,2044.7,0.00020606,2090.4,-5.9569e-05,94.537,-7.2153e-05,-0.015246,1.1071
4948,14.626,2.1818,0.1,0.00020921,2090.7,0.00021078,2140.7,-6.03e-05,103.83,-7.4121e-05,-0.018245,1.082
4949,14.443,2.1818,0.1,0.00021393,2137.8,0.00021563,2192.4,-6.1016e-05,113.73,-7.6156e-05,-0.0223,1.057
4950,14.259,2.1818,0.1,0.00021879,2186.4,0.00022064,2245.9,-6.173e-05,124.26,-7.8271e-05,-0.027758,1.0322
4951,14.075,2.1818,0.1,0.00022386,2237,0.00022585,2301.6,-6.2455e-05,135.4,-8.0481e-05,-0.034997,1.0075
4952,13.891,2.1818,0.1,0.00022918,2290.2,0.00023132,2360.2,-6.3216e-05,147.12,-8.2803e-05,-0.04452,0.98295
4953,13.707,2.1818,0.1,0.00023483,2346.7,0.00023714,2422.3,-6.4044e-05,159.35,-8.5259e-05,-0.057082,0.95858
4954,13.524,2.1818,0.1,0.00024092,2407.6,0.00024339,2488.9,-6.4981e-05,171.95,-8.7877e-05,-0.0736,0.93437
4955,13.34,2.1818,0.1,0.00024758,2474.1,0.0002502,2561.2,-6.6088e-05,184.74,-9.0689e-05,-0.095255,0.91032
4956,13.156,2.1818,0.1,0.00025496,2547.9,0.00025774,2640.8,-6.7447e-05,197.41,-9.3737e-05,-0.12358,0.88644
4957,12.972,2.1818,0.1,0.0002633,2631.2,0.00026623,2729.6,-6.917e-05,209.48,-9.7072e-05,-0.16051,0.86273
4958,12.788,2.1818,0.1,0.00027289,2727,0.00027596,2830.3,-7.1415e-05,220.28,-0.00010076,-0.20836,0.83921
4959,12.605,2.1818,0.1,0.00028411,2839.2,0.00028731,2946.5,-7.44e-05,228.77,-0.00010488,-0.27153,0.81587
4960,12.421,2.1818,0.1,0.00029754,2973.3,0.00030081,3082.9,-7.8437e-05,233.43,-0.00010955,-0.3517,0.79272
4961,12.237,2.1818,0.1,0.00031393,3137.2,0.00031723,3246.5,-8.3975e-05,232.01,-0.00011492,-0.47204,0.76978
4962,12.053,2.1818,0.1,0.00033445,3342.2,0.00033765,3447,-9.1673e-05,221.21,-0.00012119,-0.58975,0.74705
4963,11.869,2.1818,0.1,0.00036087,3606.2,0.00036379,3699.7,-0.00010253,195.99,-0.00012875,-0.99543,0.72454
4964,11.686,2.1818,0.1,0.00039603,3957.6,0.00039835,4029.7,-0.00011812,149.18,-0.00013807,-0.73517,0.70227
4965,11.502,2.1818,0.1,0.00044528,4449.7,0.00044631,4480.9,-0.00014102,67.944,-0.00015067,-4.5369,0.68027
4966,11.318,2.1818,0.1,0.00051764,5172.9,0.0005166,5143,-0.0001671,5.971,-0.00017653,-64.871,0.65854
4967,11.134,2.1818,0.1,0.00064157,6411.3,0.00063549,6241.2,-0.00019882,-27.484,-0.00023559,-303.7,0.63714
4968,10.95,2.1818,0.1,0.00087169,8710.9,0.00085763,8341.6,-0.00025041,16.259,-0.00034698,-709.32,0.61612
4969,23.816,2.3636,0.1,1.9156e-05,191.43,9.5368e-06,39.595,4.2396e-06,-0.20574,-1.8173e-05,-168.6,2.4518
4970,23.632,2.3636,0.1,2.0874e-05,208.6,1.307e-05,78.302,2.605e-06,-0.32853,-1.8404e-05,-158.18,2.4232
4971,23.449,2.3636,0.1,2.3022e-05,230.06,1.6603e-05,117.02,1.0102e-06,-0.14299,-1.8674e-05,-148.04,2.3946
4972,23.265,2.3636,0.1,2.5492e-05,254.75,2.0143e-05,155.57,-5.7924e-07,-0.12527,-1.8984e-05,-138.41,2.366
4973,23.081,2.3636,0.1,2.8204e-05,281.84,2.3687e-05,194.03,-2.1485e-06,-0.093712,-1.9338e-05,-129.25,2.3374
4974,22.897,2.3636,0.1,3.1099e-05,310.77,2.7241e-05,232.41,-3.7014e-06,-0.078562,-1.9737e-05,-120.56,2.3089
4975,22.713,2.3636,0.1,3.4137e-05,341.14,3.0809e-05,270.78,-5.2383e-06,-0.066306,-2.0182e-05,-112.35,2.2804
4976,22.53,2.3636,0.1,3.7291e-05,372.65,3.4393e-05,309.16,-6.7608e-06,-0.057577,-2.0675e-05,-104.6,2.2518
4977,22.346,2.3636,0.1,4.054e-05,405.12,3.7998e-05,347.59,-8.2705e-06,-0.05072,-2.1213e-05,-97.298,2.2233
4978,22.162,2.3636,0.1,4.387e-05,438.39,4.1626e-05,386.11,-9.769e-06,-0.045284,-2.1798e-05,-90.426,2.1949
4979,21.978,2.3636,0.1,4.727e-05,472.37,4.5278e-05,424.75,-1.1258e-05,-0.040847,-2.2427e-05,-83.965,2.1664
4980,21.794,2.3636,0.1,5.0733e-05,506.98,4.8956e-05,463.51,-1.2738e-05,-0.037155,-2.3099e-05,-77.89,2.138
4981,21.611,2.3636,0.1,5.4252e-05,542.14,5.2662e-05,502.42,-1.4211e-05,-0.034023,-2.3813e-05,-72.177,2.1097
4982,21.427,2.3636,0.1,5.7822e-05,577.82,5.6394e-05,541.5,-1.5679e-05,-0.031335,-2.4565e-05,-66.8,2.0813
4983,21.243,2.3636,0.1,6.1439e-05,613.96,6.0155e-05,580.75,-1.7142e-05,-0.029001,-2.5355e-05,-61.735,2.053
4984,21.059,2.3636,0.1,6.51e-05,650.55,6.3943e-05,620.19,-1.8602e-05,-0.026957,-2.6179e-05,-56.956,2.0248
4985,20.875,2.3636,0.1,6.8801e-05,687.54,6.7759e-05,659.81,-2.006e-05,-0.025161,-2.7035e-05,-52.437,1.9965
4986,20.692,2.3636,0.1,7.2541e-05,724.91,7.1601e-05,699.62,-2.1516e-05,-0.023559,-2.7921e-05,-48.153,1.9684
4987,20.508,2.3636,0.1,7.6317e-05,762.64,7.5471e-05,739.63,-2.2971e-05,-0.022108,-2.8835e-05,-44.08,1.9402
4988,20.324,2.3636,0.1,8.0126e-05,800.71,7.9366e-05,779.84,-2.4427e-05,-0.020796,-2.9774e-05,-40.195,1.9122
4989,20.14,2.3636,0.1,8.3968e-05,839.1,8.3287e-05,820.25,-2.5885e-05,-0.019605,-3.0737e-05,-36.475,1.8842
4990,19.956,2.3636,0.1,8.7839e-05,877.79,8.7233e-05,860.87,-2.7344e-05,-0.018517,-3.172e-05,-32.898,1.8562
4991,19.773,2.3636,0.1,9.1739e-05,916.76,9.1203e-05,901.68,-2.8805e-05,-0.017532,-3.2721e-05,-29.441,1.8283
4992,19.589,2.3636,0.1,9.5667e-05,956.01,9.5196e-05,942.69,-3.0271e-05,-0.01662,-3.374e-05,-26.083,1.8004
4993,19.405,2.3636,0.1,9.962e-05,995.51,9.9212e-05,983.91,-3.174e-05,-0.015747,-3.4773e-05,-22.804,1.7727
4994,19.221,2.3636,0.1,0.0001036,1035.3,0.00010325,1025.3,-3.3214e-05,-0.014925,-3.5818e-05,-19.583,1.745
4995,19.038,2.3636,0.1,0.0001076,1075.2,0.00010731,1066.9,-3.4693e-05,-0.014138,-3.6874e-05,-16.399,1.7173
4996,18.854,2.3636,0.1,0.00011162,1115.4,0.00011139,1108.7,-3.6178e-05,-0.013373,-3.7937e-05,-13.232,1.6897
4997,18.67,2.3636,0.1,0.00011566,1155.8,0.00011549,1150.7,-3.767e-05,-0.012605,-3.9007e-05,-10.062,1.6622
4998,18.486,2.3636,0.1,0.00011972,1196.4,0.0001196,1193,-3.9169e-05,-0.01172,-4.0081e-05,-6.8681,1.6348
4999,18.302,2.3636,0.1,0.0001238,1237.2,0.00012374,1235.4,-4.0676e-05,-0.01027,-4.1158e-05,-3.6299,1.6075
5000,18.119,2.3636,0.1,0.0001279,1278.1,0.00012789,1277.9,-4.2189e-05,0.0088764,-4.2236e-05,-0.34336,1.5802
5001,17.935,2.3636,0.1,0.00013201,1319.2,0.00013206,1320.7,-4.3307e-05,3.0727,-4.3717e-05,-0.013322,1.5531
5002,17.751,2.3636,0.1,0.00013614,1360.5,0.00013625,1363.7,-4.4376e-05,6.5758,-4.5253e-05,-0.011681,1.526
5003,17.567,2.3636,0.1,0.00014028,1401.8,0.00014045,1406.9,-4.5438e-05,10.214,-4.6799e-05,-0.010893,1.499
5004,17.383,2.3636,0.1,0.00014444,1443.4,0.00014467,1450.3,-4.6491e-05,14.012,-4.8357e-05,-0.010315,1.4721
5005,17.2,2.3636,0.1,0.0001486,1485,0.0001489,1493.9,-4.7532e-05,17.996,-4.9929e-05,-0.0098052,1.4453
5006,17.016,2.3636,0.1,0.00015278,1526.8,0.00015315,1537.7,-4.8559e-05,22.192,-5.1514e-05,-0.009359,1.4186
5007,16.832,2.3636,0.1,0.00015697,1568.6,0.00015741,1581.8,-4.9569e-05,26.63,-5.3115e-05,-0.0089701,1.3921
5008,16.648,2.3636,0.1,0.00016117,1610.6,0.00016168,1626.1,-5.056e-05,31.342,-5.4733e-05,-0.0086383,1.3656
5009,16.464,2.3636,0.1,0.00016539,1652.7,0.00016597,1670.6,-5.1529e-05,36.359,-5.6369e-05,-0.0083898,1.3392
5010,16.281,2.3636,0.1,0.00016961,1695,0.00017028,1715.4,-5.2473e-05,41.718,-5.8026e-05,-0.0082027,1.3129
5011,16.097,2.3636,0.1,0.00017385,1737.3,0.00017461,1760.6,-5.339e-05,47.455,-5.9706e-05,-0.0080614,1.2868
5012,15.913,2.3636,0.1,0.00017811,1779.9,0.00017896,1806.1,-5.4276e-05,53.61,-6.1412e-05,-0.008024,1.2608
5013,15.729,2.3636,0.1,0.00018239,1822.6,0.00018334,1852,-5.513e-05,60.224,-6.3147e-05,-0.0081251,1.2349
5014,15.545,2.3636,0.1,0.00018669,1865.6,0.00018774,1898.4,-5.595e-05,67.341,-6.4914e-05,-0.0084086,1.2091
5015,15.362,2.3636,0.1,0.00019103,1909,0.00019219,1945.4,-5.6735e-05,75.007,-6.6719e-05,-0.0089552,1.1834
5016,15.178,2.3636,0.1,0.00019541,1952.7,0.00019669,1993,-5.7483e-05,83.268,-6.8567e-05,-0.0098008,1.1579
5017,14.994,2.3636,0.1,0.00019985,1997.1,0.00020126,2041.6,-5.8196e-05,92.17,-7.0464e-05,-0.011006,1.1325
5018,14.81,2.3636,0.1,0.00020437,2042.3,0.00020591,2091.2,-5.8875e-05,101.76,-7.242e-05,-0.012742,1.1072
5019,14.626,2.3636,0.1,0.00020899,2088.4,0.00021067,2142.2,-5.9526e-05,112.07,-7.4443e-05,-0.015183,1.0821
5020,14.443,2.3636,0.1,0.00021374,2135.9,0.00021557,2194.8,-6.0156e-05,123.14,-7.6547e-05,-0.018556,1.0572
5021,14.259,2.3636,0.1,0.00021867,2185.2,0.00022065,2249.5,-6.0777e-05,134.99,-7.8746e-05,-0.023184,1.0323
5022,14.075,2.3636,0.1,0.00022383,2236.8,0.00022598,2306.9,-6.1408e-05,147.62,-8.1059e-05,-0.029409,1.0076
5023,13.891,2.3636,0.1,0.0002293,2291.4,0.00023161,2367.7,-6.2075e-05,161,-8.3507e-05,-0.037699,0.98312
5024,13.707,2.3636,0.1,0.00023517,2350.1,0.00023765,2432.7,-6.2814e-05,175.06,-8.6119e-05,-0.048758,0.95874
5025,13.524,2.3636,0.1,0.00024155,2413.9,0.00024422,2503.1,-6.3677e-05,189.66,-8.8928e-05,-0.063455,0.93453
5026,13.34,2.3636,0.1,0.00024862,2484.5,0.00025146,2580.4,-6.4736e-05,204.59,-9.1976e-05,-0.0829,0.91049
5027,13.156,2.3636,0.1,0.00025657,2563.9,0.00025959,2666.5,-6.6089e-05,219.49,-9.5315e-05,-0.10855,0.88661
5028,12.972,2.3636,0.1,0.00026567,2654.9,0.00026887,2764,-6.7873e-05,233.81,-9.901e-05,-0.14215,0.86291
5029,12.788,2.3636,0.1,0.00027629,2761,0.00027966,2876,-7.0277e-05,246.74,-0.00010314,-0.18587,0.83939
5030,12.605,2.3636,0.1,0.00028891,2887.1,0.00029242,3006.9,-7.3561e-05,257.09,-0.00010781,-0.24279,0.81606
5031,12.421,2.3636,0.1,0.00030417,3039.6,0.00030778,3162.4,-7.8095e-05,263.08,-0.00011315,-0.31575,0.79293
5032,12.237,2.3636,0.1,0.00032299,3227.7,0.00032664,3350.5,-8.4399e-05,262.12,-0.00011934,-0.41233,0.77
5033,12.053,2.3636,0.1,0.00034666,3464.2,0.00035023,3582.4,-9.3221e-05,250.44,-0.00012662,-0.53203,0.7473
5034,11.869,2.3636,0.1,0.00037711,3768.5,0.00038039,3874.4,-0.00010566,222.43,-0.00013536,-0.71285,0.72482
5035,11.686,2.3636,0.1,0.00041732,4170.3,0.00041992,4252.1,-0.00012339,169.78,-0.00014612,-0.98953,0.70261
5036,11.502,2.3636,0.1,0.00047207,4717.5,0.00047336,4756.3,-0.00014905,79.721,-0.0001598,-1.0379,0.68066
5037,11.318,2.3636,0.1,0.00054998,5496,0.00054868,5458.6,-0.00017823,-3.1531,-0.00018726,-70.997,0.65903
5038,11.134,2.3636,0.1,0.00066361,6631.6,0.00065781,6472.4,-0.00020253,8.1606,-0.00024549,-314.63,0.63775
5039,10.95,2.3636,0.1,0.00082677,8262,0.00081228,7883.8,-0.00023512,14.061,-0.00033299,-721.28,0.61689
5040,23.816,2.5455,0.1,1.9423e-05,194.09,9.6244e-06,39.569,4.3302e-06,-0.20994,-1.8445e-05,-171.33,2.4518
5041,23.632,2.5455,0.1,2.1134e-05,211.2,1.3164e-05,78.338,2.6934e-06,-0.33054,-1.8677e-05,-160.9,2.4232
5042,23.449,2.5455,0.1,2.3271e-05,232.55,1.6701e-05,117.11,1.0955e-06,-0.14441,-1.8945e-05,-150.72,2.3946
5043,23.265,2.5455,0.1,2.5729e-05,257.12,2.0245e-05,155.73,-4.9759e-07,-0.1265,-1.9252e-05,-141.04,2.3661
5044,23.081,2.5455,0.1,2.8428e-05,284.09,2.3792e-05,194.23,-2.071e-06,-0.094812,-1.96e-05,-131.8,2.3375
5045,22.897,2.5455,0.1,3.1311e-05,312.89,2.7347e-05,232.66,-3.6283e-06,-0.079584,-1.9992e-05,-123.03,2.3089
5046,22.713,2.5455,0.1,3.4336e-05,343.12,3.0915e-05,271.06,-5.1697e-06,-0.067273,-2.0428e-05,-114.71,2.2804
5047,22.53,2.5455,0.1,3.7476e-05,374.5,3.4497e-05,309.46,-6.6968e-06,-0.058507,-2.0909e-05,-106.84,2.2519
5048,22.346,2.5455,0.1,4.0711e-05,406.83,3.8098e-05,347.9,-8.211e-06,-0.051622,-2.1435e-05,-99.41,2.2234
5049,22.162,2.5455,0.1,4.4028e-05,439.97,4.1721e-05,386.42,-9.7138e-06,-0.046165,-2.2006e-05,-92.403,2.1949
5050,21.978,2.5455,0.1,4.7414e-05,473.82,4.5368e-05,425.04,-1.1207e-05,-0.041711,-2.2621e-05,-85.802,2.1665
5051,21.794,2.5455,0.1,5.0863e-05,508.28,4.9039e-05,463.78,-1.2691e-05,-0.038002,-2.3278e-05,-79.586,2.1381
5052,21.611,2.5455,0.1,5.4369e-05,543.31,5.2738e-05,502.67,-1.4168e-05,-0.03485,-2.3977e-05,-73.732,2.1097
5053,21.427,2.5455,0.1,5.7926e-05,578.86,5.6463e-05,541.71,-1.5639e-05,-0.032147,-2.4714e-05,-68.218,2.0814
5054,21.243,2.5455,0.1,6.1531e-05,614.88,6.0215e-05,580.93,-1.7106e-05,-0.029794,-2.5489e-05,-63.019,2.0531
5055,21.059,2.5455,0.1,6.5179e-05,651.34,6.3996e-05,620.33,-1.8569e-05,-0.027735,-2.6299e-05,-58.11,2.0248
5056,20.875,2.5455,0.1,6.887e-05,688.22,6.7804e-05,659.92,-2.0029e-05,-0.025919,-2.7142e-05,-53.466,1.9966
5057,20.692,2.5455,0.1,7.2598e-05,725.48,7.1639e-05,699.7,-2.1488e-05,-0.024301,-2.8015e-05,-49.062,1.9684
5058,20.508,2.5455,0.1,7.6364e-05,763.11,7.5501e-05,739.67,-2.2946e-05,-0.022831,-2.8916e-05,-44.876,1.9403
5059,20.324,2.5455,0.1,8.0163e-05,801.08,7.9389e-05,779.85,-2.4405e-05,-0.021502,-2.9843e-05,-40.882,1.9122
5060,20.14,2.5455,0.1,8.3995e-05,839.37,8.3303e-05,820.22,-2.5864e-05,-0.020293,-3.0794e-05,-37.057,1.8842
5061,19.956,2.5455,0.1,8.7858e-05,877.98,8.7242e-05,860.8,-2.7326e-05,-0.019191,-3.1766e-05,-33.38,1.8563
5062,19.773,2.5455,0.1,9.175e-05,916.87,9.1206e-05,901.58,-2.879e-05,-0.018192,-3.2757e-05,-29.826,1.8283
5063,19.589,2.5455,0.1,9.5669e-05,956.03,9.5193e-05,942.56,-3.0257e-05,-0.017267,-3.3765e-05,-26.376,1.8005
5064,19.405,2.5455,0.1,9.9615e-05,995.46,9.9203e-05,983.75,-3.1728e-05,-0.016387,-3.4788e-05,-23.006,1.7727
5065,19.221,2.5455,0.1,0.00010358,1035.1,0.00010324,1025.1,-3.3204e-05,-0.015561,-3.5823e-05,-19.696,1.745
5066,19.038,2.5455,0.1,0.00010758,1075,0.00010729,1066.7,-3.4685e-05,-0.014782,-3.6869e-05,-16.424,1.7174
5067,18.854,2.5455,0.1,0.00011159,1115.2,0.00011136,1108.5,-3.6172e-05,-0.014033,-3.7923e-05,-13.17,1.6898
5068,18.67,2.5455,0.1,0.00011563,1155.5,0.00011546,1150.5,-3.7666e-05,-0.013312,-3.8984e-05,-9.9118,1.6623
5069,18.486,2.5455,0.1,0.00011968,1196,0.00011957,1192.7,-3.9167e-05,-0.012537,-4.0048e-05,-6.6283,1.6349
5070,18.302,2.5455,0.1,0.00012375,1236.7,0.0001237,1235,-4.0677e-05,-0.011406,-4.1114e-05,-3.2976,1.6076
5071,18.119,2.5455,0.1,0.00012784,1277.6,0.00012785,1277.6,-4.2176e-05,0.12937,-4.2198e-05,-0.036831,1.5803
5072,17.935,2.5455,0.1,0.00013195,1318.6,0.00013201,1320.4,-4.3242e-05,3.5996,-4.3723e-05,-0.012355,1.5532
5073,17.751,2.5455,0.1,0.00013607,1359.8,0.00013619,1363.3,-4.4299e-05,7.2105,-4.5261e-05,-0.011362,1.5261
5074,17.567,2.5455,0.1,0.0001402,1401.1,0.00014039,1406.5,-4.5349e-05,10.964,-4.681e-05,-0.010736,1.4991
5075,17.383,2.5455,0.1,0.00014435,1442.5,0.0001446,1449.9,-4.6389e-05,14.887,-4.8372e-05,-0.010209,1.4722
5076,17.2,2.5455,0.1,0.00014851,1484.1,0.00014882,1493.5,-4.7416e-05,19.007,-4.9947e-05,-0.0097068,1.4454
5077,17.016,2.5455,0.1,0.00015268,1525.7,0.00015306,1537.3,-4.8427e-05,23.355,-5.1537e-05,-0.0092431,1.4187
5078,16.832,2.5455,0.1,0.00015686,1567.5,0.00015731,1581.3,-4.942e-05,27.961,-5.3143e-05,-0.0088185,1.3922
5079,16.648,2.5455,0.1,0.00016105,1609.4,0.00016158,1625.6,-5.0392e-05,32.861,-5.4766e-05,-0.008435,1.3657
5080,16.464,2.5455,0.1,0.00016525,1651.4,0.00016587,1670.1,-5.1339e-05,38.09,-5.641e-05,-0.0081192,1.3393
5081,16.281,2.5455,0.1,0.00016947,1693.5,0.00017017,1714.9,-5.2259e-05,43.688,-5.8075e-05,-0.0078519,1.313
5082,16.097,2.5455,0.1,0.0001737,1735.8,0.00017449,1760.1,-5.3149e-05,49.698,-5.9764e-05,-0.0076097,1.2869
5083,15.913,2.5455,0.1,0.00017794,1778.2,0.00017883,1805.6,-5.4005e-05,56.165,-6.1482e-05,-0.0074501,1.2609
5084,15.729,2.5455,0.1,0.00018221,1820.8,0.0001832,1851.6,-5.4826e-05,63.136,-6.323e-05,-0.0074061,1.235
5085,15.545,2.5455,0.1,0.0001865,1863.7,0.0001876,1898.1,-5.5608e-05,70.663,-6.5014e-05,-0.0075129,1.2092
5086,15.362,2.5455,0.1,0.00019083,1907,0.00019205,1945.2,-5.635e-05,78.799,-6.6838e-05,-0.0078493,1.1835
5087,15.178,2.5455,0.1,0.00019521,1950.8,0.00019655,1993.1,-5.7051e-05,87.6,-6.871e-05,-0.0084405,1.158
5088,14.994,2.5455,0.1,0.00019965,1995.1,0.00020112,2041.9,-5.771e-05,97.122,-7.0638e-05,-0.0093418,1.1326
5089,14.81,2.5455,0.1,0.00020417,2040.3,0.00020579,2091.9,-5.8331e-05,107.42,-7.2629e-05,-0.01071,1.1074
5090,14.626,2.5455,0.1,0.00020881,2086.7,0.00021057,2143.4,-5.8918e-05,118.54,-7.4697e-05,-0.012711,1.0822
5091,14.443,2.5455,0.1,0.00021359,2134.5,0.00021552,2196.7,-5.9479e-05,130.54,-7.6855e-05,-0.015557,1.0573
5092,14.259,2.5455,0.1,0.00021858,2184.3,0.00022066,2252.4,-6.0027e-05,143.44,-7.912e-05,-0.019555,1.0324
5093,14.075,2.5455,0.1,0.00022382,2236.6,0.00022608,2311.1,-6.0583e-05,157.24,-8.1514e-05,-0.025037,1.0078
5094,13.891,2.5455,0.1,0.0002294,2292.4,0.00023184,2373.5,-6.1175e-05,171.93,-8.4062e-05,-0.032461,0.98324
5095,13.707,2.5455,0.1,0.00023544,2352.7,0.00023806,2440.8,-6.1845e-05,187.43,-8.6796e-05,-0.042536,0.95887
5096,13.524,2.5455,0.1,0.00024206,2418.9,0.00024488,2514.3,-6.2652e-05,203.6,-8.9757e-05,-0.056154,0.93466
5097,13.34,2.5455,0.1,0.00024946,2492.8,0.00025247,2595.6,-6.368e-05,220.16,-9.2991e-05,-0.07449,0.91061
5098,13.156,2.5455,0.1,0.00025787,2576.9,0.00026107,2687,-6.5042e-05,236.71,-9.6559e-05,-0.09913,0.88674
5099,12.972,2.5455,0.1,0.0002676,2674.1,0.000271,2791.4,-6.6897e-05,252.61,-0.00010054,-0.13205,0.86304
5100,12.788,2.5455,0.1,0.00027907,2788.8,0.00028265,2912.5,-6.9468e-05,266.89,-0.00010501,-0.17584,0.83953
5101,12.605,2.5455,0.1,0.00029283,2926.3,0.00029657,3055.3,-7.306e-05,278.08,-0.0001101,-0.23386,0.81621
5102,12.421,2.5455,0.1,0.00030963,3094.1,0.00031347,3226.2,-7.8103e-05,284.04,-0.00011595,-0.31041,0.79308
5103,12.237,2.5455,0.1,0.00033045,3302.2,0.00033433,3433.8,-8.52e-05,281.6,-0.00012273,-0.41011,0.77017
5104,12.053,2.5455,0.1,0.00035669,3564.5,0.00036046,3689.8,-9.5198e-05,266.12,-0.00013069,-0.54357,0.74749
5105,11.869,2.5455,0.1,0.00039028,3900.1,0.00039368,4010,-0.0001093,230.81,-0.00014011,-0.70408,0.72504
5106,11.686,2.5455,0.1,0.0004339,4336.1,0.00043647,4416.1,-0.0001292,165.84,-0.00015141,-0.99747,0.70286
5107,11.502,2.5455,0.1,0.00049126,4909.2,0.00049219,4936.9,-0.00015721,57.622,-0.00016511,-1.7347,0.68098
5108,11.318,2.5455,0.1,0.00056677,5663.8,0.00056472,5605.4,-0.00018125,0.4036,-0.00019667,-115.41,0.65941
5109,11.134,2.5455,0.1,0.00066301,6625.5,0.00065603,6435.1,-0.00020046,-0.18313,-0.00024907,-365.45,0.63822
5110,10.95,2.5455,0.1,0.00076729,7667.6,0.00075379,7312.4,-0.00021992,-3.7592,-0.0003078,-664.02,0.61747
5111,23.816,2.7273,0.1,1.9599e-05,195.86,9.6823e-06,39.551,4.3901e-06,-0.21268,-1.8625e-05,-173.14,2.4519
5112,23.632,2.7273,0.1,2.1306e-05,212.92,1.3225e-05,78.36,2.752e-06,-0.33184,-1.8858e-05,-162.7,2.4233
5113,23.449,2.7273,0.1,2.3436e-05,234.2,1.6766e-05,117.17,1.1521e-06,-0.14531,-1.9125e-05,-152.5,2.3947
5114,23.265,2.7273,0.1,2.5887e-05,258.69,2.0313e-05,155.82,-4.4338e-07,-0.12729,-1.943e-05,-142.78,2.3661
5115,23.081,2.7273,0.1,2.8577e-05,285.58,2.3862e-05,194.36,-2.0194e-06,-0.095518,-1.9775e-05,-133.5,2.3375
5116,22.897,2.7273,0.1,3.1451e-05,314.3,2.7418e-05,232.82,-3.5796e-06,-0.080238,-2.0161e-05,-124.67,2.309
5117,22.713,2.7273,0.1,3.4468e-05,344.44,3.0985e-05,271.24,-5.124e-06,-0.067892,-2.0591e-05,-116.28,2.2804
5118,22.53,2.7273,0.1,3.76e-05,375.74,3.4566e-05,309.65,-6.6541e-06,-0.059097,-2.1064e-05,-108.33,2.2519
5119,22.346,2.7273,0.1,4.0826e-05,407.98,3.8165e-05,348.1,-8.1712e-06,-0.052197,-2.1582e-05,-100.82,2.2234
5120,22.162,2.7273,0.1,4.4134e-05,441.03,4.1785e-05,386.62,-9.6769e-06,-0.046726,-2.2145e-05,-93.724,2.195
5121,21.978,2.7273,0.1,4.7511e-05,474.78,4.5428e-05,425.23,-1.1173e-05,-0.042261,-2.275e-05,-87.031,2.1665
5122,21.794,2.7273,0.1,5.0951e-05,509.16,4.9095e-05,463.96,-1.266e-05,-0.038542,-2.3398e-05,-80.722,2.1381
5123,21.611,2.7273,0.1,5.4448e-05,544.1,5.2789e-05,502.83,-1.4139e-05,-0.035384,-2.4087e-05,-74.776,2.1097
5124,21.427,2.7273,0.1,5.7996e-05,579.56,5.6509e-05,541.86,-1.5613e-05,-0.032668,-2.4815e-05,-69.171,2.0814
5125,21.243,2.7273,0.1,6.1593e-05,615.5,6.0256e-05,581.06,-1.7082e-05,-0.030308,-2.558e-05,-63.882,2.0531
5126,21.059,2.7273,0.1,6.5234e-05,651.89,6.4032e-05,620.43,-1.8547e-05,-0.028235,-2.638e-05,-58.886,2.0248
5127,20.875,2.7273,0.1,6.8916e-05,688.68,6.7834e-05,659.99,-2.0009e-05,-0.02641,-2.7214e-05,-54.159,1.9966
5128,20.692,2.7273,0.1,7.2637e-05,725.87,7.1664e-05,699.75,-2.147e-05,-0.024779,-2.8078e-05,-49.676,1.9685
5129,20.508,2.7273,0.1,7.6396e-05,763.43,7.5522e-05,739.7,-2.293e-05,-0.0233,-2.8971e-05,-45.413,1.9403
5130,20.324,2.7273,0.1,8.0189e-05,801.34,7.9405e-05,779.85,-2.439e-05,-0.021959,-2.989e-05,-41.345,1.9123
5131,20.14,2.7273,0.1,8.4015e-05,839.57,8.3315e-05,820.21,-2.5851e-05,-0.02074,-3.0832e-05,-37.451,1.8843
5132,19.956,2.7273,0.1,8.7872e-05,878.11,8.7249e-05,860.76,-2.7314e-05,-0.019628,-3.1797e-05,-33.706,1.8563
5133,19.773,2.7273,0.1,9.1758e-05,916.94,9.1209e-05,901.52,-2.8779e-05,-0.01862,-3.2781e-05,-30.088,1.8284
5134,19.589,2.7273,0.1,9.5672e-05,956.06,9.5191e-05,942.48,-3.0248e-05,-0.01769,-3.3782e-05,-26.575,1.8006
5135,19.405,2.7273,0.1,9.9612e-05,995.43,9.9197e-05,983.65,-3.172e-05,-0.016804,-3.4798e-05,-23.144,1.7728
5136,19.221,2.7273,0.1,0.00010358,1035,0.00010323,1025,-3.3197e-05,-0.015978,-3.5827e-05,-19.774,1.7451
5137,19.038,2.7273,0.1,0.00010756,1074.9,0.00010728,1066.6,-3.468e-05,-0.015203,-3.6866e-05,-16.443,1.7174
5138,18.854,2.7273,0.1,0.00011157,1115,0.00011135,1108.3,-3.6168e-05,-0.014472,-3.7914e-05,-13.13,1.6899
5139,18.67,2.7273,0.1,0.0001156,1155.3,0.00011543,1150.3,-3.7664e-05,-0.013788,-3.8968e-05,-9.8122,1.6624
5140,18.486,2.7273,0.1,0.00011965,1195.7,0.00011954,1192.5,-3.9166e-05,-0.013101,-4.0025e-05,-6.468,1.635
5141,18.302,2.7273,0.1,0.00012372,1236.4,0.00012367,1234.8,-4.0677e-05,-0.01227,-4.1085e-05,-3.0747,1.6076
5142,18.119,2.7273,0.1,0.00012781,1277.2,0.00012781,1277.4,-4.2143e-05,0.39479,-4.2197e-05,-0.015247,1.5804
5143,17.935,2.7273,0.1,0.00013191,1318.2,0.00013197,1320.1,-4.3198e-05,3.9545,-4.3726e-05,-0.011869,1.5532
5144,17.751,2.7273,0.1,0.00013602,1359.3,0.00013615,1363.1,-4.4248e-05,7.6384,-4.5266e-05,-0.011184,1.5261
5145,17.567,2.7273,0.1,0.00014015,1400.5,0.00014034,1406.2,-4.529e-05,11.471,-4.6818e-05,-0.010641,1.4992
5146,17.383,2.7273,0.1,0.00014429,1441.9,0.00014455,1449.6,-4.632e-05,15.478,-4.8382e-05,-0.010141,1.4723
5147,17.2,2.7273,0.1,0.00014844,1483.4,0.00014877,1493.2,-4.7337e-05,19.692,-4.9959e-05,-0.0096368,1.4455
5148,17.016,2.7273,0.1,0.00015261,1525,0.000153,1536.9,-4.8338e-05,24.142,-5.1552e-05,-0.0091592,1.4188
5149,16.832,2.7273,0.1,0.00015678,1566.7,0.00015725,1581,-4.9319e-05,28.864,-5.3162e-05,-0.0087093,1.3922
5150,16.648,2.7273,0.1,0.00016097,1608.5,0.00016152,1625.2,-5.0278e-05,33.892,-5.4789e-05,-0.0082872,1.3657
5151,16.464,2.7273,0.1,0.00016516,1650.5,0.00016579,1669.8,-5.121e-05,39.267,-5.6437e-05,-0.0079263,1.3394
5152,16.281,2.7273,0.1,0.00016937,1692.5,0.00017009,1714.6,-5.2114e-05,45.03,-5.8108e-05,-0.0075997,1.3131
5153,16.097,2.7273,0.1,0.00017359,1734.7,0.0001744,1759.7,-5.2985e-05,51.228,-5.9804e-05,-0.0072855,1.287
5154,15.913,2.7273,0.1,0.00017783,1777.1,0.00017874,1805.3,-5.3821e-05,57.91,-6.1529e-05,-0.0070414,1.2609
5155,15.729,2.7273,0.1,0.00018209,1819.6,0.00018311,1851.3,-5.4618e-05,65.127,-6.3287e-05,-0.0068936,1.235
5156,15.545,2.7273,0.1,0.00018638,1862.5,0.00018751,1897.9,-5.5374e-05,72.937,-6.5082e-05,-0.0068786,1.2093
5157,15.362,2.7273,0.1,0.0001907,1905.7,0.00019195,1945.1,-5.6086e-05,81.398,-6.6921e-05,-0.0070648,1.1836
5158,15.178,2.7273,0.1,0.00019507,1949.4,0.00019646,1993.1,-5.6754e-05,90.573,-6.8809e-05,-0.0074794,1.1581
5159,14.994,2.7273,0.1,0.00019951,1993.8,0.00020103,2042.1,-5.7377e-05,100.52,-7.0757e-05,-0.0081668,1.1327
5160,14.81,2.7273,0.1,0.00020404,2039,0.00020571,2092.4,-5.7957e-05,111.31,-7.2773e-05,-0.0092815,1.1074
5161,14.626,2.7273,0.1,0.00020869,2085.5,0.00021051,2144.2,-5.8499e-05,123,-7.4871e-05,-0.010978,1.0823
5162,14.443,2.7273,0.1,0.0002135,2133.5,0.00021548,2198.1,-5.9012e-05,135.64,-7.7067e-05,-0.013465,1.0573
5163,14.259,2.7273,0.1,0.00021851,2183.6,0.00022067,2254.4,-5.9509e-05,149.26,-7.9377e-05,-0.017044,1.0325
5164,14.075,2.7273,0.1,0.00022381,2236.5,0.00022614,2314,-6.0013e-05,163.88,-8.1827e-05,-0.022044,1.0078
5165,13.891,2.7273,0.1,0.00022947,2293.1,0.000232,2377.6,-6.0553e-05,179.48,-8.4444e-05,-0.02893,0.98332
5166,13.707,2.7273,0.1,0.00023562,2354.6,0.00023834,2446.5,-6.1177e-05,195.97,-8.7264e-05,-0.038434,0.95895
5167,13.524,2.7273,0.1,0.00024242,2422.5,0.00024534,2522,-6.1948e-05,213.19,-9.0329e-05,-0.051503,0.93474
5168,13.34,2.7273,0.1,0.00025005,2498.7,0.00025317,2606.1,-6.2958e-05,230.85,-9.3691e-05,-0.069424,0.9107
5169,13.156,2.7273,0.1,0.00025878,2586,0.00026211,2701.2,-6.4334e-05,248.48,-9.7417e-05,-0.093987,0.88682
5170,12.972,2.7273,0.1,0.00026896,2687.8,0.00027249,2810.5,-6.6254e-05,265.35,-0.00010159,-0.12753,0.86313
5171,12.788,2.7273,0.1,0.00028105,2808.5,0.00028476,2938.1,-6.8966e-05,280.32,-0.0001063,-0.17321,0.83962
5172,12.605,2.7273,0.1,0.00029563,2954.3,0.00029951,3089.2,-7.2815e-05,291.71,-0.00011167,-0.23531,0.8163
5173,12.421,2.7273,0.1,0.00031352,3133.1,0.00031751,3270.8,-7.8283e-05,296.97,-0.00011785,-0.31912,0.79319
5174,12.237,2.7273,0.1,0.00033578,3355.5,0.00033979,3491.9,-8.6038e-05,292.39,-0.00012501,-0.43071,0.77029
5175,12.053,2.7273,0.1,0.00036381,3635.6,0.00036767,3763.9,-9.7006e-05,272.5,-0.00013335,-0.57554,0.74761
5176,11.869,2.7273,0.1,0.00039945,3991.7,0.00040284,4101.1,-0.00011244,229.53,-0.00014309,-0.75986,0.72519
5177,11.686,2.7273,0.1,0.00044493,4446.2,0.00044731,4520.2,-0.00013393,152.93,-0.00015442,-0.96418,0.70304
5178,11.502,2.7273,0.1,0.00050258,5022.3,0.00050306,5036.6,-0.00016323,30.35,-0.0001675,-1.7124,0.68119
5179,11.318,2.7273,0.1,0.00057357,5731.7,0.00057083,5654.2,-0.00018178,-0.62152,-0.00020186,-151.5,0.65968
5180,11.134,2.7273,0.1,0.00065457,6541.1,0.00064713,6339.3,-0.00019657,0.065437,-0.00024803,-386.63,0.63855
5181,10.95,2.7273,0.1,0.00073223,7317.3,0.0007193,6978.2,-0.00020911,2.4088,-0.00029441,-638.47,0.61785
5182,23.816,2.9091,0.1,1.9687e-05,196.74,9.7111e-06,39.542,4.42e-06,-0.21403,-1.8714e-05,-174.04,2.4519
5183,23.632,2.9091,0.1,2.1392e-05,213.77,1.3256e-05,78.371,2.7811e-06,-0.33248,-1.8948e-05,-163.6,2.4233
5184,23.449,2.9091,0.1,2.3518e-05,235.02,1.6798e-05,117.2,1.1803e-06,-0.14576,-1.9215e-05,-153.38,2.3947
5185,23.265,2.9091,0.1,2.5965e-05,259.47,2.0346e-05,155.87,-4.1634e-07,-0.12768,-1.9518e-05,-143.65,2.3661
5186,23.081,2.9091,0.1,2.8652e-05,286.32,2.3896e-05,194.43,-1.9937e-06,-0.095862,-1.9861e-05,-134.35,2.3375
5187,22.897,2.9091,0.1,3.1521e-05,315,2.7453e-05,232.9,-3.5553e-06,-0.080556,-2.0245e-05,-125.48,2.309
5188,22.713,2.9091,0.1,3.4534e-05,345.1,3.102e-05,271.33,-5.1011e-06,-0.068193,-2.0672e-05,-117.06,2.2804
5189,22.53,2.9091,0.1,3.7662e-05,376.36,3.4601e-05,309.75,-6.6327e-06,-0.059388,-2.1142e-05,-109.08,2.2519
5190,22.346,2.9091,0.1,4.0884e-05,408.56,3.8199e-05,348.2,-8.1513e-06,-0.052477,-2.1656e-05,-101.52,2.2234
5191,22.162,2.9091,0.1,4.4187e-05,441.56,4.1817e-05,386.72,-9.6584e-06,-0.047,-2.2214e-05,-94.385,2.195
5192,21.978,2.9091,0.1,4.756e-05,475.27,4.5458e-05,425.33,-1.1155e-05,-0.042529,-2.2815e-05,-87.647,2.1665
5193,21.794,2.9091,0.1,5.0995e-05,509.6,4.9123e-05,464.06,-1.2644e-05,-0.038807,-2.3458e-05,-81.292,2.1381
5194,21.611,2.9091,0.1,5.4488e-05,544.5,5.2814e-05,502.92,-1.4125e-05,-0.035644,-2.4142e-05,-75.3,2.1098
5195,21.427,2.9091,0.1,5.8032e-05,579.92,5.6532e-05,541.94,-1.56e-05,-0.032924,-2.4865e-05,-69.649,2.0814
5196,21.243,2.9091,0.1,6.1624e-05,615.82,6.0277e-05,581.12,-1.7069e-05,-0.030558,-2.5625e-05,-64.316,2.0531
5197,21.059,2.9091,0.1,6.5261e-05,652.16,6.405e-05,620.48,-1.8535e-05,-0.028481,-2.6421e-05,-59.277,2.0249
5198,20.875,2.9091,0.1,6.8939e-05,688.92,6.785e-05,660.03,-1.9999e-05,-0.026651,-2.725e-05,-54.508,1.9966
5199,20.692,2.9091,0.1,7.2657e-05,726.07,7.1677e-05,699.78,-2.146e-05,-0.025014,-2.811e-05,-49.985,1.9685
5200,20.508,2.9091,0.1,7.6412e-05,763.59,7.5532e-05,739.72,-2.2921e-05,-0.023529,-2.8998e-05,-45.683,1.9404
5201,20.324,2.9091,0.1,8.0202e-05,801.47,7.9413e-05,779.86,-2.4382e-05,-0.022183,-2.9913e-05,-41.579,1.9123
5202,20.14,2.9091,0.1,8.4025e-05,839.67,8.332e-05,820.2,-2.5844e-05,-0.02096,-3.0852e-05,-37.65,1.8843
5203,19.956,2.9091,0.1,8.7878e-05,878.18,8.7253e-05,860.74,-2.7308e-05,-0.019843,-3.1813e-05,-33.871,1.8563
5204,19.773,2.9091,0.1,9.1762e-05,916.98,9.121e-05,901.49,-2.8774e-05,-0.018832,-3.2793e-05,-30.22,1.8284
5205,19.589,2.9091,0.1,9.5673e-05,956.07,9.5191e-05,942.44,-3.0243e-05,-0.017897,-3.3791e-05,-26.675,1.8006
5206,19.405,2.9091,0.1,9.961e-05,995.42,9.9195e-05,983.6,-3.1716e-05,-0.01701,-3.4804e-05,-23.214,1.7728
5207,19.221,2.9091,0.1,0.00010357,1035,0.00010322,1025,-3.3194e-05,-0.016184,-3.5829e-05,-19.814,1.7451
5208,19.038,2.9091,0.1,0.00010756,1074.8,0.00010727,1066.5,-3.4677e-05,-0.015412,-3.6865e-05,-16.453,1.7175
5209,18.854,2.9091,0.1,0.00011157,1114.9,0.00011134,1108.3,-3.6167e-05,-0.014689,-3.7909e-05,-13.11,1.6899
5210,18.67,2.9091,0.1,0.00011559,1155.1,0.00011542,1150.2,-3.7663e-05,-0.014025,-3.896e-05,-9.7625,1.6624
5211,18.486,2.9091,0.1,0.00011964,1195.6,0.00011953,1192.4,-3.9166e-05,-0.01339,-4.0014e-05,-6.3877,1.635
5212,18.302,2.9091,0.1,0.00012371,1236.2,0.00012366,1234.7,-4.0677e-05,-0.012742,-4.107e-05,-2.9628,1.6077
5213,18.119,2.9091,0.1,0.00012779,1277,0.0001278,1277.3,-4.2125e-05,0.53622,-4.2198e-05,-0.012456,1.5804
5214,17.935,2.9091,0.1,0.00013189,1318,0.00013196,1320,-4.3177e-05,4.133,-4.3728e-05,-0.011661,1.5532
5215,17.751,2.9091,0.1,0.000136,1359.1,0.00013613,1363,-4.4222e-05,7.8539,-4.5269e-05,-0.011103,1.5262
5216,17.567,2.9091,0.1,0.00014012,1400.3,0.00014032,1406.1,-4.526e-05,11.726,-4.6822e-05,-0.010597,1.4992
5217,17.383,2.9091,0.1,0.00014426,1441.6,0.00014452,1449.4,-4.6286e-05,15.777,-4.8387e-05,-0.010106,1.4723
5218,17.2,2.9091,0.1,0.00014841,1483.1,0.00014874,1493,-4.7298e-05,20.037,-4.9966e-05,-0.0096036,1.4455
5219,17.016,2.9091,0.1,0.00015257,1524.7,0.00015297,1536.8,-4.8293e-05,24.54,-5.156e-05,-0.0091152,1.4188
5220,16.832,2.9091,0.1,0.00015674,1566.3,0.00015722,1580.8,-4.9268e-05,29.32,-5.3171e-05,-0.0086497,1.3923
5221,16.648,2.9091,0.1,0.00016092,1608.1,0.00016148,1625.1,-5.022e-05,34.414,-5.4801e-05,-0.0082107,1.3658
5222,16.464,2.9091,0.1,0.00016512,1650,0.00016576,1669.6,-5.1145e-05,39.862,-5.6451e-05,-0.0078235,1.3394
5223,16.281,2.9091,0.1,0.00016932,1692,0.00017005,1714.4,-5.204e-05,45.71,-5.8125e-05,-0.0074674,1.3131
5224,16.097,2.9091,0.1,0.00017354,1734.2,0.00017436,1759.6,-5.2902e-05,52.004,-5.9824e-05,-0.0071166,1.287
5225,15.913,2.9091,0.1,0.00017777,1776.5,0.0001787,1805.1,-5.3727e-05,58.795,-6.1553e-05,-0.0068284,1.261
5226,15.729,2.9091,0.1,0.00018203,1819,0.00018306,1851.2,-5.4512e-05,66.138,-6.3316e-05,-0.006628,1.2351
5227,15.545,2.9091,0.1,0.00018631,1861.8,0.00018746,1897.8,-5.5255e-05,74.092,-6.5117e-05,-0.0065474,1.2093
5228,15.362,2.9091,0.1,0.00019063,1905,0.00019191,1945,-5.5952e-05,82.72,-6.6962e-05,-0.0066579,1.1836
5229,15.178,2.9091,0.1,0.000195,1948.7,0.00019641,1993.1,-5.6603e-05,92.086,-6.886e-05,-0.0069808,1.1581
5230,14.994,2.9091,0.1,0.00019944,1993.1,0.00020099,2042.2,-5.7207e-05,102.26,-7.0818e-05,-0.0075596,1.1327
5231,14.81,2.9091,0.1,0.00020398,2038.3,0.00020567,2092.6,-5.7766e-05,113.3,-7.2847e-05,-0.0085446,1.1075
5232,14.626,2.9091,0.1,0.00020863,2084.8,0.00021048,2144.7,-5.8286e-05,125.28,-7.496e-05,-0.010087,1.0824
5233,14.443,2.9091,0.1,0.00021344,2133,0.00021546,2198.7,-5.8774e-05,138.24,-7.7175e-05,-0.012393,1.0574
5234,14.259,2.9091,0.1,0.00021848,2183.3,0.00022067,2255.4,-5.9245e-05,152.24,-7.9509e-05,-0.015763,1.0326
5235,14.075,2.9091,0.1,0.0002238,2236.5,0.00022618,2315.4,-5.9722e-05,167.27,-8.1987e-05,-0.020527,1.0079
5236,13.891,2.9091,0.1,0.00022951,2293.5,0.00023208,2379.7,-6.0236e-05,183.33,-8.464e-05,-0.027156,0.98336
5237,13.707,2.9091,0.1,0.00023572,2355.6,0.00023849,2449.3,-6.0836e-05,200.32,-8.7503e-05,-0.036406,0.95899
5238,13.524,2.9091,0.1,0.0002426,2424.3,0.00024557,2526,-6.159e-05,218.08,-9.0621e-05,-0.04926,0.93478
5239,13.34,2.9091,0.1,0.00025035,2501.8,0.00025353,2611.5,-6.2592e-05,236.29,-9.4049e-05,-0.067087,0.91074
5240,13.156,2.9091,0.1,0.00025926,2590.8,0.00026264,2708.5,-6.3979e-05,254.44,-9.7855e-05,-0.091818,0.88687
5241,12.972,2.9091,0.1,0.00026967,2694.8,0.00027326,2820.4,-6.5937e-05,271.76,-0.00010212,-0.12604,0.86317
5242,12.788,2.9091,0.1,0.00028207,2818.8,0.00028585,2951.2,-6.8731e-05,287.01,-0.00010695,-0.17332,0.83966
5243,12.605,2.9091,0.1,0.00029709,2968.9,0.00030103,3106.6,-7.2727e-05,298.35,-0.00011247,-0.23853,0.81635
5244,12.421,2.9091,0.1,0.00031556,3153.4,0.00031961,3293.8,-7.8435e-05,303.03,-0.00011881,-0.32768,0.79324
5245,12.237,2.9091,0.1,0.00033856,3383.2,0.00034262,3521.7,-8.6563e-05,296.96,-0.00012615,-0.44714,0.77034
5246,12.053,2.9091,0.1,0.0003675,3672.5,0.00037138,3801.6,-9.8074e-05,274.26,-0.00013465,-0.60065,0.74768
5247,11.869,2.9091,0.1,0.00040412,4038.4,0.00040748,4146.6,-0.00011422,226.66,-0.00014449,-0.78014,0.72527
5248,11.686,2.9091,0.1,0.00045033,4500.2,0.00045258,4569.8,-0.00013651,143.54,-0.00015574,-0.95693,0.70313
5249,11.502,2.9091,0.1,0.00050762,5072.7,0.00050783,5079,-0.00016631,13.706,-0.00016829,-1.1819,0.6813
5250,11.318,2.9091,0.1,0.00057557,5751.7,0.00057248,5664.5,-0.00018152,-0.77881,-0.00020403,-169.91,0.65981
5251,11.134,2.9091,0.1,0.00064901,6485.7,0.00064137,6278.6,-0.00019426,-0.041334,-0.00024696,-395.99,0.63871
5252,10.95,2.9091,0.1,0.00071555,7150.6,0.00070291,6818.7,-0.00020458,0.22332,-0.00028753,-623.09,0.61804
5253,23.816,3.0909,0.1,1.9687e-05,196.74,9.7111e-06,39.542,4.42e-06,-0.21403,-1.8714e-05,-174.04,2.4519
5254,23.632,3.0909,0.1,2.1392e-05,213.77,1.3256e-05,78.371,2.7811e-06,-0.33248,-1.8948e-05,-163.6,2.4233
5255,23.449,3.0909,0.1,2.3518e-05,235.02,1.6798e-05,117.2,1.1803e-06,-0.14575,-1.9215e-05,-153.38,2.3947
5256,23.265,3.0909,0.1,2.5965e-05,259.47,2.0346e-05,155.87,-4.1634e-07,-0.12768,-1.9518e-05,-143.65,2.3661
5257,23.081,3.0909,0.1,2.8652e-05,286.32,2.3896e-05,194.43,-1.9937e-06,-0.095862,-1.9861e-05,-134.35,2.3375
5258,22.897,3.0909,0.1,3.1521e-05,315,2.7453e-05,232.9,-3.5553e-06,-0.080557,-2.0245e-05,-125.48,2.309
5259,22.713,3.0909,0.1,3.4534e-05,345.1,3.102e-05,271.33,-5.1011e-06,-0.068193,-2.0672e-05,-117.06,2.2804
5260,22.53,3.0909,0.1,3.7662e-05,376.36,3.4601e-05,309.75,-6.6327e-06,-0.059387,-2.1142e-05,-109.08,2.2519
5261,22.346,3.0909,0.1,4.0884e-05,408.56,3.8199e-05,348.2,-8.1513e-06,-0.052476,-2.1656e-05,-101.52,2.2234
5262,22.162,3.0909,0.1,4.4187e-05,441.56,4.1817e-05,386.72,-9.6584e-06,-0.046999,-2.2214e-05,-94.385,2.195
5263,21.978,3.0909,0.1,4.756e-05,475.27,4.5458e-05,425.33,-1.1155e-05,-0.04253,-2.2815e-05,-87.647,2.1665
5264,21.794,3.0909,0.1,5.0995e-05,509.6,4.9123e-05,464.06,-1.2644e-05,-0.038807,-2.3458e-05,-81.292,2.1381
5265,21.611,3.0909,0.1,5.4488e-05,544.5,5.2814e-05,502.92,-1.4125e-05,-0.035642,-2.4142e-05,-75.3,2.1098
5266,21.427,3.0909,0.1,5.8032e-05,579.92,5.6532e-05,541.94,-1.56e-05,-0.032923,-2.4865e-05,-69.649,2.0814
5267,21.243,3.0909,0.1,6.1624e-05,615.82,6.0277e-05,581.12,-1.7069e-05,-0.030557,-2.5625e-05,-64.316,2.0531
5268,21.059,3.0909,0.1,6.5261e-05,652.16,6.405e-05,620.48,-1.8535e-05,-0.028482,-2.6421e-05,-59.277,2.0249
5269,20.875,3.0909,0.1,6.8939e-05,688.92,6.785e-05,660.03,-1.9999e-05,-0.026651,-2.725e-05,-54.508,1.9966
5270,20.692,3.0909,0.1,7.2657e-05,726.07,7.1677e-05,699.78,-2.146e-05,-0.025014,-2.811e-05,-49.985,1.9685
5271,20.508,3.0909,0.1,7.6412e-05,763.59,7.5532e-05,739.72,-2.2921e-05,-0.023531,-2.8998e-05,-45.683,1.9404
5272,20.324,3.0909,0.1,8.0202e-05,801.47,7.9413e-05,779.86,-2.4382e-05,-0.022182,-2.9913e-05,-41.579,1.9123
5273,20.14,3.0909,0.1,8.4025e-05,839.67,8.332e-05,820.2,-2.5844e-05,-0.02096,-3.0852e-05,-37.65,1.8843
5274,19.956,3.0909,0.1,8.7878e-05,878.18,8.7253e-05,860.74,-2.7308e-05,-0.019842,-3.1813e-05,-33.871,1.8563
5275,19.773,3.0909,0.1,9.1762e-05,916.98,9.121e-05,901.49,-2.8774e-05,-0.018831,-3.2793e-05,-30.22,1.8284
5276,19.589,3.0909,0.1,9.5673e-05,956.07,9.5191e-05,942.44,-3.0243e-05,-0.017897,-3.3791e-05,-26.675,1.8006
5277,19.405,3.0909,0.1,9.961e-05,995.42,9.9195e-05,983.6,-3.1716e-05,-0.01701,-3.4804e-05,-23.214,1.7728
5278,19.221,3.0909,0.1,0.00010357,1035,0.00010322,1025,-3.3194e-05,-0.016184,-3.5829e-05,-19.814,1.7451
5279,19.038,3.0909,0.1,0.00010756,1074.8,0.00010727,1066.5,-3.4677e-05,-0.015412,-3.6865e-05,-16.453,1.7175
5280,18.854,3.0909,0.1,0.00011157,1114.9,0.00011134,1108.3,-3.6167e-05,-0.01469,-3.7909e-05,-13.11,1.6899
5281,18.67,3.0909,0.1,0.00011559,1155.1,0.00011542,1150.2,-3.7663e-05,-0.014026,-3.896e-05,-9.7625,1.6624
5282,18.486,3.0909,0.1,0.00011964,1195.6,0.00011953,1192.4,-3.9166e-05,-0.013391,-4.0014e-05,-6.3877,1.635
5283,18.302,3.0909,0.1,0.00012371,1236.2,0.00012366,1234.7,-4.0677e-05,-0.012742,-4.107e-05,-2.9628,1.6077
5284,18.119,3.0909,0.1,0.00012779,1277,0.0001278,1277.3,-4.2125e-05,0.53621,-4.2198e-05,-0.012456,1.5804
5285,17.935,3.0909,0.1,0.00013189,1318,0.00013196,1320,-4.3177e-05,4.133,-4.3728e-05,-0.011662,1.5532
5286,17.751,3.0909,0.1,0.000136,1359.1,0.00013613,1363,-4.4222e-05,7.8539,-4.5269e-05,-0.011102,1.5262
5287,17.567,3.0909,0.1,0.00014012,1400.3,0.00014032,1406.1,-4.526e-05,11.726,-4.6822e-05,-0.010597,1.4992
5288,17.383,3.0909,0.1,0.00014426,1441.6,0.00014452,1449.4,-4.6286e-05,15.777,-4.8387e-05,-0.010106,1.4723
5289,17.2,3.0909,0.1,0.00014841,1483.1,0.00014874,1493,-4.7298e-05,20.037,-4.9966e-05,-0.009603,1.4455
5290,17.016,3.0909,0.1,0.00015257,1524.7,0.00015297,1536.8,-4.8293e-05,24.54,-5.156e-05,-0.0091159,1.4188
5291,16.832,3.0909,0.1,0.00015674,1566.3,0.00015722,1580.8,-4.9268e-05,29.32,-5.3171e-05,-0.0086501,1.3923
5292,16.648,3.0909,0.1,0.00016092,1608.1,0.00016148,1625.1,-5.022e-05,34.414,-5.4801e-05,-0.0082114,1.3658
5293,16.464,3.0909,0.1,0.00016512,1650,0.00016576,1669.6,-5.1145e-05,39.862,-5.6451e-05,-0.0078242,1.3394
5294,16.281,3.0909,0.1,0.00016932,1692,0.00017005,1714.4,-5.204e-05,45.71,-5.8125e-05,-0.0074667,1.3131
5295,16.097,3.0909,0.1,0.00017354,1734.2,0.00017436,1759.6,-5.2902e-05,52.004,-5.9824e-05,-0.0071176,1.287
5296,15.913,3.0909,0.1,0.00017777,1776.5,0.0001787,1805.1,-5.3727e-05,58.795,-6.1553e-05,-0.006829,1.261
5297,15.729,3.0909,0.1,0.00018203,1819,0.00018306,1851.2,-5.4512e-05,66.138,-6.3316e-05,-0.006627,1.2351
5298,15.545,3.0909,0.1,0.00018631,1861.8,0.00018746,1897.8,-5.5255e-05,74.092,-6.5117e-05,-0.0065476,1.2093
5299,15.362,3.0909,0.1,0.00019063,1905,0.00019191,1945,-5.5952e-05,82.72,-6.6962e-05,-0.0066585,1.1836
5300,15.178,3.0909,0.1,0.000195,1948.7,0.00019641,1993.1,-5.6603e-05,92.086,-6.886e-05,-0.0069817,1.1581
5301,14.994,3.0909,0.1,0.00019944,1993.1,0.00020099,2042.2,-5.7207e-05,102.26,-7.0818e-05,-0.0075587,1.1327
5302,14.81,3.0909,0.1,0.00020398,2038.3,0.00020567,2092.6,-5.7766e-05,113.3,-7.2847e-05,-0.0085437,1.1075
5303,14.626,3.0909,0.1,0.00020863,2084.8,0.00021048,2144.7,-5.8286e-05,125.28,-7.496e-05,-0.010087,1.0824
5304,14.443,3.0909,0.1,0.00021344,2133,0.00021546,2198.7,-5.8774e-05,138.24,-7.7175e-05,-0.012393,1.0574
5305,14.259,3.0909,0.1,0.00021848,2183.3,0.00022067,2255.4,-5.9245e-05,152.24,-7.9509e-05,-0.015762,1.0326
5306,14.075,3.0909,0.1,0.0002238,2236.5,0.00022618,2315.4,-5.9722e-05,167.27,-8.1987e-05,-0.020527,1.0079
5307,13.891,3.0909,0.1,0.00022951,2293.5,0.00023208,2379.7,-6.0236e-05,183.33,-8.464e-05,-0.027156,0.98336
5308,13.707,3.0909,0.1,0.00023572,2355.6,0.00023849,2449.3,-6.0836e-05,200.32,-8.7503e-05,-0.036405,0.95899
5309,13.524,3.0909,0.1,0.0002426,2424.3,0.00024557,2526,-6.159e-05,218.08,-9.0621e-05,-0.049261,0.93478
5310,13.34,3.0909,0.1,0.00025035,2501.8,0.00025353,2611.5,-6.2592e-05,236.29,-9.4049e-05,-0.067087,0.91074
5311,13.156,3.0909,0.1,0.00025926,2590.8,0.00026264,2708.5,-6.3979e-05,254.44,-9.7855e-05,-0.091818,0.88687
5312,12.972,3.0909,0.1,0.00026967,2694.8,0.00027326,2820.4,-6.5937e-05,271.76,-0.00010212,-0.12604,0.86317
5313,12.788,3.0909,0.1,0.00028207,2818.8,0.00028585,2951.2,-6.8731e-05,287.01,-0.00010695,-0.17332,0.83966
5314,12.605,3.0909,0.1,0.00029709,2968.9,0.00030103,3106.6,-7.2727e-05,298.35,-0.00011247,-0.23853,0.81635
5315,12.421,3.0909,0.1,0.00031556,3153.4,0.00031961,3293.8,-7.8435e-05,303.03,-0.00011881,-0.32768,0.79324
5316,12.237,3.0909,0.1,0.00033856,3383.2,0.00034262,3521.7,-8.6563e-05,296.96,-0.00012615,-0.44714,0.77034
5317,12.053,3.0909,0.1,0.0003675,3672.5,0.00037138,3801.6,-9.8074e-05,274.26,-0.00013465,-0.60065,0.74768
5318,11.869,3.0909,0.1,0.00040412,4038.4,0.00040748,4146.6,-0.00011422,226.66,-0.00014449,-0.78014,0.72527
5319,11.686,3.0909,0.1,0.00045033,4500.2,0.00045258,4569.8,-0.00013651,143.54,-0.00015574,-0.95693,0.70313
5320,11.502,3.0909,0.1,0.00050762,5072.7,0.00050783,5079,-0.00016631,13.706,-0.00016829,-1.1819,0.6813
5321,11.318,3.0909,0.1,0.00057557,5751.7,0.00057248,5664.5,-0.00018152,-0.77881,-0.00020403,-169.91,0.65981
5322,11.134,3.0909,0.1,0.00064901,6485.7,0.00064137,6278.6,-0.00019426,-0.041333,-0.00024696,-395.99,0.63871
5323,10.95,3.0909,0.1,0.00071555,7150.6,0.00070291,6818.7,-0.00020458,0.22332,-0.00028753,-623.09,0.61804
5324,23.816,3.2727,0.1,1.9599e-05,195.86,9.6823e-06,39.551,4.3901e-06,-0.21268,-1.8625e-05,-173.14,2.4519
5325,23.632,3.2727,0.1,2.1306e-05,212.92,1.3225e-05,78.36,2.752e-06,-0.33184,-1.8858e-05,-162.7,2.4233
5326,23.449,3.2727,0.1,2.3436e-05,234.2,1.6766e-05,117.17,1.1521e-06,-0.14531,-1.9125e-05,-152.5,2.3947
5327,23.265,3.2727,0.1,2.5887e-05,258.69,2.0313e-05,155.82,-4.4338e-07,-0.12729,-1.943e-05,-142.78,2.3661
5328,23.081,3.2727,0.1,2.8577e-05,285.58,2.3862e-05,194.36,-2.0194e-06,-0.095516,-1.9775e-05,-133.5,2.3375
5329,22.897,3.2727,0.1,3.1451e-05,314.3,2.7418e-05,232.82,-3.5796e-06,-0.080238,-2.0161e-05,-124.67,2.309
5330,22.713,3.2727,0.1,3.4468e-05,344.44,3.0985e-05,271.24,-5.124e-06,-0.067891,-2.0591e-05,-116.28,2.2804
5331,22.53,3.2727,0.1,3.76e-05,375.74,3.4566e-05,309.65,-6.6541e-06,-0.059099,-2.1064e-05,-108.33,2.2519
5332,22.346,3.2727,0.1,4.0826e-05,407.98,3.8165e-05,348.1,-8.1712e-06,-0.052197,-2.1582e-05,-100.82,2.2234
5333,22.162,3.2727,0.1,4.4134e-05,441.03,4.1785e-05,386.62,-9.6769e-06,-0.046726,-2.2145e-05,-93.724,2.195
5334,21.978,3.2727,0.1,4.7511e-05,474.78,4.5428e-05,425.23,-1.1173e-05,-0.042261,-2.275e-05,-87.031,2.1665
5335,21.794,3.2727,0.1,5.0951e-05,509.16,4.9095e-05,463.96,-1.266e-05,-0.038542,-2.3398e-05,-80.722,2.1381
5336,21.611,3.2727,0.1,5.4448e-05,544.1,5.2789e-05,502.83,-1.4139e-05,-0.035384,-2.4087e-05,-74.776,2.1097
5337,21.427,3.2727,0.1,5.7996e-05,579.56,5.6509e-05,541.86,-1.5613e-05,-0.032669,-2.4815e-05,-69.171,2.0814
5338,21.243,3.2727,0.1,6.1593e-05,615.5,6.0256e-05,581.06,-1.7082e-05,-0.030307,-2.558e-05,-63.882,2.0531
5339,21.059,3.2727,0.1,6.5234e-05,651.89,6.4032e-05,620.43,-1.8547e-05,-0.028235,-2.638e-05,-58.886,2.0248
5340,20.875,3.2727,0.1,6.8916e-05,688.68,6.7834e-05,659.99,-2.0009e-05,-0.02641,-2.7214e-05,-54.159,1.9966
5341,20.692,3.2727,0.1,7.2637e-05,725.87,7.1664e-05,699.75,-2.147e-05,-0.024779,-2.8078e-05,-49.676,1.9685
5342,20.508,3.2727,0.1,7.6396e-05,763.43,7.5522e-05,739.7,-2.293e-05,-0.023299,-2.8971e-05,-45.413,1.9403
5343,20.324,3.2727,0.1,8.0189e-05,801.34,7.9405e-05,779.85,-2.439e-05,-0.021959,-2.989e-05,-41.345,1.9123
5344,20.14,3.2727,0.1,8.4015e-05,839.57,8.3315e-05,820.21,-2.5851e-05,-0.02074,-3.0832e-05,-37.451,1.8843
5345,19.956,3.2727,0.1,8.7872e-05,878.11,8.7249e-05,860.76,-2.7314e-05,-0.019628,-3.1797e-05,-33.706,1.8563
5346,19.773,3.2727,0.1,9.1758e-05,916.94,9.1209e-05,901.52,-2.8779e-05,-0.01862,-3.2781e-05,-30.088,1.8284
5347,19.589,3.2727,0.1,9.5672e-05,956.06,9.5191e-05,942.48,-3.0248e-05,-0.017689,-3.3782e-05,-26.575,1.8006
5348,19.405,3.2727,0.1,9.9612e-05,995.43,9.9197e-05,983.65,-3.172e-05,-0.016804,-3.4798e-05,-23.144,1.7728
5349,19.221,3.2727,0.1,0.00010358,1035,0.00010323,1025,-3.3197e-05,-0.015978,-3.5827e-05,-19.774,1.7451
5350,19.038,3.2727,0.1,0.00010756,1074.9,0.00010728,1066.6,-3.468e-05,-0.015203,-3.6866e-05,-16.443,1.7174
5351,18.854,3.2727,0.1,0.00011157,1115,0.00011135,1108.3,-3.6168e-05,-0.014471,-3.7914e-05,-13.13,1.6899
5352,18.67,3.2727,0.1,0.0001156,1155.3,0.00011543,1150.3,-3.7664e-05,-0.013787,-3.8968e-05,-9.8122,1.6624
5353,18.486,3.2727,0.1,0.00011965,1195.7,0.00011954,1192.5,-3.9166e-05,-0.013101,-4.0025e-05,-6.468,1.635
5354,18.302,3.2727,0.1,0.00012372,1236.4,0.00012367,1234.8,-4.0677e-05,-0.012271,-4.1085e-05,-3.0747,1.6076
5355,18.119,3.2727,0.1,0.00012781,1277.2,0.00012781,1277.4,-4.2143e-05,0.39478,-4.2197e-05,-0.015246,1.5804
5356,17.935,3.2727,0.1,0.00013191,1318.2,0.00013197,1320.1,-4.3198e-05,3.9545,-4.3726e-05,-0.011869,1.5532
5357,17.751,3.2727,0.1,0.00013602,1359.3,0.00013615,1363.1,-4.4248e-05,7.6384,-4.5266e-05,-0.011184,1.5261
5358,17.567,3.2727,0.1,0.00014015,1400.5,0.00014034,1406.2,-4.529e-05,11.47,-4.6818e-05,-0.01064,1.4992
5359,17.383,3.2727,0.1,0.00014429,1441.9,0.00014455,1449.6,-4.632e-05,15.478,-4.8382e-05,-0.01014,1.4723
5360,17.2,3.2727,0.1,0.00014844,1483.4,0.00014877,1493.2,-4.7337e-05,19.692,-4.9959e-05,-0.0096382,1.4455
5361,17.016,3.2727,0.1,0.00015261,1525,0.000153,1536.9,-4.8338e-05,24.142,-5.1552e-05,-0.0091592,1.4188
5362,16.832,3.2727,0.1,0.00015678,1566.7,0.00015725,1581,-4.9319e-05,28.864,-5.3162e-05,-0.0087081,1.3922
5363,16.648,3.2727,0.1,0.00016097,1608.5,0.00016152,1625.2,-5.0278e-05,33.892,-5.4789e-05,-0.0082878,1.3657
5364,16.464,3.2727,0.1,0.00016516,1650.5,0.00016579,1669.8,-5.121e-05,39.267,-5.6437e-05,-0.0079261,1.3394
5365,16.281,3.2727,0.1,0.00016937,1692.5,0.00017009,1714.6,-5.2114e-05,45.03,-5.8108e-05,-0.007599,1.3131
5366,16.097,3.2727,0.1,0.00017359,1734.7,0.0001744,1759.7,-5.2985e-05,51.228,-5.9804e-05,-0.007285,1.287
5367,15.913,3.2727,0.1,0.00017783,1777.1,0.00017874,1805.3,-5.3821e-05,57.91,-6.1529e-05,-0.0070405,1.2609
5368,15.729,3.2727,0.1,0.00018209,1819.6,0.00018311,1851.3,-5.4618e-05,65.127,-6.3287e-05,-0.0068939,1.235
5369,15.545,3.2727,0.1,0.00018638,1862.5,0.00018751,1897.9,-5.5374e-05,72.937,-6.5082e-05,-0.0068773,1.2093
5370,15.362,3.2727,0.1,0.0001907,1905.7,0.00019195,1945.1,-5.6086e-05,81.398,-6.6921e-05,-0.007065,1.1836
5371,15.178,3.2727,0.1,0.00019507,1949.4,0.00019646,1993.1,-5.6754e-05,90.573,-6.8809e-05,-0.0074791,1.1581
5372,14.994,3.2727,0.1,0.00019951,1993.8,0.00020103,2042.1,-5.7377e-05,100.52,-7.0757e-05,-0.008167,1.1327
5373,14.81,3.2727,0.1,0.00020404,2039,0.00020571,2092.4,-5.7957e-05,111.31,-7.2773e-05,-0.0092817,1.1074
5374,14.626,3.2727,0.1,0.00020869,2085.5,0.00021051,2144.2,-5.8499e-05,123,-7.4871e-05,-0.010979,1.0823
5375,14.443,3.2727,0.1,0.0002135,2133.5,0.00021548,2198.1,-5.9012e-05,135.64,-7.7067e-05,-0.013465,1.0573
5376,14.259,3.2727,0.1,0.00021851,2183.6,0.00022067,2254.4,-5.9509e-05,149.26,-7.9377e-05,-0.017045,1.0325
5377,14.075,3.2727,0.1,0.00022381,2236.5,0.00022614,2314,-6.0013e-05,163.88,-8.1827e-05,-0.022045,1.0078
5378,13.891,3.2727,0.1,0.00022947,2293.1,0.000232,2377.6,-6.0553e-05,179.48,-8.4444e-05,-0.02893,0.98332
5379,13.707,3.2727,0.1,0.00023562,2354.6,0.00023834,2446.5,-6.1177e-05,195.97,-8.7264e-05,-0.038434,0.95895
5380,13.524,3.2727,0.1,0.00024242,2422.5,0.00024534,2522,-6.1948e-05,213.19,-9.0329e-05,-0.051503,0.93474
5381,13.34,3.2727,0.1,0.00025005,2498.7,0.00025317,2606.1,-6.2958e-05,230.85,-9.3691e-05,-0.069424,0.9107
5382,13.156,3.2727,0.1,0.00025878,2586,0.00026211,2701.2,-6.4334e-05,248.48,-9.7417e-05,-0.093987,0.88682
5383,12.972,3.2727,0.1,0.00026896,2687.8,0.00027249,2810.5,-6.6254e-05,265.35,-0.00010159,-0.12753,0.86313
5384,12.788,3.2727,0.1,0.00028105,2808.5,0.00028476,2938.1,-6.8966e-05,280.32,-0.0001063,-0.17321,0.83962
5385,12.605,3.2727,0.1,0.00029563,2954.3,0.00029951,3089.2,-7.2815e-05,291.71,-0.00011167,-0.2353,0.8163
5386,12.421,3.2727,0.1,0.00031352,3133.1,0.00031751,3270.8,-7.8283e-05,296.97,-0.00011785,-0.31912,0.79319
5387,12.237,3.2727,0.1,0.00033578,3355.5,0.00033979,3491.9,-8.6038e-05,292.39,-0.00012501,-0.43071,0.77029
5388,12.053,3.2727,0.1,0.00036381,3635.6,0.00036767,3763.9,-9.7006e-05,272.5,-0.00013335,-0.57554,0.74761
5389,11.869,3.2727,0.1,0.00039945,3991.7,0.00040284,4101.1,-0.00011244,229.53,-0.00014309,-0.75986,0.72519
5390,11.686,3.2727,0.1,0.00044493,4446.2,0.00044731,4520.2,-0.00013393,152.93,-0.00015442,-0.96418,0.70304
5391,11.502,3.2727,0.1,0.00050258,5022.3,0.00050306,5036.6,-0.00016323,30.35,-0.0001675,-1.7124,0.68119
5392,11.318,3.2727,0.1,0.00057357,5731.7,0.00057083,5654.2,-0.00018178,-0.62152,-0.00020186,-151.5,0.65968
5393,11.134,3.2727,0.1,0.00065457,6541.1,0.00064713,6339.3,-0.00019657,0.065437,-0.00024803,-386.63,0.63855
5394,10.95,3.2727,0.1,0.00073223,7317.3,0.0007193,6978.2,-0.00020911,2.4088,-0.00029441,-638.47,0.61785
5395,23.816,3.4545,0.1,1.9423e-05,194.09,9.6244e-06,39.569,4.3302e-06,-0.20994,-1.8445e-05,-171.33,2.4518
5396,23.632,3.4545,0.1,2.1134e-05,211.2,1.3164e-05,78.338,2.6934e-06,-0.33054,-1.8677e-05,-160.9,2.4232
5397,23.449,3.4545,0.1,2.3271e-05,232.55,1.6701e-05,117.11,1.0955e-06,-0.14441,-1.8945e-05,-150.72,2.3946
5398,23.265,3.4545,0.1,2.5729e-05,257.12,2.0245e-05,155.73,-4.9758e-07,-0.1265,-1.9252e-05,-141.04,2.3661
5399,23.081,3.4545,0.1,2.8428e-05,284.09,2.3792e-05,194.23,-2.071e-06,-0.094812,-1.9601e-05,-131.8,2.3375
5400,22.897,3.4545,0.1,3.1311e-05,312.89,2.7347e-05,232.66,-3.6283e-06,-0.079584,-1.9992e-05,-123.03,2.3089
5401,22.713,3.4545,0.1,3.4336e-05,343.12,3.0915e-05,271.06,-5.1697e-06,-0.067275,-2.0428e-05,-114.71,2.2804
5402,22.53,3.4545,0.1,3.7476e-05,374.5,3.4497e-05,309.46,-6.6968e-06,-0.058506,-2.0909e-05,-106.84,2.2519
5403,22.346,3.4545,0.1,4.0711e-05,406.83,3.8098e-05,347.9,-8.211e-06,-0.051621,-2.1435e-05,-99.41,2.2234
5404,22.162,3.4545,0.1,4.4028e-05,439.97,4.1721e-05,386.42,-9.7138e-06,-0.046165,-2.2006e-05,-92.403,2.1949
5405,21.978,3.4545,0.1,4.7414e-05,473.82,4.5368e-05,425.04,-1.1207e-05,-0.04171,-2.2621e-05,-85.802,2.1665
5406,21.794,3.4545,0.1,5.0863e-05,508.28,4.9039e-05,463.78,-1.2691e-05,-0.038001,-2.3278e-05,-79.586,2.1381
5407,21.611,3.4545,0.1,5.4369e-05,543.31,5.2738e-05,502.67,-1.4168e-05,-0.034851,-2.3977e-05,-73.732,2.1097
5408,21.427,3.4545,0.1,5.7926e-05,578.86,5.6463e-05,541.71,-1.5639e-05,-0.032147,-2.4714e-05,-68.218,2.0814
5409,21.243,3.4545,0.1,6.1531e-05,614.88,6.0215e-05,580.93,-1.7106e-05,-0.029796,-2.5489e-05,-63.019,2.0531
5410,21.059,3.4545,0.1,6.5179e-05,651.34,6.3996e-05,620.33,-1.8569e-05,-0.027734,-2.6299e-05,-58.11,2.0248
5411,20.875,3.4545,0.1,6.887e-05,688.22,6.7804e-05,659.92,-2.0029e-05,-0.025921,-2.7142e-05,-53.466,1.9966
5412,20.692,3.4545,0.1,7.2598e-05,725.48,7.1639e-05,699.7,-2.1488e-05,-0.0243,-2.8015e-05,-49.062,1.9684
5413,20.508,3.4545,0.1,7.6364e-05,763.11,7.5501e-05,739.67,-2.2946e-05,-0.022831,-2.8916e-05,-44.876,1.9403
5414,20.324,3.4545,0.1,8.0163e-05,801.08,7.9389e-05,779.85,-2.4405e-05,-0.021501,-2.9843e-05,-40.882,1.9122
5415,20.14,3.4545,0.1,8.3995e-05,839.37,8.3303e-05,820.22,-2.5864e-05,-0.020293,-3.0794e-05,-37.057,1.8842
5416,19.956,3.4545,0.1,8.7858e-05,877.98,8.7242e-05,860.8,-2.7326e-05,-0.019192,-3.1766e-05,-33.38,1.8563
5417,19.773,3.4545,0.1,9.175e-05,916.87,9.1206e-05,901.58,-2.879e-05,-0.018191,-3.2757e-05,-29.826,1.8283
5418,19.589,3.4545,0.1,9.5669e-05,956.03,9.5193e-05,942.56,-3.0257e-05,-0.017267,-3.3765e-05,-26.376,1.8005
5419,19.405,3.4545,0.1,9.9615e-05,995.46,9.9203e-05,983.75,-3.1728e-05,-0.016387,-3.4788e-05,-23.006,1.7727
5420,19.221,3.4545,0.1,0.00010358,1035.1,0.00010324,1025.1,-3.3204e-05,-0.015561,-3.5823e-05,-19.696,1.745
5421,19.038,3.4545,0.1,0.00010758,1075,0.00010729,1066.7,-3.4685e-05,-0.01478,-3.6869e-05,-16.424,1.7174
5422,18.854,3.4545,0.1,0.00011159,1115.2,0.00011136,1108.5,-3.6172e-05,-0.014034,-3.7923e-05,-13.17,1.6898
5423,18.67,3.4545,0.1,0.00011563,1155.5,0.00011546,1150.5,-3.7666e-05,-0.013313,-3.8984e-05,-9.9118,1.6623
5424,18.486,3.4545,0.1,0.00011968,1196,0.00011957,1192.7,-3.9167e-05,-0.012536,-4.0048e-05,-6.6283,1.6349
5425,18.302,3.4545,0.1,0.00012375,1236.7,0.0001237,1235,-4.0677e-05,-0.011405,-4.1114e-05,-3.2977,1.6076
5426,18.119,3.4545,0.1,0.00012784,1277.6,0.00012785,1277.6,-4.2176e-05,0.12936,-4.2198e-05,-0.036833,1.5803
5427,17.935,3.4545,0.1,0.00013195,1318.6,0.00013201,1320.4,-4.3242e-05,3.5996,-4.3723e-05,-0.012355,1.5532
5428,17.751,3.4545,0.1,0.00013607,1359.8,0.00013619,1363.3,-4.4299e-05,7.2105,-4.5261e-05,-0.011363,1.5261
5429,17.567,3.4545,0.1,0.0001402,1401.1,0.00014039,1406.5,-4.5349e-05,10.964,-4.681e-05,-0.010736,1.4991
5430,17.383,3.4545,0.1,0.00014435,1442.5,0.0001446,1449.9,-4.6389e-05,14.887,-4.8372e-05,-0.01021,1.4722
5431,17.2,3.4545,0.1,0.00014851,1484.1,0.00014882,1493.5,-4.7416e-05,19.007,-4.9947e-05,-0.009706,1.4454
5432,17.016,3.4545,0.1,0.00015268,1525.7,0.00015306,1537.3,-4.8427e-05,23.355,-5.1537e-05,-0.0092436,1.4187
5433,16.832,3.4545,0.1,0.00015686,1567.5,0.00015731,1581.3,-4.942e-05,27.961,-5.3143e-05,-0.0088182,1.3922
5434,16.648,3.4545,0.1,0.00016105,1609.4,0.00016158,1625.6,-5.0392e-05,32.861,-5.4766e-05,-0.0084349,1.3657
5435,16.464,3.4545,0.1,0.00016525,1651.4,0.00016587,1670.1,-5.1339e-05,38.09,-5.641e-05,-0.0081198,1.3393
5436,16.281,3.4545,0.1,0.00016947,1693.5,0.00017017,1714.9,-5.2259e-05,43.688,-5.8075e-05,-0.0078511,1.313
5437,16.097,3.4545,0.1,0.0001737,1735.8,0.00017449,1760.1,-5.3149e-05,49.698,-5.9764e-05,-0.0076097,1.2869
5438,15.913,3.4545,0.1,0.00017794,1778.2,0.00017883,1805.6,-5.4005e-05,56.165,-6.1482e-05,-0.0074503,1.2609
5439,15.729,3.4545,0.1,0.00018221,1820.8,0.0001832,1851.6,-5.4826e-05,63.136,-6.323e-05,-0.007406,1.235
5440,15.545,3.4545,0.1,0.0001865,1863.7,0.0001876,1898.1,-5.5608e-05,70.663,-6.5014e-05,-0.0075135,1.2092
5441,15.362,3.4545,0.1,0.00019083,1907,0.00019205,1945.2,-5.635e-05,78.799,-6.6838e-05,-0.0078499,1.1835
5442,15.178,3.4545,0.1,0.00019521,1950.8,0.00019655,1993.1,-5.7051e-05,87.6,-6.871e-05,-0.0084408,1.158
5443,14.994,3.4545,0.1,0.00019965,1995.1,0.00020112,2041.9,-5.771e-05,97.121,-7.0638e-05,-0.0093416,1.1326
5444,14.81,3.4545,0.1,0.00020417,2040.3,0.00020579,2091.9,-5.8331e-05,107.42,-7.2629e-05,-0.01071,1.1074
5445,14.626,3.4545,0.1,0.00020881,2086.7,0.00021057,2143.4,-5.8918e-05,118.54,-7.4697e-05,-0.012711,1.0822
5446,14.443,3.4545,0.1,0.00021359,2134.5,0.00021552,2196.7,-5.9479e-05,130.54,-7.6855e-05,-0.015556,1.0573
5447,14.259,3.4545,0.1,0.00021858,2184.3,0.00022066,2252.4,-6.0027e-05,143.44,-7.912e-05,-0.019555,1.0324
5448,14.075,3.4545,0.1,0.00022382,2236.6,0.00022608,2311.1,-6.0583e-05,157.24,-8.1514e-05,-0.025038,1.0078
5449,13.891,3.4545,0.1,0.0002294,2292.4,0.00023184,2373.5,-6.1175e-05,171.93,-8.4062e-05,-0.032461,0.98324
5450,13.707,3.4545,0.1,0.00023544,2352.7,0.00023806,2440.8,-6.1845e-05,187.43,-8.6796e-05,-0.042537,0.95887
5451,13.524,3.4545,0.1,0.00024206,2418.9,0.00024488,2514.3,-6.2652e-05,203.6,-8.9757e-05,-0.056154,0.93466
5452,13.34,3.4545,0.1,0.00024946,2492.8,0.00025247,2595.6,-6.368e-05,220.16,-9.2991e-05,-0.074489,0.91061
5453,13.156,3.4545,0.1,0.00025787,2576.9,0.00026107,2687,-6.5042e-05,236.71,-9.6559e-05,-0.099129,0.88674
5454,12.972,3.4545,0.1,0.0002676,2674.1,0.000271,2791.4,-6.6897e-05,252.61,-0.00010054,-0.13205,0.86304
5455,12.788,3.4545,0.1,0.00027907,2788.8,0.00028265,2912.5,-6.9468e-05,266.89,-0.00010501,-0.17584,0.83953
5456,12.605,3.4545,0.1,0.00029283,2926.3,0.00029657,3055.3,-7.306e-05,278.08,-0.0001101,-0.23386,0.81621
5457,12.421,3.4545,0.1,0.00030963,3094.1,0.00031347,3226.2,-7.8103e-05,284.04,-0.00011595,-0.31041,0.79308
5458,12.237,3.4545,0.1,0.00033045,3302.2,0.00033433,3433.8,-8.52e-05,281.6,-0.00012273,-0.41011,0.77017
5459,12.053,3.4545,0.1,0.00035669,3564.5,0.00036046,3689.8,-9.5198e-05,266.12,-0.00013069,-0.54357,0.74749
5460,11.869,3.4545,0.1,0.00039028,3900.1,0.00039368,4010,-0.0001093,230.81,-0.00014011,-0.70408,0.72504
5461,11.686,3.4545,0.1,0.0004339,4336.1,0.00043647,4416.1,-0.0001292,165.84,-0.00015141,-0.99747,0.70286
5462,11.502,3.4545,0.1,0.00049126,4909.2,0.00049219,4936.9,-0.00015721,57.622,-0.00016511,-1.7347,0.68098
5463,11.318,3.4545,0.1,0.00056677,5663.8,0.00056472,5605.4,-0.00018125,0.4036,-0.00019667,-115.41,0.65941
5464,11.134,3.4545,0.1,0.00066301,6625.5,0.00065603,6435.1,-0.00020046,-0.18313,-0.00024907,-365.45,0.63822
5465,10.95,3.4545,0.1,0.00076729,7667.6,0.00075379,7312.4,-0.00021992,-3.7592,-0.0003078,-664.02,0.61747
5466,23.816,3.6364,0.1,1.9156e-05,191.43,9.5368e-06,39.595,4.2396e-06,-0.20574,-1.8173e-05,-168.6,2.4518
5467,23.632,3.6364,0.1,2.0874e-05,208.6,1.307e-05,78.302,2.605e-06,-0.32853,-1.8404e-05,-158.18,2.4232
5468,23.449,3.6364,0.1,2.3022e-05,230.06,1.6603e-05,117.02,1.0102e-06,-0.14299,-1.8674e-05,-148.04,2.3946
5469,23.265,3.6364,0.1,2.5492e-05,254.75,2.0143e-05,155.57,-5.7924e-07,-0.12527,-1.8984e-05,-138.41,2.366
5470,23.081,3.6364,0.1,2.8204e-05,281.84,2.3687e-05,194.03,-2.1485e-06,-0.093711,-1.9338e-05,-129.25,2.3374
5471,22.897,3.6364,0.1,3.1099e-05,310.77,2.7241e-05,232.41,-3.7014e-06,-0.078561,-1.9737e-05,-120.56,2.3089
5472,22.713,3.6364,0.1,3.4137e-05,341.14,3.0809e-05,270.78,-5.2383e-06,-0.066307,-2.0182e-05,-112.35,2.2804
5473,22.53,3.6364,0.1,3.7291e-05,372.65,3.4393e-05,309.16,-6.7608e-06,-0.057578,-2.0675e-05,-104.6,2.2518
5474,22.346,3.6364,0.1,4.054e-05,405.12,3.7998e-05,347.59,-8.2705e-06,-0.05072,-2.1213e-05,-97.298,2.2233
5475,22.162,3.6364,0.1,4.387e-05,438.39,4.1626e-05,386.11,-9.769e-06,-0.045285,-2.1798e-05,-90.426,2.1949
5476,21.978,3.6364,0.1,4.727e-05,472.37,4.5278e-05,424.75,-1.1258e-05,-0.040848,-2.2427e-05,-83.965,2.1664
5477,21.794,3.6364,0.1,5.0733e-05,506.98,4.8956e-05,463.51,-1.2738e-05,-0.037156,-2.3099e-05,-77.89,2.138
5478,21.611,3.6364,0.1,5.4252e-05,542.14,5.2662e-05,502.42,-1.4211e-05,-0.034022,-2.3813e-05,-72.177,2.1097
5479,21.427,3.6364,0.1,5.7822e-05,577.82,5.6394e-05,541.5,-1.5679e-05,-0.031333,-2.4565e-05,-66.8,2.0813
5480,21.243,3.6364,0.1,6.1439e-05,613.96,6.0155e-05,580.75,-1.7142e-05,-0.029,-2.5355e-05,-61.735,2.053
5481,21.059,3.6364,0.1,6.51e-05,650.55,6.3943e-05,620.19,-1.8602e-05,-0.026957,-2.6179e-05,-56.956,2.0248
5482,20.875,3.6364,0.1,6.8801e-05,687.54,6.7759e-05,659.81,-2.006e-05,-0.025159,-2.7035e-05,-52.437,1.9965
5483,20.692,3.6364,0.1,7.2541e-05,724.91,7.1601e-05,699.62,-2.1516e-05,-0.02356,-2.7921e-05,-48.153,1.9684
5484,20.508,3.6364,0.1,7.6317e-05,762.64,7.5471e-05,739.63,-2.2971e-05,-0.022108,-2.8835e-05,-44.08,1.9402
5485,20.324,3.6364,0.1,8.0126e-05,800.71,7.9366e-05,779.84,-2.4427e-05,-0.020796,-2.9774e-05,-40.196,1.9122
5486,20.14,3.6364,0.1,8.3968e-05,839.1,8.3287e-05,820.25,-2.5885e-05,-0.019604,-3.0737e-05,-36.475,1.8842
5487,19.956,3.6364,0.1,8.7839e-05,877.79,8.7233e-05,860.87,-2.7344e-05,-0.018518,-3.172e-05,-32.898,1.8562
5488,19.773,3.6364,0.1,9.1739e-05,916.76,9.1203e-05,901.68,-2.8805e-05,-0.017533,-3.2721e-05,-29.441,1.8283
5489,19.589,3.6364,0.1,9.5667e-05,956.01,9.5196e-05,942.69,-3.0271e-05,-0.016619,-3.374e-05,-26.083,1.8004
5490,19.405,3.6364,0.1,9.962e-05,995.51,9.9212e-05,983.91,-3.174e-05,-0.015747,-3.4773e-05,-22.804,1.7727
5491,19.221,3.6364,0.1,0.0001036,1035.3,0.00010325,1025.3,-3.3214e-05,-0.014924,-3.5818e-05,-19.583,1.745
5492,19.038,3.6364,0.1,0.0001076,1075.2,0.00010731,1066.9,-3.4693e-05,-0.014139,-3.6874e-05,-16.399,1.7173
5493,18.854,3.6364,0.1,0.00011162,1115.4,0.00011139,1108.7,-3.6178e-05,-0.013372,-3.7937e-05,-13.232,1.6897
5494,18.67,3.6364,0.1,0.00011566,1155.8,0.00011549,1150.7,-3.767e-05,-0.012605,-3.9007e-05,-10.062,1.6622
5495,18.486,3.6364,0.1,0.00011972,1196.4,0.0001196,1193,-3.9169e-05,-0.011719,-4.0081e-05,-6.8681,1.6348
5496,18.302,3.6364,0.1,0.0001238,1237.2,0.00012374,1235.4,-4.0676e-05,-0.01027,-4.1158e-05,-3.63,1.6075
5497,18.119,3.6364,0.1,0.0001279,1278.1,0.00012789,1277.9,-4.2189e-05,0.0088743,-4.2236e-05,-0.34338,1.5802
5498,17.935,3.6364,0.1,0.00013201,1319.2,0.00013206,1320.7,-4.3307e-05,3.0727,-4.3717e-05,-0.013322,1.5531
5499,17.751,3.6364,0.1,0.00013614,1360.5,0.00013625,1363.7,-4.4376e-05,6.5758,-4.5253e-05,-0.011681,1.526
5500,17.567,3.6364,0.1,0.00014028,1401.8,0.00014045,1406.9,-4.5438e-05,10.214,-4.6799e-05,-0.010893,1.499
5501,17.383,3.6364,0.1,0.00014444,1443.4,0.00014467,1450.3,-4.6491e-05,14.012,-4.8357e-05,-0.010314,1.4721
5502,17.2,3.6364,0.1,0.0001486,1485,0.0001489,1493.9,-4.7532e-05,17.996,-4.9929e-05,-0.0098043,1.4453
5503,17.016,3.6364,0.1,0.00015278,1526.8,0.00015315,1537.7,-4.8559e-05,22.192,-5.1514e-05,-0.0093593,1.4186
5504,16.832,3.6364,0.1,0.00015697,1568.6,0.00015741,1581.8,-4.9569e-05,26.63,-5.3115e-05,-0.0089698,1.3921
5505,16.648,3.6364,0.1,0.00016117,1610.6,0.00016168,1626.1,-5.056e-05,31.342,-5.4733e-05,-0.0086377,1.3656
5506,16.464,3.6364,0.1,0.00016539,1652.7,0.00016597,1670.6,-5.1529e-05,36.359,-5.6369e-05,-0.0083899,1.3392
5507,16.281,3.6364,0.1,0.00016961,1695,0.00017028,1715.4,-5.2473e-05,41.718,-5.8026e-05,-0.008203,1.3129
5508,16.097,3.6364,0.1,0.00017385,1737.3,0.00017461,1760.6,-5.339e-05,47.455,-5.9706e-05,-0.0080616,1.2868
5509,15.913,3.6364,0.1,0.00017811,1779.9,0.00017896,1806.1,-5.4276e-05,53.61,-6.1412e-05,-0.008024,1.2608
5510,15.729,3.6364,0.1,0.00018239,1822.6,0.00018334,1852,-5.513e-05,60.224,-6.3147e-05,-0.0081259,1.2349
5511,15.545,3.6364,0.1,0.00018669,1865.6,0.00018774,1898.4,-5.595e-05,67.341,-6.4914e-05,-0.0084088,1.2091
5512,15.362,3.6364,0.1,0.00019103,1909,0.00019219,1945.4,-5.6735e-05,75.007,-6.6719e-05,-0.0089553,1.1834
5513,15.178,3.6364,0.1,0.00019541,1952.7,0.00019669,1993,-5.7483e-05,83.268,-6.8567e-05,-0.0098001,1.1579
5514,14.994,3.6364,0.1,0.00019985,1997.1,0.00020126,2041.6,-5.8196e-05,92.17,-7.0464e-05,-0.011005,1.1325
5515,14.81,3.6364,0.1,0.00020437,2042.3,0.00020591,2091.2,-5.8875e-05,101.76,-7.242e-05,-0.012743,1.1072
5516,14.626,3.6364,0.1,0.00020899,2088.4,0.00021067,2142.2,-5.9526e-05,112.07,-7.4443e-05,-0.015183,1.0821
5517,14.443,3.6364,0.1,0.00021374,2135.9,0.00021557,2194.8,-6.0156e-05,123.14,-7.6547e-05,-0.018555,1.0572
5518,14.259,3.6364,0.1,0.00021867,2185.2,0.00022065,2249.5,-6.0777e-05,134.99,-7.8746e-05,-0.023184,1.0323
5519,14.075,3.6364,0.1,0.00022383,2236.8,0.00022598,2306.9,-6.1408e-05,147.62,-8.1059e-05,-0.029409,1.0076
5520,13.891,3.6364,0.1,0.0002293,2291.4,0.00023161,2367.7,-6.2075e-05,161,-8.3507e-05,-0.037698,0.98312
5521,13.707,3.6364,0.1,0.00023517,2350.1,0.00023765,2432.7,-6.2814e-05,175.06,-8.6119e-05,-0.048758,0.95874
5522,13.524,3.6364,0.1,0.00024155,2413.9,0.00024422,2503.1,-6.3677e-05,189.66,-8.8928e-05,-0.063455,0.93453
5523,13.34,3.6364,0.1,0.00024862,2484.5,0.00025146,2580.4,-6.4736e-05,204.59,-9.1976e-05,-0.082901,0.91049
5524,13.156,3.6364,0.1,0.00025657,2563.9,0.00025959,2666.5,-6.6089e-05,219.49,-9.5315e-05,-0.10855,0.88661
5525,12.972,3.6364,0.1,0.00026567,2654.9,0.00026887,2764,-6.7873e-05,233.81,-9.901e-05,-0.14215,0.86291
5526,12.788,3.6364,0.1,0.00027629,2761,0.00027966,2876,-7.0277e-05,246.74,-0.00010314,-0.18587,0.83939
5527,12.605,3.6364,0.1,0.00028891,2887.1,0.00029242,3006.9,-7.3561e-05,257.09,-0.00010781,-0.24279,0.81606
5528,12.421,3.6364,0.1,0.00030417,3039.6,0.00030778,3162.4,-7.8095e-05,263.08,-0.00011315,-0.31575,0.79293
5529,12.237,3.6364,0.1,0.00032299,3227.7,0.00032664,3350.5,-8.4399e-05,262.12,-0.00011934,-0.41233,0.77
5530,12.053,3.6364,0.1,0.00034666,3464.2,0.00035023,3582.4,-9.3221e-05,250.44,-0.00012662,-0.53203,0.7473
5531,11.869,3.6364,0.1,0.00037711,3768.5,0.00038039,3874.4,-0.00010566,222.43,-0.00013536,-0.71285,0.72482
5532,11.686,3.6364,0.1,0.00041732,4170.3,0.00041992,4252.1,-0.00012339,169.78,-0.00014612,-0.98953,0.70261
5533,11.502,3.6364,0.1,0.00047207,4717.5,0.00047336,4756.3,-0.00014905,79.721,-0.0001598,-1.0379,0.68066
5534,11.318,3.6364,0.1,0.00054998,5496,0.00054868,5458.6,-0.00017823,-3.1531,-0.00018726,-70.997,0.65903
5535,11.134,3.6364,0.1,0.00066361,6631.6,0.00065781,6472.4,-0.00020253,8.1606,-0.00024549,-314.63,0.63775
5536,10.95,3.6364,0.1,0.00082677,8262,0.00081228,7883.8,-0.00023512,14.061,-0.00033299,-721.28,0.61689
5537,23.816,3.8182,0.1,1.8796e-05,187.83,9.4184e-06,39.627,4.1177e-06,-0.19994,-1.7806e-05,-164.93,2.4518
5538,23.632,3.8182,0.1,2.0524e-05,205.1,1.2944e-05,78.248,2.4861e-06,-0.3257,-1.8036e-05,-154.52,2.4231
5539,23.449,3.8182,0.1,2.2686e-05,226.71,1.647e-05,116.88,8.9553e-07,-0.14101,-1.8308e-05,-144.43,2.3946
5540,23.265,3.8182,0.1,2.5174e-05,251.56,2.0005e-05,155.36,-6.8873e-07,-0.12353,-1.8623e-05,-134.88,2.366
5541,23.081,3.8182,0.1,2.7903e-05,278.83,2.3545e-05,193.74,-2.2523e-06,-0.092153,-1.8985e-05,-125.82,2.3374
5542,22.897,3.8182,0.1,3.0816e-05,307.94,2.7098e-05,232.07,-3.7992e-06,-0.077114,-1.9395e-05,-117.26,2.3088
5543,22.713,3.8182,0.1,3.3872e-05,338.49,3.0666e-05,270.4,-5.3298e-06,-0.064936,-1.9854e-05,-109.2,2.2803
5544,22.53,3.8182,0.1,3.7044e-05,370.19,3.4254e-05,308.76,-6.8461e-06,-0.056259,-2.0362e-05,-101.61,2.2518
5545,22.346,3.8182,0.1,4.0312e-05,402.84,3.7864e-05,347.18,-8.3497e-06,-0.049443,-2.0918e-05,-94.486,2.2233
5546,22.162,3.8182,0.1,4.3661e-05,436.3,4.1499e-05,385.71,-9.8422e-06,-0.044038,-2.1522e-05,-87.801,2.1948
5547,21.978,3.8182,0.1,4.708e-05,470.47,4.5159e-05,424.36,-1.1325e-05,-0.03963,-2.2171e-05,-81.53,2.1664
5548,21.794,3.8182,0.1,5.0561e-05,505.26,4.8847e-05,463.16,-1.28e-05,-0.035963,-2.2863e-05,-75.646,2.138
5549,21.611,3.8182,0.1,5.4098e-05,540.6,5.2562e-05,502.11,-1.4269e-05,-0.032854,-2.3597e-05,-70.123,2.1096
5550,21.427,3.8182,0.1,5.7685e-05,576.45,5.6305e-05,541.23,-1.5732e-05,-0.030192,-2.4369e-05,-64.932,2.0813
5551,21.243,3.8182,0.1,6.1319e-05,612.77,6.0076e-05,580.52,-1.719e-05,-0.027887,-2.5178e-05,-60.046,2.053
5552,21.059,3.8182,0.1,6.4996e-05,649.51,6.3875e-05,620,-1.8646e-05,-0.025871,-2.6021e-05,-55.44,2.0247
5553,20.875,3.8182,0.1,6.8713e-05,686.66,6.7701e-05,659.67,-2.01e-05,-0.024102,-2.6896e-05,-51.086,1.9965
5554,20.692,3.8182,0.1,7.2467e-05,724.17,7.1554e-05,699.54,-2.1552e-05,-0.022529,-2.7799e-05,-46.961,1.9683
5555,20.508,3.8182,0.1,7.6257e-05,762.04,7.5433e-05,739.6,-2.3004e-05,-0.021105,-2.873e-05,-43.04,1.9402
5556,20.324,3.8182,0.1,8.0079e-05,800.24,7.9338e-05,779.85,-2.4457e-05,-0.019821,-2.9685e-05,-39.299,1.9121
5557,20.14,3.8182,0.1,8.3933e-05,838.75,8.3268e-05,820.31,-2.5911e-05,-0.018655,-3.0662e-05,-35.716,1.8841
5558,19.956,3.8182,0.1,8.7816e-05,877.55,8.7222e-05,860.96,-2.7368e-05,-0.01759,-3.166e-05,-32.27,1.8561
5559,19.773,3.8182,0.1,9.1727e-05,916.64,9.12e-05,901.82,-2.8827e-05,-0.016628,-3.2676e-05,-28.94,1.8282
5560,19.589,3.8182,0.1,9.5665e-05,955.99,9.5202e-05,942.87,-3.0289e-05,-0.01573,-3.3708e-05,-25.705,1.8004
5561,19.405,3.8182,0.1,9.9628e-05,995.59,9.9225e-05,984.12,-3.1755e-05,-0.014872,-3.4754e-05,-22.545,1.7726
5562,19.221,3.8182,0.1,0.00010362,1035.4,0.00010327,1025.6,-3.3227e-05,-0.014057,-3.5812e-05,-19.44,1.7449
5563,19.038,3.8182,0.1,0.00010762,1075.5,0.00010734,1067.2,-3.4703e-05,-0.013269,-3.688e-05,-16.371,1.7172
5564,18.854,3.8182,0.1,0.00011166,1115.8,0.00011142,1109.1,-3.6186e-05,-0.012485,-3.7957e-05,-13.318,1.6896
5565,18.67,3.8182,0.1,0.00011571,1156.3,0.00011553,1151.1,-3.7675e-05,-0.01167,-3.9039e-05,-10.264,1.6621
5566,18.486,3.8182,0.1,0.00011978,1197,0.00011965,1193.3,-3.9171e-05,-0.01068,-4.0126e-05,-7.187,1.6347
5567,18.302,3.8182,0.1,0.00012387,1237.8,0.0001238,1235.8,-4.0675e-05,-0.0089803,-4.1216e-05,-4.0694,1.6074
5568,18.119,3.8182,0.1,0.00012797,1278.9,0.00012796,1278.4,-4.2187e-05,0.0011812,-4.2306e-05,-0.89884,1.5801
5569,17.935,3.8182,0.1,0.0001321,1320,0.00013214,1321.2,-4.3392e-05,2.3803,-4.3711e-05,-0.01534,1.553
5570,17.751,3.8182,0.1,0.00013623,1361.4,0.00013633,1364.2,-4.4476e-05,5.7426,-4.5242e-05,-0.012234,1.5259
5571,17.567,3.8182,0.1,0.00014038,1402.9,0.00014054,1407.5,-4.5554e-05,9.2314,-4.6784e-05,-0.011145,1.4989
5572,17.383,3.8182,0.1,0.00014455,1444.5,0.00014476,1450.9,-4.6624e-05,12.868,-4.8338e-05,-0.010467,1.472
5573,17.2,3.8182,0.1,0.00014873,1486.3,0.000149,1494.5,-4.7684e-05,16.674,-4.9905e-05,-0.0099314,1.4452
5574,17.016,3.8182,0.1,0.00015292,1528.1,0.00015326,1538.4,-4.8732e-05,20.676,-5.1485e-05,-0.0094997,1.4185
5575,16.832,3.8182,0.1,0.00015712,1570.1,0.00015753,1582.4,-4.9764e-05,24.899,-5.3079e-05,-0.0091505,1.3919
5576,16.648,3.8182,0.1,0.00016134,1612.2,0.00016181,1626.7,-5.078e-05,29.369,-5.469e-05,-0.0088782,1.3654
5577,16.464,3.8182,0.1,0.00016556,1654.5,0.00016612,1671.3,-5.1776e-05,34.115,-5.6317e-05,-0.0087099,1.3391
5578,16.281,3.8182,0.1,0.0001698,1696.8,0.00017043,1716.1,-5.275e-05,39.167,-5.7964e-05,-0.008624,1.3128
5579,16.097,3.8182,0.1,0.00017406,1739.4,0.00017477,1761.2,-5.3701e-05,44.556,-5.9632e-05,-0.0086053,1.2867
5580,15.913,3.8182,0.1,0.00017833,1782,0.00017913,1806.7,-5.4625e-05,50.315,-6.1323e-05,-0.0087171,1.2606
5581,15.729,3.8182,0.1,0.00018262,1824.9,0.00018351,1852.5,-5.5523e-05,56.476,-6.304e-05,-0.0089984,1.2347
5582,15.545,3.8182,0.1,0.00018693,1868,0.00018793,1898.8,-5.6391e-05,63.075,-6.4787e-05,-0.0094986,1.2089
5583,15.362,3.8182,0.1,0.00019128,1911.5,0.00019238,1945.6,-5.7229e-05,70.147,-6.6566e-05,-0.010305,1.1833
5584,15.178,3.8182,0.1,0.00019567,1955.3,0.00019687,1993,-5.8037e-05,77.726,-6.8383e-05,-0.011464,1.1577
5585,14.994,3.8182,0.1,0.00020011,1999.7,0.00020143,2041.2,-5.8816e-05,85.845,-7.0243e-05,-0.01305,1.1324
5586,14.81,3.8182,0.1,0.00020462,2044.7,0.00020606,2090.4,-5.9569e-05,94.537,-7.2153e-05,-0.015246,1.1071
5587,14.626,3.8182,0.1,0.00020921,2090.7,0.00021078,2140.7,-6.03e-05,103.83,-7.4121e-05,-0.018245,1.082
5588,14.443,3.8182,0.1,0.00021393,2137.8,0.00021563,2192.4,-6.1016e-05,113.73,-7.6156e-05,-0.0223,1.057
5589,14.259,3.8182,0.1,0.00021879,2186.4,0.00022064,2245.9,-6.173e-05,124.26,-7.8271e-05,-0.027758,1.0322
5590,14.075,3.8182,0.1,0.00022386,2237,0.00022585,2301.6,-6.2455e-05,135.4,-8.0481e-05,-0.034996,1.0075
5591,13.891,3.8182,0.1,0.00022918,2290.2,0.00023132,2360.2,-6.3216e-05,147.12,-8.2803e-05,-0.044521,0.98295
5592,13.707,3.8182,0.1,0.00023483,2346.7,0.00023714,2422.3,-6.4044e-05,159.35,-8.5259e-05,-0.057082,0.95858
5593,13.524,3.8182,0.1,0.00024092,2407.6,0.00024339,2488.9,-6.4981e-05,171.95,-8.7877e-05,-0.0736,0.93437
5594,13.34,3.8182,0.1,0.00024758,2474.1,0.0002502,2561.2,-6.6088e-05,184.74,-9.0689e-05,-0.095255,0.91032
5595,13.156,3.8182,0.1,0.00025496,2547.9,0.00025774,2640.8,-6.7447e-05,197.41,-9.3737e-05,-0.12358,0.88644
5596,12.972,3.8182,0.1,0.0002633,2631.2,0.00026623,2729.6,-6.917e-05,209.48,-9.7072e-05,-0.16052,0.86273
5597,12.788,3.8182,0.1,0.00027289,2727,0.00027596,2830.3,-7.1415e-05,220.28,-0.00010076,-0.20836,0.83921
5598,12.605,3.8182,0.1,0.00028411,2839.2,0.00028731,2946.5,-7.44e-05,228.77,-0.00010488,-0.27153,0.81587
5599,12.421,3.8182,0.1,0.00029754,2973.3,0.00030081,3082.9,-7.8437e-05,233.43,-0.00010955,-0.3517,0.79272
5600,12.237,3.8182,0.1,0.00031393,3137.2,0.00031723,3246.5,-8.3975e-05,232.01,-0.00011492,-0.47204,0.76978
5601,12.053,3.8182,0.1,0.00033445,3342.2,0.00033765,3447,-9.1673e-05,221.21,-0.00012119,-0.58975,0.74705
5602,11.869,3.8182,0.1,0.00036087,3606.2,0.00036379,3699.7,-0.00010253,195.99,-0.00012875,-0.99543,0.72454
5603,11.686,3.8182,0.1,0.00039603,3957.6,0.00039835,4029.7,-0.00011812,149.18,-0.00013807,-0.73517,0.70227
5604,11.502,3.8182,0.1,0.00044528,4449.7,0.00044631,4480.9,-0.00014102,67.944,-0.00015067,-4.5369,0.68027
5605,11.318,3.8182,0.1,0.00051764,5172.9,0.0005166,5143,-0.0001671,5.971,-0.00017653,-64.871,0.65854
5606,11.134,3.8182,0.1,0.00064157,6411.3,0.00063549,6241.2,-0.00019882,-27.484,-0.00023559,-303.7,0.63714
5607,10.95,3.8182,0.1,0.00087169,8710.9,0.00085763,8341.6,-0.00025041,16.259,-0.00034698,-709.32,0.61612
5608,23.816,4,0.1,1.834e-05,183.28,9.2677e-06,39.664,3.9632e-06,-0.19236,-1.7341e-05,-160.26,2.4517
5609,23.632,4,0.1,2.008e-05,200.66,1.2782e-05,78.17,2.3357e-06,-0.32194,-1.7569e-05,-149.88,2.4231
5610,23.449,4,0.1,2.2262e-05,222.47,1.63e-05,116.69,7.5086e-07,-0.13834,-1.7844e-05,-139.85,2.3945
5611,23.265,4,0.1,2.4772e-05,247.55,1.9828e-05,155.07,-8.266e-07,-0.12119,-1.8167e-05,-130.41,2.3659
5612,23.081,4,0.1,2.7524e-05,275.05,2.3365e-05,193.37,-2.3827e-06,-0.090053,-1.854e-05,-121.49,2.3373
5613,22.897,4,0.1,3.046e-05,304.39,2.6917e-05,231.63,-3.9216e-06,-0.075156,-1.8965e-05,-113.1,2.3088
5614,22.713,4,0.1,3.3541e-05,335.17,3.0487e-05,269.91,-5.4442e-06,-0.06308,-1.9442e-05,-105.24,2.2802
5615,22.53,4,0.1,3.6737e-05,367.12,3.408e-05,308.25,-6.9526e-06,-0.054473,-1.9971e-05,-97.872,2.2517
5616,22.346,4,0.1,4.0029e-05,400.01,3.7697e-05,346.67,-8.4483e-06,-0.047712,-2.0551e-05,-90.982,2.2232
5617,22.162,4,0.1,4.3402e-05,433.72,4.1341e-05,385.21,-9.9334e-06,-0.042354,-2.1179e-05,-84.539,2.1948
5618,21.978,4,0.1,4.6845e-05,468.13,4.5013e-05,423.9,-1.1409e-05,-0.037984,-2.1854e-05,-78.513,2.1663
5619,21.794,4,0.1,5.035e-05,503.15,4.8713e-05,462.73,-1.2878e-05,-0.034358,-2.2572e-05,-72.874,2.1379
5620,21.611,4,0.1,5.391e-05,538.73,5.2441e-05,501.73,-1.434e-05,-0.031293,-2.3331e-05,-67.59,2.1095
5621,21.427,4,0.1,5.7519e-05,574.8,5.6197e-05,540.9,-1.5797e-05,-0.028671,-2.4129e-05,-62.633,2.0812
5622,21.243,4,0.1,6.1174e-05,611.32,5.9981e-05,580.26,-1.725e-05,-0.026405,-2.4962e-05,-57.973,2.0529
5623,21.059,4,0.1,6.4871e-05,648.27,6.3793e-05,619.8,-1.8701e-05,-0.024431,-2.5829e-05,-53.582,2.0246
5624,20.875,4,0.1,6.8607e-05,685.6,6.7632e-05,659.53,-2.0149e-05,-0.022705,-2.6726e-05,-49.434,1.9964
5625,20.692,4,0.1,7.2379e-05,723.29,7.1497e-05,699.46,-2.1597e-05,-0.021173,-2.7651e-05,-45.505,1.9682
5626,20.508,4,0.1,7.6185e-05,761.33,7.5388e-05,739.57,-2.3045e-05,-0.019789,-2.8602e-05,-41.77,1.9401
5627,20.324,4,0.1,8.0024e-05,799.68,7.9305e-05,779.89,-2.4494e-05,-0.018542,-2.9577e-05,-38.207,1.912
5628,20.14,4,0.1,8.3892e-05,838.34,8.3246e-05,820.4,-2.5945e-05,-0.017413,-3.0573e-05,-34.794,1.884
5629,19.956,4,0.1,8.779e-05,877.29,8.7211e-05,861.1,-2.7397e-05,-0.016381,-3.1589e-05,-31.51,1.856
5630,19.773,4,0.1,9.1714e-05,916.51,9.1199e-05,902.01,-2.8853e-05,-0.015448,-3.2622e-05,-28.335,1.8281
5631,19.589,4,0.1,9.5665e-05,955.99,9.521e-05,943.11,-3.0312e-05,-0.014579,-3.367e-05,-25.25,1.8002
5632,19.405,4,0.1,9.9641e-05,995.72,9.9243e-05,984.41,-3.1775e-05,-0.013743,-3.4733e-05,-22.236,1.7725
5633,19.221,4,0.1,0.00010364,1035.7,0.0001033,1025.9,-3.3243e-05,-0.012942,-3.5806e-05,-19.273,1.7447
5634,19.038,4,0.1,0.00010766,1075.9,0.00010737,1067.6,-3.4716e-05,-0.012159,-3.689e-05,-16.345,1.7171
5635,18.854,4,0.1,0.0001117,1116.3,0.00011147,1109.5,-3.6196e-05,-0.011367,-3.7982e-05,-13.432,1.6895
5636,18.67,4,0.1,0.00011577,1156.9,0.00011558,1151.6,-3.7681e-05,-0.010519,-3.908e-05,-10.518,1.662
5637,18.486,4,0.1,0.00011985,1197.7,0.00011972,1193.8,-3.9174e-05,-0.0094513,-4.0182e-05,-7.5845,1.6346
5638,18.302,4,0.1,0.00012395,1238.6,0.00012387,1236.3,-4.0675e-05,-0.0076255,-4.1288e-05,-4.6135,1.6072
5639,18.119,4,0.1,0.00012807,1279.8,0.00012804,1279,-4.2183e-05,-0.00059085,-4.2395e-05,-1.5916,1.58
5640,17.935,4,0.1,0.0001322,1321.1,0.00013222,1321.8,-4.3497e-05,1.5319,-4.3703e-05,-0.020546,1.5528
5641,17.751,4,0.1,0.00013635,1362.5,0.00013643,1364.9,-4.46e-05,4.7215,-4.523e-05,-0.013239,1.5257
5642,17.567,4,0.1,0.00014051,1404.2,0.00014065,1408.2,-4.5697e-05,8.0295,-4.6767e-05,-0.011552,1.4987
5643,17.383,4,0.1,0.00014469,1445.9,0.00014488,1451.6,-4.6788e-05,11.471,-4.8316e-05,-0.010686,1.4719
5644,17.2,4,0.1,0.00014888,1487.8,0.00014913,1495.3,-4.787e-05,15.066,-4.9876e-05,-0.01009,1.4451
5645,17.016,4,0.1,0.00015309,1529.8,0.0001534,1539.1,-4.8942e-05,18.835,-5.145e-05,-0.0096556,1.4184
5646,16.832,4,0.1,0.0001573,1572,0.00015768,1583.2,-5.0001e-05,22.8,-5.3036e-05,-0.0093421,1.3918
5647,16.648,4,0.1,0.00016153,1614.2,0.00016198,1627.5,-5.1045e-05,26.983,-5.4638e-05,-0.0091342,1.3653
5648,16.464,4,0.1,0.00016578,1656.6,0.00016629,1672.1,-5.2074e-05,31.408,-5.6255e-05,-0.0090534,1.3389
5649,16.281,4,0.1,0.00017003,1699.1,0.00017062,1716.9,-5.3084e-05,36.098,-5.789e-05,-0.0090781,1.3126
5650,16.097,4,0.1,0.0001743,1741.8,0.00017496,1762,-5.4075e-05,41.077,-5.9543e-05,-0.0091966,1.2865
5651,15.913,4,0.1,0.00017859,1784.7,0.00017933,1807.4,-5.5045e-05,46.369,-6.1217e-05,-0.0094748,1.2604
5652,15.729,4,0.1,0.0001829,1827.7,0.00018372,1853.1,-5.5992e-05,52,-6.2914e-05,-0.0099581,1.2345
5653,15.545,4,0.1,0.00018722,1871,0.00018814,1899.3,-5.6916e-05,57.993,-6.4635e-05,-0.010698,1.2087
5654,15.362,4,0.1,0.00019158,1914.5,0.0001926,1945.9,-5.7816e-05,64.371,-6.6385e-05,-0.011797,1.1831
5655,15.178,4,0.1,0.00019598,1958.4,0.00019709,1993,-5.8694e-05,71.156,-6.8166e-05,-0.013312,1.1576
5656,14.994,4,0.1,0.00020041,2002.8,0.00020163,2040.8,-5.955e-05,78.368,-6.9982e-05,-0.015329,1.1322
5657,14.81,4,0.1,0.00020491,2047.7,0.00020624,2089.3,-6.0387e-05,86.02,-7.1838e-05,-0.018053,1.1069
5658,14.626,4,0.1,0.00020948,2093.4,0.00021092,2138.8,-6.1211e-05,94.124,-7.3741e-05,-0.021705,1.0818
5659,14.443,4,0.1,0.00021415,2140,0.00021571,2189.5,-6.2027e-05,102.68,-7.5696e-05,-0.026568,1.0568
5660,14.259,4,0.1,0.00021894,2187.9,0.00022062,2241.5,-6.2845e-05,111.68,-7.7714e-05,-0.033039,1.032
5661,14.075,4,0.1,0.00022389,2237.3,0.0002257,2295.4,-6.368e-05,121.1,-7.9803e-05,-0.041557,1.0073
5662,13.891,4,0.1,0.00022904,2288.8,0.00023098,2351.4,-6.455e-05,130.89,-8.1977e-05,-0.052711,0.98275
5663,13.707,4,0.1,0.00023445,2342.9,0.00023653,2410.1,-6.5481e-05,140.97,-8.4252e-05,-0.067372,0.95838
5664,13.524,4,0.1,0.0002402,2400.3,0.00024241,2472.3,-6.6508e-05,151.22,-8.6646e-05,-0.086639,0.93416
5665,13.34,4,0.1,0.00024638,2462.1,0.00024873,2538.8,-6.7679e-05,161.45,-8.9182e-05,-0.11195,0.91011
5666,13.156,4,0.1,0.00025313,2529.5,0.0002556,2610.8,-6.906e-05,171.39,-9.189e-05,-0.14528,0.88622
5667,12.972,4,0.1,0.0002606,2604.2,0.0002632,2689.7,-7.0743e-05,180.6,-9.4805e-05,-0.18932,0.86251
5668,12.788,4,0.1,0.00026903,2688.4,0.00027173,2777.5,-7.2855e-05,188.46,-9.797e-05,-0.24772,0.83898
5669,12.605,4,0.1,0.00027871,2785.2,0.0002815,2877,-7.5582e-05,193.99,-0.00010144,-0.32775,0.81563
5670,12.421,4,0.1,0.0002901,2899,0.00029292,2991.7,-7.9192e-05,195.73,-0.0001053,-0.43642,0.79247
5671,12.237,4,0.1,0.00030382,3036.1,0.00030661,3127,-8.4087e-05,191.4,-0.00010964,-0.61191,0.7695
5672,12.053,4,0.1,0.00032083,3206.1,0.00032347,3290.7,-9.088e-05,177.49,-0.00011461,-0.84351,0.74674
5673,11.869,4,0.1,0.00034267,3424.4,0.00034492,3495.3,-0.00010052,148.41,-0.00012048,-1.5441,0.7242
5674,11.686,4,0.1,0.00037179,3715.3,0.00037328,3761.1,-0.00011452,95.962,-0.00012761,-2.4335,0.70187
5675,11.502,4,0.1,0.00041299,4127.1,0.00041289,4124.4,-0.00013377,16.981,-0.00013897,-22.081,0.67979
5676,11.318,4,0.1,0.00047484,4745.1,0.00047189,4663.7,-0.000147,13.585,-0.00017157,-171,0.65797
5677,11.134,4,0.1,0.00058173,5813.3,0.00057113,5524.9,-0.00017241,-61.842,-0.00022956,-491.23,0.63642
5678,10.95,4,0.1,0.00087547,8748.7,0.00084256,8084.1,-0.00017471,440.7,-0.00042742,-1458.1,0.61519
5679,23.816,4.1818,0.1,1.7783e-05,177.71,9.0829e-06,39.7,3.7748e-06,-0.18271,-1.6772e-05,-154.56,2.4516
5680,23.632,4.1818,0.1,1.9539e-05,195.26,1.2584e-05,78.061,2.1526e-06,-0.31703,-1.6998e-05,-144.21,2.423
5681,23.449,4.1818,0.1,2.1746e-05,217.31,1.6091e-05,116.45,5.7521e-07,-0.13484,-1.7278e-05,-134.28,2.3944
5682,23.265,4.1818,0.1,2.4284e-05,242.67,1.9612e-05,154.7,-9.9349e-07,-0.11811,-1.7611e-05,-124.97,2.3658
5683,23.081,4.1818,0.1,2.7065e-05,270.46,2.3144e-05,192.89,-2.54e-06,-0.087272,-1.7999e-05,-116.24,2.3373
5684,22.897,4.1818,0.1,3.0032e-05,300.11,2.6696e-05,231.08,-4.069e-06,-0.072557,-1.8444e-05,-108.08,2.3087
5685,22.713,4.1818,0.1,3.3143e-05,331.2,3.027e-05,269.31,-5.5815e-06,-0.060612,-1.8946e-05,-100.48,2.2802
5686,22.53,4.1818,0.1,3.637e-05,363.45,3.387e-05,307.63,-7.0799e-06,-0.052101,-1.9503e-05,-93.392,2.2516
5687,22.346,4.1818,0.1,3.9693e-05,396.66,3.7498e-05,346.06,-8.5661e-06,-0.045417,-2.0112e-05,-86.797,2.2231
5688,22.162,4.1818,0.1,4.3097e-05,430.67,4.1154e-05,384.63,-1.0042e-05,-0.040124,-2.0772e-05,-80.658,2.1947
5689,21.978,4.1818,0.1,4.657e-05,465.38,4.484e-05,423.35,-1.1509e-05,-0.03582,-2.1478e-05,-74.936,2.1662
5690,21.794,4.1818,0.1,5.0104e-05,500.69,4.8555e-05,462.24,-1.2969e-05,-0.032257,-2.2228e-05,-69.597,2.1378
5691,21.611,4.1818,0.1,5.3692e-05,536.55,5.23e-05,501.31,-1.4424e-05,-0.02925,-2.3019e-05,-64.606,2.1094
5692,21.427,4.1818,0.1,5.7328e-05,572.88,5.6072e-05,540.55,-1.5874e-05,-0.026692,-2.3847e-05,-59.931,2.0811
5693,21.243,4.1818,0.1,6.1008e-05,609.66,5.9873e-05,579.98,-1.7321e-05,-0.024489,-2.471e-05,-55.541,2.0528
5694,21.059,4.1818,0.1,6.4728e-05,646.84,6.37e-05,619.59,-1.8765e-05,-0.022576,-2.5604e-05,-51.408,2.0245
5695,20.875,4.1818,0.1,6.8487e-05,684.39,6.7554e-05,659.39,-2.0208e-05,-0.02091,-2.6528e-05,-47.506,1.9963
5696,20.692,4.1818,0.1,7.228e-05,722.3,7.1434e-05,699.39,-2.1651e-05,-0.019436,-2.7479e-05,-43.809,1.9681
5697,20.508,4.1818,0.1,7.6106e-05,760.53,7.534e-05,739.58,-2.3094e-05,-0.01811,-2.8454e-05,-40.295,1.94
5698,20.324,4.1818,0.1,7.9963e-05,799.07,7.927e-05,779.96,-2.4538e-05,-0.016917,-2.9452e-05,-36.941,1.9119
5699,20.14,4.1818,0.1,8.3849e-05,837.91,8.3224e-05,820.53,-2.5984e-05,-0.015837,-3.0471e-05,-33.727,1.8838
5700,19.956,4.1818,0.1,8.7763e-05,877.02,8.7201e-05,861.3,-2.7432e-05,-0.014858,-3.1507e-05,-30.633,1.8559
5701,19.773,4.1818,0.1,9.1703e-05,916.4,9.1202e-05,902.26,-2.8884e-05,-0.013969,-3.2561e-05,-27.641,1.828
5702,19.589,4.1818,0.1,9.5669e-05,956.03,9.5224e-05,943.42,-3.0339e-05,-0.013139,-3.3629e-05,-24.731,1.8001
5703,19.405,4.1818,0.1,9.9659e-05,995.9,9.9268e-05,984.77,-3.1798e-05,-0.012338,-3.471e-05,-21.887,1.7723
5704,19.221,4.1818,0.1,0.00010367,1036,0.00010333,1026.3,-3.3262e-05,-0.011566,-3.5802e-05,-19.092,1.7446
5705,19.038,4.1818,0.1,0.00010771,1076.3,0.00010742,1068.1,-3.4732e-05,-0.010803,-3.6904e-05,-16.328,1.7169
5706,18.854,4.1818,0.1,0.00011176,1116.8,0.00011152,1110,-3.6208e-05,-0.010017,-3.8013e-05,-13.578,1.6894
5707,18.67,4.1818,0.1,0.00011584,1157.6,0.00011565,1152.1,-3.7689e-05,-0.0091612,-3.9129e-05,-10.828,1.6619
5708,18.486,4.1818,0.1,0.00011993,1198.5,0.00011979,1194.4,-3.9178e-05,-0.008067,-4.025e-05,-8.0605,1.6344
5709,18.302,4.1818,0.1,0.00012405,1239.6,0.00012395,1237,-4.0675e-05,-0.0062547,-4.1374e-05,-5.2595,1.6071
5710,18.119,4.1818,0.1,0.00012818,1280.9,0.00012813,1279.7,-4.2179e-05,-0.0010967,-4.2499e-05,-2.4117,1.5798
5711,17.935,4.1818,0.1,0.00013232,1322.3,0.00013233,1322.6,-4.3618e-05,0.55388,-4.3698e-05,-0.04718,1.5526
5712,17.751,4.1818,0.1,0.00013649,1363.9,0.00013655,1365.7,-4.4745e-05,3.5247,-4.5216e-05,-0.015286,1.5256
5713,17.567,4.1818,0.1,0.00014066,1405.7,0.00014078,1409,-4.5865e-05,6.6242,-4.6748e-05,-0.012253,1.4986
5714,17.383,4.1818,0.1,0.00014486,1447.6,0.00014502,1452.5,-4.6979e-05,9.8424,-4.8291e-05,-0.011015,1.4717
5715,17.2,4.1818,0.1,0.00014906,1489.6,0.00014928,1496.2,-4.8087e-05,13.195,-4.9844e-05,-0.010289,1.4449
5716,17.016,4.1818,0.1,0.00015328,1531.8,0.00015356,1540.1,-4.9186e-05,16.699,-5.141e-05,-0.0098239,1.4182
5717,16.832,4.1818,0.1,0.00015752,1574.1,0.00015785,1584.2,-5.0275e-05,20.373,-5.2988e-05,-0.0095307,1.3916
5718,16.648,4.1818,0.1,0.00016177,1616.5,0.00016216,1628.5,-5.1353e-05,24.232,-5.4579e-05,-0.0093776,1.3651
5719,16.464,4.1818,0.1,0.00016603,1659.1,0.00016649,1673.1,-5.2418e-05,28.296,-5.6185e-05,-0.0093833,1.3387
5720,16.281,4.1818,0.1,0.0001703,1701.8,0.00017083,1717.9,-5.3468e-05,32.58,-5.7806e-05,-0.0095219,1.3124
5721,16.097,4.1818,0.1,0.00017459,1744.7,0.00017519,1762.9,-5.4504e-05,37.101,-5.9443e-05,-0.0097824,1.2863
5722,15.913,4.1818,0.1,0.00017889,1787.7,0.00017957,1808.3,-5.5523e-05,41.876,-6.1098e-05,-0.010233,1.2602
5723,15.729,4.1818,0.1,0.00018322,1830.9,0.00018397,1853.9,-5.6525e-05,46.919,-6.2772e-05,-0.010923,1.2343
5724,15.545,4.1818,0.1,0.00018756,1874.3,0.00018839,1899.9,-5.7511e-05,52.243,-6.4466e-05,-0.011917,1.2085
5725,15.362,4.1818,0.1,0.00019193,1918,0.00019285,1946.2,-5.848e-05,57.859,-6.6182e-05,-0.013321,1.1829
5726,15.178,4.1818,0.1,0.00019633,1961.9,0.00019734,1993,-5.9433e-05,63.773,-6.7923e-05,-0.015205,1.1573
5727,14.994,4.1818,0.1,0.00020076,2006.3,0.00020186,2040.3,-6.0373e-05,69.991,-6.969e-05,-0.017677,1.1319
5728,14.81,4.1818,0.1,0.00020525,2051,0.00020644,2088.2,-6.1302e-05,76.51,-7.1488e-05,-0.020968,1.1067
5729,14.626,4.1818,0.1,0.00020979,2096.4,0.00021108,2136.8,-6.2225e-05,83.322,-7.3318e-05,-0.025329,1.0815
5730,14.443,4.1818,0.1,0.0002144,2142.5,0.00021579,2186.3,-6.3148e-05,90.41,-7.5185e-05,-0.031094,1.0566
5731,14.259,4.1818,0.1,0.0002191,2189.5,0.0002206,2236.7,-6.408e-05,97.746,-7.7094e-05,-0.03873,1.0317
5732,14.075,4.1818,0.1,0.00022392,2237.6,0.00022552,2288.4,-6.5032e-05,105.29,-7.9051e-05,-0.048773,1.007
5733,13.891,4.1818,0.1,0.00022888,2287.2,0.00023059,2341.6,-6.6019e-05,112.97,-8.1063e-05,-0.06196,0.98251
5734,13.707,4.1818,0.1,0.00023403,2338.7,0.00023585,2396.6,-6.7062e-05,120.71,-8.3138e-05,-0.079386,0.95813
5735,13.524,4.1818,0.1,0.00023941,2392.4,0.00024133,2454,-6.8187e-05,128.37,-8.5286e-05,-0.10248,0.93391
5736,13.34,4.1818,0.1,0.00024508,2449.1,0.0002471,2514.1,-6.9432e-05,135.77,-8.7519e-05,-0.13324,0.90985
5737,13.156,4.1818,0.1,0.00025113,2509.6,0.00025325,2577.8,-7.0847e-05,142.63,-8.9853e-05,-0.17451,0.88596
5738,12.972,4.1818,0.1,0.00025768,2575,0.00025988,2646,-7.2504e-05,148.55,-9.2305e-05,-0.23055,0.86224
5739,12.788,4.1818,0.1,0.00026487,2646.9,0.00026713,2719.9,-7.4508e-05,152.88,-9.4896e-05,-0.30803,0.8387
5740,12.605,4.1818,0.1,0.00027293,2727.4,0.00027522,2801.2,-7.7015e-05,154.65,-9.7653e-05,-0.41962,0.81534
5741,12.421,4.1818,0.1,0.00028217,2819.8,0.00028444,2892.5,-8.0262e-05,152.28,-0.00010061,-0.58739,0.79216
5742,12.237,4.1818,0.1,0.00029309,2928.9,0.00029524,2997.4,-8.4621e-05,143.23,-0.0001038,-0.87503,0.76917
5743,12.053,4.1818,0.1,0.00030643,3062.2,0.00030831,3121.3,-9.0679e-05,123.39,-0.00010729,-1.4203,0.74638
5744,11.869,4.1818,0.1,0.00032342,3232,0.00032475,3272.7,-9.9346e-05,86.199,-0.00011122,-3.0407,0.72379
5745,11.686,4.1818,0.1,0.00034608,3458.4,0.00034629,3465,-0.00011116,27.95,-0.00011678,-14.317,0.70141
5746,11.502,4.1818,0.1,0.00037809,3778.3,0.00037603,3720.8,-0.00011843,5.5845,-0.00013482,-117.56,0.67925
5747,11.318,4.1818,0.1,0.00042612,4258.2,0.00041932,4079.4,-0.00012269,6.8947,-0.00016927,-343.04,0.65732
5748,11.134,4.1818,0.1,0.00051345,5130.9,0.00049273,4631.3,-0.00012445,-6.0245,-0.00024088,-880.79,0.63562
5749,10.95,4.1818,0.1,0.00071564,7151.5,0.00064921,5784.5,-0.00010456,120.89,-0.00042034,-2251.8,0.61415
5750,23.816,4.3636,0.1,1.7119e-05,171.07,8.8611e-06,39.732,3.5504e-06,-0.1706,-1.6093e-05,-147.76,2.4515
5751,23.632,4.3636,0.1,1.8895e-05,188.82,1.2345e-05,77.907,1.9352e-06,-0.31068,-1.6317e-05,-137.45,2.4229
5752,23.449,4.3636,0.1,2.1133e-05,211.19,1.584e-05,116.12,3.674e-07,-0.13027,-1.6604e-05,-127.64,2.3943
5753,23.265,4.3636,0.1,2.3706e-05,236.9,1.9351e-05,154.23,-1.1901e-06,-0.11407,-1.6951e-05,-118.53,2.3657
5754,23.081,4.3636,0.1,2.6525e-05,265.07,2.288e-05,192.3,-2.7246e-06,-0.083611,-1.736e-05,-110.05,2.3372
5755,22.897,4.3636,0.1,2.953e-05,295.1,2.6433e-05,230.41,-4.2412e-06,-0.06913,-1.7832e-05,-102.18,2.3086
5756,22.713,4.3636,0.1,3.268e-05,326.58,3.0014e-05,268.59,-5.7413e-06,-0.057354,-1.8365e-05,-94.909,2.2801
5757,22.53,4.3636,0.1,3.5947e-05,359.22,3.3625e-05,306.9,-7.2277e-06,-0.048973,-1.8957e-05,-88.18,2.2515
5758,22.346,4.3636,0.1,3.9308e-05,392.81,3.7267e-05,345.35,-8.7024e-06,-0.042399,-1.9604e-05,-81.954,2.223
5759,22.162,4.3636,0.1,4.2749e-05,427.2,4.094e-05,383.97,-1.0168e-05,-0.037211,-2.0302e-05,-76.185,2.1946
5760,21.978,4.3636,0.1,4.6259e-05,462.27,4.4644e-05,422.75,-1.1625e-05,-0.033003,-2.1047e-05,-70.831,2.1661
5761,21.794,4.3636,0.1,4.9827e-05,497.93,4.8379e-05,461.71,-1.3075e-05,-0.029537,-2.1836e-05,-65.851,2.1377
5762,21.611,4.3636,0.1,5.3447e-05,534.11,5.2142e-05,500.85,-1.4521e-05,-0.026625,-2.2664e-05,-61.206,2.1093
5763,21.427,4.3636,0.1,5.7114e-05,570.75,5.5934e-05,540.18,-1.5963e-05,-0.024161,-2.3528e-05,-56.861,2.081
5764,21.243,4.3636,0.1,6.0824e-05,607.82,5.9753e-05,579.69,-1.7402e-05,-0.022049,-2.4425e-05,-52.786,2.0527
5765,21.059,4.3636,0.1,6.4572e-05,645.27,6.3599e-05,619.39,-1.884e-05,-0.020229,-2.5352e-05,-48.952,2.0244
5766,20.875,4.3636,0.1,6.8356e-05,683.08,6.7471e-05,659.28,-2.0276e-05,-0.01865,-2.6307e-05,-45.331,1.9961
5767,20.692,4.3636,0.1,7.2173e-05,721.23,7.1368e-05,699.36,-2.1713e-05,-0.017259,-2.7287e-05,-41.901,1.968
5768,20.508,4.3636,0.1,7.6021e-05,759.69,7.529e-05,739.62,-2.315e-05,-0.016012,-2.829e-05,-38.639,1.9398
5769,20.324,4.3636,0.1,7.9899e-05,798.44,7.9235e-05,780.08,-2.4589e-05,-0.014897,-2.9315e-05,-35.524,1.9117
5770,20.14,4.3636,0.1,8.3805e-05,837.47,8.3204e-05,820.72,-2.603e-05,-0.013891,-3.0358e-05,-32.537,1.8837
5771,19.956,4.3636,0.1,8.7738e-05,876.77,8.7195e-05,861.56,-2.7473e-05,-0.012977,-3.1419e-05,-29.66,1.8557
5772,19.773,4.3636,0.1,9.1696e-05,916.33,9.1209e-05,902.59,-2.892e-05,-0.012153,-3.2495e-05,-26.874,1.8278
5773,19.589,4.3636,0.1,9.5678e-05,956.12,9.5244e-05,943.81,-3.037e-05,-0.011382,-3.3585e-05,-24.164,1.8
5774,19.405,4.3636,0.1,9.9684e-05,996.15,9.9301e-05,985.22,-3.1825e-05,-0.010634,-3.4687e-05,-21.513,1.7722
5775,19.221,4.3636,0.1,0.00010371,1036.4,0.00010338,1026.8,-3.3285e-05,-0.0099108,-3.58e-05,-18.906,1.7444
5776,19.038,4.3636,0.1,0.00010776,1076.9,0.00010747,1068.6,-3.475e-05,-0.0091897,-3.6922e-05,-16.327,1.7168
5777,18.854,4.3636,0.1,0.00011183,1117.6,0.00011159,1110.6,-3.6222e-05,-0.0084404,-3.8052e-05,-13.762,1.6892
5778,18.67,4.3636,0.1,0.00011592,1158.4,0.00011573,1152.8,-3.7699e-05,-0.0076138,-3.9188e-05,-11.196,1.6617
5779,18.486,4.3636,0.1,0.00012003,1199.5,0.00011988,1195.2,-3.9184e-05,-0.0065599,-4.0329e-05,-8.6154,1.6342
5780,18.302,4.3636,0.1,0.00012416,1240.7,0.00012406,1237.7,-4.0675e-05,-0.0048915,-4.1474e-05,-6.0052,1.6069
5781,18.119,4.3636,0.1,0.0001283,1282.2,0.00012825,1280.5,-4.2174e-05,-0.0011042,-4.262e-05,-3.3531,1.5796
5782,17.935,4.3636,0.1,0.00013247,1323.8,0.00013246,1323.4,-4.3678e-05,0.031091,-4.3772e-05,-0.67123,1.5524
5783,17.751,4.3636,0.1,0.00013664,1365.5,0.00013668,1366.6,-4.4911e-05,2.167,-4.5202e-05,-0.020657,1.5254
5784,17.567,4.3636,0.1,0.00014084,1407.4,0.00014092,1409.9,-4.6055e-05,5.0328,-4.6727e-05,-0.013616,1.4984
5785,17.383,4.3636,0.1,0.00014505,1449.5,0.00014518,1453.5,-4.7196e-05,8.0039,-4.8263e-05,-0.01157,1.4715
5786,17.2,4.3636,0.1,0.00014927,1491.7,0.00014946,1497.2,-4.8331e-05,11.09,-4.9809e-05,-0.010568,1.4446
5787,17.016,4.3636,0.1,0.00015351,1534,0.00015375,1541.1,-4.9461e-05,14.305,-5.1366e-05,-0.010007,1.4179
5788,16.832,4.3636,0.1,0.00015776,1576.5,0.00015805,1585.3,-5.0583e-05,17.66,-5.2935e-05,-0.0097024,1.3913
5789,16.648,4.3636,0.1,0.00016203,1619.2,0.00016238,1629.6,-5.1696e-05,21.168,-5.4515e-05,-0.0095896,1.3648
5790,16.464,4.3636,0.1,0.00016631,1661.9,0.00016672,1674.2,-5.2801e-05,24.841,-5.6108e-05,-0.0096697,1.3385
5791,16.281,4.3636,0.1,0.0001706,1704.8,0.00017107,1719,-5.3895e-05,28.69,-5.7714e-05,-0.0099137,1.3122
5792,16.097,4.3636,0.1,0.00017491,1747.9,0.00017544,1764,-5.4978e-05,32.723,-5.9334e-05,-0.010309,1.286
5793,15.913,4.3636,0.1,0.00017923,1791.1,0.00017983,1809.3,-5.605e-05,36.948,-6.0968e-05,-0.010925,1.26
5794,15.729,4.3636,0.1,0.00018357,1834.5,0.00018424,1854.8,-5.711e-05,41.369,-6.2618e-05,-0.011817,1.2341
5795,15.545,4.3636,0.1,0.00018793,1878,0.00018867,1900.6,-5.816e-05,45.988,-6.4283e-05,-0.013054,1.2083
5796,15.362,4.3636,0.1,0.00019231,1921.8,0.00019313,1946.7,-5.9201e-05,50.803,-6.5964e-05,-0.014753,1.1826
5797,15.178,4.3636,0.1,0.00019672,1965.8,0.00019761,1993.1,-6.0232e-05,55.808,-6.7662e-05,-0.016999,1.1571
5798,14.994,4.3636,0.1,0.00020115,2010.1,0.00020211,2039.9,-6.1258e-05,60.991,-6.9378e-05,-0.01992,1.1317
5799,14.81,4.3636,0.1,0.00020561,2054.7,0.00020666,2087.1,-6.2282e-05,66.334,-7.1113e-05,-0.023774,1.1064
5800,14.626,4.3636,0.1,0.00021012,2099.7,0.00021125,2134.7,-6.3306e-05,71.809,-7.2867e-05,-0.028862,1.0813
5801,14.443,4.3636,0.1,0.00021467,2145.2,0.00021588,2182.8,-6.4338e-05,77.381,-7.4642e-05,-0.035577,1.0563
5802,14.259,4.3636,0.1,0.00021928,2191.2,0.00022057,2231.5,-6.5384e-05,83.003,-7.6437e-05,-0.044489,1.0314
5803,14.075,4.3636,0.1,0.00022395,2238,0.00022533,2280.9,-6.6454e-05,88.613,-7.8255e-05,-0.05628,1.0068
5804,13.891,4.3636,0.1,0.00022871,2285.6,0.00023017,2331.1,-6.7558e-05,94.132,-8.0096e-05,-0.071918,0.98222
5805,13.707,4.3636,0.1,0.00023358,2334.1,0.00023511,2382.2,-6.8713e-05,99.455,-8.1962e-05,-0.092856,0.95783
5806,13.524,4.3636,0.1,0.00023856,2384,0.00024016,2434.4,-6.9936e-05,104.44,-8.3852e-05,-0.1211,0.93361
5807,13.34,4.3636,0.1,0.0002437,2435.4,0.00024537,2487.9,-7.1254e-05,108.91,-8.577e-05,-0.15957,0.90955
5808,13.156,4.3636,0.1,0.00024904,2488.7,0.00025076,2542.9,-7.2703e-05,112.57,-8.7713e-05,-0.21275,0.88565
5809,12.972,4.3636,0.1,0.00025463,2544.5,0.00025638,2599.9,-7.4337e-05,115.02,-8.9684e-05,-0.28772,0.86193
5810,12.788,4.3636,0.1,0.00026055,2603.7,0.00026232,2659.4,-7.6235e-05,115.64,-9.1678e-05,-0.39674,0.83837
5811,12.605,4.3636,0.1,0.00026694,2667.5,0.00026867,2722.1,-7.8526e-05,113.39,-9.3693e-05,-0.56411,0.815
5812,12.421,4.3636,0.1,0.00027399,2738,0.00027563,2789.3,-8.1412e-05,106.64,-9.5718e-05,-0.84231,0.7918
5813,12.237,4.3636,0.1,0.00028204,2818.5,0.00028348,2862.9,-8.5223e-05,92.676,-9.7741e-05,-1.3852,0.76879
5814,12.053,4.3636,0.1,0.00029163,2914.3,0.00029266,2945.9,-9.0462e-05,67.232,-9.9779e-05,-2.7726,0.74596
5815,11.869,4.3636,0.1,0.00030366,3034.5,0.00030393,3042.7,-9.7404e-05,27.259,-0.00010243,-10.496,0.72333
5816,11.686,4.3636,0.1,0.0003196,3193.8,0.00031841,3160.1,-0.00010129,6.688,-0.00011185,-72.669,0.70089
5817,11.502,4.3636,0.1,0.00034222,3419.8,0.00033804,3307.3,-0.00010172,3.1077,-0.00013109,-217.53,0.67865
5818,11.318,4.3636,0.1,0.00037525,3749.9,0.00036492,3492.2,-9.8638e-05,9.258,-0.00016338,-477.21,0.65661
5819,11.134,4.3636,0.1,0.00042819,4279,0.00040331,3709.6,-9.0458e-05,-0.39559,-0.0002197,-971.49,0.63475
5820,10.95,4.3636,0.1,0.0005308,5304.3,0.00046571,3977.2,-6.453e-05,-6.8059,-0.00033562,-2043.7,0.61306
5821,23.816,4.5455,0.1,1.6339e-05,163.28,8.5988e-06,39.751,3.2877e-06,-0.15538,-1.5295e-05,-139.78,2.4514
5822,23.632,4.5455,0.1,1.814e-05,181.28,1.2062e-05,77.692,1.6815e-06,-0.30241,-1.5517e-05,-129.53,2.4228
5823,23.449,4.5455,0.1,2.0418e-05,204.04,1.5541e-05,115.7,1.2607e-07,-0.12426,-1.5814e-05,-119.9,2.3942
5824,23.265,4.5455,0.1,2.3036e-05,230.21,1.9044e-05,153.63,-1.4173e-06,-0.10872,-1.6181e-05,-111.04,2.3656
5825,23.081,4.5455,0.1,2.5903e-05,258.85,2.2571e-05,191.57,-2.9368e-06,-0.078752,-1.6619e-05,-102.88,2.3371
5826,22.897,4.5455,0.1,2.8956e-05,289.36,2.6129e-05,229.6,-4.4381e-06,-0.064573,-1.7127e-05,-95.402,2.3085
5827,22.713,4.5455,0.1,3.2155e-05,321.33,2.972e-05,267.76,-5.9234e-06,-0.053027,-1.7701e-05,-88.547,2.28
5828,22.53,4.5455,0.1,3.547e-05,354.45,3.3347e-05,306.08,-7.3955e-06,-0.044834,-1.8338e-05,-82.261,2.2514
5829,22.346,4.5455,0.1,3.8878e-05,388.51,3.7008e-05,344.57,-8.8568e-06,-0.038429,-1.9031e-05,-76.485,2.2229
5830,22.162,4.5455,0.1,4.2364e-05,423.35,4.0702e-05,383.25,-1.0309e-05,-0.033397,-1.9776e-05,-71.163,2.1945
5831,21.978,4.5455,0.1,4.5916e-05,458.85,4.4429e-05,422.11,-1.1755e-05,-0.029347,-2.0567e-05,-66.244,2.166
5832,21.794,4.5455,0.1,4.9525e-05,494.91,4.8186e-05,461.16,-1.3195e-05,-0.026028,-2.14e-05,-61.682,2.1376
5833,21.611,4.5455,0.1,5.3183e-05,531.46,5.1972e-05,500.4,-1.463e-05,-0.023266,-2.2271e-05,-57.436,2.1092
5834,21.427,4.5455,0.1,5.6886e-05,568.46,5.5787e-05,539.83,-1.6063e-05,-0.020943,-2.3177e-05,-53.469,2.0808
5835,21.243,4.5455,0.1,6.0628e-05,605.86,5.9628e-05,579.44,-1.7494e-05,-0.018971,-2.4113e-05,-49.752,2.0525
5836,21.059,4.5455,0.1,6.4406e-05,643.62,6.3495e-05,619.24,-1.8923e-05,-0.017279,-2.5077e-05,-46.253,2.0242
5837,20.875,4.5455,0.1,6.8219e-05,681.72,6.7386e-05,659.22,-2.0353e-05,-0.015825,-2.6067e-05,-42.95,1.996
5838,20.692,4.5455,0.1,7.2063e-05,720.13,7.1302e-05,699.39,-2.1782e-05,-0.014555,-2.708e-05,-39.818,1.9678
5839,20.508,4.5455,0.1,7.5936e-05,758.83,7.5242e-05,739.74,-2.3213e-05,-0.013423,-2.8114e-05,-36.836,1.9397
5840,20.324,4.5455,0.1,7.9837e-05,797.82,7.9204e-05,780.28,-2.4646e-05,-0.012414,-2.9167e-05,-33.986,1.9116
5841,20.14,4.5455,0.1,8.3765e-05,837.07,8.3189e-05,821,-2.6081e-05,-0.01151,-3.0238e-05,-31.25,1.8835
5842,19.956,4.5455,0.1,8.7718e-05,876.57,8.7196e-05,861.91,-2.7519e-05,-0.010694,-3.1325e-05,-28.612,1.8556
5843,19.773,4.5455,0.1,9.1695e-05,916.32,9.1224e-05,903.01,-2.896e-05,-0.0099594,-3.2427e-05,-26.055,1.8276
5844,19.589,4.5455,0.1,9.5696e-05,956.3,9.5273e-05,944.29,-3.0406e-05,-0.0092763,-3.3541e-05,-23.564,1.7998
5845,19.405,4.5455,0.1,9.9719e-05,996.5,9.9343e-05,985.77,-3.1856e-05,-0.0086098,-3.4667e-05,-21.126,1.772
5846,19.221,4.5455,0.1,0.00010376,1036.9,0.00010343,1027.4,-3.3311e-05,-0.0079645,-3.5802e-05,-18.727,1.7442
5847,19.038,4.5455,0.1,0.00010783,1077.6,0.00010754,1069.3,-3.4771e-05,-0.0073186,-3.6947e-05,-16.352,1.7166
5848,18.854,4.5455,0.1,0.00011192,1118.4,0.00011167,1111.3,-3.6238e-05,-0.0066433,-3.8099e-05,-13.99,1.689
5849,18.67,4.5455,0.1,0.00011602,1159.4,0.00011582,1153.6,-3.7711e-05,-0.005899,-3.9257e-05,-11.627,1.6615
5850,18.486,4.5455,0.1,0.00012015,1200.6,0.00011999,1196,-3.919e-05,-0.0049609,-4.042e-05,-9.2505,1.634
5851,18.302,4.5455,0.1,0.00012429,1242,0.00012417,1238.6,-4.0676e-05,-0.0035457,-4.1588e-05,-6.8488,1.6067
5852,18.119,4.5455,0.1,0.00012845,1283.6,0.00012838,1281.4,-4.217e-05,-0.00084651,-4.2757e-05,-4.4105,1.5794
5853,17.935,4.5455,0.1,0.00013263,1325.4,0.0001326,1324.4,-4.3672e-05,0.0083547,-4.3929e-05,-1.9289,1.5522
5854,17.751,4.5455,0.1,0.00013682,1367.3,0.00013684,1367.6,-4.5092e-05,0.6838,-4.519e-05,-0.052116,1.5251
5855,17.567,4.5455,0.1,0.00014104,1409.4,0.00014109,1411,-4.6267e-05,3.2736,-4.6705e-05,-0.016896,1.4981
5856,17.383,4.5455,0.1,0.00014526,1451.6,0.00014536,1454.6,-4.7436e-05,5.9782,-4.8233e-05,-0.012648,1.4712
5857,17.2,4.5455,0.1,0.0001495,1494,0.00014965,1498.4,-4.8602e-05,8.7796,-4.9772e-05,-0.011026,1.4444
5858,17.016,4.5455,0.1,0.00015376,1536.5,0.00015396,1542.4,-4.9763e-05,11.686,-5.132e-05,-0.010237,1.4177
5859,16.832,4.5455,0.1,0.00015803,1579.2,0.00015828,1586.5,-5.092e-05,14.705,-5.2878e-05,-0.0098592,1.3911
5860,16.648,4.5455,0.1,0.00016232,1622.1,0.00016261,1630.9,-5.2071e-05,17.844,-5.4447e-05,-0.0097485,1.3646
5861,16.464,4.5455,0.1,0.00016662,1665,0.00016697,1675.5,-5.3216e-05,21.11,-5.6027e-05,-0.0098822,1.3382
5862,16.281,4.5455,0.1,0.00017093,1708.1,0.00017133,1720.3,-5.4355e-05,24.507,-5.7618e-05,-0.010214,1.3119
5863,16.097,4.5455,0.1,0.00017526,1751.4,0.00017572,1765.2,-5.5487e-05,28.037,-5.922e-05,-0.010728,1.2857
5864,15.913,4.5455,0.1,0.0001796,1794.8,0.00018012,1810.4,-5.6613e-05,31.698,-6.0833e-05,-0.011492,1.2597
5865,15.729,4.5455,0.1,0.00018396,1838.3,0.00018454,1855.8,-5.7733e-05,35.486,-6.2457e-05,-0.012564,1.2338
5866,15.545,4.5455,0.1,0.00018833,1882,0.00018897,1901.4,-5.8848e-05,39.393,-6.4092e-05,-0.014016,1.208
5867,15.362,4.5455,0.1,0.00019272,1925.9,0.00019342,1947.2,-5.9959e-05,43.404,-6.5738e-05,-0.015981,1.1823
5868,15.178,4.5455,0.1,0.00019713,1969.9,0.00019789,1993.2,-6.1069e-05,47.5,-6.7393e-05,-0.01855,1.1568
5869,14.994,4.5455,0.1,0.00020155,2014.2,0.00020238,2039.5,-6.2179e-05,51.654,-6.9057e-05,-0.021877,1.1313
5870,14.81,4.5455,0.1,0.000206,2058.6,0.00020689,2085.9,-6.3294e-05,55.831,-7.0728e-05,-0.026256,1.1061
5871,14.626,4.5455,0.1,0.00021046,2103.2,0.00021142,2132.5,-6.4417e-05,59.989,-7.2406e-05,-0.032038,1.0809
5872,14.443,4.5455,0.1,0.00021495,2148,0.00021597,2179.3,-6.5554e-05,64.073,-7.4086e-05,-0.039709,1.056
5873,14.259,4.5455,0.1,0.00021946,2193,0.00022053,2226.2,-6.6708e-05,68.017,-7.5768e-05,-0.049963,1.0311
5874,14.075,4.5455,0.1,0.00022398,2238.3,0.00022512,2273.3,-6.7889e-05,71.742,-7.7445e-05,-0.063711,1.0064
5875,13.891,4.5455,0.1,0.00022853,2283.8,0.00022972,2320.4,-6.9102e-05,75.152,-7.9115e-05,-0.082269,0.98188
5876,13.707,4.5455,0.1,0.0002331,2329.4,0.00023433,2367.4,-7.0358e-05,78.129,-8.077e-05,-0.1077,0.9575
5877,13.524,4.5455,0.1,0.00023769,2375.2,0.00023895,2414.4,-7.1667e-05,80.527,-8.2404e-05,-0.14292,0.93327
5878,13.34,4.5455,0.1,0.00024228,2421.2,0.00024357,2461.1,-7.3045e-05,82.151,-8.4005e-05,-0.19261,0.9092
5879,13.156,4.5455,0.1,0.00024689,2467.2,0.00024819,2507.4,-7.4514e-05,82.737,-8.556e-05,-0.26425,0.8853
5880,12.972,4.5455,0.1,0.00025151,2513.4,0.0002528,2553.2,-7.6105e-05,81.897,-8.7054e-05,-0.37071,0.86156
5881,12.788,4.5455,0.1,0.00025616,2559.9,0.0002574,2598.2,-7.7872e-05,79.036,-8.8463e-05,-0.53642,0.838
5882,12.605,4.5455,0.1,0.00026087,2606.9,0.00026203,2642.3,-7.9905e-05,73.206,-8.9757e-05,-0.81492,0.81461
5883,12.421,4.5455,0.1,0.00026573,2655.5,0.00026672,2685.7,-8.2351e-05,62.889,-9.0901e-05,-1.3481,0.79139
5884,12.237,4.5455,0.1,0.00027091,2707.2,0.00027161,2728.5,-8.543e-05,45.807,-9.1882e-05,-2.6738,0.76835
5885,12.053,4.5455,0.1,0.00027672,2765.3,0.00027692,2771.4,-8.9131e-05,21.01,-9.3074e-05,-8.6206,0.74549
5886,11.869,4.5455,0.1,0.00028373,2835.3,0.00028303,2815.5,-9.0866e-05,6.1984,-9.7695e-05,-45.112,0.72281
5887,11.686,4.5455,0.1,0.00029291,2927,0.00029056,2862.5,-8.9927e-05,3.6717,-0.00010748,-128.23,0.70032
5888,11.502,4.5455,0.1,0.00030579,3055.8,0.00030031,2912.6,-8.6904e-05,3.2593,-0.00012342,-271.12,0.67799
5889,11.318,4.5455,0.1,0.00032484,3246.1,0.00031319,2962.9,-8.0685e-05,3.514,-0.00014889,-508.95,0.65584
5890,11.134,4.5455,0.1,0.00035214,3519,0.00032837,2987.7,-6.8997e-05,2.0584,-0.000188,-892.08,0.63384
5891,10.95,4.5455,0.1,0.00040663,4063.5,0.00035692,3060.1,-4.7711e-05,19.857,-0.00025733,-1555.1,0.61195
5892,23.816,4.7273,0.1,1.5432e-05,154.22,8.291e-06,39.744,2.9833e-06,-0.13618,-1.4367e-05,-130.5,2.4513
5893,23.632,4.7273,0.1,1.7267e-05,172.55,1.1728e-05,77.392,1.3892e-06,-0.29159,-1.4589e-05,-120.34,2.4227
5894,23.449,4.7273,0.1,1.9595e-05,195.82,1.519e-05,115.15,-1.5033e-07,-0.1163,-1.4901e-05,-110.95,2.3941
5895,23.265,4.7273,0.1,2.2271e-05,222.56,1.8685e-05,152.88,-1.6757e-06,-0.10159,-1.5296e-05,-102.44,2.3655
5896,23.081,4.7273,0.1,2.5198e-05,251.81,2.2213e-05,190.7,-3.1766e-06,-0.072255,-1.5774e-05,-94.722,2.337
5897,22.897,4.7273,0.1,2.8314e-05,282.94,2.5781e-05,228.66,-4.6594e-06,-0.058479,-1.6329e-05,-87.741,2.3084
5898,22.713,4.7273,0.1,3.1574e-05,315.52,2.939e-05,266.81,-6.127e-06,-0.047262,-1.6957e-05,-81.42,2.2798
5899,22.53,4.7273,0.1,3.4947e-05,349.23,3.3039e-05,305.17,-7.5824e-06,-0.039353,-1.7649e-05,-75.679,2.2513
5900,22.346,4.7273,0.1,3.8411e-05,383.85,3.6725e-05,343.74,-9.0282e-06,-0.033213,-1.8399e-05,-70.445,2.2228
5901,22.162,4.7273,0.1,4.195e-05,419.21,4.0446e-05,382.51,-1.0466e-05,-0.028435,-1.92e-05,-65.649,2.1943
5902,21.978,4.7273,0.1,4.5551e-05,455.2,4.4199e-05,421.47,-1.1899e-05,-0.024626,-2.0045e-05,-61.234,2.1659
5903,21.794,4.7273,0.1,4.9206e-05,491.72,4.7984e-05,460.64,-1.3326e-05,-0.021544,-2.093e-05,-57.15,2.1374
5904,21.611,4.7273,0.1,5.2906e-05,528.7,5.1796e-05,499.99,-1.4751e-05,-0.019002,-2.185e-05,-53.355,2.1091
5905,21.427,4.7273,0.1,5.6648e-05,566.09,5.5636e-05,539.53,-1.6174e-05,-0.016892,-2.2801e-05,-49.811,2.0807
5906,21.243,4.7273,0.1,6.0426e-05,603.85,5.9501e-05,579.25,-1.7595e-05,-0.015119,-2.378e-05,-46.49,2.0524
5907,21.059,4.7273,0.1,6.4239e-05,641.94,6.3391e-05,619.16,-1.9016e-05,-0.013619,-2.4785e-05,-43.362,2.0241
5908,20.875,4.7273,0.1,6.8082e-05,680.35,6.7304e-05,659.24,-2.0437e-05,-0.012342,-2.5813e-05,-40.405,1.9958
5909,20.692,4.7273,0.1,7.1954e-05,719.04,7.124e-05,699.5,-2.1859e-05,-0.01124,-2.6862e-05,-37.598,1.9677
5910,20.508,4.7273,0.1,7.5854e-05,758.02,7.5199e-05,739.95,-2.3283e-05,-0.010266,-2.7929e-05,-34.922,1.9395
5911,20.324,4.7273,0.1,7.978e-05,797.25,7.918e-05,780.57,-2.4709e-05,-0.0094084,-2.9015e-05,-32.36,1.9114
5912,20.14,4.7273,0.1,8.3731e-05,836.73,8.3182e-05,821.38,-2.6138e-05,-0.0086472,-3.0116e-05,-29.896,1.8834
5913,19.956,4.7273,0.1,8.7705e-05,876.45,8.7205e-05,862.36,-2.757e-05,-0.0079643,-3.1231e-05,-27.517,1.8554
5914,19.773,4.7273,0.1,9.1703e-05,916.4,9.1248e-05,903.53,-2.9006e-05,-0.0073599,-3.2359e-05,-25.207,1.8274
5915,19.589,4.7273,0.1,9.5724e-05,956.58,9.5312e-05,944.89,-3.0446e-05,-0.0067996,-3.35e-05,-22.954,1.7996
5916,19.405,4.7273,0.1,9.9766e-05,996.97,9.9397e-05,986.43,-3.189e-05,-0.0062534,-3.465e-05,-20.745,1.7718
5917,19.221,4.7273,0.1,0.00010383,1037.6,0.0001035,1028.2,-3.334e-05,-0.0057247,-3.5811e-05,-18.57,1.744
5918,19.038,4.7273,0.1,0.00010791,1078.4,0.00010762,1070.1,-3.4795e-05,-0.0051972,-3.6979e-05,-16.415,1.7164
5919,18.854,4.7273,0.1,0.00011202,1119.4,0.00011177,1112.2,-3.6256e-05,-0.0046448,-3.8155e-05,-14.27,1.6888
5920,18.67,4.7273,0.1,0.00011614,1160.6,0.00011593,1154.5,-3.7724e-05,-0.0040455,-3.9337e-05,-12.125,1.6612
5921,18.486,4.7273,0.1,0.00012028,1202,0.00012011,1197,-3.9198e-05,-0.0032977,-4.0524e-05,-9.968,1.6338
5922,18.302,4.7273,0.1,0.00012444,1243.5,0.00012431,1239.6,-4.0679e-05,-0.0022214,-4.1715e-05,-7.7893,1.6064
5923,18.119,4.7273,0.1,0.00012862,1285.3,0.00012852,1282.5,-4.2167e-05,-0.00041721,-4.291e-05,-5.5795,1.5792
5924,17.935,4.7273,0.1,0.00013281,1327.2,0.00013276,1325.5,-4.3663e-05,0.003702,-4.4107e-05,-3.3302,1.552
5925,17.751,4.7273,0.1,0.00013703,1369.3,0.00013701,1368.8,-4.5164e-05,0.025758,-4.5307e-05,-1.0481,1.5249
5926,17.567,4.7273,0.1,0.00014125,1411.6,0.00014128,1412.2,-4.6498e-05,1.3722,-4.6684e-05,-0.030668,1.4978
5927,17.383,4.7273,0.1,0.0001455,1454,0.00014556,1455.9,-4.7697e-05,3.7883,-4.8203e-05,-0.015323,1.4709
5928,17.2,4.7273,0.1,0.00014976,1496.6,0.00014987,1499.7,-4.8894e-05,6.2916,-4.9733e-05,-0.011952,1.4441
5929,17.016,4.7273,0.1,0.00015404,1539.3,0.00015418,1543.7,-5.0089e-05,8.8779,-5.1272e-05,-0.010605,1.4174
5930,16.832,4.7273,0.1,0.00015833,1582.2,0.00015852,1587.9,-5.1281e-05,11.551,-5.282e-05,-0.010016,1.3908
5931,16.648,4.7273,0.1,0.00016263,1625.2,0.00016287,1632.3,-5.2471e-05,14.314,-5.4377e-05,-0.009844,1.3643
5932,16.464,4.7273,0.1,0.00016695,1668.4,0.00016724,1676.9,-5.3657e-05,17.167,-5.5944e-05,-0.0099896,1.3379
5933,16.281,4.7273,0.1,0.00017129,1711.7,0.00017162,1721.7,-5.4841e-05,20.11,-5.7519e-05,-0.01038,1.3116
5934,16.097,4.7273,0.1,0.00017564,1755.1,0.00017602,1766.6,-5.6022e-05,23.137,-5.9103e-05,-0.010985,1.2854
5935,15.913,4.7273,0.1,0.00018,1798.7,0.00018043,1811.7,-5.7201e-05,26.241,-6.0695e-05,-0.011868,1.2594
5936,15.729,4.7273,0.1,0.00018437,1842.4,0.00018485,1857,-5.8379e-05,29.408,-6.2294e-05,-0.013084,1.2334
5937,15.545,4.7273,0.1,0.00018876,1886.3,0.00018929,1902.4,-5.9557e-05,32.621,-6.39e-05,-0.014715,1.2076
5938,15.362,4.7273,0.1,0.00019315,1930.2,0.00019374,1947.9,-6.0736e-05,35.856,-6.551e-05,-0.016887,1.182
5939,15.178,4.7273,0.1,0.00019756,1974.3,0.0001982,1993.5,-6.1919e-05,39.081,-6.7123e-05,-0.019718,1.1564
5940,14.994,4.7273,0.1,0.00020198,2018.4,0.00020266,2039.2,-6.3109e-05,42.257,-6.8737e-05,-0.023378,1.131
5941,14.81,4.7273,0.1,0.0002064,2062.5,0.00020713,2084.8,-6.4309e-05,45.335,-7.0347e-05,-0.0282,1.1057
5942,14.626,4.7273,0.1,0.00021082,2106.7,0.0002116,2130.4,-6.5522e-05,48.257,-7.1949e-05,-0.034602,1.0806
5943,14.443,4.7273,0.1,0.00021523,2150.8,0.00021605,2175.8,-6.6752e-05,50.954,-7.3539e-05,-0.04318,1.0556
5944,14.259,4.7273,0.1,0.00021963,2194.8,0.00022049,2221,-6.8003e-05,53.344,-7.511e-05,-0.054822,1.0307
5945,14.075,4.7273,0.1,0.00022401,2238.5,0.0002249,2265.7,-6.9279e-05,55.331,-7.6652e-05,-0.070766,1.006
5946,13.891,4.7273,0.1,0.00022834,2281.8,0.00022925,2309.7,-7.0584e-05,56.808,-7.8157e-05,-0.092909,0.9815
5947,13.707,4.7273,0.1,0.00023261,2324.5,0.00023354,2352.7,-7.1922e-05,57.647,-7.961e-05,-0.12432,0.95711
5948,13.524,4.7273,0.1,0.00023679,2366.3,0.00023772,2394.5,-7.3295e-05,57.698,-8.0997e-05,-0.16986,0.93288
5949,13.34,4.7273,0.1,0.00024085,2406.8,0.00024176,2434.6,-7.4708e-05,56.777,-8.2296e-05,-0.23771,0.9088
5950,13.156,4.7273,0.1,0.00024474,2445.7,0.00024561,2472.4,-7.6165e-05,54.648,-8.3484e-05,-0.3425,0.88489
5951,12.972,4.7273,0.1,0.00024841,2482.3,0.00024922,2507.2,-7.7675e-05,50.986,-8.4529e-05,-0.51266,0.86115
5952,12.788,4.7273,0.1,0.0002518,2516.3,0.00025253,2538.2,-7.9257e-05,45.321,-8.5397e-05,-0.8114,0.83757
5953,12.605,4.7273,0.1,0.00025487,2547,0.00025546,2564.5,-8.0941e-05,36.977,-8.605e-05,-1.4114,0.81416
5954,12.421,4.7273,0.1,0.00025758,2574,0.00025795,2585,-8.2744e-05,25.206,-8.6494e-05,-2.9698,0.79093
5955,12.237,4.7273,0.1,0.00025993,2597.6,0.00025997,2598.6,-8.4343e-05,11.578,-8.7137e-05,-9.4156,0.76786
5956,12.053,4.7273,0.1,0.00026203,2618.5,0.00026152,2603.9,-8.4398e-05,4.8509,-8.9501e-05,-33.486,0.74497
5957,11.869,4.7273,0.1,0.00026412,2639.3,0.00026271,2599.9,-8.2903e-05,3.1387,-9.3961e-05,-79.948,0.72225
5958,11.686,4.7273,0.1,0.00026671,2665.3,0.00026375,2585.2,-7.9963e-05,2.637,-0.00010104,-155.74,0.69969
5959,11.502,4.7273,0.1,0.00027071,2705.2,0.00026497,2557.5,-7.5071e-05,2.559,-0.0001122,-276.43,0.67729
5960,11.318,4.7273,0.1,0.00027741,2772.2,0.00026661,2512.3,-6.735e-05,3.07,-0.00012945,-463.54,0.65504
5961,11.134,4.7273,0.1,0.00028915,2889.5,0.00026913,2443.5,-5.5935e-05,1.1512,-0.00015541,-746.23,0.6329
5962,10.95,4.7273,0.1,0.00032123,3210.1,0.00028289,2429.2,-3.9546e-05,6.5926,-0.00020169,-1211.7,0.61086
5963,23.816,4.9091,0.1,1.4385e-05,143.75,7.9308e-06,39.694,2.6331e-06,-0.11106,-1.3292e-05,-119.77,2.4512
5964,23.632,4.9091,0.1,1.6263e-05,162.52,1.1336e-05,76.971,1.0552e-06,-0.27672,-1.3517e-05,-109.76,2.4226
5965,23.449,4.9091,0.1,1.8658e-05,186.45,1.478e-05,114.43,-4.6335e-07,-0.10516,-1.3854e-05,-100.71,2.394
5966,23.265,4.9091,0.1,2.1409e-05,213.94,1.827e-05,151.95,-1.9659e-06,-0.091593,-1.4291e-05,-92.696,2.3654
5967,23.081,4.9091,0.1,2.4415e-05,243.98,2.1806e-05,189.66,-3.4436e-06,-0.063142,-1.4824e-05,-85.568,2.3368
5968,22.897,4.9091,0.1,2.7609e-05,275.9,2.5394e-05,227.6,-4.9042e-06,-0.049981,-1.5443e-05,-79.237,2.3083
5969,22.713,4.9091,0.1,3.0944e-05,309.23,2.9028e-05,265.79,-6.3509e-06,-0.039291,-1.6139e-05,-73.585,2.2797
5970,22.53,4.9091,0.1,3.4389e-05,343.65,3.2707e-05,304.22,-7.7872e-06,-0.03186,-1.6901e-05,-68.508,2.2512
5971,22.346,4.9091,0.1,3.7919e-05,378.93,3.6425e-05,342.89,-9.2153e-06,-0.026168,-1.7718e-05,-63.914,2.2227
5972,22.162,4.9091,0.1,4.1518e-05,414.9,4.0178e-05,381.79,-1.0637e-05,-0.021814,-1.8584e-05,-59.727,2.1942
5973,21.978,4.9091,0.1,4.5175e-05,451.44,4.3964e-05,420.88,-1.2055e-05,-0.018399,-1.949e-05,-55.884,2.1657
5974,21.794,4.9091,0.1,4.888e-05,488.46,4.7778e-05,460.18,-1.347e-05,-0.015688,-2.0433e-05,-52.334,2.1373
5975,21.611,4.9091,0.1,5.2627e-05,525.9,5.162e-05,499.66,-1.4882e-05,-0.013493,-2.1407e-05,-49.036,2.1089
5976,21.427,4.9091,0.1,5.641e-05,563.71,5.5488e-05,539.33,-1.6294e-05,-0.011705,-2.2408e-05,-45.955,2.0805
5977,21.243,4.9091,0.1,6.0227e-05,601.86,5.9379e-05,579.17,-1.7705e-05,-0.010233,-2.3435e-05,-43.063,2.0522
5978,21.059,4.9091,0.1,6.4075e-05,640.31,6.3293e-05,619.18,-1.9116e-05,-0.009011,-2.4483e-05,-40.334,2.0239
5979,20.875,4.9091,0.1,6.7951e-05,679.04,6.723e-05,659.37,-2.0529e-05,-0.0079966,-2.5552e-05,-37.75,1.9957
5980,20.692,4.9091,0.1,7.1853e-05,718.04,7.1188e-05,699.74,-2.1943e-05,-0.0071385,-2.6638e-05,-35.29,1.9675
5981,20.508,4.9091,0.1,7.5781e-05,757.29,7.5167e-05,740.28,-2.3359e-05,-0.0063933,-2.7742e-05,-32.939,1.9393
5982,20.324,4.9091,0.1,7.9733e-05,796.78,7.9166e-05,780.99,-2.4778e-05,-0.0057501,-2.8861e-05,-30.683,1.9112
5983,20.14,4.9091,0.1,8.3708e-05,836.5,8.3186e-05,821.88,-2.62e-05,-0.0051908,-2.9993e-05,-28.509,1.8832
5984,19.956,4.9091,0.1,8.7705e-05,876.45,8.7226e-05,862.95,-2.7625e-05,-0.0047003,-3.1139e-05,-26.403,1.8552
5985,19.773,4.9091,0.1,9.1725e-05,916.61,9.1286e-05,904.19,-2.9055e-05,-0.0042806,-3.2296e-05,-24.355,1.8272
5986,19.589,4.9091,0.1,9.5765e-05,956.99,9.5365e-05,945.62,-3.0489e-05,-0.0038987,-3.3464e-05,-22.354,1.7994
5987,19.405,4.9091,0.1,9.9827e-05,997.58,9.9464e-05,987.23,-3.1928e-05,-0.0035256,-3.4641e-05,-20.389,1.7715
5988,19.221,4.9091,0.1,0.00010391,1038.4,0.00010358,1029,-3.3372e-05,-0.0031694,-3.5827e-05,-18.45,1.7438
5989,19.038,4.9091,0.1,0.00010801,1079.4,0.00010772,1071,-3.4822e-05,-0.0028191,-3.7021e-05,-16.528,1.7161
5990,18.854,4.9091,0.1,0.00011213,1120.5,0.00011188,1113.2,-3.6277e-05,-0.0024556,-3.8222e-05,-14.613,1.6885
5991,18.67,4.9091,0.1,0.00011627,1161.9,0.00011605,1155.5,-3.7739e-05,-0.0020683,-3.9429e-05,-12.697,1.661
5992,18.486,4.9091,0.1,0.00012043,1203.5,0.00012024,1198,-3.9207e-05,-0.0015886,-4.0641e-05,-10.771,1.6335
5993,18.302,4.9091,0.1,0.00012461,1245.2,0.00012446,1240.8,-4.0683e-05,-0.00090928,-4.1857e-05,-8.8271,1.6062
5994,18.119,4.9091,0.1,0.0001288,1287.1,0.00012868,1283.7,-4.2165e-05,0.00013631,-4.3077e-05,-6.8567,1.5789
5995,17.935,4.9091,0.1,0.00013302,1329.2,0.00013293,1326.8,-4.3654e-05,0.0020563,-4.4301e-05,-4.8532,1.5517
5996,17.751,4.9091,0.1,0.00013725,1371.5,0.0001372,1370.1,-4.5151e-05,0.0068943,-4.5526e-05,-2.8117,1.5246
5997,17.567,4.9091,0.1,0.00014149,1414,0.00014148,1413.6,-4.6652e-05,0.039252,-4.6757e-05,-0.7504,1.4975
5998,17.383,4.9091,0.1,0.00014576,1456.6,0.00014578,1457.3,-4.7976e-05,1.4631,-4.8175e-05,-0.027783,1.4706
5999,17.2,4.9091,0.1,0.00015004,1499.3,0.0001501,1501.2,-4.9206e-05,3.6536,-4.9694e-05,-0.014576,1.4438
6000,17.016,4.9091,0.1,0.00015433,1542.3,0.00015443,1545.2,-5.0435e-05,5.9147,-5.1224e-05,-0.011459,1.4171
6001,16.832,4.9091,0.1,0.00015864,1585.4,0.00015878,1589.4,-5.1663e-05,8.2395,-5.2761e-05,-0.010301,1.3904
6002,16.648,4.9091,0.1,0.00016297,1628.6,0.00016315,1633.9,-5.2891e-05,10.626,-5.4307e-05,-0.0099206,1.3639
6003,16.464,4.9091,0.1,0.00016731,1672,0.00016753,1678.5,-5.4119e-05,13.072,-5.586e-05,-0.010007,1.3375
6004,16.281,4.9091,0.1,0.00017167,1715.5,0.00017193,1723.2,-5.5346e-05,15.57,-5.742e-05,-0.010413,1.3112
6005,16.097,4.9091,0.1,0.00017603,1759.1,0.00017633,1768.1,-5.6575e-05,18.111,-5.8987e-05,-0.011078,1.2851
6006,15.913,4.9091,0.1,0.00018041,1802.9,0.00018075,1813.1,-5.7804e-05,20.681,-6.0558e-05,-0.012047,1.259
6007,15.729,4.9091,0.1,0.0001848,1846.7,0.00018519,1858.3,-5.9037e-05,23.261,-6.2134e-05,-0.01337,1.2331
6008,15.545,4.9091,0.1,0.0001892,1890.7,0.00018962,1903.5,-6.0273e-05,25.825,-6.3712e-05,-0.015122,1.2073
6009,15.362,4.9091,0.1,0.0001936,1934.7,0.00019407,1948.7,-6.1515e-05,28.341,-6.5289e-05,-0.01744,1.1816
6010,15.178,4.9091,0.1,0.00019801,1978.7,0.00019851,1993.9,-6.2764e-05,30.769,-6.6862e-05,-0.020448,1.156
6011,14.994,4.9091,0.1,0.00020241,2022.7,0.00020295,2039,-6.4024e-05,33.06,-6.8428e-05,-0.024336,1.1306
6012,14.81,4.9091,0.1,0.0002068,2066.6,0.00020738,2083.9,-6.5298e-05,35.154,-6.998e-05,-0.029481,1.1053
6013,14.626,4.9091,0.1,0.00021117,2110.3,0.00021178,2128.5,-6.6587e-05,36.983,-7.1514e-05,-0.036381,1.0802
6014,14.443,4.9091,0.1,0.00021551,2153.6,0.00021614,2172.6,-6.7894e-05,38.463,-7.3019e-05,-0.045778,1.0552
6015,14.259,4.9091,0.1,0.0002198,2196.5,0.00022045,2216,-6.9222e-05,39.503,-7.4488e-05,-0.058846,1.0303
6016,14.075,4.9091,0.1,0.00022402,2238.7,0.00022467,2258.4,-7.0572e-05,39.997,-7.5906e-05,-0.077361,1.0056
6017,13.891,4.9091,0.1,0.00022814,2279.8,0.00022879,2299.4,-7.1943e-05,39.828,-7.7258e-05,-0.10427,0.98108
6018,13.707,4.9091,0.1,0.00023211,2319.5,0.00023275,2338.6,-7.3334e-05,38.865,-7.8526e-05,-0.14477,0.95668
6019,13.524,4.9091,0.1,0.0002359,2357.3,0.0002365,2375.5,-7.4739e-05,36.966,-7.9687e-05,-0.20822,0.93244
6020,13.34,4.9091,0.1,0.00023942,2392.6,0.00023998,2409.2,-7.6149e-05,33.975,-8.0713e-05,-0.31293,0.90836
6021,13.156,4.9091,0.1,0.00024261,2424.5,0.0002431,2438.9,-7.755e-05,29.718,-8.1571e-05,-0.49895,0.88444
6022,12.972,4.9091,0.1,0.00024536,2452,0.00024575,2463.4,-7.8917e-05,24.024,-8.223e-05,-0.86897,0.86068
6023,12.788,4.9091,0.1,0.00024756,2473.9,0.00024781,2481.4,-8.0199e-05,16.839,-8.2675e-05,-1.7618,0.83709
6024,12.605,4.9091,0.1,0.00024907,2488.9,0.00024914,2491.1,-8.12e-05,9.0771,-8.3032e-05,-4.6904,0.81367
6025,12.421,4.9091,0.1,0.00024973,2495.6,0.00024955,2490.6,-8.1341e-05,4.3415,-8.3812e-05,-14.227,0.79041
6026,12.237,4.9091,0.1,0.00024941,2492.4,0.00024889,2477.5,-8.0469e-05,2.8224,-8.5127e-05,-32.183,0.76732
6027,12.053,4.9091,0.1,0.000248,2478.3,0.00024698,2449.3,-7.8703e-05,2.3049,-8.687e-05,-59.062,0.74439
6028,11.869,4.9091,0.1,0.00024549,2453.3,0.0002437,2403.4,-7.5895e-05,2.1163,-8.9315e-05,-98.717,0.72163
6029,11.686,4.9091,0.1,0.0002421,2419.4,0.00023905,2337.3,-7.1747e-05,2.1232,-9.3089e-05,-158.23,0.69901
6030,11.502,4.9091,0.1,0.00023844,2382.8,0.00023326,2249.6,-6.587e-05,2.1007,-9.9234e-05,-248.58,0.67654
6031,11.318,4.9091,0.1,0.00023577,2356.1,0.00022688,2141.4,-5.7757e-05,2.6834,-0.00010925,-384.21,0.6542
6032,11.134,4.9091,0.1,0.00023678,2366.2,0.00022135,2019.2,-4.7287e-05,0.83032,-0.00012522,-584.76,0.63196
6033,10.95,4.9091,0.1,0.00025607,2559,0.00022723,1966.9,-3.3548e-05,7.5095,-0.00015809,-928.22,0.60979
6034,23.816,5.0909,0.1,1.3177e-05,131.68,7.5081e-06,39.568,2.2315e-06,-0.078832,-1.2049e-05,-107.38,2.4511
6035,23.632,5.0909,0.1,1.5115e-05,151.05,1.0875e-05,76.374,6.7612e-07,-0.25685,-1.2283e-05,-97.627,2.4225
6036,23.449,5.0909,0.1,1.76e-05,175.88,1.4302e-05,113.49,-8.1445e-07,-0.090132,-1.2661e-05,-89.099,2.3939
6037,23.265,5.0909,0.1,2.0453e-05,204.39,1.7796e-05,150.82,-2.2875e-06,-0.077996,-1.3162e-05,-81.783,2.3653
6038,23.081,5.0909,0.1,2.3562e-05,235.46,2.1353e-05,188.47,-3.7368e-06,-0.050826,-1.3773e-05,-75.461,2.3367
6039,22.897,5.0909,0.1,2.6855e-05,268.37,2.4972e-05,226.44,-5.171e-06,-0.038603,-1.4478e-05,-69.97,2.3081
6040,22.713,5.0909,0.1,3.0283e-05,302.62,2.8643e-05,264.73,-6.5936e-06,-0.028765,-1.526e-05,-65.148,2.2796
6041,22.53,5.0909,0.1,3.3811e-05,337.87,3.2361e-05,303.3,-8.0081e-06,-0.022109,-1.6105e-05,-60.862,2.251
6042,22.346,5.0909,0.1,3.7416e-05,373.9,3.6118e-05,342.12,-9.4167e-06,-0.017131,-1.7002e-05,-57.009,2.2225
6043,22.162,5.0909,0.1,4.1083e-05,410.54,3.991e-05,381.16,-1.0821e-05,-0.013433,-1.7941e-05,-53.509,2.194
6044,21.978,5.0909,0.1,4.48e-05,447.69,4.3731e-05,420.41,-1.2223e-05,-0.01062,-1.8916e-05,-50.299,2.1656
6045,21.794,5.0909,0.1,4.8559e-05,485.26,4.758e-05,459.85,-1.3623e-05,-0.0084578,-1.9922e-05,-47.331,2.1371
6046,21.611,5.0909,0.1,5.2355e-05,523.19,5.1454e-05,499.47,-1.5023e-05,-0.006764,-2.0954e-05,-44.569,2.1087
6047,21.427,5.0909,0.1,5.6183e-05,561.44,5.5351e-05,539.27,-1.6422e-05,-0.0054352,-2.2009e-05,-41.981,2.0804
6048,21.243,5.0909,0.1,6.004e-05,599.99,5.9269e-05,579.23,-1.7823e-05,-0.0043809,-2.3085e-05,-39.544,2.052
6049,21.059,5.0909,0.1,6.3924e-05,638.8,6.3209e-05,619.37,-1.9224e-05,-0.0035435,-2.4179e-05,-37.236,2.0237
6050,20.875,5.0909,0.1,6.7834e-05,677.87,6.7169e-05,659.67,-2.0627e-05,-0.0028838,-2.529e-05,-35.042,1.9955
6051,20.692,5.0909,0.1,7.1767e-05,717.17,7.1149e-05,700.13,-2.2033e-05,-0.0023535,-2.6417e-05,-32.945,1.9673
6052,20.508,5.0909,0.1,7.5723e-05,756.71,7.5149e-05,740.76,-2.3441e-05,-0.0019121,-2.7558e-05,-30.935,1.9391
6053,20.324,5.0909,0.1,7.9701e-05,796.46,7.9168e-05,781.56,-2.4852e-05,-0.0015515,-2.8711e-05,-28.998,1.911
6054,20.14,5.0909,0.1,8.3701e-05,836.43,8.3206e-05,822.54,-2.6267e-05,-0.0012611,-2.9877e-05,-27.124,1.8829
6055,19.956,5.0909,0.1,8.7721e-05,876.61,8.7263e-05,863.68,-2.7686e-05,-0.0010246,-3.1053e-05,-25.304,1.8549
6056,19.773,5.0909,0.1,9.1762e-05,916.99,9.1339e-05,905,-2.9109e-05,-0.00084495,-3.224e-05,-23.529,1.827
6057,19.589,5.0909,0.1,9.5824e-05,957.58,9.5434e-05,946.49,-3.0536e-05,-0.00069598,-3.3436e-05,-21.789,1.7991
6058,19.405,5.0909,0.1,9.9905e-05,998.36,9.9548e-05,988.17,-3.1969e-05,-0.00055268,-3.4641e-05,-20.077,1.7713
6059,19.221,5.0909,0.1,0.00010401,1039.3,0.00010368,1030,-3.3407e-05,-0.00042408,-3.5854e-05,-18.385,1.7435
6060,19.038,5.0909,0.1,0.00010813,1080.5,0.00010783,1072.1,-3.4851e-05,-0.00030422,-3.7074e-05,-16.705,1.7159
6061,18.854,5.0909,0.1,0.00011227,1121.9,0.000112,1114.3,-3.6301e-05,-0.00018596,-3.8301e-05,-15.029,1.6882
6062,18.67,5.0909,0.1,0.00011642,1163.4,0.00011619,1156.7,-3.7756e-05,-6.7798e-05,-3.9533e-05,-13.352,1.6607
6063,18.486,5.0909,0.1,0.0001206,1205.2,0.0001204,1199.3,-3.9219e-05,9.1496e-05,-4.0771e-05,-11.665,1.6332
6064,18.302,5.0909,0.1,0.00012479,1247.1,0.00012462,1242.1,-4.0688e-05,0.00035414,-4.2014e-05,-9.9636,1.6059
6065,18.119,5.0909,0.1,0.00012901,1289.2,0.00012887,1285.1,-4.2164e-05,0.00076301,-4.3261e-05,-8.2405,1.5786
6066,17.935,5.0909,0.1,0.00013324,1331.5,0.00013313,1328.2,-4.3647e-05,0.0014633,-4.4511e-05,-6.4906,1.5514
6067,17.751,5.0909,0.1,0.00013749,1373.9,0.00013741,1371.6,-4.5137e-05,0.0028391,-4.5764e-05,-4.7094,1.5242
6068,17.567,5.0909,0.1,0.00014175,1416.6,0.0001417,1415.1,-4.6635e-05,0.0062541,-4.7021e-05,-2.8941,1.4972
6069,17.383,5.0909,0.1,0.00014604,1459.4,0.00014602,1458.8,-4.8138e-05,0.022923,-4.8281e-05,-1.0526,1.4703
6070,17.2,5.0909,0.1,0.00015034,1502.3,0.00015035,1502.8,-4.9534e-05,0.90528,-4.9659e-05,-0.035058,1.4434
6071,17.016,5.0909,0.1,0.00015465,1545.5,0.0001547,1546.9,-5.0798e-05,2.8269,-5.1176e-05,-0.014591,1.4167
6072,16.832,5.0909,0.1,0.00015898,1588.7,0.00015906,1591.1,-5.2062e-05,4.8065,-5.2703e-05,-0.011065,1.3901
6073,16.648,5.0909,0.1,0.00016333,1632.2,0.00016344,1635.6,-5.3328e-05,6.8263,-5.4237e-05,-0.0099919,1.3636
6074,16.464,5.0909,0.1,0.00016769,1675.7,0.00016784,1680.2,-5.4595e-05,8.8785,-5.5778e-05,-0.0098411,1.3371
6075,16.281,5.0909,0.1,0.00017206,1719.4,0.00017225,1724.9,-5.5864e-05,10.953,-5.7324e-05,-0.01018,1.3108
6076,16.097,5.0909,0.1,0.00017645,1763.3,0.00017667,1769.7,-5.7137e-05,13.038,-5.8874e-05,-0.010853,1.2847
6077,15.913,5.0909,0.1,0.00018084,1807.2,0.0001811,1814.7,-5.8414e-05,15.113,-6.0427e-05,-0.011866,1.2586
6078,15.729,5.0909,0.1,0.00018525,1851.2,0.00018553,1859.7,-5.9695e-05,17.157,-6.198e-05,-0.01325,1.2327
6079,15.545,5.0909,0.1,0.00018965,1895.2,0.00018997,1904.7,-6.0983e-05,19.138,-6.3532e-05,-0.015072,1.2068
6080,15.362,5.0909,0.1,0.00019406,1939.2,0.00019441,1949.7,-6.2279e-05,21.019,-6.5079e-05,-0.017466,1.1812
6081,15.178,5.0909,0.1,0.00019846,1983.2,0.00019884,1994.5,-6.3585e-05,22.756,-6.6617e-05,-0.020558,1.1556
6082,14.994,5.0909,0.1,0.00020284,2027,0.00020324,2039.1,-6.4904e-05,24.292,-6.814e-05,-0.024565,1.1302
6083,14.81,5.0909,0.1,0.0002072,2070.6,0.00020762,2083.2,-6.6235e-05,25.562,-6.9641e-05,-0.029906,1.1049
6084,14.626,5.0909,0.1,0.00021152,2113.8,0.00021196,2126.9,-6.7583e-05,26.49,-7.1113e-05,-0.037181,1.0797
6085,14.443,5.0909,0.1,0.00021578,2156.3,0.00021623,2169.7,-6.8947e-05,26.988,-7.2545e-05,-0.047351,1.0547
6086,14.259,5.0909,0.1,0.00021996,2198.1,0.0002204,2211.4,-7.0327e-05,26.956,-7.3923e-05,-0.06205,1.0299
6087,14.075,5.0909,0.1,0.00022402,2238.7,0.00022445,2251.6,-7.1722e-05,26.285,-7.5232e-05,-0.084065,1.0052
6088,13.891,5.0909,0.1,0.00022792,2277.6,0.00022833,2289.9,-7.3128e-05,24.857,-7.6452e-05,-0.11867,0.9806
6089,13.707,5.0909,0.1,0.00023161,2314.5,0.00023198,2325.6,-7.4535e-05,22.547,-7.7559e-05,-0.17683,0.9562
6090,13.524,5.0909,0.1,0.00023501,2348.4,0.00023532,2357.9,-7.5928e-05,19.24,-7.8527e-05,-0.28382,0.93195
6091,13.34,5.0909,0.1,0.00023803,2378.6,0.00023827,2385.8,-7.7281e-05,14.854,-7.9326e-05,-0.51039,0.90786
6092,13.156,5.0909,0.1,0.00024056,2403.9,0.0002407,2408.1,-7.8534e-05,9.4943,-7.9947e-05,-1.1237,0.88393
6093,12.972,5.0909,0.1,0.00024245,2422.8,0.00024246,2423.2,-7.9471e-05,4.3494,-8.0516e-05,-3.4959,0.86017
6094,12.788,5.0909,0.1,0.00024353,2433.6,0.00024339,2429.4,-7.967e-05,2.0855,-8.1347e-05,-10.516,0.83656
6095,12.605,5.0909,0.1,0.00024359,2434.3,0.00024325,2424.3,-7.9203e-05,1.5024,-8.2237e-05,-21.293,0.81312
6096,12.421,5.0909,0.1,0.00024239,2422.2,0.0002418,2405.2,-7.8133e-05,1.3459,-8.2977e-05,-35.046,0.78984
6097,12.237,5.0909,0.1,0.00023965,2394.9,0.00023874,2368.9,-7.6367e-05,1.3445,-8.3506e-05,-52.298,0.76673
6098,12.053,5.0909,0.1,0.00023511,2349.5,0.00023378,2312.1,-7.3754e-05,1.4293,-8.384e-05,-74.36,0.74377
6099,11.869,5.0909,0.1,0.00022857,2284.1,0.00022665,2231.3,-7.0103e-05,1.5678,-8.4106e-05,-103.65,0.72096
6100,11.686,5.0909,0.1,0.00022004,2198.8,0.00021724,2123.9,-6.519e-05,1.7745,-8.4645e-05,-144.4,0.69829
6101,11.502,5.0909,0.1,0.00021001,2098.7,0.00020582,1990.1,-5.8792e-05,1.9152,-8.6188e-05,-203.92,0.67576
6102,11.318,5.0909,0.1,0.00019995,1998.2,0.00019335,1836,-5.0697e-05,2.3682,-9.0093e-05,-293.63,0.65334
6103,11.134,5.0909,0.1,0.0001933,1931.6,0.00018224,1678.4,-4.1005e-05,1.0819,-9.8837e-05,-433.44,0.631
6104,10.95,5.0909,0.1,0.00020355,2034.1,0.00018258,1597.4,-2.9223e-05,5.9882,-0.00012243,-694.31,0.60873
6105,23.816,5.2727,0.1,1.1781e-05,117.72,7.0075e-06,39.313,1.7716e-06,-0.027163,-1.0608e-05,-93.044,2.451
6106,23.632,5.2727,0.1,1.3807e-05,137.97,1.033e-05,75.524,2.4876e-07,-0.22253,-1.0866e-05,-83.731,2.4224
6107,23.449,5.2727,0.1,1.6421e-05,164.1,1.3749e-05,112.29,-1.2037e-06,-0.063887,-1.1314e-05,-76.031,2.3938
6108,23.265,5.2727,0.1,1.9416e-05,194.03,1.7265e-05,149.5,-2.6389e-06,-0.054633,-1.1915e-05,-69.75,2.3652
6109,23.081,5.2727,0.1,2.2661e-05,226.46,2.0863e-05,187.18,-4.0535e-06,-0.029966,-1.2637e-05,-64.525,2.3366
6110,22.897,5.2727,0.1,2.6078e-05,260.6,2.453e-05,225.29,-5.4568e-06,-0.019788,-1.3454e-05,-60.105,2.308
6111,22.713,5.2727,0.1,2.9614e-05,295.93,2.8252e-05,263.75,-6.8522e-06,-0.011737,-1.4341e-05,-56.283,2.2794
6112,22.53,5.2727,0.1,3.3236e-05,332.13,3.2018e-05,302.5,-8.2427e-06,-0.0066571,-1.5284e-05,-52.913,2.2509
6113,22.346,5.2727,0.1,3.6924e-05,368.99,3.5821e-05,341.5,-9.6301e-06,-0.0030743,-1.627e-05,-49.891,2.2224
6114,22.162,5.2727,0.1,4.0663e-05,406.35,3.9655e-05,380.72,-1.1016e-05,-0.00061407,-1.729e-05,-47.141,2.1939
6115,21.978,5.2727,0.1,4.4443e-05,444.13,4.3516e-05,420.14,-1.2401e-05,0.0010999,-1.8338e-05,-44.611,2.1654
6116,21.794,5.2727,0.1,4.8259e-05,482.25,4.7401e-05,459.73,-1.3786e-05,0.0022846,-1.9411e-05,-42.26,2.137
6117,21.611,5.2727,0.1,5.2104e-05,520.68,5.1307e-05,499.5,-1.5172e-05,0.0031041,-2.0503e-05,-40.058,2.1086
6118,21.427,5.2727,0.1,5.5977e-05,559.38,5.5234e-05,539.43,-1.6559e-05,0.0036493,-2.1614e-05,-37.983,2.0802
6119,21.243,5.2727,0.1,5.9874e-05,598.33,5.918e-05,579.51,-1.7947e-05,0.0039944,-2.2741e-05,-36.015,2.0518
6120,21.059,5.2727,0.1,6.3795e-05,637.51,6.3146e-05,619.76,-1.9338e-05,0.0041896,-2.3883e-05,-34.14,2.0235
6121,20.875,5.2727,0.1,6.7738e-05,676.91,6.713e-05,660.16,-2.0732e-05,0.0042628,-2.5037e-05,-32.347,1.9953
6122,20.692,5.2727,0.1,7.1702e-05,716.52,7.1132e-05,700.72,-2.2128e-05,0.004254,-2.6204e-05,-30.623,1.9671
6123,20.508,5.2727,0.1,7.5686e-05,756.34,7.5152e-05,741.44,-2.3528e-05,0.0042019,-2.7383e-05,-28.96,1.9389
6124,20.324,5.2727,0.1,7.969e-05,796.35,7.919e-05,782.33,-2.4931e-05,0.0040973,-2.8572e-05,-27.349,1.9108
6125,20.14,5.2727,0.1,8.3714e-05,836.56,8.3246e-05,823.38,-2.6338e-05,0.0039579,-2.977e-05,-25.783,1.8827
6126,19.956,5.2727,0.1,8.7758e-05,876.97,8.732e-05,864.59,-2.775e-05,0.0037882,-3.0979e-05,-24.255,1.8547
6127,19.773,5.2727,0.1,9.182e-05,917.57,9.1412e-05,905.98,-2.9166e-05,0.0035793,-3.2196e-05,-22.759,1.8267
6128,19.589,5.2727,0.1,9.5902e-05,958.36,9.5523e-05,947.54,-3.0587e-05,0.0033563,-3.3421e-05,-21.287,1.7988
6129,19.405,5.2727,0.1,0.0001,999.34,9.9651e-05,989.28,-3.2013e-05,0.0031395,-3.4654e-05,-19.834,1.771
6130,19.221,5.2727,0.1,0.00010412,1040.5,0.0001038,1031.2,-3.3445e-05,0.0029146,-3.5894e-05,-18.394,1.7433
6131,19.038,5.2727,0.1,0.00010826,1081.9,0.00010796,1073.3,-3.4883e-05,0.0026792,-3.7141e-05,-16.962,1.7156
6132,18.854,5.2727,0.1,0.00011242,1123.4,0.00011215,1115.6,-3.6326e-05,0.0024358,-3.8394e-05,-15.532,1.6879
6133,18.67,5.2727,0.1,0.0001166,1165.1,0.00011635,1158,-3.7776e-05,0.0021724,-3.9652e-05,-14.098,1.6604
6134,18.486,5.2727,0.1,0.00012079,1207.1,0.00012057,1200.7,-3.9232e-05,0.0019178,-4.0917e-05,-12.657,1.6329
6135,18.302,5.2727,0.1,0.000125,1249.2,0.00012481,1243.5,-4.0695e-05,0.001703,-4.2186e-05,-11.202,1.6055
6136,18.119,5.2727,0.1,0.00012923,1291.4,0.00012907,1286.6,-4.2164e-05,0.0015174,-4.3459e-05,-9.731,1.5782
6137,17.935,5.2727,0.1,0.00013348,1333.9,0.00013334,1329.8,-4.3641e-05,0.001389,-4.4737e-05,-8.2388,1.551
6138,17.751,5.2727,0.1,0.00013775,1376.6,0.00013763,1373.2,-4.5124e-05,0.001374,-4.6019e-05,-6.7225,1.5239
6139,17.567,5.2727,0.1,0.00014203,1419.4,0.00014195,1416.8,-4.6615e-05,0.0015905,-4.7304e-05,-5.18,1.4969
6140,17.383,5.2727,0.1,0.00014634,1462.4,0.00014628,1460.6,-4.8112e-05,0.0024588,-4.8593e-05,-3.61,1.4699
6141,17.2,5.2727,0.1,0.00015066,1505.5,0.00015062,1504.5,-4.9616e-05,0.0056764,-4.9885e-05,-2.0139,1.4431
6142,17.016,5.2727,0.1,0.00015499,1548.8,0.00015498,1548.6,-5.1123e-05,0.038231,-5.1184e-05,-0.41992,1.4163
6143,16.832,5.2727,0.1,0.00015934,1592.3,0.00015936,1593,-5.2474e-05,1.2871,-5.2648e-05,-0.017957,1.3897
6144,16.648,5.2727,0.1,0.00016371,1635.9,0.00016376,1637.4,-5.3776e-05,2.9504,-5.4171e-05,-0.011211,1.3632
6145,16.464,5.2727,0.1,0.00016809,1679.7,0.00016817,1682,-5.5081e-05,4.6304,-5.5699e-05,-0.010067,1.3367
6146,16.281,5.2727,0.1,0.00017248,1723.6,0.00017259,1726.7,-5.639e-05,6.3118,-5.7231e-05,-0.01019,1.3104
6147,16.097,5.2727,0.1,0.00017688,1767.6,0.00017702,1771.6,-5.7703e-05,7.9788,-5.8766e-05,-0.010864,1.2842
6148,15.913,5.2727,0.1,0.00018129,1811.7,0.00018145,1816.4,-5.9022e-05,9.6116,-6.0302e-05,-0.01195,1.2582
6149,15.729,5.2727,0.1,0.0001857,1855.8,0.00018589,1861.3,-6.0346e-05,11.185,-6.1837e-05,-0.013421,1.2322
6150,15.545,5.2727,0.1,0.00019012,1899.9,0.00019033,1906.1,-6.1678e-05,12.667,-6.3366e-05,-0.015316,1.2064
6151,15.362,5.2727,0.1,0.00019452,1943.9,0.00019476,1950.8,-6.3019e-05,14.019,-6.4887e-05,-0.017757,1.1807
6152,15.178,5.2727,0.1,0.00019891,1987.8,0.00019917,1995.3,-6.4369e-05,15.194,-6.6394e-05,-0.020867,1.1551
6153,14.994,5.2727,0.1,0.00020328,2031.4,0.00020355,2039.4,-6.573e-05,16.136,-6.7881e-05,-0.024876,1.1297
6154,14.81,5.2727,0.1,0.0002076,2074.6,0.00020788,2082.9,-6.7103e-05,16.778,-6.934e-05,-0.030261,1.1044
6155,14.626,5.2727,0.1,0.00021186,2117.2,0.00021215,2125.6,-6.8487e-05,17.043,-7.0761e-05,-0.037761,1.0792
6156,14.443,5.2727,0.1,0.00021604,2158.9,0.00021632,2167.3,-6.9883e-05,16.843,-7.2131e-05,-0.048694,1.0542
6157,14.259,5.2727,0.1,0.00022011,2199.5,0.00022037,2207.5,-7.1286e-05,16.079,-7.3435e-05,-0.065602,1.0294
6158,14.075,5.2727,0.1,0.00022401,2238.5,0.00022425,2245.8,-7.2693e-05,14.646,-7.4655e-05,-0.093735,1.0046
6159,13.891,5.2727,0.1,0.0002277,2275.4,0.0002279,2281.5,-7.4093e-05,12.436,-7.5768e-05,-0.14587,0.98008
6160,13.707,5.2727,0.1,0.0002311,2309.4,0.00023126,2314,-7.5469e-05,9.3603,-7.6749e-05,-0.26087,0.95567
6161,13.524,5.2727,0.1,0.00023414,2339.8,0.00023422,2342.2,-7.6778e-05,5.4659,-7.7587e-05,-0.61369,0.93141
6162,13.34,5.2727,0.1,0.00023669,2365.2,0.00023668,2364.9,-7.7825e-05,1.8993,-7.8407e-05,-2.4767,0.90731
6163,13.156,5.2727,0.1,0.0002386,2384.4,0.00023848,2380.7,-7.8267e-05,0.82732,-7.9459e-05,-8.1317,0.88338
6164,12.972,5.2727,0.1,0.00023971,2395.5,0.00023945,2387.7,-7.8259e-05,0.61057,-8.0475e-05,-16.036,0.8596
6165,12.788,5.2727,0.1,0.0002398,2396.3,0.00023936,2383.7,-7.7815e-05,0.56541,-8.1295e-05,-25.579,0.83598
6166,12.605,5.2727,0.1,0.00023858,2384.2,0.00023795,2365.9,-7.6858e-05,0.5889,-8.1822e-05,-36.707,0.81252
6167,12.421,5.2727,0.1,0.00023576,2355.9,0.00023489,2331.2,-7.5283e-05,0.6597,-8.195e-05,-49.438,0.78922
6168,12.237,5.2727,0.1,0.00023095,2307.9,0.00022981,2275.7,-7.2965e-05,0.77613,-8.1566e-05,-63.853,0.76608
6169,12.053,5.2727,0.1,0.00022379,2236.4,0.00022233,2195.6,-6.9762e-05,0.94678,-8.0564e-05,-80.211,0.74309
6170,11.869,5.2727,0.1,0.00021393,2137.8,0.00021208,2087,-6.5523e-05,1.1778,-7.8889e-05,-99.248,0.72025
6171,11.686,5.2727,0.1,0.00020121,2010.8,0.00019886,1947.2,-6.0096e-05,1.4996,-7.6643e-05,-122.83,0.69753
6172,11.502,5.2727,0.1,0.00018603,1859,0.00018292,1777.2,-5.3375e-05,1.8157,-7.43e-05,-155.41,0.67494
6173,11.318,5.2727,0.1,0.00016988,1697.6,0.00016544,1585.9,-4.5311e-05,2.4452,-7.3109e-05,-206.42,0.65246
6174,11.134,5.2727,0.1,0.00015665,1565.5,0.00014947,1396.2,-3.615e-05,1.4599,-7.5878e-05,-297.04,0.63005
6175,10.95,5.2727,0.1,0.00015919,1590.8,0.00014485,1286.2,-2.5533e-05,5.9777,-9.2187e-05,-494.83,0.60769
6176,23.816,5.4545,0.1,1.0154e-05,101.47,6.4039e-06,38.814,1.2417e-06,0.02701,-8.9212e-06,-76.333,2.4508
6177,23.632,5.4545,0.1,1.2327e-05,123.19,9.6841e-06,74.313,-2.3102e-07,-0.18565,-9.2405e-06,-67.88,2.4222
6178,23.449,5.4545,0.1,1.5142e-05,151.32,1.3124e-05,110.82,-1.6299e-06,-0.033719,-9.8195e-06,-61.568,2.3936
6179,23.265,5.4545,0.1,1.8336e-05,183.23,1.6696e-05,148.09,-3.0171e-06,-0.02991,-1.0575e-05,-56.817,2.365
6180,23.081,5.4545,0.1,2.1756e-05,217.41,2.0362e-05,185.97,-4.3903e-06,-0.0088271,-1.145e-05,-53.05,2.3364
6181,22.897,5.4545,0.1,2.5318e-05,253.01,2.4096e-05,224.31,-5.7585e-06,-0.001474,-1.2405e-05,-49.941,2.3078
6182,22.713,5.4545,0.1,2.8975e-05,289.55,2.788e-05,263.01,-7.1239e-06,0.0041219,-1.3416e-05,-47.272,2.2793
6183,22.53,5.4545,0.1,3.2699e-05,326.76,3.1703e-05,301.99,-8.4886e-06,0.0071704,-1.4467e-05,-44.913,2.2507
6184,22.346,5.4545,0.1,3.6472e-05,364.47,3.5555e-05,341.19,-9.8536e-06,0.0090415,-1.5548e-05,-42.779,2.2222
6185,22.162,5.4545,0.1,4.0284e-05,402.56,3.9434e-05,380.6,-1.122e-05,0.010063,-1.6653e-05,-40.817,2.1937
6186,21.978,5.4545,0.1,4.4127e-05,440.96,4.3334e-05,420.18,-1.2587e-05,0.010559,-1.7777e-05,-38.987,2.1652
6187,21.794,5.4545,0.1,4.7997e-05,479.64,4.7254e-05,459.92,-1.3956e-05,0.010707,-1.8917e-05,-37.265,2.1368
6188,21.611,5.4545,0.1,5.1891e-05,518.55,5.1193e-05,499.82,-1.5328e-05,0.010637,-2.0072e-05,-35.632,2.1084
6189,21.427,5.4545,0.1,5.5807e-05,557.69,5.5149e-05,539.87,-1.6702e-05,0.010417,-2.1238e-05,-34.073,2.08
6190,21.243,5.4545,0.1,5.9743e-05,597.02,5.9123e-05,580.07,-1.8079e-05,0.010095,-2.2416e-05,-32.577,2.0516
6191,21.059,5.4545,0.1,6.3699e-05,636.55,6.3112e-05,620.42,-1.9459e-05,0.0097088,-2.3604e-05,-31.137,2.0233
6192,20.875,5.4545,0.1,6.7674e-05,676.27,6.7119e-05,660.91,-2.0842e-05,0.0092693,-2.4802e-05,-29.744,1.9951
6193,20.692,5.4545,0.1,7.1667e-05,716.17,7.1142e-05,701.56,-2.2229e-05,0.0088068,-2.6009e-05,-28.392,1.9668
6194,20.508,5.4545,0.1,7.5678e-05,756.26,7.5181e-05,742.36,-2.362e-05,0.0083443,-2.7225e-05,-27.077,1.9387
6195,20.324,5.4545,0.1,7.9708e-05,796.53,7.9238e-05,783.32,-2.5015e-05,0.0078778,-2.8449e-05,-25.793,1.9105
6196,20.14,5.4545,0.1,8.3755e-05,836.97,8.3311e-05,824.44,-2.6414e-05,0.0074058,-2.9681e-05,-24.536,1.8824
6197,19.956,5.4545,0.1,8.7821e-05,877.6,8.7401e-05,865.72,-2.7818e-05,0.0069306,-3.0921e-05,-23.301,1.8544
6198,19.773,5.4545,0.1,9.1904e-05,918.41,9.1509e-05,907.17,-2.9227e-05,0.006443,-3.2168e-05,-22.085,1.8265
6199,19.589,5.4545,0.1,9.6006e-05,959.4,9.5634e-05,948.79,-3.0642e-05,0.0059568,-3.3422e-05,-20.883,1.7986
6200,19.405,5.4545,0.1,0.00010013,1000.6,9.9777e-05,990.59,-3.2061e-05,0.0054928,-3.4683e-05,-19.692,1.7707
6201,19.221,5.4545,0.1,0.00010426,1041.9,0.00010394,1032.6,-3.3486e-05,0.0050294,-3.595e-05,-18.507,1.743
6202,19.038,5.4545,0.1,0.00010842,1083.5,0.00010812,1074.7,-3.4917e-05,0.0045584,-3.7224e-05,-17.324,1.7152
6203,18.854,5.4545,0.1,0.0001126,1125.2,0.00011231,1117,-3.6354e-05,0.004083,-3.8503e-05,-16.142,1.6876
6204,18.67,5.4545,0.1,0.00011679,1167.1,0.00011653,1159.6,-3.7797e-05,0.0035787,-3.9788e-05,-14.954,1.6601
6205,18.486,5.4545,0.1,0.000121,1209.2,0.00012076,1202.3,-3.9247e-05,0.0030688,-4.1079e-05,-13.76,1.6326
6206,18.302,5.4545,0.1,0.00012523,1251.5,0.00012501,1245.1,-4.0703e-05,0.0025717,-4.2375e-05,-12.555,1.6052
6207,18.119,5.4545,0.1,0.00012948,1293.9,0.00012929,1288.2,-4.2166e-05,0.0020626,-4.3675e-05,-11.336,1.5779
6208,17.935,5.4545,0.1,0.00013375,1336.6,0.00013357,1331.5,-4.3636e-05,0.001532,-4.4981e-05,-10.102,1.5506
6209,17.751,5.4545,0.1,0.00013803,1379.4,0.00013788,1374.9,-4.5112e-05,0.00097945,-4.629e-05,-8.8507,1.5235
6210,17.567,5.4545,0.1,0.00014234,1422.4,0.00014221,1418.6,-4.6595e-05,0.00038252,-4.7604e-05,-7.5806,1.4965
6211,17.383,5.4545,0.1,0.00014666,1465.6,0.00014655,1462.4,-4.8085e-05,-0.00022566,-4.8923e-05,-6.2919,1.4695
6212,17.2,5.4545,0.1,0.000151,1508.9,0.00015091,1506.4,-4.9582e-05,-0.0008026,-5.0245e-05,-4.9851,1.4427
6213,17.016,5.4545,0.1,0.00015535,1552.4,0.00015529,1550.6,-5.1084e-05,-0.0013349,-5.1572e-05,-3.6626,1.4159
6214,16.832,5.4545,0.1,0.00015972,1596.1,0.00015968,1594.9,-5.2593e-05,-0.0016543,-5.2902e-05,-2.3283,1.3893
6215,16.648,5.4545,0.1,0.00016411,1639.9,0.00016409,1639.4,-5.4106e-05,-0.0005979,-5.4237e-05,-0.98925,1.3627
6216,16.464,5.4545,0.1,0.0001685,1683.9,0.00016851,1684,-5.5575e-05,0.36255,-5.5625e-05,-0.01448,1.3363
6217,16.281,5.4545,0.1,0.00017291,1727.9,0.00017294,1728.8,-5.692e-05,1.681,-5.7145e-05,-0.0083966,1.31
6218,16.097,5.4545,0.1,0.00017733,1772.1,0.00017738,1773.5,-5.8269e-05,2.978,-5.8667e-05,-0.0088421,1.2838
6219,15.913,5.4545,0.1,0.00018175,1816.3,0.00018182,1818.4,-5.9624e-05,4.2285,-6.0188e-05,-0.010032,1.2577
6220,15.729,5.4545,0.1,0.00018617,1860.4,0.00018626,1863.1,-6.0984e-05,5.4083,-6.1706e-05,-0.01165,1.2317
6221,15.545,5.4545,0.1,0.00019059,1904.6,0.0001907,1907.8,-6.2352e-05,6.4877,-6.3217e-05,-0.013686,1.2059
6222,15.362,5.4545,0.1,0.00019499,1948.6,0.00019512,1952.3,-6.3726e-05,7.4303,-6.4717e-05,-0.016263,1.1802
6223,15.178,5.4545,0.1,0.00019937,1992.3,0.00019951,1996.4,-6.5107e-05,8.1924,-6.6199e-05,-0.019526,1.1546
6224,14.994,5.4545,0.1,0.00020371,2035.7,0.00020386,2040,-6.6494e-05,8.7218,-6.7658e-05,-0.023759,1.1292
6225,14.81,5.4545,0.1,0.000208,2078.5,0.00020815,2083,-6.7888e-05,8.9573,-6.9084e-05,-0.029576,1.1039
6226,14.626,5.4545,0.1,0.0002122,2120.5,0.00021235,2124.9,-6.9286e-05,8.8279,-7.0466e-05,-0.038069,1.0787
6227,14.443,5.4545,0.1,0.0002163,2161.5,0.00021643,2165.6,-7.0685e-05,8.2538,-7.179e-05,-0.051536,1.0537
6228,14.259,5.4545,0.1,0.00022024,2200.9,0.00022036,2204.4,-7.2079e-05,7.1477,-7.304e-05,-0.075608,1.0288
6229,14.075,5.4545,0.1,0.00022399,2238.4,0.00022408,2241,-7.3457e-05,5.4249,-7.4196e-05,-0.12774,1.0041
6230,13.891,5.4545,0.1,0.00022748,2273.2,0.00022752,2274.6,-7.4796e-05,3.0625,-7.5243e-05,-0.29478,0.97951
6231,13.707,5.4545,0.1,0.00023062,2304.6,0.00023061,2304.3,-7.5962e-05,0.82591,-7.6266e-05,-1.4563,0.95509
6232,13.524,5.4545,0.1,0.00023331,2331.5,0.00023322,2329,-7.6702e-05,0.3095,-7.7451e-05,-5.3194,0.93082
6233,13.34,5.4545,0.1,0.00023542,2352.6,0.00023524,2347.3,-7.714e-05,0.21701,-7.8592e-05,-10.69,0.90672
6234,13.156,5.4545,0.1,0.00023679,2366.2,0.00023649,2357.6,-7.7265e-05,0.19441,-7.9593e-05,-17.295,0.88277
6235,12.972,5.4545,0.1,0.00023721,2370.4,0.00023677,2357.9,-7.7013e-05,0.19889,-8.0384e-05,-25.13,0.85897
6236,12.788,5.4545,0.1,0.00023642,2362.6,0.00023583,2345.5,-7.6303e-05,0.22207,-8.0879e-05,-34.164,0.83534
6237,12.605,5.4545,0.1,0.00023413,2339.7,0.00023335,2317.4,-7.5038e-05,0.26417,-8.0967e-05,-44.283,0.81187
6238,12.421,5.4545,0.1,0.00022997,2298.1,0.00022899,2270.2,-7.311e-05,0.33024,-8.0508e-05,-55.255,0.78855
6239,12.237,5.4545,0.1,0.00022352,2233.7,0.00022232,2199.8,-7.0396e-05,0.43004,-7.9333e-05,-66.716,0.76539
6240,12.053,5.4545,0.1,0.00021432,2141.8,0.00021289,2101.9,-6.6769e-05,0.58297,-7.7254e-05,-78.195,0.74237
6241,11.869,5.4545,0.1,0.00020195,2018.1,0.00020029,1972.3,-6.2102e-05,0.81631,-7.4093e-05,-89.275,0.71949
6242,11.686,5.4545,0.1,0.0001861,1859.8,0.00018422,1808.3,-5.6289e-05,1.2071,-6.9766e-05,-100.05,0.69674
6243,11.502,5.4545,0.1,0.00016694,1668.3,0.00016477,1610,-4.9281e-05,1.7499,-6.4472e-05,-112.39,0.6741
6244,11.318,5.4545,0.1,0.00014566,1455.5,0.00014297,1385.9,-4.1104e-05,2.7945,-5.9135e-05,-132.68,0.65156
6245,11.134,5.4545,0.1,0.00012601,1259.2,0.00012197,1160,-3.2085e-05,2.5284,-5.6482e-05,-180.79,0.62909
6246,10.95,5.4545,0.1,0.00012048,1203.9,0.00011166,1011.5,-2.2068e-05,6.7312,-6.5937e-05,-322.88,0.60667
6247,23.816,5.6364,0.1,8.2469e-06,82.412,5.6587e-06,37.982,6.4049e-07,0.27738,-6.921e-06,-56.537,2.4507
6248,23.632,5.6364,0.1,1.0705e-05,106.97,8.9365e-06,72.791,-7.5248e-07,-0.0082173,-7.4099e-06,-50.029,2.4221
6249,23.449,5.6364,0.1,1.3847e-05,138.38,1.2471e-05,109.43,-2.0801e-06,0.092584,-8.2353e-06,-46.155,2.3935
6250,23.265,5.6364,0.1,1.7311e-05,172.99,1.6152e-05,147.05,-3.4088e-06,0.07981,-9.2205e-06,-43.587,2.3649
6251,23.081,5.6364,0.1,2.0936e-05,209.22,1.9915e-05,185.3,-4.736e-06,0.0839,-1.0288e-05,-41.632,2.3363
6252,22.897,5.6364,0.1,2.4656e-05,246.39,2.373e-05,223.96,-6.0668e-06,0.078985,-1.1402e-05,-40.01,2.3077
6253,22.713,5.6364,0.1,2.8436e-05,284.16,2.7583e-05,262.93,-7.4012e-06,0.074614,-1.2546e-05,-38.579,2.2791
6254,22.53,5.6364,0.1,3.2258e-05,322.35,3.1462e-05,302.13,-8.7395e-06,0.069554,-1.3709e-05,-37.268,2.2506
6255,22.346,5.6364,0.1,3.6112e-05,360.87,3.5364e-05,341.53,-1.0082e-05,0.064667,-1.4886e-05,-36.035,2.222
6256,22.162,5.6364,0.1,3.9991e-05,399.64,3.9285e-05,381.09,-1.1428e-05,0.059972,-1.6075e-05,-34.857,2.1935
6257,21.978,5.6364,0.1,4.3893e-05,438.63,4.3222e-05,420.82,-1.2777e-05,0.055556,-1.7273e-05,-33.72,2.165
6258,21.794,5.6364,0.1,4.7814e-05,477.81,4.7176e-05,460.69,-1.4131e-05,0.051434,-1.8479e-05,-32.615,2.1366
6259,21.611,5.6364,0.1,5.1752e-05,517.16,5.1144e-05,500.69,-1.5488e-05,0.04761,-1.9692e-05,-31.537,2.1082
6260,21.427,5.6364,0.1,5.5707e-05,556.69,5.5127e-05,540.84,-1.6849e-05,0.044054,-2.0912e-05,-30.482,2.0798
6261,21.243,5.6364,0.1,5.9679e-05,596.38,5.9124e-05,581.13,-1.8214e-05,0.040748,-2.2139e-05,-29.446,2.0514
6262,21.059,5.6364,0.1,6.3667e-05,636.23,6.3136e-05,621.56,-1.9583e-05,0.037665,-2.3372e-05,-28.428,2.0231
6263,20.875,5.6364,0.1,6.7671e-05,676.24,6.7163e-05,662.12,-2.0956e-05,0.034774,-2.4611e-05,-27.426,1.9948
6264,20.692,5.6364,0.1,7.169e-05,716.41,7.1205e-05,702.84,-2.2333e-05,0.032067,-2.5856e-05,-26.439,1.9666
6265,20.508,5.6364,0.1,7.5726e-05,756.74,7.5262e-05,743.7,-2.3715e-05,0.029533,-2.7108e-05,-25.463,1.9384
6266,20.324,5.6364,0.1,7.9779e-05,797.24,7.9334e-05,784.72,-2.5102e-05,0.027143,-2.8366e-05,-24.499,1.9103
6267,20.14,5.6364,0.1,8.3848e-05,837.9,8.3423e-05,825.89,-2.6493e-05,0.024875,-2.963e-05,-23.545,1.8822
6268,19.956,5.6364,0.1,8.7934e-05,878.73,8.7528e-05,867.23,-2.789e-05,0.022714,-3.09e-05,-22.598,1.8541
6269,19.773,5.6364,0.1,9.2037e-05,919.74,9.165e-05,908.73,-2.9291e-05,0.020628,-3.2177e-05,-21.657,1.8262
6270,19.589,5.6364,0.1,9.6157e-05,960.91,9.5788e-05,950.39,-3.0698e-05,0.018624,-3.3459e-05,-20.721,1.7983
6271,19.405,5.6364,0.1,0.0001003,1002.3,9.9944e-05,992.23,-3.2111e-05,0.016703,-3.4747e-05,-19.787,1.7704
6272,19.221,5.6364,0.1,0.00010445,1043.8,0.00010412,1034.2,-3.353e-05,0.014832,-3.6041e-05,-18.854,1.7426
6273,19.038,5.6364,0.1,0.00010863,1085.5,0.00010831,1076.4,-3.4954e-05,0.013,-3.7341e-05,-17.919,1.7149
6274,18.854,5.6364,0.1,0.00011282,1127.4,0.00011252,1118.8,-3.6384e-05,0.011191,-3.8646e-05,-16.981,1.6873
6275,18.67,5.6364,0.1,0.00011703,1169.5,0.00011675,1161.4,-3.7821e-05,0.0093815,-3.9957e-05,-16.038,1.6597
6276,18.486,5.6364,0.1,0.00012126,1211.7,0.00012099,1204.1,-3.9264e-05,0.0075792,-4.1273e-05,-15.087,1.6322
6277,18.302,5.6364,0.1,0.0001255,1254.2,0.00012526,1247,-4.0714e-05,0.0058002,-4.2595e-05,-14.128,1.6048
6278,18.119,5.6364,0.1,0.00012977,1296.8,0.00012954,1290.2,-4.217e-05,0.0040124,-4.3922e-05,-13.16,1.5775
6279,17.935,5.6364,0.1,0.00013405,1339.6,0.00013384,1333.5,-4.3633e-05,0.0022016,-4.5254e-05,-12.179,1.5502
6280,17.751,5.6364,0.1,0.00013836,1382.6,0.00013816,1377,-4.5102e-05,0.00036111,-4.6591e-05,-11.187,1.5231
6281,17.567,5.6364,0.1,0.00014268,1425.8,0.0001425,1420.7,-4.6578e-05,-0.001531,-4.7933e-05,-10.183,1.496
6282,17.383,5.6364,0.1,0.00014702,1469.1,0.00014686,1464.5,-4.8061e-05,-0.0034515,-4.928e-05,-9.1676,1.4691
6283,17.2,5.6364,0.1,0.00015137,1512.7,0.00015123,1508.6,-4.9549e-05,-0.0053715,-5.0632e-05,-8.1416,1.4422
6284,17.016,5.6364,0.1,0.00015574,1556.4,0.00015562,1552.8,-5.1044e-05,-0.0073118,-5.1989e-05,-7.1077,1.4154
6285,16.832,5.6364,0.1,0.00016013,1600.2,0.00016003,1597.2,-5.2543e-05,-0.0092612,-5.335e-05,-6.0696,1.3888
6286,16.648,5.6364,0.1,0.00016453,1644.2,0.00016445,1641.7,-5.4048e-05,-0.011183,-5.4716e-05,-5.0326,1.3622
6287,16.464,5.6364,0.1,0.00016895,1688.3,0.00016888,1686.3,-5.5555e-05,-0.013019,-5.6087e-05,-4.004,1.3358
6288,16.281,5.6364,0.1,0.00017337,1732.5,0.00017332,1731,-5.7066e-05,-0.014552,-5.7462e-05,-2.9935,1.3095
6289,16.097,5.6364,0.1,0.0001778,1776.8,0.00017777,1775.8,-5.8576e-05,-0.01521,-5.8842e-05,-2.0138,1.2833
6290,15.913,5.6364,0.1,0.00018224,1821.1,0.00018222,1820.5,-6.0085e-05,-0.012702,-6.0228e-05,-1.0832,1.2572
6291,15.729,5.6364,0.1,0.00018666,1865.4,0.00018666,1865.2,-6.1585e-05,0.025808,-6.1622e-05,-0.2539,1.2312
6292,15.545,5.6364,0.1,0.00019108,1909.5,0.00019109,1909.8,-6.3005e-05,0.59955,-6.3091e-05,-0.049332,1.2054
6293,15.362,5.6364,0.1,0.00019548,1953.4,0.0001955,1954.1,-6.4401e-05,1.253,-6.4574e-05,-0.043402,1.1796
6294,15.178,5.6364,0.1,0.00019984,1997.1,0.00019987,1997.9,-6.5799e-05,1.76,-6.6039e-05,-0.045342,1.1541
6295,14.994,5.6364,0.1,0.00020416,2040.2,0.00020419,2041.2,-6.7196e-05,2.0738,-6.7479e-05,-0.050437,1.1286
6296,14.81,5.6364,0.1,0.0002084,2082.6,0.00020844,2083.6,-6.859e-05,2.1456,-6.8883e-05,-0.059678,1.1033
6297,14.626,5.6364,0.1,0.00021254,2124,0.00021258,2124.9,-6.9975e-05,1.9225,-7.0241e-05,-0.078199,1.0781
6298,14.443,5.6364,0.1,0.00021655,2164.1,0.00021658,2164.7,-7.1343e-05,1.3599,-7.1541e-05,-0.12769,1.0531
6299,14.259,5.6364,0.1,0.00022039,2202.4,0.00022039,2202.4,-7.2664e-05,0.5468,-7.2786e-05,-0.37239,1.0282
6300,14.075,5.6364,0.1,0.00022398,2238.3,0.00022396,2237.6,-7.3824e-05,0.16,-7.4054e-05,-1.5724,1.0035
6301,13.891,5.6364,0.1,0.00022727,2271.2,0.00022721,2269.4,-7.4809e-05,0.091117,-7.5315e-05,-3.7092,0.97889
6302,13.707,5.6364,0.1,0.00023016,2300.1,0.00023005,2296.8,-7.562e-05,0.075051,-7.651e-05,-6.612,0.95446
6303,13.524,5.6364,0.1,0.00023254,2323.8,0.00023237,2318.7,-7.622e-05,0.075269,-7.7606e-05,-10.338,0.93019
6304,13.34,5.6364,0.1,0.00023426,2341,0.000234,2333.5,-7.6556e-05,0.08419,-7.8559e-05,-14.963,0.90607
6305,13.156,5.6364,0.1,0.00023514,2349.8,0.00023479,2339.5,-7.6568e-05,0.099656,-7.9316e-05,-20.55,0.8821
6306,12.972,5.6364,0.1,0.00023496,2348,0.00023449,2334.4,-7.618e-05,0.12126,-7.9806e-05,-27.123,0.8583
6307,12.788,5.6364,0.1,0.00023346,2333,0.00023285,2315.5,-7.5306e-05,0.14945,-7.9937e-05,-34.641,0.83465
6308,12.605,5.6364,0.1,0.0002303,2301.4,0.00022954,2279.7,-7.3845e-05,0.18542,-7.9588e-05,-42.963,0.81116
6309,12.421,5.6364,0.1,0.00022511,2249.5,0.00022418,2223.3,-7.1685e-05,0.2321,-7.861e-05,-51.8,0.78783
6310,12.237,5.6364,0.1,0.00021744,2172.9,0.00021635,2142.1,-6.8704e-05,0.29572,-7.6818e-05,-60.671,0.76464
6311,12.053,5.6364,0.1,0.00020682,2066.8,0.00020557,2031.7,-6.4779e-05,0.39271,-7.3997e-05,-68.866,0.7416
6312,11.869,5.6364,0.1,0.00019278,1926.5,0.0001914,1887.9,-5.9796e-05,0.55521,-6.9916e-05,-75.482,0.71869
6313,11.686,5.6364,0.1,0.00017493,1748.1,0.00017345,1707.3,-5.3662e-05,0.88951,-6.4378e-05,-79.62,0.6959
6314,11.502,5.6364,0.1,0.00015315,1530.4,0.00015162,1488.9,-4.6338e-05,1.5208,-5.7334e-05,-81.098,0.67323
6315,11.318,5.6364,0.1,0.00012798,1278.9,0.00012642,1237.2,-3.7825e-05,3.1668,-4.919e-05,-82.225,0.65064
6316,11.134,5.6364,0.1,0.00010198,1019.1,0.00010006,969.8,-2.8431e-05,4.3579,-4.1741e-05,-95.647,0.62813
6317,10.95,5.6364,0.1,8.6194e-05,861.34,8.1751e-05,760.83,-1.8329e-05,8.8696,-4.3321e-05,-178.91,0.60567
6318,23.816,5.8182,0.1,6.1195e-06,61.153,4.7936e-06,36.971,-6.0024e-08,0.50293,-4.6028e-06,-33.63,2.4506
6319,23.632,5.8182,0.1,9.3331e-06,93.267,8.3425e-06,72.668,-1.3145e-06,0.10856,-5.6588e-06,-32.532,2.4219
6320,23.449,5.8182,0.1,1.2999e-05,129.9,1.2128e-05,110.44,-2.5537e-06,0.12036,-6.9272e-06,-32.741,2.3933
6321,23.265,5.8182,0.1,1.6787e-05,167.75,1.5981e-05,148.85,-3.8186e-06,0.08069,-8.2172e-06,-32.968,2.3647
6322,23.081,5.8182,0.1,2.063e-05,206.15,1.9868e-05,187.65,-5.0982e-06,0.065339,-9.5076e-06,-33.065,2.3361
6323,22.897,5.8182,0.1,2.4505e-05,244.88,2.3776e-05,226.71,-6.391e-06,0.05019,-1.0793e-05,-33.026,2.3075
6324,22.713,5.8182,0.1,2.8402e-05,283.82,2.77e-05,265.97,-7.694e-06,0.039685,-1.2073e-05,-32.865,2.2789
6325,22.53,5.8182,0.1,3.2316e-05,322.93,3.1637e-05,305.41,-9.0056e-06,0.031347,-1.3349e-05,-32.603,2.2504
6326,22.346,5.8182,0.1,3.6243e-05,362.18,3.5587e-05,344.99,-1.0325e-05,0.024907,-1.4621e-05,-32.258,2.2219
6327,22.162,5.8182,0.1,4.0184e-05,401.56,3.9547e-05,384.7,-1.165e-05,0.019814,-1.5891e-05,-31.843,2.1933
6328,21.978,5.8182,0.1,4.4136e-05,441.05,4.3518e-05,424.54,-1.2982e-05,0.015765,-1.7159e-05,-31.373,2.1648
6329,21.794,5.8182,0.1,4.81e-05,480.66,4.75e-05,464.5,-1.4319e-05,0.012528,-1.8427e-05,-30.855,2.1364
6330,21.611,5.8182,0.1,5.2075e-05,520.39,5.1493e-05,504.58,-1.5661e-05,0.0099364,-1.9695e-05,-30.299,2.1079
6331,21.427,5.8182,0.1,5.6062e-05,560.23,5.5497e-05,544.79,-1.7009e-05,0.0078532,-2.0964e-05,-29.711,2.0795
6332,21.243,5.8182,0.1,6.0061e-05,600.2,5.9513e-05,585.12,-1.8361e-05,0.0061775,-2.2234e-05,-29.098,2.0512
6333,21.059,5.8182,0.1,6.4073e-05,640.29,6.3542e-05,625.59,-1.9718e-05,0.0048284,-2.3507e-05,-28.463,2.0229
6334,20.875,5.8182,0.1,6.8098e-05,680.51,6.7582e-05,666.18,-2.108e-05,0.0037388,-2.4782e-05,-27.81,1.9946
6335,20.692,5.8182,0.1,7.2137e-05,720.87,7.1637e-05,706.92,-2.2448e-05,0.0028727,-2.6061e-05,-27.143,1.9663
6336,20.508,5.8182,0.1,7.6189e-05,761.37,7.5705e-05,747.79,-2.382e-05,0.0022041,-2.7342e-05,-26.464,1.9381
6337,20.324,5.8182,0.1,8.0257e-05,802.01,7.9787e-05,788.81,-2.5198e-05,0.0016892,-2.8628e-05,-25.774,1.91
6338,20.14,5.8182,0.1,8.4339e-05,842.81,8.3884e-05,829.99,-2.658e-05,0.0013003,-2.9918e-05,-25.076,1.8819
6339,19.956,5.8182,0.1,8.8437e-05,883.76,8.7997e-05,871.32,-2.7969e-05,0.0010184,-3.1212e-05,-24.37,1.8538
6340,19.773,5.8182,0.1,9.2551e-05,924.87,9.2126e-05,912.81,-2.9362e-05,0.00081595,-3.2511e-05,-23.657,1.8259
6341,19.589,5.8182,0.1,9.6681e-05,966.15,9.6271e-05,954.47,-3.0762e-05,0.00069301,-3.3815e-05,-22.938,1.7979
6342,19.405,5.8182,0.1,0.00010083,1007.6,0.00010043,996.3,-3.2167e-05,0.0006611,-3.5123e-05,-22.213,1.7701
6343,19.221,5.8182,0.1,0.00010499,1049.2,0.00010461,1038.3,-3.3578e-05,0.00069273,-3.6437e-05,-21.481,1.7423
6344,19.038,5.8182,0.1,0.00010918,1091,0.00010881,1080.5,-3.4995e-05,0.00077738,-3.7756e-05,-20.743,1.7146
6345,18.854,5.8182,0.1,0.00011338,1133,0.00011302,1122.8,-3.6419e-05,0.00091565,-3.9081e-05,-19.998,1.6869
6346,18.67,5.8182,0.1,0.00011759,1175.1,0.00011725,1165.4,-3.7849e-05,0.0010845,-4.041e-05,-19.247,1.6593
6347,18.486,5.8182,0.1,0.00012183,1217.5,0.00012151,1208.1,-3.9285e-05,0.0013092,-4.1746e-05,-18.488,1.6318
6348,18.302,5.8182,0.1,0.00012609,1260,0.00012578,1251,-4.0727e-05,0.0016103,-4.3086e-05,-17.722,1.6044
6349,18.119,5.8182,0.1,0.00013036,1302.7,0.00013006,1294.1,-4.2176e-05,0.001969,-4.4432e-05,-16.947,1.5771
6350,17.935,5.8182,0.1,0.00013465,1345.6,0.00013437,1337.4,-4.3632e-05,0.0023881,-4.5784e-05,-16.165,1.5498
6351,17.751,5.8182,0.1,0.00013896,1388.7,0.0001387,1380.9,-4.5094e-05,0.0028755,-4.7141e-05,-15.375,1.5227
6352,17.567,5.8182,0.1,0.00014329,1431.9,0.00014304,1424.6,-4.6562e-05,0.0034205,-4.8503e-05,-14.577,1.4956
6353,17.383,5.8182,0.1,0.00014764,1475.4,0.0001474,1468.5,-4.8037e-05,0.0040671,-4.9871e-05,-13.773,1.4686
6354,17.2,5.8182,0.1,0.000152,1519,0.00015178,1512.5,-4.9518e-05,0.0048607,-5.1244e-05,-12.963,1.4417
6355,17.016,5.8182,0.1,0.00015639,1562.8,0.00015618,1556.7,-5.1004e-05,0.0057978,-5.2622e-05,-12.149,1.415
6356,16.832,5.8182,0.1,0.00016078,1606.7,0.00016059,1601,-5.2495e-05,0.0069027,-5.4005e-05,-11.335,1.3883
6357,16.648,5.8182,0.1,0.00016519,1650.8,0.00016501,1645.5,-5.3991e-05,0.0082148,-5.5393e-05,-10.524,1.3617
6358,16.464,5.8182,0.1,0.00016961,1695,0.00016945,1690.1,-5.549e-05,0.0097572,-5.6785e-05,-9.7206,1.3353
6359,16.281,5.8182,0.1,0.00017404,1739.2,0.00017389,1734.8,-5.6991e-05,0.011615,-5.8181e-05,-8.9318,1.3089
6360,16.097,5.8182,0.1,0.00017848,1783.6,0.00017834,1779.5,-5.8492e-05,0.01388,-5.9581e-05,-8.1653,1.2827
6361,15.913,5.8182,0.1,0.00018291,1827.9,0.00018279,1824.1,-5.9991e-05,0.01657,-6.0983e-05,-7.4314,1.2566
6362,15.729,5.8182,0.1,0.00018734,1872.1,0.00018722,1868.7,-6.1486e-05,0.019715,-6.2386e-05,-6.7425,1.2306
6363,15.545,5.8182,0.1,0.00019175,1916.2,0.00019165,1913.1,-6.2972e-05,0.023292,-6.3789e-05,-6.1139,1.2048
6364,15.362,5.8182,0.1,0.00019613,1960,0.00019604,1957.2,-6.4446e-05,0.027142,-6.519e-05,-5.5639,1.179
6365,15.178,5.8182,0.1,0.00020047,2003.3,0.00020039,2000.8,-6.59e-05,0.030975,-6.6585e-05,-5.1142,1.1535
6366,14.994,5.8182,0.1,0.00020475,2046.1,0.00020467,2043.7,-6.7328e-05,0.034237,-6.797e-05,-4.7906,1.128
6367,14.81,5.8182,0.1,0.00020895,2088,0.00020887,2085.7,-6.872e-05,0.036064,-6.934e-05,-4.6232,1.1027
6368,14.626,5.8182,0.1,0.00021303,2128.8,0.00021295,2126.5,-7.0065e-05,0.035616,-7.0688e-05,-4.6476,1.0775
6369,14.443,5.8182,0.1,0.00021695,2168,0.00021687,2165.6,-7.1347e-05,0.032475,-7.2004e-05,-4.9054,1.0525
6370,14.259,5.8182,0.1,0.00022067,2205.2,0.00022057,2202.4,-7.2548e-05,0.026945,-7.3276e-05,-5.445,1.0276
6371,14.075,5.8182,0.1,0.00022412,2239.6,0.00022401,2236.5,-7.3644e-05,0.020031,-7.4488e-05,-6.3221,1.0028
6372,13.891,5.8182,0.1,0.00022722,2270.7,0.00022709,2266.9,-7.4606e-05,0.012837,-7.5619e-05,-7.5986,0.97822
6373,13.707,5.8182,0.1,0.00022988,2297.3,0.00022972,2292.6,-7.5398e-05,0.0059861,-7.6642e-05,-9.3422,0.95378
6374,13.524,5.8182,0.1,0.00023198,2318.2,0.00023178,2312.3,-7.5976e-05,-0.00043545,-7.7523e-05,-11.624,0.9295
6375,13.34,5.8182,0.1,0.00023335,2331.9,0.0002331,2324.6,-7.6286e-05,-0.0068678,-7.8217e-05,-14.518,0.90537
6376,13.156,5.8182,0.1,0.00023382,2336.6,0.0002335,2327.5,-7.6263e-05,-0.014184,-7.8669e-05,-18.092,0.88139
6377,12.972,5.8182,0.1,0.00023315,2329.9,0.00023276,2318.6,-7.583e-05,-0.023422,-7.8809e-05,-22.404,0.85758
6378,12.788,5.8182,0.1,0.00023108,2309.2,0.0002306,2295.4,-7.4895e-05,-0.03557,-7.8548e-05,-27.483,0.83391
6379,12.605,5.8182,0.1,0.00022729,2271.3,0.0002267,2254.4,-7.3353e-05,-0.050992,-7.778e-05,-33.314,0.81041
6380,12.421,5.8182,0.1,0.00022139,2212.4,0.00022069,2192.2,-7.1084e-05,-0.067635,-7.6372e-05,-39.801,0.78705
6381,12.237,5.8182,0.1,0.00021297,2128.3,0.00021214,2104.5,-6.7961e-05,-0.078104,-7.4169e-05,-46.728,0.76385
6382,12.053,5.8182,0.1,0.00020159,2014.5,0.00020062,1987.1,-6.3852e-05,-0.060694,-7.0991e-05,-53.706,0.74078
6383,11.869,5.8182,0.1,0.00018679,1866.6,0.00018569,1835.8,-5.8634e-05,0.028594,-6.6641e-05,-60.133,0.71785
6384,11.686,5.8182,0.1,0.00016816,1680.4,0.00016696,1647,-5.2206e-05,0.31772,-6.0921e-05,-65.161,0.69503
6385,11.502,5.8182,0.1,0.00014544,1453.4,0.00014418,1418.7,-4.4512e-05,0.9759,-5.367e-05,-67.838,0.67233
6386,11.318,5.8182,0.1,0.00011857,1184.9,0.00011732,1151.2,-3.5502e-05,2.9172,-4.4843e-05,-67.274,0.64971
6387,11.134,5.8182,0.1,8.8215e-05,881.54,8.6961e-05,849.04,-2.524e-05,6.0099,-3.4893e-05,-66.525,0.62717
6388,10.95,5.8182,0.1,5.9121e-05,590.8,5.7155e-05,547.38,-1.3328e-05,17.805,-2.7654e-05,-89.836,0.60467
6389,0.18276,0.18182,0.1,0.00040498,4047,0.00039873,3881.6,-0.00011759,2.0797,-0.0001597,-314.31,8.74e-05
6390,0.18276,0.36364,0.1,0.0004557,4553.8,0.00044203,4487.9,-4.5504e-05,824.72,-0.00023655,-610.75,0.00013768
6391,0.18276,0.54545,0.1,0.00052272,5223.6,0.00050183,5185.4,-2.056e-05,1260.4,-0.00028725,-743.47,0.00016693
6392,0.18276,0.72727,0.1,0.00057502,5746.2,0.00054969,5717.8,-1.0359e-05,1509.8,-0.00032163,-829.03,0.00018546
6393,0.18276,0.90909,0.1,0.00061417,6137.4,0.00058632,6117.6,-6.0149e-06,1667,-0.00034552,-883.91,0.0001982
6394,0.18276,1.0909,0.1,0.00064368,6432.4,0.00061417,6418.6,-3.7893e-06,1775.5,-0.00036301,-923.56,0.0002074
6395,0.18276,1.2727,0.1,0.00066624,6657.8,0.00063559,6649,-2.5535e-06,1854.3,-0.00037614,-952.69,0.00021427
6396,0.18276,1.4545,0.1,0.00068373,6832.6,0.00065224,6827.6,-1.8069e-06,1913.4,-0.0003862,-974.8,0.00021951
6397,0.18276,1.6364,0.1,0.0006974,6969.2,0.00066528,6967.3,-1.3321e-06,1958.6,-0.00039401,-991.81,0.00022356
6398,0.18276,1.8182,0.1,0.00070812,7076.3,0.00067553,7076.9,-1.0174e-06,1993.5,-0.0004001,-1005,0.00022671
6399,0.18276,2,0.1,0.00071649,7160,0.00068355,7162.5,-8.0328e-07,2020.6,-0.00040484,-1015.2,0.00022916
6400,0.18276,2.1818,0.1,0.00072296,7224.6,0.00068974,7228.7,-6.5554e-07,2041.3,-0.0004085,-1023,0.00023105
6401,0.18276,2.3636,0.1,0.00072783,7273.2,0.00069441,7278.5,-5.5385e-07,2056.8,-0.00041124,-1028.9,0.00023246
6402,0.18276,2.5455,0.1,0.00073131,7308,0.00069774,7314.1,-4.8587e-07,2067.9,-0.0004132,-1033.1,0.00023346
6403,0.18276,2.7273,0.1,0.00073355,7330.5,0.0006999,7337.1,-4.4407e-07,2075,-0.00041446,-1035.8,0.00023411
6404,0.18276,2.9091,0.1,0.00073465,7341.5,0.00070095,7348.4,-4.2415e-07,2078.5,-0.00041508,-1037.1,0.00023443
6405,0.18276,3.0909,0.1,0.00073465,7341.5,0.00070095,7348.4,-4.2415e-07,2078.5,-0.00041508,-1037.1,0.00023443
6406,0.18276,3.2727,0.1,0.00073355,7330.5,0.0006999,7337.1,-4.4407e-07,2075,-0.00041446,-1035.8,0.00023411
6407,0.18276,3.4545,0.1,0.00073131,7308,0.00069774,7314.1,-4.8587e-07,2067.9,-0.0004132,-1033.1,0.00023346
6408,0.18276,3.6364,0.1,0.00072783,7273.2,0.00069441,7278.5,-5.5385e-07,2056.8,-0.00041124,-1028.9,0.00023246
6409,0.18276,3.8182,0.1,0.00072296,7224.6,0.00068974,7228.7,-6.5554e-07,2041.3,-0.0004085,-1023,0.00023105
6410,0.18276,4,0.1,0.00071649,7160,0.00068355,7162.5,-8.0328e-07,2020.6,-0.00040484,-1015.2,0.00022916
6411,0.18276,4.1818,0.1,0.00070812,7076.3,0.00067553,7076.9,-1.0174e-06,1993.5,-0.0004001,-1005,0.00022671
6412,0.18276,4.3636,0.1,0.0006974,6969.2,0.00066528,6967.3,-1.3321e-06,1958.6,-0.00039401,-991.81,0.00022356
6413,0.18276,4.5455,0.1,0.00068373,6832.6,0.00065224,6827.6,-1.8069e-06,1913.4,-0.0003862,-974.8,0.00021951
6414,0.18276,4.7273,0.1,0.00066624,6657.8,0.00063559,6649,-2.5535e-06,1854.3,-0.00037614,-952.69,0.00021427
6415,0.18276,4.9091,0.1,0.00064368,6432.4,0.00061417,6418.6,-3.7893e-06,1775.5,-0.00036301,-923.56,0.0002074
6416,0.18276,5.0909,0.1,0.00061417,6137.4,0.00058632,6117.6,-6.0149e-06,1667,-0.00034552,-883.91,0.0001982
6417,0.18276,5.2727,0.1,0.00057502,5746.2,0.00054969,5717.8,-1.0359e-05,1509.8,-0.00032163,-829.03,0.00018546
6418,0.18276,5.4545,0.1,0.00052272,5223.6,0.00050183,5185.4,-2.056e-05,1260.4,-0.00028725,-743.47,0.00016693
6419,0.18276,5.6364,0.1,0.0004557,4553.8,0.00044203,4487.9,-4.5504e-05,824.72,-0.00023655,-610.75,0.00013768
6420,0.18276,5.8182,0.1,0.00040498,4047,0.00039873,3881.6,-0.00011759,2.0796,-0.0001597,-314.31,8.74e-05
6421,0.36552,0.18182,0.1,0.00050336,5030.1,0.00050295,5022.4,-0.00015458,81.99,-0.00017786,-92.969,0.00038599
6422,0.36552,0.36364,0.1,0.00047806,4777.3,0.00048952,5156.3,-0.00010843,663.5,-0.00017838,137.95,0.00052924
6423,0.36552,0.54545,0.1,0.00048384,4835.1,0.00049932,5454.2,-6.3746e-05,1223.5,-0.00020212,183.8,0.00062495
6424,0.36552,0.72727,0.1,0.00050317,5028.2,0.00051922,5783.8,-3.8079e-05,1596.4,-0.000223,206.99,0.00069072
6425,0.36552,0.90909,0.1,0.00052479,5244.3,0.00054076,6085.6,-2.3775e-05,1843.9,-0.00023965,221.94,0.00073773
6426,0.36552,1.0909,0.1,0.00054465,5442.7,0.00056052,6342.5,-1.5635e-05,2013.5,-0.00025268,232.43,0.00077245
6427,0.36552,1.2727,0.1,0.00056164,5612.5,0.0005775,6554.7,-1.0765e-05,2134.7,-0.00026292,240.1,0.00079875
6428,0.36552,1.4545,0.1,0.00057577,5753.7,0.00059167,6727.7,-7.7154e-06,2224.2,-0.00027101,245.88,0.00081901
6429,0.36552,1.6364,0.1,0.00058735,5869.4,0.00060331,6867.8,-5.7284e-06,2291.7,-0.00027743,250.31,0.00083478
6430,0.36552,1.8182,0.1,0.00059673,5963.2,0.00061277,6980.6,-4.3931e-06,2343.4,-0.00028251,253.74,0.00084712
6431,0.36552,2,0.1,0.00060425,6038.3,0.00062036,7070.3,-3.4759e-06,2383.1,-0.00028652,256.39,0.00085675
6432,0.36552,2.1818,0.1,0.00061015,6097.3,0.00062632,7140.6,-2.8394e-06,2413.3,-0.00028964,258.42,0.00086417
6433,0.36552,2.3636,0.1,0.00061466,6142.3,0.00063088,7194,-2.3997e-06,2435.8,-0.00029199,259.94,0.00086975
6434,0.36552,2.5455,0.1,0.00061791,6174.8,0.00063417,7232.5,-2.105e-06,2451.8,-0.00029368,261.02,0.00087374
6435,0.36552,2.7273,0.1,0.00062002,6195.9,0.0006363,7257.5,-1.9235e-06,2462.1,-0.00029478,261.71,0.00087631
6436,0.36552,2.9091,0.1,0.00062106,6206.3,0.00063735,7269.8,-1.837e-06,2467.1,-0.00029532,262.05,0.00087757
6437,0.36552,3.0909,0.1,0.00062106,6206.3,0.00063735,7269.8,-1.837e-06,2467.1,-0.00029532,262.05,0.00087757
6438,0.36552,3.2727,0.1,0.00062002,6195.9,0.0006363,7257.5,-1.9235e-06,2462.1,-0.00029478,261.71,0.00087631
6439,0.36552,3.4545,0.1,0.00061791,6174.8,0.00063417,7232.5,-2.105e-06,2451.8,-0.00029368,261.02,0.00087374
6440,0.36552,3.6364,0.1,0.00061466,6142.3,0.00063088,7194,-2.3997e-06,2435.8,-0.00029199,259.94,0.00086975
6441,0.36552,3.8182,0.1,0.00061015,6097.3,0.00062632,7140.6,-2.8394e-06,2413.3,-0.00028964,258.42,0.00086417
6442,0.36552,4,0.1,0.00060425,6038.3,0.00062036,7070.3,-3.4759e-06,2383.1,-0.00028652,256.39,0.00085675
6443,0.36552,4.1818,0.1,0.00059673,5963.2,0.00061277,6980.6,-4.3931e-06,2343.4,-0.00028251,253.74,0.00084712
6444,0.36552,4.3636,0.1,0.00058735,5869.4,0.00060331,6867.8,-5.7284e-06,2291.7,-0.00027743,250.31,0.00083478
6445,0.36552,4.5455,0.1,0.00057577,5753.7,0.00059167,6727.7,-7.7154e-06,2224.2,-0.00027101,245.88,0.00081901
6446,0.36552,4.7273,0.1,0.00056164,5612.5,0.0005775,6554.7,-1.0765e-05,2134.7,-0.00026292,240.1,0.00079875
6447,0.36552,4.9091,0.1,0.00054464,5442.7,0.00056052,6342.5,-1.5635e-05,2013.5,-0.00025268,232.43,0.00077245
6448,0.36552,5.0909,0.1,0.00052479,5244.3,0.00054076,6085.6,-2.3775e-05,1843.9,-0.00023965,221.94,0.00073773
6449,0.36552,5.2727,0.1,0.00050317,5028.2,0.00051922,5783.8,-3.8079e-05,1596.4,-0.000223,206.99,0.00069072
6450,0.36552,5.4545,0.1,0.00048384,4835.1,0.00049932,5454.2,-6.3746e-05,1223.5,-0.00020212,183.8,0.00062495
6451,0.36552,5.6364,0.1,0.00047806,4777.3,0.00048952,5156.3,-0.00010843,663.5,-0.00017838,137.95,0.00052924
6452,0.36552,5.8182,0.1,0.00050336,5030.1,0.00050295,5022.4,-0.00015458,81.99,-0.00017786,-92.969,0.00038599
6453,0.54828,0.18182,0.1,0.00055778,5574,0.00055594,5521.3,-0.00017878,0.83804,-0.00019284,-104.77,0.00097776
6454,0.54828,0.36364,0.1,0.00053492,5345.5,0.00053982,5518,-0.00013938,414.67,-0.00019997,-40.551,0.0012267
6455,0.54828,0.54545,0.1,0.00052882,5284.6,0.00053673,5632.8,-9.7824e-05,864.99,-0.00021951,-49.28,0.0014079
6456,0.54828,0.72727,0.1,0.00053344,5330.7,0.00054171,5801.1,-6.682e-05,1228.8,-0.00023755,-53.943,0.0015407
6457,0.54828,0.90909,0.1,0.00054413,5437.6,0.00055168,5989.1,-4.5798e-05,1499.9,-0.00025303,-57.19,0.0016397
6458,0.54828,1.0909,0.1,0.00055696,5565.8,0.00056361,6172.7,-3.2013e-05,1697.4,-0.00026585,-59.581,0.0017148
6459,0.54828,1.2727,0.1,0.0005697,5693,0.00057558,6339.6,-2.2965e-05,1842.3,-0.00027633,-61.36,0.0017728
6460,0.54828,1.4545,0.1,0.00058131,5809.1,0.00058663,6485.2,-1.693e-05,1950.2,-0.00028484,-62.713,0.001818
6461,0.54828,1.6364,0.1,0.00059145,5910.4,0.00059636,6608.9,-1.2825e-05,2031.7,-0.00029172,-63.755,0.0018536
6462,0.54828,1.8182,0.1,0.00060003,5996.2,0.00060465,6712,-9.9814e-06,2093.9,-0.00029726,-64.564,0.0018816
6463,0.54828,2,0.1,0.00060712,6067.1,0.00061154,6796.4,-7.986e-06,2141.5,-0.00030168,-65.19,0.0019036
6464,0.54828,2.1818,0.1,0.00061283,6124,0.0006171,6863.7,-6.5794e-06,2177.6,-0.00030514,-65.671,0.0019206
6465,0.54828,2.3636,0.1,0.00061725,6168.2,0.00062142,6915.6,-5.5968e-06,2204.4,-0.00030778,-66.03,0.0019334
6466,0.54828,2.5455,0.1,0.00062048,6200.5,0.00062459,6953.5,-4.9331e-06,2223.5,-0.00030968,-66.287,0.0019426
6467,0.54828,2.7273,0.1,0.00062259,6221.6,0.00062666,6978.1,-4.5224e-06,2235.7,-0.00031092,-66.452,0.0019485
6468,0.54828,2.9091,0.1,0.00062364,6232.1,0.00062769,6990.3,-4.3259e-06,2241.6,-0.00031152,-66.533,0.0019515
6469,0.54828,3.0909,0.1,0.00062364,6232.1,0.00062769,6990.3,-4.3259e-06,2241.6,-0.00031152,-66.533,0.0019515
6470,0.54828,3.2727,0.1,0.00062259,6221.6,0.00062666,6978.1,-4.5224e-06,2235.7,-0.00031092,-66.452,0.0019485
6471,0.54828,3.4545,0.1,0.00062048,6200.5,0.00062459,6953.5,-4.9331e-06,2223.5,-0.00030968,-66.287,0.0019426
6472,0.54828,3.6364,0.1,0.00061725,6168.2,0.00062142,6915.6,-5.5968e-06,2204.4,-0.00030778,-66.03,0.0019334
6473,0.54828,3.8182,0.1,0.00061283,6124,0.0006171,6863.7,-6.5794e-06,2177.6,-0.00030514,-65.671,0.0019206
6474,0.54828,4,0.1,0.00060712,6067.1,0.00061154,6796.4,-7.986e-06,2141.5,-0.00030168,-65.19,0.0019036
6475,0.54828,4.1818,0.1,0.00060003,5996.2,0.00060465,6712,-9.9814e-06,2093.9,-0.00029726,-64.564,0.0018816
6476,0.54828,4.3636,0.1,0.00059145,5910.4,0.00059636,6608.9,-1.2825e-05,2031.7,-0.00029172,-63.755,0.0018536
6477,0.54828,4.5455,0.1,0.00058131,5809.1,0.00058663,6485.2,-1.693e-05,1950.2,-0.00028484,-62.713,0.001818
6478,0.54828,4.7273,0.1,0.0005697,5693,0.00057558,6339.6,-2.2965e-05,1842.3,-0.00027633,-61.36,0.0017728
6479,0.54828,4.9091,0.1,0.00055696,5565.8,0.00056361,6172.7,-3.2013e-05,1697.4,-0.00026585,-59.581,0.0017148
6480,0.54828,5.0909,0.1,0.00054413,5437.6,0.00055168,5989.1,-4.5798e-05,1499.9,-0.00025303,-57.19,0.0016397
6481,0.54828,5.2727,0.1,0.00053344,5330.7,0.00054171,5801.1,-6.682e-05,1228.8,-0.00023755,-53.943,0.0015407
6482,0.54828,5.4545,0.1,0.00052882,5284.6,0.00053673,5632.8,-9.7824e-05,864.99,-0.00021951,-49.28,0.0014079
6483,0.54828,5.6364,0.1,0.00053492,5345.5,0.00053982,5518,-0.00013938,414.67,-0.00019997,-40.551,0.0012267
6484,0.54828,5.8182,0.1,0.00055778,5574,0.00055594,5521.3,-0.00017878,0.83804,-0.00019284,-104.77,0.00097776
6485,0.73103,0.18182,0.1,0.00058395,5835.5,0.00058297,5807.6,-0.00018753,18.417,-0.00019971,-73.111,0.0019053
6486,0.73103,0.36364,0.1,0.00056045,5600.7,0.00056558,5765.7,-0.00015664,339.31,-0.00020103,5.742,0.002259
6487,0.73103,0.54545,0.1,0.00054818,5478.1,0.00055709,5805.2,-0.00012091,710.99,-0.00021412,10.627,0.0025311
6488,0.73103,0.72727,0.1,0.00054364,5432.6,0.0005542,5886.4,-9.0466e-05,1042.6,-0.00022757,12.43,0.0027401
6489,0.73103,0.90909,0.1,0.00054519,5448.1,0.000556,5994.5,-6.6859e-05,1314.6,-0.00024,13.673,0.0029018
6490,0.73103,1.0909,0.1,0.00055056,5501.8,0.00056095,6114.6,-4.9513e-05,1527.8,-0.00025092,14.465,0.0030278
6491,0.73103,1.2727,0.1,0.00055777,5573.8,0.00056754,6234.8,-3.7077e-05,1691.9,-0.00026026,15.03,0.0031269
6492,0.73103,1.4545,0.1,0.00056547,5650.8,0.00057465,6347.5,-2.8219e-05,1817.8,-0.0002681,15.445,0.0032054
6493,0.73103,1.6364,0.1,0.00057289,5724.9,0.00058158,6448.8,-2.1893e-05,1914.5,-0.0002746,15.762,0.0032678
6494,0.73103,1.8182,0.1,0.0005796,5792,0.00058791,6536.8,-1.7351e-05,1989,-0.00027994,16.007,0.0033174
6495,0.73103,2,0.1,0.00058542,5850.1,0.00059344,6610.9,-1.4078e-05,2046.3,-0.00028426,16.196,0.0033565
6496,0.73103,2.1818,0.1,0.00059026,5898.5,0.00059807,6671.6,-1.1726e-05,2089.8,-0.00028769,16.341,0.003387
6497,0.73103,2.3636,0.1,0.0005941,5936.9,0.00060176,6719.2,-1.0059e-05,2122.3,-0.00029032,16.45,0.00341
6498,0.73103,2.5455,0.1,0.00059696,5965.5,0.00060451,6754.3,-8.9211e-06,2145.2,-0.00029224,16.527,0.0034266
6499,0.73103,2.7273,0.1,0.00059885,5984.4,0.00060634,6777.5,-8.2122e-06,2160,-0.00029348,16.577,0.0034373
6500,0.73103,2.9091,0.1,0.00059979,5993.8,0.00060725,6788.9,-7.8719e-06,2167.2,-0.00029409,16.602,0.0034426
6501,0.73103,3.0909,0.1,0.00059979,5993.8,0.00060725,6788.9,-7.8719e-06,2167.2,-0.00029409,16.602,0.0034426
6502,0.73103,3.2727,0.1,0.00059885,5984.4,0.00060634,6777.5,-8.2122e-06,2160,-0.00029348,16.577,0.0034373
6503,0.73103,3.4545,0.1,0.00059696,5965.5,0.00060451,6754.3,-8.9211e-06,2145.2,-0.00029224,16.527,0.0034266
6504,0.73103,3.6364,0.1,0.0005941,5936.9,0.00060176,6719.2,-1.0059e-05,2122.3,-0.00029032,16.45,0.00341
6505,0.73103,3.8182,0.1,0.00059026,5898.5,0.00059807,6671.6,-1.1726e-05,2089.8,-0.00028769,16.341,0.003387
6506,0.73103,4,0.1,0.00058542,5850.1,0.00059344,6610.9,-1.4078e-05,2046.3,-0.00028426,16.196,0.0033565
6507,0.73103,4.1818,0.1,0.0005796,5792,0.00058791,6536.8,-1.7351e-05,1989,-0.00027994,16.007,0.0033174
6508,0.73103,4.3636,0.1,0.00057289,5724.9,0.00058158,6448.8,-2.1893e-05,1914.5,-0.0002746,15.762,0.0032678
6509,0.73103,4.5455,0.1,0.00056547,5650.8,0.00057465,6347.5,-2.8219e-05,1817.8,-0.0002681,15.445,0.0032054
6510,0.73103,4.7273,0.1,0.00055777,5573.8,0.00056754,6234.8,-3.7077e-05,1691.9,-0.00026026,15.03,0.0031269
6511,0.73103,4.9091,0.1,0.00055056,5501.8,0.00056095,6114.6,-4.9513e-05,1527.8,-0.00025092,14.465,0.0030278
6512,0.73103,5.0909,0.1,0.00054519,5448.1,0.000556,5994.5,-6.6859e-05,1314.6,-0.00024,13.673,0.0029018
6513,0.73103,5.2727,0.1,0.00054364,5432.6,0.0005542,5886.4,-9.0466e-05,1042.6,-0.00022757,12.43,0.0027401
6514,0.73103,5.4545,0.1,0.00054818,5478.1,0.00055709,5805.2,-0.00012091,710.99,-0.00021412,10.627,0.0025311
6515,0.73103,5.6364,0.1,0.00056045,5600.7,0.00056558,5765.7,-0.00015664,339.31,-0.00020103,5.742,0.002259
6516,0.73103,5.8182,0.1,0.00058395,5835.5,0.00058297,5807.6,-0.00018753,18.417,-0.00019971,-73.111,0.0019053
6517,0.91379,0.18182,0.1,0.00059864,5982.2,0.00059793,5962.1,-0.00019368,14.235,-0.00020275,-53.882,0.003194
6518,0.91379,0.36364,0.1,0.00057753,5771.4,0.00058175,5906,-0.00016634,285.14,-0.00020494,-4.9369,0.0036471
6519,0.91379,0.54545,0.1,0.00056424,5638.5,0.00057187,5908.8,-0.00013576,591.94,-0.00021507,-3.9644,0.0040092
6520,0.91379,0.72727,0.1,0.00055602,5556.4,0.00056563,5941.9,-0.00010789,881.29,-0.00022572,-4.0289,0.0042974
6521,0.91379,0.90909,0.1,0.00055258,5522,0.00056293,5998.7,-8.4365e-05,1135.2,-0.00023598,-4.0292,0.0045268
6522,0.91379,1.0909,0.1,0.0005529,5525.2,0.00056321,6071.3,-6.5583e-05,1346.8,-0.00024537,-4.0929,0.00471
6523,0.91379,1.2727,0.1,0.00055571,5553.3,0.00056558,6151.5,-5.1104e-05,1517.9,-0.00025368,-4.1555,0.0048568
6524,0.91379,1.4545,0.1,0.0005599,5595.1,0.0005692,6232.6,-4.0156e-05,1654.1,-0.00026086,-4.2148,0.0049747
6525,0.91379,1.6364,0.1,0.00056462,5642.3,0.00057338,6309.7,-3.1956e-05,1761.5,-0.00026696,-4.264,0.0050695
6526,0.91379,1.8182,0.1,0.00056933,5689.3,0.00057761,6379.8,-2.5845e-05,1845.6,-0.00027206,-4.3033,0.0051454
6527,0.91379,2,0.1,0.00057368,5732.8,0.00058157,6441,-2.1314e-05,1911.1,-0.00027624,-4.3337,0.0052058
6528,0.91379,2.1818,0.1,0.00057746,5770.6,0.00058506,6492.3,-1.7984e-05,1961.3,-0.0002796,-4.3567,0.0052531
6529,0.91379,2.3636,0.1,0.00058057,5801.7,0.00058793,6533.4,-1.5585e-05,1998.8,-0.0002822,-4.3737,0.005289
6530,0.91379,2.5455,0.1,0.00058293,5825.2,0.00059013,6564.2,-1.3929e-05,2025.6,-0.0002841,-4.3855,0.0053149
6531,0.91379,2.7273,0.1,0.00058451,5841.1,0.00059161,6584.7,-1.2888e-05,2042.7,-0.00028534,-4.3931,0.0053317
6532,0.91379,2.9091,0.1,0.00058531,5849,0.00059236,6594.9,-1.2386e-05,2051.1,-0.00028596,-4.3967,0.0053399
6533,0.91379,3.0909,0.1,0.00058531,5849,0.00059236,6594.9,-1.2386e-05,2051.1,-0.00028596,-4.3967,0.0053399
6534,0.91379,3.2727,0.1,0.00058451,5841.1,0.00059161,6584.7,-1.2888e-05,2042.7,-0.00028534,-4.3931,0.0053317
6535,0.91379,3.4545,0.1,0.00058293,5825.2,0.00059013,6564.2,-1.3929e-05,2025.6,-0.0002841,-4.3855,0.0053149
6536,0.91379,3.6364,0.1,0.00058057,5801.7,0.00058793,6533.4,-1.5585e-05,1998.8,-0.0002822,-4.3737,0.005289
6537,0.91379,3.8182,0.1,0.00057746,5770.6,0.00058506,6492.3,-1.7984e-05,1961.3,-0.0002796,-4.3567,0.0052531
6538,0.91379,4,0.1,0.00057368,5732.8,0.00058157,6441,-2.1314e-05,1911.1,-0.00027624,-4.3337,0.0052058
6539,0.91379,4.1818,0.1,0.00056933,5689.3,0.00057761,6379.8,-2.5845e-05,1845.6,-0.00027206,-4.3033,0.0051454
6540,0.91379,4.3636,0.1,0.00056462,5642.3,0.00057338,6309.7,-3.1956e-05,1761.5,-0.00026696,-4.264,0.0050695
6541,0.91379,4.5455,0.1,0.0005599,5595.1,0.0005692,6232.6,-4.0156e-05,1654.1,-0.00026086,-4.2148,0.0049747
6542,0.91379,4.7273,0.1,0.00055571,5553.3,0.00056558,6151.5,-5.1104e-05,1517.9,-0.00025368,-4.1555,0.0048568
6543,0.91379,4.9091,0.1,0.0005529,5525.2,0.00056321,6071.3,-6.5583e-05,1346.8,-0.00024537,-4.0929,0.00471
6544,0.91379,5.0909,0.1,0.00055258,5522,0.00056293,5998.7,-8.4365e-05,1135.2,-0.00023598,-4.0292,0.0045268
6545,0.91379,5.2727,0.1,0.00055602,5556.4,0.00056563,5941.9,-0.00010789,881.29,-0.00022572,-4.0289,0.0042974
6546,0.91379,5.4545,0.1,0.00056424,5638.5,0.00057187,5908.8,-0.00013576,591.94,-0.00021507,-3.9644,0.0040092
6547,0.91379,5.6364,0.1,0.00057753,5771.4,0.00058175,5906,-0.00016634,285.14,-0.00020494,-4.9369,0.0036471
6548,0.91379,5.8182,0.1,0.00059864,5982.2,0.00059793,5962.1,-0.00019368,14.235,-0.00020275,-53.882,0.003194
6549,1.0966,0.18182,0.1,0.00060568,6052.6,0.00060534,6043,-0.00019663,17.291,-0.00020375,-36.154,0.0048587
6550,1.0966,0.36364,0.1,0.00058654,5861.4,0.00059043,5983.8,-0.00017203,254.94,-0.00020619,-1.7007,0.0054046
6551,1.0966,0.54545,0.1,0.00057324,5728.4,0.00058026,5968.7,-0.00014554,515.27,-0.00021412,-0.039367,0.005853
6552,1.0966,0.72727,0.1,0.00056343,5630.5,0.00057256,5975.1,-0.00012051,767.64,-0.00022263,0.29977,0.0062193
6553,1.0966,0.90909,0.1,0.00055719,5568,0.00056743,6000.2,-9.8224e-05,998.68,-0.00023106,0.56733,0.0065179
6554,1.0966,1.0909,0.1,0.00055416,5537.8,0.00056475,6039.9,-7.9372e-05,1200.2,-0.00023902,0.70227,0.0067611
6555,1.0966,1.2727,0.1,0.00055364,5532.6,0.0005641,6089.5,-6.4003e-05,1370.2,-0.00024626,0.78689,0.0069592
6556,1.0966,1.4545,0.1,0.00055485,5544.7,0.00056492,6143.9,-5.1786e-05,1510.3,-0.00025268,0.83748,0.0071206
6557,1.0966,1.6364,0.1,0.00055708,5567,0.00056667,6199,-4.224e-05,1623.8,-0.00025824,0.87069,0.0072517
6558,1.0966,1.8182,0.1,0.0005598,5594.1,0.00056892,6251.4,-3.4872e-05,1714.8,-0.00026298,0.8937,0.0073577
6559,1.0966,2,0.1,0.0005626,5622.1,0.0005713,6299,-2.9252e-05,1786.6,-0.00026692,0.9106,0.0074426
6560,1.0966,2.1818,0.1,0.00056521,5648.2,0.00057357,6340,-2.5029e-05,1842.4,-0.00027011,0.92335,0.0075094
6561,1.0966,2.3636,0.1,0.00056745,5670.6,0.00057554,6373.6,-2.1935e-05,1884.4,-0.00027261,0.93295,0.0075604
6562,1.0966,2.5455,0.1,0.00056922,5688.2,0.00057711,6399.2,-1.977e-05,1914.5,-0.00027445,0.93988,0.0075972
6563,1.0966,2.7273,0.1,0.00057042,5700.3,0.00057819,6416.4,-1.8398e-05,1933.9,-0.00027565,0.94441,0.0076211
6564,1.0966,2.9091,0.1,0.00057104,5706.4,0.00057874,6425,-1.7733e-05,1943.4,-0.00027625,0.94664,0.0076329
6565,1.0966,3.0909,0.1,0.00057104,5706.4,0.00057874,6425,-1.7733e-05,1943.4,-0.00027625,0.94664,0.0076329
6566,1.0966,3.2727,0.1,0.00057042,5700.3,0.00057819,6416.4,-1.8398e-05,1933.9,-0.00027565,0.94441,0.0076211
6567,1.0966,3.4545,0.1,0.00056922,5688.2,0.00057711,6399.2,-1.977e-05,1914.5,-0.00027445,0.93988,0.0075972
6568,1.0966,3.6364,0.1,0.00056745,5670.6,0.00057554,6373.6,-2.1935e-05,1884.4,-0.00027261,0.93295,0.0075604
6569,1.0966,3.8182,0.1,0.00056521,5648.2,0.00057357,6340,-2.5029e-05,1842.4,-0.00027011,0.92335,0.0075094
6570,1.0966,4,0.1,0.0005626,5622.1,0.0005713,6299,-2.9252e-05,1786.6,-0.00026692,0.9106,0.0074426
6571,1.0966,4.1818,0.1,0.0005598,5594.1,0.00056892,6251.4,-3.4872e-05,1714.8,-0.00026298,0.8937,0.0073577
6572,1.0966,4.3636,0.1,0.00055708,5567,0.00056667,6199,-4.224e-05,1623.8,-0.00025824,0.87069,0.0072517
6573,1.0966,4.5455,0.1,0.00055485,5544.7,0.00056492,6143.9,-5.1786e-05,1510.3,-0.00025268,0.83748,0.0071206
6574,1.0966,4.7273,0.1,0.00055364,5532.6,0.0005641,6089.5,-6.4003e-05,1370.2,-0.00024626,0.78689,0.0069592
6575,1.0966,4.9091,0.1,0.00055416,5537.8,0.00056475,6039.9,-7.9372e-05,1200.2,-0.00023902,0.70227,0.0067611
6576,1.0966,5.0909,0.1,0.00055719,5568,0.00056743,6000.2,-9.8224e-05,998.68,-0.00023106,0.56733,0.0065179
6577,1.0966,5.2727,0.1,0.00056343,5630.5,0.00057256,5975.1,-0.00012051,767.64,-0.00022263,0.29977,0.0062193
6578,1.0966,5.4545,0.1,0.00057324,5728.4,0.00058026,5968.7,-0.00014554,515.27,-0.00021412,-0.039368,0.005853
6579,1.0966,5.6364,0.1,0.00058654,5861.4,0.00059043,5983.8,-0.00017203,254.94,-0.00020619,-1.7007,0.0054046
6580,1.0966,5.8182,0.1,0.00060568,6052.6,0.00060534,6043,-0.00019663,17.291,-0.00020375,-36.154,0.0048587
6581,1.2793,0.18182,0.1,0.0006082,6077.8,0.00060813,6075.9,-0.00019782,20.345,-0.0002037,-23.778,0.0069087
6582,1.2793,0.36364,0.1,0.00059096,5905.5,0.00059454,6017.7,-0.00017529,233.41,-0.00020664,-2.0923,0.0075405
6583,1.2793,0.54545,0.1,0.00057822,5778.2,0.00058463,5993.2,-0.00015202,458.3,-0.00021313,-0.86511,0.0080701
6584,1.2793,0.72727,0.1,0.00056795,5675.6,0.00057643,5984.3,-0.0001296,679.51,-0.00022013,-0.68946,0.0085115
6585,1.2793,0.90909,0.1,0.00056031,5599.2,0.00057009,5989.7,-0.00010896,887.57,-0.00022716,-0.5222,0.0088782
6586,1.2793,1.0909,0.1,0.00055526,5548.7,0.00056566,6007.3,-9.0782e-05,1075.1,-0.00023392,-0.44765,0.0091818
6587,1.2793,1.2727,0.1,0.00055245,5520.7,0.00056298,6034.5,-7.5328e-05,1238.5,-0.00024021,-0.40391,0.0094328
6588,1.2793,1.4545,0.1,0.0005514,5510.2,0.00056174,6067.9,-6.2545e-05,1377.3,-0.0002459,-0.38362,0.0096398
6589,1.2793,1.6364,0.1,0.00055158,5512,0.00056157,6104.3,-5.219e-05,1492.8,-0.00025092,-0.37455,0.0098097
6590,1.2793,1.8182,0.1,0.00055253,5521.5,0.00056212,6141,-4.3947e-05,1587.3,-0.00025525,-0.37135,0.0099482
6591,1.2793,2,0.1,0.00055389,5535.1,0.00056309,6175.7,-3.7492e-05,1663.2,-0.0002589,-0.37069,0.01006
6592,1.2793,2.1818,0.1,0.00055536,5549.8,0.00056421,6206.6,-3.2538e-05,1722.9,-0.00026189,-0.37099,0.010148
6593,1.2793,2.3636,0.1,0.00055674,5563.5,0.0005653,6232.5,-2.8847e-05,1768.3,-0.00026425,-0.3715,0.010216
6594,1.2793,2.5455,0.1,0.00055788,5575,0.00056622,6252.6,-2.6232e-05,1801.1,-0.00026599,-0.37196,0.010265
6595,1.2793,2.7273,0.1,0.00055869,5583,0.00056689,6266.2,-2.4561e-05,1822.3,-0.00026714,-0.37226,0.010297
6596,1.2793,2.9091,0.1,0.00055911,5587.2,0.00056724,6273.1,-2.3746e-05,1832.7,-0.00026771,-0.37241,0.010313
6597,1.2793,3.0909,0.1,0.00055911,5587.2,0.00056724,6273.1,-2.3746e-05,1832.7,-0.00026771,-0.37241,0.010313
6598,1.2793,3.2727,0.1,0.00055869,5583,0.00056689,6266.2,-2.4561e-05,1822.3,-0.00026714,-0.37226,0.010297
6599,1.2793,3.4545,0.1,0.00055788,5575,0.00056622,6252.6,-2.6232e-05,1801.1,-0.00026599,-0.37196,0.010265
6600,1.2793,3.6364,0.1,0.00055674,5563.5,0.0005653,6232.5,-2.8847e-05,1768.3,-0.00026425,-0.3715,0.010216
6601,1.2793,3.8182,0.1,0.00055536,5549.8,0.00056421,6206.6,-3.2538e-05,1722.9,-0.00026189,-0.37098,0.010148
6602,1.2793,4,0.1,0.00055389,5535.1,0.00056309,6175.7,-3.7492e-05,1663.2,-0.0002589,-0.37069,0.01006
6603,1.2793,4.1818,0.1,0.00055253,5521.5,0.00056212,6141,-4.3947e-05,1587.3,-0.00025525,-0.37135,0.0099482
6604,1.2793,4.3636,0.1,0.00055158,5512,0.00056157,6104.3,-5.219e-05,1492.8,-0.00025092,-0.37455,0.0098097
6605,1.2793,4.5455,0.1,0.0005514,5510.2,0.00056174,6067.9,-6.2545e-05,1377.3,-0.0002459,-0.38362,0.0096398
6606,1.2793,4.7273,0.1,0.00055245,5520.7,0.00056298,6034.5,-7.5328e-05,1238.5,-0.00024021,-0.40391,0.0094328
6607,1.2793,4.9091,0.1,0.00055526,5548.7,0.00056566,6007.3,-9.0782e-05,1075.1,-0.00023392,-0.44765,0.0091818
6608,1.2793,5.0909,0.1,0.00056031,5599.2,0.00057009,5989.7,-0.00010896,887.57,-0.00022716,-0.5222,0.0088782
6609,1.2793,5.2727,0.1,0.00056795,5675.6,0.00057643,5984.3,-0.0001296,679.51,-0.00022013,-0.68946,0.0085115
6610,1.2793,5.4545,0.1,0.00057822,5778.2,0.00058463,5993.2,-0.00015202,458.3,-0.00021313,-0.86511,0.0080701
6611,1.2793,5.6364,0.1,0.00059096,5905.5,0.00059454,6017.7,-0.00017529,233.41,-0.00020664,-2.0923,0.0075405
6612,1.2793,5.8182,0.1,0.0006082,6077.8,0.00060813,6075.9,-0.00019782,20.345,-0.0002037,-23.778,0.0069087
6613,1.4621,0.18182,0.1,0.00060768,6072.7,0.00060784,6077.4,-0.00019768,25.028,-0.00020305,-15.316,0.0093491
6614,1.4621,0.36364,0.1,0.0005921,5916.9,0.00059546,6021.8,-0.00017702,217.66,-0.00020621,-1.6608,0.01006
6615,1.4621,0.54545,0.1,0.00058006,5796.6,0.00058599,5992.7,-0.00015634,415.04,-0.00021165,-0.53825,0.010665
6616,1.4621,0.72727,0.1,0.00056984,5694.4,0.00057775,5974.9,-0.00013619,610.6,-0.00021751,-0.36629,0.011178
6617,1.4621,0.90909,0.1,0.00056157,5611.9,0.00057087,5967.9,-0.00011725,797.66,-0.00022344,-0.20023,0.01161
6618,1.4621,1.0909,0.1,0.00055536,5549.8,0.00056546,5970.8,-0.00010009,970.12,-0.00022922,-0.11819,0.011973
6619,1.4621,1.2727,0.1,0.00055105,5506.7,0.00056149,5982,-8.5043e-05,1124.2,-0.00023467,-0.065492,0.012277
6620,1.4621,1.4545,0.1,0.00054837,5479.9,0.00055882,5999.6,-7.2203e-05,1258.3,-0.00023968,-0.036674,0.01253
6621,1.4621,1.6364,0.1,0.00054695,5465.8,0.00055721,6021.2,-6.1493e-05,1372.5,-0.00024416,-0.020977,0.01274
6622,1.4621,1.8182,0.1,0.00054646,5460.8,0.00055641,6044.6,-5.2738e-05,1467.7,-0.00024808,-0.013159,0.012912
6623,1.4621,2,0.1,0.00054656,5461.8,0.00055618,6068,-4.5724e-05,1545.5,-0.00025142,-0.0095465,0.013052
6624,1.4621,2.1818,0.1,0.00054699,5466.1,0.0005563,6089.6,-4.0235e-05,1607.5,-0.00025418,-0.0080992,0.013163
6625,1.4621,2.3636,0.1,0.00054756,5471.8,0.00055659,6108.3,-3.6081e-05,1655.2,-0.00025637,-0.0076613,0.013249
6626,1.4621,2.5455,0.1,0.00054811,5477.3,0.00055693,6123.1,-3.3104e-05,1689.8,-0.000258,-0.0076344,0.013311
6627,1.4621,2.7273,0.1,0.00054853,5481.5,0.0005572,6133.2,-3.1185e-05,1712.3,-0.00025908,-0.0077217,0.013351
6628,1.4621,2.9091,0.1,0.00054875,5483.7,0.00055735,6138.4,-3.0245e-05,1723.4,-0.00025962,-0.0077903,0.013372
6629,1.4621,3.0909,0.1,0.00054875,5483.7,0.00055735,6138.4,-3.0245e-05,1723.4,-0.00025962,-0.0077902,0.013372
6630,1.4621,3.2727,0.1,0.00054853,5481.5,0.0005572,6133.2,-3.1185e-05,1712.3,-0.00025908,-0.0077217,0.013351
6631,1.4621,3.4545,0.1,0.00054811,5477.3,0.00055693,6123.1,-3.3104e-05,1689.8,-0.000258,-0.0076344,0.013311
6632,1.4621,3.6364,0.1,0.00054756,5471.8,0.00055659,6108.3,-3.6081e-05,1655.2,-0.00025637,-0.0076613,0.013249
6633,1.4621,3.8182,0.1,0.00054699,5466.1,0.0005563,6089.6,-4.0235e-05,1607.5,-0.00025418,-0.008099,0.013163
6634,1.4621,4,0.1,0.00054656,5461.8,0.00055618,6068,-4.5724e-05,1545.5,-0.00025142,-0.0095464,0.013052
6635,1.4621,4.1818,0.1,0.00054646,5460.8,0.00055641,6044.6,-5.2738e-05,1467.7,-0.00024808,-0.013158,0.012912
6636,1.4621,4.3636,0.1,0.00054695,5465.8,0.00055721,6021.2,-6.1493e-05,1372.5,-0.00024416,-0.020977,0.01274
6637,1.4621,4.5455,0.1,0.00054837,5479.9,0.00055882,5999.6,-7.2203e-05,1258.3,-0.00023968,-0.036674,0.01253
6638,1.4621,4.7273,0.1,0.00055105,5506.7,0.00056149,5982,-8.5043e-05,1124.2,-0.00023467,-0.065492,0.012277
6639,1.4621,4.9091,0.1,0.00055536,5549.8,0.00056546,5970.8,-0.00010009,970.12,-0.00022922,-0.11819,0.011973
6640,1.4621,5.0909,0.1,0.00056157,5611.9,0.00057087,5967.9,-0.00011725,797.66,-0.00022344,-0.20023,0.01161
6641,1.4621,5.2727,0.1,0.00056984,5694.4,0.00057775,5974.9,-0.00013619,610.6,-0.00021751,-0.36629,0.011178
6642,1.4621,5.4545,0.1,0.00058006,5796.6,0.00058599,5992.7,-0.00015634,415.04,-0.00021165,-0.53825,0.010665
6643,1.4621,5.6364,0.1,0.0005921,5916.9,0.00059546,6021.8,-0.00017702,217.66,-0.00020621,-1.6608,0.01006
6644,1.4621,5.8182,0.1,0.00060768,6072.7,0.00060784,6077.4,-0.00019768,25.028,-0.00020305,-15.316,0.0093491
6645,1.6448,0.18182,0.1,0.00060515,6047.3,0.00060548,6057.3,-0.00019666,30.342,-0.00020204,-10.113,0.012182
6646,1.6448,0.36364,0.1,0.00059101,5906,0.0005942,6005,-0.00017774,204.98,-0.00020522,-1.4958,0.012965
6647,1.6448,0.54545,0.1,0.00057973,5793.3,0.00058525,5973.7,-0.0001592,380.29,-0.00020988,-0.52604,0.013641
6648,1.6448,0.72727,0.1,0.0005698,5694.1,0.0005772,5950.8,-0.00014101,554.55,-0.00021487,-0.38998,0.01422
6649,1.6448,0.90909,0.1,0.00056137,5609.8,0.00057015,5936.1,-0.00012367,723.01,-0.00021993,-0.24748,0.014714
6650,1.6448,1.0909,0.1,0.00055455,5541.6,0.00056425,5929.2,-0.00010765,880.79,-0.0002249,-0.17547,0.015134
6651,1.6448,1.2727,0.1,0.00054931,5489.3,0.00055951,5929.3,-9.3286e-05,1024.4,-0.00022964,-0.12688,0.01549
6652,1.6448,1.4545,0.1,0.00054551,5451.4,0.00055589,5935.2,-8.073e-05,1151.8,-0.00023404,-0.098989,0.015789
6653,1.6448,1.6364,0.1,0.00054292,5425.5,0.00055326,5945.3,-7.0007e-05,1262.3,-0.00023803,-0.083184,0.016038
6654,1.6448,1.8182,0.1,0.00054129,5409.2,0.00055145,5958.1,-6.1048e-05,1356.1,-0.00024154,-0.075173,0.016245
6655,1.6448,2,0.1,0.00054036,5399.9,0.00055027,5972.1,-5.3727e-05,1433.9,-0.00024457,-0.071633,0.016414
6656,1.6448,2.1818,0.1,0.00053992,5395.5,0.00054957,5985.7,-4.7902e-05,1496.6,-0.00024709,-0.070531,0.016548
6657,1.6448,2.3636,0.1,0.00053978,5394,0.00054919,5998,-4.3431e-05,1545.3,-0.00024911,-0.070592,0.016653
6658,1.6448,2.5455,0.1,0.00053979,5394.2,0.000549,6008,-4.0192e-05,1581,-0.00025061,-0.071076,0.016729
6659,1.6448,2.7273,0.1,0.00053985,5394.8,0.00054893,6014.9,-3.8088e-05,1604.3,-0.00025162,-0.071571,0.016778
6660,1.6448,2.9091,0.1,0.0005399,5395.3,0.00054891,6018.5,-3.7053e-05,1615.8,-0.00025212,-0.071862,0.016803
6661,1.6448,3.0909,0.1,0.0005399,5395.3,0.00054891,6018.5,-3.7053e-05,1615.8,-0.00025212,-0.071862,0.016803
6662,1.6448,3.2727,0.1,0.00053985,5394.8,0.00054893,6014.9,-3.8088e-05,1604.3,-0.00025162,-0.071571,0.016778
6663,1.6448,3.4545,0.1,0.00053979,5394.2,0.000549,6008,-4.0192e-05,1581,-0.00025061,-0.071076,0.016729
6664,1.6448,3.6364,0.1,0.00053978,5394,0.00054919,5998,-4.3431e-05,1545.3,-0.00024911,-0.070592,0.016653
6665,1.6448,3.8182,0.1,0.00053992,5395.5,0.00054957,5985.7,-4.7902e-05,1496.6,-0.00024709,-0.070531,0.016548
6666,1.6448,4,0.1,0.00054036,5399.9,0.00055027,5972.1,-5.3727e-05,1433.9,-0.00024457,-0.071633,0.016414
6667,1.6448,4.1818,0.1,0.00054129,5409.2,0.00055145,5958.1,-6.1048e-05,1356.1,-0.00024154,-0.075172,0.016245
6668,1.6448,4.3636,0.1,0.00054292,5425.5,0.00055326,5945.3,-7.0007e-05,1262.3,-0.00023803,-0.083183,0.016038
6669,1.6448,4.5455,0.1,0.00054551,5451.4,0.00055589,5935.2,-8.073e-05,1151.8,-0.00023404,-0.098989,0.015789
6670,1.6448,4.7273,0.1,0.00054931,5489.3,0.00055951,5929.3,-9.3286e-05,1024.4,-0.00022964,-0.12688,0.01549
6671,1.6448,4.9091,0.1,0.00055455,5541.6,0.00056425,5929.2,-0.00010765,880.79,-0.0002249,-0.17547,0.015134
6672,1.6448,5.0909,0.1,0.00056137,5609.8,0.00057015,5936.1,-0.00012367,723.01,-0.00021993,-0.24748,0.014714
6673,1.6448,5.2727,0.1,0.0005698,5694.1,0.0005772,5950.8,-0.00014101,554.55,-0.00021487,-0.38998,0.01422
6674,1.6448,5.4545,0.1,0.00057973,5793.3,0.00058525,5973.7,-0.0001592,380.29,-0.00020988,-0.52604,0.013641
6675,1.6448,5.6364,0.1,0.00059101,5906,0.0005942,6005,-0.00017774,204.98,-0.00020522,-1.4958,0.012965
6676,1.6448,5.8182,0.1,0.00060514,6047.3,0.00060548,6057.3,-0.00019666,30.342,-0.00020204,-10.113,0.012182
6677,1.8276,0.18182,0.1,0.00060121,6007.9,0.00060169,6022.2,-0.00019508,35.593,-0.00020074,-6.9426,0.015409
6678,1.8276,0.36364,0.1,0.00058835,5879.4,0.00059139,5973.4,-0.00017778,194.2,-0.0002038,-1.3093,0.016258
6679,1.8276,0.54545,0.1,0.0005778,5774,0.00058297,5941.4,-0.00016103,351.36,-0.00020785,-0.45064,0.016998
6680,1.8276,0.72727,0.1,0.0005683,5679.1,0.00057522,5915.7,-0.00014453,507.73,-0.00021215,-0.33519,0.017639
6681,1.8276,0.90909,0.1,0.00055995,5595.6,0.00056824,5896.2,-0.00012867,659.89,-0.00021652,-0.20773,0.018192
6682,1.8276,1.0909,0.1,0.00055288,5525,0.00056214,5882.8,-0.00011381,803.96,-0.00022083,-0.14148,0.018666
6683,1.8276,1.2727,0.1,0.00054712,5467.4,0.00055699,5875.2,-0.00010026,936.89,-0.00022496,-0.094639,0.019071
6684,1.8276,1.4545,0.1,0.0005426,5422.2,0.00055279,5872.7,-8.8197e-05,1056.6,-0.00022883,-0.065946,0.019414
6685,1.8276,1.6364,0.1,0.00053919,5388.2,0.00054947,5874.3,-7.7703e-05,1162,-0.00023236,-0.048408,0.019703
6686,1.8276,1.8182,0.1,0.00053671,5363.4,0.00054693,5878.9,-6.8776e-05,1252.7,-0.00023551,-0.038555,0.019944
6687,1.8276,2,0.1,0.00053498,5346.2,0.00054505,5885.2,-6.1362e-05,1328.9,-0.00023824,-0.033479,0.020141
6688,1.8276,2.1818,0.1,0.00053383,5334.6,0.00054371,5892.3,-5.5378e-05,1391.1,-0.00024052,-0.031259,0.0203
6689,1.8276,2.3636,0.1,0.0005331,5327.3,0.00054278,5899.2,-5.0729e-05,1439.8,-0.00024236,-0.030589,0.020423
6690,1.8276,2.5455,0.1,0.00053266,5322.9,0.00054218,5905,-4.7329e-05,1475.7,-0.00024374,-0.030639,0.020513
6691,1.8276,2.7273,0.1,0.00053242,5320.5,0.00054182,5909.3,-4.5106e-05,1499.3,-0.00024465,-0.030904,0.020572
6692,1.8276,2.9091,0.1,0.00053231,5319.4,0.00054166,5911.5,-4.4007e-05,1511,-0.00024511,-0.031098,0.020601
6693,1.8276,3.0909,0.1,0.00053231,5319.4,0.00054166,5911.5,-4.4007e-05,1511,-0.00024511,-0.031098,0.020601
6694,1.8276,3.2727,0.1,0.00053242,5320.5,0.00054182,5909.3,-4.5106e-05,1499.3,-0.00024465,-0.030904,0.020572
6695,1.8276,3.4545,0.1,0.00053266,5322.9,0.00054218,5905,-4.7329e-05,1475.7,-0.00024374,-0.030639,0.020513
6696,1.8276,3.6364,0.1,0.0005331,5327.3,0.00054278,5899.2,-5.0729e-05,1439.8,-0.00024236,-0.030589,0.020423
6697,1.8276,3.8182,0.1,0.00053383,5334.6,0.00054371,5892.3,-5.5378e-05,1391.1,-0.00024052,-0.031259,0.0203
6698,1.8276,4,0.1,0.00053498,5346.2,0.00054505,5885.2,-6.1362e-05,1328.9,-0.00023824,-0.033479,0.020141
6699,1.8276,4.1818,0.1,0.00053671,5363.4,0.00054693,5878.9,-6.8776e-05,1252.7,-0.00023551,-0.038555,0.019944
6700,1.8276,4.3636,0.1,0.00053919,5388.2,0.00054947,5874.3,-7.7703e-05,1162,-0.00023236,-0.048408,0.019703
6701,1.8276,4.5455,0.1,0.0005426,5422.2,0.00055279,5872.7,-8.8197e-05,1056.6,-0.00022883,-0.065946,0.019414
6702,1.8276,4.7273,0.1,0.00054712,5467.4,0.00055699,5875.2,-0.00010026,936.89,-0.00022496,-0.094638,0.019071
6703,1.8276,4.9091,0.1,0.00055288,5525,0.00056214,5882.8,-0.00011381,803.96,-0.00022083,-0.14148,0.018666
6704,1.8276,5.0909,0.1,0.00055995,5595.6,0.00056824,5896.2,-0.00012867,659.89,-0.00021652,-0.20773,0.018192
6705,1.8276,5.2727,0.1,0.0005683,5679.1,0.00057522,5915.7,-0.00014453,507.73,-0.00021215,-0.33519,0.017639
6706,1.8276,5.4545,0.1,0.0005778,5774,0.00058297,5941.4,-0.00016103,351.36,-0.00020785,-0.45064,0.016998
6707,1.8276,5.6364,0.1,0.00058835,5879.4,0.00059139,5973.4,-0.00017778,194.2,-0.0002038,-1.3093,0.016258
6708,1.8276,5.8182,0.1,0.00060121,6007.9,0.00060169,6022.2,-0.00019508,35.593,-0.00020074,-6.9426,0.015409
6709,2.0103,0.18182,0.1,0.00059631,5959,0.0005969,5976.5,-0.00019317,40.214,-0.00019919,-4.9779,0.019029
6710,2.0103,0.36364,0.1,0.00058458,5841.7,0.00058748,5931.2,-0.00017736,184.55,-0.00020208,-1.1636,0.019938
6711,2.0103,0.54545,0.1,0.00057473,5743.4,0.00057958,5899.4,-0.00016214,326.43,-0.00020563,-0.40295,0.020737
6712,2.0103,0.72727,0.1,0.00056571,5653.2,0.0005722,5872.3,-0.00014712,467.58,-0.00020939,-0.30648,0.021436
6713,2.0103,0.90909,0.1,0.00055759,5572.1,0.00056541,5849.9,-0.00013259,605.46,-0.00021319,-0.19357,0.022043
6714,2.0103,1.0909,0.1,0.0005505,5501.2,0.00055931,5832.4,-0.00011885,736.98,-0.00021695,-0.13397,0.022568
6715,2.0103,1.2727,0.1,0.00054449,5441.1,0.00055399,5819.7,-0.00010617,859.54,-0.00022057,-0.090203,0.02302
6716,2.0103,1.4545,0.1,0.00053954,5391.7,0.00054946,5811.2,-9.4716e-05,971.18,-0.00022398,-0.062032,0.023406
6717,2.0103,1.6364,0.1,0.00053559,5352.2,0.0005457,5806.6,-8.4609e-05,1070.6,-0.00022711,-0.043742,0.023732
6718,2.0103,1.8182,0.1,0.00053252,5321.5,0.00054268,5804.9,-7.5889e-05,1157.2,-0.00022991,-0.032621,0.024006
6719,2.0103,2,0.1,0.0005302,5298.4,0.0005403,5805.4,-6.8549e-05,1230.8,-0.00023236,-0.026239,0.024232
6720,2.0103,2.1818,0.1,0.00052851,5281.4,0.00053849,5807.3,-6.2553e-05,1291.3,-0.00023442,-0.022901,0.024413
6721,2.0103,2.3636,0.1,0.00052731,5269.4,0.00053716,5809.8,-5.7848e-05,1339.1,-0.00023608,-0.021379,0.024555
6722,2.0103,2.5455,0.1,0.0005265,5261.4,0.00053623,5812.2,-5.4378e-05,1374.6,-0.00023733,-0.02084,0.024659
6723,2.0103,2.7273,0.1,0.00052601,5256.5,0.00053565,5814.1,-5.2095e-05,1398.1,-0.00023817,-0.020741,0.024727
6724,2.0103,2.9091,0.1,0.00052578,5254.1,0.00053537,5815.2,-5.0963e-05,1409.7,-0.00023859,-0.020766,0.024761
6725,2.0103,3.0909,0.1,0.00052578,5254.1,0.00053537,5815.2,-5.0963e-05,1409.7,-0.00023859,-0.020766,0.024761
6726,2.0103,3.2727,0.1,0.00052601,5256.5,0.00053565,5814.1,-5.2095e-05,1398.1,-0.00023817,-0.020741,0.024727
6727,2.0103,3.4545,0.1,0.0005265,5261.4,0.00053623,5812.2,-5.4378e-05,1374.6,-0.00023733,-0.02084,0.024659
6728,2.0103,3.6364,0.1,0.00052731,5269.4,0.00053716,5809.8,-5.7848e-05,1339.1,-0.00023608,-0.021379,0.024555
6729,2.0103,3.8182,0.1,0.00052851,5281.4,0.00053849,5807.3,-6.2553e-05,1291.3,-0.00023442,-0.022901,0.024413
6730,2.0103,4,0.1,0.0005302,5298.4,0.0005403,5805.4,-6.8549e-05,1230.8,-0.00023236,-0.026239,0.024232
6731,2.0103,4.1818,0.1,0.00053252,5321.5,0.00054268,5804.9,-7.5889e-05,1157.2,-0.00022991,-0.03262,0.024006
6732,2.0103,4.3636,0.1,0.00053559,5352.2,0.0005457,5806.6,-8.4609e-05,1070.6,-0.00022711,-0.043741,0.023732
6733,2.0103,4.5455,0.1,0.00053954,5391.7,0.00054946,5811.2,-9.4716e-05,971.18,-0.00022398,-0.062032,0.023406
6734,2.0103,4.7273,0.1,0.00054449,5441.1,0.00055399,5819.7,-0.00010617,859.54,-0.00022057,-0.090203,0.02302
6735,2.0103,4.9091,0.1,0.0005505,5501.2,0.00055931,5832.4,-0.00011885,736.98,-0.00021695,-0.13397,0.022568
6736,2.0103,5.0909,0.1,0.00055759,5572.1,0.00056541,5849.9,-0.00013259,605.46,-0.00021319,-0.19357,0.022043
6737,2.0103,5.2727,0.1,0.00056571,5653.2,0.0005722,5872.3,-0.00014712,467.58,-0.00020939,-0.30648,0.021436
6738,2.0103,5.4545,0.1,0.00057473,5743.4,0.00057958,5899.4,-0.00016214,326.43,-0.00020563,-0.40295,0.020737
6739,2.0103,5.6364,0.1,0.00058458,5841.7,0.00058748,5931.2,-0.00017736,184.55,-0.00020208,-1.1636,0.019938
6740,2.0103,5.8182,0.1,0.00059631,5959,0.0005969,5976.5,-0.00019317,40.214,-0.00019919,-4.9779,0.019029
6741,2.1931,0.18182,0.1,0.00059074,5903.3,0.00059141,5923.3,-0.00019108,43.965,-0.00019743,-3.7023,0.02304
6742,2.1931,0.36364,0.1,0.00058002,5796.1,0.00058278,5881.4,-0.00017661,175.61,-0.00020012,-1.036,0.024004
6743,2.1931,0.54545,0.1,0.00057083,5704.4,0.00057539,5850.3,-0.00016272,304.4,-0.00020328,-0.35752,0.024857
6744,2.1931,0.72727,0.1,0.00056231,5619.2,0.00056841,5822.8,-0.000149,432.4,-0.00020659,-0.276,0.025608
6745,2.1931,0.90909,0.1,0.00055451,5541.2,0.00056188,5798.9,-0.00013568,557.72,-0.00020993,-0.17535,0.026265
6746,2.1931,1.0909,0.1,0.00054754,5471.6,0.0005559,5778.9,-0.000123,677.85,-0.00021323,-0.12166,0.026838
6747,2.1931,1.2727,0.1,0.00054147,5410.9,0.00055056,5762.7,-0.00011118,790.59,-0.00021642,-0.081006,0.027334
6748,2.1931,1.4545,0.1,0.00053631,5359.4,0.00054589,5750.2,-0.00010041,894.18,-0.00021942,-0.053757,0.02776
6749,2.1931,1.6364,0.1,0.00053203,5316.7,0.0005419,5741.1,-9.0787e-05,987.31,-0.00022219,-0.035145,0.028123
6750,2.1931,1.8182,0.1,0.00052857,5282.1,0.00053858,5734.9,-8.2392e-05,1069.2,-0.00022469,-0.02306,0.028428
6751,2.1931,2,0.1,0.00052585,5254.8,0.00053587,5731,-7.5249e-05,1139.2,-0.00022688,-0.015508,0.028681
6752,2.1931,2.1818,0.1,0.00052375,5233.9,0.00053374,5728.9,-6.9357e-05,1197.4,-0.00022873,-0.011049,0.028886
6753,2.1931,2.3636,0.1,0.0005222,5218.4,0.00053212,5727.9,-6.4694e-05,1243.7,-0.00023022,-0.008587,0.029045
6754,2.1931,2.5455,0.1,0.00052112,5207.6,0.00053095,5727.7,-6.1231e-05,1278.2,-0.00023136,-0.0073413,0.029163
6755,2.1931,2.7273,0.1,0.00052043,5200.7,0.0005302,5727.8,-5.8942e-05,1301.1,-0.00023211,-0.0067789,0.02924
6756,2.1931,2.9091,0.1,0.0005201,5197.4,0.00052984,5727.9,-5.7803e-05,1312.6,-0.0002325,-0.0065747,0.029278
6757,2.1931,3.0909,0.1,0.0005201,5197.4,0.00052984,5727.9,-5.7803e-05,1312.6,-0.0002325,-0.0065747,0.029278
6758,2.1931,3.2727,0.1,0.00052043,5200.7,0.0005302,5727.8,-5.8942e-05,1301.1,-0.00023211,-0.0067789,0.02924
6759,2.1931,3.4545,0.1,0.00052112,5207.6,0.00053095,5727.7,-6.1231e-05,1278.2,-0.00023136,-0.0073413,0.029163
6760,2.1931,3.6364,0.1,0.0005222,5218.4,0.00053212,5727.9,-6.4694e-05,1243.7,-0.00023022,-0.0085868,0.029045
6761,2.1931,3.8182,0.1,0.00052375,5233.9,0.00053374,5728.9,-6.9357e-05,1197.4,-0.00022873,-0.011049,0.028886
6762,2.1931,4,0.1,0.00052585,5254.8,0.00053587,5731,-7.5249e-05,1139.2,-0.00022688,-0.015507,0.028681
6763,2.1931,4.1818,0.1,0.00052857,5282.1,0.00053858,5734.9,-8.2392e-05,1069.2,-0.00022469,-0.02306,0.028428
6764,2.1931,4.3636,0.1,0.00053203,5316.7,0.0005419,5741.1,-9.0787e-05,987.31,-0.00022219,-0.035145,0.028123
6765,2.1931,4.5455,0.1,0.00053631,5359.4,0.00054589,5750.2,-0.00010041,894.18,-0.00021942,-0.053757,0.02776
6766,2.1931,4.7273,0.1,0.00054147,5410.9,0.00055056,5762.7,-0.00011118,790.59,-0.00021642,-0.081006,0.027334
6767,2.1931,4.9091,0.1,0.00054754,5471.6,0.0005559,5778.9,-0.000123,677.85,-0.00021323,-0.12165,0.026838
6768,2.1931,5.0909,0.1,0.00055451,5541.2,0.00056188,5798.9,-0.00013568,557.72,-0.00020993,-0.17535,0.026265
6769,2.1931,5.2727,0.1,0.00056231,5619.2,0.00056841,5822.8,-0.000149,432.4,-0.00020659,-0.276,0.025608
6770,2.1931,5.4545,0.1,0.00057083,5704.4,0.00057539,5850.3,-0.00016272,304.4,-0.00020328,-0.35752,0.024857
6771,2.1931,5.6364,0.1,0.00058002,5796.1,0.00058278,5881.4,-0.00017661,175.61,-0.00020012,-1.036,0.024004
6772,2.1931,5.8182,0.1,0.00059074,5903.3,0.00059141,5923.3,-0.00019108,43.965,-0.00019743,-3.7023,0.02304
6773,2.3759,0.18182,0.1,0.00058472,5843.2,0.00058545,5865,-0.0001889,46.792,-0.00019551,-2.8371,0.02744
6774,2.3759,0.36364,0.1,0.00057489,5745,0.00057753,5826.2,-0.00017564,167.11,-0.00019801,-0.92664,0.028453
6775,2.3759,0.54545,0.1,0.00056633,5659.4,0.00057063,5796.1,-0.00016292,284.51,-0.00020083,-0.31902,0.029356
6776,2.3759,0.72727,0.1,0.00055831,5579.2,0.00056404,5768.8,-0.00015036,401.03,-0.00020377,-0.24996,0.030154
6777,2.3759,0.90909,0.1,0.00055087,5504.9,0.00055782,5744.3,-0.00013813,515.22,-0.00020672,-0.16004,0.030858
6778,2.3759,1.0909,0.1,0.00054411,5437.4,0.00055204,5722.8,-0.00012643,625.04,-0.00020964,-0.11177,0.031475
6779,2.3759,1.2727,0.1,0.00053811,5377.4,0.00054679,5704.5,-0.00011546,728.63,-0.00021245,-0.074329,0.032012
6780,2.3759,1.4545,0.1,0.0005329,5325.3,0.00054211,5689.4,-0.00010538,824.4,-0.00021511,-0.048408,0.032476
6781,2.3759,1.6364,0.1,0.00052846,5281,0.00053803,5677.3,-9.6302e-05,911.13,-0.00021757,-0.029964,0.032873
6782,2.3759,1.8182,0.1,0.00052478,5244.2,0.00053455,5667.8,-8.8309e-05,987.89,-0.00021979,-0.017352,0.033208
6783,2.3759,2,0.1,0.00052179,5214.3,0.00053166,5660.8,-8.145e-05,1054.1,-0.00022174,-0.0089521,0.033487
6784,2.3759,2.1818,0.1,0.00051942,5190.7,0.00052932,5655.7,-7.5746e-05,1109.4,-0.0002234,-0.0035741,0.033714
6785,2.3759,2.3636,0.1,0.00051763,5172.7,0.00052751,5652.2,-7.1201e-05,1153.7,-0.00022475,-0.00027641,0.033891
6786,2.3759,2.5455,0.1,0.00051634,5159.9,0.00052619,5649.9,-6.7808e-05,1186.9,-0.00022577,0.0016362,0.034021
6787,2.3759,2.7273,0.1,0.00051551,5151.6,0.00052532,5648.5,-6.5554e-05,1208.9,-0.00022645,0.0026558,0.034107
6788,2.3759,2.9091,0.1,0.00051511,5147.5,0.0005249,5647.9,-6.4431e-05,1220,-0.0002268,0.0030911,0.03415
6789,2.3759,3.0909,0.1,0.00051511,5147.5,0.0005249,5647.9,-6.4431e-05,1220,-0.0002268,0.0030912,0.03415
6790,2.3759,3.2727,0.1,0.00051551,5151.6,0.00052532,5648.5,-6.5554e-05,1208.9,-0.00022645,0.0026558,0.034107
6791,2.3759,3.4545,0.1,0.00051634,5159.9,0.00052619,5649.9,-6.7808e-05,1186.9,-0.00022577,0.0016363,0.034021
6792,2.3759,3.6364,0.1,0.00051763,5172.7,0.00052751,5652.2,-7.1201e-05,1153.7,-0.00022475,-0.00027633,0.033891
6793,2.3759,3.8182,0.1,0.00051942,5190.7,0.00052932,5655.7,-7.5746e-05,1109.4,-0.0002234,-0.0035738,0.033714
6794,2.3759,4,0.1,0.00052179,5214.3,0.00053166,5660.8,-8.145e-05,1054.1,-0.00022174,-0.008952,0.033487
6795,2.3759,4.1818,0.1,0.00052478,5244.2,0.00053455,5667.8,-8.8309e-05,987.89,-0.00021979,-0.017352,0.033208
6796,2.3759,4.3636,0.1,0.00052846,5281,0.00053803,5677.3,-9.6302e-05,911.13,-0.00021757,-0.029964,0.032873
6797,2.3759,4.5455,0.1,0.0005329,5325.3,0.00054211,5689.4,-0.00010538,824.4,-0.00021511,-0.048407,0.032476
6798,2.3759,4.7273,0.1,0.00053811,5377.4,0.00054679,5704.5,-0.00011546,728.63,-0.00021245,-0.074329,0.032012
6799,2.3759,4.9091,0.1,0.00054411,5437.4,0.00055204,5722.8,-0.00012643,625.04,-0.00020964,-0.11177,0.031475
6800,2.3759,5.0909,0.1,0.00055087,5504.9,0.00055782,5744.3,-0.00013813,515.22,-0.00020672,-0.16004,0.030858
6801,2.3759,5.2727,0.1,0.00055831,5579.2,0.00056404,5768.8,-0.00015036,401.03,-0.00020377,-0.24996,0.030154
6802,2.3759,5.4545,0.1,0.00056633,5659.4,0.00057063,5796.1,-0.00016292,284.51,-0.00020083,-0.31902,0.029356
6803,2.3759,5.6364,0.1,0.00057489,5745,0.00057753,5826.2,-0.00017564,167.11,-0.00019801,-0.92664,0.028453
6804,2.3759,5.8182,0.1,0.00058472,5843.2,0.00058545,5865,-0.0001889,46.792,-0.00019551,-2.8371,0.02744
6805,2.5586,0.18182,0.1,0.00057839,5780,0.00057917,5803,-0.00018668,48.737,-0.00019346,-2.2264,0.032226
6806,2.5586,0.36364,0.1,0.00056938,5689.8,0.0005719,5767.2,-0.00017452,158.9,-0.00019578,-0.83147,0.033284
6807,2.5586,0.54545,0.1,0.0005614,5610.1,0.00056545,5738.4,-0.00016284,266.25,-0.00019832,-0.28507,0.034231
6808,2.5586,0.72727,0.1,0.00055386,5534.8,0.00055926,5711.6,-0.00015132,372.64,-0.00020094,-0.22628,0.035073
6809,2.5586,0.90909,0.1,0.00054681,5464.3,0.00055336,5687.1,-0.00014007,476.92,-0.00020357,-0.14566,0.03582
6810,2.5586,1.0909,0.1,0.00054033,5399.6,0.00054783,5665,-0.00012929,577.41,-0.00020615,-0.10226,0.036477
6811,2.5586,1.2727,0.1,0.00053449,5341.2,0.00054274,5645.6,-0.00011913,672.52,-0.00020865,-0.0679,0.037052
6812,2.5586,1.4545,0.1,0.00052933,5289.6,0.00053815,5628.8,-0.00010974,760.88,-0.00021101,-0.043501,0.037551
6813,2.5586,1.6364,0.1,0.00052485,5244.9,0.00053408,5614.7,-0.00010122,841.3,-0.0002132,-0.025562,0.03798
6814,2.5586,1.8182,0.1,0.00052106,5207,0.00053055,5603.1,-9.3677e-05,912.9,-0.00021518,-0.012782,0.038344
6815,2.5586,2,0.1,0.00051793,5175.7,0.00052757,5593.8,-8.7157e-05,975,-0.00021692,-0.0038464,0.038647
6816,2.5586,2.1818,0.1,0.0005154,5150.5,0.00052513,5586.6,-8.1701e-05,1027.1,-0.00021841,0.0022146,0.038894
6817,2.5586,2.3636,0.1,0.00051345,5131,0.00052321,5581.3,-7.7329e-05,1069.1,-0.00021961,0.006187,0.039088
6818,2.5586,2.5455,0.1,0.00051203,5116.8,0.00052179,5577.5,-7.405e-05,1100.6,-0.00022053,0.0086681,0.039231
6819,2.5586,2.7273,0.1,0.0005111,5107.5,0.00052086,5575.1,-7.1865e-05,1121.6,-0.00022114,0.010092,0.039325
6820,2.5586,2.9091,0.1,0.00051065,5102.9,0.00052039,5573.9,-7.0773e-05,1132.2,-0.00022145,0.010735,0.039372
6821,2.5586,3.0909,0.1,0.00051065,5102.9,0.00052039,5573.9,-7.0773e-05,1132.2,-0.00022145,0.010735,0.039372
6822,2.5586,3.2727,0.1,0.0005111,5107.5,0.00052086,5575.1,-7.1865e-05,1121.6,-0.00022114,0.010092,0.039325
6823,2.5586,3.4545,0.1,0.00051203,5116.8,0.00052179,5577.5,-7.405e-05,1100.6,-0.00022053,0.0086683,0.039231
6824,2.5586,3.6364,0.1,0.00051345,5131,0.00052321,5581.3,-7.7329e-05,1069.1,-0.00021961,0.0061872,0.039088
6825,2.5586,3.8182,0.1,0.0005154,5150.5,0.00052513,5586.6,-8.1701e-05,1027.1,-0.00021841,0.0022148,0.038894
6826,2.5586,4,0.1,0.00051793,5175.7,0.00052757,5593.8,-8.7157e-05,975,-0.00021692,-0.003846,0.038647
6827,2.5586,4.1818,0.1,0.00052106,5207,0.00053055,5603.1,-9.3677e-05,912.9,-0.00021518,-0.012782,0.038344
6828,2.5586,4.3636,0.1,0.00052485,5244.9,0.00053408,5614.7,-0.00010122,841.3,-0.0002132,-0.025561,0.03798
6829,2.5586,4.5455,0.1,0.00052933,5289.6,0.00053815,5628.8,-0.00010974,760.88,-0.00021101,-0.043501,0.037551
6830,2.5586,4.7273,0.1,0.00053449,5341.2,0.00054274,5645.6,-0.00011913,672.52,-0.00020865,-0.067899,0.037052
6831,2.5586,4.9091,0.1,0.00054033,5399.6,0.00054783,5665,-0.00012929,577.41,-0.00020615,-0.10226,0.036477
6832,2.5586,5.0909,0.1,0.00054681,5464.3,0.00055336,5687.1,-0.00014007,476.92,-0.00020357,-0.14566,0.03582
6833,2.5586,5.2727,0.1,0.00055386,5534.8,0.00055926,5711.6,-0.00015132,372.64,-0.00020094,-0.22627,0.035073
6834,2.5586,5.4545,0.1,0.0005614,5610.1,0.00056545,5738.4,-0.00016284,266.25,-0.00019832,-0.28507,0.034231
6835,2.5586,5.6364,0.1,0.00056938,5689.8,0.0005719,5767.2,-0.00017452,158.9,-0.00019578,-0.83147,0.033284
6836,2.5586,5.8182,0.1,0.00057839,5780,0.00057917,5803,-0.00018668,48.737,-0.00019346,-2.2264,0.032226
6837,2.7414,0.18182,0.1,0.00057188,5714.8,0.00057268,5738.7,-0.00018446,49.882,-0.00019133,-1.781,0.037395
6838,2.7414,0.36364,0.1,0.00056359,5632,0.00056599,5705.6,-0.00017329,150.91,-0.00019347,-0.74827,0.038493
6839,2.7414,0.54545,0.1,0.00055616,5557.8,0.00055998,5678.1,-0.00016255,249.3,-0.00019576,-0.25529,0.03948
6840,2.7414,0.72727,0.1,0.0005491,5487.2,0.00055417,5652.2,-0.00015196,346.66,-0.00019812,-0.20504,0.040362
6841,2.7414,0.90909,0.1,0.00054244,5420.7,0.00054861,5628.1,-0.00014162,442.05,-0.00020047,-0.13257,0.041147
6842,2.7414,1.0909,0.1,0.00053627,5359,0.00054335,5606,-0.00013168,534.08,-0.00020277,-0.093499,0.041842
6843,2.7414,1.2727,0.1,0.00053064,5302.8,0.00053847,5586.1,-0.00012228,621.4,-0.00020499,-0.062064,0.042452
6844,2.7414,1.4545,0.1,0.00052561,5252.5,0.00053402,5568.4,-0.00011356,702.77,-0.0002071,-0.039281,0.042983
6845,2.7414,1.6364,0.1,0.00052119,5208.3,0.00053004,5553.2,-0.00010561,777.13,-0.00020905,-0.022081,0.043441
6846,2.7414,1.8182,0.1,0.00051739,5170.3,0.00052655,5540.2,-9.8533e-05,843.61,-0.00021081,-0.0094251,0.043832
6847,2.7414,2,0.1,0.00051419,5138.4,0.00052356,5529.5,-9.2384e-05,901.53,-0.00021237,-0.00023745,0.044158
6848,2.7414,2.1818,0.1,0.00051159,5112.4,0.00052109,5520.9,-8.7213e-05,950.37,-0.0002137,0.0062647,0.044425
6849,2.7414,2.3636,0.1,0.00050955,5092,0.00051912,5514.3,-8.3052e-05,989.77,-0.00021478,0.010726,0.044634
6850,2.7414,2.5455,0.1,0.00050806,5077,0.00051766,5509.4,-7.9919e-05,1019.5,-0.0002156,0.013646,0.044789
6851,2.7414,2.7273,0.1,0.00050707,5067.2,0.00051669,5506.3,-7.7826e-05,1039.4,-0.00021615,0.015392,0.044891
6852,2.7414,2.9091,0.1,0.00050658,5062.3,0.0005162,5504.8,-7.6778e-05,1049.3,-0.00021643,0.016206,0.044942
6853,2.7414,3.0909,0.1,0.00050658,5062.3,0.0005162,5504.8,-7.6778e-05,1049.3,-0.00021643,0.016206,0.044942
6854,2.7414,3.2727,0.1,0.00050707,5067.2,0.00051669,5506.3,-7.7826e-05,1039.4,-0.00021615,0.015392,0.044891
6855,2.7414,3.4545,0.1,0.00050806,5077,0.00051766,5509.4,-7.9919e-05,1019.5,-0.0002156,0.013646,0.044789
6856,2.7414,3.6364,0.1,0.00050955,5092,0.00051912,5514.3,-8.3052e-05,989.77,-0.00021478,0.010726,0.044634
6857,2.7414,3.8182,0.1,0.00051159,5112.4,0.00052109,5520.9,-8.7213e-05,950.37,-0.0002137,0.006265,0.044425
6858,2.7414,4,0.1,0.00051419,5138.4,0.00052356,5529.5,-9.2384e-05,901.53,-0.00021237,-0.00023719,0.044158
6859,2.7414,4.1818,0.1,0.00051739,5170.3,0.00052655,5540.2,-9.8533e-05,843.61,-0.00021081,-0.0094247,0.043832
6860,2.7414,4.3636,0.1,0.00052119,5208.3,0.00053004,5553.2,-0.00010561,777.13,-0.00020905,-0.022081,0.043441
6861,2.7414,4.5455,0.1,0.00052561,5252.5,0.00053402,5568.4,-0.00011356,702.77,-0.0002071,-0.03928,0.042983
6862,2.7414,4.7273,0.1,0.00053064,5302.8,0.00053847,5586.1,-0.00012228,621.4,-0.00020499,-0.062063,0.042452
6863,2.7414,4.9091,0.1,0.00053627,5359,0.00054335,5606,-0.00013168,534.08,-0.00020277,-0.093499,0.041842
6864,2.7414,5.0909,0.1,0.00054244,5420.7,0.00054861,5628.1,-0.00014162,442.05,-0.00020047,-0.13257,0.041147
6865,2.7414,5.2727,0.1,0.0005491,5487.2,0.00055417,5652.2,-0.00015196,346.66,-0.00019812,-0.20504,0.040362
6866,2.7414,5.4545,0.1,0.00055616,5557.8,0.00055998,5678.1,-0.00016255,249.3,-0.00019576,-0.25529,0.03948
6867,2.7414,5.6364,0.1,0.00056359,5632,0.00056599,5705.6,-0.00017329,150.91,-0.00019347,-0.74827,0.038493
6868,2.7414,5.8182,0.1,0.00057188,5714.8,0.00057268,5738.7,-0.00018446,49.882,-0.00019133,-1.781,0.037395
6869,2.9241,0.18182,0.1,0.00056524,5648.5,0.00056606,5672.8,-0.00018225,50.32,-0.00018914,-1.4471,0.042943
6870,2.9241,0.36364,0.1,0.00055762,5572.4,0.0005599,5642.2,-0.00017198,143.07,-0.00019111,-0.67502,0.044077
6871,2.9241,0.54545,0.1,0.00055071,5503.3,0.0005543,5616.1,-0.00016209,233.42,-0.00019319,-0.22899,0.0451
6872,2.9241,0.72727,0.1,0.0005441,5437.3,0.00054887,5591.3,-0.00015235,322.67,-0.00019531,-0.18589,0.046018
6873,2.9241,0.90909,0.1,0.00053784,5374.7,0.00054364,5567.9,-0.00014283,410.07,-0.00019742,-0.12058,0.046838
6874,2.9241,1.0909,0.1,0.00053199,5316.3,0.00053867,5546.2,-0.00013367,494.42,-0.00019948,-0.08536,0.047567
6875,2.9241,1.2727,0.1,0.00052662,5262.6,0.00053403,5526.2,-0.00012499,574.56,-0.00020147,-0.056638,0.048208
6876,2.9241,1.4545,0.1,0.00052176,5214,0.00052977,5508.3,-0.00011691,649.42,-0.00020335,-0.035483,0.04877
6877,2.9241,1.6364,0.1,0.00051746,5171,0.00052592,5492.5,-0.00010952,718.02,-0.00020509,-0.019169,0.049256
6878,2.9241,1.8182,0.1,0.00051371,5133.6,0.00052251,5478.8,-0.00010291,779.56,-0.00020667,-0.0068507,0.04967
6879,2.9241,2,0.1,0.00051054,5101.8,0.00051958,5467.2,-9.7152e-05,833.33,-0.00020806,0.0023578,0.050018
6880,2.9241,2.1818,0.1,0.00050792,5075.7,0.00051713,5457.7,-9.2287e-05,878.83,-0.00020925,0.0090873,0.050303
6881,2.9241,2.3636,0.1,0.00050585,5055.1,0.00051517,5450.3,-8.8358e-05,915.63,-0.00021022,0.013861,0.050527
6882,2.9241,2.5455,0.1,0.00050432,5039.7,0.0005137,5444.8,-8.5392e-05,943.46,-0.00021096,0.017085,0.050693
6883,2.9241,2.7273,0.1,0.00050331,5029.6,0.00051272,5441.2,-8.3406e-05,962.11,-0.00021145,0.019068,0.050802
6884,2.9241,2.9091,0.1,0.0005028,5024.6,0.00051223,5439.4,-8.2411e-05,971.47,-0.0002117,0.020009,0.050857
6885,2.9241,3.0909,0.1,0.0005028,5024.6,0.00051223,5439.4,-8.2411e-05,971.47,-0.0002117,0.020009,0.050857
6886,2.9241,3.2727,0.1,0.00050331,5029.6,0.00051272,5441.2,-8.3406e-05,962.11,-0.00021145,0.019068,0.050802
6887,2.9241,3.4545,0.1,0.00050432,5039.7,0.0005137,5444.8,-8.5392e-05,943.46,-0.00021096,0.017085,0.050693
6888,2.9241,3.6364,0.1,0.00050585,5055.1,0.00051517,5450.3,-8.8358e-05,915.63,-0.00021022,0.013861,0.050527
6889,2.9241,3.8182,0.1,0.00050792,5075.7,0.00051713,5457.7,-9.2287e-05,878.83,-0.00020925,0.0090876,0.050303
6890,2.9241,4,0.1,0.00051054,5101.8,0.00051958,5467.2,-9.7152e-05,833.33,-0.00020806,0.002358,0.050018
6891,2.9241,4.1818,0.1,0.00051371,5133.6,0.00052251,5478.8,-0.00010291,779.56,-0.00020667,-0.0068502,0.04967
6892,2.9241,4.3636,0.1,0.00051746,5171,0.00052592,5492.5,-0.00010952,718.02,-0.00020509,-0.019169,0.049256
6893,2.9241,4.5455,0.1,0.00052176,5214,0.00052977,5508.3,-0.00011691,649.42,-0.00020335,-0.035482,0.04877
6894,2.9241,4.7273,0.1,0.00052662,5262.6,0.00053403,5526.2,-0.00012499,574.56,-0.00020147,-0.056638,0.048208
6895,2.9241,4.9091,0.1,0.00053199,5316.3,0.00053867,5546.2,-0.00013367,494.42,-0.00019948,-0.085359,0.047567
6896,2.9241,5.0909,0.1,0.00053784,5374.7,0.00054364,5567.9,-0.00014283,410.07,-0.00019742,-0.12058,0.046838
6897,2.9241,5.2727,0.1,0.0005441,5437.3,0.00054887,5591.3,-0.00015235,322.67,-0.00019531,-0.18589,0.046018
6898,2.9241,5.4545,0.1,0.00055071,5503.3,0.0005543,5616.1,-0.00016209,233.42,-0.00019319,-0.22899,0.0451
6899,2.9241,5.6364,0.1,0.00055762,5572.4,0.0005599,5642.2,-0.00017198,143.07,-0.00019111,-0.67502,0.044077
6900,2.9241,5.8182,0.1,0.00056524,5648.5,0.00056606,5672.8,-0.00018225,50.32,-0.00018914,-1.4471,0.042943
6901,3.1069,0.18182,0.1,0.00055855,5581.7,0.00055937,5606,-0.00018007,50.15,-0.0001869,-1.1912,0.048866
6902,3.1069,0.36364,0.1,0.00055154,5511.6,0.00055371,5577.7,-0.00017062,135.39,-0.00018872,-0.61023,0.050033
6903,3.1069,0.54545,0.1,0.00054511,5447.3,0.00054849,5553.1,-0.00016151,218.45,-0.00019061,-0.20575,0.051088
6904,3.1069,0.72727,0.1,0.00053894,5385.6,0.00054341,5529.5,-0.00015253,300.38,-0.00019253,-0.16867,0.052039
6905,3.1069,0.90909,0.1,0.00053306,5327,0.00053851,5507,-0.00014377,380.53,-0.00019443,-0.10968,0.05289
6906,3.1069,1.0909,0.1,0.00052755,5271.9,0.00053384,5485.8,-0.00013533,457.89,-0.00019629,-0.077884,0.053649
6907,3.1069,1.2727,0.1,0.00052245,5220.9,0.00052946,5466.3,-0.00012733,531.46,-0.00019807,-0.051664,0.05432
6908,3.1069,1.4545,0.1,0.00051781,5174.5,0.0005254,5448.4,-0.00011985,600.27,-0.00019975,-0.032098,0.054909
6909,3.1069,1.6364,0.1,0.00051366,5133,0.00052172,5432.5,-0.000113,663.46,-0.00020131,-0.016749,0.055419
6910,3.1069,1.8182,0.1,0.00051002,5096.7,0.00051844,5418.5,-0.00010686,720.27,-0.00020272,-0.0049172,0.055857
6911,3.1069,2,0.1,0.00050691,5065.6,0.0005156,5406.6,-0.00010148,770.04,-0.00020397,0.0041343,0.056224
6912,3.1069,2.1818,0.1,0.00050433,5039.8,0.00051321,5396.6,-9.6931e-05,812.25,-0.00020503,0.010915,0.056525
6913,3.1069,2.3636,0.1,0.00050228,5019.3,0.00051129,5388.7,-9.3246e-05,846.47,-0.0002059,0.015845,0.056763
6914,3.1069,2.5455,0.1,0.00050075,5004,0.00050985,5382.9,-9.0458e-05,872.39,-0.00020656,0.019254,0.056939
6915,3.1069,2.7273,0.1,0.00049973,4993.9,0.00050888,5379,-8.8588e-05,889.79,-0.00020701,0.02139,0.057056
6916,3.1069,2.9091,0.1,0.00049922,4988.8,0.0005084,5377,-8.765e-05,898.52,-0.00020723,0.022416,0.057114
6917,3.1069,3.0909,0.1,0.00049922,4988.8,0.0005084,5377,-8.765e-05,898.52,-0.00020723,0.022417,0.057114
6918,3.1069,3.2727,0.1,0.00049973,4993.9,0.00050888,5379,-8.8588e-05,889.79,-0.00020701,0.02139,0.057056
6919,3.1069,3.4545,0.1,0.00050075,5004,0.00050985,5382.9,-9.0458e-05,872.39,-0.00020656,0.019254,0.056939
6920,3.1069,3.6364,0.1,0.00050228,5019.3,0.00051129,5388.7,-9.3246e-05,846.47,-0.0002059,0.015846,0.056763
6921,3.1069,3.8182,0.1,0.00050433,5039.8,0.00051321,5396.6,-9.6931e-05,812.25,-0.00020503,0.010915,0.056525
6922,3.1069,4,0.1,0.00050691,5065.6,0.0005156,5406.6,-0.00010148,770.04,-0.00020397,0.0041347,0.056224
6923,3.1069,4.1818,0.1,0.00051002,5096.7,0.00051844,5418.5,-0.00010686,720.27,-0.00020272,-0.0049167,0.055857
6924,3.1069,4.3636,0.1,0.00051366,5133,0.00052172,5432.5,-0.000113,663.46,-0.00020131,-0.016748,0.055419
6925,3.1069,4.5455,0.1,0.00051781,5174.5,0.0005254,5448.4,-0.00011985,600.27,-0.00019975,-0.032097,0.054909
6926,3.1069,4.7273,0.1,0.00052245,5220.9,0.00052946,5466.3,-0.00012733,531.46,-0.00019807,-0.051663,0.05432
6927,3.1069,4.9091,0.1,0.00052755,5271.9,0.00053384,5485.8,-0.00013533,457.89,-0.00019629,-0.077883,0.053649
6928,3.1069,5.0909,0.1,0.00053306,5327,0.00053851,5507,-0.00014377,380.53,-0.00019443,-0.10967,0.05289
6929,3.1069,5.2727,0.1,0.00053894,5385.6,0.00054341,5529.5,-0.00015253,300.38,-0.00019253,-0.16867,0.052039
6930,3.1069,5.4545,0.1,0.00054511,5447.3,0.00054849,5553.1,-0.00016151,218.45,-0.00019061,-0.20575,0.051088
6931,3.1069,5.6364,0.1,0.00055154,5511.6,0.00055371,5577.7,-0.00017062,135.39,-0.00018872,-0.61023,0.050033
6932,3.1069,5.8182,0.1,0.00055855,5581.7,0.00055937,5606,-0.00018007,50.15,-0.0001869,-1.1912,0.048866
6933,3.2897,0.18182,0.1,0.00055185,5514.6,0.00055265,5538.7,-0.00017792,49.462,-0.00018464,-0.99133,0.055162
6934,3.2897,0.36364,0.1,0.00054539,5450.1,0.00054744,5512.6,-0.00016923,127.85,-0.00018632,-0.5526,0.056356
6935,3.2897,0.54545,0.1,0.00053941,5390.3,0.00054259,5489.5,-0.00016083,204.29,-0.00018804,-0.18513,0.05744
6936,3.2897,0.72727,0.1,0.00053365,5332.9,0.00053786,5467.1,-0.00015256,279.56,-0.00018978,-0.15313,0.05842
6937,3.2897,0.90909,0.1,0.00052816,5278,0.00053328,5445.6,-0.00014449,353.13,-0.0001915,-0.099753,0.0593
6938,3.2897,1.0909,0.1,0.00052298,5226.2,0.0005289,5425.3,-0.00013671,424.12,-0.00019317,-0.071021,0.060086
6939,3.2897,1.2727,0.1,0.00051816,5178.1,0.00052477,5406.3,-0.00012933,491.65,-0.00019477,-0.047093,0.060784
6940,3.2897,1.4545,0.1,0.00051376,5134,0.00052094,5388.9,-0.00012243,554.87,-0.00019628,-0.02905,0.061397
6941,3.2897,1.6364,0.1,0.00050979,5094.4,0.00051744,5373.2,-0.00011609,613.02,-0.00019768,-0.014697,0.061931
6942,3.2897,1.8182,0.1,0.0005063,5059.5,0.00051432,5359.2,-0.00011039,665.37,-0.00019895,-0.0034477,0.062388
6943,3.2897,2,0.1,0.00050329,5029.4,0.0005116,5347.2,-0.0001054,711.32,-0.00020007,0.0053183,0.062774
6944,3.2897,2.1818,0.1,0.00050078,5004.3,0.0005093,5337.1,-0.00010116,750.35,-0.00020103,0.012013,0.06309
6945,3.2897,2.3636,0.1,0.00049877,4984.3,0.00050745,5329.1,-9.7722e-05,782.06,-0.00020181,0.016975,0.063341
6946,3.2897,2.5455,0.1,0.00049727,4969.2,0.00050605,5323,-9.5116e-05,806.1,-0.0002024,0.020465,0.063526
6947,3.2897,2.7273,0.1,0.00049627,4959.2,0.00050511,5319,-9.3366e-05,822.26,-0.0002028,0.022682,0.063649
6948,3.2897,2.9091,0.1,0.00049577,4954.2,0.00050464,5317,-9.2487e-05,830.38,-0.000203,0.023758,0.06371
6949,3.2897,3.0909,0.1,0.00049577,4954.2,0.00050464,5317,-9.2487e-05,830.38,-0.000203,0.023758,0.06371
6950,3.2897,3.2727,0.1,0.00049627,4959.2,0.00050511,5319,-9.3366e-05,822.26,-0.0002028,0.022682,0.063649
6951,3.2897,3.4545,0.1,0.00049727,4969.2,0.00050605,5323,-9.5116e-05,806.1,-0.0002024,0.020465,0.063526
6952,3.2897,3.6364,0.1,0.00049877,4984.3,0.00050745,5329.1,-9.7722e-05,782.06,-0.00020181,0.016975,0.063341
6953,3.2897,3.8182,0.1,0.00050078,5004.3,0.0005093,5337.1,-0.00010116,750.35,-0.00020103,0.012013,0.06309
6954,3.2897,4,0.1,0.00050329,5029.4,0.0005116,5347.2,-0.0001054,711.32,-0.00020007,0.0053184,0.062774
6955,3.2897,4.1818,0.1,0.0005063,5059.5,0.00051432,5359.2,-0.00011039,665.37,-0.00019895,-0.0034473,0.062388
6956,3.2897,4.3636,0.1,0.00050979,5094.4,0.00051744,5373.2,-0.00011609,613.02,-0.00019768,-0.014697,0.061931
6957,3.2897,4.5455,0.1,0.00051376,5134,0.00052094,5388.9,-0.00012243,554.87,-0.00019628,-0.02905,0.061397
6958,3.2897,4.7273,0.1,0.00051816,5178.1,0.00052477,5406.3,-0.00012933,491.65,-0.00019477,-0.047093,0.060784
6959,3.2897,4.9091,0.1,0.00052298,5226.2,0.0005289,5425.3,-0.00013671,424.12,-0.00019317,-0.07102,0.060086
6960,3.2897,5.0909,0.1,0.00052816,5278,0.00053328,5445.6,-0.00014449,353.13,-0.0001915,-0.099752,0.0593
6961,3.2897,5.2727,0.1,0.00053365,5332.9,0.00053786,5467.1,-0.00015256,279.56,-0.00018978,-0.15313,0.05842
6962,3.2897,5.4545,0.1,0.00053941,5390.3,0.00054259,5489.5,-0.00016083,204.29,-0.00018804,-0.18513,0.05744
6963,3.2897,5.6364,0.1,0.00054539,5450.1,0.00054744,5512.6,-0.00016923,127.85,-0.00018632,-0.5526,0.056356
6964,3.2897,5.8182,0.1,0.00055185,5514.6,0.00055265,5538.7,-0.00017792,49.462,-0.00018464,-0.99132,0.055162
6965,3.4724,0.18182,0.1,0.00054515,5447.8,0.00054595,5471.4,-0.00017581,48.343,-0.00018236,-0.83281,0.061824
6966,3.4724,0.36364,0.1,0.00053921,5388.3,0.00054114,5447.3,-0.00016781,120.45,-0.00018391,-0.50113,0.063044
6967,3.4724,0.54545,0.1,0.00053365,5332.8,0.00053664,5425.6,-0.00016007,190.84,-0.00018549,-0.1668,0.064153
6968,3.4724,0.72727,0.1,0.00052829,5279.3,0.00053223,5404.4,-0.00015244,260.05,-0.00018707,-0.13912,0.065158
6969,3.4724,0.90909,0.1,0.00052316,5228,0.00052796,5384.1,-0.00014501,327.62,-0.00018862,-0.09075,0.066064
6970,3.4724,1.0909,0.1,0.00051831,5179.5,0.00052387,5364.7,-0.00013785,392.79,-0.00019013,-0.064754,0.066875
6971,3.4724,1.2727,0.1,0.00051378,5134.2,0.00052,5346.5,-0.00013105,454.78,-0.00019158,-0.042923,0.067596
6972,3.4724,1.4545,0.1,0.00050962,5092.7,0.0005164,5329.7,-0.00012468,512.85,-0.00019294,-0.026319,0.068232
6973,3.4724,1.6364,0.1,0.00050586,5055.1,0.0005131,5314.4,-0.00011883,566.31,-0.0001942,-0.012959,0.068786
6974,3.4724,1.8182,0.1,0.00050252,5021.8,0.00051015,5300.7,-0.00011355,614.49,-0.00019534,-0.0023454,0.069263
6975,3.4724,2,0.1,0.00049964,4993,0.00050757,5288.9,-0.00010893,656.83,-0.00019634,0.006048,0.069665
6976,3.4724,2.1818,0.1,0.00049723,4968.9,0.00050538,5278.9,-0.00010499,692.85,-0.0001972,0.012558,0.069995
6977,3.4724,2.3636,0.1,0.00049529,4949.5,0.00050361,5270.9,-0.0001018,722.14,-0.00019791,0.017454,0.070257
6978,3.4724,2.5455,0.1,0.00049383,4934.9,0.00050227,5264.8,-9.9371e-05,744.38,-0.00019844,0.020944,0.070451
6979,3.4724,2.7273,0.1,0.00049286,4925.2,0.00050137,5260.8,-9.7741e-05,759.33,-0.0001988,0.023185,0.07058
6980,3.4724,2.9091,0.1,0.00049237,4920.3,0.00050091,5258.8,-9.6922e-05,766.85,-0.00019898,0.02428,0.070644
6981,3.4724,3.0909,0.1,0.00049237,4920.3,0.00050091,5258.8,-9.6922e-05,766.85,-0.00019898,0.02428,0.070644
6982,3.4724,3.2727,0.1,0.00049286,4925.2,0.00050137,5260.8,-9.7741e-05,759.33,-0.0001988,0.023185,0.07058
6983,3.4724,3.4545,0.1,0.00049383,4934.9,0.00050227,5264.8,-9.9371e-05,744.38,-0.00019844,0.020944,0.070451
6984,3.4724,3.6364,0.1,0.00049529,4949.5,0.00050361,5270.9,-0.0001018,722.14,-0.00019791,0.017454,0.070257
6985,3.4724,3.8182,0.1,0.00049723,4968.9,0.00050538,5278.9,-0.00010499,692.85,-0.0001972,0.012558,0.069995
6986,3.4724,4,0.1,0.00049964,4993,0.00050757,5288.9,-0.00010893,656.83,-0.00019634,0.0060483,0.069665
6987,3.4724,4.1818,0.1,0.00050252,5021.8,0.00051015,5300.7,-0.00011355,614.49,-0.00019534,-0.0023449,0.069263
6988,3.4724,4.3636,0.1,0.00050586,5055.1,0.0005131,5314.4,-0.00011883,566.31,-0.0001942,-0.012958,0.068786
6989,3.4724,4.5455,0.1,0.00050962,5092.7,0.0005164,5329.7,-0.00012468,512.85,-0.00019294,-0.026318,0.068232
6990,3.4724,4.7273,0.1,0.00051378,5134.2,0.00052,5346.5,-0.00013105,454.78,-0.00019158,-0.042922,0.067596
6991,3.4724,4.9091,0.1,0.00051831,5179.5,0.00052387,5364.7,-0.00013785,392.79,-0.00019013,-0.064753,0.066875
6992,3.4724,5.0909,0.1,0.00052316,5228,0.00052796,5384.1,-0.00014501,327.62,-0.00018862,-0.090749,0.066064
6993,3.4724,5.2727,0.1,0.00052829,5279.3,0.00053223,5404.4,-0.00015244,260.05,-0.00018707,-0.13912,0.065158
6994,3.4724,5.4545,0.1,0.00053365,5332.8,0.00053664,5425.6,-0.00016007,190.84,-0.00018549,-0.1668,0.064153
6995,3.4724,5.6364,0.1,0.00053921,5388.3,0.00054114,5447.3,-0.00016781,120.45,-0.00018391,-0.50112,0.063044
6996,3.4724,5.8182,0.1,0.00054515,5447.8,0.00054595,5471.4,-0.00017581,48.343,-0.00018236,-0.83281,0.061824
6997,3.6552,0.18182,0.1,0.0005385,5381.2,0.00053927,5404.2,-0.00017375,46.868,-0.00018008,-0.70542,0.06885
6998,3.6552,0.36364,0.1,0.00053302,5326.5,0.00053484,5382,-0.00016638,113.22,-0.00018151,-0.45499,0.070091
6999,3.6552,0.54545,0.1,0.00052786,5274.9,0.00053066,5361.6,-0.00015923,178.05,-0.00018295,-0.1505,0.071223
7000,3.6552,0.72727,0.1,0.00052288,5225.2,0.00052657,5341.7,-0.00015221,241.71,-0.00018439,-0.1265,0.072251
7001,3.6552,0.90909,0.1,0.00051809,5177.4,0.00052259,5322.5,-0.00014536,303.8,-0.00018581,-0.082625,0.07318
7002,3.6552,1.0909,0.1,0.00051356,5132.1,0.00051878,5304.2,-0.00013877,363.64,-0.00018717,-0.059082,0.074013
7003,3.6552,1.2727,0.1,0.00050932,5089.6,0.00051516,5286.9,-0.0001325,420.56,-0.00018848,-0.039165,0.074755
7004,3.6552,1.4545,0.1,0.0005054,5050.5,0.00051179,5270.8,-0.00012663,473.89,-0.00018971,-0.023908,0.075411
7005,3.6552,1.6364,0.1,0.00050185,5015.1,0.0005087,5256.1,-0.00012123,523.01,-0.00019084,-0.011515,0.075984
7006,3.6552,1.8182,0.1,0.0004987,4983.5,0.00050592,5242.9,-0.00011637,567.31,-0.00019187,-0.0015612,0.076477
7007,3.6552,2,0.1,0.00049596,4956.2,0.00050348,5231.4,-0.00011209,606.28,-0.00019278,0.0064062,0.076894
7008,3.6552,2.1818,0.1,0.00049366,4933.2,0.00050142,5221.7,-0.00010845,639.46,-0.00019355,0.012663,0.077237
7009,3.6552,2.3636,0.1,0.0004918,4914.6,0.00049974,5213.9,-0.00010548,666.47,-0.00019418,0.017424,0.077509
7010,3.6552,2.5455,0.1,0.0004904,4900.7,0.00049846,5207.9,-0.00010323,686.99,-0.00019466,0.020853,0.077711
7011,3.6552,2.7273,0.1,0.00048947,4891.3,0.00049761,5203.9,-0.00010172,700.8,-0.00019499,0.023073,0.077845
7012,3.6552,2.9091,0.1,0.000489,4886.6,0.00049718,5201.9,-0.00010096,707.74,-0.00019515,0.024163,0.077912
7013,3.6552,3.0909,0.1,0.000489,4886.6,0.00049718,5201.9,-0.00010096,707.74,-0.00019515,0.024164,0.077912
7014,3.6552,3.2727,0.1,0.00048947,4891.3,0.00049761,5203.9,-0.00010172,700.8,-0.00019499,0.023073,0.077845
7015,3.6552,3.4545,0.1,0.0004904,4900.7,0.00049846,5207.9,-0.00010323,686.99,-0.00019466,0.020853,0.077711
7016,3.6552,3.6364,0.1,0.0004918,4914.6,0.00049974,5213.9,-0.00010548,666.47,-0.00019418,0.017424,0.077509
7017,3.6552,3.8182,0.1,0.00049366,4933.2,0.00050142,5221.7,-0.00010845,639.46,-0.00019355,0.012663,0.077237
7018,3.6552,4,0.1,0.00049596,4956.2,0.00050348,5231.4,-0.00011209,606.28,-0.00019278,0.0064066,0.076894
7019,3.6552,4.1818,0.1,0.0004987,4983.5,0.00050592,5242.9,-0.00011637,567.31,-0.00019187,-0.0015607,0.076477
7020,3.6552,4.3636,0.1,0.00050185,5015.1,0.0005087,5256.1,-0.00012123,523.01,-0.00019084,-0.011515,0.075984
7021,3.6552,4.5455,0.1,0.0005054,5050.5,0.00051179,5270.8,-0.00012663,473.89,-0.00018971,-0.023908,0.075411
7022,3.6552,4.7273,0.1,0.00050932,5089.6,0.00051516,5286.9,-0.0001325,420.56,-0.00018848,-0.039164,0.074755
7023,3.6552,4.9091,0.1,0.00051356,5132.1,0.00051878,5304.2,-0.00013877,363.64,-0.00018717,-0.059081,0.074013
7024,3.6552,5.0909,0.1,0.00051809,5177.4,0.00052259,5322.5,-0.00014536,303.8,-0.00018581,-0.082624,0.07318
7025,3.6552,5.2727,0.1,0.00052288,5225.2,0.00052657,5341.7,-0.00015221,241.71,-0.00018439,-0.1265,0.072251
7026,3.6552,5.4545,0.1,0.00052786,5274.9,0.00053066,5361.6,-0.00015923,178.05,-0.00018295,-0.1505,0.071223
7027,3.6552,5.6364,0.1,0.00053302,5326.5,0.00053484,5382,-0.00016638,113.22,-0.00018151,-0.45499,0.070091
7028,3.6552,5.8182,0.1,0.0005385,5381.2,0.00053927,5404.2,-0.00017375,46.868,-0.00018008,-0.70542,0.06885
7029,3.8379,0.18182,0.1,0.00053189,5315.2,0.00053263,5337.3,-0.00017172,45.105,-0.0001778,-0.60188,0.076235
7030,3.8379,0.36364,0.1,0.00052684,5264.7,0.00052856,5316.8,-0.00016494,106.17,-0.00017912,-0.41346,0.077495
7031,3.8379,0.54545,0.1,0.00052205,5216.9,0.00052468,5297.8,-0.00015835,165.88,-0.00018044,-0.13596,0.078647
7032,3.8379,0.72727,0.1,0.00051743,5170.7,0.00052088,5279.2,-0.00015187,224.44,-0.00018176,-0.11512,0.079695
7033,3.8379,0.90909,0.1,0.00051298,5126.2,0.00051718,5261.1,-0.00014557,281.51,-0.00018304,-0.075293,0.080643
7034,3.8379,1.0909,0.1,0.00050875,5084,0.00051364,5243.8,-0.00013949,336.47,-0.00018428,-0.053957,0.081496
7035,3.8379,1.2727,0.1,0.00050479,5044.4,0.00051027,5227.5,-0.00013372,388.74,-0.00018547,-0.035787,0.082258
7036,3.8379,1.4545,0.1,0.00050112,5007.7,0.00050713,5212.2,-0.00012832,437.72,-0.00018658,-0.021784,0.082931
7037,3.8379,1.6364,0.1,0.00049779,4974.4,0.00050424,5198.2,-0.00012334,482.83,-0.00018761,-0.010318,0.083521
7038,3.8379,1.8182,0.1,0.00049481,4944.7,0.00050164,5185.7,-0.00011885,523.55,-0.00018853,-0.0010221,0.084029
7039,3.8379,2,0.1,0.00049223,4918.9,0.00049935,5174.7,-0.0001149,559.39,-0.00018935,0.0064924,0.084459
7040,3.8379,2.1818,0.1,0.00049004,4897.1,0.00049741,5165.3,-0.00011154,589.93,-0.00019005,0.012453,0.084814
7041,3.8379,2.3636,0.1,0.00048828,4879.5,0.00049583,5157.7,-0.0001088,614.79,-0.00019062,0.017033,0.085095
7042,3.8379,2.5455,0.1,0.00048695,4866.2,0.00049463,5152,-0.00010672,633.7,-0.00019106,0.020359,0.085305
7043,3.8379,2.7273,0.1,0.00048606,4857.3,0.00049382,5148.1,-0.00010532,646.43,-0.00019135,0.022526,0.085443
7044,3.8379,2.9091,0.1,0.00048562,4852.8,0.00049342,5146.2,-0.00010461,652.83,-0.0001915,0.023595,0.085513
7045,3.8379,3.0909,0.1,0.00048562,4852.8,0.00049342,5146.2,-0.00010461,652.83,-0.0001915,0.023595,0.085513
7046,3.8379,3.2727,0.1,0.00048606,4857.3,0.00049382,5148.1,-0.00010532,646.43,-0.00019135,0.022526,0.085443
7047,3.8379,3.4545,0.1,0.00048695,4866.2,0.00049463,5152,-0.00010672,633.7,-0.00019106,0.020359,0.085305
7048,3.8379,3.6364,0.1,0.00048828,4879.5,0.00049583,5157.7,-0.0001088,614.79,-0.00019062,0.017033,0.085095
7049,3.8379,3.8182,0.1,0.00049004,4897.1,0.00049741,5165.3,-0.00011154,589.93,-0.00019005,0.012453,0.084814
7050,3.8379,4,0.1,0.00049223,4918.9,0.00049935,5174.7,-0.0001149,559.39,-0.00018935,0.0064928,0.084459
7051,3.8379,4.1818,0.1,0.00049481,4944.7,0.00050164,5185.7,-0.00011885,523.55,-0.00018853,-0.0010218,0.084029
7052,3.8379,4.3636,0.1,0.00049779,4974.4,0.00050424,5198.2,-0.00012334,482.83,-0.00018761,-0.010317,0.083521
7053,3.8379,4.5455,0.1,0.00050112,5007.7,0.00050713,5212.2,-0.00012832,437.72,-0.00018658,-0.021784,0.082931
7054,3.8379,4.7273,0.1,0.00050479,5044.4,0.00051027,5227.5,-0.00013372,388.74,-0.00018547,-0.035787,0.082258
7055,3.8379,4.9091,0.1,0.00050875,5084,0.00051364,5243.8,-0.00013949,336.47,-0.00018428,-0.053956,0.081496
7056,3.8379,5.0909,0.1,0.00051298,5126.2,0.00051718,5261.1,-0.00014557,281.51,-0.00018304,-0.075292,0.080643
7057,3.8379,5.2727,0.1,0.00051743,5170.7,0.00052088,5279.2,-0.00015187,224.44,-0.00018176,-0.11512,0.079695
7058,3.8379,5.4545,0.1,0.00052205,5216.9,0.00052468,5297.8,-0.00015835,165.88,-0.00018044,-0.13596,0.078647
7059,3.8379,5.6364,0.1,0.00052684,5264.7,0.00052856,5316.8,-0.00016494,106.17,-0.00017912,-0.41346,0.077495
7060,3.8379,5.8182,0.1,0.00053189,5315.2,0.00053263,5337.3,-0.00017172,45.105,-0.0001778,-0.60188,0.076235
7061,4.0207,0.18182,0.1,0.00052533,5249.7,0.00052604,5270.8,-0.00016973,43.114,-0.00017553,-0.51687,0.083976
7062,4.0207,0.36364,0.1,0.00052068,5203.2,0.00052229,5252,-0.00016349,99.298,-0.00017675,-0.37596,0.085252
7063,4.0207,0.54545,0.1,0.00051625,5158.9,0.0005187,5234.3,-0.00015741,154.28,-0.00017796,-0.12296,0.086421
7064,4.0207,0.72727,0.1,0.00051196,5116,0.00051518,5216.9,-0.00015144,208.16,-0.00017916,-0.10485,0.087486
7065,4.0207,0.90909,0.1,0.00050782,5074.7,0.00051175,5200,-0.00014564,260.62,-0.00018033,-0.068685,0.088452
7066,4.0207,1.0909,0.1,0.00050389,5035.5,0.00050846,5183.8,-0.00014005,311.11,-0.00018146,-0.04934,0.089322
7067,4.0207,1.2727,0.1,0.0005002,4998.5,0.00050534,5168.4,-0.00013474,359.11,-0.00018254,-0.032765,0.0901
7068,4.0207,1.4545,0.1,0.00049677,4964.3,0.00050241,5154,-0.00012976,404.09,-0.00018355,-0.019923,0.09079
7069,4.0207,1.6364,0.1,0.00049365,4933.1,0.00049972,5140.8,-0.00012518,445.53,-0.00018448,-0.0093319,0.091394
7070,4.0207,1.8182,0.1,0.00049087,4905.3,0.00049729,5128.9,-0.00012104,482.95,-0.00018532,-0.00067807,0.091916
7071,4.0207,2,0.1,0.00048843,4881,0.00049516,5118.4,-0.0001174,515.89,-0.00018606,0.0063769,0.092358
7072,4.0207,2.1818,0.1,0.00048638,4860.4,0.00049334,5109.5,-0.0001143,543.98,-0.00018669,0.012021,0.092723
7073,4.0207,2.3636,0.1,0.00048471,4843.8,0.00049186,5102.3,-0.00011177,566.86,-0.00018721,0.016391,0.093012
7074,4.0207,2.5455,0.1,0.00048346,4831.2,0.00049074,5096.8,-0.00010984,584.27,-0.0001876,0.019587,0.093228
7075,4.0207,2.7273,0.1,0.00048261,4822.8,0.00048998,5093.1,-0.00010855,595.99,-0.00018787,0.021681,0.093371
7076,4.0207,2.9091,0.1,0.00048219,4818.6,0.0004896,5091.3,-0.0001079,601.88,-0.000188,0.022717,0.093443
7077,4.0207,3.0909,0.1,0.00048219,4818.6,0.0004896,5091.3,-0.0001079,601.88,-0.000188,0.022717,0.093443
7078,4.0207,3.2727,0.1,0.00048261,4822.8,0.00048998,5093.1,-0.00010855,595.99,-0.00018787,0.021681,0.093371
7079,4.0207,3.4545,0.1,0.00048346,4831.2,0.00049074,5096.8,-0.00010984,584.27,-0.0001876,0.019587,0.093228
7080,4.0207,3.6364,0.1,0.00048471,4843.8,0.00049186,5102.3,-0.00011177,566.86,-0.00018721,0.016392,0.093012
7081,4.0207,3.8182,0.1,0.00048638,4860.4,0.00049334,5109.5,-0.0001143,543.98,-0.00018669,0.012021,0.092723
7082,4.0207,4,0.1,0.00048843,4881,0.00049516,5118.4,-0.0001174,515.89,-0.00018606,0.0063773,0.092358
7083,4.0207,4.1818,0.1,0.00049087,4905.3,0.00049729,5128.9,-0.00012104,482.95,-0.00018532,-0.00067758,0.091916
7084,4.0207,4.3636,0.1,0.00049365,4933.1,0.00049972,5140.8,-0.00012518,445.53,-0.00018448,-0.0093314,0.091394
7085,4.0207,4.5455,0.1,0.00049677,4964.3,0.00050241,5154,-0.00012976,404.09,-0.00018355,-0.019922,0.09079
7086,4.0207,4.7273,0.1,0.0005002,4998.5,0.00050534,5168.4,-0.00013474,359.11,-0.00018254,-0.032765,0.0901
7087,4.0207,4.9091,0.1,0.00050389,5035.5,0.00050846,5183.8,-0.00014005,311.11,-0.00018146,-0.049339,0.089322
7088,4.0207,5.0909,0.1,0.00050782,5074.7,0.00051175,5200,-0.00014564,260.62,-0.00018033,-0.068684,0.088452
7089,4.0207,5.2727,0.1,0.00051196,5116,0.00051518,5216.9,-0.00015144,208.16,-0.00017916,-0.10485,0.087486
7090,4.0207,5.4545,0.1,0.00051625,5158.9,0.0005187,5234.3,-0.00015741,154.28,-0.00017796,-0.12296,0.086421
7091,4.0207,5.6364,0.1,0.00052068,5203.2,0.00052229,5252,-0.00016349,99.298,-0.00017675,-0.37595,0.085252
7092,4.0207,5.8182,0.1,0.00052533,5249.7,0.00052604,5270.8,-0.00016973,43.114,-0.00017553,-0.51687,0.083976
7093,4.2034,0.18182,0.1,0.00051884,5184.8,0.00051951,5204.9,-0.00016777,40.947,-0.00017328,-0.44648,0.092067
7094,4.2034,0.36364,0.1,0.00051456,5142,0.00051606,5187.5,-0.00016203,92.62,-0.0001744,-0.34199,0.093357
7095,4.2034,0.54545,0.1,0.00051045,5101,0.00051274,5171.1,-0.00015643,143.24,-0.0001755,-0.11135,0.09454
7096,4.2034,0.72727,0.1,0.00050648,5061.3,0.00050948,5154.9,-0.00015093,192.79,-0.0001766,-0.095602,0.09562
7097,4.2034,0.90909,0.1,0.00050265,5023,0.00050631,5139.1,-0.00014559,241.01,-0.00017767,-0.062761,0.096601
7098,4.2034,1.0909,0.1,0.000499,4986.5,0.00050326,5124,-0.00014045,287.4,-0.0001787,-0.045219,0.097487
7099,4.2034,1.2727,0.1,0.00049556,4952.2,0.00050037,5109.6,-0.00013556,331.49,-0.00017968,-0.030101,0.098279
7100,4.2034,1.4545,0.1,0.00049237,4920.3,0.00049765,5096.1,-0.00013098,372.81,-0.0001806,-0.018327,0.098983
7101,4.2034,1.6364,0.1,0.00048946,4891.2,0.00049515,5083.7,-0.00012676,410.88,-0.00018145,-0.0085559,0.0996
7102,4.2034,1.8182,0.1,0.00048685,4865.2,0.0004929,5072.5,-0.00012295,445.26,-0.00018221,-0.00051515,0.10013
7103,4.2034,2,0.1,0.00048458,4842.4,0.00049091,5062.6,-0.0001196,475.55,-0.00018289,0.0060888,0.10059
7104,4.2034,2.1818,0.1,0.00048265,4823.1,0.00048922,5054.2,-0.00011673,501.37,-0.00018346,0.01141,0.10096
7105,4.2034,2.3636,0.1,0.00048108,4807.5,0.00048784,5047.4,-0.0001144,522.42,-0.00018393,0.01556,0.10126
7106,4.2034,2.5455,0.1,0.0004799,4795.7,0.00048679,5042.2,-0.00011263,538.44,-0.00018429,0.018611,0.10148
7107,4.2034,2.7273,0.1,0.00047911,4787.8,0.00048608,5038.7,-0.00011143,549.23,-0.00018453,0.020619,0.10163
7108,4.2034,2.9091,0.1,0.00047871,4783.8,0.00048573,5037,-0.00011083,554.66,-0.00018465,0.021616,0.1017
7109,4.2034,3.0909,0.1,0.00047871,4783.8,0.00048573,5037,-0.00011083,554.66,-0.00018465,0.021616,0.1017
7110,4.2034,3.2727,0.1,0.00047911,4787.8,0.00048608,5038.7,-0.00011143,549.23,-0.00018453,0.02062,0.10163
7111,4.2034,3.4545,0.1,0.0004799,4795.7,0.00048679,5042.2,-0.00011263,538.44,-0.00018429,0.018612,0.10148
7112,4.2034,3.6364,0.1,0.00048108,4807.5,0.00048784,5047.4,-0.0001144,522.42,-0.00018393,0.01556,0.10126
7113,4.2034,3.8182,0.1,0.00048265,4823.1,0.00048922,5054.2,-0.00011673,501.37,-0.00018346,0.011411,0.10096
7114,4.2034,4,0.1,0.00048458,4842.4,0.00049091,5062.6,-0.0001196,475.55,-0.00018289,0.0060892,0.10059
7115,4.2034,4.1818,0.1,0.00048685,4865.2,0.0004929,5072.5,-0.00012295,445.26,-0.00018221,-0.00051471,0.10013
7116,4.2034,4.3636,0.1,0.00048946,4891.2,0.00049515,5083.7,-0.00012676,410.88,-0.00018145,-0.0085553,0.0996
7117,4.2034,4.5455,0.1,0.00049237,4920.3,0.00049765,5096.1,-0.00013098,372.81,-0.0001806,-0.018327,0.098983
7118,4.2034,4.7273,0.1,0.00049556,4952.2,0.00050037,5109.6,-0.00013556,331.49,-0.00017968,-0.0301,0.098279
7119,4.2034,4.9091,0.1,0.000499,4986.5,0.00050326,5124,-0.00014045,287.4,-0.0001787,-0.045218,0.097487
7120,4.2034,5.0909,0.1,0.00050265,5023,0.00050631,5139.1,-0.00014559,241.01,-0.00017767,-0.06276,0.096601
7121,4.2034,5.2727,0.1,0.00050648,5061.3,0.00050948,5154.9,-0.00015093,192.79,-0.0001766,-0.095601,0.09562
7122,4.2034,5.4545,0.1,0.00051045,5101,0.00051274,5171.1,-0.00015643,143.24,-0.0001755,-0.11135,0.09454
7123,4.2034,5.6364,0.1,0.00051456,5142,0.00051606,5187.5,-0.00016203,92.62,-0.0001744,-0.34198,0.093357
7124,4.2034,5.8182,0.1,0.00051884,5184.8,0.00051951,5204.9,-0.00016777,40.947,-0.00017328,-0.44648,0.092067
7125,4.3862,0.18182,0.1,0.0005124,5120.5,0.00051304,5139.5,-0.00016584,38.646,-0.00017104,-0.38776,0.1005
7126,4.3862,0.36364,0.1,0.00050846,5081.1,0.00050987,5123.5,-0.00016056,86.141,-0.00017207,-0.31113,0.10181
7127,4.3862,0.54545,0.1,0.00050467,5043.3,0.0005068,5108.2,-0.00015541,132.7,-0.00017308,-0.10099,0.103
7128,4.3862,0.72727,0.1,0.000501,5006.5,0.00050379,5093.2,-0.00015035,178.27,-0.00017409,-0.08729,0.10409
7129,4.3862,0.90909,0.1,0.00049745,4971.1,0.00050086,5078.6,-0.00014543,222.58,-0.00017507,-0.057483,0.10509
7130,4.3862,1.0909,0.1,0.00049407,4937.3,0.00049804,5064.5,-0.0001407,265.2,-0.00017601,-0.041577,0.10599
7131,4.3862,1.2727,0.1,0.00049088,4905.4,0.00049536,5051.1,-0.00013621,305.71,-0.0001769,-0.027789,0.10679
7132,4.3862,1.4545,0.1,0.00048792,4875.8,0.00049285,5038.5,-0.00013199,343.67,-0.00017774,-0.016998,0.10751
7133,4.3862,1.6364,0.1,0.00048521,4848.7,0.00049054,5026.9,-0.00012811,378.66,-0.00017851,-0.0079865,0.10814
7134,4.3862,1.8182,0.1,0.00048278,4824.4,0.00048845,5016.5,-0.0001246,410.26,-0.00017921,-0.00052174,0.10868
7135,4.3862,2,0.1,0.00048065,4803.2,0.0004866,5007.2,-0.00012151,438.12,-0.00017982,0.0056509,0.10914
7136,4.3862,2.1818,0.1,0.00047885,4785.2,0.00048503,4999.4,-0.00011887,461.88,-0.00018034,0.010658,0.10953
7137,4.3862,2.3636,0.1,0.00047739,4770.6,0.00048375,4993,-0.00011672,481.25,-0.00018077,0.014586,0.10983
7138,4.3862,2.5455,0.1,0.00047628,4759.5,0.00048277,4988.1,-0.00011509,496,-0.0001811,0.01749,0.11006
7139,4.3862,2.7273,0.1,0.00047553,4752,0.00048211,4984.8,-0.00011398,505.94,-0.00018132,0.019408,0.11021
7140,4.3862,2.9091,0.1,0.00047516,4748.3,0.00048178,4983.1,-0.00011343,510.94,-0.00018143,0.020362,0.11028
7141,4.3862,3.0909,0.1,0.00047516,4748.3,0.00048178,4983.1,-0.00011343,510.94,-0.00018143,0.020362,0.11028
7142,4.3862,3.2727,0.1,0.00047553,4752,0.00048211,4984.8,-0.00011398,505.94,-0.00018132,0.019408,0.11021
7143,4.3862,3.4545,0.1,0.00047628,4759.5,0.00048277,4988.1,-0.00011509,496,-0.0001811,0.01749,0.11006
7144,4.3862,3.6364,0.1,0.00047739,4770.6,0.00048375,4993,-0.00011672,481.25,-0.00018077,0.014586,0.10983
7145,4.3862,3.8182,0.1,0.00047885,4785.2,0.00048503,4999.4,-0.00011887,461.88,-0.00018034,0.010659,0.10953
7146,4.3862,4,0.1,0.00048065,4803.2,0.0004866,5007.2,-0.00012151,438.12,-0.00017982,0.0056514,0.10914
7147,4.3862,4.1818,0.1,0.00048278,4824.4,0.00048845,5016.5,-0.0001246,410.26,-0.00017921,-0.00052113,0.10868
7148,4.3862,4.3636,0.1,0.00048521,4848.7,0.00049054,5026.9,-0.00012811,378.66,-0.00017851,-0.007986,0.10814
7149,4.3862,4.5455,0.1,0.00048792,4875.8,0.00049285,5038.5,-0.00013199,343.67,-0.00017774,-0.016997,0.10751
7150,4.3862,4.7273,0.1,0.00049088,4905.4,0.00049536,5051.1,-0.00013621,305.71,-0.0001769,-0.027789,0.10679
7151,4.3862,4.9091,0.1,0.00049407,4937.3,0.00049804,5064.5,-0.0001407,265.2,-0.00017601,-0.041576,0.10599
7152,4.3862,5.0909,0.1,0.00049745,4971.1,0.00050086,5078.6,-0.00014543,222.58,-0.00017507,-0.057482,0.10509
7153,4.3862,5.2727,0.1,0.000501,5006.5,0.00050379,5093.2,-0.00015035,178.27,-0.00017409,-0.087289,0.10409
7154,4.3862,5.4545,0.1,0.00050467,5043.3,0.0005068,5108.2,-0.00015541,132.7,-0.00017308,-0.10099,0.103
7155,4.3862,5.6364,0.1,0.00050846,5081.1,0.00050987,5123.5,-0.00016056,86.141,-0.00017207,-0.31113,0.10181
7156,4.3862,5.8182,0.1,0.0005124,5120.5,0.00051304,5139.5,-0.00016584,38.646,-0.00017104,-0.38775,0.1005
7157,4.569,0.18182,0.1,0.00050603,5056.8,0.00050663,5074.6,-0.00016394,36.248,-0.00016881,-0.33838,0.10929
7158,4.569,0.36364,0.1,0.00050241,5020.6,0.00050371,5059.9,-0.00015909,79.862,-0.00016976,-0.283,0.1106
7159,4.569,0.54545,0.1,0.00049891,4985.7,0.00050088,5045.8,-0.00015435,122.66,-0.00017069,-0.091719,0.1118
7160,4.569,0.72727,0.1,0.00049552,4951.7,0.00049811,5031.9,-0.0001497,164.53,-0.00017161,-0.079811,0.11291
7161,4.569,0.90909,0.1,0.00049224,4919,0.00049541,5018.4,-0.00014518,205.24,-0.0001725,-0.052784,0.11391
7162,4.569,1.0909,0.1,0.00048911,4887.7,0.00049281,5005.3,-0.00014083,244.4,-0.00017336,-0.038367,0.11482
7163,4.569,1.2727,0.1,0.00048616,4858.2,0.00049034,4992.9,-0.0001367,281.62,-0.00017418,-0.025795,0.11564
7164,4.569,1.4545,0.1,0.00048341,4830.8,0.00048802,4981.3,-0.00013282,316.51,-0.00017495,-0.015902,0.11636
7165,4.569,1.6364,0.1,0.0004809,4805.7,0.00048588,4970.5,-0.00012925,348.68,-0.00017565,-0.0075896,0.117
7166,4.569,1.8182,0.1,0.00047864,4783.1,0.00048394,4960.8,-0.00012602,377.76,-0.00017629,-0.00065776,0.11755
7167,4.569,2,0.1,0.00047666,4763.3,0.00048224,4952.2,-0.00012317,403.39,-0.00017686,0.0051119,0.11803
7168,4.569,2.1818,0.1,0.00047498,4746.5,0.00048078,4944.8,-0.00012074,425.27,-0.00017734,0.009822,0.11841
7169,4.569,2.3636,0.1,0.00047361,4732.9,0.00047959,4938.9,-0.00011875,443.12,-0.00017773,0.013538,0.11872
7170,4.569,2.5455,0.1,0.00047258,4722.5,0.00047869,4934.3,-0.00011724,456.71,-0.00017802,0.016297,0.11895
7171,4.569,2.7273,0.1,0.00047188,4715.6,0.00047808,4931.2,-0.00011622,465.87,-0.00017823,0.018127,0.11911
7172,4.569,2.9091,0.1,0.00047153,4712.1,0.00047777,4929.7,-0.00011571,470.48,-0.00017833,0.019039,0.11918
7173,4.569,3.0909,0.1,0.00047153,4712.1,0.00047777,4929.7,-0.00011571,470.48,-0.00017833,0.019039,0.11918
7174,4.569,3.2727,0.1,0.00047188,4715.6,0.00047808,4931.2,-0.00011622,465.87,-0.00017823,0.018127,0.11911
7175,4.569,3.4545,0.1,0.00047258,4722.5,0.00047869,4934.3,-0.00011724,456.71,-0.00017802,0.016298,0.11895
7176,4.569,3.6364,0.1,0.00047361,4732.9,0.00047959,4938.9,-0.00011875,443.12,-0.00017773,0.013538,0.11872
7177,4.569,3.8182,0.1,0.00047498,4746.5,0.00048078,4944.8,-0.00012074,425.27,-0.00017734,0.0098223,0.11841
7178,4.569,4,0.1,0.00047666,4763.3,0.00048224,4952.2,-0.00012317,403.39,-0.00017686,0.0051123,0.11803
7179,4.569,4.1818,0.1,0.00047864,4783.1,0.00048394,4960.8,-0.00012602,377.76,-0.00017629,-0.00065737,0.11755
7180,4.569,4.3636,0.1,0.0004809,4805.7,0.00048588,4970.5,-0.00012925,348.68,-0.00017565,-0.0075888,0.117
7181,4.569,4.5455,0.1,0.00048341,4830.8,0.00048802,4981.3,-0.00013282,316.51,-0.00017495,-0.015902,0.11636
7182,4.569,4.7273,0.1,0.00048616,4858.2,0.00049034,4992.9,-0.0001367,281.62,-0.00017418,-0.025794,0.11564
7183,4.569,4.9091,0.1,0.00048911,4887.7,0.00049281,5005.3,-0.00014083,244.4,-0.00017336,-0.038366,0.11482
7184,4.569,5.0909,0.1,0.00049224,4919,0.00049541,5018.4,-0.00014518,205.24,-0.0001725,-0.052782,0.11391
7185,4.569,5.2727,0.1,0.00049552,4951.7,0.00049811,5031.9,-0.0001497,164.53,-0.00017161,-0.07981,0.11291
7186,4.569,5.4545,0.1,0.00049891,4985.7,0.00050088,5045.8,-0.00015435,122.66,-0.00017069,-0.091719,0.1118
7187,4.569,5.6364,0.1,0.00050241,5020.6,0.00050371,5059.9,-0.00015909,79.862,-0.00016976,-0.283,0.1106
7188,4.569,5.8182,0.1,0.00050603,5056.8,0.00050663,5074.6,-0.00016394,36.248,-0.00016881,-0.33838,0.10929
7189,4.7517,0.18182,0.1,0.00049971,4993.6,0.00050027,5010.3,-0.00016206,33.783,-0.0001666,-0.29657,0.1184
7190,4.7517,0.36364,0.1,0.00049638,4960.4,0.00049759,4996.8,-0.00015762,73.781,-0.00016747,-0.25727,0.11972
7191,4.7517,0.54545,0.1,0.00049317,4928.3,0.00049499,4983.8,-0.00015326,113.07,-0.00016832,-0.083428,0.12094
7192,4.7517,0.72727,0.1,0.00049004,4897,0.00049244,4971,-0.00014899,151.51,-0.00016917,-0.073098,0.12205
7193,4.7517,0.90909,0.1,0.00048702,4866.8,0.00048996,4958.5,-0.00014484,188.89,-0.00016999,-0.048628,0.12306
7194,4.7517,1.0909,0.1,0.00048413,4838,0.00048757,4946.5,-0.00014084,224.86,-0.00017078,-0.035571,0.12398
7195,4.7517,1.2727,0.1,0.00048141,4810.7,0.00048529,4935,-0.00013704,259.08,-0.00017153,-0.024111,0.12481
7196,4.7517,1.4545,0.1,0.00047887,4785.3,0.00048315,4924.3,-0.00013348,291.16,-0.00017223,-0.015038,0.12554
7197,4.7517,1.6364,0.1,0.00047653,4762.1,0.00048118,4914.3,-0.00013019,320.77,-0.00017288,-0.0073624,0.12619
7198,4.7517,1.8182,0.1,0.00047444,4741.1,0.0004794,4905.3,-0.00012721,347.55,-0.00017346,-0.00091683,0.12675
7199,4.7517,2,0.1,0.0004726,4722.8,0.00047782,4897.4,-0.00012458,371.17,-0.00017398,0.0044847,0.12723
7200,4.7517,2.1818,0.1,0.00047104,4707.1,0.00047647,4890.6,-0.00012234,391.35,-0.00017442,0.0089225,0.12762
7201,4.7517,2.3636,0.1,0.00046977,4694.4,0.00047538,4885.1,-0.00012051,407.82,-0.00017478,0.012443,0.12794
7202,4.7517,2.5455,0.1,0.0004688,4684.8,0.00047454,4880.8,-0.00011911,420.36,-0.00017506,0.01507,0.12817
7203,4.7517,2.7273,0.1,0.00046816,4678.3,0.00047397,4878,-0.00011817,428.82,-0.00017524,0.016817,0.12833
7204,4.7517,2.9091,0.1,0.00046783,4675.1,0.00047369,4876.5,-0.0001177,433.08,-0.00017534,0.01769,0.12841
7205,4.7517,3.0909,0.1,0.00046783,4675.1,0.00047369,4876.5,-0.0001177,433.08,-0.00017534,0.01769,0.12841
7206,4.7517,3.2727,0.1,0.00046816,4678.3,0.00047397,4878,-0.00011817,428.82,-0.00017524,0.016817,0.12833
7207,4.7517,3.4545,0.1,0.0004688,4684.8,0.00047454,4880.8,-0.00011911,420.36,-0.00017506,0.01507,0.12817
7208,4.7517,3.6364,0.1,0.00046977,4694.4,0.00047538,4885.1,-0.00012051,407.82,-0.00017478,0.012443,0.12794
7209,4.7517,3.8182,0.1,0.00047104,4707.1,0.00047647,4890.6,-0.00012234,391.35,-0.00017442,0.0089228,0.12762
7210,4.7517,4,0.1,0.0004726,4722.8,0.00047782,4897.4,-0.00012458,371.17,-0.00017398,0.0044851,0.12723
7211,4.7517,4.1818,0.1,0.00047444,4741.1,0.0004794,4905.3,-0.00012721,347.55,-0.00017346,-0.00091635,0.12675
7212,4.7517,4.3636,0.1,0.00047653,4762.1,0.00048118,4914.3,-0.00013019,320.77,-0.00017288,-0.0073617,0.12619
7213,4.7517,4.5455,0.1,0.00047887,4785.3,0.00048315,4924.3,-0.00013348,291.16,-0.00017223,-0.015037,0.12554
7214,4.7517,4.7273,0.1,0.00048141,4810.7,0.00048529,4935,-0.00013704,259.08,-0.00017153,-0.024111,0.12481
7215,4.7517,4.9091,0.1,0.00048413,4838,0.00048757,4946.5,-0.00014084,224.86,-0.00017078,-0.03557,0.12398
7216,4.7517,5.0909,0.1,0.00048702,4866.8,0.00048996,4958.5,-0.00014484,188.89,-0.00016999,-0.048627,0.12306
7217,4.7517,5.2727,0.1,0.00049004,4897,0.00049244,4971,-0.00014899,151.51,-0.00016917,-0.073098,0.12205
7218,4.7517,5.4545,0.1,0.00049317,4928.3,0.00049499,4983.8,-0.00015326,113.07,-0.00016832,-0.083427,0.12094
7219,4.7517,5.6364,0.1,0.00049638,4960.4,0.00049759,4996.8,-0.00015762,73.781,-0.00016747,-0.25727,0.11972
7220,4.7517,5.8182,0.1,0.00049971,4993.6,0.00050027,5010.3,-0.00016206,33.783,-0.0001666,-0.29657,0.1184
7221,4.9345,0.18182,0.1,0.00049344,4931,0.00049396,4946.4,-0.00016021,31.275,-0.0001644,-0.26095,0.12786
7222,4.9345,0.36364,0.1,0.0004904,4900.6,0.00049151,4934.1,-0.00015613,67.89,-0.0001652,-0.23368,0.12918
7223,4.9345,0.54545,0.1,0.00048744,4871.1,0.00048913,4922.1,-0.00015214,103.9,-0.00016598,-0.076051,0.1304
7224,4.9345,0.72727,0.1,0.00048457,4842.4,0.00048679,4910.4,-0.00014823,139.15,-0.00016676,-0.067121,0.13152
7225,4.9345,0.90909,0.1,0.00048179,4814.6,0.00048451,4899,-0.00014442,173.45,-0.00016751,-0.045015,0.13254
7226,4.9345,1.0909,0.1,0.00047914,4788.1,0.00048231,4887.9,-0.00014075,206.49,-0.00016824,-0.033203,0.13347
7227,4.9345,1.2727,0.1,0.00047662,4762.9,0.00048022,4877.4,-0.00013725,237.95,-0.00016893,-0.02276,0.1343
7228,4.9345,1.4545,0.1,0.00047428,4739.5,0.00047826,4867.6,-0.00013397,267.48,-0.00016958,-0.014431,0.13505
7229,4.9345,1.6364,0.1,0.00047212,4718,0.00047645,4858.4,-0.00013094,294.76,-0.00017017,-0.0073302,0.1357
7230,4.9345,1.8182,0.1,0.00047018,4698.6,0.0004748,4850.2,-0.0001282,319.46,-0.00017072,-0.0013208,0.13627
7231,4.9345,2,0.1,0.00046848,4681.6,0.00047335,4842.9,-0.00012577,341.27,-0.00017119,0.0037527,0.13675
7232,4.9345,2.1818,0.1,0.00046703,4667.1,0.00047211,4836.6,-0.0001237,359.91,-0.0001716,0.0079493,0.13715
7233,4.9345,2.3636,0.1,0.00046585,4655.3,0.0004711,4831.5,-0.00012201,375.14,-0.00017194,0.011298,0.13747
7234,4.9345,2.5455,0.1,0.00046495,4646.3,0.00047032,4827.6,-0.00012072,386.75,-0.00017219,0.013808,0.13771
7235,4.9345,2.7273,0.1,0.00046435,4640.3,0.0004698,4825,-0.00011985,394.58,-0.00017236,0.015484,0.13787
7236,4.9345,2.9091,0.1,0.00046405,4637.3,0.00046954,4823.7,-0.00011941,398.52,-0.00017245,0.016324,0.13795
7237,4.9345,3.0909,0.1,0.00046405,4637.3,0.00046954,4823.7,-0.00011941,398.52,-0.00017245,0.016324,0.13795
7238,4.9345,3.2727,0.1,0.00046435,4640.3,0.0004698,4825,-0.00011985,394.58,-0.00017236,0.015485,0.13787
7239,4.9345,3.4545,0.1,0.00046495,4646.3,0.00047032,4827.6,-0.00012072,386.75,-0.00017219,0.013809,0.13771
7240,4.9345,3.6364,0.1,0.00046585,4655.3,0.0004711,4831.5,-0.00012201,375.14,-0.00017194,0.011298,0.13747
7241,4.9345,3.8182,0.1,0.00046703,4667.1,0.00047211,4836.6,-0.0001237,359.91,-0.0001716,0.0079496,0.13715
7242,4.9345,4,0.1,0.00046848,4681.6,0.00047335,4842.9,-0.00012577,341.27,-0.00017119,0.003753,0.13675
7243,4.9345,4.1818,0.1,0.00047018,4698.6,0.0004748,4850.2,-0.0001282,319.46,-0.00017072,-0.0013203,0.13627
7244,4.9345,4.3636,0.1,0.00047212,4718,0.00047645,4858.4,-0.00013094,294.76,-0.00017017,-0.0073297,0.1357
7245,4.9345,4.5455,0.1,0.00047428,4739.5,0.00047826,4867.6,-0.00013397,267.48,-0.00016958,-0.01443,0.13505
7246,4.9345,4.7273,0.1,0.00047662,4762.9,0.00048022,4877.4,-0.00013725,237.95,-0.00016893,-0.022759,0.1343
7247,4.9345,4.9091,0.1,0.00047914,4788.1,0.00048231,4887.9,-0.00014075,206.49,-0.00016824,-0.033203,0.13347
7248,4.9345,5.0909,0.1,0.00048179,4814.6,0.00048451,4899,-0.00014442,173.45,-0.00016751,-0.045014,0.13254
7249,4.9345,5.2727,0.1,0.00048457,4842.4,0.00048679,4910.4,-0.00014823,139.15,-0.00016676,-0.06712,0.13152
7250,4.9345,5.4545,0.1,0.00048744,4871.1,0.00048913,4922.1,-0.00015214,103.9,-0.00016598,-0.076051,0.1304
7251,4.9345,5.6364,0.1,0.0004904,4900.6,0.00049151,4934.1,-0.00015613,67.89,-0.0001652,-0.23367,0.12918
7252,4.9345,5.8182,0.1,0.00049344,4931,0.00049396,4946.4,-0.00016021,31.275,-0.0001644,-0.26094,0.12786
7253,5.1172,0.18182,0.1,0.00048722,4868.8,0.00048769,4883,-0.00015837,28.741,-0.00016222,-0.23034,0.13764
7254,5.1172,0.36364,0.1,0.00048444,4841,0.00048546,4871.7,-0.00015465,62.178,-0.00016295,-0.21193,0.13897
7255,5.1172,0.54545,0.1,0.00048174,4814,0.00048328,4860.8,-0.000151,95.105,-0.00016367,-0.069488,0.14019
7256,5.1172,0.72727,0.1,0.00047911,4787.8,0.00048114,4850.1,-0.00014742,127.38,-0.00016438,-0.061807,0.14132
7257,5.1172,0.90909,0.1,0.00047656,4762.3,0.00047906,4839.7,-0.00014393,158.83,-0.00016507,-0.0419,0.14234
7258,5.1172,1.0909,0.1,0.00047412,4737.9,0.00047706,4829.7,-0.00014056,189.18,-0.00016574,-0.031233,0.14328
7259,5.1172,1.2727,0.1,0.00047181,4714.9,0.00047514,4820.1,-0.00013735,218.11,-0.00016638,-0.021719,0.14412
7260,5.1172,1.4545,0.1,0.00046965,4693.3,0.00047334,4811.1,-0.00013433,245.32,-0.00016698,-0.014063,0.14487
7261,5.1172,1.6364,0.1,0.00046767,4673.4,0.00047168,4802.8,-0.00013153,270.49,-0.00016754,-0.0074755,0.14553
7262,5.1172,1.8182,0.1,0.00046588,4655.6,0.00047017,4795.3,-0.000129,293.32,-0.00016804,-0.0018495,0.1461
7263,5.1172,2,0.1,0.0004643,4639.8,0.00046884,4788.6,-0.00012676,313.5,-0.00016849,0.0029405,0.14659
7264,5.1172,2.1818,0.1,0.00046296,4626.4,0.0004677,4782.9,-0.00012484,330.78,-0.00016887,0.0069325,0.147
7265,5.1172,2.3636,0.1,0.00046187,4615.5,0.00046676,4778.2,-0.00012328,344.9,-0.00016918,0.010138,0.14732
7266,5.1172,2.5455,0.1,0.00046103,4607.2,0.00046605,4774.7,-0.00012208,355.68,-0.00016942,0.012554,0.14756
7267,5.1172,2.7273,0.1,0.00046047,4601.6,0.00046557,4772.3,-0.00012127,362.96,-0.00016958,0.014172,0.14772
7268,5.1172,2.9091,0.1,0.00046019,4598.7,0.00046533,4771.1,-0.00012087,366.62,-0.00016966,0.014985,0.1478
7269,5.1172,3.0909,0.1,0.00046019,4598.7,0.00046533,4771.1,-0.00012087,366.62,-0.00016966,0.014985,0.1478
7270,5.1172,3.2727,0.1,0.00046047,4601.6,0.00046557,4772.3,-0.00012127,362.96,-0.00016958,0.014172,0.14772
7271,5.1172,3.4545,0.1,0.00046103,4607.2,0.00046605,4774.7,-0.00012208,355.68,-0.00016942,0.012554,0.14756
7272,5.1172,3.6364,0.1,0.00046187,4615.5,0.00046676,4778.2,-0.00012328,344.9,-0.00016918,0.010139,0.14732
7273,5.1172,3.8182,0.1,0.00046296,4626.4,0.0004677,4782.9,-0.00012484,330.78,-0.00016887,0.0069329,0.147
7274,5.1172,4,0.1,0.0004643,4639.8,0.00046884,4788.6,-0.00012676,313.5,-0.00016849,0.0029409,0.14659
7275,5.1172,4.1818,0.1,0.00046588,4655.6,0.00047017,4795.3,-0.000129,293.32,-0.00016804,-0.0018489,0.1461
7276,5.1172,4.3636,0.1,0.00046767,4673.4,0.00047168,4802.8,-0.00013153,270.49,-0.00016754,-0.007475,0.14553
7277,5.1172,4.5455,0.1,0.00046965,4693.3,0.00047334,4811.1,-0.00013433,245.32,-0.00016698,-0.014062,0.14487
7278,5.1172,4.7273,0.1,0.00047181,4714.9,0.00047514,4820.1,-0.00013735,218.11,-0.00016638,-0.021719,0.14412
7279,5.1172,4.9091,0.1,0.00047412,4737.9,0.00047706,4829.7,-0.00014056,189.18,-0.00016574,-0.031232,0.14328
7280,5.1172,5.0909,0.1,0.00047656,4762.3,0.00047906,4839.7,-0.00014393,158.83,-0.00016507,-0.041899,0.14234
7281,5.1172,5.2727,0.1,0.00047911,4787.8,0.00048114,4850.1,-0.00014742,127.38,-0.00016438,-0.061806,0.14132
7282,5.1172,5.4545,0.1,0.00048174,4814,0.00048328,4860.8,-0.000151,95.105,-0.00016367,-0.069488,0.14019
7283,5.1172,5.6364,0.1,0.00048444,4841,0.00048546,4871.7,-0.00015465,62.178,-0.00016295,-0.21193,0.13897
7284,5.1172,5.8182,0.1,0.00048722,4868.8,0.00048769,4883,-0.00015837,28.741,-0.00016222,-0.23034,0.13764
7285,5.3,0.18182,0.1,0.00048103,4807,0.00048147,4819.9,-0.00015654,26.193,-0.00016005,-0.20383,0.14775
7286,5.3,0.36364,0.1,0.0004785,4781.7,0.00047944,4809.7,-0.00015316,56.627,-0.00016072,-0.1918,0.14908
7287,5.3,0.54545,0.1,0.00047604,4757.1,0.00047746,4799.8,-0.00014983,86.651,-0.00016137,-0.063678,0.15031
7288,5.3,0.72727,0.1,0.00047365,4733.2,0.00047551,4790.2,-0.00014656,116.14,-0.00016203,-0.057124,0.15143
7289,5.3,0.90909,0.1,0.00047132,4710,0.00047362,4780.8,-0.00014337,144.95,-0.00016266,-0.039276,0.15247
7290,5.3,1.0909,0.1,0.00046909,4687.7,0.00047179,4771.7,-0.00014028,172.8,-0.00016328,-0.029664,0.15341
7291,5.3,1.2727,0.1,0.00046698,4666.6,0.00047005,4763.1,-0.00013733,199.43,-0.00016388,-0.021002,0.15425
7292,5.3,1.4545,0.1,0.000465,4646.8,0.00046841,4755,-0.00013455,224.53,-0.00016444,-0.01395,0.15501
7293,5.3,1.6364,0.1,0.00046317,4628.5,0.00046689,4747.4,-0.00013198,247.81,-0.00016496,-0.0078132,0.15567
7294,5.3,1.8182,0.1,0.00046152,4612,0.00046551,4740.6,-0.00012963,268.96,-0.00016543,-0.002515,0.15625
7295,5.3,2,0.1,0.00046007,4597.5,0.00046429,4734.6,-0.00012756,287.71,-0.00016585,0.0020402,0.15674
7296,5.3,2.1818,0.1,0.00045883,4585.1,0.00046324,4729.5,-0.00012578,303.78,-0.00016621,0.0058693,0.15715
7297,5.3,2.3636,0.1,0.00045782,4575,0.00046238,4725.2,-0.00012433,316.93,-0.00016651,0.0089663,0.15748
7298,5.3,2.5455,0.1,0.00045705,4567.3,0.00046173,4722,-0.00012321,326.99,-0.00016673,0.011313,0.15772
7299,5.3,2.7273,0.1,0.00045653,4562.1,0.00046129,4719.9,-0.00012246,333.78,-0.00016688,0.012892,0.15788
7300,5.3,2.9091,0.1,0.00045627,4559.5,0.00046107,4718.8,-0.00012208,337.2,-0.00016696,0.013686,0.15796
7301,5.3,3.0909,0.1,0.00045627,4559.5,0.00046107,4718.8,-0.00012208,337.2,-0.00016696,0.013686,0.15796
7302,5.3,3.2727,0.1,0.00045653,4562.1,0.00046129,4719.9,-0.00012246,333.78,-0.00016688,0.012892,0.15788
7303,5.3,3.4545,0.1,0.00045705,4567.3,0.00046173,4722,-0.00012321,326.99,-0.00016673,0.011313,0.15772
7304,5.3,3.6364,0.1,0.00045782,4575,0.00046238,4725.2,-0.00012433,316.93,-0.00016651,0.0089667,0.15748
7305,5.3,3.8182,0.1,0.00045883,4585.1,0.00046324,4729.5,-0.00012578,303.78,-0.00016621,0.0058697,0.15715
7306,5.3,4,0.1,0.00046007,4597.5,0.00046429,4734.6,-0.00012756,287.71,-0.00016585,0.0020406,0.15674
7307,5.3,4.1818,0.1,0.00046152,4612,0.00046551,4740.6,-0.00012963,268.96,-0.00016543,-0.0025145,0.15625
7308,5.3,4.3636,0.1,0.00046317,4628.5,0.00046689,4747.4,-0.00013198,247.81,-0.00016496,-0.0078126,0.15567
7309,5.3,4.5455,0.1,0.000465,4646.8,0.00046841,4755,-0.00013455,224.53,-0.00016444,-0.013949,0.15501
7310,5.3,4.7273,0.1,0.00046698,4666.6,0.00047005,4763.1,-0.00013733,199.43,-0.00016388,-0.021001,0.15425
7311,5.3,4.9091,0.1,0.00046909,4687.7,0.00047179,4771.7,-0.00014028,172.8,-0.00016328,-0.029664,0.15341
7312,5.3,5.0909,0.1,0.00047132,4710,0.00047362,4780.8,-0.00014337,144.95,-0.00016266,-0.039274,0.15247
7313,5.3,5.2727,0.1,0.00047365,4733.2,0.00047551,4790.2,-0.00014656,116.14,-0.00016203,-0.057123,0.15143
7314,5.3,5.4545,0.1,0.00047604,4757.1,0.00047746,4799.8,-0.00014983,86.651,-0.00016137,-0.063678,0.15031
7315,5.3,5.6364,0.1,0.0004785,4781.7,0.00047944,4809.7,-0.00015316,56.627,-0.00016072,-0.1918,0.14908
7316,5.3,5.8182,0.1,0.00048103,4807,0.00048147,4819.9,-0.00015654,26.193,-0.00016005,-0.20383,0.14775
7317,5.4828,0.18182,0.1,0.00047487,4745.4,0.00047527,4757.1,-0.00015472,23.639,-0.00015789,-0.18068,0.15818
7318,5.4828,0.36364,0.1,0.00047258,4722.6,0.00047343,4747.9,-0.00015166,51.215,-0.0001585,-0.17309,0.15951
7319,5.4828,0.54545,0.1,0.00047036,4700.3,0.00047164,4739.1,-0.00014864,78.489,-0.00015909,-0.058601,0.16074
7320,5.4828,0.72727,0.1,0.00046819,4678.6,0.00046989,4730.4,-0.00014567,105.36,-0.0001597,-0.053075,0.16187
7321,5.4828,0.90909,0.1,0.00046608,4657.6,0.00046818,4722,-0.00014275,131.7,-0.00016029,-0.037171,0.16291
7322,5.4828,1.0909,0.1,0.00046405,4637.3,0.00046653,4713.9,-0.00013993,157.27,-0.00016086,-0.02854,0.16385
7323,5.4828,1.2727,0.1,0.00046212,4618.1,0.00046495,4706.3,-0.00013722,181.79,-0.00016142,-0.020656,0.1647
7324,5.4828,1.4545,0.1,0.00046031,4600,0.00046346,4699,-0.00013466,204.99,-0.00016195,-0.014141,0.16546
7325,5.4828,1.6364,0.1,0.00045864,4583.3,0.00046208,4692.3,-0.00013228,226.57,-0.00016244,-0.0083931,0.16613
7326,5.4828,1.8182,0.1,0.00045713,4568.1,0.00046082,4686.3,-0.00013011,246.25,-0.00016289,-0.0033639,0.16671
7327,5.4828,2,0.1,0.00045579,4554.8,0.0004597,4680.9,-0.00012819,263.72,-0.00016329,0.0010104,0.1672
7328,5.4828,2.1818,0.1,0.00045465,4543.3,0.00045875,4676.3,-0.00012653,278.74,-0.00016363,0.004724,0.16762
7329,5.4828,2.3636,0.1,0.00045371,4534,0.00045796,4672.5,-0.00012517,291.07,-0.00016391,0.0077522,0.16794
7330,5.4828,2.5455,0.1,0.000453,4526.9,0.00045736,4669.7,-0.00012414,300.49,-0.00016413,0.010061,0.16819
7331,5.4828,2.7273,0.1,0.00045252,4522.1,0.00045696,4667.7,-0.00012343,306.87,-0.00016427,0.011621,0.16835
7332,5.4828,2.9091,0.1,0.00045228,4519.7,0.00045676,4666.7,-0.00012308,310.08,-0.00016435,0.012408,0.16843
7333,5.4828,3.0909,0.1,0.00045228,4519.7,0.00045676,4666.7,-0.00012308,310.08,-0.00016435,0.012408,0.16843
7334,5.4828,3.2727,0.1,0.00045252,4522.1,0.00045696,4667.7,-0.00012343,306.87,-0.00016427,0.011621,0.16835
7335,5.4828,3.4545,0.1,0.000453,4526.9,0.00045736,4669.7,-0.00012414,300.49,-0.00016413,0.010061,0.16819
7336,5.4828,3.6364,0.1,0.00045371,4534,0.00045796,4672.5,-0.00012517,291.07,-0.00016391,0.0077525,0.16794
7337,5.4828,3.8182,0.1,0.00045465,4543.3,0.00045875,4676.3,-0.00012653,278.74,-0.00016363,0.0047244,0.16762
7338,5.4828,4,0.1,0.00045579,4554.8,0.0004597,4680.9,-0.00012819,263.72,-0.00016329,0.0010108,0.1672
7339,5.4828,4.1818,0.1,0.00045713,4568.1,0.00046082,4686.3,-0.00013011,246.25,-0.00016289,-0.0033634,0.16671
7340,5.4828,4.3636,0.1,0.00045864,4583.3,0.00046208,4692.3,-0.00013228,226.57,-0.00016244,-0.0083926,0.16613
7341,5.4828,4.5455,0.1,0.00046031,4600,0.00046346,4699,-0.00013466,204.99,-0.00016195,-0.014141,0.16546
7342,5.4828,4.7273,0.1,0.00046212,4618.1,0.00046495,4706.3,-0.00013722,181.79,-0.00016142,-0.020656,0.1647
7343,5.4828,4.9091,0.1,0.00046405,4637.3,0.00046653,4713.9,-0.00013993,157.27,-0.00016086,-0.028539,0.16385
7344,5.4828,5.0909,0.1,0.00046608,4657.6,0.00046818,4722,-0.00014275,131.7,-0.00016029,-0.03717,0.16291
7345,5.4828,5.2727,0.1,0.00046819,4678.6,0.00046989,4730.4,-0.00014567,105.36,-0.0001597,-0.053074,0.16187
7346,5.4828,5.4545,0.1,0.00047036,4700.3,0.00047164,4739.1,-0.00014864,78.489,-0.00015909,-0.0586,0.16074
7347,5.4828,5.6364,0.1,0.00047258,4722.6,0.00047343,4747.9,-0.00015166,51.215,-0.0001585,-0.17309,0.15951
7348,5.4828,5.8182,0.1,0.00047487,4745.4,0.00047527,4757.1,-0.00015472,23.639,-0.00015789,-0.18068,0.15818
7349,5.6655,0.18182,0.1,0.00046873,4684.1,0.00046908,4694.5,-0.00015291,21.08,-0.00015574,-0.16021,0.16892
7350,5.6655,0.36364,0.1,0.00046668,4663.5,0.00046744,4686.2,-0.00015015,45.915,-0.00015628,-0.15558,0.17025
7351,5.6655,0.54545,0.1,0.00046468,4643.6,0.00046584,4678.4,-0.00014743,70.566,-0.00015683,-0.054206,0.17149
7352,5.6655,0.72727,0.1,0.00046273,4624.1,0.00046427,4670.8,-0.00014474,94.969,-0.00015738,-0.049634,0.17262
7353,5.6655,0.90909,0.1,0.00046083,4605.1,0.00046274,4663.4,-0.00014209,119.01,-0.00015793,-0.035584,0.17366
7354,5.6655,1.0909,0.1,0.000459,4586.8,0.00046126,4656.4,-0.00013951,142.46,-0.00015847,-0.027867,0.1746
7355,5.6655,1.2727,0.1,0.00045725,4569.4,0.00045984,4649.7,-0.00013703,165.07,-0.000159,-0.020697,0.17546
7356,5.6655,1.4545,0.1,0.00045561,4552.9,0.00045849,4643.3,-0.00013467,186.56,-0.0001595,-0.014655,0.17622
7357,5.6655,1.6364,0.1,0.00045408,4537.7,0.00045725,4637.5,-0.00013246,206.64,-0.00015997,-0.009231,0.17689
7358,5.6655,1.8182,0.1,0.0004527,4523.9,0.00045611,4632.2,-0.00013045,225.02,-0.0001604,-0.0044072,0.17747
7359,5.6655,2,0.1,0.00045148,4511.6,0.0004551,4627.5,-0.00012866,241.4,-0.00016078,-0.00015383,0.17797
7360,5.6655,2.1818,0.1,0.00045043,4501.1,0.00045423,4623.5,-0.00012711,255.53,-0.00016112,0.0034989,0.17839
7361,5.6655,2.3636,0.1,0.00044957,4492.6,0.00045351,4620.2,-0.00012584,267.15,-0.00016139,0.0065045,0.17872
7362,5.6655,2.5455,0.1,0.00044891,4486,0.00045297,4617.6,-0.00012486,276.05,-0.0001616,0.0088121,0.17896
7363,5.6655,2.7273,0.1,0.00044847,4481.6,0.0004526,4615.9,-0.0001242,282.08,-0.00016175,0.010379,0.17913
7364,5.6655,2.9091,0.1,0.00044824,4479.3,0.00045241,4615.1,-0.00012387,285.13,-0.00016182,0.011172,0.17921
7365,5.6655,3.0909,0.1,0.00044824,4479.3,0.00045241,4615.1,-0.00012387,285.13,-0.00016182,0.011172,0.17921
7366,5.6655,3.2727,0.1,0.00044847,4481.6,0.0004526,4615.9,-0.0001242,282.08,-0.00016175,0.01038,0.17913
7367,5.6655,3.4545,0.1,0.00044891,4486,0.00045297,4617.6,-0.00012486,276.05,-0.0001616,0.0088123,0.17896
7368,5.6655,3.6364,0.1,0.00044957,4492.6,0.00045351,4620.2,-0.00012584,267.15,-0.00016139,0.0065048,0.17872
7369,5.6655,3.8182,0.1,0.00045043,4501.1,0.00045423,4623.5,-0.00012711,255.53,-0.00016112,0.0034991,0.17839
7370,5.6655,4,0.1,0.00045148,4511.6,0.0004551,4627.5,-0.00012866,241.4,-0.00016078,-0.00015341,0.17797
7371,5.6655,4.1818,0.1,0.0004527,4523.9,0.00045611,4632.2,-0.00013045,225.02,-0.0001604,-0.0044066,0.17747
7372,5.6655,4.3636,0.1,0.00045408,4537.7,0.00045725,4637.5,-0.00013246,206.64,-0.00015997,-0.0092302,0.17689
7373,5.6655,4.5455,0.1,0.00045561,4552.9,0.00045849,4643.3,-0.00013467,186.56,-0.0001595,-0.014655,0.17622
7374,5.6655,4.7273,0.1,0.00045725,4569.4,0.00045984,4649.7,-0.00013703,165.07,-0.000159,-0.020696,0.17546
7375,5.6655,4.9091,0.1,0.000459,4586.8,0.00046126,4656.4,-0.00013951,142.46,-0.00015847,-0.027866,0.1746
7376,5.6655,5.0909,0.1,0.00046083,4605.1,0.00046274,4663.4,-0.00014209,119.01,-0.00015793,-0.035583,0.17366
7377,5.6655,5.2727,0.1,0.00046273,4624.1,0.00046427,4670.8,-0.00014474,94.969,-0.00015738,-0.049633,0.17262
7378,5.6655,5.4545,0.1,0.00046468,4643.6,0.00046584,4678.4,-0.00014743,70.566,-0.00015683,-0.054205,0.17149
7379,5.6655,5.6364,0.1,0.00046668,4663.5,0.00046744,4686.2,-0.00015015,45.915,-0.00015628,-0.15558,0.17025
7380,5.6655,5.8182,0.1,0.00046873,4684.1,0.00046908,4694.5,-0.00015291,21.08,-0.00015574,-0.16021,0.16892
7381,5.8483,0.18182,0.1,0.00046259,4622.7,0.0004629,4631.9,-0.0001511,18.515,-0.00015358,-0.14188,0.17998
7382,5.8483,0.36364,0.1,0.00046076,4604.5,0.00046144,4624.6,-0.00014864,40.692,-0.00015408,-0.13908,0.18131
7383,5.8483,0.54545,0.1,0.00045899,4586.8,0.00046003,4617.8,-0.00014621,62.822,-0.00015457,-0.050486,0.18255
7384,5.8483,0.72727,0.1,0.00045726,4569.4,0.00045864,4611.3,-0.00014378,84.879,-0.00015508,-0.046817,0.18368
7385,5.8483,0.90909,0.1,0.00045557,4552.6,0.00045729,4605,-0.00014138,106.76,-0.0001556,-0.034559,0.18472
7386,5.8483,1.0909,0.1,0.00045393,4536.2,0.00045598,4599,-0.00013903,128.26,-0.00015611,-0.027704,0.18567
7387,5.8483,1.2727,0.1,0.00045237,4520.5,0.00045472,4593.2,-0.00013676,149.13,-0.00015661,-0.021189,0.18652
7388,5.8483,1.4545,0.1,0.00045088,4505.7,0.00045352,4587.9,-0.00013458,169.1,-0.00015709,-0.015556,0.18728
7389,5.8483,1.6364,0.1,0.00044951,4492,0.00045241,4582.9,-0.00013254,187.87,-0.00015755,-0.010386,0.18796
7390,5.8483,1.8182,0.1,0.00044825,4479.4,0.00045139,4578.4,-0.00013066,205.13,-0.00015797,-0.0056985,0.18855
7391,5.8483,2,0.1,0.00044713,4468.2,0.00045048,4574.4,-0.00012899,220.6,-0.00015835,-0.0014975,0.18905
7392,5.8483,2.1818,0.1,0.00044617,4458.6,0.00044969,4571,-0.00012753,233.99,-0.00015867,0.002158,0.18946
7393,5.8483,2.3636,0.1,0.00044538,4450.8,0.00044905,4568.2,-0.00012634,245.03,-0.00015895,0.0051971,0.18979
7394,5.8483,2.5455,0.1,0.00044478,4444.7,0.00044855,4566.1,-0.00012541,253.52,-0.00015916,0.0075483,0.19004
7395,5.8483,2.7273,0.1,0.00044437,4440.7,0.00044821,4564.6,-0.00012479,259.28,-0.0001593,0.009154,0.19021
7396,5.8483,2.9091,0.1,0.00044417,4438.6,0.00044805,4563.9,-0.00012448,262.19,-0.00015937,0.0099686,0.19029
7397,5.8483,3.0909,0.1,0.00044417,4438.6,0.00044805,4563.9,-0.00012448,262.19,-0.00015937,0.0099688,0.19029
7398,5.8483,3.2727,0.1,0.00044437,4440.7,0.00044821,4564.6,-0.00012479,259.28,-0.0001593,0.0091539,0.19021
7399,5.8483,3.4545,0.1,0.00044478,4444.7,0.00044855,4566.1,-0.00012541,253.52,-0.00015916,0.0075486,0.19004
7400,5.8483,3.6364,0.1,0.00044538,4450.8,0.00044905,4568.2,-0.00012634,245.03,-0.00015895,0.0051974,0.18979
7401,5.8483,3.8182,0.1,0.00044617,4458.6,0.00044969,4571,-0.00012753,233.99,-0.00015867,0.0021585,0.18946
7402,5.8483,4,0.1,0.00044713,4468.2,0.00045048,4574.4,-0.00012899,220.6,-0.00015835,-0.0014971,0.18905
7403,5.8483,4.1818,0.1,0.00044825,4479.4,0.00045139,4578.4,-0.00013066,205.13,-0.00015797,-0.005698,0.18855
7404,5.8483,4.3636,0.1,0.00044951,4492,0.00045241,4582.9,-0.00013254,187.87,-0.00015755,-0.010386,0.18796
7405,5.8483,4.5455,0.1,0.00045088,4505.7,0.00045352,4587.9,-0.00013458,169.1,-0.00015709,-0.015555,0.18728
7406,5.8483,4.7273,0.1,0.00045237,4520.5,0.00045472,4593.2,-0.00013676,149.13,-0.00015661,-0.021188,0.18652
7407,5.8483,4.9091,0.1,0.00045393,4536.2,0.00045598,4599,-0.00013903,128.26,-0.00015611,-0.027703,0.18567
7408,5.8483,5.0909,0.1,0.00045557,4552.6,0.00045729,4605,-0.00014138,106.76,-0.0001556,-0.034557,0.18472
7409,5.8483,5.2727,0.1,0.00045726,4569.4,0.00045864,4611.3,-0.00014378,84.879,-0.00015508,-0.046816,0.18368
7410,5.8483,5.4545,0.1,0.00045899,4586.8,0.00046003,4617.8,-0.00014621,62.822,-0.00015457,-0.050486,0.18255
7411,5.8483,5.6364,0.1,0.00046076,4604.5,0.00046144,4624.6,-0.00014864,40.692,-0.00015408,-0.13908,0.18131
7412,5.8483,5.8182,0.1,0.00046259,4622.7,0.0004629,4631.9,-0.0001511,18.515,-0.00015358,-0.14188,0.17998
7413,6.031,0.18182,0.1,0.00045643,4561.2,0.0004567,4569.1,-0.00014928,15.937,-0.00015142,-0.12523,0.19135
7414,6.031,0.36364,0.1,0.00045484,4545.3,0.00045543,4562.8,-0.00014712,35.508,-0.00015186,-0.12344,0.19268
7415,6.031,0.54545,0.1,0.0004533,4529.8,0.00045421,4557.1,-0.00014497,55.191,-0.00015232,-0.047491,0.19391
7416,6.031,0.72727,0.1,0.00045178,4514.7,0.00045301,4551.7,-0.0001428,75.003,-0.00015279,-0.0447,0.19505
7417,6.031,0.90909,0.1,0.0004503,4499.9,0.00045184,4546.5,-0.00014065,94.857,-0.00015328,-0.034201,0.19609
7418,6.031,1.0909,0.1,0.00044886,4485.5,0.00045069,4541.6,-0.00013851,114.55,-0.00015376,-0.028168,0.19703
7419,6.031,1.2727,0.1,0.00044747,4471.6,0.00044959,4537,-0.00013643,133.85,-0.00015425,-0.022254,0.19789
7420,6.031,1.4545,0.1,0.00044615,4458.4,0.00044854,4532.7,-0.00013442,152.47,-0.00015472,-0.016965,0.19865
7421,6.031,1.6364,0.1,0.00044491,4446.1,0.00044756,4528.7,-0.00013253,170.11,-0.00015517,-0.011975,0.19933
7422,6.031,1.8182,0.1,0.00044378,4434.7,0.00044666,4525,-0.00013077,186.46,-0.00015559,-0.0073419,0.19992
7423,6.031,2,0.1,0.00044277,4424.7,0.00044585,4521.8,-0.00012919,201.18,-0.00015597,-0.0031116,0.20042
7424,6.031,2.1818,0.1,0.0004419,4415.9,0.00044515,4519,-0.00012782,213.99,-0.0001563,0.00062417,0.20084
7425,6.031,2.3636,0.1,0.00044118,4408.8,0.00044457,4516.8,-0.00012668,224.6,-0.00015657,0.0037652,0.20117
7426,6.031,2.5455,0.1,0.00044063,4403.3,0.00044413,4515,-0.00012581,232.78,-0.00015679,0.0062154,0.20142
7427,6.031,2.7273,0.1,0.00044026,4399.5,0.00044383,4513.9,-0.00012521,238.34,-0.00015693,0.0078982,0.20158
7428,6.031,2.9091,0.1,0.00044007,4397.7,0.00044368,4513.3,-0.00012491,241.15,-0.000157,0.0087549,0.20167
7429,6.031,3.0909,0.1,0.00044007,4397.7,0.00044368,4513.3,-0.00012491,241.15,-0.000157,0.0087549,0.20167
7430,6.031,3.2727,0.1,0.00044026,4399.5,0.00044383,4513.9,-0.00012521,238.34,-0.00015693,0.0078983,0.20158
7431,6.031,3.4545,0.1,0.00044063,4403.3,0.00044413,4515,-0.00012581,232.78,-0.00015679,0.0062156,0.20142
7432,6.031,3.6364,0.1,0.00044118,4408.8,0.00044457,4516.8,-0.00012668,224.6,-0.00015657,0.0037653,0.20117
7433,6.031,3.8182,0.1,0.0004419,4415.9,0.00044515,4519,-0.00012782,213.99,-0.0001563,0.00062453,0.20084
7434,6.031,4,0.1,0.00044277,4424.7,0.00044585,4521.8,-0.00012919,201.18,-0.00015597,-0.0031111,0.20042
7435,6.031,4.1818,0.1,0.00044378,4434.7,0.00044666,4525,-0.00013077,186.46,-0.00015559,-0.0073412,0.19992
7436,6.031,4.3636,0.1,0.00044491,4446.1,0.00044756,4528.7,-0.00013253,170.11,-0.00015517,-0.011974,0.19933
7437,6.031,4.5455,0.1,0.00044615,4458.4,0.00044854,4532.7,-0.00013442,152.47,-0.00015472,-0.016964,0.19865
7438,6.031,4.7273,0.1,0.00044747,4471.6,0.00044959,4537,-0.00013643,133.85,-0.00015425,-0.022253,0.19789
7439,6.031,4.9091,0.1,0.00044886,4485.5,0.00045069,4541.6,-0.00013851,114.55,-0.00015376,-0.028168,0.19703
7440,6.031,5.0909,0.1,0.0004503,4499.9,0.00045184,4546.5,-0.00014065,94.857,-0.00015328,-0.034199,0.19609
7441,6.031,5.2727,0.1,0.00045178,4514.7,0.00045301,4551.7,-0.0001428,75.003,-0.00015279,-0.044699,0.19505
7442,6.031,5.4545,0.1,0.0004533,4529.8,0.00045421,4557.1,-0.00014497,55.191,-0.00015232,-0.04749,0.19391
7443,6.031,5.6364,0.1,0.00045484,4545.3,0.00045543,4562.8,-0.00014712,35.508,-0.00015186,-0.12344,0.19268
7444,6.031,5.8182,0.1,0.00045643,4561.2,0.0004567,4569.1,-0.00014928,15.937,-0.00015142,-0.12522,0.19135
7445,6.2138,0.18182,0.1,0.00045024,4499.3,0.00045047,4505.9,-0.00014746,13.334,-0.00014925,-0.10983,0.20303
7446,6.2138,0.36364,0.1,0.00044888,4485.7,0.00044939,4500.8,-0.00014559,30.316,-0.00014964,-0.1085,0.20435
7447,6.2138,0.54545,0.1,0.00044757,4472.6,0.00044836,4496.2,-0.00014371,47.6,-0.00015005,-0.045267,0.20558
7448,6.2138,0.72727,0.1,0.00044628,4459.7,0.00044735,4492,-0.00014181,65.245,-0.0001505,-0.043364,0.20672
7449,6.2138,0.90909,0.1,0.00044501,4447,0.00044637,4488,-0.00013988,83.179,-0.00015096,-0.034629,0.20775
7450,6.2138,1.0909,0.1,0.00044377,4434.6,0.0004454,4484.3,-0.00013796,101.21,-0.00015143,-0.029394,0.2087
7451,6.2138,1.2727,0.1,0.00044256,4422.5,0.00044446,4480.9,-0.00013605,119.1,-0.00015191,-0.024032,0.20956
7452,6.2138,1.4545,0.1,0.0004414,4411,0.00044357,4477.7,-0.0001342,136.55,-0.00015238,-0.019013,0.21032
7453,6.2138,1.6364,0.1,0.00044031,4400.1,0.00044272,4474.7,-0.00013243,153.25,-0.00015283,-0.014115,0.211
7454,6.2138,1.8182,0.1,0.00043931,4390.1,0.00044194,4472,-0.00013078,168.84,-0.00015326,-0.0094377,0.21159
7455,6.2138,2,0.1,0.00043841,4381.1,0.00044123,4469.7,-0.00012929,183,-0.00015365,-0.0050761,0.21209
7456,6.2138,2.1818,0.1,0.00043762,4373.2,0.00044062,4467.6,-0.00012798,195.39,-0.00015399,-0.0011618,0.21251
7457,6.2138,2.3636,0.1,0.00043698,4366.8,0.00044011,4466,-0.00012689,205.71,-0.00015427,0.0021691,0.21284
7458,6.2138,2.5455,0.1,0.00043648,4361.8,0.00043972,4464.7,-0.00012605,213.69,-0.00015449,0.00479,0.21309
7459,6.2138,2.7273,0.1,0.00043614,4358.4,0.00043945,4463.8,-0.00012548,219.13,-0.00015464,0.0066003,0.21326
7460,6.2138,2.9091,0.1,0.00043597,4356.7,0.00043932,4463.4,-0.00012519,221.89,-0.00015472,0.007525,0.21334
7461,6.2138,3.0909,0.1,0.00043597,4356.7,0.00043932,4463.4,-0.00012519,221.89,-0.00015472,0.0075251,0.21334
7462,6.2138,3.2727,0.1,0.00043614,4358.4,0.00043945,4463.8,-0.00012548,219.13,-0.00015464,0.0066005,0.21326
7463,6.2138,3.4545,0.1,0.00043648,4361.8,0.00043972,4464.7,-0.00012605,213.69,-0.00015449,0.0047901,0.21309
7464,6.2138,3.6364,0.1,0.00043698,4366.8,0.00044011,4466,-0.00012689,205.71,-0.00015427,0.0021692,0.21284
7465,6.2138,3.8182,0.1,0.00043762,4373.2,0.00044062,4467.6,-0.00012798,195.39,-0.00015399,-0.0011613,0.21251
7466,6.2138,4,0.1,0.00043841,4381.1,0.00044123,4469.7,-0.00012929,183,-0.00015365,-0.0050756,0.21209
7467,6.2138,4.1818,0.1,0.00043931,4390.1,0.00044194,4472,-0.00013078,168.84,-0.00015326,-0.0094373,0.21159
7468,6.2138,4.3636,0.1,0.00044031,4400.1,0.00044272,4474.7,-0.00013243,153.25,-0.00015283,-0.014114,0.211
7469,6.2138,4.5455,0.1,0.0004414,4411,0.00044357,4477.7,-0.0001342,136.55,-0.00015238,-0.019013,0.21032
7470,6.2138,4.7273,0.1,0.00044256,4422.5,0.00044446,4480.9,-0.00013605,119.1,-0.00015191,-0.024031,0.20956
7471,6.2138,4.9091,0.1,0.00044377,4434.6,0.0004454,4484.3,-0.00013796,101.21,-0.00015143,-0.029394,0.2087
7472,6.2138,5.0909,0.1,0.00044501,4447,0.00044637,4488,-0.00013988,83.179,-0.00015096,-0.034628,0.20775
7473,6.2138,5.2727,0.1,0.00044628,4459.7,0.00044735,4492,-0.00014181,65.245,-0.0001505,-0.043364,0.20672
7474,6.2138,5.4545,0.1,0.00044757,4472.6,0.00044836,4496.2,-0.00014371,47.6,-0.00015005,-0.045266,0.20558
7475,6.2138,5.6364,0.1,0.00044888,4485.7,0.00044939,4500.8,-0.00014559,30.316,-0.00014964,-0.1085,0.20435
7476,6.2138,5.8182,0.1,0.00045024,4499.3,0.00045047,4505.9,-0.00014746,13.334,-0.00014925,-0.10983,0.20303
7477,6.3966,0.18182,0.1,0.000444,4436.9,0.00044417,4442.2,-0.00014562,10.691,-0.00014706,-0.09539,0.21501
7478,6.3966,0.36364,0.1,0.00044288,4425.7,0.0004433,4438.2,-0.00014405,25.063,-0.0001474,-0.094162,0.21633
7479,6.3966,0.54545,0.1,0.00044181,4415,0.00044247,4434.8,-0.00014245,39.964,-0.00014777,-0.043974,0.21755
7480,6.3966,0.72727,0.1,0.00044075,4404.4,0.00044166,4431.9,-0.0001408,55.499,-0.00014819,-0.04302,0.21868
7481,6.3966,0.90909,0.1,0.0004397,4393.9,0.00044087,4429.3,-0.0001391,71.604,-0.00014864,-0.036098,0.21972
7482,6.3966,1.0909,0.1,0.00043866,4383.6,0.00044009,4426.9,-0.00013737,88.095,-0.0001491,-0.031652,0.22067
7483,6.3966,1.2727,0.1,0.00043764,4373.4,0.00043933,4424.8,-0.00013564,104.72,-0.00014958,-0.026788,0.22152
7484,6.3966,1.4545,0.1,0.00043666,4363.6,0.00043859,4422.9,-0.00013393,121.18,-0.00015006,-0.021953,0.22229
7485,6.3966,1.6364,0.1,0.00043572,4354.2,0.00043789,4421.1,-0.00013228,137.11,-0.00015053,-0.01703,0.22297
7486,6.3966,1.8182,0.1,0.00043485,4345.5,0.00043724,4419.5,-0.00013072,152.16,-0.00015097,-0.012177,0.22356
7487,6.3966,2,0.1,0.00043406,4337.6,0.00043664,4418.2,-0.00012929,165.94,-0.00015138,-0.007547,0.22406
7488,6.3966,2.1818,0.1,0.00043337,4330.7,0.00043612,4417,-0.00012804,178.08,-0.00015174,-0.0033214,0.22448
7489,6.3966,2.3636,0.1,0.00043279,4324.9,0.00043569,4416,-0.00012699,188.25,-0.00015204,0.00031744,0.22481
7490,6.3966,2.5455,0.1,0.00043235,4320.5,0.00043535,4415.2,-0.00012617,196.15,-0.00015228,0.0032051,0.22506
7491,6.3966,2.7273,0.1,0.00043204,4317.5,0.00043512,4414.7,-0.00012562,201.55,-0.00015244,0.0052108,0.22523
7492,6.3966,2.9091,0.1,0.00043189,4315.9,0.000435,4414.5,-0.00012533,204.3,-0.00015252,0.0062383,0.22531
7493,6.3966,3.0909,0.1,0.00043189,4315.9,0.000435,4414.5,-0.00012533,204.3,-0.00015252,0.0062383,0.22531
7494,6.3966,3.2727,0.1,0.00043204,4317.5,0.00043512,4414.7,-0.00012562,201.55,-0.00015244,0.0052107,0.22523
7495,6.3966,3.4545,0.1,0.00043235,4320.5,0.00043535,4415.2,-0.00012617,196.15,-0.00015228,0.0032054,0.22506
7496,6.3966,3.6364,0.1,0.00043279,4324.9,0.00043569,4416,-0.00012699,188.25,-0.00015204,0.00031762,0.22481
7497,6.3966,3.8182,0.1,0.00043337,4330.7,0.00043612,4417,-0.00012804,178.08,-0.00015174,-0.003321,0.22448
7498,6.3966,4,0.1,0.00043406,4337.6,0.00043664,4418.2,-0.00012929,165.94,-0.00015138,-0.0075465,0.22406
7499,6.3966,4.1818,0.1,0.00043485,4345.5,0.00043724,4419.5,-0.00013072,152.16,-0.00015097,-0.012177,0.22356
7500,6.3966,4.3636,0.1,0.00043572,4354.2,0.00043789,4421.1,-0.00013228,137.11,-0.00015053,-0.01703,0.22297
7501,6.3966,4.5455,0.1,0.00043666,4363.6,0.00043859,4422.9,-0.00013393,121.18,-0.00015006,-0.021952,0.22229
7502,6.3966,4.7273,0.1,0.00043764,4373.4,0.00043933,4424.8,-0.00013564,104.72,-0.00014958,-0.026788,0.22152
7503,6.3966,4.9091,0.1,0.00043866,4383.6,0.00044009,4426.9,-0.00013737,88.095,-0.0001491,-0.031651,0.22067
7504,6.3966,5.0909,0.1,0.0004397,4393.9,0.00044087,4429.3,-0.0001391,71.604,-0.00014864,-0.036097,0.21972
7505,6.3966,5.2727,0.1,0.00044075,4404.4,0.00044166,4431.9,-0.0001408,55.499,-0.00014819,-0.043019,0.21868
7506,6.3966,5.4545,0.1,0.00044181,4415,0.00044247,4434.8,-0.00014245,39.964,-0.00014777,-0.043973,0.21755
7507,6.3966,5.6364,0.1,0.00044288,4425.7,0.0004433,4438.2,-0.00014405,25.063,-0.0001474,-0.094161,0.21633
7508,6.3966,5.8182,0.1,0.000444,4436.9,0.00044417,4442.2,-0.00014562,10.691,-0.00014706,-0.095388,0.21501
7509,6.5793,0.18182,0.1,0.00043766,4373.6,0.00043779,4377.5,-0.00014376,7.9866,-0.00014483,-0.081805,0.22728
7510,6.5793,0.36364,0.1,0.0004368,4364.9,0.00043713,4374.7,-0.00014249,19.688,-0.00014512,-0.080484,0.22859
7511,6.5793,0.54545,0.1,0.00043598,4356.8,0.00043651,4372.7,-0.00014118,32.192,-0.00014547,-0.043992,0.22982
7512,6.5793,0.72727,0.1,0.00043516,4348.6,0.00043592,4371.3,-0.00013978,45.648,-0.00014586,-0.044127,0.23095
7513,6.5793,0.90909,0.1,0.00043435,4340.5,0.00043534,4370.2,-0.00013831,59.999,-0.0001463,-0.039125,0.23198
7514,6.5793,1.0909,0.1,0.00043353,4332.3,0.00043476,4369.4,-0.00013678,75.062,-0.00014677,-0.035461,0.23293
7515,6.5793,1.2727,0.1,0.00043272,4324.2,0.00043419,4368.7,-0.0001352,90.573,-0.00014726,-0.031021,0.23378
7516,6.5793,1.4545,0.1,0.00043192,4316.2,0.00043362,4368.3,-0.00013362,106.2,-0.00014776,-0.026234,0.23455
7517,6.5793,1.6364,0.1,0.00043114,4308.4,0.00043308,4367.9,-0.00013207,121.57,-0.00014826,-0.021115,0.23522
7518,6.5793,1.8182,0.1,0.00043041,4301.1,0.00043256,4367.6,-0.0001306,136.26,-0.00014873,-0.015892,0.23581
7519,6.5793,2,0.1,0.00042974,4294.4,0.00043209,4367.4,-0.00012923,149.85,-0.00014917,-0.010794,0.23632
7520,6.5793,2.1818,0.1,0.00042915,4288.5,0.00043167,4367.2,-0.00012801,161.92,-0.00014956,-0.0060669,0.23674
7521,6.5793,2.3636,0.1,0.00042865,4283.5,0.00043132,4367,-0.00012699,172.1,-0.00014989,-0.0019517,0.23707
7522,6.5793,2.5455,0.1,0.00042826,4279.7,0.00043104,4366.9,-0.00012619,180.05,-0.00015015,0.0013385,0.23732
7523,6.5793,2.7273,0.1,0.000428,4277,0.00043085,4366.8,-0.00012564,185.51,-0.00015033,0.0036339,0.23748
7524,6.5793,2.9091,0.1,0.00042787,4275.7,0.00043076,4366.7,-0.00012536,188.28,-0.00015042,0.0048133,0.23757
7525,6.5793,3.0909,0.1,0.00042787,4275.7,0.00043076,4366.7,-0.00012536,188.28,-0.00015042,0.0048136,0.23757
7526,6.5793,3.2727,0.1,0.000428,4277,0.00043085,4366.8,-0.00012564,185.51,-0.00015033,0.0036341,0.23748
7527,6.5793,3.4545,0.1,0.00042826,4279.7,0.00043104,4366.9,-0.00012619,180.05,-0.00015015,0.0013385,0.23732
7528,6.5793,3.6364,0.1,0.00042865,4283.5,0.00043132,4367,-0.00012699,172.1,-0.00014989,-0.0019514,0.23707
7529,6.5793,3.8182,0.1,0.00042915,4288.5,0.00043167,4367.2,-0.00012801,161.92,-0.00014956,-0.0060664,0.23674
7530,6.5793,4,0.1,0.00042974,4294.4,0.00043209,4367.4,-0.00012923,149.85,-0.00014917,-0.010793,0.23632
7531,6.5793,4.1818,0.1,0.00043041,4301.1,0.00043256,4367.6,-0.0001306,136.26,-0.00014873,-0.015891,0.23581
7532,6.5793,4.3636,0.1,0.00043114,4308.4,0.00043308,4367.9,-0.00013207,121.57,-0.00014826,-0.021114,0.23522
7533,6.5793,4.5455,0.1,0.00043192,4316.2,0.00043362,4368.3,-0.00013362,106.2,-0.00014776,-0.026234,0.23455
7534,6.5793,4.7273,0.1,0.00043272,4324.2,0.00043419,4368.7,-0.0001352,90.573,-0.00014726,-0.031021,0.23378
7535,6.5793,4.9091,0.1,0.00043353,4332.3,0.00043476,4369.3,-0.00013678,75.062,-0.00014677,-0.03546,0.23293
7536,6.5793,5.0909,0.1,0.00043435,4340.5,0.00043534,4370.2,-0.00013831,59.999,-0.0001463,-0.039123,0.23198
7537,6.5793,5.2727,0.1,0.00043516,4348.6,0.00043592,4371.3,-0.00013978,45.648,-0.00014586,-0.044127,0.23095
7538,6.5793,5.4545,0.1,0.00043598,4356.8,0.00043651,4372.7,-0.00014118,32.192,-0.00014547,-0.043992,0.22982
7539,6.5793,5.6364,0.1,0.0004368,4364.9,0.00043713,4374.7,-0.00014249,19.688,-0.00014512,-0.080483,0.22859
7540,6.5793,5.8182,0.1,0.00043766,4373.6,0.00043779,4377.5,-0.00014376,7.9866,-0.00014483,-0.081803,0.22728
7541,6.7621,0.18182,0.1,0.00043119,4309,0.00043128,4311.5,-0.00014186,5.1964,-0.00014256,-0.069611,0.23984
7542,6.7621,0.36364,0.1,0.00043061,4303.1,0.00043084,4310.1,-0.00014092,14.123,-0.0001428,-0.067924,0.24115
7543,6.7621,0.54545,0.1,0.00043006,4297.6,0.00043047,4309.7,-0.0001399,24.183,-0.00014312,-0.046226,0.24237
7544,6.7621,0.72727,0.1,0.00042951,4292.2,0.00043011,4309.8,-0.00013876,35.565,-0.0001435,-0.047706,0.2435
7545,6.7621,0.90909,0.1,0.00042896,4286.6,0.00042975,4310.5,-0.00013752,48.217,-0.00014394,-0.044758,0.24453
7546,6.7621,1.0909,0.1,0.00042838,4280.8,0.0004294,4311.4,-0.00013617,61.953,-0.00014443,-0.041815,0.24548
7547,6.7621,1.2727,0.1,0.00042778,4274.9,0.00042903,4312.6,-0.00013476,76.49,-0.00014494,-0.037621,0.24633
7548,6.7621,1.4545,0.1,0.00042718,4268.9,0.00042867,4313.9,-0.0001333,91.466,-0.00014548,-0.032623,0.2471
7549,6.7621,1.6364,0.1,0.00042659,4262.9,0.0004283,4315.2,-0.00013184,106.45,-0.00014602,-0.027002,0.24777
7550,6.7621,1.8182,0.1,0.00042601,4257.2,0.00042794,4316.4,-0.00013043,120.99,-0.00014654,-0.021088,0.24836
7551,6.7621,2,0.1,0.00042548,4251.8,0.00042761,4317.5,-0.00012911,134.6,-0.00014702,-0.015204,0.24886
7552,6.7621,2.1818,0.1,0.00042499,4247,0.0004273,4318.5,-0.00012792,146.8,-0.00014746,-0.0096844,0.24928
7553,6.7621,2.3636,0.1,0.00042458,4242.9,0.00042704,4319.3,-0.00012691,157.16,-0.00014783,-0.004841,0.24962
7554,6.7621,2.5455,0.1,0.00042426,4239.7,0.00042683,4319.9,-0.00012612,165.3,-0.00014811,-0.00094928,0.24987
7555,6.7621,2.7273,0.1,0.00042404,4237.5,0.00042669,4320.3,-0.00012557,170.9,-0.00014831,0.0017745,0.25003
7556,6.7621,2.9091,0.1,0.00042393,4236.4,0.00042662,4320.6,-0.00012529,173.75,-0.00014841,0.003176,0.25011
7557,6.7621,3.0909,0.1,0.00042393,4236.4,0.00042662,4320.6,-0.00012529,173.75,-0.00014841,0.0031759,0.25011
7558,6.7621,3.2727,0.1,0.00042404,4237.5,0.00042669,4320.3,-0.00012557,170.9,-0.00014831,0.0017745,0.25003
7559,6.7621,3.4545,0.1,0.00042426,4239.7,0.00042683,4319.9,-0.00012612,165.3,-0.00014811,-0.00094904,0.24987
7560,6.7621,3.6364,0.1,0.00042458,4242.9,0.00042704,4319.3,-0.00012691,157.16,-0.00014783,-0.0048407,0.24962
7561,6.7621,3.8182,0.1,0.00042499,4247,0.0004273,4318.5,-0.00012792,146.8,-0.00014746,-0.009684,0.24928
7562,6.7621,4,0.1,0.00042548,4251.8,0.00042761,4317.5,-0.00012911,134.6,-0.00014702,-0.015204,0.24886
7563,6.7621,4.1818,0.1,0.00042601,4257.2,0.00042794,4316.4,-0.00013043,120.99,-0.00014654,-0.021087,0.24836
7564,6.7621,4.3636,0.1,0.00042659,4262.9,0.0004283,4315.2,-0.00013184,106.45,-0.00014602,-0.027002,0.24777
7565,6.7621,4.5455,0.1,0.00042718,4268.9,0.00042867,4313.9,-0.0001333,91.466,-0.00014548,-0.032622,0.2471
7566,6.7621,4.7273,0.1,0.00042778,4274.9,0.00042903,4312.6,-0.00013476,76.49,-0.00014494,-0.03762,0.24633
7567,6.7621,4.9091,0.1,0.00042838,4280.8,0.0004294,4311.4,-0.00013617,61.953,-0.00014443,-0.041814,0.24548
7568,6.7621,5.0909,0.1,0.00042896,4286.6,0.00042975,4310.5,-0.00013752,48.217,-0.00014394,-0.044756,0.24453
7569,6.7621,5.2727,0.1,0.00042951,4292.2,0.00043011,4309.8,-0.00013876,35.565,-0.0001435,-0.047705,0.2435
7570,6.7621,5.4545,0.1,0.00043006,4297.6,0.00043047,4309.7,-0.0001399,24.183,-0.00014312,-0.046226,0.24237
7571,6.7621,5.6364,0.1,0.00043061,4303.1,0.00043084,4310.1,-0.00014092,14.123,-0.0001428,-0.067923,0.24115
7572,6.7621,5.8182,0.1,0.00043119,4309,0.00043128,4311.5,-0.00014186,5.1964,-0.00014256,-0.069609,0.23984
7573,6.9448,0.18182,0.1,0.00042456,4242.6,0.0004246,4243.8,-0.00013991,2.295,-0.00014022,-0.064049,0.2527
7574,6.9448,0.36364,0.1,0.00042427,4239.8,0.00042441,4243.9,-0.00013931,8.2913,-0.00014042,-0.058976,0.254
7575,6.9448,0.54545,0.1,0.00042402,4237.3,0.00042429,4245.2,-0.0001386,15.825,-0.00014072,-0.053692,0.25522
7576,6.9448,0.72727,0.1,0.00042377,4234.8,0.00042419,4247.3,-0.00013774,25.111,-0.00014109,-0.056709,0.25634
7577,6.9448,0.90909,0.1,0.0004235,4232,0.0004241,4249.9,-0.00013673,36.101,-0.00014154,-0.055669,0.25737
7578,6.9448,1.0909,0.1,0.00042319,4228.9,0.00042399,4253,-0.00013558,48.598,-0.00014206,-0.052992,0.25831
7579,6.9448,1.2727,0.1,0.00042284,4225.5,0.00042387,4256.3,-0.00013432,62.296,-0.00014262,-0.048459,0.25917
7580,6.9448,1.4545,0.1,0.00042247,4221.8,0.00042372,4259.6,-0.00013298,76.79,-0.00014321,-0.042614,0.25993
7581,6.9448,1.6364,0.1,0.00042208,4217.9,0.00042356,4262.9,-0.00013161,91.602,-0.0001438,-0.035856,0.26061
7582,6.9448,1.8182,0.1,0.00042168,4213.9,0.00042339,4266,-0.00013025,106.2,-0.00014438,-0.028645,0.2612
7583,6.9448,2,0.1,0.0004213,4210.1,0.00042321,4268.8,-0.00012895,120.04,-0.00014493,-0.021427,0.2617
7584,6.9448,2.1818,0.1,0.00042094,4206.5,0.00042304,4271.2,-0.00012778,132.58,-0.00014543,-0.014633,0.26211
7585,6.9448,2.3636,0.1,0.00042063,4203.4,0.00042289,4273.2,-0.00012677,143.31,-0.00014585,-0.0086636,0.26245
7586,6.9448,2.5455,0.1,0.00042039,4201,0.00042276,4274.8,-0.00012598,151.77,-0.00014618,-0.003864,0.2627
7587,6.9448,2.7273,0.1,0.00042021,4199.2,0.00042267,4275.8,-0.00012543,157.63,-0.00014641,-0.00050528,0.26286
7588,6.9448,2.9091,0.1,0.00042013,4198.4,0.00042263,4276.4,-0.00012514,160.62,-0.00014652,0.001223,0.26294
7589,6.9448,3.0909,0.1,0.00042013,4198.4,0.00042263,4276.4,-0.00012514,160.62,-0.00014652,0.001223,0.26294
7590,6.9448,3.2727,0.1,0.00042021,4199.2,0.00042267,4275.8,-0.00012543,157.63,-0.00014641,-0.00050511,0.26286
7591,6.9448,3.4545,0.1,0.00042039,4201,0.00042276,4274.8,-0.00012598,151.77,-0.00014618,-0.0038639,0.2627
7592,6.9448,3.6364,0.1,0.00042063,4203.4,0.00042289,4273.2,-0.00012677,143.31,-0.00014585,-0.0086634,0.26245
7593,6.9448,3.8182,0.1,0.00042094,4206.5,0.00042304,4271.2,-0.00012778,132.58,-0.00014543,-0.014633,0.26211
7594,6.9448,4,0.1,0.0004213,4210.1,0.00042321,4268.8,-0.00012895,120.04,-0.00014493,-0.021427,0.2617
7595,6.9448,4.1818,0.1,0.00042168,4213.9,0.00042339,4266,-0.00013025,106.2,-0.00014438,-0.028645,0.2612
7596,6.9448,4.3636,0.1,0.00042208,4217.9,0.00042356,4262.9,-0.00013161,91.602,-0.0001438,-0.035856,0.26061
7597,6.9448,4.5455,0.1,0.00042247,4221.8,0.00042372,4259.6,-0.00013298,76.79,-0.00014321,-0.042613,0.25993
7598,6.9448,4.7273,0.1,0.00042284,4225.5,0.00042387,4256.3,-0.00013432,62.296,-0.00014262,-0.048458,0.25917
7599,6.9448,4.9091,0.1,0.00042319,4228.9,0.00042399,4253,-0.00013558,48.598,-0.00014206,-0.052991,0.25831
7600,6.9448,5.0909,0.1,0.0004235,4232,0.0004241,4249.9,-0.00013673,36.101,-0.00014154,-0.055668,0.25737
7601,6.9448,5.2727,0.1,0.00042377,4234.8,0.00042419,4247.3,-0.00013774,25.111,-0.00014109,-0.056709,0.25634
7602,6.9448,5.4545,0.1,0.00042402,4237.3,0.00042429,4245.2,-0.0001386,15.825,-0.00014072,-0.053691,0.25522
7603,6.9448,5.6364,0.1,0.00042427,4239.8,0.00042441,4243.9,-0.00013931,8.2913,-0.00014042,-0.058974,0.254
7604,6.9448,5.8182,0.1,0.00042456,4242.6,0.0004246,4243.8,-0.00013991,2.295,-0.00014022,-0.064047,0.2527
7605,7.1276,0.18182,0.1,0.00041769,4174,0.00041768,4173.6,-0.0001378,0.019994,-0.00013791,-0.83846,0.26583
7606,7.1276,0.36364,0.1,0.00041774,4174.5,0.00041777,4175.5,-0.00013767,2.1435,-0.00013797,-0.088235,0.26713
7607,7.1276,0.54545,0.1,0.00041782,4175.4,0.00041794,4178.8,-0.00013729,7.0141,-0.00013824,-0.085516,0.26834
7608,7.1276,0.72727,0.1,0.0004179,4176.1,0.00041814,4183.2,-0.00013672,14.148,-0.00013862,-0.084114,0.26947
7609,7.1276,0.90909,0.1,0.00041795,4176.6,0.00041834,4188.2,-0.00013595,23.485,-0.00013909,-0.080949,0.2705
7610,7.1276,1.0909,0.1,0.00041795,4176.6,0.00041853,4193.8,-0.00013501,34.817,-0.00013965,-0.075418,0.27144
7611,7.1276,1.2727,0.1,0.00041789,4176,0.00041868,4199.7,-0.0001339,47.802,-0.00014027,-0.06811,0.27229
7612,7.1276,1.4545,0.1,0.00041778,4174.9,0.0004188,4205.5,-0.00013267,61.986,-0.00014093,-0.05947,0.27305
7613,7.1276,1.6364,0.1,0.00041763,4173.4,0.00041888,4211.3,-0.00013138,76.827,-0.00014161,-0.050001,0.27372
7614,7.1276,1.8182,0.1,0.00041744,4171.5,0.00041893,4216.6,-0.00013006,91.719,-0.00014228,-0.040209,0.27431
7615,7.1276,2,0.1,0.00041724,4169.5,0.00041894,4221.5,-0.00012879,106.03,-0.00014291,-0.030608,0.27481
7616,7.1276,2.1818,0.1,0.00041703,4167.5,0.00041893,4225.7,-0.00012762,119.12,-0.00014348,-0.021696,0.27523
7617,7.1276,2.3636,0.1,0.00041685,4165.6,0.00041891,4229.3,-0.00012661,130.41,-0.00014397,-0.013941,0.27556
7618,7.1276,2.5455,0.1,0.00041669,4164,0.00041889,4232,-0.0001258,139.38,-0.00014435,-0.0077471,0.27581
7619,7.1276,2.7273,0.1,0.00041658,4162.9,0.00041886,4233.8,-0.00012524,145.6,-0.00014462,-0.0034328,0.27598
7620,7.1276,2.9091,0.1,0.00041652,4162.3,0.00041885,4234.7,-0.00012495,148.79,-0.00014476,-0.0012192,0.27606
7621,7.1276,3.0909,0.1,0.00041652,4162.3,0.00041885,4234.7,-0.00012495,148.79,-0.00014476,-0.0012191,0.27606
7622,7.1276,3.2727,0.1,0.00041658,4162.9,0.00041886,4233.8,-0.00012524,145.6,-0.00014462,-0.0034327,0.27598
7623,7.1276,3.4545,0.1,0.00041669,4164,0.00041889,4232,-0.0001258,139.38,-0.00014435,-0.0077468,0.27581
7624,7.1276,3.6364,0.1,0.00041685,4165.6,0.00041891,4229.3,-0.00012661,130.41,-0.00014397,-0.01394,0.27556
7625,7.1276,3.8182,0.1,0.00041703,4167.5,0.00041893,4225.7,-0.00012762,119.12,-0.00014348,-0.021695,0.27523
7626,7.1276,4,0.1,0.00041724,4169.5,0.00041894,4221.5,-0.00012879,106.03,-0.00014291,-0.030607,0.27481
7627,7.1276,4.1818,0.1,0.00041744,4171.5,0.00041893,4216.6,-0.00013006,91.719,-0.00014228,-0.040209,0.27431
7628,7.1276,4.3636,0.1,0.00041763,4173.4,0.00041888,4211.3,-0.00013138,76.827,-0.00014161,-0.05,0.27372
7629,7.1276,4.5455,0.1,0.00041778,4174.9,0.0004188,4205.5,-0.00013267,61.986,-0.00014093,-0.059469,0.27305
7630,7.1276,4.7273,0.1,0.00041789,4176,0.00041868,4199.7,-0.0001339,47.802,-0.00014027,-0.068109,0.27229
7631,7.1276,4.9091,0.1,0.00041795,4176.6,0.00041853,4193.8,-0.00013501,34.817,-0.00013965,-0.075418,0.27144
7632,7.1276,5.0909,0.1,0.00041795,4176.6,0.00041834,4188.2,-0.00013595,23.485,-0.00013909,-0.080947,0.2705
7633,7.1276,5.2727,0.1,0.0004179,4176.1,0.00041814,4183.2,-0.00013672,14.148,-0.00013862,-0.084113,0.26947
7634,7.1276,5.4545,0.1,0.00041782,4175.4,0.00041794,4178.8,-0.00013729,7.0141,-0.00013824,-0.085516,0.26834
7635,7.1276,5.6364,0.1,0.00041774,4174.5,0.00041777,4175.5,-0.00013767,2.1435,-0.00013797,-0.088233,0.26713
7636,7.1276,5.8182,0.1,0.00041769,4174,0.00041768,4173.6,-0.0001378,0.019996,-0.00013791,-0.83846,0.26583
7637,7.3103,0.18182,0.1,0.00041053,4102.5,0.00041046,4100.4,-0.00013527,-0.0040754,-0.00013581,-4.0591,0.27925
7638,7.3103,0.36364,0.1,0.00041095,4106.6,0.00041087,4104.3,-0.00013538,0.01882,-0.000136,-4.5883,0.28054
7639,7.3103,0.54545,0.1,0.00041141,4111.3,0.00041137,4110,-0.00013562,0.13404,-0.00013599,-2.6587,0.28175
7640,7.3103,0.72727,0.1,0.00041186,4115.8,0.00041191,4117,-0.00013567,2.7431,-0.00013608,-0.36185,0.28287
7641,7.3103,0.90909,0.1,0.00041228,4120,0.00041245,4125,-0.00013519,10.242,-0.00013657,-0.17951,0.2839
7642,7.3103,1.0909,0.1,0.00041263,4123.5,0.00041298,4133.6,-0.00013445,20.43,-0.00013719,-0.13529,0.28484
7643,7.3103,1.2727,0.1,0.00041292,4126.3,0.00041346,4142.6,-0.00013351,32.807,-0.00013789,-0.11057,0.28568
7644,7.3103,1.4545,0.1,0.00041312,4128.4,0.0004139,4151.6,-0.0001324,46.847,-0.00013865,-0.091386,0.28645
7645,7.3103,1.6364,0.1,0.00041326,4129.7,0.00041427,4160.3,-0.00013118,61.927,-0.00013944,-0.074493,0.28712
7646,7.3103,1.8182,0.1,0.00041332,4130.4,0.00041458,4168.5,-0.00012991,77.349,-0.00014022,-0.05899,0.28771
7647,7.3103,2,0.1,0.00041334,4130.6,0.00041484,4176,-0.00012866,92.376,-0.00014096,-0.044807,0.28821
7648,7.3103,2.1818,0.1,0.00041332,4130.4,0.00041503,4182.5,-0.00012748,106.27,-0.00014163,-0.032189,0.28862
7649,7.3103,2.3636,0.1,0.00041329,4130,0.00041517,4187.9,-0.00012645,118.35,-0.00014221,-0.021503,0.28896
7650,7.3103,2.5455,0.1,0.00041324,4129.6,0.00041527,4192.1,-0.00012563,127.98,-0.00014266,-0.013119,0.2892
7651,7.3103,2.7273,0.1,0.00041321,4129.2,0.00041533,4194.9,-0.00012505,134.7,-0.00014298,-0.0073433,0.28937
7652,7.3103,2.9091,0.1,0.00041319,4129,0.00041536,4196.4,-0.00012475,138.14,-0.00014314,-0.004399,0.28945
7653,7.3103,3.0909,0.1,0.00041319,4129,0.00041536,4196.4,-0.00012475,138.14,-0.00014314,-0.004399,0.28945
7654,7.3103,3.2727,0.1,0.00041321,4129.2,0.00041533,4194.9,-0.00012505,134.7,-0.00014298,-0.0073432,0.28937
7655,7.3103,3.4545,0.1,0.00041324,4129.6,0.00041527,4192.1,-0.00012563,127.98,-0.00014266,-0.013118,0.2892
7656,7.3103,3.6364,0.1,0.00041329,4130,0.00041517,4187.9,-0.00012645,118.35,-0.00014221,-0.021503,0.28896
7657,7.3103,3.8182,0.1,0.00041332,4130.4,0.00041503,4182.5,-0.00012748,106.27,-0.00014163,-0.032189,0.28862
7658,7.3103,4,0.1,0.00041334,4130.6,0.00041484,4176,-0.00012866,92.376,-0.00014096,-0.044807,0.28821
7659,7.3103,4.1818,0.1,0.00041332,4130.4,0.00041458,4168.5,-0.00012991,77.349,-0.00014022,-0.05899,0.28771
7660,7.3103,4.3636,0.1,0.00041326,4129.7,0.00041427,4160.3,-0.00013118,61.927,-0.00013944,-0.074492,0.28712
7661,7.3103,4.5455,0.1,0.00041312,4128.4,0.0004139,4151.6,-0.0001324,46.847,-0.00013865,-0.091385,0.28645
7662,7.3103,4.7273,0.1,0.00041292,4126.3,0.00041346,4142.6,-0.00013351,32.807,-0.00013789,-0.11057,0.28568
7663,7.3103,4.9091,0.1,0.00041263,4123.5,0.00041298,4133.6,-0.00013445,20.43,-0.00013719,-0.13529,0.28484
7664,7.3103,5.0909,0.1,0.00041228,4120,0.00041245,4125,-0.00013519,10.242,-0.00013657,-0.1795,0.2839
7665,7.3103,5.2727,0.1,0.00041186,4115.8,0.00041191,4117,-0.00013567,2.7431,-0.00013608,-0.36185,0.28287
7666,7.3103,5.4545,0.1,0.00041141,4111.3,0.00041137,4110,-0.00013562,0.13404,-0.00013599,-2.6587,0.28175
7667,7.3103,5.6364,0.1,0.00041095,4106.6,0.00041087,4104.3,-0.00013538,0.018822,-0.000136,-4.5882,0.28054
7668,7.3103,5.8182,0.1,0.00041053,4102.5,0.00041046,4100.4,-0.00013527,-0.004074,-0.00013581,-4.0591,0.27925
7669,7.4931,0.18182,0.1,0.00040298,4027,0.00040285,4023.2,-0.00013261,0.0082914,-0.00013362,-7.5584,0.29294
7670,7.4931,0.36364,0.1,0.00040382,4035.4,0.00040362,4029.5,-0.00013268,0.018708,-0.00013424,-11.759,0.29423
7671,7.4931,0.54545,0.1,0.00040471,4044.3,0.00040449,4038,-0.00013292,0.0084535,-0.00013462,-12.737,0.29543
7672,7.4931,0.72727,0.1,0.0004056,4053.2,0.00040543,4048.1,-0.00013333,0.081644,-0.00013471,-10.25,0.29655
7673,7.4931,0.90909,0.1,0.00040645,4061.7,0.00040638,4059.6,-0.00013387,0.40117,-0.00013453,-4.586,0.29757
7674,7.4931,1.0909,0.1,0.00040723,4069.5,0.00040731,4072,-0.0001339,5.528,-0.0001347,-0.54808,0.29851
7675,7.4931,1.2727,0.1,0.00040792,4076.3,0.0004082,4084.8,-0.00013317,17.143,-0.00013548,-0.24483,0.29936
7676,7.4931,1.4545,0.1,0.0004085,4082.2,0.00040902,4097.6,-0.00013219,31.158,-0.00013636,-0.16502,0.30012
7677,7.4931,1.6364,0.1,0.00040899,4087,0.00040976,4110.1,-0.00013105,46.677,-0.00013728,-0.12211,0.30079
7678,7.4931,1.8182,0.1,0.00040937,4090.9,0.0004104,4121.9,-0.00012982,62.875,-0.0001382,-0.091825,0.30138
7679,7.4931,2,0.1,0.00040966,4093.8,0.00041095,4132.6,-0.00012858,78.886,-0.00013908,-0.067899,0.30188
7680,7.4931,2.1818,0.1,0.00040988,4096,0.00041139,4142.1,-0.00012739,93.847,-0.00013989,-0.048364,0.3023
7681,7.4931,2.3636,0.1,0.00041003,4097.5,0.00041174,4149.9,-0.00012634,106.94,-0.00014058,-0.032661,0.30263
7682,7.4931,2.5455,0.1,0.00041013,4098.5,0.000412,4155.9,-0.00012549,117.45,-0.00014112,-0.020735,0.30288
7683,7.4931,2.7273,0.1,0.00041019,4099.1,0.00041217,4160.1,-0.00012489,124.79,-0.0001415,-0.012686,0.30304
7684,7.4931,2.9091,0.1,0.00041022,4099.4,0.00041226,4162.2,-0.00012458,128.57,-0.00014169,-0.0086274,0.30312
7685,7.4931,3.0909,0.1,0.00041022,4099.4,0.00041226,4162.2,-0.00012458,128.57,-0.00014169,-0.0086276,0.30312
7686,7.4931,3.2727,0.1,0.00041019,4099.1,0.00041217,4160.1,-0.00012489,124.79,-0.0001415,-0.012686,0.30304
7687,7.4931,3.4545,0.1,0.00041013,4098.5,0.000412,4155.9,-0.00012549,117.45,-0.00014112,-0.020735,0.30288
7688,7.4931,3.6364,0.1,0.00041003,4097.5,0.00041174,4149.9,-0.00012634,106.94,-0.00014058,-0.032661,0.30263
7689,7.4931,3.8182,0.1,0.00040988,4096,0.00041139,4142.1,-0.00012739,93.847,-0.00013989,-0.048364,0.3023
7690,7.4931,4,0.1,0.00040966,4093.8,0.00041095,4132.6,-0.00012858,78.886,-0.00013908,-0.067898,0.30188
7691,7.4931,4.1818,0.1,0.00040937,4090.9,0.0004104,4121.9,-0.00012982,62.875,-0.0001382,-0.091825,0.30138
7692,7.4931,4.3636,0.1,0.00040899,4087,0.00040976,4110.1,-0.00013105,46.677,-0.00013728,-0.12211,0.30079
7693,7.4931,4.5455,0.1,0.0004085,4082.2,0.00040902,4097.6,-0.00013219,31.158,-0.00013636,-0.16502,0.30012
7694,7.4931,4.7273,0.1,0.00040792,4076.3,0.0004082,4084.8,-0.00013317,17.143,-0.00013548,-0.24483,0.29936
7695,7.4931,4.9091,0.1,0.00040723,4069.5,0.00040731,4072,-0.0001339,5.528,-0.0001347,-0.54809,0.29851
7696,7.4931,5.0909,0.1,0.00040645,4061.7,0.00040638,4059.6,-0.00013387,0.40117,-0.00013453,-4.586,0.29757
7697,7.4931,5.2727,0.1,0.0004056,4053.2,0.00040543,4048.1,-0.00013333,0.081644,-0.00013471,-10.25,0.29655
7698,7.4931,5.4545,0.1,0.00040471,4044.3,0.00040449,4038,-0.00013292,0.0084543,-0.00013462,-12.737,0.29543
7699,7.4931,5.6364,0.1,0.00040382,4035.4,0.00040362,4029.5,-0.00013268,0.01871,-0.00013424,-11.759,0.29423
7700,7.4931,5.8182,0.1,0.00040298,4027,0.00040285,4023.2,-0.00013261,0.008293,-0.00013362,-7.5584,0.29294
7701,7.6759,0.18182,0.1,0.00039494,3946.7,0.00039475,3941,-0.00012977,0.023651,-0.00013128,-11.356,0.30689
7702,7.6759,0.36364,0.1,0.00039626,3959.8,0.00039592,3950,-0.00012979,0.032795,-0.0001324,-19.591,0.30818
7703,7.6759,0.54545,0.1,0.00039765,3973.7,0.00039724,3961.8,-0.00013004,-0.0065446,-0.00013321,-23.818,0.30938
7704,7.6759,0.72727,0.1,0.00039904,3987.7,0.00039863,3975.8,-0.0001305,0.031186,-0.00013367,-23.797,0.3105
7705,7.6759,0.90909,0.1,0.00040041,4001.3,0.00040007,3991.5,-0.00013115,0.099014,-0.00013378,-19.651,0.31152
7706,7.6759,1.0909,0.1,0.00040169,4014.1,0.0004015,4008.4,-0.00013195,0.29765,-0.00013355,-11.746,0.31246
7707,7.6759,1.2727,0.1,0.00040287,4026,0.00040287,4026,-0.00013265,2.2873,-0.00013325,-2.2166,0.31331
7708,7.6759,1.4545,0.1,0.00040393,4036.5,0.00040417,4043.7,-0.00013204,14.791,-0.00013406,-0.43286,0.31407
7709,7.6759,1.6364,0.1,0.00040485,4045.7,0.00040536,4060.9,-0.00013101,30.843,-0.00013514,-0.23527,0.31474
7710,7.6759,1.8182,0.1,0.00040563,4053.5,0.00040642,4077.2,-0.00012983,48.049,-0.00013624,-0.15571,0.31533
7711,7.6759,2,0.1,0.00040627,4059.9,0.00040734,4092.1,-0.00012859,65.32,-0.0001373,-0.10793,0.31583
7712,7.6759,2.1818,0.1,0.00040678,4065,0.00040811,4105.2,-0.00012739,81.626,-0.00013827,-0.074368,0.31624
7713,7.6759,2.3636,0.1,0.00040718,4069,0.00040873,4116.1,-0.00012632,95.997,-0.0001391,-0.049636,0.31657
7714,7.6759,2.5455,0.1,0.00040747,4071.9,0.00040919,4124.6,-0.00012544,107.58,-0.00013976,-0.031812,0.31682
7715,7.6759,2.7273,0.1,0.00040766,4073.8,0.0004095,4130.4,-0.00012482,115.71,-0.00014022,-0.020156,0.31699
7716,7.6759,2.9091,0.1,0.00040775,4074.7,0.00040966,4133.3,-0.0001245,119.89,-0.00014045,-0.01438,0.31707
7717,7.6759,3.0909,0.1,0.00040775,4074.7,0.00040966,4133.3,-0.0001245,119.89,-0.00014045,-0.014379,0.31707
7718,7.6759,3.2727,0.1,0.00040766,4073.8,0.0004095,4130.4,-0.00012482,115.71,-0.00014022,-0.020156,0.31699
7719,7.6759,3.4545,0.1,0.00040747,4071.9,0.00040919,4124.6,-0.00012544,107.58,-0.00013976,-0.031812,0.31682
7720,7.6759,3.6364,0.1,0.00040718,4069,0.00040873,4116.1,-0.00012632,95.997,-0.0001391,-0.049636,0.31657
7721,7.6759,3.8182,0.1,0.00040678,4065,0.00040811,4105.2,-0.00012739,81.626,-0.00013827,-0.074368,0.31624
7722,7.6759,4,0.1,0.00040627,4059.9,0.00040734,4092.1,-0.00012859,65.32,-0.0001373,-0.10793,0.31583
7723,7.6759,4.1818,0.1,0.00040563,4053.5,0.00040642,4077.2,-0.00012983,48.049,-0.00013624,-0.15571,0.31533
7724,7.6759,4.3636,0.1,0.00040485,4045.7,0.00040536,4060.9,-0.00013101,30.843,-0.00013514,-0.23527,0.31474
7725,7.6759,4.5455,0.1,0.00040393,4036.5,0.00040417,4043.7,-0.00013204,14.791,-0.00013406,-0.43286,0.31407
7726,7.6759,4.7273,0.1,0.00040287,4026,0.00040287,4026,-0.00013265,2.2872,-0.00013325,-2.2166,0.31331
7727,7.6759,4.9091,0.1,0.00040169,4014.1,0.0004015,4008.4,-0.00013195,0.29765,-0.00013355,-11.746,0.31246
7728,7.6759,5.0909,0.1,0.00040041,4001.3,0.00040007,3991.5,-0.00013115,0.099016,-0.00013378,-19.651,0.31152
7729,7.6759,5.2727,0.1,0.00039904,3987.7,0.00039863,3975.8,-0.0001305,0.031187,-0.00013367,-23.797,0.3105
7730,7.6759,5.4545,0.1,0.00039765,3973.7,0.00039724,3961.8,-0.00013004,-0.0065442,-0.00013321,-23.818,0.30938
7731,7.6759,5.6364,0.1,0.00039626,3959.8,0.00039592,3950,-0.00012979,0.032797,-0.0001324,-19.591,0.30818
7732,7.6759,5.8182,0.1,0.00039494,3946.7,0.00039475,3941,-0.00012977,0.023652,-0.00013128,-11.356,0.30689
7733,7.8586,0.18182,0.1,0.00038628,3860.1,0.00038601,3852.4,-0.0001267,0.038939,-0.00012877,-15.504,0.32112
7734,7.8586,0.36364,0.1,0.00038814,3878.7,0.00038766,3864.6,-0.00012668,0.050276,-0.00013044,-28.169,0.3224
7735,7.8586,0.54545,0.1,0.0003901,3898.3,0.00038948,3880.2,-0.00012695,-0.012254,-0.00013173,-35.939,0.3236
7736,7.8586,0.72727,0.1,0.0003921,3918.3,0.00039143,3898.9,-0.00012747,0.019409,-0.00013262,-38.611,0.32471
7737,7.8586,0.90909,0.1,0.00039408,3938,0.00039345,3919.8,-0.00012824,0.061449,-0.00013308,-36.33,0.32574
7738,7.8586,1.0909,0.1,0.00039598,3957.1,0.00039547,3942.4,-0.0001292,0.14572,-0.00013314,-29.411,0.32667
7739,7.8586,1.2727,0.1,0.00039777,3975,0.00039746,3965.9,-0.00013032,0.3477,-0.00013282,-18.444,0.32752
7740,7.8586,1.4545,0.1,0.00039941,3991.4,0.00039935,3989.6,-0.00013142,1.6211,-0.00013231,-5.1012,0.32828
7741,7.8586,1.6364,0.1,0.00040088,4006,0.00040111,4012.8,-0.00013106,14.337,-0.00013306,-0.66377,0.32896
7742,7.8586,1.8182,0.1,0.00040216,4018.8,0.0004027,4034.9,-0.00012997,32.599,-0.00013435,-0.30457,0.32955
7743,7.8586,2,0.1,0.00040325,4029.7,0.0004041,4055.1,-0.00012876,51.394,-0.00013563,-0.18382,0.33005
7744,7.8586,2.1818,0.1,0.00040415,4038.7,0.00040528,4072.9,-0.00012756,69.339,-0.0001368,-0.11835,0.33046
7745,7.8586,2.3636,0.1,0.00040486,4045.9,0.00040625,4087.8,-0.00012645,85.264,-0.00013781,-0.076311,0.33079
7746,7.8586,2.5455,0.1,0.0004054,4051.2,0.00040698,4099.3,-0.00012555,98.156,-0.00013862,-0.048309,0.33104
7747,7.8586,2.7273,0.1,0.00040575,4054.7,0.00040747,4107.3,-0.0001249,107.21,-0.00013918,-0.030819,0.33121
7748,7.8586,2.9091,0.1,0.00040593,4056.5,0.00040772,4111.3,-0.00012457,111.88,-0.00013946,-0.022361,0.33129
7749,7.8586,3.0909,0.1,0.00040593,4056.5,0.00040772,4111.3,-0.00012457,111.88,-0.00013946,-0.022361,0.33129
7750,7.8586,3.2727,0.1,0.00040575,4054.7,0.00040747,4107.3,-0.0001249,107.21,-0.00013918,-0.030819,0.33121
7751,7.8586,3.4545,0.1,0.0004054,4051.2,0.00040698,4099.3,-0.00012555,98.156,-0.00013862,-0.048308,0.33104
7752,7.8586,3.6364,0.1,0.00040486,4045.9,0.00040625,4087.8,-0.00012645,85.264,-0.00013781,-0.07631,0.33079
7753,7.8586,3.8182,0.1,0.00040415,4038.7,0.00040528,4072.9,-0.00012756,69.339,-0.0001368,-0.11835,0.33046
7754,7.8586,4,0.1,0.00040325,4029.7,0.0004041,4055.1,-0.00012876,51.394,-0.00013563,-0.18382,0.33005
7755,7.8586,4.1818,0.1,0.00040216,4018.8,0.0004027,4034.9,-0.00012997,32.599,-0.00013435,-0.30457,0.32955
7756,7.8586,4.3636,0.1,0.00040088,4006,0.00040111,4012.8,-0.00013106,14.337,-0.00013306,-0.66377,0.32896
7757,7.8586,4.5455,0.1,0.00039941,3991.4,0.00039935,3989.6,-0.00013142,1.6211,-0.00013231,-5.1012,0.32828
7758,7.8586,4.7273,0.1,0.00039777,3975,0.00039746,3965.9,-0.00013032,0.3477,-0.00013282,-18.444,0.32752
7759,7.8586,4.9091,0.1,0.00039598,3957.1,0.00039547,3942.4,-0.0001292,0.14572,-0.00013314,-29.411,0.32667
7760,7.8586,5.0909,0.1,0.00039408,3938,0.00039345,3919.8,-0.00012824,0.061451,-0.00013308,-36.33,0.32574
7761,7.8586,5.2727,0.1,0.0003921,3918.3,0.00039143,3898.9,-0.00012747,0.01941,-0.00013262,-38.611,0.32471
7762,7.8586,5.4545,0.1,0.0003901,3898.3,0.00038948,3880.2,-0.00012695,-0.012253,-0.00013173,-35.939,0.3236
7763,7.8586,5.6364,0.1,0.00038814,3878.7,0.00038766,3864.6,-0.00012668,0.050278,-0.00013044,-28.169,0.3224
7764,7.8586,5.8182,0.1,0.00038628,3860.1,0.00038601,3852.4,-0.0001267,0.038941,-0.00012877,-15.504,0.32112
7765,8.0414,0.18182,0.1,0.00037684,3765.8,0.00037649,3755.7,-0.00012336,0.051907,-0.00012603,-20.061,0.3356
7766,8.0414,0.36364,0.1,0.00037932,3790.6,0.00037867,3771.7,-0.00012331,0.069394,-0.00012832,-37.577,0.33688
7767,8.0414,0.54545,0.1,0.00038195,3816.9,0.00038109,3792,-0.0001236,-0.01507,-0.00013015,-49.214,0.33808
7768,8.0414,0.72727,0.1,0.00038466,3843.9,0.00038369,3816.2,-0.00012421,0.01711,-0.00013151,-54.838,0.33919
7769,8.0414,0.90909,0.1,0.00038737,3871.1,0.00038642,3843.5,-0.00012511,0.051917,-0.00013239,-54.626,0.34022
7770,8.0414,1.0909,0.1,0.00039004,3897.7,0.00038919,3873.1,-0.00012627,0.11454,-0.0001328,-48.892,0.34116
7771,8.0414,1.2727,0.1,0.00039259,3923.1,0.00039193,3904,-0.00012764,0.22227,-0.00013275,-38.192,0.34201
7772,8.0414,1.4545,0.1,0.00039496,3946.9,0.00039457,3935.4,-0.00012914,0.47262,-0.00013231,-23.4,0.34277
7773,8.0414,1.6364,0.1,0.00039713,3968.5,0.00039705,3966.2,-0.00013056,1.9414,-0.0001317,-6.609,0.34344
7774,8.0414,1.8182,0.1,0.00039905,3987.7,0.00039931,3995.5,-0.00013027,16.397,-0.00013257,-0.8215,0.34403
7775,8.0414,2,0.1,0.00040071,4004.4,0.00040132,4022.5,-0.00012914,36.773,-0.00013408,-0.35006,0.34454
7776,8.0414,2.1818,0.1,0.00040211,4018.4,0.00040304,4046.3,-0.00012794,56.645,-0.00013551,-0.19796,0.34495
7777,8.0414,2.3636,0.1,0.00040325,4029.7,0.00040446,4066.3,-0.00012683,74.411,-0.00013675,-0.11978,0.34528
7778,8.0414,2.5455,0.1,0.0004041,4038.2,0.00040554,4081.9,-0.0001259,88.844,-0.00013774,-0.073398,0.34553
7779,8.0414,2.7273,0.1,0.00040468,4044,0.00040627,4092.6,-0.00012524,99,-0.00013842,-0.046244,0.3457
7780,8.0414,2.9091,0.1,0.00040497,4046.9,0.00040664,4098,-0.0001249,104.24,-0.00013877,-0.033551,0.34578
7781,8.0414,3.0909,0.1,0.00040497,4046.9,0.00040664,4098,-0.0001249,104.24,-0.00013877,-0.033551,0.34578
7782,8.0414,3.2727,0.1,0.00040468,4044,0.00040627,4092.6,-0.00012524,99,-0.00013842,-0.046245,0.3457
7783,8.0414,3.4545,0.1,0.0004041,4038.2,0.00040554,4081.9,-0.0001259,88.844,-0.00013774,-0.073398,0.34553
7784,8.0414,3.6364,0.1,0.00040325,4029.7,0.00040446,4066.3,-0.00012683,74.411,-0.00013675,-0.11978,0.34528
7785,8.0414,3.8182,0.1,0.00040211,4018.4,0.00040304,4046.3,-0.00012794,56.645,-0.00013551,-0.19796,0.34495
7786,8.0414,4,0.1,0.00040071,4004.4,0.00040132,4022.5,-0.00012914,36.773,-0.00013408,-0.35006,0.34454
7787,8.0414,4.1818,0.1,0.00039905,3987.7,0.00039931,3995.5,-0.00013027,16.397,-0.00013257,-0.8215,0.34403
7788,8.0414,4.3636,0.1,0.00039713,3968.5,0.00039705,3966.2,-0.00013056,1.9414,-0.0001317,-6.609,0.34344
7789,8.0414,4.5455,0.1,0.00039496,3946.9,0.00039457,3935.4,-0.00012914,0.47262,-0.00013231,-23.4,0.34277
7790,8.0414,4.7273,0.1,0.00039259,3923.1,0.00039193,3904,-0.00012764,0.22227,-0.00013275,-38.192,0.34201
7791,8.0414,4.9091,0.1,0.00039004,3897.7,0.00038919,3873.1,-0.00012627,0.11454,-0.0001328,-48.892,0.34116
7792,8.0414,5.0909,0.1,0.00038737,3871.1,0.00038642,3843.5,-0.00012511,0.051918,-0.00013239,-54.626,0.34022
7793,8.0414,5.2727,0.1,0.00038466,3843.9,0.00038369,3816.2,-0.00012421,0.017111,-0.00013151,-54.838,0.33919
7794,8.0414,5.4545,0.1,0.00038195,3816.9,0.00038109,3792,-0.0001236,-0.015069,-0.00013015,-49.214,0.33808
7795,8.0414,5.6364,0.1,0.00037932,3790.6,0.00037867,3771.7,-0.0001233,0.069395,-0.00012832,-37.577,0.33688
7796,8.0414,5.8182,0.1,0.00037684,3765.8,0.00037649,3755.7,-0.00012336,0.051908,-0.00012603,-20.061,0.3356
7797,8.2241,0.18182,0.1,0.00036642,3661.7,0.00036599,3649.1,-0.00011967,0.0595,-0.00012302,-25.08,0.35033
7798,8.2241,0.36364,0.1,0.00036962,3693.6,0.00036878,3669.5,-0.00011959,0.089192,-0.00012597,-47.868,0.35161
7799,8.2241,0.54545,0.1,0.00037302,3727.6,0.00037189,3695.3,-0.00011993,-0.016278,-0.00012841,-63.731,0.35281
7800,8.2241,0.72727,0.1,0.00037657,3763.1,0.00037528,3726.2,-0.00012065,0.019961,-0.00013032,-72.631,0.35392
7801,8.2241,0.90909,0.1,0.00038019,3799.2,0.00037886,3761.3,-0.00012173,0.053342,-0.00013169,-74.775,0.35495
7802,8.2241,1.0909,0.1,0.00038379,3835.2,0.00038254,3799.6,-0.00012314,0.11023,-0.00013253,-70.453,0.3559
7803,8.2241,1.2727,0.1,0.00038729,3870.2,0.00038623,3839.8,-0.00012479,0.1945,-0.00013283,-60.198,0.35675
7804,8.2241,1.4545,0.1,0.00039059,3903.2,0.00038982,3880.8,-0.00012664,0.34017,-0.00013265,-44.844,0.35752
7805,8.2241,1.6364,0.1,0.00039365,3933.7,0.00039321,3921.2,-0.00012857,0.69106,-0.00013208,-25.654,0.3582
7806,8.2241,1.8182,0.1,0.00039639,3961.2,0.00039634,3959.8,-0.00013025,3.1377,-0.00013146,-5.9399,0.35879
7807,8.2241,2,0.1,0.0003988,3985.3,0.00039915,3995.4,-0.00012979,21.183,-0.00013272,-0.84055,0.35929
7808,8.2241,2.1818,0.1,0.00040086,4005.8,0.00040157,4027,-0.00012866,43.115,-0.00013444,-0.35885,0.35971
7809,8.2241,2.3636,0.1,0.00040254,4022.6,0.00040357,4053.6,-0.00012755,63.004,-0.00013596,-0.19438,0.36005
7810,8.2241,2.5455,0.1,0.00040383,4035.5,0.00040511,4074.4,-0.00012662,79.215,-0.00013718,-0.11262,0.3603
7811,8.2241,2.7273,0.1,0.0004047,4044.2,0.00040616,4088.7,-0.00012595,90.626,-0.00013802,-0.068917,0.36046
7812,8.2241,2.9091,0.1,0.00040514,4048.6,0.0004067,4096,-0.0001256,96.51,-0.00013845,-0.049411,0.36055
7813,8.2241,3.0909,0.1,0.00040514,4048.6,0.0004067,4096,-0.0001256,96.51,-0.00013845,-0.049411,0.36055
7814,8.2241,3.2727,0.1,0.0004047,4044.2,0.00040616,4088.7,-0.00012595,90.626,-0.00013802,-0.068917,0.36046
7815,8.2241,3.4545,0.1,0.00040383,4035.5,0.00040511,4074.4,-0.00012662,79.215,-0.00013718,-0.11262,0.3603
7816,8.2241,3.6364,0.1,0.00040254,4022.6,0.00040357,4053.6,-0.00012755,63.004,-0.00013596,-0.19438,0.36005
7817,8.2241,3.8182,0.1,0.00040086,4005.8,0.00040157,4027,-0.00012866,43.115,-0.00013444,-0.35885,0.35971
7818,8.2241,4,0.1,0.0003988,3985.3,0.00039915,3995.4,-0.00012979,21.183,-0.00013272,-0.84055,0.35929
7819,8.2241,4.1818,0.1,0.00039639,3961.2,0.00039634,3959.8,-0.00013025,3.1377,-0.00013146,-5.9399,0.35879
7820,8.2241,4.3636,0.1,0.00039365,3933.7,0.00039321,3921.2,-0.00012857,0.69106,-0.00013208,-25.654,0.3582
7821,8.2241,4.5455,0.1,0.00039059,3903.2,0.00038982,3880.8,-0.00012664,0.34017,-0.00013265,-44.844,0.35752
7822,8.2241,4.7273,0.1,0.00038729,3870.2,0.00038623,3839.8,-0.00012479,0.1945,-0.00013283,-60.198,0.35675
7823,8.2241,4.9091,0.1,0.00038379,3835.2,0.00038254,3799.6,-0.00012314,0.11023,-0.00013253,-70.453,0.3559
7824,8.2241,5.0909,0.1,0.00038019,3799.2,0.00037886,3761.3,-0.00012173,0.053344,-0.00013169,-74.775,0.35495
7825,8.2241,5.2727,0.1,0.00037657,3763.1,0.00037528,3726.2,-0.00012065,0.019962,-0.00013032,-72.631,0.35392
7826,8.2241,5.4545,0.1,0.00037302,3727.6,0.00037189,3695.3,-0.00011993,-0.016277,-0.00012841,-63.731,0.35281
7827,8.2241,5.6364,0.1,0.00036962,3693.6,0.00036878,3669.5,-0.00011959,0.089194,-0.00012597,-47.868,0.35161
7828,8.2241,5.8182,0.1,0.00036642,3661.7,0.00036599,3649.1,-0.00011967,0.059502,-0.00012302,-25.08,0.35033
7829,8.4069,0.18182,0.1,0.00035481,3545.6,0.00035428,3530.2,-0.00011556,0.057327,-0.00011964,-30.604,0.3653
7830,8.4069,0.36364,0.1,0.00035879,3585.5,0.00035775,3555.6,-0.00011546,0.10855,-0.00012333,-59.047,0.36659
7831,8.4069,0.54545,0.1,0.00036309,3628.4,0.00036167,3588,-0.00011586,-0.01602,-0.00012644,-79.522,0.36779
7832,8.4069,0.72727,0.1,0.00036765,3674,0.000366,3627.1,-0.00011673,0.027367,-0.00012899,-92.113,0.36891
7833,8.4069,0.90909,0.1,0.00037237,3721.2,0.00037063,3671.7,-0.00011804,0.062595,-0.00013096,-97.04,0.36994
7834,8.4069,1.0909,0.1,0.00037715,3768.8,0.00037545,3720.8,-0.00011974,0.1196,-0.00013233,-94.517,0.37089
7835,8.4069,1.2727,0.1,0.00038184,3815.7,0.00038032,3772.6,-0.00012176,0.19662,-0.00013309,-84.982,0.37175
7836,8.4069,1.4545,0.1,0.00038633,3860.6,0.00038511,3825.7,-0.00012402,0.31193,-0.00013327,-69.218,0.37252
7837,8.4069,1.6364,0.1,0.00039052,3902.5,0.00038968,3878.3,-0.00012642,0.51589,-0.00013294,-48.473,0.37321
7838,8.4069,1.8182,0.1,0.00039433,3940.6,0.00039392,3928.7,-0.00012882,1.0643,-0.00013224,-24.637,0.37381
7839,8.4069,2,0.1,0.00039771,3974.3,0.00039774,3975.5,-0.00013052,6.2627,-0.00013189,-3.9822,0.37432
7840,8.4069,2.1818,0.1,0.00040061,4003.4,0.00040107,4017,-0.0001298,28.268,-0.00013366,-0.76081,0.37474
7841,8.4069,2.3636,0.1,0.00040301,4027.4,0.00040384,4052.2,-0.00012875,50.463,-0.00013551,-0.33374,0.37508
7842,8.4069,2.5455,0.1,0.00040487,4045.9,0.00040599,4079.7,-0.00012785,68.665,-0.00013701,-0.17645,0.37533
7843,8.4069,2.7273,0.1,0.00040615,4058.7,0.00040747,4098.7,-0.0001272,81.466,-0.00013805,-0.1029,0.3755
7844,8.4069,2.9091,0.1,0.00040679,4065.1,0.00040822,4108.4,-0.00012686,88.055,-0.00013859,-0.072116,0.37558
7845,8.4069,3.0909,0.1,0.00040679,4065.1,0.00040822,4108.4,-0.00012686,88.055,-0.00013859,-0.072116,0.37558
7846,8.4069,3.2727,0.1,0.00040615,4058.7,0.00040747,4098.7,-0.0001272,81.466,-0.00013805,-0.1029,0.3755
7847,8.4069,3.4545,0.1,0.00040487,4045.9,0.00040599,4079.7,-0.00012785,68.665,-0.00013701,-0.17645,0.37533
7848,8.4069,3.6364,0.1,0.00040301,4027.4,0.00040384,4052.2,-0.00012875,50.463,-0.00013551,-0.33374,0.37508
7849,8.4069,3.8182,0.1,0.00040061,4003.4,0.00040107,4017,-0.0001298,28.268,-0.00013366,-0.76081,0.37474
7850,8.4069,4,0.1,0.00039771,3974.3,0.00039774,3975.5,-0.00013052,6.2627,-0.00013189,-3.9822,0.37432
7851,8.4069,4.1818,0.1,0.00039433,3940.6,0.00039392,3928.7,-0.00012882,1.0643,-0.00013224,-24.637,0.37381
7852,8.4069,4.3636,0.1,0.00039052,3902.5,0.00038968,3878.3,-0.00012642,0.51589,-0.00013294,-48.473,0.37321
7853,8.4069,4.5455,0.1,0.00038633,3860.6,0.00038511,3825.7,-0.00012402,0.31193,-0.00013327,-69.218,0.37252
7854,8.4069,4.7273,0.1,0.00038184,3815.7,0.00038032,3772.6,-0.00012176,0.19662,-0.00013309,-84.982,0.37175
7855,8.4069,4.9091,0.1,0.00037715,3768.8,0.00037545,3720.8,-0.00011974,0.1196,-0.00013233,-94.517,0.37089
7856,8.4069,5.0909,0.1,0.00037237,3721.2,0.00037063,3671.7,-0.00011804,0.062597,-0.00013096,-97.04,0.36994
7857,8.4069,5.2727,0.1,0.00036765,3674,0.000366,3627.1,-0.00011673,0.027368,-0.00012899,-92.113,0.36891
7858,8.4069,5.4545,0.1,0.00036309,3628.4,0.00036167,3588,-0.00011586,-0.016019,-0.00012644,-79.522,0.36779
7859,8.4069,5.6364,0.1,0.00035879,3585.5,0.00035775,3555.6,-0.00011546,0.10855,-0.00012333,-59.047,0.36659
7860,8.4069,5.8182,0.1,0.00035481,3545.6,0.00035428,3530.2,-0.00011556,0.057328,-0.00011964,-30.604,0.3653
7861,8.5897,0.18182,0.1,0.00034172,3414.8,0.00034108,3396.3,-0.00011094,0.039428,-0.00011583,-36.653,0.38051
7862,8.5897,0.36364,0.1,0.00034658,3463.5,0.00034532,3427.5,-0.00011083,0.12592,-0.0001203,-71.038,0.3818
7863,8.5897,0.54545,0.1,0.00035192,3516.8,0.00035018,3467.5,-0.00011132,-0.013858,-0.00012417,-96.532,0.38301
7864,8.5897,0.72727,0.1,0.00035769,3574.4,0.00035562,3516.4,-0.00011237,0.040085,-0.00012747,-113.36,0.38414
7865,8.5897,0.90909,0.1,0.00036376,3635.1,0.00036154,3572.8,-0.00011396,0.079892,-0.00013017,-121.72,0.38518
7866,8.5897,1.0909,0.1,0.00037,3697.4,0.00036778,3635.2,-0.00011601,0.14018,-0.00013222,-121.64,0.38614
7867,8.5897,1.2727,0.1,0.00037621,3759.5,0.00037415,3701.6,-0.00011847,0.21613,-0.00013359,-113.34,0.38701
7868,8.5897,1.4545,0.1,0.00038222,3819.5,0.00038047,3770,-0.00012125,0.3203,-0.00013426,-97.436,0.38779
7869,8.5897,1.6364,0.1,0.00038787,3876,0.00038654,3838.1,-0.00012421,0.47734,-0.00013428,-75.18,0.38848
7870,8.5897,1.8182,0.1,0.00039305,3927.7,0.00039221,3903.6,-0.00012723,0.77083,-0.00013379,-48.536,0.38909
7871,8.5897,2,0.1,0.00039767,3974,0.00039735,3964.6,-0.00013007,1.7262,-0.00013302,-20.439,0.38961
7872,8.5897,2.1818,0.1,0.00040169,4014.1,0.00040185,4019,-0.00013141,12.275,-0.00013337,-2.4451,0.39004
7873,8.5897,2.3636,0.1,0.00040504,4047.6,0.00040563,4065.1,-0.00013061,36.055,-0.0001355,-0.63971,0.39038
7874,8.5897,2.5455,0.1,0.00040765,4073.7,0.00040858,4101.5,-0.00012979,56.365,-0.00013733,-0.28783,0.39063
7875,8.5897,2.7273,0.1,0.00040946,4091.8,0.00041061,4126.5,-0.0001292,70.629,-0.00013862,-0.15531,0.39081
7876,8.5897,2.9091,0.1,0.00041038,4101,0.00041165,4139.4,-0.00012889,77.941,-0.00013928,-0.10483,0.39089
7877,8.5897,3.0909,0.1,0.00041038,4101,0.00041165,4139.4,-0.00012889,77.941,-0.00013928,-0.10483,0.39089
7878,8.5897,3.2727,0.1,0.00040946,4091.8,0.00041061,4126.5,-0.0001292,70.629,-0.00013862,-0.15531,0.39081
7879,8.5897,3.4545,0.1,0.00040765,4073.7,0.00040858,4101.5,-0.00012979,56.365,-0.00013733,-0.28783,0.39063
7880,8.5897,3.6364,0.1,0.00040504,4047.6,0.00040563,4065.1,-0.00013061,36.055,-0.0001355,-0.63971,0.39038
7881,8.5897,3.8182,0.1,0.00040169,4014.1,0.00040185,4019,-0.00013141,12.275,-0.00013337,-2.4451,0.39004
7882,8.5897,4,0.1,0.00039767,3974,0.00039735,3964.6,-0.00013007,1.7262,-0.00013302,-20.439,0.38961
7883,8.5897,4.1818,0.1,0.00039304,3927.7,0.00039221,3903.6,-0.00012723,0.77083,-0.00013379,-48.536,0.38909
7884,8.5897,4.3636,0.1,0.00038787,3876,0.00038654,3838.1,-0.00012421,0.47734,-0.00013428,-75.18,0.38848
7885,8.5897,4.5455,0.1,0.00038222,3819.5,0.00038047,3770,-0.00012125,0.3203,-0.00013426,-97.436,0.38779
7886,8.5897,4.7273,0.1,0.00037621,3759.5,0.00037415,3701.6,-0.00011847,0.21613,-0.00013359,-113.34,0.38701
7887,8.5897,4.9091,0.1,0.00037,3697.4,0.00036778,3635.2,-0.00011601,0.14018,-0.00013222,-121.64,0.38614
7888,8.5897,5.0909,0.1,0.00036376,3635.1,0.00036154,3572.8,-0.00011396,0.079893,-0.00013017,-121.72,0.38518
7889,8.5897,5.2727,0.1,0.00035769,3574.4,0.00035562,3516.4,-0.00011237,0.040086,-0.00012747,-113.36,0.38414
7890,8.5897,5.4545,0.1,0.00035192,3516.8,0.00035018,3467.5,-0.00011132,-0.013857,-0.00012417,-96.532,0.38301
7891,8.5897,5.6364,0.1,0.00034658,3463.5,0.00034532,3427.5,-0.00011083,0.12592,-0.0001203,-71.038,0.3818
7892,8.5897,5.8182,0.1,0.00034172,3414.8,0.00034108,3396.3,-0.00011094,0.039429,-0.00011583,-36.653,0.38051
7893,8.7724,0.18182,0.1,0.00032684,3266.1,0.00032608,3244.3,-0.00010571,-0.0016946,-0.00011146,-43.207,0.39595
7894,8.7724,0.36364,0.1,0.00033267,3324.4,0.00033117,3281.8,-0.0001056,0.13903,-0.00011675,-83.642,0.39725
7895,8.7724,0.54545,0.1,0.0003392,3389.7,0.00033711,3330.9,-0.00010621,-0.0089678,-0.00012146,-114.58,0.39847
7896,8.7724,0.72727,0.1,0.0003464,3461.6,0.00034388,3391.4,-0.00010748,0.059635,-0.00012565,-136.4,0.3996
7897,8.7724,0.90909,0.1,0.00035415,3539,0.00035137,3462.1,-0.00010939,0.10692,-0.00012926,-149.18,0.40066
7898,8.7724,1.0909,0.1,0.00036222,3619.7,0.00035938,3541.1,-0.00011188,0.17268,-0.00013221,-152.6,0.40163
7899,8.7724,1.2727,0.1,0.00037037,3701.1,0.00036766,3625.8,-0.00011487,0.25033,-0.0001344,-146.43,0.40251
7900,8.7724,1.4545,0.1,0.00037832,3780.6,0.00037593,3713.6,-0.00011827,0.3504,-0.00013575,-130.93,0.40331
7901,8.7724,1.6364,0.1,0.00038585,3855.9,0.00038392,3801.4,-0.00012194,0.48697,-0.00013628,-107.25,0.40401
7902,8.7724,1.8182,0.1,0.00039279,3925.2,0.00039143,3886.2,-0.0001257,0.69588,-0.00013612,-77.577,0.40463
7903,8.7724,2,0.1,0.00039903,3987.5,0.00039826,3965.3,-0.00012935,1.1143,-0.0001355,-45.104,0.40516
7904,8.7724,2.1818,0.1,0.00040448,4042,0.00040429,4036.3,-0.00013252,2.9094,-0.00013483,-14.396,0.4056
7905,8.7724,2.3636,0.1,0.00040908,4087.9,0.00040937,4096.6,-0.00013331,19.142,-0.00013608,-1.6312,0.40595
7906,8.7724,2.5455,0.1,0.0004127,4124.1,0.00041337,4144.3,-0.00013272,41.182,-0.00013827,-0.51315,0.40621
7907,8.7724,2.7273,0.1,0.00041521,4149.3,0.00041615,4177.3,-0.00013225,56.834,-0.00013985,-0.24108,0.40639
7908,8.7724,2.9091,0.1,0.00041651,4162.2,0.00041757,4194.2,-0.00013201,64.806,-0.00014066,-0.15236,0.40647
7909,8.7724,3.0909,0.1,0.00041651,4162.2,0.00041757,4194.2,-0.00013201,64.806,-0.00014066,-0.15236,0.40647
7910,8.7724,3.2727,0.1,0.00041521,4149.3,0.00041615,4177.3,-0.00013225,56.834,-0.00013985,-0.24108,0.40639
7911,8.7724,3.4545,0.1,0.0004127,4124.1,0.00041337,4144.3,-0.00013272,41.182,-0.00013827,-0.51315,0.40621
7912,8.7724,3.6364,0.1,0.00040908,4087.9,0.00040937,4096.6,-0.00013331,19.142,-0.00013608,-1.6312,0.40595
7913,8.7724,3.8182,0.1,0.00040448,4042,0.00040429,4036.3,-0.00013252,2.9094,-0.00013483,-14.396,0.4056
7914,8.7724,4,0.1,0.00039903,3987.5,0.00039826,3965.3,-0.00012935,1.1143,-0.0001355,-45.104,0.40516
7915,8.7724,4.1818,0.1,0.00039279,3925.2,0.00039143,3886.2,-0.0001257,0.69588,-0.00013612,-77.577,0.40463
7916,8.7724,4.3636,0.1,0.00038585,3855.9,0.00038392,3801.4,-0.00012194,0.48697,-0.00013628,-107.25,0.40401
7917,8.7724,4.5455,0.1,0.00037832,3780.6,0.00037593,3713.6,-0.00011827,0.3504,-0.00013575,-130.93,0.40331
7918,8.7724,4.7273,0.1,0.00037037,3701.1,0.00036766,3625.8,-0.00011487,0.25033,-0.0001344,-146.43,0.40251
7919,8.7724,4.9091,0.1,0.00036222,3619.7,0.00035938,3541.1,-0.00011188,0.17268,-0.00013221,-152.6,0.40163
7920,8.7724,5.0909,0.1,0.00035415,3539,0.00035137,3462.1,-0.00010939,0.10692,-0.00012926,-149.18,0.40066
7921,8.7724,5.2727,0.1,0.0003464,3461.6,0.00034388,3391.4,-0.00010748,0.059637,-0.00012565,-136.4,0.3996
7922,8.7724,5.4545,0.1,0.0003392,3389.7,0.00033711,3330.9,-0.00010621,-0.0089671,-0.00012146,-114.58,0.39847
7923,8.7724,5.6364,0.1,0.00033267,3324.4,0.00033117,3281.8,-0.0001056,0.13903,-0.00011675,-83.642,0.39725
7924,8.7724,5.8182,0.1,0.00032684,3266.1,0.00032608,3244.3,-0.00010571,-0.001693,-0.00011146,-43.207,0.39595
7925,8.9552,0.18182,0.1,0.00030981,3096,0.00030893,3070.6,-9.975e-05,-0.073888,-0.00010642,-50.175,0.41161
7926,8.9552,0.36364,0.1,0.00031666,3164.4,0.00031491,3115.2,-9.967e-05,0.14502,-0.00011253,-96.484,0.41292
7927,8.9552,0.54545,0.1,0.00032456,3243.3,0.00032208,3174.6,-0.00010043,0.00012571,-0.00011818,-133.32,0.41415
7928,8.9552,0.72727,0.1,0.00033348,3332.5,0.00033045,3249,-0.00010196,0.088402,-0.00012342,-161.17,0.4153
7929,8.9552,0.90909,0.1,0.00034328,3430.4,0.00033987,3337,-0.00010424,0.14663,-0.0001282,-179.89,0.41637
7930,8.9552,1.0909,0.1,0.00035368,3534.3,0.00035009,3436.4,-0.00010723,0.21969,-0.00013235,-188.53,0.41736
7931,8.9552,1.2727,0.1,0.0003643,3640.5,0.00036079,3544.1,-0.00011086,0.30044,-0.00013566,-186.04,0.41826
7932,8.9552,1.4545,0.1,0.00037477,3745.1,0.00037156,3656.4,-0.00011503,0.39916,-0.00013796,-171.93,0.41908
7933,8.9552,1.6364,0.1,0.00038474,3844.7,0.00038203,3769.3,-0.00011957,0.52525,-0.0001392,-147.04,0.4198
7934,8.9552,1.8182,0.1,0.00039394,3936.7,0.00039189,3878.9,-0.00012426,0.69325,-0.00013951,-113.87,0.42044
7935,8.9552,2,0.1,0.00040225,4019.7,0.00040091,3981.4,-0.00012886,0.94425,-0.00013916,-76.449,0.42098
7936,8.9552,2.1818,0.1,0.00040956,4092.8,0.0004089,4073.6,-0.00013307,1.4691,-0.00013853,-39.601,0.42143
7937,8.9552,2.3636,0.1,0.00041577,4154.8,0.00041568,4152.2,-0.00013637,4.3331,-0.00013821,-9.5128,0.4218
7938,8.9552,2.5455,0.1,0.00042071,4204.2,0.00042105,4214.4,-0.00013695,21.772,-0.00014001,-1.1975,0.42207
7939,8.9552,2.7273,0.1,0.00042417,4238.8,0.0004248,4257.6,-0.00013675,38.265,-0.0001419,-0.40645,0.42225
7940,8.9552,2.9091,0.1,0.00042596,4256.6,0.00042673,4279.7,-0.00013665,46.663,-0.00014289,-0.22275,0.42234
7941,8.9552,3.0909,0.1,0.00042596,4256.6,0.00042673,4279.7,-0.00013665,46.663,-0.00014289,-0.22275,0.42234
7942,8.9552,3.2727,0.1,0.00042417,4238.8,0.0004248,4257.6,-0.00013675,38.265,-0.0001419,-0.40645,0.42225
7943,8.9552,3.4545,0.1,0.00042071,4204.2,0.00042105,4214.4,-0.00013695,21.772,-0.00014001,-1.1975,0.42207
7944,8.9552,3.6364,0.1,0.00041577,4154.8,0.00041568,4152.2,-0.00013637,4.3331,-0.00013821,-9.5127,0.4218
7945,8.9552,3.8182,0.1,0.00040956,4092.8,0.0004089,4073.6,-0.00013307,1.4691,-0.00013853,-39.601,0.42143
7946,8.9552,4,0.1,0.00040225,4019.7,0.00040091,3981.4,-0.00012886,0.94425,-0.00013916,-76.449,0.42098
7947,8.9552,4.1818,0.1,0.00039394,3936.7,0.00039189,3878.9,-0.00012426,0.69325,-0.00013951,-113.87,0.42044
7948,8.9552,4.3636,0.1,0.00038474,3844.7,0.00038203,3769.3,-0.00011957,0.52525,-0.0001392,-147.04,0.4198
7949,8.9552,4.5455,0.1,0.00037477,3745.1,0.00037156,3656.4,-0.00011503,0.39916,-0.00013796,-171.93,0.41908
7950,8.9552,4.7273,0.1,0.0003643,3640.5,0.00036079,3544.1,-0.00011086,0.30044,-0.00013566,-186.04,0.41826
7951,8.9552,4.9091,0.1,0.00035368,3534.3,0.00035009,3436.4,-0.00010723,0.21969,-0.00013235,-188.53,0.41736
7952,8.9552,5.0909,0.1,0.00034328,3430.4,0.00033987,3337,-0.00010424,0.14663,-0.0001282,-179.89,0.41637
7953,8.9552,5.2727,0.1,0.00033348,3332.5,0.00033045,3249,-0.00010196,0.088403,-0.00012342,-161.17,0.4153
7954,8.9552,5.4545,0.1,0.00032456,3243.3,0.00032208,3174.6,-0.00010043,0.00012682,-0.00011818,-133.32,0.41415
7955,8.9552,5.6364,0.1,0.00031666,3164.4,0.00031491,3115.2,-9.967e-05,0.14503,-0.00011253,-96.484,0.41292
7956,8.9552,5.8182,0.1,0.00030981,3096,0.00030893,3070.6,-9.975e-05,-0.073887,-0.00010642,-50.175,0.41161
7957,9.1379,0.18182,0.1,0.00029027,2900.7,0.00028925,2871.5,-9.2949e-05,-0.18276,-0.00010056,-57.363,0.42748
7958,9.1379,0.36364,0.1,0.00029815,2979.5,0.00029615,2923.6,-9.2932e-05,0.14066,-0.00010745,-108.97,0.42879
7959,9.1379,0.54545,0.1,0.00030759,3073.7,0.00030471,2994.8,-9.387e-05,0.015373,-0.00011413,-152.19,0.43004
7960,9.1379,0.72727,0.1,0.00031856,3183.4,0.00031495,3085.5,-9.5685e-05,0.12896,-0.00012067,-187.58,0.43121
7961,9.1379,0.90909,0.1,0.0003309,3306.7,0.00032673,3194.3,-9.8379e-05,0.20246,-0.00012696,-214.57,0.43231
7962,9.1379,1.0909,0.1,0.00034424,3440.1,0.00033973,3318.8,-0.00010193,0.28501,-0.00013274,-231.17,0.43332
7963,9.1379,1.2727,0.1,0.00035807,3578.2,0.0003535,3455.1,-0.0001063,0.3689,-0.00013762,-234.92,0.43425
7964,9.1379,1.4545,0.1,0.0003718,3715.4,0.00036749,3598.6,-0.00011139,0.46519,-0.00014126,-223.95,0.43509
7965,9.1379,1.6364,0.1,0.00038491,3846.5,0.00038116,3743.7,-0.00011702,0.58054,-0.00014349,-198.33,0.43584
7966,9.1379,1.8182,0.1,0.00039704,3967.7,0.00039407,3885.2,-0.00012291,0.71987,-0.00014442,-160.88,0.4365
7967,9.1379,2,0.1,0.000408,4077.2,0.0004059,4017.8,-0.00012873,0.87633,-0.00014442,-117.08,0.43707
7968,9.1379,2.1818,0.1,0.00041769,4174.1,0.00041641,4137.3,-0.00013409,1.0706,-0.00014402,-73.597,0.43754
7969,9.1379,2.3636,0.1,0.00042598,4256.9,0.00042538,4239.3,-0.00013865,1.4229,-0.00014367,-36.303,0.43792
7970,9.1379,2.5455,0.1,0.00043263,4323.3,0.00043252,4320,-0.00014204,2.9897,-0.00014372,-9.573,0.4382
7971,9.1379,2.7273,0.1,0.00043732,4370.1,0.00043751,4375.9,-0.0001432,12.675,-0.00014503,-1.0918,0.43839
7972,9.1379,2.9091,0.1,0.00043975,4394.4,0.00044009,4404.5,-0.00014337,20.63,-0.00014617,-0.34341,0.43849
7973,9.1379,3.0909,0.1,0.00043975,4394.4,0.00044009,4404.5,-0.00014337,20.63,-0.00014617,-0.34341,0.43849
7974,9.1379,3.2727,0.1,0.00043732,4370.1,0.00043751,4375.9,-0.0001432,12.675,-0.00014503,-1.0918,0.43839
7975,9.1379,3.4545,0.1,0.00043263,4323.3,0.00043252,4320,-0.00014204,2.9897,-0.00014372,-9.573,0.4382
7976,9.1379,3.6364,0.1,0.00042598,4256.9,0.00042538,4239.3,-0.00013865,1.4229,-0.00014367,-36.303,0.43792
7977,9.1379,3.8182,0.1,0.00041769,4174.1,0.00041641,4137.3,-0.00013409,1.0706,-0.00014402,-73.597,0.43754
7978,9.1379,4,0.1,0.000408,4077.2,0.0004059,4017.8,-0.00012873,0.87633,-0.00014442,-117.08,0.43707
7979,9.1379,4.1818,0.1,0.00039704,3967.7,0.00039407,3885.2,-0.00012291,0.71987,-0.00014442,-160.88,0.4365
7980,9.1379,4.3636,0.1,0.00038491,3846.5,0.00038116,3743.7,-0.00011702,0.58054,-0.00014349,-198.33,0.43584
7981,9.1379,4.5455,0.1,0.0003718,3715.4,0.00036749,3598.6,-0.00011139,0.46519,-0.00014126,-223.95,0.43509
7982,9.1379,4.7273,0.1,0.00035807,3578.2,0.0003535,3455.1,-0.0001063,0.3689,-0.00013762,-234.92,0.43425
7983,9.1379,4.9091,0.1,0.00034424,3440.1,0.00033973,3318.8,-0.00010193,0.28501,-0.00013274,-231.17,0.43332
7984,9.1379,5.0909,0.1,0.0003309,3306.7,0.00032673,3194.3,-9.8379e-05,0.20246,-0.00012696,-214.57,0.43231
7985,9.1379,5.2727,0.1,0.00031856,3183.4,0.00031495,3085.5,-9.5685e-05,0.12896,-0.00012067,-187.58,0.43121
7986,9.1379,5.4545,0.1,0.00030759,3073.7,0.00030471,2994.8,-9.387e-05,0.015373,-0.00011413,-152.19,0.43004
7987,9.1379,5.6364,0.1,0.00029815,2979.5,0.00029615,2923.6,-9.2932e-05,0.14066,-0.00010745,-108.97,0.42879
7988,9.1379,5.8182,0.1,0.00029027,2900.7,0.00028925,2871.5,-9.2949e-05,-0.18276,-0.00010056,-57.363,0.42748
7989,9.3207,0.18182,0.1,0.00026781,2676.2,0.00026665,2643.3,-8.5193e-05,-0.32227,-9.3725e-05,-64.429,0.44353
7990,9.3207,0.36364,0.1,0.0002767,2765.1,0.00027446,2703.1,-8.528e-05,0.12677,-0.0001013,-120.22,0.44486
7991,9.3207,0.54545,0.1,0.00028785,2876.5,0.00028457,2787.5,-8.6417e-05,0.042692,-0.00010911,-170.46,0.44613
7992,9.3207,0.72727,0.1,0.00030126,3010.5,0.00029701,2897,-8.8528e-05,0.18672,-0.00011725,-215.62,0.44733
7993,9.3207,0.90909,0.1,0.00031675,3165.3,0.00031166,3030.5,-9.1648e-05,0.28084,-0.00012554,-254.41,0.44846
7994,9.3207,1.0909,0.1,0.00033383,3336,0.00032811,3185.5,-9.5803e-05,0.37601,-0.00013355,-283.27,0.44951
7995,9.3207,1.2727,0.1,0.0003518,3515.5,0.00034579,3357.5,-0.00010101,0.46583,-0.00014066,-297.46,0.45047
7996,9.3207,1.4545,0.1,0.00036979,3695.4,0.00036395,3540.6,-0.0001072,0.56438,-0.00014623,-292.68,0.45135
7997,9.3207,1.6364,0.1,0.00038703,3867.6,0.0003818,3727.3,-0.00011419,0.6798,-0.00014985,-267.26,0.45214
7998,9.3207,1.8182,0.1,0.00040294,4026.6,0.00039867,3910.2,-0.00012164,0.79217,-0.00015159,-224.19,0.45283
7999,9.3207,2,0.1,0.00041729,4170,0.00041412,4082.1,-0.00012905,0.89735,-0.00015198,-171.35,0.45343
8000,9.3207,2.1818,0.1,0.00043,4297,0.00042786,4236.7,-0.00013589,0.91075,-0.00015184,-118.95,0.45392
8001,9.3207,2.3636,0.1,0.00044093,4406.2,0.00043961,4368.4,-0.00014169,0.77171,-0.00015183,-75.436,0.45432
8002,9.3207,2.5455,0.1,0.00044974,4494.2,0.00044897,4472,-0.00014615,0.50253,-0.00015216,-44.665,0.45463
8003,9.3207,2.7273,0.1,0.00045595,4556.4,0.0004555,4543.3,-0.00014916,0.095204,-0.00015265,-26.174,0.45483
8004,9.3207,2.9091,0.1,0.00045918,4588.6,0.00045887,4579.6,-0.00015068,-0.32659,-0.00015299,-17.663,0.45493
8005,9.3207,3.0909,0.1,0.00045918,4588.6,0.00045887,4579.6,-0.00015068,-0.32659,-0.00015299,-17.663,0.45493
8006,9.3207,3.2727,0.1,0.00045595,4556.4,0.0004555,4543.3,-0.00014916,0.095204,-0.00015265,-26.174,0.45483
8007,9.3207,3.4545,0.1,0.00044974,4494.2,0.00044897,4472,-0.00014615,0.50253,-0.00015216,-44.665,0.45463
8008,9.3207,3.6364,0.1,0.00044093,4406.2,0.00043961,4368.4,-0.00014169,0.77171,-0.00015183,-75.436,0.45432
8009,9.3207,3.8182,0.1,0.00043,4297,0.00042786,4236.7,-0.00013589,0.91075,-0.00015184,-118.95,0.45392
8010,9.3207,4,0.1,0.00041729,4170,0.00041412,4082.1,-0.00012905,0.89735,-0.00015198,-171.35,0.45343
8011,9.3207,4.1818,0.1,0.00040294,4026.6,0.00039867,3910.2,-0.00012164,0.79217,-0.00015159,-224.19,0.45283
8012,9.3207,4.3636,0.1,0.00038703,3867.6,0.0003818,3727.3,-0.00011419,0.67981,-0.00014985,-267.26,0.45214
8013,9.3207,4.5455,0.1,0.00036979,3695.4,0.00036395,3540.6,-0.0001072,0.56438,-0.00014623,-292.68,0.45135
8014,9.3207,4.7273,0.1,0.0003518,3515.5,0.00034579,3357.5,-0.00010101,0.46583,-0.00014066,-297.46,0.45047
8015,9.3207,4.9091,0.1,0.00033383,3336,0.00032811,3185.5,-9.5803e-05,0.37601,-0.00013355,-283.27,0.44951
8016,9.3207,5.0909,0.1,0.00031675,3165.3,0.00031166,3030.5,-9.1648e-05,0.28084,-0.00012554,-254.41,0.44846
8017,9.3207,5.2727,0.1,0.00030126,3010.5,0.00029701,2897,-8.8528e-05,0.18673,-0.00011725,-215.62,0.44733
8018,9.3207,5.4545,0.1,0.00028785,2876.5,0.00028457,2787.5,-8.6417e-05,0.042693,-0.00010911,-170.46,0.44613
8019,9.3207,5.6364,0.1,0.0002767,2765.1,0.00027446,2703.1,-8.528e-05,0.12677,-0.0001013,-120.22,0.44486
8020,9.3207,5.8182,0.1,0.00026781,2676.2,0.00026665,2643.3,-8.5193e-05,-0.32227,-9.3725e-05,-64.429,0.44353
8021,9.5034,0.18182,0.1,0.00024207,2419,0.00024078,2382.6,-7.6386e-05,-0.46727,-8.5754e-05,-70.854,0.45976
8022,9.5034,0.36364,0.1,0.00025188,2517.1,0.00024944,2450.1,-7.6631e-05,0.10719,-9.3838e-05,-129.18,0.46112
8023,9.5034,0.54545,0.1,0.00026495,2647.7,0.00026127,2549,-7.798e-05,0.085894,-0.00010293,-187.39,0.46242
8024,9.5034,0.72727,0.1,0.00028128,2810.8,0.00027629,2680.1,-8.0367e-05,0.25979,-0.00011309,-245.61,0.46365
8025,9.5034,0.90909,0.1,0.00030064,3004.4,0.00029438,2842.4,-8.3873e-05,0.37676,-0.00012404,-301.45,0.46482
8026,9.5034,1.0909,0.1,0.00032247,3222.4,0.00031511,3033.8,-8.8607e-05,0.492,-0.00013514,-349.16,0.46591
8027,9.5034,1.2727,0.1,0.0003458,3455.6,0.00033775,3249.8,-9.4687e-05,0.59957,-0.00014543,-380.65,0.46692
8028,9.5034,1.4545,0.1,0.00036944,3691.9,0.00036133,3483.2,-0.00010216,0.68047,-0.00015382,-387.43,0.46785
8029,9.5034,1.6364,0.1,0.00039215,3918.8,0.00038469,3724.3,-0.00011089,0.72532,-0.00015945,-364.17,0.46868
8030,9.5034,1.8182,0.1,0.000413,4127.2,0.00040679,3962,-0.00012041,0.81702,-0.0001622,-313.17,0.46942
8031,9.5034,2,0.1,0.00043168,4313.8,0.00042697,4185.7,-0.00013001,0.73663,-0.0001629,-246.34,0.47006
8032,9.5034,2.1818,0.1,0.00044818,4478.7,0.00044484,4386,-0.00013882,0.55308,-0.00016292,-180.57,0.47059
8033,9.5034,2.3636,0.1,0.00046237,4620.5,0.00046004,4554.7,-0.00014611,0.33206,-0.00016335,-129.22,0.47102
8034,9.5034,2.5455,0.1,0.00047377,4734.4,0.00047205,4685.3,-0.00015153,-0.056723,-0.00016441,-96.81,0.47135
8035,9.5034,2.7273,0.1,0.00048174,4814.1,0.00048032,4773.3,-0.00015502,-0.38252,-0.00016564,-80.142,0.47157
8036,9.5034,2.9091,0.1,0.00048583,4854.9,0.00048452,4817.4,-0.0001567,-0.52002,-0.00016644,-73.658,0.47168
8037,9.5034,3.0909,0.1,0.00048583,4854.9,0.00048452,4817.4,-0.0001567,-0.52002,-0.00016644,-73.658,0.47168
8038,9.5034,3.2727,0.1,0.00048174,4814.1,0.00048032,4773.3,-0.00015502,-0.38252,-0.00016564,-80.142,0.47157
8039,9.5034,3.4545,0.1,0.00047377,4734.4,0.00047205,4685.3,-0.00015153,-0.056723,-0.00016441,-96.81,0.47135
8040,9.5034,3.6364,0.1,0.00046237,4620.5,0.00046004,4554.7,-0.00014611,0.33206,-0.00016335,-129.22,0.47102
8041,9.5034,3.8182,0.1,0.00044818,4478.7,0.00044484,4386,-0.00013882,0.55308,-0.00016292,-180.57,0.47059
8042,9.5034,4,0.1,0.00043168,4313.8,0.00042697,4185.7,-0.00013001,0.73664,-0.0001629,-246.34,0.47006
8043,9.5034,4.1818,0.1,0.000413,4127.2,0.00040679,3962,-0.00012041,0.81702,-0.0001622,-313.17,0.46942
8044,9.5034,4.3636,0.1,0.00039215,3918.8,0.00038469,3724.3,-0.00011089,0.72532,-0.00015945,-364.17,0.46868
8045,9.5034,4.5455,0.1,0.00036944,3691.9,0.00036133,3483.2,-0.00010216,0.68047,-0.00015382,-387.43,0.46785
8046,9.5034,4.7273,0.1,0.0003458,3455.6,0.00033775,3249.8,-9.4687e-05,0.59957,-0.00014543,-380.65,0.46692
8047,9.5034,4.9091,0.1,0.00032247,3222.4,0.00031511,3033.8,-8.8607e-05,0.492,-0.00013514,-349.16,0.46591
8048,9.5034,5.0909,0.1,0.00030064,3004.4,0.00029438,2842.4,-8.3873e-05,0.37676,-0.00012404,-301.45,0.46482
8049,9.5034,5.2727,0.1,0.00028128,2810.8,0.00027629,2680.1,-8.0367e-05,0.25979,-0.00011309,-245.61,0.46365
8050,9.5034,5.4545,0.1,0.00026495,2647.7,0.00026127,2549,-7.798e-05,0.085896,-0.00010293,-187.39,0.46242
8051,9.5034,5.6364,0.1,0.00025188,2517.1,0.00024944,2450.1,-7.6631e-05,0.1072,-9.3838e-05,-129.18,0.46112
8052,9.5034,5.8182,0.1,0.00024207,2419,0.00024078,2382.6,-7.6386e-05,-0.46727,-8.5754e-05,-70.854,0.45976
8053,9.6862,0.18182,0.1,0.00021277,2126.2,0.00021137,2087,-6.6463e-05,-0.505,-7.6499e-05,-75.915,0.47615
8054,9.6862,0.36364,0.1,0.00022342,2232.6,0.00022082,2162.3,-6.6941e-05,0.14239,-8.4892e-05,-134.73,0.47754
8055,9.6862,0.54545,0.1,0.00023869,2385.3,0.0002346,2277.6,-6.8498e-05,0.19415,-9.5501e-05,-202.69,0.47887
8056,9.6862,0.72727,0.1,0.00025853,2583.5,0.00025265,2432.9,-7.1092e-05,0.37882,-0.00010826,-278.9,0.48014
8057,9.6862,0.90909,0.1,0.00028265,2824.6,0.00027482,2627.9,-7.4863e-05,0.52253,-0.00012276,-359.33,0.48136
8058,9.6862,1.0909,0.1,0.0003104,3101.9,0.0003007,2861.4,-8.004e-05,0.67513,-0.0001381,-435.53,0.48251
8059,9.6862,1.2727,0.1,0.00034068,3404.5,0.00032955,3130,-8.6928e-05,0.79698,-0.00015295,-495.24,0.48358
8060,9.6862,1.4545,0.1,0.00037188,3716.2,0.00036021,3427.2,-9.5796e-05,0.96112,-0.00016558,-523.38,0.48458
8061,9.6862,1.6364,0.1,0.000402,4017.2,0.00039099,3740.5,-0.00010666,1.2995,-0.00017425,-506.53,0.48547
8062,9.6862,1.8182,0.1,0.00042949,4292,0.00042022,4053.2,-0.00011908,1.1228,-0.00017831,-443.93,0.48627
8063,9.6862,2,0.1,0.00045372,4534.1,0.00044669,4347.6,-0.00013177,1.2917,-0.00017897,-353.33,0.48697
8064,9.6862,2.1818,0.1,0.00047493,4746,0.00046987,4608.2,-0.00014331,0.99593,-0.00017877,-265.44,0.48755
8065,9.6862,2.3636,0.1,0.00049301,4926.7,0.00048923,4821.8,-0.00015252,-0.1527,-0.00017958,-203.44,0.48803
8066,9.6862,2.5455,0.1,0.00050715,5068,0.00050402,4980.1,-0.00015887,-0.56621,-0.00018154,-170.84,0.48839
8067,9.6862,2.7273,0.1,0.00051668,5163.2,0.0005138,5082,-0.00016266,-0.63358,-0.00018364,-158.3,0.48863
8068,9.6862,2.9091,0.1,0.00052141,5210.5,0.00051859,5131,-0.00016439,-0.65922,-0.00018492,-154.96,0.48875
8069,9.6862,3.0909,0.1,0.00052141,5210.5,0.00051859,5131,-0.00016439,-0.65922,-0.00018492,-154.96,0.48875
8070,9.6862,3.2727,0.1,0.00051668,5163.2,0.0005138,5082,-0.00016266,-0.63358,-0.00018364,-158.3,0.48863
8071,9.6862,3.4545,0.1,0.00050715,5068,0.00050402,4980.1,-0.00015887,-0.56621,-0.00018154,-170.84,0.48839
8072,9.6862,3.6364,0.1,0.00049301,4926.7,0.00048923,4821.8,-0.00015252,-0.1527,-0.00017958,-203.44,0.48803
8073,9.6862,3.8182,0.1,0.00047493,4746,0.00046987,4608.2,-0.00014331,0.99593,-0.00017877,-265.44,0.48755
8074,9.6862,4,0.1,0.00045372,4534.1,0.00044669,4347.6,-0.00013177,1.2917,-0.00017897,-353.33,0.48697
8075,9.6862,4.1818,0.1,0.00042949,4292,0.00042022,4053.2,-0.00011908,1.1228,-0.00017831,-443.93,0.48627
8076,9.6862,4.3636,0.1,0.000402,4017.2,0.00039099,3740.5,-0.00010666,1.2995,-0.00017425,-506.53,0.48547
8077,9.6862,4.5455,0.1,0.00037188,3716.2,0.00036021,3427.2,-9.5796e-05,0.96112,-0.00016558,-523.38,0.48458
8078,9.6862,4.7273,0.1,0.00034068,3404.5,0.00032955,3130,-8.6928e-05,0.79698,-0.00015295,-495.24,0.48358
8079,9.6862,4.9091,0.1,0.0003104,3101.9,0.0003007,2861.4,-8.004e-05,0.67513,-0.0001381,-435.53,0.48251
8080,9.6862,5.0909,0.1,0.00028265,2824.6,0.00027482,2627.9,-7.4863e-05,0.52253,-0.00012276,-359.33,0.48136
8081,9.6862,5.2727,0.1,0.00025853,2583.5,0.00025265,2432.9,-7.1092e-05,0.37882,-0.00010826,-278.9,0.48014
8082,9.6862,5.4545,0.1,0.00023869,2385.3,0.0002346,2277.6,-6.8498e-05,0.19415,-9.5501e-05,-202.69,0.47887
8083,9.6862,5.6364,0.1,0.00022342,2232.6,0.00022082,2162.3,-6.6941e-05,0.14239,-8.4892e-05,-134.73,0.47754
8084,9.6862,5.8182,0.1,0.00021277,2126.2,0.00021137,2087,-6.6463e-05,-0.505,-7.6499e-05,-75.915,0.47615
8085,9.869,0.18182,0.1,0.00017981,1796.9,0.00017834,1756,-5.5415e-05,-0.29799,-6.5867e-05,-78.826,0.49268
8086,9.869,0.36364,0.1,0.00019133,1912,0.00018865,1840.2,-5.6234e-05,0.25814,-7.444e-05,-136.53,0.49409
8087,9.869,0.54545,0.1,0.00020938,2092.4,0.00020482,1975,-5.7988e-05,0.32584,-8.7045e-05,-218,0.49547
8088,9.869,0.72727,0.1,0.00023355,2333.9,0.00022647,2157.9,-6.0662e-05,0.45175,-0.00010325,-319.52,0.49679
8089,9.869,0.90909,0.1,0.00026342,2632.4,0.00025332,2388.3,-6.446e-05,0.57871,-0.00012237,-434.55,0.49807
8090,9.869,1.0909,0.1,0.00029837,2981.7,0.00028511,2667.1,-6.9764e-05,0.72055,-0.00014337,-552.33,0.49929
8091,9.869,1.2727,0.1,0.00033743,3372,0.00032143,2995.6,-7.7132e-05,1.0285,-0.00016468,-656.79,0.50045
8092,9.869,1.4545,0.1,0.00037885,3785.9,0.00036128,3371.6,-8.727e-05,1.3716,-0.00018391,-724.73,0.50153
8093,9.869,1.6364,0.1,0.0004198,4195.1,0.00040266,3783.8,-0.00010092,0.10546,-0.00019775,-727.5,0.50251
8094,9.869,1.8182,0.1,0.00045659,4562.8,0.00044213,4204.9,-0.0001174,0.83168,-0.00020365,-647.24,0.5034
8095,9.869,2,0.1,0.00048835,4880.1,0.00047756,4602.3,-0.00013516,-1.4868,-0.00020334,-513.73,0.50417
8096,9.869,2.1818,0.1,0.0005153,5149.5,0.00050762,4944.3,-0.00015081,-2.8709,-0.00020181,-386.05,0.50482
8097,9.869,2.3636,0.1,0.00053717,5368,0.00053129,5207.8,-0.00016191,-0.59005,-0.00020265,-306.73,0.50535
8098,9.869,2.5455,0.1,0.00055317,5527.8,0.00054795,5384.4,-0.0001688,-0.98035,-0.00020537,-275.74,0.50576
8099,9.869,2.7273,0.1,0.00056283,5624.4,0.00055776,5484.7,-0.00017232,-0.82585,-0.00020801,-268.99,0.50603
8100,9.869,2.9091,0.1,0.00056719,5668,0.00056213,5528.4,-0.00017375,-0.68263,-0.00020946,-268.99,0.50617
8101,9.869,3.0909,0.1,0.00056719,5668,0.00056213,5528.4,-0.00017375,-0.68263,-0.00020946,-268.99,0.50617
8102,9.869,3.2727,0.1,0.00056283,5624.4,0.00055776,5484.7,-0.00017232,-0.82585,-0.00020801,-268.99,0.50603
8103,9.869,3.4545,0.1,0.00055317,5527.8,0.00054795,5384.4,-0.0001688,-0.98035,-0.00020537,-275.74,0.50576
8104,9.869,3.6364,0.1,0.00053717,5368,0.00053129,5207.8,-0.00016191,-0.59005,-0.00020265,-306.73,0.50535
8105,9.869,3.8182,0.1,0.0005153,5149.5,0.00050762,4944.3,-0.00015081,-2.8709,-0.00020181,-386.05,0.50482
8106,9.869,4,0.1,0.00048835,4880.1,0.00047756,4602.3,-0.00013516,-1.4868,-0.00020334,-513.73,0.50417
8107,9.869,4.1818,0.1,0.00045659,4562.8,0.00044213,4204.9,-0.0001174,0.83168,-0.00020365,-647.24,0.5034
8108,9.869,4.3636,0.1,0.0004198,4195.1,0.00040266,3783.8,-0.00010092,0.10546,-0.00019775,-727.5,0.50251
8109,9.869,4.5455,0.1,0.00037885,3785.9,0.00036128,3371.6,-8.727e-05,1.3716,-0.00018391,-724.73,0.50153
8110,9.869,4.7273,0.1,0.00033743,3372,0.00032143,2995.6,-7.7132e-05,1.0285,-0.00016468,-656.79,0.50045
8111,9.869,4.9091,0.1,0.00029837,2981.7,0.00028511,2667.1,-6.9764e-05,0.72055,-0.00014337,-552.33,0.49929
8112,9.869,5.0909,0.1,0.00026342,2632.4,0.00025332,2388.3,-6.446e-05,0.57871,-0.00012237,-434.55,0.49807
8113,9.869,5.2727,0.1,0.00023355,2333.9,0.00022647,2157.9,-6.0662e-05,0.45175,-0.00010325,-319.52,0.49679
8114,9.869,5.4545,0.1,0.00020938,2092.4,0.00020482,1975,-5.7988e-05,0.32584,-8.7045e-05,-218,0.49547
8115,9.869,5.6364,0.1,0.00019133,1912,0.00018865,1840.2,-5.6234e-05,0.25814,-7.444e-05,-136.53,0.49409
8116,9.869,5.8182,0.1,0.00017981,1796.9,0.00017834,1756,-5.5415e-05,-0.29799,-6.5867e-05,-78.826,0.49268
8117,10.052,0.18182,0.1,0.00014334,1432.4,0.00014185,1391.9,-4.3248e-05,1.118,-5.3889e-05,-78.837,0.50932
8118,10.052,0.36364,0.1,0.00015641,1563,0.00015364,1490.6,-4.4587e-05,1.1508,-6.2958e-05,-136.89,0.51077
8119,10.052,0.54545,0.1,0.00017851,1783.9,0.00017322,1652.1,-4.6537e-05,0.98024,-7.8601e-05,-239.94,0.51219
8120,10.052,0.72727,0.1,0.00020821,2080.6,0.00019922,1866.7,-4.9101e-05,0.94082,-9.9398e-05,-376.97,0.51358
8121,10.052,0.90909,0.1,0.00024473,2445.6,0.0002311,2132.2,-5.2549e-05,1.0045,-0.00012427,-537.89,0.51493
8122,10.052,1.0909,0.1,0.00028784,2876.4,0.00026902,2453.8,-5.7372e-05,1.3609,-0.00015236,-712.31,0.51624
8123,10.052,1.2727,0.1,0.00033743,3371.9,0.00031356,2842.1,-6.4485e-05,1.6299,-0.00018241,-884.39,0.5175
8124,10.052,1.4545,0.1,0.00039295,3926.8,0.00036526,3311.7,-7.5276e-05,1.6763,-0.0002122,-1027.1,0.51869
8125,10.052,1.6364,0.1,0.00044985,4495.4,0.0004216,3859,-9.0963e-05,7.8481,-0.00023584,-1080.7,0.51979
8126,10.052,1.8182,0.1,0.00050205,5017,0.00047803,4453.9,-0.00011416,4.3925,-0.00024565,-983.56,0.52079
8127,10.052,2,0.1,0.0005447,5443.2,0.00052767,5023.8,-0.00013952,10.778,-0.00024292,-766.12,0.52167
8128,10.052,2.1818,0.1,0.00057762,5772.2,0.00056623,5477.5,-0.00016184,7.0632,-0.00023667,-555.2,0.52242
8129,10.052,2.3636,0.1,0.00060266,6022.5,0.00059364,5781.5,-0.00017647,-4.8524,-0.00023601,-452.21,0.52303
8130,10.052,2.5455,0.1,0.00061586,6154.4,0.00060755,5931.3,-0.00018196,-0.7603,-0.00023823,-423.61,0.5235
8131,10.052,2.7273,0.1,0.00062113,6207,0.00061294,5986.9,-0.00018396,-0.72252,-0.00023955,-418.36,0.52381
8132,10.052,2.9091,0.1,0.00062261,6221.8,0.00061443,6001.8,-0.00018442,-0.47085,-0.00024005,-418.45,0.52397
8133,10.052,3.0909,0.1,0.00062261,6221.8,0.00061443,6001.8,-0.00018442,-0.47085,-0.00024005,-418.45,0.52397
8134,10.052,3.2727,0.1,0.00062113,6207,0.00061294,5986.9,-0.00018396,-0.72252,-0.00023955,-418.36,0.52381
8135,10.052,3.4545,0.1,0.00061586,6154.4,0.00060755,5931.3,-0.00018196,-0.7603,-0.00023823,-423.61,0.5235
8136,10.052,3.6364,0.1,0.00060266,6022.5,0.00059364,5781.5,-0.00017647,-4.8524,-0.00023601,-452.21,0.52303
8137,10.052,3.8182,0.1,0.00057762,5772.2,0.00056623,5477.5,-0.00016184,7.0632,-0.00023667,-555.2,0.52242
8138,10.052,4,0.1,0.0005447,5443.2,0.00052767,5023.8,-0.00013952,10.778,-0.00024292,-766.12,0.52167
8139,10.052,4.1818,0.1,0.00050205,5017,0.00047803,4453.9,-0.00011416,4.3925,-0.00024565,-983.56,0.52079
8140,10.052,4.3636,0.1,0.00044985,4495.4,0.0004216,3859,-9.0963e-05,7.8481,-0.00023584,-1080.7,0.51979
8141,10.052,4.5455,0.1,0.00039295,3926.8,0.00036526,3311.7,-7.5276e-05,1.6763,-0.0002122,-1027.1,0.51869
8142,10.052,4.7273,0.1,0.00033743,3371.9,0.00031356,2842.1,-6.4485e-05,1.6299,-0.00018241,-884.39,0.5175
8143,10.052,4.9091,0.1,0.00028784,2876.4,0.00026902,2453.8,-5.7372e-05,1.3609,-0.00015236,-712.31,0.51624
8144,10.052,5.0909,0.1,0.00024473,2445.6,0.0002311,2132.2,-5.2549e-05,1.0045,-0.00012427,-537.89,0.51493
8145,10.052,5.2727,0.1,0.00020821,2080.6,0.00019922,1866.7,-4.9101e-05,0.94082,-9.9398e-05,-376.97,0.51358
8146,10.052,5.4545,0.1,0.00017851,1783.9,0.00017322,1652.1,-4.6537e-05,0.98024,-7.8601e-05,-239.94,0.51219
8147,10.052,5.6364,0.1,0.00015641,1563,0.00015364,1490.6,-4.4587e-05,1.1508,-6.2958e-05,-136.89,0.51077
8148,10.052,5.8182,0.1,0.00014334,1432.4,0.00014185,1391.9,-4.3248e-05,1.118,-5.3889e-05,-78.837,0.50932
8149,10.234,0.18182,0.1,0.00010425,1041.8,0.00010271,1001.3,-3.0102e-05,3.3862,-4.1131e-05,-79.476,0.52605
8150,10.234,0.36364,0.1,0.00012164,1215.5,0.0001184,1134.2,-3.2358e-05,1.4211,-5.2507e-05,-149.96,0.52753
8151,10.234,0.54545,0.1,0.00015052,1504.1,0.00014345,1337.7,-3.4536e-05,0.38829,-7.3279e-05,-290.71,0.529
8152,10.234,0.72727,0.1,0.00018715,1870.3,0.00017451,1587.2,-3.6771e-05,-0.27764,-9.9891e-05,-474.53,0.53046
8153,10.234,0.90909,0.1,0.00023073,2305.7,0.0002111,1881.5,-3.939e-05,-0.53454,-0.0001312,-690.36,0.5319
8154,10.234,1.0909,0.1,0.00028203,2818.3,0.00025428,2232.6,-4.2965e-05,-0.83106,-0.00016716,-934,0.53331
8155,10.234,1.2727,0.1,0.0003432,3429.6,0.00030652,2665.8,-4.8363e-05,-0.63483,-0.00020841,-1203.2,0.5347
8156,10.234,1.4545,0.1,0.0004158,4155.1,0.00037068,3218.2,-5.7661e-05,-0.17517,-0.00025363,-1472.6,0.53603
8157,10.234,1.6364,0.1,0.00050257,5022.3,0.00045197,3957,-7.5191e-05,-3.8737,-0.00029984,-1691.8,0.5373
8158,10.234,1.8182,0.1,0.00059142,5910.2,0.00054457,4882.1,-0.0001069,-12.732,-0.00032928,-1683.6,0.53847
8159,10.234,2,0.1,0.00064787,6474.2,0.0006182,5755.4,-0.00015556,-58.372,-0.00031036,-1221.5,0.5395
8160,10.234,2.1818,0.1,0.00068941,6889.4,0.00067146,6428.3,-0.00018811,-30.144,-0.00029367,-823.31,0.54038
8161,10.234,2.3636,0.1,0.00070161,7011.3,0.00068804,6658.6,-0.00019758,4.4126,-0.0002863,-662.21,0.54109
8162,10.234,2.5455,0.1,0.00069758,6971,0.00068491,6638.9,-0.00019883,-1.1893,-0.00028138,-621.45,0.54163
8163,10.234,2.7273,0.1,0.00068837,6879,0.00067621,6559.7,-0.00019681,0.093734,-0.00027661,-599.46,0.54199
8164,10.234,2.9091,0.1,0.00068262,6821.5,0.00067065,6507,-0.00019536,0.18227,-0.00027399,-590.67,0.54218
8165,10.234,3.0909,0.1,0.00068262,6821.5,0.00067065,6507,-0.00019536,0.18227,-0.00027399,-590.67,0.54218
8166,10.234,3.2727,0.1,0.00068837,6879,0.00067621,6559.7,-0.00019681,0.093735,-0.00027661,-599.46,0.54199
8167,10.234,3.4545,0.1,0.00069758,6971,0.00068491,6638.9,-0.00019883,-1.1893,-0.00028138,-621.45,0.54163
8168,10.234,3.6364,0.1,0.00070161,7011.3,0.00068804,6658.6,-0.00019758,4.4126,-0.0002863,-662.21,0.54109
8169,10.234,3.8182,0.1,0.00068941,6889.4,0.00067146,6428.3,-0.00018811,-30.144,-0.00029367,-823.31,0.54038
8170,10.234,4,0.1,0.00064787,6474.2,0.0006182,5755.4,-0.00015556,-58.372,-0.00031036,-1221.5,0.5395
8171,10.234,4.1818,0.1,0.00059142,5910.2,0.00054457,4882.1,-0.0001069,-12.732,-0.00032928,-1683.6,0.53847
8172,10.234,4.3636,0.1,0.00050257,5022.3,0.00045197,3957,-7.5191e-05,-3.8737,-0.00029984,-1691.8,0.5373
8173,10.234,4.5455,0.1,0.0004158,4155.1,0.00037068,3218.2,-5.7661e-05,-0.17517,-0.00025363,-1472.6,0.53603
8174,10.234,4.7273,0.1,0.0003432,3429.6,0.00030652,2665.8,-4.8363e-05,-0.63483,-0.00020841,-1203.2,0.5347
8175,10.234,4.9091,0.1,0.00028203,2818.3,0.00025428,2232.6,-4.2965e-05,-0.83106,-0.00016716,-934,0.53331
8176,10.234,5.0909,0.1,0.00023073,2305.7,0.0002111,1881.5,-3.939e-05,-0.53454,-0.0001312,-690.36,0.5319
8177,10.234,5.2727,0.1,0.00018715,1870.3,0.00017451,1587.2,-3.6771e-05,-0.27763,-9.9891e-05,-474.53,0.53046
8178,10.234,5.4545,0.1,0.00015052,1504.1,0.00014345,1337.7,-3.4536e-05,0.38829,-7.3279e-05,-290.71,0.529
8179,10.234,5.6364,0.1,0.00012164,1215.5,0.0001184,1134.2,-3.2358e-05,1.4211,-5.2507e-05,-149.96,0.52753
8180,10.234,5.8182,0.1,0.00010425,1041.8,0.00010271,1001.3,-3.0102e-05,3.3862,-4.1131e-05,-79.476,0.52605
8181,10.417,0.18182,0.1,6.8049e-05,680.02,6.5602e-05,625.09,-1.5382e-05,16.607,-3.2094e-05,-108.96,0.54284
8182,10.417,0.36364,0.1,9.9964e-05,998.95,9.3547e-05,856.94,-1.949e-05,7.6204,-5.2933e-05,-243.66,0.54436
8183,10.417,0.54545,0.1,0.0001404,1403,0.00012723,1125.3,-2.1764e-05,5.8212,-8.2245e-05,-448.61,0.54588
8184,10.417,0.72727,0.1,0.00018602,1858.9,0.00016421,1414,-2.3299e-05,5.159,-0.0001162,-692.88,0.54741
8185,10.417,0.90909,0.1,0.00023791,2377.4,0.00020566,1734.7,-2.4538e-05,5.0666,-0.00015515,-976.31,0.54894
8186,10.417,1.0909,0.1,0.00029862,2984.2,0.0002539,2107.8,-2.5761e-05,6.5265,-0.00020071,-1307.9,0.55048
8187,10.417,1.2727,0.1,0.00037277,3725.2,0.00031301,2566,-2.7885e-05,4.6592,-0.00025575,-1707.5,0.55201
8188,10.417,1.4545,0.1,0.00046863,4683.1,0.00039055,3184.9,-3.0777e-05,19.202,-0.00032543,-2194.7,0.55353
8189,10.417,1.6364,0.1,0.00060494,6045.2,0.00050297,4074,-4.132e-05,-15.57,-0.00042121,-2869.9,0.55501
8190,10.417,1.8182,0.1,0.0008062,8056.4,0.00069338,5860.7,-7.1996e-05,109.95,-0.00053213,-3347.3,0.55642
8191,10.417,2,0.1,0.0009557,9550.4,0.00088783,8215.2,-0.000144,462.48,-0.00053204,-2453.1,0.55769
8192,10.417,2.1818,0.1,0.00090294,9023.2,0.00087628,8353.3,-0.00023798,-18.815,-0.00039569,-1203.8,0.55876
8193,10.417,2.3636,0.1,0.00084678,8461.9,0.00082615,7939.6,-0.00022871,13.716,-0.00035992,-972.11,0.5596
8194,10.417,2.5455,0.1,0.00078679,7862.5,0.00076924,7410.4,-0.0002176,-4.2824,-0.00032803,-834.05,0.56022
8195,10.417,2.7273,0.1,0.00075188,7513.6,0.00073572,7097.4,-0.00020851,2.8412,-0.000312,-774.74,0.56063
8196,10.417,2.9091,0.1,0.00073528,7347.8,0.00071976,6946.7,-0.00020471,0.64239,-0.00030405,-745.76,0.56083
8197,10.417,3.0909,0.1,0.00073528,7347.8,0.00071976,6946.7,-0.00020471,0.64239,-0.00030405,-745.76,0.56083
8198,10.417,3.2727,0.1,0.00075188,7513.6,0.00073572,7097.4,-0.00020851,2.8412,-0.000312,-774.74,0.56063
8199,10.417,3.4545,0.1,0.00078679,7862.5,0.00076924,7410.4,-0.0002176,-4.2824,-0.00032803,-834.05,0.56022
8200,10.417,3.6364,0.1,0.00084678,8461.9,0.00082615,7939.6,-0.00022871,13.716,-0.00035992,-972.11,0.5596
8201,10.417,3.8182,0.1,0.00090294,9023.2,0.00087628,8353.3,-0.00023798,-18.815,-0.00039569,-1203.8,0.55876
8202,10.417,4,0.1,0.0009557,9550.4,0.00088783,8215.2,-0.000144,462.48,-0.00053204,-2453.1,0.55769
8203,10.417,4.1818,0.1,0.0008062,8056.4,0.00069338,5860.7,-7.1996e-05,109.95,-0.00053213,-3347.3,0.55642
8204,10.417,4.3636,0.1,0.00060494,6045.2,0.00050297,4074,-4.132e-05,-15.57,-0.00042121,-2869.9,0.55501
8205,10.417,4.5455,0.1,0.00046863,4683.1,0.00039055,3184.9,-3.0777e-05,19.202,-0.00032543,-2194.7,0.55353
8206,10.417,4.7273,0.1,0.00037277,3725.2,0.00031301,2566,-2.7885e-05,4.6592,-0.00025575,-1707.5,0.55201
8207,10.417,4.9091,0.1,0.00029862,2984.2,0.0002539,2107.8,-2.5761e-05,6.5265,-0.00020071,-1307.9,0.55048
8208,10.417,5.0909,0.1,0.00023791,2377.4,0.00020566,1734.7,-2.4538e-05,5.0666,-0.00015515,-976.31,0.54894
8209,10.417,5.2727,0.1,0.00018602,1858.9,0.00016421,1414,-2.3299e-05,5.159,-0.0001162,-692.88,0.54741
8210,10.417,5.4545,0.1,0.0001404,1403,0.00012723,1125.3,-2.1764e-05,5.8212,-8.2245e-05,-448.61,0.54588
8211,10.417,5.6364,0.1,9.9964e-05,998.95,9.3547e-05,856.94,-1.949e-05,7.6204,-5.2933e-05,-243.66,0.54436
8212,10.417,5.8182,0.1,6.8049e-05,680.02,6.5602e-05,625.09,-1.5382e-05,16.607,-3.2094e-05,-108.96,0.54284
8213,10.767,3.8182,0.1,0.0011966,11957,0.0011717,11303,-0.00034038,-58.638,-0.00048868,-1172.9,0.59563
8214,10.767,3.6364,0.1,0.00095464,9539.8,0.00093246,8978.9,-0.00025838,31.403,-0.00040357,-1059.5,0.59655
8215,10.767,3.4545,0.1,0.00084109,8405.1,0.00082199,7914.8,-0.00023156,-1.179,-0.00035201,-906.15,0.59721
8216,10.767,3.2727,0.1,0.00078256,7820.2,0.00076536,7378.2,-0.00021618,3.3034,-0.000326,-821.89,0.59764
8217,10.767,3.0909,0.1,0.00075753,7570,0.00074118,7149,-0.00021007,1.5916,-0.00031445,-782.66,0.59785
8218,10.767,2.9091,0.1,0.00075753,7570,0.00074118,7149,-0.00021007,1.5916,-0.00031445,-782.66,0.59785
8219,10.767,2.7273,0.1,0.00078256,7820.2,0.00076536,7378.2,-0.00021618,3.3034,-0.000326,-821.89,0.59764
8220,10.767,2.5455,0.1,0.00084109,8405.1,0.00082199,7914.8,-0.00023156,-1.179,-0.00035201,-906.15,0.59721
8221,10.767,2.3636,0.1,0.00095464,9539.8,0.00093246,8978.9,-0.00025838,31.403,-0.00040357,-1059.5,0.59655
8222,10.767,2.1818,0.1,0.0011966,11957,0.0011717,11303,-0.00034038,-58.638,-0.00048868,-1172.9,0.59563
8223,10.6,3.8182,0.1,0.001212,12112,0.0011797,11264,-0.00033804,-139.34,-0.00051243,-1449.6,0.5777
8224,10.6,3.6364,0.1,0.0009599,9592.4,0.00093549,8980.2,-0.0002557,30.045,-0.00041222,-1145.9,0.57865
8225,10.6,3.4545,0.1,0.0008471,8465.2,0.0008266,7942.5,-0.00023056,-0.64221,-0.00035859,-962.6,0.57932
8226,10.6,3.2727,0.1,0.00078866,7881.1,0.00077039,7414.2,-0.00021593,3.3559,-0.00033154,-865.29,0.57975
8227,10.6,3.0909,0.1,0.00076371,7631.8,0.00074643,7188.6,-0.00021009,1.7589,-0.00031965,-821.44,0.57996
8228,10.6,2.9091,0.1,0.00076371,7631.8,0.00074643,7188.6,-0.00021009,1.7589,-0.00031965,-821.44,0.57996
8229,10.6,2.7273,0.1,0.00078866,7881.1,0.00077039,7414.2,-0.00021593,3.3559,-0.00033154,-865.29,0.57975
8230,10.6,2.5455,0.1,0.0008471,8465.2,0.0008266,7942.5,-0.00023056,-0.64221,-0.00035859,-962.6,0.57932
8231,10.6,2.3636,0.1,0.0009599,9592.4,0.00093549,8980.2,-0.0002557,30.045,-0.00041222,-1145.9,0.57865
8232,10.6,2.1818,0.1,0.001212,12112,0.0011797,11264,-0.00033804,-139.34,-0.00051243,-1449.6,0.5777
8233,10.767,5.8182,0.1,3.2653e-05,326.31,3.1309e-05,291.93,-8.5842e-06,-7.8134,-1.4952e-05,-55.658,0.58219
8234,10.767,5.6364,0.1,5.9918e-05,598.77,5.6328e-05,513.24,-1.35e-05,-11.42,-3.0486e-05,-139.05,0.58322
8235,10.767,5.4545,0.1,8.5733e-05,856.73,7.9211e-05,709.18,-1.6722e-05,-11.62,-4.6853e-05,-238.01,0.58427
8236,10.767,5.2727,0.1,0.00011307,1130,0.00010289,906.96,-1.9547e-05,-12.966,-6.498e-05,-354.33,0.58535
8237,10.767,5.0909,0.1,0.00014375,1436.5,0.00012902,1121.7,-2.2289e-05,-15.153,-8.5845e-05,-492.69,0.58648
8238,10.767,4.9091,0.1,0.00018003,1799.1,0.00015958,1370.6,-2.5106e-05,-17.083,-0.00011095,-662.1,0.58764
8239,10.767,4.7273,0.1,0.00022552,2253.7,0.00019766,1676.9,-2.8871e-05,-25.156,-0.0001425,-878.89,0.58886
8240,10.767,4.5455,0.1,0.00028889,2886.9,0.00024983,2095.6,-3.2072e-05,-22.51,-0.0001878,-1192.6,0.59013
8241,10.767,4.3636,0.1,0.00036859,3683.4,0.00032018,2672.2,-4.7163e-05,-87.847,-0.00023647,-1510.2,0.59146
8242,10.767,4.1818,0.1,0.00064256,6421.2,0.00051598,4057,-2.1813e-05,16.229,-0.00046946,-3347.2,0.59286
8243,10.767,4,0.1,0.0017133,17121,0.0016705,16291,-0.00036869,969.45,-0.00078905,-2188.9,0.5944
8244,10.6,4,0.1,0.0017887,17875,0.0017013,16034,-0.00034803,635.52,-0.00090758,-3568.8,0.57639
8245,10.6,4.1818,0.1,0.00071416,7136.7,0.00052482,3779.6,2.3396e-05,12.144,-0.00057065,-4451.3,0.57459
8246,10.6,4.3636,0.1,0.0004125,4122.1,0.00032906,2519.5,-1.9254e-05,-97.594,-0.00030335,-2232.2,0.57284
8247,10.6,4.5455,0.1,0.0003241,3238.7,0.00025915,2013.4,-1.2171e-05,-25.167,-0.00023789,-1721.1,0.57109
8248,10.6,4.7273,0.1,0.00025395,2537.7,0.00020747,1641.8,-1.4921e-05,-29.16,-0.00018118,-1278.4,0.56937
8249,10.6,4.9091,0.1,0.00020307,2029.3,0.00016924,1367.1,-1.5401e-05,-20.197,-0.00014074,-961.97,0.56768
8250,10.6,5.0909,0.1,0.00016209,1619.8,0.00013806,1138.4,-1.5883e-05,-18.257,-0.00010832,-712.78,0.56602
8251,10.6,5.2727,0.1,0.00012726,1271.7,0.00011097,935.88,-1.5707e-05,-15.892,-8.1256e-05,-508.4,0.56438
8252,10.6,5.4545,0.1,9.6185e-05,961.19,8.6045e-05,743.8,-1.4872e-05,-14.453,-5.7832e-05,-337.23,0.56278
8253,10.6,5.6364,0.1,6.7023e-05,669.77,6.1662e-05,547.63,-1.3115e-05,-14.206,-3.6983e-05,-193.54,0.5612
8254,10.6,5.8182,0.1,3.6578e-05,365.53,3.4683e-05,318.22,-9.0853e-06,-10.641,-1.7696e-05,-75.342,0.55965
8255,10.767,0.18182,0.1,3.2653e-05,326.31,3.1309e-05,291.93,-8.5842e-06,-7.8134,-1.4952e-05,-55.658,0.58219
8256,10.767,0.36364,0.1,5.9918e-05,598.77,5.6328e-05,513.24,-1.35e-05,-11.42,-3.0486e-05,-139.05,0.58322
8257,10.767,0.54545,0.1,8.5733e-05,856.73,7.9211e-05,709.18,-1.6722e-05,-11.62,-4.6853e-05,-238.01,0.58427
8258,10.767,0.72727,0.1,0.00011307,1130,0.00010289,906.96,-1.9547e-05,-12.966,-6.498e-05,-354.33,0.58535
8259,10.767,0.90909,0.1,0.00014375,1436.5,0.00012902,1121.7,-2.2289e-05,-15.153,-8.5845e-05,-492.69,0.58648
8260,10.767,1.0909,0.1,0.00018003,1799.1,0.00015958,1370.6,-2.5106e-05,-17.083,-0.00011095,-662.1,0.58764
8261,10.767,1.2727,0.1,0.00022552,2253.7,0.00019766,1676.9,-2.8871e-05,-25.156,-0.0001425,-878.89,0.58886
8262,10.767,1.4545,0.1,0.00028889,2886.9,0.00024983,2095.6,-3.2072e-05,-22.51,-0.0001878,-1192.6,0.59013
8263,10.767,1.6364,0.1,0.00036859,3683.4,0.00032018,2672.2,-4.7163e-05,-87.847,-0.00023647,-1510.2,0.59146
8264,10.767,1.8182,0.1,0.00064256,6421.2,0.00051598,4057,-2.1813e-05,16.229,-0.00046946,-3347.2,0.59286
8265,10.767,2,0.1,0.0017133,17121,0.0016705,16291,-0.00036869,969.45,-0.00078905,-2188.9,0.5944
8266,10.6,2,0.1,0.0017887,17875,0.0017013,16034,-0.00034803,635.52,-0.00090758,-3568.8,0.57639
8267,10.6,1.8182,0.1,0.00071416,7136.7,0.00052482,3779.6,2.3396e-05,12.144,-0.00057065,-4451.3,0.57459
8268,10.6,1.6364,0.1,0.0004125,4122.1,0.00032906,2519.5,-1.9254e-05,-97.594,-0.00030335,-2232.2,0.57284
8269,10.6,1.4545,0.1,0.0003241,3238.7,0.00025915,2013.4,-1.2171e-05,-25.167,-0.00023789,-1721.1,0.57109
8270,10.6,1.2727,0.1,0.00025395,2537.7,0.00020747,1641.8,-1.4921e-05,-29.16,-0.00018118,-1278.4,0.56937
8271,10.6,1.0909,0.1,0.00020307,2029.3,0.00016924,1367.1,-1.5401e-05,-20.197,-0.00014074,-961.97,0.56768
8272,10.6,0.90909,0.1,0.00016209,1619.8,0.00013806,1138.4,-1.5883e-05,-18.257,-0.00010832,-712.78,0.56602
8273,10.6,0.72727,0.1,0.00012726,1271.7,0.00011097,935.88,-1.5707e-05,-15.892,-8.1256e-05,-508.4,0.56438
8274,10.6,0.54545,0.1,9.6185e-05,961.19,8.6045e-05,743.8,-1.4872e-05,-14.453,-5.7832e-05,-337.23,0.56278
8275,10.6,0.36364,0.1,6.7023e-05,669.77,6.1662e-05,547.63,-1.3115e-05,-14.206,-3.6983e-05,-193.54,0.5612
8276,10.6,0.18182,0.1,3.6578e-05,365.53,3.4683e-05,318.22,-9.0853e-06,-10.641,-1.7696e-05,-75.342,0.55965
8277,10.767,6,0.1,4.1183e-06,41.154,3.1681e-06,37.269,1.6004e-06,25.49,-2.9221e-06,-8.4903,0.58118
8278,10.95,6,0.1,3.9066e-05,390.39,3.8841e-05,384.32,-1.1954e-05,2.665,-1.4206e-05,-14.259,0.60367
8279,11.134,6,0.1,7.594e-05,758.88,7.56e-05,749.09,-2.4399e-05,-2.2631,-2.6372e-05,-17.086,0.62619
8280,11.318,6,0.1,0.00010799,1079.2,0.00010765,1069.3,-3.475e-05,-0.59481,-3.718e-05,-18.854,0.64876
8281,11.502,6,0.1,0.00013597,1358.7,0.00013564,1349.2,-4.3954e-05,-0.19538,-4.6424e-05,-18.761,0.6714
8282,11.686,6,0.1,0.00015977,1596.6,0.00015947,1588,-5.1833e-05,0.31369,-5.4192e-05,-17.413,0.69413
8283,11.869,6,0.1,0.00017949,1793.7,0.00017923,1786.1,-5.8411e-05,0.57218,-6.0558e-05,-15.563,0.71697
8284,12.053,6,0.1,0.00019536,1952.2,0.00019514,1945.8,-6.3736e-05,0.70231,-6.5636e-05,-13.571,0.73992
8285,12.237,6,0.1,0.00020774,2076,0.00020755,2070.5,-6.7915e-05,0.72387,-6.9564e-05,-11.665,0.76301
8286,12.421,6,0.1,0.00021705,2169,0.00021689,2164.4,-7.1078e-05,0.67945,-7.2493e-05,-9.9525,0.78623
8287,12.605,6,0.1,0.00022374,2235.8,0.0002236,2231.9,-7.3363e-05,0.5969,-7.4571e-05,-8.4778,0.8096
8288,12.788,6,0.1,0.00022821,2280.5,0.00022809,2277.1,-7.4908e-05,0.49726,-7.5939e-05,-7.2457,0.83312
8289,12.972,6,0.1,0.00023085,2306.9,0.00023075,2303.9,-7.5837e-05,0.39418,-7.672e-05,-6.2417,0.8568
8290,13.156,6,0.1,0.00023198,2318.2,0.00023189,2315.6,-7.6259e-05,0.29611,-7.7023e-05,-5.4426,0.88063
8291,13.34,6,0.1,0.0002319,2317.4,0.00023182,2315,-7.6269e-05,0.20767,-7.6939e-05,-4.8229,0.90461
8292,13.524,6,0.1,0.00023083,2306.7,0.00023076,2304.6,-7.5947e-05,0.13098,-7.6544e-05,-4.358,0.92876
8293,13.707,6,0.1,0.00022898,2288.2,0.00022891,2286.2,-7.5358e-05,0.066586,-7.5903e-05,-4.0255,0.95305
8294,13.891,6,0.1,0.00022651,2263.5,0.00022644,2261.6,-7.4557e-05,0.014077,-7.5066e-05,-3.8056,0.9775
8295,14.075,6,0.1,0.00022354,2233.9,0.00022348,2232,-7.3589e-05,-0.027522,-7.4075e-05,-3.6809,1.0021
8296,14.259,6,0.1,0.00022019,2200.4,0.00022013,2198.6,-7.2488e-05,-0.059407,-7.2964e-05,-3.6365,1.0269
8297,14.443,6,0.1,0.00021654,2163.9,0.00021648,2162.1,-7.1285e-05,-0.082926,-7.1761e-05,-3.6596,1.0518
8298,14.626,6,0.1,0.00021266,2125.1,0.0002126,2123.2,-7.0001e-05,-0.099403,-7.0486e-05,-3.7391,1.0768
8299,14.81,6,0.1,0.0002086,2084.6,0.00020853,2082.6,-6.8656e-05,-0.11001,-6.9156e-05,-3.8657,1.102
8300,14.994,6,0.1,0.00020441,2042.7,0.00020434,2040.6,-6.7265e-05,-0.1158,-6.7786e-05,-4.0309,1.1273
8301,15.178,6,0.1,0.00020011,1999.8,0.00020004,1997.6,-6.5838e-05,-0.1177,-6.6385e-05,-4.2279,1.1528
8302,15.362,6,0.1,0.00019575,1956.1,0.00019567,1953.8,-6.4386e-05,-0.11648,-6.4963e-05,-4.4506,1.1784
8303,15.545,6,0.1,0.00019133,1912,0.00019125,1909.6,-6.2916e-05,-0.11283,-6.3525e-05,-4.6938,1.2042
8304,15.729,6,0.1,0.00018688,1867.5,0.00018679,1864.9,-6.1433e-05,-0.10734,-6.2078e-05,-4.9533,1.23
8305,15.913,6,0.1,0.0001824,1822.8,0.00018231,1820.1,-5.9942e-05,-0.10045,-6.0624e-05,-5.2255,1.256
8306,16.097,6,0.1,0.00017792,1777.9,0.00017782,1775.1,-5.8447e-05,-0.09253,-5.9168e-05,-5.5073,1.2821
8307,16.281,6,0.1,0.00017343,1733.1,0.00017332,1730.1,-5.695e-05,-0.083872,-5.771e-05,-5.7962,1.3084
8308,16.464,6,0.1,0.00016894,1688.2,0.00016883,1685.1,-5.5454e-05,-0.074681,-5.6254e-05,-6.0901,1.3347
8309,16.648,6,0.1,0.00016446,1643.4,0.00016435,1640.2,-5.396e-05,-0.065169,-5.4801e-05,-6.3873,1.3612
8310,16.832,6,0.1,0.00015999,1598.8,0.00015987,1595.4,-5.2469e-05,-0.0555,-5.3351e-05,-6.6867,1.3878
8311,17.016,6,0.1,0.00015553,1554.2,0.00015541,1550.7,-5.0982e-05,-0.045762,-5.1906e-05,-6.987,1.4144
8312,17.2,6,0.1,0.00015109,1509.8,0.00015096,1506.2,-4.9501e-05,-0.036025,-5.0466e-05,-7.2876,1.4412
8313,17.383,6,0.1,0.00014666,1465.6,0.00014653,1461.8,-4.8024e-05,-0.026334,-4.9031e-05,-7.5879,1.4681
8314,17.567,6,0.1,0.00014226,1421.6,0.00014212,1417.6,-4.6554e-05,-0.016695,-4.7602e-05,-7.8873,1.4951
8315,17.751,6,0.1,0.00013787,1377.7,0.00013773,1373.6,-4.509e-05,-0.0071433,-4.6179e-05,-8.1857,1.5222
8316,17.935,6,0.1,0.0001335,1334,0.00013335,1329.8,-4.3633e-05,0.0023005,-4.4762e-05,-8.4828,1.5494
8317,18.119,6,0.1,0.00012915,1290.6,0.00012899,1286.2,-4.2182e-05,0.011658,-4.3352e-05,-8.7785,1.5766
8318,18.302,6,0.1,0.00012482,1247.3,0.00012466,1242.7,-4.0737e-05,0.020958,-4.1947e-05,-9.0728,1.604
8319,18.486,6,0.1,0.0001205,1204.2,0.00012034,1199.5,-3.9299e-05,0.030226,-4.0549e-05,-9.3656,1.6314
8320,18.67,6,0.1,0.00011621,1161.3,0.00011604,1156.5,-3.7867e-05,0.039514,-3.9158e-05,-9.6569,1.6589
8321,18.854,6,0.1,0.00011194,1118.6,0.00011177,1113.6,-3.6442e-05,0.048846,-3.7772e-05,-9.9468,1.6865
8322,19.038,6,0.1,0.00010768,1076.1,0.00010751,1071,-3.5023e-05,0.058246,-3.6393e-05,-10.235,1.7142
8323,19.221,6,0.1,0.00010345,1033.8,0.00010327,1028.5,-3.361e-05,0.067771,-3.5019e-05,-10.522,1.7419
8324,19.405,6,0.1,9.9232e-05,991.64,9.9045e-05,986.23,-3.2203e-05,0.077476,-3.3652e-05,-10.807,1.7697
8325,19.589,6,0.1,9.5034e-05,949.68,9.4842e-05,944.13,-3.0803e-05,0.087413,-3.2291e-05,-11.091,1.7976
8326,19.773,6,0.1,9.0853e-05,907.9,9.0656e-05,902.21,-2.9408e-05,0.097666,-3.0935e-05,-11.372,1.8255
8327,19.956,6,0.1,8.669e-05,866.3,8.6488e-05,860.47,-2.802e-05,0.10828,-2.9585e-05,-11.652,1.8535
8328,20.14,6,0.1,8.2544e-05,824.87,8.2337e-05,818.9,-2.6637e-05,0.1193,-2.824e-05,-11.928,1.8816
8329,20.324,6,0.1,7.8415e-05,783.61,7.8202e-05,777.5,-2.5259e-05,0.13082,-2.6901e-05,-12.201,1.9097
8330,20.508,6,0.1,7.4303e-05,742.51,7.4085e-05,736.27,-2.3888e-05,0.14293,-2.5566e-05,-12.471,1.9378
8331,20.692,6,0.1,7.0207e-05,701.58,6.9984e-05,695.2,-2.2521e-05,0.15571,-2.4237e-05,-12.736,1.966
8332,20.875,6,0.1,6.6127e-05,660.81,6.5898e-05,654.3,-2.1161e-05,0.16928,-2.2913e-05,-12.994,1.9943
8333,21.059,6,0.1,6.2062e-05,620.2,6.1829e-05,613.55,-1.9805e-05,0.18374,-2.1593e-05,-13.246,2.0226
8334,21.243,6,0.1,5.8014e-05,579.74,5.7776e-05,572.97,-1.8456e-05,0.1992,-2.0278e-05,-13.489,2.0509
8335,21.427,6,0.1,5.3981e-05,539.44,5.3738e-05,532.55,-1.7112e-05,0.21585,-1.8967e-05,-13.722,2.0793
8336,21.611,6,0.1,4.9965e-05,499.3,4.9716e-05,492.3,-1.5773e-05,0.23385,-1.766e-05,-13.942,2.1077
8337,21.794,6,0.1,4.5964e-05,459.33,4.5711e-05,452.21,-1.4441e-05,0.25345,-1.6357e-05,-14.147,2.1362
8338,21.978,6,0.1,4.1981e-05,419.52,4.1723e-05,412.3,-1.3114e-05,0.27492,-1.5059e-05,-14.332,2.1646
8339,22.162,6,0.1,3.8015e-05,379.89,3.7752e-05,372.58,-1.1795e-05,0.29861,-1.3764e-05,-14.494,2.1931
8340,22.346,6,0.1,3.407e-05,340.46,3.3802e-05,333.06,-1.0483e-05,0.32498,-1.2473e-05,-14.627,2.2217
8341,22.53,6,0.1,3.0146e-05,301.25,2.9873e-05,293.78,-9.1797e-06,0.35464,-1.1187e-05,-14.724,2.2502
8342,22.713,6,0.1,2.6247e-05,262.29,2.5969e-05,254.77,-7.8863e-06,0.38853,-9.9045e-06,-14.776,2.2788
8343,22.897,6,0.1,2.2379e-05,223.63,2.2096e-05,216.08,-6.605e-06,0.42762,-8.6273e-06,-14.767,2.3073
8344,23.081,6,0.1,1.8548e-05,185.36,1.826e-05,177.79,-5.3389e-06,0.47476,-7.3556e-06,-14.678,2.3359
8345,23.265,6,0.1,1.4768e-05,147.58,1.4474e-05,140.03,-4.0933e-06,0.5289,-6.0906e-06,-14.478,2.3645
8346,23.449,6,0.1,1.1057e-05,110.49,1.0754e-05,103.02,-2.8758e-06,0.6137,-4.8315e-06,-14.081,2.3932
8347,23.632,6,0.1,7.4621e-06,74.569,7.1427e-06,67.157,-1.7037e-06,0.6883,-3.5894e-06,-13.48,2.4218
8348,23.816,6,0.1,3.9951e-06,39.923,3.6754e-06,33.352,-6.2384e-07,1.0487,-2.265e-06,-11.283,2.4504
8349,24,6,0.1,9.4632e-07,9.4567,7.4212e-07,5.1899,-8.9155e-08,-1.056,-7.0591e-07,-5.69,2.479
8350,24,5.8182,0.1,3.9301e-06,39.274,1.9395e-06,6.7157,7.5961e-07,-2.1499,-3.7766e-06,-36.233,2.4792
8351,24,5.6364,0.1,6.6251e-06,66.205,2.8704e-06,7.0868,1.6367e-06,-2.1832,-6.4928e-06,-63.265,2.4793
8352,24,5.4545,0.1,8.6954e-06,86.894,3.5764e-06,7.2033,2.3002e-06,-2.385,-8.5736e-06,-84.087,2.4795
8353,24,5.2727,0.1,1.0417e-05,104.09,4.151e-06,7.2392,2.8658e-06,-2.4172,-1.0301e-05,-101.35,2.4796
8354,24,5.0909,0.1,1.188e-05,118.72,4.6354e-06,7.217,3.3483e-06,-2.4538,-1.177e-05,-116.05,2.4797
8355,24,4.9091,0.1,1.3141e-05,131.32,5.0501e-06,7.177,3.7655e-06,-2.475,-1.3035e-05,-128.71,2.4798
8356,24,4.7273,0.1,1.4232e-05,142.22,5.4074e-06,7.1277,4.1271e-06,-2.4918,-1.4128e-05,-139.66,2.48
8357,24,4.5455,0.1,1.5174e-05,151.63,5.7151e-06,7.0765,4.44e-06,-2.5043,-1.5073e-05,-149.12,2.4801
8358,24,4.3636,0.1,1.5983e-05,159.72,5.9792e-06,7.0269,4.7094e-06,-2.514,-1.5885e-05,-157.25,2.4802
8359,24,4.1818,0.1,1.6673e-05,166.61,6.2035e-06,6.9811,4.9388e-06,-2.5215,-1.6577e-05,-164.18,2.4802
8360,24,4,0.1,1.725e-05,172.38,6.3913e-06,6.9405,5.1312e-06,-2.5274,-1.7156e-05,-169.98,2.4803
8361,24,3.8182,0.1,1.7723e-05,177.11,6.5448e-06,6.9059,5.2887e-06,-2.5319,-1.763e-05,-174.73,2.4804
8362,24,3.6364,0.1,1.8096e-05,180.83,6.6657e-06,6.8778,5.4129e-06,-2.5354,-1.8003e-05,-178.48,2.4804
8363,24,3.4545,0.1,1.8372e-05,183.59,6.7554e-06,6.8564,5.5051e-06,-2.5378,-1.828e-05,-181.25,2.4805
8364,24,3.2727,0.1,1.8555e-05,185.42,6.8147e-06,6.8421,5.5661e-06,-2.5394,-1.8464e-05,-183.09,2.4805
8365,24,3.0909,0.1,1.8646e-05,186.33,6.8442e-06,6.835,5.5965e-06,-2.5402,-1.8555e-05,-184.01,2.4805
8366,24,2.9091,0.1,1.8646e-05,186.33,6.8442e-06,6.835,5.5965e-06,-2.5402,-1.8555e-05,-184.01,2.4805
8367,24,2.7273,0.1,1.8555e-05,185.42,6.8147e-06,6.8421,5.5661e-06,-2.5394,-1.8464e-05,-183.09,2.4805
8368,24,2.5455,0.1,1.8372e-05,183.59,6.7554e-06,6.8564,5.5051e-06,-2.5378,-1.828e-05,-181.25,2.4805
8369,24,2.3636,0.1,1.8096e-05,180.83,6.6657e-06,6.8778,5.4129e-06,-2.5354,-1.8003e-05,-178.48,2.4804
8370,24,2.1818,0.1,1.7723e-05,177.11,6.5448e-06,6.9059,5.2887e-06,-2.5319,-1.763e-05,-174.73,2.4804
8371,24,2,0.1,1.725e-05,172.38,6.3913e-06,6.9405,5.1312e-06,-2.5274,-1.7156e-05,-169.98,2.4803
8372,24,1.8182,0.1,1.6673e-05,166.61,6.2035e-06,6.9811,4.9388e-06,-2.5215,-1.6577e-05,-164.18,2.4802
8373,24,1.6364,0.1,1.5983e-05,159.72,5.9792e-06,7.0269,4.7093e-06,-2.514,-1.5885e-05,-157.25,2.4802
8374,24,1.4545,0.1,1.5174e-05,151.63,5.7151e-06,7.0765,4.44e-06,-2.5043,-1.5073e-05,-149.12,2.4801
8375,24,1.2727,0.1,1.4232e-05,142.22,5.4073e-06,7.1277,4.1271e-06,-2.4918,-1.4128e-05,-139.66,2.48
8376,24,1.0909,0.1,1.3141e-05,131.32,5.0501e-06,7.177,3.7655e-06,-2.475,-1.3035e-05,-128.71,2.4798
8377,24,0.90909,0.1,1.188e-05,118.72,4.6354e-06,7.217,3.3483e-06,-2.4538,-1.177e-05,-116.05,2.4797
8378,24,0.72727,0.1,1.0417e-05,104.09,4.151e-06,7.2392,2.8658e-06,-2.4172,-1.0301e-05,-101.35,2.4796
8379,24,0.54545,0.1,8.6954e-06,86.894,3.5764e-06,7.2033,2.3002e-06,-2.385,-8.5736e-06,-84.087,2.4795
8380,24,0.36364,0.1,6.6251e-06,66.205,2.8704e-06,7.0868,1.6367e-06,-2.1832,-6.4928e-06,-63.265,2.4793
8381,24,0.18182,0.1,3.9301e-06,39.274,1.9395e-06,6.7156,7.5961e-07,-2.1499,-3.7766e-06,-36.233,2.4792
8382,1.5894e-15,0.18182,0.1,0.00013749,1373.9,0.00017529,2494.5,1.9482e-06,1192,-1.579e-05,1058.8,0
8383,3.1789e-15,0.36364,0.1,0.00023644,2362.8,0.00031376,4636.7,3.762e-06,2307.5,-4.9836e-06,2241.8,0
8384,4.7683e-15,0.54545,0.1,0.00028846,2882.6,0.00038389,5687.7,2.8626e-06,2824.8,-2.3445e-06,2785.7,0
8385,6.3578e-15,0.72727,0.1,0.00032138,3211.6,0.00042762,6334,1.7803e-06,3134.5,-1.4142e-06,3110.5,0
8386,7.9472e-15,0.90909,0.1,0.00034338,3431.4,0.00045681,6765.4,1.1985e-06,3342.2,-9.5152e-07,3326,0
8387,9.5366e-15,1.0909,0.1,0.00035907,3588.2,0.00047765,7073.5,8.5686e-07,3491,-6.8084e-07,3479.5,0
8388,1.1126e-14,1.2727,0.1,0.00037069,3704.3,0.00049308,7301.6,6.324e-07,3601.5,-5.0547e-07,3593,0
8389,1.2716e-14,1.4545,0.1,0.0003795,3792.4,0.00050478,7474.6,4.7852e-07,3685.5,-3.8359e-07,3679,0
8390,1.4305e-14,1.6364,0.1,0.00038629,3860.2,0.0005138,7607.9,3.6773e-07,3750.2,-2.9449e-07,3745.2,0
8391,1.5894e-14,1.8182,0.1,0.00039155,3912.8,0.00052079,7711.3,2.8484e-07,3800.5,-2.2668e-07,3796.6,0
8392,1.7484e-14,2,0.1,0.00039562,3953.5,0.0005262,7791.5,2.2071e-07,3839.4,-1.7321e-07,3836.5,0
8393,1.9073e-14,2.1818,0.1,0.00039875,3984.8,0.00053036,7852.9,1.6953e-07,3869.3,-1.296e-07,3867,0
8394,2.0663e-14,2.3636,0.1,0.00040109,4008.2,0.00053347,7899,1.2743e-07,3891.6,-9.2844e-08,3890,0
8395,2.2252e-14,2.5455,0.1,0.00040276,4024.9,0.00053569,7931.8,9.18e-08,3907.5,-6.0859e-08,3906.4,0
8396,2.3842e-14,2.7273,0.1,0.00040384,4035.6,0.00053712,7952.9,6.1093e-08,3917.7,-3.2419e-08,3917,0
8397,2.5431e-14,2.9091,0.1,0.00040436,4040.8,0.00053782,7963.2,3.6562e-08,3922.6,-8.9772e-09,3922.2,0
8398,2.702e-14,3.0909,0.1,0.00040436,4040.8,0.00053782,7963.2,3.6562e-08,3922.6,-8.9773e-09,3922.2,0
8399,2.861e-14,3.2727,0.1,0.00040384,4035.6,0.00053712,7952.9,6.1093e-08,3917.7,-3.2419e-08,3917,0
8400,3.0199e-14,3.4545,0.1,0.00040276,4024.9,0.00053569,7931.8,9.18e-08,3907.5,-6.0859e-08,3906.4,0
8401,3.1789e-14,3.6364,0.1,0.00040109,4008.2,0.00053347,7899,1.2743e-07,3891.6,-9.2844e-08,3890,0
8402,3.3378e-14,3.8182,0.1,0.00039875,3984.8,0.00053036,7852.9,1.6953e-07,3869.3,-1.296e-07,3867,0
8403,3.4968e-14,4,0.1,0.00039562,3953.5,0.0005262,7791.5,2.2071e-07,3839.4,-1.7321e-07,3836.5,0
8404,3.6557e-14,4.1818,0.1,0.00039155,3912.8,0.00052079,7711.3,2.8484e-07,3800.5,-2.2668e-07,3796.6,0
8405,3.8147e-14,4.3636,0.1,0.00038629,3860.2,0.0005138,7607.9,3.6773e-07,3750.2,-2.9449e-07,3745.2,0
8406,3.9736e-14,4.5455,0.1,0.0003795,3792.4,0.00050478,7474.6,4.7852e-07,3685.5,-3.8359e-07,3679,0
8407,4.1325e-14,4.7273,0.1,0.00037069,3704.3,0.00049308,7301.6,6.324e-07,3601.5,-5.0547e-07,3593,0
8408,4.2915e-14,4.9091,0.1,0.00035907,3588.2,0.00047765,7073.5,8.5686e-07,3491,-6.8084e-07,3479.5,0
8409,4.4504e-14,5.0909,0.1,0.00034338,3431.4,0.00045681,6765.4,1.1985e-06,3342.2,-9.5152e-07,3326,0
8410,4.6094e-14,5.2727,0.1,0.00032138,3211.6,0.00042762,6334,1.7803e-06,3134.5,-1.4142e-06,3110.5,0
8411,4.7683e-14,5.4545,0.1,0.00028846,2882.6,0.00038389,5687.7,2.8626e-06,2824.8,-2.3445e-06,2785.7,0
8412,4.9273e-14,5.6364,0.1,0.00023644,2362.8,0.00031376,4636.7,3.762e-06,2307.5,-4.9836e-06,2241.8,0
8413,5.0862e-14,5.8182,0.1,0.00013749,1373.9,0.00017529,2494.5,1.9482e-06,1192,-1.579e-05,1058.8,0
8414,24,0,0.1,9.4632e-07,9.4567,7.4212e-07,5.1899,-8.9155e-08,-1.056,-7.0591e-07,-5.69,2.479
8415,23.816,0,0.1,3.9951e-06,39.923,3.6754e-06,33.352,-6.2384e-07,1.0487,-2.265e-06,-11.283,2.4504
8416,23.632,0,0.1,7.4621e-06,74.569,7.1427e-06,67.157,-1.7037e-06,0.68831,-3.5894e-06,-13.48,2.4218
8417,23.449,0,0.1,1.1057e-05,110.49,1.0754e-05,103.02,-2.8758e-06,0.6137,-4.8315e-06,-14.081,2.3932
8418,23.265,0,0.1,1.4768e-05,147.58,1.4474e-05,140.03,-4.0933e-06,0.5289,-6.0906e-06,-14.478,2.3645
8419,23.081,0,0.1,1.8548e-05,185.36,1.826e-05,177.79,-5.3389e-06,0.47476,-7.3556e-06,-14.678,2.3359
8420,22.897,0,0.1,2.2379e-05,223.63,2.2096e-05,216.08,-6.605e-06,0.42762,-8.6273e-06,-14.767,2.3073
8421,22.713,0,0.1,2.6247e-05,262.29,2.5969e-05,254.77,-7.8863e-06,0.38852,-9.9045e-06,-14.776,2.2788
8422,22.53,0,0.1,3.0146e-05,301.25,2.9873e-05,293.78,-9.1797e-06,0.35464,-1.1187e-05,-14.724,2.2502
8423,22.346,0,0.1,3.407e-05,340.46,3.3802e-05,333.06,-1.0483e-05,0.32498,-1.2473e-05,-14.627,2.2217
8424,22.162,0,0.1,3.8015e-05,379.89,3.7752e-05,372.58,-1.1795e-05,0.29861,-1.3764e-05,-14.494,2.1931
8425,21.978,0,0.1,4.1981e-05,419.52,4.1723e-05,412.3,-1.3114e-05,0.27492,-1.5059e-05,-14.332,2.1646
8426,21.794,0,0.1,4.5964e-05,459.33,4.5711e-05,452.21,-1.4441e-05,0.25345,-1.6357e-05,-14.147,2.1362
8427,21.611,0,0.1,4.9965e-05,499.3,4.9716e-05,492.3,-1.5773e-05,0.23385,-1.766e-05,-13.942,2.1077
8428,21.427,0,0.1,5.3981e-05,539.44,5.3738e-05,532.55,-1.7112e-05,0.21585,-1.8967e-05,-13.722,2.0793
8429,21.243,0,0.1,5.8014e-05,579.74,5.7776e-05,572.97,-1.8456e-05,0.1992,-2.0278e-05,-13.489,2.0509
8430,21.059,0,0.1,6.2062e-05,620.2,6.1829e-05,613.55,-1.9805e-05,0.18373,-2.1593e-05,-13.246,2.0226
8431,20.875,0,0.1,6.6127e-05,660.81,6.5898e-05,654.3,-2.1161e-05,0.16928,-2.2913e-05,-12.994,1.9943
8432,20.692,0,0.1,7.0207e-05,701.58,6.9984e-05,695.2,-2.2521e-05,0.15571,-2.4237e-05,-12.736,1.966
8433,20.508,0,0.1,7.4303e-05,742.51,7.4085e-05,736.27,-2.3888e-05,0.14293,-2.5566e-05,-12.471,1.9378
8434,20.324,0,0.1,7.8415e-05,783.61,7.8202e-05,777.5,-2.5259e-05,0.13083,-2.6901e-05,-12.201,1.9097
8435,20.14,0,0.1,8.2544e-05,824.87,8.2337e-05,818.9,-2.6637e-05,0.1193,-2.824e-05,-11.928,1.8816
8436,19.956,0,0.1,8.669e-05,866.3,8.6488e-05,860.47,-2.802e-05,0.10828,-2.9585e-05,-11.652,1.8535
8437,19.773,0,0.1,9.0853e-05,907.9,9.0656e-05,902.21,-2.9408e-05,0.097668,-3.0935e-05,-11.372,1.8255
8438,19.589,0,0.1,9.5034e-05,949.68,9.4842e-05,944.13,-3.0803e-05,0.087415,-3.2291e-05,-11.091,1.7976
8439,19.405,0,0.1,9.9232e-05,991.64,9.9045e-05,986.23,-3.2203e-05,0.077478,-3.3652e-05,-10.807,1.7697
8440,19.221,0,0.1,0.00010345,1033.8,0.00010327,1028.5,-3.361e-05,0.06777,-3.5019e-05,-10.522,1.7419
8441,19.038,0,0.1,0.00010768,1076.1,0.00010751,1071,-3.5023e-05,0.058246,-3.6393e-05,-10.235,1.7142
8442,18.854,0,0.1,0.00011194,1118.6,0.00011177,1113.6,-3.6442e-05,0.048847,-3.7772e-05,-9.9468,1.6865
8443,18.67,0,0.1,0.00011621,1161.3,0.00011604,1156.5,-3.7867e-05,0.039517,-3.9158e-05,-9.6569,1.6589
8444,18.486,0,0.1,0.0001205,1204.2,0.00012034,1199.5,-3.9299e-05,0.030227,-4.0549e-05,-9.3656,1.6314
8445,18.302,0,0.1,0.00012482,1247.3,0.00012466,1242.7,-4.0737e-05,0.02096,-4.1947e-05,-9.0728,1.604
8446,18.119,0,0.1,0.00012915,1290.6,0.00012899,1286.2,-4.2182e-05,0.011664,-4.3352e-05,-8.7785,1.5766
8447,17.935,0,0.1,0.0001335,1334,0.00013335,1329.8,-4.3633e-05,0.0022986,-4.4762e-05,-8.4828,1.5494
8448,17.751,0,0.1,0.00013787,1377.7,0.00013773,1373.6,-4.509e-05,-0.0071465,-4.6179e-05,-8.1857,1.5222
8449,17.567,0,0.1,0.00014226,1421.6,0.00014212,1417.6,-4.6554e-05,-0.016694,-4.7602e-05,-7.8873,1.4951
8450,17.383,0,0.1,0.00014666,1465.6,0.00014653,1461.8,-4.8024e-05,-0.026334,-4.9031e-05,-7.5879,1.4681
8451,17.2,0,0.1,0.00015109,1509.8,0.00015096,1506.2,-4.9501e-05,-0.036026,-5.0466e-05,-7.2876,1.4412
8452,17.016,0,0.1,0.00015553,1554.2,0.00015541,1550.7,-5.0982e-05,-0.045762,-5.1906e-05,-6.987,1.4144
8453,16.832,0,0.1,0.00015999,1598.8,0.00015987,1595.4,-5.2469e-05,-0.055501,-5.3351e-05,-6.6867,1.3878
8454,16.648,0,0.1,0.00016446,1643.4,0.00016435,1640.2,-5.396e-05,-0.065169,-5.4801e-05,-6.3873,1.3612
8455,16.464,0,0.1,0.00016894,1688.2,0.00016883,1685.1,-5.5454e-05,-0.074681,-5.6254e-05,-6.0901,1.3347
8456,16.281,0,0.1,0.00017343,1733.1,0.00017332,1730.1,-5.695e-05,-0.083872,-5.771e-05,-5.7962,1.3084
8457,16.097,0,0.1,0.00017792,1777.9,0.00017782,1775.1,-5.8447e-05,-0.092529,-5.9168e-05,-5.5073,1.2821
8458,15.913,0,0.1,0.0001824,1822.8,0.00018231,1820.1,-5.9942e-05,-0.10045,-6.0624e-05,-5.2255,1.256
8459,15.729,0,0.1,0.00018688,1867.5,0.00018679,1864.9,-6.1433e-05,-0.10734,-6.2078e-05,-4.9533,1.23
8460,15.545,0,0.1,0.00019133,1912,0.00019125,1909.6,-6.2916e-05,-0.11283,-6.3525e-05,-4.6938,1.2042
8461,15.362,0,0.1,0.00019575,1956.1,0.00019567,1953.8,-6.4386e-05,-0.11648,-6.4963e-05,-4.4506,1.1784
8462,15.178,0,0.1,0.00020011,1999.8,0.00020004,1997.6,-6.5838e-05,-0.1177,-6.6385e-05,-4.2279,1.1528
8463,14.994,0,0.1,0.00020441,2042.7,0.00020434,2040.6,-6.7265e-05,-0.11579,-6.7786e-05,-4.0309,1.1273
8464,14.81,0,0.1,0.0002086,2084.6,0.00020853,2082.6,-6.8656e-05,-0.11001,-6.9156e-05,-3.8657,1.102
8465,14.626,0,0.1,0.00021266,2125.1,0.0002126,2123.2,-7.0001e-05,-0.099403,-7.0486e-05,-3.7391,1.0768
8466,14.443,0,0.1,0.00021654,2163.9,0.00021648,2162.1,-7.1285e-05,-0.082926,-7.1761e-05,-3.6596,1.0518
8467,14.259,0,0.1,0.00022019,2200.4,0.00022013,2198.6,-7.2488e-05,-0.059406,-7.2964e-05,-3.6365,1.0269
8468,14.075,0,0.1,0.00022354,2233.9,0.00022348,2232,-7.3589e-05,-0.027522,-7.4075e-05,-3.6809,1.0021
8469,13.891,0,0.1,0.00022651,2263.5,0.00022644,2261.6,-7.4557e-05,0.014077,-7.5066e-05,-3.8056,0.9775
8470,13.707,0,0.1,0.00022898,2288.2,0.00022891,2286.2,-7.5358e-05,0.066587,-7.5903e-05,-4.0255,0.95305
8471,13.524,0,0.1,0.00023083,2306.7,0.00023076,2304.6,-7.5947e-05,0.13097,-7.6544e-05,-4.358,0.92876
8472,13.34,0,0.1,0.0002319,2317.4,0.00023182,2315,-7.6269e-05,0.20767,-7.6939e-05,-4.8229,0.90461
8473,13.156,0,0.1,0.00023198,2318.2,0.00023189,2315.6,-7.6259e-05,0.29611,-7.7023e-05,-5.4426,0.88063
8474,12.972,0,0.1,0.00023085,2306.9,0.00023075,2303.9,-7.5837e-05,0.39418,-7.672e-05,-6.2417,0.8568
8475,12.788,0,0.1,0.00022821,2280.5,0.00022809,2277.1,-7.4908e-05,0.49726,-7.5939e-05,-7.2457,0.83312
8476,12.605,0,0.1,0.00022374,2235.8,0.0002236,2231.9,-7.3363e-05,0.5969,-7.4571e-05,-8.4778,0.8096
8477,12.421,0,0.1,0.00021705,2169,0.00021689,2164.4,-7.1078e-05,0.67945,-7.2493e-05,-9.9525,0.78623
8478,12.237,0,0.1,0.00020774,2076,0.00020755,2070.5,-6.7915e-05,0.72387,-6.9564e-05,-11.665,0.76301
8479,12.053,0,0.1,0.00019536,1952.2,0.00019514,1945.8,-6.3736e-05,0.70231,-6.5636e-05,-13.571,0.73992
8480,11.869,0,0.1,0.00017949,1793.7,0.00017923,1786.1,-5.8411e-05,0.57218,-6.0558e-05,-15.563,0.71697
8481,11.686,0,0.1,0.00015977,1596.6,0.00015947,1588,-5.1833e-05,0.31369,-5.4192e-05,-17.413,0.69413
8482,11.502,0,0.1,0.00013597,1358.7,0.00013564,1349.2,-4.3954e-05,-0.19538,-4.6424e-05,-18.761,0.6714
8483,11.318,0,0.1,0.00010799,1079.2,0.00010765,1069.3,-3.475e-05,-0.59481,-3.718e-05,-18.854,0.64876
8484,11.134,0,0.1,7.594e-05,758.88,7.56e-05,749.09,-2.4399e-05,-2.2631,-2.6372e-05,-17.086,0.62619
8485,10.95,0,0.1,3.9066e-05,390.39,3.8841e-05,384.32,-1.1954e-05,2.665,-1.4206e-05,-14.259,0.60367
8486,10.767,0,0.1,4.1183e-06,41.154,3.1681e-06,37.269,1.6004e-06,25.49,-2.9221e-06,-8.4903,0.58118
8487,10.6,0,0.1,4.6565e-06,46.533,3.606e-06,41.965,1.7391e-06,27.938,-3.3059e-06,-9.9677,0.55811
8488,10.417,-1.4307e-30,0.1,4.5532e-05,455.01,4.5346e-05,450,-1.4056e-05,3.681,-1.6305e-05,-13.217,0.54132
8489,10.234,-1.4056e-30,0.1,9.0731e-05,906.69,9.0464e-05,898.94,-2.9398e-05,-1.6531,-3.1004e-05,-13.721,0.52455
8490,10.052,-1.3805e-30,0.1,0.00013188,1317.9,0.00013164,1311,-4.281e-05,0.22221,-4.4693e-05,-13.925,0.50785
8491,9.869,-1.3554e-30,0.1,0.00016965,1695.3,0.00016943,1689.1,-5.5282e-05,0.66744,-5.7101e-05,-13.002,0.49123
8492,9.6862,-1.3303e-30,0.1,0.00020377,2036.3,0.0002036,2031.2,-6.6576e-05,1.247,-6.8258e-05,-11.391,0.47472
8493,9.5034,-1.3052e-30,0.1,0.00023419,2340.3,0.00023405,2336.2,-7.6675e-05,1.5298,-7.8169e-05,-9.7003,0.45835
8494,9.3207,-1.2801e-30,0.1,0.000261,2608.2,0.00026089,2605,-8.5588e-05,1.6551,-8.6892e-05,-8.1407,0.44214
8495,9.1379,-1.255e-30,0.1,0.00028445,2842.6,0.00028436,2840,-9.3394e-05,1.6441,-9.452e-05,-6.8149,0.42609
8496,8.9552,-1.2299e-30,0.1,0.0003049,3046.8,0.00030482,3044.7,-0.0001002,1.5464,-0.00010117,-5.7324,0.41024
8497,8.7724,-1.2048e-30,0.1,0.00032271,3224.9,0.00032265,3223.2,-0.00010614,1.3955,-0.00010697,-4.8661,0.39459
8498,8.5897,-1.1797e-30,0.1,0.0003383,3380.6,0.00033825,3379.1,-0.00011133,1.2177,-0.00011205,-4.1734,0.37915
8499,8.4069,-1.1546e-30,0.1,0.000352,3517.6,0.00035196,3516.3,-0.0001159,1.0306,-0.00011651,-3.6106,0.36394
8500,8.2241,-1.1295e-30,0.1,0.00036416,3639.1,0.00036412,3637.9,-0.00011995,0.84576,-0.00012048,-3.1392,0.34896
8501,8.0414,-1.1044e-30,0.1,0.00037504,3747.8,0.00037501,3746.8,-0.00012357,0.66985,-0.00012403,-2.7284,0.33423
8502,7.8586,-1.0793e-30,0.1,0.0003849,3846.4,0.00038487,3845.4,-0.00012686,0.5063,-0.00012724,-2.3548,0.31975
8503,7.6759,-1.0542e-30,0.1,0.00039393,3936.6,0.0003939,3935.8,-0.00012987,0.35629,-0.00013018,-2.0016,0.30552
8504,7.4931,-1.0291e-30,0.1,0.0004023,4020.2,0.00040227,4019.5,-0.00013266,0.21957,-0.00013291,-1.6573,0.29156
8505,7.3103,-1.004e-30,0.1,0.00041015,4098.6,0.00041012,4098,-0.00013527,0.095113,-0.00013546,-1.3146,0.27786
8506,7.1276,-9.7891e-31,0.1,0.00041758,4172.9,0.00041756,4172.4,-0.00013776,-0.018599,-0.00013788,-0.96914,0.26444
8507,6.9448,-9.5381e-31,0.1,0.0004247,4244,0.00042469,4243.7,-0.00014013,-0.12328,-0.0001402,-0.61869,0.2513
8508,6.7621,-9.2871e-31,0.1,0.00043157,4312.7,0.00043156,4312.5,-0.00014242,-0.22063,-0.00014243,-0.26284,0.23844
8509,6.5793,-9.0361e-31,0.1,0.00043826,4379.5,0.00043825,4379.4,-0.0001446,0.097794,-0.00014466,-0.31246,0.22587
8510,6.3966,-8.7851e-31,0.1,0.00044481,4445,0.00044481,4445,-0.00014673,0.46129,-0.00014684,-0.40024,0.21359
8511,6.2138,-8.5341e-31,0.1,0.00045126,4509.5,0.00045127,4509.7,-0.00014882,0.82503,-0.000149,-0.48548,0.20161
8512,6.031,-8.2831e-31,0.1,0.00045765,4573.4,0.00045766,4573.7,-0.0001509,1.1855,-0.00015113,-0.56954,0.18993
8513,5.8483,-8.0321e-31,0.1,0.000464,4636.8,0.00046402,4637.3,-0.00015296,1.5384,-0.00015325,-0.65365,0.17856
8514,5.6655,-7.7811e-31,0.1,0.00047034,4700.1,0.00047036,4700.7,-0.00015502,1.8783,-0.00015537,-0.73896,0.16749
8515,5.4828,-7.5301e-31,0.1,0.00047667,4763.4,0.00047669,4764.1,-0.00015708,2.1987,-0.00015748,-0.82651,0.15674
8516,5.3,-7.2791e-31,0.1,0.00048301,4826.8,0.00048304,4827.6,-0.00015914,2.4919,-0.00015959,-0.91732,0.14631
8517,5.1172,-7.0281e-31,0.1,0.00048938,4890.5,0.00048941,4891.3,-0.00016122,2.7487,-0.00016172,-1.0124,0.13621
8518,4.9345,-6.7771e-31,0.1,0.00049579,4954.4,0.00049582,4955.4,-0.00016331,2.9584,-0.00016385,-1.1126,0.12643
8519,4.7517,-6.5261e-31,0.1,0.00050223,5018.8,0.00050226,5019.8,-0.00016542,3.1079,-0.00016599,-1.2189,0.11698
8520,4.569,-6.2751e-31,0.1,0.00050871,5083.6,0.00050874,5084.5,-0.00016754,3.1823,-0.00016814,-1.3325,0.10787
8521,4.3862,-6.0241e-31,0.1,0.00051525,5148.9,0.00051527,5149.8,-0.00016969,3.164,-0.00017031,-1.4545,0.099094
8522,4.2034,-5.7731e-31,0.1,0.00052182,5214.6,0.00052185,5215.4,-0.00017187,3.0324,-0.00017248,-1.5864,0.090667
8523,4.0207,-5.5221e-31,0.1,0.00052845,5280.8,0.00052846,5281.3,-0.00017407,2.7642,-0.00017467,-1.7304,0.082588
8524,3.8379,-5.2711e-31,0.1,0.00053511,5347.4,0.00053512,5347.6,-0.0001763,2.3325,-0.00017686,-1.8895,0.074863
8525,3.6552,-5.0201e-31,0.1,0.0005418,5414.3,0.00054179,5414.1,-0.00017855,1.7084,-0.00017905,-2.0698,0.067495
8526,3.4724,-4.7691e-31,0.1,0.00054851,5481.3,0.00054848,5480.6,-0.00018082,0.86483,-0.00018124,-2.2848,0.06049
8527,3.2897,-4.5181e-31,0.1,0.00055521,5548.2,0.00055516,5546.8,-0.00018311,-0.20462,-0.00018342,-2.576,0.053851
8528,3.1069,-4.2671e-31,0.1,0.00056188,5614.9,0.0005618,5612.6,-0.00018538,-1.3802,-0.00018561,-3.1195,0.047584
8529,2.9241,-4.0161e-31,0.1,0.00056847,5680.8,0.00056836,5677.5,-0.00018756,-2.2086,-0.00018786,-4.4351,0.041691
8530,2.7414,-3.7651e-31,0.1,0.00057495,5745.5,0.00057479,5740.8,-0.00018962,-2.6423,-0.00019016,-6.6499,0.036178
8531,2.5586,-3.5141e-31,0.1,0.00058123,5808.3,0.00058101,5802,-0.00019158,-2.9654,-0.00019246,-9.5758,0.031049
8532,2.3759,-3.263e-31,0.1,0.00058722,5868.2,0.00058694,5859.9,-0.0001934,-3.2704,-0.00019473,-13.238,0.026307
8533,2.1931,-3.012e-31,0.1,0.0005928,5923.9,0.00059244,5913.3,-0.00019504,-3.5854,-0.00019693,-17.753,0.021956
8534,2.0103,-2.761e-31,0.1,0.0005978,5973.9,0.00059734,5960.3,-0.00019645,-3.9241,-0.00019903,-23.295,0.017999
8535,1.8276,-2.51e-31,0.1,0.00060199,6015.7,0.0006014,5998.5,-0.00019752,-4.2957,-0.00020096,-30.094,0.01444
8536,1.6448,-2.259e-31,0.1,0.00060504,6046.2,0.0006043,6024.5,-0.00019815,-4.7146,-0.00020264,-38.467,0.01128
8537,1.4621,-2.008e-31,0.1,0.00060648,6060.6,0.00060555,6033.5,-0.00019815,-5.1808,-0.00020396,-48.847,0.0085203
8538,1.2793,-1.757e-31,0.1,0.00060565,6052.4,0.00060448,6018.3,-0.00019727,-5.7569,-0.00020475,-61.909,0.0061611
8539,1.0966,-1.506e-31,0.1,0.00060151,6011,0.00060004,5968.2,-0.00019513,-6.3134,-0.00020474,-78.558,0.0042005
8540,0.91379,-1.255e-31,0.1,0.00059243,5920.2,0.00059053,5865.5,-0.00019111,-7.3738,-0.00020354,-100.8,0.0026339
8541,0.73103,-1.004e-31,0.1,0.00057556,5751.6,0.0005731,5681.4,-0.00018405,-7.5392,-0.00020047,-130.93,0.0014531
8542,0.54828,-7.5301e-32,0.1,0.00054536,5449.9,0.00054197,5354,-0.00017196,-10.192,-0.00019424,-177.59,0.00064431
8543,0.36552,-5.0201e-32,0.1,0.00049203,4916.9,0.0004869,4774.9,-0.00015081,-16.593,-0.00018299,-258.42,0.00018629
8544,0.18276,-2.51e-32,0.1,0.00037812,3778.6,0.000369,3558.3,-9.7579e-05,52.571,-0.00016368,-444.07,4.9213e-05
8545,0,0,0.1,0.00022472,2245.6,0.00014772,753.45,-3.3222e-07,-358.99,-0.00019628,-1831.2,0
8546,3.937e-14,6,0.1,0.00022472,2245.6,0.00014772,753.45,-3.3222e-07,-358.99,-0.00019628,-1831.2,0
8547,0.18276,6,0.1,0.00037812,3778.6,0.000369,3558.3,-9.7579e-05,52.571,-0.00016368,-444.07,4.9213e-05
8548,0.36552,6,0.1,0.00049203,4916.9,0.0004869,4774.9,-0.00015081,-16.593,-0.00018299,-258.42,0.00018629
8549,0.54828,6,0.1,0.00054536,5449.9,0.00054197,5354,-0.00017196,-10.192,-0.00019424,-177.59,0.00064431
8550,0.73103,6,0.1,0.00057556,5751.6,0.0005731,5681.4,-0.00018405,-7.5392,-0.00020047,-130.93,0.0014531
8551,0.91379,6,0.1,0.00059243,5920.2,0.00059053,5865.5,-0.00019111,-7.3738,-0.00020354,-100.8,0.0026339
8552,1.0966,6,0.1,0.00060151,6011,0.00060004,5968.2,-0.00019513,-6.3134,-0.00020474,-78.558,0.0042005
8553,1.2793,6,0.1,0.00060565,6052.4,0.00060448,6018.3,-0.00019727,-5.7569,-0.00020475,-61.909,0.0061611
8554,1.4621,6,0.1,0.00060648,6060.6,0.00060555,6033.5,-0.00019815,-5.1808,-0.00020396,-48.847,0.0085203
8555,1.6448,6,0.1,0.00060504,6046.2,0.0006043,6024.5,-0.00019815,-4.7146,-0.00020264,-38.467,0.01128
8556,1.8276,6,0.1,0.00060199,6015.7,0.0006014,5998.5,-0.00019752,-4.2957,-0.00020096,-30.094,0.01444
8557,2.0103,6,0.1,0.0005978,5973.9,0.00059734,5960.3,-0.00019645,-3.9241,-0.00019903,-23.295,0.017999
8558,2.1931,6,0.1,0.0005928,5923.9,0.00059244,5913.3,-0.00019504,-3.5854,-0.00019693,-17.753,0.021956
8559,2.3759,6,0.1,0.00058722,5868.2,0.00058694,5859.9,-0.0001934,-3.2704,-0.00019473,-13.238,0.026307
8560,2.5586,6,0.1,0.00058123,5808.3,0.00058101,5802,-0.00019158,-2.9654,-0.00019246,-9.5758,0.031049
8561,2.7414,6,0.1,0.00057495,5745.5,0.00057479,5740.8,-0.00018962,-2.6423,-0.00019016,-6.6499,0.036178
8562,2.9241,6,0.1,0.00056847,5680.8,0.00056836,5677.5,-0.00018756,-2.2086,-0.00018786,-4.4351,0.041691
8563,3.1069,6,0.1,0.00056188,5614.9,0.0005618,5612.6,-0.00018538,-1.3802,-0.00018561,-3.1195,0.047584
8564,3.2897,6,0.1,0.00055521,5548.2,0.00055516,5546.8,-0.00018311,-0.20462,-0.00018342,-2.576,0.053851
8565,3.4724,6,0.1,0.00054851,5481.3,0.00054848,5480.6,-0.00018082,0.86483,-0.00018124,-2.2848,0.06049
8566,3.6552,6,0.1,0.0005418,5414.3,0.00054179,5414.1,-0.00017855,1.7084,-0.00017905,-2.0698,0.067495
8567,3.8379,6,0.1,0.00053511,5347.4,0.00053512,5347.6,-0.0001763,2.3325,-0.00017686,-1.8895,0.074863
8568,4.0207,6,0.1,0.00052845,5280.8,0.00052846,5281.3,-0.00017407,2.7642,-0.00017467,-1.7304,0.082588
8569,4.2034,6,0.1,0.00052182,5214.6,0.00052185,5215.4,-0.00017187,3.0324,-0.00017248,-1.5864,0.090667
8570,4.3862,6,0.1,0.00051525,5148.9,0.00051527,5149.8,-0.00016969,3.164,-0.00017031,-1.4545,0.099094
8571,4.569,6,0.1,0.00050871,5083.6,0.00050874,5084.5,-0.00016754,3.1823,-0.00016814,-1.3325,0.10787
8572,4.7517,6,0.1,0.00050223,5018.8,0.00050226,5019.8,-0.00016542,3.1079,-0.00016599,-1.2189,0.11698
8573,4.9345,6,0.1,0.00049579,4954.4,0.00049582,4955.4,-0.00016331,2.9584,-0.00016385,-1.1126,0.12643
8574,5.1172,6,0.1,0.00048938,4890.5,0.00048941,4891.3,-0.00016122,2.7487,-0.00016172,-1.0124,0.13621
8575,5.3,6,0.1,0.00048301,4826.8,0.00048304,4827.6,-0.00015914,2.4919,-0.00015959,-0.91732,0.14631
8576,5.4828,6,0.1,0.00047667,4763.4,0.00047669,4764.1,-0.00015708,2.1987,-0.00015748,-0.82651,0.15674
8577,5.6655,6,0.1,0.00047034,4700.1,0.00047036,4700.7,-0.00015502,1.8783,-0.00015537,-0.73896,0.16749
8578,5.8483,6,0.1,0.000464,4636.8,0.00046402,4637.3,-0.00015296,1.5384,-0.00015325,-0.65364,0.17856
8579,6.031,6,0.1,0.00045765,4573.4,0.00045766,4573.7,-0.0001509,1.1855,-0.00015113,-0.56954,0.18993
8580,6.2138,6,0.1,0.00045126,4509.5,0.00045127,4509.7,-0.00014882,0.82503,-0.000149,-0.48548,0.20161
8581,6.3966,6,0.1,0.00044481,4445,0.00044481,4445,-0.00014673,0.46129,-0.00014684,-0.40023,0.21359
8582,6.5793,6,0.1,0.00043826,4379.5,0.00043825,4379.4,-0.0001446,0.097795,-0.00014466,-0.31246,0.22587
8583,6.7621,6,0.1,0.00043157,4312.7,0.00043156,4312.5,-0.00014242,-0.22063,-0.00014243,-0.26284,0.23844
8584,6.9448,6,0.1,0.0004247,4244,0.00042469,4243.7,-0.00014013,-0.12328,-0.0001402,-0.61869,0.2513
8585,7.1276,6,0.1,0.00041758,4172.9,0.00041756,4172.4,-0.00013776,-0.018598,-0.00013788,-0.96914,0.26444
8586,7.3103,6,0.1,0.00041015,4098.6,0.00041012,4098,-0.00013527,0.095113,-0.00013546,-1.3146,0.27786
8587,7.4931,6,0.1,0.0004023,4020.2,0.00040227,4019.5,-0.00013266,0.21957,-0.00013291,-1.6573,0.29156
8588,7.6759,6,0.1,0.00039393,3936.6,0.0003939,3935.8,-0.00012987,0.35629,-0.00013018,-2.0016,0.30552
8589,7.8586,6,0.1,0.0003849,3846.4,0.00038487,3845.4,-0.00012686,0.5063,-0.00012724,-2.3548,0.31975
8590,8.0414,6,0.1,0.00037504,3747.8,0.00037501,3746.8,-0.00012357,0.66985,-0.00012403,-2.7284,0.33423
8591,8.2241,6,0.1,0.00036416,3639.1,0.00036412,3637.9,-0.00011995,0.84576,-0.00012048,-3.1392,0.34896
8592,8.4069,6,0.1,0.000352,3517.6,0.00035196,3516.3,-0.0001159,1.0306,-0.00011651,-3.6106,0.36394
8593,8.5897,6,0.1,0.0003383,3380.6,0.00033825,3379.1,-0.00011133,1.2177,-0.00011205,-4.1734,0.37915
8594,8.7724,6,0.1,0.00032271,3224.9,0.00032265,3223.2,-0.00010614,1.3955,-0.00010697,-4.8661,0.39459
8595,8.9552,6,0.1,0.0003049,3046.8,0.00030482,3044.7,-0.0001002,1.5464,-0.00010117,-5.7324,0.41024
8596,9.1379,6,0.1,0.00028445,2842.6,0.00028436,2840,-9.3394e-05,1.6441,-9.452e-05,-6.8149,0.42609
8597,9.3207,6,0.1,0.000261,2608.2,0.00026089,2605,-8.5588e-05,1.6551,-8.6892e-05,-8.1407,0.44214
8598,9.5034,6,0.1,0.00023419,2340.3,0.00023405,2336.2,-7.6675e-05,1.5298,-7.8169e-05,-9.7003,0.45835
8599,9.6862,6,0.1,0.00020377,2036.3,0.0002036,2031.2,-6.6576e-05,1.247,-6.8258e-05,-11.391,0.47472
8600,9.869,6,0.1,0.00016965,1695.3,0.00016943,1689.1,-5.5282e-05,0.66744,-5.7101e-05,-13.002,0.49123
8601,10.052,6,0.1,0.00013188,1317.9,0.00013164,1311,-4.281e-05,0.22221,-4.4693e-05,-13.925,0.50785
8602,10.234,6,0.1,9.0731e-05,906.69,9.0464e-05,898.94,-2.9398e-05,-1.6531,-3.1004e-05,-13.721,0.52455
8603,10.417,6,0.1,4.5532e-05,455.01,4.5346e-05,450,-1.4056e-05,3.681,-1.6305e-05,-13.217,0.54132
8604,10.6,6,0.1,4.6565e-06,46.533,3.606e-06,41.965,1.7391e-06,27.938,-3.3059e-06,-9.9677,0.55811
8605,10.417,6,0,4.5532e-05,455.01,1.6305e-05,13.217,1.4056e-05,-3.681,-4.5346e-05,-450,0.54132
8606,10.234,6,0,9.0731e-05,906.69,3.1004e-05,13.721,2.9398e-05,1.6531,-9.0464e-05,-898.94,0.52455
8607,10.052,6,0,0.00013188,1317.9,4.4693e-05,13.925,4.281e-05,-0.22221,-0.00013164,-1311,0.50785
8608,9.869,6,0,0.00016965,1695.3,5.7101e-05,13.002,5.5282e-05,-0.66744,-0.00016943,-1689.1,0.49123
8609,9.6862,6,0,0.00020377,2036.3,6.8258e-05,11.391,6.6576e-05,-1.247,-0.0002036,-2031.2,0.47472
8610,9.5034,6,0,0.00023419,2340.3,7.8169e-05,9.7003,7.6675e-05,-1.5298,-0.00023405,-2336.2,0.45835
8611,9.3207,6,0,0.000261,2608.2,8.6892e-05,8.1407,8.5588e-05,-1.6551,-0.00026089,-2605,0.44214
8612,9.1379,6,0,0.00028445,2842.6,9.452e-05,6.8149,9.3394e-05,-1.6441,-0.00028436,-2840,0.42609
8613,8.9552,6,0,0.0003049,3046.8,0.00010117,5.7324,0.0001002,-1.5464,-0.00030482,-3044.7,0.41024
8614,8.7724,6,0,0.00032271,3224.9,0.00010697,4.8661,0.00010614,-1.3955,-0.00032265,-3223.2,0.39459
8615,8.5897,6,0,0.0003383,3380.6,0.00011205,4.1734,0.00011133,-1.2177,-0.00033825,-3379.1,0.37915
8616,8.4069,6,0,0.000352,3517.6,0.00011651,3.6106,0.0001159,-1.0306,-0.00035196,-3516.3,0.36394
8617,8.2241,6,0,0.00036416,3639.1,0.00012048,3.1392,0.00011995,-0.84576,-0.00036412,-3637.9,0.34896
8618,8.0414,6,0,0.00037504,3747.8,0.00012403,2.7284,0.00012357,-0.66985,-0.00037501,-3746.8,0.33423
8619,7.8586,6,0,0.0003849,3846.4,0.00012724,2.3548,0.00012686,-0.5063,-0.00038487,-3845.4,0.31975
8620,7.6759,6,0,0.00039393,3936.6,0.00013018,2.0016,0.00012987,-0.35629,-0.0003939,-3935.8,0.30552
8621,7.4931,6,0,0.0004023,4020.2,0.00013291,1.6573,0.00013266,-0.21957,-0.00040227,-4019.5,0.29156
8622,7.3103,6,0,0.00041015,4098.6,0.00013546,1.3146,0.00013527,-0.095113,-0.00041012,-4098,0.27786
8623,7.1276,6,0,0.00041758,4172.9,0.00013788,0.96914,0.00013776,0.018598,-0.00041756,-4172.4,0.26444
8624,6.9448,6,0,0.0004247,4244,0.0001402,0.6187,0.00014013,0.12328,-0.00042469,-4243.7,0.2513
8625,6.7621,6,0,0.00043157,4312.7,0.00014243,0.26284,0.00014242,0.22063,-0.00043156,-4312.5,0.23844
8626,6.5793,6,0,0.00043826,4379.5,0.00014466,0.31246,0.0001446,-0.097793,-0.00043825,-4379.4,0.22587
8627,6.3966,6,0,0.00044481,4445,0.00014684,0.40024,0.00014673,-0.46129,-0.00044481,-4445,0.21359
8628,6.2138,6,0,0.00045126,4509.5,0.000149,0.48548,0.00014882,-0.82503,-0.00045127,-4509.7,0.20161
8629,6.031,6,0,0.00045765,4573.4,0.00015113,0.56954,0.0001509,-1.1855,-0.00045766,-4573.7,0.18993
8630,5.8483,6,0,0.000464,4636.8,0.00015325,0.65364,0.00015296,-1.5384,-0.00046402,-4637.3,0.17856
8631,5.6655,6,0,0.00047034,4700.1,0.00015537,0.73896,0.00015502,-1.8783,-0.00047036,-4700.7,0.16749
8632,5.4828,6,0,0.00047667,4763.4,0.00015748,0.82651,0.00015708,-2.1987,-0.00047669,-4764.1,0.15674
8633,5.3,6,0,0.00048301,4826.8,0.00015959,0.91732,0.00015914,-2.4919,-0.00048304,-4827.6,0.14631
8634,5.1172,6,0,0.00048938,4890.5,0.00016172,1.0124,0.00016122,-2.7487,-0.00048941,-4891.3,0.13621
8635,4.9345,6,0,0.00049579,4954.4,0.00016385,1.1126,0.00016331,-2.9584,-0.00049582,-4955.4,0.12643
8636,4.7517,6,0,0.00050223,5018.8,0.00016599,1.2189,0.00016542,-3.1079,-0.00050226,-5019.8,0.11698
8637,4.569,6,0,0.00050871,5083.6,0.00016814,1.3325,0.00016754,-3.1823,-0.00050874,-5084.5,0.10787
8638,4.3862,6,0,0.00051525,5148.9,0.00017031,1.4545,0.00016969,-3.164,-0.00051527,-5149.8,0.099094
8639,4.2034,6,0,0.00052182,5214.6,0.00017248,1.5864,0.00017187,-3.0324,-0.00052185,-5215.4,0.090667
8640,4.0207,6,0,0.00052845,5280.8,0.00017467,1.7304,0.00017407,-2.7642,-0.00052846,-5281.3,0.082588
8641,3.8379,6,0,0.00053511,5347.4,0.00017686,1.8895,0.0001763,-2.3325,-0.00053512,-5347.6,0.074863
8642,3.6552,6,0,0.0005418,5414.3,0.00017905,2.0698,0.00017855,-1.7084,-0.00054179,-5414.1,0.067495
8643,3.4724,6,0,0.00054851,5481.3,0.00018124,2.2848,0.00018082,-0.86483,-0.00054848,-5480.6,0.06049
8644,3.2897,6,0,0.00055521,5548.2,0.00018342,2.576,0.00018311,0.20462,-0.00055516,-5546.8,0.053851
8645,3.1069,6,0,0.00056188,5614.9,0.00018561,3.1195,0.00018538,1.3802,-0.0005618,-5612.6,0.047584
8646,2.9241,6,0,0.00056847,5680.8,0.00018786,4.4351,0.00018756,2.2086,-0.00056836,-5677.5,0.041691
8647,2.7414,6,0,0.00057495,5745.5,0.00019016,6.6499,0.00018962,2.6423,-0.00057479,-5740.8,0.036178
8648,2.5586,6,0,0.00058123,5808.3,0.00019246,9.5758,0.00019158,2.9654,-0.00058101,-5802,0.031049
8649,2.3759,6,0,0.00058722,5868.2,0.00019473,13.238,0.0001934,3.2704,-0.00058694,-5859.9,0.026307
8650,2.1931,6,0,0.0005928,5923.9,0.00019693,17.753,0.00019504,3.5854,-0.00059244,-5913.3,0.021956
8651,2.0103,6,0,0.0005978,5973.9,0.00019903,23.295,0.00019645,3.9241,-0.00059734,-5960.3,0.017999
8652,1.8276,6,0,0.00060199,6015.7,0.00020096,30.094,0.00019752,4.2957,-0.0006014,-5998.5,0.01444
8653,1.6448,6,0,0.00060504,6046.2,0.00020264,38.467,0.00019815,4.7146,-0.0006043,-6024.5,0.01128
8654,1.4621,6,0,0.00060648,6060.6,0.00020396,48.847,0.00019815,5.1808,-0.00060555,-6033.5,0.0085203
8655,1.2793,6,0,0.00060565,6052.4,0.00020475,61.909,0.00019727,5.7569,-0.00060448,-6018.3,0.0061611
8656,1.0966,6,0,0.00060151,6011,0.00020474,78.558,0.00019513,6.3134,-0.00060004,-5968.2,0.0042005
8657,0.91379,6,0,0.00059243,5920.2,0.00020354,100.8,0.00019111,7.3738,-0.00059053,-5865.5,0.0026339
8658,0.73103,6,0,0.00057556,5751.6,0.00020047,130.93,0.00018405,7.5392,-0.0005731,-5681.4,0.0014531
8659,0.54828,6,0,0.00054536,5449.9,0.00019424,177.59,0.00017196,10.192,-0.00054197,-5354,0.00064431
8660,0.36552,6,0,0.00049203,4916.9,0.00018299,258.42,0.00015081,16.593,-0.0004869,-4774.9,0.00018629
8661,0.18276,6,0,0.00037812,3778.6,0.00016368,444.07,9.7579e-05,-52.571,-0.000369,-3558.3,4.9213e-05
8662,10.6,6,0,4.6565e-06,46.533,3.3059e-06,9.9677,-1.7391e-06,-27.938,-3.606e-06,-41.965,0.55811
8663,3.937e-14,6,0,0.00022472,2245.6,0.00019628,1831.2,3.3222e-07,358.99,-0.00014772,-753.45,0
8664,0.18276,-2.51e-32,0,0.00037812,3778.6,0.00016368,444.07,9.7579e-05,-52.571,-0.000369,-3558.3,4.9213e-05
8665,0.36552,-5.0201e-32,0,0.00049203,4916.9,0.00018299,258.42,0.00015081,16.593,-0.0004869,-4774.9,0.00018629
8666,0.54828,-7.5301e-32,0,0.00054536,5449.9,0.00019424,177.59,0.00017196,10.192,-0.00054197,-5354,0.00064431
8667,0.73103,-1.004e-31,0,0.00057556,5751.6,0.00020047,130.93,0.00018405,7.5392,-0.0005731,-5681.4,0.0014531
8668,0.91379,-1.255e-31,0,0.00059243,5920.2,0.00020354,100.8,0.00019111,7.3738,-0.00059053,-5865.5,0.0026339
8669,1.0966,-1.506e-31,0,0.00060151,6011,0.00020474,78.558,0.00019513,6.3134,-0.00060004,-5968.2,0.0042005
8670,1.2793,-1.757e-31,0,0.00060565,6052.4,0.00020475,61.909,0.00019727,5.7569,-0.00060448,-6018.3,0.0061611
8671,1.4621,-2.008e-31,0,0.00060648,6060.6,0.00020396,48.847,0.00019815,5.1808,-0.00060555,-6033.5,0.0085203
8672,1.6448,-2.259e-31,0,0.00060504,6046.2,0.00020264,38.467,0.00019815,4.7146,-0.0006043,-6024.5,0.01128
8673,1.8276,-2.51e-31,0,0.00060199,6015.7,0.00020096,30.094,0.00019752,4.2957,-0.0006014,-5998.5,0.01444
8674,2.0103,-2.761e-31,0,0.0005978,5973.9,0.00019903,23.295,0.00019645,3.9241,-0.00059734,-5960.3,0.017999
8675,2.1931,-3.012e-31,0,0.0005928,5923.9,0.00019693,17.753,0.00019504,3.5854,-0.00059244,-5913.3,0.021956
8676,2.3759,-3.263e-31,0,0.00058722,5868.2,0.00019473,13.238,0.0001934,3.2704,-0.00058694,-5859.9,0.026307
8677,2.5586,-3.5141e-31,0,0.00058123,5808.3,0.00019246,9.5758,0.00019158,2.9654,-0.00058101,-5802,0.031049
8678,2.7414,-3.7651e-31,0,0.00057495,5745.5,0.00019016,6.6499,0.00018962,2.6423,-0.00057479,-5740.8,0.036178
8679,2.9241,-4.0161e-31,0,0.00056847,5680.8,0.00018786,4.4351,0.00018756,2.2086,-0.00056836,-5677.5,0.041691
8680,3.1069,-4.2671e-31,0,0.00056188,5614.9,0.00018561,3.1195,0.00018538,1.3802,-0.0005618,-5612.6,0.047584
8681,3.2897,-4.5181e-31,0,0.00055521,5548.2,0.00018342,2.576,0.00018311,0.20462,-0.00055516,-5546.8,0.053851
8682,3.4724,-4.7691e-31,0,0.00054851,5481.3,0.00018124,2.2848,0.00018082,-0.86483,-0.00054848,-5480.6,0.06049
8683,3.6552,-5.0201e-31,0,0.0005418,5414.3,0.00017905,2.0698,0.00017855,-1.7084,-0.00054179,-5414.1,0.067495
8684,3.8379,-5.2711e-31,0,0.00053511,5347.4,0.00017686,1.8895,0.0001763,-2.3325,-0.00053512,-5347.6,0.074863
8685,4.0207,-5.5221e-31,0,0.00052845,5280.8,0.00017467,1.7304,0.00017407,-2.7642,-0.00052846,-5281.3,0.082588
8686,4.2034,-5.7731e-31,0,0.00052182,5214.6,0.00017248,1.5864,0.00017187,-3.0324,-0.00052185,-5215.4,0.090667
8687,4.3862,-6.0241e-31,0,0.00051525,5148.9,0.00017031,1.4545,0.00016969,-3.164,-0.00051527,-5149.8,0.099094
8688,4.569,-6.2751e-31,0,0.00050871,5083.6,0.00016814,1.3325,0.00016754,-3.1823,-0.00050874,-5084.5,0.10787
8689,4.7517,-6.5261e-31,0,0.00050223,5018.8,0.00016599,1.2189,0.00016542,-3.1079,-0.00050226,-5019.8,0.11698
8690,4.9345,-6.7771e-31,0,0.00049579,4954.4,0.00016385,1.1126,0.00016331,-2.9584,-0.00049582,-4955.4,0.12643
8691,5.1172,-7.0281e-31,0,0.00048938,4890.5,0.00016172,1.0124,0.00016122,-2.7487,-0.00048941,-4891.3,0.13621
8692,5.3,-7.2791e-31,0,0.00048301,4826.8,0.00015959,0.91732,0.00015914,-2.4919,-0.00048304,-4827.6,0.14631
8693,5.4828,-7.5301e-31,0,0.00047667,4763.4,0.00015748,0.82651,0.00015708,-2.1987,-0.00047669,-4764.1,0.15674
8694,5.6655,-7.7811e-31,0,0.00047034,4700.1,0.00015537,0.73896,0.00015502,-1.8783,-0.00047036,-4700.7,0.16749
8695,5.8483,-8.0321e-31,0,0.000464,4636.8,0.00015325,0.65365,0.00015296,-1.5384,-0.00046402,-4637.3,0.17856
8696,6.031,-8.2831e-31,0,0.00045765,4573.4,0.00015113,0.56954,0.0001509,-1.1855,-0.00045766,-4573.7,0.18993
8697,6.2138,-8.5341e-31,0,0.00045126,4509.5,0.000149,0.48548,0.00014882,-0.82503,-0.00045127,-4509.7,0.20161
8698,6.3966,-8.7851e-31,0,0.00044481,4445,0.00014684,0.40024,0.00014673,-0.46129,-0.00044481,-4445,0.21359
8699,6.5793,-9.0361e-31,0,0.00043826,4379.5,0.00014466,0.31246,0.0001446,-0.097792,-0.00043825,-4379.4,0.22587
8700,6.7621,-9.2871e-31,0,0.00043157,4312.7,0.00014243,0.26284,0.00014242,0.22063,-0.00043156,-4312.5,0.23844
8701,6.9448,-9.5381e-31,0,0.0004247,4244,0.0001402,0.6187,0.00014013,0.12328,-0.00042469,-4243.7,0.2513
8702,7.1276,-9.7891e-31,0,0.00041758,4172.9,0.00013788,0.96914,0.00013776,0.018599,-0.00041756,-4172.4,0.26444
8703,7.3103,-1.004e-30,0,0.00041015,4098.6,0.00013546,1.3146,0.00013527,-0.095112,-0.00041012,-4098,0.27786
8704,7.4931,-1.0291e-30,0,0.0004023,4020.2,0.00013291,1.6573,0.00013266,-0.21957,-0.00040227,-4019.5,0.29156
8705,7.6759,-1.0542e-30,0,0.00039393,3936.6,0.00013018,2.0016,0.00012987,-0.35629,-0.0003939,-3935.8,0.30552
8706,7.8586,-1.0793e-30,0,0.0003849,3846.4,0.00012724,2.3548,0.00012686,-0.5063,-0.00038487,-3845.4,0.31975
8707,8.0414,-1.1044e-30,0,0.00037504,3747.8,0.00012403,2.7284,0.00012357,-0.66985,-0.00037501,-3746.8,0.33423
8708,8.2241,-1.1295e-30,0,0.00036416,3639.1,0.00012048,3.1392,0.00011995,-0.84576,-0.00036412,-3637.9,0.34896
8709,8.4069,-1.1546e-30,0,0.000352,3517.6,0.00011651,3.6106,0.0001159,-1.0306,-0.00035196,-3516.3,0.36394
8710,8.5897,-1.1797e-30,0,0.0003383,3380.6,0.00011205,4.1734,0.00011133,-1.2177,-0.00033825,-3379.1,0.37915
8711,8.7724,-1.2048e-30,0,0.00032271,3224.9,0.00010697,4.8661,0.00010614,-1.3955,-0.00032265,-3223.2,0.39459
8712,8.9552,-1.2299e-30,0,0.0003049,3046.8,0.00010117,5.7324,0.0001002,-1.5464,-0.00030482,-3044.7,0.41024
8713,9.1379,-1.255e-30,0,0.00028445,2842.6,9.452e-05,6.8149,9.3394e-05,-1.6441,-0.00028436,-2840,0.42609
8714,9.3207,-1.2801e-30,0,0.000261,2608.2,8.6892e-05,8.1407,8.5588e-05,-1.6551,-0.00026089,-2605,0.44214
8715,9.5034,-1.3052e-30,0,0.00023419,2340.3,7.8169e-05,9.7003,7.6675e-05,-1.5298,-0.00023405,-2336.2,0.45835
8716,9.6862,-1.3303e-30,0,0.00020377,2036.3,6.8258e-05,11.391,6.6576e-05,-1.247,-0.0002036,-2031.2,0.47472
8717,9.869,-1.3554e-30,0,0.00016965,1695.3,5.7101e-05,13.002,5.5282e-05,-0.66744,-0.00016943,-1689.1,0.49123
8718,10.052,-1.3805e-30,0,0.00013188,1317.9,4.4693e-05,13.925,4.281e-05,-0.22221,-0.00013164,-1311,0.50785
8719,10.234,-1.4056e-30,0,9.0731e-05,906.69,3.1004e-05,13.721,2.9398e-05,1.6531,-9.0464e-05,-898.94,0.52455
8720,10.417,-1.4307e-30,0,4.5532e-05,455.01,1.6305e-05,13.217,1.4056e-05,-3.681,-4.5346e-05,-450,0.54132
8721,10.6,0,0,4.6565e-06,46.533,3.3059e-06,9.9678,-1.7391e-06,-27.938,-3.606e-06,-41.965,0.55811
8722,0,0,0,0.00022472,2245.6,0.00019628,1831.2,3.3222e-07,358.99,-0.00014772,-753.45,0
8723,10.95,0,0,3.9066e-05,390.39,1.4206e-05,14.259,1.1954e-05,-2.665,-3.8841e-05,-384.32,0.60367
8724,11.134,0,0,7.594e-05,758.88,2.6372e-05,17.086,2.4399e-05,2.2631,-7.56e-05,-749.09,0.62619
8725,11.318,0,0,0.00010799,1079.2,3.718e-05,18.854,3.475e-05,0.59481,-0.00010765,-1069.3,0.64876
8726,11.502,0,0,0.00013597,1358.7,4.6424e-05,18.761,4.3954e-05,0.19538,-0.00013564,-1349.2,0.6714
8727,11.686,0,0,0.00015977,1596.6,5.4192e-05,17.413,5.1833e-05,-0.31369,-0.00015947,-1588,0.69413
8728,11.869,0,0,0.00017949,1793.7,6.0558e-05,15.563,5.8411e-05,-0.57218,-0.00017923,-1786.1,0.71697
8729,12.053,0,0,0.00019536,1952.2,6.5636e-05,13.571,6.3736e-05,-0.70231,-0.00019514,-1945.8,0.73992
8730,12.237,0,0,0.00020774,2076,6.9564e-05,11.665,6.7915e-05,-0.72387,-0.00020755,-2070.5,0.76301
8731,12.421,0,0,0.00021705,2169,7.2493e-05,9.9525,7.1078e-05,-0.67945,-0.00021689,-2164.4,0.78623
8732,12.605,0,0,0.00022374,2235.8,7.4571e-05,8.4778,7.3363e-05,-0.5969,-0.0002236,-2231.9,0.8096
8733,12.788,0,0,0.00022821,2280.5,7.5939e-05,7.2458,7.4908e-05,-0.49726,-0.00022809,-2277.1,0.83312
8734,12.972,0,0,0.00023085,2306.9,7.672e-05,6.2418,7.5837e-05,-0.39418,-0.00023075,-2303.9,0.8568
8735,13.156,0,0,0.00023198,2318.2,7.7023e-05,5.4426,7.6259e-05,-0.29611,-0.00023189,-2315.6,0.88063
8736,13.34,0,0,0.0002319,2317.4,7.6939e-05,4.8229,7.6269e-05,-0.20767,-0.00023182,-2315,0.90461
8737,13.524,0,0,0.00023083,2306.7,7.6544e-05,4.3581,7.5947e-05,-0.13097,-0.00023076,-2304.6,0.92876
8738,13.707,0,0,0.00022898,2288.2,7.5903e-05,4.0256,7.5358e-05,-0.066586,-0.00022891,-2286.2,0.95305
8739,13.891,0,0,0.00022651,2263.5,7.5066e-05,3.8056,7.4557e-05,-0.014076,-0.00022644,-2261.6,0.9775
8740,14.075,0,0,0.00022354,2233.9,7.4075e-05,3.6809,7.3589e-05,0.027523,-0.00022348,-2232,1.0021
8741,14.259,0,0,0.00022019,2200.4,7.2964e-05,3.6365,7.2488e-05,0.059406,-0.00022013,-2198.6,1.0269
8742,14.443,0,0,0.00021654,2163.9,7.1761e-05,3.6596,7.1285e-05,0.082925,-0.00021648,-2162.1,1.0518
8743,14.626,0,0,0.00021266,2125.1,7.0486e-05,3.7391,7.0001e-05,0.099402,-0.0002126,-2123.2,1.0768
8744,14.81,0,0,0.0002086,2084.6,6.9156e-05,3.8657,6.8656e-05,0.11001,-0.00020853,-2082.6,1.102
8745,14.994,0,0,0.00020441,2042.7,6.7786e-05,4.0309,6.7265e-05,0.1158,-0.00020434,-2040.6,1.1273
8746,15.178,0,0,0.00020011,1999.8,6.6385e-05,4.2279,6.5838e-05,0.1177,-0.00020004,-1997.6,1.1528
8747,15.362,0,0,0.00019575,1956.1,6.4963e-05,4.4506,6.4386e-05,0.11648,-0.00019567,-1953.8,1.1784
8748,15.545,0,0,0.00019133,1912,6.3525e-05,4.6938,6.2916e-05,0.11283,-0.00019125,-1909.6,1.2042
8749,15.729,0,0,0.00018688,1867.5,6.2078e-05,4.9534,6.1433e-05,0.10734,-0.00018679,-1864.9,1.23
8750,15.913,0,0,0.0001824,1822.8,6.0624e-05,5.2256,5.9942e-05,0.10045,-0.00018231,-1820.1,1.256
8751,16.097,0,0,0.00017792,1777.9,5.9168e-05,5.5073,5.8447e-05,0.092531,-0.00017782,-1775.1,1.2821
8752,16.281,0,0,0.00017343,1733.1,5.771e-05,5.7962,5.695e-05,0.083873,-0.00017332,-1730.1,1.3084
8753,16.464,0,0,0.00016894,1688.2,5.6254e-05,6.0901,5.5454e-05,0.074681,-0.00016883,-1685.1,1.3347
8754,16.648,0,0,0.00016446,1643.4,5.4801e-05,6.3874,5.396e-05,0.06517,-0.00016435,-1640.2,1.3612
8755,16.832,0,0,0.00015999,1598.8,5.3351e-05,6.6867,5.2469e-05,0.055501,-0.00015987,-1595.4,1.3878
8756,17.016,0,0,0.00015553,1554.2,5.1906e-05,6.9871,5.0982e-05,0.045762,-0.00015541,-1550.7,1.4144
8757,17.2,0,0,0.00015109,1509.8,5.0466e-05,7.2877,4.9501e-05,0.036025,-0.00015096,-1506.2,1.4412
8758,17.383,0,0,0.00014666,1465.6,4.9031e-05,7.5879,4.8024e-05,0.026336,-0.00014653,-1461.8,1.4681
8759,17.567,0,0,0.00014226,1421.6,4.7602e-05,7.8873,4.6554e-05,0.016695,-0.00014212,-1417.6,1.4951
8760,17.751,0,0,0.00013787,1377.7,4.6179e-05,8.1857,4.509e-05,0.0071481,-0.00013773,-1373.6,1.5222
8761,17.935,0,0,0.0001335,1334,4.4762e-05,8.4828,4.3633e-05,-0.0023008,-0.00013335,-1329.8,1.5494
8762,18.119,0,0,0.00012915,1290.6,4.3352e-05,8.7785,4.2182e-05,-0.011663,-0.00012899,-1286.2,1.5766
8763,18.302,0,0,0.00012482,1247.3,4.1947e-05,9.0728,4.0737e-05,-0.020958,-0.00012466,-1242.7,1.604
8764,18.486,0,0,0.0001205,1204.2,4.0549e-05,9.3656,3.9299e-05,-0.030225,-0.00012034,-1199.5,1.6314
8765,18.67,0,0,0.00011621,1161.3,3.9158e-05,9.657,3.7867e-05,-0.039515,-0.00011604,-1156.5,1.6589
8766,18.854,0,0,0.00011194,1118.6,3.7772e-05,9.9468,3.6442e-05,-0.048846,-0.00011177,-1113.6,1.6865
8767,19.038,0,0,0.00010768,1076.1,3.6393e-05,10.235,3.5023e-05,-0.058244,-0.00010751,-1071,1.7142
8768,19.221,0,0,0.00010345,1033.8,3.5019e-05,10.522,3.361e-05,-0.067769,-0.00010327,-1028.5,1.7419
8769,19.405,0,0,9.9232e-05,991.64,3.3652e-05,10.807,3.2203e-05,-0.077476,-9.9045e-05,-986.23,1.7697
8770,19.589,0,0,9.5034e-05,949.68,3.2291e-05,11.091,3.0803e-05,-0.087416,-9.4842e-05,-944.13,1.7976
8771,19.773,0,0,9.0853e-05,907.9,3.0935e-05,11.372,2.9408e-05,-0.097666,-9.0656e-05,-902.21,1.8255
8772,19.956,0,0,8.669e-05,866.3,2.9585e-05,11.652,2.802e-05,-0.10827,-8.6488e-05,-860.47,1.8535
8773,20.14,0,0,8.2544e-05,824.87,2.824e-05,11.928,2.6637e-05,-0.1193,-8.2337e-05,-818.9,1.8816
8774,20.324,0,0,7.8415e-05,783.61,2.6901e-05,12.202,2.5259e-05,-0.13083,-7.8202e-05,-777.5,1.9097
8775,20.508,0,0,7.4303e-05,742.51,2.5566e-05,12.471,2.3888e-05,-0.14293,-7.4085e-05,-736.27,1.9378
8776,20.692,0,0,7.0207e-05,701.58,2.4237e-05,12.736,2.2521e-05,-0.15571,-6.9984e-05,-695.2,1.966
8777,20.875,0,0,6.6127e-05,660.81,2.2913e-05,12.994,2.1161e-05,-0.16928,-6.5898e-05,-654.3,1.9943
8778,21.059,0,0,6.2062e-05,620.2,2.1593e-05,13.246,1.9805e-05,-0.18373,-6.1829e-05,-613.55,2.0226
8779,21.243,0,0,5.8014e-05,579.74,2.0278e-05,13.489,1.8456e-05,-0.1992,-5.7776e-05,-572.97,2.0509
8780,21.427,0,0,5.3981e-05,539.44,1.8967e-05,13.722,1.7112e-05,-0.21585,-5.3738e-05,-532.55,2.0793
8781,21.611,0,0,4.9965e-05,499.3,1.766e-05,13.942,1.5773e-05,-0.23385,-4.9716e-05,-492.3,2.1077
8782,21.794,0,0,4.5964e-05,459.33,1.6357e-05,14.147,1.4441e-05,-0.25345,-4.5711e-05,-452.21,2.1362
8783,21.978,0,0,4.1981e-05,419.52,1.5059e-05,14.332,1.3114e-05,-0.27492,-4.1723e-05,-412.3,2.1646
8784,22.162,0,0,3.8015e-05,379.89,1.3764e-05,14.494,1.1795e-05,-0.2986,-3.7752e-05,-372.58,2.1931
8785,22.346,0,0,3.407e-05,340.46,1.2473e-05,14.627,1.0483e-05,-0.32498,-3.3802e-05,-333.06,2.2217
8786,22.53,0,0,3.0146e-05,301.25,1.1187e-05,14.724,9.1797e-06,-0.35465,-2.9873e-05,-293.78,2.2502
8787,22.713,0,0,2.6247e-05,262.29,9.9045e-06,14.776,7.8863e-06,-0.38852,-2.5969e-05,-254.77,2.2788
8788,22.897,0,0,2.2379e-05,223.63,8.6273e-06,14.767,6.605e-06,-0.42762,-2.2096e-05,-216.08,2.3073
8789,23.081,0,0,1.8548e-05,185.36,7.3556e-06,14.678,5.3389e-06,-0.47476,-1.826e-05,-177.79,2.3359
8790,23.265,0,0,1.4768e-05,147.58,6.0906e-06,14.478,4.0933e-06,-0.5289,-1.4474e-05,-140.03,2.3645
8791,23.449,0,0,1.1057e-05,110.49,4.8315e-06,14.081,2.8758e-06,-0.6137,-1.0754e-05,-103.02,2.3932
8792,23.632,0,0,7.4621e-06,74.569,3.5894e-06,13.48,1.7037e-06,-0.68831,-7.1427e-06,-67.157,2.4218
8793,23.816,0,0,3.9951e-06,39.923,2.265e-06,11.283,6.2384e-07,-1.0487,-3.6754e-06,-33.352,2.4504
8794,10.767,0,0,4.1183e-06,41.154,2.9221e-06,8.4903,-1.6004e-06,-25.49,-3.1681e-06,-37.269,0.58118
8795,24,0,0,9.4632e-07,9.4567,7.0591e-07,5.69,8.9158e-08,1.056,-7.4212e-07,-5.1899,2.479
8796,5.0862e-14,5.8182,0,0.00013749,1373.9,1.579e-05,-1058.8,-1.9482e-06,-1192,-0.00017529,-2494.5,0
8797,4.9273e-14,5.6364,0,0.00023644,2362.8,4.9836e-06,-2241.8,-3.762e-06,-2307.5,-0.00031376,-4636.7,0
8798,4.7683e-14,5.4545,0,0.00028846,2882.6,2.3445e-06,-2785.7,-2.8626e-06,-2824.8,-0.00038389,-5687.7,0
8799,4.6094e-14,5.2727,0,0.00032138,3211.6,1.4142e-06,-3110.5,-1.7803e-06,-3134.5,-0.00042762,-6334,0
8800,4.4504e-14,5.0909,0,0.00034338,3431.4,9.5152e-07,-3326,-1.1985e-06,-3342.2,-0.00045681,-6765.4,0
8801,4.2915e-14,4.9091,0,0.00035907,3588.2,6.8084e-07,-3479.5,-8.5686e-07,-3491,-0.00047765,-7073.5,0
8802,4.1325e-14,4.7273,0,0.00037069,3704.3,5.0547e-07,-3593,-6.324e-07,-3601.5,-0.00049308,-7301.6,0
8803,3.9736e-14,4.5455,0,0.0003795,3792.4,3.8359e-07,-3679,-4.7852e-07,-3685.5,-0.00050478,-7474.6,0
8804,3.8147e-14,4.3636,0,0.00038629,3860.2,2.9449e-07,-3745.2,-3.6773e-07,-3750.2,-0.0005138,-7607.9,0
8805,3.6557e-14,4.1818,0,0.00039155,3912.8,2.2668e-07,-3796.6,-2.8484e-07,-3800.5,-0.00052079,-7711.3,0
8806,3.4968e-14,4,0,0.00039562,3953.5,1.7321e-07,-3836.5,-2.2071e-07,-3839.4,-0.0005262,-7791.5,0
8807,3.3378e-14,3.8182,0,0.00039875,3984.8,1.296e-07,-3867,-1.6953e-07,-3869.3,-0.00053036,-7852.9,0
8808,3.1789e-14,3.6364,0,0.00040109,4008.2,9.2844e-08,-3890,-1.2743e-07,-3891.6,-0.00053347,-7899,0
8809,3.0199e-14,3.4545,0,0.00040276,4024.9,6.0859e-08,-3906.4,-9.18e-08,-3907.5,-0.00053569,-7931.8,0
8810,2.861e-14,3.2727,0,0.00040384,4035.6,3.2419e-08,-3917,-6.1093e-08,-3917.7,-0.00053712,-7952.9,0
8811,2.702e-14,3.0909,0,0.00040436,4040.8,8.9773e-09,-3922.2,-3.6562e-08,-3922.6,-0.00053782,-7963.2,0
8812,2.5431e-14,2.9091,0,0.00040436,4040.8,8.9772e-09,-3922.2,-3.6562e-08,-3922.6,-0.00053782,-7963.2,0
8813,2.3842e-14,2.7273,0,0.00040384,4035.6,3.2419e-08,-3917,-6.1093e-08,-3917.7,-0.00053712,-7952.9,0
8814,2.2252e-14,2.5455,0,0.00040276,4024.9,6.0859e-08,-3906.4,-9.18e-08,-3907.5,-0.00053569,-7931.8,0
8815,2.0663e-14,2.3636,0,0.00040109,4008.2,9.2844e-08,-3890,-1.2743e-07,-3891.6,-0.00053347,-7899,0
8816,1.9073e-14,2.1818,0,0.00039875,3984.8,1.296e-07,-3867,-1.6953e-07,-3869.3,-0.00053036,-7852.9,0
8817,1.7484e-14,2,0,0.00039562,3953.5,1.7321e-07,-3836.5,-2.2071e-07,-3839.4,-0.0005262,-7791.5,0
8818,1.5894e-14,1.8182,0,0.00039155,3912.8,2.2668e-07,-3796.6,-2.8484e-07,-3800.5,-0.00052079,-7711.3,0
8819,1.4305e-14,1.6364,0,0.00038629,3860.2,2.9449e-07,-3745.2,-3.6773e-07,-3750.2,-0.0005138,-7607.9,0
8820,1.2716e-14,1.4545,0,0.0003795,3792.4,3.8359e-07,-3679,-4.7852e-07,-3685.5,-0.00050478,-7474.6,0
8821,1.1126e-14,1.2727,0,0.00037069,3704.3,5.0547e-07,-3593,-6.324e-07,-3601.5,-0.00049308,-7301.6,0
8822,9.5366e-15,1.0909,0,0.00035907,3588.2,6.8084e-07,-3479.5,-8.5686e-07,-3491,-0.00047765,-7073.5,0
8823,7.9472e-15,0.90909,0,0.00034338,3431.4,9.5152e-07,-3326,-1.1985e-06,-3342.2,-0.00045681,-6765.4,0
8824,6.3578e-15,0.72727,0,0.00032138,3211.6,1.4142e-06,-3110.5,-1.7803e-06,-3134.5,-0.00042762,-6334,0
8825,4.7683e-15,0.54545,0,0.00028846,2882.6,2.3445e-06,-2785.7,-2.8626e-06,-2824.8,-0.00038389,-5687.7,0
8826,3.1789e-15,0.36364,0,0.00023644,2362.8,4.9836e-06,-2241.8,-3.762e-06,-2307.5,-0.00031376,-4636.7,0
8827,1.5894e-15,0.18182,0,0.00013749,1373.9,1.579e-05,-1058.8,-1.9482e-06,-1192,-0.00017529,-2494.5,0
8828,24,0.18182,0,3.9301e-06,39.274,3.7766e-06,36.233,-7.5962e-07,2.1499,-1.9395e-06,-6.7156,2.4792
8829,24,0.36364,0,6.6251e-06,66.205,6.4928e-06,63.265,-1.6367e-06,2.1832,-2.8704e-06,-7.0867,2.4793
8830,24,0.54545,0,8.6954e-06,86.894,8.5736e-06,84.087,-2.3002e-06,2.385,-3.5764e-06,-7.2032,2.4795
8831,24,0.72727,0,1.0417e-05,104.09,1.0301e-05,101.35,-2.8658e-06,2.4172,-4.151e-06,-7.2392,2.4796
8832,24,0.90909,0,1.188e-05,118.72,1.177e-05,116.05,-3.3483e-06,2.4538,-4.6354e-06,-7.217,2.4797
8833,24,1.0909,0,1.3141e-05,131.32,1.3035e-05,128.71,-3.7655e-06,2.475,-5.0501e-06,-7.177,2.4798
8834,24,1.2727,0,1.4232e-05,142.22,1.4128e-05,139.66,-4.1271e-06,2.4918,-5.4073e-06,-7.1276,2.48
8835,24,1.4545,0,1.5174e-05,151.63,1.5073e-05,149.12,-4.44e-06,2.5043,-5.7151e-06,-7.0765,2.4801
8836,24,1.6364,0,1.5983e-05,159.72,1.5885e-05,157.25,-4.7094e-06,2.514,-5.9792e-06,-7.0269,2.4802
8837,24,1.8182,0,1.6673e-05,166.61,1.6577e-05,164.18,-4.9388e-06,2.5215,-6.2035e-06,-6.9811,2.4802
8838,24,2,0,1.725e-05,172.38,1.7156e-05,169.98,-5.1312e-06,2.5274,-6.3913e-06,-6.9405,2.4803
8839,24,2.1818,0,1.7723e-05,177.11,1.763e-05,174.73,-5.2887e-06,2.5319,-6.5448e-06,-6.9059,2.4804
8840,24,2.3636,0,1.8096e-05,180.83,1.8003e-05,178.48,-5.4129e-06,2.5354,-6.6657e-06,-6.8777,2.4804
8841,24,2.5455,0,1.8372e-05,183.59,1.828e-05,181.25,-5.5051e-06,2.5378,-6.7554e-06,-6.8564,2.4805
8842,24,2.7273,0,1.8555e-05,185.42,1.8464e-05,183.09,-5.5661e-06,2.5394,-6.8147e-06,-6.8421,2.4805
8843,24,2.9091,0,1.8646e-05,186.33,1.8555e-05,184.01,-5.5965e-06,2.5402,-6.8442e-06,-6.835,2.4805
8844,24,3.0909,0,1.8646e-05,186.33,1.8555e-05,184.01,-5.5965e-06,2.5402,-6.8442e-06,-6.835,2.4805
8845,24,3.2727,0,1.8555e-05,185.42,1.8464e-05,183.09,-5.5661e-06,2.5394,-6.8147e-06,-6.8421,2.4805
8846,24,3.4545,0,1.8372e-05,183.59,1.828e-05,181.25,-5.5051e-06,2.5378,-6.7554e-06,-6.8564,2.4805
8847,24,3.6364,0,1.8096e-05,180.83,1.8003e-05,178.48,-5.4129e-06,2.5354,-6.6657e-06,-6.8777,2.4804
8848,24,3.8182,0,1.7723e-05,177.11,1.763e-05,174.73,-5.2887e-06,2.5319,-6.5448e-06,-6.9059,2.4804
8849,24,4,0,1.725e-05,172.38,1.7156e-05,169.98,-5.1312e-06,2.5274,-6.3913e-06,-6.9405,2.4803
8850,24,4.1818,0,1.6673e-05,166.61,1.6577e-05,164.18,-4.9388e-06,2.5215,-6.2035e-06,-6.9811,2.4802
8851,24,4.3636,0,1.5983e-05,159.72,1.5885e-05,157.25,-4.7094e-06,2.514,-5.9792e-06,-7.0269,2.4802
8852,24,4.5455,0,1.5174e-05,151.63,1.5073e-05,149.12,-4.44e-06,2.5043,-5.7151e-06,-7.0765,2.4801
8853,24,4.7273,0,1.4232e-05,142.22,1.4128e-05,139.66,-4.1271e-06,2.4918,-5.4074e-06,-7.1276,2.48
8854,24,4.9091,0,1.3141e-05,131.32,1.3035e-05,128.71,-3.7655e-06,2.475,-5.0501e-06,-7.177,2.4798
8855,24,5.0909,0,1.188e-05,118.72,1.177e-05,116.05,-3.3483e-06,2.4538,-4.6354e-06,-7.217,2.4797
8856,24,5.2727,0,1.0417e-05,104.09,1.0301e-05,101.35,-2.8658e-06,2.4172,-4.151e-06,-7.2392,2.4796
8857,24,5.4545,0,8.6954e-06,86.894,8.5736e-06,84.087,-2.3002e-06,2.385,-3.5764e-06,-7.2032,2.4795
8858,24,5.6364,0,6.6251e-06,66.205,6.4928e-06,63.265,-1.6367e-06,2.1832,-2.8704e-06,-7.0867,2.4793
8859,24,5.8182,0,3.9301e-06,39.274,3.7766e-06,36.233,-7.5962e-07,2.1499,-1.9395e-06,-6.7156,2.4792
8860,24,6,0,9.4632e-07,9.4567,7.0591e-07,5.69,8.9157e-08,1.056,-7.4212e-07,-5.1899,2.479
8861,23.816,6,0,3.9951e-06,39.923,2.265e-06,11.283,6.2384e-07,-1.0487,-3.6754e-06,-33.352,2.4504
8862,23.632,6,0,7.4621e-06,74.569,3.5894e-06,13.48,1.7037e-06,-0.6883,-7.1427e-06,-67.157,2.4218
8863,23.449,6,0,1.1057e-05,110.49,4.8315e-06,14.081,2.8758e-06,-0.6137,-1.0754e-05,-103.02,2.3932
8864,23.265,6,0,1.4768e-05,147.58,6.0906e-06,14.478,4.0933e-06,-0.5289,-1.4474e-05,-140.03,2.3645
8865,23.081,6,0,1.8548e-05,185.36,7.3556e-06,14.678,5.3389e-06,-0.47476,-1.826e-05,-177.79,2.3359
8866,22.897,6,0,2.2379e-05,223.63,8.6273e-06,14.767,6.605e-06,-0.42762,-2.2096e-05,-216.08,2.3073
8867,22.713,6,0,2.6247e-05,262.29,9.9045e-06,14.776,7.8863e-06,-0.38852,-2.5969e-05,-254.77,2.2788
8868,22.53,6,0,3.0146e-05,301.25,1.1187e-05,14.724,9.1797e-06,-0.35464,-2.9873e-05,-293.78,2.2502
8869,22.346,6,0,3.407e-05,340.46,1.2473e-05,14.627,1.0483e-05,-0.32498,-3.3802e-05,-333.06,2.2217
8870,22.162,6,0,3.8015e-05,379.89,1.3764e-05,14.494,1.1795e-05,-0.29861,-3.7752e-05,-372.58,2.1931
8871,21.978,6,0,4.1981e-05,419.52,1.5059e-05,14.332,1.3114e-05,-0.27492,-4.1723e-05,-412.3,2.1646
8872,21.794,6,0,4.5964e-05,459.33,1.6357e-05,14.147,1.4441e-05,-0.25345,-4.5711e-05,-452.21,2.1362
8873,21.611,6,0,4.9965e-05,499.3,1.766e-05,13.942,1.5773e-05,-0.23386,-4.9716e-05,-492.3,2.1077
8874,21.427,6,0,5.3981e-05,539.44,1.8967e-05,13.722,1.7112e-05,-0.21585,-5.3738e-05,-532.55,2.0793
8875,21.243,6,0,5.8014e-05,579.74,2.0278e-05,13.489,1.8456e-05,-0.1992,-5.7776e-05,-572.97,2.0509
8876,21.059,6,0,6.2062e-05,620.2,2.1593e-05,13.246,1.9805e-05,-0.18373,-6.1829e-05,-613.55,2.0226
8877,20.875,6,0,6.6127e-05,660.81,2.2913e-05,12.994,2.1161e-05,-0.16928,-6.5898e-05,-654.3,1.9943
8878,20.692,6,0,7.0207e-05,701.58,2.4237e-05,12.736,2.2521e-05,-0.15571,-6.9984e-05,-695.2,1.966
8879,20.508,6,0,7.4303e-05,742.51,2.5566e-05,12.471,2.3888e-05,-0.14293,-7.4085e-05,-736.27,1.9378
8880,20.324,6,0,7.8415e-05,783.61,2.6901e-05,12.202,2.5259e-05,-0.13082,-7.8202e-05,-777.5,1.9097
8881,20.14,6,0,8.2544e-05,824.87,2.824e-05,11.928,2.6637e-05,-0.1193,-8.2337e-05,-818.9,1.8816
8882,19.956,6,0,8.669e-05,866.3,2.9585e-05,11.652,2.802e-05,-0.10828,-8.6488e-05,-860.47,1.8535
8883,19.773,6,0,9.0853e-05,907.9,3.0935e-05,11.372,2.9408e-05,-0.097665,-9.0656e-05,-902.21,1.8255
8884,19.589,6,0,9.5034e-05,949.68,3.2291e-05,11.091,3.0803e-05,-0.087412,-9.4842e-05,-944.13,1.7976
8885,19.405,6,0,9.9232e-05,991.64,3.3652e-05,10.807,3.2203e-05,-0.077474,-9.9045e-05,-986.23,1.7697
8886,19.221,6,0,0.00010345,1033.8,3.5019e-05,10.522,3.361e-05,-0.067769,-0.00010327,-1028.5,1.7419
8887,19.038,6,0,0.00010768,1076.1,3.6393e-05,10.235,3.5023e-05,-0.058244,-0.00010751,-1071,1.7142
8888,18.854,6,0,0.00011194,1118.6,3.7772e-05,9.9468,3.6442e-05,-0.048847,-0.00011177,-1113.6,1.6865
8889,18.67,6,0,0.00011621,1161.3,3.9158e-05,9.657,3.7867e-05,-0.039514,-0.00011604,-1156.5,1.6589
8890,18.486,6,0,0.0001205,1204.2,4.0549e-05,9.3656,3.9299e-05,-0.030225,-0.00012034,-1199.5,1.6314
8891,18.302,6,0,0.00012482,1247.3,4.1947e-05,9.0728,4.0737e-05,-0.020958,-0.00012466,-1242.7,1.604
8892,18.119,6,0,0.00012915,1290.6,4.3352e-05,8.7785,4.2182e-05,-0.011658,-0.00012899,-1286.2,1.5766
8893,17.935,6,0,0.0001335,1334,4.4762e-05,8.4828,4.3633e-05,-0.002298,-0.00013335,-1329.8,1.5494
8894,17.751,6,0,0.00013787,1377.7,4.6179e-05,8.1857,4.509e-05,0.0071439,-0.00013773,-1373.6,1.5222
8895,17.567,6,0,0.00014226,1421.6,4.7602e-05,7.8873,4.6554e-05,0.016696,-0.00014212,-1417.6,1.4951
8896,17.383,6,0,0.00014666,1465.6,4.9031e-05,7.5879,4.8024e-05,0.026336,-0.00014653,-1461.8,1.4681
8897,17.2,6,0,0.00015109,1509.8,5.0466e-05,7.2877,4.9501e-05,0.036024,-0.00015096,-1506.2,1.4412
8898,17.016,6,0,0.00015553,1554.2,5.1906e-05,6.9871,5.0982e-05,0.045763,-0.00015541,-1550.7,1.4144
8899,16.832,6,0,0.00015999,1598.8,5.3351e-05,6.6867,5.2469e-05,0.055501,-0.00015987,-1595.4,1.3878
8900,16.648,6,0,0.00016446,1643.4,5.4801e-05,6.3874,5.396e-05,0.065169,-0.00016435,-1640.2,1.3612
8901,16.464,6,0,0.00016894,1688.2,5.6254e-05,6.0901,5.5454e-05,0.074682,-0.00016883,-1685.1,1.3347
8902,16.281,6,0,0.00017343,1733.1,5.771e-05,5.7962,5.695e-05,0.083872,-0.00017332,-1730.1,1.3084
8903,16.097,6,0,0.00017792,1777.9,5.9168e-05,5.5073,5.8447e-05,0.092531,-0.00017782,-1775.1,1.2821
8904,15.913,6,0,0.0001824,1822.8,6.0624e-05,5.2255,5.9942e-05,0.10045,-0.00018231,-1820.1,1.256
8905,15.729,6,0,0.00018688,1867.5,6.2078e-05,4.9534,6.1433e-05,0.10734,-0.00018679,-1864.9,1.23
8906,15.545,6,0,0.00019133,1912,6.3525e-05,4.6938,6.2916e-05,0.11283,-0.00019125,-1909.6,1.2042
8907,15.362,6,0,0.00019575,1956.1,6.4963e-05,4.4506,6.4386e-05,0.11648,-0.00019567,-1953.8,1.1784
8908,15.178,6,0,0.00020011,1999.8,6.6385e-05,4.2279,6.5838e-05,0.1177,-0.00020004,-1997.6,1.1528
8909,14.994,6,0,0.00020441,2042.7,6.7786e-05,4.0309,6.7265e-05,0.1158,-0.00020434,-2040.6,1.1273
8910,14.81,6,0,0.0002086,2084.6,6.9156e-05,3.8657,6.8656e-05,0.11001,-0.00020853,-2082.6,1.102
8911,14.626,6,0,0.00021266,2125.1,7.0486e-05,3.7391,7.0001e-05,0.099403,-0.0002126,-2123.2,1.0768
8912,14.443,6,0,0.00021654,2163.9,7.1761e-05,3.6596,7.1285e-05,0.082926,-0.00021648,-2162.1,1.0518
8913,14.259,6,0,0.00022019,2200.4,7.2964e-05,3.6365,7.2488e-05,0.059406,-0.00022013,-2198.6,1.0269
8914,14.075,6,0,0.00022354,2233.9,7.4075e-05,3.6809,7.3589e-05,0.027523,-0.00022348,-2232,1.0021
8915,13.891,6,0,0.00022651,2263.5,7.5066e-05,3.8056,7.4557e-05,-0.014076,-0.00022644,-2261.6,0.9775
8916,13.707,6,0,0.00022898,2288.2,7.5903e-05,4.0256,7.5358e-05,-0.066585,-0.00022891,-2286.2,0.95305
8917,13.524,6,0,0.00023083,2306.7,7.6544e-05,4.3581,7.5947e-05,-0.13097,-0.00023076,-2304.6,0.92876
8918,13.34,6,0,0.0002319,2317.4,7.6939e-05,4.8229,7.6269e-05,-0.20767,-0.00023182,-2315,0.90461
8919,13.156,6,0,0.00023198,2318.2,7.7023e-05,5.4426,7.6259e-05,-0.29611,-0.00023189,-2315.6,0.88063
8920,12.972,6,0,0.00023085,2306.9,7.672e-05,6.2418,7.5837e-05,-0.39418,-0.00023075,-2303.9,0.8568
8921,12.788,6,0,0.00022821,2280.5,7.5939e-05,7.2458,7.4908e-05,-0.49726,-0.00022809,-2277.1,0.83312
8922,12.605,6,0,0.00022374,2235.8,7.4571e-05,8.4778,7.3363e-05,-0.5969,-0.0002236,-2231.9,0.8096
8923,12.421,6,0,0.00021705,2169,7.2493e-05,9.9525,7.1078e-05,-0.67945,-0.00021689,-2164.4,0.78623
8924,12.237,6,0,0.00020774,2076,6.9564e-05,11.665,6.7915e-05,-0.72387,-0.00020755,-2070.5,0.76301
8925,12.053,6,0,0.00019536,1952.2,6.5636e-05,13.571,6.3736e-05,-0.70231,-0.00019514,-1945.8,0.73992
8926,11.869,6,0,0.00017949,1793.7,6.0558e-05,15.563,5.8411e-05,-0.57218,-0.00017923,-1786.1,0.71697
8927,11.686,6,0,0.00015977,1596.6,5.4192e-05,17.413,5.1833e-05,-0.31369,-0.00015947,-1588,0.69413
8928,11.502,6,0,0.00013597,1358.7,4.6424e-05,18.761,4.3954e-05,0.19538,-0.00013564,-1349.2,0.6714
8929,11.318,6,0,0.00010799,1079.2,3.718e-05,18.854,3.475e-05,0.59481,-0.00010765,-1069.3,0.64876
8930,11.134,6,0,7.594e-05,758.88,2.6372e-05,17.086,2.4399e-05,2.2631,-7.56e-05,-749.09,0.62619
8931,10.95,6,0,3.9066e-05,390.39,1.4206e-05,14.259,1.1954e-05,-2.665,-3.8841e-05,-384.32,0.60367
8932,10.767,6,0,4.1183e-06,41.154,2.9221e-06,8.4903,-1.6004e-06,-25.49,-3.1681e-06,-37.269,0.58118
8933,10.6,1.8182,0,0.00071416,7136.7,0.00057065,4451.3,-2.3396e-05,-12.144,-0.00052482,-3779.6,0.57459
8934,10.6,1.6364,0,0.0004125,4122.1,0.00030335,2232.2,1.9254e-05,97.594,-0.00032906,-2519.5,0.57284
8935,10.6,1.4545,0,0.0003241,3238.7,0.00023789,1721.1,1.2171e-05,25.167,-0.00025915,-2013.4,0.57109
8936,10.6,1.2727,0,0.00025395,2537.7,0.00018118,1278.4,1.4921e-05,29.16,-0.00020747,-1641.8,0.56937
8937,10.6,1.0909,0,0.00020307,2029.3,0.00014074,961.97,1.5401e-05,20.197,-0.00016924,-1367.1,0.56768
8938,10.6,0.90909,0,0.00016209,1619.8,0.00010832,712.78,1.5883e-05,18.257,-0.00013806,-1138.4,0.56602
8939,10.6,0.72727,0,0.00012726,1271.7,8.1256e-05,508.4,1.5707e-05,15.892,-0.00011097,-935.88,0.56438
8940,10.6,0.54545,0,9.6185e-05,961.19,5.7832e-05,337.23,1.4872e-05,14.453,-8.6045e-05,-743.8,0.56278
8941,10.6,0.36364,0,6.7023e-05,669.77,3.6983e-05,193.54,1.3115e-05,14.206,-6.1662e-05,-547.63,0.5612
8942,10.6,0.18182,0,3.6578e-05,365.53,1.7696e-05,75.342,9.0853e-06,10.641,-3.4683e-05,-318.22,0.55965
8943,10.6,2,0,0.0017887,17875,0.00090758,3568.8,0.00034803,-635.52,-0.0017013,-16034,0.57639
8944,10.767,0.18182,0,3.2653e-05,326.31,1.4952e-05,55.658,8.5842e-06,7.8134,-3.1309e-05,-291.93,0.58219
8945,10.767,0.36364,0,5.9918e-05,598.77,3.0486e-05,139.05,1.35e-05,11.42,-5.6328e-05,-513.24,0.58322
8946,10.767,0.54545,0,8.5733e-05,856.73,4.6853e-05,238.01,1.6722e-05,11.62,-7.9211e-05,-709.18,0.58427
8947,10.767,0.72727,0,0.00011307,1130,6.498e-05,354.33,1.9547e-05,12.966,-0.00010289,-906.96,0.58535
8948,10.767,0.90909,0,0.00014375,1436.5,8.5845e-05,492.69,2.2289e-05,15.153,-0.00012902,-1121.7,0.58648
8949,10.767,1.0909,0,0.00018003,1799.1,0.00011095,662.1,2.5106e-05,17.083,-0.00015958,-1370.6,0.58764
8950,10.767,1.2727,0,0.00022552,2253.7,0.0001425,878.89,2.8871e-05,25.156,-0.00019766,-1676.9,0.58886
8951,10.767,1.4545,0,0.00028889,2886.9,0.0001878,1192.6,3.2072e-05,22.51,-0.00024983,-2095.6,0.59013
8952,10.767,1.6364,0,0.00036859,3683.4,0.00023647,1510.2,4.7163e-05,87.847,-0.00032018,-2672.2,0.59146
8953,10.767,1.8182,0,0.00064256,6421.2,0.00046946,3347.2,2.1813e-05,-16.229,-0.00051598,-4057,0.59286
8954,10.767,2,0,0.0017133,17121,0.00078905,2188.9,0.00036869,-969.45,-0.0016705,-16291,0.5944
8955,10.6,4.1818,0,0.00071416,7136.7,0.00057065,4451.3,-2.3396e-05,-12.144,-0.00052482,-3779.6,0.57459
8956,10.6,4.3636,0,0.0004125,4122.1,0.00030335,2232.2,1.9254e-05,97.594,-0.00032906,-2519.5,0.57284
8957,10.6,4.5455,0,0.0003241,3238.7,0.00023789,1721.1,1.2171e-05,25.167,-0.00025915,-2013.4,0.57109
8958,10.6,4.7273,0,0.00025395,2537.7,0.00018118,1278.4,1.4921e-05,29.16,-0.00020747,-1641.8,0.56937
8959,10.6,4.9091,0,0.00020307,2029.3,0.00014074,961.97,1.5401e-05,20.197,-0.00016924,-1367.1,0.56768
8960,10.6,5.0909,0,0.00016209,1619.8,0.00010832,712.78,1.5883e-05,18.257,-0.00013806,-1138.4,0.56602
8961,10.6,5.2727,0,0.00012726,1271.7,8.1256e-05,508.4,1.5707e-05,15.892,-0.00011097,-935.88,0.56438
8962,10.6,5.4545,0,9.6185e-05,961.19,5.7832e-05,337.23,1.4872e-05,14.453,-8.6045e-05,-743.8,0.56278
8963,10.6,5.6364,0,6.7023e-05,669.77,3.6983e-05,193.54,1.3115e-05,14.206,-6.1662e-05,-547.63,0.5612
8964,10.6,5.8182,0,3.6578e-05,365.53,1.7696e-05,75.342,9.0853e-06,10.641,-3.4683e-05,-318.22,0.55965
8965,10.6,4,0,0.0017887,17875,0.00090758,3568.8,0.00034803,-635.52,-0.0017013,-16034,0.57639
8966,10.767,5.8182,0,3.2653e-05,326.31,1.4952e-05,55.658,8.5842e-06,7.8134,-3.1309e-05,-291.93,0.58219
8967,10.767,5.6364,0,5.9918e-05,598.77,3.0486e-05,139.05,1.35e-05,11.42,-5.6328e-05,-513.24,0.58322
8968,10.767,5.4545,0,8.5733e-05,856.73,4.6853e-05,238.01,1.6722e-05,11.62,-7.9211e-05,-709.18,0.58427
8969,10.767,5.2727,0,0.00011307,1130,6.498e-05,354.33,1.9547e-05,12.966,-0.00010289,-906.96,0.58535
8970,10.767,5.0909,0,0.00014375,1436.5,8.5845e-05,492.69,2.2289e-05,15.153,-0.00012902,-1121.7,0.58648
8971,10.767,4.9091,0,0.00018003,1799.1,0.00011095,662.1,2.5106e-05,17.083,-0.00015958,-1370.6,0.58764
8972,10.767,4.7273,0,0.00022552,2253.7,0.0001425,878.89,2.8871e-05,25.156,-0.00019766,-1676.9,0.58886
8973,10.767,4.5455,0,0.00028889,2886.9,0.0001878,1192.6,3.2072e-05,22.51,-0.00024983,-2095.6,0.59013
8974,10.767,4.3636,0,0.00036859,3683.4,0.00023647,1510.2,4.7163e-05,87.847,-0.00032018,-2672.2,0.59146
8975,10.767,4.1818,0,0.00064256,6421.2,0.00046946,3347.2,2.1813e-05,-16.229,-0.00051598,-4057,0.59286
8976,10.767,4,0,0.0017133,17121,0.00078905,2188.9,0.00036869,-969.45,-0.0016705,-16291,0.5944
8977,10.6,2.2727,0,0.0010855,10848,0.00046223,1297.1,0.00029657,52.378,-0.0010572,-10119,0.57821
8978,10.683,2.1818,0,0.0011873,11865,0.00048616,1203.1,0.00033921,98.975,-0.0011613,-11175,0.58658
8979,10.509,2.1818,0,0.0010457,10450,0.00044424,1252.9,0.00028793,78.486,-0.0010181,-9734.2,0.56815
8980,10.6,2.1818,0.05,7.2269e-05,722.19,5.5494e-05,416.96,6.4497e-12,0.00015626,-5.5494e-05,-416.96,0.57767
8981,10.6,2.0909,0,0.0014641,14631,0.00068558,2325.7,0.00033872,-280.48,-0.0014118,-13433,0.5771
8982,10.6,2.4545,0,0.00090337,9027.5,0.00038527,1053.3,0.00024316,-14.48,-0.00088095,-8460.6,0.57901
8983,10.683,2.3636,0,0.00095208,9514.2,0.00040352,1069.8,0.00025705,-30.65,-0.00092961,-8946.8,0.58753
8984,10.509,2.3636,0,0.00090017,8995.5,0.00038341,1039,0.00024221,-21.897,-0.00087816,-8439.9,0.56905
8985,10.6,2.3636,0.05,1.2213e-05,122.05,9.3781e-06,70.464,7.3021e-12,0.00019172,-9.3781e-06,-70.464,0.57862
8986,10.6,2.6364,0,0.00081785,8172.9,0.00034504,913.78,0.00022324,-1.3502,-0.00079848,-7678.2,0.57956
8987,10.683,2.5455,0,0.00084273,8421.5,0.00035416,925.81,0.00023105,0.86245,-0.00082315,-7920,0.58821
8988,10.509,2.5455,0,0.00081586,8153,0.0003424,891.47,0.00022408,2.4659,-0.00079701,-7669.6,0.5697
8989,10.6,2.5455,0.05,5.8468e-06,58.428,4.4896e-06,33.733,6.8551e-12,0.00013541,-4.4896e-06,-33.733,0.57929
8990,10.6,2.8182,0,0.00077617,7756.4,0.00032558,843.28,0.00021301,-2.5401,-0.0007584,-7301.3,0.57988
8991,10.683,2.7273,0,0.00078525,7847.1,0.00032847,841.35,0.00021605,-3.35,-0.00076758,-7393.9,0.58864
8992,10.509,2.7273,0,0.00076997,7694.4,0.00032152,818.19,0.00021221,-3.1148,-0.00075281,-7253.9,0.57013
8993,10.6,2.7273,0.05,3.0172e-06,30.152,2.3169e-06,17.408,7.276e-12,6.4574e-05,-2.3169e-06,-17.408,0.57972
8994,10.6,3,0,0.0007637,7631.8,0.00031964,821.38,0.00021009,-1.7465,-0.00074642,-7188.6,0.57999
8995,10.683,2.9091,0,0.00076058,7600.6,0.00031702,801.84,0.00021008,-1.6918,-0.00074378,-7168.6,0.58885
8996,10.509,2.9091,0,0.00074946,7489.5,0.00031182,783.42,0.0002074,-1.2144,-0.00073307,-7067.5,0.57034
8997,10.6,2.9091,0.05,1.698e-06,16.968,1.3039e-06,9.7967,8.9776e-13,7.464e-05,-1.3039e-06,-9.7965,0.57993
8998,10.6,3.1818,0,0.00077617,7756.4,0.00032558,843.28,0.00021301,-2.5401,-0.0007584,-7301.3,0.57988
8999,10.683,3.0909,0,0.00076058,7600.6,0.00031702,801.84,0.00021008,-1.6918,-0.00074378,-7168.6,0.58885
9000,10.509,3.0909,0,0.00074946,7489.5,0.00031182,783.42,0.0002074,-1.2144,-0.00073307,-7067.5,0.57034
9001,10.6,3.0909,0.05,1.698e-06,16.968,1.3039e-06,9.7967,5.6767e-13,5.9109e-05,-1.3039e-06,-9.7966,0.57993
9002,10.6,3.3636,0,0.00081785,8172.9,0.00034504,913.78,0.00022324,-1.3502,-0.00079848,-7678.2,0.57956
9003,10.683,3.2727,0,0.00078525,7847.1,0.00032847,841.35,0.00021605,-3.35,-0.00076758,-7393.9,0.58864
9004,10.509,3.2727,0,0.00076997,7694.4,0.00032152,818.19,0.00021221,-3.1148,-0.00075281,-7253.9,0.57013
9005,10.6,3.2727,0.05,3.0172e-06,30.152,2.3169e-06,17.408,1.7993e-12,4.3845e-05,-2.3169e-06,-17.408,0.57972
9006,10.6,3.5455,0,0.00090337,9027.5,0.00038527,1053.3,0.00024316,-14.48,-0.00088095,-8460.6,0.57901
9007,10.683,3.4545,0,0.00084273,8421.5,0.00035416,925.81,0.00023105,0.86245,-0.00082315,-7920,0.58821
9008,10.509,3.4545,0,0.00081586,8153,0.0003424,891.47,0.00022408,2.4659,-0.00079701,-7669.6,0.5697
9009,10.6,3.4545,0.05,5.8468e-06,58.428,4.4896e-06,33.733,2.0494e-12,1.2249e-05,-4.4896e-06,-33.733,0.57929
9010,10.6,3.7273,0,0.0010855,10848,0.00046223,1297.1,0.00029657,52.378,-0.0010572,-10119,0.57821
9011,10.683,3.6364,0,0.00095208,9514.2,0.00040352,1069.8,0.00025705,-30.65,-0.00092961,-8946.8,0.58753
9012,10.509,3.6364,0,0.00090017,8995.5,0.00038341,1039,0.00024221,-21.897,-0.00087816,-8439.9,0.56905
9013,10.6,3.6364,0.05,1.2213e-05,122.05,9.3781e-06,70.464,4.1514e-12,1.085e-06,-9.3781e-06,-70.464,0.57862
9014,10.683,3.8182,0,0.0011873,11865,0.00048616,1203.1,0.00033921,98.975,-0.0011613,-11175,0.58658
9015,10.509,3.8182,0,0.0010457,10450,0.00044424,1252.9,0.00028793,78.486,-0.0010181,-9734.2,0.56815
9016,10.6,3.8182,0.05,7.2269e-05,722.19,5.5494e-05,416.96,-1.1771e-20,-8.8443e-14,-5.5494e-05,-416.96,0.57767
9017,10.6,3.9091,0,0.0014641,14631,0.00068558,2325.7,0.00033872,-280.48,-0.0014118,-13433,0.5771
9018,10.767,2.2727,0,0.0010742,10735,0.00044454,1104.3,0.00029989,17.502,-0.001051,-10133,0.59613
9019,10.859,2.1818,0,0.0010238,10231,0.0004093,877.05,0.00029513,19.195,-0.0010059,-9756,0.6058
9020,10.767,2.1818,0.05,6.5102e-05,650.57,4.999e-05,375.61,4.3609e-12,0.00017214,-4.999e-05,-375.61,0.5956
9021,10.767,2.0909,0,0.0014209,14199,0.00061476,1499.9,0.0003507,-484.25,-0.0013932,-13587,0.59506
9022,10.767,2.4545,0,0.00089743,8968.1,0.00037738,979.74,0.00024502,-14.757,-0.00087686,-8444.1,0.59691
9023,10.859,2.3636,0,0.00088733,8867.2,0.00036546,869.2,0.00024676,-22.664,-0.00086956,-8410.2,0.60665
9024,10.767,2.3636,0.05,1.3181e-05,131.71,1.0121e-05,76.045,3.1406e-12,9.8506e-05,-1.0121e-05,-76.045,0.59652
9025,10.767,2.6364,0,0.00081168,8111.2,0.00033888,863.08,0.00022387,-1.0355,-0.00079355,-7645.6,0.59745
9026,10.859,2.5455,0,0.00080299,8024.3,0.0003289,777.51,0.00022576,2.614,-0.0007869,-7606.1,0.60727
9027,10.767,2.5455,0.05,6.3577e-06,63.533,4.8819e-06,36.681,7.2195e-12,8.5129e-05,-4.8819e-06,-36.681,0.59718
9028,10.767,2.8182,0,0.00076995,7694.2,0.00032015,801.67,0.00021313,-2.4228,-0.0007532,-7263,0.59777
9029,10.859,2.7273,0,0.00075706,7565.4,0.00030994,728.2,0.00021264,-2.8651,-0.00074207,-7176.2,0.60768
9030,10.767,2.7273,0.05,3.5318e-06,35.294,2.712e-06,20.377,-1.8838e-13,8.9275e-05,-2.712e-06,-20.377,0.59761
9031,10.767,3,0,0.00075745,7569.3,0.00031439,782.16,0.00021008,-1.5742,-0.00074112,-7148.5,0.59787
9032,10.859,2.9091,0,0.00073649,7359.8,0.00030097,702.68,0.00020732,-0.92324,-0.00072202,-6983.7,0.60788
9033,10.767,2.9091,0.05,2.3281e-06,23.265,1.7877e-06,13.432,6.7417e-12,4.1971e-05,-1.7877e-06,-13.432,0.59782
9034,10.767,3.1818,0,0.00076995,7694.2,0.00032015,801.67,0.00021313,-2.4228,-0.0007532,-7263,0.59777
9035,10.859,3.0909,0,0.00073649,7359.8,0.00030097,702.68,0.00020732,-0.92324,-0.00072202,-6983.7,0.60788
9036,10.767,3.0909,0.05,2.3281e-06,23.265,1.7877e-06,13.432,5.4141e-12,4.3037e-05,-1.7877e-06,-13.432,0.59782
9037,10.767,3.3636,0,0.00081168,8111.2,0.00033888,863.08,0.00022387,-1.0355,-0.00079355,-7645.6,0.59745
9038,10.859,3.2727,0,0.00075706,7565.4,0.00030994,728.2,0.00021264,-2.8651,-0.00074207,-7176.2,0.60768
9039,10.767,3.2727,0.05,3.5318e-06,35.294,2.712e-06,20.377,1.7687e-12,6.4607e-05,-2.712e-06,-20.377,0.59761
9040,10.767,3.5455,0,0.00089743,8968.1,0.00037738,979.74,0.00024502,-14.757,-0.00087686,-8444.1,0.59691
9041,10.859,3.4545,0,0.00080299,8024.3,0.0003289,777.51,0.00022576,2.614,-0.0007869,-7606.1,0.60727
9042,10.767,3.4545,0.05,6.3577e-06,63.533,4.8819e-06,36.681,4.7127e-12,5.3209e-05,-4.8819e-06,-36.681,0.59718
9043,10.767,3.7273,0,0.0010742,10735,0.00044454,1104.3,0.00029989,17.502,-0.001051,-10133,0.59613
9044,10.859,3.6364,0,0.00088733,8867.2,0.00036546,869.2,0.00024676,-22.664,-0.00086956,-8410.2,0.60665
9045,10.767,3.6364,0.05,1.3181e-05,131.71,1.0121e-05,76.045,1.4045e-12,1.4564e-05,-1.0121e-05,-76.045,0.59652
9046,10.859,3.8182,0,0.0010238,10231,0.0004093,877.05,0.00029513,19.195,-0.0010059,-9756,0.6058
9047,10.767,3.8182,0.05,6.5102e-05,650.57,4.999e-05,375.61,-1.0604e-20,3.68e-05,-4.999e-05,-375.61,0.5956
9048,10.767,3.9091,0,0.0014209,14199,0.00061476,1499.9,0.0003507,-484.25,-0.0013932,-13587,0.59506
9049,10.417,5.7273,0,8.3454e-05,833.97,4.1979e-05,172.3,1.758e-05,-11.033,-7.9185e-05,-738.08,0.5436
9050,10.326,5.8182,0,8.4266e-05,842.08,3.5184e-05,83.487,2.2645e-05,-10.725,-8.2632e-05,-801.74,0.53444
9051,10.417,5.8182,0.05,9.0285e-06,90.223,6.9328e-06,52.09,9.896e-14,8.3013e-07,-6.9328e-06,-52.09,0.54282
9052,10.417,5.9091,0,5.3534e-05,534.97,2.1617e-05,41.683,1.4642e-05,-10.722,-5.2814e-05,-517.56,0.54208
9053,10.509,5.8182,0,4.691e-05,468.77,1.986e-05,54.321,1.286e-05,1.7253,-4.5734e-05,-438.53,0.55124
9054,10.417,5.5455,0,0.00012005,1199.6,6.7495e-05,345.43,2.0673e-05,-6.3721,-0.00011034,-990.77,0.54512
9055,10.326,5.6364,0,0.00010784,1077.7,5.0485e-05,180.02,2.585e-05,-5.0782,-0.00010366,-978.2,0.53594
9056,10.417,5.6364,0.05,8.1448e-06,81.392,6.2542e-06,46.992,3.9741e-14,1.574e-06,-6.2542e-06,-46.992,0.54434
9057,10.509,5.6364,0,7.7453e-05,774,4.0143e-05,182.42,1.6235e-05,2.7847,-7.2722e-05,-665.6,0.55278
9058,10.417,5.3636,0,0.00016316,1630.5,9.9208e-05,570.63,2.2544e-05,-5.3935,-0.00014572,-1269.6,0.54664
9059,10.326,5.4545,0,0.00014238,1422.8,7.5505e-05,352.71,2.8118e-05,-3.3438,-0.00013305,-1214.3,0.53744
9060,10.417,5.4545,0.05,8.595e-06,85.891,6.5999e-06,49.589,-1.3999e-21,8.0846e-07,-6.5999e-06,-49.589,0.54586
9061,10.509,5.4545,0,0.0001113,1112.2,6.4745e-05,353.15,1.7987e-05,1.8294,-0.00010101,-892.29,0.55433
9062,10.417,5.1818,0,0.00021193,2117.8,0.00013567,834.54,2.3923e-05,-5.0779,-0.00018494,-1574.4,0.54817
9063,10.326,5.2727,0,0.0001835,1833.7,0.00010583,567.07,3.0018e-05,-2.5662,-0.00016713,-1483.9,0.53893
9064,10.417,5.2727,0.05,9.5332e-06,95.266,7.3203e-06,55.002,-1.2766e-13,-2.8557e-06,-7.3203e-06,-55.002,0.54739
9065,10.509,5.2727,0,0.0001483,1482,9.2527e-05,554.04,1.9027e-05,1.7943,-0.00013091,-1124.8,0.55589
9066,10.417,5,0,0.00026823,2680.4,0.00017791,1142,2.5151e-05,-5.7822,-0.00022977,-1921.2,0.54971
9067,10.326,5.0909,0,0.00023107,2309.1,0.00014087,816.05,3.1955e-05,-2.3333,-0.00020607,-1790.8,0.54041
9068,10.417,5.0909,0.05,1.0955e-05,109.48,8.4123e-06,63.207,-2.8475e-13,-2.7299e-06,-8.4123e-06,-63.207,0.54892
9069,10.509,5.0909,0,0.00018996,1898.3,0.00012432,788.81,1.9612e-05,2.1014,-0.00016385,-1376.3,0.55748
9070,10.417,4.8182,0,0.00033564,3354.1,0.00022819,1507.4,2.6823e-05,-5.5911,-0.00028342,-2336.6,0.55124
9071,10.326,4.9091,0,0.00028666,2864.6,0.00018136,1101.6,3.436e-05,-2.8732,-0.00025151,-2150.8,0.54189
9072,10.417,4.9091,0.05,1.2981e-05,129.72,9.9679e-06,74.895,-2.967e-13,-4.6448e-06,-9.9679e-06,-74.895,0.55046
9073,10.509,4.9091,0,0.00023866,2384.9,0.00016179,1067.8,1.9778e-05,0.80125,-0.00020184,-1664.3,0.55908
9074,10.417,4.6364,0,0.00042055,4202.6,0.00029048,1950.2,2.933e-05,-11.934,-0.00035166,-2874.6,0.55277
9075,10.326,4.7273,0,0.00035346,3532.2,0.00022891,1431.5,3.813e-05,-1.9652,-0.00030659,-2592.1,0.54334
9076,10.417,4.7273,0.05,1.6127e-05,161.16,1.2384e-05,93.046,-3.5268e-13,-5.2112e-06,-1.2384e-05,-93.046,0.55199
9077,10.509,4.7273,0,0.00029835,2981.5,0.00020743,1410,2.0518e-05,5.6041,-0.00024832,-2014.3,0.56069
9078,10.417,4.4545,0,0.00053651,5361.4,0.0003731,2530.7,3.6052e-05,-1.7837,-0.00044655,-3627.8,0.55427
9079,10.326,4.5455,0,0.00043621,4359.1,0.00028538,1802.4,4.4223e-05,-9.4843,-0.00037646,-3170.4,0.54477
9080,10.417,4.5455,0.05,2.0126e-05,201.12,1.5454e-05,116.12,-6.5265e-13,-5.817e-06,-1.5454e-05,-116.12,0.5535
9081,10.509,4.5455,0,0.0003773,3770.4,0.00026837,1858.1,1.9182e-05,-14.238,-0.00030927,-2482.1,0.56231
9082,10.417,4.2727,0,0.00070156,7010.8,0.00047373,3086.5,5.6578e-05,-47.792,-0.00059515,-4944.6,0.55573
9083,10.326,4.3636,0,0.00054381,5434.4,0.00035361,2228.9,5.8295e-05,10.019,-0.00047059,-3963.8,0.54613
9084,10.417,4.3636,0.05,3.0358e-05,303.37,2.3311e-05,175.15,-6.1683e-13,-3.8808e-06,-2.3311e-05,-175.15,0.55499
9085,10.509,4.3636,0,0.00048294,4826,0.00034222,2400.4,3.076e-05,60.136,-0.00039643,-3149.6,0.56391
9086,10.417,4.0909,0,0.00086782,8672.2,0.00052345,2835.3,0.00010717,-292.46,-0.00078114,-6966.8,0.55708
9087,10.326,4.1818,0,0.00069,6895.2,0.00042503,2472.9,8.9379e-05,-49.129,-0.00061324,-5328.3,0.54741
9088,10.417,4.1818,0.05,5.7973e-05,579.33,4.4516e-05,334.48,-9.4426e-21,-5.2197e-06,-4.4516e-05,-334.48,0.5564
9089,10.509,4.1818,0,0.00069355,6930.7,0.00051717,3642.2,-2.7222e-06,-264.08,-0.00054785,-4360,0.56549
9090,10.417,3.9091,0,0.00091421,9135.7,0.00045207,1739.8,0.00019316,-205.52,-0.00087243,-8211.9,0.55825
9091,10.326,4,0,0.00079733,7967.8,0.00041873,1818.7,0.0001496,-203.39,-0.00075036,-6965.4,0.54855
9092,10.417,4,0.05,0.00010423,1041.5,8.0032e-05,601.33,-1.6976e-20,-1.2755e-13,-8.0032e-05,-601.33,0.55767
9093,10.509,4,0,0.0013495,13485,0.00067548,2677.9,0.00027987,-294.65,-0.0012841,-12046,0.56696
9094,10.417,3.7273,0,0.00087197,8713.7,0.00037534,1069.4,0.00023341,3.0617,-0.00084882,-8128.4,0.55921
9095,10.326,3.8182,0,0.00079606,7955.1,0.00034432,1010.9,0.00021336,26.833,-0.00077382,-7390.5,0.54951
9096,10.417,3.8182,0.05,4.6914e-05,468.81,3.6024e-05,270.67,-7.6412e-21,-5.7413e-14,-3.6024e-05,-270.67,0.55873
9097,10.417,3.5455,0,0.00081582,8152.6,0.00034317,897.06,0.00022315,-4.7485,-0.00079689,-7668.9,0.55994
9098,10.326,3.6364,0,0.0007739,7733.7,0.00032288,815.45,0.00021315,-9.0193,-0.00075688,-7297.4,0.55029
9099,10.417,3.6364,0.05,2.0183e-05,201.69,1.5498e-05,116.44,2.0167e-13,1.2428e-05,-1.5498e-05,-116.44,0.55957
9100,10.417,3.3636,0,0.00076895,7684.2,0.00031968,801.89,0.00021306,0.77469,-0.00075215,-7251.5,0.56045
9101,10.326,3.4545,0,0.00074196,7414.5,0.00030453,726.4,0.00020822,2.7502,-0.0007269,-7023.4,0.55087
9102,10.417,3.4545,0.05,1.1086e-05,110.78,8.5127e-06,63.961,5.4552e-13,4.2719e-05,-8.5127e-06,-63.961,0.56019
9103,10.417,3.1818,0,0.00074337,7428.6,0.00030784,758.89,0.00020661,-1.7296,-0.00072756,-7020.7,0.56075
9104,10.326,3.2727,0,0.00072002,7195.3,0.00029423,686.57,0.00020266,-1.4726,-0.0007059,-6828,0.55125
9105,10.417,3.2727,0.05,6.5688e-06,65.643,5.044e-06,37.899,1.9202e-13,3.0701e-05,-5.0441e-06,-37.899,0.5606
9106,10.417,3,0,0.00073511,7346.1,0.0003039,744.66,0.00020471,-0.62954,-0.00071961,-6945.6,0.56085
9107,10.326,3.0909,0,0.00070893,7084.4,0.00028901,668.15,0.00020003,-0.41826,-0.0006952,-6726.8,0.55144
9108,10.417,3.0909,0.05,4.9929e-06,49.894,3.8339e-06,28.807,3.8405e-12,4.0506e-05,-3.8339e-06,-28.807,0.5608
9109,10.417,2.8182,0,0.00074337,7428.6,0.00030784,758.89,0.00020661,-1.7296,-0.00072756,-7020.7,0.56075
9110,10.326,2.9091,0,0.00070893,7084.4,0.00028901,668.16,0.00020003,-0.41826,-0.0006952,-6726.8,0.55144
9111,10.417,2.9091,0.05,4.9929e-06,49.894,3.8339e-06,28.807,3.3927e-12,4.4849e-05,-3.8339e-06,-28.806,0.5608
9112,10.417,2.6364,0,0.00076895,7684.2,0.00031968,801.89,0.00021306,0.77469,-0.00075215,-7251.5,0.56045
9113,10.326,2.7273,0,0.00072002,7195.3,0.00029423,686.57,0.00020266,-1.4726,-0.0007059,-6828,0.55125
9114,10.417,2.7273,0.05,6.5688e-06,65.643,5.044e-06,37.899,6.3158e-12,5.4592e-05,-5.044e-06,-37.899,0.5606
9115,10.417,2.4545,0,0.00081582,8152.6,0.00034317,897.06,0.00022315,-4.7485,-0.00079689,-7668.9,0.55994
9116,10.326,2.5455,0,0.00074196,7414.5,0.00030453,726.4,0.00020822,2.7502,-0.0007269,-7023.4,0.55087
9117,10.417,2.5455,0.05,1.1086e-05,110.78,8.5127e-06,63.961,-1.091e-12,5.7982e-05,-8.5127e-06,-63.961,0.56019
9118,10.417,2.2727,0,0.00087197,8713.7,0.00037534,1069.4,0.00023341,3.0617,-0.00084882,-8128.4,0.55921
9119,10.326,2.3636,0,0.0007739,7733.7,0.00032288,815.45,0.00021315,-9.0193,-0.00075688,-7297.4,0.55029
9120,10.417,2.3636,0.05,2.0183e-05,201.69,1.5498e-05,116.44,-5.8942e-13,6.9235e-05,-1.5498e-05,-116.44,0.55957
9121,10.417,2.0909,0,0.00091421,9135.7,0.00045207,1739.8,0.00019316,-205.52,-0.00087243,-8211.9,0.55825
9122,10.326,2.1818,0,0.00079606,7955.1,0.00034432,1010.9,0.00021336,26.833,-0.00077382,-7390.5,0.54951
9123,10.417,2.1818,0.05,4.6914e-05,468.81,3.6024e-05,270.67,-8.6523e-12,5.7734e-05,-3.6024e-05,-270.67,0.55873
9124,10.417,1.9091,0,0.00086781,8672.2,0.00052345,2835.3,0.00010717,-292.46,-0.00078114,-6966.8,0.55708
9125,10.326,2,0,0.00079733,7967.8,0.00041873,1818.7,0.0001496,-203.39,-0.00075036,-6965.4,0.54855
9126,10.417,2,0.05,0.00010423,1041.5,8.0032e-05,601.33,1.0932e-11,0.00017709,-8.0032e-05,-601.33,0.55767
9127,10.509,2,0,0.0013495,13485,0.00067548,2677.9,0.00027987,-294.65,-0.0012841,-12046,0.56696
9128,10.417,1.7273,0,0.00070156,7010.8,0.00047373,3086.5,5.6578e-05,-47.792,-0.00059515,-4944.6,0.55573
9129,10.326,1.8182,0,0.00069,6895.2,0.00042503,2472.9,8.9379e-05,-49.129,-0.00061324,-5328.3,0.54741
9130,10.417,1.8182,0.05,5.7973e-05,579.33,4.4516e-05,334.48,1.9743e-11,0.00012196,-4.4516e-05,-334.48,0.5564
9131,10.509,1.8182,0,0.00069355,6930.7,0.00051717,3642.2,-2.7222e-06,-264.08,-0.00054785,-4360,0.56549
9132,10.417,1.5455,0,0.00053651,5361.4,0.0003731,2530.7,3.6052e-05,-1.7837,-0.00044655,-3627.8,0.55427
9133,10.326,1.6364,0,0.00054381,5434.4,0.00035361,2228.9,5.8295e-05,10.019,-0.00047059,-3963.8,0.54613
9134,10.417,1.6364,0.05,3.0358e-05,303.37,2.3311e-05,175.15,3.1157e-12,6.0853e-05,-2.3311e-05,-175.15,0.55499
9135,10.509,1.6364,0,0.00048294,4826,0.00034222,2400.4,3.076e-05,60.136,-0.00039643,-3149.6,0.56391
9136,10.417,1.3636,0,0.00042055,4202.6,0.00029048,1950.2,2.933e-05,-11.934,-0.00035166,-2874.6,0.55277
9137,10.326,1.4545,0,0.00043621,4359.1,0.00028538,1802.4,4.4223e-05,-9.4843,-0.00037646,-3170.4,0.54477
9138,10.417,1.4545,0.05,2.0126e-05,201.12,1.5454e-05,116.12,1.958e-12,1.9606e-05,-1.5454e-05,-116.12,0.5535
9139,10.509,1.4545,0,0.0003773,3770.4,0.00026837,1858.1,1.9182e-05,-14.238,-0.00030927,-2482.1,0.56231
9140,10.417,1.1818,0,0.00033564,3354.1,0.00022819,1507.4,2.6823e-05,-5.5911,-0.00028342,-2336.6,0.55124
9141,10.326,1.2727,0,0.00035346,3532.2,0.00022891,1431.5,3.813e-05,-1.9652,-0.00030659,-2592.1,0.54334
9142,10.417,1.2727,0.05,1.6127e-05,161.16,1.2384e-05,93.046,7.8886e-13,2.3784e-05,-1.2384e-05,-93.046,0.55199
9143,10.509,1.2727,0,0.00029835,2981.5,0.00020743,1410,2.0518e-05,5.6041,-0.00024832,-2014.3,0.56069
9144,10.417,1,0,0.00026823,2680.4,0.00017791,1142,2.5151e-05,-5.7822,-0.00022977,-1921.2,0.54971
9145,10.326,1.0909,0,0.00028666,2864.6,0.00018136,1101.6,3.436e-05,-2.8732,-0.00025151,-2150.8,0.54189
9146,10.417,1.0909,0.05,1.2981e-05,129.72,9.9679e-06,74.895,3.5595e-13,5.3083e-06,-9.9679e-06,-74.895,0.55046
9147,10.509,1.0909,0,0.00023866,2384.9,0.00016179,1067.8,1.9778e-05,0.80125,-0.00020184,-1664.3,0.55908
9148,10.417,0.81818,0,0.00021193,2117.8,0.00013567,834.54,2.3923e-05,-5.0779,-0.00018494,-1574.4,0.54817
9149,10.326,0.90909,0,0.00023107,2309.1,0.00014087,816.05,3.1955e-05,-2.3333,-0.00020607,-1790.8,0.54041
9150,10.417,0.90909,0.05,1.0955e-05,109.48,8.4123e-06,63.207,1.6271e-13,1.3649e-06,-8.4123e-06,-63.207,0.54892
9151,10.509,0.90909,0,0.00018996,1898.3,0.00012432,788.81,1.9612e-05,2.1014,-0.00016385,-1376.3,0.55748
9152,10.417,0.63636,0,0.00016316,1630.5,9.9208e-05,570.63,2.2544e-05,-5.3935,-0.00014572,-1269.6,0.54664
9153,10.326,0.72727,0,0.0001835,1833.7,0.00010583,567.07,3.0018e-05,-2.5662,-0.00016713,-1483.9,0.53893
9154,10.417,0.72727,0.05,9.5332e-06,95.266,7.3203e-06,55.002,-1.5528e-21,-6.4089e-14,-7.3203e-06,-55.002,0.54739
9155,10.509,0.72727,0,0.0001483,1482,9.2527e-05,554.04,1.9027e-05,1.7943,-0.00013091,-1124.8,0.55589
9156,10.417,0.45455,0,0.00012005,1199.6,6.7495e-05,345.43,2.0673e-05,-6.3721,-0.00011034,-990.77,0.54512
9157,10.326,0.54545,0,0.00014238,1422.8,7.5505e-05,352.71,2.8118e-05,-3.3438,-0.00013305,-1214.3,0.53744
9158,10.417,0.54545,0.05,8.595e-06,85.891,6.5999e-06,49.589,8.9593e-14,-6.2359e-06,-6.5999e-06,-49.589,0.54586
9159,10.509,0.54545,0,0.0001113,1112.2,6.4745e-05,353.15,1.7987e-05,1.8294,-0.00010101,-892.29,0.55433
9160,10.417,0.27273,0,8.3454e-05,833.97,4.1979e-05,172.3,1.758e-05,-11.033,-7.9185e-05,-738.08,0.5436
9161,10.326,0.36364,0,0.00010784,1077.7,5.0485e-05,180.02,2.585e-05,-5.0782,-0.00010366,-978.2,0.53594
9162,10.417,0.36364,0.05,8.1448e-06,81.392,6.2542e-06,46.992,-5.1752e-13,-5.795e-06,-6.2542e-06,-46.992,0.54434
9163,10.509,0.36364,0,7.7453e-05,774,4.0143e-05,182.42,1.6235e-05,2.7847,-7.2722e-05,-665.6,0.55278
9164,10.326,0.18182,0,8.4266e-05,842.08,3.5184e-05,83.487,2.2645e-05,-10.725,-8.2632e-05,-801.74,0.53444
9165,10.417,0.18182,0.05,9.0285e-06,90.223,6.9328e-06,52.09,8.659e-14,1.6603e-06,-6.9328e-06,-52.09,0.54282
9166,10.417,0.090909,0,5.3534e-05,534.97,2.1617e-05,41.683,1.4642e-05,-10.722,-5.2814e-05,-517.56,0.54208
9167,10.509,0.18182,0,4.691e-05,468.77,1.986e-05,54.321,1.286e-05,1.7253,-4.5734e-05,-438.53,0.55124
9168,10.234,5.7273,0,0.00011243,1123.5,4.6387e-05,111.48,3.1244e-05,-2.2999,-0.00011014,-1064.6,0.52679
9169,10.143,5.8182,0,0.00012328,1231.9,4.7038e-05,75.613,3.6707e-05,-2.0094,-0.00012184,-1193.3,0.51768
9170,10.234,5.8182,0.05,8.2772e-06,82.715,6.3558e-06,47.755,2.2377e-13,1.8771e-06,-6.3558e-06,-47.755,0.52603
9171,10.234,5.9091,0,9.5522e-05,954.56,3.4331e-05,33.553,2.9811e-05,-0.40968,-9.4912e-05,-937.53,0.5253
9172,10.234,5.5455,0,0.00013574,1356.5,6.2649e-05,218.51,3.347e-05,-0.7317,-0.0001307,-1234.3,0.52827
9173,10.143,5.6364,0,0.00013791,1378.1,5.68e-05,136.42,3.8479e-05,-1.2383,-0.00013509,-1305.4,0.51914
9174,10.234,5.6364,0.05,7.2711e-06,72.661,5.5833e-06,41.951,2.2359e-13,-3.7949e-08,-5.5833e-06,-41.951,0.52751
9175,10.234,5.3636,0,0.00016869,1685.7,8.6506e-05,382.03,3.5662e-05,0.0067478,-0.00015891,-1461.9,0.52973
9176,10.143,5.4545,0,0.00016292,1628.1,7.4664e-05,255.74,4.0536e-05,-0.683,-0.00015706,-1485.3,0.52059
9177,10.234,5.4545,0.05,7.3453e-06,73.402,5.6403e-06,42.379,-1.1964e-21,-8.9892e-15,-5.6403e-06,-42.379,0.52898
9178,10.234,5.1818,0,0.00020888,2087.4,0.00011553,582.33,3.8084e-05,0.42988,-0.00019279,-1734.3,0.53118
9179,10.143,5.2727,0,0.00019577,1956.4,9.8174e-05,414.7,4.2936e-05,-0.33119,-0.00018539,-1715.9,0.52201
9180,10.234,5.2727,0.05,7.7384e-06,77.331,5.9421e-06,44.647,-1.2604e-21,-9.4685e-07,-5.9421e-06,-44.647,0.53044
9181,10.234,5,0,0.00025635,2561.8,0.00014918,812.16,4.1179e-05,0.69228,-0.00023269,-2057,0.53261
9182,10.143,5.0909,0,0.00023557,2354.1,0.00012612,601.95,4.597e-05,-0.23218,-0.00021948,-1994.7,0.5234
9183,10.234,5.0909,0.05,8.425e-06,84.191,6.4693e-06,48.608,-1.3722e-21,-4.0432e-06,-6.4693e-06,-48.608,0.53188
9184,10.234,4.8182,0,0.00031256,3123.5,0.00018776,1068.4,4.5665e-05,0.73777,-0.00028037,-2448.9,0.53401
9185,10.143,4.9091,0,0.00028248,2822.9,0.00015796,809.64,5.0169e-05,-0.26039,-0.00025985,-2329.7,0.52476
9186,10.234,4.9091,0.05,9.4483e-06,94.418,7.2552e-06,54.512,-1.5389e-21,-2.3688e-06,-7.2552e-06,-54.512,0.53329
9187,10.234,4.6364,0,0.00037932,3790.6,0.00023088,1336.9,5.3012e-05,0.40518,-0.00033846,-2941,0.53537
9188,10.143,4.7273,0,0.00033749,3372.6,0.00019338,1028.5,5.6424e-05,-0.49616,-0.00030801,-2738.7,0.52608
9189,10.234,4.7273,0.05,1.0748e-05,107.4,8.253e-06,62.01,-1.8013e-12,-2.8332e-06,-8.253e-06,-62.01,0.53467
9190,10.234,4.4545,0,0.00045847,4581.5,0.00027619,1578.1,6.6422e-05,1.9935,-0.00041077,-3583.4,0.53668
9191,10.143,4.5455,0,0.00040116,4008.8,0.00023064,1232.8,6.6468e-05,-0.75754,-0.0003657,-3247.9,0.52734
9192,10.234,4.5455,0.05,1.3192e-05,131.82,1.0129e-05,76.109,-2.1486e-21,-3.7011e-06,-1.0129e-05,-76.109,0.53601
9193,10.234,4.2727,0,0.00054551,5451.4,0.00031348,1679.6,9.1078e-05,8.5507,-0.00049722,-4411.7,0.5379
9194,10.143,4.3636,0,0.00047318,4728.6,0.00026576,1370.6,8.3077e-05,-1.9869,-0.0004347,-3892.4,0.52852
9195,10.234,4.3636,0.05,1.2568e-05,125.6,9.6509e-06,72.513,-2.0471e-21,-1.5381e-14,-9.6509e-06,-72.513,0.53728
9196,10.234,4.0909,0,0.00061655,6161.3,0.00031783,1437.6,0.00013124,35.616,-0.0005794,-5303.9,0.539
9197,10.143,4.1818,0,0.00054428,5439.1,0.00028579,1321,0.00011054,4.2638,-0.00050964,-4655.6,0.5296
9198,10.234,4.1818,0.05,1.8251e-05,182.39,1.4015e-05,105.3,-8.3502e-21,-2.2336e-14,-1.4015e-05,-105.3,0.53844
9199,10.234,3.9091,0,0.00066697,6665.1,0.00030084,1013.6,0.00017185,44.347,-0.00064367,-6083.1,0.53996
9200,10.143,4,0,0.00059555,5951.4,0.00027611,989.78,0.00014754,23.741,-0.0005724,-5385.5,0.53054
9201,10.234,4,0.05,1.5868e-05,158.57,1.2185e-05,91.55,-2.5845e-21,-1.9419e-14,-1.2185e-05,-91.55,0.53947
9202,10.234,3.7273,0,0.00069418,6937,0.00028886,734.32,0.00019286,13.028,-0.00067865,-6535.2,0.54076
9203,10.143,3.8182,0,0.00063326,6328.2,0.00026498,687.8,0.00017497,11.482,-0.00061865,-5951.4,0.53135
9204,10.234,3.8182,0.05,2.2323e-05,223.08,1.7142e-05,128.8,-3.4387e-12,5.4968e-07,-1.7142e-05,-128.8,0.54035
9205,10.234,3.5455,0,0.00069872,6982.3,0.0002831,636.23,0.0001982,-1.6212,-0.00068573,-6643.1,0.54138
9206,10.143,3.6364,0,0.00065209,6516.4,0.00026113,557,0.00018704,0.30509,-0.00064082,-6219.9,0.53201
9207,10.234,3.6364,0.05,1.5442e-05,154.32,1.1858e-05,89.094,-2.5152e-21,1.4641e-05,-1.1858e-05,-89.094,0.54106
9208,10.234,3.3636,0,0.00069242,6919.5,0.00027853,606.92,0.00019782,0.54967,-0.00068009,-6595.8,0.54184
9209,10.143,3.4545,0,0.0006567,6562.4,0.0002598,522.5,0.0001904,0.99887,-0.00064623,-6285.1,0.53251
9210,10.234,3.4545,0.05,1.1492e-05,114.84,8.8247e-06,66.305,5.1989e-13,1.6619e-05,-8.8247e-06,-66.305,0.5416
9211,10.234,3.1818,0,0.0006851,6846.3,0.00027497,592.55,0.00019609,-0.12702,-0.0006731,-6530.8,0.54211
9212,10.143,3.2727,0,0.00065472,6542.7,0.00025807,508.89,0.00019039,0.31832,-0.00064458,-6273.3,0.53285
9213,10.234,3.2727,0.05,8.2094e-06,82.038,6.3038e-06,47.364,4.6393e-13,1.9662e-05,-6.3038e-06,-47.364,0.54197
9214,10.234,3,0,0.00068228,6818.1,0.0002737,588.46,0.00019536,-0.17261,-0.00067036,-6504.8,0.5422
9215,10.143,3.0909,0,0.00065259,6521.4,0.00025702,504.55,0.00018989,0.14352,-0.00064254,-6254.4,0.53302
9216,10.234,3.0909,0.05,6.8085e-06,68.038,5.2281e-06,39.282,1.8292e-13,3.192e-05,-5.2281e-06,-39.282,0.54215
9217,10.234,2.8182,0,0.0006851,6846.3,0.00027497,592.55,0.00019609,-0.12702,-0.0006731,-6530.8,0.54211
9218,10.143,2.9091,0,0.00065259,6521.4,0.00025702,504.55,0.00018989,0.14352,-0.00064254,-6254.4,0.53302
9219,10.234,2.9091,0.05,6.8085e-06,68.038,5.2281e-06,39.282,-1.9553e-13,3.6785e-05,-5.2281e-06,-39.282,0.54215
9220,10.234,2.6364,0,0.00069242,6919.5,0.00027853,606.92,0.00019782,0.54967,-0.00068009,-6595.8,0.54184
9221,10.143,2.7273,0,0.00065472,6542.7,0.00025807,508.89,0.00019039,0.31832,-0.00064458,-6273.3,0.53285
9222,10.234,2.7273,0.05,8.2094e-06,82.038,6.3038e-06,47.364,3.1048e-12,5.0162e-05,-6.3038e-06,-47.364,0.54197
9223,10.234,2.4545,0,0.00069872,6982.3,0.0002831,636.23,0.0001982,-1.6212,-0.00068573,-6643.1,0.54138
9224,10.143,2.5455,0,0.0006567,6562.4,0.0002598,522.5,0.0001904,0.99887,-0.00064623,-6285.1,0.53251
9225,10.234,2.5455,0.05,1.1492e-05,114.84,8.8247e-06,66.305,-3.5929e-13,5.0448e-05,-8.8247e-06,-66.305,0.5416
9226,10.234,2.2727,0,0.00069418,6937,0.00028886,734.32,0.00019286,13.028,-0.00067865,-6535.2,0.54076
9227,10.143,2.3636,0,0.00065209,6516.4,0.00026113,557,0.00018704,0.30509,-0.00064082,-6219.9,0.53201
9228,10.234,2.3636,0.05,1.5442e-05,154.32,1.1858e-05,89.094,1.4878e-13,3.1215e-05,-1.1858e-05,-89.094,0.54106
9229,10.234,2.0909,0,0.00066697,6665.1,0.00030084,1013.6,0.00017185,44.347,-0.00064367,-6083.1,0.53996
9230,10.143,2.1818,0,0.00063326,6328.2,0.00026498,687.8,0.00017497,11.482,-0.00061865,-5951.4,0.53135
9231,10.234,2.1818,0.05,2.2323e-05,223.08,1.7142e-05,128.8,2.1393e-14,4.0795e-05,-1.7142e-05,-128.8,0.54035
9232,10.234,1.9091,0,0.00061655,6161.3,0.00031783,1437.6,0.00013124,35.616,-0.0005794,-5303.9,0.539
9233,10.143,2,0,0.00059555,5951.4,0.00027611,989.78,0.00014754,23.741,-0.0005724,-5385.5,0.53054
9234,10.234,2,0.05,1.5868e-05,158.57,1.2185e-05,91.55,-4.502e-12,2.3269e-05,-1.2185e-05,-91.55,0.53947
9235,10.234,1.7273,0,0.00054551,5451.4,0.00031348,1679.6,9.1078e-05,8.5507,-0.00049722,-4411.7,0.5379
9236,10.143,1.8182,0,0.00054428,5439.1,0.00028579,1321,0.00011054,4.2638,-0.00050964,-4655.6,0.5296
9237,10.234,1.8182,0.05,1.8251e-05,182.39,1.4015e-05,105.3,1.6581e-11,0.00014338,-1.4015e-05,-105.3,0.53844
9238,10.234,1.5455,0,0.00045847,4581.5,0.00027619,1578.1,6.6422e-05,1.9935,-0.00041077,-3583.4,0.53668
9239,10.143,1.6364,0,0.00047318,4728.6,0.00026576,1370.6,8.3077e-05,-1.9869,-0.0004347,-3892.4,0.52852
9240,10.234,1.6364,0.05,1.2568e-05,125.6,9.6509e-06,72.513,8.1375e-12,8.0256e-05,-9.6509e-06,-72.513,0.53728
9241,10.234,1.3636,0,0.00037932,3790.6,0.00023088,1336.9,5.3012e-05,0.40518,-0.00033846,-2941,0.53537
9242,10.143,1.4545,0,0.00040116,4008.8,0.00023064,1232.8,6.6468e-05,-0.75754,-0.0003657,-3247.9,0.52734
9243,10.234,1.4545,0.05,1.3192e-05,131.82,1.0129e-05,76.109,3.5297e-12,5.8213e-05,-1.0129e-05,-76.109,0.53601
9244,10.234,1.1818,0,0.00031256,3123.5,0.00018776,1068.4,4.5665e-05,0.73777,-0.00028037,-2448.9,0.53401
9245,10.143,1.2727,0,0.00033749,3372.6,0.00019338,1028.5,5.6424e-05,-0.49616,-0.00030801,-2738.7,0.52608
9246,10.234,1.2727,0.05,1.0748e-05,107.4,8.253e-06,62.01,2.7019e-12,2.8642e-05,-8.253e-06,-62.01,0.53467
9247,10.234,1,0,0.00025635,2561.8,0.00014918,812.16,4.1179e-05,0.69228,-0.00023269,-2057,0.53261
9248,10.143,1.0909,0,0.00028248,2822.9,0.00015796,809.64,5.0169e-05,-0.26039,-0.00025985,-2329.7,0.52476
9249,10.234,1.0909,0.05,9.4483e-06,94.418,7.2551e-06,54.512,2.0987e-12,1.8296e-05,-7.2552e-06,-54.512,0.53329
9250,10.234,0.81818,0,0.00020888,2087.4,0.00011553,582.33,3.8084e-05,0.42988,-0.00019279,-1734.3,0.53118
9251,10.143,0.90909,0,0.00023557,2354.1,0.00012612,601.95,4.597e-05,-0.23218,-0.00021948,-1994.7,0.5234
9252,10.234,0.90909,0.05,8.425e-06,84.191,6.4693e-06,48.608,9.0441e-13,1.0613e-05,-6.4693e-06,-48.608,0.53188
9253,10.234,0.63636,0,0.00016869,1685.7,8.6506e-05,382.03,3.5662e-05,0.0067498,-0.00015891,-1461.9,0.52973
9254,10.143,0.72727,0,0.00019577,1956.4,9.8174e-05,414.7,4.2936e-05,-0.33119,-0.00018539,-1715.9,0.52201
9255,10.234,0.72727,0.05,7.7384e-06,77.331,5.9421e-06,44.647,9.0298e-13,5.2077e-06,-5.9421e-06,-44.647,0.53044
9256,10.234,0.45455,0,0.00013574,1356.5,6.2649e-05,218.51,3.347e-05,-0.7317,-0.0001307,-1234.3,0.52827
9257,10.143,0.54545,0,0.00016292,1628.1,7.4664e-05,255.74,4.0536e-05,-0.68299,-0.00015706,-1485.3,0.52059
9258,10.234,0.54545,0.05,7.3453e-06,73.402,5.6403e-06,42.379,6.7463e-13,4.716e-06,-5.6403e-06,-42.379,0.52898
9259,10.234,0.27273,0,0.00011243,1123.5,4.6387e-05,111.48,3.1244e-05,-2.2999,-0.00011014,-1064.6,0.52679
9260,10.143,0.36364,0,0.00013791,1378.1,5.68e-05,136.42,3.8479e-05,-1.2382,-0.00013509,-1305.4,0.51914
9261,10.234,0.36364,0.05,7.2711e-06,72.661,5.5833e-06,41.951,-1.1843e-21,1.8756e-06,-5.5833e-06,-41.951,0.52751
9262,10.143,0.18182,0,0.00012328,1231.9,4.7038e-05,75.613,3.6707e-05,-2.0094,-0.00012184,-1193.3,0.51768
9263,10.234,0.18182,0.05,8.2772e-06,82.715,6.3558e-06,47.755,-1.3482e-21,2.3464e-06,-6.3558e-06,-47.755,0.52603
9264,10.234,0.090909,0,9.5522e-05,954.56,3.4331e-05,33.553,2.9811e-05,-0.40968,-9.4912e-05,-937.53,0.5253
9265,10.052,5.7273,0,0.00014959,1494.9,5.8196e-05,106.15,4.3917e-05,-1.1398,-0.00014752,-1439.5,0.51005
9266,9.9603,5.8182,0,0.00016131,1612,5.9641e-05,77.048,4.9346e-05,-0.29942,-0.00015987,-1572.3,0.50099
9267,10.052,5.8182,0.05,7.8267e-06,78.213,6.01e-06,45.157,-1.2748e-21,1.7849e-06,-6.01e-06,-45.157,0.5093
9268,10.052,5.9091,0,0.00013627,1361.7,4.8105e-05,37.472,4.3065e-05,-0.39557,-0.00013559,-1342.8,0.50859
9269,10.052,5.5455,0,0.00016718,1670.7,7.0572e-05,186.85,4.5566e-05,-1.0358,-0.00016323,-1569.8,0.51148
9270,9.9603,5.6364,0,0.00017335,1732.3,6.8251e-05,133.34,5.0418e-05,-0.64653,-0.0001707,-1662.1,0.50242
9271,10.052,5.6364,0.05,6.8686e-06,68.639,5.2742e-06,39.629,-1.1187e-21,8.0206e-07,-5.2742e-06,-39.629,0.51075
9272,10.052,5.3636,0,0.00019319,1930.6,8.8894e-05,307.66,4.7821e-05,-0.94148,-0.00018612,-1758.6,0.51289
9273,9.9603,5.4545,0,0.00019311,1929.7,8.2129e-05,223.75,5.2265e-05,-0.63303,-0.00018833,-1808.4,0.50381
9274,10.052,5.4545,0.05,6.8928e-06,68.88,5.2928e-06,39.768,-2.3919e-13,2.0178e-06,-5.2928e-06,-39.768,0.51217
9275,10.052,5.1818,0,0.0002264,2262.4,0.0001118,457.19,5.0826e-05,-0.96355,-0.00021513,-1999.2,0.51426
9276,9.9603,5.2727,0,0.00021975,2196,0.00010042,341.47,5.4882e-05,-0.68948,-0.00021194,-2005.5,0.50517
9277,10.052,5.2727,0.05,7.1116e-06,71.067,5.4608e-06,41.03,-1.1583e-21,1.4245e-06,-5.4608e-06,-41.03,0.51355
9278,10.052,5,0,0.00026626,2660.8,0.00013831,625.09,5.4961e-05,-1.179,-0.00025006,-2293,0.51559
9279,9.9603,5.0909,0,0.00025271,2525.3,0.00012226,478.25,5.8505e-05,-0.78912,-0.00024115,-2252.3,0.50648
9280,10.052,5.0909,0.05,7.4593e-06,74.541,5.7278e-06,43.037,9.0455e-13,-9.1287e-15,-5.7278e-06,-43.037,0.51491
9281,10.052,4.8182,0,0.00031261,3123.9,0.00016736,798.22,6.0929e-05,-1.4964,-0.00029127,-2647.8,0.51687
9282,9.9603,4.9091,0,0.00029154,2913.4,0.00014668,623.42,6.3568e-05,-1.0404,-0.00027588,-2551.6,0.50775
9283,10.052,4.9091,0.05,7.8957e-06,78.903,6.0629e-06,45.555,-1.286e-21,-9.6628e-15,-6.0629e-06,-45.555,0.51622
9284,10.052,4.6364,0,0.00036506,3648.1,0.0001972,954.96,6.988e-05,-1.6578,-0.0003393,-3076.1,0.5181
9285,9.9603,4.7273,0,0.00033572,3354.9,0.00017228,761.11,7.0809e-05,-1.3298,-0.00031623,-2909.4,0.50895
9286,10.052,4.7273,0.05,8.2732e-06,82.675,6.3528e-06,47.732,-1.9216e-12,-1.0125e-14,-6.3528e-06,-47.732,0.51747
9287,10.052,4.4545,0,0.00042104,4207.5,0.00022374,1051.8,8.312e-05,-4.7625,-0.00039315,-3583.3,0.51925
9288,9.9603,4.5455,0,0.00038418,3839.2,0.00019681,866.59,8.1273e-05,-1.5235,-0.00036203,-3332.3,0.51008
9289,10.052,4.5455,0.05,8.155e-06,81.494,6.2621e-06,47.051,-1.3283e-21,1.0154e-05,-6.2621e-06,-47.051,0.51866
9290,10.052,4.2727,0,0.00047523,4749,0.00024024,1028.3,0.00010256,-6.1461,-0.00044931,-4152.6,0.52031
9291,9.9603,4.3636,0,0.00043333,4330.3,0.00021574,896.18,9.594e-05,-3.9747,-0.00041108,-3813.5,0.51112
9292,10.052,4.3636,0.05,8.0138e-06,80.082,6.1536e-06,46.236,-1.3053e-21,1.7078e-05,-6.1536e-06,-46.236,0.51977
9293,10.052,4.0909,0,0.0005226,5222.4,0.00024377,870.99,0.00012684,-7.5965,-0.00050234,-4735,0.52125
9294,9.9603,4.1818,0,0.00047834,4780.1,0.00022396,810.19,0.00011578,-2.6237,-0.00045938,-4324.2,0.51206
9295,10.052,4.1818,0.05,7.6713e-06,76.66,5.8906e-06,44.26,1.4118e-14,1.1843e-07,-5.8906e-06,-44.26,0.52077
9296,10.052,3.9091,0,0.0005605,5601.1,0.00023934,657.2,0.00015068,-8.9143,-0.00054649,-5247.2,0.52206
9297,9.9603,4,0,0.00051596,5156,0.00022272,636.85,0.00013734,-4.6845,-0.0005022,-4809.9,0.51288
9298,10.052,4,0.05,9.8894e-06,98.826,7.5939e-06,57.057,-1.1181e-12,4.755e-06,-7.5938e-06,-57.057,0.52165
9299,10.052,3.7273,0,0.0005896,5891.9,0.00023589,500.28,0.00016918,-0.96434,-0.0005795,-5626.2,0.52274
9300,9.9603,3.8182,0,0.00054618,5458,0.00021903,469.02,0.00015632,-2.1229,-0.00053671,-5209.3,0.51358
9301,10.052,3.8182,0.05,1.0777e-05,107.7,8.2754e-06,62.178,5.7053e-13,1.5321e-05,-8.2754e-06,-62.178,0.52239
9302,10.052,3.5455,0,0.00060875,6083.3,0.00023669,434.63,0.00017922,2.8208,-0.00060016,-5853.1,0.52328
9303,9.9603,3.6364,0,0.0005698,5694,0.00021924,378.75,0.00016919,2.7581,-0.00056237,-5494,0.51415
9304,10.052,3.6364,0.05,1.0807e-05,108,8.2987e-06,62.353,-1.7266e-13,2.2902e-06,-8.2987e-06,-62.353,0.523
9305,10.052,3.3636,0,0.00061805,6176.3,0.00023851,418.11,0.00018296,0.7397,-0.00060987,-5956.2,0.52367
9306,9.9603,3.4545,0,0.00058447,5840.6,0.00022177,349.46,0.00017538,0.89379,-0.00057772,-5657.6,0.51458
9307,10.052,3.4545,0.05,9.1749e-06,91.686,7.0452e-06,52.935,-2.8888e-13,1.2785e-05,-7.0452e-06,-52.935,0.52347
9308,10.052,3.1818,0,0.00062148,6210.5,0.00023947,415.91,0.00018419,0.59818,-0.00061335,-5991.8,0.52391
9309,9.9603,3.2727,0,0.00059195,5915.4,0.00022377,343.63,0.00017814,0.78062,-0.00058534,-5735.8,0.51487
9310,10.052,3.2727,0.05,7.8543e-06,78.489,6.0312e-06,45.316,1.9638e-14,2.3055e-05,-6.0312e-06,-45.316,0.52378
9311,10.052,3,0,0.00062224,6218.1,0.00023974,416.09,0.00018442,0.47437,-0.00061411,-5999.4,0.52399
9312,9.9603,3.0909,0,0.00059488,5944.7,0.00022476,343.72,0.00017909,0.57733,-0.00058828,-5765.1,0.51502
9313,10.052,3.0909,0.05,7.0833e-06,70.784,5.4391e-06,40.867,5.1219e-14,1.9449e-05,-5.4391e-06,-40.867,0.52394
9314,10.052,2.8182,0,0.00062148,6210.5,0.00023947,415.91,0.00018419,0.59818,-0.00061335,-5991.8,0.52391
9315,9.9603,2.9091,0,0.00059488,5944.7,0.00022476,343.72,0.00017909,0.57733,-0.00058828,-5765.1,0.51502
9316,10.052,2.9091,0.05,7.0833e-06,70.784,5.4391e-06,40.867,-5.2942e-14,2.2477e-05,-5.4391e-06,-40.867,0.52394
9317,10.052,2.6364,0,0.00061805,6176.3,0.00023851,418.11,0.00018296,0.7397,-0.00060987,-5956.2,0.52367
9318,9.9603,2.7273,0,0.00059195,5915.4,0.00022377,343.63,0.00017814,0.78062,-0.00058534,-5735.8,0.51487
9319,10.052,2.7273,0.05,7.8543e-06,78.489,6.0312e-06,45.316,-1.9638e-14,3.0323e-05,-6.0312e-06,-45.316,0.52378
9320,10.052,2.4545,0,0.00060875,6083.3,0.00023669,434.63,0.00017922,2.8208,-0.00060016,-5853.1,0.52328
9321,9.9603,2.5455,0,0.00058447,5840.6,0.00022177,349.46,0.00017538,0.89379,-0.00057772,-5657.6,0.51458
9322,10.052,2.5455,0.05,9.1749e-06,91.686,7.0452e-06,52.935,-1.6127e-12,2.409e-05,-7.0452e-06,-52.935,0.52347
9323,10.052,2.2727,0,0.0005896,5891.9,0.00023589,500.28,0.00016918,-0.96434,-0.0005795,-5626.2,0.52274
9324,9.9603,2.3636,0,0.0005698,5694,0.00021924,378.75,0.00016919,2.7581,-0.00056237,-5494,0.51415
9325,10.052,2.3636,0.05,1.0807e-05,108,8.2987e-06,62.353,-5.0323e-13,1.7207e-05,-8.2987e-06,-62.353,0.523
9326,10.052,2.0909,0,0.0005605,5601.1,0.00023934,657.2,0.00015068,-8.9143,-0.00054649,-5247.2,0.52206
9327,9.9603,2.1818,0,0.00054618,5458,0.00021903,469.02,0.00015632,-2.1229,-0.00053671,-5209.3,0.51358
9328,10.052,2.1818,0.05,1.0777e-05,107.7,8.2754e-06,62.178,-3.0526e-12,1.4839e-05,-8.2754e-06,-62.178,0.52239
9329,10.052,1.9091,0,0.0005226,5222.4,0.00024377,870.99,0.00012684,-7.5965,-0.00050234,-4735,0.52125
9330,9.9603,2,0,0.00051596,5156,0.00022272,636.85,0.00013734,-4.6845,-0.0005022,-4809.9,0.51288
9331,10.052,2,0.05,9.8894e-06,98.826,7.5938e-06,57.057,3.8286e-12,0.00010015,-7.5938e-06,-57.057,0.52165
9332,10.052,1.7273,0,0.00047523,4749,0.00024024,1028.3,0.00010256,-6.1461,-0.00044931,-4152.6,0.52031
9333,9.9603,1.8182,0,0.00047834,4780.1,0.00022396,810.19,0.00011578,-2.6237,-0.00045938,-4324.2,0.51206
9334,10.052,1.8182,0.05,7.6713e-06,76.66,5.8906e-06,44.26,8.4965e-12,9.9113e-05,-5.8906e-06,-44.26,0.52077
9335,10.052,1.5455,0,0.00042104,4207.5,0.00022374,1051.8,8.312e-05,-4.7625,-0.00039315,-3583.3,0.51925
9336,9.9603,1.6364,0,0.00043333,4330.3,0.00021574,896.18,9.594e-05,-3.9747,-0.00041108,-3813.5,0.51112
9337,10.052,1.6364,0.05,8.0138e-06,80.082,6.1536e-06,46.236,6.9747e-12,7.0686e-05,-6.1536e-06,-46.236,0.51977
9338,10.052,1.3636,0,0.00036506,3648.1,0.0001972,954.96,6.988e-05,-1.6578,-0.0003393,-3076.1,0.5181
9339,9.9603,1.4545,0,0.00038418,3839.2,0.00019681,866.59,8.1273e-05,-1.5235,-0.00036203,-3332.3,0.51008
9340,10.052,1.4545,0.05,8.155e-06,81.494,6.2621e-06,47.051,5.0128e-12,3.6729e-05,-6.2621e-06,-47.051,0.51866
9341,10.052,1.1818,0,0.00031261,3123.9,0.00016736,798.22,6.0929e-05,-1.4964,-0.00029127,-2647.8,0.51687
9342,9.9603,1.2727,0,0.00033572,3354.9,0.00017228,761.11,7.0809e-05,-1.3298,-0.00031623,-2909.4,0.50895
9343,10.052,1.2727,0.05,8.2732e-06,82.675,6.3528e-06,47.732,2.8602e-12,3.4748e-05,-6.3528e-06,-47.732,0.51747
9344,10.052,1,0,0.00026626,2660.8,0.00013831,625.09,5.4961e-05,-1.179,-0.00025006,-2293,0.51559
9345,9.9603,1.0909,0,0.00029154,2913.4,0.00014668,623.42,6.3568e-05,-1.0404,-0.00027588,-2551.6,0.50775
9346,10.052,1.0909,0.05,7.8957e-06,78.903,6.0629e-06,45.555,1.8005e-12,2.6096e-05,-6.0629e-06,-45.555,0.51622
9347,10.052,0.81818,0,0.0002264,2262.4,0.0001118,457.19,5.0826e-05,-0.96354,-0.00021513,-1999.2,0.51426
9348,9.9603,0.90909,0,0.00025271,2525.3,0.00012226,478.25,5.8505e-05,-0.78912,-0.00024115,-2252.3,0.50648
9349,10.052,0.90909,0.05,7.4593e-06,74.541,5.7278e-06,43.037,9.0455e-13,1.1939e-05,-5.7278e-06,-43.037,0.51491
9350,10.052,0.63636,0,0.00019319,1930.6,8.8894e-05,307.66,4.7821e-05,-0.94147,-0.00018612,-1758.6,0.51289
9351,9.9603,0.72727,0,0.00021975,2196,0.00010042,341.47,5.4882e-05,-0.68947,-0.00021194,-2005.5,0.50517
9352,10.052,0.72727,0.05,7.1116e-06,71.067,5.4608e-06,41.03,9.133e-13,1.1348e-05,-5.4608e-06,-41.03,0.51355
9353,10.052,0.45455,0,0.00016718,1670.7,7.0572e-05,186.85,4.5566e-05,-1.0358,-0.00016323,-1569.8,0.51148
9354,9.9603,0.54545,0,0.00019311,1929.7,8.2129e-05,223.75,5.2265e-05,-0.63303,-0.00018833,-1808.4,0.50381
9355,10.052,0.54545,0.05,6.8928e-06,68.88,5.2928e-06,39.768,-1.1227e-21,6.648e-06,-5.2928e-06,-39.768,0.51217
9356,10.052,0.27273,0,0.00014959,1494.9,5.8196e-05,106.15,4.3917e-05,-1.1398,-0.00014752,-1439.5,0.51005
9357,9.9603,0.36364,0,0.00017335,1732.3,6.8251e-05,133.34,5.0418e-05,-0.64653,-0.0001707,-1662.1,0.50242
9358,10.052,0.36364,0.05,6.8686e-06,68.639,5.2742e-06,39.629,4.5276e-13,3.568e-06,-5.2742e-06,-39.629,0.51075
9359,9.9603,0.18182,0,0.00016131,1612,5.9641e-05,77.048,4.9346e-05,-0.29942,-0.00015987,-1572.3,0.50099
9360,10.052,0.18182,0.05,7.8267e-06,78.213,6.01e-06,45.157,-1.2748e-21,1.9949e-06,-6.01e-06,-45.157,0.5093
9361,10.052,0.090909,0,0.00013627,1361.7,4.8105e-05,37.472,4.3065e-05,-0.39557,-0.00013559,-1342.8,0.50859
9362,9.869,5.7273,0,0.00018541,1852.9,7.0031e-05,106.76,5.5823e-05,0.0055486,-0.00018337,-1797.2,0.49339
9363,9.7776,5.8182,0,0.00019613,1960,7.104e-05,76.296,6.0945e-05,0.44663,-0.00019472,-1920.5,0.4844
9364,9.869,5.8182,0.05,7.2132e-06,72.082,5.5388e-06,41.617,-1.1749e-21,1.2515e-06,-5.5388e-06,-41.617,0.49266
9365,9.869,5.9091,0,0.00017381,1736.9,6.0662e-05,39.739,5.5383e-05,0.069755,-0.0001731,-1716.6,0.49196
9366,9.869,5.5455,0,0.00020018,2000.4,8.0608e-05,176.25,5.7111e-05,-0.29354,-0.0001966,-1906.6,0.49479
9367,9.7776,5.6364,0,0.00020709,2069.5,7.9418e-05,133.77,6.1591e-05,-0.175,-0.00020449,-1999.4,0.4858
9368,9.869,5.6364,0.05,6.2822e-06,62.779,4.824e-06,36.245,-2.6756e-14,2.0386e-06,-4.824e-06,-36.245,0.49407
9369,9.869,5.3636,0,0.00022135,2211.9,9.5064e-05,268.14,5.9325e-05,-0.38782,-0.00021556,-2065.8,0.49614
9370,9.7776,5.4545,0,0.00022357,2234.2,9.0882e-05,207.4,6.3245e-05,-0.24766,-0.00021932,-2123.3,0.48715
9371,9.869,5.4545,0.05,6.2452e-06,62.409,4.7955e-06,36.032,-1.0172e-21,2.4882e-06,-4.7955e-06,-36.032,0.49544
9372,9.869,5.1818,0,0.00024843,2482.6,0.00011278,376.8,6.2561e-05,-0.51481,-0.00023987,-2272.8,0.49744
9373,9.7776,5.2727,0,0.00024538,2452.2,0.00010522,295.2,6.5878e-05,-0.41051,-0.00023903,-2291.4,0.48845
9374,9.869,5.2727,0.05,6.3023e-06,62.979,4.8394e-06,36.361,-2.8733e-13,6.9021e-07,-4.8394e-06,-36.361,0.49677
9375,9.869,5,0,0.00028088,2806.9,0.00013287,493.42,6.7112e-05,-0.65081,-0.00026922,-2527.7,0.49869
9376,9.7776,5.0909,0,0.00027222,2720.3,0.00012191,392.04,6.9662e-05,-0.54935,-0.00026342,-2503.2,0.4897
9377,9.869,5.0909,0.05,6.3711e-06,63.667,4.8922e-06,36.758,8.9763e-13,2.8237e-06,-4.8922e-06,-36.758,0.49805
9378,9.869,4.8182,0,0.00031789,3176.7,0.00015402,604.5,7.3448e-05,-0.87726,-0.00030326,-2831.3,0.49988
9379,9.7776,4.9091,0,0.00030345,3032.4,0.00014,488.44,7.4902e-05,-0.69781,-0.00029217,-2758.8,0.49088
9380,9.869,4.9091,0.05,6.3779e-06,63.735,4.8975e-06,36.798,-1.0388e-21,-7.8053e-15,-4.8975e-06,-36.798,0.49927
9381,9.869,4.6364,0,0.00035807,3578.3,0.00017424,690.35,8.22e-05,-1.2036,-0.0003413,-3183.2,0.501
9382,9.7776,4.7273,0,0.00033806,3378.3,0.00015806,570.35,8.203e-05,-0.91249,-0.00032473,-3057.2,0.49199
9383,9.869,4.7273,0.05,6.2051e-06,62.008,4.7647e-06,35.8,-1.0107e-21,-7.5938e-15,-4.7647e-06,-35.8,0.50043
9384,9.869,4.4545,0,0.00039915,3988.7,0.0001907,725.1,9.4093e-05,-0.74039,-0.00038183,-3576.7,0.50203
9385,9.7776,4.5455,0,0.00037442,3741.6,0.00017404,618.75,9.1533e-05,-1.1654,-0.00036004,-3394.1,0.49302
9386,9.869,4.5455,0.05,5.7946e-06,57.906,4.4495e-06,33.432,1.3739e-12,5.7624e-06,-4.4495e-06,-33.432,0.5015
9387,9.869,4.2727,0,0.00043791,4376.1,0.0002005,685.85,0.00010916,-0.46552,-0.00042219,-3992.8,0.50297
9388,9.7776,4.3636,0,0.00041011,4098.3,0.00018542,612.67,0.00010379,-0.70388,-0.00039624,-3757.8,0.49396
9389,9.869,4.3636,0.05,5.276e-06,52.724,4.0513e-06,30.44,2.305e-12,2.4259e-05,-4.0513e-06,-30.44,0.50249
9390,9.869,4.0909,0,0.00047215,4718.2,0.00020328,578.85,0.00012628,0.33188,-0.00045963,-4402,0.5038
9391,9.7776,4.1818,0,0.00044248,4421.8,0.00019057,542.47,0.00011824,-0.98393,-0.00043076,-4125.9,0.4948
9392,9.869,4.1818,0.05,5.3557e-06,53.52,4.1125e-06,30.9,-8.7233e-22,3.1723e-05,-4.1125e-06,-30.9,0.50337
9393,9.869,3.9091,0,0.00050154,5011.9,0.00020237,448.35,0.00014299,2.1813,-0.00049238,-4771.8,0.50451
9394,9.7776,4,0,0.00047068,4703.5,0.00019088,431.48,0.00013347,0.082835,-0.00046185,-4472.9,0.49553
9395,9.869,4,0.05,6.1883e-06,61.84,4.7518e-06,35.704,-2.0417e-13,-1.1005e-05,-4.7518e-06,-35.703,0.50414
9396,9.869,3.7273,0,0.00052598,5256.2,0.00020202,344.81,0.00015636,1.7522,-0.00051925,-5074.5,0.5051
9397,9.7776,3.8182,0,0.0004949,4945.6,0.00019012,324.45,0.00014706,0.93215,-0.00048857,-4774.9,0.49615
9398,9.869,3.8182,0.05,6.8957e-06,68.909,5.295e-06,39.785,-8.7582e-13,1.4861e-05,-5.295e-06,-39.785,0.5048
9399,9.869,3.5455,0,0.0005449,5445.2,0.00020377,289.46,0.00016536,0.81244,-0.00053939,-5294.3,0.50557
9400,9.7776,3.6364,0,0.00051497,5146.1,0.00019102,254.33,0.00015722,0.38597,-0.00051016,-5014,0.49665
9401,9.869,3.6364,0.05,7.1887e-06,71.837,5.52e-06,41.475,-1.2177e-12,1.4375e-05,-5.52e-06,-41.475,0.50533
9402,9.869,3.3636,0,0.00055771,5573.3,0.00020644,270.5,0.00017056,0.90865,-0.0005526,-5432.7,0.50591
9403,9.7776,3.4545,0,0.00053009,5297.3,0.0001934,222.94,0.00016384,0.79441,-0.00052594,-5181.9,0.49703
9404,9.869,3.4545,0.05,7.019e-06,70.142,5.3898e-06,40.497,-8.0256e-13,1.0104e-05,-5.3897e-06,-40.496,0.50573
9405,9.869,3.1818,0,0.00056472,5643.4,0.00020849,267.13,0.00017303,0.75434,-0.0005597,-5504.7,0.50612
9406,9.7776,3.2727,0,0.00053972,5393.5,0.00019581,213.53,0.00016749,0.73831,-0.00053576,-5283.2,0.49729
9407,9.869,3.2727,0.05,6.6458e-06,66.412,5.1031e-06,38.343,-3.7237e-13,1.1763e-05,-5.1031e-06,-38.343,0.50601
9408,9.869,3,0,0.00056691,5665.2,0.00020921,267.15,0.00017375,0.68264,-0.00056188,-5526.6,0.50619
9409,9.7776,3.0909,0,0.00054428,5439.1,0.00019719,211.96,0.00016907,0.6713,-0.00054036,-5329.7,0.49742
9410,9.869,3.0909,0.05,6.3773e-06,63.729,4.897e-06,36.794,-3.733e-12,1.4481e-05,-4.897e-06,-36.794,0.50614
9411,9.869,2.8182,0,0.00056472,5643.4,0.00020849,267.13,0.00017303,0.75434,-0.0005597,-5504.7,0.50612
9412,9.7776,2.9091,0,0.00054428,5439.1,0.00019719,211.96,0.00016907,0.6713,-0.00054036,-5329.7,0.49742
9413,9.869,2.9091,0.05,6.3773e-06,63.729,4.897e-06,36.794,-3.5367e-12,1.5979e-05,-4.897e-06,-36.794,0.50614
9414,9.869,2.6364,0,0.00055771,5573.3,0.00020644,270.5,0.00017056,0.90865,-0.0005526,-5432.7,0.50591
9415,9.7776,2.7273,0,0.00053972,5393.5,0.00019581,213.53,0.00016749,0.73831,-0.00053576,-5283.2,0.49729
9416,9.869,2.7273,0.05,6.6458e-06,66.412,5.1031e-06,38.343,-3.2606e-12,1.2975e-05,-5.1031e-06,-38.343,0.50601
9417,9.869,2.4545,0,0.0005449,5445.2,0.00020377,289.46,0.00016536,0.81244,-0.00053939,-5294.3,0.50557
9418,9.7776,2.5455,0,0.00053009,5297.3,0.0001934,222.94,0.00016384,0.79441,-0.00052594,-5181.9,0.49703
9419,9.869,2.5455,0.05,7.019e-06,70.142,5.3898e-06,40.497,-2.2666e-12,1.1756e-05,-5.3897e-06,-40.496,0.50573
9420,9.869,2.2727,0,0.00052598,5256.2,0.00020202,344.81,0.00015636,1.7522,-0.00051925,-5074.5,0.5051
9421,9.7776,2.3636,0,0.00051497,5146.1,0.00019102,254.33,0.00015722,0.38597,-0.00051016,-5014,0.49665
9422,9.869,2.3636,0.05,7.1887e-06,71.837,5.52e-06,41.475,-3.6382e-13,1.1172e-05,-5.52e-06,-41.475,0.50533
9423,9.869,2.0909,0,0.00050154,5011.9,0.00020237,448.35,0.00014299,2.1813,-0.00049238,-4771.8,0.50451
9424,9.7776,2.1818,0,0.0004949,4945.6,0.00019012,324.45,0.00014706,0.93215,-0.00048857,-4774.9,0.49615
9425,9.869,2.1818,0.05,6.8957e-06,68.909,5.295e-06,39.785,-9.5099e-13,2.254e-05,-5.295e-06,-39.785,0.5048
9426,9.869,1.9091,0,0.00047215,4718.2,0.00020328,578.85,0.00012628,0.33188,-0.00045963,-4402,0.5038
9427,9.7776,2,0,0.00047068,4703.5,0.00019088,431.48,0.00013347,0.082836,-0.00046185,-4472.9,0.49553
9428,9.869,2,0.05,6.1883e-06,61.84,4.7518e-06,35.704,8.0712e-12,0.00011766,-4.7518e-06,-35.703,0.50414
9429,9.869,1.7273,0,0.00043791,4376.1,0.0002005,685.85,0.00010916,-0.46552,-0.00042219,-3992.8,0.50297
9430,9.7776,1.8182,0,0.00044248,4421.8,0.00019057,542.47,0.00011824,-0.98393,-0.00043076,-4125.9,0.4948
9431,9.869,1.8182,0.05,5.3557e-06,53.52,4.1125e-06,30.9,1.4972e-11,9.6393e-05,-4.1125e-06,-30.9,0.50337
9432,9.869,1.5455,0,0.00039915,3988.7,0.0001907,725.1,9.4093e-05,-0.74039,-0.00038183,-3576.7,0.50203
9433,9.7776,1.6364,0,0.00041011,4098.3,0.00018542,612.67,0.00010379,-0.70388,-0.00039624,-3757.8,0.49396
9434,9.869,1.6364,0.05,5.276e-06,52.724,4.0513e-06,30.44,1.4165e-11,0.00013126,-4.0513e-06,-30.44,0.50249
9435,9.869,1.3636,0,0.00035807,3578.3,0.00017424,690.35,8.22e-05,-1.2035,-0.0003413,-3183.2,0.501
9436,9.7776,1.4545,0,0.00037442,3741.6,0.00017404,618.75,9.1533e-05,-1.1654,-0.00036004,-3394.1,0.49302
9437,9.869,1.4545,0.05,5.7946e-06,57.906,4.4495e-06,33.432,7.6299e-12,5.0995e-05,-4.4495e-06,-33.432,0.5015
9438,9.869,1.1818,0,0.00031789,3176.7,0.00015402,604.5,7.3448e-05,-0.87726,-0.00030326,-2831.3,0.49988
9439,9.7776,1.2727,0,0.00033806,3378.3,0.00015806,570.35,8.203e-05,-0.91248,-0.00032473,-3057.2,0.49199
9440,9.869,1.2727,0.05,6.2051e-06,62.008,4.7647e-06,35.8,1.9993e-12,4.2798e-05,-4.7647e-06,-35.8,0.50043
9441,9.869,1,0,0.00028088,2806.9,0.00013287,493.42,6.7112e-05,-0.65081,-0.00026922,-2527.7,0.49869
9442,9.7776,1.0909,0,0.00030345,3032.4,0.00014,488.44,7.4902e-05,-0.69781,-0.00029217,-2758.8,0.49088
9443,9.869,1.0909,0.05,6.3779e-06,63.735,4.8975e-06,36.798,3.0815e-12,2.1928e-05,-4.8975e-06,-36.798,0.49927
9444,9.869,0.81818,0,0.00024843,2482.6,0.00011278,376.8,6.2561e-05,-0.51481,-0.00023987,-2272.8,0.49744
9445,9.7776,0.90909,0,0.00027222,2720.3,0.00012191,392.04,6.9662e-05,-0.54935,-0.00026342,-2503.2,0.4897
9446,9.869,0.90909,0.05,6.3711e-06,63.667,4.8922e-06,36.758,2.7166e-12,1.8522e-05,-4.8922e-06,-36.758,0.49805
9447,9.869,0.63636,0,0.00022135,2211.9,9.5064e-05,268.14,5.9325e-05,-0.38782,-0.00021556,-2065.8,0.49614
9448,9.7776,0.72727,0,0.00024538,2452.2,0.00010522,295.2,6.5878e-05,-0.41051,-0.00023903,-2291.4,0.48845
9449,9.869,0.72727,0.05,6.3023e-06,62.979,4.8394e-06,36.361,1.1419e-14,1.0682e-05,-4.8394e-06,-36.361,0.49677
9450,9.869,0.45455,0,0.00020018,2000.4,8.0608e-05,176.25,5.7111e-05,-0.29354,-0.0001966,-1906.6,0.49479
9451,9.7776,0.54545,0,0.00022357,2234.2,9.0882e-05,207.4,6.3245e-05,-0.24766,-0.00021932,-2123.3,0.48715
9452,9.869,0.54545,0.05,6.2452e-06,62.409,4.7955e-06,36.032,9.0673e-13,7.859e-06,-4.7955e-06,-36.032,0.49544
9453,9.869,0.27273,0,0.00018541,1852.9,7.0031e-05,106.76,5.5823e-05,0.0055496,-0.00018337,-1797.2,0.49339
9454,9.7776,0.36364,0,0.00020709,2069.5,7.9418e-05,133.77,6.1591e-05,-0.175,-0.00020449,-1999.4,0.4858
9455,9.869,0.36364,0.05,6.2822e-06,62.779,4.824e-06,36.245,1.5755e-15,3.8114e-06,-4.824e-06,-36.245,0.49407
9456,9.7776,0.18182,0,0.00019613,1960,7.104e-05,76.296,6.0945e-05,0.44663,-0.00019472,-1920.5,0.4844
9457,9.869,0.18182,0.05,7.2132e-06,72.082,5.5388e-06,41.617,-1.1749e-21,2.2969e-06,-5.5388e-06,-41.617,0.49266
9458,9.869,0.090909,0,0.00017381,1736.9,6.0662e-05,39.739,5.5383e-05,0.069756,-0.0001731,-1716.6,0.49196
9459,9.6862,5.7273,0,0.000218,2178.5,8.0626e-05,104.8,6.6701e-05,0.17146,-0.00021603,-2124.1,0.47685
9460,9.5948,5.8182,0,0.00022731,2271.6,8.1034e-05,72.688,7.1427e-05,0.50222,-0.00022598,-2234.1,0.46794
9461,9.6862,5.8182,0.05,6.4929e-06,64.885,4.9858e-06,37.461,9.0687e-13,1.0698e-06,-4.9858e-06,-37.461,0.47613
9462,9.6862,5.9091,0,0.00020766,2075.1,7.1802e-05,39.322,6.657e-05,0.010907,-0.00020696,-2055.2,0.47544
9463,9.6862,5.5455,0,0.00023095,2307.9,9.0116e-05,168.11,6.7719e-05,-0.17155,-0.00022763,-2219.3,0.47821
9464,9.5948,5.6364,0,0.00023748,2373.1,8.9216e-05,130.84,7.1787e-05,-0.116,-0.00023498,-2305.1,0.46931
9465,9.6862,5.6364,0.05,5.6289e-06,56.25,4.3223e-06,32.476,9.0829e-13,1.9073e-06,-4.3223e-06,-32.476,0.47751
9466,9.6862,5.3636,0,0.00024853,2483.6,0.00010183,240.4,6.9795e-05,-0.28888,-0.00024357,-2354.8,0.47951
9467,9.5948,5.4545,0,0.00025155,2513.8,9.8986e-05,193.32,7.324e-05,-0.13488,-0.0002477,-2411.6,0.47062
9468,9.6862,5.4545,0.05,5.5325e-06,55.287,4.2483e-06,31.92,-9.0113e-22,2.8545e-06,-4.2483e-06,-31.92,0.47884
9469,9.6862,5.1818,0,0.00027055,2703.7,0.00011549,318.95,7.2977e-05,-0.45277,-0.00026371,-2530.2,0.48076
9470,9.5948,5.2727,0,0.00026952,2693.3,0.00011036,259.88,7.573e-05,-0.31708,-0.00026416,-2554.1,0.47188
9471,9.6862,5.2727,0.05,5.4699e-06,54.661,4.2002e-06,31.559,-8.9093e-22,1.8901e-06,-4.2002e-06,-31.559,0.48012
9472,9.6862,5,0,0.00029652,2963.1,0.00013042,397.41,7.7451e-05,-0.60116,-0.00028776,-2744.6,0.48194
9473,9.5948,5.0909,0,0.00029117,2909.7,0.00012301,327.47,7.9368e-05,-0.4491,-0.00028421,-2732.3,0.47307
9474,9.6862,5.0909,0.05,5.3616e-06,53.579,4.117e-06,30.934,-8.7328e-22,3.7235e-06,-4.117e-06,-30.934,0.48134
9475,9.6862,4.8182,0,0.00032554,3253.1,0.00014552,465.37,8.3484e-05,-0.73857,-0.00031512,-2995.7,0.48306
9476,9.5948,4.9091,0,0.00031589,3156.7,0.00013618,389.08,8.4324e-05,-0.58356,-0.00030747,-2944.3,0.47418
9477,9.6862,4.9091,0.05,5.153e-06,51.494,3.9569e-06,29.73,8.5537e-13,3.5877e-06,-3.9569e-06,-29.73,0.48249
9478,9.6862,4.6364,0,0.00035625,3560,0.00015924,509.12,9.1362e-05,-0.88077,-0.00034485,-3278.4,0.48409
9479,9.5948,4.7273,0,0.00034267,3424.4,0.00014875,434.62,9.0808e-05,-0.69809,-0.00033321,-3186.6,0.47523
9480,9.6862,4.7273,0.05,4.802e-06,47.986,3.6873e-06,27.705,-7.8213e-22,3.2441e-06,-3.6873e-06,-27.705,0.48356
9481,9.6862,4.4545,0,0.00038686,3865.9,0.00016986,514.5,0.00010123,-1.1289,-0.00037554,-3583.4,0.48504
9482,9.5948,4.5455,0,0.00037013,3698.8,0.00015929,452.35,9.8979e-05,-0.82052,-0.00036036,-3452.1,0.47618
9483,9.6862,4.5455,0.05,4.3277e-06,43.247,3.3231e-06,24.969,-7.0488e-22,4.8246e-06,-3.3231e-06,-24.969,0.48455
9484,9.6862,4.2727,0,0.00041562,4153.3,0.00017619,474.56,0.00011287,-1.2052,-0.00040552,-3896.2,0.48589
9485,9.5948,4.3636,0,0.00039663,3963.6,0.00016652,432.82,0.00010878,-1.0136,-0.0003875,-3729.8,0.47705
9486,9.6862,4.3636,0.05,3.9526e-06,39.499,3.0351e-06,22.805,-4.4829e-22,1.5932e-05,-3.0351e-06,-22.805,0.48545
9487,9.6862,4.0909,0,0.00044146,4411.6,0.00017854,397.88,0.00012543,-1.2016,-0.00043336,-4199.7,0.48663
9488,9.5948,4.1818,0,0.00042092,4206.3,0.00017,376.64,0.00011974,-0.9748,-0.00041325,-4005.7,0.47781
9489,9.6862,4.1818,0.05,3.9975e-06,39.947,3.0696e-06,23.064,-6.511e-22,3.1051e-05,-3.0696e-06,-23.064,0.48625
9490,9.6862,3.9091,0,0.00046419,4638.7,0.00017877,308.63,0.00013754,-1.1432,-0.00045818,-4477.1,0.48727
9491,9.5948,4,0,0.00044247,4421.6,0.00017075,298.48,0.00013089,-1.0212,-0.00043665,-4265.3,0.47848
9492,9.6862,4,0.05,4.3759e-06,43.729,3.3602e-06,25.247,-1.3956e-12,-9.6548e-06,-3.3602e-06,-25.247,0.48694
9493,9.6862,3.7273,0,0.00048383,4835,0.00017907,233.62,0.00014792,-0.41738,-0.00047944,-4714.1,0.4878
9494,9.5948,3.8182,0,0.0004614,4610.8,0.00017072,222.06,0.00014106,-0.77612,-0.00045723,-4496.1,0.47903
9495,9.6862,3.8182,0.05,4.7901e-06,47.867,3.6782e-06,27.636,-6.7945e-14,-9.3078e-06,-3.6782e-06,-27.636,0.48753
9496,9.6862,3.5455,0,0.00049993,4995.9,0.00018043,186.17,0.0001557,0.37444,-0.0004965,-4900,0.48822
9497,9.5948,3.6364,0,0.00047759,4772.6,0.00017139,165.73,0.00014932,-0.074266,-0.00047456,-4687.6,0.47949
9498,9.6862,3.6364,0.05,5.1057e-06,51.022,3.9206e-06,29.458,-1.4583e-12,9.3872e-06,-3.9206e-06,-29.458,0.488
9499,9.6862,3.3636,0,0.00051175,5113.9,0.00018244,163.47,0.00016077,0.61169,-0.00050876,-5030,0.48852
9500,9.5948,3.4545,0,0.0004904,4900.7,0.00017293,133.49,0.0001552,0.33876,-0.00048799,-4832.4,0.47983
9501,9.6862,3.4545,0.05,5.277e-06,52.734,4.0521e-06,30.446,-8.8127e-13,7.8589e-06,-4.0521e-06,-30.446,0.48836
9502,9.6862,3.1818,0,0.00051887,5185.1,0.00018412,155.44,0.00016352,0.65154,-0.00051604,-5105.3,0.48871
9503,9.5948,3.2727,0,0.00049919,4988.4,0.00017462,119.1,0.00015884,0.52408,-0.00049704,-4927.5,0.48006
9504,9.6862,3.2727,0.05,5.3045e-06,53.008,4.0732e-06,30.604,-5.7954e-13,3.577e-06,-4.0732e-06,-30.604,0.4886
9505,9.6862,3,0,0.00052123,5208.7,0.00018476,153.75,0.00016439,0.66239,-0.00051843,-5129.8,0.48877
9506,9.5948,3.0909,0,0.00050361,5032.6,0.00017568,114.29,0.00016055,0.59074,-0.00050156,-4974.2,0.48017
9507,9.6862,3.0909,0.05,5.2835e-06,52.799,4.0571e-06,30.483,-1.8841e-13,9.9934e-06,-4.0571e-06,-30.483,0.48872
9508,9.6862,2.8182,0,0.00051887,5185.1,0.00018412,155.44,0.00016352,0.65154,-0.00051604,-5105.3,0.48871
9509,9.5948,2.9091,0,0.00050361,5032.6,0.00017568,114.29,0.00016055,0.59074,-0.00050156,-4974.2,0.48017
9510,9.6862,2.9091,0.05,5.2835e-06,52.799,4.0571e-06,30.483,2.3157e-13,7.3626e-06,-4.0571e-06,-30.483,0.48872
9511,9.6862,2.6364,0,0.00051175,5113.9,0.00018244,163.47,0.00016077,0.61169,-0.00050876,-5030,0.48852
9512,9.5948,2.7273,0,0.00049919,4988.4,0.00017462,119.1,0.00015884,0.52408,-0.00049704,-4927.5,0.48006
9513,9.6862,2.7273,0.05,5.3045e-06,53.008,4.0732e-06,30.604,-1.0754e-12,9.6415e-06,-4.0732e-06,-30.604,0.4886
9514,9.6862,2.4545,0,0.00049993,4995.9,0.00018043,186.17,0.0001557,0.37444,-0.0004965,-4900,0.48822
9515,9.5948,2.5455,0,0.0004904,4900.7,0.00017293,133.49,0.0001552,0.33876,-0.00048799,-4832.4,0.47983
9516,9.6862,2.5455,0.05,5.277e-06,52.734,4.0521e-06,30.446,-4.1156e-12,8.7558e-06,-4.0521e-06,-30.446,0.48836
9517,9.6862,2.2727,0,0.00048383,4835,0.00017907,233.62,0.00014792,-0.41738,-0.00047944,-4714.1,0.4878
9518,9.5948,2.3636,0,0.00047759,4772.6,0.00017139,165.73,0.00014932,-0.074266,-0.00047456,-4687.6,0.47949
9519,9.6862,2.3636,0.05,5.1057e-06,51.022,3.9206e-06,29.458,1.5511e-13,1.9336e-05,-3.9206e-06,-29.457,0.488
9520,9.6862,2.0909,0,0.00046419,4638.7,0.00017877,308.63,0.00013754,-1.1432,-0.00045818,-4477.1,0.48727
9521,9.5948,2.1818,0,0.0004614,4610.8,0.00017072,222.06,0.00014106,-0.77612,-0.00045723,-4496.1,0.47903
9522,9.6862,2.1818,0.05,4.7901e-06,47.867,3.6782e-06,27.636,1.5785e-12,4.0493e-05,-3.6782e-06,-27.636,0.48753
9523,9.6862,1.9091,0,0.00044146,4411.6,0.00017854,397.88,0.00012543,-1.2016,-0.00043336,-4199.7,0.48663
9524,9.5948,2,0,0.00044247,4421.6,0.00017075,298.48,0.00013089,-1.0212,-0.00043665,-4265.3,0.47848
9525,9.6862,2,0.05,4.3759e-06,43.729,3.3602e-06,25.247,-4.5779e-13,-2.444e-05,-3.3602e-06,-25.247,0.48694
9526,9.6862,1.7273,0,0.00041562,4153.3,0.00017619,474.56,0.00011287,-1.2052,-0.00040552,-3896.2,0.48589
9527,9.5948,1.8182,0,0.00042092,4206.3,0.00017,376.64,0.00011974,-0.9748,-0.00041325,-4005.7,0.47781
9528,9.6862,1.8182,0.05,3.9975e-06,39.947,3.0696e-06,23.064,3.7643e-12,0.00012338,-3.0696e-06,-23.064,0.48625
9529,9.6862,1.5455,0,0.00038686,3865.9,0.00016986,514.5,0.00010123,-1.1289,-0.00037554,-3583.4,0.48504
9530,9.5948,1.6364,0,0.00039663,3963.6,0.00016652,432.82,0.00010878,-1.0136,-0.0003875,-3729.8,0.47705
9531,9.6862,1.6364,0.05,3.9526e-06,39.499,3.0351e-06,22.805,8.6224e-12,0.00012777,-3.0351e-06,-22.805,0.48545
9532,9.6862,1.3636,0,0.00035625,3560,0.00015924,509.12,9.1362e-05,-0.88077,-0.00034485,-3278.4,0.48409
9533,9.5948,1.4545,0,0.00037013,3698.8,0.00015929,452.35,9.8979e-05,-0.82052,-0.00036036,-3452.1,0.47618
9534,9.6862,1.4545,0.05,4.3277e-06,43.247,3.3231e-06,24.969,7.06e-12,5.7654e-05,-3.3231e-06,-24.969,0.48455
9535,9.6862,1.1818,0,0.00032554,3253.1,0.00014552,465.37,8.3484e-05,-0.73857,-0.00031512,-2995.7,0.48306
9536,9.5948,1.2727,0,0.00034267,3424.4,0.00014875,434.62,9.0808e-05,-0.69809,-0.00033321,-3186.6,0.47523
9537,9.6862,1.2727,0.05,4.802e-06,47.986,3.6873e-06,27.705,3.1392e-12,3.931e-05,-3.6873e-06,-27.705,0.48356
9538,9.6862,1,0,0.00029652,2963.1,0.00013042,397.41,7.7451e-05,-0.60116,-0.00028776,-2744.6,0.48194
9539,9.5948,1.0909,0,0.00031589,3156.7,0.00013618,389.08,8.4324e-05,-0.58356,-0.00030747,-2944.3,0.47418
9540,9.6862,1.0909,0.05,5.153e-06,51.494,3.9569e-06,29.73,1.7213e-12,3.0606e-05,-3.9569e-06,-29.73,0.48249
9541,9.6862,0.81818,0,0.00027055,2703.7,0.00011549,318.95,7.2977e-05,-0.45277,-0.00026371,-2530.2,0.48076
9542,9.5948,0.90909,0,0.00029117,2909.7,0.00012301,327.47,7.9368e-05,-0.4491,-0.00028421,-2732.3,0.47307
9543,9.6862,0.90909,0.05,5.3616e-06,53.579,4.117e-06,30.934,1.8083e-12,1.7761e-05,-4.117e-06,-30.934,0.48134
9544,9.6862,0.63636,0,0.00024853,2483.6,0.00010183,240.4,6.9795e-05,-0.28888,-0.00024357,-2354.8,0.47951
9545,9.5948,0.72727,0,0.00026952,2693.3,0.00011036,259.88,7.573e-05,-0.31708,-0.00026416,-2554.1,0.47188
9546,9.6862,0.72727,0.05,5.4699e-06,54.661,4.2002e-06,31.559,1.0733e-12,9.2785e-06,-4.2002e-06,-31.559,0.48012
9547,9.6862,0.45455,0,0.00023095,2307.9,9.0116e-05,168.11,6.7719e-05,-0.17155,-0.00022763,-2219.3,0.47821
9548,9.5948,0.54545,0,0.00025155,2513.8,9.8986e-05,193.32,7.324e-05,-0.13488,-0.0002477,-2411.6,0.47062
9549,9.6862,0.54545,0.05,5.5325e-06,55.287,4.2483e-06,31.92,1.7415e-13,7.7561e-06,-4.2483e-06,-31.92,0.47884
9550,9.6862,0.27273,0,0.000218,2178.5,8.0626e-05,104.8,6.6701e-05,0.17147,-0.00021603,-2124.1,0.47685
9551,9.5948,0.36364,0,0.00023748,2373.1,8.9216e-05,130.84,7.1787e-05,-0.11599,-0.00023498,-2305.1,0.46931
9552,9.6862,0.36364,0.05,5.6289e-06,56.25,4.3223e-06,32.476,1.2024e-15,4.3016e-06,-4.3223e-06,-32.476,0.47751
9553,9.5948,0.18182,0,0.00022731,2271.6,8.1034e-05,72.688,7.1427e-05,0.50223,-0.00022598,-2234.1,0.46794
9554,9.6862,0.18182,0.05,6.4929e-06,64.885,4.9858e-06,37.461,9.0161e-13,1.6112e-06,-4.9858e-06,-37.461,0.47613
9555,9.6862,0.090909,0,0.00020766,2075.1,7.1802e-05,39.322,6.657e-05,0.010908,-0.00020696,-2055.2,0.47544
9556,9.5034,5.7273,0,0.00024692,2467.4,8.9754e-05,99.698,7.6509e-05,0.1825,-0.00024507,-2416,0.46045
9557,9.4121,5.8182,0,0.00025487,2546.9,8.9677e-05,67.176,8.079e-05,0.39874,-0.00025365,-2512.5,0.45163
9558,9.5034,5.8182,0.05,5.7302e-06,57.263,4.4001e-06,33.061,9.0252e-13,2.3659e-06,-4.4001e-06,-33.061,0.45974
9559,9.5034,5.9091,0,0.00023773,2375.7,8.1554e-05,37.218,7.6601e-05,-0.0024036,-0.00023708,-2356.9,0.45906
9560,9.5034,5.5455,0,0.00025835,2581.7,9.8338e-05,157.93,7.7306e-05,-0.096712,-0.0002553,-2499.2,0.46177
9561,9.4121,5.6364,0,0.00026418,2640,9.7475e-05,124,8.0956e-05,-0.11461,-0.00026186,-2575.9,0.45297
9562,9.5034,5.6364,0.05,4.9686e-06,49.652,3.8153e-06,28.667,-2.4576e-15,9.5324e-07,-3.8153e-06,-28.667,0.46109
9563,9.5034,5.3636,0,0.00027307,2728.8,0.00010798,216.26,7.9173e-05,-0.17414,-0.00026875,-2614.3,0.46304
9564,9.4121,5.4545,0,0.00027623,2760.4,0.00010588,177.88,8.2199e-05,-0.062637,-0.00027278,-2667.2,0.45425
9565,9.5034,5.4545,0.05,4.8315e-06,48.281,3.71e-06,27.875,-3.8255e-14,2.856e-06,-3.71e-06,-27.875,0.46239
9566,9.5034,5.1818,0,0.00029094,2907.4,0.00011855,273.43,8.2119e-05,-0.31986,-0.00028532,-2761.1,0.46424
9567,9.4121,5.2727,0,0.00029104,2908.4,0.00011498,229.21,8.4447e-05,-0.22244,-0.00028647,-2787.1,0.45547
9568,9.5034,5.2727,0.05,4.6973e-06,46.94,3.6069e-06,27.101,1.7977e-12,5.6551e-06,-3.6069e-06,-27.101,0.46363
9569,9.5034,5,0,0.00031155,3113.4,0.00012959,325.29,8.624e-05,-0.43598,-0.00030474,-2938.1,0.46537
9570,9.4121,5.0909,0,0.00030842,3082,0.00012457,276.21,8.776e-05,-0.32858,-0.00030279,-2934.8,0.45661
9571,9.5034,5.0909,0.05,4.501e-06,44.979,3.4562e-06,25.968,8.7734e-13,5.5197e-06,-3.4562e-06,-25.968,0.46479
9572,9.5034,4.8182,0,0.00033413,3339,0.00014028,364.89,9.1647e-05,-0.54697,-0.00032643,-3141.8,0.46643
9573,9.4121,4.9091,0,0.00032783,3276.1,0.00013409,314.3,9.2205e-05,-0.43401,-0.00032136,-3107.8,0.45768
9574,9.5034,4.9091,0.05,4.2161e-06,42.132,3.2375e-06,24.325,-6.8672e-22,5.216e-06,-3.2375e-06,-24.325,0.46588
9575,9.5034,4.6364,0,0.00035761,3573.6,0.00014961,383.95,9.8425e-05,-0.63978,-0.00034953,-3366.4,0.4674
9576,9.4121,4.7273,0,0.00034847,3482.3,0.00014279,337.12,9.7847e-05,-0.53274,-0.00034152,-3301.7,0.45867
9577,9.5034,4.7273,0.05,3.8397e-06,38.371,2.9484e-06,22.153,-6.2541e-22,9.2056e-06,-2.9484e-06,-22.153,0.4669
9578,9.5034,4.4545,0,0.00038076,3804.9,0.00015661,375.59,0.00010653,-0.69987,-0.00037298,-3603.5,0.46828
9579,9.4121,4.5455,0,0.00036932,3690.6,0.00014978,338.28,0.00010468,-0.6228,-0.0003624,-3510.1,0.45957
9580,9.5034,4.5455,0.05,3.4327e-06,34.303,2.6359e-06,19.805,1.6246e-12,1.785e-05,-2.6359e-06,-19.805,0.46782
9581,9.5034,4.2727,0,0.00040252,4022.4,0.00016079,338.35,0.00011565,-0.76471,-0.0003957,-3842.8,0.46906
9582,9.4121,4.3636,0,0.00038933,3890.6,0.00015445,314.22,0.00011254,-0.70398,-0.00038304,-3724.3,0.46038
9583,9.5034,4.3636,0.05,3.1363e-06,31.341,2.4083e-06,18.095,7.3796e-13,7.7755e-06,-2.4083e-06,-18.095,0.46866
9584,9.5034,4.0909,0,0.00042227,4219.8,0.0001625,279.38,0.00012522,-0.76908,-0.00041683,-4073.5,0.46975
9585,9.4121,4.1818,0,0.00040777,4074.9,0.00015674,267.5,0.00012103,-0.80746,-0.00040257,-3934.9,0.46109
9586,9.5034,4.1818,0.05,3.0852e-06,30.831,2.3691e-06,17.8,7.4284e-12,1.4258e-06,-2.3691e-06,-17.8,0.46939
9587,9.5034,3.9091,0,0.00043986,4395.5,0.00016286,213.06,0.00013442,-0.64051,-0.00043585,-4285.4,0.47034
9588,9.4121,4,0,0.00042434,4240.4,0.00015732,207.97,0.00012953,-0.81972,-0.00042043,-4133,0.46171
9589,9.5034,4,0.05,3.2426e-06,32.403,2.4899e-06,18.708,2.5768e-12,4.9252e-05,-2.4899e-06,-18.708,0.47003
9590,9.5034,3.7273,0,0.0004552,4548.9,0.00016308,154.46,0.00014246,-0.44295,-0.00045238,-4469.9,0.47082
9591,9.4121,3.8182,0,0.00043899,4386.8,0.0001573,149.13,0.00013735,-0.72742,-0.00043627,-4310.7,0.46222
9592,9.5034,3.8182,0.05,3.4849e-06,34.825,2.676e-06,20.106,1.8884e-12,2.2907e-05,-2.6759e-06,-20.106,0.47057
9593,9.5034,3.5455,0,0.00046799,4676.7,0.00016381,112.49,0.00014882,-0.13532,-0.00046597,-4619.5,0.4712
9594,9.4121,3.6364,0,0.00045158,4512.7,0.00015753,101.89,0.0001439,-0.52262,-0.00044977,-4461.1,0.46264
9595,9.5034,3.6364,0.05,3.7362e-06,37.336,2.8689e-06,21.556,-1.4247e-12,7.0521e-06,-2.8689e-06,-21.556,0.471
9596,9.5034,3.3636,0,0.00047766,4773.3,0.00016494,87.849,0.00015328,0.23058,-0.0004761,-4728.7,0.47147
9597,9.4121,3.4545,0,0.00046171,4614,0.00015825,70.442,0.00014885,-0.15168,-0.00046048,-4578.4,0.46295
9598,9.5034,3.4545,0.05,3.951e-06,39.483,3.0339e-06,22.796,-2.9305e-12,-7.75e-06,-3.0339e-06,-22.796,0.47132
9599,9.5034,3.1818,0,0.00048368,4833.5,0.00016594,76.199,0.00015586,0.46604,-0.00048233,-4794.7,0.47164
9600,9.4121,3.2727,0,0.00046883,4685.1,0.00015912,52.992,0.0001521,0.22476,-0.0004679,-4658.2,0.46316
9601,9.5034,3.2727,0.05,4.0917e-06,40.888,3.1419e-06,23.607,-9.6298e-13,1.5993e-06,-3.1419e-06,-23.607,0.47154
9602,9.5034,3,0,0.00048572,4853.8,0.00016634,72.932,0.00015671,0.5349,-0.00048443,-4816.7,0.47169
9603,9.4121,3.0909,0,0.00047249,4721.7,0.00015971,45.633,0.00015369,0.4402,-0.00047169,-4698.5,0.46326
9604,9.5034,3.0909,0.05,4.1557e-06,41.528,3.1911e-06,23.976,-2.2048e-13,2.1655e-06,-3.191e-06,-23.976,0.47165
9605,9.5034,2.8182,0,0.00048368,4833.5,0.00016594,76.199,0.00015586,0.46604,-0.00048233,-4794.7,0.47164
9606,9.4121,2.9091,0,0.00047249,4721.7,0.00015971,45.633,0.00015369,0.4402,-0.00047169,-4698.5,0.46326
9607,9.5034,2.9091,0.05,4.1557e-06,41.528,3.1911e-06,23.976,2.7291e-13,3.5032e-06,-3.191e-06,-23.976,0.47165
9608,9.5034,2.6364,0,0.00047766,4773.3,0.00016494,87.849,0.00015328,0.23058,-0.0004761,-4728.7,0.47147
9609,9.4121,2.7273,0,0.00046883,4685.1,0.00015912,52.992,0.0001521,0.22477,-0.0004679,-4658.2,0.46316
9610,9.5034,2.7273,0.05,4.0917e-06,40.888,3.1419e-06,23.607,-4.4855e-12,7.4115e-06,-3.1419e-06,-23.607,0.47154
9611,9.5034,2.4545,0,0.00046799,4676.7,0.00016381,112.49,0.00014882,-0.13532,-0.00046597,-4619.5,0.4712
9612,9.4121,2.5455,0,0.00046171,4614,0.00015825,70.442,0.00014885,-0.15168,-0.00046048,-4578.4,0.46295
9613,9.5034,2.5455,0.05,3.951e-06,39.483,3.0339e-06,22.796,-2.1121e-12,5.5349e-06,-3.0339e-06,-22.796,0.47132
9614,9.5034,2.2727,0,0.0004552,4548.9,0.00016308,154.46,0.00014246,-0.44295,-0.00045238,-4469.9,0.47082
9615,9.4121,2.3636,0,0.00045158,4512.7,0.00015753,101.89,0.0001439,-0.52262,-0.00044977,-4461.1,0.46264
9616,9.5034,2.3636,0.05,3.7362e-06,37.336,2.8689e-06,21.556,-5.4207e-13,4.7064e-05,-2.8689e-06,-21.556,0.471
9617,9.5034,2.0909,0,0.00043986,4395.5,0.00016286,213.06,0.00013442,-0.64051,-0.00043585,-4285.4,0.47034
9618,9.4121,2.1818,0,0.00043899,4386.8,0.0001573,149.13,0.00013735,-0.72742,-0.00043627,-4310.7,0.46222
9619,9.5034,2.1818,0.05,3.4849e-06,34.825,2.676e-06,20.106,3.1747e-12,1.6332e-05,-2.676e-06,-20.106,0.47057
9620,9.5034,1.9091,0,0.00042227,4219.8,0.0001625,279.38,0.00012522,-0.76908,-0.00041683,-4073.5,0.46975
9621,9.4121,2,0,0.00042434,4240.4,0.00015732,207.97,0.00012953,-0.81972,-0.00042043,-4133,0.46171
9622,9.5034,2,0.05,3.2426e-06,32.403,2.4899e-06,18.708,3.7179e-12,8.5982e-05,-2.4899e-06,-18.708,0.47003
9623,9.5034,1.7273,0,0.00040252,4022.4,0.00016079,338.35,0.00011565,-0.7647,-0.0003957,-3842.8,0.46906
9624,9.4121,1.8182,0,0.00040777,4074.9,0.00015674,267.5,0.00012103,-0.80746,-0.00040257,-3934.9,0.46109
9625,9.5034,1.8182,0.05,3.0852e-06,30.831,2.3691e-06,17.8,1.1219e-11,6.372e-05,-2.3691e-06,-17.8,0.46939
9626,9.5034,1.5455,0,0.00038076,3804.9,0.00015661,375.59,0.00010653,-0.69987,-0.00037298,-3603.5,0.46828
9627,9.4121,1.6364,0,0.00038933,3890.6,0.00015445,314.22,0.00011254,-0.70398,-0.00038304,-3724.3,0.46038
9628,9.5034,1.6364,0.05,3.1363e-06,31.341,2.4082e-06,18.095,9.0763e-12,4.9732e-05,-2.4083e-06,-18.095,0.46866
9629,9.5034,1.3636,0,0.00035761,3573.6,0.00014961,383.95,9.8425e-05,-0.63978,-0.00034953,-3366.4,0.4674
9630,9.4121,1.4545,0,0.00036932,3690.6,0.00014978,338.28,0.00010468,-0.6228,-0.0003624,-3510.1,0.45957
9631,9.5034,1.4545,0.05,3.4327e-06,34.303,2.6359e-06,19.805,5.8596e-12,6.9407e-05,-2.6359e-06,-19.805,0.46782
9632,9.5034,1.1818,0,0.00033413,3339,0.00014028,364.89,9.1647e-05,-0.54697,-0.00032643,-3141.8,0.46643
9633,9.4121,1.2727,0,0.00034847,3482.3,0.00014279,337.12,9.7847e-05,-0.53274,-0.00034152,-3301.7,0.45867
9634,9.5034,1.2727,0.05,3.8397e-06,38.371,2.9484e-06,22.153,3.6989e-12,4.3133e-05,-2.9484e-06,-22.153,0.4669
9635,9.5034,1,0,0.00031155,3113.4,0.00012959,325.29,8.624e-05,-0.43597,-0.00030474,-2938.1,0.46537
9636,9.4121,1.0909,0,0.00032783,3276.1,0.00013409,314.3,9.2205e-05,-0.43401,-0.00032136,-3107.8,0.45768
9637,9.5034,1.0909,0.05,4.2161e-06,42.132,3.2375e-06,24.325,2.0659e-12,2.6128e-05,-3.2375e-06,-24.325,0.46588
9638,9.5034,0.81818,0,0.00029094,2907.4,0.00011855,273.43,8.2119e-05,-0.31986,-0.00028532,-2761.1,0.46424
9639,9.4121,0.90909,0,0.00030842,3082,0.00012457,276.21,8.776e-05,-0.32858,-0.00030279,-2934.8,0.45661
9640,9.5034,0.90909,0.05,4.501e-06,44.979,3.4562e-06,25.968,3.3593e-13,1.2996e-05,-3.4562e-06,-25.968,0.46479
9641,9.5034,0.63636,0,0.00027307,2728.8,0.00010798,216.26,7.9173e-05,-0.17414,-0.00026875,-2614.3,0.46304
9642,9.4121,0.72727,0,0.00029104,2908.4,0.00011498,229.21,8.4447e-05,-0.22244,-0.00028647,-2787.1,0.45547
9643,9.5034,0.72727,0.05,4.6973e-06,46.94,3.6069e-06,27.101,4.3368e-13,1.0358e-05,-3.6069e-06,-27.101,0.46363
9644,9.5034,0.45455,0,0.00025835,2581.7,9.8338e-05,157.93,7.7306e-05,-0.096711,-0.0002553,-2499.2,0.46177
9645,9.4121,0.54545,0,0.00027623,2760.4,0.00010588,177.88,8.2199e-05,-0.062636,-0.00027278,-2667.2,0.45425
9646,9.5034,0.54545,0.05,4.8315e-06,48.281,3.71e-06,27.875,1.5302e-13,2.8667e-06,-3.71e-06,-27.875,0.46239
9647,9.5034,0.27273,0,0.00024692,2467.4,8.9754e-05,99.698,7.6509e-05,0.1825,-0.00024507,-2416,0.46045
9648,9.4121,0.36364,0,0.00026418,2640,9.7475e-05,124,8.0956e-05,-0.1146,-0.00026186,-2575.9,0.45297
9649,9.5034,0.36364,0.05,4.9686e-06,49.652,3.8153e-06,28.667,-3.8593e-14,3.6511e-06,-3.8153e-06,-28.667,0.46109
9650,9.4121,0.18182,0,0.00025487,2546.9,8.9677e-05,67.176,8.079e-05,0.39874,-0.00025365,-2512.5,0.45163
9651,9.5034,0.18182,0.05,5.7302e-06,57.263,4.4001e-06,33.061,-7.9332e-14,2.3659e-06,-4.4001e-06,-33.061,0.45974
9652,9.5034,0.090909,0,0.00023773,2375.7,8.1554e-05,37.218,7.6601e-05,-0.0024025,-0.00023708,-2356.9,0.45906
9653,9.3207,5.7273,0,0.00027221,2720.2,9.7483e-05,92.112,8.5238e-05,0.11432,-0.00027053,-2673,0.44421
9654,9.2293,5.8182,0,0.00027899,2788,9.71e-05,60.583,8.9071e-05,0.25173,-0.00027791,-2757.1,0.43548
9655,9.3207,5.8182,0.05,4.9779e-06,49.745,3.8224e-06,28.72,1.0385e-13,1.8472e-06,-3.8224e-06,-28.72,0.44351
9656,9.3207,5.9091,0,0.00026416,2639.8,9.0018e-05,34.106,8.5475e-05,-0.03171,-0.00026356,-2622.6,0.44284
9657,9.3207,5.5455,0,0.00028223,2820.4,0.00010518,145.13,8.5849e-05,-0.081879,-0.00027949,-2745.1,0.44551
9658,9.2293,5.6364,0,0.00028736,2871.6,0.00010432,114.15,8.9106e-05,-0.1336,-0.00028525,-2812.9,0.4368
9659,9.3207,5.6364,0.05,4.3437e-06,43.407,3.3354e-06,25.061,9.0808e-13,1.9044e-06,-3.3354e-06,-25.061,0.44484
9660,9.3207,5.3636,0,0.00029453,2943.3,0.00011316,192.91,8.7473e-05,-0.1143,-0.00029077,-2842.1,0.44674
9661,9.2293,5.4545,0,0.00029761,2974.1,0.00011153,160.69,9.0144e-05,-0.028745,-0.00029456,-2890.5,0.43806
9662,9.3207,5.4545,0.05,4.1886e-06,41.857,3.2163e-06,24.166,-3.3423e-14,9.5238e-07,-3.2163e-06,-24.166,0.44611
9663,9.3207,5.1818,0,0.00030899,3087.8,0.00012139,234.96,9.0088e-05,-0.2341,-0.00030433,-2963.7,0.44791
9664,9.2293,5.2727,0,0.00030977,3095.6,0.00011885,200.76,9.2106e-05,-0.15763,-0.00030587,-2990.4,0.43925
9665,9.3207,5.2727,0.05,4.0222e-06,40.194,3.0885e-06,23.206,-6.5512e-22,9.9093e-07,-3.0885e-06,-23.206,0.44731
9666,9.3207,5,0,0.00032529,3250.6,0.00012955,268.83,9.3725e-05,-0.32879,-0.00031988,-3108,0.44899
9667,9.2293,5.0909,0,0.00032366,3234.4,0.00012612,233.48,9.5013e-05,-0.24157,-0.00031906,-3111.4,0.44036
9668,9.3207,5.0909,0.05,3.7976e-06,37.95,2.9161e-06,21.911,8.6859e-13,6.8373e-06,-2.9161e-06,-21.911,0.44844
9669,9.3207,4.8182,0,0.00034281,3425.8,0.0001371,290.36,9.8404e-05,-0.42074,-0.00033695,-3271.5,0.45
9670,9.2293,4.9091,0,0.00033885,3386.2,0.000133,256.11,9.8868e-05,-0.33052,-0.00033377,-3251,0.44139
9671,9.3207,4.9091,0.05,3.5065e-06,35.04,2.6925e-06,20.231,2.8603e-13,3.3902e-06,-2.6925e-06,-20.231,0.44948
9672,9.3207,4.6364,0,0.00036079,3605.4,0.00014344,295.03,0.0001041,-0.51353,-0.00035487,-3449,0.45092
9673,9.2293,4.7273,0,0.00035475,3545,0.00013899,265.07,0.00010365,-0.4175,-0.0003495,-3405.2,0.44233
9674,9.3207,4.7273,0.05,3.1635e-06,31.613,2.4292e-06,18.252,8.8826e-13,5.7666e-06,-2.4292e-06,-18.252,0.45045
9675,9.3207,4.4545,0,0.00037839,3781.3,0.00014803,279.87,0.0001107,-0.61803,-0.00037286,-3633.9,0.45176
9676,9.2293,4.5455,0,0.00037062,3703.7,0.00014361,257.28,0.0001093,-0.51523,-0.00036558,-3568.5,0.44319
9677,9.3207,4.5455,0.05,2.8198e-06,28.179,2.1653e-06,16.269,-4.5928e-22,3.9689e-06,-2.1653e-06,-16.269,0.45133
9678,9.3207,4.2727,0,0.00039495,3946.8,0.0001507,245.57,0.00011792,-0.72857,-0.00039021,-3818.6,0.4525
9679,9.2293,4.3636,0,0.00038582,3855.5,0.00014656,231.91,0.00011561,-0.63115,-0.00038136,-3734.6,0.44396
9680,9.3207,4.3636,0.05,2.5608e-06,25.591,1.9664e-06,14.775,7.4326e-13,7.4471e-06,-1.9664e-06,-14.775,0.45211
9681,9.3207,4.0909,0,0.00041008,4097.9,0.00015176,197.58,0.00012535,-0.83409,-0.00040637,-3996,0.45314
9682,9.2293,4.1818,0,0.00039987,3996,0.00014791,191.82,0.00012228,-0.75721,-0.00039627,-3897,0.44463
9683,9.3207,4.1818,0.05,2.4509e-06,24.492,1.882e-06,14.14,7.4747e-12,1.5948e-06,-1.882e-06,-14.14,0.4528
9684,9.3207,3.9091,0,0.0004236,4233.1,0.00015188,144.93,0.00013247,-0.8918,-0.00042096,-4159.2,0.45369
9685,9.2293,4,0,0.00041255,4122.7,0.00014813,143.66,0.00012889,-0.88557,-0.00040994,-4049.4,0.44521
9686,9.3207,4,0.05,2.4809e-06,24.792,1.905e-06,14.313,-7.2011e-13,-7.4795e-06,-1.905e-06,-14.313,0.4534
9687,9.3207,3.7273,0,0.00043542,4351.2,0.0001518,96.941,0.00013879,-0.83099,-0.0004337,-4302.3,0.45414
9688,9.2293,3.8182,0,0.00042378,4234.9,0.00014788,95.857,0.00013499,-0.97465,-0.00042208,-4186.6,0.4457
9689,9.3207,3.8182,0.05,2.5993e-06,25.975,1.9959e-06,14.997,2.4801e-13,2.8111e-05,-1.9959e-06,-14.997,0.4539
9690,9.3207,3.5455,0,0.00044529,4449.8,0.00015196,59.763,0.00014392,-0.63426,-0.00044425,-4419.9,0.45449
9691,9.2293,3.6364,0,0.00043341,4331.1,0.0001477,55.511,0.00014018,-1.0038,-0.00043246,-4303.6,0.44608
9692,9.3207,3.6364,0.05,2.7644e-06,27.625,2.1227e-06,15.949,-3.3416e-12,1.2348e-05,-2.1227e-06,-15.949,0.4543
9693,9.3207,3.3636,0,0.00045279,4524.8,0.00015237,35.089,0.00014765,-0.30358,-0.00045219,-4507.3,0.45474
9694,9.2293,3.4545,0,0.00044116,4408.5,0.00014782,26.24,0.0001442,-1.0145,-0.00044072,-4395.9,0.44638
9695,9.3207,3.4545,0.05,2.9363e-06,29.343,2.2547e-06,16.941,-1.5963e-12,-8.4677e-06,-2.2547e-06,-16.941,0.4546
9696,9.3207,3.1818,0,0.00045751,4571.9,0.00015277,21.521,0.00014992,0.13715,-0.00045714,-4561.1,0.45489
9697,9.2293,3.2727,0,0.00044662,4463.1,0.00014813,8.3055,0.00014688,-1.1144,-0.0004465,-4459.5,0.44657
9698,9.3207,3.2727,0.05,3.074e-06,30.719,2.3605e-06,17.736,-2.4548e-12,-4.9357e-06,-2.3605e-06,-17.736,0.4548
9699,9.3207,3,0,0.00045912,4588,0.00015292,17.198,0.00015069,0.4005,-0.00045881,-4579.2,0.45494
9700,9.2293,3.0909,0,0.00044946,4491.5,0.00014849,0.86129,0.00014811,-2.0169,-0.00044948,-4492,0.44667
9701,9.3207,3.0909,0.05,3.1484e-06,31.462,2.4176e-06,18.165,-3.8449e-12,-1.5899e-06,-2.4175e-06,-18.165,0.4549
9702,9.3207,2.8182,0,0.00045751,4571.9,0.00015277,21.521,0.00014992,0.13715,-0.00045714,-4561.1,0.45489
9703,9.2293,2.9091,0,0.00044946,4491.5,0.00014849,0.86129,0.00014811,-2.0169,-0.00044948,-4492,0.44667
9704,9.3207,2.9091,0.05,3.1484e-06,31.462,2.4176e-06,18.165,-3.3022e-12,1.2974e-07,-2.4175e-06,-18.164,0.4549
9705,9.3207,2.6364,0,0.00045279,4524.8,0.00015237,35.089,0.00014765,-0.30358,-0.00045219,-4507.3,0.45474
9706,9.2293,2.7273,0,0.00044662,4463.1,0.00014813,8.3055,0.00014688,-1.1144,-0.0004465,-4459.5,0.44657
9707,9.3207,2.7273,0.05,3.074e-06,30.719,2.3605e-06,17.736,-2.5085e-12,-1.7597e-06,-2.3605e-06,-17.736,0.4548
9708,9.3207,2.4545,0,0.00044529,4449.8,0.00015196,59.763,0.00014392,-0.63426,-0.00044425,-4419.9,0.45449
9709,9.2293,2.5455,0,0.00044116,4408.5,0.00014782,26.24,0.0001442,-1.0145,-0.00044072,-4395.9,0.44638
9710,9.3207,2.5455,0.05,2.9363e-06,29.343,2.2547e-06,16.941,8.392e-13,5.3261e-06,-2.2547e-06,-16.941,0.4546
9711,9.3207,2.2727,0,0.00043542,4351.2,0.0001518,96.941,0.00013879,-0.83099,-0.0004337,-4302.3,0.45414
9712,9.2293,2.3636,0,0.00043341,4331.1,0.0001477,55.511,0.00014018,-1.0038,-0.00043246,-4303.6,0.44608
9713,9.3207,2.3636,0.05,2.7644e-06,27.625,2.1227e-06,15.949,-2.804e-13,8.5966e-06,-2.1227e-06,-15.949,0.4543
9714,9.3207,2.0909,0,0.0004236,4233.1,0.00015188,144.93,0.00013247,-0.8918,-0.00042096,-4159.2,0.45369
9715,9.2293,2.1818,0,0.00042378,4234.9,0.00014788,95.857,0.00013499,-0.97465,-0.00042208,-4186.6,0.4457
9716,9.3207,2.1818,0.05,2.5993e-06,25.975,1.9959e-06,14.997,2.7668e-12,6.3222e-05,-1.9959e-06,-14.996,0.4539
9717,9.3207,1.9091,0,0.00041008,4097.9,0.00015176,197.58,0.00012535,-0.83409,-0.00040637,-3996,0.45314
9718,9.2293,2,0,0.00041255,4122.7,0.00014813,143.66,0.00012889,-0.88557,-0.00040994,-4049.4,0.44521
9719,9.3207,2,0.05,2.4809e-06,24.792,1.905e-06,14.313,2.0267e-12,7.2144e-05,-1.905e-06,-14.313,0.4534
9720,9.3207,1.7273,0,0.00039495,3946.8,0.0001507,245.57,0.00011792,-0.72857,-0.00039021,-3818.6,0.4525
9721,9.2293,1.8182,0,0.00039987,3996,0.00014791,191.82,0.00012228,-0.75721,-0.00039627,-3897,0.44463
9722,9.3207,1.8182,0.05,2.4509e-06,24.492,1.882e-06,14.14,7.9091e-12,3.473e-05,-1.882e-06,-14.14,0.4528
9723,9.3207,1.5455,0,0.00037839,3781.3,0.00014803,279.87,0.0001107,-0.61803,-0.00037286,-3633.9,0.45176
9724,9.2293,1.6364,0,0.00038582,3855.5,0.00014656,231.91,0.00011561,-0.63115,-0.00038136,-3734.6,0.44396
9725,9.3207,1.6364,0.05,2.5608e-06,25.591,1.9664e-06,14.775,5.455e-12,7.3045e-05,-1.9664e-06,-14.775,0.45211
9726,9.3207,1.3636,0,0.00036079,3605.4,0.00014344,295.03,0.0001041,-0.51353,-0.00035487,-3449,0.45092
9727,9.2293,1.4545,0,0.00037062,3703.7,0.00014361,257.28,0.0001093,-0.51523,-0.00036558,-3568.5,0.44319
9728,9.3207,1.4545,0.05,2.8198e-06,28.179,2.1653e-06,16.269,6.1796e-12,3.8273e-05,-2.1653e-06,-16.269,0.45133
9729,9.3207,1.1818,0,0.00034281,3425.8,0.0001371,290.36,9.8404e-05,-0.42074,-0.00033695,-3271.5,0.45
9730,9.2293,1.2727,0,0.00035475,3545,0.00013899,265.07,0.00010365,-0.4175,-0.0003495,-3405.2,0.44233
9731,9.3207,1.2727,0.05,3.1635e-06,31.613,2.4292e-06,18.252,4.9022e-12,3.616e-05,-2.4292e-06,-18.252,0.45045
9732,9.3207,1,0,0.00032529,3250.6,0.00012955,268.83,9.3725e-05,-0.32879,-0.00031988,-3108,0.44899
9733,9.2293,1.0909,0,0.00033885,3386.2,0.000133,256.11,9.8868e-05,-0.33052,-0.00033377,-3251,0.44139
9734,9.3207,1.0909,0.05,3.5065e-06,35.04,2.6925e-06,20.231,2.2882e-12,3.1073e-05,-2.6925e-06,-20.231,0.44948
9735,9.3207,0.81818,0,0.00030899,3087.8,0.00012139,234.96,9.0088e-05,-0.2341,-0.00030433,-2963.7,0.44791
9736,9.2293,0.90909,0,0.00032366,3234.4,0.00012612,233.48,9.5013e-05,-0.24157,-0.00031906,-3111.4,0.44036
9737,9.3207,0.90909,0.05,3.7976e-06,37.95,2.9161e-06,21.911,1.4583e-12,1.6325e-05,-2.9161e-06,-21.911,0.44844
9738,9.3207,0.63636,0,0.00029453,2943.3,0.00011316,192.91,8.7473e-05,-0.1143,-0.00029077,-2842.1,0.44674
9739,9.2293,0.72727,0,0.00030977,3095.6,0.00011885,200.76,9.2106e-05,-0.15763,-0.00030587,-2990.4,0.43925
9740,9.3207,0.72727,0.05,4.0222e-06,40.194,3.0885e-06,23.206,5.2485e-13,9.6246e-06,-3.0885e-06,-23.206,0.44731
9741,9.3207,0.45455,0,0.00028223,2820.4,0.00010518,145.13,8.5849e-05,-0.081878,-0.00027949,-2745.1,0.44551
9742,9.2293,0.54545,0,0.00029761,2974.1,0.00011153,160.69,9.0144e-05,-0.028745,-0.00029456,-2890.5,0.43806
9743,9.3207,0.54545,0.05,4.1886e-06,41.857,3.2163e-06,24.166,-7.6965e-13,7.7882e-06,-3.2163e-06,-24.166,0.44611
9744,9.3207,0.27273,0,0.00027221,2720.2,9.7483e-05,92.112,8.5238e-05,0.11432,-0.00027053,-2673,0.44421
9745,9.2293,0.36364,0,0.00028736,2871.6,0.00010432,114.15,8.9106e-05,-0.1336,-0.00028525,-2812.9,0.4368
9746,9.3207,0.36364,0.05,4.3437e-06,43.407,3.3354e-06,25.061,-1.9235e-12,1.1539e-06,-3.3354e-06,-25.061,0.44484
9747,9.2293,0.18182,0,0.00027899,2788,9.71e-05,60.583,8.9071e-05,0.25173,-0.00027791,-2757.1,0.43548
9748,9.3207,0.18182,0.05,4.9779e-06,49.745,3.8224e-06,28.72,-3.8592e-15,-3.3065e-07,-3.8224e-06,-28.72,0.44351
9749,9.3207,0.090909,0,0.00026416,2639.8,9.0018e-05,34.106,8.5475e-05,-0.031708,-0.00026356,-2622.6,0.44284
9750,9.1379,5.7273,0,0.00029418,2939.8,0.00010398,83.005,9.2944e-05,0.049173,-0.00029268,-2897.4,0.42814
9751,9.0466,5.8182,0,0.00030001,2998,0.00010346,53.559,9.6349e-05,0.12605,-0.00029906,-2970.8,0.41952
9752,9.1379,5.8182,0.05,4.2731e-06,42.701,3.2812e-06,24.653,8.9247e-13,2.3395e-06,-3.2812e-06,-24.653,0.42745
9753,9.1379,5.9091,0,0.00028722,2870.2,9.733e-05,30.515,9.3263e-05,-0.044869,-0.00028669,-2854.8,0.42679
9754,9.1379,5.5455,0,0.00030285,3026.4,0.00011077,130.45,9.3402e-05,-0.073115,-0.00030042,-2959.1,0.42942
9755,9.0466,5.6364,0,0.00030736,3071.5,0.00010995,102.44,9.6301e-05,-0.14339,-0.00030549,-3019.1,0.42083
9756,9.1379,5.6364,0.05,3.7783e-06,37.757,2.9013e-06,21.799,-6.154e-22,3.8038e-06,-2.9013e-06,-21.799,0.42877
9757,9.1379,5.3636,0,0.00031306,3128.4,0.00011739,169.81,9.4777e-05,-0.070468,-0.00030982,-3040.1,0.43063
9758,9.0466,5.4545,0,0.00031601,3157.9,0.0001161,142.36,9.7151e-05,-0.0079181,-0.00031335,-3084.3,0.42207
9759,9.1379,5.4545,0.05,3.6238e-06,36.213,2.7827e-06,20.908,9.0858e-13,9.5271e-07,-2.7827e-06,-20.908,0.43001
9760,9.1379,5.1818,0,0.00032472,3245,0.00012381,201.04,9.7032e-05,-0.16494,-0.00032084,-3139.9,0.43177
9761,9.0466,5.2727,0,0.00032594,3257.1,0.00012198,173.87,9.8823e-05,-0.10871,-0.00032263,-3166.8,0.42323
9762,9.1379,5.2727,0.05,3.452e-06,34.497,2.6507e-06,19.917,-5.6226e-22,3.7572e-06,-2.6507e-06,-19.917,0.43119
9763,9.1379,5,0,0.00033757,3373.4,0.00012985,222.87,0.00010016,-0.24305,-0.00033323,-3256.5,0.43283
9764,9.0466,5.0909,0,0.00033699,3367.6,0.0001275,196.63,0.00010131,-0.17454,-0.00033322,-3265.1,0.42431
9765,9.1379,5.0909,0.05,3.2323e-06,32.301,2.482e-06,18.649,2.0084e-13,3.6186e-06,-2.482e-06,-18.649,0.43228
9766,9.1379,4.8182,0,0.00035116,3509.1,0.00013518,233.04,0.00010412,-0.32572,-0.00034661,-3386.9,0.4338
9767,9.0466,4.9091,0,0.00034885,3486.1,0.00013246,209.2,0.00010458,-0.25237,-0.00034483,-3376.9,0.42531
9768,9.1379,4.9091,0.05,2.9652e-06,29.632,2.2769e-06,17.108,3.0076e-13,5.4828e-06,-2.2769e-06,-17.108,0.4333
9769,9.1379,4.6364,0,0.00036493,3646.8,0.00013944,229.41,0.00010885,-0.41448,-0.00036049,-3526.8,0.43468
9770,9.0466,4.7273,0,0.00036108,3608.3,0.00013655,209.82,0.00010858,-0.33478,-0.00035706,-3499,0.42623
9771,9.1379,4.7273,0.05,2.6679e-06,26.661,2.0487e-06,15.393,-4.3455e-22,1.0929e-05,-2.0487e-06,-15.393,0.43423
9772,9.1379,4.4545,0,0.00037835,3780.8,0.00014237,211.09,0.00011421,-0.51786,-0.00037432,-3671.1,0.43548
9773,9.0466,4.5455,0,0.00037318,3729.3,0.00013953,197.34,0.00011321,-0.43245,-0.00036944,-3626.9,0.42705
9774,9.1379,4.5455,0.05,2.377e-06,23.753,1.8252e-06,13.714,1.3632e-12,9.6061e-06,-1.8252e-06,-13.714,0.43507
9775,9.1379,4.2727,0,0.00039096,3906.9,0.00014395,179.52,0.00011997,-0.64115,-0.00038761,-3814.4,0.43619
9776,9.0466,4.3636,0,0.00038474,3844.7,0.00014128,172.16,0.00011829,-0.55321,-0.00038153,-3756,0.42779
9777,9.1379,4.3636,0.05,2.1398e-06,21.384,1.6431e-06,12.346,1.1694e-12,8.3895e-06,-1.6431e-06,-12.346,0.43582
9778,9.1379,4.0909,0,0.0004025,4022.3,0.00014441,138.87,0.00012582,-0.7821,-0.00039997,-3951.4,0.4368
9779,9.0466,4.1818,0,0.00039542,3951.5,0.00014191,136.94,0.00012359,-0.70584,-0.00039293,-3881.6,0.42844
9780,9.1379,4.1818,0.05,1.9924e-06,19.91,1.5299e-06,11.495,4.0005e-12,3.1008e-05,-1.5299e-06,-11.495,0.43648
9781,9.1379,3.9091,0,0.00041283,4125.4,0.00014421,95.195,0.00013141,-0.94286,-0.00041114,-4077.5,0.43732
9782,9.0466,4,0,0.00040507,4047.9,0.00014175,96.421,0.00012879,-0.90282,-0.00040336,-3999.3,0.42899
9783,9.1379,4,0.05,1.9392e-06,19.379,1.4891e-06,11.188,3.0666e-12,2.46e-05,-1.4891e-06,-11.188,0.43704
9784,9.1379,3.7273,0,0.00042182,4215.2,0.00014382,54.742,0.00013638,-1.1681,-0.00042088,-4188.2,0.43774
9785,9.0466,3.8182,0,0.00041359,4133,0.00014124,56.302,0.00013358,-1.2167,-0.00041262,-4105.2,0.42945
9786,9.1379,3.8182,0.05,1.9637e-06,19.624,1.5079e-06,11.33,7.7046e-13,-1.0266e-05,-1.5079e-06,-11.33,0.43751
9787,9.1379,3.5455,0,0.00042928,4289.8,0.00014361,22.312,0.00014041,-1.7326,-0.00042893,-4279.5,0.43807
9788,9.0466,3.6364,0,0.00042085,4205.6,0.00014082,21.991,0.00013761,-2.1235,-0.00042051,-4195.6,0.42982
9789,9.1379,3.6364,0.05,2.0438e-06,20.424,1.5694e-06,11.792,-1.815e-12,-1.3065e-05,-1.5694e-06,-11.792,0.43789
9790,9.1379,3.3636,0,0.00043495,4346.5,0.00014411,3.3138,0.00014287,-5.9905,-0.00043499,-4347.8,0.43831
9791,9.0466,3.4545,0,0.00042665,4263.6,0.00014152,2.8074,0.00013983,-9.8932,-0.00042677,-4267.1,0.4301
9792,9.1379,3.4545,0.05,2.1506e-06,21.491,1.6514e-06,12.408,-2.4959e-12,2.6999e-06,-1.6514e-06,-12.408,0.43818
9793,9.1379,3.1818,0,0.0004385,4382,0.00014558,0.55588,0.00014328,-16.688,-0.00043877,-4390,0.43845
9794,9.0466,3.2727,0,0.00043074,4304.4,0.00014345,0.5996,0.00013999,-25.355,-0.00043115,-4316.7,0.43028
9795,9.1379,3.2727,0.05,2.2481e-06,22.465,1.7262e-06,12.97,-2.1002e-12,6.1417e-07,-1.7262e-06,-12.97,0.43836
9796,9.1379,3,0,0.00043972,4394.1,0.00014616,0.28798,0.00014335,-20.779,-0.00044006,-4404.3,0.4385
9797,9.0466,3.0909,0,0.00043285,4325.5,0.00014453,0.27551,0.00014001,-33.644,-0.00043341,-4342.1,0.43038
9798,9.1379,3.0909,0.05,2.3052e-06,23.036,1.7701e-06,13.3,-2.0272e-12,-4.4248e-06,-1.7701e-06,-13.3,0.43846
9799,9.1379,2.8182,0,0.0004385,4382,0.00014558,0.55588,0.00014328,-16.688,-0.00043877,-4390,0.43845
9800,9.0466,2.9091,0,0.00043285,4325.5,0.00014453,0.27551,0.00014001,-33.644,-0.00043341,-4342.1,0.43038
9801,9.1379,2.9091,0.05,2.3052e-06,23.036,1.7701e-06,13.3,-1.5105e-12,-2.553e-06,-1.7701e-06,-13.3,0.43846
9802,9.1379,2.6364,0,0.00043495,4346.4,0.00014411,3.3138,0.00014287,-5.9905,-0.00043499,-4347.8,0.43831
9803,9.0466,2.7273,0,0.00043074,4304.4,0.00014345,0.5996,0.00013999,-25.355,-0.00043115,-4316.7,0.43028
9804,9.1379,2.7273,0.05,2.2481e-06,22.465,1.7262e-06,12.97,-2.5998e-12,1.0017e-05,-1.7262e-06,-12.97,0.43836
9805,9.1379,2.4545,0,0.00042928,4289.8,0.00014361,22.312,0.00014041,-1.7326,-0.00042893,-4279.5,0.43807
9806,9.0466,2.5455,0,0.00042665,4263.6,0.00014152,2.8074,0.00013983,-9.8933,-0.00042677,-4267.1,0.4301
9807,9.1379,2.5455,0.05,2.1506e-06,21.491,1.6514e-06,12.408,-5.8738e-13,6.4995e-06,-1.6514e-06,-12.408,0.43818
9808,9.1379,2.2727,0,0.00042182,4215.2,0.00014382,54.742,0.00013638,-1.1681,-0.00042088,-4188.2,0.43774
9809,9.0466,2.3636,0,0.00042085,4205.6,0.00014082,21.991,0.00013761,-2.1235,-0.00042051,-4195.6,0.42982
9810,9.1379,2.3636,0.05,2.0438e-06,20.424,1.5694e-06,11.792,-1.8772e-12,1.5164e-05,-1.5694e-06,-11.792,0.43789
9811,9.1379,2.0909,0,0.00041283,4125.4,0.00014421,95.195,0.00013141,-0.94286,-0.00041114,-4077.5,0.43732
9812,9.0466,2.1818,0,0.00041359,4133,0.00014124,56.302,0.00013358,-1.2167,-0.00041262,-4105.2,0.42945
9813,9.1379,2.1818,0.05,1.9637e-06,19.624,1.5079e-06,11.33,3.0958e-12,-1.5337e-05,-1.5079e-06,-11.33,0.43751
9814,9.1379,1.9091,0,0.0004025,4022.3,0.00014441,138.87,0.00012582,-0.7821,-0.00039997,-3951.4,0.4368
9815,9.0466,2,0,0.00040507,4047.9,0.00014175,96.421,0.00012879,-0.90282,-0.00040336,-3999.3,0.42899
9816,9.1379,2,0.05,1.9392e-06,19.379,1.4891e-06,11.188,6.1796e-12,0.00011039,-1.4891e-06,-11.188,0.43704
9817,9.1379,1.7273,0,0.00039096,3906.9,0.00014395,179.52,0.00011997,-0.64115,-0.00038761,-3814.4,0.43619
9818,9.0466,1.8182,0,0.00039542,3951.5,0.00014191,136.94,0.00012359,-0.70584,-0.00039293,-3881.6,0.42844
9819,9.1379,1.8182,0.05,1.9924e-06,19.91,1.5299e-06,11.495,7.9875e-12,9.7884e-05,-1.5299e-06,-11.495,0.43648
9820,9.1379,1.5455,0,0.00037835,3780.8,0.00014237,211.09,0.00011421,-0.51786,-0.00037432,-3671.1,0.43548
9821,9.0466,1.6364,0,0.00038474,3844.7,0.00014128,172.16,0.00011829,-0.55321,-0.00038153,-3756,0.42779
9822,9.1379,1.6364,0.05,2.1398e-06,21.384,1.6431e-06,12.346,2.2362e-12,6.8199e-05,-1.6431e-06,-12.346,0.43582
9823,9.1379,1.3636,0,0.00036493,3646.8,0.00013944,229.41,0.00010885,-0.41448,-0.00036049,-3526.8,0.43468
9824,9.0466,1.4545,0,0.00037318,3729.3,0.00013953,197.34,0.00011321,-0.43245,-0.00036944,-3626.9,0.42705
9825,9.1379,1.4545,0.05,2.377e-06,23.753,1.8252e-06,13.714,6.9861e-12,5.5996e-05,-1.8252e-06,-13.714,0.43507
9826,9.1379,1.1818,0,0.00035116,3509.1,0.00013518,233.04,0.00010412,-0.32572,-0.00034661,-3386.9,0.4338
9827,9.0466,1.2727,0,0.00036108,3608.3,0.00013655,209.82,0.00010858,-0.33478,-0.00035706,-3499,0.42623
9828,9.1379,1.2727,0.05,2.6679e-06,26.661,2.0486e-06,15.393,1.8485e-12,3.5993e-05,-2.0487e-06,-15.393,0.43423
9829,9.1379,1,0,0.00033757,3373.4,0.00012985,222.87,0.00010016,-0.24305,-0.00033323,-3256.5,0.43283
9830,9.0466,1.0909,0,0.00034885,3486.1,0.00013246,209.2,0.00010458,-0.25237,-0.00034483,-3376.9,0.42531
9831,9.1379,1.0909,0.05,2.9652e-06,29.632,2.2769e-06,17.108,3.1685e-12,2.5627e-05,-2.2769e-06,-17.108,0.4333
9832,9.1379,0.81818,0,0.00032472,3245,0.00012381,201.04,9.7032e-05,-0.16494,-0.00032084,-3139.9,0.43177
9833,9.0466,0.90909,0,0.00033699,3367.6,0.0001275,196.63,0.00010131,-0.17453,-0.00033322,-3265.1,0.42431
9834,9.1379,0.90909,0.05,3.2323e-06,32.301,2.482e-06,18.649,-1.464e-13,1.5296e-05,-2.482e-06,-18.649,0.43228
9835,9.1379,0.63636,0,0.00031306,3128.4,0.00011739,169.81,9.4777e-05,-0.070467,-0.00030982,-3040.1,0.43063
9836,9.0466,0.72727,0,0.00032594,3257.1,0.00012198,173.87,9.8823e-05,-0.10871,-0.00032263,-3166.8,0.42323
9837,9.1379,0.72727,0.05,3.452e-06,34.497,2.6507e-06,19.917,7.1974e-13,3.7184e-06,-2.6507e-06,-19.917,0.43119
9838,9.1379,0.45455,0,0.00030285,3026.4,0.00011077,130.45,9.3402e-05,-0.073114,-0.00030042,-2959.1,0.42942
9839,9.0466,0.54545,0,0.00031601,3157.9,0.0001161,142.36,9.7151e-05,-0.0079173,-0.00031335,-3084.3,0.42207
9840,9.1379,0.54545,0.05,3.6238e-06,36.213,2.7827e-06,20.908,5.7728e-14,5.611e-06,-2.7827e-06,-20.908,0.43001
9841,9.1379,0.27273,0,0.00029418,2939.8,0.00010398,83.005,9.2944e-05,0.049174,-0.00029268,-2897.4,0.42814
9842,9.0466,0.36364,0,0.00030736,3071.5,0.00010995,102.44,9.6301e-05,-0.14339,-0.00030549,-3019.1,0.42083
9843,9.1379,0.36364,0.05,3.7783e-06,37.757,2.9013e-06,21.799,-1.0528e-12,1.8326e-06,-2.9013e-06,-21.799,0.42877
9844,9.0466,0.18182,0,0.00030001,2998,0.00010346,53.559,9.6349e-05,0.12605,-0.00029906,-2970.8,0.41952
9845,9.1379,0.18182,0.05,4.2731e-06,42.701,3.2812e-06,24.653,-1.0709e-12,4.2393e-07,-3.2812e-06,-24.653,0.42745
9846,9.1379,0.090909,0,0.00028722,2870.2,9.733e-05,30.515,9.3263e-05,-0.044868,-0.00028669,-2854.8,0.42679
9847,8.9552,5.7273,0,0.00031322,3130,0.00010946,73.203,9.9715e-05,-0.00033721,-0.00031191,-3092.8,0.41227
9848,8.8638,5.8182,0,0.0003183,3180.8,0.00010892,46.553,0.00010273,0.035412,-0.00031749,-3157.3,0.40376
9849,8.9552,5.8182,0.05,3.6371e-06,36.346,2.7929e-06,20.984,-5.9241e-22,1.3967e-06,-2.7929e-06,-20.984,0.41159
9850,8.9552,5.9091,0,0.00030728,3070.7,0.00010364,26.793,0.00010007,-0.048964,-0.00030681,-3057.2,0.41093
9851,8.9552,5.5455,0,0.00032059,3203.7,0.00011534,114.82,0.00010005,-0.066581,-0.00031849,-3144.8,0.41354
9852,8.8638,5.6364,0,0.00032464,3244.1,0.00011462,89.88,0.00010263,-0.14266,-0.00032301,-3198.3,0.40505
9853,8.9552,5.6364,0.05,3.2828e-06,32.805,2.5208e-06,18.94,9.0579e-13,9.4979e-07,-2.5208e-06,-18.94,0.41289
9854,8.9552,5.3636,0,0.00032901,3287.8,0.00012079,147.19,0.0001012,-0.041808,-0.00032626,-3211.8,0.41473
9855,8.8638,5.4545,0,0.00033184,3316.1,0.00011979,123.7,0.00010332,0.0041462,-0.00032956,-3252.5,0.40628
9856,8.9552,5.4545,0.05,3.1414e-06,31.392,2.4122e-06,18.124,-5.1166e-22,3.0671e-06,-2.4122e-06,-18.124,0.41412
9857,8.9552,5.1818,0,0.00033838,3381.4,0.00012581,170.51,0.0001031,-0.11604,-0.00033516,-3293,0.41584
9858,8.8638,5.2727,0,0.00033989,3396.6,0.00012449,148.48,0.00010472,-0.07412,-0.00033712,-3319.9,0.40742
9859,8.9552,5.2727,0.05,2.9799e-06,29.779,2.2882e-06,17.193,-4.8536e-22,1.8778e-06,-2.2882e-06,-17.193,0.41527
9860,8.9552,5,0,0.00034848,3482.4,0.00013028,184.2,0.00010574,-0.18176,-0.00034498,-3386.7,0.41688
9861,8.8638,5.0909,0,0.00034866,3484.1,0.00012869,164.18,0.00010682,-0.12679,-0.00034557,-3399.2,0.40849
9862,8.9552,5.0909,0.05,2.7806e-06,27.787,2.1351e-06,16.043,1.9763e-13,3.4616e-06,-2.1351e-06,-16.043,0.41634
9863,8.9552,4.8182,0,0.00035899,3587.4,0.00013401,187.28,0.00010905,-0.25809,-0.00035544,-3490.2,0.41782
9864,8.8638,4.9091,0,0.00035789,3576.4,0.00013223,170.19,0.00010956,-0.19618,-0.00035469,-3488.3,0.40946
9865,8.9552,4.9091,0.05,2.5474e-06,25.457,1.9561e-06,14.697,6.1076e-13,5.8823e-06,-1.9561e-06,-14.697,0.41733
9866,8.9552,4.6364,0,0.00036954,3692.8,0.00013681,178.97,0.00011294,-0.34643,-0.00036617,-3600.2,0.41868
9867,8.8638,4.7273,0,0.00036727,3670.2,0.00013498,165.86,0.00011287,-0.2754,-0.00036417,-3584.6,0.41036
9868,8.9552,4.7273,0.05,2.2946e-06,22.93,1.762e-06,13.239,3.9846e-13,1.4267e-05,-1.762e-06,-13.239,0.41824
9869,8.9552,4.4545,0,0.00037975,3794.9,0.00013858,159.46,0.0001173,-0.45605,-0.00037679,-3712.8,0.41945
9870,8.8638,4.5455,0,0.00037649,3762.3,0.00013681,151.08,0.00011665,-0.37473,-0.0003737,-3684.6,0.41116
9871,8.9552,4.5455,0.05,2.0453e-06,20.439,1.5706e-06,11.801,-3.3314e-22,8.8096e-06,-1.5706e-06,-11.801,0.41905
9872,8.9552,4.2727,0,0.00038933,3890.6,0.00013935,130.4,0.00012192,-0.59726,-0.00038696,-3824.1,0.42013
9873,8.8638,4.3636,0,0.00038524,3849.8,0.0001377,126.84,0.00012075,-0.50548,-0.00038294,-3785,0.41188
9874,8.9552,4.3636,0.05,1.8263e-06,18.25,1.4024e-06,10.537,8.299e-13,9.8291e-06,-1.4024e-06,-10.537,0.41978
9875,8.9552,4.0909,0,0.00039809,3978.1,0.00013932,95.083,0.00012656,-0.79167,-0.00039639,-3930.1,0.42072
9876,8.8638,4.1818,0,0.00039333,3930.6,0.00013778,95.466,0.00012498,-0.69067,-0.00039163,-3882.3,0.4125
9877,8.9552,4.1818,0.05,1.6579e-06,16.568,1.2731e-06,9.5654,6.0278e-13,3.2532e-05,-1.2731e-06,-9.5654,0.42041
9878,8.9552,3.9091,0,0.00040589,4056.1,0.00013883,57.877,0.00013097,-1.1172,-0.0004049,-4027.4,0.42122
9879,8.8638,4,0,0.00040061,4003.3,0.0001373,60.555,0.00012911,-1.0048,-0.00039956,-3973.2,0.41304
9880,8.9552,4,0.05,1.5488e-06,15.477,1.1893e-06,8.9358,-9.8068e-14,-9.8007e-07,-1.1893e-06,-8.9358,0.42095
9881,8.9552,3.7273,0,0.00041265,4123.7,0.00013825,23.655,0.00013483,-2.0676,-0.00041228,-4112.8,0.42163
9882,8.8638,3.8182,0,0.000407,4067.2,0.00013662,26.543,0.00013284,-1.8783,-0.00040657,-4054.8,0.41348
9883,8.9552,3.8182,0.05,1.4988e-06,14.977,1.1509e-06,8.6471,1.9124e-12,-8.7728e-06,-1.1509e-06,-8.6471,0.42141
9884,8.9552,3.5455,0,0.00041822,4179.4,0.0001388,3.027,0.00013696,-10.803,-0.00041836,-4183.2,0.42194
9885,8.8638,3.6364,0,0.00041241,4121.2,0.00013689,3.655,0.00013508,-9.9161,-0.00041251,-4124.3,0.41384
9886,8.9552,3.6364,0.05,1.5014e-06,15.004,1.1529e-06,8.6624,-2.5323e-12,-1.4321e-05,-1.1529e-06,-8.6623,0.42177
9887,8.9552,3.3636,0,0.00042242,4221.3,0.00014094,0.66202,0.00013686,-29.969,-0.00042291,-4235.9,0.42217
9888,8.8638,3.4545,0,0.00041669,4164.1,0.00013913,0.7558,0.00013484,-31.43,-0.00041721,-4179.3,0.4141
9889,8.9552,3.4545,0.05,1.5402e-06,15.392,1.1827e-06,8.8865,-8.4351e-13,5.2301e-06,-1.1827e-06,-8.8864,0.42204
9890,8.9552,3.1818,0,0.00042505,4247.5,0.00014239,0.28311,0.00013669,-42.532,-0.00042575,-4268.5,0.4223
9891,8.8638,3.2727,0,0.00041969,4194,0.00014087,0.31219,0.0001345,-47.559,-0.00042047,-4217.4,0.41428
9892,8.9552,3.2727,0.05,1.589e-06,15.879,1.2201e-06,9.1676,-3.4506e-12,-3.2463e-06,-1.2201e-06,-9.1675,0.42222
9893,8.9552,3,0,0.00042594,4256.5,0.00014289,0.20297,0.00013664,-46.746,-0.00042671,-4279.6,0.42235
9894,8.8638,3.0909,0,0.00042123,4209.4,0.00014177,0.18624,0.00013433,-55.736,-0.00042215,-4236.9,0.41437
9895,8.9552,3.0909,0.05,1.6212e-06,16.201,1.2449e-06,9.3536,-2.048e-12,-6.201e-06,-1.2449e-06,-9.3535,0.42231
9896,8.9552,2.8182,0,0.00042505,4247.5,0.00014239,0.28311,0.00013669,-42.532,-0.00042575,-4268.5,0.4223
9897,8.8638,2.9091,0,0.00042123,4209.4,0.00014177,0.18624,0.00013433,-55.736,-0.00042215,-4236.9,0.41437
9898,8.9552,2.9091,0.05,1.6212e-06,16.201,1.2449e-06,9.3536,-1.5424e-12,-3.8338e-06,-1.2449e-06,-9.3535,0.42231
9899,8.9552,2.6364,0,0.00042242,4221.3,0.00014094,0.66202,0.00013686,-29.969,-0.00042291,-4235.9,0.42217
9900,8.8638,2.7273,0,0.00041969,4194,0.00014087,0.31219,0.0001345,-47.559,-0.00042047,-4217.4,0.41428
9901,8.9552,2.7273,0.05,1.589e-06,15.879,1.2201e-06,9.1676,-3.0239e-12,7.663e-06,-1.2201e-06,-9.1675,0.42222
9902,8.9552,2.4545,0,0.00041822,4179.4,0.0001388,3.027,0.00013696,-10.803,-0.00041836,-4183.2,0.42194
9903,8.8638,2.5455,0,0.00041669,4164.1,0.00013913,0.7558,0.00013484,-31.43,-0.00041721,-4179.3,0.4141
9904,8.9552,2.5455,0.05,1.5402e-06,15.392,1.1827e-06,8.8865,-1.8944e-12,2.9377e-05,-1.1827e-06,-8.8864,0.42204
9905,8.9552,2.2727,0,0.00041265,4123.7,0.00013825,23.655,0.00013483,-2.0676,-0.00041228,-4112.8,0.42163
9906,8.8638,2.3636,0,0.00041241,4121.2,0.00013689,3.655,0.00013508,-9.9161,-0.00041251,-4124.3,0.41384
9907,8.9552,2.3636,0.05,1.5014e-06,15.004,1.1529e-06,8.6624,9.5193e-13,-1.1998e-05,-1.1529e-06,-8.6624,0.42177
9908,8.9552,2.0909,0,0.00040589,4056.1,0.00013883,57.877,0.00013097,-1.1172,-0.0004049,-4027.4,0.42122
9909,8.8638,2.1818,0,0.000407,4067.2,0.00013662,26.543,0.00013284,-1.8783,-0.00040657,-4054.8,0.41348
9910,8.9552,2.1818,0.05,1.4988e-06,14.977,1.1509e-06,8.6471,5.2183e-12,7.0134e-05,-1.1509e-06,-8.6471,0.42141
9911,8.9552,1.9091,0,0.00039809,3978.1,0.00013932,95.083,0.00012656,-0.79167,-0.00039639,-3930.1,0.42072
9912,8.8638,2,0,0.00040061,4003.3,0.0001373,60.555,0.00012911,-1.0048,-0.00039956,-3973.2,0.41304
9913,8.9552,2,0.05,1.5488e-06,15.477,1.1893e-06,8.9358,1.0668e-11,-1.8258e-06,-1.1893e-06,-8.9358,0.42095
9914,8.9552,1.7273,0,0.00038933,3890.6,0.00013935,130.4,0.00012192,-0.59726,-0.00038696,-3824.1,0.42013
9915,8.8638,1.8182,0,0.00039333,3930.6,0.00013778,95.466,0.00012498,-0.69067,-0.00039163,-3882.3,0.4125
9916,8.9552,1.8182,0.05,1.6579e-06,16.568,1.2731e-06,9.5654,8.1514e-12,9.6144e-05,-1.2731e-06,-9.5654,0.42041
9917,8.9552,1.5455,0,0.00037975,3794.9,0.00013858,159.46,0.0001173,-0.45605,-0.00037679,-3712.8,0.41945
9918,8.8638,1.6364,0,0.00038524,3849.8,0.0001377,126.84,0.00012075,-0.50548,-0.00038294,-3785,0.41188
9919,8.9552,1.6364,0.05,1.8263e-06,18.25,1.4024e-06,10.537,7.616e-12,0.0001075,-1.4024e-06,-10.537,0.41978
9920,8.9552,1.3636,0,0.00036954,3692.8,0.00013681,178.97,0.00011294,-0.34643,-0.00036617,-3600.2,0.41868
9921,8.8638,1.4545,0,0.00037649,3762.3,0.00013681,151.08,0.00011665,-0.37473,-0.0003737,-3684.6,0.41116
9922,8.9552,1.4545,0.05,2.0453e-06,20.439,1.5706e-06,11.801,5.9585e-12,3.6738e-05,-1.5706e-06,-11.801,0.41905
9923,8.9552,1.1818,0,0.00035899,3587.4,0.00013401,187.28,0.00010905,-0.25809,-0.00035544,-3490.2,0.41782
9924,8.8638,1.2727,0,0.00036727,3670.2,0.00013498,165.86,0.00011287,-0.2754,-0.00036417,-3584.6,0.41036
9925,8.9552,1.2727,0.05,2.2946e-06,22.93,1.762e-06,13.239,4.9213e-13,3.1303e-05,-1.762e-06,-13.239,0.41824
9926,8.9552,1,0,0.00034848,3482.4,0.00013028,184.2,0.00010574,-0.18175,-0.00034498,-3386.7,0.41688
9927,8.8638,1.0909,0,0.00035789,3576.4,0.00013223,170.19,0.00010956,-0.19618,-0.00035469,-3488.3,0.40946
9928,8.9552,1.0909,0.05,2.5474e-06,25.457,1.9561e-06,14.697,2.4887e-13,2.8888e-05,-1.9561e-06,-14.697,0.41733
9929,8.9552,0.81818,0,0.00033838,3381.4,0.00012581,170.51,0.0001031,-0.11604,-0.00033516,-3293,0.41584
9930,8.8638,0.90909,0,0.00034866,3484.1,0.00012869,164.18,0.00010682,-0.12679,-0.00034557,-3399.2,0.40849
9931,8.9552,0.90909,0.05,2.7806e-06,27.787,2.1351e-06,16.043,1.6321e-12,1.8092e-05,-2.1351e-06,-16.043,0.41634
9932,8.9552,0.63636,0,0.00032901,3287.8,0.00012079,147.19,0.0001012,-0.041807,-0.00032626,-3211.8,0.41473
9933,8.8638,0.72727,0,0.00033989,3396.6,0.00012449,148.48,0.00010472,-0.074119,-0.00033712,-3319.9,0.40742
9934,8.9552,0.72727,0.05,2.9799e-06,29.779,2.2882e-06,17.193,-2.7725e-13,4.2425e-06,-2.2882e-06,-17.193,0.41527
9935,8.9552,0.45455,0,0.00032059,3203.7,0.00011534,114.82,0.00010005,-0.066579,-0.00031849,-3144.8,0.41354
9936,8.8638,0.54545,0,0.00033184,3316.1,0.00011979,123.7,0.00010332,0.004147,-0.00032956,-3252.5,0.40628
9937,8.9552,0.54545,0.05,3.1414e-06,31.392,2.4122e-06,18.124,-1.7184e-12,2.6572e-06,-2.4122e-06,-18.124,0.41412
9938,8.9552,0.27273,0,0.00031322,3130,0.00010946,73.203,9.9715e-05,-0.00033647,-0.00031191,-3092.8,0.41227
9939,8.8638,0.36364,0,0.00032464,3244.1,0.00011462,89.88,0.00010263,-0.14266,-0.00032301,-3198.3,0.40505
9940,8.9552,0.36364,0.05,3.2828e-06,32.805,2.5208e-06,18.94,-1.0505e-12,2.0021e-06,-2.5208e-06,-18.94,0.41289
9941,8.8638,0.18182,0,0.0003183,3180.8,0.00010892,46.553,0.00010273,0.035413,-0.00031749,-3157.3,0.40376
9942,8.9552,0.18182,0.05,3.6371e-06,36.346,2.7929e-06,20.984,-5.2202e-14,-6.0818e-07,-2.7929e-06,-20.984,0.41159
9943,8.9552,0.090909,0,0.00030728,3070.7,0.00010364,26.793,0.00010007,-0.048963,-0.00030681,-3057.2,0.41093
9944,8.7724,5.7273,0,0.00032974,3295.1,0.00011409,63.319,0.00010566,-0.030828,-0.00032861,-3263,0.39661
9945,8.681,5.8182,0,0.00033426,3340.3,0.00011363,39.84,0.00010833,-0.020849,-0.00033357,-3320.2,0.38821
9946,8.7724,5.8182,0.05,3.0795e-06,30.774,2.3647e-06,17.767,-7.4155e-14,6.1657e-07,-2.3647e-06,-17.767,0.39593
9947,8.7724,5.9091,0,0.00032474,3245.1,0.0001091,23.156,0.00010601,-0.04523,-0.00032434,-3233.5,0.39528
9948,8.7724,5.5455,0,0.00033592,3356.9,0.0001191,99.055,0.00010591,-0.058682,-0.00033413,-3306.3,0.39787
9949,8.681,5.6364,0,0.00033961,3393.7,0.00011851,77.224,0.00010821,-0.13302,-0.00033823,-3354.5,0.3895
9950,8.7724,5.6364,0.05,2.8586e-06,28.566,2.195e-06,16.493,-1.5841e-14,1.7652e-06,-2.195e-06,-16.493,0.39722
9951,8.7724,5.3636,0,0.0003428,3425.6,0.00012355,125.46,0.00010685,-0.022537,-0.00034049,-3361.2,0.39904
9952,8.681,5.4545,0,0.00034554,3453,0.00012279,105.41,0.00010877,0.011153,-0.00034362,-3399.1,0.39071
9953,8.7724,5.4545,0.05,2.737e-06,27.351,2.1016e-06,15.791,2.1769e-14,2.8594e-06,-2.1016e-06,-15.791,0.39844
9954,8.7724,5.1818,0,0.00035027,3500.3,0.00012745,142.77,0.00010844,-0.081404,-0.00034763,-3426.8,0.40014
9955,8.681,5.2727,0,0.00035201,3517.7,0.00012653,124.7,0.00010993,-0.049971,-0.00034973,-3453.7,0.39184
9956,8.7724,5.2727,0.05,2.5936e-06,25.918,1.9915e-06,14.964,1.6751e-13,4.2247e-06,-1.9915e-06,-14.964,0.39958
9957,8.7724,5,0,0.00035818,3579.3,0.00013074,150.89,0.00011064,-0.13794,-0.00035538,-3501.6,0.40115
9958,8.681,5.0909,0,0.00035892,3586.7,0.00012969,135.24,0.00011167,-0.093427,-0.00035643,-3517.2,0.39289
9959,8.7724,5.0909,0.05,2.4203e-06,24.186,1.8585e-06,13.964,1.0295e-13,3.608e-06,-1.8585e-06,-13.964,0.40063
9960,8.7724,4.8182,0,0.00036629,3660.4,0.0001333,149.51,0.00011338,-0.20899,-0.00036352,-3583.4,0.40208
9961,8.681,4.9091,0,0.00036607,3658.2,0.00013219,136.9,0.00011395,-0.15639,-0.00036355,-3587.9,0.39385
9962,8.7724,4.9091,0.05,2.2219e-06,22.203,1.7061e-06,12.819,4.5353e-13,1.3591e-05,-1.7061e-06,-12.819,0.4016
9963,8.7724,4.6364,0,0.00037434,3740.8,0.00013507,138.68,0.00011657,-0.2962,-0.00037179,-3669.7,0.40292
9964,8.681,4.7273,0,0.00037325,3729.9,0.00013396,129.67,0.00011667,-0.23307,-0.00037088,-3663.5,0.39473
9965,8.7724,4.7273,0.05,2.0084e-06,20.07,1.5422e-06,11.587,3.9086e-13,7.8004e-06,-1.5422e-06,-11.587,0.40249
9966,8.7724,4.4545,0,0.00038208,3818.2,0.00013601,119.07,0.00012011,-0.41081,-0.00037993,-3757.5,0.40367
9967,8.681,4.5455,0,0.00038024,3799.7,0.00013498,113.98,0.00011976,-0.33477,-0.00037817,-3741.6,0.39552
9968,8.7724,4.5455,0.05,1.7939e-06,17.927,1.3775e-06,10.35,2.4112e-12,9.7483e-06,-1.3775e-06,-10.35,0.40328
9969,8.7724,4.2727,0,0.00038932,3890.5,0.00013619,92.375,0.00012382,-0.57362,-0.00038767,-3843.8,0.40433
9970,8.681,4.3636,0,0.00038683,3865.6,0.00013526,91.035,0.00012308,-0.47974,-0.00038521,-3819.6,0.39622
9971,8.7724,4.3636,0.05,1.5928e-06,15.917,1.2231e-06,9.1898,1.3154e-12,8.4077e-06,-1.2231e-06,-9.1898,0.40399
9972,8.7724,4.0909,0,0.0003959,3956.3,0.0001358,61.259,0.00012753,-0.8481,-0.00039484,-3925.7,0.40491
9973,8.681,4.1818,0,0.0003929,3926.2,0.00013493,62.899,0.00012647,-0.72112,-0.0003918,-3894.8,0.39683
9974,8.7724,4.1818,0.05,1.4163e-06,14.154,1.0876e-06,8.1715,3.9031e-12,3.3173e-05,-1.0876e-06,-8.1715,0.40461
9975,8.7724,3.9091,0,0.00040175,4014.7,0.0001351,29.272,0.00013099,-1.5638,-0.00040127,-4000.8,0.40539
9976,8.681,4,0,0.00039833,3980.6,0.00013423,32.544,0.00012972,-1.3063,-0.00039779,-3964.8,0.39735
9977,8.7724,4,0.05,1.2717e-06,12.708,9.7649e-07,7.337,2.385e-13,2.1904e-06,-9.765e-07,-7.337,0.40513
9978,8.7724,3.7273,0,0.00040677,4064.9,0.00013501,4.6744,0.00013336,-7.7212,-0.00040682,-4066.4,0.40579
9979,8.681,3.8182,0,0.00040307,4027.9,0.00013382,6.3672,0.00013223,-5.622,-0.00040306,-4027.5,0.39778
9980,8.7724,3.8182,0.05,1.1644e-06,11.636,8.9413e-07,6.7182,6.3913e-12,2.5381e-05,-8.9413e-07,-6.7182,0.40557
9981,8.7724,3.5455,0,0.00041088,4106,0.00013714,0.85318,0.00013304,-29.982,-0.00041137,-4120.4,0.40609
9982,8.681,3.6364,0,0.00040705,4067.7,0.00013577,0.98531,0.00013198,-27.503,-0.00040749,-4080.8,0.39813
9983,8.7724,3.6364,0.05,1.0986e-06,10.978,8.4355e-07,6.3381,5.4722e-12,1.2989e-05,-8.4355e-07,-6.3381,0.40592
9984,8.7724,3.3636,0,0.00041395,4136.6,0.00013905,0.34171,0.00013248,-49.016,-0.00041475,-4160.7,0.40631
9985,8.681,3.4545,0,0.00041017,4098.9,0.0001378,0.38364,0.00013125,-48.786,-0.00041097,-4122.8,0.39839
9986,8.7724,3.4545,0.05,1.0713e-06,10.706,8.2264e-07,6.181,2.9813e-13,-1.175e-05,-8.2263e-07,-6.181,0.40619
9987,8.7724,3.1818,0,0.00041585,4155.7,0.00014025,0.18245,0.00013213,-60.853,-0.00041685,-4185.7,0.40644
9988,8.681,3.2727,0,0.00041233,4120.5,0.00013923,0.19495,0.00013072,-63.74,-0.00041338,-4151.9,0.39856
9989,8.7724,3.2727,0.05,1.0694e-06,10.687,8.2118e-07,6.1701,-3.4363e-12,-1.2066e-06,-8.2118e-07,-6.17,0.40636
9990,8.7724,3,0,0.0004165,4162.1,0.00014066,0.14171,0.00013201,-64.844,-0.00041756,-4194.1,0.40649
9991,8.681,3.0909,0,0.00041345,4131.6,0.00013997,0.128,0.00013045,-71.374,-0.00041461,-4166.8,0.39865
9992,8.7724,3.0909,0.05,1.0747e-06,10.74,8.2525e-07,6.2006,-3.7181e-12,-8.6925e-06,-8.2525e-07,-6.2006,0.40645
9993,8.7724,2.8182,0,0.00041585,4155.7,0.00014025,0.18245,0.00013213,-60.853,-0.00041685,-4185.7,0.40644
9994,8.681,2.9091,0,0.00041345,4131.6,0.00013997,0.128,0.00013045,-71.374,-0.00041461,-4166.8,0.39865
9995,8.7724,2.9091,0.05,1.0747e-06,10.74,8.2525e-07,6.2006,-3.2497e-12,-6.089e-06,-8.2525e-07,-6.2006,0.40645
9996,8.7724,2.6364,0,0.00041395,4136.6,0.00013905,0.34171,0.00013248,-49.016,-0.00041475,-4160.7,0.40631
9997,8.681,2.7273,0,0.00041233,4120.5,0.00013923,0.19495,0.00013072,-63.74,-0.00041338,-4151.9,0.39856
9998,8.7724,2.7273,0.05,1.0694e-06,10.687,8.2118e-07,6.1701,-2.3315e-12,3.3803e-06,-8.2118e-07,-6.17,0.40636
9999,8.7724,2.4545,0,0.00041088,4106,0.00013714,0.85318,0.00013304,-29.982,-0.00041137,-4120.4,0.40609
10000,8.681,2.5455,0,0.00041017,4098.9,0.0001378,0.38364,0.00013125,-48.786,-0.00041097,-4122.8,0.39839
10001,8.7724,2.5455,0.05,1.0713e-06,10.706,8.2264e-07,6.181,1.3142e-12,-9.2362e-06,-8.2263e-07,-6.181,0.40619
10002,8.7724,2.2727,0,0.00040677,4064.9,0.00013501,4.6744,0.00013336,-7.7212,-0.00040682,-4066.4,0.40579
10003,8.681,2.3636,0,0.00040705,4067.7,0.00013577,0.98531,0.00013198,-27.503,-0.00040749,-4080.8,0.39813
10004,8.7724,2.3636,0.05,1.0986e-06,10.978,8.4355e-07,6.3381,5.7669e-12,3.5615e-05,-8.4356e-07,-6.3381,0.40592
10005,8.7724,2.0909,0,0.00040175,4014.7,0.0001351,29.272,0.00013099,-1.5638,-0.00040127,-4000.8,0.40539
10006,8.681,2.1818,0,0.00040307,4027.9,0.00013382,6.3672,0.00013223,-5.622,-0.00040306,-4027.5,0.39778
10007,8.7724,2.1818,0.05,1.1644e-06,11.636,8.9413e-07,6.7182,6.2532e-12,5.3547e-05,-8.9413e-07,-6.7182,0.40557
10008,8.7724,1.9091,0,0.0003959,3956.3,0.0001358,61.259,0.00012753,-0.8481,-0.00039484,-3925.7,0.40491
10009,8.681,2,0,0.00039833,3980.6,0.00013423,32.544,0.00012972,-1.3063,-0.00039779,-3964.8,0.39735
10010,8.7724,2,0.05,1.2717e-06,12.708,9.7649e-07,7.337,4.0355e-12,6.3999e-05,-9.765e-07,-7.337,0.40513
10011,8.7724,1.7273,0,0.00038932,3890.5,0.00013619,92.375,0.00012382,-0.57361,-0.00038767,-3843.8,0.40433
10012,8.681,1.8182,0,0.0003929,3926.2,0.00013493,62.899,0.00012647,-0.72112,-0.0003918,-3894.8,0.39683
10013,8.7724,1.8182,0.05,1.4163e-06,14.154,1.0876e-06,8.1715,1.0947e-11,6.5698e-05,-1.0876e-06,-8.1716,0.40461
10014,8.7724,1.5455,0,0.00038208,3818.2,0.00013601,119.07,0.00012011,-0.41081,-0.00037993,-3757.5,0.40367
10015,8.681,1.6364,0,0.00038683,3865.6,0.00013526,91.035,0.00012308,-0.47974,-0.00038521,-3819.6,0.39622
10016,8.7724,1.6364,0.05,1.5928e-06,15.917,1.2231e-06,9.1898,4.253e-12,7.5689e-05,-1.2231e-06,-9.1898,0.40399
10017,8.7724,1.3636,0,0.00037434,3740.8,0.00013507,138.68,0.00011657,-0.2962,-0.00037179,-3669.7,0.40292
10018,8.681,1.4545,0,0.00038024,3799.7,0.00013498,113.98,0.00011976,-0.33477,-0.00037817,-3741.6,0.39552
10019,8.7724,1.4545,0.05,1.7939e-06,17.927,1.3775e-06,10.35,5.1058e-12,4.5192e-05,-1.3775e-06,-10.35,0.40328
10020,8.7724,1.1818,0,0.00036629,3660.4,0.0001333,149.51,0.00011338,-0.20899,-0.00036352,-3583.4,0.40208
10021,8.681,1.2727,0,0.00037325,3729.9,0.00013396,129.67,0.00011667,-0.23307,-0.00037088,-3663.5,0.39473
10022,8.7724,1.2727,0.05,2.0084e-06,20.07,1.5422e-06,11.587,2.0555e-12,3.3151e-05,-1.5422e-06,-11.587,0.40249
10023,8.7724,1,0,0.00035818,3579.3,0.00013074,150.89,0.00011064,-0.13794,-0.00035538,-3501.6,0.40115
10024,8.681,1.0909,0,0.00036607,3658.2,0.00013219,136.9,0.00011395,-0.15638,-0.00036355,-3587.9,0.39385
10025,8.7724,1.0909,0.05,2.2219e-06,22.203,1.7061e-06,12.819,9.8789e-13,2.1672e-05,-1.7061e-06,-12.819,0.4016
10026,8.7724,0.81818,0,0.00035027,3500.3,0.00012745,142.77,0.00010844,-0.081402,-0.00034763,-3426.8,0.40014
10027,8.681,0.90909,0,0.00035892,3586.7,0.00012969,135.24,0.00011167,-0.093425,-0.00035643,-3517.2,0.39289
10028,8.7724,0.90909,0.05,2.4203e-06,24.186,1.8585e-06,13.964,-6.9087e-13,1.1154e-05,-1.8585e-06,-13.964,0.40063
10029,8.7724,0.63636,0,0.0003428,3425.6,0.00012355,125.46,0.00010685,-0.022536,-0.00034049,-3361.2,0.39904
10030,8.681,0.72727,0,0.00035201,3517.7,0.00012653,124.7,0.00010993,-0.04997,-0.00034973,-3453.7,0.39184
10031,8.7724,0.72727,0.05,2.5936e-06,25.918,1.9915e-06,14.964,5.5823e-13,4.2144e-06,-1.9915e-06,-14.964,0.39958
10032,8.7724,0.45455,0,0.00033592,3356.9,0.0001191,99.055,0.00010591,-0.058681,-0.00033413,-3306.3,0.39787
10033,8.681,0.54545,0,0.00034554,3453,0.00012279,105.41,0.00010877,0.011154,-0.00034362,-3399.1,0.39071
10034,8.7724,0.54545,0.05,2.737e-06,27.351,2.1016e-06,15.791,-1.7309e-12,2.5804e-06,-2.1016e-06,-15.791,0.39844
10035,8.7724,0.27273,0,0.00032974,3295.1,0.00011409,63.319,0.00010566,-0.030826,-0.00032861,-3263,0.39661
10036,8.681,0.36364,0,0.00033961,3393.7,0.00011851,77.224,0.00010821,-0.13302,-0.00033823,-3354.5,0.3895
10037,8.7724,0.36364,0.05,2.8586e-06,28.566,2.195e-06,16.493,-1.0952e-12,5.8514e-07,-2.195e-06,-16.493,0.39722
10038,8.681,0.18182,0,0.00033426,3340.3,0.00011363,39.84,0.00010833,-0.020847,-0.00033357,-3320.2,0.38821
10039,8.7724,0.18182,0.05,3.0795e-06,30.774,2.3647e-06,17.767,-1.0076e-12,2.0677e-07,-2.3647e-06,-17.767,0.39593
10040,8.7724,0.090909,0,0.00032474,3245.1,0.0001091,23.156,0.00010601,-0.045229,-0.00032434,-3233.5,0.39528
10041,8.5897,5.7273,0,0.00034414,3439,0.00011805,53.756,0.00011089,-0.045855,-0.00034319,-3411.8,0.38117
10042,8.4983,5.8182,0,0.00034825,3480.1,0.00011773,33.571,0.00011325,-0.049852,-0.00034767,-3463.2,0.37288
10043,8.5897,5.8182,0.05,2.6013e-06,25.995,1.9975e-06,15.008,8.6347e-13,5.3291e-07,-1.9975e-06,-15.008,0.38049
10044,8.5897,5.9091,0,0.00033999,3397.5,0.00011384,19.724,0.00011121,-0.036683,-0.00033965,-3387.6,0.37984
10045,8.5897,5.5455,0,0.00034925,3490.1,0.00012223,83.746,0.00011107,-0.049839,-0.00034775,-3447.5,0.38242
10046,8.4983,5.6364,0,0.00035268,3524.3,0.0001218,64.97,0.00011314,-0.11765,-0.00035153,-3491.5,0.37417
10047,8.5897,5.6364,0.05,2.5017e-06,25,1.921e-06,14.434,-4.0747e-22,3.185e-06,-1.921e-06,-14.434,0.38178
10048,8.5897,5.3636,0,0.0003548,3545.6,0.00012581,104.93,0.00011185,-0.010249,-0.0003529,-3491.9,0.38358
10049,8.4983,5.4545,0,0.00035749,3572.5,0.00012529,87.935,0.00011359,0.014731,-0.00035592,-3527.7,0.37537
10050,8.5897,5.4545,0.05,2.4025e-06,24.008,1.8448e-06,13.861,1.5239e-14,3.8554e-06,-1.8448e-06,-13.861,0.38298
10051,8.5897,5.1818,0,0.00036072,3604.7,0.00012881,117.53,0.00011316,-0.05793,-0.00035858,-3544.6,0.38467
10052,8.4983,5.2727,0,0.00036265,3624,0.00012822,102.63,0.00011455,-0.033815,-0.0003608,-3571.6,0.37649
10053,8.5897,5.2727,0.05,2.2799e-06,22.784,1.7507e-06,13.154,1.0968e-13,3.5088e-06,-1.7507e-06,-13.154,0.38411
10054,8.5897,5,0,0.00036688,3666.3,0.00013119,121.68,0.00011498,-0.10789,-0.00036466,-3604,0.38567
10055,8.4983,5.0909,0,0.00036805,3677.9,0.00013055,109.26,0.000116,-0.071232,-0.00036607,-3622.1,0.37753
10056,8.5897,5.0909,0.05,2.1333e-06,21.318,1.6381e-06,12.308,3.9043e-13,5.3088e-06,-1.6381e-06,-12.308,0.38515
10057,8.5897,4.8182,0,0.0003731,3728.4,0.0001329,117.49,0.00011724,-0.17516,-0.00037097,-3668.4,0.38658
10058,8.4983,4.9091,0,0.00037355,3732.9,0.00013226,107.95,0.00011787,-0.12973,-0.0003716,-3677.8,0.37848
10059,8.5897,4.9091,0.05,1.9669e-06,19.655,1.5103e-06,11.348,8.7065e-13,3.3044e-06,-1.5103e-06,-11.348,0.38611
10060,8.5897,4.6364,0,0.00037921,3789.5,0.00013392,105.38,0.00011986,-0.26302,-0.00037731,-3735.8,0.38741
10061,8.4983,4.7273,0,0.000379,3787.4,0.00013332,99.036,0.00012012,-0.20586,-0.00037722,-3737,0.37935
10062,8.5897,4.7273,0.05,1.7874e-06,17.862,1.3725e-06,10.313,3.7756e-13,7.7212e-06,-1.3725e-06,-10.313,0.38698
10063,8.5897,4.4545,0,0.00038504,3847.7,0.00013427,86.291,0.00012273,-0.38776,-0.00038351,-3804.1,0.38815
10064,8.4983,4.5455,0,0.00038425,3839.9,0.00013375,83.211,0.00012263,-0.31438,-0.00038278,-3797.8,0.38012
10065,8.5897,4.5455,0.05,1.603e-06,16.019,1.2309e-06,9.2484,-2.7765e-13,8.2452e-06,-1.2309e-06,-9.2484,0.38776
10066,8.5897,4.2727,0,0.00039045,3901.8,0.00013403,61.816,0.00012573,-0.59179,-0.00038937,-3870.9,0.3888
10067,8.4983,4.3636,0,0.00038918,3889.1,0.0001336,61.719,0.00012532,-0.48931,-0.0003881,-3858.1,0.38081
10068,8.5897,4.3636,0.05,1.421e-06,14.2,1.0912e-06,8.1985,3.0751e-13,4.1834e-05,-1.0912e-06,-8.1985,0.38846
10069,8.5897,4.0909,0,0.00039535,3950.8,0.00013338,34.284,0.00012868,-1.0574,-0.00039478,-3934.1,0.38936
10070,8.4983,4.1818,0,0.00039367,3934,0.000133,36.453,0.00012803,-0.86654,-0.00039306,-3916.1,0.38141
10071,8.5897,4.1818,0.05,1.247e-06,12.461,9.5751e-07,7.1944,6.3042e-12,5.3005e-05,-9.5751e-07,-7.1944,0.38906
10072,8.5897,3.9091,0,0.00039967,3994,0.00013278,8.3267,0.00013115,-3.8999,-0.0003996,-3991.7,0.38983
10073,8.4983,4,0,0.00039768,3974,0.00013228,10.898,0.00013046,-2.7458,-0.00039754,-3969.9,0.38193
10074,8.5897,4,0.05,1.0848e-06,10.841,8.3301e-07,6.2589,7.6089e-13,4.7972e-06,-8.3301e-07,-6.2589,0.38958
10075,8.5897,3.7273,0,0.00040336,4030.8,0.00013437,1.1057,0.00013107,-23.745,-0.00040374,-4042,0.39022
10076,8.4983,3.8182,0,0.00040114,4008.6,0.00013347,1.282,0.00013064,-19.997,-0.00040146,-4018,0.38235
10077,8.5897,3.8182,0.05,9.3923e-07,9.3858,7.2121e-07,5.4189,7.7333e-14,6.158e-05,-7.2121e-07,-5.4189,0.39001
10078,8.5897,3.5455,0,0.00040634,4060.6,0.00013641,0.41705,0.00013021,-46.182,-0.0004071,-4083.3,0.39052
10079,8.4983,3.6364,0,0.00040402,4037.4,0.0001355,0.45987,0.00012968,-43.262,-0.00040473,-4058.6,0.38269
10080,8.5897,3.6364,0.05,8.1703e-07,8.1647,6.2738e-07,4.7139,5.8783e-12,2.2324e-05,-6.2738e-07,-4.7139,0.39035
10081,8.5897,3.3636,0,0.00040855,4082.7,0.00013797,0.20699,0.00012949,-63.502,-0.00040959,-4114,0.39073
10082,8.4983,3.4545,0,0.00040626,4059.8,0.00013717,0.2266,0.00012882,-62.526,-0.00040728,-4090.6,0.38295
10083,8.5897,3.4545,0.05,7.2556e-07,7.2506,5.5714e-07,4.1862,-5.8411e-14,3.0253e-05,-5.5715e-07,-4.1861,0.39061
10084,8.5897,3.1818,0,0.00040992,4096.3,0.00013895,0.12227,0.00012904,-74.298,-0.00041113,-4132.9,0.39086
10085,8.4983,3.2727,0,0.0004078,4075.2,0.00013833,0.12771,0.0001282,-76.052,-0.00040904,-4112.6,0.38312
10086,8.5897,3.2727,0.05,6.681e-07,6.6764,5.1302e-07,3.8546,-1.1436e-13,6.599e-06,-5.1301e-07,-3.8546,0.39078
10087,8.5897,3,0,0.00041038,4101,0.00013928,0.098469,0.00012889,-77.956,-0.00041165,-4139.3,0.3909
10088,8.4983,3.0909,0,0.00040859,4083.1,0.00013893,0.088134,0.00012787,-82.998,-0.00040993,-4123.9,0.3832
10089,8.5897,3.0909,0.05,6.4169e-07,6.4125,4.9274e-07,3.7023,-1.9228e-12,-5.1173e-06,-4.9274e-07,-3.7022,0.39086
10090,8.5897,2.8182,0,0.00040992,4096.3,0.00013895,0.12227,0.00012904,-74.298,-0.00041113,-4132.9,0.39086
10091,8.4983,2.9091,0,0.00040859,4083.1,0.00013893,0.088133,0.00012787,-82.998,-0.00040993,-4123.9,0.3832
10092,8.5897,2.9091,0.05,6.4169e-07,6.4125,4.9274e-07,3.7023,-1.4448e-12,-1.5581e-06,-4.9274e-07,-3.7022,0.39086
10093,8.5897,2.6364,0,0.00040855,4082.7,0.00013797,0.20699,0.00012949,-63.502,-0.00040959,-4114,0.39073
10094,8.4983,2.7273,0,0.0004078,4075.2,0.00013833,0.12771,0.0001282,-76.052,-0.00040904,-4112.6,0.38312
10095,8.5897,2.7273,0.05,6.681e-07,6.6764,5.1302e-07,3.8546,-5.3568e-13,1.2234e-05,-5.1301e-07,-3.8546,0.39078
10096,8.5897,2.4545,0,0.00040634,4060.6,0.00013641,0.41705,0.00013021,-46.182,-0.0004071,-4083.3,0.39052
10097,8.4983,2.5455,0,0.00040626,4059.8,0.00013717,0.2266,0.00012882,-62.526,-0.00040728,-4090.6,0.38295
10098,8.5897,2.5455,0.05,7.2556e-07,7.2506,5.5714e-07,4.1862,-4.8148e-13,3.3538e-05,-5.5715e-07,-4.1861,0.39061
10099,8.5897,2.2727,0,0.00040336,4030.8,0.00013437,1.1057,0.00013107,-23.745,-0.00040374,-4042,0.39022
10100,8.4983,2.3636,0,0.00040402,4037.4,0.0001355,0.45987,0.00012968,-43.262,-0.00040473,-4058.6,0.38269
10101,8.5897,2.3636,0.05,8.1703e-07,8.1647,6.2738e-07,4.7139,9.4835e-12,5.1603e-05,-6.2738e-07,-4.7139,0.39035
10102,8.5897,2.0909,0,0.00039967,3994,0.00013278,8.3267,0.00013115,-3.8999,-0.0003996,-3991.7,0.38983
10103,8.4983,2.1818,0,0.00040114,4008.6,0.00013347,1.282,0.00013064,-19.997,-0.00040146,-4018,0.38235
10104,8.5897,2.1818,0.05,9.3923e-07,9.3858,7.2121e-07,5.4189,7.3524e-12,9.2119e-05,-7.2121e-07,-5.4189,0.39001
10105,8.5897,1.9091,0,0.00039535,3950.8,0.00013338,34.284,0.00012868,-1.0574,-0.00039478,-3934.1,0.38936
10106,8.4983,2,0,0.00039768,3974,0.00013228,10.898,0.00013046,-2.7458,-0.00039754,-3969.9,0.38193
10107,8.5897,2,0.05,1.0848e-06,10.841,8.3301e-07,6.2589,1.1128e-11,3.6105e-05,-8.3301e-07,-6.2589,0.38958
10108,8.5897,1.7273,0,0.00039045,3901.8,0.00013403,61.816,0.00012573,-0.59179,-0.00038937,-3870.9,0.3888
10109,8.4983,1.8182,0,0.00039367,3934,0.000133,36.453,0.00012803,-0.86654,-0.00039306,-3916.1,0.38141
10110,8.5897,1.8182,0.05,1.247e-06,12.461,9.5751e-07,7.1944,9.933e-12,8.0872e-05,-9.5751e-07,-7.1944,0.38906
10111,8.5897,1.5455,0,0.00038504,3847.7,0.00013427,86.291,0.00012273,-0.38776,-0.00038351,-3804.1,0.38815
10112,8.4983,1.6364,0,0.00038918,3889.1,0.0001336,61.719,0.00012532,-0.48931,-0.0003881,-3858.1,0.38081
10113,8.5897,1.6364,0.05,1.421e-06,14.2,1.0912e-06,8.1985,2.4341e-13,4.8906e-05,-1.0912e-06,-8.1985,0.38846
10114,8.5897,1.3636,0,0.00037921,3789.5,0.00013392,105.38,0.00011986,-0.26302,-0.00037731,-3735.8,0.38741
10115,8.4983,1.4545,0,0.00038425,3839.9,0.00013375,83.211,0.00012263,-0.31437,-0.00038278,-3797.8,0.38012
10116,8.5897,1.4545,0.05,1.603e-06,16.019,1.2309e-06,9.2484,4.9754e-13,5.0064e-05,-1.2309e-06,-9.2484,0.38776
10117,8.5897,1.1818,0,0.0003731,3728.4,0.0001329,117.49,0.00011724,-0.17515,-0.00037097,-3668.4,0.38658
10118,8.4983,1.2727,0,0.000379,3787.4,0.00013332,99.036,0.00012012,-0.20586,-0.00037722,-3737,0.37935
10119,8.5897,1.2727,0.05,1.7874e-06,17.862,1.3725e-06,10.313,1.0377e-12,2.6373e-05,-1.3725e-06,-10.313,0.38698
10120,8.5897,1,0,0.00036688,3666.3,0.00013119,121.68,0.00011498,-0.10788,-0.00036466,-3604,0.38567
10121,8.4983,1.0909,0,0.00037355,3732.9,0.00013226,107.95,0.00011787,-0.12973,-0.0003716,-3677.8,0.37848
10122,8.5897,1.0909,0.05,1.9669e-06,19.655,1.5103e-06,11.348,2.1922e-12,1.5926e-05,-1.5103e-06,-11.348,0.38611
10123,8.5897,0.81818,0,0.00036072,3604.7,0.00012881,117.53,0.00011316,-0.057929,-0.00035858,-3544.6,0.38467
10124,8.4983,0.90909,0,0.00036805,3677.9,0.00013055,109.26,0.000116,-0.07123,-0.00036607,-3622.1,0.37753
10125,8.5897,0.90909,0.05,2.1333e-06,21.318,1.6381e-06,12.308,-1.9624e-12,7.1329e-06,-1.6381e-06,-12.308,0.38515
10126,8.5897,0.63636,0,0.0003548,3545.6,0.00012581,104.93,0.00011185,-0.010249,-0.0003529,-3491.9,0.38358
10127,8.4983,0.72727,0,0.00036265,3624,0.00012822,102.63,0.00011455,-0.033814,-0.0003608,-3571.6,0.37649
10128,8.5897,0.72727,0.05,2.2799e-06,22.784,1.7507e-06,13.154,-1.1901e-12,5.5206e-06,-1.7507e-06,-13.154,0.38411
10129,8.5897,0.45455,0,0.00034925,3490.1,0.00012223,83.746,0.00011107,-0.049838,-0.00034775,-3447.5,0.38242
10130,8.4983,0.54545,0,0.00035749,3572.5,0.00012529,87.935,0.00011359,0.014731,-0.00035592,-3527.7,0.37537
10131,8.5897,0.54545,0.05,2.4025e-06,24.008,1.8448e-06,13.861,7.8009e-14,5.6917e-07,-1.8448e-06,-13.861,0.38298
10132,8.5897,0.27273,0,0.00034414,3439,0.00011805,53.756,0.00011089,-0.045853,-0.00034319,-3411.8,0.38117
10133,8.4983,0.36364,0,0.00035268,3524.3,0.0001218,64.97,0.00011314,-0.11765,-0.00035153,-3491.5,0.37417
10134,8.5897,0.36364,0.05,2.5017e-06,25,1.921e-06,14.434,-1.083e-12,-8.9167e-07,-1.921e-06,-14.434,0.38178
10135,8.4983,0.18182,0,0.00034825,3480.1,0.00011773,33.571,0.00011325,-0.04985,-0.00034767,-3463.2,0.37288
10136,8.5897,0.18182,0.05,2.6013e-06,25.995,1.9975e-06,15.008,-9.1824e-13,1.209e-07,-1.9975e-06,-15.008,0.38049
10137,8.5897,0.090909,0,0.00033999,3397.5,0.00011384,19.724,0.00011121,-0.036681,-0.00033965,-3387.6,0.37984
10138,8.4069,5.7273,0,0.00035679,3565.5,0.00012148,44.749,0.00011551,-0.049605,-0.00035601,-3542.9,0.36595
10139,8.3155,5.8182,0,0.00036061,3603.6,0.00012132,27.806,0.00011762,-0.059428,-0.00036013,-3589.6,0.35778
10140,8.4069,5.8182,0.05,2.1986e-06,21.971,1.6882e-06,12.685,-4.8152e-14,6.0232e-07,-1.6882e-06,-12.685,0.36528
10141,8.4069,5.9091,0,0.0003534,3531.5,0.000118,16.551,0.0001158,-0.025297,-0.00035311,-3523.2,0.36463
10142,8.4069,5.5455,0,0.00036094,3606.9,0.00012488,69.255,0.00011566,-0.040533,-0.00035971,-3571.8,0.3672
10143,8.3155,5.6364,0,0.0003642,3639.5,0.00012464,53.413,0.00011752,-0.099167,-0.00036326,-3612.5,0.35907
10144,8.4069,5.6364,0.05,2.2056e-06,22.04,1.6936e-06,12.725,-3.0953e-14,1.2291e-06,-1.6936e-06,-12.725,0.36656
10145,8.4069,5.3636,0,0.00036537,3651.2,0.00012772,85.802,0.0001163,-0.0028943,-0.00036383,-3607.5,0.36836
10146,8.3155,5.4545,0,0.00036805,3677.9,0.00012742,71.571,0.00011789,0.016003,-0.00036678,-3641.6,0.36027
10147,8.4069,5.4545,0.05,2.1287e-06,21.272,1.6346e-06,12.282,1.8384e-12,2.0329e-06,-1.6346e-06,-12.282,0.36776
10148,8.4069,5.1818,0,0.00037001,3697.6,0.00012998,94.57,0.00011739,-0.04284,-0.00036831,-3649.4,0.36944
10149,8.3155,5.2727,0,0.0003721,3718.4,0.00012965,82.308,0.00011869,-0.0237,-0.00037063,-3676.6,0.36139
10150,8.4069,5.2727,0.05,2.0269e-06,20.255,1.5564e-06,11.694,1.074e-13,1.8411e-06,-1.5564e-06,-11.694,0.36888
10151,8.4069,5,0,0.00037476,3745,0.00013165,95.775,0.00011889,-0.088688,-0.00037304,-3696.2,0.37043
10152,8.3155,5.0909,0,0.00037627,3760.1,0.00013132,85.838,0.00011989,-0.057855,-0.00037474,-3716.5,0.36242
10153,8.4069,5.0909,0.05,1.9051e-06,19.038,1.4629e-06,10.991,1.9502e-13,3.4512e-06,-1.4629e-06,-10.991,0.36992
10154,8.4069,4.8182,0,0.00037949,3792.3,0.00013271,89.746,0.00012075,-0.15448,-0.00037789,-3746.7,0.37133
10155,8.3155,4.9091,0,0.00038045,3801.9,0.00013242,82.413,0.00012144,-0.11447,-0.00037899,-3760.1,0.36336
10156,8.4069,4.9091,0.05,1.7669e-06,17.657,1.3568e-06,10.194,3.5132e-13,6.681e-06,-1.3568e-06,-10.194,0.37086
10157,8.4069,4.6364,0,0.00038408,3838.2,0.00013318,77.092,0.00012289,-0.2472,-0.00038272,-3799.2,0.37215
10158,8.3155,4.7273,0,0.00038455,3842.8,0.00013295,72.519,0.00012328,-0.19415,-0.00038327,-3806.2,0.36422
10159,8.4069,4.7273,0.05,1.6167e-06,16.156,1.2414e-06,9.3275,6.2921e-13,1.5603e-05,-1.2414e-06,-9.3275,0.37173
10160,8.4069,4.4545,0,0.00038842,3881.6,0.0001331,58.824,0.00012522,-0.39514,-0.0003874,-3852,0.37288
10161,8.3155,4.5455,0,0.00038845,3881.8,0.00013295,56.962,0.00012533,-0.32081,-0.00038746,-3853.2,0.36499
10162,8.4069,4.5455,0.05,1.4589e-06,14.579,1.1203e-06,8.4171,1.973e-12,8.3771e-06,-1.1203e-06,-8.4171,0.3725
10163,8.4069,4.2727,0,0.00039242,3921.5,0.00013258,36.461,0.00012763,-0.70145,-0.0003918,-3903.5,0.37352
10164,8.3155,4.3636,0,0.00039207,3918,0.0001325,36.979,0.0001275,-0.5736,-0.00039144,-3899.7,0.36567
10165,8.4069,4.3636,0.05,1.2972e-06,12.963,9.9609e-07,7.4842,3.2257e-12,2.1486e-05,-9.9608e-07,-7.4842,0.37318
10166,8.4069,4.0909,0,0.00039602,3957.4,0.00013184,12.657,0.00012989,-2.0168,-0.00039583,-3952.1,0.37407
10167,8.3155,4.1818,0,0.00039535,3950.8,0.00013177,14.662,0.00012961,-1.5196,-0.00039513,-3944.2,0.36626
10168,8.4069,4.1818,0.05,1.1338e-06,11.331,8.7065e-07,6.5417,4.0854e-13,2.6154e-05,-8.7065e-07,-6.5417,0.37378
10169,8.4069,3.9091,0,0.00039916,3988.8,0.00013265,1.4168,0.00013029,-16.318,-0.00039941,-3996.2,0.37454
10170,8.3155,4,0,0.00039825,3979.7,0.0001322,1.6365,0.00013026,-12.983,-0.00039844,-3985.4,0.36677
10171,8.4069,4,0.05,9.7018e-07,9.6951,7.4498e-07,5.5975,3.7795e-12,3.0649e-05,-7.4498e-07,-5.5975,0.37429
10172,8.4069,3.7273,0,0.00040181,4015.3,0.00013458,0.48328,0.00012928,-39.309,-0.00040246,-4034.6,0.37492
10173,8.3155,3.8182,0,0.00040073,4004.5,0.00013405,0.51579,0.00012923,-35.672,-0.00040132,-4022,0.36719
10174,8.4069,3.8182,0.05,8.079e-07,8.0734,6.2037e-07,4.6612,4.7157e-13,4.9685e-06,-6.2037e-07,-4.6612,0.37471
10175,8.4069,3.5455,0,0.00040394,4036.6,0.00013626,0.23893,0.0001283,-59.556,-0.00040492,-4066,0.37521
10176,8.3155,3.6364,0,0.00040277,4025,0.00013574,0.25546,0.00012815,-56.741,-0.0004037,-4052.9,0.36753
10177,8.4069,3.6364,0.05,6.5046e-07,6.5001,4.9947e-07,3.7528,3.7401e-12,3.1308e-05,-4.9947e-07,-3.7528,0.37505
10178,8.4069,3.3636,0,0.00040551,4052.3,0.00013753,0.13247,0.00012752,-75.067,-0.00040673,-4089.2,0.37542
10179,8.3155,3.4545,0,0.00040435,4040.7,0.00013709,0.14209,0.00012723,-73.946,-0.00040555,-4077.1,0.36778
10180,8.4069,3.4545,0.05,5.0417e-07,5.0382,3.8714e-07,2.9088,2.8926e-12,5.3445e-05,-3.8714e-07,-2.9088,0.3753
10181,8.4069,3.1818,0,0.00040647,4061.9,0.00013832,0.082917,0.00012703,-84.765,-0.00040784,-4103.6,0.37555
10182,8.3155,3.2727,0,0.00040542,4051.4,0.00013804,0.085178,0.00012657,-86.049,-0.00040682,-4093.7,0.36795
10183,8.4069,3.2727,0.05,3.8059e-07,3.8032,2.9224e-07,2.1958,-7.6575e-13,-8.2763e-06,-2.9224e-07,-2.1958,0.37547
10184,8.4069,3,0,0.00040679,4065.1,0.00013859,0.068154,0.00012686,-88.06,-0.00040822,-4108.4,0.37559
10185,8.3155,3.0909,0,0.00040597,4056.9,0.00013852,0.060556,0.00012623,-92.283,-0.00040746,-4102.2,0.36803
10186,8.4069,3.0909,0.05,3.0274e-07,3.0253,2.3247e-07,1.7467,8.7788e-13,4.479e-06,-2.3246e-07,-1.7466,0.37556
10187,8.4069,2.8182,0,0.00040647,4061.9,0.00013832,0.082918,0.00012703,-84.765,-0.00040784,-4103.6,0.37555
10188,8.3155,2.9091,0,0.00040597,4056.9,0.00013852,0.060556,0.00012623,-92.283,-0.00040746,-4102.2,0.36803
10189,8.4069,2.9091,0.05,3.0274e-07,3.0253,2.3248e-07,1.7467,1.8424e-12,7.7485e-06,-2.3246e-07,-1.7466,0.37556
10190,8.4069,2.6364,0,0.00040551,4052.3,0.00013753,0.13247,0.00012752,-75.067,-0.00040673,-4089.2,0.37542
10191,8.3155,2.7273,0,0.00040542,4051.4,0.00013804,0.085178,0.00012657,-86.049,-0.00040682,-4093.7,0.36795
10192,8.4069,2.7273,0.05,3.8059e-07,3.8032,2.9224e-07,2.1958,2.2048e-12,-5.0819e-06,-2.9224e-07,-2.1958,0.37547
10193,8.4069,2.4545,0,0.00040394,4036.6,0.00013626,0.23893,0.0001283,-59.556,-0.00040492,-4066,0.37521
10194,8.3155,2.5455,0,0.00040435,4040.7,0.00013709,0.14209,0.00012723,-73.946,-0.00040555,-4077.1,0.36778
10195,8.4069,2.5455,0.05,5.0417e-07,5.0382,3.8714e-07,2.9088,6.5047e-12,8.3412e-05,-3.8714e-07,-2.9088,0.3753
10196,8.4069,2.2727,0,0.00040181,4015.3,0.00013458,0.48329,0.00012928,-39.309,-0.00040246,-4034.6,0.37492
10197,8.3155,2.3636,0,0.00040277,4025,0.00013574,0.25546,0.00012815,-56.741,-0.0004037,-4052.9,0.36753
10198,8.4069,2.3636,0.05,6.5046e-07,6.5001,4.9947e-07,3.7528,3.7189e-12,0.0001225,-4.9947e-07,-3.7528,0.37505
10199,8.4069,2.0909,0,0.00039916,3988.8,0.00013265,1.4168,0.00013029,-16.318,-0.00039941,-3996.2,0.37454
10200,8.3155,2.1818,0,0.00040073,4004.5,0.00013405,0.51579,0.00012923,-35.673,-0.00040132,-4022,0.36719
10201,8.4069,2.1818,0.05,8.079e-07,8.0734,6.2037e-07,4.6612,7.0889e-12,3.3129e-05,-6.2037e-07,-4.6612,0.37471
10202,8.4069,1.9091,0,0.00039602,3957.4,0.00013184,12.657,0.00012989,-2.0168,-0.00039583,-3952.1,0.37407
10203,8.3155,2,0,0.00039825,3979.7,0.0001322,1.6365,0.00013026,-12.983,-0.00039844,-3985.4,0.36677
10204,8.4069,2,0.05,9.7018e-07,9.6951,7.4498e-07,5.5975,9.3139e-12,8.0538e-05,-7.4498e-07,-5.5975,0.37429
10205,8.4069,1.7273,0,0.00039242,3921.5,0.00013258,36.461,0.00012763,-0.70145,-0.0003918,-3903.5,0.37352
10206,8.3155,1.8182,0,0.00039535,3950.8,0.00013177,14.662,0.00012961,-1.5196,-0.00039513,-3944.2,0.36626
10207,8.4069,1.8182,0.05,1.1338e-06,11.331,8.7065e-07,6.5417,3.0614e-12,6.9701e-05,-8.7065e-07,-6.5417,0.37378
10208,8.4069,1.5455,0,0.00038842,3881.6,0.0001331,58.824,0.00012522,-0.39514,-0.0003874,-3852,0.37288
10209,8.3155,1.6364,0,0.00039207,3918,0.0001325,36.978,0.0001275,-0.5736,-0.00039144,-3899.7,0.36567
10210,8.4069,1.6364,0.05,1.2972e-06,12.963,9.9609e-07,7.4842,3.8197e-12,4.2614e-05,-9.9609e-07,-7.4842,0.37318
10211,8.4069,1.3636,0,0.00038408,3838.2,0.00013318,77.092,0.00012289,-0.2472,-0.00038272,-3799.2,0.37215
10212,8.3155,1.4545,0,0.00038845,3881.8,0.00013295,56.962,0.00012533,-0.32081,-0.00038746,-3853.2,0.36499
10213,8.4069,1.4545,0.05,1.4589e-06,14.579,1.1203e-06,8.4171,4.5602e-12,2.3202e-05,-1.1203e-06,-8.4171,0.3725
10214,8.4069,1.1818,0,0.00037949,3792.3,0.00013271,89.746,0.00012075,-0.15447,-0.00037789,-3746.7,0.37133
10215,8.3155,1.2727,0,0.00038455,3842.8,0.00013295,72.519,0.00012328,-0.19415,-0.00038327,-3806.2,0.36422
10216,8.4069,1.2727,0.05,1.6167e-06,16.156,1.2414e-06,9.3275,6.0105e-13,2.3823e-05,-1.2414e-06,-9.3275,0.37173
10217,8.4069,1,0,0.00037476,3745,0.00013165,95.775,0.00011889,-0.088687,-0.00037304,-3696.2,0.37043
10218,8.3155,1.0909,0,0.00038045,3801.9,0.00013242,82.413,0.00012144,-0.11447,-0.00037899,-3760.1,0.36336
10219,8.4069,1.0909,0.05,1.7669e-06,17.657,1.3568e-06,10.194,-1.7734e-12,1.2496e-05,-1.3568e-06,-10.194,0.37086
10220,8.4069,0.81818,0,0.00037001,3697.6,0.00012998,94.57,0.00011739,-0.042839,-0.00036831,-3649.4,0.36944
10221,8.3155,0.90909,0,0.00037627,3760.1,0.00013132,85.838,0.00011989,-0.057854,-0.00037474,-3716.5,0.36242
10222,8.4069,0.90909,0.05,1.9051e-06,19.038,1.4629e-06,10.991,-2.3113e-12,8.9046e-06,-1.4629e-06,-10.991,0.36992
10223,8.4069,0.63636,0,0.00036537,3651.2,0.00012772,85.802,0.0001163,-0.0028934,-0.00036383,-3607.5,0.36836
10224,8.3155,0.72727,0,0.0003721,3718.4,0.00012965,82.308,0.00011869,-0.023699,-0.00037063,-3676.6,0.36139
10225,8.4069,0.72727,0.05,2.0269e-06,20.255,1.5564e-06,11.694,-1.2585e-12,2.1552e-06,-1.5564e-06,-11.694,0.36888
10226,8.4069,0.45455,0,0.00036094,3606.9,0.00012488,69.255,0.00011566,-0.040532,-0.00035971,-3571.8,0.3672
10227,8.3155,0.54545,0,0.00036805,3677.9,0.00012742,71.571,0.00011789,0.016003,-0.00036678,-3641.6,0.36027
10228,8.4069,0.54545,0.05,2.1287e-06,21.272,1.6346e-06,12.282,7.5521e-14,6.2206e-07,-1.6346e-06,-12.282,0.36776
10229,8.4069,0.27273,0,0.00035679,3565.5,0.00012148,44.749,0.00011551,-0.049604,-0.00035601,-3542.9,0.36595
10230,8.3155,0.36364,0,0.0003642,3639.5,0.00012464,53.413,0.00011752,-0.099166,-0.00036326,-3612.5,0.35907
10231,8.4069,0.36364,0.05,2.2056e-06,22.04,1.6936e-06,12.725,-3.7666e-12,-2.7989e-07,-1.6936e-06,-12.725,0.36656
10232,8.3155,0.18182,0,0.00036061,3603.6,0.00012132,27.806,0.00011762,-0.059427,-0.00036013,-3589.6,0.35778
10233,8.4069,0.18182,0.05,2.1986e-06,21.971,1.6882e-06,12.685,-2.1669e-13,-2.6792e-07,-1.6882e-06,-12.685,0.36528
10234,8.4069,0.090909,0,0.0003534,3531.5,0.000118,16.551,0.0001158,-0.025296,-0.00035311,-3523.2,0.36463
10235,8.2241,5.7273,0,0.00036801,3677.6,0.00012448,36.409,0.00011963,-0.04589,-0.00036738,-3659.3,0.35098
10236,8.1328,5.8182,0,0.00037163,3713.7,0.00012452,22.549,0.00012151,-0.056353,-0.00037124,-3702.4,0.34293
10237,8.2241,5.8182,0.05,1.8647e-06,18.634,1.4319e-06,10.758,-4.8724e-14,8.861e-07,-1.4319e-06,-10.758,0.3503
10238,8.2241,5.9091,0,0.00036529,3650.3,0.00012168,13.649,0.00011987,-0.012552,-0.00036505,-3643.5,0.34965
10239,8.2241,5.5455,0,0.00037131,3710.6,0.00012718,55.776,0.00011976,-0.031334,-0.00037033,-3682.4,0.35222
10240,8.1328,5.6364,0,0.00037447,3742.1,0.00012714,42.696,0.00012145,-0.079486,-0.00037372,-3720.6,0.34421
10241,8.2241,5.6364,0.05,1.9626e-06,19.612,1.507e-06,11.323,-3.0734e-14,7.2105e-07,-1.507e-06,-11.323,0.35158
10242,8.2241,5.3636,0,0.00037479,3745.3,0.00012936,68.169,0.00012029,0.00079638,-0.00037358,-3710.8,0.35338
10243,8.1328,5.4545,0,0.00037748,3772.2,0.00012927,56.44,0.00012176,0.015604,-0.00037649,-3743.6,0.34541
10244,8.2241,5.4545,0.05,1.9064e-06,19.051,1.4639e-06,10.999,1.5196e-14,1.0677e-06,-1.4639e-06,-10.999,0.35278
10245,8.2241,5.1818,0,0.00037838,3781.1,0.00013101,73.697,0.00012119,-0.034428,-0.00037707,-3743.8,0.35445
10246,8.1328,5.2727,0,0.0003806,3803.4,0.00013091,63.698,0.00012243,-0.018456,-0.00037948,-3771.2,0.34653
10247,8.2241,5.2727,0.05,1.8238e-06,18.225,1.4004e-06,10.522,1.0575e-13,7.7622e-07,-1.4004e-06,-10.522,0.3539
10248,8.2241,5,0,0.00038199,3817.2,0.00013211,72.61,0.00012244,-0.078991,-0.0003807,-3780.5,0.35544
10249,8.1328,5.0909,0,0.00038377,3835.1,0.00013204,64.661,0.00012342,-0.052236,-0.00038263,-3802.4,0.34755
10250,8.2241,5.0909,0.05,1.7241e-06,17.229,1.3239e-06,9.947,4.1878e-13,3.3934e-06,-1.3239e-06,-9.947,0.35493
10251,8.2241,4.8182,0,0.00038554,3852.7,0.00013268,65.321,0.00012397,-0.14751,-0.00038439,-3819.7,0.35633
10252,8.1328,4.9091,0,0.00038691,3866.4,0.00013266,59.632,0.0001247,-0.11111,-0.00038586,-3836.3,0.34849
10253,8.2241,4.9091,0.05,1.6103e-06,16.092,1.2365e-06,9.2908,3.659e-13,2.5114e-06,-1.2365e-06,-9.2908,0.35587
10254,8.2241,4.6364,0,0.00038894,3886.7,0.00013274,52.509,0.00012572,-0.25555,-0.00038802,-3860.3,0.35714
10255,8.1328,4.7273,0,0.00038993,3896.6,0.00013279,49.153,0.00012622,-0.2039,-0.00038907,-3871.9,0.34935
10256,8.2241,4.7273,0.05,1.4852e-06,14.842,1.1405e-06,8.5691,5.494e-13,3.8997e-06,-1.1405e-06,-8.5691,0.35672
10257,8.2241,4.4545,0,0.00039212,3918.5,0.00013236,35.2,0.00012761,-0.46756,-0.00039151,-3901,0.35787
10258,8.1328,4.5455,0,0.00039277,3925,0.00013248,34.065,0.00012789,-0.38356,-0.00039219,-3908,0.35011
10259,8.2241,4.5455,0.05,1.3513e-06,13.504,1.0377e-06,7.7966,-1.0217e-12,1.41e-05,-1.0377e-06,-7.7966,0.35749
10260,8.2241,4.2727,0,0.00039502,3947.4,0.00013167,15.085,0.00012951,-1.2041,-0.00039478,-3940.5,0.3585
10261,8.1328,4.3636,0,0.00039538,3951.1,0.00013184,15.75,0.00012961,-0.96391,-0.00039513,-3943.6,0.35079
10262,8.2241,4.3636,0.05,1.2104e-06,12.096,9.2944e-07,6.9835,8.7625e-13,3.9491e-05,-9.2944e-07,-6.9834,0.35817
10263,8.2241,4.0909,0,0.0003976,3973.2,0.00013187,1.7318,0.00013024,-10.504,-0.00039774,-3977.6,0.35905
10264,8.1328,4.1818,0,0.00039772,3974.4,0.00013182,1.9165,0.00013046,-8.327,-0.00039782,-3977.6,0.35138
10265,8.2241,4.1818,0.05,1.0633e-06,10.626,8.165e-07,6.1349,9.6598e-13,6.8517e-06,-8.165e-07,-6.1349,0.35876
10266,8.2241,3.9091,0,0.00039983,3995.5,0.00013357,0.51686,0.00012924,-32.069,-0.00040036,-4011.2,0.35951
10267,8.1328,4,0,0.00039976,3994.8,0.00013339,0.52738,0.00012947,-28.928,-0.00040023,-4008.9,0.35188
10268,8.2241,4,0.05,9.104e-07,9.0977,6.9907e-07,5.2525,5.3842e-12,6.605e-06,-6.9907e-07,-5.2525,0.35927
10269,8.2241,3.7273,0,0.0004017,4014.2,0.0001352,0.25916,0.00012811,-53.045,-0.00040257,-4040.3,0.35989
10270,8.1328,3.8182,0,0.00040148,4012.1,0.00013497,0.26627,0.0001283,-49.881,-0.0004023,-4036.6,0.3523
10271,8.2241,3.8182,0.05,7.5194e-07,7.5143,5.774e-07,4.3384,8.874e-12,5.0631e-05,-5.774e-07,-4.3384,0.35969
10272,8.2241,3.5455,0,0.00040318,4029,0.00013657,0.14655,0.00012709,-71.105,-0.00040434,-4064,0.36018
10273,8.1328,3.6364,0,0.00040289,4026.1,0.00013636,0.15346,0.00012719,-68.712,-0.00040401,-4060,0.35263
10274,8.2241,3.6364,0.05,5.8882e-07,5.8841,4.5214e-07,3.3972,1.2031e-13,5.5831e-05,-4.5214e-07,-3.3972,0.36002
10275,8.2241,3.3636,0,0.00040426,4039.8,0.0001376,0.086869,0.00012628,-84.92,-0.00040564,-4081.6,0.36039
10276,8.1328,3.4545,0,0.00040396,4036.8,0.00013746,0.091753,0.00012626,-84.033,-0.00040533,-4078.2,0.35288
10277,8.2241,3.4545,0.05,4.224e-07,4.2211,3.2435e-07,2.4371,7.0058e-12,5.9169e-05,-3.2435e-07,-2.4371,0.36027
10278,8.2241,3.1818,0,0.00040492,4046.4,0.00013824,0.056357,0.00012578,-93.569,-0.00040643,-4092.4,0.36051
10279,8.1328,3.2727,0,0.00040469,4044.1,0.00013822,0.057162,0.00012559,-94.814,-0.00040622,-4090.6,0.35305
10280,8.2241,3.2727,0.05,2.5426e-07,2.5408,1.9523e-07,1.4669,3.6561e-12,9.1216e-05,-1.9524e-07,-1.4669,0.36044
10281,8.2241,3,0,0.00040514,4048.6,0.00013845,0.046891,0.0001256,-96.511,-0.0004067,-4096,0.36056
10282,8.1328,3.0909,0,0.00040506,4047.8,0.00013861,0.041352,0.00012525,-100.37,-0.00040667,-4097,0.35313
10283,8.2241,3.0909,0.05,8.6196e-08,0.86137,6.6185e-08,0.49731,3.39e-12,0.00011922,-6.6191e-08,-0.49731,0.36052
10284,8.2241,2.8182,0,0.00040492,4046.4,0.00013824,0.056357,0.00012578,-93.569,-0.00040643,-4092.4,0.36051
10285,8.1328,2.9091,0,0.00040506,4047.8,0.00013861,0.041352,0.00012525,-100.37,-0.00040667,-4097,0.35313
10286,8.2241,2.9091,0.05,8.6196e-08,0.86137,6.6185e-08,0.49731,3.521e-12,0.00012016,-6.6191e-08,-0.49732,0.36052
10287,8.2241,2.6364,0,0.00040426,4039.8,0.0001376,0.086869,0.00012628,-84.92,-0.00040564,-4081.6,0.36039
10288,8.1328,2.7273,0,0.00040469,4044.1,0.00013822,0.057162,0.00012559,-94.814,-0.00040622,-4090.6,0.35305
10289,8.2241,2.7273,0.05,2.5426e-07,2.5408,1.9523e-07,1.4669,3.5524e-12,0.00012045,-1.9524e-07,-1.4669,0.36044
10290,8.2241,2.4545,0,0.00040318,4029,0.00013657,0.14655,0.00012709,-71.105,-0.00040434,-4064,0.36018
10291,8.1328,2.5455,0,0.00040396,4036.8,0.00013746,0.091753,0.00012626,-84.033,-0.00040533,-4078.2,0.35288
10292,8.2241,2.5455,0.05,4.224e-07,4.2211,3.2435e-07,2.4371,6.8071e-12,5.8048e-05,-3.2435e-07,-2.4371,0.36027
10293,8.2241,2.2727,0,0.0004017,4014.2,0.0001352,0.25916,0.00012811,-53.045,-0.00040257,-4040.3,0.35989
10294,8.1328,2.3636,0,0.00040289,4026.1,0.00013636,0.15346,0.00012719,-68.712,-0.00040401,-4060,0.35263
10295,8.2241,2.3636,0.05,5.8882e-07,5.8841,4.5214e-07,3.3972,5.9741e-12,5.5094e-05,-4.5214e-07,-3.3972,0.36002
10296,8.2241,2.0909,0,0.00039983,3995.5,0.00013357,0.51686,0.00012924,-32.069,-0.00040036,-4011.2,0.35951
10297,8.1328,2.1818,0,0.00040148,4012.1,0.00013497,0.26627,0.0001283,-49.881,-0.0004023,-4036.6,0.3523
10298,8.2241,2.1818,0.05,7.5194e-07,7.5143,5.774e-07,4.3384,8.2446e-12,7.3384e-05,-5.774e-07,-4.3384,0.35969
10299,8.2241,1.9091,0,0.0003976,3973.2,0.00013187,1.7318,0.00013024,-10.504,-0.00039774,-3977.6,0.35905
10300,8.1328,2,0,0.00039976,3994.8,0.00013339,0.52738,0.00012947,-28.928,-0.00040023,-4008.9,0.35188
10301,8.2241,2,0.05,9.104e-07,9.0977,6.9907e-07,5.2525,6.2555e-12,4.6195e-05,-6.9907e-07,-5.2525,0.35927
10302,8.2241,1.7273,0,0.00039502,3947.4,0.00013167,15.085,0.00012951,-1.2041,-0.00039478,-3940.5,0.3585
10303,8.1328,1.8182,0,0.00039772,3974.4,0.00013182,1.9164,0.00013046,-8.3271,-0.00039782,-3977.6,0.35138
10304,8.2241,1.8182,0.05,1.0633e-06,10.626,8.165e-07,6.1349,1.0546e-12,6.9849e-05,-8.165e-07,-6.1349,0.35876
10305,8.2241,1.5455,0,0.00039212,3918.5,0.00013236,35.2,0.00012761,-0.46756,-0.00039151,-3901,0.35787
10306,8.1328,1.6364,0,0.00039538,3951.1,0.00013184,15.75,0.00012961,-0.96391,-0.00039513,-3943.6,0.35079
10307,8.2241,1.6364,0.05,1.2104e-06,12.096,9.2944e-07,6.9835,-1.3783e-12,4.4453e-05,-9.2944e-07,-6.9834,0.35817
10308,8.2241,1.3636,0,0.00038894,3886.7,0.00013274,52.509,0.00012572,-0.25555,-0.00038802,-3860.3,0.35714
10309,8.1328,1.4545,0,0.00039277,3925,0.00013248,34.065,0.00012789,-0.38356,-0.00039219,-3908,0.35011
10310,8.2241,1.4545,0.05,1.3513e-06,13.504,1.0377e-06,7.7966,-1.0313e-12,2.5741e-05,-1.0377e-06,-7.7966,0.35749
10311,8.2241,1.1818,0,0.00038554,3852.7,0.00013268,65.321,0.00012397,-0.14751,-0.00038439,-3819.7,0.35633
10312,8.1328,1.2727,0,0.00038993,3896.6,0.00013279,49.153,0.00012622,-0.2039,-0.00038907,-3871.9,0.34935
10313,8.2241,1.2727,0.05,1.4852e-06,14.842,1.1405e-06,8.5691,1.5046e-12,1.8806e-05,-1.1405e-06,-8.5691,0.35672
10314,8.2241,1,0,0.00038199,3817.2,0.00013211,72.61,0.00012244,-0.07899,-0.0003807,-3780.5,0.35544
10315,8.1328,1.0909,0,0.00038691,3866.4,0.00013266,59.632,0.0001247,-0.11111,-0.00038586,-3836.3,0.34849
10316,8.2241,1.0909,0.05,1.6103e-06,16.092,1.2365e-06,9.2908,2.7534e-14,9.4769e-06,-1.2365e-06,-9.2908,0.35587
10317,8.2241,0.81818,0,0.00037838,3781.1,0.00013101,73.697,0.00012119,-0.034426,-0.00037707,-3743.8,0.35445
10318,8.1328,0.90909,0,0.00038377,3835.1,0.00013204,64.661,0.00012342,-0.052235,-0.00038263,-3802.4,0.34755
10319,8.2241,0.90909,0.05,1.7241e-06,17.229,1.3239e-06,9.947,-5.2629e-13,7.1172e-06,-1.3239e-06,-9.947,0.35493
10320,8.2241,0.63636,0,0.00037479,3745.3,0.00012936,68.169,0.00012029,0.00079744,-0.00037358,-3710.8,0.35338
10321,8.1328,0.72727,0,0.0003806,3803.4,0.00013091,63.698,0.00012243,-0.018455,-0.00037948,-3771.2,0.34653
10322,8.2241,0.72727,0.05,1.8238e-06,18.225,1.4004e-06,10.522,4.9931e-13,1.9746e-06,-1.4004e-06,-10.522,0.3539
10323,8.2241,0.45455,0,0.00037131,3710.6,0.00012718,55.776,0.00011976,-0.031333,-0.00037033,-3682.4,0.35222
10324,8.1328,0.54545,0,0.00037748,3772.2,0.00012927,56.44,0.00012176,0.015604,-0.00037649,-3743.6,0.34541
10325,8.2241,0.54545,0.05,1.9064e-06,19.051,1.4639e-06,10.999,8.4223e-14,6.337e-07,-1.4639e-06,-10.999,0.35278
10326,8.2241,0.27273,0,0.00036801,3677.6,0.00012448,36.409,0.00011963,-0.045889,-0.00036738,-3659.3,0.35098
10327,8.1328,0.36364,0,0.00037447,3742.1,0.00012714,42.696,0.00012145,-0.079485,-0.00037372,-3720.6,0.34421
10328,8.2241,0.36364,0.05,1.9626e-06,19.612,1.507e-06,11.323,-1.0683e-13,-1.3672e-06,-1.507e-06,-11.323,0.35158
10329,8.1328,0.18182,0,0.00037163,3713.7,0.00012452,22.549,0.00012151,-0.056352,-0.00037124,-3702.4,0.34293
10330,8.2241,0.18182,0.05,1.8647e-06,18.634,1.4319e-06,10.758,-9.5187e-14,9.0876e-07,-1.4319e-06,-10.758,0.3503
10331,8.2241,0.090909,0,0.00036529,3650.3,0.00012168,13.649,0.00011987,-0.012551,-0.00036505,-3643.5,0.34965
10332,8.0414,5.7273,0,0.00037808,3778.1,0.00012717,28.764,0.00012333,-0.037619,-0.00037758,-3763.7,0.33625
10333,7.95,5.8182,0,0.00038156,3812.9,0.0001274,17.771,0.00012503,-0.045799,-0.00038125,-3804,0.32832
10334,8.0414,5.8182,0.05,1.5921e-06,15.91,1.2225e-06,9.1856,-5.107e-14,6.1986e-07,-1.2225e-06,-9.1856,0.33557
10335,8.0414,5.9091,0,0.00037594,3756.8,0.00012498,11.008,0.00012351,0.00061002,-0.00037575,-3751.3,0.33492
10336,8.0414,5.5455,0,0.00038063,3803.7,0.00012923,43.377,0.00012345,-0.022684,-0.00037988,-3781.9,0.33749
10337,7.95,5.6364,0,0.00038373,3834.7,0.00012938,32.859,0.00012499,-0.059934,-0.00038316,-3818.2,0.32961
10338,8.0414,5.6364,0.05,1.7652e-06,17.64,1.3554e-06,10.184,-2.4206e-14,1.0089e-06,-1.3554e-06,-10.184,0.33685
10339,8.0414,5.3636,0,0.0003833,3830.4,0.00013083,52.016,0.0001239,0.0015069,-0.00038239,-3804.1,0.33865
10340,7.95,5.4545,0,0.00038602,3857.6,0.00013094,42.558,0.00012528,0.013719,-0.00038528,-3836.1,0.33081
10341,8.0414,5.4545,0.05,1.7273e-06,17.261,1.3264e-06,9.9659,3.0996e-14,2.0808e-06,-1.3264e-06,-9.9659,0.33805
10342,8.0414,5.1818,0,0.00038601,3857.5,0.00013195,54.727,0.00012466,-0.032071,-0.00038505,-3829.8,0.33971
10343,7.95,5.2727,0,0.00038837,3881.1,0.00013206,46.704,0.00012584,-0.017877,-0.00038756,-3857.5,0.33192
10344,8.0414,5.2727,0.05,1.6617e-06,16.605,1.2759e-06,9.587,9.8851e-14,1.2443e-06,-1.276e-06,-9.587,0.33916
10345,8.0414,5,0,0.00038871,3884.4,0.00013259,51.754,0.00012569,-0.079559,-0.0003878,-3858.3,0.3407
10346,7.95,5.0909,0,0.00039072,3904.5,0.00013273,45.456,0.00012668,-0.055389,-0.00038993,-3881.6,0.33294
10347,8.0414,5.0909,0.05,1.581e-06,15.8,1.214e-06,9.1218,2.0198e-13,1.506e-06,-1.214e-06,-9.1219,0.34019
10348,8.0414,4.8182,0,0.00039131,3910.4,0.00013277,43.534,0.00012696,-0.16019,-0.00039056,-3888.5,0.34159
10349,7.95,4.9091,0,0.00039301,3927.3,0.00013296,39.126,0.00012774,-0.12556,-0.00039233,-3907.7,0.33388
10350,8.0414,4.9091,0.05,1.4881e-06,14.871,1.1427e-06,8.5858,3.4423e-13,2.3626e-06,-1.1427e-06,-8.5858,0.34113
10351,8.0414,4.6364,0,0.00039377,3935,0.00013253,30.765,0.00012839,-0.31637,-0.00039325,-3919.7,0.3424
10352,7.95,4.7273,0,0.00039517,3949,0.00013278,28.276,0.00012898,-0.26199,-0.00039469,-3934.9,0.33473
10353,8.0414,4.7273,0.05,1.3847e-06,13.837,1.0633e-06,7.9889,4.7218e-13,2.8903e-06,-1.0633e-06,-7.9889,0.34198
10354,8.0414,4.4545,0,0.00039604,3957.7,0.00013195,14.613,0.0001299,-0.8161,-0.00039581,-3950.8,0.34312
10355,7.95,4.5455,0,0.00039718,3969.1,0.00013226,13.879,0.00013032,-0.6925,-0.00039696,-3962.5,0.33549
10356,8.0414,4.5455,0.05,1.2721e-06,12.713,9.7685e-07,7.3397,-7.9327e-13,4.8424e-06,-9.7685e-07,-7.3397,0.34274
10357,8.0414,4.2727,0,0.00039809,3978.1,0.00013188,1.8091,0.00013067,-7.2639,-0.00039818,-3980.8,0.34375
10358,7.95,4.3636,0,0.000399,3987.2,0.00013213,1.7681,0.00013106,-6.2859,-0.00039908,-3989.5,0.33617
10359,8.0414,4.3636,0.05,1.1516e-06,11.508,8.8427e-07,6.6441,1.5609e-12,1.334e-05,-8.8427e-07,-6.6441,0.34342
10360,8.0414,4.0909,0,0.00039988,3996,0.00013331,0.49649,0.00012972,-26.497,-0.00040032,-4009,0.34429
10361,7.95,4.1818,0,0.0004006,4003.3,0.00013345,0.4766,0.00013013,-24.424,-0.000401,-4015.2,0.33676
10362,8.0414,4.1818,0.05,1.0236e-06,10.229,7.8598e-07,5.9055,2.3844e-12,2.759e-05,-7.8598e-07,-5.9055,0.34401
10363,8.0414,3.9091,0,0.00040141,4011.4,0.00013479,0.2571,0.00012855,-46.693,-0.00040218,-4034.4,0.34475
10364,7.95,4,0,0.00040198,4017,0.00013485,0.25201,0.00012895,-44.077,-0.00040271,-4038.8,0.33726
10365,8.0414,4,0.05,8.8859e-07,8.8798,6.8233e-07,5.1267,4.1288e-12,1.8699e-05,-6.8233e-07,-5.1267,0.34451
10366,8.0414,3.7273,0,0.00040268,4024,0.00013613,0.15248,0.00012739,-65.523,-0.00040375,-4056.3,0.34513
10367,7.95,3.8182,0,0.00040313,4028.5,0.00013615,0.15352,0.00012775,-62.994,-0.00040416,-4059.6,0.33767
10368,8.0414,3.8182,0.05,7.475e-07,7.4698,5.7399e-07,4.3127,2.7194e-12,1.977e-05,-5.7398e-07,-4.3127,0.34493
10369,8.0414,3.5455,0,0.00040367,4034,0.00013724,0.093207,0.00012637,-81.625,-0.000405,-4074.1,0.34542
10370,7.95,3.6364,0,0.00040405,4037.8,0.00013728,0.096278,0.00012664,-79.84,-0.00040535,-4077,0.33801
10371,8.0414,3.6364,0.05,6.0217e-07,6.0175,4.6239e-07,3.4742,6.0386e-12,3.7558e-05,-4.6239e-07,-3.4742,0.34526
10372,8.0414,3.3636,0,0.00040439,4041.1,0.00013808,0.057589,0.00012557,-93.921,-0.00040591,-4087.2,0.34563
10373,7.95,3.4545,0,0.00040475,4044.7,0.00013818,0.060155,0.00012572,-93.501,-0.00040626,-4090.6,0.33825
10374,8.0414,3.4545,0.05,4.5648e-07,4.5616,3.5052e-07,2.6337,1.8413e-13,3.5773e-05,-3.5052e-07,-2.6336,0.34551
10375,8.0414,3.1818,0,0.00040483,4045.5,0.0001386,0.03814,0.00012507,-101.62,-0.00040646,-4095.3,0.34575
10376,7.95,3.2727,0,0.00040522,4049.4,0.0001388,0.038281,0.00012507,-103.11,-0.00040687,-4099.9,0.33842
10377,8.0414,3.2727,0.05,3.1951e-07,3.1929,2.4534e-07,1.8434,5.1976e-12,-7.2823e-07,-2.4534e-07,-1.8434,0.34567
10378,8.0414,3,0,0.00040497,4046.9,0.00013877,0.031926,0.0001249,-104.24,-0.00040664,-4098,0.34579
10379,7.95,3.0909,0,0.00040545,4051.7,0.00013912,0.027875,0.00012473,-108.06,-0.00040718,-4104.6,0.3385
10380,8.0414,3.0909,0.05,2.1889e-07,2.1873,1.6808e-07,1.2629,-3.955e-12,7.9128e-07,-1.6807e-07,-1.2628,0.34575
10381,8.0414,2.8182,0,0.00040483,4045.5,0.0001386,0.03814,0.00012507,-101.62,-0.00040646,-4095.3,0.34575
10382,7.95,2.9091,0,0.00040545,4051.7,0.00013912,0.027875,0.00012473,-108.06,-0.00040718,-4104.6,0.3385
10383,8.0414,2.9091,0.05,2.1889e-07,2.1873,1.6808e-07,1.2629,-4.0949e-12,-1.0978e-06,-1.6807e-07,-1.2628,0.34575
10384,8.0414,2.6364,0,0.00040439,4041.1,0.00013808,0.057589,0.00012557,-93.921,-0.00040591,-4087.2,0.34563
10385,7.95,2.7273,0,0.00040522,4049.4,0.0001388,0.038281,0.00012507,-103.11,-0.00040687,-4099.9,0.33842
10386,8.0414,2.7273,0.05,3.1951e-07,3.1929,2.4534e-07,1.8434,5.0427e-12,-3.4743e-06,-2.4534e-07,-1.8434,0.34567
10387,8.0414,2.4545,0,0.00040367,4034,0.00013724,0.093207,0.00012637,-81.625,-0.000405,-4074.1,0.34542
10388,7.95,2.5455,0,0.00040475,4044.7,0.00013818,0.060155,0.00012572,-93.501,-0.00040626,-4090.6,0.33825
10389,8.0414,2.5455,0.05,4.5648e-07,4.5616,3.5052e-07,2.6337,2.1241e-13,5.0485e-05,-3.5052e-07,-2.6336,0.34551
10390,8.0414,2.2727,0,0.00040268,4024,0.00013613,0.15248,0.00012739,-65.523,-0.00040375,-4056.3,0.34513
10391,7.95,2.3636,0,0.00040405,4037.8,0.00013728,0.096279,0.00012664,-79.84,-0.00040535,-4077,0.33801
10392,8.0414,2.3636,0.05,6.0217e-07,6.0175,4.6239e-07,3.4742,5.4551e-12,5.3844e-05,-4.6239e-07,-3.4742,0.34526
10393,8.0414,2.0909,0,0.00040141,4011.4,0.00013479,0.2571,0.00012855,-46.693,-0.00040218,-4034.4,0.34475
10394,7.95,2.1818,0,0.00040313,4028.5,0.00013615,0.15352,0.00012775,-62.994,-0.00040416,-4059.6,0.33767
10395,8.0414,2.1818,0.05,7.475e-07,7.4698,5.7398e-07,4.3127,3.2985e-12,3.646e-05,-5.7399e-07,-4.3127,0.34493
10396,8.0414,1.9091,0,0.00039988,3996,0.00013331,0.49649,0.00012972,-26.497,-0.00040032,-4009,0.34429
10397,7.95,2,0,0.00040198,4017,0.00013485,0.25201,0.00012895,-44.077,-0.00040271,-4038.8,0.33726
10398,8.0414,2,0.05,8.8859e-07,8.8798,6.8233e-07,5.1267,3.8861e-12,3.405e-05,-6.8233e-07,-5.1267,0.34451
10399,8.0414,1.7273,0,0.00039809,3978.1,0.00013188,1.8091,0.00013067,-7.2639,-0.00039818,-3980.8,0.34375
10400,7.95,1.8182,0,0.0004006,4003.3,0.00013345,0.4766,0.00013013,-24.424,-0.000401,-4015.2,0.33676
10401,8.0414,1.8182,0.05,1.0236e-06,10.229,7.8597e-07,5.9055,1.075e-12,3.0357e-05,-7.8598e-07,-5.9055,0.34401
10402,8.0414,1.5455,0,0.00039604,3957.7,0.00013195,14.613,0.0001299,-0.8161,-0.00039581,-3950.8,0.34312
10403,7.95,1.6364,0,0.000399,3987.2,0.00013213,1.7681,0.00013106,-6.2859,-0.00039908,-3989.5,0.33617
10404,8.0414,1.6364,0.05,1.1516e-06,11.508,8.8428e-07,6.6441,3.7098e-12,2.5729e-05,-8.8427e-07,-6.6441,0.34342
10405,8.0414,1.3636,0,0.00039377,3935,0.00013253,30.765,0.00012839,-0.31637,-0.00039325,-3919.7,0.3424
10406,7.95,1.4545,0,0.00039718,3969.1,0.00013226,13.879,0.00013032,-0.6925,-0.00039696,-3962.5,0.33549
10407,8.0414,1.4545,0.05,1.2721e-06,12.713,9.7685e-07,7.3397,-3.6635e-13,2.6968e-05,-9.7685e-07,-7.3396,0.34274
10408,8.0414,1.1818,0,0.00039131,3910.4,0.00013277,43.534,0.00012696,-0.16019,-0.00039056,-3888.5,0.34159
10409,7.95,1.2727,0,0.00039517,3949,0.00013278,28.276,0.00012898,-0.26199,-0.00039469,-3934.9,0.33473
10410,8.0414,1.2727,0.05,1.3847e-06,13.837,1.0633e-06,7.9889,-1.1303e-12,6.6268e-06,-1.0633e-06,-7.9889,0.34198
10411,8.0414,1,0,0.00038871,3884.4,0.00013259,51.754,0.00012569,-0.079558,-0.0003878,-3858.3,0.3407
10412,7.95,1.0909,0,0.00039301,3927.3,0.00013296,39.126,0.00012774,-0.12556,-0.00039233,-3907.7,0.33388
10413,8.0414,1.0909,0.05,1.4881e-06,14.871,1.1427e-06,8.5858,-2.1043e-13,7.8149e-06,-1.1427e-06,-8.5858,0.34113
10414,8.0414,0.81818,0,0.00038601,3857.5,0.00013195,54.727,0.00012466,-0.03207,-0.00038505,-3829.8,0.33971
10415,7.95,0.90909,0,0.00039072,3904.5,0.00013273,45.456,0.00012668,-0.055388,-0.00038993,-3881.6,0.33294
10416,8.0414,0.90909,0.05,1.581e-06,15.8,1.214e-06,9.1219,-6.7535e-13,5.476e-06,-1.214e-06,-9.1218,0.34019
10417,8.0414,0.63636,0,0.0003833,3830.4,0.00013083,52.016,0.0001239,0.0015073,-0.00038239,-3804.1,0.33865
10418,7.95,0.72727,0,0.00038837,3881.1,0.00013206,46.704,0.00012584,-0.017876,-0.00038756,-3857.5,0.33192
10419,8.0414,0.72727,0.05,1.6617e-06,16.605,1.2759e-06,9.587,-1.2865e-12,2.4604e-06,-1.2759e-06,-9.587,0.33916
10420,8.0414,0.45455,0,0.00038063,3803.7,0.00012923,43.377,0.00012345,-0.022683,-0.00037988,-3781.9,0.33749
10421,7.95,0.54545,0,0.00038602,3857.6,0.00013094,42.558,0.00012528,0.013719,-0.00038528,-3836.1,0.33081
10422,8.0414,0.54545,0.05,1.7273e-06,17.261,1.3264e-06,9.966,1.014e-13,3.2873e-07,-1.3264e-06,-9.9659,0.33805
10423,8.0414,0.27273,0,0.00037808,3778.1,0.00012717,28.764,0.00012333,-0.037618,-0.00037758,-3763.7,0.33625
10424,7.95,0.36364,0,0.00038373,3834.7,0.00012938,32.859,0.00012499,-0.059932,-0.00038316,-3818.2,0.32961
10425,8.0414,0.36364,0.05,1.7652e-06,17.64,1.3554e-06,10.184,-7.2335e-14,-3.5841e-07,-1.3554e-06,-10.184,0.33685
10426,7.95,0.18182,0,0.00038156,3812.9,0.0001274,17.771,0.00012503,-0.045797,-0.00038125,-3804,0.32832
10427,8.0414,0.18182,0.05,1.5921e-06,15.91,1.2225e-06,9.1856,-1.7023e-13,1.6574e-06,-1.2225e-06,-9.1856,0.33557
10428,8.0414,0.090909,0,0.00037594,3756.8,0.00012498,11.008,0.00012351,0.00061116,-0.00037575,-3751.3,0.33492
10429,7.8586,5.7273,0,0.00038721,3869.4,0.0001296,21.791,0.00012669,-0.026943,-0.00038683,-3858.5,0.32177
10430,7.7672,5.8182,0,0.00039061,3903.4,0.00013002,13.424,0.00012823,-0.03146,-0.00039038,-3896.7,0.31397
10431,7.8586,5.8182,0.05,1.3731e-06,13.722,1.0544e-06,7.9224,-1.4542e-14,6.3047e-07,-1.0544e-06,-7.9224,0.32109
10432,7.8586,5.9091,0,0.00038558,3853.2,0.00012796,8.6025,0.00012682,0.013554,-0.00038544,-3848.9,0.32044
10433,7.8586,5.5455,0,0.00038912,3888.5,0.00013108,32.039,0.00012682,-0.015106,-0.00038857,-3872.4,0.32301
10434,7.7672,5.6364,0,0.0003922,3919.3,0.00013142,23.872,0.00012824,-0.041503,-0.00039179,-3907.3,0.31526
10435,7.8586,5.6364,0.05,1.6065e-06,16.054,1.2336e-06,9.2686,-1.5386e-14,8.3809e-07,-1.2336e-06,-9.2686,0.32237
10436,7.8586,5.3636,0,0.0003911,3908.3,0.00013217,37.266,0.00012721,-0.0010005,-0.00039045,-3889.5,0.32417
10437,7.7672,5.4545,0,0.00039387,3936,0.00013247,29.869,0.0001285,0.0097982,-0.00039336,-3921,0.31646
10438,7.8586,5.4545,0.05,1.5841e-06,15.83,1.2164e-06,9.1396,3.6463e-14,1.6451e-06,-1.2164e-06,-9.1396,0.32357
10439,7.8586,5.1818,0,0.00039309,3928.2,0.00013285,37.465,0.00012786,-0.037285,-0.00039244,-3909.3,0.32524
10440,7.7672,5.2727,0,0.00039557,3953,0.00013314,31.192,0.00012899,-0.023792,-0.00039503,-3937.3,0.31757
10441,7.8586,5.2727,0.05,1.533e-06,15.319,1.1771e-06,8.8446,9.5701e-14,7.1165e-07,-1.1771e-06,-8.8446,0.32469
10442,7.8586,5,0,0.00039503,3947.6,0.00013311,32.863,0.00012872,-0.097051,-0.00039446,-3931.1,0.32622
10443,7.7672,5.0909,0,0.00039724,3969.6,0.00013343,27.974,0.00012969,-0.074467,-0.00039676,-3955.6,0.3186
10444,7.8586,5.0909,0.05,1.4686e-06,14.676,1.1277e-06,8.4731,1.783e-13,1.3597e-06,-1.1277e-06,-8.4731,0.32571
10445,7.8586,4.8182,0,0.00039688,3966,0.00013298,23.902,0.00012976,-0.2218,-0.00039647,-3954.1,0.32711
10446,7.7672,4.9091,0,0.00039883,3985.6,0.00013334,20.535,0.00013058,-0.18879,-0.00039848,-3975.4,0.31953
10447,7.8586,4.9091,0.05,1.3933e-06,13.924,1.0699e-06,8.0389,-2.8274e-12,1.149e-06,-1.0699e-06,-8.0389,0.32665
10448,7.8586,4.6364,0,0.00039859,3983.2,0.00013252,11.428,0.00013092,-0.64011,-0.00039841,-3977.8,0.32792
10449,7.7672,4.7273,0,0.00040032,4000.4,0.00013294,9.5991,0.00013158,-0.5958,-0.00040017,-3995.9,0.32038
10450,7.8586,4.7273,0.05,1.3084e-06,13.075,1.0047e-06,7.5488,8.1377e-13,5.6779e-06,-1.0047e-06,-7.5488,0.3275
10451,7.8586,4.4545,0,0.00040015,3998.7,0.00013248,1.373,0.00013144,-6.4698,-0.00040023,-4001.2,0.32863
10452,7.7672,4.5455,0,0.00040167,4013.9,0.00013297,1.1136,0.00013195,-6.5609,-0.00040176,-4016.6,0.32114
10453,7.8586,4.5455,0.05,1.2148e-06,12.14,9.3281e-07,7.0088,-1.0059e-12,8.0312e-06,-9.3281e-07,-7.0088,0.32826
10454,7.8586,4.2727,0,0.00040152,4012.4,0.00013369,0.41536,0.00013052,-23.399,-0.00040191,-4023.9,0.32926
10455,7.7672,4.3636,0,0.00040286,4025.8,0.00013409,0.37091,0.00013104,-22.518,-0.00040323,-4036.9,0.32182
10456,7.8586,4.3636,0.05,1.1134e-06,11.126,8.5493e-07,6.4236,8.0673e-13,9.7262e-06,-8.5492e-07,-6.4236,0.32893
10457,7.8586,4.0909,0,0.0004027,4024.3,0.00013499,0.23057,0.00012937,-41.983,-0.0004034,-4045,0.32981
10458,7.7672,4.1818,0,0.00040389,4036.1,0.00013529,0.21507,0.0001299,-40.314,-0.00040456,-4056,0.3224
10459,7.8586,4.1818,0.05,1.0049e-06,10.042,7.7161e-07,5.7976,2.6571e-12,1.1242e-05,-7.7161e-07,-5.7976,0.32952
10460,7.8586,3.9091,0,0.0004037,4034.2,0.00013621,0.14584,0.00012816,-60.361,-0.00040469,-4064,0.33026
10461,7.7672,4,0,0.00040476,4044.8,0.00013646,0.14082,0.00012868,-58.356,-0.00040572,-4073.6,0.3229
10462,7.8586,4,0.05,8.9035e-07,8.8974,6.8368e-07,5.1369,5.884e-13,2.8105e-06,-6.8368e-07,-5.1369,0.33002
10463,7.8586,3.7273,0,0.00040451,4042.3,0.00013731,0.094554,0.00012701,-77.299,-0.00040576,-4080.3,0.33064
10464,7.7672,3.8182,0,0.00040547,4051.9,0.00013753,0.094257,0.00012747,-75.483,-0.0004067,-4089,0.32332
10465,7.8586,3.8182,0.05,7.7173e-07,7.712,5.926e-07,4.4526,6.8476e-13,2.3151e-05,-5.926e-07,-4.4525,0.33044
10466,7.8586,3.5455,0,0.00040513,4048.5,0.00013822,0.060523,0.000126,-91.708,-0.00040661,-4093.6,0.33093
10467,7.7672,3.6364,0,0.00040602,4057.4,0.00013846,0.062037,0.00012639,-90.631,-0.00040749,-4101.9,0.32365
10468,7.8586,3.6364,0.05,6.5253e-07,6.5208,5.0106e-07,3.7648,-6.538e-13,1.1372e-06,-5.0106e-07,-3.7648,0.33077
10469,7.8586,3.3636,0,0.00040557,4053,0.0001389,0.038232,0.00012523,-102.68,-0.00040722,-4103.3,0.33113
10470,7.7672,3.4545,0,0.00040643,4061.5,0.00013919,0.039655,0.00012549,-102.87,-0.00040808,-4112,0.3239
10471,7.8586,3.4545,0.05,5.392e-07,5.3883,4.1404e-07,3.111,-2.0272e-13,3.2743e-05,-4.1404e-07,-3.1109,0.33102
10472,7.8586,3.1818,0,0.00040584,4055.6,0.00013932,0.025468,0.00012474,-109.55,-0.00040759,-4109.3,0.33126
10473,7.7672,3.2727,0,0.0004067,4064.2,0.0001397,0.025334,0.00012486,-111.46,-0.00040849,-4118.8,0.32406
10474,7.8586,3.2727,0.05,4.4361e-07,4.4331,3.4064e-07,2.5594,-7.3372e-13,-4.6947e-06,-3.4064e-07,-2.5594,0.33118
10475,7.8586,3,0,0.00040593,4056.5,0.00013946,0.021301,0.00012457,-111.88,-0.00040772,-4111.3,0.3313
10476,7.7672,3.0909,0,0.00040684,4065.6,0.00013996,0.01832,0.00012453,-115.88,-0.00040869,-4122.3,0.32415
10477,7.8586,3.0909,0.05,3.8549e-07,3.8523,2.9601e-07,2.2241,-5.1219e-12,-7.2145e-06,-2.9601e-07,-2.2241,0.33126
10478,7.8586,2.8182,0,0.00040584,4055.6,0.00013932,0.025469,0.00012474,-109.55,-0.00040759,-4109.3,0.33126
10479,7.7672,2.9091,0,0.00040684,4065.6,0.00013996,0.01832,0.00012453,-115.88,-0.00040869,-4122.3,0.32415
10480,7.8586,2.9091,0.05,3.8549e-07,3.8523,2.9601e-07,2.2241,-5.1069e-12,-8.0384e-06,-2.9601e-07,-2.2241,0.33126
10481,7.8586,2.6364,0,0.00040557,4053,0.0001389,0.038233,0.00012523,-102.68,-0.00040722,-4103.3,0.33113
10482,7.7672,2.7273,0,0.0004067,4064.2,0.0001397,0.025334,0.00012486,-111.46,-0.00040849,-4118.8,0.32406
10483,7.8586,2.7273,0.05,4.4361e-07,4.4331,3.4064e-07,2.5594,-6.5614e-13,-4.9562e-06,-3.4064e-07,-2.5594,0.33118
10484,7.8586,2.4545,0,0.00040513,4048.5,0.00013822,0.060523,0.000126,-91.708,-0.00040661,-4093.6,0.33093
10485,7.7672,2.5455,0,0.00040643,4061.5,0.00013919,0.039655,0.00012549,-102.87,-0.00040808,-4112,0.3239
10486,7.8586,2.5455,0.05,5.392e-07,5.3883,4.1404e-07,3.111,1.0196e-12,3.1551e-05,-4.1403e-07,-3.1109,0.33102
10487,7.8586,2.2727,0,0.00040451,4042.3,0.00013731,0.094554,0.00012701,-77.299,-0.00040576,-4080.3,0.33064
10488,7.7672,2.3636,0,0.00040602,4057.4,0.00013846,0.062038,0.00012639,-90.631,-0.00040749,-4101.9,0.32365
10489,7.8586,2.3636,0.05,6.5253e-07,6.5208,5.0106e-07,3.7648,-1.4808e-12,9.6712e-06,-5.0106e-07,-3.7648,0.33077
10490,7.8586,2.0909,0,0.0004037,4034.2,0.00013621,0.14584,0.00012816,-60.362,-0.00040469,-4064,0.33026
10491,7.7672,2.1818,0,0.00040547,4051.9,0.00013753,0.094258,0.00012747,-75.483,-0.0004067,-4089,0.32332
10492,7.8586,2.1818,0.05,7.7173e-07,7.712,5.926e-07,4.4525,2.4975e-12,2.3659e-05,-5.9259e-07,-4.4525,0.33044
10493,7.8586,1.9091,0,0.0004027,4024.3,0.00013499,0.23057,0.00012937,-41.983,-0.0004034,-4045,0.32981
10494,7.7672,2,0,0.00040476,4044.8,0.00013646,0.14082,0.00012868,-58.356,-0.00040572,-4073.6,0.3229
10495,7.8586,2,0.05,8.9035e-07,8.8974,6.8368e-07,5.1369,8.2504e-14,2.3461e-05,-6.8368e-07,-5.1369,0.33002
10496,7.8586,1.7273,0,0.00040152,4012.4,0.00013369,0.41537,0.00013052,-23.399,-0.00040191,-4023.9,0.32926
10497,7.7672,1.8182,0,0.00040389,4036.1,0.00013529,0.21507,0.0001299,-40.314,-0.00040456,-4056,0.3224
10498,7.8586,1.8182,0.05,1.0049e-06,10.042,7.7161e-07,5.7976,2.2336e-12,2.2556e-05,-7.7161e-07,-5.7975,0.32952
10499,7.8586,1.5455,0,0.00040015,3998.7,0.00013248,1.373,0.00013144,-6.4698,-0.00040023,-4001.2,0.32863
10500,7.7672,1.6364,0,0.00040286,4025.8,0.00013409,0.37091,0.00013104,-22.518,-0.00040323,-4036.9,0.32182
10501,7.8586,1.6364,0.05,1.1134e-06,11.126,8.5493e-07,6.4236,2.6026e-12,1.9531e-05,-8.5492e-07,-6.4236,0.32893
10502,7.8586,1.3636,0,0.00039859,3983.2,0.00013252,11.428,0.00013092,-0.64011,-0.00039841,-3977.8,0.32792
10503,7.7672,1.4545,0,0.00040167,4013.9,0.00013297,1.1136,0.00013195,-6.5609,-0.00040176,-4016.6,0.32114
10504,7.8586,1.4545,0.05,1.2148e-06,12.14,9.3281e-07,7.0088,-3.0602e-12,1.6196e-05,-9.3281e-07,-7.0088,0.32826
10505,7.8586,1.1818,0,0.00039688,3966,0.00013298,23.902,0.00012976,-0.2218,-0.00039647,-3954.1,0.32711
10506,7.7672,1.2727,0,0.00040032,4000.4,0.00013294,9.5991,0.00013158,-0.5958,-0.00040017,-3995.9,0.32038
10507,7.8586,1.2727,0.05,1.3084e-06,13.075,1.0047e-06,7.5488,1.7151e-12,8.7868e-06,-1.0047e-06,-7.5488,0.3275
10508,7.8586,1,0,0.00039503,3947.6,0.00013311,32.863,0.00012872,-0.09705,-0.00039446,-3931.1,0.32622
10509,7.7672,1.0909,0,0.00039883,3985.6,0.00013334,20.535,0.00013058,-0.18879,-0.00039848,-3975.4,0.31953
10510,7.8586,1.0909,0.05,1.3933e-06,13.924,1.0699e-06,8.0389,-3.7953e-12,6.2391e-06,-1.0699e-06,-8.0389,0.32665
10511,7.8586,0.81818,0,0.00039309,3928.2,0.00013285,37.465,0.00012786,-0.037283,-0.00039244,-3909.3,0.32524
10512,7.7672,0.90909,0,0.00039724,3969.6,0.00013343,27.974,0.00012969,-0.074465,-0.00039676,-3955.6,0.3186
10513,7.8586,0.90909,0.05,1.4686e-06,14.676,1.1277e-06,8.4731,9.6481e-13,4.6826e-06,-1.1277e-06,-8.4731,0.32571
10514,7.8586,0.63636,0,0.0003911,3908.3,0.00013217,37.266,0.00012721,-0.00099979,-0.00039045,-3889.5,0.32417
10515,7.7672,0.72727,0,0.00039557,3953,0.00013314,31.192,0.00012899,-0.023792,-0.00039503,-3937.3,0.31757
10516,7.8586,0.72727,0.05,1.533e-06,15.319,1.1771e-06,8.8446,-1.3696e-12,2.672e-06,-1.1771e-06,-8.8446,0.32469
10517,7.8586,0.45455,0,0.00038912,3888.5,0.00013108,32.039,0.00012682,-0.015105,-0.00038857,-3872.4,0.32301
10518,7.7672,0.54545,0,0.00039387,3936,0.00013247,29.869,0.0001285,0.0097986,-0.00039336,-3921,0.31646
10519,7.8586,0.54545,0.05,1.5841e-06,15.83,1.2164e-06,9.1396,1.1909e-13,4.0929e-07,-1.2164e-06,-9.1396,0.32357
10520,7.8586,0.27273,0,0.00038721,3869.4,0.0001296,21.791,0.00012669,-0.026942,-0.00038683,-3858.5,0.32177
10521,7.7672,0.36364,0,0.0003922,3919.3,0.00013142,23.872,0.00012824,-0.041501,-0.00039179,-3907.3,0.31526
10522,7.8586,0.36364,0.05,1.6065e-06,16.054,1.2336e-06,9.2686,-3.6879e-12,-1.3571e-07,-1.2336e-06,-9.2686,0.32237
10523,7.7672,0.18182,0,0.00039061,3903.4,0.00013002,13.424,0.00012823,-0.031458,-0.00039038,-3896.7,0.31397
10524,7.8586,0.18182,0.05,1.3731e-06,13.722,1.0544e-06,7.9224,-1.8445e-12,4.7444e-07,-1.0544e-06,-7.9224,0.32109
10525,7.8586,0.090909,0,0.00038558,3853.2,0.00012796,8.6025,0.00012682,0.013555,-0.00038544,-3848.9,0.32044
10526,7.6759,5.7273,0,0.0003956,3953.2,0.00013184,15.434,0.00012978,-0.01544,-0.00039533,-3945.5,0.30755
10527,7.5845,5.8182,0,0.00039896,3986.9,0.00013245,9.4543,0.00013119,-0.015916,-0.0003988,-3982.1,0.29988
10528,7.6759,5.8182,0.05,1.2008e-06,12,9.2206e-07,6.928,-3.3135e-14,8.1832e-07,-9.2206e-07,-6.928,0.30687
10529,7.6759,5.9091,0,0.00039443,3941.5,0.00013069,6.4046,0.00012985,0.025893,-0.00039432,-3938.3,0.30622
10530,7.6759,5.5455,0,0.00039695,3966.8,0.00013281,21.691,0.00012992,-0.0095538,-0.00039658,-3955.9,0.30879
10531,7.5845,5.6364,0,0.00040004,3997.6,0.00013332,15.671,0.00013123,-0.025336,-0.00039977,-3989.8,0.30117
10532,7.6759,5.6364,0.05,1.4802e-06,14.792,1.1366e-06,8.5401,-4.0345e-15,9.2822e-07,-1.1366e-06,-8.5401,0.30816
10533,7.6759,5.3636,0,0.00039834,3980.7,0.00013344,23.799,0.00013027,-0.0091094,-0.00039793,-3968.7,0.30995
10534,7.5845,5.4545,0,0.00040118,4009,0.00013391,18.271,0.00013148,0.0011071,-0.00040086,-3999.8,0.30238
10535,7.6759,5.4545,0.05,1.4705e-06,14.695,1.1292e-06,8.4843,3.8427e-14,1.4569e-06,-1.1292e-06,-8.4843,0.30936
10536,7.6759,5.1818,0,0.00039972,3994.5,0.00013372,21.715,0.00013083,-0.058855,-0.00039935,-3983.6,0.31102
10537,7.5845,5.2727,0,0.00040232,4020.4,0.00013419,17.009,0.00013192,-0.04636,-0.00040203,-4011.9,0.30349
10538,7.6759,5.2727,0.05,1.4316e-06,14.306,1.0993e-06,8.2597,1.4808e-13,1.419e-06,-1.0993e-06,-8.2596,0.31047
10539,7.6759,5,0,0.00040105,4007.7,0.00013366,15.67,0.00013155,-0.17063,-0.00040078,-3999.9,0.312
10540,7.5845,5.0909,0,0.00040343,4031.5,0.00013414,12.021,0.00013252,-0.15743,-0.00040322,-4025.5,0.30451
10541,7.6759,5.0909,0.05,1.3808e-06,13.799,1.0603e-06,7.9666,2.9421e-13,1.2556e-06,-1.0603e-06,-7.9666,0.3115
10542,7.6759,4.8182,0,0.00040228,4020,0.00013332,6.3575,0.00013238,-0.66879,-0.00040218,-4017.2,0.31289
10543,7.5845,4.9091,0,0.00040446,4041.8,0.00013385,4.0369,0.0001332,-0.80714,-0.0004044,-4040.2,0.30545
10544,7.6759,4.9091,0.05,1.3204e-06,13.194,1.0139e-06,7.6178,-1.2267e-12,1.4118e-06,-1.0139e-06,-7.6178,0.31243
10545,7.6759,4.6364,0,0.0004034,4031.2,0.00013358,0.72094,0.00013242,-7.9352,-0.00040352,-4034.8,0.3137
10546,7.5845,4.7273,0,0.00040539,4051.1,0.00013427,0.51364,0.000133,-9.0023,-0.00040554,-4055.4,0.3063
10547,7.6759,4.7273,0.05,1.2512e-06,12.503,9.6075e-07,7.2187,3.3136e-13,4.2544e-06,-9.6075e-07,-7.2187,0.31328
10548,7.6759,4.4545,0,0.00040439,4041.1,0.0001346,0.29958,0.00013153,-22.782,-0.00040477,-4052.3,0.31441
10549,7.5845,4.5455,0,0.00040622,4059.3,0.00013521,0.25109,0.00013212,-22.93,-0.0004066,-4070.6,0.30706
10550,7.6759,4.5455,0.05,1.1741e-06,11.733,9.0158e-07,6.7741,9.0097e-13,2.0107e-06,-9.0157e-07,-6.7741,0.31404
10551,7.6759,4.2727,0,0.00040524,4049.6,0.00013569,0.18687,0.00013042,-39.437,-0.00040589,-4069.1,0.31504
10552,7.5845,4.3636,0,0.00040692,4066.4,0.00013621,0.16671,0.00013103,-38.751,-0.00040756,-4085.5,0.30773
10553,7.6759,4.3636,0.05,1.09e-06,10.892,8.3697e-07,6.2887,-1.0266e-12,1.1829e-05,-8.3697e-07,-6.2886,0.31471
10554,7.6759,4.0909,0,0.00040595,4056.7,0.00013677,0.12813,0.00012921,-56.681,-0.00040688,-4084.7,0.31559
10555,7.5845,4.1818,0,0.0004075,4072.2,0.00013722,0.11916,0.00012983,-55.459,-0.00040841,-4099.6,0.30832
10556,7.6759,4.1818,0.05,9.9981e-07,9.9912,7.6773e-07,5.7684,1.2438e-12,8.0861e-06,-7.6773e-07,-5.7684,0.3153
10557,7.6759,3.9091,0,0.00040653,4062.5,0.00013778,0.08909,0.00012799,-73.471,-0.00040773,-4098.7,0.31605
10558,7.5845,4,0,0.00040797,4076.8,0.00013819,0.085798,0.00012858,-72.103,-0.00040914,-4112.4,0.30882
10559,7.6759,4,0.05,9.0516e-07,9.0453,6.9504e-07,5.2223,-1.0413e-13,7.5947e-06,-6.9505e-07,-5.2223,0.3158
10560,7.6759,3.7273,0,0.00040698,4067,0.00013868,0.060643,0.00012686,-88.81,-0.00040842,-4110.7,0.31642
10561,7.5845,3.8182,0,0.00040833,4080.5,0.00013908,0.060317,0.00012739,-87.736,-0.00040975,-4123.6,0.30924
10562,7.6759,3.8182,0.05,8.0857e-07,8.0801,6.2088e-07,4.6651,-1.4155e-13,1.3325e-05,-6.2088e-07,-4.665,0.31622
10563,7.6759,3.5455,0,0.00040732,4070.4,0.00013943,0.039716,0.00012588,-101.79,-0.00040896,-4120.4,0.31671
10564,7.5845,3.6364,0,0.00040861,4083.2,0.00013984,0.040629,0.00012633,-101.47,-0.00041024,-4133,0.30957
10565,7.6759,3.6364,0.05,7.1418e-07,7.1368,5.484e-07,4.1205,-1.0837e-12,-2.5335e-06,-5.484e-07,-4.1205,0.31655
10566,7.6759,3.3636,0,0.00040756,4072.8,0.00013999,0.025162,0.00012513,-111.64,-0.00040935,-4127.5,0.31691
10567,7.5845,3.4545,0,0.0004088,4085.2,0.00014044,0.026033,0.00012546,-112.52,-0.0004106,-4140.3,0.30981
10568,7.6759,3.4545,0.05,6.2847e-07,6.2804,4.8259e-07,3.626,-1.3155e-12,1.2925e-05,-4.8259e-07,-3.6259,0.3168
10569,7.6759,3.1818,0,0.0004077,4074.2,0.00014034,0.016538,0.00012466,-117.8,-0.00040958,-4131.8,0.31704
10570,7.5845,3.2727,0,0.00040892,4086.4,0.00014086,0.016326,0.00012485,-120.25,-0.00041084,-4145.2,0.30998
10571,7.6759,3.2727,0.05,5.6083e-07,5.6045,4.3065e-07,3.2358,-1.3434e-12,-2.1209e-06,-4.3065e-07,-3.2357,0.31696
10572,7.6759,3,0,0.00040775,4074.7,0.00014045,0.013678,0.0001245,-119.89,-0.00040966,-4133.3,0.31708
10573,7.5845,3.0909,0,0.00040899,4087,0.00014107,0.011472,0.00012454,-124.23,-0.00041096,-4147.7,0.31006
10574,7.6759,3.0909,0.05,5.2263e-07,5.2227,4.0132e-07,3.0154,-3.5401e-12,-7.0172e-06,-4.0132e-07,-3.0153,0.31704
10575,7.6759,2.8182,0,0.0004077,4074.2,0.00014034,0.016539,0.00012466,-117.8,-0.00040958,-4131.8,0.31704
10576,7.5845,2.9091,0,0.00040899,4087,0.00014107,0.011472,0.00012454,-124.23,-0.00041096,-4147.7,0.31006
10577,7.6759,2.9091,0.05,5.2263e-07,5.2227,4.0132e-07,3.0154,-3.4916e-12,-7.5973e-06,-4.0132e-07,-3.0153,0.31704
10578,7.6759,2.6364,0,0.00040756,4072.8,0.00013999,0.025162,0.00012513,-111.64,-0.00040935,-4127.5,0.31691
10579,7.5845,2.7273,0,0.00040892,4086.4,0.00014086,0.016326,0.00012485,-120.25,-0.00041084,-4145.2,0.30998
10580,7.6759,2.7273,0.05,5.6083e-07,5.6045,4.3065e-07,3.2358,-1.1917e-12,6.6642e-06,-4.3065e-07,-3.2357,0.31696
10581,7.6759,2.4545,0,0.00040732,4070.4,0.00013943,0.039717,0.00012588,-101.79,-0.00040896,-4120.4,0.31671
10582,7.5845,2.5455,0,0.0004088,4085.2,0.00014044,0.026033,0.00012546,-112.52,-0.0004106,-4140.3,0.30981
10583,7.6759,2.5455,0.05,6.2847e-07,6.2804,4.8259e-07,3.626,-5.0849e-13,2.1407e-05,-4.8259e-07,-3.6259,0.3168
10584,7.6759,2.2727,0,0.00040698,4067,0.00013868,0.060644,0.00012686,-88.81,-0.00040842,-4110.7,0.31642
10585,7.5845,2.3636,0,0.00040861,4083.2,0.00013984,0.040629,0.00012633,-101.47,-0.00041024,-4133,0.30957
10586,7.6759,2.3636,0.05,7.1418e-07,7.1368,5.484e-07,4.1205,-2.1214e-12,-8.9738e-07,-5.484e-07,-4.1205,0.31655
10587,7.6759,2.0909,0,0.00040653,4062.5,0.00013778,0.089091,0.00012799,-73.471,-0.00040773,-4098.7,0.31605
10588,7.5845,2.1818,0,0.00040833,4080.5,0.00013908,0.060318,0.00012739,-87.736,-0.00040975,-4123.6,0.30924
10589,7.6759,2.1818,0.05,8.0857e-07,8.0801,6.2088e-07,4.6651,1.2288e-12,2.6639e-05,-6.2088e-07,-4.665,0.31622
10590,7.6759,1.9091,0,0.00040595,4056.7,0.00013677,0.12813,0.00012921,-56.681,-0.00040688,-4084.7,0.31559
10591,7.5845,2,0,0.00040797,4076.8,0.00013819,0.085798,0.00012858,-72.103,-0.00040914,-4112.4,0.30882
10592,7.6759,2,0.05,9.0516e-07,9.0453,6.9504e-07,5.2224,5.9211e-13,2.8916e-05,-6.9505e-07,-5.2223,0.3158
10593,7.6759,1.7273,0,0.00040524,4049.6,0.00013569,0.18687,0.00013042,-39.437,-0.00040589,-4069.1,0.31504
10594,7.5845,1.8182,0,0.0004075,4072.2,0.00013722,0.11916,0.00012983,-55.459,-0.00040841,-4099.6,0.30832
10595,7.6759,1.8182,0.05,9.9981e-07,9.9912,7.6773e-07,5.7684,-1.3434e-13,2.2158e-05,-7.6773e-07,-5.7684,0.3153
10596,7.6759,1.5455,0,0.00040439,4041.1,0.0001346,0.29959,0.00013153,-22.782,-0.00040477,-4052.3,0.31441
10597,7.5845,1.6364,0,0.00040692,4066.4,0.00013621,0.16671,0.00013103,-38.751,-0.00040756,-4085.5,0.30773
10598,7.6759,1.6364,0.05,1.09e-06,10.892,8.3697e-07,6.2887,1.0621e-12,2.0233e-05,-8.3697e-07,-6.2886,0.31471
10599,7.6759,1.3636,0,0.0004034,4031.2,0.00013358,0.72094,0.00013242,-7.9352,-0.00040352,-4034.8,0.3137
10600,7.5845,1.4545,0,0.00040622,4059.3,0.00013521,0.25109,0.00013212,-22.93,-0.0004066,-4070.6,0.30706
10601,7.6759,1.4545,0.05,1.1741e-06,11.733,9.0158e-07,6.7741,1.6526e-13,1.243e-05,-9.0157e-07,-6.7741,0.31404
10602,7.6759,1.1818,0,0.00040228,4020,0.00013332,6.3575,0.00013238,-0.66879,-0.00040218,-4017.2,0.31289
10603,7.5845,1.2727,0,0.00040539,4051.1,0.00013427,0.51364,0.000133,-9.0023,-0.00040554,-4055.4,0.3063
10604,7.6759,1.2727,0.05,1.2512e-06,12.503,9.6075e-07,7.2188,-1.9613e-13,1.2527e-05,-9.6076e-07,-7.2187,0.31328
10605,7.6759,1,0,0.00040105,4007.7,0.00013366,15.67,0.00013155,-0.17063,-0.00040078,-3999.9,0.312
10606,7.5845,1.0909,0,0.00040446,4041.8,0.00013385,4.0369,0.0001332,-0.80714,-0.0004044,-4040.2,0.30545
10607,7.6759,1.0909,0.05,1.3204e-06,13.194,1.0139e-06,7.6178,-3.7399e-13,2.9605e-06,-1.0139e-06,-7.6178,0.31243
10608,7.6759,0.81818,0,0.00039972,3994.5,0.00013372,21.715,0.00013083,-0.058854,-0.00039935,-3983.6,0.31102
10609,7.5845,0.90909,0,0.00040343,4031.5,0.00013414,12.021,0.00013252,-0.15743,-0.00040322,-4025.5,0.30451
10610,7.6759,0.90909,0.05,1.3808e-06,13.799,1.0603e-06,7.9666,-8.8259e-13,2.03e-06,-1.0603e-06,-7.9666,0.3115
10611,7.6759,0.63636,0,0.00039834,3980.7,0.00013344,23.799,0.00013027,-0.0091087,-0.00039793,-3968.7,0.30995
10612,7.5845,0.72727,0,0.00040232,4020.4,0.00013419,17.009,0.00013192,-0.046359,-0.00040203,-4011.9,0.30349
10613,7.6759,0.72727,0.05,1.4316e-06,14.306,1.0993e-06,8.2597,-1.3295e-12,2.1488e-06,-1.0993e-06,-8.2596,0.31047
10614,7.6759,0.45455,0,0.00039695,3966.8,0.00013281,21.691,0.00012992,-0.0095526,-0.00039658,-3955.9,0.30879
10615,7.5845,0.54545,0,0.00040118,4009,0.00013391,18.271,0.00013148,0.0011078,-0.00040086,-3999.8,0.30238
10616,7.6759,0.54545,0.05,1.4705e-06,14.695,1.1292e-06,8.4844,1.4608e-13,5.2897e-07,-1.1292e-06,-8.4843,0.30936
10617,7.6759,0.27273,0,0.0003956,3953.2,0.00013184,15.434,0.00012978,-0.015438,-0.00039533,-3945.5,0.30755
10618,7.5845,0.36364,0,0.00040004,3997.6,0.00013332,15.671,0.00013123,-0.025334,-0.00039977,-3989.8,0.30117
10619,7.6759,0.36364,0.05,1.4802e-06,14.792,1.1366e-06,8.5402,-1.4271e-14,1.2234e-07,-1.1366e-06,-8.5401,0.30816
10620,7.5845,0.18182,0,0.00039896,3986.9,0.00013245,9.4543,0.00013119,-0.015914,-0.0003988,-3982.1,0.29988
10621,7.6759,0.18182,0.05,1.2008e-06,12,9.2206e-07,6.928,-8.8359e-14,1.0168e-06,-9.2206e-07,-6.928,0.30687
10622,7.6759,0.090909,0,0.00039443,3941.5,0.00013069,6.4046,0.00012985,0.025895,-0.00039432,-3938.3,0.30622
10623,7.4931,5.7273,0,0.0004034,4031.2,0.00013392,9.6257,0.00013264,-0.0046595,-0.00040323,-4026.4,0.29359
10624,7.4017,5.8182,0,0.00040675,4064.7,0.00013471,5.8073,0.00013394,-0.0014558,-0.00040666,-4061.8,0.28606
10625,7.4931,5.8182,0.05,1.0687e-06,10.68,8.2064e-07,6.1659,-6.5415e-15,8.1684e-07,-8.2064e-07,-6.1659,0.29291
10626,7.4931,5.9091,0,0.00040263,4023.5,0.00013323,4.3839,0.00013265,0.037323,-0.00040255,-4021.3,0.29226
10627,7.4931,5.5455,0,0.00040426,4039.8,0.00013443,12.235,0.0001328,-0.0093902,-0.00040405,-4033.7,0.29484
10628,7.4017,5.6364,0,0.00040738,4071,0.00013512,8.1687,0.00013403,-0.01507,-0.00040724,-4066.9,0.28735
10629,7.4931,5.6364,0.05,1.381e-06,13.801,1.0604e-06,7.9678,7.088e-15,9.5331e-07,-1.0604e-06,-7.9678,0.2942
10630,7.4931,5.3636,0,0.00040516,4048.8,0.00013466,11.48,0.00013313,-0.036841,-0.00040496,-4043,0.296
10631,7.4017,5.4545,0,0.00040806,4077.8,0.0001353,7.6556,0.00013428,-0.030635,-0.00040793,-4074,0.28856
10632,7.4931,5.4545,0.05,1.3814e-06,13.804,1.0607e-06,7.97,3.2731e-14,1.3383e-06,-1.0607e-06,-7.9699,0.29541
10633,7.4931,5.1818,0,0.00040603,4057.5,0.00013461,7.3501,0.00013361,-0.17593,-0.0004059,-4053.9,0.29707
10634,7.4017,5.2727,0,0.00040873,4084.5,0.00013524,4.1143,0.00013466,-0.22238,-0.00040867,-4082.6,0.28967
10635,7.4931,5.2727,0.05,1.3524e-06,13.515,1.0385e-06,7.803,8.7459e-14,1.693e-06,-1.0385e-06,-7.8029,0.29652
10636,7.4931,5,0,0.00040684,4065.6,0.00013446,1.3637,0.00013404,-1.7625,-0.00040685,-4065.8,0.29805
10637,7.4017,5.0909,0,0.00040936,4090.8,0.00013531,0.53062,0.00013477,-3.471,-0.00040941,-4092.3,0.2907
10638,7.4931,5.0909,0.05,1.3129e-06,13.12,1.0081e-06,7.5748,-1.6015e-12,8.3283e-07,-1.0081e-06,-7.5748,0.29755
10639,7.4931,4.8182,0,0.00040757,4072.9,0.00013508,0.31921,0.00013354,-11.259,-0.00040776,-4078.4,0.29895
10640,7.4017,4.9091,0,0.00040993,4096.5,0.00013593,0.22524,0.00013419,-12.864,-0.00041014,-4102.8,0.29164
10641,7.4931,4.9091,0.05,1.2648e-06,12.639,9.7121e-07,7.2973,2.1699e-13,2.5712e-06,-9.7121e-07,-7.2973,0.29848
10642,7.4931,4.6364,0,0.00040821,4079.3,0.00013592,0.19311,0.00013268,-24.139,-0.00040861,-4091.2,0.29975
10643,7.4017,4.7273,0,0.00041042,4101.3,0.00013668,0.15669,0.00013334,-24.956,-0.00041083,-4113.7,0.29249
10644,7.4931,4.7273,0.05,1.2089e-06,12.081,9.2832e-07,6.975,1.1635e-12,3.0429e-06,-9.2831e-07,-6.975,0.29933
10645,7.4931,4.4545,0,0.00040874,4084.6,0.00013682,0.1393,0.00013162,-38.913,-0.00040939,-4103.9,0.30047
10646,7.4017,4.5455,0,0.00041081,4105.3,0.0001375,0.12069,0.0001323,-38.996,-0.00041146,-4124.6,0.29325
10647,7.4931,4.5455,0.05,1.1461e-06,11.453,8.8005e-07,6.6123,7.2097e-13,4.0878e-06,-8.8004e-07,-6.6123,0.30009
10648,7.4931,4.2727,0,0.00040918,4089,0.00013774,0.10478,0.00013044,-54.774,-0.00041008,-4116,0.3011
10649,7.4017,4.3636,0,0.00041112,4108.4,0.00013836,0.094826,0.00013112,-54.299,-0.00041202,-4135.2,0.29392
10650,7.4931,4.3636,0.05,1.0771e-06,10.764,8.2708e-07,6.2144,-1.2045e-12,1.6792e-05,-8.2708e-07,-6.2143,0.30077
10651,7.4931,4.0909,0,0.00040952,4092.3,0.00013864,0.078502,0.0001292,-70.879,-0.00041067,-4127.3,0.30164
10652,7.4017,4.1818,0,0.00041135,4110.6,0.00013921,0.073593,0.00012987,-70.111,-0.00041249,-4145.2,0.29451
10653,7.4931,4.1818,0.05,1.0032e-06,10.025,7.7035e-07,5.7881,-1.1642e-12,-4.0554e-07,-7.7035e-07,-5.7881,0.30135
10654,7.4931,3.9091,0,0.00040977,4094.9,0.00013948,0.057177,0.00012798,-86.365,-0.00041117,-4137.3,0.3021
10655,7.4017,4,0,0.0004115,4112.2,0.00014002,0.055353,0.00012862,-85.631,-0.00041289,-4154.3,0.29501
10656,7.4931,4,0.05,9.2624e-07,9.256,7.1123e-07,5.344,3.6022e-13,7.3379e-06,-7.1123e-07,-5.3439,0.30185
10657,7.4931,3.7273,0,0.00040995,4096.7,0.00014023,0.039781,0.00012686,-100.39,-0.00041157,-4146,0.30247
10658,7.4017,3.8182,0,0.0004116,4113.2,0.00014076,0.039722,0.00012744,-100.06,-0.00041321,-4162.3,0.29543
10659,7.4931,3.8182,0.05,8.4885e-07,8.4826,6.5181e-07,4.8974,-2.2589e-12,-3.3686e-06,-6.5181e-07,-4.8974,0.30227
10660,7.4931,3.5455,0,0.00041008,4098,0.00014085,0.026097,0.00012591,-112.19,-0.00041187,-4152.9,0.30276
10661,7.4017,3.6364,0,0.00041166,4113.7,0.00014139,0.026785,0.0001264,-112.64,-0.00041346,-4168.9,0.29576
10662,7.4931,3.6364,0.05,7.7499e-07,7.7446,5.951e-07,4.4714,-1.3773e-12,4.0934e-06,-5.951e-07,-4.4713,0.3026
10663,7.4931,3.3636,0,0.00041016,4098.8,0.00014131,0.016186,0.00012519,-121.12,-0.00041209,-4158,0.30297
10664,7.4017,3.4545,0,0.00041169,4114,0.00014189,0.016782,0.00012556,-122.72,-0.00041364,-4174,0.29601
10665,7.4931,3.4545,0.05,7.1009e-07,7.096,5.4527e-07,4.0969,-3.58e-13,6.5011e-07,-5.4525e-07,-4.0968,0.30285
10666,7.4931,3.1818,0,0.00041021,4099.2,0.0001416,0.010172,0.00012473,-126.68,-0.00041222,-4161.1,0.30309
10667,7.4017,3.2727,0,0.0004117,4114.2,0.00014224,0.0099562,0.00012497,-129.74,-0.00041375,-4177.5,0.29617
10668,7.4931,3.2727,0.05,6.608e-07,6.6035,5.0742e-07,3.8125,4.2149e-13,-7.1667e-06,-5.0741e-07,-3.8125,0.30301
10669,7.4931,3,0,0.00041022,4099.4,0.00014169,0.0081561,0.00012458,-128.57,-0.00041226,-4162.2,0.30313
10670,7.4017,3.0909,0,0.0004117,4114.2,0.00014241,0.006494,0.00012467,-133.35,-0.00041381,-4179.3,0.29625
10671,7.4931,3.0909,0.05,6.3391e-07,6.3347,4.8677e-07,3.6574,-3.588e-12,-7.4403e-06,-4.8676e-07,-3.6573,0.3031
10672,7.4931,2.8182,0,0.00041021,4099.2,0.0001416,0.010173,0.00012473,-126.68,-0.00041222,-4161.1,0.30309
10673,7.4017,2.9091,0,0.0004117,4114.2,0.00014241,0.0064938,0.00012467,-133.35,-0.00041381,-4179.3,0.29625
10674,7.4931,2.9091,0.05,6.3391e-07,6.3347,4.8677e-07,3.6574,-3.5285e-12,-6.993e-06,-4.8676e-07,-3.6573,0.3031
10675,7.4931,2.6364,0,0.00041016,4098.8,0.00014131,0.016186,0.00012519,-121.12,-0.00041209,-4158,0.30297
10676,7.4017,2.7273,0,0.0004117,4114.2,0.00014224,0.0099564,0.00012497,-129.74,-0.00041375,-4177.5,0.29617
10677,7.4931,2.7273,0.05,6.608e-07,6.6035,5.0742e-07,3.8125,5.9934e-13,-6.7669e-06,-5.0741e-07,-3.8125,0.30301
10678,7.4931,2.4545,0,0.00041008,4098,0.00014085,0.026097,0.00012591,-112.19,-0.00041187,-4152.9,0.30276
10679,7.4017,2.5455,0,0.00041169,4114,0.00014189,0.016782,0.00012556,-122.72,-0.00041364,-4174,0.29601
10680,7.4931,2.5455,0.05,7.1009e-07,7.096,5.4527e-07,4.0969,-5.3528e-14,-2.3421e-06,-5.4525e-07,-4.0968,0.30285
10681,7.4931,2.2727,0,0.00040995,4096.7,0.00014023,0.039781,0.00012686,-100.39,-0.00041157,-4146,0.30247
10682,7.4017,2.3636,0,0.00041166,4113.7,0.00014139,0.026786,0.0001264,-112.64,-0.00041346,-4168.9,0.29576
10683,7.4931,2.3636,0.05,7.7499e-07,7.7446,5.951e-07,4.4714,-2.0972e-12,5.6826e-06,-5.951e-07,-4.4713,0.3026
10684,7.4931,2.0909,0,0.00040977,4094.9,0.00013948,0.057177,0.00012798,-86.365,-0.00041117,-4137.3,0.3021
10685,7.4017,2.1818,0,0.0004116,4113.2,0.00014076,0.039722,0.00012744,-100.06,-0.00041321,-4162.3,0.29543
10686,7.4931,2.1818,0.05,8.4885e-07,8.4826,6.5181e-07,4.8975,-1.715e-12,6.4258e-06,-6.5181e-07,-4.8974,0.30227
10687,7.4931,1.9091,0,0.00040952,4092.3,0.00013864,0.078502,0.0001292,-70.879,-0.00041067,-4127.3,0.30164
10688,7.4017,2,0,0.0004115,4112.2,0.00014002,0.055353,0.00012862,-85.631,-0.00041289,-4154.3,0.29501
10689,7.4931,2,0.05,9.2624e-07,9.256,7.1123e-07,5.344,-2.0698e-12,1.9229e-05,-7.1124e-07,-5.3439,0.30185
10690,7.4931,1.7273,0,0.00040918,4089,0.00013774,0.10478,0.00013044,-54.774,-0.00041008,-4116,0.3011
10691,7.4017,1.8182,0,0.00041135,4110.6,0.00013921,0.073593,0.00012987,-70.111,-0.00041249,-4145.2,0.29451
10692,7.4931,1.8182,0.05,1.0032e-06,10.025,7.7035e-07,5.7881,-3.0072e-12,1.7338e-06,-7.7035e-07,-5.7881,0.30135
10693,7.4931,1.5455,0,0.00040874,4084.6,0.00013682,0.1393,0.00013162,-38.913,-0.00040939,-4103.9,0.30047
10694,7.4017,1.6364,0,0.00041112,4108.4,0.00013836,0.094827,0.00013112,-54.299,-0.00041202,-4135.2,0.29392
10695,7.4931,1.6364,0.05,1.0771e-06,10.764,8.2708e-07,6.2144,9.7812e-13,2.6669e-05,-8.2708e-07,-6.2143,0.30077
10696,7.4931,1.3636,0,0.00040821,4079.3,0.00013592,0.19311,0.00013268,-24.139,-0.00040861,-4091.2,0.29975
10697,7.4017,1.4545,0,0.00041081,4105.3,0.0001375,0.12069,0.0001323,-38.996,-0.00041146,-4124.6,0.29325
10698,7.4931,1.4545,0.05,1.1461e-06,11.453,8.8005e-07,6.6123,1.8483e-12,6.1699e-06,-8.8004e-07,-6.6123,0.30009
10699,7.4931,1.1818,0,0.00040757,4072.9,0.00013508,0.31921,0.00013354,-11.259,-0.00040776,-4078.4,0.29895
10700,7.4017,1.2727,0,0.00041042,4101.3,0.00013668,0.15669,0.00013334,-24.956,-0.00041083,-4113.7,0.29249
10701,7.4931,1.2727,0.05,1.2089e-06,12.081,9.2832e-07,6.975,1.6581e-13,7.6229e-06,-9.2832e-07,-6.975,0.29933
10702,7.4931,1,0,0.00040684,4065.6,0.00013446,1.3637,0.00013404,-1.7625,-0.00040685,-4065.8,0.29805
10703,7.4017,1.0909,0,0.00040993,4096.5,0.00013593,0.22524,0.00013419,-12.864,-0.00041014,-4102.8,0.29164
10704,7.4931,1.0909,0.05,1.2648e-06,12.639,9.7121e-07,7.2973,9.6918e-13,3.9262e-06,-9.7121e-07,-7.2973,0.29848
10705,7.4931,0.81818,0,0.00040603,4057.5,0.00013461,7.3501,0.00013361,-0.17593,-0.0004059,-4053.9,0.29707
10706,7.4017,0.90909,0,0.00040936,4090.8,0.00013531,0.53062,0.00013477,-3.471,-0.00040941,-4092.3,0.2907
10707,7.4931,0.90909,0.05,1.3129e-06,13.12,1.0081e-06,7.5748,-1.0735e-12,1.5884e-06,-1.0081e-06,-7.5748,0.29755
10708,7.4931,0.63636,0,0.00040516,4048.8,0.00013466,11.48,0.00013313,-0.03684,-0.00040496,-4043,0.296
10709,7.4017,0.72727,0,0.00040873,4084.5,0.00013524,4.1143,0.00013466,-0.22238,-0.00040867,-4082.6,0.28967
10710,7.4931,0.72727,0.05,1.3524e-06,13.515,1.0385e-06,7.803,-4.8943e-12,2.8702e-06,-1.0385e-06,-7.8029,0.29652
10711,7.4931,0.45455,0,0.00040426,4039.8,0.00013443,12.235,0.0001328,-0.009389,-0.00040405,-4033.7,0.29484
10712,7.4017,0.54545,0,0.00040806,4077.8,0.0001353,7.6555,0.00013428,-0.030634,-0.00040793,-4074,0.28856
10713,7.4931,0.54545,0.05,1.3814e-06,13.804,1.0607e-06,7.97,-1.608e-12,9.3216e-07,-1.0607e-06,-7.9699,0.29541
10714,7.4931,0.27273,0,0.0004034,4031.2,0.00013392,9.6257,0.00013264,-0.0046581,-0.00040323,-4026.4,0.29359
10715,7.4017,0.36364,0,0.00040738,4071,0.00013512,8.1687,0.00013403,-0.015069,-0.00040724,-4066.9,0.28735
10716,7.4931,0.36364,0.05,1.381e-06,13.801,1.0604e-06,7.9678,2.6579e-14,2.0062e-07,-1.0605e-06,-7.9677,0.2942
10717,7.4017,0.18182,0,0.00040675,4064.7,0.00013471,5.8073,0.00013394,-0.0014544,-0.00040666,-4061.8,0.28606
10718,7.4931,0.18182,0.05,1.0687e-06,10.68,8.2064e-07,6.166,-4.0247e-14,6.5352e-07,-8.2063e-07,-6.1659,0.29291
10719,7.4931,0.090909,0,0.00040263,4023.5,0.00013323,4.3839,0.00013265,0.037324,-0.00040255,-4021.3,0.29226
10720,7.3103,5.7273,0,0.00041073,4104.5,0.0001359,4.293,0.00013533,0.00067677,-0.00041066,-4102.4,0.27991
10721,7.219,5.8182,0,0.00041411,4138.2,0.00013686,2.4353,0.00013654,0.0054583,-0.00041407,-4137,0.2725
10722,7.3103,5.8182,0.05,9.7136e-07,9.7069,7.4589e-07,5.6043,-1.5821e-22,7.3516e-07,-7.4589e-07,-5.6043,0.27922
10723,7.3103,5.9091,0,0.00041032,4100.4,0.00013561,2.5118,0.00013529,0.047092,-0.00041028,-4099.1,0.27856
10724,7.3103,5.5455,0,0.00041118,4108.9,0.00013599,3.5877,0.00013551,-0.048893,-0.00041112,-4107.2,0.28116
10725,7.219,5.6364,0,0.00041434,4140.6,0.00013685,1.3398,0.00013666,-0.08299,-0.00041432,-4139.9,0.2738
10726,7.3103,5.6364,0.05,1.3043e-06,13.034,1.0015e-06,7.525,1.9317e-14,8.9274e-07,-1.0015e-06,-7.525,0.28052
10727,7.3103,5.3636,0,0.00041164,4113.5,0.00013595,0.83549,0.00013573,-0.76839,-0.00041164,-4113.5,0.28232
10728,7.219,5.4545,0,0.00041462,4143.3,0.00013696,0.19959,0.00013661,-2.4018,-0.00041465,-4144.4,0.27501
10729,7.3103,5.4545,0.05,1.3123e-06,13.114,1.0077e-06,7.5714,4.0876e-14,1.2297e-06,-1.0077e-06,-7.5714,0.28172
10730,7.3103,5.1818,0,0.00041207,4117.9,0.00013632,0.21516,0.00013543,-6.4393,-0.00041218,-4121,0.28339
10731,7.219,5.2727,0,0.00041488,4146,0.00013734,0.1307,0.00013621,-8.3539,-0.00041502,-4150.1,0.27613
10732,7.3103,5.2727,0.05,1.2914e-06,12.905,9.9166e-07,7.4509,1.5552e-13,6.5396e-07,-9.9165e-07,-7.4509,0.28284
10733,7.3103,5,0,0.00041246,4121.7,0.00013688,0.14883,0.00013482,-15.328,-0.00041271,-4129.3,0.28438
10734,7.219,5.0909,0,0.00041511,4148.3,0.00013783,0.11123,0.00013557,-16.845,-0.0004154,-4156.6,0.27716
10735,7.3103,5.0909,0.05,1.2611e-06,12.602,9.6834e-07,7.2758,-1.6223e-12,4.9327e-07,-9.6834e-07,-7.2758,0.28387
10736,7.3103,4.8182,0,0.00041277,4124.9,0.00013754,0.11964,0.00013398,-26.616,-0.00041322,-4138.1,0.28527
10737,7.219,4.9091,0,0.00041529,4150,0.00013842,0.097711,0.00013473,-27.616,-0.00041575,-4163.7,0.2781
10738,7.3103,4.9091,0.05,1.2232e-06,12.223,9.3925e-07,7.0572,1.7695e-13,3.1536e-07,-9.3925e-07,-7.0572,0.28481
10739,7.3103,4.6364,0,0.00041302,4127.3,0.00013827,0.099209,0.00013296,-39.826,-0.00041368,-4147.1,0.28608
10740,7.219,4.7273,0,0.0004154,4151.2,0.00013908,0.085456,0.00013371,-40.301,-0.00041607,-4171.1,0.27895
10741,7.3103,4.7273,0.05,1.1785e-06,11.776,9.0491e-07,6.7992,2.0472e-13,-1.1543e-07,-9.0491e-07,-6.7992,0.28566
10742,7.3103,4.4545,0,0.00041319,4129,0.00013904,0.081807,0.00013179,-54.386,-0.00041409,-4155.9,0.28679
10743,7.219,4.5455,0,0.00041545,4151.6,0.00013979,0.073221,0.00013254,-54.414,-0.00041635,-4178.5,0.27971
10744,7.3103,4.5455,0.05,1.1276e-06,11.268,8.6588e-07,6.5059,2.5946e-13,1.6756e-07,-8.6588e-07,-6.5059,0.28642
10745,7.3103,4.2727,0,0.00041329,4130,0.00013983,0.065934,0.00013055,-69.637,-0.00041443,-4164.4,0.28742
10746,7.219,4.3636,0,0.00041544,4151.5,0.00014052,0.060918,0.00013128,-69.375,-0.00041658,-4185.8,0.28039
10747,7.3103,4.3636,0.05,1.0716e-06,10.709,8.2286e-07,6.1827,6.3862e-13,-8.8013e-07,-8.2286e-07,-6.1827,0.28709
10748,7.3103,4.0909,0,0.00041333,4130.5,0.00014059,0.051278,0.00012928,-84.862,-0.00041471,-4172.2,0.28797
10749,7.219,4.1818,0,0.00041538,4151,0.00014125,0.048779,0.00012999,-84.533,-0.00041676,-4192.6,0.28097
10750,7.3103,4.1818,0.05,1.0117e-06,10.11,7.7685e-07,5.8369,6.7845e-13,-5.4332e-07,-7.7684e-07,-5.8369,0.28768
10751,7.3103,3.9091,0,0.00041333,4130.5,0.00014129,0.037994,0.00012807,-99.324,-0.00041493,-4179.2,0.28843
10752,7.219,4,0,0.00041529,4150,0.00014193,0.037201,0.00012873,-99.202,-0.00041689,-4198.7,0.28148
10753,7.3103,4,0.05,9.4967e-07,9.4901,7.2923e-07,5.4791,1.0538e-12,-2.4654e-06,-7.2923e-07,-5.4791,0.28818
10754,7.3103,3.7273,0,0.0004133,4130.2,0.00014192,0.026418,0.00012697,-112.31,-0.0004151,-4185.2,0.2888
10755,7.219,3.8182,0,0.00041518,4148.9,0.00014256,0.026641,0.00012755,-112.7,-0.00041698,-4204.1,0.28189
10756,7.3103,3.8182,0.05,8.8812e-07,8.8751,6.8197e-07,5.124,-1.446e-12,-2.9185e-06,-6.8197e-07,-5.124,0.2886
10757,7.3103,3.5455,0,0.00041326,4129.8,0.00014243,0.016932,0.00012604,-123.17,-0.00041522,-4190,0.28909
10758,7.219,3.6364,0,0.00041507,4147.8,0.00014309,0.01755,0.00012653,-124.38,-0.00041704,-4208.6,0.28222
10759,7.3103,3.6364,0.05,8.3045e-07,8.2987,6.3768e-07,4.7913,-1.5546e-12,-4.426e-06,-6.3768e-07,-4.7913,0.28893
10760,7.3103,3.3636,0,0.00041323,4129.4,0.00014282,0.0098834,0.00012534,-131.34,-0.0004153,-4193.5,0.2893
10761,7.219,3.4545,0,0.00041497,4146.8,0.00014351,0.010346,0.00012571,-133.68,-0.00041708,-4212,0.28247
10762,7.3103,3.4545,0.05,7.8088e-07,7.8034,5.9962e-07,4.5053,5.9438e-13,-2.017e-06,-5.9962e-07,-4.5053,0.28918
10763,7.3103,3.1818,0,0.0004132,4129.1,0.00014306,0.0055091,0.0001249,-136.42,-0.00041535,-4195.6,0.28942
10764,7.219,3.2727,0,0.00041489,4146.1,0.0001438,0.0053519,0.00012515,-140.15,-0.0004171,-4214.4,0.28264
10765,7.3103,3.2727,0.05,7.4411e-07,7.4359,5.7139e-07,4.2931,-3.3405e-12,-7.5612e-06,-5.7138e-07,-4.2931,0.28934
10766,7.3103,3,0,0.00041319,4129,0.00014314,0.0040746,0.00012475,-138.14,-0.00041536,-4196.4,0.28946
10767,7.219,3.0909,0,0.00041485,4145.7,0.00014395,0.002797,0.00012485,-143.46,-0.00041711,-4215.5,0.28272
10768,7.3103,3.0909,0.05,7.2441e-07,7.2391,5.5626e-07,4.1795,-5.4367e-12,-7.6177e-06,-5.5625e-07,-4.1795,0.28942
10769,7.3103,2.8182,0,0.0004132,4129.1,0.00014306,0.0055091,0.0001249,-136.42,-0.00041535,-4195.6,0.28942
10770,7.219,2.9091,0,0.00041485,4145.7,0.00014395,0.002797,0.00012485,-143.46,-0.00041711,-4215.5,0.28272
10771,7.3103,2.9091,0.05,7.2441e-07,7.2391,5.5626e-07,4.1795,-5.3747e-12,-7.1503e-06,-5.5625e-07,-4.1795,0.28942
10772,7.3103,2.6364,0,0.00041323,4129.4,0.00014282,0.0098835,0.00012534,-131.34,-0.0004153,-4193.5,0.2893
10773,7.219,2.7273,0,0.00041489,4146.1,0.0001438,0.0053521,0.00012515,-140.15,-0.0004171,-4214.4,0.28264
10774,7.3103,2.7273,0.05,7.4411e-07,7.4359,5.7139e-07,4.2931,-4.9368e-12,-6.1825e-06,-5.7138e-07,-4.2931,0.28934
10775,7.3103,2.4545,0,0.00041326,4129.8,0.00014243,0.016932,0.00012604,-123.17,-0.00041522,-4190,0.28909
10776,7.219,2.5455,0,0.00041497,4146.8,0.00014351,0.010346,0.00012571,-133.68,-0.00041708,-4212,0.28247
10777,7.3103,2.5455,0.05,7.8088e-07,7.8034,5.9962e-07,4.5053,1.0822e-12,-3.3784e-06,-5.9961e-07,-4.5053,0.28918
10778,7.3103,2.2727,0,0.0004133,4130.2,0.00014192,0.026418,0.00012697,-112.31,-0.0004151,-4185.2,0.2888
10779,7.219,2.3636,0,0.00041507,4147.8,0.00014309,0.01755,0.00012653,-124.38,-0.00041704,-4208.6,0.28222
10780,7.3103,2.3636,0.05,8.3045e-07,8.2987,6.3767e-07,4.7913,-2.8166e-12,-5.6815e-06,-6.3768e-07,-4.7913,0.28893
10781,7.3103,2.0909,0,0.00041333,4130.5,0.00014129,0.037995,0.00012807,-99.324,-0.00041493,-4179.2,0.28843
10782,7.219,2.1818,0,0.00041518,4148.9,0.00014256,0.026641,0.00012755,-112.7,-0.00041698,-4204.1,0.28189
10783,7.3103,2.1818,0.05,8.8812e-07,8.8751,6.8197e-07,5.124,-1.987e-13,-1.605e-06,-6.8196e-07,-5.124,0.2886
10784,7.3103,1.9091,0,0.00041333,4130.5,0.00014059,0.051279,0.00012928,-84.862,-0.00041471,-4172.2,0.28797
10785,7.219,2,0,0.00041529,4150,0.00014193,0.037201,0.00012873,-99.202,-0.00041689,-4198.7,0.28148
10786,7.3103,2,0.05,9.4967e-07,9.4901,7.2923e-07,5.4791,-1.5752e-12,-4.5369e-07,-7.2923e-07,-5.4791,0.28818
10787,7.3103,1.7273,0,0.00041329,4130,0.00013983,0.065935,0.00013055,-69.637,-0.00041443,-4164.4,0.28742
10788,7.219,1.8182,0,0.00041538,4151,0.00014125,0.04878,0.00012999,-84.533,-0.00041676,-4192.6,0.28097
10789,7.3103,1.8182,0.05,1.0117e-06,10.11,7.7685e-07,5.8369,1.725e-12,8.6764e-06,-7.7684e-07,-5.8369,0.28768
10790,7.3103,1.5455,0,0.00041319,4129,0.00013904,0.081808,0.00013179,-54.386,-0.00041409,-4155.9,0.28679
10791,7.219,1.6364,0,0.00041544,4151.5,0.00014052,0.060918,0.00013128,-69.375,-0.00041658,-4185.8,0.28039
10792,7.3103,1.6364,0.05,1.0716e-06,10.709,8.2287e-07,6.1827,2.072e-12,1.4982e-05,-8.2286e-07,-6.1826,0.28709
10793,7.3103,1.3636,0,0.00041302,4127.3,0.00013827,0.09921,0.00013296,-39.826,-0.00041368,-4147.1,0.28608
10794,7.219,1.4545,0,0.00041545,4151.6,0.00013979,0.073222,0.00013254,-54.414,-0.00041635,-4178.5,0.27971
10795,7.3103,1.4545,0.05,1.1276e-06,11.268,8.6588e-07,6.5059,-7.5642e-13,7.9142e-06,-8.6588e-07,-6.5058,0.28642
10796,7.3103,1.1818,0,0.00041277,4124.9,0.00013754,0.11964,0.00013398,-26.616,-0.00041322,-4138.1,0.28527
10797,7.219,1.2727,0,0.0004154,4151.2,0.00013908,0.085457,0.00013371,-40.301,-0.00041607,-4171.1,0.27895
10798,7.3103,1.2727,0.05,1.1785e-06,11.776,9.0491e-07,6.7992,1.0708e-12,6.7795e-06,-9.0491e-07,-6.7991,0.28566
10799,7.3103,1,0,0.00041246,4121.7,0.00013688,0.14883,0.00013482,-15.328,-0.00041271,-4129.3,0.28438
10800,7.219,1.0909,0,0.00041529,4150,0.00013842,0.097711,0.00013473,-27.616,-0.00041575,-4163.7,0.2781
10801,7.3103,1.0909,0.05,1.2232e-06,12.223,9.3926e-07,7.0572,-2.1964e-12,1.9255e-06,-9.3925e-07,-7.0572,0.28481
10802,7.3103,0.81818,0,0.00041207,4117.9,0.00013632,0.21516,0.00013543,-6.4394,-0.00041218,-4121,0.28339
10803,7.219,0.90909,0,0.00041511,4148.3,0.00013783,0.11123,0.00013557,-16.845,-0.0004154,-4156.6,0.27716
10804,7.3103,0.90909,0.05,1.2611e-06,12.602,9.6835e-07,7.2758,-8.7656e-13,3.4872e-06,-9.6834e-07,-7.2757,0.28387
10805,7.3103,0.63636,0,0.00041164,4113.5,0.00013595,0.83548,0.00013573,-0.7684,-0.00041164,-4113.5,0.28232
10806,7.219,0.72727,0,0.00041488,4146,0.00013734,0.1307,0.00013621,-8.3539,-0.00041502,-4150.1,0.27613
10807,7.3103,0.72727,0.05,1.2914e-06,12.905,9.9166e-07,7.4509,6.0647e-13,2.4932e-06,-9.9165e-07,-7.4509,0.28284
10808,7.3103,0.45455,0,0.00041118,4108.9,0.00013599,3.5877,0.00013551,-0.048892,-0.00041112,-4107.2,0.28116
10809,7.219,0.54545,0,0.00041462,4143.3,0.00013696,0.19959,0.00013661,-2.4019,-0.00041465,-4144.4,0.27501
10810,7.3103,0.54545,0.05,1.3123e-06,13.114,1.0077e-06,7.5714,-1.5906e-12,1.3692e-06,-1.0077e-06,-7.5713,0.28172
10811,7.3103,0.27273,0,0.00041073,4104.5,0.0001359,4.293,0.00013533,0.00067816,-0.00041066,-4102.4,0.27991
10812,7.219,0.36364,0,0.00041434,4140.6,0.00013685,1.3398,0.00013666,-0.082987,-0.00041432,-4139.9,0.2738
10813,7.3103,0.36364,0.05,1.3043e-06,13.034,1.0015e-06,7.525,-1.7463e-12,5.5595e-07,-1.0015e-06,-7.525,0.28052
10814,7.219,0.18182,0,0.00041411,4138.2,0.00013686,2.4353,0.00013654,0.0054599,-0.00041407,-4137,0.2725
10815,7.3103,0.18182,0.05,9.7136e-07,9.7069,7.4589e-07,5.6043,-6.2537e-15,6.0226e-07,-7.4588e-07,-5.6043,0.27922
10816,7.3103,0.090909,0,0.00041032,4100.4,0.00013561,2.5118,0.00013529,0.047093,-0.00041028,-4099.1,0.27856
10817,7.1276,5.7273,0,0.00041771,4174.2,0.00013789,0.10576,0.00013778,-0.74529,-0.00041772,-4174.6,0.26649
10818,7.0362,5.8182,0,0.00042112,4208.3,0.00013902,0.087805,0.0001389,-0.79414,-0.00042114,-4208.7,0.25923
10819,7.1276,5.8182,0.05,9.0394e-07,9.0331,6.9411e-07,5.2153,-1.4723e-22,7.243e-07,-6.9411e-07,-5.2153,0.2658
10820,7.1276,5.9091,0,0.00041762,4173.4,0.00013788,0.76888,0.00013778,0.047788,-0.00041761,-4172.9,0.26515
10821,7.1276,5.5455,0,0.00041778,4174.9,0.0001381,0.079611,0.00013748,-4.5793,-0.00041786,-4177.2,0.26775
10822,7.0362,5.6364,0,0.000421,4207.1,0.00013919,0.060577,0.00013849,-5.2044,-0.00042109,-4209.7,0.26053
10823,7.1276,5.6364,0.05,1.2461e-06,12.453,9.5686e-07,7.1895,1.6133e-14,8.0344e-07,-9.5686e-07,-7.1895,0.26711
10824,7.1276,5.3636,0,0.00041786,4175.7,0.00013843,0.082383,0.00013701,-10.583,-0.00041804,-4181,0.26892
10825,7.0362,5.4545,0,0.00042092,4206.3,0.00013948,0.063513,0.00013795,-11.413,-0.00042112,-4212,0.26175
10826,7.1276,5.4545,0.05,1.2597e-06,12.588,9.673e-07,7.2679,9.4061e-14,1.2129e-06,-9.6729e-07,-7.2679,0.26832
10827,7.1276,5.1818,0,0.00041793,4176.4,0.00013885,0.081133,0.00013634,-18.818,-0.00041824,-4185.7,0.26999
10828,7.0362,5.2727,0,0.00042084,4205.5,0.00013985,0.066606,0.00013723,-19.626,-0.00042117,-4215.2,0.26287
10829,7.1276,5.2727,0.05,1.2452e-06,12.444,9.5618e-07,7.1844,1.0115e-13,1.7056e-06,-9.5618e-07,-7.1843,0.26944
10830,7.1276,5,0,0.00041795,4176.6,0.00013937,0.077231,0.00013548,-29.152,-0.00041843,-4191,0.27098
10831,7.0362,5.0909,0,0.00042072,4204.3,0.00014032,0.065772,0.00013634,-29.79,-0.00042122,-4219.1,0.2639
10832,7.1276,5.0909,0.05,1.2223e-06,12.215,9.3858e-07,7.0521,-1.3931e-12,3.3186e-07,-9.3858e-07,-7.0521,0.27047
10833,7.1276,4.8182,0,0.00041792,4176.3,0.00013996,0.071056,0.00013445,-41.309,-0.0004186,-4196.7,0.27187
10834,7.0362,4.9091,0,0.00042057,4202.8,0.00014085,0.062466,0.00013529,-41.706,-0.00042126,-4223.4,0.26484
10835,7.1276,4.9091,0.05,1.1928e-06,11.92,9.1591e-07,6.8818,-1.4136e-12,-5.5255e-07,-9.1591e-07,-6.8818,0.27141
10836,7.1276,4.6364,0,0.00041783,4175.5,0.0001406,0.063233,0.00013329,-54.894,-0.00041874,-4202.6,0.27268
10837,7.0362,4.7273,0,0.00042037,4200.8,0.00014144,0.057075,0.00013411,-55.048,-0.00042127,-4228,0.26569
10838,7.1276,4.7273,0.05,1.1573e-06,11.565,8.8865e-07,6.677,-1.544e-12,3.3128e-06,-8.8865e-07,-6.6769,0.27226
10839,7.1276,4.4545,0,0.0004177,4174.2,0.00014127,0.054279,0.00013203,-69.406,-0.00041884,-4208.4,0.2734
10840,7.0362,4.5455,0,0.00042013,4198.4,0.00014207,0.050196,0.00013283,-69.387,-0.00042126,-4232.6,0.26645
10841,7.1276,4.5455,0.05,1.1165e-06,11.157,8.5734e-07,6.4417,1.008e-12,3.686e-06,-8.5733e-07,-6.4416,0.27302
10842,7.1276,4.2727,0,0.00041753,4172.5,0.00014194,0.044719,0.00013072,-84.273,-0.0004189,-4213.9,0.27403
10843,7.0362,4.3636,0,0.00041985,4195.6,0.00014271,0.04234,0.00013149,-84.214,-0.00042122,-4237.1,0.26713
10844,7.1276,4.3636,0.05,1.0713e-06,10.706,8.2266e-07,6.1811,-5.6212e-13,-2.1005e-06,-8.2265e-07,-6.1811,0.2737
10845,7.1276,4.0909,0,0.00041734,4170.5,0.00014259,0.035073,0.00012943,-98.874,-0.00041893,-4219.1,0.27457
10846,7.0362,4.1818,0,0.00041956,4192.7,0.00014333,0.034024,0.00013016,-98.961,-0.00042116,-4241.3,0.26772
10847,7.1276,4.1818,0.05,1.0231e-06,10.224,7.8559e-07,5.9026,1.7678e-13,-2.1324e-06,-7.8559e-07,-5.9026,0.27428
10848,7.1276,3.9091,0,0.00041714,4168.5,0.0001432,0.025853,0.00012821,-112.58,-0.00041894,-4223.6,0.27503
10849,7.0362,4,0,0.00041927,4189.8,0.00014392,0.025749,0.00012887,-113.04,-0.00042108,-4245.1,0.26822
10850,7.1276,4,0.05,9.734e-07,9.7272,7.4745e-07,5.6161,4.5485e-13,2.7154e-06,-7.4745e-07,-5.616,0.27479
10851,7.1276,3.7273,0,0.00041694,4166.5,0.00014373,0.017546,0.00012712,-124.77,-0.00041892,-4227.5,0.27541
10852,7.0362,3.8182,0,0.00041899,4187,0.00014445,0.017993,0.0001277,-125.85,-0.00042099,-4248.5,0.26864
10853,7.1276,3.8182,0.05,9.2458e-07,9.2394,7.0996e-07,5.3344,-3.0096e-12,-3.5863e-06,-7.0996e-07,-5.3344,0.2752
10854,7.1276,3.5455,0,0.00041677,4164.8,0.00014416,0.010591,0.00012621,-134.9,-0.0004189,-4230.6,0.2757
10855,7.0362,3.6364,0,0.00041874,4184.5,0.00014491,0.011201,0.00012669,-136.86,-0.0004209,-4251.3,0.26897
10856,7.1276,3.6364,0.05,8.7944e-07,8.7883,6.753e-07,5.074,-1.4711e-12,-8.5968e-07,-6.753e-07,-5.0739,0.27553
10857,7.1276,3.3636,0,0.00041663,4163.5,0.00014449,0.0053503,0.00012552,-142.49,-0.00041888,-4232.9,0.2759
10858,7.0362,3.4545,0,0.00041854,4182.5,0.00014527,0.0057529,0.00012589,-145.58,-0.00042082,-4253.4,0.26922
10859,7.1276,3.4545,0.05,8.4123e-07,8.4065,6.4596e-07,4.8535,-1.7632e-12,-7.417e-06,-6.4596e-07,-4.8535,0.27578
10860,7.1276,3.1818,0,0.00041655,4162.6,0.00014469,0.0020939,0.0001251,-147.19,-0.00041886,-4234.3,0.27603
10861,7.0362,3.2727,0,0.0004184,4181.1,0.00014551,0.0019468,0.00012533,-151.61,-0.00042077,-4254.8,0.26938
10862,7.1276,3.2727,0.05,8.1331e-07,8.1274,6.2452e-07,4.6924,6.4811e-14,-6.1125e-06,-6.2451e-07,-4.6923,0.27595
10863,7.1276,3,0,0.00041652,4162.3,0.00014476,0.00098968,0.00012495,-148.79,-0.00041885,-4234.7,0.27607
10864,7.0362,3.0909,0,0.00041832,4180.3,0.00014564,-9.4631e-06,0.00012505,-154.7,-0.00042074,-4255.6,0.26947
10865,7.1276,3.0909,0.05,7.9851e-07,7.9796,6.1316e-07,4.607,-1.8344e-12,-7.7993e-06,-6.1315e-07,-4.607,0.27603
10866,7.1276,2.8182,0,0.00041655,4162.6,0.00014469,0.0020941,0.0001251,-147.19,-0.00041886,-4234.3,0.27603
10867,7.0362,2.9091,0,0.00041832,4180.3,0.00014564,-9.2852e-06,0.00012505,-154.7,-0.00042074,-4255.6,0.26947
10868,7.1276,2.9091,0.05,7.9851e-07,7.9796,6.1316e-07,4.607,-1.7729e-12,-7.3381e-06,-6.1315e-07,-4.607,0.27603
10869,7.1276,2.6364,0,0.00041663,4163.5,0.00014449,0.0053506,0.00012552,-142.49,-0.00041888,-4232.9,0.2759
10870,7.0362,2.7273,0,0.0004184,4181.1,0.00014551,0.0019468,0.00012533,-151.61,-0.00042077,-4254.8,0.26938
10871,7.1276,2.7273,0.05,8.1331e-07,8.1274,6.2452e-07,4.6924,2.4633e-13,-4.7559e-06,-6.2451e-07,-4.6923,0.27595
10872,7.1276,2.4545,0,0.00041677,4164.8,0.00014416,0.010592,0.00012621,-134.9,-0.0004189,-4230.6,0.2757
10873,7.0362,2.5455,0,0.00041854,4182.5,0.00014527,0.0057534,0.00012589,-145.58,-0.00042082,-4253.4,0.26922
10874,7.1276,2.5455,0.05,8.4123e-07,8.4065,6.4596e-07,4.8535,-1.4668e-12,-5.1982e-06,-6.4596e-07,-4.8535,0.27578
10875,7.1276,2.2727,0,0.00041694,4166.5,0.00014373,0.017547,0.00012712,-124.77,-0.00041892,-4227.5,0.27541
10876,7.0362,2.3636,0,0.00041874,4184.5,0.00014491,0.011201,0.00012669,-136.86,-0.0004209,-4251.3,0.26897
10877,7.1276,2.3636,0.05,8.7944e-07,8.7883,6.753e-07,5.074,-2.7955e-12,-5.5063e-07,-6.753e-07,-5.0739,0.27553
10878,7.1276,2.0909,0,0.00041714,4168.5,0.0001432,0.025854,0.00012821,-112.58,-0.00041894,-4223.6,0.27503
10879,7.0362,2.1818,0,0.00041899,4187,0.00014445,0.017994,0.0001277,-125.85,-0.00042099,-4248.5,0.26864
10880,7.1276,2.1818,0.05,9.2458e-07,9.2394,7.0996e-07,5.3344,-3.9451e-12,-1.7653e-06,-7.0996e-07,-5.3344,0.2752
10881,7.1276,1.9091,0,0.00041734,4170.5,0.00014259,0.035074,0.00012943,-98.874,-0.00041893,-4219.1,0.27457
10882,7.0362,2,0,0.00041927,4189.8,0.00014392,0.025749,0.00012887,-113.04,-0.00042108,-4245.1,0.26822
10883,7.1276,2,0.05,9.734e-07,9.7272,7.4745e-07,5.6161,-6.6006e-13,8.5041e-06,-7.4745e-07,-5.616,0.27479
10884,7.1276,1.7273,0,0.00041753,4172.5,0.00014194,0.04472,0.00013072,-84.273,-0.0004189,-4213.9,0.27403
10885,7.0362,1.8182,0,0.00041956,4192.7,0.00014333,0.034025,0.00013016,-98.961,-0.00042116,-4241.3,0.26772
10886,7.1276,1.8182,0.05,1.0231e-06,10.224,7.8559e-07,5.9026,-5.5349e-13,5.1201e-06,-7.8559e-07,-5.9026,0.27428
10887,7.1276,1.5455,0,0.0004177,4174.2,0.00014127,0.054279,0.00013203,-69.406,-0.00041884,-4208.4,0.2734
10888,7.0362,1.6364,0,0.00041985,4195.6,0.00014271,0.042341,0.00013149,-84.214,-0.00042122,-4237.1,0.26713
10889,7.1276,1.6364,0.05,1.0713e-06,10.706,8.2266e-07,6.1811,6.2165e-14,2.5398e-06,-8.2265e-07,-6.1811,0.2737
10890,7.1276,1.3636,0,0.00041783,4175.5,0.0001406,0.063233,0.00013329,-54.894,-0.00041874,-4202.6,0.27268
10891,7.0362,1.4545,0,0.00042013,4198.4,0.00014207,0.050197,0.00013283,-69.387,-0.00042126,-4232.6,0.26645
10892,7.1276,1.4545,0.05,1.1165e-06,11.157,8.5733e-07,6.4417,-7.1266e-14,1.122e-05,-8.5733e-07,-6.4416,0.27302
10893,7.1276,1.1818,0,0.00041792,4176.3,0.00013996,0.071056,0.00013445,-41.309,-0.0004186,-4196.7,0.27187
10894,7.0362,1.2727,0,0.00042037,4200.8,0.00014144,0.057075,0.00013411,-55.048,-0.00042127,-4228,0.26569
10895,7.1276,1.2727,0.05,1.1573e-06,11.565,8.8865e-07,6.677,-5.2711e-13,5.2091e-06,-8.8865e-07,-6.6769,0.27226
10896,7.1276,1,0,0.00041795,4176.6,0.00013937,0.077232,0.00013548,-29.152,-0.00041843,-4191,0.27098
10897,7.0362,1.0909,0,0.00042057,4202.8,0.00014085,0.062466,0.00013529,-41.706,-0.00042126,-4223.4,0.26484
10898,7.1276,1.0909,0.05,1.1928e-06,11.92,9.1592e-07,6.8818,-2.4943e-12,5.3011e-06,-9.1591e-07,-6.8818,0.27141
10899,7.1276,0.81818,0,0.00041793,4176.4,0.00013885,0.081134,0.00013634,-18.818,-0.00041824,-4185.7,0.26999
10900,7.0362,0.90909,0,0.00042072,4204.3,0.00014032,0.065774,0.00013634,-29.79,-0.00042122,-4219.1,0.2639
10901,7.1276,0.90909,0.05,1.2223e-06,12.215,9.3858e-07,7.0522,-2.6524e-12,5.8456e-06,-9.3857e-07,-7.0521,0.27047
10902,7.1276,0.63636,0,0.00041786,4175.7,0.00013843,0.082384,0.00013701,-10.583,-0.00041804,-4181,0.26892
10903,7.0362,0.72727,0,0.00042084,4205.5,0.00013985,0.066607,0.00013723,-19.626,-0.00042117,-4215.2,0.26287
10904,7.1276,0.72727,0.05,1.2452e-06,12.444,9.5618e-07,7.1844,-1.3591e-12,2.8239e-06,-9.5618e-07,-7.1843,0.26944
10905,7.1276,0.45455,0,0.00041778,4174.9,0.0001381,0.079611,0.00013748,-4.5793,-0.00041786,-4177.2,0.26775
10906,7.0362,0.54545,0,0.00042092,4206.3,0.00013948,0.063513,0.00013795,-11.413,-0.00042112,-4212,0.26175
10907,7.1276,0.54545,0.05,1.2597e-06,12.588,9.673e-07,7.2679,-3.2175e-12,1.8386e-06,-9.6729e-07,-7.2678,0.26832
10908,7.1276,0.27273,0,0.00041771,4174.2,0.00013789,0.10576,0.00013778,-0.74528,-0.00041772,-4174.6,0.26649
10909,7.0362,0.36364,0,0.000421,4207.1,0.00013919,0.060579,0.00013849,-5.2044,-0.00042109,-4209.7,0.26053
10910,7.1276,0.36364,0.05,1.2461e-06,12.453,9.5686e-07,7.1895,-1.6762e-12,1.1446e-06,-9.5686e-07,-7.1895,0.26711
10911,7.0362,0.18182,0,0.00042112,4208.3,0.00013902,0.087807,0.0001389,-0.79414,-0.00042114,-4208.7,0.25923
10912,7.1276,0.18182,0.05,9.0394e-07,9.0331,6.9411e-07,5.2153,-1.7711e-12,1.0622e-06,-6.9411e-07,-5.2153,0.2658
10913,7.1276,0.090909,0,0.00041762,4173.4,0.00013788,0.76889,0.00013778,0.047789,-0.00041761,-4172.9,0.26515
10914,6.9448,5.7273,0,0.00042441,4241.2,0.00014032,0.05182,0.00013961,-5.3032,-0.0004245,-4243.8,0.25336
10915,6.8534,5.8182,0,0.00042788,4275.8,0.00014139,0.064965,0.00014088,-3.7444,-0.00042794,-4277.6,0.24623
10916,6.9448,5.8182,0.05,8.6219e-07,8.616,6.6206e-07,4.9744,6.5355e-14,8.406e-07,-6.6206e-07,-4.9744,0.25267
10917,6.9448,5.9091,0,0.00042461,4243.2,0.00014018,0.083266,0.00014004,-0.91262,-0.00042463,-4243.6,0.25201
10918,6.9448,5.5455,0,0.00042415,4238.5,0.00014057,0.055229,0.00013896,-12.064,-0.00042435,-4244.5,0.25462
10919,6.8534,5.6364,0,0.00042744,4271.4,0.00014161,0.062678,0.00014011,-11.206,-0.00042763,-4277,0.24754
10920,6.9448,5.6364,0.05,1.2033e-06,12.025,9.2399e-07,6.9425,3.4183e-14,6.6316e-07,-9.2399e-07,-6.9425,0.25397
10921,6.9448,5.3636,0,0.0004239,4236,0.0001409,0.054604,0.00013817,-20.472,-0.00042424,-4246.2,0.25579
10922,6.8534,5.4545,0,0.00042704,4267.5,0.00014192,0.049138,0.00013925,-20.003,-0.00042738,-4277.4,0.24876
10923,6.9448,5.4545,0.05,1.2207e-06,12.198,9.3731e-07,7.0426,2.9696e-14,7.325e-07,-9.3731e-07,-7.0426,0.25519
10924,6.9448,5.1818,0,0.00042363,4233.4,0.00014132,0.055753,0.00013724,-30.608,-0.00042414,-4248.6,0.25687
10925,6.8534,5.2727,0,0.00042664,4263.5,0.0001423,0.051418,0.00013825,-30.338,-0.00042715,-4278.6,0.24988
10926,6.9448,5.2727,0.05,1.2112e-06,12.103,9.3004e-07,6.988,7.3386e-14,2.0168e-06,-9.3004e-07,-6.9879,0.25631
10927,6.9448,5,0,0.00042334,4230.5,0.0001418,0.053972,0.00013616,-42.351,-0.00042404,-4251.5,0.25786
10928,6.8534,5.0909,0,0.00042623,4259.3,0.00014274,0.049513,0.00013712,-42.158,-0.00042693,-4280.2,0.25092
10929,6.9448,5.0909,0.05,1.1942e-06,11.934,9.1701e-07,6.89,2.226e-13,2.0923e-06,-9.17e-07,-6.89,0.25734
10930,6.9448,4.8182,0,0.00042301,4227.2,0.00014234,0.050417,0.00013495,-55.448,-0.00042393,-4254.7,0.25875
10931,6.8534,4.9091,0,0.00042578,4254.9,0.00014324,0.046816,0.00013588,-55.275,-0.00042669,-4282.2,0.25186
10932,6.9448,4.9091,0.05,1.1715e-06,11.707,8.9955e-07,6.7588,2.7393e-13,-4.3968e-07,-8.9955e-07,-6.7588,0.25829
10933,6.9448,4.6364,0,0.00042266,4223.6,0.00014291,0.045263,0.00013365,-69.543,-0.0004238,-4258,0.25956
10934,6.8534,4.7273,0,0.00042531,4250.2,0.00014378,0.042564,0.00013454,-69.393,-0.00042645,-4284.4,0.25271
10935,6.9448,4.7273,0.05,1.1435e-06,11.427,8.7809e-07,6.5976,1.2682e-13,-1.7975e-06,-8.7809e-07,-6.5976,0.25914
10936,6.9448,4.4545,0,0.00042227,4219.8,0.0001435,0.038988,0.00013229,-84.196,-0.00042364,-4261.3,0.26028
10937,6.8534,4.5455,0,0.00042483,4245.3,0.00014434,0.037245,0.00013314,-84.128,-0.00042619,-4286.8,0.25348
10938,6.9448,4.5455,0.05,1.111e-06,11.103,8.5314e-07,6.4101,-1.0722e-12,-1.6012e-06,-8.5313e-07,-6.4101,0.2599
10939,6.9448,4.2727,0,0.00042188,4215.9,0.00014409,0.032025,0.00013093,-98.902,-0.00042347,-4264.5,0.26091
10940,6.8534,4.3636,0,0.00042433,4240.4,0.00014491,0.031146,0.00013173,-99.028,-0.00042593,-4289,0.25415
10941,6.9448,4.3636,0.05,1.0748e-06,10.741,8.2534e-07,6.2014,1.3138e-13,2.6547e-06,-8.2535e-07,-6.2013,0.26058
10942,6.9448,4.0909,0,0.00042149,4212,0.00014466,0.024827,0.0001296,-113.12,-0.0004233,-4267.4,0.26146
10943,6.8534,4.1818,0,0.00042385,4235.5,0.00014546,0.024658,0.00013034,-113.6,-0.00042566,-4291.2,0.25474
10944,6.9448,4.1818,0.05,1.0361e-06,10.354,7.9563e-07,5.9781,-1.3158e-12,-2.7188e-06,-7.9563e-07,-5.9781,0.26117
10945,6.9448,3.9091,0,0.00042112,4208.3,0.00014518,0.017834,0.00012837,-126.31,-0.00042313,-4270,0.26192
10946,6.8534,4,0,0.00042339,4230.9,0.00014598,0.018169,0.00012903,-127.32,-0.00042541,-4293.2,0.25525
10947,6.9448,4,0.05,9.9647e-07,9.9578,7.6516e-07,5.7491,-1.6264e-12,-3.8675e-06,-7.6516e-07,-5.7491,0.26167
10948,6.9448,3.7273,0,0.00042079,4205,0.00014564,0.011463,0.00012728,-137.94,-0.00042296,-4272.2,0.26229
10949,6.8534,3.8182,0,0.00042297,4226.8,0.00014644,0.012061,0.00012785,-139.69,-0.00042517,-4294.9,0.25566
10950,6.9448,3.8182,0.05,9.5775e-07,9.5709,7.3543e-07,5.5258,4.5221e-14,-3.5517e-06,-7.3543e-07,-5.5257,0.26209
10951,6.9448,3.5455,0,0.00042051,4202.2,0.00014601,0.0060861,0.00012638,-147.54,-0.00042283,-4274,0.26258
10952,6.8534,3.6364,0,0.00042261,4223.2,0.00014684,0.0066933,0.00012684,-150.23,-0.00042496,-4296.3,0.256
10953,6.9448,3.6364,0.05,9.2228e-07,9.2165,7.082e-07,5.3212,1.4794e-13,-3.0351e-06,-7.082e-07,-5.3211,0.26242
10954,6.9448,3.3636,0,0.0004203,4200.1,0.00014629,0.0020124,0.0001257,-154.7,-0.00042272,-4275.3,0.26279
10955,6.8534,3.4545,0,0.00042232,4220.3,0.00014715,0.002375,0.00012605,-158.54,-0.0004248,-4297.4,0.25625
10956,6.9448,3.4545,0.05,8.9258e-07,8.9196,6.8538e-07,5.1497,-1.8073e-12,-5.8313e-06,-6.8539e-07,-5.1497,0.26267
10957,6.9448,3.1818,0,0.00042017,4198.8,0.00014646,-0.00052784,0.00012529,-159.12,-0.00042265,-4276.1,0.26291
10958,6.8534,3.2727,0,0.00042213,4218.4,0.00014736,-0.00064799,0.0001255,-164.26,-0.00042468,-4298.1,0.25641
10959,6.9448,3.2727,0.05,8.7107e-07,8.7047,6.6888e-07,5.0257,-3.6119e-12,-7.8859e-06,-6.6887e-07,-5.0257,0.26283
10960,6.9448,3,0,0.00042013,4198.4,0.00014652,-0.0013909,0.00012514,-160.62,-0.00042263,-4276.4,0.26296
10961,6.8534,3.0909,0,0.00042203,4217.4,0.00014747,-0.0022041,0.00012522,-167.19,-0.00042462,-4298.5,0.25649
10962,6.9448,3.0909,0.05,8.5976e-07,8.5916,6.6019e-07,4.9604,-1.8333e-12,-5.899e-06,-6.6018e-07,-4.9604,0.26292
10963,6.9448,2.8182,0,0.00042017,4198.8,0.00014646,-0.00052793,0.00012529,-159.12,-0.00042265,-4276.1,0.26291
10964,6.8534,2.9091,0,0.00042203,4217.4,0.00014747,-0.0022041,0.00012522,-167.19,-0.00042462,-4298.5,0.25649
10965,6.9448,2.9091,0.05,8.5976e-07,8.5916,6.6019e-07,4.9604,-1.775e-12,-7.3654e-06,-6.6018e-07,-4.9604,0.26292
10966,6.9448,2.6364,0,0.0004203,4200.1,0.00014629,0.0020125,0.0001257,-154.7,-0.00042272,-4275.3,0.26279
10967,6.8534,2.7273,0,0.00042213,4218.4,0.00014736,-0.00064818,0.0001255,-164.26,-0.00042468,-4298.1,0.25641
10968,6.9448,2.7273,0.05,8.7107e-07,8.7047,6.6888e-07,5.0257,-3.4422e-12,-6.6037e-06,-6.6887e-07,-5.0257,0.26283
10969,6.9448,2.4545,0,0.00042051,4202.2,0.00014601,0.0060863,0.00012638,-147.54,-0.00042283,-4274,0.26258
10970,6.8534,2.5455,0,0.00042232,4220.3,0.00014715,0.0023753,0.00012605,-158.54,-0.0004248,-4297.4,0.25625
10971,6.9448,2.5455,0.05,8.9258e-07,8.9196,6.8538e-07,5.1498,-1.53e-12,-4.1605e-06,-6.8539e-07,-5.1497,0.26267
10972,6.9448,2.2727,0,0.00042079,4205,0.00014564,0.011463,0.00012728,-137.94,-0.00042296,-4272.2,0.26229
10973,6.8534,2.3636,0,0.00042261,4223.2,0.00014684,0.0066933,0.00012684,-150.23,-0.00042496,-4296.3,0.256
10974,6.9448,2.3636,0.05,9.2228e-07,9.2165,7.082e-07,5.3212,5.2343e-13,2.8275e-06,-7.082e-07,-5.321,0.26242
10975,6.9448,2.0909,0,0.00042112,4208.3,0.00014518,0.017835,0.00012837,-126.31,-0.00042313,-4270,0.26192
10976,6.8534,2.1818,0,0.00042297,4226.8,0.00014644,0.012062,0.00012785,-139.69,-0.00042517,-4294.9,0.25566
10977,6.9448,2.1818,0.05,9.5775e-07,9.5709,7.3543e-07,5.5258,-1.0266e-12,1.6925e-06,-7.3543e-07,-5.5257,0.26209
10978,6.9448,1.9091,0,0.00042149,4212,0.00014466,0.024828,0.0001296,-113.12,-0.0004233,-4267.4,0.26146
10979,6.8534,2,0,0.00042339,4230.9,0.00014598,0.01817,0.00012903,-127.32,-0.00042541,-4293.2,0.25525
10980,6.9448,2,0.05,9.9647e-07,9.9578,7.6516e-07,5.7492,-8.6877e-13,2.2574e-06,-7.6516e-07,-5.7491,0.26167
10981,6.9448,1.7273,0,0.00042188,4215.9,0.00014409,0.032025,0.00013093,-98.902,-0.00042347,-4264.5,0.26091
10982,6.8534,1.8182,0,0.00042385,4235.5,0.00014546,0.024659,0.00013034,-113.6,-0.00042566,-4291.2,0.25474
10983,6.9448,1.8182,0.05,1.0361e-06,10.354,7.9563e-07,5.9781,-5.0403e-13,3.1049e-06,-7.9563e-07,-5.978,0.26117
10984,6.9448,1.5455,0,0.00042227,4219.8,0.0001435,0.038988,0.00013229,-84.196,-0.00042364,-4261.3,0.26028
10985,6.8534,1.6364,0,0.00042433,4240.4,0.00014491,0.031146,0.00013173,-99.028,-0.00042593,-4289,0.25415
10986,6.9448,1.6364,0.05,1.0748e-06,10.741,8.2535e-07,6.2014,-7.309e-13,4.2827e-06,-8.2535e-07,-6.2013,0.26058
10987,6.9448,1.3636,0,0.00042266,4223.6,0.00014291,0.045264,0.00013365,-69.543,-0.0004238,-4258,0.25956
10988,6.8534,1.4545,0,0.00042483,4245.3,0.00014434,0.037246,0.00013314,-84.128,-0.00042619,-4286.8,0.25348
10989,6.9448,1.4545,0.05,1.111e-06,11.103,8.5314e-07,6.4101,-2.1445e-14,4.7197e-06,-8.5313e-07,-6.4101,0.2599
10990,6.9448,1.1818,0,0.00042301,4227.2,0.00014234,0.050418,0.00013495,-55.448,-0.00042393,-4254.7,0.25875
10991,6.8534,1.2727,0,0.00042531,4250.2,0.00014378,0.042565,0.00013454,-69.393,-0.00042645,-4284.4,0.25271
10992,6.9448,1.2727,0.05,1.1435e-06,11.427,8.7809e-07,6.5976,-8.585e-13,1.2241e-06,-8.7809e-07,-6.5976,0.25914
10993,6.9448,1,0,0.00042334,4230.5,0.0001418,0.053973,0.00013616,-42.351,-0.00042404,-4251.5,0.25786
10994,6.8534,1.0909,0,0.00042578,4254.9,0.00014324,0.046816,0.00013588,-55.275,-0.00042669,-4282.2,0.25186
10995,6.9448,1.0909,0.05,1.1715e-06,11.707,8.9955e-07,6.7589,-8.1682e-13,4.3307e-06,-8.9954e-07,-6.7588,0.25829
10996,6.9448,0.81818,0,0.00042363,4233.4,0.00014132,0.055754,0.00013724,-30.608,-0.00042414,-4248.6,0.25687
10997,6.8534,0.90909,0,0.00042623,4259.3,0.00014274,0.049515,0.00013712,-42.158,-0.00042693,-4280.2,0.25092
10998,6.9448,0.90909,0.05,1.1942e-06,11.934,9.1701e-07,6.8901,7.3661e-13,5.7175e-06,-9.17e-07,-6.89,0.25734
10999,6.9448,0.63636,0,0.0004239,4236,0.0001409,0.054605,0.00013817,-20.472,-0.00042424,-4246.2,0.25579
11000,6.8534,0.72727,0,0.00042664,4263.5,0.0001423,0.051419,0.00013825,-30.338,-0.00042715,-4278.6,0.24988
11001,6.9448,0.72727,0.05,1.2112e-06,12.103,9.3004e-07,6.988,5.4328e-13,2.4714e-06,-9.3003e-07,-6.9879,0.25631
11002,6.9448,0.45455,0,0.00042415,4238.5,0.00014057,0.05523,0.00013896,-12.064,-0.00042435,-4244.5,0.25462
11003,6.8534,0.54545,0,0.00042704,4267.5,0.00014192,0.049138,0.00013925,-20.003,-0.00042738,-4277.4,0.24876
11004,6.9448,0.54545,0.05,1.2207e-06,12.198,9.3731e-07,7.0426,-3.289e-12,2.4445e-06,-9.3731e-07,-7.0426,0.25519
11005,6.9448,0.27273,0,0.00042441,4241.2,0.00014032,0.051822,0.00013961,-5.3032,-0.0004245,-4243.8,0.25336
11006,6.8534,0.36364,0,0.00042744,4271.4,0.00014161,0.06268,0.00014011,-11.206,-0.00042763,-4277,0.24754
11007,6.9448,0.36364,0.05,1.2033e-06,12.025,9.2399e-07,6.9426,-1.6014e-12,2.5262e-06,-9.2399e-07,-6.9424,0.25397
11008,6.8534,0.18182,0,0.00042788,4275.8,0.00014139,0.064966,0.00014088,-3.7444,-0.00042794,-4277.6,0.24623
11009,6.9448,0.18182,0.05,8.6219e-07,8.616,6.6206e-07,4.9745,9.9064e-14,1.5428e-06,-6.6205e-07,-4.9744,0.25267
11010,6.9448,0.090909,0,0.00042461,4243.2,0.00014018,0.083267,0.00014004,-0.91262,-0.00042463,-4243.6,0.25201
11011,6.7621,5.7273,0,0.0004309,4306,0.00014268,0.059363,0.00014138,-9.6685,-0.00043106,-4310.8,0.24051
11012,6.6707,5.8182,0,0.00043443,4341.3,0.00014369,0.075409,0.00014281,-6.5926,-0.00043454,-4344.5,0.23352
11013,6.7621,5.8182,0.05,8.4241e-07,8.4183,6.4687e-07,4.8603,-1.3721e-22,6.7022e-07,-6.4687e-07,-4.8603,0.23981
11014,6.7621,5.9091,0,0.00043137,4310.7,0.00014248,0.087153,0.00014214,-2.4872,-0.00043141,-4311.9,0.23915
11015,6.7621,5.5455,0,0.00043033,4300.4,0.00014296,0.055945,0.0001404,-19.159,-0.00043065,-4309.9,0.24178
11016,6.6707,5.6364,0,0.0004337,4334,0.00014396,0.074034,0.0001417,-16.906,-0.00043398,-4342.4,0.23484
11017,6.7621,5.6364,0.05,1.1732e-06,11.724,9.0086e-07,6.7687,2.9474e-14,5.8586e-07,-9.0086e-07,-6.7687,0.24113
11018,6.7621,5.3636,0,0.00042979,4294.9,0.00014331,0.046468,0.00013933,-29.878,-0.00043029,-4309.7,0.24295
11019,6.6707,5.4545,0,0.00043302,4327.2,0.00014429,0.044886,0.00014054,-28.188,-0.00043349,-4341.2,0.23606
11020,6.7621,5.4545,0.05,1.1928e-06,11.92,9.1591e-07,6.8818,3.468e-14,4.3638e-07,-9.1591e-07,-6.8818,0.24234
11021,6.7621,5.1818,0,0.00042923,4289.4,0.00014372,0.045916,0.00013814,-41.893,-0.00042993,-4310.2,0.24403
11022,6.6707,5.2727,0,0.00043234,4320.4,0.00014468,0.045663,0.00013927,-40.607,-0.00043302,-4340.5,0.23719
11023,6.7621,5.2727,0.05,1.1871e-06,11.863,9.1157e-07,6.8493,6.0073e-14,2.2922e-06,-9.1158e-07,-6.8492,0.24347
11024,6.7621,5,0,0.00042867,4283.7,0.00014418,0.043045,0.00013685,-55.086,-0.00042958,-4311,0.24502
11025,6.6707,5.0909,0,0.00043165,4313.5,0.00014512,0.041684,0.00013791,-54.108,-0.00043255,-4340.3,0.23822
11026,6.7621,5.0909,0.05,1.1749e-06,11.741,9.0216e-07,6.7785,2.1563e-13,-2.5498e-07,-9.0216e-07,-6.7785,0.24451
11027,6.7621,4.8182,0,0.00042808,4277.9,0.00014468,0.039514,0.00013547,-69.222,-0.00042922,-4312,0.24592
11028,6.6707,4.9091,0,0.00043095,4306.6,0.0001456,0.038398,0.00013648,-68.508,-0.00043208,-4340.4,0.23917
11029,6.7621,4.9091,0.05,1.1576e-06,11.568,8.8889e-07,6.6788,9.8187e-14,3.7019e-07,-8.8889e-07,-6.6788,0.24545
11030,6.7621,4.6364,0,0.00042748,4271.9,0.00014521,0.034941,0.00013403,-83.978,-0.00042885,-4313.2,0.24672
11031,6.6707,4.7273,0,0.00043025,4299.5,0.0001461,0.034109,0.00013498,-83.532,-0.00043161,-4340.7,0.24002
11032,6.7621,4.7273,0.05,1.1358e-06,11.35,8.7214e-07,6.553,9.1465e-14,-1.8783e-07,-8.7215e-07,-6.553,0.2463
11033,6.7621,4.4545,0,0.00042689,4265.9,0.00014575,0.029646,0.00013257,-98.96,-0.00042848,-4314.5,0.24745
11034,6.6707,4.5455,0,0.00042955,4292.5,0.00014662,0.02925,0.00013346,-98.835,-0.00043114,-4341.1,0.24079
11035,6.7621,4.5455,0.05,1.1101e-06,11.093,8.5238e-07,6.4045,-1.6206e-12,-2.0049e-06,-8.5238e-07,-6.4045,0.24707
11036,6.7621,4.2727,0,0.0004263,4260.1,0.00014628,0.023889,0.00013114,-113.72,-0.00042812,-4315.8,0.24808
11037,6.6707,4.3636,0,0.00042886,4285.7,0.00014714,0.023914,0.00013196,-114.01,-0.00043069,-4341.5,0.24146
11038,6.7621,4.3636,0.05,1.0812e-06,10.804,8.3022e-07,6.2379,-1.3911e-12,-2.0218e-06,-8.3021e-07,-6.2379,0.24774
11039,6.7621,4.0909,0,0.00042574,4254.5,0.00014678,0.017998,0.00012977,-127.8,-0.00042777,-4317,0.24862
11040,6.6707,4.1818,0,0.00042821,4279.2,0.00014763,0.018378,0.00013051,-128.63,-0.00043025,-4342,0.24205
11041,6.7621,4.1818,0.05,1.0502e-06,10.495,8.0645e-07,6.0594,2.812e-13,5.3767e-07,-8.0646e-07,-6.0594,0.24833
11042,6.7621,3.9091,0,0.00042523,4249.4,0.00014724,0.012303,0.00012851,-140.7,-0.00042745,-4318,0.24908
11043,6.6707,4,0,0.00042761,4273.1,0.0001481,0.012918,0.00012917,-142.22,-0.00042985,-4342.4,0.24256
11044,6.7621,4,0.05,1.0186e-06,10.179,7.8214e-07,5.8767,-1.4899e-12,-5.1226e-06,-7.8214e-07,-5.8767,0.24884
11045,6.7621,3.7273,0,0.00042479,4245,0.00014764,0.0071263,0.00012741,-151.98,-0.00042717,-4318.9,0.24946
11046,6.6707,3.8182,0,0.00042707,4267.8,0.00014851,0.0078197,0.00012797,-154.36,-0.00042949,-4342.8,0.24297
11047,6.7621,3.8182,0.05,9.8781e-07,9.8713,7.5852e-07,5.6992,-3.1664e-12,-5.4263e-06,-7.5851e-07,-5.6992,0.24925
11048,6.7621,3.5455,0,0.00042442,4241.3,0.00014797,0.0027625,0.00012651,-161.23,-0.00042694,-4319.6,0.24975
11049,6.6707,3.6364,0,0.00042662,4263.2,0.00014886,0.0033617,0.00012695,-164.63,-0.00042918,-4343.2,0.24331
11050,6.7621,3.6364,0.05,9.5982e-07,9.5915,7.3702e-07,5.5377,8.5906e-14,-3.893e-06,-7.3702e-07,-5.5377,0.24959
11051,6.7621,3.3636,0,0.00042415,4238.6,0.00014821,-0.00054255,0.00012584,-168.1,-0.00042676,-4320.1,0.24996
11052,6.6707,3.4545,0,0.00042626,4259.7,0.00014913,-0.00021349,0.00012615,-172.67,-0.00042894,-4343.4,0.24356
11053,6.7621,3.4545,0.05,9.3653e-07,9.3588,7.1914e-07,5.4034,-3.4275e-12,-4.8754e-06,-7.1913e-07,-5.4033,0.24984
11054,6.7621,3.1818,0,0.00042398,4236.9,0.00014836,-0.0026035,0.00012543,-172.33,-0.00042665,-4320.5,0.25008
11055,6.6707,3.2727,0,0.00042602,4257.3,0.00014932,-0.0027124,0.0001256,-178.2,-0.00042877,-4343.6,0.24372
11056,6.7621,3.2727,0.05,9.1978e-07,9.1915,7.0628e-07,5.3067,-1.8542e-12,-7.9333e-06,-7.0628e-07,-5.3067,0.25
11057,6.7621,3,0,0.00042393,4236.4,0.00014841,-0.0033038,0.00012529,-173.75,-0.00042662,-4320.6,0.25012
11058,6.6707,3.0909,0,0.0004259,4256,0.00014942,-0.0039976,0.00012533,-181.02,-0.00042869,-4343.6,0.2438
11059,6.7621,3.0909,0.05,9.1101e-07,9.1038,6.9954e-07,5.2561,-5.4702e-12,-5.8941e-06,-6.9954e-07,-5.2561,0.25009
11060,6.7621,2.8182,0,0.00042398,4236.9,0.00014836,-0.0026036,0.00012543,-172.33,-0.00042665,-4320.5,0.25008
11061,6.6707,2.9091,0,0.0004259,4256,0.00014942,-0.0039975,0.00012533,-181.02,-0.00042869,-4343.6,0.2438
11062,6.7621,2.9091,0.05,9.1101e-07,9.1038,6.9954e-07,5.2561,-5.4158e-12,-5.4858e-06,-6.9954e-07,-5.2561,0.25009
11063,6.7621,2.6364,0,0.00042415,4238.6,0.00014821,-0.00054258,0.00012584,-168.1,-0.00042676,-4320.1,0.24996
11064,6.6707,2.7273,0,0.00042602,4257.3,0.00014932,-0.0027123,0.0001256,-178.2,-0.00042877,-4343.6,0.24372
11065,6.7621,2.7273,0.05,9.1978e-07,9.1915,7.0628e-07,5.3067,-1.6943e-12,-6.7382e-06,-7.0628e-07,-5.3067,0.25
11066,6.7621,2.4545,0,0.00042442,4241.3,0.00014797,0.0027627,0.00012651,-161.23,-0.00042694,-4319.6,0.24975
11067,6.6707,2.5455,0,0.00042626,4259.7,0.00014913,-0.00021347,0.00012615,-172.67,-0.00042894,-4343.4,0.24356
11068,6.7621,2.5455,0.05,9.3653e-07,9.3588,7.1914e-07,5.4034,-3.1667e-12,-4.8126e-06,-7.1913e-07,-5.4033,0.24984
11069,6.7621,2.2727,0,0.00042479,4245,0.00014764,0.0071268,0.00012741,-151.98,-0.00042717,-4318.9,0.24946
11070,6.6707,2.3636,0,0.00042662,4263.2,0.00014886,0.0033619,0.00012695,-164.63,-0.00042918,-4343.2,0.24331
11071,6.7621,2.3636,0.05,9.5982e-07,9.5915,7.3702e-07,5.5377,4.3517e-13,-3.0962e-06,-7.3702e-07,-5.5377,0.24959
11072,6.7621,2.0909,0,0.00042523,4249.4,0.00014724,0.012304,0.00012851,-140.7,-0.00042745,-4318,0.24908
11073,6.6707,2.1818,0,0.00042707,4267.8,0.00014851,0.0078202,0.00012797,-154.36,-0.00042949,-4342.8,0.24297
11074,6.7621,2.1818,0.05,9.8781e-07,9.8713,7.5852e-07,5.6992,-2.7417e-12,4.0116e-06,-7.5851e-07,-5.6992,0.24925
11075,6.7621,1.9091,0,0.00042574,4254.5,0.00014678,0.017999,0.00012977,-127.8,-0.00042777,-4317,0.24862
11076,6.6707,2,0,0.00042761,4273.1,0.0001481,0.012918,0.00012917,-142.22,-0.00042985,-4342.4,0.24256
11077,6.7621,2,0.05,1.0186e-06,10.179,7.8214e-07,5.8767,-8.2371e-13,-3.3674e-06,-7.8214e-07,-5.8767,0.24884
11078,6.7621,1.7273,0,0.0004263,4260.1,0.00014628,0.02389,0.00013114,-113.72,-0.00042812,-4315.8,0.24808
11079,6.6707,1.8182,0,0.00042821,4279.2,0.00014763,0.018379,0.00013051,-128.63,-0.00043025,-4342,0.24205
11080,6.7621,1.8182,0.05,1.0502e-06,10.495,8.0645e-07,6.0594,-9.1736e-13,6.2019e-06,-8.0646e-07,-6.0593,0.24833
11081,6.7621,1.5455,0,0.00042689,4265.9,0.00014575,0.029647,0.00013257,-98.96,-0.00042848,-4314.5,0.24745
11082,6.6707,1.6364,0,0.00042886,4285.7,0.00014714,0.023915,0.00013196,-114.01,-0.00043069,-4341.5,0.24146
11083,6.7621,1.6364,0.05,1.0812e-06,10.804,8.3021e-07,6.2379,-4.063e-12,1.3011e-07,-8.3022e-07,-6.2379,0.24774
11084,6.7621,1.3636,0,0.00042748,4271.9,0.00014521,0.034941,0.00013403,-83.978,-0.00042885,-4313.2,0.24672
11085,6.6707,1.4545,0,0.00042955,4292.5,0.00014662,0.029251,0.00013346,-98.835,-0.00043114,-4341.1,0.24079
11086,6.7621,1.4545,0.05,1.1101e-06,11.093,8.5239e-07,6.4045,-2.2298e-13,9.6805e-07,-8.5238e-07,-6.4045,0.24707
11087,6.7621,1.1818,0,0.00042808,4277.9,0.00014468,0.039515,0.00013547,-69.222,-0.00042922,-4312,0.24592
11088,6.6707,1.2727,0,0.00043025,4299.5,0.0001461,0.03411,0.00013498,-83.532,-0.00043161,-4340.7,0.24002
11089,6.7621,1.2727,0.05,1.1358e-06,11.35,8.7214e-07,6.553,-1.1423e-12,8.4064e-06,-8.7215e-07,-6.5529,0.2463
11090,6.7621,1,0,0.00042867,4283.7,0.00014418,0.043046,0.00013685,-55.086,-0.00042958,-4311,0.24502
11091,6.6707,1.0909,0,0.00043095,4306.6,0.0001456,0.038399,0.00013648,-68.508,-0.00043208,-4340.4,0.23917
11092,6.7621,1.0909,0.05,1.1576e-06,11.568,8.8889e-07,6.6788,-1.036e-12,5.3222e-07,-8.8889e-07,-6.6788,0.24545
11093,6.7621,0.81818,0,0.00042923,4289.4,0.00014372,0.045917,0.00013814,-41.893,-0.00042993,-4310.2,0.24403
11094,6.6707,0.90909,0,0.00043165,4313.5,0.00014512,0.041686,0.00013791,-54.108,-0.00043255,-4340.3,0.23822
11095,6.7621,0.90909,0.05,1.1749e-06,11.741,9.0216e-07,6.7785,-1.0102e-12,6.5368e-06,-9.0216e-07,-6.7784,0.24451
11096,6.7621,0.63636,0,0.00042979,4294.9,0.00014331,0.046469,0.00013933,-29.878,-0.00043029,-4309.7,0.24295
11097,6.6707,0.72727,0,0.00043234,4320.4,0.00014468,0.045664,0.00013927,-40.607,-0.00043302,-4340.5,0.23719
11098,6.7621,0.72727,0.05,1.1871e-06,11.863,9.1157e-07,6.8493,-1.2937e-12,5.6771e-06,-9.1158e-07,-6.8492,0.24347
11099,6.7621,0.45455,0,0.00043033,4300.4,0.00014296,0.055946,0.0001404,-19.159,-0.00043065,-4309.9,0.24178
11100,6.6707,0.54545,0,0.00043302,4327.2,0.00014429,0.044886,0.00014054,-28.188,-0.00043349,-4341.2,0.23606
11101,6.7621,0.54545,0.05,1.1928e-06,11.92,9.1591e-07,6.8819,-3.1178e-12,4.6546e-06,-9.1591e-07,-6.8817,0.24234
11102,6.7621,0.27273,0,0.0004309,4306,0.00014268,0.059365,0.00014138,-9.6685,-0.00043106,-4310.8,0.24051
11103,6.6707,0.36364,0,0.0004337,4334,0.00014396,0.074036,0.0001417,-16.906,-0.00043398,-4342.4,0.23484
11104,6.7621,0.36364,0.05,1.1732e-06,11.724,9.0087e-07,6.7688,-3.2566e-12,2.4033e-06,-9.0086e-07,-6.7687,0.24113
11105,6.6707,0.18182,0,0.00043443,4341.3,0.00014369,0.07541,0.00014281,-6.5926,-0.00043454,-4344.5,0.23352
11106,6.7621,0.18182,0.05,8.4241e-07,8.4183,6.4687e-07,4.8604,-5.1543e-12,3.9302e-06,-6.4687e-07,-4.8603,0.23981
11107,6.7621,0.090909,0,0.00043137,4310.7,0.00014248,0.087154,0.00014214,-2.4872,-0.00043141,-4311.9,0.23915
11108,6.5793,5.7273,0,0.00043722,4369.2,0.00014497,0.07008,0.00014312,-13.844,-0.00043746,-4376.1,0.22795
11109,6.4879,5.8182,0,0.00044083,4405.2,0.00014594,0.08848,0.00014469,-9.3412,-0.00044098,-4409.8,0.2211
11110,6.5793,5.8182,0.05,8.4139e-07,8.4081,6.4608e-07,4.8544,4.4066e-14,6.3002e-07,-6.4608e-07,-4.8544,0.22725
11111,6.5793,5.9091,0,0.00043795,4376.4,0.00014473,0.095782,0.00014418,-4.009,-0.00043801,-4378.4,0.22658
11112,6.5793,5.5455,0,0.00043639,4360.8,0.0001453,0.060839,0.00014183,-25.946,-0.00043682,-4373.7,0.22922
11113,6.4879,5.6364,0,0.00043984,4395.3,0.00014626,0.087268,0.00014327,-22.378,-0.00044021,-4406.4,0.22242
11114,6.5793,5.6364,0.05,1.1536e-06,11.528,8.8581e-07,6.6556,1.4812e-13,2.6744e-07,-8.8581e-07,-6.6556,0.22857
11115,6.5793,5.3636,0,0.00043557,4352.7,0.00014567,0.043507,0.00014048,-38.924,-0.00043622,-4372,0.23039
11116,6.4879,5.4545,0,0.00043889,4385.9,0.00014662,0.043904,0.00014181,-36.08,-0.00043949,-4403.8,0.22365
11117,6.5793,5.4545,0.05,1.1742e-06,11.734,9.0162e-07,6.7744,1.9894e-14,1.0264e-06,-9.0162e-07,-6.7744,0.22979
11118,6.5793,5.1818,0,0.00043476,4344.6,0.00014608,0.041315,0.00013905,-52.826,-0.00043563,-4370.7,0.23148
11119,6.4879,5.2727,0,0.00043795,4376.5,0.00014703,0.043475,0.00014029,-50.575,-0.00043879,-4401.6,0.22478
11120,6.5793,5.2727,0.05,1.1714e-06,11.706,8.995e-07,6.7585,-1.5545e-12,4.5842e-07,-8.995e-07,-6.7585,0.23092
11121,6.5793,5,0,0.00043394,4336.4,0.00014654,0.037076,0.00013754,-67.532,-0.00043505,-4369.8,0.23247
11122,6.4879,5.0909,0,0.00043702,4367.2,0.00014747,0.037503,0.0001387,-65.803,-0.0004381,-4399.7,0.22582
11123,6.5793,5.0909,0.05,1.1628e-06,11.62,8.9291e-07,6.709,5.9031e-14,2.4411e-06,-8.9291e-07,-6.709,0.23195
11124,6.5793,4.8182,0,0.00043312,4328.2,0.00014702,0.03307,0.00013599,-82.818,-0.00043447,-4369,0.23337
11125,6.4879,4.9091,0,0.00043609,4357.9,0.00014794,0.033448,0.00013707,-81.58,-0.00043742,-4398.1,0.22676
11126,6.5793,4.9091,0.05,1.1499e-06,11.491,8.8298e-07,6.6343,-1.6636e-12,-3.2774e-07,-8.8298e-07,-6.6343,0.2329
11127,6.5793,4.6364,0,0.00043232,4320.2,0.00014751,0.028481,0.00013441,-98.388,-0.0004339,-4368.5,0.23418
11128,6.4879,4.7273,0,0.00043518,4348.8,0.00014842,0.028803,0.00013542,-97.649,-0.00043676,-4396.8,0.22762
11129,6.5793,4.7273,0.05,1.133e-06,11.322,8.7002e-07,6.537,2.6633e-13,-2.212e-06,-8.7001e-07,-6.537,0.23375
11130,6.5793,4.4545,0,0.00043153,4312.3,0.00014801,0.023543,0.00013285,-113.89,-0.00043335,-4368.1,0.2349
11131,6.4879,4.5455,0,0.00043429,4339.9,0.00014891,0.024003,0.00013378,-113.69,-0.00043611,-4395.6,0.22838
11132,6.5793,4.5455,0.05,1.1127e-06,11.12,8.5444e-07,6.4199,6.6093e-14,-2.2256e-06,-8.5444e-07,-6.4199,0.23452
11133,6.5793,4.2727,0,0.00043077,4304.8,0.00014849,0.018381,0.00013134,-128.91,-0.00043282,-4367.8,0.23553
11134,6.4879,4.3636,0,0.00043343,4331.3,0.00014939,0.018997,0.00013218,-129.34,-0.00043548,-4394.5,0.22906
11135,6.5793,4.3636,0.05,1.0898e-06,10.89,8.3681e-07,6.2874,2.5828e-13,-2.3412e-06,-8.3681e-07,-6.2874,0.2352
11136,6.5793,4.0909,0,0.00043007,4297.8,0.00014895,0.013227,0.00012991,-143.05,-0.00043233,-4367.5,0.23608
11137,6.4879,4.1818,0,0.00043263,4323.3,0.00014985,0.013974,0.00013066,-144.21,-0.0004349,-4393.6,0.22965
11138,6.5793,4.1818,0.05,1.0651e-06,10.643,8.1783e-07,6.1449,2.2306e-13,-3.3746e-06,-8.1783e-07,-6.1449,0.23579
11139,6.5793,3.9091,0,0.00042944,4291.5,0.00014937,0.0083195,0.00012862,-155.89,-0.00043188,-4367.3,0.23654
11140,6.4879,4,0,0.0004319,4316,0.00015028,0.0091245,0.00012926,-157.89,-0.00043437,-4392.8,0.23015
11141,6.5793,4,0.05,1.0398e-06,10.39,7.9841e-07,5.9989,5.9255e-15,-3.6099e-06,-7.9841e-07,-5.9989,0.23629
11142,6.5793,3.7273,0,0.0004289,4286,0.00014973,0.0039021,0.0001275,-167.01,-0.0004315,-4367.1,0.23691
11143,6.4879,3.8182,0,0.00043126,4309.6,0.00015065,0.0046621,0.00012803,-170,-0.0004339,-4392.1,0.23057
11144,6.5793,3.8182,0.05,1.0152e-06,10.145,7.7958e-07,5.8575,-3.5284e-12,-7.5105e-06,-7.7958e-07,-5.8575,0.23671
11145,6.5793,3.5455,0,0.00042846,4281.6,0.00015002,0.00020205,0.00012659,-176.08,-0.00043118,-4366.9,0.2372
11146,6.4879,3.6364,0,0.00043072,4304.2,0.00015097,0.00079677,0.00012699,-180.17,-0.0004335,-4391.5,0.2309
11147,6.5793,3.6364,0.05,9.9302e-07,9.9234,7.6252e-07,5.7293,-1.7269e-12,-7.7691e-06,-7.6252e-07,-5.7293,0.23704
11148,6.5793,3.3636,0,0.00042813,4278.4,0.00015024,-0.0025893,0.00012591,-182.78,-0.00043095,-4366.8,0.23741
11149,6.4879,3.4545,0,0.00043031,4300.1,0.00015122,-0.002283,0.00012618,-188.1,-0.0004332,-4391,0.23115
11150,6.5793,3.4545,0.05,9.7462e-07,9.7395,7.4839e-07,5.6231,-1.7973e-12,-5.1941e-06,-7.4839e-07,-5.6231,0.23729
11151,6.5793,3.1818,0,0.00042793,4276.4,0.00015037,-0.0043259,0.0001255,-186.9,-0.00043081,-4366.8,0.23754
11152,6.4879,3.2727,0,0.00043002,4297.3,0.00015139,-0.0044274,0.00012563,-193.53,-0.00043299,-4390.7,0.23132
11153,6.5793,3.2727,0.05,9.6144e-07,9.6078,7.3827e-07,5.5471,-1.8188e-12,-3.8882e-08,-7.3827e-07,-5.547,0.23746
11154,6.5793,3,0,0.00042787,4275.7,0.00015042,-0.0049152,0.00012536,-188.28,-0.00043076,-4366.7,0.23758
11155,6.4879,3.0909,0,0.00042988,4295.8,0.00015147,-0.0055278,0.00012535,-196.29,-0.00043288,-4390.6,0.2314
11156,6.5793,3.0909,0.05,9.5456e-07,9.539,7.3299e-07,5.5073,-3.6492e-12,-5.889e-06,-7.3298e-07,-5.5073,0.23754
11157,6.5793,2.8182,0,0.00042793,4276.4,0.00015037,-0.0043256,0.0001255,-186.9,-0.00043081,-4366.8,0.23754
11158,6.4879,2.9091,0,0.00042988,4295.8,0.00015147,-0.0055277,0.00012535,-196.29,-0.00043288,-4390.6,0.2314
11159,6.5793,2.9091,0.05,9.5456e-07,9.539,7.3299e-07,5.5073,-3.5981e-12,-5.5049e-06,-7.3298e-07,-5.5073,0.23754
11160,6.5793,2.6364,0,0.00042813,4278.4,0.00015024,-0.0025891,0.00012591,-182.78,-0.00043095,-4366.8,0.23741
11161,6.4879,2.7273,0,0.00043002,4297.3,0.00015139,-0.0044273,0.00012563,-193.53,-0.00043299,-4390.7,0.23132
11162,6.5793,2.7273,0.05,9.6144e-07,9.6078,7.3827e-07,5.5471,-1.6688e-12,1.0891e-06,-7.3827e-07,-5.547,0.23746
11163,6.5793,2.4545,0,0.00042846,4281.6,0.00015002,0.00020205,0.00012659,-176.08,-0.00043118,-4366.9,0.2372
11164,6.4879,2.5455,0,0.00043031,4300.1,0.00015122,-0.002283,0.00012618,-188.1,-0.0004332,-4391,0.23115
11165,6.5793,2.5455,0.05,9.7462e-07,9.7395,7.4839e-07,5.6231,-3.3471e-12,-5.2452e-06,-7.4839e-07,-5.6231,0.23729
11166,6.5793,2.2727,0,0.0004289,4286,0.00014973,0.0039023,0.0001275,-167.01,-0.0004315,-4367.1,0.23691
11167,6.4879,2.3636,0,0.00043072,4304.2,0.00015097,0.00079701,0.00012699,-180.17,-0.0004335,-4391.5,0.2309
11168,6.5793,2.3636,0.05,9.9302e-07,9.9234,7.6252e-07,5.7293,-3.1745e-12,-3.7972e-06,-7.6252e-07,-5.7292,0.23704
11169,6.5793,2.0909,0,0.00042944,4291.5,0.00014937,0.0083199,0.00012862,-155.89,-0.00043188,-4367.3,0.23654
11170,6.4879,2.1818,0,0.00043126,4309.6,0.00015065,0.0046624,0.00012803,-170,-0.0004339,-4392.1,0.23057
11171,6.5793,2.1818,0.05,1.0152e-06,10.145,7.7958e-07,5.8575,-3.1355e-12,1.6625e-06,-7.7958e-07,-5.8574,0.23671
11172,6.5793,1.9091,0,0.00043007,4297.8,0.00014895,0.013228,0.00012991,-143.05,-0.00043233,-4367.5,0.23608
11173,6.4879,2,0,0.0004319,4316,0.00015028,0.009125,0.00012926,-157.89,-0.00043437,-4392.8,0.23015
11174,6.5793,2,0.05,1.0398e-06,10.39,7.9841e-07,5.9989,-1.1231e-12,-2.5472e-07,-7.984e-07,-5.9989,0.23629
11175,6.5793,1.7273,0,0.00043077,4304.8,0.00014849,0.018382,0.00013134,-128.91,-0.00043282,-4367.8,0.23553
11176,6.4879,1.8182,0,0.00043263,4323.3,0.00014985,0.013974,0.00013066,-144.21,-0.0004349,-4393.6,0.22965
11177,6.5793,1.8182,0.05,1.0651e-06,10.643,8.1783e-07,6.1449,6.973e-13,1.6076e-06,-8.1783e-07,-6.1448,0.23579
11178,6.5793,1.5455,0,0.00043153,4312.3,0.00014801,0.023544,0.00013285,-113.89,-0.00043335,-4368.1,0.2349
11179,6.4879,1.6364,0,0.00043343,4331.3,0.00014939,0.018997,0.00013218,-129.34,-0.00043548,-4394.5,0.22906
11180,6.5793,1.6364,0.05,1.0898e-06,10.89,8.3681e-07,6.2875,9.5314e-13,3.9285e-06,-8.368e-07,-6.2874,0.2352
11181,6.5793,1.3636,0,0.00043232,4320.2,0.00014751,0.028482,0.00013441,-98.388,-0.0004339,-4368.5,0.23418
11182,6.4879,1.4545,0,0.00043429,4339.9,0.00014891,0.024004,0.00013378,-113.69,-0.00043611,-4395.6,0.22838
11183,6.5793,1.4545,0.05,1.1127e-06,11.12,8.5444e-07,6.42,-9.5736e-13,4.0362e-06,-8.5444e-07,-6.4199,0.23452
11184,6.5793,1.1818,0,0.00043312,4328.2,0.00014702,0.033071,0.00013599,-82.818,-0.00043447,-4369,0.23337
11185,6.4879,1.2727,0,0.00043518,4348.8,0.00014842,0.028804,0.00013542,-97.649,-0.00043676,-4396.8,0.22762
11186,6.5793,1.2727,0.05,1.133e-06,11.322,8.7002e-07,6.537,-7.8272e-13,4.655e-06,-8.7001e-07,-6.5369,0.23375
11187,6.5793,1,0,0.00043394,4336.4,0.00014654,0.037077,0.00013754,-67.532,-0.00043505,-4369.8,0.23247
11188,6.4879,1.0909,0,0.00043609,4357.9,0.00014794,0.033449,0.00013707,-81.58,-0.00043742,-4398.1,0.22676
11189,6.5793,1.0909,0.05,1.1499e-06,11.491,8.8297e-07,6.6344,-2.7911e-12,6.1804e-06,-8.8298e-07,-6.6343,0.2329
11190,6.5793,0.81818,0,0.00043476,4344.6,0.00014608,0.041316,0.00013905,-52.826,-0.00043563,-4370.7,0.23148
11191,6.4879,0.90909,0,0.00043702,4367.2,0.00014747,0.037504,0.0001387,-65.803,-0.0004381,-4399.7,0.22582
11192,6.5793,0.90909,0.05,1.1628e-06,11.62,8.9292e-07,6.7091,-2.403e-12,6.863e-06,-8.9291e-07,-6.709,0.23195
11193,6.5793,0.63636,0,0.00043557,4352.7,0.00014567,0.043508,0.00014048,-38.924,-0.00043622,-4372,0.23039
11194,6.4879,0.72727,0,0.00043795,4376.5,0.00014703,0.043476,0.00014029,-50.575,-0.00043879,-4401.6,0.22478
11195,6.5793,0.72727,0.05,1.1714e-06,11.706,8.995e-07,6.7585,-2.8795e-12,3.9052e-06,-8.9949e-07,-6.7584,0.23092
11196,6.5793,0.45455,0,0.00043639,4360.8,0.0001453,0.06084,0.00014183,-25.946,-0.00043682,-4373.7,0.22922
11197,6.4879,0.54545,0,0.00043889,4385.9,0.00014662,0.043904,0.00014181,-36.08,-0.00043949,-4403.8,0.22365
11198,6.5793,0.54545,0.05,1.1742e-06,11.734,9.0162e-07,6.7744,-3.2444e-12,9.1223e-07,-9.0162e-07,-6.7744,0.22979
11199,6.5793,0.27273,0,0.00043722,4369.2,0.00014497,0.070082,0.00014312,-13.844,-0.00043746,-4376.1,0.22795
11200,6.4879,0.36364,0,0.00043984,4395.3,0.00014626,0.087269,0.00014327,-22.378,-0.00044021,-4406.4,0.22242
11201,6.5793,0.36364,0.05,1.1536e-06,11.528,8.8581e-07,6.6556,-3.0996e-12,1.2105e-06,-8.858e-07,-6.6556,0.22857
11202,6.4879,0.18182,0,0.00044083,4405.2,0.00014594,0.088481,0.00014469,-9.3412,-0.00044098,-4409.8,0.2211
11203,6.5793,0.18182,0.05,8.4139e-07,8.4081,6.4608e-07,4.8544,-3.2214e-12,3.5833e-06,-6.4608e-07,-4.8544,0.22725
11204,6.5793,0.090909,0,0.00043795,4376.4,0.00014473,0.095784,0.00014418,-4.009,-0.00043801,-4378.4,0.22658
11205,6.3966,5.7273,0,0.00044343,4431.3,0.00014722,0.081829,0.00014483,-17.88,-0.00044373,-4440.2,0.21568
11206,6.3052,5.8182,0,0.00044712,4468.1,0.00014815,0.10253,0.00014654,-12.016,-0.00044732,-4474.1,0.20898
11207,6.3966,5.8182,0.05,8.564e-07,8.5581,6.5761e-07,4.941,2.6534e-14,3.9781e-06,-6.5761e-07,-4.941,0.21498
11208,6.3966,5.9091,0,0.00044439,4440.9,0.00014693,0.10522,0.00014619,-5.4888,-0.00044448,-4443.6,0.21431
11209,6.3966,5.5455,0,0.00044234,4420.4,0.00014759,0.067344,0.00014325,-32.518,-0.00044288,-4436.5,0.21695
11210,6.3052,5.6364,0,0.00044588,4455.7,0.00014852,0.10131,0.00014482,-27.693,-0.00044634,-4469.5,0.2103
11211,6.3966,5.6364,0.05,1.1427e-06,11.42,8.7749e-07,6.5931,2.1255e-14,4.0807e-07,-8.7749e-07,-6.5931,0.2163
11212,6.3966,5.3636,0,0.00044127,4409.7,0.00014798,0.042848,0.00014162,-47.735,-0.00044207,-4433.4,0.21813
11213,6.3052,5.4545,0,0.00044469,4443.8,0.00014891,0.044588,0.00014308,-43.785,-0.00044542,-4465.5,0.21153
11214,6.3966,5.4545,0.05,1.1633e-06,11.625,8.9325e-07,6.7116,1.8201e-13,3.0395e-06,-8.9325e-07,-6.7115,0.21752
11215,6.3966,5.1818,0,0.00044022,4399.2,0.00014841,0.039219,0.00013995,-63.554,-0.00044127,-4430.6,0.21921
11216,6.3052,5.2727,0,0.00044351,4432.1,0.00014934,0.043149,0.0001413,-60.375,-0.00044451,-4461.9,0.21266
11217,6.3966,5.2727,0.05,1.1626e-06,11.618,8.9277e-07,6.7079,3.5732e-14,-5.5235e-08,-8.9277e-07,-6.7079,0.21865
11218,6.3966,5,0,0.00043918,4388.7,0.00014887,0.033654,0.00013824,-79.851,-0.00044048,-4428.1,0.22021
11219,6.3052,5.0909,0,0.00044235,4420.5,0.0001498,0.035313,0.00013949,-77.394,-0.00044362,-4458.6,0.2137
11220,6.3966,5.0909,0.05,1.1569e-06,11.561,8.8837e-07,6.6749,3.7453e-14,3.3112e-06,-8.8837e-07,-6.6748,0.21969
11221,6.3966,4.8182,0,0.00043815,4378.5,0.00014934,0.029056,0.00013651,-96.409,-0.00043971,-4425.9,0.22111
11222,6.3052,4.9091,0,0.00044121,4409.1,0.00015027,0.030471,0.00013766,-94.655,-0.00044274,-4455.6,0.21465
11223,6.3966,4.9091,0.05,1.1474e-06,11.466,8.8106e-07,6.6199,3.8705e-14,2.9762e-07,-8.8106e-07,-6.6199,0.22064
11224,6.3966,4.6364,0,0.00043715,4368.5,0.00014982,0.024237,0.00013478,-112.95,-0.00043896,-4423.8,0.22192
11225,6.3052,4.7273,0,0.0004401,4398,0.00015074,0.025359,0.00013585,-111.91,-0.0004419,-4452.8,0.2155
11226,6.3966,4.7273,0.05,1.1344e-06,11.336,8.7111e-07,6.5451,-2.9856e-12,-2.4656e-06,-8.711e-07,-6.5451,0.22149
11227,6.3966,4.4545,0,0.00043619,4358.9,0.00015029,0.019375,0.0001331,-129.14,-0.00043824,-4422,0.22264
11228,6.3052,4.5455,0,0.00043903,4387.3,0.00015122,0.020436,0.00013406,-128.87,-0.00044108,-4450.3,0.21627
11229,6.3966,4.5455,0.05,1.1185e-06,11.177,8.5888e-07,6.4533,-1.4848e-12,-6.8019e-07,-8.5887e-07,-6.4533,0.22226
11230,6.3966,4.2727,0,0.00043528,4349.8,0.00015075,0.014498,0.0001315,-144.64,-0.00043756,-4420.3,0.22327
11231,6.3052,4.3636,0,0.00043802,4377.1,0.00015168,0.015532,0.00013235,-145.18,-0.0004403,-4447.9,0.21695
11232,6.3966,4.3636,0.05,1.1003e-06,10.995,8.4486e-07,6.348,2.111e-13,-1.6859e-06,-8.4486e-07,-6.348,0.22294
11233,6.3966,4.0909,0,0.00043445,4341.5,0.00015118,0.009764,0.00013001,-159.05,-0.00043694,-4418.9,0.22382
11234,6.3052,4.1818,0,0.00043708,4367.8,0.00015211,0.010774,0.00013075,-160.5,-0.00043959,-4445.8,0.21754
11235,6.3966,4.1818,0.05,1.0805e-06,10.798,8.2969e-07,6.234,-1.731e-12,-3.6301e-06,-8.2969e-07,-6.234,0.22353
11236,6.3966,3.9091,0,0.00043371,4334.1,0.00015156,0.0053411,0.00012867,-172.01,-0.00043638,-4417.6,0.22428
11237,6.3052,4,0,0.00043623,4359.3,0.00015251,0.0062857,0.00012929,-174.47,-0.00043894,-4443.9,0.21804
11238,6.3966,4,0.05,1.0602e-06,10.595,8.1413e-07,6.1171,1.2448e-13,-3.8477e-06,-8.1413e-07,-6.1171,0.22403
11239,6.3966,3.7273,0,0.00043308,4327.8,0.00015189,0.0014123,0.00012752,-183.16,-0.0004359,-4416.5,0.22465
11240,6.3052,3.8182,0,0.00043549,4351.9,0.00015286,0.0022232,0.00012801,-186.74,-0.00043837,-4442.3,0.21846
11241,6.3966,3.8182,0.05,1.0406e-06,10.399,7.9906e-07,6.0038,-4.4642e-14,-2.1802e-06,-7.9906e-07,-6.0038,0.22445
11242,6.3966,3.5455,0,0.00043257,4322.7,0.00015216,-0.0018488,0.00012658,-192.2,-0.00043552,-4415.6,0.22495
11243,6.3052,3.6364,0,0.00043488,4345.8,0.00015316,-0.0012552,0.00012694,-196.98,-0.0004379,-4441,0.21879
11244,6.3966,3.6364,0.05,1.0229e-06,10.221,7.8543e-07,5.9014,1.9221e-14,-4.7382e-06,-7.8542e-07,-5.9014,0.22478
11245,6.3966,3.3636,0,0.0004322,4319,0.00015236,-0.0042938,0.0001259,-198.85,-0.00043524,-4415,0.22515
11246,6.3052,3.4545,0,0.00043441,4341.1,0.00015339,-0.0040043,0.00012611,-204.92,-0.00043754,-4440,0.21904
11247,6.3966,3.4545,0.05,1.0082e-06,10.075,7.7417e-07,5.8168,2.2871e-14,-6.133e-06,-7.7416e-07,-5.8168,0.22503
11248,6.3966,3.1818,0,0.00043197,4316.7,0.00015248,-0.0058095,0.00012548,-202.92,-0.00043506,-4414.6,0.22528
11249,6.3052,3.2727,0,0.00043409,4337.9,0.00015354,-0.0059086,0.00012555,-210.34,-0.00043729,-4439.3,0.21921
11250,6.3966,3.2727,0.05,9.9772e-07,9.9703,7.6613e-07,5.7564,-2.0787e-15,-6.0872e-06,-7.6612e-07,-5.7564,0.2252
11251,6.3966,3,0,0.00043189,4315.9,0.00015252,-0.0063231,0.00012533,-204.3,-0.000435,-4414.5,0.22532
11252,6.3052,3.0909,0,0.00043393,4336.3,0.00015362,-0.006883,0.00012526,-213.09,-0.00043716,-4438.9,0.21929
11253,6.3966,3.0909,0.05,9.9226e-07,9.9157,7.6193e-07,5.7249,-3.6547e-12,-5.8232e-06,-7.6193e-07,-5.7248,0.22528
11254,6.3966,2.8182,0,0.00043197,4316.7,0.00015248,-0.0058096,0.00012548,-202.92,-0.00043506,-4414.6,0.22528
11255,6.3052,2.9091,0,0.00043393,4336.3,0.00015362,-0.0068828,0.00012526,-213.09,-0.00043716,-4438.9,0.21929
11256,6.3966,2.9091,0.05,9.9226e-07,9.9157,7.6193e-07,5.7249,-3.6053e-12,-5.4519e-06,-7.6193e-07,-5.7248,0.22528
11257,6.3966,2.6364,0,0.0004322,4319,0.00015236,-0.0042938,0.0001259,-198.85,-0.00043524,-4415,0.22515
11258,6.3052,2.7273,0,0.00043409,4337.9,0.00015354,-0.0059086,0.00012555,-210.34,-0.00043729,-4439.3,0.21921
11259,6.3966,2.7273,0.05,9.9772e-07,9.9703,7.6613e-07,5.7564,1.4302e-13,-4.9957e-06,-7.6612e-07,-5.7564,0.2252
11260,6.3966,2.4545,0,0.00043257,4322.7,0.00015216,-0.0018485,0.00012658,-192.2,-0.00043552,-4415.6,0.22495
11261,6.3052,2.5455,0,0.00043441,4341.1,0.00015339,-0.0040041,0.00012611,-204.92,-0.00043754,-4440,0.21904
11262,6.3966,2.5455,0.05,1.0082e-06,10.075,7.7417e-07,5.8168,3.0223e-13,-5.5231e-06,-7.7416e-07,-5.8168,0.22503
11263,6.3966,2.2727,0,0.00043308,4327.8,0.00015189,0.0014126,0.00012752,-183.16,-0.0004359,-4416.5,0.22465
11264,6.3052,2.3636,0,0.00043488,4345.8,0.00015316,-0.0012549,0.00012694,-196.98,-0.0004379,-4441,0.21879
11265,6.3966,2.3636,0.05,1.0229e-06,10.221,7.8543e-07,5.9014,-1.4463e-12,-4.2461e-06,-7.8542e-07,-5.9014,0.22478
11266,6.3966,2.0909,0,0.00043371,4334.1,0.00015156,0.0053414,0.00012867,-172.01,-0.00043638,-4417.6,0.22428
11267,6.3052,2.1818,0,0.00043549,4351.9,0.00015286,0.0022235,0.00012801,-186.74,-0.00043837,-4442.3,0.21846
11268,6.3966,2.1818,0.05,1.0406e-06,10.399,7.9906e-07,6.0038,-1.427e-12,6.8039e-07,-7.9906e-07,-6.0038,0.22445
11269,6.3966,1.9091,0,0.00043445,4341.5,0.00015118,0.0097645,0.00013001,-159.05,-0.00043694,-4418.9,0.22382
11270,6.3052,2,0,0.00043623,4359.3,0.00015251,0.0062862,0.00012929,-174.47,-0.00043894,-4443.9,0.21804
11271,6.3966,2,0.05,1.0602e-06,10.595,8.1413e-07,6.1171,-1.1917e-12,6.1904e-06,-8.1413e-07,-6.117,0.22403
11272,6.3966,1.7273,0,0.00043528,4349.8,0.00015075,0.014499,0.0001315,-144.64,-0.00043756,-4420.3,0.22327
11273,6.3052,1.8182,0,0.00043708,4367.8,0.00015211,0.010775,0.00013075,-160.5,-0.00043959,-4445.8,0.21754
11274,6.3966,1.8182,0.05,1.0805e-06,10.798,8.2969e-07,6.234,-2.6487e-12,1.6381e-06,-8.2969e-07,-6.234,0.22353
11275,6.3966,1.5455,0,0.00043619,4358.9,0.00015029,0.019376,0.0001331,-129.14,-0.00043824,-4422,0.22264
11276,6.3052,1.6364,0,0.00043802,4377.1,0.00015168,0.015532,0.00013235,-145.18,-0.0004403,-4447.9,0.21695
11277,6.3966,1.6364,0.05,1.1003e-06,10.995,8.4487e-07,6.348,1.0779e-12,-1.7091e-06,-8.4486e-07,-6.348,0.22294
11278,6.3966,1.3636,0,0.00043715,4368.5,0.00014982,0.024237,0.00013478,-112.95,-0.00043896,-4423.8,0.22192
11279,6.3052,1.4545,0,0.00043903,4387.3,0.00015122,0.020437,0.00013406,-128.87,-0.00044108,-4450.3,0.21627
11280,6.3966,1.4545,0.05,1.1185e-06,11.177,8.5888e-07,6.4533,-2.5209e-12,1.779e-07,-8.5887e-07,-6.4533,0.22226
11281,6.3966,1.1818,0,0.00043815,4378.5,0.00014934,0.029057,0.00013651,-96.409,-0.00043971,-4425.9,0.22111
11282,6.3052,1.2727,0,0.0004401,4398,0.00015074,0.02536,0.00013585,-111.91,-0.0004419,-4452.8,0.2155
11283,6.3966,1.2727,0.05,1.1344e-06,11.336,8.7111e-07,6.5451,-2.3276e-12,1.8599e-06,-8.711e-07,-6.5451,0.22149
11284,6.3966,1,0,0.00043918,4388.7,0.00014887,0.033655,0.00013824,-79.851,-0.00044048,-4428.1,0.22021
11285,6.3052,1.0909,0,0.00044121,4409.1,0.00015027,0.030472,0.00013766,-94.655,-0.00044274,-4455.6,0.21465
11286,6.3966,1.0909,0.05,1.1474e-06,11.466,8.8106e-07,6.6199,8.3506e-13,4.0293e-06,-8.8106e-07,-6.6199,0.22064
11287,6.3966,0.81818,0,0.00044022,4399.2,0.00014841,0.03922,0.00013995,-63.554,-0.00044127,-4430.6,0.21921
11288,6.3052,0.90909,0,0.00044235,4420.5,0.0001498,0.035315,0.00013949,-77.394,-0.00044362,-4458.6,0.2137
11289,6.3966,0.90909,0.05,1.1569e-06,11.561,8.8837e-07,6.6749,-2.6901e-12,7.3254e-06,-8.8837e-07,-6.6748,0.21969
11290,6.3966,0.63636,0,0.00044127,4409.7,0.00014798,0.042849,0.00014162,-47.735,-0.00044207,-4433.4,0.21813
11291,6.3052,0.72727,0,0.00044351,4432.1,0.00014934,0.04315,0.0001413,-60.375,-0.00044451,-4461.9,0.21266
11292,6.3966,0.72727,0.05,1.1626e-06,11.618,8.9277e-07,6.7079,6.5645e-13,1.4882e-06,-8.9277e-07,-6.7079,0.21865
11293,6.3966,0.45455,0,0.00044234,4420.4,0.00014759,0.067345,0.00014325,-32.518,-0.00044288,-4436.5,0.21695
11294,6.3052,0.54545,0,0.00044469,4443.8,0.00014891,0.044589,0.00014308,-43.785,-0.00044542,-4465.5,0.21153
11295,6.3966,0.54545,0.05,1.1633e-06,11.625,8.9326e-07,6.7116,-8.9318e-13,3.8219e-06,-8.9324e-07,-6.7115,0.21752
11296,6.3966,0.27273,0,0.00044343,4431.3,0.00014722,0.08183,0.00014483,-17.88,-0.00044373,-4440.2,0.21568
11297,6.3052,0.36364,0,0.00044588,4455.7,0.00014852,0.10131,0.00014482,-27.693,-0.00044634,-4469.5,0.2103
11298,6.3966,0.36364,0.05,1.1427e-06,11.42,8.7748e-07,6.5931,-1.451e-12,2.8241e-06,-8.7749e-07,-6.5931,0.2163
11299,6.3052,0.18182,0,0.00044712,4468.1,0.00014815,0.10253,0.00014654,-12.016,-0.00044732,-4474.1,0.20898
11300,6.3966,0.18182,0.05,8.564e-07,8.5581,6.5761e-07,4.9411,1.3267e-13,8.2289e-06,-6.5761e-07,-4.941,0.21498
11301,6.3966,0.090909,0,0.00044439,4440.9,0.00014693,0.10522,0.00014619,-5.4888,-0.00044448,-4443.6,0.21431
11302,6.2138,5.7273,0,0.00044956,4492.5,0.00014944,0.09429,0.00014653,-21.825,-0.00044993,-4503.3,0.2037
11303,6.1224,5.8182,0,0.00045334,4530.3,0.00015034,0.11745,0.00014837,-14.641,-0.00045358,-4537.5,0.19715
11304,6.2138,5.8182,0.05,8.8525e-07,8.8463,6.7976e-07,5.1074,-1.4419e-22,8.0394e-07,-6.7976e-07,-5.1074,0.203
11305,6.2138,5.9091,0,0.00045075,4504.4,0.0001491,0.11508,0.00014816,-6.9382,-0.00045086,-4507.8,0.20233
11306,6.2138,5.5455,0,0.00044823,4479.2,0.00014985,0.074815,0.00014465,-38.962,-0.00044888,-4498.5,0.20498
11307,6.1224,5.6364,0,0.00045186,4515.5,0.00015075,0.11596,0.00014636,-32.916,-0.00045241,-4531.8,0.19848
11308,6.2138,5.6364,0.05,1.1393e-06,11.385,8.7482e-07,6.5731,2.4367e-14,6.6752e-06,-8.7482e-07,-6.573,0.20432
11309,6.2138,5.3636,0,0.00044692,4466.2,0.00015027,0.043554,0.00014276,-56.426,-0.00044786,-4494.1,0.20616
11310,6.1224,5.4545,0,0.00045043,4501.2,0.00015119,0.046364,0.00014434,-51.399,-0.00045128,-4526.7,0.19971
11311,6.2138,5.4545,0.05,1.1589e-06,11.581,8.8987e-07,6.6862,3.7611e-14,7.6789e-07,-8.8988e-07,-6.6862,0.20555
11312,6.2138,5.1818,0,0.00044564,4453.4,0.00015073,0.038613,0.00014084,-74.214,-0.00044686,-4490,0.20725
11313,6.1224,5.2727,0,0.00044903,4487.2,0.00015164,0.044012,0.0001423,-70.128,-0.00045018,-4521.8,0.20084
11314,6.2138,5.2727,0.05,1.1598e-06,11.59,8.9056e-07,6.6914,2.5884e-14,-6.8424e-07,-8.9056e-07,-6.6914,0.20669
11315,6.2138,5,0,0.00044439,4440.8,0.00015119,0.031774,0.00013892,-92.196,-0.00044588,-4486.2,0.20824
11316,6.1224,5.0909,0,0.00044765,4473.4,0.00015212,0.03439,0.00014026,-89.021,-0.0004491,-4517.3,0.20188
11317,6.2138,5.0909,0.05,1.1562e-06,11.554,8.8784e-07,6.6709,2.3198e-14,3.7172e-06,-8.8784e-07,-6.6709,0.20773
11318,6.2138,4.8182,0,0.00044316,4428.6,0.00015167,0.026544,0.000137,-110.15,-0.00044493,-4482.6,0.20914
11319,6.1224,4.9091,0,0.00044631,4460,0.0001526,0.028756,0.00013823,-107.89,-0.00044805,-4513,0.20283
11320,6.2138,4.9091,0.05,1.1494e-06,11.486,8.8257e-07,6.6312,2.3584e-13,-2.5365e-06,-8.8256e-07,-6.6312,0.20867
11321,6.2138,4.6364,0,0.00044198,4416.7,0.00015214,0.02139,0.00013513,-127.82,-0.00044402,-4479.3,0.20995
11322,6.1224,4.7273,0,0.00044501,4447,0.00015308,0.023117,0.00013624,-126.48,-0.00044703,-4508.9,0.20369
11323,6.2138,4.7273,0.05,1.1395e-06,11.387,8.7498e-07,6.5742,1.1736e-14,-1.696e-06,-8.7498e-07,-6.5742,0.20953
11324,6.2138,4.4545,0,0.00044086,4405.5,0.0001526,0.016453,0.00013332,-144.9,-0.00044314,-4476.2,0.21067
11325,6.1224,4.5455,0,0.00044377,4434.7,0.00015355,0.017964,0.00013431,-144.51,-0.00044606,-4505.2,0.20445
11326,6.2138,4.5455,0.05,1.127e-06,11.262,8.6539e-07,6.5022,-1.7152e-12,3.5374e-06,-8.6539e-07,-6.5022,0.21029
11327,6.2138,4.2727,0,0.00043981,4395.1,0.00015304,0.011679,0.00013161,-161.04,-0.00044233,-4473.4,0.21131
11328,6.1224,4.3636,0,0.00044261,4423.1,0.000154,0.013023,0.00013248,-161.68,-0.00044514,-4501.7,0.20513
11329,6.2138,4.3636,0.05,1.1125e-06,11.117,8.5425e-07,6.4185,1.8558e-13,-4.4669e-07,-8.5424e-07,-6.4184,0.21097
11330,6.2138,4.0909,0,0.00043886,4385.6,0.00015345,0.0071678,0.00013004,-175.92,-0.00044159,-4470.9,0.21185
11331,6.1224,4.1818,0,0.00044154,4412.4,0.00015442,0.0083712,0.00013078,-177.65,-0.0004443,-4498.5,0.20572
11332,6.2138,4.1818,0.05,1.0966e-06,10.959,8.4208e-07,6.3271,1.4473e-13,-1.0342e-06,-8.4208e-07,-6.327,0.21156
11333,6.2138,3.9091,0,0.00043802,4377.1,0.00015382,0.0030355,0.00012863,-189.2,-0.00044093,-4468.7,0.21231
11334,6.1224,4,0,0.00044059,4402.8,0.00015481,0.0040791,0.00012924,-192.09,-0.00044354,-4495.7,0.20622
11335,6.2138,4,0.05,1.0803e-06,10.796,8.2955e-07,6.2329,-4.0844e-14,-4.0117e-06,-8.2955e-07,-6.2329,0.21206
11336,6.2138,3.7273,0,0.0004373,4370,0.00015413,-0.00058318,0.00012744,-200.55,-0.00044037,-4466.8,0.21269
11337,6.1224,3.8182,0,0.00043976,4394.6,0.00015514,0.0002581,0.0001279,-204.69,-0.00044289,-4493.3,0.20664
11338,6.2138,3.8182,0.05,1.0645e-06,10.638,8.174e-07,6.1416,-3.5901e-12,-2.3832e-06,-8.174e-07,-6.1416,0.21248
11339,6.2138,3.5455,0,0.00043673,4364.3,0.00015438,-0.0035564,0.00012647,-209.7,-0.00043992,-4465.3,0.21298
11340,6.1224,3.6364,0,0.00043908,4387.8,0.00015542,-0.0029742,0.00012679,-215.15,-0.00044234,-4491.4,0.20697
11341,6.2138,3.6364,0.05,1.0502e-06,10.495,8.0642e-07,6.0591,-1.7821e-12,-4.959e-06,-8.0641e-07,-6.059,0.21282
11342,6.2138,3.3636,0,0.00043631,4360.1,0.00015457,-0.0057704,0.00012577,-216.41,-0.00043959,-4464.3,0.21319
11343,6.1224,3.4545,0,0.00043855,4382.5,0.00015564,-0.0055068,0.00012593,-223.23,-0.00044193,-4489.9,0.20722
11344,6.2138,3.4545,0.05,1.0384e-06,10.377,7.9735e-07,5.991,-3.6678e-12,-6.1686e-06,-7.9735e-07,-5.991,0.21306
11345,6.2138,3.1818,0,0.00043606,4357.5,0.00015468,-0.0071371,0.00012534,-220.51,-0.00043939,-4463.6,0.21331
11346,6.1224,3.2727,0,0.0004382,4379,0.00015579,-0.0072514,0.00012535,-228.73,-0.00044164,-4488.8,0.20738
11347,6.2138,3.2727,0.05,1.03e-06,10.293,7.909e-07,5.9424,-1.8199e-12,-6.0882e-06,-7.9089e-07,-5.9424,0.21323
11348,6.2138,3,0,0.00043597,4356.7,0.00015472,-0.0075989,0.00012519,-221.89,-0.00043932,-4463.4,0.21335
11349,6.1224,3.0909,0,0.00043802,4377.2,0.00015586,-0.0081408,0.00012505,-231.52,-0.0004415,-4488.3,0.20747
11350,6.2138,3.0909,0.05,1.0256e-06,10.249,7.8753e-07,5.9172,-3.6529e-12,-5.8259e-06,-7.8752e-07,-5.9171,0.21331
11351,6.2138,2.8182,0,0.00043606,4357.5,0.00015468,-0.0071368,0.00012534,-220.51,-0.00043939,-4463.6,0.21331
11352,6.1224,2.9091,0,0.00043802,4377.2,0.00015586,-0.0081408,0.00012505,-231.52,-0.0004415,-4488.3,0.20747
11353,6.2138,2.9091,0.05,1.0256e-06,10.249,7.8753e-07,5.9172,-3.6059e-12,-5.4729e-06,-7.8752e-07,-5.9171,0.21331
11354,6.2138,2.6364,0,0.00043631,4360.1,0.00015457,-0.0057703,0.00012577,-216.41,-0.00043959,-4464.3,0.21319
11355,6.1224,2.7273,0,0.0004382,4379,0.00015579,-0.0072511,0.00012535,-228.73,-0.00044164,-4488.8,0.20738
11356,6.2138,2.7273,0.05,1.03e-06,10.293,7.909e-07,5.9424,-3.4936e-12,-6.9486e-06,-7.9089e-07,-5.9424,0.21323
11357,6.2138,2.4545,0,0.00043673,4364.3,0.00015438,-0.0035562,0.00012647,-209.7,-0.00043992,-4465.3,0.21298
11358,6.1224,2.5455,0,0.00043855,4382.5,0.00015564,-0.0055066,0.00012593,-223.23,-0.00044193,-4489.9,0.20722
11359,6.2138,2.5455,0.05,1.0384e-06,10.377,7.9735e-07,5.991,-3.4433e-12,-4.4751e-06,-7.9735e-07,-5.991,0.21306
11360,6.2138,2.2727,0,0.0004373,4370,0.00015413,-0.00058287,0.00012744,-200.55,-0.00044037,-4466.8,0.21269
11361,6.1224,2.3636,0,0.00043908,4387.8,0.00015542,-0.0029738,0.00012679,-215.15,-0.00044234,-4491.4,0.20697
11362,6.2138,2.3636,0.05,1.0502e-06,10.495,8.0642e-07,6.0591,-1.4831e-12,-2.68e-06,-8.0641e-07,-6.059,0.21282
11363,6.2138,2.0909,0,0.00043802,4377.1,0.00015382,0.0030359,0.00012863,-189.2,-0.00044093,-4468.7,0.21231
11364,6.1224,2.1818,0,0.00043976,4394.6,0.00015514,0.00025844,0.0001279,-204.69,-0.00044289,-4493.3,0.20664
11365,6.2138,2.1818,0.05,1.0645e-06,10.638,8.174e-07,6.1416,-3.2286e-12,3.302e-07,-8.174e-07,-6.1416,0.21248
11366,6.2138,1.9091,0,0.00043886,4385.6,0.00015345,0.0071683,0.00013004,-175.92,-0.00044159,-4470.9,0.21185
11367,6.1224,2,0,0.00044059,4402.8,0.00015481,0.0040797,0.00012924,-192.09,-0.00044354,-4495.7,0.20622
11368,6.2138,2,0.05,1.0803e-06,10.796,8.2955e-07,6.2329,-1.3792e-12,-4.62e-06,-8.2955e-07,-6.2329,0.21206
11369,6.2138,1.7273,0,0.00043981,4395.1,0.00015304,0.011679,0.00013161,-161.04,-0.00044233,-4473.4,0.21131
11370,6.1224,1.8182,0,0.00044154,4412.4,0.00015442,0.0083718,0.00013078,-177.65,-0.0004443,-4498.5,0.20572
11371,6.2138,1.8182,0.05,1.0966e-06,10.959,8.4208e-07,6.3271,5.8395e-13,5.1787e-06,-8.4208e-07,-6.327,0.21156
11372,6.2138,1.5455,0,0.00044086,4405.5,0.0001526,0.016454,0.00013332,-144.9,-0.00044314,-4476.2,0.21067
11373,6.1224,1.6364,0,0.00044261,4423.1,0.000154,0.013023,0.00013248,-161.68,-0.00044514,-4501.7,0.20513
11374,6.2138,1.6364,0.05,1.1125e-06,11.117,8.5425e-07,6.4185,6.4304e-13,4.7978e-06,-8.5424e-07,-6.4184,0.21097
11375,6.2138,1.3636,0,0.00044198,4416.7,0.00015214,0.021391,0.00013513,-127.82,-0.00044402,-4479.3,0.20995
11376,6.1224,1.4545,0,0.00044377,4434.7,0.00015355,0.017965,0.00013431,-144.51,-0.00044606,-4505.2,0.20445
11377,6.2138,1.4545,0.05,1.127e-06,11.262,8.6539e-07,6.5023,-2.9624e-12,8.5941e-06,-8.6539e-07,-6.5022,0.21029
11378,6.2138,1.1818,0,0.00044316,4428.6,0.00015167,0.026545,0.000137,-110.15,-0.00044493,-4482.6,0.20914
11379,6.1224,1.2727,0,0.00044501,4447,0.00015308,0.023117,0.00013624,-126.48,-0.00044703,-4508.9,0.20369
11380,6.2138,1.2727,0.05,1.1395e-06,11.387,8.7498e-07,6.5743,-8.2644e-13,4.3235e-06,-8.7497e-07,-6.5742,0.20953
11381,6.2138,1,0,0.00044439,4440.8,0.00015119,0.031775,0.00013892,-92.196,-0.00044588,-4486.2,0.20824
11382,6.1224,1.0909,0,0.00044631,4460,0.0001526,0.028756,0.00013823,-107.89,-0.00044805,-4513,0.20283
11383,6.2138,1.0909,0.05,1.1494e-06,11.486,8.8257e-07,6.6312,-8.5601e-13,1.3871e-06,-8.8256e-07,-6.6313,0.20867
11384,6.2138,0.81818,0,0.00044564,4453.4,0.00015073,0.038614,0.00014084,-74.214,-0.00044686,-4490,0.20725
11385,6.1224,0.90909,0,0.00044765,4473.4,0.00015212,0.034392,0.00014026,-89.021,-0.0004491,-4517.3,0.20188
11386,6.2138,0.90909,0.05,1.1562e-06,11.554,8.8785e-07,6.6709,-9.2292e-13,5.4039e-06,-8.8784e-07,-6.6709,0.20773
11387,6.2138,0.63636,0,0.00044692,4466.2,0.00015027,0.043554,0.00014276,-56.426,-0.00044786,-4494.1,0.20616
11388,6.1224,0.72727,0,0.00044903,4487.2,0.00015164,0.044013,0.0001423,-70.128,-0.00045018,-4521.8,0.20084
11389,6.2138,0.72727,0.05,1.1598e-06,11.59,8.9056e-07,6.6914,5.1014e-13,4.6718e-06,-8.9057e-07,-6.6913,0.20669
11390,6.2138,0.45455,0,0.00044823,4479.2,0.00014985,0.074816,0.00014465,-38.962,-0.00044888,-4498.5,0.20498
11391,6.1224,0.54545,0,0.00045043,4501.2,0.00015119,0.046365,0.00014434,-51.399,-0.00045128,-4526.7,0.19971
11392,6.2138,0.54545,0.05,1.1589e-06,11.581,8.8988e-07,6.6862,6.1125e-13,5.1276e-06,-8.8988e-07,-6.6862,0.20555
11393,6.2138,0.27273,0,0.00044956,4492.5,0.00014944,0.094291,0.00014653,-21.825,-0.00044993,-4503.3,0.2037
11394,6.1224,0.36364,0,0.00045186,4515.5,0.00015075,0.11596,0.00014636,-32.916,-0.00045241,-4531.8,0.19848
11395,6.2138,0.36364,0.05,1.1393e-06,11.385,8.7482e-07,6.5731,-1.4338e-12,7.2209e-06,-8.7482e-07,-6.573,0.20432
11396,6.1224,0.18182,0,0.00045334,4530.3,0.00015034,0.11745,0.00014837,-14.641,-0.00045358,-4537.5,0.19715
11397,6.2138,0.18182,0.05,8.8525e-07,8.8463,6.7976e-07,5.1075,3.992e-13,6.0138e-06,-6.7976e-07,-5.1074,0.203
11398,6.2138,0.090909,0,0.00045075,4504.4,0.0001491,0.11508,0.00014816,-6.9382,-0.00045086,-4507.8,0.20233
11399,6.031,5.7273,0,0.00045563,4553.2,0.00015164,0.10747,0.0001482,-25.719,-0.00045606,-4565.9,0.19203
11400,5.9397,5.8182,0,0.00045951,4591.9,0.0001525,0.13346,0.00015019,-17.233,-0.0004598,-4600.5,0.18563
11401,6.031,5.8182,0.05,9.2622e-07,9.2558,7.1122e-07,5.3438,-1.5489e-12,5.4013e-07,-7.1122e-07,-5.3438,0.19132
11402,6.031,5.9091,0,0.00045704,4567.2,0.00015125,0.12533,0.00015012,-8.3666,-0.00045718,-4571.3,0.19065
11403,6.031,5.5455,0,0.00045407,4537.5,0.00015209,0.083037,0.00014604,-45.353,-0.00045482,-4560,0.19331
11404,5.9397,5.6364,0,0.0004578,4574.9,0.00015297,0.13125,0.00014788,-38.106,-0.00045844,-4593.7,0.18696
11405,6.031,5.6364,0.05,1.1421e-06,11.413,8.7696e-07,6.5892,1.368e-14,4.474e-07,-8.7696e-07,-6.5892,0.19265
11406,6.031,5.3636,0,0.00045254,4522.2,0.00015255,0.04521,0.00014388,-65.1,-0.00045361,-4554.4,0.19449
11407,5.9397,5.4545,0,0.00045614,4558.3,0.00015345,0.048981,0.00014558,-59.012,-0.00045712,-4587.5,0.18819
11408,6.031,5.4545,0.05,1.16e-06,11.592,8.9076e-07,6.6928,2.0744e-14,1.0674e-06,-8.9077e-07,-6.6928,0.19388
11409,6.031,5.1818,0,0.00045104,4507.3,0.00015303,0.039014,0.00014172,-84.932,-0.00045242,-4549.1,0.19558
11410,5.9397,5.2727,0,0.00045452,4542.1,0.00015394,0.045749,0.00014329,-79.946,-0.00045583,-4581.5,0.18933
11411,6.031,5.2727,0.05,1.162e-06,11.612,8.9226e-07,6.7041,2.4694e-13,8.8158e-08,-8.9226e-07,-6.7041,0.19502
11412,6.031,5,0,0.00044958,4492.7,0.00015352,0.030922,0.00013958,-104.71,-0.00045126,-4544.1,0.19657
11413,5.9397,5.0909,0,0.00045293,4526.2,0.00015444,0.034367,0.00014101,-100.81,-0.00045456,-4575.7,0.19037
11414,6.031,5.0909,0.05,1.1601e-06,11.593,8.908e-07,6.6931,-1.692e-12,4.4374e-08,-8.908e-07,-6.6931,0.19606
11415,6.031,4.8182,0,0.00044816,4478.5,0.000154,0.025031,0.00013747,-124.2,-0.00045014,-4539.3,0.19747
11416,5.9397,4.9091,0,0.00045139,4510.8,0.00015494,0.027923,0.00013877,-121.41,-0.00045334,-4570.3,0.19131
11417,6.031,4.9091,0.05,1.1552e-06,11.545,8.8709e-07,6.6652,-1.8816e-22,-8.9122e-07,-8.8709e-07,-6.6652,0.197
11418,6.031,4.6364,0,0.00044681,4465,0.00015448,0.019473,0.00013543,-143.16,-0.00044907,-4534.8,0.19828
11419,5.9397,4.7273,0,0.00044992,4496.1,0.00015543,0.021708,0.00013659,-141.5,-0.00045216,-4565.1,0.19217
11420,6.031,4.7273,0.05,1.1478e-06,11.47,8.8133e-07,6.622,-1.4938e-12,-3.6891e-06,-8.8133e-07,-6.622,0.19786
11421,6.031,4.4545,0,0.00044553,4452.2,0.00015494,0.014359,0.00013347,-161.29,-0.00044805,-4530.7,0.199
11422,5.9397,4.5455,0,0.00044851,4482.1,0.0001559,0.016247,0.0001345,-160.79,-0.00045103,-4560.3,0.19293
11423,6.031,4.5455,0.05,1.138e-06,11.372,8.7381e-07,6.5655,1.8936e-13,-3.7571e-06,-8.7381e-07,-6.5655,0.19862
11424,6.031,4.2727,0,0.00044435,4440.4,0.00015538,0.0095628,0.00013165,-178.29,-0.00044711,-4526.8,0.19964
11425,5.9397,4.3636,0,0.00044721,4469,0.00015636,0.011168,0.00013253,-178.99,-0.00044998,-4555.8,0.19361
11426,6.031,4.3636,0.05,1.1264e-06,11.256,8.649e-07,6.4985,5.4666e-13,-2.6851e-07,-8.6489e-07,-6.4985,0.1993
11427,6.031,4.0909,0,0.00044328,4429.7,0.00015578,0.0051412,0.00012998,-193.82,-0.00044625,-4523.4,0.20018
11428,5.9397,4.1818,0,0.00044601,4457.1,0.00015678,0.0065097,0.00013072,-195.8,-0.00044902,-4551.7,0.19419
11429,6.031,4.1818,0.05,1.1136e-06,11.128,8.5508e-07,6.4247,-1.4478e-12,-2.2193e-06,-8.5507e-07,-6.4247,0.19989
11430,6.031,3.9091,0,0.00044233,4420.3,0.00015613,0.0011651,0.0001285,-207.58,-0.0004455,-4520.4,0.20064
11431,5.9397,4,0,0.00044495,4446.4,0.00015716,0.0022962,0.00012909,-210.89,-0.00044816,-4548.1,0.1947
11432,6.031,4,0.05,1.1003e-06,10.996,8.4491e-07,6.3483,5.9976e-14,-5.9604e-06,-8.449e-07,-6.3483,0.20039
11433,6.031,3.7273,0,0.00044154,4412.4,0.00015644,-0.0022686,0.00012725,-219.29,-0.00044486,-4517.9,0.20101
11434,5.9397,3.8182,0,0.00044403,4437.3,0.00015749,-0.0013973,0.00012768,-223.99,-0.00044742,-4545,0.19511
11435,6.031,3.8182,0.05,1.0874e-06,10.867,8.3502e-07,6.274,-7.9175e-14,-6.111e-06,-8.3502e-07,-6.274,0.20081
11436,6.031,3.5455,0,0.00044091,4406,0.00015668,-0.0050612,0.00012624,-228.69,-0.00044435,-4515.9,0.2013
11437,5.9397,3.6364,0,0.00044328,4429.8,0.00015776,-0.0044854,0.00012651,-234.82,-0.00044681,-4542.5,0.19544
11438,6.031,3.6364,0.05,1.0758e-06,10.75,8.2607e-07,6.2068,-7.9797e-14,-6.2235e-06,-8.2607e-07,-6.2068,0.20114
11439,6.031,3.3636,0,0.00044044,4401.4,0.00015686,-0.0071258,0.00012551,-235.56,-0.00044398,-4514.5,0.20151
11440,5.9397,3.4545,0,0.0004427,4424,0.00015797,-0.0068845,0.00012561,-243.15,-0.00044634,-4540.6,0.19569
11441,6.031,3.4545,0.05,1.0662e-06,10.654,8.187e-07,6.1514,-1.8006e-12,-1.2203e-06,-8.1869e-07,-6.1513,0.20139
11442,6.031,3.1818,0,0.00044016,4398.6,0.00015697,-0.0083943,0.00012506,-239.74,-0.00044375,-4513.6,0.20164
11443,5.9397,3.2727,0,0.00044231,4420.1,0.00015811,-0.0085274,0.000125,-248.81,-0.00044602,-4539.2,0.19586
11444,6.031,3.2727,0.05,1.0593e-06,10.586,8.1344e-07,6.1119,-1.8524e-12,-5.8762e-06,-8.1344e-07,-6.1118,0.20156
11445,6.031,3,0,0.00044007,4397.7,0.000157,-0.0088223,0.00012491,-241.15,-0.00044368,-4513.3,0.20168
11446,5.9397,3.0909,0,0.00044212,4418.1,0.00015819,-0.0093623,0.00012469,-251.67,-0.00044586,-4538.6,0.19594
11447,6.031,3.0909,0.05,1.0558e-06,10.55,8.107e-07,6.0913,-1.8336e-12,-5.8287e-06,-8.107e-07,-6.0912,0.20164
11448,6.031,2.8182,0,0.00044016,4398.6,0.00015697,-0.0083943,0.00012506,-239.74,-0.00044375,-4513.6,0.20164
11449,5.9397,2.9091,0,0.00044212,4418.1,0.00015819,-0.0093623,0.00012469,-251.67,-0.00044586,-4538.6,0.19594
11450,6.031,2.9091,0.05,1.0558e-06,10.55,8.107e-07,6.0913,-1.7874e-12,-5.4822e-06,-8.107e-07,-6.0912,0.20164
11451,6.031,2.6364,0,0.00044044,4401.4,0.00015686,-0.0071255,0.00012551,-235.56,-0.00044398,-4514.5,0.20151
11452,5.9397,2.7273,0,0.00044231,4420.1,0.00015811,-0.0085273,0.000125,-248.81,-0.00044602,-4539.2,0.19586
11453,6.031,2.7273,0.05,1.0593e-06,10.586,8.1344e-07,6.1119,-1.7171e-12,-4.854e-06,-8.1344e-07,-6.1118,0.20156
11454,6.031,2.4545,0,0.00044091,4406,0.00015668,-0.0050608,0.00012624,-228.69,-0.00044435,-4515.9,0.2013
11455,5.9397,2.5455,0,0.0004427,4424,0.00015797,-0.0068842,0.00012561,-243.15,-0.00044634,-4540.6,0.19569
11456,6.031,2.5455,0.05,1.0662e-06,10.654,8.187e-07,6.1514,-1.5808e-12,4.342e-07,-8.1869e-07,-6.1513,0.20139
11457,6.031,2.2727,0,0.00044154,4412.4,0.00015644,-0.0022683,0.00012725,-219.29,-0.00044486,-4517.9,0.20101
11458,5.9397,2.3636,0,0.00044328,4429.8,0.00015776,-0.004485,0.00012651,-234.82,-0.00044681,-4542.5,0.19544
11459,6.031,2.3636,0.05,1.0758e-06,10.75,8.2608e-07,6.2068,2.8283e-13,-4.0241e-06,-8.2607e-07,-6.2068,0.20114
11460,6.031,2.0909,0,0.00044233,4420.3,0.00015613,0.0011655,0.0001285,-207.58,-0.0004455,-4520.4,0.20064
11461,5.9397,2.1818,0,0.00044403,4437.3,0.00015749,-0.001397,0.00012768,-223.99,-0.00044742,-4545,0.19511
11462,6.031,2.1818,0.05,1.0874e-06,10.867,8.3502e-07,6.274,2.841e-13,-1.5215e-06,-8.3502e-07,-6.274,0.20081
11463,6.031,1.9091,0,0.00044328,4429.7,0.00015578,0.0051419,0.00012998,-193.82,-0.00044625,-4523.4,0.20018
11464,5.9397,2,0,0.00044495,4446.4,0.00015716,0.0022966,0.00012909,-210.89,-0.00044816,-4548.1,0.1947
11465,6.031,2,0.05,1.1003e-06,10.996,8.4491e-07,6.3483,4.7404e-13,1.2128e-06,-8.449e-07,-6.3483,0.20039
11466,6.031,1.7273,0,0.00044435,4440.4,0.00015538,0.0095634,0.00013165,-178.29,-0.00044711,-4526.8,0.19964
11467,5.9397,1.8182,0,0.00044601,4457.1,0.00015678,0.0065104,0.00013072,-195.8,-0.00044902,-4551.7,0.19419
11468,6.031,1.8182,0.05,1.1136e-06,11.128,8.5508e-07,6.4247,-8.4534e-13,-4.3296e-06,-8.5507e-07,-6.4247,0.19989
11469,6.031,1.5455,0,0.00044553,4452.2,0.00015494,0.014359,0.00013347,-161.29,-0.00044805,-4530.7,0.199
11470,5.9397,1.6364,0,0.00044721,4469,0.00015636,0.011169,0.00013253,-178.99,-0.00044998,-4555.8,0.19361
11471,6.031,1.6364,0.05,1.1264e-06,11.256,8.6491e-07,6.4985,1.1962e-12,-2.2469e-06,-8.6489e-07,-6.4985,0.1993
11472,6.031,1.3636,0,0.00044681,4465,0.00015448,0.019473,0.00013543,-143.16,-0.00044907,-4534.8,0.19828
11473,5.9397,1.4545,0,0.00044851,4482.1,0.0001559,0.016248,0.0001345,-160.79,-0.00045103,-4560.3,0.19293
11474,6.031,1.4545,0.05,1.138e-06,11.372,8.7381e-07,6.5655,-2.5457e-12,5.0473e-06,-8.7381e-07,-6.5654,0.19862
11475,6.031,1.1818,0,0.00044816,4478.5,0.000154,0.025032,0.00013747,-124.2,-0.00045014,-4539.3,0.19747
11476,5.9397,1.2727,0,0.00044992,4496.1,0.00015543,0.021708,0.00013659,-141.5,-0.00045216,-4565.1,0.19217
11477,6.031,1.2727,0.05,1.1478e-06,11.47,8.8133e-07,6.622,-8.0615e-13,1.4088e-06,-8.8133e-07,-6.622,0.19786
11478,6.031,1,0,0.00044958,4492.7,0.00015352,0.030923,0.00013958,-104.71,-0.00045126,-4544.1,0.19657
11479,5.9397,1.0909,0,0.00045139,4510.8,0.00015494,0.027924,0.00013877,-121.41,-0.00045334,-4570.3,0.19131
11480,6.031,1.0909,0.05,1.1552e-06,11.545,8.8709e-07,6.6652,-5.8078e-13,2.1169e-06,-8.8708e-07,-6.6652,0.197
11481,6.031,0.81818,0,0.00045104,4507.3,0.00015303,0.039016,0.00014172,-84.932,-0.00045242,-4549.1,0.19558
11482,5.9397,0.90909,0,0.00045293,4526.2,0.00015444,0.034369,0.00014101,-100.81,-0.00045456,-4575.7,0.19037
11483,6.031,0.90909,0.05,1.1601e-06,11.593,8.908e-07,6.6931,-2.5499e-12,9.3588e-08,-8.908e-07,-6.6931,0.19606
11484,6.031,0.63636,0,0.00045254,4522.2,0.00015255,0.04521,0.00014388,-65.1,-0.00045361,-4554.4,0.19449
11485,5.9397,0.72727,0,0.00045452,4542.1,0.00015394,0.045749,0.00014329,-79.946,-0.00045583,-4581.5,0.18933
11486,6.031,0.72727,0.05,1.162e-06,11.612,8.9226e-07,6.7041,5.5871e-13,5.514e-06,-8.9227e-07,-6.7041,0.19502
11487,6.031,0.45455,0,0.00045407,4537.5,0.00015209,0.083038,0.00014604,-45.353,-0.00045482,-4560,0.19331
11488,5.9397,0.54545,0,0.00045614,4558.3,0.00015345,0.048981,0.00014558,-59.012,-0.00045712,-4587.5,0.18819
11489,6.031,0.54545,0.05,1.16e-06,11.592,8.9076e-07,6.6928,-1.2322e-12,1.3515e-06,-8.9077e-07,-6.6928,0.19388
11490,6.031,0.27273,0,0.00045563,4553.2,0.00015164,0.10747,0.0001482,-25.719,-0.00045606,-4565.9,0.19203
11491,5.9397,0.36364,0,0.0004578,4574.9,0.00015297,0.13125,0.00014788,-38.106,-0.00045844,-4593.7,0.18696
11492,6.031,0.36364,0.05,1.1421e-06,11.413,8.7697e-07,6.5892,8.5155e-13,1.2623e-06,-8.7696e-07,-6.5892,0.19265
11493,5.9397,0.18182,0,0.00045951,4591.9,0.0001525,0.13346,0.00015019,-17.233,-0.0004598,-4600.5,0.18563
11494,6.031,0.18182,0.05,9.2622e-07,9.2558,7.1122e-07,5.3439,-1.2077e-12,6.9917e-06,-7.1122e-07,-5.3438,0.19132
11495,6.031,0.090909,0,0.00045704,4567.2,0.00015125,0.12533,0.00015012,-8.3666,-0.00045718,-4571.3,0.19065
11496,5.8483,5.7273,0,0.00046167,4613.6,0.00015383,0.1215,0.00014987,-29.597,-0.00046217,-4628.2,0.18066
11497,5.7569,5.8182,0,0.00046566,4653.4,0.00015466,0.15093,0.000152,-19.806,-0.00046599,-4663.2,0.17442
11498,5.8483,5.8182,0.05,9.7806e-07,9.7738,7.5103e-07,5.6429,1.7714e-14,6.373e-07,-7.5103e-07,-5.6429,0.17995
11499,5.8483,5.9091,0,0.00046329,4629.7,0.00015338,0.13604,0.00015206,-9.7806,-0.00046346,-4634.5,0.17928
11500,5.8483,5.5455,0,0.00045988,4595.6,0.00015432,0.091976,0.00014742,-51.76,-0.00046073,-4621.2,0.18194
11501,5.7569,5.6364,0,0.00046372,4634,0.00015518,0.14732,0.0001494,-43.311,-0.00046444,-4655.4,0.17575
11502,5.8483,5.6364,0.05,1.1503e-06,11.495,8.8328e-07,6.6366,-1.8736e-22,4.4032e-07,-8.8328e-07,-6.6366,0.18128
11503,5.8483,5.3636,0,0.00045813,4578.1,0.00015483,0.047634,0.00014499,-73.853,-0.00045934,-4614.5,0.18312
11504,5.7569,5.4545,0,0.00046183,4615.2,0.0001557,0.05234,0.00014682,-66.701,-0.00046293,-4648.1,0.17698
11505,5.8483,5.4545,0.05,1.166e-06,11.652,8.9536e-07,6.7273,-1.6798e-12,8.8069e-07,-8.9536e-07,-6.7273,0.18252
11506,5.8483,5.1818,0,0.00045641,4561,0.00015534,0.040194,0.00014258,-95.822,-0.00045797,-4608.1,0.18421
11507,5.7569,5.2727,0,0.00045999,4596.7,0.00015623,0.04822,0.00014426,-89.931,-0.00046146,-4641,0.17811
11508,5.8483,5.2727,0.05,1.1687e-06,11.679,8.9739e-07,6.7426,-1.6798e-12,4.6075e-06,-8.9739e-07,-6.7426,0.18365
11509,5.8483,5,0,0.00045475,4544.4,0.00015585,0.03084,0.00014021,-117.51,-0.00045663,-4602,0.1852
11510,5.7569,5.0909,0,0.0004582,4578.8,0.00015677,0.035064,0.00014174,-112.89,-0.00046001,-4634.2,0.17915
11511,5.8483,5.0909,0.05,1.168e-06,11.672,8.9686e-07,6.7386,2.5978e-13,-1.2601e-07,-8.9685e-07,-6.7386,0.18469
11512,5.8483,4.8182,0,0.00045315,4528.4,0.00015636,0.02425,0.0001379,-138.7,-0.00045535,-4596.1,0.1861
11513,5.7569,4.9091,0,0.00045646,4561.5,0.00015729,0.027778,0.00013927,-135.37,-0.00045862,-4627.7,0.1801
11514,5.8483,4.9091,0.05,1.1647e-06,11.639,8.9433e-07,6.7196,-1.7008e-12,-1.862e-07,-8.9433e-07,-6.7196,0.18564
11515,5.8483,4.6364,0,0.00045162,4513.1,0.00015685,0.018227,0.00013567,-159.11,-0.00045412,-4590.6,0.18691
11516,5.7569,4.7273,0,0.00045481,4544.9,0.0001578,0.020935,0.00013689,-157.1,-0.00045728,-4621.4,0.18095
11517,5.8483,4.7273,0.05,1.159e-06,11.582,8.8997e-07,6.6869,-2.8829e-14,-3.6276e-07,-8.8997e-07,-6.6869,0.18649
11518,5.8483,4.4545,0,0.00045019,4498.8,0.00015732,0.012856,0.00013356,-178.48,-0.00045296,-4585.4,0.18763
11519,5.7569,4.5455,0,0.00045324,4529.3,0.00015829,0.015098,0.00013462,-177.83,-0.00045601,-4615.6,0.18171
11520,5.8483,4.5455,0.05,1.1513e-06,11.505,8.8403e-07,6.6423,-3.4491e-12,-2.135e-06,-8.8403e-07,-6.6423,0.18725
11521,5.8483,4.2727,0,0.00044888,4485.7,0.00015776,0.0079455,0.0001316,-196.5,-0.0004519,-4580.7,0.18826
11522,5.7569,4.3636,0,0.00045179,4514.8,0.00015876,0.0098018,0.0001325,-197.26,-0.00045483,-4610.2,0.18239
11523,5.8483,4.3636,0.05,1.1419e-06,11.411,8.7685e-07,6.5883,3.5495e-13,-6.2368e-07,-8.7684e-07,-6.5882,0.18793
11524,5.8483,4.0909,0,0.00044769,4473.8,0.00015816,0.0035131,0.00012983,-212.87,-0.00045093,-4576.4,0.18881
11525,5.7569,4.1818,0,0.00045047,4501.6,0.00015918,0.005047,0.00013056,-215.08,-0.00045375,-4605.3,0.18297
11526,5.8483,4.1818,0.05,1.1315e-06,11.307,8.6883e-07,6.528,-3.2072e-12,-2.3229e-06,-8.6883e-07,-6.528,0.18852
11527,5.8483,3.9091,0,0.00044665,4463.4,0.00015851,-0.00040719,0.00012826,-227.3,-0.00045008,-4572.7,0.18927
11528,5.7569,4,0,0.0004493,4489.9,0.00015957,0.00082094,0.00012882,-231.01,-0.00045279,-4601,0.18347
11529,5.8483,4,0.05,1.1206e-06,11.198,8.6047e-07,6.4653,-1.8372e-12,1.6539e-06,-8.6047e-07,-6.4652,0.18902
11530,5.8483,3.7273,0,0.00044578,4454.7,0.00015881,-0.0037491,0.00012693,-239.51,-0.00044937,-4569.6,0.18964
11531,5.7569,3.8182,0,0.0004483,4479.9,0.0001599,-0.0028321,0.00012732,-244.76,-0.00045196,-4597.2,0.18389
11532,5.8483,3.8182,0.05,1.11e-06,11.092,8.5232e-07,6.4041,6.9817e-15,-4.7316e-06,-8.5232e-07,-6.404,0.18943
11533,5.8483,3.5455,0,0.00044508,4447.7,0.00015905,-0.0064406,0.00012587,-249.28,-0.0004488,-4567.1,0.18993
11534,5.7569,3.6364,0,0.00044747,4471.6,0.00016017,-0.0058534,0.00012609,-256.09,-0.00045128,-4594.2,0.18422
11535,5.8483,3.6364,0.05,1.1004e-06,10.996,8.4494e-07,6.3485,-2.1573e-14,-4.4416e-06,-8.4493e-07,-6.3485,0.18976
11536,5.8483,3.3636,0,0.00044458,4442.7,0.00015923,-0.0084167,0.0001251,-256.4,-0.00044838,-4565.3,0.19013
11537,5.7569,3.4545,0,0.00044684,4465.4,0.00016038,-0.0081818,0.00012514,-264.79,-0.00045076,-4591.9,0.18447
11538,5.8483,3.4545,0.05,1.0924e-06,10.917,8.3884e-07,6.3027,-1.8413e-12,-1.6656e-08,-8.3884e-07,-6.3027,0.19001
11539,5.8483,3.1818,0,0.00044427,4439.6,0.00015933,-0.0096255,0.00012463,-260.74,-0.00044813,-4564.3,0.19026
11540,5.7569,3.2727,0,0.00044642,4461.1,0.00016052,-0.0097676,0.0001245,-270.68,-0.00045041,-4590.3,0.18463
11541,5.8483,3.2727,0.05,1.0868e-06,10.86,8.345e-07,6.2701,-1.8547e-12,-2.0862e-07,-8.3449e-07,-6.27,0.19018
11542,5.8483,3,0,0.00044417,4438.6,0.00015937,-0.010032,0.00012448,-262.19,-0.00044805,-4563.9,0.1903
11543,5.7569,3.0909,0,0.0004462,4459,0.00016059,-0.010571,0.00012417,-273.66,-0.00045023,-4589.5,0.18471
11544,5.8483,3.0909,0.05,1.0838e-06,10.831,8.3223e-07,6.2531,-2.0513e-14,-1.6467e-07,-8.3223e-07,-6.2531,0.19026
11545,5.8483,2.8182,0,0.00044427,4439.6,0.00015933,-0.0096254,0.00012463,-260.74,-0.00044813,-4564.3,0.19026
11546,5.7569,2.9091,0,0.0004462,4459,0.00016059,-0.010571,0.00012417,-273.66,-0.00045023,-4589.5,0.18471
11547,5.8483,2.9091,0.05,1.0838e-06,10.831,8.3223e-07,6.2531,-1.792e-12,1.8518e-07,-8.3223e-07,-6.2531,0.19026
11548,5.8483,2.6364,0,0.00044458,4442.7,0.00015923,-0.0084166,0.0001251,-256.4,-0.00044838,-4565.3,0.19013
11549,5.7569,2.7273,0,0.00044642,4461.1,0.00016052,-0.0097674,0.0001245,-270.68,-0.00045041,-4590.3,0.18463
11550,5.8483,2.7273,0.05,1.0868e-06,10.86,8.345e-07,6.2701,-1.7174e-12,8.2898e-07,-8.3449e-07,-6.27,0.19018
11551,5.8483,2.4545,0,0.00044508,4447.7,0.00015905,-0.0064404,0.00012587,-249.28,-0.0004488,-4567.1,0.18993
11552,5.7569,2.5455,0,0.00044684,4465.4,0.00016038,-0.0081817,0.00012514,-264.79,-0.00045076,-4591.9,0.18447
11553,5.8483,2.5455,0.05,1.0924e-06,10.917,8.3884e-07,6.3027,-1.5865e-12,-1.7977e-07,-8.3884e-07,-6.3027,0.19001
11554,5.8483,2.2727,0,0.00044578,4454.7,0.00015881,-0.0037488,0.00012693,-239.51,-0.00044937,-4569.6,0.18964
11555,5.7569,2.3636,0,0.00044747,4471.6,0.00016017,-0.0058531,0.00012609,-256.09,-0.00045128,-4594.2,0.18422
11556,5.8483,2.3636,0.05,1.1004e-06,10.996,8.4494e-07,6.3485,-1.4454e-12,-2.1666e-06,-8.4493e-07,-6.3485,0.18976
11557,5.8483,2.0909,0,0.00044665,4463.4,0.00015851,-0.00040684,0.00012826,-227.3,-0.00045008,-4572.7,0.18927
11558,5.7569,2.1818,0,0.0004483,4479.9,0.0001599,-0.0028317,0.00012732,-244.76,-0.00045196,-4597.2,0.18389
11559,5.8483,2.1818,0.05,1.11e-06,11.092,8.5233e-07,6.4041,4.7833e-13,-3.685e-07,-8.5232e-07,-6.4039,0.18943
11560,5.8483,1.9091,0,0.00044769,4473.8,0.00015816,0.0035136,0.00012983,-212.87,-0.00045093,-4576.4,0.18881
11561,5.7569,2,0,0.0004493,4489.9,0.00015957,0.00082128,0.00012882,-231.01,-0.00045279,-4601,0.18347
11562,5.8483,2,0.05,1.1206e-06,11.198,8.6048e-07,6.4653,-2.9158e-12,-6.8365e-07,-8.6047e-07,-6.4652,0.18902
11563,5.8483,1.7273,0,0.00044888,4485.7,0.00015776,0.0079461,0.0001316,-196.5,-0.0004519,-4580.7,0.18826
11564,5.7569,1.8182,0,0.00045047,4501.6,0.00015918,0.0050475,0.00013056,-215.08,-0.00045375,-4605.3,0.18297
11565,5.8483,1.8182,0.05,1.1315e-06,11.307,8.6883e-07,6.528,-4.4702e-12,-2.5194e-06,-8.6883e-07,-6.528,0.18852
11566,5.8483,1.5455,0,0.00045019,4498.8,0.00015732,0.012856,0.00013356,-178.48,-0.00045296,-4585.4,0.18763
11567,5.7569,1.6364,0,0.00045179,4514.8,0.00015876,0.0098024,0.0001325,-197.26,-0.00045483,-4610.2,0.18239
11568,5.8483,1.6364,0.05,1.1419e-06,11.411,8.7685e-07,6.5883,-7.1439e-13,4.6843e-06,-8.7684e-07,-6.5882,0.18793
11569,5.8483,1.3636,0,0.00045162,4513.1,0.00015685,0.018228,0.00013567,-159.11,-0.00045412,-4590.6,0.18691
11570,5.7569,1.4545,0,0.00045324,4529.3,0.00015829,0.015099,0.00013462,-177.83,-0.00045601,-4615.6,0.18171
11571,5.8483,1.4545,0.05,1.1513e-06,11.505,8.8403e-07,6.6423,-2.7618e-12,-4.3718e-07,-8.8403e-07,-6.6423,0.18725
11572,5.8483,1.1818,0,0.00045315,4528.4,0.00015636,0.024251,0.0001379,-138.7,-0.00045535,-4596.1,0.1861
11573,5.7569,1.2727,0,0.00045481,4544.9,0.0001578,0.020936,0.00013689,-157.1,-0.00045728,-4621.4,0.18095
11574,5.8483,1.2727,0.05,1.159e-06,11.582,8.8996e-07,6.6869,4.0361e-13,1.3683e-06,-8.8997e-07,-6.6869,0.18649
11575,5.8483,1,0,0.00045475,4544.4,0.00015585,0.030841,0.00014021,-117.51,-0.00045663,-4602,0.1852
11576,5.7569,1.0909,0,0.00045646,4561.5,0.00015729,0.027779,0.00013927,-135.37,-0.00045862,-4627.7,0.1801
11577,5.8483,1.0909,0.05,1.1647e-06,11.639,8.9433e-07,6.7196,-1.0205e-12,2.9171e-06,-8.9432e-07,-6.7196,0.18564
11578,5.8483,0.81818,0,0.00045641,4561,0.00015534,0.040195,0.00014258,-95.822,-0.00045797,-4608.1,0.18421
11579,5.7569,0.90909,0,0.0004582,4578.8,0.00015677,0.035066,0.00014174,-112.89,-0.00046001,-4634.2,0.17915
11580,5.8483,0.90909,0.05,1.168e-06,11.672,8.9686e-07,6.7387,9.0259e-13,6.4378e-06,-8.9686e-07,-6.7386,0.18469
11581,5.8483,0.63636,0,0.00045813,4578.1,0.00015483,0.047634,0.00014499,-73.853,-0.00045934,-4614.5,0.18312
11582,5.7569,0.72727,0,0.00045999,4596.7,0.00015623,0.04822,0.00014426,-89.931,-0.00046146,-4641,0.17811
11583,5.8483,0.72727,0.05,1.1687e-06,11.679,8.9739e-07,6.7427,-1.9513e-12,1.1592e-05,-8.9738e-07,-6.7426,0.18365
11584,5.8483,0.45455,0,0.00045988,4595.6,0.00015432,0.091977,0.00014742,-51.76,-0.00046073,-4621.2,0.18194
11585,5.7569,0.54545,0,0.00046183,4615.2,0.0001557,0.052341,0.00014682,-66.701,-0.00046293,-4648.1,0.17698
11586,5.8483,0.54545,0.05,1.166e-06,11.652,8.9536e-07,6.7274,-2.2844e-12,1.1133e-05,-8.9535e-07,-6.7273,0.18252
11587,5.8483,0.27273,0,0.00046167,4613.6,0.00015383,0.1215,0.00014987,-29.597,-0.00046217,-4628.2,0.18066
11588,5.7569,0.36364,0,0.00046372,4634,0.00015518,0.14732,0.0001494,-43.311,-0.00046444,-4655.4,0.17575
11589,5.8483,0.36364,0.05,1.1503e-06,11.495,8.8328e-07,6.6366,-9.4874e-13,1.268e-06,-8.8327e-07,-6.6366,0.18128
11590,5.7569,0.18182,0,0.00046566,4653.4,0.00015466,0.15093,0.000152,-19.806,-0.00046599,-4663.2,0.17442
11591,5.8483,0.18182,0.05,9.7806e-07,9.7738,7.5103e-07,5.6429,-1.118e-12,7.5012e-06,-7.5103e-07,-5.6429,0.17995
11592,5.8483,0.090909,0,0.00046329,4629.7,0.00015338,0.13604,0.00015206,-9.7806,-0.00046346,-4634.5,0.17928
11593,5.6655,5.7273,0,0.0004677,4673.8,0.00015601,0.13662,0.00015153,-33.487,-0.00046826,-4690.3,0.1696
11594,5.5741,5.8182,0,0.0004718,4714.7,0.00015681,0.1703,0.00015381,-22.37,-0.00047217,-4725.8,0.16351
11595,5.6655,5.8182,0.05,1.0399e-06,10.392,7.9849e-07,5.9996,-1.8592e-14,6.5483e-07,-7.9849e-07,-5.9996,0.16889
11596,5.6655,5.9091,0,0.00046953,4692.1,0.00015551,0.14736,0.000154,-11.184,-0.00046972,-4697.6,0.16822
11597,5.6655,5.5455,0,0.00046567,4653.5,0.00015656,0.10169,0.00014879,-58.243,-0.00046664,-4682.3,0.17088
11598,5.5741,5.6364,0,0.00046963,4693,0.00015739,0.16432,0.0001509,-48.574,-0.00047043,-4717.1,0.16484
11599,5.6655,5.6364,0.05,1.1633e-06,11.625,8.9326e-07,6.7116,-2.0612e-14,-1.3832e-07,-8.9326e-07,-6.7116,0.17022
11600,5.6655,5.3636,0,0.0004637,4633.8,0.00015711,0.050761,0.00014608,-82.77,-0.00046505,-4674.6,0.17207
11601,5.5741,5.4545,0,0.00046752,4671.9,0.00015796,0.056398,0.00014803,-74.536,-0.00046874,-4708.7,0.16607
11602,5.6655,5.4545,0.05,1.1763e-06,11.755,9.0323e-07,6.7865,-2.4567e-14,-2.0609e-07,-9.0323e-07,-6.7865,0.17146
11603,5.6655,5.1818,0,0.00046178,4614.6,0.00015766,0.042051,0.00014341,-106.99,-0.0004635,-4667.1,0.17315
11604,5.5741,5.2727,0,0.00046546,4651.3,0.00015854,0.05135,0.0001452,-100.17,-0.00046708,-4700.6,0.16721
11605,5.6655,5.2727,0.05,1.1793e-06,11.785,9.0558e-07,6.8042,-3.246e-14,-8.6828e-07,-9.0558e-07,-6.8042,0.17259
11606,5.6655,5,0,0.00045991,4595.9,0.0001582,0.031401,0.0001408,-130.73,-0.000462,-4659.9,0.17414
11607,5.5741,5.0909,0,0.00046345,4631.3,0.00015911,0.036373,0.00014242,-125.36,-0.00046546,-4692.7,0.16824
11608,5.6655,5.0909,0.05,1.1795e-06,11.787,9.0573e-07,6.8053,-6.3953e-14,-2.6824e-07,-9.0573e-07,-6.8053,0.17363
11609,5.6655,4.8182,0,0.00045812,4578.1,0.00015874,0.024067,0.00013827,-153.76,-0.00046055,-4653,0.17504
11610,5.5741,4.9091,0,0.00046152,4612.1,0.00015967,0.028199,0.00013972,-149.87,-0.00046389,-4685.1,0.16919
11611,5.6655,4.9091,0.05,1.1774e-06,11.766,9.0407e-07,6.7929,-6.2457e-14,4.4939e-06,-9.0407e-07,-6.7928,0.17457
11612,5.6655,4.6364,0,0.00045643,4561.1,0.00015925,0.01752,0.00013585,-175.81,-0.00045917,-4646.5,0.17585
11613,5.5741,4.7273,0,0.00045969,4593.7,0.00016021,0.020672,0.00013712,-173.44,-0.00046239,-4677.9,0.17004
11614,5.6655,4.7273,0.05,1.1731e-06,11.723,9.0077e-07,6.768,2.1701e-13,-2.3946e-06,-9.0076e-07,-6.768,0.17543
11615,5.6655,4.4545,0,0.00045485,4545.3,0.00015973,0.011821,0.00013357,-196.6,-0.00045787,-4640.4,0.17656
11616,5.5741,4.5455,0,0.00045796,4576.4,0.00016072,0.014394,0.00013466,-195.78,-0.00046098,-4671.2,0.1708
11617,5.6655,4.5455,0.05,1.1669e-06,11.661,8.9602e-07,6.7324,-1.4729e-12,-6.0302e-07,-8.9602e-07,-6.7324,0.17619
11618,5.6655,4.2727,0,0.00045339,4530.8,0.00016018,0.0067183,0.00013146,-215.83,-0.00045668,-4634.8,0.17719
11619,5.5741,4.3636,0,0.00045636,4560.5,0.0001612,0.0088082,0.00013237,-216.61,-0.00045966,-4664.9,0.17147
11620,5.6655,4.3636,0.05,1.1592e-06,11.584,8.9014e-07,6.6882,-1.0776e-13,-3.9398e-07,-8.9014e-07,-6.6881,0.17686
11621,5.6655,4.0909,0,0.00045209,4517.8,0.00016059,0.0021936,0.00012955,-233.21,-0.0004556,-4629.8,0.17774
11622,5.5741,4.1818,0,0.00045491,4546,0.00016164,0.0038822,0.00013028,-235.64,-0.00045846,-4659.2,0.17205
11623,5.6655,4.1818,0.05,1.1506e-06,11.498,8.8349e-07,6.6382,-9.8758e-14,-2.434e-06,-8.8349e-07,-6.6382,0.17745
11624,5.6655,3.9091,0,0.00045095,4506.4,0.00016095,-0.0017502,0.00012788,-248.47,-0.00045466,-4625.5,0.17819
11625,5.5741,4,0,0.00045363,4533.2,0.00016203,-0.00043108,0.00012842,-252.57,-0.0004574,-4654.2,0.17255
11626,5.6655,4,0.05,1.1415e-06,11.407,8.7651e-07,6.5858,-1.2089e-13,-2.8914e-07,-8.7651e-07,-6.5857,0.17794
11627,5.6655,3.7273,0,0.00044999,4496.8,0.00016125,-0.0050732,0.00012647,-261.34,-0.00045387,-4621.8,0.17856
11628,5.5741,3.8182,0,0.00045254,4522.2,0.00016237,-0.0041137,0.00012682,-267.14,-0.00045649,-4649.9,0.17296
11629,5.6655,3.8182,0.05,1.1326e-06,11.318,8.6967e-07,6.5344,-1.8618e-12,-6.3497e-06,-8.6967e-07,-6.5344,0.17836
11630,5.6655,3.5455,0,0.00044924,4489.3,0.0001615,-0.0077255,0.00012535,-271.6,-0.00045324,-4618.9,0.17885
11631,5.5741,3.6364,0,0.00045164,4513.3,0.00016265,-0.00713,0.00012551,-279.11,-0.00045574,-4646.3,0.17329
11632,5.6655,3.6364,0.05,1.1245e-06,11.237,8.6346e-07,6.4877,-3.546e-12,-7.6425e-07,-8.6346e-07,-6.4877,0.17869
11633,5.6655,3.3636,0,0.00044869,4483.8,0.00016167,-0.0096603,0.00012453,-279.07,-0.00045278,-4616.8,0.17906
11634,5.5741,3.4545,0,0.00045095,4506.4,0.00016286,-0.0094374,0.0001245,-288.27,-0.00045517,-4643.7,0.17354
11635,5.6655,3.4545,0.05,1.1178e-06,11.17,8.5833e-07,6.4492,-1.8524e-12,-6.998e-06,-8.5832e-07,-6.4491,0.17893
11636,5.6655,3.1818,0,0.00044835,4480.4,0.00016178,-0.010839,0.00012404,-283.61,-0.0004525,-4615.5,0.17918
11637,5.5741,3.2727,0,0.00045049,4501.8,0.00016301,-0.011001,0.00012382,-294.48,-0.00045478,-4641.8,0.1737
11638,5.6655,3.2727,0.05,1.113e-06,11.123,8.5467e-07,6.4216,-4.6613e-14,-4.2524e-06,-8.5466e-07,-6.4216,0.1791
11639,5.6655,3,0,0.00044824,4479.3,0.00016182,-0.011235,0.00012387,-285.13,-0.00045241,-4615.1,0.17922
11640,5.5741,3.0909,0,0.00045026,4499.5,0.00016308,-0.011791,0.00012348,-297.61,-0.00045458,-4640.9,0.17378
11641,5.6655,3.0909,0.05,1.1105e-06,11.098,8.5276e-07,6.4073,-1.8395e-12,-3.9845e-06,-8.5276e-07,-6.4073,0.17918
11642,5.6655,2.8182,0,0.00044835,4480.4,0.00016178,-0.010839,0.00012404,-283.61,-0.0004525,-4615.5,0.17918
11643,5.5741,2.9091,0,0.00045026,4499.5,0.00016308,-0.011791,0.00012348,-297.61,-0.00045458,-4640.9,0.17378
11644,5.6655,2.9091,0.05,1.1105e-06,11.098,8.5276e-07,6.4073,-1.7917e-12,-3.6249e-06,-8.5276e-07,-6.4073,0.17918
11645,5.6655,2.6364,0,0.00044869,4483.8,0.00016167,-0.0096601,0.00012453,-279.07,-0.00045278,-4616.8,0.17906
11646,5.5741,2.7273,0,0.00045049,4501.8,0.00016301,-0.011001,0.00012382,-294.48,-0.00045478,-4641.8,0.1737
11647,5.6655,2.7273,0.05,1.113e-06,11.123,8.5467e-07,6.4216,-1.7189e-12,-3.2059e-06,-8.5466e-07,-6.4216,0.1791
11648,5.6655,2.4545,0,0.00044924,4489.3,0.0001615,-0.0077253,0.00012535,-271.6,-0.00045324,-4618.9,0.17885
11649,5.5741,2.5455,0,0.00045095,4506.4,0.00016286,-0.0094373,0.0001245,-288.27,-0.00045517,-4643.7,0.17354
11650,5.6655,2.5455,0.05,1.1178e-06,11.17,8.5833e-07,6.4492,-1.588e-12,-5.2883e-06,-8.5832e-07,-6.4491,0.17893
11651,5.6655,2.2727,0,0.00044999,4496.8,0.00016125,-0.0050728,0.00012647,-261.34,-0.00045387,-4621.8,0.17856
11652,5.5741,2.3636,0,0.00045164,4513.3,0.00016265,-0.0071296,0.00012551,-279.11,-0.00045574,-4646.3,0.17329
11653,5.6655,2.3636,0.05,1.1245e-06,11.237,8.6346e-07,6.4877,-3.2347e-12,-2.2169e-06,-8.6346e-07,-6.4877,0.17869
11654,5.6655,2.0909,0,0.00045095,4506.4,0.00016095,-0.0017498,0.00012788,-248.47,-0.00045466,-4625.5,0.17819
11655,5.5741,2.1818,0,0.00045254,4522.2,0.00016237,-0.0041133,0.00012682,-267.14,-0.00045649,-4649.9,0.17296
11656,5.6655,2.1818,0.05,1.1326e-06,11.318,8.6967e-07,6.5344,-1.5045e-12,-1.8143e-06,-8.6967e-07,-6.5344,0.17836
11657,5.6655,1.9091,0,0.00045209,4517.8,0.00016059,0.002194,0.00012955,-233.21,-0.0004556,-4629.8,0.17774
11658,5.5741,2,0,0.00045363,4533.2,0.00016203,-0.00043062,0.00012842,-252.57,-0.0004574,-4654.2,0.17255
11659,5.6655,2,0.05,1.1415e-06,11.407,8.7651e-07,6.5858,3.1871e-13,1.1043e-06,-8.7651e-07,-6.5857,0.17794
11660,5.6655,1.7273,0,0.00045339,4530.8,0.00016018,0.0067188,0.00013146,-215.83,-0.00045668,-4634.8,0.17719
11661,5.5741,1.8182,0,0.00045491,4546,0.00016164,0.0038827,0.00013028,-235.64,-0.00045846,-4659.2,0.17205
11662,5.6655,1.8182,0.05,1.1506e-06,11.498,8.8349e-07,6.6382,-1.3584e-12,-1.0365e-06,-8.8349e-07,-6.6382,0.17745
11663,5.6655,1.5455,0,0.00045485,4545.3,0.00015973,0.011822,0.00013357,-196.6,-0.00045787,-4640.4,0.17656
11664,5.5741,1.6364,0,0.00045636,4560.5,0.0001612,0.0088088,0.00013237,-216.61,-0.00045966,-4664.9,0.17147
11665,5.6655,1.6364,0.05,1.1592e-06,11.584,8.9014e-07,6.6882,-6.5451e-13,4.5633e-06,-8.9014e-07,-6.6881,0.17686
11666,5.6655,1.3636,0,0.00045643,4561.1,0.00015925,0.017521,0.00013585,-175.81,-0.00045917,-4646.5,0.17585
11667,5.5741,1.4545,0,0.00045796,4576.4,0.00016072,0.014395,0.00013466,-195.78,-0.00046098,-4671.2,0.1708
11668,5.6655,1.4545,0.05,1.1669e-06,11.661,8.9602e-07,6.7324,-1.0703e-12,3.1357e-06,-8.9602e-07,-6.7324,0.17619
11669,5.6655,1.1818,0,0.00045812,4578.1,0.00015874,0.024068,0.00013827,-153.76,-0.00046055,-4653,0.17504
11670,5.5741,1.2727,0,0.00045969,4593.7,0.00016021,0.020673,0.00013712,-173.44,-0.00046239,-4677.9,0.17004
11671,5.6655,1.2727,0.05,1.1731e-06,11.723,9.0077e-07,6.768,-9.8059e-13,1.2751e-06,-9.0076e-07,-6.768,0.17543
11672,5.6655,1,0,0.00045991,4595.9,0.0001582,0.031402,0.0001408,-130.73,-0.000462,-4659.9,0.17414
11673,5.5741,1.0909,0,0.00046152,4612.1,0.00015967,0.0282,0.00013972,-149.87,-0.00046389,-4685.1,0.16919
11674,5.6655,1.0909,0.05,1.1774e-06,11.766,9.0407e-07,6.7929,-2.9642e-12,1.2786e-05,-9.0407e-07,-6.7928,0.17457
11675,5.6655,0.81818,0,0.00046178,4614.6,0.00015766,0.042052,0.00014341,-106.99,-0.0004635,-4667.1,0.17315
11676,5.5741,0.90909,0,0.00046345,4631.3,0.00015911,0.036374,0.00014242,-125.36,-0.00046546,-4692.7,0.16824
11677,5.6655,0.90909,0.05,1.1795e-06,11.787,9.0573e-07,6.8053,-2.656e-12,2.6824e-06,-9.0573e-07,-6.8053,0.17363
11678,5.6655,0.63636,0,0.0004637,4633.8,0.00015711,0.050761,0.00014608,-82.77,-0.00046505,-4674.6,0.17207
11679,5.5741,0.72727,0,0.00046546,4651.3,0.00015854,0.051351,0.0001452,-100.17,-0.00046708,-4700.6,0.16721
11680,5.6655,0.72727,0.05,1.1793e-06,11.785,9.0558e-07,6.8042,5.8543e-13,4.4182e-07,-9.0558e-07,-6.8042,0.17259
11681,5.6655,0.45455,0,0.00046567,4653.5,0.00015656,0.10169,0.00014879,-58.243,-0.00046664,-4682.3,0.17088
11682,5.5741,0.54545,0,0.00046752,4671.9,0.00015796,0.056398,0.00014803,-74.536,-0.00046874,-4708.7,0.16607
11683,5.6655,0.54545,0.05,1.1763e-06,11.755,9.0323e-07,6.7865,-1.4153e-12,7.3627e-06,-9.0323e-07,-6.7865,0.17146
11684,5.6655,0.27273,0,0.0004677,4673.8,0.00015601,0.13662,0.00015153,-33.487,-0.00046826,-4690.3,0.1696
11685,5.5741,0.36364,0,0.00046963,4693,0.00015739,0.16432,0.0001509,-48.574,-0.00047043,-4717.1,0.16484
11686,5.6655,0.36364,0.05,1.1633e-06,11.625,8.9326e-07,6.7117,-4.1028e-12,1.828e-05,-8.9326e-07,-6.7115,0.17022
11687,5.5741,0.18182,0,0.0004718,4714.7,0.00015681,0.1703,0.00015381,-22.37,-0.00047217,-4725.8,0.16351
11688,5.6655,0.18182,0.05,1.0399e-06,10.392,7.9849e-07,5.9996,-1.4951e-12,8.9213e-06,-7.9849e-07,-5.9995,0.16889
11689,5.6655,0.090909,0,0.00046953,4692.1,0.00015551,0.14736,0.000154,-11.184,-0.00046972,-4697.6,0.16822
11690,5.4828,5.7273,0,0.00047372,4734,0.00015819,0.15302,0.00015319,-37.413,-0.00047435,-4752.5,0.15885
11691,5.3914,5.8182,0,0.00047795,4776.2,0.00015897,0.19208,0.00015563,-24.928,-0.00047836,-4788.5,0.15292
11692,5.4828,5.8182,0.05,1.1111e-06,11.103,8.5317e-07,6.4104,-1.5051e-14,6.961e-07,-8.5317e-07,-6.4104,0.15815
11693,5.4828,5.9091,0,0.00047577,4754.4,0.00015764,0.15936,0.00015594,-12.579,-0.00047598,-4760.6,0.15747
11694,5.4828,5.5455,0,0.00047147,4711.4,0.0001588,0.11221,0.00015015,-64.854,-0.00047254,-4743.5,0.16014
11695,5.3914,5.6364,0,0.00047554,4752.1,0.00015961,0.18243,0.00015241,-53.932,-0.00047643,-4778.8,0.15425
11696,5.4828,5.6364,0.05,1.1806e-06,11.798,9.0655e-07,6.8114,-2.6705e-14,5.4983e-07,-9.0655e-07,-6.8114,0.15948
11697,5.4828,5.3636,0,0.00046927,4689.5,0.0001594,0.054527,0.00014715,-91.928,-0.00047077,-4734.7,0.16132
11698,5.3914,5.4545,0,0.0004732,4728.7,0.00016023,0.061133,0.00014923,-82.581,-0.00047455,-4769.4,0.15548
11699,5.4828,5.4545,0.05,1.1904e-06,11.896,9.1407e-07,6.868,-7.0501e-14,7.8349e-06,-9.1407e-07,-6.8679,0.16071
11700,5.4828,5.1818,0,0.00046713,4668.1,0.00015999,0.044497,0.00014421,-118.53,-0.00046903,-4726.2,0.1624
11701,5.3914,5.2727,0,0.00047091,4705.9,0.00016086,0.055095,0.00014611,-110.76,-0.0004727,-4760.3,0.15661
11702,5.4828,5.2727,0.05,1.1937e-06,11.928,9.1658e-07,6.8868,-1.699e-12,-4.369e-07,-9.1658e-07,-6.8868,0.16184
11703,5.4828,5,0,0.00046506,4647.4,0.00016058,0.032493,0.00014134,-144.49,-0.00046735,-4718,0.16339
11704,5.3914,5.0909,0,0.0004687,4683.8,0.00016148,0.03822,0.00014306,-138.33,-0.0004709,-4751.4,0.15765
11705,5.4828,5.0909,0.05,1.1945e-06,11.937,9.1722e-07,6.8916,-6.7983e-14,-2.8514e-07,-9.1722e-07,-6.8916,0.16288
11706,5.4828,4.8182,0,0.00046309,4627.7,0.00016114,0.024361,0.00013857,-169.53,-0.00046574,-4710.1,0.16428
11707,5.3914,4.9091,0,0.00046657,4662.5,0.00016207,0.029099,0.0001401,-165.04,-0.00046916,-4742.8,0.15859
11708,5.4828,4.9091,0.05,1.1932e-06,11.923,9.162e-07,6.884,-1.7491e-12,5.3903e-06,-9.162e-07,-6.8839,0.16382
11709,5.4828,4.6364,0,0.00046122,4609,0.00016168,0.017229,0.00013594,-193.39,-0.0004642,-4702.6,0.16509
11710,5.3914,4.7273,0,0.00046455,4642.3,0.00016265,0.020827,0.00013728,-190.62,-0.0004675,-4734.7,0.15944
11711,5.4828,4.7273,0.05,1.1898e-06,11.89,9.1366e-07,6.8649,1.8212e-13,-2.8087e-06,-9.1366e-07,-6.8649,0.16467
11712,5.4828,4.4545,0,0.00045948,4591.6,0.00016219,0.011136,0.00013347,-215.78,-0.00046277,-4695.7,0.1658
11713,5.3914,4.5455,0,0.00046265,4623.3,0.00016319,0.014043,0.00013461,-214.77,-0.00046593,-4727,0.16019
11714,5.4828,4.5455,0.05,1.1848e-06,11.84,9.0979e-07,6.8358,1.8451e-13,-2.7711e-06,-9.0979e-07,-6.8358,0.16543
11715,5.4828,4.2727,0,0.00045788,4575.7,0.00016266,0.0057718,0.0001312,-236.41,-0.00046145,-4689.3,0.16643
11716,5.3914,4.3636,0,0.00046091,4605.9,0.0001637,0.0081009,0.00013213,-237.2,-0.00046448,-4719.9,0.16086
11717,5.4828,4.3636,0.05,1.1784e-06,11.776,9.0487e-07,6.7988,1.2381e-13,-9.3911e-07,-9.0487e-07,-6.7988,0.1661
11718,5.4828,4.0909,0,0.00045646,4561.4,0.00016309,0.0010857,0.00012915,-254.99,-0.00046026,-4683.6,0.16697
11719,5.3914,4.1818,0,0.00045932,4590.1,0.00016416,0.0029373,0.00012987,-257.61,-0.00046316,-4713.5,0.16144
11720,5.4828,4.1818,0.05,1.1711e-06,11.703,8.9923e-07,6.7565,-1.8242e-12,-1.2187e-06,-8.9923e-07,-6.7564,0.16668
11721,5.4828,3.9091,0,0.00045522,4549,0.00016346,-0.0029477,0.00012736,-271.24,-0.00045923,-4678.6,0.16742
11722,5.3914,4,0,0.00045793,4576.1,0.00016457,-0.001527,0.00012787,-275.72,-0.000462,-4707.8,0.16194
11723,5.4828,4,0.05,1.1633e-06,11.625,8.9327e-07,6.7117,-1.5339e-12,-7.5898e-07,-8.9326e-07,-6.7117,0.16718
11724,5.4828,3.7273,0,0.00045418,4538.7,0.00016377,-0.0063114,0.00012585,-284.91,-0.00045836,-4674.4,0.16779
11725,5.3914,3.8182,0,0.00045674,4564.2,0.00016492,-0.0052981,0.00012616,-291.26,-0.00046099,-4702.9,0.16235
11726,5.4828,3.8182,0.05,1.1557e-06,11.549,8.8739e-07,6.6676,-1.8904e-12,-9.7013e-07,-8.874e-07,-6.6676,0.16759
11727,5.4828,3.5455,0,0.00045336,4530.4,0.00016402,-0.0089748,0.00012465,-295.78,-0.00045766,-4671.1,0.16808
11728,5.3914,3.6364,0,0.00045576,4554.5,0.00016521,-0.0083604,0.00012475,-304,-0.00046017,-4698.9,0.16267
11729,5.4828,3.6364,0.05,1.1487e-06,11.479,8.8205e-07,6.6274,-1.9008e-12,-3.3649e-06,-8.8205e-07,-6.6274,0.16791
11730,5.4828,3.3636,0,0.00045276,4524.5,0.0001642,-0.010906,0.00012378,-303.68,-0.00045716,-4668.7,0.16828
11731,5.3914,3.4545,0,0.00045502,4547.1,0.00016543,-0.010687,0.00012367,-313.74,-0.00045955,-4695.8,0.16292
11732,5.4828,3.4545,0.05,1.1429e-06,11.421,8.7764e-07,6.5942,-1.8605e-12,-4.4919e-06,-8.7763e-07,-6.5942,0.16816
11733,5.4828,3.1818,0,0.0004524,4520.9,0.00016431,-0.012078,0.00012326,-308.48,-0.00045686,-4667.2,0.1684
11734,5.3914,3.2727,0,0.00045452,4542.1,0.00016558,-0.012257,0.00012295,-320.32,-0.00045912,-4693.8,0.16308
11735,5.4828,3.2727,0.05,1.1388e-06,11.38,8.7448e-07,6.5705,-3.6596e-12,-8.0672e-06,-8.7448e-07,-6.5705,0.16832
11736,5.4828,3,0,0.00045228,4519.7,0.00016435,-0.012471,0.00012308,-310.09,-0.00045676,-4666.7,0.16844
11737,5.3914,3.0909,0,0.00045427,4539.6,0.00016565,-0.013047,0.00012258,-323.64,-0.00045891,-4692.7,0.16316
11738,5.4828,3.0909,0.05,1.1367e-06,11.359,8.7284e-07,6.5582,-3.6573e-12,-3.9663e-06,-8.7283e-07,-6.5581,0.1684
11739,5.4828,2.8182,0,0.0004524,4520.9,0.00016431,-0.012078,0.00012326,-308.48,-0.00045686,-4667.2,0.1684
11740,5.3914,2.9091,0,0.00045427,4539.6,0.00016565,-0.013047,0.00012258,-323.64,-0.00045891,-4692.7,0.16316
11741,5.4828,2.9091,0.05,1.1367e-06,11.359,8.7284e-07,6.5582,-3.6073e-12,-3.5935e-06,-8.7283e-07,-6.5581,0.1684
11742,5.4828,2.6364,0,0.00045276,4524.5,0.0001642,-0.010906,0.00012378,-303.68,-0.00045716,-4668.7,0.16828
11743,5.3914,2.7273,0,0.00045452,4542.1,0.00016558,-0.012257,0.00012295,-320.32,-0.00045912,-4693.8,0.16308
11744,5.4828,2.7273,0.05,1.1388e-06,11.38,8.7448e-07,6.5705,-3.5153e-12,-6.9885e-06,-8.7448e-07,-6.5705,0.16832
11745,5.4828,2.4545,0,0.00045336,4530.4,0.00016402,-0.0089746,0.00012465,-295.78,-0.00045766,-4671.1,0.16808
11746,5.3914,2.5455,0,0.00045502,4547.1,0.00016543,-0.010687,0.00012367,-313.74,-0.00045955,-4695.8,0.16292
11747,5.4828,2.5455,0.05,1.1429e-06,11.421,8.7764e-07,6.5942,-1.5734e-12,-6.4547e-06,-8.7763e-07,-6.5942,0.16816
11748,5.4828,2.2727,0,0.00045418,4538.7,0.00016377,-0.0063111,0.00012585,-284.91,-0.00045836,-4674.4,0.16779
11749,5.3914,2.3636,0,0.00045576,4554.5,0.00016521,-0.0083601,0.00012475,-304,-0.00046017,-4698.9,0.16267
11750,5.4828,2.3636,0.05,1.1487e-06,11.479,8.8205e-07,6.6274,-3.2905e-12,-1.0229e-06,-8.8205e-07,-6.6274,0.16791
11751,5.4828,2.0909,0,0.00045522,4549,0.00016346,-0.0029472,0.00012736,-271.24,-0.00045923,-4678.6,0.16742
11752,5.3914,2.1818,0,0.00045674,4564.2,0.00016492,-0.0052977,0.00012616,-291.26,-0.00046099,-4702.9,0.16235
11753,5.4828,2.1818,0.05,1.1557e-06,11.549,8.8739e-07,6.6676,-1.4953e-12,-1.7614e-06,-8.874e-07,-6.6676,0.16759
11754,5.4828,1.9091,0,0.00045646,4561.4,0.00016309,0.0010863,0.00012915,-254.99,-0.00046026,-4683.6,0.16697
11755,5.3914,2,0,0.00045793,4576.1,0.00016457,-0.0015265,0.00012787,-275.72,-0.000462,-4707.8,0.16194
11756,5.4828,2,0.05,1.1633e-06,11.625,8.9327e-07,6.7117,-2.7431e-12,-2.1377e-06,-8.9326e-07,-6.7116,0.16718
11757,5.4828,1.7273,0,0.00045788,4575.7,0.00016266,0.0057723,0.0001312,-236.41,-0.00046145,-4689.3,0.16643
11758,5.3914,1.8182,0,0.00045932,4590.1,0.00016416,0.0029378,0.00012987,-257.61,-0.00046316,-4713.5,0.16144
11759,5.4828,1.8182,0.05,1.1711e-06,11.703,8.9923e-07,6.7566,-4.641e-12,1.2317e-05,-8.9923e-07,-6.7564,0.16668
11760,5.4828,1.5455,0,0.00045948,4591.6,0.00016219,0.011137,0.00013347,-215.78,-0.00046277,-4695.7,0.1658
11761,5.3914,1.6364,0,0.00046091,4605.9,0.0001637,0.0081015,0.00013213,-237.2,-0.00046448,-4719.9,0.16086
11762,5.4828,1.6364,0.05,1.1784e-06,11.776,9.0487e-07,6.7989,-1.1015e-12,4.989e-06,-9.0487e-07,-6.7988,0.1661
11763,5.4828,1.3636,0,0.00046122,4609,0.00016168,0.01723,0.00013594,-193.39,-0.0004642,-4702.6,0.16509
11764,5.3914,1.4545,0,0.00046265,4623.3,0.00016319,0.014044,0.00013461,-214.77,-0.00046593,-4727,0.16019
11765,5.4828,1.4545,0.05,1.1848e-06,11.84,9.0979e-07,6.8358,9.3963e-13,5.8669e-06,-9.0979e-07,-6.8358,0.16543
11766,5.4828,1.1818,0,0.00046309,4627.7,0.00016114,0.024362,0.00013857,-169.53,-0.00046574,-4710.1,0.16428
11767,5.3914,1.2727,0,0.00046455,4642.3,0.00016265,0.020827,0.00013728,-190.62,-0.0004675,-4734.7,0.15944
11768,5.4828,1.2727,0.05,1.1898e-06,11.89,9.1366e-07,6.8649,7.2082e-13,-3.0094e-07,-9.1366e-07,-6.8649,0.16467
11769,5.4828,1,0,0.00046506,4647.4,0.00016058,0.032495,0.00014134,-144.49,-0.00046735,-4718,0.16339
11770,5.3914,1.0909,0,0.00046657,4662.5,0.00016207,0.0291,0.0001401,-165.04,-0.00046916,-4742.8,0.15859
11771,5.4828,1.0909,0.05,1.1932e-06,11.923,9.162e-07,6.884,-2.4081e-13,1.0918e-05,-9.162e-07,-6.8839,0.16382
11772,5.4828,0.81818,0,0.00046713,4668.1,0.00015999,0.044498,0.00014421,-118.53,-0.00046903,-4726.2,0.1624
11773,5.3914,0.90909,0,0.0004687,4683.8,0.00016148,0.038221,0.00014306,-138.33,-0.0004709,-4751.4,0.15765
11774,5.4828,0.90909,0.05,1.1945e-06,11.937,9.1722e-07,6.8916,-2.2149e-12,2.8514e-06,-9.1721e-07,-6.8916,0.16288
11775,5.4828,0.63636,0,0.00046927,4689.5,0.0001594,0.054528,0.00014715,-91.928,-0.00047077,-4734.7,0.16132
11776,5.3914,0.72727,0,0.00047091,4705.9,0.00016086,0.055096,0.00014611,-110.76,-0.0004727,-4760.3,0.15661
11777,5.4828,0.72727,0.05,1.1937e-06,11.928,9.1658e-07,6.8868,-4.5763e-12,2.3301e-06,-9.1658e-07,-6.8868,0.16184
11778,5.4828,0.45455,0,0.00047147,4711.4,0.0001588,0.11221,0.00015015,-64.854,-0.00047254,-4743.5,0.16014
11779,5.3914,0.54545,0,0.0004732,4728.7,0.00016023,0.061133,0.00014923,-82.581,-0.00047455,-4769.4,0.15548
11780,5.4828,0.54545,0.05,1.1904e-06,11.896,9.1407e-07,6.868,-2.2505e-12,8.3509e-06,-9.1407e-07,-6.8679,0.16071
11781,5.4828,0.27273,0,0.00047372,4734,0.00015819,0.15302,0.00015319,-37.413,-0.00047435,-4752.5,0.15885
11782,5.3914,0.36364,0,0.00047554,4752.1,0.00015961,0.18243,0.00015241,-53.932,-0.00047643,-4778.8,0.15425
11783,5.4828,0.36364,0.05,1.1806e-06,11.798,9.0655e-07,6.8115,-1.8644e-12,7.9241e-06,-9.0654e-07,-6.8114,0.15948
11784,5.3914,0.18182,0,0.00047795,4776.2,0.00015897,0.19208,0.00015563,-24.928,-0.00047836,-4788.5,0.15292
11785,5.4828,0.18182,0.05,1.1111e-06,11.103,8.5317e-07,6.4104,2.0152e-12,9.3785e-06,-8.5316e-07,-6.4103,0.15815
11786,5.4828,0.090909,0,0.00047577,4754.4,0.00015764,0.15936,0.00015594,-12.579,-0.00047598,-4760.6,0.15747
11787,5.3,5.7273,0,0.00047976,4794.3,0.00016038,0.17096,0.00015485,-41.391,-0.00048045,-4814.8,0.14842
11788,5.2086,5.8182,0,0.00048412,4837.9,0.00016114,0.21686,0.00015745,-27.481,-0.00048458,-4851.4,0.14265
11789,5.3,5.8182,0.05,1.1913e-06,11.905,9.1479e-07,6.8734,-9.8912e-15,3.2663e-07,-9.1479e-07,-6.8734,0.14772
11790,5.3,5.9091,0,0.00048202,4816.9,0.00015977,0.17218,0.00015789,-13.964,-0.00048225,-4823.8,0.14704
11791,5.3,5.5455,0,0.00047727,4769.4,0.00016104,0.12364,0.00015149,-71.64,-0.00047845,-4804.8,0.1497
11792,5.2086,5.6364,0,0.00048147,4811.4,0.00016184,0.20184,0.0001539,-59.415,-0.00048245,-4840.7,0.14398
11793,5.3,5.6364,0.05,1.2019e-06,12.01,9.2288e-07,6.9342,-3.8118e-14,-1.5988e-07,-9.2288e-07,-6.9342,0.14905
11794,5.3,5.3636,0,0.00047484,4745.1,0.0001617,0.058926,0.0001482,-101.4,-0.00047648,-4795,0.15088
11795,5.2086,5.4545,0,0.00047889,4785.6,0.00016252,0.066574,0.00015041,-90.89,-0.00048037,-4830.3,0.14521
11796,5.3,5.4545,0.05,1.2081e-06,12.073,9.2768e-07,6.9702,3.8212e-13,2.0131e-07,-9.2767e-07,-6.9702,0.15027
11797,5.3,5.1818,0,0.00047248,4721.6,0.00016234,0.047498,0.00014496,-130.54,-0.00047457,-4785.5,0.15196
11798,5.2086,5.2727,0,0.00047637,4760.4,0.0001632,0.05946,0.00014699,-121.77,-0.00047833,-4820.1,0.14634
11799,5.3,5.2727,0.05,1.2114e-06,12.106,9.3024e-07,6.9895,-1.1097e-13,-6.2058e-07,-9.3024e-07,-6.9895,0.1514
11800,5.3,5,0,0.00047021,4698.8,0.00016297,0.034067,0.00014182,-158.87,-0.00047271,-4776.2,0.15295
11801,5.2086,5.0909,0,0.00047394,4736.1,0.00016387,0.040584,0.00014365,-151.9,-0.00047634,-4810.2,0.14737
11802,5.3,5.0909,0.05,1.2127e-06,12.119,9.3122e-07,6.9968,3.4088e-13,6.6267e-06,-9.3121e-07,-6.9967,0.15244
11803,5.3,4.8182,0,0.00046803,4677.1,0.00016358,0.025072,0.00013881,-186.12,-0.00047092,-4767.4,0.15384
11804,5.2086,4.9091,0,0.00047161,4712.8,0.00016451,0.030446,0.00014042,-181,-0.00047442,-4800.7,0.1483
11805,5.3,4.9091,0.05,1.212e-06,12.111,9.3065e-07,6.9925,-1.3947e-13,-1.1699e-06,-9.3065e-07,-6.9925,0.15338
11806,5.3,4.6364,0,0.00046599,4656.6,0.00016416,0.01729,0.00013594,-211.98,-0.00046923,-4759,0.15464
11807,5.2086,4.7273,0,0.00046939,4690.7,0.00016513,0.021359,0.00013734,-208.78,-0.0004726,-4791.6,0.14915
11808,5.3,4.7273,0.05,1.2094e-06,12.085,9.2865e-07,6.9775,5.587e-13,-4.2912e-06,-9.2865e-07,-6.9775,0.15422
11809,5.3,4.4545,0,0.00046408,4637.6,0.0001647,0.01074,0.00013326,-236.17,-0.00046765,-4751.2,0.15535
11810,5.2086,4.5455,0,0.00046732,4670,0.00016571,0.014004,0.00013444,-234.93,-0.00047088,-4783,0.1499
11811,5.3,4.5455,0.05,1.2051e-06,12.043,9.2541e-07,6.9532,-1.7926e-12,4.3183e-06,-9.2541e-07,-6.9531,0.15498
11812,5.3,4.2727,0,0.00046235,4620.3,0.00016519,0.0050496,0.0001308,-258.39,-0.0004662,-4744,0.15597
11813,5.2086,4.3636,0,0.00046542,4651,0.00016625,0.0076427,0.00013175,-259.16,-0.00046928,-4775.1,0.15056
11814,5.3,4.3636,0.05,1.1996e-06,11.988,9.2117e-07,6.9213,-1.1696e-13,-1.9488e-06,-9.2117e-07,-6.9213,0.15564
11815,5.3,4.0909,0,0.0004608,4604.8,0.00016564,0.00014068,0.0001286,-278.34,-0.0004649,-4737.6,0.15651
11816,5.2086,4.1818,0,0.0004637,4633.8,0.00016674,0.0021807,0.00012932,-281.15,-0.00046784,-4768,0.15114
11817,5.3,4.1818,0.05,1.1932e-06,11.924,9.1625e-07,6.8843,-3.3754e-12,-1.3374e-06,-9.1625e-07,-6.8843,0.15622
11818,5.3,3.9091,0,0.00045945,4591.3,0.00016603,-0.0040395,0.00012667,-295.74,-0.00046376,-4732,0.15696
11819,5.2086,4,0,0.00046218,4618.6,0.00016717,-0.0024916,0.00012716,-300.61,-0.00046656,-4761.6,0.15163
11820,5.3,4,0.05,1.1864e-06,11.856,9.1101e-07,6.8451,4.4983e-14,7.1871e-06,-9.1101e-07,-6.8449,0.15671
11821,5.3,3.7273,0,0.00045832,4580.1,0.00016636,-0.0074945,0.00012505,-310.36,-0.00046281,-4727.4,0.15732
11822,5.2086,3.8182,0,0.00046089,4605.7,0.00016754,-0.006402,0.00012531,-317.28,-0.00046547,-4756.2,0.15203
11823,5.3,3.8182,0.05,1.1797e-06,11.788,9.0583e-07,6.8061,-3.6819e-12,-1.004e-06,-9.0583e-07,-6.8061,0.15712
11824,5.3,3.5455,0,0.00045743,4571.2,0.00016662,-0.010211,0.00012377,-321.96,-0.00046206,-4723.6,0.15761
11825,5.2086,3.6364,0,0.00045984,4595.2,0.00016784,-0.0095532,0.0001238,-330.92,-0.00046457,-4751.7,0.15236
11826,5.3,3.6364,0.05,1.1735e-06,11.727,9.0111e-07,6.7706,1.9229e-14,1.5315e-06,-9.0111e-07,-6.7705,0.15745
11827,5.3,3.3636,0,0.00045679,4564.7,0.00016681,-0.01217,0.00012284,-330.38,-0.00046151,-4720.9,0.15781
11828,5.2086,3.4545,0,0.00045904,4587.2,0.00016807,-0.011934,0.00012265,-341.34,-0.00046389,-4748.4,0.1526
11829,5.3,3.4545,0.05,1.1684e-06,11.676,8.972e-07,6.7412,-1.8991e-12,-7.3753e-07,-8.972e-07,-6.7412,0.15769
11830,5.3,3.1818,0,0.0004564,4560.8,0.00016692,-0.013354,0.00012227,-335.49,-0.00046118,-4719.3,0.15793
11831,5.2086,3.2727,0,0.0004585,4581.8,0.00016823,-0.013532,0.00012187,-348.37,-0.00046343,-4746.1,0.15276
11832,5.3,3.2727,0.05,1.1648e-06,11.64,8.9441e-07,6.7202,-3.677e-12,-4.9503e-07,-8.9441e-07,-6.7202,0.15785
11833,5.3,3,0,0.00045627,4559.5,0.00016696,-0.013751,0.00012208,-337.2,-0.00046107,-4718.8,0.15797
11834,5.2086,3.0909,0,0.00045823,4579.1,0.00016831,-0.014336,0.00012148,-351.91,-0.0004632,-4744.9,0.15284
11835,5.3,3.0909,0.05,1.1629e-06,11.621,8.9296e-07,6.7093,-2.7506e-12,-1.5928e-07,-8.9295e-07,-6.7093,0.15793
11836,5.3,2.8182,0,0.0004564,4560.8,0.00016692,-0.013354,0.00012227,-335.49,-0.00046118,-4719.3,0.15793
11837,5.2086,2.9091,0,0.00045823,4579.1,0.00016831,-0.014336,0.00012148,-351.91,-0.0004632,-4744.9,0.15284
11838,5.3,2.9091,0.05,1.1629e-06,11.621,8.9296e-07,6.7093,-2.6976e-12,2.2906e-07,-8.9295e-07,-6.7093,0.15793
11839,5.3,2.6364,0,0.00045679,4564.7,0.00016681,-0.01217,0.00012284,-330.38,-0.00046151,-4720.9,0.15781
11840,5.2086,2.7273,0,0.0004585,4581.8,0.00016823,-0.013532,0.00012187,-348.37,-0.00046343,-4746.1,0.15276
11841,5.3,2.7273,0.05,1.1648e-06,11.64,8.9441e-07,6.7202,-3.5106e-12,6.4504e-07,-8.944e-07,-6.7202,0.15785
11842,5.3,2.4545,0,0.00045743,4571.2,0.00016662,-0.01021,0.00012377,-321.96,-0.00046206,-4723.6,0.15761
11843,5.2086,2.5455,0,0.00045904,4587.2,0.00016807,-0.011934,0.00012265,-341.34,-0.00046389,-4748.4,0.1526
11844,5.3,2.5455,0.05,1.1684e-06,11.676,8.972e-07,6.7412,-1.6588e-12,1.0817e-06,-8.972e-07,-6.7412,0.15769
11845,5.3,2.2727,0,0.00045832,4580.1,0.00016636,-0.0074941,0.00012505,-310.36,-0.00046281,-4727.4,0.15732
11846,5.2086,2.3636,0,0.00045984,4595.2,0.00016784,-0.0095529,0.0001238,-330.92,-0.00046457,-4751.7,0.15236
11847,5.3,2.3636,0.05,1.1735e-06,11.727,9.0111e-07,6.7706,3.555e-13,2.1198e-07,-9.0111e-07,-6.7705,0.15745
11848,5.3,2.0909,0,0.00045945,4591.3,0.00016603,-0.004039,0.00012667,-295.74,-0.00046376,-4732,0.15696
11849,5.2086,2.1818,0,0.00046089,4605.7,0.00016754,-0.0064016,0.00012531,-317.28,-0.00046547,-4756.2,0.15203
11850,5.3,2.1818,0.05,1.1797e-06,11.788,9.0583e-07,6.8061,-3.1274e-12,-5.3789e-06,-9.0583e-07,-6.8061,0.15712
11851,5.3,1.9091,0,0.0004608,4604.8,0.00016564,0.00014116,0.0001286,-278.34,-0.0004649,-4737.6,0.15651
11852,5.2086,2,0,0.00046218,4618.6,0.00016717,-0.0024911,0.00012716,-300.61,-0.00046656,-4761.6,0.15163
11853,5.3,2,0.05,1.1864e-06,11.856,9.1101e-07,6.845,-1.1079e-12,6.8903e-06,-9.1101e-07,-6.8449,0.15671
11854,5.3,1.7273,0,0.00046235,4620.3,0.00016519,0.0050501,0.0001308,-258.39,-0.0004662,-4744,0.15597
11855,5.2086,1.8182,0,0.0004637,4633.8,0.00016674,0.0021812,0.00012932,-281.15,-0.00046784,-4768,0.15114
11856,5.3,1.8182,0.05,1.1932e-06,11.924,9.1625e-07,6.8843,-2.633e-12,2.6749e-06,-9.1625e-07,-6.8843,0.15622
11857,5.3,1.5455,0,0.00046408,4637.6,0.0001647,0.01074,0.00013326,-236.17,-0.00046765,-4751.2,0.15535
11858,5.2086,1.6364,0,0.00046542,4651,0.00016625,0.0076434,0.00013175,-259.16,-0.00046928,-4775.1,0.15056
11859,5.3,1.6364,0.05,1.1996e-06,11.988,9.2117e-07,6.9213,-1.3386e-12,5.2733e-06,-9.2117e-07,-6.9213,0.15564
11860,5.3,1.3636,0,0.00046599,4656.6,0.00016416,0.017291,0.00013594,-211.98,-0.00046923,-4759,0.15464
11861,5.2086,1.4545,0,0.00046732,4670,0.00016571,0.014005,0.00013444,-234.93,-0.00047088,-4783,0.1499
11862,5.3,1.4545,0.05,1.2051e-06,12.043,9.2541e-07,6.9532,-9.8417e-13,1.5007e-05,-9.254e-07,-6.9531,0.15498
11863,5.3,1.1818,0,0.00046803,4677.1,0.00016358,0.025073,0.00013881,-186.12,-0.00047092,-4767.4,0.15384
11864,5.2086,1.2727,0,0.00046939,4690.7,0.00016513,0.021359,0.00013734,-208.78,-0.0004726,-4791.6,0.14915
11865,5.3,1.2727,0.05,1.2094e-06,12.085,9.2865e-07,6.9775,-2.4088e-13,7.1578e-06,-9.2865e-07,-6.9775,0.15422
11866,5.3,1,0,0.00047021,4698.8,0.00016297,0.034068,0.00014182,-158.87,-0.00047271,-4776.2,0.15295
11867,5.2086,1.0909,0,0.00047161,4712.8,0.00016451,0.030447,0.00014042,-181,-0.00047442,-4800.7,0.1483
11868,5.3,1.0909,0.05,1.212e-06,12.111,9.3064e-07,6.9925,6.613e-13,2.9248e-06,-9.3065e-07,-6.9925,0.15338
11869,5.3,0.81818,0,0.00047248,4721.6,0.00016234,0.047499,0.00014496,-130.54,-0.00047457,-4785.5,0.15196
11870,5.2086,0.90909,0,0.00047394,4736.1,0.00016387,0.040586,0.00014365,-151.9,-0.00047634,-4810.2,0.14737
11871,5.3,0.90909,0.05,1.2127e-06,12.119,9.3121e-07,6.9968,-1.2789e-14,9.6521e-06,-9.3121e-07,-6.9967,0.15244
11872,5.3,0.63636,0,0.00047484,4745.1,0.0001617,0.058927,0.0001482,-101.4,-0.00047648,-4795,0.15088
11873,5.2086,0.72727,0,0.00047637,4760.4,0.0001632,0.059461,0.00014699,-121.77,-0.00047833,-4820.1,0.14634
11874,5.3,0.72727,0.05,1.2114e-06,12.106,9.3024e-07,6.9895,-2.4665e-12,2.4823e-06,-9.3024e-07,-6.9895,0.1514
11875,5.3,0.45455,0,0.00047727,4769.4,0.00016104,0.12364,0.00015149,-71.64,-0.00047845,-4804.8,0.1497
11876,5.2086,0.54545,0,0.00047889,4785.6,0.00016252,0.066575,0.00015041,-90.89,-0.00048037,-4830.3,0.14521
11877,5.3,0.54545,0.05,1.2081e-06,12.073,9.2768e-07,6.9702,-4.4904e-13,8.4231e-06,-9.2767e-07,-6.9702,0.15027
11878,5.3,0.27273,0,0.00047976,4794.3,0.00016038,0.17096,0.00015485,-41.391,-0.00048045,-4814.8,0.14842
11879,5.2086,0.36364,0,0.00048147,4811.4,0.00016184,0.20184,0.0001539,-59.415,-0.00048245,-4840.7,0.14398
11880,5.3,0.36364,0.05,1.2019e-06,12.01,9.2288e-07,6.9342,6.2206e-13,9.1575e-06,-9.2288e-07,-6.9341,0.14905
11881,5.2086,0.18182,0,0.00048412,4837.9,0.00016114,0.21687,0.00015745,-27.481,-0.00048458,-4851.4,0.14265
11882,5.3,0.18182,0.05,1.1913e-06,11.905,9.1479e-07,6.8734,1.6278e-12,1.3612e-06,-9.1478e-07,-6.8734,0.14772
11883,5.3,0.090909,0,0.00048202,4816.9,0.00015977,0.17218,0.00015789,-13.964,-0.00048225,-4823.8,0.14704
11884,5.1172,5.7273,0,0.00048582,4854.9,0.00016258,0.19077,0.00015651,-45.436,-0.00048658,-4877.3,0.13832
11885,5.0259,5.8182,0,0.00049032,4899.9,0.00016331,0.24536,0.00015928,-30.025,-0.00049082,-4914.7,0.13271
11886,5.1172,5.8182,0.05,1.2805e-06,12.796,9.8323e-07,7.3876,-6.0542e-14,2.7088e-07,-9.8323e-07,-7.3876,0.13761
11887,5.1172,5.9091,0,0.00048829,4879.6,0.00016191,0.18598,0.00015985,-15.335,-0.00048855,-4887.1,0.13694
11888,5.1172,5.5455,0,0.00048308,4827.5,0.00016331,0.1361,0.00015282,-78.642,-0.00048437,-4866.3,0.13959
11889,5.0259,5.6364,0,0.00048741,4870.8,0.00016408,0.22277,0.00015539,-65.049,-0.00048848,-4902.9,0.13403
11890,5.1172,5.6364,0.05,1.2269e-06,12.26,9.4209e-07,7.0785,-1.5475e-12,8.1132e-07,-9.4209e-07,-7.0785,0.13893
11891,5.1172,5.3636,0,0.00048042,4800.9,0.00016402,0.063995,0.00014921,-111.24,-0.00048221,-4855.5,0.14077
11892,5.0259,5.4545,0,0.00048459,4842.5,0.00016482,0.072759,0.00015157,-99.515,-0.0004862,-4891.5,0.13526
11893,5.1172,5.4545,0.05,1.2292e-06,12.284,9.4391e-07,7.0921,4.0898e-13,-6.7249e-07,-9.439e-07,-7.0921,0.14016
11894,5.1172,5.1818,0,0.00047783,4775,0.00016472,0.05107,0.00014567,-143.11,-0.0004801,-4844.9,0.14184
11895,5.0259,5.2727,0,0.00048184,4815,0.00016557,0.064458,0.00014782,-133.28,-0.00048396,-4880.3,0.13638
11896,5.1172,5.2727,0.05,1.2326e-06,12.317,9.4645e-07,7.1112,4.2469e-13,-9.8771e-07,-9.4645e-07,-7.1112,0.14129
11897,5.1172,5,0,0.00047534,4750.1,0.00016541,0.036118,0.00014224,-174,-0.00047806,-4834.7,0.14282
11898,5.0259,5.0909,0,0.00047917,4788.4,0.00016629,0.043453,0.00014417,-166.15,-0.00048178,-4869.3,0.1374
11899,5.1172,5.0909,0.05,1.2341e-06,12.333,9.4767e-07,7.1204,-1.736e-12,-9.6075e-07,-9.4767e-07,-7.1204,0.14231
11900,5.1172,4.8182,0,0.00047297,4726.4,0.00016606,0.026187,0.00013895,-203.64,-0.0004761,-4824.9,0.14371
11901,5.0259,4.9091,0,0.00047663,4763,0.00016699,0.032215,0.00014065,-197.85,-0.00047968,-4858.8,0.13833
11902,5.1172,4.9091,0.05,1.2338e-06,12.33,9.4741e-07,7.1185,3.595e-13,-2.4709e-06,-9.4741e-07,-7.1185,0.14325
11903,5.1172,4.6364,0,0.00047073,4704.1,0.00016668,0.017687,0.00013584,-231.71,-0.00047424,-4815.6,0.1445
11904,5.0259,4.7273,0,0.00047422,4738.9,0.00016765,0.022238,0.0001373,-228.04,-0.00047768,-4848.8,0.13917
11905,5.1172,4.7273,0.05,1.2317e-06,12.308,9.4579e-07,7.1063,-1.8352e-12,-1.7685e-06,-9.4579e-07,-7.1063,0.14409
11906,5.1172,4.4545,0,0.00046866,4683.4,0.00016726,0.010614,0.00013293,-257.9,-0.00047251,-4807,0.14521
11907,5.0259,4.5455,0,0.00047196,4716.4,0.00016828,0.014245,0.00013415,-256.41,-0.0004758,-4839.3,0.13992
11908,5.1172,4.5455,0.05,1.228e-06,12.272,9.4296e-07,7.0851,-3.2225e-12,2.8665e-06,-9.4296e-07,-7.085,0.14484
11909,5.1172,4.2727,0,0.00046677,4664.5,0.00016779,0.0045384,0.00013027,-281.9,-0.00047093,-4799,0.14583
11910,5.0259,4.3636,0,0.00046989,4695.7,0.00016885,0.0074014,0.00013124,-282.63,-0.00047406,-4830.6,0.14057
11911,5.1172,4.3636,0.05,1.2231e-06,12.222,9.3918e-07,7.0567,-3.5347e-12,3.7912e-06,-9.3918e-07,-7.0566,0.1455
11912,5.1172,4.0909,0,0.00046509,4647.7,0.00016826,-0.00064955,0.00012788,-303.41,-0.00046951,-4791.9,0.14636
11913,5.0259,4.1818,0,0.00046803,4677.1,0.00016938,0.0015839,0.0001286,-306.39,-0.00047249,-4822.7,0.14115
11914,5.1172,4.1818,0.05,1.2173e-06,12.165,9.3475e-07,7.0233,2.9808e-13,-1.3994e-06,-9.3474e-07,-7.0233,0.14607
11915,5.1172,3.9091,0,0.00046363,4633.1,0.00016868,-0.0050271,0.0001258,-322.14,-0.00046827,-4785.8,0.1468
11916,5.0259,4,0,0.00046639,4660.7,0.00016984,-0.0033476,0.00012627,-327.39,-0.00047109,-4815.7,0.14163
11917,5.1172,4,0.05,1.2111e-06,12.103,9.3e-07,6.9877,-1.8273e-14,-1.8784e-06,-9.2999e-07,-6.9876,0.14656
11918,5.1172,3.7273,0,0.00046241,4620.9,0.00016902,-0.0086168,0.00012406,-337.84,-0.00046723,-4780.6,0.14717
11919,5.0259,3.8182,0,0.00046499,4646.7,0.00017024,-0.0074419,0.00012427,-345.35,-0.0004699,-4809.8,0.14203
11920,5.1172,3.8182,0.05,1.205e-06,12.042,9.2529e-07,6.9522,-1.7755e-12,-5.0778e-06,-9.2529e-07,-6.9522,0.14697
11921,5.1172,3.5455,0,0.00046145,4611.3,0.0001693,-0.011421,0.00012268,-350.3,-0.00046641,-4776.5,0.14745
11922,5.0259,3.6364,0,0.00046386,4635.4,0.00017056,-0.010719,0.00012264,-360.02,-0.00046893,-4804.9,0.14236
11923,5.1172,3.6364,0.05,1.1994e-06,11.986,9.2099e-07,6.9199,-8.6722e-14,-4.8493e-06,-9.2098e-07,-6.9199,0.14729
11924,5.1172,3.3636,0,0.00046075,4604.3,0.0001695,-0.013434,0.00012168,-359.33,-0.00046581,-4773.5,0.14765
11925,5.0259,3.4545,0,0.00046299,4626.7,0.00017081,-0.013182,0.0001214,-371.22,-0.00046819,-4801.2,0.14259
11926,5.1172,3.4545,0.05,1.1948e-06,11.939,9.1742e-07,6.8932,-5.467e-12,-3.9298e-06,-9.1742e-07,-6.8931,0.14753
11927,5.1172,3.1818,0,0.00046033,4600.1,0.00016962,-0.014647,0.00012107,-364.79,-0.00046545,-4771.7,0.14777
11928,5.0259,3.2727,0,0.00046241,4620.9,0.00017097,-0.014829,0.00012056,-378.77,-0.00046769,-4798.6,0.14275
11929,5.1172,3.2727,0.05,1.1914e-06,11.906,9.1488e-07,6.874,-9.6428e-13,-4.3592e-06,-9.1487e-07,-6.874,0.14769
11930,5.1172,3,0,0.00046019,4598.7,0.00016966,-0.015053,0.00012087,-366.63,-0.00046533,-4771.1,0.14781
11931,5.0259,3.0909,0,0.00046212,4618,0.00017106,-0.015655,0.00012014,-382.57,-0.00046744,-4797.4,0.14283
11932,5.1172,3.0909,0.05,1.1897e-06,11.889,9.1355e-07,6.8641,-1.8429e-12,-1.1638e-05,-9.1355e-07,-6.8641,0.14777
11933,5.1172,2.8182,0,0.00046033,4600.1,0.00016962,-0.014647,0.00012107,-364.79,-0.00046545,-4771.7,0.14777
11934,5.0259,2.9091,0,0.00046212,4618,0.00017106,-0.015655,0.00012014,-382.57,-0.00046744,-4797.4,0.14283
11935,5.1172,2.9091,0.05,1.1897e-06,11.889,9.1355e-07,6.8641,-1.7865e-12,-1.1229e-05,-9.1355e-07,-6.8641,0.14777
11936,5.1172,2.6364,0,0.00046075,4604.3,0.0001695,-0.013434,0.00012168,-359.33,-0.00046581,-4773.5,0.14765
11937,5.0259,2.7273,0,0.00046241,4620.9,0.00017097,-0.014829,0.00012056,-378.77,-0.00046769,-4798.6,0.14275
11938,5.1172,2.7273,0.05,1.1914e-06,11.906,9.1488e-07,6.874,-1.7064e-12,-3.1596e-06,-9.1487e-07,-6.874,0.14769
11939,5.1172,2.4545,0,0.00046145,4611.3,0.0001693,-0.011421,0.00012268,-350.3,-0.00046641,-4776.5,0.14745
11940,5.0259,2.5455,0,0.00046299,4626.7,0.00017081,-0.013182,0.0001214,-371.22,-0.00046819,-4801.2,0.14259
11941,5.1172,2.5455,0.05,1.1948e-06,11.939,9.1742e-07,6.8932,-5.205e-12,-1.9366e-06,-9.1742e-07,-6.8931,0.14753
11942,5.1172,2.2727,0,0.00046241,4620.9,0.00016902,-0.0086165,0.00012406,-337.84,-0.00046723,-4780.6,0.14717
11943,5.0259,2.3636,0,0.00046386,4635.4,0.00017056,-0.010719,0.00012264,-360.02,-0.00046893,-4804.9,0.14236
11944,5.1172,2.3636,0.05,1.1994e-06,11.986,9.2099e-07,6.9199,3.9317e-13,-2.3329e-06,-9.2098e-07,-6.9199,0.14729
11945,5.1172,2.0909,0,0.00046363,4633.1,0.00016868,-0.0050266,0.0001258,-322.14,-0.00046827,-4785.8,0.1468
11946,5.0259,2.1818,0,0.00046499,4646.7,0.00017024,-0.0074415,0.00012427,-345.35,-0.0004699,-4809.8,0.14203
11947,5.1172,2.1818,0.05,1.205e-06,12.042,9.2529e-07,6.9523,-2.9687e-12,1.7638e-07,-9.2529e-07,-6.9522,0.14697
11948,5.1172,1.9091,0,0.00046509,4647.7,0.00016826,-0.00064905,0.00012788,-303.41,-0.00046951,-4791.9,0.14636
11949,5.0259,2,0,0.00046639,4660.7,0.00016984,-0.0033472,0.00012627,-327.39,-0.00047109,-4815.7,0.14163
11950,5.1172,2,0.05,1.2111e-06,12.103,9.2999e-07,6.9877,5.2102e-13,1.823e-06,-9.3e-07,-6.9876,0.14656
11951,5.1172,1.7273,0,0.00046677,4664.5,0.00016779,0.004539,0.00013027,-281.9,-0.00047093,-4799,0.14583
11952,5.0259,1.8182,0,0.00046803,4677.1,0.00016938,0.0015843,0.0001286,-306.39,-0.00047249,-4822.7,0.14115
11953,5.1172,1.8182,0.05,1.2173e-06,12.165,9.3475e-07,7.0234,-6.1614e-13,3.1279e-06,-9.3474e-07,-7.0233,0.14607
11954,5.1172,1.5455,0,0.00046866,4683.4,0.00016726,0.010615,0.00013293,-257.9,-0.00047251,-4807,0.14521
11955,5.0259,1.6364,0,0.00046989,4695.7,0.00016885,0.007402,0.00013124,-282.63,-0.00047406,-4830.6,0.14057
11956,5.1172,1.6364,0.05,1.2231e-06,12.222,9.3918e-07,7.0567,-2.9828e-12,4.3929e-06,-9.3919e-07,-7.0566,0.1455
11957,5.1172,1.3636,0,0.00047073,4704.1,0.00016668,0.017688,0.00013584,-231.71,-0.00047424,-4815.6,0.1445
11958,5.0259,1.4545,0,0.00047196,4716.4,0.00016828,0.014246,0.00013415,-256.41,-0.0004758,-4839.3,0.13992
11959,5.1172,1.4545,0.05,1.228e-06,12.272,9.4296e-07,7.0851,-2.2205e-12,8.76e-06,-9.4296e-07,-7.085,0.14484
11960,5.1172,1.1818,0,0.00047297,4726.4,0.00016606,0.026188,0.00013895,-203.64,-0.0004761,-4824.9,0.14371
11961,5.0259,1.2727,0,0.00047422,4738.9,0.00016765,0.022238,0.0001373,-228.04,-0.00047768,-4848.8,0.13917
11962,5.1172,1.2727,0.05,1.2317e-06,12.308,9.4579e-07,7.1063,-3.5322e-14,7.773e-06,-9.4578e-07,-7.1062,0.14409
11963,5.1172,1,0,0.00047534,4750.1,0.00016541,0.03612,0.00014224,-174,-0.00047806,-4834.7,0.14282
11964,5.0259,1.0909,0,0.00047663,4763,0.00016699,0.032216,0.00014065,-197.85,-0.00047968,-4858.8,0.13833
11965,5.1172,1.0909,0.05,1.2338e-06,12.33,9.4741e-07,7.1185,-2.4772e-12,9.7377e-06,-9.4741e-07,-7.1185,0.14325
11966,5.1172,0.81818,0,0.00047783,4775,0.00016472,0.051071,0.00014567,-143.11,-0.0004801,-4844.9,0.14184
11967,5.0259,0.90909,0,0.00047917,4788.4,0.00016629,0.043455,0.00014417,-166.15,-0.00048178,-4869.3,0.1374
11968,5.1172,0.90909,0.05,1.2341e-06,12.333,9.4767e-07,7.1204,-1.4474e-12,1.0469e-05,-9.4766e-07,-7.1204,0.14231
11969,5.1172,0.63636,0,0.00048042,4800.9,0.00016402,0.063995,0.00014921,-111.24,-0.00048221,-4855.5,0.14077
11970,5.0259,0.72727,0,0.00048184,4815,0.00016557,0.064459,0.00014782,-133.28,-0.00048396,-4880.3,0.13638
11971,5.1172,0.72727,0.05,1.2326e-06,12.317,9.4645e-07,7.1113,2.5616e-13,1.0747e-05,-9.4645e-07,-7.1112,0.14129
11972,5.1172,0.45455,0,0.00048308,4827.5,0.00016331,0.1361,0.00015282,-78.642,-0.00048437,-4866.3,0.13959
11973,5.0259,0.54545,0,0.00048459,4842.5,0.00016482,0.072759,0.00015157,-99.515,-0.0004862,-4891.5,0.13526
11974,5.1172,0.54545,0.05,1.2292e-06,12.284,9.4391e-07,7.0921,7.2287e-13,1.345e-06,-9.439e-07,-7.0921,0.14016
11975,5.1172,0.27273,0,0.00048582,4854.9,0.00016258,0.19077,0.00015651,-45.436,-0.00048658,-4877.3,0.13832
11976,5.0259,0.36364,0,0.00048741,4870.8,0.00016408,0.22277,0.00015539,-65.049,-0.00048848,-4902.9,0.13403
11977,5.1172,0.36364,0.05,1.2269e-06,12.26,9.4209e-07,7.0785,-1.8469e-12,1.958e-05,-9.4209e-07,-7.0784,0.13893
11978,5.0259,0.18182,0,0.00049032,4899.9,0.00016331,0.24537,0.00015928,-30.025,-0.00049082,-4914.7,0.13271
11979,5.1172,0.18182,0.05,1.2805e-06,12.796,9.8323e-07,7.3876,-1.9227e-12,1.0112e-05,-9.8323e-07,-7.3876,0.13761
11980,5.1172,0.090909,0,0.00048829,4879.6,0.00016191,0.18598,0.00015985,-15.335,-0.00048855,-4887.1,0.13694
11981,4.9345,5.7273,0,0.00049191,4915.7,0.0001648,0.21275,0.00015817,-49.554,-0.00049273,-4940.2,0.12853
11982,4.8431,5.8182,0,0.00049657,4962.3,0.0001655,0.27841,0.00016113,-32.549,-0.00049711,-4978.3,0.12309
11983,4.9345,5.8182,0.05,1.3784e-06,13.775,1.0585e-06,7.9529,-2.2452e-22,-1.4197e-07,-1.0585e-06,-7.9529,0.12782
11984,4.9345,5.9091,0,0.0004946,4942.6,0.00016406,0.20087,0.00016181,-16.685,-0.00049488,-4950.8,0.12715
11985,4.9345,5.5455,0,0.00048892,4885.8,0.00016559,0.14969,0.00015414,-85.893,-0.00049032,-4928.1,0.1298
11986,4.8431,5.6364,0,0.00049339,4930.5,0.00016634,0.24543,0.00015687,-70.853,-0.00049455,-4965.4,0.12441
11987,4.9345,5.6364,0.05,1.2555e-06,12.546,9.6405e-07,7.2435,-1.7116e-13,1.0105e-05,-9.6405e-07,-7.2435,0.12915
11988,4.9345,5.3636,0,0.000486,4856.7,0.00016637,0.069738,0.00015019,-121.52,-0.00048796,-4916.3,0.13097
11989,4.8431,5.4545,0,0.0004903,4899.6,0.00016715,0.079725,0.0001527,-108.5,-0.00049206,-4953,0.12563
11990,4.9345,5.4545,0.05,1.2537e-06,12.528,9.6269e-07,7.2333,-8.4802e-14,-7.1137e-07,-9.6269e-07,-7.2333,0.13037
11991,4.9345,5.1818,0,0.00048318,4828.5,0.00016713,0.055194,0.00014632,-156.3,-0.00048565,-4904.7,0.13204
11992,4.8431,5.2727,0,0.0004873,4869.7,0.00016796,0.070102,0.00014861,-145.34,-0.00048961,-4940.7,0.12674
11993,4.9345,5.2727,0.05,1.2569e-06,12.561,9.6518e-07,7.252,-1.6592e-13,8.2601e-06,-9.6518e-07,-7.2519,0.13149
11994,4.9345,5,0,0.00048046,4801.3,0.00016787,0.038611,0.00014258,-189.97,-0.00048341,-4893.5,0.13302
11995,4.8431,5.0909,0,0.0004844,4840.7,0.00016875,0.046817,0.00014463,-181.18,-0.00048723,-4928.7,0.12776
11996,4.9345,5.0909,0.05,1.2588e-06,12.579,9.6658e-07,7.2625,-2.4182e-13,-1.3524e-06,-9.6658e-07,-7.2625,0.13251
11997,4.9345,4.8182,0,0.00047788,4775.5,0.00016858,0.027662,0.000139,-222.22,-0.00048127,-4882.7,0.1339
11998,4.8431,4.9091,0,0.00048163,4813,0.00016951,0.034384,0.00014079,-215.69,-0.00048494,-4917.2,0.12868
11999,4.9345,4.9091,0.05,1.2587e-06,12.579,9.6654e-07,7.2622,-2.3296e-13,-1.3028e-06,-9.6654e-07,-7.2622,0.13344
12000,4.9345,4.6364,0,0.00047545,4751.2,0.00016925,0.01837,0.00013561,-252.71,-0.00047924,-4872.5,0.13469
12001,4.8431,4.7273,0,0.00047901,4786.8,0.00017023,0.023433,0.00013715,-248.52,-0.00048275,-4906.2,0.12951
12002,4.9345,4.7273,0.05,1.2569e-06,12.56,9.6515e-07,7.2518,-1.4805e-13,3.8149e-06,-9.6515e-07,-7.2518,0.13427
12003,4.9345,4.4545,0,0.0004732,4728.7,0.00016987,0.010711,0.00013246,-281.12,-0.00047735,-4863,0.13538
12004,4.8431,4.5455,0,0.00047657,4762.4,0.0001709,0.014733,0.00013372,-279.33,-0.00048071,-4895.9,0.13025
12005,4.9345,4.5455,0.05,1.2536e-06,12.527,9.6259e-07,7.2325,-1.8373e-12,-1.7526e-06,-9.6259e-07,-7.2325,0.13502
12006,4.9345,4.2727,0,0.00047115,4708.3,0.00017044,0.0041903,0.00012957,-307.11,-0.00047562,-4854.3,0.13599
12007,4.8431,4.3636,0,0.00047433,4740,0.00017153,0.0073448,0.00013056,-307.77,-0.00047881,-4886.4,0.13091
12008,4.9345,4.3636,0.05,1.249e-06,12.482,9.591e-07,7.2063,-1.5316e-12,-1.0812e-06,-9.5909e-07,-7.2063,0.13567
12009,4.9345,4.0909,0,0.00046933,4690.1,0.00017096,-0.0013286,0.00012699,-330.37,-0.00047408,-4846.5,0.13652
12010,4.8431,4.1818,0,0.00047231,4719.8,0.00017209,0.0011177,0.0001277,-333.51,-0.0004771,-4877.7,0.13147
12011,4.9345,4.1818,0.05,1.2436e-06,12.428,9.5495e-07,7.1752,-2.3352e-13,-1.4692e-06,-9.5496e-07,-7.1752,0.13624
12012,4.9345,3.9091,0,0.00046775,4674.3,0.0001714,-0.0059487,0.00012474,-350.59,-0.00047273,-4839.7,0.13696
12013,4.8431,4,0,0.00047054,4702.1,0.00017259,-0.0041197,0.00012518,-356.23,-0.00047559,-4870.1,0.13195
12014,4.9345,4,0.05,1.2378e-06,12.37,9.505e-07,7.1417,-1.533e-12,-5.1181e-06,-9.505e-07,-7.1417,0.13672
12015,4.9345,3.7273,0,0.00046644,4661.2,0.00017177,-0.0097111,0.00012286,-367.53,-0.0004716,-4834.1,0.13732
12016,4.8431,3.8182,0,0.00046903,4687.1,0.00017301,-0.0084368,0.00012302,-375.63,-0.00047429,-4863.6,0.13235
12017,4.9345,3.8182,0.05,1.2321e-06,12.312,9.4608e-07,7.1084,-1.5072e-12,-1.2792e-06,-9.4607e-07,-7.1084,0.13712
12018,4.9345,3.5455,0,0.0004654,4650.8,0.00017206,-0.012634,0.00012136,-380.95,-0.00047071,-4829.6,0.1376
12019,4.8431,3.6364,0,0.00046781,4674.8,0.00017336,-0.011871,0.00012126,-391.48,-0.00047324,-4858.3,0.13267
12020,4.9345,3.6364,0.05,1.2268e-06,12.26,9.4204e-07,7.0781,-8.5154e-13,-1.1708e-06,-9.4203e-07,-7.0781,0.13744
12021,4.9345,3.3636,0,0.00046465,4643.3,0.00017228,-0.014722,0.00012028,-390.67,-0.00047006,-4826.3,0.1378
12022,4.8431,3.4545,0,0.00046688,4665.6,0.00017363,-0.01444,0.00011992,-403.56,-0.00047243,-4854.2,0.1329
12023,4.9345,3.4545,0.05,1.2224e-06,12.216,9.3868e-07,7.0529,-9.0724e-13,5.9204e-07,-9.3868e-07,-7.0528,0.13768
12024,4.9345,3.1818,0,0.0004642,4638.8,0.00017241,-0.015977,0.00011963,-396.56,-0.00046967,-4824.3,0.13792
12025,4.8431,3.2727,0,0.00046625,4659.3,0.0001738,-0.016151,0.00011901,-411.7,-0.00047189,-4851.5,0.13306
12026,4.9345,3.2727,0.05,1.2193e-06,12.185,9.3629e-07,7.0349,-9.6584e-13,-4.1295e-06,-9.3629e-07,-7.0349,0.13784
12027,4.9345,3,0,0.00046405,4637.3,0.00017245,-0.016396,0.00011941,-398.53,-0.00046954,-4823.7,0.13796
12028,4.8431,3.0909,0,0.00046594,4656.2,0.00017389,-0.017008,0.00011856,-415.8,-0.00047161,-4850.1,0.13314
12029,4.9345,3.0909,0.05,1.2177e-06,12.169,9.3504e-07,7.0255,-1.8438e-12,-4.0261e-06,-9.3504e-07,-7.0255,0.13792
12030,4.9345,2.8182,0,0.0004642,4638.8,0.00017241,-0.015977,0.00011963,-396.56,-0.00046967,-4824.3,0.13792
12031,4.8431,2.9091,0,0.00046594,4656.2,0.00017389,-0.017008,0.00011856,-415.8,-0.00047161,-4850.1,0.13314
12032,4.9345,2.9091,0.05,1.2177e-06,12.169,9.3504e-07,7.0256,-1.7871e-12,-3.5616e-06,-9.3504e-07,-7.0255,0.13792
12033,4.9345,2.6364,0,0.00046465,4643.3,0.00017228,-0.014722,0.00012028,-390.67,-0.00047006,-4826.3,0.1378
12034,4.8431,2.7273,0,0.00046625,4659.3,0.0001738,-0.016151,0.00011901,-411.7,-0.00047189,-4851.5,0.13306
12035,4.9345,2.7273,0.05,1.2193e-06,12.185,9.3629e-07,7.0349,-7.686e-13,-6.5906e-06,-9.3628e-07,-7.0349,0.13784
12036,4.9345,2.4545,0,0.0004654,4650.8,0.00017206,-0.012633,0.00012136,-380.95,-0.00047071,-4829.6,0.1376
12037,4.8431,2.5455,0,0.00046688,4665.6,0.00017363,-0.01444,0.00011992,-403.56,-0.00047243,-4854.2,0.1329
12038,4.9345,2.5455,0.05,1.2224e-06,12.216,9.3868e-07,7.0529,-6.523e-13,2.7306e-06,-9.3868e-07,-7.0528,0.13768
12039,4.9345,2.2727,0,0.00046644,4661.2,0.00017177,-0.0097108,0.00012286,-367.53,-0.0004716,-4834.1,0.13732
12040,4.8431,2.3636,0,0.00046781,4674.8,0.00017336,-0.011871,0.00012126,-391.48,-0.00047324,-4858.3,0.13267
12041,4.9345,2.3636,0.05,1.2268e-06,12.26,9.4203e-07,7.0781,-5.0263e-13,2.9362e-06,-9.4203e-07,-7.078,0.13744
12042,4.9345,2.0909,0,0.00046775,4674.3,0.0001714,-0.0059483,0.00012474,-350.59,-0.00047273,-4839.7,0.13696
12043,4.8431,2.1818,0,0.00046903,4687.1,0.00017301,-0.0084365,0.00012302,-375.63,-0.00047429,-4863.6,0.13235
12044,4.9345,2.1818,0.05,1.2321e-06,12.312,9.4608e-07,7.1084,-2.8211e-12,2.1928e-06,-9.4607e-07,-7.1084,0.13712
12045,4.9345,1.9091,0,0.00046933,4690.1,0.00017096,-0.0013283,0.00012699,-330.37,-0.00047408,-4846.5,0.13652
12046,4.8431,2,0,0.00047054,4702.1,0.00017259,-0.0041193,0.00012518,-356.23,-0.00047559,-4870.1,0.13195
12047,4.9345,2,0.05,1.2378e-06,12.37,9.505e-07,7.1417,-2.6881e-12,5.4559e-06,-9.505e-07,-7.1416,0.13672
12048,4.9345,1.7273,0,0.00047115,4708.3,0.00017044,0.0041907,0.00012957,-307.11,-0.00047562,-4854.3,0.13599
12049,4.8431,1.8182,0,0.00047231,4719.8,0.00017209,0.0011181,0.0001277,-333.51,-0.0004771,-4877.7,0.13147
12050,4.9345,1.8182,0.05,1.2436e-06,12.428,9.5495e-07,7.1752,-1.0815e-12,2.4486e-06,-9.5496e-07,-7.1752,0.13624
12051,4.9345,1.5455,0,0.0004732,4728.7,0.00016987,0.010711,0.00013246,-281.12,-0.00047735,-4863,0.13538
12052,4.8431,1.6364,0,0.00047433,4740,0.00017153,0.0073453,0.00013056,-307.77,-0.00047881,-4886.4,0.13091
12053,4.9345,1.6364,0.05,1.249e-06,12.482,9.591e-07,7.2063,-1.016e-12,3.2437e-06,-9.5909e-07,-7.2063,0.13567
12054,4.9345,1.3636,0,0.00047545,4751.2,0.00016925,0.018371,0.00013561,-252.71,-0.00047924,-4872.5,0.13469
12055,4.8431,1.4545,0,0.00047657,4762.4,0.0001709,0.014733,0.00013372,-279.33,-0.0004807,-4895.9,0.13025
12056,4.9345,1.4545,0.05,1.2536e-06,12.527,9.626e-07,7.2326,-5.1762e-13,9.3175e-06,-9.6259e-07,-7.2325,0.13502
12057,4.9345,1.1818,0,0.00047788,4775.5,0.00016858,0.027662,0.000139,-222.22,-0.00048127,-4882.7,0.1339
12058,4.8431,1.2727,0,0.00047901,4786.8,0.00017023,0.023434,0.00013715,-248.52,-0.00048275,-4906.2,0.12951
12059,4.9345,1.2727,0.05,1.2569e-06,12.56,9.6515e-07,7.2518,2.9609e-13,1.6138e-05,-9.6516e-07,-7.2517,0.13427
12060,4.9345,1,0,0.00048046,4801.3,0.00016787,0.038612,0.00014258,-189.97,-0.00048341,-4893.5,0.13302
12061,4.8431,1.0909,0,0.00048163,4813,0.00016951,0.034385,0.00014079,-215.69,-0.00048494,-4917.2,0.12868
12062,4.9345,1.0909,0.05,1.2587e-06,12.579,9.6655e-07,7.2623,-2.8231e-13,1.9062e-05,-9.6654e-07,-7.2622,0.13344
12063,4.9345,0.81818,0,0.00048318,4828.5,0.00016713,0.055195,0.00014632,-156.3,-0.00048565,-4904.7,0.13204
12064,4.8431,0.90909,0,0.0004844,4840.7,0.00016875,0.046818,0.00014463,-181.18,-0.00048723,-4928.7,0.12776
12065,4.9345,0.90909,0.05,1.2588e-06,12.579,9.6657e-07,7.2625,-2.243e-12,2.7048e-06,-9.6658e-07,-7.2625,0.13251
12066,4.9345,0.63636,0,0.000486,4856.7,0.00016637,0.069738,0.00015019,-121.52,-0.00048796,-4916.3,0.13097
12067,4.8431,0.72727,0,0.0004873,4869.7,0.00016796,0.070103,0.00014861,-145.34,-0.00048961,-4940.7,0.12674
12068,4.9345,0.72727,0.05,1.2569e-06,12.561,9.6518e-07,7.252,8.2419e-13,2.1392e-05,-9.6517e-07,-7.2519,0.13149
12069,4.9345,0.45455,0,0.00048892,4885.8,0.00016559,0.14969,0.00015414,-85.893,-0.00049032,-4928.1,0.1298
12070,4.8431,0.54545,0,0.0004903,4899.6,0.00016715,0.079726,0.0001527,-108.5,-0.00049206,-4953,0.12563
12071,4.9345,0.54545,0.05,1.2537e-06,12.528,9.6269e-07,7.2333,-4.5068e-12,1.2326e-05,-9.6269e-07,-7.2332,0.13037
12072,4.9345,0.27273,0,0.00049191,4915.7,0.0001648,0.21275,0.00015817,-49.554,-0.00049273,-4940.2,0.12853
12073,4.8431,0.36364,0,0.00049339,4930.5,0.00016634,0.24543,0.00015687,-70.853,-0.00049455,-4965.4,0.12441
12074,4.9345,0.36364,0.05,1.2555e-06,12.546,9.6405e-07,7.2435,-1.3371e-12,1.1864e-05,-9.6405e-07,-7.2435,0.12915
12075,4.8431,0.18182,0,0.00049657,4962.3,0.0001655,0.27841,0.00016113,-32.549,-0.00049711,-4978.3,0.12309
12076,4.9345,0.18182,0.05,1.3784e-06,13.775,1.0585e-06,7.953,-1.4578e-12,1.0663e-05,-1.0585e-06,-7.9529,0.12782
12077,4.9345,0.090909,0,0.0004946,4942.6,0.00016406,0.20087,0.00016181,-16.685,-0.00049488,-4950.8,0.12715
12078,4.7517,5.7273,0,0.00049804,4977,0.00016703,0.2373,0.00015984,-53.747,-0.00049893,-5003.5,0.11908
12079,4.6603,5.8182,0,0.00050286,5025.2,0.0001677,0.31704,0.000163,-35.039,-0.00050344,-5042.4,0.1138
12080,4.7517,5.8182,0.05,1.4854e-06,14.843,1.1406e-06,8.5699,1.0673e-12,-3.8695e-15,-1.1406e-06,-8.5699,0.11837
12081,4.7517,5.9091,0,0.00050095,5006,0.00016622,0.21703,0.0001638,-18.003,-0.00050125,-5014.9,0.1177
12082,4.7517,5.5455,0,0.00049477,4944.3,0.00016789,0.16454,0.00015544,-93.424,-0.00049629,-4990.3,0.12034
12083,4.6603,5.6364,0,0.00049939,4990.5,0.00016861,0.27009,0.00015835,-76.842,-0.00050065,-5028.3,0.11512
12084,4.7517,5.6364,0.05,1.2876e-06,12.867,9.8872e-07,7.4288,1.231e-12,-1.5758e-15,-9.8871e-07,-7.4288,0.11969
12085,4.7517,5.3636,0,0.0004916,4912.6,0.00016874,0.076198,0.00015113,-132.29,-0.00049372,-4977.4,0.1215
12086,4.6603,5.4545,0,0.00049604,4956.9,0.0001695,0.087556,0.0001538,-117.88,-0.00049794,-5014.8,0.11633
12087,4.7517,5.4545,0.05,1.2815e-06,12.806,9.8401e-07,7.3935,-8.9269e-14,7.721e-07,-9.8401e-07,-7.3935,0.1209
12088,4.7517,5.1818,0,0.00048853,4881.9,0.00016958,0.059889,0.00014692,-170.2,-0.0004912,-4964.7,0.12257
12089,4.6603,5.2727,0,0.00049278,4924.4,0.00017039,0.076445,0.00014934,-158.04,-0.00049527,-5001.4,0.11744
12090,4.7517,5.2727,0.05,1.2846e-06,12.838,9.8644e-07,7.4118,-8.7337e-14,-1.4653e-06,-9.8644e-07,-7.4118,0.12202
12091,4.7517,5,0,0.00048557,4852.4,0.00017038,0.041547,0.00014284,-206.88,-0.00048876,-4952.5,0.12353
12092,4.6603,5.0909,0,0.00048963,4892.9,0.00017125,0.0507,0.00014501,-197.08,-0.00049268,-4988.4,0.11845
12093,4.7517,5.0909,0.05,1.2867e-06,12.858,9.8801e-07,7.4235,2.094e-12,-2.8471e-06,-9.88e-07,-7.4235,0.12303
12094,4.7517,4.8182,0,0.00048277,4824.3,0.00017115,0.029487,0.00013894,-241.97,-0.00048643,-4940.8,0.12441
12095,4.6603,4.9091,0,0.00048662,4862.8,0.00017207,0.036965,0.00014084,-234.65,-0.00049019,-4975.9,0.11936
12096,4.7517,4.9091,0.05,1.2868e-06,12.86,9.8813e-07,7.4244,3.9112e-13,-1.3712e-06,-9.8813e-07,-7.4244,0.12395
12097,4.7517,4.6364,0,0.00048013,4798,0.00017188,0.019326,0.00013526,-275.12,-0.00048422,-4929.7,0.12519
12098,4.6603,4.7273,0,0.00048378,4834.5,0.00017285,0.02495,0.00013687,-270.36,-0.00048781,-4964,0.12018
12099,4.7517,4.7273,0.05,1.2852e-06,12.843,9.869e-07,7.4151,1.8254e-13,-6.5347e-07,-9.8689e-07,-7.4151,0.12478
12100,4.7517,4.4545,0,0.0004777,4773.7,0.00017255,0.011014,0.00013183,-305.97,-0.00048217,-4919.3,0.12588
12101,4.6603,4.5455,0,0.00048114,4808,0.00017359,0.015468,0.00013315,-303.85,-0.00048558,-4952.8,0.12091
12102,4.7517,4.5455,0.05,1.2821e-06,12.812,9.8448e-07,7.397,9.9178e-13,1.1913e-05,-9.8448e-07,-7.3969,0.12551
12103,4.7517,4.2727,0,0.00047549,4751.6,0.00017317,0.0039914,0.0001287,-334.16,-0.00048029,-4909.8,0.12648
12104,4.6603,4.3636,0,0.00047871,4783.8,0.00017427,0.0074741,0.00012971,-334.74,-0.00048353,-4942.4,0.12156
12105,4.7517,4.3636,0.05,1.2777e-06,12.768,9.8112e-07,7.3718,-1.843e-12,-2.275e-06,-9.8112e-07,-7.3718,0.12616
12106,4.7517,4.0909,0,0.00047352,4731.9,0.00017372,-0.001907,0.0001259,-359.36,-0.00047861,-4901.4,0.127
12107,4.6603,4.1818,0,0.00047654,4762.1,0.00017488,0.00078595,0.00012661,-362.66,-0.00048167,-4933,0.12211
12108,4.7517,4.1818,0.05,1.2725e-06,12.716,9.7713e-07,7.3418,1.0393e-13,2.7739e-06,-9.7712e-07,-7.3417,0.12672
12109,4.7517,3.9091,0,0.00047182,4714.9,0.0001742,-0.0068098,0.00012346,-381.27,-0.00047715,-4894,0.12744
12110,4.6603,4,0,0.00047463,4743,0.00017542,-0.0047995,0.00012387,-387.29,-0.00048003,-4924.8,0.12259
12111,4.7517,4,0.05,1.2669e-06,12.66,9.7281e-07,7.3093,-2.1627e-13,-4.9458e-06,-9.7281e-07,-7.3093,0.1272
12112,4.7517,3.7273,0,0.0004704,4700.8,0.0001746,-0.010777,0.00012142,-399.59,-0.00047592,-4887.8,0.12779
12113,4.6603,3.8182,0,0.00047301,4726.8,0.00017588,-0.0093732,0.00012154,-408.31,-0.00047863,-4917.7,0.12298
12114,4.7517,3.8182,0.05,1.2613e-06,12.604,9.6853e-07,7.2772,7.9303e-14,-2.6036e-06,-9.6853e-07,-7.2771,0.12759
12115,4.7517,3.5455,0,0.00046928,4689.6,0.00017492,-0.013843,0.00011981,-414.1,-0.00047496,-4882.9,0.12807
12116,4.6603,3.6364,0,0.00047169,4713.6,0.00017626,-0.012991,0.00011963,-425.47,-0.00047748,-4912,0.12329
12117,4.7517,3.6364,0.05,1.2562e-06,12.553,9.6461e-07,7.2478,-1.8198e-12,1.8782e-06,-9.6461e-07,-7.2477,0.12791
12118,4.7517,3.3636,0,0.00046848,4681.5,0.00017515,-0.016025,0.00011864,-424.6,-0.00047425,-4879.4,0.12826
12119,4.6603,3.4545,0,0.00047069,4703.6,0.00017654,-0.015684,0.00011818,-438.54,-0.00047661,-4907.6,0.12352
12120,4.7517,3.4545,0.05,1.252e-06,12.511,9.6137e-07,7.2234,-3.1504e-14,-1.5191e-07,-9.6137e-07,-7.2233,0.12814
12121,4.7517,3.1818,0,0.00046799,4676.7,0.00017529,-0.017333,0.00011794,-430.96,-0.00047383,-4877.3,0.12838
12122,4.6603,3.2727,0,0.00047002,4696.9,0.00017673,-0.017473,0.0001172,-447.35,-0.00047603,-4904.6,0.12368
12123,4.7517,3.2727,0.05,1.249e-06,12.481,9.5906e-07,7.206,-1.824e-12,-4.411e-06,-9.5905e-07,-7.206,0.1283
12124,4.7517,3,0,0.00046783,4675.1,0.00017534,-0.017768,0.0001177,-433.09,-0.00047369,-4876.5,0.12842
12125,4.6603,3.0909,0,0.00046968,4693.5,0.00017683,-0.018365,0.00011671,-451.78,-0.00047573,-4903.1,0.12376
12126,4.7517,3.0909,0.05,1.2474e-06,12.465,9.5785e-07,7.1969,-9.3632e-13,-2.2134e-07,-9.5785e-07,-7.1969,0.12838
12127,4.7517,2.8182,0,0.00046799,4676.7,0.00017529,-0.017333,0.00011794,-430.96,-0.00047383,-4877.3,0.12838
12128,4.6603,2.9091,0,0.00046968,4693.5,0.00017683,-0.018365,0.00011671,-451.78,-0.00047573,-4903.1,0.12376
12129,4.7517,2.9091,0.05,1.2474e-06,12.465,9.5785e-07,7.1969,-8.7635e-13,2.2997e-07,-9.5785e-07,-7.1969,0.12838
12130,4.7517,2.6364,0,0.00046848,4681.5,0.00017515,-0.016025,0.00011864,-424.6,-0.00047425,-4879.4,0.12826
12131,4.6603,2.7273,0,0.00047002,4696.9,0.00017673,-0.017473,0.0001172,-447.35,-0.00047603,-4904.6,0.12368
12132,4.7517,2.7273,0.05,1.249e-06,12.481,9.5906e-07,7.206,-1.6485e-12,-3.1104e-06,-9.5905e-07,-7.206,0.1283
12133,4.7517,2.4545,0,0.00046928,4689.6,0.00017492,-0.013843,0.00011981,-414.1,-0.00047496,-4882.9,0.12807
12134,4.6603,2.5455,0,0.00047069,4703.6,0.00017654,-0.015684,0.00011818,-438.54,-0.00047661,-4907.6,0.12352
12135,4.7517,2.5455,0.05,1.252e-06,12.511,9.6137e-07,7.2234,2.6317e-13,1.9829e-06,-9.6137e-07,-7.2233,0.12814
12136,4.7517,2.2727,0,0.0004704,4700.8,0.0001746,-0.010777,0.00012142,-399.59,-0.00047592,-4887.8,0.12779
12137,4.6603,2.3636,0,0.00047169,4713.6,0.00017626,-0.012991,0.00011963,-425.47,-0.00047748,-4912,0.12329
12138,4.7517,2.3636,0.05,1.2562e-06,12.553,9.6461e-07,7.2478,-1.4531e-12,4.9545e-06,-9.6461e-07,-7.2477,0.12791
12139,4.7517,2.0909,0,0.00047182,4714.9,0.0001742,-0.0068094,0.00012346,-381.27,-0.00047715,-4894,0.12744
12140,4.6603,2.1818,0,0.00047301,4726.8,0.00017588,-0.0093729,0.00012154,-408.31,-0.00047863,-4917.7,0.12298
12141,4.7517,2.1818,0.05,1.2613e-06,12.604,9.6853e-07,7.2772,-1.0046e-12,4.6996e-06,-9.6853e-07,-7.2771,0.12759
12142,4.7517,1.9091,0,0.00047352,4731.9,0.00017372,-0.0019065,0.0001259,-359.36,-0.00047861,-4901.4,0.127
12143,4.6603,2,0,0.00047463,4743,0.00017542,-0.0047991,0.00012387,-387.29,-0.00048003,-4924.8,0.12259
12144,4.7517,2,0.05,1.2669e-06,12.66,9.7281e-07,7.3093,-1.3851e-12,-8.639e-07,-9.7281e-07,-7.3093,0.1272
12145,4.7517,1.7273,0,0.00047549,4751.6,0.00017317,0.0039919,0.0001287,-334.16,-0.00048029,-4909.8,0.12648
12146,4.6603,1.8182,0,0.00047654,4762.1,0.00017488,0.00078641,0.00012661,-362.66,-0.00048167,-4933,0.12211
12147,4.7517,1.8182,0.05,1.2725e-06,12.716,9.7713e-07,7.3418,5.9516e-13,8.4399e-06,-9.7712e-07,-7.3417,0.12672
12148,4.7517,1.5455,0,0.0004777,4773.7,0.00017255,0.011014,0.00013183,-305.97,-0.00048217,-4919.3,0.12588
12149,4.6603,1.6364,0,0.00047871,4783.8,0.00017427,0.0074748,0.00012971,-334.74,-0.00048353,-4942.4,0.12156
12150,4.7517,1.6364,0.05,1.2777e-06,12.768,9.8113e-07,7.3718,-8.7389e-13,8.2958e-06,-9.8112e-07,-7.3718,0.12616
12151,4.7517,1.3636,0,0.00048013,4798,0.00017188,0.019327,0.00013526,-275.12,-0.00048422,-4929.7,0.12519
12152,4.6603,1.4545,0,0.00048114,4808,0.00017359,0.015469,0.00013315,-303.85,-0.00048558,-4952.8,0.12091
12153,4.7517,1.4545,0.05,1.2821e-06,12.812,9.8448e-07,7.3971,6.2132e-13,2.4016e-05,-9.8448e-07,-7.3969,0.12551
12154,4.7517,1.1818,0,0.00048277,4824.3,0.00017115,0.029488,0.00013894,-241.97,-0.00048643,-4940.8,0.12441
12155,4.6603,1.2727,0,0.00048378,4834.5,0.00017285,0.024951,0.00013687,-270.36,-0.00048781,-4964,0.12018
12156,4.7517,1.2727,0.05,1.2852e-06,12.843,9.869e-07,7.4151,8.0573e-13,2.6139e-06,-9.8689e-07,-7.4152,0.12478
12157,4.7517,1,0,0.00048557,4852.4,0.00017038,0.041548,0.00014284,-206.88,-0.00048876,-4952.5,0.12353
12158,4.6603,1.0909,0,0.00048662,4862.8,0.00017207,0.036966,0.00014084,-234.65,-0.00049019,-4975.9,0.11936
12159,4.7517,1.0909,0.05,1.2868e-06,12.86,9.8814e-07,7.4245,4.4894e-13,2.1351e-05,-9.8813e-07,-7.4244,0.12395
12160,4.7517,0.81818,0,0.00048853,4881.9,0.00016958,0.059891,0.00014692,-170.2,-0.0004912,-4964.7,0.12257
12161,4.6603,0.90909,0,0.00048963,4892.9,0.00017125,0.050701,0.00014501,-197.08,-0.00049268,-4988.4,0.11845
12162,4.7517,0.90909,0.05,1.2867e-06,12.858,9.8802e-07,7.4236,3.9895e-12,3.2755e-05,-9.88e-07,-7.4234,0.12303
12163,4.7517,0.63636,0,0.0004916,4912.6,0.00016874,0.076199,0.00015113,-132.29,-0.00049372,-4977.4,0.1215
12164,4.6603,0.72727,0,0.00049278,4924.4,0.00017039,0.076446,0.00014934,-158.04,-0.00049527,-5001.4,0.11744
12165,4.7517,0.72727,0.05,1.2846e-06,12.838,9.8644e-07,7.4118,-1.2297e-12,-1.5721e-15,-9.8645e-07,-7.4118,0.12202
12166,4.7517,0.45455,0,0.00049477,4944.3,0.00016789,0.16454,0.00015544,-93.424,-0.00049629,-4990.3,0.12034
12167,4.6603,0.54545,0,0.00049604,4956.9,0.0001695,0.087556,0.0001538,-117.88,-0.00049794,-5014.8,0.11633
12168,4.7517,0.54545,0.05,1.2815e-06,12.806,9.8401e-07,7.3935,-1.2941e-12,1.3118e-05,-9.8401e-07,-7.3935,0.1209
12169,4.7517,0.27273,0,0.00049804,4977,0.00016703,0.2373,0.00015984,-53.747,-0.00049893,-5003.5,0.11908
12170,4.6603,0.36364,0,0.00049939,4990.5,0.00016861,0.27009,0.00015835,-76.842,-0.00050065,-5028.3,0.11512
12171,4.7517,0.36364,0.05,1.2876e-06,12.867,9.8872e-07,7.4288,1.5351e-12,2.2622e-06,-9.8871e-07,-7.4288,0.11969
12172,4.6603,0.18182,0,0.00050286,5025.2,0.0001677,0.31704,0.000163,-35.039,-0.00050344,-5042.4,0.1138
12173,4.7517,0.18182,0.05,1.4854e-06,14.843,1.1406e-06,8.5699,-3.3611e-12,2.0891e-05,-1.1406e-06,-8.5698,0.11837
12174,4.7517,0.090909,0,0.00050095,5006,0.00016622,0.21703,0.0001638,-18.003,-0.00050125,-5014.9,0.1177
12175,4.569,5.7273,0,0.00050421,5038.6,0.00016928,0.26488,0.00016152,-58.013,-0.00050517,-5067.3,0.10995
12176,4.4776,5.8182,0,0.00050921,5088.6,0.00016992,0.36251,0.00016489,-37.473,-0.00050983,-5107,0.10485
12177,4.569,5.8182,0.05,1.6014e-06,16.003,1.2297e-06,9.2392,-1.6751e-13,-1.9598e-15,-1.2297e-06,-9.2392,0.10925
12178,4.569,5.9091,0,0.00050734,5069.9,0.0001684,0.23465,0.0001658,-19.276,-0.00050766,-5079.4,0.10859
12179,4.569,5.5455,0,0.00050065,5003.1,0.00017022,0.18084,0.00015672,-101.26,-0.0005023,-5052.9,0.11121
12180,4.4776,5.6364,0,0.00050543,5050.8,0.00017091,0.29701,0.00015982,-83.025,-0.00050679,-5091.7,0.10616
12181,4.569,5.6364,0.05,1.3232e-06,13.223,1.0161e-06,7.6343,-9.3954e-14,-1.6194e-15,-1.0161e-06,-7.6343,0.11056
12182,4.569,5.3636,0,0.00049721,4968.7,0.00017115,0.083459,0.00015203,-143.59,-0.0004995,-5038.9,0.11237
12183,4.4776,5.4545,0,0.00050179,5014.4,0.00017188,0.096334,0.00015487,-127.7,-0.00050384,-5077,0.10736
12184,4.569,5.4545,0.05,1.3126e-06,13.117,1.0079e-06,7.573,-1.8707e-13,-8.2141e-07,-1.0079e-06,-7.573,0.11177
12185,4.569,5.1818,0,0.00049387,4935.3,0.00017206,0.065213,0.00014744,-184.88,-0.00049676,-5025.1,0.11342
12186,4.4776,5.2727,0,0.00049825,4979.1,0.00017285,0.083539,0.00015002,-171.42,-0.00050095,-5062.5,0.10846
12187,4.569,5.2727,0.05,1.3157e-06,13.148,1.0103e-06,7.5911,-1.6315e-12,-7.6825e-07,-1.0103e-06,-7.5911,0.11287
12188,4.569,5,0,0.00049067,4903.3,0.00017293,0.04496,0.00014301,-224.82,-0.00049411,-5011.9,0.11438
12189,4.4776,5.0909,0,0.00049484,4945,0.00017378,0.055126,0.0001453,-213.93,-0.00049813,-5048.5,0.10946
12190,4.569,5.0909,0.05,1.318e-06,13.171,1.0121e-06,7.6042,-1.4751e-12,1.0794e-05,-1.0121e-06,-7.6042,0.11388
12191,4.569,4.8182,0,0.00048763,4873,0.00017377,0.031688,0.00013876,-263.01,-0.00049157,-4999.1,0.11524
12192,4.4776,4.9091,0,0.00049159,4912.5,0.00017469,0.039967,0.00014077,-254.82,-0.00049542,-5034.9,0.11036
12193,4.569,4.9091,0.05,1.3183e-06,13.174,1.0123e-06,7.6062,-3.4327e-13,-1.4398e-06,-1.0123e-06,-7.6062,0.11479
12194,4.569,4.6364,0,0.00048478,4844.5,0.00017457,0.020574,0.00013476,-299.07,-0.00048918,-4987.1,0.11601
12195,4.4776,4.7273,0,0.00048852,4881.8,0.00017554,0.026789,0.00013645,-293.68,-0.00049285,-5022,0.11117
12196,4.569,4.7273,0.05,1.3169e-06,13.159,1.0112e-06,7.5976,9.4953e-13,-2.0599e-06,-1.0112e-06,-7.5976,0.11561
12197,4.569,4.4545,0,0.00048215,4818.2,0.0001753,0.01154,0.00013103,-332.6,-0.00048695,-4975.9,0.11669
12198,4.4776,4.5455,0,0.00048566,4853.3,0.00017634,0.016447,0.00013241,-330.1,-0.00049043,-5009.9,0.11189
12199,4.569,4.5455,0.05,1.3138e-06,13.129,1.0088e-06,7.58,8.859e-13,5.4924e-06,-1.0088e-06,-7.5799,0.11633
12200,4.569,4.2727,0,0.00047977,4794.3,0.00017597,0.0039605,0.00012763,-363.22,-0.00048491,-4965.6,0.11729
12201,4.4776,4.3636,0,0.00048305,4827.2,0.00017708,0.0077857,0.00012868,-363.68,-0.00048821,-4998.7,0.11253
12202,4.569,4.3636,0.05,1.3095e-06,13.086,1.0055e-06,7.555,-1.4291e-12,-1.7951e-06,-1.0055e-06,-7.555,0.11697
12203,4.569,4.0909,0,0.00047765,4773.2,0.00017657,-0.0023621,0.00012459,-390.58,-0.00048309,-4956.5,0.1178
12204,4.4776,4.1818,0,0.0004807,4803.7,0.00017775,0.00058802,0.00012531,-394.02,-0.00048619,-4988.6,0.11308
12205,4.569,4.1818,0.05,1.3043e-06,13.034,1.0015e-06,7.5252,6.4039e-14,3.7854e-06,-1.0015e-06,-7.5252,0.11752
12206,4.569,3.9091,0,0.00047582,4754.9,0.0001771,-0.0075831,0.00012195,-414.34,-0.00048151,-4948.5,0.11823
12207,4.4776,4,0,0.00047865,4783.2,0.00017834,-0.0053829,0.00012234,-420.76,-0.00048442,-4979.7,0.11354
12208,4.569,4,0.05,1.2987e-06,12.978,9.9726e-07,7.493,1.681e-14,2.1925e-06,-9.9725e-07,-7.4929,0.11799
12209,4.569,3.7273,0,0.00047429,4739.7,0.00017753,-0.011783,0.00011974,-434.2,-0.00048019,-4941.8,0.11858
12210,4.4776,3.8182,0,0.00047691,4765.8,0.00017884,-0.010241,0.0001198,-443.58,-0.0004829,-4972.1,0.11393
12211,4.569,3.8182,0.05,1.2932e-06,12.923,9.93e-07,7.461,-1.8023e-12,-1.6189e-06,-9.9299e-07,-7.461,0.11838
12212,4.569,3.5455,0,0.00047309,4727.7,0.00017788,-0.015012,0.000118,-449.93,-0.00047914,-4936.6,0.11885
12213,4.4776,3.6364,0,0.0004755,4751.7,0.00017925,-0.014063,0.00011774,-462.19,-0.00048167,-4965.9,0.11424
12214,4.569,3.6364,0.05,1.2881e-06,12.872,9.891e-07,7.4318,-1.8111e-12,3.5806e-07,-9.891e-07,-7.4317,0.11869
12215,4.569,3.3636,0,0.00047223,4719,0.00017812,-0.017301,0.00011673,-461.3,-0.00047838,-4932.7,0.11904
12216,4.4776,3.4545,0,0.00047443,4741,0.00017956,-0.016894,0.00011616,-476.36,-0.00048073,-4961.2,0.11447
12217,4.569,3.4545,0.05,1.2839e-06,12.83,9.8589e-07,7.4076,-8.6549e-13,-2.909e-06,-9.8588e-07,-7.4075,0.11892
12218,4.569,3.1818,0,0.00047171,4713.8,0.00017828,-0.018669,0.00011597,-468.19,-0.00047792,-4930.4,0.11916
12219,4.4776,3.2727,0,0.0004737,4733.8,0.00017977,-0.018768,0.0001151,-485.9,-0.0004801,-4958,0.11462
12220,4.569,3.2727,0.05,1.2809e-06,12.8,9.8359e-07,7.3903,-7.3664e-14,-4.4781e-06,-9.8359e-07,-7.3903,0.11908
12221,4.569,3,0,0.00047153,4712.1,0.00017833,-0.019124,0.00011571,-470.5,-0.00047777,-4929.7,0.11919
12222,4.4776,3.0909,0,0.00047334,4730.2,0.00017988,-0.019701,0.00011457,-490.71,-0.00047978,-4956.4,0.11469
12223,4.569,3.0909,0.05,1.2794e-06,12.785,9.8239e-07,7.3813,-3.6667e-12,-7.8274e-06,-9.8239e-07,-7.3813,0.11915
12224,4.569,2.8182,0,0.00047171,4713.8,0.00017828,-0.018669,0.00011597,-468.19,-0.00047792,-4930.4,0.11916
12225,4.4776,2.9091,0,0.00047334,4730.2,0.00017988,-0.019701,0.00011457,-490.71,-0.00047978,-4956.4,0.11469
12226,4.569,2.9091,0.05,1.2794e-06,12.785,9.8239e-07,7.3813,-3.6031e-12,-7.3426e-06,-9.8239e-07,-7.3813,0.11915
12227,4.569,2.6364,0,0.00047223,4719,0.00017812,-0.017301,0.00011673,-461.3,-0.00047838,-4932.7,0.11904
12228,4.4776,2.7273,0,0.0004737,4733.8,0.00017977,-0.018768,0.0001151,-485.9,-0.0004801,-4958,0.11462
12229,4.569,2.7273,0.05,1.2809e-06,12.8,9.8359e-07,7.3903,-7.8442e-13,-2.6839e-06,-9.8359e-07,-7.3903,0.11908
12230,4.569,2.4545,0,0.00047309,4727.7,0.00017788,-0.015012,0.000118,-449.93,-0.00047914,-4936.6,0.11885
12231,4.4776,2.5455,0,0.00047443,4741,0.00017956,-0.016894,0.00011616,-476.36,-0.00048073,-4961.2,0.11447
12232,4.569,2.5455,0.05,1.2839e-06,12.83,9.8589e-07,7.4076,-5.1211e-13,-5.4095e-07,-9.8588e-07,-7.4075,0.11892
12233,4.569,2.2727,0,0.00047429,4739.7,0.00017753,-0.011783,0.00011974,-434.2,-0.00048019,-4941.8,0.11858
12234,4.4776,2.3636,0,0.0004755,4751.7,0.00017925,-0.014063,0.00011774,-462.19,-0.00048167,-4965.9,0.11424
12235,4.569,2.3636,0.05,1.2881e-06,12.872,9.8911e-07,7.4318,-3.0813e-12,7.0704e-06,-9.891e-07,-7.4316,0.11869
12236,4.569,2.0909,0,0.00047582,4754.9,0.0001771,-0.0075827,0.00012195,-414.34,-0.00048151,-4948.5,0.11823
12237,4.4776,2.1818,0,0.00047691,4765.8,0.00017884,-0.010241,0.0001198,-443.58,-0.0004829,-4972.1,0.11393
12238,4.569,2.1818,0.05,1.2932e-06,12.923,9.93e-07,7.461,-1.7942e-12,2.0237e-06,-9.9299e-07,-7.461,0.11838
12239,4.569,1.9091,0,0.00047765,4773.2,0.00017657,-0.0023617,0.00012459,-390.58,-0.00048309,-4956.5,0.1178
12240,4.4776,2,0,0.00047865,4783.2,0.00017834,-0.0053825,0.00012234,-420.76,-0.00048442,-4979.7,0.11354
12241,4.569,2,0.05,1.2987e-06,12.978,9.9726e-07,7.493,7.7379e-13,6.0134e-06,-9.9725e-07,-7.4929,0.11799
12242,4.569,1.7273,0,0.00047977,4794.3,0.00017597,0.0039611,0.00012763,-363.22,-0.00048491,-4965.6,0.11729
12243,4.4776,1.8182,0,0.0004807,4803.7,0.00017775,0.00058847,0.00012531,-394.02,-0.00048619,-4988.6,0.11308
12244,4.569,1.8182,0.05,1.3043e-06,13.034,1.0015e-06,7.5252,5.8112e-13,8.1229e-06,-1.0015e-06,-7.5252,0.11752
12245,4.569,1.5455,0,0.00048215,4818.2,0.0001753,0.011541,0.00013103,-332.6,-0.00048695,-4975.9,0.11669
12246,4.4776,1.6364,0,0.00048305,4827.2,0.00017708,0.0077865,0.00012868,-363.68,-0.00048821,-4998.7,0.11253
12247,4.569,1.6364,0.05,1.3095e-06,13.086,1.0055e-06,7.555,-5.7116e-12,3.5901e-06,-1.0055e-06,-7.555,0.11697
12248,4.569,1.3636,0,0.00048478,4844.5,0.00017457,0.020574,0.00013476,-299.07,-0.00048918,-4987.1,0.11601
12249,4.4776,1.4545,0,0.00048566,4853.3,0.00017634,0.016448,0.00013241,-330.1,-0.00049043,-5009.9,0.11189
12250,4.569,1.4545,0.05,1.3138e-06,13.129,1.0088e-06,7.58,-1.8854e-12,1.0663e-05,-1.0088e-06,-7.5799,0.11633
12251,4.569,1.1818,0,0.00048763,4873,0.00017377,0.031689,0.00013876,-263.01,-0.00049157,-4999.1,0.11524
12252,4.4776,1.2727,0,0.00048852,4881.8,0.00017554,0.026789,0.00013645,-293.68,-0.00049285,-5022,0.11117
12253,4.569,1.2727,0.05,1.3169e-06,13.159,1.0112e-06,7.5977,1.4406e-12,2.1424e-05,-1.0112e-06,-7.5976,0.11561
12254,4.569,1,0,0.00049067,4903.3,0.00017293,0.044962,0.00014301,-224.82,-0.00049411,-5011.9,0.11438
12255,4.4776,1.0909,0,0.00049159,4912.5,0.00017469,0.039968,0.00014077,-254.82,-0.00049542,-5034.9,0.11036
12256,4.569,1.0909,0.05,1.3183e-06,13.174,1.0123e-06,7.6062,-4.3464e-12,2.8795e-06,-1.0123e-06,-7.6062,0.11479
12257,4.569,0.81818,0,0.00049387,4935.3,0.00017206,0.065214,0.00014744,-184.88,-0.00049676,-5025.1,0.11342
12258,4.4776,0.90909,0,0.00049484,4945,0.00017378,0.055127,0.0001453,-213.93,-0.00049813,-5048.5,0.10946
12259,4.569,0.90909,0.05,1.318e-06,13.171,1.0121e-06,7.6042,-1.297e-12,1.3781e-05,-1.0121e-06,-7.6042,0.11388
12260,4.569,0.63636,0,0.00049721,4968.7,0.00017115,0.083459,0.00015203,-143.59,-0.0004995,-5038.9,0.11237
12261,4.4776,0.72727,0,0.00049825,4979.1,0.00017285,0.083539,0.00015002,-171.42,-0.00050095,-5062.5,0.10846
12262,4.569,0.72727,0.05,1.3157e-06,13.148,1.0103e-06,7.5912,-2.5304e-12,2.7176e-05,-1.0103e-06,-7.5911,0.11287
12263,4.569,0.45455,0,0.00050065,5003.1,0.00017022,0.18084,0.00015672,-101.26,-0.0005023,-5052.9,0.11121
12264,4.4776,0.54545,0,0.00050179,5014.4,0.00017188,0.096334,0.00015487,-127.7,-0.00050384,-5077,0.10736
12265,4.569,0.54545,0.05,1.3126e-06,13.117,1.0079e-06,7.573,4.2432e-13,7.8464e-07,-1.0079e-06,-7.573,0.11177
12266,4.569,0.27273,0,0.00050421,5038.6,0.00016928,0.26489,0.00016152,-58.013,-0.00050517,-5067.3,0.10995
12267,4.4776,0.36364,0,0.00050543,5050.8,0.00017091,0.29701,0.00015982,-83.025,-0.00050679,-5091.7,0.10616
12268,4.569,0.36364,0.05,1.3232e-06,13.223,1.0161e-06,7.6344,-4.1708e-12,2.9779e-05,-1.0161e-06,-7.6343,0.11056
12269,4.4776,0.18182,0,0.00050921,5088.6,0.00016992,0.36251,0.00016489,-37.473,-0.00050983,-5107,0.10485
12270,4.569,0.18182,0.05,1.6014e-06,16.003,1.2297e-06,9.2392,-3.3117e-12,-1.9598e-15,-1.2297e-06,-9.2392,0.10925
12271,4.569,0.090909,0,0.00050734,5069.9,0.0001684,0.23465,0.0001658,-19.276,-0.00050766,-5079.4,0.10859
12272,4.3862,5.7273,0,0.00051043,5100.8,0.00017154,0.29601,0.00016321,-62.343,-0.00051145,-5131.5,0.10117
12273,4.2948,5.8182,0,0.00051561,5152.6,0.00017216,0.41641,0.0001668,-39.826,-0.00051627,-5172.2,0.096243
12274,4.3862,5.8182,0.05,1.7267e-06,17.255,1.3259e-06,9.9621,-1.6887e-13,8.7859e-08,-1.3259e-06,-9.9621,0.10047
12275,4.3862,5.9091,0,0.00051378,5134.3,0.00017058,0.25393,0.00016782,-20.486,-0.00051412,-5144.4,0.099813
12276,4.3862,5.5455,0,0.00050656,5062.1,0.00017257,0.19872,0.00015798,-109.42,-0.00050833,-5115.9,0.10242
12277,4.2948,5.6364,0,0.00051151,5111.5,0.00017323,0.32649,0.00016129,-89.407,-0.00051296,-5155.5,0.097539
12278,4.3862,5.6364,0.05,1.3623e-06,13.614,1.0461e-06,7.8601,-2.219e-22,-9.9646e-08,-1.0461e-06,-7.8601,0.10177
12279,4.3862,5.3636,0,0.00050283,5024.8,0.00017358,0.091565,0.00015288,-155.49,-0.00050529,-5100.7,0.10356
12280,4.2948,5.4545,0,0.00050756,5072.1,0.00017429,0.10615,0.00015591,-138,-0.00050976,-5139.6,0.098728
12281,4.3862,5.4545,0.05,1.3471e-06,13.462,1.0344e-06,7.7724,-1.7666e-12,-3.2737e-06,-1.0344e-06,-7.7724,0.10297
12282,4.3862,5.1818,0,0.00049922,4988.7,0.00017458,0.071179,0.00014789,-200.42,-0.00050232,-5085.9,0.1046
12283,4.2948,5.2727,0,0.00050373,5033.9,0.00017535,0.091432,0.00015064,-185.56,-0.00050663,-5124,0.099815
12284,4.3862,5.2727,0.05,1.3504e-06,13.494,1.0369e-06,7.7909,-1.913e-13,-1.6048e-06,-1.0369e-06,-7.7909,0.10406
12285,4.3862,5,0,0.00049575,4954.1,0.00017554,0.048847,0.00014307,-243.89,-0.00049945,-5071.5,0.10555
12286,4.2948,5.0909,0,0.00050004,4997,0.00017637,0.060113,0.00014551,-231.82,-0.00050358,-5108.8,0.1008
12287,4.3862,5.0909,0.05,1.3529e-06,13.52,1.0389e-06,7.8058,-5.5865e-13,-3.1242e-06,-1.0389e-06,-7.8058,0.10506
12288,4.3862,4.8182,0,0.00049247,4921.3,0.00017645,0.034247,0.00013846,-285.46,-0.0004967,-5057.8,0.1064
12289,4.2948,4.9091,0,0.00049653,4961.9,0.00017735,0.043392,0.00014057,-276.32,-0.00050065,-5094.2,0.10169
12290,4.3862,4.9091,0.05,1.3535e-06,13.525,1.0393e-06,7.8089,-1.7973e-13,-4.5231e-06,-1.0393e-06,-7.8089,0.10596
12291,4.3862,4.6364,0,0.00048939,4890.6,0.00017732,0.022089,0.0001341,-324.69,-0.00049411,-5044.8,0.10716
12292,4.2948,4.7273,0,0.00049322,4928.8,0.00017829,0.028941,0.00013588,-318.62,-0.00049786,-5080.3,0.10249
12293,4.3862,4.7273,0.05,1.3521e-06,13.512,1.0382e-06,7.8009,1.0807e-12,-2.88e-06,-1.0382e-06,-7.8009,0.10676
12294,4.3862,4.4545,0,0.00048656,4862.2,0.00017812,0.012264,0.00013005,-361.17,-0.00049169,-5032.7,0.10783
12295,4.2948,4.5455,0,0.00049014,4898,0.00017917,0.017659,0.00013149,-358.26,-0.00049525,-5067.3,0.1032
12296,4.3862,4.5455,0.05,1.349e-06,13.481,1.0359e-06,7.7834,-9.5187e-13,1.6117e-05,-1.0359e-06,-7.7833,0.10748
12297,4.3862,4.2727,0,0.00048399,4836.6,0.00017886,0.004074,0.00012636,-394.46,-0.00048949,-5021.7,0.10842
12298,4.2948,4.3636,0,0.00048733,4869.9,0.00017998,0.0082686,0.00012743,-394.78,-0.00049284,-5055.3,0.10383
12299,4.3862,4.3636,0.05,1.3447e-06,13.438,1.0326e-06,7.7582,-2.9995e-13,-5.2281e-06,-1.0326e-06,-7.7582,0.10811
12300,4.3862,4.0909,0,0.00048171,4813.8,0.00017951,-0.0027134,0.00012306,-424.2,-0.00048752,-5011.9,0.10892
12301,4.2948,4.1818,0,0.00048481,4844.8,0.00018071,0.00051625,0.00012378,-427.77,-0.00049067,-5044.5,0.10437
12302,4.3862,4.1818,0.05,1.3394e-06,13.385,1.0285e-06,7.728,-2.721e-13,-2.5173e-06,-1.0285e-06,-7.7279,0.10865
12303,4.3862,3.9091,0,0.00047975,4794.2,0.00018008,-0.0082823,0.00012019,-450.01,-0.00048581,-5003.3,0.10934
12304,4.2948,4,0,0.00048261,4822.8,0.00018135,-0.0058716,0.00012055,-456.84,-0.00048876,-5034.9,0.10482
12305,4.3862,4,0.05,1.3338e-06,13.329,1.0242e-06,7.6952,-5.3347e-13,-2.0126e-06,-1.0242e-06,-7.6952,0.10911
12306,4.3862,3.7273,0,0.00047811,4777.8,0.00018056,-0.012736,0.0001178,-471.58,-0.00048439,-4996.2,0.10969
12307,4.2948,3.8182,0,0.00048074,4804.1,0.0001819,-0.011036,0.0001178,-481.63,-0.00048712,-5026.8,0.1052
12308,4.3862,3.8182,0.05,1.3281e-06,13.272,1.0198e-06,7.6628,-1.0649e-12,1.5183e-06,-1.0199e-06,-7.6627,0.1095
12309,4.3862,3.5455,0,0.00047683,4765,0.00018093,-0.016142,0.0001159,-488.64,-0.00048326,-4990.5,0.10995
12310,4.2948,3.6364,0,0.00047923,4789,0.00018235,-0.015074,0.00011556,-501.84,-0.00048579,-5020.2,0.1055
12311,4.3862,3.6364,0.05,1.323e-06,13.221,1.0159e-06,7.6331,-9.2137e-13,-5.0556e-06,-1.0159e-06,-7.6331,0.1098
12312,4.3862,3.3636,0,0.0004759,4755.7,0.00018121,-0.018546,0.00011453,-500.99,-0.00048244,-4986.4,0.11014
12313,4.2948,3.4545,0,0.00047809,4777.6,0.00018269,-0.018052,0.00011386,-517.22,-0.00048478,-5015.1,0.10573
12314,4.3862,3.4545,0.05,1.3188e-06,13.179,1.0127e-06,7.6087,-9.641e-13,-4.7477e-06,-1.0126e-06,-7.6086,0.11003
12315,4.3862,3.1818,0,0.00047534,4750.1,0.00018137,-0.019978,0.0001137,-508.46,-0.00048195,-4983.9,0.11025
12316,4.2948,3.2727,0,0.00047732,4769.9,0.00018292,-0.020015,0.00011271,-527.59,-0.0004841,-5011.7,0.10588
12317,4.3862,3.2727,0.05,1.3157e-06,13.148,1.0103e-06,7.5912,-4.4087e-14,-7.2354e-07,-1.0103e-06,-7.5912,0.11018
12318,4.3862,3,0,0.00047516,4748.3,0.00018143,-0.020454,0.00011343,-510.96,-0.00048178,-4983.1,0.11029
12319,4.2948,3.0909,0,0.00047693,4766,0.00018304,-0.02099,0.00011213,-532.8,-0.00048375,-5010,0.10595
12320,4.3862,3.0909,0.05,1.3142e-06,13.133,1.0091e-06,7.5822,-2.7575e-12,-2.559e-07,-1.0091e-06,-7.5822,0.11025
12321,4.3862,2.8182,0,0.00047534,4750.1,0.00018137,-0.019978,0.0001137,-508.46,-0.00048195,-4983.9,0.11025
12322,4.2948,2.9091,0,0.00047693,4766,0.00018304,-0.02099,0.00011213,-532.8,-0.00048375,-5010,0.10595
12323,4.3862,2.9091,0.05,1.3142e-06,13.133,1.0091e-06,7.5822,-2.6896e-12,2.559e-07,-1.0091e-06,-7.5822,0.11025
12324,4.3862,2.6364,0,0.0004759,4755.7,0.00018121,-0.018546,0.00011453,-500.99,-0.00048244,-4986.4,0.11014
12325,4.2948,2.7273,0,0.00047732,4769.9,0.00018292,-0.020015,0.00011271,-527.59,-0.0004841,-5011.7,0.10588
12326,4.3862,2.7273,0.05,1.3157e-06,13.148,1.0103e-06,7.5913,1.5566e-13,1.1534e-06,-1.0103e-06,-7.5912,0.11018
12327,4.3862,2.4545,0,0.00047683,4765,0.00018093,-0.016141,0.0001159,-488.64,-0.00048326,-4990.5,0.10995
12328,4.2948,2.5455,0,0.00047809,4777.6,0.00018269,-0.018051,0.00011386,-517.22,-0.00048478,-5015.1,0.10573
12329,4.3862,2.5455,0.05,1.3188e-06,13.179,1.0127e-06,7.6087,-4.9035e-13,-1.5568e-06,-1.0126e-06,-7.6086,0.11003
12330,4.3862,2.2727,0,0.00047811,4777.8,0.00018056,-0.012735,0.0001178,-471.58,-0.00048439,-4996.2,0.10969
12331,4.2948,2.3636,0,0.00047923,4789,0.00018235,-0.015074,0.00011556,-501.84,-0.00048579,-5020.2,0.1055
12332,4.3862,2.3636,0.05,1.323e-06,13.221,1.0159e-06,7.6331,-2.3131e-12,-1.6364e-06,-1.0159e-06,-7.6331,0.1098
12333,4.3862,2.0909,0,0.00047975,4794.2,0.00018008,-0.0082819,0.00012019,-450.01,-0.00048581,-5003.3,0.10934
12334,4.2948,2.1818,0,0.00048074,4804.1,0.0001819,-0.011035,0.0001178,-481.63,-0.00048712,-5026.8,0.1052
12335,4.3862,2.1818,0.05,1.3281e-06,13.272,1.0199e-06,7.6628,-8.1269e-14,1.3188e-06,-1.0198e-06,-7.6627,0.1095
12336,4.3862,1.9091,0,0.00048171,4813.8,0.00017951,-0.002713,0.00012306,-424.2,-0.00048752,-5011.9,0.10892
12337,4.2948,2,0,0.00048261,4822.8,0.00018135,-0.0058712,0.00012055,-456.84,-0.00048876,-5034.9,0.10482
12338,4.3862,2,0.05,1.3338e-06,13.329,1.0242e-06,7.6952,-1.5558e-12,2.5157e-06,-1.0242e-06,-7.6952,0.10911
12339,4.3862,1.7273,0,0.00048399,4836.6,0.00017886,0.0040747,0.00012636,-394.46,-0.00048949,-5021.7,0.10842
12340,4.2948,1.8182,0,0.00048481,4844.8,0.00018071,0.00051678,0.00012378,-427.77,-0.00049067,-5044.5,0.10437
12341,4.3862,1.8182,0.05,1.3394e-06,13.385,1.0285e-06,7.728,1.8543e-12,8.3483e-06,-1.0285e-06,-7.7279,0.10865
12342,4.3862,1.5455,0,0.00048656,4862.2,0.00017812,0.012265,0.00013005,-361.17,-0.00049169,-5032.7,0.10783
12343,4.2948,1.6364,0,0.00048733,4869.9,0.00017998,0.0082692,0.00012743,-394.78,-0.00049284,-5055.3,0.10383
12344,4.3862,1.6364,0.05,1.3447e-06,13.438,1.0326e-06,7.7582,1.2036e-12,2.5162e-06,-1.0325e-06,-7.7582,0.10811
12345,4.3862,1.3636,0,0.00048939,4890.6,0.00017732,0.02209,0.0001341,-324.69,-0.00049411,-5044.8,0.10716
12346,4.2948,1.4545,0,0.00049014,4898,0.00017917,0.01766,0.00013149,-358.26,-0.00049525,-5067.3,0.1032
12347,4.3862,1.4545,0.05,1.349e-06,13.481,1.0359e-06,7.7834,-1.996e-12,2.0868e-05,-1.0359e-06,-7.7833,0.10748
12348,4.3862,1.1818,0,0.00049247,4921.3,0.00017645,0.034248,0.00013846,-285.46,-0.0004967,-5057.8,0.1064
12349,4.2948,1.2727,0,0.00049322,4928.8,0.00017829,0.028941,0.00013588,-318.62,-0.00049786,-5080.3,0.10249
12350,4.3862,1.2727,0.05,1.3521e-06,13.512,1.0382e-06,7.801,-1.4162e-12,2.3891e-05,-1.0382e-06,-7.8009,0.10676
12351,4.3862,1,0,0.00049575,4954.1,0.00017554,0.048848,0.00014307,-243.89,-0.00049945,-5071.5,0.10555
12352,4.2948,1.0909,0,0.00049653,4961.9,0.00017735,0.043393,0.00014057,-276.32,-0.00050065,-5094.2,0.10169
12353,4.3862,1.0909,0.05,1.3535e-06,13.525,1.0393e-06,7.8089,-1.1071e-12,3.0154e-06,-1.0393e-06,-7.8089,0.10596
12354,4.3862,0.81818,0,0.00049922,4988.7,0.00017458,0.07118,0.00014789,-200.42,-0.00050232,-5085.9,0.1046
12355,4.2948,0.90909,0,0.00050004,4997,0.00017637,0.060114,0.00014551,-231.82,-0.00050358,-5108.8,0.1008
12356,4.3862,0.90909,0.05,1.3529e-06,13.52,1.0389e-06,7.8058,-1.3123e-12,2.9136e-05,-1.0389e-06,-7.8057,0.10506
12357,4.3862,0.63636,0,0.00050283,5024.8,0.00017358,0.091566,0.00015288,-155.49,-0.00050529,-5100.7,0.10356
12358,4.2948,0.72727,0,0.00050373,5033.9,0.00017535,0.091432,0.00015064,-185.56,-0.00050663,-5124,0.099815
12359,4.3862,0.72727,0.05,1.3504e-06,13.494,1.0369e-06,7.791,3.5348e-12,1.5628e-05,-1.0369e-06,-7.7909,0.10406
12360,4.3862,0.45455,0,0.00050656,5062.1,0.00017257,0.19872,0.00015798,-109.42,-0.00050833,-5115.9,0.10242
12361,4.2948,0.54545,0,0.00050756,5072.1,0.00017429,0.10615,0.00015591,-138,-0.00050976,-5139.6,0.098728
12362,4.3862,0.54545,0.05,1.3471e-06,13.462,1.0344e-06,7.7724,-9.8232e-13,1.7932e-05,-1.0344e-06,-7.7724,0.10297
12363,4.3862,0.27273,0,0.00051043,5100.8,0.00017154,0.29601,0.00016321,-62.343,-0.00051145,-5131.5,0.10117
12364,4.2948,0.36364,0,0.00051151,5111.5,0.00017323,0.32649,0.00016129,-89.407,-0.00051296,-5155.5,0.097539
12365,4.3862,0.36364,0.05,1.3623e-06,13.614,1.0461e-06,7.8601,4.0641e-13,3.0689e-05,-1.0461e-06,-7.86,0.10177
12366,4.2948,0.18182,0,0.00051561,5152.6,0.00017216,0.41641,0.0001668,-39.826,-0.00051627,-5172.2,0.096243
12367,4.3862,0.18182,0.05,1.7267e-06,17.255,1.3259e-06,9.9621,-3.1666e-13,3.1551e-05,-1.3259e-06,-9.962,0.10047
12368,4.3862,0.090909,0,0.00051378,5134.3,0.00017058,0.25393,0.00016782,-20.486,-0.00051412,-5144.4,0.099813
12369,4.2034,5.7273,0,0.00051669,5163.3,0.00017383,0.33129,0.00016491,-66.722,-0.00051779,-5196.2,0.092725
12370,4.1121,5.8182,0,0.00052208,5217.2,0.00017441,0.48076,0.00016874,-42.065,-0.00052277,-5237.8,0.087978
12371,4.2034,5.8182,0.05,1.8615e-06,18.602,1.4294e-06,10.74,-3.0319e-22,-2.2781e-15,-1.4294e-06,-10.74,0.092034
12372,4.2034,5.9091,0,0.00052027,5199.1,0.00017278,0.27512,0.00016987,-21.612,-0.00052063,-5209.8,0.091381
12373,4.2034,5.5455,0,0.0005125,5121.5,0.00017495,0.21839,0.00015923,-117.92,-0.0005144,-5179.3,0.093962
12374,4.1121,5.6364,0,0.00051761,5172.6,0.00017558,0.35888,0.00016275,-95.99,-0.00051917,-5219.7,0.089261
12375,4.2034,5.6364,0.05,1.4051e-06,14.041,1.0789e-06,8.1065,-2.025e-13,1.3874e-06,-1.0789e-06,-8.1065,0.093324
12376,4.2034,5.3636,0,0.00050846,5081.1,0.00017605,0.1006,0.00015368,-168.01,-0.00051111,-5163,0.095093
12377,4.1121,5.4545,0,0.00051335,5129.9,0.00017673,0.11713,0.00015691,-148.79,-0.00051571,-5202.7,0.090437
12378,4.2034,5.4545,0.05,1.3853e-06,13.843,1.0637e-06,7.9925,-2.0261e-13,1.6668e-05,-1.0637e-06,-7.9924,0.094508
12379,4.2034,5.1818,0,0.00050456,5042.1,0.00017714,0.077836,0.00014826,-216.9,-0.0005079,-5147,0.096123
12380,4.1121,5.2727,0,0.00050921,5088.6,0.00017788,0.10021,0.00015118,-200.51,-0.00051233,-5185.9,0.09151
12381,4.2034,5.2727,0.05,1.3887e-06,13.878,1.0664e-06,8.0124,-5.9696e-13,-3.3384e-06,-1.0664e-06,-8.0124,0.095589
12382,4.2034,5,0,0.00050082,5004.7,0.00017819,0.05323,0.00014302,-264.2,-0.00050479,-5131.6,0.097056
12383,4.1121,5.0909,0,0.00050523,5048.8,0.000179,0.065712,0.00014561,-250.84,-0.00050903,-5169.5,0.092484
12384,4.2034,5.0909,0.05,1.3917e-06,13.908,1.0687e-06,8.0296,1.7417e-12,-3.2555e-06,-1.0687e-06,-8.0296,0.09657
12385,4.2034,4.8182,0,0.00049727,4969.3,0.00017919,0.037175,0.000138,-309.45,-0.00050181,-5116.8,0.097894
12386,4.1121,4.9091,0,0.00050144,5010.9,0.00018008,0.047272,0.00014024,-299.28,-0.00050586,-5153.9,0.093362
12387,4.2034,4.9091,0.05,1.3925e-06,13.916,1.0693e-06,8.0344,-5.9041e-13,1.1708e-05,-1.0693e-06,-8.0343,0.097455
12388,4.2034,4.6364,0,0.00049396,4936.2,0.00018014,0.023876,0.00013327,-352.15,-0.00049901,-5102.8,0.098642
12389,4.1121,4.7273,0,0.00049787,4975.3,0.00018111,0.031428,0.00013515,-345.33,-0.00050285,-5139,0.094148
12390,4.2034,4.7273,0.05,1.3913e-06,13.903,1.0683e-06,8.027,-2.1857e-12,-1.7027e-15,-1.0683e-06,-8.027,0.098248
12391,4.2034,4.4545,0,0.00049091,4905.7,0.00018102,0.013189,0.00012887,-391.85,-0.0004964,-5089.9,0.099302
12392,4.1121,4.5455,0,0.00049457,4942.3,0.00018207,0.019121,0.00013037,-388.47,-0.00050003,-5125,0.094844
12393,4.2034,4.5455,0.05,1.3882e-06,13.873,1.066e-06,8.0094,-1.685e-12,-4.6005e-06,-1.066e-06,-8.0094,0.098952
12394,4.2034,4.2727,0,0.00048815,4878.2,0.00018183,0.0043364,0.00012486,-428.07,-0.00049402,-5078.1,0.099877
12395,4.1121,4.3636,0,0.00049155,4912.1,0.00018296,0.0089408,0.00012597,-428.22,-0.00049743,-5112.2,0.095456
12396,4.2034,4.3636,0.05,1.3838e-06,13.828,1.0626e-06,7.9838,-8.6727e-13,-3.9622e-06,-1.0626e-06,-7.9838,0.099569
12397,4.2034,4.0909,0,0.00048571,4853.8,0.00018255,-0.0029511,0.00012127,-460.41,-0.0004919,-5067.6,0.10037
12398,4.1121,4.1818,0,0.00048886,4885.2,0.00018377,0.00059397,0.00012199,-464.12,-0.00049509,-5100.7,0.095984
12399,4.2034,4.1818,0.05,1.3784e-06,13.774,1.0584e-06,7.9527,6.6718e-13,-1.8e-06,-1.0584e-06,-7.9527,0.1001
12400,4.2034,3.9091,0,0.00048361,4832.7,0.00018317,-0.0088904,0.00011816,-488.47,-0.00049006,-5058.4,0.10078
12401,4.1121,4,0,0.0004865,4861.6,0.00018447,-0.006235,0.0001185,-495.73,-0.00049303,-5090.5,0.096431
12402,4.2034,4,0.05,1.3726e-06,13.716,1.054e-06,7.9191,-2.5261e-13,-2.1191e-06,-1.054e-06,-7.9191,0.10056
12403,4.2034,3.7273,0,0.00048186,4815.3,0.0001837,-0.01361,0.00011557,-511.91,-0.00048852,-5050.8,0.10112
12404,4.1121,3.8182,0,0.00048451,4841.7,0.00018508,-0.011717,0.00011551,-522.68,-0.00049128,-5081.9,0.096801
12405,4.2034,3.8182,0.05,1.3668e-06,13.658,1.0495e-06,7.8857,-1.926e-12,-5.8382e-06,-1.0495e-06,-7.8857,0.10093
12406,4.2034,3.5455,0,0.00048049,4801.6,0.00018411,-0.0172,0.00011351,-530.45,-0.00048731,-5044.8,0.10138
12407,4.1121,3.6364,0,0.0004829,4825.6,0.00018557,-0.015977,0.00011308,-544.65,-0.00048985,-5074.9,0.097094
12408,4.2034,3.6364,0.05,1.3615e-06,13.606,1.0455e-06,7.8553,-1.8313e-12,-1.8038e-06,-1.0455e-06,-7.8553,0.10123
12409,4.2034,3.3636,0,0.0004795,4791.7,0.00018441,-0.019722,0.00011203,-543.86,-0.00048643,-5040.4,0.10156
12410,4.1121,3.4545,0,0.00048168,4813.4,0.00018594,-0.019101,0.00011124,-561.36,-0.00048876,-5069.5,0.097313
12411,4.2034,3.4545,0.05,1.3572e-06,13.562,1.0421e-06,7.8303,-1.9565e-12,-1.3193e-06,-1.0421e-06,-7.8303,0.10145
12412,4.2034,3.1818,0,0.0004789,4785.7,0.00018459,-0.021221,0.00011113,-551.97,-0.0004859,-5037.8,0.10167
12413,4.1121,3.2727,0,0.00048086,4805.3,0.0001862,-0.021152,0.00010999,-572.61,-0.00048803,-5065.9,0.097458
12414,4.2034,3.2727,0.05,1.3541e-06,13.532,1.0398e-06,7.8125,-1.8662e-12,-3.268e-07,-1.0398e-06,-7.8124,0.1016
12415,4.2034,3,0,0.00047871,4783.8,0.00018465,-0.021717,0.00011083,-554.69,-0.00048572,-5036.9,0.10171
12416,4.1121,3.0909,0,0.00048045,4801.1,0.00018632,-0.022168,0.00010936,-578.27,-0.00048766,-5064.1,0.09753
12417,4.2034,3.0909,0.05,1.3525e-06,13.516,1.0385e-06,7.8032,-1.8501e-12,-7.8936e-06,-1.0385e-06,-7.8032,0.10167
12418,4.2034,2.8182,0,0.0004789,4785.7,0.00018459,-0.02122,0.00011113,-551.97,-0.0004859,-5037.8,0.10167
12419,4.1121,2.9091,0,0.00048045,4801.1,0.00018632,-0.022168,0.00010936,-578.27,-0.00048766,-5064.1,0.09753
12420,4.2034,2.9091,0.05,1.3525e-06,13.516,1.0385e-06,7.8032,-1.7783e-12,-7.3106e-06,-1.0385e-06,-7.8032,0.10167
12421,4.2034,2.6364,0,0.0004795,4791.7,0.00018441,-0.019722,0.00011203,-543.86,-0.00048643,-5040.4,0.10156
12422,4.1121,2.7273,0,0.00048086,4805.3,0.0001862,-0.021151,0.00010999,-572.61,-0.00048803,-5065.9,0.097458
12423,4.2034,2.7273,0.05,1.3541e-06,13.532,1.0398e-06,7.8125,-1.684e-12,1.2419e-06,-1.0398e-06,-7.8124,0.1016
12424,4.2034,2.4545,0,0.00048049,4801.6,0.00018411,-0.017199,0.00011351,-530.45,-0.00048731,-5044.8,0.10138
12425,4.1121,2.5455,0,0.00048168,4813.4,0.00018594,-0.019101,0.00011124,-561.36,-0.00048876,-5069.5,0.097313
12426,4.2034,2.5455,0.05,1.3572e-06,13.562,1.0421e-06,7.8303,-1.5948e-12,1.3193e-06,-1.0421e-06,-7.8303,0.10145
12427,4.2034,2.2727,0,0.00048186,4815.3,0.0001837,-0.01361,0.00011557,-511.91,-0.00048852,-5050.8,0.10112
12428,4.1121,2.3636,0,0.0004829,4825.6,0.00018557,-0.015977,0.00011308,-544.65,-0.00048985,-5074.9,0.097094
12429,4.2034,2.3636,0.05,1.3615e-06,13.606,1.0455e-06,7.8553,-2.0987e-12,4.793e-06,-1.0455e-06,-7.8553,0.10123
12430,4.2034,2.0909,0,0.00048361,4832.7,0.00018317,-0.00889,0.00011816,-488.47,-0.00049006,-5058.4,0.10078
12431,4.1121,2.1818,0,0.00048451,4841.7,0.00018508,-0.011717,0.00011551,-522.68,-0.00049128,-5081.9,0.096801
12432,4.2034,2.1818,0.05,1.3668e-06,13.658,1.0495e-06,7.8858,-1.2825e-12,9.4643e-06,-1.0495e-06,-7.8856,0.10093
12433,4.2034,1.9091,0,0.00048571,4853.8,0.00018255,-0.0029506,0.00012127,-460.41,-0.0004919,-5067.6,0.10037
12434,4.1121,2,0,0.0004865,4861.6,0.00018447,-0.0062346,0.0001185,-495.73,-0.00049303,-5090.5,0.096431
12435,4.2034,2,0.05,1.3726e-06,13.716,1.054e-06,7.9191,-7.3704e-13,3.1786e-06,-1.054e-06,-7.9191,0.10056
12436,4.2034,1.7273,0,0.00048815,4878.2,0.00018183,0.004337,0.00012486,-428.07,-0.00049402,-5078.1,0.099877
12437,4.1121,1.8182,0,0.00048886,4885.2,0.00018377,0.00059451,0.00012199,-464.12,-0.00049509,-5100.7,0.095984
12438,4.2034,1.8182,0.05,1.3784e-06,13.774,1.0584e-06,7.9527,1.2394e-12,9.1967e-06,-1.0584e-06,-7.9527,0.1001
12439,4.2034,1.5455,0,0.00049091,4905.7,0.00018102,0.01319,0.00012887,-391.85,-0.0004964,-5089.9,0.099302
12440,4.1121,1.6364,0,0.00049155,4912.1,0.00018296,0.0089413,0.00012597,-428.22,-0.00049743,-5112.2,0.095456
12441,4.2034,1.6364,0.05,1.3838e-06,13.828,1.0626e-06,7.9838,7.7579e-13,-6.4198e-07,-1.0626e-06,-7.9838,0.099569
12442,4.2034,1.3636,0,0.00049396,4936.2,0.00018014,0.023877,0.00013327,-352.15,-0.00049901,-5102.8,0.098642
12443,4.1121,1.4545,0,0.00049457,4942.3,0.00018207,0.019122,0.00013037,-388.47,-0.00050003,-5125,0.094844
12444,4.2034,1.4545,0.05,1.3882e-06,13.873,1.066e-06,8.0094,-1.4776e-12,9.852e-06,-1.066e-06,-8.0094,0.098952
12445,4.2034,1.1818,0,0.00049727,4969.3,0.00017919,0.037176,0.000138,-309.45,-0.00050181,-5116.8,0.097894
12446,4.1121,1.2727,0,0.00049787,4975.3,0.00018111,0.031429,0.00013515,-345.33,-0.00050285,-5139,0.094148
12447,4.2034,1.2727,0.05,1.3913e-06,13.903,1.0683e-06,8.0271,-2.7554e-12,1.1795e-05,-1.0683e-06,-8.027,0.098248
12448,4.2034,1,0,0.00050082,5004.7,0.00017819,0.053231,0.00014302,-264.2,-0.00050479,-5131.6,0.097056
12449,4.1121,1.0909,0,0.00050144,5010.9,0.00018008,0.047273,0.00014024,-299.28,-0.00050586,-5153.8,0.093362
12450,4.2034,1.0909,0.05,1.3925e-06,13.916,1.0693e-06,8.0344,-1.0754e-12,2.6563e-05,-1.0693e-06,-8.0343,0.097455
12451,4.2034,0.81818,0,0.00050456,5042.1,0.00017714,0.077837,0.00014826,-216.9,-0.0005079,-5147,0.096123
12452,4.1121,0.90909,0,0.00050523,5048.8,0.000179,0.065713,0.00014561,-250.84,-0.00050903,-5169.5,0.092484
12453,4.2034,0.90909,0.05,1.3917e-06,13.908,1.0687e-06,8.0296,2.3238e-12,3.2555e-06,-1.0687e-06,-8.0296,0.09657
12454,4.2034,0.63636,0,0.00050846,5081.1,0.00017605,0.1006,0.00015368,-168.01,-0.00051111,-5163,0.095093
12455,4.1121,0.72727,0,0.00050921,5088.6,0.00017788,0.10021,0.00015118,-200.51,-0.00051233,-5185.9,0.09151
12456,4.2034,0.72727,0.05,1.3887e-06,13.878,1.0664e-06,8.0124,-1.972e-12,3.3384e-06,-1.0664e-06,-8.0124,0.095589
12457,4.2034,0.45455,0,0.0005125,5121.5,0.00017495,0.21839,0.00015923,-117.92,-0.0005144,-5179.3,0.093962
12458,4.1121,0.54545,0,0.00051335,5129.9,0.00017673,0.11713,0.00015691,-148.79,-0.00051571,-5202.7,0.090437
12459,4.2034,0.54545,0.05,1.3853e-06,13.843,1.0637e-06,7.9925,1.987e-12,5.1705e-05,-1.0637e-06,-7.9924,0.094508
12460,4.2034,0.27273,0,0.00051669,5163.3,0.00017383,0.33129,0.00016491,-66.722,-0.00051779,-5196.2,0.092725
12461,4.1121,0.36364,0,0.00051761,5172.6,0.00017558,0.35888,0.00016275,-95.99,-0.00051917,-5219.7,0.089261
12462,4.2034,0.36364,0.05,1.4051e-06,14.041,1.0789e-06,8.1065,3.7097e-12,1.8339e-05,-1.0789e-06,-8.1065,0.093324
12463,4.1121,0.18182,0,0.00052208,5217.2,0.00017441,0.48077,0.00016874,-42.065,-0.00052277,-5237.8,0.087978
12464,4.2034,0.18182,0.05,1.8615e-06,18.602,1.4294e-06,10.74,-1.803e-12,1.0262e-05,-1.4294e-06,-10.74,0.092034
12465,4.2034,0.090909,0,0.00052027,5199.1,0.00017278,0.27512,0.00016987,-21.612,-0.00052063,-5209.8,0.091381
12466,4.0207,5.7273,0,0.000523,5226.4,0.00017613,0.37152,0.00016662,-71.132,-0.00052417,-5261.4,0.084628
12467,3.9293,5.8182,0,0.0005286,5282.4,0.00017667,0.55819,0.00017072,-44.149,-0.00052933,-5304,0.080061
12468,4.0207,5.8182,0.05,2.006e-06,20.046,1.5403e-06,11.573,-1.7118e-13,-2.4549e-15,-1.5403e-06,-11.573,0.083943
12469,4.0207,5.9091,0,0.00052681,5264.5,0.00017499,0.29855,0.00017194,-22.627,-0.00052718,-5275.6,0.083296
12470,4.0207,5.5455,0,0.00051846,5181,0.00017735,0.2401,0.00016045,-126.78,-0.0005205,-5243.1,0.08585
12471,3.9293,5.6364,0,0.00052375,5233.9,0.00017794,0.3946,0.00016421,-102.77,-0.00052542,-5284.4,0.08133
12472,4.0207,5.6364,0.05,1.4514e-06,14.504,1.1145e-06,8.374,-2.3641e-22,-1.7763e-15,-1.1145e-06,-8.374,0.085219
12473,4.0207,5.3636,0,0.0005141,5137.4,0.00017856,0.11069,0.00015443,-181.22,-0.00051694,-5225.6,0.086966
12474,3.9293,5.4545,0,0.00051915,5187.9,0.0001792,0.12942,0.00015787,-160.11,-0.00052168,-5266,0.082491
12475,4.0207,5.4545,0.05,1.4272e-06,14.262,1.0959e-06,8.2343,-1.6826e-12,-1.7567e-06,-1.0959e-06,-8.2343,0.086388
12476,4.0207,5.1818,0,0.00050989,5095.3,0.00017975,0.085268,0.00014854,-234.39,-0.00051347,-5208.4,0.087981
12477,3.9293,5.2727,0,0.00051469,5143.3,0.00018046,0.10997,0.00015165,-216.33,-0.00051802,-5248,0.083547
12478,4.0207,5.2727,0.05,1.4311e-06,14.301,1.0989e-06,8.257,2.1014e-12,-1.7289e-06,-1.0989e-06,-8.257,0.087454
12479,4.0207,5,0,0.00050585,5055,0.0001809,0.058167,0.00014284,-285.86,-0.00051011,-5191.9,0.088899
12480,3.9293,5.0909,0,0.0005104,5100.4,0.00018169,0.071976,0.0001456,-271.09,-0.00051447,-5230.5,0.084505
12481,4.0207,5.0909,0.05,1.4347e-06,14.337,1.1017e-06,8.2777,-4.0285e-13,1.467e-05,-1.1017e-06,-8.2777,0.08842
12482,4.0207,4.8182,0,0.00050204,5016.9,0.000182,0.040514,0.00013739,-335.11,-0.0005069,-5176.1,0.089722
12483,3.9293,4.9091,0,0.00050632,5059.7,0.00018287,0.05164,0.00013977,-323.82,-0.00051105,-5213.8,0.085366
12484,4.0207,4.9091,0.05,1.4359e-06,14.349,1.1026e-06,8.2847,-1.7661e-12,-3.2755e-06,-1.1026e-06,-8.2847,0.08929
12485,4.0207,4.6364,0,0.00049848,4981.4,0.00018304,0.025969,0.00013225,-381.61,-0.00050387,-5161.2,0.090456
12486,3.9293,4.7273,0,0.00050249,5021.4,0.000184,0.03427,0.00013423,-373.95,-0.0005078,-5197.9,0.086136
12487,4.0207,4.7273,0.05,1.4349e-06,14.339,1.1018e-06,8.2784,-2.1744e-12,-4.56e-06,-1.1018e-06,-8.2784,0.090068
12488,4.0207,4.4545,0,0.00049521,4948.7,0.00018401,0.014347,0.00012747,-424.82,-0.00050107,-5147.4,0.091102
12489,3.9293,4.5455,0,0.00049894,4986,0.00018506,0.020849,0.00012904,-420.93,-0.00050477,-5183.1,0.086818
12490,4.0207,4.5455,0.05,1.4318e-06,14.308,1.0995e-06,8.2609,-1.8336e-12,-1.487e-06,-1.0995e-06,-8.2609,0.090758
12491,4.0207,4.2727,0,0.00049226,4919.2,0.0001849,0.0047842,0.00012311,-464.25,-0.00049851,-5134.8,0.091665
12492,3.9293,4.3636,0,0.00049572,4953.7,0.00018604,0.0098211,0.00012426,-464.2,-0.00050198,-5169.5,0.087415
12493,4.0207,4.3636,0.05,1.4273e-06,14.263,1.096e-06,8.2347,-1.6496e-13,6.7477e-06,-1.096e-06,-8.2346,0.091363
12494,4.0207,4.0909,0,0.00048965,4893.1,0.00018569,-0.0030315,0.00011922,-499.43,-0.00049622,-5123.6,0.092147
12495,3.9293,4.1818,0,0.00049284,4925,0.00018693,0.00084696,0.00011995,-503.26,-0.00049946,-5157.3,0.087931
12496,4.0207,4.1818,0.05,1.4217e-06,14.207,1.0917e-06,8.2026,-4.5055e-13,6.3446e-06,-1.0917e-06,-8.2026,0.091885
12497,4.0207,3.9091,0,0.0004874,4870.6,0.00018638,-0.0093545,0.00011585,-529.95,-0.00049425,-5114,0.09255
12498,3.9293,4,0,0.00049033,4899.9,0.00018771,-0.0064374,0.00011615,-537.65,-0.00049725,-5146.5,0.088367
12499,4.0207,4,0.05,1.4157e-06,14.147,1.0871e-06,8.1679,-1.3608e-12,-3.3902e-06,-1.0871e-06,-8.1678,0.092327
12500,4.0207,3.7273,0,0.00048554,4852.1,0.00018695,-0.014344,0.00011303,-555.44,-0.0004926,-5105.9,0.092877
12501,3.9293,3.8182,0,0.00048821,4878.7,0.00018837,-0.012239,0.00011292,-566.96,-0.00049537,-5137.4,0.088727
12502,4.0207,3.8182,0.05,1.4097e-06,14.087,1.0825e-06,8.1334,-1.1882e-12,-1.8948e-06,-1.0825e-06,-8.1334,0.092692
12503,4.0207,3.5455,0,0.00048408,4837.5,0.00018741,-0.018115,0.0001108,-575.59,-0.0004913,-5099.5,0.093129
12504,3.9293,3.6364,0,0.00048649,4861.6,0.00018892,-0.016714,0.00011028,-590.83,-0.00049384,-5130,0.089013
12505,4.0207,3.6364,0.05,1.4043e-06,14.033,1.0783e-06,8.1021,-8.4196e-13,-1.5214e-06,-1.0783e-06,-8.1021,0.092981
12506,4.0207,3.3636,0,0.00048303,4827,0.00018774,-0.020752,0.00010919,-590.15,-0.00049036,-5094.9,0.093309
12507,3.9293,3.4545,0,0.0004852,4848.7,0.00018933,-0.019975,0.00010828,-608.99,-0.00049268,-5124.4,0.089225
12508,4.0207,3.4545,0.05,1.3998e-06,13.989,1.0749e-06,8.0764,-2.4063e-14,-1.2529e-06,-1.0749e-06,-8.0764,0.093197
12509,4.0207,3.1818,0,0.0004824,4820.7,0.00018793,-0.022312,0.00010822,-598.96,-0.00048979,-5092.2,0.093416
12510,3.9293,3.2727,0,0.00048433,4840,0.00018961,-0.022105,0.00010693,-621.21,-0.0004919,-5120.6,0.089366
12511,4.0207,3.2727,0.05,1.3967e-06,13.957,1.0725e-06,8.0582,-1.8678e-12,2.1149e-07,-1.0725e-06,-8.058,0.09334
12512,4.0207,3,0,0.00048219,4818.5,0.000188,-0.022829,0.00010789,-601.91,-0.0004896,-5091.2,0.093452
12513,3.9293,3.0909,0,0.0004839,4835.6,0.00018975,-0.023158,0.00010626,-627.36,-0.00049151,-5118.7,0.089437
12514,4.0207,3.0909,0.05,1.395e-06,13.941,1.0712e-06,8.0486,-2.7635e-12,-2.7834e-07,-1.0712e-06,-8.0486,0.093412
12515,4.0207,2.8182,0,0.0004824,4820.7,0.00018793,-0.022312,0.00010822,-598.96,-0.00048979,-5092.2,0.093416
12516,3.9293,2.9091,0,0.0004839,4835.6,0.00018975,-0.023158,0.00010626,-627.36,-0.00049151,-5118.7,0.089437
12517,4.0207,2.9091,0.05,1.395e-06,13.941,1.0712e-06,8.0486,-2.6886e-12,2.8548e-07,-1.0712e-06,-8.0486,0.093412
12518,4.0207,2.6364,0,0.00048303,4827,0.00018774,-0.020752,0.00010919,-590.15,-0.00049036,-5094.9,0.093309
12519,3.9293,2.7273,0,0.00048433,4840,0.00018961,-0.022105,0.00010693,-621.21,-0.0004919,-5120.6,0.089366
12520,4.0207,2.7273,0.05,1.3967e-06,13.957,1.0725e-06,8.0582,-1.6248e-12,-5.7433e-06,-1.0725e-06,-8.058,0.09334
12521,4.0207,2.4545,0,0.00048408,4837.5,0.00018741,-0.018115,0.0001108,-575.59,-0.0004913,-5099.5,0.093129
12522,3.9293,2.5455,0,0.0004852,4848.7,0.00018933,-0.019975,0.00010828,-608.99,-0.00049268,-5124.4,0.089225
12523,4.0207,2.5455,0.05,1.3998e-06,13.989,1.0749e-06,8.0764,3.4102e-13,1.3921e-06,-1.0749e-06,-8.0764,0.093197
12524,4.0207,2.2727,0,0.00048554,4852.1,0.00018695,-0.014344,0.00011303,-555.44,-0.0004926,-5105.9,0.092877
12525,3.9293,2.3636,0,0.00048649,4861.6,0.00018892,-0.016714,0.00011028,-590.83,-0.00049384,-5130,0.089013
12526,4.0207,2.3636,0.05,1.4043e-06,14.033,1.0783e-06,8.1021,-1.215e-12,4.0534e-06,-1.0783e-06,-8.1021,0.092981
12527,4.0207,2.0909,0,0.0004874,4870.6,0.00018638,-0.0093542,0.00011585,-529.95,-0.00049425,-5114,0.09255
12528,3.9293,2.1818,0,0.00048821,4878.7,0.00018837,-0.012239,0.00011292,-566.96,-0.00049537,-5137.4,0.088727
12529,4.0207,2.1818,0.05,1.4097e-06,14.087,1.0825e-06,8.1334,-9.3599e-13,1.8948e-06,-1.0825e-06,-8.1334,0.092692
12530,4.0207,1.9091,0,0.00048965,4893.1,0.00018569,-0.003031,0.00011922,-499.43,-0.00049622,-5123.6,0.092147
12531,3.9293,2,0,0.00049033,4899.9,0.00018771,-0.006437,0.00011615,-537.65,-0.00049725,-5146.5,0.088367
12532,4.0207,2,0.05,1.4157e-06,14.147,1.0871e-06,8.1679,-8.3513e-13,9.649e-06,-1.0871e-06,-8.1678,0.092327
12533,4.0207,1.7273,0,0.00049226,4919.2,0.0001849,0.0047847,0.00012311,-464.25,-0.00049851,-5134.8,0.091665
12534,3.9293,1.8182,0,0.00049284,4925,0.00018693,0.00084737,0.00011995,-503.26,-0.00049946,-5157.3,0.087931
12535,4.0207,1.8182,0.05,1.4217e-06,14.207,1.0917e-06,8.2026,-5.3566e-13,1.6469e-05,-1.0917e-06,-8.2025,0.091885
12536,4.0207,1.5455,0,0.00049521,4948.7,0.00018401,0.014348,0.00012747,-424.82,-0.00050107,-5147.4,0.091102
12537,3.9293,1.6364,0,0.00049572,4953.7,0.00018604,0.0098216,0.00012426,-464.2,-0.00050198,-5169.5,0.087415
12538,4.0207,1.6364,0.05,1.4273e-06,14.263,1.096e-06,8.2347,2.7635e-12,2.993e-05,-1.096e-06,-8.2346,0.091363
12539,4.0207,1.3636,0,0.00049848,4981.4,0.00018304,0.025969,0.00013225,-381.61,-0.00050387,-5161.2,0.090456
12540,3.9293,1.4545,0,0.00049894,4986,0.00018506,0.020849,0.00012904,-420.93,-0.00050477,-5183.1,0.086818
12541,4.0207,1.4545,0.05,1.4318e-06,14.308,1.0995e-06,8.2609,-4.2599e-12,8.1768e-06,-1.0995e-06,-8.2609,0.090758
12542,4.0207,1.1818,0,0.00050204,5016.9,0.000182,0.040515,0.00013739,-335.11,-0.0005069,-5176.1,0.089722
12543,3.9293,1.2727,0,0.00050249,5021.4,0.000184,0.034271,0.00013423,-373.95,-0.0005078,-5197.9,0.086136
12544,4.0207,1.2727,0.05,1.4349e-06,14.339,1.1018e-06,8.2784,-2.6632e-12,1.6353e-05,-1.1018e-06,-8.2784,0.090068
12545,4.0207,1,0,0.00050585,5055,0.0001809,0.058168,0.00014284,-285.86,-0.00051011,-5191.9,0.088899
12546,3.9293,1.0909,0,0.00050632,5059.7,0.00018287,0.051641,0.00013977,-323.82,-0.00051105,-5213.8,0.085366
12547,4.0207,1.0909,0.05,1.4359e-06,14.349,1.1026e-06,8.2847,-9.8517e-13,2.8505e-05,-1.1026e-06,-8.2846,0.08929
12548,4.0207,0.81818,0,0.00050989,5095.3,0.00017975,0.085269,0.00014854,-234.39,-0.00051347,-5208.4,0.087981
12549,3.9293,0.90909,0,0.0005104,5100.4,0.00018169,0.071977,0.0001456,-271.09,-0.00051447,-5230.5,0.084505
12550,4.0207,0.90909,0.05,1.4347e-06,14.337,1.1017e-06,8.2777,2.9718e-12,3.4409e-05,-1.1017e-06,-8.2777,0.08842
12551,4.0207,0.63636,0,0.0005141,5137.4,0.00017856,0.11069,0.00015443,-181.22,-0.00051694,-5225.6,0.086966
12552,3.9293,0.72727,0,0.00051469,5143.3,0.00018046,0.10997,0.00015165,-216.33,-0.00051802,-5248,0.083547
12553,4.0207,0.72727,0.05,1.4311e-06,14.301,1.0989e-06,8.257,1.324e-13,1.9357e-05,-1.0989e-06,-8.2569,0.087454
12554,4.0207,0.45455,0,0.00051846,5181,0.00017735,0.2401,0.00016045,-126.78,-0.0005205,-5243.1,0.08585
12555,3.9293,0.54545,0,0.00051915,5187.9,0.0001792,0.12942,0.00015787,-160.11,-0.00052168,-5266,0.082491
12556,4.0207,0.54545,0.05,1.4272e-06,14.262,1.0959e-06,8.2344,3.1781e-12,2.2144e-05,-1.0959e-06,-8.2343,0.086388
12557,4.0207,0.27273,0,0.000523,5226.4,0.00017613,0.37152,0.00016662,-71.132,-0.00052417,-5261.4,0.084628
12558,3.9293,0.36364,0,0.00052375,5233.9,0.00017794,0.3946,0.00016421,-102.77,-0.00052542,-5284.4,0.08133
12559,4.0207,0.36364,0.05,1.4514e-06,14.504,1.1145e-06,8.374,5.3328e-12,-1.7763e-15,-1.1145e-06,-8.374,0.085219
12560,3.9293,0.18182,0,0.0005286,5282.4,0.00017667,0.55819,0.00017072,-44.149,-0.00052933,-5304,0.080061
12561,4.0207,0.18182,0.05,2.006e-06,20.046,1.5403e-06,11.574,2.2227e-12,1.0827e-05,-1.5403e-06,-11.573,0.083943
12562,4.0207,0.090909,0,0.00052681,5264.5,0.00017499,0.29855,0.00017194,-22.627,-0.00052718,-5275.6,0.083296
12563,3.8379,5.7273,0,0.00052935,5289.9,0.00017845,0.41759,0.00016834,-75.548,-0.00053059,-5327.1,0.076879
12564,3.7466,5.8182,0,0.00053518,5348.1,0.00017894,0.65209,0.00017273,-46.031,-0.00053594,-5370.7,0.072498
12565,3.8379,5.8182,0.05,2.1604e-06,21.589,1.6589e-06,12.464,-3.5188e-22,-1.4452e-06,-1.6589e-06,-12.464,0.076202
12566,3.8379,5.9091,0,0.00053339,5330.2,0.00017721,0.32461,0.00017404,-23.498,-0.00053378,-5341.8,0.075563
12567,3.8379,5.5455,0,0.00052444,5240.8,0.00017978,0.26409,0.00016164,-136.02,-0.00052662,-5307.3,0.078085
12568,3.7466,5.6364,0,0.00052992,5295.6,0.00018032,0.43409,0.00016565,-109.74,-0.0005317,-5349.4,0.073749
12569,3.8379,5.6364,0.05,1.5016e-06,15.005,1.153e-06,8.6633,-2.4457e-22,-3.5991e-06,-1.153e-06,-8.6633,0.077463
12570,3.8379,5.3636,0,0.00051973,5193.7,0.0001811,0.12193,0.00015511,-195.16,-0.00052278,-5288.5,0.079184
12571,3.7466,5.4545,0,0.00052495,5245.9,0.0001817,0.14318,0.00015878,-172,-0.00052766,-5329.7,0.074891
12572,3.8379,5.4545,0.05,1.4732e-06,14.722,1.1312e-06,8.4996,-2.3995e-22,1.259e-06,-1.1312e-06,-8.4996,0.078615
12573,3.8379,5.1818,0,0.0005152,5148.4,0.0001824,0.093533,0.00014872,-252.97,-0.00051903,-5270.2,0.080181
12574,3.7466,5.2727,0,0.00052015,5197.9,0.00018308,0.12079,0.00015203,-233.11,-0.00052372,-5310.4,0.07593
12575,3.8379,5.2727,0.05,1.4779e-06,14.769,1.1348e-06,8.5267,-2.125e-13,-1.8086e-15,-1.1348e-06,-8.5267,0.079663
12576,3.8379,5,0,0.00051086,5105.1,0.00018366,0.063683,0.00014253,-308.99,-0.00051541,-5252.5,0.081081
12577,3.7466,5.0909,0,0.00051553,5151.7,0.00018442,0.078944,0.00014546,-292.69,-0.00051988,-5291.8,0.076868
12578,3.8379,5.0909,0.05,1.4823e-06,14.813,1.1382e-06,8.5524,-2.0823e-13,1.6514e-05,-1.1382e-06,-8.5523,0.080611
12579,3.8379,4.8182,0,0.00050676,5064.1,0.00018487,0.044272,0.00013661,-362.61,-0.00051195,-5235.7,0.081888
12580,3.7466,4.9091,0,0.00051115,5108,0.00018573,0.056509,0.00013913,-350.09,-0.0005162,-5274,0.077712
12581,3.8379,4.9091,0.05,1.4841e-06,14.831,1.1396e-06,8.5626,-6.0721e-13,-5.0936e-06,-1.1396e-06,-8.5626,0.081464
12582,3.8379,4.6364,0,0.00050295,5026,0.00018602,0.028368,0.00013102,-413.23,-0.0005087,-5219.8,0.082605
12583,3.7466,4.7273,0,0.00050705,5067,0.00018697,0.037469,0.00013311,-404.68,-0.00051271,-5257.1,0.078464
12584,3.8379,4.7273,0.05,1.4833e-06,14.823,1.139e-06,8.558,-1.9471e-13,-3.2666e-06,-1.139e-06,-8.558,0.082226
12585,3.8379,4.4545,0,0.00049945,4991,0.00018709,0.01574,0.00012583,-460.28,-0.00050568,-5205.2,0.083236
12586,3.7466,4.5455,0,0.00050326,5029.1,0.00018814,0.022841,0.00012747,-455.83,-0.00050946,-5241.5,0.079129
12587,3.8379,4.5455,0.05,1.4803e-06,14.793,1.1367e-06,8.5409,-3.6963e-13,-6.1191e-06,-1.1367e-06,-8.5409,0.0829
12588,3.8379,4.2727,0,0.00049629,4959.5,0.00018807,0.0054246,0.0001211,-503.21,-0.00050294,-5191.9,0.083785
12589,3.7466,4.3636,0,0.00049981,4994.7,0.00018922,0.010912,0.00012229,-502.94,-0.00050647,-5227.1,0.07971
12590,3.8379,4.3636,0.05,1.4757e-06,14.747,1.1332e-06,8.5142,1.0942e-12,7.7321e-06,-1.1332e-06,-8.5142,0.083489
12591,3.8379,4.0909,0,0.00049351,4931.7,0.00018894,-0.0029372,0.00011688,-541.49,-0.00050049,-5180.1,0.084254
12592,3.7466,4.1818,0,0.00049675,4964.1,0.0001902,0.0012879,0.00011761,-545.45,-0.00050378,-5214.3,0.080211
12593,3.8379,4.1818,0.05,1.47e-06,14.69,1.1288e-06,8.4812,-1.5734e-13,-1.799e-15,-1.1288e-06,-8.4812,0.083998
12594,3.8379,3.9091,0,0.00049113,4907.9,0.0001897,-0.0096455,0.00011322,-574.68,-0.00049838,-5170,0.084646
12595,3.7466,4,0,0.00049409,4937.5,0.00019107,-0.0064527,0.00011349,-582.85,-0.00050142,-5203,0.080635
12596,3.8379,4,0.05,1.4638e-06,14.628,1.124e-06,8.4454,-1.9068e-12,-1.3656e-05,-1.124e-06,-8.4454,0.084428
12597,3.8379,3.7273,0,0.00048916,4888.2,0.00019034,-0.014896,0.00011017,-602.39,-0.00049661,-5161.5,0.084964
12598,3.7466,3.8182,0,0.00049185,4915.1,0.0001918,-0.012561,0.00010999,-614.7,-0.00049941,-5193.5,0.080984
12599,3.8379,3.8182,0.05,1.4576e-06,14.566,1.1193e-06,8.4099,-1.982e-12,-2.4902e-06,-1.1193e-06,-8.4099,0.084783
12600,3.8379,3.5455,0,0.00048761,4872.8,0.00019084,-0.018835,0.00010776,-624.28,-0.00049522,-5154.8,0.085209
12601,3.7466,3.6364,0,0.00049004,4897,0.0001924,-0.017231,0.00010714,-640.64,-0.00049778,-5185.8,0.081261
12602,3.8379,3.6364,0.05,1.4521e-06,14.511,1.115e-06,8.3778,-1.1061e-12,-2.0019e-06,-1.115e-06,-8.3778,0.085064
12603,3.8379,3.3636,0,0.0004865,4861.7,0.0001912,-0.021573,0.00010601,-640.1,-0.00049422,-5150,0.085383
12604,3.7466,3.4545,0,0.00048867,4883.4,0.00019286,-0.020609,0.00010498,-660.35,-0.00049655,-5180,0.081467
12605,3.8379,3.4545,0.05,1.4475e-06,14.465,1.1115e-06,8.3515,-9.2089e-13,-1.32e-06,-1.1115e-06,-8.3515,0.085273
12606,3.8379,3.1818,0,0.00048583,4855,0.00019142,-0.023186,0.00010496,-649.67,-0.00049361,-5147.1,0.085487
12607,3.7466,3.2727,0,0.00048776,4874.2,0.00019317,-0.022802,0.00010352,-673.62,-0.00049572,-5176,0.081603
12608,3.8379,3.2727,0.05,1.4443e-06,14.433,1.109e-06,8.3329,-1.0188e-12,-2.6303e-07,-1.109e-06,-8.3328,0.085412
12609,3.8379,3,0,0.00048561,4852.8,0.0001915,-0.023719,0.00010461,-652.87,-0.00049341,-5146.2,0.085521
12610,3.7466,3.0909,0,0.0004873,4869.7,0.00019332,-0.023882,0.00010279,-680.29,-0.0004953,-5174.1,0.081671
12611,3.8379,3.0909,0.05,1.4426e-06,14.416,1.1078e-06,8.3233,-9.4806e-13,-2.1758e-07,-1.1078e-06,-8.3232,0.085481
12612,3.8379,2.8182,0,0.00048583,4855,0.00019142,-0.023186,0.00010496,-649.67,-0.00049361,-5147.1,0.085487
12613,3.7466,2.9091,0,0.0004873,4869.7,0.00019332,-0.023882,0.00010279,-680.29,-0.0004953,-5174.1,0.081671
12614,3.8379,2.9091,0.05,1.4426e-06,14.416,1.1078e-06,8.3233,-8.6006e-13,3.619e-07,-1.1077e-06,-8.3232,0.085481
12615,3.8379,2.6364,0,0.0004865,4861.7,0.0001912,-0.021573,0.00010601,-640.1,-0.00049422,-5150,0.085383
12616,3.7466,2.7273,0,0.00048776,4874.2,0.00019317,-0.022802,0.00010352,-673.62,-0.00049572,-5176,0.081603
12617,3.8379,2.7273,0.05,1.4443e-06,14.433,1.109e-06,8.3329,-7.8401e-13,1.438e-06,-1.109e-06,-8.3328,0.085412
12618,3.8379,2.4545,0,0.00048761,4872.8,0.00019084,-0.018835,0.00010776,-624.28,-0.00049522,-5154.8,0.085209
12619,3.7466,2.5455,0,0.00048867,4883.4,0.00019286,-0.020608,0.00010498,-660.35,-0.00049655,-5180,0.081467
12620,3.8379,2.5455,0.05,1.4475e-06,14.465,1.1115e-06,8.3515,-5.3624e-13,1.6133e-06,-1.1115e-06,-8.3515,0.085273
12621,3.8379,2.2727,0,0.00048916,4888.2,0.00019034,-0.014895,0.00011017,-602.39,-0.00049661,-5161.5,0.084964
12622,3.7466,2.3636,0,0.00049004,4897,0.0001924,-0.017231,0.00010714,-640.64,-0.00049778,-5185.8,0.081261
12623,3.8379,2.3636,0.05,1.4521e-06,14.511,1.115e-06,8.3778,-2.3638e-12,2.0019e-06,-1.115e-06,-8.3778,0.085064
12624,3.8379,2.0909,0,0.00049113,4907.9,0.0001897,-0.0096451,0.00011322,-574.68,-0.00049838,-5170,0.084646
12625,3.7466,2.1818,0,0.00049185,4915.1,0.0001918,-0.01256,0.00010999,-614.7,-0.00049941,-5193.5,0.080984
12626,3.8379,2.1818,0.05,1.4576e-06,14.566,1.1193e-06,8.4099,-2.2308e-12,2.4902e-06,-1.1193e-06,-8.4099,0.084783
12627,3.8379,1.9091,0,0.00049351,4931.7,0.00018894,-0.0029368,0.00011688,-541.49,-0.00050049,-5180.1,0.084254
12628,3.7466,2,0,0.00049409,4937.5,0.00019107,-0.0064522,0.00011349,-582.85,-0.00050142,-5203,0.080635
12629,3.8379,2,0.05,1.4638e-06,14.628,1.124e-06,8.4454,-2.0235e-12,1.2824e-05,-1.124e-06,-8.4453,0.084428
12630,3.8379,1.7273,0,0.00049629,4959.5,0.00018807,0.0054251,0.0001211,-503.21,-0.00050294,-5191.9,0.083785
12631,3.7466,1.8182,0,0.00049675,4964.1,0.0001902,0.0012883,0.00011761,-545.45,-0.00050378,-5214.3,0.080211
12632,3.8379,1.8182,0.05,1.47e-06,14.69,1.1288e-06,8.4812,-1.2514e-12,-1.799e-15,-1.1288e-06,-8.4812,0.083998
12633,3.8379,1.5455,0,0.00049945,4991,0.00018709,0.01574,0.00012583,-460.28,-0.00050568,-5205.2,0.083236
12634,3.7466,1.6364,0,0.00049981,4994.7,0.00018922,0.010913,0.00012229,-502.94,-0.00050647,-5227.1,0.07971
12635,3.8379,1.6364,0.05,1.4757e-06,14.747,1.1332e-06,8.5142,-1.5656e-12,2.4143e-05,-1.1332e-06,-8.5141,0.083489
12636,3.8379,1.3636,0,0.00050295,5026,0.00018602,0.028369,0.00013102,-413.23,-0.0005087,-5219.8,0.082605
12637,3.7466,1.4545,0,0.00050326,5029.1,0.00018814,0.022841,0.00012747,-455.83,-0.00050946,-5241.5,0.079129
12638,3.8379,1.4545,0.05,1.4803e-06,14.793,1.1367e-06,8.5409,-1.0697e-12,3.1006e-06,-1.1367e-06,-8.5409,0.0829
12639,3.8379,1.1818,0,0.00050676,5064.1,0.00018487,0.044273,0.00013661,-362.61,-0.00051195,-5235.7,0.081888
12640,3.7466,1.2727,0,0.00050705,5067,0.00018697,0.037469,0.00013311,-404.68,-0.00051271,-5257.1,0.078464
12641,3.8379,1.2727,0.05,1.4833e-06,14.823,1.139e-06,8.558,2.1486e-12,3.2666e-06,-1.139e-06,-8.558,0.082226
12642,3.8379,1,0,0.00051086,5105.1,0.00018366,0.063684,0.00014253,-308.99,-0.00051541,-5252.5,0.081081
12643,3.7466,1.0909,0,0.00051115,5108,0.00018573,0.05651,0.00013913,-350.09,-0.0005162,-5274,0.077712
12644,3.8379,1.0909,0.05,1.4841e-06,14.831,1.1396e-06,8.5626,-1.1215e-12,5.0936e-06,-1.1396e-06,-8.5626,0.081464
12645,3.8379,0.81818,0,0.0005152,5148.4,0.0001824,0.093534,0.00014872,-252.97,-0.00051903,-5270.2,0.080181
12646,3.7466,0.90909,0,0.00051553,5151.7,0.00018442,0.078945,0.00014546,-292.69,-0.00051988,-5291.8,0.076868
12647,3.8379,0.90909,0.05,1.4823e-06,14.813,1.1382e-06,8.5524,-1.0665e-12,2.0008e-05,-1.1382e-06,-8.5523,0.080611
12648,3.8379,0.63636,0,0.00051973,5193.7,0.0001811,0.12193,0.00015511,-195.16,-0.00052278,-5288.5,0.079184
12649,3.7466,0.72727,0,0.00052015,5197.9,0.00018308,0.12079,0.00015203,-233.11,-0.00052372,-5310.4,0.07593
12650,3.8379,0.72727,0.05,1.4779e-06,14.769,1.1348e-06,8.5267,-1.2331e-12,4.2887e-05,-1.1348e-06,-8.5266,0.079663
12651,3.8379,0.45455,0,0.00052444,5240.8,0.00017978,0.26409,0.00016164,-136.02,-0.00052662,-5307.3,0.078085
12652,3.7466,0.54545,0,0.00052495,5245.9,0.0001817,0.14318,0.00015878,-172,-0.00052766,-5329.7,0.074891
12653,3.8379,0.54545,0.05,1.4732e-06,14.722,1.1312e-06,8.4996,1.488e-12,-1.8029e-15,-1.1312e-06,-8.4996,0.078615
12654,3.8379,0.27273,0,0.00052935,5289.9,0.00017845,0.41759,0.00016834,-75.548,-0.00053059,-5327.1,0.076879
12655,3.7466,0.36364,0,0.00052992,5295.6,0.00018032,0.4341,0.00016565,-109.74,-0.0005317,-5349.4,0.073749
12656,3.8379,0.36364,0.05,1.5016e-06,15.005,1.153e-06,8.6633,1.0594e-14,2.0404e-05,-1.153e-06,-8.6633,0.077463
12657,3.7466,0.18182,0,0.00053518,5348.1,0.00017894,0.65209,0.00017273,-46.031,-0.00053594,-5370.7,0.072498
12658,3.8379,0.18182,0.05,2.1604e-06,21.589,1.6589e-06,12.464,-2.3916e-13,3.22e-05,-1.6589e-06,-12.464,0.076202
12659,3.8379,0.090909,0,0.00053339,5330.2,0.00017721,0.32461,0.00017404,-23.498,-0.00053378,-5341.7,0.075563
12660,3.6552,5.7273,0,0.00053575,5353.8,0.00018078,0.4706,0.00017008,-79.938,-0.00053705,-5393.1,0.069485
12661,3.5638,5.8182,0,0.00054182,5414.4,0.00018122,0.76703,0.00017477,-47.656,-0.0005426,-5437.7,0.065292
12662,3.6552,5.8182,0.05,2.3248e-06,23.232,1.7851e-06,13.413,-3.7866e-22,-2.8451e-15,-1.7851e-06,-13.413,0.068817
12663,3.6552,5.9091,0,0.00054,5396.3,0.00017943,0.3538,0.00017616,-24.189,-0.0005404,-5408.2,0.068187
12664,3.6552,5.5455,0,0.00053043,5300.6,0.00018223,0.29064,0.00016281,-145.63,-0.00053275,-5371.8,0.070671
12665,3.5638,5.6364,0,0.0005361,5357.3,0.00018271,0.4779,0.00016709,-116.89,-0.00053799,-5414.6,0.066523
12666,3.6552,5.6364,0.05,1.5556e-06,15.546,1.1945e-06,8.9752,-4.3872e-13,-1.9038e-15,-1.1945e-06,-8.9752,0.070058
12667,3.6552,5.3636,0,0.00052536,5250,0.00018367,0.13444,0.00015572,-209.88,-0.00052861,-5351.7,0.07175
12668,3.5638,5.4545,0,0.00053075,5303.8,0.00018422,0.15859,0.00015964,-184.49,-0.00053364,-5393.6,0.067644
12669,3.6552,5.4545,0.05,1.5235e-06,15.225,1.1699e-06,8.7901,-2.4815e-22,1.1876e-06,-1.1699e-06,-8.7901,0.071191
12670,3.6552,5.1818,0,0.00052048,5201.2,0.0001851,0.10269,0.00014878,-272.75,-0.00052458,-5332.1,0.072728
12671,3.5638,5.2727,0,0.00052558,5252.1,0.00018573,0.13278,0.00015232,-250.92,-0.00052939,-5373,0.068661
12672,3.6552,5.2727,0.05,1.5294e-06,15.284,1.1744e-06,8.8241,-2.4911e-22,-1.829e-06,-1.1744e-06,-8.8241,0.072219
12673,3.6552,5,0,0.00051582,5154.6,0.00018649,0.069801,0.00014206,-333.72,-0.00052068,-5313.4,0.073608
12674,3.5638,5.0909,0,0.00052062,5202.6,0.00018721,0.08667,0.00014518,-315.75,-0.00052527,-5353.3,0.069578
12675,3.6552,5.0909,0.05,1.5351e-06,15.34,1.1787e-06,8.8565,-2.5003e-22,-1.7977e-06,-1.1787e-06,-8.8565,0.073147
12676,3.6552,4.8182,0,0.00051143,5110.8,0.00018783,0.048454,0.00013563,-392.1,-0.00051697,-5295.5,0.074395
12677,3.5638,4.9091,0,0.00051593,5155.7,0.00018865,0.061906,0.0001383,-378.25,-0.00052132,-5334.4,0.070401
12678,3.6552,4.9091,0.05,1.5376e-06,15.365,1.1807e-06,8.8713,-4.1799e-13,-5.2595e-06,-1.1807e-06,-8.8713,0.073981
12679,3.6552,4.6364,0,0.00050735,5070,0.00018909,0.031071,0.00012957,-447.23,-0.00051348,-5278.8,0.075094
12680,3.5638,4.7273,0,0.00051154,5111.9,0.00019003,0.041035,0.00013177,-437.7,-0.00051758,-5316.6,0.071133
12681,3.6552,4.7273,0.05,1.5372e-06,15.362,1.1804e-06,8.8692,-1.7326e-12,1.1358e-05,-1.1804e-06,-8.8692,0.074724
12682,3.6552,4.4545,0,0.00050362,5032.7,0.00019027,0.017365,0.00012393,-498.46,-0.00051024,-5263.4,0.075708
12683,3.5638,4.5455,0,0.0005075,5071.5,0.00019132,0.025107,0.00012565,-493.4,-0.00051409,-5300.2,0.071779
12684,3.6552,4.5455,0.05,1.5344e-06,15.334,1.1783e-06,8.8531,-1.7804e-12,1.0964e-05,-1.1783e-06,-8.853,0.075379
12685,3.6552,4.2727,0,0.00050027,4999.2,0.00019136,0.006265,0.0001188,-545.18,-0.00050731,-5249.5,0.07624
12686,3.5638,4.3636,0,0.00050385,5035,0.00019252,0.012232,0.00012003,-544.68,-0.0005109,-5285.2,0.072343
12687,3.6552,4.3636,0.05,1.5298e-06,15.288,1.1747e-06,8.8263,-1.2725e-12,1.0318e-05,-1.1747e-06,-8.8262,0.075952
12688,3.6552,4.0909,0,0.00049732,4969.8,0.00019232,-0.0026473,0.00011422,-586.82,-0.0005047,-5237.2,0.076695
12689,3.5638,4.1818,0,0.00050061,5002.6,0.0001936,0.0019486,0.00011496,-590.92,-0.00050803,-5271.8,0.072828
12690,3.6552,4.1818,0.05,1.524e-06,15.229,1.1702e-06,8.7927,-3.2885e-13,3.9219e-06,-1.1702e-06,-8.7927,0.076446
12691,3.6552,3.9091,0,0.0004948,4944.6,0.00019316,-0.0097263,0.00011026,-622.9,-0.00050245,-5226.6,0.077075
12692,3.5638,4,0,0.0004978,4974.5,0.00019456,-0.0062312,0.0001105,-631.57,-0.00050552,-5260.2,0.073237
12693,3.6552,4,0.05,1.5176e-06,15.166,1.1654e-06,8.7561,-1.4602e-13,-1.2249e-06,-1.1654e-06,-8.7561,0.076863
12694,3.6552,3.7273,0,0.00049272,4923.8,0.00019387,-0.015212,0.00010696,-653,-0.00050057,-5217.8,0.077382
12695,3.5638,3.8182,0,0.00049544,4951,0.00019538,-0.012614,0.00010672,-666.17,-0.0005034,-5250.3,0.073574
12696,3.6552,3.8182,0.05,1.5114e-06,15.103,1.1606e-06,8.7201,-4.8985e-13,1.287e-05,-1.1606e-06,-8.7199,0.077206
12697,3.6552,3.5455,0,0.0004911,4907.6,0.00019442,-0.019292,0.00010435,-676.77,-0.0004991,-5210.9,0.077619
12698,3.5638,3.6364,0,0.00049354,4932,0.00019604,-0.017442,0.00010364,-694.31,-0.00050167,-5242.4,0.073841
12699,3.6552,3.6364,0.05,1.5057e-06,15.047,1.1562e-06,8.6875,-1.9764e-12,-5.7936e-06,-1.1562e-06,-8.6874,0.077478
12700,3.6552,3.3636,0,0.00048993,4895.9,0.00019483,-0.022107,0.00010247,-693.94,-0.00049803,-5205.9,0.077787
12701,3.5638,3.4545,0,0.00049211,4917.7,0.00019655,-0.020902,0.0001013,-715.69,-0.00050036,-5236.4,0.074039
12702,3.6552,3.4545,0.05,1.5011e-06,15.001,1.1527e-06,8.6609,-1.9539e-12,-1.2334e-06,-1.1527e-06,-8.6609,0.07768
12703,3.6552,3.1818,0,0.00048923,4888.9,0.00019507,-0.023757,0.00010133,-704.32,-0.00049739,-5202.9,0.077887
12704,3.5638,3.2727,0,0.00049116,4908.2,0.00019689,-0.023132,9.9731e-05,-730.07,-0.00049949,-5232.4,0.074171
12705,3.6552,3.2727,0.05,1.4979e-06,14.969,1.1502e-06,8.6422,-9.5238e-13,-8.4745e-07,-1.1502e-06,-8.6422,0.077814
12706,3.6552,3,0,0.000489,4886.6,0.00019515,-0.0243,0.00010095,-707.79,-0.00049717,-5201.9,0.077921
12707,3.5638,3.0909,0,0.00049068,4903.4,0.00019707,-0.024225,9.8941e-05,-737.3,-0.00049905,-5230.3,0.074236
12708,3.6552,3.0909,0.05,1.4962e-06,14.952,1.1489e-06,8.6325,-9.5191e-13,-2.4931e-07,-1.1489e-06,-8.6325,0.077881
12709,3.6552,2.8182,0,0.00048923,4888.9,0.00019507,-0.023757,0.00010133,-704.32,-0.00049739,-5202.9,0.077887
12710,3.5638,2.9091,0,0.00049068,4903.4,0.00019707,-0.024225,9.8941e-05,-737.3,-0.00049905,-5230.3,0.074236
12711,3.6552,2.9091,0.05,1.4962e-06,14.952,1.1489e-06,8.6325,-8.6508e-13,3.8407e-07,-1.1489e-06,-8.6325,0.077881
12712,3.6552,2.6364,0,0.00048993,4895.9,0.00019483,-0.022107,0.00010247,-693.94,-0.00049803,-5205.9,0.077787
12713,3.5638,2.7273,0,0.00049116,4908.2,0.00019689,-0.023132,9.9731e-05,-730.07,-0.00049949,-5232.4,0.074171
12714,3.6552,2.7273,0.05,1.4979e-06,14.969,1.1502e-06,8.6422,-7.0543e-13,1.5425e-06,-1.1502e-06,-8.6421,0.077814
12715,3.6552,2.4545,0,0.0004911,4907.6,0.00019442,-0.019292,0.00010435,-676.77,-0.0004991,-5210.9,0.077619
12716,3.5638,2.5455,0,0.00049211,4917.7,0.00019655,-0.020902,0.0001013,-715.69,-0.00050036,-5236.4,0.074039
12717,3.6552,2.5455,0.05,1.5011e-06,15.001,1.1527e-06,8.6609,-1.5863e-12,4.8202e-06,-1.1527e-06,-8.6608,0.07768
12718,3.6552,2.2727,0,0.00049272,4923.8,0.00019387,-0.015212,0.00010696,-653,-0.00050057,-5217.8,0.077382
12719,3.5638,2.3636,0,0.00049354,4932,0.00019604,-0.017442,0.00010364,-694.31,-0.00050167,-5242.4,0.073841
12720,3.6552,2.3636,0.05,1.5057e-06,15.047,1.1562e-06,8.6875,-1.5253e-12,4.809e-06,-1.1562e-06,-8.6874,0.077478
12721,3.6552,2.0909,0,0.0004948,4944.6,0.00019316,-0.0097259,0.00011026,-622.9,-0.00050245,-5226.6,0.077075
12722,3.5638,2.1818,0,0.00049544,4951,0.00019538,-0.012613,0.00010672,-666.17,-0.0005034,-5250.3,0.073574
12723,3.6552,2.1818,0.05,1.5114e-06,15.103,1.1606e-06,8.7201,-1.9027e-12,1.705e-05,-1.1606e-06,-8.7199,0.077206
12724,3.6552,1.9091,0,0.00049732,4969.8,0.00019232,-0.0026469,0.00011422,-586.82,-0.0005047,-5237.2,0.076695
12725,3.5638,2,0,0.0004978,4974.5,0.00019456,-0.0062308,0.0001105,-631.57,-0.00050552,-5260.2,0.073237
12726,3.6552,2,0.05,1.5176e-06,15.166,1.1654e-06,8.7561,1.9204e-13,1.2249e-06,-1.1654e-06,-8.7561,0.076863
12727,3.6552,1.7273,0,0.00050027,4999.2,0.00019136,0.0062654,0.0001188,-545.18,-0.00050731,-5249.5,0.07624
12728,3.5638,1.8182,0,0.00050061,5002.6,0.0001936,0.0019491,0.00011496,-590.92,-0.00050803,-5271.8,0.072828
12729,3.6552,1.8182,0.05,1.524e-06,15.229,1.1702e-06,8.7927,-4.4e-13,1.3577e-05,-1.1702e-06,-8.7927,0.076446
12730,3.6552,1.5455,0,0.00050362,5032.7,0.00019027,0.017365,0.00012393,-498.46,-0.00051024,-5263.4,0.075708
12731,3.5638,1.6364,0,0.00050385,5035,0.00019252,0.012232,0.00012003,-544.68,-0.0005109,-5285.2,0.072343
12732,3.6552,1.6364,0.05,1.5298e-06,15.288,1.1747e-06,8.8263,-1.1071e-12,1.4841e-05,-1.1747e-06,-8.8262,0.075952
12733,3.6552,1.3636,0,0.00050735,5070,0.00018909,0.031071,0.00012957,-447.23,-0.00051348,-5278.8,0.075094
12734,3.5638,1.4545,0,0.0005075,5071.5,0.00019132,0.025107,0.00012565,-493.4,-0.00051409,-5300.2,0.071779
12735,3.6552,1.4545,0.05,1.5344e-06,15.334,1.1783e-06,8.8531,1.1661e-12,4.5782e-05,-1.1783e-06,-8.853,0.075379
12736,3.6552,1.1818,0,0.00051143,5110.8,0.00018783,0.048455,0.00013563,-392.1,-0.00051697,-5295.5,0.074395
12737,3.5638,1.2727,0,0.00051154,5111.9,0.00019003,0.041036,0.00013177,-437.7,-0.00051758,-5316.6,0.071133
12738,3.6552,1.2727,0.05,1.5372e-06,15.362,1.1804e-06,8.8692,-2.0285e-12,2.1511e-05,-1.1804e-06,-8.8692,0.074724
12739,3.6552,1,0,0.00051582,5154.6,0.00018649,0.069802,0.00014206,-333.72,-0.00052068,-5313.4,0.073608
12740,3.5638,1.0909,0,0.00051593,5155.7,0.00018865,0.061907,0.0001383,-378.25,-0.00052132,-5334.4,0.070401
12741,3.6552,1.0909,0.05,1.5376e-06,15.365,1.1807e-06,8.8713,1.3554e-12,3.5063e-06,-1.1807e-06,-8.8713,0.073981
12742,3.6552,0.81818,0,0.00052048,5201.2,0.0001851,0.10269,0.00014878,-272.75,-0.00052458,-5332.1,0.072728
12743,3.5638,0.90909,0,0.00052062,5202.6,0.00018721,0.086671,0.00014518,-315.75,-0.00052527,-5353.3,0.069578
12744,3.6552,0.90909,0.05,1.5351e-06,15.34,1.1787e-06,8.8565,-1.2134e-12,1.7977e-06,-1.1787e-06,-8.8565,0.073147
12745,3.6552,0.63636,0,0.00052536,5250,0.00018367,0.13444,0.00015572,-209.88,-0.00052861,-5351.7,0.07175
12746,3.5638,0.72727,0,0.00052558,5252.1,0.00018573,0.13278,0.00015232,-250.92,-0.00052939,-5373,0.068661
12747,3.6552,0.72727,0.05,1.5294e-06,15.284,1.1744e-06,8.8241,4.0442e-12,1.829e-06,-1.1744e-06,-8.8241,0.072219
12748,3.6552,0.45455,0,0.00053043,5300.6,0.00018223,0.29064,0.00016281,-145.63,-0.00053275,-5371.8,0.070671
12749,3.5638,0.54545,0,0.00053075,5303.8,0.00018422,0.15859,0.00015964,-184.49,-0.00053364,-5393.6,0.067644
12750,3.6552,0.54545,0.05,1.5235e-06,15.225,1.1699e-06,8.7901,3.2256e-12,-1.8645e-15,-1.1699e-06,-8.7901,0.071191
12751,3.6552,0.27273,0,0.00053575,5353.8,0.00018078,0.47061,0.00017008,-79.938,-0.00053705,-5393.1,0.069485
12752,3.5638,0.36364,0,0.0005361,5357.3,0.00018271,0.4779,0.00016709,-116.89,-0.00053799,-5414.6,0.066523
12753,3.6552,0.36364,0.05,1.5556e-06,15.546,1.1945e-06,8.9753,5.8001e-12,6.7462e-05,-1.1945e-06,-8.9752,0.070058
12754,3.5638,0.18182,0,0.00054182,5414.4,0.00018122,0.76704,0.00017477,-47.656,-0.0005426,-5437.7,0.065292
12755,3.6552,0.18182,0.05,2.3248e-06,23.232,1.7852e-06,13.413,2.5705e-12,2.3803e-05,-1.7851e-06,-13.413,0.068817
12756,3.6552,0.090909,0,0.00054,5396.3,0.00017943,0.3538,0.00017616,-24.189,-0.0005404,-5408.2,0.068187
12757,3.4724,5.7273,0,0.00054217,5418,0.00018312,0.53195,0.00017183,-84.265,-0.00054354,-5459.3,0.062448
12758,3.381,5.8182,0,0.00054849,5481.1,0.0001835,0.90924,0.00017686,-48.96,-0.00054929,-5505,0.058447
12759,3.4724,5.8182,0.05,2.4993e-06,24.975,1.9191e-06,14.42,-4.0708e-22,-1.0741e-06,-1.9191e-06,-14.42,0.06179
12760,3.4724,5.9091,0,0.00054664,5462.6,0.00018164,0.38682,0.00017831,-24.655,-0.00054705,-5474.7,0.061172
12761,3.4724,5.5455,0,0.00053642,5360.5,0.0001847,0.32013,0.00016394,-155.64,-0.00053889,-5436.4,0.063612
12762,3.381,5.6364,0,0.00054229,5419.2,0.00018512,0.52667,0.00016852,-124.2,-0.00054429,-5479.9,0.059654
12763,3.4724,5.6364,0.05,1.6138e-06,16.127,1.2392e-06,9.3111,-2.6286e-22,-3.7453e-06,-1.2392e-06,-9.3111,0.06301
12764,3.4724,5.3636,0,0.00053096,5306,0.00018628,0.14839,0.00015625,-225.44,-0.00053443,-5415,0.064669
12765,3.381,5.4545,0,0.00053652,5361.5,0.00018676,0.1759,0.00016044,-197.61,-0.00053961,-5457.5,0.060752
12766,3.4724,5.4545,0.05,1.5787e-06,15.776,1.2123e-06,9.1085,-4.4854e-13,-1.932e-15,-1.2123e-06,-9.1085,0.06412
12767,3.4724,5.1818,0,0.00052572,5253.5,0.00018785,0.11283,0.00014873,-293.83,-0.0005301,-5394.2,0.065623
12768,3.381,5.2727,0,0.00053097,5306,0.00018843,0.14609,0.00015249,-269.85,-0.00053504,-5435.7,0.061745
12769,3.4724,5.2727,0.05,1.5863e-06,15.852,1.2181e-06,9.1525,-4.45e-13,2.4233e-05,-1.2181e-06,-9.1524,0.065126
12770,3.4724,5,0,0.00052073,5203.7,0.00018938,0.076575,0.00014143,-360.2,-0.00052592,-5374.4,0.066481
12771,3.381,5.0909,0,0.00052565,5252.9,0.00019006,0.095231,0.00014474,-340.42,-0.00053061,-5414.8,0.062638
12772,3.4724,5.0909,0.05,1.5935e-06,15.924,1.2236e-06,9.1939,-2.5955e-22,1.5182e-05,-1.2236e-06,-9.1939,0.066032
12773,3.4724,4.8182,0,0.00051604,5156.8,0.00019086,0.05309,0.00013445,-423.79,-0.00052193,-5355.6,0.067247
12774,3.381,4.9091,0,0.00052064,5202.8,0.00019165,0.067874,0.00013728,-408.49,-0.00052638,-5394.9,0.063437
12775,3.4724,4.9091,0.05,1.5971e-06,15.96,1.2264e-06,9.2148,-4.2971e-13,-2.5315e-06,-1.2264e-06,-9.2148,0.066843
12776,3.4724,4.6364,0,0.00051169,5113.4,0.00019226,0.0341,0.00012786,-483.83,-0.0005182,-5338.1,0.067925
12777,3.381,4.7273,0,0.00051596,5156.1,0.00019318,0.044998,0.00013018,-473.25,-0.00052238,-5376.4,0.064147
12778,3.4724,4.7273,0.05,1.5974e-06,15.963,1.2266e-06,9.2163,-2.6018e-22,-3.4925e-06,-1.2266e-06,-9.2162,0.067564
12779,3.4724,4.4545,0,0.00050773,5073.8,0.00019357,0.01925,0.00012175,-539.59,-0.00051475,-5322,0.068519
12780,3.381,4.5455,0,0.00051168,5113.3,0.00019461,0.027677,0.00012355,-533.9,-0.00051866,-5359.2,0.064771
12781,3.4724,4.5455,0.05,1.5949e-06,15.938,1.2247e-06,9.2018,-2.5977e-22,-1.6688e-06,-1.2247e-06,-9.2017,0.0682
12782,3.4724,4.2727,0,0.00050418,5038.3,0.00019477,0.0073468,0.00011619,-590.42,-0.00051162,-5307.5,0.069034
12783,3.381,4.3636,0,0.00050782,5074.7,0.00019594,0.013821,0.00011746,-589.69,-0.00051527,-5343.7,0.065315
12784,3.4724,4.3636,0.05,1.5903e-06,15.892,1.2212e-06,9.1755,-7.6627e-13,-3.1333e-06,-1.2212e-06,-9.1755,0.068754
12785,3.4724,4.0909,0,0.00050108,5007.3,0.00019584,-0.0021019,0.00011124,-635.69,-0.00050885,-5294.8,0.069473
12786,3.381,4.1818,0,0.0005044,5040.6,0.00019714,0.002891,0.00011197,-639.95,-0.00051223,-5330,0.065783
12787,3.4724,4.1818,0.05,1.5845e-06,15.834,1.2167e-06,9.1419,7.3212e-13,7.5786e-06,-1.2167e-06,-9.1418,0.069231
12788,3.4724,3.9091,0,0.00049843,4980.9,0.00019677,-0.0095164,0.00010695,-674.88,-0.00050647,-5283.9,0.069839
12789,3.381,4,0,0.00050146,5011.1,0.00019821,-0.005688,0.00010716,-684.09,-0.00050958,-5318,0.066177
12790,3.4724,4,0.05,1.5781e-06,15.771,1.2118e-06,9.1051,-1.097e-12,-1.2791e-06,-1.2118e-06,-9.1051,0.069633
12791,3.4724,3.7273,0,0.00049625,4959.1,0.00019755,-0.015194,0.00010339,-707.54,-0.00050449,-5274.9,0.070135
12792,3.381,3.8182,0,0.000499,4986.5,0.00019911,-0.01229,0.00010308,-721.61,-0.00050734,-5308,0.066501
12793,3.4724,3.8182,0.05,1.5719e-06,15.708,1.207e-06,9.0691,-2.6057e-13,3.3209e-06,-1.207e-06,-9.069,0.069964
12794,3.4724,3.5455,0,0.00049455,4942.1,0.00019817,-0.01937,0.00010058,-733.31,-0.00050293,-5267.8,0.070362
12795,3.381,3.6364,0,0.00049702,4966.8,0.00019986,-0.017219,9.9759e-05,-752.1,-0.00050553,-5300,0.066756
12796,3.4724,3.6364,0.05,1.5663e-06,15.652,1.2027e-06,9.0368,-1.1731e-12,1.6867e-06,-1.2027e-06,-9.0367,0.070225
12797,3.4724,3.3636,0,0.00049334,4930,0.00019862,-0.022224,9.8549e-05,-751.91,-0.00050181,-5262.8,0.070524
12798,3.381,3.4545,0,0.00049554,4952,0.00020042,-0.020709,9.7243e-05,-775.24,-0.00050416,-5293.9,0.066947
12799,3.4724,3.4545,0.05,1.5618e-06,15.607,1.1992e-06,9.0107,-1.9578e-12,5.1277e-07,-1.1992e-06,-9.0106,0.070419
12800,3.4724,3.1818,0,0.00049261,4922.7,0.00019889,-0.023885,9.7324e-05,-763.15,-0.00050113,-5259.7,0.07062
12801,3.381,3.2727,0,0.00049456,4942.2,0.0002008,-0.022938,9.5553e-05,-790.8,-0.00050324,-5289.9,0.067072
12802,3.4724,3.2727,0.05,1.5586e-06,15.575,1.1968e-06,8.9924,-1.9405e-12,-9.8723e-07,-1.1968e-06,-8.9924,0.070548
12803,3.4724,3,0,0.00049237,4920.3,0.00019898,-0.02443,9.6914e-05,-766.91,-0.00050091,-5258.7,0.070652
12804,3.381,3.0909,0,0.00049406,4937.2,0.00020099,-0.024023,9.4704e-05,-798.61,-0.00050278,-5287.9,0.067135
12805,3.4724,3.0909,0.05,1.557e-06,15.559,1.1956e-06,8.983,-1.8535e-12,-2.58e-07,-1.1956e-06,-8.9829,0.070612
12806,3.4724,2.8182,0,0.00049261,4922.7,0.00019889,-0.023885,9.7324e-05,-763.15,-0.00050113,-5259.7,0.07062
12807,3.381,2.9091,0,0.00049406,4937.2,0.00020099,-0.024023,9.4704e-05,-798.61,-0.00050278,-5287.9,0.067135
12808,3.4724,2.9091,0.05,1.557e-06,15.559,1.1956e-06,8.983,-2.6688e-12,4.062e-07,-1.1956e-06,-8.9829,0.070612
12809,3.4724,2.6364,0,0.00049334,4930,0.00019862,-0.022224,9.8549e-05,-751.91,-0.00050181,-5262.8,0.070524
12810,3.381,2.7273,0,0.00049456,4942.2,0.0002008,-0.022938,9.5553e-05,-790.8,-0.00050324,-5289.9,0.067072
12811,3.4724,2.7273,0.05,1.5586e-06,15.575,1.1968e-06,8.9924,-2.5695e-12,9.8723e-07,-1.1968e-06,-8.9924,0.070548
12812,3.4724,2.4545,0,0.00049455,4942.1,0.00019817,-0.019369,0.00010058,-733.31,-0.00050293,-5267.8,0.070362
12813,3.381,2.5455,0,0.00049554,4952,0.00020042,-0.020708,9.7243e-05,-775.24,-0.00050416,-5293.9,0.066947
12814,3.4724,2.5455,0.05,1.5618e-06,15.607,1.1992e-06,9.0107,-1.5341e-12,4.9033e-06,-1.1992e-06,-9.0106,0.070419
12815,3.4724,2.2727,0,0.00049625,4959.1,0.00019755,-0.015194,0.00010339,-707.54,-0.00050449,-5274.9,0.070135
12816,3.381,2.3636,0,0.00049702,4966.8,0.00019986,-0.017219,9.9759e-05,-752.1,-0.00050553,-5300,0.066756
12817,3.4724,2.3636,0.05,1.5663e-06,15.652,1.2027e-06,9.0368,-5.9564e-13,-1.9888e-06,-1.2027e-06,-9.0367,0.070225
12818,3.4724,2.0909,0,0.00049843,4980.9,0.00019677,-0.0095161,0.00010695,-674.88,-0.00050647,-5283.9,0.069839
12819,3.381,2.1818,0,0.000499,4986.5,0.00019911,-0.01229,0.00010308,-721.61,-0.00050734,-5308,0.066501
12820,3.4724,2.1818,0.05,1.5719e-06,15.708,1.207e-06,9.0691,1.3029e-13,7.6926e-06,-1.207e-06,-9.069,0.069964
12821,3.4724,1.9091,0,0.00050108,5007.3,0.00019584,-0.0021015,0.00011124,-635.69,-0.00050885,-5294.8,0.069473
12822,3.381,2,0,0.00050146,5011.1,0.00019821,-0.0056877,0.00010716,-684.09,-0.00050958,-5318,0.066177
12823,3.4724,2,0.05,1.5781e-06,15.771,1.2118e-06,9.1051,-2.0713e-12,1.2791e-06,-1.2118e-06,-9.1051,0.069633
12824,3.4724,1.7273,0,0.00050418,5038.3,0.00019477,0.0073473,0.00011619,-590.42,-0.00051162,-5307.5,0.069034
12825,3.381,1.8182,0,0.0005044,5040.6,0.00019714,0.0028914,0.00011197,-639.95,-0.00051223,-5330,0.065783
12826,3.4724,1.8182,0.05,1.5845e-06,15.834,1.2167e-06,9.1419,1.5887e-12,1.3327e-05,-1.2167e-06,-9.1418,0.069231
12827,3.4724,1.5455,0,0.00050773,5073.8,0.00019357,0.019251,0.00012175,-539.59,-0.00051475,-5322,0.068519
12828,3.381,1.6364,0,0.00050782,5074.7,0.00019594,0.013822,0.00011746,-589.69,-0.00051527,-5343.7,0.065315
12829,3.4724,1.6364,0.05,1.5903e-06,15.892,1.2212e-06,9.1755,-7.3337e-13,3.1333e-06,-1.2212e-06,-9.1755,0.068754
12830,3.4724,1.3636,0,0.00051169,5113.4,0.00019226,0.0341,0.00012786,-483.83,-0.0005182,-5338.1,0.067925
12831,3.381,1.4545,0,0.00051168,5113.3,0.00019461,0.027677,0.00012355,-533.9,-0.00051866,-5359.2,0.064771
12832,3.4724,1.4545,0.05,1.5949e-06,15.938,1.2247e-06,9.2017,-2.3019e-12,1.6688e-06,-1.2247e-06,-9.2018,0.0682
12833,3.4724,1.1818,0,0.00051604,5156.8,0.00019086,0.05309,0.00013445,-423.79,-0.00052193,-5355.6,0.067247
12834,3.381,1.2727,0,0.00051596,5156.1,0.00019318,0.044998,0.00013018,-473.25,-0.00052238,-5376.4,0.064147
12835,3.4724,1.2727,0.05,1.5974e-06,15.963,1.2266e-06,9.2163,-1.2753e-12,2.1734e-05,-1.2266e-06,-9.2162,0.067564
12836,3.4724,1,0,0.00052073,5203.7,0.00018938,0.076575,0.00014143,-360.2,-0.00052592,-5374.4,0.066481
12837,3.381,1.0909,0,0.00052064,5202.8,0.00019165,0.067874,0.00013728,-408.49,-0.00052638,-5394.9,0.063437
12838,3.4724,1.0909,0.05,1.5971e-06,15.96,1.2264e-06,9.2148,-1.2071e-12,-1.9546e-15,-1.2264e-06,-9.2148,0.066843
12839,3.4724,0.81818,0,0.00052572,5253.5,0.00018785,0.11284,0.00014873,-293.83,-0.0005301,-5394.2,0.065623
12840,3.381,0.90909,0,0.00052565,5252.9,0.00019006,0.095232,0.00014474,-340.42,-0.00053061,-5414.8,0.062638
12841,3.4724,0.90909,0.05,1.5935e-06,15.924,1.2236e-06,9.1939,1.2716e-12,2.2546e-05,-1.2236e-06,-9.1939,0.066032
12842,3.4724,0.63636,0,0.00053096,5306,0.00018628,0.14839,0.00015625,-225.44,-0.00053443,-5415,0.064669
12843,3.381,0.72727,0,0.00053097,5306,0.00018843,0.14609,0.00015249,-269.85,-0.00053504,-5435.7,0.061745
12844,3.4724,0.72727,0.05,1.5863e-06,15.852,1.2181e-06,9.1525,6.9524e-13,2.4233e-05,-1.2181e-06,-9.1524,0.065126
12845,3.4724,0.45455,0,0.00053642,5360.5,0.0001847,0.32013,0.00016394,-155.64,-0.00053889,-5436.4,0.063612
12846,3.381,0.54545,0,0.00053652,5361.5,0.00018676,0.1759,0.00016044,-197.61,-0.00053961,-5457.5,0.060752
12847,3.4724,0.54545,0.05,1.5787e-06,15.776,1.2123e-06,9.1085,1.3687e-12,5.0982e-05,-1.2123e-06,-9.1084,0.06412
12848,3.4724,0.27273,0,0.00054217,5418,0.00018312,0.53196,0.00017183,-84.265,-0.00054354,-5459.3,0.062448
12849,3.381,0.36364,0,0.00054229,5419.2,0.00018512,0.52667,0.00016852,-124.2,-0.00054429,-5479.9,0.059654
12850,3.4724,0.36364,0.05,1.6138e-06,16.127,1.2392e-06,9.3111,3.095e-12,-1.975e-15,-1.2392e-06,-9.3111,0.06301
12851,3.381,0.18182,0,0.00054849,5481.1,0.0001835,0.90924,0.00017686,-48.96,-0.00054929,-5505,0.058447
12852,3.4724,0.18182,0.05,2.4993e-06,24.975,1.9191e-06,14.42,2.6176e-12,1.137e-05,-1.9191e-06,-14.42,0.06179
12853,3.4724,0.090909,0,0.00054664,5462.6,0.00018164,0.38682,0.00017831,-24.655,-0.00054705,-5474.7,0.061172
12854,3.2897,5.7273,0,0.00054861,5482.3,0.00018546,0.60339,0.0001736,-88.488,-0.00055005,-5525.7,0.055773
12855,3.1983,5.8182,0,0.00055519,5548,0.00018577,1.0873,0.00017899,-49.871,-0.000556,-5572.3,0.051968
12856,3.2897,5.8182,0.05,2.6837e-06,26.819,2.0608e-06,15.484,-3.5212e-13,-3.2843e-15,-2.0608e-06,-15.484,0.055127
12857,3.2897,5.9091,0,0.00055329,5529,0.00018385,0.42467,0.00018049,-24.845,-0.0005537,-5541.2,0.054521
12858,3.2897,5.5455,0,0.00054239,5420.1,0.00018718,0.35297,0.00016503,-166.05,-0.00054501,-5501.1,0.056912
12859,3.1983,5.6364,0,0.00054845,5480.8,0.00018752,0.58118,0.00016992,-131.68,-0.00055056,-5545.1,0.053149
12860,3.2897,5.6364,0.05,1.6765e-06,16.753,1.2873e-06,9.6724,-2.7306e-22,-2.0517e-15,-1.2873e-06,-9.6724,0.056322
12861,3.2897,5.3636,0,0.00053652,5361.5,0.00018891,0.16397,0.00015669,-241.92,-0.00054022,-5478.3,0.057943
12862,3.1983,5.4545,0,0.00054225,5418.7,0.00018933,0.19537,0.00016116,-211.43,-0.00054553,-5521.2,0.054219
12863,3.2897,5.4545,0.05,1.6393e-06,16.382,1.2588e-06,9.4582,2.9014e-12,-3.8031e-06,-1.2588e-06,-9.4582,0.057407
12864,3.2897,5.1818,0,0.0005309,5305.3,0.00019064,0.12408,0.00014852,-316.34,-0.00053557,-5456.3,0.058872
12865,3.1983,5.2727,0,0.00053629,5359.2,0.00019116,0.16086,0.00015254,-290.02,-0.00054063,-5498.2,0.055184
12866,3.2897,5.2727,0.05,1.6494e-06,16.482,1.2665e-06,9.516,-4.5134e-13,-2.0185e-15,-1.2665e-06,-9.516,0.058387
12867,3.2897,5,0,0.00052556,5252,0.00019234,0.084066,0.0001406,-388.63,-0.00053109,-5435.4,0.059704
12868,3.1983,5.0909,0,0.0005306,5302.4,0.00019297,0.10469,0.00014412,-366.88,-0.00053589,-5476.2,0.056051
12869,3.2897,5.0909,0.05,1.6586e-06,16.574,1.2736e-06,9.5692,-4.4709e-13,-2.0298e-15,-1.2736e-06,-9.5692,0.059267
12870,3.2897,4.8182,0,0.00052056,5202,0.00019397,0.058218,0.00013302,-457.89,-0.00052683,-5415.8,0.060446
12871,3.1983,4.9091,0,0.00052526,5248.9,0.00019473,0.074437,0.00013602,-441.05,-0.00053136,-5455.5,0.056823
12872,3.2897,4.9091,0.05,1.6636e-06,16.624,1.2774e-06,9.598,1.1263e-12,-7.3759e-06,-1.2774e-06,-9.598,0.060054
12873,3.2897,4.6364,0,0.00051595,5155.9,0.00019553,0.037488,0.00012588,-523.27,-0.00052285,-5397.6,0.061101
12874,3.1983,4.7273,0,0.0005203,5199.4,0.00019642,0.049367,0.00012832,-511.59,-0.00052711,-5436.2,0.057508
12875,3.2897,4.7273,0.05,1.6646e-06,16.635,1.2782e-06,9.6042,-1.2177e-12,2.0175e-05,-1.2782e-06,-9.6042,0.060751
12876,3.2897,4.4545,0,0.00051176,5114.1,0.00019698,0.021439,0.00011926,-583.96,-0.00051919,-5381,0.061673
12877,3.1983,4.5455,0,0.00051577,5154.2,0.00019802,0.030565,0.00012114,-577.61,-0.00052316,-5418.6,0.058109
12878,3.2897,4.5455,0.05,1.6626e-06,16.614,1.2766e-06,9.5921,-2.1217e-12,-6.8879e-06,-1.2766e-06,-9.5921,0.061365
12879,3.2897,4.2727,0,0.00050803,5076.8,0.00019832,0.0087311,0.00011324,-639.22,-0.00051588,-5366.2,0.062169
12880,3.1983,4.3636,0,0.00051172,5113.6,0.00019949,0.015716,0.00011454,-638.27,-0.00051958,-5402.8,0.058632
12881,3.2897,4.3636,0.05,1.6582e-06,16.571,1.2733e-06,9.567,-7.7357e-13,1.1224e-05,-1.2733e-06,-9.567,0.061898
12882,3.2897,4.0909,0,0.00050478,5044.3,0.00019951,-0.001215,0.00010789,-688.38,-0.00051296,-5353.2,0.06259
12883,3.1983,4.1818,0,0.00050815,5078,0.00020083,0.0041758,0.00010862,-692.84,-0.00051638,-5388.9,0.059079
12884,3.2897,4.1818,0.05,1.6525e-06,16.514,1.2689e-06,9.5341,-1.6537e-12,1.0023e-05,-1.2689e-06,-9.5341,0.062356
12885,3.2897,3.9091,0,0.00050202,5016.8,0.00020055,-0.0089037,0.00010327,-730.88,-0.00051045,-5342.1,0.062941
12886,3.1983,4,0,0.00050509,5047.4,0.00020202,-0.0047323,0.00010344,-740.7,-0.0005136,-5376.9,0.059456
12887,3.2897,4,0.05,1.6463e-06,16.451,1.2641e-06,9.4982,-1.8782e-12,-2.6625e-06,-1.2641e-06,-9.4982,0.062742
12888,3.2897,3.7273,0,0.00049977,4994.2,0.00020142,-0.014703,9.9435e-05,-766.26,-0.00050837,-5333.1,0.063224
12889,3.1983,3.8182,0,0.00050255,5022,0.00020303,-0.01147,9.9045e-05,-781.31,-0.00051126,-5366.9,0.059765
12890,3.2897,3.8182,0.05,1.6402e-06,16.391,1.2595e-06,9.4633,-3.7087e-13,-1.1431e-05,-1.2595e-06,-9.4633,0.063058
12891,3.2897,3.5455,0,0.00049801,4976.7,0.0002021,-0.018909,9.6411e-05,-794.14,-0.00050674,-5326,0.063441
12892,3.1983,3.6364,0,0.00050052,5001.7,0.00020385,-0.016416,9.5483e-05,-814.27,-0.00050937,-5358.9,0.060009
12893,3.2897,3.6364,0.05,1.6349e-06,16.337,1.2554e-06,9.4324,1.2142e-13,-1.8379e-06,-1.2554e-06,-9.4324,0.063309
12894,3.2897,3.3636,0,0.00049676,4964.1,0.0002026,-0.02175,9.4233e-05,-814.24,-0.00050557,-5320.9,0.063595
12895,3.1983,3.4545,0,0.000499,4986.6,0.00020448,-0.019865,9.2787e-05,-839.25,-0.00050795,-5352.9,0.06019
12896,3.2897,3.4545,0.05,1.6306e-06,16.295,1.2521e-06,9.4078,-1.0812e-12,6.2379e-07,-1.2521e-06,-9.4078,0.063494
12897,3.2897,3.1818,0,0.00049601,4956.6,0.0002029,-0.023389,9.2918e-05,-826.38,-0.00050487,-5317.9,0.063687
12898,3.1983,3.2727,0,0.00049799,4976.5,0.0002049,-0.022042,9.0977e-05,-856.03,-0.000507,-5349,0.06031
12899,3.2897,3.2727,0.05,1.6276e-06,16.265,1.2498e-06,9.3907,-2.647e-12,-1.0309e-06,-1.2498e-06,-9.3907,0.063617
12900,3.2897,3,0,0.00049576,4954.1,0.000203,-0.023925,9.2478e-05,-830.44,-0.00050463,-5316.9,0.063718
12901,3.1983,3.0909,0,0.00049749,4971.4,0.00020512,-0.023093,9.0069e-05,-864.45,-0.00050652,-5347,0.06037
12902,3.2897,3.0909,0.05,1.6261e-06,16.25,1.2487e-06,9.382,-1.8621e-12,-2.66e-07,-1.2487e-06,-9.3819,0.063678
12903,3.2897,2.8182,0,0.00049601,4956.6,0.0002029,-0.023389,9.2918e-05,-826.38,-0.00050487,-5317.9,0.063687
12904,3.1983,2.9091,0,0.00049749,4971.4,0.00020512,-0.023093,9.0069e-05,-864.45,-0.00050652,-5347,0.06037
12905,3.2897,2.9091,0.05,1.6261e-06,16.25,1.2487e-06,9.382,-1.7711e-12,4.2767e-07,-1.2487e-06,-9.3819,0.063678
12906,3.2897,2.6364,0,0.00049676,4964.1,0.0002026,-0.02175,9.4233e-05,-814.24,-0.00050557,-5320.9,0.063595
12907,3.1983,2.7273,0,0.00049799,4976.5,0.0002049,-0.022041,9.0977e-05,-856.03,-0.000507,-5349,0.06031
12908,3.2897,2.7273,0.05,1.6276e-06,16.265,1.2498e-06,9.3907,-2.3889e-12,1.0309e-06,-1.2498e-06,-9.3907,0.063617
12909,3.2897,2.4545,0,0.00049801,4976.7,0.0002021,-0.018909,9.6411e-05,-794.14,-0.00050674,-5326,0.063441
12910,3.1983,2.5455,0,0.000499,4986.6,0.00020448,-0.019865,9.2787e-05,-839.25,-0.00050795,-5352.9,0.06019
12911,3.2897,2.5455,0.05,1.6306e-06,16.295,1.2521e-06,9.4078,-6.3879e-13,5.2959e-06,-1.2521e-06,-9.4077,0.063494
12912,3.2897,2.2727,0,0.00049977,4994.2,0.00020142,-0.014703,9.9435e-05,-766.26,-0.00050837,-5333.1,0.063224
12913,3.1983,2.3636,0,0.00050052,5001.7,0.00020385,-0.016416,9.5483e-05,-814.27,-0.00050937,-5358.9,0.060009
12914,3.2897,2.3636,0.05,1.6349e-06,16.337,1.2554e-06,9.4325,4.8506e-13,5.6132e-06,-1.2554e-06,-9.4324,0.063309
12915,3.2897,2.0909,0,0.00050202,5016.8,0.00020055,-0.0089033,0.00010327,-730.88,-0.00051045,-5342.1,0.062941
12916,3.1983,2.1818,0,0.00050255,5022,0.00020303,-0.01147,9.9045e-05,-781.31,-0.00051126,-5366.9,0.059765
12917,3.2897,2.1818,0.05,1.6402e-06,16.391,1.2595e-06,9.4634,-1.9851e-13,1.664e-05,-1.2595e-06,-9.4632,0.063058
12918,3.2897,1.9091,0,0.00050478,5044.3,0.00019951,-0.0012147,0.00010789,-688.38,-0.00051296,-5353.2,0.06259
12919,3.1983,2,0,0.00050509,5047.4,0.00020202,-0.004732,0.00010344,-740.7,-0.0005136,-5376.9,0.059456
12920,3.2897,2,0.05,1.6463e-06,16.451,1.2641e-06,9.4982,9.8074e-13,1.1326e-05,-1.2641e-06,-9.4982,0.062742
12921,3.2897,1.7273,0,0.00050803,5076.8,0.00019832,0.0087315,0.00011324,-639.22,-0.00051588,-5366.2,0.062169
12922,3.1983,1.8182,0,0.00050815,5078,0.00020083,0.0041762,0.00010862,-692.84,-0.00051638,-5388.9,0.059079
12923,3.2897,1.8182,0.05,1.6525e-06,16.514,1.2689e-06,9.5341,-1.8579e-12,2.4524e-05,-1.2689e-06,-9.534,0.062356
12924,3.2897,1.5455,0,0.00051176,5114.1,0.00019698,0.021439,0.00011926,-583.96,-0.00051919,-5381,0.061673
12925,3.1983,1.6364,0,0.00051172,5113.6,0.00019949,0.015716,0.00011454,-638.27,-0.00051958,-5402.8,0.058632
12926,3.2897,1.6364,0.05,1.6582e-06,16.571,1.2733e-06,9.567,-3.0711e-13,1.9335e-05,-1.2733e-06,-9.567,0.061898
12927,3.2897,1.3636,0,0.00051595,5155.9,0.00019553,0.037488,0.00012588,-523.27,-0.00052285,-5397.6,0.061101
12928,3.1983,1.4545,0,0.00051577,5154.2,0.00019802,0.030566,0.00012114,-577.61,-0.00052316,-5418.6,0.058109
12929,3.2897,1.4545,0.05,1.6626e-06,16.614,1.2766e-06,9.5921,2.0045e-12,2.4282e-05,-1.2766e-06,-9.5921,0.061365
12930,3.2897,1.1818,0,0.00052056,5202,0.00019397,0.058219,0.00013302,-457.89,-0.00052683,-5415.8,0.060446
12931,3.1983,1.2727,0,0.0005203,5199.4,0.00019642,0.049367,0.00012832,-511.59,-0.00052711,-5436.2,0.057508
12932,3.2897,1.2727,0.05,1.6646e-06,16.635,1.2782e-06,9.6042,-2.4354e-12,2.0175e-05,-1.2782e-06,-9.6042,0.060751
12933,3.2897,1,0,0.00052556,5252,0.00019234,0.084067,0.0001406,-388.63,-0.00053109,-5435.4,0.059704
12934,3.1983,1.0909,0,0.00052526,5248.9,0.00019473,0.074437,0.00013602,-441.05,-0.00053136,-5455.5,0.056823
12935,3.2897,1.0909,0.05,1.6636e-06,16.624,1.2774e-06,9.598,2.0056e-12,7.3759e-06,-1.2774e-06,-9.598,0.060054
12936,3.2897,0.81818,0,0.0005309,5305.3,0.00019064,0.12408,0.00014852,-316.34,-0.00053557,-5456.3,0.058872
12937,3.1983,0.90909,0,0.0005306,5302.4,0.00019297,0.10469,0.00014412,-366.88,-0.00053589,-5476.2,0.056051
12938,3.2897,0.90909,0.05,1.6586e-06,16.574,1.2736e-06,9.5693,1.269e-12,4.9883e-05,-1.2736e-06,-9.5692,0.059267
12939,3.2897,0.63636,0,0.00053652,5361.5,0.00018891,0.16397,0.00015669,-241.92,-0.00054022,-5478.3,0.057943
12940,3.1983,0.72727,0,0.00053629,5359.2,0.00019116,0.16086,0.00015254,-290.02,-0.00054063,-5498.2,0.055184
12941,3.2897,0.72727,0.05,1.6494e-06,16.482,1.2665e-06,9.516,4.5134e-13,2.6791e-05,-1.2665e-06,-9.516,0.058387
12942,3.2897,0.45455,0,0.00054239,5420.1,0.00018718,0.35297,0.00016503,-166.05,-0.00054501,-5501.1,0.056912
12943,3.1983,0.54545,0,0.00054225,5418.7,0.00018933,0.19537,0.00016116,-211.43,-0.00054553,-5521.2,0.054219
12944,3.2897,0.54545,0.05,1.6393e-06,16.382,1.2588e-06,9.4582,9.5374e-12,3.1945e-05,-1.2588e-06,-9.4582,0.057407
12945,3.2897,0.27273,0,0.00054861,5482.3,0.00018546,0.60339,0.0001736,-88.488,-0.00055005,-5525.7,0.055773
12946,3.1983,0.36364,0,0.00054845,5480.8,0.00018752,0.58118,0.00016992,-131.68,-0.00055056,-5545.1,0.053149
12947,3.2897,0.36364,0.05,1.6765e-06,16.753,1.2873e-06,9.6725,6.4701e-12,5.4275e-05,-1.2873e-06,-9.6724,0.056322
12948,3.1983,0.18182,0,0.00055519,5548,0.00018577,1.0873,0.00017899,-49.871,-0.000556,-5572.3,0.051968
12949,3.2897,0.18182,0.05,2.6837e-06,26.819,2.0608e-06,15.484,-2.97e-12,1.1206e-05,-2.0608e-06,-15.484,0.055127
12950,3.2897,0.090909,0,0.00055329,5529,0.00018385,0.42467,0.00018049,-24.845,-0.0005537,-5541.2,0.054521
12951,3.1069,5.7273,0,0.00055503,5546.5,0.00018778,0.68707,0.00017537,-92.559,-0.00055654,-5591.8,0.049464
12952,3.0155,5.8182,0,0.00056188,5615,0.00018802,1.3136,0.00018115,-50.308,-0.0005627,-5639.3,0.045858
12953,3.1069,5.8182,0.05,2.8779e-06,28.759,2.2099e-06,16.604,-4.6874e-22,-3.522e-15,-2.2099e-06,-16.604,0.048832
12954,3.1069,5.9091,0,0.00055991,5595.2,0.00018603,0.46873,0.00018268,-24.7,-0.00056032,-5607.3,0.04824
12955,3.1069,5.5455,0,0.00054831,5479.3,0.00018967,0.38963,0.00016607,-176.91,-0.0005511,-5565.4,0.050574
12956,3.0155,5.6364,0,0.00055457,5541.9,0.00018992,0.64234,0.00017129,-139.3,-0.0005568,-5609.9,0.047009
12957,3.1069,5.6364,0.05,1.744e-06,17.428,1.3391e-06,10.062,-8.268e-22,-2.1343e-15,-1.3391e-06,-10.062,0.049999
12958,3.1069,5.3636,0,0.00054201,5416.3,0.00019157,0.18136,0.00015702,-259.41,-0.00054595,-5541.3,0.051576
12959,3.0155,5.4545,0,0.0005479,5475.2,0.0001919,0.21728,0.00016179,-226,-0.00055139,-5584.6,0.048048
12960,3.1069,5.4545,0.05,1.7062e-06,17.05,1.3102e-06,9.8441,-2.7791e-22,-3.8142e-06,-1.3102e-06,-9.8441,0.051054
12961,3.1069,5.1818,0,0.00053599,5356.2,0.00019348,0.13651,0.00014815,-340.45,-0.00054096,-5518.2,0.052476
12962,3.0155,5.2727,0,0.00054151,5411.4,0.00019392,0.17724,0.00015243,-311.59,-0.00054613,-5560.3,0.048983
12963,3.1069,5.2727,0.05,1.7194e-06,17.183,1.3203e-06,9.9204,-4.5451e-13,-3.8127e-06,-1.3203e-06,-9.9204,0.052005
12964,3.1069,5,0,0.00053029,5299.3,0.00019536,0.092293,0.00013955,-419.21,-0.00053618,-5496.4,0.053281
12965,3.0155,5.0909,0,0.00053544,5350.7,0.00019593,0.1151,0.00014329,-395.36,-0.00054107,-5537.4,0.049819
12966,3.1069,5.0909,0.05,1.7313e-06,17.301,1.3294e-06,9.9886,-2.8199e-22,-2.1187e-15,-1.3294e-06,-9.9886,0.052857
12967,3.1069,4.8182,0,0.00052499,5246.3,0.00019718,0.06383,0.00013133,-494.68,-0.00053165,-5476,0.053995
12968,3.0155,4.9091,0,0.00052976,5294,0.00019789,0.081604,0.0001345,-476.21,-0.00053625,-5515.9,0.050563
12969,3.1069,4.9091,0.05,1.738e-06,17.368,1.3345e-06,10.027,-1.0725e-12,-7.5059e-06,-1.3345e-06,-10.027,0.053616
12970,3.1069,4.6364,0,0.00052012,5197.6,0.00019891,0.041224,0.00012359,-565.88,-0.00052743,-5457.3,0.054624
12971,3.0155,4.7273,0,0.00052453,5241.6,0.00019977,0.054137,0.00012615,-553.05,-0.00053174,-5496.2,0.05122
12972,3.1069,4.7273,0.05,1.74e-06,17.388,1.3361e-06,10.039,-2.8341e-22,-1.1014e-05,-1.3361e-06,-10.039,0.054288
12973,3.1069,4.4545,0,0.00051572,5153.6,0.00020053,0.023935,0.00011643,-631.89,-0.00052355,-5440.4,0.055173
12974,3.0155,4.5455,0,0.00051978,5194.2,0.00020155,0.03378,0.00011838,-624.88,-0.00052758,-5478.3,0.051795
12975,3.1069,4.5455,0.05,1.7385e-06,17.373,1.3349e-06,10.03,-2.8316e-22,-2.1276e-15,-1.3349e-06,-10.03,0.054876
12976,3.1069,4.2727,0,0.00051183,5114.7,0.00020201,0.01045,0.00010993,-691.9,-0.00052007,-5425.5,0.055647
12977,3.0155,4.3636,0,0.00051555,5151.9,0.0002032,0.01795,0.00011126,-690.77,-0.00052381,-5462.5,0.052294
12978,3.1069,4.3636,0.05,1.7345e-06,17.333,1.3319e-06,10.007,-7.981e-13,-2.1226e-15,-1.3318e-06,-10.007,0.055387
12979,3.1069,4.0909,0,0.00050846,5081,0.00020334,7.8257e-05,0.00010416,-745.2,-0.00051701,-5412.5,0.056049
12980,3.0155,4.1818,0,0.00051186,5115.1,0.00020469,0.0058759,0.00010488,-749.94,-0.00052047,-5448.6,0.05272
12981,3.1069,4.1818,0.05,1.7291e-06,17.279,1.3277e-06,9.9759,-1.2416e-13,-3.0888e-06,-1.3277e-06,-9.9758,0.055824
12982,3.1069,3.9091,0,0.00050561,5052.6,0.0002045,-0.0077901,9.92e-05,-791.2,-0.0005144,-5401.5,0.056383
12983,3.0155,4,0,0.00050872,5083.6,0.00020601,-0.0032536,9.9315e-05,-801.71,-0.00051759,-5436.9,0.053078
12984,3.1069,4,0.05,1.7232e-06,17.22,1.3232e-06,9.9421,-9.3311e-13,-2.7609e-06,-1.3232e-06,-9.9421,0.056192
12985,3.1069,3.7273,0,0.00050329,5029.5,0.00020547,-0.013613,9.508e-05,-829.42,-0.00051224,-5392.6,0.056652
12986,3.0155,3.8182,0,0.00050612,5057.7,0.00020714,-0.010009,9.4608e-05,-845.55,-0.00051517,-5427.2,0.053371
12987,3.1069,3.8182,0.05,1.7176e-06,17.164,1.3189e-06,9.9099,2.1998e-13,-3.5484e-06,-1.3189e-06,-9.9099,0.056493
12988,3.1069,3.5455,0,0.0005015,5011.6,0.00020623,-0.017759,9.1843e-05,-859.5,-0.00051056,-5385.7,0.056859
12989,3.0155,3.6364,0,0.00050406,5037.1,0.00020806,-0.01486,9.0801e-05,-881.06,-0.00051323,-5419.5,0.053602
12990,3.1069,3.6364,0.05,1.7128e-06,17.116,1.3152e-06,9.8821,-1.1899e-12,1.2339e-06,-1.3152e-06,-9.8821,0.056731
12991,3.1069,3.3636,0,0.00050023,4998.8,0.00020679,-0.020517,8.9513e-05,-881.17,-0.00050936,-5380.8,0.057005
12992,3.0155,3.4545,0,0.00050253,5021.8,0.00020876,-0.018177,8.7925e-05,-907.93,-0.00051177,-5413.8,0.053773
12993,3.1069,3.4545,0.05,1.709e-06,17.079,1.3123e-06,9.8604,-1.9643e-12,-1.4023e-06,-1.3123e-06,-9.8604,0.056907
12994,3.1069,3.1818,0,0.00049947,4991.2,0.00020712,-0.02209,8.8109e-05,-894.24,-0.00050863,-5377.9,0.057092
12995,3.0155,3.2727,0,0.00050151,5011.6,0.00020923,-0.020236,8.5997e-05,-925.95,-0.0005108,-5410.1,0.053886
12996,3.1069,3.2727,0.05,1.7065e-06,17.053,1.3104e-06,9.8457,-6.0246e-14,-2.9112e-07,-1.3104e-06,-9.8456,0.057023
12997,3.1069,3,0,0.00049921,4988.7,0.00020723,-0.0226,8.7639e-05,-898.6,-0.00050839,-5376.9,0.057121
12998,3.0155,3.0909,0,0.00050101,5006.6,0.00020947,-0.02122,8.503e-05,-935,-0.00051032,-5408.2,0.053943
12999,3.1069,3.0909,0.05,1.7052e-06,17.04,1.3094e-06,9.8382,-9.5546e-13,-2.551e-07,-1.3094e-06,-9.8382,0.057081
13000,3.1069,2.8182,0,0.00049947,4991.2,0.00020712,-0.02209,8.8109e-05,-894.24,-0.00050863,-5377.9,0.057092
13001,3.0155,2.9091,0,0.00050101,5006.6,0.00020947,-0.02122,8.503e-05,-935,-0.00051032,-5408.2,0.053943
13002,3.1069,2.9091,0.05,1.7052e-06,17.04,1.3094e-06,9.8382,-8.5878e-13,4.4772e-07,-1.3094e-06,-9.8382,0.057081
13003,3.1069,2.6364,0,0.00050023,4998.8,0.00020679,-0.020517,8.9513e-05,-881.17,-0.00050936,-5380.8,0.057005
13004,3.0155,2.7273,0,0.00050151,5011.6,0.00020923,-0.020236,8.5997e-05,-925.95,-0.0005108,-5410.1,0.053886
13005,3.1069,2.7273,0.05,1.7065e-06,17.053,1.3104e-06,9.8457,-6.6438e-13,1.9587e-06,-1.3104e-06,-9.8456,0.057023
13006,3.1069,2.4545,0,0.0005015,5011.6,0.00020623,-0.017759,9.1843e-05,-859.5,-0.00051056,-5385.7,0.056859
13007,3.0155,2.5455,0,0.00050253,5021.8,0.00020876,-0.018177,8.7925e-05,-907.93,-0.00051177,-5413.8,0.053773
13008,3.1069,2.5455,0.05,1.709e-06,17.079,1.3123e-06,9.8604,-2.3404e-12,1.7528e-06,-1.3123e-06,-9.8604,0.056907
13009,3.1069,2.2727,0,0.00050329,5029.5,0.00020547,-0.013612,9.508e-05,-829.42,-0.00051224,-5392.6,0.056652
13010,3.0155,2.3636,0,0.00050406,5037.1,0.00020806,-0.01486,9.0801e-05,-881.06,-0.00051323,-5419.5,0.053602
13011,3.1069,2.3636,0.05,1.7128e-06,17.116,1.3152e-06,9.8821,9.5323e-14,7.9168e-06,-1.3152e-06,-9.8821,0.056731
13012,3.1069,2.0909,0,0.00050561,5052.6,0.0002045,-0.0077898,9.92e-05,-791.2,-0.0005144,-5401.5,0.056383
13013,3.0155,2.1818,0,0.00050612,5057.7,0.00020714,-0.010008,9.4608e-05,-845.55,-0.00051517,-5427.2,0.053371
13014,3.1069,2.1818,0.05,1.7176e-06,17.164,1.3189e-06,9.9099,1.9634e-12,2.3656e-06,-1.3189e-06,-9.9099,0.056493
13015,3.1069,1.9091,0,0.00050846,5081,0.00020334,7.866e-05,0.00010416,-745.2,-0.00051701,-5412.5,0.056049
13016,3.0155,2,0,0.00050872,5083.6,0.00020601,-0.0032532,9.9315e-05,-801.71,-0.00051759,-5436.9,0.053078
13017,3.1069,2,0.05,1.7232e-06,17.22,1.3232e-06,9.9421,-1.9765e-12,2.7609e-06,-1.3232e-06,-9.9421,0.056192
13018,3.1069,1.7273,0,0.00051183,5114.7,0.00020201,0.010451,0.00010993,-691.9,-0.00052007,-5425.5,0.055647
13019,3.0155,1.8182,0,0.00051186,5115.1,0.00020469,0.0058764,0.00010488,-749.94,-0.00052047,-5448.6,0.05272
13020,3.1069,1.8182,0.05,1.7291e-06,17.279,1.3277e-06,9.9759,-8.3092e-13,1.7243e-05,-1.3277e-06,-9.9758,0.055824
13021,3.1069,1.5455,0,0.00051572,5153.6,0.00020053,0.023935,0.00011643,-631.89,-0.00052355,-5440.4,0.055173
13022,3.0155,1.6364,0,0.00051555,5151.9,0.0002032,0.017951,0.00011126,-690.77,-0.00052381,-5462.5,0.052294
13023,3.1069,1.6364,0.05,1.7345e-06,17.333,1.3318e-06,10.007,-1.8931e-12,-2.1226e-15,-1.3319e-06,-10.007,0.055387
13024,3.1069,1.3636,0,0.00052012,5197.6,0.00019891,0.041225,0.00012359,-565.88,-0.00052743,-5457.3,0.054624
13025,3.0155,1.4545,0,0.00051978,5194.2,0.00020155,0.03378,0.00011838,-624.88,-0.00052758,-5478.3,0.051795
13026,3.1069,1.4545,0.05,1.7385e-06,17.373,1.3349e-06,10.03,-2.4975e-12,-2.1276e-15,-1.3349e-06,-10.03,0.054876
13027,3.1069,1.1818,0,0.00052499,5246.3,0.00019718,0.063831,0.00013133,-494.68,-0.00053165,-5476,0.053995
13028,3.0155,1.2727,0,0.00052453,5241.6,0.00019977,0.054138,0.00012615,-553.05,-0.00053174,-5496.2,0.05122
13029,3.1069,1.2727,0.05,1.74e-06,17.388,1.3361e-06,10.039,-7.1892e-13,3.3241e-05,-1.3361e-06,-10.039,0.054288
13030,3.1069,1,0,0.00053029,5299.3,0.00019536,0.092294,0.00013955,-419.21,-0.00053618,-5496.4,0.053281
13031,3.0155,1.0909,0,0.00052976,5294,0.00019789,0.081604,0.0001345,-476.21,-0.00053625,-5515.9,0.050563
13032,3.1069,1.0909,0.05,1.738e-06,17.368,1.3345e-06,10.027,-6.2511e-13,7.5059e-06,-1.3345e-06,-10.027,0.053616
13033,3.1069,0.81818,0,0.00053599,5356.2,0.00019348,0.13651,0.00014815,-340.45,-0.00054096,-5518.2,0.052476
13034,3.0155,0.90909,0,0.00053544,5350.7,0.00019593,0.1151,0.00014329,-395.36,-0.00054107,-5537.4,0.049819
13035,3.1069,0.90909,0.05,1.7313e-06,17.301,1.3294e-06,9.9886,1.281e-12,-6.9424e-15,-1.3294e-06,-9.9886,0.052857
13036,3.1069,0.63636,0,0.00054201,5416.3,0.00019157,0.18136,0.00015702,-259.41,-0.00054595,-5541.3,0.051576
13037,3.0155,0.72727,0,0.00054151,5411.4,0.00019392,0.17724,0.00015243,-311.59,-0.00054613,-5560.3,0.048983
13038,3.1069,0.72727,0.05,1.7194e-06,17.183,1.3203e-06,9.9204,4.5451e-13,6.2892e-05,-1.3203e-06,-9.9204,0.052005
13039,3.1069,0.45455,0,0.00054831,5479.3,0.00018967,0.38963,0.00016607,-176.91,-0.0005511,-5565.4,0.050574
13040,3.0155,0.54545,0,0.0005479,5475.2,0.0001919,0.21728,0.00016179,-226,-0.00055139,-5584.6,0.048048
13041,3.1069,0.54545,0.05,1.7062e-06,17.05,1.3102e-06,9.8441,6.4947e-12,3.8142e-06,-1.3102e-06,-9.8441,0.051054
13042,3.1069,0.27273,0,0.00055503,5546.5,0.00018778,0.68707,0.00017537,-92.559,-0.00055654,-5591.8,0.049464
13043,3.0155,0.36364,0,0.00055457,5541.9,0.00018992,0.64234,0.00017129,-139.3,-0.0005568,-5609.9,0.047009
13044,3.1069,0.36364,0.05,1.744e-06,17.428,1.3391e-06,10.062,7.4911e-13,2.9749e-05,-1.3391e-06,-10.062,0.049999
13045,3.0155,0.18182,0,0.00056188,5615,0.00018802,1.3136,0.00018115,-50.308,-0.0005627,-5639.3,0.045858
13046,3.1069,0.18182,0.05,2.8779e-06,28.759,2.2099e-06,16.604,-1.0924e-13,2.3335e-05,-2.2099e-06,-16.604,0.048832
13047,3.1069,0.090909,0,0.00055991,5595.2,0.00018603,0.46874,0.00018268,-24.7,-0.00056032,-5607.3,0.04824
13048,2.9241,5.7273,0,0.00056142,5610.3,0.00019009,0.78577,0.00017715,-96.427,-0.00056298,-5657.5,0.043524
13049,2.8328,5.8182,0,0.00056854,5681.5,0.00019023,1.6059,0.00018334,-50.183,-0.00056935,-5705.6,0.040122
13050,2.9241,5.8182,0.05,3.0812e-06,30.791,2.366e-06,17.777,1.4674e-12,-3.7708e-15,-2.366e-06,-17.777,0.042908
13051,2.9241,5.9091,0,0.00056647,5660.8,0.00018818,0.52119,0.00018489,-24.149,-0.00056687,-5672.6,0.042332
13052,2.9241,5.5455,0,0.00055415,5537.7,0.00019215,0.43067,0.00016704,-188.23,-0.0005571,-5629.2,0.044602
13053,2.8328,5.6364,0,0.00056059,5602.1,0.00019229,0.71129,0.00017262,-147.07,-0.00056294,-5673.8,0.041238
13054,2.9241,5.6364,0.05,1.817e-06,18.157,1.3952e-06,10.483,-4.537e-13,-2.2236e-15,-1.3952e-06,-10.483,0.044043
13055,2.9241,5.3636,0,0.00054739,5470.1,0.00019425,0.20078,0.00015722,-278.04,-0.00055158,-5603.7,0.045572
13056,2.8328,5.4545,0,0.00055342,5530.4,0.00019448,0.24204,0.00016231,-241.44,-0.00055713,-5647,0.042244
13057,2.9241,5.4545,0.05,1.7805e-06,17.793,1.3672e-06,10.273,-4.5167e-13,-2.179e-15,-1.3672e-06,-10.273,0.045066
13058,2.9241,5.1818,0,0.00054096,5405.8,0.00019637,0.15023,0.00014759,-366.37,-0.00054625,-5579.6,0.04644
13059,2.8328,5.2727,0,0.00054659,5462.1,0.00019672,0.19542,0.00015214,-334.73,-0.00055151,-5621.7,0.043145
13060,2.9241,5.2727,0.05,1.798e-06,17.967,1.3806e-06,10.373,-4.538e-13,3.2483e-05,-1.3806e-06,-10.373,0.045985
13061,2.9241,5,0,0.0005349,5345.3,0.00019845,0.10129,0.00013825,-452.24,-0.00054116,-5557,0.047214
13062,2.8328,5.0909,0,0.00054013,5397.6,0.00019894,0.12655,0.00014221,-426.12,-0.00054611,-5597.9,0.043948
13063,2.9241,5.0909,0.05,1.813e-06,18.117,1.3921e-06,10.46,-2.9529e-22,-2.2187e-15,-1.3921e-06,-10.46,0.046805
13064,2.9241,4.8182,0,0.00052929,5289.3,0.00020048,0.069934,0.00012933,-534.5,-0.00053635,-5536.2,0.047898
13065,2.8328,4.9091,0,0.00053412,5337.5,0.00020113,0.089409,0.00013267,-514.31,-0.00054101,-5576,0.044659
13066,2.9241,4.9091,0.05,1.8216e-06,18.204,1.3988e-06,10.51,2.8281e-12,-2.2293e-15,-1.3988e-06,-10.51,0.047534
13067,2.9241,4.6364,0,0.00052418,5238.2,0.00020241,0.04532,0.00012095,-612.01,-0.0005319,-5517.2,0.048499
13068,2.8328,4.7273,0,0.00052862,5282.6,0.00020323,0.059336,0.00012363,-598.03,-0.00053625,-5556.1,0.045286
13069,2.9241,4.7273,0.05,1.8248e-06,18.236,1.4012e-06,10.528,-4.4547e-13,-2.2332e-15,-1.4012e-06,-10.528,0.048176
13070,2.9241,4.4545,0,0.0005196,5192.4,0.00020422,0.026776,0.00011321,-683.75,-0.00052784,-5500.4,0.049022
13071,2.8328,4.5455,0,0.00052368,5233.1,0.00020522,0.03737,0.00011523,-676.13,-0.00053189,-5538.3,0.045832
13072,2.9241,4.5455,0.05,1.8239e-06,18.227,1.4006e-06,10.523,-8.6357e-13,-2.2321e-15,-1.4005e-06,-10.523,0.048737
13073,2.9241,4.2727,0,0.00051557,5152.1,0.00020588,0.01258,0.00010621,-748.83,-0.00052421,-5485.6,0.049472
13074,2.8328,4.3636,0,0.00051931,5189.5,0.00020707,0.020615,0.00010756,-747.61,-0.00052797,-5522.8,0.046305
13075,2.9241,4.3636,0.05,1.8204e-06,18.191,1.3978e-06,10.503,-1.0613e-12,-3.4402e-06,-1.3978e-06,-10.503,0.049223
13076,2.9241,4.0909,0,0.00051211,5117.6,0.00020736,0.0018956,0.00010003,-806.5,-0.00052104,-5472.9,0.049852
13077,2.8328,4.1818,0,0.00051554,5151.8,0.00020874,0.0081284,0.00010072,-811.61,-0.00052453,-5509.5,0.046707
13078,2.9241,4.1818,0.05,1.8155e-06,18.142,1.3941e-06,10.475,-3.7956e-13,8.9333e-06,-1.3941e-06,-10.474,0.049638
13079,2.9241,3.9091,0,0.00050922,5088.6,0.00020866,-0.0060188,9.4711e-05,-856.14,-0.00051835,-5462.4,0.050168
13080,2.8328,4,0,0.00051236,5120,0.00021022,-0.0010694,9.4766e-05,-867.45,-0.00052157,-5498.3,0.047045
13081,2.9241,4,0.05,1.8103e-06,18.091,1.3901e-06,10.445,-3.3987e-13,7.3911e-06,-1.3901e-06,-10.445,0.049986
13082,2.9241,3.7273,0,0.00050687,5065.2,0.00020973,-0.011732,9.0313e-05,-897.3,-0.00051614,-5453.9,0.050422
13083,2.8328,3.8182,0,0.00050975,5094,0.00021147,-0.0076853,8.9749e-05,-914.61,-0.00051911,-5489.3,0.04732
13084,2.9241,3.8182,0.05,1.8056e-06,18.043,1.3865e-06,10.417,-1.7534e-12,-4.8899e-06,-1.3865e-06,-10.417,0.05027
13085,2.9241,3.5455,0,0.00050507,5047.3,0.00021059,-0.015705,8.6864e-05,-929.63,-0.00051442,-5447.5,0.050617
13086,2.8328,3.6364,0,0.0005077,5073.4,0.0002125,-0.012303,8.5704e-05,-952.71,-0.00051714,-5482.3,0.047537
13087,2.9241,3.6364,0.05,1.8017e-06,18.004,1.3834e-06,10.395,-1.9231e-12,1.442e-06,-1.3834e-06,-10.395,0.050494
13088,2.9241,3.3636,0,0.0005038,5034.5,0.0002112,-0.018292,8.4387e-05,-952.87,-0.0005132,-5442.9,0.050754
13089,2.8328,3.4545,0,0.00050618,5058.3,0.00021328,-0.015375,8.2655e-05,-981.47,-0.00051568,-5477.1,0.047698
13090,2.9241,3.4545,0.05,1.7987e-06,17.975,1.3812e-06,10.378,-1.1345e-12,-1.4493e-06,-1.3812e-06,-10.378,0.05066
13091,2.9241,3.1818,0,0.00050304,5027,0.00021158,-0.019744,8.2896e-05,-966.88,-0.00051247,-5440.2,0.050836
13092,2.8328,3.2727,0,0.00050518,5048.3,0.0002138,-0.01724,8.0616e-05,-1000.7,-0.0005147,-5473.7,0.047804
13093,2.9241,3.2727,0.05,1.7968e-06,17.956,1.3797e-06,10.367,-5.8968e-14,-1.2176e-06,-1.3797e-06,-10.367,0.05077
13094,2.9241,3,0,0.00050279,5024.5,0.0002117,-0.020211,8.2398e-05,-971.56,-0.00051222,-5439.3,0.050864
13095,2.8328,3.0909,0,0.00050468,5043.4,0.00021407,-0.018118,7.9594e-05,-1010.4,-0.00051422,-5472.1,0.047856
13096,2.9241,3.0909,0.05,1.7959e-06,17.947,1.379e-06,10.361,-1.865e-12,-3.723e-07,-1.379e-06,-10.361,0.050824
13097,2.9241,2.8182,0,0.00050304,5027,0.00021158,-0.019744,8.2896e-05,-966.88,-0.00051247,-5440.2,0.050836
13098,2.8328,2.9091,0,0.00050468,5043.4,0.00021407,-0.018118,7.9594e-05,-1010.4,-0.00051422,-5472.1,0.047856
13099,2.9241,2.9091,0.05,1.7959e-06,17.947,1.379e-06,10.361,-1.7674e-12,3.723e-07,-1.379e-06,-10.361,0.050824
13100,2.9241,2.6364,0,0.0005038,5034.5,0.0002112,-0.018292,8.4387e-05,-952.87,-0.0005132,-5442.9,0.050754
13101,2.8328,2.7273,0,0.00050518,5048.3,0.0002138,-0.01724,8.0616e-05,-1000.7,-0.0005147,-5473.7,0.047804
13102,2.9241,2.7273,0.05,1.7968e-06,17.956,1.3797e-06,10.367,-6.6575e-13,1.1069e-06,-1.3797e-06,-10.367,0.05077
13103,2.9241,2.4545,0,0.00050507,5047.3,0.00021059,-0.015705,8.6864e-05,-929.63,-0.00051442,-5447.5,0.050617
13104,2.8328,2.5455,0,0.00050618,5058.3,0.00021328,-0.015375,8.2655e-05,-981.47,-0.00051568,-5477.1,0.047698
13105,2.9241,2.5455,0.05,1.7987e-06,17.975,1.3812e-06,10.378,-2.4102e-12,1.8116e-06,-1.3812e-06,-10.378,0.05066
13106,2.9241,2.2727,0,0.00050687,5065.2,0.00020973,-0.011732,9.0313e-05,-897.3,-0.00051614,-5453.9,0.050422
13107,2.8328,2.3636,0,0.0005077,5073.4,0.0002125,-0.012303,8.5704e-05,-952.71,-0.00051714,-5482.3,0.047537
13108,2.9241,2.3636,0.05,1.8017e-06,18.004,1.3834e-06,10.395,-3.0226e-12,8.3502e-06,-1.3834e-06,-10.395,0.050494
13109,2.9241,2.0909,0,0.00050922,5088.6,0.00020866,-0.0060185,9.4711e-05,-856.14,-0.00051835,-5462.4,0.050168
13110,2.8328,2.1818,0,0.00050975,5094,0.00021147,-0.0076851,8.9749e-05,-914.61,-0.00051911,-5489.3,0.04732
13111,2.9241,2.1818,0.05,1.8056e-06,18.043,1.3865e-06,10.417,-2.12e-12,3.6675e-06,-1.3865e-06,-10.417,0.05027
13112,2.9241,1.9091,0,0.00051211,5117.6,0.00020736,0.001896,0.00010003,-806.5,-0.00052104,-5472.9,0.049852
13113,2.8328,2,0,0.00051236,5120,0.00021022,-0.0010691,9.4766e-05,-867.45,-0.00052157,-5498.3,0.047045
13114,2.9241,2,0.05,1.8103e-06,18.091,1.3901e-06,10.445,4.7091e-14,1.3093e-05,-1.3901e-06,-10.445,0.049986
13115,2.9241,1.7273,0,0.00051557,5152.1,0.00020588,0.01258,0.00010621,-748.83,-0.00052421,-5485.6,0.049472
13116,2.8328,1.8182,0,0.00051554,5151.8,0.00020874,0.0081288,0.00010072,-811.61,-0.00052453,-5509.5,0.046707
13117,2.9241,1.8182,0.05,1.8155e-06,18.142,1.3941e-06,10.475,-6.5131e-13,1.8485e-05,-1.3941e-06,-10.474,0.049638
13118,2.9241,1.5455,0,0.0005196,5192.4,0.00020422,0.026776,0.00011321,-683.75,-0.00052784,-5500.4,0.049022
13119,2.8328,1.6364,0,0.00051931,5189.5,0.00020707,0.020616,0.00010756,-747.61,-0.00052797,-5522.8,0.046305
13120,2.9241,1.6364,0.05,1.8204e-06,18.191,1.3978e-06,10.503,-8.9235e-13,3.4664e-05,-1.3978e-06,-10.503,0.049223
13121,2.9241,1.3636,0,0.00052418,5238.2,0.00020241,0.04532,0.00012095,-612.01,-0.0005319,-5517.2,0.048499
13122,2.8328,1.4545,0,0.00052368,5233.1,0.00020522,0.03737,0.00011523,-676.13,-0.00053189,-5538.3,0.045832
13123,2.9241,1.4545,0.05,1.8239e-06,18.227,1.4005e-06,10.523,1.7335e-12,2.4565e-05,-1.4006e-06,-10.523,0.048737
13124,2.9241,1.1818,0,0.00052929,5289.3,0.00020048,0.069934,0.00012933,-534.5,-0.00053635,-5536.2,0.047898
13125,2.8328,1.2727,0,0.00052862,5282.6,0.00020323,0.059336,0.00012363,-598.03,-0.00053625,-5556.1,0.045286
13126,2.9241,1.2727,0.05,1.8248e-06,18.236,1.4012e-06,10.528,-5.4615e-13,-1.0239e-14,-1.4013e-06,-10.528,0.048176
13127,2.9241,1,0,0.0005349,5345.3,0.00019845,0.10129,0.00013825,-452.24,-0.00054116,-5557,0.047214
13128,2.8328,1.0909,0,0.00053412,5337.5,0.00020113,0.08941,0.00013267,-514.31,-0.00054101,-5576,0.044659
13129,2.9241,1.0909,0.05,1.8216e-06,18.204,1.3988e-06,10.51,2.8412e-13,-2.2293e-15,-1.3988e-06,-10.51,0.047534
13130,2.9241,0.81818,0,0.00054096,5405.8,0.00019637,0.15023,0.00014759,-366.37,-0.00054625,-5579.6,0.04644
13131,2.8328,0.90909,0,0.00054013,5397.6,0.00019894,0.12655,0.00014221,-426.12,-0.00054611,-5597.9,0.043948
13132,2.9241,0.90909,0.05,1.813e-06,18.117,1.3921e-06,10.46,3.6057e-12,6.0494e-05,-1.3921e-06,-10.46,0.046805
13133,2.9241,0.63636,0,0.00054739,5470.1,0.00019425,0.20078,0.00015722,-278.04,-0.00055158,-5603.7,0.045572
13134,2.8328,0.72727,0,0.00054659,5462.1,0.00019672,0.19542,0.00015214,-334.73,-0.00055151,-5621.7,0.043145
13135,2.9241,0.72727,0.05,1.798e-06,17.967,1.3806e-06,10.373,5.6685e-14,6.4966e-05,-1.3806e-06,-10.373,0.045985
13136,2.9241,0.45455,0,0.00055415,5537.7,0.00019215,0.43068,0.00016704,-188.23,-0.0005571,-5629.2,0.044602
13137,2.8328,0.54545,0,0.00055342,5530.4,0.00019448,0.24204,0.00016231,-241.44,-0.00055713,-5647,0.042244
13138,2.9241,0.54545,0.05,1.7805e-06,17.793,1.3672e-06,10.273,6.1611e-12,3.5748e-05,-1.3672e-06,-10.273,0.045066
13139,2.9241,0.27273,0,0.00056142,5610.3,0.00019009,0.78578,0.00017715,-96.427,-0.00056298,-5657.5,0.043524
13140,2.8328,0.36364,0,0.00056059,5602.1,0.00019229,0.71129,0.00017262,-147.07,-0.00056294,-5673.8,0.041238
13141,2.9241,0.36364,0.05,1.817e-06,18.157,1.3952e-06,10.483,9.9576e-12,3.2585e-05,-1.3952e-06,-10.483,0.044043
13142,2.8328,0.18182,0,0.00056854,5681.5,0.00019023,1.6059,0.00018334,-50.183,-0.00056935,-5705.6,0.040122
13143,2.9241,0.18182,0.05,3.0812e-06,30.791,2.366e-06,17.777,-2.9348e-12,2.3596e-05,-2.366e-06,-17.777,0.042908
13144,2.9241,0.090909,0,0.00056647,5660.8,0.00018818,0.52119,0.00018489,-24.149,-0.00056687,-5672.6,0.042332
13145,2.7414,5.7273,0,0.00056771,5673.2,0.00019235,0.90314,0.00017892,-100.04,-0.00056933,-5722.1,0.037958
13146,2.65,5.8182,0,0.00057512,5747.2,0.0001924,1.9915,0.00018556,-49.4,-0.00057591,-5770.8,0.034763
13147,2.7414,5.8182,0.05,3.2929e-06,32.906,2.5285e-06,18.998,-5.3634e-22,7.6311e-07,-2.5285e-06,-18.998,0.03736
13148,2.7414,5.9091,0,0.00057294,5725.4,0.00019026,0.58559,0.00018711,-23.115,-0.00057332,-5736.6,0.036802
13149,2.7414,5.5455,0,0.00055986,5594.7,0.00019461,0.47684,0.00016792,-200.08,-0.00056298,-5691.8,0.039
13150,2.65,5.6364,0,0.00056647,5660.8,0.00019463,0.78944,0.00017389,-154.99,-0.00056893,-5736.3,0.035842
13151,2.7414,5.6364,0.05,1.8965e-06,18.952,1.4563e-06,10.942,-4.4821e-13,-2.321e-15,-1.4563e-06,-10.942,0.038459
13152,2.7414,5.3636,0,0.00055261,5522.3,0.00019694,0.22255,0.00015725,-297.97,-0.00055707,-5665.2,0.039934
13153,2.65,5.4545,0,0.00055877,5583.8,0.00019704,0.27006,0.00016269,-257.86,-0.0005627,-5708.1,0.036809
13154,2.7414,5.4545,0.05,1.864e-06,18.627,1.4313e-06,10.754,-3.0361e-22,-3.7181e-06,-1.4313e-06,-10.754,0.039446
13155,2.7414,5.1818,0,0.00054575,5453.8,0.00019929,0.16539,0.00014679,-394.35,-0.00055139,-5640.2,0.040767
13156,2.65,5.2727,0,0.00055147,5510.9,0.00019953,0.2156,0.00015163,-359.73,-0.0005567,-5681.8,0.037672
13157,2.7414,5.2727,0.05,1.8868e-06,18.855,1.4488e-06,10.886,-4.4835e-13,-2.309e-15,-1.4488e-06,-10.886,0.040329
13158,2.7414,5,0,0.00053934,5389.7,0.00020162,0.11113,0.00013665,-488.07,-0.00054598,-5617,0.041505
13159,2.65,5.0909,0,0.00054462,5442.4,0.00020202,0.13908,0.00014084,-459.56,-0.00055097,-5657.5,0.038438
13160,2.7414,5.0909,0.05,1.9055e-06,19.042,1.4632e-06,10.994,-9.0612e-13,-6.8604e-15,-1.4632e-06,-10.994,0.041114
13161,2.7414,4.8182,0,0.00053344,5330.7,0.00020388,0.076574,0.00012698,-577.75,-0.00054091,-5596,0.042157
13162,2.65,4.9091,0,0.00053829,5379.2,0.00020446,0.097855,0.00013048,-555.81,-0.00054558,-5635.5,0.039114
13163,2.7414,4.9091,0.05,1.9163e-06,19.15,1.4715e-06,11.056,-9.0942e-13,-2.3452e-15,-1.4715e-06,-11.056,0.041809
13164,2.7414,4.6364,0,0.00052811,5277.4,0.00020605,0.049833,0.00011792,-662.11,-0.00053624,-5577.2,0.042727
13165,2.65,4.7273,0,0.00053256,5321.9,0.00020682,0.064965,0.0001207,-647.01,-0.0005406,-5615.8,0.039707
13166,2.7414,4.7273,0.05,1.9207e-06,19.194,1.4748e-06,11.081,-5.1278e-13,-3.7835e-06,-1.4748e-06,-11.081,0.042419
13167,2.7414,4.4545,0,0.00052338,5230.2,0.00020807,0.030059,0.00010958,-739.99,-0.00053202,-5560.8,0.043221
13168,2.65,4.5455,0,0.00052746,5270.9,0.00020905,0.041378,0.00011164,-731.86,-0.00053608,-5598.6,0.040223
13169,2.7414,4.5455,0.05,1.9204e-06,19.191,1.4746e-06,11.08,-1.5797e-12,-3.6904e-06,-1.4746e-06,-11.08,0.04295
13170,2.7414,4.2727,0,0.00051927,5189.1,0.00020993,0.015268,0.00010207,-810.42,-0.00052828,-5546.6,0.043645
13171,2.65,4.3636,0,0.00052301,5226.5,0.00021112,0.02381,0.00010341,-809.25,-0.00053205,-5583.9,0.040666
13172,2.7414,4.3636,0.05,1.9174e-06,19.161,1.4723e-06,11.062,-1.679e-12,1.8782e-05,-1.4723e-06,-11.062,0.043409
13173,2.7414,4.0909,0,0.00051577,5154.2,0.00021159,0.0044378,9.545e-05,-872.64,-0.00052504,-5534.8,0.044003
13174,2.65,4.1818,0,0.00051921,5188.6,0.000213,0.011092,9.6102e-05,-878.28,-0.00052855,-5571.6,0.041044
13175,2.7414,4.1818,0.05,1.9133e-06,19.119,1.4691e-06,11.039,-1.0789e-12,1.4783e-05,-1.4691e-06,-11.039,0.043799
13176,2.7414,3.9091,0,0.00051288,5125.2,0.00021303,-0.0033442,8.9789e-05,-926.02,-0.00052231,-5525.1,0.044299
13177,2.65,4,0,0.00051605,5156.9,0.00021465,0.0020305,8.9768e-05,-938.28,-0.00052556,-5561.7,0.041359
13178,2.7414,4,0.05,1.9091e-06,19.078,1.466e-06,11.015,2.1433e-13,3.3252e-06,-1.466e-06,-11.015,0.044126
13179,2.7414,3.7273,0,0.00051056,5102.1,0.00021424,-0.0087823,8.5121e-05,-970.15,-0.00052009,-5517.5,0.044536
13180,2.65,3.8182,0,0.00051349,5131.3,0.00021605,-0.0042515,8.4456e-05,-988.77,-0.00052311,-5553.8,0.041616
13181,2.7414,3.8182,0.05,1.9057e-06,19.044,1.4633e-06,10.995,-4.4957e-13,3.7948e-06,-1.4633e-06,-10.995,0.044392
13182,2.7414,3.5455,0,0.00050879,5084.4,0.00021519,-0.012443,8.1473e-05,-1004.7,-0.00051838,-5511.8,0.044718
13183,2.65,3.6364,0,0.00051149,5111.4,0.0002172,-0.0084691,8.0189e-05,-1029.4,-0.00052116,-5547.8,0.041818
13184,2.7414,3.6364,0.05,1.9032e-06,19.018,1.4614e-06,10.98,-3.6276e-13,6.3037e-06,-1.4614e-06,-10.98,0.044601
13185,2.7414,3.3636,0,0.00050755,5072,0.00021588,-0.014756,7.8859e-05,-1029.5,-0.00051716,-5507.8,0.044847
13186,2.65,3.4545,0,0.00051003,5096.8,0.00021807,-0.01117,7.6984e-05,-1060,-0.00051972,-5543.5,0.041967
13187,2.7414,3.4545,0.05,1.9015e-06,19.002,1.4601e-06,10.971,-8.0689e-13,8.2575e-06,-1.4601e-06,-10.971,0.044756
13188,2.7414,3.1818,0,0.00050681,5064.6,0.00021629,-0.016025,7.7288e-05,-1044.5,-0.00051643,-5505.4,0.044923
13189,2.65,3.2727,0,0.00050908,5087.2,0.00021865,-0.012755,7.4845e-05,-1080.5,-0.00051877,-5540.7,0.042065
13190,2.7414,3.2727,0.05,1.9006e-06,18.993,1.4594e-06,10.965,-1.8958e-13,-1.1359e-06,-1.4594e-06,-10.965,0.044858
13191,2.7414,3,0,0.00050657,5062.2,0.00021643,-0.016428,7.6764e-05,-1049.4,-0.00051619,-5504.7,0.044948
13192,2.65,3.0909,0,0.0005086,5082.5,0.00021894,-0.013485,7.3776e-05,-1090.7,-0.0005183,-5539.4,0.042114
13193,2.7414,3.0909,0.05,1.9002e-06,18.989,1.4591e-06,10.963,-1.8567e-12,-3.8191e-07,-1.4591e-06,-10.963,0.044909
13194,2.7414,2.8182,0,0.00050681,5064.6,0.00021629,-0.016025,7.7288e-05,-1044.5,-0.00051643,-5505.4,0.044923
13195,2.65,2.9091,0,0.0005086,5082.5,0.00021894,-0.013484,7.3776e-05,-1090.7,-0.0005183,-5539.4,0.042114
13196,2.7414,2.9091,0.05,1.9002e-06,18.989,1.4591e-06,10.963,-1.752e-12,3.8191e-07,-1.4591e-06,-10.963,0.044909
13197,2.7414,2.6364,0,0.00050755,5072,0.00021588,-0.014756,7.8859e-05,-1029.5,-0.00051716,-5507.8,0.044847
13198,2.65,2.7273,0,0.00050908,5087.2,0.00021865,-0.012755,7.4845e-05,-1080.5,-0.00051877,-5540.7,0.042065
13199,2.7414,2.7273,0.05,1.9006e-06,18.993,1.4594e-06,10.965,1.625e-13,1.3631e-06,-1.4594e-06,-10.965,0.044858
13200,2.7414,2.4545,0,0.00050879,5084.4,0.00021519,-0.012442,8.1473e-05,-1004.7,-0.00051838,-5511.8,0.044718
13201,2.65,2.5455,0,0.00051003,5096.8,0.00021807,-0.01117,7.6984e-05,-1060,-0.00051972,-5543.5,0.041967
13202,2.7414,2.5455,0.05,1.9015e-06,19.002,1.4601e-06,10.971,-8.5969e-13,6.6983e-06,-1.4601e-06,-10.971,0.044756
13203,2.7414,2.2727,0,0.00051056,5102.1,0.00021424,-0.0087821,8.5121e-05,-970.15,-0.00052009,-5517.5,0.044536
13204,2.65,2.3636,0,0.00051149,5111.4,0.0002172,-0.008469,8.0189e-05,-1029.4,-0.00052116,-5547.8,0.041818
13205,2.7414,2.3636,0.05,1.9032e-06,19.018,1.4614e-06,10.98,-1.7206e-12,1.1375e-05,-1.4614e-06,-10.98,0.044601
13206,2.7414,2.0909,0,0.00051288,5125.2,0.00021303,-0.003344,8.9789e-05,-926.02,-0.00052231,-5525.1,0.044299
13207,2.65,2.1818,0,0.00051349,5131.3,0.00021605,-0.0042513,8.4456e-05,-988.77,-0.00052311,-5553.8,0.041616
13208,2.7414,2.1818,0.05,1.9057e-06,19.044,1.4633e-06,10.995,-3.4718e-13,1.1337e-05,-1.4633e-06,-10.995,0.044392
13209,2.7414,1.9091,0,0.00051577,5154.2,0.00021159,0.0044381,9.545e-05,-872.64,-0.00052504,-5534.8,0.044003
13210,2.65,2,0,0.00051605,5156.9,0.00021465,0.0020309,8.9768e-05,-938.28,-0.00052556,-5561.7,0.041359
13211,2.7414,2,0.05,1.9091e-06,19.078,1.466e-06,11.015,-2.2906e-13,1.3916e-05,-1.466e-06,-11.015,0.044126
13212,2.7414,1.7273,0,0.00051927,5189.1,0.00020993,0.015269,0.00010207,-810.42,-0.00052828,-5546.6,0.043645
13213,2.65,1.8182,0,0.00051921,5188.6,0.000213,0.011093,9.6102e-05,-878.28,-0.00052855,-5571.6,0.041044
13214,2.7414,1.8182,0.05,1.9133e-06,19.119,1.4691e-06,11.039,1.4627e-12,1.4783e-05,-1.4691e-06,-11.039,0.043799
13215,2.7414,1.5455,0,0.00052338,5230.2,0.00020807,0.030059,0.00010958,-739.99,-0.00053202,-5560.8,0.043221
13216,2.65,1.6364,0,0.00052301,5226.5,0.00021112,0.02381,0.00010341,-809.25,-0.00053205,-5583.9,0.040666
13217,2.7414,1.6364,0.05,1.9174e-06,19.161,1.4723e-06,11.062,-8.3945e-13,1.8782e-05,-1.4723e-06,-11.062,0.043409
13218,2.7414,1.3636,0,0.00052811,5277.4,0.00020605,0.049834,0.00011792,-662.11,-0.00053624,-5577.2,0.042727
13219,2.65,1.4545,0,0.00052746,5270.9,0.00020905,0.041378,0.00011164,-731.86,-0.00053608,-5598.6,0.040223
13220,2.7414,1.4545,0.05,1.9204e-06,19.191,1.4746e-06,11.08,-1.2697e-12,3.6904e-06,-1.4746e-06,-11.08,0.04295
13221,2.7414,1.1818,0,0.00053344,5330.7,0.00020388,0.076574,0.00012698,-577.75,-0.00054091,-5596,0.042157
13222,2.65,1.2727,0,0.00053256,5321.9,0.00020682,0.064966,0.0001207,-647.01,-0.0005406,-5615.8,0.039707
13223,2.7414,1.2727,0.05,1.9207e-06,19.194,1.4748e-06,11.081,1.6354e-12,3.7835e-06,-1.4748e-06,-11.081,0.042419
13224,2.7414,1,0,0.00053934,5389.7,0.00020162,0.11113,0.00013665,-488.07,-0.00054598,-5617,0.041505
13225,2.65,1.0909,0,0.00053829,5379.2,0.00020446,0.097855,0.00013048,-555.81,-0.00054558,-5635.5,0.039114
13226,2.7414,1.0909,0.05,1.9163e-06,19.15,1.4715e-06,11.056,-1.3882e-12,6.4047e-05,-1.4715e-06,-11.056,0.041809
13227,2.7414,0.81818,0,0.00054575,5453.8,0.00019929,0.16539,0.00014679,-394.35,-0.00055139,-5640.2,0.040767
13228,2.65,0.90909,0,0.00054462,5442.4,0.00020202,0.13909,0.00014084,-459.56,-0.00055097,-5657.5,0.038438
13229,2.7414,0.90909,0.05,1.9055e-06,19.042,1.4632e-06,10.994,-1.2093e-12,3.3146e-05,-1.4632e-06,-10.994,0.041114
13230,2.7414,0.63636,0,0.00055261,5522.3,0.00019694,0.22255,0.00015725,-297.97,-0.00055707,-5665.2,0.039934
13231,2.65,0.72727,0,0.00055147,5510.9,0.00019953,0.2156,0.00015163,-359.73,-0.0005567,-5681.8,0.037672
13232,2.7414,0.72727,0.05,1.8868e-06,18.855,1.4488e-06,10.886,3.9367e-12,-2.309e-15,-1.4488e-06,-10.886,0.040329
13233,2.7414,0.45455,0,0.00055986,5594.7,0.00019461,0.47684,0.00016792,-200.08,-0.00056298,-5691.8,0.039
13234,2.65,0.54545,0,0.00055877,5583.8,0.00019704,0.27006,0.00016269,-257.86,-0.0005627,-5708.1,0.036809
13235,2.7414,0.54545,0.05,1.864e-06,18.627,1.4313e-06,10.754,2.7766e-12,4.1061e-05,-1.4313e-06,-10.754,0.039446
13236,2.7414,0.27273,0,0.00056771,5673.2,0.00019235,0.90314,0.00017892,-100.04,-0.00056933,-5722.1,0.037958
13237,2.65,0.36364,0,0.00056647,5660.8,0.00019463,0.78944,0.00017389,-154.99,-0.00056893,-5736.3,0.035842
13238,2.7414,0.36364,0.05,1.8965e-06,18.952,1.4563e-06,10.942,2.7409e-12,3.5673e-05,-1.4563e-06,-10.942,0.038459
13239,2.65,0.18182,0,0.00057512,5747.2,0.0001924,1.9915,0.00018556,-49.4,-0.00057591,-5770.8,0.034763
13240,2.7414,0.18182,0.05,3.2929e-06,32.906,2.5285e-06,18.998,-1.5876e-15,-4.0298e-15,-2.5285e-06,-18.998,0.03736
13241,2.7414,0.090909,0,0.00057294,5725.4,0.00019026,0.58559,0.00018711,-23.115,-0.00057332,-5736.6,0.036802
13242,2.5586,5.7273,0,0.00057386,5734.7,0.00019456,1.0438,0.00018066,-103.35,-0.00057553,-5785.1,0.032769
13243,2.4672,5.8182,0,0.00058154,5811.4,0.00019448,2.5127,0.00018778,-47.864,-0.00058229,-5833.9,0.029785
13244,2.5586,5.8182,0.05,3.5116e-06,35.091,2.6964e-06,20.26,-5.7196e-22,-3.0966e-06,-2.6964e-06,-20.26,0.032191
13245,2.5586,5.9091,0,0.00057923,5788.3,0.00019226,0.66807,0.00018931,-21.506,-0.00057958,-5798.7,0.031653
13246,2.5586,5.5455,0,0.00056537,5649.8,0.00019704,0.52892,0.00016869,-212.55,-0.00056867,-5752.8,0.033771
13247,2.4672,5.6364,0,0.00057212,5717.2,0.00019689,0.87852,0.00017507,-163.11,-0.0005747,-5796.6,0.030821
13248,2.5586,5.6364,0.05,1.9843e-06,19.83,1.5237e-06,11.449,-3.2321e-22,-3.6631e-06,-1.5237e-06,-11.449,0.03325
13249,2.5586,5.3636,0,0.00055761,5572.3,0.00019963,0.24693,0.00015708,-319.44,-0.00056235,-5725,0.034665
13250,2.4672,5.4545,0,0.00056385,5634.6,0.00019957,0.3019,0.00016287,-275.48,-0.00056803,-5767.2,0.031746
13251,2.5586,5.4545,0.05,1.9591e-06,19.577,1.5043e-06,11.303,-8.5604e-13,-2.3975e-15,-1.5043e-06,-11.303,0.034197
13252,2.5586,5.1818,0,0.00055032,5499.4,0.00020225,0.18206,0.0001457,-424.77,-0.00055631,-5699.3,0.035458
13253,2.4672,5.2727,0,0.00055607,5556.9,0.00020236,0.23805,0.00015083,-386.92,-0.00056164,-5740.1,0.032568
13254,2.5586,5.2727,0.05,1.9884e-06,19.87,1.5268e-06,11.472,-3.2387e-22,-2.4334e-15,-1.5268e-06,-11.472,0.03504
13255,2.5586,5,0,0.00054355,5431.8,0.00020486,0.12179,0.00013468,-527.17,-0.00055059,-5676.1,0.036159
13256,2.4672,5.0909,0,0.00054883,5484.5,0.00020514,0.15281,0.00013909,-496.15,-0.00055558,-5715.6,0.033293
13257,2.5586,5.0909,0.05,2.0113e-06,20.099,1.5444e-06,11.604,-3.2759e-22,-2.4614e-15,-1.5444e-06,-11.604,0.035787
13258,2.5586,4.8182,0,0.00053739,5370.2,0.0002074,0.083702,0.00012421,-624.98,-0.00054528,-5655.3,0.036774
13259,2.4672,4.9091,0,0.00054221,5418.4,0.00020789,0.10699,0.00012785,-601.29,-0.00054993,-5693.9,0.033931
13260,2.5586,4.9091,0.05,2.0243e-06,20.229,1.5544e-06,11.679,3.0045e-12,-3.8039e-06,-1.5544e-06,-11.679,0.036444
13261,2.5586,4.6364,0,0.00053189,5315.2,0.00020983,0.054746,0.00011443,-716.73,-0.00054044,-5637.2,0.037311
13262,2.4672,4.7273,0,0.00053629,5359.2,0.00021055,0.071097,0.00011729,-700.63,-0.00054476,-5675,0.034487
13263,2.5586,4.7273,0.05,2.0295e-06,20.281,1.5584e-06,11.709,3.4468e-12,2.5104e-05,-1.5584e-06,-11.709,0.037019
13264,2.5586,4.4545,0,0.00052707,5267.1,0.0002121,0.033826,0.00010547,-801.13,-0.00053611,-5621.7,0.037774
13265,2.4672,4.5455,0,0.0005311,5307.3,0.00021306,0.04594,0.00010755,-792.68,-0.00054012,-5659.1,0.034969
13266,2.5586,4.5455,0.05,2.0297e-06,20.283,1.5585e-06,11.71,-3.3059e-22,-3.7433e-06,-1.5585e-06,-11.71,0.037518
13267,2.5586,4.2727,0,0.00052294,5225.8,0.00021419,0.018624,9.7442e-05,-877.16,-0.00053231,-5608.8,0.03817
13268,2.4672,4.3636,0,0.00052665,5262.8,0.00021538,0.027749,9.8759e-05,-876.24,-0.00053605,-5646,0.035382
13269,2.5586,4.3636,0.05,2.0272e-06,20.258,1.5567e-06,11.696,-3.3019e-22,-2.4809e-15,-1.5567e-06,-11.696,0.037947
13270,2.5586,4.0909,0,0.00051948,5191.2,0.00021605,0.0078725,9.0407e-05,-944.02,-0.00052905,-5598.4,0.038503
13271,2.4672,4.1818,0,0.00052291,5225.5,0.00021749,0.015054,9.099e-05,-950.42,-0.00053255,-5635.4,0.035732
13272,2.5586,4.1818,0.05,2.0241e-06,20.227,1.5543e-06,11.678,1.2081e-12,-2.4771e-15,-1.5543e-06,-11.678,0.038311
13273,2.5586,3.9091,0,0.00051665,5162.9,0.00021766,0.00044723,8.4417e-05,-1001.2,-0.00052634,-5590.2,0.038778
13274,2.4672,4,0,0.00051984,5194.9,0.00021933,0.0063852,8.4302e-05,-1014.6,-0.00052961,-5627.3,0.036023
13275,2.5586,4,0.05,2.0215e-06,20.201,1.5523e-06,11.663,-3.5744e-13,-2.9984e-06,-1.5523e-06,-11.663,0.038614
13276,2.5586,3.7273,0,0.00051441,5140.5,0.00021901,-0.0045185,7.9501e-05,-1048.2,-0.00052416,-5583.9,0.038998
13277,2.4672,3.8182,0,0.0005174,5170.5,0.0002209,0.00066454,7.8722e-05,-1068.3,-0.00052723,-5621.2,0.03626
13278,2.5586,3.8182,0.05,2.0199e-06,20.185,1.551e-06,11.654,-3.0032e-13,-2.5706e-06,-1.551e-06,-11.654,0.038861
13279,2.5586,3.5455,0,0.00051272,5123.7,0.00022007,-0.0077101,7.5675e-05,-1084.9,-0.00052249,-5579.3,0.039166
13280,2.4672,3.6364,0,0.00051553,5151.7,0.00022218,-0.0029715,7.4264e-05,-1111.4,-0.00052536,-5616.7,0.036446
13281,2.5586,3.6364,0.05,2.0193e-06,20.179,1.5506e-06,11.651,-2.1671e-12,-3.1074e-06,-1.5506e-06,-11.651,0.039055
13282,2.5586,3.3636,0,0.00051155,5112,0.00022084,-0.0096394,7.2942e-05,-1111.2,-0.00052131,-5576.2,0.039284
13283,2.4672,3.4545,0,0.00051417,5138.2,0.00022315,-0.0051693,7.0928e-05,-1143.7,-0.00052399,-5613.7,0.036582
13284,2.5586,3.4545,0.05,2.0195e-06,20.181,1.5507e-06,11.651,-6.1539e-14,6.2199e-07,-1.5507e-06,-11.651,0.039198
13285,2.5586,3.1818,0,0.00051086,5105.1,0.0002213,-0.01066,7.1303e-05,-1127,-0.00052061,-5574.4,0.039355
13286,2.4672,3.2727,0,0.0005133,5129.4,0.0002238,-0.0063915,6.8709e-05,-1165.3,-0.00052309,-5611.8,0.036673
13287,2.5586,3.2727,0.05,2.0199e-06,20.185,1.551e-06,11.654,-2.6894e-12,-4.7651e-07,-1.551e-06,-11.654,0.039292
13288,2.5586,3,0,0.00051063,5102.8,0.00022145,-0.010978,7.0757e-05,-1132.3,-0.00052038,-5573.8,0.039378
13289,2.4672,3.0909,0,0.00051287,5125.1,0.00022412,-0.0069314,6.7602e-05,-1176.1,-0.00052264,-5610.9,0.036717
13290,2.5586,3.0909,0.05,2.0202e-06,20.188,1.5512e-06,11.655,-1.8669e-12,-2.8711e-07,-1.5512e-06,-11.655,0.039339
13291,2.5586,2.8182,0,0.00051086,5105.1,0.0002213,-0.01066,7.1303e-05,-1127,-0.00052061,-5574.4,0.039355
13292,2.4672,2.9091,0,0.00051287,5125.1,0.00022412,-0.0069313,6.7602e-05,-1176.1,-0.00052264,-5610.9,0.036717
13293,2.5586,2.9091,0.05,2.0202e-06,20.188,1.5512e-06,11.655,-1.7627e-12,4.9018e-07,-1.5512e-06,-11.655,0.039339
13294,2.5586,2.6364,0,0.00051155,5112,0.00022084,-0.0096393,7.2942e-05,-1111.2,-0.00052131,-5576.2,0.039284
13295,2.4672,2.7273,0,0.0005133,5129.4,0.0002238,-0.0063914,6.8709e-05,-1165.3,-0.00052309,-5611.8,0.036673
13296,2.5586,2.7273,0.05,2.0199e-06,20.185,1.551e-06,11.654,-2.4687e-12,2.0684e-06,-1.551e-06,-11.654,0.039292
13297,2.5586,2.4545,0,0.00051272,5123.7,0.00022007,-0.00771,7.5675e-05,-1084.9,-0.00052249,-5579.3,0.039166
13298,2.4672,2.5455,0,0.00051417,5138.2,0.00022315,-0.0051692,7.0928e-05,-1143.7,-0.00052399,-5613.7,0.036582
13299,2.5586,2.5455,0.05,2.0195e-06,20.181,1.5507e-06,11.651,6.6212e-13,4.0366e-06,-1.5507e-06,-11.651,0.039198
13300,2.5586,2.2727,0,0.00051441,5140.5,0.00021901,-0.0045183,7.9501e-05,-1048.2,-0.00052416,-5583.9,0.038998
13301,2.4672,2.3636,0,0.00051553,5151.7,0.00022218,-0.0029713,7.4264e-05,-1111.4,-0.00052536,-5616.7,0.036446
13302,2.5586,2.3636,0.05,2.0193e-06,20.179,1.5506e-06,11.651,-1.5562e-12,1.0358e-06,-1.5506e-06,-11.651,0.039055
13303,2.5586,2.0909,0,0.00051665,5162.9,0.00021766,0.00044753,8.4417e-05,-1001.2,-0.00052634,-5590.2,0.038778
13304,2.4672,2.1818,0,0.0005174,5170.5,0.0002209,0.00066477,7.8722e-05,-1068.3,-0.00052723,-5621.2,0.03626
13305,2.5586,2.1818,0.05,2.0199e-06,20.185,1.551e-06,11.654,-9.6245e-13,1.5837e-05,-1.551e-06,-11.654,0.038861
13306,2.5586,1.9091,0,0.00051948,5191.2,0.00021605,0.0078729,9.0407e-05,-944.02,-0.00052905,-5598.4,0.038503
13307,2.4672,2,0,0.00051984,5194.9,0.00021933,0.0063854,8.4302e-05,-1014.6,-0.00052961,-5627.3,0.036023
13308,2.5586,2,0.05,2.0215e-06,20.201,1.5523e-06,11.663,3.5744e-13,1.4992e-06,-1.5523e-06,-11.663,0.038614
13309,2.5586,1.7273,0,0.00052294,5225.8,0.00021419,0.018625,9.7442e-05,-877.16,-0.00053231,-5608.8,0.03817
13310,2.4672,1.8182,0,0.00052291,5225.5,0.00021749,0.015054,9.099e-05,-950.42,-0.00053255,-5635.4,0.035732
13311,2.5586,1.8182,0.05,2.0241e-06,20.227,1.5543e-06,11.678,3.0904e-12,3.4921e-05,-1.5543e-06,-11.678,0.038311
13312,2.5586,1.5455,0,0.00052707,5267.1,0.0002121,0.033826,0.00010547,-801.13,-0.00053611,-5621.7,0.037774
13313,2.4672,1.6364,0,0.00052665,5262.8,0.00021538,0.02775,9.8759e-05,-876.24,-0.00053605,-5646,0.035382
13314,2.5586,1.6364,0.05,2.0272e-06,20.258,1.5567e-06,11.696,-6.0859e-13,3.5898e-06,-1.5567e-06,-11.696,0.037947
13315,2.5586,1.3636,0,0.00053189,5315.2,0.00020983,0.054747,0.00011443,-716.73,-0.00054044,-5637.2,0.037311
13316,2.4672,1.4545,0,0.0005311,5307.3,0.00021306,0.04594,0.00010755,-792.68,-0.00054012,-5659.1,0.034969
13317,2.5586,1.4545,0.05,2.0297e-06,20.283,1.5585e-06,11.71,-1.0846e-12,3.7433e-06,-1.5585e-06,-11.71,0.037518
13318,2.5586,1.1818,0,0.00053739,5370.2,0.0002074,0.083702,0.00012421,-624.98,-0.00054528,-5655.3,0.036774
13319,2.4672,1.2727,0,0.00053629,5359.2,0.00021055,0.071097,0.00011729,-700.63,-0.00054476,-5675,0.034487
13320,2.5586,1.2727,0.05,2.0295e-06,20.281,1.5584e-06,11.709,2.9436e-12,6.1637e-05,-1.5584e-06,-11.709,0.037019
13321,2.5586,1,0,0.00054355,5431.8,0.00020486,0.12179,0.00013468,-527.17,-0.00055059,-5676.1,0.036159
13322,2.4672,1.0909,0,0.00054221,5418.4,0.00020789,0.10699,0.00012785,-601.29,-0.00054993,-5693.9,0.033931
13323,2.5586,1.0909,0.05,2.0243e-06,20.229,1.5544e-06,11.679,8.7298e-12,6.9427e-05,-1.5544e-06,-11.679,0.036444
13324,2.5586,0.81818,0,0.00055032,5499.4,0.00020225,0.18207,0.0001457,-424.77,-0.00055631,-5699.3,0.035458
13325,2.4672,0.90909,0,0.00054883,5484.5,0.00020514,0.15281,0.00013909,-496.15,-0.00055558,-5715.6,0.033293
13326,2.5586,0.90909,0.05,2.0113e-06,20.099,1.5444e-06,11.604,-1.4812e-12,3.6185e-05,-1.5444e-06,-11.604,0.035787
13327,2.5586,0.63636,0,0.00055761,5572.3,0.00019963,0.24693,0.00015708,-319.44,-0.00056235,-5725,0.034665
13328,2.4672,0.72727,0,0.00055607,5556.9,0.00020236,0.23805,0.00015083,-386.92,-0.00056164,-5740.1,0.032568
13329,2.5586,0.72727,0.05,1.9884e-06,19.87,1.5268e-06,11.472,2.6634e-12,7.785e-05,-1.5268e-06,-11.472,0.03504
13330,2.5586,0.45455,0,0.00056537,5649.8,0.00019704,0.52892,0.00016869,-212.55,-0.00056867,-5752.8,0.033771
13331,2.4672,0.54545,0,0.00056385,5634.6,0.00019957,0.3019,0.00016287,-275.48,-0.00056803,-5767.2,0.031746
13332,2.5586,0.54545,0.05,1.9591e-06,19.577,1.5043e-06,11.303,3.6623e-12,0.00012248,-1.5043e-06,-11.303,0.034197
13333,2.5586,0.27273,0,0.00057386,5734.7,0.00019456,1.0438,0.00018066,-103.35,-0.00057553,-5785.1,0.032769
13334,2.4672,0.36364,0,0.00057212,5717.2,0.00019689,0.87852,0.00017507,-163.11,-0.0005747,-5796.6,0.030821
13335,2.5586,0.36364,0.05,1.9843e-06,19.83,1.5237e-06,11.449,3.9975e-12,3.9034e-05,-1.5237e-06,-11.449,0.03325
13336,2.4672,0.18182,0,0.00058154,5811.4,0.00019448,2.5127,0.00018778,-47.864,-0.00058229,-5833.9,0.029785
13337,2.5586,0.18182,0.05,3.5116e-06,35.091,2.6964e-06,20.26,-1.8358e-21,1.2695e-05,-2.6965e-06,-20.26,0.032191
13338,2.5586,0.090909,0,0.00057923,5788.3,0.00019226,0.66808,0.00018931,-21.506,-0.00057958,-5798.7,0.031653
13339,2.3759,5.7273,0,0.00057978,5793.8,0.00019667,1.2141,0.00018236,-106.3,-0.00058149,-5845.6,0.027961
13340,2.2845,5.8182,0,0.00058771,5873.1,0.00019646,3.2388,0.00018998,-45.485,-0.00058841,-5894,0.025191
13341,2.3759,5.8182,0.05,3.7354e-06,37.328,2.8683e-06,21.551,-6.0841e-22,7.454e-07,-2.8683e-06,-21.551,0.027405
13342,2.3759,5.9091,0,0.00058526,5848.5,0.00019415,0.78061,0.00019149,-19.219,-0.00058557,-5857.7,0.026889
13343,2.3759,5.5455,0,0.00057059,5701.9,0.00019942,0.58801,0.00016929,-225.77,-0.00057408,-5811.2,0.028918
13344,2.2845,5.6364,0,0.00057744,5770.4,0.00019907,0.98064,0.00017611,-171.47,-0.00058014,-5853.7,0.026181
13345,2.3759,5.6364,0.05,2.0831e-06,20.816,1.5995e-06,12.018,-3.3929e-22,-2.5493e-15,-1.5995e-06,-12.018,0.028419
13346,2.3759,5.3636,0,0.0005623,5619.1,0.0002023,0.27438,0.00015664,-342.76,-0.00056734,-5782.5,0.029767
13347,2.2845,5.4545,0,0.00056857,5681.7,0.00020206,0.3381,0.00016281,-294.56,-0.000573,-5823.1,0.027059
13348,2.3759,5.4545,0.05,2.0695e-06,20.68,1.5891e-06,11.94,-3.3707e-22,-6.7849e-06,-1.5891e-06,-11.94,0.029322
13349,2.3759,5.1818,0,0.00055456,5541.8,0.00020524,0.20052,0.00014425,-458.12,-0.00056093,-5756.5,0.030518
13350,2.2845,5.2727,0,0.00056029,5599.1,0.00020518,0.26291,0.00014967,-416.81,-0.00056621,-5795.7,0.027834
13351,2.3759,5.2727,0.05,2.1066e-06,21.051,1.6176e-06,12.154,-8.3813e-13,-3.5154e-06,-1.6176e-06,-12.154,0.030121
13352,2.3759,5,0,0.00054747,5470.9,0.00020818,0.13342,0.00013228,-570.14,-0.00055493,-5733.5,0.031177
13353,2.2845,5.0909,0,0.00055267,5522.9,0.00020833,0.16765,0.00013689,-536.55,-0.00055984,-5771.5,0.028516
13354,2.3759,5.0909,0.05,2.1337e-06,21.322,1.6384e-06,12.31,-8.7077e-13,-3.6523e-06,-1.6384e-06,-12.31,0.030825
13355,2.3759,4.8182,0,0.00054109,5407.2,0.00021104,0.091475,0.00012095,-676.86,-0.00054941,-5713.7,0.031753
13356,2.2845,4.9091,0,0.00054581,5454.3,0.00021143,0.11669,0.00012471,-651.51,-0.00055396,-5750.8,0.029111
13357,2.3759,4.9091,0.05,2.1483e-06,21.468,1.6496e-06,12.395,-3.4991e-22,-3.7621e-06,-1.6496e-06,-12.395,0.031442
13358,2.3759,4.6364,0,0.00053548,5351.1,0.00021378,0.060277,0.00011042,-776.56,-0.00054445,-5696.9,0.032253
13359,2.2845,4.7273,0,0.00053978,5394,0.00021443,0.077648,0.00011332,-759.66,-0.00054867,-5733.6,0.029628
13360,2.3759,4.7273,0.05,2.1537e-06,21.523,1.6538e-06,12.426,-3.508e-22,2.7396e-05,-1.6538e-06,-12.426,0.031979
13361,2.3759,4.4545,0,0.00053066,5302.9,0.00021634,0.038383,0.00010083,-867.82,-0.00054006,-5683.3,0.032682
13362,2.2845,4.5455,0,0.00053459,5342.2,0.00021727,0.051066,0.00010289,-859.33,-0.000544,-5719.8,0.030073
13363,2.3759,4.5455,0.05,2.1539e-06,21.524,1.6539e-06,12.427,-9.0135e-13,-2.6359e-15,-1.6539e-06,-12.427,0.032443
13364,2.3759,4.2727,0,0.0005266,5262.3,0.00021868,0.023039,9.2296e-05,-949.59,-0.00053628,-5672.5,0.033048
13365,2.2845,4.3636,0,0.00053024,5298.7,0.00021988,0.032539,9.3541e-05,-949.25,-0.00053996,-5709.1,0.030453
13366,2.3759,4.3636,0.05,2.1519e-06,21.504,1.6524e-06,12.415,-4.3449e-13,1.4221e-05,-1.6524e-06,-12.415,0.03284
13367,2.3759,4.0909,0,0.00052326,5229,0.00022077,0.012656,8.4868e-05,-1021.1,-0.00053309,-5664.2,0.033355
13368,2.2845,4.1818,0,0.00052666,5263,0.00022224,0.02019,8.5348e-05,-1028.5,-0.00053656,-5701.3,0.030774
13369,2.3759,4.1818,0.05,2.1501e-06,21.486,1.651e-06,12.405,-1.2159e-12,2.1445e-06,-1.651e-06,-12.405,0.033175
13370,2.3759,3.9091,0,0.00052058,5202.3,0.00022257,0.0058529,7.8584e-05,-1081.9,-0.00053048,-5658.1,0.033607
13371,2.2845,4,0,0.0005238,5234.4,0.00022431,0.012212,7.8348e-05,-1096.7,-0.00053376,-5695.9,0.03104
13372,2.3759,4,0.05,2.1495e-06,21.48,1.6505e-06,12.401,-1.4551e-12,6.0977e-06,-1.6505e-06,-12.401,0.033454
13373,2.3759,3.7273,0,0.00051851,5181.5,0.00022408,0.0015747,7.3458e-05,-1131.7,-0.0005284,-5653.8,0.033808
13374,2.2845,3.8182,0,0.00052158,5212.2,0.00022607,0.0072918,7.2551e-05,-1153.4,-0.00053153,-5692.3,0.031255
13375,2.3759,3.8182,0.05,2.1504e-06,21.489,1.6512e-06,12.407,-9.4188e-13,6.9677e-06,-1.6512e-06,-12.407,0.03368
13376,2.3759,3.5455,0,0.00051697,5166.1,0.00022526,-0.00098923,6.9488e-05,-1170.4,-0.00052683,-5650.9,0.033962
13377,2.2845,3.6364,0,0.00051991,5195.5,0.00022749,0.0044106,6.7947e-05,-1198.7,-0.00052981,-5690,0.031424
13378,2.3759,3.6364,0.05,2.1524e-06,21.509,1.6528e-06,12.419,-1.0847e-12,1.8898e-06,-1.6528e-06,-12.418,0.033857
13379,2.3759,3.3636,0,0.00051591,5155.6,0.00022611,-0.0024285,6.6664e-05,-1198,-0.00052574,-5649.1,0.03407
13380,2.2845,3.4545,0,0.00051872,5183.6,0.00022856,0.0028302,6.4519e-05,-1232.6,-0.00052857,-5688.8,0.031548
13381,2.3759,3.4545,0.05,2.1549e-06,21.534,1.6547e-06,12.433,-7.4659e-13,2.7676e-07,-1.6547e-06,-12.433,0.033988
13382,2.3759,3.1818,0,0.00051529,5149.4,0.00022662,-0.0031407,6.4975e-05,-1214.6,-0.00052509,-5648.1,0.034134
13383,2.2845,3.2727,0,0.00051796,5176,0.00022928,0.0020383,6.2248e-05,-1255,-0.00052776,-5688.2,0.03163
13384,2.3759,3.2727,0.05,2.157e-06,21.555,1.6563e-06,12.445,-1.3921e-13,-9.3419e-07,-1.6563e-06,-12.445,0.034074
13385,2.3759,3,0,0.00051509,5147.4,0.0002268,-0.0033535,6.4413e-05,-1220.1,-0.00052488,-5647.8,0.034155
13386,2.2845,3.0909,0,0.00051759,5172.4,0.00022965,0.0017181,6.1117e-05,-1266.3,-0.00052737,-5687.9,0.03167
13387,2.3759,3.0909,0.05,2.1582e-06,21.567,1.6572e-06,12.452,-1.8673e-12,-2.8867e-07,-1.6572e-06,-12.452,0.034116
13388,2.3759,2.8182,0,0.00051529,5149.4,0.00022662,-0.0031407,6.4975e-05,-1214.6,-0.00052509,-5648.1,0.034134
13389,2.2845,2.9091,0,0.00051759,5172.4,0.00022965,0.0017182,6.1117e-05,-1266.3,-0.00052737,-5687.9,0.03167
13390,2.3759,2.9091,0.05,2.1582e-06,21.567,1.6572e-06,12.452,-1.7645e-12,4.952e-07,-1.6572e-06,-12.452,0.034116
13391,2.3759,2.6364,0,0.00051591,5155.6,0.00022611,-0.0024284,6.6664e-05,-1198,-0.00052574,-5649.1,0.03407
13392,2.2845,2.7273,0,0.00051796,5176,0.00022928,0.0020384,6.2248e-05,-1255,-0.00052776,-5688.2,0.03163
13393,2.3759,2.7273,0.05,2.157e-06,21.555,1.6563e-06,12.445,1.6705e-13,1.4013e-06,-1.6563e-06,-12.445,0.034074
13394,2.3759,2.4545,0,0.00051697,5166.1,0.00022526,-0.00098907,6.9488e-05,-1170.4,-0.00052683,-5650.9,0.033962
13395,2.2845,2.5455,0,0.00051872,5183.6,0.00022856,0.0028303,6.4519e-05,-1232.6,-0.00052857,-5688.8,0.031548
13396,2.3759,2.5455,0.05,2.1549e-06,21.534,1.6547e-06,12.433,-3.8068e-13,4.1137e-06,-1.6547e-06,-12.433,0.033988
13397,2.3759,2.2727,0,0.00051851,5181.5,0.00022408,0.001575,7.3458e-05,-1131.7,-0.0005284,-5653.8,0.033808
13398,2.2845,2.3636,0,0.00051991,5195.5,0.00022749,0.0044108,6.7947e-05,-1198.7,-0.00052981,-5690,0.031424
13399,2.3759,2.3636,0.05,2.1524e-06,21.509,1.6528e-06,12.419,-5.8408e-13,7.1394e-06,-1.6528e-06,-12.418,0.033857
13400,2.3759,2.0909,0,0.00052058,5202.3,0.00022257,0.0058531,7.8584e-05,-1081.9,-0.00053048,-5658.1,0.033607
13401,2.2845,2.1818,0,0.00052158,5212.2,0.00022607,0.007292,7.2551e-05,-1153.4,-0.00053153,-5692.3,0.031255
13402,2.3759,2.1818,0.05,2.1504e-06,21.489,1.6512e-06,12.407,-2.748e-13,1.0885e-05,-1.6512e-06,-12.407,0.03368
13403,2.3759,1.9091,0,0.00052326,5229,0.00022077,0.012657,8.4868e-05,-1021.1,-0.00053309,-5664.2,0.033355
13404,2.2845,2,0,0.0005238,5234.4,0.00022431,0.012212,7.8348e-05,-1096.7,-0.00053376,-5695.9,0.03104
13405,2.3759,2,0.05,2.1495e-06,21.48,1.6505e-06,12.401,-2.1834e-12,1.5251e-05,-1.6505e-06,-12.401,0.033454
13406,2.3759,1.7273,0,0.0005266,5262.3,0.00021868,0.023039,9.2296e-05,-949.59,-0.00053628,-5672.5,0.033048
13407,2.2845,1.8182,0,0.00052666,5263,0.00022224,0.02019,8.5348e-05,-1028.5,-0.00053656,-5701.3,0.030774
13408,2.3759,1.8182,0.05,2.1501e-06,21.486,1.651e-06,12.405,5.6049e-13,3.4e-06,-1.651e-06,-12.405,0.033175
13409,2.3759,1.5455,0,0.00053066,5302.9,0.00021634,0.038383,0.00010083,-867.82,-0.00054006,-5683.3,0.032682
13410,2.2845,1.6364,0,0.00053024,5298.7,0.00021988,0.03254,9.3541e-05,-949.25,-0.00053996,-5709.1,0.030453
13411,2.3759,1.6364,0.05,2.1519e-06,21.504,1.6524e-06,12.415,2.9988e-12,5.0311e-05,-1.6524e-06,-12.415,0.03284
13412,2.3759,1.3636,0,0.00053548,5351.1,0.00021378,0.060278,0.00011042,-776.56,-0.00054445,-5696.9,0.032253
13413,2.2845,1.4545,0,0.00053459,5342.2,0.00021727,0.051067,0.00010289,-859.33,-0.000544,-5719.8,0.030073
13414,2.3759,1.4545,0.05,2.1539e-06,21.524,1.6539e-06,12.427,-6.4503e-13,5.2886e-05,-1.6539e-06,-12.427,0.032443
13415,2.3759,1.1818,0,0.00054109,5407.2,0.00021104,0.091476,0.00012095,-676.86,-0.00054941,-5713.7,0.031753
13416,2.2845,1.2727,0,0.00053978,5394,0.00021443,0.077649,0.00011332,-759.66,-0.00054867,-5733.6,0.029628
13417,2.3759,1.2727,0.05,2.1537e-06,21.523,1.6538e-06,12.426,-4.4444e-13,3.5023e-05,-1.6538e-06,-12.426,0.031979
13418,2.3759,1,0,0.00054747,5470.9,0.00020818,0.13342,0.00013228,-570.14,-0.00055493,-5733.5,0.031177
13419,2.2845,1.0909,0,0.00054581,5454.3,0.00021143,0.11669,0.00012471,-651.51,-0.00055396,-5750.8,0.029111
13420,2.3759,1.0909,0.05,2.1483e-06,21.468,1.6496e-06,12.395,2.4493e-12,3.7621e-06,-1.6496e-06,-12.395,0.031442
13421,2.3759,0.81818,0,0.00055456,5541.8,0.00020524,0.20052,0.00014425,-458.12,-0.00056093,-5756.5,0.030518
13422,2.2845,0.90909,0,0.00055267,5522.9,0.00020833,0.16765,0.00013689,-536.55,-0.00055984,-5771.5,0.028516
13423,2.3759,0.90909,0.05,2.1337e-06,21.322,1.6384e-06,12.31,4.6882e-12,3.9327e-05,-1.6384e-06,-12.31,0.030825
13424,2.3759,0.63636,0,0.0005623,5619.1,0.0002023,0.27438,0.00015664,-342.76,-0.00056734,-5782.5,0.029767
13425,2.2845,0.72727,0,0.00056029,5599.1,0.00020518,0.26291,0.00014967,-416.81,-0.00056621,-5795.7,0.027834
13426,2.3759,0.72727,0.05,2.1066e-06,21.051,1.6176e-06,12.154,-5.5634e-13,4.2367e-05,-1.6176e-06,-12.154,0.030121
13427,2.3759,0.45455,0,0.00057059,5701.9,0.00019942,0.58801,0.00016929,-225.77,-0.00057408,-5811.2,0.028918
13428,2.2845,0.54545,0,0.00056857,5681.7,0.00020206,0.3381,0.00016281,-294.56,-0.000573,-5823.1,0.027059
13429,2.3759,0.54545,0.05,2.0695e-06,20.68,1.5891e-06,11.94,-9.8718e-13,8.8946e-05,-1.5891e-06,-11.94,0.029322
13430,2.3759,0.27273,0,0.00057978,5793.8,0.00019667,1.2141,0.00018236,-106.3,-0.00058149,-5845.6,0.027961
13431,2.2845,0.36364,0,0.00057744,5770.4,0.00019907,0.98064,0.00017611,-171.47,-0.00058014,-5853.7,0.026181
13432,2.3759,0.36364,0.05,2.0831e-06,20.816,1.5995e-06,12.018,5.3737e-12,-2.5493e-15,-1.5995e-06,-12.018,0.028419
13433,2.2845,0.18182,0,0.00058771,5873.1,0.00019646,3.2388,0.00018998,-45.485,-0.00058841,-5894,0.025191
13434,2.3759,0.18182,0.05,3.7354e-06,37.328,2.8683e-06,21.551,1.6728e-13,1.333e-05,-2.8683e-06,-21.551,0.027405
13435,2.3759,0.090909,0,0.00058526,5848.5,0.00019415,0.78061,0.00019149,-19.219,-0.00058557,-5857.7,0.026889
13436,2.1931,5.7273,0,0.00058535,5849.4,0.00019865,1.4221,0.00018397,-108.86,-0.00058709,-5902.4,0.023536
13437,2.1017,5.8182,0,0.0005935,5930.9,0.0001983,4.2875,0.00019211,-42.196,-0.00059413,-5949.7,0.020986
13438,2.1931,5.8182,0.05,3.9616e-06,39.588,3.042e-06,22.856,-6.4525e-22,-4.8482e-15,-3.042e-06,-22.856,0.023005
13439,2.1931,5.9091,0,0.00059091,5905,0.00019588,0.94959,0.0001936,-16.146,-0.00059116,-5912.6,0.022513
13440,2.1931,5.5455,0,0.0005754,5750,0.0002017,0.65509,0.00016967,-239.96,-0.00057909,-5865.9,0.024444
13441,2.1017,5.6364,0,0.00058228,5818.7,0.0002011,1.099,0.00017697,-180.21,-0.00058511,-5906.2,0.021923
13442,2.1931,5.6364,0.05,2.1971e-06,21.956,1.6871e-06,12.676,-3.5786e-22,-2.6888e-15,-1.6871e-06,-12.676,0.023969
13443,2.1931,5.3636,0,0.00056654,5661.5,0.00020493,0.305,0.00015586,-368.39,-0.0005719,-5836.5,0.025245
13444,2.1017,5.4545,0,0.00057276,5723.7,0.00020446,0.38004,0.00016241,-315.54,-0.00057747,-5874.7,0.02275
13445,2.1931,5.4545,0.05,2.2007e-06,21.991,1.6898e-06,12.697,-3.5844e-22,8.0197e-07,-1.6898e-06,-12.697,0.024823
13446,2.1931,5.1818,0,0.00055838,5579.9,0.00020826,0.22049,0.00014234,-495.06,-0.00056514,-5810.8,0.025948
13447,2.1017,5.2727,0,0.00056399,5636,0.00020799,0.29116,0.00014805,-450.1,-0.00057029,-5847.4,0.023475
13448,2.1931,5.2727,0.05,2.2464e-06,22.449,1.725e-06,12.961,-3.659e-22,-2.7492e-15,-1.725e-06,-12.961,0.025574
13449,2.1931,5,0,0.00055099,5506.1,0.00021158,0.14563,0.00012934,-617.8,-0.00055889,-5788.9,0.026562
13450,2.1017,5.0909,0,0.00055603,5556.5,0.00021156,0.18442,0.00013412,-581.68,-0.00056363,-5824.3,0.024108
13451,2.1931,5.0909,0.05,2.2771e-06,22.756,1.7486e-06,13.138,-3.709e-22,-2.7868e-15,-1.7486e-06,-13.138,0.026232
13452,2.1931,4.8182,0,0.00054447,5440.9,0.00021482,0.099513,0.00011709,-734.25,-0.00055323,-5770.7,0.027095
13453,2.1017,4.9091,0,0.000549,5486.2,0.00021509,0.12779,0.00012091,-707.49,-0.0005576,-5805.6,0.024657
13454,2.1931,4.9091,0.05,2.292e-06,22.904,1.76e-06,13.224,-8.7926e-13,-2.805e-15,-1.76e-06,-13.224,0.026805
13455,2.1931,4.6364,0,0.00053886,5384.9,0.00021792,0.066128,0.00010579,-842.44,-0.00054822,-5756.4,0.027555
13456,2.1017,4.7273,0,0.00054296,5425.9,0.00021849,0.085585,0.00010867,-825.12,-0.00055227,-5791.1,0.025131
13457,2.1931,4.7273,0.05,2.2964e-06,22.948,1.7633e-06,13.249,-2.7159e-12,-2.8103e-15,-1.7633e-06,-13.249,0.027301
13458,2.1931,4.4545,0,0.00053414,5337.7,0.00022081,0.043534,9.5587e-05,-940.82,-0.00054389,-5745.6,0.027949
13459,2.1017,4.5455,0,0.00053791,5375.4,0.0002217,0.057877,9.7556e-05,-932.72,-0.00054767,-5780.7,0.025537
13460,2.1931,4.5455,0.05,2.2956e-06,22.941,1.7628e-06,13.245,-4.9037e-13,2.4324e-05,-1.7628e-06,-13.245,0.027727
13461,2.1931,4.2727,0,0.00053028,5299.1,0.00022344,0.028401,8.6577e-05,-1028.3,-0.00054023,-5737.9,0.028282
13462,2.1017,4.3636,0,0.0005338,5334.3,0.00022465,0.039425,8.7695e-05,-1029,-0.0005438,-5773.8,0.025883
13463,2.1931,4.3636,0.05,2.2939e-06,22.923,1.7614e-06,13.234,-3.7362e-22,-2.8072e-15,-1.7614e-06,-13.234,0.028089
13464,2.1931,4.0909,0,0.00052719,5268.2,0.00022578,0.018728,7.8806e-05,-1104.3,-0.00053721,-5732.8,0.028561
13465,2.1017,4.1818,0,0.00053053,5301.7,0.0002273,0.02782,7.9139e-05,-1113.2,-0.00054063,-5769.9,0.026172
13466,2.1931,4.1818,0.05,2.2935e-06,22.92,1.7612e-06,13.233,-1.0609e-12,-3.4438e-06,-1.7612e-06,-13.233,0.028395
13467,2.1931,3.9091,0,0.00052478,5244.1,0.0002278,0.012823,7.2287e-05,-1168.5,-0.00053479,-5729.8,0.028789
13468,2.1017,4,0,0.00052801,5276.5,0.00022962,0.02085,7.1898e-05,-1185,-0.00053809,-5768.2,0.026412
13469,2.1931,4,0.05,2.2956e-06,22.94,1.7627e-06,13.244,-7.3586e-13,-2.8093e-15,-1.7627e-06,-13.244,0.028648
13470,2.1931,3.7273,0,0.00052296,5226,0.00022948,0.0094332,6.7008e-05,-1220.7,-0.00053291,-5728.3,0.028971
13471,2.1017,3.8182,0,0.00052612,5257.5,0.00023157,0.016949,6.5954e-05,-1244.4,-0.00053611,-5768.1,0.026605
13472,2.1931,3.8182,0.05,2.2997e-06,22.981,1.7659e-06,13.268,-1.0316e-12,-3.9515e-06,-1.7659e-06,-13.268,0.028852
13473,2.1931,3.5455,0,0.00052164,5212.8,0.00023079,0.0076277,6.2944e-05,-1261.1,-0.00053152,-5727.7,0.029109
13474,2.1017,3.6364,0,0.00052474,5243.8,0.00023315,0.014955,6.1271e-05,-1291.4,-0.00053464,-5768.8,0.026756
13475,2.1931,3.6364,0.05,2.305e-06,23.034,1.77e-06,13.299,-1.0852e-12,2.9869e-06,-1.77e-06,-13.299,0.029012
13476,2.1931,3.3636,0,0.00052076,5204,0.00023174,0.0067552,6.0068e-05,-1289.8,-0.00053056,-5727.6,0.029206
13477,2.1017,3.4545,0,0.0005238,5234.4,0.00023434,0.014061,5.7805e-05,-1326.4,-0.00053359,-5770,0.026866
13478,2.1931,3.4545,0.05,2.3103e-06,23.087,1.774e-06,13.329,-2.1838e-13,-1.5379e-06,-1.774e-06,-13.329,0.029129
13479,2.1931,3.1818,0,0.00052025,5198.9,0.00023231,0.0063897,5.8353e-05,-1307,-0.00053,-5727.7,0.029264
13480,2.1017,3.2727,0,0.00052321,5228.5,0.00023514,0.01373,5.5519e-05,-1349.6,-0.00053293,-5771,0.026939
13481,2.1931,3.2727,0.05,2.3145e-06,23.129,1.7772e-06,13.353,-1.8198e-12,-1.1673e-06,-1.7772e-06,-13.353,0.029206
13482,2.1931,3,0,0.00052008,5197.2,0.0002325,0.0062933,5.7784e-05,-1312.7,-0.00052982,-5727.7,0.029283
13483,2.1017,3.0909,0,0.00052293,5225.7,0.00023554,0.01364,5.4383e-05,-1361.1,-0.0005326,-5771.5,0.026975
13484,2.1931,3.0909,0.05,2.3168e-06,23.152,1.779e-06,13.367,-1.4133e-12,-3.9129e-07,-1.779e-06,-13.367,0.029244
13485,2.1931,2.8182,0,0.00052025,5198.9,0.00023231,0.0063898,5.8353e-05,-1307,-0.00053,-5727.7,0.029264
13486,2.1017,2.9091,0,0.00052293,5225.7,0.00023554,0.01364,5.4383e-05,-1361.1,-0.0005326,-5771.5,0.026975
13487,2.1931,2.9091,0.05,2.3168e-06,23.152,1.779e-06,13.367,-1.7646e-12,3.9129e-07,-1.779e-06,-13.367,0.029244
13488,2.1931,2.6364,0,0.00052076,5204,0.00023174,0.0067553,6.0068e-05,-1289.8,-0.00053056,-5727.6,0.029206
13489,2.1017,2.7273,0,0.00052321,5228.5,0.00023514,0.01373,5.5519e-05,-1349.6,-0.00053293,-5771,0.026939
13490,2.1931,2.7273,0.05,2.3145e-06,23.129,1.7772e-06,13.353,-1.4858e-12,1.1673e-06,-1.7772e-06,-13.353,0.029206
13491,2.1931,2.4545,0,0.00052164,5212.8,0.00023079,0.0076279,6.2944e-05,-1261.1,-0.00053152,-5727.7,0.029109
13492,2.1017,2.5455,0,0.0005238,5234.4,0.00023434,0.014062,5.7805e-05,-1326.4,-0.00053359,-5770,0.026866
13493,2.1931,2.5455,0.05,2.3103e-06,23.087,1.774e-06,13.329,-3.7884e-13,1.5379e-06,-1.774e-06,-13.329,0.029129
13494,2.1931,2.2727,0,0.00052296,5226,0.00022948,0.0094333,6.7008e-05,-1220.7,-0.00053291,-5728.3,0.028971
13495,2.1017,2.3636,0,0.00052474,5243.8,0.00023315,0.014956,6.1271e-05,-1291.4,-0.00053464,-5768.8,0.026756
13496,2.1931,2.3636,0.05,2.305e-06,23.034,1.77e-06,13.299,-5.8191e-13,7.2085e-06,-1.77e-06,-13.299,0.029012
13497,2.1931,2.0909,0,0.00052478,5244.1,0.0002278,0.012823,7.2287e-05,-1168.5,-0.00053479,-5729.8,0.028789
13498,2.1017,2.1818,0,0.00052612,5257.5,0.00023157,0.01695,6.5954e-05,-1244.4,-0.00053611,-5768.1,0.026605
13499,2.1931,2.1818,0.05,2.2997e-06,22.981,1.7659e-06,13.268,1.0743e-12,8.4453e-06,-1.7659e-06,-13.268,0.028852
13500,2.1931,1.9091,0,0.00052719,5268.2,0.00022578,0.018728,7.8806e-05,-1104.3,-0.00053721,-5732.8,0.028561
13501,2.1017,2,0,0.00052801,5276.5,0.00022962,0.02085,7.1898e-05,-1185,-0.00053809,-5768.2,0.026412
13502,2.1931,2,0.05,2.2956e-06,22.94,1.7627e-06,13.244,1.3867e-14,6.1729e-06,-1.7627e-06,-13.244,0.028648
13503,2.1931,1.7273,0,0.00053028,5299.1,0.00022344,0.028402,8.6577e-05,-1028.3,-0.00054023,-5737.9,0.028282
13504,2.1017,1.8182,0,0.00053053,5301.7,0.0002273,0.02782,7.9139e-05,-1113.2,-0.00054063,-5769.9,0.026172
13505,2.1931,1.8182,0.05,2.2935e-06,22.92,1.7612e-06,13.233,-1.5405e-12,3.4438e-06,-1.7612e-06,-13.233,0.028395
13506,2.1931,1.5455,0,0.00053414,5337.7,0.00022081,0.043534,9.5587e-05,-940.82,-0.00054389,-5745.6,0.027949
13507,2.1017,1.6364,0,0.0005338,5334.3,0.00022465,0.039426,8.7695e-05,-1029,-0.0005438,-5773.8,0.025883
13508,2.1931,1.6364,0.05,2.2939e-06,22.923,1.7614e-06,13.234,2.1304e-12,3.004e-05,-1.7614e-06,-13.234,0.028089
13509,2.1931,1.3636,0,0.00053886,5384.9,0.00021792,0.066128,0.00010579,-842.44,-0.00054822,-5756.4,0.027555
13510,2.1017,1.4545,0,0.00053791,5375.4,0.0002217,0.057877,9.7556e-05,-932.72,-0.00054767,-5780.7,0.025537
13511,2.1931,1.4545,0.05,2.2956e-06,22.941,1.7628e-06,13.245,-4.9037e-13,3.5733e-05,-1.7628e-06,-13.245,0.027727
13512,2.1931,1.1818,0,0.00054447,5440.9,0.00021482,0.099513,0.00011709,-734.25,-0.00055323,-5770.7,0.027095
13513,2.1017,1.2727,0,0.00054296,5425.9,0.00021849,0.085585,0.00010867,-825.12,-0.00055227,-5791.1,0.025131
13514,2.1931,1.2727,0.05,2.2964e-06,22.948,1.7633e-06,13.249,3.165e-12,7.2456e-06,-1.7633e-06,-13.249,0.027301
13515,2.1931,1,0,0.00055099,5506.1,0.00021158,0.14563,0.00012934,-617.8,-0.00055889,-5788.9,0.026562
13516,2.1017,1.0909,0,0.000549,5486.2,0.00021509,0.12779,0.00012091,-707.49,-0.0005576,-5805.6,0.024657
13517,2.1931,1.0909,0.05,2.292e-06,22.904,1.76e-06,13.224,-1.0154e-12,0.00011496,-1.76e-06,-13.224,0.026805
13518,2.1931,0.81818,0,0.00055838,5579.9,0.00020826,0.22049,0.00014234,-495.06,-0.00056514,-5810.8,0.025948
13519,2.1017,0.90909,0,0.00055603,5556.5,0.00021156,0.18442,0.00013412,-581.68,-0.00056363,-5824.3,0.024108
13520,2.1931,0.90909,0.05,2.2771e-06,22.756,1.7486e-06,13.138,3.4118e-12,0.00012754,-1.7486e-06,-13.138,0.026232
13521,2.1931,0.63636,0,0.00056654,5661.5,0.00020493,0.305,0.00015586,-368.39,-0.0005719,-5836.5,0.025245
13522,2.1017,0.72727,0,0.00056399,5636,0.00020799,0.29116,0.00014805,-450.1,-0.00057029,-5847.4,0.023475
13523,2.1931,0.72727,0.05,2.2464e-06,22.449,1.725e-06,12.961,1.0034e-11,4.5876e-05,-1.725e-06,-12.961,0.025574
13524,2.1931,0.45455,0,0.0005754,5750,0.0002017,0.65509,0.00016967,-239.96,-0.00057909,-5865.9,0.024444
13525,2.1017,0.54545,0,0.00057276,5723.7,0.00020446,0.38004,0.00016241,-315.54,-0.00057747,-5874.7,0.02275
13526,2.1931,0.54545,0.05,2.2007e-06,21.991,1.6898e-06,12.697,5.7463e-12,-2.6932e-15,-1.6898e-06,-12.697,0.024823
13527,2.1931,0.27273,0,0.00058535,5849.4,0.00019865,1.4221,0.00018397,-108.86,-0.00058709,-5902.4,0.023536
13528,2.1017,0.36364,0,0.00058228,5818.7,0.0002011,1.099,0.00017697,-180.21,-0.00058511,-5906.2,0.021923
13529,2.1931,0.36364,0.05,2.1971e-06,21.956,1.6871e-06,12.676,-4.3173e-13,9.3097e-05,-1.6871e-06,-12.676,0.023969
13530,2.1017,0.18182,0,0.0005935,5930.9,0.0001983,4.2875,0.00019211,-42.196,-0.00059413,-5949.7,0.020986
13531,2.1931,0.18182,0.05,3.9616e-06,39.588,3.042e-06,22.856,2.8954e-13,1.415e-05,-3.042e-06,-22.856,0.023005
13532,2.1931,0.090909,0,0.00059091,5905,0.00019588,0.9496,0.0001936,-16.146,-0.00059116,-5912.6,0.022513
13533,2.0103,5.7273,0,0.0005904,5900,0.00020045,1.6798,0.00018545,-111.02,-0.00059218,-5953.8,0.019498
13534,1.919,5.8182,0,0.00059873,5983.2,0.00019995,5.867,0.00019411,-37.998,-0.00059927,-5999.1,0.01717
13535,2.0103,5.8182,0.05,4.1863e-06,41.834,3.2145e-06,24.153,-6.8185e-22,-5.1232e-15,-3.2145e-06,-24.153,0.018993
13536,2.0103,5.9091,0,0.00059601,5956,0.00019739,1.2474,0.0001956,-12.193,-0.00059619,-5961.4,0.01853
13537,2.0103,5.5455,0,0.00057962,5792.2,0.00020385,0.73303,0.00016975,-255.44,-0.00058353,-5915.3,0.020351
13538,1.919,5.6364,0,0.00058644,5860.4,0.00020294,1.2355,0.00017755,-189.53,-0.00058941,-5952.2,0.01805
13539,2.0103,5.6364,0.05,2.3337e-06,23.321,1.792e-06,13.464,-3.8011e-22,-5.7529e-06,-1.792e-06,-13.464,0.019904
13540,2.0103,5.3636,0,0.00057019,5697.9,0.00020751,0.34094,0.00015463,-396.99,-0.00057589,-5885.8,0.021098
13541,1.919,5.4545,0,0.00057625,5758.5,0.00020674,0.42658,0.00016156,-339.04,-0.00058125,-5920.3,0.01882
13542,2.0103,5.4545,0.05,2.3609e-06,23.593,1.8129e-06,13.621,-3.8454e-22,-2.8893e-15,-1.8129e-06,-13.621,0.020703
13543,2.0103,5.1818,0,0.00056161,5612.3,0.00021129,0.24399,0.00013985,-536.52,-0.00056881,-5861.1,0.02175
13544,1.919,5.2727,0,0.00056699,5665.9,0.00021077,0.32075,0.00014581,-487.77,-0.0005737,-5893.9,0.01949
13545,2.0103,5.2727,0.05,2.4154e-06,24.137,1.8547e-06,13.936,-3.9341e-22,-2.9559e-15,-1.8547e-06,-13.936,0.021402
13546,2.0103,5,0,0.00055401,5536.2,0.00021507,0.16043,0.00012572,-671.24,-0.00056236,-5841.2,0.022315
13547,1.919,5.0909,0,0.00055875,5583.7,0.00021486,0.20061,0.00013061,-632.77,-0.00056681,-5873,0.020071
13548,2.0103,5.0909,0.05,2.4476e-06,24.459,1.8795e-06,14.122,-1.5795e-12,-2.9954e-15,-1.8795e-06,-14.122,0.022009
13549,2.0103,4.8182,0,0.00054746,5470.8,0.00021876,0.10998,0.0001125,-798.31,-0.00055664,-5826,0.022803
13550,1.919,4.9091,0,0.00055167,5512.9,0.00021889,0.1377,0.00011632,-770.54,-0.00056072,-5857.6,0.020571
13551,2.0103,4.9091,0.05,2.4601e-06,24.584,1.889e-06,14.194,-4.007e-22,-3.0107e-15,-1.889e-06,-14.194,0.022535
13552,2.0103,4.6364,0,0.00054198,5416,0.00022228,0.074669,0.00010043,-915.43,-0.00055171,-5815.4,0.02322
13553,1.919,4.7273,0,0.00054579,5454.1,0.00022277,0.0924,0.00010321,-898.26,-0.00055548,-5847.4,0.021
13554,2.0103,4.7273,0.05,2.4611e-06,24.594,1.8898e-06,14.199,-4.0086e-22,-7.5253e-06,-1.8898e-06,-14.199,0.022986
13555,2.0103,4.4545,0,0.00053753,5371.6,0.00022554,0.051836,8.965e-05,-1021,-0.00054757,-5808.8,0.023576
13556,1.919,4.5455,0,0.00054105,5406.8,0.00022641,0.063969,9.1453e-05,-1013.9,-0.00055112,-5842,0.021364
13557,2.0103,4.5455,0.05,2.4581e-06,24.564,1.8875e-06,14.182,-4.5454e-13,-3.813e-06,-1.8875e-06,-14.182,0.023372
13558,2.0103,4.2727,0,0.00053402,5336.6,0.00022851,0.037387,8.0234e-05,-1114.1,-0.00054418,-5805.6,0.023875
13559,1.919,4.3636,0,0.00053737,5370,0.00022974,0.046052,8.1154e-05,-1116.3,-0.00054758,-5840.4,0.021673
13560,2.0103,4.3636,0.05,2.456e-06,24.543,1.8859e-06,14.17,-4.4283e-13,-3.7148e-06,-1.8859e-06,-14.17,0.023699
13561,2.0103,4.0909,0,0.00053133,5309.7,0.00023113,0.028809,7.2202e-05,-1194.1,-0.00054147,-5805,0.024125
13562,1.919,4.1818,0,0.0005346,5342.3,0.00023271,0.035561,7.2331e-05,-1205,-0.0005448,-5841.9,0.02193
13563,2.0103,4.1818,0.05,2.4575e-06,24.558,1.8871e-06,14.179,-1.2868e-12,-3.0075e-15,-1.8871e-06,-14.179,0.023972
13564,2.0103,3.9091,0,0.00052933,5289.6,0.00023339,0.024068,6.5533e-05,-1261.2,-0.00053938,-5806.2,0.024328
13565,1.919,4,0,0.00053258,5322.1,0.0002353,0.029828,6.4955e-05,-1279.8,-0.00054267,-5845.3,0.022141
13566,2.0103,4,0.05,2.4627e-06,24.61,1.8911e-06,14.209,-1.1092e-12,-3.0139e-15,-1.8911e-06,-14.209,0.024198
13567,2.0103,3.7273,0,0.00052788,5275.2,0.00023525,0.021721,6.0181e-05,-1315.4,-0.0005378,-5808.4,0.024489
13568,1.919,3.8182,0,0.00053115,5307.9,0.00023747,0.027046,5.8965e-05,-1341.2,-0.0005411,-5849.8,0.022312
13569,2.0103,3.8182,0.05,2.4707e-06,24.69,1.8972e-06,14.255,-9.4256e-13,-2.6356e-06,-1.8972e-06,-14.255,0.024379
13570,2.0103,3.5455,0,0.00052688,5265.2,0.00023671,0.020747,5.6093e-05,-1357,-0.00053667,-5810.8,0.024611
13571,1.919,3.6364,0,0.00053019,5298.2,0.00023922,0.025948,5.4289e-05,-1389.5,-0.00053997,-5854.5,0.022444
13572,2.0103,3.6364,0.05,2.4798e-06,24.781,1.9042e-06,14.307,-1.5019e-12,-3.0348e-15,-1.9042e-06,-14.307,0.024521
13573,2.0103,3.3636,0,0.00052623,5258.7,0.00023775,0.020465,5.3217e-05,-1386.5,-0.00053592,-5813,0.024697
13574,1.919,3.4545,0,0.00052957,5292,0.00024053,0.025702,5.0854e-05,-1425.2,-0.00053921,-5858.6,0.022541
13575,2.0103,3.4545,0.05,2.4883e-06,24.866,1.9107e-06,14.356,-1.0534e-12,2.5759e-07,-1.9107e-06,-14.356,0.024624
13576,2.0103,3.1818,0,0.00052587,5255.1,0.00023838,0.020449,5.1509e-05,-1404,-0.00053549,-5814.5,0.024748
13577,1.919,3.2727,0,0.0005292,5288.3,0.00024141,0.025785,4.86e-05,-1448.7,-0.00053874,-5861.7,0.022604
13578,2.0103,3.2727,0.05,2.4948e-06,24.931,1.9157e-06,14.394,-1.0336e-12,-1.3851e-06,-1.9157e-06,-14.394,0.024693
13579,2.0103,3,0,0.00052576,5254,0.00023859,0.020468,5.0943e-05,-1409.9,-0.00053535,-5815,0.024765
13580,1.919,3.0909,0,0.00052903,5286.7,0.00024185,0.025894,4.7485e-05,-1460.4,-0.00053851,-5863.3,0.022636
13581,2.0103,3.0909,0.05,2.4983e-06,24.966,1.9184e-06,14.414,-4.927e-13,-3.8632e-07,-1.9184e-06,-14.414,0.024726
13582,2.0103,2.8182,0,0.00052587,5255.1,0.00023838,0.020449,5.1509e-05,-1404,-0.00053549,-5814.5,0.024748
13583,1.919,2.9091,0,0.00052903,5286.7,0.00024185,0.025894,4.7485e-05,-1460.4,-0.00053851,-5863.3,0.022636
13584,2.0103,2.9091,0.05,2.4983e-06,24.966,1.9184e-06,14.414,-8.4538e-13,3.8632e-07,-1.9184e-06,-14.414,0.024726
13585,2.0103,2.6364,0,0.00052623,5258.7,0.00023775,0.020465,5.3217e-05,-1386.5,-0.00053592,-5813,0.024697
13586,1.919,2.7273,0,0.0005292,5288.3,0.00024141,0.025785,4.86e-05,-1448.7,-0.00053874,-5861.7,0.022604
13587,2.0103,2.7273,0.05,2.4948e-06,24.931,1.9157e-06,14.394,-1.6268e-12,9.234e-07,-1.9157e-06,-14.394,0.024693
13588,2.0103,2.4545,0,0.00052688,5265.2,0.00023671,0.020747,5.6093e-05,-1357,-0.00053667,-5810.8,0.024611
13589,1.919,2.5455,0,0.00052957,5292,0.00024053,0.025702,5.0854e-05,-1425.2,-0.00053921,-5858.6,0.022541
13590,2.0103,2.5455,0.05,2.4883e-06,24.866,1.9107e-06,14.356,-6.8975e-13,1.9456e-05,-1.9107e-06,-14.356,0.024624
13591,2.0103,2.2727,0,0.00052788,5275.2,0.00023525,0.021721,6.0181e-05,-1315.4,-0.0005378,-5808.4,0.024489
13592,1.919,2.3636,0,0.00053019,5298.2,0.00023922,0.025948,5.4289e-05,-1389.5,-0.00053997,-5854.5,0.022444
13593,2.0103,2.3636,0.05,2.4798e-06,24.781,1.9042e-06,14.307,-1.4179e-12,9.2548e-06,-1.9042e-06,-14.307,0.024521
13594,2.0103,2.0909,0,0.00052933,5289.6,0.00023339,0.024068,6.5533e-05,-1261.2,-0.00053938,-5806.2,0.024328
13595,1.919,2.1818,0,0.00053115,5307.9,0.00023747,0.027047,5.8965e-05,-1341.2,-0.0005411,-5849.8,0.022312
13596,2.0103,2.1818,0.05,2.4707e-06,24.69,1.8972e-06,14.255,7.7521e-13,3.9534e-06,-1.8972e-06,-14.255,0.024379
13597,2.0103,1.9091,0,0.00053133,5309.7,0.00023113,0.028809,7.2202e-05,-1194.1,-0.00054147,-5805,0.024125
13598,1.919,2,0,0.00053258,5322.1,0.0002353,0.029829,6.4955e-05,-1279.8,-0.00054267,-5845.3,0.022141
13599,2.0103,2,0.05,2.4627e-06,24.61,1.8911e-06,14.209,-3.4975e-13,-3.0139e-15,-1.8911e-06,-14.209,0.024198
13600,2.0103,1.7273,0,0.00053402,5336.6,0.00022851,0.037387,8.0234e-05,-1114.1,-0.00054418,-5805.6,0.023875
13601,1.919,1.8182,0,0.0005346,5342.3,0.00023271,0.035561,7.2331e-05,-1205,-0.0005448,-5841.9,0.02193
13602,2.0103,1.8182,0.05,2.4575e-06,24.558,1.8871e-06,14.179,8.4184e-13,2.1327e-05,-1.8871e-06,-14.179,0.023972
13603,2.0103,1.5455,0,0.00053753,5371.6,0.00022554,0.051837,8.965e-05,-1021,-0.00054757,-5808.8,0.023576
13604,1.919,1.6364,0,0.00053737,5370,0.00022974,0.046052,8.1154e-05,-1116.3,-0.00054758,-5840.4,0.021673
13605,2.0103,1.6364,0.05,2.456e-06,24.543,1.8859e-06,14.17,2.5801e-12,3.7148e-06,-1.8859e-06,-14.17,0.023699
13606,2.0103,1.3636,0,0.00054198,5416,0.00022228,0.074669,0.00010043,-915.43,-0.00055171,-5815.4,0.02322
13607,1.919,1.4545,0,0.00054105,5406.8,0.00022641,0.06397,9.1453e-05,-1013.9,-0.00055112,-5842,0.021364
13608,2.0103,1.4545,0.05,2.4581e-06,24.564,1.8875e-06,14.182,2.5786e-12,7.626e-06,-1.8875e-06,-14.182,0.023372
13609,2.0103,1.1818,0,0.00054746,5470.8,0.00021876,0.10998,0.0001125,-798.31,-0.00055664,-5826,0.022803
13610,1.919,1.2727,0,0.00054579,5454.1,0.00022277,0.092401,0.00010321,-898.26,-0.00055548,-5847.4,0.021
13611,2.0103,1.2727,0.05,2.4611e-06,24.594,1.8898e-06,14.199,3.9943e-12,3.8728e-05,-1.8898e-06,-14.199,0.022986
13612,2.0103,1,0,0.00055401,5536.2,0.00021507,0.16043,0.00012572,-671.24,-0.00056236,-5841.2,0.022315
13613,1.919,1.0909,0,0.00055167,5512.9,0.00021889,0.1377,0.00011632,-770.54,-0.00056072,-5857.6,0.020571
13614,2.0103,1.0909,0.05,2.4601e-06,24.584,1.889e-06,14.194,9.1763e-12,-3.0107e-15,-1.8891e-06,-14.194,0.022535
13615,2.0103,0.81818,0,0.00056161,5612.3,0.00021129,0.24399,0.00013985,-536.52,-0.00056881,-5861.1,0.02175
13616,1.919,0.90909,0,0.00055875,5583.7,0.00021486,0.20061,0.00013061,-632.77,-0.00056681,-5873,0.020071
13617,2.0103,0.90909,0.05,2.4476e-06,24.459,1.8795e-06,14.122,9.9674e-12,9.1304e-05,-1.8795e-06,-14.122,0.022009
13618,2.0103,0.63636,0,0.00057019,5697.9,0.00020751,0.34094,0.00015463,-396.99,-0.00057589,-5885.8,0.021098
13619,1.919,0.72727,0,0.00056699,5665.9,0.00021077,0.32075,0.00014581,-487.77,-0.0005737,-5893.9,0.01949
13620,2.0103,0.72727,0.05,2.4154e-06,24.137,1.8547e-06,13.936,-3.4853e-13,1.4618e-06,-1.8547e-06,-13.936,0.021402
13621,2.0103,0.45455,0,0.00057962,5792.2,0.00020385,0.73303,0.00016975,-255.44,-0.00058353,-5915.3,0.020351
13622,1.919,0.54545,0,0.00057625,5758.5,0.00020674,0.42658,0.00016156,-339.04,-0.00058125,-5920.3,0.01882
13623,2.0103,0.54545,0.05,2.3609e-06,23.593,1.8129e-06,13.621,1.1823e-11,1.0898e-05,-1.8129e-06,-13.621,0.020703
13624,2.0103,0.27273,0,0.0005904,5900,0.00020045,1.6798,0.00018545,-111.02,-0.00059218,-5953.8,0.019498
13625,1.919,0.36364,0,0.00058644,5860.4,0.00020294,1.2355,0.00017755,-189.53,-0.00058941,-5952.2,0.01805
13626,2.0103,0.36364,0.05,2.3337e-06,23.321,1.792e-06,13.464,-9.3634e-13,-2.856e-15,-1.792e-06,-13.464,0.019904
13627,1.919,0.18182,0,0.00059873,5983.2,0.00019995,5.867,0.00019411,-37.998,-0.00059927,-5999.1,0.01717
13628,2.0103,0.18182,0.05,4.1863e-06,41.834,3.2145e-06,24.153,-6.8185e-22,-5.1232e-15,-3.2145e-06,-24.153,0.018993
13629,2.0103,0.090909,0,0.00059601,5956,0.00019739,1.2474,0.0001956,-12.193,-0.00059619,-5961.4,0.01853
13630,1.8276,5.7273,0,0.00059473,5943.2,0.00020199,1.999,0.00018671,-112.81,-0.00059653,-5997.8,0.015848
13631,1.7362,5.8182,0,0.00060314,6027.3,0.00020137,8.3601,0.00019586,-33.024,-0.00060355,-6039.5,0.013747
13632,1.8276,5.8182,0.05,4.4042e-06,44.011,3.3819e-06,25.41,-7.1734e-22,-5.3898e-15,-3.3819e-06,-25.41,0.015374
13633,1.8276,5.9091,0,0.00060034,5999.2,0.00019864,1.9399,0.0001974,-7.4247,-0.00060043,-6002,0.01494
13634,1.8276,5.5455,0,0.00058303,5826.3,0.00020582,0.81875,0.00016941,-272.72,-0.00058718,-5957.4,0.016641
13635,1.7362,5.6364,0,0.00058965,5892.4,0.00020451,1.4014,0.00017774,-199.77,-0.00059277,-5989.1,0.014564
13636,1.8276,5.6364,0.05,2.5046e-06,25.028,1.9232e-06,14.45,-4.0794e-22,-3.0651e-15,-1.9232e-06,-14.45,0.016224
13637,1.8276,5.3636,0,0.00057301,5726.1,0.00021,0.37663,0.00015278,-429.53,-0.00057909,-5928.6,0.01733
13638,1.7362,5.4545,0,0.00057874,5783.4,0.00020887,0.4881,0.00016009,-365.98,-0.00058408,-5957.4,0.015272
13639,1.8276,5.4545,0.05,2.5626e-06,25.608,1.9677e-06,14.785,-4.1738e-22,-3.1361e-15,-1.9677e-06,-14.785,0.016964
13640,1.8276,5.1818,0,0.00056408,5636.9,0.00021434,0.26435,0.0001366,-583.82,-0.00057173,-5905.9,0.017926
13641,1.7362,5.2727,0,0.00056903,5686.4,0.00021351,0.3625,0.00014275,-531.26,-0.00057619,-5933.1,0.015883
13642,1.8276,5.2727,0.05,2.6238e-06,26.22,2.0147e-06,15.138,-4.2735e-22,1.0534e-06,-2.0147e-06,-15.138,0.017606
13643,1.8276,5,0,0.00055637,5559.8,0.00021868,0.17068,0.00012123,-731.97,-0.00056519,-5889.5,0.018439
13644,1.7362,5.0909,0,0.00056064,5602.5,0.00021822,0.22756,0.00012615,-691.55,-0.00056918,-5916.1,0.016407
13645,1.8276,5.0909,0.05,2.653e-06,26.512,2.0372e-06,15.307,-7.3199e-13,4.863e-05,-2.0372e-06,-15.307,0.018159
13646,1.8276,4.8182,0,0.00054995,5495.7,0.0002229,0.11559,0.00010703,-870.5,-0.00055956,-5879,0.018877
13647,1.7362,4.9091,0,0.00055369,5533.1,0.00022287,0.15845,0.00011072,-842.44,-0.00056319,-5905.9,0.016854
13648,1.8276,4.9091,0.05,2.6583e-06,26.565,2.0413e-06,15.337,-4.3298e-22,-6.9073e-06,-2.0413e-06,-15.337,0.018633
13649,1.8276,4.6364,0,0.00054482,5444.4,0.0002269,0.07861,9.4216e-05,-996.85,-0.00055488,-5873.9,0.01925
13650,1.7362,4.7273,0,0.0005482,5478.2,0.0002273,0.11074,9.6768e-05,-980.68,-0.00055825,-5902.2,0.017234
13651,1.8276,4.7273,0.05,2.6523e-06,26.505,2.0366e-06,15.303,-4.32e-22,-3.2459e-15,-2.0366e-06,-15.303,0.019037
13652,1.8276,4.4545,0,0.00054085,5404.8,0.0002306,0.055972,8.2934e-05,-1109.4,-0.00055111,-5873.4,0.019565
13653,1.7362,4.5455,0,0.00054404,5436.6,0.00023144,0.082443,8.4461e-05,-1104.2,-0.00055434,-5903.9,0.017556
13654,1.8276,4.5455,0.05,2.645e-06,26.432,2.031e-06,15.26,-4.3081e-22,2.3132e-05,-2.031e-06,-15.26,0.019381
13655,1.8276,4.2727,0,0.00053791,5375.4,0.00023394,0.042584,7.3221e-05,-1207.5,-0.00054818,-5876.5,0.019829
13656,1.7362,4.3636,0,0.00054104,5406.7,0.00023519,0.065765,7.3854e-05,-1212.2,-0.00055136,-5909.8,0.017825
13657,1.8276,4.3636,0.05,2.6421e-06,26.403,2.0288e-06,15.244,-8.8943e-13,2.4142e-05,-2.0288e-06,-15.244,0.019669
13658,1.8276,4.0909,0,0.00053582,5354.5,0.00023687,0.035326,6.505e-05,-1291,-0.00054597,-5881.9,0.020048
13659,1.7362,4.1818,0,0.00053899,5386.1,0.00023853,0.056827,6.4911e-05,-1304.4,-0.00054919,-5918.5,0.018049
13660,1.8276,4.1818,0.05,2.6455e-06,26.437,2.0314e-06,15.263,-8.2944e-13,-3.2376e-15,-2.0314e-06,-15.263,0.01991
13661,1.8276,3.9091,0,0.00053438,5340.1,0.00023938,0.03182,5.835e-05,-1360.1,-0.00054436,-5888.6,0.020225
13662,1.7362,4,0,0.00053766,5372.9,0.0002414,0.052515,5.7545e-05,-1381.4,-0.00054766,-5928.7,0.018232
13663,1.8276,4,0.05,2.6544e-06,26.526,2.0383e-06,15.315,-1.4501e-12,-3.2485e-15,-2.0383e-06,-15.315,0.020107
13664,1.8276,3.7273,0,0.00053344,5330.7,0.00024144,0.030472,5.3033e-05,-1415.6,-0.00054322,-5895.6,0.020366
13665,1.7362,3.8182,0,0.00053686,5364.9,0.00024381,0.05085,5.164e-05,-1443.8,-0.00054664,-5939,0.018379
13666,1.8276,3.8182,0.05,2.6667e-06,26.648,2.0477e-06,15.385,-4.3434e-22,1.2637e-05,-2.0477e-06,-15.385,0.020265
13667,1.8276,3.5455,0,0.00053286,5324.9,0.00024305,0.030229,4.9009e-05,-1457.9,-0.00054246,-5902,0.020472
13668,1.7362,3.6364,0,0.00053642,5360.5,0.00024573,0.050544,4.708e-05,-1492.5,-0.00054598,-5948.6,0.018492
13669,1.8276,3.6364,0.05,2.6798e-06,26.779,2.0577e-06,15.461,-2.4689e-13,2.8181e-06,-2.0577e-06,-15.461,0.020388
13670,1.8276,3.3636,0,0.00053252,5321.5,0.00024419,0.030429,4.6197e-05,-1487.6,-0.00054198,-5907,0.020546
13671,1.7362,3.4545,0,0.00053621,5358.4,0.00024717,0.050811,4.3761e-05,-1528.3,-0.00054559,-5956.5,0.018575
13672,1.8276,3.4545,0.05,2.6916e-06,26.897,2.0668e-06,15.529,-3.7985e-13,-2.2431e-06,-2.0668e-06,-15.529,0.020478
13673,1.8276,3.1818,0,0.00053235,5319.8,0.00024488,0.030682,4.4536e-05,-1505.3,-0.00054172,-5910.2,0.02059
13674,1.7362,3.2727,0,0.00053612,5357.5,0.00024813,0.05119,4.1597e-05,-1551.8,-0.00054538,-5962.1,0.018629
13675,1.8276,3.2727,0.05,2.7003e-06,26.985,2.0735e-06,15.58,-9.0092e-13,1.414e-05,-2.0735e-06,-15.58,0.020537
13676,1.8276,3,0,0.00053229,5319.3,0.00024511,0.030787,4.3986e-05,-1511.2,-0.00054164,-5911.3,0.020604
13677,1.7362,3.0909,0,0.0005361,5357.3,0.00024861,0.051434,4.053e-05,-1563.4,-0.00054529,-5965,0.018656
13678,1.8276,3.0909,0.05,2.705e-06,27.031,2.0771e-06,15.606,-5.0345e-13,-3.5798e-07,-2.0771e-06,-15.606,0.020566
13679,1.8276,2.8182,0,0.00053235,5319.8,0.00024488,0.030682,4.4536e-05,-1505.3,-0.00054172,-5910.2,0.02059
13680,1.7362,2.9091,0,0.0005361,5357.3,0.00024861,0.051434,4.053e-05,-1563.4,-0.00054529,-5965,0.018656
13681,1.8276,2.9091,0.05,2.705e-06,27.031,2.0771e-06,15.606,-4.0238e-13,3.3914e-07,-2.0771e-06,-15.606,0.020566
13682,1.8276,2.6364,0,0.00053252,5321.5,0.00024419,0.030429,4.6197e-05,-1487.6,-0.00054198,-5907,0.020546
13683,1.7362,2.7273,0,0.00053612,5357.5,0.00024813,0.05119,4.1597e-05,-1551.8,-0.00054538,-5962.1,0.018629
13684,1.8276,2.7273,0.05,2.7003e-06,26.985,2.0735e-06,15.58,-5.5568e-13,1.6396e-05,-2.0735e-06,-15.58,0.020537
13685,1.8276,2.4545,0,0.00053286,5324.9,0.00024305,0.030229,4.9009e-05,-1457.9,-0.00054246,-5902,0.020472
13686,1.7362,2.5455,0,0.00053621,5358.4,0.00024717,0.050811,4.3761e-05,-1528.3,-0.00054559,-5956.5,0.018575
13687,1.8276,2.5455,0.05,2.6916e-06,26.897,2.0668e-06,15.529,-1.1244e-13,1.4954e-06,-2.0668e-06,-15.529,0.020478
13688,1.8276,2.2727,0,0.00053344,5330.7,0.00024144,0.030473,5.3033e-05,-1415.6,-0.00054322,-5895.6,0.020366
13689,1.7362,2.3636,0,0.00053642,5360.5,0.00024573,0.050544,4.708e-05,-1492.5,-0.00054598,-5948.6,0.018492
13690,1.8276,2.3636,0.05,2.6798e-06,26.779,2.0577e-06,15.461,-4.7991e-14,6.9602e-06,-2.0577e-06,-15.461,0.020388
13691,1.8276,2.0909,0,0.00053438,5340.1,0.00023938,0.03182,5.835e-05,-1360.1,-0.00054436,-5888.6,0.020225
13692,1.7362,2.1818,0,0.00053686,5364.9,0.00024381,0.050851,5.164e-05,-1443.8,-0.00054664,-5939,0.018379
13693,1.8276,2.1818,0.05,2.6667e-06,26.648,2.0477e-06,15.385,-1.5723e-12,4.5547e-05,-2.0477e-06,-15.385,0.020265
13694,1.8276,1.9091,0,0.00053582,5354.5,0.00023687,0.035326,6.505e-05,-1291,-0.00054597,-5881.9,0.020048
13695,1.7362,2,0,0.00053766,5372.9,0.0002414,0.052515,5.7545e-05,-1381.4,-0.00054766,-5928.7,0.018232
13696,1.8276,2,0.05,2.6544e-06,26.526,2.0383e-06,15.315,-1.0731e-12,3.0931e-06,-2.0383e-06,-15.315,0.020107
13697,1.8276,1.7273,0,0.00053791,5375.4,0.00023394,0.042584,7.3221e-05,-1207.5,-0.00054818,-5876.5,0.019829
13698,1.7362,1.8182,0,0.00053899,5386.1,0.00023853,0.056827,6.4911e-05,-1304.4,-0.00054919,-5918.5,0.018049
13699,1.8276,1.8182,0.05,2.6455e-06,26.437,2.0314e-06,15.263,3.4232e-12,3.4789e-06,-2.0314e-06,-15.263,0.01991
13700,1.8276,1.5455,0,0.00054085,5404.8,0.0002306,0.055972,8.2934e-05,-1109.4,-0.00055111,-5873.4,0.019565
13701,1.7362,1.6364,0,0.00054104,5406.7,0.00023519,0.065766,7.3854e-05,-1212.2,-0.00055136,-5909.8,0.017825
13702,1.8276,1.6364,0.05,2.6421e-06,26.403,2.0288e-06,15.244,-1.2045e-12,8.3619e-05,-2.0288e-06,-15.244,0.019669
13703,1.8276,1.3636,0,0.00054482,5444.4,0.0002269,0.07861,9.4216e-05,-996.85,-0.00055488,-5873.9,0.01925
13704,1.7362,1.4545,0,0.00054404,5436.6,0.00023144,0.082443,8.4461e-05,-1104.2,-0.00055434,-5903.9,0.017556
13705,1.8276,1.4545,0.05,2.645e-06,26.432,2.031e-06,15.26,7.3341e-12,3.4576e-05,-2.031e-06,-15.26,0.019381
13706,1.8276,1.1818,0,0.00054995,5495.7,0.0002229,0.11559,0.00010703,-870.5,-0.00055956,-5879,0.018877
13707,1.7362,1.2727,0,0.0005482,5478.2,0.0002273,0.11074,9.6768e-05,-980.68,-0.00055825,-5902.2,0.017234
13708,1.8276,1.2727,0.05,2.6523e-06,26.505,2.0366e-06,15.303,3.7511e-12,8.2194e-05,-2.0366e-06,-15.303,0.019037
13709,1.8276,1,0,0.00055637,5559.8,0.00021868,0.17068,0.00012123,-731.97,-0.00056519,-5889.5,0.018439
13710,1.7362,1.0909,0,0.00055369,5533.1,0.00022287,0.15845,0.00011072,-842.44,-0.00056319,-5905.9,0.016854
13711,1.8276,1.0909,0.05,2.6583e-06,26.565,2.0413e-06,15.337,4.6596e-12,-3.2533e-15,-2.0413e-06,-15.337,0.018633
13712,1.8276,0.81818,0,0.00056408,5636.9,0.00021434,0.26435,0.0001366,-583.82,-0.00057173,-5905.9,0.017926
13713,1.7362,0.90909,0,0.00056064,5602.5,0.00021822,0.22756,0.00012615,-691.55,-0.00056918,-5916.1,0.016407
13714,1.8276,0.90909,0.05,2.653e-06,26.512,2.0372e-06,15.307,-5.5456e-13,0.00015817,-2.0372e-06,-15.307,0.018159
13715,1.8276,0.63636,0,0.00057301,5726.1,0.00021,0.37663,0.00015278,-429.53,-0.00057909,-5928.6,0.01733
13716,1.7362,0.72727,0,0.00056903,5686.4,0.00021351,0.3625,0.00014275,-531.26,-0.00057619,-5933.1,0.015883
13717,1.8276,0.72727,0.05,2.6238e-06,26.22,2.0147e-06,15.138,1.919e-11,0.00010522,-2.0147e-06,-15.138,0.017606
13718,1.8276,0.45455,0,0.00058303,5826.3,0.00020582,0.81875,0.00016941,-272.72,-0.00058718,-5957.4,0.016641
13719,1.7362,0.54545,0,0.00057874,5783.4,0.00020887,0.4881,0.00016009,-365.98,-0.00058408,-5957.4,0.015272
13720,1.8276,0.54545,0.05,2.5626e-06,25.608,1.9677e-06,14.785,7.4813e-12,5.5277e-05,-1.9677e-06,-14.785,0.016964
13721,1.8276,0.27273,0,0.00059473,5943.2,0.00020199,1.999,0.00018671,-112.81,-0.00059653,-5997.8,0.015848
13722,1.7362,0.36364,0,0.00058965,5892.4,0.00020451,1.4014,0.00017774,-199.77,-0.00059277,-5989.1,0.014564
13723,1.8276,0.36364,0.05,2.5046e-06,25.028,1.9232e-06,14.45,1.9486e-11,5.4486e-05,-1.9232e-06,-14.45,0.016224
13724,1.7362,0.18182,0,0.00060314,6027.3,0.00020137,8.3601,0.00019586,-33.024,-0.00060355,-6039.5,0.013747
13725,1.8276,0.18182,0.05,4.4042e-06,44.011,3.3819e-06,25.41,3.98e-12,3.3387e-05,-3.3818e-06,-25.41,0.015374
13726,1.8276,0.090909,0,0.00060034,5999.2,0.00019864,1.9399,0.0001974,-7.4247,-0.00060043,-6002,0.01494
13727,1.6448,5.7273,0,0.00059801,5976,0.00020318,2.4133,0.00018764,-114.33,-0.00059983,-6031.1,0.012588
13728,1.5534,5.8182,0,0.00060637,6059.6,0.00020251,12.427,0.00019717,-27.67,-0.00060662,-6067.1,0.010717
13729,1.6448,5.8182,0.05,4.6081e-06,46.049,3.5384e-06,26.586,-7.5055e-22,-5.6393e-15,-3.5384e-06,-26.586,0.012147
13730,1.6448,5.9091,0,0.00060358,6031.6,0.00019969,4.3505,0.00019872,-2.8992,-0.00060355,-6030.9,0.011747
13731,1.6448,5.5455,0,0.00058531,5849.1,0.00020754,0.93559,0.00016848,-292.56,-0.00058972,-5989.4,0.013316
13732,1.5534,5.6364,0,0.00059152,5911.1,0.00020572,1.5769,0.00017735,-211.54,-0.0005948,-6013.2,0.011464
13733,1.6448,5.6364,0.05,2.7291e-06,27.272,2.0956e-06,15.745,-6.9052e-12,-3.3398e-15,-2.0956e-06,-15.745,0.012931
13734,1.6448,5.3636,0,0.00057471,5743.1,0.00021237,0.43857,0.0001501,-467.41,-0.00058122,-5962.3,0.013942
13735,1.5534,5.4545,0,0.00057987,5794.7,0.00021077,0.53189,0.00015775,-397.85,-0.0005856,-5983,0.012105
13736,1.6448,5.4545,0.05,2.824e-06,28.221,2.1685e-06,16.293,-4.5997e-22,-3.4561e-15,-2.1685e-06,-16.293,0.013607
13737,1.6448,5.1818,0,0.00056553,5651.4,0.00021739,0.31027,0.00013233,-638.8,-0.00057367,-5943.4,0.014477
13738,1.5534,5.2727,0,0.00056979,5694,0.00021619,0.37804,0.00013858,-582.71,-0.00057746,-5962.7,0.012652
13739,1.6448,5.2727,0.05,2.886e-06,28.84,2.2161e-06,16.651,-5.2267e-13,-3.5319e-15,-2.2161e-06,-16.651,0.014186
13740,1.6448,5,0,0.0005579,5575.1,0.00022241,0.2068,0.00011565,-801.96,-0.00056719,-5932.6,0.014933
13741,1.5534,5.0909,0,0.00056145,5610.6,0.00022168,0.22382,0.00012045,-760.42,-0.0005705,-5951.9,0.013116
13742,1.6448,5.0909,0.05,2.9036e-06,29.015,2.2296e-06,16.752,-4.7292e-22,-3.5534e-15,-2.2296e-06,-16.752,0.014681
13743,1.6448,4.8182,0,0.00055187,5514.9,0.00022727,0.14826,0.00010046,-952.69,-0.00056187,-5929.1,0.01532
13744,1.5534,4.9091,0,0.00055493,5545.5,0.00022706,0.14681,0.00010386,-925.5,-0.00056485,-5949.9,0.013507
13745,1.6448,4.9091,0.05,2.8937e-06,28.917,2.222e-06,16.695,-4.7132e-22,-3.5413e-15,-2.222e-06,-16.695,0.015101
13746,1.6448,4.6364,0,0.00054736,5469.8,0.00023184,0.11097,8.6991e-05,-1088.2,-0.00055769,-5932.1,0.015646
13747,1.5534,4.7273,0,0.00055016,5497.8,0.00023216,0.096163,8.9162e-05,-1074.3,-0.0005605,-5955.6,0.013837
13748,1.6448,4.7273,0.05,2.8753e-06,28.733,2.2079e-06,16.589,-4.6833e-22,-3.5188e-15,-2.2079e-06,-16.589,0.015456
13749,1.6448,4.4545,0,0.00054417,5438,0.00023603,0.089703,7.5349e-05,-1207.2,-0.00055456,-5940.1,0.015919
13750,1.5534,4.5455,0,0.00054692,5465.4,0.00023686,0.067797,7.6466e-05,-1205.1,-0.00055736,-5967.4,0.014113
13751,1.6448,4.5455,0.05,2.8611e-06,28.591,2.197e-06,16.507,-4.3985e-22,-3.5014e-15,-2.197e-06,-16.507,0.015754
13752,1.6448,4.2727,0,0.00054207,5416.9,0.00023978,0.078168,6.5506e-05,-1309.4,-0.00055233,-5951.6,0.016147
13753,1.5534,4.3636,0,0.00054492,5445.4,0.00024109,0.052035,6.575e-05,-1317.4,-0.00055524,-5983.3,0.014343
13754,1.6448,4.3636,0.05,2.8566e-06,28.546,2.1935e-06,16.481,-1.4383e-12,-3.4959e-15,-2.1935e-06,-16.481,0.016004
13755,1.6448,4.0909,0,0.00054079,5404.2,0.00024306,0.072641,5.7365e-05,-1395.2,-0.00055084,-5964.9,0.016334
13756,1.5534,4.1818,0,0.00054386,5434.8,0.00024481,0.044112,5.6893e-05,-1411.9,-0.00055393,-6001.4,0.014533
13757,1.6448,4.1818,0.05,2.8621e-06,28.601,2.1977e-06,16.513,-7.3554e-13,-3.4642e-06,-2.1977e-06,-16.513,0.01621
13758,1.6448,3.9091,0,0.00054011,5397.4,0.00024583,0.070489,5.0792e-05,-1465.4,-0.0005499,-5978.7,0.016485
13759,1.5534,4,0,0.00054344,5430.7,0.000248,0.040532,4.9725e-05,-1489.7,-0.00055323,-6020,0.014687
13760,1.6448,4,0.05,2.8748e-06,28.728,2.2075e-06,16.586,1.4685e-12,3.0534e-05,-2.2075e-06,-16.586,0.016379
13761,1.6448,3.7273,0,0.00053982,5394.5,0.0002481,0.070082,4.5645e-05,-1521.1,-0.00054936,-5991.7,0.016604
13762,1.5534,3.8182,0,0.00054344,5430.7,0.00025064,0.039256,4.4068e-05,-1552,-0.00055293,-6037.7,0.01481
13763,1.6448,3.8182,0.05,2.8911e-06,28.891,2.22e-06,16.68,-7.0119e-13,-1.2805e-06,-2.22e-06,-16.68,0.016513
13764,1.6448,3.5455,0,0.00053976,5393.9,0.00024986,0.070431,4.1791e-05,-1563.3,-0.00054907,-6002.8,0.016694
13765,1.5534,3.6364,0,0.00054365,5432.8,0.00025274,0.039068,3.9756e-05,-1600.2,-0.00055289,-6053.1,0.014904
13766,1.6448,3.6364,0.05,2.9078e-06,29.058,2.2329e-06,16.777,-5.4057e-13,7.2058e-06,-2.2329e-06,-16.777,0.016617
13767,1.6448,3.3636,0,0.0005398,5394.3,0.00025111,0.070969,3.912e-05,-1592.8,-0.00054895,-6011.3,0.016757
13768,1.5534,3.4545,0,0.00054393,5435.6,0.00025431,0.039298,3.6648e-05,-1635.4,-0.00055297,-6065.5,0.014974
13769,1.6448,3.4545,0.05,2.9224e-06,29.203,2.244e-06,16.861,-1.0481e-12,-1.4479e-06,-2.244e-06,-16.861,0.016693
13770,1.6448,3.1818,0,0.00053986,5394.9,0.00025187,0.071389,3.755e-05,-1610.2,-0.0005489,-6016.6,0.016794
13771,1.5534,3.2727,0,0.00054418,5438,0.00025535,0.03959,3.4637e-05,-1658.3,-0.00055307,-6074.1,0.015019
13772,1.6448,3.2727,0.05,2.9329e-06,29.309,2.2521e-06,16.922,-3.3738e-14,-6.5421e-08,-2.2521e-06,-16.921,0.016743
13773,1.6448,3,0,0.00053989,5395.1,0.00025212,0.071543,3.7033e-05,-1616,-0.00054889,-6018.4,0.016806
13774,1.5534,3.0909,0,0.00054432,5439.4,0.00025587,0.039771,3.3649e-05,-1669.6,-0.00055313,-6078.5,0.015041
13775,1.6448,3.0909,0.05,2.9384e-06,29.364,2.2564e-06,16.953,-4.8679e-13,-3.4467e-07,-2.2564e-06,-16.953,0.016767
13776,1.6448,2.8182,0,0.00053986,5394.9,0.00025187,0.071389,3.755e-05,-1610.2,-0.0005489,-6016.6,0.016794
13777,1.5534,2.9091,0,0.00054432,5439.4,0.00025587,0.039771,3.3649e-05,-1669.6,-0.00055313,-6078.5,0.015041
13778,1.6448,2.9091,0.05,2.9384e-06,29.364,2.2564e-06,16.953,-3.9813e-13,3.4467e-07,-2.2564e-06,-16.953,0.016767
13779,1.6448,2.6364,0,0.0005398,5394.3,0.00025111,0.070969,3.912e-05,-1592.8,-0.00054895,-6011.3,0.016757
13780,1.5534,2.7273,0,0.00054418,5438,0.00025535,0.03959,3.4637e-05,-1658.3,-0.00055307,-6074.1,0.015019
13781,1.6448,2.7273,0.05,2.9329e-06,29.309,2.2521e-06,16.922,2.9567e-13,2.4802e-06,-2.2521e-06,-16.921,0.016743
13782,1.6448,2.4545,0,0.00053976,5393.9,0.00024986,0.070431,4.1791e-05,-1563.3,-0.00054907,-6002.8,0.016694
13783,1.5534,2.5455,0,0.00054393,5435.6,0.00025431,0.039298,3.6648e-05,-1635.4,-0.00055297,-6065.5,0.014974
13784,1.6448,2.5455,0.05,2.9224e-06,29.203,2.244e-06,16.861,-1.0543e-12,4.4554e-06,-2.244e-06,-16.861,0.016693
13785,1.6448,2.2727,0,0.00053982,5394.5,0.0002481,0.070082,4.5645e-05,-1521.1,-0.00054936,-5991.7,0.016604
13786,1.5534,2.3636,0,0.00054365,5432.8,0.00025274,0.039068,3.9756e-05,-1600.2,-0.00055289,-6053.1,0.014904
13787,1.6448,2.3636,0.05,2.9078e-06,29.058,2.2329e-06,16.777,-4.8025e-13,1.5849e-05,-2.2329e-06,-16.777,0.016617
13788,1.6448,2.0909,0,0.00054011,5397.4,0.00024583,0.070489,5.0792e-05,-1465.4,-0.0005499,-5978.7,0.016485
13789,1.5534,2.1818,0,0.00054344,5430.7,0.00025064,0.039256,4.4068e-05,-1552,-0.00055293,-6037.7,0.01481
13790,1.6448,2.1818,0.05,2.8911e-06,28.891,2.22e-06,16.68,-5.7705e-13,3.8416e-06,-2.22e-06,-16.68,0.016513
13791,1.6448,1.9091,0,0.00054079,5404.2,0.00024306,0.072642,5.7365e-05,-1395.2,-0.00055084,-5964.9,0.016334
13792,1.5534,2,0,0.00054344,5430.7,0.000248,0.040532,4.9725e-05,-1489.7,-0.00055323,-6020,0.014687
13793,1.6448,2,0.05,2.8748e-06,28.728,2.2075e-06,16.586,1.8339e-12,3.0634e-05,-2.2075e-06,-16.586,0.016379
13794,1.6448,1.7273,0,0.00054207,5416.9,0.00023978,0.078168,6.5506e-05,-1309.4,-0.00055233,-5951.6,0.016147
13795,1.5534,1.8182,0,0.00054386,5434.8,0.00024481,0.044112,5.6893e-05,-1411.9,-0.00055393,-6001.4,0.014533
13796,1.6448,1.8182,0.05,2.8621e-06,28.601,2.1977e-06,16.513,-1.2903e-12,-3.5026e-15,-2.1977e-06,-16.513,0.01621
13797,1.6448,1.5455,0,0.00054417,5438,0.00023603,0.089703,7.5349e-05,-1207.2,-0.00055456,-5940.1,0.015919
13798,1.5534,1.6364,0,0.00054492,5445.4,0.00024109,0.052035,6.575e-05,-1317.4,-0.00055524,-5983.3,0.014343
13799,1.6448,1.6364,0.05,2.8566e-06,28.546,2.1935e-06,16.481,-2.0642e-13,-3.4959e-15,-2.1935e-06,-16.481,0.016004
13800,1.6448,1.3636,0,0.00054736,5469.8,0.00023184,0.11097,8.6991e-05,-1088.2,-0.00055769,-5932.1,0.015646
13801,1.5534,1.4545,0,0.00054692,5465.4,0.00023686,0.067797,7.6466e-05,-1205.1,-0.00055736,-5967.4,0.014113
13802,1.6448,1.4545,0.05,2.8611e-06,28.591,2.197e-06,16.507,2.7512e-14,3.5268e-05,-2.197e-06,-16.507,0.015754
13803,1.6448,1.1818,0,0.00055187,5514.9,0.00022727,0.14826,0.00010046,-952.69,-0.00056187,-5929.1,0.01532
13804,1.5534,1.2727,0,0.00055016,5497.8,0.00023216,0.096163,8.9162e-05,-1074.3,-0.0005605,-5955.6,0.013837
13805,1.6448,1.2727,0.05,2.8753e-06,28.733,2.2079e-06,16.589,4.5093e-12,9.2317e-05,-2.2079e-06,-16.589,0.015456
13806,1.6448,1,0,0.0005579,5575.1,0.00022241,0.2068,0.00011565,-801.96,-0.00056719,-5932.6,0.014933
13807,1.5534,1.0909,0,0.00055493,5545.5,0.00022706,0.14681,0.00010386,-925.5,-0.00056485,-5949.9,0.013507
13808,1.6448,1.0909,0.05,2.8937e-06,28.917,2.222e-06,16.695,4.9813e-12,5.8891e-05,-2.222e-06,-16.695,0.015101
13809,1.6448,0.81818,0,0.00056553,5651.4,0.00021739,0.31027,0.00013233,-638.8,-0.00057367,-5943.4,0.014477
13810,1.5534,0.90909,0,0.00056145,5610.6,0.00022168,0.22382,0.00012045,-760.42,-0.0005705,-5951.9,0.013116
13811,1.6448,0.90909,0.05,2.9036e-06,29.015,2.2296e-06,16.752,1.1942e-11,0.00010261,-2.2296e-06,-16.752,0.014681
13812,1.6448,0.63636,0,0.00057471,5743.1,0.00021237,0.43857,0.0001501,-467.41,-0.00058122,-5962.3,0.013942
13813,1.5534,0.72727,0,0.00056979,5694,0.00021619,0.37804,0.00013858,-582.71,-0.00057746,-5962.7,0.012652
13814,1.6448,0.72727,0.05,2.886e-06,28.84,2.2161e-06,16.651,1.968e-11,0.00016648,-2.2161e-06,-16.651,0.014186
13815,1.6448,0.45455,0,0.00058531,5849.1,0.00020754,0.93559,0.00016848,-292.56,-0.00058972,-5989.4,0.013316
13816,1.5534,0.54545,0,0.00057987,5794.7,0.00021077,0.53189,0.00015775,-397.85,-0.0005856,-5983,0.012105
13817,1.6448,0.54545,0.05,2.824e-06,28.221,2.1685e-06,16.293,1.3683e-11,3.4365e-06,-2.1685e-06,-16.293,0.013607
13818,1.6448,0.27273,0,0.00059801,5976,0.00020318,2.4133,0.00018764,-114.33,-0.00059983,-6031.1,0.012588
13819,1.5534,0.36364,0,0.00059152,5911.1,0.00020572,1.5769,0.00017735,-211.54,-0.0005948,-6013.2,0.011464
13820,1.6448,0.36364,0.05,2.7291e-06,27.272,2.0956e-06,15.745,7.0272e-12,0.00011585,-2.0956e-06,-15.745,0.012931
13821,1.5534,0.18182,0,0.00060637,6059.6,0.00020251,12.427,0.00019717,-27.67,-0.00060662,-6067.1,0.010717
13822,1.6448,0.18182,0.05,4.6081e-06,46.049,3.5384e-06,26.586,5.4348e-12,1.8723e-05,-3.5384e-06,-26.586,0.012147
13823,1.6448,0.090909,0,0.00060358,6031.6,0.00019969,4.3505,0.00019872,-2.8992,-0.00060355,-6030.9,0.011747
13824,1.4621,5.7273,0,0.00059981,5993.9,0.00020389,2.8988,0.00018809,-115.83,-0.00060164,-6049.5,0.0097184
13825,1.3707,5.8182,0,0.00060789,6074.7,0.00020332,19.126,0.00019776,-22.603,-0.00060794,-6076.3,0.0080799
13826,1.4621,5.8182,0.05,4.7892e-06,47.859,3.6775e-06,27.631,1.174e-12,-5.861e-15,-3.6775e-06,-27.631,0.0093137
13827,1.4621,5.9091,0,0.00060527,6048.6,0.0002007,11.017,0.00019912,-0.85433,-0.0006051,-6043.5,0.00895
13828,1.4621,5.5455,0,0.00058601,5856.1,0.00020892,1.0058,0.00016669,-316.26,-0.00059073,-6007.2,0.010375
13829,1.3707,5.6364,0,0.00059149,5910.8,0.00020642,1.875,0.00017612,-225.8,-0.00059497,-6019.5,0.008752
13830,1.4621,5.6364,0.05,3.039e-06,30.369,2.3336e-06,17.534,-4.9499e-22,-3.7191e-15,-2.3336e-06,-17.534,0.010026
13831,1.4621,5.3636,0,0.00057488,5744.8,0.00021458,0.42874,0.00014627,-512.82,-0.00058187,-5983.8,0.010932
13832,1.3707,5.4545,0,0.00057911,5787.1,0.00021239,0.70142,0.00015416,-436.87,-0.00058528,-5992.7,0.0093202
13833,1.4621,5.4545,0.05,3.1727e-06,31.705,2.4363e-06,18.305,-5.1677e-22,-1.8778e-06,-2.4363e-06,-18.305,0.010631
13834,1.4621,5.1818,0,0.00056563,5652.4,0.00022047,0.27304,0.00012672,-704.18,-0.0005743,-5971.3,0.011403
13835,1.3707,5.2727,0,0.00056886,5684.7,0.00021882,0.52779,0.00013288,-645.19,-0.00057707,-5979.5,0.0097977
13836,1.4621,5.2727,0.05,3.2217e-06,32.195,2.4739e-06,18.588,-5.2474e-22,-3.9427e-15,-2.4739e-06,-18.588,0.011144
13837,1.4621,5,0,0.0005584,5580.1,0.00022633,0.15359,0.00010866,-883.99,-0.00056815,-5969.2,0.011799
13838,1.3707,5.0909,0,0.00056092,5605.3,0.0002253,0.36119,0.0001131,-842.68,-0.00057047,-5978.7,0.010197
13839,1.4621,5.0909,0.05,3.2118e-06,32.096,2.4662e-06,18.53,-5.2313e-22,-3.9306e-15,-2.4662e-06,-18.53,0.011576
13840,1.4621,4.8182,0,0.00055314,5527.6,0.00023195,0.088365,9.2547e-05,-1047.3,-0.00056346,-5976.3,0.012132
13841,1.3707,4.9091,0,0.00055528,5549,0.00023157,0.2829,9.5432e-05,-1022.6,-0.00056555,-5989,0.010531
13842,1.4621,4.9091,0.05,3.1745e-06,31.723,2.4376e-06,18.315,-5.1706e-22,-3.885e-15,-2.4376e-06,-18.315,0.011939
13843,1.4621,4.6364,0,0.00054965,5492.7,0.00023718,0.048788,7.86e-05,-1191.4,-0.00056013,-5990.6,0.012409
13844,1.3707,4.7273,0,0.00055173,5513.5,0.00023744,0.23466,8.0185e-05,-1181.3,-0.00056224,-6008.2,0.010809
13845,1.4621,4.7273,0.05,3.1367e-06,31.346,2.4086e-06,18.097,-5.1091e-22,-7.2793e-06,-2.4086e-06,-18.097,0.012243
13846,1.4621,4.4545,0,0.00054761,5472.3,0.00024192,0.027245,6.6823e-05,-1315.6,-0.00055799,-6010.2,0.01264
13847,1.3707,4.5455,0,0.00054986,5494.8,0.00024279,0.21009,6.7374e-05,-1317.8,-0.00056028,-6033.7,0.011039
13848,1.4621,4.5455,0.05,3.1127e-06,31.106,2.3902e-06,17.959,-5.07e-22,-3.8127e-06,-2.3902e-06,-17.959,0.012495
13849,1.4621,4.2727,0,0.00054666,5462.9,0.00024612,0.015942,5.709e-05,-1420.3,-0.00055679,-6032.7,0.01283
13850,1.3707,4.3636,0,0.00054924,5488.7,0.00024754,0.19769,5.6841e-05,-1432.6,-0.00055939,-6062.8,0.011228
13851,1.4621,4.3636,0.05,3.1058e-06,31.037,2.3849e-06,17.919,-2.7779e-13,-3.8009e-15,-2.3849e-06,-17.919,0.012705
13852,1.4621,4.0909,0,0.00054647,5460.9,0.00024975,0.010524,4.9206e-05,-1506.8,-0.00055627,-6056.1,0.012986
13853,1.3707,4.1818,0,0.00054947,5491,0.00025166,0.19217,4.8342e-05,-1527.5,-0.00055927,-6092.8,0.011384
13854,1.4621,4.1818,0.05,3.1129e-06,31.108,2.3904e-06,17.96,2.028e-12,3.0603e-05,-2.3904e-06,-17.96,0.012877
13855,1.4621,3.9091,0,0.00054674,5463.7,0.0002528,0.0081922,4.2956e-05,-1576.7,-0.00055622,-6078.6,0.013111
13856,1.3707,4,0,0.0005502,5498.2,0.00025516,0.19004,4.1607e-05,-1604.4,-0.00055963,-6121.8,0.011509
13857,1.4621,4,0.05,3.1287e-06,31.265,2.4025e-06,18.051,-7.3755e-13,-3.8289e-15,-2.4025e-06,-18.051,0.013016
13858,1.4621,3.7273,0,0.00054725,5468.7,0.00025528,0.0073811,3.8136e-05,-1631.5,-0.00055643,-6098.8,0.013209
13859,1.3707,3.8182,0,0.00055116,5507.8,0.00025804,0.18946,3.6386e-05,-1665.2,-0.00056025,-6148.1,0.011609
13860,1.4621,3.8182,0.05,3.148e-06,31.458,2.4173e-06,18.162,2.8191e-13,-2.4791e-06,-2.4172e-06,-18.162,0.013127
13861,1.4621,3.5455,0,0.00054781,5474.3,0.00025719,0.0072351,3.4572e-05,-1672.6,-0.00055674,-6115.5,0.013283
13862,1.3707,3.6364,0,0.00055213,5517.5,0.00026031,0.18951,3.2463e-05,-1711.8,-0.00056095,-6170.4,0.011685
13863,1.4621,3.6364,0.05,3.1668e-06,31.646,2.4317e-06,18.271,-9.6197e-13,3.2563e-06,-2.4317e-06,-18.271,0.013213
13864,1.4621,3.3636,0,0.0005483,5479.2,0.00025854,0.0073193,3.2125e-05,-1701.2,-0.00055704,-6128,0.013334
13865,1.3707,3.4545,0,0.00055298,5526,0.000262,0.18973,2.9668e-05,-1745.4,-0.00056158,-6187.8,0.011741
13866,1.4621,3.4545,0.05,3.1827e-06,31.805,2.4439e-06,18.363,-7.1351e-13,6.9234e-07,-2.4439e-06,-18.362,0.013275
13867,1.4621,3.1818,0,0.00054862,5482.4,0.00025935,0.0074269,3.0696e-05,-1718,-0.00055726,-6135.7,0.013364
13868,1.3707,3.2727,0,0.0005536,5532.1,0.00026311,0.18993,2.7873e-05,-1767.3,-0.00056204,-6199.7,0.011777
13869,1.4621,3.2727,0.05,3.1939e-06,31.917,2.4525e-06,18.427,-1.2338e-13,-8.2797e-07,-2.4525e-06,-18.427,0.013316
13870,1.4621,3,0,0.00054873,5483.6,0.00025962,0.0074706,3.0226e-05,-1723.6,-0.00055733,-6138.3,0.013374
13871,1.3707,3.0909,0,0.00055392,5535.4,0.00026367,0.19004,2.6995e-05,-1778.1,-0.00056229,-6205.8,0.011795
13872,1.4621,3.0909,0.05,3.1997e-06,31.975,2.457e-06,18.461,-9.4527e-13,-3.1006e-07,-2.457e-06,-18.461,0.013336
13873,1.4621,2.8182,0,0.00054862,5482.4,0.00025935,0.0074269,3.0696e-05,-1718,-0.00055726,-6135.7,0.013364
13874,1.3707,2.9091,0,0.00055392,5535.4,0.00026367,0.19004,2.6995e-05,-1778.1,-0.00056229,-6205.8,0.011795
13875,1.4621,2.9091,0.05,3.1997e-06,31.975,2.457e-06,18.461,-8.6518e-13,3.1006e-07,-2.457e-06,-18.461,0.013336
13876,1.4621,2.6364,0,0.0005483,5479.2,0.00025854,0.0073193,3.2125e-05,-1701.2,-0.00055704,-6128,0.013334
13877,1.3707,2.7273,0,0.0005536,5532.1,0.00026311,0.18993,2.7873e-05,-1767.3,-0.00056204,-6199.7,0.011777
13878,1.4621,2.7273,0.05,3.1939e-06,31.917,2.4525e-06,18.427,-3.0127e-13,1.5905e-05,-2.4525e-06,-18.427,0.013316
13879,1.4621,2.4545,0,0.00054781,5474.3,0.00025719,0.0072351,3.4572e-05,-1672.6,-0.00055674,-6115.5,0.013283
13880,1.3707,2.5455,0,0.00055298,5526,0.000262,0.18973,2.9668e-05,-1745.4,-0.00056158,-6187.8,0.011741
13881,1.4621,2.5455,0.05,3.1827e-06,31.805,2.4439e-06,18.363,-3.0147e-13,3.3283e-05,-2.4439e-06,-18.362,0.013275
13882,1.4621,2.2727,0,0.00054725,5468.7,0.00025528,0.0073813,3.8136e-05,-1631.5,-0.00055643,-6098.8,0.013209
13883,1.3707,2.3636,0,0.00055213,5517.5,0.00026031,0.18951,3.2463e-05,-1711.8,-0.00056095,-6170.4,0.011685
13884,1.4621,2.3636,0.05,3.1668e-06,31.646,2.4317e-06,18.271,-3.8485e-13,7.1293e-06,-2.4317e-06,-18.271,0.013213
13885,1.4621,2.0909,0,0.00054674,5463.7,0.0002528,0.0081924,4.2956e-05,-1576.7,-0.00055622,-6078.6,0.013111
13886,1.3707,2.1818,0,0.00055116,5507.8,0.00025804,0.18946,3.6386e-05,-1665.2,-0.00056025,-6148.1,0.011609
13887,1.4621,2.1818,0.05,3.148e-06,31.458,2.4172e-06,18.162,-3.2069e-14,1.1042e-05,-2.4172e-06,-18.162,0.013127
13888,1.4621,1.9091,0,0.00054647,5460.9,0.00024975,0.010524,4.9206e-05,-1506.8,-0.00055627,-6056.1,0.012986
13889,1.3707,2,0,0.0005502,5498.2,0.00025516,0.19004,4.1607e-05,-1604.4,-0.00055963,-6121.8,0.011509
13890,1.4621,2,0.05,3.1287e-06,31.265,2.4025e-06,18.051,-7.3755e-13,5.9746e-06,-2.4025e-06,-18.051,0.013016
13891,1.4621,1.7273,0,0.00054666,5462.9,0.00024612,0.015942,5.709e-05,-1420.3,-0.00055679,-6032.7,0.01283
13892,1.3707,1.8182,0,0.00054947,5491,0.00025166,0.19217,4.8342e-05,-1527.5,-0.00055927,-6092.8,0.011384
13893,1.4621,1.8182,0.05,3.1129e-06,31.108,2.3904e-06,17.96,2.7439e-12,3.7444e-05,-2.3904e-06,-17.96,0.012877
13894,1.4621,1.5455,0,0.00054761,5472.3,0.00024192,0.027245,6.6823e-05,-1315.6,-0.00055799,-6010.2,0.01264
13895,1.3707,1.6364,0,0.00054924,5488.7,0.00024754,0.19769,5.6841e-05,-1432.6,-0.00055939,-6062.8,0.011228
13896,1.4621,1.6364,0.05,3.1058e-06,31.037,2.3849e-06,17.919,2.1914e-13,7.4395e-06,-2.3849e-06,-17.919,0.012705
13897,1.4621,1.3636,0,0.00054965,5492.7,0.00023718,0.048788,7.86e-05,-1191.4,-0.00056013,-5990.6,0.012409
13898,1.3707,1.4545,0,0.00054986,5494.8,0.00024279,0.21009,6.7374e-05,-1317.8,-0.00056028,-6033.7,0.011039
13899,1.4621,1.4545,0.05,3.1127e-06,31.106,2.3902e-06,17.959,-8.8008e-13,1.5008e-05,-2.3902e-06,-17.959,0.012495
13900,1.4621,1.1818,0,0.00055314,5527.6,0.00023195,0.088365,9.2547e-05,-1047.3,-0.00056346,-5976.3,0.012132
13901,1.3707,1.2727,0,0.00055173,5513.5,0.00023744,0.23466,8.0185e-05,-1181.3,-0.00056224,-6008.2,0.010809
13902,1.4621,1.2727,0.05,3.1367e-06,31.346,2.4086e-06,18.097,2.6033e-12,5.228e-05,-2.4086e-06,-18.097,0.012243
13903,1.4621,1,0,0.0005584,5580.1,0.00022633,0.15359,0.00010866,-883.99,-0.00056815,-5969.2,0.011799
13904,1.3707,1.0909,0,0.00055528,5549,0.00023157,0.2829,9.5432e-05,-1022.6,-0.00056555,-5989,0.010531
13905,1.4621,1.0909,0.05,3.1745e-06,31.723,2.4376e-06,18.315,6.1932e-12,5.3669e-05,-2.4376e-06,-18.315,0.011939
13906,1.4621,0.81818,0,0.00056563,5652.4,0.00022047,0.27304,0.00012672,-704.18,-0.0005743,-5971.3,0.011403
13907,1.3707,0.90909,0,0.00056092,5605.3,0.0002253,0.36119,0.0001131,-842.68,-0.00057047,-5978.7,0.010197
13908,1.4621,0.90909,0.05,3.2118e-06,32.096,2.4662e-06,18.53,6.6423e-12,5.3523e-05,-2.4662e-06,-18.53,0.011576
13909,1.4621,0.63636,0,0.00057488,5744.8,0.00021458,0.42874,0.00014627,-512.82,-0.00058187,-5983.8,0.010932
13910,1.3707,0.72727,0,0.00056886,5684.7,0.00021882,0.52779,0.00013288,-645.19,-0.00057707,-5979.5,0.0097977
13911,1.4621,0.72727,0.05,3.2217e-06,32.195,2.4739e-06,18.588,-1.4442e-13,3.4164e-06,-2.4739e-06,-18.588,0.011144
13912,1.4621,0.45455,0,0.00058601,5856.1,0.00020892,1.0058,0.00016669,-316.26,-0.00059073,-6007.2,0.010375
13913,1.3707,0.54545,0,0.00057911,5787.1,0.00021239,0.70142,0.00015416,-436.87,-0.00058528,-5992.7,0.0093202
13914,1.4621,0.54545,0.05,3.1727e-06,31.705,2.4363e-06,18.305,-8.3939e-14,-3.8828e-15,-2.4363e-06,-18.305,0.010631
13915,1.4621,0.27273,0,0.00059981,5993.9,0.00020389,2.8988,0.00018809,-115.83,-0.00060164,-6049.5,0.0097184
13916,1.3707,0.36364,0,0.00059149,5910.8,0.00020642,1.875,0.00017612,-225.8,-0.00059497,-6019.5,0.008752
13917,1.4621,0.36364,0.05,3.039e-06,30.369,2.3336e-06,17.534,1.4358e-11,6.0311e-05,-2.3336e-06,-17.534,0.010026
13918,1.3707,0.18182,0,0.00060789,6074.7,0.00020332,19.126,0.00019776,-22.603,-0.00060794,-6076.3,0.0080799
13919,1.4621,0.18182,0.05,4.7892e-06,47.859,3.6775e-06,27.631,1.6375e-12,4.3282e-05,-3.6775e-06,-27.631,0.0093137
13920,1.4621,0.090909,0,0.00060527,6048.6,0.0002007,11.017,0.00019912,-0.85433,-0.0006051,-6043.5,0.00895
13921,1.2793,5.7273,0,0.00059947,5990.6,0.00020394,3.6923,0.00018777,-117.75,-0.00060132,-6046.7,0.0072383
13922,1.1879,5.8182,0,0.00060687,6064.5,0.00020365,29.437,0.00019724,-18.72,-0.00060668,-6059,0.0058352
13923,1.2793,5.8182,0.05,4.9379e-06,49.345,3.7917e-06,28.49,-8.0428e-22,-6.0431e-15,-3.7917e-06,-28.49,0.0068737
13924,1.2793,5.9091,0,0.00060476,6043.5,0.00020136,21.359,0.0001985,-0.13005,-0.0006044,-6032.8,0.00655
13925,1.2793,5.5455,0,0.0005845,5841,0.00020987,1.361,0.00016367,-345.75,-0.00058958,-6005.4,0.0078172
13926,1.1879,5.6364,0,0.0005887,5883,0.00020641,1.8947,0.00017362,-244.49,-0.00059244,-6000.4,0.0064249
13927,1.2793,5.6364,0.05,3.4858e-06,34.834,2.6766e-06,20.111,-5.6775e-22,-4.2659e-15,-2.6766e-06,-20.111,0.0075067
13928,1.2793,5.3636,0,0.00057299,5725.9,0.00021663,0.74839,0.00014081,-568.92,-0.00058052,-5988.7,0.008301
13929,1.1879,5.4545,0,0.00057569,5752.9,0.00021363,0.45195,0.00014875,-487,-0.00058242,-5980.7,0.0069146
13930,1.2793,5.4545,0.05,3.6484e-06,36.459,2.8016e-06,21.05,-5.1094e-14,-4.465e-15,-2.8015e-06,-21.05,0.0080368
13931,1.2793,5.1818,0,0.00056403,5636.4,0.00022364,0.59327,0.00011927,-783.64,-0.00057324,-5986.9,0.0087034
13932,1.1879,5.2727,0,0.00056566,5652.7,0.00022138,0.19476,0.00012504,-723.69,-0.00057448,-5979.6,0.0073189
13933,1.2793,5.2727,0.05,3.6561e-06,36.536,2.8074e-06,21.094,-5.955e-22,-4.4744e-15,-2.8074e-06,-21.094,0.0084783
13934,1.2793,5,0,0.00055769,5573.1,0.00023054,0.47806,9.9849e-05,-981.49,-0.00056785,-5998.3,0.0090372
13935,1.1879,5.0909,0,0.00055872,5583.3,0.00022911,-0.022589,0.00010359,-943.17,-0.00056875,-5994.9,0.0076517
13936,1.2793,5.0909,0.05,3.592e-06,35.895,2.7582e-06,20.724,-5.3715e-13,-9.0119e-06,-2.7582e-06,-20.724,0.0088447
13937,1.2793,4.8182,0,0.00055377,5533.9,0.00023707,0.42161,8.3026e-05,-1157,-0.00056429,-6020.7,0.0093134
13938,1.1879,4.9091,0,0.00055468,5543,0.00023647,-0.12735,8.5076e-05,-1137.7,-0.0005652,-6023.6,0.0079252
13939,1.2793,4.9091,0.05,3.5098e-06,35.074,2.6951e-06,20.25,-5.7167e-22,-4.2953e-15,-2.6951e-06,-20.25,0.009148
13940,1.2793,4.6364,0,0.00055186,5514.8,0.00024306,0.39109,6.8905e-05,-1308.1,-0.00056233,-6050.9,0.0095414
13941,1.1879,4.7273,0,0.00055302,5526.4,0.00024324,-0.19157,6.9665e-05,-1304.3,-0.00056354,-6062,0.0081497
13942,1.2793,4.7273,0.05,3.4444e-06,34.42,2.6449e-06,19.872,-5.6101e-22,-1.9342e-06,-2.6449e-06,-19.872,0.0093985
13943,1.2793,4.4545,0,0.00055143,5510.5,0.00024841,0.3773,5.7336e-05,-1435.2,-0.00056163,-6085.9,0.009729
13944,1.1879,4.5455,0,0.0005531,5527.1,0.00024929,-0.22704,5.7165e-05,-1443.8,-0.00056333,-6105.9,0.0083337
13945,1.2793,4.5455,0.05,3.4078e-06,34.055,2.6168e-06,19.662,-4.5187e-13,-4.1705e-15,-2.6168e-06,-19.662,0.0096051
13946,1.2793,4.2727,0,0.00055201,5516.3,0.00025308,0.37171,4.8039e-05,-1540.2,-0.00056182,-6122.5,0.0098826
13947,1.1879,4.3636,0,0.0005543,5539.2,0.00025458,-0.2482,4.7213e-05,-1558.3,-0.00056412,-6151.6,0.008484
13948,1.2793,4.3636,0.05,3.3974e-06,33.951,2.6088e-06,19.601,-5.7338e-13,2.2556e-05,-2.6088e-06,-19.601,0.0097745
13949,1.2793,4.0909,0,0.00055318,5528,0.00025707,0.37014,4.0693e-05,-1625.4,-0.00056258,-6158.2,0.010007
13950,1.1879,4.1818,0,0.00055614,5557.6,0.00025911,-0.2613,3.9407e-05,-1651,-0.00056552,-6196.2,0.008606
13951,1.2793,4.1818,0.05,3.4046e-06,34.023,2.6143e-06,19.643,7.4795e-13,-3.3407e-06,-2.6143e-06,-19.643,0.0099127
13952,1.2793,3.9091,0,0.0005546,5542.1,0.0002604,0.37018,3.4992e-05,-1693.2,-0.00056362,-6191,0.010107
13953,1.1879,4,0,0.00055822,5578.4,0.00026291,-0.27007,3.3369e-05,-1724.9,-0.00056719,-6237.3,0.0087041
13954,1.2793,4,0.05,3.421e-06,34.186,2.6269e-06,19.737,-5.572e-22,-5.7598e-06,-2.6269e-06,-19.737,0.010024
13955,1.2793,3.7273,0,0.00055603,5556.4,0.00026307,0.37074,3.0672e-05,-1745.8,-0.00056473,-6219.4,0.010184
13956,1.1879,3.8182,0,0.00056027,5598.8,0.000266,-0.27629,2.8781e-05,-1782.7,-0.00056889,-6273.3,0.0087814
13957,1.2793,3.8182,0.05,3.4401e-06,34.377,2.6415e-06,19.848,-1.0935e-12,-3.547e-06,-2.6415e-06,-19.848,0.010112
13958,1.2793,3.5455,0,0.00055729,5569.1,0.00026512,0.37132,2.752e-05,-1784.9,-0.00056574,-6242.4,0.010243
13959,1.1879,3.6364,0,0.00056208,5617,0.00026843,-0.28081,2.5389e-05,-1826.4,-0.00057042,-6303.1,0.0088406
13960,1.2793,3.6364,0.05,3.458e-06,34.556,2.6553e-06,19.951,-5.3601e-13,2.8348e-06,-2.6553e-06,-19.951,0.01018
13961,1.2793,3.3636,0,0.00055827,5578.8,0.00026657,0.37175,2.5379e-05,-1811.8,-0.00056654,-6259.3,0.010283
13962,1.1879,3.4545,0,0.00056354,5631.5,0.00027022,-0.28404,2.3e-05,-1857.8,-0.00057167,-6325.9,0.0088834
13963,1.2793,3.4545,0.05,3.4725e-06,34.701,2.6664e-06,20.035,-5.9619e-13,-1.3008e-06,-2.6664e-06,-20.035,0.010229
13964,1.2793,3.1818,0,0.00055888,5585,0.00026743,0.37201,2.4137e-05,-1827.6,-0.00056705,-6269.5,0.010307
13965,1.1879,3.2727,0,0.00056455,5641.6,0.0002714,-0.28615,2.1479e-05,-1878.1,-0.00057254,-6341.3,0.0089113
13966,1.2793,3.2727,0.05,3.4825e-06,34.801,2.6742e-06,20.093,-3.1753e-13,1.4517e-05,-2.6742e-06,-20.093,0.01026
13967,1.2793,3,0,0.00055909,5587.1,0.00026771,0.3721,2.373e-05,-1832.8,-0.00056722,-6273,0.010315
13968,1.1879,3.0909,0,0.00056506,5646.7,0.00027198,-0.28719,2.074e-05,-1888,-0.00057299,-6349.1,0.008925
13969,1.2793,3.0909,0.05,3.4876e-06,34.852,2.6781e-06,20.122,-7.0569e-13,-1.1825e-07,-2.6781e-06,-20.122,0.010276
13970,1.2793,2.8182,0,0.00055888,5585,0.00026743,0.37201,2.4137e-05,-1827.6,-0.00056705,-6269.5,0.010307
13971,1.1879,2.9091,0,0.00056506,5646.7,0.00027198,-0.28719,2.074e-05,-1888,-0.00057299,-6349.1,0.008925
13972,1.2793,2.9091,0.05,3.4876e-06,34.852,2.6781e-06,20.122,-6.3458e-13,4.4601e-07,-2.6781e-06,-20.122,0.010276
13973,1.2793,2.6364,0,0.00055827,5578.8,0.00026657,0.37175,2.5379e-05,-1811.8,-0.00056654,-6259.3,0.010283
13974,1.1879,2.7273,0,0.00056455,5641.6,0.0002714,-0.28615,2.1479e-05,-1878.1,-0.00057254,-6341.3,0.0089113
13975,1.2793,2.7273,0.05,3.4825e-06,34.801,2.6742e-06,20.093,-6.8506e-13,3.0975e-05,-2.6741e-06,-20.093,0.01026
13976,1.2793,2.4545,0,0.00055729,5569.1,0.00026512,0.37132,2.752e-05,-1784.9,-0.00056574,-6242.4,0.010243
13977,1.1879,2.5455,0,0.00056354,5631.5,0.00027022,-0.28404,2.3e-05,-1857.8,-0.00057167,-6325.9,0.0088834
13978,1.2793,2.5455,0.05,3.4725e-06,34.701,2.6664e-06,20.035,-6.4963e-13,1.9512e-06,-2.6664e-06,-20.035,0.010229
13979,1.2793,2.2727,0,0.00055603,5556.4,0.00026307,0.37074,3.0672e-05,-1745.8,-0.00056473,-6219.4,0.010184
13980,1.1879,2.3636,0,0.00056208,5617,0.00026843,-0.28081,2.5389e-05,-1826.4,-0.00057042,-6303.1,0.0088406
13981,1.2793,2.3636,0.05,3.458e-06,34.556,2.6553e-06,19.951,-9.5276e-13,4.6671e-06,-2.6553e-06,-19.951,0.01018
13982,1.2793,2.0909,0,0.0005546,5542.1,0.0002604,0.37018,3.4992e-05,-1693.2,-0.00056362,-6191,0.010107
13983,1.1879,2.1818,0,0.00056027,5598.8,0.000266,-0.27629,2.8781e-05,-1782.7,-0.00056889,-6273.3,0.0087814
13984,1.2793,2.1818,0.05,3.4401e-06,34.377,2.6415e-06,19.848,-1.2003e-12,1.0118e-05,-2.6415e-06,-19.847,0.010112
13985,1.2793,1.9091,0,0.00055318,5528,0.00025707,0.37014,4.0693e-05,-1625.4,-0.00056258,-6158.2,0.010007
13986,1.1879,2,0,0.00055822,5578.4,0.00026291,-0.27007,3.3369e-05,-1724.9,-0.00056719,-6237.3,0.0087041
13987,1.2793,2,0.05,3.421e-06,34.186,2.6269e-06,19.737,-9.9503e-14,2.8799e-06,-2.6269e-06,-19.737,0.010024
13988,1.2793,1.7273,0,0.00055201,5516.3,0.00025308,0.37172,4.8039e-05,-1540.2,-0.00056182,-6122.5,0.0098826
13989,1.1879,1.8182,0,0.00055614,5557.6,0.00025911,-0.2613,3.9407e-05,-1651,-0.00056552,-6196.2,0.008606
13990,1.2793,1.8182,0.05,3.4046e-06,34.023,2.6143e-06,19.643,5.3298e-13,1.9124e-05,-2.6143e-06,-19.643,0.0099127
13991,1.2793,1.5455,0,0.00055143,5510.5,0.00024841,0.3773,5.7336e-05,-1435.2,-0.00056163,-6085.9,0.009729
13992,1.1879,1.6364,0,0.0005543,5539.2,0.00025458,-0.2482,4.7213e-05,-1558.3,-0.00056412,-6151.6,0.008484
13993,1.2793,1.6364,0.05,3.3974e-06,33.951,2.6088e-06,19.601,4.6701e-12,8.0971e-05,-2.6088e-06,-19.601,0.0097745
13994,1.2793,1.3636,0,0.00055186,5514.8,0.00024306,0.39109,6.8905e-05,-1308.1,-0.00056233,-6050.9,0.0095414
13995,1.1879,1.4545,0,0.0005531,5527.1,0.00024929,-0.22704,5.7165e-05,-1443.8,-0.00056333,-6105.9,0.0083337
13996,1.2793,1.4545,0.05,3.4078e-06,34.055,2.6168e-06,19.662,-9.0374e-13,7.6292e-06,-2.6168e-06,-19.662,0.0096051
13997,1.2793,1.1818,0,0.00055377,5533.9,0.00023707,0.42161,8.3026e-05,-1157,-0.00056429,-6020.7,0.0093134
13998,1.1879,1.2727,0,0.00055302,5526.4,0.00024324,-0.19157,6.9665e-05,-1304.3,-0.00056354,-6062,0.0081497
13999,1.2793,1.2727,0.05,3.4444e-06,34.42,2.6449e-06,19.872,4.09e-12,8.6588e-05,-2.6449e-06,-19.872,0.0093985
14000,1.2793,1,0,0.00055769,5573.1,0.00023054,0.47806,9.9849e-05,-981.49,-0.00056785,-5998.3,0.0090372
14001,1.1879,1.0909,0,0.00055468,5543,0.00023647,-0.12735,8.5076e-05,-1137.7,-0.0005652,-6023.6,0.0079252
14002,1.2793,1.0909,0.05,3.5098e-06,35.074,2.6951e-06,20.25,6.3013e-12,-4.2953e-15,-2.6951e-06,-20.25,0.009148
14003,1.2793,0.81818,0,0.00056403,5636.4,0.00022364,0.59327,0.00011927,-783.64,-0.00057324,-5986.9,0.0087034
14004,1.1879,0.90909,0,0.00055872,5583.3,0.00022911,-0.022589,0.00010359,-943.17,-0.00056875,-5994.9,0.0076517
14005,1.2793,0.90909,0.05,3.592e-06,35.895,2.7582e-06,20.724,6.9353e-12,5.588e-05,-2.7582e-06,-20.724,0.0088447
14006,1.2793,0.63636,0,0.00057299,5725.9,0.00021663,0.74839,0.00014081,-568.92,-0.00058052,-5988.7,0.008301
14007,1.1879,0.72727,0,0.00056566,5652.7,0.00022138,0.19476,0.00012504,-723.69,-0.00057448,-5979.6,0.0073189
14008,1.2793,0.72727,0.05,3.6561e-06,36.536,2.8074e-06,21.094,-9.6208e-14,-4.4744e-15,-2.8074e-06,-21.094,0.0084783
14009,1.2793,0.45455,0,0.0005845,5841,0.00020987,1.361,0.00016367,-345.75,-0.00058958,-6005.4,0.0078172
14010,1.1879,0.54545,0,0.00057569,5752.9,0.00021363,0.45195,0.00014875,-487,-0.00058242,-5980.7,0.0069146
14011,1.2793,0.54545,0.05,3.6484e-06,36.459,2.8015e-06,21.05,7.2702e-12,-4.465e-15,-2.8015e-06,-21.05,0.0080368
14012,1.2793,0.27273,0,0.00059947,5990.6,0.00020394,3.6923,0.00018777,-117.75,-0.00060132,-6046.7,0.0072383
14013,1.1879,0.36364,0,0.0005887,5883,0.00020641,1.8947,0.00017362,-244.49,-0.00059244,-6000.4,0.0064249
14014,1.2793,0.36364,0.05,3.4858e-06,34.834,2.6766e-06,20.111,7.2712e-12,-4.2659e-15,-2.6766e-06,-20.111,0.0075067
14015,1.1879,0.18182,0,0.00060687,6064.5,0.00020365,29.437,0.00019724,-18.72,-0.00060668,-6059,0.0058352
14016,1.2793,0.18182,0.05,4.9379e-06,49.345,3.7917e-06,28.49,8.2559e-12,-6.0431e-15,-3.7917e-06,-28.49,0.0068737
14017,1.2793,0.090909,0,0.00060476,6043.5,0.00020136,21.359,0.0001985,-0.13005,-0.0006044,-6032.8,0.00655
14018,1.0966,5.7273,0,0.00059596,5955.5,0.00020299,4.0343,0.00018629,-121.39,-0.00059786,-6013.2,0.0051449
14019,1.0052,5.8182,0,0.00060207,6016.6,0.00020317,44.441,0.00019516,-15.753,-0.00060156,-6002,0.0039787
14020,1.0966,5.8182,0.05,5.0574e-06,50.539,3.8835e-06,29.179,-8.2374e-22,-6.1893e-15,-3.8835e-06,-29.179,0.0048243
14021,1.0966,5.9091,0,0.00060102,6006,0.00020124,34.78,0.00019661,0.016013,-0.00060042,-5988.5,0.0045442
14022,1.0966,5.5455,0,0.00057977,5793.7,0.00021014,0.71959,0.0001588,-384.99,-0.00058534,-5976.2,0.0056401
14023,1.0052,5.6364,0,0.00058198,5815.8,0.00020557,3.3176,0.00016913,-270.42,-0.00058604,-5944.5,0.004479
14024,1.0966,5.6364,0.05,4.1551e-06,41.522,3.1906e-06,23.973,-6.7677e-22,-5.085e-15,-3.1906e-06,-23.973,0.0053715
14025,1.0966,5.3636,0,0.00056821,5678.1,0.00021837,-0.16658,0.00013301,-641.53,-0.0005764,-5971.8,0.0060455
14026,1.0052,5.4545,0,0.0005687,5683,0.0002146,2.0017,0.00014062,-553.82,-0.00057604,-5938.5,0.0048849
14027,1.0966,5.4545,0.05,4.3082e-06,43.052,3.3082e-06,24.856,-7.0171e-22,-5.2724e-15,-3.3082e-06,-24.856,0.0058202
14028,1.0966,5.1818,0,0.00056018,5598,0.00022685,-0.44936,0.00010934,-883.35,-0.00056997,-5987.4,0.0063763
14029,1.0052,5.2727,0,0.00055969,5593,0.00022418,1.8645,0.00011419,-824.54,-0.00056908,-5958.4,0.0052124
14030,1.0966,5.2727,0.05,4.22e-06,42.171,3.2404e-06,24.347,-6.8735e-22,-5.1645e-15,-3.2404e-06,-24.347,0.0061864
14031,1.0966,5,0,0.00055556,5551.8,0.00023504,-0.6433,8.8761e-05,-1099.7,-0.00056605,-6019.8,0.0066457
14032,1.0052,5.0909,0,0.00055484,5544.6,0.00023352,1.7309,9.1293e-05,-1066.9,-0.00056518,-5999.4,0.0054764
14033,1.0966,5.0909,0.05,4.0601e-06,40.573,3.1176e-06,23.425,-5.0099e-13,-4.9687e-15,-3.1176e-06,-23.425,0.0064845
14034,1.0966,4.8182,0,0.00055381,5534.3,0.00024264,-0.74958,7.1646e-05,-1285.5,-0.00056438,-6064.4,0.0068652
14035,1.0052,4.9091,0,0.00055349,5531.1,0.0002422,1.6952,7.2477e-05,-1273.5,-0.00056398,-6055.6,0.0056894
14036,1.0966,4.9091,0.05,3.9116e-06,39.089,3.0036e-06,22.568,-6.3712e-22,-4.7871e-15,-3.0036e-06,-22.568,0.0067271
14037,1.0966,4.6364,0,0.00055417,5537.9,0.00024947,-0.81528,5.7854e-05,-1440.5,-0.00056446,-6116.4,0.0070441
14038,1.0052,4.7273,0,0.00055464,5542.5,0.00024997,1.6841,5.755e-05,-1444.1,-0.00056484,-6120.5,0.0058615
14039,1.0966,4.7273,0.05,3.8116e-06,38.089,2.9268e-06,21.991,-1.6833e-13,3.8443e-05,-2.9268e-06,-21.991,0.0069247
14040,1.0966,4.4545,0,0.00055591,5555.3,0.00025546,-0.85607,4.6977e-05,-1567.3,-0.00056576,-6171.2,0.0071896
14041,1.0052,4.5455,0,0.00055733,5569.5,0.00025677,1.6885,4.5964e-05,-1582.2,-0.00056705,-6188.2,0.0060008
14042,1.0966,4.5455,0.05,3.7606e-06,37.581,2.8877e-06,21.697,-6.1253e-22,-3.8088e-06,-2.8877e-06,-21.697,0.0070855
14043,1.0966,4.2727,0,0.0005584,5580.1,0.00026061,-0.88352,3.8525e-05,-1669.6,-0.00056776,-6225,0.0073076
14044,1.0052,4.3636,0,0.00056082,5604.3,0.0002626,1.6965,3.709e-05,-1692.7,-0.00057002,-6254.3,0.0061133
14045,1.0966,4.3636,0.05,3.7445e-06,37.419,2.8753e-06,21.604,-3.0156e-13,-3.6059e-06,-2.8753e-06,-21.604,0.0072161
14046,1.0966,4.0909,0,0.00056116,5607.8,0.00026495,-0.90306,3.2036e-05,-1750.9,-0.00057008,-6275,0.0074026
14047,1.0052,4.1818,0,0.00056453,5641.4,0.00026752,1.7046,3.0351e-05,-1780.3,-0.00057326,-6315.5,0.006204
14048,1.0966,4.1818,0.05,3.7478e-06,37.452,2.8778e-06,21.623,-3.5005e-13,-3.2118e-06,-2.8778e-06,-21.623,0.0073217
14049,1.0966,3.9091,0,0.00056388,5634.9,0.00026852,-0.91763,2.7119e-05,-1814.7,-0.00057241,-6319.3,0.0074781
14050,1.0052,4,0,0.00056811,5677.2,0.00027158,1.7114,2.5276e-05,-1848.9,-0.00057643,-6369.9,0.0062763
14051,1.0966,4,0.05,3.7593e-06,37.567,2.8867e-06,21.69,1.9082e-13,-2.7284e-06,-2.8867e-06,-21.69,0.0074062
14052,1.0966,3.7273,0,0.00056631,5659.2,0.00027136,-0.92865,2.3463e-05,-1863.5,-0.00057454,-6356.7,0.0075367
14053,1.0052,3.8182,0,0.00057132,5709.2,0.00027486,1.7166,2.1502e-05,-1901.9,-0.00057931,-6416.1,0.006333
14054,1.0966,3.8182,0.05,3.7727e-06,37.701,2.8969e-06,21.766,9.4118e-13,-2.216e-06,-2.8969e-06,-21.766,0.0074727
14055,1.0966,3.5455,0,0.00056832,5679.3,0.00027353,-0.93681,2.0836e-05,-1899.6,-0.00057631,-6386.3,0.0075805
14056,1.0052,3.6364,0,0.000574,5736,0.0002774,1.7203,1.8757e-05,-1941.7,-0.00058174,-6453.5,0.0063762
14057,1.0966,3.6364,0.05,3.7846e-06,37.819,2.9061e-06,21.835,2.8159e-13,1.5101e-06,-2.9061e-06,-21.835,0.0075234
14058,1.0966,3.3636,0,0.00056981,5694.1,0.00027505,-0.94248,1.907e-05,-1924.3,-0.00057763,-6407.7,0.0076107
14059,1.0052,3.4545,0,0.00057606,5756.6,0.00027927,1.7228,1.6848e-05,-1970,-0.00058362,-6481.7,0.0064073
14060,1.0966,3.4545,0.05,3.7937e-06,37.911,2.9131e-06,21.888,-3.6505e-13,-1.2036e-06,-2.9131e-06,-21.888,0.0075601
14061,1.0966,3.1818,0,0.00057072,5703.3,0.00027595,-0.94583,1.8052e-05,-1938.7,-0.00057845,-6420.6,0.0076285
14062,1.0052,3.2727,0,0.00057746,5770.6,0.0002805,1.7243,1.5643e-05,-1988.3,-0.0005849,-6500.5,0.0064276
14063,1.0966,3.2727,0.05,3.7997e-06,37.971,2.9177e-06,21.923,-7.6142e-13,1.4586e-05,-2.9177e-06,-21.923,0.0075839
14064,1.0966,3,0,0.00057103,5706.3,0.00027625,-0.94694,1.772e-05,-1943.5,-0.00057873,-6424.9,0.0076344
14065,1.0052,3.0909,0,0.00057817,5777.7,0.0002811,1.725,1.506e-05,-1997.2,-0.00058555,-6510,0.0064375
14066,1.0966,3.0909,0.05,3.8027e-06,38.001,2.92e-06,21.94,-7.0978e-13,-1.9305e-07,-2.92e-06,-21.94,0.0075956
14067,1.0966,2.8182,0,0.00057072,5703.3,0.00027595,-0.94583,1.8052e-05,-1938.7,-0.00057845,-6420.6,0.0076285
14068,1.0052,2.9091,0,0.00057817,5777.7,0.0002811,1.725,1.506e-05,-1997.2,-0.00058555,-6510,0.0064375
14069,1.0966,2.9091,0.05,3.8027e-06,38.001,2.92e-06,21.94,-6.4959e-13,2.376e-07,-2.92e-06,-21.94,0.0075956
14070,1.0966,2.6364,0,0.00056981,5694.1,0.00027505,-0.94248,1.907e-05,-1924.3,-0.00057763,-6407.7,0.0076107
14071,1.0052,2.7273,0,0.00057746,5770.6,0.0002805,1.7243,1.5643e-05,-1988.3,-0.0005849,-6500.5,0.0064276
14072,1.0966,2.7273,0.05,3.7997e-06,37.971,2.9177e-06,21.923,-8.1605e-13,1.5839e-05,-2.9177e-06,-21.923,0.0075839
14073,1.0966,2.4545,0,0.00056832,5679.3,0.00027353,-0.93681,2.0836e-05,-1899.6,-0.00057631,-6386.3,0.0075805
14074,1.0052,2.5455,0,0.00057606,5756.6,0.00027927,1.7228,1.6848e-05,-1970,-0.00058362,-6481.7,0.0064073
14075,1.0966,2.5455,0.05,3.7937e-06,37.911,2.9131e-06,21.888,-4.136e-13,1.5046e-06,-2.9131e-06,-21.888,0.0075601
14076,1.0966,2.2727,0,0.00056631,5659.2,0.00027136,-0.92865,2.3463e-05,-1863.5,-0.00057454,-6356.7,0.0075367
14077,1.0052,2.3636,0,0.000574,5736,0.0002774,1.7203,1.8757e-05,-1941.7,-0.00058174,-6453.5,0.0063762
14078,1.0966,2.3636,0.05,3.7846e-06,37.819,2.9061e-06,21.835,-2.7531e-13,1.9373e-05,-2.9061e-06,-21.835,0.0075234
14079,1.0966,2.0909,0,0.00056388,5634.9,0.00026852,-0.91763,2.7119e-05,-1814.7,-0.00057241,-6319.3,0.0074781
14080,1.0052,2.1818,0,0.00057132,5709.2,0.00027486,1.7166,2.1502e-05,-1901.9,-0.00057931,-6416.1,0.006333
14081,1.0966,2.1818,0.05,3.7727e-06,37.701,2.8969e-06,21.766,9.2499e-13,3.3241e-06,-2.8969e-06,-21.766,0.0074727
14082,1.0966,1.9091,0,0.00056116,5607.8,0.00026495,-0.90306,3.2036e-05,-1750.9,-0.00057008,-6275,0.0074026
14083,1.0052,2,0,0.00056811,5677.2,0.00027158,1.7114,2.5276e-05,-1848.9,-0.00057643,-6369.9,0.0062763
14084,1.0966,2,0.05,3.7593e-06,37.567,2.8867e-06,21.69,1.7437e-12,1.8379e-05,-2.8867e-06,-21.689,0.0074062
14085,1.0966,1.7273,0,0.0005584,5580.1,0.00026061,-0.88352,3.8525e-05,-1669.6,-0.00056776,-6225,0.0073076
14086,1.0052,1.8182,0,0.00056453,5641.4,0.00026752,1.7046,3.0351e-05,-1780.3,-0.00057326,-6315.5,0.006204
14087,1.0966,1.8182,0.05,3.7478e-06,37.452,2.8778e-06,21.623,6.5643e-14,3.2221e-05,-2.8778e-06,-21.623,0.0073217
14088,1.0966,1.5455,0,0.00055591,5555.3,0.00025546,-0.85607,4.6977e-05,-1567.3,-0.00056576,-6171.2,0.0071896
14089,1.0052,1.6364,0,0.00056082,5604.3,0.0002626,1.6965,3.709e-05,-1692.7,-0.00057002,-6254.3,0.0061133
14090,1.0966,1.6364,0.05,3.7445e-06,37.419,2.8753e-06,21.604,-1.2062e-12,4.1121e-05,-2.8753e-06,-21.604,0.0072161
14091,1.0966,1.3636,0,0.00055417,5537.9,0.00024947,-0.81528,5.7854e-05,-1440.5,-0.00056446,-6116.4,0.0070441
14092,1.0052,1.4545,0,0.00055733,5569.5,0.00025677,1.6885,4.5964e-05,-1582.2,-0.00056705,-6188.2,0.0060008
14093,1.0966,1.4545,0.05,3.7606e-06,37.581,2.8877e-06,21.697,3.8647e-12,6.1464e-05,-2.8877e-06,-21.697,0.0070855
14094,1.0966,1.1818,0,0.00055381,5534.3,0.00024264,-0.74958,7.1646e-05,-1285.5,-0.00056438,-6064.4,0.0068652
14095,1.0052,1.2727,0,0.00055464,5542.5,0.00024997,1.6841,5.755e-05,-1444.1,-0.00056484,-6120.5,0.0058615
14096,1.0966,1.2727,0.05,3.8116e-06,38.089,2.9268e-06,21.991,9.5388e-12,3.8443e-05,-2.9268e-06,-21.991,0.0069247
14097,1.0966,1,0,0.00055556,5551.8,0.00023504,-0.6433,8.8761e-05,-1099.7,-0.00056605,-6019.8,0.0066457
14098,1.0052,1.0909,0,0.00055349,5531.1,0.0002422,1.6952,7.2477e-05,-1273.5,-0.00056398,-6055.6,0.0056894
14099,1.0966,1.0909,0.05,3.9116e-06,39.089,3.0036e-06,22.568,-1.921e-13,5.1366e-05,-3.0036e-06,-22.568,0.0067271
14100,1.0966,0.81818,0,0.00056018,5598,0.00022685,-0.44936,0.00010934,-883.35,-0.00056997,-5987.4,0.0063763
14101,1.0052,0.90909,0,0.00055484,5544.6,0.00023352,1.7309,9.1293e-05,-1066.9,-0.00056518,-5999.4,0.0054764
14102,1.0966,0.90909,0.05,4.0601e-06,40.573,3.1176e-06,23.425,7.1e-12,4.2026e-06,-3.1176e-06,-23.425,0.0064845
14103,1.0966,0.63636,0,0.00056821,5678.1,0.00021837,-0.16658,0.00013301,-641.53,-0.0005764,-5971.8,0.0060455
14104,1.0052,0.72727,0,0.00055969,5593,0.00022418,1.8645,0.00011419,-824.54,-0.00056908,-5958.4,0.0052124
14105,1.0966,0.72727,0.05,4.22e-06,42.171,3.2404e-06,24.347,1.4741e-11,6.1961e-05,-3.2404e-06,-24.347,0.0061864
14106,1.0966,0.45455,0,0.00057977,5793.7,0.00021014,0.71959,0.0001588,-384.99,-0.00058534,-5976.2,0.0056401
14107,1.0052,0.54545,0,0.0005687,5683,0.0002146,2.0017,0.00014062,-553.82,-0.00057604,-5938.5,0.0048849
14108,1.0966,0.54545,0.05,4.3082e-06,43.052,3.3082e-06,24.856,7.1312e-12,-5.2724e-15,-3.3082e-06,-24.856,0.0058202
14109,1.0966,0.27273,0,0.00059596,5955.5,0.00020299,4.0343,0.00018629,-121.39,-0.00059786,-6013.2,0.0051449
14110,1.0052,0.36364,0,0.00058198,5815.8,0.00020557,3.3176,0.00016913,-270.42,-0.00058604,-5944.5,0.004479
14111,1.0966,0.36364,0.05,4.1551e-06,41.522,3.1906e-06,23.973,6.5265e-12,0.00011929,-3.1906e-06,-23.973,0.0053715
14112,1.0052,0.18182,0,0.00060207,6016.6,0.00020317,44.441,0.00019516,-15.753,-0.00060156,-6002,0.0039787
14113,1.0966,0.18182,0.05,5.0574e-06,50.539,3.8835e-06,29.179,-1.6849e-12,-6.1893e-15,-3.8835e-06,-29.179,0.0048243
14114,1.0966,0.090909,0,0.00060102,6006,0.00020124,34.78,0.00019661,0.016014,-0.00060042,-5988.5,0.0045442
14115,0.91379,5.7273,0,0.00058787,5874.7,0.00020088,7.1159,0.00018294,-127.67,-0.00058981,-5933.8,0.003433
14116,0.82241,5.8182,0,0.00059117,5907.6,0.00020112,62.714,0.0001906,-16.349,-0.00059034,-5884.1,0.0025034
14117,0.91379,5.8182,0.05,5.1855e-06,51.819,3.9818e-06,29.918,-8.4461e-22,-6.346e-15,-3.9818e-06,-29.918,0.0031604
14118,0.91379,5.9091,0,0.00059246,5920.5,0.00019985,52.569,0.00019299,1.0286,-0.00059153,-5893.5,0.0029278
14119,0.91379,5.5455,0,0.0005707,5703.1,0.00020998,4.2597,0.00015106,-438.46,-0.0005768,-5907.3,0.0038384
14120,0.82241,5.6364,0,0.00056892,5685.3,0.00020299,-0.40549,0.00016142,-312.68,-0.0005736,-5835.4,0.0029076
14121,0.91379,5.6364,0.05,5.1822e-06,51.786,3.9793e-06,29.899,-8.4407e-22,-6.342e-15,-3.9793e-06,-29.899,0.0036148
14122,0.91379,5.3636,0,0.00055994,5595.6,0.00022039,3.95,0.0001218,-736.83,-0.00056872,-5925.1,0.0041616
14123,0.82241,5.4545,0,0.00055616,5557.8,0.00021459,-3.3319,0.00012831,-651.64,-0.00056446,-5856.8,0.0032251
14124,0.91379,5.4545,0.05,5.2299e-06,52.263,4.0159e-06,30.174,-8.5184e-22,-6.4004e-15,-4.0159e-06,-30.174,0.0039771
14125,0.91379,5.1818,0,0.00055413,5537.5,0.00023085,4.0088,9.608e-05,-1008.6,-0.00056423,-5969.9,0.0044186
14126,0.82241,5.2727,0,0.00054978,5494,0.00022665,-4.2007,9.9178e-05,-961.95,-0.00055991,-5914.1,0.0034736
14127,0.91379,5.2727,0.05,4.9434e-06,49.4,3.7959e-06,28.521,-8.0516e-22,-6.0497e-15,-3.7959e-06,-28.521,0.0042648
14128,0.91379,5,0,0.0005526,5522.2,0.00024068,4.0505,7.4915e-05,-1241.4,-0.00056301,-6034.5,0.0046235
14129,0.82241,5.0909,0,0.00054883,5484.5,0.00023799,-4.8221,7.561e-05,-1224.9,-0.00055946,-5996.6,0.0036688
14130,0.91379,5.0909,0.05,4.6266e-06,46.234,3.5527e-06,26.693,-7.5357e-22,-4.2509e-06,-3.5527e-06,-26.693,0.0044935
14131,0.91379,4.8182,0,0.0005542,5538.2,0.00024953,4.1183,5.8286e-05,-1432.8,-0.00056434,-6110.9,0.0047874
14132,0.82241,4.9091,0,0.00055167,5512.9,0.00024815,-5.1862,5.7537e-05,-1437.4,-0.00056207,-6092.8,0.0038228
14133,0.91379,4.9091,0.05,4.3903e-06,43.873,3.3712e-06,25.33,5.5539e-12,4.6589e-05,-3.3712e-06,-25.33,0.0046759
14134,0.91379,4.6364,0,0.00055773,5573.5,0.00025727,4.1817,4.5581e-05,-1586.4,-0.00056734,-6191.7,0.0049189
14135,0.82241,4.7273,0,0.00055668,5563,0.00025697,-5.4378,4.4073e-05,-1605.1,-0.00056654,-6193,0.0039451
14136,0.91379,4.7273,0.05,4.2504e-06,42.475,3.2638e-06,24.523,-1.8841e-13,-7.5166e-06,-3.2638e-06,-24.523,0.0048219
14137,0.91379,4.4545,0,0.0005622,5618.2,0.00026391,4.2373,3.6016e-05,-1708.1,-0.00057125,-6270.8,0.0050247
14138,0.82241,4.5455,0,0.00056263,5622.5,0.00026448,-5.6157,3.4167e-05,-1736.1,-0.00057191,-6289.9,0.0040427
14139,0.91379,4.5455,0.05,4.1811e-06,41.782,3.2106e-06,24.123,-2.6237e-13,1.7607e-05,-3.2106e-06,-24.123,0.0049392
14140,0.91379,4.2727,0,0.00056694,5665.4,0.00026951,4.2823,2.8869e-05,-1803.8,-0.00057547,-6344.5,0.0051096
14141,0.82241,4.3636,0,0.00056871,5683.2,0.00027078,-5.7494,2.6905e-05,-1838.1,-0.00057746,-6379.1,0.0041207
14142,0.91379,4.3636,0.05,4.1517e-06,41.489,3.188e-06,23.953,-3.2149e-13,-3.4725e-06,-3.188e-06,-23.953,0.0050334
14143,0.91379,4.0909,0,0.00057148,5710.8,0.00027415,4.3176,2.3555e-05,-1878.5,-0.00057957,-6410.2,0.0051774
14144,0.82241,4.1818,0,0.00057444,5740.4,0.000276,-5.8519,2.1582e-05,-1917.4,-0.00058275,-6458.1,0.004183
14145,0.91379,4.1818,0.05,4.141e-06,41.381,3.1798e-06,23.892,-9.0947e-13,3.5925e-05,-3.1798e-06,-23.892,0.0051088
14146,0.91379,3.9091,0,0.00057555,5751.5,0.00027792,4.3446,1.963e-05,-1936.3,-0.0005833,-6466.5,0.005231
14147,0.82241,4,0,0.00057953,5791.3,0.00028025,-5.9313,1.7684e-05,-1978.8,-0.0005875,-6525.9,0.0042323
14148,0.91379,4,0.05,4.1373e-06,41.345,3.177e-06,23.871,-1.9859e-13,2.1054e-05,-3.177e-06,-23.87,0.0051688
14149,0.91379,3.7273,0,0.000579,5786,0.0002809,4.3647,1.6769e-05,-1980.2,-0.00058648,-6512.8,0.0052724
14150,0.82241,3.8182,0,0.00058385,5834.4,0.00028365,-5.9923,1.4847e-05,-2025.6,-0.00059155,-6581.9,0.0042707
14151,0.91379,3.8182,0.05,4.1355e-06,41.327,3.1756e-06,23.86,-4.53e-13,-5.061e-15,-3.1756e-06,-23.86,0.0052157
14152,0.91379,3.5455,0,0.00058174,5813.3,0.00028315,4.3792,1.4744e-05,-2012.3,-0.00058902,-6548.7,0.0053031
14153,0.82241,3.6364,0,0.00058732,5869.2,0.00028626,-6.0382,1.2817e-05,-2060.6,-0.00059484,-6626.3,0.0042999
14154,0.91379,3.6364,0.05,4.1337e-06,41.309,3.1742e-06,23.85,-3.1038e-13,1.9924e-05,-3.1742e-06,-23.849,0.0052513
14155,0.91379,3.3636,0,0.00058371,5833.1,0.00028472,4.389,1.3397e-05,-2034.2,-0.00059086,-6574.4,0.0053244
14156,0.82241,3.4545,0,0.00058994,5895.3,0.00028817,-6.071,1.1423e-05,-2085.4,-0.00059732,-6659.3,0.0043209
14157,0.91379,3.4545,0.05,4.1318e-06,41.289,3.1727e-06,23.838,-5.7592e-13,-5.4851e-07,-3.1727e-06,-23.838,0.005277
14158,0.91379,3.1818,0,0.0005849,5845,0.00028565,4.3946,1.2627e-05,-2047,-0.00059198,-6589.7,0.0053368
14159,0.82241,3.2727,0,0.00059168,5912.7,0.00028941,-6.0922,1.0549e-05,-2101.3,-0.00059898,-6681.1,0.0043345
14160,0.91379,3.2727,0.05,4.1301e-06,41.272,3.1714e-06,23.829,-5.1933e-13,-4.8833e-07,-3.1714e-06,-23.829,0.0052937
14161,0.91379,3,0,0.0005853,5848.9,0.00028596,4.3965,1.2376e-05,-2051.2,-0.00059235,-6594.8,0.0053409
14162,0.82241,3.0909,0,0.00059255,5921.4,0.00029003,-6.1026,1.0129e-05,-2109.1,-0.0005998,-6691.9,0.0043412
14163,0.91379,3.0909,0.05,4.1291e-06,41.263,3.1706e-06,23.823,-4.785e-13,-1.2647e-07,-3.1706e-06,-23.823,0.0053019
14164,0.91379,2.8182,0,0.0005849,5845,0.00028565,4.3946,1.2627e-05,-2047,-0.00059198,-6589.7,0.0053368
14165,0.82241,2.9091,0,0.00059255,5921.4,0.00029003,-6.1026,1.0129e-05,-2109.1,-0.0005998,-6691.9,0.0043412
14166,0.91379,2.9091,0.05,4.1291e-06,41.263,3.1706e-06,23.823,-4.2866e-13,2.5121e-07,-3.1706e-06,-23.823,0.0053019
14167,0.91379,2.6364,0,0.00058371,5833.1,0.00028472,4.389,1.3397e-05,-2034.2,-0.00059086,-6574.4,0.0053244
14168,0.82241,2.7273,0,0.00059168,5912.7,0.00028941,-6.0922,1.0549e-05,-2101.3,-0.00059898,-6681.1,0.0043345
14169,0.91379,2.7273,0.05,4.1301e-06,41.272,3.1714e-06,23.829,-4.7694e-13,6.5111e-07,-3.1714e-06,-23.829,0.0052937
14170,0.91379,2.4545,0,0.00058174,5813.3,0.00028315,4.3792,1.4744e-05,-2012.3,-0.00058902,-6548.7,0.0053031
14171,0.82241,2.5455,0,0.00058994,5895.3,0.00028817,-6.071,1.1423e-05,-2085.4,-0.00059732,-6659.3,0.0043209
14172,0.91379,2.5455,0.05,4.1318e-06,41.289,3.1727e-06,23.838,-2.0659e-13,1.3713e-06,-3.1727e-06,-23.838,0.005277
14173,0.91379,2.2727,0,0.000579,5786,0.0002809,4.3647,1.6769e-05,-1980.2,-0.00058648,-6512.8,0.0052724
14174,0.82241,2.3636,0,0.00058732,5869.2,0.00028626,-6.0382,1.2817e-05,-2060.6,-0.00059484,-6626.3,0.0042999
14175,0.91379,2.3636,0.05,4.1337e-06,41.309,3.1742e-06,23.85,-4.9801e-13,2.1483e-05,-3.1742e-06,-23.849,0.0052513
14176,0.91379,2.0909,0,0.00057555,5751.5,0.00027792,4.3446,1.963e-05,-1936.3,-0.0005833,-6466.5,0.005231
14177,0.82241,2.1818,0,0.00058385,5834.4,0.00028365,-5.9923,1.4847e-05,-2025.6,-0.00059155,-6581.9,0.0042707
14178,0.91379,2.1818,0.05,4.1355e-06,41.327,3.1756e-06,23.86,-3.1436e-14,1.1507e-05,-3.1756e-06,-23.86,0.0052157
14179,0.91379,1.9091,0,0.00057148,5710.8,0.00027415,4.3176,2.3555e-05,-1878.5,-0.00057957,-6410.2,0.0051774
14180,0.82241,2,0,0.00057953,5791.3,0.00028025,-5.9313,1.7684e-05,-1978.8,-0.0005875,-6525.9,0.0042323
14181,0.91379,2,0.05,4.1373e-06,41.345,3.177e-06,23.871,1.034e-12,3.6918e-05,-3.177e-06,-23.87,0.0051688
14182,0.91379,1.7273,0,0.00056694,5665.4,0.00026951,4.2823,2.8869e-05,-1803.8,-0.00057547,-6344.5,0.0051096
14183,0.82241,1.8182,0,0.00057444,5740.4,0.000276,-5.8519,2.1582e-05,-1917.4,-0.00058275,-6458.1,0.004183
14184,0.91379,1.8182,0.05,4.141e-06,41.381,3.1798e-06,23.892,-3.6988e-13,5.3959e-05,-3.1798e-06,-23.892,0.0051088
14185,0.91379,1.5455,0,0.0005622,5618.2,0.00026391,4.2373,3.6016e-05,-1708.1,-0.00057125,-6270.8,0.0050247
14186,0.82241,1.6364,0,0.00056871,5683.2,0.00027078,-5.7494,2.6905e-05,-1838.1,-0.00057746,-6379.1,0.0041207
14187,0.91379,1.6364,0.05,4.1517e-06,41.489,3.188e-06,23.953,-3.8978e-13,3.4725e-06,-3.188e-06,-23.953,0.0050334
14188,0.91379,1.3636,0,0.00055773,5573.5,0.00025727,4.1817,4.5581e-05,-1586.4,-0.00056734,-6191.7,0.0049189
14189,0.82241,1.4545,0,0.00056263,5622.5,0.00026448,-5.6157,3.4167e-05,-1736.1,-0.00057191,-6289.9,0.0040427
14190,0.91379,1.4545,0.05,4.1811e-06,41.782,3.2106e-06,24.123,2.7403e-12,5.918e-05,-3.2106e-06,-24.123,0.0049392
14191,0.91379,1.1818,0,0.0005542,5538.2,0.00024953,4.1183,5.8286e-05,-1432.8,-0.00056434,-6110.9,0.0047874
14192,0.82241,1.2727,0,0.00055668,5563,0.00025697,-5.4378,4.4073e-05,-1605.1,-0.00056654,-6193,0.0039451
14193,0.91379,1.2727,0.05,4.2504e-06,42.475,3.2638e-06,24.523,3.308e-13,3.5747e-05,-3.2638e-06,-24.523,0.0048219
14194,0.91379,1,0,0.0005526,5522.2,0.00024068,4.0505,7.4915e-05,-1241.4,-0.00056301,-6034.5,0.0046235
14195,0.82241,1.0909,0,0.00055167,5512.9,0.00024815,-5.1862,5.7537e-05,-1437.4,-0.00056207,-6092.8,0.0038228
14196,0.91379,1.0909,0.05,4.3903e-06,43.873,3.3712e-06,25.33,5.8965e-12,0.00015635,-3.3712e-06,-25.33,0.0046759
14197,0.91379,0.81818,0,0.00055413,5537.5,0.00023085,4.0088,9.608e-05,-1008.6,-0.00056423,-5969.9,0.0044186
14198,0.82241,0.90909,0,0.00054883,5484.5,0.00023799,-4.8221,7.561e-05,-1224.9,-0.00055946,-5996.6,0.0036688
14199,0.91379,0.90909,0.05,4.6266e-06,46.234,3.5527e-06,26.693,9.3638e-13,8.5019e-06,-3.5527e-06,-26.693,0.0044935
14200,0.91379,0.63636,0,0.00055994,5595.6,0.00022039,3.95,0.0001218,-736.83,-0.00056872,-5925.1,0.0041616
14201,0.82241,0.72727,0,0.00054978,5494,0.00022665,-4.2007,9.9178e-05,-961.95,-0.00055991,-5914.1,0.0034736
14202,0.91379,0.72727,0.05,4.9434e-06,49.4,3.7959e-06,28.521,2.1967e-11,6.2978e-05,-3.7959e-06,-28.521,0.0042648
14203,0.91379,0.45455,0,0.0005707,5703.1,0.00020998,4.2597,0.00015106,-438.46,-0.0005768,-5907.3,0.0038384
14204,0.82241,0.54545,0,0.00055616,5557.8,0.00021459,-3.3319,0.00012831,-651.64,-0.00056446,-5856.8,0.0032251
14205,0.91379,0.54545,0.05,5.2299e-06,52.263,4.0159e-06,30.174,-5.1789e-13,-6.4004e-15,-4.0159e-06,-30.174,0.0039771
14206,0.91379,0.27273,0,0.00058787,5874.7,0.00020088,7.1159,0.00018294,-127.67,-0.00058981,-5933.8,0.003433
14207,0.82241,0.36364,0,0.00056892,5685.3,0.00020299,-0.40549,0.00016142,-312.68,-0.0005736,-5835.4,0.0029076
14208,0.91379,0.36364,0.05,5.1822e-06,51.786,3.9793e-06,29.899,-3.6579e-21,-6.342e-15,-3.9793e-06,-29.899,0.0036148
14209,0.82241,0.18182,0,0.00059117,5907.6,0.00020112,62.714,0.0001906,-16.349,-0.00059034,-5884.1,0.0025034
14210,0.91379,0.18182,0.05,5.1855e-06,51.819,3.9818e-06,29.918,4.082e-12,4.3173e-05,-3.9818e-06,-29.918,0.0031604
14211,0.91379,0.090909,0,0.00059246,5920.5,0.00019985,52.569,0.00019299,1.0286,-0.00059153,-5893.5,0.0029278
14212,0.73103,5.7273,0,0.00057187,5714.8,0.00019595,0.44501,0.00017644,-146.11,-0.00057421,-5786.2,0.0020936
14213,0.63966,5.8182,0,0.0005707,5703,0.00019616,88.075,0.00018312,-9.8871,-0.0005693,-5663.3,0.0013977
14214,0.73103,5.8182,0.05,5.5986e-06,55.948,4.2991e-06,32.301,-9.1189e-22,-6.8516e-15,-4.2991e-06,-32.301,0.0018731
14215,0.73103,5.9091,0,0.00057609,5757,0.00019634,73.877,0.00018632,-1.4318,-0.00057482,-5720.4,0.0016919
14216,0.73103,5.5455,0,0.00055403,5536.4,0.00020754,-8.4483,0.00013876,-525.22,-0.00056129,-5785.1,0.002404
14217,0.63966,5.6364,0,0.00054759,5472.1,0.0002005,17.402,0.00014795,-377.41,-0.00055264,-5641.4,0.0016995
14218,0.73103,5.6364,0.05,6.804e-06,67.993,5.2246e-06,39.256,-1.1082e-21,-8.3268e-15,-5.2246e-06,-39.256,0.0022281
14219,0.73103,5.3636,0,0.00054563,5452.5,0.00022084,-11.594,0.00010561,-877.32,-0.00055557,-5845.2,0.0026425
14220,0.63966,5.4545,0,0.00053839,5380.2,0.00021681,19.326,0.00010936,-788.02,-0.00054691,-5719,0.001926
14221,0.73103,5.4545,0.05,6.5034e-06,64.99,4.9938e-06,37.522,-1.0593e-21,-7.9589e-15,-4.9938e-06,-37.522,0.0024998
14222,0.73103,5.1818,0,0.00054419,5438.1,0.00023378,-13.079,7.8568e-05,-1179.3,-0.000555,-5939.7,0.0028261
14223,0.63966,5.2727,0,0.00053839,5380.2,0.00023256,20.756,7.8635e-05,-1135.8,-0.00054795,-5843.7,0.0020962
14224,0.73103,5.2727,0.05,5.8511e-06,58.47,4.4929e-06,33.758,-9.5301e-22,-7.1605e-15,-4.4929e-06,-33.758,0.002708
14225,0.73103,5,0,0.00054772,5473.4,0.00024546,-14.082,5.8096e-05,-1421.9,-0.00055838,-6053.8,0.0029686
14226,0.63966,5.0909,0,0.00054451,5441.3,0.00024651,21.757,5.6294e-05,-1407.5,-0.00055381,-5991.5,0.0022255
14227,0.73103,5.0909,0.05,5.3233e-06,53.196,4.0876e-06,30.713,1.2829e-11,-6.5146e-15,-4.0876e-06,-30.713,0.0028685
14228,0.73103,4.8182,0,0.00055406,5536.8,0.00025559,-14.754,4.3223e-05,-1610.4,-0.00056417,-6174.1,0.0030803
14229,0.63966,4.9091,0,0.00055362,5532.4,0.00025839,22.557,4.0712e-05,-1613,-0.00056223,-6143.2,0.002325
14230,0.73103,4.9091,0.05,4.9977e-06,49.942,3.8376e-06,28.834,-8.1401e-22,-6.1162e-15,-3.8376e-06,-28.834,0.0029935
14231,0.73103,4.6364,0,0.00056155,5611.6,0.00026418,-15.242,3.2595e-05,-1755.3,-0.00057104,-6290.8,0.0031684
14232,0.63966,4.7273,0,0.00056362,5632.3,0.00026829,23.164,2.9968e-05,-1767.5,-0.00057151,-6286.8,0.0024026
14233,0.73103,4.7273,0.05,4.8213e-06,48.179,3.7021e-06,27.816,-7.8528e-22,-5.9003e-15,-3.7021e-06,-27.816,0.0030917
14234,0.73103,4.4545,0,0.00056913,5687.4,0.00027135,-15.606,2.5018e-05,-1866.4,-0.00057808,-6397.9,0.0032384
14235,0.63966,4.5455,0,0.00057331,5729.1,0.00027647,23.633,2.2529e-05,-1884.3,-0.0005806,-6416,0.0024635
14236,0.73103,4.5455,0.05,4.7267e-06,47.235,3.6296e-06,27.271,2.4046e-12,9.9064e-06,-3.6296e-06,-27.271,0.0031694
14237,0.73103,4.2727,0,0.00057621,5758.2,0.00027727,-15.886,1.9595e-05,-1952,-0.00058472,-6492.6,0.003294
14238,0.63966,4.3636,0,0.0005821,5817,0.00028316,23.996,1.7323e-05,-1973.4,-0.00058893,-6528.6,0.0025117
14239,0.73103,4.3636,0.05,4.6701e-06,46.669,3.5861e-06,26.944,-3.4705e-13,-5.7153e-15,-3.5861e-06,-26.944,0.0032312
14240,0.73103,4.0909,0,0.00058249,5820.9,0.0002821,-16.102,1.5695e-05,-2017.8,-0.00059066,-6573.7,0.0033381
14241,0.63966,4.1818,0,0.00058977,5893.6,0.0002886,24.278,1.364e-05,-2041.7,-0.00059626,-6624.2,0.0025498
14242,0.73103,4.1818,0.05,4.6297e-06,46.265,3.555e-06,26.711,-3.837e-13,3.1947e-05,-3.555e-06,-26.711,0.0032802
14243,0.73103,3.9091,0,0.00058782,5874.2,0.00028598,-16.269,1.2888e-05,-2068.2,-0.00059574,-6641.2,0.0033727
14244,0.63966,4,0,0.00059624,5958.3,0.00029297,24.497,1.1014e-05,-2094,-0.00060247,-6703.5,0.0025798
14245,0.73103,4,0.05,4.5965e-06,45.933,3.5295e-06,26.519,-1.0232e-13,-5.6251e-15,-3.5295e-06,-26.519,0.0033188
14246,0.73103,3.7273,0,0.00059217,5917.6,0.00028901,-16.396,1.0881e-05,-2106.1,-0.0005999,-6695.3,0.0033994
14247,0.63966,3.8182,0,0.00060152,6011,0.00029642,24.665,9.1412e-06,-2133.8,-0.00060757,-6767.6,0.0026031
14248,0.73103,3.8182,0.05,4.5678e-06,45.647,3.5075e-06,26.354,-4.291e-13,-9.1307e-07,-3.5075e-06,-26.354,0.0033489
14249,0.73103,3.5455,0,0.00059552,5951.1,0.00029128,-16.489,9.4811e-06,-2133.8,-0.00060313,-6736.7,0.0034191
14250,0.63966,3.6364,0,0.00060566,6052.4,0.00029905,24.79,7.8212e-06,-2163.4,-0.00061158,-6817.4,0.0026207
14251,0.73103,3.6364,0.05,4.5436e-06,45.405,3.4889e-06,26.214,-3.0234e-13,2.7984e-06,-3.4889e-06,-26.214,0.0033717
14252,0.73103,3.3636,0,0.0005979,5974.8,0.00029286,-16.553,8.5592e-06,-2152.7,-0.00060542,-6765.9,0.0034326
14253,0.63966,3.4545,0,0.00060871,6082.9,0.00030096,24.88,6.9239e-06,-2184.4,-0.00061455,-6853.9,0.0026333
14254,0.73103,3.4545,0.05,4.5245e-06,45.213,3.4742e-06,26.104,-5.0527e-13,6.0548e-05,-3.4742e-06,-26.104,0.003388
14255,0.73103,3.1818,0,0.00059931,5989,0.00029379,-16.59,8.0353e-06,-2163.6,-0.00060679,-6783.2,0.0034406
14256,0.63966,3.2727,0,0.00061071,6102.9,0.0003022,24.937,6.3662e-06,-2197.8,-0.0006165,-6877.8,0.0026415
14257,0.73103,3.2727,0.05,4.5112e-06,45.081,3.464e-06,26.027,-4.9513e-13,-9.3994e-09,-3.464e-06,-26.027,0.0033986
14258,0.73103,3,0,0.00059978,5993.7,0.00029409,-16.602,7.8654e-06,-2167.2,-0.00060724,-6788.9,0.0034432
14259,0.63966,3.0909,0,0.0006117,6112.8,0.00030281,24.965,6.0988e-06,-2204.4,-0.00061747,-6889.6,0.0026455
14260,0.73103,3.0909,0.05,4.5044e-06,45.013,3.4588e-06,25.988,-4.7155e-13,-1.3143e-07,-3.4588e-06,-25.988,0.0034038
14261,0.73103,2.8182,0,0.00059931,5989,0.00029379,-16.59,8.0353e-06,-2163.6,-0.00060679,-6783.2,0.0034406
14262,0.63966,2.9091,0,0.0006117,6112.8,0.00030281,24.965,6.0988e-06,-2204.4,-0.00061747,-6889.6,0.0026455
14263,0.73103,2.9091,0.05,4.5044e-06,45.013,3.4588e-06,25.988,-4.3594e-13,1.4935e-07,-3.4588e-06,-25.988,0.0034038
14264,0.73103,2.6364,0,0.0005979,5974.8,0.00029286,-16.553,8.5592e-06,-2152.7,-0.00060542,-6765.9,0.0034326
14265,0.63966,2.7273,0,0.00061071,6102.9,0.0003022,24.937,6.3662e-06,-2197.8,-0.0006165,-6877.8,0.0026415
14266,0.73103,2.7273,0.05,4.5112e-06,45.081,3.464e-06,26.027,-3.8333e-13,8.5636e-07,-3.464e-06,-26.027,0.0033986
14267,0.73103,2.4545,0,0.00059552,5951.1,0.00029128,-16.489,9.4811e-06,-2133.8,-0.00060313,-6736.7,0.0034191
14268,0.63966,2.5455,0,0.00060871,6082.9,0.00030096,24.88,6.9239e-06,-2184.4,-0.00061455,-6853.9,0.0026333
14269,0.73103,2.5455,0.05,4.5245e-06,45.213,3.4742e-06,26.104,-3.311e-13,6.2009e-05,-3.4742e-06,-26.104,0.003388
14270,0.73103,2.2727,0,0.00059217,5917.6,0.00028901,-16.396,1.0881e-05,-2106.1,-0.0005999,-6695.3,0.0033994
14271,0.63966,2.3636,0,0.00060566,6052.4,0.00029905,24.79,7.8212e-06,-2163.4,-0.00061158,-6817.4,0.0026207
14272,0.73103,2.3636,0.05,4.5436e-06,45.405,3.4889e-06,26.214,-4.932e-13,8.0161e-06,-3.4889e-06,-26.214,0.0033717
14273,0.73103,2.0909,0,0.00058782,5874.2,0.00028598,-16.269,1.2888e-05,-2068.2,-0.00059574,-6641.2,0.0033727
14274,0.63966,2.1818,0,0.00060152,6011,0.00029642,24.665,9.1412e-06,-2133.8,-0.00060757,-6767.6,0.0026031
14275,0.73103,2.1818,0.05,4.5678e-06,45.647,3.5075e-06,26.354,2.1126e-14,1.8261e-06,-3.5075e-06,-26.354,0.0033489
14276,0.73103,1.9091,0,0.00058249,5820.9,0.0002821,-16.102,1.5695e-05,-2017.8,-0.00059066,-6573.7,0.0033381
14277,0.63966,2,0,0.00059624,5958.3,0.00029297,24.497,1.1014e-05,-2094,-0.00060247,-6703.5,0.0025798
14278,0.73103,2,0.05,4.5965e-06,45.933,3.5295e-06,26.519,1.8193e-13,7.2481e-06,-3.5295e-06,-26.519,0.0033188
14279,0.73103,1.7273,0,0.00057621,5758.2,0.00027727,-15.886,1.9595e-05,-1952,-0.00058472,-6492.6,0.003294
14280,0.63966,1.8182,0,0.00058977,5893.6,0.0002886,24.278,1.364e-05,-2041.7,-0.00059626,-6624.2,0.0025498
14281,0.73103,1.8182,0.05,4.6297e-06,46.265,3.555e-06,26.711,2.2326e-13,2.3227e-05,-3.555e-06,-26.711,0.0032802
14282,0.73103,1.5455,0,0.00056913,5687.4,0.00027135,-15.606,2.5018e-05,-1866.4,-0.00057808,-6397.9,0.0032384
14283,0.63966,1.6364,0,0.0005821,5817,0.00028316,23.996,1.7323e-05,-1973.4,-0.00058893,-6528.6,0.0025117
14284,0.73103,1.6364,0.05,4.6701e-06,46.669,3.5861e-06,26.944,2.1891e-12,3.2436e-06,-3.5861e-06,-26.944,0.0032312
14285,0.73103,1.3636,0,0.00056155,5611.6,0.00026418,-15.242,3.2595e-05,-1755.3,-0.00057104,-6290.8,0.0031684
14286,0.63966,1.4545,0,0.00057331,5729.1,0.00027647,23.633,2.2529e-05,-1884.3,-0.0005806,-6416,0.0024635
14287,0.73103,1.4545,0.05,4.7267e-06,47.235,3.6296e-06,27.271,3.4026e-12,2.5051e-05,-3.6296e-06,-27.271,0.0031694
14288,0.73103,1.1818,0,0.00055406,5536.8,0.00025559,-14.754,4.3223e-05,-1610.4,-0.00056417,-6174.1,0.0030803
14289,0.63966,1.2727,0,0.00056362,5632.3,0.00026829,23.164,2.9968e-05,-1767.5,-0.00057151,-6286.8,0.0024026
14290,0.73103,1.2727,0.05,4.8213e-06,48.179,3.7021e-06,27.816,-4.4981e-13,6.9327e-05,-3.7021e-06,-27.816,0.0030917
14291,0.73103,1,0,0.00054772,5473.4,0.00024546,-14.082,5.8096e-05,-1421.9,-0.00055838,-6053.8,0.0029686
14292,0.63966,1.0909,0,0.00055362,5532.4,0.00025839,22.557,4.0712e-05,-1613,-0.00056223,-6143.2,0.002325
14293,0.73103,1.0909,0.05,4.9977e-06,49.942,3.8376e-06,28.834,1.1202e-12,5.4106e-05,-3.8376e-06,-28.834,0.0029935
14294,0.73103,0.81818,0,0.00054419,5438.1,0.00023378,-13.079,7.8568e-05,-1179.3,-0.000555,-5939.7,0.0028261
14295,0.63966,0.90909,0,0.00054451,5441.3,0.00024651,21.757,5.6294e-05,-1407.5,-0.00055381,-5991.5,0.0022255
14296,0.73103,0.90909,0.05,5.3233e-06,53.196,4.0876e-06,30.713,1.2668e-11,0.00011928,-4.0876e-06,-30.713,0.0028685
14297,0.73103,0.63636,0,0.00054563,5452.5,0.00022084,-11.594,0.00010561,-877.32,-0.00055557,-5845.2,0.0026425
14298,0.63966,0.72727,0,0.00053839,5380.2,0.00023256,20.756,7.8635e-05,-1135.8,-0.00054795,-5843.7,0.0020962
14299,0.73103,0.72727,0.05,5.8511e-06,58.47,4.4929e-06,33.758,7.3579e-12,1.3981e-06,-4.4929e-06,-33.758,0.002708
14300,0.73103,0.45455,0,0.00055403,5536.4,0.00020754,-8.4483,0.00013876,-525.22,-0.00056129,-5785.1,0.002404
14301,0.63966,0.54545,0,0.00053839,5380.2,0.00021681,19.326,0.00010936,-788.02,-0.00054691,-5719,0.001926
14302,0.73103,0.54545,0.05,6.5034e-06,64.99,4.9938e-06,37.522,-1.0362e-13,0.00017832,-4.9938e-06,-37.522,0.0024998
14303,0.73103,0.27273,0,0.00057187,5714.8,0.00019595,0.44501,0.00017644,-146.11,-0.00057421,-5786.2,0.0020936
14304,0.63966,0.36364,0,0.00054759,5472.1,0.0002005,17.402,0.00014795,-377.41,-0.00055264,-5641.4,0.0016995
14305,0.73103,0.36364,0.05,6.804e-06,67.993,5.2246e-06,39.256,-2.5007e-13,5.2644e-05,-5.2246e-06,-39.256,0.0022281
14306,0.63966,0.18182,0,0.0005707,5703,0.00019616,88.075,0.00018312,-9.8871,-0.0005693,-5663.3,0.0013977
14307,0.73103,0.18182,0.05,5.5986e-06,55.948,4.2991e-06,32.301,6.2682e-12,0.00016861,-4.2991e-06,-32.301,0.0018731
14308,0.73103,0.090909,0,0.00057609,5757,0.00019634,73.877,0.00018632,-1.4318,-0.00057482,-5720.4,0.0016919
14309,0.54828,5.7273,0,0.00054571,5453.3,0.00019124,33.818,0.00016411,-169.98,-0.00054774,-5518.5,0.0011121
14310,0.4569,5.8182,0,0.00053021,5298.5,0.00018508,96.816,0.00016665,-41.654,-0.00052914,-5269.5,0.0006422
14311,0.54828,5.8182,0.05,7.025e-06,70.201,5.3943e-06,40.531,-1.1442e-21,-8.5971e-15,-5.3943e-06,-40.531,0.00094777
14312,0.54828,5.9091,0,0.00054725,5468.7,0.00018919,108.54,0.00017595,8.9842,-0.00054519,-5409.3,0.00082136
14313,0.54828,5.5455,0,0.00053133,5309.6,0.0002097,44.603,0.00011851,-640.54,-0.00053814,-5574.3,0.0013246
14314,0.4569,5.6364,0,0.00050641,5060.6,0.00018916,-48.818,0.00012388,-539.31,-0.00051462,-5336.8,0.00083802
14315,0.54828,5.6364,0.05,9.4181e-06,94.116,7.2319e-06,54.338,-1.534e-21,-4.9528e-05,-7.2319e-06,-54.338,0.0011976
14316,0.54828,5.3636,0,0.00053071,5303.5,0.00022851,51.526,8.2152e-05,-1048.2,-0.00053904,-5715.6,0.0014794
14317,0.4569,5.4545,0,0.00050623,5058.8,0.00021081,-67.278,8.0774e-05,-1044.3,-0.00051801,-5543.4,0.00097514
14318,0.54828,5.4545,0.05,8.1835e-06,81.778,6.2839e-06,47.215,-1.3329e-21,-1.0015e-14,-6.2839e-06,-47.215,0.0013777
14319,0.54828,5.1818,0,0.00053852,5381.5,0.00024528,55.533,5.6153e-05,-1365.5,-0.00054654,-5893.9,0.0015937
14320,0.4569,5.2727,0,0.00051815,5177.9,0.00023027,-76.53,5.236e-05,-1413.3,-0.00053038,-5791.8,0.0010726
14321,0.54828,5.2727,0.05,6.9142e-06,69.094,5.3093e-06,39.892,-1.1262e-21,-8.4616e-15,-5.3093e-06,-39.892,0.0015089
14322,0.54828,5,0,0.0005504,5500.2,0.00025944,58.371,3.8793e-05,-1599.5,-0.00055753,-6080,0.0016797
14323,0.4569,5.0909,0,0.00053432,5339.5,0.00024634,-82.377,3.4661e-05,-1672.8,-0.00054609,-6036.4,0.0011439
14324,0.54828,5.0909,0.05,6.1317e-06,61.274,4.7084e-06,35.377,-9.9871e-22,-7.504e-15,-4.7084e-06,-35.377,0.0016063
14325,0.54828,4.8182,0,0.00056324,5628.5,0.00027109,60.463,2.7416e-05,-1770.4,-0.00056952,-6255.6,0.0017456
14326,0.4569,4.9091,0,0.00055069,5503.1,0.00025927,-86.429,2.3708e-05,-1856.3,-0.00056195,-6256.7,0.0011972
14327,0.54828,4.9091,0.05,5.6963e-06,56.924,4.3741e-06,32.865,-9.2781e-22,3.7464e-06,-4.3741e-06,-32.865,0.0016801
14328,0.54828,4.6364,0,0.00057546,5750.6,0.00028058,62.033,1.9902e-05,-1896.6,-0.00058106,-6412,0.0017967
14329,0.4569,4.7273,0,0.00056558,5651.9,0.00026963,-89.372,1.6774e-05,-1989.2,-0.00057645,-6446.5,0.0012379
14330,0.54828,4.7273,0.05,5.4474e-06,54.437,4.183e-06,31.429,-8.8727e-22,-6.6666e-15,-4.183e-06,-31.429,0.001737
14331,0.54828,4.4545,0,0.00058635,5859.5,0.00028828,63.232,1.4849e-05,-1991.2,-0.00059147,-6546.8,0.0018368
14332,0.4569,4.5455,0,0.00057848,5780.8,0.00027792,-91.586,1.2258e-05,-2087.7,-0.00058909,-6606,0.0012695
14333,0.54828,4.5455,0.05,5.2824e-06,52.787,4.0562e-06,30.477,-1.6375e-13,1.7078e-05,-4.0562e-06,-30.477,0.0017813
14334,0.54828,4.2727,0,0.00059572,5953.1,0.00029449,64.158,1.1385e-05,-2063,-0.00060049,-6660.3,0.0018684
14335,0.4569,4.3636,0,0.00058936,5889.5,0.00028457,-93.281,9.2318e-06,-2162.1,-0.00059979,-6738,0.0012943
14336,0.54828,4.3636,0.05,5.1565e-06,51.529,3.9596e-06,29.751,-1.848e-13,-6.3105e-15,-3.9596e-06,-29.751,0.0018161
14337,0.54828,4.0909,0,0.00060357,6031.5,0.00029947,64.876,8.9713e-06,-2117.8,-0.00060808,-6754.1,0.0018932
14338,0.4569,4.1818,0,0.00059835,5979.4,0.00028988,-94.59,7.1573e-06,-2218.9,-0.00060868,-6846.1,0.0013136
14339,0.54828,4.1818,0.05,5.0525e-06,50.49,3.8797e-06,29.15,-9.9664e-14,-6.1832e-15,-3.8797e-06,-29.15,0.0018435
14340,0.54828,3.9091,0,0.00060997,6095.5,0.00030341,65.43,7.274e-06,-2159.6,-0.00061431,-6830,0.0019126
14341,0.4569,4,0,0.00060566,6052.4,0.0002941,-95.602,5.7118e-06,-2262.4,-0.00061593,-6933.2,0.0013288
14342,0.54828,4,0.05,4.9645e-06,49.611,3.8121e-06,28.643,-2.0938e-13,2.8103e-05,-3.8121e-06,-28.643,0.001865
14343,0.54828,3.7273,0,0.00061503,6146.1,0.00030646,65.85,6.0817e-06,-2191.1,-0.00061926,-6889.6,0.0019275
14344,0.4569,3.8182,0,0.00061147,6110.5,0.00029739,-96.376,4.6978e-06,-2295.5,-0.0006217,-7002,0.0013405
14345,0.54828,3.8182,0.05,4.891e-06,48.877,3.7557e-06,28.219,-2.6517e-13,2.9559e-06,-3.7557e-06,-28.219,0.0018816
14346,0.54828,3.5455,0,0.00061886,6184.3,0.00030873,66.158,5.26e-06,-2214,-0.000623,-6934.5,0.0019384
14347,0.4569,3.6364,0,0.00061593,6155.1,0.00029988,-96.955,3.9918e-06,-2320.2,-0.00062614,-7054.8,0.0013494
14348,0.54828,3.6364,0.05,4.8318e-06,48.285,3.7103e-06,27.877,-2.2415e-14,1.6672e-06,-3.7102e-06,-27.877,0.0018942
14349,0.54828,3.3636,0,0.00062153,6211,0.0003103,66.369,4.7236e-06,-2229.6,-0.00062562,-6965.8,0.001946
14350,0.4569,3.4545,0,0.00061918,6187.5,0.00030168,-97.367,3.5159e-06,-2337.7,-0.00062937,-7093,0.0013557
14351,0.54828,3.4545,0.05,4.7872e-06,47.839,3.6759e-06,27.62,-3.3243e-13,6.9886e-07,-3.6759e-06,-27.62,0.0019032
14352,0.54828,3.1818,0,0.00062311,6226.8,0.00031122,66.492,4.4205e-06,-2238.7,-0.00062717,-6984.2,0.0019504
14353,0.4569,3.2727,0,0.00062129,6208.6,0.00030285,-97.632,3.2219e-06,-2348.9,-0.00063148,-7117.8,0.0013598
14354,0.54828,3.2727,0.05,4.7572e-06,47.539,3.653e-06,27.447,-3.137e-13,3.04e-05,-3.653e-06,-27.447,0.001909
14355,0.54828,3,0,0.00062363,6232,0.00031152,66.532,4.3224e-06,-2241.7,-0.00062769,-6990.3,0.0019518
14356,0.4569,3.0909,0,0.00062233,6219,0.00030342,-97.761,3.0813e-06,-2354.4,-0.00063252,-7130,0.0013618
14357,0.54828,3.0909,0.05,4.7422e-06,47.389,3.6414e-06,27.36,-3.4934e-13,-6.5531e-08,-3.6414e-06,-27.36,0.0019118
14358,0.54828,2.8182,0,0.00062311,6226.8,0.00031122,66.492,4.4205e-06,-2238.7,-0.00062717,-6984.2,0.0019504
14359,0.4569,2.9091,0,0.00062233,6219,0.00030342,-97.761,3.0813e-06,-2354.4,-0.00063252,-7130,0.0013618
14360,0.54828,2.9091,0.05,4.7422e-06,47.389,3.6414e-06,27.36,-3.8066e-13,1.43e-07,-3.6414e-06,-27.36,0.0019118
14361,0.54828,2.6364,0,0.00062153,6211,0.0003103,66.369,4.7236e-06,-2229.6,-0.00062562,-6965.8,0.001946
14362,0.4569,2.7273,0,0.00062129,6208.6,0.00030285,-97.632,3.2219e-06,-2348.9,-0.00063148,-7117.8,0.0013598
14363,0.54828,2.7273,0.05,4.7572e-06,47.539,3.653e-06,27.447,-3.4219e-13,3.111e-05,-3.653e-06,-27.447,0.001909
14364,0.54828,2.4545,0,0.00061886,6184.3,0.00030873,66.158,5.26e-06,-2214,-0.000623,-6934.5,0.0019384
14365,0.4569,2.5455,0,0.00061918,6187.5,0.00030168,-97.367,3.5159e-06,-2337.7,-0.00062937,-7093,0.0013557
14366,0.54828,2.5455,0.05,4.7872e-06,47.839,3.6759e-06,27.62,-3.4479e-13,2.1606e-06,-3.6759e-06,-27.62,0.0019032
14367,0.54828,2.2727,0,0.00061503,6146.1,0.00030646,65.85,6.0817e-06,-2191.1,-0.00061926,-6889.6,0.0019275
14368,0.4569,2.3636,0,0.00061593,6155.1,0.00029988,-96.955,3.9918e-06,-2320.2,-0.00062614,-7054.8,0.0013494
14369,0.54828,2.3636,0.05,4.8318e-06,48.285,3.7103e-06,27.877,-9.5329e-14,2.9108e-06,-3.7102e-06,-27.877,0.0018942
14370,0.54828,2.0909,0,0.00060997,6095.5,0.00030341,65.43,7.274e-06,-2159.6,-0.00061431,-6830,0.0019126
14371,0.4569,2.1818,0,0.00061147,6110.5,0.00029739,-96.376,4.6978e-06,-2295.5,-0.0006217,-7002,0.0013405
14372,0.54828,2.1818,0.05,4.891e-06,48.877,3.7557e-06,28.219,5.5524e-14,8.3686e-06,-3.7557e-06,-28.219,0.0018816
14373,0.54828,1.9091,0,0.00060357,6031.5,0.00029947,64.876,8.9713e-06,-2117.8,-0.00060808,-6754.1,0.0018932
14374,0.4569,2,0,0.00060566,6052.4,0.0002941,-95.602,5.7118e-06,-2262.4,-0.00061593,-6933.2,0.0013288
14375,0.54828,2,0.05,4.9645e-06,49.611,3.8121e-06,28.643,4.9083e-13,3.7051e-05,-3.8121e-06,-28.643,0.001865
14376,0.54828,1.7273,0,0.00059572,5953.1,0.00029449,64.158,1.1385e-05,-2063,-0.00060049,-6660.3,0.0018684
14377,0.4569,1.8182,0,0.00059835,5979.4,0.00028988,-94.59,7.1573e-06,-2218.9,-0.00060868,-6846.1,0.0013136
14378,0.54828,1.8182,0.05,5.0525e-06,50.49,3.8797e-06,29.15,-1.4937e-13,1.2544e-06,-3.8797e-06,-29.15,0.0018435
14379,0.54828,1.5455,0,0.00058635,5859.5,0.00028828,63.232,1.4849e-05,-1991.2,-0.00059147,-6546.8,0.0018368
14380,0.4569,1.6364,0,0.00058936,5889.5,0.00028457,-93.281,9.2318e-06,-2162.1,-0.00059979,-6738,0.0012943
14381,0.54828,1.6364,0.05,5.1565e-06,51.529,3.9596e-06,29.751,1.1627e-12,2.8809e-05,-3.9596e-06,-29.75,0.0018161
14382,0.54828,1.3636,0,0.00057546,5750.6,0.00028058,62.033,1.9902e-05,-1896.6,-0.00058106,-6412,0.0017967
14383,0.4569,1.4545,0,0.00057848,5780.8,0.00027792,-91.586,1.2258e-05,-2087.7,-0.00058909,-6606,0.0012695
14384,0.54828,1.4545,0.05,5.2824e-06,52.787,4.0562e-06,30.477,2.1974e-12,5.3471e-05,-4.0562e-06,-30.477,0.0017813
14385,0.54828,1.1818,0,0.00056324,5628.5,0.00027109,60.463,2.7416e-05,-1770.4,-0.00056952,-6255.6,0.0017456
14386,0.4569,1.2727,0,0.00056558,5651.9,0.00026963,-89.372,1.6774e-05,-1989.2,-0.00057645,-6446.5,0.0012379
14387,0.54828,1.2727,0.05,5.4474e-06,54.437,4.183e-06,31.429,-5.3417e-13,5.7888e-05,-4.183e-06,-31.429,0.001737
14388,0.54828,1,0,0.0005504,5500.2,0.00025944,58.371,3.8793e-05,-1599.5,-0.00055753,-6080,0.0016797
14389,0.4569,1.0909,0,0.00055069,5503.1,0.00025927,-86.429,2.3708e-05,-1856.3,-0.00056195,-6256.7,0.0011972
14390,0.54828,1.0909,0.05,5.6963e-06,56.924,4.3741e-06,32.865,4.6631e-12,7.6282e-05,-4.3741e-06,-32.865,0.0016801
14391,0.54828,0.81818,0,0.00053852,5381.5,0.00024528,55.533,5.6153e-05,-1365.5,-0.00054654,-5893.9,0.0015937
14392,0.4569,0.90909,0,0.00053432,5339.5,0.00024634,-82.377,3.4661e-05,-1672.8,-0.00054609,-6036.4,0.0011439
14393,0.54828,0.90909,0.05,6.1317e-06,61.274,4.7084e-06,35.377,4.5455e-13,1.2034e-05,-4.7084e-06,-35.377,0.0016063
14394,0.54828,0.63636,0,0.00053071,5303.5,0.00022851,51.526,8.2152e-05,-1048.2,-0.00053904,-5715.6,0.0014794
14395,0.4569,0.72727,0,0.00051815,5177.9,0.00023027,-76.53,5.236e-05,-1413.3,-0.00053038,-5791.8,0.0010726
14396,0.54828,0.72727,0.05,6.9142e-06,69.094,5.3093e-06,39.892,2.578e-13,6.1861e-05,-5.3093e-06,-39.892,0.0015089
14397,0.54828,0.45455,0,0.00053133,5309.6,0.0002097,44.603,0.00011851,-640.54,-0.00053814,-5574.3,0.0013246
14398,0.4569,0.54545,0,0.00050623,5058.8,0.00021081,-67.278,8.0774e-05,-1044.3,-0.00051801,-5543.4,0.00097514
14399,0.54828,0.54545,0.05,8.1835e-06,81.778,6.2839e-06,47.215,1.4159e-11,0.00017912,-6.2839e-06,-47.215,0.0013777
14400,0.54828,0.27273,0,0.00054571,5453.3,0.00019124,33.818,0.00016411,-169.98,-0.00054774,-5518.5,0.0011121
14401,0.4569,0.36364,0,0.00050641,5060.6,0.00018916,-48.818,0.00012388,-539.31,-0.00051462,-5336.8,0.00083802
14402,0.54828,0.36364,0.05,9.4181e-06,94.116,7.2319e-06,54.338,5.3898e-12,0.00012471,-7.2319e-06,-54.338,0.0011976
14403,0.4569,0.18182,0,0.00053021,5298.5,0.00018508,96.816,0.00016665,-41.654,-0.00052914,-5269.5,0.0006422
14404,0.54828,0.18182,0.05,7.025e-06,70.201,5.3943e-06,40.531,7.1028e-12,6.0067e-05,-5.3943e-06,-40.531,0.00094777
14405,0.54828,0.090909,0,0.00054725,5468.7,0.00018919,108.54,0.00017595,8.9842,-0.00054519,-5409.3,0.00082136
14406,0.36552,5.7273,0,0.00048938,4890.5,0.00016908,-90.397,0.00014011,-308.08,-0.0004958,-5086.1,0.00046503
14407,0.27414,5.8182,0,0.00045368,4533.7,0.00016361,164.8,0.00014113,-4.1525,-0.00045071,-4451,0.00020406
14408,0.36552,5.8182,0.05,1.229e-05,122.82,9.4375e-06,70.91,-2.0018e-21,-1.5041e-14,-9.4375e-06,-70.91,0.0003599
14409,0.36552,5.9091,0,0.00049257,4922.3,0.0001748,133.42,0.0001539,-23.59,-0.00049051,-4865.5,0.00029032
14410,0.36552,5.5455,0,0.00047997,4796.4,0.00019014,-161.69,8.5754e-05,-946.03,-0.00049397,-5301.9,0.00058185
14411,0.27414,5.6364,0,0.00046456,4642.4,0.0002074,235.87,7.6651e-05,-746.5,-0.00046538,-4819.1,0.00029738
14412,0.36552,5.6364,0.05,1.36e-05,135.91,1.0443e-05,78.465,-2.2151e-21,-1.6644e-14,-1.0443e-05,-78.465,0.00050294
14413,0.36552,5.3636,0,0.00049299,4926.5,0.00021254,-195.55,5.0589e-05,-1412.4,-0.00050893,-5616.4,0.00066074
14414,0.27414,5.4545,0,0.00050107,5007.2,0.00024467,279.68,4.1334e-05,-1248.1,-0.00049973,-5313.5,0.00035605
14415,0.36552,5.4545,0.05,1.0344e-05,103.37,7.9431e-06,59.681,-1.6848e-21,-1.2659e-14,-7.9431e-06,-59.681,0.00059625
14416,0.36552,5.1818,0,0.00051374,5133.9,0.00023132,-214.51,3.074e-05,-1721.6,-0.0005298,-5933.2,0.00071605
14417,0.27414,5.2727,0,0.00053753,5371.6,0.00027231,310.94,2.3531e-05,-1558.3,-0.00053376,-5745.6,0.00039487
14418,0.36552,5.2727,0.05,8.5068e-06,85.01,6.5322e-06,49.08,3.4991e-14,-1.0411e-14,-6.5322e-06,-49.08,0.00065967
14419,0.36552,5,0,0.00053461,5342.4,0.00024616,-227.2,1.9608e-05,-1929.4,-0.00055054,-6213.3,0.0007563
14420,0.27414,5.0909,0,0.00056842,5680.2,0.00029258,330.95,1.444e-05,-1758.9,-0.00056308,-6098.2,0.00042207
14421,0.36552,5.0909,0.05,7.5592e-06,75.539,5.8045e-06,43.613,-1.2312e-21,-9.2509e-15,-5.8045e-06,-43.613,0.00070473
14422,0.36552,4.8182,0,0.00055309,5527.1,0.0002578,-236.27,1.3149e-05,-2074.5,-0.00056896,-6448.2,0.00078645
14423,0.27414,4.9091,0,0.00059339,5929.8,0.00030784,345.55,9.4288e-06,-1896.6,-0.00058706,-6378.4,0.00044193
14424,0.36552,4.9091,0.05,7.0515e-06,70.466,5.4147e-06,40.684,-1.1485e-21,3.3639e-05,-5.4147e-06,-40.684,0.00073791
14425,0.36552,4.6364,0,0.00056868,5682.8,0.00026697,-242.99,9.213e-06,-2179.7,-0.00058456,-6641,0.0008095
14426,0.27414,4.7273,0,0.00061334,6129.1,0.00031953,356.28,6.4846e-06,-1995.8,-0.00060637,-6600.5,0.00045685
14427,0.36552,4.7273,0.05,6.7076e-06,67.029,5.1506e-06,38.699,-1.0925e-21,2.5762e-05,-5.1506e-06,-38.699,0.00076298
14428,0.36552,4.4545,0,0.00058154,5811.4,0.00027422,-248.1,6.7065e-06,-2258.1,-0.00059748,-6797.7,0.00082736
14429,0.27414,4.5455,0,0.00062925,6288.1,0.0003286,364.45,4.6532e-06,-2069.6,-0.00062184,-6776.9,0.00046829
14430,0.36552,4.5455,0.05,6.4413e-06,64.369,4.9461e-06,37.163,1.2887e-12,-7.8829e-15,-4.9461e-06,-37.163,0.00078228
14431,0.36552,4.2727,0,0.00059203,5916.2,0.00027997,-252.03,5.0515e-06,-2317.7,-0.00060803,-6924.1,0.00084131
14432,0.27414,4.3636,0,0.00064193,6414.9,0.00033572,370.74,3.4633e-06,-2125.7,-0.00063423,-6917.1,0.00047716
14433,0.36552,4.3636,0.05,6.2224e-06,62.181,4.778e-06,35.9,8.0206e-13,-7.615e-15,-4.778e-06,-35.9,0.00079729
14434,0.36552,4.0909,0,0.00060049,6000.7,0.00028452,-255.07,3.9287e-06,-2363.3,-0.00061656,-7025.4,0.00085223
14435,0.27414,4.1818,0,0.00065202,6515.7,0.0003413,375.62,2.6639e-06,-2168.8,-0.00064411,-7028.4,0.00048408
14436,0.36552,4.1818,0.05,6.0398e-06,60.356,4.6378e-06,34.847,-2.0979e-13,-7.3915e-15,-4.6378e-06,-34.847,0.00080902
14437,0.36552,3.9091,0,0.0006072,6067.8,0.00028808,-257.41,3.1538e-06,-2398.2,-0.00062334,-7105.4,0.0008607
14438,0.27414,4,0,0.00065999,6595.4,0.00034568,379.4,2.1145e-06,-2202,-0.00065193,-7116.2,0.00048947
14439,0.36552,4,0.05,5.8884e-06,58.844,4.5216e-06,33.973,6.1365e-13,3.2031e-05,-4.5216e-06,-33.973,0.00081816
14440,0.36552,3.7273,0,0.0006124,6119.8,0.00029081,-259.18,2.6168e-06,-2424.6,-0.0006286,-7167.3,0.00086716
14441,0.27414,3.8182,0,0.00066619,6657.3,0.00034907,382.31,1.7328e-06,-2227.4,-0.00065802,-7184.5,0.00049361
14442,0.36552,3.8182,0.05,5.7655e-06,57.616,4.4272e-06,33.264,-1.3779e-13,3.1444e-05,-4.4272e-06,-33.264,0.00082521
14443,0.36552,3.5455,0,0.00061628,6158.5,0.00029284,-260.48,2.2503e-06,-2443.8,-0.00063252,-7213.3,0.00087192
14444,0.27414,3.6364,0,0.00067089,6704.3,0.00035162,384.48,1.4688e-06,-2246.4,-0.00066263,-7236.2,0.00049672
14445,0.36552,3.6364,0.05,5.6693e-06,56.653,4.3533e-06,32.709,-2.103e-13,9.2188e-07,-4.3533e-06,-32.709,0.00083051
14446,0.36552,3.3636,0,0.00061896,6185.3,0.00029423,-261.37,2.0126e-06,-2457,-0.00063523,-7245,0.00087518
14447,0.27414,3.4545,0,0.00067426,6738,0.00035344,386.03,1.2917e-06,-2259.9,-0.00066595,-7273.3,0.00049895
14448,0.36552,3.4545,0.05,5.5982e-06,55.943,4.2987e-06,32.299,-2.0006e-13,-8.6536e-08,-4.2987e-06,-32.299,0.00083429
14449,0.36552,3.1818,0,0.00062054,6201.1,0.00029505,-261.88,1.8788e-06,-2464.6,-0.00063683,-7263.6,0.00087709
14450,0.27414,3.2727,0,0.00067644,6759.8,0.00035462,387.03,1.1825e-06,-2268.6,-0.0006681,-7297.3,0.00050038
14451,0.36552,3.2727,0.05,5.5514e-06,55.475,4.2628e-06,32.029,-1.9641e-13,7.398e-08,-4.2628e-06,-32.029,0.00083673
14452,0.36552,3,0,0.00062105,6206.3,0.00029532,-262.05,1.8356e-06,-2467.2,-0.00063735,-7269.8,0.00087772
14453,0.27414,3.0909,0,0.00067751,6770.5,0.0003552,387.52,1.1304e-06,-2272.8,-0.00066915,-7309.1,0.00050108
14454,0.36552,3.0909,0.05,5.5281e-06,55.243,4.2449e-06,31.895,-2.3437e-13,-4.4473e-08,-4.2449e-06,-31.895,0.00083793
14455,0.36552,2.8182,0,0.00062054,6201.1,0.00029505,-261.88,1.8788e-06,-2464.6,-0.00063683,-7263.6,0.00087709
14456,0.27414,2.9091,0,0.00067751,6770.5,0.0003552,387.52,1.1304e-06,-2272.8,-0.00066915,-7309.1,0.00050108
14457,0.36552,2.9091,0.05,5.5281e-06,55.243,4.2449e-06,31.895,-2.1872e-13,6.1415e-08,-4.2449e-06,-31.895,0.00083793
14458,0.36552,2.6364,0,0.00061896,6185.3,0.00029423,-261.37,2.0126e-06,-2457,-0.00063523,-7245,0.00087518
14459,0.27414,2.7273,0,0.00067644,6759.8,0.00035462,387.03,1.1825e-06,-2268.6,-0.0006681,-7297.3,0.00050038
14460,0.36552,2.7273,0.05,5.5514e-06,55.475,4.2628e-06,32.029,-2.2881e-13,4.0671e-07,-4.2628e-06,-32.029,0.00083673
14461,0.36552,2.4545,0,0.00061628,6158.5,0.00029284,-260.48,2.2503e-06,-2443.8,-0.00063252,-7213.3,0.00087192
14462,0.27414,2.5455,0,0.00067426,6738,0.00035344,386.03,1.2917e-06,-2259.9,-0.00066595,-7273.3,0.00049895
14463,0.36552,2.5455,0.05,5.5982e-06,55.943,4.2987e-06,32.299,-2.5846e-13,5.1922e-07,-4.2987e-06,-32.299,0.00083429
14464,0.36552,2.2727,0,0.0006124,6119.8,0.00029081,-259.18,2.6168e-06,-2424.6,-0.0006286,-7167.3,0.00086716
14465,0.27414,2.3636,0,0.00067089,6704.3,0.00035162,384.48,1.4688e-06,-2246.4,-0.00066263,-7236.2,0.00049672
14466,0.36552,2.3636,0.05,5.6693e-06,56.653,4.3533e-06,32.709,-5.1434e-14,3.0813e-06,-4.3533e-06,-32.709,0.00083051
14467,0.36552,2.0909,0,0.0006072,6067.8,0.00028808,-257.41,3.1538e-06,-2398.2,-0.00062334,-7105.4,0.0008607
14468,0.27414,2.1818,0,0.00066619,6657.3,0.00034907,382.31,1.7328e-06,-2227.4,-0.00065802,-7184.5,0.00049361
14469,0.36552,2.1818,0.05,5.7655e-06,57.616,4.4272e-06,33.264,-2.022e-13,3.1625e-06,-4.4272e-06,-33.264,0.00082521
14470,0.36552,1.9091,0,0.00060049,6000.7,0.00028452,-255.07,3.9287e-06,-2363.3,-0.00061656,-7025.4,0.00085223
14471,0.27414,2,0,0.00065999,6595.4,0.00034568,379.4,2.1145e-06,-2202,-0.00065193,-7116.2,0.00048947
14472,0.36552,2,0.05,5.8884e-06,58.844,4.5216e-06,33.973,7.9247e-13,3.9742e-05,-4.5216e-06,-33.973,0.00081816
14473,0.36552,1.7273,0,0.00059203,5916.2,0.00027997,-252.03,5.0515e-06,-2317.7,-0.00060803,-6924.1,0.00084131
14474,0.27414,1.8182,0,0.00065202,6515.7,0.0003413,375.62,2.6639e-06,-2168.8,-0.00064411,-7028.4,0.00048408
14475,0.36552,1.8182,0.05,6.0398e-06,60.356,4.6378e-06,34.847,4.9106e-13,3.1214e-05,-4.6378e-06,-34.847,0.00080902
14476,0.36552,1.5455,0,0.00058154,5811.4,0.00027422,-248.1,6.7065e-06,-2258.1,-0.00059748,-6797.7,0.00082736
14477,0.27414,1.6364,0,0.00064193,6414.9,0.00033572,370.74,3.4633e-06,-2125.7,-0.00063423,-6917.1,0.00047716
14478,0.36552,1.6364,0.05,6.2224e-06,62.181,4.778e-06,35.9,8.4434e-13,1.2099e-05,-4.778e-06,-35.9,0.00079729
14479,0.36552,1.3636,0,0.00056868,5682.8,0.00026697,-242.99,9.213e-06,-2179.7,-0.00058456,-6641,0.0008095
14480,0.27414,1.4545,0,0.00062925,6288.1,0.0003286,364.45,4.6532e-06,-2069.6,-0.00062184,-6776.9,0.00046829
14481,0.36552,1.4545,0.05,6.4413e-06,64.369,4.9461e-06,37.163,1.4687e-12,4.1748e-05,-4.9461e-06,-37.163,0.00078228
14482,0.36552,1.1818,0,0.00055309,5527.1,0.0002578,-236.27,1.3149e-05,-2074.5,-0.00056896,-6448.2,0.00078645
14483,0.27414,1.2727,0,0.00061334,6129.1,0.00031953,356.28,6.4846e-06,-1995.8,-0.00060637,-6600.5,0.00045685
14484,0.36552,1.2727,0.05,6.7076e-06,67.029,5.1506e-06,38.699,4.2627e-12,2.6373e-05,-5.1506e-06,-38.699,0.00076298
14485,0.36552,1,0,0.00053461,5342.4,0.00024616,-227.2,1.9608e-05,-1929.4,-0.00055054,-6213.3,0.0007563
14486,0.27414,1.0909,0,0.00059339,5929.8,0.00030784,345.55,9.4288e-06,-1896.6,-0.00058706,-6378.4,0.00044193
14487,0.36552,1.0909,0.05,7.0515e-06,70.466,5.4147e-06,40.684,7.2182e-12,0.00010466,-5.4147e-06,-40.684,0.00073791
14488,0.36552,0.81818,0,0.00051374,5133.9,0.00023132,-214.51,3.074e-05,-1721.6,-0.0005298,-5933.2,0.00071605
14489,0.27414,0.90909,0,0.00056842,5680.2,0.00029258,330.95,1.444e-05,-1758.9,-0.00056308,-6098.2,0.00042207
14490,0.36552,0.90909,0.05,7.5592e-06,75.539,5.8045e-06,43.613,3.9952e-12,3.7389e-06,-5.8045e-06,-43.613,0.00070473
14491,0.36552,0.63636,0,0.00049299,4926.5,0.00021254,-195.55,5.0589e-05,-1412.4,-0.00050893,-5616.4,0.00066074
14492,0.27414,0.72727,0,0.00053753,5371.6,0.00027231,310.94,2.3531e-05,-1558.3,-0.00053376,-5745.6,0.00039487
14493,0.36552,0.72727,0.05,8.5068e-06,85.01,6.5322e-06,49.08,1.1378e-12,1.336e-05,-6.5322e-06,-49.08,0.00065967
14494,0.36552,0.45455,0,0.00047997,4796.4,0.00019014,-161.69,8.5754e-05,-946.03,-0.00049397,-5301.9,0.00058185
14495,0.27414,0.54545,0,0.00050107,5007.2,0.00024467,279.68,4.1334e-05,-1248.1,-0.00049973,-5313.5,0.00035605
14496,0.36552,0.54545,0.05,1.0344e-05,103.37,7.9431e-06,59.681,1.1021e-11,6.1992e-05,-7.9431e-06,-59.681,0.00059625
14497,0.36552,0.27273,0,0.00048938,4890.5,0.00016908,-90.397,0.00014011,-308.08,-0.0004958,-5086.1,0.00046503
14498,0.27414,0.36364,0,0.00046456,4642.4,0.0002074,235.87,7.6651e-05,-746.5,-0.00046538,-4819.1,0.00029738
14499,0.36552,0.36364,0.05,1.36e-05,135.91,1.0443e-05,78.465,2.0226e-12,3.5758e-05,-1.0443e-05,-78.465,0.00050294
14500,0.27414,0.18182,0,0.00045368,4533.7,0.00016361,164.8,0.00014113,-4.1525,-0.00045071,-4451,0.00020406
14501,0.36552,0.18182,0.05,1.229e-05,122.82,9.4375e-06,70.91,3.0334e-12,4.6551e-05,-9.4375e-06,-70.91,0.0003599
14502,0.36552,0.090909,0,0.00049257,4922.3,0.0001748,133.42,0.0001539,-23.59,-0.00049051,-4865.5,0.00029032
14503,0.18276,5.7273,0,0.00042546,4251.6,0.00019621,448.15,8.1345e-05,-414.93,-0.00041826,-4168.8,0.00011585
14504,0.18276,5.8182,0.05,2.9558e-05,295.38,2.2697e-05,170.54,-4.8144e-21,-3.6173e-14,-2.2697e-05,-170.54,6.7954e-05
14505,0.18276,5.9091,0,0.00038384,3835.7,0.00014085,222.64,0.00012293,87.945,-0.00037837,-3678.6,5.1883e-05
14506,0.091379,5.8182,0,0.00027072,2705.3,8.418e-05,-399.01,6.1191e-05,-571.74,-0.00028682,-3186.5,2.6064e-05
14507,0.18276,5.5455,0,0.00048823,4879,0.00026183,676.52,3.2299e-05,-1048,-0.00047112,-4830.5,0.00015391
14508,0.18276,5.6364,0.05,1.8817e-05,188.04,1.4449e-05,108.56,-1.9264e-13,-2.3028e-14,-1.4449e-05,-108.56,0.00011433
14509,0.091379,5.6364,0,0.00034109,3408.5,0.00011867,-831.26,2.0941e-05,-1565.6,-0.00037587,-4547.1,4.314e-05
14510,0.18276,5.3636,0,0.00054864,5482.6,0.00030443,786.13,1.5243e-05,-1386.7,-0.00052553,-5449.8,0.00017699
14511,0.18276,5.4545,0.05,1.2786e-05,127.77,9.8179e-06,73.768,-2.0825e-21,-1.5647e-14,-9.8179e-06,-73.768,0.00013936
14512,0.091379,5.4545,0,0.00039942,3991.5,0.00014376,-1028.9,8.9233e-06,-2042,-0.00044189,-5429.3,5.2536e-05
14513,0.18276,5.1818,0,0.00059453,5941.2,0.00033357,856.44,8.1161e-06,-1588.9,-0.00056793,-5917.1,0.00019229
14514,0.18276,5.2727,0.05,9.796e-06,97.893,7.5221e-06,56.518,-1.5956e-21,8.3847e-06,-7.5221e-06,-56.518,0.00015484
14515,0.091379,5.2727,0,0.00044116,4408.6,0.00016088,-1145.6,4.4945e-06,-2320.6,-0.00048821,-6022.6,5.8426e-05
14516,0.18276,5,0,0.0006289,6284.6,0.00035427,903.73,4.8749e-06,-1721.5,-0.00060022,-6267.9,0.00020309
14517,0.18276,5.0909,0.05,8.2432e-06,82.375,6.3298e-06,47.559,-1.3426e-21,1.9073e-06,-6.3298e-06,-47.559,0.00016539
14518,0.091379,5.0909,0,0.00047115,4708.3,0.0001728,-1224.4,2.6298e-06,-2502.9,-0.00052135,-6439.9,6.2403e-05
14519,0.18276,4.8182,0,0.00065495,6545,0.00036957,938.12,3.1595e-06,-1815,-0.00062486,-6533.7,0.00021103
14520,0.18276,4.9091,0.05,7.1832e-06,71.782,5.5158e-06,41.443,2.8499e-12,-8.7908e-15,-5.5158e-06,-41.443,0.00017297
14521,0.091379,4.9091,0,0.00049334,4930,0.00018153,-1280.4,1.6683e-06,-2631.7,-0.00054579,-6745.2,6.5252e-05
14522,0.18276,4.6364,0,0.00067498,6745.2,0.00038117,963.74,2.1744e-06,-1883.9,-0.00064391,-6738.3,0.00021703
14523,0.18276,4.7273,0.05,6.4108e-06,64.064,4.9227e-06,36.987,2.214e-12,1.6795e-06,-4.9227e-06,-36.987,0.00017861
14524,0.091379,4.7273,0,0.00051013,5097.8,0.00018808,-1321.9,1.1334e-06,-2726.6,-0.00056427,-6974.8,6.7368e-05
14525,0.18276,4.4545,0,0.00069056,6900.9,0.0003901,983.3,1.5664e-06,-1936,-0.00065876,-6897.4,0.00022164
14526,0.18276,4.5455,0.05,5.8218e-06,58.178,4.4704e-06,33.589,8.9296e-14,1.31e-05,-4.4704e-06,-33.589,0.00018291
14527,0.091379,4.5455,0,0.00052305,5226.9,0.00019311,-1353.5,8.0785e-07,-2798.3,-0.00057847,-7150.8,6.8976e-05
14528,0.18276,4.2727,0,0.00070276,7022.7,0.00039705,998.4,1.173e-06,-1976.1,-0.00067041,-7022.1,0.00022522
14529,0.18276,4.3636,0.05,5.3627e-06,53.59,4.1179e-06,30.94,7.8065e-14,1.9646e-06,-4.1179e-06,-30.94,0.00018623
14530,0.091379,4.3636,0,0.0005331,5327.4,0.00019701,-1377.8,5.9948e-07,-2853.5,-0.00058952,-7287.4,7.0216e-05
14531,0.18276,4.0909,0,0.0007123,7118.1,0.00040247,1010.1,9.0928e-07,-2007.1,-0.00067954,-7119.7,0.000228
14532,0.18276,4.1818,0.05,5.0015e-06,49.98,3.8405e-06,28.856,1.5498e-14,2.8157e-05,-3.8405e-06,-28.856,0.00018881
14533,0.091379,4.1818,0,0.00054096,5405.9,0.00020006,-1396.6,4.606e-07,-2896.3,-0.00059815,-7394,7.1179e-05
14534,0.18276,3.9091,0,0.00071973,7192.3,0.00040667,1019.1,7.2872e-07,-2031,-0.00068664,-7195.6,0.00023016
14535,0.18276,4,0.05,4.7174e-06,47.141,3.6223e-06,27.217,3.0806e-14,8.6157e-06,-3.6223e-06,-27.217,0.00019082
14536,0.091379,4,0,0.00054708,5467,0.00020243,-1411.2,3.6563e-07,-2929.4,-0.00060487,-7476.9,7.1926e-05
14537,0.18276,3.7273,0,0.00072539,7248.9,0.00040987,1026,6.0422e-07,-2049.1,-0.00069207,-7253.6,0.00023179
14538,0.18276,3.8182,0.05,4.4965e-06,44.934,3.4528e-06,25.943,-2.2767e-14,2.7221e-06,-3.4528e-06,-25.943,0.00019235
14539,0.091379,3.8182,0,0.0005518,5514.2,0.00020425,-1422.5,2.9982e-07,-2954.9,-0.00061005,-7540.8,7.25e-05
14540,0.18276,3.5455,0,0.00072957,7290.6,0.00041222,1031,5.195e-07,-2062.4,-0.00069608,-7296.3,0.000233
14541,0.18276,3.6364,0.05,4.3292e-06,43.262,3.3243e-06,24.978,2.9394e-13,1.6368e-05,-3.3243e-06,-24.978,0.00019351
14542,0.091379,3.6364,0,0.00055534,5549.6,0.00020562,-1430.9,2.5437e-07,-2973.9,-0.00061394,-7588.7,7.2929e-05
14543,0.18276,3.3636,0,0.00073243,7319.3,0.00041383,1034.4,4.6468e-07,-2071.4,-0.00069882,-7325.6,0.00023382
14544,0.18276,3.4545,0.05,4.2089e-06,42.06,3.2319e-06,24.283,-9.4767e-14,3.015e-05,-3.2319e-06,-24.283,0.00019433
14545,0.091379,3.4545,0,0.00055788,5574.9,0.0002066,-1436.8,2.2391e-07,-2987.5,-0.00061672,-7622.9,7.3236e-05
14546,0.18276,3.1818,0,0.0007341,7336,0.00041477,1036.4,4.3386e-07,-2076.7,-0.00070043,-7342.7,0.0002343
14547,0.18276,3.2727,0.05,4.1309e-06,41.281,3.172e-06,23.833,-1.0461e-13,2.1392e-07,-3.172e-06,-23.833,0.00019486
14548,0.091379,3.2727,0,0.00055951,5591.2,0.00020723,-1440.7,2.0514e-07,-2996.2,-0.00061851,-7645,7.3433e-05
14549,0.18276,3,0,0.00073465,7341.5,0.00041508,1037.1,4.2391e-07,-2078.5,-0.00070095,-7348.4,0.00023446
14550,0.18276,3.0909,0.05,4.0926e-06,40.898,3.1426e-06,23.612,-1.0622e-13,3.0509e-05,-3.1426e-06,-23.612,0.00019512
14551,0.091379,3.0909,0,0.00056031,5599.2,0.00020754,-1442.6,1.9619e-07,-3000.5,-0.00061939,-7655.8,7.3529e-05
14552,0.18276,2.8182,0,0.0007341,7336,0.00041477,1036.4,4.3386e-07,-2076.7,-0.00070043,-7342.7,0.0002343
14553,0.18276,2.9091,0.05,4.0926e-06,40.898,3.1426e-06,23.612,-1.1503e-13,3.0575e-05,-3.1426e-06,-23.612,0.00019512
14554,0.091379,2.9091,0,0.00056031,5599.2,0.00020754,-1442.6,1.9619e-07,-3000.5,-0.00061939,-7655.8,7.3529e-05
14555,0.18276,2.6364,0,0.00073243,7319.3,0.00041383,1034.4,4.6468e-07,-2071.4,-0.00069882,-7325.6,0.00023382
14556,0.18276,2.7273,0.05,4.1309e-06,41.281,3.172e-06,23.833,-1.068e-13,1.5641e-05,-3.172e-06,-23.833,0.00019486
14557,0.091379,2.7273,0,0.00055951,5591.2,0.00020723,-1440.7,2.0514e-07,-2996.2,-0.00061851,-7645,7.3433e-05
14558,0.18276,2.4545,0,0.00072957,7290.6,0.00041222,1031,5.195e-07,-2062.4,-0.00069608,-7296.3,0.000233
14559,0.18276,2.5455,0.05,4.2089e-06,42.06,3.2319e-06,24.283,3.166e-15,6.0716e-05,-3.2319e-06,-24.283,0.00019433
14560,0.091379,2.5455,0,0.00055788,5574.9,0.0002066,-1436.8,2.2391e-07,-2987.5,-0.00061672,-7622.9,7.3236e-05
14561,0.18276,2.2727,0,0.00072539,7248.9,0.00040987,1026,6.0422e-07,-2049.1,-0.00069207,-7253.6,0.00023179
14562,0.18276,2.3636,0.05,4.3292e-06,43.262,3.3243e-06,24.978,3.1203e-13,1.8728e-05,-3.3243e-06,-24.977,0.00019351
14563,0.091379,2.3636,0,0.00055534,5549.6,0.00020562,-1430.9,2.5437e-07,-2973.9,-0.00061394,-7588.7,7.2929e-05
14564,0.18276,2.0909,0,0.00071973,7192.3,0.00040667,1019.1,7.2872e-07,-2031,-0.00068664,-7195.6,0.00023016
14565,0.18276,2.1818,0.05,4.4965e-06,44.934,3.4528e-06,25.943,1.7902e-14,2.3648e-05,-3.4528e-06,-25.943,0.00019235
14566,0.091379,2.1818,0,0.0005518,5514.2,0.00020425,-1422.5,2.9982e-07,-2954.9,-0.00061005,-7540.8,7.25e-05
14567,0.18276,1.9091,0,0.0007123,7118.1,0.00040247,1010.1,9.0928e-07,-2007.1,-0.00067954,-7119.7,0.000228
14568,0.18276,2,0.05,4.7174e-06,47.141,3.6223e-06,27.217,1.1376e-13,1.3745e-05,-3.6223e-06,-27.217,0.00019082
14569,0.091379,2,0,0.00054708,5467,0.00020243,-1411.2,3.6563e-07,-2929.4,-0.00060487,-7476.9,7.1926e-05
14570,0.18276,1.7273,0,0.00070276,7022.7,0.00039705,998.4,1.173e-06,-1976.1,-0.00067041,-7022.1,0.00022522
14571,0.18276,1.8182,0.05,5.0015e-06,49.98,3.8405e-06,28.856,8.4473e-13,4.2088e-05,-3.8405e-06,-28.856,0.00018881
14572,0.091379,1.8182,0,0.00054096,5405.9,0.00020006,-1396.6,4.606e-07,-2896.3,-0.00059815,-7394,7.1179e-05
14573,0.18276,1.5455,0,0.00069056,6900.9,0.0003901,983.3,1.5664e-06,-1936,-0.00065876,-6897.4,0.00022164
14574,0.18276,1.6364,0.05,5.3627e-06,53.59,4.1179e-06,30.94,3.2396e-12,1.2916e-05,-4.1179e-06,-30.94,0.00018623
14575,0.091379,1.6364,0,0.0005331,5327.4,0.00019701,-1377.8,5.9948e-07,-2853.5,-0.00058952,-7287.4,7.0216e-05
14576,0.18276,1.3636,0,0.00067498,6745.2,0.00038117,963.74,2.1744e-06,-1883.9,-0.00064391,-6738.3,0.00021703
14577,0.18276,1.4545,0.05,5.8218e-06,58.178,4.4704e-06,33.589,4.8431e-13,2.8476e-05,-4.4704e-06,-33.589,0.00018291
14578,0.091379,1.4545,0,0.00052305,5226.9,0.00019311,-1353.5,8.0785e-07,-2798.3,-0.00057847,-7150.8,6.8976e-05
14579,0.18276,1.1818,0,0.00065495,6545,0.00036957,938.12,3.1595e-06,-1815,-0.00062486,-6533.7,0.00021103
14580,0.18276,1.2727,0.05,6.4108e-06,64.064,4.9227e-06,36.987,4.3978e-12,1.7964e-05,-4.9227e-06,-36.987,0.00017861
14581,0.091379,1.2727,0,0.00051013,5097.8,0.00018808,-1321.9,1.1334e-06,-2726.6,-0.00056427,-6974.8,6.7368e-05
14582,0.18276,1,0,0.0006289,6284.6,0.00035427,903.73,4.8749e-06,-1721.5,-0.00060022,-6267.9,0.00020309
14583,0.18276,1.0909,0.05,7.1832e-06,71.782,5.5158e-06,41.443,3.2696e-12,6.2292e-05,-5.5158e-06,-41.443,0.00017297
14584,0.091379,1.0909,0,0.00049334,4930,0.00018153,-1280.4,1.6683e-06,-2631.7,-0.00054579,-6745.2,6.5252e-05
14585,0.18276,0.81818,0,0.00059453,5941.2,0.00033357,856.44,8.1161e-06,-1588.9,-0.00056793,-5917.1,0.00019229
14586,0.18276,0.90909,0.05,8.2432e-06,82.375,6.3298e-06,47.559,4.5432e-12,0.00012772,-6.3298e-06,-47.559,0.00016539
14587,0.091379,0.90909,0,0.00047115,4708.3,0.0001728,-1224.4,2.6298e-06,-2502.9,-0.00052135,-6439.9,6.2403e-05
14588,0.18276,0.63636,0,0.00054864,5482.6,0.00030443,786.13,1.5243e-05,-1386.7,-0.00052553,-5449.8,0.00017699
14589,0.18276,0.72727,0.05,9.796e-06,97.893,7.5221e-06,56.518,6.0777e-12,0.00013218,-7.5221e-06,-56.518,0.00015484
14590,0.091379,0.72727,0,0.00044116,4408.6,0.00016088,-1145.6,4.4945e-06,-2320.6,-0.00048821,-6022.6,5.8426e-05
14591,0.18276,0.45455,0,0.00048823,4879,0.00026183,676.52,3.2299e-05,-1048,-0.00047112,-4830.5,0.00015391
14592,0.18276,0.54545,0.05,1.2786e-05,127.77,9.8179e-06,73.768,2.0904e-11,6.331e-05,-9.8179e-06,-73.768,0.00013936
14593,0.091379,0.54545,0,0.00039942,3991.5,0.00014376,-1028.9,8.9233e-06,-2042,-0.00044189,-5429.3,5.2536e-05
14594,0.18276,0.27273,0,0.00042546,4251.6,0.00019621,448.15,8.1345e-05,-414.93,-0.00041826,-4168.8,0.00011585
14595,0.18276,0.36364,0.05,1.8817e-05,188.04,1.4449e-05,108.56,6.592e-12,5.7136e-05,-1.4449e-05,-108.56,0.00011433
14596,0.091379,0.36364,0,0.00034109,3408.5,0.00011867,-831.26,2.0941e-05,-1565.6,-0.00037587,-4547.1,4.314e-05
14597,0.18276,0.18182,0.05,2.9558e-05,295.38,2.2697e-05,170.54,4.9496e-12,7.5805e-05,-2.2697e-05,-170.54,6.7954e-05
14598,0.18276,0.090909,0,0.00038384,3835.7,0.00014085,222.64,0.00012293,87.945,-0.00037837,-3678.6,5.1883e-05
14599,0.091379,0.18182,0,0.00027072,2705.3,8.418e-05,-399.01,6.1191e-05,-571.74,-0.00028682,-3186.5,2.6064e-05
14600,11.042,5.8182,0,7.2165e-05,721.15,3.019e-05,70.035,1.9144e-05,-12.955,-7.0835e-05,-689.02,0.61591
14601,10.95,5.7273,0,7.2153e-05,721.03,3.5004e-05,130.74,1.5925e-05,-12.613,-6.9066e-05,-651.2,0.60517
14602,10.95,5.8182,0.05,7.7654e-06,77.6,5.9628e-06,44.802,4.4026e-14,4.523e-06,-5.9628e-06,-44.802,0.60464
14603,10.95,5.9091,0,4.6083e-05,460.52,1.8506e-05,33.836,1.2593e-05,-10.59,-4.5527e-05,-447.28,0.60417
14604,10.859,5.8182,0,4.1258e-05,412.29,1.6875e-05,39.474,1.1598e-05,-0.17122,-4.0446e-05,-391.21,0.59343
14605,11.226,5.8182,0,0.00010299,1029.2,3.9508e-05,64.191,3.0392e-05,-4.3026,-0.0001018,-997.56,0.63843
14606,11.134,5.7273,0,9.4644e-05,945.79,3.7963e-05,78.426,2.68e-05,-5.4452,-9.3123e-05,-906.5,0.62765
14607,11.134,5.8182,0.05,6.8342e-06,68.295,5.2478e-06,39.43,2.1622e-13,9.069e-07,-5.2478e-06,-39.43,0.62714
14608,11.134,5.9091,0,8.0109e-05,800.54,2.8798e-05,28.021,2.4978e-05,-0.67864,-7.9605e-05,-786.48,0.62668
14609,11.41,5.8182,0,0.00013181,1317.2,4.908e-05,66.227,4.0019e-05,-1.8555,-0.00013058,-1283.7,0.66101
14610,11.318,5.7273,0,0.00012306,1229.7,4.6844e-05,73.449,3.6646e-05,-3.1729,-0.00012168,-1192.8,0.65018
14611,11.318,5.8182,0.05,6.2742e-06,62.699,4.8178e-06,36.199,-1.0219e-21,2.4531e-06,-4.8178e-06,-36.199,0.64968
14612,11.318,5.9091,0,0.00011183,1117.5,3.9659e-05,32.898,3.523e-05,-0.37918,-0.00011124,-1100.9,0.64924
14613,11.594,5.8182,0,0.00015668,1565.8,5.7193e-05,65.726,4.8364e-05,-0.60613,-0.00015547,-1532.1,0.68367
14614,11.502,5.7273,0,0.00014919,1490.9,5.5422e-05,73.867,4.5418e-05,-1.2976,-0.00014781,-1453.2,0.67278
14615,11.502,5.8182,0.05,5.6104e-06,56.065,4.3081e-06,32.369,9.0214e-13,2.9561e-06,-4.3081e-06,-32.369,0.6723
14616,11.502,5.9091,0,0.0001396,1395,4.9036e-05,35.698,4.4296e-05,0.083513,-0.00013896,-1376.8,0.67187
14617,11.778,5.8182,0,0.0001774,1772.8,6.3717e-05,62.163,5.5422e-05,-0.15617,-0.00017626,-1740.9,0.70643
14618,11.686,5.7273,0,0.0001715,1713.8,6.2614e-05,72.128,5.2932e-05,-0.62504,-0.00017017,-1676.9,0.69547
14619,11.686,5.8182,0.05,4.8824e-06,48.79,3.7491e-06,28.169,4.5362e-13,3.0556e-06,-3.7491e-06,-28.169,0.695
14620,11.686,5.9091,0,0.00016313,1630.2,5.6787e-05,35.507,5.2069e-05,0.056203,-0.0001625,-1612.1,0.69459
14621,11.961,5.8182,0,0.00019414,1940.1,6.8775e-05,56.609,6.1244e-05,0.022757,-0.00019312,-1911.1,0.7293
14622,11.869,5.7273,0,0.00018977,1896.3,6.8264e-05,67.702,5.9214e-05,-0.30192,-0.00018853,-1861.7,0.71827
14623,11.869,5.8182,0.05,4.145e-06,41.421,3.1828e-06,23.914,4.5459e-13,2.6567e-06,-3.1828e-06,-23.914,0.71782
14624,11.869,5.9091,0,0.00018251,1823.8,6.3008e-05,33.405,5.857e-05,0.05675,-0.00018192,-1806.9,0.71741
14625,12.145,5.8182,0,0.00020725,2071.1,7.2554e-05,50.017,6.5906e-05,0.071626,-0.00020635,-2045.6,0.7523
14626,12.053,5.7273,0,0.0002042,2040.6,7.2489e-05,61.248,6.4315e-05,-0.16966,-0.00020309,-2009.4,0.74119
14627,12.053,5.8182,0.05,3.4411e-06,34.388,2.6424e-06,19.854,-5.9967e-15,2.0265e-06,-2.6424e-06,-19.854,0.74075
14628,12.053,5.9091,0,0.000198,1978.6,6.7855e-05,30.194,6.3842e-05,0.038447,-0.00019747,-1963.3,0.74036
14629,12.329,5.8182,0,0.00021716,2170.1,7.5254e-05,43.138,6.9522e-05,0.073248,-0.0002164,-2148.2,0.77543
14630,12.237,5.7273,0,0.0002152,2150.6,7.5492e-05,53.686,6.8333e-05,-0.10828,-0.00021424,-2123.3,0.76425
14631,12.237,5.8182,0.05,2.7995e-06,27.975,2.1497e-06,16.152,-1.1889e-14,2.9976e-06,-2.1497e-06,-16.152,0.76382
14632,12.237,5.9091,0,0.00021,2098.5,7.1508e-05,26.501,6.7985e-05,0.030725,-0.00020953,-2085.1,0.76343
14633,12.513,5.8182,0,0.00022433,2241.7,7.7066e-05,36.479,7.2218e-05,0.059026,-0.00022368,-2223.2,0.79871
14634,12.421,5.7273,0,0.00022325,2230.9,7.749e-05,45.794,7.1385e-05,-0.07902,-0.00022243,-2207.7,0.78745
14635,12.421,5.8182,0.05,2.2343e-06,22.328,1.7157e-06,12.891,-5.5602e-14,3.2958e-06,-1.7157e-06,-12.891,0.78703
14636,12.421,5.9091,0,0.00021895,2188,7.4149e-05,22.745,7.1125e-05,0.028366,-0.00021855,-2176.5,0.78665
14637,12.697,5.8182,0,0.00022918,2290.2,7.8158e-05,30.351,7.4124e-05,0.042841,-0.00022865,-2274.8,0.82214
14638,12.605,5.7273,0,0.00022879,2286.3,7.8683e-05,38.13,7.36e-05,-0.062516,-0.00022812,-2267.1,0.81079
14639,12.605,5.8182,0.05,1.7497e-06,17.484,1.3435e-06,10.095,-2.8498e-22,2.9726e-06,-1.3435e-06,-10.095,0.81038
14640,12.605,5.9091,0,0.0002253,2251.4,7.5948e-05,19.186,7.3398e-05,0.030773,-0.00022496,-2241.8,0.81001
14641,12.88,5.8182,0,0.00023211,2319.5,7.8675e-05,24.916,7.5363e-05,0.029114,-0.00023168,-2307,0.84573
14642,12.788,5.7273,0,0.00023227,2321.1,7.9241e-05,31.05,7.5101e-05,-0.051659,-0.00023173,-2305.4,0.83429
14643,12.788,5.8182,0.05,1.3427e-06,13.418,1.031e-06,7.7466,-2.4996e-14,2.5238e-06,-1.031e-06,-7.7466,0.83389
14644,12.788,5.9091,0,0.00022947,2293.2,7.7058e-05,15.972,7.4937e-05,0.035692,-0.0002292,-2285.1,0.83353
14645,13.064,5.8182,0,0.00023348,2333.2,7.8737e-05,20.233,7.6047e-05,0.018551,-0.00023313,-2323,0.86946
14646,12.972,5.7273,0,0.00023406,2338.9,7.9305e-05,24.747,7.6006e-05,-0.043616,-0.00023363,-2326.5,0.85794
14647,12.972,5.8182,0.05,1.0068e-06,10.061,7.731e-07,5.8088,-4.827e-14,3.4473e-06,-7.731e-07,-5.8088,0.85755
14648,12.972,5.9091,0,0.00023186,2317,7.7611e-05,13.167,7.5864e-05,0.041639,-0.00023163,-2310.4,0.85719
14649,13.248,5.8182,0,0.00023358,2334.2,7.8442e-05,16.297,7.6274e-05,0.01042,-0.0002333,-2326,0.89336
14650,13.156,5.7273,0,0.00023448,2343.1,7.899e-05,19.3,7.6416e-05,-0.037637,-0.00023414,-2333.5,0.88176
14651,13.156,5.8182,0.05,7.3372e-07,7.3322,5.6341e-07,4.2332,-9.4324e-13,2.131e-06,-5.6341e-07,-4.2332,0.88137
14652,13.156,5.9091,0,0.00023278,2326.2,7.7716e-05,10.789,7.6286e-05,0.047355,-0.00023259,-2320.7,0.88102
14653,13.432,5.8182,0,0.00023266,2325,7.787e-05,13.068,7.6131e-05,0.0036841,-0.00023244,-2318.5,0.91741
14654,13.34,5.7273,0,0.0002338,2336.4,7.8385e-05,14.715,7.6422e-05,-0.033639,-0.00023355,-2329,0.90572
14655,13.34,5.8182,0.05,5.148e-07,5.1445,3.9531e-07,2.9702,-2.4814e-14,3.3136e-06,-3.953e-07,-2.9702,0.90534
14656,13.34,5.9091,0,0.00023252,2323.6,7.7465e-05,8.8233,7.6298e-05,0.051968,-0.00023237,-2319.1,0.905
14657,13.616,5.8182,0,0.00023093,2307.7,7.7082e-05,10.482,7.5687e-05,-0.0026236,-0.00023075,-2302.4,0.94162
14658,13.524,5.7273,0,0.00023226,2321,7.756e-05,10.951,7.6098e-05,-0.031879,-0.00023207,-2315.5,0.92985
14659,13.524,5.8182,0.05,3.4191e-07,3.4168,2.6255e-07,1.9727,1.4795e-14,4.8199e-06,-2.6255e-07,-1.9727,0.92947
14660,13.524,5.9091,0,0.00023131,2311.5,7.6934e-05,7.2398,7.5977e-05,0.054778,-0.00023118,-2307.8,0.92913
14661,13.799,5.8182,0,0.00022855,2284,7.613e-05,8.4699,7.5002e-05,-0.0091772,-0.00022841,-2279.7,0.96598
14662,13.707,5.7273,0,0.00023002,2298.6,7.6572e-05,7.9422,7.551e-05,-0.032887,-0.00022988,-2294.7,0.95413
14663,13.707,5.8182,0.05,2.0817e-07,2.0802,1.5985e-07,1.201,8.7955e-14,5.0101e-06,-1.5985e-07,-1.201,0.95376
14664,13.707,5.9091,0,0.00022934,2291.8,7.6182e-05,6.0009,7.539e-05,0.055165,-0.00022924,-2288.8,0.95342
14665,13.983,5.8182,0,0.00022567,2255.2,7.5054e-05,6.9601,7.4125e-05,-0.016178,-0.00022555,-2251.7,0.9905
14666,13.891,5.7273,0,0.00022724,2270.9,7.5461e-05,5.6093,7.471e-05,-0.03737,-0.00022715,-2268.1,0.97856
14667,13.891,5.8182,0.05,1.0967e-07,1.096,8.4215e-08,0.63277,5.5949e-13,7.3442e-06,-8.4214e-08,-0.63274,0.9782
14668,13.891,5.9091,0,0.00022678,2266.2,7.5258e-05,5.0665,7.4591e-05,0.052739,-0.00022669,-2263.7,0.97787
14669,14.167,5.8182,0,0.00022239,2222.4,7.3882e-05,5.8831,7.3096e-05,-0.023282,-0.00022229,-2219.5,1.0152
14670,14.075,5.7273,0,0.00022405,2238.9,7.4261e-05,3.871,7.374e-05,-0.046177,-0.00022398,-2237,1.0032
14671,14.075,5.8182,0.05,5.5859e-08,0.5582,4.2892e-08,0.32228,1.0425e-13,4.7613e-06,-4.2893e-08,-0.32228,1.0028
14672,14.075,5.9091,0,0.00022375,2235.9,7.4201e-05,4.3969,7.3622e-05,0.047492,-0.00022367,-2233.7,1.0025
14673,14.351,5.8182,0,0.00021881,2186.6,7.264e-05,5.1745,7.1948e-05,-0.029604,-0.00021872,-2184,1.04
14674,14.259,5.7273,0,0.00022052,2203.7,7.2996e-05,2.6471,7.2636e-05,-0.059796,-0.00022048,-2202.4,1.0279
14675,14.259,5.8182,0.05,6.9678e-08,0.6963,5.3504e-08,0.40202,6.9228e-13,4.1394e-05,-5.3503e-08,-0.402,1.0275
14676,14.259,5.9091,0,0.00022035,2201.9,7.3042e-05,3.954,7.2521e-05,0.039926,-0.00022028,-2199.9,1.0272
14677,14.534,5.8182,0,0.00021499,2148.4,7.1346e-05,4.7754,7.0706e-05,-0.034031,-0.00021491,-2146,1.065
14678,14.443,5.7273,0,0.00021675,2166,7.1685e-05,1.86,7.1428e-05,-0.0762,-0.00021672,-2165.1,1.0528
14679,14.443,5.8182,0.05,1.0299e-07,1.0292,7.9087e-08,0.59426,1.5722e-13,3.6082e-05,-7.9086e-08,-0.5942,1.0524
14680,14.443,5.9091,0,0.00021666,2165.1,7.1805e-05,3.7028,7.1317e-05,0.031167,-0.0002166,-2163.2,1.0521
14681,14.718,5.8182,0,0.00021099,2108.4,7.0014e-05,4.6339,6.9393e-05,-0.03586,-0.00021091,-2106.1,1.0901
14682,14.626,5.7273,0,0.00021278,2126.3,7.0341e-05,1.4332,7.0139e-05,-0.087741,-0.00021276,-2125.6,1.0778
14683,14.626,5.8182,0.05,1.3002e-07,1.2993,9.9838e-08,0.75015,3.1832e-13,9.0997e-06,-9.9836e-08,-0.75012,1.0775
14684,14.626,5.9091,0,0.00021275,2126.1,7.0509e-05,3.6115,7.0032e-05,0.022558,-0.00021269,-2124.3,1.0772
14685,14.902,5.8182,0,0.00020685,2067.1,6.8655e-05,4.7049,6.8024e-05,-0.035149,-0.00020677,-2064.7,1.1153
14686,14.81,5.7273,0,0.00020867,2085.2,6.8972e-05,1.2948,6.8789e-05,-0.08425,-0.00020865,-2084.6,1.103
14687,14.81,5.8182,0.05,1.4877e-07,1.4867,1.1424e-07,0.85832,-4.4684e-13,-4.5963e-07,-1.1424e-07,-0.85832,1.1027
14688,14.81,5.9091,0,0.00020868,2085.4,6.9169e-05,3.6519,6.8685e-05,0.015132,-0.00020862,-2083.5,1.1023
14689,15.086,5.8182,0,0.00020261,2024.7,6.7277e-05,4.9499,6.6614e-05,-0.03256,-0.00020253,-2022.3,1.1407
14690,14.994,5.7273,0,0.00020445,2043.1,6.7587e-05,1.3905,6.7394e-05,-0.065855,-0.00020443,-2042.4,1.1283
14691,14.994,5.8182,0.05,1.6038e-07,1.6027,1.2316e-07,0.92534,-2.7186e-13,3.2583e-06,-1.2315e-07,-0.92532,1.128
14692,14.994,5.9091,0,0.00020448,2043.4,6.7797e-05,3.8001,6.7292e-05,0.0094106,-0.00020442,-2041.5,1.1277
14693,15.27,5.8182,0,0.0001983,1981.7,6.5887e-05,5.3362,6.5173e-05,-0.028978,-0.00019821,-1979,1.1662
14694,15.178,5.7273,0,0.00020015,2000.1,6.6193e-05,1.6845,6.5963e-05,-0.043727,-0.00020012,-1999.3,1.1538
14695,15.178,5.8182,0.05,1.663e-07,1.6619,1.277e-07,0.95951,2.5663e-13,6.4273e-06,-1.277e-07,-0.95948,1.1534
14696,15.178,5.9091,0,0.00020019,2000.5,6.64e-05,4.0357,6.5864e-05,0.0054059,-0.00020012,-1998.5,1.1531
14697,15.453,5.8182,0,0.00019394,1938.1,6.4489e-05,5.8358,6.3709e-05,-0.025123,-0.00019384,-1935.2,1.1919
14698,15.362,5.7273,0,0.0001958,1956.6,6.4794e-05,2.1446,6.4505e-05,-0.026172,-0.00019576,-1955.6,1.1793
14699,15.362,5.8182,0.05,1.6783e-07,1.6771,1.2887e-07,0.96831,2.6959e-13,8.372e-06,-1.2887e-07,-0.96829,1.179
14700,15.362,5.9091,0,0.00019583,1957,6.4988e-05,4.3415,6.441e-05,0.0027918,-0.00019576,-1954.8,1.1787
14701,15.637,5.8182,0,0.00018954,1894.1,6.3087e-05,6.4249,6.2229e-05,-0.021411,-0.00018943,-1890.9,1.2177
14702,15.545,5.7273,0,0.00019141,1912.8,6.3394e-05,2.7379,6.3028e-05,-0.01449,-0.00019136,-1911.4,1.2051
14703,15.545,5.8182,0.05,1.6605e-07,1.6593,1.2751e-07,0.95804,-4.0922e-14,9.4848e-06,-1.275e-07,-0.958,1.2048
14704,15.545,5.9091,0,0.00019143,1913,6.3564e-05,4.7032,6.2938e-05,0.0012246,-0.00019135,-1910.6,1.2045
14705,15.821,5.8182,0,0.00018513,1850,6.1684e-05,7.0835,6.0739e-05,-0.018059,-0.000185,-1846.4,1.2436
14706,15.729,5.7273,0,0.00018699,1868.7,6.1995e-05,3.4342,6.1537e-05,-0.0072179,-0.00018694,-1866.9,1.2309
14707,15.729,5.8182,0.05,1.6186e-07,1.6175,1.2429e-07,0.93388,-9.0196e-13,9.7982e-06,-1.2429e-07,-0.93384,1.2306
14708,15.729,5.9091,0,0.00018699,1868.6,6.2134e-05,5.1086,6.1454e-05,0.00038794,-0.0001869,-1866.1,1.2303
14709,16.005,5.8182,0,0.0001807,1805.7,6.0281e-05,7.7947,5.9242e-05,-0.015154,-0.00018056,-1801.8,1.2696
14710,15.913,5.7273,0,0.00018257,1824.4,6.0599e-05,4.2081,6.0038e-05,-0.0028466,-0.00018249,-1822.3,1.2569
14711,15.913,5.8182,0.05,1.56e-07,1.5589,1.1979e-07,0.90002,4.2247e-13,4.0104e-06,-1.1978e-07,-0.90002,1.2566
14712,15.913,5.9091,0,0.00018253,1824.1,6.07e-05,5.5478,5.9961e-05,-1.1426e-05,-0.00018244,-1821.3,1.2563
14713,16.189,5.8182,0,0.00017626,1761.4,5.888e-05,8.5448,5.7741e-05,-0.012689,-0.00017611,-1757.1,1.2958
14714,16.097,5.7273,0,0.00017813,1780.1,5.9205e-05,5.0387,5.8534e-05,-0.00030956,-0.00017805,-1777.6,1.283
14715,16.097,5.8182,0.05,1.4903e-07,1.4893,1.1444e-07,0.85984,-2.1343e-13,7.7362e-06,-1.1444e-07,-0.85981,1.2827
14716,16.097,5.9091,0,0.00017807,1779.4,5.9264e-05,6.0122,5.8464e-05,-0.00016797,-0.00017796,-1776.4,1.2824
14717,16.372,5.8182,0,0.00017183,1717.1,5.7482e-05,9.3224,5.624e-05,-0.010639,-0.00017167,-1712.4,1.3221
14718,16.281,5.7273,0,0.0001737,1735.8,5.7814e-05,5.9095,5.7028e-05,0.0010631,-0.0001736,-1732.8,1.3092
14719,16.281,5.8182,0.05,1.4142e-07,1.4132,1.0859e-07,0.81595,-2.3725e-13,6.2914e-06,-1.0859e-07,-0.81592,1.3089
14720,16.281,5.9091,0,0.0001736,1734.8,5.783e-05,6.495,5.6966e-05,-0.00021035,-0.00017349,-1731.5,1.3087
14721,16.556,5.8182,0,0.0001674,1672.9,5.6088e-05,10.118,5.474e-05,-0.0089481,-0.00016723,-1667.8,1.3485
14722,16.464,5.7273,0,0.00016927,1691.6,5.6428e-05,6.807,5.5523e-05,0.0016534,-0.00016916,-1688.1,1.3355
14723,16.464,5.8182,0.05,1.3352e-07,1.3343,1.0253e-07,0.77039,-4.8842e-13,4.6768e-06,-1.0253e-07,-0.77036,1.3353
14724,16.464,5.9091,0,0.00016913,1690.2,5.6398e-05,6.9906,5.5467e-05,-0.00024767,-0.00016901,-1686.7,1.335
14725,16.74,5.8182,0,0.00016299,1628.7,5.4698e-05,10.926,5.3243e-05,-0.0075289,-0.0001628,-1623.3,1.375
14726,16.648,5.7273,0,0.00016485,1647.4,5.5047e-05,7.7209,5.4019e-05,0.0017513,-0.00016472,-1643.5,1.362
14727,16.648,5.8182,0.05,1.2561e-07,1.2553,9.6456e-08,0.72475,-9.4755e-13,8.3244e-06,-9.6456e-08,-0.72471,1.3617
14728,16.648,5.9091,0,0.00016468,1645.6,5.4969e-05,7.4944,5.3971e-05,-0.00029519,-0.00016455,-1641.9,1.3615
14729,16.924,5.8182,0,0.00015858,1584.7,5.3313e-05,11.738,5.175e-05,-0.006326,-0.00015838,-1578.8,1.4016
14730,16.832,5.7273,0,0.00016045,1603.4,5.3669e-05,8.6431,5.2519e-05,0.0015551,-0.0001603,-1599,1.3885
14731,16.832,5.8182,0.05,1.1792e-07,1.1784,9.0552e-08,0.68037,-3.1723e-13,5.7391e-06,-9.0547e-08,-0.68033,1.3883
14732,16.832,5.9091,0,0.00016023,1601.2,5.3544e-05,8.0031,5.2479e-05,-0.00034463,-0.00016009,-1597.2,1.388
14733,17.108,5.8182,0,0.00015419,1540.9,5.1932e-05,12.552,5.0261e-05,-0.0053096,-0.00015398,-1534.6,1.4283
14734,17.016,5.7273,0,0.00015606,1559.5,5.2297e-05,9.5674,5.1024e-05,0.0011489,-0.00015589,-1554.7,1.4152
14735,17.016,5.8182,0.05,1.1063e-07,1.1056,8.4953e-08,0.63831,-7.9401e-13,7.0581e-06,-8.4951e-08,-0.63828,1.4149
14736,17.016,5.9091,0,0.0001558,1556.9,5.2123e-05,8.5138,5.099e-05,-0.00042665,-0.00015565,-1552.6,1.4147
14737,17.291,5.8182,0,0.00014982,1497.2,5.0557e-05,13.364,4.8777e-05,-0.0044485,-0.00014959,-1490.5,1.4552
14738,17.2,5.7273,0,0.00015168,1515.7,5.0929e-05,10.489,4.9533e-05,0.00059943,-0.0001515,-1510.5,1.442
14739,17.2,5.8182,0.05,1.0389e-07,1.0382,7.9775e-08,0.59939,-1.2196e-12,5.505e-06,-7.9772e-08,-0.59938,1.4417
14740,17.2,5.9091,0,0.00015138,1512.7,5.0708e-05,9.0244,4.9507e-05,-0.00054872,-0.00015122,-1508.2,1.4415
14741,17.475,5.8182,0,0.00014547,1453.7,4.9186e-05,14.171,4.73e-05,-0.0037312,-0.00014522,-1446.5,1.4821
14742,17.383,5.7273,0,0.00014732,1472.2,4.9567e-05,11.406,4.8049e-05,-4.9699e-05,-0.00014712,-1466.4,1.4688
14743,17.383,5.8182,0.05,9.781e-08,0.97743,7.5108e-08,0.56433,-2.6831e-13,6.9627e-06,-7.5105e-08,-0.5643,1.4686
14744,17.383,5.9091,0,0.00014698,1468.8,4.9298e-05,9.5335,4.8029e-05,-0.00070919,-0.00014681,-1464,1.4684
14745,17.659,5.8182,0,0.00014113,1410.3,4.7821e-05,14.972,4.5828e-05,-0.0031367,-0.00014087,-1402.8,1.5091
14746,17.567,5.7273,0,0.00014297,1428.8,4.8209e-05,12.314,4.657e-05,-0.00079746,-0.00014276,-1422.6,1.4958
14747,17.567,5.8182,0.05,9.2488e-08,0.92424,7.1021e-08,0.53362,-1.7193e-12,6.6186e-06,-7.1017e-08,-0.53359,1.4956
14748,17.567,5.9091,0,0.00014259,1424.9,4.7894e-05,10.04,4.6557e-05,-0.00093552,-0.00014242,-1419.9,1.4953
14749,17.843,5.8182,0,0.00013681,1367.1,4.6462e-05,15.766,4.4363e-05,-0.0026225,-0.00013653,-1359.2,1.5362
14750,17.751,5.7273,0,0.00013865,1385.5,4.6857e-05,13.213,4.5098e-05,-0.0015985,-0.00013842,-1378.9,1.5229
14751,17.751,5.8182,0.05,8.7992e-08,0.87931,6.7568e-08,0.50768,9.5236e-15,6.8868e-06,-6.7565e-08,-0.50765,1.5226
14752,17.751,5.9091,0,0.00013823,1381.3,4.6495e-05,10.543,4.5092e-05,-0.0011976,-0.00013805,-1376,1.5224
14753,18.027,5.8182,0,0.00013251,1324.1,4.5107e-05,16.552,4.2904e-05,-0.0021712,-0.00013222,-1315.8,1.5634
14754,17.935,5.7273,0,0.00013434,1342.5,4.551e-05,14.102,4.3632e-05,-0.002414,-0.0001341,-1335.4,1.55
14755,17.935,5.8182,0.05,8.4393e-08,0.84335,6.4805e-08,0.48691,-4.5472e-13,7.5698e-06,-6.4801e-08,-0.4869,1.5498
14756,17.935,5.9091,0,0.00013388,1337.9,4.5102e-05,11.042,4.3633e-05,-0.0014633,-0.00013369,-1332.3,1.5496
14757,18.21,5.8182,0,0.00012822,1281.3,4.3759e-05,17.33,4.1452e-05,-0.0017826,-0.00012792,-1272.6,1.5907
14758,18.119,5.7273,0,0.00013005,1299.6,4.4168e-05,14.982,4.2173e-05,-0.0032528,-0.00012979,-1292.1,1.5773
14759,18.119,5.8182,0.05,8.1747e-08,0.8169,6.2772e-08,0.47165,-4.4066e-13,5.2579e-06,-6.277e-08,-0.47162,1.577
14760,18.119,5.9091,0,0.00012955,1294.6,4.3716e-05,11.538,4.218e-05,-0.0017469,-0.00012935,-1288.8,1.5768
14761,18.394,5.8182,0,0.00012396,1238.7,4.2415e-05,18.101,4.0006e-05,-0.0014531,-0.00012364,-1229.6,1.6181
14762,18.302,5.7273,0,0.00012578,1257,4.2831e-05,15.851,4.0721e-05,-0.0041168,-0.00012551,-1249,1.6046
14763,18.302,5.8182,0.05,8.0087e-08,0.80032,6.1498e-08,0.46207,-8.4712e-13,3.5161e-06,-6.1496e-08,-0.46206,1.6044
14764,18.302,5.9091,0,0.00012525,1251.6,4.2335e-05,12.029,4.0733e-05,-0.0020468,-0.00012504,-1245.5,1.6042
14765,18.578,5.8182,0,0.00011971,1196.3,4.1077e-05,18.863,3.8567e-05,-0.0011912,-0.00011938,-1186.7,1.6456
14766,18.486,5.7273,0,0.00012153,1214.5,4.1499e-05,16.712,3.9274e-05,-0.0050069,-0.00012124,-1206,1.632
14767,18.486,5.8182,0.05,7.9434e-08,0.79379,6.0996e-08,0.4583,1.1203e-13,5.7558e-06,-6.0994e-08,-0.45829,1.6318
14768,18.486,5.9091,0,0.00012096,1208.7,4.096e-05,12.517,3.9294e-05,-0.0023614,-0.00012074,-1202.4,1.6316
14769,18.762,5.8182,0,0.00011548,1154,3.9745e-05,19.618,3.7134e-05,-0.00099497,-0.00011514,-1144.1,1.6731
14770,18.67,5.7273,0,0.0001173,1172.2,4.0173e-05,17.564,3.7835e-05,-0.0059503,-0.00011699,-1163.3,1.6595
14771,18.67,5.8182,0.05,7.9783e-08,0.79728,6.1264e-08,0.46033,-8.7023e-13,7.973e-06,-6.1263e-08,-0.46029,1.6593
14772,18.67,5.9091,0,0.00011669,1166,3.9591e-05,13,3.786e-05,-0.0027111,-0.00011646,-1159.5,1.6591
14773,18.946,5.8182,0,0.00011127,1112,3.8418e-05,20.366,3.5707e-05,-0.00084144,-0.00011091,-1101.7,1.7007
14774,18.854,5.7273,0,0.00011308,1130.1,3.8853e-05,18.41,3.6402e-05,-0.0069285,-0.00011276,-1120.7,1.6871
14775,18.854,5.8182,0.05,8.1117e-08,0.81061,6.2288e-08,0.46801,-6.8892e-13,3.7195e-06,-6.2288e-08,-0.468,1.6869
14776,18.854,5.9091,0,0.00011243,1123.6,3.8228e-05,13.481,3.6433e-05,-0.0030731,-0.0001122,-1116.8,1.6867
14777,19.129,5.8182,0,0.00010708,1070.1,3.7096e-05,21.107,3.4287e-05,-0.00072999,-0.00010671,-1059.4,1.7284
14778,19.038,5.7273,0,0.00010889,1088.1,3.7538e-05,19.249,3.4975e-05,-0.0079247,-0.00010855,-1078.4,1.7147
14779,19.038,5.8182,0.05,8.3419e-08,0.83362,6.4056e-08,0.4813,-4.4299e-15,7.5087e-06,-6.4055e-08,-0.48128,1.7145
14780,19.038,5.9091,0,0.0001082,1081.3,3.6871e-05,13.958,3.5013e-05,-0.0034225,-0.00010796,-1074.2,1.7144
14781,19.313,5.8182,0,0.00010291,1028.4,3.578e-05,21.842,3.2873e-05,-0.00067193,-0.00010252,-1017.3,1.7562
14782,19.221,5.7273,0,0.00010471,1046.4,3.6228e-05,20.083,3.3554e-05,-0.0089649,-0.00010435,-1036.2,1.7425
14783,19.221,5.8182,0.05,8.667e-08,0.8661,6.6552e-08,0.50005,-4.3379e-13,9.0111e-06,-6.6551e-08,-0.50003,1.7423
14784,19.221,5.9091,0,0.00010399,1039.2,3.552e-05,14.432,3.3598e-05,-0.0037739,-0.00010373,-1031.9,1.7421
14785,19.497,5.8182,0,9.8754e-05,986.86,3.4468e-05,22.57,3.1464e-05,-0.00067258,-9.8351e-05,-975.38,1.784
14786,19.405,5.7273,0,0.00010055,1004.8,3.4924e-05,20.913,3.2139e-05,-0.010055,-0.00010018,-994.18,1.7702
14787,19.405,5.8182,0.05,9.0845e-08,0.90782,6.9758e-08,0.52415,6.0656e-13,8.0743e-06,-6.9757e-08,-0.52412,1.7701
14788,19.405,5.9091,0,9.9792e-05,997.23,3.4174e-05,14.904,3.219e-05,-0.0041269,-9.953e-05,-989.69,1.7699
14789,19.681,5.8182,0,9.4615e-05,945.5,3.3162e-05,23.292,3.0062e-05,-0.00074852,-9.4197e-05,-933.64,1.8119
14790,19.589,5.7273,0,9.6406e-05,963.39,3.3625e-05,21.74,3.073e-05,-0.011209,-9.6017e-05,-952.34,1.7981
14791,19.589,5.8182,0.05,9.5931e-08,0.95865,7.3664e-08,0.55349,-2.1817e-13,1.2159e-05,-7.3663e-08,-0.55346,1.7979
14792,19.589,5.9091,0,9.5614e-05,955.48,3.2834e-05,15.373,3.0788e-05,-0.0044773,-9.5343e-05,-947.7,1.7978
14793,19.865,5.8182,0,9.0493e-05,904.31,3.1861e-05,24.008,2.8665e-05,-0.00091055,-9.0061e-05,-892.06,1.8398
14794,19.773,5.7273,0,9.228e-05,922.16,3.2332e-05,22.566,2.9327e-05,-0.012456,-9.1875e-05,-910.68,1.826
14795,19.773,5.8182,0.05,1.0192e-07,1.0185,7.8261e-08,0.58803,4.007e-13,1.1541e-05,-7.826e-08,-0.588,1.8258
14796,19.773,5.9091,0,9.1453e-05,913.9,3.15e-05,15.839,2.9391e-05,-0.0048474,-9.1174e-05,-905.88,1.8257
14797,20.048,5.8182,0,8.6387e-05,863.27,3.0564e-05,24.717,2.7274e-05,-0.0011526,-8.594e-05,-850.65,1.8679
14798,19.956,5.7273,0,8.8171e-05,881.1,3.1044e-05,23.39,2.7929e-05,-0.013795,-8.775e-05,-869.18,1.854
14799,19.956,5.8182,0.05,1.0881e-07,1.0873,8.355e-08,0.62777,8.1867e-13,1.1417e-05,-8.3549e-08,-0.62774,1.8538
14800,19.956,5.9091,0,8.731e-05,872.5,3.0171e-05,16.302,2.8001e-05,-0.0052115,-8.7022e-05,-864.24,1.8537
14801,20.232,5.8182,0,8.2297e-05,822.4,2.9272e-05,25.419,2.5889e-05,-0.0014859,-8.1835e-05,-809.4,1.8959
14802,20.14,5.7273,0,8.4078e-05,840.2,2.9761e-05,24.213,2.6537e-05,-0.01522,-8.364e-05,-827.84,1.882
14803,20.14,5.8182,0.05,1.1661e-07,1.1653,8.9546e-08,0.67282,6.9156e-13,1.278e-05,-8.9544e-08,-0.67279,1.8819
14804,20.14,5.9091,0,8.3184e-05,831.27,2.8847e-05,16.763,2.6616e-05,-0.0055549,-8.2886e-05,-822.76,1.8817
14805,20.416,5.8182,0,7.8222e-05,781.68,2.7984e-05,26.113,2.4509e-05,-0.0019367,-7.7745e-05,-768.3,1.924
14806,20.324,5.7273,0,8.0002e-05,799.47,2.8484e-05,25.036,2.5149e-05,-0.016766,-7.9547e-05,-786.66,1.9101
14807,20.324,5.8182,0.05,1.2537e-07,1.2529,9.6271e-08,0.72335,3.881e-13,1.1523e-05,-9.6269e-08,-0.72332,1.91
14808,20.324,5.9091,0,7.9074e-05,790.2,2.7529e-05,17.22,2.5236e-05,-0.0058786,-7.8767e-05,-781.45,1.9098
14809,20.6,5.8182,0,7.4162e-05,741.11,2.6701e-05,26.797,2.3134e-05,-0.0025273,-7.367e-05,-727.35,1.9522
14810,20.508,5.7273,0,7.5942e-05,758.89,2.7211e-05,25.86,2.3767e-05,-0.018449,-7.5469e-05,-745.64,1.9383
14811,20.508,5.8182,0.05,1.3512e-07,1.3503,1.0376e-07,0.77959,-1.2944e-13,7.58e-06,-1.0376e-07,-0.77957,1.9381
14812,20.508,5.9091,0,7.4981e-05,749.29,2.6216e-05,17.673,2.3863e-05,-0.0061855,-7.4665e-05,-740.3,1.938
14813,20.784,5.8182,0,7.0116e-05,700.68,2.5421e-05,27.47,2.1764e-05,-0.0032923,-6.9609e-05,-686.54,1.9804
14814,20.692,5.7273,0,7.1897e-05,718.47,2.5944e-05,26.683,2.239e-05,-0.020298,-7.1406e-05,-704.77,1.9665
14815,20.692,5.8182,0.05,1.4591e-07,1.4581,1.1204e-07,0.84182,-2.4936e-13,1.0452e-05,-1.1204e-07,-0.8418,1.9663
14816,20.692,5.9091,0,7.0903e-05,708.54,2.4907e-05,18.121,2.2494e-05,-0.0064617,-7.0578e-05,-699.31,1.9662
14817,20.967,5.8182,0,6.6084e-05,660.39,2.4144e-05,28.129,2.0399e-05,-0.004268,-6.5561e-05,-645.88,2.0087
14818,20.875,5.7273,0,6.7867e-05,678.2,2.4682e-05,27.507,2.1018e-05,-0.022352,-6.7357e-05,-664.04,1.9947
14819,20.875,5.8182,0.05,1.5779e-07,1.5768,1.2116e-07,0.91037,1.2468e-13,1.273e-05,-1.2116e-07,-0.91034,1.9945
14820,20.875,5.9091,0,6.6841e-05,667.95,2.3603e-05,18.564,2.1131e-05,-0.0067106,-6.6506e-05,-658.48,1.9944
14821,21.151,5.8182,0,6.2066e-05,620.23,2.287e-05,28.773,1.904e-05,-0.0054845,-6.1526e-05,-605.35,2.037
14822,21.059,5.7273,0,6.3852e-05,638.08,2.3424e-05,28.33,1.965e-05,-0.02463,-6.3323e-05,-623.45,2.023
14823,21.059,5.8182,0.05,1.7083e-07,1.7071,1.3117e-07,0.9856,1.1386e-13,1.1298e-05,-1.3117e-07,-0.98557,2.0228
14824,21.059,5.9091,0,6.2795e-05,627.51,2.2303e-05,18.998,1.9773e-05,-0.00691,-6.245e-05,-617.8,2.0227
14825,21.335,5.8182,0,5.806e-05,580.2,2.1598e-05,29.397,1.7685e-05,-0.0069926,-5.7504e-05,-564.95,2.0654
14826,21.243,5.7273,0,5.9851e-05,598.1,2.217e-05,29.151,1.8287e-05,-0.027157,-5.9302e-05,-583,2.0513
14827,21.243,5.8182,0.05,1.8511e-07,1.8498,1.4214e-07,1.068,-7.2786e-14,1.1516e-05,-1.4214e-07,-1.068,2.0512
14828,21.243,5.9091,0,5.8763e-05,587.22,2.1007e-05,19.424,1.8421e-05,-0.0070208,-5.8408e-05,-577.27,2.0511
14829,21.519,5.8182,0,5.4067e-05,540.3,2.0328e-05,29.997,1.6335e-05,-0.0088665,-5.3494e-05,-524.68,2.0937
14830,21.427,5.7273,0,5.5865e-05,558.26,2.0921e-05,29.97,1.6928e-05,-0.029986,-5.5295e-05,-542.69,2.0797
14831,21.427,5.8182,0.05,2.0071e-07,2.0058,1.5412e-07,1.158,1.9412e-13,1.8028e-06,-1.5412e-07,-1.158,2.0795
14832,21.427,5.9091,0,5.4746e-05,547.08,1.9715e-05,19.839,1.7074e-05,-0.0070294,-5.4382e-05,-536.9,2.0794
14833,21.703,5.8182,0,5.0086e-05,500.51,1.906e-05,30.568,1.499e-05,-0.011197,-4.9496e-05,-484.53,2.1222
14834,21.611,5.7273,0,5.1892e-05,518.56,1.9676e-05,30.786,1.5574e-05,-0.033172,-5.13e-05,-502.5,2.1081
14835,21.611,5.8182,0.05,2.1775e-07,2.176,1.6721e-07,1.2563,4.4034e-13,5.852e-06,-1.6721e-07,-1.2563,2.1079
14836,21.611,5.9091,0,5.0744e-05,507.09,1.8427e-05,20.239,1.5732e-05,-0.0068948,-5.037e-05,-496.67,2.1078
14837,21.886,5.8182,0,4.6116e-05,460.84,1.7792e-05,31.104,1.365e-05,-0.014103,-4.5508e-05,-444.51,2.1506
14838,21.794,5.7273,0,4.7934e-05,479.01,1.8434e-05,31.596,1.4224e-05,-0.036779,-4.7319e-05,-462.45,2.1365
14839,21.794,5.8182,0.05,2.3634e-07,2.3618,1.8148e-07,1.3636,2.3023e-13,7.4255e-06,-1.8148e-07,-1.3636,2.1364
14840,21.794,5.9091,0,4.6757e-05,467.25,1.7142e-05,20.622,1.4397e-05,-0.0065628,-4.6372e-05,-456.6,2.1363
14841,22.07,5.8182,0,4.2158e-05,421.29,1.6524e-05,31.598,1.2316e-05,-0.017732,-4.1532e-05,-404.61,2.1791
14842,21.978,5.7273,0,4.399e-05,439.6,1.7196e-05,32.398,1.2879e-05,-0.040895,-4.335e-05,-422.52,2.1649
14843,21.978,5.8182,0.05,2.566e-07,2.5642,1.9704e-07,1.4805,2.5189e-13,5.589e-06,-1.9704e-07,-1.4805,2.1648
14844,21.978,5.9091,0,4.2786e-05,427.56,1.586e-05,20.983,1.3067e-05,-0.0059695,-4.239e-05,-416.69,2.1647
14845,22.254,5.8182,0,3.8211e-05,381.85,1.5255e-05,32.04,1.0987e-05,-0.022285,-3.7566e-05,-364.83,2.2076
14846,22.162,5.7273,0,4.0062e-05,400.34,1.5962e-05,33.193,1.1538e-05,-0.045595,-3.9394e-05,-382.73,2.1934
14847,22.162,5.8182,0.05,2.7869e-07,2.785,2.14e-07,1.6079,-3.2079e-13,6.1789e-06,-2.14e-07,-1.6079,2.1933
14848,22.162,5.9091,0,3.8831e-05,388.04,1.4581e-05,21.318,1.1743e-05,-0.0049839,-3.8424e-05,-376.94,2.1932
14849,22.438,5.8182,0,3.4277e-05,342.54,1.3984e-05,32.419,9.6651e-06,-0.028027,-3.3611e-05,-325.19,2.2361
14850,22.346,5.7273,0,3.615e-05,361.25,1.4731e-05,33.977,1.0202e-05,-0.050991,-3.5452e-05,-343.08,2.2219
14851,22.346,5.8182,0.05,3.0281e-07,3.026,2.3252e-07,1.7471,2.613e-13,6.0701e-06,-2.3252e-07,-1.747,2.2218
14852,22.346,5.9091,0,3.4892e-05,348.68,1.3304e-05,21.619,1.0427e-05,-0.0034368,-3.4474e-05,-337.37,2.2218
14853,22.622,5.8182,0,3.0356e-05,303.35,1.271e-05,32.722,8.3498e-06,-0.035382,-2.9667e-05,-285.68,2.2647
14854,22.53,5.7273,0,3.2256e-05,322.34,1.3505e-05,34.752,8.8717e-06,-0.05718,-3.1525e-05,-303.58,2.2505
14855,22.53,5.8182,0.05,3.2917e-07,3.2894,2.5276e-07,1.8992,1.0168e-13,1.0496e-05,-2.5276e-07,-1.8991,2.2504
14856,22.53,5.9091,0,3.0973e-05,309.52,1.203e-05,21.878,9.1182e-06,-0.0010393,-3.0543e-05,-298,2.2503
14857,22.805,5.8182,0,2.645e-05,264.32,1.1432e-05,32.933,7.0425e-06,-0.044753,-2.5736e-05,-246.33,2.2932
14858,22.713,5.7273,0,2.8385e-05,283.65,1.2283e-05,35.521,7.5466e-06,-0.064403,-2.7614e-05,-264.24,2.279
14859,22.713,5.8182,0.05,3.5808e-07,3.5783,2.7496e-07,2.0659,-1.5081e-13,4.5289e-06,-2.7496e-07,-2.0659,2.2789
14860,22.713,5.9091,0,2.7076e-05,270.57,1.0758e-05,22.085,7.819e-06,0.0025572,-2.6632e-05,-258.85,2.2789
14861,22.989,5.8182,0,2.2564e-05,225.48,1.0149e-05,33.033,5.7446e-06,-0.057506,-2.182e-05,-207.17,2.3218
14862,22.897,5.7273,0,2.4542e-05,245.25,1.1068e-05,36.295,6.2278e-06,-0.072295,-2.3722e-05,-225.11,2.3076
14863,22.897,5.8182,0.05,3.8992e-07,3.8965,2.9941e-07,2.2497,5.161e-13,9.9359e-06,-2.9941e-07,-2.2497,2.3075
14864,22.897,5.9091,0,2.3205e-05,231.89,9.4879e-06,22.226,6.5309e-06,0.008468,-2.2746e-05,-219.97,2.3074
14865,23.173,5.8182,0,1.8704e-05,186.91,8.8608e-06,33.005,4.4585e-06,-0.072657,-1.7923e-05,-168.24,2.3504
14866,23.081,5.7273,0,2.0738e-05,207.24,9.8642e-06,37.096,4.916e-06,-0.08258,-1.9857e-05,-186.21,2.3362
14867,23.081,5.8182,0.05,4.2526e-07,4.2497,3.2655e-07,2.4536,9.3167e-13,1.4087e-05,-3.2655e-07,-2.4535,2.3361
14868,23.081,5.9091,0,1.9366e-05,193.53,8.2198e-06,22.28,5.2567e-06,0.016716,-1.889e-05,-181.41,2.336
14869,23.357,5.8182,0,1.4887e-05,148.77,7.571e-06,32.845,3.1862e-06,-0.1001,-1.4054e-05,-129.63,2.379
14870,23.265,5.7273,0,1.6995e-05,169.84,8.6804e-06,37.989,3.6127e-06,-0.087915,-1.6027e-05,-147.65,2.3648
14871,23.265,5.8182,0.05,4.6505e-07,4.6473,3.571e-07,2.6831,2.5365e-13,6.5756e-06,-3.571e-07,-2.6831,2.3647
14872,23.265,5.9091,0,1.5571e-05,155.6,6.9542e-06,22.223,4.0013e-06,0.035593,-1.5073e-05,-143.28,2.3646
14873,23.541,5.8182,0,1.1155e-05,111.48,6.2925e-06,32.633,1.9341e-06,-0.11431,-1.0235e-05,-91.549,2.4076
14874,23.449,5.7273,0,1.3358e-05,133.49,7.5369e-06,39.114,2.3161e-06,-0.1125,-1.2255e-05,-109.59,2.3934
14875,23.449,5.8182,0.05,5.106e-07,5.1024,3.9207e-07,2.9459,2.5475e-13,5.3412e-06,-3.9207e-07,-2.9459,2.3933
14876,23.449,5.9091,0,1.1839e-05,118.31,5.6922e-06,22.005,2.7702e-06,0.049464,-1.131e-05,-105.74,2.3932
14877,23.724,5.8182,0,7.6892e-06,76.839,5.1298e-06,33.073,6.871e-07,-0.30705,-6.5669e-06,-54.811,2.4362
14878,23.632,5.7273,0,9.9419e-06,99.35,6.486e-06,40.918,1.0334e-06,-0.050998,-8.5911e-06,-72.365,2.422
14879,23.632,5.8182,0.05,5.6787e-07,5.6748,4.3605e-07,3.2763,5.081e-13,9.6833e-06,-4.3605e-07,-3.2763,2.4219
14880,23.632,5.9091,0,8.221e-06,82.153,4.4449e-06,21.66,1.5815e-06,0.14542,-7.6358e-06,-69.11,2.4219
14881,23.816,5.7273,0,7.1184e-06,71.135,5.7236e-06,44.796,-2.8849e-07,-0.37702,-5.1896e-06,-37.202,2.4506
14882,23.816,5.8182,0.05,6.9002e-07,6.8954,5.2985e-07,3.9811,9.3056e-13,1.139e-05,-5.2985e-07,-3.9811,2.4505
14883,23.908,5.8182,0,4.8147e-06,48.114,4.126e-06,34.453,-4.632e-07,-0.028597,-3.1895e-06,-20.513,2.4649
14884,23.816,5.9091,0,4.8631e-06,48.597,3.2518e-06,21.088,4.3627e-07,-0.066953,-4.1467e-06,-34.502,2.4505
14885,11.042,5.6364,0,9.1722e-05,916.58,4.0773e-05,124.07,2.3259e-05,-7.5237,-8.9027e-05,-851.2,0.61689
14886,10.95,5.5455,0,0.00010323,1031.6,5.4528e-05,250.14,2.0248e-05,-7.4276,-9.6656e-05,-885.8,0.60617
14887,10.95,5.6364,0.05,7.0316e-06,70.268,5.3994e-06,40.569,-2.6055e-13,1.0424e-06,-5.3994e-06,-40.569,0.60563
14888,10.859,5.6364,0,6.7896e-05,678.49,3.2564e-05,126.38,1.6064e-05,2.3969,-6.485e-05,-605.55,0.59444
14889,11.226,5.6364,0,0.00011407,1139.9,4.4714e-05,83.292,3.3108e-05,-3.9137,-0.00011247,-1097.7,0.63938
14890,11.134,5.5455,0,0.00011372,1136.4,4.8871e-05,136.41,3.0291e-05,-3.1929,-0.00011081,-1063.4,0.62861
14891,11.134,5.6364,0.05,5.8723e-06,58.682,4.5092e-06,33.88,-1.2968e-13,4.6393e-06,-4.5092e-06,-33.88,0.6281
14892,11.41,5.6364,0,0.00014015,1400.5,5.29e-05,78.943,4.2086e-05,-2.3106,-0.00013866,-1360.4,0.66193
14893,11.318,5.5455,0,0.0001366,1365,5.3979e-05,106.08,3.9468e-05,-2.957,-0.00013452,-1310.2,0.6511
14894,11.318,5.6364,0.05,5.2832e-06,52.795,4.0568e-06,30.481,-1.8966e-13,3.4259e-06,-4.0568e-06,-30.481,0.65061
14895,11.594,5.6364,0,0.00016382,1637,6.0661e-05,78.895,5.0004e-05,-1.1759,-0.00016235,-1596.7,0.68455
14896,11.502,5.5455,0,0.00015992,1598.1,6.0797e-05,95.945,4.7808e-05,-1.6527,-0.00015809,-1548.7,0.67367
14897,11.502,5.6364,0.05,4.5734e-06,45.702,3.5118e-06,26.386,-7.4491e-22,4.1425e-06,-3.5118e-06,-26.386,0.6732
14898,11.778,5.6364,0,0.00018373,1836,6.7034e-05,76.707,5.6731e-05,-0.70883,-0.00018231,-1796.8,0.70728
14899,11.686,5.5455,0,0.00018045,1803.3,6.7016e-05,89.418,5.4975e-05,-1.058,-0.00017878,-1757.4,0.69632
14900,11.686,5.6364,0.05,3.8361e-06,38.335,2.9457e-06,22.133,8.8346e-13,4.1687e-06,-2.9457e-06,-22.133,0.69587
14901,11.961,5.6364,0,0.00019973,1995.9,7.1889e-05,71.668,6.2289e-05,-0.46853,-0.00019842,-1959.3,0.73013
14902,11.869,5.5455,0,0.00019733,1972,7.1977e-05,82.174,6.0949e-05,-0.68659,-0.00019582,-1929.9,0.71909
14903,11.869,5.6364,0.05,3.1233e-06,31.211,2.3983e-06,18.02,8.8642e-13,6.2336e-06,-2.3983e-06,-18.02,0.71866
14904,12.145,5.6364,0,0.00021209,2119.4,7.5367e-05,64.461,6.6742e-05,-0.34228,-0.00021092,-2086.6,0.7531
14905,12.053,5.5455,0,0.00021056,2104.1,7.5613e-05,73.436,6.5775e-05,-0.48327,-0.00020922,-2066.7,0.74199
14906,12.053,5.6364,0.05,2.4694e-06,24.677,1.8962e-06,14.247,1.0276e-12,4.7915e-06,-1.8962e-06,-14.247,0.74157
14907,12.329,5.6364,0,0.00022125,2210.9,7.7689e-05,56.048,7.0195e-05,-0.26337,-0.00022024,-2182.5,0.77622
14908,12.237,5.5455,0,0.00022048,2203.2,7.807e-05,63.651,6.9551e-05,-0.3553,-0.00021933,-2170.9,0.76502
14909,12.237,5.6364,0.05,1.8919e-06,18.906,1.4527e-06,10.915,1.4427e-13,5.7637e-06,-1.4527e-06,-10.915,0.76461
14910,12.513,5.6364,0,0.00022769,2275.3,7.9084e-05,47.269,7.2765e-05,-0.20873,-0.00022685,-2251.4,0.79948
14911,12.421,5.5455,0,0.00022754,2273.8,7.9556e-05,53.507,7.2399e-05,-0.2719,-0.00022658,-2246.7,0.7882
14912,12.421,5.6364,0.05,1.396e-06,13.95,1.0719e-06,8.0541,1.575e-13,5.9622e-06,-1.0719e-06,-8.0541,0.7878
14913,12.697,5.6364,0,0.00023187,2317.1,7.9753e-05,38.735,7.4576e-05,-0.16755,-0.00023119,-2297.6,0.82289
14914,12.605,5.5455,0,0.00023222,2320.6,8.0276e-05,43.61,7.4443e-05,-0.21444,-0.00023145,-2298.6,0.81152
14915,12.605,5.6364,0.05,9.7944e-07,9.7876,7.5209e-07,5.6509,1.7194e-13,5.9831e-06,-7.5208e-07,-5.6509,0.81114
14916,12.88,5.6364,0,0.0002342,2340.4,7.9866e-05,30.844,7.5743e-05,-0.13544,-0.00023367,-2324.9,0.84646
14917,12.788,5.5455,0,0.00023494,2347.8,8.0406e-05,34.391,7.5806e-05,-0.17439,-0.00023434,-2330.5,0.83501
14918,12.788,5.6364,0.05,6.3658e-07,6.3614,4.8882e-07,3.6728,3.7974e-13,4.536e-06,-4.8881e-07,-3.6728,0.83463
14919,13.064,5.6364,0,0.00023505,2348.9,7.9558e-05,23.815,7.6374e-05,-0.11043,-0.00023464,-2336.9,0.87018
14920,12.972,5.5455,0,0.00023608,2359.2,8.0093e-05,26.113,7.6598e-05,-0.14713,-0.00023563,-2346.1,0.85864
14921,12.972,5.6364,0.05,3.6294e-07,3.6269,2.7869e-07,2.094,5.1232e-13,6.4594e-06,-2.7869e-07,-2.094,0.85827
14922,13.248,5.6364,0,0.0002347,2345.4,7.8936e-05,17.745,7.6562e-05,-0.091702,-0.00023439,-2336.5,0.89407
14923,13.156,5.5455,0,0.00023596,2358,7.9452e-05,18.903,7.6919e-05,-0.13085,-0.00023564,-2348.6,0.88244
14924,13.156,5.6364,0.05,1.721e-07,1.7198,1.3215e-07,0.99296,1.668e-12,4.4878e-05,-1.3215e-07,-0.99294,0.88208
14925,13.432,5.6364,0,0.0002334,2332.4,7.8081e-05,12.644,7.6388e-05,-0.079155,-0.00023318,-2326.1,0.91811
14926,13.34,5.5455,0,0.00023484,2346.8,7.8571e-05,12.797,7.6852e-05,-0.12629,-0.00023462,-2340.4,0.9064
14927,13.34,5.6364,0.05,1.6039e-07,1.6028,1.2316e-07,0.92539,3.2516e-12,1.8782e-05,-1.2316e-07,-0.92537,0.90604
14928,13.616,5.6364,0,0.00023135,2311.9,7.7058e-05,8.4713,7.592e-05,-0.073808,-0.00023121,-2307.7,0.9423
14929,13.524,5.5455,0,0.00023292,2327.6,7.752e-05,7.768,7.6468e-05,-0.13973,-0.00023279,-2323.8,0.93051
14930,13.524,5.6364,0.05,2.7025e-07,2.7007,2.0752e-07,1.5592,2.0091e-14,4.9324e-07,-2.0752e-07,-1.5592,0.93016
14931,13.799,5.6364,0,0.00022872,2285.6,7.5912e-05,5.1563,7.5215e-05,-0.079413,-0.00022863,-2283.1,0.96666
14932,13.707,5.5455,0,0.00023039,2302.3,7.6354e-05,3.7755,7.5824e-05,-0.20131,-0.00023033,-2300.5,0.95478
14933,13.707,5.6364,0.05,3.7769e-07,3.7743,2.9002e-07,2.1791,-1.0443e-12,1.9102e-06,-2.9002e-07,-2.1791,0.95444
14934,13.983,5.6364,0,0.00022563,2254.7,7.4683e-05,2.6256,7.4318e-05,-0.11048,-0.00022559,-2253.5,0.99116
14935,13.891,5.5455,0,0.00022737,2272.2,7.5144e-05,0.98374,7.4937e-05,-0.56938,-0.00022737,-2272,0.97921
14936,13.891,5.6364,0.05,4.6655e-07,4.6623,3.5825e-07,2.6918,-2.1588e-13,2.9179e-06,-3.5825e-07,-2.6918,0.97887
14937,14.167,5.6364,0,0.00022219,2220.3,7.3407e-05,0.87566,7.3257e-05,-0.25673,-0.00022218,-2220,1.0158
14938,14.075,5.5455,0,0.00022399,2238.3,7.4039e-05,0.20153,7.3725e-05,-2.1557,-0.00022402,-2239.3,1.0038
14939,14.075,5.6364,0.05,5.3748e-07,5.3711,4.1272e-07,3.101,-7.4409e-14,5.3326e-06,-4.1271e-07,-3.101,1.0035
14940,14.351,5.6364,0,0.00021847,2183.2,7.2158e-05,0.20567,7.2009e-05,-0.90932,-0.00021848,-2183.6,1.0406
14941,14.259,5.5455,0,0.00022031,2201.6,7.2896e-05,0.094094,7.2387e-05,-3.7299,-0.00022037,-2203.4,1.0285
14942,14.259,5.6364,0.05,5.9315e-07,5.9274,4.5546e-07,3.4222,-1.825e-13,4.7769e-06,-4.5546e-07,-3.4221,1.0282
14943,14.534,5.6364,0,0.00021455,2144,7.0891e-05,0.098364,7.066e-05,-1.6374,-0.00021458,-2144.8,1.0656
14944,14.443,5.5455,0,0.00021642,2162.7,7.1662e-05,0.06067,7.1016e-05,-4.7911,-0.0002165,-2165.1,1.0534
14945,14.443,5.6364,0.05,6.3627e-07,6.3583,4.8858e-07,3.671,-9.1136e-13,2.6374e-06,-4.8858e-07,-3.671,1.0531
14946,14.718,5.6364,0,0.00021047,2103.3,6.9562e-05,0.06814,6.9282e-05,-2.0344,-0.00021051,-2104.2,1.0907
14947,14.626,5.5455,0,0.00021237,2122.2,7.0352e-05,0.045197,6.963e-05,-5.3759,-0.00021246,-2124.9,1.0784
14948,14.626,5.6364,0.05,6.6925e-07,6.6879,5.1391e-07,3.8613,-8.4092e-13,4.605e-06,-5.139e-07,-3.8612,1.0781
14949,14.902,5.6364,0,0.00020628,2061.4,6.8181e-05,0.054913,6.7893e-05,-2.1111,-0.00020631,-2062.4,1.1159
14950,14.81,5.5455,0,0.0002082,2080.5,6.8983e-05,0.036351,6.8238e-05,-5.5572,-0.00020829,-2083.3,1.1036
14951,14.81,5.6364,0.05,6.9412e-07,6.9364,5.33e-07,4.0047,-9.2137e-13,3.6488e-06,-5.3299e-07,-4.0047,1.1033
14952,15.086,5.6364,0,0.000202,2018.6,6.6759e-05,0.047874,6.6497e-05,-1.9188,-0.00020203,-2019.5,1.1413
14953,14.994,5.5455,0,0.00020393,2037.9,6.7568e-05,0.030527,6.6844e-05,-5.4056,-0.00020402,-2040.6,1.1289
14954,14.994,5.6364,0.05,7.1251e-07,7.1202,5.4712e-07,4.1109,-1.8756e-12,4.0472e-06,-5.4712e-07,-4.1108,1.1286
14955,15.27,5.6364,0,0.00019766,1975.2,6.5307e-05,0.044241,6.51e-05,-1.5085,-0.00019769,-1976,1.1668
14956,15.178,5.5455,0,0.0001996,1994.7,6.6119e-05,0.026266,6.5452e-05,-4.9847,-0.00019969,-1997.1,1.1543
14957,15.178,5.6364,0.05,7.2579e-07,7.2529,5.5732e-07,4.1875,-3.037e-14,3.7262e-06,-5.5732e-07,-4.1875,1.154
14958,15.453,5.6364,0,0.00019328,1931.5,6.3832e-05,0.044858,6.3703e-05,-0.92715,-0.0001933,-1931.9,1.1925
14959,15.362,5.5455,0,0.00019523,1951,6.4644e-05,0.022853,6.4062e-05,-4.3497,-0.00019531,-1953.1,1.1799
14960,15.362,5.6364,0.05,7.3504e-07,7.3454,5.6442e-07,4.2409,-8.2301e-15,4.4311e-06,-5.6442e-07,-4.2408,1.1796
14961,15.637,5.6364,0,0.00018887,1887.4,6.2346e-05,0.074173,6.2305e-05,-0.2378,-0.00018888,-1887.5,1.2183
14962,15.545,5.5455,0,0.00019083,1907,6.3152e-05,0.019983,6.2678e-05,-3.5474,-0.00019089,-1908.8,1.2056
14963,15.545,5.6364,0.05,7.4112e-07,7.4061,5.6909e-07,4.2759,4.7777e-14,5.1706e-06,-5.6909e-07,-4.2759,1.2053
14964,15.821,5.6364,0,0.00018445,1843.2,6.0923e-05,0.65307,6.0836e-05,0.0062269,-0.00018444,-1842.9,1.2442
14965,15.729,5.5455,0,0.00018642,1862.9,6.1648e-05,0.017507,6.1298e-05,-2.6174,-0.00018646,-1864.2,1.2315
14966,15.729,5.6364,0.05,7.4473e-07,7.4422,5.7187e-07,4.2968,-4.1172e-13,4.1355e-06,-5.7186e-07,-4.2967,1.2312
14967,16.005,5.6364,0,0.00018002,1798.9,5.9534e-05,1.545,5.9331e-05,0.014686,-0.00017999,-1798.2,1.2702
14968,15.913,5.5455,0,0.00018199,1818.6,6.0137e-05,0.015302,5.9923e-05,-1.5925,-0.00018202,-1819.4,1.2574
14969,15.913,5.6364,0.05,7.4645e-07,7.4594,5.7318e-07,4.3067,-9.0646e-13,6.1662e-06,-5.7318e-07,-4.3067,1.2571
14970,16.189,5.6364,0,0.00017559,1754.7,5.8152e-05,2.5006,5.7821e-05,0.015041,-0.00017554,-1753.4,1.2963
14971,16.097,5.5455,0,0.00017756,1774.4,5.8622e-05,0.013374,5.8553e-05,-0.49964,-0.00017757,-1774.6,1.2835
14972,16.097,5.6364,0.05,7.4671e-07,7.462,5.7338e-07,4.3082,-4.4371e-13,6.2602e-06,-5.7338e-07,-4.3082,1.2832
14973,16.372,5.6364,0,0.00017116,1710.4,5.6774e-05,3.4957,5.6311e-05,0.013839,-0.0001711,-1708.7,1.3226
14974,16.281,5.5455,0,0.00017314,1730.2,5.7189e-05,0.6399,5.7105e-05,0.01122,-0.00017313,-1729.9,1.3097
14975,16.281,5.6364,0.05,7.4587e-07,7.4536,5.7274e-07,4.3033,-9.8362e-13,5.7893e-06,-5.7274e-07,-4.3033,1.3094
14976,16.556,5.6364,0,0.00016674,1666.3,5.5401e-05,4.5153,5.4801e-05,0.012123,-0.00016666,-1664,1.349
14977,16.464,5.5455,0,0.00016872,1686.1,5.5829e-05,1.808,5.559e-05,0.0094956,-0.00016869,-1685.2,1.336
14978,16.464,5.6364,0.05,7.442e-07,7.4369,5.7146e-07,4.2937,-4.4241e-13,5.4515e-06,-5.7146e-07,-4.2937,1.3358
14979,16.74,5.6364,0,0.00016233,1622.2,5.4032e-05,5.5481,5.3295e-05,0.010232,-0.00016224,-1619.4,1.3755
14980,16.648,5.5455,0,0.00016432,1642,5.4474e-05,2.9916,5.4077e-05,0.0078235,-0.00016427,-1640.5,1.3625
14981,16.648,5.6364,0.05,7.4191e-07,7.414,5.697e-07,4.2805,-9.2082e-13,5.5284e-06,-5.6969e-07,-4.2805,1.3622
14982,16.924,5.6364,0,0.00015794,1578.3,5.2669e-05,6.5856,5.1793e-05,0.0082926,-0.00015782,-1575,1.4021
14983,16.832,5.5455,0,0.00015992,1598.1,5.3124e-05,4.1804,5.2568e-05,0.0062536,-0.00015985,-1596,1.389
14984,16.832,5.6364,0.05,7.3917e-07,7.3866,5.6759e-07,4.2647,-1.2485e-14,5.8418e-06,-5.6759e-07,-4.2646,1.3888
14985,17.108,5.6364,0,0.00015356,1534.5,5.131e-05,7.6216,5.0296e-05,0.0063452,-0.00015343,-1530.7,1.4288
14986,17.016,5.5455,0,0.00015554,1554.4,5.1778e-05,5.3665,5.1064e-05,0.0047642,-0.00015545,-1551.7,1.4157
14987,17.016,5.6364,0.05,7.3612e-07,7.3561,5.6525e-07,4.2471,-4.6757e-13,6.2254e-06,-5.6525e-07,-4.247,1.4154
14988,17.291,5.6364,0,0.00014919,1490.9,4.9956e-05,8.6516,4.8805e-05,0.0044135,-0.00014904,-1486.6,1.4556
14989,17.2,5.5455,0,0.00015118,1510.8,5.0436e-05,6.5444,4.9565e-05,0.0033446,-0.00015107,-1507.5,1.4424
14990,17.2,5.6364,0.05,7.3287e-07,7.3236,5.6275e-07,4.2283,-3.5903e-14,6.511e-06,-5.6275e-07,-4.2283,1.4422
14991,17.475,5.6364,0,0.00014485,1447.5,4.8606e-05,9.6724,4.7319e-05,0.0024935,-0.00014468,-1442.6,1.4825
14992,17.383,5.5455,0,0.00014683,1467.3,4.9099e-05,7.7104,4.8073e-05,0.0019874,-0.0001467,-1463.5,1.4693
14993,17.383,5.6364,0.05,7.295e-07,7.29,5.6016e-07,4.2089,-1.3629e-12,6.9764e-06,-5.6016e-07,-4.2088,1.4691
14994,17.659,5.6364,0,0.00014052,1404.2,4.7262e-05,10.682,4.584e-05,0.00058678,-0.00014033,-1398.8,1.5096
14995,17.567,5.5455,0,0.0001425,1424.1,4.7766e-05,8.8622,4.6587e-05,0.00065146,-0.00014235,-1419.6,1.4963
14996,17.567,5.6364,0.05,7.2606e-07,7.2556,5.5753e-07,4.1891,-1.369e-12,8.844e-06,-5.5752e-07,-4.189,1.496
14997,17.843,5.6364,0,0.0001362,1361.1,4.5922e-05,11.68,4.4368e-05,-0.0012806,-0.000136,-1355.2,1.5367
14998,17.751,5.5455,0,0.00013819,1381,4.6438e-05,9.9987,4.5107e-05,-0.00064336,-0.00013802,-1375.9,1.5233
14999,17.751,5.6364,0.05,7.2261e-07,7.2211,5.5487e-07,4.1691,2.2974e-16,7.9432e-06,-5.5487e-07,-4.1691,1.5231
15000,18.027,5.6364,0,0.00013191,1318.2,4.4588e-05,12.666,4.2901e-05,-0.003106,-0.00013169,-1311.8,1.5639
15001,17.935,5.5455,0,0.0001339,1338.1,4.5115e-05,11.12,4.3634e-05,-0.001875,-0.00013371,-1332.5,1.5504
15002,17.935,5.6364,0.05,7.1917e-07,7.1867,5.5223e-07,4.1493,-4.5474e-13,7.9574e-06,-5.5223e-07,-4.1492,1.5502
15003,18.21,5.6364,0,0.00012764,1275.5,4.3258e-05,13.641,4.1442e-05,-0.0049059,-0.0001274,-1268.6,1.5911
15004,18.119,5.5455,0,0.00012962,1295.3,4.3796e-05,12.226,4.2168e-05,-0.0030706,-0.00012941,-1289.2,1.5777
15005,18.119,5.6364,0.05,7.1578e-07,7.1529,5.4963e-07,4.1297,-4.5675e-13,6.8703e-06,-5.4963e-07,-4.1297,1.5775
15006,18.394,5.6364,0,0.00012338,1232.9,4.1934e-05,14.605,3.9989e-05,-0.0066902,-0.00012312,-1225.6,1.6185
15007,18.302,5.5455,0,0.00012537,1252.8,4.2482e-05,13.32,4.0709e-05,-0.0042389,-0.00012513,-1246.1,1.605
15008,18.302,5.6364,0.05,7.1247e-07,7.1198,5.4709e-07,4.1106,2.1301e-16,5.9502e-06,-5.4709e-07,-4.1106,1.6048
15009,18.578,5.6364,0,0.00011914,1190.6,4.0615e-05,15.559,3.8543e-05,-0.0084797,-0.00011887,-1182.7,1.6459
15010,18.486,5.5455,0,0.00012113,1210.4,4.1173e-05,14.401,3.9256e-05,-0.0053891,-0.00012087,-1203.2,1.6324
15011,18.486,5.6364,0.05,7.0926e-07,7.0877,5.4462e-07,4.0921,8.8074e-15,6.512e-06,-5.4462e-07,-4.0921,1.6322
15012,18.762,5.6364,0,0.00011492,1148.4,3.9301e-05,16.506,3.7103e-05,-0.010286,-0.00011463,-1140.1,1.6735
15013,18.67,5.5455,0,0.00011691,1168.2,3.9869e-05,15.473,3.7809e-05,-0.0065539,-0.00011663,-1160.4,1.6599
15014,18.67,5.6364,0.05,7.0615e-07,7.0566,5.4224e-07,4.0742,-4.5253e-13,6.5573e-06,-5.4223e-07,-4.0741,1.6597
15015,18.946,5.6364,0,0.00011072,1106.4,3.7993e-05,17.447,3.5669e-05,-0.012095,-0.00011041,-1097.6,1.7011
15016,18.854,5.5455,0,0.0001127,1126.3,3.8571e-05,16.537,3.6369e-05,-0.0077167,-0.00011241,-1117.9,1.6874
15017,18.854,5.6364,0.05,7.0315e-07,7.0267,5.3993e-07,4.0569,2.3917e-15,5.1005e-06,-5.3993e-07,-4.0568,1.6873
15018,19.129,5.6364,0,0.00010654,1064.6,3.669e-05,18.383,3.4242e-05,-0.013916,-0.00010621,-1055.3,1.7288
15019,19.038,5.5455,0,0.00010852,1084.4,3.7279e-05,17.597,3.4936e-05,-0.0088626,-0.00010821,-1075.5,1.7151
15020,19.038,5.6364,0.05,7.0028e-07,6.9979,5.3773e-07,4.0403,-9.1996e-13,6.3948e-06,-5.3772e-07,-4.0402,1.7149
15021,19.313,5.6364,0,0.00010237,1023,3.5393e-05,19.317,3.282e-05,-0.015767,-0.00010203,-1013.2,1.7565
15022,19.221,5.5455,0,0.00010435,1042.8,3.5992e-05,18.654,3.3508e-05,-0.010015,-0.00010402,-1033.4,1.7428
15023,19.221,5.6364,0.05,6.9754e-07,6.9706,5.3562e-07,4.0245,-1.2741e-14,6.0239e-06,-5.3562e-07,-4.0244,1.7426
15024,19.497,5.6364,0,9.8226e-05,981.58,3.4102e-05,20.25,3.1405e-05,-0.017662,-9.7866e-05,-971.31,1.7843
15025,19.405,5.5455,0,0.00010021,1001.4,3.4711e-05,19.713,3.2086e-05,-0.011181,-9.9857e-05,-991.38,1.7706
15026,19.405,5.6364,0.05,6.9494e-07,6.9446,5.3363e-07,4.0095,-3.5884e-14,6.8618e-06,-5.3363e-07,-4.0095,1.7704
15027,19.681,5.6364,0,9.4097e-05,940.32,3.2817e-05,21.185,2.9995e-05,-0.019625,-9.3719e-05,-929.55,1.8122
15028,19.589,5.5455,0,9.6078e-05,960.11,3.3437e-05,20.774,3.067e-05,-0.012371,-9.5708e-05,-949.56,1.7984
15029,19.589,5.6364,0.05,6.925e-07,6.9202,5.3176e-07,3.9954,-4.8993e-13,8.879e-06,-5.3175e-07,-3.9954,1.7982
15030,19.865,5.6364,0,8.9985e-05,899.23,3.1538e-05,22.124,2.8591e-05,-0.02167,-8.9588e-05,-887.97,1.8401
15031,19.773,5.5455,0,9.1966e-05,919.03,3.2168e-05,21.842,2.9259e-05,-0.013612,-9.1575e-05,-907.92,1.8263
15032,19.773,5.6364,0.05,6.9021e-07,6.8974,5.3e-07,3.9822,-6.6489e-13,7.1537e-06,-5.3e-07,-3.9822,1.8262
15033,20.048,5.6364,0,8.589e-05,858.31,3.0265e-05,23.067,2.7192e-05,-0.023793,-8.5475e-05,-846.56,1.8682
15034,19.956,5.5455,0,8.7873e-05,878.12,3.0906e-05,22.92,2.7854e-05,-0.014891,-8.7461e-05,-866.44,1.8543
15035,19.956,5.6364,0.05,6.8808e-07,6.8761,5.2836e-07,3.9699,-7.2462e-13,7.3942e-06,-5.2836e-07,-3.9699,1.8541
15036,20.232,5.6364,0,8.1813e-05,817.56,2.8998e-05,24.018,2.5798e-05,-0.026008,-8.1378e-05,-805.3,1.8962
15037,20.14,5.5455,0,8.3797e-05,837.39,2.9651e-05,24.009,2.6454e-05,-0.0162,-8.3363e-05,-825.13,1.8823
15038,20.14,5.6364,0.05,6.8612e-07,6.8564,5.2685e-07,3.9586,-6.2021e-13,7.235e-06,-5.2685e-07,-3.9586,1.8822
15039,20.416,5.6364,0,7.7752e-05,776.98,2.7737e-05,24.977,2.4409e-05,-0.028336,-7.7297e-05,-764.21,1.9243
15040,20.324,5.5455,0,7.9738e-05,796.83,2.8403e-05,25.113,2.5058e-05,-0.017558,-7.9282e-05,-783.99,1.9104
15041,20.324,5.6364,0.05,6.8433e-07,6.8386,5.2548e-07,3.9483,6.7753e-15,7.9452e-06,-5.2548e-07,-3.9482,1.9102
15042,20.6,5.6364,0,7.3708e-05,736.57,2.6482e-05,25.947,2.3024e-05,-0.030798,-7.3232e-05,-723.27,1.9525
15043,20.508,5.5455,0,7.5697e-05,756.45,2.7162e-05,26.236,2.3668e-05,-0.018971,-7.5217e-05,-743,1.9385
15044,20.508,5.6364,0.05,6.8273e-07,6.8226,5.2425e-07,3.939,-3.1679e-14,6.7016e-06,-5.2425e-07,-3.939,1.9384
15045,20.784,5.6364,0,6.968e-05,696.32,2.5233e-05,26.928,2.1645e-05,-0.033419,-6.9183e-05,-682.48,1.9807
15046,20.692,5.5455,0,7.1673e-05,716.24,2.5928e-05,27.379,2.2281e-05,-0.02045,-7.1168e-05,-702.16,1.9667
15047,20.692,5.6364,0.05,6.8132e-07,6.8085,5.2317e-07,3.9309,-4.3412e-13,8.3666e-06,-5.2317e-07,-3.9309,1.9666
15048,20.967,5.6364,0,6.5668e-05,656.23,2.3991e-05,27.923,2.0269e-05,-0.036219,-6.5149e-05,-641.84,2.0089
15049,20.875,5.5455,0,6.7666e-05,676.2,2.4701e-05,28.547,2.0899e-05,-0.022011,-6.7136e-05,-661.48,1.9949
15050,20.875,5.6364,0.05,6.8011e-07,6.7964,5.2224e-07,3.9239,9.4479e-15,9.7092e-06,-5.2224e-07,-3.9239,1.9948
15051,21.151,5.6364,0,6.1672e-05,616.3,2.2754e-05,28.933,1.8898e-05,-0.039207,-6.1129e-05,-601.34,2.0372
15052,21.059,5.5455,0,6.3677e-05,636.33,2.3482e-05,29.742,1.9521e-05,-0.023646,-6.3119e-05,-620.95,2.0232
15053,21.059,5.6364,0.05,6.791e-07,6.7863,5.2147e-07,3.9181,-7.6793e-14,9.1564e-06,-5.2147e-07,-3.9181,2.0231
15054,21.335,5.6364,0,5.7692e-05,576.52,2.1525e-05,29.959,1.7532e-05,-0.042403,-5.7125e-05,-560.98,2.0656
15055,21.243,5.5455,0,5.9704e-05,596.63,2.2271e-05,30.969,1.8146e-05,-0.025345,-5.9118e-05,-580.56,2.0515
15056,21.243,5.6364,0.05,6.7831e-07,6.7784,5.2086e-07,3.9135,-1.1036e-13,7.1038e-06,-5.2086e-07,-3.9135,2.0514
15057,21.519,5.6364,0,5.3729e-05,536.92,2.0301e-05,31.005,1.6169e-05,-0.045834,-5.3135e-05,-520.76,2.094
15058,21.427,5.5455,0,5.575e-05,557.11,2.1069e-05,32.231,1.6776e-05,-0.027113,-5.5132e-05,-540.31,2.0799
15059,21.427,5.6364,0.05,6.7774e-07,6.7728,5.2042e-07,3.9103,-5.2797e-13,4.9578e-06,-5.2042e-07,-3.9102,2.0798
15060,21.703,5.6364,0,4.9782e-05,497.47,1.9085e-05,32.071,1.481e-05,-0.049525,-4.9159e-05,-480.68,2.1224
15061,21.611,5.5455,0,5.1814e-05,517.78,1.9875e-05,33.535,1.5408e-05,-0.028941,-5.1162e-05,-500.21,2.1083
15062,21.611,5.6364,0.05,6.7742e-07,6.7695,5.2017e-07,3.9084,-2.3557e-13,4.6647e-06,-5.2017e-07,-3.9084,2.1081
15063,21.886,5.6364,0,4.5852e-05,458.2,1.7875e-05,33.162,1.3454e-05,-0.053503,-4.5198e-05,-440.75,2.1508
15064,21.794,5.5455,0,4.7897e-05,478.64,1.8691e-05,34.887,1.4044e-05,-0.030814,-4.7208e-05,-460.25,2.1367
15065,21.794,5.6364,0.05,6.7734e-07,6.7688,5.2012e-07,3.908,-1.0256e-13,7.0191e-06,-5.2012e-07,-3.9079,2.1366
15066,22.07,5.6364,0,4.1941e-05,419.12,1.6673e-05,34.283,1.2103e-05,-0.05778,-4.1253e-05,-400.95,2.1793
15067,21.978,5.5455,0,4.4e-05,439.7,1.7517e-05,36.296,1.2682e-05,-0.032708,-4.3271e-05,-420.44,2.1651
15068,21.978,5.6364,0.05,6.7754e-07,6.7707,5.2026e-07,3.9091,3.8691e-13,4.3829e-06,-5.2026e-07,-3.9091,2.165
15069,22.254,5.6364,0,3.805e-05,380.24,1.548e-05,35.441,1.0755e-05,-0.062345,-3.7324e-05,-361.31,2.2078
15070,22.162,5.5455,0,4.0127e-05,400.99,1.6356e-05,37.773,1.1324e-05,-0.034544,-3.9351e-05,-380.78,2.1936
15071,22.162,5.6364,0.05,6.7802e-07,6.7755,5.2063e-07,3.9118,2.1038e-13,7.3772e-06,-5.2063e-07,-3.9118,2.1935
15072,22.438,5.6364,0,3.4183e-05,341.6,1.4297e-05,36.647,9.4106e-06,-0.067157,-3.3413e-05,-321.82,2.2363
15073,22.346,5.5455,0,3.628e-05,362.55,1.5208e-05,39.337,9.9678e-06,-0.03622,-3.5451e-05,-341.29,2.2221
15074,22.346,5.6364,0.05,6.7881e-07,6.7835,5.2125e-07,3.9164,4.5053e-13,9.6718e-06,-5.2125e-07,-3.9164,2.222
15075,22.622,5.6364,0,3.0345e-05,303.24,1.3127e-05,37.92,8.0703e-06,-0.07217,-2.9522e-05,-282.53,2.2648
15076,22.53,5.5455,0,3.2465e-05,324.42,1.4078e-05,41.013,8.6142e-06,-0.037515,-3.1572e-05,-301.98,2.2506
15077,22.53,5.6364,0.05,6.7998e-07,6.7952,5.2214e-07,3.9232,3.737e-13,8.9678e-06,-5.2214e-07,-3.9232,2.2506
15078,22.805,5.6364,0,2.6543e-05,265.25,1.1974e-05,39.291,6.7339e-06,-0.076956,-2.5656e-05,-243.44,2.2934
15079,22.713,5.5455,0,2.869e-05,286.7,1.297e-05,42.84,7.2627e-06,-0.038231,-2.772e-05,-262.89,2.2792
15080,22.713,5.6364,0.05,6.8161e-07,6.8114,5.2339e-07,3.9326,2.2043e-13,6.3402e-06,-5.2339e-07,-3.9326,2.2791
15081,22.989,5.6364,0,2.2793e-05,227.77,1.0845e-05,40.819,5.4013e-06,-0.081744,-2.1822e-05,-204.63,2.322
15082,22.897,5.5455,0,2.4969e-05,249.52,1.1891e-05,44.881,5.9128e-06,-0.037216,-2.3901e-05,-224.05,2.3078
15083,22.897,5.6364,0.05,6.8384e-07,6.8337,5.251e-07,3.9454,5.3332e-13,8.8402e-06,-5.251e-07,-3.9454,2.3077
15084,23.173,5.6364,0,1.9118e-05,191.05,9.7542e-06,42.609,4.0723e-06,-0.082491,-1.8033e-05,-166.18,2.3506
15085,23.081,5.5455,0,2.1325e-05,213.1,1.0855e-05,47.237,4.5634e-06,-0.035429,-2.0125e-05,-185.53,2.3363
15086,23.081,5.6364,0.05,6.8697e-07,6.865,5.2751e-07,3.9635,7.2964e-13,1.3202e-05,-5.2751e-07,-3.9635,2.3363
15087,23.357,5.6364,0,1.5569e-05,155.58,8.7279e-06,44.871,2.7442e-06,-0.087717,-1.4312e-05,-128.24,2.3792
15088,23.265,5.5455,0,1.78e-05,177.87,9.8829e-06,50.091,3.2133e-06,-0.022035,-1.641e-05,-147.46,2.3649
15089,23.265,5.6364,0.05,6.9163e-07,6.9116,5.3109e-07,3.9904,2.0892e-13,6.9583e-06,-5.3109e-07,-3.9904,2.3648
15090,23.541,5.6364,0,1.2252e-05,122.44,7.8222e-06,48.089,1.4157e-06,-0.046775,-1.0703e-05,-91.101,2.4078
15091,23.449,5.5455,0,1.4468e-05,144.58,9.0126e-06,53.75,1.8555e-06,-0.025342,-1.2783e-05,-110.02,2.3935
15092,23.449,5.6364,0.05,6.9964e-07,6.9916,5.3724e-07,4.0366,3.6814e-13,1.1903e-05,-5.3724e-07,-4.0366,2.3935
15093,23.724,5.6364,0,9.415e-06,94.085,7.1646e-06,53.277,5.313e-08,-0.1561,-7.2939e-06,-55.359,2.4364
15094,23.632,5.5455,0,1.1491e-05,114.84,8.3127e-06,58.861,4.9251e-07,0.10264,-9.2986e-06,-73.464,2.4222
15095,23.632,5.6364,0.05,7.1793e-07,7.1744,5.5128e-07,4.1421,6.6568e-13,1.2299e-05,-5.5128e-07,-4.1421,2.4221
15096,23.816,5.5455,0,9.1859e-06,91.796,7.9136e-06,66.378,-9.4e-07,-0.14402,-6.0249e-06,-38.35,2.4508
15097,23.816,5.6364,0.05,7.8269e-07,7.8215,6.0101e-07,4.5157,9.3165e-13,1.174e-05,-6.0101e-07,-4.5157,2.4507
15098,23.908,5.6364,0,7.2721e-06,72.671,6.6651e-06,59.587,-1.2429e-06,0.16937,-4.1185e-06,-21.437,2.465
15099,11.042,5.4545,0,0.0001208,1207.2,5.9423e-05,238.41,2.702e-05,-5.0543,-0.00011497,-1071.9,0.61788
15100,10.95,5.3636,0,0.0001398,1397.1,7.9043e-05,408.72,2.3815e-05,-6.25,-0.00012825,-1148.8,0.60718
15101,10.95,5.4545,0.05,7.5305e-06,75.254,5.7825e-06,43.448,-7.7831e-13,1.2418e-06,-5.7825e-06,-43.448,0.60664
15102,10.859,5.4545,0,9.7086e-05,970.19,5.1657e-05,244.85,1.9272e-05,1.5191,-9.0577e-05,-823.84,0.59547
15103,11.226,5.4545,0,0.00013452,1344.3,5.6747e-05,148.76,3.6578e-05,-2.7825,-0.00013139,-1264.9,0.64032
15104,11.134,5.3636,0,0.00014122,1411.2,6.6099e-05,238.3,3.4132e-05,-1.8877,-0.00013566,-1277.6,0.62957
15105,11.134,5.4545,0.05,5.9353e-06,59.313,4.5576e-06,34.244,1.8429e-13,5.6222e-07,-4.5576e-06,-34.244,0.62906
15106,11.41,5.4545,0,0.00015561,1555.1,6.1228e-05,118.21,4.5189e-05,-2.3023,-0.00015329,-1493.6,0.66282
15107,11.318,5.3636,0,0.00015764,1575.3,6.6025e-05,168.82,4.3213e-05,-2.5787,-0.00015411,-1485.2,0.65201
15108,11.318,5.4545,0.05,5.2984e-06,52.948,4.0685e-06,30.569,-2.1626e-13,3.5879e-06,-4.0685e-06,-30.569,0.65153
15109,11.594,5.4545,0,0.00017615,1760.3,6.6801e-05,103.83,5.2785e-05,-1.4788,-0.00017417,-1706.8,0.6854
15110,11.502,5.3636,0,0.0001764,1762.8,6.9318e-05,133.38,5.1328e-05,-1.7839,-0.00017377,-1693.1,0.67453
15111,11.502,5.4545,0.05,4.5401e-06,45.37,3.4863e-06,26.194,8.5305e-13,3.578e-06,-3.4863e-06,-26.194,0.67407
15112,11.778,5.4545,0,0.00019382,1936.8,7.1748e-05,93.303,5.9196e-05,-1.0085,-0.00019207,-1888.9,0.7081
15113,11.686,5.3636,0,0.00019361,1934.8,7.3166e-05,111.15,5.8192e-05,-1.3611,-0.0001915,-1877.4,0.69714
15114,11.686,5.4545,0.05,3.757e-06,37.544,2.8849e-06,21.676,2.3085e-13,4.8357e-06,-2.8849e-06,-21.676,0.69671
15115,11.961,5.4545,0,0.00020801,2078.7,7.5568e-05,82.945,6.4436e-05,-0.69776,-0.00020649,-2036.3,0.73091
15116,11.869,5.3636,0,0.00020791,2077.7,7.6471e-05,94.116,6.3812e-05,-0.99815,-0.00020617,-2029.5,0.71987
15117,11.869,5.4545,0.05,3.0156e-06,30.135,2.3156e-06,17.398,-4.9117e-22,7.7498e-06,-2.3156e-06,-17.398,0.71946
15118,12.145,5.4545,0,0.00021885,2187,7.8231e-05,71.991,6.8583e-05,-0.50583,-0.00021754,-2150.4,0.75386
15119,12.053,5.3636,0,0.00021905,2189,7.8899e-05,79.133,6.8266e-05,-0.75811,-0.0002176,-2148.7,0.74273
15120,12.053,5.4545,0.05,2.3532e-06,23.515,1.8069e-06,13.577,-3.8328e-22,5.7142e-06,-1.8069e-06,-13.577,0.74234
15121,12.329,5.4545,0,0.0002267,2265.5,7.9884e-05,60.711,7.1753e-05,-0.38002,-0.00022562,-2234.7,0.77695
15122,12.237,5.3636,0,0.00022723,2270.8,8.0445e-05,65.249,7.1682e-05,-0.58986,-0.00022606,-2237.7,0.76574
15123,12.237,5.4545,0.05,1.7832e-06,17.82,1.3693e-06,10.288,6.0482e-13,5.8686e-06,-1.3693e-06,-10.288,0.76536
15124,12.513,5.4545,0,0.00023203,2318.7,8.0716e-05,49.608,7.4074e-05,-0.29721,-0.00023115,-2293.6,0.80019
15125,12.421,5.3636,0,0.00023286,2327,8.1226e-05,52.322,7.4199e-05,-0.47622,-0.00023194,-2300.7,0.78889
15126,12.421,5.4545,0.05,1.3063e-06,13.054,1.0031e-06,7.5367,1.346e-12,1.092e-05,-1.0031e-06,-7.5367,0.78852
15127,12.697,5.4545,0,0.00023526,2351,8.0911e-05,39.13,7.5671e-05,-0.24298,-0.00023458,-2331.3,0.82359
15128,12.605,5.3636,0,0.00023636,2362,8.1391e-05,40.469,7.5951e-05,-0.40167,-0.00023565,-2341.7,0.8122
15129,12.605,5.4545,0.05,9.1772e-07,9.1709,7.047e-07,5.2948,8.6513e-13,8.9712e-06,-7.047e-07,-5.2948,0.81184
15130,12.88,5.4545,0,0.00023681,2366.4,8.0625e-05,29.594,7.6658e-05,-0.20989,-0.00023629,-2351.6,0.84714
15131,12.788,5.3636,0,0.00023811,2379.5,8.1083e-05,29.837,7.7064e-05,-0.35927,-0.00023759,-2364.6,0.83567
15132,12.788,5.4545,0.05,6.137e-07,6.1327,4.7124e-07,3.5407,1.6729e-12,2.0282e-05,-4.7124e-07,-3.5407,0.83532
15133,13.064,5.4545,0,0.00023699,2368.3,7.9985e-05,21.182,7.714e-05,-0.19501,-0.00023663,-2357.7,0.87085
15134,12.972,5.3636,0,0.00023846,2383,8.0422e-05,20.525,7.7644e-05,-0.34922,-0.00023811,-2372.8,0.85929
15135,12.972,5.4545,0.05,4.0003e-07,3.9975,3.0717e-07,2.308,3.3177e-12,5.825e-06,-3.0717e-07,-2.308,0.85895
15136,13.248,5.4545,0,0.0002361,2359.4,7.909e-05,13.973,7.7204e-05,-0.20114,-0.00023586,-2352.5,0.89472
15137,13.156,5.3636,0,0.00023769,2375.3,7.9509e-05,12.585,7.7783e-05,-0.38772,-0.00023748,-2369.2,0.88308
15138,13.156,5.4545,0.05,3.0221e-07,3.02,2.3206e-07,1.7436,-8.3345e-14,2.9935e-05,-2.3206e-07,-1.7436,0.88274
15139,13.432,5.4545,0,0.00023436,2342,7.8018e-05,7.9803,7.6924e-05,-0.24609,-0.00023423,-2338.1,0.91875
15140,13.34,5.3636,0,0.00023605,2358.9,7.8432e-05,6.0767,7.7549e-05,-0.55833,-0.00023596,-2356.1,0.90702
15141,13.34,5.4545,0.05,3.2387e-07,3.2365,2.487e-07,1.8686,1.8e-12,3.4775e-05,-2.4869e-07,-1.8686,0.90669
15142,13.616,5.4545,0,0.00023196,2318,7.684e-05,3.2514,7.635e-05,-0.43437,-0.00023191,-2316.6,0.94294
15143,13.524,5.3636,0,0.00023372,2335.6,7.7336e-05,1.5895,7.6922e-05,-1.5193,-0.00023372,-2335.6,0.93112
15144,13.524,5.4545,0.05,3.9951e-07,3.9923,3.0677e-07,2.305,5.3643e-13,-4.4073e-06,-3.0677e-07,-2.3049,0.9308
15145,13.799,5.4545,0,0.00022905,2288.9,7.572e-05,0.61881,7.5413e-05,-1.6885,-0.00022906,-2289.4,0.96728
15146,13.707,5.3636,0,0.00023086,2307,7.6444e-05,0.38075,7.5778e-05,-4.6252,-0.00023093,-2309.1,0.95539
15147,13.707,5.4545,0.05,4.8035e-07,4.8002,3.6885e-07,2.7714,-2.7843e-13,-2.2278e-06,-3.6885e-07,-2.7714,0.95507
15148,13.983,5.4545,0,0.00022573,2255.8,7.4717e-05,0.1878,7.413e-05,-4.2204,-0.0002258,-2257.8,0.99178
15149,13.891,5.3636,0,0.00022758,2274.3,7.5499e-05,0.17046,7.445e-05,-7.7101,-0.00022771,-2278,0.9798
15150,13.891,5.4545,0.05,5.515e-07,5.5112,4.2348e-07,3.1819,-2.9873e-13,-1.357e-06,-4.2348e-07,-3.1819,0.97949
15151,14.167,5.4545,0,0.00022212,2219.6,7.3618e-05,0.097594,7.2768e-05,-6.2822,-0.00022222,-2222.7,1.0164
15152,14.075,5.3636,0,0.000224,2238.4,7.4424e-05,0.099722,7.3075e-05,-10.036,-0.00022416,-2243.4,1.0044
15153,14.075,5.4545,0.05,6.1021e-07,6.0979,4.6857e-07,3.5207,-1.4343e-13,3.1308e-06,-4.6857e-07,-3.5206,1.0041
15154,14.351,5.4545,0,0.00021827,2181.2,7.2415e-05,0.062382,7.1382e-05,-7.6997,-0.0002184,-2185,1.0412
15155,14.259,5.3636,0,0.00022017,2200.2,7.3237e-05,0.066594,7.1682e-05,-11.621,-0.00022037,-2206,1.0291
15156,14.259,5.4545,0.05,6.5719e-07,6.5674,5.0464e-07,3.7917,-1.9299e-12,-5.8212e-07,-5.0464e-07,-3.7917,1.0288
15157,14.534,5.4545,0,0.00021425,2141,7.1128e-05,0.04435,6.9986e-05,-8.541,-0.00021439,-2145.2,1.0662
15158,14.443,5.3636,0,0.00021617,2160.2,7.196e-05,0.048167,7.0283e-05,-12.559,-0.00021638,-2166.4,1.054
15159,14.443,5.4545,0.05,6.9403e-07,6.9355,5.3293e-07,4.0042,-2.6937e-12,7.305e-07,-5.3293e-07,-4.0042,1.0537
15160,14.718,5.4545,0,0.0002101,2099.5,6.9775e-05,0.033621,6.8587e-05,-8.8933,-0.00021025,-2103.9,1.0913
15161,14.626,5.3636,0,0.00021203,2118.8,7.0613e-05,0.036776,6.8885e-05,-12.947,-0.00021225,-2125.3,1.079
15162,14.626,5.4545,0.05,7.2242e-07,7.2193,5.5473e-07,4.1681,-6.184e-14,1.9504e-06,-5.5473e-07,-4.168,1.0787
15163,14.902,5.4545,0,0.00020585,2057.1,6.8371e-05,0.026565,6.7191e-05,-8.8408,-0.000206,-2061.5,1.1165
15164,14.81,5.3636,0,0.0002078,2076.5,6.9212e-05,0.029165,6.7494e-05,-12.88,-0.00020801,-2082.9,1.1041
15165,14.81,5.4545,0.05,7.4394e-07,7.4343,5.7126e-07,4.2922,-1.8519e-12,8.5394e-07,-5.7125e-07,-4.2922,1.1038
15166,15.086,5.4545,0,0.00020154,2014,6.6929e-05,0.021585,6.58e-05,-8.4587,-0.00020168,-2018.2,1.1419
15167,14.994,5.3636,0,0.00020349,2033.5,6.777e-05,0.023777,6.6111e-05,-12.441,-0.0002037,-2039.7,1.1294
15168,14.994,5.4545,0.05,7.5991e-07,7.5939,5.8352e-07,4.3843,-1.2154e-13,1.7315e-06,-5.8352e-07,-4.3843,1.1291
15169,15.27,5.4545,0,0.00019718,1970.5,6.5458e-05,0.017858,6.4416e-05,-7.8132,-0.00019731,-1974.3,1.1674
15170,15.178,5.3636,0,0.00019914,1990,6.6297e-05,0.01979,6.4736e-05,-11.706,-0.00019934,-1995.8,1.1549
15171,15.178,5.4545,0.05,7.7146e-07,7.7092,5.9238e-07,4.451,-9.5111e-13,1.6459e-06,-5.9238e-07,-4.4509,1.1546
15172,15.453,5.4545,0,0.00019279,1926.6,6.3967e-05,0.014948,6.3038e-05,-6.9611,-0.00019291,-1930,1.193
15173,15.362,5.3636,0,0.00019476,1946.2,6.4802e-05,0.016698,6.3371e-05,-10.738,-0.00019494,-1951.5,1.1804
15174,15.362,5.4545,0.05,7.7948e-07,7.7894,5.9855e-07,4.4973,-3.0271e-14,2.5066e-06,-5.9854e-07,-4.4972,1.1802
15175,15.637,5.4545,0,0.00018838,1882.5,6.2461e-05,0.012645,6.1668e-05,-5.9503,-0.00018848,-1885.5,1.2188
15176,15.545,5.3636,0,0.00019035,1902.2,6.3292e-05,0.014266,6.2013e-05,-9.5904,-0.00019051,-1907,1.2061
15177,15.545,5.4545,0.05,7.8472e-07,7.8418,6.0257e-07,4.5275,-3.1449e-14,2.7678e-06,-6.0257e-07,-4.5274,1.2059
15178,15.821,5.4545,0,0.00018396,1838.3,6.0947e-05,0.010814,6.0304e-05,-4.8208,-0.00018404,-1840.7,1.2447
15179,15.729,5.3636,0,0.00018594,1858.1,6.1771e-05,0.01237,6.0664e-05,-8.3099,-0.00018608,-1862.2,1.232
15180,15.729,5.4545,0.05,7.8777e-07,7.8723,6.0491e-07,4.5451,2.4105e-14,2.1994e-06,-6.0491e-07,-4.5451,1.2317
15181,16.005,5.4545,0,0.00017954,1794.2,5.9427e-05,0.0093919,5.8946e-05,-3.6057,-0.0001796,-1795.9,1.2707
15182,15.913,5.3636,0,0.00018152,1813.9,6.0245e-05,0.010896,5.9321e-05,-6.9337,-0.00018164,-1817.4,1.2579
15183,15.913,5.4545,0.05,7.8914e-07,7.8859,6.0596e-07,4.553,-9.2831e-13,3.9001e-06,-6.0596e-07,-4.5529,1.2577
15184,16.189,5.4545,0,0.00017512,1750,5.7906e-05,0.0084776,5.7594e-05,-2.3319,-0.00017516,-1751.1,1.2969
15185,16.097,5.3636,0,0.0001771,1769.8,5.8717e-05,0.0098275,5.7984e-05,-5.4924,-0.0001772,-1772.5,1.284
15186,16.097,5.4545,0.05,7.892e-07,7.8865,6.0601e-07,4.5533,-9.3491e-13,4.2341e-06,-6.06e-07,-4.5532,1.2837
15187,16.372,5.4545,0,0.00017071,1705.9,5.6385e-05,0.009065,5.6247e-05,-1.022,-0.00017072,-1706.4,1.3231
15188,16.281,5.3636,0,0.00017269,1725.7,5.7188e-05,0.009264,5.6653e-05,-4.0106,-0.00017276,-1727.7,1.3102
15189,16.281,5.4545,0.05,7.8825e-07,7.8771,6.0528e-07,4.5479,-5.1042e-13,3.7891e-06,-6.0528e-07,-4.5478,1.3099
15190,16.556,5.4545,0,0.0001663,1661.9,5.4908e-05,0.32429,5.4864e-05,-0.0060195,-0.0001663,-1661.7,1.3495
15191,16.464,5.3636,0,0.00016829,1681.8,5.5662e-05,0.0096758,5.5326e-05,-2.5085,-0.00016834,-1683,1.3365
15192,16.464,5.4545,0.05,7.8655e-07,7.8601,6.0397e-07,4.538,-5.2375e-13,3.2473e-06,-6.0397e-07,-4.538,1.3363
15193,16.74,5.4545,0,0.00016191,1618,5.3569e-05,1.6557,5.3349e-05,0.0015411,-0.00016188,-1617.2,1.376
15194,16.648,5.3636,0,0.0001639,1637.9,5.4139e-05,0.014853,5.4004e-05,-1.0044,-0.00016392,-1638.4,1.3629
15195,16.648,5.4545,0.05,7.8426e-07,7.8372,6.0222e-07,4.5248,-1.388e-12,3.5679e-06,-6.0221e-07,-4.5248,1.3627
15196,16.924,5.4545,0,0.00015754,1574.3,5.2237e-05,2.9927,5.1838e-05,0.0015602,-0.00015748,-1572.8,1.4026
15197,16.832,5.3636,0,0.00015953,1594.2,5.269e-05,0.53129,5.2617e-05,-0.016175,-0.00015952,-1593.9,1.3895
15198,16.832,5.4545,0.05,7.8155e-07,7.8101,6.0013e-07,4.5092,-9.4863e-13,3.3267e-06,-6.0013e-07,-4.5092,1.3892
15199,17.108,5.4545,0,0.00015317,1530.7,5.0908e-05,4.3212,5.0333e-05,0.0010907,-0.0001531,-1528.5,1.4293
15200,17.016,5.3636,0,0.00015517,1550.6,5.1374e-05,2.0095,5.1106e-05,-0.0023809,-0.00015513,-1549.6,1.4161
15201,17.016,5.4545,0.05,7.7854e-07,7.78,5.9782e-07,4.4918,-2.1316e-14,4.1321e-06,-5.9782e-07,-4.4917,1.4159
15202,17.291,5.4545,0,0.00014883,1487.2,4.9584e-05,5.6358,4.8833e-05,0.00052393,-0.00014873,-1484.4,1.4561
15203,17.2,5.3636,0,0.00015082,1507.2,5.0063e-05,3.4819,4.9599e-05,-0.00089573,-0.00015076,-1505.5,1.4429
15204,17.2,5.4545,0.05,7.7531e-07,7.7478,5.9535e-07,4.4732,-4.6423e-13,4.6341e-06,-5.9534e-07,-4.4732,1.4426
15205,17.475,5.4545,0,0.0001445,1444,4.8263e-05,6.9336,4.734e-05,-7.252e-05,-0.00014438,-1440.5,1.483
15206,17.383,5.3636,0,0.0001465,1463.9,4.8755e-05,4.934,4.8099e-05,-0.00066797,-0.00014641,-1461.5,1.4697
15207,17.383,5.4545,0.05,7.7196e-07,7.7142,5.9277e-07,4.4538,-1.3709e-12,4.5386e-06,-5.9276e-07,-4.4538,1.4695
15208,17.659,5.4545,0,0.00014019,1400.9,4.6947e-05,8.213,4.5854e-05,-0.00067726,-0.00014004,-1396.8,1.51
15209,17.567,5.3636,0,0.00014218,1420.9,4.7452e-05,6.3632,4.6605e-05,-0.00082889,-0.00014207,-1417.7,1.4967
15210,17.567,5.4545,0.05,7.6851e-07,7.6798,5.9013e-07,4.434,-1.2574e-14,5.8409e-06,-5.9012e-07,-4.4339,1.4964
15211,17.843,5.4545,0,0.00013589,1358,4.5635e-05,9.4737,4.4374e-05,-0.001253,-0.00013573,-1353.2,1.5371
15212,17.751,5.3636,0,0.00013789,1377.9,4.6152e-05,7.7691,4.5118e-05,-0.0011267,-0.00013776,-1374,1.5237
15213,17.751,5.4545,0.05,7.6502e-07,7.6449,5.8745e-07,4.4138,-3.5488e-15,5.0387e-06,-5.8744e-07,-4.4138,1.5235
15214,18.027,5.4545,0,0.00013162,1315.2,4.4328e-05,10.717,4.2901e-05,-0.0017954,-0.00013143,-1309.9,1.5642
15215,17.935,5.3636,0,0.00013361,1335.2,4.4856e-05,9.1525,4.3638e-05,-0.0014582,-0.00013346,-1330.6,1.5508
15216,17.935,5.4545,0.05,7.6152e-07,7.61,5.8475e-07,4.3936,-4.5472e-13,5.8771e-06,-5.8475e-07,-4.3936,1.5506
15217,18.21,5.4545,0,0.00012736,1272.7,4.3025e-05,11.943,4.1435e-05,-0.0023164,-0.00012715,-1266.7,1.5915
15218,18.119,5.3636,0,0.00012936,1292.7,4.3565e-05,10.515,4.2165e-05,-0.0018092,-0.00012917,-1287.4,1.5781
15219,18.119,5.4545,0.05,7.5804e-07,7.5752,5.8208e-07,4.3735,-4.5593e-13,4.5696e-06,-5.8208e-07,-4.3735,1.5779
15220,18.394,5.4545,0,0.00012312,1230.3,4.1726e-05,13.155,3.9975e-05,-0.0028197,-0.00012289,-1223.7,1.6189
15221,18.302,5.3636,0,0.00012512,1250.3,4.2278e-05,11.86,4.0699e-05,-0.0021644,-0.00012491,-1244.3,1.6054
15222,18.302,5.4545,0.05,7.546e-07,7.5408,5.7944e-07,4.3537,-1.8187e-12,3.7123e-06,-5.7944e-07,-4.3537,1.6052
15223,18.578,5.4545,0,0.0001189,1188.1,4.0433e-05,14.354,3.8522e-05,-0.0033232,-0.00011865,-1180.9,1.6463
15224,18.486,5.3636,0,0.00012089,1208.1,4.0995e-05,13.189,3.9239e-05,-0.002521,-0.00012066,-1201.5,1.6328
15225,18.486,5.4545,0.05,7.5123e-07,7.5071,5.7685e-07,4.3342,-4.6061e-13,3.5867e-06,-5.7685e-07,-4.3342,1.6326
15226,18.762,5.4545,0,0.00011469,1146.1,3.9145e-05,15.545,3.7076e-05,-0.0038301,-0.00011442,-1138.3,1.6738
15227,18.67,5.3636,0,0.00011669,1166.1,3.9718e-05,14.506,3.7787e-05,-0.0028999,-0.00011644,-1158.8,1.6602
15228,18.67,5.4545,0.05,7.4792e-07,7.474,5.7431e-07,4.3152,-4.5309e-13,4.4807e-06,-5.7431e-07,-4.3151,1.66
15229,18.946,5.4545,0,0.00011051,1104.3,3.7863e-05,16.73,3.5636e-05,-0.0043206,-0.00011021,-1095.9,1.7014
15230,18.854,5.3636,0,0.0001125,1124.3,3.8446e-05,15.816,3.634e-05,-0.0032773,-0.00011223,-1116.3,1.6878
15231,18.854,5.4545,0.05,7.4469e-07,7.4417,5.7183e-07,4.2965,-8.9461e-13,3.0727e-06,-5.7182e-07,-4.2965,1.6876
15232,19.129,5.4545,0,0.00010634,1062.7,3.6586e-05,17.913,3.4202e-05,-0.0047939,-0.00010603,-1053.6,1.7291
15233,19.038,5.3636,0,0.00010834,1082.6,3.7179e-05,17.122,3.49e-05,-0.0036297,-0.00010804,-1074,1.7154
15234,19.038,5.4545,0.05,7.4153e-07,7.4102,5.6941e-07,4.2783,-9.1212e-13,3.662e-06,-5.6941e-07,-4.2783,1.7152
15235,19.313,5.4545,0,0.0001022,1021.2,3.5316e-05,19.096,3.2774e-05,-0.0052608,-0.00010186,-1011.6,1.7568
15236,19.221,5.3636,0,0.00010419,1041.2,3.5919e-05,18.428,3.3466e-05,-0.003973,-0.00010386,-1031.9,1.7431
15237,19.221,5.4545,0.05,7.3848e-07,7.3797,5.6706e-07,4.2607,-4.661e-13,3.2493e-06,-5.6706e-07,-4.2607,1.7429
15238,19.497,5.4545,0,9.8066e-05,979.98,3.4052e-05,20.284,3.1351e-05,-0.0057253,-9.7705e-05,-969.69,1.7846
15239,19.405,5.3636,0,0.00010006,999.92,3.4665e-05,19.74,3.2037e-05,-0.0043078,-9.9711e-05,-989.91,1.7709
15240,19.405,5.4545,0.05,7.3553e-07,7.3502,5.648e-07,4.2437,-3.3002e-14,4.3633e-06,-5.648e-07,-4.2436,1.7707
15241,19.681,5.4545,0,9.3955e-05,938.9,3.2794e-05,21.481,2.9934e-05,-0.0062003,-9.3571e-05,-927.98,1.8125
15242,19.589,5.3636,0,9.5951e-05,958.84,3.3418e-05,21.061,3.0614e-05,-0.0046357,-9.5575e-05,-948.14,1.7987
15243,19.589,5.4545,0.05,7.3269e-07,7.3219,5.6262e-07,4.2273,-9.4375e-13,6.1129e-06,-5.6262e-07,-4.2273,1.7985
15244,19.865,5.4545,0,8.9862e-05,898,3.1544e-05,22.69,2.8523e-05,-0.0066875,-8.9455e-05,-886.44,1.8404
15245,19.773,5.3636,0,9.1859e-05,917.95,3.2178e-05,22.397,2.9197e-05,-0.0049759,-9.1457e-05,-906.55,1.8266
15246,19.773,5.4545,0.05,7.2997e-07,7.2946,5.6052e-07,4.2116,-9.3355e-13,4.8628e-06,-5.6052e-07,-4.2115,1.8264
15247,20.048,5.4545,0,8.5787e-05,857.28,3.03e-05,23.916,2.7116e-05,-0.0071701,-8.5356e-05,-845.08,1.8684
15248,19.956,5.3636,0,8.7785e-05,877.25,3.0946e-05,23.753,2.7784e-05,-0.0053097,-8.7357e-05,-865.13,1.8546
15249,19.956,5.4545,0.05,7.2735e-07,7.2685,5.5852e-07,4.1965,-9.1993e-13,4.8142e-06,-5.5851e-07,-4.1964,1.8544
15250,20.232,5.4545,0,8.1731e-05,816.74,2.9064e-05,25.162,2.5715e-05,-0.0076438,-8.1274e-05,-803.88,1.8965
15251,20.14,5.3636,0,8.3731e-05,836.73,2.9722e-05,25.133,2.6376e-05,-0.005616,-8.3275e-05,-823.88,1.8826
15252,20.14,5.4545,0.05,7.2486e-07,7.2436,5.566e-07,4.1821,-6.8102e-13,4.5425e-06,-5.566e-07,-4.1821,1.8824
15253,20.416,5.4545,0,7.7692e-05,776.39,2.7836e-05,26.432,2.4317e-05,-0.008114,-7.7209e-05,-762.84,1.9246
15254,20.324,5.3636,0,7.9695e-05,796.4,2.8506e-05,26.543,2.4973e-05,-0.005903,-7.921e-05,-782.8,1.9107
15255,20.324,5.4545,0.05,7.225e-07,7.22,5.5479e-07,4.1685,-4.5291e-13,4.0671e-06,-5.5479e-07,-4.1684,1.9105
15256,20.6,5.4545,0,7.3672e-05,736.21,2.6616e-05,27.732,2.2924e-05,-0.0085797,-7.3161e-05,-721.96,1.9527
15257,20.508,5.3636,0,7.5677e-05,756.25,2.73e-05,27.989,2.3574e-05,-0.006169,-7.5163e-05,-741.87,1.9388
15258,20.508,5.4545,0.05,7.2027e-07,7.1977,5.5308e-07,4.1556,-4.7012e-13,3.5674e-06,-5.5308e-07,-4.1556,1.9386
15259,20.784,5.4545,0,6.967e-05,696.22,2.5405e-05,29.065,2.1536e-05,-0.0090427,-6.913e-05,-681.23,1.9809
15260,20.692,5.3636,0,7.1679e-05,716.3,2.6103e-05,29.477,2.2179e-05,-0.0064015,-7.1133e-05,-701.11,1.9669
15261,20.692,5.4545,0.05,7.1819e-07,7.1769,5.5148e-07,4.1436,-8.6854e-13,6.0635e-06,-5.5148e-07,-4.1436,1.9668
15262,20.967,5.4545,0,6.5686e-05,656.41,2.4203e-05,30.437,2.015e-05,-0.0094952,-6.5115e-05,-640.66,2.0092
15263,20.875,5.3636,0,6.7701e-05,676.54,2.4915e-05,31.013,2.0787e-05,-0.006609,-6.712e-05,-660.5,1.9952
15264,20.875,5.4545,0.05,7.1625e-07,7.1576,5.4999e-07,4.1324,-4.106e-13,6.3433e-06,-5.4999e-07,-4.1324,1.995
15265,21.151,5.4545,0,6.1721e-05,616.78,2.301e-05,31.854,1.8769e-05,-0.0099102,-6.1117e-05,-600.24,2.0375
15266,21.059,5.3636,0,6.3742e-05,636.98,2.3739e-05,32.605,1.9399e-05,-0.006762,-6.3125e-05,-620.05,2.0234
15267,21.059,5.4545,0.05,7.1447e-07,7.1397,5.4862e-07,4.1221,-4.5919e-13,5.7288e-06,-5.4862e-07,-4.1221,2.0233
15268,21.335,5.4545,0,5.7775e-05,577.35,2.1827e-05,33.322,1.739e-05,-0.010268,-5.7136e-05,-559.97,2.0658
15269,21.243,5.3636,0,5.9803e-05,597.62,2.2574e-05,34.26,1.8013e-05,-0.0068201,-5.9147e-05,-579.76,2.0517
15270,21.243,5.4545,0.05,7.1284e-07,7.1235,5.4737e-07,4.1128,-2.7283e-13,4.5768e-06,-5.4737e-07,-4.1127,2.0516
15271,21.519,5.4545,0,5.3848e-05,538.11,2.0654e-05,34.849,1.6015e-05,-0.010544,-5.3171e-05,-519.85,2.0942
15272,21.427,5.3636,0,5.5886e-05,558.47,2.1421e-05,35.99,1.663e-05,-0.0067681,-5.5187e-05,-539.61,2.0801
15273,21.427,5.4545,0.05,7.1139e-07,7.109,5.4626e-07,4.1044,-7.2778e-13,2.8541e-06,-5.4626e-07,-4.1044,2.08
15274,21.703,5.4545,0,4.9943e-05,499.09,1.9494e-05,36.446,1.4642e-05,-0.010696,-4.9223e-05,-479.87,2.1226
15275,21.611,5.3636,0,5.1991e-05,519.55,2.0282e-05,37.805,1.525e-05,-0.006555,-5.1245e-05,-499.62,2.1085
15276,21.611,5.4545,0.05,7.1012e-07,7.0963,5.4529e-07,4.0971,-5.8538e-13,3.526e-06,-5.4529e-07,-4.0971,2.1083
15277,21.886,5.4545,0,4.6061e-05,460.29,1.8347e-05,38.124,1.3272e-05,-0.010667,-4.5294e-05,-440.05,2.151
15278,21.794,5.3636,0,4.8121e-05,480.88,1.9158e-05,39.72,1.3871e-05,-0.006122,-4.7322e-05,-459.79,2.1369
15279,21.794,5.4545,0.05,7.0906e-07,7.0857,5.4447e-07,4.0909,-1.0326e-13,3.9753e-06,-5.4447e-07,-4.0909,2.1368
15280,22.07,5.4545,0,4.2204e-05,421.75,1.7215e-05,39.9,1.1903e-05,-0.010359,-4.1384e-05,-400.39,2.1795
15281,21.978,5.3636,0,4.4277e-05,442.47,1.8052e-05,41.753,1.2494e-05,-0.0053862,-4.3419e-05,-420.11,2.1653
15282,21.978,5.4545,0.05,7.0821e-07,7.0772,5.4382e-07,4.086,1.0564e-13,1.5797e-06,-5.4381e-07,-4.086,2.1652
15283,22.254,5.4545,0,3.8377e-05,383.5,1.6101e-05,41.796,1.0537e-05,-0.0096224,-3.7494e-05,-360.89,2.208
15284,22.162,5.3636,0,4.0465e-05,404.37,1.6965e-05,43.93,1.1118e-05,-0.0041957,-3.9538e-05,-380.61,2.1938
15285,22.162,5.4545,0.05,7.076e-07,7.0712,5.4335e-07,4.0825,2.9442e-13,4.9056e-06,-5.4335e-07,-4.0825,2.1937
15286,22.438,5.4545,0,3.4584e-05,345.6,1.5008e-05,43.844,9.1711e-06,-0.0082119,-3.3629e-05,-321.59,2.2365
15287,22.346,5.3636,0,3.6689e-05,366.63,1.5902e-05,46.282,9.7419e-06,-0.0023508,-3.5681e-05,-341.3,2.2223
15288,22.346,5.4545,0.05,7.073e-07,7.0681,5.4312e-07,4.0808,9.4924e-15,4.8329e-06,-5.4312e-07,-4.0808,2.2222
15289,22.622,5.4545,0,3.0835e-05,308.14,1.3941e-05,46.091,7.8063e-06,-0.0058129,-2.9791e-05,-282.5,2.265
15290,22.53,5.3636,0,3.2957e-05,329.35,1.4868e-05,48.857,8.3658e-06,0.00050389,-3.1853e-05,-302.19,2.2508
15291,22.53,5.4545,0.05,7.0736e-07,7.0687,5.4316e-07,4.0811,1.7371e-13,5.2195e-06,-5.4316e-07,-4.0811,2.2507
15292,22.805,5.4545,0,2.7144e-05,271.25,1.291e-05,48.606,6.4412e-06,-0.0015991,-2.5988e-05,-243.66,2.2936
15293,22.713,5.3636,0,2.9283e-05,292.63,1.3871e-05,51.718,6.9882e-06,0.0047244,-2.8058e-05,-263.32,2.2794
15294,22.713,5.4545,0.05,7.0792e-07,7.0743,5.4359e-07,4.0844,1.1877e-14,3.9079e-06,-5.4359e-07,-4.0843,2.2793
15295,22.989,5.4545,0,2.3532e-05,235.16,1.1927e-05,51.495,5.0743e-06,0.0046685,-2.2229e-05,-205.14,2.3221
15296,22.897,5.3636,0,2.5685e-05,256.68,1.2921e-05,54.961,5.6078e-06,0.011747,-2.4305e-05,-224.74,2.3079
15297,22.897,5.4545,0.05,7.092e-07,7.0871,5.4458e-07,4.0918,2.0728e-13,6.4358e-06,-5.4458e-07,-4.0918,2.3078
15298,23.173,5.4545,0,2.0037e-05,200.23,1.1012e-05,54.933,3.7035e-06,0.018441,-1.8529e-05,-167.03,2.3507
15299,23.081,5.3636,0,2.2195e-05,221.79,1.2035e-05,58.724,4.2221e-06,0.020759,-2.0604e-05,-186.52,2.3365
15300,23.081,5.4545,0.05,7.1163e-07,7.1114,5.4644e-07,4.1058,2.0137e-13,9.7381e-06,-5.4644e-07,-4.1058,2.3364
15301,23.357,5.4545,0,1.6723e-05,167.11,1.0197e-05,59.191,2.3232e-06,0.029751,-1.491e-05,-129.45,2.3793
15302,23.265,5.3636,0,1.8861e-05,188.48,1.1237e-05,63.222,2.8282e-06,0.043934,-1.6973e-05,-148.73,2.3651
15303,23.265,5.4545,0.05,7.1611e-07,7.1562,5.4988e-07,4.1316,1.4511e-13,5.3312e-06,-5.4988e-07,-4.1316,2.365
15304,23.541,5.4545,0,1.3702e-05,136.93,9.5295e-06,64.72,9.2967e-07,0.10385,-1.1403e-05,-92.557,2.4079
15305,23.449,5.3636,0,1.5767e-05,157.56,1.056e-05,68.746,1.417e-06,0.050814,-1.343e-05,-111.5,2.3937
15306,23.449,5.4545,0.05,7.2445e-07,7.2395,5.5629e-07,4.1798,3.882e-13,1.0414e-05,-5.5629e-07,-4.1797,2.3936
15307,23.724,5.4545,0,1.1175e-05,111.67,9.0806e-06,72.105,-5.0893e-07,0.052336,-8.0402e-06,-56.535,2.4365
15308,23.632,5.3636,0,1.3055e-05,130.46,1.0048e-05,75.765,-8.5494e-09,0.2065,-1.0002e-05,-74.881,2.4223
15309,23.632,5.4545,0.05,7.4124e-07,7.4073,5.6918e-07,4.2766,6.1073e-13,1.0867e-05,-5.6918e-07,-4.2766,2.4222
15310,23.816,5.3636,0,1.0961e-05,109.53,9.7613e-06,84.663,-1.5062e-06,0.0032078,-6.7028e-06,-39.041,2.4509
15311,23.816,5.4545,0.05,7.9216e-07,7.9161,6.0828e-07,4.5704,7.4965e-13,9.4712e-06,-6.0828e-07,-4.5704,2.4508
15312,23.908,5.4545,0,9.2856e-06,92.792,8.7149e-06,79.966,-1.8798e-06,0.36159,-4.8489e-06,-21.947,2.4652
15313,11.042,5.2727,0,0.00015546,1553.6,8.2274e-05,382.72,3.0805e-05,-3.9954,-0.00014537,-1327.7,0.61887
15314,10.95,5.1818,0,0.00018135,1812.3,0.0001073,594.53,2.7383e-05,-5.9473,-0.00016371,-1441.8,0.60821
15315,10.95,5.2727,0.05,8.5058e-06,85,6.5314e-06,49.075,-1.3854e-21,1.4197e-06,-6.5314e-06,-49.075,0.60766
15316,10.859,5.2727,0,0.00012889,1288,7.3027e-05,382.84,2.2274e-05,1.4943,-0.00011805,-1052.8,0.59652
15317,11.226,5.2727,0,0.00016169,1615.8,7.3255e-05,242.42,4.0723e-05,-2.0132,-0.00015621,-1481.7,0.64124
15318,11.134,5.1818,0,0.00017494,1748.2,8.734e-05,365.11,3.8583e-05,-1.2319,-0.00016584,-1537.2,0.63053
15319,11.134,5.2727,0.05,6.2838e-06,62.795,4.8252e-06,36.255,1.9943e-13,-7.6902e-15,-4.8252e-06,-36.255,0.63002
15320,11.41,5.2727,0,0.00017703,1769,7.2944e-05,175.2,4.9339e-05,-2.1611,-0.00017341,-1675.8,0.66369
15321,11.318,5.1818,0,0.00018487,1847.4,8.1569e-05,249.79,4.8007e-05,-2.3854,-0.00017936,-1710.8,0.6529
15322,11.318,5.2727,0.05,5.4835e-06,54.797,4.2106e-06,31.637,-8.9314e-22,2.653e-06,-4.2106e-06,-31.637,0.65243
15323,11.594,5.2727,0,0.00019309,1929.6,7.5028e-05,135.79,5.6734e-05,-1.6726,-0.00019044,-1858.9,0.68622
15324,11.502,5.1818,0,0.00019799,1978.5,8.0217e-05,179.46,5.6084e-05,-1.864,-0.00019434,-1883.5,0.67536
15325,11.502,5.2727,0.05,4.5966e-06,45.934,3.5296e-06,26.52,-7.4868e-22,1.1097e-05,-3.5296e-06,-26.52,0.67491
15326,11.778,5.2727,0,0.00020727,2071.3,7.7511e-05,109.12,6.2808e-05,-1.3458,-0.00020522,-2015.2,0.70887
15327,11.686,5.1818,0,0.0002106,2104.6,8.0627e-05,133.49,6.2642e-05,-1.6425,-0.00020804,-2035.4,0.69792
15328,11.686,5.2727,0.05,3.7291e-06,37.265,2.8635e-06,21.515,-6.0739e-22,6.6161e-06,-2.8635e-06,-21.515,0.69751
15329,11.961,5.2727,0,0.00021869,2185.4,7.9579e-05,88.627,6.7642e-05,-1.066,-0.00021706,-2140.2,0.73165
15330,11.869,5.1818,0,0.00022124,2210.9,8.1488e-05,101.38,6.7813e-05,-1.3717,-0.00021936,-2159.1,0.72061
15331,11.869,5.2727,0.05,2.9482e-06,29.462,2.2639e-06,17.01,3.405e-13,1.2781e-05,-2.2639e-06,-17.01,0.72022
15332,12.145,5.2727,0,0.00022727,2271.2,8.098e-05,71.396,7.1363e-05,-0.86347,-0.00022599,-2235,0.75457
15333,12.053,5.1818,0,0.00022945,2292.9,8.2196e-05,77.242,7.176e-05,-1.1723,-0.00022805,-2253.8,0.74343
15334,12.053,5.2727,0.05,2.2809e-06,22.793,1.7514e-06,13.16,7.5893e-13,9.8795e-06,-1.7514e-06,-13.16,0.74306
15335,12.329,5.2727,0,0.0002333,2331.4,8.1709e-05,56.278,7.4123e-05,-0.71875,-0.0002323,-2303.1,0.77763
15336,12.237,5.1818,0,0.0002353,2351.4,8.253e-05,58.031,7.4671e-05,-1.0239,-0.00023427,-2322.3,0.76641
15337,12.237,5.2727,0.05,1.7289e-06,17.277,1.3276e-06,9.9747,1.2517e-12,1.9523e-05,-1.3276e-06,-9.9747,0.76605
15338,12.513,5.2727,0,0.00023714,2369.7,8.1858e-05,42.86,7.607e-05,-0.62375,-0.00023639,-2348.3,0.80085
15339,12.421,5.1818,0,0.00023907,2389.1,8.2454e-05,42.173,7.6717e-05,-0.93523,-0.00023834,-2368.2,0.78954
15340,12.421,5.2727,0.05,1.2842e-06,12.833,9.8613e-07,7.4094,8.9506e-13,7.7367e-06,-9.8613e-07,-7.4094,0.7892
15341,12.697,5.2727,0,0.00023917,2390.1,8.1542e-05,31.019,7.7337e-05,-0.57405,-0.00023864,-2374.7,0.82423
15342,12.605,5.1818,0,0.00024109,2409.2,8.2012e-05,28.869,7.8048e-05,-0.91561,-0.0002406,-2395.1,0.81283
15343,12.605,5.2727,0.05,9.381e-07,9.3745,7.2034e-07,5.4124,5.1129e-13,7.2905e-06,-7.2035e-07,-5.4124,0.81249
15344,12.88,5.2727,0,0.00023975,2395.8,8.0874e-05,20.73,7.8039e-05,-0.57798,-0.0002394,-2385.7,0.84777
15345,12.788,5.1818,0,0.00024166,2415,8.1279e-05,17.73,7.8784e-05,-1.0099,-0.00024137,-2406.6,0.83628
15346,12.788,5.2727,0.05,6.8589e-07,6.8541,5.2668e-07,3.9572,3.8026e-12,6.8238e-06,-5.2668e-07,-3.9572,0.83595
15347,13.064,5.2727,0,0.00023915,2389.9,7.9957e-05,12.008,7.8268e-05,-0.68016,-0.00023896,-2384.2,0.87147
15348,12.972,5.1818,0,0.00024108,2409.1,8.0352e-05,8.6937,7.9007e-05,-1.4121,-0.00024095,-2405.5,0.85989
15349,12.972,5.2727,0.05,5.2908e-07,5.2871,4.0626e-07,3.0525,2.0329e-12,3.2087e-05,-4.0627e-07,-3.0525,0.85957
15350,13.248,5.2727,0,0.00023764,2374.8,7.8899e-05,5.0436,7.8078e-05,-1.1217,-0.00023757,-2372.8,0.89532
15351,13.156,5.1818,0,0.00023958,2394.1,7.9442e-05,2.6639,7.8661e-05,-3.2037,-0.00023959,-2394.4,0.88366
15352,13.156,5.2727,0.05,4.6632e-07,4.66,3.5808e-07,2.6904,-4.4957e-13,2.4953e-05,-3.5808e-07,-2.6904,0.88335
15353,13.432,5.2727,0,0.00023541,2352.5,7.7951e-05,1.1946,7.7347e-05,-3.3412,-0.00023545,-2353.5,0.91934
15354,13.34,5.1818,0,0.00023735,2371.9,7.8772e-05,0.78474,7.7646e-05,-7.6766,-0.00023747,-2375.3,0.90759
15355,13.34,5.2727,0.05,4.7488e-07,4.7456,3.6465e-07,2.7399,-2.3166e-13,1.6019e-05,-3.6465e-07,-2.7398,0.90729
15356,13.616,5.2727,0,0.00023262,2324.6,7.7162e-05,0.3899,7.6129e-05,-7.3696,-0.00023274,-2328.1,0.94352
15357,13.524,5.1818,0,0.00023457,2344.1,7.8044e-05,0.35241,7.6365e-05,-12.267,-0.00023477,-2350,0.93169
15358,13.524,5.2727,0.05,5.1838e-07,5.1802,3.9805e-07,2.9908,-1.179e-12,-4.1402e-06,-3.9805e-07,-2.9908,0.93139
15359,13.799,5.2727,0,0.0002294,2292.4,7.6257e-05,0.1939,7.4782e-05,-10.89,-0.00022958,-2297.8,0.96786
15360,13.707,5.1818,0,0.00023135,2311.9,7.7151e-05,0.19788,7.5003e-05,-15.944,-0.00023162,-2319.8,0.95594
15361,13.707,5.2727,0.05,5.7096e-07,5.7056,4.3843e-07,3.2942,-9.9078e-13,-3.4662e-06,-4.3842e-07,-3.2942,0.95564
15362,13.983,5.2727,0,0.00022585,2257,7.5211e-05,0.11688,7.3393e-05,-13.538,-0.00022608,-2263.6,0.99235
15363,13.891,5.1818,0,0.00022781,2276.5,7.6109e-05,0.12549,7.361e-05,-18.651,-0.00022812,-2285.7,0.98035
15364,13.891,5.2727,0.05,6.2079e-07,6.2037,4.7669e-07,3.5817,-1.128e-12,-4.3593e-06,-4.7669e-07,-3.5817,0.98006
15365,14.167,5.2727,0,0.00022206,2219,7.4045e-05,0.078525,7.199e-05,-15.361,-0.00022231,-2226.6,1.017
15366,14.075,5.1818,0,0.00022401,2238.6,7.4943e-05,0.086102,7.2206e-05,-20.474,-0.00022435,-2248.7,1.0049
15367,14.075,5.2727,0.05,6.6375e-07,6.6329,5.0968e-07,3.8295,-1.1032e-12,1.4694e-06,-5.0968e-07,-3.8295,1.0046
15368,14.351,5.2727,0,0.00021807,2179.2,7.2783e-05,0.056628,7.0585e-05,-16.46,-0.00021835,-2187.4,1.0418
15369,14.259,5.1818,0,0.00022003,2198.8,7.3679e-05,0.062455,7.0805e-05,-21.528,-0.00022039,-2209.4,1.0296
15370,14.259,5.2727,0.05,6.99e-07,6.9852,5.3675e-07,4.0329,-1.3969e-13,-1.5867e-06,-5.3674e-07,-4.0329,1.0293
15371,14.534,5.2727,0,0.00021395,2138.1,7.1446e-05,0.042964,6.9185e-05,-16.943,-0.00021424,-2146.5,1.0667
15372,14.443,5.1818,0,0.00021591,2157.6,7.2338e-05,0.047258,6.9413e-05,-21.927,-0.00021627,-2168.5,1.0545
15373,14.443,5.2727,0.05,7.2701e-07,7.2651,5.5826e-07,4.1945,-5.3821e-14,-1.1179e-06,-5.5825e-07,-4.1945,1.0542
15374,14.718,5.2727,0,0.00020973,2095.9,7.005e-05,0.033866,6.7795e-05,-16.911,-0.00021001,-2104.3,1.0918
15375,14.626,5.1818,0,0.00021169,2115.4,7.0937e-05,0.037001,6.8034e-05,-21.778,-0.00021205,-2126.2,1.0795
15376,14.626,5.2727,0.05,7.4871e-07,7.4819,5.7492e-07,4.3197,-7.3573e-14,2.6031e-06,-5.7492e-07,-4.3197,1.0792
15377,14.902,5.2727,0,0.00020544,2053,6.8611e-05,0.027483,6.6417e-05,-16.458,-0.00020571,-2061.1,1.117
15378,14.81,5.1818,0,0.0002074,2072.6,6.9491e-05,0.029774,6.6668e-05,-21.182,-0.00020775,-2083.1,1.1046
15379,14.81,5.2727,0.05,7.6511e-07,7.6458,5.8751e-07,4.4143,-2.762e-12,2.599e-07,-5.8751e-07,-4.4143,1.1044
15380,15.086,5.2727,0,0.00020109,2009.6,6.7138e-05,0.022816,6.505e-05,-15.667,-0.00020136,-2017.3,1.1424
15381,14.994,5.1818,0,0.00020306,2029.2,6.801e-05,0.024506,6.5315e-05,-20.226,-0.00020339,-2039.2,1.1299
15382,14.994,5.2727,0.05,7.7715e-07,7.7661,5.9675e-07,4.4838,-8.6459e-14,1.5217e-06,-5.9675e-07,-4.4837,1.1297
15383,15.27,5.2727,0,0.00019672,1965.8,6.5641e-05,0.019272,6.3694e-05,-14.608,-0.00019696,-1973.1,1.1679
15384,15.178,5.1818,0,0.00019868,1985.5,6.6505e-05,0.02056,6.3976e-05,-18.987,-0.000199,-1994.9,1.1554
15385,15.178,5.2727,0.05,7.8566e-07,7.8512,6.0329e-07,4.5329,-1.0182e-12,1.2456e-06,-6.0329e-07,-4.5329,1.1551
15386,15.453,5.2727,0,0.00019232,1921.9,6.4127e-05,0.016506,6.2348e-05,-13.345,-0.00019254,-1928.5,1.1935
15387,15.362,5.1818,0,0.00019429,1941.5,6.4983e-05,0.017502,6.2647e-05,-17.531,-0.00019458,-1950.2,1.1809
15388,15.362,5.2727,0.05,7.9134e-07,7.9079,6.0765e-07,4.5656,-1.9031e-12,1.5247e-06,-6.0765e-07,-4.5656,1.1807
15389,15.637,5.2727,0,0.00018791,1877.8,6.2601e-05,0.014341,6.1012e-05,-11.928,-0.00018811,-1883.7,1.2193
15390,15.545,5.1818,0,0.00018988,1897.5,6.3449e-05,0.015119,6.1329e-05,-15.915,-0.00019015,-1905.4,1.2066
15391,15.545,5.2727,0.05,7.9475e-07,7.9421,6.1027e-07,4.5854,-4.7969e-13,2.688e-06,-6.1027e-07,-4.5853,1.2064
15392,15.821,5.2727,0,0.0001835,1833.7,6.1069e-05,0.012658,5.9684e-05,-10.4,-0.00018367,-1838.9,1.2452
15393,15.729,5.1818,0,0.00018547,1853.5,6.1908e-05,0.013287,6.0019e-05,-14.183,-0.00018571,-1860.5,1.2324
15394,15.729,5.2727,0.05,7.964e-07,7.9585,6.1153e-07,4.5948,-9.1017e-13,1.8781e-06,-6.1153e-07,-4.5948,1.2322
15395,16.005,5.2727,0,0.00017909,1789.6,5.9534e-05,0.011375,5.8362e-05,-8.7974,-0.00017923,-1794,1.2712
15396,15.913,5.1818,0,0.00018107,1809.4,6.0364e-05,0.011883,5.8716e-05,-12.375,-0.00018127,-1815.6,1.2584
15397,15.913,5.2727,0.05,7.9666e-07,7.9611,6.1174e-07,4.5964,-4.966e-13,3.3994e-06,-6.1174e-07,-4.5963,1.2581
15398,16.189,5.2727,0,0.00017468,1745.6,5.7999e-05,0.010478,5.7046e-05,-7.1475,-0.0001748,-1749.1,1.2973
15399,16.097,5.1818,0,0.00017666,1765.4,5.882e-05,0.010851,5.7418e-05,-10.521,-0.00017684,-1770.6,1.2845
15400,16.097,5.2727,0.05,7.9587e-07,7.9532,6.1113e-07,4.5918,-1.4111e-12,3.3596e-06,-6.1112e-07,-4.5917,1.2842
15401,16.372,5.2727,0,0.00017028,1701.7,5.6465e-05,0.010035,5.5735e-05,-5.4733,-0.00017038,-1704.4,1.3236
15402,16.281,5.1818,0,0.00017227,1721.5,5.7277e-05,0.010183,5.6125e-05,-8.646,-0.00017241,-1725.8,1.3106
15403,16.281,5.2727,0.05,7.9426e-07,7.9371,6.0989e-07,4.5825,-9.7351e-13,3.7989e-06,-6.0989e-07,-4.5824,1.3104
15404,16.556,5.2727,0,0.0001659,1657.8,5.4935e-05,0.010382,5.4429e-05,-3.7924,-0.00016596,-1659.7,1.3499
15405,16.464,5.1818,0,0.00016789,1677.7,5.5738e-05,0.0099198,5.4836e-05,-6.7681,-0.000168,-1681.1,1.3369
15406,16.464,5.2727,0.05,7.9203e-07,7.9148,6.0818e-07,4.5696,-9.8634e-13,3.2153e-06,-6.0818e-07,-4.5696,1.3367
15407,16.74,5.2727,0,0.00016152,1614.1,5.3409e-05,0.013065,5.3125e-05,-2.1196,-0.00016156,-1615.2,1.3764
15408,16.648,5.1818,0,0.00016352,1634,5.4204e-05,0.010357,5.355e-05,-4.9021,-0.0001636,-1636.5,1.3634
15409,16.648,5.2727,0.05,7.8933e-07,7.8878,6.0611e-07,4.5541,-4.8344e-13,3.1457e-06,-6.0611e-07,-4.554,1.3631
15410,16.924,5.2727,0,0.00015717,1570.6,5.1892e-05,0.039597,5.1822e-05,-0.48565,-0.00015717,-1570.8,1.403
15411,16.832,5.1818,0,0.00015916,1590.5,5.2675e-05,0.012503,5.2267e-05,-3.0592,-0.00015921,-1592,1.3899
15412,16.832,5.2727,0.05,7.8629e-07,7.8575,6.0377e-07,4.5365,-9.2402e-13,2.762e-06,-6.0377e-07,-4.5365,1.3897
15413,17.108,5.2727,0,0.00015282,1527.2,5.0533e-05,1.2038,5.0371e-05,-0.011159,-0.0001528,-1526.6,1.4297
15414,17.016,5.1818,0,0.00015482,1547.1,5.1154e-05,0.02292,5.0984e-05,-1.253,-0.00015484,-1547.7,1.4165
15415,17.016,5.2727,0.05,7.8302e-07,7.8248,6.0127e-07,4.5177,-9.176e-13,3.9196e-06,-6.0126e-07,-4.5176,1.4163
15416,17.291,5.2727,0,0.0001485,1483.9,4.9238e-05,2.8091,4.8864e-05,-0.0035163,-0.00014845,-1482.5,1.4565
15417,17.2,5.1818,0,0.00015049,1503.9,4.9714e-05,0.59044,4.9631e-05,-0.036608,-0.00015048,-1503.6,1.4433
15418,17.2,5.2727,0.05,7.7959e-07,7.7906,5.9863e-07,4.4979,-1.8307e-12,4.4035e-06,-5.9863e-07,-4.4979,1.443
15419,17.475,5.2727,0,0.00014419,1440.9,4.7948e-05,4.3926,4.7363e-05,-0.0018903,-0.00014411,-1438.7,1.4834
15420,17.383,5.1818,0,0.00014618,1460.8,4.8434e-05,2.3101,4.8126e-05,-0.007139,-0.00014614,-1459.7,1.4701
15421,17.383,5.2727,0.05,7.7607e-07,7.7554,5.9593e-07,4.4776,-9.0808e-13,4.1471e-06,-5.9593e-07,-4.4776,1.4699
15422,17.659,5.2727,0,0.00013989,1398,4.6661e-05,5.9489,4.5869e-05,-0.0014296,-0.00013979,-1395,1.5104
15423,17.567,5.1818,0,0.00014189,1417.9,4.716e-05,4.0203,4.6625e-05,-0.0032655,-0.00014182,-1415.9,1.497
15424,17.567,5.2727,0.05,7.725e-07,7.7197,5.9319e-07,4.457,-6.5266e-15,4.9007e-06,-5.9318e-07,-4.4569,1.4968
15425,17.843,5.2727,0,0.00013562,1355.2,4.5378e-05,7.4783,4.4382e-05,-0.0013551,-0.00013549,-1351.5,1.5374
15426,17.751,5.1818,0,0.00013762,1375.2,4.5889e-05,5.6993,4.5131e-05,-0.0019675,-0.00013752,-1372.4,1.5241
15427,17.751,5.2727,0.05,7.689e-07,7.6837,5.9042e-07,4.4362,-4.4972e-13,4.5884e-06,-5.9042e-07,-4.4362,1.5239
15428,18.027,5.2727,0,0.00013136,1312.7,4.4098e-05,8.9826,4.2902e-05,-0.0014393,-0.0001312,-1308.2,1.5646
15429,17.935,5.1818,0,0.00013336,1332.7,4.4622e-05,7.3477,4.3644e-05,-0.0014092,-0.00013323,-1329,1.5512
15430,17.935,5.2727,0.05,7.6531e-07,7.6478,5.8766e-07,4.4155,-9.0944e-13,5.2156e-06,-5.8766e-07,-4.4155,1.551
15431,18.21,5.2727,0,0.00012712,1270.3,4.2822e-05,10.464,4.1429e-05,-0.0016018,-0.00012694,-1265,1.5919
15432,18.119,5.1818,0,0.00012912,1290.3,4.3358e-05,8.9683,4.2164e-05,-0.0011572,-0.00012896,-1285.8,1.5784
15433,18.119,5.2727,0.05,7.6176e-07,7.6124,5.8494e-07,4.395,7.3121e-18,4.2425e-06,-5.8494e-07,-4.395,1.5782
15434,18.394,5.2727,0,0.0001229,1228.1,4.1551e-05,11.927,3.9963e-05,-0.0018049,-0.00012269,-1222.1,1.6192
15435,18.302,5.1818,0,0.0001249,1248.1,4.2097e-05,10.565,4.0691e-05,-0.0010538,-0.00012471,-1242.8,1.6057
15436,18.302,5.2727,0.05,7.5826e-07,7.5774,5.8225e-07,4.3748,-4.5447e-13,3.2244e-06,-5.8225e-07,-4.3748,1.6055
15437,18.578,5.2727,0,0.00011869,1186.1,4.0284e-05,13.375,3.8504e-05,-0.0020413,-0.00011846,-1179.4,1.6467
15438,18.486,5.1818,0,0.00012069,1206.1,4.0841e-05,12.143,3.9225e-05,-0.0010277,-0.00012048,-1200,1.6331
15439,18.486,5.2727,0.05,7.5484e-07,7.5432,5.7962e-07,4.3551,5.6719e-16,3.0996e-06,-5.7962e-07,-4.355,1.6329
15440,18.762,5.2727,0,0.00011451,1144.3,3.9023e-05,14.813,3.7051e-05,-0.0023013,-0.00011425,-1136.8,1.6742
15441,18.67,5.1818,0,0.00011651,1164.3,3.959e-05,13.706,3.7766e-05,-0.0010683,-0.00011627,-1157.3,1.6606
15442,18.67,5.2727,0.05,7.5148e-07,7.5097,5.7705e-07,4.3357,-4.5752e-13,4.037e-06,-5.7705e-07,-4.3357,1.6604
15443,18.946,5.2727,0,0.00011034,1102.6,3.7767e-05,16.245,3.5604e-05,-0.0025555,-0.00011005,-1094.4,1.7017
15444,18.854,5.1818,0,0.00011234,1122.6,3.8345e-05,15.261,3.6313e-05,-0.0011331,-0.00011207,-1114.9,1.6881
15445,18.854,5.2727,0.05,7.4821e-07,7.477,5.7453e-07,4.3168,-1.3673e-12,2.7333e-06,-5.7453e-07,-4.3168,1.6879
15446,19.129,5.2727,0,0.00010619,1061.2,3.6517e-05,17.676,3.4164e-05,-0.0027959,-0.00010588,-1052.2,1.7294
15447,19.038,5.1818,0,0.00010819,1081.2,3.7105e-05,16.813,3.4867e-05,-0.0011859,-0.00010789,-1072.7,1.7157
15448,19.038,5.2727,0.05,7.4503e-07,7.4452,5.7209e-07,4.2985,-9.1894e-13,3.4906e-06,-5.7209e-07,-4.2984,1.7155
15449,19.313,5.2727,0,0.00010206,1019.9,3.5273e-05,19.112,3.2729e-05,-0.0030279,-0.00010172,-1010.2,1.7571
15450,19.221,5.1818,0,0.00010406,1039.9,3.5871e-05,18.369,3.3426e-05,-0.0012345,-0.00010374,-1030.6,1.7434
15451,19.221,5.2727,0.05,7.4195e-07,7.4144,5.6973e-07,4.2807,-9.4506e-13,2.5264e-06,-5.6972e-07,-4.2807,1.7432
15452,19.497,5.2727,0,9.7952e-05,978.85,3.4037e-05,20.558,3.13e-05,-0.0032496,-9.7587e-05,-968.41,1.7849
15453,19.405,5.1818,0,9.9951e-05,998.82,3.4645e-05,19.934,3.1991e-05,-0.0012724,-9.9597e-05,-988.7,1.7712
15454,19.405,5.2727,0.05,7.3898e-07,7.3847,5.6744e-07,4.2636,-1.8659e-12,3.4863e-06,-5.6744e-07,-4.2635,1.771
15455,19.681,5.2727,0,9.3861e-05,937.96,3.2808e-05,22.02,2.9877e-05,-0.003469,-9.3467e-05,-926.76,1.8128
15456,19.589,5.1818,0,9.586e-05,957.93,3.3426e-05,21.516,3.0562e-05,-0.0012967,-9.5475e-05,-947,1.799
15457,19.589,5.2727,0.05,7.3612e-07,7.3561,5.6525e-07,4.2471,-4.9933e-13,5.8538e-06,-5.6525e-07,-4.247,1.7988
15458,19.865,5.2727,0,8.9789e-05,897.27,3.1587e-05,23.505,2.8458e-05,-0.0036851,-8.9366e-05,-885.29,1.8407
15459,19.773,5.1818,0,9.1788e-05,917.24,3.2215e-05,23.12,2.9137e-05,-0.0013212,-9.1373e-05,-905.47,1.8269
15460,19.773,5.2727,0.05,7.3338e-07,7.3287,5.6314e-07,4.2313,-4.9169e-13,4.461e-06,-5.6314e-07,-4.2312,1.8267
15461,20.048,5.2727,0,8.5735e-05,856.76,3.0374e-05,25.017,2.7044e-05,-0.0038753,-8.5283e-05,-843.98,1.8687
15462,19.956,5.1818,0,8.7736e-05,876.75,3.1013e-05,24.756,2.7718e-05,-0.0013235,-8.7288e-05,-864.11,1.8548
15463,19.956,5.2727,0.05,7.3075e-07,7.3025,5.6113e-07,4.2161,-9.3401e-13,4.8065e-06,-5.6113e-07,-4.2161,1.8547
15464,20.232,5.2727,0,8.1702e-05,816.45,2.9171e-05,26.564,2.5635e-05,-0.0040316,-8.1217e-05,-802.85,1.8967
15465,20.14,5.1818,0,8.3704e-05,836.46,2.982e-05,26.429,2.6303e-05,-0.001277,-8.3223e-05,-822.93,1.8828
15466,20.14,5.2727,0.05,7.2825e-07,7.2775,5.5921e-07,4.2017,-9.2356e-13,3.5952e-06,-5.5921e-07,-4.2017,1.8827
15467,20.416,5.2727,0,7.7688e-05,776.34,2.7977e-05,28.152,2.4229e-05,-0.0041558,-7.717e-05,-761.88,1.9248
15468,20.324,5.1818,0,7.9692e-05,796.37,2.8638e-05,28.147,2.4892e-05,-0.0011877,-7.9175e-05,-781.92,1.9109
15469,20.324,5.2727,0.05,7.2589e-07,7.2539,5.574e-07,4.1881,-9.1809e-13,2.7083e-06,-5.5739e-07,-4.188,1.9108
15470,20.6,5.2727,0,7.3693e-05,736.42,2.6793e-05,29.789,2.2828e-05,-0.0042357,-7.3141e-05,-721.08,1.953
15471,20.508,5.1818,0,7.57e-05,756.48,2.7467e-05,29.92,2.3484e-05,-0.0010434,-7.5147e-05,-741.08,1.939
15472,20.508,5.2727,0.05,7.2367e-07,7.2318,5.5569e-07,4.1753,-6.9636e-13,3.2461e-06,-5.5569e-07,-4.1752,1.9389
15473,20.784,5.2727,0,6.9719e-05,696.71,2.5621e-05,31.482,2.143e-05,-0.0042669,-6.913e-05,-680.44,1.9812
15474,20.692,5.1818,0,7.173e-05,716.8,2.6307e-05,31.756,2.208e-05,-0.00083071,-7.1137e-05,-700.4,1.9672
15475,20.692,5.2727,0.05,7.2161e-07,7.2111,5.5411e-07,4.1633,-6.5452e-13,5.2788e-06,-5.541e-07,-4.1633,1.967
15476,20.967,5.2727,0,6.5766e-05,657.21,2.446e-05,33.241,2.0035e-05,-0.0042374,-6.5137e-05,-639.96,2.0094
15477,20.875,5.1818,0,6.7781e-05,677.34,2.516e-05,33.665,2.0679e-05,-0.00054976,-6.7146e-05,-659.88,1.9954
15478,20.875,5.2727,0.05,7.197e-07,7.192,5.5264e-07,4.1523,-4.3731e-13,5.7267e-06,-5.5264e-07,-4.1523,1.9953
15479,21.151,5.2727,0,6.1834e-05,617.92,2.3312e-05,35.076,1.8643e-05,-0.0041063,-6.1163e-05,-599.63,2.0377
15480,21.059,5.1818,0,6.3855e-05,638.11,2.4027e-05,35.658,1.9281e-05,-0.0001621,-6.3173e-05,-619.53,2.0236
15481,21.059,5.2727,0.05,7.1795e-07,7.1745,5.513e-07,4.1422,-5.2575e-13,4.8372e-06,-5.513e-07,-4.1422,2.0235
15482,21.335,5.2727,0,5.7925e-05,578.85,2.2178e-05,36.997,1.7253e-05,-0.0038405,-5.7207e-05,-559.47,2.066
15483,21.243,5.1818,0,5.9952e-05,599.11,2.2909e-05,37.747,1.7885e-05,0.00037928,-5.9221e-05,-579.34,2.0519
15484,21.243,5.2727,0.05,7.1638e-07,7.1589,5.5009e-07,4.1332,-7.7398e-13,3.8681e-06,-5.5009e-07,-4.1332,2.0518
15485,21.519,5.2727,0,5.404e-05,540.03,2.1059e-05,39.018,1.5865e-05,-0.0034019,-5.327e-05,-519.46,2.0944
15486,21.427,5.1818,0,5.6074e-05,560.36,2.1807e-05,39.948,1.6491e-05,0.0011063,-5.5288e-05,-539.31,2.0803
15487,21.427,5.2727,0.05,7.15e-07,7.1451,5.4903e-07,4.1252,-2.3664e-13,2.4627e-06,-5.4903e-07,-4.1252,2.0802
15488,21.703,5.2727,0,5.0181e-05,501.46,1.9957e-05,41.157,1.4479e-05,-0.0027274,-4.9354e-05,-479.61,2.1228
15489,21.611,5.1818,0,5.2224e-05,521.88,2.0724e-05,42.279,1.5097e-05,0.0020765,-5.1376e-05,-499.45,2.1086
15490,21.611,5.2727,0.05,7.1384e-07,7.1335,5.4814e-07,4.1185,-4.016e-13,3.5592e-06,-5.4814e-07,-4.1185,2.1085
15491,21.886,5.2727,0,4.635e-05,463.18,1.8874e-05,43.434,1.3093e-05,-0.0017385,-4.5458e-05,-439.93,2.1512
15492,21.794,5.1818,0,4.8403e-05,483.69,1.9661e-05,44.759,1.3705e-05,0.0033691,-4.7486e-05,-459.76,2.1371
15493,21.794,5.2727,0.05,7.1291e-07,7.1242,5.4742e-07,4.1131,-1.4595e-13,3.7894e-06,-5.4742e-07,-4.1131,2.137
15494,22.07,5.2727,0,4.2552e-05,425.23,1.7814e-05,45.875,1.1708e-05,-0.00030812,-4.1585e-05,-400.43,2.1796
15495,21.978,5.1818,0,4.4615e-05,445.84,1.8622e-05,47.416,1.2312e-05,0.0050852,-4.3619e-05,-420.24,2.1655
15496,21.978,5.2727,0.05,7.1224e-07,7.1175,5.4691e-07,4.1093,-1.8403e-13,7.7509e-07,-5.4691e-07,-4.1093,2.1654
15497,22.254,5.2727,0,3.8792e-05,387.65,1.678e-05,48.515,1.0323e-05,0.0017524,-3.7738e-05,-361.11,2.2081
15498,22.162,5.1818,0,4.0866e-05,408.38,1.761e-05,50.285,1.0919e-05,0.0073977,-3.9777e-05,-380.9,2.194
15499,22.162,5.2727,0.05,7.1188e-07,7.1139,5.4664e-07,4.1072,2.603e-13,3.3542e-06,-5.4664e-07,-4.1072,2.1939
15500,22.438,5.2727,0,3.5078e-05,350.54,1.5777e-05,51.402,8.9364e-06,0.0047309,-3.392e-05,-322,2.2366
15501,22.346,5.1818,0,3.7162e-05,371.37,1.663e-05,53.408,9.5235e-06,0.010536,-3.5964e-05,-341.77,2.2225
15502,22.346,5.2727,0.05,7.119e-07,7.1141,5.4665e-07,4.1073,1.3985e-13,3.8328e-06,-5.4665e-07,-4.1073,2.2224
15503,22.622,5.2727,0,3.1422e-05,314,1.4813e-05,54.598,7.5474e-06,0.0089895,-3.0135e-05,-283.12,2.2652
15504,22.53,5.1818,0,3.3515e-05,334.92,1.5689e-05,56.845,8.1254e-06,0.014883,-3.2184e-05,-302.86,2.251
15505,22.53,5.2727,0.05,7.124e-07,7.1191,5.4703e-07,4.1102,-8.4786e-14,4.1327e-06,-5.4703e-07,-4.1102,2.2509
15506,22.805,5.2727,0,2.7841e-05,278.22,1.3898e-05,58.194,6.1544e-06,0.015431,-2.6391e-05,-244.52,2.2937
15507,22.713,5.1818,0,2.9939e-05,299.19,1.4795e-05,60.672,6.723e-06,0.020828,-2.8442e-05,-264.19,2.2795
15508,22.713,5.2727,0.05,7.1355e-07,7.1306,5.4792e-07,4.1168,1.2302e-13,2.2463e-06,-5.4792e-07,-4.1168,2.2794
15509,22.989,5.2727,0,2.4362e-05,243.46,1.3045e-05,62.315,4.7551e-06,0.024313,-2.2696e-05,-206.24,2.3223
15510,22.897,5.1818,0,2.6457e-05,264.39,1.396e-05,64.995,5.314e-06,0.029864,-2.4745e-05,-225.82,2.3081
15511,22.897,5.2727,0.05,7.1563e-07,7.1514,5.4952e-07,4.1289,1.5224e-13,6.207e-06,-5.4952e-07,-4.1288,2.308
15512,23.173,5.2727,0,2.1027e-05,210.12,1.2276e-05,67.137,3.3461e-06,0.041236,-1.9064e-05,-168.34,2.3509
15513,23.081,5.1818,0,2.3102e-05,230.86,1.32e-05,69.952,3.8953e-06,0.041171,-2.1103e-05,-187.78,2.3366
15514,23.081,5.2727,0.05,7.1912e-07,7.1863,5.522e-07,4.149,2.0624e-13,9.2496e-06,-5.522e-07,-4.149,2.3366
15515,23.357,5.2727,0,1.7898e-05,178.85,1.1614e-05,72.889,1.921e-06,0.056931,-1.5507e-05,-130.89,2.3795
15516,23.265,5.1818,0,1.9925e-05,199.11,1.2533e-05,75.729,2.4633e-06,0.067199,-1.7525e-05,-150.12,2.3652
15517,23.265,5.2727,0.05,7.2486e-07,7.2436,5.566e-07,4.1821,-1.4253e-13,2.8784e-06,-5.566e-07,-4.1821,2.3651
15518,23.541,5.2727,0,1.5077e-05,150.66,1.109e-05,79.878,4.7658e-07,0.13666,-1.2038e-05,-93.896,2.4081
15519,23.449,5.1818,0,1.7002e-05,169.9,1.1983e-05,82.534,1.0092e-06,0.07801,-1.4022e-05,-112.86,2.3938
15520,23.449,5.2727,0.05,7.342e-07,7.3369,5.6377e-07,4.236,1.171e-13,1.1069e-05,-5.6377e-07,-4.236,2.3937
15521,23.724,5.2727,0,1.2727e-05,127.18,1.0737e-05,88.387,-1.0142e-06,0.094532,-8.6646e-06,-57.388,2.4367
15522,23.632,5.1818,0,1.4454e-05,144.44,1.1571e-05,90.657,-4.6229e-07,0.24082,-1.06e-05,-75.928,2.4224
15523,23.632,5.2727,0.05,7.503e-07,7.4978,5.7614e-07,4.3289,3.6497e-13,9.8576e-06,-5.7614e-07,-4.3289,2.4223
15524,23.816,5.1818,0,1.2475e-05,124.66,1.1327e-05,100.2,-2.0013e-06,0.054521,-7.256e-06,-39.427,2.451
15525,23.816,5.2727,0.05,7.9283e-07,7.9228,6.0879e-07,4.5742,3.706e-13,7.5315e-06,-6.0879e-07,-4.5742,2.451
15526,23.908,5.2727,0,1.0977e-05,109.69,1.0428e-05,97,-2.4316e-06,0.37419,-5.4403e-06,-22.232,2.4653
15527,11.042,5.0909,0,0.0001958,1956.7,0.00010879,550.02,3.5085e-05,-3.7517,-0.00018054,-1623.8,0.61986
15528,10.95,5,0,0.00022979,2296.3,0.00014025,811.2,3.1387e-05,-6.7362,-0.0002049,-1782.1,0.60926
15529,10.95,5.0909,0.05,9.9595e-06,99.526,7.6477e-06,57.462,9.2643e-14,-1.2188e-14,-7.6477e-06,-57.462,0.6087
15530,10.859,5.0909,0,0.00016482,1647.1,9.7444e-05,543.22,2.5377e-05,1.7395,-0.00014873,-1306.4,0.5976
15531,11.226,5.0909,0,0.00019484,1947,9.3089e-05,353.2,4.5847e-05,-1.7566,-0.00018641,-1746.9,0.64216
15532,11.134,5,0,0.00021503,2148.8,0.00011203,509.09,4.4148e-05,-0.94261,-0.00020179,-1848.8,0.63148
15533,11.134,5.0909,0.05,6.8972e-06,68.924,5.2962e-06,39.794,1.8311e-13,4.1185e-06,-5.2962e-06,-39.794,0.63097
15534,11.41,5.0909,0,0.00020386,2037.2,8.7236e-05,241.99,5.4742e-05,-2.1583,-0.00019868,-1906.2,0.66454
15535,11.318,5,0,0.00021785,2177,9.9668e-05,338.9,5.4228e-05,-2.5178,-0.00021011,-1988.7,0.65377
15536,11.318,5.0909,0.05,5.7805e-06,57.765,4.4387e-06,33.351,6.185e-13,5.1884e-06,-4.4387e-06,-33.351,0.65331
15537,11.594,5.0909,0,0.00021436,2142.1,8.4867e-05,170.04,6.199e-05,-1.8568,-0.00021098,-2052.8,0.68701
15538,11.502,5,0,0.00022422,2240.7,9.2708e-05,226.23,6.2331e-05,-2.0092,-0.00021953,-2119.8,0.67615
15539,11.502,5.0909,0.05,4.6698e-06,46.666,3.5858e-06,26.942,-7.6061e-22,4.4893e-06,-3.5858e-06,-26.942,0.67573
15540,11.778,5.0909,0,0.00022392,2237.7,8.4055e-05,121.61,6.7646e-05,-1.6796,-0.00022163,-2175.2,0.70961
15541,11.686,5,0,0.00023107,2309.1,8.8865e-05,151.3,6.8468e-05,-1.9517,-0.00022814,-2230.6,0.69866
15542,11.686,5.0909,0.05,3.6827e-06,36.801,2.8278e-06,21.247,3.9175e-13,2.0508e-05,-2.8278e-06,-21.247,0.69826
15543,11.961,5.0909,0,0.00023162,2314.6,8.3789e-05,87.617,7.1928e-05,-1.5037,-0.00023003,-2270.3,0.73234
15544,11.869,5,0,0.00023703,2368.7,8.6708e-05,101.16,7.3001e-05,-1.8308,-0.00023517,-2317.3,0.7213
15545,11.869,5.0909,0.05,2.8635e-06,28.615,2.1988e-06,16.521,1.393e-12,2.0484e-05,-2.1988e-06,-16.521,0.72093
15546,12.145,5.0909,0,0.00023726,2370.9,8.3568e-05,62.534,7.506e-05,-1.388,-0.00023615,-2339.7,0.75523
15547,12.053,5,0,0.00024155,2413.9,8.5347e-05,66.651,7.6235e-05,-1.8113,-0.00024038,-2380.7,0.74409
15548,12.053,5.0909,0.05,2.2082e-06,22.067,1.6956e-06,12.74,4.48e-13,1.8236e-05,-1.6956e-06,-12.74,0.74374
15549,12.329,5.0909,0,0.00024095,2407.8,8.318e-05,43.211,7.7251e-05,-1.3395,-0.00024021,-2386.6,0.77827
15550,12.237,5,0,0.00024453,2443.6,8.4293e-05,42.061,7.8442e-05,-1.9049,-0.00024381,-2423.2,0.76703
15551,12.237,5.0909,0.05,1.6945e-06,16.933,1.3012e-06,9.7765,9.059e-13,3.4039e-05,-1.3012e-06,-9.7765,0.7667
15552,12.513,5.0909,0,0.00024295,2427.8,8.2569e-05,27.888,7.8671e-05,-1.4008,-0.00024249,-2414.5,0.80146
15553,12.421,5,0,0.00024606,2458.9,8.3315e-05,24.041,7.9816e-05,-2.2494,-0.00024568,-2447.9,0.79013
15554,12.421,5.0909,0.05,1.3002e-06,12.993,9.9836e-07,7.5013,2.1031e-12,4.6485e-06,-9.9836e-07,-7.5013,0.78982
15555,12.697,5.0909,0,0.00024354,2433.7,8.176e-05,15.666,7.9449e-05,-1.7007,-0.0002433,-2426.7,0.82482
15556,12.605,5,0,0.00024633,2461.6,8.2375e-05,11.046,8.046e-05,-3.3467,-0.00024619,-2457.7,0.8134
15557,12.605,5.0909,0.05,1.0084e-06,10.077,7.7436e-07,5.8182,2.1957e-12,7.2083e-06,-7.7436e-07,-5.8182,0.81309
15558,12.88,5.0909,0,0.00024298,2428.1,8.0867e-05,6.524,7.9624e-05,-2.8156,-0.00024291,-2426.2,0.84834
15559,12.788,5,0,0.00024554,2453.7,8.1681e-05,3.6585,8.0264e-05,-6.986,-0.0002456,-2455.4,0.83683
15560,12.788,5.0909,0.05,8.0791e-07,8.0735,6.2037e-07,4.6612,3.1077e-13,3.2139e-05,-6.2037e-07,-4.6612,0.83654
15561,13.064,5.0909,0,0.0002415,2413.3,8.0182e-05,1.9416,7.9046e-05,-6.5968,-0.00024157,-2415.6,0.87203
15562,12.972,5,0,0.0002439,2437.4,8.126e-05,1.338,7.9306e-05,-13.349,-0.00024411,-2443.3,0.86043
15563,12.972,5.0909,0.05,6.884e-07,6.8792,5.286e-07,3.9717,3.3314e-12,2.8124e-05,-5.286e-07,-3.9717,0.86014
15564,13.248,5.0909,0,0.00023929,2391.2,7.9627e-05,0.7457,7.7914e-05,-12.125,-0.00023948,-2396.9,0.89588
15565,13.156,5,0,0.00024158,2414.1,8.0738e-05,0.64861,7.8062e-05,-19.452,-0.00024189,-2423.5,0.88419
15566,13.156,5.0909,0.05,6.3506e-07,6.3463,4.8765e-07,3.664,-9.9248e-13,-5.7764e-06,-4.8765e-07,-3.664,0.88391
15567,13.432,5.0909,0,0.00023651,2363.5,7.8924e-05,0.37947,7.6606e-05,-17.04,-0.00023679,-2371.8,0.91989
15568,13.34,5,0,0.00023872,2385.6,8.0014e-05,0.36963,7.6719e-05,-24.382,-0.00023912,-2397.5,0.90812
15569,13.34,5.0909,0.05,6.2701e-07,6.2658,4.8147e-07,3.6175,-1.3209e-12,-6.5681e-06,-4.8146e-07,-3.6175,0.90784
15570,13.616,5.0909,0,0.00023331,2331.4,7.8042e-05,0.22435,7.5232e-05,-20.892,-0.00023365,-2341.7,0.94405
15571,13.524,5,0,0.00023545,2352.9,7.9105e-05,0.23175,7.5334e-05,-28.099,-0.00023591,-2366.7,0.9322
15572,13.524,5.0909,0.05,6.4356e-07,6.4312,4.9417e-07,3.713,-6.0931e-13,7.7628e-06,-4.9417e-07,-3.713,0.93193
15573,13.799,5.0909,0,0.00022976,2296,7.7005e-05,0.14529,7.3831e-05,-23.701,-0.00023015,-2307.7,0.96838
15574,13.707,5,0,0.00023186,2317,7.8042e-05,0.15499,7.3934e-05,-30.711,-0.00023236,-2332.1,0.95644
15575,13.707,5.0909,0.05,6.7004e-07,6.6957,5.1451e-07,3.8658,-2.8723e-13,-5.8294e-06,-5.145e-07,-3.8658,0.95617
15576,13.983,5.0909,0,0.00022597,2258.1,7.5842e-05,0.10022,7.2425e-05,-25.57,-0.00022639,-2270.8,0.99286
15577,13.891,5,0,0.00022803,2278.7,7.6855e-05,0.10877,7.2534e-05,-32.351,-0.00022856,-2294.6,0.98085
15578,13.891,5.0909,0.05,6.9816e-07,6.9768,5.361e-07,4.028,-1.7065e-12,-5.2241e-06,-5.361e-07,-4.028,0.98058
15579,14.167,5.0909,0,0.00022199,2218.4,7.4577e-05,0.072469,7.1025e-05,-26.62,-0.00022243,-2231.5,1.0175
15580,14.075,5,0,0.00022402,2238.6,7.5569e-05,0.079322,7.1146e-05,-33.151,-0.00022456,-2255,1.0054
15581,14.075,5.0909,0.05,7.2398e-07,7.2348,5.5593e-07,4.177,-3.7668e-13,-4.1238e-06,-5.5592e-07,-4.177,1.0051
15582,14.351,5.0909,0,0.00021787,2177.2,7.3234e-05,0.054378,6.9637e-05,-26.972,-0.00021832,-2190.5,1.0423
15583,14.259,5,0,0.00021988,2197.3,7.4205e-05,0.059668,6.9773e-05,-33.24,-0.00022042,-2213.7,1.0301
15584,14.259,5.0909,0.05,7.4594e-07,7.4542,5.7279e-07,4.3037,-1.0651e-12,-2.9694e-06,-5.7278e-07,-4.3037,1.0298
15585,14.534,5.0909,0,0.00021365,2135,7.1829e-05,0.04208,6.8265e-05,-26.739,-0.00021409,-2148.3,1.0672
15586,14.443,5,0,0.00021564,2155,7.2782e-05,0.046095,6.8419e-05,-32.737,-0.00021618,-2171.1,1.055
15587,14.443,5.0909,0.05,7.6369e-07,7.6316,5.8642e-07,4.4061,-1.8916e-12,1.5728e-06,-5.8641e-07,-4.4061,1.0547
15588,14.718,5.0909,0,0.00020936,2092.2,7.0377e-05,0.03343,6.6909e-05,-26.027,-0.00020979,-2105,1.0923
15589,14.626,5,0,0.00021134,2112,7.1313e-05,0.036482,6.7083e-05,-31.747,-0.00021187,-2127.7,1.08
15590,14.626,5.0909,0.05,7.7746e-07,7.7692,5.97e-07,4.4856,-1.1145e-13,1.3014e-06,-5.9699e-07,-4.4856,1.0797
15591,14.902,5.0909,0,0.00020502,2048.8,6.8891e-05,0.027162,6.5569e-05,-24.928,-0.00020543,-2061.1,1.1175
15592,14.81,5,0,0.000207,2068.6,6.9811e-05,0.029494,6.5765e-05,-30.369,-0.0002075,-2083.6,1.1051
15593,14.81,5.0909,0.05,7.8773e-07,7.8719,6.0488e-07,4.5448,-1.8663e-12,1.1878e-06,-6.0488e-07,-4.5448,1.1049
15594,15.086,5.0909,0,0.00020065,2005.1,6.7378e-05,0.022511,6.4244e-05,-23.525,-0.00020104,-2016.8,1.1429
15595,14.994,5,0,0.00020262,2024.8,6.8284e-05,0.024314,6.4463e-05,-28.687,-0.0002031,-2039,1.1304
15596,14.994,5.0909,0.05,7.9502e-07,7.9447,6.1048e-07,4.5869,-2.7679e-12,1.0088e-06,-6.1048e-07,-4.5869,1.1301
15597,15.27,5.0909,0,0.00019626,1961.2,6.5848e-05,0.018975,6.2932e-05,-21.889,-0.00019662,-1972.1,1.1684
15598,15.178,5,0,0.00019823,1980.9,6.6739e-05,0.020407,6.3173e-05,-26.774,-0.00019867,-1994.2,1.1558
15599,15.178,5.0909,0.05,7.9984e-07,7.9929,6.1418e-07,4.6147,-1.8973e-12,2.7432e-07,-6.1418e-07,-4.6147,1.1556
15600,15.453,5.0909,0,0.00019186,1917.2,6.4306e-05,0.01624,6.1631e-05,-20.08,-0.00019219,-1927.2,1.194
15601,15.362,5,0,0.00019383,1936.9,6.5184e-05,0.017387,6.1895e-05,-24.692,-0.00019424,-1949.2,1.1814
15602,15.362,5.0909,0.05,8.0265e-07,8.021,6.1634e-07,4.6309,-1.8413e-12,1.1947e-06,-6.1633e-07,-4.6309,1.1811
15603,15.637,5.0909,0,0.00018745,1873.2,6.2756e-05,0.014136,6.0339e-05,-18.149,-0.00018775,-1882.2,1.2197
15604,15.545,5,0,0.00018942,1892.9,6.3622e-05,0.015052,6.0626e-05,-22.493,-0.0001898,-1904.1,1.2071
15605,15.545,5.0909,0.05,8.0383e-07,8.0328,6.1724e-07,4.6377,-9.5144e-13,1.8602e-06,-6.1724e-07,-4.6377,1.2068
15606,15.821,5.0909,0,0.00018304,1829.2,6.1203e-05,0.012534,5.9054e-05,-16.137,-0.00018331,-1837.2,1.2456
15607,15.729,5,0,0.00018502,1848.9,6.2057e-05,0.013281,5.9364e-05,-20.221,-0.00018536,-1859,1.2329
15608,15.729,5.0909,0.05,8.0373e-07,8.0317,6.1716e-07,4.6371,-4.5742e-13,4.4588e-07,-6.1716e-07,-4.6371,1.2326
15609,16.005,5.0909,0,0.00017865,1785.2,5.965e-05,0.011334,5.7775e-05,-14.077,-0.00017888,-1792.2,1.2716
15610,15.913,5,0,0.00018063,1805,6.0493e-05,0.011941,5.8107e-05,-17.909,-0.00018092,-1813.9,1.2588
15611,15.913,5.0909,0.05,8.0263e-07,8.0207,6.1632e-07,4.6308,-1.4052e-12,3.3003e-06,-6.1632e-07,-4.6307,1.2586
15612,16.189,5.0909,0,0.00017426,1741.4,5.8099e-05,0.010486,5.65e-05,-11.998,-0.00017446,-1747.3,1.2977
15613,16.097,5,0,0.00017624,1761.2,5.893e-05,0.010959,5.6854e-05,-15.587,-0.0001765,-1768.9,1.2849
15614,16.097,5.0909,0.05,8.0076e-07,8.002,6.1488e-07,4.62,-1.893e-12,3.0206e-06,-6.1488e-07,-4.62,1.2846
15615,16.372,5.0909,0,0.00016988,1697.6,5.6551e-05,0.0099671,5.5229e-05,-9.9179,-0.00017004,-1702.5,1.324
15616,16.281,5,0,0.00017186,1717.4,5.7372e-05,0.010295,5.5604e-05,-13.274,-0.00017208,-1724,1.311
15617,16.281,5.0909,0.05,7.9831e-07,7.9775,6.13e-07,4.6059,-1.4351e-12,3.1163e-06,-6.13e-07,-4.6058,1.3108
15618,16.556,5.0909,0,0.00016551,1654,5.5008e-05,0.0098417,5.3961e-05,-7.8543,-0.00016564,-1657.9,1.3503
15619,16.464,5,0,0.0001675,1673.8,5.5819e-05,0.0099188,5.4355e-05,-10.988,-0.00016768,-1679.3,1.3373
15620,16.464,5.0909,0.05,7.9542e-07,7.9487,6.1078e-07,4.5892,-1.4148e-12,2.9666e-06,-6.1078e-07,-4.5891,1.3371
15621,16.74,5.0909,0,0.00016116,1610.4,5.347e-05,0.010364,5.2695e-05,-5.8182,-0.00016125,-1613.3,1.3768
15622,16.648,5,0,0.00016315,1630.4,5.4272e-05,0.0099255,5.3108e-05,-8.7396,-0.00016329,-1634.7,1.3638
15623,16.648,5.0909,0.05,7.922e-07,7.9165,6.0831e-07,4.5706,-5.0996e-13,2.3954e-06,-6.0831e-07,-4.5706,1.3635
15624,16.924,5.0909,0,0.00015682,1567.1,5.194e-05,0.01228,5.143e-05,-3.8182,-0.00015688,-1569,1.4034
15625,16.832,5,0,0.00015881,1587,5.2732e-05,0.010553,5.1861e-05,-6.5365,-0.00015892,-1590.3,1.3903
15626,16.832,5.0909,0.05,7.8875e-07,7.882,6.0566e-07,4.5507,-1.3984e-12,2.0054e-06,-6.0566e-07,-4.5507,1.3901
15627,17.108,5.0909,0,0.00015249,1523.9,5.0417e-05,0.019445,5.0166e-05,-1.8627,-0.00015252,-1524.8,1.4301
15628,17.016,5,0,0.00015449,1543.8,5.12e-05,0.012424,5.0615e-05,-4.3842,-0.00015456,-1546,1.4169
15629,17.016,5.0909,0.05,7.8515e-07,7.8461,6.029e-07,4.53,-4.7194e-13,2.719e-06,-6.029e-07,-4.5299,1.4167
15630,17.291,5.0909,0,0.00014819,1480.8,4.8925e-05,0.2098,4.888e-05,-0.13205,-0.00014818,-1480.8,1.4569
15631,17.2,5,0,0.00015018,1500.8,4.9676e-05,0.018561,4.9369e-05,-2.2876,-0.00015022,-1501.9,1.4436
15632,17.2,5.0909,0.05,7.8147e-07,7.8093,6.0007e-07,4.5087,-1.2129e-14,3.5308e-06,-6.0007e-07,-4.5087,1.4434
15633,17.475,5.0909,0,0.00014389,1438,4.765e-05,1.9674,4.7387e-05,-0.010628,-0.00014386,-1437,1.4837
15634,17.383,5,0,0.00014589,1457.9,4.817e-05,0.10138,4.8114e-05,-0.31903,-0.0001459,-1458,1.4705
15635,17.383,5.0909,0.05,7.7774e-07,7.7721,5.9721e-07,4.4872,-9.0794e-13,3.2764e-06,-5.9721e-07,-4.4872,1.4703
15636,17.659,5.0909,0,0.00013962,1395.2,4.6392e-05,3.7994,4.5886e-05,-0.0040956,-0.00013956,-1393.3,1.5107
15637,17.567,5,0,0.00014162,1415.2,4.6886e-05,1.7974,4.6645e-05,-0.0132,-0.00014159,-1414.3,1.4974
15638,17.567,5.0909,0.05,7.7401e-07,7.7347,5.9434e-07,4.4657,-9.0464e-13,4.0623e-06,-5.9434e-07,-4.4656,1.4972
15639,17.843,5.0909,0,0.00013536,1352.7,4.5137e-05,5.598,4.4392e-05,-0.0020174,-0.00013527,-1349.9,1.5378
15640,17.751,5,0,0.00013736,1372.7,4.5643e-05,3.7443,4.5144e-05,-0.0043554,-0.0001373,-1370.8,1.5244
15641,17.751,5.0909,0.05,7.7028e-07,7.6975,5.9148e-07,4.4442,-9.0888e-13,3.487e-06,-5.9148e-07,-4.4441,1.5242
15642,18.027,5.0909,0,0.00013112,1310.3,4.3885e-05,7.3636,4.2905e-05,-0.0010558,-0.000131,-1306.6,1.565
15643,17.935,5,0,0.00013313,1330.3,4.4404e-05,5.6556,4.3651e-05,-0.0017065,-0.00013303,-1327.5,1.5515
15644,17.935,5.0909,0.05,7.6659e-07,7.6606,5.8864e-07,4.4229,-4.5467e-13,4.3599e-06,-5.8864e-07,-4.4228,1.5513
15645,18.21,5.0909,0,0.0001269,1268.1,4.2637e-05,9.1001,4.1426e-05,-0.00052912,-0.00012674,-1263.6,1.5922
15646,18.119,5,0,0.0001289,1288.1,4.3167e-05,7.5319,4.2164e-05,-0.00046537,-0.00012877,-1284.4,1.5787
15647,18.119,5.0909,0.05,7.6295e-07,7.6243,5.8585e-07,4.4019,-4.5475e-13,3.6955e-06,-5.8585e-07,-4.4019,1.5786
15648,18.394,5.0909,0,0.0001227,1226.1,4.1392e-05,10.813,3.9953e-05,-0.00020659,-0.00012251,-1220.7,1.6195
15649,18.302,5,0,0.0001247,1246.1,4.1933e-05,9.3782,4.0685e-05,0.00025274,-0.00012454,-1241.4,1.606
15650,18.302,5.0909,0.05,7.5939e-07,7.5887,5.8312e-07,4.3813,-4.5579e-13,2.5198e-06,-5.8311e-07,-4.3813,1.6058
15651,18.578,5.0909,0,0.00011851,1184.3,4.0152e-05,12.507,3.8488e-05,-1.5796e-06,-0.00011829,-1178,1.647
15652,18.486,5,0,0.00012051,1204.3,4.0704e-05,11.201,3.9213e-05,0.000729,-0.00012032,-1198.7,1.6334
15653,18.486,5.0909,0.05,7.5591e-07,7.5539,5.8045e-07,4.3613,-4.5672e-13,2.1359e-06,-5.8045e-07,-4.3612,1.6332
15654,18.762,5.0909,0,0.00011434,1142.6,3.8917e-05,14.189,3.7028e-05,0.00013332,-0.0001141,-1135.5,1.6745
15655,18.67,5,0,0.00011634,1162.6,3.9479e-05,13.006,3.7748e-05,0.0010582,-0.00011612,-1156.1,1.6608
15656,18.67,5.0909,0.05,7.5252e-07,7.52,5.7785e-07,4.3417,-1.3666e-12,3.3777e-06,-5.7784e-07,-4.3417,1.6607
15657,18.946,5.0909,0,0.0001102,1101.2,3.7687e-05,15.865,3.5576e-05,0.00024894,-0.00010992,-1093.2,1.702
15658,18.854,5,0,0.0001122,1121.2,3.8259e-05,14.802,3.6289e-05,0.0013197,-0.00011194,-1113.7,1.6884
15659,18.854,5.0909,0.05,7.4922e-07,7.4871,5.7531e-07,4.3227,-9.0736e-13,1.8199e-06,-5.7531e-07,-4.3226,1.6882
15660,19.129,5.0909,0,0.00010607,1059.9,3.6464e-05,17.543,3.4129e-05,0.00036621,-0.00010576,-1051,1.7297
15661,19.038,5,0,0.00010806,1079.9,3.7045e-05,16.597,3.4836e-05,0.0015699,-0.00010777,-1071.5,1.716
15662,19.038,5.0909,0.05,7.4602e-07,7.4551,5.7285e-07,4.3042,-9.1848e-13,2.7262e-06,-5.7285e-07,-4.3042,1.7158
15663,19.313,5.0909,0,0.00010195,1018.8,3.5247e-05,19.229,3.2688e-05,0.00048908,-0.00010161,-1009.1,1.7574
15664,19.221,5,0,0.00010395,1038.8,3.5838e-05,18.397,3.339e-05,0.0018149,-0.00010363,-1029.5,1.7437
15665,19.221,5.0909,0.05,7.4293e-07,7.4242,5.7048e-07,4.2864,-3.4228e-14,1.705e-06,-5.7048e-07,-4.2863,1.7435
15666,19.497,5.0909,0,9.7864e-05,977.96,3.4038e-05,20.931,3.1253e-05,0.00062493,-9.7491e-05,-967.33,1.7852
15667,19.405,5,0,9.9863e-05,997.94,3.4638e-05,20.212,3.1949e-05,0.0020665,-9.9503e-05,-987.68,1.7714
15668,19.405,5.0909,0.05,7.3995e-07,7.3944,5.6819e-07,4.2692,-9.4639e-13,2.9776e-06,-5.6819e-07,-4.2692,1.7713
15669,19.681,5.0909,0,9.3793e-05,937.28,3.2838e-05,22.657,2.9823e-05,0.00077079,-9.3387e-05,-925.74,1.813
15670,19.589,5,0,9.5791e-05,957.25,3.3447e-05,22.05,3.0513e-05,0.0023354,-9.5397e-05,-946.03,1.7992
15671,19.589,5.0909,0.05,7.371e-07,7.3659,5.66e-07,4.2527,-4.9517e-13,5.2602e-06,-5.66e-07,-4.2527,1.7991
15672,19.865,5.0909,0,8.9741e-05,896.79,3.1646e-05,24.415,2.8397e-05,0.0009339,-8.9301e-05,-884.34,1.841
15673,19.773,5,0,9.174e-05,916.77,3.2265e-05,23.92,2.9082e-05,0.0026098,-9.131e-05,-904.57,1.8271
15674,19.773,5.0909,0.05,7.3437e-07,7.3386,5.6391e-07,4.237,-4.7864e-13,4.2898e-06,-5.6391e-07,-4.2369,1.827
15675,20.048,5.0909,0,8.571e-05,856.51,3.0465e-05,26.213,2.6976e-05,0.0011401,-8.5234e-05,-843.11,1.8689
15676,19.956,5,0,8.771e-05,876.49,3.1093e-05,25.831,2.7656e-05,0.0029205,-8.7242e-05,-863.29,1.8551
15677,19.956,5.0909,0.05,7.3177e-07,7.3126,5.6191e-07,4.222,-9.3345e-13,3.8374e-06,-5.619e-07,-4.2219,1.8549
15678,20.232,5.0909,0,8.17e-05,816.44,2.9294e-05,28.059,2.5559e-05,0.0014018,-8.1187e-05,-802.05,1.897
15679,20.14,5,0,8.3701e-05,836.43,2.9932e-05,27.793,2.6233e-05,0.0032936,-8.3193e-05,-822.18,1.8831
15680,20.14,5.0909,0.05,7.293e-07,7.2879,5.6001e-07,4.2077,-9.2004e-13,2.7297e-06,-5.6001e-07,-4.2077,1.8829
15681,20.416,5.0909,0,7.7711e-05,776.58,2.8134e-05,29.965,2.4146e-05,0.001726,-7.7158e-05,-761.16,1.9251
15682,20.324,5,0,7.9713e-05,796.58,2.8783e-05,29.817,2.4815e-05,0.0037282,-7.9164e-05,-781.25,1.9111
15683,20.324,5.0909,0.05,7.2697e-07,7.2647,5.5823e-07,4.1943,-9.2787e-13,1.8854e-06,-5.5822e-07,-4.1943,1.911
15684,20.6,5.0909,0,7.3744e-05,736.93,2.6987e-05,31.938,2.2737e-05,0.0021257,-7.3149e-05,-720.44,1.9532
15685,20.508,5,0,7.5748e-05,756.96,2.7646e-05,31.912,2.34e-05,0.0042425,-7.5155e-05,-740.49,1.9392
15686,20.508,5.0909,0.05,7.248e-07,7.243,5.5656e-07,4.1818,-6.968e-13,2.4952e-06,-5.5656e-07,-4.1817,1.9391
15687,20.784,5.0909,0,6.98e-05,697.51,2.5854e-05,33.992,2.133e-05,0.0026088,-6.9159e-05,-679.9,1.9814
15688,20.692,5,0,7.1806e-05,717.56,2.6524e-05,34.092,2.1988e-05,0.0048498,-7.1165e-05,-699.91,1.9674
15689,20.692,5.0909,0.05,7.228e-07,7.223,5.5502e-07,4.1702,-6.7027e-13,4.5556e-06,-5.5502e-07,-4.1702,1.9673
15690,20.967,5.0909,0,6.5878e-05,658.33,2.4735e-05,36.137,1.9926e-05,0.0032007,-6.5189e-05,-639.51,2.0096
15691,20.875,5,0,6.7888e-05,678.41,2.5418e-05,36.369,2.0578e-05,0.0055559,-6.7196e-05,-659.49,1.9956
15692,20.875,5.0909,0.05,7.2096e-07,7.2046,5.5361e-07,4.1596,-9.2015e-13,4.5839e-06,-5.5361e-07,-4.1596,1.9955
15693,21.151,5.0909,0,6.1982e-05,619.39,2.3632e-05,38.388,1.8523e-05,0.0039446,-6.1239e-05,-599.3,2.0379
15694,21.059,5,0,6.3995e-05,639.51,2.4328e-05,38.758,1.917e-05,0.0064087,-6.3248e-05,-619.25,2.0238
15695,21.059,5.0909,0.05,7.1931e-07,7.1881,5.5234e-07,4.1501,-7.0647e-13,3.4332e-06,-5.5234e-07,-4.15,2.0237
15696,21.335,5.0909,0,5.8111e-05,580.71,2.2547e-05,40.761,1.7122e-05,0.0048846,-5.731e-05,-559.25,2.0662
15697,21.243,5,0,6.0129e-05,600.88,2.3256e-05,41.275,1.7764e-05,0.007454,-5.932e-05,-579.17,2.0521
15698,21.243,5.0909,0.05,7.1785e-07,7.1736,5.5122e-07,4.1417,-7.4601e-13,2.806e-06,-5.5122e-07,-4.1416,2.052
15699,21.519,5.0909,0,5.4268e-05,542.31,2.1481e-05,43.274,1.5723e-05,0.0060697,-5.3402e-05,-519.37,2.0945
15700,21.427,5,0,5.6292e-05,562.53,2.2205e-05,43.939,1.6358e-05,0.0087359,-5.5415e-05,-539.27,2.0805
15701,21.427,5.0909,0.05,7.1661e-07,7.1612,5.5027e-07,4.1345,-8.969e-13,2.8133e-06,-5.5027e-07,-4.1345,2.0803
15702,21.703,5.0909,0,5.0456e-05,504.21,2.0438e-05,45.949,1.4323e-05,0.0075704,-4.9517e-05,-479.66,2.1229
15703,21.611,5,0,5.2486e-05,524.49,2.1176e-05,46.772,1.4953e-05,0.010316,-5.1533e-05,-499.54,2.1088
15704,21.611,5.0909,0.05,7.1562e-07,7.1513,5.4951e-07,4.1288,-4.1534e-13,3.245e-06,-5.4951e-07,-4.1288,2.1087
15705,21.886,5.0909,0,4.6678e-05,466.46,1.9419e-05,48.814,1.2923e-05,0.0094842,-4.5656e-05,-440.13,2.1514
15706,21.794,5,0,4.8714e-05,486.8,2.0173e-05,49.802,1.3547e-05,0.012282,-4.7675e-05,-459.98,2.1372
15707,21.794,5.0909,0.05,7.149e-07,7.1441,5.4896e-07,4.1246,-5.8923e-13,2.8049e-06,-5.4895e-07,-4.1246,2.1371
15708,22.07,5.0909,0,4.294e-05,429.1,1.8429e-05,51.903,1.1522e-05,0.011952,-4.1821e-05,-400.78,2.1798
15709,21.978,5,0,4.4982e-05,449.51,1.9199e-05,53.059,1.2139e-05,0.014744,-4.3843e-05,-420.62,2.1657
15710,21.978,5.0909,0.05,7.1449e-07,7.14,5.4864e-07,4.1223,-1.7583e-13,7.1799e-07,-5.4864e-07,-4.1223,2.1656
15711,22.254,5.0909,0,3.9247e-05,392.2,1.7471e-05,55.259,1.0119e-05,0.015176,-3.8014e-05,-361.64,2.2083
15712,22.162,5,0,4.1295e-05,412.66,1.8258e-05,56.585,1.0729e-05,0.017887,-4.004e-05,-381.44,2.1941
15713,22.162,5.0909,0.05,7.1446e-07,7.1396,5.4862e-07,4.1221,-1.9477e-13,2.0118e-06,-5.4861e-07,-4.1221,2.194
15714,22.438,5.0909,0,3.5611e-05,355.86,1.6554e-05,58.935,8.7124e-06,0.019467,-3.424e-05,-322.71,2.2368
15715,22.346,5,0,3.7661e-05,376.35,1.7356e-05,60.428,9.3161e-06,0.021946,-3.6267e-05,-342.47,2.2226
15716,22.346,5.0909,0.05,7.1488e-07,7.1438,5.4894e-07,4.1245,-1.0797e-13,1.8285e-06,-5.4894e-07,-4.1245,2.2225
15717,22.622,5.0909,0,3.2043e-05,320.21,1.5683e-05,63.005,7.3008e-06,0.025207,-3.0502e-05,-284.01,2.2653
15718,22.53,5,0,3.4093e-05,340.69,1.6499e-05,64.652,7.8977e-06,0.027317,-3.253e-05,-303.73,2.2511
15719,22.53,5.0909,0.05,7.1588e-07,7.1539,5.4971e-07,4.1303,-2.8502e-14,3.1178e-06,-5.4971e-07,-4.1303,2.251
15720,22.805,5.0909,0,2.8563e-05,285.44,1.4869e-05,67.559,5.8822e-06,0.03332,-2.6807e-05,-245.58,2.2939
15721,22.713,5,0,3.0607e-05,305.86,1.5696e-05,69.334,6.4723e-06,0.0344,-2.8832e-05,-265.23,2.2796
15722,22.713,5.0909,0.05,7.1765e-07,7.1716,5.5107e-07,4.1405,1.2846e-13,6.7404e-07,-5.5107e-07,-4.1405,2.2796
15723,22.989,5.0909,0,2.52e-05,251.82,1.4126e-05,72.715,4.4538e-06,0.0441,-2.3162e-05,-207.45,2.3224
15724,22.897,5,0,2.7225e-05,272.06,1.4957e-05,74.573,5.0376e-06,0.044705,-2.5179e-05,-226.99,2.3082
15725,22.897,5.0909,0.05,7.2049e-07,7.1999,5.5325e-07,4.1569,1.1815e-13,4.1146e-06,-5.5325e-07,-4.1569,2.3081
15726,23.173,5.0909,0,2.1993e-05,219.78,1.3467e-05,78.621,3.012e-06,0.063262,-1.9574e-05,-169.64,2.351
15727,23.081,5,0,2.3982e-05,239.65,1.4295e-05,80.486,3.5902e-06,0.057448,-2.1576e-05,-189.03,2.3368
15728,23.081,5.0909,0.05,7.2483e-07,7.2433,5.5658e-07,4.182,2.0115e-13,9.7426e-06,-5.5658e-07,-4.1819,2.3367
15729,23.357,5.0909,0,1.9002e-05,189.89,1.2911e-05,85.44,1.5506e-06,0.081558,-1.6048e-05,-132.15,2.3796
15730,23.265,5,0,2.0924e-05,209.1,1.3723e-05,87.216,2.1268e-06,0.085301,-1.8029e-05,-151.36,2.3654
15731,23.265,5.0909,0.05,7.3136e-07,7.3086,5.616e-07,4.2196,-2.588e-13,4.2791e-06,-5.6159e-07,-4.2196,2.3653
15732,23.541,5.0909,0,1.6317e-05,163.06,1.2472e-05,93.361,6.8227e-08,0.16648,-1.2587e-05,-94.922,2.4082
15733,23.449,5,0,1.8123e-05,181.1,1.3255e-05,94.887,6.3897e-07,0.098199,-1.4538e-05,-113.94,2.394
15734,23.449,5.0909,0.05,7.41e-07,7.4048,5.6899e-07,4.2752,1.6979e-13,8.0214e-06,-5.6899e-07,-4.2752,2.3939
15735,23.724,5.0909,0,1.408e-05,140.7,1.2166e-05,102.5,-1.4582e-06,0.13493,-9.1872e-06,-57.938,2.4368
15736,23.632,5,0,1.5685e-05,156.74,1.2898e-05,103.68,-8.6558e-07,0.2674,-1.1104e-05,-76.659,2.4226
15737,23.632,5.0909,0.05,7.5573e-07,7.5521,5.8031e-07,4.3602,2.6153e-13,9.8734e-06,-5.8031e-07,-4.3602,2.4225
15738,23.816,5,0,1.3779e-05,137.69,1.2669e-05,113.56,-2.4322e-06,0.095832,-7.7182e-06,-39.621,2.4512
15739,23.816,5.0909,0.05,7.9214e-07,7.916,6.0827e-07,4.5703,4.0002e-13,6.3969e-06,-6.0827e-07,-4.5703,2.4511
15740,23.908,5.0909,0,1.242e-05,124.11,1.1888e-05,111.55,-2.9055e-06,0.39732,-5.9349e-06,-22.364,2.4654
15741,11.042,4.9091,0,0.00024342,2432.5,0.00013956,740.76,4.0393e-05,-4.359,-0.00022217,-1977.1,0.62087
15742,10.95,4.8182,0,0.00028862,2884.2,0.00017986,1069.8,3.6547e-05,-7.0509,-0.00025503,-2197.9,0.61032
15743,10.95,4.9091,0.05,1.2016e-05,120.08,9.227e-06,69.328,1.9471e-13,1.6334e-06,-9.227e-06,-69.328,0.60976
15744,10.859,4.9091,0,0.00020718,2070.4,0.00012636,733.89,2.8773e-05,0.62374,-0.0001847,-1603.3,0.59871
15745,11.226,4.9091,0,0.00023423,2340.7,0.0001157,472.93,5.252e-05,-1.7738,-0.00022257,-2068.7,0.64307
15746,11.134,4.8182,0,0.00026293,2627.5,0.00014029,665.32,5.1612e-05,-0.98585,-0.00024521,-2231.2,0.63243
15747,11.134,4.9091,0.05,7.818e-06,78.126,6.0033e-06,45.106,2.5795e-13,3.4621e-06,-6.0033e-06,-45.106,0.63193
15748,11.41,4.9091,0,0.00023582,2356.5,0.00010323,308.78,6.1814e-05,-2.3928,-0.00022906,-2187.9,0.66536
15749,11.318,4.8182,0,0.00025657,2564,0.00011934,423.78,6.2554e-05,-2.8771,-0.00024673,-2326.7,0.65462
15750,11.318,4.9091,0.05,6.1605e-06,61.563,4.7305e-06,35.543,7.9167e-13,6.9575e-06,-4.7305e-06,-35.543,0.65417
15751,11.594,4.9091,0,0.00023951,2393.4,9.5539e-05,198.73,6.8809e-05,-2.1089,-0.00023553,-2288.8,0.68776
15752,11.502,4.8182,0,0.00025457,2544,0.00010571,262.47,7.047e-05,-2.3319,-0.00024911,-2403.5,0.67692
15753,11.502,4.9091,0.05,4.7233e-06,47.201,3.6269e-06,27.251,7.7175e-13,5.8566e-06,-3.6269e-06,-27.251,0.67651
15754,11.778,4.9091,0,0.00024336,2431.9,9.0835e-05,125.72,7.3822e-05,-2.1106,-0.00024101,-2367.6,0.7103
15755,11.686,4.8182,0,0.0002544,2542.3,9.7062e-05,156.96,7.5856e-05,-2.3734,-0.0002514,-2461.2,0.69936
15756,11.686,4.9091,0.05,3.6065e-06,36.04,2.7694e-06,20.808,2.6945e-12,1.3101e-05,-2.7694e-06,-20.808,0.69898
15757,11.961,4.9091,0,0.0002465,2463.3,8.7879e-05,77.281,7.7302e-05,-2.1883,-0.00024512,-2424.8,0.73299
15758,11.869,4.8182,0,0.0002548,2546.3,9.163e-05,89.267,7.9407e-05,-2.569,-0.0002532,-2501.7,0.72194
15759,11.869,4.9091,0.05,2.7769e-06,27.75,2.1323e-06,16.022,3.6366e-12,1.8847e-05,-2.1323e-06,-16.022,0.7216
15760,12.145,4.9091,0,0.00024856,2483.9,8.5869e-05,44.651,7.9594e-05,-2.5,-0.00024781,-2462.5,0.75584
15761,12.053,4.8182,0,0.00025501,2548.3,8.8139e-05,45.929,8.1596e-05,-3.2376,-0.00025425,-2526.6,0.74469
15762,12.053,4.9091,0.05,2.1637e-06,21.622,1.6615e-06,12.484,1.287e-12,2.9867e-05,-1.6615e-06,-12.484,0.74437
15763,12.329,4.9091,0,0.00024949,2493.2,8.437e-05,22.457,8.0936e-05,-3.3512,-0.00024915,-2483.5,0.77885
15764,12.237,4.8182,0,0.00025467,2544.9,8.5875e-05,18.864,8.2662e-05,-5.2699,-0.00025443,-2538,0.7676
15765,12.237,4.9091,0.05,1.7094e-06,17.082,1.3126e-06,9.8622,1.4325e-12,1.316e-05,-1.3126e-06,-9.8622,0.76729
15766,12.513,4.9091,0,0.00024935,2491.8,8.3296e-05,8.5128,8.1357e-05,-6.0557,-0.00024931,-2490.5,0.80202
15767,12.421,4.8182,0,0.00025365,2534.7,8.4769e-05,5.7109,8.2426e-05,-11.892,-0.00025375,-2537.8,0.79068
15768,12.421,4.9091,0.05,1.3745e-06,13.736,1.0555e-06,7.9304,4.7865e-13,3.6621e-05,-1.0555e-06,-7.9304,0.79038
15769,12.697,4.9091,0,0.00024829,2481.2,8.2798e-05,2.8123,8.0733e-05,-12.708,-0.00024845,-2486.1,0.82536
15770,12.605,4.8182,0,0.00025196,2517.9,8.4418e-05,2.1291,8.1192e-05,-22.112,-0.0002523,-2527.8,0.81392
15771,12.605,4.9091,0.05,1.1337e-06,11.329,8.705e-07,6.5406,7.377e-12,1.3115e-06,-8.705e-07,-6.5406,0.81364
15772,12.88,4.9091,0,0.00024645,2462.8,8.244e-05,1.2249,7.9558e-05,-20.431,-0.00024677,-2472.3,0.84887
15773,12.788,4.8182,0,0.00024968,2495.1,8.4007e-05,1.0689,7.9756e-05,-30.87,-0.00025017,-2509.8,0.83734
15774,12.788,4.9091,0.05,9.6868e-07,9.6801,7.4383e-07,5.5888,-2.7545e-13,2.7806e-05,-7.4383e-07,-5.5888,0.83707
15775,13.064,4.9091,0,0.00024398,2438.1,8.1897e-05,0.65786,7.823e-05,-26.893,-0.00024442,-2451.1,0.87254
15776,12.972,4.8182,0,0.00024688,2467.1,8.3371e-05,0.62344,7.8304e-05,-37.446,-0.00024749,-2485.3,0.86092
15777,12.972,4.9091,0.05,8.6432e-07,8.6372,6.6369e-07,4.9867,-9.402e-13,2.2873e-05,-6.6369e-07,-4.9867,0.86066
15778,13.248,4.9091,0,0.00024101,2408.5,8.1141e-05,0.3962,7.6847e-05,-31.862,-0.00024153,-2424,0.89638
15779,13.156,4.8182,0,0.00024367,2435,8.2524e-05,0.39505,7.6859e-05,-42.167,-0.00024435,-2455.6,0.88467
15780,13.156,4.9091,0.05,8.0565e-07,8.0509,6.1863e-07,4.6482,1.6025e-12,-7.5494e-06,-6.1864e-07,-4.6482,0.88441
15781,13.432,4.9091,0,0.00023766,2374.9,8.0199e-05,0.25629,7.5443e-05,-35.478,-0.00023824,-2392.3,0.92038
15782,13.34,4.8182,0,0.00024013,2399.7,8.1503e-05,0.26412,7.5429e-05,-45.375,-0.00024087,-2421.9,0.90859
15783,13.34,4.9091,0.05,7.7835e-07,7.7782,5.9768e-07,4.4907,-6.9292e-13,2.7351e-05,-5.9768e-07,-4.4907,0.90833
15784,13.616,4.9091,0,0.000234,2338.4,7.9106e-05,0.1744,7.4036e-05,-37.919,-0.00023462,-2357.1,0.94454
15785,13.524,4.8182,0,0.00023634,2361.8,8.0341e-05,0.18366,7.4016e-05,-47.337,-0.00023711,-2385,0.93266
15786,13.524,4.9091,0.05,7.7038e-07,7.6985,5.9155e-07,4.4447,2.0773e-12,3.1753e-05,-5.9155e-07,-4.4447,0.93241
15787,13.799,4.9091,0,0.00023012,2299.7,7.7892e-05,0.12342,7.2639e-05,-39.347,-0.00023077,-2319,0.96886
15788,13.707,4.8182,0,0.00023236,2322,7.9068e-05,0.13176,7.2627e-05,-48.264,-0.00023314,-2345.7,0.9569
15789,13.707,4.9091,0.05,7.7288e-07,7.7235,5.9348e-07,4.4592,-1.679e-12,-6.0462e-06,-5.9348e-07,-4.4592,0.95665
15790,13.983,4.9091,0,0.00022608,2259.2,7.6582e-05,0.090198,7.1258e-05,-39.912,-0.00022673,-2278.9,0.99333
15791,13.891,4.8182,0,0.00022824,2280.8,7.7707e-05,0.097055,7.1263e-05,-48.327,-0.00022902,-2304.5,0.9813
15792,13.891,4.9091,0.05,7.8014e-07,7.796,5.9905e-07,4.5011,-8.4992e-13,7.7159e-07,-5.9905e-07,-4.501,0.98105
15793,14.167,4.9091,0,0.00022191,2217.6,7.5197e-05,0.067742,6.9897e-05,-39.75,-0.00022256,-2237.2,1.018
15794,14.075,4.8182,0,0.00022401,2238.6,7.6279e-05,0.07317,6.9924e-05,-47.674,-0.00022478,-2262,1.0058
15795,14.075,4.9091,0.05,7.8878e-07,7.8823,6.0568e-07,4.5509,-9.3597e-13,6.7473e-08,-6.0568e-07,-4.5508,1.0056
15796,14.351,4.9091,0,0.00021766,2175.1,7.3753e-05,0.052092,6.8558e-05,-38.983,-0.00021829,-2194.3,1.0427
15797,14.259,4.8182,0,0.00021972,2195.6,7.4799e-05,0.056289,6.8611e-05,-46.433,-0.00022047,-2218.5,1.0305
15798,14.259,4.9091,0.05,7.9696e-07,7.9641,6.1197e-07,4.5981,-1.0396e-12,-4.444e-06,-6.1197e-07,-4.5981,1.0303
15799,14.534,4.9091,0,0.00021334,2131.9,7.2267e-05,0.040941,6.724e-05,-37.723,-0.00021396,-2150.5,1.0677
15800,14.443,4.8182,0,0.00021537,2152.2,7.3279e-05,0.044132,6.7322e-05,-44.719,-0.00021609,-2174.2,1.0554
15801,14.443,4.9091,0.05,8.0383e-07,8.0327,6.1724e-07,4.6377,-8.7907e-13,-4.7632e-06,-6.1724e-07,-4.6377,1.0552
15802,14.718,4.9091,0,0.00020899,2088.4,7.0747e-05,0.03284,6.5942e-05,-36.069,-0.00020958,-2106.2,1.0927
15803,14.626,4.8182,0,0.00021099,2108.5,7.1731e-05,0.035263,6.6053e-05,-42.63,-0.00021168,-2129.4,1.0804
15804,14.626,4.9091,0.05,8.0905e-07,8.0849,6.2125e-07,4.6679,-1.0112e-12,1.3825e-06,-6.2125e-07,-4.6678,1.0802
15805,14.902,4.9091,0,0.0002046,2044.6,6.9204e-05,0.026847,6.4661e-05,-34.108,-0.00020516,-2061.5,1.1179
15806,14.81,4.8182,0,0.0002066,2064.5,7.0163e-05,0.028686,6.4802e-05,-40.255,-0.00020725,-2084.4,1.1055
15807,14.81,4.9091,0.05,8.1263e-07,8.1207,6.24e-07,4.6885,-1.1176e-12,-5.8619e-07,-6.24e-07,-4.6885,1.1053
15808,15.086,4.9091,0,0.00020021,2000.7,6.7645e-05,0.022349,6.3394e-05,-31.916,-0.00020073,-2016.4,1.1433
15809,14.994,4.8182,0,0.00020219,2020.5,6.8582e-05,0.02375,6.3566e-05,-37.668,-0.0002028,-2039.1,1.1308
15810,14.994,4.9091,0.05,8.1469e-07,8.1412,6.2558e-07,4.7004,-1.0213e-12,8.0558e-07,-6.2557e-07,-4.7003,1.1306
15811,15.27,4.9091,0,0.0001958,1956.7,6.6075e-05,0.018912,6.2139e-05,-29.556,-0.00019629,-1971.3,1.1688
15812,15.178,4.8182,0,0.00019778,1976.5,6.6993e-05,0.020008,6.2341e-05,-34.935,-0.00019835,-1993.7,1.1562
15813,15.178,4.9091,0.05,8.1542e-07,8.1485,6.2614e-07,4.7046,-1.8937e-12,-5.6473e-07,-6.2614e-07,-4.7045,1.156
15814,15.453,4.9091,0,0.0001914,1912.7,6.45e-05,0.016256,6.0893e-05,-27.085,-0.00019185,-1926.1,1.1944
15815,15.362,4.8182,0,0.00019338,1932.4,6.54e-05,0.017112,6.1124e-05,-32.109,-0.0001939,-1948.3,1.1818
15816,15.362,4.9091,0.05,8.1502e-07,8.1446,6.2584e-07,4.7023,-1.8005e-12,1.2896e-06,-6.2583e-07,-4.7023,1.1816
15817,15.637,4.9091,0,0.000187,1868.7,6.2923e-05,0.014225,5.9654e-05,-24.545,-0.00018741,-1880.9,1.2201
15818,15.545,4.8182,0,0.00018898,1888.5,6.3806e-05,0.014883,5.9913e-05,-29.234,-0.00018946,-1902.9,1.2074
15819,15.545,4.9091,0.05,8.137e-07,8.1314,6.2482e-07,4.6947,-8.6772e-13,1.8767e-06,-6.2482e-07,-4.6946,1.2072
15820,15.821,4.9091,0,0.00018261,1824.8,6.1346e-05,0.012689,5.842e-05,-21.973,-0.00018297,-1835.7,1.246
15821,15.729,4.8182,0,0.00018458,1844.6,6.2214e-05,0.013204,5.8706e-05,-26.345,-0.00018502,-1857.6,1.2333
15822,15.729,4.9091,0.05,8.1164e-07,8.1108,6.2324e-07,4.6828,-4.8018e-13,1.5703e-06,-6.2324e-07,-4.6827,1.233
15823,16.005,4.9091,0,0.00017822,1781,5.9773e-05,0.011543,5.7189e-05,-19.398,-0.00017854,-1790.6,1.272
15824,15.913,4.8182,0,0.0001802,1800.8,6.0627e-05,0.011944,5.7501e-05,-23.472,-0.00018059,-1812.4,1.2592
15825,15.913,4.9091,0.05,8.09e-07,8.0844,6.2121e-07,4.6675,-5.3119e-14,2.7254e-06,-6.2121e-07,-4.6675,1.259
15826,16.189,4.9091,0,0.00017385,1737.3,5.8203e-05,0.010723,5.596e-05,-16.843,-0.00017413,-1745.6,1.2981
15827,16.097,4.8182,0,0.00017583,1757.1,5.9045e-05,0.011025,5.6297e-05,-20.636,-0.00017617,-1767.3,1.2852
15828,16.097,4.9091,0.05,8.0592e-07,8.0537,6.1885e-07,4.6498,-1.405e-12,3.1036e-06,-6.1885e-07,-4.6498,1.285
15829,16.372,4.9091,0,0.00016949,1693.7,5.664e-05,0.010182,5.4732e-05,-14.323,-0.00016973,-1700.8,1.3244
15830,16.281,4.8182,0,0.00017147,1713.6,5.747e-05,0.010395,5.5092e-05,-17.852,-0.00017177,-1722.4,1.3114
15831,16.281,4.9091,0.05,8.0253e-07,8.0197,6.1624e-07,4.6302,-5.3832e-13,3.3477e-06,-6.1624e-07,-4.6302,1.3112
15832,16.556,4.9091,0,0.00016514,1650.3,5.5083e-05,0.0099229,5.3505e-05,-11.851,-0.00016534,-1656.2,1.3507
15833,16.464,4.8182,0,0.00016713,1670.2,5.5902e-05,0.0099969,5.3886e-05,-15.132,-0.00016738,-1677.7,1.3377
15834,16.464,4.9091,0.05,7.9889e-07,7.9834,6.1345e-07,4.6092,-1.4366e-12,2.8503e-06,-6.1345e-07,-4.6092,1.3375
15835,16.74,4.9091,0,0.00016081,1607,5.3534e-05,0.010043,5.2277e-05,-9.4346,-0.00016097,-1611.7,1.3772
15836,16.648,4.8182,0,0.0001628,1626.9,5.4342e-05,0.0098755,5.2679e-05,-12.483,-0.00016301,-1633.1,1.3641
15837,16.648,4.9091,0.05,7.9508e-07,7.9454,6.1053e-07,4.5873,-1.864e-12,3.0349e-06,-6.1053e-07,-4.5872,1.3639
15838,16.924,4.9091,0,0.00015649,1563.8,5.1992e-05,0.010738,5.1049e-05,-7.0787,-0.00015661,-1567.3,1.4037
15839,16.832,4.8182,0,0.00015848,1583.7,5.2791e-05,0.010131,5.147e-05,-9.9081,-0.00015865,-1588.7,1.3906
15840,16.832,4.9091,0.05,7.9117e-07,7.9063,6.0752e-07,4.5647,-4.7722e-13,2.2155e-06,-6.0752e-07,-4.5647,1.3904
15841,17.108,4.9091,0,0.00015219,1520.8,5.0459e-05,0.012595,4.982e-05,-4.7854,-0.00015227,-1523.2,1.4304
15842,17.016,4.8182,0,0.00015418,1540.8,5.1248e-05,0.010936,5.026e-05,-7.4094,-0.00015431,-1544.4,1.4172
15843,17.016,4.9091,0.05,7.8721e-07,7.8667,6.0448e-07,4.5418,-4.7131e-13,3.2325e-06,-6.0448e-07,-4.5418,1.417
15844,17.291,4.9091,0,0.0001479,1477.9,4.8934e-05,0.018287,4.8591e-05,-2.5571,-0.00014794,-1479.2,1.4572
15845,17.2,4.8182,0,0.0001499,1497.9,4.9714e-05,0.01289,4.9048e-05,-4.9859,-0.00014998,-1500.4,1.444
15846,17.2,4.9091,0.05,7.8324e-07,7.827,6.0143e-07,4.5189,-1.3771e-12,3.9745e-06,-6.0143e-07,-4.5189,1.4438
15847,17.475,4.9091,0,0.00014363,1435.3,4.7425e-05,0.078835,4.7355e-05,-0.44254,-0.00014363,-1435.4,1.4841
15848,17.383,4.8182,0,0.00014563,1455.3,4.8189e-05,0.018721,4.7835e-05,-2.637,-0.00014567,-1456.6,1.4708
15849,17.383,4.9091,0.05,7.7928e-07,7.7874,5.9839e-07,4.4961,-4.5448e-13,3.4732e-06,-5.9839e-07,-4.4961,1.4706
15850,17.659,4.9091,0,0.00013937,1392.7,4.6141e-05,1.7701,4.5903e-05,-0.013723,-0.00013934,-1391.9,1.511
15851,17.567,4.8182,0,0.00014137,1412.7,4.668e-05,0.086015,4.6614e-05,-0.41574,-0.00014138,-1412.9,1.4977
15852,17.567,4.9091,0.05,7.7536e-07,7.7483,5.9538e-07,4.4735,-8.3223e-15,4.5387e-06,-5.9538e-07,-4.4735,1.4975
15853,17.843,4.9091,0,0.00013513,1350.4,4.4913e-05,3.8302,4.4403e-05,-0.0038111,-0.00013507,-1348.5,1.5381
15854,17.751,4.8182,0,0.00013713,1370.4,4.5414e-05,1.9107,4.5158e-05,-0.012119,-0.0001371,-1369.4,1.5247
15855,17.751,4.9091,0.05,7.7149e-07,7.7096,5.9241e-07,4.4511,-9.0851e-13,3.6265e-06,-5.9241e-07,-4.4511,1.5245
15856,18.027,4.9091,0,0.00013091,1308.2,4.3689e-05,5.8532,4.291e-05,-0.00092309,-0.00013081,-1305.3,1.5653
15857,17.935,4.8182,0,0.00013291,1328.2,4.4202e-05,4.0761,4.3659e-05,-0.0027205,-0.00013284,-1326.2,1.5518
15858,17.935,4.9091,0.05,7.6768e-07,7.6715,5.8949e-07,4.4292,-9.092e-13,4.8169e-06,-5.8948e-07,-4.4291,1.5517
15859,18.21,4.9091,0,0.0001267,1266.2,4.2467e-05,7.8403,4.1424e-05,0.00045535,-0.00012657,-1262.2,1.5925
15860,18.119,4.8182,0,0.00012871,1286.2,4.2991e-05,6.2021,4.2166e-05,0.00012639,-0.0001286,-1283.1,1.579
15861,18.119,4.9091,0.05,7.6396e-07,7.6343,5.8663e-07,4.4077,-9.0918e-13,3.9242e-06,-5.8663e-07,-4.4077,1.5789
15862,18.394,4.9091,0,0.00012252,1224.3,4.1249e-05,9.7977,3.9945e-05,0.0012832,-0.00012235,-1219.4,1.6198
15863,18.302,4.8182,0,0.00012452,1244.4,4.1784e-05,8.2918,4.0681e-05,0.0015415,-0.00012438,-1240.2,1.6063
15864,18.302,4.9091,0.05,7.6033e-07,7.598,5.8384e-07,4.3867,-2.6422e-15,3.1147e-06,-5.8384e-07,-4.3867,1.6061
15865,18.578,4.9091,0,0.00011835,1182.7,4.0035e-05,11.733,3.8473e-05,0.001848,-0.00011815,-1176.8,1.6472
15866,18.486,4.8182,0,0.00012035,1202.7,4.058e-05,10.353,3.9203e-05,0.0024275,-0.00012017,-1197.5,1.6337
15867,18.486,4.9091,0.05,7.5679e-07,7.5627,5.8112e-07,4.3664,-9.1337e-13,2.919e-06,-5.8112e-07,-4.3663,1.6335
15868,18.762,4.9091,0,0.0001142,1141.2,3.8825e-05,13.654,3.7008e-05,0.0022741,-0.00011396,-1134.3,1.6747
15869,18.67,4.8182,0,0.0001162,1161.2,3.9381e-05,12.394,3.7731e-05,0.0030525,-0.00011599,-1155,1.6611
15870,18.67,4.9091,0.05,7.5336e-07,7.5284,5.7849e-07,4.3466,-1.3665e-12,4.1018e-06,-5.7849e-07,-4.3465,1.661
15871,18.946,4.9091,0,0.00011007,1099.9,3.7621e-05,15.569,3.5549e-05,0.0026441,-0.0001098,-1092.1,1.7023
15872,18.854,4.8182,0,0.00011207,1119.9,3.8186e-05,14.424,3.6267e-05,0.0035553,-0.00011182,-1112.6,1.6886
15873,18.854,4.9091,0.05,7.5003e-07,7.4951,5.7593e-07,4.3273,-4.6651e-13,2.8939e-06,-5.7593e-07,-4.3273,1.6885
15874,19.129,4.9091,0,0.00010596,1058.9,3.6424e-05,17.487,3.4097e-05,0.0029983,-0.00010565,-1050,1.7299
15875,19.038,4.8182,0,0.00010796,1078.8,3.6998e-05,16.453,3.4808e-05,0.0040231,-0.00010767,-1070.5,1.7162
15876,19.038,4.9091,0.05,7.4681e-07,7.463,5.7346e-07,4.3088,-9.2359e-13,3.5201e-06,-5.7346e-07,-4.3087,1.7161
15877,19.313,4.9091,0,0.00010187,1018,3.5234e-05,19.418,3.265e-05,0.0033497,-0.00010152,-1008.1,1.7577
15878,19.221,4.8182,0,0.00010387,1037.9,3.5816e-05,18.491,3.3356e-05,0.0044699,-0.00010354,-1028.6,1.7439
15879,19.221,4.9091,0.05,7.4371e-07,7.4319,5.7108e-07,4.2909,-4.8517e-13,2.7327e-06,-5.7107e-07,-4.2908,1.7438
15880,19.497,4.9091,0,9.7796e-05,977.28,3.4052e-05,21.37,3.1209e-05,0.0037126,-9.7415e-05,-966.42,1.7854
15881,19.405,4.8182,0,9.9793e-05,997.24,3.4643e-05,20.547,3.1909e-05,0.0049203,-9.9428e-05,-986.81,1.7717
15882,19.405,4.9091,0.05,7.4073e-07,7.4022,5.6879e-07,4.2737,-4.9673e-13,3.8355e-06,-5.6879e-07,-4.2736,1.7715
15883,19.681,4.9091,0,9.3745e-05,936.8,3.288e-05,23.353,2.9772e-05,0.0040885,-9.3325e-05,-924.9,1.8133
15884,19.589,4.8182,0,9.5741e-05,956.75,3.3479e-05,22.634,3.0467e-05,0.0053875,-9.5336e-05,-945.23,1.7995
15885,19.589,4.9091,0.05,7.3788e-07,7.3737,5.666e-07,4.2572,-9.5459e-13,6.4421e-06,-5.666e-07,-4.2572,1.7993
15886,19.865,4.9091,0,8.9715e-05,896.53,3.1717e-05,25.378,2.834e-05,0.0044884,-8.9256e-05,-883.57,1.8412
15887,19.773,4.8182,0,9.1711e-05,916.48,3.2325e-05,24.76,2.903e-05,0.0058652,-9.1264e-05,-903.84,1.8273
15888,19.773,4.9091,0.05,7.3516e-07,7.3466,5.6452e-07,4.2416,-1.3937e-12,4.9479e-06,-5.6451e-07,-4.2415,1.8272
15889,20.048,4.9091,0,8.5706e-05,856.47,3.0566e-05,27.455,2.6913e-05,0.004943,-8.5206e-05,-842.41,1.8692
15890,19.956,4.8182,0,8.7702e-05,876.42,3.1182e-05,26.939,2.7598e-05,0.0063871,-8.7213e-05,-862.63,1.8553
15891,19.956,4.9091,0.05,7.3258e-07,7.3207,5.6253e-07,4.2266,-9.3272e-13,5.5114e-06,-5.6253e-07,-4.2266,1.8552
15892,20.232,4.9091,0,8.172e-05,816.64,2.9427e-05,29.595,2.5489e-05,0.0054648,-8.1176e-05,-801.43,1.8972
15893,20.14,4.8182,0,8.3716e-05,836.58,3.0052e-05,29.181,2.6169e-05,0.0069801,-8.3181e-05,-821.61,1.8833
15894,20.14,4.9091,0.05,7.3014e-07,7.2964,5.6066e-07,4.2126,-9.3379e-13,3.6832e-06,-5.6065e-07,-4.2125,1.8831
15895,20.416,4.9091,0,7.7756e-05,777.03,2.8301e-05,31.81,2.4068e-05,0.0060634,-7.7166e-05,-760.63,1.9253
15896,20.324,4.8182,0,7.9753e-05,796.98,2.8935e-05,31.499,2.4743e-05,0.0076481,-7.917e-05,-780.76,1.9113
15897,20.324,4.9091,0.05,7.2785e-07,7.2735,5.589e-07,4.1994,-9.1976e-13,2.6065e-06,-5.589e-07,-4.1994,1.9112
15898,20.6,4.9091,0,7.3817e-05,737.66,2.719e-05,34.114,2.2651e-05,0.0067567,-7.3177e-05,-720.01,1.9534
15899,20.508,4.8182,0,7.5814e-05,757.62,2.7833e-05,33.908,2.3321e-05,0.0084056,-7.518e-05,-740.09,1.9394
15900,20.508,4.9091,0.05,7.2573e-07,7.2523,5.5728e-07,4.1872,-4.709e-13,3.0071e-06,-5.5727e-07,-4.1871,1.9393
15901,20.784,4.9091,0,6.9902e-05,698.53,2.6095e-05,36.519,2.1236e-05,0.0075555,-6.9209e-05,-679.55,1.9816
15902,20.692,4.8182,0,7.19e-05,718.5,2.6747e-05,36.42,2.1901e-05,0.0092779,-7.1211e-05,-699.6,1.9676
15903,20.692,4.9091,0.05,7.2379e-07,7.2329,5.5578e-07,4.176,-4.4706e-13,5.5376e-06,-5.5578e-07,-4.1759,1.9675
15904,20.967,4.9091,0,6.6012e-05,659.67,2.5017e-05,39.041,1.9822e-05,0.0084872,-6.5261e-05,-639.28,2.0098
15905,20.875,4.8182,0,6.8012e-05,679.66,2.5679e-05,39.053,2.0483e-05,0.010264,-6.7264e-05,-659.28,1.9958
15906,20.875,4.9091,0.05,7.2204e-07,7.2154,5.5443e-07,4.1658,-8.9493e-13,5.4354e-06,-5.5443e-07,-4.1658,1.9957
15907,21.151,4.9091,0,6.2151e-05,621.08,2.3959e-05,41.698,1.841e-05,0.0096012,-6.1336e-05,-599.17,2.0381
15908,21.059,4.8182,0,6.4153e-05,641.09,2.4631e-05,41.823,1.9066e-05,0.01142,-6.3339e-05,-619.14,2.024
15909,21.059,4.9091,0.05,7.2048e-07,7.1998,5.5324e-07,4.1568,-5.1199e-13,4.696e-06,-5.5324e-07,-4.1568,2.0239
15910,21.335,4.9091,0,5.8318e-05,582.78,2.2921e-05,44.508,1.6999e-05,0.010942,-5.7433e-05,-559.25,2.0664
15911,21.243,4.8182,0,6.0323e-05,602.81,2.3604e-05,44.751,1.765e-05,0.012792,-5.9437e-05,-579.18,2.0523
15912,21.243,4.9091,0.05,7.1914e-07,7.1864,5.5221e-07,4.1491,-2.6593e-13,3.1546e-06,-5.5221e-07,-4.1491,2.0522
15913,21.519,4.9091,0,5.4518e-05,544.8,2.1907e-05,47.495,1.5588e-05,0.012566,-5.3554e-05,-519.49,2.0947
15914,21.427,4.8182,0,5.6525e-05,564.86,2.2601e-05,47.857,1.6234e-05,0.014427,-5.5558e-05,-539.4,2.0806
15915,21.427,4.9091,0.05,7.1804e-07,7.1755,5.5137e-07,4.1428,-6.839e-13,3.8437e-06,-5.5137e-07,-4.1428,2.0805
15916,21.703,4.9091,0,5.0752e-05,507.17,2.092e-05,50.685,1.4176e-05,0.014546,-4.9699e-05,-479.92,2.1231
15917,21.611,4.8182,0,5.2762e-05,527.26,2.1625e-05,51.169,1.4817e-05,0.01639,-5.1705e-05,-499.8,2.109
15918,21.611,4.9091,0.05,7.1722e-07,7.1673,5.5074e-07,4.1381,-6.0303e-13,5.3313e-06,-5.5074e-07,-4.138,2.1089
15919,21.886,4.9091,0,4.7026e-05,469.94,1.9962e-05,54.109,1.2762e-05,0.016983,-4.5871e-05,-440.53,2.1515
15920,21.794,4.8182,0,4.9038e-05,490.04,2.0678e-05,54.715,1.3398e-05,0.018773,-4.7877e-05,-460.38,2.1374
15921,21.794,4.9091,0.05,7.1672e-07,7.1622,5.5035e-07,4.1351,-3.8422e-13,4.1444e-06,-5.5035e-07,-4.1351,2.1373
15922,22.07,4.9091,0,4.3345e-05,433.15,1.9037e-05,57.805,1.1346e-05,0.020024,-4.2071e-05,-401.34,2.18
15923,21.978,4.8182,0,4.5358e-05,453.27,1.9764e-05,58.532,1.1977e-05,0.021683,-4.4078e-05,-421.15,2.1658
15924,21.978,4.9091,0.05,7.1657e-07,7.1607,5.5024e-07,4.1343,-2.0353e-13,2.1664e-07,-5.5023e-07,-4.1342,2.1657
15925,22.254,4.9091,0,3.9716e-05,396.89,1.8151e-05,61.82,9.9264e-06,0.023877,-3.8301e-05,-362.34,2.2084
15926,22.162,4.8182,0,4.1729e-05,417.01,1.8888e-05,62.661,1.0552e-05,0.025313,-4.0308e-05,-382.12,2.1943
15927,22.162,4.9091,0.05,7.1684e-07,7.1635,5.5045e-07,4.1359,2.884e-14,2.9033e-06,-5.5045e-07,-4.1358,2.1942
15928,22.438,4.9091,0,3.615e-05,361.25,1.731e-05,66.211,8.5012e-06,0.028851,-3.4566e-05,-323.56,2.2369
15929,22.346,4.8182,0,3.816e-05,381.34,1.8055e-05,67.153,9.1218e-06,0.029898,-3.6571e-05,-343.29,2.2227
15930,22.346,4.9091,0.05,7.1764e-07,7.1715,5.5106e-07,4.1405,-8.7994e-14,2.5527e-06,-5.5106e-07,-4.1404,2.2227
15931,22.622,4.9091,0,3.2662e-05,326.39,1.652e-05,71.046,7.069e-06,0.035331,-3.0867e-05,-285,2.2654
15932,22.53,4.8182,0,3.4663e-05,346.39,1.7272e-05,72.068,7.6848e-06,0.035834,-3.2869e-05,-304.67,2.2513
15933,22.53,4.9091,0.05,7.191e-07,7.186,5.5218e-07,4.1488,1.5791e-13,4.2487e-06,-5.5218e-07,-4.1488,2.2512
15934,22.805,4.9091,0,2.9269e-05,292.49,1.5791e-05,76.411,5.6275e-06,0.044249,-2.7211e-05,-246.69,2.294
15935,22.713,4.8182,0,3.1254e-05,312.32,1.6545e-05,77.478,6.239e-06,0.043523,-2.9206e-05,-266.28,2.2798
15936,22.713,4.9091,0.05,7.214e-07,7.209,5.5394e-07,4.1621,1.2591e-13,3.3734e-06,-5.5394e-07,-4.1621,2.2797
15937,22.989,4.9091,0,2.6001e-05,259.83,1.5133e-05,82.402,4.1738e-06,0.055912,-2.36e-05,-208.62,2.3225
15938,22.897,4.8182,0,2.7956e-05,279.37,1.5883e-05,83.466,4.7819e-06,0.054498,-2.5584e-05,-228.11,2.3083
15939,22.897,4.9091,0.05,7.2482e-07,7.2432,5.5657e-07,4.1818,2.2128e-13,7.6646e-06,-5.5657e-07,-4.1818,2.3083
15940,23.173,4.9091,0,2.2895e-05,228.8,1.4557e-05,89.132,2.7046e-06,0.076157,-2.0038e-05,-170.8,2.3511
15941,23.081,4.8182,0,2.4801e-05,247.84,1.5296e-05,90.125,3.3101e-06,0.067991,-2.2007e-05,-190.16,2.3369
15942,23.081,4.9091,0.05,7.2973e-07,7.2922,5.6034e-07,4.2102,2.269e-13,1.144e-05,-5.6034e-07,-4.2102,2.3368
15943,23.357,4.9091,0,2.0007e-05,199.93,1.4072e-05,96.704,1.2143e-06,0.09574,-1.6524e-05,-133.18,2.3797
15944,23.265,4.8182,0,2.1835e-05,218.2,1.4791e-05,97.552,1.8208e-06,0.096902,-1.8475e-05,-152.4,2.3655
15945,23.265,4.9091,0.05,7.3663e-07,7.3612,5.6564e-07,4.25,1.4705e-13,7.8568e-06,-5.6564e-07,-4.25,2.3654
15946,23.541,4.9091,0,1.7419e-05,174.07,1.3685e-05,105.24,-2.9691e-07,0.18358,-1.3057e-05,-95.691,2.4083
15947,23.449,4.8182,0,1.9123e-05,191.09,1.4376e-05,105.82,3.0688e-07,0.11106,-1.4983e-05,-114.77,2.3941
15948,23.449,4.9091,0.05,7.4611e-07,7.4559,5.7292e-07,4.3047,3.5179e-13,9.5104e-06,-5.7292e-07,-4.3047,2.394
15949,23.724,4.9091,0,1.5259e-05,152.48,1.3404e-05,114.76,-1.8488e-06,0.1589,-9.6289e-06,-58.297,2.4369
15950,23.632,4.8182,0,1.6762e-05,167.5,1.4051e-05,115.04,-1.2221e-06,0.28453,-1.1531e-05,-77.172,2.4227
15951,23.632,4.9091,0.05,7.595e-07,7.5897,5.832e-07,4.3819,4.7466e-13,1.1412e-05,-5.832e-07,-4.3819,2.4226
15952,23.816,4.8182,0,1.4907e-05,148.97,1.3828e-05,125.12,-2.8081e-06,0.1242,-8.1099e-06,-39.712,2.4513
15953,23.816,4.9091,0.05,7.9067e-07,7.9013,6.0714e-07,4.5618,5.0426e-13,8.0675e-06,-6.0714e-07,-4.5618,2.4512
15954,23.908,4.9091,0,1.3665e-05,136.55,1.3146e-05,124.11,-3.3172e-06,0.40748,-6.3555e-06,-22.421,2.4655
15955,11.042,4.7273,0,0.00030141,3012,0.00017593,959.29,4.7719e-05,-4.0304,-0.00027337,-2416.5,0.62188
15956,10.95,4.6364,0,0.00036382,3635.6,0.00022942,1382.8,4.3628e-05,-13.231,-0.00031981,-2744,0.61141
15957,10.95,4.7273,0.05,1.5162e-05,151.52,1.1643e-05,87.479,-7.7716e-21,-1.8556e-14,-1.1643e-05,-87.479,0.61083
15958,10.859,4.7273,0,0.00025974,2595.6,0.00016184,968.22,3.3595e-05,4.6696,-0.0002294,-1971.4,0.59986
15959,11.226,4.7273,0,0.00028092,2807.2,0.00014069,591.81,6.1642e-05,-2.111,-0.00026613,-2464.9,0.64396
15960,11.134,4.6364,0,0.00032051,3202.9,0.00017159,818.35,6.2466e-05,-1.6025,-0.00029864,-2714.8,0.63337
15961,11.134,4.7273,0.05,8.9714e-06,89.652,6.8889e-06,51.761,-1.4612e-21,1.6851e-06,-6.8889e-06,-51.761,0.63287
15962,11.41,4.7273,0,0.00027266,2724.7,0.00011974,361.85,7.1212e-05,-2.8002,-0.00026471,-2526.8,0.66615
15963,11.318,4.6364,0,0.00030103,3008.2,0.0001391,485.68,7.4017e-05,-3.2931,-0.00028983,-2737.1,0.65544
15964,11.318,4.7273,0.05,6.5548e-06,65.503,5.0333e-06,37.818,-1.0676e-21,5.9526e-06,-5.0333e-06,-37.818,0.65501
15965,11.594,4.7273,0,0.00026791,2677.2,0.00010597,211.19,7.7522e-05,-2.5603,-0.00026372,-2566.5,0.68847
15966,11.502,4.6364,0,0.00028821,2880.1,0.00011778,273.5,8.0989e-05,-2.8999,-0.00028261,-2734.8,0.67765
15967,11.502,4.7273,0.05,4.7122e-06,47.09,3.6184e-06,27.187,1.9989e-12,5.7289e-06,-3.6184e-06,-27.187,0.67726
15968,11.778,4.7273,0,0.00026496,2647.7,9.7111e-05,114.9,8.1445e-05,-2.8021,-0.00026285,-2589.7,0.71095
15969,11.686,4.6364,0,0.00027978,2795.9,0.00010424,141.81,8.4952e-05,-3.1007,-0.00027714,-2723.7,0.70001
15970,11.686,4.7273,0.05,3.5346e-06,35.322,2.7142e-06,20.393,1.2468e-12,2.9899e-05,-2.7142e-06,-20.393,0.69966
15971,11.961,4.7273,0,0.00026281,2626.3,9.1472e-05,54.768,8.369e-05,-3.6996,-0.0002619,-2600.3,0.73359
15972,11.869,4.6364,0,0.00027391,2737.2,9.5766e-05,62.061,8.694e-05,-4.2539,-0.00027286,-2707.7,0.72254
15973,11.869,4.7273,0.05,2.7474e-06,27.455,2.1096e-06,15.851,2.8443e-12,3.2034e-05,-2.1096e-06,-15.851,0.72222
15974,12.145,4.7273,0,0.00026083,2606.5,8.8023e-05,19.233,8.4539e-05,-6.9492,-0.00026062,-2600.3,0.75639
15975,12.053,4.6364,0,0.00026936,2691.8,9.0846e-05,17.734,8.7202e-05,-9.6398,-0.00026921,-2687.6,0.74524
15976,12.053,4.7273,0.05,2.2034e-06,22.019,1.6919e-06,12.712,1.0536e-12,5.1243e-06,-1.6919e-06,-12.712,0.74494
15977,12.329,4.7273,0,0.00025867,2585,8.6669e-05,5.0909,8.3618e-05,-17.836,-0.00025888,-2591.3,0.77937
15978,12.237,4.6364,0,0.00026541,2652.3,8.9274e-05,4.2732,8.5119e-05,-26.939,-0.00026579,-2663.5,0.76811
15979,12.237,4.7273,0.05,1.8112e-06,18.099,1.3908e-06,10.45,5.0708e-13,3.3245e-05,-1.3908e-06,-10.45,0.76783
15980,12.513,4.7273,0,0.00025618,2560,8.6249e-05,2.0128,8.1825e-05,-31.223,-0.00025666,-2574.5,0.80252
15981,12.421,4.6364,0,0.00026165,2614.7,8.8652e-05,1.8157,8.2592e-05,-43.718,-0.00026233,-2635.3,0.79117
15982,12.421,4.7273,0.05,1.5228e-06,15.217,1.1693e-06,8.7858,-4.0487e-14,2.9995e-05,-1.1693e-06,-8.7858,0.7909
15983,12.697,4.7273,0,0.00025331,2531.4,8.5718e-05,1.0673,8.0082e-05,-41.278,-0.00025397,-2551.2,0.82585
15984,12.605,4.6364,0,0.00025787,2576.9,8.789e-05,1.0111,8.0435e-05,-55.002,-0.00025874,-2603.4,0.81439
15985,12.605,4.7273,0.05,1.3108e-06,13.099,1.0066e-06,7.563,-6.5682e-13,2.4812e-05,-1.0066e-06,-7.563,0.81414
15986,12.88,4.7273,0,0.00025009,2499.2,8.4961e-05,0.64647,7.8456e-05,-48.233,-0.00025086,-2522.6,0.84934
15987,12.788,4.6364,0,0.00025398,2538,8.6924e-05,0.63348,7.8568e-05,-62.15,-0.00025496,-2568.2,0.83779
15988,12.788,4.7273,0.05,1.1574e-06,11.566,8.8877e-07,6.6779,2.2466e-12,2.132e-05,-8.8877e-07,-6.6779,0.83754
15989,13.064,4.7273,0,0.00024656,2463.9,8.4005e-05,0.42082,7.6914e-05,-52.861,-0.00024741,-2489.7,0.873
15990,12.972,4.6364,0,0.00024995,2497.8,8.5789e-05,0.42299,7.6891e-05,-66.434,-0.00025101,-2530.2,0.86136
15991,12.972,4.7273,0.05,1.0492e-06,10.485,8.0569e-07,6.0537,1.2635e-12,-8.9874e-06,-8.0569e-07,-6.0537,0.86112
15992,13.248,4.7273,0,0.00024279,2426.2,8.2889e-05,0.28677,7.5433e-05,-55.735,-0.00024368,-2453.5,0.89683
15993,13.156,4.6364,0,0.00024581,2456.4,8.4521e-05,0.2939,7.5339e-05,-68.694,-0.0002469,-2489.9,0.8851
15994,13.156,4.7273,0.05,9.7531e-07,9.7464,7.4892e-07,5.6271,4.4894e-13,1.0913e-05,-7.4892e-07,-5.6271,0.88487
15995,13.432,4.7273,0,0.00023882,2386.6,8.1646e-05,0.20199,7.4e-05,-57.248,-0.00023974,-2414.6,0.92082
15996,13.34,4.6364,0,0.00024156,2414,8.315e-05,0.21005,7.3876e-05,-69.469,-0.00024267,-2447.8,0.90901
15997,13.34,4.7273,0.05,9.2638e-07,9.2574,7.1135e-07,5.3448,9.361e-13,2.0274e-05,-7.1135e-07,-5.3448,0.90878
15998,13.616,4.7273,0,0.0002347,2345.4,8.0303e-05,0.14606,7.2608e-05,-57.676,-0.00023563,-2373.6,0.94497
15999,13.524,4.6364,0,0.00023724,2370.7,8.17e-05,0.1535,7.248e-05,-69.119,-0.00023833,-2404.5,0.93308
16000,13.524,4.7273,0.05,8.9493e-07,8.9431,6.8719e-07,5.1633,-2.2216e-12,3.4144e-06,-6.8719e-07,-5.1633,0.93285
16001,13.799,4.7273,0,0.00023048,2303.2,7.8884e-05,0.108,7.1253e-05,-57.229,-0.0002314,-2331.2,0.96929
16002,13.707,4.6364,0,0.00023285,2326.9,8.019e-05,0.11429,7.1139e-05,-67.896,-0.00023393,-2360.1,0.95731
16003,13.707,4.7273,0.05,8.7513e-07,8.7453,6.7199e-07,5.0491,-1.2594e-12,-6.2848e-07,-6.7199e-07,-5.0491,0.95709
16004,13.983,4.7273,0,0.00022617,2260.2,7.7405e-05,0.081461,6.9931e-05,-56.07,-0.00022708,-2287.7,0.99376
16005,13.891,4.6364,0,0.00022844,2282.8,7.8636e-05,0.08655,6.9842e-05,-65.988,-0.00022948,-2315,0.9817
16006,13.891,4.7273,0.05,8.6275e-07,8.6216,6.6249e-07,4.9777,-1.7433e-12,-7.8459e-06,-6.6249e-07,-4.9777,0.98148
16007,14.167,4.7273,0,0.00022182,2216.7,7.5881e-05,0.062556,6.8641e-05,-54.337,-0.00022269,-2243.3,1.0184
16008,14.075,4.6364,0,0.00022399,2238.4,7.7049e-05,0.066584,6.8583e-05,-63.545,-0.00022501,-2269.5,1.0062
16009,14.075,4.7273,0.05,8.5486e-07,8.5427,6.5643e-07,4.9321,-4.2843e-13,-1.699e-06,-6.5643e-07,-4.9321,1.006
16010,14.351,4.7273,0,0.00021743,2172.8,7.4324e-05,0.048846,6.7377e-05,-52.149,-0.00021827,-2198.4,1.0432
16011,14.259,4.6364,0,0.00021954,2193.9,7.5439e-05,0.051969,6.7354e-05,-60.689,-0.00022051,-2223.6,1.0309
16012,14.259,4.7273,0.05,8.4952e-07,8.4893,6.5232e-07,4.9014,-2.0488e-12,9.5771e-06,-6.5232e-07,-4.9013,1.0307
16013,14.534,4.7273,0,0.00021302,2128.8,7.2744e-05,0.038788,6.6137e-05,-49.606,-0.00021382,-2153.1,1.0681
16014,14.443,4.6364,0,0.00021509,2149.4,7.3813e-05,0.041163,6.6152e-05,-57.522,-0.00021601,-2177.6,1.0558
16015,14.443,4.7273,0.05,8.4548e-07,8.449,6.4923e-07,4.878,-8.9634e-13,-4.3254e-06,-6.4923e-07,-4.878,1.0556
16016,14.718,4.7273,0,0.00020861,2084.6,7.1148e-05,0.031331,6.4915e-05,-46.797,-0.00020936,-2107.6,1.0931
16017,14.626,4.6364,0,0.00021064,2104.9,7.2177e-05,0.033129,6.4969e-05,-54.132,-0.00021151,-2131.5,1.0808
16018,14.626,4.7273,0.05,8.4203e-07,8.4145,6.4657e-07,4.8581,-1.5545e-13,4.7833e-07,-6.4657e-07,-4.8581,1.0806
16019,14.902,4.7273,0,0.00020419,2040.5,6.9542e-05,0.02574,6.3709e-05,-43.797,-0.0002049,-2062,1.1183
16020,14.81,4.6364,0,0.0002062,2060.5,7.0538e-05,0.027096,6.3801e-05,-50.592,-0.00020701,-2085.4,1.1059
16021,14.81,4.7273,0.05,8.3873e-07,8.3815,6.4404e-07,4.8391,-1.9198e-12,-7.2755e-07,-6.4404e-07,-4.839,1.1057
16022,15.086,4.7273,0,0.00019977,1996.3,6.793e-05,0.021512,6.2514e-05,-40.67,-0.00020043,-2016.3,1.1437
16023,14.994,4.6364,0,0.00020176,2016.2,6.8897e-05,0.022536,6.2643e-05,-46.964,-0.00020252,-2039.3,1.1312
16024,14.994,4.7273,0.05,8.3535e-07,8.3478,6.4145e-07,4.8196,-1.0846e-12,8.9065e-08,-6.4145e-07,-4.8196,1.131
16025,15.27,4.7273,0,0.00019536,1952.2,6.6317e-05,0.018275,6.1328e-05,-37.469,-0.00019597,-1970.7,1.1692
16026,15.178,4.6364,0,0.00019734,1972.1,6.7258e-05,0.019068,6.1493e-05,-43.299,-0.00019804,-1993.4,1.1566
16027,15.178,4.7273,0.05,8.3181e-07,8.3124,6.3873e-07,4.7992,-1.0952e-12,-7.2576e-07,-6.3873e-07,-4.7991,1.1564
16028,15.453,4.7273,0,0.00019096,1908.2,6.4705e-05,0.015779,6.0146e-05,-34.24,-0.00019152,-1925.1,1.1948
16029,15.362,4.6364,0,0.00019294,1928,6.5624e-05,0.016388,6.0346e-05,-39.639,-0.00019358,-1947.5,1.1821
16030,15.362,4.7273,0.05,8.2806e-07,8.2749,6.3585e-07,4.7775,-5.3738e-13,9.9398e-07,-6.3585e-07,-4.7775,1.1819
16031,15.637,4.7273,0,0.00018656,1864.4,6.3097e-05,0.013881,5.8967e-05,-31.016,-0.00018707,-1879.7,1.2205
16032,15.545,4.6364,0,0.00018854,1884.1,6.3996e-05,0.014334,5.9201e-05,-36.016,-0.00018913,-1901.9,1.2078
16033,15.545,4.7273,0.05,8.2409e-07,8.2352,6.328e-07,4.7547,-1.4558e-12,9.5867e-07,-6.328e-07,-4.7546,1.2076
16034,15.821,4.7273,0,0.00018218,1820.6,6.1495e-05,0.01246,5.779e-05,-27.826,-0.00018264,-1834.3,1.2464
16035,15.729,4.6364,0,0.00018416,1840.4,6.2376e-05,0.012803,5.8054e-05,-32.457,-0.00018469,-1856.4,1.2336
16036,15.729,4.7273,0.05,8.1995e-07,8.1939,6.2962e-07,4.7307,-1.8744e-12,5.015e-07,-6.2962e-07,-4.7307,1.2334
16037,16.005,4.7273,0,0.00017782,1776.9,5.9899e-05,0.011411,5.6611e-05,-24.69,-0.00017822,-1789.1,1.2724
16038,15.913,4.6364,0,0.0001798,1796.7,6.0764e-05,0.011667,5.6906e-05,-28.979,-0.00018027,-1811,1.2595
16039,15.913,4.7273,0.05,8.1568e-07,8.1512,6.2635e-07,4.7061,-1.3934e-12,2.7089e-06,-6.2634e-07,-4.7061,1.2593
16040,16.189,4.7273,0,0.00017346,1733.4,5.8311e-05,0.010665,5.5431e-05,-21.625,-0.00017382,-1744.1,1.2985
16041,16.097,4.6364,0,0.00017545,1753.2,5.9161e-05,0.01085,5.5753e-05,-25.597,-0.00017587,-1765.9,1.2856
16042,16.097,4.7273,0.05,8.1132e-07,8.1076,6.23e-07,4.681,-9.9111e-13,2.3675e-06,-6.2299e-07,-4.6809,1.2854
16043,16.372,4.7273,0,0.00016912,1690,5.6731e-05,0.010165,5.4249e-05,-18.64,-0.00016943,-1699.3,1.3247
16044,16.281,4.6364,0,0.00017111,1709.9,5.7568e-05,0.010295,5.4596e-05,-22.319,-0.00017148,-1720.9,1.3117
16045,16.281,4.7273,0.05,8.0692e-07,8.0636,6.1961e-07,4.6555,-9.6505e-13,2.3612e-06,-6.1961e-07,-4.6555,1.3116
16046,16.556,4.7273,0,0.00016479,1646.8,5.516e-05,0.0098914,5.3064e-05,-15.742,-0.00016505,-1654.6,1.3511
16047,16.464,4.6364,0,0.00016678,1666.7,5.5985e-05,0.0099356,5.3435e-05,-19.15,-0.0001671,-1676.2,1.338
16048,16.464,4.7273,0.05,8.0249e-07,8.0193,6.1621e-07,4.63,-5.1656e-13,2.1382e-06,-6.1621e-07,-4.6299,1.3379
16049,16.74,4.7273,0,0.00016048,1603.7,5.3599e-05,0.0098929,5.1876e-05,-12.934,-0.0001607,-1610.1,1.3775
16050,16.648,4.6364,0,0.00016247,1623.6,5.4412e-05,0.0097953,5.2269e-05,-16.091,-0.00016274,-1631.6,1.3644
16051,16.648,4.7273,0.05,7.9805e-07,7.975,6.1281e-07,4.6044,-9.6223e-13,2.1015e-06,-6.128e-07,-4.6044,1.3642
16052,16.924,4.7273,0,0.00015618,1560.7,5.2046e-05,0.010246,5.0685e-05,-10.216,-0.00015635,-1565.8,1.4041
16053,16.832,4.6364,0,0.00015818,1580.7,5.2849e-05,0.0099302,5.1099e-05,-13.14,-0.0001584,-1587.2,1.3909
16054,16.832,4.7273,0.05,7.9365e-07,7.931,6.0942e-07,4.579,-9.1702e-13,1.9766e-06,-6.0942e-07,-4.5789,1.3908
16055,17.108,4.7273,0,0.0001519,1517.9,5.0502e-05,0.011137,4.9491e-05,-7.586,-0.00015202,-1521.7,1.4307
16056,17.016,4.6364,0,0.0001539,1537.9,5.1296e-05,0.010395,4.9924e-05,-10.294,-0.00015407,-1543,1.4175
16057,17.016,4.7273,0.05,7.8929e-07,7.8875,6.0608e-07,4.5539,-9.2616e-13,2.6592e-06,-6.0608e-07,-4.5538,1.4174
16058,17.291,4.7273,0,0.00014763,1475.3,4.8968e-05,0.01319,4.8296e-05,-5.0409,-0.00014771,-1477.8,1.4575
16059,17.2,4.6364,0,0.00014963,1495.3,4.9752e-05,0.011403,4.8746e-05,-7.5484,-0.00014976,-1499,1.4443
16060,17.2,4.7273,0.05,7.8501e-07,7.8447,6.0279e-07,4.5292,-9.0341e-13,2.7842e-06,-6.0279e-07,-4.5291,1.4441
16061,17.475,4.7273,0,0.00014338,1432.8,4.7443e-05,0.019379,4.7098e-05,-2.578,-0.00014342,-1434.1,1.4844
16062,17.383,4.6364,0,0.00014538,1452.8,4.8218e-05,0.01366,4.7565e-05,-4.8963,-0.00014546,-1455.2,1.4711
16063,17.383,4.7273,0.05,7.8081e-07,7.8027,5.9956e-07,4.5049,-4.5447e-13,2.7082e-06,-5.9957e-07,-4.5049,1.4709
16064,17.659,4.7273,0,0.00013914,1390.4,4.594e-05,0.12189,4.5886e-05,-0.2828,-0.00013914,-1390.5,1.5113
16065,17.567,4.6364,0,0.00014114,1410.5,4.6694e-05,0.020875,4.6381e-05,-2.3338,-0.00014118,-1411.6,1.498
16066,17.567,4.7273,0.05,7.767e-07,7.7616,5.9641e-07,4.4812,-9.0855e-13,3.4849e-06,-5.9641e-07,-4.4812,1.4978
16067,17.843,4.7273,0,0.00013492,1348.3,4.4706e-05,2.1821,4.4414e-05,-0.0090004,-0.00013488,-1347.2,1.5384
16068,17.751,4.6364,0,0.00013692,1368.3,4.5214e-05,0.28923,4.5161e-05,-0.10824,-0.00013692,-1368.2,1.525
16069,17.751,4.7273,0.05,7.7267e-07,7.7214,5.9332e-07,4.458,-4.5437e-13,2.8908e-06,-5.9332e-07,-4.4579,1.5248
16070,18.027,4.7273,0,0.00013072,1306.2,4.3508e-05,4.4531,4.2915e-05,-0.0011251,-0.00013064,-1304,1.5655
16071,17.935,4.6364,0,0.00013272,1326.3,4.4016e-05,2.6142,4.3667e-05,-0.0054246,-0.00013267,-1325,1.5521
16072,17.935,4.7273,0.05,7.6874e-07,7.6821,5.903e-07,4.4353,-4.5121e-13,4.0692e-06,-5.903e-07,-4.4353,1.5519
16073,18.21,4.7273,0,0.00012653,1264.4,4.2312e-05,6.683,4.1423e-05,0.0014626,-0.00012641,-1261.1,1.5928
16074,18.119,4.6364,0,0.00012853,1284.4,4.2832e-05,4.9797,4.2169e-05,0.0006216,-0.00012845,-1281.9,1.5793
16075,18.119,4.7273,0.05,7.6492e-07,7.644,5.8737e-07,4.4133,-1.3637e-12,3.2425e-06,-5.8736e-07,-4.4132,1.5791
16076,18.394,4.7273,0,0.00012236,1222.8,4.112e-05,8.8774,3.9938e-05,0.002818,-0.00012221,-1218.3,1.6201
16077,18.302,4.6364,0,0.00012436,1242.8,4.1649e-05,7.3034,4.0678e-05,0.0028613,-0.00012424,-1239.1,1.6066
16078,18.302,4.7273,0.05,7.6121e-07,7.6069,5.8452e-07,4.3919,-4.566e-13,2.5185e-06,-5.8452e-07,-4.3918,1.6064
16079,18.578,4.7273,0,0.00011821,1181.3,3.993e-05,11.045,3.8461e-05,0.0037003,-0.00011802,-1175.7,1.6475
16080,18.486,4.6364,0,0.00012021,1201.3,4.047e-05,9.593,3.9194e-05,0.0041177,-0.00012005,-1196.5,1.6339
16081,18.486,4.7273,0.05,7.5762e-07,7.571,5.8176e-07,4.3711,-9.1273e-13,2.2372e-06,-5.8176e-07,-4.3711,1.6338
16082,18.762,4.7273,0,0.00011408,1140,3.8746e-05,13.196,3.699e-05,0.0043607,-0.00011385,-1133.3,1.675
16083,18.67,4.6364,0,0.00011608,1160,3.9295e-05,11.859,3.7717e-05,0.0049734,-0.00011587,-1154,1.6614
16084,18.67,4.7273,0.05,7.5415e-07,7.5363,5.7909e-07,4.3511,-9.0877e-13,3.4373e-06,-5.7909e-07,-4.3511,1.6612
16085,18.946,4.7273,0,0.00010996,1098.9,3.7567e-05,15.342,3.5526e-05,0.0049308,-0.00010969,-1091.1,1.7026
16086,18.854,4.6364,0,0.00011196,1118.9,3.8125e-05,14.113,3.6247e-05,0.0056541,-0.00011172,-1111.7,1.6889
16087,18.854,4.7273,0.05,7.5079e-07,7.5027,5.7651e-07,4.3317,-9.1236e-13,2.1474e-06,-5.7651e-07,-4.3317,1.6887
16088,19.129,4.7273,0,0.00010587,1058,3.6395e-05,17.491,3.4068e-05,0.0054668,-0.00010556,-1049.1,1.7302
16089,19.038,4.6364,0,0.00010787,1077.9,3.6961e-05,16.366,3.4783e-05,0.0062776,-0.00010758,-1069.7,1.7165
16090,19.038,4.7273,0.05,7.4754e-07,7.4703,5.7402e-07,4.313,-1.3821e-12,3.6389e-06,-5.7402e-07,-4.3129,1.7163
16091,19.313,4.7273,0,0.0001018,1017.3,3.523e-05,19.656,3.2615e-05,0.0059916,-0.00010145,-1007.3,1.7579
16092,19.221,4.6364,0,0.00010379,1037.2,3.5804e-05,18.63,3.3326e-05,0.00687,-0.00010346,-1027.8,1.7441
16093,19.221,4.7273,0.05,7.4443e-07,7.4391,5.7163e-07,4.295,-4.951e-13,2.0893e-06,-5.7163e-07,-4.295,1.744
16094,19.497,4.7273,0,9.7744e-05,976.77,3.4075e-05,21.848,3.1168e-05,0.006527,-9.7354e-05,-965.66,1.7857
16095,19.405,4.6364,0,9.974e-05,996.71,3.4656e-05,20.917,3.1873e-05,0.0074636,-9.9367e-05,-986.08,1.7719
16096,19.405,4.7273,0.05,7.4144e-07,7.4093,5.6934e-07,4.2778,-4.9452e-13,3.4315e-06,-5.6933e-07,-4.2777,1.7718
16097,19.681,4.7273,0,9.3713e-05,936.49,3.2929e-05,24.079,2.9726e-05,0.0070778,-9.328e-05,-924.21,1.8135
16098,19.589,4.6364,0,9.5707e-05,956.41,3.3518e-05,23.24,3.0426e-05,0.0080758,-9.529e-05,-944.57,1.7997
16099,19.589,4.7273,0.05,7.386e-07,7.3809,5.6715e-07,4.2614,-4.8304e-13,5.8499e-06,-5.6715e-07,-4.2613,1.7996
16100,19.865,4.7273,0,8.9704e-05,896.42,3.1795e-05,26.361,2.8288e-05,0.0076595,-8.9227e-05,-882.95,1.8414
16101,19.773,4.6364,0,9.1696e-05,916.33,3.239e-05,25.611,2.8983e-05,0.0087027,-9.1234e-05,-903.25,1.8275
16102,19.773,4.7273,0.05,7.3589e-07,7.3538,5.6507e-07,4.2458,-9.4003e-13,4.1841e-06,-5.6507e-07,-4.2457,1.8274
16103,20.048,4.7273,0,8.5718e-05,856.59,3.0673e-05,28.706,2.6854e-05,0.0083015,-8.5193e-05,-841.87,1.8694
16104,19.956,4.6364,0,8.7708e-05,876.48,3.1276e-05,28.044,2.7544e-05,0.0093784,-8.7198e-05,-862.12,1.8555
16105,19.956,4.7273,0.05,7.3333e-07,7.3282,5.6311e-07,4.231,-9.2966e-13,4.9356e-06,-5.631e-07,-4.2309,1.8554
16106,20.232,4.7273,0,8.1755e-05,816.98,2.9565e-05,31.127,2.5423e-05,0.0090217,-8.1181e-05,-800.97,1.8974
16107,20.14,4.6364,0,8.3744e-05,836.87,3.0174e-05,30.553,2.6109e-05,0.010133,-8.3183e-05,-821.17,1.8835
16108,20.14,4.7273,0.05,7.3092e-07,7.3041,5.6125e-07,4.217,-9.2076e-13,3.1086e-06,-5.6125e-07,-4.217,1.8833
16109,20.416,4.7273,0,7.7816e-05,777.63,2.8472e-05,33.64,2.3996e-05,0.0098284,-7.7189e-05,-760.26,1.9254
16110,20.324,4.6364,0,7.9805e-05,797.5,2.9088e-05,33.152,2.4677e-05,0.010971,-7.9189e-05,-780.4,1.9115
16111,20.324,4.7273,0.05,7.2867e-07,7.2817,5.5953e-07,4.2041,-9.0675e-13,2.3804e-06,-5.5953e-07,-4.2041,1.9114
16112,20.6,4.7273,0,7.3904e-05,738.53,2.7395e-05,36.259,2.2571e-05,0.010743,-7.322e-05,-719.72,1.9536
16113,20.508,4.6364,0,7.5891e-05,758.39,2.8019e-05,35.858,2.3248e-05,0.011909,-7.5218e-05,-739.82,1.9396
16114,20.508,4.7273,0.05,7.266e-07,7.261,5.5794e-07,4.1921,-9.0455e-13,1.9069e-06,-5.5794e-07,-4.1921,1.9395
16115,20.784,4.7273,0,7.0017e-05,699.69,2.6337e-05,39.001,2.1148e-05,0.011779,-6.9272e-05,-679.37,1.9817
16116,20.692,4.6364,0,7.2005e-05,719.55,2.6968e-05,38.686,2.1821e-05,0.012971,-7.1269e-05,-699.42,1.9677
16117,20.692,4.7273,0.05,7.2472e-07,7.2422,5.5649e-07,4.1813,-4.5435e-13,5.7152e-06,-5.5649e-07,-4.1813,1.9676
16118,20.967,4.7273,0,6.616e-05,661.14,2.5299e-05,41.883,1.9726e-05,0.012962,-6.5347e-05,-639.2,2.01
16119,20.875,4.6364,0,6.8147e-05,681,2.5937e-05,41.655,2.0395e-05,0.014163,-6.7342e-05,-659.21,1.9959
16120,20.875,4.7273,0.05,7.2304e-07,7.2254,5.5521e-07,4.1716,-4.4668e-13,4.7811e-06,-5.552e-07,-4.1716,1.9958
16121,21.151,4.7273,0,6.2332e-05,622.89,2.4283e-05,44.925,1.8305e-05,0.014346,-6.1446e-05,-599.2,2.0382
16122,21.059,4.6364,0,6.4319e-05,642.75,2.4928e-05,44.785,1.8969e-05,0.015533,-6.344e-05,-619.17,2.0242
16123,21.059,4.7273,0.05,7.2158e-07,7.2108,5.5408e-07,4.1632,-9.5395e-13,4.1598e-06,-5.5408e-07,-4.1631,2.0241
16124,21.335,4.7273,0,5.8536e-05,584.96,2.329e-05,48.15,1.6884e-05,0.015976,-5.7568e-05,-559.39,2.0665
16125,21.243,4.6364,0,6.0523e-05,604.82,2.3943e-05,48.098,1.7544e-05,0.017138,-5.9561e-05,-579.32,2.0524
16126,21.243,4.7273,0.05,7.2035e-07,7.1986,5.5314e-07,4.1561,-6.7679e-13,3.2231e-06,-5.5314e-07,-4.1561,2.0524
16127,21.519,4.7273,0,5.4776e-05,547.39,2.2325e-05,51.583,1.5462e-05,0.01791,-5.3716e-05,-519.76,2.0949
16128,21.427,4.6364,0,5.6763e-05,567.24,2.2986e-05,51.618,1.6118e-05,0.019018,-5.5708e-05,-539.66,2.0808
16129,21.427,4.7273,0.05,7.194e-07,7.189,5.5241e-07,4.1506,-9.0352e-13,3.9061e-06,-5.5241e-07,-4.1506,2.0807
16130,21.703,4.7273,0,5.1055e-05,510.2,2.139e-05,55.252,1.4039e-05,0.020226,-4.989e-05,-480.31,2.1232
16131,21.611,4.6364,0,5.3041e-05,530.04,2.2057e-05,55.372,1.4691e-05,0.021244,-5.1881e-05,-500.17,2.1091
16132,21.611,4.7273,0.05,7.1875e-07,7.1825,5.5191e-07,4.1468,-2.1401e-13,5.0971e-06,-5.5191e-07,-4.1468,2.109
16133,21.886,4.7273,0,4.7377e-05,473.44,2.0487e-05,59.192,1.2613e-05,0.023021,-4.6091e-05,-441.06,2.1517
16134,21.794,4.6364,0,4.9361e-05,493.27,2.1162e-05,59.393,1.3261e-05,0.023904,-4.8082e-05,-460.88,2.1375
16135,21.794,4.7273,0.05,7.1844e-07,7.1795,5.5168e-07,4.1451,5.5013e-14,3.6318e-06,-5.5167e-07,-4.1451,2.1374
16136,22.07,4.7273,0,4.3749e-05,437.19,1.9622e-05,63.441,1.1182e-05,0.026443,-4.2323e-05,-401.99,2.1801
16137,21.978,4.6364,0,4.573e-05,456.98,2.0303e-05,63.716,1.1827e-05,0.027113,-4.4311e-05,-421.77,2.1659
16138,21.978,4.7273,0.05,7.1854e-07,7.1804,5.5175e-07,4.1456,5.3998e-14,3.8567e-07,-5.5175e-07,-4.1456,2.1659
16139,22.254,4.7273,0,4.0178e-05,401.5,1.88e-05,68.047,9.7472e-06,0.030703,-3.8585e-05,-363.12,2.2086
16140,22.162,4.6364,0,4.2153e-05,421.24,1.9485e-05,68.383,1.0388e-05,0.031054,-4.0571e-05,-382.85,2.1944
16141,22.162,4.7273,0.05,7.191e-07,7.1861,5.5218e-07,4.1489,-1.7161e-13,1.6152e-06,-5.5218e-07,-4.1489,2.1943
16142,22.438,4.7273,0,3.6675e-05,366.5,1.8024e-05,73.062,8.3053e-06,0.03611,-3.4882e-05,-324.45,2.2371
16143,22.346,4.6364,0,3.8641e-05,386.14,1.8712e-05,73.443,8.9425e-06,0.035969,-3.6863e-05,-344.13,2.2229
16144,22.346,4.7273,0.05,7.2024e-07,7.1974,5.5306e-07,4.1554,-3.0449e-13,1.2233e-06,-5.5306e-07,-4.1554,2.2228
16145,22.622,4.7273,0,3.3255e-05,332.32,1.7303e-05,78.55,6.8547e-06,0.043049,-3.1214e-05,-285.99,2.2656
16146,22.53,4.6364,0,3.5204e-05,351.8,1.7991e-05,78.95,7.489e-06,0.042253,-3.319e-05,-305.6,2.2514
16147,22.53,4.7273,0.05,7.2208e-07,7.2158,5.5447e-07,4.1661,-3.2658e-13,4.1701e-06,-5.5447e-07,-4.1661,2.2513
16148,22.805,4.7273,0,2.9936e-05,299.15,1.6643e-05,84.58,5.3931e-06,0.052467,-2.7586e-05,-247.74,2.2941
16149,22.713,4.6364,0,3.186e-05,318.38,1.7327e-05,84.964,6.0252e-06,0.050314,-2.9553e-05,-267.27,2.2799
16150,22.713,4.7273,0.05,7.248e-07,7.243,5.5656e-07,4.1818,-5.2701e-14,1.4194e-06,-5.5656e-07,-4.1818,2.2798
16151,22.989,4.7273,0,2.6744e-05,267.25,1.6051e-05,91.231,3.9179e-06,0.06469,-2.3997e-05,-209.68,2.3227
16152,22.897,4.6364,0,2.8631e-05,286.11,1.6726e-05,91.554,4.5488e-06,0.06171,-2.5953e-05,-229.11,2.3084
16153,22.897,4.7273,0.05,7.2864e-07,7.2814,5.5951e-07,4.2039,3.654e-14,6.8983e-06,-5.5951e-07,-4.2039,2.3084
16154,23.173,4.7273,0,2.3716e-05,237,1.5535e-05,98.581,2.426e-06,0.08566,-2.0449e-05,-171.79,2.3512
16155,23.081,4.6364,0,2.5547e-05,255.29,1.6194e-05,98.786,3.0567e-06,0.075699,-2.239e-05,-191.12,2.337
16156,23.081,4.7273,0.05,7.3389e-07,7.3338,5.6354e-07,4.2342,9.4672e-14,1.1184e-05,-5.6354e-07,-4.2342,2.3369
16157,23.357,4.7273,0,2.0905e-05,208.91,1.5099e-05,106.69,9.1267e-07,0.1062,-1.6937e-05,-134.01,2.3798
16158,23.265,4.6364,0,2.265e-05,226.35,1.5737e-05,106.73,1.5466e-06,0.10536,-1.8863e-05,-153.24,2.3656
16159,23.265,4.7273,0.05,7.409e-07,7.4039,5.6892e-07,4.2746,3.0122e-14,6.8986e-06,-5.6892e-07,-4.2746,2.3655
16160,23.541,4.7273,0,1.8389e-05,183.76,1.4745e-05,115.65,-6.2044e-07,0.19632,-1.3458e-05,-96.262,2.4084
16161,23.449,4.6364,0,2.0004e-05,199.9,1.5356e-05,115.41,1.2156e-08,0.1205,-1.5365e-05,-115.41,2.3942
16162,23.449,4.7273,0.05,7.5002e-07,7.495,5.7592e-07,4.3273,1.947e-13,1.0273e-05,-5.7592e-07,-4.3273,2.3941
16163,23.724,4.7273,0,1.6286e-05,162.74,1.4478e-05,125.42,-2.1911e-06,0.17715,-1.0005e-05,-58.532,2.437
16164,23.632,4.6364,0,1.7701e-05,176.89,1.5052e-05,124.93,-1.5353e-06,0.29725,-1.1894e-05,-77.535,2.4228
16165,23.632,4.7273,0.05,7.6218e-07,7.6166,5.8526e-07,4.3974,5.3417e-13,9.4062e-06,-5.8526e-07,-4.3974,2.4227
16166,23.816,4.6364,0,1.5884e-05,158.73,1.483e-05,135.13,-3.1354e-06,0.1462,-8.4441e-06,-39.741,2.4514
16167,23.816,4.7273,0.05,7.8888e-07,7.8834,6.0576e-07,4.5515,4.9595e-13,6.1613e-06,-6.0576e-07,-4.5515,2.4513
16168,23.908,4.7273,0,1.4742e-05,147.32,1.4234e-05,134.97,-3.6748e-06,0.4155,-6.7159e-06,-22.435,2.4656
16169,11.042,4.5455,0,0.0003743,3740.5,0.00021921,1197.6,5.8328e-05,-11.154,-0.00033916,-2997.7,0.62289
16170,10.95,4.4545,0,0.00046849,4681.7,0.0002963,1798.1,5.6129e-05,-6.4626,-0.00041114,-3517.4,0.61251
16171,10.95,4.5455,0.05,1.9226e-05,192.12,1.4763e-05,110.92,1.3223e-13,-2.3528e-14,-1.4763e-05,-110.92,0.61192
16172,10.859,4.5455,0,0.00032997,3297.5,0.00020989,1278.6,3.8076e-05,-12.312,-0.00028889,-2469,0.60104
16173,11.226,4.5455,0,0.0003358,3355.7,0.0001665,685.88,7.4842e-05,-2.7794,-0.00031883,-2960.7,0.64482
16174,11.134,4.4545,0,0.00038961,3893.4,0.00020343,928.59,7.9726e-05,-0.84164,-0.00036541,-3345.4,0.6343
16175,11.134,4.5455,0.05,1.1164e-05,111.56,8.5724e-06,64.41,7.5236e-13,5.7919e-06,-8.5724e-06,-64.41,0.63381
16176,11.41,4.5455,0,0.00031391,3136.9,0.00013508,381.98,8.3802e-05,-3.3344,-0.00030568,-2929.8,0.6669
16177,11.318,4.4545,0,0.00034979,3495.5,0.00015594,491.61,8.9664e-05,-6.3645,-0.00033886,-3226.1,0.65623
16178,11.318,4.5455,0.05,6.6893e-06,66.846,5.1365e-06,38.594,2.593e-13,1.9458e-05,-5.1365e-06,-38.594,0.65581
16179,11.594,4.5455,0,0.00029858,2983.7,0.00011482,194.92,8.8432e-05,-3.3386,-0.00029482,-2883,0.68913
16180,11.502,4.4545,0,0.00032388,3236.6,0.00012716,243.6,9.4322e-05,-3.1157,-0.00031909,-3109.3,0.67833
16181,11.502,4.5455,0.05,4.7327e-06,47.295,3.6341e-06,27.306,-7.7086e-22,3.4357e-06,-3.6341e-06,-27.306,0.67797
16182,11.778,4.5455,0,0.00028788,2876.8,0.00010215,83.392,9.0472e-05,-4.3652,-0.00028644,-2836.3,0.71154
16183,11.686,4.4545,0,0.0003062,3059.9,0.00010958,99.778,9.5658e-05,-4.791,-0.00030445,-3011,0.70061
16184,11.686,4.5455,0.05,3.5779e-06,35.754,2.7474e-06,20.643,4.3729e-12,3.7801e-05,-2.7474e-06,-20.643,0.70029
16185,11.961,4.5455,0,0.00027997,2797.8,9.4734e-05,21.976,9.0437e-05,-10.305,-0.00027976,-2791.8,0.73413
16186,11.869,4.4545,0,0.00029366,2934.6,9.9434e-05,23.086,9.4746e-05,-12.14,-0.00029346,-2929,0.72308
16187,11.869,4.5455,0.05,2.8754e-06,28.734,2.2079e-06,16.59,4.0604e-12,6.0085e-05,-2.2079e-06,-16.59,0.72279
16188,12.145,4.5455,0,0.00027367,2734.8,9.2327e-05,4.5101,8.7308e-05,-33.201,-0.00027414,-2749,0.7569
16189,12.053,4.4545,0,0.00028416,2839.6,9.6237e-05,4.2696,8.9978e-05,-42.759,-0.00028478,-2858.6,0.74574
16190,12.053,4.5455,0.05,2.3819e-06,23.802,1.829e-06,13.742,3.548e-12,6.0633e-05,-1.829e-06,-13.742,0.74547
16191,12.329,4.5455,0,0.00026824,2680.6,9.1373e-05,1.8727,8.3837e-05,-54.749,-0.0002691,-2706.5,0.77985
16192,12.237,4.4545,0,0.00027646,2762.7,9.4782e-05,1.8044,8.5351e-05,-69.054,-0.00027754,-2795.7,0.76858
16193,12.237,4.5455,0.05,2.0184e-06,20.17,1.5499e-06,11.645,3.0994e-12,2.4946e-05,-1.5499e-06,-11.645,0.76832
16194,12.513,4.5455,0,0.00026326,2630.8,9.0324e-05,1.0472,8.1092e-05,-68.322,-0.00026433,-2663.7,0.80298
16195,12.421,4.4545,0,0.00026985,2696.7,9.33e-05,1.0244,8.1888e-05,-84.721,-0.00027117,-2737.5,0.7916
16196,12.421,4.5455,0.05,1.7412e-06,17.399,1.337e-06,10.046,-1.084e-12,1.9906e-05,-1.337e-06,-10.046,0.79136
16197,12.697,4.5455,0,0.00025849,2583.1,8.9108e-05,0.66331,7.8867e-05,-76.282,-0.00025969,-2620.1,0.82628
16198,12.605,4.4545,0,0.0002639,2637.2,9.1721e-05,0.65888,7.9217e-05,-93.288,-0.00026535,-2682.2,0.81481
16199,12.605,4.5455,0.05,1.5276e-06,15.265,1.173e-06,8.8135,1.6975e-12,-1.0663e-05,-1.173e-06,-8.8135,0.81458
16200,12.88,4.5455,0,0.00025382,2536.5,8.7757e-05,0.44805,7.6977e-05,-80.556,-0.00025509,-2575.6,0.84976
16201,12.788,4.4545,0,0.00025835,2581.7,9.0068e-05,0.4511,7.7054e-05,-97.336,-0.00025986,-2628.8,0.83819
16202,12.788,4.5455,0.05,1.363e-06,13.62,1.0466e-06,7.8638,3.9919e-12,1.3057e-05,-1.0466e-06,-7.8638,0.83797
16203,13.064,4.5455,0,0.0002492,2490.2,8.6307e-05,0.31467,7.5303e-05,-82.364,-0.00025049,-2530.2,0.87341
16204,12.972,4.4545,0,0.00025306,2528.9,8.8368e-05,0.32067,7.522e-05,-98.465,-0.00025459,-2576.5,0.86175
16205,12.972,4.5455,0.05,1.2368e-06,12.36,9.4972e-07,7.1359,4.4765e-13,9.4164e-06,-9.4972e-07,-7.1358,0.86154
16206,13.248,4.5455,0,0.00024458,2444.2,8.4782e-05,0.22686,7.3776e-05,-82.468,-0.00024588,-2484.2,0.89723
16207,13.156,4.4545,0,0.00024796,2477.9,8.6636e-05,0.23353,7.3607e-05,-97.659,-0.00024947,-2525.2,0.88548
16208,13.156,4.5455,0.05,1.1409e-06,11.401,8.7607e-07,6.5824,4.1844e-12,5.617e-06,-8.7606e-07,-6.5824,0.88527
16209,13.432,4.5455,0,0.00023998,2398.2,8.3204e-05,0.16683,7.2355e-05,-81.35,-0.00024126,-2437.7,0.92121
16210,13.34,4.4545,0,0.00024299,2428.2,8.4887e-05,0.17309,7.2149e-05,-95.536,-0.00024447,-2474.5,0.90938
16211,13.34,4.5455,0.05,1.0685e-06,10.678,8.205e-07,6.1649,-5.7092e-13,2.2928e-06,-8.2049e-07,-6.1649,0.90918
16212,13.616,4.5455,0,0.00023539,2352.3,8.1587e-05,0.12471,7.1012e-05,-79.332,-0.00023664,-2390.9,0.94536
16213,13.524,4.4545,0,0.00023812,2379.6,8.3128e-05,0.13014,7.08e-05,-92.492,-0.00023956,-2424.4,0.93345
16214,13.524,4.5455,0.05,1.0142e-06,10.135,7.788e-07,5.8516,-6.6023e-13,-9.9302e-06,-7.788e-07,-5.8516,0.93324
16215,13.799,4.5455,0,0.00023082,2306.6,7.9943e-05,0.094603,6.973e-05,-76.642,-0.00023202,-2343.9,0.96967
16216,13.707,4.4545,0,0.00023334,2331.8,8.1366e-05,0.099073,6.9534e-05,-88.8,-0.00023472,-2374.8,0.95767
16217,13.707,4.5455,0.05,9.7353e-07,9.7285,7.4755e-07,5.6168,-2.7341e-12,-1.4966e-06,-7.4755e-07,-5.6168,0.95747
16218,13.983,4.5455,0,0.00022626,2261,7.828e-05,0.072747,6.8495e-05,-73.447,-0.00022742,-2296.8,0.99413
16219,13.891,4.4545,0,0.00022862,2284.6,7.9606e-05,0.076316,6.8329e-05,-84.649,-0.00022994,-2325.7,0.98205
16220,13.891,4.5455,0.05,9.4286e-07,9.4221,7.24e-07,5.4398,-3.6206e-13,-8.4068e-06,-7.24e-07,-5.4398,0.98186
16221,14.167,4.5455,0,0.00022172,2215.7,7.6606e-05,0.056674,6.7299e-05,-69.879,-0.00022283,-2249.8,1.0188
16222,14.075,4.4545,0,0.00022397,2238.1,7.785e-05,0.059478,6.717e-05,-80.185,-0.00022522,-2277.1,1.0066
16223,14.075,4.5455,0.05,9.1947e-07,9.1884,7.0605e-07,5.3049,-7.9758e-13,-7.1966e-06,-7.0604e-07,-5.3049,1.0064
16224,14.351,4.5455,0,0.0002172,2170.5,7.4927e-05,0.044725,6.6131e-05,-66.045,-0.00021825,-2202.8,1.0435
16225,14.259,4.4545,0,0.00021936,2192.1,7.6102e-05,0.046875,6.6045e-05,-75.517,-0.00022055,-2228.9,1.0313
16226,14.259,4.5455,0.05,9.013e-07,9.0068,6.9209e-07,5.2001,-2.09e-12,-4.2661e-06,-6.9209e-07,-5.2001,1.0311
16227,14.534,4.5455,0,0.00021271,2125.6,7.3246e-05,0.035797,6.4985e-05,-62.031,-0.00021369,-2155.9,1.0684
16228,14.443,4.4545,0,0.00021481,2146.6,7.4364e-05,0.037402,6.4945e-05,-70.734,-0.00021592,-2181.1,1.0561
16229,14.443,4.5455,0.05,8.8681e-07,8.862,6.8096e-07,5.1165,-1.0282e-12,-6.2913e-06,-6.8096e-07,-5.1165,1.0559
16230,14.718,4.5455,0,0.00020823,2080.9,7.1567e-05,0.029093,6.3856e-05,-57.911,-0.00020915,-2109.2,1.0935
16231,14.626,4.4545,0,0.00021029,2101.4,7.2636e-05,0.030282,6.3861e-05,-65.906,-0.00021133,-2133.6,1.0811
16232,14.626,4.5455,0.05,8.7493e-07,8.7432,6.7184e-07,5.0479,-2.1207e-12,-4.1854e-07,-6.7184e-07,-5.0479,1.0809
16233,14.902,4.5455,0,0.00020378,2036.4,6.9893e-05,0.024028,6.2737e-05,-53.743,-0.00020464,-2062.7,1.1187
16234,14.81,4.4545,0,0.0002058,2056.6,7.0921e-05,0.024896,6.2787e-05,-61.09,-0.00020677,-2086.5,1.1062
16235,14.81,4.5455,0.05,8.6488e-07,8.6429,6.6413e-07,4.99,-1.1679e-12,5.8929e-07,-6.6412e-07,-4.9899,1.1061
16236,15.086,4.5455,0,0.00019934,1992,6.8225e-05,0.020185,6.1624e-05,-49.578,-0.00020014,-2016.4,1.144
16237,14.994,4.4545,0,0.00020135,2012.1,6.9218e-05,0.020815,6.1718e-05,-56.33,-0.00020225,-2039.7,1.1315
16238,14.994,4.5455,0.05,8.5615e-07,8.5556,6.5742e-07,4.9396,-9.3075e-13,-2.9214e-07,-6.5741e-07,-4.9395,1.1313
16239,15.27,4.5455,0,0.00019493,1947.9,6.6565e-05,0.017243,6.0514e-05,-45.453,-0.00019566,-1970.2,1.1695
16240,15.178,4.4545,0,0.00019692,1967.9,6.7528e-05,0.017713,6.0649e-05,-51.662,-0.00019775,-1993.2,1.1569
16241,15.178,4.5455,0.05,8.4835e-07,8.4777,6.5143e-07,4.8946,-1.9977e-12,-1.1428e-06,-6.5143e-07,-4.8946,1.1567
16242,15.453,4.5455,0,0.00019053,1904,6.4915e-05,0.014982,5.9403e-05,-41.399,-0.0001912,-1924.3,1.1951
16243,15.362,4.4545,0,0.00019252,1923.8,6.5851e-05,0.015324,5.9579e-05,-47.112,-0.00019327,-1946.9,1.1825
16244,15.362,4.5455,0.05,8.4123e-07,8.4065,6.4596e-07,4.8535,-1.8626e-12,5.3906e-07,-6.4596e-07,-4.8535,1.1823
16245,15.637,4.5455,0,0.00018615,1860.2,6.3275e-05,0.013276,5.829e-05,-37.441,-0.00018675,-1878.6,1.2209
16246,15.545,4.4545,0,0.00018813,1880,6.4187e-05,0.013506,5.8503e-05,-42.699,-0.00018882,-1901,1.2081
16247,15.545,4.5455,0.05,8.3461e-07,8.3403,6.4088e-07,4.8153,-9.5124e-13,7.0779e-07,-6.4087e-07,-4.8153,1.2079
16248,15.821,4.5455,0,0.00018178,1816.6,6.1645e-05,0.012015,5.7172e-05,-33.593,-0.00018233,-1833.1,1.2467
16249,15.729,4.4545,0,0.00018377,1836.4,6.2537e-05,0.01217,5.742e-05,-38.436,-0.00018439,-1855.3,1.2339
16250,15.729,4.5455,0.05,8.2837e-07,8.278,6.3608e-07,4.7793,-1.4034e-12,-6.9534e-08,-6.3608e-07,-4.7793,1.2337
16251,16.005,4.5455,0,0.00017743,1773.1,6.0026e-05,0.011098,5.605e-05,-29.869,-0.00017792,-1787.8,1.2727
16252,15.913,4.4545,0,0.00017942,1792.9,6.0901e-05,0.011196,5.633e-05,-34.332,-0.00017998,-1809.8,1.2598
16253,15.913,4.5455,0.05,8.2244e-07,8.2187,6.3154e-07,4.7451,-1.4103e-12,1.6707e-06,-6.3153e-07,-4.7451,1.2597
16254,16.189,4.5455,0,0.0001731,1729.8,5.8419e-05,0.010459,5.4921e-05,-26.273,-0.00017353,-1742.7,1.2988
16255,16.097,4.4545,0,0.00017508,1749.6,5.9277e-05,0.010512,5.5231e-05,-30.389,-0.00017558,-1764.6,1.2859
16256,16.097,4.5455,0.05,8.1678e-07,8.1621,6.2718e-07,4.7124,-1.442e-12,1.93e-06,-6.2718e-07,-4.7124,1.2857
16257,16.372,4.5455,0,0.00016877,1686.6,5.6822e-05,0.010034,5.3785e-05,-22.81,-0.00016915,-1697.9,1.325
16258,16.281,4.4545,0,0.00017076,1706.5,5.7666e-05,0.01006,5.4123e-05,-26.609,-0.0001712,-1719.6,1.312
16259,16.281,4.5455,0.05,8.1134e-07,8.1078,6.2301e-07,4.681,-9.7387e-13,2.1923e-06,-6.2301e-07,-4.681,1.3119
16260,16.556,4.5455,0,0.00016447,1643.5,5.5237e-05,0.0097981,5.2643e-05,-19.479,-0.00016479,-1653.2,1.3514
16261,16.464,4.4545,0,0.00016646,1663.5,5.6068e-05,0.0097747,5.3007e-05,-22.986,-0.00016684,-1674.8,1.3383
16262,16.464,4.5455,0.05,8.061e-07,8.0554,6.1898e-07,4.6508,-1.4218e-12,1.9092e-06,-6.1898e-07,-4.6508,1.3382
16263,16.74,4.5455,0,0.00016017,1600.6,5.3663e-05,0.0097796,5.1495e-05,-16.276,-0.00016045,-1608.7,1.3778
16264,16.648,4.4545,0,0.00016217,1620.6,5.4481e-05,0.0096695,5.1882e-05,-19.517,-0.00016249,-1630.3,1.3647
16265,16.648,4.5455,0.05,8.0102e-07,8.0047,6.1508e-07,4.6215,-5.0766e-13,1.4315e-06,-6.1508e-07,-4.6215,1.3646
16266,16.924,4.5455,0,0.0001559,1557.9,5.2099e-05,0.01001,5.0341e-05,-13.196,-0.00015612,-1564.4,1.4044
16267,16.832,4.4545,0,0.0001579,1577.9,5.2906e-05,0.0097778,5.075e-05,-16.194,-0.00015816,-1585.9,1.3912
16268,16.832,4.5455,0.05,7.9611e-07,7.9556,6.1131e-07,4.5932,-9.2422e-13,1.1511e-06,-6.1131e-07,-4.5931,1.3911
16269,17.108,4.5455,0,0.00015163,1515.3,5.0546e-05,0.010561,4.9182e-05,-10.234,-0.0001518,-1520.4,1.431
16270,17.016,4.4545,0,0.00015363,1535.3,5.1343e-05,0.010112,4.961e-05,-13.007,-0.00015385,-1541.7,1.4178
16271,17.016,4.5455,0.05,7.9135e-07,7.9081,6.0766e-07,4.5658,-9.2597e-13,1.8545e-06,-6.0766e-07,-4.5657,1.4177
16272,17.291,4.5455,0,0.00014738,1472.8,4.9002e-05,0.011672,4.8019e-05,-7.3798,-0.00014751,-1476.5,1.4578
16273,17.2,4.4545,0,0.00014939,1492.8,4.979e-05,0.010769,4.8465e-05,-9.9472,-0.00014955,-1497.8,1.4445
16274,17.2,4.5455,0.05,7.8675e-07,7.8621,6.0413e-07,4.5392,-1.3751e-12,2.3225e-06,-6.0413e-07,-4.5392,1.4444
16275,17.475,4.5455,0,0.00014315,1430.5,4.7469e-05,0.014141,4.6852e-05,-4.6264,-0.00014323,-1432.8,1.4846
16276,17.383,4.4545,0,0.00014515,1450.5,4.8248e-05,0.012021,4.7314e-05,-7.0037,-0.00014527,-1454,1.4713
16277,17.383,4.5455,0.05,7.823e-07,7.8176,6.0071e-07,4.5135,-4.589e-13,1.9835e-06,-6.0071e-07,-4.5135,1.4712
16278,17.659,4.5455,0,0.00013893,1388.3,4.5946e-05,0.023103,4.5681e-05,-1.9684,-0.00013896,-1389.3,1.5116
16279,17.567,4.4545,0,0.00014094,1408.4,4.6716e-05,0.014875,4.616e-05,-4.166,-0.00014101,-1410.5,1.4982
16280,17.567,4.5455,0.05,7.7799e-07,7.7746,5.974e-07,4.4887,-9.1152e-13,2.9596e-06,-5.974e-07,-4.4886,1.4981
16281,17.843,4.5455,0,0.00013473,1346.3,4.4519e-05,0.68144,4.4423e-05,-0.038038,-0.00013472,-1346,1.5387
16282,17.751,4.4545,0,0.00013673,1366.4,4.5195e-05,0.028109,4.5001e-05,-1.4308,-0.00013676,-1367.1,1.5252
16283,17.751,4.5455,0.05,7.7381e-07,7.7327,5.9419e-07,4.4645,-4.5701e-13,2.6349e-06,-5.9419e-07,-4.4645,1.5251
16284,18.027,4.5455,0,0.00013054,1304.5,4.3343e-05,3.1669,4.2921e-05,-0.001981,-0.00013049,-1302.9,1.5658
16285,17.935,4.4545,0,0.00013255,1324.5,4.3848e-05,1.2806,4.3676e-05,-0.014426,-0.00013252,-1323.9,1.5523
16286,17.935,4.5455,0.05,7.6976e-07,7.6923,5.9108e-07,4.4411,-9.0742e-13,3.5566e-06,-5.9108e-07,-4.4411,1.5522
16287,18.21,4.5455,0,0.00012637,1262.8,4.2172e-05,5.6284,4.1424e-05,0.0024686,-0.00012627,-1260,1.593
16288,18.119,4.4545,0,0.00012838,1282.9,4.2687e-05,3.8672,4.2172e-05,0.00097442,-0.00012831,-1280.9,1.5795
16289,18.119,4.5455,0.05,7.6584e-07,7.6531,5.8807e-07,4.4185,-9.0947e-13,2.6077e-06,-5.8807e-07,-4.4185,1.5794
16290,18.394,4.5455,0,0.00012222,1221.3,4.1004e-05,8.0486,3.9933e-05,0.0043414,-0.00012208,-1217.3,1.6203
16291,18.302,4.4545,0,0.00012422,1241.4,4.1529e-05,6.412,4.0676e-05,0.004198,-0.00012411,-1238.1,1.6068
16292,18.302,4.5455,0.05,7.6205e-07,7.6153,5.8516e-07,4.3967,-9.0949e-13,2.083e-06,-5.8516e-07,-4.3967,1.6067
16293,18.578,4.5455,0,0.00011808,1180,3.9839e-05,10.438,3.845e-05,0.0054681,-0.0001179,-1174.8,1.6477
16294,18.486,4.4545,0,0.00012009,1200,4.0373e-05,8.9174,3.9187e-05,0.005754,-0.00011993,-1195.6,1.6341
16295,18.486,4.5455,0.05,7.584e-07,7.5788,5.8236e-07,4.3756,-9.122e-13,1.5686e-06,-5.8236e-07,-4.3756,1.634
16296,18.762,4.5455,0,0.00011397,1138.9,3.8678e-05,12.807,3.6974e-05,0.0062907,-0.00011375,-1132.4,1.6752
16297,18.67,4.4545,0,0.00011597,1158.9,3.9221e-05,11.396,3.7705e-05,0.0067641,-0.00011577,-1153.2,1.6616
16298,18.67,4.5455,0.05,7.5488e-07,7.5436,5.7966e-07,4.3553,-9.1391e-13,3.0611e-06,-5.7966e-07,-4.3553,1.6615
16299,18.946,4.5455,0,0.00010987,1098,3.7523e-05,15.17,3.5505e-05,0.0069913,-0.00010961,-1090.3,1.7028
16300,18.854,4.4545,0,0.00011187,1117.9,3.8073e-05,13.86,3.623e-05,0.0075567,-0.00011163,-1110.9,1.6891
16301,18.854,4.5455,0.05,7.5149e-07,7.5097,5.7705e-07,4.3357,-1.3666e-12,1.706e-06,-5.7705e-07,-4.3357,1.689
16302,19.129,4.5455,0,0.0001058,1057.2,3.6374e-05,17.539,3.4041e-05,0.0076473,-0.00010549,-1048.4,1.7304
16303,19.038,4.4545,0,0.00010779,1077.2,3.6932e-05,16.323,3.4761e-05,0.0082752,-0.00010751,-1068.9,1.7167
16304,19.038,4.5455,0.05,7.4822e-07,7.477,5.7454e-07,4.3169,-1.3713e-12,2.8893e-06,-5.7454e-07,-4.3168,1.7166
16305,19.313,4.5455,0,0.00010174,1016.7,3.5234e-05,19.926,3.2584e-05,0.0082894,-0.00010139,-1006.6,1.7581
16306,19.221,4.4545,0,0.00010374,1036.6,3.5799e-05,18.799,3.3298e-05,0.0089648,-0.0001034,-1027.1,1.7443
16307,19.221,4.5455,0.05,7.4509e-07,7.4458,5.7214e-07,4.2988,-1.3946e-12,1.9669e-06,-5.7213e-07,-4.2988,1.7442
16308,19.497,4.5455,0,9.7707e-05,976.4,3.4104e-05,22.345,3.1131e-05,0.0089433,-9.7308e-05,-965.03,1.7859
16309,19.405,4.4545,0,9.9699e-05,996.3,3.4674e-05,21.302,3.1841e-05,0.0096534,-9.9319e-05,-985.47,1.7721
16310,19.405,4.5455,0.05,7.421e-07,7.4159,5.6984e-07,4.2816,-9.3872e-13,3.1453e-06,-5.6984e-07,-4.2815,1.772
16311,19.681,4.5455,0,9.3695e-05,936.3,3.2984e-05,24.809,2.9683e-05,0.0096165,-9.3248e-05,-923.65,1.8137
16312,19.589,4.4545,0,9.5684e-05,956.18,3.356e-05,23.846,3.0388e-05,0.010366,-9.5256e-05,-944.03,1.7999
16313,19.589,4.5455,0.05,7.3926e-07,7.3875,5.6766e-07,4.2652,-9.417e-13,5.4278e-06,-5.6766e-07,-4.2651,1.7998
16314,19.865,4.5455,0,8.9706e-05,896.44,3.1876e-05,27.333,2.824e-05,0.010323,-8.921e-05,-882.46,1.8416
16315,19.773,4.4545,0,9.1693e-05,916.29,3.2458e-05,26.446,2.894e-05,0.011096,-9.1214e-05,-902.78,1.8277
16316,19.773,4.5455,0.05,7.3656e-07,7.3605,5.6559e-07,4.2496,-9.3787e-13,4.2737e-06,-5.6559e-07,-4.2496,1.8276
16317,20.048,4.5455,0,8.5741e-05,856.82,3.0782e-05,29.93,2.68e-05,0.011097,-8.5192e-05,-841.45,1.8695
16318,19.956,4.4545,0,8.7725e-05,876.64,3.137e-05,29.117,2.7496e-05,0.011879,-8.7193e-05,-861.72,1.8556
16319,19.956,4.5455,0.05,7.3402e-07,7.3351,5.6364e-07,4.2349,-9.1893e-13,4.175e-06,-5.6363e-07,-4.2349,1.8555
16320,20.232,4.5455,0,8.18e-05,817.44,2.9703e-05,32.618,2.5363e-05,0.011954,-8.1196e-05,-800.64,1.8976
16321,20.14,4.4545,0,8.3782e-05,837.24,3.0296e-05,31.875,2.6055e-05,0.012749,-8.3194e-05,-820.84,1.8836
16322,20.14,4.5455,0.05,7.3163e-07,7.3113,5.618e-07,4.2212,-9.3196e-13,2.8852e-06,-5.618e-07,-4.2212,1.8835
16323,20.416,4.5455,0,7.7886e-05,778.32,2.8641e-05,35.411,2.3929e-05,0.012908,-7.7223e-05,-760.01,1.9256
16324,20.324,4.4545,0,7.9865e-05,798.1,2.9239e-05,34.736,2.4617e-05,0.013707,-7.9217e-05,-780.16,1.9117
16325,20.324,4.5455,0.05,7.2942e-07,7.2892,5.6011e-07,4.2084,-9.2073e-13,2.3121e-06,-5.6011e-07,-4.2084,1.9116
16326,20.6,4.5455,0,7.3999e-05,739.48,2.7597e-05,38.326,2.2498e-05,0.013977,-7.3272e-05,-719.56,1.9537
16327,20.508,4.4545,0,7.5975e-05,759.23,2.82e-05,37.718,2.3182e-05,0.014773,-7.5263e-05,-739.66,1.9398
16328,20.508,4.5455,0.05,7.274e-07,7.269,5.5856e-07,4.1968,-6.9379e-13,1.8966e-06,-5.5855e-07,-4.1967,1.9397
16329,20.784,4.5455,0,7.014e-05,700.92,2.6573e-05,41.383,2.1067e-05,0.015175,-6.9344e-05,-679.3,1.9819
16330,20.692,4.4545,0,7.2115e-05,720.65,2.7181e-05,40.839,2.1748e-05,0.015968,-7.1333e-05,-699.35,1.9679
16331,20.692,4.5455,0.05,7.2558e-07,7.2508,5.5716e-07,4.1863,-8.8947e-13,3.9323e-06,-5.5715e-07,-4.1862,1.9678
16332,20.967,4.5455,0,6.6312e-05,662.66,2.5572e-05,44.601,1.9638e-05,0.016533,-6.544e-05,-639.23,2.0101
16333,20.875,4.4545,0,6.8284e-05,682.37,2.6184e-05,44.12,2.0314e-05,0.017303,-6.7426e-05,-659.23,1.9961
16334,20.875,4.5455,0.05,7.2398e-07,7.2348,5.5593e-07,4.177,-4.4132e-13,3.8869e-06,-5.5592e-07,-4.177,1.996
16335,21.151,4.5455,0,6.2516e-05,624.73,2.4595e-05,48.002,1.8209e-05,0.0181,-6.1561e-05,-599.34,2.0384
16336,21.059,4.4545,0,6.4486e-05,644.41,2.5212e-05,47.582,1.8881e-05,0.018823,-6.3544e-05,-619.3,2.0243
16337,21.059,4.5455,0.05,7.226e-07,7.2211,5.5487e-07,4.1691,-4.7968e-13,4.0794e-06,-5.5487e-07,-4.1691,2.0242
16338,21.335,4.5455,0,5.8756e-05,587.15,2.3645e-05,51.61,1.6778e-05,0.019927,-5.7707e-05,-559.64,2.0667
16339,21.243,4.4545,0,6.0723e-05,606.81,2.4266e-05,51.249,1.7448e-05,0.020585,-5.9688e-05,-579.55,2.0526
16340,21.243,4.5455,0.05,7.2149e-07,7.2099,5.5402e-07,4.1627,-7.0558e-13,2.7395e-06,-5.5402e-07,-4.1626,2.0525
16341,21.519,4.5455,0,5.5033e-05,549.95,2.2724e-05,55.452,1.5347e-05,0.022066,-5.388e-05,-520.12,2.095
16342,21.427,4.4545,0,5.6997e-05,569.57,2.3349e-05,55.145,1.6013e-05,0.022632,-5.5858e-05,-539.99,2.0809
16343,21.427,4.5455,0.05,7.2067e-07,7.2017,5.5339e-07,4.1579,-6.6645e-13,3.9632e-06,-5.5339e-07,-4.1579,2.0808
16344,21.703,4.5455,0,5.1353e-05,513.17,2.1836e-05,59.558,1.3913e-05,0.024596,-5.0079e-05,-480.78,2.1234
16345,21.611,4.4545,0,5.3312e-05,532.75,2.2465e-05,59.3,1.4576e-05,0.025031,-5.2055e-05,-500.61,2.1093
16346,21.611,4.5455,0.05,7.2018e-07,7.1968,5.5301e-07,4.1551,-1.8471e-13,4.2898e-06,-5.5301e-07,-4.1551,2.1092
16347,21.886,4.5455,0,4.7719e-05,476.86,2.0984e-05,63.963,1.2475e-05,0.027619,-4.6307e-05,-441.64,2.1518
16348,21.794,4.4545,0,4.9672e-05,496.38,2.1615e-05,63.746,1.3135e-05,0.027873,-4.828e-05,-461.42,2.1376
16349,21.794,4.5455,0.05,7.2007e-07,7.1957,5.5292e-07,4.1545,-4.0161e-13,2.9058e-06,-5.5292e-07,-4.1544,2.1376
16350,22.07,4.5455,0,4.4138e-05,441.07,2.0172e-05,68.703,1.1032e-05,0.03128,-4.2566e-05,-402.68,2.1802
16351,21.978,4.4545,0,4.6084e-05,460.52,2.0805e-05,68.518,1.169e-05,0.031271,-4.4534e-05,-422.41,2.1661
16352,21.978,4.5455,0.05,7.2039e-07,7.1989,5.5317e-07,4.1563,-1.9045e-13,-1.8769e-07,-5.5317e-07,-4.1563,2.166
16353,22.254,4.5455,0,4.0618e-05,405.9,1.9404e-05,73.824,9.583e-06,0.035787,-3.8855e-05,-363.91,2.2087
16354,22.162,4.4545,0,4.2553e-05,425.24,2.0037e-05,73.655,1.0238e-05,0.035406,-4.0819e-05,-383.59,2.1945
16355,22.162,4.5455,0.05,7.2121e-07,7.2071,5.538e-07,4.161,6.6626e-14,2.4289e-06,-5.538e-07,-4.161,2.1944
16356,22.438,4.5455,0,3.717e-05,371.44,1.8684e-05,79.373,8.1261e-06,0.041452,-3.5177e-05,-325.32,2.2372
16357,22.346,4.4545,0,3.909e-05,390.63,1.9315e-05,79.201,8.7796e-06,0.040524,-3.7135e-05,-344.94,2.223
16358,22.346,4.5455,0.05,7.2264e-07,7.2214,5.549e-07,4.1693,-8.5186e-14,1.2297e-06,-5.549e-07,-4.1693,2.2229
16359,22.622,4.5455,0,3.3806e-05,337.83,1.802e-05,85.404,6.6594e-06,0.048663,-3.1533e-05,-286.92,2.2657
16360,22.53,4.4545,0,3.5705e-05,356.8,1.8645e-05,85.203,7.3116e-06,0.04702,-3.3484e-05,-306.47,2.2515
16361,22.53,4.5455,0.05,7.248e-07,7.243,5.5656e-07,4.1818,-9.0434e-14,3.1408e-06,-5.5656e-07,-4.1817,2.2514
16362,22.805,4.5455,0,3.0547e-05,305.26,1.7414e-05,91.974,5.1807e-06,0.058384,-2.7924e-05,-248.68,2.2942
16363,22.713,4.4545,0,3.2415e-05,323.92,1.8031e-05,91.712,5.8324e-06,0.055313,-2.9865e-05,-268.16,2.28
16364,22.713,4.5455,0.05,7.2785e-07,7.2734,5.589e-07,4.1993,-1.2703e-14,1.6778e-06,-5.589e-07,-4.1993,2.2799
16365,22.989,4.5455,0,2.7416e-05,273.97,1.6873e-05,99.141,3.6873e-06,0.070965,-2.4349e-05,-210.59,2.3228
16366,22.897,4.4545,0,2.924e-05,292.2,1.7477e-05,98.779,4.3396e-06,0.066982,-2.6279e-05,-229.99,2.3086
16367,22.897,4.5455,0.05,7.3197e-07,7.3147,5.6206e-07,4.2231,5.1184e-14,7.1864e-06,-5.6206e-07,-4.2231,2.3085
16368,23.173,4.5455,0,2.445e-05,244.33,1.64e-05,106.96,2.1769e-06,0.092437,-2.0807e-05,-172.6,2.3514
16369,23.081,4.4545,0,2.6211e-05,261.93,1.6988e-05,106.45,2.8307e-06,0.081319,-2.2724e-05,-191.93,2.3371
16370,23.081,4.5455,0.05,7.3739e-07,7.3688,5.6623e-07,4.2544,3.2435e-13,1.0373e-05,-5.6623e-07,-4.2544,2.3371
16371,23.357,4.5455,0,2.1698e-05,216.83,1.5998e-05,115.47,6.4525e-07,0.11367,-1.7292e-05,-134.66,2.3799
16372,23.265,4.4545,0,2.3369e-05,233.53,1.6565e-05,114.78,1.3037e-06,0.11153,-1.9196e-05,-153.92,2.3657
16373,23.265,4.5455,0.05,7.4436e-07,7.4384,5.7157e-07,4.2946,1.7071e-13,5.2681e-06,-5.7157e-07,-4.2946,2.3656
16374,23.541,4.5455,0,1.9237e-05,192.23,1.5666e-05,124.71,-9.0484e-07,0.2055,-1.3801e-05,-96.689,2.4085
16375,23.449,4.4545,0,2.0774e-05,207.59,1.6208e-05,123.76,-2.4672e-07,0.12742,-1.569e-05,-115.9,2.3943
16376,23.449,4.5455,0.05,7.5305e-07,7.5253,5.7825e-07,4.3448,4.2762e-13,8.5347e-06,-5.7825e-07,-4.3447,2.3942
16377,23.724,4.5455,0,1.7177e-05,171.65,1.5406e-05,134.65,-2.4897e-06,0.1907,-1.0325e-05,-58.683,2.4371
16378,23.632,4.4545,0,1.8516e-05,185.03,1.5916e-05,133.48,-1.8083e-06,0.30672,-1.2203e-05,-77.793,2.4229
16379,23.632,4.5455,0.05,7.6414e-07,7.6361,5.8677e-07,4.4087,2.1245e-13,1.1252e-05,-5.8677e-07,-4.4087,2.4228
16380,23.816,4.4545,0,1.6728e-05,167.16,1.5693e-05,143.77,-3.419e-06,0.16331,-8.7293e-06,-39.736,2.4515
16381,23.816,4.5455,0.05,7.8699e-07,7.8645,6.0431e-07,4.5406,4.8488e-13,5.2897e-06,-6.0431e-07,-4.5406,2.4514
16382,23.908,4.5455,0,1.5673e-05,156.62,1.5173e-05,144.37,-3.9848e-06,0.42091,-7.0253e-06,-22.424,2.4658
16383,11.042,4.3636,0,0.00047109,4707.6,0.00027194,1464.6,7.7484e-05,3.5247,-0.00042877,-3800.3,0.62389
16384,10.95,4.2727,0,0.00061998,6195.5,0.00037558,2129.7,8.4531e-05,-57.161,-0.00055504,-4862.7,0.61361
16385,10.95,4.3636,0.05,2.9155e-05,291.35,2.2388e-05,168.21,3.8723e-12,6.0283e-06,-2.2388e-05,-168.21,0.61303
16386,10.859,4.3636,0,0.00042517,4248.7,0.00026639,1629.2,5.6566e-05,52.731,-0.000374,-3182.4,0.60225
16387,11.226,4.3636,0,0.00039921,3989.4,0.00018978,711.08,9.4549e-05,-4.4214,-0.00038235,-3587.6,0.64565
16388,11.134,4.2727,0,0.00046978,4694.5,0.00022951,920.28,0.00010751,3.6058,-0.00044729,-4165,0.63519
16389,11.134,4.3636,0.05,1.1445e-05,114.37,8.7886e-06,66.034,-1.8642e-21,1.9657e-05,-8.7886e-06,-66.034,0.63472
16390,11.41,4.3636,0,0.00035749,3572.5,0.00014628,340.24,0.0001002,-6.0315,-0.00035055,-3392.8,0.6676
16391,11.318,4.2727,0,0.0004002,3999.2,0.00016598,407.51,0.00011068,-8.0075,-0.00039178,-3783.3,0.65697
16392,11.318,4.3636,0.05,6.9911e-06,69.863,5.3683e-06,40.335,4.3893e-13,2.5314e-06,-5.3683e-06,-40.335,0.65658
16393,11.594,4.3636,0,0.00033025,3300.2,0.00012086,140.55,0.00010158,-4.3167,-0.00032769,-3229.7,0.68975
16394,11.502,4.2727,0,0.00035996,3597.2,0.00013278,166.24,0.00011012,-4.0173,-0.0003569,-3513,0.67896
16395,11.502,4.3636,0.05,5.0703e-06,50.668,3.8934e-06,29.253,1.1595e-12,1.2614e-07,-3.8934e-06,-29.253,0.67862
16396,11.778,4.3636,0,0.00031125,3110.4,0.00010604,33.359,0.00010012,-11.125,-0.00031085,-3099,0.71209
16397,11.686,4.2727,0,0.00033276,3325.3,0.0001135,37.345,0.00010698,-11.6,-0.00033229,-3312.1,0.70116
16398,11.686,4.3636,0.05,3.9237e-06,39.21,3.0129e-06,22.638,6.2089e-15,-2.4478e-06,-3.0129e-06,-22.638,0.70086
16399,11.961,4.3636,0,0.00029742,2972.2,0.00010088,4.9704,9.3964e-05,-47.014,-0.00029811,-2992.9,0.73462
16400,11.869,4.2727,0,0.0003135,3132.8,0.00010658,4.9145,9.8595e-05,-55.08,-0.00031431,-3157.5,0.72357
16401,11.869,4.3636,0.05,3.2217e-06,32.195,2.4739e-06,18.588,2.6495e-12,2.2812e-05,-2.4739e-06,-18.588,0.7233
16402,12.145,4.3636,0,0.00028671,2865.1,9.874e-05,1.9297,8.7748e-05,-80.661,-0.00028796,-2903.6,0.75735
16403,12.053,4.2727,0,0.00029901,2988,0.00010351,1.8798,9.0585e-05,-95.199,-0.00030048,-3033.5,0.74618
16404,12.053,4.3636,0.05,2.7053e-06,27.034,2.0773e-06,15.608,2.1815e-12,4.5598e-05,-2.0773e-06,-15.608,0.74594
16405,12.329,4.3636,0,0.00027794,2777.5,9.6725e-05,1.0803,8.3255e-05,-100.13,-0.00027949,-2825.6,0.78027
16406,12.237,4.2727,0,0.00028755,2873.5,0.00010076,1.066,8.4922e-05,-117.95,-0.00028935,-2930.1,0.76899
16407,12.237,4.3636,0.05,2.3138e-06,23.122,1.7767e-06,13.349,-2.1038e-12,-1.038e-05,-1.7767e-06,-13.349,0.76876
16408,12.513,4.3636,0,0.00027042,2702.3,9.4704e-05,0.69175,7.9932e-05,-110.3,-0.00027211,-2755.4,0.80338
16409,12.421,4.2727,0,0.00027807,2778.8,9.8158e-05,0.68715,8.0836e-05,-129.47,-0.00028003,-2840.9,0.79199
16410,12.421,4.3636,0.05,2.0085e-06,20.072,1.5423e-06,11.588,-1.8201e-12,3.3322e-05,-1.5423e-06,-11.588,0.79177
16411,12.697,4.3636,0,0.00026372,2635.4,9.2685e-05,0.47547,7.7359e-05,-114.68,-0.00026547,-2690.6,0.82666
16412,12.605,4.2727,0,0.00026992,2697.4,9.5671e-05,0.4775,7.7769e-05,-134.03,-0.00027194,-2761.6,0.81517
16413,12.605,4.3636,0.05,1.767e-06,17.658,1.3568e-06,10.195,3.1295e-12,7.5222e-06,-1.3568e-06,-10.195,0.81497
16414,12.88,4.3636,0,0.00025757,2574,9.0681e-05,0.33973,7.5274e-05,-115.42,-0.00025934,-2629.6,0.85013
16415,12.788,4.2727,0,0.0002627,2625.2,9.3286e-05,0.34416,7.537e-05,-134.27,-0.00026472,-2689.6,0.83854
16416,12.788,4.3636,0.05,1.5746e-06,15.735,1.2091e-06,9.0845,2.0883e-12,6.2852e-06,-1.2091e-06,-9.0845,0.83835
16417,13.064,4.3636,0,0.00025183,2516.5,8.8698e-05,0.24884,7.3514e-05,-113.84,-0.00025356,-2571.4,0.87377
16418,12.972,4.2727,0,0.00025615,2559.7,9.0994e-05,0.25414,7.3419e-05,-131.79,-0.00025813,-2622.9,0.86209
16419,12.972,4.3636,0.05,1.4211e-06,14.202,1.0913e-06,8.1993,5.5143e-12,5.3544e-06,-1.0913e-06,-8.1993,0.8619
16420,13.248,4.3636,0,0.00024637,2462,8.6741e-05,0.18532,7.1975e-05,-110.76,-0.00024806,-2515.4,0.89758
16421,13.156,4.2727,0,0.00025008,2499.1,8.8783e-05,0.19048,7.1774e-05,-127.61,-0.000252,-2560.3,0.88581
16422,13.156,4.3636,0.05,1.2991e-06,12.982,9.9752e-07,7.495,-2.7322e-12,1.3274e-05,-9.9752e-07,-7.495,0.88563
16423,13.432,4.3636,0,0.00024113,2409.6,8.4811e-05,0.13981,7.0593e-05,-106.69,-0.00024277,-2461.1,0.92156
16424,13.34,4.2727,0,0.00024439,2442.2,8.6644e-05,0.14436,7.0342e-05,-122.35,-0.00024624,-2501,0.90971
16425,13.34,4.3636,0.05,1.2023e-06,12.015,9.2322e-07,6.9368,-2.218e-12,1.1087e-05,-9.2322e-07,-6.9367,0.90952
16426,13.616,4.3636,0,0.00023607,2359.1,8.2907e-05,0.10663,6.9324e-05,-101.95,-0.00023764,-2408.3,0.9457
16427,13.524,4.2727,0,0.00023898,2388.2,8.4569e-05,0.11044,6.906e-05,-116.41,-0.00024075,-2444.2,0.93377
16428,13.524,4.3636,0.05,1.1259e-06,11.251,8.6453e-07,6.4958,-1.0897e-12,6.7229e-06,-8.6453e-07,-6.4957,0.93359
16429,13.799,4.3636,0,0.00023114,2309.9,8.1029e-05,0.082153,6.8135e-05,-96.795,-0.00023264,-2356.7,0.97001
16430,13.707,4.2727,0,0.0002338,2336.4,8.255e-05,0.085211,6.7886e-05,-110.09,-0.00023548,-2389.4,0.95799
16431,13.707,4.3636,0.05,1.0656e-06,10.649,8.1827e-07,6.1481,-2.1875e-12,-9.4986e-06,-8.1827e-07,-6.1481,0.95781
16432,13.983,4.3636,0,0.00022633,2261.8,7.9176e-05,0.063939,6.7006e-05,-91.373,-0.00022775,-2306,0.99447
16433,13.891,4.2727,0,0.0002288,2286.4,8.0579e-05,0.066318,6.6788e-05,-103.56,-0.00023038,-2336.4,0.98237
16434,13.891,4.3636,0.05,1.0181e-06,10.174,7.8177e-07,5.8739,-1.5786e-12,-8.4088e-06,-7.8177e-07,-5.8739,0.98219
16435,14.167,4.3636,0,0.00022161,2214.6,7.7346e-05,0.050273,6.5919e-05,-85.808,-0.00022295,-2256.2,1.0191
16436,14.075,4.2727,0,0.00022393,2237.8,7.8653e-05,0.052096,6.5742e-05,-96.956,-0.00022542,-2284.7,1.0069
16437,14.075,4.3636,0.05,9.8047e-07,9.798,7.5288e-07,5.6569,-2.2597e-12,-7.1853e-06,-7.5288e-07,-5.6569,1.0067
16438,14.351,4.3636,0,0.00021697,2168.2,7.554e-05,0.039954,6.4861e-05,-80.192,-0.00021822,-2207.2,1.0438
16439,14.259,4.2727,0,0.00021919,2190.4,7.6766e-05,0.041308,6.4731e-05,-90.381,-0.00022058,-2234.1,1.0316
16440,14.259,4.3636,0.05,9.5046e-07,9.4981,7.2984e-07,5.4837,-1.0462e-12,-6.381e-06,-7.2984e-07,-5.4837,1.0314
16441,14.534,4.3636,0,0.00021239,2122.5,7.3755e-05,0.032164,6.3822e-05,-74.596,-0.00021356,-2158.8,1.0688
16442,14.443,4.2727,0,0.00021453,2143.8,7.4913e-05,0.033122,6.3742e-05,-83.902,-0.00021583,-2184.5,1.0564
16443,14.443,4.3636,0.05,9.2627e-07,9.2563,7.1126e-07,5.3441,-9.5896e-13,-4.5984e-06,-7.1125e-07,-5.3441,1.0563
16444,14.718,4.3636,0,0.00020786,2077.2,7.199e-05,0.026278,6.2794e-05,-69.072,-0.00020895,-2110.9,1.0938
16445,14.626,4.2727,0,0.00020995,2098,7.3093e-05,0.026943,6.2765e-05,-77.572,-0.00021116,-2135.7,1.0814
16446,14.626,4.3636,0.05,9.0649e-07,9.0587,6.9608e-07,5.2301,-1.0144e-12,2.7327e-08,-6.9607e-07,-5.23,1.0812
16447,14.902,4.3636,0,0.00020338,2032.4,7.0246e-05,0.021817,6.177e-05,-63.663,-0.00020439,-2063.5,1.119
16448,14.81,4.2727,0,0.00020543,2052.9,7.13e-05,0.022262,6.1791e-05,-71.428,-0.00020655,-2087.6,1.1065
16449,14.81,4.3636,0.05,8.9009e-07,8.8948,6.8348e-07,5.1354,-1.1291e-12,-2.5109e-06,-6.8348e-07,-5.1354,1.1064
16450,15.086,4.3636,0,0.00019893,1987.9,6.852e-05,0.018436,6.0745e-05,-58.401,-0.00019986,-2016.5,1.1443
16451,14.994,4.2727,0,0.00020095,2008.2,6.9534e-05,0.018719,6.0815e-05,-65.498,-0.00020199,-2040.1,1.1318
16452,14.994,4.3636,0.05,8.7626e-07,8.7566,6.7286e-07,5.0556,-2.0249e-12,-1.1509e-06,-6.7286e-07,-5.0556,1.1316
16453,15.27,4.3636,0,0.00019451,1943.8,6.6813e-05,0.015858,5.9716e-05,-53.307,-0.00019537,-1969.9,1.1698
16454,15.178,4.2727,0,0.00019652,1963.8,6.7793e-05,0.016045,5.9832e-05,-59.798,-0.00019747,-1993.1,1.1572
16455,15.178,4.3636,0.05,8.644e-07,8.638,6.6375e-07,4.9872,-1.9772e-12,-1.4017e-06,-6.6375e-07,-4.9871,1.157
16456,15.453,4.3636,0,0.00019012,1899.9,6.5123e-05,0.013889,5.868e-05,-48.396,-0.0001909,-1923.6,1.1954
16457,15.362,4.2727,0,0.00019212,1919.9,6.6073e-05,0.013995,5.8839e-05,-54.338,-0.00019299,-1946.5,1.1827
16458,15.362,4.3636,0.05,8.5404e-07,8.5345,6.558e-07,4.9274,-1.025e-12,-3.8632e-07,-6.558e-07,-4.9274,1.1826
16459,15.637,4.3636,0,0.00018575,1856.2,6.345e-05,0.012424,5.7635e-05,-43.679,-0.00018646,-1877.7,1.2211
16460,15.545,4.2727,0,0.00018774,1876.2,6.4374e-05,0.012456,5.7835e-05,-49.123,-0.00018853,-1900.2,1.2084
16461,15.545,4.3636,0.05,8.4485e-07,8.4427,6.4874e-07,4.8744,-1.414e-12,-1.0684e-07,-6.4874e-07,-4.8744,1.2082
16462,15.821,4.3636,0,0.0001814,1812.8,6.1793e-05,0.011361,5.658e-05,-39.159,-0.00018204,-1832,1.247
16463,15.729,4.2727,0,0.00018339,1832.7,6.2695e-05,0.01135,5.6817e-05,-44.152,-0.0001841,-1854.3,1.2342
16464,15.729,4.3636,0.05,8.3657e-07,8.36,6.4239e-07,4.8266,-1.3843e-12,5.1533e-07,-6.4238e-07,-4.8266,1.234
16465,16.005,4.3636,0,0.00017707,1769.5,6.0151e-05,0.010608,5.5513e-05,-34.836,-0.00017764,-1786.6,1.273
16466,15.913,4.2727,0,0.00017906,1789.4,6.1033e-05,0.010565,5.5785e-05,-39.42,-0.0001797,-1808.8,1.2601
16467,15.913,4.3636,0.05,8.2904e-07,8.2847,6.366e-07,4.7832,-1.4108e-12,1.6299e-06,-6.366e-07,-4.7831,1.26
16468,16.189,4.3636,0,0.00017275,1726.4,5.8524e-05,0.010101,5.4436e-05,-30.707,-0.00017326,-1741.5,1.2991
16469,16.097,4.2727,0,0.00017475,1746.3,5.9389e-05,0.010038,5.474e-05,-34.921,-0.00017532,-1763.5,1.2861
16470,16.097,4.3636,0.05,8.221e-07,8.2153,6.3127e-07,4.7431,-5.2501e-13,2.5421e-06,-6.3127e-07,-4.7431,1.286
16471,16.372,4.3636,0,0.00016845,1683.4,5.6911e-05,0.0097803,5.3347e-05,-26.767,-0.00016889,-1696.6,1.3253
16472,16.281,4.2727,0,0.00017045,1703.3,5.776e-05,0.009713,5.368e-05,-30.644,-0.00017095,-1718.4,1.3123
16473,16.281,4.3636,0.05,8.1565e-07,8.1509,6.2632e-07,4.7059,-1.012e-12,2.6958e-06,-6.2632e-07,-4.7059,1.3122
16474,16.556,4.3636,0,0.00016417,1640.5,5.5312e-05,0.0096171,5.2248e-05,-23.006,-0.00016455,-1651.9,1.3516
16475,16.464,4.2727,0,0.00016616,1660.5,5.6146e-05,0.0095244,5.2608e-05,-26.578,-0.0001666,-1673.6,1.3386
16476,16.464,4.3636,0.05,8.0961e-07,8.0905,6.2168e-07,4.6711,-5.2049e-13,1.6295e-06,-6.2168e-07,-4.671,1.3384
16477,16.74,4.3636,0,0.00015989,1597.8,5.3725e-05,0.0096295,5.114e-05,-19.415,-0.00016022,-1607.5,1.3781
16478,16.648,4.2727,0,0.00016189,1617.8,5.4547e-05,0.0094835,5.1523e-05,-22.71,-0.00016227,-1629.1,1.365
16479,16.648,4.3636,0.05,8.039e-07,8.0335,6.173e-07,4.6382,-1.4184e-12,1.7807e-06,-6.173e-07,-4.6381,1.3648
16480,16.924,4.3636,0,0.00015564,1555.3,5.215e-05,0.0098299,5.0022e-05,-15.983,-0.0001559,-1563.2,1.4046
16481,16.832,4.2727,0,0.00015764,1575.3,5.2961e-05,0.0096154,5.0428e-05,-19.027,-0.00015795,-1584.7,1.3915
16482,16.832,4.3636,0.05,7.9849e-07,7.9794,6.1314e-07,4.6069,-9.5237e-13,1.1618e-06,-6.1314e-07,-4.6069,1.3913
16483,17.108,4.3636,0,0.00015139,1512.9,5.0587e-05,0.010248,4.8896e-05,-12.698,-0.0001516,-1519.2,1.4313
16484,17.016,4.2727,0,0.0001534,1532.9,5.1388e-05,0.0099116,4.9322e-05,-15.513,-0.00015365,-1540.6,1.4181
16485,17.016,4.3636,0.05,7.9334e-07,7.9279,6.0919e-07,4.5772,-4.7139e-13,2.0991e-06,-6.0919e-07,-4.5772,1.4179
16486,17.291,4.3636,0,0.00014716,1470.6,4.9036e-05,0.010988,4.7764e-05,-9.5479,-0.00014732,-1475.3,1.458
16487,17.2,4.2727,0,0.00014917,1490.6,4.9827e-05,0.010418,4.8208e-05,-12.154,-0.00014937,-1496.7,1.4448
16488,17.2,4.3636,0.05,7.8843e-07,7.8788,6.0542e-07,4.5489,-9.1378e-13,2.7593e-06,-6.0542e-07,-4.5488,1.4446
16489,17.475,4.3636,0,0.00014294,1428.4,4.7495e-05,0.012363,4.6626e-05,-6.519,-0.00014305,-1431.7,1.4849
16490,17.383,4.2727,0,0.00014495,1448.5,4.8277e-05,0.01126,4.7086e-05,-8.9352,-0.0001451,-1452.9,1.4716
16491,17.383,4.3636,0.05,7.8373e-07,7.8319,6.0181e-07,4.5218,-9.1232e-13,2.3633e-06,-6.0181e-07,-4.5217,1.4714
16492,17.659,4.3636,0,0.00013874,1386.5,4.5964e-05,0.015757,4.5483e-05,-3.5993,-0.0001388,-1388.2,1.5118
16493,17.567,4.2727,0,0.00014075,1406.5,4.6738e-05,0.012826,4.5958e-05,-5.841,-0.00014085,-1409.4,1.4985
16494,17.567,4.3636,0.05,7.7922e-07,7.7868,5.9835e-07,4.4958,-9.0864e-13,3.2362e-06,-5.9835e-07,-4.4957,1.4983
16495,17.843,4.3636,0,0.00013456,1344.6,4.4446e-05,0.041413,4.4335e-05,-0.79531,-0.00013457,-1345,1.5389
16496,17.751,4.2727,0,0.00013656,1364.7,4.5209e-05,0.017268,4.4826e-05,-2.8582,-0.00013661,-1366.1,1.5255
16497,17.751,4.3636,0.05,7.7488e-07,7.7435,5.9502e-07,4.4707,-4.5409e-13,2.809e-06,-5.9501e-07,-4.4707,1.5253
16498,18.027,4.3636,0,0.00013039,1303,4.3195e-05,2.0008,4.2928e-05,-0.0043657,-0.00013035,-1302,1.566
16499,17.935,4.2727,0,0.00013239,1323,4.3711e-05,0.18217,4.367e-05,-0.12901,-0.00013239,-1323,1.5526
16500,17.935,4.3636,0.05,7.7071e-07,7.7018,5.9181e-07,4.4466,-9.0728e-13,3.4492e-06,-5.9181e-07,-4.4466,1.5524
16501,18.21,4.3636,0,0.00012623,1261.4,4.2047e-05,4.6779,4.1425e-05,0.0034966,-0.00012615,-1259.1,1.5933
16502,18.119,4.2727,0,0.00012824,1281.5,4.2558e-05,2.8684,4.2176e-05,0.0011198,-0.00012819,-1280.1,1.5797
16503,18.119,4.3636,0.05,7.6669e-07,7.6616,5.8873e-07,4.4235,-1.3642e-12,3.3531e-06,-5.8873e-07,-4.4234,1.5796
16504,18.394,4.3636,0,0.0001221,1220.1,4.0901e-05,7.3094,3.9929e-05,0.0058454,-0.00012197,-1216.4,1.6206
16505,18.302,4.2727,0,0.0001241,1240.1,4.1422e-05,5.6179,4.0675e-05,0.0055536,-0.000124,-1237.3,1.607
16506,18.302,4.3636,0.05,7.6283e-07,7.6231,5.8576e-07,4.4012,-9.0949e-13,2.3768e-06,-5.8576e-07,-4.4012,1.6069
16507,18.578,4.3636,0,0.00011798,1179,3.9759e-05,9.9051,3.8441e-05,0.0071328,-0.00011781,-1174,1.648
16508,18.486,4.2727,0,0.00011998,1199,4.0288e-05,8.323,3.9181e-05,0.0073139,-0.00011984,-1194.8,1.6343
16509,18.486,4.3636,0.05,7.5912e-07,7.586,5.8291e-07,4.3798,-1.8177e-12,2.0816e-06,-5.8291e-07,-4.3798,1.6342
16510,18.762,4.3636,0,0.00011388,1138,3.862e-05,12.478,3.696e-05,0.0080489,-0.00011366,-1131.7,1.6754
16511,18.67,4.2727,0,0.00011588,1158,3.9157e-05,10.997,3.7694e-05,0.0083995,-0.00011569,-1152.4,1.6618
16512,18.67,4.3636,0.05,7.5556e-07,7.5504,5.8018e-07,4.3592,-1.3638e-12,3.8513e-06,-5.8017e-07,-4.3592,1.6617
16513,18.946,4.3636,0,0.0001098,1097.2,3.7487e-05,15.044,3.5486e-05,0.0088247,-0.00010953,-1089.6,1.703
16514,18.854,4.2727,0,0.00011179,1117.2,3.8031e-05,13.654,3.6215e-05,0.0092474,-0.00011156,-1110.3,1.6893
16515,18.854,4.3636,0.05,7.5213e-07,7.5161,5.7754e-07,4.3394,-1.3696e-12,2.4856e-06,-5.7754e-07,-4.3394,1.6892
16516,19.129,4.3636,0,0.00010574,1056.6,3.6361e-05,17.616,3.4018e-05,0.0095544,-0.00010543,-1047.7,1.7306
16517,19.038,4.2727,0,0.00010773,1076.6,3.6911e-05,16.311,3.4741e-05,0.01002,-0.00010744,-1068.3,1.7169
16518,19.038,4.3636,0.05,7.4884e-07,7.4832,5.7502e-07,4.3205,-9.1977e-13,3.1482e-06,-5.7501e-07,-4.3204,1.7168
16519,19.313,4.3636,0,0.0001017,1016.3,3.5243e-05,20.209,3.2555e-05,0.010274,-0.00010134,-1006,1.7583
16520,19.221,4.2727,0,0.00010369,1036.2,3.5799e-05,18.982,3.3274e-05,0.010766,-0.00010335,-1026.6,1.7445
16521,19.221,4.3636,0.05,7.457e-07,7.4518,5.726e-07,4.3023,-9.3198e-13,2.9578e-06,-5.726e-07,-4.3023,1.7444
16522,19.497,4.3636,0,9.7681e-05,976.14,3.4136e-05,22.838,3.1098e-05,0.011007,-9.7272e-05,-964.51,1.786
16523,19.405,4.2727,0,9.9669e-05,996,3.4696e-05,21.683,3.1812e-05,0.011517,-9.9282e-05,-984.98,1.7722
16524,19.405,4.3636,0.05,7.427e-07,7.4219,5.703e-07,4.285,-2.6944e-14,3.8737e-06,-5.703e-07,-4.285,1.7721
16525,19.681,4.3636,0,9.3687e-05,936.22,3.304e-05,25.518,2.9645e-05,0.011764,-9.3227e-05,-923.2,1.8139
16526,19.589,4.2727,0,9.5671e-05,956.05,3.3604e-05,24.43,3.0355e-05,0.012295,-9.5232e-05,-943.59,1.8
16527,19.589,4.3636,0.05,7.3986e-07,7.3935,5.6812e-07,4.2687,-1.3871e-12,6.2215e-06,-5.6812e-07,-4.2686,1.7999
16528,19.865,4.3636,0,8.9717e-05,896.55,3.1957e-05,28.266,2.8196e-05,0.01256,-8.9202e-05,-882.07,1.8418
16529,19.773,4.2727,0,9.1697e-05,916.34,3.2525e-05,27.24,2.8902e-05,0.013097,-9.1203e-05,-902.41,1.8279
16530,19.773,4.3636,0.05,7.3717e-07,7.3667,5.6606e-07,4.2532,-1.3807e-12,5.0632e-06,-5.6606e-07,-4.2531,1.8278
16531,20.048,4.3636,0,8.5771e-05,857.12,3.0888e-05,31.098,2.6751e-05,0.013428,-8.52e-05,-841.14,1.8697
16532,19.956,4.2727,0,8.7748e-05,876.87,3.1461e-05,30.129,2.7453e-05,0.013957,-8.7196e-05,-861.41,1.8558
16533,19.956,4.3636,0.05,7.3465e-07,7.3414,5.6412e-07,4.2386,-1.3832e-12,5.1092e-06,-5.6412e-07,-4.2385,1.8557
16534,20.232,4.3636,0,8.1852e-05,817.95,2.9836e-05,34.03,2.5309e-05,0.014385,-8.122e-05,-800.4,1.8977
16535,20.14,4.2727,0,8.3824e-05,837.66,3.0412e-05,33.114,2.6007e-05,0.014908,-8.3212e-05,-820.61,1.8838
16536,20.14,4.3636,0.05,7.3229e-07,7.3178,5.6231e-07,4.225,-9.2565e-13,4.1332e-06,-5.623e-07,-4.2249,1.8837
16537,20.416,4.3636,0,7.796e-05,779.06,2.8803e-05,37.081,2.3869e-05,0.015443,-7.7263e-05,-759.85,1.9258
16538,20.324,4.2727,0,7.9928e-05,798.73,2.9381e-05,36.214,2.4563e-05,0.015951,-7.925e-05,-780,1.9118
16539,20.324,4.3636,0.05,7.3011e-07,7.2961,5.6064e-07,4.2124,-6.8292e-13,2.3763e-06,-5.6063e-07,-4.2124,1.9117
16540,20.6,4.3636,0,7.4097e-05,740.45,2.7789e-05,40.27,2.2431e-05,0.016622,-7.3329e-05,-719.49,1.9539
16541,20.508,4.2727,0,7.6061e-05,760.08,2.837e-05,39.449,2.3122e-05,0.017108,-7.5312e-05,-739.58,1.9399
16542,20.508,4.3636,0.05,7.2814e-07,7.2763,5.5912e-07,4.201,-4.5508e-13,3.3656e-06,-5.5912e-07,-4.201,1.9398
16543,20.784,4.3636,0,7.0264e-05,702.15,2.6797e-05,43.616,2.0994e-05,0.017938,-6.942e-05,-679.32,1.982
16544,20.692,4.2727,0,7.2223e-05,721.74,2.7381e-05,42.837,2.1682e-05,0.0184,-7.1399e-05,-699.35,1.968
16545,20.692,4.3636,0.05,7.2637e-07,7.2587,5.5776e-07,4.1908,-9.0019e-13,5.8095e-06,-5.5776e-07,-4.1908,1.9679
16546,20.967,4.3636,0,6.6463e-05,664.17,2.5829e-05,47.141,1.9558e-05,0.019419,-6.5535e-05,-639.34,2.0103
16547,20.875,4.2727,0,6.8418e-05,683.71,2.6415e-05,46.4,2.0242e-05,0.019834,-6.751e-05,-659.32,1.9962
16548,20.875,4.3636,0.05,7.2484e-07,7.2434,5.5659e-07,4.182,-8.902e-13,5.8596e-06,-5.5658e-07,-4.182,1.9961
16549,21.151,4.3636,0,6.2697e-05,626.54,2.4888e-05,50.869,1.8121e-05,0.021114,-6.1676e-05,-599.54,2.0385
16550,21.059,4.2727,0,6.4647e-05,646.03,2.5476e-05,50.161,1.8802e-05,0.02146,-6.3647e-05,-619.47,2.0244
16551,21.059,4.3636,0.05,7.2355e-07,7.2305,5.556e-07,4.1746,-4.6283e-13,4.2213e-06,-5.556e-07,-4.1745,2.0244
16552,21.335,4.3636,0,5.8968e-05,589.28,2.3976e-05,54.824,1.6683e-05,0.023073,-5.7844e-05,-559.94,2.0668
16553,21.243,4.2727,0,6.0913e-05,608.71,2.4565e-05,54.145,1.7361e-05,0.023331,-5.981e-05,-579.82,2.0527
16554,21.243,4.3636,0.05,7.2254e-07,7.2205,5.5483e-07,4.1688,-2.387e-13,4.7759e-06,-5.5482e-07,-4.1687,2.0526
16555,21.519,4.3636,0,5.528e-05,552.42,2.3096e-05,59.033,1.5242e-05,0.025351,-5.4038e-05,-520.52,2.0951
16556,21.427,4.2727,0,5.7218e-05,571.79,2.3685e-05,58.378,1.5919e-05,0.02549,-5.6001e-05,-540.35,2.081
16557,21.427,4.3636,0.05,7.2185e-07,7.2135,5.5429e-07,4.1647,-4.3533e-13,4.398e-06,-5.5429e-07,-4.1647,2.0809
16558,21.703,4.3636,0,5.1636e-05,516,2.225e-05,63.528,1.3798e-05,0.028027,-5.026e-05,-481.28,2.1235
16559,21.611,4.2727,0,5.3566e-05,535.3,2.2839e-05,62.888,1.4473e-05,0.028006,-5.2218e-05,-501.06,2.1094
16560,21.611,4.3636,0.05,7.2151e-07,7.2101,5.5403e-07,4.1628,-1.7158e-13,5.6534e-06,-5.5403e-07,-4.1627,2.1093
16561,21.886,4.3636,0,4.8041e-05,480.08,2.1441e-05,68.341,1.235e-05,0.031199,-4.6511e-05,-442.23,2.1519
16562,21.794,4.2727,0,4.9962e-05,499.28,2.2029e-05,67.707,1.3022e-05,0.030969,-4.8465e-05,-461.96,2.1378
16563,21.794,4.3636,0.05,7.2157e-07,7.2107,5.5408e-07,4.1631,5.1369e-14,3.2447e-06,-5.5407e-07,-4.1631,2.1377
16564,22.07,4.3636,0,4.4501e-05,444.71,2.0675e-05,73.508,1.0896e-05,0.035011,-4.2792e-05,-403.36,2.1803
16565,21.978,4.2727,0,4.6411e-05,463.79,2.126e-05,72.867,1.1567e-05,0.034486,-4.474e-05,-423.03,2.1662
16566,21.978,4.3636,0.05,7.2209e-07,7.2159,5.5447e-07,4.1661,-1.8343e-13,3.4691e-07,-5.5447e-07,-4.1661,2.1661
16567,22.254,4.3636,0,4.1025e-05,409.97,1.9953e-05,79.069,9.435e-06,0.039674,-3.9104e-05,-364.66,2.2088
16568,22.162,4.2727,0,4.292e-05,428.91,2.0535e-05,78.405,1.0105e-05,0.038747,-4.1045e-05,-384.28,2.1946
16569,22.162,4.3636,0.05,7.2314e-07,7.2264,5.5528e-07,4.1722,-1.7953e-13,2.2502e-06,-5.5528e-07,-4.1722,2.1946
16570,22.438,4.3636,0,3.7622e-05,375.96,1.9281e-05,85.067,7.9651e-06,0.045502,-3.5446e-05,-326.13,2.2373
16571,22.346,4.2727,0,3.9498e-05,394.71,1.9856e-05,84.36,8.6343e-06,0.043992,-3.738e-05,-345.69,2.2231
16572,22.346,4.3636,0.05,7.2481e-07,7.2431,5.5657e-07,4.1818,-2.7954e-13,2.4677e-06,-5.5657e-07,-4.1818,2.223
16573,22.622,4.3636,0,3.4306e-05,342.83,1.8661e-05,91.544,6.4845e-06,0.052891,-3.1819e-05,-287.75,2.2658
16574,22.53,4.2727,0,3.6156e-05,361.31,1.9228e-05,90.772,7.1538e-06,0.050626,-3.3745e-05,-307.25,2.2516
16575,22.53,4.3636,0.05,7.2723e-07,7.2673,5.5842e-07,4.1958,-4.3487e-14,3.4499e-06,-5.5842e-07,-4.1958,2.2515
16576,22.805,4.3636,0,3.1095e-05,310.74,1.8099e-05,98.547,4.9912e-06,0.062815,-2.8224e-05,-249.5,2.2943
16577,22.713,4.2727,0,3.2909e-05,328.86,1.8654e-05,97.679,5.6614e-06,0.059075,-3.014e-05,-268.94,2.2801
16578,22.713,4.3636,0.05,7.3051e-07,7.3001,5.6094e-07,4.2147,9.8102e-16,3.5516e-06,-5.6094e-07,-4.2147,2.2801
16579,22.989,4.3636,0,2.8013e-05,279.94,1.7596e-05,106.12,3.4828e-06,0.075655,-2.4657e-05,-211.35,2.3229
16580,22.897,4.2727,0,2.9778e-05,297.58,1.8137e-05,105.12,4.1551e-06,0.07094,-2.6563e-05,-230.73,2.3087
16581,22.897,4.3636,0.05,7.3482e-07,7.3431,5.6425e-07,4.2396,6.2517e-14,7.2901e-06,-5.6425e-07,-4.2396,2.3086
16582,23.173,4.3636,0,2.5095e-05,250.78,1.7155e-05,114.29,1.9572e-06,0.097509,-2.1116e-05,-173.26,2.3515
16583,23.081,4.2727,0,2.6792e-05,267.74,1.7678e-05,113.13,2.6323e-06,0.085542,-2.3011e-05,-192.59,2.3372
16584,23.081,4.3636,0.05,7.4031e-07,7.398,5.6847e-07,4.2712,3.2775e-13,1.1192e-05,-5.6847e-07,-4.2712,2.3372
16585,23.357,4.3636,0,2.239e-05,223.75,1.6777e-05,123.09,4.1098e-07,0.11929,-1.7595e-05,-135.17,2.38
16586,23.265,4.2727,0,2.3993e-05,239.76,1.728e-05,121.74,1.0918e-06,0.11619,-1.948e-05,-154.46,2.3658
16587,23.265,4.3636,0.05,7.4714e-07,7.4662,5.7371e-07,4.3106,-2.7927e-14,8.3509e-06,-5.7371e-07,-4.3106,2.3657
16588,23.541,4.3636,0,1.9971e-05,199.57,1.646e-05,132.55,-1.1524e-06,0.21247,-1.4092e-05,-97.007,2.4086
16589,23.449,4.2727,0,2.1438e-05,214.23,1.694e-05,130.95,-4.7129e-07,0.13267,-1.5965e-05,-116.28,2.3944
16590,23.449,4.3636,0.05,7.5541e-07,7.5489,5.8006e-07,4.3584,2.2436e-13,1.1367e-05,-5.8006e-07,-4.3584,2.3943
16591,23.724,4.3636,0,1.7945e-05,179.32,1.6205e-05,142.61,-2.7481e-06,0.20121,-1.0598e-05,-58.78,2.4372
16592,23.632,4.2727,0,1.9216e-05,192.02,1.6657e-05,140.82,-2.0439e-06,0.31399,-1.2464e-05,-77.978,2.423
16593,23.632,4.3636,0.05,7.6559e-07,7.6506,5.8788e-07,4.4171,4.4927e-13,1.141e-05,-5.8788e-07,-4.4171,2.4229
16594,23.816,4.2727,0,1.745e-05,174.38,1.6432e-05,151.16,-3.6626e-06,0.17692,-8.9714e-06,-39.711,2.4516
16595,23.816,4.3636,0.05,7.8514e-07,7.846,6.0289e-07,4.5299,6.3972e-13,9.2044e-06,-6.0289e-07,-4.5299,2.4515
16596,23.908,4.3636,0,1.6474e-05,164.63,1.5981e-05,152.45,-4.252e-06,0.42494,-7.2898e-06,-22.4,2.4658
16597,11.042,4.1818,0,0.00060725,6068.3,0.000326,1531.6,0.00011449,-57.54,-0.00056635,-5173.1,0.62485
16598,10.95,4.0909,0,0.00078537,7848.3,0.00041703,1803.5,0.000139,-285.57,-0.0007384,-6878,0.61468
16599,10.95,4.1818,0.05,5.2195e-05,521.59,4.0079e-05,301.14,3.005e-12,7.3005e-06,-4.0079e-05,-301.14,0.61412
16600,10.859,4.1818,0,0.0006132,6127.8,0.0004097,2535,4.0907e-05,-235.97,-0.00052512,-4488.8,0.6035
16601,11.226,4.1818,0,0.00046768,4673.6,0.00020362,600.99,0.00012356,-0.56704,-0.00045455,-4344.3,0.64644
16602,11.134,4.0909,0,0.0005454,5450.2,0.00023375,674.97,0.00014847,34.232,-0.0005305,-5067.3,0.63603
16603,11.134,4.1818,0.05,1.7469e-05,174.57,1.3414e-05,100.79,1.2189e-14,3.0275e-05,-1.3414e-05,-100.79,0.63559
16604,11.41,4.1818,0,0.00040123,4009.5,0.00015131,224.8,0.00012062,-5.7801,-0.000397,-3895,0.66826
16605,11.318,4.0909,0,0.00044997,4496.6,0.00017004,254.19,0.00013485,-10.197,-0.00044523,-4368.8,0.65765
16606,11.318,4.1818,0.05,8.1446e-06,81.389,6.254e-06,46.99,5.829e-14,-1.397e-05,-6.254e-06,-46.99,0.65729
16607,11.594,4.1818,0,0.00036157,3613.2,0.00012443,55.64,0.00011575,-9.6007,-0.00036074,-3589.8,0.69031
16608,11.502,4.0909,0,0.00039532,3950.5,0.00013612,64.009,0.00012671,-6.6715,-0.0003943,-3921.4,0.67953
16609,11.502,4.1818,0.05,5.871e-06,58.67,4.5082e-06,33.873,-2.5226e-12,2.1321e-06,-4.5082e-06,-33.873,0.67922
16610,11.778,4.1818,0,0.00033444,3342.1,0.00011362,5.7736,0.00010538,-56.138,-0.00033526,-3366.9,0.71258
16611,11.686,4.0909,0,0.00035883,3585.9,0.00012178,5.2543,0.00011318,-59.395,-0.00035971,-3612.5,0.70165
16612,11.686,4.1818,0.05,4.6073e-06,46.041,3.5378e-06,26.582,5.8678e-13,-1.6002e-05,-3.5378e-06,-26.582,0.70138
16613,11.961,4.1818,0,0.00031474,3145.2,0.00010923,2.0548,9.4872e-05,-105.85,-0.00031637,-3195.7,0.73506
16614,11.869,4.0909,0,0.000333,3327.7,0.00011582,2.0358,9.9931e-05,-117.33,-0.0003348,-3383.7,0.724
16615,11.869,4.1818,0.05,3.7372e-06,37.347,2.8697e-06,21.562,1.4881e-12,3.4662e-06,-2.8697e-06,-21.562,0.72376
16616,12.145,4.1818,0,0.00029965,2994.4,0.00010554,1.1131,8.7554e-05,-134.03,-0.00030168,-3058.6,0.75775
16617,12.053,4.0909,0,0.0003136,3133.9,0.00011094,1.0633,9.0768e-05,-150.52,-0.00031587,-3205.8,0.74657
16618,12.053,4.1818,0.05,3.1223e-06,31.201,2.3975e-06,18.014,2.4461e-13,8.9139e-06,-2.3975e-06,-18.014,0.74635
16619,12.329,4.1818,0,0.00028756,2873.7,0.0001022,0.72025,8.2382e-05,-148.19,-0.00028978,-2944.5,0.78064
16620,12.237,4.0909,0,0.00029844,2982.3,0.00010672,0.71496,8.4346e-05,-167.37,-0.00030092,-3062.1,0.76934
16621,12.237,4.1818,0.05,2.6593e-06,26.574,2.042e-06,15.343,4.1738e-13,6.5238e-06,-2.042e-06,-15.343,0.76914
16622,12.513,4.1818,0,0.00027751,2773.2,9.9129e-05,0.49898,7.8604e-05,-153.72,-0.0002798,-2846.6,0.80372
16623,12.421,4.0909,0,0.00028612,2859.3,0.00010295,0.49729,7.9722e-05,-174.04,-0.00028868,-2942,0.79232
16624,12.421,4.1818,0.05,2.2993e-06,22.977,1.7656e-06,13.266,-1.1299e-12,-1.4502e-05,-1.7656e-06,-13.266,0.79213
16625,12.697,4.1818,0,0.00026888,2686.9,9.6274e-05,0.3616,7.5742e-05,-153.91,-0.00027116,-2760.4,0.827
16626,12.605,4.0909,0,0.00027581,2756.2,9.9547e-05,0.36527,7.6295e-05,-174.35,-0.00027836,-2839.1,0.81549
16627,12.605,4.1818,0.05,2.0131e-06,20.117,1.5458e-06,11.615,-2.9681e-12,7.8535e-07,-1.5458e-06,-11.615,0.81531
16628,12.88,4.1818,0,0.00026126,2610.8,9.3601e-05,0.26806,7.3495e-05,-150.79,-0.0002635,-2682.8,0.85045
16629,12.788,4.0909,0,0.00026694,2667.6,9.6433e-05,0.27267,7.3679e-05,-170.69,-0.00026943,-2748.7,0.83885
16630,12.788,4.1818,0.05,1.783e-06,17.818,1.3691e-06,10.287,-2.0301e-12,-1.1916e-05,-1.3691e-06,-10.287,0.83867
16631,13.064,4.1818,0,0.0002544,2542.3,9.1079e-05,0.20179,7.167e-05,-145.63,-0.00025656,-2611.8,0.87408
16632,12.972,4.0909,0,0.00025913,2589.6,9.3554e-05,0.20658,7.1622e-05,-164.59,-0.00026154,-2667.8,0.86238
16633,12.972,4.1818,0.05,1.5971e-06,15.96,1.2263e-06,9.2143,3.3211e-13,-1.0859e-06,-1.2263e-06,-9.2143,0.86222
16634,13.248,4.1818,0,0.0002481,2479.3,8.8686e-05,0.1534,7.0137e-05,-139.22,-0.00025018,-2545.9,0.89789
16635,13.156,4.0909,0,0.00025213,2519.5,9.0871e-05,0.15766,6.9952e-05,-157.02,-0.00025443,-2594.3,0.8861
16636,13.156,4.1818,0.05,1.4468e-06,14.458,1.1109e-06,8.3472,5.4248e-14,7.3849e-06,-1.1109e-06,-8.3472,0.88594
16637,13.432,4.1818,0,0.00024224,2420.7,8.6402e-05,0.11754,6.8808e-05,-132.08,-0.00024422,-2484,0.92186
16638,13.34,4.0909,0,0.00024573,2455.6,8.8351e-05,0.12107,6.8555e-05,-148.62,-0.00024792,-2526.5,0.90999
16639,13.34,4.1818,0.05,1.3255e-06,13.246,1.0178e-06,7.6476,-8.5008e-13,-2.7019e-06,-1.0178e-06,-7.6476,0.90983
16640,13.616,4.1818,0,0.00023672,2365.5,8.4212e-05,0.090719,6.7624e-05,-124.54,-0.00023859,-2425.3,0.946
16641,13.524,4.0909,0,0.0002398,2396.3,8.5966e-05,0.09351,6.7347e-05,-139.8,-0.00024187,-2463.1,0.93404
16642,13.524,4.1818,0.05,1.2279e-06,12.271,9.429e-07,7.0846,3.5745e-13,-2.6849e-06,-9.429e-07,-7.0846,0.93388
16643,13.799,4.1818,0,0.00023145,2312.9,8.21e-05,0.070522,6.654e-05,-116.84,-0.00023322,-2369.1,0.9703
16644,13.707,4.0909,0,0.00023424,2340.7,8.3695e-05,0.072645,6.6271e-05,-130.84,-0.00023619,-2403.4,0.95826
16645,13.707,4.1818,0.05,1.1496e-06,11.488,8.8274e-07,6.6326,-8.9032e-13,7.806e-06,-8.8273e-07,-6.6325,0.9581
16646,13.983,4.1818,0,0.0002264,2262.4,8.0057e-05,0.055272,6.5525e-05,-109.13,-0.00022806,-2315,0.99475
16647,13.891,4.0909,0,0.00022896,2288,8.152e-05,0.056815,6.5284e-05,-121.93,-0.00023079,-2346.5,0.98263
16648,13.891,4.1818,0.05,1.0867e-06,10.86,8.3447e-07,6.2699,-1.4746e-12,-9.8586e-07,-8.3446e-07,-6.2698,0.98248
16649,14.167,4.1818,0,0.00022151,2213.6,7.8073e-05,0.043675,6.4556e-05,-101.52,-0.00022306,-2262.6,1.0194
16650,14.075,4.0909,0,0.0002239,2237.5,7.9427e-05,0.044794,6.4355e-05,-113.2,-0.00022561,-2291.9,1.0072
16651,14.075,4.1818,0.05,1.0362e-06,10.355,7.957e-07,5.9786,-2.0648e-12,-8.0468e-06,-7.957e-07,-5.9786,1.007
16652,14.351,4.1818,0,0.00021675,2166,7.614e-05,0.034857,6.3614e-05,-94.078,-0.0002182,-2211.5,1.0441
16653,14.259,4.0909,0,0.00021902,2188.7,7.7404e-05,0.035617,6.3462e-05,-104.72,-0.00022061,-2239.1,1.0319
16654,14.259,4.1818,0.05,9.9557e-07,9.9488,7.6447e-07,5.744,-1.5704e-12,-3.5089e-06,-7.6448e-07,-5.7439,1.0317
16655,14.534,4.1818,0,0.00021209,2119.5,7.4251e-05,0.028172,6.2687e-05,-86.866,-0.00021344,-2161.5,1.069
16656,14.443,4.0909,0,0.00021427,2141.2,7.5441e-05,0.028638,6.2587e-05,-96.55,-0.00021575,-2187.9,1.0567
16657,14.443,4.1818,0.05,9.6261e-07,9.6195,7.3917e-07,5.5539,-3.8113e-12,3.055e-06,-7.3917e-07,-5.5538,1.0565
16658,14.718,4.1818,0,0.00020752,2073.7,7.2403e-05,0.023119,6.1763e-05,-79.916,-0.00020876,-2112.5,1.0941
16659,14.626,4.0909,0,0.00020963,2094.9,7.3529e-05,0.023375,6.1717e-05,-88.728,-0.000211,-2137.8,1.0817
16660,14.626,4.1818,0.05,9.357e-07,9.3505,7.185e-07,5.3985,-1.965e-12,-3.269e-06,-7.185e-07,-5.3985,1.0815
16661,14.902,4.1818,0,0.00020301,2028.7,7.0589e-05,0.019301,6.0837e-05,-73.251,-0.00020415,-2064.3,1.1193
16662,14.81,4.0909,0,0.00020508,2049.4,7.1663e-05,0.019408,6.0844e-05,-81.27,-0.00020634,-2088.8,1.1068
16663,14.81,4.1818,0.05,9.1351e-07,9.1288,7.0146e-07,5.2705,-1.0351e-12,-2.496e-06,-7.0146e-07,-5.2705,1.1066
16664,15.086,4.1818,0,0.00019855,1984.1,6.8807e-05,0.016425,5.9903e-05,-66.883,-0.0001996,-2016.7,1.1446
16665,14.994,4.0909,0,0.00020059,2004.5,6.9836e-05,0.016427,5.9961e-05,-74.185,-0.00020175,-2040.6,1.1321
16666,14.994,4.1818,0.05,8.9501e-07,8.944,6.8726e-07,5.1638,-1.9312e-12,-2.4465e-06,-6.8726e-07,-5.1638,1.1319
16667,15.27,4.1818,0,0.00019413,1939.9,6.7052e-05,0.01425,5.8956e-05,-60.817,-0.00019509,-1969.6,1.1701
16668,15.178,4.0909,0,0.00019615,1960.2,6.8044e-05,0.014203,5.9063e-05,-67.47,-0.00019721,-1993,1.1574
16669,15.178,4.1818,0.05,8.7941e-07,8.788,6.7528e-07,5.0738,-1.9085e-12,-1.4015e-06,-6.7528e-07,-5.0737,1.1573
16670,15.453,4.1818,0,0.00018974,1896.1,6.5324e-05,0.012608,5.7995e-05,-55.052,-0.00019062,-1923.1,1.1957
16671,15.362,4.0909,0,0.00019175,1916.2,6.6284e-05,0.012518,5.8147e-05,-61.121,-0.00019272,-1946,1.183
16672,15.362,4.1818,0.05,8.6606e-07,8.6546,6.6503e-07,4.9968,-1.0071e-12,-4.5652e-07,-6.6502e-07,-4.9967,1.1828
16673,15.637,4.1818,0,0.00018539,1852.6,6.3619e-05,0.011411,5.7018e-05,-49.582,-0.00018618,-1876.9,1.2214
16674,15.545,4.0909,0,0.00018739,1872.6,6.4551e-05,0.011278,5.7212e-05,-55.125,-0.00018827,-1899.6,1.2086
16675,15.545,4.1818,0.05,8.5448e-07,8.5389,6.5614e-07,4.93,-4.9673e-13,-3.8021e-07,-6.5613e-07,-4.9299,1.2085
16676,15.821,4.1818,0,0.00018105,1809.3,6.1935e-05,0.01057,5.6024e-05,-44.399,-0.00018177,-1831.1,1.2473
16677,15.729,4.0909,0,0.00018305,1829.3,6.2843e-05,0.01042,5.6258e-05,-49.467,-0.00018385,-1853.5,1.2344
16678,15.729,4.1818,0.05,8.443e-07,8.4372,6.4832e-07,4.8712,-9.5452e-13,-4.5012e-07,-6.4832e-07,-4.8712,1.2343
16679,16.005,4.1818,0,0.00017674,1766.2,6.027e-05,0.01,5.5013e-05,-39.49,-0.00017738,-1785.6,1.2732
16680,15.913,4.0909,0,0.00017874,1786.2,6.1158e-05,0.00984,5.5283e-05,-44.13,-0.00017945,-1807.8,1.2603
16681,15.913,4.1818,0.05,8.3525e-07,8.3468,6.4137e-07,4.819,-1.4113e-12,1.3612e-06,-6.4137e-07,-4.819,1.2602
16682,16.189,4.1818,0,0.00017244,1723.2,5.8624e-05,0.0096449,5.3986e-05,-34.841,-0.00017301,-1740.4,1.2993
16683,16.097,4.0909,0,0.00017444,1743.2,5.9493e-05,0.0094803,5.4288e-05,-39.097,-0.00017508,-1762.5,1.2864
16684,16.097,4.1818,0.05,8.2711e-07,8.2654,6.3512e-07,4.772,-1.8988e-12,1.1349e-06,-6.3512e-07,-4.772,1.2862
16685,16.372,4.1818,0,0.00016816,1680.5,5.6995e-05,0.0094448,5.2943e-05,-30.439,-0.00016866,-1695.5,1.3255
16686,16.281,4.0909,0,0.00017016,1700.5,5.7848e-05,0.0092952,5.3275e-05,-34.347,-0.00017072,-1717.4,1.3125
16687,16.281,4.1818,0.05,8.1971e-07,8.1915,6.2944e-07,4.7294,-9.9129e-13,2.371e-06,-6.2944e-07,-4.7293,1.3124
16688,16.556,4.1818,0,0.0001639,1637.8,5.5382e-05,0.0093712,5.1885e-05,-26.265,-0.00016433,-1650.8,1.3519
16689,16.464,4.0909,0,0.0001659,1657.8,5.622e-05,0.009216,5.2245e-05,-29.861,-0.00016639,-1672.6,1.3388
16690,16.464,4.1818,0.05,8.1292e-07,8.1236,6.2422e-07,4.6902,-1.4178e-12,9.9492e-07,-6.2422e-07,-4.6901,1.3387
16691,16.74,4.1818,0,0.00015964,1595.3,5.3783e-05,0.0094423,5.0814e-05,-22.303,-0.00016001,-1606.3,1.3783
16692,16.648,4.0909,0,0.00016165,1615.4,5.4609e-05,0.009255,5.1198e-05,-25.617,-0.00016207,-1628,1.3652
16693,16.648,4.1818,0.05,8.0661e-07,8.0606,6.1938e-07,4.6538,-1.4097e-12,8.1623e-07,-6.1938e-07,-4.6538,1.3651
16694,16.924,4.1818,0,0.0001554,1552.9,5.2199e-05,0.009661,4.973e-05,-18.537,-0.00015571,-1562.1,1.4049
16695,16.832,4.0909,0,0.00015741,1573,5.3012e-05,0.0094361,5.0136e-05,-21.596,-0.00015777,-1583.7,1.3917
16696,16.832,4.1818,0.05,8.0073e-07,8.0017,6.1486e-07,4.6198,-9.3354e-13,6.5582e-07,-6.1486e-07,-4.6198,1.3915
16697,17.108,4.1818,0,0.00015117,1510.7,5.0627e-05,0.010032,4.8636e-05,-14.948,-0.00015142,-1518.1,1.4315
16698,17.016,4.0909,0,0.00015318,1530.8,5.143e-05,0.0097387,4.9062e-05,-17.778,-0.00015348,-1539.6,1.4183
16699,17.016,4.1818,0.05,7.952e-07,7.9465,6.1062e-07,4.588,-1.3867e-12,9.3421e-07,-6.1062e-07,-4.5879,1.4181
16700,17.291,4.1818,0,0.00014696,1468.6,4.9067e-05,0.010607,4.7533e-05,-11.519,-0.00014715,-1474.3,1.4583
16701,17.2,4.0909,0,0.00014897,1488.7,4.986e-05,0.010185,4.7977e-05,-14.142,-0.00014921,-1495.7,1.445
16702,17.2,4.1818,0.05,7.8999e-07,7.8945,6.0662e-07,4.5579,-9.2447e-13,2.0023e-06,-6.0661e-07,-4.5579,1.4448
16703,17.475,4.1818,0,0.00014276,1426.6,4.7519e-05,0.011526,4.6422e-05,-8.2338,-0.0001429,-1430.7,1.4851
16704,17.383,4.0909,0,0.00014477,1446.7,4.8303e-05,0.010837,4.6882e-05,-10.668,-0.00014495,-1452,1.4718
16705,17.383,4.1818,0.05,7.8506e-07,7.8451,6.0283e-07,4.5294,-1.3677e-12,1.4094e-06,-6.0283e-07,-4.5294,1.4716
16706,17.659,4.1818,0,0.00013858,1384.8,4.5982e-05,0.013334,4.5305e-05,-5.0746,-0.00013866,-1387.3,1.5121
16707,17.567,4.0909,0,0.00014059,1404.9,4.6758e-05,0.01186,4.5779e-05,-7.3389,-0.00014071,-1408.5,1.4987
16708,17.567,4.1818,0.05,7.8036e-07,7.7982,5.9922e-07,4.5023,-9.1439e-13,2.6383e-06,-5.9922e-07,-4.5023,1.4985
16709,17.843,4.1818,0,0.0001344,1343.1,4.4456e-05,0.019816,4.4183e-05,-2.0285,-0.00013444,-1344.1,1.5391
16710,17.751,4.0909,0,0.00013642,1363.2,4.5223e-05,0.014083,4.4671e-05,-4.1355,-0.00013649,-1365.3,1.5257
16711,17.751,4.1818,0.05,7.7588e-07,7.7534,5.9578e-07,4.4764,2.6114e-16,1.8817e-06,-5.9578e-07,-4.4764,1.5255
16712,18.027,4.1818,0,0.00013025,1301.6,4.3063e-05,0.96488,4.2933e-05,-0.012403,-0.00013023,-1301.1,1.5662
16713,17.935,4.0909,0,0.00013226,1321.7,4.37e-05,0.027458,4.3556e-05,-1.0495,-0.00013228,-1322.2,1.5527
16714,17.935,4.1818,0.05,7.7158e-07,7.7105,5.9248e-07,4.4517,-4.5451e-13,2.9596e-06,-5.9248e-07,-4.4516,1.5526
16715,18.21,4.1818,0,0.00012611,1260.2,4.1936e-05,3.8342,4.1427e-05,0.0045672,-0.00012604,-1258.3,1.5934
16716,18.119,4.0909,0,0.00012812,1280.3,4.2445e-05,1.9881,4.2181e-05,0.0009122,-0.00012808,-1279.3,1.5799
16717,18.119,4.1818,0.05,7.6748e-07,7.6695,5.8933e-07,4.428,-1.3637e-12,2.6266e-06,-5.8932e-07,-4.4279,1.5798
16718,18.394,4.1818,0,0.00012199,1219,4.0812e-05,6.6593,3.9927e-05,0.0073079,-0.00012187,-1215.7,1.6207
16719,18.302,4.0909,0,0.00012399,1239.1,4.1329e-05,4.9226,4.0675e-05,0.006926,-0.00012391,-1236.6,1.6072
16720,18.302,4.1818,0.05,7.6354e-07,7.6302,5.8631e-07,4.4053,-1.3642e-12,1.3712e-06,-5.8631e-07,-4.4053,1.6071
16721,18.578,4.1818,0,0.00011788,1178,3.969e-05,9.4437,3.8434e-05,0.0086619,-0.00011772,-1173.3,1.6481
16722,18.486,4.0909,0,0.00011989,1198.1,4.0214e-05,7.8081,3.9176e-05,0.008766,-0.00011975,-1194.1,1.6345
16723,18.486,4.1818,0.05,7.5978e-07,7.5925,5.8342e-07,4.3836,-1.3646e-12,1.7803e-06,-5.8341e-07,-4.3836,1.6344
16724,18.762,4.1818,0,0.0001138,1137.2,3.8571e-05,12.203,3.6948e-05,0.0096089,-0.00011359,-1131.1,1.6756
16725,18.67,4.0909,0,0.0001158,1157.2,3.9103e-05,10.658,3.7685e-05,0.0098564,-0.00011561,-1151.8,1.6619
16726,18.67,4.1818,0.05,7.5617e-07,7.5565,5.8065e-07,4.3628,-1.3648e-12,2.7444e-06,-5.8064e-07,-4.3627,1.6618
16727,18.946,4.1818,0,0.00010973,1096.6,3.7458e-05,14.953,3.547e-05,0.01042,-0.00010947,-1089,1.7031
16728,18.854,4.0909,0,0.00011173,1116.5,3.7996e-05,13.49,3.6202e-05,0.010713,-0.00011149,-1109.7,1.6894
16729,18.854,4.1818,0.05,7.5271e-07,7.5219,5.7799e-07,4.3428,-4.5682e-13,2.0084e-06,-5.7799e-07,-4.3428,1.6893
16730,19.129,4.1818,0,0.00010569,1056.2,3.6353e-05,17.709,3.3997e-05,0.011188,-0.00010538,-1047.2,1.7308
16731,19.038,4.0909,0,0.00010768,1076.1,3.6895e-05,16.321,3.4724e-05,0.011507,-0.00010739,-1067.8,1.717
16732,19.038,4.1818,0.05,7.494e-07,7.4888,5.7545e-07,4.3237,-9.2766e-15,3.1493e-06,-5.7544e-07,-4.3237,1.7169
16733,19.313,4.1818,0,0.00010166,1015.9,3.5256e-05,20.489,3.253e-05,0.011952,-0.0001013,-1005.5,1.7584
16734,19.221,4.0909,0,0.00010365,1035.8,3.5802e-05,19.167,3.3253e-05,0.012281,-0.00010331,-1026.1,1.7447
16735,19.221,4.1818,0.05,7.4624e-07,7.4573,5.7302e-07,4.3055,-9.2284e-13,2.2507e-06,-5.7302e-07,-4.3054,1.7446
16736,19.497,4.1818,0,9.7664e-05,975.96,3.4169e-05,23.309,3.1069e-05,0.012737,-9.7246e-05,-964.09,1.7862
16737,19.405,4.0909,0,9.9647e-05,995.78,3.4719e-05,22.045,3.1787e-05,0.01307,-9.9254e-05,-984.57,1.7724
16738,19.405,4.1818,0.05,7.4324e-07,7.4273,5.7072e-07,4.2881,-9.2976e-13,3.6604e-06,-5.7071e-07,-4.2881,1.7723
16739,19.681,4.1818,0,9.3686e-05,936.21,3.3095e-05,26.186,2.9611e-05,0.01355,-9.3213e-05,-922.84,1.814
16740,19.589,4.0909,0,9.5665e-05,955.99,3.3647e-05,24.974,3.0325e-05,0.013891,-9.5215e-05,-943.25,1.8002
16741,19.589,4.1818,0.05,7.404e-07,7.3989,5.6854e-07,4.2718,-1.39e-12,6.2586e-06,-5.6853e-07,-4.2717,1.8001
16742,19.865,4.1818,0,8.9733e-05,896.71,3.2034e-05,29.137,2.8158e-05,0.014407,-8.9201e-05,-881.78,1.8419
16743,19.773,4.0909,0,9.1706e-05,916.43,3.2589e-05,27.971,2.8868e-05,0.014742,-9.1198e-05,-902.12,1.828
16744,19.773,4.1818,0.05,7.3772e-07,7.3721,5.6648e-07,4.2563,-9.2594e-13,4.3949e-06,-5.6648e-07,-4.2563,1.8279
16745,20.048,4.1818,0,8.5806e-05,857.46,3.0989e-05,32.18,2.6708e-05,0.015341,-8.5213e-05,-840.91,1.8699
16746,19.956,4.0909,0,8.7774e-05,877.13,3.1546e-05,31.055,2.7415e-05,0.015656,-8.7204e-05,-861.18,1.8559
16747,19.956,4.1818,0.05,7.3521e-07,7.347,5.6455e-07,4.2418,-9.1972e-13,5.1622e-06,-5.6455e-07,-4.2418,1.8559
16748,20.232,4.1818,0,8.1905e-05,818.49,2.9961e-05,35.334,2.5261e-05,0.016368,-8.1247e-05,-800.24,1.8979
16749,20.14,4.0909,0,8.3868e-05,838.1,3.052e-05,34.244,2.5964e-05,0.016663,-8.3233e-05,-820.45,1.8839
16750,20.14,4.1818,0.05,7.3287e-07,7.3237,5.6276e-07,4.2283,-9.246e-13,3.316e-06,-5.6275e-07,-4.2283,1.8838
16751,20.416,4.1818,0,7.8034e-05,779.8,2.8953e-05,38.618,2.3816e-05,0.0175,-7.7305e-05,-759.77,1.9259
16752,20.324,4.0909,0,7.999e-05,799.35,2.9512e-05,37.557,2.4516e-05,0.017769,-7.9285e-05,-779.9,1.9119
16753,20.324,4.1818,0.05,7.3073e-07,7.3023,5.6111e-07,4.216,-9.0604e-13,1.6402e-06,-5.6111e-07,-4.216,1.9119
16754,20.6,4.1818,0,7.4192e-05,741.41,2.7967e-05,42.052,2.2373e-05,0.018758,-7.3387e-05,-719.48,1.954
16755,20.508,4.0909,0,7.6143e-05,760.9,2.8526e-05,41.015,2.307e-05,0.018991,-7.5362e-05,-739.56,1.94
16756,20.508,4.1818,0.05,7.288e-07,7.2829,5.5963e-07,4.2048,-8.9932e-13,2.94e-06,-5.5962e-07,-4.2048,1.9399
16757,20.784,4.1818,0,7.0383e-05,703.34,2.7004e-05,45.657,2.093e-05,0.020156,-6.9494e-05,-679.39,1.9822
16758,20.692,4.0909,0,7.2327e-05,722.77,2.7563e-05,44.64,2.1624e-05,0.020349,-7.1464e-05,-699.4,1.9681
16759,20.692,4.1818,0.05,7.2709e-07,7.2658,5.5831e-07,4.195,-6.7286e-13,4.3834e-06,-5.5831e-07,-4.1949,1.9681
16760,20.967,4.1818,0,6.6607e-05,665.61,2.6066e-05,49.457,1.9487e-05,0.021721,-6.5627e-05,-639.49,2.0104
16761,20.875,4.0909,0,6.8544e-05,684.97,2.6625e-05,48.453,2.0179e-05,0.021853,-6.7591e-05,-659.45,1.9963
16762,20.875,4.1818,0.05,7.2562e-07,7.2512,5.5719e-07,4.1865,-8.9465e-13,4.402e-06,-5.5718e-07,-4.1864,1.9963
16763,21.151,4.1818,0,6.2867e-05,628.24,2.5157e-05,53.474,1.8043e-05,0.023505,-6.1786e-05,-599.78,2.0386
16764,21.059,4.0909,0,6.4797e-05,647.52,2.5714e-05,52.478,1.8733e-05,0.023551,-6.3744e-05,-619.68,2.0246
16765,21.059,4.1818,0.05,7.2441e-07,7.2391,5.5626e-07,4.1795,-9.0948e-13,4.2155e-06,-5.5626e-07,-4.1795,2.0245
16766,21.335,4.1818,0,5.9167e-05,591.26,2.4278e-05,57.736,1.6597e-05,0.025556,-5.7972e-05,-560.26,2.0669
16767,21.243,4.0909,0,6.1088e-05,610.46,2.4834e-05,56.74,1.7285e-05,0.025498,-5.9925e-05,-580.1,2.0528
16768,21.243,4.1818,0.05,7.235e-07,7.23,5.5556e-07,4.1743,-4.4003e-13,4.4128e-06,-5.5556e-07,-4.1742,2.0528
16769,21.519,4.1818,0,5.5508e-05,554.7,2.3433e-05,62.268,1.5149e-05,0.027928,-5.4186e-05,-520.93,2.0952
16770,21.427,4.0909,0,5.7421e-05,573.81,2.3986e-05,61.265,1.5835e-05,0.027734,-5.6132e-05,-540.71,2.0811
16771,21.427,4.1818,0.05,7.2292e-07,7.2242,5.5511e-07,4.1709,-4.2902e-13,3.486e-06,-5.5511e-07,-4.1709,2.0811
16772,21.703,4.1818,0,5.1896e-05,518.6,2.2623e-05,67.102,1.3697e-05,0.030699,-5.0428e-05,-481.77,2.1236
16773,21.611,4.0909,0,5.3798e-05,537.61,2.3173e-05,66.082,1.4382e-05,0.030328,-5.2368e-05,-501.5,2.1095
16774,21.611,4.1818,0.05,7.2271e-07,7.2221,5.5495e-07,4.1697,-1.6608e-13,6.1358e-06,-5.5495e-07,-4.1697,2.1094
16775,21.886,4.1818,0,4.8335e-05,483.02,2.1853e-05,72.267,1.2239e-05,0.033965,-4.6698e-05,-442.8,2.152
16776,21.794,4.0909,0,5.0224e-05,501.9,2.2398e-05,71.22,1.2924e-05,0.033366,-4.8632e-05,-462.47,2.1379
16777,21.794,4.1818,0.05,7.2292e-07,7.2243,5.5512e-07,4.1709,-1.5345e-13,3.31e-06,-5.5512e-07,-4.1709,2.1378
16778,22.07,4.1818,0,4.4831e-05,448,2.1125e-05,77.797,1.0776e-05,0.037874,-4.2997e-05,-403.99,2.1804
16779,21.978,4.0909,0,4.6705e-05,466.73,2.1664e-05,76.71,1.1459e-05,0.036961,-4.4925e-05,-423.61,2.1663
16780,21.978,4.1818,0.05,7.2362e-07,7.2312,5.5565e-07,4.1749,-3.9696e-13,-4.3835e-07,-5.5565e-07,-4.1749,2.1662
16781,22.254,4.1818,0,4.1391e-05,413.63,2.0442e-05,83.728,9.304e-06,0.042637,-3.9326e-05,-365.34,2.2089
16782,22.162,4.0909,0,4.3247e-05,432.17,2.0973e-05,82.584,9.9877e-06,0.041302,-4.1246e-05,-384.91,2.1947
16783,22.162,4.1818,0.05,7.2486e-07,7.2436,5.566e-07,4.1821,6.7656e-14,5.2998e-07,-5.566e-07,-4.1821,2.1947
16784,22.438,4.1818,0,3.8026e-05,380,1.9807e-05,90.094,7.8229e-06,0.04857,-3.5684e-05,-326.84,2.2374
16785,22.346,4.0909,0,3.9859e-05,398.31,2.033e-05,88.877,8.5072e-06,0.04663,-3.7596e-05,-346.35,2.2232
16786,22.346,4.1818,0.05,7.2674e-07,7.2624,5.5804e-07,4.1929,-1.892e-14,1.8568e-06,-5.5804e-07,-4.1929,2.2231
16787,22.622,4.1818,0,3.4749e-05,347.25,1.9224e-05,96.934,6.3306e-06,0.056078,-3.207e-05,-288.47,2.2659
16788,22.53,4.0909,0,3.6551e-05,365.26,1.9735e-05,95.62,7.0162e-06,0.053357,-3.3973e-05,-307.92,2.2517
16789,22.53,4.1818,0.05,7.2935e-07,7.2885,5.6005e-07,4.208,-2.088e-14,4.6883e-06,-5.6005e-07,-4.208,2.2516
16790,22.805,4.1818,0,3.1577e-05,315.55,1.8695e-05,104.28,4.8252e-06,0.066149,-2.8483e-05,-250.2,2.2944
16791,22.713,4.0909,0,3.334e-05,333.17,1.9193e-05,102.85,5.5129e-06,0.061916,-3.0377e-05,-269.6,2.2802
16792,22.713,4.1818,0.05,7.328e-07,7.323,5.627e-07,4.2279,1.6554e-14,3.0977e-06,-5.627e-07,-4.2279,2.2801
16793,22.989,4.1818,0,2.8533e-05,285.14,1.8222e-05,112.16,3.3044e-06,0.079185,-2.492e-05,-211.99,2.323
16794,22.897,4.0909,0,3.0244e-05,302.23,1.8703e-05,110.58,3.9953e-06,0.073931,-2.6805e-05,-231.35,2.3087
16795,22.897,4.1818,0.05,7.3722e-07,7.3671,5.6609e-07,4.2534,2.8801e-13,8.1078e-06,-5.6609e-07,-4.2534,2.3087
16796,23.173,4.1818,0,2.5653e-05,256.35,1.7805e-05,120.61,1.7666e-06,0.10134,-2.1378e-05,-173.8,2.3515
16797,23.081,4.0909,0,2.7292e-05,272.73,1.8268e-05,118.86,2.4614e-06,0.08874,-2.3254e-05,-193.12,2.3373
16798,23.081,4.1818,0.05,7.4271e-07,7.422,5.7031e-07,4.2851,1.0198e-13,9.3891e-06,-5.7031e-07,-4.2851,2.3372
16799,23.357,4.1818,0,2.2985e-05,229.69,1.7444e-05,129.62,2.0875e-07,0.12355,-1.7851e-05,-135.57,2.3801
16800,23.265,4.0909,0,2.4526e-05,245.09,1.7888e-05,127.68,9.1005e-07,0.11973,-1.9719e-05,-154.88,2.3659
16801,23.265,4.1818,0.05,7.4937e-07,7.4886,5.7543e-07,4.3235,2.017e-13,7.3787e-06,-5.7543e-07,-4.3235,2.3658
16802,23.541,4.1818,0,2.06e-05,205.85,1.7138e-05,139.24,-1.365e-06,0.21779,-1.4337e-05,-97.246,2.4087
16803,23.449,4.0909,0,2.2003e-05,219.88,1.756e-05,137.06,-6.6303e-07,0.13668,-1.6195e-05,-116.57,2.3945
16804,23.449,4.1818,0.05,7.5725e-07,7.5673,5.8148e-07,4.369,4.6563e-13,1.1451e-05,-5.8148e-07,-4.369,2.3944
16805,23.724,4.1818,0,1.86e-05,185.87,1.6885e-05,149.38,-2.9691e-06,0.2094,-1.0828e-05,-58.84,2.4373
16806,23.632,4.0909,0,1.9809e-05,197.95,1.7283e-05,147.04,-2.2441e-06,0.31959,-1.2683e-05,-78.111,2.4231
16807,23.632,4.1818,0.05,7.6667e-07,7.6614,5.887e-07,4.4233,4.7142e-13,1.151e-05,-5.887e-07,-4.4233,2.423
16808,23.816,4.0909,0,1.8061e-05,180.49,1.7056e-05,157.41,-3.869e-06,0.18776,-9.1748e-06,-39.678,2.4517
16809,23.816,4.1818,0.05,7.8341e-07,7.8287,6.0156e-07,4.5199,6.6213e-13,1.1129e-05,-6.0156e-07,-4.5199,2.4516
16810,23.908,4.1818,0,1.7156e-05,171.44,1.6668e-05,159.33,-4.4798e-06,0.42792,-7.5141e-06,-22.37,2.4659
16811,11.042,4,0,0.0007247,7242,0.00032676,961.68,0.00017312,-192.74,-0.00070468,-6788.2,0.62576
16812,10.95,3.9091,0,0.00086069,8601,0.00037357,981.25,0.00021735,-192.52,-0.00084124,-8146.4,0.61567
16813,10.95,4,0.05,9.2943e-05,928.78,7.1368e-05,536.23,-9.6294e-12,1.893e-06,-7.1368e-05,-536.23,0.61516
16814,10.859,4,0,0.0012782,12774,0.00055853,1450,0.00031501,-379.67,-0.0012502,-12140,0.60472
16815,11.226,4,0,0.00052753,5271.6,0.00019993,326.35,0.00015974,24.382,-0.00052091,-5089.8,0.64716
16816,11.134,3.9091,0,0.00061017,6097.5,0.0002312,387.11,0.00018577,45.812,-0.00060208,-5873.8,0.63679
16817,11.134,4,0.05,1.6331e-05,163.19,1.254e-05,94.219,-2.3852e-12,-5.2351e-06,-1.254e-05,-94.219,0.63639
16818,11.41,4,0,0.00044333,4430.2,0.00015398,86.862,0.00014121,-9.0839,-0.00044193,-4390.6,0.66885
16819,11.318,3.9091,0,0.00049567,4953.3,0.00017357,114.35,0.00015706,-9.7421,-0.00049378,-4899.8,0.65826
16820,11.318,4,0.05,1.0571e-05,105.63,8.1169e-06,60.987,-8.0269e-13,1.0549e-05,-8.1169e-06,-60.987,0.65794
16821,11.594,4,0,0.00039202,3917.5,0.00013261,7.1554,0.00012451,-53.713,-0.00039277,-3940.4,0.6908
16822,11.502,3.9091,0,0.00042889,4285.9,0.00014409,7.8524,0.00013792,-38.564,-0.00042939,-4301.1,0.68004
16823,11.502,4,0.05,7.0964e-06,70.915,5.4492e-06,40.943,-3.6298e-12,3.2058e-05,-5.4491e-06,-40.943,0.67976
16824,11.778,4,0,0.00035699,3567.4,0.00012402,1.8089,0.00010734,-123.57,-0.00035889,-3626.6,0.71301
16825,11.686,3.9091,0,0.00038379,3835.3,0.0001328,1.2785,0.00011626,-123.03,-0.00038571,-3894.6,0.70208
16826,11.686,4,0.05,5.4016e-06,53.979,4.1478e-06,31.165,-4.0669e-13,-1.4417e-05,-4.1478e-06,-31.165,0.70185
16827,11.961,4,0,0.0003316,3313.7,0.00011754,1.1637,9.5571e-05,-163.93,-0.00033406,-3392,0.73544
16828,11.869,3.9091,0,0.00035171,3514.7,0.0001246,1.1928,0.00010148,-172.53,-0.0003543,-3597.1,0.72438
16829,11.869,4,0.05,4.3174e-06,43.144,3.3152e-06,24.909,-9.0698e-14,-1.0473e-05,-3.3152e-06,-24.909,0.72417
16830,12.145,4,0,0.00031223,3120.2,0.00011213,0.71856,8.7401e-05,-185.07,-0.00031495,-3208.2,0.7581
16831,12.053,3.9091,0,0.00032761,3273.8,0.0001179,0.68563,9.1252e-05,-199.54,-0.00033053,-3368.6,0.7469
16832,12.053,4,0.05,3.5729e-06,35.705,2.7436e-06,20.614,3.5803e-13,8.5414e-06,-2.7436e-06,-20.614,0.74671
16833,12.329,4,0,0.0002969,2967,0.00010747,0.52047,8.1589e-05,-193.95,-0.00029972,-3058.9,0.78096
16834,12.237,3.9091,0,0.00030886,3086.4,0.00011228,0.52639,8.4016e-05,-211.81,-0.0003119,-3186.6,0.76965
16835,12.237,4,0.05,3.0202e-06,30.181,2.3191e-06,17.425,-1.334e-12,1.3836e-05,-2.3191e-06,-17.425,0.76947
16836,12.513,4,0,0.00028437,2841.8,0.00010337,0.38029,7.7357e-05,-195.09,-0.00028718,-2934.1,0.80402
16837,12.421,3.9091,0,0.0002938,2936,0.00010742,0.38513,7.8806e-05,-214.64,-0.00029686,-3037.2,0.7926
16838,12.421,4,0.05,2.5929e-06,25.911,1.991e-06,14.96,-2.9874e-12,-1.5993e-05,-1.991e-06,-14.96,0.79244
16839,12.697,4,0,0.00027385,2736.6,9.9707e-05,0.28673,7.4201e-05,-191.35,-0.0002766,-2827.1,0.82728
16840,12.605,3.9091,0,0.0002814,2812.1,0.00010316,0.29409,7.4986e-05,-211.42,-0.0002844,-2911.7,0.81575
16841,12.605,4,0.05,2.2538e-06,22.523,1.7306e-06,13.003,-6.7839e-13,1.8517e-05,-1.7306e-06,-13.003,0.8156
16842,12.88,4,0,0.0002648,2646.2,9.6387e-05,0.21791,7.179e-05,-184.6,-0.00026746,-2733.6,0.85072
16843,12.788,3.9091,0,0.00027095,2707.6,9.9365e-05,0.22441,7.2132e-05,-204.39,-0.00027384,-2803.9,0.8391
16844,12.788,4,0.05,1.9811e-06,19.797,1.5212e-06,11.43,-3.1485e-12,-3.4062e-06,-1.5212e-06,-11.43,0.83895
16845,13.064,4,0,0.00025686,2566.8,9.3347e-05,0.1669,6.9897e-05,-176.03,-0.0002594,-2650.2,0.87435
16846,12.972,3.9091,0,0.00026195,2617.7,9.5938e-05,0.17246,6.9955e-05,-195.06,-0.00026471,-2709.6,0.86263
16847,12.972,4,0.05,1.7603e-06,17.591,1.3517e-06,10.156,-1.0698e-12,3.8401e-06,-1.3517e-06,-10.156,0.86249
16848,13.248,4,0,0.00024975,2495.8,9.0536e-05,0.12834,6.8367e-05,-166.44,-0.00025217,-2574.8,0.89814
16849,13.156,3.9091,0,0.00025404,2538.7,9.2813e-05,0.13272,6.8252e-05,-184.41,-0.00025667,-2625.8,0.88634
16850,13.156,4,0.05,1.5813e-06,15.803,1.2143e-06,9.1236,-2.8661e-12,1.0938e-05,-1.2143e-06,-9.1236,0.8862
16851,13.432,4,0,0.00024329,2431.2,8.7914e-05,0.099105,6.7093e-05,-156.34,-0.00024557,-2505.6,0.92211
16852,13.34,3.9091,0,0.00024698,2468.1,8.9935e-05,0.1024,6.6883e-05,-173.1,-0.00024946,-2550,0.91022
16853,13.34,4,0.05,1.4363e-06,14.353,1.1029e-06,8.2866,-6.3471e-13,1.9813e-06,-1.1029e-06,-8.2865,0.91008
16854,13.616,4,0,0.00023732,2371.6,8.5449e-05,0.07687,6.5994e-05,-146.1,-0.00023947,-2441.2,0.94625
16855,13.524,3.9091,0,0.00024056,2403.9,8.7261e-05,0.079262,6.5744e-05,-161.59,-0.0002429,-2480.6,0.93427
16856,13.524,4,0.05,1.3189e-06,13.179,1.0127e-06,7.6092,-1.7402e-12,-5.0063e-06,-1.0127e-06,-7.6092,0.93413
16857,13.799,4,0,0.00023174,2315.8,8.3114e-05,0.059944,6.5015e-05,-135.93,-0.00023375,-2380.8,0.97054
16858,13.707,3.9091,0,0.00023464,2344.8,8.4755e-05,0.061609,6.4762e-05,-150.16,-0.00023683,-2416.2,0.95848
16859,13.707,4,0.05,1.224e-06,12.232,9.3988e-07,7.0619,-2.6542e-12,-3.1839e-06,-9.3988e-07,-7.0619,0.95835
16860,13.983,4,0,0.00022646,2263,8.089e-05,0.047063,6.4115e-05,-125.99,-0.00022834,-2323.4,0.995
16861,13.891,3.9091,0,0.00022911,2289.5,8.239e-05,0.048166,6.3883e-05,-139.01,-0.00023115,-2355.8,0.98286
16862,13.891,4,0.05,1.1474e-06,11.466,8.8108e-07,6.6201,-2.3258e-12,-4.3469e-06,-8.8108e-07,-6.6201,0.98273
16863,14.167,4,0,0.00022141,2212.6,7.8758e-05,0.037247,6.3263e-05,-116.39,-0.00022316,-2268.5,1.0196
16864,14.075,3.9091,0,0.00022387,2237.1,8.0142e-05,0.037948,6.3067e-05,-128.25,-0.00022577,-2298.5,1.0074
16865,14.075,4,0.05,1.0856e-06,10.848,8.336e-07,6.2634,-1.4434e-12,1.5659e-06,-8.336e-07,-6.2633,1.0073
16866,14.351,4,0,0.00021654,2163.9,7.6705e-05,0.029766,6.2436e-05,-107.18,-0.00021817,-2215.5,1.0444
16867,14.259,3.9091,0,0.00021886,2187.1,7.7992e-05,0.030156,6.2287e-05,-117.97,-0.00022063,-2243.7,1.0321
16868,14.259,4,0.05,1.0356e-06,10.349,7.9519e-07,5.9748,-1.9491e-12,8.7296e-07,-7.9519e-07,-5.9747,1.0319
16869,14.534,4,0,0.00021181,2116.7,7.4719e-05,0.024109,6.1619e-05,-98.403,-0.00021332,-2164.2,1.0693
16870,14.443,3.9091,0,0.00021404,2138.9,7.5926e-05,0.024255,6.1521e-05,-108.21,-0.00021567,-2190.9,1.0569
16871,14.443,4,0.05,9.9493e-07,9.9424,7.6398e-07,5.7403,-2.0383e-12,-2.9185e-06,-7.6398e-07,-5.7403,1.0568
16872,14.718,4,0,0.0002072,2070.5,7.279e-05,0.019859,6.0799e-05,-90.073,-0.00020858,-2114.1,1.0943
16873,14.626,3.9091,0,0.00020935,2092,7.3931e-05,0.019842,6.0755e-05,-98.979,-0.00021085,-2139.7,1.0819
16874,14.626,4,0.05,9.6175e-07,9.6108,7.385e-07,5.5488,-1.031e-12,-1.4913e-06,-7.385e-07,-5.5488,1.0818
16875,14.902,4,0,0.00020266,2025.2,7.091e-05,0.016676,5.9969e-05,-82.195,-0.00020394,-2065.1,1.1195
16876,14.81,3.9091,0,0.00020476,2046.2,7.1996e-05,0.016551,5.9978e-05,-90.283,-0.00020615,-2089.8,1.107
16877,14.81,4,0.05,9.3447e-07,9.3382,7.1756e-07,5.3915,-1.0663e-12,-1.4544e-06,-7.1755e-07,-5.3914,1.1069
16878,15.086,4,0,0.0001982,1980.6,6.9074e-05,0.014308,5.9122e-05,-74.762,-0.00019936,-2016.9,1.1448
16879,14.994,3.9091,0,0.00020026,2001.2,7.0113e-05,0.014115,5.9182e-05,-82.111,-0.00020153,-2041,1.1323
16880,14.994,4,0.05,9.1186e-07,9.1123,7.0019e-07,5.261,-1.4964e-12,-1.1637e-06,-7.0019e-07,-5.2609,1.1321
16881,15.27,4,0,0.00019378,1936.5,6.7275e-05,0.012545,5.8255e-05,-67.764,-0.00019484,-1969.4,1.1703
16882,15.178,3.9091,0,0.00019582,1956.9,6.8274e-05,0.012333,5.8365e-05,-74.446,-0.00019698,-1993,1.1577
16883,15.178,4,0.05,8.9293e-07,8.9231,6.8566e-07,5.1518,-1.8666e-12,-8.878e-07,-6.8566e-07,-5.1518,1.1575
16884,15.453,4,0,0.0001894,1892.7,6.551e-05,0.01124,5.7366e-05,-61.183,-0.00019037,-1922.6,1.1959
16885,15.362,3.9091,0,0.00019143,1913,6.6475e-05,0.011011,5.7522e-05,-67.264,-0.00019249,-1945.7,1.1832
16886,15.362,4,0.05,8.7692e-07,8.7631,6.7336e-07,5.0594,-1.431e-12,6.1045e-07,-6.7336e-07,-5.0594,1.1831
16887,15.637,4,0,0.00018506,1849.3,6.3775e-05,0.010322,5.6454e-05,-54.997,-0.00018593,-1876.2,1.2216
16888,15.545,3.9091,0,0.00018708,1869.5,6.4711e-05,0.010068,5.6652e-05,-60.54,-0.00018803,-1899,1.2088
16889,15.545,4,0.05,8.632e-07,8.626,6.6283e-07,4.9803,-1.416e-12,-7.9808e-08,-6.6283e-07,-4.9802,1.2087
16890,15.821,4,0,0.00018074,1806.2,6.2066e-05,0.0097109,5.5518e-05,-49.185,-0.00018153,-1830.3,1.2475
16891,15.729,3.9091,0,0.00018276,1826.3,6.2977e-05,0.0094568,5.5756e-05,-54.244,-0.00018362,-1852.8,1.2346
16892,15.729,4,0.05,8.5131e-07,8.5073,6.5371e-07,4.9117,-4.788e-13,7.1521e-07,-6.537e-07,-4.9116,1.2345
16893,16.005,4,0,0.00017645,1763.2,6.038e-05,0.0093306,5.456e-05,-43.724,-0.00017715,-1784.7,1.2734
16894,15.913,3.9091,0,0.00017846,1783.3,6.127e-05,0.0090816,5.4834e-05,-48.349,-0.00017923,-1807,1.2605
16895,15.913,4,0.05,8.409e-07,8.4032,6.4571e-07,4.8516,-1.8736e-12,2.5466e-06,-6.4571e-07,-4.8516,1.2604
16896,16.189,4,0,0.00017217,1720.5,5.8717e-05,0.0091323,5.358e-05,-38.588,-0.00017279,-1739.4,1.2995
16897,16.097,3.9091,0,0.00017418,1740.6,5.9588e-05,0.0088916,5.3887e-05,-42.824,-0.00017487,-1761.6,1.2866
16898,16.097,4,0.05,8.3167e-07,8.311,6.3862e-07,4.7984,-5.2632e-13,2.2943e-06,-6.3862e-07,-4.7983,1.2865
16899,16.372,4,0,0.0001679,1677.9,5.7073e-05,0.0090607,5.2579e-05,-33.754,-0.00016845,-1694.5,1.3257
16900,16.281,3.9091,0,0.00016992,1698,5.7927e-05,0.0088451,5.2916e-05,-37.641,-0.00017052,-1716.5,1.3127
16901,16.281,4,0.05,8.2341e-07,8.2284,6.3228e-07,4.7507,-5.3767e-13,2.7752e-06,-6.3228e-07,-4.7507,1.3126
16902,16.556,4,0,0.00016365,1635.4,5.5447e-05,0.0090877,5.156e-05,-29.196,-0.00016413,-1649.8,1.3521
16903,16.464,3.9091,0,0.00016567,1655.5,5.6286e-05,0.0088784,5.1924e-05,-32.77,-0.0001662,-1671.7,1.339
16904,16.464,4,0.05,8.1593e-07,8.1537,6.2653e-07,4.7075,-9.6594e-13,2.4091e-06,-6.2653e-07,-4.7075,1.3389
16905,16.74,4,0,0.00015942,1593.1,5.3837e-05,0.0092303,5.0523e-05,-24.892,-0.00015983,-1605.4,1.3785
16906,16.648,3.9091,0,0.00016143,1613.2,5.4664e-05,0.009005,5.0911e-05,-28.185,-0.00016189,-1627.1,1.3654
16907,16.648,4,0.05,8.0908e-07,8.0852,6.2127e-07,4.668,-1.4088e-12,2.2901e-06,-6.2127e-07,-4.668,1.3653
16908,16.924,4,0,0.0001552,1550.9,5.2243e-05,0.0094886,4.9471e-05,-20.818,-0.00015554,-1561.2,1.405
16909,16.832,3.9091,0,0.00015721,1571,5.3058e-05,0.0092464,4.9881e-05,-23.859,-0.0001576,-1582.8,1.3918
16910,16.832,4,0.05,8.0276e-07,8.022,6.1642e-07,4.6316,-4.8493e-13,1.9332e-06,-6.1641e-07,-4.6315,1.3917
16911,17.108,4,0,0.00015098,1508.8,5.0663e-05,0.0098573,4.8406e-05,-16.951,-0.00015127,-1517.2,1.4317
16912,17.016,3.9091,0,0.000153,1529,5.1467e-05,0.0095775,4.8835e-05,-19.766,-0.00015333,-1538.7,1.4184
16913,17.016,4,0.05,7.9689e-07,7.9634,6.1191e-07,4.5977,-4.7113e-13,2.4668e-06,-6.1191e-07,-4.5977,1.4183
16914,17.291,4,0,0.00014679,1466.9,4.9096e-05,0.010361,4.7329e-05,-13.269,-0.00014701,-1473.4,1.4584
16915,17.2,3.9091,0,0.0001488,1487,4.9891e-05,0.010009,4.7776e-05,-15.881,-0.00014907,-1494.9,1.4451
16916,17.2,4,0.05,7.9141e-07,7.9086,6.077e-07,4.566,-1.3798e-12,3.0554e-06,-6.077e-07,-4.566,1.445
16917,17.475,4,0,0.0001426,1425,4.7542e-05,0.011061,4.6242e-05,-9.7506,-0.00014276,-1429.9,1.4853
16918,17.383,3.9091,0,0.00014462,1445.2,4.8327e-05,0.01057,4.6705e-05,-12.18,-0.00014482,-1451.2,1.4719
16919,17.383,4,0.05,7.8625e-07,7.8571,6.0375e-07,4.5363,-4.5761e-13,2.7394e-06,-6.0374e-07,-4.5363,1.4718
16920,17.659,4,0,0.00013843,1383.4,4.5999e-05,0.01221,4.5148e-05,-6.3758,-0.00013854,-1386.5,1.5122
16921,17.567,3.9091,0,0.00014045,1403.5,4.6776e-05,0.011329,4.5624e-05,-8.6421,-0.00014059,-1407.8,1.4988
16922,17.567,4,0.05,7.8139e-07,7.8085,6.0001e-07,4.5082,-9.1276e-13,3.4624e-06,-6.0001e-07,-4.5082,1.4987
16923,17.843,4,0,0.00013427,1341.8,4.4466e-05,0.01512,4.4048e-05,-3.1253,-0.00013433,-1343.4,1.5393
16924,17.751,3.9091,0,0.00013629,1362,4.5236e-05,0.012669,4.4536e-05,-5.2441,-0.00013638,-1364.6,1.5258
16925,17.751,4,0.05,7.7676e-07,7.7623,5.9646e-07,4.4816,-9.1289e-13,3.0223e-06,-5.9646e-07,-4.4815,1.5257
16926,18.027,4,0,0.00013013,1300.4,4.2961e-05,0.14635,4.2928e-05,-0.10633,-0.00013013,-1300.4,1.5664
16927,17.935,3.9091,0,0.00013215,1320.5,4.3707e-05,0.017286,4.3443e-05,-1.968,-0.00013218,-1321.5,1.5529
16928,17.935,4,0.05,7.7236e-07,7.7183,5.9308e-07,4.4562,-1.8194e-12,4.3606e-06,-5.9308e-07,-4.4562,1.5528
16929,18.21,4,0,0.00012601,1259.2,4.1841e-05,3.1005,4.1429e-05,0.0057208,-0.00012595,-1257.6,1.5936
16930,18.119,3.9091,0,0.00012802,1279.3,4.2349e-05,1.2319,4.2185e-05,-4.1006e-05,-0.000128,-1278.7,1.5801
16931,18.119,4,0.05,7.6817e-07,7.6764,5.8986e-07,4.432,-9.0986e-13,3.6326e-06,-5.8986e-07,-4.432,1.58
16932,18.394,4,0,0.0001219,1218.1,4.0735e-05,6.0984,3.9925e-05,0.0087036,-0.00012179,-1215.1,1.6209
16933,18.302,3.9091,0,0.00012391,1238.2,4.125e-05,4.328,4.0675e-05,0.0082984,-0.00012383,-1236,1.6073
16934,18.302,4,0.05,7.6417e-07,7.6365,5.8679e-07,4.4089,-9.0951e-13,3.2856e-06,-5.8679e-07,-4.4089,1.6072
16935,18.578,4,0,0.00011781,1177.3,3.9631e-05,9.051,3.8428e-05,0.010031,-0.00011765,-1172.7,1.6483
16936,18.486,3.9091,0,0.00011981,1197.3,4.0153e-05,7.3718,3.9173e-05,0.010079,-0.00011968,-1193.6,1.6347
16937,18.486,4,0.05,7.6036e-07,7.5983,5.8386e-07,4.3869,-4.5434e-13,3.067e-06,-5.8386e-07,-4.3869,1.6346
16938,18.762,4,0,0.00011373,1136.6,3.8531e-05,11.975,3.6939e-05,0.01096,-0.00011353,-1130.5,1.6758
16939,18.67,3.9091,0,0.00011573,1156.5,3.9058e-05,10.377,3.7678e-05,0.011115,-0.00011555,-1151.3,1.6621
16940,18.67,4,0.05,7.5671e-07,7.5619,5.8106e-07,4.3659,-1.3633e-12,4.531e-06,-5.8106e-07,-4.3658,1.662
16941,18.946,4,0,0.00010968,1096.1,3.7436e-05,14.888,3.5456e-05,0.01177,-0.00010942,-1088.5,1.7033
16942,18.854,3.9091,0,0.00011168,1116,3.7967e-05,13.361,3.6191e-05,0.011949,-0.00011144,-1109.3,1.6896
16943,18.854,4,0.05,7.5322e-07,7.527,5.7838e-07,4.3457,-9.1017e-13,3.5696e-06,-5.7838e-07,-4.3457,1.6895
16944,19.129,4,0,0.00010565,1055.8,3.6348e-05,17.809,3.398e-05,0.012553,-0.00010534,-1046.7,1.7309
16945,19.038,3.9091,0,0.00010764,1075.7,3.6883e-05,16.343,3.471e-05,0.01274,-0.00010735,-1067.4,1.7172
16946,19.038,4,0.05,7.4989e-07,7.4937,5.7582e-07,4.3265,-9.16e-13,4.8382e-06,-5.7582e-07,-4.3265,1.7171
16947,19.313,4,0,0.00010164,1015.7,3.5269e-05,20.754,3.2509e-05,0.013341,-0.00010127,-1005.2,1.7586
16948,19.221,3.9091,0,0.00010362,1035.5,3.5807e-05,19.341,3.3235e-05,0.013526,-0.00010328,-1025.7,1.7448
16949,19.221,4,0.05,7.4672e-07,7.462,5.7339e-07,4.3082,-1.3775e-12,3.7343e-06,-5.7338e-07,-4.3082,1.7447
16950,19.497,4,0,9.7653e-05,975.85,3.4201e-05,23.743,3.1043e-05,0.014158,-9.7227e-05,-963.76,1.7863
16951,19.405,3.9091,0,9.9632e-05,995.63,3.4741e-05,22.374,3.1765e-05,0.014336,-9.9232e-05,-984.25,1.7725
16952,19.405,4,0.05,7.4371e-07,7.432,5.7108e-07,4.2909,-4.7282e-13,4.8548e-06,-5.7108e-07,-4.2908,1.7724
16953,19.681,4,0,9.369e-05,936.25,3.3146e-05,26.792,2.9582e-05,0.015009,-9.3205e-05,-922.56,1.8142
16954,19.589,3.9091,0,9.5663e-05,955.97,3.3687e-05,25.462,3.03e-05,0.015185,-9.5204e-05,-942.97,1.8003
16955,19.589,4,0.05,7.4087e-07,7.4036,5.689e-07,4.2745,-4.7515e-13,7.9757e-06,-5.6889e-07,-4.2744,1.8002
16956,19.865,4,0,8.9752e-05,896.9,3.2105e-05,29.923,2.8125e-05,0.015909,-8.9205e-05,-881.56,1.842
16957,19.773,3.9091,0,9.1718e-05,916.55,3.2647e-05,28.622,2.884e-05,0.016069,-9.1198e-05,-901.9,1.8281
16958,19.773,4,0.05,7.382e-07,7.3769,5.6685e-07,4.2591,-1.3779e-12,7.0504e-06,-5.6684e-07,-4.259,1.8281
16959,20.048,4,0,8.5841e-05,857.81,3.1081e-05,33.152,2.6671e-05,0.016888,-8.5228e-05,-840.75,1.87
16960,19.956,3.9091,0,8.78e-05,877.4,3.1622e-05,31.874,2.7382e-05,0.017019,-8.7214e-05,-861.02,1.8561
16961,19.956,4,0.05,7.357e-07,7.3519,5.6493e-07,4.2447,-9.2475e-13,6.7951e-06,-5.6493e-07,-4.2446,1.856
16962,20.232,4,0,8.1958e-05,819.01,3.0075e-05,36.5,2.5219e-05,0.017966,-8.1275e-05,-800.14,1.898
16963,20.14,3.9091,0,8.391e-05,838.52,3.0616e-05,35.239,2.5928e-05,0.018066,-8.3255e-05,-820.34,1.884
16964,20.14,4,0.05,7.3339e-07,7.3288,5.6315e-07,4.2313,-6.9238e-13,5.3625e-06,-5.6315e-07,-4.2313,1.884
16965,20.416,4,0,7.8104e-05,780.5,2.9089e-05,39.989,2.377e-05,0.019153,-7.7347e-05,-759.73,1.926
16966,20.324,3.9091,0,8.0049e-05,799.93,2.9629e-05,38.737,2.4476e-05,0.019216,-7.9319e-05,-779.85,1.912
16967,20.324,4,0.05,7.3127e-07,7.3077,5.6153e-07,4.2191,-9.1173e-13,4.2221e-06,-5.6153e-07,-4.2191,1.912
16968,20.6,4,0,7.4282e-05,742.3,2.8126e-05,43.638,2.2321e-05,0.020466,-7.3443e-05,-719.51,1.9541
16969,20.508,3.9091,0,7.6218e-05,761.66,2.8664e-05,42.389,2.3025e-05,0.020484,-7.5408e-05,-739.57,1.9401
16970,20.508,4,0.05,7.2938e-07,7.2887,5.6007e-07,4.2082,-9.0665e-13,4.2574e-06,-5.6007e-07,-4.2081,1.9401
16971,20.784,4,0,7.0492e-05,704.44,2.7188e-05,47.47,2.0873e-05,0.02192,-6.9565e-05,-679.49,1.9823
16972,20.692,3.9091,0,7.2421e-05,723.71,2.7723e-05,46.217,2.1575e-05,0.02189,-7.1523e-05,-699.48,1.9682
16973,20.692,4,0.05,7.2771e-07,7.2721,5.588e-07,4.1986,-2.1971e-13,6.8078e-06,-5.5879e-07,-4.1985,1.9682
16974,20.967,4,0,6.6738e-05,666.92,2.6277e-05,51.508,1.9425e-05,0.023545,-6.5712e-05,-639.67,2.0105
16975,20.875,3.9091,0,6.8657e-05,686.1,2.6809e-05,50.244,2.0125e-05,0.023444,-6.7664e-05,-659.59,1.9964
16976,20.875,4,0.05,7.263e-07,7.258,5.5771e-07,4.1904,1.7586e-14,5.7993e-06,-5.5771e-07,-4.1904,1.9964
16977,21.151,4,0,6.3022e-05,629.78,2.5395e-05,55.777,1.7975e-05,0.02539,-6.1887e-05,-600.03,2.0387
16978,21.059,3.9091,0,6.4931e-05,648.86,2.5923e-05,54.495,1.8673e-05,0.025192,-6.3832e-05,-619.89,2.0246
16979,21.059,4,0.05,7.2517e-07,7.2467,5.5684e-07,4.1839,-4.6039e-13,6.6419e-06,-5.5684e-07,-4.1839,2.0246
16980,21.335,4,0,5.9346e-05,593.05,2.4545e-05,60.303,1.6523e-05,0.027502,-5.8089e-05,-560.58,2.067
16981,21.243,3.9091,0,6.1244e-05,612.02,2.5068e-05,58.994,1.722e-05,0.027188,-6.0027e-05,-580.38,2.0529
16982,21.243,4,0.05,7.2434e-07,7.2384,5.5621e-07,4.1791,-6.8381e-13,5.8608e-06,-5.562e-07,-4.1791,2.0529
16983,21.519,4,0,5.5713e-05,556.75,2.373e-05,65.112,1.5068e-05,0.029937,-5.4319e-05,-521.32,2.0953
16984,21.427,3.9091,0,5.76e-05,575.6,2.4247e-05,63.767,1.5764e-05,0.029477,-5.6249e-05,-541.05,2.0812
16985,21.427,4,0.05,7.2386e-07,7.2336,5.5584e-07,4.1764,-2.228e-13,5.4053e-06,-5.5584e-07,-4.1763,2.0812
16986,21.703,4,0,5.2128e-05,520.92,2.2952e-05,70.232,1.3609e-05,0.03277,-5.0577e-05,-482.23,2.1237
16987,21.611,3.9091,0,5.4001e-05,539.64,2.3462e-05,68.842,1.4304e-05,0.03212,-5.2499e-05,-501.9,2.1096
16988,21.611,4,0.05,7.2377e-07,7.2327,5.5577e-07,4.1758,-4.0908e-13,6.4884e-06,-5.5577e-07,-4.1758,2.1095
16989,21.886,4,0,4.8595e-05,485.62,2.2213e-05,75.694,1.2143e-05,0.036097,-4.6863e-05,-443.31,2.1521
16990,21.794,3.9091,0,5.0453e-05,504.18,2.2716e-05,74.246,1.2839e-05,0.03521,-4.8778e-05,-462.93,2.1379
16991,21.794,4,0.05,7.2412e-07,7.2362,5.5603e-07,4.1778,-4.0502e-13,5.1249e-06,-5.5603e-07,-4.1778,2.1379
16992,22.07,4,0,4.5121e-05,450.89,2.1516e-05,81.526,1.0671e-05,0.040069,-4.3177e-05,-404.55,2.1805
16993,21.978,3.9091,0,4.696e-05,469.28,2.2011e-05,80.008,1.1367e-05,0.038857,-4.5084e-05,-424.12,2.1663
16994,21.978,4,0.05,7.2496e-07,7.2446,5.5668e-07,4.1827,-3.9872e-13,1.2578e-06,-5.5668e-07,-4.1827,2.1663
16995,22.254,4,0,4.1711e-05,416.83,2.0865e-05,87.761,9.1908e-06,0.044896,-3.9519e-05,-365.94,2.209
16996,22.162,3.9091,0,4.3529e-05,434.99,2.1349e-05,86.158,9.8878e-06,0.043248,-4.1418e-05,-385.45,2.1948
16997,22.162,4,0.05,7.2636e-07,7.2586,5.5775e-07,4.1908,4.9535e-14,4.2704e-06,-5.5775e-07,-4.1907,2.1947
16998,22.438,4,0,3.8377e-05,383.51,2.0261e-05,94.427,7.7004e-06,0.0509,-3.5888e-05,-327.46,2.2375
16999,22.346,3.9091,0,4.0168e-05,401.41,2.0733e-05,92.723,8.399e-06,0.048631,-3.7779e-05,-346.92,2.2233
17000,22.346,4,0.05,7.284e-07,7.2789,5.5932e-07,4.2025,2.1252e-13,2.7287e-06,-5.5932e-07,-4.2025,2.2232
17001,22.622,4,0,3.5131e-05,351.07,1.9707e-05,101.56,6.1984e-06,0.058492,-3.2283e-05,-289.08,2.266
17002,22.53,3.9091,0,3.6889e-05,368.63,2.0165e-05,99.731,6.8994e-06,0.055422,-3.4165e-05,-308.49,2.2518
17003,22.53,4,0.05,7.3116e-07,7.3065,5.6144e-07,4.2184,-9.1744e-15,5.6383e-06,-5.6144e-07,-4.2184,2.2517
17004,22.805,4,0,3.1989e-05,319.67,1.9204e-05,109.17,4.6829e-06,0.068675,-2.8702e-05,-250.77,2.2945
17005,22.713,3.9091,0,3.3705e-05,336.81,1.9647e-05,107.21,5.387e-06,0.064065,-3.0575e-05,-270.14,2.2803
17006,22.713,4,0.05,7.3473e-07,7.3422,5.6418e-07,4.239,1.369e-14,5.7414e-06,-5.6418e-07,-4.239,2.2802
17007,22.989,4,0,2.8976e-05,289.57,1.8752e-05,117.3,3.1521e-06,0.081864,-2.5141e-05,-212.5,2.3231
17008,22.897,3.9091,0,3.0636e-05,306.15,1.9179e-05,115.17,3.8604e-06,0.076195,-2.7006e-05,-231.84,2.3088
17009,22.897,4,0.05,7.392e-07,7.3869,5.6762e-07,4.2649,5.0913e-13,9.9718e-06,-5.6762e-07,-4.2648,2.3088
17010,23.173,4,0,2.6126e-05,261.08,1.8353e-05,125.95,1.6045e-06,0.10425,-2.1597e-05,-174.22,2.3516
17011,23.081,3.9091,0,2.7712e-05,276.92,1.8762e-05,123.65,2.3175e-06,0.091166,-2.3454e-05,-193.55,2.3374
17012,23.081,4,0.05,7.4465e-07,7.4414,5.718e-07,4.2963,3.0854e-13,1.2992e-05,-5.718e-07,-4.2963,2.3373
17013,23.357,4,0,2.3486e-05,234.7,1.8005e-05,135.13,3.7472e-08,0.1268,-1.8064e-05,-135.88,2.3802
17014,23.265,3.9091,0,2.4971e-05,249.54,1.8394e-05,132.64,7.5767e-07,0.12243,-1.9916e-05,-155.21,2.3659
17015,23.265,4,0.05,7.5115e-07,7.5063,5.7679e-07,4.3338,6.6528e-13,7.5663e-06,-5.7679e-07,-4.3338,2.3659
17016,23.541,4,0,2.1128e-05,211.14,1.7706e-05,144.86,-1.5444e-06,0.22188,-1.454e-05,-97.424,2.4088
17017,23.449,3.9091,0,2.2473e-05,224.58,1.8075e-05,142.13,-8.2319e-07,0.13975,-1.6384e-05,-116.78,2.3945
17018,23.449,4,0.05,7.5868e-07,7.5816,5.8257e-07,4.3772,9.0536e-13,1.5211e-05,-5.8257e-07,-4.3772,2.3945
17019,23.724,4,0,1.915e-05,191.37,1.7455e-05,155.07,-3.155e-06,0.21581,-1.102e-05,-58.876,2.4374
17020,23.632,3.9091,0,2.0301e-05,202.87,1.7802e-05,152.19,-2.4109e-06,0.32391,-1.2862e-05,-78.205,2.4231
17021,23.632,4,0.05,7.6747e-07,7.6694,5.8932e-07,4.4279,9.0589e-13,1.3407e-05,-5.8932e-07,-4.4279,2.4231
17022,23.816,3.9091,0,1.8568e-05,185.55,1.7573e-05,162.59,-4.0404e-06,0.19634,-9.3426e-06,-39.642,2.4517
17023,23.816,4,0.05,7.8187e-07,7.8133,6.0038e-07,4.511,6.6136e-13,1.1234e-05,-6.0038e-07,-4.511,2.4517
17024,23.908,4,0,1.7727e-05,177.15,1.7244e-05,165.09,-4.671e-06,0.43017,-7.7014e-06,-22.34,2.466
17025,11.042,3.8182,0,0.00075646,7559.4,0.00029084,503.16,0.00022504,8.7942,-0.00074654,-7291.3,0.62658
17026,10.95,3.7273,0,0.00084474,8441.5,0.00033562,682.5,0.00024335,-10.763,-0.00083117,-8084.3,0.61653
17027,10.95,3.8182,0.05,5.1533e-05,514.97,3.9571e-05,297.32,2.1151e-12,1.4702e-05,-3.9571e-05,-297.32,0.61609
17028,11.226,3.8182,0,0.00057928,5788.8,0.00020575,181.96,0.00018303,11.247,-0.0005758,-5690.3,0.6478
17029,11.134,3.7273,0,0.00065073,6502.8,0.00023889,296.81,0.00020071,9.8738,-0.00064503,-6344.7,0.63746
17030,11.134,3.8182,0.05,2.3625e-05,236.08,1.8141e-05,136.3,5.0115e-13,1.6008e-05,-1.8141e-05,-136.3,0.63711
17031,11.41,3.8182,0,0.00048112,4807.9,0.00015966,5.1135,0.00015773,-9.3689,-0.00048119,-4810,0.66937
17032,11.318,3.7273,0,0.0005331,5327.3,0.00018111,62.021,0.00017282,-0.19755,-0.00053202,-5296.1,0.6588
17033,11.318,3.8182,0.05,1.1929e-05,119.21,9.1601e-06,68.825,-7.4137e-13,5.5166e-06,-9.1601e-06,-68.825,0.65851
17034,11.594,3.8182,0,0.0004204,4201.1,0.00014436,2.5788,0.00012937,-110.1,-0.00042212,-4253.7,0.69124
17035,11.502,3.7273,0,0.00045835,4580.4,0.0001552,2.5101,0.00014479,-75.706,-0.00045955,-4616.5,0.68047
17036,11.502,3.8182,0.05,8.2241e-06,82.184,6.3151e-06,47.449,-3.3009e-12,-2.9517e-06,-6.3151e-06,-47.449,0.68024
17037,11.778,3.8182,0,0.00037827,3780.1,0.00013341,0.85218,0.00011017,-173.74,-0.00038091,-3863.5,0.71338
17038,11.686,3.7273,0,0.00040651,4062.3,0.00014209,0.78537,0.00012062,-160.51,-0.00040899,-4139.8,0.70245
17039,11.686,3.8182,0.05,6.153e-06,61.488,4.7248e-06,35.5,-2.1538e-12,5.8365e-09,-4.7248e-06,-35.5,0.70224
17040,11.961,3.8182,0,0.00034754,3473,0.00012497,0.78831,9.6998e-05,-209.38,-0.00035062,-3572.6,0.73577
17041,11.869,3.7273,0,0.00036891,3686.5,0.00013205,0.82326,0.00010402,-209.76,-0.00037201,-3786.5,0.72469
17042,11.869,3.8182,0.05,4.8889e-06,48.855,3.7541e-06,28.207,-6.7328e-13,-7.912e-06,-3.7541e-06,-28.207,0.72451
17043,12.145,3.8182,0,0.00032412,3238.9,0.00011805,0.52889,8.7758e-05,-227.11,-0.00032737,-3346.2,0.75839
17044,12.053,3.7273,0,0.00034051,3402.7,0.00012391,0.54509,9.2407e-05,-236.13,-0.0003439,-3514.4,0.74718
17045,12.053,3.8182,0.05,4.0178e-06,40.151,3.0852e-06,23.181,-1.8412e-12,3.7813e-06,-3.0852e-06,-23.181,0.74702
17046,12.329,3.8182,0,0.00030569,3054.8,0.00011223,0.41076,8.1165e-05,-233.02,-0.00030898,-3164.4,0.78122
17047,12.237,3.7273,0,0.00031843,3182.1,0.00011713,0.43298,8.4164e-05,-247.24,-0.00032191,-3298.3,0.7699
17048,12.237,3.8182,0.05,3.3731e-06,33.708,2.5901e-06,19.461,-1.711e-12,3.8242e-06,-2.5901e-06,-19.461,0.76975
17049,12.513,3.8182,0,0.0002908,2906,0.00010722,0.31093,7.6395e-05,-231.28,-0.00029403,-3014.5,0.80427
17050,12.421,3.7273,0,0.00030084,3006.3,0.00011135,0.3279,7.8253e-05,-248.35,-0.00030428,-3122.6,0.79283
17051,12.421,3.8182,0.05,2.8747e-06,28.727,2.2074e-06,16.585,-2.1668e-12,6.134e-06,-2.2074e-06,-16.585,0.7927
17052,12.697,3.8182,0,0.00027848,2782.9,0.00010282,0.23949,7.2894e-05,-224.62,-0.00028162,-2888.3,0.82751
17053,12.605,3.7273,0,0.0002865,2863,0.00010635,0.25328,7.3973e-05,-242.98,-0.00028985,-2976.6,0.81597
17054,12.605,3.8182,0.05,2.4798e-06,24.781,1.9042e-06,14.307,-2.9473e-12,-2.7059e-06,-1.9042e-06,-14.307,0.81584
17055,12.88,3.8182,0,0.00026809,2679,9.8916e-05,0.18412,7.0285e-05,-214.94,-0.00027109,-2779.9,0.85095
17056,12.788,3.7273,0,0.00027458,2743.9,0.00010195,0.19444,7.0842e-05,-233.54,-0.0002778,-2853.1,0.83931
17057,12.788,3.8182,0.05,2.163e-06,21.615,1.6609e-06,12.479,-2.5528e-12,-7.6435e-06,-1.6609e-06,-12.479,0.83918
17058,13.064,3.8182,0,0.00025913,2589.5,9.5404e-05,0.14182,6.8305e-05,-203.47,-0.00026199,-2685.1,0.87456
17059,12.972,3.7273,0,0.00026448,2643,9.8041e-05,0.14944,6.8519e-05,-221.66,-0.00026755,-2746.8,0.86283
17060,12.972,3.8182,0.05,1.9072e-06,19.059,1.4645e-06,11.004,-1.5776e-12,-1.1692e-05,-1.4645e-06,-11.004,0.86271
17061,13.248,3.8182,0,0.00025127,2511,9.2213e-05,0.10925,6.6766e-05,-191.09,-0.00025397,-2601,0.89836
17062,13.156,3.7273,0,0.00025576,2555.9,9.4526e-05,0.1147,6.6767e-05,-208.46,-0.00025867,-2653.6,0.88653
17063,13.156,3.8182,0.05,1.7003e-06,16.991,1.3056e-06,9.81,-2.3655e-12,-7.5643e-06,-1.3056e-06,-9.8099,0.88641
17064,13.432,3.8182,0,0.00024425,2440.8,8.9283e-05,0.084308,6.5534e-05,-178.35,-0.00024679,-2525.1,0.92232
17065,13.34,3.7273,0,0.0002481,2479.2,9.1332e-05,0.088085,6.5411e-05,-194.67,-0.00025083,-2570.8,0.91041
17066,13.34,3.8182,0.05,1.5328e-06,15.318,1.177e-06,8.8437,-1.9596e-12,-7.9621e-07,-1.177e-06,-8.8436,0.91029
17067,13.616,3.8182,0,0.00023788,2377.1,8.6568e-05,0.065254,6.4512e-05,-165.65,-0.00024026,-2455.6,0.94645
17068,13.524,3.7273,0,0.00024124,2410.7,8.8402e-05,0.067799,6.4328e-05,-180.81,-0.0002438,-2496,0.93446
17069,13.524,3.8182,0.05,1.3973e-06,13.964,1.073e-06,8.062,-1.7415e-12,-5.4704e-06,-1.073e-06,-8.062,0.93434
17070,13.799,3.8182,0,0.00023201,2318.5,8.4031e-05,0.050738,6.363e-05,-153.24,-0.00023423,-2391.2,0.97075
17071,13.707,3.7273,0,0.000235,2348.4,8.5689e-05,0.052382,6.3428e-05,-167.21,-0.0002374,-2427.5,0.95867
17072,13.707,3.8182,0.05,1.2878e-06,12.869,9.8888e-07,7.4301,-2.9344e-12,-2.7761e-07,-9.8888e-07,-7.4301,0.95856
17073,13.983,3.8182,0,0.00022652,2263.6,8.1642e-05,0.039713,6.2836e-05,-141.26,-0.00022859,-2330.9,0.9952
17074,13.891,3.7273,0,0.00022924,2290.8,8.3155e-05,0.04071,6.2645e-05,-154.06,-0.00023147,-2363.9,0.98304
17075,13.891,3.8182,0.05,1.1993e-06,11.985,9.2091e-07,6.9194,-1.446e-12,-7.9764e-06,-9.2091e-07,-6.9193,0.98293
17076,14.167,3.8182,0,0.00022132,2211.7,7.9376e-05,0.031343,6.2092e-05,-129.83,-0.00022325,-2273.8,1.0198
17077,14.075,3.7273,0,0.00022384,2236.9,8.077e-05,0.031905,6.1931e-05,-141.51,-0.00022591,-2304.3,1.0076
17078,14.075,3.8182,0.05,1.1277e-06,11.269,8.6594e-07,6.5063,-1.9801e-12,-8.188e-06,-8.6594e-07,-6.5063,1.0075
17079,14.351,3.8182,0,0.00021636,2162.1,7.7214e-05,0.025003,6.1373e-05,-119,-0.00021814,-2219.1,1.0446
17080,14.259,3.7273,0,0.00021873,2185.8,7.8509e-05,0.025247,6.1253e-05,-129.63,-0.00022065,-2247.7,1.0323
17081,14.259,3.8182,0.05,1.0697e-06,10.69,8.214e-07,6.1717,-1.0193e-12,-5.1428e-06,-8.214e-07,-6.1717,1.0321
17082,14.534,3.8182,0,0.00021157,2114.2,7.5138e-05,0.020254,6.0658e-05,-108.78,-0.00021321,-2166.5,1.0695
17083,14.443,3.7273,0,0.00021383,2136.8,7.6352e-05,0.020259,6.0586e-05,-118.44,-0.0002156,-2193.6,1.0571
17084,14.443,3.8182,0.05,1.0226e-06,10.219,7.852e-07,5.8997,-1.9527e-12,-5.807e-06,-7.8519e-07,-5.8997,1.057
17085,14.718,3.8182,0,0.00020691,2067.7,7.3137e-05,0.016732,5.9934e-05,-99.182,-0.00020842,-2115.5,1.0945
17086,14.626,3.7273,0,0.0002091,2089.5,7.4282e-05,0.016588,5.9912e-05,-107.95,-0.00021073,-2141.4,1.0821
17087,14.626,3.8182,0.05,9.8407e-07,9.8339,7.5565e-07,5.6777,-1.9654e-12,-1.3601e-06,-7.5564e-07,-5.6776,1.082
17088,14.902,3.8182,0,0.00020236,2022.2,7.1198e-05,0.014138,5.9192e-05,-90.192,-0.00020374,-2065.8,1.1197
17089,14.81,3.7273,0,0.00020449,2043.5,7.2286e-05,0.0139,5.9222e-05,-98.15,-0.00020598,-2090.8,1.1072
17090,14.81,3.8182,0.05,9.5248e-07,9.5182,7.3139e-07,5.4953,-1.8816e-12,-2.0844e-06,-7.3138e-07,-5.4953,1.1071
17091,15.086,3.8182,0,0.00019789,1977.5,6.9313e-05,0.012248,5.8426e-05,-81.786,-0.00019915,-2017.1,1.145
17092,14.994,3.7273,0,0.00019998,1998.4,7.0354e-05,0.011956,5.8505e-05,-89.011,-0.00020134,-2041.4,1.1324
17093,14.994,3.8182,0.05,9.2637e-07,9.2573,7.1134e-07,5.3447,-1.9623e-12,-1.9499e-06,-7.1134e-07,-5.3447,1.1323
17094,15.27,3.8182,0,0.00019347,1933.4,6.7474e-05,0.010878,5.7633e-05,-73.937,-0.00019462,-1969.3,1.1705
17095,15.178,3.7273,0,0.00019554,1954,6.8475e-05,0.010578,5.7759e-05,-80.501,-0.00019678,-1993,1.1578
17096,15.178,3.8182,0.05,9.0462e-07,9.0399,6.9463e-07,5.2192,-1.4624e-12,-2.8984e-06,-6.9463e-07,-5.2192,1.1577
17097,15.453,3.8182,0,0.00018911,1889.8,6.5676e-05,0.009896,5.681e-05,-66.611,-0.00019015,-1922.2,1.1961
17098,15.362,3.7273,0,0.00019115,1910.2,6.6642e-05,0.0095897,5.6981e-05,-72.582,-0.00019228,-1945.5,1.1834
17099,15.362,3.8182,0.05,8.8632e-07,8.8571,6.8059e-07,5.1137,-1.4204e-12,-5.8665e-07,-6.8058e-07,-5.1136,1.1833
17100,15.637,3.8182,0,0.00018477,1846.5,6.3913e-05,0.0092435,5.5956e-05,-59.776,-0.00018572,-1875.6,1.2218
17101,15.545,3.7273,0,0.00018681,1866.8,6.485e-05,0.0089233,5.617e-05,-65.213,-0.00018783,-1898.6,1.209
17102,15.545,3.8182,0.05,8.7077e-07,8.7017,6.6864e-07,5.0239,-1.4101e-12,-4.3065e-07,-6.6864e-07,-5.0239,1.2089
17103,15.821,3.8182,0,0.00018047,1803.5,6.2182e-05,0.0088539,5.5074e-05,-53.396,-0.00018132,-1829.6,1.2477
17104,15.729,3.7273,0,0.0001825,1823.8,6.3093e-05,0.0085399,5.5326e-05,-58.356,-0.00018342,-1852.2,1.2348
17105,15.729,3.8182,0.05,8.5741e-07,8.5682,6.5839e-07,4.9469,-4.8524e-13,-1.154e-06,-6.5839e-07,-4.9468,1.2347
17106,16.005,3.8182,0,0.00017619,1760.7,6.0478e-05,0.0086582,5.4163e-05,-47.436,-0.00017695,-1783.9,1.2736
17107,15.913,3.7273,0,0.00017822,1780.9,6.1368e-05,0.0083556,5.445e-05,-51.968,-0.00017904,-1806.3,1.2607
17108,15.913,3.8182,0.05,8.4582e-07,8.4524,6.4949e-07,4.88,-9.5304e-13,5.8287e-07,-6.4949e-07,-4.88,1.2606
17109,16.189,3.8182,0,0.00017193,1718.1,5.8798e-05,0.0086113,5.3225e-05,-41.862,-0.0001726,-1738.6,1.2997
17110,16.097,3.7273,0,0.00017395,1738.3,5.9669e-05,0.0083239,5.3544e-05,-46.012,-0.00017469,-1760.9,1.2867
17111,16.097,3.8182,0.05,8.3566e-07,8.3508,6.4168e-07,4.8214,-1.8783e-12,1.9323e-06,-6.4168e-07,-4.8213,1.2866
17112,16.372,3.8182,0,0.00016768,1675.7,5.7141e-05,0.0086625,5.2263e-05,-36.642,-0.00016827,-1693.7,1.3259
17113,16.281,3.7273,0,0.00016971,1695.9,5.7995e-05,0.0084069,5.2611e-05,-40.45,-0.00017036,-1715.7,1.3129
17114,16.281,3.8182,0.05,8.2664e-07,8.2607,6.3476e-07,4.7693,-1.8874e-12,1.9327e-06,-6.3476e-07,-4.7693,1.3128
17115,16.556,3.8182,0,0.00016345,1633.4,5.5503e-05,0.0087895,5.1278e-05,-31.743,-0.00016397,-1649,1.3522
17116,16.464,3.7273,0,0.00016547,1653.6,5.6343e-05,0.0085451,5.1651e-05,-35.245,-0.00016604,-1670.9,1.3391
17117,16.464,3.8182,0.05,8.1856e-07,8.1799,6.2855e-07,4.7227,-5.0733e-13,1.0697e-07,-6.2855e-07,-4.7227,1.339
17118,16.74,3.8182,0,0.00015923,1591.2,5.3884e-05,0.0090093,5.0272e-05,-27.134,-0.00015967,-1604.6,1.3787
17119,16.648,3.7273,0,0.00016125,1611.4,5.4711e-05,0.0087565,5.0669e-05,-30.364,-0.00016175,-1626.4,1.3655
17120,16.648,3.8182,0.05,8.1123e-07,8.1067,6.2292e-07,4.6804,-1.8586e-12,1.1303e-06,-6.2292e-07,-4.6804,1.3654
17121,16.924,3.8182,0,0.00015502,1549.1,5.2282e-05,0.0093182,4.9248e-05,-22.788,-0.00015539,-1560.4,1.4052
17122,16.832,3.7273,0,0.00015705,1569.4,5.3097e-05,0.0090594,4.9666e-05,-25.774,-0.00015747,-1582.1,1.392
17123,16.832,3.8182,0.05,8.0453e-07,8.0398,6.1778e-07,4.6418,-4.8001e-13,2.9083e-07,-6.1778e-07,-4.6418,1.3919
17124,17.108,3.8182,0,0.00015082,1507.2,5.0695e-05,0.009706,4.8208e-05,-18.676,-0.00015113,-1516.4,1.4318
17125,17.016,3.7273,0,0.00015285,1527.4,5.1499e-05,0.009429,4.8644e-05,-21.444,-0.0001532,-1538,1.4186
17126,17.016,3.8182,0.05,7.9836e-07,7.9781,6.1304e-07,4.6062,-2.0429e-14,8.2931e-07,-6.1304e-07,-4.6061,1.4185
17127,17.291,3.8182,0,0.00014664,1465.4,4.9122e-05,0.010184,4.7154e-05,-14.771,-0.00014688,-1472.7,1.4586
17128,17.2,3.7273,0,0.00014866,1485.6,4.9917e-05,0.0098674,4.7607e-05,-17.345,-0.00014895,-1494.2,1.4453
17129,17.2,3.8182,0.05,7.9264e-07,7.9209,6.0865e-07,4.5731,-1.3715e-12,1.6958e-06,-6.0865e-07,-4.5731,1.4452
17130,17.475,3.8182,0,0.00014247,1423.7,4.7561e-05,0.010775,4.6089e-05,-11.05,-0.00014265,-1429.2,1.4854
17131,17.383,3.7273,0,0.00014449,1443.9,4.8348e-05,0.010388,4.6556e-05,-13.451,-0.00014472,-1450.6,1.4721
17132,17.383,3.8182,0.05,7.8729e-07,7.8675,6.0455e-07,4.5423,-1.3653e-12,1.1885e-06,-6.0454e-07,-4.5423,1.472
17133,17.659,3.8182,0,0.00013831,1382.1,4.6013e-05,0.011601,4.5015e-05,-7.4872,-0.00013843,-1385.9,1.5124
17134,17.567,3.7273,0,0.00014033,1402.3,4.6792e-05,0.011009,4.5495e-05,-9.734,-0.00014049,-1407.2,1.499
17135,17.567,3.8182,0.05,7.8228e-07,7.8174,6.0069e-07,4.5134,-4.5962e-13,2.1733e-06,-6.0069e-07,-4.5133,1.4989
17136,17.843,3.8182,0,0.00013416,1340.7,4.4476e-05,0.013226,4.3934e-05,-4.0612,-0.00013423,-1342.7,1.5394
17137,17.751,3.7273,0,0.00013618,1360.9,4.5247e-05,0.011926,4.4424e-05,-6.1709,-0.00013629,-1364,1.5259
17138,17.751,3.8182,0.05,7.7753e-07,7.77,5.9705e-07,4.486,-9.1016e-13,1.6548e-06,-5.9705e-07,-4.486,1.5259
17139,18.027,3.8182,0,0.00013003,1299.4,4.2951e-05,0.02522,4.2847e-05,-0.75915,-0.00013005,-1299.8,1.5665
17140,17.935,3.7273,0,0.00013205,1319.6,4.3714e-05,0.014153,4.3348e-05,-2.7385,-0.0001321,-1321,1.553
17141,17.935,3.8182,0.05,7.7304e-07,7.7251,5.936e-07,4.4601,-1.8188e-12,2.7948e-06,-5.936e-07,-4.46,1.5529
17142,18.21,3.8182,0,0.00012592,1258.3,4.1761e-05,2.4808,4.1431e-05,0.0069979,-0.00012588,-1257.1,1.5937
17143,18.119,3.7273,0,0.00012793,1278.5,4.2269e-05,0.60679,4.2188e-05,-0.0033818,-0.00012792,-1278.2,1.5802
17144,18.119,3.8182,0.05,7.6877e-07,7.6824,5.9032e-07,4.4355,-1.3638e-12,2.4975e-06,-5.9032e-07,-4.4354,1.5801
17145,18.394,3.8182,0,0.00012182,1217.4,4.0671e-05,5.6278,3.9923e-05,0.0099927,-0.00012173,-1214.6,1.621
17146,18.302,3.7273,0,0.00012383,1237.5,4.1185e-05,3.8366,4.0676e-05,0.0096313,-0.00012377,-1235.5,1.6074
17147,18.302,3.8182,0.05,7.6471e-07,7.6419,5.8721e-07,4.412,-1.3643e-12,1.9148e-06,-5.872e-07,-4.412,1.6074
17148,18.578,3.8182,0,0.00011774,1176.6,3.9583e-05,8.725,3.8423e-05,0.011213,-0.00011759,-1172.2,1.6484
17149,18.486,3.7273,0,0.00011975,1196.7,4.0102e-05,7.014,3.917e-05,0.011221,-0.00011963,-1193.1,1.6348
17150,18.486,3.8182,0.05,7.6085e-07,7.6033,5.8424e-07,4.3898,-9.0947e-13,1.6988e-06,-5.8424e-07,-4.3897,1.6347
17151,18.762,3.8182,0,0.00011368,1136,3.8498e-05,11.791,3.693e-05,0.01209,-0.00011348,-1130.1,1.6759
17152,18.67,3.7273,0,0.00011568,1156,3.9022e-05,10.149,3.7672e-05,0.012161,-0.00011551,-1150.9,1.6622
17153,18.67,3.8182,0.05,7.5717e-07,7.5665,5.8141e-07,4.3685,-1.8183e-12,3.0953e-06,-5.8141e-07,-4.3685,1.6621
17154,18.946,3.8182,0,0.00010964,1095.6,3.7419e-05,14.844,3.5445e-05,0.012881,-0.00010938,-1088.1,1.7034
17155,18.854,3.7273,0,0.00011164,1115.6,3.7945e-05,13.261,3.6182e-05,0.012954,-0.0001114,-1108.9,1.6897
17156,18.854,3.8182,0.05,7.5365e-07,7.5313,5.7871e-07,4.3482,-9.0922e-13,2.1336e-06,-5.7871e-07,-4.3482,1.6896
17157,19.129,3.8182,0,0.00010562,1055.5,3.6346e-05,17.905,3.3965e-05,0.013663,-0.0001053,-1046.4,1.731
17158,19.038,3.7273,0,0.00010761,1075.3,3.6875e-05,16.37,3.4698e-05,0.013729,-0.00010732,-1067.1,1.7173
17159,19.038,3.8182,0.05,7.503e-07,7.4979,5.7614e-07,4.3289,-4.5903e-13,3.533e-06,-5.7614e-07,-4.3289,1.7172
17160,19.313,3.8182,0,0.00010162,1015.5,3.5283e-05,20.992,3.2491e-05,0.014462,-0.00010125,-1004.8,1.7587
17161,19.221,3.7273,0,0.0001036,1035.3,3.5813e-05,19.496,3.322e-05,0.014518,-0.00010326,-1025.4,1.7449
17162,19.221,3.8182,0.05,7.4712e-07,7.4661,5.737e-07,4.3106,-4.659e-13,2.5678e-06,-5.7369e-07,-4.3105,1.7448
17163,19.497,3.8182,0,9.7646e-05,975.79,3.4231e-05,24.125,3.1022e-05,0.015298,-9.7213e-05,-963.5,1.7865
17164,19.405,3.7273,0,9.9622e-05,995.53,3.4761e-05,22.659,3.1748e-05,0.015338,-9.9217e-05,-984,1.7726
17165,19.405,3.8182,0.05,7.4411e-07,7.436,5.7138e-07,4.2932,-4.698e-13,4.1989e-06,-5.7138e-07,-4.2931,1.7726
17166,19.681,3.8182,0,9.3696e-05,936.31,3.3192e-05,27.322,2.9558e-05,0.016173,-9.3201e-05,-922.34,1.8143
17167,19.589,3.7273,0,9.5664e-05,955.98,3.3722e-05,25.879,3.028e-05,0.016204,-9.5197e-05,-942.77,1.8004
17168,19.589,3.8182,0.05,7.4127e-07,7.4076,5.692e-07,4.2768,-1.379e-12,6.7667e-06,-5.692e-07,-4.2768,1.8003
17169,19.865,3.8182,0,8.9771e-05,897.09,3.2168e-05,30.605,2.8097e-05,0.017101,-8.9211e-05,-881.39,1.8421
17170,19.773,3.7273,0,9.1731e-05,916.68,3.2697e-05,29.175,2.8816e-05,0.01711,-9.12e-05,-901.73,1.8282
17171,19.773,3.8182,0.05,7.3861e-07,7.381,5.6716e-07,4.2614,-1.5229e-14,5.1589e-06,-5.6716e-07,-4.2614,1.8282
17172,20.048,3.8182,0,8.5874e-05,858.15,3.1161e-05,33.993,2.6639e-05,0.018113,-8.5245e-05,-840.64,1.8701
17173,19.956,3.7273,0,8.7825e-05,877.65,3.1688e-05,32.569,2.7356e-05,0.018084,-8.7225e-05,-860.9,1.8561
17174,19.956,3.8182,0.05,7.3612e-07,7.3561,5.6525e-07,4.2471,-9.2054e-13,5.2184e-06,-5.6525e-07,-4.247,1.8561
17175,20.232,3.8182,0,8.2005e-05,819.49,3.0174e-05,37.507,2.5184e-05,0.019225,-8.1303e-05,-800.08,1.8981
17176,20.14,3.7273,0,8.3948e-05,838.9,3.0697e-05,36.08,2.5898e-05,0.01916,-8.3275e-05,-820.27,1.8841
17177,20.14,3.8182,0.05,7.3382e-07,7.3332,5.6349e-07,4.2338,-9.1232e-13,3.7367e-06,-5.6348e-07,-4.2338,1.8841
17178,20.416,3.8182,0,7.8167e-05,781.13,2.9207e-05,41.169,2.3731e-05,0.020449,-7.7385e-05,-759.73,1.9261
17179,20.324,3.7273,0,8.01e-05,800.45,2.9727e-05,39.731,2.4442e-05,0.02034,-7.935e-05,-779.83,1.9121
17180,20.324,3.8182,0.05,7.3174e-07,7.3123,5.6188e-07,4.2218,-9.1221e-13,2.843e-06,-5.6188e-07,-4.2218,1.9121
17181,20.6,3.8182,0,7.4361e-05,743.1,2.8265e-05,45,2.2278e-05,0.021801,-7.3493e-05,-719.57,1.9542
17182,20.508,3.7273,0,7.6284e-05,762.32,2.878e-05,43.544,2.2988e-05,0.021639,-7.545e-05,-739.6,1.9402
17183,20.508,3.8182,0.05,7.2987e-07,7.2937,5.6045e-07,4.211,-9.1202e-13,2.8759e-06,-5.6045e-07,-4.211,1.9402
17184,20.784,3.8182,0,7.0589e-05,705.41,2.7347e-05,49.024,2.0826e-05,0.023297,-6.9627e-05,-679.61,1.9824
17185,20.692,3.7273,0,7.2502e-05,724.52,2.7858e-05,47.541,2.1534e-05,0.023079,-7.1575e-05,-699.56,1.9683
17186,20.692,3.8182,0.05,7.2825e-07,7.2775,5.5921e-07,4.2017,-6.6795e-13,4.8484e-06,-5.592e-07,-4.2016,1.9683
17187,20.967,3.8182,0,6.6854e-05,668.08,2.6458e-05,53.263,1.9373e-05,0.024964,-6.5788e-05,-639.84,2.0106
17188,20.875,3.7273,0,6.8755e-05,687.07,2.6963e-05,51.746,2.008e-05,0.024667,-6.7728e-05,-659.73,1.9965
17189,20.875,3.8182,0.05,7.2689e-07,7.2639,5.5816e-07,4.1938,-6.6598e-13,5.8253e-06,-5.5816e-07,-4.1938,1.9965
17190,21.151,3.8182,0,6.3157e-05,631.13,2.56e-05,57.743,1.7918e-05,0.026849,-6.1976e-05,-600.26,2.0388
17191,21.059,3.7273,0,6.5045e-05,650.01,2.6098e-05,56.183,1.8624e-05,0.02645,-6.3907e-05,-620.08,2.0247
17192,21.059,3.8182,0.05,7.2582e-07,7.2532,5.5734e-07,4.1876,-4.6108e-13,4.7282e-06,-5.5734e-07,-4.1876,2.0247
17193,21.335,3.8182,0,5.9501e-05,594.6,2.4774e-05,62.489,1.6461e-05,0.029003,-5.8191e-05,-560.87,2.0671
17194,21.243,3.7273,0,6.1377e-05,613.34,2.5265e-05,60.876,1.7166e-05,0.02848,-6.0114e-05,-580.62,2.053
17195,21.243,3.8182,0.05,7.2506e-07,7.2456,5.5676e-07,4.1833,-6.7872e-13,3.8302e-06,-5.5676e-07,-4.1833,2.0529
17196,21.519,3.8182,0,5.589e-05,558.51,2.3983e-05,67.527,1.5e-05,0.031478,-5.4434e-05,-521.67,2.0954
17197,21.427,3.7273,0,5.7751e-05,577.11,2.4466e-05,65.852,1.5705e-05,0.030801,-5.6348e-05,-541.35,2.0813
17198,21.427,3.8182,0.05,7.2467e-07,7.2417,5.5646e-07,4.181,-2.0888e-13,4.8869e-06,-5.5646e-07,-4.181,2.0812
17199,21.703,3.8182,0,5.2327e-05,522.91,2.323e-05,72.885,1.3534e-05,0.034351,-5.0704e-05,-482.63,2.1238
17200,21.611,3.7273,0,5.4172e-05,541.35,2.3703e-05,71.136,1.424e-05,0.033479,-5.261e-05,-502.25,2.1096
17201,21.611,3.8182,0.05,7.2468e-07,7.2418,5.5646e-07,4.1811,-4.2076e-13,4.0465e-06,-5.5646e-07,-4.181,2.1096
17202,21.886,3.8182,0,4.8818e-05,487.84,2.2517e-05,78.588,1.2063e-05,0.037722,-4.7003e-05,-443.76,2.1522
17203,21.794,3.7273,0,5.0645e-05,506.1,2.298e-05,76.755,1.2769e-05,0.036602,-4.89e-05,-463.32,2.138
17204,21.794,3.8182,0.05,7.2513e-07,7.2463,5.5681e-07,4.1837,-6.4565e-13,4.0711e-06,-5.5681e-07,-4.1837,2.138
17205,22.07,3.8182,0,4.5367e-05,453.35,2.1846e-05,84.666,1.0584e-05,0.041734,-4.3329e-05,-405.04,2.1806
17206,21.978,3.7273,0,4.7173e-05,471.4,2.2297e-05,82.735,1.1291e-05,0.040282,-4.5217e-05,-424.54,2.1664
17207,21.978,3.8182,0.05,7.261e-07,7.256,5.5755e-07,4.1892,3.6834e-14,2.9302e-07,-5.5755e-07,-4.1892,2.1664
17208,22.254,3.8182,0,4.1982e-05,419.53,2.122e-05,91.144,9.096e-06,0.046603,-3.9681e-05,-366.45,2.2091
17209,22.162,3.7273,0,4.3763e-05,437.33,2.1658e-05,89.102,9.8056e-06,0.044706,-4.1561e-05,-385.9,2.1949
17210,22.162,3.8182,0.05,7.2762e-07,7.2712,5.5873e-07,4.198,-1.8057e-13,2.2306e-06,-5.5872e-07,-4.198,2.1948
17211,22.438,3.8182,0,3.8672e-05,386.45,2.064e-05,98.048,7.5979e-06,0.052656,-3.6059e-05,-327.97,2.2375
17212,22.346,3.7273,0,4.0424e-05,403.96,2.1065e-05,95.882,8.3101e-06,0.050127,-3.793e-05,-347.38,2.2233
17213,22.346,3.8182,0.05,7.2978e-07,7.2928,5.6038e-07,4.2105,-2.4452e-13,1.8191e-06,-5.6038e-07,-4.2105,2.2233
17214,22.622,3.8182,0,3.545e-05,354.26,2.0108e-05,105.4,6.0879e-06,0.060309,-3.246e-05,-289.58,2.266
17215,22.53,3.7273,0,3.7166e-05,371.4,2.0517e-05,103.1,6.8035e-06,0.056965,-3.4322e-05,-308.95,2.2518
17216,22.53,3.8182,0.05,7.3265e-07,7.3215,5.6259e-07,4.2271,2.1387e-13,3.7129e-06,-5.6259e-07,-4.2271,2.2518
17217,22.805,3.8182,0,3.2333e-05,323.1,1.9625e-05,113.23,4.5644e-06,0.070577,-2.8882e-05,-251.23,2.2946
17218,22.713,3.7273,0,3.4003e-05,339.8,2.0017e-05,110.76,5.2841e-06,0.065669,-3.0736e-05,-270.58,2.2803
17219,22.713,3.8182,0.05,7.363e-07,7.358,5.6539e-07,4.2481,3.0458e-15,1.9396e-06,-5.6539e-07,-4.2481,2.2803
17220,22.989,3.8182,0,2.9343e-05,293.23,1.919e-05,121.54,3.0256e-06,0.083885,-2.5322e-05,-212.91,2.3231
17221,22.897,3.7273,0,3.0956e-05,309.34,1.9565e-05,118.9,3.7503e-06,0.077887,-2.7169e-05,-232.24,2.3089
17222,22.897,3.8182,0.05,7.408e-07,7.4029,5.6884e-07,4.2741,2.7127e-13,8.9101e-06,-5.6884e-07,-4.2741,2.3088
17223,23.173,3.8182,0,2.6516e-05,264.98,1.8804e-05,130.35,1.4703e-06,0.10646,-2.1775e-05,-174.55,2.3517
17224,23.081,3.7273,0,2.8052e-05,280.33,1.9161e-05,127.53,2.2004e-06,0.092985,-2.3616e-05,-193.88,2.3374
17225,23.081,3.8182,0.05,7.462e-07,7.4569,5.7299e-07,4.3052,5.1254e-13,1.0016e-05,-5.7299e-07,-4.3052,2.3374
17226,23.357,3.8182,0,2.3899e-05,238.83,1.8465e-05,139.65,-1.038e-07,0.12928,-1.8237e-05,-136.12,2.3803
17227,23.265,3.7273,0,2.5332e-05,253.14,1.8803e-05,136.64,6.3399e-07,0.12446,-2.0073e-05,-155.46,2.366
17228,23.265,3.8182,0.05,7.5253e-07,7.5202,5.7785e-07,4.3418,2.1237e-13,3.699e-06,-5.7785e-07,-4.3418,2.366
17229,23.541,3.8182,0,2.1562e-05,215.47,1.8172e-05,149.47,-1.6919e-06,0.22501,-1.4706e-05,-97.555,2.4088
17230,23.449,3.7273,0,2.2853e-05,228.37,1.849e-05,146.23,-9.5283e-07,0.14206,-1.6536e-05,-116.94,2.3946
17231,23.449,3.8182,0.05,7.5978e-07,7.5926,5.8342e-07,4.3836,4.5345e-13,1.1417e-05,-5.8342e-07,-4.3836,2.3945
17232,23.724,3.8182,0,1.96e-05,195.87,1.7921e-05,159.72,-3.3075e-06,0.22078,-1.1175e-05,-58.896,2.4375
17233,23.632,3.7273,0,2.0698e-05,206.84,1.8219e-05,156.35,-2.5455e-06,0.3272,-1.3006e-05,-78.271,2.4232
17234,23.632,3.8182,0.05,7.6806e-07,7.6753,5.8978e-07,4.4314,4.5948e-13,1.142e-05,-5.8978e-07,-4.4314,2.4231
17235,23.816,3.7273,0,1.8975e-05,189.62,1.7989e-05,166.76,-4.1786e-06,0.20301,-9.4771e-06,-39.608,2.4518
17236,23.816,3.8182,0.05,7.8054e-07,7.8,5.9936e-07,4.5033,8.7808e-13,9.3598e-06,-5.9936e-07,-4.5033,2.4517
17237,23.908,3.8182,0,1.8194e-05,181.82,1.7715e-05,169.81,-4.8275e-06,0.43185,-7.8544e-06,-22.311,2.4661
17238,11.042,3.6364,0,0.00074476,7442.4,0.00028896,515.84,0.00021883,-11.047,-0.00073477,-7176.1,0.62726
17239,10.95,3.5455,0,0.00079545,7949,0.00031903,682.41,0.00022754,-4.9788,-0.00078169,-7588,0.6172
17240,10.95,3.6364,0.05,2.2119e-05,221.03,1.6984e-05,127.61,1.1533e-12,3.6886e-05,-1.6984e-05,-127.61,0.61686
17241,11.226,3.6364,0,0.0006067,6062.8,0.00021634,192.56,0.0001904,-2.3648,-0.00060323,-5965.4,0.64834
17242,11.134,3.5455,0,0.00066191,6614.6,0.00024606,330.83,0.00020151,-3.8422,-0.00065572,-6444.7,0.63801
17243,11.134,3.6364,0.05,1.749e-05,174.78,1.343e-05,100.91,7.1702e-12,3.1444e-05,-1.343e-05,-100.91,0.63772
17244,11.41,3.6364,0,0.00051086,5105.1,0.00016958,6.2986,0.00016749,-9.3729,-0.00051091,-5106.6,0.66981
17245,11.318,3.5455,0,0.00055757,5571.9,0.00019126,87.899,0.00017975,1.4151,-0.000556,-5526.7,0.65924
17246,11.318,3.6364,0.05,1.2566e-05,125.57,9.6491e-06,72.5,-1.0452e-13,2.0999e-05,-9.6491e-06,-72.5,0.659
17247,11.594,3.6364,0,0.00044454,4442.3,0.00015296,0.98969,0.0001361,-125.64,-0.00044652,-4503.3,0.6916
17248,11.502,3.5455,0,0.00048125,4809.2,0.00016244,1.2882,0.00015277,-71.374,-0.0004824,-4843.8,0.68083
17249,11.502,3.6364,0.05,8.8328e-06,88.267,6.7825e-06,50.961,-9.7538e-13,5.0573e-06,-6.7825e-06,-50.961,0.68063
17250,11.778,3.6364,0,0.00039709,3968.2,0.00014074,0.85068,0.00011443,-196.85,-0.00040006,-4062.5,0.71368
17251,11.686,3.5455,0,0.00042539,4250.9,0.00014876,0.973,0.0001261,-169.3,-0.000428,-4332.5,0.70274
17252,11.686,3.6364,0.05,6.7471e-06,67.424,5.1809e-06,38.928,-1.4922e-12,7.1852e-06,-5.1809e-06,-38.927,0.70258
17253,11.961,3.6364,0,0.0003618,3615.5,0.00013099,0.62222,9.9371e-05,-236.96,-0.00036524,-3727.9,0.73603
17254,11.869,3.5455,0,0.00038357,3833.1,0.00013774,0.69656,0.00010737,-227.43,-0.00038692,-3941.4,0.72494
17255,11.869,3.6364,0.05,5.3901e-06,53.863,4.1389e-06,31.098,-1.778e-12,5.9064e-06,-4.1389e-06,-31.098,0.7248
17256,12.145,3.6364,0,0.00033477,3345.4,0.00012298,0.47185,8.8764e-05,-256.63,-0.00033839,-3466.1,0.75862
17257,12.053,3.5455,0,0.00035161,3513.7,0.00012865,0.5299,9.415e-05,-258.72,-0.00035529,-3635.6,0.7474
17258,12.053,3.6364,0.05,4.4245e-06,44.214,3.3974e-06,25.527,-2.7597e-12,-3.9708e-06,-3.3974e-06,-25.527,0.74727
17259,12.329,3.6364,0,0.00031355,3133.3,0.00011625,0.3637,8.1219e-05,-262.81,-0.00031718,-3256.2,0.78144
17260,12.237,3.5455,0,0.00032668,3264.6,0.00012104,0.40577,8.4767e-05,-272.11,-0.00033045,-3391.9,0.77009
17261,12.237,3.6364,0.05,3.6972e-06,36.946,2.839e-06,21.331,-3.0774e-12,-3.1257e-06,-2.839e-06,-21.331,0.76997
17262,12.513,3.6364,0,0.00029652,2963.2,0.00011048,0.27897,7.5812e-05,-260.21,-0.00030008,-3084.5,0.80447
17263,12.421,3.5455,0,0.00030688,3066.7,0.00011455,0.3092,7.8082e-05,-273.69,-0.00031061,-3194.2,0.79301
17264,12.421,3.6364,0.05,3.1309e-06,31.288,2.4042e-06,18.064,-1.7018e-12,-1.1198e-05,-2.4042e-06,-18.064,0.7929
17265,12.697,3.6364,0,0.00028259,2824,0.00010548,0.21409,7.191e-05,-251.99,-0.00028603,-2941.4,0.8277
17266,12.605,3.5455,0,0.00029086,2906.6,0.00010896,0.23552,7.3301e-05,-267.66,-0.00029448,-3031,0.81614
17267,12.605,3.6364,0.05,2.6819e-06,26.801,2.0594e-06,15.473,-2.7156e-12,-8.6666e-07,-2.0594e-06,-15.473,0.81603
17268,12.88,3.6364,0,0.00027098,2707.9,0.00010108,0.16382,6.907e-05,-240.31,-0.00027426,-2820,0.85113
17269,12.788,3.5455,0,0.00027768,2774.8,0.00010408,0.1788,6.9867e-05,-256.85,-0.00028115,-2894.2,0.83947
17270,12.788,3.6364,0.05,2.3226e-06,23.21,1.7835e-06,13.4,-2.57e-12,-3.3574e-06,-1.7835e-06,-13.4,0.83936
17271,13.064,3.6364,0,0.00026112,2609.4,9.7163e-05,0.1252,6.6978e-05,-226.67,-0.00026423,-2715.2,0.87474
17272,12.972,3.5455,0,0.00026663,2664.5,9.9772e-05,0.13558,6.7382e-05,-243.23,-0.00026993,-2777.7,0.86298
17273,12.972,3.6364,0.05,2.0337e-06,20.323,1.5617e-06,11.734,-2.0466e-12,-2.5379e-06,-1.5616e-06,-11.734,0.86288
17274,13.248,3.6364,0,0.00025259,2524.2,9.3646e-05,0.095614,6.5411e-05,-212.05,-0.00025553,-2623.5,0.89853
17275,13.156,3.5455,0,0.00025721,2570.4,9.5937e-05,0.1027,6.5564e-05,-228.11,-0.00026033,-2676.8,0.88668
17276,13.156,3.6364,0.05,1.8011e-06,17.998,1.383e-06,10.391,-6.0173e-14,-5.7491e-06,-1.383e-06,-10.391,0.88659
17277,13.432,3.6364,0,0.00024509,2449.2,9.0452e-05,0.073097,6.4206e-05,-197.13,-0.00024784,-2541.7,0.92249
17278,13.34,3.5455,0,0.00024904,2488.6,9.2483e-05,0.077845,6.4207e-05,-212.38,-0.00025197,-2588,0.91056
17279,13.34,3.6364,0.05,1.6135e-06,16.124,1.239e-06,9.309,-1.4421e-12,-5.2384e-06,-1.239e-06,-9.309,0.91046
17280,13.616,3.6364,0,0.00023836,2382,8.7523e-05,0.056048,6.3245e-05,-182.36,-0.00024094,-2467.9,0.94662
17281,13.524,3.5455,0,0.00024181,2416.4,8.9342e-05,0.059166,6.3164e-05,-196.63,-0.00024455,-2508.7,0.9346
17282,13.524,3.6364,0.05,1.4622e-06,14.612,1.1228e-06,8.4362,-2.0579e-12,-9.2268e-06,-1.1228e-06,-8.4362,0.93451
17283,13.799,3.6364,0,0.00023223,2320.7,8.4813e-05,0.043186,6.2444e-05,-168.03,-0.00023463,-2400.2,0.97091
17284,13.707,3.5455,0,0.0002353,2351.4,8.6458e-05,0.045166,6.2329e-05,-181.25,-0.00023786,-2436.7,0.95881
17285,13.707,3.6364,0.05,1.3402e-06,13.392,1.0291e-06,7.732,-2.9795e-12,-4.6085e-06,-1.0291e-06,-7.732,0.95872
17286,13.983,3.6364,0,0.00022657,2264.1,8.2283e-05,0.033523,6.1741e-05,-154.31,-0.0002288,-2337.3,0.99536
17287,13.891,3.5455,0,0.00022935,2291.9,8.3784e-05,0.034715,6.1624e-05,-166.47,-0.00023173,-2370.6,0.98318
17288,13.891,3.6364,0.05,1.2416e-06,12.408,9.5341e-07,7.1636,-3.0712e-12,-1.1571e-05,-9.5341e-07,-7.1636,0.98309
17289,14.167,3.6364,0,0.00022125,2211,7.9903e-05,0.026275,6.1093e-05,-141.3,-0.00022332,-2278.2,1.02
17290,14.075,3.5455,0,0.00022382,2236.7,8.1286e-05,0.026947,6.0995e-05,-152.43,-0.00022603,-2309,1.0077
17291,14.075,3.6364,0.05,1.162e-06,11.612,8.9227e-07,6.7041,-2.8043e-12,-3.0202e-06,-8.9226e-07,-6.7041,1.0076
17292,14.351,3.6364,0,0.0002162,2160.6,7.7647e-05,0.020853,6.0467e-05,-129.06,-0.00021811,-2222.2,1.0447
17293,14.259,3.5455,0,0.00021862,2184.7,7.8933e-05,0.021159,6.0402e-05,-139.21,-0.00022066,-2251,1.0324
17294,14.259,3.6364,0.05,1.0975e-06,10.967,8.4273e-07,6.332,-1.9169e-12,-3.6801e-06,-8.4272e-07,-6.3319,1.0323
17295,14.534,3.6364,0,0.00021136,2112.2,7.5495e-05,0.016857,5.9841e-05,-117.61,-0.00021312,-2168.5,1.0696
17296,14.443,3.5455,0,0.00021367,2135.2,7.6701e-05,0.016896,5.9817e-05,-126.84,-0.00021554,-2195.8,1.0572
17297,14.443,3.6364,0.05,1.045e-06,10.443,8.0247e-07,6.0294,-1.9934e-12,-4.4927e-06,-8.0246e-07,-6.0294,1.0571
17298,14.718,3.6364,0,0.00020668,2065.3,7.3432e-05,0.013954,5.92e-05,-106.91,-0.00020829,-2116.7,1.0947
17299,14.626,3.5455,0,0.0002089,2087.5,7.457e-05,0.013825,5.9222e-05,-115.31,-0.00021062,-2142.8,1.0822
17300,14.626,3.6364,0.05,1.0023e-06,10.016,7.6962e-07,5.7826,-1.9047e-12,-3.6573e-06,-7.6961e-07,-5.7826,1.0821
17301,14.902,3.6364,0,0.00020211,2019.7,7.1442e-05,0.011868,5.8535e-05,-96.964,-0.00020358,-2066.4,1.1199
17302,14.81,3.5455,0,0.00020427,2041.3,7.2525e-05,0.011634,5.8603e-05,-104.59,-0.00020585,-2091.6,1.1073
17303,14.81,3.6364,0.05,9.6719e-07,9.6652,7.4268e-07,5.5802,-1.9171e-12,-1.0814e-06,-7.4268e-07,-5.5802,1.1072
17304,15.086,3.6364,0,0.00019763,1974.9,6.9515e-05,0.010398,5.7839e-05,-87.719,-0.00019898,-2017.3,1.1452
17305,14.994,3.5455,0,0.00019975,1996.1,7.0551e-05,0.010103,5.7953e-05,-94.649,-0.00020119,-2041.8,1.1326
17306,14.994,3.6364,0.05,9.3825e-07,9.376,7.2046e-07,5.4133,-1.9232e-12,-1.6133e-06,-7.2046e-07,-5.4132,1.1325
17307,15.27,3.6364,0,0.00019322,1930.9,6.7643e-05,0.0093738,5.7109e-05,-79.138,-0.00019444,-1969.2,1.1706
17308,15.178,3.5455,0,0.00019531,1951.7,6.8639e-05,0.0090669,5.7266e-05,-85.438,-0.00019662,-1993.1,1.158
17309,15.178,3.6364,0.05,9.1421e-07,9.1358,7.02e-07,5.2746,-1.4475e-12,-3.4571e-06,-7.0199e-07,-5.2745,1.1579
17310,15.453,3.6364,0,0.00018886,1887.3,6.5816e-05,0.0086789,5.6343e-05,-71.175,-0.00018997,-1921.9,1.1962
17311,15.362,3.5455,0,0.00019093,1908,6.6779e-05,0.0083618,5.6542e-05,-76.907,-0.00019212,-1945.3,1.1835
17312,15.362,3.6364,0.05,8.9406e-07,8.9344,6.8653e-07,5.1583,-1.4325e-12,-1.4414e-06,-6.8652e-07,-5.1583,1.1834
17313,15.637,3.6364,0,0.00018454,1844.1,6.403e-05,0.0082641,5.554e-05,-63.783,-0.00018554,-1875.2,1.222
17314,15.545,3.5455,0,0.0001866,1864.7,6.4964e-05,0.0079314,5.5779e-05,-69.007,-0.00018767,-1898.2,1.2091
17315,15.545,3.6364,0.05,8.7701e-07,8.7641,6.7344e-07,5.06,-9.5993e-13,-1.0478e-06,-6.7344e-07,-5.0599,1.2091
17316,15.821,3.6364,0,0.00018025,1801.2,6.2279e-05,0.0080723,5.4703e-05,-56.917,-0.00018115,-1829,1.2478
17317,15.729,3.5455,0,0.0001823,1821.7,6.3188e-05,0.0077429,5.4977e-05,-61.685,-0.00018327,-1851.8,1.2349
17318,15.729,3.6364,0.05,8.6245e-07,8.6186,6.6226e-07,4.976,-4.8453e-13,-1.2113e-07,-6.6226e-07,-4.9759,1.2348
17319,16.005,3.6364,0,0.00017598,1758.6,6.0559e-05,0.0080412,5.3833e-05,-50.533,-0.00017679,-1783.3,1.2738
17320,15.913,3.5455,0,0.00017802,1779,6.1447e-05,0.0077219,5.414e-05,-54.893,-0.00017889,-1805.8,1.2608
17321,15.913,3.6364,0.05,8.499e-07,8.4931,6.5262e-07,4.9035,-1.3881e-12,1.6526e-06,-6.5261e-07,-4.9035,1.2607
17322,16.189,3.6364,0,0.00017173,1716.1,5.8866e-05,0.0081307,5.2931e-05,-44.587,-0.00017245,-1738,1.2999
17323,16.097,3.5455,0,0.00017377,1736.5,5.9735e-05,0.0078248,5.3268e-05,-48.583,-0.00017455,-1760.3,1.2869
17324,16.097,3.6364,0.05,8.3895e-07,8.3837,6.4421e-07,4.8404,-9.5057e-13,2.9706e-06,-6.4421e-07,-4.8403,1.2868
17325,16.372,3.6364,0,0.0001675,1673.8,5.7198e-05,0.0082936,5.2001e-05,-39.039,-0.00016813,-1693,1.3261
17326,16.281,3.5455,0,0.00016954,1694.2,5.8051e-05,0.00802,5.2365e-05,-42.71,-0.00017022,-1715.2,1.313
17327,16.281,3.6364,0.05,8.2932e-07,8.2875,6.3682e-07,4.7848,-1.4138e-12,1.98e-06,-6.3681e-07,-4.7848,1.3129
17328,16.556,3.6364,0,0.00016328,1631.7,5.5551e-05,0.0085105,5.1045e-05,-33.851,-0.00016383,-1648.3,1.3524
17329,16.464,3.5455,0,0.00016532,1652,5.639e-05,0.0082503,5.1433e-05,-37.232,-0.00016592,-1670.3,1.3393
17330,16.464,3.6364,0.05,8.2074e-07,8.2017,6.3023e-07,4.7353,-1.8547e-12,1.6215e-06,-6.3023e-07,-4.7353,1.3392
17331,16.74,3.6364,0,0.00015907,1589.6,5.3924e-05,0.0088,5.0065e-05,-28.986,-0.00015955,-1603.9,1.3788
17332,16.648,3.5455,0,0.00016111,1610,5.475e-05,0.0085339,5.0475e-05,-32.109,-0.00016163,-1625.8,1.3656
17333,16.648,3.6364,0.05,8.1302e-07,8.1246,6.243e-07,4.6907,-4.8854e-13,1.4478e-06,-6.243e-07,-4.6907,1.3656
17334,16.924,3.6364,0,0.00015488,1547.7,5.2314e-05,0.0091592,4.9064e-05,-24.411,-0.00015528,-1559.8,1.4053
17335,16.832,3.5455,0,0.00015691,1568.1,5.3129e-05,0.0088928,4.9494e-05,-27.304,-0.00015736,-1581.5,1.3921
17336,16.832,3.6364,0.05,8.06e-07,8.0545,6.1891e-07,4.6503,-1.3798e-12,8.1264e-07,-6.1891e-07,-4.6502,1.392
17337,17.108,3.6364,0,0.00015069,1505.9,5.0721e-05,0.0095751,4.8046e-05,-20.094,-0.00015102,-1515.8,1.432
17338,17.016,3.5455,0,0.00015273,1526.2,5.1525e-05,0.0093006,4.8492e-05,-22.783,-0.0001531,-1537.5,1.4187
17339,17.016,3.6364,0.05,7.9958e-07,7.9903,6.1398e-07,4.6132,-1.8328e-12,1.5688e-06,-6.1398e-07,-4.6132,1.4186
17340,17.291,3.6364,0,0.00014652,1464.2,4.9143e-05,0.01005,4.7012e-05,-16.004,-0.00014678,-1472.1,1.4587
17341,17.2,3.5455,0,0.00014855,1484.5,4.9938e-05,0.0097554,4.7473e-05,-18.511,-0.00014886,-1493.7,1.4454
17342,17.2,3.6364,0.05,7.9366e-07,7.9311,6.0943e-07,4.579,-1.3709e-12,1.864e-06,-6.0943e-07,-4.579,1.4453
17343,17.475,3.6364,0,0.00014236,1422.6,4.7578e-05,0.010587,4.5964e-05,-12.113,-0.00014256,-1428.6,1.4856
17344,17.383,3.5455,0,0.00014439,1442.9,4.8364e-05,0.010261,4.6439e-05,-14.46,-0.00014463,-1450.1,1.4722
17345,17.383,3.6364,0.05,7.8816e-07,7.8761,6.0521e-07,4.5473,-4.5738e-13,1.5449e-06,-6.052e-07,-4.5473,1.4721
17346,17.659,3.6364,0,0.00013821,1381.2,4.6026e-05,0.011243,4.4907e-05,-8.3951,-0.00013835,-1385.3,1.5125
17347,17.567,3.5455,0,0.00014024,1401.4,4.6804e-05,0.010809,4.5392e-05,-10.6,-0.00014042,-1406.7,1.4991
17348,17.567,3.6364,0.05,7.8301e-07,7.8247,6.0126e-07,4.5176,-1.3673e-12,2.5859e-06,-6.0125e-07,-4.5176,1.499
17349,17.843,3.6364,0,0.00013408,1339.8,4.4485e-05,0.012285,4.3841e-05,-4.8242,-0.00013416,-1342.2,1.5395
17350,17.751,3.5455,0,0.0001361,1360.1,4.5257e-05,0.011505,4.4336e-05,-6.9045,-0.00013622,-1363.5,1.526
17351,17.751,3.6364,0.05,7.7817e-07,7.7763,5.9754e-07,4.4897,-9.1087e-13,1.8393e-06,-5.9753e-07,-4.4896,1.526
17352,18.027,3.6364,0,0.00012996,1298.7,4.2955e-05,0.016248,4.2769e-05,-1.3788,-0.00012998,-1299.3,1.5666
17353,17.935,3.5455,0,0.00013198,1318.9,4.372e-05,0.012766,4.3273e-05,-3.348,-0.00013204,-1320.5,1.5531
17354,17.935,3.6364,0.05,7.7359e-07,7.7306,5.9402e-07,4.4633,-9.0972e-13,3.2322e-06,-5.9402e-07,-4.4632,1.5531
17355,18.21,3.6364,0,0.00012585,1257.6,4.1696e-05,1.9788,4.1434e-05,0.008428,-0.00012582,-1256.6,1.5939
17356,18.119,3.5455,0,0.00012787,1277.8,4.221e-05,0.13713,4.2188e-05,-0.028514,-0.00012787,-1277.8,1.5803
17357,18.119,3.6364,0.05,7.6926e-07,7.6873,5.907e-07,4.4383,-9.0963e-13,2.6353e-06,-5.907e-07,-4.4383,1.5802
17358,18.394,3.6364,0,0.00012176,1216.8,4.062e-05,5.2488,3.9922e-05,0.01113,-0.00012167,-1214.2,1.6212
17359,18.302,3.5455,0,0.00012378,1236.9,4.1134e-05,3.451,4.0676e-05,0.01086,-0.00012372,-1235.2,1.6075
17360,18.302,3.6364,0.05,7.6516e-07,7.6463,5.8755e-07,4.4146,-4.5483e-13,1.8028e-06,-5.8755e-07,-4.4146,1.6075
17361,18.578,3.6364,0,0.00011769,1176.1,3.9544e-05,8.4649,3.8419e-05,0.012189,-0.00011755,-1171.8,1.6485
17362,18.486,3.5455,0,0.0001197,1196.2,4.0063e-05,6.735,3.9168e-05,0.012156,-0.00011958,-1192.8,1.6349
17363,18.486,3.6364,0.05,7.6126e-07,7.6073,5.8455e-07,4.3921,-9.0928e-13,2.3851e-06,-5.8455e-07,-4.3921,1.6348
17364,18.762,3.6364,0,0.00011364,1135.6,3.8472e-05,11.647,3.6924e-05,0.012996,-0.00011344,-1129.7,1.676
17365,18.67,3.5455,0,0.00011564,1155.6,3.8994e-05,9.9733,3.7668e-05,0.012986,-0.00011547,-1150.6,1.6623
17366,18.67,3.6364,0.05,7.5755e-07,7.5702,5.817e-07,4.3707,-1.3644e-12,3.3999e-06,-5.817e-07,-4.3706,1.6622
17367,18.946,3.6364,0,0.00010961,1095.3,3.7405e-05,14.815,3.5435e-05,0.013756,-0.00010935,-1087.8,1.7035
17368,18.854,3.5455,0,0.0001116,1115.3,3.7928e-05,13.187,3.6175e-05,0.013729,-0.00011137,-1108.6,1.6898
17369,18.854,3.6364,0.05,7.5401e-07,7.5349,5.7898e-07,4.3503,-1.3641e-12,2.8552e-06,-5.7898e-07,-4.3503,1.6897
17370,19.129,3.6364,0,0.0001056,1055.2,3.6346e-05,17.991,3.3953e-05,0.01453,-0.00010528,-1046.1,1.7311
17371,19.038,3.5455,0,0.00010759,1075.1,3.6869e-05,16.397,3.4689e-05,0.014485,-0.0001073,-1066.8,1.7173
17372,19.038,3.6364,0.05,7.5064e-07,7.5012,5.764e-07,4.3309,-4.59e-13,3.7857e-06,-5.764e-07,-4.3308,1.7173
17373,19.313,3.6364,0,0.00010161,1015.4,3.5295e-05,21.193,3.2477e-05,0.015333,-0.00010123,-1004.6,1.7588
17374,19.221,3.5455,0,0.00010359,1035.2,3.5819e-05,19.625,3.3209e-05,0.015269,-0.00010324,-1025.2,1.745
17375,19.221,3.6364,0.05,7.4745e-07,7.4693,5.7395e-07,4.3125,-4.6239e-13,3.513e-06,-5.7395e-07,-4.3124,1.7449
17376,19.497,3.6364,0,9.7643e-05,975.76,3.4256e-05,24.444,3.1005e-05,0.016178,-9.7204e-05,-963.3,1.7865
17377,19.405,3.5455,0,9.9615e-05,995.46,3.4778e-05,22.89,3.1734e-05,0.016094,-9.9206e-05,-983.81,1.7727
17378,19.405,3.6364,0.05,7.4443e-07,7.4392,5.7163e-07,4.295,-1.1839e-14,5.1626e-06,-5.7163e-07,-4.295,1.7726
17379,19.681,3.6364,0,9.3703e-05,936.38,3.3231e-05,27.762,2.9538e-05,0.01707,-9.3199e-05,-922.18,1.8144
17380,19.589,3.5455,0,9.5666e-05,956,3.375e-05,26.215,3.0264e-05,0.01697,-9.5193e-05,-942.61,1.8005
17381,19.589,3.6364,0.05,7.4159e-07,7.4108,5.6945e-07,4.2787,-9.2307e-13,7.5239e-06,-5.6945e-07,-4.2786,1.8004
17382,19.865,3.6364,0,8.9789e-05,897.27,3.2221e-05,31.169,2.8075e-05,0.018018,-8.9218e-05,-881.27,1.8422
17383,19.773,3.5455,0,9.1742e-05,916.79,3.2737e-05,29.619,2.8798e-05,0.01789,-9.1202e-05,-901.61,1.8283
17384,19.773,3.6364,0.05,7.3894e-07,7.3843,5.6741e-07,4.2633,-4.6467e-13,6.1387e-06,-5.6741e-07,-4.2633,1.8283
17385,20.048,3.6364,0,8.5903e-05,858.44,3.1228e-05,34.687,2.6614e-05,0.019051,-8.526e-05,-840.56,1.8702
17386,19.956,3.5455,0,8.7846e-05,877.86,3.1741e-05,33.124,2.7335e-05,0.018883,-8.7236e-05,-860.82,1.8562
17387,19.956,3.6364,0.05,7.3646e-07,7.3595,5.6551e-07,4.249,-4.6613e-13,6.1322e-06,-5.6551e-07,-4.249,1.8562
17388,20.232,3.6364,0,8.2047e-05,819.9,3.0255e-05,38.335,2.5156e-05,0.020188,-8.1327e-05,-800.05,1.8982
17389,20.14,3.5455,0,8.3979e-05,839.21,3.0763e-05,36.751,2.5874e-05,0.019977,-8.3293e-05,-820.22,1.8842
17390,20.14,3.6364,0.05,7.3418e-07,7.3367,5.6376e-07,4.2359,-4.6013e-13,5.6861e-06,-5.6376e-07,-4.2358,1.8841
17391,20.416,3.6364,0,7.8221e-05,781.67,2.9305e-05,42.138,2.3699e-05,0.021438,-7.7419e-05,-759.74,1.9262
17392,20.324,3.5455,0,8.0142e-05,800.87,2.9807e-05,40.523,2.4416e-05,0.021178,-7.9376e-05,-779.83,1.9122
17393,20.324,3.6364,0.05,7.3211e-07,7.3161,5.6217e-07,4.224,-6.8642e-13,3.7733e-06,-5.6217e-07,-4.2239,1.9122
17394,20.6,3.6364,0,7.4428e-05,743.77,2.8378e-05,46.117,2.2244e-05,0.022817,-7.3536e-05,-719.63,1.9543
17395,20.508,3.5455,0,7.6338e-05,762.85,2.8874e-05,44.463,2.2959e-05,0.0225,-7.5484e-05,-739.64,1.9403
17396,20.508,3.6364,0.05,7.3027e-07,7.2977,5.6076e-07,4.2133,-9.1085e-13,3.3439e-06,-5.6076e-07,-4.2133,1.9402
17397,20.784,3.6364,0,7.067e-05,706.22,2.7478e-05,50.295,2.0788e-05,0.02434,-6.968e-05,-679.71,1.9824
17398,20.692,3.5455,0,7.2567e-05,725.17,2.7966e-05,48.593,2.1502e-05,0.023961,-7.1618e-05,-699.64,1.9684
17399,20.692,3.6364,0.05,7.2869e-07,7.2818,5.5954e-07,4.2042,-8.9921e-13,6.259e-06,-5.5954e-07,-4.2042,1.9684
17400,20.967,3.6364,0,6.695e-05,669.03,2.6607e-05,54.696,1.9331e-05,0.026038,-6.5851e-05,-640,2.0106
17401,20.875,3.5455,0,6.8833e-05,687.86,2.7086e-05,52.936,2.0044e-05,0.025573,-6.7779e-05,-659.85,1.9966
17402,20.875,3.6364,0.05,7.2737e-07,7.2687,5.5853e-07,4.1966,-6.7426e-13,6.7445e-06,-5.5853e-07,-4.1966,1.9965
17403,21.151,3.6364,0,6.3268e-05,632.25,2.5767e-05,59.346,1.7872e-05,0.027949,-6.2049e-05,-600.47,2.0389
17404,21.059,3.5455,0,6.5137e-05,650.92,2.6237e-05,57.518,1.8585e-05,0.027378,-6.3967e-05,-620.24,2.0248
17405,21.059,3.6364,0.05,7.2635e-07,7.2585,5.5775e-07,4.1907,-9.1496e-13,5.6531e-06,-5.5774e-07,-4.1907,2.0247
17406,21.335,3.6364,0,5.9629e-05,595.88,2.496e-05,64.268,1.6411e-05,0.030129,-5.8275e-05,-561.13,2.0672
17407,21.243,3.5455,0,6.1482e-05,614.4,2.542e-05,62.363,1.7124e-05,0.029432,-6.0183e-05,-580.83,2.053
17408,21.243,3.6364,0.05,7.2565e-07,7.2515,5.5721e-07,4.1867,-6.7948e-13,5.2627e-06,-5.5721e-07,-4.1867,2.053
17409,21.519,3.6364,0,5.6035e-05,559.96,2.4189e-05,69.489,1.4945e-05,0.032631,-5.4528e-05,-521.96,2.0955
17410,21.427,3.5455,0,5.7872e-05,578.32,2.4638e-05,67.496,1.5659e-05,0.031774,-5.6427e-05,-541.59,2.0813
17411,21.427,3.6364,0.05,7.2533e-07,7.2483,5.5696e-07,4.1848,6.0289e-15,4.3481e-06,-5.5696e-07,-4.1848,2.0813
17412,21.703,3.6364,0,5.249e-05,524.54,2.3456e-05,75.033,1.3475e-05,0.035532,-5.0809e-05,-482.97,2.1238
17413,21.611,3.5455,0,5.4308e-05,542.71,2.3893e-05,72.942,1.419e-05,0.034473,-5.2698e-05,-502.53,2.1097
17414,21.611,3.6364,0.05,7.2542e-07,7.2492,5.5703e-07,4.1853,-6.5748e-13,5.9215e-06,-5.5703e-07,-4.1853,2.1096
17415,21.886,3.6364,0,4.8999e-05,489.65,2.2763e-05,80.927,1.1998e-05,0.038925,-4.7117e-05,-444.13,2.1522
17416,21.794,3.5455,0,5.0796e-05,507.61,2.3187e-05,78.725,1.2714e-05,0.037616,-4.8996e-05,-463.63,2.1381
17417,21.794,3.6364,0.05,7.2596e-07,7.2546,5.5745e-07,4.1885,-2.0416e-13,4.926e-06,-5.5745e-07,-4.1884,2.138
17418,22.07,3.6364,0,4.5566e-05,455.35,2.2113e-05,87.196,1.0513e-05,0.042963,-4.3452e-05,-405.43,2.1807
17419,21.978,3.5455,0,4.734e-05,473.08,2.2522e-05,84.872,1.1232e-05,0.041315,-4.5321e-05,-424.88,2.1665
17420,21.978,3.6364,0.05,7.2702e-07,7.2652,5.5826e-07,4.1946,2.6898e-14,1.7302e-07,-5.5826e-07,-4.1945,2.1664
17421,22.254,3.6364,0,4.22e-05,421.71,2.1506e-05,93.862,9.0197e-06,0.047863,-3.9812e-05,-366.85,2.2091
17422,22.162,3.5455,0,4.3947e-05,439.17,2.19e-05,91.404,9.7414e-06,0.045764,-4.1672e-05,-386.25,2.1949
17423,22.162,3.6364,0.05,7.2864e-07,7.2814,5.5951e-07,4.2039,3.0087e-14,3.1162e-06,-5.5951e-07,-4.2039,2.1949
17424,22.438,3.6364,0,3.8909e-05,388.82,2.0944e-05,100.95,7.5157e-06,0.053951,-3.6196e-05,-328.38,2.2376
17425,22.346,3.5455,0,4.0624e-05,405.96,2.1323e-05,98.344,8.2408e-06,0.051211,-3.8047e-05,-347.74,2.2234
17426,22.346,3.6364,0.05,7.3089e-07,7.3039,5.6124e-07,4.2169,-1.3233e-14,1.8173e-06,-5.6124e-07,-4.2169,2.2233
17427,22.622,3.6364,0,3.5706e-05,356.81,2.0428e-05,108.48,5.9995e-06,0.061651,-3.2601e-05,-289.97,2.2661
17428,22.53,3.5455,0,3.7382e-05,373.56,2.079e-05,105.71,6.7288e-06,0.058083,-3.4444e-05,-309.3,2.2519
17429,22.53,3.6364,0.05,7.3384e-07,7.3334,5.635e-07,4.2339,-2.3869e-13,3.7415e-06,-5.635e-07,-4.2339,2.2518
17430,22.805,3.6364,0,3.2606e-05,325.84,1.996e-05,116.46,4.4698e-06,0.071981,-2.9025e-05,-251.59,2.2946
17431,22.713,3.5455,0,3.4235e-05,342.12,2.0304e-05,113.52,5.204e-06,0.066832,-3.0861e-05,-270.91,2.2804
17432,22.713,3.6364,0.05,7.3754e-07,7.3703,5.6634e-07,4.2553,2.7073e-15,3.8298e-06,-5.6634e-07,-4.2553,2.2803
17433,22.989,3.6364,0,2.9635e-05,296.15,1.9538e-05,124.91,2.9249e-06,0.08538,-2.5464e-05,-213.22,2.3232
17434,22.897,3.5455,0,3.1203e-05,311.82,1.9864e-05,121.79,3.6649e-06,0.079116,-2.7293e-05,-232.53,2.3089
17435,22.897,3.6364,0.05,7.4205e-07,7.4153,5.698e-07,4.2813,3.3176e-14,8.8008e-06,-5.698e-07,-4.2812,2.3089
17436,23.173,3.6364,0,2.6826e-05,268.07,1.9161e-05,133.83,1.3637e-06,0.10809,-2.1915e-05,-174.8,2.3517
17437,23.081,3.5455,0,2.8315e-05,282.95,1.9468e-05,130.52,2.1098e-06,0.094307,-2.3739e-05,-194.12,2.3375
17438,23.081,3.6364,0.05,7.4739e-07,7.4687,5.739e-07,4.3121,9.5277e-13,1.1758e-05,-5.739e-07,-4.3121,2.3374
17439,23.357,3.6364,0,2.4226e-05,242.09,1.8829e-05,143.23,-2.1586e-07,0.13111,-1.8373e-05,-136.29,2.3803
17440,23.265,3.5455,0,2.561e-05,255.92,1.9117e-05,139.72,5.3842e-07,0.12593,-2.0193e-05,-155.64,2.366
17441,23.265,3.6364,0.05,7.5359e-07,7.5307,5.7866e-07,4.3478,2.0992e-13,9.3977e-06,-5.7866e-07,-4.3478,2.366
17442,23.541,3.6364,0,2.1905e-05,218.9,1.8539e-05,153.11,-1.8087e-06,0.22735,-1.4835e-05,-97.65,2.4089
17443,23.449,3.5455,0,2.3145e-05,231.29,1.8809e-05,149.38,-1.0528e-06,0.14375,-1.6652e-05,-117.06,2.3946
17444,23.449,3.6364,0.05,7.606e-07,7.6008,5.8405e-07,4.3883,4.4432e-13,1.3276e-05,-5.8405e-07,-4.3883,2.3946
17445,23.724,3.6364,0,1.9956e-05,199.42,1.8288e-05,163.39,-3.428e-06,0.22454,-1.1298e-05,-58.906,2.4375
17446,23.632,3.5455,0,2.1003e-05,209.89,1.854e-05,159.54,-2.6492e-06,0.32961,-1.3116e-05,-78.316,2.4232
17447,23.632,3.6364,0.05,7.685e-07,7.6797,5.9011e-07,4.4339,4.4903e-13,1.1391e-05,-5.9011e-07,-4.4339,2.4232
17448,23.816,3.5455,0,1.9289e-05,192.75,1.8308e-05,169.96,-4.2849e-06,0.208,-9.5802e-06,-39.579,2.4518
17449,23.816,3.6364,0.05,7.7945e-07,7.7891,5.9852e-07,4.4971,6.5746e-13,1.1251e-05,-5.9852e-07,-4.4971,2.4518
17450,23.908,3.6364,0,1.8563e-05,185.5,1.8086e-05,173.53,-4.9511e-06,0.43309,-7.9748e-06,-22.286,2.4661
17451,11.042,3.4545,0,0.00071484,7143.4,0.00027822,513.11,0.00021019,1.993,-0.0007047,-6872.1,0.62779
17452,10.95,3.3636,0,0.00074904,7485.3,0.00030047,646.48,0.00021454,0.85296,-0.00073594,-7140.7,0.61768
17453,10.95,3.4545,0.05,1.2355e-05,123.47,9.4873e-06,71.284,2.7771e-12,4.1743e-05,-9.4873e-06,-71.284,0.61744
17454,11.226,3.4545,0,0.00061482,6143.9,0.00022286,240.32,0.00019087,-0.0204,-0.00061038,-6020.2,0.64877
17455,11.134,3.3636,0,0.00065787,6574.2,0.00024775,370.02,0.00019853,0.1652,-0.00065079,-6381.3,0.63841
17456,11.134,3.4545,0.05,1.312e-05,131.11,1.0075e-05,75.698,3.1386e-12,3.109e-05,-1.0075e-05,-75.698,0.63819
17457,11.41,3.4545,0,0.00052894,5285.7,0.00017719,30.801,0.0001729,-1.446,-0.00052843,-5271,0.67015
17458,11.318,3.3636,0,0.00056945,5690.5,0.00019862,128.61,0.00018153,0.1979,-0.00056715,-5625,0.65956
17459,11.318,3.4545,0.05,1.0902e-05,108.95,8.3715e-06,62.9,5.3228e-13,2.5995e-05,-8.3715e-06,-62.9,0.65938
17460,11.594,3.4545,0,0.0004625,4621.8,0.00015824,1.2238,0.00014317,-111.98,-0.00046428,-4676.1,0.69188
17461,11.502,3.3636,0,0.00049646,4961.1,0.00016629,1.6571,0.00015981,-47.019,-0.00049721,-4983.6,0.68109
17462,11.502,3.4545,0.05,8.7928e-06,87.867,6.7518e-06,50.73,-2.2888e-13,1.7069e-05,-6.7518e-06,-50.73,0.68095
17463,11.778,3.4545,0,0.00041202,4117.3,0.00014576,0.84531,0.0001192,-198.7,-0.00041502,-4212.6,0.71392
17464,11.686,3.3636,0,0.00043914,4388.4,0.00015291,0.97827,0.00013132,-161.23,-0.00044165,-4466.3,0.70296
17465,11.686,3.4545,0.05,7.0675e-06,70.626,5.4269e-06,40.776,-8.1118e-13,6.0859e-06,-5.4269e-06,-40.776,0.70283
17466,11.961,3.4545,0,0.00037344,3731.8,0.0001354,0.62312,0.00010221,-248.76,-0.00037703,-3849.6,0.73623
17467,11.869,3.3636,0,0.00039471,3944.4,0.0001416,0.72846,0.00011073,-231.22,-0.00039812,-4054.5,0.72513
17468,11.869,3.4545,0.05,5.7588e-06,57.549,4.4221e-06,33.226,-3.6365e-12,-1.0167e-06,-4.4221e-06,-33.226,0.72501
17469,12.145,3.4545,0,0.00034354,3433,0.00012671,0.47654,9.0173e-05,-274.06,-0.00034737,-3561.6,0.7588
17470,12.053,3.3636,0,0.00036017,3599.2,0.00013202,0.55593,9.6024e-05,-269.89,-0.00036399,-3726.2,0.74756
17471,12.053,3.4545,0.05,4.7539e-06,47.506,3.6504e-06,27.428,-1.8596e-12,-4.7891e-06,-3.6504e-06,-27.428,0.74746
17472,12.329,3.4545,0,0.00032002,3198,0.00011934,0.36,8.1635e-05,-282.95,-0.00032388,-3329.9,0.7816
17473,12.237,3.3636,0,0.00033307,3328.4,0.00012387,0.41721,8.5576e-05,-287.31,-0.00033702,-3462.5,0.77024
17474,12.237,3.4545,0.05,3.9677e-06,39.649,3.0467e-06,22.892,-2.4714e-12,-6.8713e-06,-3.0467e-06,-22.892,0.77014
17475,12.513,3.4545,0,0.00030122,3010.1,0.00011302,0.2719,7.5572e-05,-281.13,-0.00030501,-3140.7,0.80462
17476,12.421,3.3636,0,0.00031155,3113.3,0.0001169,0.31212,7.817e-05,-290.68,-0.00031547,-3248.3,0.79314
17477,12.421,3.4545,0.05,3.345e-06,33.427,2.5686e-06,19.299,-2.9514e-12,-7.8204e-06,-2.5686e-06,-19.299,0.79306
17478,12.697,3.4545,0,0.00028595,2857.5,0.00010756,0.20465,7.1258e-05,-272.52,-0.0002896,-2983.9,0.82784
17479,12.605,3.3636,0,0.00029422,2940.2,0.00011089,0.23248,7.2925e-05,-284.98,-0.00029802,-3072.2,0.81626
17480,12.605,3.4545,0.05,2.849e-06,28.471,2.1877e-06,16.438,-4.1251e-12,-1.5102e-06,-2.1877e-06,-16.438,0.81618
17481,12.88,3.4545,0,0.00027333,2731.4,0.00010277,0.15379,6.8179e-05,-259.77,-0.00027682,-2852,0.85126
17482,12.788,3.3636,0,0.00028005,2798.6,0.00010565,0.17288,6.9211e-05,-273.65,-0.0002837,-2925.3,0.83958
17483,12.788,3.4545,0.05,2.4526e-06,24.509,1.8833e-06,14.15,-2.3036e-12,-5.9357e-06,-1.8833e-06,-14.15,0.8395
17484,13.064,3.4545,0,0.00026273,2625.5,9.8547e-05,0.11547,6.5968e-05,-244.67,-0.00026603,-2739.2,0.87487
17485,12.972,3.3636,0,0.00026828,2680.9,0.00010106,0.12852,6.6572e-05,-259,-0.00027174,-2800.9,0.86309
17486,12.972,3.4545,0.05,2.1352e-06,21.337,1.6395e-06,12.319,-2.8238e-12,-7.7547e-06,-1.6395e-06,-12.319,0.86302
17487,13.248,3.4545,0,0.00025366,2534.8,9.4775e-05,0.086725,6.436e-05,-228.44,-0.00025677,-2641.3,0.89865
17488,13.156,3.3636,0,0.00025832,2581.4,9.6988e-05,0.095576,6.4686e-05,-242.61,-0.00026159,-2694.1,0.88679
17489,13.156,3.4545,0.05,1.8807e-06,18.794,1.4441e-06,10.851,-7.3137e-13,-9.0498e-06,-1.4441e-06,-10.85,0.88671
17490,13.432,3.4545,0,0.00024576,2455.9,9.1374e-05,0.065261,6.3166e-05,-211.88,-0.00024867,-2554.9,0.92261
17491,13.34,3.3636,0,0.00024975,2495.8,9.3341e-05,0.071202,6.3318e-05,-225.51,-0.00025282,-2600.8,0.91066
17492,13.34,3.4545,0.05,1.6764e-06,16.752,1.2873e-06,9.6719,-2.9088e-12,-8.4003e-06,-1.2872e-06,-9.6719,0.91059
17493,13.616,3.4545,0,0.00023875,2385.8,8.8277e-05,0.049303,6.2248e-05,-195.52,-0.00024147,-2477.5,0.94674
17494,13.524,3.3636,0,0.00024224,2420.7,9.0043e-05,0.05325,6.23e-05,-208.4,-0.00024511,-2518.1,0.9347
17495,13.524,3.4545,0.05,1.5123e-06,15.112,1.1612e-06,8.725,-2.8605e-12,-6.2428e-06,-1.1612e-06,-8.725,0.93463
17496,13.799,3.4545,0,0.00023242,2322.6,8.5429e-05,0.037469,6.151e-05,-179.68,-0.00023495,-2407.2,0.97103
17497,13.707,3.3636,0,0.00023553,2353.7,8.703e-05,0.040041,6.151e-05,-191.7,-0.0002382,-2443.6,0.95891
17498,13.707,3.4545,0.05,1.3802e-06,13.793,1.0599e-06,7.9633,-1.9583e-12,-3.8713e-06,-1.0598e-06,-7.9633,0.95884
17499,13.983,3.4545,0,0.00022661,2264.5,8.2788e-05,0.028729,6.0879e-05,-164.59,-0.00022896,-2342.3,0.99548
17500,13.891,3.3636,0,0.00022944,2292.8,8.4253e-05,0.030355,6.0864e-05,-175.71,-0.00023192,-2375.6,0.98328
17501,13.891,3.4545,0.05,1.2739e-06,12.73,9.7818e-07,7.3497,-1.0806e-12,-5.8157e-06,-9.7818e-07,-7.3496,0.98321
17502,14.167,3.4545,0,0.0002212,2210.4,8.0317e-05,0.022282,6.0305e-05,-150.34,-0.00022337,-2281.8,1.0201
17503,14.075,3.3636,0,0.00022381,2236.6,8.167e-05,0.02328,6.0297e-05,-160.56,-0.00022611,-2312.5,1.0078
17504,14.075,3.4545,0.05,1.188e-06,11.872,9.1226e-07,6.8544,-2.0275e-12,-2.3497e-06,-9.1226e-07,-6.8543,1.0077
17505,14.351,3.4545,0,0.00021608,2159.4,7.7987e-05,0.017546,5.9753e-05,-136.99,-0.00021809,-2224.6,1.0448
17506,14.259,3.3636,0,0.00021854,2183.9,7.9249e-05,0.018099,5.9768e-05,-146.35,-0.00022066,-2253.4,1.0325
17507,14.259,3.4545,0.05,1.1185e-06,11.178,8.589e-07,6.4535,-1.9914e-12,-2.8392e-06,-8.589e-07,-6.4534,1.0324
17508,14.534,3.4545,0,0.0002112,2110.6,7.5776e-05,0.014127,5.9198e-05,-124.54,-0.00021304,-2170.1,1.0697
17509,14.443,3.3636,0,0.00021354,2134,7.6961e-05,0.014357,5.9245e-05,-133.09,-0.0002155,-2197.4,1.0573
17510,14.443,3.4545,0.05,1.0621e-06,10.614,8.1557e-07,6.1278,-1.9522e-12,-5.8077e-06,-8.1556e-07,-6.1278,1.0572
17511,14.718,3.4545,0,0.00020649,2063.5,7.3663e-05,0.011706,5.8625e-05,-112.98,-0.00020818,-2117.7,1.0948
17512,14.626,3.3636,0,0.00020875,2086.1,7.4784e-05,0.011726,5.8708e-05,-120.78,-0.00021054,-2143.8,1.0823
17513,14.626,3.4545,0.05,1.0161e-06,10.154,7.8022e-07,5.8623,-1.9318e-12,-2.3877e-06,-7.8023e-07,-5.8623,1.0822
17514,14.902,3.4545,0,0.00020191,2017.7,7.1633e-05,0.010023,5.8021e-05,-102.27,-0.00020346,-2066.9,1.12
17515,14.81,3.3636,0,0.00020411,2039.7,7.2701e-05,0.0099058,5.8144e-05,-109.37,-0.00020575,-2092.1,1.1074
17516,14.81,3.4545,0.05,9.7838e-07,9.777,7.5127e-07,5.6448,-1.9177e-12,-1.2494e-06,-7.5127e-07,-5.6447,1.1073
17517,15.086,3.4545,0,0.00019743,1972.9,6.9674e-05,0.0088885,5.738e-05,-92.361,-0.00019884,-2017.5,1.1453
17518,14.994,3.3636,0,0.00019958,1994.4,7.0697e-05,0.0086845,5.7543e-05,-98.826,-0.00020108,-2042,1.1327
17519,14.994,3.4545,0.05,9.473e-07,9.4665,7.2741e-07,5.4655,-1.4426e-12,-1.5057e-06,-7.2741e-07,-5.4654,1.1326
17520,15.27,3.4545,0,0.00019302,1928.9,6.7774e-05,0.0081428,5.67e-05,-83.2,-0.0001943,-1969.1,1.1708
17521,15.178,3.3636,0,0.00019514,1950.1,6.876e-05,0.0079068,5.6902e-05,-89.09,-0.0001965,-1993.1,1.1581
17522,15.178,3.4545,0.05,9.2153e-07,9.2089,7.0762e-07,5.3168,-1.4189e-12,-2.3132e-06,-7.0761e-07,-5.3167,1.158
17523,15.453,3.4545,0,0.00018867,1885.4,6.5926e-05,0.00768,5.5979e-05,-74.731,-0.00018983,-1921.6,1.1963
17524,15.362,3.3636,0,0.00019077,1906.3,6.6879e-05,0.0074163,5.6218e-05,-80.102,-0.000192,-1945.1,1.1836
17525,15.362,3.4545,0.05,8.9998e-07,8.9935,6.9107e-07,5.1925,-1.4126e-12,-1.2159e-06,-6.9107e-07,-5.1924,1.1835
17526,15.637,3.4545,0,0.00018436,1842.3,6.4122e-05,0.0074583,5.5217e-05,-66.9,-0.0001854,-1874.8,1.2221
17527,15.545,3.3636,0,0.00018644,1863.1,6.5048e-05,0.0071658,5.549e-05,-71.804,-0.00018756,-1898,1.2092
17528,15.545,3.4545,0.05,8.8179e-07,8.8119,6.7711e-07,5.0875,-1.3856e-12,-1.1655e-06,-6.7711e-07,-5.0875,1.2092
17529,15.821,3.4545,0,0.00018008,1799.5,6.2356e-05,0.0074267,5.4416e-05,-59.651,-0.00018102,-1828.6,1.2479
17530,15.729,3.3636,0,0.00018215,1820.2,6.3258e-05,0.0071264,5.4721e-05,-64.136,-0.00018315,-1851.4,1.235
17531,15.729,3.4545,0.05,8.6632e-07,8.6572,6.6523e-07,4.9983,-1.8287e-12,-1.5801e-06,-6.6522e-07,-4.9982,1.2349
17532,16.005,3.4545,0,0.00017582,1757,6.0623e-05,0.0075288,5.3577e-05,-52.932,-0.00017666,-1782.8,1.2739
17533,15.913,3.3636,0,0.00017788,1777.6,6.1505e-05,0.0072295,5.3912e-05,-57.043,-0.00017879,-1805.4,1.2609
17534,15.913,3.4545,0.05,8.5303e-07,8.5244,6.5502e-07,4.9216,-1.846e-12,7.5303e-07,-6.5502e-07,-4.9215,1.2609
17535,16.189,3.4545,0,0.00017158,1714.6,5.892e-05,0.0077286,5.2704e-05,-46.694,-0.00017233,-1737.5,1.3
17536,16.097,3.3636,0,0.00017364,1735.2,5.9784e-05,0.0074363,5.3066e-05,-50.469,-0.00017445,-1759.9,1.2869
17537,16.097,3.4545,0.05,8.4149e-07,8.4091,6.4616e-07,4.855,-9.4228e-13,2.1128e-06,-6.4616e-07,-4.855,1.2869
17538,16.372,3.4545,0,0.00016736,1672.4,5.7242e-05,0.0079841,5.1799e-05,-40.889,-0.00016802,-1692.5,1.3262
17539,16.281,3.3636,0,0.00016942,1693,5.8091e-05,0.0077168,5.2186e-05,-44.366,-0.00017013,-1714.7,1.3131
17540,16.281,3.4545,0.05,8.3138e-07,8.3081,6.384e-07,4.7967,-1.8553e-12,1.6296e-06,-6.384e-07,-4.7966,1.313
17541,16.556,3.4545,0,0.00016315,1630.4,5.5588e-05,0.0082755,5.0865e-05,-35.475,-0.00016372,-1647.8,1.3525
17542,16.464,3.3636,0,0.00016521,1650.9,5.6424e-05,0.0080187,5.1274e-05,-38.686,-0.00016583,-1669.9,1.3393
17543,16.464,3.4545,0.05,8.2242e-07,8.2185,6.3152e-07,4.745,-9.4e-13,1.2018e-06,-6.3152e-07,-4.745,1.3393
17544,16.74,3.4545,0,0.00015895,1588.4,5.3955e-05,0.008624,4.9906e-05,-30.411,-0.00015945,-1603.4,1.3789
17545,16.648,3.3636,0,0.00016101,1609,5.4778e-05,0.0083583,5.0334e-05,-33.384,-0.00016155,-1625.4,1.3657
17546,16.648,3.4545,0.05,8.1439e-07,8.1383,6.2535e-07,4.6987,-9.3012e-13,1.5185e-06,-6.2535e-07,-4.6986,1.3657
17547,16.924,3.4545,0,0.00015477,1546.6,5.234e-05,0.0090277,4.8924e-05,-25.658,-0.00015519,-1559.3,1.4054
17548,16.832,3.3636,0,0.00015682,1567.1,5.3152e-05,0.0087628,4.9368e-05,-28.421,-0.00015728,-1581.1,1.3922
17549,16.832,3.4545,0.05,8.0714e-07,8.0658,6.1978e-07,4.6568,-9.2473e-13,3.5967e-07,-6.1978e-07,-4.6568,1.3921
17550,17.108,3.4545,0,0.00015059,1504.9,5.0742e-05,0.0094712,4.7922e-05,-21.181,-0.00015094,-1515.4,1.4321
17551,17.016,3.3636,0,0.00015264,1525.4,5.1545e-05,0.0092011,4.8381e-05,-23.758,-0.00015303,-1537.1,1.4188
17552,17.016,3.4545,0.05,8.0052e-07,7.9997,6.147e-07,4.6186,-9.1904e-13,1.1317e-06,-6.147e-07,-4.6186,1.4187
17553,17.291,3.4545,0,0.00014643,1463.3,4.9159e-05,0.0099526,4.6902e-05,-16.947,-0.00014671,-1471.7,1.4588
17554,17.2,3.3636,0,0.00014847,1483.7,4.9953e-05,0.0096725,4.7375e-05,-19.359,-0.00014879,-1493.3,1.4455
17555,17.2,3.4545,0.05,7.9444e-07,7.9389,6.1004e-07,4.5836,-9.1452e-13,1.3906e-06,-6.1003e-07,-4.5835,1.4454
17556,17.475,3.4545,0,0.00014228,1421.8,4.7591e-05,0.010464,4.5869e-05,-12.926,-0.00014249,-1428.2,1.4856
17557,17.383,3.3636,0,0.00014432,1442.2,4.8377e-05,0.010174,4.6353e-05,-15.193,-0.00014457,-1449.7,1.4723
17558,17.383,3.4545,0.05,7.8882e-07,7.8827,6.0571e-07,4.5511,-4.5676e-13,1.303e-06,-6.0571e-07,-4.5511,1.4722
17559,17.659,3.4545,0,0.00013814,1380.4,4.6035e-05,0.011029,4.4824e-05,-9.0874,-0.00013829,-1384.9,1.5126
17560,17.567,3.3636,0,0.00014018,1400.8,4.6814e-05,0.010685,4.5318e-05,-11.228,-0.00014036,-1406.4,1.4991
17561,17.567,3.4545,0.05,7.8358e-07,7.8303,6.0169e-07,4.5209,-1.366e-12,2.6068e-06,-6.0169e-07,-4.5208,1.4991
17562,17.843,3.4545,0,0.00013401,1339.2,4.4492e-05,0.011774,4.3771e-05,-5.405,-0.0001341,-1341.9,1.5396
17563,17.751,3.3636,0,0.00013604,1359.5,4.5263e-05,0.011263,4.4272e-05,-7.4357,-0.00013617,-1363.2,1.5261
17564,17.751,3.4545,0.05,7.7865e-07,7.7812,5.9791e-07,4.4925,-9.1097e-13,1.6016e-06,-5.9791e-07,-4.4925,1.5261
17565,18.027,3.4545,0,0.0001299,1298.1,4.2959e-05,0.013528,4.271e-05,-1.8535,-0.00012993,-1299,1.5667
17566,17.935,3.3636,0,0.00013193,1318.4,4.3724e-05,0.012074,4.3219e-05,-3.7887,-0.00013199,-1320.2,1.5532
17567,17.935,3.4545,0.05,7.7402e-07,7.7348,5.9435e-07,4.4657,-9.0965e-13,2.828e-06,-5.9435e-07,-4.4657,1.5531
17568,18.21,3.4545,0,0.0001258,1257.1,4.1647e-05,1.5982,4.1435e-05,0.0099762,-0.00012577,-1256.3,1.5939
17569,18.119,3.3636,0,0.00012782,1277.4,4.2197e-05,0.020124,4.2159e-05,-0.26832,-0.00012783,-1277.5,1.5804
17570,18.119,3.4545,0.05,7.6964e-07,7.6911,5.9099e-07,4.4405,-2.3011e-16,2.3981e-06,-5.9099e-07,-4.4405,1.5803
17571,18.394,3.4545,0,0.00012172,1216.3,4.0581e-05,4.9628,3.9922e-05,0.01206,-0.00012163,-1213.8,1.6212
17572,18.302,3.3636,0,0.00012374,1236.5,4.1098e-05,3.1736,4.0677e-05,0.01188,-0.00012368,-1234.9,1.6076
17573,18.302,3.4545,0.05,7.655e-07,7.6497,5.8781e-07,4.4166,-4.548e-13,2.0415e-06,-5.8781e-07,-4.4165,1.6076
17574,18.578,3.4545,0,0.00011765,1175.7,3.9516e-05,8.27,3.8417e-05,0.012939,-0.00011751,-1171.6,1.6486
17575,18.486,3.3636,0,0.00011967,1195.8,4.0035e-05,6.5351,3.9167e-05,0.012852,-0.00011955,-1192.6,1.6349
17576,18.486,3.4545,0.05,7.6157e-07,7.6104,5.8479e-07,4.3939,-9.0962e-13,2.0868e-06,-5.8479e-07,-4.3939,1.6349
17577,18.762,3.4545,0,0.00011361,1135.3,3.8453e-05,11.541,3.6919e-05,0.013675,-0.00011341,-1129.5,1.6761
17578,18.67,3.3636,0,0.00011561,1155.3,3.8974e-05,9.8486,3.7665e-05,0.013579,-0.00011544,-1150.4,1.6624
17579,18.67,3.4545,0.05,7.5783e-07,7.5731,5.8192e-07,4.3723,-1.3641e-12,3.4002e-06,-5.8192e-07,-4.3723,1.6623
17580,18.946,3.4545,0,0.00010958,1095.1,3.7396e-05,14.797,3.5429e-05,0.014405,-0.00010933,-1087.6,1.7036
17581,18.854,3.3636,0,0.00011158,1115,3.7917e-05,13.136,3.617e-05,0.014279,-0.00011135,-1108.4,1.6898
17582,18.854,3.4545,0.05,7.5428e-07,7.5376,5.7919e-07,4.3518,-1.3644e-12,2.385e-06,-5.7919e-07,-4.3518,1.6898
17583,19.129,3.4545,0,0.00010558,1055.1,3.6346e-05,18.06,3.3944e-05,0.015166,-0.00010526,-1045.9,1.7312
17584,19.038,3.3636,0,0.00010757,1074.9,3.6866e-05,16.42,3.4683e-05,0.015018,-0.00010728,-1066.6,1.7174
17585,19.038,3.4545,0.05,7.509e-07,7.5038,5.766e-07,4.3323,-1.3667e-12,4.0326e-06,-5.766e-07,-4.3323,1.7174
17586,19.313,3.4545,0,0.0001016,1015.3,3.5305e-05,21.351,3.2466e-05,0.015968,-0.00010122,-1004.4,1.7589
17587,19.221,3.3636,0,0.00010358,1035.1,3.5823e-05,19.721,3.3201e-05,0.015795,-0.00010323,-1025.1,1.745
17588,19.221,3.4545,0.05,7.477e-07,7.4718,5.7414e-07,4.3139,-4.6029e-13,3.2975e-06,-5.7414e-07,-4.3139,1.745
17589,19.497,3.4545,0,9.7642e-05,975.74,3.4276e-05,24.691,3.0992e-05,0.016821,-9.7198e-05,-963.16,1.7866
17590,19.405,3.3636,0,9.9611e-05,995.42,3.4791e-05,23.06,3.1724e-05,0.016622,-9.9198e-05,-983.68,1.7728
17591,19.405,3.4545,0.05,7.4468e-07,7.4417,5.7182e-07,4.2965,-4.624e-13,4.9509e-06,-5.7182e-07,-4.2964,1.7727
17592,19.681,3.4545,0,9.3709e-05,936.45,3.3261e-05,28.101,2.9523e-05,0.017722,-9.3199e-05,-922.07,1.8144
17593,19.589,3.3636,0,9.5668e-05,956.02,3.3772e-05,26.46,3.0252e-05,0.017505,-9.519e-05,-942.51,1.8005
17594,19.589,3.4545,0.05,7.4184e-07,7.4133,5.6964e-07,4.2801,-4.6485e-13,7.3181e-06,-5.6964e-07,-4.28,1.8005
17595,19.865,3.4545,0,8.9804e-05,897.42,3.2261e-05,31.603,2.8058e-05,0.018682,-8.9224e-05,-881.19,1.8423
17596,19.773,3.3636,0,9.1752e-05,916.88,3.2767e-05,29.942,2.8784e-05,0.018432,-9.1205e-05,-901.54,1.8284
17597,19.773,3.4545,0.05,7.3919e-07,7.3868,5.6761e-07,4.2648,-9.167e-13,5.9095e-06,-5.676e-07,-4.2647,1.8283
17598,20.048,3.4545,0,8.5926e-05,858.67,3.128e-05,35.218,2.6595e-05,0.019732,-8.5273e-05,-840.51,1.8702
17599,19.956,3.3636,0,8.7863e-05,878.02,3.1779e-05,33.528,2.732e-05,0.019436,-8.7244e-05,-860.77,1.8563
17600,19.956,3.4545,0.05,7.3672e-07,7.3621,5.6571e-07,4.2505,-4.6227e-13,5.4331e-06,-5.6571e-07,-4.2505,1.8562
17601,20.232,3.4545,0,8.2079e-05,820.22,3.0318e-05,38.969,2.5135e-05,0.020885,-8.1346e-05,-800.03,1.8982
17602,20.14,3.3636,0,8.4003e-05,839.45,3.0811e-05,37.239,2.5858e-05,0.020544,-8.3307e-05,-820.2,1.8842
17603,20.14,3.4545,0.05,7.3445e-07,7.3394,5.6397e-07,4.2374,-1.37e-12,5.2004e-06,-5.6396e-07,-4.2374,1.8842
17604,20.416,3.4545,0,7.8263e-05,782.09,2.9379e-05,42.879,2.3676e-05,0.022152,-7.7445e-05,-759.76,1.9263
17605,20.324,3.3636,0,8.0174e-05,801.18,2.9864e-05,41.099,2.4397e-05,0.021757,-7.9395e-05,-779.83,1.9123
17606,20.324,3.4545,0.05,7.324e-07,7.3189,5.6239e-07,4.2256,-4.5742e-13,3.8003e-06,-5.6239e-07,-4.2256,1.9122
17607,20.6,3.4545,0,7.448e-05,744.29,2.8465e-05,46.969,2.2217e-05,0.023549,-7.357e-05,-719.68,1.9544
17608,20.508,3.3636,0,7.6377e-05,763.25,2.8941e-05,45.129,2.2938e-05,0.023093,-7.5509e-05,-739.67,1.9403
17609,20.508,3.4545,0.05,7.3058e-07,7.3008,5.61e-07,4.2151,-4.5544e-13,4.7685e-06,-5.6099e-07,-4.2151,1.9403
17610,20.784,3.4545,0,7.0733e-05,706.84,2.7578e-05,51.264,2.0759e-05,0.02509,-6.9721e-05,-679.81,1.9825
17611,20.692,3.3636,0,7.2616e-05,725.66,2.8044e-05,49.355,2.1479e-05,0.024569,-7.165e-05,-699.71,1.9684
17612,20.692,3.4545,0.05,7.2902e-07,7.2852,5.598e-07,4.2061,-4.5066e-13,5.2887e-06,-5.598e-07,-4.2061,1.9684
17613,20.967,3.4545,0,6.7024e-05,669.77,2.672e-05,55.788,1.9299e-05,0.026803,-6.59e-05,-640.12,2.0107
17614,20.875,3.3636,0,6.8891e-05,688.43,2.7176e-05,53.798,2.0019e-05,0.026195,-6.7817e-05,-659.94,1.9966
17615,20.875,3.4545,0.05,7.2774e-07,7.2723,5.5881e-07,4.1987,-4.5137e-13,6.2314e-06,-5.5881e-07,-4.1987,1.9966
17616,21.151,3.4545,0,6.3354e-05,633.1,2.5894e-05,60.564,1.7837e-05,0.028735,-6.2106e-05,-600.63,2.0389
17617,21.059,3.3636,0,6.5204e-05,651.59,2.6338e-05,58.484,1.8558e-05,0.028016,-6.4012e-05,-620.37,2.0248
17618,21.059,3.4545,0.05,7.2675e-07,7.2625,5.5806e-07,4.193,-9.1429e-13,5.6784e-06,-5.5805e-07,-4.193,2.0248
17619,21.335,3.4545,0,5.9727e-05,596.86,2.5102e-05,65.619,1.6373e-05,0.030934,-5.8339e-05,-561.32,2.0672
17620,21.243,3.3636,0,6.156e-05,615.17,2.5533e-05,63.437,1.7094e-05,0.030083,-6.0234e-05,-580.98,2.0531
17621,21.243,3.4545,0.05,7.261e-07,7.256,5.5756e-07,4.1893,-6.8424e-13,5.7079e-06,-5.5756e-07,-4.1893,2.0531
17622,21.519,3.4545,0,5.6146e-05,561.07,2.4346e-05,70.975,1.4904e-05,0.033452,-5.46e-05,-522.19,2.0955
17623,21.427,3.3636,0,5.7959e-05,579.19,2.4763e-05,68.682,1.5626e-05,0.03244,-5.6484e-05,-541.78,2.0814
17624,21.427,3.4545,0.05,7.2583e-07,7.2533,5.5735e-07,4.1877,-2.2235e-13,5.7642e-06,-5.5735e-07,-4.1877,2.0814
17625,21.703,3.4545,0,5.2614e-05,525.78,2.3627e-05,76.659,1.343e-05,0.036366,-5.0888e-05,-483.22,2.1239
17626,21.611,3.3636,0,5.4406e-05,543.69,2.403e-05,74.242,1.4154e-05,0.035151,-5.2761e-05,-502.74,2.1097
17627,21.611,3.4545,0.05,7.2598e-07,7.2548,5.5746e-07,4.1886,-4.3829e-13,5.8508e-06,-5.5746e-07,-4.1885,2.1097
17628,21.886,3.4545,0,4.9136e-05,491.02,2.2949e-05,82.694,1.1949e-05,0.039777,-4.7204e-05,-444.41,2.1523
17629,21.794,3.3636,0,5.0905e-05,508.7,2.3336e-05,80.142,1.2675e-05,0.038305,-4.9066e-05,-463.86,2.1381
17630,21.794,3.4545,0.05,7.2659e-07,7.2609,5.5793e-07,4.1921,-2.0925e-13,4.8925e-06,-5.5793e-07,-4.1921,2.1381
17631,22.07,3.4545,0,4.5717e-05,456.86,2.2313e-05,89.102,1.046e-05,0.043834,-4.3545e-05,-405.73,2.1807
17632,21.978,3.3636,0,4.7461e-05,474.28,2.2684e-05,86.406,1.119e-05,0.042019,-4.5396e-05,-425.12,2.1665
17633,21.978,3.4545,0.05,7.2772e-07,7.2721,5.588e-07,4.1986,1.9004e-14,1.5578e-07,-5.588e-07,-4.1986,2.1665
17634,22.254,3.4545,0,4.2365e-05,423.35,2.172e-05,95.906,8.9624e-06,0.048752,-3.991e-05,-367.16,2.2092
17635,22.162,3.3636,0,4.4079e-05,440.48,2.2074e-05,93.053,9.6953e-06,0.04648,-4.1752e-05,-386.51,2.1949
17636,22.162,3.4545,0.05,7.2941e-07,7.2891,5.601e-07,4.2083,2.4902e-14,3.027e-06,-5.601e-07,-4.2083,2.1949
17637,22.438,3.4545,0,3.9087e-05,390.6,2.1172e-05,103.13,7.4539e-06,0.054866,-3.6298e-05,-328.68,2.2376
17638,22.346,3.3636,0,4.0767e-05,407.39,2.1507e-05,100.11,8.1911e-06,0.051946,-3.8131e-05,-347.99,2.2234
17639,22.346,3.4545,0.05,7.3173e-07,7.3122,5.6188e-07,4.2217,-6.9874e-15,1.8359e-06,-5.6188e-07,-4.2217,2.2234
17640,22.622,3.4545,0,3.5897e-05,358.73,2.0668e-05,110.78,5.9332e-06,0.062598,-3.2706e-05,-290.26,2.2661
17641,22.53,3.3636,0,3.7537e-05,375.11,2.0985e-05,107.58,6.6754e-06,0.058841,-3.4531e-05,-309.55,2.2519
17642,22.53,3.4545,0.05,7.3473e-07,7.3422,5.6418e-07,4.239,-8.8393e-15,4.6886e-06,-5.6418e-07,-4.239,2.2519
17643,22.805,3.4545,0,3.2811e-05,327.89,2.021e-05,118.87,4.3989e-06,0.072973,-2.9131e-05,-251.86,2.2947
17644,22.713,3.3636,0,3.4401e-05,343.77,2.0508e-05,115.49,5.1468e-06,0.067621,-3.0949e-05,-271.14,2.2804
17645,22.713,3.4545,0.05,7.3846e-07,7.3795,5.6704e-07,4.2605,3.4798e-15,3.8439e-06,-5.6704e-07,-4.2605,2.2804
17646,22.989,3.4545,0,2.9853e-05,298.33,1.9796e-05,127.42,2.8495e-06,0.086437,-2.557e-05,-213.44,2.3232
17647,22.897,3.3636,0,3.138e-05,313.58,2.0076e-05,123.84,3.6039e-06,0.079951,-2.7382e-05,-232.73,2.3089
17648,22.897,3.4545,0.05,7.4296e-07,7.4245,5.705e-07,4.2865,7.0228e-13,7.7887e-06,-5.705e-07,-4.2865,2.3089
17649,23.173,3.4545,0,2.7056e-05,270.38,1.9426e-05,136.42,1.2841e-06,0.10925,-2.2018e-05,-174.98,2.3518
17650,23.081,3.3636,0,2.8502e-05,284.82,1.9687e-05,132.65,2.0452e-06,0.095207,-2.3826e-05,-194.29,2.3375
17651,23.081,3.4545,0.05,7.4825e-07,7.4774,5.7456e-07,4.3171,2.5664e-13,9.7681e-06,-5.7456e-07,-4.317,2.3375
17652,23.357,3.4545,0,2.4469e-05,244.52,1.9099e-05,145.88,-2.9936e-07,0.13242,-1.8473e-05,-136.42,2.3803
17653,23.265,3.3636,0,2.5807e-05,257.89,1.934e-05,141.91,4.7048e-07,0.12694,-2.0278e-05,-155.77,2.3661
17654,23.265,3.4545,0.05,7.5435e-07,7.5383,5.7924e-07,4.3522,2.1462e-13,7.5236e-06,-5.7924e-07,-4.3522,2.366
17655,23.541,3.4545,0,2.216e-05,221.44,1.8811e-05,155.81,-1.8956e-06,0.22901,-1.4931e-05,-97.716,2.4089
17656,23.449,3.3636,0,2.3353e-05,233.37,1.9035e-05,151.61,-1.1238e-06,0.14491,-1.6733e-05,-117.14,2.3947
17657,23.449,3.4545,0.05,7.6119e-07,7.6066,5.845e-07,4.3917,6.7205e-13,1.3277e-05,-5.845e-07,-4.3917,2.3946
17658,23.724,3.4545,0,2.022e-05,202.06,1.8561e-05,166.12,-3.5175e-06,0.22724,-1.1388e-05,-58.911,2.4375
17659,23.632,3.3636,0,2.122e-05,212.05,1.8767e-05,161.8,-2.7227e-06,0.33126,-1.3194e-05,-78.345,2.4233
17660,23.632,3.4545,0.05,7.688e-07,7.6827,5.9034e-07,4.4356,6.7621e-13,1.1395e-05,-5.9034e-07,-4.4356,2.4232
17661,23.816,3.3636,0,1.951e-05,194.97,1.8534e-05,172.23,-4.3601e-06,0.21147,-9.653e-06,-39.557,2.4519
17662,23.816,3.4545,0.05,7.7862e-07,7.7809,5.9789e-07,4.4923,4.3959e-13,1.1317e-05,-5.9789e-07,-4.4923,2.4518
17663,23.908,3.4545,0,1.8836e-05,188.23,1.8362e-05,176.29,-5.0427e-06,0.43396,-8.064e-06,-22.266,2.4661
17664,11.042,3.2727,0,0.00069325,6927.7,0.00027113,511.89,0.00020284,-1.2216,-0.00068313,-6658.1,0.62814
17665,10.95,3.1818,0,0.00072346,7229.6,0.0002906,627.96,0.00020685,-1.2768,-0.00071074,-6895.7,0.61797
17666,10.95,3.2727,0.05,7.5726e-06,75.673,5.8148e-06,43.69,2.0394e-12,6.1846e-05,-5.8148e-06,-43.69,0.61782
17667,11.226,3.2727,0,0.000614,6135.8,0.00022494,269,0.00018917,0.30399,-0.00060898,-5996.7,0.64906
17668,11.134,3.1818,0,0.00065112,6506.7,0.00024691,386.9,0.00019542,0.054018,-0.00064367,-6304.6,0.63865
17669,11.134,3.2727,0.05,9.5878e-06,95.811,7.3622e-06,55.317,1.2857e-12,3.9591e-05,-7.3622e-06,-55.317,0.63852
17670,11.41,3.2727,0,0.00053802,5376.5,0.00018263,61.268,0.00017454,0.43875,-0.00053694,-5345.3,0.67039
17671,11.318,3.1818,0,0.00057393,5735.3,0.00020238,156.45,0.00018166,0.76514,-0.0005711,-5655.1,0.65976
17672,11.318,3.2727,0.05,9.4676e-06,94.611,7.27e-06,54.624,5.9557e-13,2.8142e-05,-7.27e-06,-54.624,0.65965
17673,11.594,3.2727,0,0.0004737,4733.7,0.00016093,1.1264,0.00014859,-91.546,-0.00047517,-4778.3,0.69207
17674,11.502,3.1818,0,0.00050463,5042.8,0.00016789,1.3954,0.00016436,-25.109,-0.00050503,-5054.6,0.68126
17675,11.502,3.2727,0.05,8.3972e-06,83.914,6.448e-06,48.448,1.0043e-13,1.8637e-05,-6.448e-06,-48.448,0.68116
17676,11.778,3.2727,0,0.00042215,4218.6,0.00014875,0.85675,0.00012317,-191.36,-0.00042506,-4310.5,0.71408
17677,11.686,3.1818,0,0.00044733,4470.2,0.00015508,0.9602,0.00013495,-150.27,-0.00044968,-4543,0.7031
17678,11.686,3.2727,0.05,7.1391e-06,71.341,5.4819e-06,41.189,-2.9161e-13,1.0832e-05,-5.4819e-06,-41.189,0.70301
17679,11.961,3.2727,0,0.0003816,3813.4,0.00013822,0.66674,0.00010471,-251.13,-0.00038524,-3932.4,0.73637
17680,11.869,3.1818,0,0.00040161,4013.3,0.00014379,0.76933,0.00011317,-229.31,-0.000405,-4122.6,0.72524
17681,11.869,3.2727,0.05,5.972e-06,59.678,4.5857e-06,34.455,-1.4315e-12,7.3563e-06,-4.5857e-06,-34.455,0.72516
17682,12.145,3.2727,0,0.00034978,3495.4,0.00012918,0.50265,9.1512e-05,-282.52,-0.00035372,-3627.8,0.75892
17683,12.053,3.1818,0,0.00036556,3653,0.000134,0.58642,9.7448e-05,-274.07,-0.00036943,-3782,0.74765
17684,12.053,3.2727,0.05,4.9777e-06,49.743,3.8223e-06,28.719,-2.3836e-12,-3.9712e-07,-3.8223e-06,-28.719,0.74759
17685,12.329,3.2727,0,0.00032464,3244.2,0.00012143,0.37456,8.2154e-05,-294.73,-0.00032864,-3381.3,0.78171
17686,12.237,3.1818,0,0.00033711,3368.8,0.00012558,0.4369,8.6251e-05,-295.05,-0.00034115,-3506.4,0.77032
17687,12.237,3.2727,0.05,4.1604e-06,41.575,3.1947e-06,24.003,-2.3717e-12,-3.7173e-06,-3.1947e-06,-24.003,0.77026
17688,12.513,3.2727,0,0.00030457,3043.6,0.00011476,0.27693,7.5545e-05,-294.37,-0.0003085,-3180,0.80472
17689,12.421,3.1818,0,0.00031451,3142.9,0.00011833,0.32145,7.8332e-05,-300.2,-0.00031853,-3282.1,0.79322
17690,12.421,3.2727,0.05,3.4995e-06,34.971,2.6872e-06,20.19,-5.2795e-13,-8.2099e-06,-2.6872e-06,-20.19,0.79316
17691,12.697,3.2727,0,0.00028834,2881.4,0.00010898,0.20404,7.0889e-05,-286.03,-0.00029213,-3013.6,0.82794
17692,12.605,3.1818,0,0.00029635,2961.4,0.00011207,0.23521,7.2757e-05,-295.13,-0.00030026,-3097.8,0.81633
17693,12.605,3.2727,0.05,2.9692e-06,29.671,2.28e-06,17.131,-1.3577e-12,-7.2576e-06,-2.28e-06,-17.131,0.81627
17694,12.88,3.2727,0,0.000275,2748.1,0.00010394,0.15021,6.7609e-05,-272.84,-0.00027862,-2874.3,0.85135
17695,12.788,3.1818,0,0.00028155,2813.6,0.00010662,0.17186,6.8841e-05,-283.72,-0.0002853,-2944.6,0.83965
17696,12.788,3.2727,0.05,2.5452e-06,25.434,1.9544e-06,14.684,-2.1897e-12,-2.8791e-06,-1.9544e-06,-14.684,0.83959
17697,13.064,3.2727,0,0.00026387,2636.9,9.9502e-05,0.11065,6.5294e-05,-256.92,-0.0002673,-2755.9,0.87495
17698,12.972,3.1818,0,0.00026931,2691.3,0.00010185,0.12565,6.6092e-05,-268.58,-0.00027287,-2815.4,0.86316
17699,12.972,3.2727,0.05,2.2065e-06,22.05,1.6943e-06,12.731,-2.1026e-12,-1.0838e-06,-1.6943e-06,-12.731,0.8631
17700,13.248,3.2727,0,0.00025441,2542.4,9.5554e-05,0.081628,6.3646e-05,-239.67,-0.00025764,-2653.7,0.89874
17701,13.156,3.1818,0,0.00025902,2588.4,9.7636e-05,0.092008,6.4155e-05,-251.48,-0.00026237,-2704.9,0.88685
17702,13.156,3.2727,0.05,1.936e-06,19.347,1.4866e-06,11.17,-2.0617e-12,-3.8015e-06,-1.4866e-06,-11.17,0.8868
17703,13.432,3.2727,0,0.00024623,2460.6,9.201e-05,0.060411,6.2453e-05,-222.02,-0.00024925,-2564.1,0.9227
17704,13.34,3.1818,0,0.0002502,2500.3,9.387e-05,0.067556,6.2774e-05,-233.58,-0.00025335,-2608.8,0.91072
17705,13.34,3.2727,0.05,1.7197e-06,17.185,1.3205e-06,9.9217,-2.0152e-12,-6.6868e-06,-1.3205e-06,-9.9216,0.91067
17706,13.616,3.2727,0,0.00023902,2388.5,8.8796e-05,0.044934,6.1562e-05,-204.58,-0.00024184,-2484.2,0.94682
17707,13.524,3.1818,0,0.00024251,2423.4,9.0475e-05,0.049838,6.1768e-05,-215.64,-0.00024545,-2524,0.93476
17708,13.524,3.2727,0.05,1.5464e-06,15.453,1.1875e-06,8.922,-1.9653e-12,-9.5458e-06,-1.1874e-06,-8.922,0.93471
17709,13.799,3.2727,0,0.00023255,2323.9,8.5854e-05,0.033659,6.0865e-05,-187.73,-0.00023517,-2412,0.97111
17710,13.707,3.1818,0,0.00023567,2355.1,8.7383e-05,0.036998,6.1006e-05,-198.15,-0.00023842,-2447.9,0.95897
17711,13.707,3.2727,0.05,1.4074e-06,14.064,1.0807e-06,8.1201,-1.9387e-12,-5.4865e-06,-1.0807e-06,-8.12,0.95892
17712,13.983,3.2727,0,0.00022664,2264.8,8.3136e-05,0.025472,6.0283e-05,-171.68,-0.00022907,-2345.8,0.99556
17713,13.891,3.1818,0,0.00022949,2293.3,8.4542e-05,0.027716,6.0395e-05,-181.41,-0.00023204,-2378.6,0.98334
17714,13.891,3.2727,0.05,1.2956e-06,12.947,9.9489e-07,7.4752,-1.9412e-12,-2.875e-06,-9.9488e-07,-7.4752,0.98329
17715,14.167,3.2727,0,0.00022116,2210.1,8.0602e-05,0.019535,5.9761e-05,-156.57,-0.00022341,-2284.2,1.0202
17716,14.075,3.1818,0,0.0002238,2236.5,8.1907e-05,0.021033,5.9867e-05,-165.58,-0.00022616,-2314.7,1.0079
17717,14.075,3.2727,0.05,1.2055e-06,12.047,9.2571e-07,6.9554,-2.4036e-12,-4.6335e-06,-9.257e-07,-6.9554,1.0078
17718,14.351,3.2727,0,0.000216,2158.5,7.8222e-05,0.015249,5.9261e-05,-142.45,-0.00021807,-2226.2,1.0449
17719,14.259,3.1818,0,0.0002185,2183.4,7.9443e-05,0.016208,5.9377e-05,-150.75,-0.00022067,-2254.9,1.0325
17720,14.259,3.2727,0.05,1.1327e-06,11.319,8.6977e-07,6.5351,-1.9141e-12,-6.3691e-06,-8.6976e-07,-6.535,1.0325
17721,14.534,3.2727,0,0.00021109,2109.5,7.5969e-05,0.012218,5.8756e-05,-129.32,-0.00021299,-2171.1,1.0698
17722,14.443,3.1818,0,0.00021347,2133.2,7.712e-05,0.012778,5.8893e-05,-136.94,-0.00021547,-2198.4,1.0574
17723,14.443,3.2727,0.05,1.0736e-06,10.728,8.2436e-07,6.1939,-1.9033e-12,-2.5554e-06,-8.2436e-07,-6.1939,1.0573
17724,14.718,3.2727,0,0.00020637,2062.2,7.3822e-05,0.010128,5.8228e-05,-117.16,-0.00020811,-2118.3,1.0949
17725,14.626,3.1818,0,0.00020866,2085.1,7.4916e-05,0.010416,5.8392e-05,-124.14,-0.00021049,-2144.4,1.0823
17726,14.626,3.2727,0.05,1.0254e-06,10.247,7.8735e-07,5.9159,-1.8633e-12,-2.2719e-06,-7.8735e-07,-5.9158,1.0823
17727,14.902,3.2727,0,0.00020178,2016.4,7.1765e-05,0.0087229,5.7667e-05,-105.92,-0.00020337,-2067.3,1.1201
17728,14.81,3.1818,0,0.00020401,2038.7,7.281e-05,0.0088228,5.7861e-05,-112.31,-0.00020569,-2092.5,1.1075
17729,14.81,3.2727,0.05,9.859e-07,9.8522,7.5705e-07,5.6882,-1.8688e-12,-2.0945e-06,-7.5704e-07,-5.6881,1.1074
17730,15.086,3.2727,0,0.00019729,1971.6,6.9783e-05,0.007822,5.7065e-05,-95.549,-0.00019874,-2017.6,1.1454
17731,14.994,3.1818,0,0.00019948,1993.4,7.0787e-05,0.007794,5.7292e-05,-101.39,-0.00020101,-2042.2,1.1327
17732,14.994,3.2727,0.05,9.5339e-07,9.5274,7.3209e-07,5.5006,-1.424e-12,-3.9946e-07,-7.3209e-07,-5.5006,1.1327
17733,15.27,3.2727,0,0.00019289,1927.5,6.7865e-05,0.0072709,5.642e-05,-85.986,-0.00019421,-1969.1,1.1708
17734,15.178,3.1818,0,0.00019504,1949,6.8834e-05,0.0071773,5.6678e-05,-91.332,-0.00019643,-1993.1,1.1581
17735,15.178,3.2727,0.05,9.2646e-07,9.2582,7.1141e-07,5.3452,-1.8569e-12,-2.2041e-06,-7.114e-07,-5.3452,1.1581
17736,15.453,3.2727,0,0.00018854,1884.1,6.6001e-05,0.0069704,5.573e-05,-77.168,-0.00018973,-1921.5,1.1964
17737,15.362,3.1818,0,0.00019067,1905.3,6.6941e-05,0.0068208,5.6019e-05,-82.062,-0.00019193,-1945,1.1836
17738,15.362,3.2727,0.05,9.0397e-07,9.0335,6.9414e-07,5.2155,-1.8436e-12,-2.0847e-06,-6.9413e-07,-5.2154,1.1836
17739,15.637,3.2727,0,0.00018423,1841,6.4184e-05,0.0068846,5.4996e-05,-69.032,-0.00018531,-1874.6,1.2221
17740,15.545,3.1818,0,0.00018634,1862.1,6.5099e-05,0.0066826,5.5314e-05,-73.519,-0.00018748,-1897.8,1.2093
17741,15.545,3.2727,0.05,8.8503e-07,8.8442,6.7959e-07,5.1062,-4.7321e-13,-1.2035e-07,-6.7959e-07,-5.1062,1.2092
17742,15.821,3.2727,0,0.00017996,1798.3,6.2408e-05,0.0069659,5.4219e-05,-61.518,-0.00018093,-1828.3,1.248
17743,15.729,3.1818,0,0.00018206,1819.3,6.3301e-05,0.0067365,5.4565e-05,-65.637,-0.00018308,-1851.2,1.2351
17744,15.729,3.2727,0.05,8.6894e-07,8.6834,6.6724e-07,5.0134,-4.6709e-13,-5.5982e-07,-6.6724e-07,-5.0133,1.235
17745,16.005,3.2727,0,0.00017571,1755.9,6.0667e-05,0.0071627,5.3403e-05,-54.569,-0.00017657,-1782.5,1.2739
17746,15.913,3.1818,0,0.0001778,1776.8,6.1541e-05,0.0069182,5.3773e-05,-58.357,-0.00017872,-1805.2,1.261
17747,15.913,3.2727,0.05,8.5515e-07,8.5456,6.5665e-07,4.9338,-9.2582e-13,2.2672e-06,-6.5664e-07,-4.9338,1.2609
17748,16.189,3.2727,0,0.00017148,1713.6,5.8956e-05,0.0074413,5.2549e-05,-48.129,-0.00017225,-1737.2,1.3
17749,16.097,3.1818,0,0.00017356,1734.4,5.9814e-05,0.0071901,5.2943e-05,-51.622,-0.00017438,-1759.7,1.287
17750,16.097,3.2727,0.05,8.4321e-07,8.4263,6.4748e-07,4.8649,-9.3067e-13,2.2219e-06,-6.4748e-07,-4.8649,1.2869
17751,16.372,3.2727,0,0.00016726,1671.5,5.7273e-05,0.0077611,5.1662e-05,-42.149,-0.00016794,-1692.2,1.3262
17752,16.281,3.1818,0,0.00016934,1692.3,5.8116e-05,0.007524,5.2076e-05,-45.377,-0.00017007,-1714.5,1.3131
17753,16.281,3.2727,0.05,8.3278e-07,8.322,6.3947e-07,4.8048,-1.3872e-12,3.1713e-06,-6.3947e-07,-4.8047,1.3131
17754,16.556,3.2727,0,0.00016306,1629.5,5.5613e-05,0.0081058,5.0744e-05,-36.579,-0.00016365,-1647.5,1.3525
17755,16.464,3.1818,0,0.00016514,1650.2,5.6444e-05,0.0078705,5.1177e-05,-39.572,-0.00016577,-1669.7,1.3394
17756,16.464,3.2727,0.05,8.2356e-07,8.23,6.324e-07,4.7516,-9.2686e-13,1.7845e-06,-6.3239e-07,-4.7515,1.3393
17757,16.74,3.2727,0,0.00015887,1587.6,5.3976e-05,0.008497,4.9798e-05,-31.378,-0.00015938,-1603.1,1.379
17758,16.648,3.1818,0,0.00016094,1608.3,5.4795e-05,0.0082469,5.0248e-05,-34.161,-0.0001615,-1625.1,1.3658
17759,16.648,3.2727,0.05,8.1533e-07,8.1477,6.2607e-07,4.7041,-1.3772e-12,1.8108e-06,-6.2607e-07,-4.704,1.3657
17760,16.924,3.2727,0,0.00015469,1545.9,5.2357e-05,0.0089328,4.8828e-05,-26.503,-0.00015513,-1559,1.4055
17761,16.832,3.1818,0,0.00015676,1566.5,5.3166e-05,0.0086782,4.9292e-05,-29.1,-0.00015724,-1580.9,1.3922
17762,16.832,3.2727,0.05,8.0791e-07,8.0735,6.2037e-07,4.6612,-9.1797e-13,8.8572e-07,-6.2037e-07,-4.6612,1.3922
17763,17.108,3.2727,0,0.00015053,1504.2,5.0756e-05,0.0093966,4.7838e-05,-21.917,-0.00015089,-1515.1,1.4321
17764,17.016,3.1818,0,0.00015259,1524.8,5.1556e-05,0.0091372,4.8314e-05,-24.35,-0.00015299,-1536.9,1.4188
17765,17.016,3.2727,0.05,8.0116e-07,8.0061,6.1519e-07,4.6223,-1.3696e-12,1.8653e-06,-6.1519e-07,-4.6223,1.4188
17766,17.291,3.2727,0,0.00014637,1462.7,4.9171e-05,0.0098861,4.6829e-05,-17.585,-0.00014666,-1471.4,1.4589
17767,17.2,3.1818,0,0.00014843,1483.2,4.9963e-05,0.0096204,4.7316e-05,-19.874,-0.00014875,-1493.1,1.4455
17768,17.2,3.2727,0.05,7.9497e-07,7.9443,6.1044e-07,4.5867,-9.1327e-13,2.1224e-06,-6.1044e-07,-4.5866,1.4455
17769,17.475,3.2727,0,0.00014222,1421.2,4.76e-05,0.010386,4.5805e-05,-13.475,-0.00014245,-1427.9,1.4857
17770,17.383,3.1818,0,0.00014428,1441.8,4.8384e-05,0.010123,4.6302e-05,-15.638,-0.00014453,-1449.5,1.4723
17771,17.383,3.2727,0.05,7.8927e-07,7.8872,6.0606e-07,4.5537,-4.5556e-13,1.6594e-06,-6.0606e-07,-4.5537,1.4723
17772,17.659,3.2727,0,0.00013809,1379.9,4.6042e-05,0.010905,4.4769e-05,-9.5545,-0.00013825,-1384.7,1.5126
17773,17.567,3.1818,0,0.00014014,1400.4,4.682e-05,0.010617,4.5273e-05,-11.609,-0.00014033,-1406.2,1.4992
17774,17.567,3.2727,0.05,7.8396e-07,7.8342,6.0199e-07,4.5231,-9.1109e-13,2.9663e-06,-6.0198e-07,-4.523,1.4991
17775,17.843,3.2727,0,0.00013397,1338.7,4.4496e-05,0.011499,4.3723e-05,-5.7964,-0.00013406,-1341.6,1.5397
17776,17.751,3.1818,0,0.00013601,1359.2,4.5268e-05,0.011136,4.4234e-05,-7.7573,-0.00013614,-1363,1.5262
17777,17.751,3.2727,0.05,7.7898e-07,7.7845,5.9816e-07,4.4944,-9.1023e-13,2.3184e-06,-5.9816e-07,-4.4943,1.5261
17778,18.027,3.2727,0,0.00012986,1297.7,4.2962e-05,0.012406,4.2671e-05,-2.1735,-0.00012989,-1298.8,1.5668
17779,17.935,3.1818,0,0.0001319,1318,4.3727e-05,0.01174,4.3186e-05,-4.0553,-0.00013196,-1320.1,1.5532
17780,17.935,3.2727,0.05,7.7431e-07,7.7377,5.9457e-07,4.4674,-1.8192e-12,3.4567e-06,-5.9457e-07,-4.4674,1.5532
17781,18.21,3.2727,0,0.00012576,1256.8,4.1614e-05,1.3423,4.1437e-05,0.011433,-0.00012574,-1256.1,1.594
17782,18.119,3.1818,0,0.0001278,1277.1,4.2198e-05,0.013331,4.2132e-05,-0.47702,-0.0001278,-1277.3,1.5804
17783,18.119,3.2727,0.05,7.699e-07,7.6936,5.9119e-07,4.442,-1.4244e-16,3.1135e-06,-5.9118e-07,-4.4419,1.5804
17784,18.394,3.2727,0,0.00012169,1216,4.0555e-05,4.7713,3.9922e-05,0.012723,-0.00012161,-1213.6,1.6213
17785,18.302,3.1818,0,0.00012371,1236.3,4.1076e-05,3.0062,4.0677e-05,0.012563,-0.00012366,-1234.8,1.6076
17786,18.302,3.2727,0.05,7.6572e-07,7.652,5.8798e-07,4.4179,-1.3643e-12,2.7266e-06,-5.8798e-07,-4.4178,1.6076
17787,18.578,3.2727,0,0.00011763,1175.5,3.9497e-05,8.1401,3.8415e-05,0.013448,-0.00011749,-1171.4,1.6487
17788,18.486,3.1818,0,0.00011965,1195.6,4.0018e-05,6.415,3.9166e-05,0.013282,-0.00011954,-1192.4,1.635
17789,18.486,3.2727,0.05,7.6177e-07,7.6125,5.8495e-07,4.3951,-4.5473e-13,2.6226e-06,-5.8495e-07,-4.395,1.6349
17790,18.762,3.2727,0,0.00011359,1135.1,3.8441e-05,11.471,3.6916e-05,0.014128,-0.00011339,-1129.3,1.6761
17791,18.67,3.1818,0,0.0001156,1155.2,3.8962e-05,9.7741,3.7663e-05,0.013937,-0.00011543,-1150.3,1.6624
17792,18.67,3.2727,0.05,7.5802e-07,7.575,5.8207e-07,4.3734,-9.0935e-13,4.4719e-06,-5.8207e-07,-4.3734,1.6624
17793,18.946,3.2727,0,0.00010957,1094.9,3.739e-05,14.786,3.5424e-05,0.014834,-0.00010931,-1087.5,1.7036
17794,18.854,3.1818,0,0.00011157,1114.9,3.791e-05,13.106,3.6168e-05,0.014608,-0.00011134,-1108.3,1.6899
17795,18.854,3.2727,0.05,7.5446e-07,7.5394,5.7933e-07,4.3529,-4.5472e-13,3.5758e-06,-5.7933e-07,-4.3529,1.6898
17796,19.129,3.2727,0,0.00010557,1055,3.6347e-05,18.108,3.3939e-05,0.015586,-0.00010525,-1045.8,1.7312
17797,19.038,3.1818,0,0.00010756,1074.8,3.6864e-05,16.434,3.4679e-05,0.015334,-0.00010727,-1066.5,1.7174
17798,19.038,3.2727,0.05,7.5107e-07,7.5055,5.7673e-07,4.3334,-4.5616e-13,4.7584e-06,-5.7673e-07,-4.3333,1.7174
17799,19.313,3.2727,0,0.00010159,1015.2,3.5313e-05,21.459,3.2459e-05,0.016386,-0.00010121,-1004.3,1.7589
17800,19.221,3.1818,0,0.00010357,1035,3.5826e-05,19.78,3.3196e-05,0.016106,-0.00010322,-1025,1.7451
17801,19.221,3.2727,0.05,7.4787e-07,7.4735,5.7427e-07,4.3149,-9.1249e-13,4.0298e-06,-5.7427e-07,-4.3148,1.7451
17802,19.497,3.2727,0,9.7641e-05,975.74,3.429e-05,24.859,3.0984e-05,0.017241,-9.7194e-05,-963.06,1.7867
17803,19.405,3.1818,0,9.9609e-05,995.4,3.4799e-05,23.164,3.1718e-05,0.016933,-9.9194e-05,-983.61,1.7728
17804,19.405,3.2727,0.05,7.4485e-07,7.4433,5.7195e-07,4.2974,-4.5957e-13,5.9252e-06,-5.7195e-07,-4.2974,1.7728
17805,19.681,3.2727,0,9.3714e-05,936.5,3.3282e-05,28.331,2.9513e-05,0.018147,-9.32e-05,-922,1.8145
17806,19.589,3.1818,0,9.567e-05,956.04,3.3785e-05,26.61,3.0245e-05,0.017819,-9.5189e-05,-942.45,1.8006
17807,19.589,3.2727,0.05,7.4201e-07,7.415,5.6977e-07,4.2811,-4.6106e-13,8.2992e-06,-5.6977e-07,-4.281,1.8005
17808,19.865,3.2727,0,8.9814e-05,897.52,3.2289e-05,31.897,2.8046e-05,0.019115,-8.9229e-05,-881.14,1.8423
17809,19.773,3.1818,0,9.1757e-05,916.94,3.2785e-05,30.139,2.8776e-05,0.018752,-9.1207e-05,-901.49,1.8284
17810,19.773,3.2727,0.05,7.3935e-07,7.3884,5.6773e-07,4.2657,-1.3688e-12,7.5952e-06,-5.6773e-07,-4.2657,1.8284
17811,20.048,3.2727,0,8.5943e-05,858.83,3.1315e-05,35.578,2.6582e-05,0.020173,-8.5282e-05,-840.48,1.8703
17812,19.956,3.1818,0,8.7873e-05,878.12,3.1803e-05,33.774,2.7311e-05,0.019761,-8.7249e-05,-860.74,1.8563
17813,19.956,3.2727,0.05,7.3689e-07,7.3638,5.6584e-07,4.2515,-1.3683e-12,6.8862e-06,-5.6584e-07,-4.2515,1.8563
17814,20.232,3.2727,0,8.2101e-05,820.45,3.0361e-05,39.398,2.512e-05,0.021336,-8.136e-05,-800.03,1.8983
17815,20.14,3.1818,0,8.4017e-05,839.59,3.084e-05,37.536,2.5847e-05,0.020875,-8.3316e-05,-820.19,1.8843
17816,20.14,3.2727,0.05,7.3463e-07,7.3412,5.6411e-07,4.2385,-9.1301e-13,5.2218e-06,-5.641e-07,-4.2384,1.8842
17817,20.416,3.2727,0,7.8292e-05,782.38,2.943e-05,43.379,2.366e-05,0.022613,-7.7463e-05,-759.78,1.9263
17818,20.324,3.1818,0,8.0193e-05,801.38,2.9899e-05,41.448,2.4386e-05,0.022096,-7.9407e-05,-779.84,1.9123
17819,20.324,3.2727,0.05,7.3259e-07,7.3209,5.6254e-07,4.2267,-6.8341e-13,4.7565e-06,-5.6254e-07,-4.2267,1.9123
17820,20.6,3.2727,0,7.4516e-05,744.65,2.8524e-05,47.544,2.22e-05,0.024021,-7.3593e-05,-719.72,1.9544
17821,20.508,3.1818,0,7.6402e-05,763.49,2.8982e-05,45.534,2.2925e-05,0.023441,-7.5525e-05,-739.69,1.9404
17822,20.508,3.2727,0.05,7.3079e-07,7.3028,5.6116e-07,4.2163,-1.1395e-15,5.2386e-06,-5.6115e-07,-4.2163,1.9403
17823,20.784,3.2727,0,7.0776e-05,707.27,2.7646e-05,51.918,2.0739e-05,0.025574,-6.9749e-05,-679.87,1.9825
17824,20.692,3.1818,0,7.2645e-05,725.95,2.8092e-05,49.816,2.1465e-05,0.024925,-7.1669e-05,-699.75,1.9685
17825,20.692,3.2727,0.05,7.2925e-07,7.2874,5.5997e-07,4.2074,-4.52e-13,7.1733e-06,-5.5997e-07,-4.2074,1.9684
17826,20.967,3.2727,0,6.7074e-05,670.28,2.6797e-05,56.523,1.9278e-05,0.027298,-6.5933e-05,-640.21,2.0107
17827,20.875,3.1818,0,6.8926e-05,688.78,2.723e-05,54.32,2.0004e-05,0.026559,-6.784e-05,-660,1.9966
17828,20.875,3.2727,0.05,7.2798e-07,7.2748,5.59e-07,4.2001,-4.5206e-13,6.6931e-06,-5.59e-07,-4.2001,1.9966
17829,21.151,3.2727,0,6.3412e-05,633.68,2.598e-05,61.384,1.7814e-05,0.029242,-6.2144e-05,-600.74,2.039
17830,21.059,3.1818,0,6.5245e-05,652,2.6399e-05,59.068,1.8541e-05,0.028387,-6.4039e-05,-620.44,2.0249
17831,21.059,3.2727,0.05,7.2702e-07,7.2652,5.5827e-07,4.1946,-9.1291e-13,7.1294e-06,-5.5826e-07,-4.1946,2.0248
17832,21.335,3.2727,0,5.9793e-05,597.52,2.5197e-05,66.527,1.6347e-05,0.031452,-5.8383e-05,-561.46,2.0672
17833,21.243,3.1818,0,6.1606e-05,615.64,2.5601e-05,64.086,1.7075e-05,0.030462,-6.0265e-05,-581.08,2.0531
17834,21.243,3.2727,0.05,7.2641e-07,7.2591,5.5779e-07,4.191,-2.2924e-13,6.6704e-06,-5.5779e-07,-4.191,2.0531
17835,21.519,3.2727,0,5.622e-05,561.82,2.4451e-05,71.974,1.4876e-05,0.03398,-5.4649e-05,-522.35,2.0956
17836,21.427,3.1818,0,5.8012e-05,579.72,2.4838e-05,69.398,1.5606e-05,0.032827,-5.6519e-05,-541.89,2.0814
17837,21.427,3.2727,0.05,7.2617e-07,7.2567,5.5761e-07,4.1897,-2.2512e-13,6.6955e-06,-5.5761e-07,-4.1896,2.0814
17838,21.703,3.2727,0,5.2697e-05,526.61,2.3742e-05,77.749,1.3399e-05,0.036903,-5.0942e-05,-483.4,2.1239
17839,21.611,3.1818,0,5.4466e-05,544.28,2.4113e-05,75.027,1.4132e-05,0.035545,-5.28e-05,-502.86,2.1097
17840,21.611,3.2727,0.05,7.2636e-07,7.2586,5.5775e-07,4.1907,8.6634e-15,7.7003e-06,-5.5775e-07,-4.1907,2.1097
17841,21.886,3.2727,0,4.9228e-05,491.94,2.3074e-05,83.877,1.1916e-05,0.040323,-4.7262e-05,-444.6,2.1523
17842,21.794,3.1818,0,5.0972e-05,509.36,2.3426e-05,80.996,1.2652e-05,0.038708,-4.9108e-05,-464,2.1381
17843,21.794,3.2727,0.05,7.2701e-07,7.2651,5.5826e-07,4.1945,1.0117e-14,5.8053e-06,-5.5825e-07,-4.1945,2.1381
17844,22.07,3.2727,0,4.5819e-05,457.87,2.2447e-05,90.377,1.0425e-05,0.044389,-4.3607e-05,-405.93,2.1807
17845,21.978,3.1818,0,4.7534e-05,475.01,2.2781e-05,87.329,1.1164e-05,0.042427,-4.5442e-05,-425.27,2.1665
17846,21.978,3.2727,0.05,7.2818e-07,7.2768,5.5916e-07,4.2013,1.2191e-14,9.5527e-08,-5.5916e-07,-4.2013,2.1665
17847,22.254,3.2727,0,4.2475e-05,424.46,2.1864e-05,97.271,8.924e-06,0.049319,-3.9975e-05,-367.36,2.2092
17848,22.162,3.1818,0,4.4158e-05,441.28,2.2178e-05,94.045,9.6677e-06,0.046896,-4.18e-05,-386.66,2.195
17849,22.162,3.2727,0.05,7.2992e-07,7.2942,5.6049e-07,4.2113,1.3565e-14,3.9203e-06,-5.6049e-07,-4.2113,2.1949
17850,22.438,3.2727,0,3.9206e-05,391.79,2.1323e-05,104.58,7.4126e-06,0.055448,-3.6366e-05,-328.88,2.2377
17851,22.346,3.1818,0,4.0854e-05,408.25,2.1618e-05,101.16,8.1613e-06,0.052371,-3.8181e-05,-348.14,2.2234
17852,22.346,3.2727,0.05,7.3228e-07,7.3178,5.623e-07,4.2249,2.2189e-13,5.6773e-06,-5.623e-07,-4.2249,2.2234
17853,22.622,3.2727,0,3.6025e-05,360,2.0828e-05,112.31,5.889e-06,0.063201,-3.2775e-05,-290.45,2.2662
17854,22.53,3.1818,0,3.7629e-05,376.03,2.1102e-05,108.7,6.6434e-06,0.059279,-3.4582e-05,-309.69,2.2519
17855,22.53,3.2727,0.05,7.3531e-07,7.3481,5.6463e-07,4.2424,-5.738e-15,7.5829e-06,-5.6463e-07,-4.2424,2.2519
17856,22.805,3.2727,0,3.2948e-05,329.25,2.0376e-05,120.47,4.3517e-06,0.073608,-2.9201e-05,-252.03,2.2947
17857,22.713,3.1818,0,3.45e-05,344.76,2.0631e-05,116.66,5.1125e-06,0.068079,-3.1001e-05,-271.28,2.2804
17858,22.713,3.2727,0.05,7.3906e-07,7.3855,5.6751e-07,4.264,6.842e-13,5.7335e-06,-5.6751e-07,-4.264,2.2804
17859,22.989,3.2727,0,2.9998e-05,299.77,1.9968e-05,129.08,2.7994e-06,0.087115,-2.564e-05,-213.59,2.3232
17860,22.897,3.1818,0,3.1485e-05,314.64,2.0202e-05,125.07,3.5674e-06,0.080435,-2.7434e-05,-232.85,2.309
17861,22.897,3.2727,0.05,7.4356e-07,7.4304,5.7096e-07,4.29,6.932e-13,9.623e-06,-5.7096e-07,-4.29,2.3089
17862,23.173,3.2727,0,2.7209e-05,271.91,1.9602e-05,138.14,1.2312e-06,0.11,-2.2087e-05,-175.09,2.3518
17863,23.081,3.1818,0,2.8613e-05,285.94,1.9817e-05,133.92,2.0066e-06,0.09573,-2.3878e-05,-194.39,2.3375
17864,23.081,3.2727,0.05,7.4881e-07,7.483,5.75e-07,4.3203,4.7115e-13,1.347e-05,-5.75e-07,-4.3203,2.3375
17865,23.357,3.2727,0,2.463e-05,246.13,1.9277e-05,147.64,-3.5476e-07,0.13326,-1.8539e-05,-136.49,2.3804
17866,23.265,3.1818,0,2.5925e-05,259.07,1.9473e-05,143.21,4.2986e-07,0.12753,-2.0329e-05,-155.84,2.3661
17867,23.265,3.2727,0.05,7.5484e-07,7.5432,5.7962e-07,4.3551,4.4562e-13,1.1376e-05,-5.7962e-07,-4.355,2.3661
17868,23.541,3.2727,0,2.2328e-05,223.13,1.8992e-05,157.6,-1.9531e-06,0.23008,-1.4994e-05,-97.757,2.409
17869,23.449,3.1818,0,2.3476e-05,234.6,1.9169e-05,152.94,-1.1662e-06,0.14558,-1.6782e-05,-117.18,2.3947
17870,23.449,3.2727,0.05,7.6157e-07,7.6104,5.8479e-07,4.3939,6.7518e-13,1.521e-05,-5.8479e-07,-4.3939,2.3947
17871,23.724,3.2727,0,2.0394e-05,203.8,1.8741e-05,167.92,-3.5768e-06,0.22899,-1.1448e-05,-58.912,2.4376
17872,23.632,3.1818,0,2.1349e-05,213.34,1.8903e-05,163.15,-2.7665e-06,0.33222,-1.324e-05,-78.362,2.4233
17873,23.632,3.2727,0.05,7.6899e-07,7.6846,5.9049e-07,4.4367,1.3582e-12,1.1406e-05,-5.9049e-07,-4.4367,2.4232
17874,23.816,3.1818,0,1.9643e-05,196.29,1.8669e-05,173.58,-4.405e-06,0.21351,-9.6963e-06,-39.543,2.4519
17875,23.816,3.2727,0.05,7.7807e-07,7.7753,5.9746e-07,4.4891,9.0039e-13,1.1377e-05,-5.9746e-07,-4.4891,2.4519
17876,23.908,3.2727,0,1.9017e-05,190.04,1.8544e-05,178.11,-5.1034e-06,0.43452,-8.1229e-06,-22.253,2.4662
17877,11.042,3.0909,0,0.00068223,6817.6,0.00026724,509.47,0.00019942,-0.098519,-0.00067213,-6548.6,0.62832
17878,10.95,3,0,0.00071519,7146.9,0.00028722,620.71,0.00020458,-0.19054,-0.0007026,-6816.4,0.61806
17879,10.95,3.0909,0.05,5.925e-06,59.21,4.5497e-06,34.185,7.6576e-13,4.4006e-05,-4.5497e-06,-34.185,0.61801
17880,11.226,3.0909,0,0.00061223,6118.1,0.0002255,282.94,0.00018789,0.41059,-0.00060692,-5971.5,0.64921
17881,11.134,3,0,0.00064842,6479.7,0.00024644,392.08,0.00019427,0.087459,-0.00064085,-6274.7,0.63873
17882,11.134,3.0909,0.05,8.0541e-06,80.486,6.1846e-06,46.469,6.0482e-13,3.8496e-05,-6.1846e-06,-46.469,0.63868
17883,11.41,3.0909,0,0.00054154,5411.7,0.00018519,78.23,0.00017489,0.85105,-0.00054015,-5371.7,0.67051
17884,11.318,3,0,0.00057496,5745.6,0.0002035,165.88,0.00018153,0.83497,-0.00057195,-5660.5,0.65983
17885,11.318,3.0909,0.05,8.6057e-06,85.998,6.6081e-06,49.651,2.9702e-13,2.8226e-05,-6.6081e-06,-49.651,0.65978
17886,11.594,3.0909,0,0.00047894,4786.1,0.00016201,0.99566,0.00015142,-78.563,-0.00048021,-4824.4,0.69217
17887,11.502,3,0,0.00050716,5068.1,0.00016827,1.0092,0.00016592,-16.653,-0.00050742,-5075.9,0.68131
17888,11.502,3.0909,0.05,8.0943e-06,80.887,6.2154e-06,46.7,7.7534e-14,1.8453e-05,-6.2154e-06,-46.7,0.68127
17889,11.778,3.0909,0,0.0004272,4269.1,0.00015012,0.8674,0.00012537,-185.12,-0.00043003,-4358.1,0.71416
17890,11.686,3,0,0.00045002,4497.1,0.00015574,0.95536,0.00013623,-145.63,-0.00045231,-4567.7,0.70314
17891,11.686,3.0909,0.05,7.1204e-06,71.155,5.4676e-06,41.081,-1.8891e-12,9.0058e-06,-5.4676e-06,-41.081,0.7031
17892,11.961,3.0909,0,0.0003858,3855.3,0.00013957,0.68982,0.00010615,-250.47,-0.00038943,-3974,0.73644
17893,11.869,3,0,0.00040394,4036.6,0.00014449,0.77994,0.00011405,-227.93,-0.00040731,-4145.3,0.72528
17894,11.869,3.0909,0.05,6.0603e-06,60.561,4.6535e-06,34.965,-2.8893e-12,2.6482e-06,-4.6536e-06,-34.965,0.72524
17895,12.145,3.0909,0,0.00035302,3527.8,0.0001304,0.52339,9.2317e-05,-285.62,-0.000357,-3661.6,0.75898
17896,12.053,3,0,0.00036739,3671.4,0.00013465,0.5995,9.7977e-05,-274.98,-0.00037129,-3800.8,0.74769
17897,12.053,3.0909,0.05,5.0877e-06,50.842,3.9067e-06,29.353,-2.0089e-12,-1.3923e-06,-3.9067e-06,-29.353,0.74765
17898,12.329,3.0909,0,0.00032705,3268.3,0.00012248,0.38699,8.2499e-05,-300,-0.00033111,-3407.7,0.78176
17899,12.237,3,0,0.0003385,3382.7,0.00012615,0.44547,8.6511e-05,-297.36,-0.00034256,-3521.3,0.77035
17900,12.237,3.0909,0.05,4.2599e-06,42.569,3.2711e-06,24.577,-2.9208e-12,-1.4718e-06,-3.2711e-06,-24.577,0.77031
17901,12.513,3.0909,0,0.00030632,3061.1,0.00011564,0.28278,7.558e-05,-300.69,-0.00031032,-3200.2,0.80477
17902,12.421,3,0,0.00031553,3153.1,0.00011881,0.32594,7.8407e-05,-303.24,-0.00031958,-3293.6,0.79324
17903,12.421,3.0909,0.05,3.5803e-06,35.779,2.7493e-06,20.657,-2.8936e-12,-5.295e-06,-2.7492e-06,-20.657,0.79321
17904,12.697,3.0909,0,0.00028958,2893.8,0.00010971,0.20569,7.0729e-05,-292.68,-0.00029344,-3028.9,0.82798
17905,12.605,3,0,0.00029708,2968.7,0.00011247,0.23696,7.2712e-05,-298.46,-0.00030102,-3106.5,0.81636
17906,12.605,3.0909,0.05,3.0321e-06,30.3,2.3283e-06,17.494,-2.8939e-12,-1.2231e-06,-2.3283e-06,-17.494,0.81632
17907,12.88,3.0909,0,0.00027587,2756.8,0.00010454,0.14951,6.7334e-05,-279.38,-0.00027956,-2885.8,0.8514
17908,12.788,3,0,0.00028207,2818.7,0.00010695,0.17199,6.8724e-05,-287.06,-0.00028585,-2951.2,0.83967
17909,12.788,3.0909,0.05,2.5934e-06,25.917,1.9914e-06,14.963,-2.8664e-12,-4.7334e-06,-1.9914e-06,-14.963,0.83964
17910,13.064,3.0909,0,0.00026446,2642.8,9.9989e-05,0.10882,6.4958e-05,-263.1,-0.00026795,-2764.4,0.875
17911,12.972,3,0,0.00026967,2694.8,0.00010212,0.12496,6.5934e-05,-271.78,-0.00027326,-2820.3,0.86318
17912,12.972,3.0909,0.05,2.2435e-06,22.419,1.7227e-06,12.944,-2.8274e-12,-8.4445e-06,-1.7227e-06,-12.944,0.86315
17913,13.248,3.0909,0,0.0002548,2546.3,9.5952e-05,0.079377,6.3286e-05,-245.36,-0.00025809,-2660,0.89878
17914,13.156,3,0,0.00025925,2590.7,9.7855e-05,0.090953,6.3977e-05,-254.46,-0.00026264,-2708.5,0.88687
17915,13.156,3.0909,0.05,1.9645e-06,19.631,1.5085e-06,11.334,-3.7294e-12,-6.3841e-06,-1.5085e-06,-11.334,0.88684
17916,13.432,3.0909,0,0.00024647,2463,9.2335e-05,0.058124,6.2091e-05,-227.18,-0.00024955,-2568.7,0.92274
17917,13.34,3,0,0.00025035,2501.8,9.4049e-05,0.066405,6.2591e-05,-236.29,-0.00025353,-2611.5,0.91074
17918,13.34,3.0909,0.05,1.7418e-06,17.406,1.3375e-06,10.049,-2.7988e-12,-6.2623e-06,-1.3375e-06,-10.049,0.91071
17919,13.616,3.0909,0,0.00023916,2389.9,8.9062e-05,0.042801,6.1213e-05,-209.2,-0.00024203,-2487.6,0.94686
17920,13.524,3,0,0.0002426,2424.3,9.0621e-05,0.048728,6.1589e-05,-218.08,-0.00024557,-2526,0.93478
17921,13.524,3.0909,0.05,1.5637e-06,15.627,1.2008e-06,9.0221,-1.8794e-12,-4.3671e-06,-1.2008e-06,-9.0221,0.93475
17922,13.799,3.0909,0,0.00023261,2324.5,8.6071e-05,0.031761,6.0536e-05,-191.83,-0.00023528,-2414.5,0.97115
17923,13.707,3,0,0.00023572,2355.6,8.7503e-05,0.035991,6.0836e-05,-200.33,-0.00023849,-2449.3,0.95899
17924,13.707,3.0909,0.05,1.4211e-06,14.202,1.0913e-06,8.1993,-1.874e-12,-6.1043e-06,-1.0913e-06,-8.1992,0.95896
17925,13.983,3.0909,0,0.00022666,2265,8.3314e-05,0.023829,5.9979e-05,-175.3,-0.00022913,-2347.5,0.9956
17926,13.891,3,0,0.00022951,2293.5,8.464e-05,0.026834,6.0236e-05,-183.33,-0.00023208,-2379.7,0.98336
17927,13.891,3.0909,0.05,1.3066e-06,13.057,1.0033e-06,7.5385,-1.8675e-12,-4.1833e-06,-1.0033e-06,-7.5384,0.98333
17928,14.167,3.0909,0,0.00022114,2209.9,8.0748e-05,0.018137,5.9484e-05,-159.75,-0.00022342,-2285.4,1.0202
17929,14.075,3,0,0.0002238,2236.5,8.1987e-05,0.020277,5.9722e-05,-167.27,-0.00022618,-2315.4,1.0079
17930,14.075,3.0909,0.05,1.2143e-06,12.135,9.3247e-07,7.0062,-2.3168e-12,-2.2539e-06,-9.3246e-07,-7.0062,1.0079
17931,14.351,3.0909,0,0.00021596,2158.1,7.8342e-05,0.014073,5.901e-05,-145.24,-0.00021806,-2227.1,1.045
17932,14.259,3,0,0.00021848,2183.3,7.9509e-05,0.015569,5.9245e-05,-152.24,-0.00022067,-2255.4,1.0326
17933,14.259,3.0909,0.05,1.1398e-06,11.39,8.7522e-07,6.5761,-1.8525e-12,-4.0909e-06,-8.7522e-07,-6.576,1.0325
17934,14.534,3.0909,0,0.00021104,2108.9,7.6067e-05,0.011238,5.853e-05,-131.76,-0.00021297,-2171.7,1.0699
17935,14.443,3,0,0.00021344,2133,7.7174e-05,0.012243,5.8774e-05,-138.24,-0.00021546,-2198.7,1.0574
17936,14.443,3.0909,0.05,1.0793e-06,10.786,8.2877e-07,6.2271,-1.8469e-12,-2.1399e-06,-8.2877e-07,-6.2271,1.0574
17937,14.718,3.0909,0,0.0002063,2061.6,7.3904e-05,0.0093144,5.8026e-05,-119.29,-0.00020807,-2118.6,1.0949
17938,14.626,3,0,0.00020863,2084.8,7.496e-05,0.0099722,5.8286e-05,-125.28,-0.00021048,-2144.7,1.0824
17939,14.626,3.0909,0.05,1.03e-06,10.293,7.9093e-07,5.9427,-1.8389e-12,-2.0616e-06,-7.9093e-07,-5.9427,1.0823
17940,14.902,3.0909,0,0.00020171,2015.7,7.1832e-05,0.0080507,5.7487e-05,-107.78,-0.00020333,-2067.4,1.1201
17941,14.81,3,0,0.00020398,2038.3,7.2847e-05,0.0084548,5.7766e-05,-113.3,-0.00020567,-2092.6,1.1075
17942,14.81,3.0909,0.05,9.8967e-07,9.8899,7.5995e-07,5.71,-1.838e-12,-2.0262e-06,-7.5994e-07,-5.7099,1.1075
17943,15.086,3.0909,0,0.00019722,1970.9,6.9839e-05,0.00727,5.6905e-05,-97.171,-0.0001987,-2017.7,1.1454
17944,14.994,3,0,0.00019944,1993.1,7.0818e-05,0.0074909,5.7207e-05,-102.26,-0.00020099,-2042.2,1.1327
17945,14.994,3.0909,0.05,9.5646e-07,9.558,7.3444e-07,5.5183,-1.8366e-12,-1.4519e-07,-7.3444e-07,-5.5183,1.1327
17946,15.27,3.0909,0,0.00019282,1926.9,6.7911e-05,0.0068195,5.6277e-05,-87.403,-0.00019416,-1969.1,1.1709
17947,15.178,3,0,0.000195,1948.7,6.886e-05,0.0069283,5.6602e-05,-92.089,-0.00019641,-1993.1,1.1581
17948,15.178,3.0909,0.05,9.2894e-07,9.283,7.1331e-07,5.3596,-9.2329e-13,-1.062e-06,-7.1331e-07,-5.3595,1.1581
17949,15.453,3.0909,0,0.00018847,1883.4,6.604e-05,0.0066029,5.5603e-05,-78.406,-0.00018968,-1921.4,1.1965
17950,15.362,3,0,0.00019063,1905,6.6962e-05,0.006618,5.5952e-05,-82.723,-0.0001919,-1945,1.1837
17951,15.362,3.0909,0.05,9.0598e-07,9.0536,6.9568e-07,5.2271,-9.1861e-13,-7.1157e-08,-6.9568e-07,-5.2271,1.1836
17952,15.637,3.0909,0,0.00018417,1840.4,6.4216e-05,0.0065868,5.4884e-05,-70.115,-0.00018526,-1874.5,1.2222
17953,15.545,3,0,0.00018631,1861.8,6.5117e-05,0.0065174,5.5254e-05,-74.096,-0.00018746,-1897.8,1.2093
17954,15.545,3.0909,0.05,8.8666e-07,8.8604,6.8084e-07,5.1156,-1.3693e-12,-3.6192e-08,-6.8084e-07,-5.1156,1.2093
17955,15.821,3.0909,0,0.0001799,1797.7,6.2435e-05,0.006727,5.412e-05,-62.466,-0.00018088,-1828.2,1.248
17956,15.729,3,0,0.00018203,1819,6.3316e-05,0.0066045,5.4512e-05,-66.142,-0.00018306,-1851.2,1.2351
17957,15.729,3.0909,0.05,8.7026e-07,8.6966,6.6825e-07,5.021,-1.8222e-12,9.2752e-07,-6.6825e-07,-5.0209,1.2351
17958,16.005,3.0909,0,0.00017565,1755.3,6.0689e-05,0.0069727,5.3315e-05,-55.399,-0.00017653,-1782.4,1.274
17959,15.913,3,0,0.00017777,1776.5,6.1553e-05,0.006812,5.3727e-05,-58.8,-0.0001787,-1805.1,1.261
17960,15.913,3.0909,0.05,8.5622e-07,8.5563,6.5747e-07,4.94,-1.3693e-12,2.345e-06,-6.5747e-07,-4.9399,1.261
17961,16.189,3.0909,0,0.00017143,1713.1,5.8975e-05,0.007291,5.2471e-05,-48.857,-0.00017221,-1737,1.3001
17962,16.097,3,0,0.00017354,1734.2,5.9824e-05,0.0071047,5.2901e-05,-52.009,-0.00017436,-1759.6,1.287
17963,16.097,3.0909,0.05,8.4408e-07,8.435,6.4815e-07,4.87,-1.8259e-12,2.3328e-06,-6.4815e-07,-4.8699,1.287
17964,16.372,3.0909,0,0.00016722,1671,5.7288e-05,0.0076446,5.1593e-05,-42.786,-0.0001679,-1692,1.3263
17965,16.281,3,0,0.00016932,1692,5.8125e-05,0.0074589,5.2039e-05,-45.716,-0.00017005,-1714.4,1.3132
17966,16.281,3.0909,0.05,8.3349e-07,8.3291,6.4001e-07,4.8088,-9.1726e-13,3.2801e-06,-6.4001e-07,-4.8088,1.3131
17967,16.556,3.0909,0,0.00016302,1629.1,5.5626e-05,0.0080174,5.0682e-05,-37.138,-0.00016362,-1647.3,1.3526
17968,16.464,3,0,0.00016511,1650,5.6451e-05,0.0078188,5.1144e-05,-39.869,-0.00016576,-1669.6,1.3394
17969,16.464,3.0909,0.05,8.2414e-07,8.2357,6.3284e-07,4.7549,-9.1535e-13,2.339e-06,-6.3284e-07,-4.7549,1.3394
17970,16.74,3.0909,0,0.00015883,1587.2,5.3986e-05,0.0084296,4.9744e-05,-31.867,-0.00015935,-1602.9,1.379
17971,16.648,3,0,0.00016092,1608.1,5.4801e-05,0.0082075,5.0219e-05,-34.421,-0.00016148,-1625,1.3658
17972,16.648,3.0909,0.05,8.158e-07,8.1524,6.2644e-07,4.7068,-9.1382e-13,2.829e-06,-6.2643e-07,-4.7068,1.3658
17973,16.924,3.0909,0,0.00015466,1545.5,5.2366e-05,0.008881,4.878e-05,-26.93,-0.0001551,-1558.8,1.4055
17974,16.832,3,0,0.00015674,1566.3,5.3171e-05,0.008648,4.9267e-05,-29.328,-0.00015722,-1580.8,1.3923
17975,16.832,3.0909,0.05,8.083e-07,8.0774,6.2067e-07,4.6635,-1.3671e-12,2.1238e-06,-6.2067e-07,-4.6635,1.3922
17976,17.108,3.0909,0,0.00015049,1503.9,5.0763e-05,0.0093574,4.7795e-05,-22.289,-0.00015086,-1514.9,1.4322
17977,17.016,3,0,0.00015257,1524.7,5.156e-05,0.0091156,4.8292e-05,-24.549,-0.00015297,-1536.8,1.4188
17978,17.016,3.0909,0.05,8.0148e-07,8.0093,6.1544e-07,4.6242,-4.566e-13,2.3703e-06,-6.1544e-07,-4.6241,1.4188
17979,17.291,3.0909,0,0.00014634,1462.4,4.9176e-05,0.0098528,4.6792e-05,-17.907,-0.00014663,-1471.2,1.4589
17980,17.2,3,0,0.00014841,1483.1,4.9966e-05,0.009603,4.7297e-05,-20.047,-0.00014874,-1493,1.4455
17981,17.2,3.0909,0.05,7.9524e-07,7.947,6.1065e-07,4.5882,-9.1067e-13,3.0908e-06,-6.1065e-07,-4.5881,1.4455
17982,17.475,3.0909,0,0.00014219,1421,4.7604e-05,0.01035,4.5773e-05,-13.751,-0.00014242,-1427.8,1.4857
17983,17.383,3,0,0.00014426,1441.6,4.8387e-05,0.010106,4.6284e-05,-15.787,-0.00014452,-1449.4,1.4723
17984,17.383,3.0909,0.05,7.8949e-07,7.8895,6.0623e-07,4.555,-1.3646e-12,2.501e-06,-6.0623e-07,-4.555,1.4723
17985,17.659,3.0909,0,0.00013806,1379.7,4.6045e-05,0.010847,4.4741e-05,-9.7898,-0.00013823,-1384.5,1.5127
17986,17.567,3,0,0.00014012,1400.3,4.6822e-05,0.010595,4.5258e-05,-11.736,-0.00014032,-1406.1,1.4992
17987,17.567,3.0909,0.05,7.8415e-07,7.8361,6.0213e-07,4.5242,-4.5534e-13,3.8104e-06,-6.0213e-07,-4.5242,1.4992
17988,17.843,3.0909,0,0.00013394,1338.5,4.4499e-05,0.011377,4.3699e-05,-5.9934,-0.00013404,-1341.5,1.5397
17989,17.751,3,0,0.000136,1359,4.5269e-05,0.011096,4.4221e-05,-7.8649,-0.00013613,-1362.9,1.5262
17990,17.751,3.0909,0.05,7.7915e-07,7.7861,5.9829e-07,4.4953,-2.9625e-16,3.0973e-06,-5.9829e-07,-4.4953,1.5262
17991,18.027,3.0909,0,0.00012984,1297.5,4.2963e-05,0.01197,4.2651e-05,-2.3345,-0.00012988,-1298.6,1.5668
17992,17.935,3,0,0.00013189,1317.9,4.3728e-05,0.011639,4.3175e-05,-4.1445,-0.00013195,-1320,1.5533
17993,17.935,3.0909,0.05,7.7445e-07,7.7392,5.9468e-07,4.4682,-1.3643e-12,4.4547e-06,-5.9468e-07,-4.4682,1.5532
17994,18.21,3.0909,0,0.00012575,1256.6,4.1598e-05,1.2135,4.1438e-05,0.012372,-0.00012573,-1256,1.594
17995,18.119,3,0,0.00012779,1277,4.2198e-05,0.012209,4.2123e-05,-0.54797,-0.0001278,-1277.3,1.5804
17996,18.119,3.0909,0.05,7.7002e-07,7.6949,5.9128e-07,4.4427,-9.0955e-13,3.8441e-06,-5.9128e-07,-4.4427,1.5804
17997,18.394,3.0909,0,0.00012167,1215.9,4.0542e-05,4.6753,3.9922e-05,0.013068,-0.00012159,-1213.5,1.6213
17998,18.302,3,0,0.0001237,1236.2,4.1068e-05,2.9503,4.0677e-05,0.012804,-0.00012365,-1234.7,1.6077
17999,18.302,3.0909,0.05,7.6584e-07,7.6531,5.8807e-07,4.4185,-9.0951e-13,3.293e-06,-5.8807e-07,-4.4185,1.6076
18000,18.578,3.0909,0,0.00011762,1175.4,3.9487e-05,8.0751,3.8414e-05,0.013705,-0.00011748,-1171.3,1.6487
18001,18.486,3,0,0.00011964,1195.6,4.0013e-05,6.3749,3.9166e-05,0.013427,-0.00011953,-1192.4,1.635
18002,18.486,3.0909,0.05,7.6188e-07,7.6135,5.8503e-07,4.3957,-1.3642e-12,3.636e-06,-5.8503e-07,-4.3957,1.635
18003,18.762,3.0909,0,0.00011358,1135,3.8435e-05,11.436,3.6915e-05,0.014354,-0.00011338,-1129.2,1.6761
18004,18.67,3,0,0.00011559,1155.1,3.8958e-05,9.7493,3.7663e-05,0.014056,-0.00011542,-1150.2,1.6624
18005,18.67,3.0909,0.05,7.5812e-07,7.576,5.8215e-07,4.374,-9.0942e-13,5.0671e-06,-5.8214e-07,-4.374,1.6624
18006,18.946,3.0909,0,0.00010956,1094.9,3.7387e-05,14.782,3.5422e-05,0.015047,-0.0001093,-1087.4,1.7037
18007,18.854,3,0,0.00011156,1114.9,3.7908e-05,13.097,3.6167e-05,0.014717,-0.00011133,-1108.3,1.6899
18008,18.854,3.0909,0.05,7.5455e-07,7.5403,5.794e-07,4.3534,-4.5469e-13,4.2919e-06,-5.794e-07,-4.3534,1.6899
18009,19.129,3.0909,0,0.00010557,1054.9,3.6347e-05,18.133,3.3936e-05,0.015792,-0.00010524,-1045.7,1.7313
18010,19.038,3,0,0.00010756,1074.8,3.6863e-05,16.439,3.4677e-05,0.015439,-0.00010727,-1066.5,1.7175
18011,19.038,3.0909,0.05,7.5116e-07,7.5064,5.768e-07,4.3338,-9.0993e-13,5.838e-06,-5.768e-07,-4.3338,1.7174
18012,19.313,3.0909,0,0.00010159,1015.2,3.5316e-05,21.514,3.2455e-05,0.01659,-0.00010121,-1004.3,1.7589
18013,19.221,3,0,0.00010357,1035,3.5827e-05,19.8,3.3194e-05,0.016208,-0.00010322,-1024.9,1.7451
18014,19.221,3.0909,0.05,7.4795e-07,7.4744,5.7434e-07,4.3154,-9.1055e-13,4.7605e-06,-5.7433e-07,-4.3153,1.7451
18015,19.497,3.0909,0,9.7641e-05,975.74,3.4297e-05,24.944,3.098e-05,0.017447,-9.7193e-05,-963.02,1.7867
18016,19.405,3,0,9.9608e-05,995.39,3.4802e-05,23.199,3.1716e-05,0.017036,-9.9193e-05,-983.58,1.7728
18017,19.405,3.0909,0.05,7.4493e-07,7.4441,5.7201e-07,4.2979,-4.563e-13,7.1409e-06,-5.7201e-07,-4.2979,1.7728
18018,19.681,3.0909,0,9.3717e-05,936.52,3.3292e-05,28.448,2.9508e-05,0.018356,-9.32e-05,-921.97,1.8145
18019,19.589,3,0,9.5671e-05,956.05,3.3789e-05,26.661,3.0243e-05,0.017922,-9.5189e-05,-942.43,1.8006
18020,19.589,3.0909,0.05,7.4209e-07,7.4158,5.6983e-07,4.2815,-9.115e-13,9.2833e-06,-5.6983e-07,-4.2815,1.8006
18021,19.865,3.0909,0,8.982e-05,897.58,3.2303e-05,32.045,2.8041e-05,0.019329,-8.9231e-05,-881.12,1.8424
18022,19.773,3,0,9.1759e-05,916.96,3.2791e-05,30.206,2.8774e-05,0.018858,-9.1208e-05,-901.48,1.8284
18023,19.773,3.0909,0.05,7.3944e-07,7.3893,5.678e-07,4.2662,-9.1092e-13,8.0954e-06,-5.678e-07,-4.2662,1.8284
18024,20.048,3.0909,0,8.5951e-05,858.92,3.1332e-05,35.76,2.6576e-05,0.02039,-8.5287e-05,-840.47,1.8703
18025,19.956,3,0,8.7876e-05,878.16,3.1811e-05,33.856,2.7308e-05,0.019869,-8.7251e-05,-860.73,1.8563
18026,19.956,3.0909,0.05,7.3698e-07,7.3647,5.6591e-07,4.252,-9.1089e-13,8.3342e-06,-5.6591e-07,-4.252,1.8563
18027,20.232,3.0909,0,8.2113e-05,820.56,3.0383e-05,39.614,2.5113e-05,0.021557,-8.1367e-05,-800.03,1.8983
18028,20.14,3,0,8.4022e-05,839.64,3.085e-05,37.635,2.5844e-05,0.020985,-8.3318e-05,-820.18,1.8843
18029,20.14,3.0909,0.05,7.3472e-07,7.3422,5.6418e-07,4.239,-1.1788e-15,6.1903e-06,-5.6417e-07,-4.239,1.8843
18030,20.416,3.0909,0,7.8307e-05,782.53,2.9456e-05,43.631,2.3652e-05,0.022841,-7.7473e-05,-759.79,1.9263
18031,20.324,3,0,8.02e-05,801.44,2.9911e-05,41.565,2.4382e-05,0.022208,-7.9411e-05,-779.84,1.9123
18032,20.324,3.0909,0.05,7.3269e-07,7.3218,5.6261e-07,4.2273,-6.827e-13,5.7179e-06,-5.6261e-07,-4.2272,1.9123
18033,20.6,3.0909,0,7.4534e-05,744.83,2.8554e-05,47.834,2.2191e-05,0.024255,-7.3605e-05,-719.75,1.9544
18034,20.508,3,0,7.641e-05,763.57,2.8996e-05,45.669,2.2921e-05,0.023556,-7.553e-05,-739.7,1.9404
18035,20.508,3.0909,0.05,7.3089e-07,7.3039,5.6124e-07,4.2169,-4.5504e-13,5.7202e-06,-5.6123e-07,-4.2169,1.9403
18036,20.784,3.0909,0,7.0798e-05,707.49,2.768e-05,52.247,2.073e-05,0.025812,-6.9764e-05,-679.91,1.9826
18037,20.692,3,0,7.2655e-05,726.05,2.8108e-05,49.971,2.146e-05,0.025043,-7.1676e-05,-699.76,1.9685
18038,20.692,3.0909,0.05,7.2936e-07,7.2886,5.6006e-07,4.2081,-4.5394e-13,9.0657e-06,-5.6006e-07,-4.208,1.9685
18039,20.967,3.0909,0,6.7099e-05,670.53,2.6835e-05,56.893,1.9267e-05,0.027541,-6.595e-05,-640.26,2.0107
18040,20.875,3,0,6.8937e-05,688.9,2.7248e-05,54.494,1.9999e-05,0.026679,-6.7848e-05,-660.02,1.9966
18041,20.875,3.0909,0.05,7.2811e-07,7.276,5.591e-07,4.2008,-2.267e-13,8.5884e-06,-5.5909e-07,-4.2008,1.9966
18042,21.151,3.0909,0,6.3441e-05,633.98,2.6023e-05,61.797,1.7802e-05,0.029488,-6.2163e-05,-600.8,2.039
18043,21.059,3,0,6.5259e-05,652.14,2.6419e-05,59.264,1.8535e-05,0.02851,-6.4048e-05,-620.47,2.0249
18044,21.059,3.0909,0.05,7.2716e-07,7.2666,5.5837e-07,4.1954,-1.2124e-15,8.5741e-06,-5.5837e-07,-4.1954,2.0248
18045,21.335,3.0909,0,5.9827e-05,597.85,2.5245e-05,66.983,1.6334e-05,0.031702,-5.8405e-05,-561.53,2.0673
18046,21.243,3,0,6.1622e-05,615.8,2.5624e-05,64.303,1.7069e-05,0.030587,-6.0275e-05,-581.11,2.0531
18047,21.243,3.0909,0.05,7.2656e-07,7.2606,5.5791e-07,4.1919,-4.5536e-13,6.1945e-06,-5.5791e-07,-4.1919,2.0531
18048,21.519,3.0909,0,5.6258e-05,562.19,2.4503e-05,72.475,1.4862e-05,0.034236,-5.4673e-05,-522.43,2.0956
18049,21.427,3,0,5.803e-05,579.9,2.4863e-05,69.637,1.56e-05,0.032953,-5.653e-05,-541.92,2.0814
18050,21.427,3.0909,0.05,7.2634e-07,7.2584,5.5774e-07,4.1907,-2.2657e-13,7.6354e-06,-5.5774e-07,-4.1906,2.0814
18051,21.703,3.0909,0,5.2739e-05,527.03,2.38e-05,78.296,1.3384e-05,0.037166,-5.0969e-05,-483.49,2.1239
18052,21.611,3,0,5.4486e-05,544.48,2.414e-05,75.289,1.4125e-05,0.035675,-5.2813e-05,-502.91,2.1098
18053,21.611,3.0909,0.05,7.2655e-07,7.2605,5.579e-07,4.1918,-4.5179e-13,9.5587e-06,-5.579e-07,-4.1918,2.1097
18054,21.886,3.0909,0,4.9275e-05,492.41,2.3136e-05,84.47,1.19e-05,0.040591,-4.7291e-05,-444.69,2.1523
18055,21.794,3,0,5.0994e-05,509.58,2.3456e-05,81.281,1.2644e-05,0.03884,-4.9122e-05,-464.04,2.1381
18056,21.794,3.0909,0.05,7.2722e-07,7.2672,5.5842e-07,4.1957,-2.2402e-13,6.7007e-06,-5.5842e-07,-4.1957,2.1381
18057,22.07,3.0909,0,4.5869e-05,458.38,2.2515e-05,91.016,1.0407e-05,0.044661,-4.3638e-05,-406.03,2.1807
18058,21.978,3,0,4.7558e-05,475.25,2.2814e-05,87.637,1.1155e-05,0.042562,-4.5457e-05,-425.32,2.1665
18059,21.978,3.0909,0.05,7.2842e-07,7.2792,5.5934e-07,4.2026,4.1165e-15,1.9388e-06,-5.5933e-07,-4.2026,2.1665
18060,22.254,3.0909,0,4.253e-05,425.01,2.1935e-05,97.955,8.9049e-06,0.049596,-4.0008e-05,-367.46,2.2092
18061,22.162,3,0,4.4185e-05,441.55,2.2213e-05,94.375,9.6584e-06,0.047033,-4.1816e-05,-386.71,2.195
18062,22.162,3.0909,0.05,7.3018e-07,7.2968,5.6069e-07,4.2128,2.3194e-13,3.8485e-06,-5.6069e-07,-4.2128,2.195
18063,22.438,3.0909,0,3.9266e-05,392.39,2.1399e-05,105.3,7.392e-06,0.055732,-3.64e-05,-328.98,2.2377
18064,22.346,3,0,4.0882e-05,408.54,2.1655e-05,101.52,8.1513e-06,0.05251,-3.8198e-05,-348.2,2.2234
18065,22.346,3.0909,0.05,7.3256e-07,7.3205,5.6251e-07,4.2265,-1.7578e-15,4.7545e-06,-5.6251e-07,-4.2265,2.2234
18066,22.622,3.0909,0,3.6089e-05,360.64,2.0907e-05,113.07,5.8669e-06,0.063496,-3.281e-05,-290.54,2.2662
18067,22.53,3,0,3.766e-05,376.34,2.1141e-05,109.07,6.6327e-06,0.059422,-3.46e-05,-309.74,2.2519
18068,22.53,3.0909,0.05,7.3561e-07,7.351,5.6485e-07,4.2441,2.2523e-13,8.5662e-06,-5.6485e-07,-4.2441,2.2519
18069,22.805,3.0909,0,3.3016e-05,329.93,2.0459e-05,121.27,4.3281e-06,0.073917,-2.9236e-05,-252.11,2.2947
18070,22.713,3,0,3.4533e-05,345.09,2.0671e-05,117.06,5.1011e-06,0.068228,-3.1019e-05,-271.32,2.2804
18071,22.713,3.0909,0.05,7.3936e-07,7.3885,5.6774e-07,4.2658,2.2806e-13,6.6808e-06,-5.6774e-07,-4.2658,2.2804
18072,22.989,3.0909,0,3.007e-05,300.49,2.0053e-05,129.91,2.7744e-06,0.087445,-2.5674e-05,-213.66,2.3232
18073,22.897,3,0,3.152e-05,314.99,2.0245e-05,125.48,3.5553e-06,0.080593,-2.7452e-05,-232.89,2.309
18074,22.897,3.0909,0.05,7.4385e-07,7.4334,5.7119e-07,4.2917,6.8588e-13,1.1473e-05,-5.7119e-07,-4.2917,2.309
18075,23.173,3.0909,0,2.7286e-05,272.67,1.969e-05,139,1.2048e-06,0.11036,-2.2121e-05,-175.15,2.3518
18076,23.081,3,0,2.8651e-05,286.31,1.9861e-05,134.34,1.9937e-06,0.095901,-2.3895e-05,-194.42,2.3375
18077,23.081,3.0909,0.05,7.4909e-07,7.4858,5.7521e-07,4.3219,6.8738e-13,1.3391e-05,-5.7521e-07,-4.3219,2.3375
18078,23.357,3.0909,0,2.471e-05,246.93,1.9366e-05,148.52,-3.8238e-07,0.13367,-1.8572e-05,-136.53,2.3804
18079,23.265,3,0,2.5964e-05,259.46,1.9518e-05,143.65,4.1634e-07,0.12772,-2.0345e-05,-155.87,2.3661
18080,23.265,3.0909,0.05,7.5508e-07,7.5456,5.7981e-07,4.3564,6.7901e-13,1.3328e-05,-5.7981e-07,-4.3564,2.3661
18081,23.541,3.0909,0,2.2412e-05,223.97,1.9081e-05,158.49,-1.9818e-06,0.23061,-1.5026e-05,-97.777,2.409
18082,23.449,3,0,2.3518e-05,235.01,1.9214e-05,153.38,-1.1803e-06,0.1458,-1.6798e-05,-117.2,2.3947
18083,23.449,3.0909,0.05,7.6175e-07,7.6122,5.8493e-07,4.3949,6.7954e-13,1.7147e-05,-5.8493e-07,-4.3949,2.3947
18084,23.724,3.0909,0,2.0481e-05,204.67,1.8831e-05,168.82,-3.6063e-06,0.22984,-1.1478e-05,-58.913,2.4376
18085,23.632,3,0,2.1391e-05,213.77,1.8948e-05,163.59,-2.7811e-06,0.33254,-1.3255e-05,-78.367,2.4233
18086,23.632,3.0909,0.05,7.6908e-07,7.6855,5.9056e-07,4.4372,6.8021e-13,1.3337e-05,-5.9056e-07,-4.4372,2.4233
18087,23.816,3,0,1.9687e-05,196.73,1.8714e-05,174.03,-4.4199e-06,0.21418,-9.7107e-06,-39.539,2.4519
18088,23.816,3.0909,0.05,7.7779e-07,7.7725,5.9724e-07,4.4875,1.1329e-12,1.3322e-05,-5.9724e-07,-4.4875,2.4519
18089,23.908,3.0909,0,1.9107e-05,190.94,1.8635e-05,179.02,-5.1336e-06,0.43479,-8.1522e-06,-22.246,2.4662
18090,11.042,2.9091,0,0.00068223,6817.6,0.00026724,509.47,0.00019942,-0.098518,-0.00067213,-6548.6,0.62832
18091,10.95,2.8182,0,0.00072346,7229.6,0.0002906,627.96,0.00020685,-1.2768,-0.00071074,-6895.7,0.61797
18092,10.95,2.9091,0.05,5.925e-06,59.21,4.5497e-06,34.185,-8.1681e-13,3.1587e-05,-4.5497e-06,-34.185,0.61801
18093,11.226,2.9091,0,0.00061223,6118.1,0.0002255,282.94,0.00018789,0.41059,-0.00060692,-5971.5,0.64921
18094,11.134,2.8182,0,0.00065112,6506.7,0.00024691,386.9,0.00019542,0.054019,-0.00064367,-6304.6,0.63865
18095,11.134,2.9091,0.05,8.0541e-06,80.486,6.1846e-06,46.469,-5.406e-13,2.9899e-05,-6.1846e-06,-46.468,0.63868
18096,11.41,2.9091,0,0.00054154,5411.7,0.00018519,78.23,0.00017489,0.85105,-0.00054015,-5371.7,0.67051
18097,11.318,2.8182,0,0.00057393,5735.3,0.00020238,156.45,0.00018166,0.76514,-0.0005711,-5655.1,0.65976
18098,11.318,2.9091,0.05,8.6057e-06,85.998,6.6081e-06,49.651,-3.9445e-12,2.0671e-05,-6.6081e-06,-49.651,0.65978
18099,11.594,2.9091,0,0.00047894,4786.1,0.00016201,0.99566,0.00015142,-78.563,-0.00048021,-4824.4,0.69217
18100,11.502,2.8182,0,0.00050463,5042.8,0.00016789,1.3954,0.00016436,-25.109,-0.00050503,-5054.6,0.68126
18101,11.502,2.9091,0.05,8.0943e-06,80.887,6.2154e-06,46.7,-1.8951e-12,1.4327e-05,-6.2154e-06,-46.7,0.68127
18102,11.778,2.9091,0,0.0004272,4269.1,0.00015012,0.8674,0.00012537,-185.12,-0.00043003,-4358.1,0.71416
18103,11.686,2.8182,0,0.00044733,4470.2,0.00015508,0.9602,0.00013495,-150.27,-0.00044968,-4543,0.7031
18104,11.686,2.9091,0.05,7.1204e-06,71.155,5.4676e-06,41.081,-1.7494e-12,6.2554e-06,-5.4676e-06,-41.081,0.7031
18105,11.961,2.9091,0,0.0003858,3855.3,0.00013957,0.68982,0.00010615,-250.47,-0.00038943,-3974,0.73644
18106,11.869,2.8182,0,0.00040161,4013.3,0.00014379,0.76933,0.00011317,-229.31,-0.000405,-4122.6,0.72524
18107,11.869,2.9091,0.05,6.0603e-06,60.561,4.6535e-06,34.965,-2.5857e-12,1.2061e-06,-4.6536e-06,-34.965,0.72524
18108,12.145,2.9091,0,0.00035302,3527.8,0.0001304,0.52339,9.2317e-05,-285.62,-0.000357,-3661.6,0.75898
18109,12.053,2.8182,0,0.00036556,3653,0.000134,0.58642,9.7448e-05,-274.07,-0.00036943,-3782,0.74765
18110,12.053,2.9091,0.05,5.0877e-06,50.842,3.9067e-06,29.353,-2.5405e-12,1.3987e-06,-3.9067e-06,-29.353,0.74765
18111,12.329,2.9091,0,0.00032705,3268.3,0.00012248,0.38699,8.2499e-05,-300,-0.00033111,-3407.7,0.78176
18112,12.237,2.8182,0,0.00033711,3368.8,0.00012558,0.4369,8.6251e-05,-295.05,-0.00034115,-3506.4,0.77032
18113,12.237,2.9091,0.05,4.2599e-06,42.569,3.2711e-06,24.577,-2.5324e-12,-2.4302e-06,-3.2711e-06,-24.577,0.77031
18114,12.513,2.9091,0,0.00030632,3061.1,0.00011564,0.28278,7.558e-05,-300.69,-0.00031032,-3200.2,0.80477
18115,12.421,2.8182,0,0.00031451,3142.9,0.00011833,0.32145,7.8332e-05,-300.2,-0.00031853,-3282.1,0.79322
18116,12.421,2.9091,0.05,3.5803e-06,35.779,2.7493e-06,20.657,-2.5317e-12,-1.018e-05,-2.7492e-06,-20.657,0.79321
18117,12.697,2.9091,0,0.00028958,2893.8,0.00010971,0.20569,7.0729e-05,-292.68,-0.00029344,-3028.9,0.82798
18118,12.605,2.8182,0,0.00029635,2961.4,0.00011207,0.23521,7.2757e-05,-295.13,-0.00030026,-3097.8,0.81633
18119,12.605,2.9091,0.05,3.0321e-06,30.3,2.3283e-06,17.494,-3.4756e-12,-6.4231e-06,-2.3283e-06,-17.494,0.81632
18120,12.88,2.9091,0,0.00027587,2756.8,0.00010454,0.14951,6.7334e-05,-279.38,-0.00027956,-2885.8,0.8514
18121,12.788,2.8182,0,0.00028155,2813.6,0.00010662,0.17186,6.8841e-05,-283.72,-0.0002853,-2944.6,0.83965
18122,12.788,2.9091,0.05,2.5934e-06,25.917,1.9914e-06,14.963,-2.5939e-12,-2.7071e-06,-1.9914e-06,-14.963,0.83964
18123,13.064,2.9091,0,0.00026446,2642.8,9.9989e-05,0.10882,6.4958e-05,-263.1,-0.00026795,-2764.4,0.875
18124,12.972,2.8182,0,0.00026931,2691.3,0.00010185,0.12565,6.6092e-05,-268.58,-0.00027287,-2815.4,0.86316
18125,12.972,2.9091,0.05,2.2435e-06,22.419,1.7227e-06,12.944,-2.6011e-12,-6.729e-06,-1.7227e-06,-12.944,0.86315
18126,13.248,2.9091,0,0.0002548,2546.3,9.5952e-05,0.079377,6.3286e-05,-245.36,-0.00025809,-2660,0.89878
18127,13.156,2.8182,0,0.00025902,2588.4,9.7636e-05,0.092008,6.4155e-05,-251.48,-0.00026237,-2704.9,0.88685
18128,13.156,2.9091,0.05,1.9645e-06,19.631,1.5085e-06,11.334,-3.5279e-12,-6.7594e-06,-1.5085e-06,-11.334,0.88684
18129,13.432,2.9091,0,0.00024647,2463,9.2335e-05,0.058124,6.2091e-05,-227.18,-0.00024955,-2568.7,0.92274
18130,13.34,2.8182,0,0.0002502,2500.3,9.387e-05,0.067556,6.2774e-05,-233.58,-0.00025335,-2608.8,0.91072
18131,13.34,2.9091,0.05,1.7418e-06,17.406,1.3375e-06,10.049,-3.5378e-12,-6.8978e-06,-1.3375e-06,-10.049,0.91071
18132,13.616,2.9091,0,0.00023916,2389.9,8.9062e-05,0.042801,6.1213e-05,-209.2,-0.00024203,-2487.6,0.94686
18133,13.524,2.8182,0,0.00024251,2423.4,9.0475e-05,0.049837,6.1768e-05,-215.64,-0.00024545,-2524,0.93476
18134,13.524,2.9091,0.05,1.5637e-06,15.627,1.2008e-06,9.0221,-3.5639e-12,-7.1851e-06,-1.2008e-06,-9.0221,0.93475
18135,13.799,2.9091,0,0.00023261,2324.5,8.6071e-05,0.031761,6.0536e-05,-191.83,-0.00023528,-2414.5,0.97115
18136,13.707,2.8182,0,0.00023567,2355.1,8.7383e-05,0.036998,6.1006e-05,-198.15,-0.00023842,-2447.9,0.95897
18137,13.707,2.9091,0.05,1.4211e-06,14.202,1.0913e-06,8.1993,-1.7625e-12,-7.1734e-06,-1.0913e-06,-8.1992,0.95896
18138,13.983,2.9091,0,0.00022666,2265,8.3314e-05,0.023829,5.9979e-05,-175.3,-0.00022913,-2347.5,0.9956
18139,13.891,2.8182,0,0.00022949,2293.3,8.4542e-05,0.027716,6.0395e-05,-181.41,-0.00023204,-2378.6,0.98334
18140,13.891,2.9091,0.05,1.3066e-06,13.057,1.0033e-06,7.5385,-1.7613e-12,-7.1954e-06,-1.0033e-06,-7.5384,0.98333
18141,14.167,2.9091,0,0.00022114,2209.9,8.0748e-05,0.018137,5.9484e-05,-159.75,-0.00022342,-2285.4,1.0202
18142,14.075,2.8182,0,0.0002238,2236.5,8.1907e-05,0.021033,5.9867e-05,-165.58,-0.00022616,-2314.7,1.0079
18143,14.075,2.9091,0.05,1.2143e-06,12.135,9.3247e-07,7.0062,-2.2251e-12,-1.5659e-06,-9.3246e-07,-7.0062,1.0079
18144,14.351,2.9091,0,0.00021596,2158.1,7.8342e-05,0.014073,5.901e-05,-145.24,-0.00021806,-2227.1,1.045
18145,14.259,2.8182,0,0.0002185,2183.4,7.9443e-05,0.016208,5.9377e-05,-150.75,-0.00022067,-2254.9,1.0325
18146,14.259,2.9091,0.05,1.1398e-06,11.39,8.7522e-07,6.5761,-2.2332e-12,-5.4429e-06,-8.7522e-07,-6.576,1.0325
18147,14.534,2.9091,0,0.00021104,2108.9,7.6067e-05,0.011238,5.853e-05,-131.76,-0.00021297,-2171.7,1.0699
18148,14.443,2.8182,0,0.00021347,2133.2,7.712e-05,0.012778,5.8893e-05,-136.94,-0.00021547,-2198.4,1.0574
18149,14.443,2.9091,0.05,1.0793e-06,10.786,8.2877e-07,6.2271,-1.7899e-12,-1.7097e-06,-8.2877e-07,-6.2271,1.0574
18150,14.718,2.9091,0,0.0002063,2061.6,7.3904e-05,0.0093156,5.8026e-05,-119.29,-0.00020807,-2118.6,1.0949
18151,14.626,2.8182,0,0.00020866,2085.1,7.4916e-05,0.010417,5.8392e-05,-124.14,-0.00021049,-2144.4,1.0823
18152,14.626,2.9091,0.05,1.03e-06,10.293,7.9093e-07,5.9427,-1.7976e-12,-1.7524e-06,-7.9093e-07,-5.9427,1.0823
18153,14.902,2.9091,0,0.00020171,2015.7,7.1832e-05,0.0080522,5.7487e-05,-107.78,-0.00020333,-2067.4,1.1201
18154,14.81,2.8182,0,0.00020401,2038.7,7.281e-05,0.0088238,5.7861e-05,-112.31,-0.00020569,-2092.5,1.1075
18155,14.81,2.9091,0.05,9.8967e-07,9.8899,7.5995e-07,5.71,-1.7973e-12,-3.6279e-06,-7.5994e-07,-5.7099,1.1075
18156,15.086,2.9091,0,0.00019722,1970.9,6.9839e-05,0.0072704,5.6905e-05,-97.171,-0.0001987,-2017.7,1.1454
18157,14.994,2.8182,0,0.00019948,1993.4,7.0787e-05,0.0077946,5.7292e-05,-101.39,-0.00020101,-2042.2,1.1327
18158,14.994,2.9091,0.05,9.5646e-07,9.558,7.3444e-07,5.5183,-1.7995e-12,1.3985e-07,-7.3444e-07,-5.5183,1.1327
18159,15.27,2.9091,0,0.00019282,1926.9,6.7911e-05,0.0068197,5.6277e-05,-87.403,-0.00019416,-1969.1,1.1709
18160,15.178,2.8182,0,0.00019504,1949,6.8834e-05,0.0071769,5.6678e-05,-91.332,-0.00019643,-1993.1,1.1581
18161,15.178,2.9091,0.05,9.2894e-07,9.283,7.1331e-07,5.3596,-8.9498e-13,-2.7521e-06,-7.1331e-07,-5.3595,1.1581
18162,15.453,2.9091,0,0.00018847,1883.4,6.604e-05,0.006603,5.5603e-05,-78.406,-0.00018968,-1921.4,1.1965
18163,15.362,2.8182,0,0.00019067,1905.3,6.6941e-05,0.0068214,5.6019e-05,-82.062,-0.00019193,-1945,1.1836
18164,15.362,2.9091,0.05,9.0598e-07,9.0536,6.9568e-07,5.2271,-1.8091e-12,7.0651e-08,-6.9568e-07,-5.2271,1.1836
18165,15.637,2.9091,0,0.00018417,1840.4,6.4216e-05,0.006588,5.4884e-05,-70.115,-0.00018526,-1874.5,1.2222
18166,15.545,2.8182,0,0.00018634,1862.1,6.5099e-05,0.0066823,5.5314e-05,-73.519,-0.00018748,-1897.8,1.2093
18167,15.545,2.9091,0.05,8.8666e-07,8.8604,6.8084e-07,5.1156,-1.3589e-12,4.2198e-08,-6.8084e-07,-5.1156,1.2093
18168,15.821,2.9091,0,0.0001799,1797.7,6.2435e-05,0.0067282,5.412e-05,-62.466,-0.00018088,-1828.2,1.248
18169,15.729,2.8182,0,0.00018206,1819.3,6.3301e-05,0.006738,5.4565e-05,-65.637,-0.00018308,-1851.2,1.2351
18170,15.729,2.9091,0.05,8.7026e-07,8.6966,6.6825e-07,5.021,-1.8147e-12,3.0194e-08,-6.6825e-07,-5.0209,1.2351
18171,16.005,2.9091,0,0.00017565,1755.3,6.0689e-05,0.0069716,5.3315e-05,-55.399,-0.00017653,-1782.4,1.274
18172,15.913,2.8182,0,0.0001778,1776.8,6.1541e-05,0.0069185,5.3773e-05,-58.357,-0.00017872,-1805.2,1.261
18173,15.913,2.9091,0.05,8.5622e-07,8.5563,6.5747e-07,4.94,-1.813e-12,1.4748e-06,-6.5747e-07,-4.9399,1.261
18174,16.189,2.9091,0,0.00017143,1713.1,5.8975e-05,0.0072913,5.2471e-05,-48.857,-0.00017221,-1737,1.3001
18175,16.097,2.8182,0,0.00017356,1734.4,5.9814e-05,0.007189,5.2943e-05,-51.622,-0.00017438,-1759.7,1.287
18176,16.097,2.9091,0.05,8.4408e-07,8.435,6.4815e-07,4.87,-1.8114e-12,1.9647e-06,-6.4815e-07,-4.8699,1.287
18177,16.372,2.9091,0,0.00016722,1671,5.7288e-05,0.0076448,5.1593e-05,-42.786,-0.0001679,-1692,1.3263
18178,16.281,2.8182,0,0.00016934,1692.3,5.8116e-05,0.0075251,5.2076e-05,-45.377,-0.00017007,-1714.5,1.3131
18179,16.281,2.9091,0.05,8.3349e-07,8.3291,6.4001e-07,4.8088,-9.0137e-13,2.4462e-06,-6.4001e-07,-4.8088,1.3131
18180,16.556,2.9091,0,0.00016302,1629.1,5.5626e-05,0.0080151,5.0682e-05,-37.138,-0.00016362,-1647.3,1.3526
18181,16.464,2.8182,0,0.00016514,1650.2,5.6444e-05,0.0078697,5.1177e-05,-39.572,-0.00016577,-1669.7,1.3394
18182,16.464,2.9091,0.05,8.2414e-07,8.2357,6.3284e-07,4.7549,-9.0312e-13,1.9548e-06,-6.3284e-07,-4.7549,1.3394
18183,16.74,2.9091,0,0.00015883,1587.2,5.3986e-05,0.0084279,4.9744e-05,-31.867,-0.00015935,-1602.9,1.379
18184,16.648,2.8182,0,0.00016094,1608.3,5.4795e-05,0.0082453,5.0248e-05,-34.161,-0.0001615,-1625.1,1.3658
18185,16.648,2.9091,0.05,8.158e-07,8.1524,6.2643e-07,4.7068,-9.0485e-13,1.4657e-06,-6.2643e-07,-4.7068,1.3658
18186,16.924,2.9091,0,0.00015466,1545.5,5.2366e-05,0.0088816,4.878e-05,-26.93,-0.0001551,-1558.8,1.4055
18187,16.832,2.8182,0,0.00015676,1566.5,5.3166e-05,0.0086779,4.9292e-05,-29.1,-0.00015724,-1580.9,1.3922
18188,16.832,2.9091,0.05,8.083e-07,8.0774,6.2067e-07,4.6635,-1.3609e-12,5.0175e-07,-6.2067e-07,-4.6635,1.3922
18189,17.108,2.9091,0,0.00015049,1503.9,5.0763e-05,0.0093583,4.7795e-05,-22.289,-0.00015086,-1514.9,1.4322
18190,17.016,2.8182,0,0.00015259,1524.8,5.1556e-05,0.0091375,4.8314e-05,-24.35,-0.00015299,-1536.9,1.4188
18191,17.016,2.9091,0.05,8.0148e-07,8.0093,6.1544e-07,4.6242,-4.5267e-13,1.6854e-06,-6.1544e-07,-4.6241,1.4188
18192,17.291,2.9091,0,0.00014634,1462.4,4.9176e-05,0.0098528,4.6792e-05,-17.907,-0.00014663,-1471.2,1.4589
18193,17.2,2.8182,0,0.00014843,1483.2,4.9963e-05,0.0096196,4.7316e-05,-19.874,-0.00014875,-1493.1,1.4455
18194,17.2,2.9091,0.05,7.9524e-07,7.947,6.1065e-07,4.5882,-4.5328e-13,1.6803e-06,-6.1065e-07,-4.5882,1.4455
18195,17.475,2.9091,0,0.00014219,1421,4.7604e-05,0.010349,4.5773e-05,-13.751,-0.00014242,-1427.8,1.4857
18196,17.383,2.8182,0,0.00014428,1441.8,4.8384e-05,0.010123,4.6302e-05,-15.638,-0.00014453,-1449.5,1.4723
18197,17.383,2.9091,0.05,7.8949e-07,7.8895,6.0623e-07,4.555,-1.3636e-12,1.0774e-06,-6.0623e-07,-4.555,1.4723
18198,17.659,2.9091,0,0.00013806,1379.7,4.6045e-05,0.010847,4.4741e-05,-9.7898,-0.00013823,-1384.5,1.5127
18199,17.567,2.8182,0,0.00014014,1400.4,4.682e-05,0.010616,4.5273e-05,-11.609,-0.00014033,-1406.2,1.4992
18200,17.567,2.9091,0.05,7.8415e-07,7.8361,6.0213e-07,4.5242,-4.5395e-13,2.271e-06,-6.0213e-07,-4.5242,1.4992
18201,17.843,2.9091,0,0.00013394,1338.5,4.4499e-05,0.011378,4.3699e-05,-5.9934,-0.00013404,-1341.5,1.5397
18202,17.751,2.8182,0,0.00013601,1359.2,4.5268e-05,0.011135,4.4234e-05,-7.7573,-0.00013614,-1363,1.5262
18203,17.751,2.9091,0.05,7.7915e-07,7.7861,5.9829e-07,4.4953,-4.5431e-13,1.7916e-06,-5.9829e-07,-4.4953,1.5262
18204,18.027,2.9091,0,0.00012984,1297.5,4.2963e-05,0.011969,4.2651e-05,-2.3345,-0.00012988,-1298.6,1.5668
18205,17.935,2.8182,0,0.0001319,1318,4.3727e-05,0.01174,4.3186e-05,-4.0553,-0.00013196,-1320.1,1.5532
18206,17.935,2.9091,0.05,7.7445e-07,7.7392,5.9468e-07,4.4682,-9.0929e-13,3.2649e-06,-5.9468e-07,-4.4682,1.5532
18207,18.21,2.9091,0,0.00012575,1256.6,4.1598e-05,1.2135,4.1438e-05,0.012371,-0.00012573,-1256,1.594
18208,18.119,2.8182,0,0.0001278,1277.1,4.2198e-05,0.013331,4.2132e-05,-0.47702,-0.0001278,-1277.3,1.5804
18209,18.119,2.9091,0.05,7.7002e-07,7.6949,5.9128e-07,4.4427,-1.3641e-12,2.5042e-06,-5.9128e-07,-4.4427,1.5804
18210,18.394,2.9091,0,0.00012167,1215.9,4.0542e-05,4.6752,3.9922e-05,0.013066,-0.00012159,-1213.5,1.6213
18211,18.302,2.8182,0,0.00012371,1236.3,4.1076e-05,3.0062,4.0677e-05,0.012562,-0.00012366,-1234.8,1.6076
18212,18.302,2.9091,0.05,7.6584e-07,7.6531,5.8807e-07,4.4185,-9.0946e-13,1.9225e-06,-5.8807e-07,-4.4185,1.6076
18213,18.578,2.9091,0,0.00011762,1175.4,3.9487e-05,8.0751,3.8414e-05,0.013704,-0.00011748,-1171.3,1.6487
18214,18.486,2.8182,0,0.00011965,1195.6,4.0018e-05,6.4149,3.9166e-05,0.013281,-0.00011954,-1192.4,1.635
18215,18.486,2.9091,0.05,7.6188e-07,7.6135,5.8503e-07,4.3957,-1.819e-12,1.907e-06,-5.8503e-07,-4.3957,1.635
18216,18.762,2.9091,0,0.00011358,1135,3.8435e-05,11.436,3.6915e-05,0.014353,-0.00011338,-1129.2,1.6761
18217,18.67,2.8182,0,0.0001156,1155.2,3.8962e-05,9.7741,3.7663e-05,0.013936,-0.00011543,-1150.3,1.6624
18218,18.67,2.9091,0.05,7.5812e-07,7.576,5.8215e-07,4.374,-1.3644e-12,3.873e-06,-5.8214e-07,-4.374,1.6624
18219,18.946,2.9091,0,0.00010956,1094.9,3.7387e-05,14.782,3.5422e-05,0.015046,-0.0001093,-1087.4,1.7037
18220,18.854,2.8182,0,0.00011157,1114.9,3.791e-05,13.106,3.6168e-05,0.014608,-0.00011134,-1108.3,1.6899
18221,18.854,2.9091,0.05,7.5455e-07,7.5403,5.794e-07,4.3534,-9.0968e-13,2.7404e-06,-5.794e-07,-4.3534,1.6899
18222,19.129,2.9091,0,0.00010557,1054.9,3.6347e-05,18.133,3.3936e-05,0.015793,-0.00010524,-1045.7,1.7313
18223,19.038,2.8182,0,0.00010756,1074.8,3.6864e-05,16.434,3.4679e-05,0.015334,-0.00010727,-1066.5,1.7174
18224,19.038,2.9091,0.05,7.5116e-07,7.5064,5.768e-07,4.3338,-1.364e-12,4.2934e-06,-5.768e-07,-4.3338,1.7174
18225,19.313,2.9091,0,0.00010159,1015.2,3.5316e-05,21.514,3.2455e-05,0.016591,-0.00010121,-1004.3,1.7589
18226,19.221,2.8182,0,0.00010357,1035,3.5826e-05,19.78,3.3196e-05,0.016106,-0.00010322,-1025,1.7451
18227,19.221,2.9091,0.05,7.4795e-07,7.4744,5.7434e-07,4.3154,-9.087e-13,3.8207e-06,-5.7433e-07,-4.3153,1.7451
18228,19.497,2.9091,0,9.7641e-05,975.74,3.4297e-05,24.944,3.098e-05,0.017447,-9.7193e-05,-963.02,1.7867
18229,19.405,2.8182,0,9.9609e-05,995.4,3.4799e-05,23.164,3.1718e-05,0.016933,-9.9194e-05,-983.61,1.7728
18230,19.405,2.9091,0.05,7.4493e-07,7.4441,5.7201e-07,4.2979,-9.0821e-13,5.4933e-06,-5.7201e-07,-4.2979,1.7728
18231,19.681,2.9091,0,9.3717e-05,936.52,3.3292e-05,28.448,2.9508e-05,0.018357,-9.32e-05,-921.97,1.8145
18232,19.589,2.8182,0,9.567e-05,956.04,3.3785e-05,26.61,3.0245e-05,0.017818,-9.5189e-05,-942.45,1.8006
18233,19.589,2.9091,0.05,7.4209e-07,7.4158,5.6983e-07,4.2815,-9.078e-13,8.1186e-06,-5.6983e-07,-4.2815,1.8006
18234,19.865,2.9091,0,8.982e-05,897.58,3.2303e-05,32.045,2.8041e-05,0.019329,-8.9231e-05,-881.12,1.8424
18235,19.773,2.8182,0,9.1757e-05,916.94,3.2785e-05,30.139,2.8776e-05,0.018752,-9.1207e-05,-901.49,1.8284
18236,19.773,2.9091,0.05,7.3944e-07,7.3893,5.678e-07,4.2662,-1.3632e-12,6.9222e-06,-5.678e-07,-4.2662,1.8284
18237,20.048,2.9091,0,8.5951e-05,858.92,3.1332e-05,35.76,2.6576e-05,0.020391,-8.5287e-05,-840.47,1.8703
18238,19.956,2.8182,0,8.7873e-05,878.12,3.1803e-05,33.774,2.7311e-05,0.019761,-8.7249e-05,-860.74,1.8563
18239,19.956,2.9091,0.05,7.3698e-07,7.3647,5.6591e-07,4.252,-1.3632e-12,6.6837e-06,-5.6591e-07,-4.252,1.8563
18240,20.232,2.9091,0,8.2113e-05,820.56,3.0383e-05,39.614,2.5113e-05,0.021559,-8.1367e-05,-800.03,1.8983
18241,20.14,2.8182,0,8.4017e-05,839.59,3.084e-05,37.536,2.5847e-05,0.020877,-8.3316e-05,-820.19,1.8843
18242,20.14,2.9091,0.05,7.3472e-07,7.3422,5.6418e-07,4.239,-1.3635e-12,6.2047e-06,-5.6417e-07,-4.239,1.8843
18243,20.416,2.9091,0,7.8307e-05,782.53,2.9456e-05,43.631,2.3652e-05,0.02284,-7.7473e-05,-759.79,1.9263
18244,20.324,2.8182,0,8.0193e-05,801.38,2.9899e-05,41.448,2.4386e-05,0.022097,-7.9407e-05,-779.84,1.9123
18245,20.324,2.9091,0.05,7.3269e-07,7.3218,5.6261e-07,4.2273,-6.8203e-13,4.2922e-06,-5.6261e-07,-4.2272,1.9123
18246,20.6,2.9091,0,7.4534e-05,744.83,2.8554e-05,47.834,2.2191e-05,0.024254,-7.3605e-05,-719.75,1.9544
18247,20.508,2.8182,0,7.6402e-05,763.49,2.8982e-05,45.534,2.2925e-05,0.023441,-7.5525e-05,-739.69,1.9404
18248,20.508,2.9091,0.05,7.3089e-07,7.3039,5.6124e-07,4.2169,-2.4161e-16,5.2438e-06,-5.6123e-07,-4.2169,1.9403
18249,20.784,2.9091,0,7.0798e-05,707.49,2.768e-05,52.247,2.073e-05,0.025813,-6.9764e-05,-679.91,1.9826
18250,20.692,2.8182,0,7.2645e-05,725.95,2.8092e-05,49.816,2.1465e-05,0.024925,-7.1669e-05,-699.75,1.9685
18251,20.692,2.9091,0.05,7.2936e-07,7.2886,5.6006e-07,4.2081,-6.8337e-13,7.1431e-06,-5.6006e-07,-4.208,1.9685
18252,20.967,2.9091,0,6.7099e-05,670.53,2.6835e-05,56.893,1.9267e-05,0.027541,-6.595e-05,-640.26,2.0107
18253,20.875,2.8182,0,6.8926e-05,688.78,2.723e-05,54.32,2.0004e-05,0.02656,-6.784e-05,-660,1.9966
18254,20.875,2.9091,0.05,7.2811e-07,7.276,5.591e-07,4.2008,-6.8344e-13,7.1428e-06,-5.5909e-07,-4.2008,1.9966
18255,21.151,2.9091,0,6.3441e-05,633.98,2.6023e-05,61.797,1.7802e-05,0.029489,-6.2163e-05,-600.8,2.039
18256,21.059,2.8182,0,6.5245e-05,652,2.6399e-05,59.068,1.8541e-05,0.028387,-6.4039e-05,-620.44,2.0249
18257,21.059,2.9091,0.05,7.2716e-07,7.2666,5.5837e-07,4.1954,-6.8159e-13,6.2024e-06,-5.5837e-07,-4.1954,2.0248
18258,21.335,2.9091,0,5.9827e-05,597.85,2.5245e-05,66.983,1.6334e-05,0.031704,-5.8405e-05,-561.53,2.0673
18259,21.243,2.8182,0,6.1606e-05,615.64,2.5601e-05,64.086,1.7075e-05,0.030463,-6.0265e-05,-581.08,2.0531
18260,21.243,2.9091,0.05,7.2656e-07,7.2606,5.5791e-07,4.1919,-2.0175e-16,4.29e-06,-5.5791e-07,-4.1919,2.0531
18261,21.519,2.9091,0,5.6258e-05,562.19,2.4503e-05,72.475,1.4862e-05,0.034237,-5.4673e-05,-522.43,2.0956
18262,21.427,2.8182,0,5.8012e-05,579.72,2.4838e-05,69.398,1.5606e-05,0.032827,-5.6519e-05,-541.89,2.0814
18263,21.427,2.9091,0.05,7.2634e-07,7.2584,5.5774e-07,4.1907,-4.5642e-13,5.7097e-06,-5.5774e-07,-4.1906,2.0814
18264,21.703,2.9091,0,5.2739e-05,527.03,2.38e-05,78.296,1.3384e-05,0.037166,-5.0969e-05,-483.49,2.1239
18265,21.611,2.8182,0,5.4466e-05,544.28,2.4113e-05,75.026,1.4132e-05,0.035545,-5.28e-05,-502.86,2.1097
18266,21.611,2.9091,0.05,7.2655e-07,7.2605,5.579e-07,4.1918,-3.7459e-15,5.6938e-06,-5.579e-07,-4.1918,2.1097
18267,21.886,2.9091,0,4.9275e-05,492.41,2.3136e-05,84.47,1.19e-05,0.04059,-4.7291e-05,-444.69,2.1523
18268,21.794,2.8182,0,5.0972e-05,509.36,2.3426e-05,80.996,1.2652e-05,0.038707,-4.9108e-05,-464,2.1381
18269,21.794,2.9091,0.05,7.2722e-07,7.2672,5.5842e-07,4.1957,-2.3183e-13,4.735e-06,-5.5842e-07,-4.1957,2.1381
18270,22.07,2.9091,0,4.5869e-05,458.38,2.2515e-05,91.016,1.0407e-05,0.04466,-4.3638e-05,-406.03,2.1807
18271,21.978,2.8182,0,4.7534e-05,475.01,2.2781e-05,87.329,1.1164e-05,0.042427,-4.5442e-05,-425.27,2.1665
18272,21.978,2.9091,0.05,7.2842e-07,7.2792,5.5934e-07,4.2026,-5.3063e-15,1.8675e-06,-5.5934e-07,-4.2026,2.1665
18273,22.254,2.9091,0,4.253e-05,425.01,2.1935e-05,97.955,8.9049e-06,0.049596,-4.0008e-05,-367.46,2.2092
18274,22.162,2.8182,0,4.4158e-05,441.28,2.2178e-05,94.045,9.6677e-06,0.046896,-4.18e-05,-386.66,2.195
18275,22.162,2.9091,0.05,7.3018e-07,7.2968,5.6069e-07,4.2128,-5.8342e-15,9.0994e-07,-5.6069e-07,-4.2128,2.195
18276,22.438,2.9091,0,3.9266e-05,392.39,2.1399e-05,105.3,7.392e-06,0.055732,-3.64e-05,-328.98,2.2377
18277,22.346,2.8182,0,4.0854e-05,408.25,2.1618e-05,101.16,8.1613e-06,0.052371,-3.8181e-05,-348.14,2.2234
18278,22.346,2.9091,0.05,7.3256e-07,7.3205,5.6251e-07,4.2265,-2.2704e-13,2.8638e-06,-5.6251e-07,-4.2265,2.2234
18279,22.622,2.9091,0,3.6089e-05,360.64,2.0907e-05,113.07,5.8669e-06,0.063495,-3.281e-05,-290.54,2.2662
18280,22.53,2.8182,0,3.7629e-05,376.03,2.1102e-05,108.7,6.6434e-06,0.059278,-3.4582e-05,-309.69,2.2519
18281,22.53,2.9091,0.05,7.3561e-07,7.351,5.6485e-07,4.2441,6.4766e-16,5.7271e-06,-5.6485e-07,-4.2441,2.2519
18282,22.805,2.9091,0,3.3016e-05,329.93,2.0459e-05,121.27,4.3281e-06,0.073916,-2.9236e-05,-252.11,2.2947
18283,22.713,2.8182,0,3.45e-05,344.76,2.0631e-05,116.66,5.1125e-06,0.068078,-3.1001e-05,-271.28,2.2804
18284,22.713,2.9091,0.05,7.3936e-07,7.3885,5.6774e-07,4.2658,2.25e-13,3.7965e-06,-5.6774e-07,-4.2658,2.2804
18285,22.989,2.9091,0,3.007e-05,300.49,2.0053e-05,129.91,2.7744e-06,0.087444,-2.5674e-05,-213.66,2.3232
18286,22.897,2.8182,0,3.1485e-05,314.64,2.0202e-05,125.07,3.5674e-06,0.080434,-2.7434e-05,-232.85,2.309
18287,22.897,2.9091,0.05,7.4385e-07,7.4334,5.7119e-07,4.2917,2.2205e-13,9.4966e-06,-5.7119e-07,-4.2917,2.309
18288,23.173,2.9091,0,2.7286e-05,272.67,1.969e-05,139,1.2048e-06,0.11036,-2.2121e-05,-175.15,2.3518
18289,23.081,2.8182,0,2.8613e-05,285.94,1.9817e-05,133.92,2.0066e-06,0.09573,-2.3878e-05,-194.39,2.3375
18290,23.081,2.9091,0.05,7.4909e-07,7.4858,5.7521e-07,4.3219,6.7534e-13,1.3301e-05,-5.7521e-07,-4.3219,2.3375
18291,23.357,2.9091,0,2.471e-05,246.93,1.9366e-05,148.52,-3.8238e-07,0.13367,-1.8572e-05,-136.53,2.3804
18292,23.265,2.8182,0,2.5925e-05,259.07,1.9473e-05,143.21,4.2986e-07,0.12753,-2.0329e-05,-155.84,2.3661
18293,23.265,2.9091,0.05,7.5508e-07,7.5456,5.7981e-07,4.3564,4.562e-13,9.5477e-06,-5.7981e-07,-4.3564,2.3661
18294,23.541,2.9091,0,2.2412e-05,223.97,1.9081e-05,158.49,-1.9818e-06,0.23061,-1.5026e-05,-97.777,2.409
18295,23.449,2.8182,0,2.3476e-05,234.6,1.9169e-05,152.94,-1.1662e-06,0.14558,-1.6782e-05,-117.18,2.3947
18296,23.449,2.9091,0.05,7.6175e-07,7.6122,5.8493e-07,4.3949,4.5586e-13,1.1452e-05,-5.8493e-07,-4.3949,2.3947
18297,23.724,2.9091,0,2.0481e-05,204.67,1.8831e-05,168.82,-3.6063e-06,0.22985,-1.1478e-05,-58.913,2.4376
18298,23.632,2.8182,0,2.1349e-05,213.34,1.8903e-05,163.15,-2.7665e-06,0.33222,-1.324e-05,-78.362,2.4233
18299,23.632,2.9091,0.05,7.6908e-07,7.6855,5.9056e-07,4.4372,6.8256e-13,1.3355e-05,-5.9056e-07,-4.4372,2.4233
18300,23.816,2.8182,0,1.9643e-05,196.29,1.8669e-05,173.58,-4.405e-06,0.21351,-9.6963e-06,-39.543,2.4519
18301,23.816,2.9091,0.05,7.7779e-07,7.7725,5.9724e-07,4.4875,9.1112e-13,1.1456e-05,-5.9724e-07,-4.4875,2.4519
18302,23.908,2.9091,0,1.9107e-05,190.94,1.8635e-05,179.02,-5.1336e-06,0.43479,-8.1522e-06,-22.246,2.4662
18303,11.042,2.7273,0,0.00069325,6927.7,0.00027113,511.89,0.00020284,-1.2216,-0.00068313,-6658.1,0.62814
18304,10.95,2.6364,0,0.00074904,7485.3,0.00030047,646.48,0.00021454,0.85296,-0.00073594,-7140.7,0.61768
18305,10.95,2.7273,0.05,7.5726e-06,75.673,5.8148e-06,43.69,-1.3038e-12,5.4203e-05,-5.8148e-06,-43.69,0.61782
18306,11.226,2.7273,0,0.000614,6135.8,0.00022494,269,0.00018917,0.30399,-0.00060898,-5996.7,0.64906
18307,11.134,2.6364,0,0.00065787,6574.2,0.00024775,370.02,0.00019853,0.1652,-0.00065079,-6381.3,0.63841
18308,11.134,2.7273,0.05,9.5878e-06,95.811,7.3622e-06,55.317,-1.0509e-12,2.6752e-05,-7.3622e-06,-55.317,0.63852
18309,11.41,2.7273,0,0.00053802,5376.4,0.00018263,61.268,0.00017454,0.43875,-0.00053694,-5345.3,0.67039
18310,11.318,2.6364,0,0.00056945,5690.5,0.00019862,128.61,0.00018153,0.1979,-0.00056715,-5625,0.65956
18311,11.318,2.7273,0.05,9.4676e-06,94.611,7.27e-06,54.624,-8.4427e-13,1.8026e-05,-7.27e-06,-54.624,0.65965
18312,11.594,2.7273,0,0.0004737,4733.7,0.00016093,1.1264,0.00014859,-91.546,-0.00047517,-4778.3,0.69207
18313,11.502,2.6364,0,0.00049646,4961.1,0.00016629,1.6571,0.00015981,-47.019,-0.00049721,-4983.6,0.68109
18314,11.502,2.7273,0.05,8.3972e-06,83.914,6.448e-06,48.448,-5.5454e-12,9.698e-06,-6.448e-06,-48.448,0.68116
18315,11.778,2.7273,0,0.00042215,4218.6,0.00014875,0.85675,0.00012317,-191.36,-0.00042506,-4310.5,0.71408
18316,11.686,2.6364,0,0.00043914,4388.4,0.00015291,0.97827,0.00013132,-161.23,-0.00044165,-4466.3,0.70296
18317,11.686,2.7273,0.05,7.1391e-06,71.341,5.4819e-06,41.189,-3.3531e-12,3.5674e-06,-5.4819e-06,-41.189,0.70301
18318,11.961,2.7273,0,0.0003816,3813.4,0.00013822,0.66674,0.00010471,-251.13,-0.00038524,-3932.4,0.73637
18319,11.869,2.6364,0,0.00039471,3944.4,0.0001416,0.72846,0.00011073,-231.22,-0.00039812,-4054.5,0.72513
18320,11.869,2.7273,0.05,5.972e-06,59.678,4.5857e-06,34.455,-3.1304e-12,1.3806e-06,-4.5857e-06,-34.455,0.72516
18321,12.145,2.7273,0,0.00034978,3495.4,0.00012918,0.50265,9.1512e-05,-282.52,-0.00035372,-3627.8,0.75892
18322,12.053,2.6364,0,0.00036017,3599.2,0.00013202,0.55593,9.6024e-05,-269.89,-0.00036399,-3726.2,0.74756
18323,12.053,2.7273,0.05,4.9777e-06,49.743,3.8223e-06,28.719,-3.0901e-12,7.614e-07,-3.8223e-06,-28.719,0.74759
18324,12.329,2.7273,0,0.00032464,3244.2,0.00012143,0.37456,8.2154e-05,-294.73,-0.00032864,-3381.3,0.78171
18325,12.237,2.6364,0,0.00033307,3328.4,0.00012387,0.41721,8.5576e-05,-287.31,-0.00033702,-3462.5,0.77024
18326,12.237,2.7273,0.05,4.1604e-06,41.575,3.1947e-06,24.003,-2.0853e-12,-2.9227e-06,-3.1947e-06,-24.003,0.77026
18327,12.513,2.7273,0,0.00030457,3043.6,0.00011476,0.27693,7.5545e-05,-294.37,-0.0003085,-3180,0.80472
18328,12.421,2.6364,0,0.00031155,3113.3,0.0001169,0.31213,7.817e-05,-290.68,-0.00031547,-3248.3,0.79314
18329,12.421,2.7273,0.05,3.4995e-06,34.971,2.6872e-06,20.19,-1.2397e-12,-3.685e-06,-2.6872e-06,-20.19,0.79316
18330,12.697,2.7273,0,0.00028834,2881.4,0.00010898,0.20404,7.0889e-05,-286.03,-0.00029213,-3013.6,0.82794
18331,12.605,2.6364,0,0.00029422,2940.2,0.00011089,0.23248,7.2925e-05,-284.98,-0.00029802,-3072.2,0.81626
18332,12.605,2.7273,0.05,2.9692e-06,29.671,2.28e-06,17.131,-3.0559e-12,-1.1495e-05,-2.28e-06,-17.131,0.81627
18333,12.88,2.7273,0,0.000275,2748.1,0.00010394,0.15021,6.7609e-05,-272.84,-0.00027862,-2874.3,0.85135
18334,12.788,2.6364,0,0.00028005,2798.6,0.00010565,0.17288,6.9211e-05,-273.65,-0.0002837,-2925.3,0.83958
18335,12.788,2.7273,0.05,2.5452e-06,25.434,1.9544e-06,14.684,-1.3814e-12,-4.4952e-06,-1.9544e-06,-14.684,0.83959
18336,13.064,2.7273,0,0.00026387,2636.9,9.9502e-05,0.11065,6.5294e-05,-256.92,-0.0002673,-2755.9,0.87495
18337,12.972,2.6364,0,0.00026828,2680.9,0.00010106,0.12852,6.6572e-05,-259,-0.00027174,-2800.9,0.86309
18338,12.972,2.7273,0.05,2.2065e-06,22.05,1.6943e-06,12.731,-2.3447e-12,-1.2432e-08,-1.6943e-06,-12.731,0.8631
18339,13.248,2.7273,0,0.00025441,2542.4,9.5554e-05,0.081628,6.3646e-05,-239.67,-0.00025764,-2653.7,0.89874
18340,13.156,2.6364,0,0.00025832,2581.4,9.6988e-05,0.095576,6.4686e-05,-242.61,-0.00026159,-2694.1,0.88679
18341,13.156,2.7273,0.05,1.936e-06,19.347,1.4866e-06,11.17,-3.2648e-12,-5.0178e-06,-1.4866e-06,-11.17,0.8868
18342,13.432,2.7273,0,0.00024623,2460.6,9.201e-05,0.060411,6.2453e-05,-222.02,-0.00024925,-2564.1,0.9227
18343,13.34,2.6364,0,0.00024975,2495.8,9.3341e-05,0.071203,6.3318e-05,-225.51,-0.00025282,-2600.8,0.91066
18344,13.34,2.7273,0.05,1.7197e-06,17.185,1.3205e-06,9.9217,-1.5295e-12,-4.9627e-06,-1.3205e-06,-9.9216,0.91067
18345,13.616,2.7273,0,0.00023902,2388.5,8.8796e-05,0.044934,6.1562e-05,-204.58,-0.00024184,-2484.2,0.94682
18346,13.524,2.6364,0,0.00024224,2420.7,9.0043e-05,0.053249,6.23e-05,-208.4,-0.00024511,-2518.1,0.9347
18347,13.524,2.7273,0.05,1.5464e-06,15.453,1.1875e-06,8.9221,-2.4829e-12,-5.8883e-06,-1.1874e-06,-8.922,0.93471
18348,13.799,2.7273,0,0.00023255,2323.9,8.5854e-05,0.033659,6.0865e-05,-187.73,-0.00023517,-2412,0.97111
18349,13.707,2.6364,0,0.00023553,2353.7,8.703e-05,0.040041,6.151e-05,-191.7,-0.0002382,-2443.6,0.95891
18350,13.707,2.7273,0.05,1.4074e-06,14.064,1.0807e-06,8.1201,-2.5108e-12,-4.9379e-06,-1.0807e-06,-8.1201,0.95892
18351,13.983,2.7273,0,0.00022664,2264.8,8.3136e-05,0.025472,6.0283e-05,-171.68,-0.00022907,-2345.8,0.99556
18352,13.891,2.6364,0,0.00022944,2292.8,8.4253e-05,0.030355,6.0864e-05,-175.71,-0.00023192,-2375.6,0.98328
18353,13.891,2.7273,0.05,1.2956e-06,12.947,9.9489e-07,7.4752,-1.6297e-12,-6.1983e-06,-9.9488e-07,-7.4752,0.98329
18354,14.167,2.7273,0,0.00022116,2210.1,8.0602e-05,0.019535,5.9761e-05,-156.57,-0.00022341,-2284.2,1.0202
18355,14.075,2.6364,0,0.00022381,2236.6,8.167e-05,0.02328,6.0297e-05,-160.56,-0.00022611,-2312.5,1.0078
18356,14.075,2.7273,0.05,1.2055e-06,12.047,9.2571e-07,6.9554,-2.1331e-12,-4.5005e-06,-9.257e-07,-6.9554,1.0078
18357,14.351,2.7273,0,0.000216,2158.5,7.8222e-05,0.015249,5.9261e-05,-142.45,-0.00021807,-2226.2,1.0449
18358,14.259,2.6364,0,0.00021854,2183.9,7.9249e-05,0.018099,5.9768e-05,-146.35,-0.00022066,-2253.4,1.0325
18359,14.259,2.7273,0.05,1.1327e-06,11.319,8.6977e-07,6.5351,-2.1517e-12,-4.7335e-06,-8.6976e-07,-6.535,1.0325
18360,14.534,2.7273,0,0.00021109,2109.5,7.5969e-05,0.012218,5.8756e-05,-129.32,-0.00021299,-2171.1,1.0698
18361,14.443,2.6364,0,0.00021354,2134,7.6961e-05,0.014357,5.9245e-05,-133.09,-0.0002155,-2197.4,1.0573
18362,14.443,2.7273,0.05,1.0736e-06,10.728,8.2436e-07,6.1939,-2.1863e-12,-1.3116e-06,-8.2436e-07,-6.1939,1.0573
18363,14.718,2.7273,0,0.00020637,2062.2,7.3822e-05,0.010128,5.8228e-05,-117.16,-0.00020811,-2118.3,1.0949
18364,14.626,2.6364,0,0.00020875,2086.1,7.4784e-05,0.011726,5.8708e-05,-120.78,-0.00021054,-2143.8,1.0823
18365,14.626,2.7273,0.05,1.0254e-06,10.247,7.8735e-07,5.9159,-1.7411e-12,-2.3019e-06,-7.8735e-07,-5.9158,1.0823
18366,14.902,2.7273,0,0.00020178,2016.4,7.1765e-05,0.008723,5.7667e-05,-105.92,-0.00020337,-2067.3,1.1201
18367,14.81,2.6364,0,0.00020411,2039.7,7.2701e-05,0.0099055,5.8144e-05,-109.37,-0.00020575,-2092.1,1.1074
18368,14.81,2.7273,0.05,9.859e-07,9.8522,7.5705e-07,5.6882,-1.7473e-12,-1.1938e-06,-7.5704e-07,-5.6881,1.1074
18369,15.086,2.7273,0,0.00019729,1971.6,6.9783e-05,0.0078218,5.7065e-05,-95.549,-0.00019874,-2017.6,1.1454
18370,14.994,2.6364,0,0.00019958,1994.4,7.0697e-05,0.0086849,5.7543e-05,-98.826,-0.00020108,-2042,1.1327
18371,14.994,2.7273,0.05,9.5339e-07,9.5274,7.3209e-07,5.5006,-1.7673e-12,-3.3651e-06,-7.3209e-07,-5.5006,1.1327
18372,15.27,2.7273,0,0.00019289,1927.5,6.7865e-05,0.007271,5.642e-05,-85.986,-0.00019421,-1969.1,1.1708
18373,15.178,2.6364,0,0.00019514,1950.1,6.876e-05,0.0079068,5.6902e-05,-89.09,-0.0001965,-1993.1,1.1581
18374,15.178,2.7273,0.05,9.2646e-07,9.2582,7.1141e-07,5.3452,-1.7726e-12,3.3216e-07,-7.114e-07,-5.3452,1.1581
18375,15.453,2.7273,0,0.00018854,1884.1,6.6001e-05,0.0069707,5.573e-05,-77.168,-0.00018973,-1921.5,1.1964
18376,15.362,2.6364,0,0.00019077,1906.3,6.6879e-05,0.0074167,5.6218e-05,-80.102,-0.000192,-1945.1,1.1836
18377,15.362,2.7273,0.05,9.0397e-07,9.0335,6.9414e-07,5.2155,-1.3343e-12,-7.0906e-07,-6.9413e-07,-5.2154,1.1836
18378,15.637,2.7273,0,0.00018423,1841,6.4184e-05,0.0068846,5.4996e-05,-69.032,-0.00018531,-1874.6,1.2221
18379,15.545,2.6364,0,0.00018644,1863.1,6.5048e-05,0.0071653,5.549e-05,-71.804,-0.00018756,-1898,1.2092
18380,15.545,2.7273,0.05,8.8503e-07,8.8442,6.7959e-07,5.1062,-1.3511e-12,-8.3081e-07,-6.7959e-07,-5.1062,1.2092
18381,15.821,2.7273,0,0.00017996,1798.3,6.2408e-05,0.0069665,5.4219e-05,-61.518,-0.00018093,-1828.3,1.248
18382,15.729,2.6364,0,0.00018215,1820.2,6.3258e-05,0.0071273,5.4721e-05,-64.136,-0.00018315,-1851.4,1.235
18383,15.729,2.7273,0.05,8.6894e-07,8.6834,6.6724e-07,5.0134,-1.354e-12,-2.7603e-06,-6.6724e-07,-5.0133,1.235
18384,16.005,2.7273,0,0.00017571,1755.9,6.0667e-05,0.0071631,5.3403e-05,-54.569,-0.00017657,-1782.5,1.2739
18385,15.913,2.6364,0,0.00017788,1777.6,6.1505e-05,0.0072299,5.3912e-05,-57.043,-0.00017879,-1805.4,1.2609
18386,15.913,2.7273,0.05,8.5515e-07,8.5456,6.5665e-07,4.9338,-1.3466e-12,1.5717e-06,-6.5664e-07,-4.9338,1.2609
18387,16.189,2.7273,0,0.00017148,1713.6,5.8956e-05,0.0074411,5.2549e-05,-48.129,-0.00017225,-1737.2,1.3
18388,16.097,2.6364,0,0.00017364,1735.2,5.9784e-05,0.007436,5.3066e-05,-50.469,-0.00017445,-1759.9,1.2869
18389,16.097,2.7273,0.05,8.4321e-07,8.4263,6.4748e-07,4.8649,-1.7956e-12,2.0754e-06,-6.4748e-07,-4.8649,1.2869
18390,16.372,2.7273,0,0.00016726,1671.5,5.7273e-05,0.0077612,5.1662e-05,-42.149,-0.00016794,-1692.2,1.3262
18391,16.281,2.6364,0,0.00016942,1693,5.8091e-05,0.0077175,5.2186e-05,-44.366,-0.00017013,-1714.7,1.3131
18392,16.281,2.7273,0.05,8.3278e-07,8.322,6.3947e-07,4.8048,-1.3402e-12,2.0974e-06,-6.3947e-07,-4.8047,1.3131
18393,16.556,2.7273,0,0.00016306,1629.5,5.5613e-05,0.0081056,5.0744e-05,-36.58,-0.00016365,-1647.5,1.3525
18394,16.464,2.6364,0,0.00016521,1650.9,5.6424e-05,0.0080181,5.1274e-05,-38.686,-0.00016583,-1669.9,1.3393
18395,16.464,2.7273,0.05,8.2356e-07,8.23,6.324e-07,4.7516,-1.799e-12,1.5767e-06,-6.3239e-07,-4.7515,1.3393
18396,16.74,2.7273,0,0.00015887,1587.6,5.3976e-05,0.0084967,4.9798e-05,-31.378,-0.00015938,-1603.1,1.379
18397,16.648,2.6364,0,0.00016101,1609,5.4778e-05,0.0083579,5.0334e-05,-33.384,-0.00016155,-1625.4,1.3657
18398,16.648,2.7273,0.05,8.1533e-07,8.1477,6.2607e-07,4.7041,-1.8046e-12,1.5385e-06,-6.2607e-07,-4.704,1.3657
18399,16.924,2.7273,0,0.00015469,1545.9,5.2357e-05,0.0089321,4.8828e-05,-26.503,-0.00015513,-1559,1.4055
18400,16.832,2.6364,0,0.00015682,1567.1,5.3152e-05,0.0087623,4.9368e-05,-28.421,-0.00015728,-1581.1,1.3922
18401,16.832,2.7273,0.05,8.0791e-07,8.0735,6.2037e-07,4.6612,-1.3539e-12,7.8917e-07,-6.2037e-07,-4.6612,1.3922
18402,17.108,2.7273,0,0.00015053,1504.2,5.0756e-05,0.0093952,4.7838e-05,-21.917,-0.00015089,-1515.1,1.4321
18403,17.016,2.6364,0,0.00015264,1525.4,5.1545e-05,0.0092006,4.8381e-05,-23.758,-0.00015303,-1537.1,1.4188
18404,17.016,2.7273,0.05,8.0116e-07,8.0061,6.1519e-07,4.6223,-1.3573e-12,1.2429e-06,-6.1519e-07,-4.6223,1.4188
18405,17.291,2.7273,0,0.00014637,1462.7,4.9171e-05,0.0098857,4.6829e-05,-17.585,-0.00014666,-1471.4,1.4589
18406,17.2,2.6364,0,0.00014847,1483.7,4.9953e-05,0.0096715,4.7375e-05,-19.359,-0.00014879,-1493.3,1.4455
18407,17.2,2.7273,0.05,7.9497e-07,7.9443,6.1044e-07,4.5867,-4.5017e-13,1.706e-06,-6.1044e-07,-4.5866,1.4455
18408,17.475,2.7273,0,0.00014222,1421.2,4.76e-05,0.010386,4.5805e-05,-13.475,-0.00014245,-1427.9,1.4857
18409,17.383,2.6364,0,0.00014432,1442.2,4.8377e-05,0.010174,4.6353e-05,-15.193,-0.00014457,-1449.7,1.4723
18410,17.383,2.7273,0.05,7.8927e-07,7.8872,6.0606e-07,4.5537,-4.5248e-13,1.207e-06,-6.0606e-07,-4.5537,1.4723
18411,17.659,2.7273,0,0.00013809,1379.9,4.6042e-05,0.010904,4.4769e-05,-9.5545,-0.00013825,-1384.7,1.5126
18412,17.567,2.6364,0,0.00014018,1400.8,4.6814e-05,0.010685,4.5318e-05,-11.228,-0.00014036,-1406.4,1.4991
18413,17.567,2.7273,0.05,7.8396e-07,7.8342,6.0199e-07,4.5231,-4.5221e-13,2.1655e-06,-6.0198e-07,-4.523,1.4991
18414,17.843,2.7273,0,0.00013397,1338.7,4.4496e-05,0.011499,4.3723e-05,-5.7964,-0.00013406,-1341.6,1.5397
18415,17.751,2.6364,0,0.00013604,1359.5,4.5263e-05,0.011262,4.4272e-05,-7.4357,-0.00013617,-1363.2,1.5261
18416,17.751,2.7273,0.05,7.7898e-07,7.7845,5.9816e-07,4.4944,-1.3627e-12,1.4429e-06,-5.9816e-07,-4.4943,1.5261
18417,18.027,2.7273,0,0.00012986,1297.7,4.2962e-05,0.012407,4.2671e-05,-2.1735,-0.00012989,-1298.8,1.5668
18418,17.935,2.6364,0,0.00013193,1318.4,4.3724e-05,0.012074,4.3219e-05,-3.7887,-0.00013199,-1320.2,1.5532
18419,17.935,2.7273,0.05,7.7431e-07,7.7377,5.9457e-07,4.4674,-9.0873e-13,3.0612e-06,-5.9457e-07,-4.4674,1.5532
18420,18.21,2.7273,0,0.00012576,1256.8,4.1614e-05,1.3423,4.1437e-05,0.011432,-0.00012574,-1256.1,1.594
18421,18.119,2.6364,0,0.00012782,1277.4,4.2197e-05,0.020125,4.2159e-05,-0.26833,-0.00012783,-1277.5,1.5804
18422,18.119,2.7273,0.05,7.699e-07,7.6936,5.9119e-07,4.442,-1.3638e-12,2.4321e-06,-5.9118e-07,-4.4419,1.5804
18423,18.394,2.7273,0,0.00012169,1216,4.0555e-05,4.7713,3.9922e-05,0.012722,-0.00012161,-1213.6,1.6213
18424,18.302,2.6364,0,0.00012374,1236.5,4.1098e-05,3.1735,4.0677e-05,0.011879,-0.00012368,-1234.9,1.6076
18425,18.302,2.7273,0.05,7.6572e-07,7.652,5.8798e-07,4.4179,1.1163e-16,1.8337e-06,-5.8798e-07,-4.4178,1.6076
18426,18.578,2.7273,0,0.00011763,1175.5,3.9497e-05,8.14,3.8415e-05,0.013447,-0.00011749,-1171.4,1.6487
18427,18.486,2.6364,0,0.00011967,1195.8,4.0035e-05,6.5351,3.9167e-05,0.012852,-0.00011955,-1192.6,1.6349
18428,18.486,2.7273,0.05,7.6177e-07,7.6125,5.8495e-07,4.3951,-1.3644e-12,2.1442e-06,-5.8495e-07,-4.395,1.6349
18429,18.762,2.7273,0,0.00011359,1135.1,3.8441e-05,11.471,3.6916e-05,0.014128,-0.00011339,-1129.3,1.6761
18430,18.67,2.6364,0,0.00011561,1155.3,3.8974e-05,9.8486,3.7665e-05,0.013578,-0.00011544,-1150.4,1.6624
18431,18.67,2.7273,0.05,7.5802e-07,7.575,5.8207e-07,4.3734,-1.3648e-12,3.3337e-06,-5.8207e-07,-4.3734,1.6624
18432,18.946,2.7273,0,0.00010957,1094.9,3.739e-05,14.786,3.5424e-05,0.014834,-0.00010931,-1087.5,1.7036
18433,18.854,2.6364,0,0.00011158,1115,3.7917e-05,13.136,3.617e-05,0.01428,-0.00011135,-1108.4,1.6898
18434,18.854,2.7273,0.05,7.5446e-07,7.5394,5.7933e-07,4.3529,-9.1033e-13,2.8557e-06,-5.7933e-07,-4.3529,1.6898
18435,19.129,2.7273,0,0.00010557,1055,3.6347e-05,18.108,3.3939e-05,0.015585,-0.00010525,-1045.8,1.7312
18436,19.038,2.6364,0,0.00010757,1074.9,3.6866e-05,16.42,3.4683e-05,0.015018,-0.00010728,-1066.6,1.7174
18437,19.038,2.7273,0.05,7.5107e-07,7.5055,5.7673e-07,4.3333,-1.3637e-12,4.1761e-06,-5.7673e-07,-4.3333,1.7174
18438,19.313,2.7273,0,0.00010159,1015.2,3.5313e-05,21.459,3.2459e-05,0.016385,-0.00010121,-1004.3,1.7589
18439,19.221,2.6364,0,0.00010358,1035.1,3.5823e-05,19.721,3.3201e-05,0.015795,-0.00010323,-1025.1,1.745
18440,19.221,2.7273,0.05,7.4787e-07,7.4735,5.7427e-07,4.3149,-1.3622e-12,3.353e-06,-5.7427e-07,-4.3148,1.7451
18441,19.497,2.7273,0,9.7641e-05,975.74,3.429e-05,24.859,3.0984e-05,0.01724,-9.7194e-05,-963.06,1.7867
18442,19.405,2.6364,0,9.9611e-05,995.42,3.4791e-05,23.06,3.1724e-05,0.016621,-9.9198e-05,-983.68,1.7728
18443,19.405,2.7273,0.05,7.4485e-07,7.4433,5.7195e-07,4.2974,-1.3607e-12,5.271e-06,-5.7195e-07,-4.2974,1.7728
18444,19.681,2.7273,0,9.3714e-05,936.5,3.3282e-05,28.331,2.9513e-05,0.018146,-9.32e-05,-922,1.8145
18445,19.589,2.6364,0,9.5668e-05,956.02,3.3772e-05,26.46,3.0252e-05,0.017504,-9.519e-05,-942.51,1.8005
18446,19.589,2.7273,0.05,7.4201e-07,7.415,5.6977e-07,4.2811,-1.3596e-12,7.902e-06,-5.6977e-07,-4.281,1.8005
18447,19.865,2.7273,0,8.9814e-05,897.52,3.2289e-05,31.897,2.8046e-05,0.019115,-8.9229e-05,-881.14,1.8423
18448,19.773,2.6364,0,9.1752e-05,916.88,3.2767e-05,29.942,2.8784e-05,0.018432,-9.1205e-05,-901.54,1.8284
18449,19.773,2.7273,0.05,7.3935e-07,7.3884,5.6773e-07,4.2657,-9.0653e-13,6.2192e-06,-5.6773e-07,-4.2657,1.8284
18450,20.048,2.7273,0,8.5943e-05,858.83,3.1315e-05,35.578,2.6582e-05,0.020173,-8.5282e-05,-840.48,1.8703
18451,19.956,2.6364,0,8.7863e-05,878.02,3.1779e-05,33.528,2.732e-05,0.019436,-8.7244e-05,-860.77,1.8563
18452,19.956,2.7273,0.05,7.3689e-07,7.3638,5.6584e-07,4.2515,-4.5217e-13,6.9399e-06,-5.6584e-07,-4.2515,1.8563
18453,20.232,2.7273,0,8.2101e-05,820.45,3.0361e-05,39.398,2.512e-05,0.021337,-8.136e-05,-800.03,1.8983
18454,20.14,2.6364,0,8.4003e-05,839.45,3.0811e-05,37.239,2.5858e-05,0.020544,-8.3307e-05,-820.2,1.8842
18455,20.14,2.7273,0.05,7.3463e-07,7.3412,5.6411e-07,4.2385,-9.0756e-13,5.2588e-06,-5.641e-07,-4.2384,1.8842
18456,20.416,2.7273,0,7.8292e-05,782.38,2.943e-05,43.379,2.366e-05,0.022614,-7.7463e-05,-759.78,1.9263
18457,20.324,2.6364,0,8.0174e-05,801.18,2.9864e-05,41.099,2.4397e-05,0.021758,-7.9395e-05,-779.83,1.9123
18458,20.324,2.7273,0.05,7.3259e-07,7.3209,5.6254e-07,4.2267,-4.5432e-13,3.815e-06,-5.6254e-07,-4.2267,1.9123
18459,20.6,2.7273,0,7.4516e-05,744.65,2.8524e-05,47.544,2.22e-05,0.024022,-7.3593e-05,-719.72,1.9544
18460,20.508,2.6364,0,7.6377e-05,763.25,2.8941e-05,45.129,2.2938e-05,0.023093,-7.5509e-05,-739.67,1.9403
18461,20.508,2.7273,0.05,7.3079e-07,7.3028,5.6116e-07,4.2163,-6.8349e-13,5.7127e-06,-5.6115e-07,-4.2163,1.9403
18462,20.784,2.7273,0,7.0776e-05,707.27,2.7646e-05,51.918,2.0739e-05,0.025574,-6.9749e-05,-679.87,1.9825
18463,20.692,2.6364,0,7.2616e-05,725.66,2.8044e-05,49.355,2.1479e-05,0.02457,-7.165e-05,-699.71,1.9684
18464,20.692,2.7273,0.05,7.2925e-07,7.2874,5.5997e-07,4.2074,-6.8639e-13,6.6433e-06,-5.5997e-07,-4.2074,1.9684
18465,20.967,2.7273,0,6.7074e-05,670.28,2.6797e-05,56.523,1.9278e-05,0.027298,-6.5933e-05,-640.21,2.0107
18466,20.875,2.6364,0,6.8891e-05,688.43,2.7176e-05,53.798,2.0019e-05,0.026195,-6.7817e-05,-659.94,1.9966
18467,20.875,2.7273,0.05,7.2798e-07,7.2748,5.59e-07,4.2001,-6.8635e-13,6.6394e-06,-5.59e-07,-4.2001,1.9966
18468,21.151,2.7273,0,6.3412e-05,633.68,2.598e-05,61.384,1.7814e-05,0.029241,-6.2144e-05,-600.74,2.039
18469,21.059,2.6364,0,6.5204e-05,651.59,2.6338e-05,58.484,1.8558e-05,0.028015,-6.4012e-05,-620.37,2.0248
18470,21.059,2.7273,0.05,7.2702e-07,7.2652,5.5827e-07,4.1946,-6.8159e-13,6.1988e-06,-5.5826e-07,-4.1946,2.0248
18471,21.335,2.7273,0,5.9793e-05,597.52,2.5197e-05,66.527,1.6347e-05,0.03145,-5.8383e-05,-561.46,2.0672
18472,21.243,2.6364,0,6.156e-05,615.17,2.5533e-05,63.437,1.7094e-05,0.030083,-6.0234e-05,-580.98,2.0531
18473,21.243,2.7273,0.05,7.2641e-07,7.2591,5.5779e-07,4.191,-2.2878e-13,5.2383e-06,-5.5779e-07,-4.191,2.0531
18474,21.519,2.7273,0,5.622e-05,561.82,2.4451e-05,71.974,1.4876e-05,0.033979,-5.4649e-05,-522.35,2.0956
18475,21.427,2.6364,0,5.7959e-05,579.19,2.4763e-05,68.682,1.5626e-05,0.03244,-5.6484e-05,-541.78,2.0814
18476,21.427,2.7273,0.05,7.2617e-07,7.2567,5.5761e-07,4.1897,-4.6086e-13,5.6755e-06,-5.5761e-07,-4.1896,2.0814
18477,21.703,2.7273,0,5.2697e-05,526.61,2.3742e-05,77.749,1.3399e-05,0.036902,-5.0942e-05,-483.4,2.1239
18478,21.611,2.6364,0,5.4406e-05,543.69,2.403e-05,74.242,1.4154e-05,0.03515,-5.2761e-05,-502.74,2.1097
18479,21.611,2.7273,0.05,7.2636e-07,7.2586,5.5775e-07,4.1907,-4.6784e-13,6.5832e-06,-5.5775e-07,-4.1907,2.1097
18480,21.886,2.7273,0,4.9228e-05,491.94,2.3074e-05,83.877,1.1916e-05,0.040322,-4.7262e-05,-444.6,2.1523
18481,21.794,2.6364,0,5.0905e-05,508.7,2.3336e-05,80.142,1.2675e-05,0.038306,-4.9066e-05,-463.86,2.1381
18482,21.794,2.7273,0.05,7.2701e-07,7.2651,5.5826e-07,4.1945,-2.4147e-13,5.6174e-06,-5.5825e-07,-4.1945,2.1381
18483,22.07,2.7273,0,4.5819e-05,457.87,2.2447e-05,90.377,1.0425e-05,0.044389,-4.3607e-05,-405.93,2.1807
18484,21.978,2.6364,0,4.7461e-05,474.28,2.2684e-05,86.406,1.119e-05,0.042019,-4.5396e-05,-425.12,2.1665
18485,21.978,2.7273,0.05,7.2818e-07,7.2768,5.5916e-07,4.2013,-2.4518e-13,-1.3041e-07,-5.5916e-07,-4.2013,2.1665
18486,22.254,2.7273,0,4.2475e-05,424.46,2.1864e-05,97.271,8.924e-06,0.04932,-3.9975e-05,-367.36,2.2092
18487,22.162,2.6364,0,4.4079e-05,440.48,2.2074e-05,93.053,9.6954e-06,0.046481,-4.1752e-05,-386.51,2.1949
18488,22.162,2.7273,0.05,7.2992e-07,7.2942,5.6049e-07,4.2113,-1.947e-14,1.7615e-06,-5.6049e-07,-4.2113,2.1949
18489,22.438,2.7273,0,3.9206e-05,391.79,2.1323e-05,104.58,7.4126e-06,0.055448,-3.6366e-05,-328.88,2.2377
18490,22.346,2.6364,0,4.0767e-05,407.39,2.1507e-05,100.11,8.1911e-06,0.051946,-3.8131e-05,-347.99,2.2234
18491,22.346,2.7273,0.05,7.3228e-07,7.3178,5.623e-07,4.2249,4.5405e-13,2.8529e-06,-5.623e-07,-4.2249,2.2234
18492,22.622,2.7273,0,3.6025e-05,360,2.0828e-05,112.31,5.889e-06,0.0632,-3.2775e-05,-290.45,2.2662
18493,22.53,2.6364,0,3.7537e-05,375.11,2.0985e-05,107.58,6.6754e-06,0.058839,-3.4531e-05,-309.55,2.2519
18494,22.53,2.7273,0.05,7.3531e-07,7.3481,5.6463e-07,4.2424,2.2843e-13,5.7228e-06,-5.6463e-07,-4.2424,2.2519
18495,22.805,2.7273,0,3.2948e-05,329.25,2.0376e-05,120.47,4.3517e-06,0.073607,-2.9201e-05,-252.03,2.2947
18496,22.713,2.6364,0,3.4401e-05,343.77,2.0508e-05,115.49,5.1468e-06,0.06762,-3.0949e-05,-271.14,2.2804
18497,22.713,2.7273,0.05,7.3906e-07,7.3855,5.6751e-07,4.264,-8.091e-15,4.7026e-06,-5.6751e-07,-4.264,2.2804
18498,22.989,2.7273,0,2.9998e-05,299.77,1.9968e-05,129.08,2.7994e-06,0.087114,-2.564e-05,-213.59,2.3232
18499,22.897,2.6364,0,3.138e-05,313.58,2.0076e-05,123.84,3.6039e-06,0.07995,-2.7382e-05,-232.73,2.3089
18500,22.897,2.7273,0.05,7.4356e-07,7.4304,5.7096e-07,4.29,-1.7878e-14,8.4494e-06,-5.7096e-07,-4.29,2.3089
18501,23.173,2.7273,0,2.7209e-05,271.91,1.9602e-05,138.14,1.2312e-06,0.11,-2.2087e-05,-175.09,2.3518
18502,23.081,2.6364,0,2.8502e-05,284.82,1.9687e-05,132.65,2.0452e-06,0.095208,-2.3826e-05,-194.29,2.3375
18503,23.081,2.7273,0.05,7.4881e-07,7.483,5.75e-07,4.3203,2.0665e-13,1.1288e-05,-5.75e-07,-4.3203,2.3375
18504,23.357,2.7273,0,2.463e-05,246.13,1.9277e-05,147.64,-3.5476e-07,0.13326,-1.8539e-05,-136.49,2.3804
18505,23.265,2.6364,0,2.5807e-05,257.89,1.934e-05,141.91,4.7049e-07,0.12694,-2.0278e-05,-155.77,2.3661
18506,23.265,2.7273,0.05,7.5484e-07,7.5432,5.7962e-07,4.3551,6.8504e-13,1.1464e-05,-5.7962e-07,-4.355,2.3661
18507,23.541,2.7273,0,2.2328e-05,223.13,1.8992e-05,157.6,-1.9531e-06,0.23008,-1.4994e-05,-97.757,2.409
18508,23.449,2.6364,0,2.3353e-05,233.37,1.9035e-05,151.61,-1.1238e-06,0.14491,-1.6733e-05,-117.14,2.3947
18509,23.449,2.7273,0.05,7.6157e-07,7.6104,5.8479e-07,4.3939,9.1013e-13,1.3361e-05,-5.8479e-07,-4.3939,2.3947
18510,23.724,2.7273,0,2.0394e-05,203.8,1.8741e-05,167.92,-3.5768e-06,0.22898,-1.1448e-05,-58.912,2.4376
18511,23.632,2.6364,0,2.122e-05,212.05,1.8767e-05,161.8,-2.7227e-06,0.33126,-1.3194e-05,-78.345,2.4233
18512,23.632,2.7273,0.05,7.6899e-07,7.6846,5.9049e-07,4.4367,1.1355e-12,1.3345e-05,-5.9049e-07,-4.4367,2.4232
18513,23.816,2.6364,0,1.951e-05,194.97,1.8534e-05,172.23,-4.3601e-06,0.21147,-9.653e-06,-39.557,2.4519
18514,23.816,2.7273,0.05,7.7807e-07,7.7753,5.9746e-07,4.4891,4.5717e-13,1.1455e-05,-5.9746e-07,-4.4891,2.4519
18515,23.908,2.7273,0,1.9017e-05,190.04,1.8544e-05,178.11,-5.1034e-06,0.43452,-8.1229e-06,-22.253,2.4662
18516,11.042,2.5455,0,0.00071484,7143.4,0.00027822,513.11,0.00021019,1.993,-0.0007047,-6872.1,0.62779
18517,10.95,2.4545,0,0.00079545,7949,0.00031903,682.41,0.00022754,-4.9788,-0.00078169,-7588,0.6172
18518,10.95,2.5455,0.05,1.2355e-05,123.47,9.4873e-06,71.284,-2.8777e-12,5.9802e-05,-9.4873e-06,-71.284,0.61744
18519,11.226,2.5455,0,0.00061482,6143.9,0.00022286,240.32,0.00019087,-0.020399,-0.00061038,-6020.2,0.64877
18520,11.134,2.4545,0,0.00066191,6614.6,0.00024606,330.83,0.00020151,-3.8422,-0.00065572,-6444.7,0.63801
18521,11.134,2.5455,0.05,1.312e-05,131.11,1.0075e-05,75.698,-1.2717e-12,2.6893e-05,-1.0075e-05,-75.698,0.63819
18522,11.41,2.5455,0,0.00052894,5285.7,0.00017719,30.801,0.0001729,-1.446,-0.00052843,-5271,0.67015
18523,11.318,2.4545,0,0.00055757,5571.9,0.00019126,87.899,0.00017975,1.4151,-0.000556,-5526.7,0.65924
18524,11.318,2.5455,0.05,1.0902e-05,108.95,8.3715e-06,62.9,-2.3415e-12,1.2226e-05,-8.3715e-06,-62.9,0.65938
18525,11.594,2.5455,0,0.0004625,4621.8,0.00015824,1.2238,0.00014317,-111.98,-0.00046428,-4676.1,0.69188
18526,11.502,2.4545,0,0.00048125,4809.2,0.00016244,1.2882,0.00015277,-71.374,-0.0004824,-4843.8,0.68083
18527,11.502,2.5455,0.05,8.7928e-06,87.867,6.7518e-06,50.73,-1.6242e-12,7.3337e-06,-6.7518e-06,-50.73,0.68095
18528,11.778,2.5455,0,0.00041202,4117.3,0.00014576,0.84531,0.0001192,-198.7,-0.00041502,-4212.6,0.71392
18529,11.686,2.4545,0,0.00042539,4250.9,0.00014876,0.973,0.0001261,-169.3,-0.000428,-4332.5,0.70274
18530,11.686,2.5455,0.05,7.0675e-06,70.626,5.4269e-06,40.776,-3.9134e-12,1.0835e-06,-5.4269e-06,-40.776,0.70283
18531,11.961,2.5455,0,0.00037344,3731.8,0.0001354,0.62312,0.00010221,-248.76,-0.00037703,-3849.6,0.73623
18532,11.869,2.4545,0,0.00038357,3833.1,0.00013774,0.69656,0.00010737,-227.43,-0.00038692,-3941.4,0.72494
18533,11.869,2.5455,0.05,5.7588e-06,57.549,4.4221e-06,33.226,-2.8545e-12,-3.9358e-06,-4.4221e-06,-33.226,0.72501
18534,12.145,2.5455,0,0.00034354,3433,0.00012671,0.47654,9.0173e-05,-274.06,-0.00034737,-3561.6,0.7588
18535,12.053,2.4545,0,0.00035161,3513.7,0.00012865,0.5299,9.415e-05,-258.72,-0.00035529,-3635.6,0.7474
18536,12.053,2.5455,0.05,4.7539e-06,47.506,3.6504e-06,27.428,-3.4055e-12,-5.61e-06,-3.6504e-06,-27.428,0.74746
18537,12.329,2.5455,0,0.00032002,3198,0.00011934,0.36,8.1635e-05,-282.95,-0.00032388,-3329.9,0.7816
18538,12.237,2.4545,0,0.00032668,3264.6,0.00012104,0.40577,8.4767e-05,-272.11,-0.00033045,-3391.9,0.77009
18539,12.237,2.5455,0.05,3.9677e-06,39.649,3.0467e-06,22.892,-2.5426e-12,-3.1793e-06,-3.0467e-06,-22.891,0.77014
18540,12.513,2.5455,0,0.00030122,3010.1,0.00011302,0.2719,7.5572e-05,-281.13,-0.00030501,-3140.7,0.80462
18541,12.421,2.4545,0,0.00030688,3066.7,0.00011455,0.3092,7.8082e-05,-273.69,-0.00031061,-3194.2,0.79301
18542,12.421,2.5455,0.05,3.345e-06,33.427,2.5686e-06,19.299,-2.6419e-12,1.0387e-06,-2.5686e-06,-19.299,0.79306
18543,12.697,2.5455,0,0.00028595,2857.5,0.00010756,0.20465,7.1258e-05,-272.52,-0.0002896,-2983.9,0.82784
18544,12.605,2.4545,0,0.00029086,2906.6,0.00010896,0.23552,7.3301e-05,-267.66,-0.00029448,-3031,0.81614
18545,12.605,2.5455,0.05,2.849e-06,28.471,2.1877e-06,16.438,-2.7167e-12,-4.9795e-06,-2.1877e-06,-16.438,0.81618
18546,12.88,2.5455,0,0.00027333,2731.4,0.00010277,0.15379,6.8179e-05,-259.77,-0.00027682,-2852,0.85126
18547,12.788,2.4545,0,0.00027768,2774.8,0.00010408,0.1788,6.9867e-05,-256.85,-0.00028115,-2894.2,0.83947
18548,12.788,2.5455,0.05,2.4526e-06,24.509,1.8833e-06,14.15,-2.8806e-12,1.2841e-06,-1.8833e-06,-14.15,0.8395
18549,13.064,2.5455,0,0.00026273,2625.5,9.8547e-05,0.11548,6.5968e-05,-244.67,-0.00026603,-2739.2,0.87487
18550,12.972,2.4545,0,0.00026663,2664.5,9.9772e-05,0.13558,6.7382e-05,-243.23,-0.00026993,-2777.7,0.86298
18551,12.972,2.5455,0.05,2.1352e-06,21.337,1.6395e-06,12.319,-2.7223e-12,-8.3917e-06,-1.6395e-06,-12.319,0.86302
18552,13.248,2.5455,0,0.00025366,2534.8,9.4775e-05,0.086725,6.436e-05,-228.44,-0.00025677,-2641.3,0.89865
18553,13.156,2.4545,0,0.00025721,2570.4,9.5937e-05,0.1027,6.5564e-05,-228.11,-0.00026033,-2676.8,0.88668
18554,13.156,2.5455,0.05,1.8807e-06,18.794,1.4441e-06,10.85,-1.6092e-12,-6.136e-06,-1.4441e-06,-10.85,0.88671
18555,13.432,2.5455,0,0.00024576,2455.9,9.1374e-05,0.065261,6.3166e-05,-211.88,-0.00024867,-2554.9,0.92261
18556,13.34,2.4545,0,0.00024904,2488.6,9.2483e-05,0.077845,6.4207e-05,-212.38,-0.00025197,-2588,0.91056
18557,13.34,2.5455,0.05,1.6764e-06,16.752,1.2873e-06,9.6719,-1.8779e-12,-6.5242e-06,-1.2872e-06,-9.6719,0.91059
18558,13.616,2.5455,0,0.00023875,2385.8,8.8277e-05,0.049302,6.2248e-05,-195.52,-0.00024147,-2477.5,0.94674
18559,13.524,2.4545,0,0.00024181,2416.4,8.9342e-05,0.059166,6.3164e-05,-196.63,-0.00024455,-2508.7,0.9346
18560,13.524,2.5455,0.05,1.5123e-06,15.112,1.1612e-06,8.725,-3.1519e-12,-4.6846e-06,-1.1612e-06,-8.725,0.93463
18561,13.799,2.5455,0,0.00023242,2322.6,8.5429e-05,0.037469,6.151e-05,-179.68,-0.00023495,-2407.2,0.97103
18562,13.707,2.4545,0,0.0002353,2351.4,8.6458e-05,0.045166,6.2329e-05,-181.25,-0.00023786,-2436.7,0.95881
18563,13.707,2.5455,0.05,1.3802e-06,13.793,1.0599e-06,7.9633,-3.2295e-12,-3.9592e-06,-1.0598e-06,-7.9633,0.95884
18564,13.983,2.5455,0,0.00022661,2264.5,8.2788e-05,0.028729,6.0879e-05,-164.59,-0.00022896,-2342.3,0.99548
18565,13.891,2.4545,0,0.00022935,2291.9,8.3784e-05,0.034716,6.1624e-05,-166.47,-0.00023173,-2370.6,0.98318
18566,13.891,2.5455,0.05,1.2739e-06,12.73,9.7818e-07,7.3497,-1.4864e-12,-4.1097e-06,-9.7818e-07,-7.3497,0.98321
18567,14.167,2.5455,0,0.0002212,2210.4,8.0317e-05,0.022282,6.0305e-05,-150.34,-0.00022337,-2281.8,1.0201
18568,14.075,2.4545,0,0.00022382,2236.7,8.1286e-05,0.026948,6.0995e-05,-152.43,-0.00022603,-2309,1.0077
18569,14.075,2.5455,0.05,1.188e-06,11.872,9.1226e-07,6.8544,-2.0593e-12,-1.0969e-06,-9.1226e-07,-6.8543,1.0077
18570,14.351,2.5455,0,0.00021608,2159.4,7.7987e-05,0.017546,5.9753e-05,-136.99,-0.00021809,-2224.6,1.0448
18571,14.259,2.4545,0,0.00021862,2184.7,7.8933e-05,0.021159,6.0402e-05,-139.21,-0.00022066,-2251,1.0324
18572,14.259,2.5455,0.05,1.1185e-06,11.178,8.589e-07,6.4535,-2.0698e-12,-5.8838e-06,-8.589e-07,-6.4534,1.0324
18573,14.534,2.5455,0,0.0002112,2110.6,7.5776e-05,0.014127,5.9198e-05,-124.54,-0.00021304,-2170.1,1.0697
18574,14.443,2.4545,0,0.00021367,2135.2,7.6701e-05,0.016897,5.9817e-05,-126.84,-0.00021554,-2195.8,1.0572
18575,14.443,2.5455,0.05,1.0621e-06,10.614,8.1557e-07,6.1278,-1.6606e-12,-1.9642e-06,-8.1556e-07,-6.1278,1.0572
18576,14.718,2.5455,0,0.00020649,2063.5,7.3663e-05,0.011706,5.8625e-05,-112.98,-0.00020818,-2117.7,1.0948
18577,14.626,2.4545,0,0.0002089,2087.5,7.457e-05,0.013826,5.9222e-05,-115.31,-0.00021062,-2142.8,1.0822
18578,14.626,2.5455,0.05,1.0161e-06,10.154,7.8022e-07,5.8623,-1.7455e-12,-2.7546e-08,-7.8023e-07,-5.8623,1.0822
18579,14.902,2.5455,0,0.00020191,2017.7,7.1633e-05,0.010023,5.8021e-05,-102.27,-0.00020346,-2066.9,1.12
18580,14.81,2.4545,0,0.00020427,2041.3,7.2525e-05,0.011634,5.8603e-05,-104.59,-0.00020585,-2091.6,1.1073
18581,14.81,2.5455,0.05,9.7838e-07,9.777,7.5127e-07,5.6448,-1.7232e-12,2.1041e-07,-7.5127e-07,-5.6447,1.1073
18582,15.086,2.5455,0,0.00019743,1972.9,6.9674e-05,0.0088891,5.738e-05,-92.361,-0.00019884,-2017.5,1.1453
18583,14.994,2.4545,0,0.00019975,1996.1,7.0551e-05,0.010104,5.7953e-05,-94.649,-0.00020119,-2041.8,1.1326
18584,14.994,2.5455,0.05,9.473e-07,9.4665,7.2741e-07,5.4655,-1.722e-12,-1.1195e-06,-7.2741e-07,-5.4654,1.1326
18585,15.27,2.5455,0,0.00019302,1928.9,6.7774e-05,0.0081433,5.67e-05,-83.2,-0.0001943,-1969.1,1.1708
18586,15.178,2.4545,0,0.00019531,1951.7,6.8639e-05,0.0090674,5.7266e-05,-85.438,-0.00019662,-1993.1,1.158
18587,15.178,2.5455,0.05,9.2153e-07,9.2089,7.0762e-07,5.3168,-1.7329e-12,5.8455e-07,-7.0761e-07,-5.3167,1.158
18588,15.453,2.5455,0,0.00018867,1885.4,6.5926e-05,0.0076797,5.5979e-05,-74.731,-0.00018983,-1921.6,1.1963
18589,15.362,2.4545,0,0.00019093,1908,6.6779e-05,0.0083622,5.6542e-05,-76.907,-0.00019212,-1945.3,1.1835
18590,15.362,2.5455,0.05,8.9998e-07,8.9935,6.9107e-07,5.1925,-1.7739e-12,4.0402e-07,-6.9107e-07,-5.1924,1.1835
18591,15.637,2.5455,0,0.00018436,1842.3,6.4122e-05,0.0074587,5.5217e-05,-66.9,-0.0001854,-1874.8,1.2221
18592,15.545,2.4545,0,0.0001866,1864.7,6.4964e-05,0.0079309,5.5779e-05,-69.007,-0.00018767,-1898.2,1.2091
18593,15.545,2.5455,0.05,8.8179e-07,8.8119,6.7711e-07,5.0875,-8.8202e-13,1.5645e-07,-6.7711e-07,-5.0875,1.2092
18594,15.821,2.5455,0,0.00018008,1799.5,6.2356e-05,0.0074274,5.4416e-05,-59.651,-0.00018102,-1828.6,1.2479
18595,15.729,2.4545,0,0.0001823,1821.7,6.3188e-05,0.0077443,5.4977e-05,-61.685,-0.00018327,-1851.8,1.2349
18596,15.729,2.5455,0.05,8.6632e-07,8.6572,6.6523e-07,4.9983,-1.3391e-12,1.1084e-06,-6.6522e-07,-4.9982,1.2349
18597,16.005,2.5455,0,0.00017582,1757,6.0623e-05,0.0075285,5.3577e-05,-52.932,-0.00017666,-1782.8,1.2739
18598,15.913,2.4545,0,0.00017802,1779,6.1447e-05,0.0077209,5.414e-05,-54.893,-0.00017889,-1805.8,1.2608
18599,15.913,2.5455,0.05,8.5303e-07,8.5244,6.5502e-07,4.9216,-1.7887e-12,2.5975e-06,-6.5502e-07,-4.9215,1.2609
18600,16.189,2.5455,0,0.00017158,1714.6,5.892e-05,0.0077292,5.2704e-05,-46.694,-0.00017233,-1737.5,1.3
18601,16.097,2.4545,0,0.00017377,1736.5,5.9735e-05,0.0078251,5.3268e-05,-48.583,-0.00017455,-1760.3,1.2869
18602,16.097,2.5455,0.05,8.4149e-07,8.4091,6.4616e-07,4.855,-1.33e-12,3.5915e-06,-6.4616e-07,-4.855,1.2869
18603,16.372,2.5455,0,0.00016736,1672.4,5.7242e-05,0.0079842,5.1799e-05,-40.889,-0.00016802,-1692.5,1.3262
18604,16.281,2.4545,0,0.00016954,1694.2,5.8051e-05,0.0080203,5.2365e-05,-42.71,-0.00017022,-1715.2,1.313
18605,16.281,2.5455,0.05,8.3138e-07,8.3081,6.384e-07,4.7967,-1.3258e-12,3.1305e-06,-6.384e-07,-4.7966,1.313
18606,16.556,2.5455,0,0.00016315,1630.4,5.5588e-05,0.0082747,5.0865e-05,-35.475,-0.00016372,-1647.8,1.3525
18607,16.464,2.4545,0,0.00016532,1652,5.639e-05,0.0082497,5.1433e-05,-37.232,-0.00016592,-1670.3,1.3393
18608,16.464,2.5455,0.05,8.2242e-07,8.2185,6.3152e-07,4.745,-1.7902e-12,3.0864e-06,-6.3152e-07,-4.745,1.3393
18609,16.74,2.5455,0,0.00015895,1588.4,5.3955e-05,0.0086234,4.9906e-05,-30.411,-0.00015945,-1603.4,1.3789
18610,16.648,2.4545,0,0.00016111,1610,5.475e-05,0.008534,5.0475e-05,-32.109,-0.00016163,-1625.8,1.3656
18611,16.648,2.5455,0.05,8.1439e-07,8.1383,6.2535e-07,4.6987,-1.3406e-12,2.0863e-06,-6.2535e-07,-4.6986,1.3657
18612,16.924,2.5455,0,0.00015477,1546.6,5.234e-05,0.0090274,4.8924e-05,-25.658,-0.00015519,-1559.3,1.4054
18613,16.832,2.4545,0,0.00015691,1568.1,5.3129e-05,0.0088922,4.9494e-05,-27.304,-0.00015736,-1581.5,1.3921
18614,16.832,2.5455,0.05,8.0714e-07,8.0658,6.1978e-07,4.6568,-1.3492e-12,1.5409e-06,-6.1978e-07,-4.6568,1.3921
18615,17.108,2.5455,0,0.00015059,1504.9,5.0742e-05,0.0094711,4.7922e-05,-21.181,-0.00015094,-1515.4,1.4321
18616,17.016,2.4545,0,0.00015273,1526.2,5.1525e-05,0.009301,4.8492e-05,-22.783,-0.0001531,-1537.5,1.4187
18617,17.016,2.5455,0.05,8.0052e-07,7.9997,6.147e-07,4.6186,-1.3527e-12,1.9879e-06,-6.147e-07,-4.6186,1.4187
18618,17.291,2.5455,0,0.00014643,1463.3,4.9159e-05,0.0099524,4.6902e-05,-16.947,-0.00014671,-1471.7,1.4588
18619,17.2,2.4545,0,0.00014855,1484.5,4.9938e-05,0.0097553,4.7473e-05,-18.511,-0.00014886,-1493.7,1.4454
18620,17.2,2.5455,0.05,7.9444e-07,7.9389,6.1004e-07,4.5836,-1.3553e-12,2.4488e-06,-6.1003e-07,-4.5835,1.4454
18621,17.475,2.5455,0,0.00014228,1421.8,4.7591e-05,0.010464,4.5869e-05,-12.926,-0.00014249,-1428.2,1.4856
18622,17.383,2.4545,0,0.00014439,1442.9,4.8364e-05,0.01026,4.6439e-05,-14.46,-0.00014463,-1450.1,1.4722
18623,17.383,2.5455,0.05,7.8882e-07,7.8827,6.0571e-07,4.5511,-9.0588e-13,2.051e-06,-6.0571e-07,-4.5511,1.4722
18624,17.659,2.5455,0,0.00013814,1380.4,4.6035e-05,0.011029,4.4824e-05,-9.0874,-0.00013829,-1384.9,1.5126
18625,17.567,2.4545,0,0.00014024,1401.4,4.6804e-05,0.010809,4.5392e-05,-10.6,-0.00014042,-1406.7,1.4991
18626,17.567,2.5455,0.05,7.8358e-07,7.8303,6.0169e-07,4.5209,-4.5091e-13,3.3697e-06,-6.0169e-07,-4.5208,1.4991
18627,17.843,2.5455,0,0.00013401,1339.2,4.4492e-05,0.011774,4.3771e-05,-5.405,-0.0001341,-1341.9,1.5396
18628,17.751,2.4545,0,0.0001361,1360.1,4.5257e-05,0.011504,4.4336e-05,-6.9045,-0.00013622,-1363.5,1.526
18629,17.751,2.5455,0.05,7.7865e-07,7.7812,5.9791e-07,4.4925,-9.067e-13,2.2817e-06,-5.9791e-07,-4.4925,1.5261
18630,18.027,2.5455,0,0.0001299,1298.1,4.2959e-05,0.013529,4.271e-05,-1.8535,-0.00012993,-1299,1.5667
18631,17.935,2.4545,0,0.00013198,1318.9,4.372e-05,0.012766,4.3273e-05,-3.348,-0.00013204,-1320.5,1.5531
18632,17.935,2.5455,0.05,7.7402e-07,7.7348,5.9435e-07,4.4657,1.6078e-15,3.7777e-06,-5.9435e-07,-4.4657,1.5531
18633,18.21,2.5455,0,0.0001258,1257.1,4.1647e-05,1.5982,4.1435e-05,0.0099761,-0.00012577,-1256.3,1.5939
18634,18.119,2.4545,0,0.00012787,1277.8,4.221e-05,0.13711,4.2188e-05,-0.028519,-0.00012787,-1277.8,1.5803
18635,18.119,2.5455,0.05,7.6964e-07,7.6911,5.9099e-07,4.4405,-1.8184e-12,3.4175e-06,-5.9099e-07,-4.4404,1.5803
18636,18.394,2.5455,0,0.00012172,1216.3,4.0581e-05,4.9628,3.9922e-05,0.01206,-0.00012163,-1213.8,1.6212
18637,18.302,2.4545,0,0.00012378,1236.9,4.1134e-05,3.451,4.0676e-05,0.010861,-0.00012372,-1235.2,1.6075
18638,18.302,2.5455,0.05,7.655e-07,7.6497,5.8781e-07,4.4166,-1.3641e-12,2.6909e-06,-5.8781e-07,-4.4165,1.6076
18639,18.578,2.5455,0,0.00011765,1175.7,3.9516e-05,8.2699,3.8417e-05,0.012938,-0.00011751,-1171.6,1.6486
18640,18.486,2.4545,0,0.0001197,1196.2,4.0063e-05,6.7349,3.9168e-05,0.012156,-0.00011958,-1192.8,1.6349
18641,18.486,2.5455,0.05,7.6157e-07,7.6104,5.8479e-07,4.3939,-9.0988e-13,2.6801e-06,-5.8479e-07,-4.3938,1.6349
18642,18.762,2.5455,0,0.00011361,1135.3,3.8453e-05,11.541,3.6919e-05,0.013674,-0.00011341,-1129.5,1.6761
18643,18.67,2.4545,0,0.00011564,1155.6,3.8994e-05,9.9732,3.7668e-05,0.012985,-0.00011547,-1150.6,1.6623
18644,18.67,2.5455,0.05,7.5783e-07,7.5731,5.8192e-07,4.3723,-9.1069e-13,3.9822e-06,-5.8192e-07,-4.3723,1.6623
18645,18.946,2.5455,0,0.00010958,1095.1,3.7396e-05,14.797,3.5429e-05,0.014405,-0.00010933,-1087.6,1.7036
18646,18.854,2.4545,0,0.0001116,1115.3,3.7928e-05,13.187,3.6175e-05,0.013728,-0.00011137,-1108.6,1.6898
18647,18.854,2.5455,0.05,7.5428e-07,7.5376,5.7919e-07,4.3518,-9.1086e-13,3.4477e-06,-5.7919e-07,-4.3518,1.6898
18648,19.129,2.5455,0,0.00010558,1055.1,3.6346e-05,18.06,3.3944e-05,0.015167,-0.00010526,-1045.9,1.7312
18649,19.038,2.4545,0,0.00010759,1075.1,3.6869e-05,16.397,3.4689e-05,0.014485,-0.0001073,-1066.8,1.7173
18650,19.038,2.5455,0.05,7.509e-07,7.5038,5.766e-07,4.3323,-4.5358e-13,4.5395e-06,-5.766e-07,-4.3323,1.7174
18651,19.313,2.5455,0,0.0001016,1015.3,3.5305e-05,21.351,3.2466e-05,0.015968,-0.00010122,-1004.4,1.7589
18652,19.221,2.4545,0,0.00010359,1035.2,3.5819e-05,19.625,3.3209e-05,0.015269,-0.00010324,-1025.2,1.745
18653,19.221,2.5455,0.05,7.477e-07,7.4718,5.7414e-07,4.3139,-9.0555e-13,4.3197e-06,-5.7414e-07,-4.3139,1.745
18654,19.497,2.5455,0,9.7642e-05,975.74,3.4276e-05,24.691,3.0992e-05,0.01682,-9.7198e-05,-963.16,1.7866
18655,19.405,2.4545,0,9.9615e-05,995.46,3.4778e-05,22.89,3.1734e-05,0.016093,-9.9206e-05,-983.81,1.7727
18656,19.405,2.5455,0.05,7.4468e-07,7.4417,5.7182e-07,4.2965,5.7535e-15,6.2431e-06,-5.7182e-07,-4.2964,1.7727
18657,19.681,2.5455,0,9.3709e-05,936.45,3.3261e-05,28.101,2.9523e-05,0.017722,-9.3199e-05,-922.07,1.8144
18658,19.589,2.4545,0,9.5666e-05,956,3.375e-05,26.215,3.0264e-05,0.016971,-9.5193e-05,-942.61,1.8005
18659,19.589,2.5455,0.05,7.4184e-07,7.4133,5.6964e-07,4.2801,-4.4612e-13,8.6426e-06,-5.6964e-07,-4.28,1.8005
18660,19.865,2.5455,0,8.9804e-05,897.42,3.2261e-05,31.603,2.8058e-05,0.018682,-8.9224e-05,-881.19,1.8423
18661,19.773,2.4545,0,9.1742e-05,916.79,3.2737e-05,29.619,2.8798e-05,0.01789,-9.1202e-05,-901.61,1.8283
18662,19.773,2.5455,0.05,7.3919e-07,7.3868,5.6761e-07,4.2648,-9.0374e-13,7.9025e-06,-5.676e-07,-4.2647,1.8283
18663,20.048,2.5455,0,8.5926e-05,858.67,3.128e-05,35.218,2.6595e-05,0.019732,-8.5273e-05,-840.51,1.8702
18664,19.956,2.4545,0,8.7846e-05,877.86,3.1741e-05,33.124,2.7335e-05,0.018882,-8.7236e-05,-860.82,1.8562
18665,19.956,2.5455,0.05,7.3672e-07,7.3621,5.6571e-07,4.2505,-1.3578e-12,7.4301e-06,-5.6571e-07,-4.2505,1.8562
18666,20.232,2.5455,0,8.2079e-05,820.22,3.0318e-05,38.969,2.5135e-05,0.020885,-8.1346e-05,-800.03,1.8982
18667,20.14,2.4545,0,8.3979e-05,839.21,3.0763e-05,36.751,2.5874e-05,0.019978,-8.3293e-05,-820.22,1.8842
18668,20.14,2.5455,0.05,7.3445e-07,7.3394,5.6397e-07,4.2374,-9.05e-13,6.2262e-06,-5.6396e-07,-4.2374,1.8842
18669,20.416,2.5455,0,7.8263e-05,782.09,2.9379e-05,42.879,2.3676e-05,0.022152,-7.7445e-05,-759.76,1.9263
18670,20.324,2.4545,0,8.0142e-05,800.87,2.9807e-05,40.523,2.4416e-05,0.021178,-7.9376e-05,-779.83,1.9122
18671,20.324,2.5455,0.05,7.324e-07,7.3189,5.6239e-07,4.2256,-6.8115e-13,5.2385e-06,-5.6239e-07,-4.2256,1.9122
18672,20.6,2.5455,0,7.448e-05,744.29,2.8465e-05,46.969,2.2217e-05,0.023549,-7.357e-05,-719.68,1.9544
18673,20.508,2.4545,0,7.6338e-05,762.85,2.8873e-05,44.463,2.2959e-05,0.0225,-7.5484e-05,-739.64,1.9403
18674,20.508,2.5455,0.05,7.3058e-07,7.3008,5.61e-07,4.2151,-4.5576e-13,6.1896e-06,-5.61e-07,-4.2151,1.9403
18675,20.784,2.5455,0,7.0733e-05,706.84,2.7578e-05,51.264,2.0759e-05,0.025091,-6.9721e-05,-679.81,1.9825
18676,20.692,2.4545,0,7.2567e-05,725.17,2.7966e-05,48.593,2.1502e-05,0.023961,-7.1618e-05,-699.64,1.9684
18677,20.692,2.5455,0.05,7.2902e-07,7.2852,5.598e-07,4.2061,-9.1576e-13,8.0568e-06,-5.598e-07,-4.2061,1.9684
18678,20.967,2.5455,0,6.7024e-05,669.77,2.672e-05,55.788,1.9299e-05,0.026803,-6.59e-05,-640.12,2.0107
18679,20.875,2.4545,0,6.8833e-05,687.86,2.7086e-05,52.936,2.0044e-05,0.025573,-6.7779e-05,-659.85,1.9966
18680,20.875,2.5455,0.05,7.2774e-07,7.2723,5.5881e-07,4.1987,-6.8762e-13,8.0608e-06,-5.5881e-07,-4.1987,1.9966
18681,21.151,2.5455,0,6.3354e-05,633.1,2.5894e-05,60.564,1.7837e-05,0.028735,-6.2106e-05,-600.63,2.0389
18682,21.059,2.4545,0,6.5137e-05,650.92,2.6237e-05,57.518,1.8585e-05,0.027377,-6.3967e-05,-620.24,2.0248
18683,21.059,2.5455,0.05,7.2675e-07,7.2625,5.5806e-07,4.193,3.6126e-15,7.1773e-06,-5.5805e-07,-4.193,2.0248
18684,21.335,2.5455,0,5.9727e-05,596.86,2.5102e-05,65.619,1.6373e-05,0.030934,-5.8339e-05,-561.32,2.0672
18685,21.243,2.4545,0,6.1482e-05,614.4,2.542e-05,62.363,1.7124e-05,0.029432,-6.0183e-05,-580.83,2.053
18686,21.243,2.5455,0.05,7.261e-07,7.256,5.5756e-07,4.1893,-2.2982e-13,7.1438e-06,-5.5756e-07,-4.1893,2.0531
18687,21.519,2.5455,0,5.6146e-05,561.07,2.4346e-05,70.975,1.4904e-05,0.033453,-5.46e-05,-522.19,2.0955
18688,21.427,2.4545,0,5.7872e-05,578.32,2.4638e-05,67.496,1.5659e-05,0.031776,-5.6427e-05,-541.59,2.0813
18689,21.427,2.5455,0.05,7.2583e-07,7.2533,5.5735e-07,4.1877,-1.0835e-14,5.6333e-06,-5.5735e-07,-4.1877,2.0814
18690,21.703,2.5455,0,5.2614e-05,525.78,2.3627e-05,76.659,1.343e-05,0.036368,-5.0888e-05,-483.22,2.1239
18691,21.611,2.4545,0,5.4308e-05,542.71,2.3893e-05,72.942,1.419e-05,0.034474,-5.2698e-05,-502.53,2.1097
18692,21.611,2.5455,0.05,7.2598e-07,7.2548,5.5746e-07,4.1886,-2.4716e-13,7.4802e-06,-5.5746e-07,-4.1885,2.1097
18693,21.886,2.5455,0,4.9136e-05,491.02,2.2949e-05,82.694,1.1949e-05,0.03978,-4.7204e-05,-444.41,2.1523
18694,21.794,2.4545,0,5.0796e-05,507.61,2.3187e-05,78.725,1.2714e-05,0.037617,-4.8996e-05,-463.63,2.1381
18695,21.794,2.5455,0.05,7.2659e-07,7.2609,5.5793e-07,4.1921,-2.3747e-14,5.541e-06,-5.5793e-07,-4.1921,2.1381
18696,22.07,2.5455,0,4.5717e-05,456.86,2.2313e-05,89.102,1.046e-05,0.043835,-4.3545e-05,-405.73,2.1807
18697,21.978,2.4545,0,4.734e-05,473.08,2.2522e-05,84.872,1.1232e-05,0.041317,-4.5321e-05,-424.88,2.1665
18698,21.978,2.5455,0.05,7.2772e-07,7.2721,5.588e-07,4.1986,-3.0689e-14,1.6831e-06,-5.588e-07,-4.1986,2.1665
18699,22.254,2.5455,0,4.2365e-05,423.35,2.172e-05,95.906,8.9624e-06,0.048753,-3.991e-05,-367.16,2.2092
18700,22.162,2.4545,0,4.3947e-05,439.17,2.19e-05,91.404,9.7414e-06,0.045765,-4.1672e-05,-386.25,2.1949
18701,22.162,2.5455,0.05,7.2941e-07,7.2891,5.601e-07,4.2083,-3.1363e-14,3.5826e-06,-5.601e-07,-4.2083,2.1949
18702,22.438,2.5455,0,3.9087e-05,390.6,2.1172e-05,103.13,7.4539e-06,0.054865,-3.6298e-05,-328.68,2.2376
18703,22.346,2.4545,0,4.0624e-05,405.96,2.1323e-05,98.344,8.2408e-06,0.051211,-3.8047e-05,-347.74,2.2234
18704,22.346,2.5455,0.05,7.3173e-07,7.3122,5.6188e-07,4.2217,2.285e-13,2.8719e-06,-5.6188e-07,-4.2217,2.2234
18705,22.622,2.5455,0,3.5897e-05,358.73,2.0668e-05,110.78,5.9332e-06,0.062596,-3.2706e-05,-290.26,2.2661
18706,22.53,2.4545,0,3.7382e-05,373.56,2.079e-05,105.71,6.7288e-06,0.058083,-3.4444e-05,-309.3,2.2519
18707,22.53,2.5455,0.05,7.3473e-07,7.3422,5.6418e-07,4.239,4.5521e-13,5.7396e-06,-5.6418e-07,-4.239,2.2519
18708,22.805,2.5455,0,3.2811e-05,327.89,2.021e-05,118.87,4.3989e-06,0.072973,-2.9131e-05,-251.86,2.2947
18709,22.713,2.4545,0,3.4235e-05,342.12,2.0304e-05,113.52,5.204e-06,0.066833,-3.0861e-05,-270.91,2.2804
18710,22.713,2.5455,0.05,7.3846e-07,7.3795,5.6704e-07,4.2605,-1.4066e-14,5.6234e-06,-5.6704e-07,-4.2605,2.2804
18711,22.989,2.5455,0,2.9853e-05,298.33,1.9796e-05,127.42,2.8495e-06,0.086439,-2.557e-05,-213.44,2.3232
18712,22.897,2.4545,0,3.1203e-05,311.82,1.9864e-05,121.79,3.6649e-06,0.079117,-2.7293e-05,-232.53,2.3089
18713,22.897,2.5455,0.05,7.4296e-07,7.4245,5.705e-07,4.2865,-2.4475e-14,1.1243e-05,-5.705e-07,-4.2865,2.3089
18714,23.173,2.5455,0,2.7056e-05,270.38,1.9426e-05,136.42,1.2841e-06,0.10925,-2.2018e-05,-174.98,2.3518
18715,23.081,2.4545,0,2.8315e-05,282.95,1.9468e-05,130.52,2.1098e-06,0.094309,-2.3739e-05,-194.12,2.3375
18716,23.081,2.5455,0.05,7.4825e-07,7.4774,5.7456e-07,4.3171,6.488e-13,1.3094e-05,-5.7456e-07,-4.317,2.3375
18717,23.357,2.5455,0,2.4469e-05,244.52,1.9099e-05,145.88,-2.9935e-07,0.13242,-1.8473e-05,-136.42,2.3803
18718,23.265,2.4545,0,2.561e-05,255.92,1.9117e-05,139.72,5.3842e-07,0.12593,-2.0193e-05,-155.64,2.366
18719,23.265,2.5455,0.05,7.5435e-07,7.5383,5.7924e-07,4.3522,4.5999e-13,9.5855e-06,-5.7924e-07,-4.3522,2.366
18720,23.541,2.5455,0,2.216e-05,221.44,1.8811e-05,155.81,-1.8956e-06,0.22901,-1.4931e-05,-97.716,2.4089
18721,23.449,2.4545,0,2.3145e-05,231.29,1.8809e-05,149.38,-1.0528e-06,0.14375,-1.6652e-05,-117.06,2.3946
18722,23.449,2.5455,0.05,7.6119e-07,7.6066,5.845e-07,4.3917,9.133e-13,1.3391e-05,-5.845e-07,-4.3917,2.3946
18723,23.724,2.5455,0,2.022e-05,202.06,1.8561e-05,166.12,-3.5175e-06,0.22724,-1.1388e-05,-58.911,2.4375
18724,23.632,2.4545,0,2.1003e-05,209.89,1.854e-05,159.54,-2.6492e-06,0.32961,-1.3116e-05,-78.316,2.4232
18725,23.632,2.5455,0.05,7.688e-07,7.6827,5.9034e-07,4.4356,1.1364e-12,1.7151e-05,-5.9034e-07,-4.4356,2.4232
18726,23.816,2.4545,0,1.9289e-05,192.75,1.8308e-05,169.96,-4.2849e-06,0.208,-9.5802e-06,-39.579,2.4518
18727,23.816,2.5455,0.05,7.7862e-07,7.7809,5.9789e-07,4.4923,9.1368e-13,1.5282e-05,-5.9789e-07,-4.4923,2.4518
18728,23.908,2.5455,0,1.8836e-05,188.23,1.8362e-05,176.29,-5.0427e-06,0.43396,-8.064e-06,-22.266,2.4661
18729,11.042,2.3636,0,0.00074476,7442.4,0.00028896,515.84,0.00021883,-11.047,-0.00073477,-7176.1,0.62726
18730,10.95,2.2727,0,0.00084474,8441.5,0.00033562,682.5,0.00024335,-10.763,-0.00083117,-8084.3,0.61653
18731,10.95,2.3636,0.05,2.2119e-05,221.03,1.6984e-05,127.61,-2.9637e-12,6.9204e-05,-1.6984e-05,-127.61,0.61686
18732,11.226,2.3636,0,0.0006067,6062.8,0.00021634,192.56,0.0001904,-2.3648,-0.00060323,-5965.4,0.64834
18733,11.134,2.2727,0,0.00065073,6502.8,0.00023889,296.81,0.00020071,9.8738,-0.00064503,-6344.7,0.63746
18734,11.134,2.3636,0.05,1.749e-05,174.78,1.343e-05,100.91,-5.3593e-12,2.163e-05,-1.343e-05,-100.91,0.63772
18735,11.41,2.3636,0,0.00051086,5105.1,0.00016958,6.2986,0.00016749,-9.3729,-0.00051091,-5106.6,0.66981
18736,11.318,2.2727,0,0.0005331,5327.3,0.00018111,62.021,0.00017282,-0.19755,-0.00053202,-5296.1,0.6588
18737,11.318,2.3636,0.05,1.2566e-05,125.57,9.6491e-06,72.5,-3.6209e-12,8.7279e-06,-9.6491e-06,-72.5,0.659
18738,11.594,2.3636,0,0.00044454,4442.3,0.00015296,0.98969,0.0001361,-125.64,-0.00044652,-4503.3,0.6916
18739,11.502,2.2727,0,0.00045835,4580.4,0.0001552,2.5101,0.00014479,-75.706,-0.00045955,-4616.5,0.68047
18740,11.502,2.3636,0.05,8.8328e-06,88.267,6.7825e-06,50.961,-4.9274e-12,5.6804e-06,-6.7825e-06,-50.961,0.68063
18741,11.778,2.3636,0,0.00039709,3968.2,0.00014074,0.85068,0.00011443,-196.85,-0.00040006,-4062.5,0.71368
18742,11.686,2.2727,0,0.00040651,4062.3,0.00014209,0.78537,0.00012062,-160.51,-0.00040899,-4139.8,0.70245
18743,11.686,2.3636,0.05,6.7471e-06,67.424,5.1809e-06,38.928,-3.6469e-12,8.8685e-06,-5.1809e-06,-38.927,0.70258
18744,11.961,2.3636,0,0.0003618,3615.5,0.00013099,0.62222,9.9371e-05,-236.96,-0.00036524,-3727.9,0.73603
18745,11.869,2.2727,0,0.00036891,3686.5,0.00013205,0.82326,0.00010402,-209.76,-0.00037201,-3786.5,0.72469
18746,11.869,2.3636,0.05,5.3901e-06,53.863,4.1389e-06,31.098,-2.1432e-12,1.2132e-06,-4.1389e-06,-31.098,0.7248
18747,12.145,2.3636,0,0.00033477,3345.4,0.00012298,0.47185,8.8764e-05,-256.63,-0.00033839,-3466.1,0.75862
18748,12.053,2.2727,0,0.00034051,3402.7,0.00012391,0.54509,9.2407e-05,-236.13,-0.0003439,-3514.4,0.74718
18749,12.053,2.3636,0.05,4.4245e-06,44.214,3.3974e-06,25.527,-2.5009e-12,-4.7531e-07,-3.3974e-06,-25.527,0.74727
18750,12.329,2.3636,0,0.00031355,3133.3,0.00011625,0.3637,8.1219e-05,-262.81,-0.00031718,-3256.2,0.78144
18751,12.237,2.2727,0,0.00031843,3182.1,0.00011713,0.43298,8.4164e-05,-247.24,-0.00032191,-3298.3,0.7699
18752,12.237,2.3636,0.05,3.6972e-06,36.946,2.839e-06,21.331,-2.3826e-12,7.1546e-06,-2.839e-06,-21.331,0.76997
18753,12.513,2.3636,0,0.00029652,2963.2,0.00011048,0.27897,7.5812e-05,-260.21,-0.00030008,-3084.5,0.80447
18754,12.421,2.2727,0,0.00030084,3006.3,0.00011135,0.3279,7.8253e-05,-248.35,-0.00030428,-3122.6,0.79283
18755,12.421,2.3636,0.05,3.1309e-06,31.288,2.4042e-06,18.064,-2.3357e-12,-6.1553e-06,-2.4042e-06,-18.064,0.7929
18756,12.697,2.3636,0,0.00028259,2824,0.00010548,0.21409,7.1909e-05,-251.99,-0.00028603,-2941.4,0.8277
18757,12.605,2.2727,0,0.0002865,2863,0.00010635,0.25328,7.3973e-05,-242.98,-0.00028985,-2976.6,0.81597
18758,12.605,2.3636,0.05,2.6819e-06,26.801,2.0594e-06,15.473,-1.988e-12,7.5462e-07,-2.0594e-06,-15.473,0.81603
18759,12.88,2.3636,0,0.00027098,2707.9,0.00010108,0.16382,6.907e-05,-240.31,-0.00027426,-2820,0.85113
18760,12.788,2.2727,0,0.00027458,2743.9,0.00010195,0.19443,7.0842e-05,-233.54,-0.0002778,-2853.1,0.83931
18761,12.788,2.3636,0.05,2.3226e-06,23.21,1.7835e-06,13.4,-2.0058e-12,-6.1172e-06,-1.7835e-06,-13.4,0.83936
18762,13.064,2.3636,0,0.00026112,2609.4,9.7163e-05,0.1252,6.6978e-05,-226.67,-0.00026423,-2715.2,0.87474
18763,12.972,2.2727,0,0.00026448,2643,9.8041e-05,0.14944,6.8519e-05,-221.66,-0.00026755,-2746.8,0.86283
18764,12.972,2.3636,0.05,2.0337e-06,20.323,1.5617e-06,11.734,-2.5556e-12,5.1848e-06,-1.5616e-06,-11.734,0.86288
18765,13.248,2.3636,0,0.00025259,2524.2,9.3646e-05,0.095613,6.5411e-05,-212.05,-0.00025553,-2623.5,0.89853
18766,13.156,2.2727,0,0.00025576,2555.9,9.4526e-05,0.1147,6.6767e-05,-208.46,-0.00025867,-2653.6,0.88653
18767,13.156,2.3636,0.05,1.8011e-06,17.998,1.383e-06,10.391,-6.026e-13,-1.5992e-07,-1.383e-06,-10.391,0.88659
18768,13.432,2.3636,0,0.00024509,2449.2,9.0452e-05,0.073097,6.4206e-05,-197.13,-0.00024784,-2541.7,0.92249
18769,13.34,2.2727,0,0.0002481,2479.2,9.1332e-05,0.088085,6.5411e-05,-194.67,-0.00025083,-2570.8,0.91041
18770,13.34,2.3636,0.05,1.6135e-06,16.124,1.239e-06,9.309,-1.9488e-12,-2.2419e-06,-1.239e-06,-9.309,0.91046
18771,13.616,2.3636,0,0.00023836,2382,8.7523e-05,0.056048,6.3245e-05,-182.36,-0.00024094,-2467.9,0.94662
18772,13.524,2.2727,0,0.00024124,2410.7,8.8402e-05,0.067799,6.4328e-05,-180.81,-0.0002438,-2496,0.93446
18773,13.524,2.3636,0.05,1.4622e-06,14.612,1.1228e-06,8.4362,-1.3503e-12,-9.3398e-06,-1.1228e-06,-8.4362,0.93451
18774,13.799,2.3636,0,0.00023223,2320.7,8.4813e-05,0.043186,6.2444e-05,-168.03,-0.00023463,-2400.2,0.97091
18775,13.707,2.2727,0,0.000235,2348.4,8.5689e-05,0.052382,6.3428e-05,-167.21,-0.0002374,-2427.5,0.95867
18776,13.707,2.3636,0.05,1.3402e-06,13.392,1.0291e-06,7.7321,-2.2697e-12,-3.7812e-06,-1.0291e-06,-7.732,0.95872
18777,13.983,2.3636,0,0.00022657,2264.1,8.2283e-05,0.033524,6.1741e-05,-154.31,-0.0002288,-2337.3,0.99536
18778,13.891,2.2727,0,0.00022924,2290.8,8.3155e-05,0.04071,6.2645e-05,-154.06,-0.00023147,-2363.9,0.98304
18779,13.891,2.3636,0.05,1.2416e-06,12.408,9.5342e-07,7.1636,-3.2471e-12,-5.33e-06,-9.5341e-07,-7.1636,0.98309
18780,14.167,2.3636,0,0.00022125,2211,7.9903e-05,0.026274,6.1093e-05,-141.3,-0.00022332,-2278.2,1.02
18781,14.075,2.2727,0,0.00022384,2236.9,8.077e-05,0.031905,6.1931e-05,-141.51,-0.00022591,-2304.3,1.0076
18782,14.075,2.3636,0.05,1.162e-06,11.612,8.9226e-07,6.7041,-2.282e-12,-2.7696e-06,-8.9226e-07,-6.7041,1.0076
18783,14.351,2.3636,0,0.0002162,2160.6,7.7647e-05,0.020854,6.0467e-05,-129.06,-0.00021811,-2222.2,1.0447
18784,14.259,2.2727,0,0.00021873,2185.8,7.8509e-05,0.025247,6.1253e-05,-129.63,-0.00022065,-2247.7,1.0323
18785,14.259,2.3636,0.05,1.0975e-06,10.967,8.4273e-07,6.3319,-1.9982e-12,-5.1439e-07,-8.4272e-07,-6.3319,1.0323
18786,14.534,2.3636,0,0.00021136,2112.2,7.5495e-05,0.016859,5.9841e-05,-117.61,-0.00021312,-2168.5,1.0696
18787,14.443,2.2727,0,0.00021383,2136.8,7.6352e-05,0.02026,6.0586e-05,-118.44,-0.0002156,-2193.6,1.0571
18788,14.443,2.3636,0.05,1.045e-06,10.443,8.0247e-07,6.0294,-1.6161e-12,-2.9451e-06,-8.0246e-07,-6.0294,1.0571
18789,14.718,2.3636,0,0.00020668,2065.3,7.3432e-05,0.013954,5.92e-05,-106.91,-0.00020829,-2116.7,1.0947
18790,14.626,2.2727,0,0.0002091,2089.5,7.4282e-05,0.016588,5.9912e-05,-107.95,-0.00021073,-2141.4,1.0821
18791,14.626,2.3636,0.05,1.0023e-06,10.016,7.6962e-07,5.7826,-1.6675e-12,-9.6518e-07,-7.6961e-07,-5.7826,1.0821
18792,14.902,2.3636,0,0.00020211,2019.7,7.1442e-05,0.011868,5.8535e-05,-96.964,-0.00020358,-2066.4,1.1199
18793,14.81,2.2727,0,0.00020449,2043.5,7.2286e-05,0.013899,5.9222e-05,-98.15,-0.00020598,-2090.8,1.1072
18794,14.81,2.3636,0.05,9.6719e-07,9.6652,7.4268e-07,5.5802,-1.6809e-12,-2.7247e-07,-7.4268e-07,-5.5802,1.1072
18795,15.086,2.3636,0,0.00019763,1974.9,6.9515e-05,0.010399,5.7839e-05,-87.719,-0.00019898,-2017.3,1.1452
18796,14.994,2.2727,0,0.00019998,1998.4,7.0354e-05,0.011956,5.8505e-05,-89.011,-0.00020134,-2041.4,1.1324
18797,14.994,2.3636,0.05,9.3825e-07,9.376,7.2046e-07,5.4133,-1.6801e-12,6.9446e-08,-7.2046e-07,-5.4132,1.1325
18798,15.27,2.3636,0,0.00019322,1930.9,6.7643e-05,0.0093742,5.7109e-05,-79.138,-0.00019444,-1969.2,1.1706
18799,15.178,2.2727,0,0.00019554,1954,6.8475e-05,0.010578,5.7759e-05,-80.501,-0.00019678,-1993,1.1578
18800,15.178,2.3636,0.05,9.1421e-07,9.1358,7.02e-07,5.2746,-8.1652e-13,-2.3236e-07,-7.02e-07,-5.2745,1.1579
18801,15.453,2.3636,0,0.00018886,1887.3,6.5816e-05,0.0086789,5.6343e-05,-71.175,-0.00018997,-1921.9,1.1962
18802,15.362,2.2727,0,0.00019115,1910.2,6.6642e-05,0.0095901,5.6981e-05,-72.582,-0.00019228,-1945.5,1.1834
18803,15.362,2.3636,0.05,8.9406e-07,8.9344,6.8653e-07,5.1583,-1.3081e-12,3.8055e-07,-6.8652e-07,-5.1583,1.1834
18804,15.637,2.3636,0,0.00018454,1844.1,6.403e-05,0.0082645,5.554e-05,-63.783,-0.00018554,-1875.2,1.222
18805,15.545,2.2727,0,0.00018681,1866.8,6.485e-05,0.0089235,5.617e-05,-65.213,-0.00018783,-1898.6,1.209
18806,15.545,2.3636,0.05,8.7701e-07,8.7641,6.7344e-07,5.06,-1.7969e-12,3.0397e-07,-6.7344e-07,-5.0599,1.2091
18807,15.821,2.3636,0,0.00018025,1801.2,6.2279e-05,0.0080719,5.4703e-05,-56.917,-0.00018115,-1829,1.2478
18808,15.729,2.2727,0,0.0001825,1823.8,6.3093e-05,0.0085404,5.5326e-05,-58.356,-0.00018342,-1852.2,1.2348
18809,15.729,2.3636,0.05,8.6245e-07,8.6186,6.6226e-07,4.976,-1.7918e-12,1.1779e-06,-6.6225e-07,-4.9759,1.2348
18810,16.005,2.3636,0,0.00017598,1758.6,6.0559e-05,0.0080407,5.3833e-05,-50.533,-0.00017679,-1783.3,1.2738
18811,15.913,2.2727,0,0.00017822,1780.9,6.1368e-05,0.0083549,5.445e-05,-51.968,-0.00017904,-1806.3,1.2607
18812,15.913,2.3636,0.05,8.499e-07,8.4931,6.5262e-07,4.9035,-8.6872e-13,3.1313e-06,-6.5261e-07,-4.9035,1.2607
18813,16.189,2.3636,0,0.00017173,1716.1,5.8866e-05,0.0081306,5.2931e-05,-44.587,-0.00017245,-1738,1.2999
18814,16.097,2.2727,0,0.00017395,1738.3,5.9669e-05,0.0083242,5.3544e-05,-46.012,-0.00017469,-1760.9,1.2867
18815,16.097,2.3636,0.05,8.3895e-07,8.3837,6.4421e-07,4.8404,-1.3165e-12,3.7291e-06,-6.4421e-07,-4.8403,1.2868
18816,16.372,2.3636,0,0.0001675,1673.8,5.7198e-05,0.0082933,5.2001e-05,-39.039,-0.00016813,-1693,1.3261
18817,16.281,2.2727,0,0.00016971,1695.9,5.7995e-05,0.0084069,5.2611e-05,-40.45,-0.00017036,-1715.7,1.3129
18818,16.281,2.3636,0.05,8.2932e-07,8.2875,6.3682e-07,4.7848,-8.5312e-13,3.6775e-06,-6.3681e-07,-4.7848,1.3129
18819,16.556,2.3636,0,0.00016328,1631.7,5.5551e-05,0.0085108,5.1045e-05,-33.851,-0.00016383,-1648.3,1.3524
18820,16.464,2.2727,0,0.00016547,1653.6,5.6343e-05,0.0085464,5.1651e-05,-35.245,-0.00016604,-1670.9,1.3391
18821,16.464,2.3636,0.05,8.2074e-07,8.2017,6.3023e-07,4.7353,-4.1212e-13,3.1804e-06,-6.3023e-07,-4.7353,1.3392
18822,16.74,2.3636,0,0.00015907,1589.6,5.3924e-05,0.0088001,5.0065e-05,-28.986,-0.00015955,-1603.9,1.3788
18823,16.648,2.2727,0,0.00016125,1611.4,5.4711e-05,0.0087561,5.0669e-05,-30.364,-0.00016175,-1626.4,1.3655
18824,16.648,2.3636,0.05,8.1302e-07,8.1246,6.243e-07,4.6907,-1.7901e-12,2.3591e-06,-6.243e-07,-4.6907,1.3656
18825,16.924,2.3636,0,0.00015488,1547.7,5.2314e-05,0.0091595,4.9064e-05,-24.411,-0.00015528,-1559.8,1.4053
18826,16.832,2.2727,0,0.00015705,1569.4,5.3097e-05,0.009059,4.9666e-05,-25.774,-0.00015747,-1582.1,1.392
18827,16.832,2.3636,0.05,8.06e-07,8.0545,6.1891e-07,4.6503,-1.3401e-12,1.3381e-06,-6.1891e-07,-4.6502,1.392
18828,17.108,2.3636,0,0.00015069,1505.9,5.0721e-05,0.0095756,4.8046e-05,-20.094,-0.00015102,-1515.8,1.432
18829,17.016,2.2727,0,0.00015285,1527.4,5.1499e-05,0.0094294,4.8644e-05,-21.444,-0.0001532,-1538,1.4186
18830,17.016,2.3636,0.05,7.9958e-07,7.9903,6.1398e-07,4.6132,-8.9619e-13,2.4951e-06,-6.1398e-07,-4.6132,1.4186
18831,17.291,2.3636,0,0.00014652,1464.2,4.9143e-05,0.01005,4.7012e-05,-16.004,-0.00014678,-1472.1,1.4587
18832,17.2,2.2727,0,0.00014866,1485.6,4.9917e-05,0.0098676,4.7607e-05,-17.345,-0.00014895,-1494.2,1.4453
18833,17.2,2.3636,0.05,7.9366e-07,7.9311,6.0943e-07,4.579,-1.3553e-12,2.4558e-06,-6.0943e-07,-4.579,1.4453
18834,17.475,2.3636,0,0.00014236,1422.6,4.7578e-05,0.010587,4.5964e-05,-12.113,-0.00014256,-1428.6,1.4856
18835,17.383,2.2727,0,0.00014449,1443.9,4.8348e-05,0.010388,4.6556e-05,-13.451,-0.00014472,-1450.6,1.4721
18836,17.383,2.3636,0.05,7.8816e-07,7.8761,6.0521e-07,4.5473,-1.3603e-12,2.0599e-06,-6.052e-07,-4.5473,1.4721
18837,17.659,2.3636,0,0.00013821,1381.2,4.6026e-05,0.011243,4.4907e-05,-8.3951,-0.00013835,-1385.3,1.5125
18838,17.567,2.2727,0,0.00014033,1402.3,4.6792e-05,0.011009,4.5495e-05,-9.734,-0.00014049,-1407.2,1.499
18839,17.567,2.3636,0.05,7.8301e-07,7.8247,6.0126e-07,4.5176,-9.0426e-13,3.2564e-06,-6.0125e-07,-4.5176,1.499
18840,17.843,2.3636,0,0.00013408,1339.8,4.4485e-05,0.012284,4.3841e-05,-4.8242,-0.00013416,-1342.2,1.5395
18841,17.751,2.2727,0,0.00013618,1360.9,4.5247e-05,0.011926,4.4424e-05,-6.1709,-0.00013629,-1364,1.5259
18842,17.751,2.3636,0.05,7.7817e-07,7.7763,5.9754e-07,4.4897,-9.0562e-13,2.5913e-06,-5.9753e-07,-4.4896,1.526
18843,18.027,2.3636,0,0.00012996,1298.7,4.2955e-05,0.016248,4.2769e-05,-1.3789,-0.00012998,-1299.3,1.5666
18844,17.935,2.2727,0,0.00013205,1319.6,4.3714e-05,0.014153,4.3348e-05,-2.7386,-0.0001321,-1321,1.553
18845,17.935,2.3636,0.05,7.7359e-07,7.7306,5.9402e-07,4.4633,-9.0796e-13,3.7685e-06,-5.9402e-07,-4.4632,1.5531
18846,18.21,2.3636,0,0.00012585,1257.6,4.1696e-05,1.9788,4.1434e-05,0.0084294,-0.00012582,-1256.6,1.5939
18847,18.119,2.2727,0,0.00012793,1278.5,4.2269e-05,0.60677,4.2188e-05,-0.0033825,-0.00012792,-1278.2,1.5802
18848,18.119,2.3636,0.05,7.6926e-07,7.6873,5.907e-07,4.4383,-4.5363e-13,3.4492e-06,-5.907e-07,-4.4383,1.5802
18849,18.394,2.3636,0,0.00012176,1216.8,4.062e-05,5.2487,3.9922e-05,0.011131,-0.00012167,-1214.2,1.6212
18850,18.302,2.2727,0,0.00012383,1237.5,4.1185e-05,3.8366,4.0676e-05,0.0096315,-0.00012377,-1235.5,1.6074
18851,18.302,2.3636,0.05,7.6516e-07,7.6463,5.8755e-07,4.4146,-9.0933e-13,2.8624e-06,-5.8755e-07,-4.4146,1.6075
18852,18.578,2.3636,0,0.00011769,1176.1,3.9544e-05,8.4648,3.8419e-05,0.01219,-0.00011755,-1171.8,1.6485
18853,18.486,2.2727,0,0.00011975,1196.7,4.0102e-05,7.014,3.917e-05,0.011221,-0.00011963,-1193.1,1.6348
18854,18.486,2.3636,0.05,7.6126e-07,7.6073,5.8455e-07,4.3921,-9.0987e-13,3.0358e-06,-5.8455e-07,-4.3921,1.6348
18855,18.762,2.3636,0,0.00011364,1135.6,3.8472e-05,11.647,3.6924e-05,0.012996,-0.00011344,-1129.7,1.676
18856,18.67,2.2727,0,0.00011568,1156,3.9022e-05,10.149,3.7672e-05,0.012163,-0.00011551,-1150.9,1.6622
18857,18.67,2.3636,0.05,7.5755e-07,7.5702,5.817e-07,4.3707,-1.8204e-12,4.5158e-06,-5.817e-07,-4.3706,1.6622
18858,18.946,2.3636,0,0.00010961,1095.3,3.7405e-05,14.815,3.5435e-05,0.013755,-0.00010935,-1087.8,1.7035
18859,18.854,2.2727,0,0.00011164,1115.6,3.7945e-05,13.261,3.6182e-05,0.012953,-0.0001114,-1108.9,1.6897
18860,18.854,2.3636,0.05,7.5401e-07,7.5349,5.7898e-07,4.3503,-1.3658e-12,3.4438e-06,-5.7898e-07,-4.3502,1.6897
18861,19.129,2.3636,0,0.0001056,1055.2,3.6346e-05,17.991,3.3953e-05,0.01453,-0.00010528,-1046.1,1.7311
18862,19.038,2.2727,0,0.00010761,1075.3,3.6875e-05,16.37,3.4698e-05,0.01373,-0.00010732,-1067.1,1.7173
18863,19.038,2.3636,0.05,7.5064e-07,7.5012,5.764e-07,4.3308,-4.5357e-13,4.7806e-06,-5.764e-07,-4.3308,1.7173
18864,19.313,2.3636,0,0.00010161,1015.4,3.5295e-05,21.193,3.2477e-05,0.015332,-0.00010123,-1004.6,1.7588
18865,19.221,2.2727,0,0.0001036,1035.3,3.5813e-05,19.496,3.322e-05,0.014516,-0.00010326,-1025.4,1.7449
18866,19.221,2.3636,0.05,7.4745e-07,7.4693,5.7395e-07,4.3124,-9.0442e-13,4.8056e-06,-5.7395e-07,-4.3124,1.7449
18867,19.497,2.3636,0,9.7643e-05,975.76,3.4256e-05,24.444,3.1005e-05,0.016178,-9.7204e-05,-963.3,1.7865
18868,19.405,2.2727,0,9.9622e-05,995.53,3.4761e-05,22.659,3.1748e-05,0.015337,-9.9217e-05,-984,1.7726
18869,19.405,2.3636,0.05,7.4443e-07,7.4392,5.7163e-07,4.295,8.3324e-15,6.2632e-06,-5.7163e-07,-4.295,1.7726
18870,19.681,2.3636,0,9.3703e-05,936.38,3.3231e-05,27.762,2.9538e-05,0.01707,-9.3199e-05,-922.18,1.8144
18871,19.589,2.2727,0,9.5664e-05,955.98,3.3722e-05,25.879,3.028e-05,0.016204,-9.5197e-05,-942.77,1.8004
18872,19.589,2.3636,0.05,7.4159e-07,7.4108,5.6945e-07,4.2787,-4.4309e-13,9.1529e-06,-5.6945e-07,-4.2786,1.8004
18873,19.865,2.3636,0,8.9789e-05,897.27,3.2221e-05,31.169,2.8075e-05,0.018018,-8.9218e-05,-881.27,1.8422
18874,19.773,2.2727,0,9.1731e-05,916.68,3.2697e-05,29.175,2.8816e-05,0.01711,-9.12e-05,-901.73,1.8282
18875,19.773,2.3636,0.05,7.3894e-07,7.3843,5.6741e-07,4.2633,-4.4703e-13,8.1718e-06,-5.6741e-07,-4.2633,1.8283
18876,20.048,2.3636,0,8.5903e-05,858.44,3.1228e-05,34.687,2.6614e-05,0.019052,-8.526e-05,-840.56,1.8702
18877,19.956,2.2727,0,8.7825e-05,877.65,3.1688e-05,32.568,2.7356e-05,0.018085,-8.7225e-05,-860.9,1.8561
18878,19.956,2.3636,0.05,7.3646e-07,7.3595,5.6551e-07,4.249,-4.4549e-13,8.1644e-06,-5.6551e-07,-4.249,1.8562
18879,20.232,2.3636,0,8.2046e-05,819.9,3.0255e-05,38.335,2.5156e-05,0.020189,-8.1327e-05,-800.05,1.8982
18880,20.14,2.2727,0,8.3948e-05,838.9,3.0697e-05,36.08,2.5898e-05,0.019161,-8.3275e-05,-820.27,1.8841
18881,20.14,2.3636,0.05,7.3418e-07,7.3367,5.6376e-07,4.2359,-4.4931e-13,7.6733e-06,-5.6376e-07,-4.2358,1.8841
18882,20.416,2.3636,0,7.8221e-05,781.67,2.9305e-05,42.138,2.3699e-05,0.021438,-7.7419e-05,-759.74,1.9262
18883,20.324,2.2727,0,8.01e-05,800.45,2.9727e-05,39.731,2.4442e-05,0.020339,-7.935e-05,-779.83,1.9121
18884,20.324,2.3636,0.05,7.3211e-07,7.3161,5.6217e-07,4.224,-2.2523e-13,6.2124e-06,-5.6217e-07,-4.2239,1.9122
18885,20.6,2.3636,0,7.4428e-05,743.77,2.8378e-05,46.116,2.2244e-05,0.022817,-7.3536e-05,-719.63,1.9543
18886,20.508,2.2727,0,7.6284e-05,762.32,2.878e-05,43.544,2.2988e-05,0.021639,-7.545e-05,-739.6,1.9402
18887,20.508,2.3636,0.05,7.3027e-07,7.2977,5.6076e-07,4.2134,-2.2771e-13,6.6899e-06,-5.6076e-07,-4.2133,1.9402
18888,20.784,2.3636,0,7.067e-05,706.22,2.7478e-05,50.295,2.0788e-05,0.02434,-6.968e-05,-679.71,1.9824
18889,20.692,2.2727,0,7.2502e-05,724.52,2.7858e-05,47.541,2.1534e-05,0.023079,-7.1575e-05,-699.56,1.9683
18890,20.692,2.3636,0.05,7.2869e-07,7.2818,5.5954e-07,4.2042,-6.9162e-13,8.5242e-06,-5.5954e-07,-4.2041,1.9684
18891,20.967,2.3636,0,6.695e-05,669.03,2.6607e-05,54.696,1.9331e-05,0.026038,-6.5851e-05,-640,2.0106
18892,20.875,2.2727,0,6.8755e-05,687.07,2.6963e-05,51.746,2.008e-05,0.024667,-6.7728e-05,-659.73,1.9965
18893,20.875,2.3636,0.05,7.2737e-07,7.2687,5.5853e-07,4.1966,-8.9172e-15,8.0986e-06,-5.5853e-07,-4.1966,1.9965
18894,21.151,2.3636,0,6.3268e-05,632.25,2.5767e-05,59.346,1.7872e-05,0.027948,-6.2049e-05,-600.47,2.0389
18895,21.059,2.2727,0,6.5045e-05,650.01,2.6098e-05,56.183,1.8624e-05,0.02645,-6.3907e-05,-620.08,2.0247
18896,21.059,2.3636,0.05,7.2635e-07,7.2585,5.5775e-07,4.1907,-2.2583e-13,7.1965e-06,-5.5774e-07,-4.1907,2.0247
18897,21.335,2.3636,0,5.9629e-05,595.88,2.496e-05,64.268,1.6411e-05,0.030131,-5.8275e-05,-561.13,2.0672
18898,21.243,2.2727,0,6.1377e-05,613.34,2.5265e-05,60.876,1.7166e-05,0.028482,-6.0114e-05,-580.62,2.053
18899,21.243,2.3636,0.05,7.2565e-07,7.2515,5.5721e-07,4.1867,-2.2537e-13,7.6079e-06,-5.5721e-07,-4.1867,2.053
18900,21.519,2.3636,0,5.6035e-05,559.96,2.4189e-05,69.489,1.4945e-05,0.032633,-5.4528e-05,-521.96,2.0955
18901,21.427,2.2727,0,5.7751e-05,577.11,2.4466e-05,65.852,1.5705e-05,0.030802,-5.6348e-05,-541.35,2.0813
18902,21.427,2.3636,0.05,7.2533e-07,7.2483,5.5696e-07,4.1848,-2.4167e-13,7.0751e-06,-5.5696e-07,-4.1848,2.0813
18903,21.703,2.3636,0,5.249e-05,524.54,2.3456e-05,75.033,1.3475e-05,0.035531,-5.0809e-05,-482.97,2.1238
18904,21.611,2.2727,0,5.4172e-05,541.35,2.3703e-05,71.136,1.424e-05,0.03348,-5.261e-05,-502.25,2.1096
18905,21.611,2.3636,0.05,7.2542e-07,7.2492,5.5703e-07,4.1853,-2.7061e-14,8.3678e-06,-5.5703e-07,-4.1853,2.1096
18906,21.886,2.3636,0,4.8999e-05,489.65,2.2763e-05,80.927,1.1998e-05,0.038925,-4.7117e-05,-444.13,2.1522
18907,21.794,2.2727,0,5.0645e-05,506.1,2.298e-05,76.755,1.2769e-05,0.036601,-4.89e-05,-463.32,2.138
18908,21.794,2.3636,0.05,7.2596e-07,7.2546,5.5745e-07,4.1885,-3.0689e-14,5.4744e-06,-5.5745e-07,-4.1884,2.138
18909,22.07,2.3636,0,4.5566e-05,455.35,2.2113e-05,87.196,1.0513e-05,0.042965,-4.3452e-05,-405.43,2.1807
18910,21.978,2.2727,0,4.7173e-05,471.4,2.2297e-05,82.735,1.1291e-05,0.04028,-4.5217e-05,-424.54,2.1664
18911,21.978,2.3636,0.05,7.2702e-07,7.2652,5.5826e-07,4.1946,-4.3457e-14,2.5372e-06,-5.5826e-07,-4.1945,2.1664
18912,22.254,2.3636,0,4.22e-05,421.71,2.1506e-05,93.862,9.0197e-06,0.047864,-3.9812e-05,-366.85,2.2091
18913,22.162,2.2727,0,4.3763e-05,437.33,2.1658e-05,89.102,9.8056e-06,0.044707,-4.1561e-05,-385.9,2.1949
18914,22.162,2.3636,0.05,7.2864e-07,7.2814,5.5951e-07,4.2039,-4.6189e-14,5.4041e-06,-5.5951e-07,-4.2039,2.1949
18915,22.438,2.3636,0,3.8909e-05,388.82,2.0944e-05,100.95,7.5157e-06,0.053952,-3.6196e-05,-328.38,2.2376
18916,22.346,2.2727,0,4.0424e-05,403.96,2.1065e-05,95.881,8.3101e-06,0.050126,-3.793e-05,-347.38,2.2233
18917,22.346,2.3636,0.05,7.3089e-07,7.3039,5.6124e-07,4.2169,2.8248e-15,4.789e-06,-5.6124e-07,-4.2169,2.2233
18918,22.622,2.3636,0,3.5706e-05,356.81,2.0428e-05,108.48,5.9995e-06,0.061653,-3.2601e-05,-289.97,2.2661
18919,22.53,2.2727,0,3.7166e-05,371.4,2.0517e-05,103.1,6.8035e-06,0.056966,-3.4322e-05,-308.95,2.2518
18920,22.53,2.3636,0.05,7.3384e-07,7.3334,5.635e-07,4.2339,2.2809e-13,6.7069e-06,-5.635e-07,-4.2339,2.2518
18921,22.805,2.3636,0,3.2606e-05,325.84,1.996e-05,116.46,4.4698e-06,0.071983,-2.9025e-05,-251.59,2.2946
18922,22.713,2.2727,0,3.4003e-05,339.8,2.0017e-05,110.76,5.2841e-06,0.06567,-3.0736e-05,-270.58,2.2803
18923,22.713,2.3636,0.05,7.3754e-07,7.3703,5.6634e-07,4.2553,4.3411e-13,5.5638e-06,-5.6634e-07,-4.2553,2.2803
18924,22.989,2.3636,0,2.9635e-05,296.15,1.9538e-05,124.91,2.9249e-06,0.085382,-2.5464e-05,-213.22,2.3232
18925,22.897,2.2727,0,3.0956e-05,309.34,1.9565e-05,118.9,3.7503e-06,0.077887,-2.7169e-05,-232.24,2.3089
18926,22.897,2.3636,0.05,7.4205e-07,7.4153,5.698e-07,4.2813,-3.6256e-14,1.0197e-05,-5.698e-07,-4.2812,2.3089
18927,23.173,2.3636,0,2.6826e-05,268.07,1.9161e-05,133.83,1.3637e-06,0.10809,-2.1915e-05,-174.8,2.3517
18928,23.081,2.2727,0,2.8052e-05,280.33,1.9161e-05,127.53,2.2004e-06,0.092985,-2.3616e-05,-193.88,2.3374
18929,23.081,2.3636,0.05,7.4739e-07,7.4687,5.739e-07,4.3121,6.3698e-13,1.492e-05,-5.739e-07,-4.3121,2.3374
18930,23.357,2.3636,0,2.4226e-05,242.09,1.8829e-05,143.23,-2.1586e-07,0.13111,-1.8373e-05,-136.29,2.3803
18931,23.265,2.2727,0,2.5332e-05,253.14,1.8803e-05,136.64,6.3399e-07,0.12446,-2.0073e-05,-155.46,2.366
18932,23.265,2.3636,0.05,7.5359e-07,7.5307,5.7866e-07,4.3478,6.9548e-13,1.1513e-05,-5.7866e-07,-4.3478,2.366
18933,23.541,2.3636,0,2.1905e-05,218.9,1.8539e-05,153.11,-1.8087e-06,0.22735,-1.4835e-05,-97.65,2.4089
18934,23.449,2.2727,0,2.2853e-05,228.37,1.849e-05,146.23,-9.5283e-07,0.14206,-1.6536e-05,-116.94,2.3946
18935,23.449,2.3636,0.05,7.606e-07,7.6008,5.8405e-07,4.3883,4.6997e-13,1.535e-05,-5.8405e-07,-4.3883,2.3946
18936,23.724,2.3636,0,1.9956e-05,199.42,1.8288e-05,163.39,-3.428e-06,0.22454,-1.1298e-05,-58.906,2.4375
18937,23.632,2.2727,0,2.0698e-05,206.84,1.8219e-05,156.35,-2.5455e-06,0.32719,-1.3006e-05,-78.271,2.4232
18938,23.632,2.3636,0.05,7.685e-07,7.6797,5.9011e-07,4.4339,9.171e-13,1.53e-05,-5.9011e-07,-4.4339,2.4232
18939,23.816,2.2727,0,1.8975e-05,189.62,1.7989e-05,166.76,-4.1786e-06,0.20301,-9.4771e-06,-39.608,2.4518
18940,23.816,2.3636,0.05,7.7945e-07,7.7891,5.9852e-07,4.4971,1.1482e-12,1.3422e-05,-5.9852e-07,-4.4971,2.4518
18941,23.908,2.3636,0,1.8563e-05,185.5,1.8086e-05,173.53,-4.951e-06,0.43309,-7.9748e-06,-22.286,2.4661
18942,11.042,2.1818,0,0.00075646,7559.4,0.00029084,503.16,0.00022504,8.7942,-0.00074654,-7291.3,0.62658
18943,10.95,2.0909,0,0.00086069,8601,0.00037357,981.25,0.00021735,-192.52,-0.00084124,-8146.4,0.61567
18944,10.95,2.1818,0.05,5.1533e-05,514.97,3.9571e-05,297.32,-4.736e-12,4.3925e-05,-3.9571e-05,-297.32,0.61609
18945,11.226,2.1818,0,0.00057928,5788.8,0.00020575,181.96,0.00018303,11.247,-0.0005758,-5690.3,0.6478
18946,11.134,2.0909,0,0.00061017,6097.5,0.0002312,387.11,0.00018577,45.812,-0.00060208,-5873.8,0.63679
18947,11.134,2.1818,0.05,2.3625e-05,236.08,1.8141e-05,136.3,-1.3112e-12,2.051e-05,-1.8141e-05,-136.3,0.63711
18948,11.41,2.1818,0,0.00048112,4807.9,0.00015966,5.1135,0.00015773,-9.3689,-0.00048119,-4810,0.66937
18949,11.318,2.0909,0,0.00049567,4953.3,0.00017357,114.35,0.00015706,-9.7421,-0.00049378,-4899.8,0.65826
18950,11.318,2.1818,0.05,1.1929e-05,119.21,9.1601e-06,68.825,-5.9458e-12,9.2779e-06,-9.1601e-06,-68.825,0.65851
18951,11.594,2.1818,0,0.0004204,4201.1,0.00014436,2.5788,0.00012937,-110.1,-0.00042212,-4253.7,0.69124
18952,11.502,2.0909,0,0.00042889,4285.9,0.00014409,7.8523,0.00013792,-38.564,-0.00042939,-4301.1,0.68004
18953,11.502,2.1818,0.05,8.2241e-06,82.184,6.3151e-06,47.449,-4.1038e-12,-3.5882e-06,-6.3151e-06,-47.449,0.68024
18954,11.778,2.1818,0,0.00037827,3780.1,0.00013341,0.85218,0.00011017,-173.74,-0.00038091,-3863.5,0.71338
18955,11.686,2.0909,0,0.00038379,3835.3,0.0001328,1.2785,0.00011626,-123.03,-0.00038571,-3894.6,0.70208
18956,11.686,2.1818,0.05,6.153e-06,61.488,4.7248e-06,35.5,-2.2806e-12,1.8948e-05,-4.7248e-06,-35.5,0.70224
18957,11.961,2.1818,0,0.00034754,3473,0.00012497,0.78831,9.6998e-05,-209.38,-0.00035062,-3572.6,0.73577
18958,11.869,2.0909,0,0.00035171,3514.7,0.0001246,1.1928,0.00010148,-172.53,-0.0003543,-3597.1,0.72438
18959,11.869,2.1818,0.05,4.8889e-06,48.855,3.7541e-06,28.207,-3.5247e-12,5.8876e-06,-3.7541e-06,-28.207,0.72451
18960,12.145,2.1818,0,0.00032412,3238.9,0.00011805,0.52889,8.7758e-05,-227.11,-0.00032737,-3346.2,0.75839
18961,12.053,2.0909,0,0.00032761,3273.8,0.0001179,0.68563,9.1252e-05,-199.54,-0.00033053,-3368.6,0.7469
18962,12.053,2.1818,0.05,4.0178e-06,40.151,3.0852e-06,23.181,-2.6224e-12,1.5456e-05,-3.0852e-06,-23.181,0.74702
18963,12.329,2.1818,0,0.00030569,3054.8,0.00011223,0.41076,8.1165e-05,-233.02,-0.00030898,-3164.4,0.78122
18964,12.237,2.0909,0,0.00030886,3086.4,0.00011228,0.52639,8.4016e-05,-211.81,-0.0003119,-3186.6,0.76965
18965,12.237,2.1818,0.05,3.3731e-06,33.708,2.5901e-06,19.461,-6.2252e-13,1.5897e-05,-2.5901e-06,-19.461,0.76975
18966,12.513,2.1818,0,0.0002908,2906,0.00010722,0.31093,7.6395e-05,-231.28,-0.00029403,-3014.5,0.80427
18967,12.421,2.0909,0,0.0002938,2936,0.00010742,0.38513,7.8806e-05,-214.64,-0.00029686,-3037.2,0.7926
18968,12.421,2.1818,0.05,2.8747e-06,28.727,2.2074e-06,16.585,-1.1484e-12,9.7363e-06,-2.2074e-06,-16.585,0.7927
18969,12.697,2.1818,0,0.00027848,2782.9,0.00010282,0.23949,7.2894e-05,-224.62,-0.00028162,-2888.3,0.82751
18970,12.605,2.0909,0,0.0002814,2812.1,0.00010316,0.29409,7.4986e-05,-211.42,-0.0002844,-2911.7,0.81575
18971,12.605,2.1818,0.05,2.4798e-06,24.781,1.9042e-06,14.307,-2.8384e-12,-2.2535e-06,-1.9042e-06,-14.307,0.81584
18972,12.88,2.1818,0,0.00026809,2679,9.8916e-05,0.18412,7.0285e-05,-214.94,-0.00027109,-2779.9,0.85095
18973,12.788,2.0909,0,0.00027095,2707.6,9.9365e-05,0.22441,7.2132e-05,-204.39,-0.00027384,-2803.9,0.8391
18974,12.788,2.1818,0.05,2.163e-06,21.615,1.6609e-06,12.479,-4.0381e-13,-7.7323e-06,-1.6609e-06,-12.479,0.83918
18975,13.064,2.1818,0,0.00025913,2589.5,9.5404e-05,0.14182,6.8305e-05,-203.47,-0.00026199,-2685.1,0.87456
18976,12.972,2.0909,0,0.00026195,2617.7,9.5938e-05,0.17246,6.9955e-05,-195.06,-0.00026471,-2709.6,0.86263
18977,12.972,2.1818,0.05,1.9072e-06,19.059,1.4645e-06,11.004,-1.4534e-12,-9.9196e-06,-1.4645e-06,-11.004,0.86271
18978,13.248,2.1818,0,0.00025127,2511,9.2213e-05,0.10925,6.6766e-05,-191.09,-0.00025397,-2601,0.89836
18979,13.156,2.0909,0,0.00025404,2538.7,9.2813e-05,0.13272,6.8252e-05,-184.41,-0.00025667,-2625.8,0.88634
18980,13.156,2.1818,0.05,1.7003e-06,16.991,1.3056e-06,9.81,-8.965e-13,4.7637e-07,-1.3056e-06,-9.8099,0.88641
18981,13.432,2.1818,0,0.00024425,2440.8,8.9283e-05,0.084308,6.5534e-05,-178.35,-0.00024679,-2525.1,0.92232
18982,13.34,2.0909,0,0.00024698,2468.1,8.9935e-05,0.1024,6.6883e-05,-173.1,-0.00024946,-2550,0.91022
18983,13.34,2.1818,0.05,1.5328e-06,15.318,1.177e-06,8.8437,-5.9663e-13,-4.7341e-07,-1.177e-06,-8.8436,0.91029
18984,13.616,2.1818,0,0.00023788,2377.1,8.6568e-05,0.065254,6.4512e-05,-165.65,-0.00024026,-2455.6,0.94645
18985,13.524,2.0909,0,0.00024056,2403.9,8.7261e-05,0.079261,6.5744e-05,-161.59,-0.0002429,-2480.6,0.93427
18986,13.524,2.1818,0.05,1.3973e-06,13.964,1.073e-06,8.062,-1.8504e-12,-1.5885e-06,-1.073e-06,-8.062,0.93434
18987,13.799,2.1818,0,0.00023201,2318.5,8.4031e-05,0.050737,6.363e-05,-153.24,-0.00023423,-2391.2,0.97075
18988,13.707,2.0909,0,0.00023464,2344.8,8.4755e-05,0.061609,6.4762e-05,-150.16,-0.00023683,-2416.2,0.95848
18989,13.707,2.1818,0.05,1.2878e-06,12.869,9.8889e-07,7.4301,-2.9716e-12,7.5396e-07,-9.8888e-07,-7.43,0.95856
18990,13.983,2.1818,0,0.00022652,2263.6,8.1642e-05,0.039712,6.2836e-05,-141.26,-0.00022859,-2330.9,0.9952
18991,13.891,2.0909,0,0.00022911,2289.5,8.239e-05,0.048166,6.3883e-05,-139.01,-0.00023115,-2355.8,0.98286
18992,13.891,2.1818,0.05,1.1993e-06,11.985,9.2091e-07,6.9194,-2.1856e-12,3.119e-06,-9.2091e-07,-6.9193,0.98293
18993,14.167,2.1818,0,0.00022132,2211.7,7.9376e-05,0.031344,6.2092e-05,-129.83,-0.00022325,-2273.8,1.0198
18994,14.075,2.0909,0,0.00022387,2237.1,8.0142e-05,0.037948,6.3067e-05,-128.25,-0.00022577,-2298.5,1.0074
18995,14.075,2.1818,0.05,1.1277e-06,11.269,8.6594e-07,6.5064,-2.1462e-12,1.7562e-06,-8.6594e-07,-6.5063,1.0075
18996,14.351,2.1818,0,0.00021636,2162.1,7.7214e-05,0.025004,6.1373e-05,-119,-0.00021814,-2219.1,1.0446
18997,14.259,2.0909,0,0.00021886,2187.1,7.7992e-05,0.030157,6.2287e-05,-117.97,-0.00022063,-2243.7,1.0321
18998,14.259,2.1818,0.05,1.0697e-06,10.69,8.214e-07,6.1717,-3.1502e-12,-3.1989e-06,-8.214e-07,-6.1717,1.0321
18999,14.534,2.1818,0,0.00021157,2114.2,7.5138e-05,0.020254,6.0658e-05,-108.78,-0.00021321,-2166.5,1.0695
19000,14.443,2.0909,0,0.00021404,2138.9,7.5926e-05,0.024255,6.1521e-05,-108.21,-0.00021567,-2190.9,1.0569
19001,14.443,2.1818,0.05,1.0226e-06,10.219,7.852e-07,5.8997,-2.3682e-12,-2.7426e-06,-7.8519e-07,-5.8997,1.057
19002,14.718,2.1818,0,0.00020691,2067.7,7.3137e-05,0.016732,5.9934e-05,-99.182,-0.00020842,-2115.5,1.0945
19003,14.626,2.0909,0,0.00020935,2092,7.3931e-05,0.019843,6.0755e-05,-98.979,-0.00021085,-2139.7,1.0819
19004,14.626,2.1818,0.05,9.8407e-07,9.8339,7.5565e-07,5.6777,-1.6468e-12,2.4532e-06,-7.5564e-07,-5.6776,1.082
19005,14.902,2.1818,0,0.00020236,2022.2,7.1198e-05,0.014137,5.9192e-05,-90.192,-0.00020374,-2065.8,1.1197
19006,14.81,2.0909,0,0.00020476,2046.2,7.1996e-05,0.016551,5.9978e-05,-90.283,-0.00020615,-2089.8,1.107
19007,14.81,2.1818,0.05,9.5248e-07,9.5182,7.3139e-07,5.4954,-1.6074e-12,7.8177e-07,-7.3138e-07,-5.4953,1.1071
19008,15.086,2.1818,0,0.00019789,1977.5,6.9313e-05,0.012248,5.8426e-05,-81.786,-0.00019915,-2017.1,1.145
19009,14.994,2.0909,0,0.00020026,2001.2,7.0113e-05,0.014116,5.9182e-05,-82.111,-0.00020153,-2041,1.1323
19010,14.994,2.1818,0.05,9.2637e-07,9.2573,7.1134e-07,5.3447,-1.2607e-12,1.2691e-06,-7.1134e-07,-5.3447,1.1323
19011,15.27,2.1818,0,0.00019347,1933.4,6.7474e-05,0.010878,5.7633e-05,-73.937,-0.00019462,-1969.3,1.1705
19012,15.178,2.0909,0,0.00019582,1956.9,6.8274e-05,0.012333,5.8365e-05,-74.446,-0.00019698,-1993,1.1577
19013,15.178,2.1818,0.05,9.0462e-07,9.0399,6.9463e-07,5.2192,-1.2597e-12,-3.1252e-07,-6.9463e-07,-5.2192,1.1577
19014,15.453,2.1818,0,0.00018911,1889.8,6.5676e-05,0.0098965,5.681e-05,-66.611,-0.00019015,-1922.2,1.1961
19015,15.362,2.0909,0,0.00019143,1913,6.6475e-05,0.011011,5.7522e-05,-67.264,-0.00019249,-1945.7,1.1832
19016,15.362,2.1818,0.05,8.8632e-07,8.8571,6.8059e-07,5.1137,-1.7454e-12,5.1046e-07,-6.8058e-07,-5.1136,1.1833
19017,15.637,2.1818,0,0.00018477,1846.5,6.3913e-05,0.0092438,5.5956e-05,-59.776,-0.00018572,-1875.6,1.2218
19018,15.545,2.0909,0,0.00018708,1869.5,6.4711e-05,0.010069,5.6652e-05,-60.54,-0.00018803,-1899,1.2088
19019,15.545,2.1818,0.05,8.7077e-07,8.7017,6.6864e-07,5.0239,-1.3223e-12,3.1043e-06,-6.6864e-07,-5.0239,1.2089
19020,15.821,2.1818,0,0.00018047,1803.5,6.2182e-05,0.0088541,5.5074e-05,-53.396,-0.00018132,-1829.6,1.2477
19021,15.729,2.0909,0,0.00018276,1826.3,6.2977e-05,0.0094559,5.5756e-05,-54.244,-0.00018362,-1852.8,1.2346
19022,15.729,2.1818,0.05,8.5741e-07,8.5682,6.5839e-07,4.9469,-1.7904e-12,6.7823e-07,-6.5839e-07,-4.9468,1.2347
19023,16.005,2.1818,0,0.00017619,1760.7,6.0478e-05,0.0086583,5.4163e-05,-47.436,-0.00017695,-1783.9,1.2736
19024,15.913,2.0909,0,0.00017846,1783.3,6.127e-05,0.0090817,5.4834e-05,-48.349,-0.00017923,-1807,1.2605
19025,15.913,2.1818,0.05,8.4582e-07,8.4524,6.4949e-07,4.88,-8.7535e-13,3.6736e-06,-6.4949e-07,-4.88,1.2606
19026,16.189,2.1818,0,0.00017193,1718.1,5.8798e-05,0.0086116,5.3225e-05,-41.862,-0.0001726,-1738.6,1.2997
19027,16.097,2.0909,0,0.00017418,1740.6,5.9588e-05,0.0088921,5.3887e-05,-42.824,-0.00017487,-1761.6,1.2866
19028,16.097,2.1818,0.05,8.3566e-07,8.3508,6.4168e-07,4.8214,-1.3107e-12,4.2904e-06,-6.4168e-07,-4.8213,1.2866
19029,16.372,2.1818,0,0.00016768,1675.7,5.7141e-05,0.0086641,5.2263e-05,-36.642,-0.00016827,-1693.7,1.3259
19030,16.281,2.0909,0,0.00016992,1698,5.7927e-05,0.0088455,5.2916e-05,-37.641,-0.00017052,-1716.5,1.3127
19031,16.281,2.1818,0.05,8.2664e-07,8.2607,6.3476e-07,4.7693,-8.4817e-13,4.2585e-06,-6.3476e-07,-4.7693,1.3128
19032,16.556,2.1818,0,0.00016345,1633.4,5.5503e-05,0.00879,5.1278e-05,-31.743,-0.00016397,-1649,1.3522
19033,16.464,2.0909,0,0.00016567,1655.5,5.6286e-05,0.0088783,5.1924e-05,-32.77,-0.0001662,-1671.7,1.339
19034,16.464,2.1818,0.05,8.1856e-07,8.1799,6.2855e-07,4.7227,-1.3164e-12,4.1894e-06,-6.2855e-07,-4.7227,1.339
19035,16.74,2.1818,0,0.00015923,1591.2,5.3884e-05,0.0090085,5.0272e-05,-27.134,-0.00015967,-1604.6,1.3787
19036,16.648,2.0909,0,0.00016143,1613.2,5.4664e-05,0.009004,5.0911e-05,-28.185,-0.00016189,-1627.1,1.3654
19037,16.648,2.1818,0.05,8.1123e-07,8.1067,6.2292e-07,4.6804,3.436e-14,2.6548e-06,-6.2292e-07,-4.6804,1.3654
19038,16.924,2.1818,0,0.00015502,1549.1,5.2282e-05,0.0093181,4.9248e-05,-22.788,-0.00015539,-1560.4,1.4052
19039,16.832,2.0909,0,0.00015721,1571,5.3058e-05,0.0092461,4.9881e-05,-23.859,-0.0001576,-1582.8,1.3918
19040,16.832,2.1818,0.05,8.0453e-07,8.0398,6.1778e-07,4.6418,-1.3378e-12,2.0751e-06,-6.1778e-07,-4.6417,1.3919
19041,17.108,2.1818,0,0.00015082,1507.2,5.0695e-05,0.0097061,4.8208e-05,-18.676,-0.00015113,-1516.4,1.4318
19042,17.016,2.0909,0,0.000153,1529,5.1467e-05,0.0095781,4.8835e-05,-19.766,-0.00015333,-1538.7,1.4184
19043,17.016,2.1818,0.05,7.9836e-07,7.9781,6.1304e-07,4.6062,-1.8003e-12,2.759e-06,-6.1304e-07,-4.6061,1.4185
19044,17.291,2.1818,0,0.00014664,1465.4,4.9122e-05,0.010184,4.7154e-05,-14.771,-0.00014688,-1472.7,1.4586
19045,17.2,2.0909,0,0.0001488,1487,4.9891e-05,0.010009,4.7776e-05,-15.881,-0.00014907,-1494.9,1.4451
19046,17.2,2.1818,0.05,7.9264e-07,7.9209,6.0865e-07,4.5731,-4.4367e-13,3.2825e-06,-6.0865e-07,-4.5731,1.4452
19047,17.475,2.1818,0,0.00014247,1423.7,4.7561e-05,0.010774,4.6089e-05,-11.05,-0.00014265,-1429.2,1.4854
19048,17.383,2.0909,0,0.00014462,1445.2,4.8327e-05,0.01057,4.6705e-05,-12.18,-0.00014482,-1451.2,1.4719
19049,17.383,2.1818,0.05,7.8729e-07,7.8675,6.0455e-07,4.5423,-4.4848e-13,2.7851e-06,-6.0454e-07,-4.5423,1.472
19050,17.659,2.1818,0,0.00013831,1382.1,4.6013e-05,0.011601,4.5015e-05,-7.4872,-0.00013843,-1385.9,1.5124
19051,17.567,2.0909,0,0.00014045,1403.5,4.6776e-05,0.011329,4.5624e-05,-8.6421,-0.00014059,-1407.8,1.4988
19052,17.567,2.1818,0.05,7.8228e-07,7.8174,6.0069e-07,4.5134,-1.8152e-12,3.6201e-06,-6.0069e-07,-4.5133,1.4989
19053,17.843,2.1818,0,0.00013416,1340.7,4.4476e-05,0.013227,4.3934e-05,-4.0612,-0.00013423,-1342.7,1.5394
19054,17.751,2.0909,0,0.00013629,1362,4.5236e-05,0.01267,4.4536e-05,-5.2441,-0.00013638,-1364.6,1.5258
19055,17.751,2.1818,0.05,7.7753e-07,7.77,5.9705e-07,4.486,-4.5008e-13,2.8829e-06,-5.9705e-07,-4.486,1.5259
19056,18.027,2.1818,0,0.00013003,1299.4,4.2951e-05,0.02522,4.2847e-05,-0.75918,-0.00013005,-1299.8,1.5665
19057,17.935,2.0909,0,0.00013215,1320.5,4.3707e-05,0.017287,4.3443e-05,-1.968,-0.00013218,-1321.5,1.5529
19058,17.935,2.1818,0.05,7.7304e-07,7.725,5.936e-07,4.4601,-1.8175e-12,4.3802e-06,-5.936e-07,-4.46,1.5529
19059,18.21,2.1818,0,0.00012592,1258.3,4.1761e-05,2.4807,4.1431e-05,0.0069966,-0.00012588,-1257.1,1.5937
19060,18.119,2.0909,0,0.00012802,1279.3,4.2349e-05,1.2319,4.2185e-05,-4.0775e-05,-0.000128,-1278.7,1.5801
19061,18.119,2.1818,0.05,7.6877e-07,7.6824,5.9032e-07,4.4355,-9.0832e-13,3.8181e-06,-5.9032e-07,-4.4354,1.5801
19062,18.394,2.1818,0,0.00012182,1217.4,4.0671e-05,5.6278,3.9923e-05,0.0099919,-0.00012173,-1214.6,1.621
19063,18.302,2.0909,0,0.00012391,1238.2,4.125e-05,4.3279,4.0675e-05,0.0082972,-0.00012383,-1236,1.6073
19064,18.302,2.1818,0.05,7.6471e-07,7.6419,5.8721e-07,4.412,-9.0932e-13,3.0186e-06,-5.872e-07,-4.412,1.6074
19065,18.578,2.1818,0,0.00011774,1176.6,3.9583e-05,8.725,3.8423e-05,0.011214,-0.00011759,-1172.2,1.6484
19066,18.486,2.0909,0,0.00011981,1197.3,4.0153e-05,7.3718,3.9173e-05,0.01008,-0.00011968,-1193.6,1.6347
19067,18.486,2.1818,0.05,7.6085e-07,7.6033,5.8424e-07,4.3898,-4.5554e-13,3.51e-06,-5.8424e-07,-4.3897,1.6347
19068,18.762,2.1818,0,0.00011368,1136,3.8498e-05,11.791,3.693e-05,0.01209,-0.00011348,-1130.1,1.6759
19069,18.67,2.0909,0,0.00011573,1156.5,3.9058e-05,10.377,3.7678e-05,0.011116,-0.00011555,-1151.3,1.6621
19070,18.67,2.1818,0.05,7.5717e-07,7.5665,5.8141e-07,4.3685,-1.8206e-12,4.8096e-06,-5.8141e-07,-4.3685,1.6621
19071,18.946,2.1818,0,0.00010964,1095.6,3.7419e-05,14.844,3.5445e-05,0.012881,-0.00010938,-1088.1,1.7034
19072,18.854,2.0909,0,0.00011168,1116,3.7967e-05,13.361,3.6191e-05,0.011949,-0.00011144,-1109.3,1.6896
19073,18.854,2.1818,0.05,7.5365e-07,7.5313,5.7871e-07,4.3482,-9.1098e-13,3.9133e-06,-5.7871e-07,-4.3482,1.6896
19074,19.129,2.1818,0,0.00010562,1055.5,3.6346e-05,17.905,3.3965e-05,0.013661,-0.0001053,-1046.4,1.731
19075,19.038,2.0909,0,0.00010764,1075.7,3.6883e-05,16.343,3.471e-05,0.012741,-0.00010735,-1067.4,1.7172
19076,19.038,2.1818,0.05,7.503e-07,7.4979,5.7614e-07,4.3289,-4.5431e-13,5.2611e-06,-5.7614e-07,-4.3289,1.7172
19077,19.313,2.1818,0,0.00010162,1015.5,3.5283e-05,20.992,3.2491e-05,0.01446,-0.00010125,-1004.8,1.7587
19078,19.221,2.0909,0,0.00010362,1035.5,3.5807e-05,19.341,3.3235e-05,0.013525,-0.00010328,-1025.7,1.7448
19079,19.221,2.1818,0.05,7.4712e-07,7.4661,5.737e-07,4.3106,6.6964e-15,5.051e-06,-5.7369e-07,-4.3105,1.7448
19080,19.497,2.1818,0,9.7646e-05,975.79,3.4231e-05,24.125,3.1022e-05,0.015298,-9.7213e-05,-963.5,1.7865
19081,19.405,2.0909,0,9.9632e-05,995.63,3.4741e-05,22.374,3.1765e-05,0.014338,-9.9232e-05,-984.25,1.7725
19082,19.405,2.1818,0.05,7.4411e-07,7.436,5.7138e-07,4.2932,-4.4303e-13,6.5218e-06,-5.7138e-07,-4.2931,1.7726
19083,19.681,2.1818,0,9.3696e-05,936.31,3.3192e-05,27.322,2.9558e-05,0.016173,-9.3201e-05,-922.34,1.8143
19084,19.589,2.0909,0,9.5663e-05,955.97,3.3687e-05,25.462,3.03e-05,0.015186,-9.5204e-05,-942.97,1.8003
19085,19.589,2.1818,0.05,7.4127e-07,7.4076,5.692e-07,4.2768,-8.9509e-13,9.6693e-06,-5.692e-07,-4.2768,1.8003
19086,19.865,2.1818,0,8.9771e-05,897.09,3.2168e-05,30.605,2.8097e-05,0.017102,-8.9211e-05,-881.39,1.8421
19087,19.773,2.0909,0,9.1718e-05,916.55,3.2647e-05,28.622,2.884e-05,0.01607,-9.1198e-05,-901.9,1.8281
19088,19.773,2.1818,0.05,7.3861e-07,7.381,5.6716e-07,4.2614,-4.4568e-13,7.9657e-06,-5.6716e-07,-4.2614,1.8282
19089,20.048,2.1818,0,8.5874e-05,858.15,3.1161e-05,33.993,2.6639e-05,0.018114,-8.5245e-05,-840.64,1.8701
19090,19.956,2.0909,0,8.78e-05,877.4,3.1622e-05,31.874,2.7382e-05,0.017019,-8.7214e-05,-861.02,1.8561
19091,19.956,2.1818,0.05,7.3612e-07,7.3561,5.6525e-07,4.2471,-4.4417e-13,9.1226e-06,-5.6525e-07,-4.247,1.8561
19092,20.232,2.1818,0,8.2005e-05,819.49,3.0174e-05,37.507,2.5184e-05,0.019225,-8.1303e-05,-800.08,1.8981
19093,20.14,2.0909,0,8.391e-05,838.52,3.0616e-05,35.239,2.5928e-05,0.018067,-8.3255e-05,-820.34,1.884
19094,20.14,2.1818,0.05,7.3382e-07,7.3332,5.6349e-07,4.2338,-6.7523e-13,6.2222e-06,-5.6348e-07,-4.2338,1.8841
19095,20.416,2.1818,0,7.8167e-05,781.13,2.9207e-05,41.169,2.3731e-05,0.020448,-7.7385e-05,-759.73,1.9261
19096,20.324,2.0909,0,8.0049e-05,799.93,2.9629e-05,38.737,2.4476e-05,0.019215,-7.9319e-05,-779.85,1.912
19097,20.324,2.1818,0.05,7.3174e-07,7.3123,5.6188e-07,4.2218,-4.5186e-13,6.2066e-06,-5.6188e-07,-4.2218,1.9121
19098,20.6,2.1818,0,7.4361e-05,743.1,2.8265e-05,45,2.2278e-05,0.021802,-7.3493e-05,-719.57,1.9542
19099,20.508,2.0909,0,7.6218e-05,761.66,2.8664e-05,42.388,2.3025e-05,0.020483,-7.5408e-05,-739.57,1.9401
19100,20.508,2.1818,0.05,7.2987e-07,7.2937,5.6045e-07,4.211,-4.5121e-13,6.7022e-06,-5.6045e-07,-4.211,1.9402
19101,20.784,2.1818,0,7.0589e-05,705.41,2.7347e-05,49.024,2.0826e-05,0.023298,-6.9627e-05,-679.61,1.9824
19102,20.692,2.0909,0,7.2421e-05,723.71,2.7723e-05,46.217,2.1575e-05,0.02189,-7.1523e-05,-699.48,1.9682
19103,20.692,2.1818,0.05,7.2825e-07,7.2775,5.5921e-07,4.2017,-9.2005e-13,9.964e-06,-5.592e-07,-4.2016,1.9683
19104,20.967,2.1818,0,6.6854e-05,668.08,2.6458e-05,53.263,1.9373e-05,0.024964,-6.5788e-05,-639.84,2.0106
19105,20.875,2.0909,0,6.8657e-05,686.1,2.6809e-05,50.244,2.0125e-05,0.023444,-6.7664e-05,-659.59,1.9964
19106,20.875,2.1818,0.05,7.2689e-07,7.2639,5.5816e-07,4.1938,-2.363e-13,9.4804e-06,-5.5816e-07,-4.1938,1.9965
19107,21.151,2.1818,0,6.3157e-05,631.13,2.56e-05,57.743,1.7918e-05,0.026851,-6.1976e-05,-600.26,2.0388
19108,21.059,2.0909,0,6.4931e-05,648.86,2.5923e-05,54.495,1.8673e-05,0.025192,-6.3832e-05,-619.89,2.0246
19109,21.059,2.1818,0.05,7.2582e-07,7.2532,5.5734e-07,4.1876,-4.486e-13,8.6673e-06,-5.5734e-07,-4.1876,2.0247
19110,21.335,2.1818,0,5.9501e-05,594.6,2.4774e-05,62.489,1.6461e-05,0.029003,-5.8191e-05,-560.87,2.0671
19111,21.243,2.0909,0,6.1244e-05,612.02,2.5068e-05,58.994,1.722e-05,0.02719,-6.0027e-05,-580.38,2.0529
19112,21.243,2.1818,0.05,7.2506e-07,7.2456,5.5676e-07,4.1833,-2.3044e-13,7.6362e-06,-5.5676e-07,-4.1833,2.0529
19113,21.519,2.1818,0,5.589e-05,558.51,2.3983e-05,67.527,1.5e-05,0.031478,-5.4434e-05,-521.67,2.0954
19114,21.427,2.0909,0,5.76e-05,575.6,2.4247e-05,63.767,1.5764e-05,0.029475,-5.6249e-05,-541.05,2.0812
19115,21.427,2.1818,0.05,7.2467e-07,7.2417,5.5646e-07,4.181,-2.4419e-13,6.5959e-06,-5.5646e-07,-4.181,2.0812
19116,21.703,2.1818,0,5.2327e-05,522.91,2.323e-05,72.885,1.3534e-05,0.034352,-5.0704e-05,-482.63,2.1238
19117,21.611,2.0909,0,5.4001e-05,539.64,2.3462e-05,68.842,1.4304e-05,0.03212,-5.2499e-05,-501.9,2.1096
19118,21.611,2.1818,0.05,7.2468e-07,7.2418,5.5646e-07,4.1811,-3.5942e-14,8.3199e-06,-5.5646e-07,-4.181,2.1096
19119,21.886,2.1818,0,4.8818e-05,487.84,2.2517e-05,78.588,1.2063e-05,0.037719,-4.7003e-05,-443.76,2.1522
19120,21.794,2.0909,0,5.0453e-05,504.18,2.2716e-05,74.246,1.2839e-05,0.03521,-4.8778e-05,-462.93,2.1379
19121,21.794,2.1818,0.05,7.2513e-07,7.2463,5.5681e-07,4.1837,1.8703e-13,6.3764e-06,-5.5681e-07,-4.1837,2.138
19122,22.07,2.1818,0,4.5367e-05,453.35,2.1846e-05,84.666,1.0584e-05,0.041731,-4.3329e-05,-405.04,2.1806
19123,21.978,2.0909,0,4.696e-05,469.28,2.2011e-05,80.008,1.1367e-05,0.038856,-4.5084e-05,-424.12,2.1663
19124,21.978,2.1818,0.05,7.261e-07,7.256,5.5755e-07,4.1892,-4.7569e-14,2.5435e-06,-5.5755e-07,-4.1892,2.1664
19125,22.254,2.1818,0,4.1982e-05,419.53,2.122e-05,91.144,9.096e-06,0.046602,-3.9681e-05,-366.45,2.2091
19126,22.162,2.0909,0,4.3529e-05,434.99,2.1349e-05,86.157,9.8878e-06,0.043247,-4.1418e-05,-385.45,2.1948
19127,22.162,2.1818,0.05,7.2762e-07,7.2712,5.5872e-07,4.198,1.6575e-13,4.3546e-06,-5.5872e-07,-4.198,2.1948
19128,22.438,2.1818,0,3.8672e-05,386.45,2.064e-05,98.048,7.5979e-06,0.052655,-3.6059e-05,-327.97,2.2375
19129,22.346,2.0909,0,4.0168e-05,401.41,2.0733e-05,92.722,8.399e-06,0.048632,-3.7779e-05,-346.92,2.2233
19130,22.346,2.1818,0.05,7.2978e-07,7.2928,5.6038e-07,4.2105,2.2273e-13,4.8394e-06,-5.6038e-07,-4.2105,2.2233
19131,22.622,2.1818,0,3.545e-05,354.26,2.0108e-05,105.4,6.0879e-06,0.06031,-3.246e-05,-289.58,2.266
19132,22.53,2.0909,0,3.6889e-05,368.63,2.0165e-05,99.731,6.8994e-06,0.055422,-3.4165e-05,-308.49,2.2518
19133,22.53,2.1818,0.05,7.3265e-07,7.3215,5.6259e-07,4.2271,2.2875e-13,7.6756e-06,-5.6259e-07,-4.2271,2.2518
19134,22.805,2.1818,0,3.2333e-05,323.1,1.9625e-05,113.23,4.5644e-06,0.070576,-2.8882e-05,-251.23,2.2946
19135,22.713,2.0909,0,3.3705e-05,336.81,1.9647e-05,107.21,5.387e-06,0.064066,-3.0575e-05,-270.14,2.2803
19136,22.713,2.1818,0.05,7.363e-07,7.358,5.6539e-07,4.2481,2.1028e-13,6.4426e-06,-5.6539e-07,-4.2481,2.2803
19137,22.989,2.1818,0,2.9343e-05,293.23,1.919e-05,121.54,3.0256e-06,0.083882,-2.5322e-05,-212.91,2.3231
19138,22.897,2.0909,0,3.0636e-05,306.15,1.9179e-05,115.17,3.8604e-06,0.076194,-2.7006e-05,-231.84,2.3088
19139,22.897,2.1818,0.05,7.408e-07,7.4029,5.6884e-07,4.2741,6.379e-13,9.2268e-06,-5.6884e-07,-4.2741,2.3088
19140,23.173,2.1818,0,2.6516e-05,264.98,1.8804e-05,130.35,1.4703e-06,0.10646,-2.1775e-05,-174.55,2.3517
19141,23.081,2.0909,0,2.7712e-05,276.92,1.8762e-05,123.65,2.3175e-06,0.091165,-2.3454e-05,-193.55,2.3374
19142,23.081,2.1818,0.05,7.462e-07,7.4569,5.7299e-07,4.3052,4.0697e-13,1.2038e-05,-5.7299e-07,-4.3052,2.3374
19143,23.357,2.1818,0,2.3899e-05,238.83,1.8465e-05,139.65,-1.038e-07,0.12928,-1.8237e-05,-136.12,2.3803
19144,23.265,2.0909,0,2.4971e-05,249.54,1.8394e-05,132.64,7.5767e-07,0.12243,-1.9916e-05,-155.21,2.3659
19145,23.265,2.1818,0.05,7.5253e-07,7.5202,5.7785e-07,4.3418,7.0214e-13,1.159e-05,-5.7785e-07,-4.3418,2.366
19146,23.541,2.1818,0,2.1562e-05,215.47,1.8172e-05,149.47,-1.6919e-06,0.22501,-1.4706e-05,-97.555,2.4088
19147,23.449,2.0909,0,2.2473e-05,224.58,1.8075e-05,142.13,-8.2319e-07,0.13975,-1.6384e-05,-116.78,2.3945
19148,23.449,2.1818,0.05,7.5978e-07,7.5926,5.8342e-07,4.3836,4.8059e-13,1.3577e-05,-5.8342e-07,-4.3836,2.3945
19149,23.724,2.1818,0,1.96e-05,195.87,1.7921e-05,159.72,-3.3075e-06,0.22078,-1.1175e-05,-58.896,2.4375
19150,23.632,2.0909,0,2.0301e-05,202.87,1.7802e-05,152.19,-2.4109e-06,0.32391,-1.2862e-05,-78.205,2.4231
19151,23.632,2.1818,0.05,7.6806e-07,7.6753,5.8978e-07,4.4314,9.2534e-13,1.5351e-05,-5.8978e-07,-4.4314,2.4231
19152,23.816,2.0909,0,1.8568e-05,185.55,1.7573e-05,162.59,-4.0404e-06,0.19634,-9.3425e-06,-39.642,2.4517
19153,23.816,2.1818,0.05,7.8054e-07,7.8,5.9936e-07,4.5033,1.1583e-12,1.5399e-05,-5.9936e-07,-4.5033,2.4517
19154,23.908,2.1818,0,1.8194e-05,181.82,1.7715e-05,169.81,-4.8275e-06,0.43185,-7.8544e-06,-22.311,2.4661
19155,11.042,2,0,0.0007247,7242,0.00032676,961.68,0.00017312,-192.74,-0.00070468,-6788.2,0.62576
19156,10.95,1.9091,0,0.00078537,7848.3,0.00041703,1803.5,0.000139,-285.57,-0.0007384,-6878,0.61468
19157,10.95,2,0.05,9.2943e-05,928.78,7.1368e-05,536.23,7.1177e-12,7.8637e-05,-7.1368e-05,-536.23,0.61516
19158,10.859,2,0,0.0012782,12774,0.00055853,1450,0.00031501,-379.67,-0.0012502,-12140,0.60472
19159,11.226,2,0,0.00052753,5271.6,0.00019993,326.35,0.00015974,24.382,-0.00052091,-5089.8,0.64716
19160,11.134,1.9091,0,0.0005454,5450.2,0.00023375,674.97,0.00014847,34.232,-0.0005305,-5067.3,0.63603
19161,11.134,2,0.05,1.6331e-05,163.19,1.254e-05,94.219,-3.2947e-12,5.1021e-05,-1.254e-05,-94.219,0.63639
19162,11.41,2,0,0.00044333,4430.2,0.00015398,86.862,0.00014121,-9.0839,-0.00044193,-4390.6,0.66885
19163,11.318,1.9091,0,0.00044997,4496.6,0.00017004,254.19,0.00013485,-10.197,-0.00044523,-4368.8,0.65765
19164,11.318,2,0.05,1.0571e-05,105.63,8.1169e-06,60.987,-2.5604e-12,4.1494e-05,-8.1169e-06,-60.987,0.65794
19165,11.594,2,0,0.00039202,3917.5,0.00013261,7.1554,0.00012451,-53.713,-0.00039277,-3940.4,0.6908
19166,11.502,1.9091,0,0.00039532,3950.5,0.00013612,64.009,0.00012671,-6.6715,-0.0003943,-3921.4,0.67953
19167,11.502,2,0.05,7.0964e-06,70.915,5.4492e-06,40.943,1.3369e-12,2.6508e-05,-5.4491e-06,-40.943,0.67976
19168,11.778,2,0,0.00035699,3567.4,0.00012402,1.8089,0.00010734,-123.57,-0.00035889,-3626.6,0.71301
19169,11.686,1.9091,0,0.00035883,3585.9,0.00012178,5.2543,0.00011318,-59.395,-0.00035971,-3612.5,0.70165
19170,11.686,2,0.05,5.4016e-06,53.979,4.1478e-06,31.165,-9.2413e-13,9.9436e-06,-4.1478e-06,-31.165,0.70185
19171,11.961,2,0,0.0003316,3313.7,0.00011754,1.1637,9.5571e-05,-163.93,-0.00033406,-3392,0.73544
19172,11.869,1.9091,0,0.000333,3327.7,0.00011582,2.0358,9.9931e-05,-117.33,-0.0003348,-3383.7,0.724
19173,11.869,2,0.05,4.3174e-06,43.144,3.3152e-06,24.909,2.5401e-12,7.7527e-06,-3.3152e-06,-24.909,0.72417
19174,12.145,2,0,0.00031223,3120.2,0.00011213,0.71856,8.7401e-05,-185.07,-0.00031495,-3208.2,0.7581
19175,12.053,1.9091,0,0.0003136,3133.9,0.00011094,1.0633,9.0768e-05,-150.52,-0.00031587,-3205.8,0.74657
19176,12.053,2,0.05,3.5729e-06,35.705,2.7436e-06,20.614,1.9928e-13,3.1694e-05,-2.7436e-06,-20.614,0.74671
19177,12.329,2,0,0.0002969,2967,0.00010747,0.52047,8.1589e-05,-193.95,-0.00029972,-3058.9,0.78096
19178,12.237,1.9091,0,0.00029844,2982.3,0.00010672,0.71496,8.4346e-05,-167.37,-0.00030092,-3062.1,0.76934
19179,12.237,2,0.05,3.0202e-06,30.181,2.3191e-06,17.425,-1.099e-12,4.6136e-06,-2.3191e-06,-17.425,0.76947
19180,12.513,2,0,0.00028437,2841.8,0.00010337,0.38029,7.7357e-05,-195.09,-0.00028718,-2934.1,0.80402
19181,12.421,1.9091,0,0.00028612,2859.3,0.00010295,0.49729,7.9722e-05,-174.04,-0.00028868,-2942,0.79232
19182,12.421,2,0.05,2.5929e-06,25.911,1.991e-06,14.96,-2.2731e-12,-3.9782e-06,-1.991e-06,-14.96,0.79244
19183,12.697,2,0,0.00027385,2736.6,9.9707e-05,0.28673,7.4201e-05,-191.35,-0.0002766,-2827.1,0.82728
19184,12.605,1.9091,0,0.00027581,2756.2,9.9547e-05,0.36527,7.6295e-05,-174.35,-0.00027836,-2839.1,0.81549
19185,12.605,2,0.05,2.2538e-06,22.523,1.7306e-06,13.003,-1.2365e-12,1.3116e-05,-1.7306e-06,-13.003,0.8156
19186,12.88,2,0,0.0002648,2646.2,9.6387e-05,0.21791,7.179e-05,-184.6,-0.00026746,-2733.6,0.85072
19187,12.788,1.9091,0,0.00026694,2667.6,9.6433e-05,0.27267,7.3679e-05,-170.69,-0.00026943,-2748.7,0.83885
19188,12.788,2,0.05,1.9811e-06,19.797,1.5212e-06,11.43,-1.7251e-12,-6.0797e-06,-1.5212e-06,-11.43,0.83895
19189,13.064,2,0,0.00025686,2566.8,9.3347e-05,0.1669,6.9897e-05,-176.03,-0.0002594,-2650.2,0.87435
19190,12.972,1.9091,0,0.00025913,2589.6,9.3554e-05,0.20658,7.1622e-05,-164.59,-0.00026154,-2667.8,0.86238
19191,12.972,2,0.05,1.7603e-06,17.591,1.3517e-06,10.156,8.2725e-13,1.1651e-05,-1.3517e-06,-10.156,0.86249
19192,13.248,2,0,0.00024975,2495.8,9.0536e-05,0.12834,6.8367e-05,-166.44,-0.00025217,-2574.8,0.89814
19193,13.156,1.9091,0,0.00025213,2519.5,9.0871e-05,0.15766,6.9952e-05,-157.02,-0.00025443,-2594.3,0.8861
19194,13.156,2,0.05,1.5813e-06,15.803,1.2143e-06,9.1236,-4.4244e-13,1.0947e-05,-1.2143e-06,-9.1236,0.8862
19195,13.432,2,0,0.00024329,2431.2,8.7914e-05,0.099105,6.7093e-05,-156.34,-0.00024557,-2505.6,0.92211
19196,13.34,1.9091,0,0.00024573,2455.6,8.8351e-05,0.12107,6.8555e-05,-148.62,-0.00024792,-2526.5,0.90999
19197,13.34,2,0.05,1.4363e-06,14.353,1.1029e-06,8.2866,-1.3486e-12,7.7898e-06,-1.1029e-06,-8.2865,0.91008
19198,13.616,2,0,0.00023732,2371.6,8.5449e-05,0.07687,6.5994e-05,-146.1,-0.00023947,-2441.2,0.94625
19199,13.524,1.9091,0,0.0002398,2396.3,8.5966e-05,0.09351,6.7347e-05,-139.8,-0.00024187,-2463.1,0.93404
19200,13.524,2,0.05,1.3189e-06,13.179,1.0127e-06,7.6092,-2.6983e-12,1.6219e-06,-1.0127e-06,-7.6091,0.93413
19201,13.799,2,0,0.00023174,2315.8,8.3114e-05,0.059944,6.5015e-05,-135.93,-0.00023375,-2380.8,0.97054
19202,13.707,1.9091,0,0.00023424,2340.7,8.3695e-05,0.072645,6.6271e-05,-130.84,-0.00023619,-2403.4,0.95826
19203,13.707,2,0.05,1.224e-06,12.232,9.3988e-07,7.0619,-9.5065e-13,-1.2385e-06,-9.3988e-07,-7.0619,0.95835
19204,13.983,2,0,0.00022646,2263,8.089e-05,0.047063,6.4115e-05,-125.99,-0.00022834,-2323.4,0.995
19205,13.891,1.9091,0,0.00022896,2288,8.152e-05,0.056816,6.5284e-05,-121.93,-0.00023079,-2346.5,0.98263
19206,13.891,2,0.05,1.1474e-06,11.466,8.8108e-07,6.6201,-3.0749e-12,-4.3186e-06,-8.8108e-07,-6.6201,0.98273
19207,14.167,2,0,0.00022141,2212.6,7.8758e-05,0.037247,6.3263e-05,-116.39,-0.00022316,-2268.5,1.0196
19208,14.075,1.9091,0,0.0002239,2237.5,7.9427e-05,0.044794,6.4355e-05,-113.2,-0.00022561,-2291.9,1.0072
19209,14.075,2,0.05,1.0856e-06,10.848,8.3361e-07,6.2634,-1.3506e-12,2.4311e-06,-8.336e-07,-6.2633,1.0073
19210,14.351,2,0,0.00021654,2163.9,7.6705e-05,0.029766,6.2436e-05,-107.18,-0.00021817,-2215.5,1.0444
19211,14.259,1.9091,0,0.00021902,2188.7,7.7404e-05,0.035618,6.3462e-05,-104.72,-0.00022061,-2239.1,1.0319
19212,14.259,2,0.05,1.0356e-06,10.349,7.9519e-07,5.9748,-1.4429e-12,2.4956e-06,-7.9519e-07,-5.9747,1.0319
19213,14.534,2,0,0.00021181,2116.7,7.4719e-05,0.024109,6.1619e-05,-98.403,-0.00021332,-2164.2,1.0693
19214,14.443,1.9091,0,0.00021427,2141.2,7.5441e-05,0.028637,6.2587e-05,-96.55,-0.00021575,-2187.9,1.0567
19215,14.443,2,0.05,9.9493e-07,9.9424,7.6398e-07,5.7403,-7.9272e-13,-3.62e-06,-7.6398e-07,-5.7403,1.0568
19216,14.718,2,0,0.0002072,2070.5,7.279e-05,0.019859,6.0799e-05,-90.073,-0.00020858,-2114.1,1.0943
19217,14.626,1.9091,0,0.00020963,2094.9,7.3529e-05,0.023376,6.1717e-05,-88.728,-0.000211,-2137.8,1.0817
19218,14.626,2,0.05,9.6175e-07,9.6108,7.385e-07,5.5488,-2.4802e-12,5.0334e-07,-7.385e-07,-5.5488,1.0818
19219,14.902,2,0,0.00020266,2025.2,7.091e-05,0.016676,5.9969e-05,-82.195,-0.00020394,-2065.1,1.1195
19220,14.81,1.9091,0,0.00020508,2049.4,7.1663e-05,0.019407,6.0844e-05,-81.27,-0.00020634,-2088.8,1.1068
19221,14.81,2,0.05,9.3447e-07,9.3382,7.1756e-07,5.3915,-1.6291e-12,6.6961e-07,-7.1755e-07,-5.3914,1.1069
19222,15.086,2,0,0.0001982,1980.6,6.9074e-05,0.014309,5.9122e-05,-74.762,-0.00019936,-2016.9,1.1448
19223,14.994,1.9091,0,0.00020059,2004.5,6.9836e-05,0.016428,5.9961e-05,-74.185,-0.00020175,-2040.6,1.1321
19224,14.994,2,0.05,9.1186e-07,9.1123,7.0019e-07,5.261,-1.6012e-12,2.3926e-06,-7.0019e-07,-5.2609,1.1321
19225,15.27,2,0,0.00019378,1936.5,6.7275e-05,0.012546,5.8255e-05,-67.764,-0.00019484,-1969.4,1.1703
19226,15.178,1.9091,0,0.00019615,1960.2,6.8044e-05,0.014202,5.9063e-05,-67.47,-0.00019721,-1993,1.1574
19227,15.178,2,0.05,8.9293e-07,8.9231,6.8566e-07,5.1518,-1.2078e-12,8.2858e-07,-6.8566e-07,-5.1518,1.1575
19228,15.453,2,0,0.0001894,1892.7,6.551e-05,0.011241,5.7366e-05,-61.183,-0.00019037,-1922.6,1.1959
19229,15.362,1.9091,0,0.00019175,1916.2,6.6284e-05,0.012518,5.8147e-05,-61.121,-0.00019272,-1946,1.183
19230,15.362,2,0.05,8.7692e-07,8.7631,6.7336e-07,5.0594,-1.2596e-12,1.2463e-06,-6.7336e-07,-5.0594,1.1831
19231,15.637,2,0,0.00018506,1849.3,6.3775e-05,0.010321,5.6454e-05,-54.997,-0.00018593,-1876.2,1.2216
19232,15.545,1.9091,0,0.00018739,1872.6,6.4551e-05,0.011279,5.7212e-05,-55.125,-0.00018827,-1899.6,1.2086
19233,15.545,2,0.05,8.632e-07,8.626,6.6283e-07,4.9803,-1.7486e-12,1.6931e-06,-6.6283e-07,-4.9802,1.2087
19234,15.821,2,0,0.00018074,1806.2,6.2066e-05,0.0097099,5.5518e-05,-49.185,-0.00018153,-1830.3,1.2475
19235,15.729,1.9091,0,0.00018305,1829.3,6.2843e-05,0.010419,5.6258e-05,-49.467,-0.00018385,-1853.5,1.2344
19236,15.729,2,0.05,8.5131e-07,8.5073,6.5371e-07,4.9117,-1.3217e-12,7.7597e-07,-6.537e-07,-4.9116,1.2345
19237,16.005,2,0,0.00017645,1763.2,6.038e-05,0.0093311,5.456e-05,-43.724,-0.00017715,-1784.7,1.2734
19238,15.913,1.9091,0,0.00017874,1786.2,6.1158e-05,0.0098401,5.5283e-05,-44.13,-0.00017945,-1807.8,1.2603
19239,15.913,2,0.05,8.409e-07,8.4032,6.4571e-07,4.8516,-8.6428e-13,3.3398e-06,-6.4571e-07,-4.8516,1.2604
19240,16.189,2,0,0.00017217,1720.5,5.8717e-05,0.0091329,5.358e-05,-38.588,-0.00017279,-1739.4,1.2995
19241,16.097,1.9091,0,0.00017444,1743.2,5.9493e-05,0.0094811,5.4288e-05,-39.097,-0.00017508,-1762.5,1.2864
19242,16.097,2,0.05,8.3167e-07,8.311,6.3862e-07,4.7984,-1.7659e-12,3.7688e-06,-6.3862e-07,-4.7983,1.2865
19243,16.372,2,0,0.0001679,1677.9,5.7073e-05,0.0090595,5.2579e-05,-33.754,-0.00016845,-1694.5,1.3257
19244,16.281,1.9091,0,0.00017016,1700.5,5.7848e-05,0.0092951,5.3275e-05,-34.347,-0.00017072,-1717.4,1.3125
19245,16.281,2,0.05,8.2341e-07,8.2284,6.3228e-07,4.7507,-3.8421e-13,4.2749e-06,-6.3228e-07,-4.7507,1.3126
19246,16.556,2,0,0.00016365,1635.4,5.5447e-05,0.0090861,5.156e-05,-29.196,-0.00016413,-1649.8,1.3521
19247,16.464,1.9091,0,0.0001659,1657.8,5.622e-05,0.009215,5.2245e-05,-29.861,-0.00016639,-1672.6,1.3388
19248,16.464,2,0.05,8.1593e-07,8.1537,6.2653e-07,4.7075,-1.3099e-12,4.0071e-06,-6.2653e-07,-4.7075,1.3389
19249,16.74,2,0,0.00015942,1593.1,5.3837e-05,0.0092299,5.0523e-05,-24.892,-0.00015983,-1605.4,1.3785
19250,16.648,1.9091,0,0.00016165,1615.4,5.4609e-05,0.0092557,5.1198e-05,-25.617,-0.00016207,-1628,1.3652
19251,16.648,2,0.05,8.0908e-07,8.0852,6.2127e-07,4.668,-8.613e-13,3.195e-06,-6.2127e-07,-4.668,1.3653
19252,16.924,2,0,0.0001552,1550.9,5.2243e-05,0.0094891,4.9471e-05,-20.818,-0.00015554,-1561.2,1.405
19253,16.832,1.9091,0,0.00015741,1573,5.3012e-05,0.0094363,5.0136e-05,-21.596,-0.00015777,-1583.7,1.3917
19254,16.832,2,0.05,8.0276e-07,8.022,6.1642e-07,4.6315,-8.7584e-13,2.0747e-06,-6.1642e-07,-4.6315,1.3917
19255,17.108,2,0,0.00015098,1508.8,5.0663e-05,0.0098576,4.8406e-05,-16.951,-0.00015127,-1517.2,1.4317
19256,17.016,1.9091,0,0.00015318,1530.8,5.143e-05,0.0097395,4.9062e-05,-17.778,-0.00015348,-1539.6,1.4183
19257,17.016,2,0.05,7.9689e-07,7.9634,6.1191e-07,4.5977,-1.3402e-12,2.0297e-06,-6.1191e-07,-4.5977,1.4183
19258,17.291,2,0,0.00014679,1466.9,4.9096e-05,0.010361,4.7329e-05,-13.269,-0.00014701,-1473.4,1.4584
19259,17.2,1.9091,0,0.00014897,1488.7,4.986e-05,0.010185,4.7977e-05,-14.142,-0.00014921,-1495.7,1.445
19260,17.2,2,0.05,7.9141e-07,7.9086,6.077e-07,4.566,8.1669e-15,2.977e-06,-6.077e-07,-4.566,1.445
19261,17.475,2,0,0.0001426,1425,4.7542e-05,0.011061,4.6242e-05,-9.7506,-0.00014276,-1429.9,1.4853
19262,17.383,1.9091,0,0.00014477,1446.7,4.8303e-05,0.010837,4.6882e-05,-10.668,-0.00014495,-1452,1.4718
19263,17.383,2,0.05,7.8625e-07,7.8571,6.0375e-07,4.5363,-9.0646e-13,2.1986e-06,-6.0374e-07,-4.5363,1.4718
19264,17.659,2,0,0.00013843,1383.4,4.5999e-05,0.01221,4.5148e-05,-6.3758,-0.00013854,-1386.5,1.5122
19265,17.567,1.9091,0,0.00014059,1404.9,4.6758e-05,0.011861,4.5779e-05,-7.3389,-0.00014071,-1408.5,1.4987
19266,17.567,2,0.05,7.8139e-07,7.8085,6.0001e-07,4.5082,-9.013e-13,3.3832e-06,-6.0001e-07,-4.5082,1.4987
19267,17.843,2,0,0.00013427,1341.8,4.4466e-05,0.015121,4.4048e-05,-3.1254,-0.00013433,-1343.4,1.5393
19268,17.751,1.9091,0,0.00013642,1363.2,4.5223e-05,0.014083,4.4671e-05,-4.1355,-0.00013649,-1365.3,1.5257
19269,17.751,2,0.05,7.7676e-07,7.7623,5.9646e-07,4.4816,-4.4952e-13,2.8675e-06,-5.9646e-07,-4.4815,1.5257
19270,18.027,2,0,0.00013013,1300.4,4.2961e-05,0.14633,4.2928e-05,-0.10635,-0.00013013,-1300.4,1.5664
19271,17.935,1.9091,0,0.00013226,1321.7,4.37e-05,0.027458,4.3556e-05,-1.0495,-0.00013228,-1322.2,1.5527
19272,17.935,2,0.05,7.7236e-07,7.7183,5.9308e-07,4.4562,-1.8171e-12,4.1054e-06,-5.9308e-07,-4.4561,1.5528
19273,18.21,2,0,0.00012601,1259.2,4.1841e-05,3.1005,4.1429e-05,0.0057213,-0.00012595,-1257.6,1.5936
19274,18.119,1.9091,0,0.00012812,1280.3,4.2445e-05,1.9881,4.2181e-05,0.00091309,-0.00012808,-1279.3,1.5799
19275,18.119,2,0.05,7.6817e-07,7.6764,5.8986e-07,4.432,-9.0785e-13,3.557e-06,-5.8986e-07,-4.432,1.58
19276,18.394,2,0,0.0001219,1218.1,4.0735e-05,6.0984,3.9925e-05,0.0087039,-0.00012179,-1215.1,1.6209
19277,18.302,1.9091,0,0.00012399,1239.1,4.1329e-05,4.9225,4.0675e-05,0.0069258,-0.00012391,-1236.6,1.6072
19278,18.302,2,0.05,7.6417e-07,7.6365,5.8679e-07,4.4089,-4.547e-13,2.9359e-06,-5.8679e-07,-4.4089,1.6072
19279,18.578,2,0,0.00011781,1177.3,3.9631e-05,9.0509,3.8428e-05,0.010031,-0.00011765,-1172.7,1.6483
19280,18.486,1.9091,0,0.00011989,1198.1,4.0214e-05,7.808,3.9176e-05,0.0087664,-0.00011975,-1194.1,1.6345
19281,18.486,2,0.05,7.6036e-07,7.5983,5.8386e-07,4.3869,-4.5615e-13,3.031e-06,-5.8386e-07,-4.3869,1.6346
19282,18.762,2,0,0.00011373,1136.6,3.8531e-05,11.975,3.6939e-05,0.01096,-0.00011353,-1130.5,1.6758
19283,18.67,1.9091,0,0.0001158,1157.2,3.9103e-05,10.658,3.7685e-05,0.0098567,-0.00011561,-1151.8,1.6619
19284,18.67,2,0.05,7.5671e-07,7.5619,5.8106e-07,4.3659,-9.1368e-13,4.2086e-06,-5.8106e-07,-4.3658,1.662
19285,18.946,2,0,0.00010968,1096.1,3.7436e-05,14.888,3.5456e-05,0.01177,-0.00010942,-1088.5,1.7033
19286,18.854,1.9091,0,0.00011173,1116.5,3.7996e-05,13.49,3.6202e-05,0.010713,-0.00011149,-1109.7,1.6894
19287,18.854,2,0.05,7.5322e-07,7.527,5.7838e-07,4.3457,-4.5873e-13,3.3143e-06,-5.7838e-07,-4.3457,1.6895
19288,19.129,2,0,0.00010565,1055.8,3.6348e-05,17.809,3.398e-05,0.012553,-0.00010534,-1046.7,1.7309
19289,19.038,1.9091,0,0.00010768,1076.1,3.6895e-05,16.321,3.4724e-05,0.011506,-0.00010739,-1067.8,1.717
19290,19.038,2,0.05,7.4989e-07,7.4937,5.7582e-07,4.3265,2.0401e-15,5.0328e-06,-5.7582e-07,-4.3265,1.7171
19291,19.313,2,0,0.00010164,1015.7,3.5269e-05,20.754,3.2509e-05,0.013342,-0.00010127,-1005.2,1.7586
19292,19.221,1.9091,0,0.00010365,1035.8,3.5802e-05,19.167,3.3253e-05,0.012282,-0.00010331,-1026.1,1.7447
19293,19.221,2,0.05,7.4672e-07,7.462,5.7339e-07,4.3082,-9.011e-13,4.1073e-06,-5.7338e-07,-4.3082,1.7447
19294,19.497,2,0,9.7653e-05,975.85,3.4201e-05,23.743,3.1043e-05,0.014159,-9.7227e-05,-963.76,1.7863
19295,19.405,1.9091,0,9.9647e-05,995.78,3.4719e-05,22.045,3.1787e-05,0.01307,-9.9254e-05,-984.57,1.7724
19296,19.405,2,0.05,7.4371e-07,7.432,5.7108e-07,4.2909,-8.9228e-13,6.5373e-06,-5.7107e-07,-4.2908,1.7724
19297,19.681,2,0,9.369e-05,936.25,3.3146e-05,26.792,2.9582e-05,0.01501,-9.3205e-05,-922.56,1.8142
19298,19.589,1.9091,0,9.5665e-05,955.99,3.3647e-05,24.974,3.0325e-05,0.013892,-9.5215e-05,-943.25,1.8002
19299,19.589,2,0.05,7.4087e-07,7.4036,5.689e-07,4.2745,-1.346e-12,8.9506e-06,-5.689e-07,-4.2744,1.8002
19300,19.865,2,0,8.9752e-05,896.9,3.2105e-05,29.922,2.8125e-05,0.015909,-8.9205e-05,-881.56,1.842
19301,19.773,1.9091,0,9.1706e-05,916.43,3.2589e-05,27.971,2.8868e-05,0.014742,-9.1198e-05,-902.12,1.828
19302,19.773,2,0.05,7.382e-07,7.3769,5.6685e-07,4.2591,-8.9478e-13,7.9615e-06,-5.6684e-07,-4.259,1.8281
19303,20.048,2,0,8.5841e-05,857.81,3.1081e-05,33.152,2.6671e-05,0.016888,-8.5228e-05,-840.75,1.87
19304,19.956,1.9091,0,8.7774e-05,877.13,3.1546e-05,31.055,2.7415e-05,0.015655,-8.7204e-05,-861.18,1.8559
19305,19.956,2,0.05,7.357e-07,7.3519,5.6493e-07,4.2447,-4.413e-13,7.9707e-06,-5.6493e-07,-4.2446,1.856
19306,20.232,2,0,8.1958e-05,819.01,3.0075e-05,36.5,2.5219e-05,0.017966,-8.1275e-05,-800.14,1.898
19307,20.14,1.9091,0,8.3868e-05,838.1,3.052e-05,34.243,2.5964e-05,0.016663,-8.3233e-05,-820.45,1.8839
19308,20.14,2,0.05,7.3339e-07,7.3288,5.6315e-07,4.2313,-6.7002e-13,6.7408e-06,-5.6315e-07,-4.2313,1.884
19309,20.416,2,0,7.8104e-05,780.5,2.9089e-05,39.989,2.377e-05,0.019152,-7.7347e-05,-759.73,1.926
19310,20.324,1.9091,0,7.999e-05,799.35,2.9512e-05,37.557,2.4516e-05,0.017768,-7.9285e-05,-779.9,1.9119
19311,20.324,2,0.05,7.3127e-07,7.3077,5.6153e-07,4.2191,-2.1807e-13,5.7551e-06,-5.6153e-07,-4.2191,1.912
19312,20.6,2,0,7.4282e-05,742.3,2.8126e-05,43.638,2.2321e-05,0.020465,-7.3443e-05,-719.51,1.9541
19313,20.508,1.9091,0,7.6143e-05,760.9,2.8526e-05,41.015,2.307e-05,0.01899,-7.5362e-05,-739.56,1.94
19314,20.508,2,0.05,7.2938e-07,7.2887,5.6007e-07,4.2082,-4.4954e-13,6.1616e-06,-5.6007e-07,-4.2081,1.9401
19315,20.784,2,0,7.0492e-05,704.44,2.7188e-05,47.47,2.0873e-05,0.02192,-6.9565e-05,-679.49,1.9823
19316,20.692,1.9091,0,7.2327e-05,722.77,2.7563e-05,44.64,2.1624e-05,0.020349,-7.1464e-05,-699.4,1.9681
19317,20.692,2,0.05,7.2771e-07,7.2721,5.588e-07,4.1986,-4.5675e-13,8.0658e-06,-5.5879e-07,-4.1985,1.9682
19318,20.967,2,0,6.6738e-05,666.92,2.6277e-05,51.508,1.9425e-05,0.023545,-6.5712e-05,-639.67,2.0105
19319,20.875,1.9091,0,6.8544e-05,684.97,2.6625e-05,48.453,2.0179e-05,0.021854,-6.7591e-05,-659.45,1.9963
19320,20.875,2,0.05,7.263e-07,7.258,5.5771e-07,4.1904,-9.0975e-13,9.5119e-06,-5.5771e-07,-4.1904,1.9964
19321,21.151,2,0,6.3022e-05,629.78,2.5395e-05,55.777,1.7975e-05,0.02539,-6.1887e-05,-600.03,2.0387
19322,21.059,1.9091,0,6.4797e-05,647.52,2.5714e-05,52.478,1.8733e-05,0.023551,-6.3744e-05,-619.68,2.0246
19323,21.059,2,0.05,7.2517e-07,7.2467,5.5684e-07,4.1839,-4.3965e-13,8.1916e-06,-5.5684e-07,-4.1839,2.0246
19324,21.335,2,0,5.9346e-05,593.05,2.4545e-05,60.303,1.6523e-05,0.027503,-5.8089e-05,-560.58,2.067
19325,21.243,1.9091,0,6.1088e-05,610.46,2.4834e-05,56.74,1.7285e-05,0.025498,-5.9925e-05,-580.1,2.0528
19326,21.243,2,0.05,7.2434e-07,7.2384,5.5621e-07,4.1791,2.6027e-15,8.1265e-06,-5.562e-07,-4.1791,2.0529
19327,21.519,2,0,5.5713e-05,556.75,2.373e-05,65.112,1.5068e-05,0.029936,-5.4319e-05,-521.32,2.0953
19328,21.427,1.9091,0,5.7421e-05,573.81,2.3986e-05,61.265,1.5835e-05,0.027734,-5.6132e-05,-540.71,2.0811
19329,21.427,2,0.05,7.2386e-07,7.2336,5.5584e-07,4.1764,-3.4704e-15,7.5104e-06,-5.5584e-07,-4.1763,2.0812
19330,21.703,2,0,5.2128e-05,520.92,2.2952e-05,70.232,1.3609e-05,0.032768,-5.0577e-05,-482.23,2.1237
19331,21.611,1.9091,0,5.3798e-05,537.61,2.3173e-05,66.082,1.4382e-05,0.030327,-5.2368e-05,-501.5,2.1095
19332,21.611,2,0.05,7.2377e-07,7.2327,5.5577e-07,4.1758,-5.1254e-14,6.8073e-06,-5.5577e-07,-4.1758,2.1095
19333,21.886,2,0,4.8595e-05,485.62,2.2213e-05,75.694,1.2143e-05,0.036098,-4.6863e-05,-443.31,2.1521
19334,21.794,1.9091,0,5.0224e-05,501.9,2.2398e-05,71.22,1.2924e-05,0.033365,-4.8632e-05,-462.47,2.1379
19335,21.794,2,0.05,7.2412e-07,7.2362,5.5603e-07,4.1778,-5.2634e-14,6.2537e-06,-5.5603e-07,-4.1778,2.1379
19336,22.07,2,0,4.5121e-05,450.89,2.1516e-05,81.526,1.0671e-05,0.04007,-4.3177e-05,-404.55,2.1805
19337,21.978,1.9091,0,4.6705e-05,466.73,2.1664e-05,76.71,1.1459e-05,0.036962,-4.4925e-05,-423.61,2.1663
19338,21.978,2,0.05,7.2496e-07,7.2446,5.5668e-07,4.1827,-6.8703e-14,1.3804e-06,-5.5668e-07,-4.1827,2.1663
19339,22.254,2,0,4.1711e-05,416.83,2.0865e-05,87.76,9.1908e-06,0.044898,-3.9519e-05,-365.94,2.209
19340,22.162,1.9091,0,4.3247e-05,432.17,2.0973e-05,82.584,9.9877e-06,0.041302,-4.1246e-05,-384.91,2.1947
19341,22.162,2,0.05,7.2636e-07,7.2586,5.5775e-07,4.1908,-7.0046e-14,3.4148e-06,-5.5775e-07,-4.1907,2.1947
19342,22.438,2,0,3.8377e-05,383.51,2.0261e-05,94.427,7.7004e-06,0.050902,-3.5888e-05,-327.46,2.2375
19343,22.346,1.9091,0,3.9859e-05,398.31,2.033e-05,88.877,8.5072e-06,0.04663,-3.7596e-05,-346.35,2.2232
19344,22.346,2,0.05,7.284e-07,7.2789,5.5932e-07,4.2025,2.278e-13,3.8338e-06,-5.5932e-07,-4.2025,2.2232
19345,22.622,2,0,3.5131e-05,351.07,1.9707e-05,101.56,6.1984e-06,0.058493,-3.2283e-05,-289.08,2.266
19346,22.53,1.9091,0,3.6551e-05,365.26,1.9735e-05,95.62,7.0162e-06,0.053357,-3.3973e-05,-307.92,2.2517
19347,22.53,2,0.05,7.3116e-07,7.3065,5.6144e-07,4.2184,-1.2577e-15,6.7539e-06,-5.6144e-07,-4.2184,2.2517
19348,22.805,2,0,3.1989e-05,319.67,1.9204e-05,109.17,4.6829e-06,0.068676,-2.8702e-05,-250.77,2.2945
19349,22.713,1.9091,0,3.334e-05,333.17,1.9193e-05,102.85,5.5129e-06,0.061917,-3.0377e-05,-269.6,2.2802
19350,22.713,2,0.05,7.3473e-07,7.3422,5.6418e-07,4.239,-2.8331e-14,4.5017e-06,-5.6418e-07,-4.239,2.2802
19351,22.989,2,0,2.8976e-05,289.56,1.8752e-05,117.3,3.1521e-06,0.081864,-2.5141e-05,-212.5,2.3231
19352,22.897,1.9091,0,3.0244e-05,302.23,1.8703e-05,110.58,3.9953e-06,0.073932,-2.6805e-05,-231.35,2.3087
19353,22.897,2,0.05,7.392e-07,7.3869,5.6762e-07,4.2649,4.0777e-13,8.1572e-06,-5.6762e-07,-4.2648,2.3088
19354,23.173,2,0,2.6126e-05,261.08,1.8353e-05,125.95,1.6045e-06,0.10425,-2.1597e-05,-174.22,2.3516
19355,23.081,1.9091,0,2.7292e-05,272.73,1.8268e-05,118.86,2.4614e-06,0.088739,-2.3254e-05,-193.12,2.3373
19356,23.081,2,0.05,7.4465e-07,7.4414,5.718e-07,4.2963,6.0901e-13,1.2868e-05,-5.718e-07,-4.2963,2.3373
19357,23.357,2,0,2.3486e-05,234.7,1.8005e-05,135.13,3.7474e-08,0.1268,-1.8064e-05,-135.88,2.3802
19358,23.265,1.9091,0,2.4526e-05,245.09,1.7888e-05,127.68,9.1006e-07,0.11973,-1.9719e-05,-154.88,2.3659
19359,23.265,2,0.05,7.5115e-07,7.5063,5.7679e-07,4.3338,9.3452e-13,1.1654e-05,-5.7679e-07,-4.3338,2.3659
19360,23.541,2,0,2.1128e-05,211.14,1.7706e-05,144.86,-1.5444e-06,0.22188,-1.454e-05,-97.424,2.4088
19361,23.449,1.9091,0,2.2003e-05,219.88,1.756e-05,137.06,-6.6302e-07,0.13668,-1.6195e-05,-116.57,2.3945
19362,23.449,2,0.05,7.5868e-07,7.5816,5.8257e-07,4.3772,7.2036e-13,1.7436e-05,-5.8257e-07,-4.3772,2.3945
19363,23.724,2,0,1.915e-05,191.37,1.7455e-05,155.07,-3.155e-06,0.21581,-1.102e-05,-58.876,2.4374
19364,23.632,1.9091,0,1.9809e-05,197.95,1.7283e-05,147.04,-2.2441e-06,0.31959,-1.2683e-05,-78.111,2.4231
19365,23.632,2,0.05,7.6747e-07,7.6694,5.8932e-07,4.4279,9.3324e-13,1.5458e-05,-5.8932e-07,-4.4279,2.4231
19366,23.816,1.9091,0,1.8061e-05,180.49,1.7056e-05,157.41,-3.869e-06,0.18776,-9.1748e-06,-39.678,2.4517
19367,23.816,2,0.05,7.8187e-07,7.8133,6.0038e-07,4.511,1.3859e-12,1.3556e-05,-6.0038e-07,-4.511,2.4517
19368,23.908,2,0,1.7727e-05,177.15,1.7244e-05,165.09,-4.671e-06,0.43017,-7.7014e-06,-22.34,2.466
19369,11.042,1.8182,0,0.00060725,6068.3,0.000326,1531.6,0.00011449,-57.54,-0.00056635,-5173.1,0.62485
19370,10.95,1.7273,0,0.00061998,6195.5,0.00037558,2129.7,8.4531e-05,-57.161,-0.00055504,-4862.7,0.61361
19371,10.95,1.8182,0.05,5.2195e-05,521.59,4.0079e-05,301.14,2.2905e-11,0.00010835,-4.0079e-05,-301.14,0.61412
19372,10.859,1.8182,0,0.0006132,6127.8,0.0004097,2535,4.0907e-05,-235.97,-0.00052512,-4488.8,0.6035
19373,11.226,1.8182,0,0.00046768,4673.6,0.00020362,600.99,0.00012356,-0.56704,-0.00045455,-4344.3,0.64644
19374,11.134,1.7273,0,0.00046978,4694.5,0.00022951,920.28,0.00010751,3.6058,-0.00044729,-4165,0.63519
19375,11.134,1.8182,0.05,1.7469e-05,174.57,1.3414e-05,100.79,5.2869e-12,0.00011187,-1.3414e-05,-100.79,0.63559
19376,11.41,1.8182,0,0.00040123,4009.5,0.00015131,224.8,0.00012062,-5.7801,-0.000397,-3895,0.66826
19377,11.318,1.7273,0,0.0004002,3999.2,0.00016598,407.51,0.00011068,-8.0075,-0.00039178,-3783.2,0.65697
19378,11.318,1.8182,0.05,8.1446e-06,81.389,6.254e-06,46.99,6.5922e-12,6.4363e-05,-6.254e-06,-46.99,0.65729
19379,11.594,1.8182,0,0.00036157,3613.2,0.00012443,55.64,0.00011575,-9.6007,-0.00036074,-3589.8,0.69031
19380,11.502,1.7273,0,0.00035996,3597.2,0.00013278,166.24,0.00011012,-4.0173,-0.0003569,-3513,0.67896
19381,11.502,1.8182,0.05,5.871e-06,58.67,4.5082e-06,33.873,3.2284e-12,3.7504e-05,-4.5082e-06,-33.873,0.67922
19382,11.778,1.8182,0,0.00033444,3342.1,0.00011362,5.7736,0.00010538,-56.138,-0.00033526,-3366.9,0.71258
19383,11.686,1.7273,0,0.00033276,3325.3,0.0001135,37.345,0.00010698,-11.6,-0.00033229,-3312.1,0.70116
19384,11.686,1.8182,0.05,4.6073e-06,46.041,3.5378e-06,26.582,4.9231e-12,2.96e-05,-3.5378e-06,-26.582,0.70138
19385,11.961,1.8182,0,0.00031474,3145.2,0.00010923,2.0548,9.4872e-05,-105.85,-0.00031637,-3195.7,0.73506
19386,11.869,1.7273,0,0.0003135,3132.8,0.00010658,4.9145,9.8595e-05,-55.08,-0.00031431,-3157.5,0.72357
19387,11.869,1.8182,0.05,3.7372e-06,37.347,2.8697e-06,21.562,4.8682e-12,2.269e-05,-2.8697e-06,-21.562,0.72376
19388,12.145,1.8182,0,0.00029965,2994.4,0.00010554,1.1131,8.7554e-05,-134.03,-0.00030168,-3058.6,0.75775
19389,12.053,1.7273,0,0.00029901,2988,0.00010351,1.8798,9.0585e-05,-95.199,-0.00030048,-3033.5,0.74618
19390,12.053,1.8182,0.05,3.1223e-06,31.201,2.3975e-06,18.014,1.2842e-12,1.6617e-05,-2.3975e-06,-18.014,0.74635
19391,12.329,1.8182,0,0.00028756,2873.7,0.0001022,0.72025,8.2382e-05,-148.19,-0.00028978,-2944.5,0.78064
19392,12.237,1.7273,0,0.00028755,2873.5,0.00010076,1.066,8.4922e-05,-117.95,-0.00028935,-2930.1,0.76899
19393,12.237,1.8182,0.05,2.6593e-06,26.574,2.042e-06,15.343,1.1728e-12,1.9662e-05,-2.042e-06,-15.343,0.76914
19394,12.513,1.8182,0,0.00027751,2773.2,9.9129e-05,0.49898,7.8604e-05,-153.72,-0.0002798,-2846.6,0.80372
19395,12.421,1.7273,0,0.00027807,2778.8,9.8158e-05,0.68715,8.0836e-05,-129.47,-0.00028003,-2840.9,0.79199
19396,12.421,1.8182,0.05,2.2993e-06,22.977,1.7656e-06,13.266,9.5035e-13,1.4859e-05,-1.7656e-06,-13.266,0.79213
19397,12.697,1.8182,0,0.00026888,2686.9,9.6274e-05,0.3616,7.5742e-05,-153.91,-0.00027116,-2760.4,0.827
19398,12.605,1.7273,0,0.00026992,2697.4,9.5671e-05,0.4775,7.7769e-05,-134.03,-0.00027194,-2761.6,0.81517
19399,12.605,1.8182,0.05,2.0131e-06,20.117,1.5458e-06,11.615,3.8635e-13,2.9839e-05,-1.5458e-06,-11.615,0.81531
19400,12.88,1.8182,0,0.00026126,2610.8,9.3601e-05,0.26806,7.3495e-05,-150.79,-0.0002635,-2682.8,0.85045
19401,12.788,1.7273,0,0.0002627,2625.2,9.3286e-05,0.34416,7.537e-05,-134.27,-0.00026472,-2689.6,0.83854
19402,12.788,1.8182,0.05,1.783e-06,17.818,1.3691e-06,10.287,-2.2116e-13,-1.6722e-05,-1.3691e-06,-10.287,0.83867
19403,13.064,1.8182,0,0.0002544,2542.3,9.1079e-05,0.20179,7.167e-05,-145.63,-0.00025656,-2611.8,0.87408
19404,12.972,1.7273,0,0.00025615,2559.7,9.0994e-05,0.25414,7.3419e-05,-131.79,-0.00025813,-2622.9,0.86209
19405,12.972,1.8182,0.05,1.5971e-06,15.96,1.2263e-06,9.2143,-2.4171e-13,8.3436e-06,-1.2263e-06,-9.2142,0.86222
19406,13.248,1.8182,0,0.0002481,2479.3,8.8686e-05,0.1534,7.0137e-05,-139.22,-0.00025018,-2545.9,0.89789
19407,13.156,1.7273,0,0.00025008,2499.1,8.8783e-05,0.19048,7.1774e-05,-127.61,-0.000252,-2560.3,0.88581
19408,13.156,1.8182,0.05,1.4468e-06,14.458,1.1109e-06,8.3472,-1.0384e-12,1.8845e-05,-1.1109e-06,-8.3472,0.88594
19409,13.432,1.8182,0,0.00024224,2420.7,8.6402e-05,0.11754,6.8808e-05,-132.08,-0.00024422,-2484,0.92186
19410,13.34,1.7273,0,0.00024439,2442.2,8.6644e-05,0.14436,7.0342e-05,-122.35,-0.00024624,-2501,0.90971
19411,13.34,1.8182,0.05,1.3255e-06,13.246,1.0178e-06,7.6476,-1.911e-13,4.3631e-06,-1.0178e-06,-7.6476,0.90983
19412,13.616,1.8182,0,0.00023672,2365.5,8.4212e-05,0.090719,6.7624e-05,-124.54,-0.00023859,-2425.3,0.946
19413,13.524,1.7273,0,0.00023898,2388.2,8.4569e-05,0.11044,6.906e-05,-116.41,-0.00024075,-2444.2,0.93377
19414,13.524,1.8182,0.05,1.2279e-06,12.271,9.429e-07,7.0846,-1.2335e-12,-5.0082e-06,-9.429e-07,-7.0846,0.93388
19415,13.799,1.8182,0,0.00023145,2312.9,8.21e-05,0.070523,6.654e-05,-116.84,-0.00023322,-2369.1,0.9703
19416,13.707,1.7273,0,0.0002338,2336.4,8.255e-05,0.085211,6.7886e-05,-110.09,-0.00023548,-2389.4,0.95799
19417,13.707,1.8182,0.05,1.1496e-06,11.488,8.8274e-07,6.6326,-1.8072e-12,6.0286e-06,-8.8273e-07,-6.6325,0.9581
19418,13.983,1.8182,0,0.0002264,2262.4,8.0057e-05,0.055272,6.5525e-05,-109.13,-0.00022806,-2315,0.99475
19419,13.891,1.7273,0,0.0002288,2286.4,8.0579e-05,0.066318,6.6788e-05,-103.56,-0.00023038,-2336.4,0.98237
19420,13.891,1.8182,0.05,1.0867e-06,10.86,8.3446e-07,6.2699,-2.0223e-12,6.5069e-06,-8.3446e-07,-6.2698,0.98248
19421,14.167,1.8182,0,0.00022151,2213.6,7.8073e-05,0.043675,6.4556e-05,-101.52,-0.00022306,-2262.6,1.0194
19422,14.075,1.7273,0,0.00022393,2237.8,7.8653e-05,0.052097,6.5742e-05,-96.956,-0.00022542,-2284.7,1.0069
19423,14.075,1.8182,0.05,1.0362e-06,10.355,7.957e-07,5.9786,-5.1072e-13,-5.4999e-06,-7.957e-07,-5.9786,1.007
19424,14.351,1.8182,0,0.00021675,2166,7.614e-05,0.034857,6.3614e-05,-94.078,-0.0002182,-2211.5,1.0441
19425,14.259,1.7273,0,0.00021919,2190.4,7.6766e-05,0.041308,6.4731e-05,-90.381,-0.00022058,-2234.1,1.0316
19426,14.259,1.8182,0.05,9.9557e-07,9.9488,7.6448e-07,5.744,-2.3933e-12,1.3967e-07,-7.6448e-07,-5.7439,1.0317
19427,14.534,1.8182,0,0.00021209,2119.5,7.4251e-05,0.028172,6.2687e-05,-86.866,-0.00021344,-2161.5,1.069
19428,14.443,1.7273,0,0.00021453,2143.8,7.4913e-05,0.033123,6.3742e-05,-83.902,-0.00021583,-2184.5,1.0564
19429,14.443,1.8182,0.05,9.6261e-07,9.6195,7.3917e-07,5.5539,-2.5923e-12,4.1502e-06,-7.3917e-07,-5.5538,1.0565
19430,14.718,1.8182,0,0.00020752,2073.7,7.2403e-05,0.023119,6.1763e-05,-79.916,-0.00020876,-2112.5,1.0941
19431,14.626,1.7273,0,0.00020995,2098,7.3093e-05,0.026943,6.2765e-05,-77.572,-0.00021116,-2135.7,1.0814
19432,14.626,1.8182,0.05,9.357e-07,9.3505,7.185e-07,5.3985,-1.7136e-12,-1.16e-06,-7.185e-07,-5.3985,1.0815
19433,14.902,1.8182,0,0.00020301,2028.7,7.0589e-05,0.019301,6.0837e-05,-73.251,-0.00020415,-2064.3,1.1193
19434,14.81,1.7273,0,0.00020543,2052.9,7.13e-05,0.022261,6.1791e-05,-71.428,-0.00020655,-2087.6,1.1065
19435,14.81,1.8182,0.05,9.1351e-07,9.1288,7.0146e-07,5.2705,-7.4858e-13,6.3928e-07,-7.0146e-07,-5.2705,1.1066
19436,15.086,1.8182,0,0.00019855,1984.1,6.8807e-05,0.016424,5.9903e-05,-66.883,-0.0001996,-2016.7,1.1446
19437,14.994,1.7273,0,0.00020095,2008.2,6.9534e-05,0.018719,6.0815e-05,-65.498,-0.00020199,-2040.1,1.1318
19438,14.994,1.8182,0.05,8.9501e-07,8.944,6.8726e-07,5.1638,-1.6423e-12,1.6667e-06,-6.8726e-07,-5.1638,1.1319
19439,15.27,1.8182,0,0.00019413,1939.9,6.7052e-05,0.014249,5.8956e-05,-60.817,-0.00019509,-1969.6,1.1701
19440,15.178,1.7273,0,0.00019652,1963.8,6.7793e-05,0.016044,5.9832e-05,-59.798,-0.00019747,-1993.1,1.1572
19441,15.178,1.8182,0.05,8.7941e-07,8.788,6.7528e-07,5.0738,-1.212e-12,8.8084e-07,-6.7528e-07,-5.0737,1.1573
19442,15.453,1.8182,0,0.00018974,1896.1,6.5324e-05,0.012608,5.7995e-05,-55.052,-0.00019062,-1923.1,1.1957
19443,15.362,1.7273,0,0.00019212,1919.9,6.6073e-05,0.013995,5.8839e-05,-54.338,-0.00019299,-1946.5,1.1827
19444,15.362,1.8182,0.05,8.6606e-07,8.6546,6.6503e-07,4.9968,-1.2642e-12,9.0345e-07,-6.6503e-07,-4.9967,1.1828
19445,15.637,1.8182,0,0.00018539,1852.6,6.3619e-05,0.011411,5.7018e-05,-49.582,-0.00018618,-1876.9,1.2214
19446,15.545,1.7273,0,0.00018774,1876.2,6.4374e-05,0.012456,5.7835e-05,-49.123,-0.00018853,-1900.2,1.2084
19447,15.545,1.8182,0.05,8.5448e-07,8.5389,6.5614e-07,4.93,-1.7421e-12,9.2288e-07,-6.5613e-07,-4.9299,1.2085
19448,15.821,1.8182,0,0.00018105,1809.3,6.1935e-05,0.01057,5.6024e-05,-44.399,-0.00018177,-1831.1,1.2473
19449,15.729,1.7273,0,0.00018339,1832.7,6.2695e-05,0.01135,5.6817e-05,-44.152,-0.0001841,-1854.3,1.2342
19450,15.729,1.8182,0.05,8.443e-07,8.4372,6.4832e-07,4.8713,-1.8113e-12,1.3392e-06,-6.4832e-07,-4.8712,1.2343
19451,16.005,1.8182,0,0.00017674,1766.2,6.027e-05,0.010001,5.5013e-05,-39.49,-0.00017738,-1785.6,1.2732
19452,15.913,1.7273,0,0.00017906,1789.4,6.1033e-05,0.010566,5.5785e-05,-39.42,-0.0001797,-1808.8,1.2601
19453,15.913,1.8182,0.05,8.3525e-07,8.3468,6.4137e-07,4.819,-1.3062e-12,4.0848e-06,-6.4137e-07,-4.819,1.2602
19454,16.189,1.8182,0,0.00017244,1723.2,5.8624e-05,0.0096451,5.3986e-05,-34.841,-0.00017301,-1740.4,1.2993
19455,16.097,1.7273,0,0.00017475,1746.3,5.9389e-05,0.010038,5.474e-05,-34.921,-0.00017532,-1763.5,1.2861
19456,16.097,1.8182,0.05,8.2711e-07,8.2654,6.3512e-07,4.772,-1.768e-12,3.6783e-06,-6.3512e-07,-4.772,1.2862
19457,16.372,1.8182,0,0.00016816,1680.5,5.6995e-05,0.009445,5.2943e-05,-30.439,-0.00016866,-1695.5,1.3255
19458,16.281,1.7273,0,0.00017045,1703.3,5.776e-05,0.0097134,5.368e-05,-30.644,-0.00017095,-1718.4,1.3123
19459,16.281,1.8182,0.05,8.1971e-07,8.1915,6.2944e-07,4.7294,-3.9588e-13,3.9233e-06,-6.2944e-07,-4.7293,1.3124
19460,16.556,1.8182,0,0.0001639,1637.8,5.5382e-05,0.0093724,5.1885e-05,-26.265,-0.00016433,-1650.8,1.3519
19461,16.464,1.7273,0,0.00016616,1660.5,5.6146e-05,0.009525,5.2608e-05,-26.578,-0.0001666,-1673.6,1.3386
19462,16.464,1.8182,0.05,8.1292e-07,8.1236,6.2422e-07,4.6902,-3.9479e-13,4.0578e-06,-6.2422e-07,-4.6901,1.3387
19463,16.74,1.8182,0,0.00015964,1595.3,5.3783e-05,0.0094437,5.0814e-05,-22.303,-0.00016001,-1606.3,1.3783
19464,16.648,1.7273,0,0.00016189,1617.8,5.4547e-05,0.0094837,5.1523e-05,-22.71,-0.00016227,-1629.1,1.365
19465,16.648,1.8182,0.05,8.0661e-07,8.0606,6.1938e-07,4.6538,-1.7762e-12,2.9326e-06,-6.1938e-07,-4.6537,1.3651
19466,16.924,1.8182,0,0.0001554,1552.9,5.2199e-05,0.0096615,4.973e-05,-18.537,-0.00015571,-1562.1,1.4049
19467,16.832,1.7273,0,0.00015764,1575.3,5.2961e-05,0.0096162,5.0428e-05,-19.027,-0.00015795,-1584.7,1.3915
19468,16.832,1.8182,0.05,8.0073e-07,8.0017,6.1486e-07,4.6198,-1.3302e-12,1.8607e-06,-6.1486e-07,-4.6198,1.3915
19469,17.108,1.8182,0,0.00015117,1510.7,5.0627e-05,0.010032,4.8636e-05,-14.948,-0.00015142,-1518.1,1.4315
19470,17.016,1.7273,0,0.0001534,1532.9,5.1388e-05,0.0099119,4.9322e-05,-15.513,-0.00015365,-1540.6,1.4181
19471,17.016,1.8182,0.05,7.952e-07,7.9465,6.1062e-07,4.588,-1.3461e-12,2.4659e-06,-6.1062e-07,-4.5879,1.4181
19472,17.291,1.8182,0,0.00014696,1468.6,4.9067e-05,0.010608,4.7533e-05,-11.519,-0.00014715,-1474.3,1.4583
19473,17.2,1.7273,0,0.00014917,1490.6,4.9827e-05,0.010418,4.8208e-05,-12.154,-0.00014937,-1496.7,1.4448
19474,17.2,1.8182,0.05,7.8999e-07,7.8945,6.0662e-07,4.5579,-4.3967e-13,2.849e-06,-6.0661e-07,-4.5578,1.4448
19475,17.475,1.8182,0,0.00014276,1426.6,4.7519e-05,0.011527,4.6422e-05,-8.2339,-0.0001429,-1430.7,1.4851
19476,17.383,1.7273,0,0.00014495,1448.5,4.8277e-05,0.01126,4.7086e-05,-8.9353,-0.0001451,-1452.9,1.4716
19477,17.383,1.8182,0.05,7.8506e-07,7.8451,6.0283e-07,4.5294,-1.8116e-12,2.1448e-06,-6.0282e-07,-4.5294,1.4716
19478,17.659,1.8182,0,0.00013858,1384.8,4.5982e-05,0.013334,4.5305e-05,-5.0747,-0.00013866,-1387.3,1.5121
19479,17.567,1.7273,0,0.00014075,1406.5,4.6738e-05,0.012826,4.5958e-05,-5.841,-0.00014085,-1409.4,1.4985
19480,17.567,1.8182,0.05,7.8036e-07,7.7982,5.9922e-07,4.5023,-9.0023e-13,3.1501e-06,-5.9922e-07,-4.5023,1.4985
19481,17.843,1.8182,0,0.0001344,1343.1,4.4456e-05,0.019816,4.4183e-05,-2.0285,-0.00013444,-1344.1,1.5391
19482,17.751,1.7273,0,0.00013656,1364.7,4.5209e-05,0.017268,4.4826e-05,-2.8583,-0.00013661,-1366.1,1.5255
19483,17.751,1.8182,0.05,7.7587e-07,7.7534,5.9578e-07,4.4764,5.7093e-15,2.4111e-06,-5.9578e-07,-4.4764,1.5255
19484,18.027,1.8182,0,0.00013025,1301.6,4.3063e-05,0.96484,4.2933e-05,-0.012404,-0.00013023,-1301.1,1.5662
19485,17.935,1.7273,0,0.00013239,1323,4.3711e-05,0.18214,4.367e-05,-0.12903,-0.00013239,-1323,1.5526
19486,17.935,1.8182,0.05,7.7158e-07,7.7105,5.9248e-07,4.4517,-4.5188e-13,3.585e-06,-5.9248e-07,-4.4516,1.5526
19487,18.21,1.8182,0,0.00012611,1260.2,4.1936e-05,3.8341,4.1427e-05,0.0045674,-0.00012604,-1258.3,1.5934
19488,18.119,1.7273,0,0.00012824,1281.5,4.2558e-05,2.8684,4.2176e-05,0.0011189,-0.00012819,-1280.1,1.5797
19489,18.119,1.8182,0.05,7.6748e-07,7.6695,5.8933e-07,4.428,-1.3625e-12,3.1814e-06,-5.8932e-07,-4.4279,1.5798
19490,18.394,1.8182,0,0.00012199,1219,4.0812e-05,6.6592,3.9927e-05,0.0073077,-0.00012187,-1215.7,1.6207
19491,18.302,1.7273,0,0.0001241,1240.1,4.1422e-05,5.6179,4.0675e-05,0.0055539,-0.000124,-1237.3,1.607
19492,18.302,1.8182,0.05,7.6354e-07,7.6302,5.8631e-07,4.4053,-9.097e-13,2.3163e-06,-5.8631e-07,-4.4053,1.6071
19493,18.578,1.8182,0,0.00011788,1178,3.969e-05,9.4437,3.8434e-05,0.0086623,-0.00011772,-1173.3,1.6481
19494,18.486,1.7273,0,0.00011998,1199,4.0288e-05,8.323,3.9181e-05,0.0073137,-0.00011984,-1194.8,1.6343
19495,18.486,1.8182,0.05,7.5978e-07,7.5925,5.8342e-07,4.3836,-4.5702e-13,2.6289e-06,-5.8341e-07,-4.3836,1.6344
19496,18.762,1.8182,0,0.0001138,1137.2,3.8571e-05,12.203,3.6949e-05,0.0096089,-0.00011359,-1131.1,1.6756
19497,18.67,1.7273,0,0.00011588,1158,3.9157e-05,10.997,3.7694e-05,0.0083999,-0.00011569,-1152.4,1.6618
19498,18.67,1.8182,0.05,7.5617e-07,7.5565,5.8065e-07,4.3628,-9.1366e-13,3.9076e-06,-5.8064e-07,-4.3627,1.6618
19499,18.946,1.8182,0,0.00010973,1096.6,3.7458e-05,14.952,3.547e-05,0.010418,-0.00010947,-1089,1.7031
19500,18.854,1.7273,0,0.00011179,1117.2,3.8031e-05,13.654,3.6215e-05,0.0092468,-0.00011156,-1110.3,1.6893
19501,18.854,1.8182,0.05,7.5271e-07,7.5219,5.7799e-07,4.3428,-1.8248e-12,3.0463e-06,-5.7799e-07,-4.3428,1.6893
19502,19.129,1.8182,0,0.00010569,1056.2,3.6353e-05,17.709,3.3997e-05,0.011188,-0.00010538,-1047.2,1.7308
19503,19.038,1.7273,0,0.00010773,1076.6,3.6911e-05,16.311,3.4741e-05,0.01002,-0.00010744,-1068.3,1.7169
19504,19.038,1.8182,0.05,7.494e-07,7.4888,5.7545e-07,4.3237,-1.8193e-12,4.4023e-06,-5.7544e-07,-4.3236,1.7169
19505,19.313,1.8182,0,0.00010166,1015.9,3.5256e-05,20.489,3.253e-05,0.011952,-0.0001013,-1005.5,1.7584
19506,19.221,1.7273,0,0.00010369,1036.2,3.5799e-05,18.982,3.3274e-05,0.010766,-0.00010335,-1026.6,1.7445
19507,19.221,1.8182,0.05,7.4624e-07,7.4573,5.7302e-07,4.3055,-9.0116e-13,3.9971e-06,-5.7302e-07,-4.3054,1.7446
19508,19.497,1.8182,0,9.7664e-05,975.96,3.4169e-05,23.309,3.1069e-05,0.012736,-9.7246e-05,-964.09,1.7862
19509,19.405,1.7273,0,9.9669e-05,996,3.4696e-05,21.683,3.1812e-05,0.011517,-9.9282e-05,-984.98,1.7722
19510,19.405,1.8182,0.05,7.4324e-07,7.4273,5.7072e-07,4.2881,-8.944e-13,5.3692e-06,-5.7071e-07,-4.2881,1.7723
19511,19.681,1.8182,0,9.3686e-05,936.21,3.3095e-05,26.186,2.9611e-05,0.013549,-9.3213e-05,-922.84,1.814
19512,19.589,1.7273,0,9.5671e-05,956.05,3.3604e-05,24.43,3.0355e-05,0.012295,-9.5232e-05,-943.59,1.8
19513,19.589,1.8182,0.05,7.404e-07,7.3989,5.6854e-07,4.2718,-4.3398e-13,8.2577e-06,-5.6853e-07,-4.2717,1.8001
19514,19.865,1.8182,0,8.9733e-05,896.71,3.2034e-05,29.137,2.8158e-05,0.014407,-8.9201e-05,-881.78,1.8419
19515,19.773,1.7273,0,9.1697e-05,916.34,3.2525e-05,27.24,2.8902e-05,0.013096,-9.1203e-05,-902.41,1.8279
19516,19.773,1.8182,0.05,7.3772e-07,7.3721,5.6648e-07,4.2563,-8.9848e-13,6.7977e-06,-5.6648e-07,-4.2563,1.8279
19517,20.048,1.8182,0,8.5806e-05,857.46,3.0989e-05,32.18,2.6708e-05,0.015341,-8.5213e-05,-840.91,1.8699
19518,19.956,1.7273,0,8.7748e-05,876.87,3.1461e-05,30.129,2.7453e-05,0.013957,-8.7196e-05,-861.41,1.8558
19519,19.956,1.8182,0.05,7.3521e-07,7.347,5.6455e-07,4.2418,-4.3334e-13,7.4685e-06,-5.6455e-07,-4.2418,1.8559
19520,20.232,1.8182,0,8.1905e-05,818.49,2.9961e-05,35.334,2.5261e-05,0.016368,-8.1247e-05,-800.24,1.8979
19521,20.14,1.7273,0,8.3824e-05,837.66,3.0412e-05,33.114,2.6007e-05,0.014907,-8.3212e-05,-820.61,1.8838
19522,20.14,1.8182,0.05,7.3287e-07,7.3237,5.6276e-07,4.2283,-4.4435e-13,6.5094e-06,-5.6276e-07,-4.2283,1.8838
19523,20.416,1.8182,0,7.8034e-05,779.8,2.8953e-05,38.617,2.3816e-05,0.017501,-7.7305e-05,-759.77,1.9259
19524,20.324,1.7273,0,7.9928e-05,798.73,2.9381e-05,36.214,2.4563e-05,0.015951,-7.925e-05,-780,1.9118
19525,20.324,1.8182,0.05,7.3073e-07,7.3023,5.6111e-07,4.216,-4.4727e-13,5.4887e-06,-5.6111e-07,-4.216,1.9119
19526,20.6,1.8182,0,7.4192e-05,741.41,2.7967e-05,42.052,2.2373e-05,0.018758,-7.3387e-05,-719.48,1.954
19527,20.508,1.7273,0,7.6061e-05,760.08,2.837e-05,39.448,2.3122e-05,0.017108,-7.5312e-05,-739.58,1.9399
19528,20.508,1.8182,0.05,7.288e-07,7.2829,5.5963e-07,4.2048,-8.9932e-13,5.7496e-06,-5.5962e-07,-4.2048,1.9399
19529,20.784,1.8182,0,7.0383e-05,703.34,2.7004e-05,45.657,2.093e-05,0.020157,-6.9494e-05,-679.39,1.9822
19530,20.692,1.7273,0,7.2223e-05,721.74,2.7381e-05,42.837,2.1682e-05,0.0184,-7.1399e-05,-699.35,1.968
19531,20.692,1.8182,0.05,7.2709e-07,7.2658,5.5831e-07,4.195,-2.4054e-13,8.99e-06,-5.5831e-07,-4.1949,1.9681
19532,20.967,1.8182,0,6.6607e-05,665.61,2.6066e-05,49.457,1.9487e-05,0.021722,-6.5627e-05,-639.49,2.0104
19533,20.875,1.7273,0,6.8418e-05,683.71,2.6415e-05,46.4,2.0242e-05,0.019834,-6.751e-05,-659.32,1.9962
19534,20.875,1.8182,0.05,7.2562e-07,7.2512,5.5719e-07,4.1865,-2.5015e-13,8.9917e-06,-5.5718e-07,-4.1864,1.9963
19535,21.151,1.8182,0,6.2867e-05,628.24,2.5157e-05,53.474,1.8043e-05,0.023505,-6.1786e-05,-599.78,2.0386
19536,21.059,1.7273,0,6.4647e-05,646.03,2.5476e-05,50.161,1.8802e-05,0.02146,-6.3647e-05,-619.47,2.0244
19537,21.059,1.8182,0.05,7.2441e-07,7.2391,5.5626e-07,4.1795,7.0927e-15,9.0247e-06,-5.5626e-07,-4.1795,2.0245
19538,21.335,1.8182,0,5.9167e-05,591.26,2.4278e-05,57.736,1.6597e-05,0.025556,-5.7972e-05,-560.26,2.0669
19539,21.243,1.7273,0,6.0913e-05,608.71,2.4565e-05,54.145,1.7361e-05,0.023331,-5.981e-05,-579.82,2.0527
19540,21.243,1.8182,0.05,7.235e-07,7.23,5.5556e-07,4.1743,7.0034e-15,6.6566e-06,-5.5556e-07,-4.1742,2.0528
19541,21.519,1.8182,0,5.5508e-05,554.7,2.3433e-05,62.268,1.5149e-05,0.027928,-5.4186e-05,-520.93,2.0952
19542,21.427,1.7273,0,5.7218e-05,571.79,2.3685e-05,58.378,1.5919e-05,0.02549,-5.6001e-05,-540.35,2.081
19543,21.427,1.8182,0.05,7.2292e-07,7.2242,5.5511e-07,4.1709,-2.5312e-13,6.9574e-06,-5.5511e-07,-4.1709,2.0811
19544,21.703,1.8182,0,5.1896e-05,518.6,2.2623e-05,67.102,1.3697e-05,0.030698,-5.0428e-05,-481.77,2.1236
19545,21.611,1.7273,0,5.3566e-05,535.3,2.2839e-05,62.888,1.4473e-05,0.028007,-5.2218e-05,-501.06,2.1094
19546,21.611,1.8182,0.05,7.2271e-07,7.2221,5.5495e-07,4.1697,-5.2138e-14,6.7455e-06,-5.5495e-07,-4.1697,2.1094
19547,21.886,1.8182,0,4.8335e-05,483.02,2.1853e-05,72.267,1.2239e-05,0.033964,-4.6698e-05,-442.8,2.152
19548,21.794,1.7273,0,4.9962e-05,499.28,2.2029e-05,67.706,1.3022e-05,0.030967,-4.8465e-05,-461.96,2.1378
19549,21.794,1.8182,0.05,7.2292e-07,7.2243,5.5512e-07,4.1709,-6.467e-14,4.2188e-06,-5.5512e-07,-4.1709,2.1378
19550,22.07,1.8182,0,4.4831e-05,448,2.1125e-05,77.797,1.0776e-05,0.037874,-4.2997e-05,-403.99,2.1804
19551,21.978,1.7273,0,4.6411e-05,463.79,2.126e-05,72.867,1.1567e-05,0.034486,-4.474e-05,-423.03,2.1662
19552,21.978,1.8182,0.05,7.2362e-07,7.2312,5.5565e-07,4.1749,-3.2667e-13,1.2067e-06,-5.5565e-07,-4.1749,2.1662
19553,22.254,1.8182,0,4.1391e-05,413.63,2.0442e-05,83.728,9.304e-06,0.042636,-3.9326e-05,-365.34,2.2089
19554,22.162,1.7273,0,4.292e-05,428.91,2.0535e-05,78.405,1.0105e-05,0.038747,-4.1045e-05,-384.28,2.1946
19555,22.162,1.8182,0.05,7.2486e-07,7.2436,5.566e-07,4.1821,-1.0372e-13,3.9455e-06,-5.566e-07,-4.1821,2.1947
19556,22.438,1.8182,0,3.8026e-05,380,1.9807e-05,90.094,7.8229e-06,0.048569,-3.5684e-05,-326.84,2.2374
19557,22.346,1.7273,0,3.9498e-05,394.71,1.9856e-05,84.36,8.6343e-06,0.043991,-3.738e-05,-345.69,2.2231
19558,22.346,1.8182,0.05,7.2674e-07,7.2624,5.5804e-07,4.1929,-2.5842e-15,1.8568e-06,-5.5804e-07,-4.1929,2.2231
19559,22.622,1.8182,0,3.4749e-05,347.25,1.9224e-05,96.934,6.3306e-06,0.056077,-3.207e-05,-288.47,2.2659
19560,22.53,1.7273,0,3.6156e-05,361.31,1.9228e-05,90.771,7.1538e-06,0.050626,-3.3745e-05,-307.25,2.2516
19561,22.53,1.8182,0.05,7.2935e-07,7.2885,5.6005e-07,4.208,2.1693e-13,6.6832e-06,-5.6005e-07,-4.208,2.2516
19562,22.805,1.8182,0,3.1577e-05,315.55,1.8695e-05,104.28,4.8252e-06,0.06615,-2.8483e-05,-250.2,2.2944
19563,22.713,1.7273,0,3.2909e-05,328.86,1.8654e-05,97.679,5.6614e-06,0.059075,-3.014e-05,-268.94,2.2801
19564,22.713,1.8182,0.05,7.328e-07,7.323,5.627e-07,4.2279,1.6978e-13,4.4672e-06,-5.627e-07,-4.2279,2.2801
19565,22.989,1.8182,0,2.8533e-05,285.14,1.8222e-05,112.16,3.3044e-06,0.079185,-2.492e-05,-211.99,2.323
19566,22.897,1.7273,0,2.9778e-05,297.58,1.8137e-05,105.12,4.1551e-06,0.07094,-2.6563e-05,-230.73,2.3087
19567,22.897,1.8182,0.05,7.3722e-07,7.3671,5.6609e-07,4.2534,3.7685e-13,8.0941e-06,-5.6609e-07,-4.2534,2.3087
19568,23.173,1.8182,0,2.5653e-05,256.35,1.7805e-05,120.61,1.7666e-06,0.10134,-2.1378e-05,-173.8,2.3515
19569,23.081,1.7273,0,2.6792e-05,267.74,1.7678e-05,113.13,2.6323e-06,0.085542,-2.3011e-05,-192.59,2.3372
19570,23.081,1.8182,0.05,7.4271e-07,7.422,5.7031e-07,4.2851,8.2153e-13,1.1866e-05,-5.7031e-07,-4.2851,2.3372
19571,23.357,1.8182,0,2.2985e-05,229.69,1.7444e-05,129.62,2.0875e-07,0.12355,-1.7851e-05,-135.57,2.3801
19572,23.265,1.7273,0,2.3993e-05,239.76,1.728e-05,121.74,1.0918e-06,0.11619,-1.948e-05,-154.46,2.3658
19573,23.265,1.8182,0.05,7.4937e-07,7.4886,5.7543e-07,4.3235,2.4765e-13,1.1643e-05,-5.7543e-07,-4.3235,2.3658
19574,23.541,1.8182,0,2.06e-05,205.85,1.7138e-05,139.24,-1.365e-06,0.21779,-1.4337e-05,-97.246,2.4087
19575,23.449,1.7273,0,2.1438e-05,214.23,1.694e-05,130.95,-4.7129e-07,0.13267,-1.5965e-05,-116.28,2.3944
19576,23.449,1.8182,0.05,7.5725e-07,7.5673,5.8148e-07,4.369,7.2786e-13,1.5535e-05,-5.8148e-07,-4.369,2.3944
19577,23.724,1.8182,0,1.86e-05,185.87,1.6885e-05,149.38,-2.9691e-06,0.2094,-1.0828e-05,-58.84,2.4373
19578,23.632,1.7273,0,1.9216e-05,192.02,1.6657e-05,140.82,-2.0439e-06,0.31399,-1.2464e-05,-77.978,2.423
19579,23.632,1.8182,0.05,7.6667e-07,7.6614,5.887e-07,4.4233,7.1846e-13,1.3562e-05,-5.887e-07,-4.4233,2.423
19580,23.816,1.7273,0,1.745e-05,174.38,1.6432e-05,151.16,-3.6626e-06,0.17692,-8.9714e-06,-39.711,2.4516
19581,23.816,1.8182,0.05,7.8341e-07,7.8287,6.0156e-07,4.5199,9.3549e-13,1.3491e-05,-6.0156e-07,-4.5199,2.4516
19582,23.908,1.8182,0,1.7156e-05,171.44,1.6668e-05,159.33,-4.4798e-06,0.42792,-7.5141e-06,-22.37,2.4659
19583,11.042,1.6364,0,0.00047109,4707.6,0.00027194,1464.6,7.7484e-05,3.5247,-0.00042877,-3800.3,0.62389
19584,10.95,1.5455,0,0.00046849,4681.7,0.0002963,1798.1,5.6129e-05,-6.4626,-0.00041114,-3517.4,0.61251
19585,10.95,1.6364,0.05,2.9155e-05,291.35,2.2388e-05,168.21,8.5568e-12,4.6549e-05,-2.2388e-05,-168.21,0.61303
19586,10.859,1.6364,0,0.00042517,4248.7,0.00026639,1629.2,5.6566e-05,52.731,-0.000374,-3182.4,0.60225
19587,11.226,1.6364,0,0.00039921,3989.4,0.00018978,711.08,9.4549e-05,-4.4214,-0.00038235,-3587.6,0.64565
19588,11.134,1.5455,0,0.00038961,3893.4,0.00020343,928.59,7.9726e-05,-0.84164,-0.00036541,-3345.4,0.6343
19589,11.134,1.6364,0.05,1.1445e-05,114.37,8.7886e-06,66.034,6.8493e-12,4.7287e-05,-8.7886e-06,-66.034,0.63472
19590,11.41,1.6364,0,0.00035749,3572.5,0.00014628,340.24,0.0001002,-6.0315,-0.00035055,-3392.8,0.6676
19591,11.318,1.5455,0,0.00034979,3495.5,0.00015594,491.61,8.9664e-05,-6.3645,-0.00033886,-3226.1,0.65623
19592,11.318,1.6364,0.05,6.9911e-06,69.863,5.3683e-06,40.335,4.8893e-12,6.4888e-05,-5.3683e-06,-40.335,0.65658
19593,11.594,1.6364,0,0.00033025,3300.2,0.00012086,140.55,0.00010158,-4.3167,-0.00032769,-3229.7,0.68975
19594,11.502,1.5455,0,0.00032388,3236.6,0.00012716,243.6,9.4322e-05,-3.1157,-0.00031909,-3109.3,0.67833
19595,11.502,1.6364,0.05,5.0703e-06,50.668,3.8934e-06,29.253,1.5093e-12,6.6903e-05,-3.8934e-06,-29.253,0.67862
19596,11.778,1.6364,0,0.00031125,3110.4,0.00010604,33.359,0.00010012,-11.125,-0.00031085,-3099,0.71209
19597,11.686,1.5455,0,0.0003062,3059.9,0.00010958,99.778,9.5658e-05,-4.791,-0.00030445,-3011,0.70061
19598,11.686,1.6364,0.05,3.9237e-06,39.21,3.0129e-06,22.638,1.024e-11,5.5684e-05,-3.0129e-06,-22.638,0.70086
19599,11.961,1.6364,0,0.00029742,2972.2,0.00010088,4.9704,9.3964e-05,-47.015,-0.00029811,-2992.9,0.73462
19600,11.869,1.5455,0,0.00029366,2934.6,9.9434e-05,23.086,9.4746e-05,-12.14,-0.00029346,-2929,0.72308
19601,11.869,1.6364,0.05,3.2217e-06,32.195,2.4739e-06,18.588,5.1127e-12,1.9057e-05,-2.4739e-06,-18.588,0.7233
19602,12.145,1.6364,0,0.00028671,2865.1,9.874e-05,1.9297,8.7748e-05,-80.661,-0.00028796,-2903.6,0.75735
19603,12.053,1.5455,0,0.00028416,2839.6,9.6237e-05,4.2696,8.9978e-05,-42.759,-0.00028478,-2858.6,0.74574
19604,12.053,1.6364,0.05,2.7053e-06,27.034,2.0773e-06,15.608,4.7135e-12,4.2114e-05,-2.0773e-06,-15.608,0.74594
19605,12.329,1.6364,0,0.00027794,2777.5,9.6725e-05,1.0803,8.3255e-05,-100.13,-0.00027949,-2825.6,0.78027
19606,12.237,1.5455,0,0.00027646,2762.7,9.4782e-05,1.8044,8.5351e-05,-69.054,-0.00027754,-2795.7,0.76858
19607,12.237,1.6364,0.05,2.3138e-06,23.122,1.7767e-06,13.349,8.937e-13,6.634e-06,-1.7767e-06,-13.349,0.76876
19608,12.513,1.6364,0,0.00027042,2702.3,9.4704e-05,0.69175,7.9932e-05,-110.3,-0.00027211,-2755.4,0.80338
19609,12.421,1.5455,0,0.00026985,2696.7,9.33e-05,1.0244,8.1888e-05,-84.721,-0.00027117,-2737.5,0.7916
19610,12.421,1.6364,0.05,2.0085e-06,20.072,1.5423e-06,11.588,2.4728e-14,2.8973e-05,-1.5423e-06,-11.588,0.79177
19611,12.697,1.6364,0,0.00026372,2635.4,9.2685e-05,0.47547,7.7359e-05,-114.68,-0.00026547,-2690.6,0.82666
19612,12.605,1.5455,0,0.0002639,2637.2,9.1721e-05,0.65888,7.9217e-05,-93.288,-0.00026535,-2682.2,0.81481
19613,12.605,1.6364,0.05,1.767e-06,17.658,1.3568e-06,10.195,4.5157e-12,2.5503e-05,-1.3568e-06,-10.195,0.81497
19614,12.88,1.6364,0,0.00025757,2574,9.0681e-05,0.33973,7.5274e-05,-115.42,-0.00025934,-2629.6,0.85013
19615,12.788,1.5455,0,0.00025835,2581.7,9.0068e-05,0.4511,7.7054e-05,-97.336,-0.00025986,-2628.8,0.83819
19616,12.788,1.6364,0.05,1.5746e-06,15.735,1.2091e-06,9.0845,3.4628e-12,3.8133e-06,-1.2091e-06,-9.0845,0.83835
19617,13.064,1.6364,0,0.00025183,2516.5,8.8698e-05,0.24884,7.3514e-05,-113.84,-0.00025356,-2571.4,0.87377
19618,12.972,1.5455,0,0.00025306,2528.9,8.8368e-05,0.32067,7.522e-05,-98.465,-0.00025459,-2576.5,0.86175
19619,12.972,1.6364,0.05,1.4211e-06,14.202,1.0913e-06,8.1993,5.2905e-12,1.4576e-05,-1.0913e-06,-8.1993,0.8619
19620,13.248,1.6364,0,0.00024637,2462,8.6741e-05,0.18532,7.1975e-05,-110.76,-0.00024806,-2515.4,0.89758
19621,13.156,1.5455,0,0.00024796,2477.9,8.6636e-05,0.23353,7.3607e-05,-97.659,-0.00024947,-2525.2,0.88548
19622,13.156,1.6364,0.05,1.2991e-06,12.982,9.9752e-07,7.495,-8.4981e-13,1.2811e-05,-9.9752e-07,-7.495,0.88563
19623,13.432,1.6364,0,0.00024113,2409.6,8.4811e-05,0.13981,7.0593e-05,-106.69,-0.00024277,-2461.1,0.92156
19624,13.34,1.5455,0,0.00024299,2428.2,8.4887e-05,0.17309,7.2149e-05,-95.536,-0.00024447,-2474.5,0.90938
19625,13.34,1.6364,0.05,1.2023e-06,12.015,9.2322e-07,6.9368,-1.7993e-12,8.5711e-06,-9.2322e-07,-6.9367,0.90952
19626,13.616,1.6364,0,0.00023607,2359.1,8.2907e-05,0.10663,6.9324e-05,-101.95,-0.00023764,-2408.3,0.9457
19627,13.524,1.5455,0,0.00023812,2379.6,8.3128e-05,0.13014,7.08e-05,-92.492,-0.00023956,-2424.4,0.93345
19628,13.524,1.6364,0.05,1.1259e-06,11.251,8.6454e-07,6.4958,3.8474e-13,6.5672e-06,-8.6453e-07,-6.4957,0.93359
19629,13.799,1.6364,0,0.00023114,2309.9,8.1029e-05,0.082152,6.8135e-05,-96.795,-0.00023264,-2356.7,0.97001
19630,13.707,1.5455,0,0.00023334,2331.8,8.1366e-05,0.099073,6.9534e-05,-88.8,-0.00023472,-2374.8,0.95767
19631,13.707,1.6364,0.05,1.0656e-06,10.649,8.1827e-07,6.1482,-8.9482e-13,-2.806e-06,-8.1826e-07,-6.1481,0.95781
19632,13.983,1.6364,0,0.00022633,2261.8,7.9176e-05,0.063938,6.7006e-05,-91.373,-0.00022775,-2306,0.99447
19633,13.891,1.5455,0,0.00022862,2284.6,7.9606e-05,0.076316,6.8329e-05,-84.649,-0.00022994,-2325.7,0.98205
19634,13.891,1.6364,0.05,1.0181e-06,10.174,7.8177e-07,5.874,-1.4893e-12,-2.9221e-06,-7.8177e-07,-5.8739,0.98219
19635,14.167,1.6364,0,0.00022161,2214.6,7.7346e-05,0.050273,6.5919e-05,-85.808,-0.00022295,-2256.2,1.0191
19636,14.075,1.5455,0,0.00022397,2238.1,7.785e-05,0.059478,6.717e-05,-80.185,-0.00022522,-2277.1,1.0066
19637,14.075,1.6364,0.05,9.8047e-07,9.798,7.5288e-07,5.6569,1.0433e-13,-6.2365e-06,-7.5288e-07,-5.6569,1.0067
19638,14.351,1.6364,0,0.00021697,2168.2,7.554e-05,0.039955,6.4861e-05,-80.192,-0.00021822,-2207.2,1.0438
19639,14.259,1.5455,0,0.00021936,2192.1,7.6102e-05,0.046876,6.6045e-05,-75.517,-0.00022055,-2228.9,1.0313
19640,14.259,1.6364,0.05,9.5046e-07,9.4981,7.2984e-07,5.4837,-1.9675e-12,-4.0363e-06,-7.2984e-07,-5.4837,1.0314
19641,14.534,1.6364,0,0.00021239,2122.5,7.3755e-05,0.032164,6.3822e-05,-74.596,-0.00021356,-2158.8,1.0688
19642,14.443,1.5455,0,0.00021481,2146.6,7.4364e-05,0.037402,6.4945e-05,-70.734,-0.00021592,-2181.1,1.0561
19643,14.443,1.6364,0.05,9.2627e-07,9.2563,7.1126e-07,5.3441,-2.2975e-12,-1.7709e-06,-7.1125e-07,-5.3441,1.0563
19644,14.718,1.6364,0,0.00020786,2077.2,7.199e-05,0.026277,6.2794e-05,-69.072,-0.00020895,-2110.9,1.0938
19645,14.626,1.5455,0,0.00021029,2101.4,7.2636e-05,0.030282,6.3861e-05,-65.907,-0.00021133,-2133.6,1.0811
19646,14.626,1.6364,0.05,9.0649e-07,9.0587,6.9608e-07,5.2301,-1.5465e-12,2.0603e-06,-6.9607e-07,-5.23,1.0812
19647,14.902,1.6364,0,0.00020338,2032.4,7.0246e-05,0.021817,6.177e-05,-63.663,-0.00020439,-2063.5,1.119
19648,14.81,1.5455,0,0.0002058,2056.6,7.0921e-05,0.024897,6.2787e-05,-61.09,-0.00020677,-2086.5,1.1062
19649,14.81,1.6364,0.05,8.9009e-07,8.8948,6.8348e-07,5.1354,-7.1715e-13,1.1974e-07,-6.8348e-07,-5.1354,1.1064
19650,15.086,1.6364,0,0.00019893,1987.9,6.852e-05,0.018437,6.0745e-05,-58.401,-0.00019986,-2016.5,1.1443
19651,14.994,1.5455,0,0.00020135,2012.1,6.9218e-05,0.020814,6.1718e-05,-56.33,-0.00020225,-2039.7,1.1315
19652,14.994,1.6364,0.05,8.7626e-07,8.7566,6.7286e-07,5.0556,-1.675e-12,2.5328e-06,-6.7286e-07,-5.0556,1.1316
19653,15.27,1.6364,0,0.00019451,1943.8,6.6813e-05,0.015859,5.9716e-05,-53.307,-0.00019537,-1969.9,1.1698
19654,15.178,1.5455,0,0.00019692,1967.9,6.7528e-05,0.017714,6.0649e-05,-51.662,-0.00019775,-1993.2,1.1569
19655,15.178,1.6364,0.05,8.644e-07,8.638,6.6375e-07,4.9872,-1.7619e-12,1.3338e-06,-6.6375e-07,-4.9871,1.157
19656,15.453,1.6364,0,0.00019012,1899.9,6.5123e-05,0.01389,5.868e-05,-48.397,-0.0001909,-1923.6,1.1954
19657,15.362,1.5455,0,0.00019252,1923.8,6.5851e-05,0.015324,5.9579e-05,-47.112,-0.00019327,-1946.9,1.1825
19658,15.362,1.6364,0.05,8.5404e-07,8.5345,6.558e-07,4.9274,-1.7101e-12,1.8912e-06,-6.558e-07,-4.9274,1.1826
19659,15.637,1.6364,0,0.00018575,1856.2,6.345e-05,0.012424,5.7635e-05,-43.679,-0.00018646,-1877.7,1.2211
19660,15.545,1.5455,0,0.00018813,1880,6.4187e-05,0.013507,5.8503e-05,-42.699,-0.00018882,-1901,1.2081
19661,15.545,1.6364,0.05,8.4485e-07,8.4427,6.4874e-07,4.8744,-8.8433e-13,2.0874e-06,-6.4874e-07,-4.8744,1.2082
19662,15.821,1.6364,0,0.0001814,1812.8,6.1793e-05,0.011361,5.658e-05,-39.159,-0.00018204,-1832,1.247
19663,15.729,1.5455,0,0.00018377,1836.4,6.2537e-05,0.01217,5.742e-05,-38.436,-0.00018439,-1855.3,1.2339
19664,15.729,1.6364,0.05,8.3657e-07,8.36,6.4239e-07,4.8266,-8.8727e-13,1.3832e-06,-6.4238e-07,-4.8266,1.234
19665,16.005,1.6364,0,0.00017707,1769.5,6.0151e-05,0.010608,5.5513e-05,-34.836,-0.00017764,-1786.6,1.273
19666,15.913,1.5455,0,0.00017942,1792.9,6.0901e-05,0.011196,5.633e-05,-34.332,-0.00017998,-1809.8,1.2598
19667,15.913,1.6364,0.05,8.2904e-07,8.2847,6.366e-07,4.7832,-1.3083e-12,3.2987e-06,-6.366e-07,-4.7831,1.26
19668,16.189,1.6364,0,0.00017275,1726.4,5.8524e-05,0.010102,5.4436e-05,-30.707,-0.00017326,-1741.5,1.2991
19669,16.097,1.5455,0,0.00017508,1749.6,5.9277e-05,0.010511,5.5231e-05,-30.389,-0.00017558,-1764.6,1.2859
19670,16.097,1.6364,0.05,8.221e-07,8.2153,6.3127e-07,4.7431,-8.2377e-13,5.2625e-06,-6.3127e-07,-4.7431,1.286
19671,16.372,1.6364,0,0.00016845,1683.4,5.6911e-05,0.0097811,5.3347e-05,-26.767,-0.00016889,-1696.6,1.3253
19672,16.281,1.5455,0,0.00017076,1706.5,5.7666e-05,0.010061,5.4123e-05,-26.609,-0.0001712,-1719.6,1.312
19673,16.281,1.6364,0.05,8.1565e-07,8.1509,6.2632e-07,4.7059,-8.3571e-13,4.3867e-06,-6.2632e-07,-4.7059,1.3122
19674,16.556,1.6364,0,0.00016417,1640.5,5.5312e-05,0.0096167,5.2248e-05,-23.006,-0.00016455,-1651.9,1.3516
19675,16.464,1.5455,0,0.00016646,1663.5,5.6068e-05,0.0097747,5.3007e-05,-22.986,-0.00016684,-1674.8,1.3383
19676,16.464,1.6364,0.05,8.0961e-07,8.0905,6.2168e-07,4.6711,-3.821e-13,3.575e-06,-6.2168e-07,-4.671,1.3384
19677,16.74,1.6364,0,0.00015989,1597.8,5.3725e-05,0.0096292,5.114e-05,-19.415,-0.00016022,-1607.5,1.3781
19678,16.648,1.5455,0,0.00016217,1620.6,5.4481e-05,0.0096688,5.1882e-05,-19.517,-0.00016249,-1630.3,1.3647
19679,16.648,1.6364,0.05,8.039e-07,8.0335,6.173e-07,4.6381,-1.7763e-12,2.9746e-06,-6.173e-07,-4.6381,1.3648
19680,16.924,1.6364,0,0.00015564,1555.3,5.215e-05,0.0098306,5.0022e-05,-15.983,-0.0001559,-1563.2,1.4046
19681,16.832,1.5455,0,0.0001579,1577.9,5.2906e-05,0.0097785,5.075e-05,-16.194,-0.00015816,-1585.9,1.3912
19682,16.832,1.6364,0.05,7.9849e-07,7.9794,6.1314e-07,4.6069,-8.8085e-13,2.1846e-06,-6.1314e-07,-4.6069,1.3913
19683,17.108,1.6364,0,0.00015139,1512.9,5.0587e-05,0.010247,4.8896e-05,-12.698,-0.0001516,-1519.2,1.4313
19684,17.016,1.5455,0,0.00015363,1535.3,5.1343e-05,0.010113,4.961e-05,-13.007,-0.00015385,-1541.7,1.4178
19685,17.016,1.6364,0.05,7.9334e-07,7.9279,6.0919e-07,4.5772,-4.3151e-13,2.3668e-06,-6.0919e-07,-4.5772,1.4179
19686,17.291,1.6364,0,0.00014716,1470.6,4.9036e-05,0.010988,4.7764e-05,-9.5479,-0.00014732,-1475.3,1.458
19687,17.2,1.5455,0,0.00014939,1492.8,4.979e-05,0.010769,4.8465e-05,-9.9472,-0.00014955,-1497.8,1.4445
19688,17.2,1.6364,0.05,7.8843e-07,7.8788,6.0542e-07,4.5489,-8.8758e-13,2.6345e-06,-6.0541e-07,-4.5488,1.4446
19689,17.475,1.6364,0,0.00014294,1428.4,4.7495e-05,0.012364,4.6626e-05,-6.519,-0.00014305,-1431.7,1.4849
19690,17.383,1.5455,0,0.00014515,1450.5,4.8248e-05,0.012021,4.7314e-05,-7.0037,-0.00014527,-1454,1.4713
19691,17.383,1.6364,0.05,7.8373e-07,7.8319,6.0181e-07,4.5218,-1.3521e-12,2.2349e-06,-6.0181e-07,-4.5217,1.4714
19692,17.659,1.6364,0,0.00013874,1386.5,4.5964e-05,0.015757,4.5483e-05,-3.5994,-0.0001388,-1388.2,1.5118
19693,17.567,1.5455,0,0.00014094,1408.4,4.6716e-05,0.014875,4.616e-05,-4.1661,-0.00014101,-1410.5,1.4982
19694,17.567,1.6364,0.05,7.7922e-07,7.7868,5.9835e-07,4.4958,-4.4542e-13,3.4397e-06,-5.9835e-07,-4.4957,1.4983
19695,17.843,1.6364,0,0.00013456,1344.6,4.4446e-05,0.041413,4.4335e-05,-0.79536,-0.00013457,-1345,1.5389
19696,17.751,1.5455,0,0.00013673,1366.4,4.5195e-05,0.028108,4.5001e-05,-1.4308,-0.00013676,-1367.1,1.5252
19697,17.751,1.6364,0.05,7.7488e-07,7.7435,5.9501e-07,4.4707,-9.0329e-13,2.6134e-06,-5.9501e-07,-4.4707,1.5253
19698,18.027,1.6364,0,0.00013039,1303,4.3195e-05,2.0007,4.2928e-05,-0.0043663,-0.00013035,-1302,1.566
19699,17.935,1.5455,0,0.00013255,1324.5,4.3848e-05,1.2806,4.3676e-05,-0.014427,-0.00013252,-1323.9,1.5523
19700,17.935,1.6364,0.05,7.7071e-07,7.7018,5.9181e-07,4.4466,-4.5437e-13,3.9998e-06,-5.9181e-07,-4.4466,1.5524
19701,18.21,1.6364,0,0.00012623,1261.4,4.2047e-05,4.6779,4.1425e-05,0.0034959,-0.00012615,-1259.1,1.5933
19702,18.119,1.5455,0,0.00012838,1282.9,4.2687e-05,3.8672,4.2172e-05,0.00097435,-0.00012831,-1280.9,1.5795
19703,18.119,1.6364,0.05,7.6669e-07,7.6616,5.8872e-07,4.4235,-4.5318e-13,3.1575e-06,-5.8873e-07,-4.4234,1.5796
19704,18.394,1.6364,0,0.0001221,1220.1,4.0901e-05,7.3094,3.9929e-05,0.0058458,-0.00012197,-1216.4,1.6206
19705,18.302,1.5455,0,0.00012422,1241.4,4.1529e-05,6.4119,4.0676e-05,0.0041976,-0.00012411,-1238.1,1.6068
19706,18.302,1.6364,0.05,7.6283e-07,7.6231,5.8576e-07,4.4012,-9.1012e-13,2.6927e-06,-5.8576e-07,-4.4012,1.6069
19707,18.578,1.6364,0,0.00011798,1179,3.9759e-05,9.905,3.8441e-05,0.0071327,-0.00011781,-1174,1.648
19708,18.486,1.5455,0,0.00012009,1200,4.0373e-05,8.9174,3.9187e-05,0.0057545,-0.00011993,-1195.6,1.6341
19709,18.486,1.6364,0.05,7.5912e-07,7.586,5.8292e-07,4.3798,-3.421e-15,2.6886e-06,-5.8291e-07,-4.3798,1.6342
19710,18.762,1.6364,0,0.00011388,1138,3.862e-05,12.478,3.696e-05,0.0080485,-0.00011366,-1131.7,1.6754
19711,18.67,1.5455,0,0.00011597,1158.9,3.9221e-05,11.396,3.7705e-05,0.0067636,-0.00011577,-1153.2,1.6616
19712,18.67,1.6364,0.05,7.5556e-07,7.5504,5.8018e-07,4.3592,-4.627e-13,3.8931e-06,-5.8017e-07,-4.3592,1.6617
19713,18.946,1.6364,0,0.0001098,1097.2,3.7487e-05,15.044,3.5486e-05,0.0088255,-0.00010953,-1089.6,1.703
19714,18.854,1.5455,0,0.00011187,1117.9,3.8073e-05,13.859,3.623e-05,0.0075565,-0.00011163,-1110.9,1.6891
19715,18.854,1.6364,0.05,7.5213e-07,7.5161,5.7754e-07,4.3394,-4.6622e-13,2.8048e-06,-5.7754e-07,-4.3394,1.6892
19716,19.129,1.6364,0,0.00010574,1056.6,3.6361e-05,17.616,3.4018e-05,0.0095554,-0.00010543,-1047.7,1.7306
19717,19.038,1.5455,0,0.00010779,1077.2,3.6932e-05,16.323,3.4761e-05,0.0082751,-0.00010751,-1068.9,1.7167
19718,19.038,1.6364,0.05,7.4884e-07,7.4832,5.7502e-07,4.3205,-4.5349e-13,4.0706e-06,-5.7502e-07,-4.3204,1.7168
19719,19.313,1.6364,0,0.0001017,1016.3,3.5243e-05,20.208,3.2555e-05,0.010275,-0.00010134,-1006,1.7583
19720,19.221,1.5455,0,0.00010374,1036.6,3.5799e-05,18.799,3.3298e-05,0.0089651,-0.0001034,-1027.1,1.7443
19721,19.221,1.6364,0.05,7.457e-07,7.4518,5.726e-07,4.3023,-1.3521e-12,3.7529e-06,-5.726e-07,-4.3023,1.7444
19722,19.497,1.6364,0,9.7681e-05,976.14,3.4136e-05,22.838,3.1098e-05,0.011007,-9.7272e-05,-964.51,1.786
19723,19.405,1.5455,0,9.9699e-05,996.3,3.4674e-05,21.302,3.1841e-05,0.0096541,-9.9319e-05,-985.47,1.7721
19724,19.405,1.6364,0.05,7.427e-07,7.4219,5.703e-07,4.2851,-1.3433e-12,5.4653e-06,-5.703e-07,-4.285,1.7721
19725,19.681,1.6364,0,9.3687e-05,936.22,3.304e-05,25.518,2.9645e-05,0.011764,-9.3227e-05,-923.2,1.8139
19726,19.589,1.5455,0,9.5684e-05,956.18,3.356e-05,23.846,3.0388e-05,0.010365,-9.5256e-05,-944.03,1.7999
19727,19.589,1.6364,0.05,7.3986e-07,7.3935,5.6812e-07,4.2687,-8.7798e-13,8.4717e-06,-5.6812e-07,-4.2686,1.7999
19728,19.865,1.6364,0,8.9717e-05,896.55,3.1957e-05,28.266,2.8196e-05,0.012559,-8.9202e-05,-882.07,1.8418
19729,19.773,1.5455,0,9.1693e-05,916.29,3.2458e-05,26.446,2.894e-05,0.011096,-9.1214e-05,-902.78,1.8277
19730,19.773,1.6364,0.05,7.3717e-07,7.3667,5.6606e-07,4.2532,-8.9514e-13,7.5117e-06,-5.6606e-07,-4.2531,1.8278
19731,20.048,1.6364,0,8.5771e-05,857.12,3.0888e-05,31.098,2.6751e-05,0.013428,-8.52e-05,-841.14,1.8697
19732,19.956,1.5455,0,8.7725e-05,876.64,3.137e-05,29.117,2.7496e-05,0.011879,-8.7193e-05,-861.72,1.8556
19733,19.956,1.6364,0.05,7.3465e-07,7.3414,5.6412e-07,4.2386,-4.4406e-13,7.9513e-06,-5.6412e-07,-4.2385,1.8557
19734,20.232,1.6364,0,8.1852e-05,817.95,2.9836e-05,34.03,2.5309e-05,0.014385,-8.122e-05,-800.4,1.8977
19735,20.14,1.5455,0,8.3782e-05,837.24,3.0296e-05,31.875,2.6055e-05,0.012749,-8.3194e-05,-820.84,1.8836
19736,20.14,1.6364,0.05,7.3229e-07,7.3178,5.6231e-07,4.225,-6.6885e-13,6.3437e-06,-5.623e-07,-4.2249,1.8837
19737,20.416,1.6364,0,7.796e-05,779.06,2.8803e-05,37.081,2.3869e-05,0.015442,-7.7263e-05,-759.85,1.9258
19738,20.324,1.5455,0,7.9865e-05,798.1,2.9238e-05,34.736,2.4617e-05,0.013706,-7.9217e-05,-780.16,1.9117
19739,20.324,1.6364,0.05,7.3011e-07,7.2961,5.6064e-07,4.2124,-6.7401e-13,5.0674e-06,-5.6064e-07,-4.2124,1.9117
19740,20.6,1.6364,0,7.4097e-05,740.45,2.7789e-05,40.27,2.2431e-05,0.016622,-7.3329e-05,-719.49,1.9539
19741,20.508,1.5455,0,7.5975e-05,759.23,2.82e-05,37.718,2.3182e-05,0.014773,-7.5263e-05,-739.66,1.9398
19742,20.508,1.6364,0.05,7.2814e-07,7.2763,5.5912e-07,4.201,-6.9057e-13,6.6937e-06,-5.5912e-07,-4.201,1.9398
19743,20.784,1.6364,0,7.0264e-05,702.15,2.6797e-05,43.616,2.0994e-05,0.017938,-6.942e-05,-679.32,1.982
19744,20.692,1.5455,0,7.2115e-05,720.65,2.7181e-05,40.839,2.1748e-05,0.015968,-7.1333e-05,-699.35,1.9679
19745,20.692,1.6364,0.05,7.2637e-07,7.2587,5.5777e-07,4.1908,-6.871e-13,9.0225e-06,-5.5776e-07,-4.1908,1.9679
19746,20.967,1.6364,0,6.6463e-05,664.17,2.5829e-05,47.141,1.9558e-05,0.019418,-6.5535e-05,-639.34,2.0103
19747,20.875,1.5455,0,6.8284e-05,682.37,2.6184e-05,44.12,2.0314e-05,0.017302,-6.7426e-05,-659.23,1.9961
19748,20.875,1.6364,0.05,7.2484e-07,7.2434,5.5659e-07,4.182,-2.4792e-13,8.4282e-06,-5.5659e-07,-4.182,1.9961
19749,21.151,1.6364,0,6.2697e-05,626.54,2.4888e-05,50.869,1.8121e-05,0.021114,-6.1676e-05,-599.54,2.0385
19750,21.059,1.5455,0,6.4486e-05,644.41,2.5212e-05,47.582,1.8881e-05,0.018823,-6.3544e-05,-619.3,2.0243
19751,21.059,1.6364,0.05,7.2355e-07,7.2305,5.556e-07,4.1746,-4.5476e-13,9.101e-06,-5.556e-07,-4.1745,2.0244
19752,21.335,1.6364,0,5.8968e-05,589.28,2.3976e-05,54.824,1.6683e-05,0.023073,-5.7844e-05,-559.94,2.0668
19753,21.243,1.5455,0,6.0723e-05,606.81,2.4266e-05,51.248,1.7448e-05,0.020585,-5.9688e-05,-579.55,2.0526
19754,21.243,1.6364,0.05,7.2255e-07,7.2205,5.5483e-07,4.1688,-2.3596e-13,8.0936e-06,-5.5482e-07,-4.1687,2.0526
19755,21.519,1.6364,0,5.528e-05,552.42,2.3096e-05,59.033,1.5242e-05,0.025352,-5.4038e-05,-520.52,2.0951
19756,21.427,1.5455,0,5.6997e-05,569.57,2.3349e-05,55.145,1.6013e-05,0.022631,-5.5858e-05,-539.99,2.0809
19757,21.427,1.6364,0.05,7.2185e-07,7.2135,5.5429e-07,4.1647,-2.7015e-13,7.4716e-06,-5.5429e-07,-4.1647,2.0809
19758,21.703,1.6364,0,5.1636e-05,516,2.225e-05,63.528,1.3798e-05,0.028027,-5.026e-05,-481.28,2.1235
19759,21.611,1.5455,0,5.3312e-05,532.75,2.2465e-05,59.3,1.4576e-05,0.025031,-5.2055e-05,-500.61,2.1093
19760,21.611,1.6364,0.05,7.2151e-07,7.2101,5.5403e-07,4.1628,-7.0367e-14,7.512e-06,-5.5403e-07,-4.1627,2.1093
19761,21.886,1.6364,0,4.8041e-05,480.08,2.1441e-05,68.341,1.235e-05,0.031198,-4.6511e-05,-442.23,2.1519
19762,21.794,1.5455,0,4.9672e-05,496.38,2.1615e-05,63.746,1.3135e-05,0.027874,-4.828e-05,-461.42,2.1376
19763,21.794,1.6364,0.05,7.2157e-07,7.2107,5.5408e-07,4.1631,-3.1925e-13,5.5366e-06,-5.5407e-07,-4.1631,2.1377
19764,22.07,1.6364,0,4.4501e-05,444.71,2.0675e-05,73.508,1.0896e-05,0.035012,-4.2792e-05,-403.36,2.1803
19765,21.978,1.5455,0,4.6084e-05,460.52,2.0805e-05,68.518,1.169e-05,0.031269,-4.4534e-05,-422.41,2.1661
19766,21.978,1.6364,0.05,7.2209e-07,7.2159,5.5447e-07,4.1661,-1.1542e-13,1.1488e-06,-5.5447e-07,-4.1661,2.1661
19767,22.254,1.6364,0,4.1025e-05,409.97,1.9953e-05,79.069,9.435e-06,0.039675,-3.9104e-05,-364.66,2.2088
19768,22.162,1.5455,0,4.2553e-05,425.24,2.0037e-05,73.655,1.0238e-05,0.035407,-4.0819e-05,-383.59,2.1945
19769,22.162,1.6364,0.05,7.2314e-07,7.2264,5.5528e-07,4.1722,-1.1161e-13,3.7776e-06,-5.5528e-07,-4.1722,2.1946
19770,22.438,1.6364,0,3.7622e-05,375.96,1.9281e-05,85.066,7.9651e-06,0.045502,-3.5446e-05,-326.13,2.2373
19771,22.346,1.5455,0,3.909e-05,390.63,1.9315e-05,79.201,8.7796e-06,0.040525,-3.7135e-05,-344.94,2.223
19772,22.346,1.6364,0.05,7.2481e-07,7.2431,5.5657e-07,4.1818,-2.7865e-14,3.6978e-06,-5.5657e-07,-4.1818,2.223
19773,22.622,1.6364,0,3.4306e-05,342.83,1.8661e-05,91.544,6.4845e-06,0.052891,-3.1819e-05,-287.75,2.2658
19774,22.53,1.5455,0,3.5705e-05,356.8,1.8645e-05,85.203,7.3116e-06,0.04702,-3.3484e-05,-306.47,2.2515
19775,22.53,1.6364,0.05,7.2723e-07,7.2673,5.5842e-07,4.1958,2.2433e-13,5.7621e-06,-5.5842e-07,-4.1958,2.2515
19776,22.805,1.6364,0,3.1095e-05,310.74,1.8099e-05,98.546,4.9912e-06,0.062815,-2.8224e-05,-249.5,2.2943
19777,22.713,1.5455,0,3.2415e-05,323.92,1.8031e-05,91.712,5.8324e-06,0.055314,-2.9865e-05,-268.16,2.28
19778,22.713,1.6364,0.05,7.3051e-07,7.3001,5.6094e-07,4.2147,1.5339e-13,5.0932e-06,-5.6094e-07,-4.2147,2.2801
19779,22.989,1.6364,0,2.8013e-05,279.94,1.7596e-05,106.12,3.4828e-06,0.075655,-2.4657e-05,-211.35,2.3229
19780,22.897,1.5455,0,2.924e-05,292.2,1.7477e-05,98.779,4.3396e-06,0.066981,-2.6279e-05,-229.99,2.3086
19781,22.897,1.6364,0.05,7.3482e-07,7.3431,5.6425e-07,4.2396,1.3289e-13,7.6875e-06,-5.6425e-07,-4.2396,2.3086
19782,23.173,1.6364,0,2.5095e-05,250.78,1.7155e-05,114.29,1.9572e-06,0.09751,-2.1116e-05,-173.26,2.3515
19783,23.081,1.5455,0,2.6211e-05,261.93,1.6988e-05,106.45,2.8307e-06,0.081319,-2.2724e-05,-191.93,2.3371
19784,23.081,1.6364,0.05,7.4031e-07,7.398,5.6847e-07,4.2712,3.4548e-13,1.2607e-05,-5.6847e-07,-4.2712,2.3372
19785,23.357,1.6364,0,2.239e-05,223.75,1.6777e-05,123.09,4.1099e-07,0.11929,-1.7595e-05,-135.17,2.38
19786,23.265,1.5455,0,2.3369e-05,233.53,1.6565e-05,114.78,1.3037e-06,0.11153,-1.9196e-05,-153.92,2.3657
19787,23.265,1.6364,0.05,7.4714e-07,7.4662,5.7371e-07,4.3106,6.8793e-13,1.0688e-05,-5.7371e-07,-4.3106,2.3657
19788,23.541,1.6364,0,1.9971e-05,199.57,1.646e-05,132.55,-1.1524e-06,0.21247,-1.4092e-05,-97.007,2.4086
19789,23.449,1.5455,0,2.0774e-05,207.59,1.6208e-05,123.76,-2.4671e-07,0.12742,-1.569e-05,-115.9,2.3943
19790,23.449,1.6364,0.05,7.5541e-07,7.5489,5.8006e-07,4.3584,9.4953e-13,1.3739e-05,-5.8006e-07,-4.3584,2.3943
19791,23.724,1.6364,0,1.7945e-05,179.32,1.6205e-05,142.61,-2.7481e-06,0.20121,-1.0598e-05,-58.78,2.4372
19792,23.632,1.5455,0,1.8516e-05,185.03,1.5916e-05,133.48,-1.8083e-06,0.30673,-1.2203e-05,-77.793,2.4229
19793,23.632,1.6364,0.05,7.6559e-07,7.6506,5.8788e-07,4.4171,9.3195e-13,1.3583e-05,-5.8788e-07,-4.4171,2.4229
19794,23.816,1.5455,0,1.6728e-05,167.16,1.5693e-05,143.77,-3.419e-06,0.16331,-8.7293e-06,-39.736,2.4515
19795,23.816,1.6364,0.05,7.8514e-07,7.846,6.0289e-07,4.5299,1.1464e-12,1.1594e-05,-6.0289e-07,-4.5299,2.4515
19796,23.908,1.6364,0,1.6474e-05,164.63,1.5981e-05,152.45,-4.252e-06,0.42493,-7.2898e-06,-22.4,2.4658
19797,11.042,1.4545,0,0.0003743,3740.5,0.00021921,1197.6,5.8328e-05,-11.154,-0.00033916,-2997.7,0.62289
19798,10.95,1.3636,0,0.00036382,3635.6,0.00022942,1382.8,4.3628e-05,-13.231,-0.00031981,-2744,0.61141
19799,10.95,1.4545,0.05,1.9226e-05,192.12,1.4763e-05,110.92,7.2725e-13,6.6552e-06,-1.4763e-05,-110.92,0.61192
19800,10.859,1.4545,0,0.00032997,3297.5,0.00020989,1278.6,3.8076e-05,-12.312,-0.00028889,-2469,0.60104
19801,11.226,1.4545,0,0.0003358,3355.7,0.0001665,685.88,7.4842e-05,-2.7794,-0.00031883,-2960.7,0.64482
19802,11.134,1.3636,0,0.00032051,3202.9,0.00017159,818.35,6.2466e-05,-1.6025,-0.00029864,-2714.8,0.63337
19803,11.134,1.4545,0.05,1.1164e-05,111.56,8.5724e-06,64.41,2.8801e-12,2.7881e-05,-8.5724e-06,-64.41,0.63381
19804,11.41,1.4545,0,0.00031391,3136.9,0.00013508,381.98,8.3802e-05,-3.3344,-0.00030568,-2929.8,0.6669
19805,11.318,1.3636,0,0.00030103,3008.2,0.0001391,485.68,7.4017e-05,-3.2931,-0.00028983,-2737.1,0.65544
19806,11.318,1.4545,0.05,6.6893e-06,66.846,5.1365e-06,38.594,4.4057e-12,7.2034e-05,-5.1365e-06,-38.594,0.65581
19807,11.594,1.4545,0,0.00029858,2983.7,0.00011482,194.92,8.8432e-05,-3.3386,-0.00029482,-2883,0.68913
19808,11.502,1.3636,0,0.00028821,2880.1,0.00011778,273.5,8.0989e-05,-2.8999,-0.00028261,-2734.8,0.67765
19809,11.502,1.4545,0.05,4.7327e-06,47.295,3.6341e-06,27.306,5.8807e-12,5.5145e-05,-3.6341e-06,-27.306,0.67797
19810,11.778,1.4545,0,0.00028788,2876.8,0.00010215,83.392,9.0472e-05,-4.3652,-0.00028644,-2836.3,0.71154
19811,11.686,1.3636,0,0.00027978,2795.9,0.00010424,141.81,8.4952e-05,-3.1007,-0.00027714,-2723.7,0.70001
19812,11.686,1.4545,0.05,3.5779e-06,35.754,2.7474e-06,20.643,8.6488e-12,6.5166e-05,-2.7474e-06,-20.643,0.70029
19813,11.961,1.4545,0,0.00027997,2797.8,9.4734e-05,21.976,9.0437e-05,-10.305,-0.00027976,-2791.8,0.73413
19814,11.869,1.3636,0,0.00027391,2737.2,9.5766e-05,62.061,8.694e-05,-4.2539,-0.00027286,-2707.7,0.72254
19815,11.869,1.4545,0.05,2.8754e-06,28.734,2.2079e-06,16.59,8.104e-12,0.00012405,-2.2079e-06,-16.59,0.72279
19816,12.145,1.4545,0,0.00027367,2734.8,9.2327e-05,4.5101,8.7308e-05,-33.201,-0.00027414,-2749,0.7569
19817,12.053,1.3636,0,0.00026936,2691.8,9.0846e-05,17.734,8.7202e-05,-9.6398,-0.00026921,-2687.6,0.74524
19818,12.053,1.4545,0.05,2.3819e-06,23.802,1.829e-06,13.742,7.138e-12,6.0074e-05,-1.829e-06,-13.742,0.74547
19819,12.329,1.4545,0,0.00026824,2680.6,9.1373e-05,1.8727,8.3837e-05,-54.749,-0.0002691,-2706.5,0.77985
19820,12.237,1.3636,0,0.00026541,2652.3,8.9274e-05,4.2732,8.5119e-05,-26.939,-0.00026579,-2663.5,0.76811
19821,12.237,1.4545,0.05,2.0184e-06,20.17,1.5499e-06,11.645,6.1499e-12,2.2249e-05,-1.5499e-06,-11.645,0.76832
19822,12.513,1.4545,0,0.00026326,2630.8,9.0324e-05,1.0472,8.1092e-05,-68.322,-0.00026433,-2663.7,0.80298
19823,12.421,1.3636,0,0.00026165,2614.7,8.8652e-05,1.8157,8.2592e-05,-43.718,-0.00026233,-2635.3,0.79117
19824,12.421,1.4545,0.05,1.7412e-06,17.399,1.337e-06,10.046,2.0968e-12,4.7148e-05,-1.337e-06,-10.046,0.79136
19825,12.697,1.4545,0,0.00025849,2583.1,8.9108e-05,0.66331,7.8867e-05,-76.282,-0.00025969,-2620.1,0.82628
19826,12.605,1.3636,0,0.00025787,2576.9,8.789e-05,1.0111,8.0435e-05,-55.002,-0.00025874,-2603.4,0.81439
19827,12.605,1.4545,0.05,1.5276e-06,15.265,1.173e-06,8.8135,8.9548e-13,1.346e-05,-1.173e-06,-8.8135,0.81458
19828,12.88,1.4545,0,0.00025382,2536.5,8.7757e-05,0.44805,7.6977e-05,-80.556,-0.00025509,-2575.6,0.84976
19829,12.788,1.3636,0,0.00025398,2538,8.6924e-05,0.63348,7.8568e-05,-62.15,-0.00025496,-2568.2,0.83779
19830,12.788,1.4545,0.05,1.363e-06,13.62,1.0466e-06,7.8638,2.885e-12,7.7325e-06,-1.0466e-06,-7.8638,0.83797
19831,13.064,1.4545,0,0.0002492,2490.2,8.6307e-05,0.31467,7.5303e-05,-82.364,-0.00025049,-2530.2,0.87341
19832,12.972,1.3636,0,0.00024995,2497.8,8.5789e-05,0.42299,7.6891e-05,-66.434,-0.00025101,-2530.2,0.86136
19833,12.972,1.4545,0.05,1.2368e-06,12.36,9.4972e-07,7.1359,2.4275e-12,2.327e-05,-9.4972e-07,-7.1358,0.86154
19834,13.248,1.4545,0,0.00024458,2444.2,8.4782e-05,0.22686,7.3776e-05,-82.468,-0.00024588,-2484.2,0.89723
19835,13.156,1.3636,0,0.00024581,2456.4,8.4521e-05,0.2939,7.5339e-05,-68.694,-0.0002469,-2489.9,0.8851
19836,13.156,1.4545,0.05,1.1409e-06,11.401,8.7607e-07,6.5824,5.3656e-12,2.0969e-05,-8.7606e-07,-6.5824,0.88527
19837,13.432,1.4545,0,0.00023998,2398.2,8.3204e-05,0.16683,7.2355e-05,-81.35,-0.00024126,-2437.7,0.92121
19838,13.34,1.3636,0,0.00024156,2414,8.315e-05,0.21005,7.3876e-05,-69.469,-0.00024267,-2447.8,0.90901
19839,13.34,1.4545,0.05,1.0685e-06,10.678,8.205e-07,6.1649,-1.0919e-12,1.2096e-05,-8.2049e-07,-6.1649,0.90918
19840,13.616,1.4545,0,0.00023539,2352.3,8.1587e-05,0.12471,7.1012e-05,-79.333,-0.00023664,-2390.9,0.94536
19841,13.524,1.3636,0,0.00023724,2370.7,8.17e-05,0.1535,7.248e-05,-69.119,-0.00023833,-2404.5,0.93308
19842,13.524,1.4545,0.05,1.0142e-06,10.135,7.788e-07,5.8516,-1.154e-12,-1.2811e-05,-7.788e-07,-5.8516,0.93324
19843,13.799,1.4545,0,0.00023082,2306.6,7.9943e-05,0.094603,6.973e-05,-76.642,-0.00023202,-2343.9,0.96967
19844,13.707,1.3636,0,0.00023285,2326.9,8.019e-05,0.11429,7.1139e-05,-67.896,-0.00023393,-2360.1,0.95731
19845,13.707,1.4545,0.05,9.7353e-07,9.7285,7.4755e-07,5.6168,-1.3672e-13,1.4118e-05,-7.4755e-07,-5.6167,0.95747
19846,13.983,1.4545,0,0.00022626,2261,7.828e-05,0.072747,6.8495e-05,-73.447,-0.00022742,-2296.8,0.99413
19847,13.891,1.3636,0,0.00022844,2282.8,7.8636e-05,0.08655,6.9842e-05,-65.988,-0.00022948,-2315,0.9817
19848,13.891,1.4545,0.05,9.4286e-07,9.4221,7.24e-07,5.4398,-1.4507e-12,-1.4978e-06,-7.24e-07,-5.4398,0.98186
19849,14.167,1.4545,0,0.00022172,2215.7,7.6606e-05,0.056674,6.7299e-05,-69.879,-0.00022283,-2249.8,1.0188
19850,14.075,1.3636,0,0.00022399,2238.4,7.7049e-05,0.066584,6.8583e-05,-63.545,-0.00022501,-2269.5,1.0062
19851,14.075,1.4545,0.05,9.1947e-07,9.1884,7.0604e-07,5.3049,-1.16e-12,-5.8522e-06,-7.0604e-07,-5.3049,1.0064
19852,14.351,1.4545,0,0.0002172,2170.5,7.4927e-05,0.044725,6.6131e-05,-66.045,-0.00021825,-2202.8,1.0435
19853,14.259,1.3636,0,0.00021954,2193.9,7.5439e-05,0.051969,6.7354e-05,-60.689,-0.00022051,-2223.6,1.0309
19854,14.259,1.4545,0.05,9.013e-07,9.0068,6.9209e-07,5.2001,2.6368e-13,3.4218e-06,-6.9209e-07,-5.2001,1.0311
19855,14.534,1.4545,0,0.00021271,2125.6,7.3246e-05,0.035797,6.4985e-05,-62.031,-0.00021369,-2155.9,1.0684
19856,14.443,1.3636,0,0.00021509,2149.4,7.3813e-05,0.041163,6.6152e-05,-57.522,-0.00021601,-2177.6,1.0558
19857,14.443,1.4545,0.05,8.8681e-07,8.862,6.8097e-07,5.1165,-2.1859e-12,-5.0225e-06,-6.8096e-07,-5.1165,1.0559
19858,14.718,1.4545,0,0.00020823,2080.9,7.1567e-05,0.029095,6.3856e-05,-57.911,-0.00020915,-2109.2,1.0935
19859,14.626,1.3636,0,0.00021064,2104.9,7.2177e-05,0.03313,6.4969e-05,-54.132,-0.00021151,-2131.5,1.0808
19860,14.626,1.4545,0.05,8.7493e-07,8.7432,6.7184e-07,5.0479,2.185e-13,9.596e-08,-6.7183e-07,-5.0479,1.0809
19861,14.902,1.4545,0,0.00020378,2036.4,6.9893e-05,0.024029,6.2737e-05,-53.743,-0.00020464,-2062.7,1.1187
19862,14.81,1.3636,0,0.0002062,2060.5,7.0538e-05,0.027098,6.3801e-05,-50.592,-0.00020701,-2085.4,1.1059
19863,14.81,1.4545,0.05,8.6488e-07,8.6429,6.6413e-07,4.99,-2.4537e-12,3.8684e-06,-6.6412e-07,-4.9899,1.1061
19864,15.086,1.4545,0,0.00019934,1992,6.8225e-05,0.020185,6.1624e-05,-49.578,-0.00020014,-2016.4,1.144
19865,14.994,1.3636,0,0.00020176,2016.2,6.8897e-05,0.022535,6.2643e-05,-46.964,-0.00020252,-2039.3,1.1312
19866,14.994,1.4545,0.05,8.5615e-07,8.5556,6.5742e-07,4.9396,-6.7511e-13,3.0665e-06,-6.5741e-07,-4.9395,1.1313
19867,15.27,1.4545,0,0.00019493,1947.9,6.6565e-05,0.017243,6.0514e-05,-45.453,-0.00019566,-1970.2,1.1695
19868,15.178,1.3636,0,0.00019734,1972.1,6.7258e-05,0.019069,6.1493e-05,-43.299,-0.00019804,-1993.4,1.1566
19869,15.178,1.4545,0.05,8.4835e-07,8.4776,6.5143e-07,4.8946,-1.2827e-12,1.0346e-06,-6.5143e-07,-4.8946,1.1567
19870,15.453,1.4545,0,0.00019053,1904,6.4915e-05,0.014981,5.9403e-05,-41.399,-0.0001912,-1924.3,1.1951
19871,15.362,1.3636,0,0.00019294,1928,6.5624e-05,0.016388,6.0346e-05,-39.639,-0.00019358,-1947.5,1.1821
19872,15.362,1.4545,0.05,8.4123e-07,8.4065,6.4596e-07,4.8535,-1.6955e-12,1.3094e-06,-6.4596e-07,-4.8535,1.1823
19873,15.637,1.4545,0,0.00018615,1860.2,6.3275e-05,0.013276,5.829e-05,-37.441,-0.00018675,-1878.6,1.2209
19874,15.545,1.3636,0,0.00018854,1884.1,6.3996e-05,0.014334,5.9201e-05,-36.016,-0.00018913,-1901.9,1.2078
19875,15.545,1.4545,0.05,8.3461e-07,8.3403,6.4087e-07,4.8153,-8.8075e-13,2.2379e-06,-6.4087e-07,-4.8153,1.2079
19876,15.821,1.4545,0,0.00018178,1816.6,6.1645e-05,0.012015,5.7172e-05,-33.593,-0.00018233,-1833.1,1.2467
19877,15.729,1.3636,0,0.00018416,1840.4,6.2376e-05,0.012803,5.8054e-05,-32.457,-0.00018469,-1856.4,1.2336
19878,15.729,1.4545,0.05,8.2837e-07,8.278,6.3608e-07,4.7793,-1.3421e-12,1.7559e-06,-6.3608e-07,-4.7793,1.2337
19879,16.005,1.4545,0,0.00017743,1773.1,6.0026e-05,0.011098,5.605e-05,-29.869,-0.00017792,-1787.8,1.2727
19880,15.913,1.3636,0,0.0001798,1796.7,6.0764e-05,0.011668,5.6906e-05,-28.979,-0.00018027,-1811,1.2595
19881,15.913,1.4545,0.05,8.2244e-07,8.2187,6.3153e-07,4.7451,-1.3036e-12,3.9054e-06,-6.3153e-07,-4.7451,1.2597
19882,16.189,1.4545,0,0.0001731,1729.8,5.8419e-05,0.010459,5.4921e-05,-26.273,-0.00017353,-1742.7,1.2988
19883,16.097,1.3636,0,0.00017545,1753.2,5.9161e-05,0.01085,5.5753e-05,-25.597,-0.00017587,-1765.9,1.2856
19884,16.097,1.4545,0.05,8.1678e-07,8.1621,6.2718e-07,4.7124,-8.6057e-13,4.2263e-06,-6.2718e-07,-4.7124,1.2857
19885,16.372,1.4545,0,0.00016877,1686.6,5.6822e-05,0.010034,5.3785e-05,-22.81,-0.00016915,-1697.9,1.325
19886,16.281,1.3636,0,0.00017111,1709.9,5.7568e-05,0.010295,5.4596e-05,-22.319,-0.00017148,-1720.9,1.3117
19887,16.281,1.4545,0.05,8.1134e-07,8.1078,6.2301e-07,4.681,-1.2821e-12,4.2753e-06,-6.2301e-07,-4.681,1.3119
19888,16.556,1.4545,0,0.00016447,1643.5,5.5237e-05,0.0097977,5.2643e-05,-19.479,-0.00016479,-1653.2,1.3514
19889,16.464,1.3636,0,0.00016678,1666.7,5.5985e-05,0.009935,5.3435e-05,-19.15,-0.0001671,-1676.2,1.338
19890,16.464,1.4545,0.05,8.061e-07,8.0554,6.1898e-07,4.6508,-1.2838e-12,3.6048e-06,-6.1898e-07,-4.6508,1.3382
19891,16.74,1.4545,0,0.00016017,1600.6,5.3663e-05,0.0097797,5.1495e-05,-16.276,-0.00016045,-1608.7,1.3778
19892,16.648,1.3636,0,0.00016247,1623.6,5.4412e-05,0.0097957,5.2269e-05,-16.091,-0.00016274,-1631.6,1.3644
19893,16.648,1.4545,0.05,8.0102e-07,8.0047,6.1508e-07,4.6215,-4.1316e-13,3.4131e-06,-6.1508e-07,-4.6215,1.3646
19894,16.924,1.4545,0,0.0001559,1557.9,5.2099e-05,0.01001,5.0341e-05,-13.196,-0.00015612,-1564.4,1.4044
19895,16.832,1.3636,0,0.00015818,1580.7,5.2849e-05,0.0099308,5.1099e-05,-13.14,-0.0001584,-1587.2,1.3909
19896,16.832,1.4545,0.05,7.9611e-07,7.9556,6.1131e-07,4.5932,-1.328e-12,2.3635e-06,-6.1131e-07,-4.5931,1.3911
19897,17.108,1.4545,0,0.00015163,1515.3,5.0546e-05,0.010563,4.9182e-05,-10.234,-0.0001518,-1520.4,1.431
19898,17.016,1.3636,0,0.0001539,1537.9,5.1296e-05,0.010394,4.9924e-05,-10.294,-0.00015407,-1543,1.4175
19899,17.016,1.4545,0.05,7.9135e-07,7.9081,6.0767e-07,4.5658,-1.3466e-12,2.6117e-06,-6.0766e-07,-4.5657,1.4177
19900,17.291,1.4545,0,0.00014738,1472.8,4.9002e-05,0.011673,4.8019e-05,-7.3799,-0.00014751,-1476.5,1.4578
19901,17.2,1.3636,0,0.00014963,1495.3,4.9752e-05,0.011404,4.8746e-05,-7.5485,-0.00014976,-1499,1.4443
19902,17.2,1.4545,0.05,7.8675e-07,7.8621,6.0413e-07,4.5392,-4.458e-13,2.9679e-06,-6.0413e-07,-4.5392,1.4444
19903,17.475,1.4545,0,0.00014315,1430.5,4.7469e-05,0.014141,4.6852e-05,-4.6264,-0.00014323,-1432.8,1.4846
19904,17.383,1.3636,0,0.00014538,1452.8,4.8218e-05,0.01366,4.7565e-05,-4.8964,-0.00014546,-1455.2,1.4711
19905,17.383,1.4545,0.05,7.823e-07,7.8176,6.0071e-07,4.5135,-9.0791e-13,2.2307e-06,-6.0071e-07,-4.5135,1.4712
19906,17.659,1.4545,0,0.00013893,1388.3,4.5946e-05,0.023101,4.5681e-05,-1.9684,-0.00013896,-1389.3,1.5116
19907,17.567,1.3636,0,0.00014114,1410.5,4.6694e-05,0.020875,4.6381e-05,-2.3339,-0.00014118,-1411.6,1.498
19908,17.567,1.4545,0.05,7.7799e-07,7.7746,5.974e-07,4.4887,-9.0255e-13,3.0842e-06,-5.974e-07,-4.4886,1.4981
19909,17.843,1.4545,0,0.00013473,1346.3,4.4519e-05,0.68138,4.4423e-05,-0.038044,-0.00013472,-1346,1.5387
19910,17.751,1.3636,0,0.00013692,1368.3,4.5214e-05,0.28919,4.5161e-05,-0.10826,-0.00013692,-1368.2,1.525
19911,17.751,1.4545,0.05,7.7381e-07,7.7327,5.9419e-07,4.4645,-1.3604e-12,2.4932e-06,-5.9419e-07,-4.4645,1.5251
19912,18.027,1.4545,0,0.00013054,1304.5,4.3343e-05,3.1669,4.2921e-05,-0.0019804,-0.00013049,-1302.9,1.5658
19913,17.935,1.3636,0,0.00013272,1326.3,4.4016e-05,2.6141,4.3667e-05,-0.0054257,-0.00013267,-1325,1.5521
19914,17.935,1.4545,0.05,7.6976e-07,7.6923,5.9108e-07,4.4411,-4.5259e-13,3.7726e-06,-5.9108e-07,-4.4411,1.5522
19915,18.21,1.4545,0,0.00012637,1262.8,4.2172e-05,5.6283,4.1424e-05,0.002469,-0.00012627,-1260,1.593
19916,18.119,1.3636,0,0.00012853,1284.4,4.2831e-05,4.9797,4.2169e-05,0.0006225,-0.00012845,-1281.9,1.5793
19917,18.119,1.4545,0.05,7.6584e-07,7.6531,5.8807e-07,4.4185,-9.0741e-13,3.3551e-06,-5.8807e-07,-4.4185,1.5794
19918,18.394,1.4545,0,0.00012222,1221.3,4.1004e-05,8.0485,3.9933e-05,0.0043411,-0.00012208,-1217.3,1.6203
19919,18.302,1.3636,0,0.00012436,1242.8,4.1649e-05,7.3033,4.0678e-05,0.0028598,-0.00012424,-1239.1,1.6066
19920,18.302,1.4545,0.05,7.6205e-07,7.6153,5.8516e-07,4.3967,-9.1108e-13,2.5532e-06,-5.8516e-07,-4.3967,1.6067
19921,18.578,1.4545,0,0.00011808,1180,3.9839e-05,10.438,3.845e-05,0.0054681,-0.0001179,-1174.8,1.6477
19922,18.486,1.3636,0,0.00012021,1201.3,4.047e-05,9.593,3.9194e-05,0.0041188,-0.00012005,-1196.5,1.6339
19923,18.486,1.4545,0.05,7.584e-07,7.5788,5.8236e-07,4.3756,-9.122e-13,2.3732e-06,-5.8236e-07,-4.3756,1.634
19924,18.762,1.4545,0,0.00011397,1138.9,3.8678e-05,12.807,3.6974e-05,0.0062905,-0.00011375,-1132.4,1.6752
19925,18.67,1.3636,0,0.00011608,1160,3.9295e-05,11.859,3.7717e-05,0.0049736,-0.00011587,-1154,1.6614
19926,18.67,1.4545,0.05,7.5488e-07,7.5436,5.7966e-07,4.3553,-4.617e-13,3.6977e-06,-5.7966e-07,-4.3553,1.6615
19927,18.946,1.4545,0,0.00010987,1098,3.7523e-05,15.17,3.5505e-05,0.0069903,-0.00010961,-1090.3,1.7028
19928,18.854,1.3636,0,0.00011196,1118.9,3.8125e-05,14.113,3.6247e-05,0.0056542,-0.00011172,-1111.7,1.6889
19929,18.854,1.4545,0.05,7.5149e-07,7.5097,5.7705e-07,4.3357,-6.1462e-15,2.6308e-06,-5.7705e-07,-4.3357,1.689
19930,19.129,1.4545,0,0.0001058,1057.2,3.6374e-05,17.539,3.4041e-05,0.0076464,-0.00010549,-1048.4,1.7304
19931,19.038,1.3636,0,0.00010787,1077.9,3.6961e-05,16.366,3.4783e-05,0.0062765,-0.00010758,-1069.7,1.7165
19932,19.038,1.4545,0.05,7.4822e-07,7.477,5.7454e-07,4.3169,-4.4859e-13,3.5991e-06,-5.7454e-07,-4.3168,1.7166
19933,19.313,1.4545,0,0.00010174,1016.7,3.5234e-05,19.926,3.2584e-05,0.0082895,-0.00010139,-1006.6,1.7581
19934,19.221,1.3636,0,0.00010379,1037.2,3.5804e-05,18.63,3.3326e-05,0.0068699,-0.00010346,-1027.8,1.7441
19935,19.221,1.4545,0.05,7.4509e-07,7.4458,5.7214e-07,4.2988,-9.012e-13,3.2771e-06,-5.7214e-07,-4.2988,1.7442
19936,19.497,1.4545,0,9.7707e-05,976.4,3.4104e-05,22.345,3.1131e-05,0.0089431,-9.7308e-05,-965.03,1.7859
19937,19.405,1.3636,0,9.974e-05,996.71,3.4656e-05,20.917,3.1873e-05,0.0074633,-9.9367e-05,-986.08,1.7719
19938,19.405,1.4545,0.05,7.421e-07,7.4159,5.6984e-07,4.2816,-8.8579e-13,4.7395e-06,-5.6984e-07,-4.2815,1.772
19939,19.681,1.4545,0,9.3695e-05,936.3,3.2984e-05,24.809,2.9683e-05,0.0096168,-9.3248e-05,-923.65,1.8137
19940,19.589,1.3636,0,9.5707e-05,956.41,3.3518e-05,23.24,3.0426e-05,0.0080765,-9.529e-05,-944.57,1.7997
19941,19.589,1.4545,0.05,7.3926e-07,7.3875,5.6766e-07,4.2652,2.8284e-14,7.8021e-06,-5.6766e-07,-4.2651,1.7998
19942,19.865,1.4545,0,8.9706e-05,896.44,3.1876e-05,27.333,2.824e-05,0.010324,-8.921e-05,-882.46,1.8416
19943,19.773,1.3636,0,9.1696e-05,916.33,3.239e-05,25.611,2.8983e-05,0.0087033,-9.1234e-05,-903.25,1.8275
19944,19.773,1.4545,0.05,7.3656e-07,7.3605,5.6559e-07,4.2496,-8.9388e-13,7.4371e-06,-5.6559e-07,-4.2496,1.8276
19945,20.048,1.4545,0,8.5741e-05,856.82,3.0782e-05,29.93,2.68e-05,0.011096,-8.5192e-05,-841.45,1.8695
19946,19.956,1.3636,0,8.7708e-05,876.48,3.1276e-05,28.044,2.7544e-05,0.0093783,-8.7198e-05,-862.12,1.8555
19947,19.956,1.4545,0.05,7.3402e-07,7.3351,5.6364e-07,4.2349,-8.8736e-13,7.3787e-06,-5.6363e-07,-4.2349,1.8555
19948,20.232,1.4545,0,8.18e-05,817.44,2.9703e-05,32.618,2.5363e-05,0.011954,-8.1196e-05,-800.64,1.8976
19949,20.14,1.3636,0,8.3744e-05,836.87,3.0174e-05,30.553,2.6109e-05,0.010133,-8.3183e-05,-821.17,1.8835
19950,20.14,1.4545,0.05,7.3163e-07,7.3113,5.618e-07,4.2212,-4.2265e-13,5.9217e-06,-5.618e-07,-4.2212,1.8835
19951,20.416,1.4545,0,7.7886e-05,778.32,2.8641e-05,35.411,2.3929e-05,0.012909,-7.7223e-05,-760.01,1.9256
19952,20.324,1.3636,0,7.9805e-05,797.5,2.9088e-05,33.152,2.4677e-05,0.010971,-7.9189e-05,-780.4,1.9115
19953,20.324,1.4545,0.05,7.2942e-07,7.2892,5.6011e-07,4.2084,-4.5496e-13,5.3657e-06,-5.6011e-07,-4.2084,1.9116
19954,20.6,1.4545,0,7.3999e-05,739.48,2.7597e-05,38.326,2.2498e-05,0.013977,-7.3272e-05,-719.56,1.9537
19955,20.508,1.3636,0,7.5891e-05,758.39,2.8019e-05,35.858,2.3248e-05,0.011911,-7.5218e-05,-739.82,1.9396
19956,20.508,1.4545,0.05,7.274e-07,7.269,5.5856e-07,4.1968,-8.7928e-13,6.5506e-06,-5.5855e-07,-4.1967,1.9397
19957,20.784,1.4545,0,7.014e-05,700.92,2.6573e-05,41.383,2.1067e-05,0.015174,-6.9344e-05,-679.3,1.9819
19958,20.692,1.3636,0,7.2005e-05,719.55,2.6968e-05,38.686,2.1821e-05,0.01297,-7.1269e-05,-699.42,1.9677
19959,20.692,1.4545,0.05,7.2558e-07,7.2508,5.5716e-07,4.1863,-6.7815e-13,8.5574e-06,-5.5716e-07,-4.1862,1.9678
19960,20.967,1.4545,0,6.6312e-05,662.66,2.5572e-05,44.601,1.9638e-05,0.016532,-6.544e-05,-639.23,2.0101
19961,20.875,1.3636,0,6.8147e-05,681,2.5937e-05,41.655,2.0395e-05,0.014162,-6.7342e-05,-659.21,1.9959
19962,20.875,1.4545,0.05,7.2398e-07,7.2348,5.5593e-07,4.177,-4.5782e-13,8.5608e-06,-5.5592e-07,-4.177,1.996
19963,21.151,1.4545,0,6.2516e-05,624.73,2.4595e-05,48.002,1.8209e-05,0.0181,-6.1561e-05,-599.34,2.0384
19964,21.059,1.3636,0,6.4319e-05,642.75,2.4928e-05,44.785,1.8969e-05,0.015533,-6.344e-05,-619.17,2.0242
19965,21.059,1.4545,0.05,7.226e-07,7.2211,5.5487e-07,4.1691,1.4025e-14,8.1725e-06,-5.5487e-07,-4.1691,2.0242
19966,21.335,1.4545,0,5.8756e-05,587.15,2.3645e-05,51.61,1.6778e-05,0.019925,-5.7707e-05,-559.64,2.0667
19967,21.243,1.3636,0,6.0523e-05,604.82,2.3943e-05,48.098,1.7544e-05,0.017138,-5.9561e-05,-579.32,2.0524
19968,21.243,1.4545,0.05,7.2149e-07,7.2099,5.5402e-07,4.1627,-2.2819e-13,7.9452e-06,-5.5402e-07,-4.1626,2.0525
19969,21.519,1.4545,0,5.5033e-05,549.95,2.2724e-05,55.452,1.5347e-05,0.022064,-5.388e-05,-520.12,2.095
19970,21.427,1.3636,0,5.6763e-05,567.24,2.2986e-05,51.617,1.6118e-05,0.019017,-5.5708e-05,-539.66,2.0808
19971,21.427,1.4545,0.05,7.2067e-07,7.2017,5.5339e-07,4.1579,-3.9795e-14,6.4401e-06,-5.5339e-07,-4.1579,2.0808
19972,21.703,1.4545,0,5.1353e-05,513.17,2.1836e-05,59.558,1.3913e-05,0.024597,-5.0079e-05,-480.78,2.1234
19973,21.611,1.3636,0,5.3041e-05,530.04,2.2057e-05,55.372,1.4691e-05,0.021243,-5.1881e-05,-500.17,2.1091
19974,21.611,1.4545,0.05,7.2018e-07,7.1968,5.5301e-07,4.1551,-9.6818e-14,6.4827e-06,-5.5301e-07,-4.1551,2.1092
19975,21.886,1.4545,0,4.7719e-05,476.86,2.0984e-05,63.962,1.2475e-05,0.027619,-4.6307e-05,-441.64,2.1518
19976,21.794,1.3636,0,4.9361e-05,493.27,2.1162e-05,59.393,1.3261e-05,0.023905,-4.8082e-05,-460.88,2.1375
19977,21.794,1.4545,0.05,7.2007e-07,7.1957,5.5292e-07,4.1545,-5.7034e-13,5.0447e-06,-5.5292e-07,-4.1544,2.1376
19978,22.07,1.4545,0,4.4138e-05,441.07,2.0172e-05,68.703,1.1032e-05,0.031279,-4.2566e-05,-402.68,2.1802
19979,21.978,1.3636,0,4.573e-05,456.98,2.0303e-05,63.716,1.1827e-05,0.027112,-4.4311e-05,-421.77,2.1659
19980,21.978,1.4545,0.05,7.2039e-07,7.1989,5.5317e-07,4.1563,-1.1583e-13,9.6693e-07,-5.5317e-07,-4.1563,2.166
19981,22.254,1.4545,0,4.0618e-05,405.9,1.9404e-05,73.824,9.583e-06,0.035788,-3.8855e-05,-363.91,2.2087
19982,22.162,1.3636,0,4.2153e-05,421.24,1.9485e-05,68.383,1.0388e-05,0.031055,-4.0571e-05,-382.85,2.1944
19983,22.162,1.4545,0.05,7.2121e-07,7.2071,5.538e-07,4.1611,-3.5424e-13,2.0256e-06,-5.538e-07,-4.161,2.1944
19984,22.438,1.4545,0,3.717e-05,371.44,1.8684e-05,79.373,8.1261e-06,0.041452,-3.5177e-05,-325.32,2.2372
19985,22.346,1.3636,0,3.8641e-05,386.14,1.8712e-05,73.443,8.9425e-06,0.03597,-3.6863e-05,-344.13,2.2229
19986,22.346,1.4545,0.05,7.2264e-07,7.2214,5.549e-07,4.1693,1.7598e-13,2.8219e-06,-5.549e-07,-4.1693,2.2229
19987,22.622,1.4545,0,3.3806e-05,337.83,1.8019e-05,85.404,6.6594e-06,0.048664,-3.1533e-05,-286.92,2.2657
19988,22.53,1.3636,0,3.5204e-05,351.8,1.7991e-05,78.949,7.489e-06,0.042253,-3.319e-05,-305.6,2.2514
19989,22.53,1.4545,0.05,7.248e-07,7.243,5.5656e-07,4.1818,2.6274e-13,5.9339e-06,-5.5656e-07,-4.1817,2.2514
19990,22.805,1.4545,0,3.0547e-05,305.26,1.7414e-05,91.974,5.1807e-06,0.058384,-2.7924e-05,-248.68,2.2942
19991,22.713,1.3636,0,3.186e-05,318.38,1.7327e-05,84.964,6.0252e-06,0.050315,-2.9553e-05,-267.27,2.2799
19992,22.713,1.4545,0.05,7.2785e-07,7.2734,5.589e-07,4.1993,-8.9206e-14,5.0752e-06,-5.589e-07,-4.1993,2.2799
19993,22.989,1.4545,0,2.7416e-05,273.97,1.6873e-05,99.141,3.6874e-06,0.070964,-2.4349e-05,-210.59,2.3228
19994,22.897,1.3636,0,2.8631e-05,286.11,1.6726e-05,91.554,4.5488e-06,0.061709,-2.5953e-05,-229.11,2.3084
19995,22.897,1.4545,0.05,7.3197e-07,7.3147,5.6206e-07,4.2231,3.2352e-13,6.6036e-06,-5.6206e-07,-4.2231,2.3085
19996,23.173,1.4545,0,2.445e-05,244.33,1.64e-05,106.96,2.1769e-06,0.092437,-2.0807e-05,-172.6,2.3514
19997,23.081,1.3636,0,2.5547e-05,255.29,1.6194e-05,98.786,3.0567e-06,0.075698,-2.239e-05,-191.12,2.337
19998,23.081,1.4545,0.05,7.3739e-07,7.3688,5.6623e-07,4.2544,9.8814e-14,1.0615e-05,-5.6623e-07,-4.2544,2.3371
19999,23.357,1.4545,0,2.1698e-05,216.83,1.5998e-05,115.47,6.4525e-07,0.11367,-1.7292e-05,-134.66,2.3799
20000,23.265,1.3636,0,2.265e-05,226.35,1.5737e-05,106.73,1.5466e-06,0.10536,-1.8863e-05,-153.24,2.3656
20001,23.265,1.4545,0.05,7.4436e-07,7.4384,5.7157e-07,4.2946,4.8338e-13,8.8987e-06,-5.7157e-07,-4.2946,2.3656
20002,23.541,1.4545,0,1.9237e-05,192.23,1.5666e-05,124.71,-9.0484e-07,0.2055,-1.3801e-05,-96.689,2.4085
20003,23.449,1.3636,0,2.0004e-05,199.9,1.5356e-05,115.41,1.216e-08,0.1205,-1.5365e-05,-115.41,2.3942
20004,23.449,1.4545,0.05,7.5305e-07,7.5253,5.7825e-07,4.3448,7.5997e-13,1.388e-05,-5.7825e-07,-4.3447,2.3942
20005,23.724,1.4545,0,1.7177e-05,171.65,1.5406e-05,134.65,-2.4897e-06,0.1907,-1.0325e-05,-58.683,2.4371
20006,23.632,1.3636,0,1.7701e-05,176.89,1.5052e-05,124.93,-1.5353e-06,0.29725,-1.1894e-05,-77.535,2.4228
20007,23.632,1.4545,0.05,7.6414e-07,7.6361,5.8677e-07,4.4087,9.6731e-13,1.4706e-05,-5.8677e-07,-4.4087,2.4228
20008,23.816,1.3636,0,1.5884e-05,158.73,1.483e-05,135.13,-3.1354e-06,0.1462,-8.4441e-06,-39.741,2.4514
20009,23.816,1.4545,0.05,7.8699e-07,7.8645,6.0431e-07,4.5406,9.6398e-13,1.1815e-05,-6.0431e-07,-4.5406,2.4514
20010,23.908,1.4545,0,1.5673e-05,156.62,1.5173e-05,144.37,-3.9848e-06,0.42091,-7.0253e-06,-22.424,2.4658
20011,11.042,1.2727,0,0.00030141,3012,0.00017593,959.29,4.7719e-05,-4.0304,-0.00027337,-2416.5,0.62188
20012,10.95,1.1818,0,0.00028862,2884.2,0.00017986,1069.8,3.6547e-05,-7.0509,-0.00025503,-2197.9,0.61032
20013,10.95,1.2727,0.05,1.5162e-05,151.52,1.1643e-05,87.479,3.2554e-13,-1.8556e-14,-1.1643e-05,-87.479,0.61083
20014,10.859,1.2727,0,0.00025974,2595.6,0.00016184,968.22,3.3595e-05,4.6696,-0.0002294,-1971.4,0.59986
20015,11.226,1.2727,0,0.00028092,2807.2,0.00014069,591.81,6.1642e-05,-2.111,-0.00026613,-2464.9,0.64396
20016,11.134,1.1818,0,0.00026293,2627.5,0.00014029,665.32,5.1612e-05,-0.98585,-0.00024521,-2231.2,0.63243
20017,11.134,1.2727,0.05,8.9714e-06,89.652,6.8889e-06,51.761,1.2163e-12,1.3481e-05,-6.8889e-06,-51.761,0.63287
20018,11.41,1.2727,0,0.00027266,2724.7,0.00011974,361.85,7.1212e-05,-2.8002,-0.00026471,-2526.8,0.66615
20019,11.318,1.1818,0,0.00025657,2564,0.00011934,423.78,6.2554e-05,-2.8771,-0.00024673,-2326.7,0.65462
20020,11.318,1.2727,0.05,6.5548e-06,65.503,5.0333e-06,37.818,7.096e-13,5.4282e-05,-5.0333e-06,-37.818,0.65501
20021,11.594,1.2727,0,0.00026791,2677.2,0.00010597,211.19,7.7522e-05,-2.5603,-0.00026372,-2566.5,0.68847
20022,11.502,1.1818,0,0.00025457,2544,0.00010571,262.47,7.047e-05,-2.3319,-0.00024911,-2403.5,0.67692
20023,11.502,1.2727,0.05,4.7122e-06,47.09,3.6184e-06,27.187,5.7423e-12,4.0777e-05,-3.6184e-06,-27.187,0.67726
20024,11.778,1.2727,0,0.00026496,2647.7,9.7111e-05,114.9,8.1445e-05,-2.8021,-0.00026285,-2589.7,0.71095
20025,11.686,1.1818,0,0.0002544,2542.3,9.7062e-05,156.96,7.5856e-05,-2.3734,-0.0002514,-2461.2,0.69936
20026,11.686,1.2727,0.05,3.5346e-06,35.322,2.7142e-06,20.393,2.6662e-12,5.7358e-05,-2.7142e-06,-20.393,0.69966
20027,11.961,1.2727,0,0.00026281,2626.3,9.1472e-05,54.768,8.369e-05,-3.6996,-0.0002619,-2600.3,0.73359
20028,11.869,1.1818,0,0.0002548,2546.3,9.163e-05,89.267,7.9407e-05,-2.569,-0.0002532,-2501.7,0.72194
20029,11.869,1.2727,0.05,2.7474e-06,27.455,2.1096e-06,15.851,5.6508e-12,4.4742e-05,-2.1096e-06,-15.851,0.72222
20030,12.145,1.2727,0,0.00026083,2606.5,8.8023e-05,19.233,8.4539e-05,-6.9492,-0.00026062,-2600.3,0.75639
20031,12.053,1.1818,0,0.00025501,2548.3,8.8139e-05,45.928,8.1596e-05,-3.2376,-0.00025425,-2526.6,0.74469
20032,12.053,1.2727,0.05,2.2034e-06,22.019,1.6919e-06,12.712,4.4507e-12,6.4673e-05,-1.6919e-06,-12.712,0.74494
20033,12.329,1.2727,0,0.00025867,2585,8.6669e-05,5.0909,8.3618e-05,-17.836,-0.00025888,-2591.3,0.77937
20034,12.237,1.1818,0,0.00025467,2544.9,8.5875e-05,18.864,8.2662e-05,-5.2699,-0.00025443,-2538,0.7676
20035,12.237,1.2727,0.05,1.8112e-06,18.099,1.3908e-06,10.45,4.7103e-13,3.4204e-05,-1.3908e-06,-10.45,0.76783
20036,12.513,1.2727,0,0.00025618,2560,8.6249e-05,2.0128,8.1825e-05,-31.223,-0.00025666,-2574.5,0.80252
20037,12.421,1.1818,0,0.00025365,2534.7,8.4769e-05,5.7109,8.2426e-05,-11.892,-0.00025375,-2537.8,0.79068
20038,12.421,1.2727,0.05,1.5228e-06,15.217,1.1693e-06,8.7858,3.5543e-12,6.0325e-05,-1.1693e-06,-8.7858,0.7909
20039,12.697,1.2727,0,0.00025331,2531.4,8.5718e-05,1.0673,8.0082e-05,-41.278,-0.00025397,-2551.2,0.82585
20040,12.605,1.1818,0,0.00025196,2517.9,8.4418e-05,2.1291,8.1192e-05,-22.112,-0.0002523,-2527.8,0.81392
20041,12.605,1.2727,0.05,1.3108e-06,13.099,1.0066e-06,7.563,2.7456e-12,5.2681e-05,-1.0066e-06,-7.563,0.81414
20042,12.88,1.2727,0,0.00025009,2499.2,8.4961e-05,0.64647,7.8456e-05,-48.233,-0.00025086,-2522.6,0.84934
20043,12.788,1.1818,0,0.00024968,2495.1,8.4007e-05,1.0689,7.9756e-05,-30.87,-0.00025017,-2509.8,0.83734
20044,12.788,1.2727,0.05,1.1574e-06,11.566,8.8877e-07,6.6779,1.8119e-12,1.8123e-05,-8.8877e-07,-6.6779,0.83754
20045,13.064,1.2727,0,0.00024656,2463.9,8.4005e-05,0.42082,7.6914e-05,-52.861,-0.00024741,-2489.7,0.873
20046,12.972,1.1818,0,0.00024688,2467.1,8.3371e-05,0.62344,7.8304e-05,-37.447,-0.00024749,-2485.3,0.86092
20047,12.972,1.2727,0.05,1.0492e-06,10.485,8.0569e-07,6.0537,6.4189e-12,1.1326e-05,-8.0569e-07,-6.0537,0.86112
20048,13.248,1.2727,0,0.00024279,2426.2,8.2889e-05,0.28677,7.5433e-05,-55.735,-0.00024368,-2453.5,0.89683
20049,13.156,1.1818,0,0.00024367,2435,8.2524e-05,0.39505,7.6859e-05,-42.167,-0.00024435,-2455.6,0.88467
20050,13.156,1.2727,0.05,9.7531e-07,9.7464,7.4892e-07,5.6271,2.8707e-12,6.9919e-06,-7.4892e-07,-5.6271,0.88487
20051,13.432,1.2727,0,0.00023882,2386.6,8.1646e-05,0.20199,7.4e-05,-57.248,-0.00023974,-2414.6,0.92082
20052,13.34,1.1818,0,0.00024013,2399.7,8.1503e-05,0.26412,7.5429e-05,-45.375,-0.00024087,-2421.9,0.90859
20053,13.34,1.2727,0.05,9.2638e-07,9.2574,7.1135e-07,5.3448,4.8515e-13,1.9344e-05,-7.1135e-07,-5.3448,0.90878
20054,13.616,1.2727,0,0.0002347,2345.4,8.0303e-05,0.14607,7.2608e-05,-57.676,-0.00023563,-2373.6,0.94497
20055,13.524,1.1818,0,0.00023634,2361.8,8.0341e-05,0.18366,7.4016e-05,-47.337,-0.00023711,-2385,0.93266
20056,13.524,1.2727,0.05,8.9493e-07,8.9431,6.872e-07,5.1633,-1.7379e-12,1.2326e-05,-6.8719e-07,-5.1633,0.93285
20057,13.799,1.2727,0,0.00023048,2303.2,7.8884e-05,0.108,7.1253e-05,-57.229,-0.0002314,-2331.2,0.96929
20058,13.707,1.1818,0,0.00023236,2322,7.9068e-05,0.13176,7.2627e-05,-48.264,-0.00023314,-2345.7,0.9569
20059,13.707,1.2727,0.05,8.7513e-07,8.7453,6.72e-07,5.0491,4.4683e-13,-2.1244e-06,-6.7199e-07,-5.0491,0.95709
20060,13.983,1.2727,0,0.00022617,2260.2,7.7405e-05,0.081461,6.9931e-05,-56.07,-0.00022708,-2287.7,0.99376
20061,13.891,1.1818,0,0.00022824,2280.8,7.7707e-05,0.097055,7.1262e-05,-48.327,-0.00022902,-2304.5,0.9813
20062,13.891,1.2727,0.05,8.6275e-07,8.6216,6.6249e-07,4.9777,-9.8815e-13,-8.1187e-06,-6.6248e-07,-4.9777,0.98148
20063,14.167,1.2727,0,0.00022182,2216.7,7.5881e-05,0.062556,6.8641e-05,-54.337,-0.00022269,-2243.3,1.0184
20064,14.075,1.1818,0,0.00022401,2238.6,7.6279e-05,0.073169,6.9924e-05,-47.674,-0.00022478,-2262,1.0058
20065,14.075,1.2727,0.05,8.5486e-07,8.5427,6.5643e-07,4.9322,-8.9931e-13,4.4108e-06,-6.5643e-07,-4.9321,1.006
20066,14.351,1.2727,0,0.00021743,2172.8,7.4324e-05,0.048847,6.7377e-05,-52.149,-0.00021827,-2198.4,1.0432
20067,14.259,1.1818,0,0.00021972,2195.6,7.4799e-05,0.056289,6.8611e-05,-46.433,-0.00022047,-2218.5,1.0305
20068,14.259,1.2727,0.05,8.4952e-07,8.4893,6.5233e-07,4.9014,-3.777e-13,9.7487e-06,-6.5232e-07,-4.9013,1.0307
20069,14.534,1.2727,0,0.00021302,2128.8,7.2744e-05,0.038789,6.6137e-05,-49.606,-0.00021382,-2153.1,1.0681
20070,14.443,1.1818,0,0.00021537,2152.2,7.3279e-05,0.044132,6.7322e-05,-44.719,-0.00021609,-2174.2,1.0554
20071,14.443,1.2727,0.05,8.4548e-07,8.449,6.4923e-07,4.878,-2.3617e-12,-4.1723e-06,-6.4922e-07,-4.878,1.0556
20072,14.718,1.2727,0,0.00020861,2084.6,7.1148e-05,0.031332,6.4915e-05,-46.797,-0.00020936,-2107.6,1.0931
20073,14.626,1.1818,0,0.00021099,2108.5,7.1731e-05,0.035264,6.6053e-05,-42.63,-0.00021168,-2129.4,1.0804
20074,14.626,1.2727,0.05,8.4203e-07,8.4145,6.4657e-07,4.8581,-8.9279e-13,3.2169e-07,-6.4657e-07,-4.8581,1.0806
20075,14.902,1.2727,0,0.00020419,2040.5,6.9542e-05,0.025741,6.3709e-05,-43.797,-0.0002049,-2062,1.1183
20076,14.81,1.1818,0,0.0002066,2064.5,7.0163e-05,0.028686,6.4802e-05,-40.255,-0.00020725,-2084.4,1.1055
20077,14.81,1.2727,0.05,8.3873e-07,8.3815,6.4404e-07,4.8391,-1.6344e-12,1.6202e-06,-6.4404e-07,-4.839,1.1057
20078,15.086,1.2727,0,0.00019977,1996.3,6.793e-05,0.021512,6.2514e-05,-40.67,-0.00020043,-2016.3,1.1437
20079,14.994,1.1818,0,0.00020219,2020.5,6.8582e-05,0.02375,6.3566e-05,-37.668,-0.0002028,-2039.1,1.1308
20080,14.994,1.2727,0.05,8.3535e-07,8.3478,6.4145e-07,4.8196,-1.7467e-12,2.6229e-06,-6.4145e-07,-4.8196,1.131
20081,15.27,1.2727,0,0.00019536,1952.2,6.6317e-05,0.018276,6.1328e-05,-37.469,-0.00019597,-1970.7,1.1692
20082,15.178,1.1818,0,0.00019778,1976.5,6.6993e-05,0.020008,6.2341e-05,-34.935,-0.00019835,-1993.7,1.1562
20083,15.178,1.2727,0.05,8.3181e-07,8.3124,6.3873e-07,4.7992,-1.7797e-12,1.1469e-06,-6.3873e-07,-4.7991,1.1564
20084,15.453,1.2727,0,0.00019096,1908.2,6.4705e-05,0.015779,6.0146e-05,-34.24,-0.00019152,-1925.1,1.1948
20085,15.362,1.1818,0,0.00019338,1932.4,6.54e-05,0.017112,6.1124e-05,-32.109,-0.0001939,-1948.3,1.1818
20086,15.362,1.2727,0.05,8.2806e-07,8.2749,6.3585e-07,4.7775,-4.7223e-13,2.2807e-06,-6.3585e-07,-4.7775,1.1819
20087,15.637,1.2727,0,0.00018656,1864.4,6.3097e-05,0.013881,5.8967e-05,-31.016,-0.00018707,-1879.7,1.2205
20088,15.545,1.1818,0,0.00018898,1888.5,6.3806e-05,0.014883,5.9913e-05,-29.234,-0.00018946,-1902.9,1.2074
20089,15.545,1.2727,0.05,8.2409e-07,8.2352,6.328e-07,4.7547,-1.37e-12,2.7204e-06,-6.328e-07,-4.7546,1.2076
20090,15.821,1.2727,0,0.00018218,1820.6,6.1495e-05,0.01246,5.779e-05,-27.826,-0.00018264,-1834.3,1.2464
20091,15.729,1.1818,0,0.00018458,1844.6,6.2214e-05,0.013205,5.8706e-05,-26.345,-0.00018502,-1857.6,1.2333
20092,15.729,1.2727,0.05,8.1995e-07,8.1939,6.2962e-07,4.7308,-9.7588e-13,1.9689e-06,-6.2962e-07,-4.7307,1.2334
20093,16.005,1.2727,0,0.00017782,1776.9,5.9899e-05,0.011411,5.6611e-05,-24.69,-0.00017822,-1789.1,1.2724
20094,15.913,1.1818,0,0.0001802,1800.8,6.0627e-05,0.011944,5.7501e-05,-23.472,-0.00018059,-1812.4,1.2592
20095,15.913,1.2727,0.05,8.1568e-07,8.1512,6.2635e-07,4.7061,-8.5623e-13,3.405e-06,-6.2634e-07,-4.7061,1.2593
20096,16.189,1.2727,0,0.00017346,1733.4,5.8311e-05,0.010666,5.5431e-05,-21.625,-0.00017382,-1744.1,1.2985
20097,16.097,1.1818,0,0.00017583,1757.1,5.9045e-05,0.011025,5.6297e-05,-20.636,-0.00017617,-1767.3,1.2852
20098,16.097,1.2727,0.05,8.1132e-07,8.1076,6.23e-07,4.681,-1.7812e-12,4.5785e-06,-6.2299e-07,-4.6809,1.2854
20099,16.372,1.2727,0,0.00016912,1690,5.6731e-05,0.010165,5.4249e-05,-18.64,-0.00016943,-1699.3,1.3247
20100,16.281,1.1818,0,0.00017147,1713.6,5.747e-05,0.010395,5.5092e-05,-17.852,-0.00017177,-1722.4,1.3114
20101,16.281,1.2727,0.05,8.0692e-07,8.0636,6.1961e-07,4.6555,-8.1791e-13,4.5442e-06,-6.1961e-07,-4.6555,1.3116
20102,16.556,1.2727,0,0.00016479,1646.8,5.516e-05,0.0098916,5.3064e-05,-15.742,-0.00016505,-1654.6,1.3511
20103,16.464,1.1818,0,0.00016713,1670.2,5.5902e-05,0.0099976,5.3886e-05,-15.132,-0.00016738,-1677.7,1.3377
20104,16.464,1.2727,0.05,8.0249e-07,8.0193,6.1621e-07,4.63,-1.7485e-12,4.0353e-06,-6.1621e-07,-4.6299,1.3379
20105,16.74,1.2727,0,0.00016048,1603.7,5.3599e-05,0.0098937,5.1876e-05,-12.934,-0.0001607,-1610.1,1.3775
20106,16.648,1.1818,0,0.0001628,1626.9,5.4342e-05,0.0098759,5.2679e-05,-12.483,-0.00016301,-1633.1,1.3641
20107,16.648,1.2727,0.05,7.9805e-07,7.975,6.128e-07,4.6044,-4.1201e-13,3.1598e-06,-6.1281e-07,-4.6044,1.3642
20108,16.924,1.2727,0,0.00015618,1560.7,5.2046e-05,0.010246,5.0685e-05,-10.216,-0.00015635,-1565.8,1.4041
20109,16.832,1.1818,0,0.00015848,1583.7,5.2791e-05,0.010132,5.147e-05,-9.9082,-0.00015865,-1588.7,1.3906
20110,16.832,1.2727,0.05,7.9365e-07,7.931,6.0942e-07,4.579,-4.119e-13,2.0501e-06,-6.0942e-07,-4.5789,1.3908
20111,17.108,1.2727,0,0.0001519,1517.9,5.0502e-05,0.011137,4.9491e-05,-7.5861,-0.00015202,-1521.7,1.4307
20112,17.016,1.1818,0,0.00015418,1540.8,5.1248e-05,0.010936,5.026e-05,-7.4095,-0.00015431,-1544.4,1.4172
20113,17.016,1.2727,0.05,7.8929e-07,7.8875,6.0608e-07,4.5539,-9.0042e-13,2.4963e-06,-6.0608e-07,-4.5538,1.4174
20114,17.291,1.2727,0,0.00014763,1475.3,4.8968e-05,0.01319,4.8296e-05,-5.041,-0.00014771,-1477.8,1.4575
20115,17.2,1.1818,0,0.0001499,1497.9,4.9714e-05,0.012891,4.9048e-05,-4.986,-0.00014998,-1500.4,1.444
20116,17.2,1.2727,0.05,7.8501e-07,7.8447,6.0279e-07,4.5291,-8.8935e-13,2.515e-06,-6.0279e-07,-4.5291,1.4441
20117,17.475,1.2727,0,0.00014338,1432.8,4.7443e-05,0.01938,4.7098e-05,-2.5781,-0.00014342,-1434.1,1.4844
20118,17.383,1.1818,0,0.00014563,1455.3,4.8189e-05,0.018722,4.7835e-05,-2.637,-0.00014567,-1456.6,1.4708
20119,17.383,1.2727,0.05,7.8081e-07,7.8027,5.9957e-07,4.5049,-9.0785e-13,2.1125e-06,-5.9956e-07,-4.5049,1.4709
20120,17.659,1.2727,0,0.00013914,1390.4,4.594e-05,0.12187,4.5886e-05,-0.28285,-0.00013914,-1390.5,1.5113
20121,17.567,1.1818,0,0.00014137,1412.7,4.668e-05,0.086005,4.6614e-05,-0.41579,-0.00014138,-1412.9,1.4977
20122,17.567,1.2727,0.05,7.767e-07,7.7616,5.9641e-07,4.4812,-4.4849e-13,3.3045e-06,-5.9641e-07,-4.4812,1.4978
20123,17.843,1.2727,0,0.00013492,1348.3,4.4706e-05,2.1821,4.4414e-05,-0.0090012,-0.00013488,-1347.2,1.5384
20124,17.751,1.1818,0,0.00013713,1370.4,4.5414e-05,1.9106,4.5158e-05,-0.012119,-0.0001371,-1369.4,1.5247
20125,17.751,1.2727,0.05,7.7267e-07,7.7214,5.9332e-07,4.458,-9.0904e-13,2.5429e-06,-5.9332e-07,-4.4579,1.5248
20126,18.027,1.2727,0,0.00013072,1306.2,4.3508e-05,4.453,4.2915e-05,-0.0011258,-0.00013064,-1304,1.5655
20127,17.935,1.1818,0,0.00013291,1328.2,4.4202e-05,4.076,4.3659e-05,-0.0027219,-0.00013284,-1326.2,1.5518
20128,17.935,1.2727,0.05,7.6874e-07,7.6821,5.903e-07,4.4353,-9.0763e-13,3.6145e-06,-5.903e-07,-4.4353,1.5519
20129,18.21,1.2727,0,0.00012653,1264.4,4.2312e-05,6.6829,4.1423e-05,0.0014616,-0.00012641,-1261.1,1.5928
20130,18.119,1.1818,0,0.00012871,1286.2,4.2991e-05,6.2021,4.2166e-05,0.00012709,-0.0001286,-1283.1,1.579
20131,18.119,1.2727,0.05,7.6492e-07,7.644,5.8737e-07,4.4133,-4.5367e-13,3.2188e-06,-5.8736e-07,-4.4132,1.5791
20132,18.394,1.2727,0,0.00012236,1222.8,4.112e-05,8.8773,3.9938e-05,0.0028179,-0.00012221,-1218.3,1.6201
20133,18.302,1.1818,0,0.00012452,1244.4,4.1784e-05,8.2917,4.0681e-05,0.0015404,-0.00012438,-1240.2,1.6063
20134,18.302,1.2727,0.05,7.6121e-07,7.6069,5.8452e-07,4.3919,-9.1073e-13,2.242e-06,-5.8452e-07,-4.3918,1.6064
20135,18.578,1.2727,0,0.00011821,1181.3,3.993e-05,11.045,3.8461e-05,0.0037016,-0.00011802,-1175.7,1.6475
20136,18.486,1.1818,0,0.00012035,1202.7,4.058e-05,10.353,3.9203e-05,0.0024281,-0.00012017,-1197.5,1.6337
20137,18.486,1.2727,0.05,7.5762e-07,7.571,5.8176e-07,4.3711,-9.1278e-13,2.4904e-06,-5.8176e-07,-4.3711,1.6338
20138,18.762,1.2727,0,0.00011408,1140,3.8746e-05,13.196,3.699e-05,0.0043613,-0.00011385,-1133.3,1.675
20139,18.67,1.1818,0,0.0001162,1161.2,3.9381e-05,12.394,3.7731e-05,0.0030529,-0.00011599,-1155,1.6611
20140,18.67,1.2727,0.05,7.5415e-07,7.5363,5.7909e-07,4.3511,-5.1511e-15,3.6541e-06,-5.7909e-07,-4.3511,1.6612
20141,18.946,1.2727,0,0.00010996,1098.9,3.7567e-05,15.341,3.5526e-05,0.0049308,-0.00010969,-1091.1,1.7026
20142,18.854,1.1818,0,0.00011207,1119.9,3.8186e-05,14.424,3.6267e-05,0.0035558,-0.00011182,-1112.6,1.6886
20143,18.854,1.2727,0.05,7.5079e-07,7.5027,5.7651e-07,4.3317,-1.3707e-12,2.0878e-06,-5.7651e-07,-4.3317,1.6887
20144,19.129,1.2727,0,0.00010587,1058,3.6395e-05,17.491,3.4068e-05,0.0054664,-0.00010556,-1049.1,1.7302
20145,19.038,1.1818,0,0.00010796,1078.8,3.6998e-05,16.453,3.4809e-05,0.0040243,-0.00010767,-1070.5,1.7162
20146,19.038,1.2727,0.05,7.4754e-07,7.4703,5.7402e-07,4.313,-1.8163e-12,3.3667e-06,-5.7402e-07,-4.3129,1.7163
20147,19.313,1.2727,0,0.0001018,1017.3,3.523e-05,19.656,3.2615e-05,0.005991,-0.00010145,-1007.3,1.7579
20148,19.221,1.1818,0,0.00010387,1037.9,3.5816e-05,18.491,3.3356e-05,0.0044698,-0.00010354,-1028.6,1.7439
20149,19.221,1.2727,0.05,7.4443e-07,7.4391,5.7163e-07,4.295,-4.455e-13,2.6803e-06,-5.7163e-07,-4.295,1.744
20150,19.497,1.2727,0,9.7744e-05,976.77,3.4075e-05,21.848,3.1168e-05,0.0065276,-9.7354e-05,-965.66,1.7857
20151,19.405,1.1818,0,9.9793e-05,997.24,3.4643e-05,20.547,3.1909e-05,0.0049206,-9.9428e-05,-986.81,1.7717
20152,19.405,1.2727,0.05,7.4144e-07,7.4093,5.6934e-07,4.2778,-4.4314e-13,5.1229e-06,-5.6933e-07,-4.2777,1.7718
20153,19.681,1.2727,0,9.3713e-05,936.49,3.2929e-05,24.079,2.9726e-05,0.0070788,-9.328e-05,-924.21,1.8135
20154,19.589,1.1818,0,9.5741e-05,956.75,3.3479e-05,22.634,3.0467e-05,0.0053881,-9.5336e-05,-945.23,1.7995
20155,19.589,1.2727,0.05,7.386e-07,7.3809,5.6715e-07,4.2614,-8.7632e-13,7.9077e-06,-5.6715e-07,-4.2613,1.7996
20156,19.865,1.2727,0,8.9704e-05,896.42,3.1795e-05,26.36,2.8288e-05,0.0076593,-8.9226e-05,-882.95,1.8414
20157,19.773,1.1818,0,9.1711e-05,916.48,3.2325e-05,24.76,2.903e-05,0.0058663,-9.1264e-05,-903.84,1.8273
20158,19.773,1.2727,0.05,7.3589e-07,7.3538,5.6507e-07,4.2458,-1.334e-12,6.4202e-06,-5.6507e-07,-4.2457,1.8274
20159,20.048,1.2727,0,8.5718e-05,856.59,3.0673e-05,28.705,2.6854e-05,0.0083016,-8.5193e-05,-841.87,1.8694
20160,19.956,1.1818,0,8.7702e-05,876.42,3.1182e-05,26.939,2.7598e-05,0.0063875,-8.7213e-05,-862.63,1.8553
20161,19.956,1.2727,0.05,7.3333e-07,7.3282,5.6311e-07,4.231,-4.2331e-13,7.1884e-06,-5.631e-07,-4.2309,1.8554
20162,20.232,1.2727,0,8.1755e-05,816.98,2.9565e-05,31.127,2.5423e-05,0.0090216,-8.1181e-05,-800.97,1.8974
20163,20.14,1.1818,0,8.3716e-05,836.58,3.0052e-05,29.181,2.6169e-05,0.00698,-8.3181e-05,-821.61,1.8833
20164,20.14,1.2727,0.05,7.3092e-07,7.3041,5.6125e-07,4.217,-8.7174e-13,5.5566e-06,-5.6125e-07,-4.217,1.8833
20165,20.416,1.2727,0,7.7816e-05,777.63,2.8472e-05,33.64,2.3996e-05,0.0098294,-7.7189e-05,-760.26,1.9254
20166,20.324,1.1818,0,7.9753e-05,796.98,2.8935e-05,31.499,2.4743e-05,0.0076475,-7.917e-05,-780.76,1.9113
20167,20.324,1.2727,0.05,7.2867e-07,7.2817,5.5953e-07,4.2041,-6.5951e-13,5.0986e-06,-5.5953e-07,-4.2041,1.9114
20168,20.6,1.2727,0,7.3904e-05,738.53,2.7395e-05,36.259,2.2571e-05,0.010743,-7.322e-05,-719.72,1.9536
20169,20.508,1.1818,0,7.5814e-05,757.62,2.7833e-05,33.908,2.3321e-05,0.0084074,-7.518e-05,-740.09,1.9394
20170,20.508,1.2727,0.05,7.266e-07,7.261,5.5794e-07,4.1921,-8.7847e-13,5.831e-06,-5.5794e-07,-4.1921,1.9395
20171,20.784,1.2727,0,7.0017e-05,699.69,2.6337e-05,39.001,2.1148e-05,0.011778,-6.9272e-05,-679.37,1.9817
20172,20.692,1.1818,0,7.19e-05,718.5,2.6747e-05,36.42,2.1901e-05,0.0092765,-7.1211e-05,-699.6,1.9676
20173,20.692,1.2727,0.05,7.2472e-07,7.2422,5.565e-07,4.1813,-2.1164e-13,8.7e-06,-5.5649e-07,-4.1813,1.9676
20174,20.967,1.2727,0,6.616e-05,661.14,2.5299e-05,41.883,1.9726e-05,0.012963,-6.5347e-05,-639.2,2.01
20175,20.875,1.1818,0,6.8012e-05,679.66,2.5679e-05,39.053,2.0483e-05,0.010266,-6.7264e-05,-659.28,1.9958
20176,20.875,1.2727,0.05,7.2304e-07,7.2254,5.5521e-07,4.1716,-1.8801e-14,1.0006e-05,-5.552e-07,-4.1716,1.9958
20177,21.151,1.2727,0,6.2332e-05,622.89,2.4283e-05,44.925,1.8305e-05,0.014346,-6.1446e-05,-599.2,2.0382
20178,21.059,1.1818,0,6.4153e-05,641.09,2.4631e-05,41.823,1.9066e-05,0.011419,-6.3339e-05,-619.14,2.024
20179,21.059,1.2727,0.05,7.2158e-07,7.2108,5.5408e-07,4.1632,-1.9188e-13,9.6974e-06,-5.5408e-07,-4.1631,2.0241
20180,21.335,1.2727,0,5.8536e-05,584.96,2.329e-05,48.15,1.6884e-05,0.015977,-5.7568e-05,-559.39,2.0665
20181,21.243,1.1818,0,6.0323e-05,602.81,2.3604e-05,44.751,1.765e-05,0.012793,-5.9437e-05,-579.18,2.0523
20182,21.243,1.2727,0.05,7.2035e-07,7.1986,5.5314e-07,4.1561,-2.5194e-13,7.0936e-06,-5.5314e-07,-4.1561,2.0524
20183,21.519,1.2727,0,5.4776e-05,547.39,2.2325e-05,51.583,1.5462e-05,0.01791,-5.3716e-05,-519.76,2.0949
20184,21.427,1.1818,0,5.6525e-05,564.86,2.2601e-05,47.857,1.6234e-05,0.014428,-5.5558e-05,-539.4,2.0806
20185,21.427,1.2727,0.05,7.194e-07,7.189,5.5241e-07,4.1506,-5.2795e-14,6.3418e-06,-5.5241e-07,-4.1506,2.0807
20186,21.703,1.2727,0,5.1055e-05,510.2,2.139e-05,55.252,1.4039e-05,0.020225,-4.989e-05,-480.31,2.1232
20187,21.611,1.1818,0,5.2762e-05,527.26,2.1625e-05,51.169,1.4817e-05,0.01639,-5.1705e-05,-499.8,2.109
20188,21.611,1.2727,0.05,7.1875e-07,7.1825,5.5191e-07,4.1468,-7.8885e-14,6.9677e-06,-5.5191e-07,-4.1468,2.109
20189,21.886,1.2727,0,4.7377e-05,473.44,2.0487e-05,59.192,1.2613e-05,0.023021,-4.6091e-05,-441.06,2.1517
20190,21.794,1.1818,0,4.9038e-05,490.04,2.0678e-05,54.715,1.3398e-05,0.018771,-4.7877e-05,-460.38,2.1374
20191,21.794,1.2727,0.05,7.1844e-07,7.1795,5.5168e-07,4.1451,-3.6262e-13,4.35e-06,-5.5167e-07,-4.1451,2.1374
20192,22.07,1.2727,0,4.3749e-05,437.19,1.9622e-05,63.441,1.1182e-05,0.026444,-4.2323e-05,-401.99,2.1801
20193,21.978,1.1818,0,4.5358e-05,453.27,1.9764e-05,58.532,1.1977e-05,0.021685,-4.4078e-05,-421.15,2.1658
20194,21.978,1.2727,0.05,7.1854e-07,7.1804,5.5175e-07,4.1456,-3.7996e-13,-5.9416e-07,-5.5175e-07,-4.1456,2.1659
20195,22.254,1.2727,0,4.0178e-05,401.5,1.88e-05,68.047,9.7472e-06,0.030703,-3.8585e-05,-363.12,2.2086
20196,22.162,1.1818,0,4.1729e-05,417.01,1.8888e-05,62.661,1.0552e-05,0.025313,-4.0308e-05,-382.12,2.1943
20197,22.162,1.2727,0.05,7.191e-07,7.1861,5.5218e-07,4.1489,-3.7228e-13,1.5471e-06,-5.5218e-07,-4.1489,2.1943
20198,22.438,1.2727,0,3.6675e-05,366.5,1.8024e-05,73.062,8.3053e-06,0.036109,-3.4882e-05,-324.45,2.2371
20199,22.346,1.1818,0,3.816e-05,381.34,1.8055e-05,67.153,9.1218e-06,0.029896,-3.6571e-05,-343.29,2.2227
20200,22.346,1.2727,0.05,7.2024e-07,7.1974,5.5306e-07,4.1554,-6.4852e-15,2.9211e-06,-5.5306e-07,-4.1554,2.2228
20201,22.622,1.2727,0,3.3255e-05,332.32,1.7303e-05,78.549,6.8547e-06,0.04305,-3.1214e-05,-285.99,2.2656
20202,22.53,1.1818,0,3.4663e-05,346.39,1.7272e-05,72.068,7.6848e-06,0.035834,-3.2869e-05,-304.67,2.2513
20203,22.53,1.2727,0.05,7.2208e-07,7.2158,5.5447e-07,4.1661,2.837e-13,5.9318e-06,-5.5447e-07,-4.1661,2.2513
20204,22.805,1.2727,0,2.9936e-05,299.15,1.6643e-05,84.58,5.3932e-06,0.052468,-2.7586e-05,-247.74,2.2941
20205,22.713,1.1818,0,3.1254e-05,312.32,1.6545e-05,77.478,6.239e-06,0.043524,-2.9206e-05,-266.28,2.2798
20206,22.713,1.2727,0.05,7.248e-07,7.243,5.5656e-07,4.1818,4.0205e-13,4.5244e-06,-5.5656e-07,-4.1818,2.2798
20207,22.989,1.2727,0,2.6744e-05,267.25,1.6051e-05,91.231,3.9179e-06,0.064691,-2.3997e-05,-209.68,2.3227
20208,22.897,1.1818,0,2.7956e-05,279.37,1.5883e-05,83.466,4.7819e-06,0.054499,-2.5584e-05,-228.11,2.3083
20209,22.897,1.2727,0.05,7.2864e-07,7.2814,5.5951e-07,4.2039,2.6683e-13,7.0613e-06,-5.5951e-07,-4.2039,2.3084
20210,23.173,1.2727,0,2.3716e-05,237,1.5535e-05,98.581,2.426e-06,0.085661,-2.0449e-05,-171.79,2.3512
20211,23.081,1.1818,0,2.4801e-05,247.84,1.5296e-05,90.125,3.3101e-06,0.067991,-2.2007e-05,-190.16,2.3369
20212,23.081,1.2727,0.05,7.3389e-07,7.3338,5.6354e-07,4.2342,6.5469e-14,1.0197e-05,-5.6354e-07,-4.2342,2.3369
20213,23.357,1.2727,0,2.0905e-05,208.91,1.5099e-05,106.69,9.1267e-07,0.10621,-1.6937e-05,-134.01,2.3798
20214,23.265,1.1818,0,2.1835e-05,218.2,1.4791e-05,97.552,1.8208e-06,0.096903,-1.8475e-05,-152.4,2.3655
20215,23.265,1.2727,0.05,7.409e-07,7.4039,5.6892e-07,4.2747,4.8697e-13,9.9916e-06,-5.6892e-07,-4.2746,2.3655
20216,23.541,1.2727,0,1.8389e-05,183.76,1.4745e-05,115.65,-6.2043e-07,0.19632,-1.3458e-05,-96.262,2.4084
20217,23.449,1.1818,0,1.9123e-05,191.09,1.4376e-05,105.82,3.0689e-07,0.11106,-1.4983e-05,-114.77,2.3941
20218,23.449,1.2727,0.05,7.5002e-07,7.4951,5.7592e-07,4.3273,6.6584e-13,1.2e-05,-5.7592e-07,-4.3273,2.3941
20219,23.724,1.2727,0,1.6286e-05,162.74,1.4478e-05,125.42,-2.1911e-06,0.17715,-1.0005e-05,-58.532,2.437
20220,23.632,1.1818,0,1.6762e-05,167.5,1.4051e-05,115.04,-1.2221e-06,0.28453,-1.1531e-05,-77.172,2.4227
20221,23.632,1.2727,0.05,7.6218e-07,7.6166,5.8526e-07,4.3974,7.8161e-13,1.3182e-05,-5.8526e-07,-4.3974,2.4227
20222,23.816,1.1818,0,1.4907e-05,148.97,1.3828e-05,125.12,-2.8081e-06,0.1242,-8.1099e-06,-39.712,2.4513
20223,23.816,1.2727,0.05,7.8888e-07,7.8834,6.0576e-07,4.5515,1.1061e-12,1.2327e-05,-6.0576e-07,-4.5515,2.4513
20224,23.908,1.2727,0,1.4742e-05,147.32,1.4234e-05,134.97,-3.6748e-06,0.4155,-6.7159e-06,-22.435,2.4656
20225,11.042,1.0909,0,0.00024342,2432.5,0.00013956,740.76,4.0393e-05,-4.359,-0.00022217,-1977.1,0.62087
20226,10.95,1,0,0.00022979,2296.3,0.00014025,811.2,3.1387e-05,-6.7362,-0.0002049,-1782.1,0.60926
20227,10.95,1.0909,0.05,1.2016e-05,120.08,9.227e-06,69.328,-1.9572e-21,1.6334e-06,-9.227e-06,-69.328,0.60976
20228,10.859,1.0909,0,0.00020718,2070.4,0.00012636,733.89,2.8773e-05,0.62374,-0.0001847,-1603.3,0.59871
20229,11.226,1.0909,0,0.00023423,2340.7,0.0001157,472.93,5.252e-05,-1.7738,-0.00022257,-2068.7,0.64307
20230,11.134,1,0,0.00021503,2148.8,0.00011203,509.09,4.4148e-05,-0.94261,-0.00020179,-1848.8,0.63148
20231,11.134,1.0909,0.05,7.818e-06,78.126,6.0033e-06,45.106,8.2543e-13,1.0386e-05,-6.0033e-06,-45.106,0.63193
20232,11.41,1.0909,0,0.00023582,2356.5,0.00010323,308.78,6.1814e-05,-2.3928,-0.00022906,-2187.9,0.66536
20233,11.318,1,0,0.00021785,2177,9.9668e-05,338.9,5.4228e-05,-2.5178,-0.00021011,-1988.7,0.65377
20234,11.318,1.0909,0.05,6.1605e-06,61.563,4.7305e-06,35.543,2.805e-12,1.7236e-05,-4.7305e-06,-35.543,0.65417
20235,11.594,1.0909,0,0.00023951,2393.4,9.5539e-05,198.73,6.8809e-05,-2.1089,-0.00023553,-2288.8,0.68776
20236,11.502,1,0,0.00022422,2240.7,9.2708e-05,226.23,6.2331e-05,-2.0092,-0.00021953,-2119.8,0.67615
20237,11.502,1.0909,0.05,4.7233e-06,47.201,3.6269e-06,27.251,2.2381e-12,1.7425e-05,-3.6269e-06,-27.251,0.67651
20238,11.778,1.0909,0,0.00024336,2431.9,9.0835e-05,125.72,7.3822e-05,-2.1106,-0.00024101,-2367.6,0.7103
20239,11.686,1,0,0.00023107,2309.1,8.8865e-05,151.3,6.8468e-05,-1.9517,-0.00022814,-2230.6,0.69866
20240,11.686,1.0909,0.05,3.6065e-06,36.04,2.7694e-06,20.808,3.9529e-12,2.3021e-05,-2.7694e-06,-20.808,0.69898
20241,11.961,1.0909,0,0.0002465,2463.3,8.7879e-05,77.281,7.7302e-05,-2.1883,-0.00024512,-2424.8,0.73299
20242,11.869,1,0,0.00023703,2368.7,8.6708e-05,101.16,7.3001e-05,-1.8308,-0.00023517,-2317.3,0.7213
20243,11.869,1.0909,0.05,2.7769e-06,27.75,2.1323e-06,16.022,5.5058e-12,3.5164e-05,-2.1323e-06,-16.022,0.7216
20244,12.145,1.0909,0,0.00024856,2483.9,8.5869e-05,44.651,7.9594e-05,-2.5,-0.00024781,-2462.5,0.75584
20245,12.053,1,0,0.00024155,2413.9,8.5347e-05,66.651,7.6235e-05,-1.8113,-0.00024038,-2380.7,0.74409
20246,12.053,1.0909,0.05,2.1637e-06,21.622,1.6614e-06,12.484,1.8411e-12,7.7186e-05,-1.6615e-06,-12.483,0.74437
20247,12.329,1.0909,0,0.00024949,2493.2,8.437e-05,22.457,8.0936e-05,-3.3512,-0.00024915,-2483.5,0.77885
20248,12.237,1,0,0.00024453,2443.6,8.4293e-05,42.061,7.8442e-05,-1.9049,-0.00024381,-2423.2,0.76703
20249,12.237,1.0909,0.05,1.7094e-06,17.082,1.3126e-06,9.8622,4.9143e-12,6.4849e-05,-1.3126e-06,-9.8622,0.76729
20250,12.513,1.0909,0,0.00024935,2491.8,8.3296e-05,8.5128,8.1357e-05,-6.0557,-0.00024931,-2490.5,0.80202
20251,12.421,1,0,0.00024606,2458.9,8.3315e-05,24.041,7.9816e-05,-2.2494,-0.00024568,-2447.9,0.79013
20252,12.421,1.0909,0.05,1.3745e-06,13.736,1.0555e-06,7.9304,4.2549e-12,3.6228e-05,-1.0555e-06,-7.9304,0.79038
20253,12.697,1.0909,0,0.00024829,2481.2,8.2798e-05,2.8122,8.0733e-05,-12.708,-0.00024845,-2486.1,0.82536
20254,12.605,1,0,0.00024633,2461.6,8.2375e-05,11.046,8.046e-05,-3.3467,-0.00024619,-2457.7,0.8134
20255,12.605,1.0909,0.05,1.1337e-06,11.329,8.705e-07,6.5406,7.5297e-12,2.5486e-06,-8.705e-07,-6.5406,0.81364
20256,12.88,1.0909,0,0.00024645,2462.8,8.244e-05,1.2249,7.9558e-05,-20.431,-0.00024677,-2472.3,0.84887
20257,12.788,1,0,0.00024554,2453.7,8.1681e-05,3.6585,8.0264e-05,-6.986,-0.0002456,-2455.4,0.83683
20258,12.788,1.0909,0.05,9.6868e-07,9.6801,7.4382e-07,5.5888,3.116e-12,5.6393e-05,-7.4383e-07,-5.5888,0.83707
20259,13.064,1.0909,0,0.00024398,2438.1,8.1897e-05,0.65786,7.823e-05,-26.893,-0.00024442,-2451.1,0.87254
20260,12.972,1,0,0.0002439,2437.4,8.126e-05,1.338,7.9306e-05,-13.349,-0.00024411,-2443.3,0.86043
20261,12.972,1.0909,0.05,8.6432e-07,8.6372,6.6369e-07,4.9867,-1.1779e-12,4.6007e-05,-6.6369e-07,-4.9867,0.86066
20262,13.248,1.0909,0,0.00024101,2408.5,8.1141e-05,0.3962,7.6847e-05,-31.862,-0.00024153,-2424,0.89638
20263,13.156,1,0,0.00024158,2414.1,8.0738e-05,0.64861,7.8062e-05,-19.452,-0.00024189,-2423.5,0.88419
20264,13.156,1.0909,0.05,8.0565e-07,8.0509,6.1863e-07,4.6482,2.1824e-12,3.4743e-05,-6.1864e-07,-4.6482,0.88441
20265,13.432,1.0909,0,0.00023766,2374.9,8.0199e-05,0.25629,7.5443e-05,-35.478,-0.00023824,-2392.3,0.92038
20266,13.34,1,0,0.00023872,2385.6,8.0014e-05,0.36963,7.6719e-05,-24.382,-0.00023912,-2397.5,0.90812
20267,13.34,1.0909,0.05,7.7835e-07,7.7782,5.9768e-07,4.4907,-2.6145e-13,2.4173e-05,-5.9768e-07,-4.4907,0.90833
20268,13.616,1.0909,0,0.000234,2338.4,7.9106e-05,0.1744,7.4036e-05,-37.919,-0.00023462,-2357.1,0.94454
20269,13.524,1,0,0.00023545,2352.9,7.9105e-05,0.23175,7.5334e-05,-28.1,-0.00023591,-2366.7,0.9322
20270,13.524,1.0909,0.05,7.7038e-07,7.6985,5.9155e-07,4.4447,6.9338e-13,2.6455e-05,-5.9155e-07,-4.4447,0.93241
20271,13.799,1.0909,0,0.00023012,2299.7,7.7892e-05,0.12342,7.2639e-05,-39.347,-0.00023077,-2319,0.96886
20272,13.707,1,0,0.00023186,2317,7.8042e-05,0.155,7.3934e-05,-30.711,-0.00023236,-2332.1,0.95644
20273,13.707,1.0909,0.05,7.7288e-07,7.7235,5.9348e-07,4.4592,-1.2256e-12,9.8248e-06,-5.9348e-07,-4.4591,0.95665
20274,13.983,1.0909,0,0.00022608,2259.2,7.6582e-05,0.090198,7.1258e-05,-39.912,-0.00022673,-2278.9,0.99333
20275,13.891,1,0,0.00022803,2278.7,7.6855e-05,0.10878,7.2534e-05,-32.351,-0.00022856,-2294.6,0.98085
20276,13.891,1.0909,0.05,7.8014e-07,7.796,5.9905e-07,4.5011,-3.5488e-13,-7.155e-07,-5.9905e-07,-4.501,0.98105
20277,14.167,1.0909,0,0.00022191,2217.6,7.5197e-05,0.067742,6.9897e-05,-39.75,-0.00022256,-2237.2,1.018
20278,14.075,1,0,0.00022402,2238.6,7.5569e-05,0.079322,7.1146e-05,-33.151,-0.00022456,-2255,1.0054
20279,14.075,1.0909,0.05,7.8878e-07,7.8823,6.0568e-07,4.5509,-2.3005e-12,-1.9387e-06,-6.0568e-07,-4.5508,1.0056
20280,14.351,1.0909,0,0.00021766,2175.1,7.3753e-05,0.052093,6.8558e-05,-38.983,-0.00021829,-2194.3,1.0427
20281,14.259,1,0,0.00021988,2197.3,7.4205e-05,0.059669,6.9773e-05,-33.24,-0.00022042,-2213.7,1.0301
20282,14.259,1.0909,0.05,7.9696e-07,7.9641,6.1197e-07,4.5981,-2.432e-12,-4.0716e-06,-6.1197e-07,-4.5981,1.0303
20283,14.534,1.0909,0,0.00021334,2131.9,7.2267e-05,0.040941,6.724e-05,-37.723,-0.00021396,-2150.5,1.0677
20284,14.443,1,0,0.00021564,2155,7.2782e-05,0.046095,6.8419e-05,-32.737,-0.00021618,-2171.1,1.055
20285,14.443,1.0909,0.05,8.0383e-07,8.0327,6.1724e-07,4.6377,-6.898e-13,-2.9905e-06,-6.1724e-07,-4.6377,1.0552
20286,14.718,1.0909,0,0.00020899,2088.4,7.0747e-05,0.032841,6.5942e-05,-36.069,-0.00020958,-2106.2,1.0927
20287,14.626,1,0,0.00021134,2112,7.1313e-05,0.036483,6.7083e-05,-31.747,-0.00021187,-2127.7,1.08
20288,14.626,1.0909,0.05,8.0905e-07,8.0849,6.2125e-07,4.6679,-2.6624e-12,2.8306e-06,-6.2125e-07,-4.6678,1.0802
20289,14.902,1.0909,0,0.0002046,2044.6,6.9204e-05,0.026847,6.4661e-05,-34.108,-0.00020516,-2061.5,1.1179
20290,14.81,1,0,0.000207,2068.6,6.9811e-05,0.029495,6.5765e-05,-30.369,-0.0002075,-2083.6,1.1051
20291,14.81,1.0909,0.05,8.1263e-07,8.1207,6.24e-07,4.6885,-7.5799e-13,2.0838e-06,-6.24e-07,-4.6885,1.1053
20292,15.086,1.0909,0,0.00020021,2000.7,6.7645e-05,0.022349,6.3394e-05,-31.916,-0.00020073,-2016.4,1.1433
20293,14.994,1,0,0.00020262,2024.8,6.8284e-05,0.024314,6.4463e-05,-28.687,-0.0002031,-2039,1.1304
20294,14.994,1.0909,0.05,8.1469e-07,8.1412,6.2558e-07,4.7004,-6.8775e-13,3.8381e-06,-6.2557e-07,-4.7003,1.1306
20295,15.27,1.0909,0,0.0001958,1956.7,6.6075e-05,0.018912,6.2139e-05,-29.557,-0.00019629,-1971.3,1.1688
20296,15.178,1,0,0.00019823,1980.9,6.6739e-05,0.020408,6.3173e-05,-26.774,-0.00019867,-1994.2,1.1558
20297,15.178,1.0909,0.05,8.1542e-07,8.1485,6.2614e-07,4.7046,-7.8955e-13,1.8185e-06,-6.2614e-07,-4.7045,1.156
20298,15.453,1.0909,0,0.0001914,1912.7,6.45e-05,0.016256,6.0893e-05,-27.085,-0.00019185,-1926.1,1.1944
20299,15.362,1,0,0.00019383,1936.9,6.5184e-05,0.017387,6.1895e-05,-24.692,-0.00019424,-1949.2,1.1814
20300,15.362,1.0909,0.05,8.1502e-07,8.1446,6.2584e-07,4.7023,-8.4545e-13,3.1877e-06,-6.2583e-07,-4.7023,1.1816
20301,15.637,1.0909,0,0.000187,1868.7,6.2923e-05,0.014225,5.9654e-05,-24.545,-0.00018741,-1880.9,1.2201
20302,15.545,1,0,0.00018942,1892.9,6.3622e-05,0.015052,6.0626e-05,-22.493,-0.0001898,-1904.1,1.2071
20303,15.545,1.0909,0.05,8.137e-07,8.1314,6.2482e-07,4.6947,-1.7633e-12,3.5194e-06,-6.2482e-07,-4.6946,1.2072
20304,15.821,1.0909,0,0.00018261,1824.8,6.1346e-05,0.012689,5.842e-05,-21.973,-0.00018297,-1835.7,1.246
20305,15.729,1,0,0.00018502,1848.9,6.2057e-05,0.013283,5.9364e-05,-20.221,-0.00018536,-1859,1.2329
20306,15.729,1.0909,0.05,8.1164e-07,8.1108,6.2324e-07,4.6828,-9.051e-13,2.1603e-06,-6.2323e-07,-4.6827,1.233
20307,16.005,1.0909,0,0.00017822,1781,5.9773e-05,0.011542,5.7189e-05,-19.398,-0.00017854,-1790.6,1.272
20308,15.913,1,0,0.00018063,1805,6.0493e-05,0.011942,5.8107e-05,-17.909,-0.00018092,-1813.9,1.2588
20309,15.913,1.0909,0.05,8.09e-07,8.0844,6.2121e-07,4.6676,-1.3408e-12,3.203e-06,-6.2121e-07,-4.6675,1.259
20310,16.189,1.0909,0,0.00017385,1737.3,5.8203e-05,0.010723,5.596e-05,-16.843,-0.00017413,-1745.6,1.2981
20311,16.097,1,0,0.00017624,1761.2,5.893e-05,0.010959,5.6854e-05,-15.587,-0.0001765,-1768.9,1.2849
20312,16.097,1.0909,0.05,8.0592e-07,8.0537,6.1885e-07,4.6498,-1.7693e-12,4.4424e-06,-6.1885e-07,-4.6498,1.285
20313,16.372,1.0909,0,0.00016949,1693.7,5.664e-05,0.010183,5.4732e-05,-14.323,-0.00016973,-1700.8,1.3244
20314,16.281,1,0,0.00017186,1717.4,5.7372e-05,0.010296,5.5604e-05,-13.274,-0.00017208,-1724,1.311
20315,16.281,1.0909,0.05,8.0252e-07,8.0197,6.1624e-07,4.6302,-1.2964e-12,5.4694e-06,-6.1624e-07,-4.6302,1.3112
20316,16.556,1.0909,0,0.00016514,1650.3,5.5083e-05,0.0099238,5.3505e-05,-11.851,-0.00016534,-1656.2,1.3507
20317,16.464,1,0,0.0001675,1673.8,5.5819e-05,0.0099199,5.4355e-05,-10.988,-0.00016768,-1679.3,1.3373
20318,16.464,1.0909,0.05,7.9889e-07,7.9834,6.1345e-07,4.6092,-3.8246e-13,4.2145e-06,-6.1345e-07,-4.6092,1.3375
20319,16.74,1.0909,0,0.00016081,1607,5.3534e-05,0.010043,5.2277e-05,-9.4347,-0.00016097,-1611.7,1.3772
20320,16.648,1,0,0.00016315,1630.4,5.4272e-05,0.0099267,5.3108e-05,-8.7396,-0.00016329,-1634.7,1.3638
20321,16.648,1.0909,0.05,7.9508e-07,7.9454,6.1053e-07,4.5873,-4.1365e-13,3.5696e-06,-6.1052e-07,-4.5872,1.3639
20322,16.924,1.0909,0,0.00015649,1563.8,5.1992e-05,0.010739,5.1049e-05,-7.0787,-0.00015661,-1567.3,1.4037
20323,16.832,1,0,0.00015881,1587,5.2732e-05,0.010553,5.1861e-05,-6.5365,-0.00015892,-1590.3,1.3903
20324,16.832,1.0909,0.05,7.9117e-07,7.9063,6.0752e-07,4.5647,-1.3437e-12,2.4407e-06,-6.0752e-07,-4.5647,1.3904
20325,17.108,1.0909,0,0.00015219,1520.8,5.0459e-05,0.012596,4.982e-05,-4.7855,-0.00015227,-1523.2,1.4304
20326,17.016,1,0,0.00015449,1543.8,5.12e-05,0.012426,5.0615e-05,-4.3842,-0.00015456,-1546,1.4169
20327,17.016,1.0909,0.05,7.8721e-07,7.8667,6.0448e-07,4.5418,-8.7715e-13,2.688e-06,-6.0448e-07,-4.5418,1.417
20328,17.291,1.0909,0,0.0001479,1477.9,4.8934e-05,0.018288,4.8591e-05,-2.5572,-0.00014794,-1479.2,1.4572
20329,17.2,1,0,0.00015018,1500.8,4.9676e-05,0.018561,4.9369e-05,-2.2877,-0.00015022,-1501.9,1.4436
20330,17.2,1.0909,0.05,7.8324e-07,7.827,6.0143e-07,4.5189,-4.4031e-13,2.723e-06,-6.0143e-07,-4.5189,1.4438
20331,17.475,1.0909,0,0.00014363,1435.3,4.7425e-05,0.078828,4.7355e-05,-0.4426,-0.00014363,-1435.4,1.4841
20332,17.383,1,0,0.00014589,1457.9,4.817e-05,0.10137,4.8114e-05,-0.31908,-0.0001459,-1458,1.4705
20333,17.383,1.0909,0.05,7.7928e-07,7.7874,5.9839e-07,4.4961,-9.0339e-13,2.3414e-06,-5.9839e-07,-4.4961,1.4706
20334,17.659,1.0909,0,0.00013937,1392.7,4.614e-05,1.77,4.5903e-05,-0.013724,-0.00013934,-1391.9,1.511
20335,17.567,1,0,0.00014162,1415.2,4.6886e-05,1.7974,4.6645e-05,-0.013199,-0.00014159,-1414.3,1.4974
20336,17.567,1.0909,0.05,7.7536e-07,7.7483,5.9538e-07,4.4735,-9.0026e-13,3.2278e-06,-5.9538e-07,-4.4735,1.4975
20337,17.843,1.0909,0,0.00013513,1350.4,4.4913e-05,3.8301,4.4403e-05,-0.0038113,-0.00013507,-1348.5,1.5381
20338,17.751,1,0,0.00013736,1372.7,4.5643e-05,3.7442,4.5144e-05,-0.0043551,-0.0001373,-1370.8,1.5244
20339,17.751,1.0909,0.05,7.7149e-07,7.7096,5.9241e-07,4.4511,-4.51e-13,3.0915e-06,-5.9241e-07,-4.4511,1.5245
20340,18.027,1.0909,0,0.00013091,1308.2,4.3689e-05,5.8532,4.291e-05,-0.00092311,-0.00013081,-1305.3,1.5653
20341,17.935,1,0,0.00013313,1330.3,4.4404e-05,5.6556,4.3651e-05,-0.0017065,-0.00013303,-1327.5,1.5515
20342,17.935,1.0909,0.05,7.6768e-07,7.6715,5.8949e-07,4.4292,-9.0619e-13,3.5924e-06,-5.8949e-07,-4.4292,1.5517
20343,18.21,1.0909,0,0.0001267,1266.2,4.2467e-05,7.8402,4.1424e-05,0.00045595,-0.00012657,-1262.2,1.5925
20344,18.119,1,0,0.0001289,1288.1,4.3167e-05,7.5318,4.2164e-05,-0.00046466,-0.00012877,-1284.4,1.5787
20345,18.119,1.0909,0.05,7.6396e-07,7.6343,5.8663e-07,4.4077,6.2632e-16,3.4124e-06,-5.8663e-07,-4.4077,1.5789
20346,18.394,1.0909,0,0.00012252,1224.3,4.1249e-05,9.7976,3.9945e-05,0.0012828,-0.00012235,-1219.4,1.6198
20347,18.302,1,0,0.0001247,1246.1,4.1933e-05,9.3781,4.0685e-05,0.00025367,-0.00012454,-1241.4,1.606
20348,18.302,1.0909,0.05,7.6033e-07,7.598,5.8384e-07,4.3867,-4.5834e-13,2.5408e-06,-5.8384e-07,-4.3867,1.6061
20349,18.578,1.0909,0,0.00011835,1182.7,4.0035e-05,11.733,3.8473e-05,0.0018478,-0.00011815,-1176.8,1.6472
20350,18.486,1,0,0.00012051,1204.3,4.0704e-05,11.201,3.9213e-05,0.00072955,-0.00012032,-1198.7,1.6334
20351,18.486,1.0909,0.05,7.5679e-07,7.5627,5.8113e-07,4.3664,-9.1329e-13,2.77e-06,-5.8112e-07,-4.3663,1.6335
20352,18.762,1.0909,0,0.0001142,1141.2,3.8825e-05,13.654,3.7008e-05,0.0022744,-0.00011396,-1134.3,1.6747
20353,18.67,1,0,0.00011634,1162.6,3.9479e-05,13.006,3.7748e-05,0.0010589,-0.00011612,-1156.1,1.6608
20354,18.67,1.0909,0.05,7.5336e-07,7.5284,5.7849e-07,4.3466,-1.8244e-12,3.3271e-06,-5.7849e-07,-4.3465,1.661
20355,18.946,1.0909,0,0.00011007,1099.9,3.7621e-05,15.569,3.555e-05,0.0026459,-0.0001098,-1092.1,1.7023
20356,18.854,1,0,0.0001122,1121.2,3.8259e-05,14.802,3.6289e-05,0.0013199,-0.00011194,-1113.7,1.6884
20357,18.854,1.0909,0.05,7.5003e-07,7.4951,5.7593e-07,4.3273,-4.6207e-13,1.8437e-06,-5.7593e-07,-4.3273,1.6885
20358,19.129,1.0909,0,0.00010596,1058.9,3.6424e-05,17.487,3.4097e-05,0.003,-0.00010565,-1050,1.7299
20359,19.038,1,0,0.00010806,1079.9,3.7045e-05,16.597,3.4836e-05,0.0015714,-0.00010777,-1071.5,1.716
20360,19.038,1.0909,0.05,7.4681e-07,7.463,5.7346e-07,4.3088,-1.3612e-12,2.6584e-06,-5.7346e-07,-4.3087,1.7161
20361,19.313,1.0909,0,0.00010187,1018,3.5234e-05,19.418,3.265e-05,0.0033505,-0.00010152,-1008.1,1.7577
20362,19.221,1,0,0.00010395,1038.8,3.5838e-05,18.397,3.339e-05,0.0018161,-0.00010363,-1029.5,1.7437
20363,19.221,1.0909,0.05,7.4371e-07,7.4319,5.7108e-07,4.2909,1.6922e-14,2.5377e-06,-5.7107e-07,-4.2908,1.7438
20364,19.497,1.0909,0,9.7796e-05,977.28,3.4052e-05,21.37,3.1209e-05,0.0037131,-9.7415e-05,-966.42,1.7854
20365,19.405,1,0,9.9863e-05,997.94,3.4638e-05,20.212,3.1949e-05,0.0020683,-9.9503e-05,-987.68,1.7714
20366,19.405,1.0909,0.05,7.4073e-07,7.4022,5.6879e-07,4.2737,-4.4158e-13,4.4268e-06,-5.6879e-07,-4.2736,1.7715
20367,19.681,1.0909,0,9.3745e-05,936.8,3.288e-05,23.353,2.9772e-05,0.0040893,-9.3325e-05,-924.9,1.8133
20368,19.589,1,0,9.5791e-05,957.25,3.3447e-05,22.05,3.0513e-05,0.002336,-9.5397e-05,-946.03,1.7992
20369,19.589,1.0909,0.05,7.3788e-07,7.3737,5.666e-07,4.2572,-1.3187e-12,7.4638e-06,-5.666e-07,-4.2572,1.7993
20370,19.865,1.0909,0,8.9715e-05,896.53,3.1717e-05,25.378,2.834e-05,0.0044901,-8.9256e-05,-883.57,1.8412
20371,19.773,1,0,9.174e-05,916.77,3.2265e-05,23.92,2.9082e-05,0.0026121,-9.131e-05,-904.57,1.8271
20372,19.773,1.0909,0.05,7.3516e-07,7.3466,5.6451e-07,4.2416,-1.7966e-12,6.3901e-06,-5.6451e-07,-4.2415,1.8272
20373,20.048,1.0909,0,8.5706e-05,856.47,3.0566e-05,27.455,2.6913e-05,0.0049433,-8.5206e-05,-842.41,1.8692
20374,19.956,1,0,8.771e-05,876.49,3.1093e-05,25.831,2.7656e-05,0.0029219,-8.7242e-05,-863.29,1.8551
20375,19.956,1.0909,0.05,7.3258e-07,7.3207,5.6253e-07,4.2266,-8.7313e-13,7.0624e-06,-5.6253e-07,-4.2266,1.8552
20376,20.232,1.0909,0,8.172e-05,816.64,2.9427e-05,29.595,2.5489e-05,0.0054642,-8.1176e-05,-801.43,1.8972
20377,20.14,1,0,8.3701e-05,836.43,2.9932e-05,27.793,2.6233e-05,0.0032938,-8.3193e-05,-822.18,1.8831
20378,20.14,1.0909,0.05,7.3014e-07,7.2964,5.6066e-07,4.2126,-8.5391e-13,5.9453e-06,-5.6066e-07,-4.2125,1.8831
20379,20.416,1.0909,0,7.7756e-05,777.03,2.8301e-05,31.81,2.4068e-05,0.0060635,-7.7166e-05,-760.63,1.9253
20380,20.324,1,0,7.9713e-05,796.58,2.8783e-05,29.816,2.4815e-05,0.0037289,-7.9164e-05,-781.25,1.9111
20381,20.324,1.0909,0.05,7.2785e-07,7.2735,5.589e-07,4.1994,-4.2648e-13,5.1149e-06,-5.589e-07,-4.1994,1.9112
20382,20.6,1.0909,0,7.3817e-05,737.66,2.719e-05,34.113,2.2651e-05,0.006757,-7.3177e-05,-720.01,1.9534
20383,20.508,1,0,7.5748e-05,756.96,2.7646e-05,31.912,2.34e-05,0.0042435,-7.5155e-05,-740.49,1.9392
20384,20.508,1.0909,0.05,7.2573e-07,7.2523,5.5728e-07,4.1872,-3.8465e-13,7.2489e-06,-5.5727e-07,-4.1871,1.9393
20385,20.784,1.0909,0,6.9902e-05,698.53,2.6095e-05,36.519,2.1236e-05,0.0075559,-6.9209e-05,-679.55,1.9816
20386,20.692,1,0,7.1806e-05,717.56,2.6524e-05,34.092,2.1988e-05,0.0048512,-7.1165e-05,-699.91,1.9674
20387,20.692,1.0909,0.05,7.2379e-07,7.2329,5.5578e-07,4.176,-2.0318e-13,1e-05,-5.5578e-07,-4.1759,1.9675
20388,20.967,1.0909,0,6.6012e-05,659.67,2.5017e-05,39.041,1.9822e-05,0.0084874,-6.5261e-05,-639.28,2.0098
20389,20.875,1,0,6.7888e-05,678.41,2.5418e-05,36.369,2.0578e-05,0.0055574,-6.7196e-05,-659.49,1.9956
20390,20.875,1.0909,0.05,7.2204e-07,7.2154,5.5443e-07,4.1658,7.7258e-15,1.0075e-05,-5.5443e-07,-4.1658,1.9957
20391,21.151,1.0909,0,6.2151e-05,621.08,2.3959e-05,41.698,1.841e-05,0.0096013,-6.1336e-05,-599.17,2.0381
20392,21.059,1,0,6.3995e-05,639.51,2.4328e-05,38.758,1.917e-05,0.0064085,-6.3248e-05,-619.25,2.0238
20393,21.059,1.0909,0.05,7.2048e-07,7.1998,5.5324e-07,4.1568,-1.839e-14,9.7817e-06,-5.5324e-07,-4.1568,2.0239
20394,21.335,1.0909,0,5.8318e-05,582.78,2.2921e-05,44.508,1.6999e-05,0.010944,-5.7433e-05,-559.25,2.0664
20395,21.243,1,0,6.0129e-05,600.88,2.3256e-05,41.275,1.7764e-05,0.0074559,-5.932e-05,-579.17,2.0521
20396,21.243,1.0909,0.05,7.1914e-07,7.1864,5.5221e-07,4.1491,-4.0997e-14,8.4254e-06,-5.5221e-07,-4.1491,2.0522
20397,21.519,1.0909,0,5.4518e-05,544.8,2.1907e-05,47.495,1.5588e-05,0.012566,-5.3554e-05,-519.49,2.0947
20398,21.427,1,0,5.6292e-05,562.53,2.2205e-05,43.939,1.6358e-05,0.0087369,-5.5415e-05,-539.27,2.0805
20399,21.427,1.0909,0.05,7.1804e-07,7.1755,5.5137e-07,4.1428,-3.0328e-13,7.1822e-06,-5.5137e-07,-4.1428,2.0805
20400,21.703,1.0909,0,5.0752e-05,507.17,2.092e-05,50.685,1.4176e-05,0.014545,-4.9699e-05,-479.92,2.1231
20401,21.611,1,0,5.2486e-05,524.49,2.1176e-05,46.772,1.4953e-05,0.010317,-5.1533e-05,-499.54,2.1088
20402,21.611,1.0909,0.05,7.1722e-07,7.1673,5.5074e-07,4.138,-3.0734e-13,6.1654e-06,-5.5074e-07,-4.138,2.1089
20403,21.886,1.0909,0,4.7026e-05,469.94,1.9962e-05,54.109,1.2762e-05,0.016983,-4.5871e-05,-440.53,2.1515
20404,21.794,1,0,4.8714e-05,486.8,2.0173e-05,49.802,1.3547e-05,0.012283,-4.7675e-05,-459.98,2.1372
20405,21.794,1.0909,0.05,7.1672e-07,7.1622,5.5035e-07,4.1351,-2.0812e-13,3.7261e-06,-5.5035e-07,-4.1351,2.1373
20406,22.07,1.0909,0,4.3345e-05,433.15,1.9037e-05,57.805,1.1346e-05,0.020025,-4.2071e-05,-401.34,2.18
20407,21.978,1,0,4.4982e-05,449.51,1.9199e-05,53.059,1.2139e-05,0.014746,-4.3843e-05,-420.62,2.1657
20408,21.978,1.0909,0.05,7.1657e-07,7.1607,5.5024e-07,4.1343,-5.9579e-13,-3.0172e-06,-5.5023e-07,-4.1342,2.1657
20409,22.254,1.0909,0,3.9716e-05,396.89,1.8151e-05,61.82,9.9264e-06,0.023876,-3.8301e-05,-362.34,2.2084
20410,22.162,1,0,4.1295e-05,412.66,1.8258e-05,56.585,1.0729e-05,0.017887,-4.004e-05,-381.44,2.1941
20411,22.162,1.0909,0.05,7.1684e-07,7.1635,5.5045e-07,4.1359,-4.2852e-13,-1.8499e-06,-5.5045e-07,-4.1358,2.1942
20412,22.438,1.0909,0,3.615e-05,361.25,1.731e-05,66.211,8.5012e-06,0.028851,-3.4566e-05,-323.56,2.2369
20413,22.346,1,0,3.7661e-05,376.35,1.7356e-05,60.428,9.3161e-06,0.021945,-3.6267e-05,-342.47,2.2226
20414,22.346,1.0909,0.05,7.1764e-07,7.1715,5.5106e-07,4.1405,6.4383e-14,4.9057e-07,-5.5106e-07,-4.1404,2.2227
20415,22.622,1.0909,0,3.2662e-05,326.39,1.652e-05,71.046,7.069e-06,0.035332,-3.0867e-05,-285,2.2654
20416,22.53,1,0,3.4093e-05,340.69,1.6499e-05,64.652,7.8977e-06,0.027319,-3.253e-05,-303.73,2.2511
20417,22.53,1.0909,0.05,7.191e-07,7.186,5.5218e-07,4.1488,2.0536e-14,5.3383e-06,-5.5218e-07,-4.1488,2.2512
20418,22.805,1.0909,0,2.9269e-05,292.49,1.5791e-05,76.411,5.6275e-06,0.04425,-2.7211e-05,-246.69,2.294
20419,22.713,1,0,3.0607e-05,305.86,1.5696e-05,69.334,6.4723e-06,0.0344,-2.8832e-05,-265.23,2.2796
20420,22.713,1.0909,0.05,7.214e-07,7.209,5.5394e-07,4.1621,2.5838e-13,5.6472e-06,-5.5394e-07,-4.1621,2.2797
20421,22.989,1.0909,0,2.6001e-05,259.83,1.5133e-05,82.402,4.1738e-06,0.055912,-2.36e-05,-208.62,2.3225
20422,22.897,1,0,2.7225e-05,272.06,1.4957e-05,74.573,5.0377e-06,0.044707,-2.5179e-05,-226.99,2.3082
20423,22.897,1.0909,0.05,7.2482e-07,7.2432,5.5657e-07,4.1818,1.3108e-13,6.3077e-06,-5.5657e-07,-4.1818,2.3083
20424,23.173,1.0909,0,2.2895e-05,228.8,1.4557e-05,89.131,2.7046e-06,0.076158,-2.0038e-05,-170.8,2.3511
20425,23.081,1,0,2.3982e-05,239.65,1.4295e-05,80.486,3.5903e-06,0.057447,-2.1576e-05,-189.03,2.3368
20426,23.081,1.0909,0.05,7.2973e-07,7.2922,5.6034e-07,4.2102,-1.0016e-13,7.0003e-06,-5.6034e-07,-4.2101,2.3368
20427,23.357,1.0909,0,2.0007e-05,199.93,1.4072e-05,96.704,1.2143e-06,0.095741,-1.6524e-05,-133.18,2.3797
20428,23.265,1,0,2.0924e-05,209.1,1.3723e-05,87.215,2.1268e-06,0.085303,-1.8029e-05,-151.36,2.3654
20429,23.265,1.0909,0.05,7.3663e-07,7.3612,5.6564e-07,4.25,4.5343e-13,5.8214e-06,-5.6564e-07,-4.25,2.3654
20430,23.541,1.0909,0,1.7419e-05,174.07,1.3685e-05,105.24,-2.969e-07,0.18358,-1.3057e-05,-95.691,2.4083
20431,23.449,1,0,1.8123e-05,181.1,1.3255e-05,94.887,6.3897e-07,0.0982,-1.4538e-05,-113.94,2.394
20432,23.449,1.0909,0.05,7.4611e-07,7.4559,5.7292e-07,4.3047,4.0062e-13,1.1646e-05,-5.7292e-07,-4.3047,2.394
20433,23.724,1.0909,0,1.5259e-05,152.48,1.3404e-05,114.76,-1.8488e-06,0.15889,-9.6289e-06,-58.297,2.4369
20434,23.632,1,0,1.5685e-05,156.74,1.2898e-05,103.68,-8.6558e-07,0.2674,-1.1104e-05,-76.659,2.4226
20435,23.632,1.0909,0.05,7.595e-07,7.5897,5.832e-07,4.3819,7.3957e-13,1.2438e-05,-5.832e-07,-4.3819,2.4226
20436,23.816,1,0,1.3779e-05,137.69,1.2669e-05,113.56,-2.4322e-06,0.095834,-7.7182e-06,-39.621,2.4512
20437,23.816,1.0909,0.05,7.9067e-07,7.9013,6.0714e-07,4.5618,1.0601e-12,1.3191e-05,-6.0714e-07,-4.5618,2.4512
20438,23.908,1.0909,0,1.3665e-05,136.55,1.3146e-05,124.11,-3.3172e-06,0.40749,-6.3555e-06,-22.421,2.4655
20439,11.042,0.90909,0,0.0001958,1956.7,0.00010879,550.02,3.5085e-05,-3.7517,-0.00018054,-1623.8,0.61986
20440,10.95,0.81818,0,0.00018135,1812.3,0.0001073,594.53,2.7383e-05,-5.9473,-0.00016371,-1441.8,0.60821
20441,10.95,0.90909,0.05,9.9595e-06,99.526,7.6477e-06,57.462,1.432e-13,-2.9665e-06,-7.6477e-06,-57.462,0.6087
20442,10.859,0.90909,0,0.00016482,1647.1,9.7444e-05,543.22,2.5377e-05,1.7395,-0.00014873,-1306.4,0.5976
20443,11.226,0.90909,0,0.00019484,1947,9.3089e-05,353.2,4.5847e-05,-1.7566,-0.00018641,-1746.9,0.64216
20444,11.134,0.81818,0,0.00017494,1748.2,8.734e-05,365.11,3.8583e-05,-1.2319,-0.00016584,-1537.2,0.63053
20445,11.134,0.90909,0.05,6.8972e-06,68.924,5.2962e-06,39.794,1.4296e-12,4.1185e-06,-5.2962e-06,-39.794,0.63097
20446,11.41,0.90909,0,0.00020386,2037.2,8.7236e-05,241.99,5.4742e-05,-2.1583,-0.00019868,-1906.2,0.66454
20447,11.318,0.81818,0,0.00018487,1847.4,8.1569e-05,249.79,4.8007e-05,-2.3854,-0.00017936,-1710.8,0.6529
20448,11.318,0.90909,0.05,5.7805e-06,57.765,4.4387e-06,33.351,7.8815e-13,1.9251e-05,-4.4387e-06,-33.351,0.65331
20449,11.594,0.90909,0,0.00021436,2142.1,8.4867e-05,170.04,6.199e-05,-1.8568,-0.00021098,-2052.8,0.68701
20450,11.502,0.81818,0,0.00019799,1978.5,8.0217e-05,179.46,5.6084e-05,-1.864,-0.00019434,-1883.5,0.67536
20451,11.502,0.90909,0.05,4.6698e-06,46.666,3.5858e-06,26.942,3.8921e-13,1.3521e-05,-3.5858e-06,-26.942,0.67573
20452,11.778,0.90909,0,0.00022392,2237.7,8.4055e-05,121.61,6.7646e-05,-1.6796,-0.00022163,-2175.2,0.70961
20453,11.686,0.81818,0,0.0002106,2104.6,8.0627e-05,133.49,6.2642e-05,-1.6425,-0.00020804,-2035.4,0.69792
20454,11.686,0.90909,0.05,3.6827e-06,36.801,2.8278e-06,21.247,1.8531e-12,2.3127e-05,-2.8278e-06,-21.247,0.69826
20455,11.961,0.90909,0,0.00023162,2314.6,8.3789e-05,87.617,7.1928e-05,-1.5037,-0.00023003,-2270.3,0.73234
20456,11.869,0.81818,0,0.00022124,2210.9,8.1488e-05,101.38,6.7813e-05,-1.3717,-0.00021936,-2159.1,0.72061
20457,11.869,0.90909,0.05,2.8635e-06,28.615,2.1988e-06,16.521,1.393e-12,3.8029e-05,-2.1988e-06,-16.521,0.72093
20458,12.145,0.90909,0,0.00023726,2370.9,8.3568e-05,62.534,7.506e-05,-1.388,-0.00023615,-2339.7,0.75523
20459,12.053,0.81818,0,0.00022945,2292.9,8.2196e-05,77.242,7.176e-05,-1.1723,-0.00022805,-2253.8,0.74343
20460,12.053,0.90909,0.05,2.2082e-06,22.067,1.6956e-06,12.74,3.2987e-12,1.4164e-05,-1.6956e-06,-12.74,0.74374
20461,12.329,0.90909,0,0.00024095,2407.8,8.318e-05,43.211,7.7251e-05,-1.3395,-0.00024021,-2386.6,0.77827
20462,12.237,0.81818,0,0.0002353,2351.4,8.253e-05,58.031,7.4671e-05,-1.0239,-0.00023427,-2322.3,0.76641
20463,12.237,0.90909,0.05,1.6945e-06,16.933,1.3012e-06,9.7765,2.3877e-12,3.2749e-05,-1.3012e-06,-9.7765,0.7667
20464,12.513,0.90909,0,0.00024295,2427.8,8.2569e-05,27.888,7.8671e-05,-1.4008,-0.00024249,-2414.5,0.80146
20465,12.421,0.81818,0,0.00023907,2389.1,8.2454e-05,42.173,7.6717e-05,-0.93523,-0.00023834,-2368.2,0.78954
20466,12.421,0.90909,0.05,1.3002e-06,12.993,9.9836e-07,7.5013,2.9395e-12,1.3997e-05,-9.9837e-07,-7.5013,0.78982
20467,12.697,0.90909,0,0.00024354,2433.7,8.176e-05,15.666,7.9449e-05,-1.7007,-0.0002433,-2426.7,0.82482
20468,12.605,0.81818,0,0.00024109,2409.2,8.2012e-05,28.869,7.8048e-05,-0.91561,-0.0002406,-2395.1,0.81283
20469,12.605,0.90909,0.05,1.0084e-06,10.077,7.7436e-07,5.8182,2.7026e-12,3.4098e-05,-7.7436e-07,-5.8182,0.81309
20470,12.88,0.90909,0,0.00024298,2428.1,8.0867e-05,6.524,7.9624e-05,-2.8156,-0.00024291,-2426.2,0.84834
20471,12.788,0.81818,0,0.00024166,2415,8.1279e-05,17.73,7.8784e-05,-1.0099,-0.00024137,-2406.6,0.83628
20472,12.788,0.90909,0.05,8.0791e-07,8.0735,6.2037e-07,4.6612,3.7685e-13,3.4262e-05,-6.2037e-07,-4.6612,0.83654
20473,13.064,0.90909,0,0.0002415,2413.3,8.0182e-05,1.9416,7.9046e-05,-6.5969,-0.00024157,-2415.6,0.87203
20474,12.972,0.81818,0,0.00024108,2409.1,8.0352e-05,8.6937,7.9007e-05,-1.4122,-0.00024095,-2405.5,0.85989
20475,12.972,0.90909,0.05,6.884e-07,6.8792,5.286e-07,3.9717,3.1426e-12,5.6117e-05,-5.286e-07,-3.9717,0.86014
20476,13.248,0.90909,0,0.00023929,2391.2,7.9627e-05,0.74569,7.7914e-05,-12.125,-0.00023948,-2396.9,0.89588
20477,13.156,0.81818,0,0.00023958,2394.1,7.9442e-05,2.6638,7.8661e-05,-3.2037,-0.00023959,-2394.4,0.88366
20478,13.156,0.90909,0.05,6.3506e-07,6.3463,4.8765e-07,3.664,2.5556e-13,6.9216e-05,-4.8765e-07,-3.664,0.88391
20479,13.432,0.90909,0,0.00023651,2363.5,7.8924e-05,0.37947,7.6606e-05,-17.04,-0.00023679,-2371.8,0.91989
20480,13.34,0.81818,0,0.00023735,2371.9,7.8772e-05,0.78474,7.7646e-05,-7.6766,-0.00023747,-2375.3,0.90759
20481,13.34,0.90909,0.05,6.2701e-07,6.2658,4.8147e-07,3.6175,1.4674e-12,-9.9845e-06,-4.8146e-07,-3.6175,0.90784
20482,13.616,0.90909,0,0.00023331,2331.4,7.8042e-05,0.22435,7.5232e-05,-20.893,-0.00023365,-2341.7,0.94405
20483,13.524,0.81818,0,0.00023457,2344.1,7.8044e-05,0.35241,7.6365e-05,-12.267,-0.00023477,-2350,0.93169
20484,13.524,0.90909,0.05,6.4356e-07,6.4312,4.9417e-07,3.713,1.3683e-13,7.6217e-07,-4.9417e-07,-3.713,0.93193
20485,13.799,0.90909,0,0.00022976,2296,7.7005e-05,0.14529,7.3831e-05,-23.701,-0.00023015,-2307.7,0.96838
20486,13.707,0.81818,0,0.00023135,2311.9,7.7151e-05,0.19788,7.5003e-05,-15.944,-0.00023162,-2319.8,0.95594
20487,13.707,0.90909,0.05,6.7004e-07,6.6957,5.145e-07,3.8658,-1.2211e-12,9.4771e-06,-5.145e-07,-3.8658,0.95617
20488,13.983,0.90909,0,0.00022597,2258.1,7.5842e-05,0.10022,7.2425e-05,-25.57,-0.00022639,-2270.8,0.99286
20489,13.891,0.81818,0,0.00022781,2276.5,7.6109e-05,0.12549,7.361e-05,-18.651,-0.00022812,-2285.7,0.98035
20490,13.891,0.90909,0.05,6.9816e-07,6.9768,5.361e-07,4.028,-4.258e-13,-6.928e-06,-5.361e-07,-4.028,0.98058
20491,14.167,0.90909,0,0.00022199,2218.4,7.4577e-05,0.07247,7.1025e-05,-26.62,-0.00022243,-2231.5,1.0175
20492,14.075,0.81818,0,0.00022401,2238.6,7.4943e-05,0.086103,7.2206e-05,-20.474,-0.00022435,-2248.7,1.0049
20493,14.075,0.90909,0.05,7.2398e-07,7.2348,5.5593e-07,4.177,-7.3529e-13,-2.9347e-06,-5.5592e-07,-4.177,1.0051
20494,14.351,0.90909,0,0.00021787,2177.2,7.3234e-05,0.05438,6.9637e-05,-26.972,-0.00021832,-2190.5,1.0423
20495,14.259,0.81818,0,0.00022003,2198.8,7.3679e-05,0.062456,7.0805e-05,-21.528,-0.00022039,-2209.4,1.0296
20496,14.259,0.90909,0.05,7.4594e-07,7.4542,5.7279e-07,4.3037,-1.49e-12,-2.8857e-06,-5.7278e-07,-4.3037,1.0298
20497,14.534,0.90909,0,0.00021365,2135,7.1829e-05,0.04208,6.8265e-05,-26.739,-0.00021409,-2148.3,1.0672
20498,14.443,0.81818,0,0.00021591,2157.6,7.2338e-05,0.047259,6.9413e-05,-21.927,-0.00021627,-2168.5,1.0545
20499,14.443,0.90909,0.05,7.6369e-07,7.6316,5.8642e-07,4.4061,-8.8087e-14,1.352e-06,-5.8641e-07,-4.4061,1.0547
20500,14.718,0.90909,0,0.00020936,2092.2,7.0377e-05,0.033431,6.6909e-05,-26.027,-0.00020979,-2105,1.0923
20501,14.626,0.81818,0,0.00021169,2115.4,7.0937e-05,0.037003,6.8034e-05,-21.778,-0.00021205,-2126.2,1.0795
20502,14.626,0.90909,0.05,7.7746e-07,7.7692,5.9699e-07,4.4856,-1.6807e-12,1.5269e-06,-5.9699e-07,-4.4856,1.0797
20503,14.902,0.90909,0,0.00020502,2048.8,6.8891e-05,0.027164,6.5569e-05,-24.928,-0.00020543,-2061.1,1.1175
20504,14.81,0.81818,0,0.0002074,2072.6,6.9491e-05,0.029775,6.6668e-05,-21.182,-0.00020775,-2083.1,1.1046
20505,14.81,0.90909,0.05,7.8773e-07,7.8719,6.0488e-07,4.5448,-1.7023e-12,2.9371e-06,-6.0488e-07,-4.5448,1.1049
20506,15.086,0.90909,0,0.00020065,2005.1,6.7378e-05,0.022513,6.4244e-05,-23.525,-0.00020104,-2016.8,1.1429
20507,14.994,0.81818,0,0.00020306,2029.2,6.801e-05,0.024508,6.5315e-05,-20.226,-0.00020339,-2039.2,1.1299
20508,14.994,0.90909,0.05,7.9502e-07,7.9447,6.1048e-07,4.5869,3.3653e-14,4.2192e-06,-6.1048e-07,-4.5869,1.1301
20509,15.27,0.90909,0,0.00019626,1961.2,6.5848e-05,0.018977,6.2932e-05,-21.889,-0.00019662,-1972.1,1.1684
20510,15.178,0.81818,0,0.00019868,1985.5,6.6505e-05,0.020562,6.3976e-05,-18.987,-0.000199,-1994.9,1.1554
20511,15.178,0.90909,0.05,7.9984e-07,7.9929,6.1418e-07,4.6147,5.1351e-14,4.0013e-06,-6.1418e-07,-4.6147,1.1556
20512,15.453,0.90909,0,0.00019186,1917.2,6.4306e-05,0.016241,6.1631e-05,-20.08,-0.00019219,-1927.2,1.194
20513,15.362,0.81818,0,0.00019429,1941.5,6.4983e-05,0.017504,6.2647e-05,-17.532,-0.00019458,-1950.2,1.1809
20514,15.362,0.90909,0.05,8.0265e-07,8.021,6.1634e-07,4.6309,-9.1798e-13,3.5769e-06,-6.1634e-07,-4.6309,1.1811
20515,15.637,0.90909,0,0.00018745,1873.2,6.2756e-05,0.014138,6.0339e-05,-18.149,-0.00018775,-1882.2,1.2197
20516,15.545,0.81818,0,0.00018988,1897.5,6.3449e-05,0.015121,6.1329e-05,-15.915,-0.00019015,-1905.4,1.2066
20517,15.545,0.90909,0.05,8.0383e-07,8.0328,6.1724e-07,4.6377,-4.7633e-13,3.72e-06,-6.1724e-07,-4.6377,1.2068
20518,15.821,0.90909,0,0.00018304,1829.2,6.1203e-05,0.012537,5.9054e-05,-16.137,-0.00018331,-1837.2,1.2456
20519,15.729,0.81818,0,0.00018547,1853.5,6.1908e-05,0.013289,6.0019e-05,-14.183,-0.00018571,-1860.5,1.2324
20520,15.729,0.90909,0.05,8.0373e-07,8.0317,6.1716e-07,4.6371,-1.3137e-12,2.4222e-06,-6.1716e-07,-4.6371,1.2326
20521,16.005,0.90909,0,0.00017865,1785.2,5.965e-05,0.011336,5.7775e-05,-14.077,-0.00017888,-1792.2,1.2716
20522,15.913,0.81818,0,0.00018107,1809.4,6.0364e-05,0.011885,5.8716e-05,-12.375,-0.00018127,-1815.6,1.2584
20523,15.913,0.90909,0.05,8.0263e-07,8.0207,6.1632e-07,4.6308,-1.3222e-12,2.8734e-06,-6.1632e-07,-4.6307,1.2586
20524,16.189,0.90909,0,0.00017426,1741.4,5.8099e-05,0.010487,5.65e-05,-11.998,-0.00017446,-1747.3,1.2977
20525,16.097,0.81818,0,0.00017666,1765.4,5.882e-05,0.010852,5.7418e-05,-10.521,-0.00017684,-1770.6,1.2845
20526,16.097,0.90909,0.05,8.0076e-07,8.002,6.1488e-07,4.62,-4.3476e-13,3.8146e-06,-6.1488e-07,-4.62,1.2846
20527,16.372,0.90909,0,0.00016988,1697.6,5.6551e-05,0.0099678,5.5229e-05,-9.918,-0.00017004,-1702.5,1.324
20528,16.281,0.81818,0,0.00017227,1721.5,5.7277e-05,0.010184,5.6125e-05,-8.646,-0.00017241,-1725.8,1.3106
20529,16.281,0.90909,0.05,7.9831e-07,7.9775,6.13e-07,4.6059,-8.1438e-13,5.4149e-06,-6.13e-07,-4.6058,1.3108
20530,16.556,0.90909,0,0.00016551,1654,5.5008e-05,0.0098431,5.3961e-05,-7.8544,-0.00016564,-1657.9,1.3503
20531,16.464,0.81818,0,0.00016789,1677.7,5.5738e-05,0.0099213,5.4836e-05,-6.7682,-0.000168,-1681.1,1.3369
20532,16.464,0.90909,0.05,7.9542e-07,7.9487,6.1078e-07,4.5892,-4.1185e-13,4.6159e-06,-6.1078e-07,-4.5892,1.3371
20533,16.74,0.90909,0,0.00016116,1610.4,5.347e-05,0.010365,5.2695e-05,-5.8183,-0.00016125,-1613.3,1.3768
20534,16.648,0.81818,0,0.00016352,1634,5.4204e-05,0.010359,5.355e-05,-4.9022,-0.0001636,-1636.5,1.3634
20535,16.648,0.90909,0.05,7.922e-07,7.9165,6.0831e-07,4.5706,-1.7751e-12,2.9762e-06,-6.0831e-07,-4.5706,1.3635
20536,16.924,0.90909,0,0.00015682,1567.1,5.194e-05,0.01228,5.143e-05,-3.8182,-0.00015688,-1569,1.4034
20537,16.832,0.81818,0,0.00015916,1590.5,5.2675e-05,0.012504,5.2267e-05,-3.0593,-0.00015921,-1592,1.3899
20538,16.832,0.90909,0.05,7.8875e-07,7.882,6.0566e-07,4.5507,-4.3647e-13,2.2278e-06,-6.0566e-07,-4.5507,1.3901
20539,17.108,0.90909,0,0.00015249,1523.9,5.0417e-05,0.019446,5.0166e-05,-1.8628,-0.00015252,-1524.8,1.4301
20540,17.016,0.81818,0,0.00015482,1547.1,5.1154e-05,0.022921,5.0984e-05,-1.2531,-0.00015484,-1547.7,1.4165
20541,17.016,0.90909,0.05,7.8515e-07,7.8461,6.029e-07,4.53,-4.2959e-13,3.8577e-06,-6.029e-07,-4.5299,1.4167
20542,17.291,0.90909,0,0.00014819,1480.8,4.8925e-05,0.20977,4.888e-05,-0.13208,-0.00014818,-1480.8,1.4569
20543,17.2,0.81818,0,0.00015049,1503.9,4.9714e-05,0.59039,4.9631e-05,-0.036612,-0.00015048,-1503.6,1.4433
20544,17.2,0.90909,0.05,7.8147e-07,7.8093,6.0007e-07,4.5087,-1.3579e-12,3.482e-06,-6.0007e-07,-4.5087,1.4434
20545,17.475,0.90909,0,0.00014389,1438,4.765e-05,1.9674,4.7387e-05,-0.010628,-0.00014386,-1437,1.4837
20546,17.383,0.81818,0,0.00014618,1460.8,4.8434e-05,2.3101,4.8126e-05,-0.0071398,-0.00014614,-1459.7,1.4701
20547,17.383,0.90909,0.05,7.7774e-07,7.7721,5.9721e-07,4.4872,-4.5345e-13,2.6385e-06,-5.9721e-07,-4.4872,1.4703
20548,17.659,0.90909,0,0.00013962,1395.2,4.6392e-05,3.7993,4.5886e-05,-0.0040947,-0.00013956,-1393.3,1.5107
20549,17.567,0.81818,0,0.00014189,1417.9,4.716e-05,4.0203,4.6625e-05,-0.0032629,-0.00014182,-1415.9,1.497
20550,17.567,0.90909,0.05,7.7401e-07,7.7347,5.9434e-07,4.4657,5.6415e-16,3.7932e-06,-5.9434e-07,-4.4656,1.4972
20551,17.843,0.90909,0,0.00013536,1352.7,4.5137e-05,5.5979,4.4392e-05,-0.0020167,-0.00013527,-1349.9,1.5378
20552,17.751,0.81818,0,0.00013762,1375.2,4.5889e-05,5.6992,4.5131e-05,-0.0019669,-0.00013752,-1372.4,1.5241
20553,17.751,0.90909,0.05,7.7028e-07,7.6975,5.9148e-07,4.4442,6.0244e-15,3.5148e-06,-5.9148e-07,-4.4441,1.5242
20554,18.027,0.90909,0,0.00013112,1310.3,4.3885e-05,7.3635,4.2905e-05,-0.0010551,-0.000131,-1306.6,1.565
20555,17.935,0.81818,0,0.00013336,1332.7,4.4622e-05,7.3476,4.3644e-05,-0.0014075,-0.00013323,-1329,1.5512
20556,17.935,0.90909,0.05,7.6659e-07,7.6606,5.8864e-07,4.4229,-1.3602e-12,3.6111e-06,-5.8864e-07,-4.4228,1.5513
20557,18.21,0.90909,0,0.0001269,1268.1,4.2637e-05,9.1001,4.1426e-05,-0.00052809,-0.00012674,-1263.6,1.5922
20558,18.119,0.81818,0,0.00012912,1290.3,4.3358e-05,8.9682,4.2164e-05,-0.0011558,-0.00012896,-1285.8,1.5784
20559,18.119,0.90909,0.05,7.6295e-07,7.6243,5.8585e-07,4.4019,-9.0945e-13,2.8167e-06,-5.8585e-07,-4.4019,1.5786
20560,18.394,0.90909,0,0.0001227,1226.1,4.1392e-05,10.813,3.9953e-05,-0.00020472,-0.00012251,-1220.7,1.6195
20561,18.302,0.81818,0,0.0001249,1248.1,4.2097e-05,10.565,4.0691e-05,-0.0010515,-0.00012471,-1242.8,1.6057
20562,18.302,0.90909,0.05,7.5939e-07,7.5887,5.8312e-07,4.3813,-4.5584e-13,2.7329e-06,-5.8312e-07,-4.3813,1.6058
20563,18.578,0.90909,0,0.00011851,1184.3,4.0152e-05,12.507,3.8488e-05,-6.7891e-08,-0.00011829,-1178,1.647
20564,18.486,0.81818,0,0.00012069,1206.1,4.0841e-05,12.143,3.9225e-05,-0.0010255,-0.00012048,-1200,1.6331
20565,18.486,0.90909,0.05,7.5591e-07,7.5539,5.8045e-07,4.3613,-9.492e-15,3.0207e-06,-5.8045e-07,-4.3612,1.6332
20566,18.762,0.90909,0,0.00011434,1142.6,3.8917e-05,14.189,3.7028e-05,0.00013393,-0.0001141,-1135.5,1.6745
20567,18.67,0.81818,0,0.00011651,1164.3,3.959e-05,13.706,3.7766e-05,-0.0010676,-0.00011627,-1157.3,1.6606
20568,18.67,0.90909,0.05,7.5252e-07,7.52,5.7785e-07,4.3417,-1.3666e-12,3.8521e-06,-5.7784e-07,-4.3417,1.6607
20569,18.946,0.90909,0,0.0001102,1101.2,3.7687e-05,15.865,3.5576e-05,0.00024884,-0.00010992,-1093.2,1.702
20570,18.854,0.81818,0,0.00011234,1122.6,3.8345e-05,15.261,3.6313e-05,-0.0011319,-0.00011207,-1114.9,1.6881
20571,18.854,0.90909,0.05,7.4922e-07,7.4871,5.7531e-07,4.3227,-9.2705e-13,2.1131e-06,-5.7531e-07,-4.3226,1.6882
20572,19.129,0.90909,0,0.00010607,1059.9,3.6464e-05,17.543,3.4129e-05,0.00036729,-0.00010576,-1051,1.7297
20573,19.038,0.81818,0,0.00010819,1081.2,3.7105e-05,16.813,3.4867e-05,-0.0011849,-0.00010789,-1072.7,1.7157
20574,19.038,0.90909,0.05,7.4602e-07,7.4551,5.7285e-07,4.3042,-8.9381e-13,3.9535e-06,-5.7285e-07,-4.3042,1.7158
20575,19.313,0.90909,0,0.00010195,1018.8,3.5247e-05,19.229,3.2688e-05,0.00049127,-0.00010161,-1009.1,1.7574
20576,19.221,0.81818,0,0.00010406,1039.9,3.5871e-05,18.369,3.3426e-05,-0.0012325,-0.00010374,-1030.6,1.7434
20577,19.221,0.90909,0.05,7.4293e-07,7.4242,5.7048e-07,4.2864,1.8745e-14,3.8705e-06,-5.7048e-07,-4.2863,1.7435
20578,19.497,0.90909,0,9.7864e-05,977.96,3.4038e-05,20.931,3.1253e-05,0.00062687,-9.7491e-05,-967.33,1.7852
20579,19.405,0.81818,0,9.9951e-05,998.82,3.4645e-05,19.934,3.1991e-05,-0.0012699,-9.9597e-05,-988.7,1.7712
20580,19.405,0.90909,0.05,7.3995e-07,7.3944,5.6819e-07,4.2692,-9.0146e-13,4.5607e-06,-5.6819e-07,-4.2692,1.7713
20581,19.681,0.90909,0,9.3793e-05,937.28,3.2838e-05,22.657,2.9823e-05,0.00077281,-9.3387e-05,-925.74,1.813
20582,19.589,0.81818,0,9.586e-05,957.93,3.3426e-05,21.516,3.0562e-05,-0.0012946,-9.5475e-05,-947,1.799
20583,19.589,0.90909,0.05,7.371e-07,7.3659,5.66e-07,4.2527,-1.3308e-12,5.4581e-06,-5.66e-07,-4.2527,1.7991
20584,19.865,0.90909,0,8.9741e-05,896.79,3.1646e-05,24.415,2.8397e-05,0.00093585,-8.9301e-05,-884.34,1.841
20585,19.773,0.81818,0,9.1788e-05,917.24,3.2215e-05,23.12,2.9137e-05,-0.001319,-9.1373e-05,-905.47,1.8269
20586,19.773,0.90909,0.05,7.3437e-07,7.3386,5.6391e-07,4.237,-4.3073e-13,4.7914e-06,-5.639e-07,-4.2369,1.827
20587,20.048,0.90909,0,8.571e-05,856.51,3.0465e-05,26.212,2.6976e-05,0.0011415,-8.5234e-05,-843.11,1.8689
20588,19.956,0.81818,0,8.7736e-05,876.75,3.1013e-05,24.756,2.7718e-05,-0.0013212,-8.7288e-05,-864.11,1.8548
20589,19.956,0.90909,0.05,7.3177e-07,7.3126,5.6191e-07,4.222,-8.3499e-13,5.0787e-06,-5.619e-07,-4.2219,1.8549
20590,20.232,0.90909,0,8.17e-05,816.44,2.9294e-05,28.059,2.5559e-05,0.0014033,-8.1187e-05,-802.05,1.897
20591,20.14,0.81818,0,8.3704e-05,836.46,2.982e-05,26.429,2.6303e-05,-0.0012761,-8.3223e-05,-822.93,1.8828
20592,20.14,0.90909,0.05,7.293e-07,7.2879,5.6001e-07,4.2077,-8.7713e-13,3.4483e-06,-5.6001e-07,-4.2077,1.8829
20593,20.416,0.90909,0,7.7711e-05,776.58,2.8134e-05,29.965,2.4146e-05,0.0017276,-7.7158e-05,-761.16,1.9251
20594,20.324,0.81818,0,7.9692e-05,796.37,2.8638e-05,28.147,2.4892e-05,-0.0011859,-7.9175e-05,-781.92,1.9109
20595,20.324,0.90909,0.05,7.2697e-07,7.2647,5.5823e-07,4.1943,-4.075e-13,7.6656e-06,-5.5822e-07,-4.1943,1.911
20596,20.6,0.90909,0,7.3744e-05,736.93,2.6987e-05,31.938,2.2737e-05,0.0021278,-7.3149e-05,-720.44,1.9532
20597,20.508,0.81818,0,7.57e-05,756.48,2.7466e-05,29.92,2.3484e-05,-0.0010419,-7.5147e-05,-741.08,1.939
20598,20.508,0.90909,0.05,7.248e-07,7.243,5.5656e-07,4.1818,5.1198e-14,9.7179e-06,-5.5656e-07,-4.1817,1.9391
20599,20.784,0.90909,0,6.98e-05,697.51,2.5854e-05,33.992,2.133e-05,0.0026113,-6.9159e-05,-679.9,1.9814
20600,20.692,0.81818,0,7.173e-05,716.8,2.6307e-05,31.756,2.208e-05,-0.00082842,-7.1137e-05,-700.4,1.9672
20601,20.692,0.90909,0.05,7.228e-07,7.223,5.5502e-07,4.1702,1.9615e-14,1.0947e-05,-5.5502e-07,-4.1702,1.9673
20602,20.967,0.90909,0,6.5878e-05,658.33,2.4735e-05,36.137,1.9926e-05,0.0032019,-6.5189e-05,-639.51,2.0096
20603,20.875,0.81818,0,6.7781e-05,677.34,2.516e-05,33.665,2.0679e-05,-0.00054833,-6.7146e-05,-659.88,1.9954
20604,20.875,0.90909,0.05,7.2096e-07,7.2046,5.5361e-07,4.1596,1.038e-14,1.1136e-05,-5.5361e-07,-4.1596,1.9955
20605,21.151,0.90909,0,6.1982e-05,619.39,2.3632e-05,38.388,1.8523e-05,0.0039464,-6.1239e-05,-599.3,2.0379
20606,21.059,0.81818,0,6.3855e-05,638.11,2.4027e-05,35.658,1.9281e-05,-0.00015913,-6.3173e-05,-619.53,2.0236
20607,21.059,0.90909,0.05,7.1931e-07,7.1881,5.5234e-07,4.1501,1.8784e-14,1.074e-05,-5.5234e-07,-4.15,2.0237
20608,21.335,0.90909,0,5.8111e-05,580.71,2.2547e-05,40.761,1.7122e-05,0.0048861,-5.731e-05,-559.25,2.0662
20609,21.243,0.81818,0,5.9952e-05,599.11,2.2909e-05,37.747,1.7885e-05,0.0003814,-5.9221e-05,-579.34,2.0519
20610,21.243,0.90909,0.05,7.1785e-07,7.1736,5.5122e-07,4.1417,2.2749e-13,9.3744e-06,-5.5122e-07,-4.1416,2.052
20611,21.519,0.90909,0,5.4268e-05,542.31,2.1481e-05,43.274,1.5723e-05,0.006071,-5.3402e-05,-519.37,2.0945
20612,21.427,0.81818,0,5.6074e-05,560.36,2.1807e-05,39.948,1.6491e-05,0.0011078,-5.5288e-05,-539.31,2.0803
20613,21.427,0.90909,0.05,7.1661e-07,7.1612,5.5027e-07,4.1345,-4.8629e-14,6.5724e-06,-5.5027e-07,-4.1345,2.0803
20614,21.703,0.90909,0,5.0456e-05,504.21,2.0438e-05,45.949,1.4323e-05,0.007574,-4.9517e-05,-479.66,2.1229
20615,21.611,0.81818,0,5.2224e-05,521.88,2.0724e-05,42.278,1.5097e-05,0.0020785,-5.1376e-05,-499.45,2.1086
20616,21.611,0.90909,0.05,7.1562e-07,7.1513,5.4951e-07,4.1288,-2.7304e-13,4.987e-06,-5.4951e-07,-4.1288,2.1087
20617,21.886,0.90909,0,4.6678e-05,466.46,1.9419e-05,48.814,1.2923e-05,0.0094867,-4.5656e-05,-440.13,2.1514
20618,21.794,0.81818,0,4.8403e-05,483.69,1.9661e-05,44.759,1.3705e-05,0.0033717,-4.7486e-05,-459.76,2.1371
20619,21.794,0.90909,0.05,7.149e-07,7.1441,5.4896e-07,4.1246,-1.8832e-13,4.0683e-07,-5.4895e-07,-4.1246,2.1371
20620,22.07,0.90909,0,4.294e-05,429.1,1.8429e-05,51.903,1.1522e-05,0.011952,-4.1821e-05,-400.78,2.1798
20621,21.978,0.81818,0,4.4615e-05,445.84,1.8622e-05,47.416,1.2312e-05,0.005086,-4.3619e-05,-420.24,2.1655
20622,21.978,0.90909,0.05,7.1449e-07,7.14,5.4864e-07,4.1223,-8.4239e-13,-6.4137e-06,-5.4864e-07,-4.1223,2.1656
20623,22.254,0.90909,0,3.9247e-05,392.2,1.7471e-05,55.259,1.0119e-05,0.015177,-3.8014e-05,-361.64,2.2083
20624,22.162,0.81818,0,4.0866e-05,408.38,1.761e-05,50.285,1.0919e-05,0.0073976,-3.9777e-05,-380.9,2.194
20625,22.162,0.90909,0.05,7.1446e-07,7.1396,5.4862e-07,4.1221,-8.5113e-13,-5.2728e-06,-5.4861e-07,-4.1221,2.194
20626,22.438,0.90909,0,3.5611e-05,355.86,1.6554e-05,58.935,8.7124e-06,0.019469,-3.424e-05,-322.71,2.2368
20627,22.346,0.81818,0,3.7162e-05,371.37,1.663e-05,53.408,9.5235e-06,0.010537,-3.5964e-05,-341.77,2.2225
20628,22.346,0.90909,0.05,7.1488e-07,7.1438,5.4894e-07,4.1245,-3.6227e-13,-7.3547e-07,-5.4894e-07,-4.1245,2.2225
20629,22.622,0.90909,0,3.2043e-05,320.21,1.5683e-05,63.005,7.3008e-06,0.025208,-3.0502e-05,-284.01,2.2653
20630,22.53,0.81818,0,3.3515e-05,334.92,1.5689e-05,56.845,8.1254e-06,0.014884,-3.2184e-05,-302.86,2.251
20631,22.53,0.90909,0.05,7.1588e-07,7.1539,5.4971e-07,4.1303,4.2643e-13,5.2216e-06,-5.4971e-07,-4.1303,2.251
20632,22.805,0.90909,0,2.8563e-05,285.44,1.4869e-05,67.559,5.8822e-06,0.033321,-2.6807e-05,-245.58,2.2939
20633,22.713,0.81818,0,2.9939e-05,299.19,1.4795e-05,60.672,6.723e-06,0.020829,-2.8442e-05,-264.19,2.2795
20634,22.713,0.90909,0.05,7.1765e-07,7.1716,5.5107e-07,4.1405,-2.6924e-15,1.0493e-06,-5.5107e-07,-4.1405,2.2796
20635,22.989,0.90909,0,2.52e-05,251.82,1.4126e-05,72.715,4.4538e-06,0.044102,-2.3162e-05,-207.45,2.3224
20636,22.897,0.81818,0,2.6457e-05,264.39,1.396e-05,64.994,5.314e-06,0.029867,-2.4745e-05,-225.82,2.3081
20637,22.897,0.90909,0.05,7.2049e-07,7.1999,5.5325e-07,4.1569,-6.8423e-14,3.8932e-06,-5.5325e-07,-4.1569,2.3081
20638,23.173,0.90909,0,2.1993e-05,219.78,1.3467e-05,78.621,3.012e-06,0.063264,-1.9574e-05,-169.64,2.351
20639,23.081,0.81818,0,2.3102e-05,230.86,1.32e-05,69.952,3.8953e-06,0.041172,-2.1103e-05,-187.78,2.3366
20640,23.081,0.90909,0.05,7.2483e-07,7.2433,5.5658e-07,4.182,-9.5437e-15,7.7827e-06,-5.5658e-07,-4.1819,2.3367
20641,23.357,0.90909,0,1.9002e-05,189.89,1.2911e-05,85.439,1.5507e-06,0.08156,-1.6048e-05,-132.15,2.3796
20642,23.265,0.81818,0,1.9925e-05,199.11,1.2533e-05,75.729,2.4633e-06,0.067199,-1.7525e-05,-150.12,2.3652
20643,23.265,0.90909,0.05,7.3136e-07,7.3086,5.616e-07,4.2196,3.0708e-13,7.0257e-06,-5.616e-07,-4.2196,2.3653
20644,23.541,0.90909,0,1.6317e-05,163.06,1.2472e-05,93.361,6.8231e-08,0.16648,-1.2587e-05,-94.923,2.4082
20645,23.449,0.81818,0,1.7002e-05,169.9,1.1983e-05,82.534,1.0092e-06,0.078011,-1.4022e-05,-112.86,2.3938
20646,23.449,0.90909,0.05,7.41e-07,7.4048,5.6899e-07,4.2752,1.9168e-13,9.9553e-06,-5.6899e-07,-4.2752,2.3939
20647,23.724,0.90909,0,1.408e-05,140.7,1.2166e-05,102.5,-1.4582e-06,0.13493,-9.1872e-06,-57.938,2.4368
20648,23.632,0.81818,0,1.4454e-05,144.44,1.1571e-05,90.657,-4.6229e-07,0.24082,-1.06e-05,-75.928,2.4224
20649,23.632,0.90909,0.05,7.5573e-07,7.5521,5.8031e-07,4.3602,7.4576e-13,1.1753e-05,-5.8031e-07,-4.3602,2.4225
20650,23.816,0.81818,0,1.2475e-05,124.66,1.1327e-05,100.2,-2.0013e-06,0.054523,-7.256e-06,-39.427,2.451
20651,23.816,0.90909,0.05,7.9214e-07,7.916,6.0827e-07,4.5703,1.1293e-12,1.5032e-05,-6.0827e-07,-4.5703,2.4511
20652,23.908,0.90909,0,1.242e-05,124.11,1.1888e-05,111.55,-2.9055e-06,0.39732,-5.9349e-06,-22.364,2.4654
20653,11.042,0.72727,0,0.00015546,1553.6,8.2274e-05,382.72,3.0805e-05,-3.9954,-0.00014537,-1327.7,0.61887
20654,10.95,0.63636,0,0.0001398,1397.1,7.9043e-05,408.72,2.3815e-05,-6.25,-0.00012825,-1148.8,0.60718
20655,10.95,0.72727,0.05,8.5058e-06,85,6.5314e-06,49.075,-1.1627e-13,-2.395e-06,-6.5314e-06,-49.075,0.60766
20656,10.859,0.72727,0,0.00012889,1288,7.3027e-05,382.84,2.2274e-05,1.4943,-0.00011805,-1052.8,0.59652
20657,11.226,0.72727,0,0.00016169,1615.8,7.3255e-05,242.42,4.0723e-05,-2.0132,-0.00015621,-1481.7,0.64124
20658,11.134,0.63636,0,0.00014122,1411.2,6.6099e-05,238.3,3.4132e-05,-1.8877,-0.00013566,-1277.6,0.62957
20659,11.134,0.72727,0.05,6.2838e-06,62.795,4.8252e-06,36.255,-2.9414e-13,3.5297e-06,-4.8252e-06,-36.255,0.63002
20660,11.41,0.72727,0,0.00017703,1769,7.2944e-05,175.2,4.9339e-05,-2.1611,-0.00017341,-1675.8,0.66369
20661,11.318,0.63636,0,0.00015764,1575.3,6.6025e-05,168.82,4.3213e-05,-2.5787,-0.00015411,-1485.2,0.65201
20662,11.318,0.72727,0.05,5.4835e-06,54.797,4.2106e-06,31.637,8.9403e-13,6.1903e-06,-4.2106e-06,-31.637,0.65243
20663,11.594,0.72727,0,0.00019309,1929.6,7.5028e-05,135.79,5.6734e-05,-1.6726,-0.00019044,-1858.9,0.68622
20664,11.502,0.63636,0,0.0001764,1762.8,6.9318e-05,133.38,5.1328e-05,-1.7839,-0.00017377,-1693.1,0.67453
20665,11.502,0.72727,0.05,4.5966e-06,45.934,3.5296e-06,26.52,1.2384e-12,1.3255e-05,-3.5296e-06,-26.52,0.67491
20666,11.778,0.72727,0,0.00020727,2071.3,7.7511e-05,109.12,6.2808e-05,-1.3458,-0.00020522,-2015.2,0.70887
20667,11.686,0.63636,0,0.00019361,1934.8,7.3166e-05,111.15,5.8192e-05,-1.3611,-0.0001915,-1877.4,0.69714
20668,11.686,0.72727,0.05,3.7291e-06,37.265,2.8635e-06,21.515,6.0467e-13,8.5946e-06,-2.8635e-06,-21.515,0.69751
20669,11.961,0.72727,0,0.00021869,2185.4,7.9579e-05,88.627,6.7642e-05,-1.066,-0.00021706,-2140.2,0.73165
20670,11.869,0.63636,0,0.00020791,2077.7,7.6471e-05,94.116,6.3812e-05,-0.99815,-0.00020617,-2029.5,0.71987
20671,11.869,0.72727,0.05,2.9482e-06,29.462,2.2639e-06,17.01,1.362e-12,1.0383e-05,-2.2639e-06,-17.01,0.72022
20672,12.145,0.72727,0,0.00022727,2271.2,8.098e-05,71.396,7.1363e-05,-0.86347,-0.00022599,-2235,0.75457
20673,12.053,0.63636,0,0.00021905,2189,7.8899e-05,79.133,6.8266e-05,-0.75811,-0.0002176,-2148.7,0.74273
20674,12.053,0.72727,0.05,2.2809e-06,22.793,1.7514e-06,13.16,2.3344e-12,2.593e-05,-1.7514e-06,-13.16,0.74306
20675,12.329,0.72727,0,0.0002333,2331.4,8.1709e-05,56.278,7.4123e-05,-0.71875,-0.0002323,-2303.1,0.77763
20676,12.237,0.63636,0,0.00022723,2270.8,8.0445e-05,65.249,7.1682e-05,-0.58986,-0.00022606,-2237.7,0.76574
20677,12.237,0.72727,0.05,1.7289e-06,17.277,1.3275e-06,9.9747,1.669e-12,2.6382e-05,-1.3276e-06,-9.9747,0.76605
20678,12.513,0.72727,0,0.00023714,2369.7,8.1858e-05,42.86,7.607e-05,-0.62375,-0.00023639,-2348.3,0.80085
20679,12.421,0.63636,0,0.00023286,2327,8.1226e-05,52.322,7.4199e-05,-0.47622,-0.00023194,-2300.7,0.78889
20680,12.421,0.72727,0.05,1.2842e-06,12.833,9.8613e-07,7.4094,2.5382e-12,2.3954e-05,-9.8613e-07,-7.4094,0.7892
20681,12.697,0.72727,0,0.00023917,2390.1,8.1542e-05,31.019,7.7337e-05,-0.57404,-0.00023864,-2374.7,0.82423
20682,12.605,0.63636,0,0.00023636,2362,8.1391e-05,40.469,7.5951e-05,-0.40167,-0.00023565,-2341.7,0.8122
20683,12.605,0.72727,0.05,9.381e-07,9.3745,7.2034e-07,5.4124,1.5746e-12,1.1322e-05,-7.2035e-07,-5.4124,0.81249
20684,12.88,0.72727,0,0.00023975,2395.8,8.0874e-05,20.73,7.8039e-05,-0.57798,-0.0002394,-2385.7,0.84777
20685,12.788,0.63636,0,0.00023811,2379.5,8.1083e-05,29.837,7.7064e-05,-0.35926,-0.00023759,-2364.6,0.83567
20686,12.788,0.72727,0.05,6.8589e-07,6.8541,5.2667e-07,3.9572,5.2317e-12,9.0287e-06,-5.2668e-07,-3.9572,0.83595
20687,13.064,0.72727,0,0.00023915,2389.9,7.9957e-05,12.008,7.8268e-05,-0.68016,-0.00023896,-2384.2,0.87147
20688,12.972,0.63636,0,0.00023846,2383,8.0422e-05,20.525,7.7644e-05,-0.34922,-0.00023811,-2372.8,0.85929
20689,12.972,0.72727,0.05,5.2908e-07,5.2871,4.0626e-07,3.0525,2.1846e-12,3.3022e-05,-4.0627e-07,-3.0525,0.85957
20690,13.248,0.72727,0,0.00023764,2374.8,7.8899e-05,5.0435,7.8078e-05,-1.1217,-0.00023757,-2372.8,0.89532
20691,13.156,0.63636,0,0.00023769,2375.3,7.9509e-05,12.585,7.7783e-05,-0.38772,-0.00023748,-2369.2,0.88308
20692,13.156,0.72727,0.05,4.6632e-07,4.66,3.5808e-07,2.6904,-5.0901e-13,2.3672e-05,-3.5808e-07,-2.6904,0.88335
20693,13.432,0.72727,0,0.00023541,2352.5,7.7951e-05,1.1946,7.7347e-05,-3.3412,-0.00023545,-2353.5,0.91934
20694,13.34,0.63636,0,0.00023605,2358.9,7.8432e-05,6.0767,7.7549e-05,-0.55833,-0.00023596,-2356.1,0.90702
20695,13.34,0.72727,0.05,4.7488e-07,4.7456,3.6465e-07,2.7399,-5.521e-13,1.0098e-05,-3.6465e-07,-2.7398,0.90729
20696,13.616,0.72727,0,0.00023262,2324.6,7.7162e-05,0.3899,7.6129e-05,-7.3697,-0.00023274,-2328.1,0.94352
20697,13.524,0.63636,0,0.00023372,2335.6,7.7336e-05,1.5895,7.6922e-05,-1.5193,-0.00023372,-2335.6,0.93112
20698,13.524,0.72727,0.05,5.1838e-07,5.1802,3.9805e-07,2.9908,-1.0952e-13,-9.2372e-06,-3.9805e-07,-2.9908,0.93139
20699,13.799,0.72727,0,0.0002294,2292.4,7.6257e-05,0.1939,7.4782e-05,-10.89,-0.00022958,-2297.8,0.96786
20700,13.707,0.63636,0,0.00023086,2307,7.6444e-05,0.38075,7.5778e-05,-4.6253,-0.00023093,-2309.1,0.95539
20701,13.707,0.72727,0.05,5.7096e-07,5.7056,4.3842e-07,3.2942,-1.091e-12,-7.5165e-06,-4.3843e-07,-3.2942,0.95564
20702,13.983,0.72727,0,0.00022585,2257,7.5211e-05,0.11688,7.3393e-05,-13.538,-0.00022608,-2263.6,0.99235
20703,13.891,0.63636,0,0.00022758,2274.3,7.5499e-05,0.17046,7.445e-05,-7.7102,-0.00022771,-2278,0.9798
20704,13.891,0.72727,0.05,6.2079e-07,6.2037,4.7669e-07,3.5817,-1.9676e-12,-6.4609e-06,-4.7669e-07,-3.5817,0.98006
20705,14.167,0.72727,0,0.00022206,2219,7.4045e-05,0.078526,7.199e-05,-15.361,-0.00022231,-2226.6,1.017
20706,14.075,0.63636,0,0.000224,2238.4,7.4424e-05,0.099723,7.3075e-05,-10.036,-0.00022416,-2243.4,1.0044
20707,14.075,0.72727,0.05,6.6375e-07,6.6329,5.0968e-07,3.8296,-6.7558e-13,6.371e-06,-5.0968e-07,-3.8295,1.0046
20708,14.351,0.72727,0,0.00021807,2179.2,7.2783e-05,0.056629,7.0585e-05,-16.46,-0.00021835,-2187.4,1.0418
20709,14.259,0.63636,0,0.00022017,2200.2,7.3237e-05,0.066595,7.1682e-05,-11.621,-0.00022037,-2206,1.0291
20710,14.259,0.72727,0.05,6.99e-07,6.9852,5.3675e-07,4.0329,-1.6644e-12,1.9224e-06,-5.3674e-07,-4.0329,1.0293
20711,14.534,0.72727,0,0.00021395,2138.1,7.1446e-05,0.042966,6.9185e-05,-16.943,-0.00021424,-2146.5,1.0667
20712,14.443,0.63636,0,0.00021617,2160.2,7.196e-05,0.048169,7.0283e-05,-12.559,-0.00021638,-2166.4,1.054
20713,14.443,0.72727,0.05,7.2701e-07,7.2651,5.5826e-07,4.1945,-8.034e-13,2.2791e-07,-5.5825e-07,-4.1945,1.0542
20714,14.718,0.72727,0,0.00020973,2095.9,7.005e-05,0.033867,6.7795e-05,-16.911,-0.00021001,-2104.3,1.0918
20715,14.626,0.63636,0,0.00021203,2118.8,7.0613e-05,0.036778,6.8885e-05,-12.947,-0.00021225,-2125.3,1.079
20716,14.626,0.72727,0.05,7.4871e-07,7.4819,5.7492e-07,4.3197,-1.1999e-13,5.8517e-06,-5.7491e-07,-4.3197,1.0792
20717,14.902,0.72727,0,0.00020544,2053,6.8611e-05,0.027484,6.6416e-05,-16.458,-0.00020571,-2061.1,1.117
20718,14.81,0.63636,0,0.0002078,2076.5,6.9212e-05,0.029165,6.7494e-05,-12.88,-0.00020801,-2082.9,1.1041
20719,14.81,0.72727,0.05,7.6511e-07,7.6458,5.8751e-07,4.4143,-8.8117e-13,2.6659e-06,-5.8751e-07,-4.4143,1.1044
20720,15.086,0.72727,0,0.00020109,2009.6,6.7138e-05,0.022818,6.505e-05,-15.667,-0.00020136,-2017.3,1.1424
20721,14.994,0.63636,0,0.00020349,2033.5,6.777e-05,0.023779,6.6111e-05,-12.441,-0.0002037,-2039.7,1.1294
20722,14.994,0.72727,0.05,7.7715e-07,7.7661,5.9676e-07,4.4838,-1.7055e-12,4.6696e-06,-5.9675e-07,-4.4837,1.1297
20723,15.27,0.72727,0,0.00019672,1965.8,6.5641e-05,0.019274,6.3694e-05,-14.609,-0.00019696,-1973.1,1.1679
20724,15.178,0.63636,0,0.00019914,1990,6.6297e-05,0.019791,6.4736e-05,-11.706,-0.00019934,-1995.8,1.1549
20725,15.178,0.72727,0.05,7.8566e-07,7.8512,6.0329e-07,4.5329,-9.2316e-13,3.6786e-06,-6.0329e-07,-4.5329,1.1551
20726,15.453,0.72727,0,0.00019232,1921.9,6.4127e-05,0.016508,6.2348e-05,-13.345,-0.00019254,-1928.5,1.1935
20727,15.362,0.63636,0,0.00019476,1946.2,6.4802e-05,0.0167,6.3371e-05,-10.738,-0.00019494,-1951.5,1.1804
20728,15.362,0.72727,0.05,7.9134e-07,7.9079,6.0765e-07,4.5656,-1.8187e-12,3.4045e-06,-6.0765e-07,-4.5656,1.1807
20729,15.637,0.72727,0,0.00018791,1877.8,6.2601e-05,0.014343,6.1012e-05,-11.928,-0.00018811,-1883.7,1.2193
20730,15.545,0.63636,0,0.00019035,1902.2,6.3292e-05,0.014267,6.2013e-05,-9.5905,-0.00019051,-1907,1.2061
20731,15.545,0.72727,0.05,7.9475e-07,7.9421,6.1027e-07,4.5854,-9.2889e-13,3.6562e-06,-6.1027e-07,-4.5853,1.2064
20732,15.821,0.72727,0,0.0001835,1833.7,6.1069e-05,0.012659,5.9684e-05,-10.4,-0.00018367,-1838.9,1.2452
20733,15.729,0.63636,0,0.00018594,1858.1,6.1771e-05,0.01237,6.0664e-05,-8.31,-0.00018608,-1862.2,1.232
20734,15.729,0.72727,0.05,7.964e-07,7.9585,6.1154e-07,4.5949,-1.7666e-12,3.1552e-06,-6.1153e-07,-4.5948,1.2322
20735,16.005,0.72727,0,0.00017909,1789.6,5.9534e-05,0.011376,5.8362e-05,-8.7975,-0.00017923,-1794,1.2712
20736,15.913,0.63636,0,0.00018152,1813.9,6.0245e-05,0.010897,5.9321e-05,-6.9337,-0.00018164,-1817.4,1.2579
20737,15.913,0.72727,0.05,7.9666e-07,7.9611,6.1174e-07,4.5964,-3.9828e-13,4.2526e-06,-6.1174e-07,-4.5964,1.2581
20738,16.189,0.72727,0,0.00017468,1745.6,5.7999e-05,0.010479,5.7046e-05,-7.1476,-0.0001748,-1749.1,1.2973
20739,16.097,0.63636,0,0.0001771,1769.8,5.8717e-05,0.0098285,5.7984e-05,-5.4924,-0.0001772,-1772.5,1.284
20740,16.097,0.72727,0.05,7.9587e-07,7.9532,6.1113e-07,4.5918,-1.3482e-12,2.5573e-06,-6.1112e-07,-4.5917,1.2842
20741,16.372,0.72727,0,0.00017028,1701.7,5.6465e-05,0.010037,5.5735e-05,-5.4734,-0.00017038,-1704.4,1.3236
20742,16.281,0.63636,0,0.00017269,1725.7,5.7188e-05,0.009265,5.6653e-05,-4.0107,-0.00017276,-1727.7,1.3102
20743,16.281,0.72727,0.05,7.9426e-07,7.9371,6.0989e-07,4.5825,-8.2776e-13,2.8562e-06,-6.0989e-07,-4.5825,1.3104
20744,16.556,0.72727,0,0.0001659,1657.8,5.4935e-05,0.010384,5.4429e-05,-3.7925,-0.00016596,-1659.7,1.3499
20745,16.464,0.63636,0,0.00016829,1681.8,5.5662e-05,0.009677,5.5326e-05,-2.5085,-0.00016834,-1683,1.3365
20746,16.464,0.72727,0.05,7.9203e-07,7.9148,6.0818e-07,4.5696,-1.3462e-12,2.1043e-06,-6.0818e-07,-4.5696,1.3367
20747,16.74,0.72727,0,0.00016152,1614.1,5.3409e-05,0.013067,5.3125e-05,-2.1196,-0.00016156,-1615.2,1.3764
20748,16.648,0.63636,0,0.0001639,1637.9,5.4139e-05,0.014854,5.4004e-05,-1.0045,-0.00016392,-1638.4,1.3629
20749,16.648,0.72727,0.05,7.8933e-07,7.8878,6.0611e-07,4.5541,-1.7751e-12,1.9776e-06,-6.0611e-07,-4.554,1.3631
20750,16.924,0.72727,0,0.00015717,1570.6,5.1892e-05,0.039597,5.1822e-05,-0.4857,-0.00015717,-1570.8,1.403
20751,16.832,0.63636,0,0.00015953,1594.2,5.269e-05,0.53124,5.2617e-05,-0.016175,-0.00015952,-1593.9,1.3895
20752,16.832,0.72727,0.05,7.8629e-07,7.8575,6.0378e-07,4.5366,-9.0102e-13,1.8163e-06,-6.0377e-07,-4.5365,1.3897
20753,17.108,0.72727,0,0.00015282,1527.2,5.0533e-05,1.2038,5.0371e-05,-0.011158,-0.0001528,-1526.6,1.4297
20754,17.016,0.63636,0,0.00015517,1550.6,5.1374e-05,2.0095,5.1106e-05,-0.0023801,-0.00015513,-1549.6,1.4161
20755,17.016,0.72727,0.05,7.8302e-07,7.8248,6.0127e-07,4.5177,-1.3554e-12,4.208e-06,-6.0126e-07,-4.5176,1.4163
20756,17.291,0.72727,0,0.0001485,1483.9,4.9238e-05,2.8091,4.8864e-05,-0.003517,-0.00014845,-1482.5,1.4565
20757,17.2,0.63636,0,0.00015082,1507.2,5.0063e-05,3.4819,4.9599e-05,-0.00089506,-0.00015076,-1505.5,1.4429
20758,17.2,0.72727,0.05,7.7959e-07,7.7906,5.9863e-07,4.4979,-4.4771e-13,5.438e-06,-5.9863e-07,-4.4979,1.443
20759,17.475,0.72727,0,0.00014419,1440.9,4.7948e-05,4.3925,4.7363e-05,-0.0018892,-0.00014411,-1438.7,1.4834
20760,17.383,0.63636,0,0.0001465,1463.9,4.8755e-05,4.934,4.8099e-05,-0.00066843,-0.00014641,-1461.5,1.4697
20761,17.383,0.72727,0.05,7.7607e-07,7.7554,5.9593e-07,4.4776,-9.1844e-13,4.6499e-06,-5.9593e-07,-4.4775,1.4699
20762,17.659,0.72727,0,0.00013989,1398,4.6661e-05,5.9489,4.5869e-05,-0.0014274,-0.00013979,-1395,1.5104
20763,17.567,0.63636,0,0.00014218,1420.9,4.7452e-05,6.3632,4.6605e-05,-0.00082752,-0.00014207,-1417.7,1.4967
20764,17.567,0.72727,0.05,7.725e-07,7.7197,5.9319e-07,4.457,-4.4987e-13,6.4089e-06,-5.9318e-07,-4.4569,1.4968
20765,17.843,0.72727,0,0.00013562,1355.2,4.5378e-05,7.4783,4.4382e-05,-0.0013535,-0.00013549,-1351.5,1.5374
20766,17.751,0.63636,0,0.00013789,1377.9,4.6152e-05,7.7691,4.5118e-05,-0.0011251,-0.00013776,-1374,1.5237
20767,17.751,0.72727,0.05,7.689e-07,7.6837,5.9042e-07,4.4362,-4.4713e-13,4.9109e-06,-5.9042e-07,-4.4362,1.5239
20768,18.027,0.72727,0,0.00013136,1312.7,4.4098e-05,8.9826,4.2902e-05,-0.0014369,-0.0001312,-1308.2,1.5646
20769,17.935,0.63636,0,0.00013361,1335.2,4.4856e-05,9.1525,4.3638e-05,-0.0014577,-0.00013346,-1330.6,1.5508
20770,17.935,0.72727,0.05,7.6531e-07,7.6478,5.8767e-07,4.4155,2.1359e-15,4.1244e-06,-5.8766e-07,-4.4155,1.551
20771,18.21,0.72727,0,0.00012712,1270.3,4.2822e-05,10.464,4.1429e-05,-0.0015991,-0.00012694,-1265,1.5919
20772,18.119,0.63636,0,0.00012936,1292.7,4.3565e-05,10.515,4.2165e-05,-0.0018076,-0.00012917,-1287.4,1.5781
20773,18.119,0.72727,0.05,7.6176e-07,7.6124,5.8494e-07,4.395,-9.1001e-13,2.8142e-06,-5.8493e-07,-4.395,1.5782
20774,18.394,0.72727,0,0.0001229,1228.1,4.1551e-05,11.927,3.9963e-05,-0.0018021,-0.00012269,-1222.1,1.6192
20775,18.302,0.63636,0,0.00012512,1250.3,4.2278e-05,11.86,4.0699e-05,-0.0021633,-0.00012491,-1244.3,1.6054
20776,18.302,0.72727,0.05,7.5826e-07,7.5774,5.8225e-07,4.3748,-1.3655e-12,1.9075e-06,-5.8225e-07,-4.3748,1.6055
20777,18.578,0.72727,0,0.00011869,1186.1,4.0284e-05,13.375,3.8504e-05,-0.0020398,-0.00011846,-1179.4,1.6467
20778,18.486,0.63636,0,0.00012089,1208.1,4.0995e-05,13.189,3.9239e-05,-0.00252,-0.00012066,-1201.5,1.6328
20779,18.486,0.72727,0.05,7.5484e-07,7.5432,5.7962e-07,4.3551,-9.2014e-13,2.6511e-06,-5.7962e-07,-4.355,1.6329
20780,18.762,0.72727,0,0.00011451,1144.3,3.9023e-05,14.813,3.7051e-05,-0.0022999,-0.00011425,-1136.8,1.6742
20781,18.67,0.63636,0,0.00011669,1166.1,3.9718e-05,14.506,3.7787e-05,-0.0029005,-0.00011644,-1158.8,1.6602
20782,18.67,0.72727,0.05,7.5148e-07,7.5097,5.7705e-07,4.3357,-1.3705e-12,3.5163e-06,-5.7704e-07,-4.3357,1.6604
20783,18.946,0.72727,0,0.00011034,1102.6,3.7767e-05,16.245,3.5604e-05,-0.0025531,-0.00011005,-1094.4,1.7017
20784,18.854,0.63636,0,0.0001125,1124.3,3.8446e-05,15.816,3.634e-05,-0.0032754,-0.00011223,-1116.3,1.6878
20785,18.854,0.72727,0.05,7.4821e-07,7.477,5.7453e-07,4.3168,-4.7405e-13,3.5009e-06,-5.7453e-07,-4.3168,1.6879
20786,19.129,0.72727,0,0.00010619,1061.2,3.6517e-05,17.676,3.4164e-05,-0.0027941,-0.00010588,-1052.2,1.7294
20787,19.038,0.63636,0,0.00010834,1082.6,3.7179e-05,17.122,3.49e-05,-0.0036276,-0.00010804,-1074,1.7154
20788,19.038,0.72727,0.05,7.4503e-07,7.4452,5.7209e-07,4.2985,-4.3779e-13,5.32e-06,-5.7209e-07,-4.2984,1.7155
20789,19.313,0.72727,0,0.00010206,1019.9,3.5273e-05,19.112,3.2729e-05,-0.0030258,-0.00010172,-1010.2,1.7571
20790,19.221,0.63636,0,0.00010419,1041.2,3.5919e-05,18.428,3.3466e-05,-0.0039721,-0.00010386,-1031.9,1.7431
20791,19.221,0.72727,0.05,7.4195e-07,7.4144,5.6973e-07,4.2807,-9.0383e-13,4.451e-06,-5.6972e-07,-4.2807,1.7432
20792,19.497,0.72727,0,9.7952e-05,978.85,3.4037e-05,20.558,3.13e-05,-0.003247,-9.7587e-05,-968.41,1.7849
20793,19.405,0.63636,0,0.00010006,999.92,3.4665e-05,19.74,3.2037e-05,-0.0043057,-9.9711e-05,-989.91,1.7709
20794,19.405,0.72727,0.05,7.3898e-07,7.3847,5.6744e-07,4.2636,-8.7213e-13,4.3872e-06,-5.6744e-07,-4.2635,1.771
20795,19.681,0.72727,0,9.3861e-05,937.96,3.2808e-05,22.02,2.9877e-05,-0.0034667,-9.3467e-05,-926.76,1.8128
20796,19.589,0.63636,0,9.5951e-05,958.84,3.3418e-05,21.061,3.0614e-05,-0.0046358,-9.5575e-05,-948.14,1.7987
20797,19.589,0.72727,0.05,7.3612e-07,7.3561,5.6525e-07,4.2471,-1.3275e-12,3.7952e-06,-5.6525e-07,-4.247,1.7988
20798,19.865,0.72727,0,8.9789e-05,897.27,3.1587e-05,23.505,2.8458e-05,-0.0036825,-8.9366e-05,-885.29,1.8407
20799,19.773,0.63636,0,9.1859e-05,917.95,3.2178e-05,22.397,2.9197e-05,-0.0049762,-9.1457e-05,-906.55,1.8266
20800,19.773,0.72727,0.05,7.3338e-07,7.3287,5.6314e-07,4.2313,-1.3107e-12,2.9397e-06,-5.6314e-07,-4.2312,1.8267
20801,20.048,0.72727,0,8.5735e-05,856.76,3.0374e-05,25.017,2.7044e-05,-0.0038734,-8.5283e-05,-843.98,1.8687
20802,19.956,0.63636,0,8.7785e-05,877.25,3.0946e-05,23.752,2.7784e-05,-0.0053087,-8.7357e-05,-865.13,1.8546
20803,19.956,0.72727,0.05,7.3075e-07,7.3025,5.6113e-07,4.2161,-1.1299e-12,3.3729e-06,-5.6113e-07,-4.2161,1.8547
20804,20.232,0.72727,0,8.1702e-05,816.45,2.9171e-05,26.564,2.5635e-05,-0.0040304,-8.1217e-05,-802.85,1.8967
20805,20.14,0.63636,0,8.3731e-05,836.73,2.9722e-05,25.133,2.6376e-05,-0.005614,-8.3275e-05,-823.88,1.8826
20806,20.14,0.72727,0.05,7.2825e-07,7.2775,5.5921e-07,4.2017,-5.866e-13,4.3111e-06,-5.5921e-07,-4.2017,1.8827
20807,20.416,0.72727,0,7.7688e-05,776.34,2.7977e-05,28.152,2.4229e-05,-0.004154,-7.717e-05,-761.88,1.9248
20808,20.324,0.63636,0,7.9695e-05,796.4,2.8506e-05,26.543,2.4973e-05,-0.0059022,-7.921e-05,-782.8,1.9107
20809,20.324,0.72727,0.05,7.2589e-07,7.2539,5.574e-07,4.1881,-3.3612e-13,8.6456e-06,-5.574e-07,-4.188,1.9108
20810,20.6,0.72727,0,7.3693e-05,736.42,2.6793e-05,29.789,2.2828e-05,-0.004234,-7.3141e-05,-721.08,1.953
20811,20.508,0.63636,0,7.5677e-05,756.25,2.73e-05,27.989,2.3574e-05,-0.0061682,-7.5163e-05,-741.87,1.9388
20812,20.508,0.72727,0.05,7.2367e-07,7.2318,5.5569e-07,4.1753,1.8297e-14,1.078e-05,-5.5569e-07,-4.1752,1.9389
20813,20.784,0.72727,0,6.9719e-05,696.71,2.562e-05,31.482,2.143e-05,-0.0042656,-6.913e-05,-680.44,1.9812
20814,20.692,0.63636,0,7.1679e-05,716.3,2.6103e-05,29.477,2.2179e-05,-0.0064012,-7.1133e-05,-701.11,1.9669
20815,20.692,0.72727,0.05,7.2161e-07,7.2111,5.5411e-07,4.1633,2.9436e-14,1.2781e-05,-5.541e-07,-4.1633,1.967
20816,20.967,0.72727,0,6.5766e-05,657.21,2.446e-05,33.241,2.0035e-05,-0.0042341,-6.5137e-05,-639.96,2.0094
20817,20.875,0.63636,0,6.7701e-05,676.54,2.4915e-05,31.013,2.0787e-05,-0.0066085,-6.712e-05,-660.5,1.9952
20818,20.875,0.72727,0.05,7.197e-07,7.192,5.5264e-07,4.1523,2.9624e-13,1.2038e-05,-5.5264e-07,-4.1523,1.9953
20819,21.151,0.72727,0,6.1834e-05,617.92,2.3312e-05,35.076,1.8643e-05,-0.0041029,-6.1163e-05,-599.63,2.0377
20820,21.059,0.63636,0,6.3742e-05,636.98,2.3739e-05,32.604,1.9399e-05,-0.0067586,-6.3125e-05,-620.05,2.0234
20821,21.059,0.72727,0.05,7.1795e-07,7.1745,5.513e-07,4.1422,8.0336e-14,1.1367e-05,-5.513e-07,-4.1422,2.0235
20822,21.335,0.72727,0,5.7925e-05,578.85,2.2178e-05,36.997,1.7253e-05,-0.0038384,-5.7207e-05,-559.47,2.066
20823,21.243,0.63636,0,5.9803e-05,597.62,2.2574e-05,34.26,1.8013e-05,-0.0068209,-5.9147e-05,-579.76,2.0517
20824,21.243,0.72727,0.05,7.1638e-07,7.1589,5.5009e-07,4.1332,2.5126e-14,9.9688e-06,-5.5009e-07,-4.1332,2.0518
20825,21.519,0.72727,0,5.404e-05,540.03,2.1059e-05,39.018,1.5865e-05,-0.0033997,-5.327e-05,-519.46,2.0944
20826,21.427,0.63636,0,5.5886e-05,558.47,2.1421e-05,35.99,1.663e-05,-0.0067661,-5.5187e-05,-539.61,2.0801
20827,21.427,0.72727,0.05,7.15e-07,7.1451,5.4903e-07,4.1252,-1.146e-13,7.7232e-06,-5.4903e-07,-4.1252,2.0802
20828,21.703,0.72727,0,5.0181e-05,501.46,1.9957e-05,41.157,1.4479e-05,-0.0027264,-4.9354e-05,-479.61,2.1228
20829,21.611,0.63636,0,5.1991e-05,519.55,2.0282e-05,37.805,1.525e-05,-0.0065533,-5.1245e-05,-499.62,2.1085
20830,21.611,0.72727,0.05,7.1384e-07,7.1335,5.4814e-07,4.1185,-8.1402e-14,4.7683e-06,-5.4814e-07,-4.1185,2.1085
20831,21.886,0.72727,0,4.635e-05,463.18,1.8874e-05,43.434,1.3093e-05,-0.0017375,-4.5458e-05,-439.93,2.1512
20832,21.794,0.63636,0,4.8121e-05,480.88,1.9158e-05,39.72,1.3871e-05,-0.0061218,-4.7322e-05,-459.79,2.1369
20833,21.794,0.72727,0.05,7.1291e-07,7.1242,5.4742e-07,4.1131,-8.3978e-13,1.1954e-06,-5.4742e-07,-4.1131,2.137
20834,22.07,0.72727,0,4.2552e-05,425.23,1.7814e-05,45.875,1.1708e-05,-0.00030782,-4.1585e-05,-400.43,2.1796
20835,21.978,0.63636,0,4.4277e-05,442.47,1.8052e-05,41.753,1.2494e-05,-0.0053847,-4.3419e-05,-420.11,2.1653
20836,21.978,0.72727,0.05,7.1224e-07,7.1175,5.4691e-07,4.1093,-7.0207e-13,-3.2341e-06,-5.4691e-07,-4.1093,2.1654
20837,22.254,0.72727,0,3.8792e-05,387.65,1.678e-05,48.515,1.0323e-05,0.0017528,-3.7738e-05,-361.11,2.2081
20838,22.162,0.63636,0,4.0465e-05,404.37,1.6965e-05,43.93,1.1118e-05,-0.004196,-3.9538e-05,-380.61,2.1938
20839,22.162,0.72727,0.05,7.1188e-07,7.1139,5.4664e-07,4.1072,-4.7265e-13,-2.2418e-06,-5.4664e-07,-4.1072,2.1939
20840,22.438,0.72727,0,3.5078e-05,350.54,1.5777e-05,51.401,8.9364e-06,0.004732,-3.392e-05,-322,2.2366
20841,22.346,0.63636,0,3.6689e-05,366.63,1.5902e-05,46.282,9.7419e-06,-0.0023496,-3.5681e-05,-341.3,2.2223
20842,22.346,0.72727,0.05,7.119e-07,7.1141,5.4665e-07,4.1073,1.314e-13,2.0389e-06,-5.4665e-07,-4.1073,2.2224
20843,22.622,0.72727,0,3.1422e-05,314,1.4813e-05,54.598,7.5474e-06,0.0089904,-3.0135e-05,-283.12,2.2652
20844,22.53,0.63636,0,3.2957e-05,329.35,1.4868e-05,48.857,8.3658e-06,0.00050335,-3.1853e-05,-302.19,2.2508
20845,22.53,0.72727,0.05,7.124e-07,7.1191,5.4703e-07,4.1102,-2.9626e-14,1.1163e-06,-5.4703e-07,-4.1102,2.2509
20846,22.805,0.72727,0,2.7841e-05,278.22,1.3898e-05,58.194,6.1544e-06,0.015433,-2.6391e-05,-244.52,2.2937
20847,22.713,0.63636,0,2.9283e-05,292.63,1.3871e-05,51.718,6.9882e-06,0.0047238,-2.8058e-05,-263.32,2.2794
20848,22.713,0.72727,0.05,7.1355e-07,7.1306,5.4792e-07,4.1168,-4.5262e-13,-4.2648e-06,-5.4792e-07,-4.1168,2.2794
20849,22.989,0.72727,0,2.4362e-05,243.46,1.3045e-05,62.315,4.7551e-06,0.024315,-2.2696e-05,-206.24,2.3223
20850,22.897,0.63636,0,2.5685e-05,256.68,1.2921e-05,54.96,5.6078e-06,0.011748,-2.4305e-05,-224.74,2.3079
20851,22.897,0.72727,0.05,7.1563e-07,7.1514,5.4952e-07,4.1289,-5.5915e-13,-1.2483e-06,-5.4952e-07,-4.1288,2.308
20852,23.173,0.72727,0,2.1027e-05,210.12,1.2276e-05,67.137,3.3461e-06,0.041237,-1.9064e-05,-168.34,2.3509
20853,23.081,0.63636,0,2.2195e-05,221.79,1.2035e-05,58.724,4.2221e-06,0.020759,-2.0604e-05,-186.52,2.3365
20854,23.081,0.72727,0.05,7.1912e-07,7.1863,5.522e-07,4.149,-1.8341e-13,4.3603e-06,-5.522e-07,-4.149,2.3366
20855,23.357,0.72727,0,1.7898e-05,178.85,1.1614e-05,72.889,1.921e-06,0.05693,-1.5507e-05,-130.89,2.3795
20856,23.265,0.63636,0,1.8861e-05,188.48,1.1237e-05,63.222,2.8282e-06,0.043934,-1.6973e-05,-148.73,2.3651
20857,23.265,0.72727,0.05,7.2486e-07,7.2436,5.566e-07,4.1821,3.1182e-13,5.405e-06,-5.566e-07,-4.1821,2.3651
20858,23.541,0.72727,0,1.5077e-05,150.66,1.109e-05,79.878,4.7659e-07,0.13666,-1.2038e-05,-93.896,2.4081
20859,23.449,0.63636,0,1.5767e-05,157.56,1.056e-05,68.746,1.417e-06,0.050814,-1.343e-05,-111.5,2.3937
20860,23.449,0.72727,0.05,7.342e-07,7.3369,5.6377e-07,4.236,4.823e-14,9.9319e-06,-5.6377e-07,-4.236,2.3937
20861,23.724,0.72727,0,1.2727e-05,127.18,1.0737e-05,88.387,-1.0142e-06,0.094535,-8.6646e-06,-57.388,2.4367
20862,23.632,0.63636,0,1.3055e-05,130.46,1.0048e-05,75.765,-8.547e-09,0.2065,-1.0002e-05,-74.881,2.4223
20863,23.632,0.72727,0.05,7.503e-07,7.4978,5.7614e-07,4.3289,5.534e-13,1.1047e-05,-5.7614e-07,-4.3289,2.4223
20864,23.816,0.63636,0,1.0961e-05,109.53,9.7613e-06,84.663,-1.5062e-06,0.0032115,-6.7028e-06,-39.041,2.4509
20865,23.816,0.72727,0.05,7.9283e-07,7.9228,6.0879e-07,4.5742,7.6014e-13,9.7636e-06,-6.0879e-07,-4.5742,2.451
20866,23.908,0.72727,0,1.0977e-05,109.69,1.0428e-05,97,-2.4316e-06,0.37419,-5.4403e-06,-22.232,2.4653
20867,11.042,0.54545,0,0.0001208,1207.2,5.9423e-05,238.41,2.702e-05,-5.0543,-0.00011497,-1071.9,0.61788
20868,10.95,0.45455,0,0.00010323,1031.6,5.4528e-05,250.14,2.0248e-05,-7.4276,-9.6656e-05,-885.8,0.60617
20869,10.95,0.54545,0.05,7.5305e-06,75.254,5.7825e-06,43.448,-1.011e-12,1.2418e-06,-5.7825e-06,-43.448,0.60664
20870,10.859,0.54545,0,9.7086e-05,970.19,5.1657e-05,244.85,1.9272e-05,1.5191,-9.0577e-05,-823.84,0.59547
20871,11.226,0.54545,0,0.00013452,1344.3,5.6747e-05,148.76,3.6578e-05,-2.7825,-0.00013139,-1264.9,0.64032
20872,11.134,0.45455,0,0.00011372,1136.4,4.8871e-05,136.41,3.0291e-05,-3.1929,-0.00011081,-1063.4,0.62861
20873,11.134,0.54545,0.05,5.9353e-06,59.313,4.5576e-06,34.244,5.2655e-14,5.3004e-06,-4.5576e-06,-34.244,0.62906
20874,11.41,0.54545,0,0.00015561,1555.1,6.1228e-05,118.21,4.5189e-05,-2.3023,-0.00015329,-1493.6,0.66282
20875,11.318,0.45455,0,0.0001366,1365,5.3979e-05,106.08,3.9468e-05,-2.957,-0.00013452,-1310.2,0.6511
20876,11.318,0.54545,0.05,5.2984e-06,52.948,4.0685e-06,30.569,2.1386e-13,7.186e-06,-4.0685e-06,-30.569,0.65153
20877,11.594,0.54545,0,0.00017615,1760.3,6.6801e-05,103.83,5.2785e-05,-1.4788,-0.00017417,-1706.8,0.6854
20878,11.502,0.45455,0,0.00015992,1598.1,6.0797e-05,95.945,4.7808e-05,-1.6527,-0.00015809,-1548.7,0.67367
20879,11.502,0.54545,0.05,4.5401e-06,45.37,3.4863e-06,26.194,4.2653e-13,8.1545e-06,-3.4863e-06,-26.194,0.67407
20880,11.778,0.54545,0,0.00019382,1936.8,7.1748e-05,93.302,5.9196e-05,-1.0085,-0.00019207,-1888.9,0.7081
20881,11.686,0.45455,0,0.00018045,1803.3,6.7016e-05,89.417,5.4975e-05,-1.058,-0.00017878,-1757.4,0.69632
20882,11.686,0.54545,0.05,3.757e-06,37.544,2.8849e-06,21.676,7.8002e-13,7.7985e-06,-2.8849e-06,-21.676,0.69671
20883,11.961,0.54545,0,0.00020801,2078.7,7.5568e-05,82.945,6.4436e-05,-0.69776,-0.00020649,-2036.3,0.73091
20884,11.869,0.45455,0,0.00019733,1972,7.1977e-05,82.174,6.0949e-05,-0.68659,-0.00019582,-1929.9,0.71909
20885,11.869,0.54545,0.05,3.0156e-06,30.135,2.3156e-06,17.398,2.4805e-13,7.8319e-06,-2.3156e-06,-17.398,0.71946
20886,12.145,0.54545,0,0.00021885,2187,7.8231e-05,71.991,6.8583e-05,-0.50583,-0.00021754,-2150.4,0.75386
20887,12.053,0.45455,0,0.00021056,2104.1,7.5613e-05,73.436,6.5775e-05,-0.48327,-0.00020922,-2066.7,0.74199
20888,12.053,0.54545,0.05,2.3532e-06,23.515,1.8069e-06,13.577,5.4273e-13,3.7804e-06,-1.8069e-06,-13.577,0.74234
20889,12.329,0.54545,0,0.0002267,2265.5,7.9884e-05,60.711,7.1753e-05,-0.38002,-0.00022562,-2234.7,0.77695
20890,12.237,0.45455,0,0.00022048,2203.2,7.807e-05,63.651,6.9551e-05,-0.3553,-0.00021933,-2170.9,0.76502
20891,12.237,0.54545,0.05,1.7832e-06,17.82,1.3693e-06,10.288,5.7335e-13,3.1615e-06,-1.3693e-06,-10.288,0.76536
20892,12.513,0.54545,0,0.00023203,2318.7,8.0716e-05,49.608,7.4074e-05,-0.29721,-0.00023115,-2293.6,0.80019
20893,12.421,0.45455,0,0.00022754,2273.8,7.9556e-05,53.507,7.2399e-05,-0.27189,-0.00022658,-2246.7,0.7882
20894,12.421,0.54545,0.05,1.3063e-06,13.054,1.0031e-06,7.5367,5.9373e-13,1.2289e-05,-1.0031e-06,-7.5367,0.78852
20895,12.697,0.54545,0,0.00023526,2351,8.0911e-05,39.13,7.5671e-05,-0.24298,-0.00023458,-2331.3,0.82359
20896,12.605,0.45455,0,0.00023222,2320.6,8.0276e-05,43.61,7.4443e-05,-0.21444,-0.00023145,-2298.6,0.81152
20897,12.605,0.54545,0.05,9.1772e-07,9.1709,7.047e-07,5.2948,1.2626e-12,6.4914e-06,-7.047e-07,-5.2948,0.81184
20898,12.88,0.54545,0,0.00023681,2366.4,8.0625e-05,29.594,7.6658e-05,-0.20989,-0.00023629,-2351.6,0.84714
20899,12.788,0.45455,0,0.00023494,2347.8,8.0406e-05,34.391,7.5806e-05,-0.17438,-0.00023434,-2330.5,0.83501
20900,12.788,0.54545,0.05,6.137e-07,6.1327,4.7124e-07,3.5408,2.0757e-12,3.2544e-05,-4.7124e-07,-3.5407,0.83532
20901,13.064,0.54545,0,0.00023699,2368.3,7.9985e-05,21.182,7.714e-05,-0.19501,-0.00023663,-2357.7,0.87085
20902,12.972,0.45455,0,0.00023608,2359.2,8.0093e-05,26.112,7.6598e-05,-0.14713,-0.00023563,-2346.1,0.85864
20903,12.972,0.54545,0.05,4.0003e-07,3.9975,3.0717e-07,2.308,2.8312e-12,5.1878e-05,-3.0717e-07,-2.308,0.85895
20904,13.248,0.54545,0,0.0002361,2359.4,7.909e-05,13.973,7.7204e-05,-0.20114,-0.00023586,-2352.5,0.89472
20905,13.156,0.45455,0,0.00023596,2358,7.9452e-05,18.903,7.6919e-05,-0.13085,-0.00023564,-2348.6,0.88244
20906,13.156,0.54545,0.05,3.0221e-07,3.02,2.3206e-07,1.7436,1.7091e-12,6.0204e-05,-2.3206e-07,-1.7436,0.88274
20907,13.432,0.54545,0,0.00023436,2342,7.8018e-05,7.9803,7.6924e-05,-0.24609,-0.00023423,-2338.1,0.91875
20908,13.34,0.45455,0,0.00023484,2346.8,7.8571e-05,12.797,7.6852e-05,-0.12629,-0.00023462,-2340.4,0.9064
20909,13.34,0.54545,0.05,3.2387e-07,3.2365,2.487e-07,1.8686,1.6955e-12,3.2722e-05,-2.4869e-07,-1.8686,0.90669
20910,13.616,0.54545,0,0.00023196,2318,7.684e-05,3.2514,7.635e-05,-0.43438,-0.00023191,-2316.6,0.94294
20911,13.524,0.45455,0,0.00023292,2327.6,7.752e-05,7.768,7.6468e-05,-0.13973,-0.00023279,-2323.8,0.93051
20912,13.524,0.54545,0.05,3.9951e-07,3.9923,3.0677e-07,2.305,1.023e-12,-6.6437e-06,-3.0677e-07,-2.3049,0.9308
20913,13.799,0.54545,0,0.00022905,2288.9,7.572e-05,0.61881,7.5413e-05,-1.6885,-0.00022906,-2289.4,0.96728
20914,13.707,0.45455,0,0.00023039,2302.3,7.6354e-05,3.7755,7.5824e-05,-0.20131,-0.00023033,-2300.5,0.95478
20915,13.707,0.54545,0.05,4.8035e-07,4.8002,3.6885e-07,2.7714,-1.4932e-12,-5.6786e-06,-3.6885e-07,-2.7714,0.95507
20916,13.983,0.54545,0,0.00022573,2255.8,7.4717e-05,0.1878,7.413e-05,-4.2204,-0.0002258,-2257.8,0.99178
20917,13.891,0.45455,0,0.00022737,2272.2,7.5144e-05,0.98373,7.4937e-05,-0.56939,-0.00022737,-2272,0.97921
20918,13.891,0.54545,0.05,5.515e-07,5.5112,4.2348e-07,3.1819,-1.8325e-12,-3.0614e-06,-4.2348e-07,-3.1819,0.97949
20919,14.167,0.54545,0,0.00022212,2219.6,7.3618e-05,0.097594,7.2768e-05,-6.2822,-0.00022222,-2222.7,1.0164
20920,14.075,0.45455,0,0.00022399,2238.3,7.4039e-05,0.20152,7.3725e-05,-2.1557,-0.00022402,-2239.3,1.0038
20921,14.075,0.54545,0.05,6.1021e-07,6.0979,4.6857e-07,3.5207,-1.6994e-12,4.0184e-06,-4.6857e-07,-3.5206,1.0041
20922,14.351,0.54545,0,0.00021827,2181.2,7.2415e-05,0.062383,7.1382e-05,-7.6998,-0.0002184,-2185,1.0412
20923,14.259,0.45455,0,0.00022031,2201.6,7.2896e-05,0.094094,7.2387e-05,-3.7299,-0.00022037,-2203.4,1.0285
20924,14.259,0.54545,0.05,6.5719e-07,6.5674,5.0464e-07,3.7917,-1.5741e-12,3.0782e-06,-5.0464e-07,-3.7917,1.0288
20925,14.534,0.54545,0,0.00021425,2141,7.1128e-05,0.044352,6.9986e-05,-8.541,-0.00021439,-2145.2,1.0662
20926,14.443,0.45455,0,0.00021642,2162.7,7.1662e-05,0.06067,7.1016e-05,-4.7911,-0.0002165,-2165.1,1.0534
20927,14.443,0.54545,0.05,6.9403e-07,6.9355,5.3293e-07,4.0042,1.3445e-14,2.9715e-06,-5.3293e-07,-4.0042,1.0537
20928,14.718,0.54545,0,0.0002101,2099.5,6.9775e-05,0.033622,6.8587e-05,-8.8934,-0.00021025,-2103.9,1.0913
20929,14.626,0.45455,0,0.00021237,2122.2,7.0352e-05,0.045197,6.963e-05,-5.3759,-0.00021246,-2124.9,1.0784
20930,14.626,0.54545,0.05,7.2242e-07,7.2193,5.5473e-07,4.1681,-2.6707e-12,6.1066e-06,-5.5473e-07,-4.168,1.0787
20931,14.902,0.54545,0,0.00020585,2057.1,6.8371e-05,0.026566,6.7191e-05,-8.8408,-0.000206,-2061.5,1.1165
20932,14.81,0.45455,0,0.0002082,2080.5,6.8983e-05,0.036351,6.8238e-05,-5.5572,-0.00020829,-2083.3,1.1036
20933,14.81,0.54545,0.05,7.4394e-07,7.4343,5.7126e-07,4.2922,-7.8911e-13,3.3653e-06,-5.7125e-07,-4.2922,1.1038
20934,15.086,0.54545,0,0.00020154,2014,6.6929e-05,0.021586,6.58e-05,-8.4587,-0.00020168,-2018.2,1.1419
20935,14.994,0.45455,0,0.00020393,2037.9,6.7568e-05,0.030527,6.6844e-05,-5.4056,-0.00020402,-2040.6,1.1289
20936,14.994,0.54545,0.05,7.5991e-07,7.5939,5.8352e-07,4.3844,-1.7758e-12,4.896e-06,-5.8352e-07,-4.3843,1.1291
20937,15.27,0.54545,0,0.00019718,1970.5,6.5458e-05,0.01786,6.4416e-05,-7.8133,-0.00019731,-1974.3,1.1674
20938,15.178,0.45455,0,0.0001996,1994.7,6.6119e-05,0.026266,6.5452e-05,-4.9847,-0.00019969,-1997.1,1.1543
20939,15.178,0.54545,0.05,7.7146e-07,7.7092,5.9238e-07,4.451,2.8685e-14,3.0586e-06,-5.9238e-07,-4.4509,1.1546
20940,15.453,0.54545,0,0.00019279,1926.6,6.3967e-05,0.014949,6.3038e-05,-6.9612,-0.00019291,-1930,1.193
20941,15.362,0.45455,0,0.00019523,1951,6.4644e-05,0.022853,6.4062e-05,-4.3497,-0.00019531,-1953.1,1.1799
20942,15.362,0.54545,0.05,7.7948e-07,7.7894,5.9855e-07,4.4973,-1.7758e-12,4.2263e-06,-5.9854e-07,-4.4972,1.1802
20943,15.637,0.54545,0,0.00018838,1882.5,6.2461e-05,0.012645,6.1668e-05,-5.9503,-0.00018848,-1885.5,1.2188
20944,15.545,0.45455,0,0.00019083,1907,6.3152e-05,0.019983,6.2678e-05,-3.5474,-0.00019089,-1908.8,1.2056
20945,15.545,0.54545,0.05,7.8472e-07,7.8418,6.0257e-07,4.5275,-1.8092e-12,4.4399e-06,-6.0257e-07,-4.5274,1.2059
20946,15.821,0.54545,0,0.00018396,1838.3,6.0947e-05,0.010815,6.0304e-05,-4.8208,-0.00018404,-1840.7,1.2447
20947,15.729,0.45455,0,0.00018642,1862.9,6.1648e-05,0.017507,6.1298e-05,-2.6174,-0.00018646,-1864.2,1.2315
20948,15.729,0.54545,0.05,7.8777e-07,7.8723,6.0492e-07,4.5451,-1.3141e-12,3.3284e-06,-6.0491e-07,-4.5451,1.2317
20949,16.005,0.54545,0,0.00017954,1794.2,5.9427e-05,0.0093937,5.8946e-05,-3.6057,-0.0001796,-1795.9,1.2707
20950,15.913,0.45455,0,0.00018199,1818.6,6.0137e-05,0.015302,5.9923e-05,-1.5925,-0.00018202,-1819.4,1.2574
20951,15.913,0.54545,0.05,7.8914e-07,7.8859,6.0596e-07,4.553,-8.9165e-13,6.0193e-06,-6.0596e-07,-4.5529,1.2577
20952,16.189,0.54545,0,0.00017512,1750,5.7906e-05,0.0084787,5.7594e-05,-2.3319,-0.00017516,-1751.1,1.2969
20953,16.097,0.45455,0,0.00017756,1774.4,5.8622e-05,0.013375,5.8553e-05,-0.49966,-0.00017757,-1774.6,1.2835
20954,16.097,0.54545,0.05,7.892e-07,7.8865,6.0601e-07,4.5533,-8.6958e-13,3.9914e-06,-6.06e-07,-4.5533,1.2837
20955,16.372,0.54545,0,0.00017071,1705.9,5.6385e-05,0.0090653,5.6247e-05,-1.022,-0.00017072,-1706.4,1.3231
20956,16.281,0.45455,0,0.00017314,1730.2,5.7189e-05,0.63988,5.7105e-05,0.011221,-0.00017313,-1729.9,1.3097
20957,16.281,0.54545,0.05,7.8825e-07,7.8771,6.0528e-07,4.5479,-1.315e-12,6.0389e-07,-6.0528e-07,-4.5478,1.3099
20958,16.556,0.54545,0,0.0001663,1661.9,5.4908e-05,0.32425,5.4864e-05,-0.0060212,-0.0001663,-1661.7,1.3495
20959,16.464,0.45455,0,0.00016872,1686.1,5.5829e-05,1.808,5.559e-05,0.0094954,-0.00016869,-1685.2,1.336
20960,16.464,0.54545,0.05,7.8655e-07,7.8601,6.0397e-07,4.538,-1.3359e-12,1.6494e-07,-6.0397e-07,-4.538,1.3363
20961,16.74,0.54545,0,0.00016191,1618,5.3569e-05,1.6557,5.3349e-05,0.0015421,-0.00016188,-1617.2,1.376
20962,16.648,0.45455,0,0.00016432,1642,5.4474e-05,2.9916,5.4077e-05,0.0078239,-0.00016427,-1640.5,1.3625
20963,16.648,0.54545,0.05,7.8426e-07,7.8372,6.0222e-07,4.5248,-1.758e-12,6.752e-07,-6.0221e-07,-4.5248,1.3627
20964,16.924,0.54545,0,0.00015754,1574.3,5.2237e-05,2.9927,5.1838e-05,0.0015603,-0.00015748,-1572.8,1.4026
20965,16.832,0.45455,0,0.00015992,1598.1,5.3124e-05,4.1803,5.2568e-05,0.0062535,-0.00015985,-1596,1.389
20966,16.832,0.54545,0.05,7.8155e-07,7.8101,6.0014e-07,4.5092,-9.0802e-13,2.6807e-06,-6.0013e-07,-4.5092,1.3892
20967,17.108,0.54545,0,0.00015317,1530.7,5.0908e-05,4.3211,5.0333e-05,0.0010911,-0.0001531,-1528.5,1.4293
20968,17.016,0.45455,0,0.00015554,1554.4,5.1778e-05,5.3665,5.1064e-05,0.0047631,-0.00015545,-1551.7,1.4157
20969,17.016,0.54545,0.05,7.7854e-07,7.78,5.9782e-07,4.4918,-9.0626e-13,3.2513e-06,-5.9782e-07,-4.4917,1.4159
20970,17.291,0.54545,0,0.00014883,1487.2,4.9584e-05,5.6358,4.8833e-05,0.00052464,-0.00014873,-1484.4,1.4561
20971,17.2,0.45455,0,0.00015118,1510.8,5.0436e-05,6.5444,4.9565e-05,0.0033454,-0.00015107,-1507.5,1.4424
20972,17.2,0.54545,0.05,7.7531e-07,7.7478,5.9535e-07,4.4732,-4.5299e-13,6.7236e-06,-5.9534e-07,-4.4732,1.4426
20973,17.475,0.54545,0,0.0001445,1444,4.8263e-05,6.9336,4.734e-05,-7.2741e-05,-0.00014438,-1440.5,1.483
20974,17.383,0.45455,0,0.00014683,1467.3,4.9099e-05,7.7104,4.8073e-05,0.0019868,-0.0001467,-1463.5,1.4693
20975,17.383,0.54545,0.05,7.7196e-07,7.7142,5.9277e-07,4.4538,-1.3611e-12,7.7004e-06,-5.9276e-07,-4.4538,1.4695
20976,17.659,0.54545,0,0.00014019,1400.9,4.6947e-05,8.213,4.5854e-05,-0.00067648,-0.00014004,-1396.8,1.51
20977,17.567,0.45455,0,0.0001425,1424.1,4.7766e-05,8.8622,4.6587e-05,0.00065073,-0.00014235,-1419.6,1.4963
20978,17.567,0.54545,0.05,7.6851e-07,7.6798,5.9012e-07,4.434,-4.5338e-13,7.9846e-06,-5.9012e-07,-4.4339,1.4964
20979,17.843,0.54545,0,0.00013589,1358,4.5635e-05,9.4737,4.4374e-05,-0.0012526,-0.00013573,-1353.2,1.5371
20980,17.751,0.45455,0,0.00013819,1381,4.6438e-05,9.9987,4.5107e-05,-0.00064408,-0.00013802,-1375.9,1.5233
20981,17.751,0.54545,0.05,7.6502e-07,7.6449,5.8744e-07,4.4138,4.7648e-15,5.0016e-06,-5.8744e-07,-4.4138,1.5235
20982,18.027,0.54545,0,0.00013162,1315.2,4.4328e-05,10.716,4.2901e-05,-0.0017957,-0.00013143,-1309.9,1.5642
20983,17.935,0.45455,0,0.0001339,1338.1,4.5115e-05,11.12,4.3634e-05,-0.0018757,-0.00013371,-1332.5,1.5504
20984,17.935,0.54545,0.05,7.6152e-07,7.61,5.8475e-07,4.3936,-4.5328e-13,4.8759e-06,-5.8475e-07,-4.3936,1.5506
20985,18.21,0.54545,0,0.00012736,1272.7,4.3025e-05,11.943,4.1435e-05,-0.0023164,-0.00012715,-1266.7,1.5915
20986,18.119,0.45455,0,0.00012962,1295.3,4.3796e-05,12.226,4.2168e-05,-0.0030696,-0.00012941,-1289.2,1.5777
20987,18.119,0.54545,0.05,7.5804e-07,7.5752,5.8208e-07,4.3735,-9.0946e-13,2.5579e-06,-5.8208e-07,-4.3735,1.5779
20988,18.394,0.54545,0,0.00012312,1230.3,4.1726e-05,13.155,3.9975e-05,-0.0028204,-0.00012289,-1223.7,1.6189
20989,18.302,0.45455,0,0.00012537,1252.8,4.2482e-05,13.32,4.0709e-05,-0.0042394,-0.00012513,-1246.1,1.605
20990,18.302,0.54545,0.05,7.546e-07,7.5408,5.7944e-07,4.3537,-9.1317e-13,1.2315e-06,-5.7944e-07,-4.3537,1.6052
20991,18.578,0.54545,0,0.0001189,1188.1,4.0433e-05,14.354,3.8522e-05,-0.0033242,-0.00011865,-1180.9,1.6463
20992,18.486,0.45455,0,0.00012113,1210.4,4.1173e-05,14.401,3.9256e-05,-0.0053901,-0.00012087,-1203.2,1.6324
20993,18.486,0.54545,0.05,7.5123e-07,7.5071,5.7685e-07,4.3342,-9.0875e-13,1.4017e-06,-5.7685e-07,-4.3342,1.6326
20994,18.762,0.54545,0,0.00011469,1146.1,3.9145e-05,15.545,3.7076e-05,-0.0038301,-0.00011442,-1138.3,1.6738
20995,18.67,0.45455,0,0.00011691,1168.2,3.9869e-05,15.473,3.7809e-05,-0.0065544,-0.00011663,-1160.4,1.6599
20996,18.67,0.54545,0.05,7.4792e-07,7.474,5.7431e-07,4.3152,-9.1681e-13,3.6233e-06,-5.7431e-07,-4.3151,1.66
20997,18.946,0.54545,0,0.00011051,1104.3,3.7863e-05,16.73,3.5636e-05,-0.0043188,-0.00011021,-1095.9,1.7014
20998,18.854,0.45455,0,0.0001127,1126.3,3.8571e-05,16.537,3.6369e-05,-0.0077173,-0.00011241,-1117.9,1.6874
20999,18.854,0.54545,0.05,7.4469e-07,7.4417,5.7183e-07,4.2965,-9.3066e-13,3.2124e-06,-5.7183e-07,-4.2965,1.6876
21000,19.129,0.54545,0,0.00010634,1062.7,3.6586e-05,17.913,3.4202e-05,-0.0047926,-0.00010603,-1053.6,1.7291
21001,19.038,0.45455,0,0.00010852,1084.4,3.7279e-05,17.597,3.4936e-05,-0.0088624,-0.00010821,-1075.5,1.7151
21002,19.038,0.54545,0.05,7.4153e-07,7.4102,5.6941e-07,4.2783,-4.5058e-13,4.2017e-06,-5.6941e-07,-4.2783,1.7152
21003,19.313,0.54545,0,0.0001022,1021.2,3.5316e-05,19.096,3.2774e-05,-0.0052599,-0.00010186,-1011.6,1.7568
21004,19.221,0.45455,0,0.00010435,1042.8,3.5992e-05,18.654,3.3508e-05,-0.010016,-0.00010402,-1033.4,1.7428
21005,19.221,0.54545,0.05,7.3848e-07,7.3797,5.6706e-07,4.2607,-1.357e-12,1.5744e-06,-5.6706e-07,-4.2607,1.7429
21006,19.497,0.54545,0,9.8066e-05,979.98,3.4052e-05,20.284,3.1351e-05,-0.0057259,-9.7705e-05,-969.69,1.7846
21007,19.405,0.45455,0,0.00010021,1001.4,3.4711e-05,19.712,3.2086e-05,-0.011181,-9.9857e-05,-991.38,1.7706
21008,19.405,0.54545,0.05,7.3553e-07,7.3502,5.648e-07,4.2437,-8.8886e-13,3.2665e-06,-5.648e-07,-4.2436,1.7707
21009,19.681,0.54545,0,9.3955e-05,938.9,3.2794e-05,21.481,2.9934e-05,-0.006203,-9.3571e-05,-927.98,1.8125
21010,19.589,0.45455,0,9.6078e-05,960.11,3.3436e-05,20.774,3.067e-05,-0.012373,-9.5708e-05,-949.56,1.7984
21011,19.589,0.54545,0.05,7.3269e-07,7.3219,5.6262e-07,4.2273,-1.3606e-12,2.8742e-06,-5.6262e-07,-4.2273,1.7985
21012,19.865,0.54545,0,8.9862e-05,898,3.1544e-05,22.69,2.8523e-05,-0.0066894,-8.9455e-05,-886.44,1.8404
21013,19.773,0.45455,0,9.1966e-05,919.03,3.2168e-05,21.842,2.9259e-05,-0.013614,-9.1575e-05,-907.92,1.8263
21014,19.773,0.54545,0.05,7.2997e-07,7.2946,5.6052e-07,4.2116,-1.0666e-12,4.8907e-07,-5.6052e-07,-4.2115,1.8264
21015,20.048,0.54545,0,8.5787e-05,857.28,3.03e-05,23.916,2.7116e-05,-0.007169,-8.5356e-05,-845.08,1.8684
21016,19.956,0.45455,0,8.7873e-05,878.12,3.0906e-05,22.919,2.7854e-05,-0.014891,-8.7461e-05,-866.44,1.8543
21017,19.956,0.54545,0.05,7.2735e-07,7.2685,5.5852e-07,4.1965,-1.0847e-12,3.1549e-06,-5.5851e-07,-4.1964,1.8544
21018,20.232,0.54545,0,8.1731e-05,816.74,2.9064e-05,25.161,2.5715e-05,-0.0076421,-8.1274e-05,-803.88,1.8965
21019,20.14,0.45455,0,8.3797e-05,837.39,2.9651e-05,24.009,2.6454e-05,-0.0162,-8.3363e-05,-825.13,1.8823
21020,20.14,0.54545,0.05,7.2486e-07,7.2436,5.566e-07,4.1821,-3.3741e-13,6.6001e-06,-5.566e-07,-4.1821,1.8824
21021,20.416,0.54545,0,7.7692e-05,776.39,2.7836e-05,26.432,2.4317e-05,-0.0081141,-7.7209e-05,-762.84,1.9246
21022,20.324,0.45455,0,7.9738e-05,796.83,2.8403e-05,25.113,2.5058e-05,-0.017559,-7.9282e-05,-783.99,1.9104
21023,20.324,0.54545,0.05,7.225e-07,7.22,5.5479e-07,4.1685,9.3684e-14,8.3991e-06,-5.5479e-07,-4.1684,1.9105
21024,20.6,0.54545,0,7.3672e-05,736.21,2.6616e-05,27.731,2.2924e-05,-0.0085803,-7.3161e-05,-721.96,1.9527
21025,20.508,0.45455,0,7.5697e-05,756.45,2.7162e-05,26.236,2.3668e-05,-0.018973,-7.5217e-05,-743,1.9385
21026,20.508,0.54545,0.05,7.2027e-07,7.1977,5.5308e-07,4.1556,1.3608e-14,1.0568e-05,-5.5308e-07,-4.1556,1.9386
21027,20.784,0.54545,0,6.967e-05,696.22,2.5405e-05,29.065,2.1536e-05,-0.0090432,-6.913e-05,-681.23,1.9809
21028,20.692,0.45455,0,7.1673e-05,716.24,2.5928e-05,27.379,2.2281e-05,-0.020451,-7.1168e-05,-702.16,1.9667
21029,20.692,0.54545,0.05,7.1819e-07,7.1769,5.5148e-07,4.1436,-2.6579e-14,1.2984e-05,-5.5148e-07,-4.1436,1.9668
21030,20.967,0.54545,0,6.5686e-05,656.41,2.4203e-05,30.437,2.015e-05,-0.0094946,-6.5115e-05,-640.66,2.0092
21031,20.875,0.45455,0,6.7666e-05,676.2,2.4701e-05,28.547,2.0899e-05,-0.022012,-6.7136e-05,-661.48,1.9949
21032,20.875,0.54545,0.05,7.1625e-07,7.1576,5.4999e-07,4.1324,2.4067e-13,1.0784e-05,-5.4999e-07,-4.1324,1.995
21033,21.151,0.54545,0,6.1721e-05,616.78,2.301e-05,31.854,1.8769e-05,-0.009911,-6.1117e-05,-600.24,2.0375
21034,21.059,0.45455,0,6.3677e-05,636.33,2.3482e-05,29.742,1.9521e-05,-0.023648,-6.3119e-05,-620.95,2.0232
21035,21.059,0.54545,0.05,7.1447e-07,7.1397,5.4862e-07,4.1221,3.108e-13,1.1296e-05,-5.4862e-07,-4.1221,2.0233
21036,21.335,0.54545,0,5.7775e-05,577.35,2.1827e-05,33.322,1.739e-05,-0.010269,-5.7136e-05,-559.97,2.0658
21037,21.243,0.45455,0,5.9704e-05,596.63,2.2271e-05,30.969,1.8146e-05,-0.025347,-5.9118e-05,-580.56,2.0515
21038,21.243,0.54545,0.05,7.1284e-07,7.1235,5.4737e-07,4.1128,2.3078e-13,1.4435e-05,-5.4737e-07,-4.1127,2.0516
21039,21.519,0.54545,0,5.3848e-05,538.11,2.0654e-05,34.849,1.6015e-05,-0.010542,-5.3171e-05,-519.85,2.0942
21040,21.427,0.45455,0,5.575e-05,557.11,2.1069e-05,32.231,1.6776e-05,-0.027114,-5.5132e-05,-540.31,2.0799
21041,21.427,0.54545,0.05,7.1139e-07,7.109,5.4626e-07,4.1044,3.3595e-13,1.1975e-05,-5.4626e-07,-4.1044,2.08
21042,21.703,0.54545,0,4.9943e-05,499.09,1.9494e-05,36.446,1.4642e-05,-0.010695,-4.9223e-05,-479.87,2.1226
21043,21.611,0.45455,0,5.1814e-05,517.78,1.9875e-05,33.535,1.5408e-05,-0.028942,-5.1162e-05,-500.21,2.1083
21044,21.611,0.54545,0.05,7.1012e-07,7.0963,5.4529e-07,4.0971,2.8603e-13,9.6882e-06,-5.4529e-07,-4.0971,2.1083
21045,21.886,0.54545,0,4.6061e-05,460.29,1.8347e-05,38.124,1.3272e-05,-0.010666,-4.5294e-05,-440.05,2.151
21046,21.794,0.45455,0,4.7897e-05,478.64,1.8691e-05,34.887,1.4044e-05,-0.030816,-4.7208e-05,-460.25,2.1367
21047,21.794,0.54545,0.05,7.0906e-07,7.0857,5.4447e-07,4.0909,-4.3792e-13,5.1202e-06,-5.4447e-07,-4.0909,2.1368
21048,22.07,0.54545,0,4.2204e-05,421.75,1.7215e-05,39.899,1.1903e-05,-0.010358,-4.1384e-05,-400.39,2.1795
21049,21.978,0.45455,0,4.4e-05,439.7,1.7517e-05,36.296,1.2682e-05,-0.032708,-4.3271e-05,-420.44,2.1651
21050,21.978,0.54545,0.05,7.0821e-07,7.0772,5.4382e-07,4.086,-2.5928e-13,1.2344e-06,-5.4381e-07,-4.086,2.1652
21051,22.254,0.54545,0,3.8377e-05,383.5,1.6101e-05,41.796,1.0537e-05,-0.0096219,-3.7494e-05,-360.89,2.208
21052,22.162,0.45455,0,4.0127e-05,400.99,1.6356e-05,37.773,1.1324e-05,-0.034545,-3.9351e-05,-380.78,2.1936
21053,22.162,0.54545,0.05,7.076e-07,7.0712,5.4335e-07,4.0825,-3.5343e-14,2.3692e-06,-5.4335e-07,-4.0825,2.1937
21054,22.438,0.54545,0,3.4584e-05,345.6,1.5008e-05,43.844,9.1711e-06,-0.0082124,-3.3629e-05,-321.59,2.2365
21055,22.346,0.45455,0,3.628e-05,362.55,1.5208e-05,39.337,9.9678e-06,-0.036221,-3.5451e-05,-341.29,2.2221
21056,22.346,0.54545,0.05,7.073e-07,7.0681,5.4312e-07,4.0808,4.945e-13,5.2889e-06,-5.4312e-07,-4.0808,2.2222
21057,22.622,0.54545,0,3.0835e-05,308.14,1.3941e-05,46.091,7.8063e-06,-0.005815,-2.9791e-05,-282.5,2.265
21058,22.53,0.45455,0,3.2465e-05,324.42,1.4078e-05,41.013,8.6142e-06,-0.037515,-3.1572e-05,-301.98,2.2506
21059,22.53,0.54545,0.05,7.0736e-07,7.0687,5.4316e-07,4.0811,-3.8887e-13,-2.0321e-06,-5.4316e-07,-4.0811,2.2507
21060,22.805,0.54545,0,2.7144e-05,271.25,1.291e-05,48.606,6.4412e-06,-0.0016006,-2.5988e-05,-243.66,2.2936
21061,22.713,0.45455,0,2.869e-05,286.7,1.297e-05,42.84,7.2627e-06,-0.038232,-2.772e-05,-262.89,2.2792
21062,22.713,0.54545,0.05,7.0792e-07,7.0743,5.4359e-07,4.0843,-7.6281e-13,-8.8653e-06,-5.4359e-07,-4.0843,2.2793
21063,22.989,0.54545,0,2.3532e-05,235.16,1.1927e-05,51.495,5.0743e-06,0.0046675,-2.2229e-05,-205.14,2.3221
21064,22.897,0.45455,0,2.4969e-05,249.52,1.1891e-05,44.881,5.9128e-06,-0.037217,-2.3901e-05,-224.05,2.3078
21065,22.897,0.54545,0.05,7.092e-07,7.0871,5.4458e-07,4.0918,-6.203e-13,-4.1309e-06,-5.4458e-07,-4.0918,2.3078
21066,23.173,0.54545,0,2.0037e-05,200.23,1.1012e-05,54.933,3.7036e-06,0.018441,-1.8529e-05,-167.03,2.3507
21067,23.081,0.45455,0,2.1325e-05,213.1,1.0855e-05,47.237,4.5634e-06,-0.035432,-2.0125e-05,-185.53,2.3363
21068,23.081,0.54545,0.05,7.1163e-07,7.1114,5.4644e-07,4.1058,-2.3548e-13,3.428e-06,-5.4644e-07,-4.1058,2.3364
21069,23.357,0.54545,0,1.6723e-05,167.11,1.0197e-05,59.191,2.3232e-06,0.029752,-1.491e-05,-129.45,2.3793
21070,23.265,0.45455,0,1.78e-05,177.87,9.8829e-06,50.091,3.2133e-06,-0.022035,-1.641e-05,-147.46,2.3649
21071,23.265,0.54545,0.05,7.1611e-07,7.1562,5.4988e-07,4.1316,3.2125e-13,5.4118e-06,-5.4988e-07,-4.1316,2.365
21072,23.541,0.54545,0,1.3702e-05,136.93,9.5295e-06,64.72,9.2967e-07,0.10385,-1.1403e-05,-92.557,2.4079
21073,23.449,0.45455,0,1.4468e-05,144.58,9.0126e-06,53.75,1.8555e-06,-0.025342,-1.2783e-05,-110.02,2.3935
21074,23.449,0.54545,0.05,7.2445e-07,7.2395,5.5629e-07,4.1798,5.3984e-13,8.7083e-06,-5.5629e-07,-4.1797,2.3936
21075,23.724,0.54545,0,1.1175e-05,111.67,9.0806e-06,72.104,-5.0892e-07,0.052338,-8.0402e-06,-56.535,2.4365
21076,23.632,0.45455,0,1.1491e-05,114.84,8.3127e-06,58.861,4.9251e-07,0.10264,-9.2986e-06,-73.464,2.4222
21077,23.632,0.54545,0.05,7.4124e-07,7.4073,5.6918e-07,4.2766,4.6275e-13,9.001e-06,-5.6918e-07,-4.2766,2.4222
21078,23.816,0.45455,0,9.1859e-06,91.796,7.9136e-06,66.378,-9.4e-07,-0.14402,-6.0249e-06,-38.35,2.4508
21079,23.816,0.54545,0.05,7.9216e-07,7.9161,6.0828e-07,4.5704,1.7061e-13,4.3653e-06,-6.0828e-07,-4.5704,2.4508
21080,23.908,0.54545,0,9.2856e-06,92.792,8.7149e-06,79.966,-1.8798e-06,0.36159,-4.8489e-06,-21.947,2.4652
21081,11.042,0.36364,0,9.1722e-05,916.58,4.0773e-05,124.07,2.3259e-05,-7.5237,-8.9027e-05,-851.2,0.61689
21082,10.95,0.27273,0,7.2153e-05,721.03,3.5004e-05,130.74,1.5925e-05,-12.613,-6.9066e-05,-651.2,0.60517
21083,10.95,0.36364,0.05,7.0316e-06,70.268,5.3994e-06,40.569,-3.6366e-13,1.0424e-06,-5.3994e-06,-40.569,0.60563
21084,10.859,0.36364,0,6.7896e-05,678.49,3.2564e-05,126.38,1.6064e-05,2.3969,-6.485e-05,-605.55,0.59444
21085,11.226,0.36364,0,0.00011407,1139.9,4.4714e-05,83.292,3.3108e-05,-3.9137,-0.00011247,-1097.7,0.63938
21086,11.134,0.27273,0,9.4644e-05,945.79,3.7963e-05,78.426,2.68e-05,-5.4452,-9.3123e-05,-906.5,0.62765
21087,11.134,0.36364,0.05,5.8723e-06,58.682,4.5092e-06,33.88,-1.2968e-13,-1.2906e-06,-4.5092e-06,-33.88,0.6281
21088,11.41,0.36364,0,0.00014015,1400.5,5.29e-05,78.943,4.2086e-05,-2.3106,-0.00013866,-1360.4,0.66193
21089,11.318,0.27273,0,0.00012306,1229.7,4.6844e-05,73.449,3.6646e-05,-3.1729,-0.00012168,-1192.8,0.65018
21090,11.318,0.36364,0.05,5.2832e-06,52.795,4.0568e-06,30.481,4.3403e-13,2.29e-06,-4.0568e-06,-30.481,0.65061
21091,11.594,0.36364,0,0.00016382,1637,6.0661e-05,78.895,5.0004e-05,-1.1759,-0.00016235,-1596.7,0.68455
21092,11.502,0.27273,0,0.00014919,1490.9,5.5422e-05,73.867,4.5418e-05,-1.2976,-0.00014781,-1453.2,0.67278
21093,11.502,0.36364,0.05,4.5734e-06,45.702,3.5118e-06,26.386,4.3896e-13,3.222e-06,-3.5118e-06,-26.386,0.6732
21094,11.778,0.36364,0,0.00018373,1836,6.7034e-05,76.707,5.6731e-05,-0.70883,-0.00018231,-1796.8,0.70728
21095,11.686,0.27273,0,0.0001715,1713.8,6.2614e-05,72.128,5.2932e-05,-0.62504,-0.00017017,-1676.9,0.69547
21096,11.686,0.36364,0.05,3.8361e-06,38.335,2.9457e-06,22.133,4.4173e-13,3.2423e-06,-2.9457e-06,-22.133,0.69587
21097,11.961,0.36364,0,0.00019973,1995.9,7.1889e-05,71.668,6.2289e-05,-0.46853,-0.00019842,-1959.3,0.73013
21098,11.869,0.27273,0,0.00018977,1896.3,6.8264e-05,67.702,5.9214e-05,-0.30192,-0.00018853,-1861.7,0.71827
21099,11.869,0.36364,0.05,3.1233e-06,31.211,2.3983e-06,18.02,2.8604e-13,4.3948e-06,-2.3983e-06,-18.02,0.71866
21100,12.145,0.36364,0,0.00021209,2119.4,7.5367e-05,64.461,6.6742e-05,-0.34228,-0.00021092,-2086.6,0.7531
21101,12.053,0.27273,0,0.0002042,2040.6,7.2489e-05,61.248,6.4315e-05,-0.16966,-0.00020309,-2009.4,0.74119
21102,12.053,0.36364,0.05,2.4694e-06,24.677,1.8962e-06,14.247,1.4027e-13,5.5302e-06,-1.8962e-06,-14.247,0.74157
21103,12.329,0.36364,0,0.00022125,2210.9,7.7689e-05,56.048,7.0195e-05,-0.26337,-0.00022024,-2182.5,0.77622
21104,12.237,0.27273,0,0.0002152,2150.6,7.5492e-05,53.686,6.8333e-05,-0.10828,-0.00021424,-2123.3,0.76425
21105,12.237,0.36364,0.05,1.8919e-06,18.906,1.4527e-06,10.915,3.3552e-13,2.6038e-06,-1.4527e-06,-10.915,0.76461
21106,12.513,0.36364,0,0.00022769,2275.3,7.9084e-05,47.269,7.2765e-05,-0.20873,-0.00022685,-2251.4,0.79948
21107,12.421,0.27273,0,0.00022325,2230.9,7.749e-05,45.794,7.1385e-05,-0.079019,-0.00022243,-2207.7,0.78745
21108,12.421,0.36364,0.05,1.396e-06,13.95,1.0719e-06,8.0541,-4.8761e-13,3.5867e-06,-1.0719e-06,-8.0541,0.7878
21109,12.697,0.36364,0,0.00023187,2317.1,7.9753e-05,38.735,7.4576e-05,-0.16755,-0.00023119,-2297.6,0.82289
21110,12.605,0.27273,0,0.00022879,2286.3,7.8683e-05,38.13,7.36e-05,-0.062516,-0.00022812,-2267.1,0.81079
21111,12.605,0.36364,0.05,9.7944e-07,9.7876,7.5209e-07,5.6509,5.2943e-13,4.8973e-06,-7.5208e-07,-5.6509,0.81114
21112,12.88,0.36364,0,0.0002342,2340.4,7.9866e-05,30.844,7.5743e-05,-0.13544,-0.00023367,-2324.9,0.84646
21113,12.788,0.27273,0,0.00023227,2321.1,7.9241e-05,31.05,7.5101e-05,-0.051658,-0.00023173,-2305.4,0.83429
21114,12.788,0.36364,0.05,6.3658e-07,6.3614,4.8881e-07,3.6728,6.2097e-13,5.5794e-06,-4.8882e-07,-3.6727,0.83463
21115,13.064,0.36364,0,0.00023505,2348.9,7.9558e-05,23.815,7.6374e-05,-0.11043,-0.00023464,-2336.9,0.87018
21116,12.972,0.27273,0,0.00023406,2338.9,7.9305e-05,24.747,7.6006e-05,-0.043615,-0.00023363,-2326.5,0.85794
21117,12.972,0.36364,0.05,3.6294e-07,3.6269,2.7869e-07,2.094,1.0246e-12,1.9661e-06,-2.7869e-07,-2.094,0.85827
21118,13.248,0.36364,0,0.0002347,2345.4,7.8936e-05,17.745,7.6562e-05,-0.091701,-0.00023439,-2336.5,0.89407
21119,13.156,0.27273,0,0.00023448,2343.1,7.899e-05,19.3,7.6416e-05,-0.037635,-0.00023414,-2333.5,0.88176
21120,13.156,0.36364,0.05,1.721e-07,1.7198,1.3215e-07,0.99296,3.7586e-12,4.7408e-05,-1.3215e-07,-0.99294,0.88208
21121,13.432,0.36364,0,0.0002334,2332.4,7.8081e-05,12.644,7.6388e-05,-0.079155,-0.00023318,-2326.1,0.91811
21122,13.34,0.27273,0,0.0002338,2336.4,7.8385e-05,14.715,7.6422e-05,-0.033639,-0.00023355,-2329,0.90572
21123,13.34,0.36364,0.05,1.6039e-07,1.6028,1.2316e-07,0.92539,2.6189e-12,1.4895e-05,-1.2316e-07,-0.92537,0.90604
21124,13.616,0.36364,0,0.00023135,2311.9,7.7058e-05,8.4713,7.592e-05,-0.073808,-0.00023121,-2307.7,0.9423
21125,13.524,0.27273,0,0.00023226,2321,7.756e-05,10.951,7.6098e-05,-0.031879,-0.00023207,-2315.5,0.92985
21126,13.524,0.36364,0.05,2.7025e-07,2.7006,2.0752e-07,1.5592,4.1521e-13,1.4968e-06,-2.0752e-07,-1.5592,0.93016
21127,13.799,0.36364,0,0.00022872,2285.6,7.5912e-05,5.1563,7.5215e-05,-0.079413,-0.00022863,-2283.1,0.96666
21128,13.707,0.27273,0,0.00023002,2298.6,7.6572e-05,7.9422,7.551e-05,-0.032888,-0.00022988,-2294.7,0.95413
21129,13.707,0.36364,0.05,3.7769e-07,3.7743,2.9002e-07,2.1791,-9.9678e-13,-3.3388e-06,-2.9002e-07,-2.1791,0.95444
21130,13.983,0.36364,0,0.00022563,2254.7,7.4683e-05,2.6256,7.4318e-05,-0.11047,-0.00022559,-2253.5,0.99116
21131,13.891,0.27273,0,0.00022724,2270.9,7.5461e-05,5.6092,7.471e-05,-0.03737,-0.00022715,-2268.1,0.97856
21132,13.891,0.36364,0.05,4.6655e-07,4.6623,3.5825e-07,2.6918,2.6067e-15,4.9125e-07,-3.5825e-07,-2.6917,0.97887
21133,14.167,0.36364,0,0.00022219,2220.3,7.3407e-05,0.87566,7.3257e-05,-0.25673,-0.00022218,-2220,1.0158
21134,14.075,0.27273,0,0.00022405,2238.9,7.4261e-05,3.871,7.374e-05,-0.046177,-0.00022398,-2237,1.0032
21135,14.075,0.36364,0.05,5.3748e-07,5.3711,4.1272e-07,3.101,-1.7695e-12,3.1931e-06,-4.1271e-07,-3.101,1.0035
21136,14.351,0.36364,0,0.00021847,2183.2,7.2158e-05,0.20567,7.2009e-05,-0.90932,-0.00021848,-2183.6,1.0406
21137,14.259,0.27273,0,0.00022052,2203.7,7.2996e-05,2.6471,7.2636e-05,-0.059796,-0.00022048,-2202.4,1.0279
21138,14.259,0.36364,0.05,5.9315e-07,5.9274,4.5546e-07,3.4222,-2.7423e-12,4.3269e-06,-4.5546e-07,-3.4221,1.0282
21139,14.534,0.36364,0,0.00021455,2144,7.0891e-05,0.098362,7.066e-05,-1.6374,-0.00021458,-2144.8,1.0656
21140,14.443,0.27273,0,0.00021675,2166,7.1685e-05,1.86,7.1428e-05,-0.076199,-0.00021672,-2165.1,1.0528
21141,14.443,0.36364,0.05,6.3627e-07,6.3583,4.8858e-07,3.671,-7.7122e-13,4.0018e-06,-4.8857e-07,-3.671,1.0531
21142,14.718,0.36364,0,0.00021047,2103.3,6.9562e-05,0.068139,6.9282e-05,-2.0344,-0.00021051,-2104.2,1.0907
21143,14.626,0.27273,0,0.00021278,2126.3,7.0341e-05,1.4332,7.0139e-05,-0.087742,-0.00021276,-2125.6,1.0778
21144,14.626,0.36364,0.05,6.6925e-07,6.6879,5.1391e-07,3.8613,-1.7313e-12,6.8444e-06,-5.139e-07,-3.8612,1.0781
21145,14.902,0.36364,0,0.00020628,2061.4,6.8181e-05,0.054912,6.7893e-05,-2.1111,-0.00020631,-2062.4,1.1159
21146,14.81,0.27273,0,0.00020867,2085.2,6.8972e-05,1.2948,6.8789e-05,-0.084251,-0.00020865,-2084.6,1.103
21147,14.81,0.36364,0.05,6.9412e-07,6.9364,5.33e-07,4.0047,-8.8953e-13,5.6203e-06,-5.3299e-07,-4.0047,1.1033
21148,15.086,0.36364,0,0.000202,2018.6,6.6759e-05,0.047873,6.6497e-05,-1.9188,-0.00020203,-2019.5,1.1413
21149,14.994,0.27273,0,0.00020445,2043.1,6.7587e-05,1.3905,6.7394e-05,-0.065855,-0.00020443,-2042.4,1.1283
21150,14.994,0.36364,0.05,7.1251e-07,7.1202,5.4712e-07,4.1109,-1.7119e-12,3.3855e-06,-5.4712e-07,-4.1108,1.1286
21151,15.27,0.36364,0,0.00019766,1975.2,6.5307e-05,0.044239,6.51e-05,-1.5085,-0.00019769,-1976,1.1668
21152,15.178,0.27273,0,0.00020015,2000.1,6.6193e-05,1.6845,6.5963e-05,-0.043728,-0.00020012,-1999.3,1.1538
21153,15.178,0.36364,0.05,7.2579e-07,7.2529,5.5732e-07,4.1875,-8.7825e-13,2.9712e-06,-5.5732e-07,-4.1875,1.154
21154,15.453,0.36364,0,0.00019328,1931.5,6.3832e-05,0.044857,6.3703e-05,-0.92715,-0.0001933,-1931.9,1.1925
21155,15.362,0.27273,0,0.0001958,1956.6,6.4794e-05,2.1446,6.4505e-05,-0.026173,-0.00019576,-1955.6,1.1793
21156,15.362,0.36364,0.05,7.3504e-07,7.3454,5.6442e-07,4.2409,-8.851e-13,3.7064e-06,-5.6442e-07,-4.2408,1.1796
21157,15.637,0.36364,0,0.00018887,1887.4,6.2346e-05,0.074171,6.2305e-05,-0.2378,-0.00018888,-1887.5,1.2183
21158,15.545,0.27273,0,0.00019141,1912.8,6.3394e-05,2.7379,6.3028e-05,-0.014489,-0.00019136,-1911.4,1.2051
21159,15.545,0.36364,0.05,7.4112e-07,7.4061,5.6909e-07,4.2759,2.6595e-14,4.5198e-06,-5.6909e-07,-4.2759,1.2053
21160,15.821,0.36364,0,0.00018445,1843.2,6.0923e-05,0.65306,6.0836e-05,0.0062262,-0.00018444,-1842.9,1.2442
21161,15.729,0.27273,0,0.00018699,1868.7,6.1995e-05,3.4342,6.1537e-05,-0.0072188,-0.00018694,-1866.9,1.2309
21162,15.729,0.36364,0.05,7.4473e-07,7.4422,5.7186e-07,4.2968,-1.8433e-12,4.262e-06,-5.7186e-07,-4.2967,1.2312
21163,16.005,0.36364,0,0.00018002,1798.9,5.9534e-05,1.545,5.9331e-05,0.014684,-0.00017999,-1798.2,1.2702
21164,15.913,0.27273,0,0.00018257,1824.4,6.0599e-05,4.2081,6.0038e-05,-0.0028481,-0.00018249,-1822.3,1.2569
21165,15.913,0.36364,0.05,7.4645e-07,7.4594,5.7318e-07,4.3067,-4.1936e-13,6.7306e-06,-5.7318e-07,-4.3066,1.2571
21166,16.189,0.36364,0,0.00017559,1754.7,5.8152e-05,2.5006,5.7821e-05,0.01504,-0.00017554,-1753.4,1.2963
21167,16.097,0.27273,0,0.00017813,1780.1,5.9205e-05,5.0387,5.8534e-05,-0.00031011,-0.00017805,-1777.6,1.283
21168,16.097,0.36364,0.05,7.4671e-07,7.462,5.7338e-07,4.3082,-1.7381e-12,4.4902e-06,-5.7338e-07,-4.3081,1.2832
21169,16.372,0.36364,0,0.00017116,1710.4,5.6774e-05,3.4957,5.6311e-05,0.013839,-0.0001711,-1708.7,1.3226
21170,16.281,0.27273,0,0.0001737,1735.8,5.7814e-05,5.9095,5.7028e-05,0.0010622,-0.0001736,-1732.8,1.3092
21171,16.281,0.36364,0.05,7.4587e-07,7.4536,5.7274e-07,4.3034,-8.8487e-13,2.1657e-06,-5.7274e-07,-4.3033,1.3094
21172,16.556,0.36364,0,0.00016674,1666.3,5.5401e-05,4.5153,5.4801e-05,0.012122,-0.00016666,-1664,1.349
21173,16.464,0.27273,0,0.00016927,1691.6,5.6428e-05,6.807,5.5523e-05,0.001652,-0.00016916,-1688.1,1.3355
21174,16.464,0.36364,0.05,7.442e-07,7.4369,5.7146e-07,4.2937,-1.7721e-12,5.9621e-07,-5.7145e-07,-4.2937,1.3358
21175,16.74,0.36364,0,0.00016233,1622.2,5.4032e-05,5.5481,5.3295e-05,0.010232,-0.00016224,-1619.4,1.3755
21176,16.648,0.27273,0,0.00016485,1647.4,5.5047e-05,7.7209,5.4019e-05,0.0017506,-0.00016472,-1643.5,1.362
21177,16.648,0.36364,0.05,7.4191e-07,7.414,5.6969e-07,4.2805,-4.4956e-13,6.2156e-07,-5.6969e-07,-4.2804,1.3622
21178,16.924,0.36364,0,0.00015794,1578.3,5.2669e-05,6.5856,5.1793e-05,0.0082912,-0.00015782,-1575,1.4021
21179,16.832,0.27273,0,0.00016045,1603.4,5.3669e-05,8.6431,5.2519e-05,0.0015539,-0.0001603,-1599,1.3885
21180,16.832,0.36364,0.05,7.3917e-07,7.3866,5.6759e-07,4.2647,-1.8069e-12,1.5481e-06,-5.6759e-07,-4.2646,1.3888
21181,17.108,0.36364,0,0.00015356,1534.5,5.131e-05,7.6216,5.0296e-05,0.0063444,-0.00015343,-1530.7,1.4288
21182,17.016,0.27273,0,0.00015606,1559.5,5.2297e-05,9.5674,5.1024e-05,0.0011474,-0.00015589,-1554.7,1.4152
21183,17.016,0.36364,0.05,7.3612e-07,7.3561,5.6525e-07,4.2471,-4.5212e-13,4.0353e-06,-5.6525e-07,-4.247,1.4154
21184,17.291,0.36364,0,0.00014919,1490.9,4.9956e-05,8.6516,4.8805e-05,0.0044131,-0.00014904,-1486.6,1.4556
21185,17.2,0.27273,0,0.00015168,1515.7,5.0929e-05,10.489,4.9533e-05,0.00059922,-0.0001515,-1510.5,1.442
21186,17.2,0.36364,0.05,7.3287e-07,7.3236,5.6275e-07,4.2283,-4.6411e-13,6.4125e-06,-5.6275e-07,-4.2283,1.4422
21187,17.475,0.36364,0,0.00014485,1447.5,4.8606e-05,9.6724,4.7319e-05,0.0024925,-0.00014468,-1442.6,1.4825
21188,17.383,0.27273,0,0.00014732,1472.2,4.9567e-05,11.406,4.8049e-05,-5.0455e-05,-0.00014712,-1466.4,1.4688
21189,17.383,0.36364,0.05,7.295e-07,7.29,5.6016e-07,4.2089,-9.0832e-13,7.4619e-06,-5.6016e-07,-4.2088,1.4691
21190,17.659,0.36364,0,0.00014052,1404.2,4.7262e-05,10.682,4.584e-05,0.00058453,-0.00014033,-1398.8,1.5096
21191,17.567,0.27273,0,0.00014297,1428.8,4.8209e-05,12.314,4.657e-05,-0.00079831,-0.00014276,-1422.6,1.4958
21192,17.567,0.36364,0.05,7.2606e-07,7.2556,5.5753e-07,4.1891,-9.0782e-13,7.5428e-06,-5.5752e-07,-4.189,1.496
21193,17.843,0.36364,0,0.0001362,1361.1,4.5922e-05,11.68,4.4368e-05,-0.0012824,-0.000136,-1355.2,1.5367
21194,17.751,0.27273,0,0.00013865,1385.5,4.6857e-05,13.213,4.5098e-05,-0.0016016,-0.00013842,-1378.9,1.5229
21195,17.751,0.36364,0.05,7.2261e-07,7.2211,5.5487e-07,4.1691,-1.3602e-12,2.343e-06,-5.5487e-07,-4.1691,1.5231
21196,18.027,0.36364,0,0.00013191,1318.2,4.4588e-05,12.666,4.2901e-05,-0.0031053,-0.00013169,-1311.8,1.5639
21197,17.935,0.27273,0,0.00013434,1342.5,4.551e-05,14.102,4.3632e-05,-0.0024144,-0.0001341,-1335.4,1.55
21198,17.935,0.36364,0.05,7.1917e-07,7.1867,5.5223e-07,4.1493,-1.3642e-12,2.9239e-06,-5.5223e-07,-4.1492,1.5502
21199,18.21,0.36364,0,0.00012764,1275.5,4.3258e-05,13.641,4.1442e-05,-0.0049054,-0.0001274,-1268.6,1.5911
21200,18.119,0.27273,0,0.00013005,1299.6,4.4168e-05,14.982,4.2173e-05,-0.0032531,-0.00012979,-1292.1,1.5773
21201,18.119,0.36364,0.05,7.1578e-07,7.1529,5.4963e-07,4.1297,-9.094e-13,3.1278e-06,-5.4963e-07,-4.1297,1.5775
21202,18.394,0.36364,0,0.00012338,1232.9,4.1934e-05,14.605,3.9989e-05,-0.0066911,-0.00012312,-1225.6,1.6185
21203,18.302,0.27273,0,0.00012578,1257,4.2831e-05,15.851,4.0721e-05,-0.0041175,-0.00012551,-1249,1.6046
21204,18.302,0.36364,0.05,7.1247e-07,7.1198,5.4709e-07,4.1106,-1.8184e-12,1.0447e-06,-5.4709e-07,-4.1106,1.6048
21205,18.578,0.36364,0,0.00011914,1190.6,4.0615e-05,15.559,3.8543e-05,-0.0084803,-0.00011887,-1182.7,1.6459
21206,18.486,0.27273,0,0.00012153,1214.5,4.1499e-05,16.712,3.9274e-05,-0.005008,-0.00012124,-1206,1.632
21207,18.486,0.36364,0.05,7.0926e-07,7.0877,5.4462e-07,4.0921,-1.3713e-12,1.6709e-06,-5.4462e-07,-4.0921,1.6322
21208,18.762,0.36364,0,0.00011492,1148.4,3.9301e-05,16.506,3.7103e-05,-0.010287,-0.00011463,-1140.1,1.6735
21209,18.67,0.27273,0,0.0001173,1172.2,4.0173e-05,17.564,3.7835e-05,-0.0059502,-0.00011699,-1163.3,1.6595
21210,18.67,0.36364,0.05,7.0615e-07,7.0566,5.4224e-07,4.0742,-1.3721e-12,3.6489e-06,-5.4223e-07,-4.0741,1.6597
21211,18.946,0.36364,0,0.00011072,1106.4,3.7993e-05,17.447,3.5669e-05,-0.012097,-0.00011041,-1097.6,1.7011
21212,18.854,0.27273,0,0.00011308,1130.1,3.8853e-05,18.41,3.6402e-05,-0.0069303,-0.00011276,-1120.7,1.6871
21213,18.854,0.36364,0.05,7.0315e-07,7.0267,5.3993e-07,4.0569,-4.6541e-13,3.2317e-06,-5.3993e-07,-4.0568,1.6873
21214,19.129,0.36364,0,0.00010654,1064.6,3.669e-05,18.383,3.4242e-05,-0.013917,-0.00010621,-1055.3,1.7288
21215,19.038,0.27273,0,0.00010889,1088.1,3.7538e-05,19.249,3.4975e-05,-0.0079279,-0.00010855,-1078.4,1.7147
21216,19.038,0.36364,0.05,7.0028e-07,6.9979,5.3773e-07,4.0403,-1.3741e-12,3.2656e-06,-5.3772e-07,-4.0402,1.7149
21217,19.313,0.36364,0,0.00010237,1023,3.5393e-05,19.317,3.282e-05,-0.015768,-0.00010203,-1013.2,1.7565
21218,19.221,0.27273,0,0.00010471,1046.4,3.6228e-05,20.083,3.3554e-05,-0.0089667,-0.00010435,-1036.2,1.7425
21219,19.221,0.36364,0.05,6.9754e-07,6.9706,5.3562e-07,4.0245,-1.3585e-12,-1.8545e-07,-5.3562e-07,-4.0244,1.7426
21220,19.497,0.36364,0,9.8226e-05,981.58,3.4102e-05,20.25,3.1405e-05,-0.017662,-9.7866e-05,-971.31,1.7843
21221,19.405,0.27273,0,0.00010055,1004.8,3.4924e-05,20.913,3.2139e-05,-0.010055,-0.00010018,-994.18,1.7702
21222,19.405,0.36364,0.05,6.9494e-07,6.9446,5.3363e-07,4.0095,-8.516e-13,-4.0182e-07,-5.3363e-07,-4.0095,1.7704
21223,19.681,0.36364,0,9.4097e-05,940.32,3.2817e-05,21.185,2.9995e-05,-0.019626,-9.3719e-05,-929.55,1.8122
21224,19.589,0.27273,0,9.6406e-05,963.39,3.3625e-05,21.74,3.073e-05,-0.011208,-9.6017e-05,-952.34,1.7981
21225,19.589,0.36364,0.05,6.925e-07,6.9202,5.3176e-07,3.9954,-1.3994e-12,2.9367e-06,-5.3175e-07,-3.9954,1.7982
21226,19.865,0.36364,0,8.9985e-05,899.23,3.1538e-05,22.124,2.8591e-05,-0.021671,-8.9588e-05,-887.97,1.8401
21227,19.773,0.27273,0,9.228e-05,922.16,3.2332e-05,22.566,2.9327e-05,-0.012457,-9.1875e-05,-910.68,1.826
21228,19.773,0.36364,0.05,6.9021e-07,6.8974,5.3e-07,3.9822,-1.0282e-12,1.7314e-06,-5.3e-07,-3.9822,1.8262
21229,20.048,0.36364,0,8.589e-05,858.31,3.0265e-05,23.067,2.7192e-05,-0.023794,-8.5475e-05,-846.56,1.8682
21230,19.956,0.27273,0,8.8171e-05,881.1,3.1044e-05,23.39,2.7929e-05,-0.013795,-8.775e-05,-869.18,1.854
21231,19.956,0.36364,0.05,6.8808e-07,6.8761,5.2836e-07,3.9699,-1.3074e-12,2.8165e-06,-5.2836e-07,-3.9699,1.8541
21232,20.232,0.36364,0,8.1813e-05,817.56,2.8998e-05,24.018,2.5798e-05,-0.02601,-8.1378e-05,-805.3,1.8962
21233,20.14,0.27273,0,8.4078e-05,840.2,2.9761e-05,24.213,2.6537e-05,-0.015223,-8.364e-05,-827.84,1.882
21234,20.14,0.36364,0.05,6.8612e-07,6.8564,5.2685e-07,3.9586,-7.7525e-13,7.5958e-06,-5.2685e-07,-3.9586,1.8822
21235,20.416,0.36364,0,7.7752e-05,776.98,2.7737e-05,24.977,2.4409e-05,-0.028338,-7.7297e-05,-764.21,1.9243
21236,20.324,0.27273,0,8.0002e-05,799.47,2.8484e-05,25.036,2.5149e-05,-0.016767,-7.9547e-05,-786.66,1.9101
21237,20.324,0.36364,0.05,6.8433e-07,6.8386,5.2548e-07,3.9483,-6.1083e-13,7.179e-06,-5.2548e-07,-3.9482,1.9102
21238,20.6,0.36364,0,7.3708e-05,736.57,2.6482e-05,25.947,2.3024e-05,-0.0308,-7.3232e-05,-723.27,1.9525
21239,20.508,0.27273,0,7.5942e-05,758.89,2.7211e-05,25.86,2.3767e-05,-0.018451,-7.5469e-05,-745.64,1.9383
21240,20.508,0.36364,0.05,6.8273e-07,6.8226,5.2425e-07,3.939,-4.1796e-13,9.0165e-06,-5.2425e-07,-3.939,1.9384
21241,20.784,0.36364,0,6.968e-05,696.32,2.5233e-05,26.928,2.1645e-05,-0.033421,-6.9183e-05,-682.48,1.9807
21242,20.692,0.27273,0,7.1897e-05,718.47,2.5944e-05,26.683,2.239e-05,-0.0203,-7.1406e-05,-704.77,1.9665
21243,20.692,0.36364,0.05,6.8132e-07,6.8085,5.2317e-07,3.9309,-2.4247e-13,1.0312e-05,-5.2317e-07,-3.9309,1.9666
21244,20.967,0.36364,0,6.5668e-05,656.23,2.3991e-05,27.923,2.0269e-05,-0.036222,-6.5149e-05,-641.84,2.0089
21245,20.875,0.27273,0,6.7867e-05,678.2,2.4682e-05,27.507,2.1018e-05,-0.022354,-6.7357e-05,-664.04,1.9947
21246,20.875,0.36364,0.05,6.8011e-07,6.7964,5.2224e-07,3.9239,-4.5338e-13,9.3953e-06,-5.2224e-07,-3.9239,1.9948
21247,21.151,0.36364,0,6.1672e-05,616.3,2.2754e-05,28.933,1.8898e-05,-0.03921,-6.1129e-05,-601.34,2.0372
21248,21.059,0.27273,0,6.3852e-05,638.08,2.3424e-05,28.33,1.965e-05,-0.024632,-6.3323e-05,-623.45,2.023
21249,21.059,0.36364,0.05,6.791e-07,6.7863,5.2147e-07,3.9181,3.2128e-13,1.2319e-05,-5.2147e-07,-3.9181,2.0231
21250,21.335,0.36364,0,5.7692e-05,576.52,2.1525e-05,29.959,1.7532e-05,-0.042406,-5.7125e-05,-560.98,2.0656
21251,21.243,0.27273,0,5.9851e-05,598.1,2.217e-05,29.151,1.8287e-05,-0.027158,-5.9302e-05,-583,2.0513
21252,21.243,0.36364,0.05,6.7831e-07,6.7784,5.2086e-07,3.9135,3.8552e-13,1.4327e-05,-5.2086e-07,-3.9135,2.0514
21253,21.519,0.36364,0,5.3729e-05,536.92,2.0301e-05,31.005,1.6169e-05,-0.045839,-5.3135e-05,-520.76,2.094
21254,21.427,0.27273,0,5.5865e-05,558.26,2.0921e-05,29.97,1.6928e-05,-0.029988,-5.5295e-05,-542.69,2.0797
21255,21.427,0.36364,0.05,6.7774e-07,6.7728,5.2042e-07,3.9103,4.7625e-13,1.3272e-05,-5.2042e-07,-3.9102,2.0798
21256,21.703,0.36364,0,4.9782e-05,497.47,1.9085e-05,32.071,1.481e-05,-0.049529,-4.9159e-05,-480.68,2.1224
21257,21.611,0.27273,0,5.1892e-05,518.56,1.9676e-05,30.786,1.5574e-05,-0.033175,-5.13e-05,-502.5,2.1081
21258,21.611,0.36364,0.05,6.7742e-07,6.7695,5.2017e-07,3.9084,2.3953e-13,1.2447e-05,-5.2017e-07,-3.9084,2.1081
21259,21.886,0.36364,0,4.5852e-05,458.2,1.7875e-05,33.162,1.3454e-05,-0.053505,-4.5198e-05,-440.75,2.1508
21260,21.794,0.27273,0,4.7934e-05,479.01,1.8434e-05,31.596,1.4224e-05,-0.036781,-4.7319e-05,-462.45,2.1365
21261,21.794,0.36364,0.05,6.7734e-07,6.7688,5.2012e-07,3.908,6.2511e-13,9.9838e-06,-5.2012e-07,-3.9079,2.1366
21262,22.07,0.36364,0,4.1941e-05,419.12,1.6673e-05,34.283,1.2103e-05,-0.057782,-4.1253e-05,-400.95,2.1793
21263,21.978,0.27273,0,4.399e-05,439.6,1.7196e-05,32.398,1.2879e-05,-0.040897,-4.335e-05,-422.52,2.1649
21264,21.978,0.36364,0.05,6.7754e-07,6.7707,5.2026e-07,3.9091,6.7632e-14,2.4893e-06,-5.2026e-07,-3.9091,2.165
21265,22.254,0.36364,0,3.805e-05,380.24,1.548e-05,35.441,1.0755e-05,-0.062348,-3.7324e-05,-361.31,2.2078
21266,22.162,0.27273,0,4.0062e-05,400.34,1.5962e-05,33.193,1.1538e-05,-0.045598,-3.9394e-05,-382.73,2.1934
21267,22.162,0.36364,0.05,6.7802e-07,6.7755,5.2063e-07,3.9118,8.1356e-14,4.5752e-06,-5.2063e-07,-3.9118,2.1935
21268,22.438,0.36364,0,3.4183e-05,341.6,1.4297e-05,36.647,9.4106e-06,-0.067158,-3.3413e-05,-321.82,2.2363
21269,22.346,0.27273,0,3.615e-05,361.25,1.4731e-05,33.977,1.0202e-05,-0.050995,-3.5452e-05,-343.08,2.2219
21270,22.346,0.36364,0.05,6.7881e-07,6.7835,5.2124e-07,3.9164,6.2982e-13,6.3792e-06,-5.2125e-07,-3.9164,2.222
21271,22.622,0.36364,0,3.0345e-05,303.24,1.3127e-05,37.92,8.0703e-06,-0.072169,-2.9522e-05,-282.53,2.2648
21272,22.53,0.27273,0,3.2256e-05,322.34,1.3505e-05,34.752,8.8717e-06,-0.057181,-3.1525e-05,-303.58,2.2505
21273,22.53,0.36364,0.05,6.7998e-07,6.7952,5.2214e-07,3.9232,-4.1378e-14,8.8988e-07,-5.2214e-07,-3.9232,2.2506
21274,22.805,0.36364,0,2.6543e-05,265.25,1.1974e-05,39.291,6.7339e-06,-0.076957,-2.5656e-05,-243.44,2.2934
21275,22.713,0.27273,0,2.8385e-05,283.65,1.2283e-05,35.521,7.5466e-06,-0.064402,-2.7614e-05,-264.24,2.279
21276,22.713,0.36364,0.05,6.8161e-07,6.8114,5.2339e-07,3.9326,-2.3431e-13,-5.6435e-07,-5.2339e-07,-3.9326,2.2791
21277,22.989,0.36364,0,2.2793e-05,227.77,1.0845e-05,40.819,5.4013e-06,-0.081748,-2.1822e-05,-204.63,2.322
21278,22.897,0.27273,0,2.4542e-05,245.25,1.1068e-05,36.295,6.2278e-06,-0.072298,-2.3722e-05,-225.11,2.3076
21279,22.897,0.36364,0.05,6.8384e-07,6.8337,5.251e-07,3.9454,1.4293e-13,4.6305e-06,-5.251e-07,-3.9454,2.3077
21280,23.173,0.36364,0,1.9118e-05,191.05,9.7542e-06,42.609,4.0723e-06,-0.082493,-1.8033e-05,-166.18,2.3506
21281,23.081,0.27273,0,2.0738e-05,207.24,9.8642e-06,37.096,4.916e-06,-0.082582,-1.9857e-05,-186.21,2.3362
21282,23.081,0.36364,0.05,6.8697e-07,6.865,5.2751e-07,3.9635,2.8188e-13,6.6768e-06,-5.2751e-07,-3.9635,2.3363
21283,23.357,0.36364,0,1.5569e-05,155.58,8.7279e-06,44.871,2.7442e-06,-0.087718,-1.4312e-05,-128.24,2.3792
21284,23.265,0.27273,0,1.6995e-05,169.84,8.6804e-06,37.989,3.6127e-06,-0.087918,-1.6027e-05,-147.65,2.3648
21285,23.265,0.36364,0.05,6.9163e-07,6.9116,5.3109e-07,3.9904,4.7375e-13,5.115e-06,-5.3109e-07,-3.9904,2.3648
21286,23.541,0.36364,0,1.2252e-05,122.44,7.8222e-06,48.089,1.4157e-06,-0.046776,-1.0703e-05,-91.101,2.4078
21287,23.449,0.27273,0,1.3358e-05,133.49,7.5369e-06,39.114,2.3161e-06,-0.1125,-1.2255e-05,-109.59,2.3934
21288,23.449,0.36364,0.05,6.9964e-07,6.9916,5.3724e-07,4.0366,5.6752e-13,9.0934e-06,-5.3724e-07,-4.0366,2.3935
21289,23.724,0.36364,0,9.415e-06,94.085,7.1646e-06,53.277,5.3131e-08,-0.15611,-7.2939e-06,-55.359,2.4364
21290,23.632,0.27273,0,9.9419e-06,99.35,6.486e-06,40.918,1.0334e-06,-0.051003,-8.5911e-06,-72.365,2.422
21291,23.632,0.36364,0.05,7.1793e-07,7.1744,5.5128e-07,4.1421,2.5125e-13,7.9128e-06,-5.5128e-07,-4.1421,2.4221
21292,23.816,0.27273,0,7.1184e-06,71.135,5.7236e-06,44.796,-2.8849e-07,-0.37702,-5.1896e-06,-37.202,2.4506
21293,23.816,0.36364,0.05,7.8269e-07,7.8215,6.0101e-07,4.5157,3.859e-15,2.6743e-06,-6.0101e-07,-4.5157,2.4507
21294,23.908,0.36364,0,7.2721e-06,72.671,6.6651e-06,59.587,-1.2429e-06,0.16936,-4.1185e-06,-21.437,2.465
21295,11.042,0.18182,0,7.2165e-05,721.15,3.019e-05,70.035,1.9144e-05,-12.955,-7.0835e-05,-689.02,0.61591
21296,10.95,0.18182,0.05,7.7654e-06,77.6,5.9628e-06,44.802,-2.6484e-13,1.5077e-06,-5.9628e-06,-44.802,0.60464
21297,10.95,0.090909,0,4.6083e-05,460.52,1.8506e-05,33.836,1.2593e-05,-10.59,-4.5527e-05,-447.28,0.60417
21298,10.859,0.18182,0,4.1258e-05,412.29,1.6875e-05,39.474,1.1598e-05,-0.17122,-4.0446e-05,-391.21,0.59343
21299,11.226,0.18182,0,0.00010299,1029.2,3.9508e-05,64.191,3.0392e-05,-4.3026,-0.0001018,-997.56,0.63843
21300,11.134,0.18182,0.05,6.8342e-06,68.295,5.2478e-06,39.43,2.1622e-13,-2.8736e-07,-5.2478e-06,-39.43,0.62714
21301,11.134,0.090909,0,8.0109e-05,800.54,2.8798e-05,28.021,2.4978e-05,-0.67864,-7.9605e-05,-786.48,0.62668
21302,11.41,0.18182,0,0.00013181,1317.2,4.908e-05,66.227,4.0019e-05,-1.8555,-0.00013058,-1283.7,0.66101
21303,11.318,0.18182,0.05,6.2742e-06,62.699,4.8178e-06,36.199,3.1802e-13,9.1552e-07,-4.8178e-06,-36.199,0.64968
21304,11.318,0.090909,0,0.00011183,1117.5,3.9659e-05,32.898,3.523e-05,-0.37918,-0.00011124,-1100.9,0.64924
21305,11.594,0.18182,0,0.00015668,1565.8,5.7193e-05,65.726,4.8364e-05,-0.60613,-0.00015547,-1532.1,0.68367
21306,11.502,0.18182,0.05,5.6104e-06,56.065,4.3081e-06,32.369,8.2066e-13,3.0448e-06,-4.3081e-06,-32.369,0.6723
21307,11.502,0.090909,0,0.0001396,1395,4.9036e-05,35.698,4.4296e-05,0.083513,-0.00013896,-1376.8,0.67187
21308,11.778,0.18182,0,0.0001774,1772.8,6.3717e-05,62.163,5.5422e-05,-0.15617,-0.00017626,-1740.9,0.70643
21309,11.686,0.18182,0.05,4.8824e-06,48.79,3.7491e-06,28.169,-7.9523e-22,2.5566e-06,-3.7491e-06,-28.169,0.695
21310,11.686,0.090909,0,0.00016313,1630.2,5.6787e-05,35.507,5.2069e-05,0.056204,-0.0001625,-1612.1,0.69459
21311,11.961,0.18182,0,0.00019414,1940.1,6.8775e-05,56.609,6.1244e-05,0.022757,-0.00019312,-1911.1,0.7293
21312,11.869,0.18182,0.05,4.145e-06,41.421,3.1828e-06,23.914,9.0919e-13,2.7409e-06,-3.1828e-06,-23.914,0.71782
21313,11.869,0.090909,0,0.00018251,1823.8,6.3008e-05,33.405,5.857e-05,0.05675,-0.00018192,-1806.9,0.71741
21314,12.145,0.18182,0,0.00020725,2071.1,7.2554e-05,50.017,6.5906e-05,0.071626,-0.00020635,-2045.6,0.7523
21315,12.053,0.18182,0.05,3.4411e-06,34.388,2.6424e-06,19.854,-5.9175e-15,1.9762e-06,-2.6424e-06,-19.854,0.74075
21316,12.053,0.090909,0,0.000198,1978.6,6.7855e-05,30.194,6.3842e-05,0.038447,-0.00019747,-1963.3,0.74036
21317,12.329,0.18182,0,0.00021716,2170.1,7.5254e-05,43.138,6.9522e-05,0.073248,-0.0002164,-2148.2,0.77543
21318,12.237,0.18182,0.05,2.7995e-06,27.975,2.1497e-06,16.152,-1.1889e-14,2.8591e-06,-2.1497e-06,-16.152,0.76382
21319,12.237,0.090909,0,0.00021,2098.5,7.1508e-05,26.501,6.7985e-05,0.030726,-0.00020953,-2085.1,0.76343
21320,12.513,0.18182,0,0.00022433,2241.7,7.7066e-05,36.479,7.2218e-05,0.059026,-0.00022368,-2223.2,0.79871
21321,12.421,0.18182,0.05,2.2343e-06,22.328,1.7157e-06,12.891,-3.7068e-14,1.6758e-06,-1.7157e-06,-12.891,0.78703
21322,12.421,0.090909,0,0.00021895,2188,7.4149e-05,22.745,7.1125e-05,0.028366,-0.00021855,-2176.5,0.78665
21323,12.697,0.18182,0,0.00022918,2290.2,7.8158e-05,30.351,7.4124e-05,0.042842,-0.00022865,-2274.8,0.82214
21324,12.605,0.18182,0.05,1.7497e-06,17.484,1.3435e-06,10.095,-2.2964e-14,8.4894e-07,-1.3435e-06,-10.095,0.81038
21325,12.605,0.090909,0,0.0002253,2251.4,7.5948e-05,19.186,7.3398e-05,0.030774,-0.00022496,-2241.8,0.81001
21326,12.88,0.18182,0,0.00023211,2319.5,7.8675e-05,24.916,7.5363e-05,0.029115,-0.00023168,-2307,0.84573
21327,12.788,0.18182,0.05,1.3427e-06,13.418,1.031e-06,7.7466,-4.9992e-14,1.7199e-06,-1.031e-06,-7.7466,0.83389
21328,12.788,0.090909,0,0.00022947,2293.2,7.7058e-05,15.972,7.4937e-05,0.035692,-0.0002292,-2285.1,0.83353
21329,13.064,0.18182,0,0.00023348,2333.2,7.8737e-05,20.233,7.6047e-05,0.018553,-0.00023313,-2323,0.86946
21330,12.972,0.18182,0.05,1.0068e-06,10.061,7.731e-07,5.8088,-9.552e-13,2.8203e-06,-7.731e-07,-5.8088,0.85755
21331,12.972,0.090909,0,0.00023186,2317,7.7611e-05,13.167,7.5864e-05,0.041638,-0.00023163,-2310.4,0.85719
21332,13.248,0.18182,0,0.00023358,2334.2,7.8442e-05,16.297,7.6274e-05,0.01042,-0.0002333,-2326,0.89336
21333,13.156,0.18182,0.05,7.3372e-07,7.3322,5.6341e-07,4.2332,-9.173e-13,3.229e-06,-5.6341e-07,-4.2332,0.88137
21334,13.156,0.090909,0,0.00023278,2326.2,7.7716e-05,10.789,7.6286e-05,0.047355,-0.00023259,-2320.7,0.88102
21335,13.432,0.18182,0,0.00023266,2325,7.787e-05,13.068,7.6131e-05,0.0036841,-0.00023244,-2318.5,0.91741
21336,13.34,0.18182,0.05,5.148e-07,5.1445,3.9531e-07,2.9702,-1.6331e-14,2.0259e-06,-3.953e-07,-2.9702,0.90534
21337,13.34,0.090909,0,0.00023252,2323.6,7.7465e-05,8.8233,7.6298e-05,0.051968,-0.00023237,-2319.1,0.905
21338,13.616,0.18182,0,0.00023093,2307.7,7.7082e-05,10.482,7.5687e-05,-0.0026237,-0.00023075,-2302.4,0.94162
21339,13.524,0.18182,0.05,3.4191e-07,3.4168,2.6255e-07,1.9727,-8.9393e-13,2.3406e-06,-2.6255e-07,-1.9727,0.92947
21340,13.524,0.090909,0,0.00023131,2311.5,7.6933e-05,7.2398,7.5977e-05,0.054779,-0.00023118,-2307.8,0.92913
21341,13.799,0.18182,0,0.00022855,2284,7.613e-05,8.4699,7.5002e-05,-0.0091777,-0.00022841,-2279.7,0.96598
21342,13.707,0.18182,0.05,2.0817e-07,2.0802,1.5985e-07,1.201,-7.1857e-13,3.0341e-06,-1.5984e-07,-1.201,0.95376
21343,13.707,0.090909,0,0.00022934,2291.8,7.6182e-05,6.0009,7.539e-05,0.055164,-0.00022924,-2288.8,0.95342
21344,13.983,0.18182,0,0.00022567,2255.2,7.5054e-05,6.9601,7.4125e-05,-0.016178,-0.00022555,-2251.7,0.9905
21345,13.891,0.18182,0.05,1.0967e-07,1.096,8.4216e-08,0.63278,-1.3453e-13,1.1912e-05,-8.4214e-08,-0.63273,0.9782
21346,13.891,0.090909,0,0.00022678,2266.2,7.5258e-05,5.0665,7.4591e-05,0.052739,-0.00022669,-2263.7,0.97787
21347,14.167,0.18182,0,0.00022239,2222.4,7.3882e-05,5.8831,7.3096e-05,-0.023282,-0.00022229,-2219.5,1.0152
21348,14.075,0.18182,0.05,5.5859e-08,0.55821,4.2892e-08,0.32228,1.6302e-12,2.6411e-06,-4.2893e-08,-0.32228,1.0028
21349,14.075,0.090909,0,0.00022375,2235.9,7.4201e-05,4.3969,7.3622e-05,0.047492,-0.00022367,-2233.7,1.0025
21350,14.351,0.18182,0,0.00021881,2186.6,7.264e-05,5.1745,7.1948e-05,-0.029604,-0.00021872,-2184,1.04
21351,14.259,0.18182,0.05,6.9678e-08,0.6963,5.3504e-08,0.40202,6.4047e-13,4.4001e-05,-5.3504e-08,-0.402,1.0275
21352,14.259,0.090909,0,0.00022035,2201.9,7.3042e-05,3.954,7.2521e-05,0.039927,-0.00022028,-2199.9,1.0272
21353,14.534,0.18182,0,0.00021499,2148.4,7.1346e-05,4.7754,7.0706e-05,-0.034032,-0.00021491,-2146,1.065
21354,14.443,0.18182,0.05,1.0299e-07,1.0292,7.9087e-08,0.59425,4.8924e-13,2.4351e-05,-7.9086e-08,-0.59421,1.0524
21355,14.443,0.090909,0,0.00021666,2165.1,7.1805e-05,3.7028,7.1317e-05,0.031166,-0.0002166,-2163.2,1.0521
21356,14.718,0.18182,0,0.00021099,2108.4,7.0014e-05,4.6339,6.9393e-05,-0.035861,-0.00021091,-2106.1,1.0901
21357,14.626,0.18182,0.05,1.3002e-07,1.2993,9.9839e-08,0.75016,7.085e-13,1.7226e-05,-9.9835e-08,-0.75011,1.0775
21358,14.626,0.090909,0,0.00021275,2126.1,7.0509e-05,3.6115,7.0032e-05,0.022557,-0.00021269,-2124.3,1.0772
21359,14.902,0.18182,0,0.00020685,2067.1,6.8655e-05,4.7049,6.8024e-05,-0.035149,-0.00020677,-2064.7,1.1153
21360,14.81,0.18182,0.05,1.4877e-07,1.4867,1.1424e-07,0.85832,-3.5354e-13,5.954e-06,-1.1424e-07,-0.85832,1.1027
21361,14.81,0.090909,0,0.00020868,2085.4,6.9169e-05,3.6519,6.8685e-05,0.015132,-0.00020862,-2083.5,1.1023
21362,15.086,0.18182,0,0.00020261,2024.7,6.7277e-05,4.9499,6.6614e-05,-0.032561,-0.00020253,-2022.3,1.1407
21363,14.994,0.18182,0.05,1.6038e-07,1.6027,1.2315e-07,0.92535,-6.6322e-13,9.3953e-06,-1.2315e-07,-0.92531,1.128
21364,14.994,0.090909,0,0.00020448,2043.4,6.7797e-05,3.8001,6.7292e-05,0.0094101,-0.00020442,-2041.5,1.1277
21365,15.27,0.18182,0,0.0001983,1981.7,6.5887e-05,5.3362,6.5173e-05,-0.028979,-0.00019821,-1979,1.1662
21366,15.178,0.18182,0.05,1.663e-07,1.6619,1.277e-07,0.95951,-3.3685e-13,9.2193e-06,-1.277e-07,-0.95948,1.1534
21367,15.178,0.090909,0,0.00020019,2000.5,6.64e-05,4.0357,6.5864e-05,0.0054053,-0.00020012,-1998.5,1.1531
21368,15.453,0.18182,0,0.00019394,1938.1,6.4489e-05,5.8358,6.3709e-05,-0.025123,-0.00019384,-1935.2,1.1919
21369,15.362,0.18182,0.05,1.6783e-07,1.6771,1.2888e-07,0.96833,8.0876e-13,1.2178e-05,-1.2887e-07,-0.96828,1.179
21370,15.362,0.090909,0,0.00019583,1957,6.4988e-05,4.3415,6.441e-05,0.0027918,-0.00019576,-1954.8,1.1787
21371,15.637,0.18182,0,0.00018954,1894.1,6.3087e-05,6.4249,6.2229e-05,-0.021411,-0.00018943,-1890.9,1.2177
21372,15.545,0.18182,0.05,1.6605e-07,1.6593,1.2751e-07,0.95804,5.1143e-14,1.104e-05,-1.275e-07,-0.95799,1.2048
21373,15.545,0.090909,0,0.00019143,1913,6.3564e-05,4.7032,6.2938e-05,0.0012243,-0.00019135,-1910.6,1.2045
21374,15.821,0.18182,0,0.00018513,1850,6.1684e-05,7.0835,6.0739e-05,-0.01806,-0.000185,-1846.4,1.2436
21375,15.729,0.18182,0.05,1.6186e-07,1.6175,1.2429e-07,0.93388,-1.0529e-12,8.7223e-06,-1.2429e-07,-0.93383,1.2306
21376,15.729,0.090909,0,0.00018699,1868.6,6.2134e-05,5.1086,6.1454e-05,0.00038814,-0.0001869,-1866.1,1.2303
21377,16.005,0.18182,0,0.0001807,1805.7,6.0281e-05,7.7947,5.9242e-05,-0.015154,-0.00018056,-1801.8,1.2696
21378,15.913,0.18182,0.05,1.56e-07,1.5589,1.1979e-07,0.90003,2.0535e-14,8.0749e-06,-1.1978e-07,-0.9,1.2566
21379,15.913,0.090909,0,0.00018253,1824.1,6.07e-05,5.5478,5.9961e-05,-1.0737e-05,-0.00018244,-1821.3,1.2563
21380,16.189,0.18182,0,0.00017626,1761.4,5.888e-05,8.5448,5.7741e-05,-0.01269,-0.00017611,-1757.1,1.2958
21381,16.097,0.18182,0.05,1.4903e-07,1.4893,1.1444e-07,0.85985,1.1968e-13,1.0137e-05,-1.1444e-07,-0.85981,1.2827
21382,16.097,0.090909,0,0.00017807,1779.4,5.9264e-05,6.0122,5.8464e-05,-0.00016888,-0.00017796,-1776.4,1.2824
21383,16.372,0.18182,0,0.00017183,1717.1,5.7482e-05,9.3225,5.624e-05,-0.01064,-0.00017167,-1712.4,1.3221
21384,16.281,0.18182,0.05,1.4142e-07,1.4132,1.0859e-07,0.81595,-6.485e-13,8.5833e-06,-1.0859e-07,-0.81591,1.3089
21385,16.281,0.090909,0,0.0001736,1734.8,5.783e-05,6.495,5.6966e-05,-0.00021009,-0.00017349,-1731.5,1.3087
21386,16.556,0.18182,0,0.0001674,1672.9,5.6088e-05,10.118,5.474e-05,-0.0089492,-0.00016723,-1667.8,1.3485
21387,16.464,0.18182,0.05,1.3352e-07,1.3343,1.0253e-07,0.77039,-9.417e-13,4.0587e-06,-1.0253e-07,-0.77036,1.3353
21388,16.464,0.090909,0,0.00016913,1690.2,5.6398e-05,6.9906,5.5467e-05,-0.00024794,-0.00016901,-1686.7,1.335
21389,16.74,0.18182,0,0.00016299,1628.7,5.4698e-05,10.926,5.3243e-05,-0.00753,-0.0001628,-1623.3,1.375
21390,16.648,0.18182,0.05,1.2561e-07,1.2553,9.6456e-08,0.72475,-8.2965e-13,7.6161e-06,-9.6456e-08,-0.72471,1.3617
21391,16.648,0.090909,0,0.00016468,1645.6,5.4969e-05,7.4944,5.3971e-05,-0.00029509,-0.00016455,-1641.9,1.3615
21392,16.924,0.18182,0,0.00015858,1584.7,5.3313e-05,11.738,5.175e-05,-0.0063273,-0.00015838,-1578.8,1.4016
21393,16.832,0.18182,0.05,1.1792e-07,1.1784,9.0551e-08,0.68036,-1.4931e-12,1.2053e-06,-9.0548e-08,-0.68034,1.3883
21394,16.832,0.090909,0,0.00016023,1601.2,5.3544e-05,8.0031,5.2479e-05,-0.000345,-0.00016009,-1597.2,1.388
21395,17.108,0.18182,0,0.00015419,1540.9,5.1932e-05,12.552,5.0261e-05,-0.0053107,-0.00015398,-1534.6,1.4283
21396,17.016,0.18182,0.05,1.1063e-07,1.1056,8.4953e-08,0.63831,-1.3233e-12,3.9253e-06,-8.4951e-08,-0.63828,1.4149
21397,17.016,0.090909,0,0.0001558,1556.9,5.2123e-05,8.5138,5.099e-05,-0.00042742,-0.00015565,-1552.6,1.4147
21398,17.291,0.18182,0,0.00014982,1497.2,5.0557e-05,13.364,4.8777e-05,-0.0044491,-0.00014959,-1490.5,1.4552
21399,17.2,0.18182,0.05,1.0389e-07,1.0382,7.9774e-08,0.59941,-1.2799e-12,6.9628e-06,-7.9773e-08,-0.59937,1.4417
21400,17.2,0.090909,0,0.00015138,1512.7,5.0708e-05,9.0244,4.9507e-05,-0.0005471,-0.00015122,-1508.2,1.4415
21401,17.475,0.18182,0,0.00014547,1453.7,4.9186e-05,14.171,4.73e-05,-0.0037317,-0.00014522,-1446.5,1.4821
21402,17.383,0.18182,0.05,9.781e-08,0.97743,7.5109e-08,0.56433,8.5342e-14,5.977e-06,-7.5104e-08,-0.56431,1.4686
21403,17.383,0.090909,0,0.00014698,1468.8,4.9298e-05,9.5335,4.8029e-05,-0.00070909,-0.00014681,-1464,1.4684
21404,17.659,0.18182,0,0.00014113,1410.3,4.7821e-05,14.972,4.5828e-05,-0.0031384,-0.00014087,-1402.8,1.5091
21405,17.567,0.18182,0.05,9.2488e-08,0.92424,7.1021e-08,0.53363,-1.2691e-12,7.3813e-06,-7.1017e-08,-0.5336,1.4956
21406,17.567,0.090909,0,0.00014259,1424.9,4.7894e-05,10.04,4.6557e-05,-0.00093576,-0.00014242,-1419.9,1.4953
21407,17.843,0.18182,0,0.00013681,1367.1,4.6462e-05,15.766,4.4363e-05,-0.0026242,-0.00013653,-1359.2,1.5362
21408,17.751,0.18182,0.05,8.7992e-08,0.87931,6.7567e-08,0.50768,-8.5587e-13,4.1556e-06,-6.7566e-08,-0.50765,1.5226
21409,17.751,0.090909,0,0.00013823,1381.3,4.6495e-05,10.543,4.5092e-05,-0.0011959,-0.00013805,-1376,1.5224
21410,18.027,0.18182,0,0.00013251,1324.1,4.5107e-05,16.552,4.2904e-05,-0.0021727,-0.00013222,-1315.8,1.5634
21411,17.935,0.18182,0.05,8.4393e-08,0.84335,6.4805e-08,0.48694,-1.3661e-12,1.5124e-06,-6.4801e-08,-0.48688,1.5498
21412,17.935,0.090909,0,0.00013388,1337.9,4.5102e-05,11.042,4.3633e-05,-0.0014645,-0.00013369,-1332.3,1.5496
21413,18.21,0.18182,0,0.00012822,1281.3,4.3759e-05,17.33,4.1452e-05,-0.0017842,-0.00012792,-1272.6,1.5907
21414,18.119,0.18182,0.05,8.1746e-08,0.8169,6.2773e-08,0.47166,-8.9384e-13,4.4046e-06,-6.2769e-08,-0.47162,1.577
21415,18.119,0.090909,0,0.00012955,1294.6,4.3716e-05,11.538,4.218e-05,-0.0017499,-0.00012935,-1288.8,1.5768
21416,18.394,0.18182,0,0.00012396,1238.7,4.2415e-05,18.101,4.0006e-05,-0.001454,-0.00012364,-1229.6,1.6181
21417,18.302,0.18182,0.05,8.0087e-08,0.80032,6.1498e-08,0.46209,-1.7441e-12,4.2874e-06,-6.1496e-08,-0.46204,1.6044
21418,18.302,0.090909,0,0.00012525,1251.6,4.2335e-05,12.029,4.0733e-05,-0.0020489,-0.00012504,-1245.5,1.6042
21419,18.578,0.18182,0,0.00011971,1196.3,4.1077e-05,18.863,3.8567e-05,-0.0011917,-0.00011938,-1186.7,1.6456
21420,18.486,0.18182,0.05,7.9434e-08,0.79379,6.0996e-08,0.45831,8.4019e-14,4.0068e-06,-6.0994e-08,-0.45828,1.6318
21421,18.486,0.090909,0,0.00012096,1208.7,4.096e-05,12.517,3.9294e-05,-0.0023614,-0.00012074,-1202.4,1.6316
21422,18.762,0.18182,0,0.00011548,1154,3.9745e-05,19.618,3.7134e-05,-0.00099545,-0.00011514,-1144.1,1.6731
21423,18.67,0.18182,0.05,7.9783e-08,0.79728,6.1264e-08,0.46033,9.2944e-14,5.2354e-06,-6.1263e-08,-0.4603,1.6593
21424,18.67,0.090909,0,0.00011669,1166,3.9591e-05,13,3.786e-05,-0.0027125,-0.00011646,-1159.5,1.6591
21425,18.946,0.18182,0,0.00011127,1112,3.8418e-05,20.366,3.5707e-05,-0.00084446,-0.00011091,-1101.7,1.7007
21426,18.854,0.18182,0.05,8.1117e-08,0.81061,6.2289e-08,0.46803,-6.6584e-13,7.2342e-06,-6.2287e-08,-0.46798,1.6869
21427,18.854,0.090909,0,0.00011243,1123.6,3.8228e-05,13.481,3.6433e-05,-0.0030725,-0.0001122,-1116.8,1.6867
21428,19.129,0.18182,0,0.00010708,1070.1,3.7096e-05,21.107,3.4287e-05,-0.00073353,-0.00010671,-1059.4,1.7284
21429,19.038,0.18182,0.05,8.3419e-08,0.83362,6.4056e-08,0.48131,-1.4674e-13,8.9587e-06,-6.4055e-08,-0.48127,1.7145
21430,19.038,0.090909,0,0.0001082,1081.3,3.6871e-05,13.958,3.5013e-05,-0.0034239,-0.00010796,-1074.2,1.7144
21431,19.313,0.18182,0,0.00010291,1028.4,3.578e-05,21.842,3.2873e-05,-0.00067323,-0.00010252,-1017.3,1.7562
21432,19.221,0.18182,0.05,8.6669e-08,0.86609,6.6551e-08,0.50005,-1.1578e-14,7.7453e-06,-6.6551e-08,-0.50003,1.7423
21433,19.221,0.090909,0,0.00010399,1039.2,3.552e-05,14.432,3.3598e-05,-0.0037732,-0.00010373,-1031.9,1.7421
21434,19.497,0.18182,0,9.8754e-05,986.86,3.4468e-05,22.57,3.1464e-05,-0.00067148,-9.8351e-05,-975.38,1.784
21435,19.405,0.18182,0.05,9.0845e-08,0.90782,6.9759e-08,0.52415,-4.9028e-13,7.952e-06,-6.9756e-08,-0.52411,1.7701
21436,19.405,0.090909,0,9.9792e-05,997.23,3.4174e-05,14.904,3.219e-05,-0.0041287,-9.953e-05,-989.69,1.7699
21437,19.681,0.18182,0,9.4615e-05,945.5,3.3162e-05,23.292,3.0062e-05,-0.00074712,-9.4197e-05,-933.64,1.8119
21438,19.589,0.18182,0.05,9.5931e-08,0.95865,7.3664e-08,0.55349,1.396e-13,1.1895e-05,-7.3662e-08,-0.55346,1.7979
21439,19.589,0.090909,0,9.5614e-05,955.48,3.2834e-05,15.373,3.0788e-05,-0.0044783,-9.5343e-05,-947.7,1.7978
21440,19.865,0.18182,0,9.0493e-05,904.3,3.1861e-05,24.008,2.8665e-05,-0.00091067,-9.0061e-05,-892.06,1.8398
21441,19.773,0.18182,0.05,1.0192e-07,1.0185,7.8261e-08,0.58803,5.6759e-14,1.0496e-05,-7.826e-08,-0.588,1.8258
21442,19.773,0.090909,0,9.1453e-05,913.9,3.15e-05,15.839,2.9391e-05,-0.0048466,-9.1174e-05,-905.88,1.8257
21443,20.048,0.18182,0,8.6387e-05,863.27,3.0564e-05,24.717,2.7274e-05,-0.0011537,-8.594e-05,-850.65,1.8679
21444,19.956,0.18182,0.05,1.0881e-07,1.0873,8.3549e-08,0.62777,1.3604e-13,1.2889e-05,-8.3549e-08,-0.62774,1.8538
21445,19.956,0.090909,0,8.731e-05,872.5,3.0171e-05,16.302,2.8001e-05,-0.0052123,-8.7022e-05,-864.24,1.8537
21446,20.232,0.18182,0,8.2297e-05,822.4,2.9272e-05,25.419,2.5889e-05,-0.0014873,-8.1835e-05,-809.4,1.8959
21447,20.14,0.18182,0.05,1.1661e-07,1.1653,8.9545e-08,0.67282,3.9426e-13,1.9353e-05,-8.9544e-08,-0.67279,1.8819
21448,20.14,0.090909,0,8.3184e-05,831.27,2.8847e-05,16.763,2.6616e-05,-0.005554,-8.2886e-05,-822.76,1.8817
21449,20.416,0.18182,0,7.8222e-05,781.68,2.7984e-05,26.113,2.4509e-05,-0.0019376,-7.7745e-05,-768.3,1.924
21450,20.324,0.18182,0.05,1.2537e-07,1.2529,9.6271e-08,0.72335,7.2242e-13,1.4487e-05,-9.627e-08,-0.72333,1.91
21451,20.324,0.090909,0,7.9074e-05,790.2,2.7529e-05,17.22,2.5236e-05,-0.0058815,-7.8767e-05,-781.45,1.9098
21452,20.6,0.18182,0,7.4162e-05,741.11,2.6701e-05,26.797,2.3134e-05,-0.0025288,-7.367e-05,-727.35,1.9522
21453,20.508,0.18182,0.05,1.3512e-07,1.3503,1.0376e-07,0.77959,9.5328e-13,1.1831e-05,-1.0375e-07,-0.77956,1.9381
21454,20.508,0.090909,0,7.4981e-05,749.29,2.6216e-05,17.673,2.3863e-05,-0.0061844,-7.4665e-05,-740.3,1.938
21455,20.784,0.18182,0,7.0116e-05,700.68,2.5421e-05,27.47,2.1764e-05,-0.0032947,-6.9609e-05,-686.54,1.9804
21456,20.692,0.18182,0.05,1.4591e-07,1.4581,1.1204e-07,0.84182,8.0608e-13,1.5316e-05,-1.1204e-07,-0.84179,1.9663
21457,20.692,0.090909,0,7.0903e-05,708.54,2.4907e-05,18.121,2.2494e-05,-0.0064609,-7.0578e-05,-699.31,1.9662
21458,20.967,0.18182,0,6.6084e-05,660.39,2.4144e-05,28.129,2.0399e-05,-0.0042696,-6.5561e-05,-645.88,2.0087
21459,20.875,0.18182,0.05,1.5779e-07,1.5768,1.2116e-07,0.91037,4.5143e-13,1.7448e-05,-1.2116e-07,-0.91034,1.9945
21460,20.875,0.090909,0,6.6841e-05,667.95,2.3603e-05,18.564,2.1131e-05,-0.0067121,-6.6506e-05,-658.48,1.9944
21461,21.151,0.18182,0,6.2066e-05,620.23,2.287e-05,28.773,1.904e-05,-0.0054848,-6.1526e-05,-605.35,2.037
21462,21.059,0.18182,0.05,1.7083e-07,1.7071,1.3117e-07,0.9856,1.0708e-12,2.0981e-05,-1.3117e-07,-0.98557,2.0228
21463,21.059,0.090909,0,6.2795e-05,627.51,2.2303e-05,18.998,1.9773e-05,-0.0069095,-6.245e-05,-617.8,2.0227
21464,21.335,0.18182,0,5.806e-05,580.2,2.1598e-05,29.397,1.7685e-05,-0.0069925,-5.7504e-05,-564.95,2.0654
21465,21.243,0.18182,0.05,1.851e-07,1.8498,1.4214e-07,1.068,6.4541e-13,1.5616e-05,-1.4214e-07,-1.068,2.0512
21466,21.243,0.090909,0,5.8763e-05,587.22,2.1007e-05,19.424,1.8421e-05,-0.0070203,-5.8408e-05,-577.27,2.0511
21467,21.519,0.18182,0,5.4067e-05,540.3,2.0328e-05,29.997,1.6335e-05,-0.0088671,-5.3494e-05,-524.68,2.0937
21468,21.427,0.18182,0.05,2.0071e-07,2.0058,1.5412e-07,1.158,3.592e-13,1.1125e-05,-1.5412e-07,-1.158,2.0795
21469,21.427,0.090909,0,5.4746e-05,547.08,1.9715e-05,19.839,1.7074e-05,-0.0070279,-5.4382e-05,-536.9,2.0794
21470,21.703,0.18182,0,5.0086e-05,500.51,1.906e-05,30.568,1.499e-05,-0.011197,-4.9496e-05,-484.53,2.1222
21471,21.611,0.18182,0.05,2.1775e-07,2.176,1.6721e-07,1.2563,-2.4927e-13,9.2371e-06,-1.6721e-07,-1.2563,2.1079
21472,21.611,0.090909,0,5.0744e-05,507.09,1.8427e-05,20.239,1.5732e-05,-0.006892,-5.037e-05,-496.67,2.1078
21473,21.886,0.18182,0,4.6116e-05,460.84,1.7792e-05,31.104,1.365e-05,-0.014103,-4.5508e-05,-444.51,2.1506
21474,21.794,0.18182,0.05,2.3634e-07,2.3618,1.8148e-07,1.3636,7.8637e-13,1.2869e-05,-1.8148e-07,-1.3636,2.1364
21475,21.794,0.090909,0,4.6757e-05,467.25,1.7142e-05,20.622,1.4397e-05,-0.0065636,-4.6372e-05,-456.6,2.1363
21476,22.07,0.18182,0,4.2158e-05,421.29,1.6524e-05,31.598,1.2316e-05,-0.017735,-4.1532e-05,-404.61,2.1791
21477,21.978,0.18182,0.05,2.566e-07,2.5642,1.9704e-07,1.4805,1.6761e-13,3.2738e-06,-1.9704e-07,-1.4805,2.1648
21478,21.978,0.090909,0,4.2786e-05,427.56,1.586e-05,20.983,1.3067e-05,-0.0059689,-4.239e-05,-416.69,2.1647
21479,22.254,0.18182,0,3.8211e-05,381.85,1.5255e-05,32.04,1.0987e-05,-0.022288,-3.7566e-05,-364.83,2.2076
21480,22.162,0.18182,0.05,2.7869e-07,2.785,2.14e-07,1.6079,2.09e-13,2.6174e-06,-2.14e-07,-1.6079,2.1933
21481,22.162,0.090909,0,3.8831e-05,388.04,1.4581e-05,21.318,1.1743e-05,-0.0049832,-3.8424e-05,-376.94,2.1932
21482,22.438,0.18182,0,3.4277e-05,342.54,1.3984e-05,32.419,9.6651e-06,-0.028029,-3.3611e-05,-325.19,2.2361
21483,22.346,0.18182,0.05,3.0281e-07,3.026,2.3252e-07,1.747,7.7494e-13,8.3535e-06,-2.3252e-07,-1.7471,2.2218
21484,22.346,0.090909,0,3.4892e-05,348.68,1.3304e-05,21.619,1.0427e-05,-0.0034365,-3.4474e-05,-337.37,2.2218
21485,22.622,0.18182,0,3.0356e-05,303.35,1.271e-05,32.722,8.3498e-06,-0.035382,-2.9667e-05,-285.68,2.2647
21486,22.53,0.18182,0.05,3.2917e-07,3.2894,2.5276e-07,1.8992,2.0467e-13,5.4022e-06,-2.5276e-07,-1.8991,2.2504
21487,22.53,0.090909,0,3.0973e-05,309.52,1.203e-05,21.878,9.1182e-06,-0.001039,-3.0543e-05,-298,2.2503
21488,22.805,0.18182,0,2.645e-05,264.32,1.1432e-05,32.933,7.0425e-06,-0.044753,-2.5736e-05,-246.33,2.2932
21489,22.713,0.18182,0.05,3.5808e-07,3.5783,2.7496e-07,2.0659,4.5984e-13,2.1167e-06,-2.7496e-07,-2.0659,2.2789
21490,22.713,0.090909,0,2.7076e-05,270.57,1.0758e-05,22.085,7.819e-06,0.0025589,-2.6632e-05,-258.85,2.2789
21491,22.989,0.18182,0,2.2564e-05,225.48,1.0149e-05,33.033,5.7446e-06,-0.057507,-2.182e-05,-207.17,2.3218
21492,22.897,0.18182,0.05,3.8992e-07,3.8965,2.9941e-07,2.2497,7.0561e-13,8.1338e-06,-2.9941e-07,-2.2497,2.3075
21493,22.897,0.090909,0,2.3205e-05,231.89,9.4879e-06,22.226,6.5309e-06,0.0084674,-2.2746e-05,-219.97,2.3074
21494,23.173,0.18182,0,1.8704e-05,186.91,8.8608e-06,33.005,4.4585e-06,-0.07266,-1.7923e-05,-168.24,2.3504
21495,23.081,0.18182,0.05,4.2526e-07,4.2497,3.2655e-07,2.4536,3.4543e-13,6.6479e-06,-3.2655e-07,-2.4535,2.3361
21496,23.081,0.090909,0,1.9366e-05,193.53,8.2198e-06,22.28,5.2567e-06,0.016715,-1.889e-05,-181.41,2.336
21497,23.357,0.18182,0,1.4887e-05,148.77,7.571e-06,32.845,3.1862e-06,-0.1001,-1.4054e-05,-129.63,2.379
21498,23.265,0.18182,0.05,4.6505e-07,4.6473,3.571e-07,2.6831,3.0021e-13,3.5191e-06,-3.571e-07,-2.6831,2.3647
21499,23.265,0.090909,0,1.5571e-05,155.6,6.9542e-06,22.223,4.0013e-06,0.035594,-1.5073e-05,-143.28,2.3646
21500,23.541,0.18182,0,1.1155e-05,111.48,6.2925e-06,32.633,1.9341e-06,-0.11431,-1.0235e-05,-91.549,2.4076
21501,23.449,0.18182,0.05,5.106e-07,5.1024,3.9207e-07,2.9459,6.6857e-13,9.4608e-06,-3.9207e-07,-2.9459,2.3933
21502,23.449,0.090909,0,1.1839e-05,118.31,5.6922e-06,22.005,2.7702e-06,0.049467,-1.131e-05,-105.74,2.3932
21503,23.724,0.18182,0,7.6892e-06,76.839,5.1298e-06,33.073,6.871e-07,-0.30706,-6.5669e-06,-54.811,2.4362
21504,23.632,0.18182,0.05,5.6787e-07,5.6748,4.3605e-07,3.2763,1.4395e-13,8.1463e-06,-4.3605e-07,-3.2763,2.4219
21505,23.632,0.090909,0,8.221e-06,82.153,4.4449e-06,21.66,1.5815e-06,0.14542,-7.6358e-06,-69.11,2.4219
21506,23.816,0.18182,0.05,6.9002e-07,6.8954,5.2985e-07,3.9811,8.8725e-13,9.3542e-06,-5.2985e-07,-3.9811,2.4505
21507,23.816,0.090909,0,4.8631e-06,48.597,3.2518e-06,21.087,4.3627e-07,-0.06695,-4.1467e-06,-34.502,2.4505
21508,23.908,0.18182,0,4.8147e-06,48.114,4.126e-06,34.453,-4.632e-07,-0.028602,-3.1895e-06,-20.513,2.4649
21509,23.724,0.18182,0.1,7.6892e-06,76.839,6.5669e-06,54.811,-6.871e-07,0.30706,-5.1298e-06,-33.073,2.4362
21510,23.816,0.27273,0.1,7.1184e-06,71.135,5.1896e-06,37.202,2.8849e-07,0.37702,-5.7236e-06,-44.796,2.4506
21511,23.908,0.18182,0.1,4.8147e-06,48.114,3.1895e-06,20.513,4.632e-07,0.028601,-4.126e-06,-34.453,2.4649
21512,23.816,0.090909,0.1,4.8631e-06,48.597,4.1467e-06,34.502,-4.3627e-07,0.066953,-3.2518e-06,-21.087,2.4505
21513,23.541,0.18182,0.1,1.1155e-05,111.48,1.0235e-05,91.549,-1.9341e-06,0.11431,-6.2925e-06,-32.633,2.4076
21514,23.632,0.27273,0.1,9.9419e-06,99.35,8.5911e-06,72.365,-1.0334e-06,0.051002,-6.486e-06,-40.918,2.422
21515,23.632,0.090909,0.1,8.221e-06,82.153,7.6358e-06,69.11,-1.5815e-06,-0.14542,-4.4449e-06,-21.66,2.4219
21516,23.357,0.18182,0.1,1.4887e-05,148.77,1.4054e-05,129.63,-3.1862e-06,0.1001,-7.571e-06,-32.845,2.379
21517,23.449,0.27273,0.1,1.3358e-05,133.49,1.2255e-05,109.59,-2.3161e-06,0.1125,-7.5369e-06,-39.114,2.3934
21518,23.449,0.090909,0.1,1.1839e-05,118.31,1.131e-05,105.74,-2.7702e-06,-0.049465,-5.6922e-06,-22.005,2.3932
21519,23.173,0.18182,0.1,1.8704e-05,186.91,1.7923e-05,168.24,-4.4585e-06,0.072659,-8.8608e-06,-33.005,2.3504
21520,23.265,0.27273,0.1,1.6995e-05,169.84,1.6027e-05,147.65,-3.6127e-06,0.087916,-8.6804e-06,-37.989,2.3648
21521,23.265,0.090909,0.1,1.5571e-05,155.6,1.5073e-05,143.28,-4.0013e-06,-0.035596,-6.9542e-06,-22.223,2.3646
21522,22.989,0.18182,0.1,2.2564e-05,225.48,2.182e-05,207.17,-5.7446e-06,0.057508,-1.0149e-05,-33.033,2.3218
21523,23.081,0.27273,0.1,2.0738e-05,207.24,1.9857e-05,186.21,-4.916e-06,0.082583,-9.8642e-06,-37.096,2.3362
21524,23.081,0.090909,0.1,1.9366e-05,193.53,1.889e-05,181.41,-5.2567e-06,-0.016712,-8.2198e-06,-22.28,2.336
21525,22.805,0.18182,0.1,2.645e-05,264.32,2.5736e-05,246.33,-7.0425e-06,0.044753,-1.1432e-05,-32.933,2.2932
21526,22.897,0.27273,0.1,2.4542e-05,245.25,2.3722e-05,225.11,-6.2278e-06,0.072299,-1.1068e-05,-36.295,2.3076
21527,22.897,0.090909,0.1,2.3205e-05,231.89,2.2746e-05,219.97,-6.5309e-06,-0.0084666,-9.4879e-06,-22.226,2.3074
21528,22.622,0.18182,0.1,3.0356e-05,303.35,2.9667e-05,285.68,-8.3498e-06,0.035382,-1.271e-05,-32.722,2.2647
21529,22.713,0.27273,0.1,2.8385e-05,283.65,2.7614e-05,264.24,-7.5466e-06,0.064402,-1.2283e-05,-35.521,2.279
21530,22.713,0.090909,0.1,2.7076e-05,270.57,2.6632e-05,258.85,-7.819e-06,-0.0025576,-1.0758e-05,-22.085,2.2789
21531,22.438,0.18182,0.1,3.4277e-05,342.54,3.3611e-05,325.19,-9.6651e-06,0.028029,-1.3984e-05,-32.419,2.2361
21532,22.53,0.27273,0.1,3.2256e-05,322.34,3.1525e-05,303.58,-8.8717e-06,0.057181,-1.3505e-05,-34.752,2.2505
21533,22.53,0.090909,0.1,3.0973e-05,309.52,3.0543e-05,298,-9.1182e-06,0.0010403,-1.203e-05,-21.878,2.2503
21534,22.254,0.18182,0.1,3.8211e-05,381.85,3.7566e-05,364.83,-1.0987e-05,0.022288,-1.5255e-05,-32.04,2.2076
21535,22.346,0.27273,0.1,3.615e-05,361.25,3.5452e-05,343.08,-1.0202e-05,0.050994,-1.4731e-05,-33.977,2.2219
21536,22.346,0.090909,0.1,3.4892e-05,348.68,3.4474e-05,337.37,-1.0427e-05,0.0034375,-1.3304e-05,-21.619,2.2218
21537,22.07,0.18182,0.1,4.2158e-05,421.29,4.1532e-05,404.61,-1.2316e-05,0.017735,-1.6524e-05,-31.598,2.1791
21538,22.162,0.27273,0.1,4.0062e-05,400.34,3.9394e-05,382.73,-1.1538e-05,0.045598,-1.5962e-05,-33.193,2.1934
21539,22.162,0.090909,0.1,3.883e-05,388.04,3.8424e-05,376.94,-1.1743e-05,0.0049831,-1.4581e-05,-21.318,2.1932
21540,21.886,0.18182,0.1,4.6116e-05,460.84,4.5508e-05,444.51,-1.365e-05,0.014103,-1.7792e-05,-31.104,2.1506
21541,21.978,0.27273,0.1,4.399e-05,439.6,4.335e-05,422.52,-1.2879e-05,0.040896,-1.7196e-05,-32.398,2.1649
21542,21.978,0.090909,0.1,4.2786e-05,427.56,4.239e-05,416.69,-1.3067e-05,0.0059703,-1.586e-05,-20.983,2.1647
21543,21.703,0.18182,0.1,5.0086e-05,500.51,4.9496e-05,484.53,-1.499e-05,0.011198,-1.906e-05,-30.568,2.1222
21544,21.794,0.27273,0.1,4.7934e-05,479.01,4.7319e-05,462.45,-1.4224e-05,0.036781,-1.8434e-05,-31.596,2.1365
21545,21.794,0.090909,0.1,4.6757e-05,467.25,4.6372e-05,456.6,-1.4397e-05,0.0065643,-1.7142e-05,-20.622,2.1363
21546,21.519,0.18182,0.1,5.4067e-05,540.3,5.3494e-05,524.68,-1.6335e-05,0.0088677,-2.0328e-05,-29.997,2.0937
21547,21.611,0.27273,0.1,5.1892e-05,518.56,5.13e-05,502.5,-1.5574e-05,0.033176,-1.9676e-05,-30.786,2.1081
21548,21.611,0.090909,0.1,5.0744e-05,507.09,5.037e-05,496.67,-1.5732e-05,0.0068942,-1.8427e-05,-20.239,2.1078
21549,21.335,0.18182,0.1,5.806e-05,580.2,5.7504e-05,564.95,-1.7685e-05,0.0069919,-2.1598e-05,-29.397,2.0654
21550,21.427,0.27273,0.1,5.5865e-05,558.26,5.5295e-05,542.69,-1.6928e-05,0.029988,-2.0921e-05,-29.97,2.0797
21551,21.427,0.090909,0.1,5.4746e-05,547.08,5.4382e-05,536.9,-1.7074e-05,0.0070295,-1.9715e-05,-19.839,2.0794
21552,21.151,0.18182,0.1,6.2066e-05,620.23,6.1526e-05,605.35,-1.904e-05,0.0054839,-2.287e-05,-28.773,2.037
21553,21.243,0.27273,0.1,5.9851e-05,598.1,5.9302e-05,583,-1.8287e-05,0.027159,-2.217e-05,-29.151,2.0513
21554,21.243,0.090909,0.1,5.8763e-05,587.22,5.8408e-05,577.27,-1.8421e-05,0.0070202,-2.1007e-05,-19.424,2.0511
21555,20.967,0.18182,0.1,6.6084e-05,660.39,6.5561e-05,645.88,-2.0399e-05,0.0042695,-2.4144e-05,-28.129,2.0087
21556,21.059,0.27273,0.1,6.3852e-05,638.08,6.3323e-05,623.45,-1.965e-05,0.024632,-2.3424e-05,-28.33,2.023
21557,21.059,0.090909,0.1,6.2795e-05,627.51,6.245e-05,617.8,-1.9773e-05,0.0069105,-2.2303e-05,-18.998,2.0227
21558,20.784,0.18182,0.1,7.0116e-05,700.68,6.9609e-05,686.54,-2.1764e-05,0.0032944,-2.5421e-05,-27.47,1.9804
21559,20.875,0.27273,0.1,6.7867e-05,678.2,6.7357e-05,664.04,-2.1018e-05,0.022354,-2.4682e-05,-27.507,1.9947
21560,20.875,0.090909,0.1,6.6841e-05,667.95,6.6506e-05,658.48,-2.1131e-05,0.0067132,-2.3603e-05,-18.563,1.9944
21561,20.6,0.18182,0.1,7.4162e-05,741.11,7.367e-05,727.35,-2.3134e-05,0.0025276,-2.6701e-05,-26.797,1.9522
21562,20.692,0.27273,0.1,7.1897e-05,718.47,7.1406e-05,704.77,-2.239e-05,0.0203,-2.5944e-05,-26.683,1.9665
21563,20.692,0.090909,0.1,7.0903e-05,708.54,7.0578e-05,699.31,-2.2494e-05,0.0064616,-2.4907e-05,-18.121,1.9662
21564,20.416,0.18182,0.1,7.8222e-05,781.68,7.7745e-05,768.3,-2.4509e-05,0.0019372,-2.7984e-05,-26.113,1.924
21565,20.508,0.27273,0.1,7.5942e-05,758.89,7.5469e-05,745.64,-2.3767e-05,0.018451,-2.7211e-05,-25.86,1.9383
21566,20.508,0.090909,0.1,7.4981e-05,749.29,7.4665e-05,740.3,-2.3863e-05,0.0061835,-2.6216e-05,-17.673,1.938
21567,20.232,0.18182,0.1,8.2297e-05,822.4,8.1835e-05,809.4,-2.5889e-05,0.0014876,-2.9272e-05,-25.419,1.8959
21568,20.324,0.27273,0.1,8.0002e-05,799.47,7.9547e-05,786.66,-2.5149e-05,0.016767,-2.8484e-05,-25.036,1.9101
21569,20.324,0.090909,0.1,7.9074e-05,790.2,7.8767e-05,781.45,-2.5236e-05,0.0058822,-2.7529e-05,-17.22,1.9098
21570,20.048,0.18182,0.1,8.6387e-05,863.27,8.594e-05,850.65,-2.7274e-05,0.0011537,-3.0564e-05,-24.717,1.8679
21571,20.14,0.27273,0.1,8.4078e-05,840.2,8.364e-05,827.84,-2.6537e-05,0.015222,-2.9761e-05,-24.213,1.882
21572,20.14,0.090909,0.1,8.3184e-05,831.27,8.2886e-05,822.76,-2.6616e-05,0.0055568,-2.8847e-05,-16.763,1.8817
21573,19.865,0.18182,0.1,9.0493e-05,904.31,9.0061e-05,892.06,-2.8665e-05,0.00091133,-3.1861e-05,-24.008,1.8398
21574,19.956,0.27273,0.1,8.8171e-05,881.1,8.775e-05,869.18,-2.7929e-05,0.013796,-3.1044e-05,-23.39,1.854
21575,19.956,0.090909,0.1,8.731e-05,872.5,8.7022e-05,864.24,-2.8001e-05,0.005211,-3.0171e-05,-16.302,1.8537
21576,19.681,0.18182,0.1,9.4615e-05,945.5,9.4197e-05,933.64,-3.0062e-05,0.00074796,-3.3162e-05,-23.292,1.8119
21577,19.773,0.27273,0.1,9.228e-05,922.16,9.1875e-05,910.68,-2.9327e-05,0.012458,-3.2332e-05,-22.566,1.826
21578,19.773,0.090909,0.1,9.1453e-05,913.9,9.1174e-05,905.88,-2.9391e-05,0.0048482,-3.15e-05,-15.839,1.8257
21579,19.497,0.18182,0.1,9.8754e-05,986.86,9.8351e-05,975.38,-3.1464e-05,0.00067244,-3.4468e-05,-22.57,1.784
21580,19.589,0.27273,0.1,9.6406e-05,963.39,9.6017e-05,952.34,-3.073e-05,0.011208,-3.3625e-05,-21.74,1.7981
21581,19.589,0.090909,0.1,9.5614e-05,955.48,9.5343e-05,947.7,-3.0788e-05,0.0044783,-3.2834e-05,-15.373,1.7978
21582,19.313,0.18182,0.1,0.00010291,1028.4,0.00010252,1017.3,-3.2873e-05,0.00067349,-3.578e-05,-21.842,1.7562
21583,19.405,0.27273,0.1,0.00010055,1004.8,0.00010018,994.18,-3.2139e-05,0.010055,-3.4924e-05,-20.913,1.7702
21584,19.405,0.090909,0.1,9.9792e-05,997.23,9.953e-05,989.69,-3.219e-05,0.0041286,-3.4174e-05,-14.904,1.7699
21585,19.129,0.18182,0.1,0.00010708,1070.1,0.00010671,1059.4,-3.4287e-05,0.00073267,-3.7096e-05,-21.107,1.7284
21586,19.221,0.27273,0.1,0.00010471,1046.4,0.00010435,1036.2,-3.3554e-05,0.0089658,-3.6228e-05,-20.083,1.7425
21587,19.221,0.090909,0.1,0.00010399,1039.2,0.00010373,1031.9,-3.3598e-05,0.0037732,-3.552e-05,-14.432,1.7421
21588,18.946,0.18182,0.1,0.00011127,1112,0.00011091,1101.7,-3.5707e-05,0.00084399,-3.8418e-05,-20.366,1.7007
21589,19.038,0.27273,0.1,0.00010889,1088.1,0.00010855,1078.4,-3.4975e-05,0.0079284,-3.7538e-05,-19.249,1.7147
21590,19.038,0.090909,0.1,0.0001082,1081.3,0.00010796,1074.2,-3.5013e-05,0.0034239,-3.6871e-05,-13.958,1.7144
21591,18.762,0.18182,0.1,0.00011548,1154,0.00011514,1144.1,-3.7134e-05,0.00099572,-3.9745e-05,-19.618,1.6731
21592,18.854,0.27273,0.1,0.00011308,1130.1,0.00011276,1120.7,-3.6402e-05,0.0069307,-3.8853e-05,-18.41,1.6871
21593,18.854,0.090909,0.1,0.00011243,1123.6,0.0001122,1116.8,-3.6433e-05,0.0030731,-3.8228e-05,-13.481,1.6867
21594,18.578,0.18182,0.1,0.00011971,1196.3,0.00011938,1186.7,-3.8567e-05,0.0011917,-4.1077e-05,-18.863,1.6456
21595,18.67,0.27273,0.1,0.0001173,1172.2,0.00011699,1163.3,-3.7835e-05,0.005951,-4.0173e-05,-17.564,1.6595
21596,18.67,0.090909,0.1,0.00011669,1166,0.00011646,1159.5,-3.786e-05,0.0027133,-3.9591e-05,-13,1.6591
21597,18.394,0.18182,0.1,0.00012396,1238.7,0.00012364,1229.6,-4.0006e-05,0.0014537,-4.2415e-05,-18.101,1.6181
21598,18.486,0.27273,0.1,0.00012153,1214.5,0.00012124,1206,-3.9274e-05,0.0050077,-4.1499e-05,-16.712,1.632
21599,18.486,0.090909,0.1,0.00012096,1208.7,0.00012074,1202.4,-3.9294e-05,0.0023627,-4.096e-05,-12.517,1.6316
21600,18.21,0.18182,0.1,0.00012822,1281.3,0.00012792,1272.6,-4.1452e-05,0.0017836,-4.3759e-05,-17.33,1.5907
21601,18.302,0.27273,0.1,0.00012578,1257,0.00012551,1249,-4.0721e-05,0.0041172,-4.2831e-05,-15.851,1.6046
21602,18.302,0.090909,0.1,0.00012525,1251.6,0.00012504,1245.5,-4.0733e-05,0.0020477,-4.2335e-05,-12.029,1.6042
21603,18.027,0.18182,0.1,0.00013251,1324.1,0.00013222,1315.8,-4.2904e-05,0.002172,-4.5107e-05,-16.552,1.5634
21604,18.119,0.27273,0.1,0.00013005,1299.6,0.00012979,1292.1,-4.2173e-05,0.0032534,-4.4168e-05,-14.982,1.5773
21605,18.119,0.090909,0.1,0.00012955,1294.6,0.00012935,1288.8,-4.218e-05,0.0017508,-4.3716e-05,-11.538,1.5768
21606,17.843,0.18182,0.1,0.00013681,1367.1,0.00013653,1359.2,-4.4363e-05,0.002624,-4.6462e-05,-15.766,1.5362
21607,17.935,0.27273,0.1,0.00013434,1342.5,0.0001341,1335.4,-4.3632e-05,0.0024147,-4.551e-05,-14.102,1.55
21608,17.935,0.090909,0.1,0.00013388,1337.9,0.00013369,1332.3,-4.3633e-05,0.0014642,-4.5102e-05,-11.042,1.5496
21609,17.659,0.18182,0.1,0.00014113,1410.3,0.00014087,1402.8,-4.5828e-05,0.0031387,-4.7821e-05,-14.972,1.5091
21610,17.751,0.27273,0.1,0.00013865,1385.5,0.00013842,1378.9,-4.5098e-05,0.0016018,-4.6857e-05,-13.213,1.5229
21611,17.751,0.090909,0.1,0.00013823,1381.3,0.00013805,1376,-4.5092e-05,0.0011952,-4.6495e-05,-10.543,1.5224
21612,17.475,0.18182,0.1,0.00014547,1453.7,0.00014522,1446.5,-4.73e-05,0.0037318,-4.9186e-05,-14.171,1.4821
21613,17.567,0.27273,0.1,0.00014297,1428.8,0.00014276,1422.6,-4.657e-05,0.00079915,-4.8209e-05,-12.314,1.4958
21614,17.567,0.090909,0.1,0.00014259,1424.9,0.00014242,1419.9,-4.6557e-05,0.00093677,-4.7894e-05,-10.04,1.4953
21615,17.291,0.18182,0.1,0.00014982,1497.2,0.00014959,1490.5,-4.8777e-05,0.0044487,-5.0557e-05,-13.364,1.4552
21616,17.383,0.27273,0.1,0.00014732,1472.2,0.00014712,1466.4,-4.8049e-05,5.0174e-05,-4.9567e-05,-11.406,1.4688
21617,17.383,0.090909,0.1,0.00014698,1468.8,0.00014681,1464,-4.8029e-05,0.00070982,-4.9298e-05,-9.5335,1.4684
21618,17.108,0.18182,0.1,0.00015419,1540.9,0.00015398,1534.6,-5.0261e-05,0.0053109,-5.1932e-05,-12.552,1.4283
21619,17.2,0.27273,0.1,0.00015168,1515.7,0.0001515,1510.5,-4.9533e-05,-0.00059888,-5.0929e-05,-10.489,1.442
21620,17.2,0.090909,0.1,0.00015138,1512.7,0.00015122,1508.2,-4.9507e-05,0.00054777,-5.0708e-05,-9.0244,1.4415
21621,16.924,0.18182,0.1,0.00015858,1584.7,0.00015838,1578.8,-5.175e-05,0.0063275,-5.3313e-05,-11.738,1.4016
21622,17.016,0.27273,0.1,0.00015606,1559.5,0.00015589,1554.7,-5.1024e-05,-0.0011467,-5.2297e-05,-9.5674,1.4152
21623,17.016,0.090909,0.1,0.0001558,1556.9,0.00015565,1552.6,-5.099e-05,0.00042797,-5.2123e-05,-8.5138,1.4147
21624,16.74,0.18182,0.1,0.00016299,1628.7,0.0001628,1623.3,-5.3243e-05,0.0075296,-5.4698e-05,-10.926,1.375
21625,16.832,0.27273,0.1,0.00016045,1603.4,0.0001603,1599,-5.2519e-05,-0.0015539,-5.3669e-05,-8.6431,1.3885
21626,16.832,0.090909,0.1,0.00016023,1601.2,0.00016009,1597.2,-5.2479e-05,0.00034417,-5.3544e-05,-8.0031,1.388
21627,16.556,0.18182,0.1,0.0001674,1672.9,0.00016723,1667.8,-5.474e-05,0.0089489,-5.6088e-05,-10.118,1.3485
21628,16.648,0.27273,0.1,0.00016485,1647.4,0.00016472,1643.5,-5.4019e-05,-0.0017506,-5.5047e-05,-7.7209,1.362
21629,16.648,0.090909,0.1,0.00016468,1645.6,0.00016455,1641.9,-5.3971e-05,0.00029517,-5.4969e-05,-7.4944,1.3615
21630,16.372,0.18182,0.1,0.00017183,1717.1,0.00017167,1712.4,-5.624e-05,0.01064,-5.7482e-05,-9.3224,1.3221
21631,16.464,0.27273,0.1,0.00016927,1691.6,0.00016916,1688.1,-5.5523e-05,-0.001652,-5.6428e-05,-6.807,1.3355
21632,16.464,0.090909,0.1,0.00016913,1690.2,0.00016901,1686.7,-5.5467e-05,0.00024877,-5.6398e-05,-6.9905,1.335
21633,16.189,0.18182,0.1,0.00017626,1761.4,0.00017611,1757.1,-5.7741e-05,0.01269,-5.888e-05,-8.5448,1.2958
21634,16.281,0.27273,0.1,0.0001737,1735.8,0.0001736,1732.8,-5.7028e-05,-0.0010621,-5.7814e-05,-5.9095,1.3092
21635,16.281,0.090909,0.1,0.0001736,1734.8,0.00017349,1731.5,-5.6966e-05,0.0002102,-5.783e-05,-6.495,1.3087
21636,16.005,0.18182,0.1,0.0001807,1805.7,0.00018056,1801.8,-5.9242e-05,0.015154,-6.0281e-05,-7.7947,1.2696
21637,16.097,0.27273,0.1,0.00017813,1780.1,0.00017805,1777.6,-5.8534e-05,0.00031074,-5.9205e-05,-5.0387,1.283
21638,16.097,0.090909,0.1,0.00017807,1779.4,0.00017796,1776.4,-5.8464e-05,0.00016923,-5.9264e-05,-6.0122,1.2824
21639,15.821,0.18182,0.1,0.00018513,1850,0.000185,1846.4,-6.0739e-05,0.018059,-6.1684e-05,-7.0834,1.2436
21640,15.913,0.27273,0.1,0.00018257,1824.4,0.00018249,1822.3,-6.0038e-05,0.0028478,-6.0599e-05,-4.2081,1.2569
21641,15.913,0.090909,0.1,0.00018253,1824.1,0.00018244,1821.3,-5.9961e-05,1.2221e-05,-6.07e-05,-5.5478,1.2563
21642,15.637,0.18182,0.1,0.00018954,1894.1,0.00018943,1890.9,-6.2229e-05,0.021411,-6.3087e-05,-6.4249,1.2177
21643,15.729,0.27273,0.1,0.00018699,1868.7,0.00018694,1866.9,-6.1537e-05,0.0072181,-6.1995e-05,-3.4342,1.2309
21644,15.729,0.090909,0.1,0.00018699,1868.6,0.0001869,1866.1,-6.1454e-05,-0.00038841,-6.2134e-05,-5.1086,1.2303
21645,15.453,0.18182,0.1,0.00019394,1938.1,0.00019384,1935.2,-6.3709e-05,0.025123,-6.4489e-05,-5.8357,1.1919
21646,15.545,0.27273,0.1,0.00019141,1912.8,0.00019136,1911.4,-6.3028e-05,0.014489,-6.3394e-05,-2.7379,1.2051
21647,15.545,0.090909,0.1,0.00019143,1913,0.00019135,1910.6,-6.2938e-05,-0.0012235,-6.3564e-05,-4.7032,1.2045
21648,15.27,0.18182,0.1,0.0001983,1981.7,0.00019821,1979,-6.5173e-05,0.028979,-6.5887e-05,-5.3362,1.1662
21649,15.362,0.27273,0.1,0.0001958,1956.6,0.00019576,1955.6,-6.4505e-05,0.026174,-6.4794e-05,-2.1446,1.1793
21650,15.362,0.090909,0.1,0.00019583,1957,0.00019576,1954.8,-6.441e-05,-0.0027915,-6.4988e-05,-4.3415,1.1787
21651,15.086,0.18182,0.1,0.00020261,2024.7,0.00020253,2022.3,-6.6614e-05,0.03256,-6.7277e-05,-4.9499,1.1407
21652,15.178,0.27273,0.1,0.00020015,2000.1,0.00020012,1999.3,-6.5963e-05,0.043727,-6.6193e-05,-1.6845,1.1538
21653,15.178,0.090909,0.1,0.00020019,2000.5,0.00020012,1998.5,-6.5864e-05,-0.0054052,-6.64e-05,-4.0357,1.1531
21654,14.902,0.18182,0.1,0.00020685,2067.1,0.00020677,2064.7,-6.8024e-05,0.035149,-6.8655e-05,-4.7048,1.1153
21655,14.994,0.27273,0.1,0.00020445,2043.1,0.00020443,2042.4,-6.7394e-05,0.065856,-6.7587e-05,-1.3905,1.1283
21656,14.994,0.090909,0.1,0.00020448,2043.4,0.00020442,2041.5,-6.7292e-05,-0.0094104,-6.7797e-05,-3.8001,1.1277
21657,14.718,0.18182,0.1,0.00021099,2108.4,0.00021091,2106.1,-6.9393e-05,0.035861,-7.0014e-05,-4.6339,1.0901
21658,14.81,0.27273,0.1,0.00020867,2085.2,0.00020865,2084.6,-6.8789e-05,0.084252,-6.8972e-05,-1.2947,1.103
21659,14.81,0.090909,0.1,0.00020868,2085.4,0.00020862,2083.5,-6.8685e-05,-0.015131,-6.9169e-05,-3.6519,1.1023
21660,14.534,0.18182,0.1,0.00021499,2148.4,0.00021491,2146,-7.0706e-05,0.034031,-7.1346e-05,-4.7754,1.065
21661,14.626,0.27273,0.1,0.00021278,2126.3,0.00021276,2125.6,-7.0139e-05,0.087741,-7.0341e-05,-1.4332,1.0778
21662,14.626,0.090909,0.1,0.00021275,2126.1,0.00021269,2124.3,-7.0032e-05,-0.022556,-7.0509e-05,-3.6115,1.0772
21663,14.351,0.18182,0.1,0.00021881,2186.6,0.00021872,2184,-7.1948e-05,0.029603,-7.264e-05,-5.1745,1.04
21664,14.443,0.27273,0.1,0.00021675,2166,0.00021672,2165.1,-7.1428e-05,0.0762,-7.1685e-05,-1.86,1.0528
21665,14.443,0.090909,0.1,0.00021666,2165.1,0.0002166,2163.2,-7.1317e-05,-0.031166,-7.1805e-05,-3.7028,1.0521
21666,14.167,0.18182,0.1,0.00022239,2222.4,0.00022229,2219.5,-7.3096e-05,0.023282,-7.3882e-05,-5.8831,1.0152
21667,14.259,0.27273,0.1,0.00022052,2203.7,0.00022048,2202.4,-7.2636e-05,0.059796,-7.2996e-05,-2.6471,1.0279
21668,14.259,0.090909,0.1,0.00022035,2201.9,0.00022028,2199.9,-7.2521e-05,-0.039927,-7.3042e-05,-3.954,1.0272
21669,13.983,0.18182,0.1,0.00022567,2255.2,0.00022555,2251.7,-7.4125e-05,0.016178,-7.5054e-05,-6.9601,0.9905
21670,14.075,0.27273,0.1,0.00022405,2238.9,0.00022398,2237,-7.374e-05,0.046177,-7.4261e-05,-3.871,1.0032
21671,14.075,0.090909,0.1,0.00022375,2235.9,0.00022367,2233.7,-7.3622e-05,-0.047492,-7.4201e-05,-4.3969,1.0025
21672,13.799,0.18182,0.1,0.00022855,2284,0.00022841,2279.7,-7.5002e-05,0.0091775,-7.613e-05,-8.4699,0.96598
21673,13.891,0.27273,0.1,0.00022724,2270.9,0.00022715,2268.1,-7.471e-05,0.03737,-7.5461e-05,-5.6092,0.97856
21674,13.891,0.090909,0.1,0.00022678,2266.2,0.00022669,2263.7,-7.4591e-05,-0.052739,-7.5258e-05,-5.0665,0.97787
21675,13.616,0.18182,0.1,0.00023093,2307.7,0.00023075,2302.4,-7.5687e-05,0.002624,-7.7082e-05,-10.482,0.94162
21676,13.707,0.27273,0.1,0.00023002,2298.6,0.00022988,2294.7,-7.551e-05,0.032888,-7.6572e-05,-7.9422,0.95413
21677,13.707,0.090909,0.1,0.00022934,2291.8,0.00022924,2288.8,-7.539e-05,-0.055164,-7.6182e-05,-6.0009,0.95342
21678,13.432,0.18182,0.1,0.00023266,2325,0.00023244,2318.5,-7.6131e-05,-0.0036839,-7.787e-05,-13.068,0.91741
21679,13.524,0.27273,0.1,0.00023226,2321,0.00023207,2315.5,-7.6098e-05,0.031879,-7.756e-05,-10.951,0.92985
21680,13.524,0.090909,0.1,0.00023131,2311.5,0.00023118,2307.8,-7.5977e-05,-0.054779,-7.6934e-05,-7.2398,0.92913
21681,13.248,0.18182,0.1,0.00023358,2334.2,0.0002333,2326,-7.6274e-05,-0.01042,-7.8442e-05,-16.297,0.89336
21682,13.34,0.27273,0.1,0.0002338,2336.4,0.00023355,2329,-7.6422e-05,0.033639,-7.8385e-05,-14.715,0.90572
21683,13.34,0.090909,0.1,0.00023252,2323.6,0.00023237,2319.1,-7.6298e-05,-0.051968,-7.7465e-05,-8.8233,0.905
21684,13.064,0.18182,0.1,0.00023348,2333.2,0.00023313,2323,-7.6047e-05,-0.018553,-7.8737e-05,-20.233,0.86946
21685,13.156,0.27273,0.1,0.00023448,2343.1,0.00023414,2333.5,-7.6416e-05,0.037636,-7.899e-05,-19.3,0.88176
21686,13.156,0.090909,0.1,0.00023278,2326.2,0.00023259,2320.7,-7.6286e-05,-0.047355,-7.7716e-05,-10.789,0.88102
21687,12.88,0.18182,0.1,0.00023211,2319.5,0.00023168,2307,-7.5363e-05,-0.029115,-7.8675e-05,-24.916,0.84573
21688,12.972,0.27273,0.1,0.00023406,2338.9,0.00023363,2326.5,-7.6006e-05,0.043615,-7.9305e-05,-24.747,0.85794
21689,12.972,0.090909,0.1,0.00023186,2317,0.00023163,2310.4,-7.5864e-05,-0.041638,-7.7611e-05,-13.167,0.85719
21690,12.697,0.18182,0.1,0.00022918,2290.2,0.00022865,2274.8,-7.4124e-05,-0.042842,-7.8158e-05,-30.351,0.82214
21691,12.788,0.27273,0.1,0.00023227,2321.1,0.00023173,2305.4,-7.5101e-05,0.051658,-7.9241e-05,-31.05,0.83429
21692,12.788,0.090909,0.1,0.00022947,2293.2,0.0002292,2285.1,-7.4937e-05,-0.035692,-7.7058e-05,-15.972,0.83353
21693,12.513,0.18182,0.1,0.00022433,2241.7,0.00022368,2223.2,-7.2218e-05,-0.059026,-7.7066e-05,-36.479,0.79871
21694,12.605,0.27273,0.1,0.00022879,2286.3,0.00022812,2267.1,-7.36e-05,0.062515,-7.8683e-05,-38.13,0.81079
21695,12.605,0.090909,0.1,0.0002253,2251.4,0.00022496,2241.8,-7.3398e-05,-0.030774,-7.5948e-05,-19.186,0.81001
21696,12.329,0.18182,0.1,0.00021716,2170.1,0.0002164,2148.2,-6.9522e-05,-0.073248,-7.5254e-05,-43.138,0.77543
21697,12.421,0.27273,0.1,0.00022325,2230.9,0.00022243,2207.7,-7.1385e-05,0.079019,-7.749e-05,-45.794,0.78745
21698,12.421,0.090909,0.1,0.00021895,2188,0.00021855,2176.5,-7.1125e-05,-0.028366,-7.4149e-05,-22.745,0.78665
21699,12.145,0.18182,0.1,0.00020725,2071.1,0.00020635,2045.6,-6.5906e-05,-0.071626,-7.2554e-05,-50.017,0.7523
21700,12.237,0.27273,0.1,0.0002152,2150.6,0.00021424,2123.3,-6.8333e-05,0.10828,-7.5492e-05,-53.686,0.76425
21701,12.237,0.090909,0.1,0.00021,2098.5,0.00020953,2085.1,-6.7985e-05,-0.030726,-7.1508e-05,-26.501,0.76343
21702,11.961,0.18182,0.1,0.00019414,1940.1,0.00019312,1911.1,-6.1244e-05,-0.022757,-6.8775e-05,-56.609,0.7293
21703,12.053,0.27273,0.1,0.0002042,2040.6,0.00020309,2009.4,-6.4315e-05,0.16966,-7.2489e-05,-61.248,0.74119
21704,12.053,0.090909,0.1,0.000198,1978.6,0.00019747,1963.3,-6.3842e-05,-0.038447,-6.7855e-05,-30.194,0.74036
21705,11.778,0.18182,0.1,0.0001774,1772.8,0.00017626,1740.9,-5.5422e-05,0.15617,-6.3717e-05,-62.163,0.70643
21706,11.869,0.27273,0.1,0.00018977,1896.3,0.00018853,1861.7,-5.9214e-05,0.30192,-6.8264e-05,-67.702,0.71827
21707,11.869,0.090909,0.1,0.00018251,1823.8,0.00018192,1806.9,-5.857e-05,-0.056749,-6.3008e-05,-33.405,0.71741
21708,11.594,0.18182,0.1,0.00015668,1565.8,0.00015547,1532.1,-4.8364e-05,0.60613,-5.7193e-05,-65.726,0.68367
21709,11.686,0.27273,0.1,0.0001715,1713.8,0.00017017,1676.9,-5.2932e-05,0.62504,-6.2614e-05,-72.128,0.69547
21710,11.686,0.090909,0.1,0.00016313,1630.2,0.0001625,1612.1,-5.2069e-05,-0.056204,-5.6787e-05,-35.507,0.69459
21711,11.41,0.18182,0.1,0.00013181,1317.2,0.00013058,1283.7,-4.0019e-05,1.8555,-4.908e-05,-66.227,0.66101
21712,11.502,0.27273,0.1,0.00014919,1490.9,0.00014781,1453.2,-4.5418e-05,1.2976,-5.5422e-05,-73.867,0.67278
21713,11.502,0.090909,0.1,0.0001396,1395,0.00013896,1376.8,-4.4296e-05,-0.083513,-4.9036e-05,-35.698,0.67187
21714,11.226,0.18182,0.1,0.00010299,1029.2,0.0001018,997.56,-3.0392e-05,4.3026,-3.9508e-05,-64.191,0.63843
21715,11.318,0.27273,0.1,0.00012306,1229.7,0.00012168,1192.8,-3.6646e-05,3.1729,-4.6844e-05,-73.449,0.65018
21716,11.318,0.090909,0.1,0.00011183,1117.5,0.00011124,1100.9,-3.523e-05,0.37918,-3.9659e-05,-32.898,0.64924
21717,11.042,0.18182,0.1,7.2165e-05,721.15,7.0835e-05,689.02,-1.9144e-05,12.955,-3.019e-05,-70.035,0.61591
21718,11.134,0.27273,0.1,9.4644e-05,945.79,9.3123e-05,906.5,-2.68e-05,5.4452,-3.7963e-05,-78.426,0.62765
21719,11.134,0.090909,0.1,8.0109e-05,800.54,7.9605e-05,786.48,-2.4978e-05,0.67864,-2.8798e-05,-28.021,0.62668
21720,10.95,0.27273,0.1,7.2153e-05,721.03,6.9066e-05,651.2,-1.5925e-05,12.613,-3.5004e-05,-130.74,0.60517
21721,10.859,0.18182,0.1,4.1258e-05,412.29,4.0446e-05,391.21,-1.1598e-05,0.17122,-1.6875e-05,-39.474,0.59343
21722,10.95,0.090909,0.1,4.6083e-05,460.52,4.5527e-05,447.28,-1.2593e-05,10.59,-1.8506e-05,-33.836,0.60417
21723,23.724,0.36364,0.1,9.415e-06,94.085,7.2939e-06,55.359,-5.3132e-08,0.15611,-7.1646e-06,-53.277,2.4364
21724,23.816,0.45455,0.1,9.1859e-06,91.796,6.0249e-06,38.35,9.4e-07,0.14402,-7.9136e-06,-66.378,2.4508
21725,23.908,0.36364,0.1,7.2721e-06,72.671,4.1185e-06,21.437,1.2429e-06,-0.16936,-6.6651e-06,-59.587,2.465
21726,23.541,0.36364,0.1,1.2252e-05,122.44,1.0703e-05,91.101,-1.4157e-06,0.046778,-7.8222e-06,-48.089,2.4078
21727,23.632,0.45455,0.1,1.1491e-05,114.84,9.2986e-06,73.464,-4.9251e-07,-0.10263,-8.3127e-06,-58.861,2.4222
21728,23.357,0.36364,0.1,1.5569e-05,155.58,1.4312e-05,128.24,-2.7442e-06,0.087719,-8.7279e-06,-44.871,2.3792
21729,23.449,0.45455,0.1,1.4468e-05,144.58,1.2783e-05,110.02,-1.8555e-06,0.025341,-9.0126e-06,-53.75,2.3935
21730,23.173,0.36364,0.1,1.9118e-05,191.05,1.8033e-05,166.18,-4.0723e-06,0.082494,-9.7542e-06,-42.609,2.3506
21731,23.265,0.45455,0.1,1.78e-05,177.87,1.641e-05,147.46,-3.2133e-06,0.022035,-9.8829e-06,-50.091,2.3649
21732,22.989,0.36364,0.1,2.2793e-05,227.77,2.1822e-05,204.63,-5.4013e-06,0.081749,-1.0845e-05,-40.819,2.322
21733,23.081,0.45455,0.1,2.1325e-05,213.1,2.0125e-05,185.53,-4.5634e-06,0.035431,-1.0855e-05,-47.237,2.3363
21734,22.805,0.36364,0.1,2.6543e-05,265.25,2.5656e-05,243.44,-6.7339e-06,0.076957,-1.1974e-05,-39.291,2.2934
21735,22.897,0.45455,0.1,2.4969e-05,249.52,2.3901e-05,224.05,-5.9128e-06,0.037219,-1.1891e-05,-44.881,2.3078
21736,22.622,0.36364,0.1,3.0345e-05,303.24,2.9522e-05,282.53,-8.0703e-06,0.072169,-1.3127e-05,-37.92,2.2648
21737,22.713,0.45455,0.1,2.869e-05,286.7,2.772e-05,262.89,-7.2627e-06,0.03823,-1.297e-05,-42.84,2.2792
21738,22.438,0.36364,0.1,3.4183e-05,341.6,3.3413e-05,321.82,-9.4106e-06,0.067158,-1.4297e-05,-36.647,2.2363
21739,22.53,0.45455,0.1,3.2465e-05,324.42,3.1572e-05,301.98,-8.6142e-06,0.037516,-1.4078e-05,-41.013,2.2506
21740,22.254,0.36364,0.1,3.805e-05,380.24,3.7324e-05,361.31,-1.0755e-05,0.062347,-1.548e-05,-35.441,2.2078
21741,22.346,0.45455,0.1,3.628e-05,362.55,3.5451e-05,341.29,-9.9678e-06,0.03622,-1.5208e-05,-39.337,2.2221
21742,22.07,0.36364,0.1,4.1941e-05,419.12,4.1253e-05,400.95,-1.2103e-05,0.057781,-1.6673e-05,-34.283,2.1793
21743,22.162,0.45455,0.1,4.0127e-05,400.99,3.9351e-05,380.78,-1.1324e-05,0.034546,-1.6356e-05,-37.773,2.1936
21744,21.886,0.36364,0.1,4.5852e-05,458.2,4.5198e-05,440.75,-1.3454e-05,0.053505,-1.7875e-05,-33.162,2.1508
21745,21.978,0.45455,0.1,4.4e-05,439.7,4.3271e-05,420.44,-1.2682e-05,0.032708,-1.7517e-05,-36.295,2.1651
21746,21.703,0.36364,0.1,4.9782e-05,497.47,4.9159e-05,480.68,-1.481e-05,0.04953,-1.9085e-05,-32.071,2.1224
21747,21.794,0.45455,0.1,4.7897e-05,478.64,4.7208e-05,460.25,-1.4044e-05,0.030817,-1.8691e-05,-34.887,2.1367
21748,21.519,0.36364,0.1,5.3729e-05,536.92,5.3135e-05,520.76,-1.6169e-05,0.045839,-2.0301e-05,-31.005,2.094
21749,21.611,0.45455,0.1,5.1814e-05,517.78,5.1162e-05,500.21,-1.5408e-05,0.028943,-1.9875e-05,-33.535,2.1083
21750,21.335,0.36364,0.1,5.7692e-05,576.53,5.7125e-05,560.98,-1.7532e-05,0.042407,-2.1525e-05,-29.959,2.0656
21751,21.427,0.45455,0.1,5.575e-05,557.11,5.5132e-05,540.31,-1.6776e-05,0.027115,-2.1069e-05,-32.231,2.0799
21752,21.151,0.36364,0.1,6.1672e-05,616.3,6.1129e-05,601.34,-1.8898e-05,0.03921,-2.2754e-05,-28.933,2.0372
21753,21.243,0.45455,0.1,5.9704e-05,596.63,5.9118e-05,580.56,-1.8146e-05,0.025347,-2.2271e-05,-30.968,2.0515
21754,20.967,0.36364,0.1,6.5668e-05,656.23,6.5149e-05,641.84,-2.0269e-05,0.036222,-2.3991e-05,-27.923,2.0089
21755,21.059,0.45455,0.1,6.3677e-05,636.33,6.3119e-05,620.95,-1.9521e-05,0.023647,-2.3482e-05,-29.742,2.0232
21756,20.784,0.36364,0.1,6.968e-05,696.32,6.9183e-05,682.48,-2.1645e-05,0.033421,-2.5233e-05,-26.928,1.9807
21757,20.875,0.45455,0.1,6.7666e-05,676.2,6.7136e-05,661.48,-2.0899e-05,0.022013,-2.4701e-05,-28.547,1.9949
21758,20.6,0.36364,0.1,7.3708e-05,736.57,7.3232e-05,723.27,-2.3024e-05,0.0308,-2.6482e-05,-25.947,1.9525
21759,20.692,0.45455,0.1,7.1673e-05,716.24,7.1168e-05,702.16,-2.2281e-05,0.020451,-2.5928e-05,-27.379,1.9667
21760,20.416,0.36364,0.1,7.7752e-05,776.98,7.7297e-05,764.21,-2.4409e-05,0.028339,-2.7737e-05,-24.977,1.9243
21761,20.508,0.45455,0.1,7.5697e-05,756.45,7.5217e-05,743,-2.3668e-05,0.018972,-2.7162e-05,-26.236,1.9385
21762,20.232,0.36364,0.1,8.1813e-05,817.56,8.1378e-05,805.3,-2.5798e-05,0.02601,-2.8998e-05,-24.018,1.8962
21763,20.324,0.45455,0.1,7.9738e-05,796.83,7.9282e-05,783.99,-2.5058e-05,0.017559,-2.8403e-05,-25.113,1.9104
21764,20.048,0.36364,0.1,8.589e-05,858.31,8.5475e-05,846.56,-2.7192e-05,0.023795,-3.0265e-05,-23.067,1.8682
21765,20.14,0.45455,0.1,8.3797e-05,837.39,8.3363e-05,825.13,-2.6454e-05,0.016201,-2.9651e-05,-24.009,1.8823
21766,19.865,0.36364,0.1,8.9985e-05,899.23,8.9588e-05,887.97,-2.8591e-05,0.021671,-3.1538e-05,-22.124,1.8401
21767,19.956,0.45455,0.1,8.7873e-05,878.12,8.7461e-05,866.44,-2.7854e-05,0.014892,-3.0906e-05,-22.919,1.8543
21768,19.681,0.36364,0.1,9.4097e-05,940.32,9.3719e-05,929.55,-2.9995e-05,0.019626,-3.2817e-05,-21.185,1.8122
21769,19.773,0.45455,0.1,9.1966e-05,919.03,9.1575e-05,907.92,-2.9259e-05,0.013613,-3.2168e-05,-21.842,1.8263
21770,19.497,0.36364,0.1,9.8226e-05,981.58,9.7866e-05,971.31,-3.1405e-05,0.017662,-3.4102e-05,-20.25,1.7843
21771,19.589,0.45455,0.1,9.6078e-05,960.11,9.5708e-05,949.56,-3.067e-05,0.012373,-3.3437e-05,-20.774,1.7984
21772,19.313,0.36364,0.1,0.00010237,1023,0.00010203,1013.2,-3.282e-05,0.015767,-3.5393e-05,-19.317,1.7565
21773,19.405,0.45455,0.1,0.00010021,1001.4,9.9857e-05,991.38,-3.2086e-05,0.011181,-3.4711e-05,-19.712,1.7706
21774,19.129,0.36364,0.1,0.00010654,1064.6,0.00010621,1055.3,-3.4242e-05,0.013918,-3.669e-05,-18.383,1.7288
21775,19.221,0.45455,0.1,0.00010435,1042.8,0.00010402,1033.4,-3.3508e-05,0.010016,-3.5992e-05,-18.654,1.7428
21776,18.946,0.36364,0.1,0.00011072,1106.4,0.00011041,1097.6,-3.5669e-05,0.012098,-3.7993e-05,-17.447,1.7011
21777,19.038,0.45455,0.1,0.00010852,1084.4,0.00010821,1075.5,-3.4936e-05,0.0088633,-3.7279e-05,-17.597,1.7151
21778,18.762,0.36364,0.1,0.00011492,1148.4,0.00011463,1140.1,-3.7103e-05,0.010288,-3.9301e-05,-16.506,1.6735
21779,18.854,0.45455,0.1,0.0001127,1126.3,0.00011241,1117.9,-3.6369e-05,0.0077168,-3.8571e-05,-16.537,1.6874
21780,18.578,0.36364,0.1,0.00011914,1190.6,0.00011887,1182.7,-3.8543e-05,0.0084808,-4.0615e-05,-15.559,1.6459
21781,18.67,0.45455,0.1,0.00011691,1168.2,0.00011663,1160.4,-3.7809e-05,0.0065545,-3.9869e-05,-15.473,1.6599
21782,18.394,0.36364,0.1,0.00012338,1232.9,0.00012312,1225.6,-3.9989e-05,0.0066908,-4.1934e-05,-14.605,1.6185
21783,18.486,0.45455,0.1,0.00012113,1210.4,0.00012087,1203.2,-3.9256e-05,0.0053901,-4.1173e-05,-14.401,1.6324
21784,18.21,0.36364,0.1,0.00012764,1275.5,0.0001274,1268.6,-4.1442e-05,0.0049061,-4.3258e-05,-13.641,1.5911
21785,18.302,0.45455,0.1,0.00012537,1252.8,0.00012513,1246.1,-4.0709e-05,0.0042394,-4.2482e-05,-13.32,1.605
21786,18.027,0.36364,0.1,0.00013191,1318.2,0.00013169,1311.8,-4.2901e-05,0.0031065,-4.4588e-05,-12.666,1.5639
21787,18.119,0.45455,0.1,0.00012962,1295.3,0.00012941,1289.2,-4.2168e-05,0.0030706,-4.3796e-05,-12.226,1.5777
21788,17.843,0.36364,0.1,0.0001362,1361.1,0.000136,1355.2,-4.4368e-05,0.0012832,-4.5922e-05,-11.68,1.5367
21789,17.935,0.45455,0.1,0.0001339,1338.1,0.00013371,1332.5,-4.3634e-05,0.001876,-4.5115e-05,-11.12,1.5504
21790,17.659,0.36364,0.1,0.00014052,1404.2,0.00014033,1398.8,-4.584e-05,-0.0005837,-4.7262e-05,-10.682,1.5096
21791,17.751,0.45455,0.1,0.00013819,1381,0.00013802,1375.9,-4.5107e-05,0.00064439,-4.6438e-05,-9.9987,1.5233
21792,17.475,0.36364,0.1,0.00014485,1447.5,0.00014468,1442.6,-4.7319e-05,-0.002492,-4.8606e-05,-9.6724,1.4825
21793,17.567,0.45455,0.1,0.0001425,1424.1,0.00014235,1419.6,-4.6587e-05,-0.00065039,-4.7766e-05,-8.8622,1.4963
21794,17.291,0.36364,0.1,0.00014919,1490.9,0.00014904,1486.6,-4.8805e-05,-0.0044127,-4.9956e-05,-8.6515,1.4556
21795,17.383,0.45455,0.1,0.00014683,1467.3,0.0001467,1463.5,-4.8073e-05,-0.0019865,-4.9099e-05,-7.7104,1.4693
21796,17.108,0.36364,0.1,0.00015356,1534.5,0.00015343,1530.7,-5.0296e-05,-0.0063437,-5.131e-05,-7.6216,1.4288
21797,17.2,0.45455,0.1,0.00015118,1510.8,0.00015107,1507.5,-4.9565e-05,-0.0033451,-5.0436e-05,-6.5444,1.4424
21798,16.924,0.36364,0.1,0.00015794,1578.3,0.00015782,1575,-5.1793e-05,-0.0082906,-5.2669e-05,-6.5856,1.4021
21799,17.016,0.45455,0.1,0.00015554,1554.4,0.00015545,1551.7,-5.1064e-05,-0.0047634,-5.1778e-05,-5.3665,1.4157
21800,16.74,0.36364,0.1,0.00016233,1622.2,0.00016224,1619.4,-5.3295e-05,-0.010231,-5.4032e-05,-5.5481,1.3755
21801,16.832,0.45455,0.1,0.00015992,1598.1,0.00015985,1596,-5.2568e-05,-0.0062529,-5.3124e-05,-4.1803,1.389
21802,16.556,0.36364,0.1,0.00016674,1666.3,0.00016666,1664,-5.4801e-05,-0.012122,-5.5401e-05,-4.5153,1.349
21803,16.648,0.45455,0.1,0.00016432,1642,0.00016427,1640.5,-5.4077e-05,-0.0078241,-5.4474e-05,-2.9916,1.3625
21804,16.372,0.36364,0.1,0.00017116,1710.4,0.0001711,1708.7,-5.6311e-05,-0.013838,-5.6774e-05,-3.4957,1.3226
21805,16.464,0.45455,0.1,0.00016872,1686.1,0.00016869,1685.2,-5.559e-05,-0.0094955,-5.5829e-05,-1.808,1.336
21806,16.189,0.36364,0.1,0.00017559,1754.7,0.00017554,1753.4,-5.7821e-05,-0.015039,-5.8152e-05,-2.5006,1.2963
21807,16.281,0.45455,0.1,0.00017314,1730.2,0.00017313,1729.9,-5.7105e-05,-0.01122,-5.7189e-05,-0.63987,1.3097
21808,16.005,0.36364,0.1,0.00018002,1798.9,0.00017999,1798.2,-5.9331e-05,-0.014684,-5.9534e-05,-1.545,1.2702
21809,16.097,0.45455,0.1,0.00017756,1774.4,0.00017757,1774.6,-5.8553e-05,0.49967,-5.8622e-05,-0.013374,1.2835
21810,15.821,0.36364,0.1,0.00018445,1843.2,0.00018444,1842.9,-6.0836e-05,-0.0062262,-6.0923e-05,-0.65305,1.2442
21811,15.913,0.45455,0.1,0.00018199,1818.6,0.00018202,1819.4,-5.9923e-05,1.5925,-6.0137e-05,-0.015302,1.2574
21812,15.637,0.36364,0.1,0.00018887,1887.4,0.00018888,1887.5,-6.2305e-05,0.23781,-6.2346e-05,-0.074169,1.2183
21813,15.729,0.45455,0.1,0.00018642,1862.9,0.00018646,1864.2,-6.1298e-05,2.6174,-6.1648e-05,-0.017507,1.2315
21814,15.453,0.36364,0.1,0.00019328,1931.5,0.0001933,1931.9,-6.3703e-05,0.92716,-6.3832e-05,-0.044856,1.1925
21815,15.545,0.45455,0.1,0.00019083,1907,0.00019089,1908.8,-6.2678e-05,3.5474,-6.3152e-05,-0.019982,1.2056
21816,15.27,0.36364,0.1,0.00019766,1975.2,0.00019769,1976,-6.51e-05,1.5085,-6.5307e-05,-0.04424,1.1668
21817,15.362,0.45455,0.1,0.00019523,1951,0.00019531,1953.1,-6.4062e-05,4.3497,-6.4644e-05,-0.022853,1.1799
21818,15.086,0.36364,0.1,0.000202,2018.6,0.00020203,2019.5,-6.6497e-05,1.9188,-6.6759e-05,-0.047873,1.1413
21819,15.178,0.45455,0.1,0.0001996,1994.7,0.00019969,1997.1,-6.5452e-05,4.9847,-6.6119e-05,-0.026266,1.1543
21820,14.902,0.36364,0.1,0.00020628,2061.4,0.00020631,2062.4,-6.7893e-05,2.1111,-6.8181e-05,-0.054911,1.1159
21821,14.994,0.45455,0.1,0.00020393,2037.9,0.00020402,2040.6,-6.6844e-05,5.4056,-6.7568e-05,-0.030526,1.1289
21822,14.718,0.36364,0.1,0.00021047,2103.3,0.00021051,2104.2,-6.9282e-05,2.0344,-6.9562e-05,-0.068138,1.0907
21823,14.81,0.45455,0.1,0.0002082,2080.5,0.00020829,2083.3,-6.8238e-05,5.5572,-6.8983e-05,-0.036351,1.1036
21824,14.534,0.36364,0.1,0.00021455,2144,0.00021458,2144.8,-7.066e-05,1.6374,-7.0891e-05,-0.098362,1.0656
21825,14.626,0.45455,0.1,0.00021237,2122.2,0.00021246,2124.9,-6.963e-05,5.376,-7.0352e-05,-0.045197,1.0784
21826,14.351,0.36364,0.1,0.00021847,2183.2,0.00021848,2183.6,-7.2009e-05,0.90933,-7.2158e-05,-0.20567,1.0406
21827,14.443,0.45455,0.1,0.00021642,2162.7,0.0002165,2165.1,-7.1016e-05,4.7911,-7.1662e-05,-0.06067,1.0534
21828,14.167,0.36364,0.1,0.00022219,2220.3,0.00022218,2220,-7.3257e-05,0.25674,-7.3407e-05,-0.87565,1.0158
21829,14.259,0.45455,0.1,0.00022031,2201.6,0.00022037,2203.4,-7.2387e-05,3.7299,-7.2896e-05,-0.094093,1.0285
21830,13.983,0.36364,0.1,0.00022563,2254.7,0.00022559,2253.5,-7.4318e-05,0.11047,-7.4683e-05,-2.6256,0.99116
21831,14.075,0.45455,0.1,0.00022399,2238.3,0.00022402,2239.3,-7.3725e-05,2.1557,-7.4039e-05,-0.20152,1.0038
21832,13.799,0.36364,0.1,0.00022872,2285.6,0.00022863,2283.1,-7.5215e-05,0.079413,-7.5912e-05,-5.1563,0.96666
21833,13.891,0.45455,0.1,0.00022737,2272.2,0.00022737,2272,-7.4937e-05,0.56938,-7.5144e-05,-0.98373,0.97921
21834,13.616,0.36364,0.1,0.00023135,2311.9,0.00023121,2307.7,-7.592e-05,0.073807,-7.7058e-05,-8.4713,0.9423
21835,13.707,0.45455,0.1,0.00023039,2302.3,0.00023033,2300.5,-7.5824e-05,0.20131,-7.6354e-05,-3.7755,0.95478
21836,13.432,0.36364,0.1,0.0002334,2332.4,0.00023318,2326.1,-7.6388e-05,0.079154,-7.8081e-05,-12.644,0.91811
21837,13.524,0.45455,0.1,0.00023292,2327.6,0.00023279,2323.8,-7.6468e-05,0.13973,-7.752e-05,-7.768,0.93051
21838,13.248,0.36364,0.1,0.0002347,2345.4,0.00023439,2336.5,-7.6562e-05,0.091702,-7.8936e-05,-17.745,0.89407
21839,13.34,0.45455,0.1,0.00023484,2346.8,0.00023462,2340.4,-7.6852e-05,0.12629,-7.8571e-05,-12.797,0.9064
21840,13.064,0.36364,0.1,0.00023505,2348.9,0.00023464,2336.9,-7.6374e-05,0.11043,-7.9558e-05,-23.815,0.87018
21841,13.156,0.45455,0.1,0.00023596,2358,0.00023564,2348.6,-7.6919e-05,0.13085,-7.9452e-05,-18.903,0.88244
21842,12.88,0.36364,0.1,0.0002342,2340.4,0.00023367,2324.9,-7.5743e-05,0.13544,-7.9866e-05,-30.844,0.84646
21843,12.972,0.45455,0.1,0.00023608,2359.2,0.00023563,2346.1,-7.6599e-05,0.14713,-8.0093e-05,-26.112,0.85864
21844,12.697,0.36364,0.1,0.00023187,2317.1,0.00023119,2297.6,-7.4576e-05,0.16755,-7.9753e-05,-38.735,0.82289
21845,12.788,0.45455,0.1,0.00023494,2347.8,0.00023434,2330.5,-7.5806e-05,0.17438,-8.0406e-05,-34.391,0.83501
21846,12.513,0.36364,0.1,0.00022769,2275.3,0.00022685,2251.4,-7.2765e-05,0.20873,-7.9084e-05,-47.269,0.79948
21847,12.605,0.45455,0.1,0.00023222,2320.6,0.00023145,2298.6,-7.4443e-05,0.21444,-8.0276e-05,-43.61,0.81152
21848,12.329,0.36364,0.1,0.00022125,2210.9,0.00022024,2182.5,-7.0195e-05,0.26337,-7.7689e-05,-56.048,0.77622
21849,12.421,0.45455,0.1,0.00022754,2273.8,0.00022658,2246.7,-7.2399e-05,0.27189,-7.9556e-05,-53.507,0.7882
21850,12.145,0.36364,0.1,0.00021209,2119.4,0.00021092,2086.6,-6.6742e-05,0.34228,-7.5367e-05,-64.461,0.7531
21851,12.237,0.45455,0.1,0.00022048,2203.2,0.00021933,2170.9,-6.9551e-05,0.3553,-7.807e-05,-63.651,0.76502
21852,11.961,0.36364,0.1,0.00019973,1995.9,0.00019842,1959.3,-6.2289e-05,0.46853,-7.1889e-05,-71.668,0.73013
21853,12.053,0.45455,0.1,0.00021056,2104.1,0.00020922,2066.7,-6.5775e-05,0.48327,-7.5613e-05,-73.436,0.74199
21854,11.778,0.36364,0.1,0.00018373,1836,0.00018231,1796.8,-5.6731e-05,0.70883,-6.7034e-05,-76.707,0.70728
21855,11.869,0.45455,0.1,0.00019733,1972,0.00019582,1929.9,-6.0949e-05,0.68659,-7.1977e-05,-82.174,0.71909
21856,11.594,0.36364,0.1,0.00016382,1637,0.00016235,1596.7,-5.0004e-05,1.1759,-6.0661e-05,-78.895,0.68455
21857,11.686,0.45455,0.1,0.00018045,1803.3,0.00017878,1757.4,-5.4975e-05,1.058,-6.7016e-05,-89.417,0.69632
21858,11.41,0.36364,0.1,0.00014015,1400.5,0.00013866,1360.4,-4.2086e-05,2.3106,-5.29e-05,-78.943,0.66193
21859,11.502,0.45455,0.1,0.00015992,1598.1,0.00015809,1548.7,-4.7808e-05,1.6527,-6.0797e-05,-95.945,0.67367
21860,11.226,0.36364,0.1,0.00011407,1139.9,0.00011247,1097.7,-3.3108e-05,3.9137,-4.4714e-05,-83.292,0.63938
21861,11.318,0.45455,0.1,0.0001366,1365,0.00013452,1310.2,-3.9468e-05,2.957,-5.3979e-05,-106.08,0.6511
21862,11.042,0.36364,0.1,9.1722e-05,916.58,8.9027e-05,851.2,-2.3259e-05,7.5237,-4.0773e-05,-124.07,0.61689
21863,11.134,0.45455,0.1,0.00011372,1136.4,0.00011081,1063.4,-3.0291e-05,3.1929,-4.8871e-05,-136.41,0.62861
21864,10.95,0.45455,0.1,0.00010323,1031.6,9.6656e-05,885.8,-2.0248e-05,7.4276,-5.4528e-05,-250.14,0.60617
21865,10.859,0.36364,0.1,6.7896e-05,678.49,6.485e-05,605.55,-1.6064e-05,-2.3969,-3.2564e-05,-126.38,0.59444
21866,23.724,0.54545,0.1,1.1175e-05,111.67,8.0402e-06,56.535,5.0892e-07,-0.052337,-9.0806e-06,-72.104,2.4365
21867,23.816,0.63636,0.1,1.0961e-05,109.53,6.7028e-06,39.041,1.5062e-06,-0.0032103,-9.7613e-06,-84.663,2.4509
21868,23.908,0.54545,0.1,9.2856e-06,92.792,4.8489e-06,21.947,1.8798e-06,-0.36159,-8.7149e-06,-79.966,2.4652
21869,23.541,0.54545,0.1,1.3702e-05,136.93,1.1403e-05,92.557,-9.2967e-07,-0.10385,-9.5295e-06,-64.72,2.4079
21870,23.632,0.63636,0.1,1.3055e-05,130.46,1.0002e-05,74.881,8.5455e-09,-0.2065,-1.0048e-05,-75.765,2.4223
21871,23.357,0.54545,0.1,1.6723e-05,167.11,1.491e-05,129.45,-2.3232e-06,-0.029754,-1.0197e-05,-59.191,2.3793
21872,23.449,0.63636,0.1,1.5767e-05,157.56,1.343e-05,111.5,-1.417e-06,-0.050814,-1.056e-05,-68.746,2.3937
21873,23.173,0.54545,0.1,2.0037e-05,200.23,1.8529e-05,167.03,-3.7036e-06,-0.018443,-1.1012e-05,-54.933,2.3507
21874,23.265,0.63636,0.1,1.8861e-05,188.48,1.6973e-05,148.73,-2.8282e-06,-0.043936,-1.1237e-05,-63.222,2.3651
21875,22.989,0.54545,0.1,2.3532e-05,235.16,2.2229e-05,205.14,-5.0743e-06,-0.0046681,-1.1927e-05,-51.495,2.3221
21876,23.081,0.63636,0.1,2.2195e-05,221.79,2.0604e-05,186.52,-4.2221e-06,-0.02076,-1.2035e-05,-58.724,2.3365
21877,22.805,0.54545,0.1,2.7144e-05,271.25,2.5988e-05,243.66,-6.4412e-06,0.0015993,-1.291e-05,-48.606,2.2936
21878,22.897,0.63636,0.1,2.5685e-05,256.68,2.4305e-05,224.74,-5.6078e-06,-0.011747,-1.2921e-05,-54.96,2.3079
21879,22.622,0.54545,0.1,3.0835e-05,308.14,2.9791e-05,282.5,-7.8063e-06,0.0058134,-1.3941e-05,-46.091,2.265
21880,22.713,0.63636,0.1,2.9283e-05,292.63,2.8058e-05,263.32,-6.9882e-06,-0.0047263,-1.3871e-05,-51.718,2.2794
21881,22.438,0.54545,0.1,3.4584e-05,345.6,3.3629e-05,321.59,-9.1711e-06,0.0082121,-1.5008e-05,-43.844,2.2365
21882,22.53,0.63636,0.1,3.2957e-05,329.35,3.1853e-05,302.19,-8.3658e-06,-0.00050243,-1.4868e-05,-48.857,2.2508
21883,22.254,0.54545,0.1,3.8377e-05,383.5,3.7494e-05,360.89,-1.0537e-05,0.0096222,-1.6101e-05,-41.796,2.208
21884,22.346,0.63636,0.1,3.6689e-05,366.63,3.5681e-05,341.3,-9.7419e-06,0.0023492,-1.5902e-05,-46.282,2.2223
21885,22.07,0.54545,0.1,4.2204e-05,421.75,4.1384e-05,400.39,-1.1903e-05,0.010359,-1.7215e-05,-39.899,2.1795
21886,22.162,0.63636,0.1,4.0465e-05,404.37,3.9538e-05,380.61,-1.1118e-05,0.0041957,-1.6965e-05,-43.93,2.1938
21887,21.886,0.54545,0.1,4.6061e-05,460.29,4.5294e-05,440.05,-1.3272e-05,0.010667,-1.8347e-05,-38.124,2.151
21888,21.978,0.63636,0.1,4.4277e-05,442.47,4.3419e-05,420.11,-1.2494e-05,0.0053848,-1.8052e-05,-41.753,2.1653
21889,21.703,0.54545,0.1,4.9943e-05,499.09,4.9223e-05,479.87,-1.4642e-05,0.010696,-1.9494e-05,-36.446,2.1226
21890,21.794,0.63636,0.1,4.8121e-05,480.88,4.7322e-05,459.79,-1.3871e-05,0.0061221,-1.9158e-05,-39.72,2.1369
21891,21.519,0.54545,0.1,5.3848e-05,538.11,5.3171e-05,519.85,-1.6015e-05,0.010543,-2.0654e-05,-34.849,2.0942
21892,21.611,0.63636,0.1,5.1991e-05,519.55,5.1245e-05,499.62,-1.525e-05,0.0065537,-2.0282e-05,-37.805,2.1085
21893,21.335,0.54545,0.1,5.7775e-05,577.35,5.7136e-05,559.97,-1.739e-05,0.010269,-2.1827e-05,-33.322,2.0658
21894,21.427,0.63636,0.1,5.5886e-05,558.47,5.5187e-05,539.61,-1.663e-05,0.0067661,-2.1421e-05,-35.99,2.0801
21895,21.151,0.54545,0.1,6.1721e-05,616.78,6.1117e-05,600.24,-1.8769e-05,0.0099095,-2.301e-05,-31.854,2.0375
21896,21.243,0.63636,0.1,5.9803e-05,597.62,5.9147e-05,579.76,-1.8013e-05,0.0068207,-2.2574e-05,-34.26,2.0517
21897,20.967,0.54545,0.1,6.5686e-05,656.41,6.5115e-05,640.66,-2.015e-05,0.0094942,-2.4203e-05,-30.437,2.0092
21898,21.059,0.63636,0.1,6.3742e-05,636.98,6.3125e-05,620.05,-1.9399e-05,0.0067583,-2.3739e-05,-32.604,2.0234
21899,20.784,0.54545,0.1,6.967e-05,696.22,6.913e-05,681.23,-2.1536e-05,0.0090443,-2.5405e-05,-29.065,1.9809
21900,20.875,0.63636,0.1,6.7701e-05,676.54,6.712e-05,660.5,-2.0787e-05,0.0066088,-2.4915e-05,-31.013,1.9952
21901,20.6,0.54545,0.1,7.3672e-05,736.21,7.3161e-05,721.96,-2.2924e-05,0.0085803,-2.6616e-05,-27.731,1.9527
21902,20.692,0.63636,0.1,7.1679e-05,716.3,7.1133e-05,701.11,-2.2179e-05,0.006403,-2.6103e-05,-29.477,1.9669
21903,20.416,0.54545,0.1,7.7692e-05,776.39,7.7209e-05,762.84,-2.4317e-05,0.0081133,-2.7836e-05,-26.432,1.9246
21904,20.508,0.63636,0.1,7.5677e-05,756.25,7.5163e-05,741.87,-2.3574e-05,0.0061669,-2.73e-05,-27.989,1.9388
21905,20.232,0.54545,0.1,8.1731e-05,816.74,8.1274e-05,803.88,-2.5715e-05,0.0076428,-2.9064e-05,-25.161,1.8965
21906,20.324,0.63636,0.1,7.9695e-05,796.4,7.921e-05,782.8,-2.4973e-05,0.0059017,-2.8506e-05,-26.543,1.9107
21907,20.048,0.54545,0.1,8.5787e-05,857.28,8.5356e-05,845.08,-2.7116e-05,0.0071697,-3.03e-05,-23.916,1.8684
21908,20.14,0.63636,0.1,8.3731e-05,836.73,8.3275e-05,823.88,-2.6376e-05,0.0056143,-2.9722e-05,-25.133,1.8826
21909,19.865,0.54545,0.1,8.9862e-05,898,8.9455e-05,886.44,-2.8523e-05,0.006689,-3.1544e-05,-22.69,1.8404
21910,19.956,0.63636,0.1,8.7785e-05,877.25,8.7357e-05,865.13,-2.7784e-05,0.0053094,-3.0946e-05,-23.752,1.8546
21911,19.681,0.54545,0.1,9.3955e-05,938.9,9.3571e-05,927.98,-2.9934e-05,0.0062034,-3.2794e-05,-21.481,1.8125
21912,19.773,0.63636,0.1,9.1859e-05,917.95,9.1457e-05,906.55,-2.9197e-05,0.0049761,-3.2178e-05,-22.397,1.8266
21913,19.497,0.54545,0.1,9.8066e-05,979.98,9.7705e-05,969.69,-3.1351e-05,0.005727,-3.4052e-05,-20.284,1.7846
21914,19.589,0.63636,0.1,9.5951e-05,958.84,9.5575e-05,948.14,-3.0614e-05,0.0046368,-3.3418e-05,-21.061,1.7987
21915,19.313,0.54545,0.1,0.0001022,1021.2,0.00010186,1011.6,-3.2774e-05,0.0052603,-3.5316e-05,-19.096,1.7568
21916,19.405,0.63636,0.1,0.00010006,999.92,9.9711e-05,989.91,-3.2037e-05,0.0043067,-3.4665e-05,-19.74,1.7709
21917,19.129,0.54545,0.1,0.00010634,1062.7,0.00010603,1053.6,-3.4202e-05,0.0047927,-3.6586e-05,-17.913,1.7291
21918,19.221,0.63636,0.1,0.00010419,1041.2,0.00010386,1031.9,-3.3466e-05,0.0039717,-3.5919e-05,-18.428,1.7431
21919,18.946,0.54545,0.1,0.00011051,1104.3,0.00011021,1095.9,-3.5636e-05,0.0043179,-3.7863e-05,-16.73,1.7014
21920,19.038,0.63636,0.1,0.00010834,1082.6,0.00010804,1074,-3.49e-05,0.0036284,-3.7179e-05,-17.122,1.7154
21921,18.762,0.54545,0.1,0.00011469,1146.1,0.00011442,1138.3,-3.7076e-05,0.0038286,-3.9145e-05,-15.545,1.6738
21922,18.854,0.63636,0.1,0.0001125,1124.3,0.00011223,1116.3,-3.634e-05,0.0032752,-3.8446e-05,-15.816,1.6878
21923,18.578,0.54545,0.1,0.0001189,1188.1,0.00011865,1180.9,-3.8522e-05,0.0033237,-4.0433e-05,-14.354,1.6463
21924,18.67,0.63636,0.1,0.00011669,1166.1,0.00011644,1158.8,-3.7787e-05,0.0028998,-3.9718e-05,-14.506,1.6602
21925,18.394,0.54545,0.1,0.00012312,1230.3,0.00012289,1223.7,-3.9975e-05,0.0028205,-4.1726e-05,-13.155,1.6189
21926,18.486,0.63636,0.1,0.00012089,1208.1,0.00012066,1201.5,-3.9239e-05,0.0025201,-4.0995e-05,-13.189,1.6328
21927,18.21,0.54545,0.1,0.00012736,1272.7,0.00012715,1266.7,-4.1435e-05,0.0023167,-4.3025e-05,-11.943,1.5915
21928,18.302,0.63636,0.1,0.00012512,1250.3,0.00012491,1244.3,-4.0699e-05,0.0021631,-4.2278e-05,-11.86,1.6054
21929,18.027,0.54545,0.1,0.00013162,1315.2,0.00013143,1309.9,-4.2901e-05,0.0017958,-4.4328e-05,-10.716,1.5642
21930,18.119,0.63636,0.1,0.00012936,1292.7,0.00012917,1287.4,-4.2165e-05,0.0018076,-4.3565e-05,-10.515,1.5781
21931,17.843,0.54545,0.1,0.00013589,1358,0.00013573,1353.2,-4.4374e-05,0.0012524,-4.5635e-05,-9.4737,1.5371
21932,17.935,0.63636,0.1,0.00013361,1335.2,0.00013346,1330.6,-4.3638e-05,0.0014567,-4.4856e-05,-9.1525,1.5508
21933,17.659,0.54545,0.1,0.00014019,1400.9,0.00014004,1396.8,-4.5854e-05,0.00067628,-4.6947e-05,-8.2129,1.51
21934,17.751,0.63636,0.1,0.00013789,1377.9,0.00013776,1374,-4.5118e-05,0.0011252,-4.6152e-05,-7.7691,1.5237
21935,17.475,0.54545,0.1,0.0001445,1444,0.00014438,1440.5,-4.734e-05,7.2935e-05,-4.8263e-05,-6.9336,1.483
21936,17.567,0.63636,0.1,0.00014218,1420.9,0.00014207,1417.7,-4.6605e-05,0.00082804,-4.7452e-05,-6.3631,1.4967
21937,17.291,0.54545,0.1,0.00014883,1487.2,0.00014873,1484.4,-4.8833e-05,-0.00052446,-4.9584e-05,-5.6358,1.4561
21938,17.383,0.63636,0.1,0.0001465,1463.9,0.00014641,1461.5,-4.8099e-05,0.00066792,-4.8755e-05,-4.934,1.4697
21939,17.108,0.54545,0.1,0.00015317,1530.7,0.0001531,1528.5,-5.0333e-05,-0.0010919,-5.0908e-05,-4.3211,1.4293
21940,17.2,0.63636,0.1,0.00015082,1507.2,0.00015076,1505.5,-4.9599e-05,0.0008955,-5.0063e-05,-3.4818,1.4429
21941,16.924,0.54545,0.1,0.00015754,1574.3,0.00015748,1572.8,-5.1838e-05,-0.0015607,-5.2237e-05,-2.9927,1.4026
21942,17.016,0.63636,0.1,0.00015517,1550.6,0.00015513,1549.6,-5.1106e-05,0.0023799,-5.1374e-05,-2.0095,1.4161
21943,16.74,0.54545,0.1,0.00016191,1618,0.00016188,1617.2,-5.3349e-05,-0.0015423,-5.3569e-05,-1.6557,1.376
21944,16.832,0.63636,0.1,0.00015953,1594.2,0.00015952,1593.9,-5.2617e-05,0.016175,-5.269e-05,-0.53124,1.3895
21945,16.556,0.54545,0.1,0.0001663,1661.9,0.0001663,1661.7,-5.4864e-05,0.0060199,-5.4908e-05,-0.32425,1.3495
21946,16.648,0.63636,0.1,0.0001639,1637.9,0.00016392,1638.4,-5.4004e-05,1.0045,-5.4139e-05,-0.014854,1.3629
21947,16.372,0.54545,0.1,0.00017071,1705.9,0.00017072,1706.4,-5.6247e-05,1.022,-5.6385e-05,-0.0090654,1.3231
21948,16.464,0.63636,0.1,0.00016829,1681.8,0.00016834,1683,-5.5326e-05,2.5085,-5.5662e-05,-0.0096774,1.3365
21949,16.189,0.54545,0.1,0.00017512,1750,0.00017516,1751.1,-5.7594e-05,2.332,-5.7906e-05,-0.0084783,1.2969
21950,16.281,0.63636,0.1,0.00017269,1725.7,0.00017276,1727.7,-5.6653e-05,4.0107,-5.7188e-05,-0.0092651,1.3102
21951,16.005,0.54545,0.1,0.00017954,1794.2,0.0001796,1796,-5.8946e-05,3.6057,-5.9427e-05,-0.0093927,1.2707
21952,16.097,0.63636,0.1,0.0001771,1769.8,0.0001772,1772.5,-5.7984e-05,5.4924,-5.8717e-05,-0.009828,1.284
21953,15.821,0.54545,0.1,0.00018396,1838.3,0.00018404,1840.7,-6.0304e-05,4.8208,-6.0947e-05,-0.010815,1.2447
21954,15.913,0.63636,0.1,0.00018152,1813.9,0.00018164,1817.4,-5.9321e-05,6.9337,-6.0245e-05,-0.010897,1.2579
21955,15.637,0.54545,0.1,0.00018838,1882.5,0.00018848,1885.5,-6.1668e-05,5.9503,-6.2461e-05,-0.012645,1.2188
21956,15.729,0.63636,0.1,0.00018594,1858.1,0.00018608,1862.2,-6.0664e-05,8.31,-6.1771e-05,-0.012371,1.232
21957,15.453,0.54545,0.1,0.00019279,1926.6,0.00019291,1930,-6.3038e-05,6.9612,-6.3967e-05,-0.014949,1.193
21958,15.545,0.63636,0.1,0.00019035,1902.2,0.00019051,1907,-6.2013e-05,9.5905,-6.3292e-05,-0.014267,1.2061
21959,15.27,0.54545,0.1,0.00019718,1970.5,0.00019731,1974.3,-6.4416e-05,7.8133,-6.5458e-05,-0.01786,1.1674
21960,15.362,0.63636,0.1,0.00019476,1946.2,0.00019494,1951.5,-6.3371e-05,10.738,-6.4802e-05,-0.0167,1.1804
21961,15.086,0.54545,0.1,0.00020154,2014,0.00020168,2018.2,-6.58e-05,8.4587,-6.6929e-05,-0.021586,1.1419
21962,15.178,0.63636,0.1,0.00019914,1990,0.00019934,1995.8,-6.4736e-05,11.706,-6.6297e-05,-0.019791,1.1549
21963,14.902,0.54545,0.1,0.00020585,2057.1,0.000206,2061.5,-6.7191e-05,8.8408,-6.8371e-05,-0.026566,1.1165
21964,14.994,0.63636,0.1,0.00020349,2033.5,0.0002037,2039.7,-6.6111e-05,12.441,-6.777e-05,-0.023779,1.1294
21965,14.718,0.54545,0.1,0.0002101,2099.5,0.00021025,2103.9,-6.8587e-05,8.8934,-6.9775e-05,-0.033621,1.0913
21966,14.81,0.63636,0.1,0.0002078,2076.5,0.00020801,2082.9,-6.7494e-05,12.88,-6.9212e-05,-0.029165,1.1041
21967,14.534,0.54545,0.1,0.00021425,2141,0.00021439,2145.2,-6.9986e-05,8.541,-7.1128e-05,-0.044352,1.0662
21968,14.626,0.63636,0.1,0.00021203,2118.8,0.00021225,2125.3,-6.8885e-05,12.947,-7.0613e-05,-0.036778,1.079
21969,14.351,0.54545,0.1,0.00021827,2181.2,0.0002184,2185,-7.1382e-05,7.6998,-7.2415e-05,-0.062383,1.0412
21970,14.443,0.63636,0.1,0.00021617,2160.2,0.00021638,2166.4,-7.0283e-05,12.559,-7.196e-05,-0.048169,1.054
21971,14.167,0.54545,0.1,0.00022212,2219.6,0.00022222,2222.7,-7.2768e-05,6.2822,-7.3618e-05,-0.097594,1.0164
21972,14.259,0.63636,0.1,0.00022017,2200.2,0.00022037,2206,-7.1682e-05,11.621,-7.3237e-05,-0.066595,1.0291
21973,13.983,0.54545,0.1,0.00022573,2255.8,0.0002258,2257.8,-7.413e-05,4.2204,-7.4717e-05,-0.1878,0.99178
21974,14.075,0.63636,0.1,0.000224,2238.4,0.00022416,2243.4,-7.3075e-05,10.036,-7.4424e-05,-0.099723,1.0044
21975,13.799,0.54545,0.1,0.00022905,2288.9,0.00022906,2289.4,-7.5413e-05,1.6885,-7.572e-05,-0.61881,0.96728
21976,13.891,0.63636,0.1,0.00022758,2274.3,0.00022771,2278,-7.445e-05,7.7102,-7.5499e-05,-0.17046,0.9798
21977,13.616,0.54545,0.1,0.00023196,2318,0.00023191,2316.6,-7.635e-05,0.43438,-7.684e-05,-3.2514,0.94294
21978,13.707,0.63636,0.1,0.00023086,2307,0.00023093,2309.1,-7.5778e-05,4.6253,-7.6444e-05,-0.38075,0.95539
21979,13.432,0.54545,0.1,0.00023436,2342,0.00023423,2338.1,-7.6924e-05,0.24609,-7.8018e-05,-7.9803,0.91875
21980,13.524,0.63636,0.1,0.00023372,2335.6,0.00023372,2335.6,-7.6922e-05,1.5193,-7.7336e-05,-1.5895,0.93112
21981,13.248,0.54545,0.1,0.0002361,2359.4,0.00023586,2352.5,-7.7204e-05,0.20114,-7.909e-05,-13.973,0.89472
21982,13.34,0.63636,0.1,0.00023605,2358.9,0.00023596,2356.1,-7.7549e-05,0.55833,-7.8432e-05,-6.0767,0.90702
21983,13.064,0.54545,0.1,0.00023699,2368.3,0.00023663,2357.7,-7.714e-05,0.19501,-7.9985e-05,-21.182,0.87085
21984,13.156,0.63636,0.1,0.00023769,2375.3,0.00023748,2369.2,-7.7783e-05,0.38772,-7.9509e-05,-12.585,0.88308
21985,12.88,0.54545,0.1,0.00023681,2366.4,0.00023629,2351.6,-7.6658e-05,0.20989,-8.0625e-05,-29.594,0.84714
21986,12.972,0.63636,0.1,0.00023846,2383,0.00023811,2372.8,-7.7644e-05,0.34922,-8.0422e-05,-20.525,0.85929
21987,12.697,0.54545,0.1,0.00023526,2351,0.00023458,2331.3,-7.5671e-05,0.24298,-8.0911e-05,-39.13,0.82359
21988,12.788,0.63636,0.1,0.00023811,2379.5,0.00023759,2364.6,-7.7064e-05,0.35926,-8.1083e-05,-29.837,0.83567
21989,12.513,0.54545,0.1,0.00023203,2318.7,0.00023115,2293.6,-7.4074e-05,0.29721,-8.0716e-05,-49.608,0.80019
21990,12.605,0.63636,0.1,0.00023636,2362,0.00023565,2341.7,-7.5951e-05,0.40167,-8.1391e-05,-40.469,0.8122
21991,12.329,0.54545,0.1,0.0002267,2265.5,0.00022562,2234.7,-7.1753e-05,0.38002,-7.9884e-05,-60.711,0.77695
21992,12.421,0.63636,0.1,0.00023286,2327,0.00023194,2300.7,-7.4199e-05,0.47622,-8.1226e-05,-52.322,0.78889
21993,12.145,0.54545,0.1,0.00021885,2187,0.00021754,2150.4,-6.8583e-05,0.50583,-7.8231e-05,-71.991,0.75386
21994,12.237,0.63636,0.1,0.00022723,2270.8,0.00022606,2237.7,-7.1682e-05,0.58986,-8.0445e-05,-65.249,0.76574
21995,11.961,0.54545,0.1,0.00020801,2078.7,0.00020649,2036.3,-6.4436e-05,0.69776,-7.5568e-05,-82.945,0.73091
21996,12.053,0.63636,0.1,0.00021905,2189,0.0002176,2148.7,-6.8266e-05,0.75811,-7.8899e-05,-79.133,0.74273
21997,11.778,0.54545,0.1,0.00019382,1936.8,0.00019207,1888.9,-5.9196e-05,1.0085,-7.1748e-05,-93.302,0.7081
21998,11.869,0.63636,0.1,0.00020791,2077.7,0.00020617,2029.5,-6.3813e-05,0.99815,-7.6471e-05,-94.116,0.71987
21999,11.594,0.54545,0.1,0.00017615,1760.3,0.00017417,1706.8,-5.2785e-05,1.4788,-6.6801e-05,-103.83,0.6854
22000,11.686,0.63636,0.1,0.00019361,1934.8,0.0001915,1877.4,-5.8192e-05,1.3611,-7.3166e-05,-111.15,0.69714
22001,11.41,0.54545,0.1,0.00015561,1555.1,0.00015329,1493.6,-4.5189e-05,2.3023,-6.1228e-05,-118.21,0.66282
22002,11.502,0.63636,0.1,0.0001764,1762.8,0.00017377,1693.1,-5.1328e-05,1.7839,-6.9318e-05,-133.38,0.67453
22003,11.226,0.54545,0.1,0.00013452,1344.3,0.00013139,1264.9,-3.6578e-05,2.7825,-5.6747e-05,-148.76,0.64032
22004,11.318,0.63636,0.1,0.00015764,1575.3,0.00015411,1485.2,-4.3213e-05,2.5787,-6.6025e-05,-168.82,0.65201
22005,11.042,0.54545,0.1,0.0001208,1207.2,0.00011497,1071.9,-2.702e-05,5.0543,-5.9423e-05,-238.41,0.61788
22006,11.134,0.63636,0.1,0.00014122,1411.2,0.00013566,1277.6,-3.4132e-05,1.8877,-6.6099e-05,-238.3,0.62957
22007,10.95,0.63636,0.1,0.0001398,1397.1,0.00012825,1148.8,-2.3815e-05,6.25,-7.9043e-05,-408.72,0.60718
22008,10.859,0.54545,0.1,9.7086e-05,970.19,9.0577e-05,823.84,-1.9272e-05,-1.5191,-5.1657e-05,-244.85,0.59547
22009,23.724,0.72727,0.1,1.2727e-05,127.18,8.6646e-06,57.388,1.0142e-06,-0.094533,-1.0737e-05,-88.387,2.4367
22010,23.816,0.81818,0.1,1.2475e-05,124.66,7.256e-06,39.427,2.0013e-06,-0.054522,-1.1327e-05,-100.2,2.451
22011,23.908,0.72727,0.1,1.0977e-05,109.69,5.4403e-06,22.232,2.4316e-06,-0.37419,-1.0428e-05,-97,2.4653
22012,23.541,0.72727,0.1,1.5077e-05,150.66,1.2038e-05,93.896,-4.7659e-07,-0.13666,-1.109e-05,-79.878,2.4081
22013,23.632,0.81818,0.1,1.4454e-05,144.44,1.06e-05,75.928,4.6229e-07,-0.24082,-1.1571e-05,-90.657,2.4224
22014,23.357,0.72727,0.1,1.7898e-05,178.85,1.5507e-05,130.89,-1.921e-06,-0.05693,-1.1614e-05,-72.889,2.3795
22015,23.449,0.81818,0.1,1.7002e-05,169.9,1.4022e-05,112.86,-1.0092e-06,-0.078009,-1.1983e-05,-82.534,2.3938
22016,23.173,0.72727,0.1,2.1027e-05,210.12,1.9064e-05,168.34,-3.3461e-06,-0.041237,-1.2276e-05,-67.137,2.3509
22017,23.265,0.81818,0.1,1.9925e-05,199.11,1.7525e-05,150.12,-2.4634e-06,-0.0672,-1.2533e-05,-75.729,2.3652
22018,22.989,0.72727,0.1,2.4362e-05,243.46,2.2696e-05,206.24,-4.7551e-06,-0.024315,-1.3045e-05,-62.315,2.3223
22019,23.081,0.81818,0.1,2.3102e-05,230.86,2.1103e-05,187.78,-3.8953e-06,-0.04117,-1.32e-05,-69.952,2.3366
22020,22.805,0.72727,0.1,2.7841e-05,278.22,2.6391e-05,244.52,-6.1544e-06,-0.015433,-1.3898e-05,-58.194,2.2937
22021,22.897,0.81818,0.1,2.6457e-05,264.39,2.4745e-05,225.82,-5.314e-06,-0.029867,-1.396e-05,-64.994,2.3081
22022,22.622,0.72727,0.1,3.1422e-05,314,3.0135e-05,283.12,-7.5474e-06,-0.0089904,-1.4813e-05,-54.598,2.2652
22023,22.713,0.81818,0.1,2.9939e-05,299.19,2.8442e-05,264.19,-6.723e-06,-0.020829,-1.4795e-05,-60.672,2.2795
22024,22.438,0.72727,0.1,3.5078e-05,350.54,3.392e-05,322,-8.9364e-06,-0.0047313,-1.5777e-05,-51.401,2.2366
22025,22.53,0.81818,0.1,3.3515e-05,334.92,3.2184e-05,302.86,-8.1254e-06,-0.014883,-1.5689e-05,-56.845,2.251
22026,22.254,0.72727,0.1,3.8792e-05,387.65,3.7738e-05,361.11,-1.0323e-05,-0.0017537,-1.678e-05,-48.515,2.2081
22027,22.346,0.81818,0.1,3.7162e-05,371.37,3.5964e-05,341.77,-9.5235e-06,-0.010537,-1.663e-05,-53.408,2.2225
22028,22.07,0.72727,0.1,4.2552e-05,425.23,4.1585e-05,400.43,-1.1708e-05,0.0003065,-1.7814e-05,-45.875,2.1796
22029,22.162,0.81818,0.1,4.0866e-05,408.38,3.9777e-05,380.9,-1.0919e-05,-0.0073989,-1.761e-05,-50.285,2.194
22030,21.886,0.72727,0.1,4.635e-05,463.18,4.5458e-05,439.93,-1.3093e-05,0.0017371,-1.8874e-05,-43.434,2.1512
22031,21.978,0.81818,0.1,4.4615e-05,445.84,4.3619e-05,420.24,-1.2312e-05,-0.0050872,-1.8622e-05,-47.416,2.1655
22032,21.703,0.72727,0.1,5.0181e-05,501.46,4.9354e-05,479.61,-1.4479e-05,0.002726,-1.9957e-05,-41.157,2.1228
22033,21.794,0.81818,0.1,4.8403e-05,483.69,4.7486e-05,459.76,-1.3705e-05,-0.0033714,-1.9661e-05,-44.759,2.1371
22034,21.519,0.72727,0.1,5.404e-05,540.03,5.327e-05,519.46,-1.5865e-05,0.0033991,-2.1059e-05,-39.018,2.0944
22035,21.611,0.81818,0.1,5.2224e-05,521.88,5.1376e-05,499.45,-1.5097e-05,-0.0020782,-2.0724e-05,-42.278,2.1086
22036,21.335,0.72727,0.1,5.7925e-05,578.85,5.7207e-05,559.47,-1.7253e-05,0.0038384,-2.2178e-05,-36.997,2.066
22037,21.427,0.81818,0.1,5.6074e-05,560.36,5.5288e-05,539.31,-1.6491e-05,-0.0011089,-2.1807e-05,-39.948,2.0803
22038,21.151,0.72727,0.1,6.1834e-05,617.92,6.1163e-05,599.63,-1.8643e-05,0.0041038,-2.3312e-05,-35.076,2.0377
22039,21.243,0.81818,0.1,5.9952e-05,599.11,5.9221e-05,579.34,-1.7885e-05,-0.00038109,-2.2909e-05,-37.747,2.0519
22040,20.967,0.72727,0.1,6.5766e-05,657.21,6.5137e-05,639.96,-2.0035e-05,0.0042344,-2.446e-05,-33.241,2.0094
22041,21.059,0.81818,0.1,6.3855e-05,638.11,6.3173e-05,619.53,-1.9281e-05,0.000159,-2.4027e-05,-35.658,2.0236
22042,20.784,0.72727,0.1,6.9719e-05,696.71,6.913e-05,680.44,-2.143e-05,0.0042666,-2.562e-05,-31.482,1.9812
22043,20.875,0.81818,0.1,6.7781e-05,677.34,6.7146e-05,659.88,-2.0679e-05,0.00054846,-2.516e-05,-33.665,1.9954
22044,20.6,0.72727,0.1,7.3693e-05,736.42,7.3141e-05,721.08,-2.2828e-05,0.0042346,-2.6793e-05,-29.789,1.953
22045,20.692,0.81818,0.1,7.173e-05,716.8,7.1137e-05,700.4,-2.208e-05,0.00083032,-2.6307e-05,-31.756,1.9672
22046,20.416,0.72727,0.1,7.7688e-05,776.34,7.717e-05,761.88,-2.4229e-05,0.0041531,-2.7977e-05,-28.152,1.9248
22047,20.508,0.81818,0.1,7.57e-05,756.48,7.5147e-05,741.08,-2.3484e-05,0.0010411,-2.7466e-05,-29.92,1.939
22048,20.232,0.72727,0.1,8.1702e-05,816.45,8.1217e-05,802.85,-2.5635e-05,0.0040296,-2.9171e-05,-26.564,1.8967
22049,20.324,0.81818,0.1,7.9692e-05,796.37,7.9175e-05,781.92,-2.4892e-05,0.0011857,-2.8638e-05,-28.147,1.9109
22050,20.048,0.72727,0.1,8.5735e-05,856.76,8.5283e-05,843.98,-2.7044e-05,0.0038737,-3.0374e-05,-25.017,1.8687
22051,20.14,0.81818,0.1,8.3704e-05,836.46,8.3223e-05,822.93,-2.6303e-05,0.0012754,-2.982e-05,-26.429,1.8828
22052,19.865,0.72727,0.1,8.9789e-05,897.27,8.9366e-05,885.29,-2.8458e-05,0.0036834,-3.1587e-05,-23.505,1.8407
22053,19.956,0.81818,0.1,8.7736e-05,876.75,8.7288e-05,864.11,-2.7718e-05,0.0013214,-3.1013e-05,-24.756,1.8548
22054,19.681,0.72727,0.1,9.3861e-05,937.96,9.3467e-05,926.76,-2.9877e-05,0.0034672,-3.2808e-05,-22.02,1.8128
22055,19.773,0.81818,0.1,9.1788e-05,917.24,9.1373e-05,905.47,-2.9137e-05,0.0013197,-3.2215e-05,-23.12,1.8269
22056,19.497,0.72727,0.1,9.7952e-05,978.85,9.7587e-05,968.41,-3.13e-05,0.0032479,-3.4037e-05,-20.558,1.7849
22057,19.589,0.81818,0.1,9.586e-05,957.93,9.5475e-05,947,-3.0562e-05,0.0012945,-3.3426e-05,-21.516,1.799
22058,19.313,0.72727,0.1,0.00010206,1019.9,0.00010172,1010.2,-3.2729e-05,0.003026,-3.5273e-05,-19.112,1.7571
22059,19.405,0.81818,0.1,9.9951e-05,998.82,9.9597e-05,988.7,-3.1991e-05,0.0012711,-3.4645e-05,-19.934,1.7712
22060,19.129,0.72727,0.1,0.00010619,1061.2,0.00010588,1052.2,-3.4164e-05,0.0027945,-3.6517e-05,-17.676,1.7294
22061,19.221,0.81818,0.1,0.00010406,1039.9,0.00010374,1030.6,-3.3426e-05,0.0012319,-3.5871e-05,-18.369,1.7434
22062,18.946,0.72727,0.1,0.00011034,1102.6,0.00011005,1094.4,-3.5604e-05,0.0025546,-3.7767e-05,-16.245,1.7017
22063,19.038,0.81818,0.1,0.00010819,1081.2,0.00010789,1072.7,-3.4867e-05,0.0011849,-3.7105e-05,-16.813,1.7157
22064,18.762,0.72727,0.1,0.00011451,1144.3,0.00011425,1136.8,-3.7051e-05,0.0023005,-3.9023e-05,-14.813,1.6742
22065,18.854,0.81818,0.1,0.00011234,1122.6,0.00011207,1114.9,-3.6313e-05,0.0011321,-3.8345e-05,-15.261,1.6881
22066,18.578,0.72727,0.1,0.00011869,1186.1,0.00011846,1179.4,-3.8504e-05,0.0020397,-4.0284e-05,-13.375,1.6467
22067,18.67,0.81818,0.1,0.00011651,1164.3,0.00011627,1157.3,-3.7766e-05,0.0010679,-3.959e-05,-13.706,1.6606
22068,18.394,0.72727,0.1,0.0001229,1228.1,0.00012269,1222.1,-3.9963e-05,0.0018018,-4.1551e-05,-11.927,1.6192
22069,18.486,0.81818,0.1,0.00012069,1206.1,0.00012048,1200,-3.9225e-05,0.0010255,-4.0841e-05,-12.143,1.6331
22070,18.21,0.72727,0.1,0.00012712,1270.3,0.00012694,1265,-4.1429e-05,0.0015986,-4.2822e-05,-10.464,1.5919
22071,18.302,0.81818,0.1,0.0001249,1248.1,0.00012471,1242.8,-4.0691e-05,0.0010507,-4.2097e-05,-10.565,1.6057
22072,18.027,0.72727,0.1,0.00013136,1312.7,0.0001312,1308.2,-4.2902e-05,0.0014358,-4.4098e-05,-8.9825,1.5646
22073,18.119,0.81818,0.1,0.00012912,1290.3,0.00012896,1285.8,-4.2164e-05,0.0011558,-4.3358e-05,-8.9682,1.5784
22074,17.843,0.72727,0.1,0.00013562,1355.2,0.00013549,1351.5,-4.4382e-05,0.0013528,-4.5378e-05,-7.4783,1.5374
22075,17.935,0.81818,0.1,0.00013336,1332.7,0.00013323,1329,-4.3644e-05,0.0014063,-4.4622e-05,-7.3476,1.5512
22076,17.659,0.72727,0.1,0.00013989,1398,0.00013979,1395,-4.5869e-05,0.0014283,-4.6661e-05,-5.9488,1.5104
22077,17.751,0.81818,0.1,0.00013762,1375.2,0.00013752,1372.4,-4.5131e-05,0.0019669,-4.5889e-05,-5.6992,1.5241
22078,17.475,0.72727,0.1,0.00014419,1440.9,0.00014411,1438.7,-4.7363e-05,0.001889,-4.7948e-05,-4.3925,1.4834
22079,17.567,0.81818,0.1,0.00014189,1417.9,0.00014182,1415.9,-4.6625e-05,0.0032635,-4.716e-05,-4.0203,1.497
22080,17.291,0.72727,0.1,0.0001485,1483.9,0.00014845,1482.5,-4.8864e-05,0.0035166,-4.9238e-05,-2.8091,1.4565
22081,17.383,0.81818,0.1,0.00014618,1460.8,0.00014614,1459.7,-4.8126e-05,0.0071388,-4.8434e-05,-2.3101,1.4701
22082,17.108,0.72727,0.1,0.00015282,1527.2,0.0001528,1526.6,-5.0371e-05,0.011159,-5.0533e-05,-1.2038,1.4297
22083,17.2,0.81818,0.1,0.00015049,1503.9,0.00015048,1503.6,-4.9631e-05,0.036612,-4.9714e-05,-0.59038,1.4433
22084,16.924,0.72727,0.1,0.00015717,1570.6,0.00015717,1570.8,-5.1822e-05,0.48571,-5.1892e-05,-0.039597,1.403
22085,17.016,0.81818,0.1,0.00015482,1547.1,0.00015484,1547.7,-5.0984e-05,1.2531,-5.1154e-05,-0.022921,1.4165
22086,16.74,0.72727,0.1,0.00016152,1614.1,0.00016156,1615.2,-5.3125e-05,2.1196,-5.3409e-05,-0.013067,1.3764
22087,16.832,0.81818,0.1,0.00015916,1590.5,0.00015921,1592,-5.2267e-05,3.0593,-5.2675e-05,-0.012505,1.3899
22088,16.556,0.72727,0.1,0.0001659,1657.8,0.00016596,1659.7,-5.4429e-05,3.7925,-5.4935e-05,-0.010384,1.3499
22089,16.648,0.81818,0.1,0.00016352,1634,0.0001636,1636.5,-5.355e-05,4.9022,-5.4204e-05,-0.010359,1.3634
22090,16.372,0.72727,0.1,0.00017028,1701.7,0.00017038,1704.4,-5.5735e-05,5.4734,-5.6465e-05,-0.010037,1.3236
22091,16.464,0.81818,0.1,0.00016789,1677.7,0.000168,1681.1,-5.4836e-05,6.7682,-5.5738e-05,-0.0099216,1.3369
22092,16.189,0.72727,0.1,0.00017468,1745.6,0.0001748,1749.1,-5.7046e-05,7.1476,-5.7999e-05,-0.010479,1.2973
22093,16.281,0.81818,0.1,0.00017227,1721.5,0.00017241,1725.8,-5.6125e-05,8.646,-5.7277e-05,-0.010184,1.3106
22094,16.005,0.72727,0.1,0.00017909,1789.6,0.00017923,1794,-5.8362e-05,8.7975,-5.9534e-05,-0.011376,1.2712
22095,16.097,0.81818,0.1,0.00017666,1765.4,0.00017684,1770.6,-5.7418e-05,10.521,-5.882e-05,-0.010852,1.2845
22096,15.821,0.72727,0.1,0.0001835,1833.7,0.00018367,1838.9,-5.9684e-05,10.4,-6.1069e-05,-0.01266,1.2452
22097,15.913,0.81818,0.1,0.00018107,1809.4,0.00018127,1815.6,-5.8716e-05,12.375,-6.0364e-05,-0.011885,1.2584
22098,15.637,0.72727,0.1,0.00018791,1877.8,0.00018811,1883.7,-6.1012e-05,11.928,-6.2601e-05,-0.014343,1.2193
22099,15.729,0.81818,0.1,0.00018547,1853.5,0.00018571,1860.5,-6.0019e-05,14.183,-6.1908e-05,-0.01329,1.2324
22100,15.453,0.72727,0.1,0.00019232,1921.9,0.00019254,1928.5,-6.2348e-05,13.345,-6.4127e-05,-0.016507,1.1935
22101,15.545,0.81818,0.1,0.00018988,1897.5,0.00019015,1905.4,-6.1329e-05,15.915,-6.3449e-05,-0.015121,1.2066
22102,15.27,0.72727,0.1,0.00019672,1965.8,0.00019696,1973.1,-6.3694e-05,14.609,-6.5641e-05,-0.019275,1.1679
22103,15.362,0.81818,0.1,0.00019429,1941.5,0.00019458,1950.2,-6.2647e-05,17.532,-6.4983e-05,-0.017504,1.1809
22104,15.086,0.72727,0.1,0.00020109,2009.6,0.00020136,2017.3,-6.505e-05,15.667,-6.7138e-05,-0.022819,1.1424
22105,15.178,0.81818,0.1,0.00019868,1985.5,0.000199,1994.9,-6.3976e-05,18.987,-6.6505e-05,-0.020562,1.1554
22106,14.902,0.72727,0.1,0.00020544,2053,0.00020571,2061.1,-6.6417e-05,16.458,-6.8611e-05,-0.027484,1.117
22107,14.994,0.81818,0.1,0.00020306,2029.2,0.00020339,2039.2,-6.5315e-05,20.226,-6.801e-05,-0.024508,1.1299
22108,14.718,0.72727,0.1,0.00020973,2095.9,0.00021001,2104.3,-6.7795e-05,16.911,-7.005e-05,-0.033867,1.0918
22109,14.81,0.81818,0.1,0.0002074,2072.6,0.00020775,2083.1,-6.6668e-05,21.182,-6.9491e-05,-0.029775,1.1046
22110,14.534,0.72727,0.1,0.00021395,2138.1,0.00021424,2146.5,-6.9185e-05,16.943,-7.1446e-05,-0.042966,1.0667
22111,14.626,0.81818,0.1,0.00021169,2115.4,0.00021205,2126.2,-6.8034e-05,21.778,-7.0937e-05,-0.037003,1.0795
22112,14.351,0.72727,0.1,0.00021807,2179.2,0.00021835,2187.4,-7.0585e-05,16.46,-7.2783e-05,-0.056629,1.0418
22113,14.443,0.81818,0.1,0.00021591,2157.6,0.00021627,2168.5,-6.9413e-05,21.927,-7.2338e-05,-0.047259,1.0545
22114,14.167,0.72727,0.1,0.00022206,2219,0.00022231,2226.6,-7.199e-05,15.361,-7.4045e-05,-0.078526,1.017
22115,14.259,0.81818,0.1,0.00022003,2198.8,0.00022039,2209.4,-7.0805e-05,21.528,-7.3679e-05,-0.062455,1.0296
22116,13.983,0.72727,0.1,0.00022585,2257,0.00022608,2263.6,-7.3393e-05,13.538,-7.5211e-05,-0.11688,0.99235
22117,14.075,0.81818,0.1,0.00022401,2238.6,0.00022435,2248.7,-7.2206e-05,20.474,-7.4943e-05,-0.086103,1.0049
22118,13.799,0.72727,0.1,0.0002294,2292.4,0.00022958,2297.8,-7.4782e-05,10.89,-7.6257e-05,-0.1939,0.96786
22119,13.891,0.81818,0.1,0.00022781,2276.5,0.00022812,2285.7,-7.361e-05,18.651,-7.6109e-05,-0.12549,0.98035
22120,13.616,0.72727,0.1,0.00023262,2324.6,0.00023274,2328.1,-7.6129e-05,7.3697,-7.7162e-05,-0.3899,0.94352
22121,13.707,0.81818,0.1,0.00023135,2311.9,0.00023162,2319.8,-7.5003e-05,15.944,-7.7151e-05,-0.19788,0.95594
22122,13.432,0.72727,0.1,0.00023541,2352.5,0.00023545,2353.5,-7.7347e-05,3.3412,-7.7951e-05,-1.1946,0.91934
22123,13.524,0.81818,0.1,0.00023457,2344.1,0.00023477,2350,-7.6365e-05,12.267,-7.8044e-05,-0.35242,0.93169
22124,13.248,0.72727,0.1,0.00023764,2374.8,0.00023757,2372.8,-7.8078e-05,1.1217,-7.8899e-05,-5.0435,0.89532
22125,13.34,0.81818,0.1,0.00023735,2371.9,0.00023747,2375.3,-7.7646e-05,7.6766,-7.8772e-05,-0.78474,0.90759
22126,13.064,0.72727,0.1,0.00023915,2389.9,0.00023896,2384.2,-7.8268e-05,0.68016,-7.9957e-05,-12.008,0.87147
22127,13.156,0.81818,0.1,0.00023958,2394.1,0.00023959,2394.4,-7.8661e-05,3.2037,-7.9442e-05,-2.6639,0.88366
22128,12.88,0.72727,0.1,0.00023975,2395.8,0.0002394,2385.7,-7.8039e-05,0.57798,-8.0874e-05,-20.73,0.84777
22129,12.972,0.81818,0.1,0.00024108,2409.1,0.00024095,2405.5,-7.9007e-05,1.4122,-8.0352e-05,-8.6937,0.85989
22130,12.697,0.72727,0.1,0.00023917,2390.1,0.00023864,2374.7,-7.7337e-05,0.57404,-8.1542e-05,-31.019,0.82423
22131,12.788,0.81818,0.1,0.00024166,2415,0.00024137,2406.6,-7.8784e-05,1.0099,-8.1279e-05,-17.73,0.83628
22132,12.513,0.72727,0.1,0.00023714,2369.7,0.00023639,2348.3,-7.607e-05,0.62375,-8.1858e-05,-42.86,0.80085
22133,12.605,0.81818,0.1,0.00024109,2409.2,0.0002406,2395.1,-7.8048e-05,0.91561,-8.2012e-05,-28.869,0.81283
22134,12.329,0.72727,0.1,0.0002333,2331.4,0.0002323,2303.1,-7.4123e-05,0.71875,-8.1709e-05,-56.278,0.77763
22135,12.421,0.81818,0.1,0.00023907,2389.1,0.00023834,2368.2,-7.6717e-05,0.93523,-8.2454e-05,-42.173,0.78954
22136,12.145,0.72727,0.1,0.00022727,2271.2,0.00022599,2235,-7.1363e-05,0.86347,-8.098e-05,-71.396,0.75457
22137,12.237,0.81818,0.1,0.0002353,2351.4,0.00023427,2322.3,-7.4671e-05,1.0239,-8.253e-05,-58.031,0.76641
22138,11.961,0.72727,0.1,0.00021869,2185.4,0.00021706,2140.2,-6.7642e-05,1.066,-7.9579e-05,-88.627,0.73165
22139,12.053,0.81818,0.1,0.00022945,2292.9,0.00022805,2253.8,-7.176e-05,1.1723,-8.2196e-05,-77.242,0.74343
22140,11.778,0.72727,0.1,0.00020727,2071.3,0.00020522,2015.2,-6.2808e-05,1.3458,-7.7511e-05,-109.12,0.70887
22141,11.869,0.81818,0.1,0.00022124,2210.9,0.00021936,2159.1,-6.7813e-05,1.3717,-8.1488e-05,-101.38,0.72061
22142,11.594,0.72727,0.1,0.00019309,1929.6,0.00019044,1858.9,-5.6734e-05,1.6726,-7.5028e-05,-135.79,0.68622
22143,11.686,0.81818,0.1,0.0002106,2104.6,0.00020804,2035.4,-6.2642e-05,1.6425,-8.0627e-05,-133.49,0.69792
22144,11.41,0.72727,0.1,0.00017703,1769,0.00017341,1675.8,-4.9339e-05,2.1611,-7.2944e-05,-175.2,0.66369
22145,11.502,0.81818,0.1,0.00019799,1978.5,0.00019434,1883.5,-5.6084e-05,1.864,-8.0217e-05,-179.46,0.67536
22146,11.226,0.72727,0.1,0.00016169,1615.8,0.00015621,1481.7,-4.0723e-05,2.0132,-7.3255e-05,-242.42,0.64124
22147,11.318,0.81818,0.1,0.00018487,1847.4,0.00017936,1710.8,-4.8007e-05,2.3854,-8.1569e-05,-249.79,0.6529
22148,11.042,0.72727,0.1,0.00015546,1553.6,0.00014537,1327.7,-3.0805e-05,3.9954,-8.2274e-05,-382.72,0.61887
22149,11.134,0.81818,0.1,0.00017494,1748.2,0.00016584,1537.2,-3.8583e-05,1.2319,-8.734e-05,-365.11,0.63053
22150,10.95,0.81818,0.1,0.00018135,1812.3,0.00016371,1441.8,-2.7383e-05,5.9473,-0.0001073,-594.53,0.60821
22151,10.859,0.72727,0.1,0.00012889,1288,0.00011805,1052.8,-2.2274e-05,-1.4943,-7.3027e-05,-382.84,0.59652
22152,23.724,0.90909,0.1,1.408e-05,140.7,9.1872e-06,57.938,1.4582e-06,-0.13493,-1.2166e-05,-102.5,2.4368
22153,23.816,1,0.1,1.3779e-05,137.69,7.7182e-06,39.621,2.4322e-06,-0.095833,-1.2669e-05,-113.56,2.4512
22154,23.908,0.90909,0.1,1.242e-05,124.11,5.9349e-06,22.364,2.9055e-06,-0.39732,-1.1888e-05,-111.55,2.4654
22155,23.541,0.90909,0.1,1.6317e-05,163.06,1.2587e-05,94.923,-6.8233e-08,-0.16648,-1.2472e-05,-93.361,2.4082
22156,23.632,1,0.1,1.5685e-05,156.74,1.1104e-05,76.659,8.6558e-07,-0.2674,-1.2898e-05,-103.68,2.4226
22157,23.357,0.90909,0.1,1.9002e-05,189.89,1.6048e-05,132.15,-1.5507e-06,-0.081559,-1.2911e-05,-85.439,2.3796
22158,23.449,1,0.1,1.8123e-05,181.1,1.4538e-05,113.94,-6.3898e-07,-0.098201,-1.3255e-05,-94.887,2.394
22159,23.173,0.90909,0.1,2.1993e-05,219.78,1.9574e-05,169.64,-3.012e-06,-0.063262,-1.3467e-05,-78.621,2.351
22160,23.265,1,0.1,2.0924e-05,209.1,1.8029e-05,151.36,-2.1268e-06,-0.085303,-1.3723e-05,-87.215,2.3654
22161,22.989,0.90909,0.1,2.52e-05,251.82,2.3162e-05,207.45,-4.4538e-06,-0.044101,-1.4126e-05,-72.715,2.3224
22162,23.081,1,0.1,2.3982e-05,239.65,2.1576e-05,189.03,-3.5903e-06,-0.057445,-1.4295e-05,-80.486,2.3368
22163,22.805,0.90909,0.1,2.8563e-05,285.44,2.6807e-05,245.58,-5.8822e-06,-0.033322,-1.4869e-05,-67.559,2.2939
22164,22.897,1,0.1,2.7225e-05,272.06,2.5179e-05,226.99,-5.0377e-06,-0.044708,-1.4957e-05,-74.573,2.3082
22165,22.622,0.90909,0.1,3.2043e-05,320.21,3.0502e-05,284.01,-7.3008e-06,-0.025208,-1.5683e-05,-63.005,2.2653
22166,22.713,1,0.1,3.0607e-05,305.86,2.8832e-05,265.23,-6.4723e-06,-0.0344,-1.5696e-05,-69.334,2.2796
22167,22.438,0.90909,0.1,3.5611e-05,355.86,3.424e-05,322.71,-8.7124e-06,-0.019469,-1.6554e-05,-58.935,2.2368
22168,22.53,1,0.1,3.4093e-05,340.69,3.253e-05,303.73,-7.8977e-06,-0.027319,-1.6499e-05,-64.652,2.2511
22169,22.254,0.90909,0.1,3.9247e-05,392.2,3.8014e-05,361.64,-1.0119e-05,-0.015178,-1.7471e-05,-55.259,2.2083
22170,22.346,1,0.1,3.7661e-05,376.35,3.6267e-05,342.47,-9.3161e-06,-0.021947,-1.7356e-05,-60.428,2.2226
22171,22.07,0.90909,0.1,4.294e-05,429.1,4.1821e-05,400.78,-1.1522e-05,-0.011953,-1.8429e-05,-51.903,2.1798
22172,22.162,1,0.1,4.1295e-05,412.66,4.004e-05,381.44,-1.0729e-05,-0.017886,-1.8258e-05,-56.585,2.1941
22173,21.886,0.90909,0.1,4.6678e-05,466.46,4.5656e-05,440.13,-1.2923e-05,-0.0094872,-1.9419e-05,-48.814,2.1514
22174,21.978,1,0.1,4.4982e-05,449.51,4.3843e-05,420.62,-1.2139e-05,-0.014747,-1.9199e-05,-53.059,2.1657
22175,21.703,0.90909,0.1,5.0456e-05,504.21,4.9517e-05,479.66,-1.4323e-05,-0.007573,-2.0438e-05,-45.949,2.1229
22176,21.794,1,0.1,4.8714e-05,486.8,4.7675e-05,459.98,-1.3547e-05,-0.012283,-2.0173e-05,-49.802,2.1372
22177,21.519,0.90909,0.1,5.4268e-05,542.31,5.3402e-05,519.37,-1.5723e-05,-0.0060711,-2.1481e-05,-43.274,2.0945
22178,21.611,1,0.1,5.2486e-05,524.49,5.1533e-05,499.54,-1.4953e-05,-0.010316,-2.1176e-05,-46.772,2.1088
22179,21.335,0.90909,0.1,5.8111e-05,580.71,5.731e-05,559.25,-1.7122e-05,-0.0048869,-2.2547e-05,-40.761,2.0662
22180,21.427,1,0.1,5.6292e-05,562.53,5.5415e-05,539.27,-1.6358e-05,-0.0087375,-2.2205e-05,-43.939,2.0805
22181,21.151,0.90909,0.1,6.1982e-05,619.39,6.1239e-05,599.3,-1.8523e-05,-0.003947,-2.3632e-05,-38.388,2.0379
22182,21.243,1,0.1,6.0129e-05,600.88,5.932e-05,579.17,-1.7764e-05,-0.007456,-2.3256e-05,-41.275,2.0521
22183,20.967,0.90909,0.1,6.5878e-05,658.33,6.5189e-05,639.51,-1.9926e-05,-0.0032022,-2.4735e-05,-36.137,2.0096
22184,21.059,1,0.1,6.3995e-05,639.51,6.3248e-05,619.25,-1.917e-05,-0.0064096,-2.4328e-05,-38.758,2.0238
22185,20.784,0.90909,0.1,6.98e-05,697.51,6.9159e-05,679.9,-2.133e-05,-0.0026103,-2.5854e-05,-33.992,1.9814
22186,20.875,1,0.1,6.7888e-05,678.41,6.7196e-05,659.49,-2.0578e-05,-0.0055569,-2.5418e-05,-36.369,1.9956
22187,20.6,0.90909,0.1,7.3744e-05,736.93,7.3149e-05,720.44,-2.2737e-05,-0.0021273,-2.6987e-05,-31.938,1.9532
22188,20.692,1,0.1,7.1806e-05,717.56,7.1165e-05,699.91,-2.1988e-05,-0.0048505,-2.6524e-05,-34.092,1.9674
22189,20.416,0.90909,0.1,7.7711e-05,776.58,7.7158e-05,761.16,-2.4146e-05,-0.0017276,-2.8134e-05,-29.965,1.9251
22190,20.508,1,0.1,7.5748e-05,756.96,7.5155e-05,740.49,-2.34e-05,-0.004244,-2.7646e-05,-31.912,1.9392
22191,20.232,0.90909,0.1,8.17e-05,816.44,8.1187e-05,802.05,-2.5559e-05,-0.0014033,-2.9294e-05,-28.059,1.897
22192,20.324,1,0.1,7.9713e-05,796.58,7.9164e-05,781.25,-2.4815e-05,-0.0037297,-2.8783e-05,-29.816,1.9111
22193,20.048,0.90909,0.1,8.571e-05,856.51,8.5234e-05,843.11,-2.6976e-05,-0.0011422,-3.0465e-05,-26.212,1.8689
22194,20.14,1,0.1,8.3701e-05,836.43,8.3193e-05,822.18,-2.6233e-05,-0.0032938,-2.9932e-05,-27.793,1.8831
22195,19.865,0.90909,0.1,8.9741e-05,896.79,8.9301e-05,884.34,-2.8397e-05,-0.00093573,-3.1646e-05,-24.415,1.841
22196,19.956,1,0.1,8.771e-05,876.49,8.7242e-05,863.29,-2.7656e-05,-0.0029209,-3.1093e-05,-25.831,1.8551
22197,19.681,0.90909,0.1,9.3793e-05,937.28,9.3387e-05,925.74,-2.9823e-05,-0.00077265,-3.2838e-05,-22.657,1.813
22198,19.773,1,0.1,9.174e-05,916.77,9.131e-05,904.57,-2.9082e-05,-0.0026108,-3.2265e-05,-23.92,1.8271
22199,19.497,0.90909,0.1,9.7864e-05,977.96,9.7491e-05,967.33,-3.1253e-05,-0.00062671,-3.4038e-05,-20.931,1.7852
22200,19.589,1,0.1,9.5791e-05,957.25,9.5397e-05,946.03,-3.0513e-05,-0.0023361,-3.3447e-05,-22.05,1.7992
22201,19.313,0.90909,0.1,0.00010195,1018.8,0.00010161,1009.1,-3.2688e-05,-0.00049091,-3.5247e-05,-19.229,1.7574
22202,19.405,1,0.1,9.9863e-05,997.94,9.9503e-05,987.68,-3.1949e-05,-0.0020677,-3.4638e-05,-20.212,1.7714
22203,19.129,0.90909,0.1,0.00010607,1059.9,0.00010576,1051,-3.4129e-05,-0.00036824,-3.6464e-05,-17.543,1.7297
22204,19.221,1,0.1,0.00010395,1038.8,0.00010363,1029.5,-3.339e-05,-0.0018166,-3.5838e-05,-18.397,1.7437
22205,18.946,0.90909,0.1,0.0001102,1101.2,0.00010992,1093.2,-3.5576e-05,-0.0002501,-3.7687e-05,-15.865,1.702
22206,19.038,1,0.1,0.00010806,1079.9,0.00010777,1071.5,-3.4836e-05,-0.0015722,-3.7045e-05,-16.597,1.716
22207,18.762,0.90909,0.1,0.00011434,1142.6,0.0001141,1135.5,-3.7028e-05,-0.00013398,-3.8917e-05,-14.189,1.6745
22208,18.854,1,0.1,0.0001122,1121.2,0.00011194,1113.7,-3.6289e-05,-0.0013204,-3.8259e-05,-14.802,1.6884
22209,18.578,0.90909,0.1,0.00011851,1184.3,0.00011829,1178,-3.8488e-05,4.2116e-07,-4.0152e-05,-12.507,1.647
22210,18.67,1,0.1,0.00011634,1162.6,0.00011612,1156.1,-3.7748e-05,-0.0010587,-3.9479e-05,-13.006,1.6608
22211,18.394,0.90909,0.1,0.0001227,1226.1,0.00012251,1220.7,-3.9953e-05,0.00020423,-4.1392e-05,-10.813,1.6195
22212,18.486,1,0.1,0.00012051,1204.3,0.00012032,1198.7,-3.9213e-05,-0.00072962,-4.0704e-05,-11.201,1.6334
22213,18.21,0.90909,0.1,0.0001269,1268.1,0.00012674,1263.6,-4.1426e-05,0.00052778,-4.2637e-05,-9.1001,1.5922
22214,18.302,1,0.1,0.0001247,1246.1,0.00012454,1241.4,-4.0685e-05,-0.00025405,-4.1933e-05,-9.3781,1.606
22215,18.027,0.90909,0.1,0.00013112,1310.3,0.000131,1306.6,-4.2905e-05,0.001055,-4.3885e-05,-7.3635,1.565
22216,18.119,1,0.1,0.0001289,1288.1,0.00012877,1284.4,-4.2164e-05,0.00046534,-4.3167e-05,-7.5318,1.5787
22217,17.843,0.90909,0.1,0.00013536,1352.7,0.00013527,1349.9,-4.4392e-05,0.0020163,-4.5137e-05,-5.5979,1.5378
22218,17.935,1,0.1,0.00013313,1330.3,0.00013303,1327.5,-4.3651e-05,0.0017058,-4.4404e-05,-5.6556,1.5515
22219,17.659,0.90909,0.1,0.00013962,1395.2,0.00013956,1393.3,-4.5886e-05,0.0040943,-4.6392e-05,-3.7993,1.5107
22220,17.751,1,0.1,0.00013736,1372.7,0.0001373,1370.8,-4.5144e-05,0.0043552,-4.5643e-05,-3.7442,1.5244
22221,17.475,0.90909,0.1,0.00014389,1438,0.00014386,1437,-4.7387e-05,0.010627,-4.765e-05,-1.9674,1.4837
22222,17.567,1,0.1,0.00014162,1415.2,0.00014159,1414.3,-4.6645e-05,0.013199,-4.6886e-05,-1.7973,1.4974
22223,17.291,0.90909,0.1,0.00014819,1480.8,0.00014818,1480.8,-4.888e-05,0.13208,-4.8925e-05,-0.20976,1.4569
22224,17.383,1,0.1,0.00014589,1457.9,0.0001459,1458,-4.8114e-05,0.31909,-4.817e-05,-0.10137,1.4705
22225,17.108,0.90909,0.1,0.00015249,1523.9,0.00015252,1524.8,-5.0166e-05,1.8628,-5.0417e-05,-0.019446,1.4301
22226,17.2,1,0.1,0.00015018,1500.8,0.00015022,1501.9,-4.9369e-05,2.2877,-4.9676e-05,-0.018562,1.4436
22227,16.924,0.90909,0.1,0.00015682,1567.1,0.00015688,1569,-5.143e-05,3.8182,-5.194e-05,-0.012281,1.4034
22228,17.016,1,0.1,0.00015449,1543.8,0.00015456,1546,-5.0615e-05,4.3842,-5.12e-05,-0.012425,1.4169
22229,16.74,0.90909,0.1,0.00016116,1610.4,0.00016125,1613.3,-5.2695e-05,5.8183,-5.347e-05,-0.010366,1.3768
22230,16.832,1,0.1,0.00015881,1587,0.00015892,1590.3,-5.1861e-05,6.5366,-5.2732e-05,-0.010553,1.3903
22231,16.556,0.90909,0.1,0.00016551,1654,0.00016564,1657.9,-5.3961e-05,7.8544,-5.5008e-05,-0.0098436,1.3503
22232,16.648,1,0.1,0.00016315,1630.4,0.00016329,1634.7,-5.3108e-05,8.7396,-5.4272e-05,-0.009927,1.3638
22233,16.372,0.90909,0.1,0.00016988,1697.6,0.00017004,1702.5,-5.5229e-05,9.918,-5.6551e-05,-0.009968,1.324
22234,16.464,1,0.1,0.0001675,1673.8,0.00016768,1679.3,-5.4355e-05,10.988,-5.5819e-05,-0.0099198,1.3373
22235,16.189,0.90909,0.1,0.00017426,1741.4,0.00017446,1747.3,-5.65e-05,11.998,-5.8099e-05,-0.010487,1.2977
22236,16.281,1,0.1,0.00017186,1717.4,0.00017208,1724,-5.5604e-05,13.274,-5.7372e-05,-0.010296,1.311
22237,16.005,0.90909,0.1,0.00017865,1785.2,0.00017888,1792.2,-5.7775e-05,14.078,-5.965e-05,-0.011335,1.2716
22238,16.097,1,0.1,0.00017624,1761.2,0.0001765,1768.9,-5.6854e-05,15.587,-5.893e-05,-0.01096,1.2849
22239,15.821,0.90909,0.1,0.00018304,1829.2,0.00018331,1837.2,-5.9054e-05,16.137,-6.1203e-05,-0.012537,1.2456
22240,15.913,1,0.1,0.00018063,1805,0.00018092,1813.9,-5.8107e-05,17.909,-6.0493e-05,-0.011941,1.2588
22241,15.637,0.90909,0.1,0.00018745,1873.2,0.00018775,1882.2,-6.0339e-05,18.149,-6.2756e-05,-0.014139,1.2197
22242,15.729,1,0.1,0.00018502,1848.9,0.00018536,1859,-5.9364e-05,20.221,-6.2057e-05,-0.013283,1.2329
22243,15.453,0.90909,0.1,0.00019186,1917.2,0.00019219,1927.2,-6.1631e-05,20.08,-6.4306e-05,-0.016241,1.194
22244,15.545,1,0.1,0.00018942,1892.9,0.0001898,1904.1,-6.0626e-05,22.493,-6.3622e-05,-0.015053,1.2071
22245,15.27,0.90909,0.1,0.00019626,1961.2,0.00019662,1972.1,-6.2932e-05,21.889,-6.5848e-05,-0.018977,1.1684
22246,15.362,1,0.1,0.00019383,1936.9,0.00019424,1949.2,-6.1895e-05,24.692,-6.5184e-05,-0.017387,1.1814
22247,15.086,0.90909,0.1,0.00020065,2005.1,0.00020104,2016.8,-6.4244e-05,23.525,-6.7378e-05,-0.022513,1.1429
22248,15.178,1,0.1,0.00019823,1980.9,0.00019867,1994.2,-6.3173e-05,26.774,-6.6739e-05,-0.020408,1.1558
22249,14.902,0.90909,0.1,0.00020502,2048.8,0.00020543,2061.1,-6.5569e-05,24.928,-6.8891e-05,-0.027163,1.1175
22250,14.994,1,0.1,0.00020262,2024.8,0.0002031,2039,-6.4463e-05,28.687,-6.8284e-05,-0.024314,1.1304
22251,14.718,0.90909,0.1,0.00020936,2092.2,0.00020979,2105,-6.6909e-05,26.027,-7.0377e-05,-0.033431,1.0923
22252,14.81,1,0.1,0.000207,2068.6,0.0002075,2083.6,-6.5765e-05,30.369,-6.9811e-05,-0.029495,1.1051
22253,14.534,0.90909,0.1,0.00021365,2135,0.00021409,2148.3,-6.8265e-05,26.739,-7.1829e-05,-0.042081,1.0672
22254,14.626,1,0.1,0.00021134,2112,0.00021187,2127.7,-6.7083e-05,31.747,-7.1313e-05,-0.036482,1.08
22255,14.351,0.90909,0.1,0.00021787,2177.2,0.00021832,2190.5,-6.9637e-05,26.972,-7.3234e-05,-0.054379,1.0423
22256,14.443,1,0.1,0.00021564,2155,0.00021618,2171.1,-6.8419e-05,32.737,-7.2782e-05,-0.046096,1.055
22257,14.167,0.90909,0.1,0.00022199,2218.4,0.00022243,2231.5,-7.1025e-05,26.62,-7.4577e-05,-0.07247,1.0175
22258,14.259,1,0.1,0.00021988,2197.3,0.00022042,2213.7,-6.9773e-05,33.24,-7.4205e-05,-0.059669,1.0301
22259,13.983,0.90909,0.1,0.00022597,2258.1,0.00022639,2270.8,-7.2425e-05,25.57,-7.5842e-05,-0.10022,0.99286
22260,14.075,1,0.1,0.00022402,2238.6,0.00022456,2255,-7.1146e-05,33.151,-7.5569e-05,-0.079323,1.0054
22261,13.799,0.90909,0.1,0.00022976,2296,0.00023015,2307.7,-7.3831e-05,23.701,-7.7005e-05,-0.14529,0.96838
22262,13.891,1,0.1,0.00022803,2278.7,0.00022856,2294.6,-7.2534e-05,32.351,-7.6855e-05,-0.10878,0.98085
22263,13.616,0.90909,0.1,0.00023331,2331.4,0.00023365,2341.7,-7.5232e-05,20.893,-7.8042e-05,-0.22435,0.94405
22264,13.707,1,0.1,0.00023186,2317,0.00023236,2332.1,-7.3934e-05,30.711,-7.8042e-05,-0.155,0.95644
22265,13.432,0.90909,0.1,0.00023651,2363.5,0.00023679,2371.8,-7.6606e-05,17.04,-7.8924e-05,-0.37947,0.91989
22266,13.524,1,0.1,0.00023545,2352.9,0.00023591,2366.7,-7.5334e-05,28.1,-7.9105e-05,-0.23175,0.9322
22267,13.248,0.90909,0.1,0.00023929,2391.2,0.00023948,2396.9,-7.7914e-05,12.125,-7.9627e-05,-0.74569,0.89588
22268,13.34,1,0.1,0.00023872,2385.6,0.00023912,2397.5,-7.6719e-05,24.382,-8.0014e-05,-0.36963,0.90812
22269,13.064,0.90909,0.1,0.0002415,2413.3,0.00024157,2415.6,-7.9046e-05,6.5969,-8.0182e-05,-1.9416,0.87203
22270,13.156,1,0.1,0.00024158,2414.1,0.00024189,2423.5,-7.8062e-05,19.452,-8.0738e-05,-0.64861,0.88419
22271,12.88,0.90909,0.1,0.00024298,2428.1,0.00024291,2426.2,-7.9624e-05,2.8156,-8.0867e-05,-6.524,0.84834
22272,12.972,1,0.1,0.0002439,2437.4,0.00024411,2443.3,-7.9306e-05,13.349,-8.126e-05,-1.338,0.86043
22273,12.697,0.90909,0.1,0.00024354,2433.7,0.0002433,2426.7,-7.9449e-05,1.7007,-8.176e-05,-15.666,0.82482
22274,12.788,1,0.1,0.00024554,2453.7,0.0002456,2455.4,-8.0264e-05,6.986,-8.1681e-05,-3.6585,0.83683
22275,12.513,0.90909,0.1,0.00024295,2427.8,0.00024249,2414.5,-7.8671e-05,1.4008,-8.2569e-05,-27.888,0.80146
22276,12.605,1,0.1,0.00024633,2461.6,0.00024619,2457.7,-8.046e-05,3.3467,-8.2375e-05,-11.046,0.8134
22277,12.329,0.90909,0.1,0.00024095,2407.8,0.00024021,2386.6,-7.7251e-05,1.3395,-8.318e-05,-43.211,0.77827
22278,12.421,1,0.1,0.00024606,2458.9,0.00024568,2447.9,-7.9816e-05,2.2494,-8.3315e-05,-24.041,0.79013
22279,12.145,0.90909,0.1,0.00023726,2370.9,0.00023615,2339.7,-7.506e-05,1.388,-8.3568e-05,-62.534,0.75523
22280,12.237,1,0.1,0.00024453,2443.6,0.00024381,2423.2,-7.8442e-05,1.9049,-8.4293e-05,-42.061,0.76703
22281,11.961,0.90909,0.1,0.00023162,2314.6,0.00023003,2270.3,-7.1928e-05,1.5037,-8.3789e-05,-87.617,0.73234
22282,12.053,1,0.1,0.00024155,2413.9,0.00024038,2380.7,-7.6235e-05,1.8113,-8.5347e-05,-66.651,0.74409
22283,11.778,0.90909,0.1,0.00022392,2237.7,0.00022163,2175.2,-6.7646e-05,1.6796,-8.4055e-05,-121.61,0.70961
22284,11.869,1,0.1,0.00023703,2368.7,0.00023517,2317.3,-7.3001e-05,1.8308,-8.6708e-05,-101.16,0.7213
22285,11.594,0.90909,0.1,0.00021436,2142.1,0.00021098,2052.8,-6.199e-05,1.8568,-8.4867e-05,-170.04,0.68701
22286,11.686,1,0.1,0.00023107,2309.1,0.00022814,2230.6,-6.8468e-05,1.9517,-8.8865e-05,-151.3,0.69866
22287,11.41,0.90909,0.1,0.00020386,2037.2,0.00019868,1906.2,-5.4742e-05,2.1583,-8.7236e-05,-241.99,0.66454
22288,11.502,1,0.1,0.00022422,2240.7,0.00021953,2119.8,-6.2331e-05,2.0092,-9.2708e-05,-226.23,0.67615
22289,11.226,0.90909,0.1,0.00019484,1947,0.00018641,1746.9,-4.5847e-05,1.7566,-9.3089e-05,-353.2,0.64216
22290,11.318,1,0.1,0.00021785,2177,0.00021011,1988.7,-5.4228e-05,2.5178,-9.9668e-05,-338.9,0.65377
22291,11.042,0.90909,0.1,0.0001958,1956.7,0.00018054,1623.8,-3.5085e-05,3.7517,-0.00010879,-550.02,0.61986
22292,11.134,1,0.1,0.00021503,2148.8,0.00020179,1848.8,-4.4148e-05,0.94261,-0.00011203,-509.09,0.63148
22293,10.95,1,0.1,0.00022979,2296.3,0.0002049,1782.1,-3.1387e-05,6.7362,-0.00014025,-811.2,0.60926
22294,10.859,0.90909,0.1,0.00016482,1647.1,0.00014873,1306.4,-2.5377e-05,-1.7395,-9.7444e-05,-543.22,0.5976
22295,23.724,1.0909,0.1,1.5259e-05,152.48,9.6289e-06,58.298,1.8488e-06,-0.15889,-1.3404e-05,-114.76,2.4369
22296,23.816,1.1818,0.1,1.4907e-05,148.97,8.1099e-06,39.712,2.8081e-06,-0.1242,-1.3828e-05,-125.12,2.4513
22297,23.908,1.0909,0.1,1.3665e-05,136.55,6.3555e-06,22.421,3.3172e-06,-0.40749,-1.3146e-05,-124.11,2.4655
22298,23.541,1.0909,0.1,1.7419e-05,174.07,1.3057e-05,95.691,2.969e-07,-0.18358,-1.3685e-05,-105.24,2.4083
22299,23.632,1.1818,0.1,1.6762e-05,167.5,1.1531e-05,77.172,1.2221e-06,-0.28453,-1.4051e-05,-115.04,2.4227
22300,23.357,1.0909,0.1,2.0007e-05,199.93,1.6524e-05,133.18,-1.2143e-06,-0.095742,-1.4072e-05,-96.704,2.3797
22301,23.449,1.1818,0.1,1.9123e-05,191.09,1.4983e-05,114.77,-3.0689e-07,-0.11106,-1.4376e-05,-105.82,2.3941
22302,23.173,1.0909,0.1,2.2895e-05,228.8,2.0038e-05,170.8,-2.7046e-06,-0.076158,-1.4557e-05,-89.131,2.3511
22303,23.265,1.1818,0.1,2.1835e-05,218.2,1.8475e-05,152.4,-1.8208e-06,-0.096904,-1.4791e-05,-97.552,2.3655
22304,22.989,1.0909,0.1,2.6001e-05,259.83,2.36e-05,208.62,-4.1738e-06,-0.055912,-1.5133e-05,-82.402,2.3225
22305,23.081,1.1818,0.1,2.4801e-05,247.84,2.2007e-05,190.16,-3.3101e-06,-0.067989,-1.5296e-05,-90.125,2.3369
22306,22.805,1.0909,0.1,2.9269e-05,292.49,2.7211e-05,246.69,-5.6275e-06,-0.044251,-1.5791e-05,-76.411,2.294
22307,22.897,1.1818,0.1,2.7956e-05,279.37,2.5584e-05,228.11,-4.7819e-06,-0.0545,-1.5883e-05,-83.466,2.3083
22308,22.622,1.0909,0.1,3.2662e-05,326.39,3.0867e-05,285,-7.069e-06,-0.035332,-1.652e-05,-71.046,2.2654
22309,22.713,1.1818,0.1,3.1254e-05,312.32,2.9206e-05,266.28,-6.239e-06,-0.043525,-1.6545e-05,-77.478,2.2798
22310,22.438,1.0909,0.1,3.615e-05,361.25,3.4566e-05,323.56,-8.5012e-06,-0.028852,-1.731e-05,-66.211,2.2369
22311,22.53,1.1818,0.1,3.4663e-05,346.39,3.2869e-05,304.67,-7.6848e-06,-0.035835,-1.7272e-05,-72.068,2.2513
22312,22.254,1.0909,0.1,3.9716e-05,396.89,3.8301e-05,362.34,-9.9264e-06,-0.023876,-1.8151e-05,-61.82,2.2084
22313,22.346,1.1818,0.1,3.816e-05,381.34,3.6571e-05,343.29,-9.1218e-06,-0.029897,-1.8055e-05,-67.153,2.2227
22314,22.07,1.0909,0.1,4.3345e-05,433.15,4.2071e-05,401.34,-1.1346e-05,-0.020024,-1.9037e-05,-57.805,2.18
22315,22.162,1.1818,0.1,4.1729e-05,417.01,4.0308e-05,382.12,-1.0552e-05,-0.025312,-1.8888e-05,-62.661,2.1943
22316,21.886,1.0909,0.1,4.7026e-05,469.94,4.5871e-05,440.53,-1.2762e-05,-0.016983,-1.9962e-05,-54.109,2.1515
22317,21.978,1.1818,0.1,4.5358e-05,453.27,4.4078e-05,421.15,-1.1977e-05,-0.021685,-1.9764e-05,-58.532,2.1658
22318,21.703,1.0909,0.1,5.0752e-05,507.17,4.9699e-05,479.92,-1.4176e-05,-0.014545,-2.092e-05,-50.685,2.1231
22319,21.794,1.1818,0.1,4.9038e-05,490.04,4.7877e-05,460.38,-1.3398e-05,-0.018771,-2.0678e-05,-54.715,2.1374
22320,21.519,1.0909,0.1,5.4518e-05,544.8,5.3554e-05,519.49,-1.5588e-05,-0.012566,-2.1907e-05,-47.495,2.0947
22321,21.611,1.1818,0.1,5.2762e-05,527.26,5.1705e-05,499.8,-1.4817e-05,-0.01639,-2.1625e-05,-51.169,2.109
22322,21.335,1.0909,0.1,5.8318e-05,582.78,5.7433e-05,559.25,-1.6999e-05,-0.010944,-2.2921e-05,-44.508,2.0664
22323,21.427,1.1818,0.1,5.6525e-05,564.86,5.5558e-05,539.4,-1.6234e-05,-0.014428,-2.2601e-05,-47.857,2.0806
22324,21.151,1.0909,0.1,6.2151e-05,621.08,6.1336e-05,599.17,-1.841e-05,-0.0096018,-2.3959e-05,-41.698,2.0381
22325,21.243,1.1818,0.1,6.0323e-05,602.81,5.9437e-05,579.18,-1.765e-05,-0.012793,-2.3604e-05,-44.751,2.0523
22326,20.967,1.0909,0.1,6.6012e-05,659.67,6.5261e-05,639.28,-1.9822e-05,-0.0084876,-2.5017e-05,-39.041,2.0098
22327,21.059,1.1818,0.1,6.4153e-05,641.09,6.3339e-05,619.14,-1.9066e-05,-0.01142,-2.4631e-05,-41.823,2.024
22328,20.784,1.0909,0.1,6.9902e-05,698.53,6.9209e-05,679.55,-2.1236e-05,-0.0075557,-2.6095e-05,-36.519,1.9816
22329,20.875,1.1818,0.1,6.8012e-05,679.66,6.7264e-05,659.28,-2.0483e-05,-0.010265,-2.5679e-05,-39.053,1.9958
22330,20.6,1.0909,0.1,7.3817e-05,737.66,7.3177e-05,720.01,-2.2651e-05,-0.0067574,-2.719e-05,-34.113,1.9534
22331,20.692,1.1818,0.1,7.19e-05,718.5,7.1211e-05,699.6,-2.1901e-05,-0.0092764,-2.6747e-05,-36.42,1.9676
22332,20.416,1.0909,0.1,7.7756e-05,777.03,7.7166e-05,760.63,-2.4068e-05,-0.0060648,-2.8301e-05,-31.81,1.9253
22333,20.508,1.1818,0.1,7.5814e-05,757.62,7.518e-05,740.09,-2.3321e-05,-0.0084078,-2.7833e-05,-33.908,1.9394
22334,20.232,1.0909,0.1,8.172e-05,816.64,8.1176e-05,801.43,-2.5489e-05,-0.0054649,-2.9427e-05,-29.595,1.8972
22335,20.324,1.1818,0.1,7.9753e-05,796.98,7.917e-05,780.76,-2.4743e-05,-0.007648,-2.8935e-05,-31.499,1.9113
22336,20.048,1.0909,0.1,8.5706e-05,856.47,8.5206e-05,842.41,-2.6913e-05,-0.0049416,-3.0566e-05,-27.455,1.8692
22337,20.14,1.1818,0.1,8.3716e-05,836.58,8.3181e-05,821.61,-2.6169e-05,-0.00698,-3.0052e-05,-29.181,1.8833
22338,19.865,1.0909,0.1,8.9715e-05,896.53,8.9256e-05,883.57,-2.834e-05,-0.0044881,-3.1717e-05,-25.378,1.8412
22339,19.956,1.1818,0.1,8.7702e-05,876.42,8.7213e-05,862.63,-2.7598e-05,-0.0063858,-3.1182e-05,-26.939,1.8553
22340,19.681,1.0909,0.1,9.3745e-05,936.8,9.3325e-05,924.9,-2.9772e-05,-0.0040883,-3.288e-05,-23.353,1.8133
22341,19.773,1.1818,0.1,9.1711e-05,916.48,9.1264e-05,903.84,-2.903e-05,-0.0058659,-3.2325e-05,-24.76,1.8273
22342,19.497,1.0909,0.1,9.7796e-05,977.28,9.7415e-05,966.42,-3.1209e-05,-0.0037128,-3.4052e-05,-21.37,1.7854
22343,19.589,1.1818,0.1,9.5741e-05,956.75,9.5336e-05,945.23,-3.0467e-05,-0.0053873,-3.3479e-05,-22.633,1.7995
22344,19.313,1.0909,0.1,0.00010187,1018,0.00010152,1008.1,-3.265e-05,-0.0033508,-3.5234e-05,-19.418,1.7577
22345,19.405,1.1818,0.1,9.9793e-05,997.24,9.9428e-05,986.81,-3.1909e-05,-0.0049207,-3.4643e-05,-20.547,1.7717
22346,19.129,1.0909,0.1,0.00010596,1058.9,0.00010565,1050,-3.4097e-05,-0.0030003,-3.6424e-05,-17.487,1.7299
22347,19.221,1.1818,0.1,0.00010387,1037.9,0.00010354,1028.6,-3.3356e-05,-0.0044702,-3.5816e-05,-18.491,1.7439
22348,18.946,1.0909,0.1,0.00011007,1099.9,0.0001098,1092.1,-3.555e-05,-0.002646,-3.7621e-05,-15.569,1.7023
22349,19.038,1.1818,0.1,0.00010796,1078.8,0.00010767,1070.5,-3.4809e-05,-0.0040236,-3.6998e-05,-16.453,1.7162
22350,18.762,1.0909,0.1,0.0001142,1141.2,0.00011396,1134.3,-3.7008e-05,-0.0022747,-3.8825e-05,-13.654,1.6747
22351,18.854,1.1818,0.1,0.00011207,1119.9,0.00011182,1112.6,-3.6267e-05,-0.003556,-3.8186e-05,-14.424,1.6886
22352,18.578,1.0909,0.1,0.00011835,1182.7,0.00011815,1176.8,-3.8473e-05,-0.0018481,-4.0035e-05,-11.733,1.6472
22353,18.67,1.1818,0.1,0.0001162,1161.2,0.00011599,1155,-3.7731e-05,-0.0030528,-3.9381e-05,-12.394,1.6611
22354,18.394,1.0909,0.1,0.00012252,1224.3,0.00012235,1219.4,-3.9945e-05,-0.0012827,-4.1249e-05,-9.7976,1.6198
22355,18.486,1.1818,0.1,0.00012035,1202.7,0.00012017,1197.5,-3.9203e-05,-0.0024276,-4.058e-05,-10.353,1.6337
22356,18.21,1.0909,0.1,0.0001267,1266.2,0.00012657,1262.2,-4.1424e-05,-0.00045535,-4.2467e-05,-7.8402,1.5925
22357,18.302,1.1818,0.1,0.00012452,1244.4,0.00012438,1240.2,-4.0681e-05,-0.0015411,-4.1784e-05,-8.2917,1.6063
22358,18.027,1.0909,0.1,0.00013091,1308.2,0.00013081,1305.3,-4.291e-05,0.00092315,-4.3689e-05,-5.8532,1.5653
22359,18.119,1.1818,0.1,0.00012871,1286.2,0.0001286,1283.1,-4.2166e-05,-0.00012628,-4.2991e-05,-6.2021,1.579
22360,17.843,1.0909,0.1,0.00013513,1350.4,0.00013507,1348.5,-4.4403e-05,0.0038113,-4.4913e-05,-3.8301,1.5381
22361,17.935,1.1818,0.1,0.00013291,1328.2,0.00013284,1326.2,-4.3659e-05,0.002721,-4.4202e-05,-4.076,1.5518
22362,17.659,1.0909,0.1,0.00013937,1392.7,0.00013934,1391.9,-4.5903e-05,0.013724,-4.614e-05,-1.77,1.511
22363,17.751,1.1818,0.1,0.00013713,1370.4,0.0001371,1369.4,-4.5158e-05,0.012119,-4.5414e-05,-1.9106,1.5247
22364,17.475,1.0909,0.1,0.00014363,1435.3,0.00014363,1435.4,-4.7355e-05,0.4426,-4.7425e-05,-0.078828,1.4841
22365,17.567,1.1818,0.1,0.00014137,1412.7,0.00014138,1412.9,-4.6614e-05,0.4158,-4.668e-05,-0.086005,1.4977
22366,17.291,1.0909,0.1,0.0001479,1477.9,0.00014794,1479.2,-4.8591e-05,2.5572,-4.8934e-05,-0.018288,1.4572
22367,17.383,1.1818,0.1,0.00014563,1455.3,0.00014567,1456.6,-4.7835e-05,2.637,-4.8189e-05,-0.018722,1.4708
22368,17.108,1.0909,0.1,0.00015219,1520.8,0.00015227,1523.2,-4.982e-05,4.7855,-5.0459e-05,-0.012596,1.4304
22369,17.2,1.1818,0.1,0.0001499,1497.9,0.00014998,1500.4,-4.9048e-05,4.986,-4.9714e-05,-0.012892,1.444
22370,16.924,1.0909,0.1,0.00015649,1563.8,0.00015661,1567.3,-5.1049e-05,7.0787,-5.1992e-05,-0.010738,1.4037
22371,17.016,1.1818,0.1,0.00015418,1540.8,0.00015431,1544.4,-5.026e-05,7.4095,-5.1248e-05,-0.010936,1.4172
22372,16.74,1.0909,0.1,0.00016081,1607,0.00016097,1611.7,-5.2277e-05,9.4347,-5.3534e-05,-0.010043,1.3772
22373,16.832,1.1818,0.1,0.00015848,1583.7,0.00015865,1588.7,-5.147e-05,9.9082,-5.2791e-05,-0.010131,1.3906
22374,16.556,1.0909,0.1,0.00016514,1650.3,0.00016534,1656.2,-5.3505e-05,11.851,-5.5083e-05,-0.0099235,1.3507
22375,16.648,1.1818,0.1,0.0001628,1626.9,0.00016301,1633.1,-5.2679e-05,12.483,-5.4342e-05,-0.0098759,1.3641
22376,16.372,1.0909,0.1,0.00016949,1693.7,0.00016973,1700.8,-5.4732e-05,14.323,-5.664e-05,-0.010182,1.3244
22377,16.464,1.1818,0.1,0.00016713,1670.2,0.00016738,1677.7,-5.3886e-05,15.132,-5.5902e-05,-0.0099974,1.3377
22378,16.189,1.0909,0.1,0.00017385,1737.3,0.00017413,1745.6,-5.596e-05,16.843,-5.8203e-05,-0.010724,1.2981
22379,16.281,1.1818,0.1,0.00017147,1713.6,0.00017177,1722.4,-5.5092e-05,17.852,-5.747e-05,-0.010395,1.3114
22380,16.005,1.0909,0.1,0.00017822,1781,0.00017854,1790.6,-5.7189e-05,19.398,-5.9773e-05,-0.011543,1.272
22381,16.097,1.1818,0.1,0.00017583,1757.1,0.00017617,1767.3,-5.6297e-05,20.636,-5.9045e-05,-0.011025,1.2852
22382,15.821,1.0909,0.1,0.00018261,1824.8,0.00018297,1835.7,-5.842e-05,21.973,-6.1346e-05,-0.012689,1.246
22383,15.913,1.1818,0.1,0.0001802,1800.8,0.00018059,1812.4,-5.7501e-05,23.472,-6.0627e-05,-0.011945,1.2592
22384,15.637,1.0909,0.1,0.000187,1868.7,0.00018741,1880.9,-5.9654e-05,24.545,-6.2923e-05,-0.014225,1.2201
22385,15.729,1.1818,0.1,0.00018458,1844.6,0.00018502,1857.6,-5.8706e-05,26.345,-6.2214e-05,-0.013205,1.2333
22386,15.453,1.0909,0.1,0.0001914,1912.7,0.00019185,1926.1,-6.0893e-05,27.085,-6.45e-05,-0.016256,1.1944
22387,15.545,1.1818,0.1,0.00018898,1888.5,0.00018946,1902.9,-5.9913e-05,29.234,-6.3806e-05,-0.014883,1.2074
22388,15.27,1.0909,0.1,0.0001958,1956.7,0.00019629,1971.3,-6.2139e-05,29.557,-6.6075e-05,-0.018912,1.1688
22389,15.362,1.1818,0.1,0.00019338,1932.4,0.0001939,1948.3,-6.1124e-05,32.109,-6.54e-05,-0.017112,1.1818
22390,15.086,1.0909,0.1,0.00020021,2000.7,0.00020073,2016.4,-6.3394e-05,31.916,-6.7645e-05,-0.022349,1.1433
22391,15.178,1.1818,0.1,0.00019778,1976.5,0.00019835,1993.7,-6.2341e-05,34.935,-6.6993e-05,-0.020008,1.1562
22392,14.902,1.0909,0.1,0.0002046,2044.6,0.00020516,2061.5,-6.4661e-05,34.108,-6.9204e-05,-0.026848,1.1179
22393,14.994,1.1818,0.1,0.00020219,2020.5,0.0002028,2039.1,-6.3566e-05,37.668,-6.8582e-05,-0.02375,1.1308
22394,14.718,1.0909,0.1,0.00020899,2088.4,0.00020958,2106.2,-6.5942e-05,36.069,-7.0747e-05,-0.032841,1.0927
22395,14.81,1.1818,0.1,0.0002066,2064.5,0.00020725,2084.4,-6.4802e-05,40.255,-7.0163e-05,-0.028686,1.1055
22396,14.534,1.0909,0.1,0.00021334,2131.9,0.00021396,2150.5,-6.724e-05,37.723,-7.2267e-05,-0.040941,1.0677
22397,14.626,1.1818,0.1,0.00021099,2108.5,0.00021168,2129.4,-6.6053e-05,42.63,-7.1731e-05,-0.035263,1.0804
22398,14.351,1.0909,0.1,0.00021766,2175.1,0.00021829,2194.3,-6.8558e-05,38.983,-7.3753e-05,-0.052093,1.0427
22399,14.443,1.1818,0.1,0.00021537,2152.2,0.00021609,2174.2,-6.7322e-05,44.719,-7.3279e-05,-0.044133,1.0554
22400,14.167,1.0909,0.1,0.00022191,2217.6,0.00022256,2237.2,-6.9897e-05,39.75,-7.5197e-05,-0.067742,1.018
22401,14.259,1.1818,0.1,0.00021972,2195.6,0.00022047,2218.5,-6.8611e-05,46.433,-7.4799e-05,-0.056289,1.0305
22402,13.983,1.0909,0.1,0.00022608,2259.2,0.00022673,2278.9,-7.1258e-05,39.912,-7.6582e-05,-0.090198,0.99333
22403,14.075,1.1818,0.1,0.00022401,2238.6,0.00022478,2262,-6.9924e-05,47.674,-7.6279e-05,-0.07317,1.0058
22404,13.799,1.0909,0.1,0.00023012,2299.7,0.00023077,2319,-7.2639e-05,39.347,-7.7892e-05,-0.12342,0.96886
22405,13.891,1.1818,0.1,0.00022824,2280.8,0.00022902,2304.5,-7.1263e-05,48.327,-7.7707e-05,-0.097055,0.9813
22406,13.616,1.0909,0.1,0.000234,2338.4,0.00023462,2357.1,-7.4036e-05,37.919,-7.9106e-05,-0.1744,0.94454
22407,13.707,1.1818,0.1,0.00023236,2322,0.00023314,2345.7,-7.2627e-05,48.264,-7.9068e-05,-0.13176,0.9569
22408,13.432,1.0909,0.1,0.00023766,2374.9,0.00023824,2392.3,-7.5443e-05,35.478,-8.0199e-05,-0.25629,0.92038
22409,13.524,1.1818,0.1,0.00023634,2361.8,0.00023711,2385,-7.4016e-05,47.337,-8.0341e-05,-0.18366,0.93266
22410,13.248,1.0909,0.1,0.00024101,2408.5,0.00024153,2424,-7.6847e-05,31.862,-8.1141e-05,-0.3962,0.89638
22411,13.34,1.1818,0.1,0.00024013,2399.7,0.00024087,2421.9,-7.5429e-05,45.375,-8.1503e-05,-0.26412,0.90859
22412,13.064,1.0909,0.1,0.00024398,2438.1,0.00024442,2451.1,-7.823e-05,26.893,-8.1897e-05,-0.65786,0.87254
22413,13.156,1.1818,0.1,0.00024367,2435,0.00024435,2455.6,-7.6859e-05,42.167,-8.2524e-05,-0.39505,0.88467
22414,12.88,1.0909,0.1,0.00024645,2462.8,0.00024677,2472.3,-7.9558e-05,20.431,-8.244e-05,-1.2249,0.84887
22415,12.972,1.1818,0.1,0.00024688,2467.1,0.00024749,2485.3,-7.8304e-05,37.447,-8.3371e-05,-0.62344,0.86092
22416,12.697,1.0909,0.1,0.00024829,2481.2,0.00024845,2486.1,-8.0733e-05,12.708,-8.2798e-05,-2.8122,0.82536
22417,12.788,1.1818,0.1,0.00024968,2495.1,0.00025017,2509.8,-7.9756e-05,30.87,-8.4007e-05,-1.0689,0.83734
22418,12.513,1.0909,0.1,0.00024935,2491.8,0.00024931,2490.5,-8.1357e-05,6.0557,-8.3296e-05,-8.5128,0.80202
22419,12.605,1.1818,0.1,0.00025196,2517.9,0.0002523,2527.8,-8.1192e-05,22.112,-8.4418e-05,-2.1291,0.81392
22420,12.329,1.0909,0.1,0.00024949,2493.2,0.00024915,2483.5,-8.0936e-05,3.3512,-8.437e-05,-22.457,0.77885
22421,12.421,1.1818,0.1,0.00025365,2534.7,0.00025375,2537.8,-8.2426e-05,11.892,-8.4769e-05,-5.7109,0.79068
22422,12.145,1.0909,0.1,0.00024856,2483.9,0.00024781,2462.5,-7.9594e-05,2.5,-8.5869e-05,-44.651,0.75584
22423,12.237,1.1818,0.1,0.00025467,2544.9,0.00025443,2538,-8.2662e-05,5.2699,-8.5875e-05,-18.864,0.7676
22424,11.961,1.0909,0.1,0.0002465,2463.3,0.00024512,2424.8,-7.7302e-05,2.1883,-8.7879e-05,-77.281,0.73299
22425,12.053,1.1818,0.1,0.00025501,2548.3,0.00025425,2526.6,-8.1596e-05,3.2376,-8.8139e-05,-45.928,0.74469
22426,11.778,1.0909,0.1,0.00024336,2431.9,0.00024101,2367.6,-7.3822e-05,2.1106,-9.0835e-05,-125.72,0.7103
22427,11.869,1.1818,0.1,0.0002548,2546.3,0.0002532,2501.7,-7.9407e-05,2.569,-9.163e-05,-89.267,0.72194
22428,11.594,1.0909,0.1,0.00023951,2393.4,0.00023553,2288.8,-6.8809e-05,2.1089,-9.5539e-05,-198.73,0.68776
22429,11.686,1.1818,0.1,0.0002544,2542.3,0.0002514,2461.2,-7.5856e-05,2.3734,-9.7062e-05,-156.96,0.69936
22430,11.41,1.0909,0.1,0.00023582,2356.5,0.00022906,2187.9,-6.1814e-05,2.3928,-0.00010323,-308.78,0.66536
22431,11.502,1.1818,0.1,0.00025457,2544,0.00024911,2403.5,-7.047e-05,2.3319,-0.00010571,-262.47,0.67692
22432,11.226,1.0909,0.1,0.00023423,2340.7,0.00022257,2068.7,-5.252e-05,1.7738,-0.0001157,-472.93,0.64307
22433,11.318,1.1818,0.1,0.00025657,2564,0.00024673,2326.7,-6.2554e-05,2.8771,-0.00011934,-423.78,0.65462
22434,11.042,1.0909,0.1,0.00024342,2432.5,0.00022217,1977.1,-4.0393e-05,4.359,-0.00013956,-740.76,0.62087
22435,11.134,1.1818,0.1,0.00026293,2627.5,0.00024521,2231.2,-5.1612e-05,0.98585,-0.00014029,-665.32,0.63243
22436,10.95,1.1818,0.1,0.00028862,2884.2,0.00025503,2197.9,-3.6547e-05,7.0509,-0.00017986,-1069.8,0.61032
22437,10.859,1.0909,0.1,0.00020718,2070.4,0.0001847,1603.3,-2.8773e-05,-0.62374,-0.00012636,-733.89,0.59871
22438,23.724,1.2727,0.1,1.6286e-05,162.74,1.0005e-05,58.532,2.1911e-06,-0.17715,-1.4478e-05,-125.42,2.437
22439,23.816,1.3636,0.1,1.5884e-05,158.73,8.4441e-06,39.741,3.1354e-06,-0.1462,-1.483e-05,-135.13,2.4514
22440,23.908,1.2727,0.1,1.4742e-05,147.32,6.7159e-06,22.435,3.6748e-06,-0.4155,-1.4234e-05,-134.97,2.4656
22441,23.541,1.2727,0.1,1.8389e-05,183.76,1.3458e-05,96.262,6.2043e-07,-0.19632,-1.4745e-05,-115.65,2.4084
22442,23.632,1.3636,0.1,1.7701e-05,176.89,1.1894e-05,77.535,1.5353e-06,-0.29725,-1.5052e-05,-124.93,2.4228
22443,23.357,1.2727,0.1,2.0905e-05,208.91,1.6937e-05,134.01,-9.1267e-07,-0.10621,-1.5099e-05,-106.69,2.3798
22444,23.449,1.3636,0.1,2.0004e-05,199.9,1.5365e-05,115.41,-1.2162e-08,-0.1205,-1.5356e-05,-115.41,2.3942
22445,23.173,1.2727,0.1,2.3716e-05,237,2.0449e-05,171.79,-2.426e-06,-0.085661,-1.5535e-05,-98.581,2.3512
22446,23.265,1.3636,0.1,2.265e-05,226.35,1.8863e-05,153.24,-1.5466e-06,-0.10536,-1.5737e-05,-106.73,2.3656
22447,22.989,1.2727,0.1,2.6744e-05,267.25,2.3997e-05,209.68,-3.9179e-06,-0.06469,-1.6051e-05,-91.231,2.3227
22448,23.081,1.3636,0.1,2.5547e-05,255.29,2.239e-05,191.12,-3.0567e-06,-0.075697,-1.6194e-05,-98.786,2.337
22449,22.805,1.2727,0.1,2.9936e-05,299.15,2.7586e-05,247.74,-5.3932e-06,-0.052469,-1.6643e-05,-84.58,2.2941
22450,22.897,1.3636,0.1,2.8631e-05,286.11,2.5953e-05,229.11,-4.5488e-06,-0.06171,-1.6726e-05,-91.554,2.3084
22451,22.622,1.2727,0.1,3.3255e-05,332.32,3.1214e-05,285.99,-6.8547e-06,-0.043051,-1.7303e-05,-78.549,2.2656
22452,22.713,1.3636,0.1,3.186e-05,318.38,2.9553e-05,267.27,-6.0252e-06,-0.050316,-1.7327e-05,-84.964,2.2799
22453,22.438,1.2727,0.1,3.6675e-05,366.5,3.4882e-05,324.45,-8.3053e-06,-0.036109,-1.8024e-05,-73.062,2.2371
22454,22.53,1.3636,0.1,3.5204e-05,351.8,3.319e-05,305.6,-7.489e-06,-0.042253,-1.7991e-05,-78.949,2.2514
22455,22.254,1.2727,0.1,4.0178e-05,401.5,3.8585e-05,363.12,-9.7472e-06,-0.030703,-1.88e-05,-68.047,2.2086
22456,22.346,1.3636,0.1,3.8641e-05,386.14,3.6863e-05,344.13,-8.9425e-06,-0.035969,-1.8712e-05,-73.443,2.2229
22457,22.07,1.2727,0.1,4.3749e-05,437.19,4.2323e-05,401.99,-1.1182e-05,-0.026444,-1.9622e-05,-63.441,2.1801
22458,22.162,1.3636,0.1,4.2153e-05,421.24,4.0571e-05,382.85,-1.0388e-05,-0.031055,-1.9485e-05,-68.383,2.1944
22459,21.886,1.2727,0.1,4.7377e-05,473.44,4.6091e-05,441.06,-1.2613e-05,-0.023021,-2.0487e-05,-59.192,2.1517
22460,21.978,1.3636,0.1,4.573e-05,456.98,4.4311e-05,421.77,-1.1827e-05,-0.027113,-2.0303e-05,-63.716,2.1659
22461,21.703,1.2727,0.1,5.1055e-05,510.2,4.989e-05,480.31,-1.4039e-05,-0.020225,-2.139e-05,-55.252,2.1232
22462,21.794,1.3636,0.1,4.9361e-05,493.27,4.8082e-05,460.88,-1.3261e-05,-0.023905,-2.1162e-05,-59.393,2.1375
22463,21.519,1.2727,0.1,5.4776e-05,547.39,5.3716e-05,519.76,-1.5462e-05,-0.01791,-2.2325e-05,-51.583,2.0949
22464,21.611,1.3636,0.1,5.3041e-05,530.04,5.1881e-05,500.17,-1.4691e-05,-0.021244,-2.2057e-05,-55.372,2.1091
22465,21.335,1.2727,0.1,5.8536e-05,584.96,5.7568e-05,559.39,-1.6884e-05,-0.015977,-2.329e-05,-48.15,2.0665
22466,21.427,1.3636,0.1,5.6763e-05,567.24,5.5708e-05,539.66,-1.6118e-05,-0.019018,-2.2986e-05,-51.617,2.0808
22467,21.151,1.2727,0.1,6.2332e-05,622.89,6.1446e-05,599.2,-1.8305e-05,-0.014346,-2.4283e-05,-44.925,2.0382
22468,21.243,1.3636,0.1,6.0523e-05,604.82,5.9561e-05,579.32,-1.7544e-05,-0.017137,-2.3943e-05,-48.098,2.0524
22469,20.967,1.2727,0.1,6.616e-05,661.14,6.5347e-05,639.2,-1.9726e-05,-0.012962,-2.5299e-05,-41.883,2.01
22470,21.059,1.3636,0.1,6.4319e-05,642.75,6.344e-05,619.17,-1.8969e-05,-0.015534,-2.4928e-05,-44.785,2.0242
22471,20.784,1.2727,0.1,7.0017e-05,699.69,6.9272e-05,679.37,-2.1148e-05,-0.011778,-2.6337e-05,-39.001,1.9817
22472,20.875,1.3636,0.1,6.8147e-05,681,6.7342e-05,659.21,-2.0395e-05,-0.014162,-2.5937e-05,-41.655,1.9959
22473,20.6,1.2727,0.1,7.3904e-05,738.53,7.322e-05,719.72,-2.2571e-05,-0.010743,-2.7395e-05,-36.259,1.9536
22474,20.692,1.3636,0.1,7.2005e-05,719.55,7.1269e-05,699.42,-2.1821e-05,-0.01297,-2.6968e-05,-38.686,1.9677
22475,20.416,1.2727,0.1,7.7816e-05,777.63,7.7189e-05,760.26,-2.3996e-05,-0.009829,-2.8472e-05,-33.64,1.9254
22476,20.508,1.3636,0.1,7.5891e-05,758.39,7.5218e-05,739.82,-2.3248e-05,-0.011911,-2.8019e-05,-35.858,1.9396
22477,20.232,1.2727,0.1,8.1755e-05,816.98,8.1181e-05,800.97,-2.5423e-05,-0.0090214,-2.9565e-05,-31.127,1.8974
22478,20.324,1.3636,0.1,7.9805e-05,797.5,7.9189e-05,780.4,-2.4677e-05,-0.010971,-2.9088e-05,-33.152,1.9115
22479,20.048,1.2727,0.1,8.5718e-05,856.59,8.5193e-05,841.87,-2.6854e-05,-0.0083017,-3.0673e-05,-28.705,1.8694
22480,20.14,1.3636,0.1,8.3744e-05,836.87,8.3183e-05,821.17,-2.6109e-05,-0.010133,-3.0174e-05,-30.553,1.8835
22481,19.865,1.2727,0.1,8.9704e-05,896.42,8.9227e-05,882.95,-2.8288e-05,-0.0076593,-3.1795e-05,-26.36,1.8414
22482,19.956,1.3636,0.1,8.7708e-05,876.48,8.7198e-05,862.12,-2.7544e-05,-0.009378,-3.1276e-05,-28.044,1.8555
22483,19.681,1.2727,0.1,9.3713e-05,936.49,9.328e-05,924.21,-2.9726e-05,-0.0070785,-3.2929e-05,-24.079,1.8135
22484,19.773,1.3636,0.1,9.1696e-05,916.33,9.1234e-05,903.25,-2.8983e-05,-0.0087026,-3.239e-05,-25.611,1.8275
22485,19.497,1.2727,0.1,9.7744e-05,976.77,9.7354e-05,965.66,-3.1168e-05,-0.0065272,-3.4075e-05,-21.848,1.7857
22486,19.589,1.3636,0.1,9.5707e-05,956.41,9.529e-05,944.57,-3.0426e-05,-0.0080756,-3.3518e-05,-23.24,1.7997
22487,19.313,1.2727,0.1,0.0001018,1017.3,0.00010145,1007.3,-3.2615e-05,-0.0059912,-3.523e-05,-19.656,1.7579
22488,19.405,1.3636,0.1,9.974e-05,996.71,9.9367e-05,986.08,-3.1873e-05,-0.0074637,-3.4656e-05,-20.917,1.7719
22489,19.129,1.2727,0.1,0.00010587,1058,0.00010556,1049.1,-3.4068e-05,-0.0054656,-3.6395e-05,-17.491,1.7302
22490,19.221,1.3636,0.1,0.00010379,1037.2,0.00010346,1027.8,-3.3326e-05,-0.0068699,-3.5804e-05,-18.63,1.7441
22491,18.946,1.2727,0.1,0.00010996,1098.9,0.00010969,1091.1,-3.5526e-05,-0.0049302,-3.7567e-05,-15.341,1.7026
22492,19.038,1.3636,0.1,0.00010787,1077.9,0.00010758,1069.7,-3.4783e-05,-0.0062762,-3.6961e-05,-16.366,1.7165
22493,18.762,1.2727,0.1,0.00011408,1140,0.00011385,1133.3,-3.699e-05,-0.0043612,-3.8746e-05,-13.196,1.675
22494,18.854,1.3636,0.1,0.00011196,1118.9,0.00011172,1111.7,-3.6247e-05,-0.0056543,-3.8125e-05,-14.113,1.6889
22495,18.578,1.2727,0.1,0.00011821,1181.3,0.00011802,1175.7,-3.8461e-05,-0.0037007,-3.993e-05,-11.045,1.6475
22496,18.67,1.3636,0.1,0.00011608,1160,0.00011587,1154,-3.7717e-05,-0.0049733,-3.9295e-05,-11.859,1.6614
22497,18.394,1.2727,0.1,0.00012236,1222.8,0.00012221,1218.3,-3.9938e-05,-0.0028182,-4.112e-05,-8.8773,1.6201
22498,18.486,1.3636,0.1,0.00012021,1201.3,0.00012005,1196.5,-3.9194e-05,-0.0041189,-4.047e-05,-9.593,1.6339
22499,18.21,1.2727,0.1,0.00012653,1264.4,0.00012641,1261.1,-4.1423e-05,-0.0014622,-4.2312e-05,-6.6829,1.5928
22500,18.302,1.3636,0.1,0.00012436,1242.8,0.00012424,1239.1,-4.0678e-05,-0.0028607,-4.1649e-05,-7.3033,1.6066
22501,18.027,1.2727,0.1,0.00013072,1306.2,0.00013064,1304,-4.2915e-05,0.0011257,-4.3508e-05,-4.453,1.5655
22502,18.119,1.3636,0.1,0.00012853,1284.4,0.00012845,1281.9,-4.2169e-05,-0.00062185,-4.2831e-05,-4.9797,1.5793
22503,17.843,1.2727,0.1,0.00013492,1348.3,0.00013488,1347.2,-4.4414e-05,0.0090008,-4.4706e-05,-2.1821,1.5384
22504,17.935,1.3636,0.1,0.00013272,1326.3,0.00013267,1325,-4.3667e-05,0.0054253,-4.4016e-05,-2.6141,1.5521
22505,17.659,1.2727,0.1,0.00013914,1390.4,0.00013914,1390.5,-4.5886e-05,0.28285,-4.594e-05,-0.12187,1.5113
22506,17.751,1.3636,0.1,0.00013692,1368.3,0.00013692,1368.2,-4.5161e-05,0.10826,-4.5214e-05,-0.28919,1.525
22507,17.475,1.2727,0.1,0.00014338,1432.8,0.00014342,1434.1,-4.7098e-05,2.5781,-4.7443e-05,-0.019379,1.4844
22508,17.567,1.3636,0.1,0.00014114,1410.5,0.00014118,1411.6,-4.6381e-05,2.3339,-4.6694e-05,-0.020875,1.498
22509,17.291,1.2727,0.1,0.00014763,1475.3,0.00014771,1477.8,-4.8296e-05,5.041,-4.8968e-05,-0.01319,1.4575
22510,17.383,1.3636,0.1,0.00014538,1452.8,0.00014546,1455.2,-4.7565e-05,4.8964,-4.8218e-05,-0.01366,1.4711
22511,17.108,1.2727,0.1,0.0001519,1517.9,0.00015202,1521.7,-4.9491e-05,7.5861,-5.0502e-05,-0.011137,1.4307
22512,17.2,1.3636,0.1,0.00014963,1495.3,0.00014976,1499,-4.8746e-05,7.5485,-4.9752e-05,-0.011404,1.4443
22513,16.924,1.2727,0.1,0.00015618,1560.7,0.00015635,1565.8,-5.0685e-05,10.216,-5.2046e-05,-0.010246,1.4041
22514,17.016,1.3636,0.1,0.0001539,1537.9,0.00015407,1543,-4.9924e-05,10.294,-5.1296e-05,-0.010394,1.4175
22515,16.74,1.2727,0.1,0.00016048,1603.7,0.0001607,1610.1,-5.1876e-05,12.934,-5.3599e-05,-0.0098936,1.3775
22516,16.832,1.3636,0.1,0.00015818,1580.7,0.0001584,1587.2,-5.1099e-05,13.14,-5.2849e-05,-0.0099303,1.3909
22517,16.556,1.2727,0.1,0.00016479,1646.8,0.00016505,1654.6,-5.3064e-05,15.742,-5.516e-05,-0.0098917,1.3511
22518,16.648,1.3636,0.1,0.00016247,1623.6,0.00016274,1631.6,-5.2269e-05,16.091,-5.4412e-05,-0.0097957,1.3644
22519,16.372,1.2727,0.1,0.00016912,1690,0.00016943,1699.3,-5.4249e-05,18.64,-5.6731e-05,-0.010165,1.3247
22520,16.464,1.3636,0.1,0.00016678,1666.7,0.0001671,1676.2,-5.3435e-05,19.15,-5.5985e-05,-0.009935,1.338
22521,16.189,1.2727,0.1,0.00017346,1733.4,0.00017382,1744.1,-5.5431e-05,21.625,-5.8311e-05,-0.010665,1.2985
22522,16.281,1.3636,0.1,0.00017111,1709.9,0.00017148,1720.9,-5.4596e-05,22.319,-5.7568e-05,-0.010295,1.3117
22523,16.005,1.2727,0.1,0.00017782,1776.9,0.00017822,1789.1,-5.6611e-05,24.69,-5.9899e-05,-0.011411,1.2724
22524,16.097,1.3636,0.1,0.00017545,1753.2,0.00017587,1765.9,-5.5753e-05,25.597,-5.9161e-05,-0.010849,1.2856
22525,15.821,1.2727,0.1,0.00018218,1820.6,0.00018264,1834.3,-5.779e-05,27.826,-6.1495e-05,-0.012461,1.2464
22526,15.913,1.3636,0.1,0.0001798,1796.7,0.00018027,1811,-5.6906e-05,28.979,-6.0764e-05,-0.011668,1.2595
22527,15.637,1.2727,0.1,0.00018656,1864.4,0.00018707,1879.7,-5.8967e-05,31.016,-6.3097e-05,-0.013882,1.2205
22528,15.729,1.3636,0.1,0.00018416,1840.4,0.00018469,1856.4,-5.8054e-05,32.457,-6.2376e-05,-0.012804,1.2336
22529,15.453,1.2727,0.1,0.00019096,1908.2,0.00019152,1925.1,-6.0146e-05,34.24,-6.4705e-05,-0.01578,1.1948
22530,15.545,1.3636,0.1,0.00018854,1884.1,0.00018913,1901.9,-5.9201e-05,36.016,-6.3996e-05,-0.014335,1.2078
22531,15.27,1.2727,0.1,0.00019536,1952.2,0.00019597,1970.7,-6.1328e-05,37.469,-6.6317e-05,-0.018276,1.1692
22532,15.362,1.3636,0.1,0.00019294,1928,0.00019358,1947.5,-6.0346e-05,39.639,-6.5624e-05,-0.016388,1.1821
22533,15.086,1.2727,0.1,0.00019977,1996.3,0.00020043,2016.3,-6.2514e-05,40.67,-6.793e-05,-0.021512,1.1437
22534,15.178,1.3636,0.1,0.00019734,1972.1,0.00019804,1993.4,-6.1493e-05,43.299,-6.7258e-05,-0.019069,1.1566
22535,14.902,1.2727,0.1,0.00020419,2040.5,0.0002049,2062,-6.3709e-05,43.797,-6.9542e-05,-0.02574,1.1183
22536,14.994,1.3636,0.1,0.00020176,2016.2,0.00020252,2039.3,-6.2643e-05,46.964,-6.8897e-05,-0.022535,1.1312
22537,14.718,1.2727,0.1,0.00020861,2084.6,0.00020936,2107.6,-6.4915e-05,46.797,-7.1148e-05,-0.031332,1.0931
22538,14.81,1.3636,0.1,0.0002062,2060.5,0.00020701,2085.4,-6.3801e-05,50.592,-7.0538e-05,-0.027097,1.1059
22539,14.534,1.2727,0.1,0.00021302,2128.8,0.00021382,2153.1,-6.6137e-05,49.606,-7.2744e-05,-0.038789,1.0681
22540,14.626,1.3636,0.1,0.00021064,2104.9,0.00021151,2131.5,-6.4969e-05,54.132,-7.2177e-05,-0.03313,1.0808
22541,14.351,1.2727,0.1,0.00021743,2172.8,0.00021827,2198.4,-6.7377e-05,52.149,-7.4324e-05,-0.048847,1.0432
22542,14.443,1.3636,0.1,0.00021509,2149.4,0.00021601,2177.6,-6.6152e-05,57.522,-7.3813e-05,-0.041163,1.0558
22543,14.167,1.2727,0.1,0.00022182,2216.7,0.00022269,2243.3,-6.8641e-05,54.337,-7.5881e-05,-0.062556,1.0184
22544,14.259,1.3636,0.1,0.00021954,2193.9,0.00022051,2223.6,-6.7354e-05,60.689,-7.5439e-05,-0.051969,1.0309
22545,13.983,1.2727,0.1,0.00022617,2260.2,0.00022708,2287.7,-6.9931e-05,56.07,-7.7405e-05,-0.081461,0.99376
22546,14.075,1.3636,0.1,0.00022399,2238.4,0.00022501,2269.5,-6.8583e-05,63.545,-7.7049e-05,-0.066584,1.0062
22547,13.799,1.2727,0.1,0.00023048,2303.2,0.0002314,2331.2,-7.1253e-05,57.229,-7.8884e-05,-0.108,0.96929
22548,13.891,1.3636,0.1,0.00022844,2282.8,0.00022948,2315,-6.9842e-05,65.988,-7.8636e-05,-0.08655,0.9817
22549,13.616,1.2727,0.1,0.0002347,2345.4,0.00023563,2373.6,-7.2608e-05,57.676,-8.0303e-05,-0.14607,0.94497
22550,13.707,1.3636,0.1,0.00023285,2326.9,0.00023393,2360.1,-7.1139e-05,67.896,-8.019e-05,-0.11429,0.95731
22551,13.432,1.2727,0.1,0.00023882,2386.6,0.00023974,2414.6,-7.4e-05,57.248,-8.1646e-05,-0.20199,0.92082
22552,13.524,1.3636,0.1,0.00023724,2370.7,0.00023833,2404.5,-7.248e-05,69.119,-8.17e-05,-0.1535,0.93308
22553,13.248,1.2727,0.1,0.00024279,2426.2,0.00024368,2453.5,-7.5433e-05,55.735,-8.2889e-05,-0.28677,0.89683
22554,13.34,1.3636,0.1,0.00024156,2414,0.00024267,2447.8,-7.3876e-05,69.469,-8.315e-05,-0.21005,0.90901
22555,13.064,1.2727,0.1,0.00024656,2463.9,0.00024741,2489.7,-7.6914e-05,52.861,-8.4005e-05,-0.42082,0.873
22556,13.156,1.3636,0.1,0.00024581,2456.4,0.0002469,2489.9,-7.5339e-05,68.694,-8.4521e-05,-0.2939,0.8851
22557,12.88,1.2727,0.1,0.00025009,2499.2,0.00025086,2522.6,-7.8456e-05,48.233,-8.4961e-05,-0.64647,0.84934
22558,12.972,1.3636,0.1,0.00024995,2497.8,0.00025101,2530.2,-7.6891e-05,66.434,-8.5789e-05,-0.42299,0.86136
22559,12.697,1.2727,0.1,0.00025331,2531.4,0.00025397,2551.2,-8.0082e-05,41.278,-8.5718e-05,-1.0673,0.82585
22560,12.788,1.3636,0.1,0.00025398,2538,0.00025496,2568.2,-7.8568e-05,62.15,-8.6924e-05,-0.63348,0.83779
22561,12.513,1.2727,0.1,0.00025618,2560,0.00025666,2574.5,-8.1825e-05,31.223,-8.6249e-05,-2.0128,0.80252
22562,12.605,1.3636,0.1,0.00025787,2576.9,0.00025874,2603.4,-8.0435e-05,55.002,-8.789e-05,-1.0111,0.81439
22563,12.329,1.2727,0.1,0.00025867,2585,0.00025888,2591.3,-8.3618e-05,17.836,-8.6669e-05,-5.0909,0.77937
22564,12.421,1.3636,0.1,0.00026165,2614.7,0.00026233,2635.3,-8.2592e-05,43.718,-8.8652e-05,-1.8157,0.79117
22565,12.145,1.2727,0.1,0.00026083,2606.5,0.00026062,2600.3,-8.4539e-05,6.9492,-8.8023e-05,-19.233,0.75639
22566,12.237,1.3636,0.1,0.00026541,2652.3,0.00026579,2663.5,-8.5119e-05,26.939,-8.9274e-05,-4.2732,0.76811
22567,11.961,1.2727,0.1,0.00026281,2626.3,0.0002619,2600.3,-8.369e-05,3.6996,-9.1472e-05,-54.768,0.73359
22568,12.053,1.3636,0.1,0.00026936,2691.8,0.00026921,2687.6,-8.7202e-05,9.6398,-9.0846e-05,-17.734,0.74524
22569,11.778,1.2727,0.1,0.00026496,2647.7,0.00026285,2589.7,-8.1445e-05,2.8021,-9.7111e-05,-114.9,0.71095
22570,11.869,1.3636,0.1,0.00027391,2737.2,0.00027286,2707.7,-8.694e-05,4.2539,-9.5766e-05,-62.061,0.72254
22571,11.594,1.2727,0.1,0.00026791,2677.2,0.00026372,2566.5,-7.7522e-05,2.5603,-0.00010597,-211.19,0.68847
22572,11.686,1.3636,0.1,0.00027978,2795.9,0.00027714,2723.7,-8.4952e-05,3.1007,-0.00010424,-141.81,0.70001
22573,11.41,1.2727,0.1,0.00027266,2724.7,0.00026471,2526.8,-7.1212e-05,2.8002,-0.00011974,-361.85,0.66615
22574,11.502,1.3636,0.1,0.00028821,2880.1,0.00028261,2734.8,-8.0989e-05,2.8999,-0.00011778,-273.5,0.67765
22575,11.226,1.2727,0.1,0.00028092,2807.2,0.00026613,2464.9,-6.1642e-05,2.111,-0.00014069,-591.81,0.64396
22576,11.318,1.3636,0.1,0.00030103,3008.2,0.00028983,2737.1,-7.4017e-05,3.2931,-0.0001391,-485.68,0.65544
22577,11.042,1.2727,0.1,0.00030141,3012,0.00027337,2416.5,-4.7719e-05,4.0304,-0.00017593,-959.29,0.62188
22578,11.134,1.3636,0.1,0.00032051,3202.9,0.00029864,2714.8,-6.2466e-05,1.6025,-0.00017159,-818.35,0.63337
22579,10.95,1.3636,0.1,0.00036382,3635.6,0.00031981,2744,-4.3628e-05,13.231,-0.00022942,-1382.8,0.61141
22580,10.859,1.2727,0.1,0.00025974,2595.6,0.0002294,1971.4,-3.3595e-05,-4.6696,-0.00016184,-968.22,0.59986
22581,23.724,1.4545,0.1,1.7177e-05,171.65,1.0325e-05,58.683,2.4897e-06,-0.1907,-1.5406e-05,-134.65,2.4371
22582,23.816,1.5455,0.1,1.6728e-05,167.16,8.7293e-06,39.736,3.419e-06,-0.16331,-1.5693e-05,-143.77,2.4515
22583,23.908,1.4545,0.1,1.5673e-05,156.62,7.0253e-06,22.424,3.9848e-06,-0.42091,-1.5173e-05,-144.37,2.4658
22584,23.541,1.4545,0.1,1.9237e-05,192.23,1.3801e-05,96.689,9.0483e-07,-0.2055,-1.5666e-05,-124.71,2.4085
22585,23.632,1.5455,0.1,1.8516e-05,185.03,1.2203e-05,77.793,1.8083e-06,-0.30672,-1.5916e-05,-133.48,2.4229
22586,23.357,1.4545,0.1,2.1698e-05,216.83,1.7292e-05,134.66,-6.4525e-07,-0.11367,-1.5998e-05,-115.47,2.3799
22587,23.449,1.5455,0.1,2.0774e-05,207.59,1.569e-05,115.9,2.4671e-07,-0.12742,-1.6208e-05,-123.76,2.3943
22588,23.173,1.4545,0.1,2.445e-05,244.33,2.0807e-05,172.6,-2.1769e-06,-0.092437,-1.64e-05,-106.96,2.3514
22589,23.265,1.5455,0.1,2.3369e-05,233.53,1.9196e-05,153.92,-1.3037e-06,-0.11153,-1.6565e-05,-114.78,2.3657
22590,22.989,1.4545,0.1,2.7416e-05,273.97,2.4349e-05,210.59,-3.6874e-06,-0.070964,-1.6873e-05,-99.141,2.3228
22591,23.081,1.5455,0.1,2.6211e-05,261.93,2.2724e-05,191.93,-2.8307e-06,-0.081318,-1.6988e-05,-106.45,2.3371
22592,22.805,1.4545,0.1,3.0547e-05,305.26,2.7924e-05,248.68,-5.1807e-06,-0.058385,-1.7414e-05,-91.974,2.2942
22593,22.897,1.5455,0.1,2.924e-05,292.2,2.6279e-05,229.99,-4.3397e-06,-0.066982,-1.7477e-05,-98.779,2.3086
22594,22.622,1.4545,0.1,3.3806e-05,337.83,3.1533e-05,286.92,-6.6594e-06,-0.048664,-1.8019e-05,-85.404,2.2657
22595,22.713,1.5455,0.1,3.2415e-05,323.92,2.9865e-05,268.16,-5.8324e-06,-0.055314,-1.8031e-05,-91.712,2.28
22596,22.438,1.4545,0.1,3.717e-05,371.44,3.5177e-05,325.32,-8.1261e-06,-0.041452,-1.8684e-05,-79.373,2.2372
22597,22.53,1.5455,0.1,3.5705e-05,356.8,3.3484e-05,306.47,-7.3116e-06,-0.047019,-1.8645e-05,-85.203,2.2515
22598,22.254,1.4545,0.1,4.0618e-05,405.9,3.8855e-05,363.91,-9.583e-06,-0.035788,-1.9404e-05,-73.824,2.2087
22599,22.346,1.5455,0.1,3.909e-05,390.63,3.7135e-05,344.94,-8.7796e-06,-0.040524,-1.9315e-05,-79.201,2.223
22600,22.07,1.4545,0.1,4.4138e-05,441.07,4.2566e-05,402.68,-1.1032e-05,-0.03128,-2.0172e-05,-68.703,2.1802
22601,22.162,1.5455,0.1,4.2553e-05,425.24,4.0819e-05,383.59,-1.0238e-05,-0.035407,-2.0037e-05,-73.655,2.1945
22602,21.886,1.4545,0.1,4.7719e-05,476.86,4.6307e-05,441.64,-1.2475e-05,-0.02762,-2.0984e-05,-63.962,2.1518
22603,21.978,1.5455,0.1,4.6084e-05,460.52,4.4534e-05,422.41,-1.169e-05,-0.031271,-2.0805e-05,-68.518,2.1661
22604,21.703,1.4545,0.1,5.1353e-05,513.17,5.0079e-05,480.78,-1.3913e-05,-0.024596,-2.1836e-05,-59.558,2.1234
22605,21.794,1.5455,0.1,4.9672e-05,496.38,4.828e-05,461.42,-1.3135e-05,-0.027873,-2.1615e-05,-63.746,2.1376
22606,21.519,1.4545,0.1,5.5033e-05,549.95,5.388e-05,520.12,-1.5347e-05,-0.022064,-2.2724e-05,-55.452,2.095
22607,21.611,1.5455,0.1,5.3312e-05,532.75,5.2055e-05,500.61,-1.4576e-05,-0.025031,-2.2465e-05,-59.3,2.1093
22608,21.335,1.4545,0.1,5.8756e-05,587.15,5.7707e-05,559.64,-1.6778e-05,-0.019925,-2.3645e-05,-51.61,2.0667
22609,21.427,1.5455,0.1,5.6997e-05,569.57,5.5858e-05,539.99,-1.6013e-05,-0.022631,-2.3349e-05,-55.145,2.0809
22610,21.151,1.4545,0.1,6.2516e-05,624.73,6.1561e-05,599.34,-1.8209e-05,-0.018101,-2.4595e-05,-48.002,2.0384
22611,21.243,1.5455,0.1,6.0723e-05,606.81,5.9688e-05,579.55,-1.7448e-05,-0.020585,-2.4266e-05,-51.248,2.0526
22612,20.967,1.4545,0.1,6.6312e-05,662.66,6.544e-05,639.23,-1.9638e-05,-0.016533,-2.5572e-05,-44.601,2.0101
22613,21.059,1.5455,0.1,6.4486e-05,644.41,6.3544e-05,619.3,-1.8881e-05,-0.018824,-2.5212e-05,-47.582,2.0243
22614,20.784,1.4545,0.1,7.014e-05,700.92,6.9344e-05,679.3,-2.1067e-05,-0.015175,-2.6573e-05,-41.383,1.9819
22615,20.875,1.5455,0.1,6.8284e-05,682.37,6.7426e-05,659.23,-2.0314e-05,-0.017302,-2.6184e-05,-44.12,1.9961
22616,20.6,1.4545,0.1,7.3999e-05,739.48,7.3272e-05,719.56,-2.2498e-05,-0.013977,-2.7597e-05,-38.326,1.9537
22617,20.692,1.5455,0.1,7.2115e-05,720.65,7.1333e-05,699.35,-2.1748e-05,-0.015969,-2.7181e-05,-40.839,1.9679
22618,20.416,1.4545,0.1,7.7886e-05,778.32,7.7223e-05,760.01,-2.3929e-05,-0.012908,-2.8641e-05,-35.411,1.9256
22619,20.508,1.5455,0.1,7.5975e-05,759.23,7.5263e-05,739.66,-2.3182e-05,-0.014774,-2.82e-05,-37.718,1.9398
22620,20.232,1.4545,0.1,8.18e-05,817.44,8.1196e-05,800.64,-2.5363e-05,-0.011954,-2.9703e-05,-32.618,1.8976
22621,20.324,1.5455,0.1,7.9865e-05,798.1,7.9217e-05,780.16,-2.4617e-05,-0.013707,-2.9238e-05,-34.736,1.9117
22622,20.048,1.4545,0.1,8.5741e-05,856.82,8.5192e-05,841.45,-2.68e-05,-0.011096,-3.0782e-05,-29.93,1.8695
22623,20.14,1.5455,0.1,8.3782e-05,837.24,8.3194e-05,820.84,-2.6055e-05,-0.012748,-3.0296e-05,-31.875,1.8836
22624,19.865,1.4545,0.1,8.9706e-05,896.44,8.921e-05,882.46,-2.824e-05,-0.010323,-3.1876e-05,-27.333,1.8416
22625,19.956,1.5455,0.1,8.7725e-05,876.64,8.7193e-05,861.72,-2.7496e-05,-0.011879,-3.137e-05,-29.117,1.8556
22626,19.681,1.4545,0.1,9.3695e-05,936.3,9.3248e-05,923.65,-2.9683e-05,-0.0096155,-3.2984e-05,-24.809,1.8137
22627,19.773,1.5455,0.1,9.1693e-05,916.29,9.1214e-05,902.78,-2.894e-05,-0.011095,-3.2458e-05,-26.446,1.8277
22628,19.497,1.4545,0.1,9.7707e-05,976.4,9.7308e-05,965.03,-3.1131e-05,-0.008943,-3.4104e-05,-22.345,1.7859
22629,19.589,1.5455,0.1,9.5684e-05,956.18,9.5256e-05,944.03,-3.0388e-05,-0.010365,-3.356e-05,-23.846,1.7999
22630,19.313,1.4545,0.1,0.00010174,1016.7,0.00010139,1006.6,-3.2584e-05,-0.0082897,-3.5234e-05,-19.926,1.7581
22631,19.405,1.5455,0.1,9.9699e-05,996.3,9.9319e-05,985.47,-3.1841e-05,-0.009654,-3.4674e-05,-21.302,1.7721
22632,19.129,1.4545,0.1,0.0001058,1057.2,0.00010549,1048.4,-3.4041e-05,-0.0076469,-3.6374e-05,-17.539,1.7304
22633,19.221,1.5455,0.1,0.00010374,1036.6,0.0001034,1027.1,-3.3298e-05,-0.0089647,-3.5799e-05,-18.799,1.7443
22634,18.946,1.4545,0.1,0.00010987,1098,0.00010961,1090.3,-3.5505e-05,-0.0069907,-3.7523e-05,-15.17,1.7028
22635,19.038,1.5455,0.1,0.00010779,1077.2,0.00010751,1068.9,-3.4761e-05,-0.0082764,-3.6932e-05,-16.323,1.7167
22636,18.762,1.4545,0.1,0.00011397,1138.9,0.00011375,1132.4,-3.6974e-05,-0.0062904,-3.8678e-05,-12.807,1.6752
22637,18.854,1.5455,0.1,0.00011187,1117.9,0.00011163,1110.9,-3.623e-05,-0.0075566,-3.8073e-05,-13.859,1.6891
22638,18.578,1.4545,0.1,0.00011808,1180,0.0001179,1174.8,-3.845e-05,-0.0054688,-3.9839e-05,-10.438,1.6477
22639,18.67,1.5455,0.1,0.00011597,1158.9,0.00011577,1153.2,-3.7705e-05,-0.0067637,-3.9221e-05,-11.396,1.6616
22640,18.394,1.4545,0.1,0.00012222,1221.3,0.00012208,1217.3,-3.9933e-05,-0.0043419,-4.1004e-05,-8.0485,1.6203
22641,18.486,1.5455,0.1,0.00012009,1200,0.00011993,1195.6,-3.9187e-05,-0.005755,-4.0373e-05,-8.9173,1.6341
22642,18.21,1.4545,0.1,0.00012637,1262.8,0.00012627,1260,-4.1424e-05,-0.0024687,-4.2172e-05,-5.6283,1.593
22643,18.302,1.5455,0.1,0.00012422,1241.4,0.00012411,1238.1,-4.0676e-05,-0.0041973,-4.1529e-05,-6.4119,1.6068
22644,18.027,1.4545,0.1,0.00013054,1304.5,0.00013049,1302.9,-4.2921e-05,0.0019808,-4.3343e-05,-3.1669,1.5658
22645,18.119,1.5455,0.1,0.00012838,1282.9,0.00012831,1280.9,-4.2172e-05,-0.00097434,-4.2687e-05,-3.8672,1.5795
22646,17.843,1.4545,0.1,0.00013473,1346.3,0.00013472,1346,-4.4423e-05,0.038044,-4.4519e-05,-0.68138,1.5387
22647,17.935,1.5455,0.1,0.00013255,1324.5,0.00013252,1323.9,-4.3676e-05,0.014428,-4.3848e-05,-1.2806,1.5523
22648,17.659,1.4545,0.1,0.00013893,1388.3,0.00013896,1389.3,-4.5681e-05,1.9684,-4.5946e-05,-0.023101,1.5116
22649,17.751,1.5455,0.1,0.00013673,1366.4,0.00013676,1367.1,-4.5001e-05,1.4308,-4.5195e-05,-0.028108,1.5252
22650,17.475,1.4545,0.1,0.00014315,1430.5,0.00014323,1432.8,-4.6852e-05,4.6264,-4.7469e-05,-0.014141,1.4846
22651,17.567,1.5455,0.1,0.00014094,1408.4,0.00014101,1410.5,-4.616e-05,4.1661,-4.6716e-05,-0.014875,1.4982
22652,17.291,1.4545,0.1,0.00014738,1472.8,0.00014751,1476.5,-4.8019e-05,7.3799,-4.9002e-05,-0.011673,1.4578
22653,17.383,1.5455,0.1,0.00014515,1450.5,0.00014527,1454,-4.7314e-05,7.0037,-4.8248e-05,-0.012021,1.4713
22654,17.108,1.4545,0.1,0.00015163,1515.3,0.0001518,1520.4,-4.9182e-05,10.234,-5.0546e-05,-0.010562,1.431
22655,17.2,1.5455,0.1,0.00014939,1492.8,0.00014955,1497.8,-4.8465e-05,9.9472,-4.979e-05,-0.010769,1.4445
22656,16.924,1.4545,0.1,0.0001559,1557.9,0.00015612,1564.4,-5.0341e-05,13.196,-5.2099e-05,-0.010009,1.4044
22657,17.016,1.5455,0.1,0.00015363,1535.3,0.00015385,1541.7,-4.961e-05,13.007,-5.1343e-05,-0.010113,1.4178
22658,16.74,1.4545,0.1,0.00016017,1600.6,0.00016045,1608.7,-5.1495e-05,16.276,-5.3663e-05,-0.0097793,1.3778
22659,16.832,1.5455,0.1,0.0001579,1577.9,0.00015816,1585.9,-5.075e-05,16.194,-5.2906e-05,-0.0097781,1.3912
22660,16.556,1.4545,0.1,0.00016447,1643.5,0.00016479,1653.2,-5.2643e-05,19.479,-5.5237e-05,-0.0097976,1.3514
22661,16.648,1.5455,0.1,0.00016217,1620.6,0.00016249,1630.3,-5.1882e-05,19.517,-5.4481e-05,-0.0096689,1.3647
22662,16.372,1.4545,0.1,0.00016877,1686.6,0.00016915,1697.9,-5.3785e-05,22.81,-5.6822e-05,-0.010034,1.325
22663,16.464,1.5455,0.1,0.00016646,1663.5,0.00016684,1674.8,-5.3007e-05,22.986,-5.6068e-05,-0.0097748,1.3383
22664,16.189,1.4545,0.1,0.0001731,1729.8,0.00017353,1742.7,-5.4921e-05,26.273,-5.8419e-05,-0.010459,1.2988
22665,16.281,1.5455,0.1,0.00017076,1706.5,0.0001712,1719.6,-5.4123e-05,26.609,-5.7666e-05,-0.010061,1.312
22666,16.005,1.4545,0.1,0.00017743,1773.1,0.00017792,1787.8,-5.605e-05,29.869,-6.0026e-05,-0.011098,1.2727
22667,16.097,1.5455,0.1,0.00017508,1749.6,0.00017558,1764.6,-5.5231e-05,30.389,-5.9277e-05,-0.010511,1.2859
22668,15.821,1.4545,0.1,0.00018178,1816.6,0.00018233,1833.1,-5.7172e-05,33.593,-6.1645e-05,-0.012015,1.2467
22669,15.913,1.5455,0.1,0.00017942,1792.9,0.00017998,1809.8,-5.633e-05,34.332,-6.0901e-05,-0.011196,1.2598
22670,15.637,1.4545,0.1,0.00018615,1860.2,0.00018675,1878.6,-5.829e-05,37.441,-6.3275e-05,-0.013276,1.2209
22671,15.729,1.5455,0.1,0.00018377,1836.4,0.00018439,1855.3,-5.742e-05,38.436,-6.2537e-05,-0.01217,1.2339
22672,15.453,1.4545,0.1,0.00019053,1904,0.0001912,1924.3,-5.9403e-05,41.399,-6.4915e-05,-0.014981,1.1951
22673,15.545,1.5455,0.1,0.00018813,1880,0.00018882,1901,-5.8503e-05,42.699,-6.4187e-05,-0.013506,1.2081
22674,15.27,1.4545,0.1,0.00019493,1947.9,0.00019566,1970.2,-6.0514e-05,45.453,-6.6565e-05,-0.017243,1.1695
22675,15.362,1.5455,0.1,0.00019252,1923.8,0.00019327,1946.9,-5.9579e-05,47.112,-6.5851e-05,-0.015324,1.1825
22676,15.086,1.4545,0.1,0.00019934,1992,0.00020014,2016.4,-6.1624e-05,49.578,-6.8225e-05,-0.020185,1.144
22677,15.178,1.5455,0.1,0.00019692,1967.9,0.00019775,1993.2,-6.0649e-05,51.662,-6.7528e-05,-0.017714,1.1569
22678,14.902,1.4545,0.1,0.00020378,2036.4,0.00020464,2062.7,-6.2737e-05,53.743,-6.9893e-05,-0.024028,1.1187
22679,14.994,1.5455,0.1,0.00020135,2012.1,0.00020225,2039.7,-6.1718e-05,56.33,-6.9218e-05,-0.020814,1.1315
22680,14.718,1.4545,0.1,0.00020823,2080.9,0.00020915,2109.2,-6.3856e-05,57.911,-7.1567e-05,-0.029094,1.0935
22681,14.81,1.5455,0.1,0.0002058,2056.6,0.00020677,2086.5,-6.2787e-05,61.09,-7.0921e-05,-0.024897,1.1062
22682,14.534,1.4545,0.1,0.00021271,2125.6,0.00021369,2155.9,-6.4985e-05,62.031,-7.3246e-05,-0.035797,1.0684
22683,14.626,1.5455,0.1,0.00021029,2101.4,0.00021133,2133.6,-6.3861e-05,65.907,-7.2637e-05,-0.030282,1.0811
22684,14.351,1.4545,0.1,0.0002172,2170.5,0.00021825,2202.8,-6.6131e-05,66.045,-7.4927e-05,-0.044725,1.0435
22685,14.443,1.5455,0.1,0.00021481,2146.6,0.00021592,2181.1,-6.4945e-05,70.734,-7.4364e-05,-0.037402,1.0561
22686,14.167,1.4545,0.1,0.00022172,2215.7,0.00022283,2249.8,-6.7299e-05,69.879,-7.6606e-05,-0.056675,1.0188
22687,14.259,1.5455,0.1,0.00021936,2192.1,0.00022055,2228.9,-6.6045e-05,75.517,-7.6102e-05,-0.046876,1.0313
22688,13.983,1.4545,0.1,0.00022626,2261,0.00022742,2296.8,-6.8495e-05,73.447,-7.828e-05,-0.072747,0.99413
22689,14.075,1.5455,0.1,0.00022397,2238.1,0.00022522,2277.1,-6.717e-05,80.185,-7.785e-05,-0.059478,1.0066
22690,13.799,1.4545,0.1,0.00023082,2306.6,0.00023202,2343.9,-6.973e-05,76.642,-7.9943e-05,-0.094603,0.96967
22691,13.891,1.5455,0.1,0.00022862,2284.6,0.00022994,2325.7,-6.8329e-05,84.649,-7.9606e-05,-0.076316,0.98205
22692,13.616,1.4545,0.1,0.00023539,2352.3,0.00023664,2390.9,-7.1012e-05,79.333,-8.1587e-05,-0.12471,0.94536
22693,13.707,1.5455,0.1,0.00023334,2331.8,0.00023472,2374.8,-6.9534e-05,88.8,-8.1366e-05,-0.099073,0.95767
22694,13.432,1.4545,0.1,0.00023998,2398.2,0.00024126,2437.7,-7.2355e-05,81.35,-8.3204e-05,-0.16683,0.92121
22695,13.524,1.5455,0.1,0.00023812,2379.6,0.00023956,2424.4,-7.08e-05,92.492,-8.3128e-05,-0.13014,0.93345
22696,13.248,1.4545,0.1,0.00024458,2444.2,0.00024588,2484.2,-7.3776e-05,82.468,-8.4782e-05,-0.22686,0.89723
22697,13.34,1.5455,0.1,0.00024299,2428.2,0.00024447,2474.5,-7.2149e-05,95.536,-8.4887e-05,-0.17309,0.90938
22698,13.064,1.4545,0.1,0.0002492,2490.2,0.00025049,2530.2,-7.5303e-05,82.364,-8.6307e-05,-0.31467,0.87341
22699,13.156,1.5455,0.1,0.00024796,2477.9,0.00024947,2525.2,-7.3607e-05,97.659,-8.6636e-05,-0.23353,0.88548
22700,12.88,1.4545,0.1,0.00025382,2536.5,0.00025509,2575.6,-7.6977e-05,80.556,-8.7757e-05,-0.44805,0.84976
22701,12.972,1.5455,0.1,0.00025306,2528.9,0.00025459,2576.5,-7.522e-05,98.465,-8.8368e-05,-0.32067,0.86175
22702,12.697,1.4545,0.1,0.00025849,2583.1,0.00025969,2620.1,-7.8867e-05,76.282,-8.9108e-05,-0.66331,0.82628
22703,12.788,1.5455,0.1,0.00025835,2581.7,0.00025986,2628.8,-7.7054e-05,97.336,-9.0068e-05,-0.4511,0.83819
22704,12.513,1.4545,0.1,0.00026326,2630.8,0.00026433,2663.7,-8.1092e-05,68.322,-9.0324e-05,-1.0472,0.80298
22705,12.605,1.5455,0.1,0.0002639,2637.2,0.00026535,2682.2,-7.9217e-05,93.288,-9.1721e-05,-0.65888,0.81481
22706,12.329,1.4545,0.1,0.00026824,2680.6,0.0002691,2706.5,-8.3837e-05,54.749,-9.1373e-05,-1.8727,0.77985
22707,12.421,1.5455,0.1,0.00026985,2696.7,0.00027117,2737.5,-8.1888e-05,84.721,-9.33e-05,-1.0244,0.7916
22708,12.145,1.4545,0.1,0.00027367,2734.8,0.00027414,2749,-8.7308e-05,33.201,-9.2327e-05,-4.5101,0.7569
22709,12.237,1.5455,0.1,0.00027646,2762.7,0.00027754,2795.7,-8.5351e-05,69.054,-9.4782e-05,-1.8044,0.76858
22710,11.961,1.4545,0.1,0.00027997,2797.8,0.00027976,2791.8,-9.0437e-05,10.305,-9.4734e-05,-21.976,0.73413
22711,12.053,1.5455,0.1,0.00028416,2839.6,0.00028478,2858.6,-8.9978e-05,42.759,-9.6237e-05,-4.2696,0.74574
22712,11.778,1.4545,0.1,0.00028788,2876.8,0.00028644,2836.3,-9.0472e-05,4.3652,-0.00010215,-83.392,0.71154
22713,11.869,1.5455,0.1,0.00029366,2934.6,0.00029346,2929,-9.4746e-05,12.14,-9.9434e-05,-23.086,0.72308
22714,11.594,1.4545,0.1,0.00029858,2983.7,0.00029482,2883,-8.8432e-05,3.3386,-0.00011482,-194.92,0.68913
22715,11.686,1.5455,0.1,0.0003062,3059.9,0.00030445,3011,-9.5658e-05,4.791,-0.00010958,-99.778,0.70061
22716,11.41,1.4545,0.1,0.00031391,3136.9,0.00030568,2929.8,-8.3802e-05,3.3344,-0.00013508,-381.98,0.6669
22717,11.502,1.5455,0.1,0.00032388,3236.6,0.00031909,3109.3,-9.4322e-05,3.1157,-0.00012716,-243.6,0.67833
22718,11.226,1.4545,0.1,0.0003358,3355.7,0.00031883,2960.7,-7.4842e-05,2.7794,-0.0001665,-685.88,0.64482
22719,11.318,1.5455,0.1,0.00034979,3495.5,0.00033886,3226.1,-8.9664e-05,6.3645,-0.00015594,-491.61,0.65623
22720,11.042,1.4545,0.1,0.0003743,3740.5,0.00033916,2997.7,-5.8328e-05,11.154,-0.00021921,-1197.6,0.62289
22721,11.134,1.5455,0.1,0.00038961,3893.4,0.00036541,3345.4,-7.9726e-05,0.84164,-0.00020343,-928.59,0.6343
22722,10.95,1.5455,0.1,0.00046849,4681.7,0.00041114,3517.4,-5.6129e-05,6.4626,-0.0002963,-1798.1,0.61251
22723,10.859,1.4545,0.1,0.00032997,3297.5,0.00028889,2469,-3.8076e-05,12.312,-0.00020989,-1278.6,0.60104
22724,23.724,1.6364,0.1,1.7945e-05,179.32,1.0598e-05,58.78,2.7481e-06,-0.20121,-1.6205e-05,-142.61,2.4372
22725,23.816,1.7273,0.1,1.745e-05,174.38,8.9714e-06,39.711,3.6626e-06,-0.17692,-1.6432e-05,-151.16,2.4516
22726,23.908,1.6364,0.1,1.6474e-05,164.63,7.2898e-06,22.4,4.252e-06,-0.42494,-1.5981e-05,-152.45,2.4658
22727,23.541,1.6364,0.1,1.9971e-05,199.57,1.4092e-05,97.007,1.1524e-06,-0.21247,-1.646e-05,-132.55,2.4086
22728,23.632,1.7273,0.1,1.9216e-05,192.02,1.2464e-05,77.978,2.0439e-06,-0.31399,-1.6657e-05,-140.82,2.423
22729,23.357,1.6364,0.1,2.239e-05,223.75,1.7595e-05,135.17,-4.1099e-07,-0.11929,-1.6777e-05,-123.09,2.38
22730,23.449,1.7273,0.1,2.1438e-05,214.23,1.5965e-05,116.28,4.7128e-07,-0.13267,-1.694e-05,-130.95,2.3944
22731,23.173,1.6364,0.1,2.5095e-05,250.78,2.1116e-05,173.26,-1.9572e-06,-0.09751,-1.7155e-05,-114.29,2.3515
22732,23.265,1.7273,0.1,2.3993e-05,239.76,1.948e-05,154.46,-1.0918e-06,-0.11619,-1.728e-05,-121.74,2.3658
22733,22.989,1.6364,0.1,2.8013e-05,279.94,2.4657e-05,211.35,-3.4828e-06,-0.075655,-1.7596e-05,-106.12,2.3229
22734,23.081,1.7273,0.1,2.6792e-05,267.74,2.3011e-05,192.59,-2.6323e-06,-0.085542,-1.7678e-05,-113.13,2.3372
22735,22.805,1.6364,0.1,3.1095e-05,310.74,2.8224e-05,249.5,-4.9912e-06,-0.062815,-1.8099e-05,-98.546,2.2943
22736,22.897,1.7273,0.1,2.9778e-05,297.58,2.6563e-05,230.73,-4.1551e-06,-0.07094,-1.8137e-05,-105.12,2.3087
22737,22.622,1.6364,0.1,3.4306e-05,342.83,3.1819e-05,287.75,-6.4845e-06,-0.05289,-1.8661e-05,-91.544,2.2658
22738,22.713,1.7273,0.1,3.2909e-05,328.86,3.014e-05,268.94,-5.6614e-06,-0.059074,-1.8654e-05,-97.679,2.2801
22739,22.438,1.6364,0.1,3.7622e-05,375.96,3.5446e-05,326.13,-7.9651e-06,-0.045501,-1.9281e-05,-85.066,2.2373
22740,22.53,1.7273,0.1,3.6156e-05,361.31,3.3745e-05,307.25,-7.1538e-06,-0.050625,-1.9228e-05,-90.771,2.2516
22741,22.254,1.6364,0.1,4.1025e-05,409.97,3.9104e-05,364.66,-9.435e-06,-0.039674,-1.9953e-05,-79.069,2.2088
22742,22.346,1.7273,0.1,3.9498e-05,394.71,3.738e-05,345.69,-8.6343e-06,-0.043991,-1.9856e-05,-84.36,2.2231
22743,22.07,1.6364,0.1,4.4501e-05,444.71,4.2792e-05,403.36,-1.0896e-05,-0.035011,-2.0675e-05,-73.508,2.1803
22744,22.162,1.7273,0.1,4.292e-05,428.91,4.1045e-05,384.28,-1.0105e-05,-0.038746,-2.0535e-05,-78.405,2.1946
22745,21.886,1.6364,0.1,4.8041e-05,480.08,4.6511e-05,442.23,-1.235e-05,-0.031198,-2.1441e-05,-68.341,2.1519
22746,21.978,1.7273,0.1,4.6411e-05,463.79,4.474e-05,423.03,-1.1567e-05,-0.034487,-2.126e-05,-72.867,2.1662
22747,21.703,1.6364,0.1,5.1636e-05,516,5.026e-05,481.28,-1.3798e-05,-0.028026,-2.225e-05,-63.528,2.1235
22748,21.794,1.7273,0.1,4.9962e-05,499.28,4.8465e-05,461.96,-1.3022e-05,-0.030967,-2.2029e-05,-67.706,2.1378
22749,21.519,1.6364,0.1,5.528e-05,552.42,5.4038e-05,520.52,-1.5242e-05,-0.025351,-2.3096e-05,-59.033,2.0951
22750,21.611,1.7273,0.1,5.3566e-05,535.3,5.2218e-05,501.06,-1.4473e-05,-0.028006,-2.2839e-05,-62.888,2.1094
22751,21.335,1.6364,0.1,5.8968e-05,589.28,5.7844e-05,559.94,-1.6683e-05,-0.023073,-2.3976e-05,-54.824,2.0668
22752,21.427,1.7273,0.1,5.7218e-05,571.79,5.6001e-05,540.35,-1.5919e-05,-0.025489,-2.3685e-05,-58.378,2.081
22753,21.151,1.6364,0.1,6.2697e-05,626.54,6.1676e-05,599.54,-1.8121e-05,-0.021114,-2.4888e-05,-50.869,2.0385
22754,21.243,1.7273,0.1,6.0913e-05,608.71,5.981e-05,579.82,-1.7361e-05,-0.02333,-2.4565e-05,-54.145,2.0527
22755,20.967,1.6364,0.1,6.6463e-05,664.17,6.5535e-05,639.34,-1.9558e-05,-0.019418,-2.5829e-05,-47.141,2.0103
22756,21.059,1.7273,0.1,6.4647e-05,646.03,6.3647e-05,619.47,-1.8802e-05,-0.02146,-2.5476e-05,-50.161,2.0244
22757,20.784,1.6364,0.1,7.0264e-05,702.15,6.942e-05,679.32,-2.0994e-05,-0.017938,-2.6797e-05,-43.616,1.982
22758,20.875,1.7273,0.1,6.8418e-05,683.71,6.751e-05,659.32,-2.0242e-05,-0.019834,-2.6415e-05,-46.4,1.9962
22759,20.6,1.6364,0.1,7.4097e-05,740.45,7.3329e-05,719.49,-2.2431e-05,-0.016623,-2.7789e-05,-40.27,1.9539
22760,20.692,1.7273,0.1,7.2223e-05,721.74,7.1399e-05,699.35,-2.1682e-05,-0.0184,-2.7381e-05,-42.837,1.968
22761,20.416,1.6364,0.1,7.796e-05,779.06,7.7263e-05,759.85,-2.3869e-05,-0.015444,-2.8803e-05,-37.081,1.9258
22762,20.508,1.7273,0.1,7.6061e-05,760.08,7.5312e-05,739.58,-2.3122e-05,-0.017109,-2.837e-05,-39.448,1.9399
22763,20.232,1.6364,0.1,8.1852e-05,817.95,8.122e-05,800.4,-2.5309e-05,-0.014385,-2.9836e-05,-34.03,1.8977
22764,20.324,1.7273,0.1,7.9928e-05,798.73,7.925e-05,780,-2.4563e-05,-0.015952,-2.9381e-05,-36.214,1.9118
22765,20.048,1.6364,0.1,8.5771e-05,857.12,8.52e-05,841.14,-2.6751e-05,-0.013427,-3.0888e-05,-31.098,1.8697
22766,20.14,1.7273,0.1,8.3824e-05,837.66,8.3212e-05,820.61,-2.6007e-05,-0.014907,-3.0412e-05,-33.114,1.8838
22767,19.865,1.6364,0.1,8.9717e-05,896.55,8.9202e-05,882.07,-2.8196e-05,-0.012559,-3.1957e-05,-28.266,1.8418
22768,19.956,1.7273,0.1,8.7748e-05,876.87,8.7196e-05,861.41,-2.7453e-05,-0.013957,-3.1461e-05,-30.129,1.8558
22769,19.681,1.6364,0.1,9.3687e-05,936.22,9.3227e-05,923.2,-2.9645e-05,-0.011764,-3.304e-05,-25.518,1.8139
22770,19.773,1.7273,0.1,9.1697e-05,916.34,9.1203e-05,902.41,-2.8902e-05,-0.013096,-3.2525e-05,-27.24,1.8279
22771,19.497,1.6364,0.1,9.7681e-05,976.14,9.7272e-05,964.51,-3.1098e-05,-0.011007,-3.4136e-05,-22.838,1.786
22772,19.589,1.7273,0.1,9.5671e-05,956.05,9.5232e-05,943.59,-3.0355e-05,-0.012295,-3.3604e-05,-24.43,1.8
22773,19.313,1.6364,0.1,0.0001017,1016.3,0.00010134,1006,-3.2555e-05,-0.010274,-3.5243e-05,-20.208,1.7583
22774,19.405,1.7273,0.1,9.9669e-05,996,9.9282e-05,984.98,-3.1812e-05,-0.011517,-3.4696e-05,-21.683,1.7722
22775,19.129,1.6364,0.1,0.00010574,1056.6,0.00010543,1047.7,-3.4018e-05,-0.0095558,-3.6361e-05,-17.616,1.7306
22776,19.221,1.7273,0.1,0.00010369,1036.2,0.00010335,1026.6,-3.3274e-05,-0.010766,-3.5799e-05,-18.982,1.7445
22777,18.946,1.6364,0.1,0.0001098,1097.2,0.00010953,1089.6,-3.5486e-05,-0.0088265,-3.7487e-05,-15.044,1.703
22778,19.038,1.7273,0.1,0.00010773,1076.6,0.00010744,1068.3,-3.4741e-05,-0.01002,-3.6911e-05,-16.311,1.7169
22779,18.762,1.6364,0.1,0.00011388,1138,0.00011366,1131.7,-3.696e-05,-0.0080488,-3.862e-05,-12.478,1.6754
22780,18.854,1.7273,0.1,0.00011179,1117.2,0.00011156,1110.3,-3.6215e-05,-0.0092474,-3.8031e-05,-13.654,1.6893
22781,18.578,1.6364,0.1,0.00011798,1179,0.00011781,1174,-3.8441e-05,-0.0071326,-3.9759e-05,-9.905,1.648
22782,18.67,1.7273,0.1,0.00011588,1158,0.00011569,1152.4,-3.7694e-05,-0.0083996,-3.9157e-05,-10.997,1.6618
22783,18.394,1.6364,0.1,0.0001221,1220.1,0.00012197,1216.4,-3.9929e-05,-0.0058452,-4.0901e-05,-7.3094,1.6206
22784,18.486,1.7273,0.1,0.00011998,1199,0.00011984,1194.8,-3.9181e-05,-0.0073135,-4.0288e-05,-8.3229,1.6343
22785,18.21,1.6364,0.1,0.00012623,1261.4,0.00012615,1259.1,-4.1425e-05,-0.0034958,-4.2047e-05,-4.6778,1.5933
22786,18.302,1.7273,0.1,0.0001241,1240.1,0.000124,1237.3,-4.0675e-05,-0.005554,-4.1422e-05,-5.6178,1.607
22787,18.027,1.6364,0.1,0.00013039,1303,0.00013035,1302,-4.2928e-05,0.0043668,-4.3195e-05,-2.0007,1.566
22788,18.119,1.7273,0.1,0.00012824,1281.5,0.00012819,1280.1,-4.2176e-05,-0.0011192,-4.2558e-05,-2.8683,1.5797
22789,17.843,1.6364,0.1,0.00013456,1344.6,0.00013457,1345,-4.4335e-05,0.79537,-4.4446e-05,-0.041411,1.5389
22790,17.935,1.7273,0.1,0.00013239,1323,0.00013239,1323,-4.367e-05,0.12903,-4.3711e-05,-0.18214,1.5526
22791,17.659,1.6364,0.1,0.00013874,1386.5,0.0001388,1388.2,-4.5483e-05,3.5994,-4.5964e-05,-0.015757,1.5118
22792,17.751,1.7273,0.1,0.00013656,1364.7,0.00013661,1366.1,-4.4826e-05,2.8583,-4.5209e-05,-0.017268,1.5255
22793,17.475,1.6364,0.1,0.00014294,1428.4,0.00014305,1431.7,-4.6626e-05,6.519,-4.7495e-05,-0.012364,1.4849
22794,17.567,1.7273,0.1,0.00014075,1406.5,0.00014085,1409.4,-4.5958e-05,5.841,-4.6738e-05,-0.012826,1.4985
22795,17.291,1.6364,0.1,0.00014716,1470.6,0.00014732,1475.3,-4.7764e-05,9.5479,-4.9036e-05,-0.010988,1.458
22796,17.383,1.7273,0.1,0.00014495,1448.5,0.0001451,1452.9,-4.7086e-05,8.9353,-4.8277e-05,-0.01126,1.4716
22797,17.108,1.6364,0.1,0.00015139,1512.9,0.0001516,1519.2,-4.8896e-05,12.698,-5.0587e-05,-0.010248,1.4313
22798,17.2,1.7273,0.1,0.00014917,1490.6,0.00014937,1496.7,-4.8208e-05,12.154,-4.9827e-05,-0.010418,1.4448
22799,16.924,1.6364,0.1,0.00015564,1555.3,0.0001559,1563.2,-5.0022e-05,15.983,-5.215e-05,-0.0098311,1.4046
22800,17.016,1.7273,0.1,0.0001534,1532.9,0.00015365,1540.6,-4.9322e-05,15.513,-5.1388e-05,-0.0099121,1.4181
22801,16.74,1.6364,0.1,0.00015989,1597.8,0.00016022,1607.5,-5.114e-05,19.415,-5.3725e-05,-0.0096294,1.3781
22802,16.832,1.7273,0.1,0.00015764,1575.3,0.00015795,1584.7,-5.0428e-05,19.027,-5.2961e-05,-0.0096163,1.3915
22803,16.556,1.6364,0.1,0.00016417,1640.5,0.00016455,1651.9,-5.2248e-05,23.006,-5.5312e-05,-0.009617,1.3516
22804,16.648,1.7273,0.1,0.00016189,1617.8,0.00016227,1629.1,-5.1523e-05,22.71,-5.4547e-05,-0.0094834,1.365
22805,16.372,1.6364,0.1,0.00016845,1683.4,0.00016889,1696.6,-5.3347e-05,26.767,-5.6911e-05,-0.0097811,1.3253
22806,16.464,1.7273,0.1,0.00016616,1660.5,0.0001666,1673.6,-5.2608e-05,26.578,-5.6146e-05,-0.0095249,1.3386
22807,16.189,1.6364,0.1,0.00017275,1726.4,0.00017326,1741.5,-5.4436e-05,30.707,-5.8524e-05,-0.010101,1.2991
22808,16.281,1.7273,0.1,0.00017045,1703.3,0.00017095,1718.4,-5.368e-05,30.644,-5.776e-05,-0.0097133,1.3123
22809,16.005,1.6364,0.1,0.00017707,1769.5,0.00017764,1786.6,-5.5513e-05,34.836,-6.0151e-05,-0.010607,1.273
22810,16.097,1.7273,0.1,0.00017475,1746.3,0.00017532,1763.5,-5.474e-05,34.921,-5.9389e-05,-0.010038,1.2861
22811,15.821,1.6364,0.1,0.0001814,1812.8,0.00018204,1832,-5.658e-05,39.159,-6.1793e-05,-0.011361,1.247
22812,15.913,1.7273,0.1,0.00017906,1789.4,0.0001797,1808.8,-5.5785e-05,39.42,-6.1033e-05,-0.010566,1.2601
22813,15.637,1.6364,0.1,0.00018575,1856.2,0.00018646,1877.7,-5.7635e-05,43.679,-6.345e-05,-0.012424,1.2211
22814,15.729,1.7273,0.1,0.00018339,1832.7,0.0001841,1854.3,-5.6817e-05,44.152,-6.2695e-05,-0.01135,1.2342
22815,15.453,1.6364,0.1,0.00019012,1899.9,0.0001909,1923.6,-5.868e-05,48.397,-6.5123e-05,-0.01389,1.1954
22816,15.545,1.7273,0.1,0.00018774,1876.2,0.00018853,1900.2,-5.7835e-05,49.123,-6.4374e-05,-0.012456,1.2084
22817,15.27,1.6364,0.1,0.00019451,1943.8,0.00019537,1969.9,-5.9716e-05,53.307,-6.6813e-05,-0.015859,1.1698
22818,15.362,1.7273,0.1,0.00019212,1919.9,0.00019299,1946.5,-5.8839e-05,54.338,-6.6073e-05,-0.013996,1.1827
22819,15.086,1.6364,0.1,0.00019893,1987.9,0.00019986,2016.5,-6.0745e-05,58.401,-6.852e-05,-0.018437,1.1443
22820,15.178,1.7273,0.1,0.00019652,1963.8,0.00019747,1993.1,-5.9832e-05,59.798,-6.7793e-05,-0.016044,1.1572
22821,14.902,1.6364,0.1,0.00020338,2032.4,0.00020439,2063.5,-6.177e-05,63.663,-7.0246e-05,-0.021817,1.119
22822,14.994,1.7273,0.1,0.00020095,2008.2,0.00020199,2040.1,-6.0815e-05,65.498,-6.9534e-05,-0.018719,1.1318
22823,14.718,1.6364,0.1,0.00020786,2077.2,0.00020895,2110.9,-6.2794e-05,69.072,-7.199e-05,-0.026277,1.0938
22824,14.81,1.7273,0.1,0.00020543,2052.9,0.00020655,2087.6,-6.1791e-05,71.428,-7.13e-05,-0.022261,1.1065
22825,14.534,1.6364,0.1,0.00021239,2122.5,0.00021356,2158.8,-6.3822e-05,74.596,-7.3755e-05,-0.032164,1.0688
22826,14.626,1.7273,0.1,0.00020995,2098,0.00021116,2135.7,-6.2765e-05,77.572,-7.3093e-05,-0.026942,1.0814
22827,14.351,1.6364,0.1,0.00021697,2168.2,0.00021822,2207.2,-6.4861e-05,80.192,-7.554e-05,-0.039955,1.0438
22828,14.443,1.7273,0.1,0.00021453,2143.8,0.00021583,2184.5,-6.3742e-05,83.902,-7.4913e-05,-0.033123,1.0564
22829,14.167,1.6364,0.1,0.00022161,2214.6,0.00022295,2256.2,-6.5919e-05,85.808,-7.7346e-05,-0.050273,1.0191
22830,14.259,1.7273,0.1,0.00021919,2190.4,0.00022058,2234.1,-6.4731e-05,90.381,-7.6766e-05,-0.041308,1.0316
22831,13.983,1.6364,0.1,0.00022633,2261.8,0.00022775,2306,-6.7006e-05,91.373,-7.9176e-05,-0.063939,0.99447
22832,14.075,1.7273,0.1,0.00022393,2237.8,0.00022542,2284.7,-6.5742e-05,96.956,-7.8653e-05,-0.052096,1.0069
22833,13.799,1.6364,0.1,0.00023114,2309.9,0.00023264,2356.7,-6.8135e-05,96.795,-8.1029e-05,-0.082153,0.97001
22834,13.891,1.7273,0.1,0.0002288,2286.4,0.00023038,2336.4,-6.6788e-05,103.56,-8.0579e-05,-0.066318,0.98237
22835,13.616,1.6364,0.1,0.00023607,2359.1,0.00023764,2408.3,-6.9324e-05,101.95,-8.2907e-05,-0.10663,0.9457
22836,13.707,1.7273,0.1,0.0002338,2336.4,0.00023548,2389.4,-6.7886e-05,110.09,-8.255e-05,-0.085211,0.95799
22837,13.432,1.6364,0.1,0.00024113,2409.6,0.00024277,2461.1,-7.0593e-05,106.69,-8.4811e-05,-0.13981,0.92156
22838,13.524,1.7273,0.1,0.00023898,2388.2,0.00024075,2444.2,-6.906e-05,116.41,-8.4569e-05,-0.11044,0.93377
22839,13.248,1.6364,0.1,0.00024637,2462,0.00024806,2515.4,-7.1975e-05,110.76,-8.6741e-05,-0.18532,0.89758
22840,13.34,1.7273,0.1,0.00024439,2442.2,0.00024624,2501,-7.0342e-05,122.35,-8.6644e-05,-0.14436,0.90971
22841,13.064,1.6364,0.1,0.00025183,2516.5,0.00025356,2571.4,-7.3514e-05,113.84,-8.8698e-05,-0.24884,0.87377
22842,13.156,1.7273,0.1,0.00025008,2499.1,0.000252,2560.3,-7.1774e-05,127.61,-8.8783e-05,-0.19048,0.88581
22843,12.88,1.6364,0.1,0.00025757,2574,0.00025934,2629.6,-7.5274e-05,115.42,-9.0681e-05,-0.33973,0.85013
22844,12.972,1.7273,0.1,0.00025615,2559.7,0.00025813,2622.9,-7.3419e-05,131.79,-9.0994e-05,-0.25414,0.86209
22845,12.697,1.6364,0.1,0.00026372,2635.4,0.00026547,2690.6,-7.7359e-05,114.68,-9.2685e-05,-0.47547,0.82666
22846,12.788,1.7273,0.1,0.0002627,2625.2,0.00026472,2689.6,-7.537e-05,134.27,-9.3286e-05,-0.34416,0.83854
22847,12.513,1.6364,0.1,0.00027042,2702.3,0.00027211,2755.4,-7.9932e-05,110.3,-9.4704e-05,-0.69175,0.80338
22848,12.605,1.7273,0.1,0.00026992,2697.4,0.00027194,2761.6,-7.7769e-05,134.03,-9.5671e-05,-0.4775,0.81517
22849,12.329,1.6364,0.1,0.00027794,2777.5,0.00027949,2825.6,-8.3255e-05,100.13,-9.6725e-05,-1.0803,0.78027
22850,12.421,1.7273,0.1,0.00027807,2778.8,0.00028003,2840.9,-8.0836e-05,129.47,-9.8158e-05,-0.68715,0.79199
22851,12.145,1.6364,0.1,0.00028671,2865.1,0.00028796,2903.6,-8.7748e-05,80.661,-9.874e-05,-1.9297,0.75735
22852,12.237,1.7273,0.1,0.00028755,2873.5,0.00028935,2930.1,-8.4922e-05,117.95,-0.00010076,-1.066,0.76899
22853,11.961,1.6364,0.1,0.00029742,2972.2,0.00029811,2992.9,-9.3964e-05,47.015,-0.00010088,-4.9704,0.73462
22854,12.053,1.7273,0.1,0.00029901,2988,0.00030048,3033.5,-9.0585e-05,95.199,-0.00010351,-1.8798,0.74618
22855,11.778,1.6364,0.1,0.00031125,3110.4,0.00031085,3099,-0.00010012,11.125,-0.00010604,-33.359,0.71209
22856,11.869,1.7273,0.1,0.0003135,3132.8,0.00031431,3157.5,-9.8595e-05,55.08,-0.00010658,-4.9145,0.72357
22857,11.594,1.6364,0.1,0.00033025,3300.2,0.00032769,3229.7,-0.00010158,4.3167,-0.00012086,-140.55,0.68975
22858,11.686,1.7273,0.1,0.00033276,3325.3,0.00033229,3312.1,-0.00010698,11.6,-0.0001135,-37.345,0.70116
22859,11.41,1.6364,0.1,0.00035749,3572.5,0.00035055,3392.8,-0.0001002,6.0315,-0.00014628,-340.24,0.6676
22860,11.502,1.7273,0.1,0.00035996,3597.2,0.0003569,3513,-0.00011012,4.0173,-0.00013278,-166.24,0.67896
22861,11.226,1.6364,0.1,0.00039921,3989.4,0.00038235,3587.6,-9.4549e-05,4.4214,-0.00018978,-711.08,0.64565
22862,11.318,1.7273,0.1,0.0004002,3999.2,0.00039178,3783.3,-0.00011068,8.0075,-0.00016598,-407.51,0.65697
22863,11.042,1.6364,0.1,0.00047109,4707.6,0.00042877,3800.3,-7.7484e-05,-3.5247,-0.00027194,-1464.6,0.62389
22864,11.134,1.7273,0.1,0.00046978,4694.5,0.00044729,4165,-0.00010751,-3.6058,-0.00022951,-920.28,0.63519
22865,10.95,1.7273,0.1,0.00061998,6195.5,0.00055504,4862.7,-8.4531e-05,57.161,-0.00037558,-2129.7,0.61361
22866,10.859,1.6364,0.1,0.00042517,4248.7,0.000374,3182.4,-5.6566e-05,-52.731,-0.00026639,-1629.2,0.60225
22867,23.724,1.8182,0.1,1.86e-05,185.87,1.0828e-05,58.84,2.9691e-06,-0.2094,-1.6885e-05,-149.38,2.4373
22868,23.816,1.9091,0.1,1.8061e-05,180.49,9.1748e-06,39.678,3.869e-06,-0.18776,-1.7056e-05,-157.41,2.4517
22869,23.908,1.8182,0.1,1.7156e-05,171.44,7.5141e-06,22.37,4.4798e-06,-0.42792,-1.6668e-05,-159.33,2.4659
22870,23.541,1.8182,0.1,2.06e-05,205.85,1.4337e-05,97.246,1.365e-06,-0.21779,-1.7138e-05,-139.24,2.4087
22871,23.632,1.9091,0.1,1.9809e-05,197.95,1.2683e-05,78.111,2.2441e-06,-0.31959,-1.7283e-05,-147.04,2.4231
22872,23.357,1.8182,0.1,2.2985e-05,229.69,1.7851e-05,135.57,-2.0875e-07,-0.12355,-1.7444e-05,-129.62,2.3801
22873,23.449,1.9091,0.1,2.2003e-05,219.88,1.6195e-05,116.57,6.6302e-07,-0.13668,-1.756e-05,-137.06,2.3945
22874,23.173,1.8182,0.1,2.5653e-05,256.35,2.1378e-05,173.8,-1.7666e-06,-0.10134,-1.7805e-05,-120.61,2.3515
22875,23.265,1.9091,0.1,2.4526e-05,245.09,1.9719e-05,154.88,-9.1006e-07,-0.11973,-1.7888e-05,-127.68,2.3659
22876,22.989,1.8182,0.1,2.8533e-05,285.14,2.492e-05,211.99,-3.3044e-06,-0.079185,-1.8222e-05,-112.16,2.323
22877,23.081,1.9091,0.1,2.7292e-05,272.73,2.3254e-05,193.12,-2.4614e-06,-0.088739,-1.8268e-05,-118.86,2.3373
22878,22.805,1.8182,0.1,3.1577e-05,315.55,2.8483e-05,250.2,-4.8252e-06,-0.066149,-1.8695e-05,-104.28,2.2944
22879,22.897,1.9091,0.1,3.0244e-05,302.23,2.6805e-05,231.35,-3.9953e-06,-0.073932,-1.8703e-05,-110.58,2.3087
22880,22.622,1.8182,0.1,3.4749e-05,347.25,3.207e-05,288.47,-6.3306e-06,-0.056076,-1.9224e-05,-96.934,2.2659
22881,22.713,1.9091,0.1,3.334e-05,333.17,3.0377e-05,269.6,-5.5129e-06,-0.061916,-1.9193e-05,-102.85,2.2802
22882,22.438,1.8182,0.1,3.8026e-05,380,3.5684e-05,326.84,-7.823e-06,-0.048569,-1.9807e-05,-90.094,2.2374
22883,22.53,1.9091,0.1,3.6551e-05,365.26,3.3973e-05,307.92,-7.0162e-06,-0.053356,-1.9735e-05,-95.62,2.2517
22884,22.254,1.8182,0.1,4.1391e-05,413.63,3.9326e-05,365.34,-9.304e-06,-0.042636,-2.0442e-05,-83.728,2.2089
22885,22.346,1.9091,0.1,3.9859e-05,398.31,3.7596e-05,346.35,-8.5072e-06,-0.04663,-2.033e-05,-88.877,2.2232
22886,22.07,1.8182,0.1,4.4831e-05,448,4.2997e-05,403.99,-1.0776e-05,-0.037875,-2.1125e-05,-77.797,2.1804
22887,22.162,1.9091,0.1,4.3247e-05,432.17,4.1246e-05,384.91,-9.9877e-06,-0.041301,-2.0973e-05,-82.584,2.1947
22888,21.886,1.8182,0.1,4.8335e-05,483.02,4.6698e-05,442.8,-1.2239e-05,-0.033965,-2.1853e-05,-72.267,2.152
22889,21.978,1.9091,0.1,4.6705e-05,466.73,4.4925e-05,423.61,-1.1459e-05,-0.036963,-2.1664e-05,-76.71,2.1663
22890,21.703,1.8182,0.1,5.1896e-05,518.6,5.0428e-05,481.77,-1.3697e-05,-0.030698,-2.2623e-05,-67.102,2.1236
22891,21.794,1.9091,0.1,5.0224e-05,501.9,4.8632e-05,462.47,-1.2924e-05,-0.033366,-2.2398e-05,-71.22,2.1379
22892,21.519,1.8182,0.1,5.5508e-05,554.7,5.4186e-05,520.93,-1.5149e-05,-0.027927,-2.3433e-05,-62.268,2.0952
22893,21.611,1.9091,0.1,5.3798e-05,537.61,5.2368e-05,501.5,-1.4382e-05,-0.030326,-2.3173e-05,-66.082,2.1095
22894,21.335,1.8182,0.1,5.9167e-05,591.26,5.7972e-05,560.26,-1.6597e-05,-0.025555,-2.4278e-05,-57.736,2.0669
22895,21.427,1.9091,0.1,5.7421e-05,573.81,5.6132e-05,540.71,-1.5835e-05,-0.027733,-2.3986e-05,-61.265,2.0811
22896,21.151,1.8182,0.1,6.2867e-05,628.24,6.1786e-05,599.78,-1.8043e-05,-0.023505,-2.5157e-05,-53.474,2.0386
22897,21.243,1.9091,0.1,6.1088e-05,610.46,5.9925e-05,580.1,-1.7285e-05,-0.025498,-2.4834e-05,-56.74,2.0528
22898,20.967,1.8182,0.1,6.6607e-05,665.61,6.5627e-05,639.49,-1.9487e-05,-0.021721,-2.6066e-05,-49.457,2.0104
22899,21.059,1.9091,0.1,6.4797e-05,647.52,6.3744e-05,619.68,-1.8733e-05,-0.023553,-2.5714e-05,-52.478,2.0246
22900,20.784,1.8182,0.1,7.0383e-05,703.34,6.9494e-05,679.39,-2.093e-05,-0.020155,-2.7004e-05,-45.657,1.9822
22901,20.875,1.9091,0.1,6.8544e-05,684.97,6.7591e-05,659.45,-2.0179e-05,-0.021853,-2.6625e-05,-48.453,1.9963
22902,20.6,1.8182,0.1,7.4192e-05,741.41,7.3387e-05,719.48,-2.2373e-05,-0.018759,-2.7967e-05,-42.051,1.954
22903,20.692,1.9091,0.1,7.2327e-05,722.77,7.1464e-05,699.4,-2.1624e-05,-0.020348,-2.7563e-05,-44.64,1.9681
22904,20.416,1.8182,0.1,7.8034e-05,779.8,7.7305e-05,759.77,-2.3816e-05,-0.017502,-2.8953e-05,-38.617,1.9259
22905,20.508,1.9091,0.1,7.6143e-05,760.9,7.5362e-05,739.56,-2.307e-05,-0.018991,-2.8526e-05,-41.015,1.94
22906,20.232,1.8182,0.1,8.1905e-05,818.49,8.1247e-05,800.24,-2.5261e-05,-0.016369,-2.9961e-05,-35.334,1.8979
22907,20.324,1.9091,0.1,7.999e-05,799.35,7.9285e-05,779.9,-2.4516e-05,-0.017768,-2.9512e-05,-37.557,1.9119
22908,20.048,1.8182,0.1,8.5806e-05,857.46,8.5213e-05,840.91,-2.6708e-05,-0.015341,-3.0989e-05,-32.18,1.8699
22909,20.14,1.9091,0.1,8.3868e-05,838.1,8.3233e-05,820.45,-2.5964e-05,-0.016663,-3.052e-05,-34.243,1.8839
22910,19.865,1.8182,0.1,8.9733e-05,896.71,8.9201e-05,881.78,-2.8158e-05,-0.014407,-3.2034e-05,-29.137,1.8419
22911,19.956,1.9091,0.1,8.7774e-05,877.13,8.7204e-05,861.18,-2.7415e-05,-0.015655,-3.1546e-05,-31.055,1.8559
22912,19.681,1.8182,0.1,9.3686e-05,936.21,9.3213e-05,922.84,-2.9611e-05,-0.01355,-3.3095e-05,-26.186,1.814
22913,19.773,1.9091,0.1,9.1706e-05,916.43,9.1198e-05,902.12,-2.8868e-05,-0.014742,-3.2589e-05,-27.971,1.828
22914,19.497,1.8182,0.1,9.7664e-05,975.96,9.7246e-05,964.09,-3.1069e-05,-0.012737,-3.4169e-05,-23.309,1.7862
22915,19.589,1.9091,0.1,9.5665e-05,955.99,9.5215e-05,943.25,-3.0325e-05,-0.013892,-3.3647e-05,-24.974,1.8002
22916,19.313,1.8182,0.1,0.00010166,1015.9,0.0001013,1005.5,-3.253e-05,-0.011952,-3.5256e-05,-20.489,1.7584
22917,19.405,1.9091,0.1,9.9647e-05,995.78,9.9254e-05,984.57,-3.1787e-05,-0.01307,-3.4719e-05,-22.045,1.7724
22918,19.129,1.8182,0.1,0.00010569,1056.2,0.00010538,1047.2,-3.3997e-05,-0.011188,-3.6353e-05,-17.709,1.7308
22919,19.221,1.9091,0.1,0.00010365,1035.8,0.00010331,1026.1,-3.3253e-05,-0.012282,-3.5802e-05,-19.167,1.7447
22920,18.946,1.8182,0.1,0.00010973,1096.6,0.00010947,1089,-3.547e-05,-0.010419,-3.7458e-05,-14.952,1.7031
22921,19.038,1.9091,0.1,0.00010768,1076.1,0.00010739,1067.8,-3.4724e-05,-0.011506,-3.6895e-05,-16.321,1.717
22922,18.762,1.8182,0.1,0.0001138,1137.2,0.00011359,1131.1,-3.6949e-05,-0.009609,-3.8571e-05,-12.203,1.6756
22923,18.854,1.9091,0.1,0.00011173,1116.5,0.00011149,1109.7,-3.6202e-05,-0.010713,-3.7996e-05,-13.49,1.6894
22924,18.578,1.8182,0.1,0.00011788,1178,0.00011772,1173.3,-3.8434e-05,-0.0086618,-3.969e-05,-9.4437,1.6481
22925,18.67,1.9091,0.1,0.0001158,1157.2,0.00011561,1151.8,-3.7685e-05,-0.0098566,-3.9103e-05,-10.658,1.6619
22926,18.394,1.8182,0.1,0.00012199,1219,0.00012187,1215.7,-3.9927e-05,-0.0073082,-4.0812e-05,-6.6592,1.6207
22927,18.486,1.9091,0.1,0.00011989,1198.1,0.00011975,1194.1,-3.9176e-05,-0.0087661,-4.0214e-05,-7.808,1.6345
22928,18.21,1.8182,0.1,0.00012611,1260.2,0.00012604,1258.3,-4.1427e-05,-0.0045679,-4.1936e-05,-3.8341,1.5934
22929,18.302,1.9091,0.1,0.00012399,1239.1,0.00012391,1236.6,-4.0675e-05,-0.0069263,-4.1329e-05,-4.9225,1.6072
22930,18.027,1.8182,0.1,0.00013025,1301.6,0.00013023,1301.1,-4.2933e-05,0.012404,-4.3063e-05,-0.96483,1.5662
22931,18.119,1.9091,0.1,0.00012812,1280.3,0.00012808,1279.3,-4.2181e-05,-0.00091236,-4.2445e-05,-1.9881,1.5799
22932,17.843,1.8182,0.1,0.0001344,1343.1,0.00013444,1344.1,-4.4183e-05,2.0285,-4.4456e-05,-0.019817,1.5391
22933,17.935,1.9091,0.1,0.00013226,1321.7,0.00013228,1322.2,-4.3556e-05,1.0496,-4.37e-05,-0.027458,1.5527
22934,17.659,1.8182,0.1,0.00013858,1384.8,0.00013866,1387.3,-4.5305e-05,5.0747,-4.5982e-05,-0.013335,1.5121
22935,17.751,1.9091,0.1,0.00013642,1363.2,0.00013649,1365.3,-4.4671e-05,4.1355,-4.5223e-05,-0.014083,1.5257
22936,17.475,1.8182,0.1,0.00014276,1426.6,0.0001429,1430.7,-4.6422e-05,8.2339,-4.7519e-05,-0.011526,1.4851
22937,17.567,1.9091,0.1,0.00014059,1404.9,0.00014071,1408.5,-4.5779e-05,7.3389,-4.6758e-05,-0.01186,1.4987
22938,17.291,1.8182,0.1,0.00014696,1468.6,0.00014715,1474.3,-4.7533e-05,11.519,-4.9067e-05,-0.010607,1.4583
22939,17.383,1.9091,0.1,0.00014477,1446.7,0.00014495,1452,-4.6882e-05,10.668,-4.8303e-05,-0.010837,1.4718
22940,17.108,1.8182,0.1,0.00015117,1510.7,0.00015142,1518.1,-4.8636e-05,14.948,-5.0627e-05,-0.010032,1.4315
22941,17.2,1.9091,0.1,0.00014897,1488.7,0.00014921,1495.7,-4.7977e-05,14.142,-4.986e-05,-0.010186,1.445
22942,16.924,1.8182,0.1,0.0001554,1552.9,0.00015571,1562.1,-4.973e-05,18.537,-5.2199e-05,-0.0096614,1.4049
22943,17.016,1.9091,0.1,0.00015318,1530.8,0.00015348,1539.6,-4.9062e-05,17.778,-5.143e-05,-0.0097391,1.4183
22944,16.74,1.8182,0.1,0.00015964,1595.3,0.00016001,1606.3,-5.0814e-05,22.303,-5.3783e-05,-0.0094433,1.3783
22945,16.832,1.9091,0.1,0.00015741,1573,0.00015777,1583.7,-5.0136e-05,21.596,-5.3012e-05,-0.0094364,1.3917
22946,16.556,1.8182,0.1,0.0001639,1637.8,0.00016433,1650.8,-5.1885e-05,26.265,-5.5382e-05,-0.0093717,1.3519
22947,16.648,1.9091,0.1,0.00016165,1615.4,0.00016207,1628,-5.1198e-05,25.617,-5.4609e-05,-0.0092555,1.3652
22948,16.372,1.8182,0.1,0.00016816,1680.5,0.00016866,1695.5,-5.2943e-05,30.439,-5.6995e-05,-0.0094448,1.3255
22949,16.464,1.9091,0.1,0.0001659,1657.9,0.00016639,1672.6,-5.2245e-05,29.861,-5.622e-05,-0.0092151,1.3388
22950,16.189,1.8182,0.1,0.00017244,1723.2,0.00017301,1740.4,-5.3986e-05,34.842,-5.8624e-05,-0.009645,1.2993
22951,16.281,1.9091,0.1,0.00017016,1700.5,0.00017072,1717.4,-5.3275e-05,34.347,-5.7848e-05,-0.0092946,1.3125
22952,16.005,1.8182,0.1,0.00017674,1766.2,0.00017738,1785.6,-5.5013e-05,39.49,-6.027e-05,-0.010001,1.2732
22953,16.097,1.9091,0.1,0.00017444,1743.2,0.00017508,1762.5,-5.4288e-05,39.097,-5.9493e-05,-0.0094806,1.2864
22954,15.821,1.8182,0.1,0.00018105,1809.3,0.00018177,1831.1,-5.6024e-05,44.399,-6.1935e-05,-0.01057,1.2473
22955,15.913,1.9091,0.1,0.00017874,1786.2,0.00017945,1807.8,-5.5283e-05,44.13,-6.1158e-05,-0.0098396,1.2603
22956,15.637,1.8182,0.1,0.00018539,1852.6,0.00018618,1876.9,-5.7018e-05,49.582,-6.3619e-05,-0.011411,1.2214
22957,15.729,1.9091,0.1,0.00018305,1829.3,0.00018385,1853.5,-5.6258e-05,49.467,-6.2843e-05,-0.010419,1.2344
22958,15.453,1.8182,0.1,0.00018974,1896.1,0.00019062,1923.1,-5.7995e-05,55.052,-6.5324e-05,-0.012608,1.1957
22959,15.545,1.9091,0.1,0.00018739,1872.6,0.00018827,1899.6,-5.7212e-05,55.125,-6.4551e-05,-0.011279,1.2086
22960,15.27,1.8182,0.1,0.00019413,1939.9,0.00019509,1969.6,-5.8956e-05,60.817,-6.7052e-05,-0.01425,1.1701
22961,15.362,1.9091,0.1,0.00019175,1916.2,0.00019272,1946,-5.8147e-05,61.121,-6.6284e-05,-0.012519,1.183
22962,15.086,1.8182,0.1,0.00019855,1984.1,0.0001996,2016.7,-5.9903e-05,66.883,-6.8807e-05,-0.016425,1.1446
22963,15.178,1.9091,0.1,0.00019615,1960.2,0.00019721,1993,-5.9063e-05,67.47,-6.8044e-05,-0.014202,1.1574
22964,14.902,1.8182,0.1,0.00020301,2028.7,0.00020415,2064.3,-6.0837e-05,73.251,-7.0589e-05,-0.019301,1.1193
22965,14.994,1.9091,0.1,0.00020059,2004.5,0.00020175,2040.6,-5.9961e-05,74.185,-6.9836e-05,-0.016428,1.1321
22966,14.718,1.8182,0.1,0.00020752,2073.7,0.00020876,2112.5,-6.1763e-05,79.916,-7.2403e-05,-0.023119,1.0941
22967,14.81,1.9091,0.1,0.00020508,2049.4,0.00020634,2088.8,-6.0844e-05,81.27,-7.1663e-05,-0.019407,1.1068
22968,14.534,1.8182,0.1,0.00021209,2119.5,0.00021344,2161.5,-6.2687e-05,86.866,-7.4251e-05,-0.028172,1.069
22969,14.626,1.9091,0.1,0.00020963,2094.9,0.000211,2137.8,-6.1717e-05,88.728,-7.3529e-05,-0.023376,1.0817
22970,14.351,1.8182,0.1,0.00021675,2166,0.0002182,2211.5,-6.3614e-05,94.078,-7.614e-05,-0.034857,1.0441
22971,14.443,1.9091,0.1,0.00021427,2141.2,0.00021575,2187.9,-6.2587e-05,96.55,-7.5441e-05,-0.028638,1.0567
22972,14.167,1.8182,0.1,0.00022151,2213.6,0.00022306,2262.6,-6.4556e-05,101.52,-7.8073e-05,-0.043675,1.0194
22973,14.259,1.9091,0.1,0.00021902,2188.7,0.00022061,2239.1,-6.3462e-05,104.72,-7.7404e-05,-0.035618,1.0319
22974,13.983,1.8182,0.1,0.0002264,2262.4,0.00022806,2315,-6.5525e-05,109.13,-8.0057e-05,-0.055272,0.99475
22975,14.075,1.9091,0.1,0.0002239,2237.5,0.00022561,2291.9,-6.4355e-05,113.2,-7.9427e-05,-0.044794,1.0072
22976,13.799,1.8182,0.1,0.00023145,2312.9,0.00023322,2369.1,-6.654e-05,116.84,-8.21e-05,-0.070523,0.9703
22977,13.891,1.9091,0.1,0.00022896,2288,0.00023079,2346.5,-6.5284e-05,121.93,-8.152e-05,-0.056816,0.98263
22978,13.616,1.8182,0.1,0.00023672,2365.5,0.00023859,2425.3,-6.7624e-05,124.54,-8.4212e-05,-0.090719,0.946
22979,13.707,1.9091,0.1,0.00023424,2340.7,0.00023619,2403.4,-6.6271e-05,130.84,-8.3695e-05,-0.072645,0.95826
22980,13.432,1.8182,0.1,0.00024224,2420.7,0.00024422,2484,-6.8808e-05,132.08,-8.6403e-05,-0.11754,0.92186
22981,13.524,1.9091,0.1,0.0002398,2396.3,0.00024187,2463.1,-6.7347e-05,139.8,-8.5966e-05,-0.09351,0.93404
22982,13.248,1.8182,0.1,0.0002481,2479.3,0.00025018,2545.9,-7.0137e-05,139.22,-8.8686e-05,-0.1534,0.89789
22983,13.34,1.9091,0.1,0.00024573,2455.6,0.00024792,2526.5,-6.8555e-05,148.62,-8.8351e-05,-0.12107,0.90999
22984,13.064,1.8182,0.1,0.0002544,2542.3,0.00025656,2611.8,-7.167e-05,145.63,-9.1079e-05,-0.20179,0.87408
22985,13.156,1.9091,0.1,0.00025213,2519.5,0.00025443,2594.3,-6.9952e-05,157.02,-9.0871e-05,-0.15766,0.8861
22986,12.88,1.8182,0.1,0.00026126,2610.8,0.0002635,2682.8,-7.3495e-05,150.79,-9.3601e-05,-0.26806,0.85045
22987,12.972,1.9091,0.1,0.00025913,2589.6,0.00026154,2667.8,-7.1622e-05,164.59,-9.3554e-05,-0.20658,0.86238
22988,12.697,1.8182,0.1,0.00026888,2686.9,0.00027116,2760.4,-7.5742e-05,153.91,-9.6274e-05,-0.3616,0.827
22989,12.788,1.9091,0.1,0.00026694,2667.6,0.00026943,2748.7,-7.3679e-05,170.69,-9.6433e-05,-0.27267,0.83885
22990,12.513,1.8182,0.1,0.00027751,2773.2,0.0002798,2846.6,-7.8604e-05,153.72,-9.9129e-05,-0.49898,0.80372
22991,12.605,1.9091,0.1,0.00027581,2756.2,0.00027836,2839.1,-7.6295e-05,174.35,-9.9547e-05,-0.36527,0.81549
22992,12.329,1.8182,0.1,0.00028756,2873.7,0.00028978,2944.5,-8.2382e-05,148.19,-0.0001022,-0.72025,0.78064
22993,12.421,1.9091,0.1,0.00028612,2859.3,0.00028868,2942,-7.9722e-05,174.04,-0.00010295,-0.49729,0.79232
22994,12.145,1.8182,0.1,0.00029965,2994.4,0.00030168,3058.6,-8.7554e-05,134.03,-0.00010554,-1.1131,0.75775
22995,12.237,1.9091,0.1,0.00029844,2982.3,0.00030092,3062.1,-8.4346e-05,167.37,-0.00010672,-0.71496,0.76934
22996,11.961,1.8182,0.1,0.00031474,3145.2,0.00031637,3195.7,-9.4872e-05,105.85,-0.00010923,-2.0548,0.73506
22997,12.053,1.9091,0.1,0.0003136,3133.9,0.00031587,3205.8,-9.0768e-05,150.52,-0.00011094,-1.0633,0.74657
22998,11.778,1.8182,0.1,0.00033444,3342.1,0.00033526,3366.9,-0.00010538,56.138,-0.00011362,-5.7736,0.71258
22999,11.869,1.9091,0.1,0.000333,3327.7,0.0003348,3383.7,-9.9931e-05,117.33,-0.00011582,-2.0358,0.724
23000,11.594,1.8182,0.1,0.00036157,3613.2,0.00036074,3589.8,-0.00011575,9.6007,-0.00012443,-55.64,0.69031
23001,11.686,1.9091,0.1,0.00035883,3585.9,0.00035971,3612.5,-0.00011318,59.395,-0.00012178,-5.2543,0.70165
23002,11.41,1.8182,0.1,0.00040123,4009.5,0.000397,3895,-0.00012062,5.78,-0.00015131,-224.8,0.66826
23003,11.502,1.9091,0.1,0.00039532,3950.5,0.0003943,3921.4,-0.00012671,6.6715,-0.00013612,-64.009,0.67953
23004,11.226,1.8182,0.1,0.00046768,4673.6,0.00045455,4344.3,-0.00012356,0.56704,-0.00020362,-600.99,0.64644
23005,11.318,1.9091,0.1,0.00044997,4496.6,0.00044523,4368.8,-0.00013485,10.197,-0.00017004,-254.19,0.65765
23006,11.042,1.8182,0.1,0.00060725,6068.3,0.00056635,5173.1,-0.00011449,57.54,-0.000326,-1531.6,0.62485
23007,11.134,1.9091,0.1,0.0005454,5450.2,0.0005305,5067.3,-0.00014847,-34.232,-0.00023375,-674.97,0.63603
23008,10.95,1.9091,0.1,0.00078538,7848.3,0.0007384,6878,-0.000139,285.57,-0.00041703,-1803.5,0.61468
23009,10.859,1.8182,0.1,0.0006132,6127.8,0.00052512,4488.8,-4.0907e-05,235.97,-0.0004097,-2535,0.6035
23010,23.724,2,0.1,1.915e-05,191.37,1.102e-05,58.876,3.155e-06,-0.21581,-1.7455e-05,-155.07,2.4374
23011,23.816,2.0909,0.1,1.8568e-05,185.55,9.3425e-06,39.642,4.0404e-06,-0.19634,-1.7573e-05,-162.59,2.4517
23012,23.908,2,0.1,1.7727e-05,177.15,7.7014e-06,22.34,4.671e-06,-0.43017,-1.7244e-05,-165.09,2.466
23013,23.541,2,0.1,2.1128e-05,211.14,1.454e-05,97.424,1.5444e-06,-0.22188,-1.7706e-05,-144.86,2.4088
23014,23.632,2.0909,0.1,2.0301e-05,202.87,1.2862e-05,78.205,2.4109e-06,-0.32391,-1.7802e-05,-152.19,2.4231
23015,23.357,2,0.1,2.3486e-05,234.7,1.8064e-05,135.88,-3.7476e-08,-0.1268,-1.8005e-05,-135.13,2.3802
23016,23.449,2.0909,0.1,2.2473e-05,224.58,1.6384e-05,116.78,8.2318e-07,-0.13975,-1.8075e-05,-142.13,2.3945
23017,23.173,2,0.1,2.6126e-05,261.08,2.1597e-05,174.22,-1.6045e-06,-0.10425,-1.8353e-05,-125.95,2.3516
23018,23.265,2.0909,0.1,2.4971e-05,249.54,1.9916e-05,155.21,-7.5768e-07,-0.12243,-1.8394e-05,-132.64,2.3659
23019,22.989,2,0.1,2.8976e-05,289.57,2.5141e-05,212.5,-3.1521e-06,-0.081863,-1.8752e-05,-117.3,2.3231
23020,23.081,2.0909,0.1,2.7712e-05,276.92,2.3454e-05,193.55,-2.3175e-06,-0.091164,-1.8762e-05,-123.65,2.3374
23021,22.805,2,0.1,3.1989e-05,319.67,2.8702e-05,250.77,-4.6829e-06,-0.068675,-1.9204e-05,-109.17,2.2945
23022,22.897,2.0909,0.1,3.0636e-05,306.15,2.7006e-05,231.84,-3.8604e-06,-0.076194,-1.9179e-05,-115.17,2.3088
23023,22.622,2,0.1,3.5131e-05,351.07,3.2283e-05,289.08,-6.1984e-06,-0.058492,-1.9707e-05,-101.56,2.266
23024,22.713,2.0909,0.1,3.3705e-05,336.81,3.0575e-05,270.14,-5.387e-06,-0.064065,-1.9647e-05,-107.21,2.2803
23025,22.438,2,0.1,3.8377e-05,383.51,3.5888e-05,327.46,-7.7004e-06,-0.050901,-2.0261e-05,-94.427,2.2375
23026,22.53,2.0909,0.1,3.6889e-05,368.63,3.4165e-05,308.49,-6.8994e-06,-0.055423,-2.0165e-05,-99.731,2.2518
23027,22.254,2,0.1,4.1711e-05,416.83,3.9519e-05,365.94,-9.1908e-06,-0.044897,-2.0865e-05,-87.76,2.209
23028,22.346,2.0909,0.1,4.0168e-05,401.41,3.7779e-05,346.92,-8.399e-06,-0.048631,-2.0733e-05,-92.722,2.2233
23029,22.07,2,0.1,4.5121e-05,450.89,4.3177e-05,404.55,-1.0671e-05,-0.04007,-2.1516e-05,-81.526,2.1805
23030,22.162,2.0909,0.1,4.3529e-05,434.99,4.1418e-05,385.45,-9.8878e-06,-0.043248,-2.1349e-05,-86.157,2.1948
23031,21.886,2,0.1,4.8595e-05,485.62,4.6863e-05,443.31,-1.2143e-05,-0.036098,-2.2213e-05,-75.693,2.1521
23032,21.978,2.0909,0.1,4.696e-05,469.28,4.5084e-05,424.12,-1.1367e-05,-0.038857,-2.2011e-05,-80.008,2.1663
23033,21.703,2,0.1,5.2128e-05,520.92,5.0577e-05,482.23,-1.3609e-05,-0.032768,-2.2952e-05,-70.232,2.1237
23034,21.794,2.0909,0.1,5.0453e-05,504.18,4.8778e-05,462.93,-1.2839e-05,-0.03521,-2.2716e-05,-74.246,2.1379
23035,21.519,2,0.1,5.5713e-05,556.75,5.4319e-05,521.32,-1.5068e-05,-0.029936,-2.373e-05,-65.112,2.0953
23036,21.611,2.0909,0.1,5.4001e-05,539.64,5.2499e-05,501.9,-1.4304e-05,-0.032119,-2.3462e-05,-68.842,2.1096
23037,21.335,2,0.1,5.9346e-05,593.05,5.8089e-05,560.58,-1.6523e-05,-0.027503,-2.4545e-05,-60.303,2.067
23038,21.427,2.0909,0.1,5.76e-05,575.6,5.6249e-05,541.05,-1.5764e-05,-0.029476,-2.4247e-05,-63.767,2.0812
23039,21.151,2,0.1,6.3022e-05,629.78,6.1887e-05,600.03,-1.7975e-05,-0.025391,-2.5395e-05,-55.777,2.0387
23040,21.243,2.0909,0.1,6.1244e-05,612.02,6.0027e-05,580.38,-1.722e-05,-0.027189,-2.5068e-05,-58.994,2.0529
23041,20.967,2,0.1,6.6738e-05,666.92,6.5712e-05,639.67,-1.9425e-05,-0.023545,-2.6277e-05,-51.508,2.0105
23042,21.059,2.0909,0.1,6.4931e-05,648.86,6.3832e-05,619.89,-1.8673e-05,-0.025193,-2.5923e-05,-54.495,2.0246
23043,20.784,2,0.1,7.0492e-05,704.44,6.9565e-05,679.49,-2.0873e-05,-0.02192,-2.7188e-05,-47.47,1.9823
23044,20.875,2.0909,0.1,6.8657e-05,686.1,6.7664e-05,659.59,-2.0125e-05,-0.023443,-2.6809e-05,-50.244,1.9964
23045,20.6,2,0.1,7.4282e-05,742.3,7.3443e-05,719.51,-2.2321e-05,-0.020466,-2.8126e-05,-43.638,1.9541
23046,20.692,2.0909,0.1,7.2421e-05,723.71,7.1523e-05,699.48,-2.1575e-05,-0.021889,-2.7723e-05,-46.217,1.9682
23047,20.416,2,0.1,7.8104e-05,780.5,7.7347e-05,759.73,-2.377e-05,-0.019152,-2.9089e-05,-39.989,1.926
23048,20.508,2.0909,0.1,7.6218e-05,761.66,7.5408e-05,739.57,-2.3025e-05,-0.020484,-2.8664e-05,-42.388,1.9401
23049,20.232,2,0.1,8.1958e-05,819.01,8.1275e-05,800.14,-2.5219e-05,-0.017966,-3.0075e-05,-36.5,1.898
23050,20.324,2.0909,0.1,8.0049e-05,799.93,7.9319e-05,779.85,-2.4476e-05,-0.019215,-2.9629e-05,-38.737,1.912
23051,20.048,2,0.1,8.5841e-05,857.81,8.5228e-05,840.75,-2.6671e-05,-0.016888,-3.1081e-05,-33.152,1.87
23052,20.14,2.0909,0.1,8.391e-05,838.52,8.3255e-05,820.34,-2.5928e-05,-0.018067,-3.0616e-05,-35.239,1.884
23053,19.865,2,0.1,8.9752e-05,896.9,8.9205e-05,881.56,-2.8125e-05,-0.015908,-3.2105e-05,-29.922,1.842
23054,19.956,2.0909,0.1,8.78e-05,877.4,8.7214e-05,861.02,-2.7382e-05,-0.017018,-3.1622e-05,-31.874,1.8561
23055,19.681,2,0.1,9.369e-05,936.25,9.3205e-05,922.56,-2.9582e-05,-0.015009,-3.3146e-05,-26.792,1.8142
23056,19.773,2.0909,0.1,9.1718e-05,916.55,9.1198e-05,901.9,-2.884e-05,-0.016069,-3.2647e-05,-28.622,1.8281
23057,19.497,2,0.1,9.7653e-05,975.85,9.7227e-05,963.76,-3.1043e-05,-0.014158,-3.4201e-05,-23.743,1.7863
23058,19.589,2.0909,0.1,9.5663e-05,955.97,9.5204e-05,942.97,-3.03e-05,-0.015185,-3.3687e-05,-25.462,1.8003
23059,19.313,2,0.1,0.00010164,1015.7,0.00010127,1005.2,-3.2509e-05,-0.013342,-3.5269e-05,-20.754,1.7586
23060,19.405,2.0909,0.1,9.9632e-05,995.63,9.9232e-05,984.25,-3.1765e-05,-0.014337,-3.4741e-05,-22.374,1.7725
23061,19.129,2,0.1,0.00010565,1055.8,0.00010534,1046.7,-3.398e-05,-0.012553,-3.6348e-05,-17.809,1.7309
23062,19.221,2.0909,0.1,0.00010362,1035.5,0.00010328,1025.7,-3.3235e-05,-0.013526,-3.5807e-05,-19.341,1.7448
23063,18.946,2,0.1,0.00010968,1096.1,0.00010942,1088.5,-3.5456e-05,-0.011771,-3.7436e-05,-14.888,1.7033
23064,19.038,2.0909,0.1,0.00010764,1075.7,0.00010735,1067.4,-3.471e-05,-0.01274,-3.6883e-05,-16.343,1.7172
23065,18.762,2,0.1,0.00011373,1136.6,0.00011353,1130.5,-3.6939e-05,-0.01096,-3.8531e-05,-11.975,1.6758
23066,18.854,2.0909,0.1,0.00011168,1116,0.00011144,1109.3,-3.6191e-05,-0.011949,-3.7967e-05,-13.361,1.6896
23067,18.578,2,0.1,0.00011781,1177.3,0.00011765,1172.7,-3.8428e-05,-0.010031,-3.9631e-05,-9.0509,1.6483
23068,18.67,2.0909,0.1,0.00011573,1156.5,0.00011555,1151.3,-3.7678e-05,-0.011116,-3.9058e-05,-10.377,1.6621
23069,18.394,2,0.1,0.0001219,1218.1,0.00012179,1215.1,-3.9925e-05,-0.0087038,-4.0735e-05,-6.0984,1.6209
23070,18.486,2.0909,0.1,0.00011981,1197.3,0.00011968,1193.6,-3.9173e-05,-0.010079,-4.0153e-05,-7.3718,1.6347
23071,18.21,2,0.1,0.00012601,1259.2,0.00012595,1257.6,-4.1429e-05,-0.0057206,-4.1841e-05,-3.1005,1.5936
23072,18.302,2.0909,0.1,0.00012391,1238.2,0.00012383,1236,-4.0675e-05,-0.0082978,-4.125e-05,-4.3279,1.6073
23073,18.027,2,0.1,0.00013013,1300.4,0.00013013,1300.4,-4.2928e-05,0.10635,-4.2961e-05,-0.14632,1.5664
23074,18.119,2.0909,0.1,0.00012802,1279.3,0.000128,1278.7,-4.2185e-05,4.1648e-05,-4.2349e-05,-1.2319,1.5801
23075,17.843,2,0.1,0.00013427,1341.8,0.00013433,1343.4,-4.4048e-05,3.1254,-4.4466e-05,-0.015119,1.5393
23076,17.935,2.0909,0.1,0.00013215,1320.5,0.00013218,1321.5,-4.3443e-05,1.9681,-4.3707e-05,-0.017286,1.5529
23077,17.659,2,0.1,0.00013843,1383.4,0.00013854,1386.5,-4.5148e-05,6.3758,-4.5999e-05,-0.01221,1.5122
23078,17.751,2.0909,0.1,0.00013629,1362,0.00013638,1364.6,-4.4536e-05,5.2441,-4.5236e-05,-0.012669,1.5258
23079,17.475,2,0.1,0.0001426,1425,0.00014276,1429.9,-4.6242e-05,9.7507,-4.7542e-05,-0.011061,1.4853
23080,17.567,2.0909,0.1,0.00014045,1403.5,0.00014059,1407.8,-4.5624e-05,8.6421,-4.6776e-05,-0.011329,1.4988
23081,17.291,2,0.1,0.00014679,1466.9,0.00014701,1473.4,-4.7329e-05,13.269,-4.9096e-05,-0.010361,1.4584
23082,17.383,2.0909,0.1,0.00014462,1445.2,0.00014482,1451.2,-4.6705e-05,12.18,-4.8327e-05,-0.01057,1.4719
23083,17.108,2,0.1,0.00015098,1508.8,0.00015127,1517.2,-4.8406e-05,16.951,-5.0663e-05,-0.0098581,1.4317
23084,17.2,2.0909,0.1,0.0001488,1487,0.00014907,1494.9,-4.7776e-05,15.881,-4.9891e-05,-0.010009,1.4451
23085,16.924,2,0.1,0.0001552,1550.9,0.00015554,1561.2,-4.9471e-05,20.818,-5.2243e-05,-0.009489,1.405
23086,17.016,2.0909,0.1,0.000153,1529,0.00015333,1538.7,-4.8835e-05,19.766,-5.1467e-05,-0.0095779,1.4184
23087,16.74,2,0.1,0.00015942,1593.1,0.00015983,1605.4,-5.0523e-05,24.892,-5.3837e-05,-0.0092302,1.3785
23088,16.832,2.0909,0.1,0.00015721,1571,0.0001576,1582.8,-4.9881e-05,23.859,-5.3058e-05,-0.0092459,1.3918
23089,16.556,2,0.1,0.00016365,1635.4,0.00016413,1649.8,-5.156e-05,29.196,-5.5447e-05,-0.0090868,1.3521
23090,16.648,2.0909,0.1,0.00016143,1613.2,0.00016189,1627.1,-5.0911e-05,28.185,-5.4664e-05,-0.0090049,1.3654
23091,16.372,2,0.1,0.0001679,1677.9,0.00016845,1694.5,-5.2579e-05,33.754,-5.7073e-05,-0.0090593,1.3257
23092,16.464,2.0909,0.1,0.00016567,1655.5,0.0001662,1671.7,-5.1924e-05,32.77,-5.6286e-05,-0.0088786,1.339
23093,16.189,2,0.1,0.00017217,1720.5,0.00017279,1739.4,-5.358e-05,38.588,-5.8717e-05,-0.0091318,1.2995
23094,16.281,2.0909,0.1,0.00016992,1698,0.00017052,1716.5,-5.2916e-05,37.641,-5.7927e-05,-0.0088448,1.3127
23095,16.005,2,0.1,0.00017645,1763.2,0.00017715,1784.7,-5.456e-05,43.724,-6.038e-05,-0.0093302,1.2734
23096,16.097,2.0909,0.1,0.00017418,1740.6,0.00017487,1761.6,-5.3887e-05,42.824,-5.9588e-05,-0.0088912,1.2866
23097,15.821,2,0.1,0.00018074,1806.2,0.00018153,1830.3,-5.5518e-05,49.185,-6.2066e-05,-0.0097101,1.2475
23098,15.913,2.0909,0.1,0.00017846,1783.3,0.00017923,1807,-5.4834e-05,48.349,-6.127e-05,-0.0090811,1.2605
23099,15.637,2,0.1,0.00018506,1849.3,0.00018593,1876.2,-5.6454e-05,54.997,-6.3775e-05,-0.010322,1.2216
23100,15.729,2.0909,0.1,0.00018276,1826.3,0.00018362,1852.8,-5.5756e-05,54.244,-6.2977e-05,-0.0094568,1.2346
23101,15.453,2,0.1,0.0001894,1892.7,0.00019037,1922.6,-5.7366e-05,61.183,-6.551e-05,-0.011241,1.1959
23102,15.545,2.0909,0.1,0.00018708,1869.5,0.00018803,1899,-5.6652e-05,60.54,-6.4711e-05,-0.010069,1.2088
23103,15.27,2,0.1,0.00019378,1936.5,0.00019484,1969.4,-5.8255e-05,67.764,-6.7275e-05,-0.012545,1.1703
23104,15.362,2.0909,0.1,0.00019143,1913,0.00019249,1945.7,-5.7522e-05,67.264,-6.6475e-05,-0.011011,1.1832
23105,15.086,2,0.1,0.0001982,1980.6,0.00019936,2016.9,-5.9122e-05,74.762,-6.9074e-05,-0.014308,1.1448
23106,15.178,2.0909,0.1,0.00019582,1956.9,0.00019698,1993,-5.8365e-05,74.446,-6.8274e-05,-0.012333,1.1577
23107,14.902,2,0.1,0.00020266,2025.2,0.00020394,2065.1,-5.9969e-05,82.195,-7.091e-05,-0.016676,1.1195
23108,14.994,2.0909,0.1,0.00020026,2001.2,0.00020153,2041,-5.9182e-05,82.111,-7.0113e-05,-0.014115,1.1323
23109,14.718,2,0.1,0.0002072,2070.5,0.00020858,2114.1,-6.0799e-05,90.073,-7.279e-05,-0.019859,1.0943
23110,14.81,2.0909,0.1,0.00020476,2046.2,0.00020615,2089.8,-5.9978e-05,90.283,-7.1996e-05,-0.016551,1.107
23111,14.534,2,0.1,0.00021181,2116.7,0.00021332,2164.2,-6.1619e-05,98.403,-7.4719e-05,-0.024109,1.0693
23112,14.626,2.0909,0.1,0.00020935,2092,0.00021085,2139.7,-6.0755e-05,98.979,-7.3931e-05,-0.019843,1.0819
23113,14.351,2,0.1,0.00021654,2163.9,0.00021817,2215.5,-6.2436e-05,107.18,-7.6705e-05,-0.029766,1.0444
23114,14.443,2.0909,0.1,0.00021404,2138.9,0.00021567,2190.9,-6.1521e-05,108.21,-7.5926e-05,-0.024255,1.0569
23115,14.167,2,0.1,0.00022141,2212.6,0.00022316,2268.5,-6.3263e-05,116.39,-7.8758e-05,-0.037247,1.0196
23116,14.259,2.0909,0.1,0.00021886,2187.1,0.00022063,2243.7,-6.2287e-05,117.97,-7.7992e-05,-0.030157,1.0321
23117,13.983,2,0.1,0.00022646,2263,0.00022834,2323.4,-6.4115e-05,125.99,-8.089e-05,-0.047063,0.995
23118,14.075,2.0909,0.1,0.00022387,2237.1,0.00022577,2298.5,-6.3067e-05,128.25,-8.0142e-05,-0.037948,1.0074
23119,13.799,2,0.1,0.00023174,2315.8,0.00023375,2380.8,-6.5015e-05,135.93,-8.3114e-05,-0.059944,0.97054
23120,13.891,2.0909,0.1,0.00022911,2289.5,0.00023115,2355.8,-6.3883e-05,139.01,-8.239e-05,-0.048166,0.98286
23121,13.616,2,0.1,0.00023732,2371.6,0.00023947,2441.2,-6.5994e-05,146.1,-8.5449e-05,-0.07687,0.94625
23122,13.707,2.0909,0.1,0.00023464,2344.8,0.00023683,2416.2,-6.4762e-05,150.16,-8.4755e-05,-0.061609,0.95848
23123,13.432,2,0.1,0.00024329,2431.2,0.00024557,2505.6,-6.7093e-05,156.34,-8.7914e-05,-0.099105,0.92211
23124,13.524,2.0909,0.1,0.00024056,2403.9,0.0002429,2480.6,-6.5744e-05,161.59,-8.7261e-05,-0.079261,0.93427
23125,13.248,2,0.1,0.00024975,2495.8,0.00025217,2574.8,-6.8367e-05,166.44,-9.0536e-05,-0.12834,0.89814
23126,13.34,2.0909,0.1,0.00024698,2468.1,0.00024946,2550,-6.6883e-05,173.1,-8.9935e-05,-0.1024,0.91022
23127,13.064,2,0.1,0.00025686,2566.8,0.0002594,2650.2,-6.9897e-05,176.03,-9.3347e-05,-0.1669,0.87435
23128,13.156,2.0909,0.1,0.00025404,2538.7,0.00025667,2625.8,-6.8252e-05,184.41,-9.2813e-05,-0.13272,0.88634
23129,12.88,2,0.1,0.0002648,2646.2,0.00026746,2733.6,-7.179e-05,184.6,-9.6387e-05,-0.21791,0.85072
23130,12.972,2.0909,0.1,0.00026195,2617.7,0.00026471,2709.6,-6.9955e-05,195.06,-9.5938e-05,-0.17246,0.86263
23131,12.697,2,0.1,0.00027385,2736.6,0.0002766,2827.1,-7.4201e-05,191.35,-9.9707e-05,-0.28673,0.82728
23132,12.788,2.0909,0.1,0.00027095,2707.6,0.00027384,2803.9,-7.2132e-05,204.39,-9.9365e-05,-0.22441,0.8391
23133,12.513,2,0.1,0.00028437,2841.8,0.00028718,2934.1,-7.7357e-05,195.09,-0.00010337,-0.38029,0.80402
23134,12.605,2.0909,0.1,0.0002814,2812.1,0.0002844,2911.7,-7.4986e-05,211.42,-0.00010316,-0.29409,0.81575
23135,12.329,2,0.1,0.0002969,2967,0.00029972,3058.9,-8.1589e-05,193.95,-0.00010747,-0.52047,0.78096
23136,12.421,2.0909,0.1,0.0002938,2936,0.00029686,3037.2,-7.8806e-05,214.64,-0.00010742,-0.38513,0.7926
23137,12.145,2,0.1,0.00031223,3120.2,0.00031495,3208.2,-8.7401e-05,185.07,-0.00011213,-0.71856,0.7581
23138,12.237,2.0909,0.1,0.00030886,3086.4,0.0003119,3186.6,-8.4016e-05,211.81,-0.00011228,-0.52639,0.76965
23139,11.961,2,0.1,0.0003316,3313.7,0.00033406,3392,-9.5571e-05,163.93,-0.00011754,-1.1637,0.73544
23140,12.053,2.0909,0.1,0.00032761,3273.8,0.00033053,3368.6,-9.1252e-05,199.54,-0.0001179,-0.68563,0.7469
23141,11.778,2,0.1,0.00035699,3567.4,0.00035889,3626.6,-0.00010734,123.57,-0.00012402,-1.8089,0.71301
23142,11.869,2.0909,0.1,0.00035171,3514.7,0.0003543,3597.1,-0.00010148,172.53,-0.0001246,-1.1928,0.72438
23143,11.594,2,0.1,0.00039202,3917.5,0.00039277,3940.4,-0.00012451,53.713,-0.00013261,-7.1554,0.6908
23144,11.686,2.0909,0.1,0.00038379,3835.3,0.00038571,3894.6,-0.00011626,123.03,-0.0001328,-1.2785,0.70208
23145,11.41,2,0.1,0.00044333,4430.2,0.00044193,4390.6,-0.00014121,9.0839,-0.00015398,-86.862,0.66885
23146,11.502,2.0909,0.1,0.00042889,4285.9,0.00042939,4301.1,-0.00013792,38.564,-0.00014409,-7.8523,0.68004
23147,11.226,2,0.1,0.00052753,5271.6,0.00052091,5089.8,-0.00015974,-24.382,-0.00019993,-326.35,0.64716
23148,11.318,2.0909,0.1,0.00049567,4953.3,0.00049378,4899.8,-0.00015706,9.7421,-0.00017357,-114.35,0.65826
23149,11.042,2,0.1,0.0007247,7242,0.00070468,6788.2,-0.00017312,192.74,-0.00032676,-961.68,0.62576
23150,11.134,2.0909,0.1,0.00061017,6097.5,0.00060208,5873.8,-0.00018577,-45.812,-0.0002312,-387.11,0.63679
23151,10.95,2.0909,0.1,0.00086069,8601,0.00084124,8146.4,-0.00021735,192.52,-0.00037357,-981.25,0.61567
23152,10.859,2,0.1,0.0012782,12774,0.0012502,12140,-0.00031501,379.67,-0.00055853,-1450,0.60472
23153,23.724,2.1818,0.1,1.96e-05,195.87,1.1175e-05,58.896,3.3075e-06,-0.22078,-1.7921e-05,-159.72,2.4375
23154,23.816,2.2727,0.1,1.8975e-05,189.62,9.4771e-06,39.608,4.1786e-06,-0.20301,-1.7989e-05,-166.76,2.4518
23155,23.908,2.1818,0.1,1.8194e-05,181.82,7.8544e-06,22.311,4.8275e-06,-0.43185,-1.7715e-05,-169.81,2.4661
23156,23.541,2.1818,0.1,2.1562e-05,215.47,1.4706e-05,97.555,1.6919e-06,-0.22501,-1.8172e-05,-149.47,2.4088
23157,23.632,2.2727,0.1,2.0698e-05,206.84,1.3006e-05,78.271,2.5455e-06,-0.32719,-1.8219e-05,-156.35,2.4232
23158,23.357,2.1818,0.1,2.3899e-05,238.83,1.8237e-05,136.12,1.0379e-07,-0.12928,-1.8465e-05,-139.65,2.3803
23159,23.449,2.2727,0.1,2.2853e-05,228.37,1.6536e-05,116.94,9.5283e-07,-0.14206,-1.849e-05,-146.23,2.3946
23160,23.173,2.1818,0.1,2.6516e-05,264.98,2.1775e-05,174.55,-1.4703e-06,-0.10646,-1.8804e-05,-130.35,2.3517
23161,23.265,2.2727,0.1,2.5332e-05,253.14,2.0073e-05,155.46,-6.3399e-07,-0.12446,-1.8803e-05,-136.64,2.366
23162,22.989,2.1818,0.1,2.9343e-05,293.23,2.5322e-05,212.91,-3.0256e-06,-0.083883,-1.919e-05,-121.54,2.3231
23163,23.081,2.2727,0.1,2.8052e-05,280.33,2.3616e-05,193.88,-2.2004e-06,-0.092984,-1.9161e-05,-127.53,2.3374
23164,22.805,2.1818,0.1,3.2333e-05,323.1,2.8882e-05,251.23,-4.5644e-06,-0.070576,-1.9625e-05,-113.23,2.2946
23165,22.897,2.2727,0.1,3.0956e-05,309.34,2.7169e-05,232.24,-3.7503e-06,-0.077887,-1.9565e-05,-118.9,2.3089
23166,22.622,2.1818,0.1,3.545e-05,354.26,3.246e-05,289.58,-6.0879e-06,-0.06031,-2.0108e-05,-105.4,2.266
23167,22.713,2.2727,0.1,3.4003e-05,339.8,3.0736e-05,270.58,-5.2841e-06,-0.06567,-2.0017e-05,-110.76,2.2803
23168,22.438,2.1818,0.1,3.8672e-05,386.45,3.6059e-05,327.97,-7.5979e-06,-0.052656,-2.064e-05,-98.048,2.2375
23169,22.53,2.2727,0.1,3.7166e-05,371.4,3.4322e-05,308.95,-6.8035e-06,-0.056966,-2.0517e-05,-103.1,2.2518
23170,22.254,2.1818,0.1,4.1982e-05,419.53,3.9681e-05,366.45,-9.096e-06,-0.046603,-2.122e-05,-91.144,2.2091
23171,22.346,2.2727,0.1,4.0424e-05,403.96,3.793e-05,347.38,-8.3101e-06,-0.050127,-2.1065e-05,-95.881,2.2233
23172,22.07,2.1818,0.1,4.5367e-05,453.35,4.3329e-05,405.04,-1.0584e-05,-0.041733,-2.1846e-05,-84.666,2.1806
23173,22.162,2.2727,0.1,4.3763e-05,437.33,4.1561e-05,385.9,-9.8056e-06,-0.044706,-2.1658e-05,-89.102,2.1949
23174,21.886,2.1818,0.1,4.8818e-05,487.84,4.7003e-05,443.76,-1.2063e-05,-0.037721,-2.2517e-05,-78.588,2.1522
23175,21.978,2.2727,0.1,4.7173e-05,471.4,4.5217e-05,424.54,-1.1291e-05,-0.040281,-2.2297e-05,-82.735,2.1664
23176,21.703,2.1818,0.1,5.2327e-05,522.91,5.0704e-05,482.63,-1.3534e-05,-0.034352,-2.323e-05,-72.885,2.1238
23177,21.794,2.2727,0.1,5.0645e-05,506.1,4.89e-05,463.32,-1.2769e-05,-0.036601,-2.298e-05,-76.755,2.138
23178,21.519,2.1818,0.1,5.589e-05,558.51,5.4434e-05,521.67,-1.5e-05,-0.031478,-2.3983e-05,-67.527,2.0954
23179,21.611,2.2727,0.1,5.4172e-05,541.35,5.261e-05,502.25,-1.424e-05,-0.033479,-2.3703e-05,-71.136,2.1096
23180,21.335,2.1818,0.1,5.9501e-05,594.6,5.8191e-05,560.87,-1.6461e-05,-0.029003,-2.4774e-05,-62.489,2.0671
23181,21.427,2.2727,0.1,5.7751e-05,577.11,5.6348e-05,541.35,-1.5705e-05,-0.030802,-2.4466e-05,-65.852,2.0813
23182,21.151,2.1818,0.1,6.3157e-05,631.13,6.1976e-05,600.26,-1.7918e-05,-0.026849,-2.56e-05,-57.743,2.0388
23183,21.243,2.2727,0.1,6.1377e-05,613.34,6.0114e-05,580.62,-1.7166e-05,-0.028481,-2.5265e-05,-60.876,2.053
23184,20.967,2.1818,0.1,6.6854e-05,668.08,6.5788e-05,639.84,-1.9373e-05,-0.024963,-2.6458e-05,-53.263,2.0106
23185,21.059,2.2727,0.1,6.5045e-05,650.01,6.3907e-05,620.08,-1.8624e-05,-0.02645,-2.6098e-05,-56.183,2.0247
23186,20.784,2.1818,0.1,7.0589e-05,705.41,6.9627e-05,679.61,-2.0826e-05,-0.023296,-2.7347e-05,-49.024,1.9824
23187,20.875,2.2727,0.1,6.8755e-05,687.07,6.7728e-05,659.73,-2.008e-05,-0.024667,-2.6963e-05,-51.746,1.9965
23188,20.6,2.1818,0.1,7.4361e-05,743.1,7.3493e-05,719.57,-2.2278e-05,-0.021802,-2.8265e-05,-45,1.9542
23189,20.692,2.2727,0.1,7.2502e-05,724.52,7.1575e-05,699.56,-2.1534e-05,-0.023078,-2.7858e-05,-47.541,1.9683
23190,20.416,2.1818,0.1,7.8167e-05,781.13,7.7385e-05,759.73,-2.3731e-05,-0.02045,-2.9207e-05,-41.169,1.9261
23191,20.508,2.2727,0.1,7.6284e-05,762.32,7.545e-05,739.6,-2.2988e-05,-0.02164,-2.878e-05,-43.544,1.9402
23192,20.232,2.1818,0.1,8.2005e-05,819.49,8.1303e-05,800.08,-2.5184e-05,-0.019226,-3.0174e-05,-37.507,1.8981
23193,20.324,2.2727,0.1,8.01e-05,800.45,7.935e-05,779.83,-2.4442e-05,-0.02034,-2.9727e-05,-39.731,1.9121
23194,20.048,2.1818,0.1,8.5874e-05,858.15,8.5245e-05,840.64,-2.6639e-05,-0.018113,-3.1161e-05,-33.993,1.8701
23195,20.14,2.2727,0.1,8.3948e-05,838.9,8.3275e-05,820.27,-2.5898e-05,-0.019161,-3.0697e-05,-36.08,1.8841
23196,19.865,2.1818,0.1,8.9771e-05,897.09,8.9211e-05,881.39,-2.8097e-05,-0.017101,-3.2168e-05,-30.605,1.8421
23197,19.956,2.2727,0.1,8.7825e-05,877.65,8.7225e-05,860.9,-2.7356e-05,-0.018084,-3.1688e-05,-32.568,1.8561
23198,19.681,2.1818,0.1,9.3696e-05,936.31,9.3201e-05,922.34,-2.9558e-05,-0.016173,-3.3192e-05,-27.322,1.8143
23199,19.773,2.2727,0.1,9.1731e-05,916.68,9.12e-05,901.73,-2.8816e-05,-0.017108,-3.2697e-05,-29.175,1.8282
23200,19.497,2.1818,0.1,9.7646e-05,975.79,9.7213e-05,963.5,-3.1022e-05,-0.015297,-3.4231e-05,-24.125,1.7865
23201,19.589,2.2727,0.1,9.5664e-05,955.98,9.5197e-05,942.77,-3.028e-05,-0.016203,-3.3722e-05,-25.879,1.8004
23202,19.313,2.1818,0.1,0.00010162,1015.5,0.00010125,1004.8,-3.2491e-05,-0.014461,-3.5283e-05,-20.992,1.7587
23203,19.405,2.2727,0.1,9.9622e-05,995.53,9.9217e-05,984,-3.1748e-05,-0.015337,-3.4761e-05,-22.659,1.7726
23204,19.129,2.1818,0.1,0.00010562,1055.5,0.0001053,1046.4,-3.3965e-05,-0.013662,-3.6346e-05,-17.905,1.731
23205,19.221,2.2727,0.1,0.0001036,1035.3,0.00010326,1025.4,-3.322e-05,-0.014516,-3.5813e-05,-19.496,1.7449
23206,18.946,2.1818,0.1,0.00010964,1095.6,0.00010938,1088.1,-3.5445e-05,-0.012881,-3.7419e-05,-14.844,1.7034
23207,19.038,2.2727,0.1,0.00010761,1075.3,0.00010732,1067.1,-3.4698e-05,-0.013729,-3.6875e-05,-16.37,1.7173
23208,18.762,2.1818,0.1,0.00011368,1136,0.00011348,1130.1,-3.693e-05,-0.01209,-3.8498e-05,-11.791,1.6759
23209,18.854,2.2727,0.1,0.00011164,1115.6,0.0001114,1108.9,-3.6182e-05,-0.012954,-3.7945e-05,-13.261,1.6897
23210,18.578,2.1818,0.1,0.00011774,1176.6,0.00011759,1172.2,-3.8423e-05,-0.011213,-3.9583e-05,-8.725,1.6484
23211,18.67,2.2727,0.1,0.00011568,1156,0.00011551,1150.9,-3.7672e-05,-0.012162,-3.9022e-05,-10.149,1.6622
23212,18.394,2.1818,0.1,0.00012182,1217.4,0.00012173,1214.6,-3.9923e-05,-0.0099924,-4.0671e-05,-5.6277,1.621
23213,18.486,2.2727,0.1,0.00011975,1196.7,0.00011963,1193.1,-3.917e-05,-0.011221,-4.0102e-05,-7.014,1.6348
23214,18.21,2.1818,0.1,0.00012592,1258.3,0.00012588,1257.1,-4.1431e-05,-0.0069972,-4.1761e-05,-2.4807,1.5937
23215,18.302,2.2727,0.1,0.00012383,1237.5,0.00012377,1235.6,-4.0676e-05,-0.0096318,-4.1185e-05,-3.8365,1.6074
23216,18.027,2.1818,0.1,0.00013003,1299.4,0.00013005,1299.8,-4.2847e-05,0.75919,-4.2951e-05,-0.025219,1.5665
23217,18.119,2.2727,0.1,0.00012793,1278.5,0.00012792,1278.2,-4.2188e-05,0.0033832,-4.2269e-05,-0.60676,1.5802
23218,17.843,2.1818,0.1,0.00013416,1340.7,0.00013423,1342.7,-4.3934e-05,4.0612,-4.4476e-05,-0.013227,1.5394
23219,17.935,2.2727,0.1,0.00013205,1319.6,0.0001321,1321,-4.3348e-05,2.7386,-4.3714e-05,-0.014152,1.553
23220,17.659,2.1818,0.1,0.00013831,1382.1,0.00013843,1385.9,-4.5015e-05,7.4873,-4.6013e-05,-0.011601,1.5124
23221,17.751,2.2727,0.1,0.00013618,1360.9,0.00013629,1364,-4.4424e-05,6.1709,-4.5247e-05,-0.011927,1.5259
23222,17.475,2.1818,0.1,0.00014247,1423.7,0.00014265,1429.2,-4.6089e-05,11.05,-4.7561e-05,-0.010774,1.4854
23223,17.567,2.2727,0.1,0.00014033,1402.3,0.00014049,1407.2,-4.5495e-05,9.734,-4.6792e-05,-0.011009,1.499
23224,17.291,2.1818,0.1,0.00014664,1465.4,0.00014688,1472.7,-4.7154e-05,14.771,-4.9122e-05,-0.010183,1.4586
23225,17.383,2.2727,0.1,0.00014449,1443.9,0.00014472,1450.6,-4.6556e-05,13.451,-4.8348e-05,-0.010388,1.4721
23226,17.108,2.1818,0.1,0.00015082,1507.2,0.00015113,1516.4,-4.8208e-05,18.676,-5.0695e-05,-0.0097056,1.4318
23227,17.2,2.2727,0.1,0.00014866,1485.6,0.00014895,1494.2,-4.7607e-05,17.345,-4.9917e-05,-0.0098679,1.4453
23228,16.924,2.1818,0.1,0.00015502,1549.1,0.00015539,1560.4,-4.9248e-05,22.788,-5.2282e-05,-0.0093178,1.4052
23229,17.016,2.2727,0.1,0.00015285,1527.4,0.0001532,1538,-4.8644e-05,21.444,-5.1499e-05,-0.0094291,1.4186
23230,16.74,2.1818,0.1,0.00015923,1591.2,0.00015967,1604.6,-5.0272e-05,27.134,-5.3884e-05,-0.0090089,1.3787
23231,16.832,2.2727,0.1,0.00015705,1569.4,0.00015747,1582.1,-4.9666e-05,25.774,-5.3097e-05,-0.0090597,1.392
23232,16.556,2.1818,0.1,0.00016345,1633.4,0.00016397,1649,-5.1278e-05,31.743,-5.5503e-05,-0.0087904,1.3522
23233,16.648,2.2727,0.1,0.00016125,1611.4,0.00016175,1626.4,-5.0669e-05,30.364,-5.4711e-05,-0.0087563,1.3655
23234,16.372,2.1818,0.1,0.00016768,1675.7,0.00016827,1693.7,-5.2263e-05,36.642,-5.7141e-05,-0.0086639,1.3259
23235,16.464,2.2727,0.1,0.00016547,1653.6,0.00016604,1670.9,-5.1651e-05,35.245,-5.6343e-05,-0.0085467,1.3391
23236,16.189,2.1818,0.1,0.00017193,1718.1,0.0001726,1738.6,-5.3225e-05,41.862,-5.8798e-05,-0.0086111,1.2997
23237,16.281,2.2727,0.1,0.00016971,1695.9,0.00017036,1715.7,-5.2611e-05,40.45,-5.7995e-05,-0.0084065,1.3129
23238,16.005,2.1818,0.1,0.00017619,1760.7,0.00017695,1783.9,-5.4163e-05,47.436,-6.0478e-05,-0.0086577,1.2736
23239,16.097,2.2727,0.1,0.00017395,1738.3,0.00017469,1760.9,-5.3544e-05,46.012,-5.9669e-05,-0.0083229,1.2867
23240,15.821,2.1818,0.1,0.00018047,1803.5,0.00018132,1829.6,-5.5074e-05,53.396,-6.2182e-05,-0.0088542,1.2477
23241,15.913,2.2727,0.1,0.00017822,1780.9,0.00017904,1806.3,-5.445e-05,51.968,-6.1368e-05,-0.0083552,1.2607
23242,15.637,2.1818,0.1,0.00018477,1846.5,0.00018572,1875.6,-5.5956e-05,59.776,-6.3913e-05,-0.0092439,1.2218
23243,15.729,2.2727,0.1,0.0001825,1823.8,0.00018342,1852.2,-5.5326e-05,58.356,-6.3093e-05,-0.0085403,1.2348
23244,15.453,2.1818,0.1,0.00018911,1889.8,0.00019015,1922.2,-5.681e-05,66.611,-6.5676e-05,-0.0098964,1.1961
23245,15.545,2.2727,0.1,0.00018681,1866.8,0.00018783,1898.6,-5.617e-05,65.213,-6.485e-05,-0.0089233,1.209
23246,15.27,2.1818,0.1,0.00019347,1933.4,0.00019462,1969.3,-5.7633e-05,73.937,-6.7474e-05,-0.010878,1.1705
23247,15.362,2.2727,0.1,0.00019115,1910.2,0.00019228,1945.5,-5.6981e-05,72.582,-6.6642e-05,-0.00959,1.1834
23248,15.086,2.1818,0.1,0.00019789,1977.5,0.00019915,2017.1,-5.8426e-05,81.786,-6.9313e-05,-0.012248,1.145
23249,15.178,2.2727,0.1,0.00019554,1954,0.00019678,1993,-5.7759e-05,80.501,-6.8475e-05,-0.010578,1.1578
23250,14.902,2.1818,0.1,0.00020236,2022.2,0.00020374,2065.8,-5.9192e-05,90.192,-7.1198e-05,-0.014137,1.1197
23251,14.994,2.2727,0.1,0.00019998,1998.4,0.00020134,2041.4,-5.8505e-05,89.011,-7.0354e-05,-0.011956,1.1324
23252,14.718,2.1818,0.1,0.00020691,2067.7,0.00020842,2115.5,-5.9934e-05,99.182,-7.3137e-05,-0.016732,1.0945
23253,14.81,2.2727,0.1,0.00020449,2043.5,0.00020598,2090.8,-5.9222e-05,98.15,-7.2286e-05,-0.013899,1.1072
23254,14.534,2.1818,0.1,0.00021157,2114.2,0.00021321,2166.5,-6.0658e-05,108.78,-7.5138e-05,-0.020254,1.0695
23255,14.626,2.2727,0.1,0.0002091,2089.5,0.00021073,2141.4,-5.9912e-05,107.95,-7.4282e-05,-0.016588,1.0821
23256,14.351,2.1818,0.1,0.00021636,2162.1,0.00021814,2219.1,-6.1373e-05,119,-7.7214e-05,-0.025004,1.0446
23257,14.443,2.2727,0.1,0.00021383,2136.8,0.0002156,2193.6,-6.0586e-05,118.44,-7.6352e-05,-0.02026,1.0571
23258,14.167,2.1818,0.1,0.00022132,2211.7,0.00022325,2273.8,-6.2092e-05,129.83,-7.9376e-05,-0.031343,1.0198
23259,14.259,2.2727,0.1,0.00021873,2185.8,0.00022065,2247.7,-6.1253e-05,129.63,-7.8509e-05,-0.025248,1.0323
23260,13.983,2.1818,0.1,0.00022652,2263.6,0.00022859,2330.9,-6.2836e-05,141.26,-8.1642e-05,-0.039712,0.9952
23261,14.075,2.2727,0.1,0.00022384,2236.9,0.00022591,2304.3,-6.1931e-05,141.51,-8.077e-05,-0.031905,1.0076
23262,13.799,2.1818,0.1,0.00023201,2318.5,0.00023423,2391.2,-6.363e-05,153.24,-8.4031e-05,-0.050737,0.97075
23263,13.891,2.2727,0.1,0.00022924,2290.8,0.00023147,2363.9,-6.2645e-05,154.06,-8.3155e-05,-0.04071,0.98304
23264,13.616,2.1818,0.1,0.00023788,2377.1,0.00024026,2455.6,-6.4512e-05,165.65,-8.6568e-05,-0.065254,0.94645
23265,13.707,2.2727,0.1,0.000235,2348.4,0.0002374,2427.5,-6.3428e-05,167.21,-8.5689e-05,-0.052382,0.95867
23266,13.432,2.1818,0.1,0.00024425,2440.8,0.00024679,2525.1,-6.5534e-05,178.35,-8.9283e-05,-0.084308,0.92232
23267,13.524,2.2727,0.1,0.00024124,2410.7,0.0002438,2496,-6.4328e-05,180.81,-8.8402e-05,-0.067799,0.93446
23268,13.248,2.1818,0.1,0.00025127,2511,0.00025397,2601,-6.6766e-05,191.09,-9.2213e-05,-0.10925,0.89836
23269,13.34,2.2727,0.1,0.0002481,2479.2,0.00025083,2570.8,-6.5411e-05,194.67,-9.1332e-05,-0.088085,0.91041
23270,13.064,2.1818,0.1,0.00025913,2589.5,0.00026199,2685.1,-6.8305e-05,203.47,-9.5404e-05,-0.14182,0.87456
23271,13.156,2.2727,0.1,0.00025576,2555.9,0.00025867,2653.6,-6.6767e-05,208.46,-9.4526e-05,-0.1147,0.88653
23272,12.88,2.1818,0.1,0.00026809,2679,0.00027109,2779.9,-7.0285e-05,214.94,-9.8916e-05,-0.18412,0.85095
23273,12.972,2.2727,0.1,0.00026448,2643,0.00026755,2746.8,-6.8519e-05,221.66,-9.8041e-05,-0.14944,0.86283
23274,12.697,2.1818,0.1,0.00027848,2782.9,0.00028162,2888.3,-7.2894e-05,224.62,-0.00010282,-0.23949,0.82751
23275,12.788,2.2727,0.1,0.00027458,2743.9,0.0002778,2853.1,-7.0842e-05,233.54,-0.00010195,-0.19444,0.83931
23276,12.513,2.1818,0.1,0.0002908,2906,0.00029403,3014.5,-7.6395e-05,231.28,-0.00010722,-0.31093,0.80427
23277,12.605,2.2727,0.1,0.0002865,2863,0.00028985,2976.6,-7.3973e-05,242.98,-0.00010635,-0.25328,0.81597
23278,12.329,2.1818,0.1,0.00030569,3054.8,0.00030898,3164.4,-8.1165e-05,233.02,-0.00011223,-0.41076,0.78122
23279,12.421,2.2727,0.1,0.00030084,3006.3,0.00030428,3122.6,-7.8253e-05,248.35,-0.00011135,-0.3279,0.79283
23280,12.145,2.1818,0.1,0.00032412,3238.9,0.00032737,3346.2,-8.7758e-05,227.11,-0.00011805,-0.52889,0.75839
23281,12.237,2.2727,0.1,0.00031843,3182.1,0.00032191,3298.3,-8.4164e-05,247.24,-0.00011713,-0.43298,0.7699
23282,11.961,2.1818,0.1,0.00034754,3473,0.00035062,3572.6,-9.6998e-05,209.38,-0.00012497,-0.78831,0.73577
23283,12.053,2.2727,0.1,0.00034051,3402.7,0.0003439,3514.4,-9.2407e-05,236.13,-0.00012391,-0.54509,0.74718
23284,11.778,2.1818,0.1,0.00037827,3780.1,0.00038091,3863.5,-0.00011017,173.74,-0.00013341,-0.85218,0.71338
23285,11.869,2.2727,0.1,0.00036891,3686.5,0.00037201,3786.5,-0.00010402,209.76,-0.00013205,-0.82326,0.72469
23286,11.594,2.1818,0.1,0.0004204,4201.1,0.00042212,4253.7,-0.00012937,110.1,-0.00014436,-2.5788,0.69124
23287,11.686,2.2727,0.1,0.00040651,4062.3,0.00040899,4139.8,-0.00012062,160.51,-0.00014209,-0.78537,0.70245
23288,11.41,2.1818,0.1,0.00048112,4807.9,0.00048119,4810,-0.00015773,9.3689,-0.00015966,-5.1135,0.66937
23289,11.502,2.2727,0.1,0.00045835,4580.4,0.00045955,4616.5,-0.00014479,75.706,-0.0001552,-2.5101,0.68047
23290,11.226,2.1818,0.1,0.00057928,5788.8,0.0005758,5690.3,-0.00018303,-11.247,-0.00020575,-181.96,0.6478
23291,11.318,2.2727,0.1,0.0005331,5327.3,0.00053202,5296.1,-0.00017282,0.19755,-0.00018111,-62.021,0.6588
23292,11.042,2.1818,0.1,0.00075646,7559.4,0.00074654,7291.3,-0.00022504,-8.7942,-0.00029084,-503.16,0.62658
23293,11.134,2.2727,0.1,0.00065073,6502.8,0.00064503,6344.7,-0.00020071,-9.8738,-0.00023889,-296.81,0.63746
23294,10.95,2.2727,0.1,0.00084474,8441.5,0.00083117,8084.3,-0.00024335,10.763,-0.00033562,-682.5,0.61653
23295,10.859,2.1818,0.1,0.0010238,10231,0.0010059,9756,-0.00029513,-19.195,-0.0004093,-877.05,0.6058
23296,23.724,2.3636,0.1,1.9956e-05,199.42,1.1298e-05,58.906,3.428e-06,-0.22454,-1.8288e-05,-163.39,2.4375
23297,23.816,2.4545,0.1,1.9289e-05,192.75,9.5802e-06,39.579,4.2849e-06,-0.208,-1.8308e-05,-169.96,2.4518
23298,23.908,2.3636,0.1,1.8563e-05,185.5,7.9748e-06,22.286,4.951e-06,-0.43309,-1.8086e-05,-173.53,2.4661
23299,23.541,2.3636,0.1,2.1905e-05,218.9,1.4835e-05,97.65,1.8087e-06,-0.22735,-1.8539e-05,-153.11,2.4089
23300,23.632,2.4545,0.1,2.1003e-05,209.89,1.3116e-05,78.316,2.6492e-06,-0.3296,-1.854e-05,-159.54,2.4232
23301,23.357,2.3636,0.1,2.4226e-05,242.09,1.8373e-05,136.29,2.1586e-07,-0.13111,-1.8829e-05,-143.23,2.3803
23302,23.449,2.4545,0.1,2.3145e-05,231.29,1.6652e-05,117.06,1.0528e-06,-0.14375,-1.8809e-05,-149.38,2.3946
23303,23.173,2.3636,0.1,2.6826e-05,268.07,2.1915e-05,174.8,-1.3637e-06,-0.10809,-1.9161e-05,-133.83,2.3517
23304,23.265,2.4545,0.1,2.561e-05,255.92,2.0193e-05,155.64,-5.3842e-07,-0.12594,-1.9117e-05,-139.72,2.366
23305,22.989,2.3636,0.1,2.9635e-05,296.15,2.5464e-05,213.22,-2.9249e-06,-0.085381,-1.9538e-05,-124.91,2.3232
23306,23.081,2.4545,0.1,2.8315e-05,282.95,2.3739e-05,194.12,-2.1098e-06,-0.094308,-1.9468e-05,-130.52,2.3375
23307,22.805,2.3636,0.1,3.2606e-05,325.84,2.9025e-05,251.59,-4.4698e-06,-0.071982,-1.996e-05,-116.46,2.2946
23308,22.897,2.4545,0.1,3.1203e-05,311.82,2.7293e-05,232.53,-3.6649e-06,-0.079117,-1.9864e-05,-121.79,2.3089
23309,22.622,2.3636,0.1,3.5706e-05,356.81,3.2601e-05,289.97,-5.9995e-06,-0.061651,-2.0428e-05,-108.48,2.2661
23310,22.713,2.4545,0.1,3.4235e-05,342.12,3.0861e-05,270.91,-5.204e-06,-0.066832,-2.0304e-05,-113.52,2.2804
23311,22.438,2.3636,0.1,3.8909e-05,388.82,3.6196e-05,328.38,-7.5157e-06,-0.053951,-2.0944e-05,-100.95,2.2376
23312,22.53,2.4545,0.1,3.7382e-05,373.56,3.4444e-05,309.3,-6.7288e-06,-0.058083,-2.079e-05,-105.71,2.2519
23313,22.254,2.3636,0.1,4.22e-05,421.71,3.9812e-05,366.85,-9.0197e-06,-0.047862,-2.1506e-05,-93.862,2.2091
23314,22.346,2.4545,0.1,4.0624e-05,405.96,3.8047e-05,347.74,-8.2408e-06,-0.051211,-2.1323e-05,-98.344,2.2234
23315,22.07,2.3636,0.1,4.5566e-05,455.35,4.3452e-05,405.43,-1.0513e-05,-0.042964,-2.2113e-05,-87.196,2.1807
23316,22.162,2.4545,0.1,4.3947e-05,439.17,4.1672e-05,386.25,-9.7414e-06,-0.045764,-2.19e-05,-91.404,2.1949
23317,21.886,2.3636,0.1,4.8999e-05,489.65,4.7117e-05,444.13,-1.1998e-05,-0.038924,-2.2763e-05,-80.927,2.1522
23318,21.978,2.4545,0.1,4.734e-05,473.08,4.5321e-05,424.88,-1.1232e-05,-0.041317,-2.2522e-05,-84.872,2.1665
23319,21.703,2.3636,0.1,5.249e-05,524.54,5.0809e-05,482.97,-1.3475e-05,-0.03553,-2.3456e-05,-75.033,2.1238
23320,21.794,2.4545,0.1,5.0796e-05,507.61,4.8996e-05,463.63,-1.2714e-05,-0.037615,-2.3187e-05,-78.725,2.1381
23321,21.519,2.3636,0.1,5.6035e-05,559.96,5.4528e-05,521.96,-1.4945e-05,-0.032633,-2.4189e-05,-69.489,2.0955
23322,21.611,2.4545,0.1,5.4308e-05,542.71,5.2698e-05,502.53,-1.419e-05,-0.034472,-2.3893e-05,-72.942,2.1097
23323,21.335,2.3636,0.1,5.9629e-05,595.88,5.8275e-05,561.13,-1.6411e-05,-0.030131,-2.496e-05,-64.268,2.0672
23324,21.427,2.4545,0.1,5.7872e-05,578.32,5.6427e-05,541.59,-1.5659e-05,-0.031776,-2.4638e-05,-67.496,2.0813
23325,21.151,2.3636,0.1,6.3268e-05,632.25,6.2049e-05,600.47,-1.7872e-05,-0.027949,-2.5767e-05,-59.346,2.0389
23326,21.243,2.4545,0.1,6.1482e-05,614.4,6.0183e-05,580.83,-1.7124e-05,-0.029431,-2.542e-05,-62.363,2.053
23327,20.967,2.3636,0.1,6.695e-05,669.03,6.5851e-05,640,-1.9331e-05,-0.026038,-2.6607e-05,-54.696,2.0106
23328,21.059,2.4545,0.1,6.5137e-05,650.92,6.3967e-05,620.24,-1.8585e-05,-0.027379,-2.6237e-05,-57.518,2.0248
23329,20.784,2.3636,0.1,7.067e-05,706.22,6.968e-05,679.71,-2.0788e-05,-0.02434,-2.7478e-05,-50.295,1.9824
23330,20.875,2.4545,0.1,6.8833e-05,687.86,6.7779e-05,659.85,-2.0044e-05,-0.025572,-2.7086e-05,-52.936,1.9966
23331,20.6,2.3636,0.1,7.4428e-05,743.77,7.3536e-05,719.63,-2.2244e-05,-0.022817,-2.8378e-05,-46.116,1.9543
23332,20.692,2.4545,0.1,7.2567e-05,725.17,7.1618e-05,699.64,-2.1502e-05,-0.023961,-2.7966e-05,-48.593,1.9684
23333,20.416,2.3636,0.1,7.8221e-05,781.67,7.7419e-05,759.74,-2.3699e-05,-0.021438,-2.9305e-05,-42.138,1.9262
23334,20.508,2.4545,0.1,7.6338e-05,762.85,7.5484e-05,739.64,-2.2959e-05,-0.0225,-2.8873e-05,-44.463,1.9403
23335,20.232,2.3636,0.1,8.2047e-05,819.9,8.1327e-05,800.05,-2.5156e-05,-0.020189,-3.0255e-05,-38.335,1.8982
23336,20.324,2.4545,0.1,8.0142e-05,800.87,7.9376e-05,779.83,-2.4416e-05,-0.021178,-2.9807e-05,-40.523,1.9122
23337,20.048,2.3636,0.1,8.5903e-05,858.44,8.526e-05,840.56,-2.6614e-05,-0.019051,-3.1228e-05,-34.687,1.8702
23338,20.14,2.4545,0.1,8.3979e-05,839.21,8.3293e-05,820.22,-2.5874e-05,-0.019977,-3.0763e-05,-36.751,1.8842
23339,19.865,2.3636,0.1,8.9789e-05,897.27,8.9218e-05,881.27,-2.8075e-05,-0.018016,-3.2221e-05,-31.169,1.8422
23340,19.956,2.4545,0.1,8.7846e-05,877.86,8.7236e-05,860.82,-2.7335e-05,-0.018882,-3.1741e-05,-33.123,1.8562
23341,19.681,2.3636,0.1,9.3703e-05,936.38,9.3199e-05,922.18,-2.9538e-05,-0.017069,-3.3231e-05,-27.762,1.8144
23342,19.773,2.4545,0.1,9.1742e-05,916.79,9.1202e-05,901.61,-2.8798e-05,-0.017889,-3.2737e-05,-29.618,1.8283
23343,19.497,2.3636,0.1,9.7643e-05,975.76,9.7204e-05,963.3,-3.1005e-05,-0.016178,-3.4256e-05,-24.444,1.7865
23344,19.589,2.4545,0.1,9.5666e-05,956,9.5193e-05,942.61,-3.0264e-05,-0.01697,-3.375e-05,-26.214,1.8005
23345,19.313,2.3636,0.1,0.00010161,1015.4,0.00010123,1004.6,-3.2477e-05,-0.015332,-3.5295e-05,-21.193,1.7588
23346,19.405,2.4545,0.1,9.9615e-05,995.46,9.9206e-05,983.81,-3.1734e-05,-0.016093,-3.4778e-05,-22.89,1.7727
23347,19.129,2.3636,0.1,0.0001056,1055.2,0.00010528,1046.1,-3.3953e-05,-0.014529,-3.6346e-05,-17.991,1.7311
23348,19.221,2.4545,0.1,0.00010359,1035.2,0.00010324,1025.2,-3.3209e-05,-0.015269,-3.5819e-05,-19.625,1.745
23349,18.946,2.3636,0.1,0.00010961,1095.3,0.00010935,1087.8,-3.5435e-05,-0.013756,-3.7405e-05,-14.815,1.7035
23350,19.038,2.4545,0.1,0.00010759,1075.1,0.0001073,1066.8,-3.4689e-05,-0.014486,-3.6869e-05,-16.397,1.7173
23351,18.762,2.3636,0.1,0.00011364,1135.6,0.00011344,1129.7,-3.6924e-05,-0.012996,-3.8472e-05,-11.647,1.676
23352,18.854,2.4545,0.1,0.0001116,1115.3,0.00011137,1108.6,-3.6175e-05,-0.013729,-3.7928e-05,-13.187,1.6898
23353,18.578,2.3636,0.1,0.00011769,1176.1,0.00011755,1171.8,-3.8419e-05,-0.01219,-3.9544e-05,-8.4648,1.6485
23354,18.67,2.4545,0.1,0.00011564,1155.6,0.00011547,1150.6,-3.7668e-05,-0.012985,-3.8994e-05,-9.9732,1.6623
23355,18.394,2.3636,0.1,0.00012176,1216.8,0.00012167,1214.2,-3.9922e-05,-0.011131,-4.062e-05,-5.2487,1.6212
23356,18.486,2.4545,0.1,0.0001197,1196.2,0.00011958,1192.8,-3.9168e-05,-0.012156,-4.0063e-05,-6.7349,1.6349
23357,18.21,2.3636,0.1,0.00012585,1257.6,0.00012582,1256.6,-4.1434e-05,-0.0084288,-4.1696e-05,-1.9788,1.5939
23358,18.302,2.4545,0.1,0.00012378,1236.9,0.00012372,1235.2,-4.0676e-05,-0.010861,-4.1134e-05,-3.451,1.6075
23359,18.027,2.3636,0.1,0.00012996,1298.7,0.00012998,1299.3,-4.2769e-05,1.3789,-4.2955e-05,-0.016248,1.5666
23360,18.119,2.4545,0.1,0.00012787,1277.8,0.00012787,1277.8,-4.2188e-05,0.028522,-4.221e-05,-0.13711,1.5803
23361,17.843,2.3636,0.1,0.00013408,1339.8,0.00013416,1342.2,-4.3841e-05,4.8242,-4.4485e-05,-0.012285,1.5395
23362,17.935,2.4545,0.1,0.00013198,1318.9,0.00013204,1320.5,-4.3273e-05,3.348,-4.372e-05,-0.012766,1.5531
23363,17.659,2.3636,0.1,0.00013821,1381.2,0.00013835,1385.3,-4.4907e-05,8.3951,-4.6026e-05,-0.011244,1.5125
23364,17.751,2.4545,0.1,0.0001361,1360.1,0.00013622,1363.5,-4.4336e-05,6.9045,-4.5257e-05,-0.011505,1.526
23365,17.475,2.3636,0.1,0.00014236,1422.6,0.00014256,1428.6,-4.5964e-05,12.113,-4.7578e-05,-0.010587,1.4856
23366,17.567,2.4545,0.1,0.00014024,1401.4,0.00014042,1406.7,-4.5392e-05,10.6,-4.6804e-05,-0.010809,1.4991
23367,17.291,2.3636,0.1,0.00014652,1464.2,0.00014678,1472.1,-4.7012e-05,16.004,-4.9143e-05,-0.010051,1.4587
23368,17.383,2.4545,0.1,0.00014439,1442.9,0.00014463,1450.1,-4.6439e-05,14.46,-4.8364e-05,-0.01026,1.4722
23369,17.108,2.3636,0.1,0.00015069,1505.9,0.00015102,1515.8,-4.8046e-05,20.094,-5.0721e-05,-0.009576,1.432
23370,17.2,2.4545,0.1,0.00014855,1484.5,0.00014886,1493.7,-4.7473e-05,18.511,-4.9938e-05,-0.0097558,1.4454
23371,16.924,2.3636,0.1,0.00015488,1547.7,0.00015528,1559.8,-4.9064e-05,24.411,-5.2314e-05,-0.00916,1.4053
23372,17.016,2.4545,0.1,0.00015273,1526.2,0.0001531,1537.5,-4.8492e-05,22.783,-5.1525e-05,-0.009301,1.4187
23373,16.74,2.3636,0.1,0.00015907,1589.6,0.00015955,1603.9,-5.0065e-05,28.986,-5.3924e-05,-0.0088006,1.3788
23374,16.832,2.4545,0.1,0.00015691,1568.1,0.00015736,1581.5,-4.9494e-05,27.304,-5.3129e-05,-0.0088934,1.3921
23375,16.556,2.3636,0.1,0.00016328,1631.7,0.00016383,1648.3,-5.1045e-05,33.851,-5.5551e-05,-0.008511,1.3524
23376,16.648,2.4545,0.1,0.00016111,1610,0.00016163,1625.8,-5.0475e-05,32.109,-5.475e-05,-0.0085343,1.3656
23377,16.372,2.3636,0.1,0.0001675,1673.8,0.00016813,1693,-5.2001e-05,39.039,-5.7198e-05,-0.0082935,1.3261
23378,16.464,2.4545,0.1,0.00016532,1652,0.00016592,1670.3,-5.1433e-05,37.232,-5.639e-05,-0.00825,1.3393
23379,16.189,2.3636,0.1,0.00017173,1716.1,0.00017245,1738,-5.2931e-05,44.587,-5.8866e-05,-0.0081295,1.2999
23380,16.281,2.4545,0.1,0.00016954,1694.2,0.00017022,1715.2,-5.2365e-05,42.71,-5.8051e-05,-0.0080198,1.313
23381,16.005,2.3636,0.1,0.00017598,1758.6,0.00017679,1783.3,-5.3833e-05,50.533,-6.0559e-05,-0.0080402,1.2738
23382,16.097,2.4545,0.1,0.00017377,1736.5,0.00017455,1760.3,-5.3268e-05,48.583,-5.9735e-05,-0.0078244,1.2869
23383,15.821,2.3636,0.1,0.00018025,1801.2,0.00018115,1829,-5.4703e-05,56.917,-6.2279e-05,-0.008072,1.2478
23384,15.913,2.4545,0.1,0.00017802,1779,0.00017889,1805.8,-5.414e-05,54.893,-6.1447e-05,-0.0077211,1.2608
23385,15.637,2.3636,0.1,0.00018454,1844.1,0.00018554,1875.2,-5.554e-05,63.783,-6.403e-05,-0.0082641,1.222
23386,15.729,2.4545,0.1,0.0001823,1821.7,0.00018327,1851.8,-5.4977e-05,61.685,-6.3188e-05,-0.0077434,1.2349
23387,15.453,2.3636,0.1,0.00018886,1887.3,0.00018997,1921.9,-5.6343e-05,71.175,-6.5816e-05,-0.0086788,1.1962
23388,15.545,2.4545,0.1,0.0001866,1864.7,0.00018767,1898.2,-5.5779e-05,69.007,-6.4964e-05,-0.0079307,1.2091
23389,15.27,2.3636,0.1,0.00019322,1930.9,0.00019444,1969.2,-5.7109e-05,79.138,-6.7643e-05,-0.0093742,1.1706
23390,15.362,2.4545,0.1,0.00019093,1908,0.00019212,1945.3,-5.6542e-05,76.907,-6.6779e-05,-0.008362,1.1835
23391,15.086,2.3636,0.1,0.00019763,1974.9,0.00019898,2017.3,-5.7839e-05,87.719,-6.9515e-05,-0.010399,1.1452
23392,15.178,2.4545,0.1,0.00019531,1951.7,0.00019662,1993.1,-5.7266e-05,85.438,-6.8639e-05,-0.0090672,1.158
23393,14.902,2.3636,0.1,0.00020211,2019.7,0.00020358,2066.4,-5.8535e-05,96.964,-7.1442e-05,-0.011868,1.1199
23394,14.994,2.4545,0.1,0.00019975,1996.1,0.00020119,2041.8,-5.7953e-05,94.649,-7.0551e-05,-0.010104,1.1326
23395,14.718,2.3636,0.1,0.00020668,2065.3,0.00020829,2116.7,-5.92e-05,106.91,-7.3432e-05,-0.013954,1.0947
23396,14.81,2.4545,0.1,0.00020427,2041.3,0.00020585,2091.6,-5.8603e-05,104.59,-7.2525e-05,-0.011634,1.1073
23397,14.534,2.3636,0.1,0.00021136,2112.2,0.00021312,2168.5,-5.9841e-05,117.61,-7.5495e-05,-0.016858,1.0696
23398,14.626,2.4545,0.1,0.0002089,2087.5,0.00021062,2142.8,-5.9222e-05,115.31,-7.457e-05,-0.013826,1.0822
23399,14.351,2.3636,0.1,0.0002162,2160.6,0.00021811,2222.2,-6.0467e-05,129.06,-7.7647e-05,-0.020854,1.0447
23400,14.443,2.4545,0.1,0.00021367,2135.2,0.00021554,2195.8,-5.9817e-05,126.84,-7.6701e-05,-0.016896,1.0572
23401,14.167,2.3636,0.1,0.00022125,2211,0.00022332,2278.2,-6.1093e-05,141.3,-7.9903e-05,-0.026275,1.02
23402,14.259,2.4545,0.1,0.00021862,2184.7,0.00022066,2251,-6.0402e-05,139.21,-7.8933e-05,-0.02116,1.0324
23403,13.983,2.3636,0.1,0.00022657,2264.1,0.0002288,2337.3,-6.1741e-05,154.31,-8.2283e-05,-0.033523,0.99536
23404,14.075,2.4545,0.1,0.00022382,2236.7,0.00022603,2309,-6.0995e-05,152.43,-8.1286e-05,-0.026947,1.0077
23405,13.799,2.3636,0.1,0.00023223,2320.7,0.00023463,2400.2,-6.2444e-05,168.03,-8.4813e-05,-0.043186,0.97091
23406,13.891,2.4545,0.1,0.00022935,2291.9,0.00023173,2370.6,-6.1624e-05,166.47,-8.3784e-05,-0.034716,0.98318
23407,13.616,2.3636,0.1,0.00023836,2382,0.00024094,2467.9,-6.3245e-05,182.36,-8.7523e-05,-0.056048,0.94662
23408,13.707,2.4545,0.1,0.0002353,2351.4,0.00023786,2436.7,-6.2329e-05,181.25,-8.6458e-05,-0.045166,0.95881
23409,13.432,2.3636,0.1,0.00024509,2449.2,0.00024784,2541.7,-6.4206e-05,197.13,-9.0452e-05,-0.073097,0.92249
23410,13.524,2.4545,0.1,0.00024181,2416.4,0.00024455,2508.7,-6.3164e-05,196.63,-8.9342e-05,-0.059166,0.9346
23411,13.248,2.3636,0.1,0.00025259,2524.2,0.00025553,2623.5,-6.5411e-05,212.05,-9.3646e-05,-0.095614,0.89853
23412,13.34,2.4545,0.1,0.00024904,2488.6,0.00025197,2588,-6.4207e-05,212.38,-9.2483e-05,-0.077845,0.91056
23413,13.064,2.3636,0.1,0.00026112,2609.4,0.00026423,2715.2,-6.6978e-05,226.67,-9.7163e-05,-0.1252,0.87474
23414,13.156,2.4545,0.1,0.00025721,2570.4,0.00026033,2676.8,-6.5564e-05,228.11,-9.5937e-05,-0.1027,0.88668
23415,12.88,2.3636,0.1,0.00027098,2707.9,0.00027426,2820,-6.907e-05,240.31,-0.00010108,-0.16382,0.85113
23416,12.972,2.4545,0.1,0.00026663,2664.5,0.00026993,2777.7,-6.7382e-05,243.23,-9.9772e-05,-0.13558,0.86298
23417,12.697,2.3636,0.1,0.00028259,2824,0.00028603,2941.4,-7.191e-05,251.99,-0.00010548,-0.21409,0.8277
23418,12.788,2.4545,0.1,0.00027768,2774.8,0.00028115,2894.2,-6.9867e-05,256.85,-0.00010408,-0.1788,0.83947
23419,12.513,2.3636,0.1,0.00029652,2963.2,0.00030008,3084.5,-7.5812e-05,260.21,-0.00011048,-0.27897,0.80447
23420,12.605,2.4545,0.1,0.00029086,2906.6,0.00029448,3031,-7.3301e-05,267.66,-0.00010896,-0.23552,0.81614
23421,12.329,2.3636,0.1,0.00031355,3133.3,0.00031718,3256.2,-8.1219e-05,262.81,-0.00011625,-0.3637,0.78144
23422,12.421,2.4545,0.1,0.00030688,3066.7,0.00031061,3194.2,-7.8082e-05,273.69,-0.00011455,-0.3092,0.79301
23423,12.145,2.3636,0.1,0.00033477,3345.4,0.00033839,3466.1,-8.8764e-05,256.63,-0.00012298,-0.47185,0.75862
23424,12.237,2.4545,0.1,0.00032668,3264.6,0.00033045,3391.9,-8.4767e-05,272.11,-0.00012104,-0.40577,0.77009
23425,11.961,2.3636,0.1,0.0003618,3615.5,0.00036524,3727.9,-9.9371e-05,236.96,-0.00013099,-0.62222,0.73603
23426,12.053,2.4545,0.1,0.00035161,3513.7,0.00035529,3635.6,-9.415e-05,258.72,-0.00012865,-0.5299,0.7474
23427,11.778,2.3636,0.1,0.00039709,3968.2,0.00040006,4062.5,-0.00011443,196.85,-0.00014074,-0.85068,0.71368
23428,11.869,2.4545,0.1,0.00038357,3833.1,0.00038692,3941.4,-0.00010737,227.43,-0.00013774,-0.69656,0.72494
23429,11.594,2.3636,0.1,0.00044454,4442.3,0.00044652,4503.3,-0.0001361,125.64,-0.00015296,-0.98969,0.6916
23430,11.686,2.4545,0.1,0.00042539,4250.9,0.000428,4332.5,-0.0001261,169.3,-0.00014876,-0.973,0.70274
23431,11.41,2.3636,0.1,0.00051086,5105.1,0.00051091,5106.6,-0.00016749,9.373,-0.00016958,-6.2986,0.66981
23432,11.502,2.4545,0.1,0.00048125,4809.2,0.0004824,4843.8,-0.00015277,71.374,-0.00016244,-1.2882,0.68083
23433,11.226,2.3636,0.1,0.0006067,6062.8,0.00060323,5965.4,-0.0001904,2.3648,-0.00021634,-192.56,0.64834
23434,11.318,2.4545,0.1,0.00055757,5571.9,0.000556,5526.7,-0.00017975,-1.4151,-0.00019126,-87.899,0.65924
23435,11.042,2.3636,0.1,0.00074476,7442.4,0.00073477,7176.1,-0.00021883,11.047,-0.00028896,-515.84,0.62726
23436,11.134,2.4545,0.1,0.00066191,6614.6,0.00065572,6444.7,-0.00020151,3.8422,-0.00024606,-330.83,0.63801
23437,10.95,2.4545,0.1,0.00079545,7949,0.00078169,7588,-0.00022754,4.9788,-0.00031903,-682.41,0.6172
23438,10.859,2.3636,0.1,0.00088733,8867.2,0.00086956,8410.2,-0.00024676,22.664,-0.00036546,-869.2,0.60665
23439,23.724,2.5455,0.1,2.022e-05,202.06,1.1388e-05,58.911,3.5175e-06,-0.22724,-1.8561e-05,-166.12,2.4375
23440,23.816,2.6364,0.1,1.951e-05,194.97,9.653e-06,39.557,4.3601e-06,-0.21147,-1.8534e-05,-172.23,2.4519
23441,23.908,2.5455,0.1,1.8836e-05,188.23,8.064e-06,22.266,5.0427e-06,-0.43396,-1.8362e-05,-176.29,2.4661
23442,23.541,2.5455,0.1,2.216e-05,221.44,1.4931e-05,97.716,1.8956e-06,-0.22901,-1.8811e-05,-155.81,2.4089
23443,23.632,2.6364,0.1,2.122e-05,212.05,1.3194e-05,78.345,2.7227e-06,-0.33126,-1.8767e-05,-161.8,2.4233
23444,23.357,2.5455,0.1,2.4469e-05,244.52,1.8473e-05,136.42,2.9935e-07,-0.13242,-1.9099e-05,-145.88,2.3803
23445,23.449,2.6364,0.1,2.3353e-05,233.37,1.6733e-05,117.14,1.1238e-06,-0.14491,-1.9035e-05,-151.61,2.3947
23446,23.173,2.5455,0.1,2.7056e-05,270.38,2.2018e-05,174.98,-1.2841e-06,-0.10925,-1.9426e-05,-136.42,2.3518
23447,23.265,2.6364,0.1,2.5807e-05,257.89,2.0278e-05,155.77,-4.7049e-07,-0.12694,-1.934e-05,-141.91,2.3661
23448,22.989,2.5455,0.1,2.9853e-05,298.33,2.557e-05,213.44,-2.8495e-06,-0.086438,-1.9796e-05,-127.42,2.3232
23449,23.081,2.6364,0.1,2.8502e-05,284.82,2.3826e-05,194.29,-2.0452e-06,-0.095207,-1.9687e-05,-132.65,2.3375
23450,22.805,2.5455,0.1,3.2811e-05,327.89,2.9131e-05,251.86,-4.3989e-06,-0.072973,-2.021e-05,-118.87,2.2947
23451,22.897,2.6364,0.1,3.138e-05,313.58,2.7382e-05,232.73,-3.6039e-06,-0.07995,-2.0076e-05,-123.84,2.3089
23452,22.622,2.5455,0.1,3.5897e-05,358.73,3.2706e-05,290.26,-5.9332e-06,-0.062597,-2.0668e-05,-110.78,2.2661
23453,22.713,2.6364,0.1,3.4401e-05,343.77,3.0949e-05,271.14,-5.1468e-06,-0.067621,-2.0508e-05,-115.49,2.2804
23454,22.438,2.5455,0.1,3.9087e-05,390.6,3.6298e-05,328.68,-7.4539e-06,-0.054866,-2.1172e-05,-103.13,2.2376
23455,22.53,2.6364,0.1,3.7537e-05,375.11,3.4531e-05,309.55,-6.6754e-06,-0.058839,-2.0985e-05,-107.58,2.2519
23456,22.254,2.5455,0.1,4.2365e-05,423.35,3.991e-05,367.16,-8.9624e-06,-0.048753,-2.172e-05,-95.906,2.2092
23457,22.346,2.6364,0.1,4.0767e-05,407.39,3.8131e-05,347.99,-8.1911e-06,-0.051946,-2.1507e-05,-100.11,2.2234
23458,22.07,2.5455,0.1,4.5717e-05,456.86,4.3545e-05,405.73,-1.046e-05,-0.043835,-2.2313e-05,-89.102,2.1807
23459,22.162,2.6364,0.1,4.4079e-05,440.48,4.1752e-05,386.51,-9.6954e-06,-0.046481,-2.2074e-05,-93.053,2.1949
23460,21.886,2.5455,0.1,4.9136e-05,491.02,4.7204e-05,444.41,-1.1949e-05,-0.039779,-2.2949e-05,-82.694,2.1523
23461,21.978,2.6364,0.1,4.7461e-05,474.28,4.5396e-05,425.12,-1.119e-05,-0.04202,-2.2684e-05,-86.406,2.1665
23462,21.703,2.5455,0.1,5.2614e-05,525.78,5.0888e-05,483.22,-1.343e-05,-0.036366,-2.3627e-05,-76.659,2.1239
23463,21.794,2.6364,0.1,5.0905e-05,508.7,4.9066e-05,463.86,-1.2675e-05,-0.038306,-2.3336e-05,-80.142,2.1381
23464,21.519,2.5455,0.1,5.6146e-05,561.07,5.46e-05,522.19,-1.4904e-05,-0.033452,-2.4346e-05,-70.975,2.0955
23465,21.611,2.6364,0.1,5.4406e-05,543.69,5.2761e-05,502.74,-1.4154e-05,-0.03515,-2.403e-05,-74.242,2.1097
23466,21.335,2.5455,0.1,5.9727e-05,596.86,5.8339e-05,561.32,-1.6373e-05,-0.030933,-2.5102e-05,-65.618,2.0672
23467,21.427,2.6364,0.1,5.7959e-05,579.19,5.6484e-05,541.78,-1.5626e-05,-0.032439,-2.4763e-05,-68.682,2.0814
23468,21.151,2.5455,0.1,6.3354e-05,633.1,6.2106e-05,600.63,-1.7837e-05,-0.028735,-2.5894e-05,-60.564,2.0389
23469,21.243,2.6364,0.1,6.156e-05,615.17,6.0234e-05,580.98,-1.7094e-05,-0.030082,-2.5533e-05,-63.437,2.0531
23470,20.967,2.5455,0.1,6.7024e-05,669.77,6.59e-05,640.12,-1.9299e-05,-0.026802,-2.672e-05,-55.788,2.0107
23471,21.059,2.6364,0.1,6.5204e-05,651.59,6.4012e-05,620.37,-1.8558e-05,-0.028016,-2.6338e-05,-58.484,2.0248
23472,20.784,2.5455,0.1,7.0733e-05,706.84,6.9721e-05,679.81,-2.0759e-05,-0.025089,-2.7578e-05,-51.264,1.9825
23473,20.875,2.6364,0.1,6.8891e-05,688.43,6.7817e-05,659.94,-2.0019e-05,-0.026194,-2.7176e-05,-53.798,1.9966
23474,20.6,2.5455,0.1,7.448e-05,744.29,7.357e-05,719.68,-2.2217e-05,-0.023549,-2.8465e-05,-46.969,1.9544
23475,20.692,2.6364,0.1,7.2616e-05,725.66,7.165e-05,699.71,-2.1479e-05,-0.024569,-2.8044e-05,-49.355,1.9684
23476,20.416,2.5455,0.1,7.8263e-05,782.09,7.7445e-05,759.76,-2.3676e-05,-0.022152,-2.9379e-05,-42.879,1.9263
23477,20.508,2.6364,0.1,7.6377e-05,763.25,7.5509e-05,739.67,-2.2938e-05,-0.023093,-2.8941e-05,-45.129,1.9403
23478,20.232,2.5455,0.1,8.2079e-05,820.22,8.1346e-05,800.03,-2.5135e-05,-0.020885,-3.0318e-05,-38.969,1.8982
23479,20.324,2.6364,0.1,8.0174e-05,801.18,7.9395e-05,779.83,-2.4397e-05,-0.021758,-2.9864e-05,-41.099,1.9123
23480,20.048,2.5455,0.1,8.5926e-05,858.67,8.5273e-05,840.51,-2.6595e-05,-0.019731,-3.128e-05,-35.218,1.8702
23481,20.14,2.6364,0.1,8.4003e-05,839.45,8.3307e-05,820.2,-2.5858e-05,-0.020543,-3.0811e-05,-37.239,1.8842
23482,19.865,2.5455,0.1,8.9804e-05,897.42,8.9224e-05,881.19,-2.8058e-05,-0.018682,-3.2261e-05,-31.603,1.8423
23483,19.956,2.6364,0.1,8.7863e-05,878.02,8.7244e-05,860.77,-2.732e-05,-0.019436,-3.1779e-05,-33.528,1.8563
23484,19.681,2.5455,0.1,9.3709e-05,936.45,9.32e-05,922.07,-2.9523e-05,-0.017722,-3.3261e-05,-28.101,1.8144
23485,19.773,2.6364,0.1,9.1752e-05,916.88,9.1205e-05,901.54,-2.8784e-05,-0.018432,-3.2767e-05,-29.942,1.8284
23486,19.497,2.5455,0.1,9.7642e-05,975.74,9.7198e-05,963.16,-3.0992e-05,-0.016821,-3.4276e-05,-24.691,1.7866
23487,19.589,2.6364,0.1,9.5668e-05,956.02,9.519e-05,942.51,-3.0252e-05,-0.017504,-3.3772e-05,-26.46,1.8005
23488,19.313,2.5455,0.1,0.0001016,1015.3,0.00010122,1004.4,-3.2466e-05,-0.015969,-3.5305e-05,-21.351,1.7589
23489,19.405,2.6364,0.1,9.9611e-05,995.42,9.9198e-05,983.68,-3.1724e-05,-0.016621,-3.4791e-05,-23.06,1.7728
23490,19.129,2.5455,0.1,0.00010558,1055.1,0.00010526,1045.9,-3.3945e-05,-0.015167,-3.6346e-05,-18.06,1.7312
23491,19.221,2.6364,0.1,0.00010358,1035.1,0.00010323,1025.1,-3.3201e-05,-0.015795,-3.5823e-05,-19.721,1.745
23492,18.946,2.5455,0.1,0.00010958,1095.1,0.00010933,1087.6,-3.5429e-05,-0.014406,-3.7396e-05,-14.797,1.7036
23493,19.038,2.6364,0.1,0.00010757,1074.9,0.00010728,1066.6,-3.4683e-05,-0.015018,-3.6866e-05,-16.42,1.7174
23494,18.762,2.5455,0.1,0.00011361,1135.3,0.00011341,1129.5,-3.6919e-05,-0.013675,-3.8453e-05,-11.541,1.6761
23495,18.854,2.6364,0.1,0.00011158,1115,0.00011135,1108.4,-3.617e-05,-0.01428,-3.7917e-05,-13.136,1.6898
23496,18.578,2.5455,0.1,0.00011765,1175.7,0.00011751,1171.6,-3.8417e-05,-0.012939,-3.9516e-05,-8.2699,1.6486
23497,18.67,2.6364,0.1,0.00011561,1155.3,0.00011544,1150.4,-3.7665e-05,-0.013579,-3.8974e-05,-9.8486,1.6624
23498,18.394,2.5455,0.1,0.00012172,1216.3,0.00012163,1213.8,-3.9922e-05,-0.01206,-4.0581e-05,-4.9628,1.6212
23499,18.486,2.6364,0.1,0.00011967,1195.8,0.00011955,1192.6,-3.9167e-05,-0.012852,-4.0035e-05,-6.5351,1.6349
23500,18.21,2.5455,0.1,0.0001258,1257.1,0.00012577,1256.3,-4.1435e-05,-0.0099755,-4.1647e-05,-1.5982,1.5939
23501,18.302,2.6364,0.1,0.00012374,1236.5,0.00012368,1234.9,-4.0677e-05,-0.011879,-4.1098e-05,-3.1735,1.6076
23502,18.027,2.5455,0.1,0.0001299,1298.1,0.00012993,1299,-4.271e-05,1.8535,-4.2959e-05,-0.013528,1.5667
23503,18.119,2.6364,0.1,0.00012782,1277.4,0.00012783,1277.5,-4.2159e-05,0.26834,-4.2197e-05,-0.020124,1.5804
23504,17.843,2.5455,0.1,0.00013401,1339.2,0.0001341,1341.9,-4.3771e-05,5.405,-4.4492e-05,-0.011774,1.5396
23505,17.935,2.6364,0.1,0.00013193,1318.4,0.00013199,1320.2,-4.3219e-05,3.7887,-4.3724e-05,-0.012073,1.5532
23506,17.659,2.5455,0.1,0.00013814,1380.4,0.00013829,1384.9,-4.4824e-05,9.0874,-4.6035e-05,-0.011029,1.5126
23507,17.751,2.6364,0.1,0.00013604,1359.5,0.00013617,1363.2,-4.4272e-05,7.4357,-4.5263e-05,-0.011263,1.5261
23508,17.475,2.5455,0.1,0.00014228,1421.8,0.00014249,1428.2,-4.5869e-05,12.926,-4.7591e-05,-0.010463,1.4856
23509,17.567,2.6364,0.1,0.00014018,1400.8,0.00014036,1406.4,-4.5318e-05,11.228,-4.6814e-05,-0.010685,1.4991
23510,17.291,2.5455,0.1,0.00014643,1463.3,0.00014671,1471.7,-4.6902e-05,16.947,-4.9159e-05,-0.0099524,1.4588
23511,17.383,2.6364,0.1,0.00014432,1442.2,0.00014457,1449.7,-4.6353e-05,15.193,-4.8377e-05,-0.010174,1.4723
23512,17.108,2.5455,0.1,0.00015059,1504.9,0.00015094,1515.4,-4.7922e-05,21.181,-5.0742e-05,-0.0094712,1.4321
23513,17.2,2.6364,0.1,0.00014847,1483.7,0.00014879,1493.3,-4.7375e-05,19.359,-4.9953e-05,-0.0096718,1.4455
23514,16.924,2.5455,0.1,0.00015477,1546.6,0.00015519,1559.3,-4.8924e-05,25.658,-5.234e-05,-0.0090279,1.4054
23515,17.016,2.6364,0.1,0.00015264,1525.4,0.00015303,1537.1,-4.8381e-05,23.758,-5.1545e-05,-0.0092009,1.4188
23516,16.74,2.5455,0.1,0.00015895,1588.4,0.00015945,1603.4,-4.9906e-05,30.411,-5.3955e-05,-0.0086244,1.3789
23517,16.832,2.6364,0.1,0.00015682,1567.1,0.00015728,1581.1,-4.9368e-05,28.421,-5.3152e-05,-0.0087627,1.3922
23518,16.556,2.5455,0.1,0.00016315,1630.4,0.00016372,1647.8,-5.0865e-05,35.475,-5.5588e-05,-0.0082751,1.3525
23519,16.648,2.6364,0.1,0.00016101,1609,0.00016155,1625.4,-5.0334e-05,33.384,-5.4778e-05,-0.0083584,1.3657
23520,16.372,2.5455,0.1,0.00016736,1672.4,0.00016802,1692.5,-5.1799e-05,40.889,-5.7242e-05,-0.0079838,1.3262
23521,16.464,2.6364,0.1,0.00016521,1650.9,0.00016583,1669.9,-5.1274e-05,38.686,-5.6424e-05,-0.0080179,1.3393
23522,16.189,2.5455,0.1,0.00017158,1714.6,0.00017233,1737.5,-5.2704e-05,46.694,-5.892e-05,-0.0077292,1.3
23523,16.281,2.6364,0.1,0.00016942,1693,0.00017013,1714.7,-5.2186e-05,44.366,-5.8091e-05,-0.007718,1.3131
23524,16.005,2.5455,0.1,0.00017582,1757,0.00017666,1782.8,-5.3577e-05,52.932,-6.0623e-05,-0.0075284,1.2739
23525,16.097,2.6364,0.1,0.00017364,1735.2,0.00017445,1759.9,-5.3066e-05,50.469,-5.9784e-05,-0.007436,1.2869
23526,15.821,2.5455,0.1,0.00018008,1799.5,0.00018102,1828.6,-5.4416e-05,59.651,-6.2356e-05,-0.0074267,1.2479
23527,15.913,2.6364,0.1,0.00017788,1777.6,0.00017879,1805.4,-5.3912e-05,57.043,-6.1505e-05,-0.0072294,1.2609
23528,15.637,2.5455,0.1,0.00018436,1842.3,0.0001854,1874.8,-5.5217e-05,66.9,-6.4122e-05,-0.007458,1.2221
23529,15.729,2.6364,0.1,0.00018215,1820.2,0.00018315,1851.4,-5.4721e-05,64.136,-6.3258e-05,-0.0071274,1.235
23530,15.453,2.5455,0.1,0.00018867,1885.4,0.00018983,1921.6,-5.5979e-05,74.731,-6.5926e-05,-0.0076795,1.1963
23531,15.545,2.6364,0.1,0.00018644,1863.1,0.00018756,1898,-5.549e-05,71.804,-6.5048e-05,-0.0071655,1.2092
23532,15.27,2.5455,0.1,0.00019302,1928.9,0.0001943,1969.1,-5.67e-05,83.2,-6.7774e-05,-0.008143,1.1708
23533,15.362,2.6364,0.1,0.00019077,1906.3,0.000192,1945.1,-5.6218e-05,80.102,-6.6879e-05,-0.0074168,1.1836
23534,15.086,2.5455,0.1,0.00019743,1972.9,0.00019884,2017.5,-5.738e-05,92.361,-6.9674e-05,-0.0088887,1.1453
23535,15.178,2.6364,0.1,0.00019514,1950.1,0.0001965,1993.1,-5.6902e-05,89.09,-6.876e-05,-0.0079069,1.1581
23536,14.902,2.5455,0.1,0.00020191,2017.7,0.00020346,2066.9,-5.8021e-05,102.27,-7.1633e-05,-0.010023,1.12
23537,14.994,2.6364,0.1,0.00019958,1994.4,0.00020108,2042,-5.7543e-05,98.826,-7.0697e-05,-0.0086847,1.1327
23538,14.718,2.5455,0.1,0.00020649,2063.5,0.00020818,2117.7,-5.8625e-05,112.98,-7.3663e-05,-0.011706,1.0948
23539,14.81,2.6364,0.1,0.00020411,2039.7,0.00020575,2092.1,-5.8144e-05,109.37,-7.2701e-05,-0.0099052,1.1074
23540,14.534,2.5455,0.1,0.0002112,2110.6,0.00021304,2170.1,-5.9198e-05,124.54,-7.5776e-05,-0.014127,1.0697
23541,14.626,2.6364,0.1,0.00020875,2086.1,0.00021054,2143.8,-5.8708e-05,120.78,-7.4784e-05,-0.011726,1.0823
23542,14.351,2.5455,0.1,0.00021608,2159.4,0.00021809,2224.6,-5.9753e-05,136.99,-7.7987e-05,-0.017546,1.0448
23543,14.443,2.6364,0.1,0.00021354,2134,0.0002155,2197.4,-5.9245e-05,133.09,-7.6961e-05,-0.014357,1.0573
23544,14.167,2.5455,0.1,0.0002212,2210.4,0.00022337,2281.8,-6.0305e-05,150.34,-8.0317e-05,-0.022282,1.0201
23545,14.259,2.6364,0.1,0.00021854,2183.9,0.00022066,2253.4,-5.9768e-05,146.35,-7.9249e-05,-0.018099,1.0325
23546,13.983,2.5455,0.1,0.00022661,2264.5,0.00022896,2342.3,-6.0879e-05,164.59,-8.2788e-05,-0.028729,0.99548
23547,14.075,2.6364,0.1,0.00022381,2236.6,0.00022611,2312.5,-6.0297e-05,160.56,-8.167e-05,-0.02328,1.0078
23548,13.799,2.5455,0.1,0.00023242,2322.6,0.00023495,2407.2,-6.151e-05,179.68,-8.5429e-05,-0.037469,0.97103
23549,13.891,2.6364,0.1,0.00022944,2292.8,0.00023192,2375.6,-6.0864e-05,175.71,-8.4253e-05,-0.030355,0.98328
23550,13.616,2.5455,0.1,0.00023875,2385.8,0.00024147,2477.5,-6.2248e-05,195.52,-8.8277e-05,-0.049303,0.94674
23551,13.707,2.6364,0.1,0.00023553,2353.7,0.0002382,2443.6,-6.151e-05,191.7,-8.703e-05,-0.040041,0.95891
23552,13.432,2.5455,0.1,0.00024576,2455.9,0.00024867,2554.9,-6.3166e-05,211.88,-9.1374e-05,-0.065261,0.92261
23553,13.524,2.6364,0.1,0.00024224,2420.7,0.00024511,2518.1,-6.23e-05,208.4,-9.0043e-05,-0.05325,0.9347
23554,13.248,2.5455,0.1,0.00025366,2534.8,0.00025677,2641.3,-6.436e-05,228.44,-9.4775e-05,-0.086725,0.89865
23555,13.34,2.6364,0.1,0.00024975,2495.8,0.00025282,2600.8,-6.3318e-05,225.51,-9.3341e-05,-0.071202,0.91066
23556,13.064,2.5455,0.1,0.00026273,2625.5,0.00026603,2739.2,-6.5968e-05,244.67,-9.8547e-05,-0.11548,0.87487
23557,13.156,2.6364,0.1,0.00025832,2581.4,0.00026159,2694.1,-6.4686e-05,242.61,-9.6988e-05,-0.095576,0.88679
23558,12.88,2.5455,0.1,0.00027333,2731.4,0.00027682,2852,-6.8179e-05,259.77,-0.00010277,-0.15379,0.85126
23559,12.972,2.6364,0.1,0.00026828,2680.9,0.00027174,2800.9,-6.6572e-05,259,-0.00010106,-0.12852,0.86309
23560,12.697,2.5455,0.1,0.00028595,2857.5,0.0002896,2983.9,-7.1258e-05,272.52,-0.00010756,-0.20465,0.82784
23561,12.788,2.6364,0.1,0.00028005,2798.6,0.0002837,2925.3,-6.9211e-05,273.65,-0.00010565,-0.17288,0.83958
23562,12.513,2.5455,0.1,0.00030122,3010.1,0.00030501,3140.7,-7.5572e-05,281.13,-0.00011302,-0.2719,0.80462
23563,12.605,2.6364,0.1,0.00029422,2940.2,0.00029802,3072.2,-7.2925e-05,284.98,-0.00011089,-0.23248,0.81626
23564,12.329,2.5455,0.1,0.00032002,3198,0.00032388,3329.9,-8.1635e-05,282.95,-0.00011934,-0.36,0.7816
23565,12.421,2.6364,0.1,0.00031155,3113.3,0.00031547,3248.3,-7.817e-05,290.68,-0.0001169,-0.31213,0.79314
23566,12.145,2.5455,0.1,0.00034354,3433,0.00034737,3561.6,-9.0173e-05,274.06,-0.00012671,-0.47654,0.7588
23567,12.237,2.6364,0.1,0.00033307,3328.4,0.00033702,3462.5,-8.5576e-05,287.31,-0.00012387,-0.41721,0.77024
23568,11.961,2.5455,0.1,0.00037344,3731.8,0.00037703,3849.6,-0.00010221,248.76,-0.0001354,-0.62312,0.73623
23569,12.053,2.6364,0.1,0.00036017,3599.2,0.00036399,3726.2,-9.6024e-05,269.89,-0.00013202,-0.55593,0.74756
23570,11.778,2.5455,0.1,0.00041202,4117.3,0.00041502,4212.6,-0.0001192,198.7,-0.00014576,-0.84531,0.71392
23571,11.869,2.6364,0.1,0.00039471,3944.4,0.00039812,4054.5,-0.00011073,231.22,-0.0001416,-0.72846,0.72513
23572,11.594,2.5455,0.1,0.0004625,4621.8,0.00046428,4676.1,-0.00014317,111.98,-0.00015824,-1.2238,0.69188
23573,11.686,2.6364,0.1,0.00043914,4388.4,0.00044165,4466.3,-0.00013132,161.23,-0.00015291,-0.97827,0.70296
23574,11.41,2.5455,0.1,0.00052894,5285.7,0.00052843,5271,-0.0001729,1.446,-0.00017719,-30.801,0.67015
23575,11.502,2.6364,0.1,0.00049646,4961.1,0.00049721,4983.6,-0.00015981,47.019,-0.00016629,-1.6571,0.68109
23576,11.226,2.5455,0.1,0.00061482,6143.9,0.00061038,6020.2,-0.00019087,0.0204,-0.00022286,-240.32,0.64877
23577,11.318,2.6364,0.1,0.00056945,5690.5,0.00056715,5625,-0.00018153,-0.1979,-0.00019862,-128.61,0.65956
23578,11.042,2.5455,0.1,0.00071484,7143.4,0.0007047,6872.1,-0.00021019,-1.993,-0.00027822,-513.11,0.62779
23579,11.134,2.6364,0.1,0.00065787,6574.2,0.00065079,6381.3,-0.00019853,-0.1652,-0.00024775,-370.02,0.63841
23580,10.95,2.6364,0.1,0.00074904,7485.3,0.00073594,7140.7,-0.00021454,-0.85296,-0.00030047,-646.48,0.61768
23581,10.859,2.5455,0.1,0.00080299,8024.3,0.0007869,7606.1,-0.00022576,-2.614,-0.0003289,-777.51,0.60727
23582,23.724,2.7273,0.1,2.0394e-05,203.8,1.1448e-05,58.912,3.5768e-06,-0.22899,-1.8741e-05,-167.92,2.4376
23583,23.816,2.8182,0.1,1.9643e-05,196.29,9.6963e-06,39.543,4.405e-06,-0.21351,-1.8669e-05,-173.58,2.4519
23584,23.908,2.7273,0.1,1.9017e-05,190.04,8.1229e-06,22.253,5.1034e-06,-0.43452,-1.8544e-05,-178.11,2.4662
23585,23.541,2.7273,0.1,2.2328e-05,223.13,1.4994e-05,97.757,1.9531e-06,-0.23008,-1.8992e-05,-157.6,2.409
23586,23.632,2.8182,0.1,2.1349e-05,213.34,1.324e-05,78.362,2.7665e-06,-0.33222,-1.8903e-05,-163.15,2.4233
23587,23.357,2.7273,0.1,2.463e-05,246.13,1.8539e-05,136.49,3.5475e-07,-0.13326,-1.9277e-05,-147.64,2.3804
23588,23.449,2.8182,0.1,2.3476e-05,234.6,1.6782e-05,117.18,1.1662e-06,-0.14558,-1.9169e-05,-152.94,2.3947
23589,23.173,2.7273,0.1,2.7209e-05,271.91,2.2087e-05,175.09,-1.2312e-06,-0.10999,-1.9602e-05,-138.14,2.3518
23590,23.265,2.8182,0.1,2.5925e-05,259.07,2.0329e-05,155.84,-4.2986e-07,-0.12753,-1.9473e-05,-143.21,2.3661
23591,22.989,2.7273,0.1,2.9998e-05,299.77,2.564e-05,213.59,-2.7994e-06,-0.087114,-1.9968e-05,-129.08,2.3232
23592,23.081,2.8182,0.1,2.8613e-05,285.94,2.3878e-05,194.39,-2.0066e-06,-0.095729,-1.9817e-05,-133.92,2.3375
23593,22.805,2.7273,0.1,3.2948e-05,329.25,2.9201e-05,252.03,-4.3517e-06,-0.073607,-2.0376e-05,-120.47,2.2947
23594,22.897,2.8182,0.1,3.1485e-05,314.64,2.7434e-05,232.85,-3.5674e-06,-0.080434,-2.0202e-05,-125.07,2.309
23595,22.622,2.7273,0.1,3.6025e-05,360,3.2775e-05,290.45,-5.889e-06,-0.0632,-2.0828e-05,-112.31,2.2662
23596,22.713,2.8182,0.1,3.45e-05,344.76,3.1001e-05,271.28,-5.1125e-06,-0.068079,-2.0631e-05,-116.66,2.2804
23597,22.438,2.7273,0.1,3.9206e-05,391.79,3.6366e-05,328.88,-7.4126e-06,-0.055447,-2.1323e-05,-104.58,2.2377
23598,22.53,2.8182,0.1,3.7629e-05,376.03,3.4582e-05,309.69,-6.6434e-06,-0.059278,-2.1102e-05,-108.7,2.2519
23599,22.254,2.7273,0.1,4.2475e-05,424.46,3.9975e-05,367.36,-8.924e-06,-0.04932,-2.1864e-05,-97.271,2.2092
23600,22.346,2.8182,0.1,4.0854e-05,408.25,3.8181e-05,348.14,-8.1613e-06,-0.052371,-2.1618e-05,-101.16,2.2234
23601,22.07,2.7273,0.1,4.5819e-05,457.87,4.3607e-05,405.93,-1.0425e-05,-0.04439,-2.2447e-05,-90.377,2.1807
23602,22.162,2.8182,0.1,4.4158e-05,441.28,4.18e-05,386.66,-9.6677e-06,-0.046896,-2.2178e-05,-94.045,2.195
23603,21.886,2.7273,0.1,4.9228e-05,491.94,4.7262e-05,444.6,-1.1916e-05,-0.040323,-2.3074e-05,-83.877,2.1523
23604,21.978,2.8182,0.1,4.7534e-05,475.01,4.5442e-05,425.27,-1.1164e-05,-0.042428,-2.2781e-05,-87.329,2.1665
23605,21.703,2.7273,0.1,5.2697e-05,526.61,5.0942e-05,483.4,-1.3399e-05,-0.036903,-2.3742e-05,-77.749,2.1239
23606,21.794,2.8182,0.1,5.0972e-05,509.36,4.9108e-05,464,-1.2652e-05,-0.038706,-2.3426e-05,-80.996,2.1381
23607,21.519,2.7273,0.1,5.622e-05,561.82,5.4649e-05,522.35,-1.4876e-05,-0.033979,-2.4451e-05,-71.974,2.0956
23608,21.611,2.8182,0.1,5.4466e-05,544.28,5.28e-05,502.86,-1.4132e-05,-0.035545,-2.4113e-05,-75.026,2.1097
23609,21.335,2.7273,0.1,5.9793e-05,597.52,5.8383e-05,561.46,-1.6347e-05,-0.03145,-2.5197e-05,-66.527,2.0672
23610,21.427,2.8182,0.1,5.8012e-05,579.72,5.6519e-05,541.89,-1.5606e-05,-0.032826,-2.4838e-05,-69.398,2.0814
23611,21.151,2.7273,0.1,6.3412e-05,633.68,6.2144e-05,600.74,-1.7814e-05,-0.029241,-2.598e-05,-61.384,2.039
23612,21.243,2.8182,0.1,6.1606e-05,615.64,6.0265e-05,581.08,-1.7075e-05,-0.030463,-2.5601e-05,-64.086,2.0531
23613,20.967,2.7273,0.1,6.7074e-05,670.28,6.5933e-05,640.21,-1.9278e-05,-0.027297,-2.6797e-05,-56.523,2.0107
23614,21.059,2.8182,0.1,6.5245e-05,652,6.4039e-05,620.44,-1.8541e-05,-0.028387,-2.6399e-05,-59.068,2.0249
23615,20.784,2.7273,0.1,7.0776e-05,707.27,6.9749e-05,679.87,-2.0739e-05,-0.025574,-2.7646e-05,-51.918,1.9825
23616,20.875,2.8182,0.1,6.8926e-05,688.78,6.784e-05,660,-2.0004e-05,-0.026559,-2.723e-05,-54.32,1.9966
23617,20.6,2.7273,0.1,7.4516e-05,744.65,7.3593e-05,719.72,-2.22e-05,-0.024022,-2.8524e-05,-47.544,1.9544
23618,20.692,2.8182,0.1,7.2645e-05,725.95,7.1669e-05,699.75,-2.1465e-05,-0.024924,-2.8092e-05,-49.816,1.9685
23619,20.416,2.7273,0.1,7.8292e-05,782.38,7.7463e-05,759.78,-2.366e-05,-0.022615,-2.943e-05,-43.379,1.9263
23620,20.508,2.8182,0.1,7.6402e-05,763.49,7.5525e-05,739.69,-2.2925e-05,-0.023442,-2.8982e-05,-45.534,1.9404
23621,20.232,2.7273,0.1,8.2101e-05,820.45,8.136e-05,800.03,-2.512e-05,-0.021337,-3.0361e-05,-39.398,1.8983
23622,20.324,2.8182,0.1,8.0193e-05,801.38,7.9407e-05,779.84,-2.4386e-05,-0.022097,-2.9899e-05,-41.448,1.9123
23623,20.048,2.7273,0.1,8.5943e-05,858.83,8.5282e-05,840.48,-2.6582e-05,-0.020173,-3.1315e-05,-35.578,1.8703
23624,20.14,2.8182,0.1,8.4017e-05,839.59,8.3316e-05,820.19,-2.5847e-05,-0.020876,-3.084e-05,-37.536,1.8843
23625,19.865,2.7273,0.1,8.9814e-05,897.52,8.9229e-05,881.14,-2.8046e-05,-0.019115,-3.2289e-05,-31.897,1.8423
23626,19.956,2.8182,0.1,8.7873e-05,878.12,8.7249e-05,860.74,-2.7311e-05,-0.019761,-3.1803e-05,-33.774,1.8563
23627,19.681,2.7273,0.1,9.3714e-05,936.5,9.32e-05,922,-2.9513e-05,-0.018147,-3.3282e-05,-28.331,1.8145
23628,19.773,2.8182,0.1,9.1757e-05,916.94,9.1207e-05,901.49,-2.8776e-05,-0.018752,-3.2785e-05,-30.139,1.8284
23629,19.497,2.7273,0.1,9.7641e-05,975.74,9.7194e-05,963.06,-3.0984e-05,-0.01724,-3.429e-05,-24.859,1.7867
23630,19.589,2.8182,0.1,9.567e-05,956.04,9.5189e-05,942.45,-3.0245e-05,-0.017818,-3.3785e-05,-26.61,1.8006
23631,19.313,2.7273,0.1,0.00010159,1015.2,0.00010121,1004.3,-3.2459e-05,-0.016385,-3.5313e-05,-21.459,1.7589
23632,19.405,2.8182,0.1,9.9609e-05,995.4,9.9194e-05,983.61,-3.1718e-05,-0.016932,-3.4799e-05,-23.164,1.7728
23633,19.129,2.7273,0.1,0.00010557,1055,0.00010525,1045.8,-3.3939e-05,-0.015586,-3.6347e-05,-18.108,1.7312
23634,19.221,2.8182,0.1,0.00010357,1035,0.00010322,1025,-3.3196e-05,-0.016106,-3.5826e-05,-19.78,1.7451
23635,18.946,2.7273,0.1,0.00010957,1094.9,0.00010931,1087.5,-3.5424e-05,-0.014834,-3.739e-05,-14.786,1.7036
23636,19.038,2.8182,0.1,0.00010756,1074.8,0.00010727,1066.5,-3.4679e-05,-0.015334,-3.6864e-05,-16.434,1.7174
23637,18.762,2.7273,0.1,0.00011359,1135.1,0.00011339,1129.3,-3.6916e-05,-0.014128,-3.8441e-05,-11.471,1.6761
23638,18.854,2.8182,0.1,0.00011157,1114.9,0.00011134,1108.3,-3.6168e-05,-0.014608,-3.791e-05,-13.106,1.6899
23639,18.578,2.7273,0.1,0.00011763,1175.5,0.00011749,1171.4,-3.8415e-05,-0.013448,-3.9497e-05,-8.14,1.6487
23640,18.67,2.8182,0.1,0.0001156,1155.2,0.00011543,1150.3,-3.7663e-05,-0.013936,-3.8962e-05,-9.7741,1.6624
23641,18.394,2.7273,0.1,0.00012169,1216,0.00012161,1213.6,-3.9922e-05,-0.012722,-4.0555e-05,-4.7713,1.6213
23642,18.486,2.8182,0.1,0.00011965,1195.6,0.00011954,1192.4,-3.9166e-05,-0.013281,-4.0018e-05,-6.4149,1.635
23643,18.21,2.7273,0.1,0.00012577,1256.8,0.00012574,1256.1,-4.1437e-05,-0.011433,-4.1614e-05,-1.3422,1.594
23644,18.302,2.8182,0.1,0.00012371,1236.3,0.00012366,1234.8,-4.0677e-05,-0.012563,-4.1076e-05,-3.0062,1.6076
23645,18.027,2.7273,0.1,0.00012986,1297.7,0.00012989,1298.8,-4.2671e-05,2.1735,-4.2962e-05,-0.012407,1.5668
23646,18.119,2.8182,0.1,0.0001278,1277.1,0.0001278,1277.3,-4.2132e-05,0.47703,-4.2198e-05,-0.013332,1.5804
23647,17.843,2.7273,0.1,0.00013397,1338.7,0.00013406,1341.6,-4.3723e-05,5.7965,-4.4496e-05,-0.011499,1.5397
23648,17.935,2.8182,0.1,0.0001319,1318,0.00013196,1320.1,-4.3186e-05,4.0553,-4.3727e-05,-0.011739,1.5532
23649,17.659,2.7273,0.1,0.00013809,1379.9,0.00013825,1384.7,-4.4769e-05,9.5545,-4.6042e-05,-0.010905,1.5126
23650,17.751,2.8182,0.1,0.00013601,1359.2,0.00013614,1363,-4.4234e-05,7.7573,-4.5268e-05,-0.011136,1.5262
23651,17.475,2.7273,0.1,0.00014222,1421.2,0.00014245,1427.9,-4.5805e-05,13.475,-4.76e-05,-0.010387,1.4857
23652,17.567,2.8182,0.1,0.00014014,1400.4,0.00014033,1406.2,-4.5273e-05,11.609,-4.682e-05,-0.010616,1.4992
23653,17.291,2.7273,0.1,0.00014637,1462.7,0.00014666,1471.4,-4.6829e-05,17.585,-4.9171e-05,-0.0098859,1.4589
23654,17.383,2.8182,0.1,0.00014428,1441.8,0.00014453,1449.5,-4.6302e-05,15.638,-4.8384e-05,-0.010123,1.4723
23655,17.108,2.7273,0.1,0.00015053,1504.2,0.00015089,1515.1,-4.7838e-05,21.917,-5.0756e-05,-0.0093957,1.4321
23656,17.2,2.8182,0.1,0.00014843,1483.2,0.00014875,1493.1,-4.7316e-05,19.874,-4.9963e-05,-0.0096202,1.4455
23657,16.924,2.7273,0.1,0.00015469,1545.9,0.00015513,1559,-4.8828e-05,26.503,-5.2357e-05,-0.0089323,1.4055
23658,17.016,2.8182,0.1,0.00015259,1524.8,0.00015299,1536.9,-4.8314e-05,24.35,-5.1556e-05,-0.0091368,1.4188
23659,16.74,2.7273,0.1,0.00015887,1587.6,0.00015938,1603.1,-4.9798e-05,31.378,-5.3976e-05,-0.0084966,1.379
23660,16.832,2.8182,0.1,0.00015676,1566.5,0.00015724,1580.9,-4.9292e-05,29.1,-5.3167e-05,-0.0086782,1.3922
23661,16.556,2.7273,0.1,0.00016306,1629.5,0.00016365,1647.5,-5.0744e-05,36.58,-5.5613e-05,-0.0081054,1.3525
23662,16.648,2.8182,0.1,0.00016094,1608.3,0.0001615,1625.1,-5.0248e-05,34.161,-5.4795e-05,-0.008246,1.3658
23663,16.372,2.7273,0.1,0.00016726,1671.5,0.00016794,1692.2,-5.1662e-05,42.149,-5.7273e-05,-0.0077619,1.3262
23664,16.464,2.8182,0.1,0.00016514,1650.2,0.00016577,1669.7,-5.1177e-05,39.572,-5.6444e-05,-0.0078698,1.3394
23665,16.189,2.7273,0.1,0.00017148,1713.6,0.00017225,1737.2,-5.2549e-05,48.129,-5.8956e-05,-0.0074417,1.3
23666,16.281,2.8182,0.1,0.00016934,1692.3,0.00017007,1714.5,-5.2076e-05,45.377,-5.8116e-05,-0.0075255,1.3131
23667,16.005,2.7273,0.1,0.00017571,1755.9,0.00017657,1782.5,-5.3403e-05,54.569,-6.0667e-05,-0.0071626,1.2739
23668,16.097,2.8182,0.1,0.00017356,1734.4,0.00017438,1759.7,-5.2943e-05,51.622,-5.9814e-05,-0.0071893,1.287
23669,15.821,2.7273,0.1,0.00017996,1798.3,0.00018093,1828.3,-5.4219e-05,61.518,-6.2408e-05,-0.0069668,1.248
23670,15.913,2.8182,0.1,0.0001778,1776.8,0.00017872,1805.2,-5.3773e-05,58.357,-6.1541e-05,-0.0069183,1.261
23671,15.637,2.7273,0.1,0.00018423,1841,0.00018531,1874.6,-5.4996e-05,69.032,-6.4184e-05,-0.0068855,1.2221
23672,15.729,2.8182,0.1,0.00018206,1819.3,0.00018308,1851.2,-5.4565e-05,65.637,-6.3301e-05,-0.0067381,1.2351
23673,15.453,2.7273,0.1,0.00018854,1884.1,0.00018973,1921.5,-5.573e-05,77.168,-6.6001e-05,-0.0069711,1.1964
23674,15.545,2.8182,0.1,0.00018634,1862.1,0.00018748,1897.8,-5.5314e-05,73.519,-6.5099e-05,-0.0066826,1.2093
23675,15.27,2.7273,0.1,0.00019289,1927.5,0.00019421,1969.1,-5.642e-05,85.986,-6.7865e-05,-0.0072714,1.1708
23676,15.362,2.8182,0.1,0.00019067,1905.3,0.00019193,1945,-5.6019e-05,82.062,-6.6941e-05,-0.0068211,1.1836
23677,15.086,2.7273,0.1,0.00019729,1971.6,0.00019874,2017.6,-5.7065e-05,95.549,-6.9783e-05,-0.0078221,1.1454
23678,15.178,2.8182,0.1,0.00019504,1949,0.00019643,1993.1,-5.6678e-05,91.332,-6.8834e-05,-0.0071772,1.1581
23679,14.902,2.7273,0.1,0.00020178,2016.4,0.00020337,2067.3,-5.7667e-05,105.92,-7.1765e-05,-0.0087227,1.1201
23680,14.994,2.8182,0.1,0.00019948,1993.4,0.00020101,2042.2,-5.7292e-05,101.39,-7.0787e-05,-0.0077941,1.1327
23681,14.718,2.7273,0.1,0.00020637,2062.2,0.00020811,2118.3,-5.8228e-05,117.16,-7.3822e-05,-0.010128,1.0949
23682,14.81,2.8182,0.1,0.00020401,2038.7,0.00020569,2092.5,-5.7861e-05,112.31,-7.281e-05,-0.0088233,1.1075
23683,14.534,2.7273,0.1,0.00021109,2109.5,0.00021299,2171.1,-5.8756e-05,129.32,-7.5969e-05,-0.012218,1.0698
23684,14.626,2.8182,0.1,0.00020866,2085.1,0.00021049,2144.4,-5.8392e-05,124.14,-7.4916e-05,-0.010416,1.0823
23685,14.351,2.7273,0.1,0.000216,2158.5,0.00021807,2226.2,-5.9261e-05,142.45,-7.8222e-05,-0.015249,1.0449
23686,14.443,2.8182,0.1,0.00021347,2133.2,0.00021547,2198.4,-5.8893e-05,136.94,-7.712e-05,-0.012778,1.0574
23687,14.167,2.7273,0.1,0.00022116,2210.1,0.00022341,2284.2,-5.9761e-05,156.57,-8.0602e-05,-0.019535,1.0202
23688,14.259,2.8182,0.1,0.0002185,2183.4,0.00022067,2254.9,-5.9377e-05,150.75,-7.9443e-05,-0.016208,1.0325
23689,13.983,2.7273,0.1,0.00022664,2264.8,0.00022907,2345.8,-6.0283e-05,171.68,-8.3136e-05,-0.025472,0.99556
23690,14.075,2.8182,0.1,0.0002238,2236.5,0.00022616,2314.7,-5.9867e-05,165.58,-8.1907e-05,-0.021033,1.0079
23691,13.799,2.7273,0.1,0.00023255,2323.9,0.00023517,2412,-6.0865e-05,187.73,-8.5854e-05,-0.033659,0.97111
23692,13.891,2.8182,0.1,0.00022949,2293.3,0.00023204,2378.6,-6.0395e-05,181.41,-8.4542e-05,-0.027716,0.98334
23693,13.616,2.7273,0.1,0.00023902,2388.5,0.00024184,2484.2,-6.1562e-05,204.58,-8.8796e-05,-0.044934,0.94682
23694,13.707,2.8182,0.1,0.00023567,2355.1,0.00023842,2447.9,-6.1006e-05,198.15,-8.7383e-05,-0.036998,0.95897
23695,13.432,2.7273,0.1,0.00024623,2460.6,0.00024925,2564.1,-6.2453e-05,222.02,-9.201e-05,-0.060411,0.9227
23696,13.524,2.8182,0.1,0.00024251,2423.4,0.00024545,2524,-6.1768e-05,215.64,-9.0475e-05,-0.049837,0.93476
23697,13.248,2.7273,0.1,0.00025441,2542.4,0.00025764,2653.7,-6.3646e-05,239.67,-9.5554e-05,-0.081628,0.89874
23698,13.34,2.8182,0.1,0.0002502,2500.3,0.00025335,2608.8,-6.2774e-05,233.58,-9.387e-05,-0.067556,0.91072
23699,13.064,2.7273,0.1,0.00026387,2636.9,0.0002673,2755.9,-6.5294e-05,256.92,-9.9502e-05,-0.11065,0.87495
23700,13.156,2.8182,0.1,0.00025902,2588.4,0.00026237,2704.9,-6.4155e-05,251.48,-9.7636e-05,-0.092008,0.88685
23701,12.88,2.7273,0.1,0.000275,2748.1,0.00027862,2874.3,-6.7609e-05,272.84,-0.00010394,-0.15021,0.85135
23702,12.972,2.8182,0.1,0.00026931,2691.3,0.00027287,2815.4,-6.6092e-05,268.58,-0.00010185,-0.12565,0.86316
23703,12.697,2.7273,0.1,0.00028834,2881.4,0.00029213,3013.6,-7.0889e-05,286.03,-0.00010898,-0.20404,0.82794
23704,12.788,2.8182,0.1,0.00028155,2813.6,0.0002853,2944.6,-6.8841e-05,283.72,-0.00010662,-0.17186,0.83965
23705,12.513,2.7273,0.1,0.00030457,3043.6,0.0003085,3180,-7.5545e-05,294.37,-0.00011476,-0.27693,0.80472
23706,12.605,2.8182,0.1,0.00029635,2961.4,0.00030026,3097.8,-7.2757e-05,295.13,-0.00011207,-0.23521,0.81633
23707,12.329,2.7273,0.1,0.00032464,3244.2,0.00032864,3381.3,-8.2154e-05,294.73,-0.00012143,-0.37456,0.78171
23708,12.421,2.8182,0.1,0.00031451,3142.9,0.00031853,3282.1,-7.8332e-05,300.2,-0.00011833,-0.32145,0.79322
23709,12.145,2.7273,0.1,0.00034978,3495.4,0.00035372,3627.8,-9.1512e-05,282.52,-0.00012918,-0.50265,0.75892
23710,12.237,2.8182,0.1,0.00033711,3368.8,0.00034115,3506.4,-8.6251e-05,295.05,-0.00012558,-0.4369,0.77032
23711,11.961,2.7273,0.1,0.0003816,3813.4,0.00038524,3932.4,-0.00010471,251.13,-0.00013822,-0.66674,0.73637
23712,12.053,2.8182,0.1,0.00036556,3653,0.00036943,3782,-9.7448e-05,274.07,-0.000134,-0.58642,0.74765
23713,11.778,2.7273,0.1,0.00042215,4218.6,0.00042506,4310.5,-0.00012317,191.36,-0.00014875,-0.85675,0.71408
23714,11.869,2.8182,0.1,0.00040161,4013.3,0.000405,4122.6,-0.00011317,229.31,-0.00014379,-0.76933,0.72524
23715,11.594,2.7273,0.1,0.0004737,4733.7,0.00047517,4778.3,-0.00014859,91.546,-0.00016093,-1.1264,0.69207
23716,11.686,2.8182,0.1,0.00044733,4470.2,0.00044968,4543,-0.00013495,150.27,-0.00015508,-0.9602,0.7031
23717,11.41,2.7273,0.1,0.00053802,5376.5,0.00053694,5345.3,-0.00017454,-0.43875,-0.00018263,-61.268,0.67039
23718,11.502,2.8182,0.1,0.00050463,5042.8,0.00050503,5054.6,-0.00016436,25.109,-0.00016789,-1.3954,0.68126
23719,11.226,2.7273,0.1,0.000614,6135.8,0.00060898,5996.7,-0.00018917,-0.30399,-0.00022494,-269,0.64906
23720,11.318,2.8182,0.1,0.00057393,5735.3,0.0005711,5655.1,-0.00018166,-0.76514,-0.00020238,-156.45,0.65976
23721,11.042,2.7273,0.1,0.00069325,6927.7,0.00068313,6658.1,-0.00020284,1.2216,-0.00027113,-511.89,0.62814
23722,11.134,2.8182,0.1,0.00065112,6506.7,0.00064367,6304.6,-0.00019542,-0.054019,-0.00024691,-386.9,0.63865
23723,10.95,2.8182,0.1,0.00072346,7229.6,0.00071074,6895.7,-0.00020685,1.2768,-0.0002906,-627.96,0.61797
23724,10.859,2.7273,0.1,0.00075706,7565.4,0.00074207,7176.2,-0.00021264,2.8651,-0.00030994,-728.2,0.60768
23725,23.724,2.9091,0.1,2.0481e-05,204.67,1.1478e-05,58.913,3.6063e-06,-0.22984,-1.8831e-05,-168.82,2.4376
23726,23.816,3,0.1,1.9687e-05,196.73,9.7107e-06,39.539,4.4199e-06,-0.21418,-1.8714e-05,-174.03,2.4519
23727,23.908,2.9091,0.1,1.9107e-05,190.94,8.1522e-06,22.246,5.1336e-06,-0.43479,-1.8635e-05,-179.02,2.4662
23728,23.541,2.9091,0.1,2.2412e-05,223.97,1.5026e-05,97.777,1.9818e-06,-0.23061,-1.9081e-05,-158.49,2.409
23729,23.632,3,0.1,2.1391e-05,213.77,1.3255e-05,78.367,2.7811e-06,-0.33254,-1.8948e-05,-163.59,2.4233
23730,23.357,2.9091,0.1,2.471e-05,246.93,1.8572e-05,136.53,3.8238e-07,-0.13367,-1.9366e-05,-148.52,2.3804
23731,23.449,3,0.1,2.3518e-05,235.01,1.6798e-05,117.2,1.1803e-06,-0.1458,-1.9214e-05,-153.38,2.3947
23732,23.173,2.9091,0.1,2.7286e-05,272.67,2.2121e-05,175.15,-1.2048e-06,-0.11036,-1.969e-05,-139,2.3518
23733,23.265,3,0.1,2.5964e-05,259.46,2.0345e-05,155.87,-4.1634e-07,-0.12772,-1.9518e-05,-143.65,2.3661
23734,22.989,2.9091,0.1,3.007e-05,300.49,2.5674e-05,213.66,-2.7744e-06,-0.087444,-2.0053e-05,-129.91,2.3232
23735,23.081,3,0.1,2.8651e-05,286.31,2.3895e-05,194.42,-1.9937e-06,-0.0959,-1.9861e-05,-134.34,2.3375
23736,22.805,2.9091,0.1,3.3016e-05,329.93,2.9236e-05,252.11,-4.3281e-06,-0.073916,-2.0459e-05,-121.27,2.2947
23737,22.897,3,0.1,3.152e-05,314.99,2.7452e-05,232.89,-3.5553e-06,-0.080593,-2.0245e-05,-125.48,2.309
23738,22.622,2.9091,0.1,3.6089e-05,360.64,3.281e-05,290.54,-5.8669e-06,-0.063495,-2.0907e-05,-113.07,2.2662
23739,22.713,3,0.1,3.4533e-05,345.09,3.1019e-05,271.32,-5.1011e-06,-0.068229,-2.0671e-05,-117.06,2.2804
23740,22.438,2.9091,0.1,3.9266e-05,392.39,3.64e-05,328.98,-7.392e-06,-0.055732,-2.1399e-05,-105.3,2.2377
23741,22.53,3,0.1,3.766e-05,376.34,3.46e-05,309.74,-6.6327e-06,-0.059422,-2.1141e-05,-109.07,2.2519
23742,22.254,2.9091,0.1,4.253e-05,425.01,4.0008e-05,367.46,-8.9049e-06,-0.049596,-2.1935e-05,-97.955,2.2092
23743,22.346,3,0.1,4.0882e-05,408.54,3.8198e-05,348.2,-8.1513e-06,-0.05251,-2.1655e-05,-101.52,2.2234
23744,22.07,2.9091,0.1,4.5869e-05,458.38,4.3638e-05,406.03,-1.0407e-05,-0.044661,-2.2515e-05,-91.016,2.1807
23745,22.162,3,0.1,4.4185e-05,441.55,4.1816e-05,386.71,-9.6584e-06,-0.047033,-2.2213e-05,-94.375,2.195
23746,21.886,2.9091,0.1,4.9275e-05,492.41,4.7291e-05,444.69,-1.19e-05,-0.04059,-2.3136e-05,-84.47,2.1523
23747,21.978,3,0.1,4.7558e-05,475.25,4.5457e-05,425.32,-1.1155e-05,-0.042562,-2.2814e-05,-87.637,2.1665
23748,21.703,2.9091,0.1,5.2739e-05,527.03,5.0969e-05,483.49,-1.3384e-05,-0.037165,-2.38e-05,-78.296,2.1239
23749,21.794,3,0.1,5.0994e-05,509.59,4.9122e-05,464.04,-1.2644e-05,-0.038838,-2.3456e-05,-81.281,2.1381
23750,21.519,2.9091,0.1,5.6258e-05,562.19,5.4673e-05,522.43,-1.4862e-05,-0.034237,-2.4503e-05,-72.475,2.0956
23751,21.611,3,0.1,5.4486e-05,544.48,5.2813e-05,502.91,-1.4125e-05,-0.035673,-2.414e-05,-75.289,2.1098
23752,21.335,2.9091,0.1,5.9827e-05,597.85,5.8405e-05,561.53,-1.6334e-05,-0.031703,-2.5245e-05,-66.983,2.0673
23753,21.427,3,0.1,5.803e-05,579.9,5.653e-05,541.92,-1.56e-05,-0.032953,-2.4863e-05,-69.637,2.0814
23754,21.151,2.9091,0.1,6.3441e-05,633.98,6.2163e-05,600.8,-1.7802e-05,-0.029489,-2.6023e-05,-61.797,2.039
23755,21.243,3,0.1,6.1622e-05,615.8,6.0275e-05,581.11,-1.7069e-05,-0.030587,-2.5624e-05,-64.303,2.0531
23756,20.967,2.9091,0.1,6.7099e-05,670.53,6.595e-05,640.26,-1.9267e-05,-0.027541,-2.6835e-05,-56.893,2.0107
23757,21.059,3,0.1,6.5259e-05,652.14,6.4048e-05,620.47,-1.8535e-05,-0.02851,-2.6419e-05,-59.264,2.0249
23758,20.784,2.9091,0.1,7.0798e-05,707.49,6.9764e-05,679.91,-2.073e-05,-0.025812,-2.768e-05,-52.247,1.9826
23759,20.875,3,0.1,6.8937e-05,688.9,6.7848e-05,660.02,-1.9999e-05,-0.026679,-2.7248e-05,-54.494,1.9966
23760,20.6,2.9091,0.1,7.4534e-05,744.83,7.3605e-05,719.75,-2.2191e-05,-0.024254,-2.8554e-05,-47.834,1.9544
23761,20.692,3,0.1,7.2655e-05,726.05,7.1676e-05,699.76,-2.146e-05,-0.025042,-2.8108e-05,-49.971,1.9685
23762,20.416,2.9091,0.1,7.8307e-05,782.53,7.7473e-05,759.79,-2.3652e-05,-0.022841,-2.9456e-05,-43.631,1.9263
23763,20.508,3,0.1,7.641e-05,763.57,7.553e-05,739.7,-2.2921e-05,-0.023557,-2.8996e-05,-45.669,1.9404
23764,20.232,2.9091,0.1,8.2113e-05,820.56,8.1367e-05,800.03,-2.5113e-05,-0.021559,-3.0383e-05,-39.614,1.8983
23765,20.324,3,0.1,8.02e-05,801.44,7.9411e-05,779.84,-2.4382e-05,-0.022209,-2.9911e-05,-41.565,1.9123
23766,20.048,2.9091,0.1,8.5951e-05,858.92,8.5287e-05,840.47,-2.6576e-05,-0.020391,-3.1332e-05,-35.76,1.8703
23767,20.14,3,0.1,8.4022e-05,839.64,8.3318e-05,820.18,-2.5844e-05,-0.020986,-3.085e-05,-37.635,1.8843
23768,19.865,2.9091,0.1,8.982e-05,897.58,8.9231e-05,881.12,-2.8041e-05,-0.019328,-3.2303e-05,-32.045,1.8424
23769,19.956,3,0.1,8.7876e-05,878.16,8.7251e-05,860.73,-2.7308e-05,-0.019868,-3.1811e-05,-33.856,1.8563
23770,19.681,2.9091,0.1,9.3717e-05,936.52,9.32e-05,921.97,-2.9508e-05,-0.018356,-3.3292e-05,-28.448,1.8145
23771,19.773,3,0.1,9.1759e-05,916.96,9.1208e-05,901.48,-2.8774e-05,-0.018857,-3.2791e-05,-30.206,1.8284
23772,19.497,2.9091,0.1,9.7641e-05,975.74,9.7193e-05,963.02,-3.098e-05,-0.017446,-3.4297e-05,-24.944,1.7867
23773,19.589,3,0.1,9.5671e-05,956.05,9.5189e-05,942.43,-3.0243e-05,-0.017922,-3.3789e-05,-26.661,1.8006
23774,19.313,2.9091,0.1,0.00010159,1015.2,0.00010121,1004.3,-3.2455e-05,-0.016591,-3.5316e-05,-21.514,1.7589
23775,19.405,3,0.1,9.9608e-05,995.39,9.9193e-05,983.58,-3.1716e-05,-0.017035,-3.4802e-05,-23.199,1.7728
23776,19.129,2.9091,0.1,0.00010557,1054.9,0.00010524,1045.7,-3.3936e-05,-0.015792,-3.6347e-05,-18.133,1.7313
23777,19.221,3,0.1,0.00010357,1035,0.00010322,1024.9,-3.3194e-05,-0.016209,-3.5827e-05,-19.8,1.7451
23778,18.946,2.9091,0.1,0.00010956,1094.9,0.0001093,1087.4,-3.5422e-05,-0.015046,-3.7387e-05,-14.782,1.7037
23779,19.038,3,0.1,0.00010756,1074.8,0.00010727,1066.5,-3.4677e-05,-0.015438,-3.6863e-05,-16.439,1.7175
23780,18.762,2.9091,0.1,0.00011358,1135,0.00011338,1129.2,-3.6915e-05,-0.014353,-3.8435e-05,-11.436,1.6761
23781,18.854,3,0.1,0.00011156,1114.9,0.00011133,1108.3,-3.6167e-05,-0.014717,-3.7908e-05,-13.097,1.6899
23782,18.578,2.9091,0.1,0.00011762,1175.4,0.00011748,1171.3,-3.8414e-05,-0.013704,-3.9487e-05,-8.0751,1.6487
23783,18.67,3,0.1,0.00011559,1155.1,0.00011542,1150.2,-3.7663e-05,-0.014056,-3.8958e-05,-9.7493,1.6624
23784,18.394,2.9091,0.1,0.00012167,1215.9,0.00012159,1213.5,-3.9922e-05,-0.013067,-4.0542e-05,-4.6752,1.6213
23785,18.486,3,0.1,0.00011964,1195.6,0.00011953,1192.4,-3.9166e-05,-0.013427,-4.0013e-05,-6.3749,1.635
23786,18.21,2.9091,0.1,0.00012575,1256.6,0.00012573,1256,-4.1438e-05,-0.012371,-4.1598e-05,-1.2135,1.594
23787,18.302,3,0.1,0.0001237,1236.2,0.00012365,1234.7,-4.0677e-05,-0.012805,-4.1068e-05,-2.9503,1.6077
23788,18.027,2.9091,0.1,0.00012984,1297.5,0.00012988,1298.6,-4.2651e-05,2.3345,-4.2963e-05,-0.011969,1.5668
23789,18.119,3,0.1,0.00012779,1277,0.0001278,1277.3,-4.2123e-05,0.54797,-4.2198e-05,-0.012209,1.5804
23790,17.843,2.9091,0.1,0.00013394,1338.5,0.00013404,1341.5,-4.3699e-05,5.9935,-4.4499e-05,-0.011377,1.5397
23791,17.935,3,0.1,0.00013189,1317.9,0.00013195,1320,-4.3175e-05,4.1445,-4.3728e-05,-0.011639,1.5533
23792,17.659,2.9091,0.1,0.00013806,1379.7,0.00013823,1384.5,-4.4741e-05,9.7898,-4.6045e-05,-0.010847,1.5127
23793,17.751,3,0.1,0.000136,1359,0.00013613,1362.9,-4.4221e-05,7.865,-4.5269e-05,-0.011095,1.5262
23794,17.475,2.9091,0.1,0.00014219,1421,0.00014242,1427.8,-4.5773e-05,13.751,-4.7604e-05,-0.010349,1.4857
23795,17.567,3,0.1,0.00014012,1400.3,0.00014032,1406.1,-4.5258e-05,11.736,-4.6822e-05,-0.010595,1.4992
23796,17.291,2.9091,0.1,0.00014634,1462.4,0.00014663,1471.2,-4.6792e-05,17.907,-4.9176e-05,-0.009853,1.4589
23797,17.383,3,0.1,0.00014426,1441.6,0.00014452,1449.4,-4.6284e-05,15.787,-4.8387e-05,-0.010106,1.4723
23798,17.108,2.9091,0.1,0.00015049,1503.9,0.00015086,1514.9,-4.7795e-05,22.289,-5.0763e-05,-0.0093578,1.4322
23799,17.2,3,0.1,0.00014841,1483.1,0.00014874,1493,-4.7297e-05,20.047,-4.9966e-05,-0.0096033,1.4455
23800,16.924,2.9091,0.1,0.00015466,1545.5,0.0001551,1558.8,-4.878e-05,26.93,-5.2366e-05,-0.008881,1.4055
23801,17.016,3,0.1,0.00015257,1524.7,0.00015297,1536.8,-4.8292e-05,24.549,-5.156e-05,-0.0091151,1.4188
23802,16.74,2.9091,0.1,0.00015883,1587.2,0.00015935,1602.9,-4.9744e-05,31.867,-5.3986e-05,-0.008429,1.379
23803,16.832,3,0.1,0.00015674,1566.3,0.00015722,1580.8,-4.9267e-05,29.328,-5.3171e-05,-0.0086485,1.3923
23804,16.556,2.9091,0.1,0.00016302,1629.1,0.00016362,1647.3,-5.0682e-05,37.138,-5.5626e-05,-0.0080161,1.3526
23805,16.648,3,0.1,0.00016092,1608.1,0.00016148,1625,-5.0219e-05,34.421,-5.4801e-05,-0.008208,1.3658
23806,16.372,2.9091,0.1,0.00016722,1671,0.0001679,1692,-5.1593e-05,42.786,-5.7288e-05,-0.0076446,1.3263
23807,16.464,3,0.1,0.00016511,1650,0.00016576,1669.6,-5.1144e-05,39.869,-5.6451e-05,-0.0078186,1.3394
23808,16.189,2.9091,0.1,0.00017143,1713.1,0.00017221,1737,-5.2471e-05,48.857,-5.8975e-05,-0.0072914,1.3001
23809,16.281,3,0.1,0.00016932,1692,0.00017005,1714.4,-5.2039e-05,45.716,-5.8125e-05,-0.0074589,1.3132
23810,16.005,2.9091,0.1,0.00017565,1755.3,0.00017653,1782.4,-5.3315e-05,55.399,-6.0689e-05,-0.0069721,1.274
23811,16.097,3,0.1,0.00017354,1734.2,0.00017436,1759.6,-5.2901e-05,52.009,-5.9824e-05,-0.0071052,1.287
23812,15.821,2.9091,0.1,0.0001799,1797.7,0.00018088,1828.2,-5.412e-05,62.466,-6.2435e-05,-0.0067279,1.248
23813,15.913,3,0.1,0.00017777,1776.5,0.0001787,1805.1,-5.3727e-05,58.8,-6.1553e-05,-0.0068121,1.261
23814,15.637,2.9091,0.1,0.00018417,1840.4,0.00018526,1874.5,-5.4884e-05,70.115,-6.4216e-05,-0.0065875,1.2222
23815,15.729,3,0.1,0.00018203,1819,0.00018306,1851.2,-5.4512e-05,66.142,-6.3316e-05,-0.0066048,1.2351
23816,15.453,2.9091,0.1,0.00018847,1883.4,0.00018968,1921.4,-5.5603e-05,78.406,-6.604e-05,-0.0066025,1.1965
23817,15.545,3,0.1,0.00018631,1861.8,0.00018746,1897.8,-5.5254e-05,74.096,-6.5117e-05,-0.006517,1.2093
23818,15.27,2.9091,0.1,0.00019282,1926.9,0.00019416,1969.1,-5.6277e-05,87.403,-6.7911e-05,-0.0068192,1.1709
23819,15.362,3,0.1,0.00019063,1905,0.0001919,1945,-5.5952e-05,82.723,-6.6962e-05,-0.0066179,1.1837
23820,15.086,2.9091,0.1,0.00019722,1970.9,0.0001987,2017.7,-5.6905e-05,97.171,-6.9839e-05,-0.00727,1.1454
23821,15.178,3,0.1,0.000195,1948.7,0.00019641,1993.1,-5.6602e-05,92.089,-6.886e-05,-0.0069284,1.1581
23822,14.902,2.9091,0.1,0.00020171,2015.7,0.00020333,2067.4,-5.7487e-05,107.78,-7.1832e-05,-0.0080516,1.1201
23823,14.994,3,0.1,0.00019944,1993.1,0.00020099,2042.2,-5.7207e-05,102.26,-7.0818e-05,-0.0074903,1.1327
23824,14.718,2.9091,0.1,0.0002063,2061.6,0.00020807,2118.6,-5.8026e-05,119.29,-7.3904e-05,-0.0093149,1.0949
23825,14.81,3,0.1,0.00020398,2038.3,0.00020567,2092.6,-5.7766e-05,113.3,-7.2847e-05,-0.0084548,1.1075
23826,14.534,2.9091,0.1,0.00021104,2108.9,0.00021297,2171.7,-5.853e-05,131.76,-7.6067e-05,-0.011238,1.0699
23827,14.626,3,0.1,0.00020863,2084.8,0.00021048,2144.7,-5.8286e-05,125.28,-7.496e-05,-0.0099713,1.0824
23828,14.351,2.9091,0.1,0.00021596,2158.1,0.00021806,2227.1,-5.901e-05,145.24,-7.8342e-05,-0.014074,1.045
23829,14.443,3,0.1,0.00021344,2133,0.00021546,2198.7,-5.8774e-05,138.24,-7.7174e-05,-0.012243,1.0574
23830,14.167,2.9091,0.1,0.00022114,2209.9,0.00022342,2285.4,-5.9484e-05,159.75,-8.0748e-05,-0.018138,1.0202
23831,14.259,3,0.1,0.00021848,2183.3,0.00022067,2255.4,-5.9245e-05,152.24,-7.9509e-05,-0.015569,1.0326
23832,13.983,2.9091,0.1,0.00022666,2265,0.00022913,2347.5,-5.9979e-05,175.3,-8.3314e-05,-0.023829,0.9956
23833,14.075,3,0.1,0.0002238,2236.5,0.00022618,2315.4,-5.9722e-05,167.27,-8.1987e-05,-0.020277,1.0079
23834,13.799,2.9091,0.1,0.00023261,2324.5,0.00023528,2414.5,-6.0536e-05,191.83,-8.6071e-05,-0.031761,0.97115
23835,13.891,3,0.1,0.00022951,2293.5,0.00023208,2379.7,-6.0236e-05,183.33,-8.464e-05,-0.026834,0.98336
23836,13.616,2.9091,0.1,0.00023916,2389.9,0.00024203,2487.6,-6.1213e-05,209.2,-8.9062e-05,-0.042801,0.94686
23837,13.707,3,0.1,0.00023572,2355.6,0.00023849,2449.3,-6.0836e-05,200.33,-8.7503e-05,-0.035991,0.95899
23838,13.432,2.9091,0.1,0.00024647,2463,0.00024955,2568.7,-6.2091e-05,227.18,-9.2335e-05,-0.058124,0.92274
23839,13.524,3,0.1,0.0002426,2424.3,0.00024557,2526,-6.1589e-05,218.08,-9.0621e-05,-0.048728,0.93478
23840,13.248,2.9091,0.1,0.0002548,2546.3,0.00025809,2660,-6.3286e-05,245.36,-9.5952e-05,-0.079377,0.89878
23841,13.34,3,0.1,0.00025035,2501.8,0.00025353,2611.5,-6.2591e-05,236.29,-9.4049e-05,-0.066405,0.91074
23842,13.064,2.9091,0.1,0.00026446,2642.8,0.00026795,2764.4,-6.4958e-05,263.1,-9.9989e-05,-0.10882,0.875
23843,13.156,3,0.1,0.00025925,2590.7,0.00026264,2708.5,-6.3977e-05,254.46,-9.7855e-05,-0.090953,0.88687
23844,12.88,2.9091,0.1,0.00027587,2756.8,0.00027956,2885.8,-6.7334e-05,279.38,-0.00010454,-0.14951,0.8514
23845,12.972,3,0.1,0.00026967,2694.8,0.00027326,2820.3,-6.5934e-05,271.78,-0.00010212,-0.12496,0.86318
23846,12.697,2.9091,0.1,0.00028958,2893.8,0.00029344,3028.9,-7.0729e-05,292.68,-0.00010971,-0.20569,0.82798
23847,12.788,3,0.1,0.00028207,2818.7,0.00028585,2951.2,-6.8724e-05,287.06,-0.00010695,-0.17199,0.83967
23848,12.513,2.9091,0.1,0.00030632,3061.1,0.00031032,3200.2,-7.558e-05,300.69,-0.00011564,-0.28278,0.80477
23849,12.605,3,0.1,0.00029708,2968.7,0.00030102,3106.5,-7.2712e-05,298.46,-0.00011247,-0.23696,0.81636
23850,12.329,2.9091,0.1,0.00032705,3268.3,0.00033111,3407.7,-8.2499e-05,300,-0.00012248,-0.38699,0.78176
23851,12.421,3,0.1,0.00031553,3153.1,0.00031958,3293.6,-7.8407e-05,303.24,-0.00011881,-0.32594,0.79324
23852,12.145,2.9091,0.1,0.00035302,3527.8,0.000357,3661.6,-9.2317e-05,285.62,-0.0001304,-0.52339,0.75898
23853,12.237,3,0.1,0.0003385,3382.7,0.00034256,3521.3,-8.6511e-05,297.36,-0.00012615,-0.44547,0.77035
23854,11.961,2.9091,0.1,0.0003858,3855.3,0.00038943,3974,-0.00010615,250.47,-0.00013957,-0.68982,0.73644
23855,12.053,3,0.1,0.00036739,3671.4,0.00037129,3800.8,-9.7977e-05,274.98,-0.00013465,-0.5995,0.74769
23856,11.778,2.9091,0.1,0.0004272,4269.1,0.00043003,4358.1,-0.00012537,185.12,-0.00015012,-0.8674,0.71416
23857,11.869,3,0.1,0.00040394,4036.6,0.00040731,4145.3,-0.00011405,227.93,-0.00014449,-0.77994,0.72528
23858,11.594,2.9091,0.1,0.00047894,4786.1,0.00048021,4824.4,-0.00015142,78.563,-0.00016201,-0.99566,0.69217
23859,11.686,3,0.1,0.00045002,4497.1,0.00045231,4567.7,-0.00013623,145.63,-0.00015574,-0.95536,0.70314
23860,11.41,2.9091,0.1,0.00054154,5411.7,0.00054015,5371.7,-0.00017489,-0.85105,-0.00018519,-78.23,0.67051
23861,11.502,3,0.1,0.00050716,5068.1,0.00050742,5075.9,-0.00016592,16.653,-0.00016827,-1.0092,0.68131
23862,11.226,2.9091,0.1,0.00061223,6118.1,0.00060692,5971.5,-0.00018789,-0.41059,-0.0002255,-282.94,0.64921
23863,11.318,3,0.1,0.00057496,5745.6,0.00057195,5660.5,-0.00018153,-0.83497,-0.0002035,-165.88,0.65983
23864,11.042,2.9091,0.1,0.00068223,6817.6,0.00067213,6548.6,-0.00019942,0.098518,-0.00026724,-509.47,0.62832
23865,11.134,3,0.1,0.00064842,6479.7,0.00064085,6274.7,-0.00019427,-0.087459,-0.00024644,-392.08,0.63873
23866,10.95,3,0.1,0.00071519,7146.9,0.0007026,6816.4,-0.00020458,0.19054,-0.00028722,-620.71,0.61806
23867,10.859,2.9091,0.1,0.00073649,7359.8,0.00072202,6983.7,-0.00020732,0.92324,-0.00030097,-702.68,0.60788
23868,23.724,3.0909,0.1,2.0481e-05,204.67,1.1478e-05,58.913,3.6063e-06,-0.22984,-1.8831e-05,-168.82,2.4376
23869,23.816,3.1818,0.1,1.9643e-05,196.29,9.6963e-06,39.543,4.405e-06,-0.2135,-1.8669e-05,-173.58,2.4519
23870,23.908,3.0909,0.1,1.9107e-05,190.94,8.1522e-06,22.246,5.1336e-06,-0.43479,-1.8635e-05,-179.02,2.4662
23871,23.541,3.0909,0.1,2.2412e-05,223.97,1.5026e-05,97.777,1.9818e-06,-0.2306,-1.9081e-05,-158.49,2.409
23872,23.632,3.1818,0.1,2.1349e-05,213.34,1.324e-05,78.362,2.7665e-06,-0.33222,-1.8903e-05,-163.15,2.4233
23873,23.357,3.0909,0.1,2.471e-05,246.93,1.8572e-05,136.53,3.8238e-07,-0.13367,-1.9366e-05,-148.52,2.3804
23874,23.449,3.1818,0.1,2.3476e-05,234.6,1.6782e-05,117.18,1.1662e-06,-0.14558,-1.9169e-05,-152.94,2.3947
23875,23.173,3.0909,0.1,2.7286e-05,272.67,2.2121e-05,175.15,-1.2048e-06,-0.11036,-1.969e-05,-139,2.3518
23876,23.265,3.1818,0.1,2.5925e-05,259.07,2.0329e-05,155.84,-4.2986e-07,-0.12753,-1.9473e-05,-143.21,2.3661
23877,22.989,3.0909,0.1,3.007e-05,300.49,2.5674e-05,213.66,-2.7744e-06,-0.087444,-2.0053e-05,-129.91,2.3232
23878,23.081,3.1818,0.1,2.8613e-05,285.94,2.3878e-05,194.39,-2.0066e-06,-0.095728,-1.9817e-05,-133.92,2.3375
23879,22.805,3.0909,0.1,3.3016e-05,329.93,2.9236e-05,252.11,-4.3281e-06,-0.073917,-2.0459e-05,-121.27,2.2947
23880,22.897,3.1818,0.1,3.1485e-05,314.64,2.7434e-05,232.85,-3.5674e-06,-0.080435,-2.0202e-05,-125.07,2.309
23881,22.622,3.0909,0.1,3.6089e-05,360.64,3.281e-05,290.54,-5.8669e-06,-0.063495,-2.0907e-05,-113.07,2.2662
23882,22.713,3.1818,0.1,3.45e-05,344.76,3.1001e-05,271.28,-5.1125e-06,-0.068078,-2.0631e-05,-116.66,2.2804
23883,22.438,3.0909,0.1,3.9266e-05,392.39,3.64e-05,328.98,-7.392e-06,-0.055731,-2.1399e-05,-105.3,2.2377
23884,22.53,3.1818,0.1,3.7629e-05,376.03,3.4582e-05,309.69,-6.6434e-06,-0.059278,-2.1102e-05,-108.7,2.2519
23885,22.254,3.0909,0.1,4.253e-05,425.01,4.0008e-05,367.46,-8.9049e-06,-0.049596,-2.1935e-05,-97.955,2.2092
23886,22.346,3.1818,0.1,4.0854e-05,408.25,3.8181e-05,348.14,-8.1613e-06,-0.052371,-2.1618e-05,-101.16,2.2234
23887,22.07,3.0909,0.1,4.5869e-05,458.38,4.3638e-05,406.03,-1.0407e-05,-0.044661,-2.2515e-05,-91.016,2.1807
23888,22.162,3.1818,0.1,4.4158e-05,441.28,4.18e-05,386.66,-9.6677e-06,-0.046896,-2.2178e-05,-94.045,2.195
23889,21.886,3.0909,0.1,4.9275e-05,492.41,4.7291e-05,444.69,-1.19e-05,-0.04059,-2.3136e-05,-84.47,2.1523
23890,21.978,3.1818,0.1,4.7534e-05,475.01,4.5442e-05,425.27,-1.1164e-05,-0.042429,-2.2781e-05,-87.329,2.1665
23891,21.703,3.0909,0.1,5.2739e-05,527.03,5.0969e-05,483.49,-1.3384e-05,-0.037164,-2.38e-05,-78.296,2.1239
23892,21.794,3.1818,0.1,5.0972e-05,509.36,4.9108e-05,464,-1.2652e-05,-0.038706,-2.3426e-05,-80.996,2.1381
23893,21.519,3.0909,0.1,5.6258e-05,562.19,5.4673e-05,522.43,-1.4862e-05,-0.034235,-2.4503e-05,-72.475,2.0956
23894,21.611,3.1818,0.1,5.4466e-05,544.28,5.28e-05,502.86,-1.4132e-05,-0.035544,-2.4113e-05,-75.026,2.1097
23895,21.335,3.0909,0.1,5.9827e-05,597.85,5.8405e-05,561.53,-1.6334e-05,-0.031702,-2.5245e-05,-66.983,2.0673
23896,21.427,3.1818,0.1,5.8012e-05,579.72,5.6519e-05,541.89,-1.5606e-05,-0.032827,-2.4838e-05,-69.398,2.0814
23897,21.151,3.0909,0.1,6.3441e-05,633.98,6.2163e-05,600.8,-1.7802e-05,-0.029489,-2.6023e-05,-61.797,2.039
23898,21.243,3.1818,0.1,6.1606e-05,615.64,6.0265e-05,581.08,-1.7075e-05,-0.030462,-2.5601e-05,-64.086,2.0531
23899,20.967,3.0909,0.1,6.7099e-05,670.53,6.595e-05,640.26,-1.9267e-05,-0.027541,-2.6835e-05,-56.893,2.0107
23900,21.059,3.1818,0.1,6.5245e-05,652,6.4039e-05,620.44,-1.8541e-05,-0.028388,-2.6399e-05,-59.068,2.0249
23901,20.784,3.0909,0.1,7.0798e-05,707.49,6.9764e-05,679.91,-2.073e-05,-0.025812,-2.768e-05,-52.247,1.9826
23902,20.875,3.1818,0.1,6.8926e-05,688.78,6.784e-05,660,-2.0004e-05,-0.026559,-2.723e-05,-54.32,1.9966
23903,20.6,3.0909,0.1,7.4534e-05,744.83,7.3605e-05,719.75,-2.2191e-05,-0.024255,-2.8554e-05,-47.834,1.9544
23904,20.692,3.1818,0.1,7.2645e-05,725.95,7.1669e-05,699.75,-2.1465e-05,-0.024924,-2.8092e-05,-49.816,1.9685
23905,20.416,3.0909,0.1,7.8307e-05,782.53,7.7473e-05,759.79,-2.3652e-05,-0.022841,-2.9456e-05,-43.631,1.9263
23906,20.508,3.1818,0.1,7.6402e-05,763.49,7.5525e-05,739.69,-2.2925e-05,-0.023442,-2.8982e-05,-45.534,1.9404
23907,20.232,3.0909,0.1,8.2113e-05,820.56,8.1367e-05,800.03,-2.5113e-05,-0.021558,-3.0383e-05,-39.614,1.8983
23908,20.324,3.1818,0.1,8.0193e-05,801.38,7.9407e-05,779.84,-2.4386e-05,-0.022097,-2.9899e-05,-41.448,1.9123
23909,20.048,3.0909,0.1,8.5951e-05,858.92,8.5287e-05,840.47,-2.6576e-05,-0.02039,-3.1332e-05,-35.76,1.8703
23910,20.14,3.1818,0.1,8.4017e-05,839.59,8.3316e-05,820.19,-2.5847e-05,-0.020876,-3.084e-05,-37.536,1.8843
23911,19.865,3.0909,0.1,8.982e-05,897.58,8.9231e-05,881.12,-2.8041e-05,-0.019327,-3.2303e-05,-32.045,1.8424
23912,19.956,3.1818,0.1,8.7873e-05,878.12,8.7249e-05,860.74,-2.7311e-05,-0.019761,-3.1803e-05,-33.774,1.8563
23913,19.681,3.0909,0.1,9.3717e-05,936.52,9.32e-05,921.97,-2.9508e-05,-0.018356,-3.3292e-05,-28.448,1.8145
23914,19.773,3.1818,0.1,9.1757e-05,916.94,9.1207e-05,901.49,-2.8776e-05,-0.018751,-3.2785e-05,-30.139,1.8284
23915,19.497,3.0909,0.1,9.7641e-05,975.74,9.7193e-05,963.02,-3.098e-05,-0.017446,-3.4297e-05,-24.944,1.7867
23916,19.589,3.1818,0.1,9.567e-05,956.04,9.5189e-05,942.45,-3.0245e-05,-0.017818,-3.3785e-05,-26.61,1.8006
23917,19.313,3.0909,0.1,0.00010159,1015.2,0.00010121,1004.3,-3.2455e-05,-0.016591,-3.5316e-05,-21.514,1.7589
23918,19.405,3.1818,0.1,9.9609e-05,995.4,9.9194e-05,983.61,-3.1718e-05,-0.016932,-3.4799e-05,-23.164,1.7728
23919,19.129,3.0909,0.1,0.00010557,1054.9,0.00010524,1045.7,-3.3936e-05,-0.015793,-3.6347e-05,-18.133,1.7313
23920,19.221,3.1818,0.1,0.00010357,1035,0.00010322,1025,-3.3196e-05,-0.016106,-3.5826e-05,-19.78,1.7451
23921,18.946,3.0909,0.1,0.00010956,1094.9,0.0001093,1087.4,-3.5422e-05,-0.015046,-3.7387e-05,-14.782,1.7037
23922,19.038,3.1818,0.1,0.00010756,1074.8,0.00010727,1066.5,-3.4679e-05,-0.015333,-3.6864e-05,-16.434,1.7174
23923,18.762,3.0909,0.1,0.00011358,1135,0.00011338,1129.2,-3.6915e-05,-0.014354,-3.8435e-05,-11.436,1.6761
23924,18.854,3.1818,0.1,0.00011157,1114.9,0.00011134,1108.3,-3.6168e-05,-0.014608,-3.791e-05,-13.106,1.6899
23925,18.578,3.0909,0.1,0.00011762,1175.4,0.00011748,1171.3,-3.8414e-05,-0.013705,-3.9487e-05,-8.0751,1.6487
23926,18.67,3.1818,0.1,0.0001156,1155.2,0.00011543,1150.3,-3.7663e-05,-0.013937,-3.8962e-05,-9.7741,1.6624
23927,18.394,3.0909,0.1,0.00012167,1215.9,0.00012159,1213.5,-3.9922e-05,-0.013068,-4.0542e-05,-4.6752,1.6213
23928,18.486,3.1818,0.1,0.00011965,1195.6,0.00011954,1192.4,-3.9166e-05,-0.013282,-4.0018e-05,-6.415,1.635
23929,18.21,3.0909,0.1,0.00012575,1256.6,0.00012573,1256,-4.1438e-05,-0.012372,-4.1598e-05,-1.2135,1.594
23930,18.302,3.1818,0.1,0.00012371,1236.3,0.00012366,1234.8,-4.0677e-05,-0.012563,-4.1076e-05,-3.0062,1.6076
23931,18.027,3.0909,0.1,0.00012984,1297.5,0.00012988,1298.6,-4.2651e-05,2.3345,-4.2963e-05,-0.01197,1.5668
23932,18.119,3.1818,0.1,0.0001278,1277.1,0.0001278,1277.3,-4.2132e-05,0.47702,-4.2198e-05,-0.013331,1.5804
23933,17.843,3.0909,0.1,0.00013394,1338.5,0.00013404,1341.5,-4.3699e-05,5.9935,-4.4499e-05,-0.011377,1.5397
23934,17.935,3.1818,0.1,0.0001319,1318,0.00013196,1320.1,-4.3186e-05,4.0553,-4.3727e-05,-0.01174,1.5532
23935,17.659,3.0909,0.1,0.00013806,1379.7,0.00013823,1384.5,-4.4741e-05,9.7898,-4.6045e-05,-0.010847,1.5127
23936,17.751,3.1818,0.1,0.00013601,1359.2,0.00013614,1363,-4.4234e-05,7.7573,-4.5268e-05,-0.011135,1.5262
23937,17.475,3.0909,0.1,0.00014219,1421,0.00014242,1427.8,-4.5773e-05,13.751,-4.7604e-05,-0.01035,1.4857
23938,17.567,3.1818,0.1,0.00014014,1400.4,0.00014033,1406.2,-4.5273e-05,11.609,-4.682e-05,-0.010616,1.4992
23939,17.291,3.0909,0.1,0.00014634,1462.4,0.00014663,1471.2,-4.6792e-05,17.907,-4.9176e-05,-0.0098528,1.4589
23940,17.383,3.1818,0.1,0.00014428,1441.8,0.00014453,1449.5,-4.6302e-05,15.638,-4.8384e-05,-0.010123,1.4723
23941,17.108,3.0909,0.1,0.00015049,1503.9,0.00015086,1514.9,-4.7795e-05,22.289,-5.0763e-05,-0.0093578,1.4322
23942,17.2,3.1818,0.1,0.00014843,1483.2,0.00014875,1493.1,-4.7316e-05,19.874,-4.9963e-05,-0.0096206,1.4455
23943,16.924,3.0909,0.1,0.00015466,1545.5,0.0001551,1558.8,-4.878e-05,26.93,-5.2366e-05,-0.0088816,1.4055
23944,17.016,3.1818,0.1,0.00015259,1524.8,0.00015299,1536.9,-4.8314e-05,24.35,-5.1556e-05,-0.0091372,1.4188
23945,16.74,3.0909,0.1,0.00015883,1587.2,0.00015935,1602.9,-4.9744e-05,31.867,-5.3986e-05,-0.0084296,1.379
23946,16.832,3.1818,0.1,0.00015676,1566.5,0.00015724,1580.9,-4.9292e-05,29.1,-5.3167e-05,-0.0086778,1.3922
23947,16.556,3.0909,0.1,0.00016302,1629.1,0.00016362,1647.3,-5.0682e-05,37.138,-5.5626e-05,-0.0080168,1.3526
23948,16.648,3.1818,0.1,0.00016094,1608.3,0.0001615,1625.1,-5.0248e-05,34.161,-5.4795e-05,-0.0082467,1.3658
23949,16.372,3.0909,0.1,0.00016722,1671,0.0001679,1692,-5.1593e-05,42.786,-5.7288e-05,-0.0076446,1.3263
23950,16.464,3.1818,0.1,0.00016514,1650.2,0.00016577,1669.7,-5.1177e-05,39.572,-5.6444e-05,-0.00787,1.3394
23951,16.189,3.0909,0.1,0.00017143,1713.1,0.00017221,1737,-5.2471e-05,48.857,-5.8975e-05,-0.0072915,1.3001
23952,16.281,3.1818,0.1,0.00016934,1692.3,0.00017007,1714.5,-5.2076e-05,45.377,-5.8116e-05,-0.0075248,1.3131
23953,16.005,3.0909,0.1,0.00017565,1755.3,0.00017653,1782.4,-5.3315e-05,55.399,-6.0689e-05,-0.0069728,1.274
23954,16.097,3.1818,0.1,0.00017356,1734.4,0.00017438,1759.7,-5.2943e-05,51.622,-5.9814e-05,-0.0071895,1.287
23955,15.821,3.0909,0.1,0.0001799,1797.7,0.00018088,1828.2,-5.412e-05,62.466,-6.2435e-05,-0.0067277,1.248
23956,15.913,3.1818,0.1,0.0001778,1776.8,0.00017872,1805.2,-5.3773e-05,58.357,-6.1541e-05,-0.0069182,1.261
23957,15.637,3.0909,0.1,0.00018417,1840.4,0.00018526,1874.5,-5.4884e-05,70.115,-6.4216e-05,-0.0065871,1.2222
23958,15.729,3.1818,0.1,0.00018206,1819.3,0.00018308,1851.2,-5.4565e-05,65.637,-6.3301e-05,-0.0067378,1.2351
23959,15.453,3.0909,0.1,0.00018847,1883.4,0.00018968,1921.4,-5.5603e-05,78.406,-6.604e-05,-0.006603,1.1965
23960,15.545,3.1818,0.1,0.00018634,1862.1,0.00018748,1897.8,-5.5314e-05,73.519,-6.5099e-05,-0.006682,1.2093
23961,15.27,3.0909,0.1,0.00019282,1926.9,0.00019416,1969.1,-5.6277e-05,87.403,-6.7911e-05,-0.00682,1.1709
23962,15.362,3.1818,0.1,0.00019067,1905.3,0.00019193,1945,-5.6019e-05,82.062,-6.6941e-05,-0.0068215,1.1836
23963,15.086,3.0909,0.1,0.00019722,1970.9,0.0001987,2017.7,-5.6905e-05,97.171,-6.9839e-05,-0.00727,1.1454
23964,15.178,3.1818,0.1,0.00019504,1949,0.00019643,1993.1,-5.6678e-05,91.332,-6.8834e-05,-0.0071775,1.1581
23965,14.902,3.0909,0.1,0.00020171,2015.7,0.00020333,2067.4,-5.7487e-05,107.78,-7.1832e-05,-0.0080507,1.1201
23966,14.994,3.1818,0.1,0.00019948,1993.4,0.00020101,2042.2,-5.7292e-05,101.39,-7.0787e-05,-0.0077938,1.1327
23967,14.718,3.0909,0.1,0.0002063,2061.6,0.00020807,2118.6,-5.8026e-05,119.29,-7.3904e-05,-0.0093141,1.0949
23968,14.81,3.1818,0.1,0.00020401,2038.7,0.00020569,2092.5,-5.7861e-05,112.31,-7.281e-05,-0.008823,1.1075
23969,14.534,3.0909,0.1,0.00021104,2108.9,0.00021297,2171.7,-5.853e-05,131.76,-7.6067e-05,-0.011238,1.0699
23970,14.626,3.1818,0.1,0.00020866,2085.1,0.00021049,2144.4,-5.8392e-05,124.14,-7.4916e-05,-0.010416,1.0823
23971,14.351,3.0909,0.1,0.00021596,2158.1,0.00021806,2227.1,-5.901e-05,145.24,-7.8342e-05,-0.014073,1.045
23972,14.443,3.1818,0.1,0.00021347,2133.2,0.00021547,2198.4,-5.8893e-05,136.94,-7.712e-05,-0.012778,1.0574
23973,14.167,3.0909,0.1,0.00022114,2209.9,0.00022342,2285.4,-5.9484e-05,159.75,-8.0748e-05,-0.018137,1.0202
23974,14.259,3.1818,0.1,0.0002185,2183.4,0.00022067,2254.9,-5.9377e-05,150.75,-7.9443e-05,-0.016208,1.0325
23975,13.983,3.0909,0.1,0.00022666,2265,0.00022913,2347.5,-5.9979e-05,175.3,-8.3314e-05,-0.023829,0.9956
23976,14.075,3.1818,0.1,0.0002238,2236.5,0.00022616,2314.7,-5.9867e-05,165.58,-8.1907e-05,-0.021033,1.0079
23977,13.799,3.0909,0.1,0.00023261,2324.5,0.00023528,2414.5,-6.0536e-05,191.83,-8.6071e-05,-0.031761,0.97115
23978,13.891,3.1818,0.1,0.00022949,2293.3,0.00023204,2378.6,-6.0395e-05,181.41,-8.4542e-05,-0.027716,0.98334
23979,13.616,3.0909,0.1,0.00023916,2389.9,0.00024203,2487.6,-6.1213e-05,209.2,-8.9062e-05,-0.042801,0.94686
23980,13.707,3.1818,0.1,0.00023567,2355.1,0.00023842,2447.9,-6.1006e-05,198.15,-8.7383e-05,-0.036998,0.95897
23981,13.432,3.0909,0.1,0.00024647,2463,0.00024955,2568.7,-6.2091e-05,227.18,-9.2335e-05,-0.058124,0.92274
23982,13.524,3.1818,0.1,0.00024251,2423.4,0.00024545,2524,-6.1768e-05,215.64,-9.0475e-05,-0.049838,0.93476
23983,13.248,3.0909,0.1,0.0002548,2546.3,0.00025809,2660,-6.3286e-05,245.36,-9.5952e-05,-0.079377,0.89878
23984,13.34,3.1818,0.1,0.0002502,2500.3,0.00025335,2608.8,-6.2774e-05,233.58,-9.387e-05,-0.067556,0.91072
23985,13.064,3.0909,0.1,0.00026446,2642.8,0.00026795,2764.4,-6.4958e-05,263.1,-9.9989e-05,-0.10882,0.875
23986,13.156,3.1818,0.1,0.00025902,2588.4,0.00026237,2704.9,-6.4155e-05,251.48,-9.7636e-05,-0.092008,0.88685
23987,12.88,3.0909,0.1,0.00027587,2756.8,0.00027956,2885.8,-6.7334e-05,279.38,-0.00010454,-0.14951,0.8514
23988,12.972,3.1818,0.1,0.00026931,2691.3,0.00027287,2815.4,-6.6092e-05,268.58,-0.00010185,-0.12565,0.86316
23989,12.697,3.0909,0.1,0.00028958,2893.8,0.00029344,3028.9,-7.0729e-05,292.68,-0.00010971,-0.20569,0.82798
23990,12.788,3.1818,0.1,0.00028155,2813.6,0.0002853,2944.6,-6.8841e-05,283.72,-0.00010662,-0.17186,0.83965
23991,12.513,3.0909,0.1,0.00030632,3061.1,0.00031032,3200.2,-7.558e-05,300.69,-0.00011564,-0.28278,0.80477
23992,12.605,3.1818,0.1,0.00029635,2961.4,0.00030026,3097.8,-7.2757e-05,295.13,-0.00011207,-0.23521,0.81633
23993,12.329,3.0909,0.1,0.00032705,3268.3,0.00033111,3407.7,-8.2499e-05,300,-0.00012248,-0.38699,0.78176
23994,12.421,3.1818,0.1,0.00031451,3142.9,0.00031853,3282.1,-7.8332e-05,300.2,-0.00011833,-0.32145,0.79322
23995,12.145,3.0909,0.1,0.00035302,3527.8,0.000357,3661.6,-9.2317e-05,285.62,-0.0001304,-0.52339,0.75898
23996,12.237,3.1818,0.1,0.00033711,3368.8,0.00034115,3506.4,-8.6251e-05,295.05,-0.00012558,-0.4369,0.77032
23997,11.961,3.0909,0.1,0.0003858,3855.3,0.00038943,3974,-0.00010615,250.47,-0.00013957,-0.68982,0.73644
23998,12.053,3.1818,0.1,0.00036556,3653,0.00036943,3782,-9.7448e-05,274.07,-0.000134,-0.58642,0.74765
23999,11.778,3.0909,0.1,0.0004272,4269.1,0.00043003,4358.1,-0.00012537,185.12,-0.00015012,-0.8674,0.71416
24000,11.869,3.1818,0.1,0.00040161,4013.3,0.000405,4122.6,-0.00011317,229.31,-0.00014379,-0.76933,0.72524
24001,11.594,3.0909,0.1,0.00047894,4786.1,0.00048021,4824.4,-0.00015142,78.563,-0.00016201,-0.99566,0.69217
24002,11.686,3.1818,0.1,0.00044733,4470.2,0.00044968,4543,-0.00013495,150.27,-0.00015508,-0.9602,0.7031
24003,11.41,3.0909,0.1,0.00054154,5411.7,0.00054015,5371.7,-0.00017489,-0.85105,-0.00018519,-78.23,0.67051
24004,11.502,3.1818,0.1,0.00050463,5042.8,0.00050503,5054.6,-0.00016436,25.109,-0.00016789,-1.3954,0.68126
24005,11.226,3.0909,0.1,0.00061223,6118.1,0.00060692,5971.5,-0.00018789,-0.41059,-0.0002255,-282.94,0.64921
24006,11.318,3.1818,0.1,0.00057393,5735.3,0.0005711,5655.1,-0.00018166,-0.76514,-0.00020238,-156.45,0.65976
24007,11.042,3.0909,0.1,0.00068223,6817.6,0.00067213,6548.6,-0.00019942,0.09852,-0.00026724,-509.47,0.62832
24008,11.134,3.1818,0.1,0.00065112,6506.7,0.00064367,6304.6,-0.00019542,-0.054018,-0.00024691,-386.9,0.63865
24009,10.95,3.1818,0.1,0.00072346,7229.6,0.00071074,6895.7,-0.00020685,1.2768,-0.0002906,-627.96,0.61797
24010,10.859,3.0909,0.1,0.00073649,7359.8,0.00072202,6983.7,-0.00020732,0.92324,-0.00030097,-702.68,0.60788
24011,23.724,3.2727,0.1,2.0394e-05,203.8,1.1448e-05,58.912,3.5768e-06,-0.22898,-1.8741e-05,-167.92,2.4376
24012,23.816,3.3636,0.1,1.951e-05,194.97,9.653e-06,39.557,4.3601e-06,-0.21146,-1.8534e-05,-172.23,2.4519
24013,23.908,3.2727,0.1,1.9017e-05,190.04,8.1229e-06,22.253,5.1034e-06,-0.43452,-1.8544e-05,-178.11,2.4662
24014,23.541,3.2727,0.1,2.2328e-05,223.13,1.4994e-05,97.757,1.9531e-06,-0.23008,-1.8992e-05,-157.6,2.409
24015,23.632,3.3636,0.1,2.122e-05,212.05,1.3194e-05,78.345,2.7227e-06,-0.33126,-1.8767e-05,-161.8,2.4233
24016,23.357,3.2727,0.1,2.463e-05,246.13,1.8539e-05,136.49,3.5475e-07,-0.13326,-1.9277e-05,-147.64,2.3804
24017,23.449,3.3636,0.1,2.3353e-05,233.37,1.6733e-05,117.14,1.1238e-06,-0.14491,-1.9035e-05,-151.61,2.3947
24018,23.173,3.2727,0.1,2.7209e-05,271.91,2.2087e-05,175.09,-1.2312e-06,-0.10999,-1.9602e-05,-138.14,2.3518
24019,23.265,3.3636,0.1,2.5807e-05,257.89,2.0278e-05,155.77,-4.7049e-07,-0.12694,-1.934e-05,-141.91,2.3661
24020,22.989,3.2727,0.1,2.9998e-05,299.77,2.564e-05,213.59,-2.7994e-06,-0.087114,-1.9968e-05,-129.08,2.3232
24021,23.081,3.3636,0.1,2.8502e-05,284.82,2.3826e-05,194.29,-2.0452e-06,-0.095206,-1.9687e-05,-132.65,2.3375
24022,22.805,3.2727,0.1,3.2948e-05,329.25,2.9201e-05,252.03,-4.3517e-06,-0.073608,-2.0376e-05,-120.47,2.2947
24023,22.897,3.3636,0.1,3.138e-05,313.58,2.7382e-05,232.73,-3.6039e-06,-0.079951,-2.0076e-05,-123.84,2.3089
24024,22.622,3.2727,0.1,3.6025e-05,360,3.2775e-05,290.45,-5.889e-06,-0.063201,-2.0828e-05,-112.31,2.2662
24025,22.713,3.3636,0.1,3.4401e-05,343.77,3.0949e-05,271.14,-5.1468e-06,-0.067621,-2.0508e-05,-115.49,2.2804
24026,22.438,3.2727,0.1,3.9206e-05,391.79,3.6366e-05,328.88,-7.4126e-06,-0.055448,-2.1323e-05,-104.58,2.2377
24027,22.53,3.3636,0.1,3.7537e-05,375.11,3.4531e-05,309.55,-6.6754e-06,-0.05884,-2.0985e-05,-107.58,2.2519
24028,22.254,3.2727,0.1,4.2475e-05,424.46,3.9975e-05,367.36,-8.924e-06,-0.04932,-2.1864e-05,-97.271,2.2092
24029,22.346,3.3636,0.1,4.0767e-05,407.39,3.8131e-05,347.99,-8.1911e-06,-0.051946,-2.1507e-05,-100.11,2.2234
24030,22.07,3.2727,0.1,4.5819e-05,457.87,4.3607e-05,405.93,-1.0425e-05,-0.04439,-2.2447e-05,-90.377,2.1807
24031,22.162,3.3636,0.1,4.4079e-05,440.48,4.1752e-05,386.51,-9.6954e-06,-0.046481,-2.2074e-05,-93.053,2.1949
24032,21.886,3.2727,0.1,4.9228e-05,491.94,4.7262e-05,444.6,-1.1916e-05,-0.040324,-2.3074e-05,-83.877,2.1523
24033,21.978,3.3636,0.1,4.7461e-05,474.28,4.5396e-05,425.12,-1.119e-05,-0.04202,-2.2684e-05,-86.406,2.1665
24034,21.703,3.2727,0.1,5.2697e-05,526.61,5.0942e-05,483.4,-1.3399e-05,-0.036903,-2.3742e-05,-77.749,2.1239
24035,21.794,3.3636,0.1,5.0905e-05,508.7,4.9066e-05,463.86,-1.2675e-05,-0.038305,-2.3336e-05,-80.142,2.1381
24036,21.519,3.2727,0.1,5.622e-05,561.82,5.4649e-05,522.35,-1.4876e-05,-0.033979,-2.4451e-05,-71.974,2.0956
24037,21.611,3.3636,0.1,5.4406e-05,543.69,5.2761e-05,502.74,-1.4154e-05,-0.035151,-2.403e-05,-74.242,2.1097
24038,21.335,3.2727,0.1,5.9793e-05,597.52,5.8383e-05,561.46,-1.6347e-05,-0.031451,-2.5197e-05,-66.527,2.0672
24039,21.427,3.3636,0.1,5.7959e-05,579.19,5.6484e-05,541.78,-1.5626e-05,-0.03244,-2.4763e-05,-68.682,2.0814
24040,21.151,3.2727,0.1,6.3412e-05,633.68,6.2144e-05,600.74,-1.7814e-05,-0.029241,-2.598e-05,-61.384,2.039
24041,21.243,3.3636,0.1,6.156e-05,615.17,6.0234e-05,580.98,-1.7094e-05,-0.030083,-2.5533e-05,-63.437,2.0531
24042,20.967,3.2727,0.1,6.7074e-05,670.28,6.5933e-05,640.21,-1.9278e-05,-0.027298,-2.6797e-05,-56.523,2.0107
24043,21.059,3.3636,0.1,6.5204e-05,651.59,6.4012e-05,620.37,-1.8558e-05,-0.028015,-2.6338e-05,-58.484,2.0248
24044,20.784,3.2727,0.1,7.0776e-05,707.27,6.9749e-05,679.87,-2.0739e-05,-0.025574,-2.7646e-05,-51.918,1.9825
24045,20.875,3.3636,0.1,6.8891e-05,688.43,6.7817e-05,659.94,-2.0019e-05,-0.026195,-2.7176e-05,-53.798,1.9966
24046,20.6,3.2727,0.1,7.4516e-05,744.65,7.3593e-05,719.72,-2.22e-05,-0.024021,-2.8524e-05,-47.544,1.9544
24047,20.692,3.3636,0.1,7.2616e-05,725.66,7.165e-05,699.71,-2.1479e-05,-0.024569,-2.8044e-05,-49.355,1.9684
24048,20.416,3.2727,0.1,7.8292e-05,782.38,7.7463e-05,759.78,-2.366e-05,-0.022614,-2.943e-05,-43.379,1.9263
24049,20.508,3.3636,0.1,7.6377e-05,763.25,7.5509e-05,739.67,-2.2938e-05,-0.023093,-2.8941e-05,-45.129,1.9403
24050,20.232,3.2727,0.1,8.2101e-05,820.45,8.136e-05,800.03,-2.512e-05,-0.021337,-3.0361e-05,-39.398,1.8983
24051,20.324,3.3636,0.1,8.0174e-05,801.18,7.9395e-05,779.83,-2.4397e-05,-0.021758,-2.9864e-05,-41.099,1.9123
24052,20.048,3.2727,0.1,8.5943e-05,858.83,8.5282e-05,840.48,-2.6582e-05,-0.020173,-3.1315e-05,-35.578,1.8703
24053,20.14,3.3636,0.1,8.4003e-05,839.45,8.3307e-05,820.2,-2.5858e-05,-0.020544,-3.0811e-05,-37.239,1.8842
24054,19.865,3.2727,0.1,8.9814e-05,897.52,8.9229e-05,881.14,-2.8046e-05,-0.019114,-3.2289e-05,-31.897,1.8423
24055,19.956,3.3636,0.1,8.7863e-05,878.02,8.7244e-05,860.77,-2.732e-05,-0.019436,-3.1779e-05,-33.528,1.8563
24056,19.681,3.2727,0.1,9.3714e-05,936.5,9.32e-05,922,-2.9513e-05,-0.018146,-3.3282e-05,-28.331,1.8145
24057,19.773,3.3636,0.1,9.1752e-05,916.88,9.1205e-05,901.54,-2.8784e-05,-0.018431,-3.2767e-05,-29.942,1.8284
24058,19.497,3.2727,0.1,9.7641e-05,975.74,9.7194e-05,963.06,-3.0984e-05,-0.017239,-3.429e-05,-24.859,1.7867
24059,19.589,3.3636,0.1,9.5668e-05,956.02,9.519e-05,942.51,-3.0252e-05,-0.017504,-3.3772e-05,-26.46,1.8005
24060,19.313,3.2727,0.1,0.00010159,1015.2,0.00010121,1004.3,-3.2459e-05,-0.016385,-3.5313e-05,-21.459,1.7589
24061,19.405,3.3636,0.1,9.9611e-05,995.42,9.9198e-05,983.68,-3.1724e-05,-0.016621,-3.4791e-05,-23.06,1.7728
24062,19.129,3.2727,0.1,0.00010557,1055,0.00010525,1045.8,-3.3939e-05,-0.015585,-3.6347e-05,-18.108,1.7312
24063,19.221,3.3636,0.1,0.00010358,1035.1,0.00010323,1025.1,-3.3201e-05,-0.015795,-3.5823e-05,-19.721,1.745
24064,18.946,3.2727,0.1,0.00010957,1094.9,0.00010931,1087.5,-3.5424e-05,-0.014833,-3.739e-05,-14.786,1.7036
24065,19.038,3.3636,0.1,0.00010757,1074.9,0.00010728,1066.6,-3.4683e-05,-0.015018,-3.6866e-05,-16.42,1.7174
24066,18.762,3.2727,0.1,0.00011359,1135.1,0.00011339,1129.3,-3.6916e-05,-0.014127,-3.8441e-05,-11.471,1.6761
24067,18.854,3.3636,0.1,0.00011158,1115,0.00011135,1108.4,-3.617e-05,-0.014279,-3.7917e-05,-13.136,1.6898
24068,18.578,3.2727,0.1,0.00011763,1175.5,0.00011749,1171.4,-3.8415e-05,-0.013448,-3.9497e-05,-8.1401,1.6487
24069,18.67,3.3636,0.1,0.00011561,1155.3,0.00011544,1150.4,-3.7665e-05,-0.013579,-3.8974e-05,-9.8486,1.6624
24070,18.394,3.2727,0.1,0.00012169,1216,0.00012161,1213.6,-3.9922e-05,-0.012722,-4.0555e-05,-4.7713,1.6213
24071,18.486,3.3636,0.1,0.00011967,1195.8,0.00011955,1192.6,-3.9167e-05,-0.012851,-4.0035e-05,-6.5351,1.6349
24072,18.21,3.2727,0.1,0.00012577,1256.8,0.00012574,1256.1,-4.1437e-05,-0.011433,-4.1614e-05,-1.3423,1.594
24073,18.302,3.3636,0.1,0.00012374,1236.5,0.00012368,1234.9,-4.0677e-05,-0.011879,-4.1098e-05,-3.1735,1.6076
24074,18.027,3.2727,0.1,0.00012986,1297.7,0.00012989,1298.8,-4.2671e-05,2.1735,-4.2962e-05,-0.012406,1.5668
24075,18.119,3.3636,0.1,0.00012782,1277.4,0.00012783,1277.5,-4.2159e-05,0.26833,-4.2197e-05,-0.020124,1.5804
24076,17.843,3.2727,0.1,0.00013397,1338.7,0.00013406,1341.6,-4.3723e-05,5.7964,-4.4496e-05,-0.011499,1.5397
24077,17.935,3.3636,0.1,0.00013193,1318.4,0.00013199,1320.2,-4.3219e-05,3.7887,-4.3724e-05,-0.012074,1.5532
24078,17.659,3.2727,0.1,0.00013809,1379.9,0.00013825,1384.7,-4.4769e-05,9.5545,-4.6042e-05,-0.010904,1.5126
24079,17.751,3.3636,0.1,0.00013604,1359.5,0.00013617,1363.2,-4.4272e-05,7.4357,-4.5263e-05,-0.011263,1.5261
24080,17.475,3.2727,0.1,0.00014222,1421.2,0.00014245,1427.9,-4.5805e-05,13.475,-4.76e-05,-0.010386,1.4857
24081,17.567,3.3636,0.1,0.00014018,1400.8,0.00014036,1406.4,-4.5318e-05,11.228,-4.6814e-05,-0.010685,1.4991
24082,17.291,3.2727,0.1,0.00014637,1462.7,0.00014666,1471.4,-4.6829e-05,17.585,-4.9171e-05,-0.0098863,1.4589
24083,17.383,3.3636,0.1,0.00014432,1442.2,0.00014457,1449.7,-4.6353e-05,15.193,-4.8377e-05,-0.010174,1.4723
24084,17.108,3.2727,0.1,0.00015053,1504.2,0.00015089,1515.1,-4.7838e-05,21.917,-5.0756e-05,-0.0093964,1.4321
24085,17.2,3.3636,0.1,0.00014847,1483.7,0.00014879,1493.3,-4.7375e-05,19.359,-4.9953e-05,-0.0096721,1.4455
24086,16.924,3.2727,0.1,0.00015469,1545.9,0.00015513,1559,-4.8828e-05,26.503,-5.2357e-05,-0.0089318,1.4055
24087,17.016,3.3636,0.1,0.00015264,1525.4,0.00015303,1537.1,-4.8381e-05,23.758,-5.1545e-05,-0.0092012,1.4188
24088,16.74,3.2727,0.1,0.00015887,1587.6,0.00015938,1603.1,-4.9798e-05,31.378,-5.3976e-05,-0.0084964,1.379
24089,16.832,3.3636,0.1,0.00015682,1567.1,0.00015728,1581.1,-4.9368e-05,28.421,-5.3152e-05,-0.008762,1.3922
24090,16.556,3.2727,0.1,0.00016306,1629.5,0.00016365,1647.5,-5.0744e-05,36.58,-5.5613e-05,-0.0081056,1.3525
24091,16.648,3.3636,0.1,0.00016101,1609,0.00016155,1625.4,-5.0334e-05,33.384,-5.4778e-05,-0.0083586,1.3657
24092,16.372,3.2727,0.1,0.00016726,1671.5,0.00016794,1692.2,-5.1662e-05,42.149,-5.7273e-05,-0.0077614,1.3262
24093,16.464,3.3636,0.1,0.00016521,1650.9,0.00016583,1669.9,-5.1274e-05,38.686,-5.6424e-05,-0.0080181,1.3393
24094,16.189,3.2727,0.1,0.00017148,1713.6,0.00017225,1737.2,-5.2549e-05,48.129,-5.8956e-05,-0.007441,1.3
24095,16.281,3.3636,0.1,0.00016942,1693,0.00017013,1714.7,-5.2186e-05,44.366,-5.8091e-05,-0.0077172,1.3131
24096,16.005,3.2727,0.1,0.00017571,1755.9,0.00017657,1782.5,-5.3403e-05,54.569,-6.0667e-05,-0.007162,1.2739
24097,16.097,3.3636,0.1,0.00017364,1735.2,0.00017445,1759.9,-5.3066e-05,50.469,-5.9784e-05,-0.0074358,1.2869
24098,15.821,3.2727,0.1,0.00017996,1798.3,0.00018093,1828.3,-5.4219e-05,61.518,-6.2408e-05,-0.0069665,1.248
24099,15.913,3.3636,0.1,0.00017788,1777.6,0.00017879,1805.4,-5.3912e-05,57.043,-6.1505e-05,-0.0072291,1.2609
24100,15.637,3.2727,0.1,0.00018423,1841,0.00018531,1874.6,-5.4996e-05,69.032,-6.4184e-05,-0.006885,1.2221
24101,15.729,3.3636,0.1,0.00018215,1820.2,0.00018315,1851.4,-5.4721e-05,64.136,-6.3258e-05,-0.0071275,1.235
24102,15.453,3.2727,0.1,0.00018854,1884.1,0.00018973,1921.5,-5.573e-05,77.168,-6.6001e-05,-0.0069705,1.1964
24103,15.545,3.3636,0.1,0.00018644,1863.1,0.00018756,1898,-5.549e-05,71.804,-6.5048e-05,-0.0071651,1.2092
24104,15.27,3.2727,0.1,0.00019289,1927.5,0.00019421,1969.1,-5.642e-05,85.986,-6.7865e-05,-0.0072713,1.1708
24105,15.362,3.3636,0.1,0.00019077,1906.3,0.000192,1945.1,-5.6218e-05,80.102,-6.6879e-05,-0.0074172,1.1836
24106,15.086,3.2727,0.1,0.00019729,1971.6,0.00019874,2017.6,-5.7065e-05,95.549,-6.9783e-05,-0.0078221,1.1454
24107,15.178,3.3636,0.1,0.00019514,1950.1,0.0001965,1993.1,-5.6902e-05,89.089,-6.876e-05,-0.0079068,1.1581
24108,14.902,3.2727,0.1,0.00020178,2016.4,0.00020337,2067.3,-5.7667e-05,105.92,-7.1765e-05,-0.0087229,1.1201
24109,14.994,3.3636,0.1,0.00019958,1994.4,0.00020108,2042,-5.7543e-05,98.826,-7.0697e-05,-0.0086848,1.1327
24110,14.718,3.2727,0.1,0.00020637,2062.2,0.00020811,2118.3,-5.8228e-05,117.16,-7.3822e-05,-0.010128,1.0949
24111,14.81,3.3636,0.1,0.00020411,2039.7,0.00020575,2092.1,-5.8144e-05,109.37,-7.2701e-05,-0.0099051,1.1074
24112,14.534,3.2727,0.1,0.00021109,2109.5,0.00021299,2171.1,-5.8756e-05,129.32,-7.5969e-05,-0.012218,1.0698
24113,14.626,3.3636,0.1,0.00020875,2086.1,0.00021054,2143.8,-5.8708e-05,120.78,-7.4784e-05,-0.011726,1.0823
24114,14.351,3.2727,0.1,0.000216,2158.5,0.00021807,2226.2,-5.9261e-05,142.45,-7.8222e-05,-0.015249,1.0449
24115,14.443,3.3636,0.1,0.00021354,2134,0.0002155,2197.4,-5.9245e-05,133.09,-7.6961e-05,-0.014357,1.0573
24116,14.167,3.2727,0.1,0.00022116,2210.1,0.00022341,2284.2,-5.9761e-05,156.57,-8.0602e-05,-0.019535,1.0202
24117,14.259,3.3636,0.1,0.00021854,2183.9,0.00022066,2253.4,-5.9768e-05,146.35,-7.9249e-05,-0.018099,1.0325
24118,13.983,3.2727,0.1,0.00022664,2264.8,0.00022907,2345.8,-6.0283e-05,171.68,-8.3136e-05,-0.025472,0.99556
24119,14.075,3.3636,0.1,0.00022381,2236.6,0.00022611,2312.5,-6.0297e-05,160.56,-8.167e-05,-0.02328,1.0078
24120,13.799,3.2727,0.1,0.00023255,2323.9,0.00023517,2412,-6.0865e-05,187.73,-8.5854e-05,-0.033659,0.97111
24121,13.891,3.3636,0.1,0.00022944,2292.8,0.00023192,2375.6,-6.0864e-05,175.71,-8.4253e-05,-0.030355,0.98328
24122,13.616,3.2727,0.1,0.00023902,2388.5,0.00024184,2484.2,-6.1562e-05,204.58,-8.8796e-05,-0.044934,0.94682
24123,13.707,3.3636,0.1,0.00023553,2353.7,0.0002382,2443.6,-6.151e-05,191.7,-8.703e-05,-0.040042,0.95891
24124,13.432,3.2727,0.1,0.00024623,2460.6,0.00024925,2564.1,-6.2453e-05,222.02,-9.201e-05,-0.060411,0.9227
24125,13.524,3.3636,0.1,0.00024224,2420.7,0.00024511,2518.1,-6.23e-05,208.4,-9.0043e-05,-0.05325,0.9347
24126,13.248,3.2727,0.1,0.00025441,2542.4,0.00025764,2653.7,-6.3646e-05,239.67,-9.5554e-05,-0.081628,0.89874
24127,13.34,3.3636,0.1,0.00024975,2495.8,0.00025282,2600.8,-6.3318e-05,225.51,-9.3341e-05,-0.071202,0.91066
24128,13.064,3.2727,0.1,0.00026387,2636.9,0.0002673,2755.9,-6.5294e-05,256.92,-9.9502e-05,-0.11065,0.87495
24129,13.156,3.3636,0.1,0.00025832,2581.4,0.00026159,2694.1,-6.4686e-05,242.61,-9.6988e-05,-0.095575,0.88679
24130,12.88,3.2727,0.1,0.000275,2748.1,0.00027862,2874.3,-6.7609e-05,272.84,-0.00010394,-0.15021,0.85135
24131,12.972,3.3636,0.1,0.00026828,2680.9,0.00027174,2800.9,-6.6572e-05,259,-0.00010106,-0.12852,0.86309
24132,12.697,3.2727,0.1,0.00028834,2881.4,0.00029213,3013.6,-7.0889e-05,286.03,-0.00010898,-0.20404,0.82794
24133,12.788,3.3636,0.1,0.00028005,2798.6,0.0002837,2925.3,-6.9211e-05,273.65,-0.00010565,-0.17288,0.83958
24134,12.513,3.2727,0.1,0.00030457,3043.6,0.0003085,3180,-7.5545e-05,294.37,-0.00011476,-0.27693,0.80472
24135,12.605,3.3636,0.1,0.00029422,2940.2,0.00029802,3072.2,-7.2925e-05,284.98,-0.00011089,-0.23248,0.81626
24136,12.329,3.2727,0.1,0.00032464,3244.2,0.00032864,3381.3,-8.2154e-05,294.73,-0.00012143,-0.37456,0.78171
24137,12.421,3.3636,0.1,0.00031155,3113.3,0.00031547,3248.3,-7.817e-05,290.68,-0.0001169,-0.31212,0.79314
24138,12.145,3.2727,0.1,0.00034978,3495.4,0.00035372,3627.8,-9.1512e-05,282.52,-0.00012918,-0.50265,0.75892
24139,12.237,3.3636,0.1,0.00033307,3328.4,0.00033702,3462.5,-8.5576e-05,287.31,-0.00012387,-0.41721,0.77024
24140,11.961,3.2727,0.1,0.0003816,3813.4,0.00038524,3932.4,-0.00010471,251.13,-0.00013822,-0.66674,0.73637
24141,12.053,3.3636,0.1,0.00036017,3599.2,0.00036399,3726.2,-9.6024e-05,269.89,-0.00013202,-0.55593,0.74756
24142,11.778,3.2727,0.1,0.00042215,4218.6,0.00042506,4310.5,-0.00012317,191.36,-0.00014875,-0.85675,0.71408
24143,11.869,3.3636,0.1,0.00039471,3944.4,0.00039812,4054.5,-0.00011073,231.22,-0.0001416,-0.72846,0.72513
24144,11.594,3.2727,0.1,0.0004737,4733.7,0.00047517,4778.3,-0.00014859,91.546,-0.00016093,-1.1264,0.69207
24145,11.686,3.3636,0.1,0.00043914,4388.4,0.00044165,4466.3,-0.00013132,161.23,-0.00015291,-0.97827,0.70296
24146,11.41,3.2727,0.1,0.00053802,5376.5,0.00053694,5345.3,-0.00017454,-0.43875,-0.00018263,-61.268,0.67039
24147,11.502,3.3636,0.1,0.00049646,4961.1,0.00049721,4983.6,-0.00015981,47.019,-0.00016629,-1.6571,0.68109
24148,11.226,3.2727,0.1,0.000614,6135.8,0.00060898,5996.7,-0.00018917,-0.30399,-0.00022494,-269,0.64906
24149,11.318,3.3636,0.1,0.00056945,5690.5,0.00056715,5625,-0.00018153,-0.1979,-0.00019862,-128.61,0.65956
24150,11.042,3.2727,0.1,0.00069325,6927.7,0.00068313,6658.1,-0.00020284,1.2216,-0.00027113,-511.89,0.62814
24151,11.134,3.3636,0.1,0.00065787,6574.2,0.00065079,6381.3,-0.00019853,-0.1652,-0.00024775,-370.02,0.63841
24152,10.95,3.3636,0.1,0.00074904,7485.3,0.00073594,7140.7,-0.00021454,-0.85296,-0.00030047,-646.48,0.61768
24153,10.859,3.2727,0.1,0.00075706,7565.4,0.00074207,7176.2,-0.00021264,2.8651,-0.00030994,-728.2,0.60768
24154,23.724,3.4545,0.1,2.022e-05,202.06,1.1388e-05,58.911,3.5175e-06,-0.22724,-1.8561e-05,-166.12,2.4375
24155,23.816,3.5455,0.1,1.9289e-05,192.75,9.5802e-06,39.579,4.2849e-06,-0.208,-1.8308e-05,-169.96,2.4518
24156,23.908,3.4545,0.1,1.8836e-05,188.23,8.064e-06,22.266,5.0427e-06,-0.43396,-1.8362e-05,-176.29,2.4661
24157,23.541,3.4545,0.1,2.216e-05,221.44,1.4931e-05,97.716,1.8956e-06,-0.22901,-1.8811e-05,-155.81,2.4089
24158,23.632,3.5455,0.1,2.1003e-05,209.89,1.3116e-05,78.316,2.6492e-06,-0.3296,-1.854e-05,-159.54,2.4232
24159,23.357,3.4545,0.1,2.4469e-05,244.52,1.8473e-05,136.42,2.9935e-07,-0.13242,-1.9099e-05,-145.88,2.3803
24160,23.449,3.5455,0.1,2.3145e-05,231.29,1.6652e-05,117.06,1.0528e-06,-0.14375,-1.8809e-05,-149.38,2.3946
24161,23.173,3.4545,0.1,2.7056e-05,270.38,2.2018e-05,174.98,-1.2841e-06,-0.10925,-1.9426e-05,-136.42,2.3518
24162,23.265,3.5455,0.1,2.561e-05,255.92,2.0193e-05,155.64,-5.3842e-07,-0.12594,-1.9117e-05,-139.72,2.366
24163,22.989,3.4545,0.1,2.9853e-05,298.33,2.557e-05,213.44,-2.8495e-06,-0.086437,-1.9796e-05,-127.42,2.3232
24164,23.081,3.5455,0.1,2.8315e-05,282.95,2.3739e-05,194.12,-2.1098e-06,-0.094307,-1.9468e-05,-130.52,2.3375
24165,22.805,3.4545,0.1,3.2811e-05,327.89,2.9131e-05,251.86,-4.3989e-06,-0.072974,-2.021e-05,-118.87,2.2947
24166,22.897,3.5455,0.1,3.1203e-05,311.82,2.7293e-05,232.53,-3.6649e-06,-0.079116,-1.9864e-05,-121.79,2.3089
24167,22.622,3.4545,0.1,3.5897e-05,358.73,3.2706e-05,290.26,-5.9332e-06,-0.062598,-2.0668e-05,-110.78,2.2661
24168,22.713,3.5455,0.1,3.4235e-05,342.12,3.0861e-05,270.91,-5.204e-06,-0.066833,-2.0304e-05,-113.52,2.2804
24169,22.438,3.4545,0.1,3.9087e-05,390.6,3.6298e-05,328.68,-7.4539e-06,-0.054865,-2.1172e-05,-103.13,2.2376
24170,22.53,3.5455,0.1,3.7382e-05,373.56,3.4444e-05,309.3,-6.7288e-06,-0.058083,-2.079e-05,-105.71,2.2519
24171,22.254,3.4545,0.1,4.2365e-05,423.35,3.991e-05,367.16,-8.9624e-06,-0.048753,-2.172e-05,-95.906,2.2092
24172,22.346,3.5455,0.1,4.0624e-05,405.96,3.8047e-05,347.74,-8.2408e-06,-0.051211,-2.1323e-05,-98.344,2.2234
24173,22.07,3.4545,0.1,4.5717e-05,456.86,4.3545e-05,405.73,-1.046e-05,-0.043835,-2.2313e-05,-89.102,2.1807
24174,22.162,3.5455,0.1,4.3947e-05,439.17,4.1672e-05,386.25,-9.7414e-06,-0.045764,-2.19e-05,-91.404,2.1949
24175,21.886,3.4545,0.1,4.9136e-05,491.02,4.7204e-05,444.41,-1.1949e-05,-0.039778,-2.2949e-05,-82.694,2.1523
24176,21.978,3.5455,0.1,4.734e-05,473.08,4.5321e-05,424.88,-1.1232e-05,-0.041317,-2.2522e-05,-84.872,2.1665
24177,21.703,3.4545,0.1,5.2614e-05,525.78,5.0888e-05,483.22,-1.343e-05,-0.036367,-2.3627e-05,-76.659,2.1239
24178,21.794,3.5455,0.1,5.0796e-05,507.61,4.8996e-05,463.63,-1.2714e-05,-0.037615,-2.3187e-05,-78.725,2.1381
24179,21.519,3.4545,0.1,5.6146e-05,561.07,5.46e-05,522.19,-1.4904e-05,-0.033452,-2.4346e-05,-70.975,2.0955
24180,21.611,3.5455,0.1,5.4308e-05,542.71,5.2698e-05,502.53,-1.419e-05,-0.034472,-2.3893e-05,-72.942,2.1097
24181,21.335,3.4545,0.1,5.9727e-05,596.86,5.8339e-05,561.32,-1.6373e-05,-0.030934,-2.5102e-05,-65.619,2.0672
24182,21.427,3.5455,0.1,5.7872e-05,578.32,5.6427e-05,541.59,-1.5659e-05,-0.031775,-2.4638e-05,-67.496,2.0813
24183,21.151,3.4545,0.1,6.3354e-05,633.1,6.2106e-05,600.63,-1.7837e-05,-0.028735,-2.5894e-05,-60.564,2.0389
24184,21.243,3.5455,0.1,6.1482e-05,614.4,6.0183e-05,580.83,-1.7124e-05,-0.029432,-2.542e-05,-62.363,2.053
24185,20.967,3.4545,0.1,6.7024e-05,669.77,6.59e-05,640.12,-1.9299e-05,-0.026803,-2.672e-05,-55.788,2.0107
24186,21.059,3.5455,0.1,6.5137e-05,650.92,6.3967e-05,620.24,-1.8585e-05,-0.027378,-2.6237e-05,-57.518,2.0248
24187,20.784,3.4545,0.1,7.0733e-05,706.84,6.9721e-05,679.81,-2.0759e-05,-0.02509,-2.7578e-05,-51.264,1.9825
24188,20.875,3.5455,0.1,6.8833e-05,687.86,6.7779e-05,659.85,-2.0044e-05,-0.025572,-2.7086e-05,-52.936,1.9966
24189,20.6,3.4545,0.1,7.448e-05,744.29,7.357e-05,719.68,-2.2217e-05,-0.023549,-2.8465e-05,-46.969,1.9544
24190,20.692,3.5455,0.1,7.2567e-05,725.17,7.1618e-05,699.64,-2.1502e-05,-0.023961,-2.7966e-05,-48.593,1.9684
24191,20.416,3.4545,0.1,7.8263e-05,782.09,7.7445e-05,759.76,-2.3676e-05,-0.022152,-2.9379e-05,-42.879,1.9263
24192,20.508,3.5455,0.1,7.6338e-05,762.85,7.5484e-05,739.64,-2.2959e-05,-0.0225,-2.8874e-05,-44.463,1.9403
24193,20.232,3.4545,0.1,8.2079e-05,820.22,8.1346e-05,800.03,-2.5135e-05,-0.020885,-3.0318e-05,-38.969,1.8982
24194,20.324,3.5455,0.1,8.0142e-05,800.87,7.9376e-05,779.83,-2.4416e-05,-0.021178,-2.9807e-05,-40.523,1.9122
24195,20.048,3.4545,0.1,8.5926e-05,858.67,8.5273e-05,840.51,-2.6595e-05,-0.019732,-3.128e-05,-35.218,1.8702
24196,20.14,3.5455,0.1,8.3979e-05,839.21,8.3293e-05,820.22,-2.5874e-05,-0.019977,-3.0763e-05,-36.751,1.8842
24197,19.865,3.4545,0.1,8.9804e-05,897.42,8.9224e-05,881.19,-2.8058e-05,-0.018683,-3.2261e-05,-31.603,1.8423
24198,19.956,3.5455,0.1,8.7846e-05,877.86,8.7236e-05,860.82,-2.7335e-05,-0.018883,-3.1741e-05,-33.124,1.8562
24199,19.681,3.4545,0.1,9.3709e-05,936.45,9.32e-05,922.07,-2.9523e-05,-0.017721,-3.3261e-05,-28.101,1.8144
24200,19.773,3.5455,0.1,9.1742e-05,916.79,9.1202e-05,901.61,-2.8798e-05,-0.017889,-3.2737e-05,-29.619,1.8283
24201,19.497,3.4545,0.1,9.7642e-05,975.74,9.7198e-05,963.16,-3.0992e-05,-0.01682,-3.4276e-05,-24.691,1.7866
24202,19.589,3.5455,0.1,9.5666e-05,956,9.5193e-05,942.61,-3.0264e-05,-0.01697,-3.375e-05,-26.215,1.8005
24203,19.313,3.4545,0.1,0.0001016,1015.3,0.00010122,1004.4,-3.2466e-05,-0.015969,-3.5305e-05,-21.351,1.7589
24204,19.405,3.5455,0.1,9.9615e-05,995.46,9.9206e-05,983.81,-3.1734e-05,-0.016093,-3.4778e-05,-22.89,1.7727
24205,19.129,3.4545,0.1,0.00010558,1055.1,0.00010526,1045.9,-3.3945e-05,-0.015167,-3.6346e-05,-18.06,1.7312
24206,19.221,3.5455,0.1,0.00010359,1035.2,0.00010324,1025.2,-3.3209e-05,-0.015269,-3.5819e-05,-19.625,1.745
24207,18.946,3.4545,0.1,0.00010958,1095.1,0.00010933,1087.6,-3.5429e-05,-0.014405,-3.7396e-05,-14.797,1.7036
24208,19.038,3.5455,0.1,0.00010759,1075.1,0.0001073,1066.8,-3.4689e-05,-0.014486,-3.6869e-05,-16.397,1.7173
24209,18.762,3.4545,0.1,0.00011361,1135.3,0.00011341,1129.5,-3.6919e-05,-0.013676,-3.8453e-05,-11.541,1.6761
24210,18.854,3.5455,0.1,0.0001116,1115.3,0.00011137,1108.6,-3.6175e-05,-0.013729,-3.7928e-05,-13.187,1.6898
24211,18.578,3.4545,0.1,0.00011765,1175.7,0.00011751,1171.6,-3.8417e-05,-0.012939,-3.9516e-05,-8.27,1.6486
24212,18.67,3.5455,0.1,0.00011564,1155.6,0.00011547,1150.6,-3.7668e-05,-0.012986,-3.8994e-05,-9.9733,1.6623
24213,18.394,3.4545,0.1,0.00012172,1216.3,0.00012163,1213.8,-3.9922e-05,-0.012059,-4.0581e-05,-4.9628,1.6212
24214,18.486,3.5455,0.1,0.0001197,1196.2,0.00011958,1192.8,-3.9168e-05,-0.012155,-4.0063e-05,-6.735,1.6349
24215,18.21,3.4545,0.1,0.0001258,1257.1,0.00012577,1256.3,-4.1435e-05,-0.0099756,-4.1647e-05,-1.5982,1.5939
24216,18.302,3.5455,0.1,0.00012378,1236.9,0.00012372,1235.2,-4.0676e-05,-0.01086,-4.1134e-05,-3.451,1.6075
24217,18.027,3.4545,0.1,0.0001299,1298.1,0.00012993,1299,-4.271e-05,1.8535,-4.2959e-05,-0.013529,1.5667
24218,18.119,3.5455,0.1,0.00012787,1277.8,0.00012787,1277.8,-4.2188e-05,0.028515,-4.221e-05,-0.13712,1.5803
24219,17.843,3.4545,0.1,0.00013401,1339.2,0.0001341,1341.9,-4.3771e-05,5.405,-4.4492e-05,-0.011774,1.5396
24220,17.935,3.5455,0.1,0.00013198,1318.9,0.00013204,1320.5,-4.3273e-05,3.348,-4.372e-05,-0.012766,1.5531
24221,17.659,3.4545,0.1,0.00013814,1380.4,0.00013829,1384.9,-4.4824e-05,9.0874,-4.6035e-05,-0.011029,1.5126
24222,17.751,3.5455,0.1,0.0001361,1360.1,0.00013622,1363.5,-4.4336e-05,6.9045,-4.5257e-05,-0.011505,1.526
24223,17.475,3.4545,0.1,0.00014228,1421.8,0.00014249,1428.2,-4.5869e-05,12.926,-4.7591e-05,-0.010464,1.4856
24224,17.567,3.5455,0.1,0.00014024,1401.4,0.00014042,1406.7,-4.5392e-05,10.6,-4.6804e-05,-0.010809,1.4991
24225,17.291,3.4545,0.1,0.00014643,1463.3,0.00014671,1471.7,-4.6902e-05,16.947,-4.9159e-05,-0.0099525,1.4588
24226,17.383,3.5455,0.1,0.00014439,1442.9,0.00014463,1450.1,-4.6439e-05,14.46,-4.8364e-05,-0.01026,1.4722
24227,17.108,3.4545,0.1,0.00015059,1504.9,0.00015094,1515.4,-4.7922e-05,21.181,-5.0742e-05,-0.009471,1.4321
24228,17.2,3.5455,0.1,0.00014855,1484.5,0.00014886,1493.7,-4.7473e-05,18.511,-4.9938e-05,-0.009755,1.4454
24229,16.924,3.4545,0.1,0.00015477,1546.6,0.00015519,1559.3,-4.8924e-05,25.658,-5.234e-05,-0.009028,1.4054
24230,17.016,3.5455,0.1,0.00015273,1526.2,0.0001531,1537.5,-4.8492e-05,22.783,-5.1525e-05,-0.0093013,1.4187
24231,16.74,3.4545,0.1,0.00015895,1588.4,0.00015945,1603.4,-4.9906e-05,30.411,-5.3955e-05,-0.0086242,1.3789
24232,16.832,3.5455,0.1,0.00015691,1568.1,0.00015736,1581.5,-4.9494e-05,27.304,-5.3129e-05,-0.0088931,1.3921
24233,16.556,3.4545,0.1,0.00016315,1630.4,0.00016372,1647.8,-5.0865e-05,35.475,-5.5588e-05,-0.0082753,1.3525
24234,16.648,3.5455,0.1,0.00016111,1610,0.00016163,1625.8,-5.0475e-05,32.109,-5.475e-05,-0.0085339,1.3656
24235,16.372,3.4545,0.1,0.00016736,1672.4,0.00016802,1692.5,-5.1799e-05,40.889,-5.7242e-05,-0.0079837,1.3262
24236,16.464,3.5455,0.1,0.00016532,1652,0.00016592,1670.3,-5.1433e-05,37.232,-5.639e-05,-0.0082503,1.3393
24237,16.189,3.4545,0.1,0.00017158,1714.6,0.00017233,1737.5,-5.2704e-05,46.694,-5.892e-05,-0.0077288,1.3
24238,16.281,3.5455,0.1,0.00016954,1694.2,0.00017022,1715.2,-5.2365e-05,42.71,-5.8051e-05,-0.0080197,1.313
24239,16.005,3.4545,0.1,0.00017582,1757,0.00017666,1782.8,-5.3577e-05,52.932,-6.0623e-05,-0.0075285,1.2739
24240,16.097,3.5455,0.1,0.00017377,1736.5,0.00017455,1760.3,-5.3268e-05,48.583,-5.9735e-05,-0.0078245,1.2869
24241,15.821,3.4545,0.1,0.00018008,1799.5,0.00018102,1828.6,-5.4416e-05,59.651,-6.2356e-05,-0.0074267,1.2479
24242,15.913,3.5455,0.1,0.00017802,1779,0.00017889,1805.8,-5.414e-05,54.893,-6.1447e-05,-0.0077212,1.2608
24243,15.637,3.4545,0.1,0.00018436,1842.3,0.0001854,1874.8,-5.5217e-05,66.9,-6.4122e-05,-0.0074583,1.2221
24244,15.729,3.5455,0.1,0.0001823,1821.7,0.00018327,1851.8,-5.4977e-05,61.685,-6.3188e-05,-0.0077438,1.2349
24245,15.453,3.4545,0.1,0.00018867,1885.4,0.00018983,1921.6,-5.5979e-05,74.731,-6.5926e-05,-0.0076801,1.1963
24246,15.545,3.5455,0.1,0.0001866,1864.7,0.00018767,1898.2,-5.5779e-05,69.007,-6.4964e-05,-0.007931,1.2091
24247,15.27,3.4545,0.1,0.00019302,1928.9,0.0001943,1969.1,-5.67e-05,83.2,-6.7774e-05,-0.0081434,1.1708
24248,15.362,3.5455,0.1,0.00019093,1908,0.00019212,1945.3,-5.6542e-05,76.907,-6.6779e-05,-0.0083623,1.1835
24249,15.086,3.4545,0.1,0.00019743,1972.9,0.00019884,2017.5,-5.738e-05,92.361,-6.9674e-05,-0.0088887,1.1453
24250,15.178,3.5455,0.1,0.00019531,1951.7,0.00019662,1993.1,-5.7266e-05,85.438,-6.8639e-05,-0.009067,1.158
24251,14.902,3.4545,0.1,0.00020191,2017.7,0.00020346,2066.9,-5.8021e-05,102.27,-7.1633e-05,-0.010023,1.12
24252,14.994,3.5455,0.1,0.00019975,1996.1,0.00020119,2041.8,-5.7953e-05,94.649,-7.0551e-05,-0.010103,1.1326
24253,14.718,3.4545,0.1,0.00020649,2063.5,0.00020818,2117.7,-5.8625e-05,112.98,-7.3663e-05,-0.011706,1.0948
24254,14.81,3.5455,0.1,0.00020427,2041.3,0.00020585,2091.6,-5.8603e-05,104.59,-7.2525e-05,-0.011634,1.1073
24255,14.534,3.4545,0.1,0.0002112,2110.6,0.00021304,2170.1,-5.9198e-05,124.54,-7.5776e-05,-0.014127,1.0697
24256,14.626,3.5455,0.1,0.0002089,2087.5,0.00021062,2142.8,-5.9222e-05,115.31,-7.457e-05,-0.013825,1.0822
24257,14.351,3.4545,0.1,0.00021608,2159.4,0.00021809,2224.6,-5.9753e-05,136.99,-7.7987e-05,-0.017546,1.0448
24258,14.443,3.5455,0.1,0.00021367,2135.2,0.00021554,2195.8,-5.9817e-05,126.84,-7.6701e-05,-0.016896,1.0572
24259,14.167,3.4545,0.1,0.0002212,2210.4,0.00022337,2281.8,-6.0305e-05,150.34,-8.0317e-05,-0.022282,1.0201
24260,14.259,3.5455,0.1,0.00021862,2184.7,0.00022066,2251,-6.0402e-05,139.21,-7.8933e-05,-0.02116,1.0324
24261,13.983,3.4545,0.1,0.00022661,2264.5,0.00022896,2342.3,-6.0879e-05,164.59,-8.2788e-05,-0.028729,0.99548
24262,14.075,3.5455,0.1,0.00022382,2236.7,0.00022603,2309,-6.0995e-05,152.43,-8.1286e-05,-0.026947,1.0077
24263,13.799,3.4545,0.1,0.00023242,2322.6,0.00023495,2407.2,-6.151e-05,179.68,-8.5429e-05,-0.037469,0.97103
24264,13.891,3.5455,0.1,0.00022935,2291.9,0.00023173,2370.6,-6.1624e-05,166.47,-8.3784e-05,-0.034715,0.98318
24265,13.616,3.4545,0.1,0.00023875,2385.8,0.00024147,2477.5,-6.2248e-05,195.52,-8.8277e-05,-0.049303,0.94674
24266,13.707,3.5455,0.1,0.0002353,2351.4,0.00023786,2436.7,-6.2329e-05,181.25,-8.6458e-05,-0.045166,0.95881
24267,13.432,3.4545,0.1,0.00024576,2455.9,0.00024867,2554.9,-6.3166e-05,211.88,-9.1374e-05,-0.065261,0.92261
24268,13.524,3.5455,0.1,0.00024181,2416.4,0.00024455,2508.7,-6.3164e-05,196.63,-8.9342e-05,-0.059166,0.9346
24269,13.248,3.4545,0.1,0.00025366,2534.8,0.00025677,2641.3,-6.436e-05,228.44,-9.4775e-05,-0.086724,0.89865
24270,13.34,3.5455,0.1,0.00024904,2488.6,0.00025197,2588,-6.4207e-05,212.38,-9.2483e-05,-0.077846,0.91056
24271,13.064,3.4545,0.1,0.00026273,2625.5,0.00026603,2739.2,-6.5968e-05,244.67,-9.8547e-05,-0.11547,0.87487
24272,13.156,3.5455,0.1,0.00025721,2570.4,0.00026033,2676.8,-6.5564e-05,228.11,-9.5937e-05,-0.1027,0.88668
24273,12.88,3.4545,0.1,0.00027333,2731.4,0.00027682,2852,-6.8179e-05,259.77,-0.00010277,-0.15379,0.85126
24274,12.972,3.5455,0.1,0.00026663,2664.5,0.00026993,2777.7,-6.7382e-05,243.23,-9.9772e-05,-0.13558,0.86298
24275,12.697,3.4545,0.1,0.00028595,2857.5,0.0002896,2983.9,-7.1258e-05,272.52,-0.00010756,-0.20465,0.82784
24276,12.788,3.5455,0.1,0.00027768,2774.8,0.00028115,2894.2,-6.9867e-05,256.85,-0.00010408,-0.1788,0.83947
24277,12.513,3.4545,0.1,0.00030122,3010.1,0.00030501,3140.7,-7.5572e-05,281.13,-0.00011302,-0.2719,0.80462
24278,12.605,3.5455,0.1,0.00029086,2906.6,0.00029448,3031,-7.3301e-05,267.66,-0.00010896,-0.23552,0.81614
24279,12.329,3.4545,0.1,0.00032002,3198,0.00032388,3329.9,-8.1635e-05,282.95,-0.00011934,-0.36,0.7816
24280,12.421,3.5455,0.1,0.00030688,3066.7,0.00031061,3194.2,-7.8082e-05,273.69,-0.00011455,-0.3092,0.79301
24281,12.145,3.4545,0.1,0.00034354,3433,0.00034737,3561.6,-9.0173e-05,274.06,-0.00012671,-0.47654,0.7588
24282,12.237,3.5455,0.1,0.00032668,3264.6,0.00033045,3391.9,-8.4767e-05,272.11,-0.00012104,-0.40577,0.77009
24283,11.961,3.4545,0.1,0.00037344,3731.8,0.00037703,3849.6,-0.00010221,248.76,-0.0001354,-0.62312,0.73623
24284,12.053,3.5455,0.1,0.00035161,3513.7,0.00035529,3635.6,-9.415e-05,258.72,-0.00012865,-0.5299,0.7474
24285,11.778,3.4545,0.1,0.00041202,4117.3,0.00041502,4212.6,-0.0001192,198.7,-0.00014576,-0.84531,0.71392
24286,11.869,3.5455,0.1,0.00038357,3833.1,0.00038692,3941.4,-0.00010737,227.43,-0.00013774,-0.69656,0.72494
24287,11.594,3.4545,0.1,0.0004625,4621.8,0.00046428,4676.1,-0.00014317,111.98,-0.00015824,-1.2238,0.69188
24288,11.686,3.5455,0.1,0.00042539,4250.9,0.000428,4332.5,-0.0001261,169.3,-0.00014876,-0.973,0.70274
24289,11.41,3.4545,0.1,0.00052894,5285.7,0.00052843,5271,-0.0001729,1.446,-0.00017719,-30.801,0.67015
24290,11.502,3.5455,0.1,0.00048125,4809.2,0.0004824,4843.8,-0.00015277,71.374,-0.00016244,-1.2882,0.68083
24291,11.226,3.4545,0.1,0.00061482,6143.9,0.00061038,6020.2,-0.00019087,0.0204,-0.00022286,-240.32,0.64877
24292,11.318,3.5455,0.1,0.00055757,5571.9,0.000556,5526.7,-0.00017975,-1.4151,-0.00019126,-87.899,0.65924
24293,11.042,3.4545,0.1,0.00071484,7143.4,0.0007047,6872.1,-0.00021019,-1.993,-0.00027822,-513.11,0.62779
24294,11.134,3.5455,0.1,0.00066191,6614.6,0.00065572,6444.7,-0.00020151,3.8422,-0.00024606,-330.83,0.63801
24295,10.95,3.5455,0.1,0.00079545,7949,0.00078169,7588,-0.00022754,4.9788,-0.00031903,-682.41,0.6172
24296,10.859,3.4545,0.1,0.00080299,8024.3,0.0007869,7606.1,-0.00022576,-2.614,-0.0003289,-777.51,0.60727
24297,23.724,3.6364,0.1,1.9956e-05,199.42,1.1298e-05,58.906,3.428e-06,-0.22454,-1.8288e-05,-163.39,2.4375
24298,23.816,3.7273,0.1,1.8975e-05,189.62,9.4771e-06,39.608,4.1786e-06,-0.20301,-1.7989e-05,-166.76,2.4518
24299,23.908,3.6364,0.1,1.8563e-05,185.5,7.9748e-06,22.286,4.951e-06,-0.43309,-1.8086e-05,-173.53,2.4661
24300,23.541,3.6364,0.1,2.1905e-05,218.9,1.4835e-05,97.65,1.8087e-06,-0.22735,-1.8539e-05,-153.11,2.4089
24301,23.632,3.7273,0.1,2.0698e-05,206.84,1.3006e-05,78.271,2.5455e-06,-0.32719,-1.8219e-05,-156.35,2.4232
24302,23.357,3.6364,0.1,2.4226e-05,242.09,1.8373e-05,136.29,2.1586e-07,-0.13111,-1.8829e-05,-143.23,2.3803
24303,23.449,3.7273,0.1,2.2853e-05,228.37,1.6536e-05,116.94,9.5283e-07,-0.14206,-1.849e-05,-146.23,2.3946
24304,23.173,3.6364,0.1,2.6826e-05,268.07,2.1915e-05,174.8,-1.3637e-06,-0.10809,-1.9161e-05,-133.83,2.3517
24305,23.265,3.7273,0.1,2.5332e-05,253.14,2.0073e-05,155.46,-6.3399e-07,-0.12446,-1.8803e-05,-136.64,2.366
24306,22.989,3.6364,0.1,2.9635e-05,296.15,2.5464e-05,213.22,-2.9249e-06,-0.08538,-1.9538e-05,-124.91,2.3232
24307,23.081,3.7273,0.1,2.8052e-05,280.33,2.3616e-05,193.88,-2.2004e-06,-0.092984,-1.9161e-05,-127.53,2.3374
24308,22.805,3.6364,0.1,3.2606e-05,325.84,2.9025e-05,251.59,-4.4698e-06,-0.071982,-1.996e-05,-116.46,2.2946
24309,22.897,3.7273,0.1,3.0956e-05,309.34,2.7169e-05,232.24,-3.7503e-06,-0.077888,-1.9565e-05,-118.9,2.3089
24310,22.622,3.6364,0.1,3.5706e-05,356.81,3.2601e-05,289.97,-5.9995e-06,-0.061652,-2.0428e-05,-108.48,2.2661
24311,22.713,3.7273,0.1,3.4003e-05,339.8,3.0736e-05,270.58,-5.2841e-06,-0.06567,-2.0017e-05,-110.76,2.2803
24312,22.438,3.6364,0.1,3.8909e-05,388.82,3.6196e-05,328.38,-7.5157e-06,-0.053952,-2.0944e-05,-100.95,2.2376
24313,22.53,3.7273,0.1,3.7166e-05,371.4,3.4322e-05,308.95,-6.8035e-06,-0.056966,-2.0517e-05,-103.1,2.2518
24314,22.254,3.6364,0.1,4.22e-05,421.71,3.9812e-05,366.85,-9.0197e-06,-0.047863,-2.1506e-05,-93.862,2.2091
24315,22.346,3.7273,0.1,4.0424e-05,403.96,3.793e-05,347.38,-8.3101e-06,-0.050127,-2.1065e-05,-95.882,2.2233
24316,22.07,3.6364,0.1,4.5566e-05,455.35,4.3452e-05,405.43,-1.0513e-05,-0.042964,-2.2113e-05,-87.196,2.1807
24317,22.162,3.7273,0.1,4.3763e-05,437.33,4.1561e-05,385.9,-9.8056e-06,-0.044706,-2.1658e-05,-89.102,2.1949
24318,21.886,3.6364,0.1,4.8999e-05,489.65,4.7117e-05,444.13,-1.1998e-05,-0.038925,-2.2763e-05,-80.927,2.1522
24319,21.978,3.7273,0.1,4.7173e-05,471.4,4.5217e-05,424.54,-1.1291e-05,-0.040282,-2.2297e-05,-82.735,2.1664
24320,21.703,3.6364,0.1,5.249e-05,524.54,5.0809e-05,482.97,-1.3475e-05,-0.03553,-2.3456e-05,-75.033,2.1238
24321,21.794,3.7273,0.1,5.0645e-05,506.1,4.89e-05,463.32,-1.2769e-05,-0.036601,-2.298e-05,-76.755,2.138
24322,21.519,3.6364,0.1,5.6035e-05,559.96,5.4528e-05,521.96,-1.4945e-05,-0.032631,-2.4189e-05,-69.489,2.0955
24323,21.611,3.7273,0.1,5.4172e-05,541.35,5.261e-05,502.25,-1.424e-05,-0.033478,-2.3703e-05,-71.136,2.1096
24324,21.335,3.6364,0.1,5.9629e-05,595.88,5.8275e-05,561.13,-1.6411e-05,-0.030129,-2.496e-05,-64.268,2.0672
24325,21.427,3.7273,0.1,5.7751e-05,577.11,5.6348e-05,541.35,-1.5705e-05,-0.030801,-2.4466e-05,-65.852,2.0813
24326,21.151,3.6364,0.1,6.3268e-05,632.25,6.2049e-05,600.47,-1.7872e-05,-0.027949,-2.5767e-05,-59.346,2.0389
24327,21.243,3.7273,0.1,6.1377e-05,613.34,6.0114e-05,580.62,-1.7166e-05,-0.028481,-2.5265e-05,-60.876,2.053
24328,20.967,3.6364,0.1,6.695e-05,669.03,6.5851e-05,640,-1.9331e-05,-0.026038,-2.6607e-05,-54.696,2.0106
24329,21.059,3.7273,0.1,6.5045e-05,650.01,6.3907e-05,620.08,-1.8624e-05,-0.026451,-2.6098e-05,-56.183,2.0247
24330,20.784,3.6364,0.1,7.067e-05,706.22,6.968e-05,679.71,-2.0788e-05,-0.024339,-2.7478e-05,-50.295,1.9824
24331,20.875,3.7273,0.1,6.8755e-05,687.07,6.7728e-05,659.73,-2.008e-05,-0.024666,-2.6963e-05,-51.746,1.9965
24332,20.6,3.6364,0.1,7.4428e-05,743.77,7.3536e-05,719.63,-2.2244e-05,-0.022817,-2.8378e-05,-46.117,1.9543
24333,20.692,3.7273,0.1,7.2502e-05,724.52,7.1575e-05,699.56,-2.1534e-05,-0.023078,-2.7858e-05,-47.541,1.9683
24334,20.416,3.6364,0.1,7.8221e-05,781.67,7.7419e-05,759.74,-2.3699e-05,-0.021438,-2.9305e-05,-42.138,1.9262
24335,20.508,3.7273,0.1,7.6284e-05,762.32,7.545e-05,739.6,-2.2988e-05,-0.02164,-2.878e-05,-43.544,1.9402
24336,20.232,3.6364,0.1,8.2047e-05,819.9,8.1327e-05,800.05,-2.5156e-05,-0.020188,-3.0255e-05,-38.335,1.8982
24337,20.324,3.7273,0.1,8.01e-05,800.45,7.935e-05,779.83,-2.4442e-05,-0.02034,-2.9727e-05,-39.731,1.9121
24338,20.048,3.6364,0.1,8.5903e-05,858.44,8.526e-05,840.56,-2.6614e-05,-0.019051,-3.1228e-05,-34.687,1.8702
24339,20.14,3.7273,0.1,8.3948e-05,838.9,8.3275e-05,820.27,-2.5898e-05,-0.01916,-3.0697e-05,-36.08,1.8841
24340,19.865,3.6364,0.1,8.9789e-05,897.27,8.9218e-05,881.27,-2.8075e-05,-0.018017,-3.2221e-05,-31.169,1.8422
24341,19.956,3.7273,0.1,8.7825e-05,877.65,8.7225e-05,860.9,-2.7356e-05,-0.018084,-3.1688e-05,-32.569,1.8561
24342,19.681,3.6364,0.1,9.3703e-05,936.38,9.3199e-05,922.18,-2.9538e-05,-0.017069,-3.3231e-05,-27.762,1.8144
24343,19.773,3.7273,0.1,9.1731e-05,916.68,9.12e-05,901.73,-2.8816e-05,-0.017109,-3.2697e-05,-29.175,1.8282
24344,19.497,3.6364,0.1,9.7643e-05,975.76,9.7204e-05,963.3,-3.1005e-05,-0.016178,-3.4256e-05,-24.444,1.7865
24345,19.589,3.7273,0.1,9.5664e-05,955.98,9.5197e-05,942.77,-3.028e-05,-0.016203,-3.3722e-05,-25.879,1.8004
24346,19.313,3.6364,0.1,0.00010161,1015.4,0.00010123,1004.6,-3.2477e-05,-0.015331,-3.5295e-05,-21.193,1.7588
24347,19.405,3.7273,0.1,9.9622e-05,995.53,9.9217e-05,984,-3.1748e-05,-0.015337,-3.4761e-05,-22.659,1.7726
24348,19.129,3.6364,0.1,0.0001056,1055.2,0.00010528,1046.1,-3.3953e-05,-0.014529,-3.6346e-05,-17.991,1.7311
24349,19.221,3.7273,0.1,0.0001036,1035.3,0.00010326,1025.4,-3.322e-05,-0.014517,-3.5813e-05,-19.496,1.7449
24350,18.946,3.6364,0.1,0.00010961,1095.3,0.00010935,1087.8,-3.5435e-05,-0.013756,-3.7405e-05,-14.815,1.7035
24351,19.038,3.7273,0.1,0.00010761,1075.3,0.00010732,1067.1,-3.4698e-05,-0.01373,-3.6875e-05,-16.37,1.7173
24352,18.762,3.6364,0.1,0.00011364,1135.6,0.00011344,1129.7,-3.6924e-05,-0.012996,-3.8472e-05,-11.647,1.676
24353,18.854,3.7273,0.1,0.00011164,1115.6,0.0001114,1108.9,-3.6182e-05,-0.012954,-3.7945e-05,-13.261,1.6897
24354,18.578,3.6364,0.1,0.00011769,1176.1,0.00011755,1171.8,-3.8419e-05,-0.012189,-3.9544e-05,-8.4649,1.6485
24355,18.67,3.7273,0.1,0.00011568,1156,0.00011551,1150.9,-3.7672e-05,-0.012162,-3.9022e-05,-10.149,1.6622
24356,18.394,3.6364,0.1,0.00012176,1216.8,0.00012167,1214.2,-3.9922e-05,-0.01113,-4.062e-05,-5.2488,1.6212
24357,18.486,3.7273,0.1,0.00011975,1196.7,0.00011963,1193.1,-3.917e-05,-0.011221,-4.0102e-05,-7.014,1.6348
24358,18.21,3.6364,0.1,0.00012585,1257.6,0.00012582,1256.6,-4.1434e-05,-0.0084288,-4.1696e-05,-1.9788,1.5939
24359,18.302,3.7273,0.1,0.00012383,1237.5,0.00012377,1235.6,-4.0676e-05,-0.0096315,-4.1185e-05,-3.8366,1.6074
24360,18.027,3.6364,0.1,0.00012996,1298.7,0.00012998,1299.3,-4.2769e-05,1.3789,-4.2955e-05,-0.016248,1.5666
24361,18.119,3.7273,0.1,0.00012793,1278.5,0.00012792,1278.2,-4.2188e-05,0.0033823,-4.2269e-05,-0.60679,1.5802
24362,17.843,3.6364,0.1,0.00013408,1339.8,0.00013416,1342.2,-4.3841e-05,4.8242,-4.4485e-05,-0.012284,1.5395
24363,17.935,3.7273,0.1,0.00013205,1319.6,0.0001321,1321,-4.3348e-05,2.7385,-4.3714e-05,-0.014152,1.553
24364,17.659,3.6364,0.1,0.00013821,1381.2,0.00013835,1385.3,-4.4907e-05,8.3951,-4.6026e-05,-0.011244,1.5125
24365,17.751,3.7273,0.1,0.00013618,1360.9,0.00013629,1364,-4.4424e-05,6.1709,-4.5247e-05,-0.011926,1.5259
24366,17.475,3.6364,0.1,0.00014236,1422.6,0.00014256,1428.6,-4.5964e-05,12.113,-4.7578e-05,-0.010586,1.4856
24367,17.567,3.7273,0.1,0.00014033,1402.3,0.00014049,1407.2,-4.5495e-05,9.734,-4.6792e-05,-0.011009,1.499
24368,17.291,3.6364,0.1,0.00014652,1464.2,0.00014678,1472.1,-4.7012e-05,16.004,-4.9143e-05,-0.01005,1.4587
24369,17.383,3.7273,0.1,0.00014449,1443.9,0.00014472,1450.6,-4.6556e-05,13.451,-4.8348e-05,-0.010388,1.4721
24370,17.108,3.6364,0.1,0.00015069,1505.9,0.00015102,1515.8,-4.8046e-05,20.094,-5.0721e-05,-0.0095756,1.432
24371,17.2,3.7273,0.1,0.00014866,1485.6,0.00014895,1494.2,-4.7607e-05,17.345,-4.9917e-05,-0.0098673,1.4453
24372,16.924,3.6364,0.1,0.00015488,1547.7,0.00015528,1559.8,-4.9064e-05,24.411,-5.2314e-05,-0.00916,1.4053
24373,17.016,3.7273,0.1,0.00015285,1527.4,0.0001532,1538,-4.8644e-05,21.444,-5.1499e-05,-0.0094295,1.4186
24374,16.74,3.6364,0.1,0.00015907,1589.6,0.00015955,1603.9,-5.0065e-05,28.986,-5.3924e-05,-0.0088001,1.3788
24375,16.832,3.7273,0.1,0.00015705,1569.4,0.00015747,1582.1,-4.9666e-05,25.774,-5.3097e-05,-0.0090596,1.392
24376,16.556,3.6364,0.1,0.00016328,1631.7,0.00016383,1648.3,-5.1045e-05,33.851,-5.5551e-05,-0.0085107,1.3524
24377,16.648,3.7273,0.1,0.00016125,1611.4,0.00016175,1626.4,-5.0669e-05,30.364,-5.4711e-05,-0.008756,1.3655
24378,16.372,3.6364,0.1,0.0001675,1673.8,0.00016813,1693,-5.2001e-05,39.039,-5.7198e-05,-0.0082937,1.3261
24379,16.464,3.7273,0.1,0.00016547,1653.6,0.00016604,1670.9,-5.1651e-05,35.245,-5.6343e-05,-0.0085459,1.3391
24380,16.189,3.6364,0.1,0.00017173,1716.1,0.00017245,1738,-5.2931e-05,44.587,-5.8866e-05,-0.0081298,1.2999
24381,16.281,3.7273,0.1,0.00016971,1695.9,0.00017036,1715.7,-5.2611e-05,40.45,-5.7995e-05,-0.0084067,1.3129
24382,16.005,3.6364,0.1,0.00017598,1758.6,0.00017679,1783.3,-5.3833e-05,50.533,-6.0559e-05,-0.0080403,1.2738
24383,16.097,3.7273,0.1,0.00017395,1738.3,0.00017469,1760.9,-5.3544e-05,46.012,-5.9669e-05,-0.0083228,1.2867
24384,15.821,3.6364,0.1,0.00018025,1801.2,0.00018115,1829,-5.4703e-05,56.917,-6.2279e-05,-0.0080724,1.2478
24385,15.913,3.7273,0.1,0.00017822,1780.9,0.00017904,1806.3,-5.445e-05,51.968,-6.1368e-05,-0.008355,1.2607
24386,15.637,3.6364,0.1,0.00018454,1844.1,0.00018554,1875.2,-5.554e-05,63.783,-6.403e-05,-0.0082646,1.222
24387,15.729,3.7273,0.1,0.0001825,1823.8,0.00018342,1852.2,-5.5326e-05,58.356,-6.3093e-05,-0.0085404,1.2348
24388,15.453,3.6364,0.1,0.00018886,1887.3,0.00018997,1921.9,-5.6343e-05,71.175,-6.5816e-05,-0.0086789,1.1962
24389,15.545,3.7273,0.1,0.00018681,1866.8,0.00018783,1898.6,-5.617e-05,65.213,-6.485e-05,-0.0089238,1.209
24390,15.27,3.6364,0.1,0.00019322,1930.9,0.00019444,1969.2,-5.7109e-05,79.138,-6.7643e-05,-0.0093739,1.1706
24391,15.362,3.7273,0.1,0.00019115,1910.2,0.00019228,1945.5,-5.6981e-05,72.582,-6.6642e-05,-0.0095899,1.1834
24392,15.086,3.6364,0.1,0.00019763,1974.9,0.00019898,2017.3,-5.7839e-05,87.719,-6.9515e-05,-0.010398,1.1452
24393,15.178,3.7273,0.1,0.00019554,1954,0.00019678,1993,-5.7759e-05,80.501,-6.8475e-05,-0.010578,1.1578
24394,14.902,3.6364,0.1,0.00020211,2019.7,0.00020358,2066.4,-5.8535e-05,96.964,-7.1442e-05,-0.011868,1.1199
24395,14.994,3.7273,0.1,0.00019998,1998.4,0.00020134,2041.4,-5.8505e-05,89.011,-7.0354e-05,-0.011956,1.1324
24396,14.718,3.6364,0.1,0.00020668,2065.3,0.00020829,2116.7,-5.92e-05,106.91,-7.3432e-05,-0.013954,1.0947
24397,14.81,3.7273,0.1,0.00020449,2043.5,0.00020598,2090.8,-5.9222e-05,98.15,-7.2286e-05,-0.013899,1.1072
24398,14.534,3.6364,0.1,0.00021136,2112.2,0.00021312,2168.5,-5.9841e-05,117.61,-7.5495e-05,-0.016857,1.0696
24399,14.626,3.7273,0.1,0.0002091,2089.5,0.00021073,2141.4,-5.9912e-05,107.95,-7.4282e-05,-0.016588,1.0821
24400,14.351,3.6364,0.1,0.0002162,2160.6,0.00021811,2222.2,-6.0467e-05,129.06,-7.7647e-05,-0.020853,1.0447
24401,14.443,3.7273,0.1,0.00021383,2136.8,0.0002156,2193.6,-6.0586e-05,118.44,-7.6352e-05,-0.02026,1.0571
24402,14.167,3.6364,0.1,0.00022125,2211,0.00022332,2278.2,-6.1093e-05,141.3,-7.9903e-05,-0.026274,1.02
24403,14.259,3.7273,0.1,0.00021873,2185.8,0.00022065,2247.7,-6.1253e-05,129.63,-7.8509e-05,-0.025248,1.0323
24404,13.983,3.6364,0.1,0.00022657,2264.1,0.0002288,2337.3,-6.1741e-05,154.31,-8.2283e-05,-0.033523,0.99536
24405,14.075,3.7273,0.1,0.00022384,2236.9,0.00022591,2304.3,-6.1931e-05,141.51,-8.077e-05,-0.031905,1.0076
24406,13.799,3.6364,0.1,0.00023223,2320.7,0.00023463,2400.2,-6.2444e-05,168.03,-8.4813e-05,-0.043186,0.97091
24407,13.891,3.7273,0.1,0.00022924,2290.8,0.00023147,2363.9,-6.2645e-05,154.06,-8.3155e-05,-0.04071,0.98304
24408,13.616,3.6364,0.1,0.00023836,2382,0.00024094,2467.9,-6.3245e-05,182.36,-8.7523e-05,-0.056048,0.94662
24409,13.707,3.7273,0.1,0.000235,2348.4,0.0002374,2427.5,-6.3428e-05,167.21,-8.5689e-05,-0.052383,0.95867
24410,13.432,3.6364,0.1,0.00024509,2449.2,0.00024784,2541.7,-6.4206e-05,197.13,-9.0452e-05,-0.073097,0.92249
24411,13.524,3.7273,0.1,0.00024124,2410.7,0.0002438,2496,-6.4328e-05,180.81,-8.8402e-05,-0.067799,0.93446
24412,13.248,3.6364,0.1,0.00025259,2524.2,0.00025553,2623.5,-6.5411e-05,212.05,-9.3646e-05,-0.095614,0.89853
24413,13.34,3.7273,0.1,0.0002481,2479.2,0.00025083,2570.8,-6.5411e-05,194.67,-9.1332e-05,-0.088085,0.91041
24414,13.064,3.6364,0.1,0.00026112,2609.4,0.00026423,2715.2,-6.6978e-05,226.67,-9.7163e-05,-0.1252,0.87474
24415,13.156,3.7273,0.1,0.00025576,2555.9,0.00025867,2653.6,-6.6767e-05,208.46,-9.4526e-05,-0.1147,0.88653
24416,12.88,3.6364,0.1,0.00027098,2707.9,0.00027426,2820,-6.907e-05,240.31,-0.00010108,-0.16382,0.85113
24417,12.972,3.7273,0.1,0.00026448,2643,0.00026755,2746.8,-6.8519e-05,221.66,-9.8041e-05,-0.14944,0.86283
24418,12.697,3.6364,0.1,0.00028259,2824,0.00028603,2941.4,-7.191e-05,251.99,-0.00010548,-0.21409,0.8277
24419,12.788,3.7273,0.1,0.00027458,2743.9,0.0002778,2853.1,-7.0842e-05,233.54,-0.00010195,-0.19444,0.83931
24420,12.513,3.6364,0.1,0.00029652,2963.2,0.00030008,3084.5,-7.5812e-05,260.21,-0.00011048,-0.27897,0.80447
24421,12.605,3.7273,0.1,0.0002865,2863,0.00028985,2976.6,-7.3973e-05,242.98,-0.00010635,-0.25328,0.81597
24422,12.329,3.6364,0.1,0.00031355,3133.3,0.00031718,3256.2,-8.1219e-05,262.81,-0.00011625,-0.3637,0.78144
24423,12.421,3.7273,0.1,0.00030084,3006.3,0.00030428,3122.6,-7.8253e-05,248.35,-0.00011135,-0.3279,0.79283
24424,12.145,3.6364,0.1,0.00033477,3345.4,0.00033839,3466.1,-8.8764e-05,256.63,-0.00012298,-0.47185,0.75862
24425,12.237,3.7273,0.1,0.00031843,3182.1,0.00032191,3298.3,-8.4164e-05,247.24,-0.00011713,-0.43298,0.7699
24426,11.961,3.6364,0.1,0.0003618,3615.5,0.00036524,3727.9,-9.9371e-05,236.96,-0.00013099,-0.62222,0.73603
24427,12.053,3.7273,0.1,0.00034051,3402.7,0.0003439,3514.4,-9.2407e-05,236.13,-0.00012391,-0.54509,0.74718
24428,11.778,3.6364,0.1,0.00039709,3968.2,0.00040006,4062.5,-0.00011443,196.85,-0.00014074,-0.85068,0.71368
24429,11.869,3.7273,0.1,0.00036891,3686.5,0.00037201,3786.5,-0.00010402,209.76,-0.00013205,-0.82326,0.72469
24430,11.594,3.6364,0.1,0.00044454,4442.3,0.00044652,4503.3,-0.0001361,125.64,-0.00015296,-0.98969,0.6916
24431,11.686,3.7273,0.1,0.00040651,4062.3,0.00040899,4139.8,-0.00012062,160.51,-0.00014209,-0.78537,0.70245
24432,11.41,3.6364,0.1,0.00051086,5105.1,0.00051091,5106.6,-0.00016749,9.3729,-0.00016958,-6.2986,0.66981
24433,11.502,3.7273,0.1,0.00045835,4580.4,0.00045955,4616.5,-0.00014479,75.706,-0.0001552,-2.5101,0.68047
24434,11.226,3.6364,0.1,0.0006067,6062.8,0.00060323,5965.4,-0.0001904,2.3648,-0.00021634,-192.56,0.64834
24435,11.318,3.7273,0.1,0.0005331,5327.3,0.00053202,5296.1,-0.00017282,0.19755,-0.00018111,-62.021,0.6588
24436,11.042,3.6364,0.1,0.00074476,7442.4,0.00073477,7176.1,-0.00021883,11.047,-0.00028896,-515.84,0.62726
24437,11.134,3.7273,0.1,0.00065073,6502.8,0.00064503,6344.7,-0.00020071,-9.8738,-0.00023889,-296.81,0.63746
24438,10.95,3.7273,0.1,0.00084474,8441.5,0.00083117,8084.3,-0.00024335,10.763,-0.00033562,-682.5,0.61653
24439,10.859,3.6364,0.1,0.00088733,8867.2,0.00086956,8410.2,-0.00024676,22.664,-0.00036546,-869.2,0.60665
24440,23.724,3.8182,0.1,1.96e-05,195.87,1.1175e-05,58.896,3.3075e-06,-0.22078,-1.7921e-05,-159.72,2.4375
24441,23.816,3.9091,0.1,1.8568e-05,185.55,9.3426e-06,39.642,4.0404e-06,-0.19634,-1.7573e-05,-162.59,2.4517
24442,23.908,3.8182,0.1,1.8194e-05,181.82,7.8544e-06,22.311,4.8275e-06,-0.43185,-1.7715e-05,-169.81,2.4661
24443,23.541,3.8182,0.1,2.1562e-05,215.47,1.4706e-05,97.555,1.6919e-06,-0.22501,-1.8172e-05,-149.47,2.4088
24444,23.632,3.9091,0.1,2.0301e-05,202.87,1.2862e-05,78.205,2.4109e-06,-0.32391,-1.7802e-05,-152.19,2.4231
24445,23.357,3.8182,0.1,2.3899e-05,238.83,1.8237e-05,136.12,1.038e-07,-0.12928,-1.8465e-05,-139.65,2.3803
24446,23.449,3.9091,0.1,2.2473e-05,224.58,1.6384e-05,116.78,8.2319e-07,-0.13975,-1.8075e-05,-142.13,2.3945
24447,23.173,3.8182,0.1,2.6516e-05,264.98,2.1775e-05,174.55,-1.4703e-06,-0.10646,-1.8804e-05,-130.35,2.3517
24448,23.265,3.9091,0.1,2.4971e-05,249.54,1.9916e-05,155.21,-7.5767e-07,-0.12243,-1.8394e-05,-132.64,2.3659
24449,22.989,3.8182,0.1,2.9343e-05,293.23,2.5322e-05,212.91,-3.0256e-06,-0.083884,-1.919e-05,-121.54,2.3231
24450,23.081,3.9091,0.1,2.7712e-05,276.92,2.3454e-05,193.55,-2.3175e-06,-0.091165,-1.8762e-05,-123.65,2.3374
24451,22.805,3.8182,0.1,3.2333e-05,323.1,2.8882e-05,251.23,-4.5644e-06,-0.070577,-1.9625e-05,-113.23,2.2946
24452,22.897,3.9091,0.1,3.0636e-05,306.15,2.7006e-05,231.84,-3.8604e-06,-0.076194,-1.9179e-05,-115.17,2.3088
24453,22.622,3.8182,0.1,3.545e-05,354.26,3.246e-05,289.58,-6.0879e-06,-0.06031,-2.0108e-05,-105.4,2.266
24454,22.713,3.9091,0.1,3.3705e-05,336.81,3.0575e-05,270.14,-5.387e-06,-0.064066,-1.9647e-05,-107.21,2.2803
24455,22.438,3.8182,0.1,3.8672e-05,386.45,3.6059e-05,327.97,-7.5979e-06,-0.052656,-2.064e-05,-98.048,2.2375
24456,22.53,3.9091,0.1,3.6889e-05,368.63,3.4165e-05,308.49,-6.8994e-06,-0.055422,-2.0165e-05,-99.731,2.2518
24457,22.254,3.8182,0.1,4.1982e-05,419.53,3.9681e-05,366.45,-9.096e-06,-0.046602,-2.122e-05,-91.144,2.2091
24458,22.346,3.9091,0.1,4.0168e-05,401.41,3.7779e-05,346.92,-8.399e-06,-0.048631,-2.0733e-05,-92.723,2.2233
24459,22.07,3.8182,0.1,4.5367e-05,453.35,4.3329e-05,405.04,-1.0584e-05,-0.041733,-2.1846e-05,-84.666,2.1806
24460,22.162,3.9091,0.1,4.3529e-05,434.99,4.1418e-05,385.45,-9.8878e-06,-0.043248,-2.1349e-05,-86.158,2.1948
24461,21.886,3.8182,0.1,4.8818e-05,487.84,4.7003e-05,443.76,-1.2063e-05,-0.037721,-2.2517e-05,-78.588,2.1522
24462,21.978,3.9091,0.1,4.696e-05,469.28,4.5084e-05,424.12,-1.1367e-05,-0.038857,-2.2011e-05,-80.008,2.1663
24463,21.703,3.8182,0.1,5.2327e-05,522.91,5.0704e-05,482.63,-1.3534e-05,-0.03435,-2.323e-05,-72.885,2.1238
24464,21.794,3.9091,0.1,5.0453e-05,504.18,4.8778e-05,462.93,-1.2839e-05,-0.035209,-2.2716e-05,-74.246,2.1379
24465,21.519,3.8182,0.1,5.589e-05,558.51,5.4434e-05,521.67,-1.5e-05,-0.031478,-2.3983e-05,-67.527,2.0954
24466,21.611,3.9091,0.1,5.4001e-05,539.64,5.2499e-05,501.9,-1.4304e-05,-0.03212,-2.3462e-05,-68.842,2.1096
24467,21.335,3.8182,0.1,5.9501e-05,594.6,5.8191e-05,560.87,-1.6461e-05,-0.029003,-2.4774e-05,-62.489,2.0671
24468,21.427,3.9091,0.1,5.76e-05,575.6,5.6249e-05,541.05,-1.5764e-05,-0.029476,-2.4247e-05,-63.767,2.0812
24469,21.151,3.8182,0.1,6.3157e-05,631.13,6.1976e-05,600.26,-1.7918e-05,-0.02685,-2.56e-05,-57.743,2.0388
24470,21.243,3.9091,0.1,6.1244e-05,612.02,6.0027e-05,580.38,-1.722e-05,-0.027189,-2.5068e-05,-58.994,2.0529
24471,20.967,3.8182,0.1,6.6854e-05,668.08,6.5788e-05,639.84,-1.9373e-05,-0.024963,-2.6458e-05,-53.263,2.0106
24472,21.059,3.9091,0.1,6.4931e-05,648.86,6.3832e-05,619.89,-1.8673e-05,-0.025192,-2.5923e-05,-54.495,2.0246
24473,20.784,3.8182,0.1,7.0589e-05,705.41,6.9627e-05,679.61,-2.0826e-05,-0.023296,-2.7347e-05,-49.024,1.9824
24474,20.875,3.9091,0.1,6.8657e-05,686.1,6.7664e-05,659.59,-2.0125e-05,-0.023444,-2.6809e-05,-50.244,1.9964
24475,20.6,3.8182,0.1,7.4361e-05,743.1,7.3493e-05,719.57,-2.2278e-05,-0.021801,-2.8265e-05,-45,1.9542
24476,20.692,3.9091,0.1,7.2421e-05,723.71,7.1523e-05,699.48,-2.1575e-05,-0.021889,-2.7723e-05,-46.217,1.9682
24477,20.416,3.8182,0.1,7.8167e-05,781.13,7.7385e-05,759.73,-2.3731e-05,-0.02045,-2.9207e-05,-41.169,1.9261
24478,20.508,3.9091,0.1,7.6218e-05,761.66,7.5408e-05,739.57,-2.3025e-05,-0.020484,-2.8664e-05,-42.389,1.9401
24479,20.232,3.8182,0.1,8.2005e-05,819.49,8.1303e-05,800.08,-2.5184e-05,-0.019227,-3.0174e-05,-37.507,1.8981
24480,20.324,3.9091,0.1,8.0049e-05,799.93,7.9319e-05,779.85,-2.4476e-05,-0.019217,-2.9629e-05,-38.737,1.912
24481,20.048,3.8182,0.1,8.5874e-05,858.15,8.5245e-05,840.64,-2.6639e-05,-0.018113,-3.1161e-05,-33.993,1.8701
24482,20.14,3.9091,0.1,8.391e-05,838.52,8.3255e-05,820.34,-2.5928e-05,-0.018067,-3.0616e-05,-35.239,1.884
24483,19.865,3.8182,0.1,8.9771e-05,897.09,8.9211e-05,881.39,-2.8097e-05,-0.017101,-3.2168e-05,-30.605,1.8421
24484,19.956,3.9091,0.1,8.78e-05,877.4,8.7214e-05,861.02,-2.7382e-05,-0.017018,-3.1622e-05,-31.874,1.8561
24485,19.681,3.8182,0.1,9.3696e-05,936.31,9.3201e-05,922.34,-2.9558e-05,-0.016173,-3.3192e-05,-27.322,1.8143
24486,19.773,3.9091,0.1,9.1718e-05,916.55,9.1198e-05,901.9,-2.884e-05,-0.016069,-3.2647e-05,-28.622,1.8281
24487,19.497,3.8182,0.1,9.7646e-05,975.79,9.7213e-05,963.5,-3.1022e-05,-0.015297,-3.4231e-05,-24.125,1.7865
24488,19.589,3.9091,0.1,9.5663e-05,955.97,9.5204e-05,942.97,-3.03e-05,-0.015184,-3.3687e-05,-25.462,1.8003
24489,19.313,3.8182,0.1,0.00010162,1015.5,0.00010125,1004.8,-3.2491e-05,-0.014462,-3.5283e-05,-20.992,1.7587
24490,19.405,3.9091,0.1,9.9632e-05,995.63,9.9232e-05,984.25,-3.1765e-05,-0.014336,-3.4741e-05,-22.374,1.7725
24491,19.129,3.8182,0.1,0.00010562,1055.5,0.0001053,1046.4,-3.3965e-05,-0.013663,-3.6346e-05,-17.905,1.731
24492,19.221,3.9091,0.1,0.00010362,1035.5,0.00010328,1025.7,-3.3235e-05,-0.013527,-3.5807e-05,-19.341,1.7448
24493,18.946,3.8182,0.1,0.00010964,1095.6,0.00010938,1088.1,-3.5445e-05,-0.012881,-3.7419e-05,-14.844,1.7034
24494,19.038,3.9091,0.1,0.00010764,1075.7,0.00010735,1067.4,-3.471e-05,-0.01274,-3.6883e-05,-16.343,1.7172
24495,18.762,3.8182,0.1,0.00011368,1136,0.00011348,1130.1,-3.693e-05,-0.01209,-3.8498e-05,-11.791,1.6759
24496,18.854,3.9091,0.1,0.00011168,1116,0.00011144,1109.3,-3.6191e-05,-0.011949,-3.7967e-05,-13.361,1.6896
24497,18.578,3.8182,0.1,0.00011774,1176.6,0.00011759,1172.2,-3.8423e-05,-0.011213,-3.9583e-05,-8.725,1.6484
24498,18.67,3.9091,0.1,0.00011573,1156.5,0.00011555,1151.3,-3.7678e-05,-0.011115,-3.9058e-05,-10.377,1.6621
24499,18.394,3.8182,0.1,0.00012182,1217.4,0.00012173,1214.6,-3.9923e-05,-0.0099925,-4.0671e-05,-5.6278,1.621
24500,18.486,3.9091,0.1,0.00011981,1197.3,0.00011968,1193.6,-3.9173e-05,-0.01008,-4.0153e-05,-7.3718,1.6347
24501,18.21,3.8182,0.1,0.00012592,1258.3,0.00012588,1257.1,-4.1431e-05,-0.0069966,-4.1761e-05,-2.4808,1.5937
24502,18.302,3.9091,0.1,0.00012391,1238.2,0.00012383,1236,-4.0675e-05,-0.0082971,-4.125e-05,-4.328,1.6073
24503,18.027,3.8182,0.1,0.00013003,1299.4,0.00013005,1299.8,-4.2847e-05,0.75915,-4.2951e-05,-0.025219,1.5665
24504,18.119,3.9091,0.1,0.00012802,1279.3,0.000128,1278.7,-4.2185e-05,4.0978e-05,-4.2349e-05,-1.2319,1.5801
24505,17.843,3.8182,0.1,0.00013416,1340.7,0.00013423,1342.7,-4.3934e-05,4.0612,-4.4476e-05,-0.013226,1.5394
24506,17.935,3.9091,0.1,0.00013215,1320.5,0.00013218,1321.5,-4.3443e-05,1.968,-4.3707e-05,-0.017286,1.5529
24507,17.659,3.8182,0.1,0.00013831,1382.1,0.00013843,1385.9,-4.5015e-05,7.4872,-4.6013e-05,-0.011601,1.5124
24508,17.751,3.9091,0.1,0.00013629,1362,0.00013638,1364.6,-4.4536e-05,5.2441,-4.5236e-05,-0.012669,1.5258
24509,17.475,3.8182,0.1,0.00014247,1423.7,0.00014265,1429.2,-4.6089e-05,11.05,-4.7561e-05,-0.010775,1.4854
24510,17.567,3.9091,0.1,0.00014045,1403.5,0.00014059,1407.8,-4.5624e-05,8.6421,-4.6776e-05,-0.011329,1.4988
24511,17.291,3.8182,0.1,0.00014664,1465.4,0.00014688,1472.7,-4.7154e-05,14.771,-4.9122e-05,-0.010184,1.4586
24512,17.383,3.9091,0.1,0.00014462,1445.2,0.00014482,1451.2,-4.6705e-05,12.18,-4.8327e-05,-0.01057,1.4719
24513,17.108,3.8182,0.1,0.00015082,1507.2,0.00015113,1516.4,-4.8208e-05,18.676,-5.0695e-05,-0.0097058,1.4318
24514,17.2,3.9091,0.1,0.0001488,1487,0.00014907,1494.9,-4.7776e-05,15.881,-4.9891e-05,-0.010009,1.4451
24515,16.924,3.8182,0.1,0.00015502,1549.1,0.00015539,1560.4,-4.9248e-05,22.788,-5.2282e-05,-0.0093182,1.4052
24516,17.016,3.9091,0.1,0.000153,1529,0.00015333,1538.7,-4.8835e-05,19.766,-5.1467e-05,-0.0095775,1.4184
24517,16.74,3.8182,0.1,0.00015923,1591.2,0.00015967,1604.6,-5.0272e-05,27.134,-5.3884e-05,-0.0090089,1.3787
24518,16.832,3.9091,0.1,0.00015721,1571,0.0001576,1582.8,-4.9881e-05,23.859,-5.3058e-05,-0.009246,1.3918
24519,16.556,3.8182,0.1,0.00016345,1633.4,0.00016397,1649,-5.1278e-05,31.743,-5.5503e-05,-0.0087895,1.3522
24520,16.648,3.9091,0.1,0.00016143,1613.2,0.00016189,1627.1,-5.0911e-05,28.185,-5.4664e-05,-0.0090048,1.3654
24521,16.372,3.8182,0.1,0.00016768,1675.7,0.00016827,1693.7,-5.2263e-05,36.642,-5.7141e-05,-0.0086629,1.3259
24522,16.464,3.9091,0.1,0.00016567,1655.5,0.0001662,1671.7,-5.1924e-05,32.77,-5.6286e-05,-0.0088783,1.339
24523,16.189,3.8182,0.1,0.00017193,1718.1,0.0001726,1738.6,-5.3225e-05,41.862,-5.8798e-05,-0.0086108,1.2997
24524,16.281,3.9091,0.1,0.00016992,1698,0.00017052,1716.5,-5.2916e-05,37.641,-5.7927e-05,-0.0088449,1.3127
24525,16.005,3.8182,0.1,0.00017619,1760.7,0.00017695,1783.9,-5.4163e-05,47.436,-6.0478e-05,-0.0086574,1.2736
24526,16.097,3.9091,0.1,0.00017418,1740.6,0.00017487,1761.6,-5.3887e-05,42.824,-5.9588e-05,-0.008891,1.2866
24527,15.821,3.8182,0.1,0.00018047,1803.5,0.00018132,1829.6,-5.5074e-05,53.396,-6.2182e-05,-0.0088538,1.2477
24528,15.913,3.9091,0.1,0.00017846,1783.3,0.00017923,1807,-5.4834e-05,48.349,-6.127e-05,-0.009081,1.2605
24529,15.637,3.8182,0.1,0.00018477,1846.5,0.00018572,1875.6,-5.5956e-05,59.776,-6.3913e-05,-0.009244,1.2218
24530,15.729,3.9091,0.1,0.00018276,1826.3,0.00018362,1852.8,-5.5756e-05,54.244,-6.2977e-05,-0.0094569,1.2346
24531,15.453,3.8182,0.1,0.00018911,1889.8,0.00019015,1922.2,-5.681e-05,66.611,-6.5676e-05,-0.0098966,1.1961
24532,15.545,3.9091,0.1,0.00018708,1869.5,0.00018803,1899,-5.6652e-05,60.54,-6.4711e-05,-0.010069,1.2088
24533,15.27,3.8182,0.1,0.00019347,1933.4,0.00019462,1969.3,-5.7633e-05,73.937,-6.7474e-05,-0.010878,1.1705
24534,15.362,3.9091,0.1,0.00019143,1913,0.00019249,1945.7,-5.7522e-05,67.264,-6.6475e-05,-0.011011,1.1832
24535,15.086,3.8182,0.1,0.00019789,1977.5,0.00019915,2017.1,-5.8426e-05,81.786,-6.9313e-05,-0.012249,1.145
24536,15.178,3.9091,0.1,0.00019582,1956.9,0.00019698,1993,-5.8365e-05,74.446,-6.8274e-05,-0.012333,1.1577
24537,14.902,3.8182,0.1,0.00020236,2022.2,0.00020374,2065.8,-5.9192e-05,90.192,-7.1198e-05,-0.014137,1.1197
24538,14.994,3.9091,0.1,0.00020026,2001.2,0.00020153,2041,-5.9182e-05,82.111,-7.0113e-05,-0.014116,1.1323
24539,14.718,3.8182,0.1,0.00020691,2067.7,0.00020842,2115.5,-5.9934e-05,99.182,-7.3137e-05,-0.016732,1.0945
24540,14.81,3.9091,0.1,0.00020476,2046.2,0.00020615,2089.8,-5.9978e-05,90.283,-7.1996e-05,-0.01655,1.107
24541,14.534,3.8182,0.1,0.00021157,2114.2,0.00021321,2166.5,-6.0658e-05,108.78,-7.5138e-05,-0.020254,1.0695
24542,14.626,3.9091,0.1,0.00020935,2092,0.00021085,2139.7,-6.0755e-05,98.979,-7.3931e-05,-0.019842,1.0819
24543,14.351,3.8182,0.1,0.00021636,2162.1,0.00021814,2219.1,-6.1373e-05,119,-7.7214e-05,-0.025004,1.0446
24544,14.443,3.9091,0.1,0.00021404,2138.9,0.00021567,2190.9,-6.1521e-05,108.21,-7.5926e-05,-0.024255,1.0569
24545,14.167,3.8182,0.1,0.00022132,2211.7,0.00022325,2273.8,-6.2092e-05,129.83,-7.9376e-05,-0.031344,1.0198
24546,14.259,3.9091,0.1,0.00021886,2187.1,0.00022063,2243.7,-6.2287e-05,117.97,-7.7992e-05,-0.030157,1.0321
24547,13.983,3.8182,0.1,0.00022652,2263.6,0.00022859,2330.9,-6.2836e-05,141.26,-8.1642e-05,-0.039712,0.9952
24548,14.075,3.9091,0.1,0.00022387,2237.1,0.00022577,2298.5,-6.3067e-05,128.25,-8.0142e-05,-0.037948,1.0074
24549,13.799,3.8182,0.1,0.00023201,2318.5,0.00023423,2391.2,-6.363e-05,153.24,-8.4031e-05,-0.050738,0.97075
24550,13.891,3.9091,0.1,0.00022911,2289.5,0.00023115,2355.8,-6.3883e-05,139.01,-8.239e-05,-0.048166,0.98286
24551,13.616,3.8182,0.1,0.00023788,2377.1,0.00024026,2455.6,-6.4512e-05,165.65,-8.6568e-05,-0.065254,0.94645
24552,13.707,3.9091,0.1,0.00023464,2344.8,0.00023683,2416.2,-6.4762e-05,150.16,-8.4755e-05,-0.061609,0.95848
24553,13.432,3.8182,0.1,0.00024425,2440.8,0.00024679,2525.1,-6.5534e-05,178.35,-8.9283e-05,-0.084308,0.92232
24554,13.524,3.9091,0.1,0.00024056,2403.9,0.0002429,2480.6,-6.5744e-05,161.59,-8.7261e-05,-0.079261,0.93427
24555,13.248,3.8182,0.1,0.00025127,2511,0.00025397,2601,-6.6766e-05,191.09,-9.2213e-05,-0.10925,0.89836
24556,13.34,3.9091,0.1,0.00024698,2468.1,0.00024946,2550,-6.6883e-05,173.1,-8.9935e-05,-0.1024,0.91022
24557,13.064,3.8182,0.1,0.00025913,2589.5,0.00026199,2685.1,-6.8305e-05,203.47,-9.5404e-05,-0.14182,0.87456
24558,13.156,3.9091,0.1,0.00025404,2538.7,0.00025667,2625.8,-6.8252e-05,184.41,-9.2813e-05,-0.13272,0.88634
24559,12.88,3.8182,0.1,0.00026809,2679,0.00027109,2779.9,-7.0285e-05,214.94,-9.8916e-05,-0.18412,0.85095
24560,12.972,3.9091,0.1,0.00026195,2617.7,0.00026471,2709.6,-6.9955e-05,195.06,-9.5938e-05,-0.17246,0.86263
24561,12.697,3.8182,0.1,0.00027848,2782.9,0.00028162,2888.3,-7.2894e-05,224.62,-0.00010282,-0.23949,0.82751
24562,12.788,3.9091,0.1,0.00027095,2707.6,0.00027384,2803.9,-7.2132e-05,204.39,-9.9365e-05,-0.22441,0.8391
24563,12.513,3.8182,0.1,0.0002908,2906,0.00029403,3014.5,-7.6395e-05,231.28,-0.00010722,-0.31093,0.80427
24564,12.605,3.9091,0.1,0.0002814,2812.1,0.0002844,2911.7,-7.4986e-05,211.42,-0.00010316,-0.29409,0.81575
24565,12.329,3.8182,0.1,0.00030569,3054.8,0.00030898,3164.4,-8.1165e-05,233.02,-0.00011223,-0.41076,0.78122
24566,12.421,3.9091,0.1,0.0002938,2936,0.00029686,3037.2,-7.8806e-05,214.64,-0.00010742,-0.38513,0.7926
24567,12.145,3.8182,0.1,0.00032412,3238.9,0.00032737,3346.2,-8.7758e-05,227.11,-0.00011805,-0.52889,0.75839
24568,12.237,3.9091,0.1,0.00030886,3086.4,0.0003119,3186.6,-8.4016e-05,211.81,-0.00011228,-0.52639,0.76965
24569,11.961,3.8182,0.1,0.00034754,3473,0.00035062,3572.6,-9.6998e-05,209.38,-0.00012497,-0.78831,0.73577
24570,12.053,3.9091,0.1,0.00032761,3273.8,0.00033053,3368.6,-9.1252e-05,199.54,-0.0001179,-0.68563,0.7469
24571,11.778,3.8182,0.1,0.00037827,3780.1,0.00038091,3863.5,-0.00011017,173.74,-0.00013341,-0.85218,0.71338
24572,11.869,3.9091,0.1,0.00035171,3514.7,0.0003543,3597.1,-0.00010148,172.53,-0.0001246,-1.1928,0.72438
24573,11.594,3.8182,0.1,0.0004204,4201.1,0.00042212,4253.7,-0.00012937,110.1,-0.00014436,-2.5788,0.69124
24574,11.686,3.9091,0.1,0.00038379,3835.3,0.00038571,3894.6,-0.00011626,123.03,-0.0001328,-1.2785,0.70208
24575,11.41,3.8182,0.1,0.00048112,4807.9,0.00048119,4810,-0.00015773,9.3689,-0.00015966,-5.1135,0.66937
24576,11.502,3.9091,0.1,0.00042889,4285.9,0.00042939,4301.1,-0.00013792,38.564,-0.00014409,-7.8523,0.68004
24577,11.226,3.8182,0.1,0.00057928,5788.8,0.0005758,5690.3,-0.00018303,-11.247,-0.00020575,-181.96,0.6478
24578,11.318,3.9091,0.1,0.00049567,4953.3,0.00049378,4899.8,-0.00015706,9.7421,-0.00017357,-114.35,0.65826
24579,11.042,3.8182,0.1,0.00075646,7559.4,0.00074654,7291.3,-0.00022504,-8.7942,-0.00029084,-503.16,0.62658
24580,11.134,3.9091,0.1,0.00061017,6097.5,0.00060208,5873.8,-0.00018577,-45.812,-0.0002312,-387.11,0.63679
24581,10.95,3.9091,0.1,0.00086069,8601,0.00084124,8146.4,-0.00021735,192.52,-0.00037357,-981.25,0.61567
24582,10.859,3.8182,0.1,0.0010238,10231,0.0010059,9756,-0.00029513,-19.195,-0.0004093,-877.05,0.6058
24583,23.724,4,0.1,1.915e-05,191.37,1.102e-05,58.876,3.155e-06,-0.21581,-1.7455e-05,-155.07,2.4374
24584,23.816,4.0909,0.1,1.8061e-05,180.49,9.1748e-06,39.678,3.869e-06,-0.18776,-1.7056e-05,-157.41,2.4517
24585,23.908,4,0.1,1.7727e-05,177.15,7.7014e-06,22.34,4.671e-06,-0.43017,-1.7244e-05,-165.09,2.466
24586,23.541,4,0.1,2.1128e-05,211.14,1.454e-05,97.424,1.5444e-06,-0.22188,-1.7706e-05,-144.86,2.4088
24587,23.632,4.0909,0.1,1.9809e-05,197.95,1.2683e-05,78.111,2.2441e-06,-0.31959,-1.7283e-05,-147.04,2.4231
24588,23.357,4,0.1,2.3486e-05,234.7,1.8064e-05,135.88,-3.7474e-08,-0.1268,-1.8005e-05,-135.13,2.3802
24589,23.449,4.0909,0.1,2.2003e-05,219.88,1.6195e-05,116.57,6.6302e-07,-0.13668,-1.756e-05,-137.06,2.3945
24590,23.173,4,0.1,2.6126e-05,261.08,2.1597e-05,174.22,-1.6045e-06,-0.10425,-1.8353e-05,-125.95,2.3516
24591,23.265,4.0909,0.1,2.4526e-05,245.09,1.9719e-05,154.88,-9.1005e-07,-0.11973,-1.7888e-05,-127.68,2.3659
24592,22.989,4,0.1,2.8976e-05,289.57,2.5141e-05,212.5,-3.1521e-06,-0.081863,-1.8752e-05,-117.3,2.3231
24593,23.081,4.0909,0.1,2.7292e-05,272.73,2.3254e-05,193.12,-2.4614e-06,-0.08874,-1.8268e-05,-118.86,2.3373
24594,22.805,4,0.1,3.1989e-05,319.67,2.8702e-05,250.77,-4.6829e-06,-0.068675,-1.9204e-05,-109.17,2.2945
24595,22.897,4.0909,0.1,3.0244e-05,302.23,2.6805e-05,231.35,-3.9953e-06,-0.073931,-1.8703e-05,-110.58,2.3087
24596,22.622,4,0.1,3.5131e-05,351.07,3.2283e-05,289.08,-6.1984e-06,-0.058492,-1.9707e-05,-101.56,2.266
24597,22.713,4.0909,0.1,3.334e-05,333.17,3.0377e-05,269.6,-5.5129e-06,-0.061917,-1.9193e-05,-102.85,2.2802
24598,22.438,4,0.1,3.8377e-05,383.51,3.5888e-05,327.46,-7.7004e-06,-0.0509,-2.0261e-05,-94.427,2.2375
24599,22.53,4.0909,0.1,3.6551e-05,365.26,3.3973e-05,307.92,-7.0162e-06,-0.053356,-1.9735e-05,-95.62,2.2517
24600,22.254,4,0.1,4.1711e-05,416.83,3.9519e-05,365.94,-9.1908e-06,-0.044897,-2.0865e-05,-87.76,2.209
24601,22.346,4.0909,0.1,3.9859e-05,398.31,3.7596e-05,346.35,-8.5072e-06,-0.04663,-2.033e-05,-88.877,2.2232
24602,22.07,4,0.1,4.5121e-05,450.89,4.3177e-05,404.55,-1.0671e-05,-0.04007,-2.1516e-05,-81.526,2.1805
24603,22.162,4.0909,0.1,4.3247e-05,432.17,4.1246e-05,384.91,-9.9877e-06,-0.041302,-2.0973e-05,-82.584,2.1947
24604,21.886,4,0.1,4.8595e-05,485.62,4.6863e-05,443.31,-1.2143e-05,-0.036097,-2.2213e-05,-75.694,2.1521
24605,21.978,4.0909,0.1,4.6705e-05,466.73,4.4925e-05,423.61,-1.1459e-05,-0.036963,-2.1664e-05,-76.71,2.1663
24606,21.703,4,0.1,5.2128e-05,520.92,5.0577e-05,482.23,-1.3609e-05,-0.032769,-2.2952e-05,-70.232,2.1237
24607,21.794,4.0909,0.1,5.0224e-05,501.9,4.8632e-05,462.47,-1.2924e-05,-0.033366,-2.2398e-05,-71.22,2.1379
24608,21.519,4,0.1,5.5713e-05,556.75,5.4319e-05,521.32,-1.5068e-05,-0.029938,-2.373e-05,-65.112,2.0953
24609,21.611,4.0909,0.1,5.3798e-05,537.61,5.2368e-05,501.5,-1.4382e-05,-0.030327,-2.3173e-05,-66.082,2.1095
24610,21.335,4,0.1,5.9346e-05,593.05,5.8089e-05,560.58,-1.6523e-05,-0.027502,-2.4545e-05,-60.303,2.067
24611,21.427,4.0909,0.1,5.7421e-05,573.81,5.6132e-05,540.71,-1.5835e-05,-0.027734,-2.3986e-05,-61.265,2.0811
24612,21.151,4,0.1,6.3022e-05,629.78,6.1887e-05,600.03,-1.7975e-05,-0.025389,-2.5395e-05,-55.777,2.0387
24613,21.243,4.0909,0.1,6.1088e-05,610.46,5.9925e-05,580.1,-1.7285e-05,-0.025497,-2.4834e-05,-56.74,2.0528
24614,20.967,4,0.1,6.6738e-05,666.92,6.5712e-05,639.67,-1.9425e-05,-0.023545,-2.6277e-05,-51.508,2.0105
24615,21.059,4.0909,0.1,6.4797e-05,647.52,6.3744e-05,619.68,-1.8733e-05,-0.023551,-2.5714e-05,-52.478,2.0246
24616,20.784,4,0.1,7.0492e-05,704.44,6.9565e-05,679.49,-2.0873e-05,-0.02192,-2.7188e-05,-47.47,1.9823
24617,20.875,4.0909,0.1,6.8544e-05,684.97,6.7591e-05,659.45,-2.0179e-05,-0.021853,-2.6625e-05,-48.453,1.9963
24618,20.6,4,0.1,7.4282e-05,742.3,7.3443e-05,719.51,-2.2321e-05,-0.020466,-2.8126e-05,-43.638,1.9541
24619,20.692,4.0909,0.1,7.2327e-05,722.77,7.1464e-05,699.4,-2.1624e-05,-0.020348,-2.7563e-05,-44.64,1.9681
24620,20.416,4,0.1,7.8104e-05,780.5,7.7347e-05,759.73,-2.377e-05,-0.019153,-2.9089e-05,-39.989,1.926
24621,20.508,4.0909,0.1,7.6143e-05,760.9,7.5362e-05,739.56,-2.307e-05,-0.018991,-2.8526e-05,-41.015,1.94
24622,20.232,4,0.1,8.1958e-05,819.01,8.1275e-05,800.14,-2.5219e-05,-0.017967,-3.0075e-05,-36.5,1.898
24623,20.324,4.0909,0.1,7.999e-05,799.35,7.9285e-05,779.9,-2.4516e-05,-0.017769,-2.9512e-05,-37.557,1.9119
24624,20.048,4,0.1,8.5841e-05,857.81,8.5228e-05,840.75,-2.6671e-05,-0.016889,-3.1081e-05,-33.152,1.87
24625,20.14,4.0909,0.1,8.3868e-05,838.1,8.3233e-05,820.45,-2.5964e-05,-0.016663,-3.052e-05,-34.243,1.8839
24626,19.865,4,0.1,8.9752e-05,896.9,8.9205e-05,881.56,-2.8125e-05,-0.015908,-3.2105e-05,-29.923,1.842
24627,19.956,4.0909,0.1,8.7774e-05,877.13,8.7204e-05,861.18,-2.7415e-05,-0.015655,-3.1546e-05,-31.055,1.8559
24628,19.681,4,0.1,9.369e-05,936.25,9.3205e-05,922.56,-2.9582e-05,-0.015008,-3.3146e-05,-26.792,1.8142
24629,19.773,4.0909,0.1,9.1706e-05,916.43,9.1198e-05,902.12,-2.8868e-05,-0.014742,-3.2589e-05,-27.971,1.828
24630,19.497,4,0.1,9.7653e-05,975.85,9.7227e-05,963.76,-3.1043e-05,-0.014158,-3.4201e-05,-23.743,1.7863
24631,19.589,4.0909,0.1,9.5665e-05,955.99,9.5215e-05,943.25,-3.0325e-05,-0.013891,-3.3647e-05,-24.974,1.8002
24632,19.313,4,0.1,0.00010164,1015.7,0.00010127,1005.2,-3.2509e-05,-0.013342,-3.5269e-05,-20.754,1.7586
24633,19.405,4.0909,0.1,9.9647e-05,995.78,9.9254e-05,984.57,-3.1787e-05,-0.01307,-3.4719e-05,-22.045,1.7724
24634,19.129,4,0.1,0.00010565,1055.8,0.00010534,1046.7,-3.398e-05,-0.012553,-3.6348e-05,-17.809,1.7309
24635,19.221,4.0909,0.1,0.00010365,1035.8,0.00010331,1026.1,-3.3253e-05,-0.012282,-3.5802e-05,-19.167,1.7447
24636,18.946,4,0.1,0.00010968,1096.1,0.00010942,1088.5,-3.5456e-05,-0.01177,-3.7436e-05,-14.888,1.7033
24637,19.038,4.0909,0.1,0.00010768,1076.1,0.00010739,1067.8,-3.4724e-05,-0.011506,-3.6895e-05,-16.321,1.717
24638,18.762,4,0.1,0.00011373,1136.6,0.00011353,1130.5,-3.6939e-05,-0.01096,-3.8531e-05,-11.975,1.6758
24639,18.854,4.0909,0.1,0.00011173,1116.5,0.00011149,1109.7,-3.6202e-05,-0.010714,-3.7996e-05,-13.49,1.6894
24640,18.578,4,0.1,0.00011781,1177.3,0.00011765,1172.7,-3.8428e-05,-0.010031,-3.9631e-05,-9.051,1.6483
24641,18.67,4.0909,0.1,0.0001158,1157.2,0.00011561,1151.8,-3.7685e-05,-0.0098565,-3.9103e-05,-10.658,1.6619
24642,18.394,4,0.1,0.0001219,1218.1,0.00012179,1215.1,-3.9925e-05,-0.0087034,-4.0735e-05,-6.0984,1.6209
24643,18.486,4.0909,0.1,0.00011989,1198.1,0.00011975,1194.1,-3.9176e-05,-0.0087665,-4.0214e-05,-7.8081,1.6345
24644,18.21,4,0.1,0.00012601,1259.2,0.00012595,1257.6,-4.1429e-05,-0.0057207,-4.1841e-05,-3.1005,1.5936
24645,18.302,4.0909,0.1,0.00012399,1239.1,0.00012391,1236.6,-4.0675e-05,-0.0069265,-4.1329e-05,-4.9226,1.6072
24646,18.027,4,0.1,0.00013013,1300.4,0.00013013,1300.4,-4.2928e-05,0.10633,-4.2961e-05,-0.14634,1.5664
24647,18.119,4.0909,0.1,0.00012812,1280.3,0.00012808,1279.3,-4.2181e-05,-0.00091249,-4.2445e-05,-1.9881,1.5799
24648,17.843,4,0.1,0.00013427,1341.8,0.00013433,1343.4,-4.4048e-05,3.1254,-4.4466e-05,-0.015119,1.5393
24649,17.935,4.0909,0.1,0.00013226,1321.7,0.00013228,1322.2,-4.3556e-05,1.0495,-4.37e-05,-0.027457,1.5527
24650,17.659,4,0.1,0.00013843,1383.4,0.00013854,1386.5,-4.5148e-05,6.3758,-4.5999e-05,-0.01221,1.5122
24651,17.751,4.0909,0.1,0.00013642,1363.2,0.00013649,1365.3,-4.4671e-05,4.1355,-4.5223e-05,-0.014083,1.5257
24652,17.475,4,0.1,0.0001426,1425,0.00014276,1429.9,-4.6242e-05,9.7506,-4.7542e-05,-0.011062,1.4853
24653,17.567,4.0909,0.1,0.00014059,1404.9,0.00014071,1408.5,-4.5779e-05,7.3389,-4.6758e-05,-0.01186,1.4987
24654,17.291,4,0.1,0.00014679,1466.9,0.00014701,1473.4,-4.7329e-05,13.269,-4.9096e-05,-0.010361,1.4584
24655,17.383,4.0909,0.1,0.00014477,1446.7,0.00014495,1452,-4.6882e-05,10.668,-4.8303e-05,-0.010837,1.4718
24656,17.108,4,0.1,0.00015098,1508.8,0.00015127,1517.2,-4.8406e-05,16.951,-5.0663e-05,-0.0098573,1.4317
24657,17.2,4.0909,0.1,0.00014897,1488.7,0.00014921,1495.7,-4.7977e-05,14.142,-4.986e-05,-0.010185,1.445
24658,16.924,4,0.1,0.0001552,1550.9,0.00015554,1561.2,-4.9471e-05,20.818,-5.2243e-05,-0.0094884,1.405
24659,17.016,4.0909,0.1,0.00015318,1530.8,0.00015348,1539.6,-4.9062e-05,17.778,-5.143e-05,-0.0097389,1.4183
24660,16.74,4,0.1,0.00015942,1593.1,0.00015983,1605.4,-5.0523e-05,24.892,-5.3837e-05,-0.0092302,1.3785
24661,16.832,4.0909,0.1,0.00015741,1573,0.00015777,1583.7,-5.0137e-05,21.596,-5.3012e-05,-0.0094362,1.3917
24662,16.556,4,0.1,0.00016365,1635.4,0.00016413,1649.8,-5.156e-05,29.196,-5.5447e-05,-0.0090873,1.3521
24663,16.648,4.0909,0.1,0.00016165,1615.4,0.00016207,1628,-5.1198e-05,25.617,-5.4609e-05,-0.009255,1.3652
24664,16.372,4,0.1,0.0001679,1677.9,0.00016845,1694.5,-5.2579e-05,33.754,-5.7073e-05,-0.00906,1.3257
24665,16.464,4.0909,0.1,0.0001659,1657.9,0.00016639,1672.6,-5.2245e-05,29.861,-5.622e-05,-0.0092157,1.3388
24666,16.189,4,0.1,0.00017217,1720.5,0.00017279,1739.4,-5.358e-05,38.588,-5.8717e-05,-0.0091319,1.2995
24667,16.281,4.0909,0.1,0.00017016,1700.5,0.00017072,1717.4,-5.3275e-05,34.347,-5.7848e-05,-0.0092946,1.3125
24668,16.005,4,0.1,0.00017645,1763.2,0.00017715,1784.7,-5.456e-05,43.724,-6.038e-05,-0.0093302,1.2734
24669,16.097,4.0909,0.1,0.00017444,1743.2,0.00017508,1762.5,-5.4288e-05,39.097,-5.9493e-05,-0.0094802,1.2864
24670,15.821,4,0.1,0.00018074,1806.2,0.00018153,1830.3,-5.5518e-05,49.185,-6.2066e-05,-0.0097106,1.2475
24671,15.913,4.0909,0.1,0.00017874,1786.2,0.00017945,1807.8,-5.5283e-05,44.13,-6.1158e-05,-0.0098395,1.2603
24672,15.637,4,0.1,0.00018506,1849.3,0.00018593,1876.2,-5.6454e-05,54.997,-6.3775e-05,-0.010321,1.2216
24673,15.729,4.0909,0.1,0.00018305,1829.3,0.00018385,1853.5,-5.6258e-05,49.467,-6.2843e-05,-0.01042,1.2344
24674,15.453,4,0.1,0.0001894,1892.7,0.00019037,1922.6,-5.7366e-05,61.183,-6.551e-05,-0.01124,1.1959
24675,15.545,4.0909,0.1,0.00018739,1872.6,0.00018827,1899.6,-5.7212e-05,55.125,-6.4551e-05,-0.011278,1.2086
24676,15.27,4,0.1,0.00019378,1936.5,0.00019484,1969.4,-5.8255e-05,67.764,-6.7275e-05,-0.012545,1.1703
24677,15.362,4.0909,0.1,0.00019175,1916.2,0.00019272,1946,-5.8147e-05,61.121,-6.6284e-05,-0.012518,1.183
24678,15.086,4,0.1,0.0001982,1980.6,0.00019936,2016.9,-5.9122e-05,74.762,-6.9074e-05,-0.014308,1.1448
24679,15.178,4.0909,0.1,0.00019615,1960.2,0.00019721,1993,-5.9063e-05,67.47,-6.8044e-05,-0.014203,1.1574
24680,14.902,4,0.1,0.00020266,2025.2,0.00020394,2065.1,-5.9969e-05,82.195,-7.091e-05,-0.016675,1.1195
24681,14.994,4.0909,0.1,0.00020059,2004.5,0.00020175,2040.6,-5.9961e-05,74.185,-6.9836e-05,-0.016427,1.1321
24682,14.718,4,0.1,0.0002072,2070.5,0.00020858,2114.1,-6.0799e-05,90.073,-7.279e-05,-0.019858,1.0943
24683,14.81,4.0909,0.1,0.00020508,2049.4,0.00020634,2088.8,-6.0844e-05,81.27,-7.1663e-05,-0.019407,1.1068
24684,14.534,4,0.1,0.00021181,2116.7,0.00021332,2164.2,-6.1619e-05,98.403,-7.4719e-05,-0.024109,1.0693
24685,14.626,4.0909,0.1,0.00020963,2094.9,0.000211,2137.8,-6.1717e-05,88.728,-7.3529e-05,-0.023376,1.0817
24686,14.351,4,0.1,0.00021654,2163.9,0.00021817,2215.5,-6.2436e-05,107.18,-7.6705e-05,-0.029766,1.0444
24687,14.443,4.0909,0.1,0.00021427,2141.2,0.00021575,2187.9,-6.2587e-05,96.55,-7.5441e-05,-0.028637,1.0567
24688,14.167,4,0.1,0.00022141,2212.6,0.00022316,2268.5,-6.3263e-05,116.39,-7.8758e-05,-0.037247,1.0196
24689,14.259,4.0909,0.1,0.00021902,2188.7,0.00022061,2239.1,-6.3462e-05,104.72,-7.7404e-05,-0.035617,1.0319
24690,13.983,4,0.1,0.00022646,2263,0.00022834,2323.4,-6.4115e-05,125.99,-8.089e-05,-0.047063,0.995
24691,14.075,4.0909,0.1,0.0002239,2237.5,0.00022561,2291.9,-6.4355e-05,113.2,-7.9427e-05,-0.044794,1.0072
24692,13.799,4,0.1,0.00023174,2315.8,0.00023375,2380.8,-6.5015e-05,135.93,-8.3114e-05,-0.059944,0.97054
24693,13.891,4.0909,0.1,0.00022896,2288,0.00023079,2346.5,-6.5284e-05,121.93,-8.152e-05,-0.056816,0.98263
24694,13.616,4,0.1,0.00023732,2371.6,0.00023947,2441.2,-6.5994e-05,146.1,-8.5449e-05,-0.07687,0.94625
24695,13.707,4.0909,0.1,0.00023424,2340.7,0.00023619,2403.4,-6.6271e-05,130.84,-8.3695e-05,-0.072645,0.95826
24696,13.432,4,0.1,0.00024329,2431.2,0.00024557,2505.6,-6.7093e-05,156.34,-8.7914e-05,-0.099105,0.92211
24697,13.524,4.0909,0.1,0.0002398,2396.3,0.00024187,2463.1,-6.7347e-05,139.8,-8.5966e-05,-0.09351,0.93404
24698,13.248,4,0.1,0.00024975,2495.8,0.00025217,2574.8,-6.8367e-05,166.44,-9.0536e-05,-0.12834,0.89814
24699,13.34,4.0909,0.1,0.00024573,2455.6,0.00024792,2526.5,-6.8555e-05,148.62,-8.8351e-05,-0.12107,0.90999
24700,13.064,4,0.1,0.00025686,2566.8,0.0002594,2650.2,-6.9897e-05,176.03,-9.3347e-05,-0.1669,0.87435
24701,13.156,4.0909,0.1,0.00025213,2519.5,0.00025443,2594.3,-6.9952e-05,157.02,-9.0871e-05,-0.15766,0.8861
24702,12.88,4,0.1,0.0002648,2646.2,0.00026746,2733.6,-7.179e-05,184.6,-9.6387e-05,-0.21791,0.85072
24703,12.972,4.0909,0.1,0.00025913,2589.6,0.00026154,2667.8,-7.1622e-05,164.59,-9.3554e-05,-0.20658,0.86238
24704,12.697,4,0.1,0.00027385,2736.6,0.0002766,2827.1,-7.4201e-05,191.35,-9.9707e-05,-0.28673,0.82728
24705,12.788,4.0909,0.1,0.00026694,2667.6,0.00026943,2748.7,-7.3679e-05,170.69,-9.6433e-05,-0.27267,0.83885
24706,12.513,4,0.1,0.00028437,2841.8,0.00028718,2934.1,-7.7357e-05,195.09,-0.00010337,-0.38029,0.80402
24707,12.605,4.0909,0.1,0.00027581,2756.2,0.00027836,2839.1,-7.6295e-05,174.35,-9.9547e-05,-0.36527,0.81549
24708,12.329,4,0.1,0.0002969,2967,0.00029972,3058.9,-8.1589e-05,193.95,-0.00010747,-0.52047,0.78096
24709,12.421,4.0909,0.1,0.00028612,2859.3,0.00028868,2942,-7.9722e-05,174.04,-0.00010295,-0.49729,0.79232
24710,12.145,4,0.1,0.00031223,3120.2,0.00031495,3208.2,-8.7401e-05,185.07,-0.00011213,-0.71856,0.7581
24711,12.237,4.0909,0.1,0.00029844,2982.3,0.00030092,3062.1,-8.4346e-05,167.37,-0.00010672,-0.71496,0.76934
24712,11.961,4,0.1,0.0003316,3313.7,0.00033406,3392,-9.5571e-05,163.93,-0.00011754,-1.1637,0.73544
24713,12.053,4.0909,0.1,0.0003136,3133.9,0.00031587,3205.8,-9.0768e-05,150.52,-0.00011094,-1.0633,0.74657
24714,11.778,4,0.1,0.00035699,3567.4,0.00035889,3626.6,-0.00010734,123.57,-0.00012402,-1.8089,0.71301
24715,11.869,4.0909,0.1,0.000333,3327.7,0.0003348,3383.7,-9.9931e-05,117.33,-0.00011582,-2.0358,0.724
24716,11.594,4,0.1,0.00039202,3917.5,0.00039277,3940.4,-0.00012451,53.713,-0.00013261,-7.1554,0.6908
24717,11.686,4.0909,0.1,0.00035883,3585.9,0.00035971,3612.5,-0.00011318,59.395,-0.00012178,-5.2543,0.70165
24718,11.41,4,0.1,0.00044333,4430.2,0.00044193,4390.6,-0.00014121,9.0839,-0.00015398,-86.862,0.66885
24719,11.502,4.0909,0.1,0.00039532,3950.5,0.0003943,3921.4,-0.00012671,6.6715,-0.00013612,-64.009,0.67953
24720,11.226,4,0.1,0.00052753,5271.6,0.00052091,5089.8,-0.00015974,-24.382,-0.00019993,-326.35,0.64716
24721,11.318,4.0909,0.1,0.00044997,4496.6,0.00044523,4368.8,-0.00013485,10.197,-0.00017004,-254.19,0.65765
24722,11.042,4,0.1,0.0007247,7242,0.00070468,6788.2,-0.00017312,192.74,-0.00032676,-961.68,0.62576
24723,11.134,4.0909,0.1,0.0005454,5450.2,0.0005305,5067.3,-0.00014847,-34.232,-0.00023375,-674.97,0.63603
24724,10.95,4.0909,0.1,0.00078538,7848.3,0.0007384,6878,-0.000139,285.57,-0.00041703,-1803.5,0.61468
24725,10.859,4,0.1,0.0012782,12774,0.0012502,12140,-0.00031501,379.67,-0.00055853,-1450,0.60472
24726,23.724,4.1818,0.1,1.86e-05,185.87,1.0828e-05,58.84,2.9691e-06,-0.2094,-1.6885e-05,-149.38,2.4373
24727,23.816,4.2727,0.1,1.745e-05,174.38,8.9714e-06,39.711,3.6626e-06,-0.17692,-1.6432e-05,-151.16,2.4516
24728,23.908,4.1818,0.1,1.7156e-05,171.44,7.5141e-06,22.37,4.4798e-06,-0.42792,-1.6668e-05,-159.33,2.4659
24729,23.541,4.1818,0.1,2.06e-05,205.85,1.4337e-05,97.246,1.365e-06,-0.21779,-1.7138e-05,-139.24,2.4087
24730,23.632,4.2727,0.1,1.9216e-05,192.02,1.2464e-05,77.978,2.0439e-06,-0.31399,-1.6657e-05,-140.82,2.423
24731,23.357,4.1818,0.1,2.2985e-05,229.69,1.7851e-05,135.57,-2.0875e-07,-0.12355,-1.7444e-05,-129.62,2.3801
24732,23.449,4.2727,0.1,2.1438e-05,214.23,1.5965e-05,116.28,4.7129e-07,-0.13267,-1.694e-05,-130.95,2.3944
24733,23.173,4.1818,0.1,2.5653e-05,256.35,2.1378e-05,173.8,-1.7666e-06,-0.10134,-1.7805e-05,-120.61,2.3515
24734,23.265,4.2727,0.1,2.3993e-05,239.76,1.948e-05,154.46,-1.0918e-06,-0.11619,-1.728e-05,-121.74,2.3658
24735,22.989,4.1818,0.1,2.8533e-05,285.14,2.492e-05,211.99,-3.3044e-06,-0.079185,-1.8222e-05,-112.16,2.323
24736,23.081,4.2727,0.1,2.6792e-05,267.74,2.3011e-05,192.59,-2.6323e-06,-0.085542,-1.7678e-05,-113.13,2.3372
24737,22.805,4.1818,0.1,3.1577e-05,315.55,2.8483e-05,250.2,-4.8252e-06,-0.066149,-1.8695e-05,-104.28,2.2944
24738,22.897,4.2727,0.1,2.9778e-05,297.58,2.6563e-05,230.73,-4.1551e-06,-0.07094,-1.8137e-05,-105.12,2.3087
24739,22.622,4.1818,0.1,3.4749e-05,347.25,3.207e-05,288.47,-6.3306e-06,-0.056077,-1.9224e-05,-96.934,2.2659
24740,22.713,4.2727,0.1,3.2909e-05,328.86,3.014e-05,268.94,-5.6614e-06,-0.059075,-1.8654e-05,-97.679,2.2801
24741,22.438,4.1818,0.1,3.8026e-05,380,3.5684e-05,326.84,-7.8229e-06,-0.04857,-1.9807e-05,-90.094,2.2374
24742,22.53,4.2727,0.1,3.6156e-05,361.31,3.3745e-05,307.25,-7.1538e-06,-0.050625,-1.9228e-05,-90.771,2.2516
24743,22.254,4.1818,0.1,4.1391e-05,413.63,3.9326e-05,365.34,-9.304e-06,-0.042637,-2.0442e-05,-83.728,2.2089
24744,22.346,4.2727,0.1,3.9498e-05,394.71,3.738e-05,345.69,-8.6343e-06,-0.043992,-1.9856e-05,-84.36,2.2231
24745,22.07,4.1818,0.1,4.4831e-05,448,4.2997e-05,403.99,-1.0776e-05,-0.037875,-2.1125e-05,-77.797,2.1804
24746,22.162,4.2727,0.1,4.292e-05,428.91,4.1045e-05,384.28,-1.0105e-05,-0.038747,-2.0535e-05,-78.405,2.1946
24747,21.886,4.1818,0.1,4.8335e-05,483.02,4.6698e-05,442.8,-1.2239e-05,-0.033966,-2.1853e-05,-72.267,2.152
24748,21.978,4.2727,0.1,4.6411e-05,463.79,4.474e-05,423.03,-1.1567e-05,-0.034487,-2.126e-05,-72.867,2.1662
24749,21.703,4.1818,0.1,5.1896e-05,518.6,5.0428e-05,481.77,-1.3697e-05,-0.030698,-2.2623e-05,-67.102,2.1236
24750,21.794,4.2727,0.1,4.9962e-05,499.28,4.8465e-05,461.96,-1.3022e-05,-0.030968,-2.2029e-05,-67.707,2.1378
24751,21.519,4.1818,0.1,5.5508e-05,554.7,5.4186e-05,520.93,-1.5149e-05,-0.027928,-2.3433e-05,-62.268,2.0952
24752,21.611,4.2727,0.1,5.3566e-05,535.3,5.2218e-05,501.06,-1.4473e-05,-0.028006,-2.2839e-05,-62.888,2.1094
24753,21.335,4.1818,0.1,5.9167e-05,591.26,5.7972e-05,560.26,-1.6597e-05,-0.025556,-2.4278e-05,-57.736,2.0669
24754,21.427,4.2727,0.1,5.7218e-05,571.79,5.6001e-05,540.35,-1.5919e-05,-0.025491,-2.3685e-05,-58.378,2.081
24755,21.151,4.1818,0.1,6.2867e-05,628.24,6.1786e-05,599.78,-1.8043e-05,-0.023505,-2.5157e-05,-53.474,2.0386
24756,21.243,4.2727,0.1,6.0913e-05,608.71,5.981e-05,579.82,-1.7361e-05,-0.02333,-2.4565e-05,-54.145,2.0527
24757,20.967,4.1818,0.1,6.6607e-05,665.61,6.5627e-05,639.49,-1.9487e-05,-0.021721,-2.6066e-05,-49.457,2.0104
24758,21.059,4.2727,0.1,6.4647e-05,646.03,6.3647e-05,619.47,-1.8802e-05,-0.02146,-2.5476e-05,-50.161,2.0244
24759,20.784,4.1818,0.1,7.0383e-05,703.34,6.9494e-05,679.39,-2.093e-05,-0.020155,-2.7004e-05,-45.657,1.9822
24760,20.875,4.2727,0.1,6.8418e-05,683.71,6.751e-05,659.32,-2.0242e-05,-0.019834,-2.6415e-05,-46.4,1.9962
24761,20.6,4.1818,0.1,7.4192e-05,741.41,7.3387e-05,719.48,-2.2373e-05,-0.018759,-2.7967e-05,-42.052,1.954
24762,20.692,4.2727,0.1,7.2223e-05,721.74,7.1399e-05,699.35,-2.1682e-05,-0.018399,-2.7381e-05,-42.837,1.968
24763,20.416,4.1818,0.1,7.8034e-05,779.8,7.7305e-05,759.77,-2.3816e-05,-0.017502,-2.8953e-05,-38.618,1.9259
24764,20.508,4.2727,0.1,7.6061e-05,760.08,7.5312e-05,739.58,-2.3122e-05,-0.017109,-2.837e-05,-39.449,1.9399
24765,20.232,4.1818,0.1,8.1905e-05,818.49,8.1247e-05,800.24,-2.5261e-05,-0.016368,-2.9962e-05,-35.334,1.8979
24766,20.324,4.2727,0.1,7.9928e-05,798.73,7.925e-05,780,-2.4563e-05,-0.015952,-2.9381e-05,-36.214,1.9118
24767,20.048,4.1818,0.1,8.5806e-05,857.46,8.5213e-05,840.91,-2.6708e-05,-0.01534,-3.0989e-05,-32.18,1.8699
24768,20.14,4.2727,0.1,8.3824e-05,837.66,8.3212e-05,820.61,-2.6007e-05,-0.014907,-3.0412e-05,-33.114,1.8838
24769,19.865,4.1818,0.1,8.9733e-05,896.71,8.9201e-05,881.78,-2.8158e-05,-0.014407,-3.2034e-05,-29.137,1.8419
24770,19.956,4.2727,0.1,8.7748e-05,876.87,8.7196e-05,861.41,-2.7453e-05,-0.013957,-3.1461e-05,-30.129,1.8558
24771,19.681,4.1818,0.1,9.3686e-05,936.21,9.3213e-05,922.84,-2.9611e-05,-0.01355,-3.3095e-05,-26.186,1.814
24772,19.773,4.2727,0.1,9.1697e-05,916.34,9.1203e-05,902.41,-2.8902e-05,-0.013097,-3.2525e-05,-27.24,1.8279
24773,19.497,4.1818,0.1,9.7664e-05,975.96,9.7246e-05,964.09,-3.1069e-05,-0.012736,-3.4169e-05,-23.309,1.7862
24774,19.589,4.2727,0.1,9.5671e-05,956.05,9.5232e-05,943.59,-3.0355e-05,-0.012295,-3.3604e-05,-24.43,1.8
24775,19.313,4.1818,0.1,0.00010166,1015.9,0.0001013,1005.5,-3.253e-05,-0.011952,-3.5256e-05,-20.489,1.7584
24776,19.405,4.2727,0.1,9.9669e-05,996,9.9282e-05,984.98,-3.1812e-05,-0.011517,-3.4696e-05,-21.683,1.7722
24777,19.129,4.1818,0.1,0.00010569,1056.2,0.00010538,1047.2,-3.3997e-05,-0.011188,-3.6353e-05,-17.709,1.7308
24778,19.221,4.2727,0.1,0.00010369,1036.2,0.00010335,1026.6,-3.3274e-05,-0.010766,-3.5799e-05,-18.982,1.7445
24779,18.946,4.1818,0.1,0.00010973,1096.6,0.00010947,1089,-3.547e-05,-0.010419,-3.7458e-05,-14.953,1.7031
24780,19.038,4.2727,0.1,0.00010773,1076.6,0.00010744,1068.3,-3.4741e-05,-0.01002,-3.6911e-05,-16.311,1.7169
24781,18.762,4.1818,0.1,0.0001138,1137.2,0.00011359,1131.1,-3.6949e-05,-0.0096096,-3.8571e-05,-12.203,1.6756
24782,18.854,4.2727,0.1,0.00011179,1117.2,0.00011156,1110.3,-3.6215e-05,-0.0092477,-3.8031e-05,-13.654,1.6893
24783,18.578,4.1818,0.1,0.00011788,1178,0.00011772,1173.3,-3.8434e-05,-0.0086625,-3.969e-05,-9.4437,1.6481
24784,18.67,4.2727,0.1,0.00011588,1158,0.00011569,1152.4,-3.7694e-05,-0.0083994,-3.9157e-05,-10.997,1.6618
24785,18.394,4.1818,0.1,0.00012199,1219,0.00012187,1215.7,-3.9927e-05,-0.007309,-4.0812e-05,-6.6593,1.6207
24786,18.486,4.2727,0.1,0.00011998,1199,0.00011984,1194.8,-3.9181e-05,-0.0073142,-4.0288e-05,-8.323,1.6343
24787,18.21,4.1818,0.1,0.00012611,1260.2,0.00012604,1258.3,-4.1427e-05,-0.0045679,-4.1936e-05,-3.8342,1.5934
24788,18.302,4.2727,0.1,0.0001241,1240.1,0.000124,1237.3,-4.0675e-05,-0.0055547,-4.1422e-05,-5.6179,1.607
24789,18.027,4.1818,0.1,0.00013025,1301.6,0.00013023,1301.1,-4.2933e-05,0.012404,-4.3063e-05,-0.96487,1.5662
24790,18.119,4.2727,0.1,0.00012824,1281.5,0.00012819,1280.1,-4.2176e-05,-0.0011186,-4.2558e-05,-2.8684,1.5797
24791,17.843,4.1818,0.1,0.0001344,1343.1,0.00013444,1344.1,-4.4183e-05,2.0285,-4.4456e-05,-0.019816,1.5391
24792,17.935,4.2727,0.1,0.00013239,1323,0.00013239,1323,-4.367e-05,0.12901,-4.3711e-05,-0.18216,1.5526
24793,17.659,4.1818,0.1,0.00013858,1384.8,0.00013866,1387.3,-4.5305e-05,5.0746,-4.5982e-05,-0.013334,1.5121
24794,17.751,4.2727,0.1,0.00013656,1364.7,0.00013661,1366.1,-4.4826e-05,2.8582,-4.5209e-05,-0.017267,1.5255
24795,17.475,4.1818,0.1,0.00014276,1426.6,0.0001429,1430.7,-4.6422e-05,8.2338,-4.7519e-05,-0.011526,1.4851
24796,17.567,4.2727,0.1,0.00014075,1406.5,0.00014085,1409.4,-4.5958e-05,5.841,-4.6738e-05,-0.012826,1.4985
24797,17.291,4.1818,0.1,0.00014696,1468.6,0.00014715,1474.3,-4.7533e-05,11.519,-4.9067e-05,-0.010607,1.4583
24798,17.383,4.2727,0.1,0.00014495,1448.5,0.0001451,1452.9,-4.7086e-05,8.9352,-4.8277e-05,-0.01126,1.4716
24799,17.108,4.1818,0.1,0.00015117,1510.7,0.00015142,1518.1,-4.8636e-05,14.948,-5.0627e-05,-0.010032,1.4315
24800,17.2,4.2727,0.1,0.00014917,1490.6,0.00014937,1496.7,-4.8208e-05,12.154,-4.9827e-05,-0.010417,1.4448
24801,16.924,4.1818,0.1,0.0001554,1552.9,0.00015571,1562.1,-4.973e-05,18.537,-5.2199e-05,-0.0096616,1.4049
24802,17.016,4.2727,0.1,0.0001534,1532.9,0.00015365,1540.6,-4.9322e-05,15.513,-5.1388e-05,-0.0099122,1.4181
24803,16.74,4.1818,0.1,0.00015964,1595.3,0.00016001,1606.3,-5.0814e-05,22.303,-5.3783e-05,-0.0094427,1.3783
24804,16.832,4.2727,0.1,0.00015764,1575.3,0.00015795,1584.7,-5.0428e-05,19.027,-5.2961e-05,-0.009616,1.3915
24805,16.556,4.1818,0.1,0.0001639,1637.8,0.00016433,1650.8,-5.1885e-05,26.265,-5.5382e-05,-0.0093713,1.3519
24806,16.648,4.2727,0.1,0.00016189,1617.8,0.00016227,1629.1,-5.1523e-05,22.71,-5.4547e-05,-0.0094832,1.365
24807,16.372,4.1818,0.1,0.00016816,1680.5,0.00016866,1695.5,-5.2943e-05,30.439,-5.6995e-05,-0.0094446,1.3255
24808,16.464,4.2727,0.1,0.00016616,1660.5,0.0001666,1673.6,-5.2608e-05,26.578,-5.6146e-05,-0.0095246,1.3386
24809,16.189,4.1818,0.1,0.00017244,1723.2,0.00017301,1740.4,-5.3986e-05,34.841,-5.8624e-05,-0.0096447,1.2993
24810,16.281,4.2727,0.1,0.00017045,1703.3,0.00017095,1718.4,-5.368e-05,30.644,-5.776e-05,-0.0097133,1.3123
24811,16.005,4.1818,0.1,0.00017674,1766.2,0.00017738,1785.6,-5.5013e-05,39.49,-6.027e-05,-0.01,1.2732
24812,16.097,4.2727,0.1,0.00017475,1746.3,0.00017532,1763.5,-5.474e-05,34.921,-5.9389e-05,-0.010037,1.2861
24813,15.821,4.1818,0.1,0.00018105,1809.3,0.00018177,1831.1,-5.6024e-05,44.399,-6.1935e-05,-0.01057,1.2473
24814,15.913,4.2727,0.1,0.00017906,1789.4,0.0001797,1808.8,-5.5785e-05,39.42,-6.1033e-05,-0.010565,1.2601
24815,15.637,4.1818,0.1,0.00018539,1852.6,0.00018618,1876.9,-5.7018e-05,49.582,-6.3619e-05,-0.011411,1.2214
24816,15.729,4.2727,0.1,0.00018339,1832.7,0.0001841,1854.3,-5.6817e-05,44.152,-6.2695e-05,-0.01135,1.2342
24817,15.453,4.1818,0.1,0.00018974,1896.1,0.00019062,1923.1,-5.7995e-05,55.052,-6.5324e-05,-0.012608,1.1957
24818,15.545,4.2727,0.1,0.00018774,1876.2,0.00018853,1900.2,-5.7835e-05,49.123,-6.4374e-05,-0.012456,1.2084
24819,15.27,4.1818,0.1,0.00019413,1939.9,0.00019509,1969.6,-5.8956e-05,60.817,-6.7052e-05,-0.01425,1.1701
24820,15.362,4.2727,0.1,0.00019212,1919.9,0.00019299,1946.5,-5.8839e-05,54.338,-6.6073e-05,-0.013995,1.1827
24821,15.086,4.1818,0.1,0.00019855,1984.1,0.0001996,2016.7,-5.9903e-05,66.883,-6.8807e-05,-0.016424,1.1446
24822,15.178,4.2727,0.1,0.00019652,1963.8,0.00019747,1993.1,-5.9832e-05,59.798,-6.7793e-05,-0.016045,1.1572
24823,14.902,4.1818,0.1,0.00020301,2028.7,0.00020415,2064.3,-6.0837e-05,73.251,-7.0589e-05,-0.019301,1.1193
24824,14.994,4.2727,0.1,0.00020095,2008.2,0.00020199,2040.1,-6.0815e-05,65.498,-6.9534e-05,-0.018719,1.1318
24825,14.718,4.1818,0.1,0.00020752,2073.7,0.00020876,2112.5,-6.1763e-05,79.916,-7.2403e-05,-0.023119,1.0941
24826,14.81,4.2727,0.1,0.00020543,2052.9,0.00020655,2087.6,-6.1791e-05,71.428,-7.13e-05,-0.022261,1.1065
24827,14.534,4.1818,0.1,0.00021209,2119.5,0.00021344,2161.5,-6.2687e-05,86.866,-7.4251e-05,-0.028171,1.069
24828,14.626,4.2727,0.1,0.00020995,2098,0.00021116,2135.7,-6.2765e-05,77.572,-7.3093e-05,-0.026943,1.0814
24829,14.351,4.1818,0.1,0.00021675,2166,0.0002182,2211.5,-6.3614e-05,94.078,-7.614e-05,-0.034857,1.0441
24830,14.443,4.2727,0.1,0.00021453,2143.8,0.00021583,2184.5,-6.3742e-05,83.902,-7.4913e-05,-0.033122,1.0564
24831,14.167,4.1818,0.1,0.00022151,2213.6,0.00022306,2262.6,-6.4556e-05,101.52,-7.8073e-05,-0.043675,1.0194
24832,14.259,4.2727,0.1,0.00021919,2190.4,0.00022058,2234.1,-6.4731e-05,90.381,-7.6766e-05,-0.041308,1.0316
24833,13.983,4.1818,0.1,0.0002264,2262.4,0.00022806,2315,-6.5525e-05,109.13,-8.0057e-05,-0.055272,0.99475
24834,14.075,4.2727,0.1,0.00022393,2237.8,0.00022542,2284.7,-6.5742e-05,96.956,-7.8653e-05,-0.052096,1.0069
24835,13.799,4.1818,0.1,0.00023145,2312.9,0.00023322,2369.1,-6.654e-05,116.84,-8.21e-05,-0.070522,0.9703
24836,13.891,4.2727,0.1,0.0002288,2286.4,0.00023038,2336.4,-6.6788e-05,103.56,-8.0579e-05,-0.066318,0.98237
24837,13.616,4.1818,0.1,0.00023672,2365.5,0.00023859,2425.3,-6.7624e-05,124.54,-8.4212e-05,-0.090719,0.946
24838,13.707,4.2727,0.1,0.0002338,2336.4,0.00023548,2389.4,-6.7886e-05,110.09,-8.255e-05,-0.085211,0.95799
24839,13.432,4.1818,0.1,0.00024224,2420.7,0.00024422,2484,-6.8808e-05,132.08,-8.6403e-05,-0.11754,0.92186
24840,13.524,4.2727,0.1,0.00023898,2388.2,0.00024075,2444.2,-6.906e-05,116.41,-8.4569e-05,-0.11044,0.93377
24841,13.248,4.1818,0.1,0.0002481,2479.3,0.00025018,2545.9,-7.0137e-05,139.22,-8.8686e-05,-0.1534,0.89789
24842,13.34,4.2727,0.1,0.00024439,2442.2,0.00024624,2501,-7.0342e-05,122.35,-8.6644e-05,-0.14436,0.90971
24843,13.064,4.1818,0.1,0.0002544,2542.3,0.00025656,2611.8,-7.167e-05,145.63,-9.1079e-05,-0.20179,0.87408
24844,13.156,4.2727,0.1,0.00025008,2499.1,0.000252,2560.3,-7.1774e-05,127.61,-8.8783e-05,-0.19048,0.88581
24845,12.88,4.1818,0.1,0.00026126,2610.8,0.0002635,2682.8,-7.3495e-05,150.79,-9.3601e-05,-0.26806,0.85045
24846,12.972,4.2727,0.1,0.00025615,2559.7,0.00025813,2622.9,-7.3419e-05,131.79,-9.0994e-05,-0.25414,0.86209
24847,12.697,4.1818,0.1,0.00026888,2686.9,0.00027116,2760.4,-7.5742e-05,153.91,-9.6274e-05,-0.3616,0.827
24848,12.788,4.2727,0.1,0.0002627,2625.2,0.00026472,2689.6,-7.537e-05,134.27,-9.3286e-05,-0.34416,0.83854
24849,12.513,4.1818,0.1,0.00027751,2773.2,0.0002798,2846.6,-7.8604e-05,153.72,-9.9129e-05,-0.49898,0.80372
24850,12.605,4.2727,0.1,0.00026992,2697.4,0.00027194,2761.6,-7.7769e-05,134.03,-9.5671e-05,-0.4775,0.81517
24851,12.329,4.1818,0.1,0.00028756,2873.7,0.00028978,2944.5,-8.2382e-05,148.19,-0.0001022,-0.72025,0.78064
24852,12.421,4.2727,0.1,0.00027807,2778.8,0.00028003,2840.9,-8.0836e-05,129.47,-9.8158e-05,-0.68715,0.79199
24853,12.145,4.1818,0.1,0.00029965,2994.4,0.00030168,3058.6,-8.7554e-05,134.03,-0.00010554,-1.1131,0.75775
24854,12.237,4.2727,0.1,0.00028755,2873.5,0.00028935,2930.1,-8.4922e-05,117.95,-0.00010076,-1.066,0.76899
24855,11.961,4.1818,0.1,0.00031474,3145.2,0.00031637,3195.7,-9.4872e-05,105.85,-0.00010923,-2.0548,0.73506
24856,12.053,4.2727,0.1,0.00029901,2988,0.00030048,3033.5,-9.0585e-05,95.199,-0.00010351,-1.8798,0.74618
24857,11.778,4.1818,0.1,0.00033444,3342.1,0.00033526,3366.9,-0.00010538,56.138,-0.00011362,-5.7736,0.71258
24858,11.869,4.2727,0.1,0.0003135,3132.8,0.00031431,3157.5,-9.8595e-05,55.08,-0.00010658,-4.9145,0.72357
24859,11.594,4.1818,0.1,0.00036157,3613.2,0.00036074,3589.8,-0.00011575,9.6007,-0.00012443,-55.64,0.69031
24860,11.686,4.2727,0.1,0.00033276,3325.3,0.00033229,3312.1,-0.00010698,11.6,-0.0001135,-37.345,0.70116
24861,11.41,4.1818,0.1,0.00040123,4009.5,0.000397,3895,-0.00012062,5.7801,-0.00015131,-224.8,0.66826
24862,11.502,4.2727,0.1,0.00035996,3597.2,0.0003569,3513,-0.00011012,4.0173,-0.00013278,-166.24,0.67896
24863,11.226,4.1818,0.1,0.00046768,4673.6,0.00045455,4344.3,-0.00012356,0.56704,-0.00020362,-600.99,0.64644
24864,11.318,4.2727,0.1,0.0004002,3999.2,0.00039178,3783.3,-0.00011068,8.0075,-0.00016598,-407.51,0.65697
24865,11.042,4.1818,0.1,0.00060725,6068.3,0.00056635,5173.1,-0.00011449,57.54,-0.000326,-1531.6,0.62485
24866,11.134,4.2727,0.1,0.00046978,4694.5,0.00044729,4165,-0.00010751,-3.6058,-0.00022951,-920.28,0.63519
24867,10.95,4.2727,0.1,0.00061998,6195.5,0.00055504,4862.7,-8.4531e-05,57.161,-0.00037558,-2129.7,0.61361
24868,10.859,4.1818,0.1,0.0006132,6127.8,0.00052512,4488.8,-4.0907e-05,235.97,-0.0004097,-2535,0.6035
24869,23.724,4.3636,0.1,1.7945e-05,179.32,1.0598e-05,58.78,2.7481e-06,-0.20121,-1.6205e-05,-142.61,2.4372
24870,23.816,4.4545,0.1,1.6728e-05,167.16,8.7293e-06,39.736,3.419e-06,-0.16331,-1.5693e-05,-143.77,2.4515
24871,23.908,4.3636,0.1,1.6474e-05,164.63,7.2898e-06,22.4,4.252e-06,-0.42494,-1.5981e-05,-152.45,2.4658
24872,23.541,4.3636,0.1,1.9971e-05,199.57,1.4092e-05,97.007,1.1524e-06,-0.21247,-1.646e-05,-132.55,2.4086
24873,23.632,4.4545,0.1,1.8516e-05,185.03,1.2203e-05,77.793,1.8083e-06,-0.30672,-1.5916e-05,-133.48,2.4229
24874,23.357,4.3636,0.1,2.239e-05,223.75,1.7595e-05,135.17,-4.1098e-07,-0.11929,-1.6777e-05,-123.09,2.38
24875,23.449,4.4545,0.1,2.0774e-05,207.59,1.569e-05,115.9,2.4671e-07,-0.12742,-1.6208e-05,-123.76,2.3943
24876,23.173,4.3636,0.1,2.5095e-05,250.78,2.1116e-05,173.26,-1.9572e-06,-0.09751,-1.7155e-05,-114.29,2.3515
24877,23.265,4.4545,0.1,2.3369e-05,233.53,1.9196e-05,153.92,-1.3037e-06,-0.11153,-1.6565e-05,-114.78,2.3657
24878,22.989,4.3636,0.1,2.8013e-05,279.94,2.4657e-05,211.35,-3.4828e-06,-0.075655,-1.7596e-05,-106.12,2.3229
24879,23.081,4.4545,0.1,2.6211e-05,261.93,2.2724e-05,191.93,-2.8307e-06,-0.081318,-1.6988e-05,-106.45,2.3371
24880,22.805,4.3636,0.1,3.1095e-05,310.74,2.8224e-05,249.5,-4.9912e-06,-0.062815,-1.8099e-05,-98.547,2.2943
24881,22.897,4.4545,0.1,2.924e-05,292.2,2.6279e-05,229.99,-4.3396e-06,-0.066981,-1.7477e-05,-98.779,2.3086
24882,22.622,4.3636,0.1,3.4306e-05,342.83,3.1819e-05,287.75,-6.4845e-06,-0.05289,-1.8661e-05,-91.544,2.2658
24883,22.713,4.4545,0.1,3.2415e-05,323.92,2.9865e-05,268.16,-5.8324e-06,-0.055314,-1.8031e-05,-91.712,2.28
24884,22.438,4.3636,0.1,3.7622e-05,375.96,3.5446e-05,326.13,-7.9651e-06,-0.045501,-1.9281e-05,-85.067,2.2373
24885,22.53,4.4545,0.1,3.5705e-05,356.8,3.3484e-05,306.47,-7.3116e-06,-0.04702,-1.8645e-05,-85.203,2.2515
24886,22.254,4.3636,0.1,4.1025e-05,409.97,3.9104e-05,364.66,-9.435e-06,-0.039675,-1.9953e-05,-79.069,2.2088
24887,22.346,4.4545,0.1,3.909e-05,390.63,3.7135e-05,344.94,-8.7796e-06,-0.040524,-1.9315e-05,-79.201,2.223
24888,22.07,4.3636,0.1,4.4501e-05,444.71,4.2792e-05,403.36,-1.0896e-05,-0.035012,-2.0675e-05,-73.508,2.1803
24889,22.162,4.4545,0.1,4.2553e-05,425.24,4.0819e-05,383.59,-1.0238e-05,-0.035407,-2.0037e-05,-73.655,2.1945
24890,21.886,4.3636,0.1,4.8041e-05,480.08,4.6511e-05,442.23,-1.235e-05,-0.031199,-2.1441e-05,-68.341,2.1519
24891,21.978,4.4545,0.1,4.6084e-05,460.52,4.4534e-05,422.41,-1.169e-05,-0.031272,-2.0805e-05,-68.518,2.1661
24892,21.703,4.3636,0.1,5.1636e-05,516,5.026e-05,481.28,-1.3798e-05,-0.028027,-2.225e-05,-63.528,2.1235
24893,21.794,4.4545,0.1,4.9672e-05,496.38,4.828e-05,461.42,-1.3135e-05,-0.027873,-2.1615e-05,-63.746,2.1376
24894,21.519,4.3636,0.1,5.528e-05,552.42,5.4038e-05,520.52,-1.5242e-05,-0.025351,-2.3096e-05,-59.033,2.0951
24895,21.611,4.4545,0.1,5.3312e-05,532.75,5.2055e-05,500.61,-1.4576e-05,-0.02503,-2.2465e-05,-59.3,2.1093
24896,21.335,4.3636,0.1,5.8968e-05,589.28,5.7844e-05,559.94,-1.6683e-05,-0.023072,-2.3976e-05,-54.824,2.0668
24897,21.427,4.4545,0.1,5.6997e-05,569.57,5.5858e-05,539.99,-1.6013e-05,-0.022632,-2.3349e-05,-55.145,2.0809
24898,21.151,4.3636,0.1,6.2697e-05,626.54,6.1676e-05,599.54,-1.8121e-05,-0.021113,-2.4888e-05,-50.869,2.0385
24899,21.243,4.4545,0.1,6.0723e-05,606.81,5.9688e-05,579.55,-1.7448e-05,-0.020584,-2.4266e-05,-51.248,2.0526
24900,20.967,4.3636,0.1,6.6463e-05,664.17,6.5535e-05,639.34,-1.9558e-05,-0.019419,-2.5829e-05,-47.141,2.0103
24901,21.059,4.4545,0.1,6.4486e-05,644.41,6.3544e-05,619.3,-1.8881e-05,-0.018823,-2.5212e-05,-47.582,2.0243
24902,20.784,4.3636,0.1,7.0264e-05,702.15,6.942e-05,679.32,-2.0994e-05,-0.017937,-2.6797e-05,-43.616,1.982
24903,20.875,4.4545,0.1,6.8284e-05,682.37,6.7426e-05,659.23,-2.0314e-05,-0.017302,-2.6184e-05,-44.12,1.9961
24904,20.6,4.3636,0.1,7.4097e-05,740.45,7.3329e-05,719.49,-2.2431e-05,-0.016622,-2.7789e-05,-40.27,1.9539
24905,20.692,4.4545,0.1,7.2115e-05,720.65,7.1333e-05,699.35,-2.1748e-05,-0.015967,-2.7181e-05,-40.839,1.9679
24906,20.416,4.3636,0.1,7.796e-05,779.06,7.7263e-05,759.85,-2.3869e-05,-0.015444,-2.8803e-05,-37.081,1.9258
24907,20.508,4.4545,0.1,7.5975e-05,759.23,7.5263e-05,739.66,-2.3182e-05,-0.014774,-2.82e-05,-37.718,1.9398
24908,20.232,4.3636,0.1,8.1852e-05,817.95,8.122e-05,800.4,-2.5309e-05,-0.014385,-2.9836e-05,-34.03,1.8977
24909,20.324,4.4545,0.1,7.9865e-05,798.1,7.9217e-05,780.16,-2.4617e-05,-0.013707,-2.9239e-05,-34.736,1.9117
24910,20.048,4.3636,0.1,8.5771e-05,857.12,8.52e-05,841.14,-2.6751e-05,-0.013427,-3.0888e-05,-31.098,1.8697
24911,20.14,4.4545,0.1,8.3782e-05,837.24,8.3194e-05,820.84,-2.6055e-05,-0.012749,-3.0296e-05,-31.875,1.8836
24912,19.865,4.3636,0.1,8.9717e-05,896.55,8.9202e-05,882.07,-2.8196e-05,-0.01256,-3.1957e-05,-28.266,1.8418
24913,19.956,4.4545,0.1,8.7725e-05,876.64,8.7193e-05,861.72,-2.7496e-05,-0.011879,-3.137e-05,-29.117,1.8556
24914,19.681,4.3636,0.1,9.3687e-05,936.22,9.3227e-05,923.2,-2.9645e-05,-0.011764,-3.304e-05,-25.518,1.8139
24915,19.773,4.4545,0.1,9.1693e-05,916.29,9.1214e-05,902.78,-2.894e-05,-0.011096,-3.2458e-05,-26.446,1.8277
24916,19.497,4.3636,0.1,9.7681e-05,976.14,9.7272e-05,964.51,-3.1098e-05,-0.011007,-3.4136e-05,-22.838,1.786
24917,19.589,4.4545,0.1,9.5684e-05,956.18,9.5256e-05,944.03,-3.0388e-05,-0.010365,-3.356e-05,-23.846,1.7999
24918,19.313,4.3636,0.1,0.0001017,1016.3,0.00010134,1006,-3.2555e-05,-0.010274,-3.5243e-05,-20.209,1.7583
24919,19.405,4.4545,0.1,9.9699e-05,996.3,9.9319e-05,985.47,-3.1841e-05,-0.0096539,-3.4674e-05,-21.302,1.7721
24920,19.129,4.3636,0.1,0.00010574,1056.6,0.00010543,1047.7,-3.4018e-05,-0.0095553,-3.6361e-05,-17.616,1.7306
24921,19.221,4.4545,0.1,0.00010374,1036.6,0.0001034,1027.1,-3.3298e-05,-0.0089648,-3.5799e-05,-18.799,1.7443
24922,18.946,4.3636,0.1,0.0001098,1097.2,0.00010953,1089.6,-3.5486e-05,-0.0088256,-3.7487e-05,-15.044,1.703
24923,19.038,4.4545,0.1,0.00010779,1077.2,0.00010751,1068.9,-3.4761e-05,-0.008276,-3.6932e-05,-16.323,1.7167
24924,18.762,4.3636,0.1,0.00011388,1138,0.00011366,1131.7,-3.696e-05,-0.0080483,-3.862e-05,-12.478,1.6754
24925,18.854,4.4545,0.1,0.00011187,1117.9,0.00011163,1110.9,-3.623e-05,-0.0075571,-3.8073e-05,-13.86,1.6891
24926,18.578,4.3636,0.1,0.00011798,1179,0.00011781,1174,-3.8441e-05,-0.0071324,-3.9759e-05,-9.9051,1.648
24927,18.67,4.4545,0.1,0.00011597,1158.9,0.00011577,1153.2,-3.7705e-05,-0.0067631,-3.9221e-05,-11.396,1.6616
24928,18.394,4.3636,0.1,0.0001221,1220.1,0.00012197,1216.4,-3.9929e-05,-0.0058457,-4.0901e-05,-7.3094,1.6206
24929,18.486,4.4545,0.1,0.00012009,1200,0.00011993,1195.6,-3.9187e-05,-0.0057551,-4.0373e-05,-8.9174,1.6341
24930,18.21,4.3636,0.1,0.00012623,1261.4,0.00012615,1259.1,-4.1425e-05,-0.0034957,-4.2047e-05,-4.6779,1.5933
24931,18.302,4.4545,0.1,0.00012422,1241.4,0.00012411,1238.1,-4.0676e-05,-0.0041973,-4.1529e-05,-6.412,1.6068
24932,18.027,4.3636,0.1,0.00013039,1303,0.00013035,1302,-4.2928e-05,0.0043658,-4.3195e-05,-2.0008,1.566
24933,18.119,4.4545,0.1,0.00012838,1282.9,0.00012831,1280.9,-4.2172e-05,-0.00097443,-4.2687e-05,-3.8672,1.5795
24934,17.843,4.3636,0.1,0.00013456,1344.6,0.00013457,1345,-4.4335e-05,0.79532,-4.4446e-05,-0.041413,1.5389
24935,17.935,4.4545,0.1,0.00013255,1324.5,0.00013252,1323.9,-4.3676e-05,0.014426,-4.3848e-05,-1.2806,1.5523
24936,17.659,4.3636,0.1,0.00013874,1386.5,0.0001388,1388.2,-4.5483e-05,3.5993,-4.5964e-05,-0.015756,1.5118
24937,17.751,4.4545,0.1,0.00013673,1366.4,0.00013676,1367.1,-4.5001e-05,1.4308,-4.5195e-05,-0.028108,1.5252
24938,17.475,4.3636,0.1,0.00014294,1428.4,0.00014305,1431.7,-4.6626e-05,6.519,-4.7495e-05,-0.012363,1.4849
24939,17.567,4.4545,0.1,0.00014094,1408.4,0.00014101,1410.5,-4.616e-05,4.166,-4.6716e-05,-0.014874,1.4982
24940,17.291,4.3636,0.1,0.00014716,1470.6,0.00014732,1475.3,-4.7764e-05,9.5479,-4.9036e-05,-0.010988,1.458
24941,17.383,4.4545,0.1,0.00014515,1450.5,0.00014527,1454,-4.7314e-05,7.0037,-4.8248e-05,-0.012021,1.4713
24942,17.108,4.3636,0.1,0.00015139,1512.9,0.0001516,1519.2,-4.8896e-05,12.698,-5.0587e-05,-0.010247,1.4313
24943,17.2,4.4545,0.1,0.00014939,1492.8,0.00014955,1497.8,-4.8465e-05,9.9472,-4.979e-05,-0.010768,1.4445
24944,16.924,4.3636,0.1,0.00015564,1555.3,0.0001559,1563.2,-5.0022e-05,15.983,-5.215e-05,-0.0098307,1.4046
24945,17.016,4.4545,0.1,0.00015363,1535.3,0.00015385,1541.7,-4.961e-05,13.007,-5.1343e-05,-0.010113,1.4178
24946,16.74,4.3636,0.1,0.00015989,1597.8,0.00016022,1607.5,-5.114e-05,19.415,-5.3725e-05,-0.0096295,1.3781
24947,16.832,4.4545,0.1,0.0001579,1577.9,0.00015816,1585.9,-5.075e-05,16.194,-5.2906e-05,-0.0097786,1.3912
24948,16.556,4.3636,0.1,0.00016417,1640.5,0.00016455,1651.9,-5.2248e-05,23.006,-5.5312e-05,-0.0096169,1.3516
24949,16.648,4.4545,0.1,0.00016217,1620.6,0.00016249,1630.3,-5.1882e-05,19.517,-5.4481e-05,-0.0096687,1.3647
24950,16.372,4.3636,0.1,0.00016845,1683.4,0.00016889,1696.6,-5.3347e-05,26.767,-5.6911e-05,-0.0097809,1.3253
24951,16.464,4.4545,0.1,0.00016646,1663.5,0.00016684,1674.8,-5.3007e-05,22.986,-5.6068e-05,-0.0097748,1.3383
24952,16.189,4.3636,0.1,0.00017275,1726.4,0.00017326,1741.5,-5.4436e-05,30.707,-5.8524e-05,-0.010101,1.2991
24953,16.281,4.4545,0.1,0.00017076,1706.5,0.0001712,1719.6,-5.4123e-05,26.609,-5.7666e-05,-0.01006,1.312
24954,16.005,4.3636,0.1,0.00017707,1769.5,0.00017764,1786.6,-5.5513e-05,34.836,-6.0151e-05,-0.010607,1.273
24955,16.097,4.4545,0.1,0.00017508,1749.6,0.00017558,1764.6,-5.5231e-05,30.389,-5.9277e-05,-0.010511,1.2859
24956,15.821,4.3636,0.1,0.0001814,1812.8,0.00018204,1832,-5.658e-05,39.159,-6.1793e-05,-0.011361,1.247
24957,15.913,4.4545,0.1,0.00017942,1792.9,0.00017998,1809.8,-5.633e-05,34.332,-6.0901e-05,-0.011196,1.2598
24958,15.637,4.3636,0.1,0.00018575,1856.2,0.00018646,1877.7,-5.7635e-05,43.679,-6.345e-05,-0.012424,1.2211
24959,15.729,4.4545,0.1,0.00018377,1836.4,0.00018439,1855.3,-5.742e-05,38.436,-6.2537e-05,-0.01217,1.2339
24960,15.453,4.3636,0.1,0.00019012,1899.9,0.0001909,1923.6,-5.868e-05,48.396,-6.5123e-05,-0.013889,1.1954
24961,15.545,4.4545,0.1,0.00018813,1880,0.00018882,1901,-5.8503e-05,42.699,-6.4187e-05,-0.013505,1.2081
24962,15.27,4.3636,0.1,0.00019451,1943.8,0.00019537,1969.9,-5.9716e-05,53.307,-6.6813e-05,-0.015859,1.1698
24963,15.362,4.4545,0.1,0.00019252,1923.8,0.00019327,1946.9,-5.9579e-05,47.112,-6.5851e-05,-0.015324,1.1825
24964,15.086,4.3636,0.1,0.00019893,1987.9,0.00019986,2016.5,-6.0745e-05,58.401,-6.852e-05,-0.018437,1.1443
24965,15.178,4.4545,0.1,0.00019692,1967.9,0.00019775,1993.2,-6.0649e-05,51.662,-6.7528e-05,-0.017714,1.1569
24966,14.902,4.3636,0.1,0.00020338,2032.4,0.00020439,2063.5,-6.177e-05,63.663,-7.0246e-05,-0.021817,1.119
24967,14.994,4.4545,0.1,0.00020135,2012.1,0.00020225,2039.7,-6.1718e-05,56.33,-6.9218e-05,-0.020814,1.1315
24968,14.718,4.3636,0.1,0.00020786,2077.2,0.00020895,2110.9,-6.2794e-05,69.072,-7.199e-05,-0.026277,1.0938
24969,14.81,4.4545,0.1,0.0002058,2056.6,0.00020677,2086.5,-6.2787e-05,61.09,-7.0921e-05,-0.024896,1.1062
24970,14.534,4.3636,0.1,0.00021239,2122.5,0.00021356,2158.8,-6.3822e-05,74.595,-7.3755e-05,-0.032164,1.0688
24971,14.626,4.4545,0.1,0.00021029,2101.4,0.00021133,2133.6,-6.3861e-05,65.906,-7.2636e-05,-0.030282,1.0811
24972,14.351,4.3636,0.1,0.00021697,2168.2,0.00021822,2207.2,-6.4861e-05,80.192,-7.554e-05,-0.039955,1.0438
24973,14.443,4.4545,0.1,0.00021481,2146.6,0.00021592,2181.1,-6.4945e-05,70.734,-7.4364e-05,-0.037402,1.0561
24974,14.167,4.3636,0.1,0.00022161,2214.6,0.00022295,2256.2,-6.5919e-05,85.808,-7.7346e-05,-0.050273,1.0191
24975,14.259,4.4545,0.1,0.00021936,2192.1,0.00022055,2228.9,-6.6045e-05,75.517,-7.6102e-05,-0.046875,1.0313
24976,13.983,4.3636,0.1,0.00022633,2261.8,0.00022775,2306,-6.7006e-05,91.373,-7.9176e-05,-0.063938,0.99447
24977,14.075,4.4545,0.1,0.00022397,2238.1,0.00022522,2277.1,-6.717e-05,80.185,-7.785e-05,-0.059478,1.0066
24978,13.799,4.3636,0.1,0.00023114,2309.9,0.00023264,2356.7,-6.8135e-05,96.795,-8.1029e-05,-0.082153,0.97001
24979,13.891,4.4545,0.1,0.00022862,2284.6,0.00022994,2325.7,-6.8329e-05,84.649,-7.9606e-05,-0.076315,0.98205
24980,13.616,4.3636,0.1,0.00023607,2359.1,0.00023764,2408.3,-6.9324e-05,101.95,-8.2907e-05,-0.10663,0.9457
24981,13.707,4.4545,0.1,0.00023334,2331.8,0.00023472,2374.8,-6.9534e-05,88.8,-8.1366e-05,-0.099073,0.95767
24982,13.432,4.3636,0.1,0.00024113,2409.6,0.00024277,2461.1,-7.0593e-05,106.69,-8.4811e-05,-0.13981,0.92156
24983,13.524,4.4545,0.1,0.00023812,2379.6,0.00023956,2424.4,-7.08e-05,92.492,-8.3128e-05,-0.13014,0.93345
24984,13.248,4.3636,0.1,0.00024637,2462,0.00024806,2515.4,-7.1975e-05,110.76,-8.6741e-05,-0.18532,0.89758
24985,13.34,4.4545,0.1,0.00024299,2428.2,0.00024447,2474.5,-7.2149e-05,95.536,-8.4887e-05,-0.17309,0.90938
24986,13.064,4.3636,0.1,0.00025183,2516.5,0.00025356,2571.4,-7.3514e-05,113.84,-8.8698e-05,-0.24884,0.87377
24987,13.156,4.4545,0.1,0.00024796,2477.9,0.00024947,2525.2,-7.3607e-05,97.659,-8.6636e-05,-0.23353,0.88548
24988,12.88,4.3636,0.1,0.00025757,2574,0.00025934,2629.6,-7.5274e-05,115.42,-9.0681e-05,-0.33973,0.85013
24989,12.972,4.4545,0.1,0.00025306,2528.9,0.00025459,2576.5,-7.522e-05,98.465,-8.8368e-05,-0.32067,0.86175
24990,12.697,4.3636,0.1,0.00026372,2635.4,0.00026547,2690.6,-7.7359e-05,114.68,-9.2685e-05,-0.47547,0.82666
24991,12.788,4.4545,0.1,0.00025835,2581.7,0.00025986,2628.8,-7.7054e-05,97.336,-9.0068e-05,-0.4511,0.83819
24992,12.513,4.3636,0.1,0.00027042,2702.3,0.00027211,2755.4,-7.9932e-05,110.3,-9.4704e-05,-0.69175,0.80338
24993,12.605,4.4545,0.1,0.0002639,2637.2,0.00026535,2682.2,-7.9217e-05,93.288,-9.1721e-05,-0.65888,0.81481
24994,12.329,4.3636,0.1,0.00027794,2777.5,0.00027949,2825.6,-8.3255e-05,100.13,-9.6725e-05,-1.0803,0.78027
24995,12.421,4.4545,0.1,0.00026985,2696.7,0.00027117,2737.5,-8.1888e-05,84.721,-9.33e-05,-1.0244,0.7916
24996,12.145,4.3636,0.1,0.00028671,2865.1,0.00028796,2903.6,-8.7748e-05,80.661,-9.874e-05,-1.9297,0.75735
24997,12.237,4.4545,0.1,0.00027646,2762.7,0.00027754,2795.7,-8.5351e-05,69.054,-9.4782e-05,-1.8044,0.76858
24998,11.961,4.3636,0.1,0.00029742,2972.2,0.00029811,2992.9,-9.3964e-05,47.015,-0.00010088,-4.9704,0.73462
24999,12.053,4.4545,0.1,0.00028416,2839.6,0.00028478,2858.6,-8.9978e-05,42.759,-9.6237e-05,-4.2696,0.74574
25000,11.778,4.3636,0.1,0.00031125,3110.4,0.00031085,3099,-0.00010012,11.125,-0.00010604,-33.359,0.71209
25001,11.869,4.4545,0.1,0.00029366,2934.6,0.00029346,2929,-9.4746e-05,12.14,-9.9434e-05,-23.086,0.72308
25002,11.594,4.3636,0.1,0.00033025,3300.2,0.00032769,3229.7,-0.00010158,4.3167,-0.00012086,-140.55,0.68975
25003,11.686,4.4545,0.1,0.0003062,3059.9,0.00030445,3011,-9.5658e-05,4.791,-0.00010958,-99.778,0.70061
25004,11.41,4.3636,0.1,0.00035749,3572.5,0.00035055,3392.8,-0.0001002,6.0315,-0.00014628,-340.24,0.6676
25005,11.502,4.4545,0.1,0.00032388,3236.6,0.00031909,3109.3,-9.4322e-05,3.1157,-0.00012716,-243.6,0.67833
25006,11.226,4.3636,0.1,0.00039921,3989.4,0.00038235,3587.6,-9.4549e-05,4.4214,-0.00018978,-711.08,0.64565
25007,11.318,4.4545,0.1,0.00034979,3495.5,0.00033886,3226.1,-8.9664e-05,6.3645,-0.00015594,-491.61,0.65623
25008,11.042,4.3636,0.1,0.00047109,4707.6,0.00042877,3800.3,-7.7484e-05,-3.5247,-0.00027194,-1464.6,0.62389
25009,11.134,4.4545,0.1,0.00038961,3893.4,0.00036541,3345.4,-7.9726e-05,0.84164,-0.00020343,-928.59,0.6343
25010,10.95,4.4545,0.1,0.00046849,4681.7,0.00041114,3517.4,-5.6129e-05,6.4626,-0.0002963,-1798.1,0.61251
25011,10.859,4.3636,0.1,0.00042517,4248.7,0.000374,3182.4,-5.6566e-05,-52.731,-0.00026639,-1629.2,0.60225
25012,23.724,4.5455,0.1,1.7177e-05,171.65,1.0325e-05,58.683,2.4897e-06,-0.1907,-1.5406e-05,-134.65,2.4371
25013,23.816,4.6364,0.1,1.5884e-05,158.73,8.4441e-06,39.741,3.1354e-06,-0.1462,-1.483e-05,-135.13,2.4514
25014,23.908,4.5455,0.1,1.5673e-05,156.62,7.0253e-06,22.424,3.9848e-06,-0.42091,-1.5173e-05,-144.37,2.4658
25015,23.541,4.5455,0.1,1.9237e-05,192.23,1.3801e-05,96.689,9.0484e-07,-0.2055,-1.5666e-05,-124.71,2.4085
25016,23.632,4.6364,0.1,1.7701e-05,176.89,1.1894e-05,77.535,1.5353e-06,-0.29725,-1.5052e-05,-124.93,2.4228
25017,23.357,4.5455,0.1,2.1698e-05,216.83,1.7292e-05,134.66,-6.4525e-07,-0.11367,-1.5998e-05,-115.47,2.3799
25018,23.449,4.6364,0.1,2.0004e-05,199.9,1.5365e-05,115.41,-1.2158e-08,-0.1205,-1.5356e-05,-115.41,2.3942
25019,23.173,4.5455,0.1,2.445e-05,244.33,2.0807e-05,172.6,-2.1769e-06,-0.092436,-1.64e-05,-106.96,2.3514
25020,23.265,4.6364,0.1,2.265e-05,226.35,1.8863e-05,153.24,-1.5466e-06,-0.10536,-1.5737e-05,-106.73,2.3656
25021,22.989,4.5455,0.1,2.7416e-05,273.97,2.4349e-05,210.59,-3.6873e-06,-0.070964,-1.6873e-05,-99.141,2.3228
25022,23.081,4.6364,0.1,2.5547e-05,255.29,2.239e-05,191.12,-3.0567e-06,-0.075697,-1.6194e-05,-98.786,2.337
25023,22.805,4.5455,0.1,3.0547e-05,305.26,2.7924e-05,248.68,-5.1807e-06,-0.058384,-1.7414e-05,-91.974,2.2942
25024,22.897,4.6364,0.1,2.8631e-05,286.11,2.5953e-05,229.11,-4.5488e-06,-0.061709,-1.6726e-05,-91.554,2.3084
25025,22.622,4.5455,0.1,3.3806e-05,337.83,3.1533e-05,286.92,-6.6594e-06,-0.048664,-1.802e-05,-85.404,2.2657
25026,22.713,4.6364,0.1,3.186e-05,318.38,2.9553e-05,267.27,-6.0252e-06,-0.050315,-1.7327e-05,-84.964,2.2799
25027,22.438,4.5455,0.1,3.717e-05,371.44,3.5177e-05,325.32,-8.1261e-06,-0.041452,-1.8684e-05,-79.373,2.2372
25028,22.53,4.6364,0.1,3.5204e-05,351.8,3.319e-05,305.6,-7.489e-06,-0.042253,-1.7991e-05,-78.95,2.2514
25029,22.254,4.5455,0.1,4.0618e-05,405.9,3.8855e-05,363.91,-9.583e-06,-0.035787,-1.9404e-05,-73.824,2.2087
25030,22.346,4.6364,0.1,3.8641e-05,386.14,3.6863e-05,344.13,-8.9425e-06,-0.035969,-1.8712e-05,-73.443,2.2229
25031,22.07,4.5455,0.1,4.4138e-05,441.07,4.2566e-05,402.68,-1.1032e-05,-0.03128,-2.0172e-05,-68.703,2.1802
25032,22.162,4.6364,0.1,4.2153e-05,421.24,4.0571e-05,382.85,-1.0388e-05,-0.031053,-1.9485e-05,-68.383,2.1944
25033,21.886,4.5455,0.1,4.7719e-05,476.86,4.6307e-05,441.64,-1.2475e-05,-0.027619,-2.0984e-05,-63.963,2.1518
25034,21.978,4.6364,0.1,4.573e-05,456.98,4.4311e-05,421.77,-1.1827e-05,-0.027114,-2.0303e-05,-63.716,2.1659
25035,21.703,4.5455,0.1,5.1353e-05,513.17,5.0079e-05,480.78,-1.3913e-05,-0.024595,-2.1836e-05,-59.558,2.1234
25036,21.794,4.6364,0.1,4.9361e-05,493.27,4.8082e-05,460.88,-1.3261e-05,-0.023903,-2.1162e-05,-59.393,2.1375
25037,21.519,4.5455,0.1,5.5033e-05,549.95,5.388e-05,520.12,-1.5347e-05,-0.022065,-2.2724e-05,-55.452,2.095
25038,21.611,4.6364,0.1,5.3041e-05,530.04,5.1881e-05,500.17,-1.4691e-05,-0.021243,-2.2057e-05,-55.372,2.1091
25039,21.335,4.5455,0.1,5.8756e-05,587.15,5.7707e-05,559.64,-1.6778e-05,-0.019926,-2.3645e-05,-51.61,2.0667
25040,21.427,4.6364,0.1,5.6763e-05,567.24,5.5708e-05,539.66,-1.6118e-05,-0.019018,-2.2986e-05,-51.618,2.0808
25041,21.151,4.5455,0.1,6.2516e-05,624.73,6.1561e-05,599.34,-1.8209e-05,-0.0181,-2.4595e-05,-48.002,2.0384
25042,21.243,4.6364,0.1,6.0523e-05,604.82,5.9561e-05,579.32,-1.7544e-05,-0.017138,-2.3943e-05,-48.098,2.0524
25043,20.967,4.5455,0.1,6.6312e-05,662.66,6.544e-05,639.23,-1.9638e-05,-0.016532,-2.5572e-05,-44.601,2.0101
25044,21.059,4.6364,0.1,6.4319e-05,642.75,6.344e-05,619.17,-1.8969e-05,-0.015534,-2.4928e-05,-44.785,2.0242
25045,20.784,4.5455,0.1,7.014e-05,700.92,6.9344e-05,679.3,-2.1067e-05,-0.015175,-2.6573e-05,-41.383,1.9819
25046,20.875,4.6364,0.1,6.8147e-05,681,6.7342e-05,659.21,-2.0395e-05,-0.014162,-2.5937e-05,-41.655,1.9959
25047,20.6,4.5455,0.1,7.3999e-05,739.48,7.3272e-05,719.56,-2.2498e-05,-0.013977,-2.7597e-05,-38.326,1.9537
25048,20.692,4.6364,0.1,7.2005e-05,719.55,7.1269e-05,699.42,-2.1821e-05,-0.01297,-2.6968e-05,-38.686,1.9677
25049,20.416,4.5455,0.1,7.7886e-05,778.32,7.7223e-05,760.01,-2.3929e-05,-0.012909,-2.8641e-05,-35.411,1.9256
25050,20.508,4.6364,0.1,7.5891e-05,758.39,7.5218e-05,739.82,-2.3248e-05,-0.011911,-2.8019e-05,-35.858,1.9396
25051,20.232,4.5455,0.1,8.18e-05,817.44,8.1196e-05,800.64,-2.5363e-05,-0.011955,-2.9703e-05,-32.618,1.8976
25052,20.324,4.6364,0.1,7.9805e-05,797.5,7.9189e-05,780.4,-2.4677e-05,-0.010971,-2.9088e-05,-33.152,1.9115
25053,20.048,4.5455,0.1,8.5741e-05,856.82,8.5192e-05,841.45,-2.68e-05,-0.011096,-3.0782e-05,-29.93,1.8695
25054,20.14,4.6364,0.1,8.3744e-05,836.87,8.3183e-05,821.17,-2.6109e-05,-0.010133,-3.0174e-05,-30.553,1.8835
25055,19.865,4.5455,0.1,8.9706e-05,896.44,8.921e-05,882.46,-2.824e-05,-0.010323,-3.1876e-05,-27.333,1.8416
25056,19.956,4.6364,0.1,8.7708e-05,876.48,8.7198e-05,862.12,-2.7544e-05,-0.0093777,-3.1276e-05,-28.044,1.8555
25057,19.681,4.5455,0.1,9.3695e-05,936.3,9.3248e-05,923.65,-2.9683e-05,-0.0096159,-3.2984e-05,-24.809,1.8137
25058,19.773,4.6364,0.1,9.1696e-05,916.33,9.1234e-05,903.25,-2.8983e-05,-0.0087029,-3.239e-05,-25.611,1.8275
25059,19.497,4.5455,0.1,9.7707e-05,976.4,9.7308e-05,965.03,-3.1131e-05,-0.008943,-3.4104e-05,-22.345,1.7859
25060,19.589,4.6364,0.1,9.5707e-05,956.41,9.529e-05,944.57,-3.0426e-05,-0.0080756,-3.3518e-05,-23.24,1.7997
25061,19.313,4.5455,0.1,0.00010174,1016.7,0.00010139,1006.6,-3.2584e-05,-0.0082894,-3.5234e-05,-19.926,1.7581
25062,19.405,4.6364,0.1,9.974e-05,996.71,9.9367e-05,986.08,-3.1873e-05,-0.0074635,-3.4656e-05,-20.917,1.7719
25063,19.129,4.5455,0.1,0.0001058,1057.2,0.00010549,1048.4,-3.4041e-05,-0.0076471,-3.6375e-05,-17.539,1.7304
25064,19.221,4.6364,0.1,0.00010379,1037.2,0.00010346,1027.8,-3.3326e-05,-0.0068702,-3.5804e-05,-18.63,1.7441
25065,18.946,4.5455,0.1,0.00010987,1098,0.00010961,1090.3,-3.5505e-05,-0.0069916,-3.7523e-05,-15.17,1.7028
25066,19.038,4.6364,0.1,0.00010787,1077.9,0.00010758,1069.7,-3.4783e-05,-0.0062766,-3.6961e-05,-16.366,1.7165
25067,18.762,4.5455,0.1,0.00011397,1138.9,0.00011375,1132.4,-3.6974e-05,-0.0062908,-3.8678e-05,-12.807,1.6752
25068,18.854,4.6364,0.1,0.00011196,1118.9,0.00011172,1111.7,-3.6247e-05,-0.0056548,-3.8125e-05,-14.113,1.6889
25069,18.578,4.5455,0.1,0.00011808,1180,0.0001179,1174.8,-3.845e-05,-0.0054686,-3.9839e-05,-10.438,1.6477
25070,18.67,4.6364,0.1,0.00011608,1160,0.00011587,1154,-3.7717e-05,-0.0049734,-3.9295e-05,-11.859,1.6614
25071,18.394,4.5455,0.1,0.00012222,1221.3,0.00012208,1217.3,-3.9933e-05,-0.0043416,-4.1004e-05,-8.0486,1.6203
25072,18.486,4.6364,0.1,0.00012021,1201.3,0.00012005,1196.5,-3.9194e-05,-0.0041187,-4.047e-05,-9.593,1.6339
25073,18.21,4.5455,0.1,0.00012637,1262.8,0.00012627,1260,-4.1424e-05,-0.0024689,-4.2172e-05,-5.6284,1.593
25074,18.302,4.6364,0.1,0.00012436,1242.8,0.00012424,1239.1,-4.0678e-05,-0.0028606,-4.1649e-05,-7.3034,1.6066
25075,18.027,4.5455,0.1,0.00013054,1304.5,0.00013049,1302.9,-4.2921e-05,0.0019806,-4.3343e-05,-3.1669,1.5658
25076,18.119,4.6364,0.1,0.00012853,1284.4,0.00012845,1281.9,-4.2169e-05,-0.00062236,-4.2832e-05,-4.9797,1.5793
25077,17.843,4.5455,0.1,0.00013473,1346.3,0.00013472,1346,-4.4423e-05,0.03804,-4.4519e-05,-0.68143,1.5387
25078,17.935,4.6364,0.1,0.00013272,1326.3,0.00013267,1325,-4.3667e-05,0.0054255,-4.4016e-05,-2.6142,1.5521
25079,17.659,4.5455,0.1,0.00013893,1388.3,0.00013896,1389.3,-4.5681e-05,1.9684,-4.5946e-05,-0.023101,1.5116
25080,17.751,4.6364,0.1,0.00013692,1368.3,0.00013692,1368.2,-4.5161e-05,0.10824,-4.5214e-05,-0.28923,1.525
25081,17.475,4.5455,0.1,0.00014315,1430.5,0.00014323,1432.8,-4.6852e-05,4.6264,-4.7469e-05,-0.014141,1.4846
25082,17.567,4.6364,0.1,0.00014114,1410.5,0.00014118,1411.6,-4.6381e-05,2.3339,-4.6694e-05,-0.020874,1.498
25083,17.291,4.5455,0.1,0.00014738,1472.8,0.00014751,1476.5,-4.8019e-05,7.3798,-4.9002e-05,-0.011672,1.4578
25084,17.383,4.6364,0.1,0.00014538,1452.8,0.00014546,1455.2,-4.7565e-05,4.8963,-4.8218e-05,-0.01366,1.4711
25085,17.108,4.5455,0.1,0.00015163,1515.3,0.0001518,1520.4,-4.9182e-05,10.234,-5.0546e-05,-0.010562,1.431
25086,17.2,4.6364,0.1,0.00014963,1495.3,0.00014976,1499,-4.8746e-05,7.5485,-4.9752e-05,-0.011404,1.4443
25087,16.924,4.5455,0.1,0.0001559,1557.9,0.00015612,1564.4,-5.0341e-05,13.196,-5.2099e-05,-0.01001,1.4044
25088,17.016,4.6364,0.1,0.0001539,1537.9,0.00015407,1543,-4.9924e-05,10.294,-5.1296e-05,-0.010394,1.4175
25089,16.74,4.5455,0.1,0.00016017,1600.6,0.00016045,1608.7,-5.1495e-05,16.276,-5.3663e-05,-0.0097795,1.3778
25090,16.832,4.6364,0.1,0.00015818,1580.7,0.0001584,1587.2,-5.1099e-05,13.14,-5.2849e-05,-0.00993,1.3909
25091,16.556,4.5455,0.1,0.00016447,1643.5,0.00016479,1653.2,-5.2643e-05,19.479,-5.5237e-05,-0.0097975,1.3514
25092,16.648,4.6364,0.1,0.00016247,1623.6,0.00016274,1631.6,-5.2269e-05,16.091,-5.4412e-05,-0.0097947,1.3644
25093,16.372,4.5455,0.1,0.00016877,1686.6,0.00016915,1697.9,-5.3785e-05,22.81,-5.6822e-05,-0.010034,1.325
25094,16.464,4.6364,0.1,0.00016678,1666.7,0.0001671,1676.2,-5.3435e-05,19.15,-5.5985e-05,-0.0099352,1.338
25095,16.189,4.5455,0.1,0.0001731,1729.8,0.00017353,1742.7,-5.4921e-05,26.273,-5.8419e-05,-0.010458,1.2988
25096,16.281,4.6364,0.1,0.00017111,1709.9,0.00017148,1720.9,-5.4596e-05,22.319,-5.7568e-05,-0.010294,1.3117
25097,16.005,4.5455,0.1,0.00017743,1773.1,0.00017792,1787.8,-5.605e-05,29.869,-6.0026e-05,-0.011097,1.2727
25098,16.097,4.6364,0.1,0.00017545,1753.2,0.00017587,1765.9,-5.5753e-05,25.597,-5.9161e-05,-0.01085,1.2856
25099,15.821,4.5455,0.1,0.00018178,1816.6,0.00018233,1833.1,-5.7172e-05,33.593,-6.1645e-05,-0.012015,1.2467
25100,15.913,4.6364,0.1,0.0001798,1796.7,0.00018027,1811,-5.6906e-05,28.979,-6.0764e-05,-0.011667,1.2595
25101,15.637,4.5455,0.1,0.00018615,1860.2,0.00018675,1878.6,-5.829e-05,37.441,-6.3275e-05,-0.013275,1.2209
25102,15.729,4.6364,0.1,0.00018416,1840.4,0.00018469,1856.4,-5.8054e-05,32.457,-6.2376e-05,-0.012803,1.2336
25103,15.453,4.5455,0.1,0.00019053,1904,0.0001912,1924.3,-5.9403e-05,41.399,-6.4915e-05,-0.014981,1.1951
25104,15.545,4.6364,0.1,0.00018854,1884.1,0.00018913,1901.9,-5.9201e-05,36.016,-6.3996e-05,-0.014334,1.2078
25105,15.27,4.5455,0.1,0.00019493,1947.9,0.00019566,1970.2,-6.0514e-05,45.453,-6.6565e-05,-0.017243,1.1695
25106,15.362,4.6364,0.1,0.00019294,1928,0.00019358,1947.5,-6.0346e-05,39.639,-6.5624e-05,-0.016388,1.1821
25107,15.086,4.5455,0.1,0.00019934,1992,0.00020014,2016.4,-6.1624e-05,49.578,-6.8225e-05,-0.020185,1.144
25108,15.178,4.6364,0.1,0.00019734,1972.1,0.00019804,1993.4,-6.1493e-05,43.299,-6.7258e-05,-0.019069,1.1566
25109,14.902,4.5455,0.1,0.00020378,2036.4,0.00020464,2062.7,-6.2737e-05,53.743,-6.9893e-05,-0.024028,1.1187
25110,14.994,4.6364,0.1,0.00020176,2016.2,0.00020252,2039.3,-6.2643e-05,46.964,-6.8897e-05,-0.022535,1.1312
25111,14.718,4.5455,0.1,0.00020823,2080.9,0.00020915,2109.2,-6.3856e-05,57.911,-7.1567e-05,-0.029093,1.0935
25112,14.81,4.6364,0.1,0.0002062,2060.5,0.00020701,2085.4,-6.3801e-05,50.592,-7.0538e-05,-0.027096,1.1059
25113,14.534,4.5455,0.1,0.00021271,2125.6,0.00021369,2155.9,-6.4985e-05,62.031,-7.3246e-05,-0.035797,1.0684
25114,14.626,4.6364,0.1,0.00021064,2104.9,0.00021151,2131.5,-6.4969e-05,54.132,-7.2177e-05,-0.033129,1.0808
25115,14.351,4.5455,0.1,0.0002172,2170.5,0.00021825,2202.8,-6.6131e-05,66.045,-7.4927e-05,-0.044725,1.0435
25116,14.443,4.6364,0.1,0.00021509,2149.4,0.00021601,2177.6,-6.6152e-05,57.522,-7.3813e-05,-0.041163,1.0558
25117,14.167,4.5455,0.1,0.00022172,2215.7,0.00022283,2249.8,-6.7299e-05,69.879,-7.6606e-05,-0.056674,1.0188
25118,14.259,4.6364,0.1,0.00021954,2193.9,0.00022051,2223.6,-6.7354e-05,60.689,-7.5439e-05,-0.051969,1.0309
25119,13.983,4.5455,0.1,0.00022626,2261,0.00022742,2296.8,-6.8495e-05,73.447,-7.828e-05,-0.072747,0.99413
25120,14.075,4.6364,0.1,0.00022399,2238.4,0.00022501,2269.5,-6.8583e-05,63.545,-7.7049e-05,-0.066584,1.0062
25121,13.799,4.5455,0.1,0.00023082,2306.6,0.00023202,2343.9,-6.973e-05,76.642,-7.9943e-05,-0.094603,0.96967
25122,13.891,4.6364,0.1,0.00022844,2282.8,0.00022948,2315,-6.9842e-05,65.988,-7.8636e-05,-0.086549,0.9817
25123,13.616,4.5455,0.1,0.00023539,2352.3,0.00023664,2390.9,-7.1012e-05,79.332,-8.1587e-05,-0.12471,0.94536
25124,13.707,4.6364,0.1,0.00023285,2326.9,0.00023393,2360.1,-7.1139e-05,67.896,-8.019e-05,-0.11429,0.95731
25125,13.432,4.5455,0.1,0.00023998,2398.2,0.00024126,2437.7,-7.2355e-05,81.35,-8.3204e-05,-0.16683,0.92121
25126,13.524,4.6364,0.1,0.00023724,2370.7,0.00023833,2404.5,-7.248e-05,69.119,-8.17e-05,-0.1535,0.93308
25127,13.248,4.5455,0.1,0.00024458,2444.2,0.00024588,2484.2,-7.3776e-05,82.468,-8.4782e-05,-0.22686,0.89723
25128,13.34,4.6364,0.1,0.00024156,2414,0.00024267,2447.8,-7.3876e-05,69.469,-8.315e-05,-0.21005,0.90901
25129,13.064,4.5455,0.1,0.0002492,2490.2,0.00025049,2530.2,-7.5303e-05,82.364,-8.6307e-05,-0.31467,0.87341
25130,13.156,4.6364,0.1,0.00024581,2456.4,0.0002469,2489.9,-7.5339e-05,68.694,-8.4521e-05,-0.2939,0.8851
25131,12.88,4.5455,0.1,0.00025382,2536.5,0.00025509,2575.6,-7.6977e-05,80.556,-8.7757e-05,-0.44805,0.84976
25132,12.972,4.6364,0.1,0.00024995,2497.8,0.00025101,2530.2,-7.6891e-05,66.434,-8.5789e-05,-0.42299,0.86136
25133,12.697,4.5455,0.1,0.00025849,2583.1,0.00025969,2620.1,-7.8867e-05,76.282,-8.9108e-05,-0.66331,0.82628
25134,12.788,4.6364,0.1,0.00025398,2538,0.00025496,2568.2,-7.8568e-05,62.15,-8.6924e-05,-0.63348,0.83779
25135,12.513,4.5455,0.1,0.00026326,2630.8,0.00026433,2663.7,-8.1092e-05,68.322,-9.0324e-05,-1.0472,0.80298
25136,12.605,4.6364,0.1,0.00025787,2576.9,0.00025874,2603.4,-8.0435e-05,55.002,-8.789e-05,-1.0111,0.81439
25137,12.329,4.5455,0.1,0.00026824,2680.6,0.0002691,2706.5,-8.3837e-05,54.749,-9.1373e-05,-1.8727,0.77985
25138,12.421,4.6364,0.1,0.00026165,2614.7,0.00026233,2635.3,-8.2592e-05,43.718,-8.8652e-05,-1.8157,0.79117
25139,12.145,4.5455,0.1,0.00027367,2734.8,0.00027414,2749,-8.7308e-05,33.201,-9.2327e-05,-4.5101,0.7569
25140,12.237,4.6364,0.1,0.00026541,2652.3,0.00026579,2663.5,-8.5119e-05,26.939,-8.9274e-05,-4.2732,0.76811
25141,11.961,4.5455,0.1,0.00027997,2797.8,0.00027976,2791.8,-9.0437e-05,10.305,-9.4734e-05,-21.976,0.73413
25142,12.053,4.6364,0.1,0.00026936,2691.8,0.00026921,2687.6,-8.7202e-05,9.6398,-9.0846e-05,-17.734,0.74524
25143,11.778,4.5455,0.1,0.00028788,2876.8,0.00028644,2836.3,-9.0472e-05,4.3652,-0.00010215,-83.392,0.71154
25144,11.869,4.6364,0.1,0.00027391,2737.2,0.00027286,2707.7,-8.694e-05,4.2539,-9.5766e-05,-62.061,0.72254
25145,11.594,4.5455,0.1,0.00029858,2983.7,0.00029482,2883,-8.8432e-05,3.3386,-0.00011482,-194.92,0.68913
25146,11.686,4.6364,0.1,0.00027978,2795.9,0.00027714,2723.7,-8.4952e-05,3.1007,-0.00010424,-141.81,0.70001
25147,11.41,4.5455,0.1,0.00031391,3136.9,0.00030568,2929.8,-8.3802e-05,3.3344,-0.00013508,-381.98,0.6669
25148,11.502,4.6364,0.1,0.00028821,2880.1,0.00028261,2734.8,-8.0989e-05,2.8999,-0.00011778,-273.5,0.67765
25149,11.226,4.5455,0.1,0.0003358,3355.7,0.00031883,2960.7,-7.4842e-05,2.7794,-0.0001665,-685.88,0.64482
25150,11.318,4.6364,0.1,0.00030103,3008.2,0.00028983,2737.1,-7.4017e-05,3.2931,-0.0001391,-485.68,0.65544
25151,11.042,4.5455,0.1,0.0003743,3740.5,0.00033916,2997.7,-5.8328e-05,11.154,-0.00021921,-1197.6,0.62289
25152,11.134,4.6364,0.1,0.00032051,3202.9,0.00029864,2714.8,-6.2466e-05,1.6025,-0.00017159,-818.35,0.63337
25153,10.95,4.6364,0.1,0.00036382,3635.6,0.00031981,2744,-4.3628e-05,13.231,-0.00022942,-1382.8,0.61141
25154,10.859,4.5455,0.1,0.00032997,3297.5,0.00028889,2469,-3.8076e-05,12.312,-0.00020989,-1278.6,0.60104
25155,23.724,4.7273,0.1,1.6286e-05,162.74,1.0005e-05,58.532,2.1911e-06,-0.17715,-1.4478e-05,-125.42,2.437
25156,23.816,4.8182,0.1,1.4907e-05,148.97,8.1099e-06,39.712,2.8081e-06,-0.1242,-1.3828e-05,-125.12,2.4513
25157,23.908,4.7273,0.1,1.4742e-05,147.32,6.7159e-06,22.435,3.6748e-06,-0.4155,-1.4234e-05,-134.97,2.4656
25158,23.541,4.7273,0.1,1.8389e-05,183.76,1.3458e-05,96.262,6.2043e-07,-0.19632,-1.4745e-05,-115.65,2.4084
25159,23.632,4.8182,0.1,1.6762e-05,167.5,1.1531e-05,77.172,1.2221e-06,-0.28453,-1.4051e-05,-115.04,2.4227
25160,23.357,4.7273,0.1,2.0905e-05,208.91,1.6937e-05,134.01,-9.1267e-07,-0.10621,-1.5099e-05,-106.69,2.3798
25161,23.449,4.8182,0.1,1.9123e-05,191.09,1.4983e-05,114.77,-3.0688e-07,-0.11106,-1.4376e-05,-105.82,2.3941
25162,23.173,4.7273,0.1,2.3716e-05,237,2.0449e-05,171.79,-2.426e-06,-0.08566,-1.5535e-05,-98.581,2.3512
25163,23.265,4.8182,0.1,2.1835e-05,218.2,1.8475e-05,152.4,-1.8208e-06,-0.096902,-1.4791e-05,-97.552,2.3655
25164,22.989,4.7273,0.1,2.6744e-05,267.25,2.3997e-05,209.68,-3.9179e-06,-0.06469,-1.6051e-05,-91.231,2.3227
25165,23.081,4.8182,0.1,2.4801e-05,247.84,2.2007e-05,190.16,-3.3101e-06,-0.067989,-1.5296e-05,-90.125,2.3369
25166,22.805,4.7273,0.1,2.9936e-05,299.15,2.7586e-05,247.74,-5.3932e-06,-0.052468,-1.6643e-05,-84.58,2.2941
25167,22.897,4.8182,0.1,2.7956e-05,279.37,2.5584e-05,228.11,-4.7819e-06,-0.054499,-1.5883e-05,-83.466,2.3083
25168,22.622,4.7273,0.1,3.3255e-05,332.32,3.1214e-05,285.99,-6.8547e-06,-0.04305,-1.7303e-05,-78.55,2.2656
25169,22.713,4.8182,0.1,3.1254e-05,312.32,2.9206e-05,266.28,-6.239e-06,-0.043524,-1.6545e-05,-77.478,2.2798
25170,22.438,4.7273,0.1,3.6675e-05,366.5,3.4882e-05,324.45,-8.3053e-06,-0.03611,-1.8024e-05,-73.062,2.2371
25171,22.53,4.8182,0.1,3.4663e-05,346.39,3.2869e-05,304.67,-7.6848e-06,-0.035833,-1.7272e-05,-72.068,2.2513
25172,22.254,4.7273,0.1,4.0178e-05,401.5,3.8585e-05,363.12,-9.7472e-06,-0.030703,-1.88e-05,-68.047,2.2086
25173,22.346,4.8182,0.1,3.816e-05,381.34,3.6571e-05,343.29,-9.1218e-06,-0.029897,-1.8055e-05,-67.153,2.2227
25174,22.07,4.7273,0.1,4.3749e-05,437.19,4.2323e-05,401.99,-1.1182e-05,-0.026443,-1.9622e-05,-63.441,2.1801
25175,22.162,4.8182,0.1,4.1729e-05,417.01,4.0308e-05,382.12,-1.0552e-05,-0.025312,-1.8888e-05,-62.661,2.1943
25176,21.886,4.7273,0.1,4.7377e-05,473.44,4.6091e-05,441.06,-1.2613e-05,-0.02302,-2.0487e-05,-59.192,2.1517
25177,21.978,4.8182,0.1,4.5358e-05,453.27,4.4078e-05,421.15,-1.1977e-05,-0.021684,-1.9764e-05,-58.532,2.1658
25178,21.703,4.7273,0.1,5.1055e-05,510.2,4.989e-05,480.31,-1.4039e-05,-0.020224,-2.139e-05,-55.252,2.1232
25179,21.794,4.8182,0.1,4.9038e-05,490.04,4.7877e-05,460.38,-1.3398e-05,-0.018771,-2.0678e-05,-54.715,2.1374
25180,21.519,4.7273,0.1,5.4776e-05,547.39,5.3716e-05,519.76,-1.5462e-05,-0.01791,-2.2325e-05,-51.583,2.0949
25181,21.611,4.8182,0.1,5.2762e-05,527.26,5.1705e-05,499.8,-1.4817e-05,-0.016389,-2.1625e-05,-51.169,2.109
25182,21.335,4.7273,0.1,5.8536e-05,584.96,5.7568e-05,559.39,-1.6884e-05,-0.015977,-2.329e-05,-48.15,2.0665
25183,21.427,4.8182,0.1,5.6525e-05,564.86,5.5558e-05,539.4,-1.6234e-05,-0.014427,-2.2601e-05,-47.857,2.0806
25184,21.151,4.7273,0.1,6.2332e-05,622.89,6.1446e-05,599.2,-1.8305e-05,-0.014346,-2.4283e-05,-44.925,2.0382
25185,21.243,4.8182,0.1,6.0323e-05,602.81,5.9437e-05,579.18,-1.765e-05,-0.012793,-2.3604e-05,-44.751,2.0523
25186,20.967,4.7273,0.1,6.616e-05,661.14,6.5347e-05,639.2,-1.9726e-05,-0.012962,-2.5299e-05,-41.883,2.01
25187,21.059,4.8182,0.1,6.4153e-05,641.09,6.3339e-05,619.14,-1.9066e-05,-0.01142,-2.4631e-05,-41.823,2.024
25188,20.784,4.7273,0.1,7.0017e-05,699.69,6.9272e-05,679.37,-2.1148e-05,-0.011777,-2.6337e-05,-39.001,1.9817
25189,20.875,4.8182,0.1,6.8012e-05,679.66,6.7264e-05,659.28,-2.0483e-05,-0.010264,-2.5679e-05,-39.053,1.9958
25190,20.6,4.7273,0.1,7.3904e-05,738.53,7.322e-05,719.72,-2.2571e-05,-0.010742,-2.7395e-05,-36.259,1.9536
25191,20.692,4.8182,0.1,7.19e-05,718.5,7.1211e-05,699.6,-2.1901e-05,-0.0092754,-2.6747e-05,-36.42,1.9676
25192,20.416,4.7273,0.1,7.7816e-05,777.63,7.7189e-05,760.26,-2.3996e-05,-0.0098288,-2.8472e-05,-33.64,1.9254
25193,20.508,4.8182,0.1,7.5814e-05,757.62,7.518e-05,740.09,-2.3321e-05,-0.008407,-2.7833e-05,-33.908,1.9394
25194,20.232,4.7273,0.1,8.1755e-05,816.98,8.1181e-05,800.97,-2.5423e-05,-0.0090213,-2.9565e-05,-31.127,1.8974
25195,20.324,4.8182,0.1,7.9753e-05,796.98,7.917e-05,780.76,-2.4743e-05,-0.007648,-2.8935e-05,-31.499,1.9113
25196,20.048,4.7273,0.1,8.5718e-05,856.59,8.5193e-05,841.87,-2.6854e-05,-0.0083011,-3.0673e-05,-28.706,1.8694
25197,20.14,4.8182,0.1,8.3716e-05,836.58,8.3181e-05,821.61,-2.6169e-05,-0.0069799,-3.0052e-05,-29.181,1.8833
25198,19.865,4.7273,0.1,8.9704e-05,896.42,8.9227e-05,882.95,-2.8288e-05,-0.0076591,-3.1795e-05,-26.361,1.8414
25199,19.956,4.8182,0.1,8.7702e-05,876.42,8.7213e-05,862.63,-2.7598e-05,-0.0063855,-3.1182e-05,-26.939,1.8553
25200,19.681,4.7273,0.1,9.3713e-05,936.49,9.328e-05,924.21,-2.9726e-05,-0.0070784,-3.2929e-05,-24.079,1.8135
25201,19.773,4.8182,0.1,9.1711e-05,916.48,9.1264e-05,903.84,-2.903e-05,-0.005866,-3.2325e-05,-24.76,1.8273
25202,19.497,4.7273,0.1,9.7744e-05,976.77,9.7354e-05,965.66,-3.1168e-05,-0.0065269,-3.4075e-05,-21.848,1.7857
25203,19.589,4.8182,0.1,9.5741e-05,956.75,9.5336e-05,945.23,-3.0467e-05,-0.0053874,-3.3479e-05,-22.634,1.7995
25204,19.313,4.7273,0.1,0.0001018,1017.3,0.00010145,1007.3,-3.2615e-05,-0.0059916,-3.523e-05,-19.656,1.7579
25205,19.405,4.8182,0.1,9.9793e-05,997.24,9.9428e-05,986.81,-3.1909e-05,-0.0049202,-3.4643e-05,-20.547,1.7717
25206,19.129,4.7273,0.1,0.00010587,1058,0.00010556,1049.1,-3.4068e-05,-0.0054662,-3.6395e-05,-17.491,1.7302
25207,19.221,4.8182,0.1,0.00010387,1037.9,0.00010354,1028.6,-3.3356e-05,-0.0044698,-3.5816e-05,-18.491,1.7439
25208,18.946,4.7273,0.1,0.00010996,1098.9,0.00010969,1091.1,-3.5526e-05,-0.0049303,-3.7567e-05,-15.342,1.7026
25209,19.038,4.8182,0.1,0.00010796,1078.8,0.00010767,1070.5,-3.4809e-05,-0.0040225,-3.6998e-05,-16.453,1.7162
25210,18.762,4.7273,0.1,0.00011408,1140,0.00011385,1133.3,-3.699e-05,-0.0043613,-3.8746e-05,-13.196,1.675
25211,18.854,4.8182,0.1,0.00011207,1119.9,0.00011182,1112.6,-3.6267e-05,-0.0035555,-3.8186e-05,-14.424,1.6886
25212,18.578,4.7273,0.1,0.00011821,1181.3,0.00011802,1175.7,-3.8461e-05,-0.0037008,-3.993e-05,-11.045,1.6475
25213,18.67,4.8182,0.1,0.0001162,1161.2,0.00011599,1155,-3.7731e-05,-0.0030523,-3.9381e-05,-12.394,1.6611
25214,18.394,4.7273,0.1,0.00012236,1222.8,0.00012221,1218.3,-3.9938e-05,-0.0028182,-4.112e-05,-8.8774,1.6201
25215,18.486,4.8182,0.1,0.00012035,1202.7,0.00012017,1197.5,-3.9203e-05,-0.0024278,-4.058e-05,-10.353,1.6337
25216,18.21,4.7273,0.1,0.00012653,1264.4,0.00012641,1261.1,-4.1423e-05,-0.0014624,-4.2312e-05,-6.683,1.5928
25217,18.302,4.8182,0.1,0.00012452,1244.4,0.00012438,1240.2,-4.0681e-05,-0.0015414,-4.1784e-05,-8.2918,1.6063
25218,18.027,4.7273,0.1,0.00013072,1306.2,0.00013064,1304,-4.2915e-05,0.0011257,-4.3508e-05,-4.4531,1.5655
25219,18.119,4.8182,0.1,0.00012871,1286.2,0.0001286,1283.1,-4.2166e-05,-0.00012667,-4.2991e-05,-6.2021,1.579
25220,17.843,4.7273,0.1,0.00013492,1348.3,0.00013488,1347.2,-4.4414e-05,0.0090011,-4.4706e-05,-2.1821,1.5384
25221,17.935,4.8182,0.1,0.00013291,1328.2,0.00013284,1326.2,-4.3659e-05,0.0027212,-4.4202e-05,-4.0761,1.5518
25222,17.659,4.7273,0.1,0.00013914,1390.4,0.00013914,1390.5,-4.5886e-05,0.28281,-4.594e-05,-0.12188,1.5113
25223,17.751,4.8182,0.1,0.00013713,1370.4,0.0001371,1369.4,-4.5158e-05,0.012119,-4.5414e-05,-1.9107,1.5247
25224,17.475,4.7273,0.1,0.00014338,1432.8,0.00014342,1434.1,-4.7098e-05,2.578,-4.7443e-05,-0.019379,1.4844
25225,17.567,4.8182,0.1,0.00014137,1412.7,0.00014138,1412.9,-4.6614e-05,0.41575,-4.668e-05,-0.086012,1.4977
25226,17.291,4.7273,0.1,0.00014763,1475.3,0.00014771,1477.8,-4.8296e-05,5.0409,-4.8968e-05,-0.01319,1.4575
25227,17.383,4.8182,0.1,0.00014563,1455.3,0.00014567,1456.6,-4.7835e-05,2.637,-4.8189e-05,-0.018721,1.4708
25228,17.108,4.7273,0.1,0.0001519,1517.9,0.00015202,1521.7,-4.9491e-05,7.586,-5.0502e-05,-0.011137,1.4307
25229,17.2,4.8182,0.1,0.0001499,1497.9,0.00014998,1500.4,-4.9048e-05,4.9859,-4.9714e-05,-0.01289,1.444
25230,16.924,4.7273,0.1,0.00015618,1560.7,0.00015635,1565.8,-5.0685e-05,10.216,-5.2046e-05,-0.010245,1.4041
25231,17.016,4.8182,0.1,0.00015418,1540.8,0.00015431,1544.4,-5.026e-05,7.4095,-5.1248e-05,-0.010936,1.4172
25232,16.74,4.7273,0.1,0.00016048,1603.7,0.0001607,1610.1,-5.1876e-05,12.934,-5.3599e-05,-0.0098921,1.3775
25233,16.832,4.8182,0.1,0.00015848,1583.7,0.00015865,1588.7,-5.147e-05,9.9081,-5.2791e-05,-0.010131,1.3906
25234,16.556,4.7273,0.1,0.00016479,1646.8,0.00016505,1654.6,-5.3064e-05,15.742,-5.516e-05,-0.009891,1.3511
25235,16.648,4.8182,0.1,0.0001628,1626.9,0.00016301,1633.1,-5.2679e-05,12.483,-5.4342e-05,-0.0098755,1.3641
25236,16.372,4.7273,0.1,0.00016912,1690,0.00016943,1699.3,-5.4249e-05,18.64,-5.6731e-05,-0.010165,1.3247
25237,16.464,4.8182,0.1,0.00016713,1670.2,0.00016738,1677.7,-5.3886e-05,15.132,-5.5902e-05,-0.0099971,1.3377
25238,16.189,4.7273,0.1,0.00017346,1733.4,0.00017382,1744.1,-5.5431e-05,21.625,-5.8311e-05,-0.010665,1.2985
25239,16.281,4.8182,0.1,0.00017147,1713.6,0.00017177,1722.4,-5.5092e-05,17.852,-5.747e-05,-0.010394,1.3114
25240,16.005,4.7273,0.1,0.00017782,1776.9,0.00017822,1789.1,-5.6611e-05,24.69,-5.9899e-05,-0.011411,1.2724
25241,16.097,4.8182,0.1,0.00017583,1757.1,0.00017617,1767.3,-5.6297e-05,20.636,-5.9045e-05,-0.011025,1.2852
25242,15.821,4.7273,0.1,0.00018218,1820.6,0.00018264,1834.3,-5.779e-05,27.826,-6.1495e-05,-0.01246,1.2464
25243,15.913,4.8182,0.1,0.0001802,1800.8,0.00018059,1812.4,-5.7501e-05,23.472,-6.0627e-05,-0.011944,1.2592
25244,15.637,4.7273,0.1,0.00018656,1864.4,0.00018707,1879.7,-5.8967e-05,31.016,-6.3097e-05,-0.013882,1.2205
25245,15.729,4.8182,0.1,0.00018458,1844.6,0.00018502,1857.6,-5.8706e-05,26.345,-6.2214e-05,-0.013204,1.2333
25246,15.453,4.7273,0.1,0.00019096,1908.2,0.00019152,1925.1,-6.0146e-05,34.24,-6.4705e-05,-0.015779,1.1948
25247,15.545,4.8182,0.1,0.00018898,1888.5,0.00018946,1902.9,-5.9913e-05,29.234,-6.3806e-05,-0.014883,1.2074
25248,15.27,4.7273,0.1,0.00019536,1952.2,0.00019597,1970.7,-6.1328e-05,37.469,-6.6317e-05,-0.018275,1.1692
25249,15.362,4.8182,0.1,0.00019338,1932.4,0.0001939,1948.3,-6.1124e-05,32.109,-6.54e-05,-0.017112,1.1818
25250,15.086,4.7273,0.1,0.00019977,1996.3,0.00020043,2016.3,-6.2514e-05,40.67,-6.793e-05,-0.021512,1.1437
25251,15.178,4.8182,0.1,0.00019778,1976.5,0.00019835,1993.7,-6.2341e-05,34.935,-6.6993e-05,-0.020008,1.1562
25252,14.902,4.7273,0.1,0.00020419,2040.5,0.0002049,2062,-6.3709e-05,43.797,-6.9542e-05,-0.02574,1.1183
25253,14.994,4.8182,0.1,0.00020219,2020.5,0.0002028,2039.1,-6.3566e-05,37.668,-6.8582e-05,-0.02375,1.1308
25254,14.718,4.7273,0.1,0.00020861,2084.6,0.00020936,2107.6,-6.4916e-05,46.797,-7.1148e-05,-0.031331,1.0931
25255,14.81,4.8182,0.1,0.0002066,2064.5,0.00020725,2084.4,-6.4802e-05,40.255,-7.0163e-05,-0.028685,1.1055
25256,14.534,4.7273,0.1,0.00021302,2128.8,0.00021382,2153.1,-6.6137e-05,49.606,-7.2744e-05,-0.038788,1.0681
25257,14.626,4.8182,0.1,0.00021099,2108.5,0.00021168,2129.4,-6.6053e-05,42.63,-7.1731e-05,-0.035263,1.0804
25258,14.351,4.7273,0.1,0.00021743,2172.8,0.00021827,2198.4,-6.7377e-05,52.149,-7.4324e-05,-0.048846,1.0432
25259,14.443,4.8182,0.1,0.00021537,2152.2,0.00021609,2174.2,-6.7322e-05,44.719,-7.3279e-05,-0.044132,1.0554
25260,14.167,4.7273,0.1,0.00022182,2216.7,0.00022269,2243.3,-6.8641e-05,54.337,-7.5881e-05,-0.062556,1.0184
25261,14.259,4.8182,0.1,0.00021972,2195.6,0.00022047,2218.5,-6.8611e-05,46.433,-7.4799e-05,-0.056289,1.0305
25262,13.983,4.7273,0.1,0.00022617,2260.2,0.00022708,2287.7,-6.9931e-05,56.07,-7.7405e-05,-0.081461,0.99376
25263,14.075,4.8182,0.1,0.00022401,2238.6,0.00022478,2262,-6.9924e-05,47.674,-7.6279e-05,-0.07317,1.0058
25264,13.799,4.7273,0.1,0.00023048,2303.2,0.0002314,2331.2,-7.1253e-05,57.229,-7.8884e-05,-0.108,0.96929
25265,13.891,4.8182,0.1,0.00022824,2280.8,0.00022902,2304.5,-7.1263e-05,48.327,-7.7707e-05,-0.097055,0.9813
25266,13.616,4.7273,0.1,0.0002347,2345.4,0.00023563,2373.6,-7.2608e-05,57.676,-8.0303e-05,-0.14606,0.94497
25267,13.707,4.8182,0.1,0.00023236,2322,0.00023314,2345.7,-7.2627e-05,48.264,-7.9068e-05,-0.13176,0.9569
25268,13.432,4.7273,0.1,0.00023882,2386.6,0.00023974,2414.6,-7.4e-05,57.248,-8.1646e-05,-0.20199,0.92082
25269,13.524,4.8182,0.1,0.00023634,2361.8,0.00023711,2385,-7.4016e-05,47.337,-8.0341e-05,-0.18366,0.93266
25270,13.248,4.7273,0.1,0.00024279,2426.2,0.00024368,2453.5,-7.5433e-05,55.735,-8.2889e-05,-0.28677,0.89683
25271,13.34,4.8182,0.1,0.00024013,2399.7,0.00024087,2421.9,-7.5429e-05,45.375,-8.1503e-05,-0.26412,0.90859
25272,13.064,4.7273,0.1,0.00024656,2463.9,0.00024741,2489.7,-7.6914e-05,52.861,-8.4005e-05,-0.42082,0.873
25273,13.156,4.8182,0.1,0.00024367,2435,0.00024435,2455.6,-7.6859e-05,42.167,-8.2524e-05,-0.39505,0.88467
25274,12.88,4.7273,0.1,0.00025009,2499.2,0.00025086,2522.6,-7.8456e-05,48.233,-8.4961e-05,-0.64647,0.84934
25275,12.972,4.8182,0.1,0.00024688,2467.1,0.00024749,2485.3,-7.8304e-05,37.446,-8.3371e-05,-0.62344,0.86092
25276,12.697,4.7273,0.1,0.00025331,2531.4,0.00025397,2551.2,-8.0082e-05,41.278,-8.5718e-05,-1.0673,0.82585
25277,12.788,4.8182,0.1,0.00024968,2495.1,0.00025017,2509.8,-7.9756e-05,30.87,-8.4007e-05,-1.0689,0.83734
25278,12.513,4.7273,0.1,0.00025618,2560,0.00025666,2574.5,-8.1825e-05,31.223,-8.6249e-05,-2.0128,0.80252
25279,12.605,4.8182,0.1,0.00025196,2517.9,0.0002523,2527.8,-8.1192e-05,22.112,-8.4418e-05,-2.1291,0.81392
25280,12.329,4.7273,0.1,0.00025867,2585,0.00025888,2591.3,-8.3618e-05,17.836,-8.6669e-05,-5.0909,0.77937
25281,12.421,4.8182,0.1,0.00025365,2534.7,0.00025375,2537.8,-8.2426e-05,11.892,-8.4769e-05,-5.7109,0.79068
25282,12.145,4.7273,0.1,0.00026083,2606.5,0.00026062,2600.3,-8.4539e-05,6.9492,-8.8023e-05,-19.233,0.75639
25283,12.237,4.8182,0.1,0.00025467,2544.9,0.00025443,2538,-8.2662e-05,5.2699,-8.5875e-05,-18.864,0.7676
25284,11.961,4.7273,0.1,0.00026281,2626.3,0.0002619,2600.3,-8.369e-05,3.6996,-9.1472e-05,-54.768,0.73359
25285,12.053,4.8182,0.1,0.00025501,2548.3,0.00025425,2526.6,-8.1596e-05,3.2376,-8.8139e-05,-45.929,0.74469
25286,11.778,4.7273,0.1,0.00026496,2647.7,0.00026285,2589.7,-8.1445e-05,2.8021,-9.7111e-05,-114.9,0.71095
25287,11.869,4.8182,0.1,0.0002548,2546.3,0.0002532,2501.7,-7.9407e-05,2.569,-9.163e-05,-89.267,0.72194
25288,11.594,4.7273,0.1,0.00026791,2677.2,0.00026372,2566.5,-7.7522e-05,2.5603,-0.00010597,-211.19,0.68847
25289,11.686,4.8182,0.1,0.0002544,2542.3,0.0002514,2461.2,-7.5856e-05,2.3734,-9.7062e-05,-156.96,0.69936
25290,11.41,4.7273,0.1,0.00027266,2724.7,0.00026471,2526.8,-7.1212e-05,2.8002,-0.00011974,-361.85,0.66615
25291,11.502,4.8182,0.1,0.00025457,2544,0.00024911,2403.5,-7.047e-05,2.3319,-0.00010571,-262.47,0.67692
25292,11.226,4.7273,0.1,0.00028092,2807.2,0.00026613,2464.9,-6.1642e-05,2.111,-0.00014069,-591.81,0.64396
25293,11.318,4.8182,0.1,0.00025657,2564,0.00024673,2326.7,-6.2554e-05,2.8771,-0.00011934,-423.78,0.65462
25294,11.042,4.7273,0.1,0.00030141,3012,0.00027337,2416.5,-4.7719e-05,4.0304,-0.00017593,-959.29,0.62188
25295,11.134,4.8182,0.1,0.00026293,2627.5,0.00024521,2231.2,-5.1612e-05,0.98585,-0.00014029,-665.32,0.63243
25296,10.95,4.8182,0.1,0.00028862,2884.2,0.00025503,2197.9,-3.6547e-05,7.0509,-0.00017986,-1069.8,0.61032
25297,10.859,4.7273,0.1,0.00025974,2595.6,0.0002294,1971.4,-3.3595e-05,-4.6696,-0.00016184,-968.22,0.59986
25298,23.724,4.9091,0.1,1.5259e-05,152.48,9.6289e-06,58.297,1.8488e-06,-0.1589,-1.3404e-05,-114.76,2.4369
25299,23.816,5,0.1,1.3779e-05,137.69,7.7182e-06,39.621,2.4322e-06,-0.095834,-1.2669e-05,-113.56,2.4512
25300,23.908,4.9091,0.1,1.3665e-05,136.55,6.3555e-06,22.421,3.3172e-06,-0.40748,-1.3146e-05,-124.11,2.4655
25301,23.541,4.9091,0.1,1.7419e-05,174.07,1.3057e-05,95.691,2.969e-07,-0.18358,-1.3685e-05,-105.24,2.4083
25302,23.632,5,0.1,1.5685e-05,156.74,1.1104e-05,76.659,8.6558e-07,-0.2674,-1.2898e-05,-103.68,2.4226
25303,23.357,4.9091,0.1,2.0007e-05,199.93,1.6524e-05,133.18,-1.2143e-06,-0.09574,-1.4072e-05,-96.704,2.3797
25304,23.449,5,0.1,1.8123e-05,181.1,1.4538e-05,113.94,-6.3897e-07,-0.098199,-1.3255e-05,-94.887,2.394
25305,23.173,4.9091,0.1,2.2895e-05,228.8,2.0038e-05,170.8,-2.7046e-06,-0.076156,-1.4557e-05,-89.132,2.3511
25306,23.265,5,0.1,2.0924e-05,209.1,1.8029e-05,151.36,-2.1268e-06,-0.085302,-1.3723e-05,-87.216,2.3654
25307,22.989,4.9091,0.1,2.6001e-05,259.83,2.36e-05,208.62,-4.1738e-06,-0.055911,-1.5133e-05,-82.402,2.3225
25308,23.081,5,0.1,2.3982e-05,239.65,2.1576e-05,189.03,-3.5903e-06,-0.057445,-1.4295e-05,-80.486,2.3368
25309,22.805,4.9091,0.1,2.9269e-05,292.49,2.7211e-05,246.69,-5.6275e-06,-0.04425,-1.5791e-05,-76.411,2.294
25310,22.897,5,0.1,2.7225e-05,272.06,2.5179e-05,226.99,-5.0376e-06,-0.044707,-1.4957e-05,-74.573,2.3082
25311,22.622,4.9091,0.1,3.2662e-05,326.39,3.0867e-05,285,-7.069e-06,-0.03533,-1.652e-05,-71.046,2.2654
25312,22.713,5,0.1,3.0607e-05,305.86,2.8832e-05,265.23,-6.4723e-06,-0.0344,-1.5696e-05,-69.334,2.2796
25313,22.438,4.9091,0.1,3.615e-05,361.25,3.4566e-05,323.56,-8.5012e-06,-0.028849,-1.731e-05,-66.211,2.2369
25314,22.53,5,0.1,3.4093e-05,340.69,3.253e-05,303.73,-7.8977e-06,-0.027317,-1.6499e-05,-64.652,2.2511
25315,22.254,4.9091,0.1,3.9716e-05,396.89,3.8301e-05,362.34,-9.9264e-06,-0.023876,-1.8151e-05,-61.82,2.2084
25316,22.346,5,0.1,3.7661e-05,376.35,3.6267e-05,342.47,-9.3161e-06,-0.021945,-1.7356e-05,-60.428,2.2226
25317,22.07,4.9091,0.1,4.3345e-05,433.15,4.2071e-05,401.34,-1.1346e-05,-0.020024,-1.9037e-05,-57.805,2.18
25318,22.162,5,0.1,4.1295e-05,412.66,4.004e-05,381.44,-1.0729e-05,-0.017887,-1.8258e-05,-56.585,2.1941
25319,21.886,4.9091,0.1,4.7026e-05,469.94,4.5871e-05,440.53,-1.2762e-05,-0.016983,-1.9962e-05,-54.109,2.1515
25320,21.978,5,0.1,4.4982e-05,449.51,4.3843e-05,420.62,-1.2139e-05,-0.014745,-1.9199e-05,-53.059,2.1657
25321,21.703,4.9091,0.1,5.0752e-05,507.17,4.9699e-05,479.92,-1.4176e-05,-0.014545,-2.092e-05,-50.685,2.1231
25322,21.794,5,0.1,4.8714e-05,486.8,4.7675e-05,459.98,-1.3547e-05,-0.012282,-2.0173e-05,-49.802,2.1372
25323,21.519,4.9091,0.1,5.4518e-05,544.8,5.3554e-05,519.49,-1.5588e-05,-0.012566,-2.1907e-05,-47.495,2.0947
25324,21.611,5,0.1,5.2486e-05,524.49,5.1533e-05,499.54,-1.4953e-05,-0.010314,-2.1176e-05,-46.772,2.1088
25325,21.335,4.9091,0.1,5.8318e-05,582.78,5.7433e-05,559.25,-1.6999e-05,-0.010942,-2.2921e-05,-44.508,2.0664
25326,21.427,5,0.1,5.6292e-05,562.53,5.5415e-05,539.27,-1.6358e-05,-0.0087357,-2.2205e-05,-43.939,2.0805
25327,21.151,4.9091,0.1,6.2151e-05,621.08,6.1336e-05,599.17,-1.841e-05,-0.0096016,-2.3959e-05,-41.698,2.0381
25328,21.243,5,0.1,6.0129e-05,600.88,5.932e-05,579.17,-1.7764e-05,-0.0074546,-2.3256e-05,-41.275,2.0521
25329,20.967,4.9091,0.1,6.6012e-05,659.67,6.5261e-05,639.28,-1.9822e-05,-0.0084878,-2.5017e-05,-39.041,2.0098
25330,21.059,5,0.1,6.3995e-05,639.51,6.3248e-05,619.25,-1.917e-05,-0.0064083,-2.4328e-05,-38.758,2.0238
25331,20.784,4.9091,0.1,6.9902e-05,698.53,6.9209e-05,679.55,-2.1236e-05,-0.0075551,-2.6095e-05,-36.519,1.9816
25332,20.875,5,0.1,6.7888e-05,678.41,6.7196e-05,659.49,-2.0578e-05,-0.0055562,-2.5418e-05,-36.369,1.9956
25333,20.6,4.9091,0.1,7.3817e-05,737.66,7.3177e-05,720.01,-2.2651e-05,-0.0067563,-2.719e-05,-34.114,1.9534
25334,20.692,5,0.1,7.1806e-05,717.56,7.1165e-05,699.91,-2.1988e-05,-0.0048483,-2.6524e-05,-34.092,1.9674
25335,20.416,4.9091,0.1,7.7756e-05,777.03,7.7166e-05,760.63,-2.4068e-05,-0.0060643,-2.8301e-05,-31.81,1.9253
25336,20.508,5,0.1,7.5748e-05,756.96,7.5155e-05,740.49,-2.34e-05,-0.0042424,-2.7646e-05,-31.912,1.9392
25337,20.232,4.9091,0.1,8.172e-05,816.64,8.1176e-05,801.43,-2.5489e-05,-0.0054649,-2.9427e-05,-29.595,1.8972
25338,20.324,5,0.1,7.9713e-05,796.58,7.9164e-05,781.25,-2.4815e-05,-0.0037288,-2.8783e-05,-29.817,1.9111
25339,20.048,4.9091,0.1,8.5706e-05,856.47,8.5206e-05,842.41,-2.6913e-05,-0.0049416,-3.0566e-05,-27.455,1.8692
25340,20.14,5,0.1,8.3701e-05,836.43,8.3193e-05,822.18,-2.6233e-05,-0.003293,-2.9932e-05,-27.793,1.8831
25341,19.865,4.9091,0.1,8.9715e-05,896.53,8.9256e-05,883.57,-2.834e-05,-0.004488,-3.1717e-05,-25.378,1.8412
25342,19.956,5,0.1,8.771e-05,876.49,8.7242e-05,863.29,-2.7656e-05,-0.0029192,-3.1093e-05,-25.831,1.8551
25343,19.681,4.9091,0.1,9.3745e-05,936.8,9.3325e-05,924.9,-2.9772e-05,-0.0040886,-3.288e-05,-23.353,1.8133
25344,19.773,5,0.1,9.174e-05,916.77,9.131e-05,904.57,-2.9082e-05,-0.0026096,-3.2265e-05,-23.92,1.8271
25345,19.497,4.9091,0.1,9.7796e-05,977.28,9.7415e-05,966.42,-3.1209e-05,-0.0037126,-3.4052e-05,-21.37,1.7854
25346,19.589,5,0.1,9.5791e-05,957.25,9.5397e-05,946.03,-3.0513e-05,-0.0023345,-3.3447e-05,-22.05,1.7992
25347,19.313,4.9091,0.1,0.00010187,1018,0.00010152,1008.1,-3.265e-05,-0.0033496,-3.5234e-05,-19.418,1.7577
25348,19.405,5,0.1,9.9863e-05,997.94,9.9503e-05,987.68,-3.1949e-05,-0.0020668,-3.4638e-05,-20.212,1.7714
25349,19.129,4.9091,0.1,0.00010596,1058.9,0.00010565,1050,-3.4097e-05,-0.0029984,-3.6424e-05,-17.487,1.7299
25350,19.221,5,0.1,0.00010395,1038.8,0.00010363,1029.5,-3.339e-05,-0.0018149,-3.5838e-05,-18.397,1.7437
25351,18.946,4.9091,0.1,0.00011007,1099.9,0.0001098,1092.1,-3.555e-05,-0.0026443,-3.7621e-05,-15.569,1.7023
25352,19.038,5,0.1,0.00010806,1079.9,0.00010777,1071.5,-3.4836e-05,-0.0015703,-3.7045e-05,-16.597,1.716
25353,18.762,4.9091,0.1,0.0001142,1141.2,0.00011396,1134.3,-3.7008e-05,-0.0022734,-3.8825e-05,-13.654,1.6747
25354,18.854,5,0.1,0.0001122,1121.2,0.00011194,1113.7,-3.6289e-05,-0.0013198,-3.8259e-05,-14.802,1.6884
25355,18.578,4.9091,0.1,0.00011835,1182.7,0.00011815,1176.8,-3.8473e-05,-0.0018477,-4.0035e-05,-11.733,1.6472
25356,18.67,5,0.1,0.00011634,1162.6,0.00011612,1156.1,-3.7748e-05,-0.0010576,-3.9479e-05,-13.006,1.6608
25357,18.394,4.9091,0.1,0.00012252,1224.3,0.00012235,1219.4,-3.9945e-05,-0.0012833,-4.1249e-05,-9.7976,1.6198
25358,18.486,5,0.1,0.00012051,1204.3,0.00012032,1198.7,-3.9213e-05,-0.00072927,-4.0704e-05,-11.201,1.6334
25359,18.21,4.9091,0.1,0.0001267,1266.2,0.00012657,1262.2,-4.1424e-05,-0.00045578,-4.2467e-05,-7.8403,1.5925
25360,18.302,5,0.1,0.0001247,1246.1,0.00012454,1241.4,-4.0685e-05,-0.00025306,-4.1933e-05,-9.3782,1.606
25361,18.027,4.9091,0.1,0.00013091,1308.2,0.00013081,1305.3,-4.291e-05,0.00092298,-4.3689e-05,-5.8532,1.5653
25362,18.119,5,0.1,0.0001289,1288.1,0.00012877,1284.4,-4.2164e-05,0.00046567,-4.3167e-05,-7.5319,1.5787
25363,17.843,4.9091,0.1,0.00013513,1350.4,0.00013507,1348.5,-4.4403e-05,0.0038111,-4.4913e-05,-3.8302,1.5381
25364,17.935,5,0.1,0.00013313,1330.3,0.00013303,1327.5,-4.3651e-05,0.0017069,-4.4404e-05,-5.6556,1.5515
25365,17.659,4.9091,0.1,0.00013937,1392.7,0.00013934,1391.9,-4.5903e-05,0.013723,-4.6141e-05,-1.7701,1.511
25366,17.751,5,0.1,0.00013736,1372.7,0.0001373,1370.8,-4.5144e-05,0.0043557,-4.5643e-05,-3.7443,1.5244
25367,17.475,4.9091,0.1,0.00014363,1435.3,0.00014363,1435.4,-4.7355e-05,0.44255,-4.7425e-05,-0.078834,1.4841
25368,17.567,5,0.1,0.00014162,1415.2,0.00014159,1414.3,-4.6645e-05,0.013199,-4.6886e-05,-1.7974,1.4974
25369,17.291,4.9091,0.1,0.0001479,1477.9,0.00014794,1479.2,-4.8591e-05,2.5571,-4.8934e-05,-0.018287,1.4572
25370,17.383,5,0.1,0.00014589,1457.9,0.0001459,1458,-4.8114e-05,0.31904,-4.817e-05,-0.10138,1.4705
25371,17.108,4.9091,0.1,0.00015219,1520.8,0.00015227,1523.2,-4.982e-05,4.7854,-5.0459e-05,-0.012595,1.4304
25372,17.2,5,0.1,0.00015018,1500.8,0.00015022,1501.9,-4.9369e-05,2.2876,-4.9676e-05,-0.01856,1.4436
25373,16.924,4.9091,0.1,0.00015649,1563.8,0.00015661,1567.3,-5.1049e-05,7.0787,-5.1992e-05,-0.010739,1.4037
25374,17.016,5,0.1,0.00015449,1543.8,0.00015456,1546,-5.0615e-05,4.3842,-5.12e-05,-0.012425,1.4169
25375,16.74,4.9091,0.1,0.00016081,1607,0.00016097,1611.7,-5.2277e-05,9.4347,-5.3534e-05,-0.010043,1.3772
25376,16.832,5,0.1,0.00015881,1587,0.00015892,1590.3,-5.1861e-05,6.5365,-5.2732e-05,-0.010553,1.3903
25377,16.556,4.9091,0.1,0.00016514,1650.3,0.00016534,1656.2,-5.3505e-05,11.851,-5.5083e-05,-0.0099235,1.3507
25378,16.648,5,0.1,0.00016315,1630.4,0.00016329,1634.7,-5.3108e-05,8.7396,-5.4272e-05,-0.0099257,1.3638
25379,16.372,4.9091,0.1,0.00016949,1693.7,0.00016973,1700.8,-5.4732e-05,14.323,-5.664e-05,-0.010182,1.3244
25380,16.464,5,0.1,0.0001675,1673.8,0.00016768,1679.3,-5.4355e-05,10.988,-5.5819e-05,-0.0099189,1.3373
25381,16.189,4.9091,0.1,0.00017385,1737.3,0.00017413,1745.6,-5.596e-05,16.843,-5.8203e-05,-0.010723,1.2981
25382,16.281,5,0.1,0.00017186,1717.4,0.00017208,1724,-5.5604e-05,13.274,-5.7372e-05,-0.010295,1.311
25383,16.005,4.9091,0.1,0.00017822,1781,0.00017854,1790.6,-5.7189e-05,19.398,-5.9773e-05,-0.011542,1.272
25384,16.097,5,0.1,0.00017624,1761.2,0.0001765,1768.9,-5.6854e-05,15.587,-5.893e-05,-0.010959,1.2849
25385,15.821,4.9091,0.1,0.00018261,1824.8,0.00018297,1835.7,-5.842e-05,21.973,-6.1346e-05,-0.012689,1.246
25386,15.913,5,0.1,0.00018063,1805,0.00018092,1813.9,-5.8107e-05,17.909,-6.0493e-05,-0.011941,1.2588
25387,15.637,4.9091,0.1,0.000187,1868.7,0.00018741,1880.9,-5.9654e-05,24.545,-6.2923e-05,-0.014225,1.2201
25388,15.729,5,0.1,0.00018502,1848.9,0.00018536,1859,-5.9364e-05,20.221,-6.2057e-05,-0.013282,1.2329
25389,15.453,4.9091,0.1,0.0001914,1912.7,0.00019185,1926.1,-6.0893e-05,27.085,-6.45e-05,-0.016256,1.1944
25390,15.545,5,0.1,0.00018942,1892.9,0.0001898,1904.1,-6.0626e-05,22.493,-6.3622e-05,-0.015052,1.2071
25391,15.27,4.9091,0.1,0.0001958,1956.7,0.00019629,1971.3,-6.2139e-05,29.557,-6.6075e-05,-0.018912,1.1688
25392,15.362,5,0.1,0.00019383,1936.9,0.00019424,1949.2,-6.1895e-05,24.692,-6.5184e-05,-0.017387,1.1814
25393,15.086,4.9091,0.1,0.00020021,2000.7,0.00020073,2016.4,-6.3394e-05,31.916,-6.7645e-05,-0.022349,1.1433
25394,15.178,5,0.1,0.00019823,1980.9,0.00019867,1994.2,-6.3173e-05,26.774,-6.6739e-05,-0.020408,1.1558
25395,14.902,4.9091,0.1,0.0002046,2044.6,0.00020516,2061.5,-6.4661e-05,34.108,-6.9204e-05,-0.026847,1.1179
25396,14.994,5,0.1,0.00020262,2024.8,0.0002031,2039,-6.4463e-05,28.687,-6.8284e-05,-0.024314,1.1304
25397,14.718,4.9091,0.1,0.00020899,2088.4,0.00020958,2106.2,-6.5942e-05,36.069,-7.0747e-05,-0.03284,1.0927
25398,14.81,5,0.1,0.000207,2068.6,0.0002075,2083.6,-6.5765e-05,30.369,-6.9811e-05,-0.029494,1.1051
25399,14.534,4.9091,0.1,0.00021334,2131.9,0.00021396,2150.5,-6.724e-05,37.723,-7.2267e-05,-0.040941,1.0677
25400,14.626,5,0.1,0.00021134,2112,0.00021187,2127.7,-6.7083e-05,31.747,-7.1313e-05,-0.036481,1.08
25401,14.351,4.9091,0.1,0.00021766,2175.1,0.00021829,2194.3,-6.8558e-05,38.983,-7.3753e-05,-0.052092,1.0427
25402,14.443,5,0.1,0.00021564,2155,0.00021618,2171.1,-6.8419e-05,32.737,-7.2782e-05,-0.046095,1.055
25403,14.167,4.9091,0.1,0.00022191,2217.6,0.00022256,2237.2,-6.9897e-05,39.75,-7.5197e-05,-0.067742,1.018
25404,14.259,5,0.1,0.00021988,2197.3,0.00022042,2213.7,-6.9773e-05,33.24,-7.4205e-05,-0.059668,1.0301
25405,13.983,4.9091,0.1,0.00022608,2259.2,0.00022673,2278.9,-7.1258e-05,39.912,-7.6582e-05,-0.090198,0.99333
25406,14.075,5,0.1,0.00022402,2238.6,0.00022456,2255,-7.1146e-05,33.151,-7.5569e-05,-0.079322,1.0054
25407,13.799,4.9091,0.1,0.00023012,2299.7,0.00023077,2319,-7.2639e-05,39.347,-7.7892e-05,-0.12342,0.96886
25408,13.891,5,0.1,0.00022803,2278.7,0.00022856,2294.6,-7.2534e-05,32.351,-7.6855e-05,-0.10878,0.98085
25409,13.616,4.9091,0.1,0.000234,2338.4,0.00023462,2357.1,-7.4036e-05,37.919,-7.9106e-05,-0.1744,0.94454
25410,13.707,5,0.1,0.00023186,2317,0.00023236,2332.1,-7.3934e-05,30.711,-7.8042e-05,-0.15499,0.95644
25411,13.432,4.9091,0.1,0.00023766,2374.9,0.00023824,2392.3,-7.5443e-05,35.478,-8.0199e-05,-0.25629,0.92038
25412,13.524,5,0.1,0.00023545,2352.9,0.00023591,2366.7,-7.5334e-05,28.099,-7.9105e-05,-0.23175,0.9322
25413,13.248,4.9091,0.1,0.00024101,2408.5,0.00024153,2424,-7.6847e-05,31.862,-8.1141e-05,-0.3962,0.89638
25414,13.34,5,0.1,0.00023872,2385.6,0.00023912,2397.5,-7.6719e-05,24.382,-8.0014e-05,-0.36963,0.90812
25415,13.064,4.9091,0.1,0.00024398,2438.1,0.00024442,2451.1,-7.823e-05,26.893,-8.1897e-05,-0.65786,0.87254
25416,13.156,5,0.1,0.00024158,2414.1,0.00024189,2423.5,-7.8062e-05,19.452,-8.0738e-05,-0.64861,0.88419
25417,12.88,4.9091,0.1,0.00024645,2462.8,0.00024677,2472.3,-7.9558e-05,20.431,-8.244e-05,-1.2249,0.84887
25418,12.972,5,0.1,0.0002439,2437.4,0.00024411,2443.3,-7.9306e-05,13.349,-8.126e-05,-1.338,0.86043
25419,12.697,4.9091,0.1,0.00024829,2481.2,0.00024845,2486.1,-8.0733e-05,12.708,-8.2798e-05,-2.8123,0.82536
25420,12.788,5,0.1,0.00024554,2453.7,0.0002456,2455.4,-8.0264e-05,6.986,-8.1681e-05,-3.6585,0.83683
25421,12.513,4.9091,0.1,0.00024935,2491.8,0.00024931,2490.5,-8.1357e-05,6.0557,-8.3296e-05,-8.5128,0.80202
25422,12.605,5,0.1,0.00024633,2461.6,0.00024619,2457.7,-8.046e-05,3.3467,-8.2375e-05,-11.046,0.8134
25423,12.329,4.9091,0.1,0.00024949,2493.2,0.00024915,2483.5,-8.0936e-05,3.3512,-8.437e-05,-22.457,0.77885
25424,12.421,5,0.1,0.00024606,2458.9,0.00024568,2447.9,-7.9816e-05,2.2494,-8.3315e-05,-24.041,0.79013
25425,12.145,4.9091,0.1,0.00024856,2483.9,0.00024781,2462.5,-7.9594e-05,2.5,-8.5869e-05,-44.651,0.75584
25426,12.237,5,0.1,0.00024453,2443.6,0.00024381,2423.2,-7.8442e-05,1.9049,-8.4293e-05,-42.061,0.76703
25427,11.961,4.9091,0.1,0.0002465,2463.3,0.00024512,2424.8,-7.7302e-05,2.1883,-8.7879e-05,-77.281,0.73299
25428,12.053,5,0.1,0.00024155,2413.9,0.00024038,2380.7,-7.6235e-05,1.8113,-8.5347e-05,-66.651,0.74409
25429,11.778,4.9091,0.1,0.00024336,2431.9,0.00024101,2367.6,-7.3822e-05,2.1106,-9.0835e-05,-125.72,0.7103
25430,11.869,5,0.1,0.00023703,2368.7,0.00023517,2317.3,-7.3001e-05,1.8308,-8.6708e-05,-101.16,0.7213
25431,11.594,4.9091,0.1,0.00023951,2393.4,0.00023553,2288.8,-6.8809e-05,2.1089,-9.5539e-05,-198.73,0.68776
25432,11.686,5,0.1,0.00023107,2309.1,0.00022814,2230.6,-6.8468e-05,1.9517,-8.8865e-05,-151.3,0.69866
25433,11.41,4.9091,0.1,0.00023582,2356.5,0.00022906,2187.9,-6.1814e-05,2.3928,-0.00010323,-308.78,0.66536
25434,11.502,5,0.1,0.00022422,2240.7,0.00021953,2119.8,-6.2331e-05,2.0092,-9.2708e-05,-226.23,0.67615
25435,11.226,4.9091,0.1,0.00023423,2340.7,0.00022257,2068.7,-5.252e-05,1.7738,-0.0001157,-472.93,0.64307
25436,11.318,5,0.1,0.00021785,2177,0.00021011,1988.7,-5.4228e-05,2.5178,-9.9668e-05,-338.9,0.65377
25437,11.042,4.9091,0.1,0.00024342,2432.5,0.00022217,1977.1,-4.0393e-05,4.359,-0.00013956,-740.76,0.62087
25438,11.134,5,0.1,0.00021503,2148.8,0.00020179,1848.8,-4.4148e-05,0.94261,-0.00011203,-509.09,0.63148
25439,10.95,5,0.1,0.00022979,2296.3,0.0002049,1782.1,-3.1387e-05,6.7362,-0.00014025,-811.2,0.60926
25440,10.859,4.9091,0.1,0.00020718,2070.4,0.0001847,1603.3,-2.8773e-05,-0.62374,-0.00012636,-733.89,0.59871
25441,23.724,5.0909,0.1,1.408e-05,140.7,9.1872e-06,57.938,1.4582e-06,-0.13493,-1.2166e-05,-102.5,2.4368
25442,23.816,5.1818,0.1,1.2475e-05,124.66,7.256e-06,39.427,2.0013e-06,-0.054522,-1.1327e-05,-100.2,2.451
25443,23.908,5.0909,0.1,1.242e-05,124.11,5.9349e-06,22.364,2.9055e-06,-0.39732,-1.1888e-05,-111.55,2.4654
25444,23.541,5.0909,0.1,1.6317e-05,163.06,1.2587e-05,94.923,-6.8229e-08,-0.16648,-1.2472e-05,-93.361,2.4082
25445,23.632,5.1818,0.1,1.4454e-05,144.44,1.06e-05,75.928,4.6229e-07,-0.24082,-1.1571e-05,-90.657,2.4224
25446,23.357,5.0909,0.1,1.9002e-05,189.89,1.6048e-05,132.15,-1.5507e-06,-0.081558,-1.2911e-05,-85.44,2.3796
25447,23.449,5.1818,0.1,1.7002e-05,169.9,1.4022e-05,112.86,-1.0092e-06,-0.07801,-1.1983e-05,-82.534,2.3938
25448,23.173,5.0909,0.1,2.1993e-05,219.78,1.9574e-05,169.64,-3.012e-06,-0.063262,-1.3467e-05,-78.621,2.351
25449,23.265,5.1818,0.1,1.9925e-05,199.11,1.7526e-05,150.12,-2.4633e-06,-0.067201,-1.2533e-05,-75.729,2.3652
25450,22.989,5.0909,0.1,2.52e-05,251.82,2.3162e-05,207.45,-4.4538e-06,-0.0441,-1.4126e-05,-72.715,2.3224
25451,23.081,5.1818,0.1,2.3102e-05,230.86,2.1103e-05,187.78,-3.8953e-06,-0.041169,-1.32e-05,-69.952,2.3366
25452,22.805,5.0909,0.1,2.8563e-05,285.44,2.6807e-05,245.58,-5.8822e-06,-0.033321,-1.4869e-05,-67.559,2.2939
25453,22.897,5.1818,0.1,2.6457e-05,264.39,2.4745e-05,225.82,-5.314e-06,-0.029865,-1.396e-05,-64.995,2.3081
25454,22.622,5.0909,0.1,3.2043e-05,320.21,3.0502e-05,284.01,-7.3008e-06,-0.025207,-1.5683e-05,-63.005,2.2653
25455,22.713,5.1818,0.1,2.9939e-05,299.19,2.8442e-05,264.19,-6.723e-06,-0.02083,-1.4795e-05,-60.672,2.2795
25456,22.438,5.0909,0.1,3.5611e-05,355.86,3.424e-05,322.71,-8.7124e-06,-0.019467,-1.6554e-05,-58.935,2.2368
25457,22.53,5.1818,0.1,3.3515e-05,334.92,3.2184e-05,302.86,-8.1254e-06,-0.014883,-1.5689e-05,-56.845,2.251
25458,22.254,5.0909,0.1,3.9247e-05,392.2,3.8014e-05,361.64,-1.0119e-05,-0.015176,-1.7471e-05,-55.259,2.2083
25459,22.346,5.1818,0.1,3.7162e-05,371.37,3.5964e-05,341.77,-9.5235e-06,-0.010535,-1.663e-05,-53.408,2.2225
25460,22.07,5.0909,0.1,4.294e-05,429.1,4.1821e-05,400.78,-1.1522e-05,-0.011951,-1.8429e-05,-51.903,2.1798
25461,22.162,5.1818,0.1,4.0866e-05,408.38,3.9777e-05,380.9,-1.0919e-05,-0.0073978,-1.761e-05,-50.285,2.194
25462,21.886,5.0909,0.1,4.6678e-05,466.46,4.5656e-05,440.13,-1.2923e-05,-0.0094844,-1.9419e-05,-48.814,2.1514
25463,21.978,5.1818,0.1,4.4615e-05,445.84,4.3619e-05,420.24,-1.2312e-05,-0.0050853,-1.8622e-05,-47.416,2.1655
25464,21.703,5.0909,0.1,5.0456e-05,504.21,4.9517e-05,479.66,-1.4323e-05,-0.0075704,-2.0438e-05,-45.949,2.1229
25465,21.794,5.1818,0.1,4.8403e-05,483.69,4.7486e-05,459.76,-1.3705e-05,-0.0033692,-1.9661e-05,-44.759,2.1371
25466,21.519,5.0909,0.1,5.4268e-05,542.31,5.3402e-05,519.37,-1.5723e-05,-0.0060691,-2.1481e-05,-43.274,2.0945
25467,21.611,5.1818,0.1,5.2224e-05,521.88,5.1376e-05,499.45,-1.5097e-05,-0.0020758,-2.0724e-05,-42.279,2.1086
25468,21.335,5.0909,0.1,5.8111e-05,580.71,5.731e-05,559.25,-1.7122e-05,-0.0048848,-2.2547e-05,-40.761,2.0662
25469,21.427,5.1818,0.1,5.6074e-05,560.36,5.5288e-05,539.31,-1.6491e-05,-0.0011068,-2.1807e-05,-39.948,2.0803
25470,21.151,5.0909,0.1,6.1982e-05,619.39,6.1239e-05,599.3,-1.8523e-05,-0.0039444,-2.3632e-05,-38.388,2.0379
25471,21.243,5.1818,0.1,5.9952e-05,599.11,5.9221e-05,579.34,-1.7885e-05,-0.00037909,-2.2909e-05,-37.747,2.0519
25472,20.967,5.0909,0.1,6.5878e-05,658.33,6.5189e-05,639.51,-1.9926e-05,-0.0032,-2.4735e-05,-36.137,2.0096
25473,21.059,5.1818,0.1,6.3855e-05,638.11,6.3173e-05,619.53,-1.9281e-05,0.00016186,-2.4027e-05,-35.658,2.0236
25474,20.784,5.0909,0.1,6.98e-05,697.51,6.9159e-05,679.9,-2.133e-05,-0.0026081,-2.5854e-05,-33.992,1.9814
25475,20.875,5.1818,0.1,6.7781e-05,677.34,6.7146e-05,659.88,-2.0679e-05,0.00055029,-2.516e-05,-33.665,1.9954
25476,20.6,5.0909,0.1,7.3744e-05,736.93,7.3149e-05,720.44,-2.2737e-05,-0.0021246,-2.6987e-05,-31.938,1.9532
25477,20.692,5.1818,0.1,7.173e-05,716.8,7.1137e-05,700.4,-2.208e-05,0.00083067,-2.6307e-05,-31.756,1.9672
25478,20.416,5.0909,0.1,7.7711e-05,776.58,7.7158e-05,761.16,-2.4146e-05,-0.0017256,-2.8134e-05,-29.965,1.9251
25479,20.508,5.1818,0.1,7.57e-05,756.48,7.5147e-05,741.08,-2.3484e-05,0.001043,-2.7467e-05,-29.92,1.939
25480,20.232,5.0909,0.1,8.17e-05,816.44,8.1187e-05,802.05,-2.5559e-05,-0.0014017,-2.9294e-05,-28.059,1.897
25481,20.324,5.1818,0.1,7.9692e-05,796.37,7.9175e-05,781.92,-2.4892e-05,0.001187,-2.8638e-05,-28.147,1.9109
25482,20.048,5.0909,0.1,8.571e-05,856.51,8.5234e-05,843.11,-2.6976e-05,-0.0011396,-3.0465e-05,-26.213,1.8689
25483,20.14,5.1818,0.1,8.3704e-05,836.46,8.3223e-05,822.93,-2.6303e-05,0.0012772,-2.982e-05,-26.429,1.8828
25484,19.865,5.0909,0.1,8.9741e-05,896.79,8.9301e-05,884.34,-2.8397e-05,-0.0009327,-3.1646e-05,-24.415,1.841
25485,19.956,5.1818,0.1,8.7736e-05,876.75,8.7288e-05,864.11,-2.7718e-05,0.0013241,-3.1013e-05,-24.756,1.8548
25486,19.681,5.0909,0.1,9.3793e-05,937.28,9.3387e-05,925.74,-2.9823e-05,-0.00076944,-3.2838e-05,-22.657,1.813
25487,19.773,5.1818,0.1,9.1788e-05,917.24,9.1373e-05,905.47,-2.9137e-05,0.0013222,-3.2215e-05,-23.12,1.8269
25488,19.497,5.0909,0.1,9.7864e-05,977.96,9.7491e-05,967.33,-3.1253e-05,-0.00062437,-3.4038e-05,-20.931,1.7852
25489,19.589,5.1818,0.1,9.586e-05,957.93,9.5475e-05,947,-3.0562e-05,0.001297,-3.3426e-05,-21.516,1.799
25490,19.313,5.0909,0.1,0.00010195,1018.8,0.00010161,1009.1,-3.2688e-05,-0.00048954,-3.5247e-05,-19.229,1.7574
25491,19.405,5.1818,0.1,9.9951e-05,998.82,9.9597e-05,988.7,-3.1991e-05,0.0012714,-3.4645e-05,-19.934,1.7712
25492,19.129,5.0909,0.1,0.00010607,1059.9,0.00010576,1051,-3.4129e-05,-0.00036664,-3.6464e-05,-17.543,1.7297
25493,19.221,5.1818,0.1,0.00010406,1039.9,0.00010374,1030.6,-3.3426e-05,0.0012339,-3.5871e-05,-18.369,1.7434
25494,18.946,5.0909,0.1,0.0001102,1101.2,0.00010992,1093.2,-3.5576e-05,-0.00024928,-3.7687e-05,-15.865,1.702
25495,19.038,5.1818,0.1,0.00010819,1081.2,0.00010789,1072.7,-3.4867e-05,0.0011862,-3.7105e-05,-16.813,1.7157
25496,18.762,5.0909,0.1,0.00011434,1142.6,0.0001141,1135.5,-3.7028e-05,-0.00013348,-3.8917e-05,-14.189,1.6745
25497,18.854,5.1818,0.1,0.00011234,1122.6,0.00011207,1114.9,-3.6313e-05,0.0011329,-3.8345e-05,-15.261,1.6881
25498,18.578,5.0909,0.1,0.00011851,1184.3,0.00011829,1178,-3.8488e-05,1.5186e-06,-4.0152e-05,-12.507,1.647
25499,18.67,5.1818,0.1,0.00011651,1164.3,0.00011627,1157.3,-3.7766e-05,0.0010687,-3.959e-05,-13.706,1.6606
25500,18.394,5.0909,0.1,0.0001227,1226.1,0.00012251,1220.7,-3.9953e-05,0.00020608,-4.1392e-05,-10.813,1.6195
25501,18.486,5.1818,0.1,0.00012069,1206.1,0.00012048,1200,-3.9225e-05,0.0010274,-4.0841e-05,-12.143,1.6331
25502,18.21,5.0909,0.1,0.0001269,1268.1,0.00012674,1263.6,-4.1426e-05,0.00052954,-4.2637e-05,-9.1001,1.5922
25503,18.302,5.1818,0.1,0.0001249,1248.1,0.00012471,1242.8,-4.0691e-05,0.0010535,-4.2097e-05,-10.565,1.6057
25504,18.027,5.0909,0.1,0.00013112,1310.3,0.000131,1306.6,-4.2905e-05,0.0010567,-4.3885e-05,-7.3636,1.565
25505,18.119,5.1818,0.1,0.00012912,1290.3,0.00012896,1285.8,-4.2164e-05,0.0011574,-4.3358e-05,-8.9683,1.5784
25506,17.843,5.0909,0.1,0.00013536,1352.7,0.00013527,1349.9,-4.4392e-05,0.002018,-4.5137e-05,-5.5979,1.5378
25507,17.935,5.1818,0.1,0.00013336,1332.7,0.00013323,1329,-4.3644e-05,0.0014091,-4.4622e-05,-7.3477,1.5512
25508,17.659,5.0909,0.1,0.00013962,1395.2,0.00013956,1393.3,-4.5886e-05,0.0040954,-4.6392e-05,-3.7994,1.5107
25509,17.751,5.1818,0.1,0.00013762,1375.2,0.00013752,1372.4,-4.5131e-05,0.0019687,-4.5889e-05,-5.6993,1.5241
25510,17.475,5.0909,0.1,0.00014389,1438,0.00014386,1437,-4.7387e-05,0.010628,-4.765e-05,-1.9674,1.4837
25511,17.567,5.1818,0.1,0.00014189,1417.9,0.00014182,1415.9,-4.6625e-05,0.003264,-4.716e-05,-4.0203,1.497
25512,17.291,5.0909,0.1,0.00014819,1480.8,0.00014818,1480.8,-4.888e-05,0.13205,-4.8925e-05,-0.2098,1.4569
25513,17.383,5.1818,0.1,0.00014618,1460.8,0.00014614,1459.7,-4.8126e-05,0.0071399,-4.8434e-05,-2.3101,1.4701
25514,17.108,5.0909,0.1,0.00015249,1523.9,0.00015252,1524.8,-5.0166e-05,1.8627,-5.0417e-05,-0.019445,1.4301
25515,17.2,5.1818,0.1,0.00015049,1503.9,0.00015048,1503.6,-4.9631e-05,0.036609,-4.9714e-05,-0.59043,1.4433
25516,16.924,5.0909,0.1,0.00015682,1567.1,0.00015688,1569,-5.143e-05,3.8182,-5.194e-05,-0.01228,1.4034
25517,17.016,5.1818,0.1,0.00015482,1547.1,0.00015484,1547.7,-5.0984e-05,1.253,-5.1154e-05,-0.02292,1.4165
25518,16.74,5.0909,0.1,0.00016116,1610.4,0.00016125,1613.3,-5.2695e-05,5.8182,-5.347e-05,-0.010364,1.3768
25519,16.832,5.1818,0.1,0.00015916,1590.5,0.00015921,1592,-5.2267e-05,3.0592,-5.2675e-05,-0.012503,1.3899
25520,16.556,5.0909,0.1,0.00016551,1654,0.00016564,1657.9,-5.3961e-05,7.8543,-5.5008e-05,-0.0098413,1.3503
25521,16.648,5.1818,0.1,0.00016352,1634,0.0001636,1636.5,-5.355e-05,4.9021,-5.4204e-05,-0.010357,1.3634
25522,16.372,5.0909,0.1,0.00016988,1697.6,0.00017004,1702.5,-5.5229e-05,9.9179,-5.6551e-05,-0.0099665,1.324
25523,16.464,5.1818,0.1,0.00016789,1677.7,0.000168,1681.1,-5.4836e-05,6.7681,-5.5738e-05,-0.0099194,1.3369
25524,16.189,5.0909,0.1,0.00017426,1741.4,0.00017446,1747.3,-5.65e-05,11.998,-5.8099e-05,-0.010486,1.2977
25525,16.281,5.1818,0.1,0.00017227,1721.5,0.00017241,1725.8,-5.6125e-05,8.646,-5.7277e-05,-0.010182,1.3106
25526,16.005,5.0909,0.1,0.00017865,1785.2,0.00017888,1792.2,-5.7775e-05,14.077,-5.965e-05,-0.011334,1.2716
25527,16.097,5.1818,0.1,0.00017666,1765.4,0.00017684,1770.6,-5.7418e-05,10.521,-5.882e-05,-0.010851,1.2845
25528,15.821,5.0909,0.1,0.00018304,1829.2,0.00018331,1837.2,-5.9054e-05,16.137,-6.1203e-05,-0.012535,1.2456
25529,15.913,5.1818,0.1,0.00018107,1809.4,0.00018127,1815.6,-5.8716e-05,12.375,-6.0364e-05,-0.011883,1.2584
25530,15.637,5.0909,0.1,0.00018745,1873.2,0.00018775,1882.2,-6.0339e-05,18.149,-6.2756e-05,-0.014137,1.2197
25531,15.729,5.1818,0.1,0.00018547,1853.5,0.00018571,1860.5,-6.0019e-05,14.183,-6.1908e-05,-0.013288,1.2324
25532,15.453,5.0909,0.1,0.00019186,1917.2,0.00019219,1927.2,-6.1631e-05,20.08,-6.4306e-05,-0.01624,1.194
25533,15.545,5.1818,0.1,0.00018988,1897.5,0.00019015,1905.4,-6.1329e-05,15.915,-6.3449e-05,-0.015119,1.2066
25534,15.27,5.0909,0.1,0.00019626,1961.2,0.00019662,1972.1,-6.2932e-05,21.889,-6.5848e-05,-0.018975,1.1684
25535,15.362,5.1818,0.1,0.00019429,1941.5,0.00019458,1950.2,-6.2648e-05,17.531,-6.4983e-05,-0.017503,1.1809
25536,15.086,5.0909,0.1,0.00020065,2005.1,0.00020104,2016.8,-6.4244e-05,23.525,-6.7378e-05,-0.022511,1.1429
25537,15.178,5.1818,0.1,0.00019868,1985.5,0.000199,1994.9,-6.3976e-05,18.987,-6.6505e-05,-0.02056,1.1554
25538,14.902,5.0909,0.1,0.00020502,2048.8,0.00020543,2061.1,-6.5569e-05,24.928,-6.8891e-05,-0.027162,1.1175
25539,14.994,5.1818,0.1,0.00020306,2029.2,0.00020339,2039.2,-6.5315e-05,20.226,-6.801e-05,-0.024506,1.1299
25540,14.718,5.0909,0.1,0.00020936,2092.2,0.00020979,2105,-6.6909e-05,26.027,-7.0377e-05,-0.033429,1.0923
25541,14.81,5.1818,0.1,0.0002074,2072.6,0.00020775,2083.1,-6.6668e-05,21.182,-6.9491e-05,-0.029774,1.1046
25542,14.534,5.0909,0.1,0.00021365,2135,0.00021409,2148.3,-6.8265e-05,26.739,-7.1829e-05,-0.042079,1.0672
25543,14.626,5.1818,0.1,0.00021169,2115.4,0.00021205,2126.2,-6.8034e-05,21.778,-7.0937e-05,-0.037001,1.0795
25544,14.351,5.0909,0.1,0.00021787,2177.2,0.00021832,2190.5,-6.9637e-05,26.972,-7.3234e-05,-0.054379,1.0423
25545,14.443,5.1818,0.1,0.00021591,2157.6,0.00021627,2168.5,-6.9413e-05,21.927,-7.2338e-05,-0.047258,1.0545
25546,14.167,5.0909,0.1,0.00022199,2218.4,0.00022243,2231.5,-7.1025e-05,26.62,-7.4577e-05,-0.072469,1.0175
25547,14.259,5.1818,0.1,0.00022003,2198.8,0.00022039,2209.4,-7.0805e-05,21.528,-7.3679e-05,-0.062455,1.0296
25548,13.983,5.0909,0.1,0.00022597,2258.1,0.00022639,2270.8,-7.2425e-05,25.57,-7.5842e-05,-0.10022,0.99286
25549,14.075,5.1818,0.1,0.00022401,2238.6,0.00022435,2248.7,-7.2206e-05,20.474,-7.4943e-05,-0.086102,1.0049
25550,13.799,5.0909,0.1,0.00022976,2296,0.00023015,2307.7,-7.3831e-05,23.701,-7.7005e-05,-0.14529,0.96838
25551,13.891,5.1818,0.1,0.00022781,2276.5,0.00022812,2285.7,-7.361e-05,18.651,-7.6109e-05,-0.12549,0.98035
25552,13.616,5.0909,0.1,0.00023331,2331.4,0.00023365,2341.7,-7.5232e-05,20.892,-7.8042e-05,-0.22435,0.94405
25553,13.707,5.1818,0.1,0.00023135,2311.9,0.00023162,2319.8,-7.5003e-05,15.944,-7.7151e-05,-0.19788,0.95594
25554,13.432,5.0909,0.1,0.00023651,2363.5,0.00023679,2371.8,-7.6606e-05,17.04,-7.8924e-05,-0.37947,0.91989
25555,13.524,5.1818,0.1,0.00023457,2344.1,0.00023477,2350,-7.6365e-05,12.267,-7.8044e-05,-0.35241,0.93169
25556,13.248,5.0909,0.1,0.00023929,2391.2,0.00023948,2396.9,-7.7914e-05,12.125,-7.9627e-05,-0.74569,0.89588
25557,13.34,5.1818,0.1,0.00023735,2371.9,0.00023747,2375.3,-7.7646e-05,7.6766,-7.8772e-05,-0.78474,0.90759
25558,13.064,5.0909,0.1,0.0002415,2413.3,0.00024157,2415.6,-7.9046e-05,6.5968,-8.0182e-05,-1.9416,0.87203
25559,13.156,5.1818,0.1,0.00023958,2394.1,0.00023959,2394.4,-7.8661e-05,3.2037,-7.9442e-05,-2.6639,0.88366
25560,12.88,5.0909,0.1,0.00024298,2428.1,0.00024291,2426.2,-7.9624e-05,2.8156,-8.0867e-05,-6.524,0.84834
25561,12.972,5.1818,0.1,0.00024108,2409.1,0.00024095,2405.5,-7.9007e-05,1.4122,-8.0352e-05,-8.6937,0.85989
25562,12.697,5.0909,0.1,0.00024354,2433.7,0.0002433,2426.7,-7.9449e-05,1.7007,-8.176e-05,-15.666,0.82482
25563,12.788,5.1818,0.1,0.00024166,2415,0.00024137,2406.6,-7.8784e-05,1.0099,-8.1279e-05,-17.73,0.83628
25564,12.513,5.0909,0.1,0.00024295,2427.8,0.00024249,2414.5,-7.8671e-05,1.4008,-8.2569e-05,-27.888,0.80146
25565,12.605,5.1818,0.1,0.00024109,2409.2,0.0002406,2395.1,-7.8048e-05,0.91561,-8.2012e-05,-28.869,0.81283
25566,12.329,5.0909,0.1,0.00024095,2407.8,0.00024021,2386.6,-7.7251e-05,1.3395,-8.318e-05,-43.211,0.77827
25567,12.421,5.1818,0.1,0.00023907,2389.1,0.00023834,2368.2,-7.6717e-05,0.93523,-8.2454e-05,-42.173,0.78954
25568,12.145,5.0909,0.1,0.00023726,2370.9,0.00023615,2339.7,-7.506e-05,1.388,-8.3568e-05,-62.534,0.75523
25569,12.237,5.1818,0.1,0.0002353,2351.4,0.00023427,2322.3,-7.4671e-05,1.0239,-8.253e-05,-58.031,0.76641
25570,11.961,5.0909,0.1,0.00023162,2314.6,0.00023003,2270.3,-7.1928e-05,1.5037,-8.3789e-05,-87.617,0.73234
25571,12.053,5.1818,0.1,0.00022945,2292.9,0.00022805,2253.8,-7.176e-05,1.1723,-8.2196e-05,-77.242,0.74343
25572,11.778,5.0909,0.1,0.00022392,2237.7,0.00022163,2175.2,-6.7646e-05,1.6796,-8.4055e-05,-121.61,0.70961
25573,11.869,5.1818,0.1,0.00022124,2210.9,0.00021936,2159.1,-6.7813e-05,1.3717,-8.1488e-05,-101.38,0.72061
25574,11.594,5.0909,0.1,0.00021436,2142.1,0.00021098,2052.8,-6.199e-05,1.8568,-8.4867e-05,-170.04,0.68701
25575,11.686,5.1818,0.1,0.0002106,2104.6,0.00020804,2035.4,-6.2642e-05,1.6425,-8.0627e-05,-133.49,0.69792
25576,11.41,5.0909,0.1,0.00020386,2037.2,0.00019868,1906.2,-5.4742e-05,2.1583,-8.7236e-05,-241.99,0.66454
25577,11.502,5.1818,0.1,0.00019799,1978.5,0.00019434,1883.5,-5.6084e-05,1.864,-8.0217e-05,-179.46,0.67536
25578,11.226,5.0909,0.1,0.00019484,1947,0.00018641,1746.9,-4.5847e-05,1.7566,-9.3089e-05,-353.2,0.64216
25579,11.318,5.1818,0.1,0.00018487,1847.4,0.00017936,1710.8,-4.8007e-05,2.3854,-8.1569e-05,-249.79,0.6529
25580,11.042,5.0909,0.1,0.0001958,1956.7,0.00018054,1623.8,-3.5085e-05,3.7517,-0.00010879,-550.02,0.61986
25581,11.134,5.1818,0.1,0.00017494,1748.2,0.00016584,1537.2,-3.8583e-05,1.2319,-8.734e-05,-365.11,0.63053
25582,10.95,5.1818,0.1,0.00018135,1812.3,0.00016371,1441.8,-2.7383e-05,5.9473,-0.0001073,-594.53,0.60821
25583,10.859,5.0909,0.1,0.00016482,1647.1,0.00014873,1306.4,-2.5377e-05,-1.7395,-9.7444e-05,-543.22,0.5976
25584,23.724,5.2727,0.1,1.2727e-05,127.18,8.6646e-06,57.388,1.0142e-06,-0.094532,-1.0737e-05,-88.387,2.4367
25585,23.816,5.3636,0.1,1.0961e-05,109.53,6.7028e-06,39.041,1.5062e-06,-0.0032092,-9.7613e-06,-84.663,2.4509
25586,23.908,5.2727,0.1,1.0977e-05,109.69,5.4403e-06,22.232,2.4316e-06,-0.37419,-1.0428e-05,-97,2.4653
25587,23.541,5.2727,0.1,1.5077e-05,150.66,1.2038e-05,93.896,-4.7659e-07,-0.13666,-1.109e-05,-79.878,2.4081
25588,23.632,5.3636,0.1,1.3055e-05,130.46,1.0002e-05,74.881,8.548e-09,-0.2065,-1.0048e-05,-75.765,2.4223
25589,23.357,5.2727,0.1,1.7898e-05,178.85,1.5507e-05,130.89,-1.921e-06,-0.056932,-1.1614e-05,-72.889,2.3795
25590,23.449,5.3636,0.1,1.5767e-05,157.56,1.343e-05,111.5,-1.417e-06,-0.050814,-1.056e-05,-68.746,2.3937
25591,23.173,5.2727,0.1,2.1027e-05,210.12,1.9064e-05,168.34,-3.3461e-06,-0.041237,-1.2276e-05,-67.137,2.3509
25592,23.265,5.3636,0.1,1.8861e-05,188.48,1.6973e-05,148.73,-2.8282e-06,-0.043935,-1.1237e-05,-63.222,2.3651
25593,22.989,5.2727,0.1,2.4363e-05,243.46,2.2696e-05,206.24,-4.7551e-06,-0.024312,-1.3045e-05,-62.315,2.3223
25594,23.081,5.3636,0.1,2.2195e-05,221.79,2.0604e-05,186.52,-4.2221e-06,-0.020759,-1.2035e-05,-58.724,2.3365
25595,22.805,5.2727,0.1,2.7841e-05,278.22,2.6391e-05,244.52,-6.1544e-06,-0.015432,-1.3898e-05,-58.194,2.2937
25596,22.897,5.3636,0.1,2.5685e-05,256.68,2.4305e-05,224.74,-5.6078e-06,-0.011747,-1.2921e-05,-54.961,2.3079
25597,22.622,5.2727,0.1,3.1422e-05,314,3.0135e-05,283.12,-7.5474e-06,-0.0089905,-1.4813e-05,-54.598,2.2652
25598,22.713,5.3636,0.1,2.9283e-05,292.63,2.8058e-05,263.32,-6.9882e-06,-0.0047261,-1.3871e-05,-51.718,2.2794
25599,22.438,5.2727,0.1,3.5078e-05,350.54,3.392e-05,322,-8.9364e-06,-0.0047303,-1.5777e-05,-51.401,2.2366
25600,22.53,5.3636,0.1,3.2957e-05,329.35,3.1853e-05,302.19,-8.3658e-06,-0.00050356,-1.4868e-05,-48.857,2.2508
25601,22.254,5.2727,0.1,3.8792e-05,387.65,3.7738e-05,361.11,-1.0323e-05,-0.0017521,-1.678e-05,-48.515,2.2081
25602,22.346,5.3636,0.1,3.6689e-05,366.63,3.5681e-05,341.3,-9.7419e-06,0.0023509,-1.5902e-05,-46.282,2.2223
25603,22.07,5.2727,0.1,4.2552e-05,425.23,4.1585e-05,400.43,-1.1708e-05,0.00030738,-1.7814e-05,-45.875,2.1796
25604,22.162,5.3636,0.1,4.0465e-05,404.37,3.9538e-05,380.61,-1.1118e-05,0.0041951,-1.6965e-05,-43.93,2.1938
25605,21.886,5.2727,0.1,4.635e-05,463.18,4.5458e-05,439.93,-1.3093e-05,0.0017384,-1.8874e-05,-43.434,2.1512
25606,21.978,5.3636,0.1,4.4277e-05,442.47,4.3419e-05,420.11,-1.2494e-05,0.0053854,-1.8052e-05,-41.753,2.1653
25607,21.703,5.2727,0.1,5.0181e-05,501.46,4.9354e-05,479.61,-1.4479e-05,0.002728,-1.9957e-05,-41.157,2.1228
25608,21.794,5.3636,0.1,4.8121e-05,480.88,4.7322e-05,459.79,-1.3871e-05,0.0061218,-1.9158e-05,-39.72,2.1369
25609,21.519,5.2727,0.1,5.404e-05,540.03,5.327e-05,519.46,-1.5865e-05,0.0034016,-2.1059e-05,-39.018,2.0944
25610,21.611,5.3636,0.1,5.1991e-05,519.55,5.1245e-05,499.62,-1.525e-05,0.0065553,-2.0282e-05,-37.805,2.1085
25611,21.335,5.2727,0.1,5.7925e-05,578.85,5.7207e-05,559.47,-1.7253e-05,0.0038405,-2.2178e-05,-36.997,2.066
25612,21.427,5.3636,0.1,5.5886e-05,558.47,5.5187e-05,539.61,-1.663e-05,0.0067672,-2.1421e-05,-35.99,2.0801
25613,21.151,5.2727,0.1,6.1834e-05,617.92,6.1163e-05,599.63,-1.8643e-05,0.004106,-2.3312e-05,-35.076,2.0377
25614,21.243,5.3636,0.1,5.9803e-05,597.62,5.9147e-05,579.76,-1.8013e-05,0.0068208,-2.2574e-05,-34.26,2.0517
25615,20.967,5.2727,0.1,6.5766e-05,657.21,6.5137e-05,639.96,-2.0035e-05,0.0042369,-2.446e-05,-33.241,2.0094
25616,21.059,5.3636,0.1,6.3742e-05,636.98,6.3125e-05,620.05,-1.9399e-05,0.0067615,-2.3739e-05,-32.605,2.0234
25617,20.784,5.2727,0.1,6.9719e-05,696.71,6.913e-05,680.44,-2.143e-05,0.0042666,-2.5621e-05,-31.482,1.9812
25618,20.875,5.3636,0.1,6.7701e-05,676.54,6.712e-05,660.5,-2.0787e-05,0.0066095,-2.4915e-05,-31.013,1.9952
25619,20.6,5.2727,0.1,7.3693e-05,736.42,7.3141e-05,721.08,-2.2828e-05,0.0042342,-2.6793e-05,-29.789,1.953
25620,20.692,5.3636,0.1,7.1679e-05,716.3,7.1133e-05,701.11,-2.2179e-05,0.006401,-2.6103e-05,-29.477,1.9669
25621,20.416,5.2727,0.1,7.7688e-05,776.34,7.717e-05,761.88,-2.4229e-05,0.0041544,-2.7977e-05,-28.152,1.9248
25622,20.508,5.3636,0.1,7.5677e-05,756.25,7.5163e-05,741.87,-2.3574e-05,0.0061675,-2.73e-05,-27.989,1.9388
25623,20.232,5.2727,0.1,8.1702e-05,816.45,8.1217e-05,802.85,-2.5635e-05,0.0040311,-2.9171e-05,-26.564,1.8967
25624,20.324,5.3636,0.1,7.9695e-05,796.4,7.921e-05,782.8,-2.4973e-05,0.0059029,-2.8506e-05,-26.543,1.9107
25625,20.048,5.2727,0.1,8.5735e-05,856.76,8.5283e-05,843.98,-2.7044e-05,0.0038756,-3.0374e-05,-25.017,1.8687
25626,20.14,5.3636,0.1,8.3731e-05,836.73,8.3275e-05,823.88,-2.6376e-05,0.0056157,-2.9722e-05,-25.133,1.8826
25627,19.865,5.2727,0.1,8.9789e-05,897.27,8.9366e-05,885.29,-2.8458e-05,0.0036855,-3.1587e-05,-23.505,1.8407
25628,19.956,5.3636,0.1,8.7785e-05,877.25,8.7357e-05,865.13,-2.7784e-05,0.0053099,-3.0946e-05,-23.753,1.8546
25629,19.681,5.2727,0.1,9.3861e-05,937.96,9.3467e-05,926.76,-2.9877e-05,0.0034689,-3.2808e-05,-22.02,1.8128
25630,19.773,5.3636,0.1,9.1859e-05,917.95,9.1457e-05,906.55,-2.9197e-05,0.0049765,-3.2178e-05,-22.397,1.8266
25631,19.497,5.2727,0.1,9.7952e-05,978.85,9.7587e-05,968.41,-3.13e-05,0.0032483,-3.4037e-05,-20.558,1.7849
25632,19.589,5.3636,0.1,9.5951e-05,958.84,9.5575e-05,948.14,-3.0614e-05,0.0046353,-3.3418e-05,-21.061,1.7987
25633,19.313,5.2727,0.1,0.00010206,1019.9,0.00010172,1010.2,-3.2729e-05,0.0030269,-3.5273e-05,-19.112,1.7571
25634,19.405,5.3636,0.1,0.00010006,999.92,9.9711e-05,989.91,-3.2037e-05,0.0043069,-3.4665e-05,-19.74,1.7709
25635,19.129,5.2727,0.1,0.00010619,1061.2,0.00010588,1052.2,-3.4164e-05,0.0027961,-3.6517e-05,-17.676,1.7294
25636,19.221,5.3636,0.1,0.00010419,1041.2,0.00010386,1031.9,-3.3466e-05,0.0039735,-3.5919e-05,-18.428,1.7431
25637,18.946,5.2727,0.1,0.00011034,1102.6,0.00011005,1094.4,-3.5604e-05,0.0025559,-3.7767e-05,-16.245,1.7017
25638,19.038,5.3636,0.1,0.00010834,1082.6,0.00010804,1074,-3.49e-05,0.0036296,-3.7179e-05,-17.122,1.7154
25639,18.762,5.2727,0.1,0.00011451,1144.3,0.00011425,1136.8,-3.7051e-05,0.0023016,-3.9023e-05,-14.813,1.6742
25640,18.854,5.3636,0.1,0.0001125,1124.3,0.00011223,1116.3,-3.634e-05,0.003278,-3.8446e-05,-15.816,1.6878
25641,18.578,5.2727,0.1,0.00011869,1186.1,0.00011846,1179.4,-3.8504e-05,0.0020413,-4.0284e-05,-13.375,1.6467
25642,18.67,5.3636,0.1,0.00011669,1166.1,0.00011644,1158.8,-3.7787e-05,0.0029,-3.9718e-05,-14.506,1.6602
25643,18.394,5.2727,0.1,0.0001229,1228.1,0.00012269,1222.1,-3.9963e-05,0.0018046,-4.1551e-05,-11.927,1.6192
25644,18.486,5.3636,0.1,0.00012089,1208.1,0.00012066,1201.5,-3.9239e-05,0.002521,-4.0995e-05,-13.189,1.6328
25645,18.21,5.2727,0.1,0.00012712,1270.3,0.00012694,1265,-4.1429e-05,0.0016012,-4.2822e-05,-10.464,1.5919
25646,18.302,5.3636,0.1,0.00012512,1250.3,0.00012491,1244.3,-4.0699e-05,0.002164,-4.2278e-05,-11.86,1.6054
25647,18.027,5.2727,0.1,0.00013136,1312.7,0.0001312,1308.2,-4.2902e-05,0.0014386,-4.4098e-05,-8.9826,1.5646
25648,18.119,5.3636,0.1,0.00012936,1292.7,0.00012917,1287.4,-4.2165e-05,0.0018087,-4.3565e-05,-10.515,1.5781
25649,17.843,5.2727,0.1,0.00013562,1355.2,0.00013549,1351.5,-4.4382e-05,0.0013555,-4.5378e-05,-7.4783,1.5374
25650,17.935,5.3636,0.1,0.00013361,1335.2,0.00013346,1330.6,-4.3638e-05,0.0014583,-4.4856e-05,-9.1525,1.5508
25651,17.659,5.2727,0.1,0.00013989,1398,0.00013979,1395,-4.5869e-05,0.0014295,-4.6661e-05,-5.9489,1.5104
25652,17.751,5.3636,0.1,0.00013789,1377.9,0.00013776,1374,-4.5118e-05,0.0011275,-4.6152e-05,-7.7691,1.5237
25653,17.475,5.2727,0.1,0.00014419,1440.9,0.00014411,1438.7,-4.7363e-05,0.0018896,-4.7948e-05,-4.3926,1.4834
25654,17.567,5.3636,0.1,0.00014218,1420.9,0.00014207,1417.7,-4.6605e-05,0.00082826,-4.7452e-05,-6.3632,1.4967
25655,17.291,5.2727,0.1,0.0001485,1483.9,0.00014845,1482.5,-4.8864e-05,0.0035168,-4.9238e-05,-2.8091,1.4565
25656,17.383,5.3636,0.1,0.0001465,1463.9,0.00014641,1461.5,-4.8099e-05,0.00066814,-4.8755e-05,-4.934,1.4697
25657,17.108,5.2727,0.1,0.00015282,1527.2,0.0001528,1526.6,-5.0371e-05,0.011159,-5.0533e-05,-1.2038,1.4297
25658,17.2,5.3636,0.1,0.00015082,1507.2,0.00015076,1505.5,-4.9599e-05,0.00089552,-5.0063e-05,-3.4819,1.4429
25659,16.924,5.2727,0.1,0.00015717,1570.6,0.00015717,1570.8,-5.1822e-05,0.48566,-5.1892e-05,-0.039598,1.403
25660,17.016,5.3636,0.1,0.00015517,1550.6,0.00015513,1549.6,-5.1106e-05,0.0023815,-5.1374e-05,-2.0095,1.4161
25661,16.74,5.2727,0.1,0.00016152,1614.1,0.00016156,1615.2,-5.3125e-05,2.1196,-5.3409e-05,-0.013065,1.3764
25662,16.832,5.3636,0.1,0.00015953,1594.2,0.00015952,1593.9,-5.2617e-05,0.016175,-5.269e-05,-0.53128,1.3895
25663,16.556,5.2727,0.1,0.0001659,1657.8,0.00016596,1659.7,-5.4429e-05,3.7925,-5.4935e-05,-0.010382,1.3499
25664,16.648,5.3636,0.1,0.0001639,1637.9,0.00016392,1638.4,-5.4004e-05,1.0044,-5.4139e-05,-0.014854,1.3629
25665,16.372,5.2727,0.1,0.00017028,1701.7,0.00017038,1704.4,-5.5735e-05,5.4733,-5.6465e-05,-0.010035,1.3236
25666,16.464,5.3636,0.1,0.00016829,1681.8,0.00016834,1683,-5.5326e-05,2.5085,-5.5662e-05,-0.009676,1.3365
25667,16.189,5.2727,0.1,0.00017468,1745.6,0.0001748,1749.1,-5.7046e-05,7.1476,-5.7999e-05,-0.010478,1.2973
25668,16.281,5.3636,0.1,0.00017269,1725.7,0.00017276,1727.7,-5.6653e-05,4.0106,-5.7188e-05,-0.0092638,1.3102
25669,16.005,5.2727,0.1,0.00017909,1789.6,0.00017923,1794,-5.8362e-05,8.7974,-5.9534e-05,-0.011374,1.2712
25670,16.097,5.3636,0.1,0.0001771,1769.8,0.0001772,1772.5,-5.7984e-05,5.4924,-5.8717e-05,-0.0098271,1.284
25671,15.821,5.2727,0.1,0.0001835,1833.7,0.00018367,1838.9,-5.9684e-05,10.4,-6.1069e-05,-0.012658,1.2452
25672,15.913,5.3636,0.1,0.00018152,1813.9,0.00018164,1817.4,-5.9321e-05,6.9337,-6.0245e-05,-0.010896,1.2579
25673,15.637,5.2727,0.1,0.00018791,1877.8,0.00018811,1883.7,-6.1012e-05,11.928,-6.2601e-05,-0.014341,1.2193
25674,15.729,5.3636,0.1,0.00018594,1858.1,0.00018608,1862.2,-6.0664e-05,8.3099,-6.1771e-05,-0.01237,1.232
25675,15.453,5.2727,0.1,0.00019232,1921.9,0.00019254,1928.5,-6.2348e-05,13.345,-6.4127e-05,-0.016506,1.1935
25676,15.545,5.3636,0.1,0.00019035,1902.2,0.00019051,1907,-6.2013e-05,9.5904,-6.3292e-05,-0.014266,1.2061
25677,15.27,5.2727,0.1,0.00019672,1965.8,0.00019696,1973.1,-6.3694e-05,14.608,-6.5641e-05,-0.019273,1.1679
25678,15.362,5.3636,0.1,0.00019476,1946.2,0.00019494,1951.5,-6.3371e-05,10.738,-6.4802e-05,-0.016698,1.1804
25679,15.086,5.2727,0.1,0.00020109,2009.6,0.00020136,2017.3,-6.505e-05,15.667,-6.7138e-05,-0.022816,1.1424
25680,15.178,5.3636,0.1,0.00019914,1990,0.00019934,1995.8,-6.4736e-05,11.706,-6.6297e-05,-0.01979,1.1549
25681,14.902,5.2727,0.1,0.00020544,2053,0.00020571,2061.1,-6.6417e-05,16.458,-6.8611e-05,-0.027482,1.117
25682,14.994,5.3636,0.1,0.00020349,2033.5,0.0002037,2039.7,-6.6111e-05,12.441,-6.777e-05,-0.023777,1.1294
25683,14.718,5.2727,0.1,0.00020973,2095.9,0.00021001,2104.3,-6.7795e-05,16.911,-7.005e-05,-0.033866,1.0918
25684,14.81,5.3636,0.1,0.0002078,2076.5,0.00020801,2082.9,-6.7494e-05,12.88,-6.9212e-05,-0.029165,1.1041
25685,14.534,5.2727,0.1,0.00021395,2138.1,0.00021424,2146.5,-6.9185e-05,16.943,-7.1446e-05,-0.042964,1.0667
25686,14.626,5.3636,0.1,0.00021203,2118.8,0.00021225,2125.3,-6.8885e-05,12.947,-7.0613e-05,-0.036776,1.079
25687,14.351,5.2727,0.1,0.00021807,2179.2,0.00021835,2187.4,-7.0585e-05,16.46,-7.2783e-05,-0.056628,1.0418
25688,14.443,5.3636,0.1,0.00021617,2160.2,0.00021638,2166.4,-7.0283e-05,12.559,-7.196e-05,-0.048168,1.054
25689,14.167,5.2727,0.1,0.00022206,2219,0.00022231,2226.6,-7.199e-05,15.361,-7.4045e-05,-0.078525,1.017
25690,14.259,5.3636,0.1,0.00022017,2200.2,0.00022037,2206,-7.1682e-05,11.621,-7.3237e-05,-0.066594,1.0291
25691,13.983,5.2727,0.1,0.00022585,2257,0.00022608,2263.6,-7.3393e-05,13.538,-7.5211e-05,-0.11688,0.99235
25692,14.075,5.3636,0.1,0.000224,2238.4,0.00022416,2243.4,-7.3075e-05,10.036,-7.4424e-05,-0.099723,1.0044
25693,13.799,5.2727,0.1,0.0002294,2292.4,0.00022958,2297.8,-7.4782e-05,10.89,-7.6257e-05,-0.1939,0.96786
25694,13.891,5.3636,0.1,0.00022758,2274.3,0.00022771,2278,-7.445e-05,7.7101,-7.5499e-05,-0.17046,0.9798
25695,13.616,5.2727,0.1,0.00023262,2324.6,0.00023274,2328.1,-7.6129e-05,7.3696,-7.7162e-05,-0.3899,0.94352
25696,13.707,5.3636,0.1,0.00023086,2307,0.00023093,2309.1,-7.5778e-05,4.6253,-7.6444e-05,-0.38075,0.95539
25697,13.432,5.2727,0.1,0.00023541,2352.5,0.00023545,2353.5,-7.7347e-05,3.3412,-7.7951e-05,-1.1946,0.91934
25698,13.524,5.3636,0.1,0.00023372,2335.6,0.00023372,2335.6,-7.6922e-05,1.5193,-7.7336e-05,-1.5895,0.93112
25699,13.248,5.2727,0.1,0.00023764,2374.8,0.00023757,2372.8,-7.8078e-05,1.1217,-7.8899e-05,-5.0436,0.89532
25700,13.34,5.3636,0.1,0.00023605,2358.9,0.00023596,2356.1,-7.7549e-05,0.55833,-7.8432e-05,-6.0767,0.90702
25701,13.064,5.2727,0.1,0.00023915,2389.9,0.00023896,2384.2,-7.8268e-05,0.68016,-7.9957e-05,-12.008,0.87147
25702,13.156,5.3636,0.1,0.00023769,2375.3,0.00023748,2369.2,-7.7783e-05,0.38772,-7.9509e-05,-12.585,0.88308
25703,12.88,5.2727,0.1,0.00023975,2395.8,0.0002394,2385.7,-7.8039e-05,0.57798,-8.0874e-05,-20.73,0.84777
25704,12.972,5.3636,0.1,0.00023846,2383,0.00023811,2372.8,-7.7644e-05,0.34922,-8.0422e-05,-20.525,0.85929
25705,12.697,5.2727,0.1,0.00023917,2390.1,0.00023864,2374.7,-7.7337e-05,0.57405,-8.1542e-05,-31.019,0.82423
25706,12.788,5.3636,0.1,0.00023811,2379.5,0.00023759,2364.6,-7.7064e-05,0.35927,-8.1083e-05,-29.837,0.83567
25707,12.513,5.2727,0.1,0.00023714,2369.7,0.00023639,2348.3,-7.607e-05,0.62376,-8.1858e-05,-42.86,0.80085
25708,12.605,5.3636,0.1,0.00023636,2362,0.00023565,2341.7,-7.5951e-05,0.40167,-8.1391e-05,-40.469,0.8122
25709,12.329,5.2727,0.1,0.0002333,2331.4,0.0002323,2303.1,-7.4123e-05,0.71875,-8.1709e-05,-56.278,0.77763
25710,12.421,5.3636,0.1,0.00023286,2327,0.00023194,2300.7,-7.4199e-05,0.47622,-8.1226e-05,-52.322,0.78889
25711,12.145,5.2727,0.1,0.00022727,2271.2,0.00022599,2235,-7.1363e-05,0.86347,-8.098e-05,-71.396,0.75457
25712,12.237,5.3636,0.1,0.00022723,2270.8,0.00022606,2237.7,-7.1682e-05,0.58986,-8.0445e-05,-65.249,0.76574
25713,11.961,5.2727,0.1,0.00021869,2185.4,0.00021706,2140.2,-6.7642e-05,1.066,-7.9579e-05,-88.627,0.73165
25714,12.053,5.3636,0.1,0.00021905,2189,0.0002176,2148.7,-6.8266e-05,0.75811,-7.8899e-05,-79.133,0.74273
25715,11.778,5.2727,0.1,0.00020727,2071.3,0.00020522,2015.2,-6.2808e-05,1.3458,-7.7511e-05,-109.12,0.70887
25716,11.869,5.3636,0.1,0.00020791,2077.7,0.00020617,2029.5,-6.3812e-05,0.99815,-7.6471e-05,-94.116,0.71987
25717,11.594,5.2727,0.1,0.00019309,1929.6,0.00019044,1858.9,-5.6734e-05,1.6726,-7.5028e-05,-135.79,0.68622
25718,11.686,5.3636,0.1,0.00019361,1934.8,0.0001915,1877.4,-5.8192e-05,1.3611,-7.3166e-05,-111.15,0.69714
25719,11.41,5.2727,0.1,0.00017703,1769,0.00017341,1675.8,-4.9339e-05,2.1611,-7.2944e-05,-175.2,0.66369
25720,11.502,5.3636,0.1,0.0001764,1762.8,0.00017377,1693.1,-5.1328e-05,1.7839,-6.9318e-05,-133.38,0.67453
25721,11.226,5.2727,0.1,0.00016169,1615.8,0.00015621,1481.7,-4.0723e-05,2.0132,-7.3255e-05,-242.42,0.64124
25722,11.318,5.3636,0.1,0.00015764,1575.3,0.00015411,1485.2,-4.3213e-05,2.5787,-6.6025e-05,-168.82,0.65201
25723,11.042,5.2727,0.1,0.00015546,1553.6,0.00014537,1327.7,-3.0805e-05,3.9954,-8.2274e-05,-382.72,0.61887
25724,11.134,5.3636,0.1,0.00014122,1411.2,0.00013566,1277.6,-3.4132e-05,1.8877,-6.6099e-05,-238.3,0.62957
25725,10.95,5.3636,0.1,0.0001398,1397.1,0.00012825,1148.8,-2.3815e-05,6.25,-7.9043e-05,-408.72,0.60718
25726,10.859,5.2727,0.1,0.00012889,1288,0.00011805,1052.8,-2.2274e-05,-1.4943,-7.3027e-05,-382.84,0.59652
25727,23.724,5.4545,0.1,1.1175e-05,111.67,8.0402e-06,56.535,5.0892e-07,-0.052335,-9.0806e-06,-72.105,2.4365
25728,23.816,5.5455,0.1,9.1859e-06,91.796,6.0249e-06,38.35,9.4e-07,0.14402,-7.9136e-06,-66.378,2.4508
25729,23.908,5.4545,0.1,9.2856e-06,92.792,4.8489e-06,21.947,1.8798e-06,-0.36159,-8.7149e-06,-79.966,2.4652
25730,23.541,5.4545,0.1,1.3702e-05,136.93,1.1403e-05,92.557,-9.2967e-07,-0.10385,-9.5295e-06,-64.72,2.4079
25731,23.632,5.5455,0.1,1.1491e-05,114.84,9.2986e-06,73.464,-4.9251e-07,-0.10263,-8.3127e-06,-58.861,2.4222
25732,23.357,5.4545,0.1,1.6723e-05,167.11,1.491e-05,129.45,-2.3232e-06,-0.029751,-1.0197e-05,-59.191,2.3793
25733,23.449,5.5455,0.1,1.4468e-05,144.58,1.2783e-05,110.02,-1.8555e-06,0.025342,-9.0126e-06,-53.75,2.3935
25734,23.173,5.4545,0.1,2.0037e-05,200.23,1.8529e-05,167.03,-3.7036e-06,-0.018441,-1.1012e-05,-54.933,2.3507
25735,23.265,5.5455,0.1,1.78e-05,177.87,1.641e-05,147.46,-3.2133e-06,0.022037,-9.8829e-06,-50.091,2.3649
25736,22.989,5.4545,0.1,2.3532e-05,235.16,2.2229e-05,205.14,-5.0743e-06,-0.0046683,-1.1927e-05,-51.495,2.3221
25737,23.081,5.5455,0.1,2.1325e-05,213.1,2.0125e-05,185.53,-4.5634e-06,0.035431,-1.0855e-05,-47.237,2.3363
25738,22.805,5.4545,0.1,2.7144e-05,271.25,2.5988e-05,243.66,-6.4412e-06,0.0015986,-1.291e-05,-48.606,2.2936
25739,22.897,5.5455,0.1,2.4969e-05,249.52,2.3901e-05,224.05,-5.9128e-06,0.037216,-1.1891e-05,-44.881,2.3078
25740,22.622,5.4545,0.1,3.0835e-05,308.14,2.9791e-05,282.5,-7.8063e-06,0.0058126,-1.3941e-05,-46.091,2.265
25741,22.713,5.5455,0.1,2.869e-05,286.7,2.772e-05,262.89,-7.2627e-06,0.03823,-1.297e-05,-42.84,2.2792
25742,22.438,5.4545,0.1,3.4584e-05,345.6,3.3629e-05,321.59,-9.1711e-06,0.0082117,-1.5008e-05,-43.844,2.2365
25743,22.53,5.5455,0.1,3.2465e-05,324.42,3.1572e-05,301.98,-8.6142e-06,0.037514,-1.4078e-05,-41.013,2.2506
25744,22.254,5.4545,0.1,3.8377e-05,383.5,3.7494e-05,360.89,-1.0537e-05,0.0096217,-1.6101e-05,-41.796,2.208
25745,22.346,5.5455,0.1,3.628e-05,362.55,3.5451e-05,341.29,-9.9678e-06,0.03622,-1.5208e-05,-39.337,2.2221
25746,22.07,5.4545,0.1,4.2204e-05,421.75,4.1384e-05,400.39,-1.1903e-05,0.010358,-1.7215e-05,-39.899,2.1795
25747,22.162,5.5455,0.1,4.0127e-05,400.99,3.9351e-05,380.78,-1.1324e-05,0.034544,-1.6356e-05,-37.773,2.1936
25748,21.886,5.4545,0.1,4.6061e-05,460.29,4.5294e-05,440.05,-1.3272e-05,0.010666,-1.8347e-05,-38.124,2.151
25749,21.978,5.5455,0.1,4.4e-05,439.7,4.3271e-05,420.44,-1.2682e-05,0.032707,-1.7517e-05,-36.296,2.1651
25750,21.703,5.4545,0.1,4.9943e-05,499.09,4.9223e-05,479.87,-1.4642e-05,0.010695,-1.9494e-05,-36.446,2.1226
25751,21.794,5.5455,0.1,4.7897e-05,478.64,4.7208e-05,460.25,-1.4044e-05,0.030814,-1.8691e-05,-34.887,2.1367
25752,21.519,5.4545,0.1,5.3848e-05,538.11,5.3171e-05,519.85,-1.6015e-05,0.010544,-2.0654e-05,-34.849,2.0942
25753,21.611,5.5455,0.1,5.1814e-05,517.78,5.1162e-05,500.21,-1.5408e-05,0.028942,-1.9875e-05,-33.535,2.1083
25754,21.335,5.4545,0.1,5.7775e-05,577.35,5.7136e-05,559.97,-1.739e-05,0.010268,-2.1827e-05,-33.322,2.0658
25755,21.427,5.5455,0.1,5.575e-05,557.11,5.5132e-05,540.31,-1.6776e-05,0.027112,-2.1069e-05,-32.231,2.0799
25756,21.151,5.4545,0.1,6.1721e-05,616.78,6.1117e-05,600.24,-1.8769e-05,0.0099106,-2.301e-05,-31.854,2.0375
25757,21.243,5.5455,0.1,5.9704e-05,596.63,5.9118e-05,580.56,-1.8146e-05,0.025345,-2.2271e-05,-30.969,2.0515
25758,20.967,5.4545,0.1,6.5686e-05,656.41,6.5115e-05,640.66,-2.015e-05,0.0094956,-2.4203e-05,-30.437,2.0092
25759,21.059,5.5455,0.1,6.3677e-05,636.33,6.3119e-05,620.95,-1.9521e-05,0.023647,-2.3482e-05,-29.742,2.0232
25760,20.784,5.4545,0.1,6.967e-05,696.22,6.913e-05,681.23,-2.1536e-05,0.0090429,-2.5405e-05,-29.065,1.9809
25761,20.875,5.5455,0.1,6.7666e-05,676.2,6.7136e-05,661.48,-2.0899e-05,0.022011,-2.4701e-05,-28.547,1.9949
25762,20.6,5.4545,0.1,7.3672e-05,736.21,7.3161e-05,721.96,-2.2924e-05,0.0085792,-2.6616e-05,-27.731,1.9527
25763,20.692,5.5455,0.1,7.1673e-05,716.24,7.1168e-05,702.16,-2.2281e-05,0.02045,-2.5928e-05,-27.379,1.9667
25764,20.416,5.4545,0.1,7.7692e-05,776.39,7.7209e-05,762.84,-2.4317e-05,0.0081138,-2.7836e-05,-26.432,1.9246
25765,20.508,5.5455,0.1,7.5697e-05,756.45,7.5217e-05,743,-2.3668e-05,0.018971,-2.7162e-05,-26.236,1.9385
25766,20.232,5.4545,0.1,8.1731e-05,816.74,8.1274e-05,803.88,-2.5715e-05,0.0076438,-2.9064e-05,-25.162,1.8965
25767,20.324,5.5455,0.1,7.9738e-05,796.83,7.9282e-05,783.99,-2.5058e-05,0.017558,-2.8403e-05,-25.113,1.9104
25768,20.048,5.4545,0.1,8.5787e-05,857.28,8.5356e-05,845.08,-2.7116e-05,0.0071697,-3.03e-05,-23.916,1.8684
25769,20.14,5.5455,0.1,8.3797e-05,837.39,8.3363e-05,825.13,-2.6454e-05,0.0162,-2.9651e-05,-24.009,1.8823
25770,19.865,5.4545,0.1,8.9862e-05,898,8.9455e-05,886.44,-2.8523e-05,0.0066879,-3.1544e-05,-22.69,1.8404
25771,19.956,5.5455,0.1,8.7873e-05,878.12,8.7461e-05,866.44,-2.7854e-05,0.014891,-3.0906e-05,-22.919,1.8543
25772,19.681,5.4545,0.1,9.3955e-05,938.9,9.3571e-05,927.98,-2.9934e-05,0.0062007,-3.2794e-05,-21.481,1.8125
25773,19.773,5.5455,0.1,9.1966e-05,919.03,9.1575e-05,907.92,-2.9259e-05,0.013612,-3.2168e-05,-21.842,1.8263
25774,19.497,5.4545,0.1,9.8066e-05,979.98,9.7705e-05,969.69,-3.1351e-05,0.0057253,-3.4052e-05,-20.284,1.7846
25775,19.589,5.5455,0.1,9.6078e-05,960.11,9.5708e-05,949.56,-3.067e-05,0.012371,-3.3437e-05,-20.774,1.7984
25776,19.313,5.4545,0.1,0.0001022,1021.2,0.00010186,1011.6,-3.2774e-05,0.0052614,-3.5316e-05,-19.096,1.7568
25777,19.405,5.5455,0.1,0.00010021,1001.4,9.9857e-05,991.38,-3.2086e-05,0.011182,-3.4711e-05,-19.712,1.7706
25778,19.129,5.4545,0.1,0.00010634,1062.7,0.00010603,1053.6,-3.4202e-05,0.004794,-3.6586e-05,-17.913,1.7291
25779,19.221,5.5455,0.1,0.00010435,1042.8,0.00010402,1033.4,-3.3508e-05,0.010015,-3.5992e-05,-18.654,1.7428
25780,18.946,5.4545,0.1,0.00011051,1104.3,0.00011021,1095.9,-3.5636e-05,0.0043206,-3.7863e-05,-16.73,1.7014
25781,19.038,5.5455,0.1,0.00010852,1084.4,0.00010821,1075.5,-3.4936e-05,0.0088627,-3.7279e-05,-17.597,1.7151
25782,18.762,5.4545,0.1,0.00011469,1146.1,0.00011442,1138.3,-3.7076e-05,0.0038306,-3.9145e-05,-15.545,1.6738
25783,18.854,5.5455,0.1,0.0001127,1126.3,0.00011241,1117.9,-3.6369e-05,0.0077173,-3.8571e-05,-16.537,1.6874
25784,18.578,5.4545,0.1,0.0001189,1188.1,0.00011865,1180.9,-3.8522e-05,0.0033233,-4.0433e-05,-14.354,1.6463
25785,18.67,5.5455,0.1,0.00011691,1168.2,0.00011663,1160.4,-3.7809e-05,0.0065542,-3.9869e-05,-15.473,1.6599
25786,18.394,5.4545,0.1,0.00012312,1230.3,0.00012289,1223.7,-3.9975e-05,0.0028196,-4.1726e-05,-13.155,1.6189
25787,18.486,5.5455,0.1,0.00012113,1210.4,0.00012087,1203.2,-3.9256e-05,0.005389,-4.1173e-05,-14.401,1.6324
25788,18.21,5.4545,0.1,0.00012736,1272.7,0.00012715,1266.7,-4.1435e-05,0.0023161,-4.3025e-05,-11.943,1.5915
25789,18.302,5.5455,0.1,0.00012537,1252.8,0.00012513,1246.1,-4.0709e-05,0.004238,-4.2482e-05,-13.32,1.605
25790,18.027,5.4545,0.1,0.00013162,1315.2,0.00013143,1309.9,-4.2901e-05,0.0017958,-4.4328e-05,-10.717,1.5642
25791,18.119,5.5455,0.1,0.00012962,1295.3,0.00012941,1289.2,-4.2168e-05,0.0030713,-4.3796e-05,-12.226,1.5777
25792,17.843,5.4545,0.1,0.00013589,1358,0.00013573,1353.2,-4.4374e-05,0.0012535,-4.5635e-05,-9.4737,1.5371
25793,17.935,5.5455,0.1,0.0001339,1338.1,0.00013371,1332.5,-4.3634e-05,0.0018754,-4.5115e-05,-11.12,1.5504
25794,17.659,5.4545,0.1,0.00014019,1400.9,0.00014004,1396.8,-4.5854e-05,0.00067753,-4.6947e-05,-8.213,1.51
25795,17.751,5.5455,0.1,0.00013819,1381,0.00013802,1375.9,-4.5107e-05,0.00064368,-4.6438e-05,-9.9987,1.5233
25796,17.475,5.4545,0.1,0.0001445,1444,0.00014438,1440.5,-4.734e-05,7.2765e-05,-4.8263e-05,-6.9336,1.483
25797,17.567,5.5455,0.1,0.0001425,1424.1,0.00014235,1419.6,-4.6587e-05,-0.00065051,-4.7766e-05,-8.8622,1.4963
25798,17.291,5.4545,0.1,0.00014883,1487.2,0.00014873,1484.4,-4.8833e-05,-0.00052441,-4.9584e-05,-5.6358,1.4561
25799,17.383,5.5455,0.1,0.00014683,1467.3,0.0001467,1463.5,-4.8073e-05,-0.001987,-4.9099e-05,-7.7104,1.4693
25800,17.108,5.4545,0.1,0.00015317,1530.7,0.0001531,1528.5,-5.0333e-05,-0.0010909,-5.0908e-05,-4.3212,1.4293
25801,17.2,5.5455,0.1,0.00015118,1510.8,0.00015107,1507.5,-4.9565e-05,-0.0033453,-5.0436e-05,-6.5444,1.4424
25802,16.924,5.4545,0.1,0.00015754,1574.3,0.00015748,1572.8,-5.1838e-05,-0.0015597,-5.2237e-05,-2.9927,1.4026
25803,17.016,5.5455,0.1,0.00015554,1554.4,0.00015545,1551.7,-5.1064e-05,-0.0047632,-5.1778e-05,-5.3665,1.4157
25804,16.74,5.4545,0.1,0.00016191,1618,0.00016188,1617.2,-5.3349e-05,-0.0015415,-5.3569e-05,-1.6557,1.376
25805,16.832,5.5455,0.1,0.00015992,1598.1,0.00015985,1596,-5.2568e-05,-0.0062534,-5.3124e-05,-4.1804,1.389
25806,16.556,5.4545,0.1,0.0001663,1661.9,0.0001663,1661.7,-5.4864e-05,0.0060192,-5.4908e-05,-0.32428,1.3495
25807,16.648,5.5455,0.1,0.00016432,1642,0.00016427,1640.5,-5.4077e-05,-0.0078242,-5.4474e-05,-2.9916,1.3625
25808,16.372,5.4545,0.1,0.00017071,1705.9,0.00017072,1706.4,-5.6247e-05,1.022,-5.6385e-05,-0.0090648,1.3231
25809,16.464,5.5455,0.1,0.00016872,1686.1,0.00016869,1685.2,-5.559e-05,-0.0094955,-5.5829e-05,-1.808,1.336
25810,16.189,5.4545,0.1,0.00017512,1750,0.00017516,1751.1,-5.7594e-05,2.3319,-5.7906e-05,-0.0084773,1.2969
25811,16.281,5.5455,0.1,0.00017314,1730.2,0.00017313,1729.9,-5.7105e-05,-0.01122,-5.7189e-05,-0.63989,1.3097
25812,16.005,5.4545,0.1,0.00017954,1794.2,0.0001796,1796,-5.8946e-05,3.6057,-5.9427e-05,-0.0093921,1.2707
25813,16.097,5.5455,0.1,0.00017756,1774.4,0.00017757,1774.6,-5.8553e-05,0.49965,-5.8622e-05,-0.013374,1.2835
25814,15.821,5.4545,0.1,0.00018396,1838.3,0.00018404,1840.7,-6.0304e-05,4.8208,-6.0947e-05,-0.010815,1.2447
25815,15.913,5.5455,0.1,0.00018199,1818.6,0.00018202,1819.4,-5.9923e-05,1.5925,-6.0137e-05,-0.015302,1.2574
25816,15.637,5.4545,0.1,0.00018838,1882.5,0.00018848,1885.5,-6.1668e-05,5.9503,-6.2461e-05,-0.012645,1.2188
25817,15.729,5.5455,0.1,0.00018642,1862.9,0.00018646,1864.2,-6.1298e-05,2.6174,-6.1648e-05,-0.017508,1.2315
25818,15.453,5.4545,0.1,0.00019279,1926.6,0.00019291,1930,-6.3038e-05,6.9611,-6.3967e-05,-0.014948,1.193
25819,15.545,5.5455,0.1,0.00019083,1907,0.00019089,1908.8,-6.2678e-05,3.5474,-6.3152e-05,-0.019982,1.2056
25820,15.27,5.4545,0.1,0.00019718,1970.5,0.00019731,1974.3,-6.4416e-05,7.8133,-6.5458e-05,-0.017859,1.1674
25821,15.362,5.5455,0.1,0.00019523,1951,0.00019531,1953.1,-6.4062e-05,4.3497,-6.4644e-05,-0.022853,1.1799
25822,15.086,5.4545,0.1,0.00020154,2014,0.00020168,2018.2,-6.58e-05,8.4587,-6.6929e-05,-0.021586,1.1419
25823,15.178,5.5455,0.1,0.0001996,1994.7,0.00019969,1997.1,-6.5452e-05,4.9847,-6.6119e-05,-0.026266,1.1543
25824,14.902,5.4545,0.1,0.00020585,2057.1,0.000206,2061.5,-6.7191e-05,8.8408,-6.8371e-05,-0.026566,1.1165
25825,14.994,5.5455,0.1,0.00020393,2037.9,0.00020402,2040.6,-6.6844e-05,5.4056,-6.7568e-05,-0.030526,1.1289
25826,14.718,5.4545,0.1,0.0002101,2099.5,0.00021025,2103.9,-6.8587e-05,8.8933,-6.9775e-05,-0.033621,1.0913
25827,14.81,5.5455,0.1,0.0002082,2080.5,0.00020829,2083.3,-6.8238e-05,5.5572,-6.8983e-05,-0.036351,1.1036
25828,14.534,5.4545,0.1,0.00021425,2141,0.00021439,2145.2,-6.9986e-05,8.541,-7.1128e-05,-0.044351,1.0662
25829,14.626,5.5455,0.1,0.00021237,2122.2,0.00021246,2124.9,-6.963e-05,5.3759,-7.0352e-05,-0.045197,1.0784
25830,14.351,5.4545,0.1,0.00021827,2181.2,0.0002184,2185,-7.1382e-05,7.6997,-7.2415e-05,-0.062383,1.0412
25831,14.443,5.5455,0.1,0.00021642,2162.7,0.0002165,2165.1,-7.1016e-05,4.7911,-7.1662e-05,-0.06067,1.0534
25832,14.167,5.4545,0.1,0.00022212,2219.6,0.00022222,2222.7,-7.2768e-05,6.2822,-7.3618e-05,-0.097594,1.0164
25833,14.259,5.5455,0.1,0.00022031,2201.6,0.00022037,2203.4,-7.2387e-05,3.7299,-7.2896e-05,-0.094094,1.0285
25834,13.983,5.4545,0.1,0.00022573,2255.8,0.0002258,2257.8,-7.413e-05,4.2204,-7.4717e-05,-0.1878,0.99178
25835,14.075,5.5455,0.1,0.00022399,2238.3,0.00022402,2239.3,-7.3725e-05,2.1557,-7.4039e-05,-0.20153,1.0038
25836,13.799,5.4545,0.1,0.00022905,2288.9,0.00022906,2289.4,-7.5413e-05,1.6885,-7.572e-05,-0.61881,0.96728
25837,13.891,5.5455,0.1,0.00022737,2272.2,0.00022737,2272,-7.4937e-05,0.56938,-7.5144e-05,-0.98374,0.97921
25838,13.616,5.4545,0.1,0.00023196,2318,0.00023191,2316.6,-7.635e-05,0.43438,-7.684e-05,-3.2514,0.94294
25839,13.707,5.5455,0.1,0.00023039,2302.3,0.00023033,2300.5,-7.5824e-05,0.20132,-7.6354e-05,-3.7755,0.95478
25840,13.432,5.4545,0.1,0.00023436,2342,0.00023423,2338.1,-7.6924e-05,0.24609,-7.8018e-05,-7.9803,0.91875
25841,13.524,5.5455,0.1,0.00023292,2327.6,0.00023279,2323.8,-7.6468e-05,0.13973,-7.752e-05,-7.768,0.93051
25842,13.248,5.4545,0.1,0.0002361,2359.4,0.00023586,2352.5,-7.7204e-05,0.20114,-7.909e-05,-13.973,0.89472
25843,13.34,5.5455,0.1,0.00023484,2346.8,0.00023462,2340.4,-7.6852e-05,0.12629,-7.8571e-05,-12.797,0.9064
25844,13.064,5.4545,0.1,0.00023699,2368.3,0.00023663,2357.7,-7.714e-05,0.19501,-7.9985e-05,-21.182,0.87085
25845,13.156,5.5455,0.1,0.00023596,2358,0.00023564,2348.6,-7.6919e-05,0.13085,-7.9452e-05,-18.903,0.88244
25846,12.88,5.4545,0.1,0.00023681,2366.4,0.00023629,2351.6,-7.6658e-05,0.20989,-8.0625e-05,-29.594,0.84714
25847,12.972,5.5455,0.1,0.00023608,2359.2,0.00023563,2346.1,-7.6598e-05,0.14713,-8.0093e-05,-26.113,0.85864
25848,12.697,5.4545,0.1,0.00023526,2351,0.00023458,2331.3,-7.5671e-05,0.24298,-8.0911e-05,-39.13,0.82359
25849,12.788,5.5455,0.1,0.00023494,2347.8,0.00023434,2330.5,-7.5806e-05,0.17439,-8.0406e-05,-34.391,0.83501
25850,12.513,5.4545,0.1,0.00023203,2318.7,0.00023115,2293.6,-7.4074e-05,0.29721,-8.0716e-05,-49.608,0.80019
25851,12.605,5.5455,0.1,0.00023222,2320.6,0.00023145,2298.6,-7.4443e-05,0.21444,-8.0276e-05,-43.61,0.81152
25852,12.329,5.4545,0.1,0.0002267,2265.5,0.00022562,2234.7,-7.1753e-05,0.38002,-7.9884e-05,-60.711,0.77695
25853,12.421,5.5455,0.1,0.00022754,2273.8,0.00022658,2246.7,-7.2399e-05,0.27189,-7.9556e-05,-53.507,0.7882
25854,12.145,5.4545,0.1,0.00021885,2187,0.00021754,2150.4,-6.8583e-05,0.50583,-7.8231e-05,-71.991,0.75386
25855,12.237,5.5455,0.1,0.00022048,2203.2,0.00021933,2170.9,-6.9551e-05,0.3553,-7.807e-05,-63.651,0.76502
25856,11.961,5.4545,0.1,0.00020801,2078.7,0.00020649,2036.3,-6.4436e-05,0.69776,-7.5568e-05,-82.945,0.73091
25857,12.053,5.5455,0.1,0.00021056,2104.1,0.00020922,2066.7,-6.5775e-05,0.48327,-7.5613e-05,-73.436,0.74199
25858,11.778,5.4545,0.1,0.00019382,1936.8,0.00019207,1888.9,-5.9196e-05,1.0085,-7.1748e-05,-93.303,0.7081
25859,11.869,5.5455,0.1,0.00019733,1972,0.00019582,1929.9,-6.0949e-05,0.68659,-7.1977e-05,-82.174,0.71909
25860,11.594,5.4545,0.1,0.00017615,1760.3,0.00017417,1706.8,-5.2785e-05,1.4788,-6.6801e-05,-103.83,0.6854
25861,11.686,5.5455,0.1,0.00018045,1803.3,0.00017878,1757.4,-5.4975e-05,1.058,-6.7016e-05,-89.417,0.69632
25862,11.41,5.4545,0.1,0.00015561,1555.1,0.00015329,1493.6,-4.5189e-05,2.3023,-6.1228e-05,-118.21,0.66282
25863,11.502,5.5455,0.1,0.00015992,1598.1,0.00015809,1548.7,-4.7808e-05,1.6527,-6.0797e-05,-95.945,0.67367
25864,11.226,5.4545,0.1,0.00013452,1344.3,0.00013139,1264.9,-3.6578e-05,2.7825,-5.6747e-05,-148.76,0.64032
25865,11.318,5.5455,0.1,0.0001366,1365,0.00013452,1310.2,-3.9468e-05,2.957,-5.3979e-05,-106.08,0.6511
25866,11.042,5.4545,0.1,0.0001208,1207.2,0.00011497,1071.9,-2.702e-05,5.0543,-5.9423e-05,-238.41,0.61788
25867,11.134,5.5455,0.1,0.00011372,1136.4,0.00011081,1063.4,-3.0291e-05,3.1929,-4.8871e-05,-136.41,0.62861
25868,10.95,5.5455,0.1,0.00010323,1031.6,9.6656e-05,885.8,-2.0248e-05,7.4276,-5.4528e-05,-250.14,0.60617
25869,10.859,5.4545,0.1,9.7086e-05,970.19,9.0577e-05,823.84,-1.9272e-05,-1.5191,-5.1657e-05,-244.85,0.59547
25870,23.724,5.6364,0.1,9.415e-06,94.085,7.2939e-06,55.359,-5.3132e-08,0.15611,-7.1646e-06,-53.277,2.4364
25871,23.816,5.7273,0.1,7.1184e-06,71.135,5.1896e-06,37.202,2.8848e-07,0.37702,-5.7236e-06,-44.796,2.4506
25872,23.908,5.6364,0.1,7.2721e-06,72.671,4.1185e-06,21.437,1.2429e-06,-0.16936,-6.6651e-06,-59.587,2.465
25873,23.541,5.6364,0.1,1.2252e-05,122.44,1.0703e-05,91.101,-1.4157e-06,0.046777,-7.8222e-06,-48.089,2.4078
25874,23.632,5.7273,0.1,9.9419e-06,99.35,8.5911e-06,72.365,-1.0334e-06,0.051002,-6.486e-06,-40.918,2.422
25875,23.357,5.6364,0.1,1.5569e-05,155.58,1.4312e-05,128.24,-2.7442e-06,0.087718,-8.7279e-06,-44.871,2.3792
25876,23.449,5.7273,0.1,1.3358e-05,133.49,1.2255e-05,109.59,-2.3161e-06,0.1125,-7.5369e-06,-39.114,2.3934
25877,23.173,5.6364,0.1,1.9118e-05,191.05,1.8033e-05,166.18,-4.0723e-06,0.082493,-9.7542e-06,-42.609,2.3506
25878,23.265,5.7273,0.1,1.6995e-05,169.84,1.6027e-05,147.65,-3.6127e-06,0.087916,-8.6804e-06,-37.989,2.3648
25879,22.989,5.6364,0.1,2.2793e-05,227.77,2.1822e-05,204.63,-5.4013e-06,0.081746,-1.0845e-05,-40.819,2.322
25880,23.081,5.7273,0.1,2.0738e-05,207.24,1.9857e-05,186.21,-4.916e-06,0.082582,-9.8642e-06,-37.096,2.3362
25881,22.805,5.6364,0.1,2.6543e-05,265.25,2.5656e-05,243.44,-6.7339e-06,0.076955,-1.1974e-05,-39.291,2.2934
25882,22.897,5.7273,0.1,2.4542e-05,245.25,2.3722e-05,225.11,-6.2278e-06,0.072297,-1.1068e-05,-36.295,2.3076
25883,22.622,5.6364,0.1,3.0345e-05,303.24,2.9522e-05,282.53,-8.0703e-06,0.072168,-1.3127e-05,-37.92,2.2648
25884,22.713,5.7273,0.1,2.8385e-05,283.65,2.7614e-05,264.24,-7.5466e-06,0.064402,-1.2283e-05,-35.521,2.279
25885,22.438,5.6364,0.1,3.4183e-05,341.6,3.3413e-05,321.82,-9.4106e-06,0.067158,-1.4297e-05,-36.647,2.2363
25886,22.53,5.7273,0.1,3.2256e-05,322.34,3.1525e-05,303.58,-8.8717e-06,0.057181,-1.3505e-05,-34.752,2.2505
25887,22.254,5.6364,0.1,3.805e-05,380.24,3.7324e-05,361.31,-1.0755e-05,0.062346,-1.548e-05,-35.441,2.2078
25888,22.346,5.7273,0.1,3.615e-05,361.25,3.5452e-05,343.08,-1.0202e-05,0.050992,-1.4731e-05,-33.977,2.2219
25889,22.07,5.6364,0.1,4.1941e-05,419.12,4.1253e-05,400.95,-1.2103e-05,0.05778,-1.6673e-05,-34.283,2.1793
25890,22.162,5.7273,0.1,4.0062e-05,400.34,3.9394e-05,382.73,-1.1538e-05,0.045596,-1.5962e-05,-33.193,2.1934
25891,21.886,5.6364,0.1,4.5852e-05,458.2,4.5198e-05,440.75,-1.3454e-05,0.053504,-1.7875e-05,-33.162,2.1508
25892,21.978,5.7273,0.1,4.399e-05,439.6,4.335e-05,422.52,-1.2879e-05,0.040895,-1.7196e-05,-32.398,2.1649
25893,21.703,5.6364,0.1,4.9782e-05,497.47,4.9159e-05,480.68,-1.481e-05,0.049526,-1.9085e-05,-32.071,2.1224
25894,21.794,5.7273,0.1,4.7934e-05,479.01,4.7319e-05,462.45,-1.4224e-05,0.03678,-1.8434e-05,-31.596,2.1365
25895,21.519,5.6364,0.1,5.3729e-05,536.92,5.3135e-05,520.76,-1.6169e-05,0.045835,-2.0301e-05,-31.005,2.094
25896,21.611,5.7273,0.1,5.1892e-05,518.56,5.13e-05,502.5,-1.5574e-05,0.033173,-1.9676e-05,-30.786,2.1081
25897,21.335,5.6364,0.1,5.7692e-05,576.53,5.7125e-05,560.98,-1.7532e-05,0.042402,-2.1525e-05,-29.959,2.0656
25898,21.427,5.7273,0.1,5.5865e-05,558.26,5.5295e-05,542.69,-1.6928e-05,0.029986,-2.0921e-05,-29.97,2.0797
25899,21.151,5.6364,0.1,6.1672e-05,616.3,6.1129e-05,601.34,-1.8898e-05,0.039207,-2.2754e-05,-28.933,2.0372
25900,21.243,5.7273,0.1,5.9851e-05,598.1,5.9302e-05,583,-1.8287e-05,0.027157,-2.217e-05,-29.151,2.0513
25901,20.967,5.6364,0.1,6.5668e-05,656.23,6.5149e-05,641.84,-2.0269e-05,0.036219,-2.3991e-05,-27.923,2.0089
25902,21.059,5.7273,0.1,6.3852e-05,638.08,6.3323e-05,623.45,-1.965e-05,0.024629,-2.3424e-05,-28.33,2.023
25903,20.784,5.6364,0.1,6.968e-05,696.32,6.9183e-05,682.48,-2.1645e-05,0.03342,-2.5233e-05,-26.928,1.9807
25904,20.875,5.7273,0.1,6.7867e-05,678.2,6.7357e-05,664.04,-2.1018e-05,0.022352,-2.4682e-05,-27.507,1.9947
25905,20.6,5.6364,0.1,7.3708e-05,736.57,7.3232e-05,723.27,-2.3024e-05,0.030799,-2.6482e-05,-25.947,1.9525
25906,20.692,5.7273,0.1,7.1897e-05,718.47,7.1406e-05,704.77,-2.239e-05,0.020299,-2.5944e-05,-26.683,1.9665
25907,20.416,5.6364,0.1,7.7752e-05,776.98,7.7297e-05,764.21,-2.4409e-05,0.028337,-2.7737e-05,-24.977,1.9243
25908,20.508,5.7273,0.1,7.5942e-05,758.89,7.5469e-05,745.64,-2.3767e-05,0.01845,-2.7211e-05,-25.86,1.9383
25909,20.232,5.6364,0.1,8.1813e-05,817.56,8.1378e-05,805.3,-2.5798e-05,0.026008,-2.8998e-05,-24.018,1.8962
25910,20.324,5.7273,0.1,8.0002e-05,799.47,7.9547e-05,786.66,-2.5149e-05,0.016766,-2.8484e-05,-25.036,1.9101
25911,20.048,5.6364,0.1,8.589e-05,858.31,8.5475e-05,846.56,-2.7192e-05,0.023794,-3.0265e-05,-23.067,1.8682
25912,20.14,5.7273,0.1,8.4078e-05,840.2,8.364e-05,827.84,-2.6537e-05,0.015221,-2.9761e-05,-24.213,1.882
25913,19.865,5.6364,0.1,8.9985e-05,899.23,8.9588e-05,887.97,-2.8591e-05,0.02167,-3.1538e-05,-22.124,1.8401
25914,19.956,5.7273,0.1,8.8171e-05,881.1,8.775e-05,869.18,-2.7929e-05,0.013795,-3.1044e-05,-23.39,1.854
25915,19.681,5.6364,0.1,9.4097e-05,940.32,9.3719e-05,929.55,-2.9995e-05,0.019625,-3.2817e-05,-21.185,1.8122
25916,19.773,5.7273,0.1,9.228e-05,922.16,9.1875e-05,910.68,-2.9327e-05,0.012457,-3.2332e-05,-22.566,1.826
25917,19.497,5.6364,0.1,9.8226e-05,981.58,9.7866e-05,971.31,-3.1405e-05,0.017663,-3.4102e-05,-20.25,1.7843
25918,19.589,5.7273,0.1,9.6406e-05,963.39,9.6017e-05,952.34,-3.073e-05,0.011208,-3.3625e-05,-21.74,1.7981
25919,19.313,5.6364,0.1,0.00010237,1023,0.00010203,1013.2,-3.282e-05,0.015767,-3.5393e-05,-19.317,1.7565
25920,19.405,5.7273,0.1,0.00010055,1004.8,0.00010018,994.18,-3.2139e-05,0.010055,-3.4924e-05,-20.913,1.7702
25921,19.129,5.6364,0.1,0.00010654,1064.6,0.00010621,1055.3,-3.4242e-05,0.013915,-3.669e-05,-18.383,1.7288
25922,19.221,5.7273,0.1,0.00010471,1046.4,0.00010435,1036.2,-3.3554e-05,0.0089641,-3.6228e-05,-20.083,1.7425
25923,18.946,5.6364,0.1,0.00011072,1106.4,0.00011041,1097.6,-3.5669e-05,0.012095,-3.7993e-05,-17.447,1.7011
25924,19.038,5.7273,0.1,0.00010889,1088.1,0.00010855,1078.4,-3.4975e-05,0.0079249,-3.7538e-05,-19.249,1.7147
25925,18.762,5.6364,0.1,0.00011492,1148.4,0.00011463,1140.1,-3.7103e-05,0.010286,-3.9301e-05,-16.506,1.6735
25926,18.854,5.7273,0.1,0.00011308,1130.1,0.00011276,1120.7,-3.6402e-05,0.0069285,-3.8853e-05,-18.41,1.6871
25927,18.578,5.6364,0.1,0.00011914,1190.6,0.00011887,1182.7,-3.8543e-05,0.0084799,-4.0615e-05,-15.559,1.6459
25928,18.67,5.7273,0.1,0.0001173,1172.2,0.00011699,1163.3,-3.7835e-05,0.0059503,-4.0173e-05,-17.564,1.6595
25929,18.394,5.6364,0.1,0.00012338,1232.9,0.00012312,1225.6,-3.9989e-05,0.0066893,-4.1934e-05,-14.605,1.6185
25930,18.486,5.7273,0.1,0.00012153,1214.5,0.00012124,1206,-3.9274e-05,0.0050069,-4.1499e-05,-16.712,1.632
25931,18.21,5.6364,0.1,0.00012764,1275.5,0.0001274,1268.6,-4.1442e-05,0.0049059,-4.3258e-05,-13.641,1.5911
25932,18.302,5.7273,0.1,0.00012578,1257,0.00012551,1249,-4.0721e-05,0.0041162,-4.2831e-05,-15.851,1.6046
25933,18.027,5.6364,0.1,0.00013191,1318.2,0.00013169,1311.8,-4.2901e-05,0.0031065,-4.4588e-05,-12.666,1.5639
25934,18.119,5.7273,0.1,0.00013005,1299.6,0.00012979,1292.1,-4.2173e-05,0.0032532,-4.4168e-05,-14.982,1.5773
25935,17.843,5.6364,0.1,0.0001362,1361.1,0.000136,1355.2,-4.4368e-05,0.0012808,-4.5922e-05,-11.68,1.5367
25936,17.935,5.7273,0.1,0.00013434,1342.5,0.0001341,1335.4,-4.3632e-05,0.0024134,-4.551e-05,-14.102,1.55
25937,17.659,5.6364,0.1,0.00014052,1404.2,0.00014033,1398.8,-4.584e-05,-0.00058577,-4.7262e-05,-10.682,1.5096
25938,17.751,5.7273,0.1,0.00013865,1385.5,0.00013842,1378.9,-4.5098e-05,0.0015992,-4.6857e-05,-13.213,1.5229
25939,17.475,5.6364,0.1,0.00014485,1447.5,0.00014468,1442.6,-4.7319e-05,-0.0024924,-4.8606e-05,-9.6724,1.4825
25940,17.567,5.7273,0.1,0.00014297,1428.8,0.00014276,1422.6,-4.657e-05,0.00079821,-4.8209e-05,-12.314,1.4958
25941,17.291,5.6364,0.1,0.00014919,1490.9,0.00014904,1486.6,-4.8805e-05,-0.0044133,-4.9956e-05,-8.6515,1.4556
25942,17.383,5.7273,0.1,0.00014732,1472.2,0.00014712,1466.4,-4.8049e-05,4.9713e-05,-4.9567e-05,-11.406,1.4688
25943,17.108,5.6364,0.1,0.00015356,1534.5,0.00015343,1530.7,-5.0296e-05,-0.0063447,-5.131e-05,-7.6216,1.4288
25944,17.2,5.7273,0.1,0.00015168,1515.7,0.0001515,1510.5,-4.9533e-05,-0.00059977,-5.0929e-05,-10.489,1.442
25945,16.924,5.6364,0.1,0.00015794,1578.3,0.00015782,1575,-5.1793e-05,-0.008292,-5.2669e-05,-6.5856,1.4021
25946,17.016,5.7273,0.1,0.00015606,1559.5,0.00015589,1554.7,-5.1024e-05,-0.0011479,-5.2297e-05,-9.5674,1.4152
25947,16.74,5.6364,0.1,0.00016233,1622.2,0.00016224,1619.4,-5.3295e-05,-0.010232,-5.4032e-05,-5.5481,1.3755
25948,16.832,5.7273,0.1,0.00016045,1603.4,0.0001603,1599,-5.2519e-05,-0.0015553,-5.3669e-05,-8.6431,1.3885
25949,16.556,5.6364,0.1,0.00016674,1666.3,0.00016666,1664,-5.4801e-05,-0.012123,-5.5401e-05,-4.5153,1.349
25950,16.648,5.7273,0.1,0.00016485,1647.4,0.00016472,1643.5,-5.4019e-05,-0.0017515,-5.5047e-05,-7.7209,1.362
25951,16.372,5.6364,0.1,0.00017116,1710.4,0.0001711,1708.7,-5.6311e-05,-0.013839,-5.6774e-05,-3.4957,1.3226
25952,16.464,5.7273,0.1,0.00016927,1691.6,0.00016916,1688.1,-5.5523e-05,-0.0016528,-5.6428e-05,-6.807,1.3355
25953,16.189,5.6364,0.1,0.00017559,1754.7,0.00017554,1753.4,-5.7821e-05,-0.01504,-5.8152e-05,-2.5006,1.2963
25954,16.281,5.7273,0.1,0.0001737,1735.8,0.0001736,1732.8,-5.7028e-05,-0.0010627,-5.7814e-05,-5.9095,1.3092
25955,16.005,5.6364,0.1,0.00018002,1798.9,0.00017999,1798.2,-5.9331e-05,-0.014684,-5.9534e-05,-1.545,1.2702
25956,16.097,5.7273,0.1,0.00017813,1780.1,0.00017805,1777.6,-5.8534e-05,0.0003103,-5.9205e-05,-5.0387,1.283
25957,15.821,5.6364,0.1,0.00018445,1843.2,0.00018444,1842.9,-6.0836e-05,-0.0062262,-6.0923e-05,-0.65306,1.2442
25958,15.913,5.7273,0.1,0.00018257,1824.4,0.00018249,1822.3,-6.0038e-05,0.0028473,-6.0599e-05,-4.2081,1.2569
25959,15.637,5.6364,0.1,0.00018887,1887.4,0.00018888,1887.5,-6.2305e-05,0.23781,-6.2346e-05,-0.074172,1.2183
25960,15.729,5.7273,0.1,0.00018699,1868.7,0.00018694,1866.9,-6.1537e-05,0.0072172,-6.1995e-05,-3.4342,1.2309
25961,15.453,5.6364,0.1,0.00019328,1931.5,0.0001933,1931.9,-6.3703e-05,0.92715,-6.3832e-05,-0.044858,1.1925
25962,15.545,5.7273,0.1,0.00019141,1912.8,0.00019136,1911.4,-6.3028e-05,0.014489,-6.3394e-05,-2.7379,1.2051
25963,15.27,5.6364,0.1,0.00019766,1975.2,0.00019769,1976,-6.51e-05,1.5085,-6.5307e-05,-0.044241,1.1668
25964,15.362,5.7273,0.1,0.0001958,1956.6,0.00019576,1955.6,-6.4505e-05,0.026172,-6.4794e-05,-2.1446,1.1793
25965,15.086,5.6364,0.1,0.000202,2018.6,0.00020203,2019.5,-6.6497e-05,1.9188,-6.6759e-05,-0.047874,1.1413
25966,15.178,5.7273,0.1,0.00020015,2000.1,0.00020012,1999.3,-6.5963e-05,0.043728,-6.6193e-05,-1.6845,1.1538
25967,14.902,5.6364,0.1,0.00020628,2061.4,0.00020631,2062.4,-6.7893e-05,2.1111,-6.8181e-05,-0.054912,1.1159
25968,14.994,5.7273,0.1,0.00020445,2043.1,0.00020443,2042.4,-6.7394e-05,0.065855,-6.7587e-05,-1.3905,1.1283
25969,14.718,5.6364,0.1,0.00021047,2103.3,0.00021051,2104.2,-6.9282e-05,2.0344,-6.9562e-05,-0.06814,1.0907
25970,14.81,5.7273,0.1,0.00020867,2085.2,0.00020865,2084.6,-6.8789e-05,0.084252,-6.8972e-05,-1.2948,1.103
25971,14.534,5.6364,0.1,0.00021455,2144,0.00021458,2144.8,-7.066e-05,1.6374,-7.0891e-05,-0.098363,1.0656
25972,14.626,5.7273,0.1,0.00021278,2126.3,0.00021276,2125.6,-7.0139e-05,0.087742,-7.0341e-05,-1.4332,1.0778
25973,14.351,5.6364,0.1,0.00021847,2183.2,0.00021848,2183.6,-7.2009e-05,0.90933,-7.2158e-05,-0.20567,1.0406
25974,14.443,5.7273,0.1,0.00021675,2166,0.00021672,2165.1,-7.1428e-05,0.0762,-7.1685e-05,-1.86,1.0528
25975,14.167,5.6364,0.1,0.00022219,2220.3,0.00022218,2220,-7.3257e-05,0.25674,-7.3407e-05,-0.87566,1.0158
25976,14.259,5.7273,0.1,0.00022052,2203.7,0.00022048,2202.4,-7.2636e-05,0.059796,-7.2996e-05,-2.6471,1.0279
25977,13.983,5.6364,0.1,0.00022563,2254.7,0.00022559,2253.5,-7.4318e-05,0.11048,-7.4683e-05,-2.6256,0.99116
25978,14.075,5.7273,0.1,0.00022405,2238.9,0.00022398,2237,-7.374e-05,0.046176,-7.4261e-05,-3.871,1.0032
25979,13.799,5.6364,0.1,0.00022872,2285.6,0.00022863,2283.1,-7.5215e-05,0.079413,-7.5912e-05,-5.1563,0.96666
25980,13.891,5.7273,0.1,0.00022724,2270.9,0.00022715,2268.1,-7.471e-05,0.03737,-7.5461e-05,-5.6092,0.97856
25981,13.616,5.6364,0.1,0.00023135,2311.9,0.00023121,2307.7,-7.592e-05,0.073808,-7.7058e-05,-8.4713,0.9423
25982,13.707,5.7273,0.1,0.00023002,2298.6,0.00022988,2294.7,-7.551e-05,0.032888,-7.6572e-05,-7.9422,0.95413
25983,13.432,5.6364,0.1,0.0002334,2332.4,0.00023318,2326.1,-7.6388e-05,0.079155,-7.8081e-05,-12.644,0.91811
25984,13.524,5.7273,0.1,0.00023226,2321,0.00023207,2315.5,-7.6098e-05,0.031879,-7.756e-05,-10.951,0.92985
25985,13.248,5.6364,0.1,0.0002347,2345.4,0.00023439,2336.5,-7.6562e-05,0.091703,-7.8936e-05,-17.745,0.89407
25986,13.34,5.7273,0.1,0.0002338,2336.4,0.00023355,2329,-7.6422e-05,0.033639,-7.8385e-05,-14.715,0.90572
25987,13.064,5.6364,0.1,0.00023505,2348.9,0.00023464,2336.9,-7.6374e-05,0.11044,-7.9558e-05,-23.815,0.87018
25988,13.156,5.7273,0.1,0.00023448,2343.1,0.00023414,2333.5,-7.6416e-05,0.037637,-7.899e-05,-19.3,0.88176
25989,12.88,5.6364,0.1,0.0002342,2340.4,0.00023367,2324.9,-7.5743e-05,0.13544,-7.9866e-05,-30.844,0.84646
25990,12.972,5.7273,0.1,0.00023406,2338.9,0.00023363,2326.5,-7.6006e-05,0.043616,-7.9305e-05,-24.747,0.85794
25991,12.697,5.6364,0.1,0.00023187,2317.1,0.00023119,2297.6,-7.4576e-05,0.16755,-7.9753e-05,-38.735,0.82289
25992,12.788,5.7273,0.1,0.00023227,2321.1,0.00023173,2305.4,-7.5101e-05,0.051658,-7.9241e-05,-31.05,0.83429
25993,12.513,5.6364,0.1,0.00022769,2275.3,0.00022685,2251.4,-7.2765e-05,0.20873,-7.9084e-05,-47.269,0.79948
25994,12.605,5.7273,0.1,0.00022879,2286.3,0.00022812,2267.1,-7.36e-05,0.062516,-7.8683e-05,-38.13,0.81079
25995,12.329,5.6364,0.1,0.00022125,2210.9,0.00022024,2182.5,-7.0195e-05,0.26337,-7.7689e-05,-56.048,0.77622
25996,12.421,5.7273,0.1,0.00022325,2230.9,0.00022243,2207.7,-7.1385e-05,0.07902,-7.749e-05,-45.794,0.78745
25997,12.145,5.6364,0.1,0.00021209,2119.4,0.00021092,2086.6,-6.6742e-05,0.34228,-7.5367e-05,-64.461,0.7531
25998,12.237,5.7273,0.1,0.0002152,2150.6,0.00021424,2123.3,-6.8333e-05,0.10828,-7.5492e-05,-53.686,0.76425
25999,11.961,5.6364,0.1,0.00019973,1995.9,0.00019842,1959.3,-6.2289e-05,0.46853,-7.1889e-05,-71.668,0.73013
26000,12.053,5.7273,0.1,0.0002042,2040.6,0.00020309,2009.4,-6.4315e-05,0.16966,-7.2489e-05,-61.248,0.74119
26001,11.778,5.6364,0.1,0.00018373,1836,0.00018231,1796.8,-5.6731e-05,0.70883,-6.7034e-05,-76.707,0.70728
26002,11.869,5.7273,0.1,0.00018977,1896.3,0.00018853,1861.7,-5.9214e-05,0.30192,-6.8264e-05,-67.702,0.71827
26003,11.594,5.6364,0.1,0.00016382,1637,0.00016235,1596.7,-5.0004e-05,1.1759,-6.0661e-05,-78.895,0.68455
26004,11.686,5.7273,0.1,0.0001715,1713.8,0.00017017,1676.9,-5.2932e-05,0.62504,-6.2614e-05,-72.128,0.69547
26005,11.41,5.6364,0.1,0.00014015,1400.5,0.00013866,1360.4,-4.2086e-05,2.3106,-5.29e-05,-78.943,0.66193
26006,11.502,5.7273,0.1,0.00014919,1490.9,0.00014781,1453.2,-4.5418e-05,1.2976,-5.5422e-05,-73.867,0.67278
26007,11.226,5.6364,0.1,0.00011407,1139.9,0.00011247,1097.7,-3.3108e-05,3.9137,-4.4714e-05,-83.292,0.63938
26008,11.318,5.7273,0.1,0.00012306,1229.7,0.00012168,1192.8,-3.6646e-05,3.1729,-4.6844e-05,-73.449,0.65018
26009,11.042,5.6364,0.1,9.1722e-05,916.58,8.9027e-05,851.2,-2.3259e-05,7.5237,-4.0773e-05,-124.07,0.61689
26010,11.134,5.7273,0.1,9.4644e-05,945.79,9.3123e-05,906.5,-2.68e-05,5.4452,-3.7963e-05,-78.426,0.62765
26011,10.95,5.7273,0.1,7.2153e-05,721.03,6.9066e-05,651.2,-1.5925e-05,12.613,-3.5004e-05,-130.74,0.60517
26012,10.859,5.6364,0.1,6.7896e-05,678.49,6.485e-05,605.55,-1.6064e-05,-2.3969,-3.2564e-05,-126.38,0.59444
26013,23.724,5.8182,0.1,7.6892e-06,76.839,6.5669e-06,54.811,-6.871e-07,0.30706,-5.1298e-06,-33.073,2.4362
26014,23.816,5.9091,0.1,4.8631e-06,48.597,4.1467e-06,34.502,-4.3627e-07,0.066952,-3.2518e-06,-21.087,2.4505
26015,23.908,5.8182,0.1,4.8147e-06,48.114,3.1895e-06,20.513,4.632e-07,0.028599,-4.126e-06,-34.453,2.4649
26016,23.541,5.8182,0.1,1.1155e-05,111.48,1.0235e-05,91.549,-1.9341e-06,0.11431,-6.2925e-06,-32.633,2.4076
26017,23.632,5.9091,0.1,8.221e-06,82.153,7.6358e-06,69.11,-1.5815e-06,-0.14542,-4.4449e-06,-21.66,2.4219
26018,23.357,5.8182,0.1,1.4887e-05,148.77,1.4054e-05,129.63,-3.1862e-06,0.10009,-7.571e-06,-32.845,2.379
26019,23.449,5.9091,0.1,1.1839e-05,118.31,1.131e-05,105.74,-2.7702e-06,-0.049465,-5.6922e-06,-22.005,2.3932
26020,23.173,5.8182,0.1,1.8704e-05,186.91,1.7923e-05,168.24,-4.4585e-06,0.072658,-8.8608e-06,-33.005,2.3504
26021,23.265,5.9091,0.1,1.5571e-05,155.6,1.5073e-05,143.28,-4.0013e-06,-0.035592,-6.9542e-06,-22.223,2.3646
26022,22.989,5.8182,0.1,2.2564e-05,225.48,2.182e-05,207.17,-5.7446e-06,0.057508,-1.0149e-05,-33.033,2.3218
26023,23.081,5.9091,0.1,1.9366e-05,193.53,1.889e-05,181.41,-5.2567e-06,-0.016714,-8.2198e-06,-22.28,2.336
26024,22.805,5.8182,0.1,2.645e-05,264.32,2.5736e-05,246.33,-7.0425e-06,0.044753,-1.1432e-05,-32.933,2.2932
26025,22.897,5.9091,0.1,2.3205e-05,231.89,2.2746e-05,219.97,-6.5309e-06,-0.0084673,-9.4879e-06,-22.226,2.3074
26026,22.622,5.8182,0.1,3.0356e-05,303.35,2.9667e-05,285.68,-8.3498e-06,0.035382,-1.271e-05,-32.722,2.2647
26027,22.713,5.9091,0.1,2.7076e-05,270.57,2.6632e-05,258.85,-7.819e-06,-0.0025569,-1.0758e-05,-22.085,2.2789
26028,22.438,5.8182,0.1,3.4277e-05,342.54,3.3611e-05,325.19,-9.6651e-06,0.028027,-1.3984e-05,-32.419,2.2361
26029,22.53,5.9091,0.1,3.0973e-05,309.52,3.0543e-05,298,-9.1182e-06,0.0010394,-1.203e-05,-21.878,2.2503
26030,22.254,5.8182,0.1,3.8211e-05,381.85,3.7566e-05,364.83,-1.0987e-05,0.022285,-1.5255e-05,-32.04,2.2076
26031,22.346,5.9091,0.1,3.4892e-05,348.68,3.4474e-05,337.37,-1.0427e-05,0.0034399,-1.3304e-05,-21.619,2.2218
26032,22.07,5.8182,0.1,4.2158e-05,421.29,4.1532e-05,404.61,-1.2316e-05,0.017732,-1.6524e-05,-31.598,2.1791
26033,22.162,5.9091,0.1,3.8831e-05,388.04,3.8424e-05,376.94,-1.1743e-05,0.0049841,-1.4581e-05,-21.318,2.1932
26034,21.886,5.8182,0.1,4.6116e-05,460.84,4.5508e-05,444.51,-1.365e-05,0.014102,-1.7792e-05,-31.104,2.1506
26035,21.978,5.9091,0.1,4.2786e-05,427.56,4.239e-05,416.69,-1.3067e-05,0.0059684,-1.586e-05,-20.983,2.1647
26036,21.703,5.8182,0.1,5.0086e-05,500.51,4.9496e-05,484.53,-1.499e-05,0.011197,-1.906e-05,-30.568,2.1222
26037,21.794,5.9091,0.1,4.6757e-05,467.25,4.6372e-05,456.6,-1.4397e-05,0.0065645,-1.7142e-05,-20.622,2.1363
26038,21.519,5.8182,0.1,5.4067e-05,540.3,5.3494e-05,524.68,-1.6335e-05,0.0088664,-2.0328e-05,-29.997,2.0937
26039,21.611,5.9091,0.1,5.0744e-05,507.09,5.037e-05,496.67,-1.5732e-05,0.0068935,-1.8427e-05,-20.239,2.1078
26040,21.335,5.8182,0.1,5.806e-05,580.2,5.7504e-05,564.95,-1.7685e-05,0.0069923,-2.1598e-05,-29.397,2.0654
26041,21.427,5.9091,0.1,5.4746e-05,547.08,5.4382e-05,536.9,-1.7074e-05,0.0070303,-1.9715e-05,-19.839,2.0794
26042,21.151,5.8182,0.1,6.2066e-05,620.23,6.1526e-05,605.35,-1.904e-05,0.005484,-2.287e-05,-28.773,2.037
26043,21.243,5.9091,0.1,5.8763e-05,587.22,5.8408e-05,577.27,-1.8421e-05,0.0070223,-2.1007e-05,-19.424,2.0511
26044,20.967,5.8182,0.1,6.6084e-05,660.39,6.5561e-05,645.88,-2.0399e-05,0.0042679,-2.4144e-05,-28.129,2.0087
26045,21.059,5.9091,0.1,6.2795e-05,627.51,6.245e-05,617.8,-1.9773e-05,0.0069103,-2.2303e-05,-18.998,2.0227
26046,20.784,5.8182,0.1,7.0116e-05,700.68,6.9609e-05,686.54,-2.1764e-05,0.0032925,-2.5421e-05,-27.47,1.9804
26047,20.875,5.9091,0.1,6.6841e-05,667.95,6.6506e-05,658.48,-2.1131e-05,0.0067125,-2.3603e-05,-18.564,1.9944
26048,20.6,5.8182,0.1,7.4162e-05,741.11,7.367e-05,727.35,-2.3134e-05,0.0025272,-2.6701e-05,-26.797,1.9522
26049,20.692,5.9091,0.1,7.0903e-05,708.54,7.0578e-05,699.31,-2.2494e-05,0.0064619,-2.4907e-05,-18.121,1.9662
26050,20.416,5.8182,0.1,7.8222e-05,781.68,7.7745e-05,768.3,-2.4509e-05,0.001937,-2.7984e-05,-26.113,1.924
26051,20.508,5.9091,0.1,7.4981e-05,749.29,7.4665e-05,740.3,-2.3863e-05,0.0061855,-2.6216e-05,-17.673,1.938
26052,20.232,5.8182,0.1,8.2297e-05,822.4,8.1835e-05,809.4,-2.5889e-05,0.0014863,-2.9272e-05,-25.419,1.8959
26053,20.324,5.9091,0.1,7.9074e-05,790.2,7.8767e-05,781.45,-2.5236e-05,0.0058813,-2.7529e-05,-17.22,1.9098
26054,20.048,5.8182,0.1,8.6387e-05,863.27,8.594e-05,850.65,-2.7274e-05,0.0011519,-3.0564e-05,-24.717,1.8679
26055,20.14,5.9091,0.1,8.3184e-05,831.27,8.2886e-05,822.76,-2.6616e-05,0.0055544,-2.8847e-05,-16.763,1.8817
26056,19.865,5.8182,0.1,9.0493e-05,904.31,9.0061e-05,892.06,-2.8665e-05,0.00091045,-3.1861e-05,-24.008,1.8398
26057,19.956,5.9091,0.1,8.731e-05,872.5,8.7022e-05,864.24,-2.8001e-05,0.0052131,-3.0171e-05,-16.302,1.8537
26058,19.681,5.8182,0.1,9.4615e-05,945.5,9.4197e-05,933.64,-3.0062e-05,0.0007483,-3.3162e-05,-23.292,1.8119
26059,19.773,5.9091,0.1,9.1453e-05,913.9,9.1174e-05,905.88,-2.9391e-05,0.0048473,-3.15e-05,-15.839,1.8257
26060,19.497,5.8182,0.1,9.8754e-05,986.86,9.8351e-05,975.38,-3.1464e-05,0.00067127,-3.4468e-05,-22.57,1.784
26061,19.589,5.9091,0.1,9.5614e-05,955.48,9.5343e-05,947.7,-3.0788e-05,0.0044786,-3.2834e-05,-15.373,1.7978
26062,19.313,5.8182,0.1,0.00010291,1028.4,0.00010252,1017.3,-3.2873e-05,0.00067138,-3.578e-05,-21.842,1.7562
26063,19.405,5.9091,0.1,9.9792e-05,997.23,9.953e-05,989.69,-3.219e-05,0.0041264,-3.4174e-05,-14.904,1.7699
26064,19.129,5.8182,0.1,0.00010708,1070.1,0.00010671,1059.4,-3.4287e-05,0.00072963,-3.7096e-05,-21.107,1.7284
26065,19.221,5.9091,0.1,0.00010399,1039.2,0.00010373,1031.9,-3.3598e-05,0.0037753,-3.552e-05,-14.432,1.7421
26066,18.946,5.8182,0.1,0.00011127,1112,0.00011091,1101.7,-3.5707e-05,0.00084107,-3.8418e-05,-20.366,1.7007
26067,19.038,5.9091,0.1,0.0001082,1081.3,0.00010796,1074.2,-3.5013e-05,0.0034225,-3.6871e-05,-13.958,1.7144
26068,18.762,5.8182,0.1,0.00011548,1154,0.00011514,1144.1,-3.7134e-05,0.00099446,-3.9745e-05,-19.618,1.6731
26069,18.854,5.9091,0.1,0.00011243,1123.6,0.0001122,1116.8,-3.6433e-05,0.0030739,-3.8228e-05,-13.481,1.6867
26070,18.578,5.8182,0.1,0.00011971,1196.3,0.00011938,1186.7,-3.8567e-05,0.0011909,-4.1077e-05,-18.863,1.6456
26071,18.67,5.9091,0.1,0.00011669,1166,0.00011646,1159.5,-3.786e-05,0.0027111,-3.9591e-05,-13,1.6591
26072,18.394,5.8182,0.1,0.00012396,1238.7,0.00012364,1229.6,-4.0006e-05,0.0014533,-4.2415e-05,-18.101,1.6181
26073,18.486,5.9091,0.1,0.00012096,1208.7,0.00012074,1202.4,-3.9294e-05,0.0023626,-4.096e-05,-12.517,1.6316
26074,18.21,5.8182,0.1,0.00012822,1281.3,0.00012792,1272.6,-4.1452e-05,0.0017825,-4.3759e-05,-17.33,1.5907
26075,18.302,5.9091,0.1,0.00012525,1251.6,0.00012504,1245.5,-4.0733e-05,0.0020476,-4.2335e-05,-12.029,1.6042
26076,18.027,5.8182,0.1,0.00013251,1324.1,0.00013222,1315.8,-4.2904e-05,0.0021705,-4.5107e-05,-16.552,1.5634
26077,18.119,5.9091,0.1,0.00012955,1294.6,0.00012935,1288.8,-4.218e-05,0.0017468,-4.3716e-05,-11.538,1.5768
26078,17.843,5.8182,0.1,0.00013681,1367.1,0.00013653,1359.2,-4.4363e-05,0.0026225,-4.6462e-05,-15.766,1.5362
26079,17.935,5.9091,0.1,0.00013388,1337.9,0.00013369,1332.3,-4.3633e-05,0.0014644,-4.5102e-05,-11.042,1.5496
26080,17.659,5.8182,0.1,0.00014113,1410.3,0.00014087,1402.8,-4.5828e-05,0.003137,-4.7821e-05,-14.972,1.5091
26081,17.751,5.9091,0.1,0.00013823,1381.3,0.00013805,1376,-4.5092e-05,0.0011984,-4.6495e-05,-10.543,1.5224
26082,17.475,5.8182,0.1,0.00014547,1453.7,0.00014522,1446.5,-4.73e-05,0.0037307,-4.9186e-05,-14.171,1.4821
26083,17.567,5.9091,0.1,0.00014259,1424.9,0.00014242,1419.9,-4.6557e-05,0.00093759,-4.7894e-05,-10.04,1.4953
26084,17.291,5.8182,0.1,0.00014982,1497.2,0.00014959,1490.5,-4.8777e-05,0.004448,-5.0557e-05,-13.364,1.4552
26085,17.383,5.9091,0.1,0.00014698,1468.8,0.00014681,1464,-4.8029e-05,0.00070996,-4.9298e-05,-9.5335,1.4684
26086,17.108,5.8182,0.1,0.00015419,1540.9,0.00015398,1534.6,-5.0261e-05,0.0053097,-5.1932e-05,-12.552,1.4283
26087,17.2,5.9091,0.1,0.00015138,1512.7,0.00015122,1508.2,-4.9507e-05,0.00054882,-5.0708e-05,-9.0244,1.4415
26088,16.924,5.8182,0.1,0.00015858,1584.7,0.00015838,1578.8,-5.175e-05,0.006326,-5.3313e-05,-11.738,1.4016
26089,17.016,5.9091,0.1,0.0001558,1556.9,0.00015565,1552.6,-5.099e-05,0.00042807,-5.2123e-05,-8.5138,1.4147
26090,16.74,5.8182,0.1,0.00016299,1628.7,0.0001628,1623.3,-5.3243e-05,0.0075286,-5.4698e-05,-10.926,1.375
26091,16.832,5.9091,0.1,0.00016023,1601.2,0.00016009,1597.2,-5.2479e-05,0.00034464,-5.3544e-05,-8.0031,1.388
26092,16.556,5.8182,0.1,0.0001674,1672.9,0.00016723,1667.8,-5.474e-05,0.0089483,-5.6088e-05,-10.118,1.3485
26093,16.648,5.9091,0.1,0.00016468,1645.6,0.00016455,1641.9,-5.3971e-05,0.00029587,-5.4969e-05,-7.4944,1.3615
26094,16.372,5.8182,0.1,0.00017183,1717.1,0.00017167,1712.4,-5.624e-05,0.010639,-5.7482e-05,-9.3224,1.3221
26095,16.464,5.9091,0.1,0.00016913,1690.2,0.00016901,1686.7,-5.5467e-05,0.00024917,-5.6398e-05,-6.9905,1.335
26096,16.189,5.8182,0.1,0.00017626,1761.4,0.00017611,1757.1,-5.7741e-05,0.012689,-5.888e-05,-8.5448,1.2958
26097,16.281,5.9091,0.1,0.0001736,1734.8,0.00017349,1731.5,-5.6966e-05,0.00021081,-5.783e-05,-6.495,1.3087
26098,16.005,5.8182,0.1,0.0001807,1805.7,0.00018056,1801.8,-5.9242e-05,0.015154,-6.0281e-05,-7.7947,1.2696
26099,16.097,5.9091,0.1,0.00017807,1779.4,0.00017796,1776.4,-5.8464e-05,0.00016915,-5.9264e-05,-6.0122,1.2824
26100,15.821,5.8182,0.1,0.00018513,1850,0.000185,1846.4,-6.0739e-05,0.018058,-6.1684e-05,-7.0834,1.2436
26101,15.913,5.9091,0.1,0.00018253,1824.1,0.00018244,1821.3,-5.9961e-05,1.2597e-05,-6.07e-05,-5.5478,1.2563
26102,15.637,5.8182,0.1,0.00018954,1894.1,0.00018943,1890.9,-6.2229e-05,0.02141,-6.3087e-05,-6.4249,1.2177
26103,15.729,5.9091,0.1,0.00018699,1868.6,0.0001869,1866.1,-6.1454e-05,-0.00038766,-6.2134e-05,-5.1086,1.2303
26104,15.453,5.8182,0.1,0.00019394,1938.1,0.00019384,1935.2,-6.3709e-05,0.025122,-6.4489e-05,-5.8357,1.1919
26105,15.545,5.9091,0.1,0.00019143,1913,0.00019135,1910.6,-6.2938e-05,-0.001224,-6.3564e-05,-4.7032,1.2045
26106,15.27,5.8182,0.1,0.0001983,1981.7,0.00019821,1979,-6.5173e-05,0.028978,-6.5887e-05,-5.3362,1.1662
26107,15.362,5.9091,0.1,0.00019583,1957,0.00019576,1954.8,-6.441e-05,-0.0027908,-6.4988e-05,-4.3415,1.1787
26108,15.086,5.8182,0.1,0.00020261,2024.7,0.00020253,2022.3,-6.6614e-05,0.03256,-6.7277e-05,-4.9499,1.1407
26109,15.178,5.9091,0.1,0.00020019,2000.5,0.00020012,1998.5,-6.5864e-05,-0.0054055,-6.64e-05,-4.0357,1.1531
26110,14.902,5.8182,0.1,0.00020685,2067.1,0.00020677,2064.7,-6.8024e-05,0.035148,-6.8655e-05,-4.7048,1.1153
26111,14.994,5.9091,0.1,0.00020448,2043.4,0.00020442,2041.5,-6.7292e-05,-0.0094094,-6.7797e-05,-3.8001,1.1277
26112,14.718,5.8182,0.1,0.00021099,2108.4,0.00021091,2106.1,-6.9393e-05,0.03586,-7.0014e-05,-4.6339,1.0901
26113,14.81,5.9091,0.1,0.00020868,2085.4,0.00020862,2083.5,-6.8685e-05,-0.015132,-6.9169e-05,-3.6519,1.1023
26114,14.534,5.8182,0.1,0.00021499,2148.4,0.00021491,2146,-7.0706e-05,0.034031,-7.1346e-05,-4.7754,1.065
26115,14.626,5.9091,0.1,0.00021275,2126.1,0.00021269,2124.3,-7.0032e-05,-0.022557,-7.0509e-05,-3.6115,1.0772
26116,14.351,5.8182,0.1,0.00021881,2186.6,0.00021872,2184,-7.1948e-05,0.029603,-7.264e-05,-5.1745,1.04
26117,14.443,5.9091,0.1,0.00021666,2165.1,0.0002166,2163.2,-7.1317e-05,-0.031166,-7.1805e-05,-3.7028,1.0521
26118,14.167,5.8182,0.1,0.00022239,2222.4,0.00022229,2219.5,-7.3096e-05,0.023281,-7.3882e-05,-5.8831,1.0152
26119,14.259,5.9091,0.1,0.00022035,2201.9,0.00022028,2199.9,-7.2521e-05,-0.039926,-7.3042e-05,-3.954,1.0272
26120,13.983,5.8182,0.1,0.00022567,2255.2,0.00022555,2251.7,-7.4125e-05,0.016177,-7.5054e-05,-6.9601,0.9905
26121,14.075,5.9091,0.1,0.00022375,2235.9,0.00022367,2233.7,-7.3622e-05,-0.047492,-7.4201e-05,-4.3969,1.0025
26122,13.799,5.8182,0.1,0.00022855,2284,0.00022841,2279.7,-7.5002e-05,0.0091777,-7.613e-05,-8.4699,0.96598
26123,13.891,5.9091,0.1,0.00022678,2266.2,0.00022669,2263.7,-7.4591e-05,-0.052739,-7.5258e-05,-5.0665,0.97787
26124,13.616,5.8182,0.1,0.00023093,2307.7,0.00023075,2302.4,-7.5687e-05,0.0026236,-7.7082e-05,-10.482,0.94162
26125,13.707,5.9091,0.1,0.00022934,2291.8,0.00022924,2288.8,-7.539e-05,-0.055164,-7.6182e-05,-6.0009,0.95342
26126,13.432,5.8182,0.1,0.00023266,2325,0.00023244,2318.5,-7.6131e-05,-0.0036845,-7.787e-05,-13.068,0.91741
26127,13.524,5.9091,0.1,0.00023131,2311.5,0.00023118,2307.8,-7.5977e-05,-0.054778,-7.6934e-05,-7.2398,0.92913
26128,13.248,5.8182,0.1,0.00023358,2334.2,0.0002333,2326,-7.6274e-05,-0.01042,-7.8442e-05,-16.297,0.89336
26129,13.34,5.9091,0.1,0.00023252,2323.6,0.00023237,2319.1,-7.6298e-05,-0.051967,-7.7465e-05,-8.8233,0.905
26130,13.064,5.8182,0.1,0.00023348,2333.2,0.00023313,2323,-7.6047e-05,-0.018551,-7.8737e-05,-20.233,0.86946
26131,13.156,5.9091,0.1,0.00023278,2326.2,0.00023259,2320.7,-7.6286e-05,-0.047354,-7.7716e-05,-10.789,0.88102
26132,12.88,5.8182,0.1,0.00023211,2319.5,0.00023168,2307,-7.5363e-05,-0.029114,-7.8675e-05,-24.916,0.84573
26133,12.972,5.9091,0.1,0.00023186,2317,0.00023163,2310.4,-7.5864e-05,-0.041639,-7.7611e-05,-13.167,0.85719
26134,12.697,5.8182,0.1,0.00022918,2290.2,0.00022865,2274.8,-7.4124e-05,-0.042842,-7.8158e-05,-30.351,0.82214
26135,12.788,5.9091,0.1,0.00022947,2293.2,0.0002292,2285.1,-7.4937e-05,-0.035692,-7.7058e-05,-15.972,0.83353
26136,12.513,5.8182,0.1,0.00022433,2241.7,0.00022368,2223.2,-7.2218e-05,-0.059025,-7.7066e-05,-36.479,0.79871
26137,12.605,5.9091,0.1,0.0002253,2251.4,0.00022496,2241.8,-7.3398e-05,-0.030773,-7.5948e-05,-19.186,0.81001
26138,12.329,5.8182,0.1,0.00021716,2170.1,0.0002164,2148.2,-6.9522e-05,-0.073248,-7.5254e-05,-43.138,0.77543
26139,12.421,5.9091,0.1,0.00021895,2188,0.00021855,2176.5,-7.1125e-05,-0.028366,-7.4149e-05,-22.745,0.78665
26140,12.145,5.8182,0.1,0.00020725,2071.1,0.00020635,2045.6,-6.5906e-05,-0.071626,-7.2554e-05,-50.017,0.7523
26141,12.237,5.9091,0.1,0.00021,2098.5,0.00020953,2085.1,-6.7985e-05,-0.030725,-7.1508e-05,-26.501,0.76343
26142,11.961,5.8182,0.1,0.00019414,1940.1,0.00019312,1911.1,-6.1244e-05,-0.022757,-6.8775e-05,-56.609,0.7293
26143,12.053,5.9091,0.1,0.000198,1978.6,0.00019747,1963.3,-6.3842e-05,-0.038446,-6.7855e-05,-30.194,0.74036
26144,11.778,5.8182,0.1,0.0001774,1772.8,0.00017626,1740.9,-5.5422e-05,0.15617,-6.3717e-05,-62.163,0.70643
26145,11.869,5.9091,0.1,0.00018251,1823.8,0.00018192,1806.9,-5.857e-05,-0.05675,-6.3008e-05,-33.405,0.71741
26146,11.594,5.8182,0.1,0.00015668,1565.8,0.00015547,1532.1,-4.8364e-05,0.60613,-5.7193e-05,-65.726,0.68367
26147,11.686,5.9091,0.1,0.00016313,1630.2,0.0001625,1612.1,-5.2069e-05,-0.056203,-5.6787e-05,-35.507,0.69459
26148,11.41,5.8182,0.1,0.00013181,1317.2,0.00013058,1283.7,-4.0019e-05,1.8555,-4.908e-05,-66.227,0.66101
26149,11.502,5.9091,0.1,0.0001396,1395,0.00013896,1376.8,-4.4296e-05,-0.083512,-4.9036e-05,-35.698,0.67187
26150,11.226,5.8182,0.1,0.00010299,1029.2,0.0001018,997.56,-3.0392e-05,4.3026,-3.9508e-05,-64.191,0.63843
26151,11.318,5.9091,0.1,0.00011183,1117.5,0.00011124,1100.9,-3.523e-05,0.37918,-3.9659e-05,-32.898,0.64924
26152,11.042,5.8182,0.1,7.2165e-05,721.15,7.0835e-05,689.02,-1.9144e-05,12.955,-3.019e-05,-70.035,0.61591
26153,11.134,5.9091,0.1,8.0109e-05,800.54,7.9605e-05,786.48,-2.4978e-05,0.67864,-2.8798e-05,-28.021,0.62668
26154,10.859,5.8182,0.1,4.1258e-05,412.29,4.0446e-05,391.21,-1.1598e-05,0.17122,-1.6875e-05,-39.474,0.59343
26155,10.95,5.9091,0.1,4.6083e-05,460.52,4.5527e-05,447.28,-1.2593e-05,10.59,-1.8506e-05,-33.836,0.60417
26156,0.18276,0.27273,0.1,0.00042546,4251.6,0.00041826,4168.8,-8.1345e-05,414.93,-0.00019621,-448.15,0.00011585
26157,0.27414,0.18182,0.1,0.00045368,4533.7,0.00045071,4451,-0.00014113,4.1526,-0.00016361,-164.8,0.00020406
26158,0.091379,0.18182,0.1,0.00027072,2705.3,0.00028682,3186.5,-6.1191e-05,571.74,-8.418e-05,399.01,2.6064e-05
26159,0.18276,0.090909,0.1,0.00038384,3835.7,0.00037837,3678.6,-0.00012293,-87.945,-0.00014085,-222.64,5.1883e-05
26160,0.18276,0.45455,0.1,0.00048823,4879,0.00047112,4830.5,-3.2299e-05,1048,-0.00026183,-676.52,0.00015391
26161,0.27414,0.36364,0.1,0.00046456,4642.4,0.00046538,4819.1,-7.6651e-05,746.5,-0.0002074,-235.87,0.00029738
26162,0.091379,0.36364,0.1,0.00034109,3408.5,0.00037587,4547.1,-2.0941e-05,1565.6,-0.00011867,831.26,4.314e-05
26163,0.18276,0.63636,0.1,0.00054864,5482.6,0.00052553,5449.8,-1.5243e-05,1386.7,-0.00030443,-786.13,0.00017699
26164,0.27414,0.54545,0.1,0.00050107,5007.2,0.00049973,5313.5,-4.1334e-05,1248.1,-0.00024467,-279.68,0.00035605
26165,0.091379,0.54545,0.1,0.00039942,3991.5,0.00044189,5429.3,-8.9233e-06,2042,-0.00014376,1028.9,5.2536e-05
26166,0.18276,0.81818,0.1,0.00059453,5941.2,0.00056793,5917.1,-8.1161e-06,1588.9,-0.00033357,-856.44,0.00019229
26167,0.27414,0.72727,0.1,0.00053753,5371.6,0.00053376,5745.6,-2.3531e-05,1558.3,-0.00027231,-310.94,0.00039487
26168,0.091379,0.72727,0.1,0.00044116,4408.6,0.00048821,6022.6,-4.4945e-06,2320.6,-0.00016088,1145.6,5.8426e-05
26169,0.18276,1,0.1,0.0006289,6284.6,0.00060022,6267.9,-4.8749e-06,1721.5,-0.00035427,-903.73,0.00020309
26170,0.27414,0.90909,0.1,0.00056842,5680.2,0.00056308,6098.2,-1.444e-05,1758.9,-0.00029258,-330.95,0.00042207
26171,0.091379,0.90909,0.1,0.00047115,4708.3,0.00052135,6439.9,-2.6298e-06,2502.9,-0.0001728,1224.4,6.2403e-05
26172,0.18276,1.1818,0.1,0.00065495,6545,0.00062486,6533.7,-3.1595e-06,1815,-0.00036957,-938.12,0.00021103
26173,0.27414,1.0909,0.1,0.00059339,5929.8,0.00058706,6378.4,-9.4288e-06,1896.6,-0.00030784,-345.55,0.00044193
26174,0.091379,1.0909,0.1,0.00049334,4930,0.00054579,6745.2,-1.6683e-06,2631.7,-0.00018153,1280.4,6.5252e-05
26175,0.18276,1.3636,0.1,0.00067498,6745.2,0.00064391,6738.3,-2.1744e-06,1883.9,-0.00038117,-963.74,0.00021703
26176,0.27414,1.2727,0.1,0.00061334,6129.1,0.00060637,6600.5,-6.4846e-06,1995.8,-0.00031953,-356.28,0.00045685
26177,0.091379,1.2727,0.1,0.00051013,5097.8,0.00056427,6974.8,-1.1334e-06,2726.6,-0.00018808,1321.9,6.7368e-05
26178,0.18276,1.5455,0.1,0.00069056,6900.9,0.00065876,6897.4,-1.5664e-06,1936,-0.0003901,-983.3,0.00022164
26179,0.27414,1.4545,0.1,0.00062925,6288.1,0.00062184,6776.9,-4.6532e-06,2069.6,-0.0003286,-364.45,0.00046829
26180,0.091379,1.4545,0.1,0.00052305,5226.9,0.00057847,7150.8,-8.0785e-07,2798.3,-0.00019311,1353.5,6.8976e-05
26181,0.18276,1.7273,0.1,0.00070276,7022.7,0.00067041,7022.1,-1.173e-06,1976.1,-0.00039705,-998.4,0.00022522
26182,0.27414,1.6364,0.1,0.00064193,6414.9,0.00063423,6917.1,-3.4633e-06,2125.7,-0.00033572,-370.74,0.00047716
26183,0.091379,1.6364,0.1,0.0005331,5327.4,0.00058952,7287.4,-5.9948e-07,2853.5,-0.00019701,1377.8,7.0216e-05
26184,0.18276,1.9091,0.1,0.0007123,7118.1,0.00067954,7119.7,-9.0928e-07,2007.1,-0.00040247,-1010.1,0.000228
26185,0.27414,1.8182,0.1,0.00065202,6515.7,0.00064411,7028.4,-2.6639e-06,2168.8,-0.0003413,-375.62,0.00048408
26186,0.091379,1.8182,0.1,0.00054096,5405.9,0.00059815,7394,-4.606e-07,2896.3,-0.00020006,1396.6,7.1179e-05
26187,0.18276,2.0909,0.1,0.00071973,7192.3,0.00068664,7195.6,-7.2872e-07,2031,-0.00040667,-1019.1,0.00023016
26188,0.27414,2,0.1,0.00065999,6595.4,0.00065193,7116.2,-2.1145e-06,2202,-0.00034568,-379.4,0.00048947
26189,0.091379,2,0.1,0.00054708,5467,0.00060487,7476.9,-3.6563e-07,2929.4,-0.00020243,1411.2,7.1926e-05
26190,0.18276,2.2727,0.1,0.00072539,7248.9,0.00069207,7253.6,-6.0422e-07,2049.1,-0.00040987,-1026,0.00023179
26191,0.27414,2.1818,0.1,0.00066619,6657.3,0.00065802,7184.5,-1.7328e-06,2227.4,-0.00034907,-382.31,0.00049361
26192,0.091379,2.1818,0.1,0.0005518,5514.2,0.00061005,7540.8,-2.9982e-07,2954.9,-0.00020425,1422.5,7.25e-05
26193,0.18276,2.4545,0.1,0.00072957,7290.6,0.00069608,7296.3,-5.195e-07,2062.4,-0.00041222,-1031,0.000233
26194,0.27414,2.3636,0.1,0.00067089,6704.3,0.00066263,7236.2,-1.4688e-06,2246.4,-0.00035162,-384.48,0.00049672
26195,0.091379,2.3636,0.1,0.00055534,5549.6,0.00061394,7588.7,-2.5437e-07,2973.9,-0.00020562,1430.9,7.2929e-05
26196,0.18276,2.6364,0.1,0.00073243,7319.3,0.00069882,7325.6,-4.6468e-07,2071.4,-0.00041383,-1034.4,0.00023382
26197,0.27414,2.5455,0.1,0.00067426,6738,0.00066595,7273.3,-1.2917e-06,2259.9,-0.00035344,-386.03,0.00049895
26198,0.091379,2.5455,0.1,0.00055788,5574.9,0.00061672,7622.9,-2.2391e-07,2987.5,-0.0002066,1436.8,7.3236e-05
26199,0.18276,2.8182,0.1,0.0007341,7336,0.00070043,7342.7,-4.3386e-07,2076.7,-0.00041477,-1036.4,0.0002343
26200,0.27414,2.7273,0.1,0.00067644,6759.8,0.0006681,7297.3,-1.1825e-06,2268.6,-0.00035462,-387.03,0.00050038
26201,0.091379,2.7273,0.1,0.00055951,5591.2,0.00061851,7645,-2.0514e-07,2996.2,-0.00020723,1440.7,7.3433e-05
26202,0.18276,3,0.1,0.00073465,7341.5,0.00070095,7348.4,-4.2391e-07,2078.5,-0.00041508,-1037.1,0.00023446
26203,0.27414,2.9091,0.1,0.00067751,6770.5,0.00066915,7309.1,-1.1304e-06,2272.8,-0.0003552,-387.52,0.00050108
26204,0.091379,2.9091,0.1,0.00056031,5599.2,0.00061939,7655.8,-1.9619e-07,3000.5,-0.00020754,1442.6,7.3529e-05
26205,0.18276,3.1818,0.1,0.0007341,7336,0.00070043,7342.7,-4.3386e-07,2076.7,-0.00041477,-1036.4,0.0002343
26206,0.27414,3.0909,0.1,0.00067751,6770.5,0.00066915,7309.1,-1.1304e-06,2272.8,-0.0003552,-387.52,0.00050108
26207,0.091379,3.0909,0.1,0.00056031,5599.2,0.00061939,7655.8,-1.9619e-07,3000.5,-0.00020754,1442.6,7.3529e-05
26208,0.18276,3.3636,0.1,0.00073243,7319.3,0.00069882,7325.6,-4.6468e-07,2071.4,-0.00041383,-1034.4,0.00023382
26209,0.27414,3.2727,0.1,0.00067644,6759.8,0.0006681,7297.3,-1.1825e-06,2268.6,-0.00035462,-387.03,0.00050038
26210,0.091379,3.2727,0.1,0.00055951,5591.2,0.00061851,7645,-2.0514e-07,2996.2,-0.00020723,1440.7,7.3433e-05
26211,0.18276,3.5455,0.1,0.00072957,7290.6,0.00069608,7296.3,-5.195e-07,2062.4,-0.00041222,-1031,0.000233
26212,0.27414,3.4545,0.1,0.00067426,6738,0.00066595,7273.3,-1.2917e-06,2259.9,-0.00035344,-386.03,0.00049895
26213,0.091379,3.4545,0.1,0.00055788,5574.9,0.00061672,7622.9,-2.2391e-07,2987.5,-0.0002066,1436.8,7.3236e-05
26214,0.18276,3.7273,0.1,0.00072539,7248.9,0.00069207,7253.6,-6.0422e-07,2049.1,-0.00040987,-1026,0.00023179
26215,0.27414,3.6364,0.1,0.00067089,6704.3,0.00066263,7236.2,-1.4688e-06,2246.4,-0.00035162,-384.48,0.00049672
26216,0.091379,3.6364,0.1,0.00055534,5549.6,0.00061394,7588.7,-2.5437e-07,2973.9,-0.00020562,1430.9,7.2929e-05
26217,0.18276,3.9091,0.1,0.00071973,7192.3,0.00068664,7195.6,-7.2872e-07,2031,-0.00040667,-1019.1,0.00023016
26218,0.27414,3.8182,0.1,0.00066619,6657.3,0.00065802,7184.5,-1.7328e-06,2227.4,-0.00034907,-382.31,0.00049361
26219,0.091379,3.8182,0.1,0.0005518,5514.2,0.00061005,7540.8,-2.9982e-07,2954.9,-0.00020425,1422.5,7.25e-05
26220,0.18276,4.0909,0.1,0.0007123,7118.1,0.00067954,7119.7,-9.0928e-07,2007.1,-0.00040247,-1010.1,0.000228
26221,0.27414,4,0.1,0.00065999,6595.4,0.00065193,7116.2,-2.1145e-06,2202,-0.00034568,-379.4,0.00048947
26222,0.091379,4,0.1,0.00054708,5467,0.00060487,7476.9,-3.6563e-07,2929.4,-0.00020243,1411.2,7.1926e-05
26223,0.18276,4.2727,0.1,0.00070276,7022.7,0.00067041,7022.1,-1.173e-06,1976.1,-0.00039705,-998.4,0.00022522
26224,0.27414,4.1818,0.1,0.00065202,6515.7,0.00064411,7028.4,-2.6639e-06,2168.8,-0.0003413,-375.62,0.00048408
26225,0.091379,4.1818,0.1,0.00054096,5405.9,0.00059815,7394,-4.606e-07,2896.3,-0.00020006,1396.6,7.1179e-05
26226,0.18276,4.4545,0.1,0.00069056,6900.9,0.00065876,6897.4,-1.5664e-06,1936,-0.0003901,-983.3,0.00022164
26227,0.27414,4.3636,0.1,0.00064193,6414.9,0.00063423,6917.1,-3.4633e-06,2125.7,-0.00033572,-370.74,0.00047716
26228,0.091379,4.3636,0.1,0.0005331,5327.4,0.00058952,7287.4,-5.9948e-07,2853.5,-0.00019701,1377.8,7.0216e-05
26229,0.18276,4.6364,0.1,0.00067498,6745.2,0.00064391,6738.3,-2.1744e-06,1883.9,-0.00038117,-963.74,0.00021703
26230,0.27414,4.5455,0.1,0.00062925,6288.1,0.00062184,6776.9,-4.6532e-06,2069.6,-0.0003286,-364.45,0.00046829
26231,0.091379,4.5455,0.1,0.00052305,5226.9,0.00057847,7150.8,-8.0785e-07,2798.3,-0.00019311,1353.5,6.8976e-05
26232,0.18276,4.8182,0.1,0.00065495,6545,0.00062486,6533.7,-3.1595e-06,1815,-0.00036957,-938.12,0.00021103
26233,0.27414,4.7273,0.1,0.00061334,6129.1,0.00060637,6600.5,-6.4846e-06,1995.8,-0.00031953,-356.28,0.00045685
26234,0.091379,4.7273,0.1,0.00051013,5097.8,0.00056427,6974.8,-1.1334e-06,2726.6,-0.00018808,1321.9,6.7368e-05
26235,0.18276,5,0.1,0.0006289,6284.6,0.00060022,6267.9,-4.8749e-06,1721.5,-0.00035427,-903.73,0.00020309
26236,0.27414,4.9091,0.1,0.00059339,5929.8,0.00058706,6378.4,-9.4288e-06,1896.6,-0.00030784,-345.55,0.00044193
26237,0.091379,4.9091,0.1,0.00049334,4930,0.00054579,6745.2,-1.6683e-06,2631.7,-0.00018153,1280.4,6.5252e-05
26238,0.18276,5.1818,0.1,0.00059453,5941.2,0.00056793,5917.1,-8.1161e-06,1588.9,-0.00033357,-856.44,0.00019229
26239,0.27414,5.0909,0.1,0.00056842,5680.2,0.00056308,6098.2,-1.444e-05,1758.9,-0.00029258,-330.95,0.00042207
26240,0.091379,5.0909,0.1,0.00047115,4708.3,0.00052135,6439.9,-2.6298e-06,2502.9,-0.0001728,1224.4,6.2403e-05
26241,0.18276,5.3636,0.1,0.00054864,5482.6,0.00052553,5449.8,-1.5243e-05,1386.7,-0.00030443,-786.13,0.00017699
26242,0.27414,5.2727,0.1,0.00053753,5371.6,0.00053376,5745.6,-2.3531e-05,1558.3,-0.00027231,-310.94,0.00039487
26243,0.091379,5.2727,0.1,0.00044116,4408.6,0.00048821,6022.6,-4.4945e-06,2320.6,-0.00016088,1145.6,5.8426e-05
26244,0.18276,5.5455,0.1,0.00048823,4879,0.00047112,4830.5,-3.2299e-05,1048,-0.00026183,-676.52,0.00015391
26245,0.27414,5.4545,0.1,0.00050107,5007.2,0.00049973,5313.5,-4.1334e-05,1248.1,-0.00024467,-279.68,0.00035605
26246,0.091379,5.4545,0.1,0.00039942,3991.5,0.00044189,5429.3,-8.9233e-06,2042,-0.00014376,1028.9,5.2536e-05
26247,0.18276,5.7273,0.1,0.00042546,4251.6,0.00041826,4168.8,-8.1345e-05,414.93,-0.00019621,-448.15,0.00011585
26248,0.27414,5.6364,0.1,0.00046456,4642.4,0.00046538,4819.1,-7.6651e-05,746.5,-0.0002074,-235.87,0.00029738
26249,0.091379,5.6364,0.1,0.00034109,3408.5,0.00037587,4547.1,-2.0941e-05,1565.6,-0.00011867,831.26,4.314e-05
26250,0.27414,5.8182,0.1,0.00045368,4533.7,0.00045071,4451,-0.00014113,4.1525,-0.00016361,-164.8,0.00020406
26251,0.091379,5.8182,0.1,0.00027072,2705.3,0.00028682,3186.5,-6.1191e-05,571.74,-8.418e-05,399.01,2.6064e-05
26252,0.18276,5.9091,0.1,0.00038384,3835.7,0.00037837,3678.6,-0.00012293,-87.945,-0.00014085,-222.64,5.1883e-05
26253,0.36552,0.27273,0.1,0.00048938,4890.5,0.0004958,5086.1,-0.00014011,308.08,-0.00016908,90.397,0.00046503
26254,0.4569,0.18182,0.1,0.00053021,5298.5,0.00052914,5269.5,-0.00016665,41.654,-0.00018508,-96.816,0.0006422
26255,0.36552,0.090909,0.1,0.00049257,4922.3,0.00049051,4865.5,-0.0001539,23.59,-0.0001748,-133.42,0.00029032
26256,0.36552,0.45455,0.1,0.00047997,4796.4,0.00049397,5301.9,-8.5754e-05,946.03,-0.00019014,161.69,0.00058185
26257,0.4569,0.36364,0.1,0.00050641,5060.6,0.00051462,5336.8,-0.00012388,539.31,-0.00018916,48.818,0.00083802
26258,0.36552,0.63636,0.1,0.00049299,4926.5,0.00050893,5616.4,-5.0589e-05,1412.4,-0.00021254,195.55,0.00066074
26259,0.4569,0.54545,0.1,0.00050623,5058.8,0.00051801,5543.4,-8.0774e-05,1044.3,-0.00021081,67.278,0.00097514
26260,0.36552,0.81818,0.1,0.00051374,5133.9,0.0005298,5933.2,-3.074e-05,1721.6,-0.00023132,214.51,0.00071605
26261,0.4569,0.72727,0.1,0.00051815,5177.9,0.00053038,5791.8,-5.236e-05,1413.3,-0.00023027,76.53,0.0010726
26262,0.36552,1,0.1,0.00053461,5342.4,0.00055054,6213.3,-1.9608e-05,1929.4,-0.00024616,227.2,0.0007563
26263,0.4569,0.90909,0.1,0.00053432,5339.5,0.00054609,6036.4,-3.4661e-05,1672.8,-0.00024634,82.377,0.0011439
26264,0.36552,1.1818,0.1,0.00055309,5527.1,0.00056896,6448.2,-1.3149e-05,2074.5,-0.0002578,236.27,0.00078645
26265,0.4569,1.0909,0.1,0.00055069,5503.1,0.00056195,6256.7,-2.3708e-05,1856.3,-0.00025927,86.429,0.0011972
26266,0.36552,1.3636,0.1,0.00056868,5682.8,0.00058456,6641,-9.213e-06,2179.7,-0.00026697,242.99,0.0008095
26267,0.4569,1.2727,0.1,0.00056558,5651.9,0.00057645,6446.5,-1.6774e-05,1989.2,-0.00026963,89.372,0.0012379
26268,0.36552,1.5455,0.1,0.00058154,5811.4,0.00059748,6797.7,-6.7065e-06,2258.1,-0.00027422,248.1,0.00082736
26269,0.4569,1.4545,0.1,0.00057848,5780.8,0.00058909,6606,-1.2258e-05,2087.7,-0.00027792,91.586,0.0012695
26270,0.36552,1.7273,0.1,0.00059203,5916.2,0.00060803,6924.1,-5.0515e-06,2317.7,-0.00027997,252.03,0.00084131
26271,0.4569,1.6364,0.1,0.00058936,5889.5,0.00059979,6738,-9.2318e-06,2162.1,-0.00028457,93.281,0.0012943
26272,0.36552,1.9091,0.1,0.00060049,6000.7,0.00061656,7025.4,-3.9287e-06,2363.3,-0.00028452,255.07,0.00085223
26273,0.4569,1.8182,0.1,0.00059835,5979.4,0.00060868,6846.1,-7.1573e-06,2218.9,-0.00028988,94.59,0.0013136
26274,0.36552,2.0909,0.1,0.0006072,6067.8,0.00062334,7105.4,-3.1538e-06,2398.2,-0.00028808,257.41,0.0008607
26275,0.4569,2,0.1,0.00060566,6052.4,0.00061593,6933.2,-5.7118e-06,2262.4,-0.0002941,95.602,0.0013288
26276,0.36552,2.2727,0.1,0.0006124,6119.8,0.0006286,7167.3,-2.6168e-06,2424.6,-0.00029081,259.18,0.00086716
26277,0.4569,2.1818,0.1,0.00061147,6110.5,0.0006217,7002,-4.6978e-06,2295.5,-0.00029739,96.376,0.0013405
26278,0.36552,2.4545,0.1,0.00061628,6158.5,0.00063252,7213.3,-2.2503e-06,2443.8,-0.00029284,260.48,0.00087192
26279,0.4569,2.3636,0.1,0.00061593,6155.1,0.00062614,7054.8,-3.9918e-06,2320.2,-0.00029988,96.955,0.0013494
26280,0.36552,2.6364,0.1,0.00061896,6185.3,0.00063523,7245,-2.0126e-06,2457,-0.00029423,261.37,0.00087518
26281,0.4569,2.5455,0.1,0.00061918,6187.5,0.00062937,7093,-3.5159e-06,2337.7,-0.00030168,97.367,0.0013557
26282,0.36552,2.8182,0.1,0.00062054,6201.1,0.00063683,7263.6,-1.8788e-06,2464.6,-0.00029505,261.88,0.00087709
26283,0.4569,2.7273,0.1,0.00062129,6208.6,0.00063148,7117.8,-3.2219e-06,2348.9,-0.00030285,97.632,0.0013598
26284,0.36552,3,0.1,0.00062105,6206.3,0.00063735,7269.8,-1.8356e-06,2467.2,-0.00029532,262.05,0.00087772
26285,0.4569,2.9091,0.1,0.00062233,6219,0.00063252,7130,-3.0813e-06,2354.4,-0.00030342,97.761,0.0013618
26286,0.36552,3.1818,0.1,0.00062054,6201.1,0.00063683,7263.6,-1.8788e-06,2464.6,-0.00029505,261.88,0.00087709
26287,0.4569,3.0909,0.1,0.00062233,6219,0.00063252,7130,-3.0813e-06,2354.4,-0.00030342,97.761,0.0013618
26288,0.36552,3.3636,0.1,0.00061896,6185.3,0.00063523,7245,-2.0126e-06,2457,-0.00029423,261.37,0.00087518
26289,0.4569,3.2727,0.1,0.00062129,6208.6,0.00063148,7117.8,-3.2219e-06,2348.9,-0.00030285,97.632,0.0013598
26290,0.36552,3.5455,0.1,0.00061628,6158.5,0.00063252,7213.3,-2.2503e-06,2443.8,-0.00029284,260.48,0.00087192
26291,0.4569,3.4545,0.1,0.00061918,6187.5,0.00062937,7093,-3.5159e-06,2337.7,-0.00030168,97.367,0.0013557
26292,0.36552,3.7273,0.1,0.0006124,6119.8,0.0006286,7167.3,-2.6168e-06,2424.6,-0.00029081,259.18,0.00086716
26293,0.4569,3.6364,0.1,0.00061593,6155.1,0.00062614,7054.8,-3.9918e-06,2320.2,-0.00029988,96.955,0.0013494
26294,0.36552,3.9091,0.1,0.0006072,6067.8,0.00062334,7105.4,-3.1538e-06,2398.2,-0.00028808,257.41,0.0008607
26295,0.4569,3.8182,0.1,0.00061147,6110.5,0.0006217,7002,-4.6978e-06,2295.5,-0.00029739,96.376,0.0013405
26296,0.36552,4.0909,0.1,0.00060049,6000.7,0.00061656,7025.4,-3.9287e-06,2363.3,-0.00028452,255.07,0.00085223
26297,0.4569,4,0.1,0.00060566,6052.4,0.00061593,6933.2,-5.7118e-06,2262.4,-0.0002941,95.602,0.0013288
26298,0.36552,4.2727,0.1,0.00059203,5916.2,0.00060803,6924.1,-5.0515e-06,2317.7,-0.00027997,252.03,0.00084131
26299,0.4569,4.1818,0.1,0.00059835,5979.4,0.00060868,6846.1,-7.1573e-06,2218.9,-0.00028988,94.59,0.0013136
26300,0.36552,4.4545,0.1,0.00058154,5811.4,0.00059748,6797.7,-6.7065e-06,2258.1,-0.00027422,248.1,0.00082736
26301,0.4569,4.3636,0.1,0.00058936,5889.5,0.00059979,6738,-9.2318e-06,2162.1,-0.00028457,93.281,0.0012943
26302,0.36552,4.6364,0.1,0.00056868,5682.8,0.00058456,6641,-9.213e-06,2179.7,-0.00026697,242.99,0.0008095
26303,0.4569,4.5455,0.1,0.00057848,5780.8,0.00058909,6606,-1.2258e-05,2087.7,-0.00027792,91.586,0.0012695
26304,0.36552,4.8182,0.1,0.00055309,5527.1,0.00056896,6448.2,-1.3149e-05,2074.5,-0.0002578,236.27,0.00078645
26305,0.4569,4.7273,0.1,0.00056558,5651.9,0.00057645,6446.5,-1.6774e-05,1989.2,-0.00026963,89.372,0.0012379
26306,0.36552,5,0.1,0.00053461,5342.4,0.00055054,6213.3,-1.9608e-05,1929.4,-0.00024616,227.2,0.0007563
26307,0.4569,4.9091,0.1,0.00055069,5503.1,0.00056195,6256.7,-2.3708e-05,1856.3,-0.00025927,86.429,0.0011972
26308,0.36552,5.1818,0.1,0.00051374,5133.9,0.0005298,5933.2,-3.074e-05,1721.6,-0.00023132,214.51,0.00071605
26309,0.4569,5.0909,0.1,0.00053432,5339.5,0.00054609,6036.4,-3.4661e-05,1672.8,-0.00024634,82.377,0.0011439
26310,0.36552,5.3636,0.1,0.00049299,4926.5,0.00050893,5616.4,-5.0589e-05,1412.4,-0.00021254,195.55,0.00066074
26311,0.4569,5.2727,0.1,0.00051815,5177.9,0.00053038,5791.8,-5.236e-05,1413.3,-0.00023027,76.53,0.0010726
26312,0.36552,5.5455,0.1,0.00047997,4796.4,0.00049397,5301.9,-8.5754e-05,946.03,-0.00019014,161.69,0.00058185
26313,0.4569,5.4545,0.1,0.00050623,5058.8,0.00051801,5543.4,-8.0774e-05,1044.3,-0.00021081,67.278,0.00097514
26314,0.36552,5.7273,0.1,0.00048938,4890.5,0.0004958,5086.1,-0.00014011,308.08,-0.00016908,90.397,0.00046503
26315,0.4569,5.6364,0.1,0.00050641,5060.6,0.00051462,5336.8,-0.00012388,539.31,-0.00018916,48.818,0.00083802
26316,0.4569,5.8182,0.1,0.00053021,5298.5,0.00052914,5269.5,-0.00016665,41.654,-0.00018508,-96.816,0.0006422
26317,0.36552,5.9091,0.1,0.00049257,4922.3,0.00049051,4865.5,-0.0001539,23.59,-0.0001748,-133.42,0.00029032
26318,0.54828,0.27273,0.1,0.00054571,5453.3,0.00054774,5518.5,-0.00016411,169.98,-0.00019124,-33.818,0.0011121
26319,0.63966,0.18182,0.1,0.0005707,5703,0.0005693,5663.3,-0.00018312,9.8871,-0.00019616,-88.075,0.0013977
26320,0.54828,0.090909,0.1,0.00054725,5468.7,0.00054519,5409.3,-0.00017595,-8.9842,-0.00018919,-108.54,0.00082136
26321,0.54828,0.45455,0.1,0.00053133,5309.6,0.00053814,5574.3,-0.00011851,640.54,-0.0002097,-44.603,0.0013246
26322,0.63966,0.36364,0.1,0.00054759,5472.1,0.00055264,5641.4,-0.00014795,377.41,-0.0002005,-17.402,0.0016995
26323,0.54828,0.63636,0.1,0.00053071,5303.5,0.00053904,5715.6,-8.2152e-05,1048.2,-0.00022851,-51.526,0.0014794
26324,0.63966,0.54545,0.1,0.00053839,5380.2,0.00054691,5719,-0.00010936,788.02,-0.00021681,-19.326,0.001926
26325,0.54828,0.81818,0.1,0.00053852,5381.5,0.00054654,5893.9,-5.6153e-05,1365.5,-0.00024528,-55.533,0.0015937
26326,0.63966,0.72727,0.1,0.00053839,5380.2,0.00054795,5843.7,-7.8635e-05,1135.8,-0.00023256,-20.756,0.0020962
26327,0.54828,1,0.1,0.0005504,5500.2,0.00055753,6080,-3.8793e-05,1599.5,-0.00025944,-58.371,0.0016797
26328,0.63966,0.90909,0.1,0.00054451,5441.3,0.00055381,5991.5,-5.6294e-05,1407.5,-0.00024651,-21.757,0.0022255
26329,0.54828,1.1818,0.1,0.00056324,5628.5,0.00056952,6255.6,-2.7416e-05,1770.4,-0.00027109,-60.463,0.0017456
26330,0.63966,1.0909,0.1,0.00055362,5532.4,0.00056223,6143.2,-4.0712e-05,1613,-0.00025839,-22.557,0.002325
26331,0.54828,1.3636,0.1,0.00057546,5750.6,0.00058106,6412,-1.9902e-05,1896.6,-0.00028058,-62.033,0.0017967
26332,0.63966,1.2727,0.1,0.00056362,5632.3,0.00057151,6286.8,-2.9968e-05,1767.5,-0.00026829,-23.164,0.0024026
26333,0.54828,1.5455,0.1,0.00058635,5859.5,0.00059147,6546.8,-1.4849e-05,1991.2,-0.00028828,-63.232,0.0018368
26334,0.63966,1.4545,0.1,0.00057331,5729.1,0.0005806,6416,-2.2529e-05,1884.3,-0.00027647,-23.633,0.0024635
26335,0.54828,1.7273,0.1,0.00059572,5953.1,0.00060049,6660.3,-1.1385e-05,2063,-0.00029449,-64.158,0.0018684
26336,0.63966,1.6364,0.1,0.0005821,5817,0.00058893,6528.6,-1.7323e-05,1973.4,-0.00028316,-23.996,0.0025117
26337,0.54828,1.9091,0.1,0.00060357,6031.5,0.00060808,6754.1,-8.9713e-06,2117.8,-0.00029947,-64.876,0.0018932
26338,0.63966,1.8182,0.1,0.00058977,5893.6,0.00059626,6624.2,-1.364e-05,2041.7,-0.0002886,-24.278,0.0025498
26339,0.54828,2.0909,0.1,0.00060997,6095.5,0.00061431,6830,-7.274e-06,2159.6,-0.00030341,-65.43,0.0019126
26340,0.63966,2,0.1,0.00059624,5958.3,0.00060247,6703.5,-1.1014e-05,2094,-0.00029297,-24.497,0.0025798
26341,0.54828,2.2727,0.1,0.00061503,6146.1,0.00061926,6889.6,-6.0817e-06,2191.1,-0.00030646,-65.85,0.0019275
26342,0.63966,2.1818,0.1,0.00060152,6011,0.00060757,6767.6,-9.1412e-06,2133.8,-0.00029642,-24.665,0.0026031
26343,0.54828,2.4545,0.1,0.00061886,6184.3,0.000623,6934.5,-5.26e-06,2214,-0.00030873,-66.158,0.0019384
26344,0.63966,2.3636,0.1,0.00060566,6052.4,0.00061159,6817.4,-7.8212e-06,2163.4,-0.00029905,-24.79,0.0026207
26345,0.54828,2.6364,0.1,0.00062153,6211,0.00062562,6965.8,-4.7236e-06,2229.6,-0.0003103,-66.369,0.001946
26346,0.63966,2.5455,0.1,0.00060871,6082.9,0.00061455,6853.9,-6.9239e-06,2184.4,-0.00030096,-24.88,0.0026333
26347,0.54828,2.8182,0.1,0.00062311,6226.8,0.00062717,6984.2,-4.4205e-06,2238.7,-0.00031122,-66.492,0.0019504
26348,0.63966,2.7273,0.1,0.00061071,6102.9,0.0006165,6877.8,-6.3662e-06,2197.8,-0.0003022,-24.937,0.0026415
26349,0.54828,3,0.1,0.00062363,6232,0.00062769,6990.3,-4.3224e-06,2241.7,-0.00031152,-66.532,0.0019518
26350,0.63966,2.9091,0.1,0.0006117,6112.8,0.00061747,6889.6,-6.0988e-06,2204.4,-0.00030281,-24.965,0.0026455
26351,0.54828,3.1818,0.1,0.00062311,6226.8,0.00062717,6984.2,-4.4205e-06,2238.7,-0.00031122,-66.492,0.0019504
26352,0.63966,3.0909,0.1,0.0006117,6112.8,0.00061747,6889.6,-6.0988e-06,2204.4,-0.00030281,-24.965,0.0026455
26353,0.54828,3.3636,0.1,0.00062153,6211,0.00062562,6965.8,-4.7236e-06,2229.6,-0.0003103,-66.369,0.001946
26354,0.63966,3.2727,0.1,0.00061071,6102.9,0.0006165,6877.8,-6.3662e-06,2197.8,-0.0003022,-24.937,0.0026415
26355,0.54828,3.5455,0.1,0.00061886,6184.3,0.000623,6934.5,-5.26e-06,2214,-0.00030873,-66.158,0.0019384
26356,0.63966,3.4545,0.1,0.00060871,6082.9,0.00061455,6853.9,-6.9239e-06,2184.4,-0.00030096,-24.88,0.0026333
26357,0.54828,3.7273,0.1,0.00061503,6146.1,0.00061926,6889.6,-6.0817e-06,2191.1,-0.00030646,-65.85,0.0019275
26358,0.63966,3.6364,0.1,0.00060566,6052.4,0.00061159,6817.4,-7.8212e-06,2163.4,-0.00029905,-24.79,0.0026207
26359,0.54828,3.9091,0.1,0.00060997,6095.5,0.00061431,6830,-7.274e-06,2159.6,-0.00030341,-65.43,0.0019126
26360,0.63966,3.8182,0.1,0.00060152,6011,0.00060757,6767.6,-9.1412e-06,2133.8,-0.00029642,-24.665,0.0026031
26361,0.54828,4.0909,0.1,0.00060357,6031.5,0.00060808,6754.1,-8.9713e-06,2117.8,-0.00029947,-64.876,0.0018932
26362,0.63966,4,0.1,0.00059624,5958.3,0.00060247,6703.5,-1.1014e-05,2094,-0.00029297,-24.497,0.0025798
26363,0.54828,4.2727,0.1,0.00059572,5953.1,0.00060049,6660.3,-1.1385e-05,2063,-0.00029449,-64.158,0.0018684
26364,0.63966,4.1818,0.1,0.00058977,5893.6,0.00059626,6624.2,-1.364e-05,2041.7,-0.0002886,-24.278,0.0025498
26365,0.54828,4.4545,0.1,0.00058635,5859.5,0.00059147,6546.8,-1.4849e-05,1991.2,-0.00028828,-63.232,0.0018368
26366,0.63966,4.3636,0.1,0.0005821,5817,0.00058893,6528.6,-1.7323e-05,1973.4,-0.00028316,-23.996,0.0025117
26367,0.54828,4.6364,0.1,0.00057546,5750.6,0.00058106,6412,-1.9902e-05,1896.6,-0.00028058,-62.033,0.0017967
26368,0.63966,4.5455,0.1,0.00057331,5729.1,0.0005806,6416,-2.2529e-05,1884.3,-0.00027647,-23.633,0.0024635
26369,0.54828,4.8182,0.1,0.00056324,5628.5,0.00056952,6255.6,-2.7416e-05,1770.4,-0.00027109,-60.463,0.0017456
26370,0.63966,4.7273,0.1,0.00056362,5632.3,0.00057151,6286.8,-2.9968e-05,1767.5,-0.00026829,-23.164,0.0024026
26371,0.54828,5,0.1,0.0005504,5500.2,0.00055753,6080,-3.8793e-05,1599.5,-0.00025944,-58.371,0.0016797
26372,0.63966,4.9091,0.1,0.00055362,5532.4,0.00056223,6143.2,-4.0712e-05,1613,-0.00025839,-22.557,0.002325
26373,0.54828,5.1818,0.1,0.00053852,5381.5,0.00054654,5893.9,-5.6153e-05,1365.5,-0.00024528,-55.533,0.0015937
26374,0.63966,5.0909,0.1,0.00054451,5441.3,0.00055381,5991.5,-5.6294e-05,1407.5,-0.00024651,-21.757,0.0022255
26375,0.54828,5.3636,0.1,0.00053071,5303.5,0.00053904,5715.6,-8.2152e-05,1048.2,-0.00022851,-51.526,0.0014794
26376,0.63966,5.2727,0.1,0.00053839,5380.2,0.00054795,5843.7,-7.8635e-05,1135.8,-0.00023256,-20.756,0.0020962
26377,0.54828,5.5455,0.1,0.00053133,5309.6,0.00053814,5574.3,-0.00011851,640.54,-0.0002097,-44.603,0.0013246
26378,0.63966,5.4545,0.1,0.00053839,5380.2,0.00054691,5719,-0.00010936,788.02,-0.00021681,-19.326,0.001926
26379,0.54828,5.7273,0.1,0.00054571,5453.3,0.00054774,5518.5,-0.00016411,169.98,-0.00019124,-33.818,0.0011121
26380,0.63966,5.6364,0.1,0.00054759,5472.1,0.00055264,5641.4,-0.00014795,377.41,-0.0002005,-17.402,0.0016995
26381,0.63966,5.8182,0.1,0.0005707,5703,0.0005693,5663.3,-0.00018312,9.8871,-0.00019616,-88.075,0.0013977
26382,0.54828,5.9091,0.1,0.00054725,5468.7,0.00054519,5409.3,-0.00017595,-8.9842,-0.00018919,-108.54,0.00082136
26383,0.73103,0.27273,0.1,0.00057187,5714.8,0.00057421,5786.2,-0.00017644,146.11,-0.00019595,-0.44501,0.0020936
26384,0.82241,0.18182,0.1,0.00059117,5907.6,0.00059034,5884.1,-0.0001906,16.349,-0.00020112,-62.714,0.0025034
26385,0.73103,0.090909,0.1,0.00057609,5757,0.00057482,5720.4,-0.00018632,1.4318,-0.00019634,-73.877,0.0016919
26386,0.73103,0.45455,0.1,0.00055403,5536.4,0.00056129,5785.1,-0.00013876,525.22,-0.00020754,8.4483,0.002404
26387,0.82241,0.36364,0.1,0.00056892,5685.3,0.0005736,5835.4,-0.00016142,312.68,-0.00020299,0.40549,0.0029076
26388,0.73103,0.63636,0.1,0.00054563,5452.5,0.00055557,5845.2,-0.00010561,877.32,-0.00022084,11.594,0.0026425
26389,0.82241,0.54545,0.1,0.00055616,5557.8,0.00056446,5856.8,-0.00012831,651.64,-0.00021459,3.3319,0.0032251
26390,0.73103,0.81818,0.1,0.00054419,5438.1,0.000555,5939.7,-7.8568e-05,1179.3,-0.00023378,13.079,0.0028261
26391,0.82241,0.72727,0.1,0.00054978,5494,0.00055991,5914.1,-9.9178e-05,961.95,-0.00022665,4.2007,0.0034736
26392,0.73103,1,0.1,0.00054772,5473.4,0.00055838,6053.8,-5.8096e-05,1421.9,-0.00024546,14.082,0.0029686
26393,0.82241,0.90909,0.1,0.00054883,5484.5,0.00055946,5996.6,-7.561e-05,1224.9,-0.00023799,4.8221,0.0036688
26394,0.73103,1.1818,0.1,0.00055406,5536.8,0.00056417,6174.1,-4.3223e-05,1610.4,-0.00025559,14.754,0.0030803
26395,0.82241,1.0909,0.1,0.00055167,5512.9,0.00056207,6092.8,-5.7537e-05,1437.4,-0.00024815,5.1862,0.0038228
26396,0.73103,1.3636,0.1,0.00056155,5611.6,0.00057104,6290.8,-3.2595e-05,1755.3,-0.00026418,15.242,0.0031684
26397,0.82241,1.2727,0.1,0.00055668,5563,0.00056654,6193,-4.4073e-05,1605.1,-0.00025697,5.4378,0.0039451
26398,0.73103,1.5455,0.1,0.00056913,5687.4,0.00057808,6397.9,-2.5018e-05,1866.4,-0.00027135,15.606,0.0032384
26399,0.82241,1.4545,0.1,0.00056263,5622.5,0.00057191,6289.9,-3.4167e-05,1736.1,-0.00026448,5.6157,0.0040427
26400,0.73103,1.7273,0.1,0.00057621,5758.2,0.00058472,6492.6,-1.9595e-05,1952,-0.00027727,15.886,0.003294
26401,0.82241,1.6364,0.1,0.00056871,5683.2,0.00057746,6379.1,-2.6905e-05,1838.1,-0.00027078,5.7494,0.0041207
26402,0.73103,1.9091,0.1,0.00058249,5820.9,0.00059066,6573.7,-1.5695e-05,2017.8,-0.0002821,16.102,0.0033381
26403,0.82241,1.8182,0.1,0.00057444,5740.4,0.00058275,6458.1,-2.1582e-05,1917.4,-0.000276,5.8519,0.004183
26404,0.73103,2.0909,0.1,0.00058782,5874.2,0.00059574,6641.2,-1.2888e-05,2068.2,-0.00028598,16.269,0.0033727
26405,0.82241,2,0.1,0.00057953,5791.3,0.0005875,6525.9,-1.7684e-05,1978.8,-0.00028025,5.9313,0.0042323
26406,0.73103,2.2727,0.1,0.00059217,5917.6,0.0005999,6695.3,-1.0881e-05,2106.1,-0.00028901,16.396,0.0033994
26407,0.82241,2.1818,0.1,0.00058385,5834.4,0.00059155,6581.9,-1.4847e-05,2025.6,-0.00028365,5.9923,0.0042707
26408,0.73103,2.4545,0.1,0.00059552,5951.1,0.00060313,6736.7,-9.4811e-06,2133.8,-0.00029128,16.489,0.0034191
26409,0.82241,2.3636,0.1,0.00058732,5869.2,0.00059484,6626.3,-1.2817e-05,2060.6,-0.00028626,6.0382,0.0042999
26410,0.73103,2.6364,0.1,0.0005979,5974.8,0.00060542,6765.9,-8.5592e-06,2152.7,-0.00029286,16.553,0.0034326
26411,0.82241,2.5455,0.1,0.00058994,5895.3,0.00059732,6659.3,-1.1423e-05,2085.4,-0.00028817,6.071,0.0043209
26412,0.73103,2.8182,0.1,0.00059931,5989,0.00060679,6783.2,-8.0353e-06,2163.6,-0.00029379,16.59,0.0034406
26413,0.82241,2.7273,0.1,0.00059168,5912.7,0.00059898,6681.1,-1.0549e-05,2101.3,-0.00028941,6.0922,0.0043345
26414,0.73103,3,0.1,0.00059978,5993.7,0.00060724,6788.9,-7.8654e-06,2167.2,-0.00029409,16.602,0.0034432
26415,0.82241,2.9091,0.1,0.00059255,5921.4,0.0005998,6691.9,-1.0129e-05,2109.1,-0.00029003,6.1026,0.0043412
26416,0.73103,3.1818,0.1,0.00059931,5989,0.00060679,6783.2,-8.0353e-06,2163.6,-0.00029379,16.59,0.0034406
26417,0.82241,3.0909,0.1,0.00059255,5921.4,0.0005998,6691.9,-1.0129e-05,2109.1,-0.00029003,6.1026,0.0043412
26418,0.73103,3.3636,0.1,0.0005979,5974.8,0.00060542,6765.9,-8.5592e-06,2152.7,-0.00029286,16.553,0.0034326
26419,0.82241,3.2727,0.1,0.00059168,5912.7,0.00059898,6681.1,-1.0549e-05,2101.3,-0.00028941,6.0922,0.0043345
26420,0.73103,3.5455,0.1,0.00059552,5951.1,0.00060313,6736.7,-9.4811e-06,2133.8,-0.00029128,16.489,0.0034191
26421,0.82241,3.4545,0.1,0.00058994,5895.3,0.00059732,6659.3,-1.1423e-05,2085.4,-0.00028817,6.071,0.0043209
26422,0.73103,3.7273,0.1,0.00059217,5917.6,0.0005999,6695.3,-1.0881e-05,2106.1,-0.00028901,16.396,0.0033994
26423,0.82241,3.6364,0.1,0.00058732,5869.2,0.00059484,6626.3,-1.2817e-05,2060.6,-0.00028626,6.0382,0.0042999
26424,0.73103,3.9091,0.1,0.00058782,5874.2,0.00059574,6641.2,-1.2888e-05,2068.2,-0.00028598,16.269,0.0033727
26425,0.82241,3.8182,0.1,0.00058385,5834.4,0.00059155,6581.9,-1.4847e-05,2025.6,-0.00028365,5.9923,0.0042707
26426,0.73103,4.0909,0.1,0.00058249,5820.9,0.00059066,6573.7,-1.5695e-05,2017.8,-0.0002821,16.102,0.0033381
26427,0.82241,4,0.1,0.00057953,5791.3,0.0005875,6525.9,-1.7684e-05,1978.8,-0.00028025,5.9313,0.0042323
26428,0.73103,4.2727,0.1,0.00057621,5758.2,0.00058472,6492.6,-1.9595e-05,1952,-0.00027727,15.886,0.003294
26429,0.82241,4.1818,0.1,0.00057444,5740.4,0.00058275,6458.1,-2.1582e-05,1917.4,-0.000276,5.8519,0.004183
26430,0.73103,4.4545,0.1,0.00056913,5687.4,0.00057808,6397.9,-2.5018e-05,1866.4,-0.00027135,15.606,0.0032384
26431,0.82241,4.3636,0.1,0.00056871,5683.2,0.00057746,6379.1,-2.6905e-05,1838.1,-0.00027078,5.7494,0.0041207
26432,0.73103,4.6364,0.1,0.00056155,5611.6,0.00057104,6290.8,-3.2595e-05,1755.3,-0.00026418,15.242,0.0031684
26433,0.82241,4.5455,0.1,0.00056263,5622.5,0.00057191,6289.9,-3.4167e-05,1736.1,-0.00026448,5.6157,0.0040427
26434,0.73103,4.8182,0.1,0.00055406,5536.8,0.00056417,6174.1,-4.3223e-05,1610.4,-0.00025559,14.754,0.0030803
26435,0.82241,4.7273,0.1,0.00055668,5563,0.00056654,6193,-4.4073e-05,1605.1,-0.00025697,5.4378,0.0039451
26436,0.73103,5,0.1,0.00054772,5473.4,0.00055838,6053.8,-5.8096e-05,1421.9,-0.00024546,14.082,0.0029686
26437,0.82241,4.9091,0.1,0.00055167,5512.9,0.00056207,6092.8,-5.7537e-05,1437.4,-0.00024815,5.1862,0.0038228
26438,0.73103,5.1818,0.1,0.00054419,5438.1,0.000555,5939.7,-7.8568e-05,1179.3,-0.00023378,13.079,0.0028261
26439,0.82241,5.0909,0.1,0.00054883,5484.5,0.00055946,5996.6,-7.561e-05,1224.9,-0.00023799,4.8221,0.0036688
26440,0.73103,5.3636,0.1,0.00054563,5452.5,0.00055557,5845.2,-0.00010561,877.32,-0.00022084,11.594,0.0026425
26441,0.82241,5.2727,0.1,0.00054978,5494,0.00055991,5914.1,-9.9178e-05,961.95,-0.00022665,4.2007,0.0034736
26442,0.73103,5.5455,0.1,0.00055403,5536.4,0.00056129,5785.1,-0.00013876,525.22,-0.00020754,8.4483,0.002404
26443,0.82241,5.4545,0.1,0.00055616,5557.8,0.00056446,5856.8,-0.00012831,651.64,-0.00021459,3.3319,0.0032251
26444,0.73103,5.7273,0.1,0.00057187,5714.8,0.00057421,5786.2,-0.00017644,146.11,-0.00019595,-0.44501,0.0020936
26445,0.82241,5.6364,0.1,0.00056892,5685.3,0.0005736,5835.4,-0.00016142,312.68,-0.00020299,0.40549,0.0029076
26446,0.82241,5.8182,0.1,0.00059117,5907.6,0.00059034,5884.1,-0.0001906,16.349,-0.00020112,-62.714,0.0025034
26447,0.73103,5.9091,0.1,0.00057609,5757,0.00057482,5720.4,-0.00018632,1.4318,-0.00019634,-73.877,0.0016919
26448,0.91379,0.27273,0.1,0.00058787,5874.7,0.00058981,5933.8,-0.00018294,127.67,-0.00020088,-7.1159,0.003433
26449,1.0052,0.18182,0.1,0.00060207,6016.6,0.00060156,6002,-0.00019516,15.753,-0.00020317,-44.441,0.0039787
26450,0.91379,0.090909,0.1,0.00059246,5920.5,0.00059153,5893.5,-0.00019299,-1.0286,-0.00019985,-52.569,0.0029278
26451,0.91379,0.45455,0.1,0.0005707,5703.1,0.0005768,5907.3,-0.00015106,438.46,-0.00020998,-4.2597,0.0038384
26452,1.0052,0.36364,0.1,0.00058198,5815.8,0.00058604,5944.5,-0.00016913,270.42,-0.00020557,-3.3176,0.004479
26453,0.91379,0.63636,0.1,0.00055994,5595.6,0.00056872,5925.1,-0.0001218,736.83,-0.00022039,-3.95,0.0041616
26454,1.0052,0.54545,0.1,0.0005687,5683,0.00057604,5938.5,-0.00014062,553.82,-0.0002146,-2.0017,0.0048849
26455,0.91379,0.81818,0.1,0.00055413,5537.5,0.00056423,5969.9,-9.608e-05,1008.6,-0.00023085,-4.0088,0.0044186
26456,1.0052,0.72727,0.1,0.00055969,5593,0.00056908,5958.4,-0.00011419,824.54,-0.00022418,-1.8645,0.0052124
26457,0.91379,1,0.1,0.0005526,5522.2,0.00056301,6034.5,-7.4915e-05,1241.4,-0.00024068,-4.0505,0.0046235
26458,1.0052,0.90909,0.1,0.00055484,5544.6,0.00056518,5999.4,-9.1293e-05,1066.9,-0.00023352,-1.7309,0.0054764
26459,0.91379,1.1818,0.1,0.0005542,5538.2,0.00056434,6110.9,-5.8286e-05,1432.8,-0.00024953,-4.1183,0.0047874
26460,1.0052,1.0909,0.1,0.00055349,5531.1,0.00056398,6055.6,-7.2477e-05,1273.5,-0.0002422,-1.6952,0.0056894
26461,0.91379,1.3636,0.1,0.00055773,5573.5,0.00056734,6191.7,-4.5581e-05,1586.4,-0.00025727,-4.1817,0.0049189
26462,1.0052,1.2727,0.1,0.00055464,5542.5,0.00056484,6120.5,-5.755e-05,1444.1,-0.00024997,-1.6841,0.0058615
26463,0.91379,1.5455,0.1,0.0005622,5618.2,0.00057125,6270.8,-3.6016e-05,1708.1,-0.00026391,-4.2373,0.0050247
26464,1.0052,1.4545,0.1,0.00055733,5569.5,0.00056705,6188.2,-4.5964e-05,1582.2,-0.00025677,-1.6885,0.0060008
26465,0.91379,1.7273,0.1,0.00056694,5665.4,0.00057547,6344.5,-2.8869e-05,1803.8,-0.00026951,-4.2823,0.0051096
26466,1.0052,1.6364,0.1,0.00056082,5604.3,0.00057002,6254.3,-3.709e-05,1692.7,-0.0002626,-1.6965,0.0061133
26467,0.91379,1.9091,0.1,0.00057148,5710.8,0.00057957,6410.2,-2.3555e-05,1878.5,-0.00027415,-4.3176,0.0051774
26468,1.0052,1.8182,0.1,0.00056453,5641.4,0.00057326,6315.5,-3.0351e-05,1780.3,-0.00026752,-1.7046,0.006204
26469,0.91379,2.0909,0.1,0.00057555,5751.5,0.0005833,6466.5,-1.963e-05,1936.3,-0.00027792,-4.3446,0.005231
26470,1.0052,2,0.1,0.00056811,5677.2,0.00057643,6369.9,-2.5276e-05,1848.9,-0.00027158,-1.7114,0.0062763
26471,0.91379,2.2727,0.1,0.000579,5786,0.00058648,6512.8,-1.6769e-05,1980.2,-0.0002809,-4.3647,0.0052724
26472,1.0052,2.1818,0.1,0.00057132,5709.2,0.00057931,6416.1,-2.1502e-05,1901.9,-0.00027486,-1.7166,0.006333
26473,0.91379,2.4545,0.1,0.00058174,5813.3,0.00058902,6548.7,-1.4744e-05,2012.3,-0.00028315,-4.3792,0.0053031
26474,1.0052,2.3636,0.1,0.000574,5736,0.00058174,6453.5,-1.8757e-05,1941.7,-0.0002774,-1.7203,0.0063762
26475,0.91379,2.6364,0.1,0.00058371,5833.1,0.00059086,6574.4,-1.3397e-05,2034.2,-0.00028472,-4.389,0.0053244
26476,1.0052,2.5455,0.1,0.00057606,5756.6,0.00058362,6481.7,-1.6848e-05,1970,-0.00027927,-1.7228,0.0064073
26477,0.91379,2.8182,0.1,0.0005849,5845,0.00059198,6589.7,-1.2627e-05,2047,-0.00028565,-4.3946,0.0053368
26478,1.0052,2.7273,0.1,0.00057746,5770.6,0.0005849,6500.5,-1.5643e-05,1988.3,-0.0002805,-1.7243,0.0064276
26479,0.91379,3,0.1,0.0005853,5848.9,0.00059235,6594.8,-1.2376e-05,2051.2,-0.00028596,-4.3965,0.0053409
26480,1.0052,2.9091,0.1,0.00057817,5777.7,0.00058555,6510,-1.506e-05,1997.2,-0.0002811,-1.725,0.0064375
26481,0.91379,3.1818,0.1,0.0005849,5845,0.00059198,6589.7,-1.2627e-05,2047,-0.00028565,-4.3946,0.0053368
26482,1.0052,3.0909,0.1,0.00057817,5777.7,0.00058555,6510,-1.506e-05,1997.2,-0.0002811,-1.725,0.0064375
26483,0.91379,3.3636,0.1,0.00058371,5833.1,0.00059086,6574.4,-1.3397e-05,2034.2,-0.00028472,-4.389,0.0053244
26484,1.0052,3.2727,0.1,0.00057746,5770.6,0.0005849,6500.5,-1.5643e-05,1988.3,-0.0002805,-1.7243,0.0064276
26485,0.91379,3.5455,0.1,0.00058174,5813.3,0.00058902,6548.7,-1.4744e-05,2012.3,-0.00028315,-4.3792,0.0053031
26486,1.0052,3.4545,0.1,0.00057606,5756.6,0.00058362,6481.7,-1.6848e-05,1970,-0.00027927,-1.7228,0.0064073
26487,0.91379,3.7273,0.1,0.000579,5786,0.00058648,6512.8,-1.6769e-05,1980.2,-0.0002809,-4.3647,0.0052724
26488,1.0052,3.6364,0.1,0.000574,5736,0.00058174,6453.5,-1.8757e-05,1941.7,-0.0002774,-1.7203,0.0063762
26489,0.91379,3.9091,0.1,0.00057555,5751.5,0.0005833,6466.5,-1.963e-05,1936.3,-0.00027792,-4.3446,0.005231
26490,1.0052,3.8182,0.1,0.00057132,5709.2,0.00057931,6416.1,-2.1502e-05,1901.9,-0.00027486,-1.7166,0.006333
26491,0.91379,4.0909,0.1,0.00057148,5710.8,0.00057957,6410.2,-2.3555e-05,1878.5,-0.00027415,-4.3176,0.0051774
26492,1.0052,4,0.1,0.00056811,5677.2,0.00057643,6369.9,-2.5276e-05,1848.9,-0.00027158,-1.7114,0.0062763
26493,0.91379,4.2727,0.1,0.00056694,5665.4,0.00057547,6344.5,-2.8869e-05,1803.8,-0.00026951,-4.2823,0.0051096
26494,1.0052,4.1818,0.1,0.00056453,5641.4,0.00057326,6315.5,-3.0351e-05,1780.3,-0.00026752,-1.7046,0.006204
26495,0.91379,4.4545,0.1,0.0005622,5618.2,0.00057125,6270.8,-3.6016e-05,1708.1,-0.00026391,-4.2373,0.0050247
26496,1.0052,4.3636,0.1,0.00056082,5604.3,0.00057002,6254.3,-3.709e-05,1692.7,-0.0002626,-1.6965,0.0061133
26497,0.91379,4.6364,0.1,0.00055773,5573.5,0.00056734,6191.7,-4.5581e-05,1586.4,-0.00025727,-4.1817,0.0049189
26498,1.0052,4.5455,0.1,0.00055733,5569.5,0.00056705,6188.2,-4.5964e-05,1582.2,-0.00025677,-1.6885,0.0060008
26499,0.91379,4.8182,0.1,0.0005542,5538.2,0.00056434,6110.9,-5.8286e-05,1432.8,-0.00024953,-4.1183,0.0047874
26500,1.0052,4.7273,0.1,0.00055464,5542.5,0.00056484,6120.5,-5.755e-05,1444.1,-0.00024997,-1.6841,0.0058615
26501,0.91379,5,0.1,0.0005526,5522.2,0.00056301,6034.5,-7.4915e-05,1241.4,-0.00024068,-4.0505,0.0046235
26502,1.0052,4.9091,0.1,0.00055349,5531.1,0.00056398,6055.6,-7.2477e-05,1273.5,-0.0002422,-1.6952,0.0056894
26503,0.91379,5.1818,0.1,0.00055413,5537.5,0.00056423,5969.9,-9.608e-05,1008.6,-0.00023085,-4.0088,0.0044186
26504,1.0052,5.0909,0.1,0.00055484,5544.6,0.00056518,5999.4,-9.1293e-05,1066.9,-0.00023352,-1.7309,0.0054764
26505,0.91379,5.3636,0.1,0.00055994,5595.6,0.00056872,5925.1,-0.0001218,736.83,-0.00022039,-3.95,0.0041616
26506,1.0052,5.2727,0.1,0.00055969,5593,0.00056908,5958.4,-0.00011419,824.54,-0.00022418,-1.8645,0.0052124
26507,0.91379,5.5455,0.1,0.0005707,5703.1,0.0005768,5907.3,-0.00015106,438.46,-0.00020998,-4.2597,0.0038384
26508,1.0052,5.4545,0.1,0.0005687,5683,0.00057604,5938.5,-0.00014062,553.82,-0.0002146,-2.0017,0.0048849
26509,0.91379,5.7273,0.1,0.00058787,5874.7,0.00058981,5933.8,-0.00018294,127.67,-0.00020088,-7.1159,0.003433
26510,1.0052,5.6364,0.1,0.00058198,5815.8,0.00058604,5944.5,-0.00016913,270.42,-0.00020557,-3.3176,0.004479
26511,1.0052,5.8182,0.1,0.00060207,6016.6,0.00060156,6002,-0.00019516,15.753,-0.00020317,-44.441,0.0039787
26512,0.91379,5.9091,0.1,0.00059246,5920.5,0.00059153,5893.5,-0.00019299,-1.0286,-0.00019985,-52.569,0.0029278
26513,1.0966,0.27273,0.1,0.00059596,5955.5,0.00059786,6013.2,-0.00018629,121.39,-0.00020299,-4.0343,0.0051449
26514,1.1879,0.18182,0.1,0.00060687,6064.5,0.00060668,6059,-0.00019724,18.72,-0.00020365,-29.437,0.0058352
26515,1.0966,0.090909,0.1,0.00060102,6006,0.00060042,5988.5,-0.00019661,-0.016014,-0.00020124,-34.78,0.0045442
26516,1.0966,0.45455,0.1,0.00057977,5793.7,0.00058534,5976.2,-0.0001588,384.99,-0.00021014,-0.71959,0.0056401
26517,1.1879,0.36364,0.1,0.0005887,5883,0.00059244,6000.4,-0.00017362,244.49,-0.00020641,-1.8947,0.0064249
26518,1.0966,0.63636,0.1,0.00056821,5678.1,0.0005764,5971.8,-0.00013301,641.53,-0.00021837,0.16658,0.0060455
26519,1.1879,0.54545,0.1,0.00057569,5752.9,0.00058242,5980.7,-0.00014875,487,-0.00021363,-0.45195,0.0069146
26520,1.0966,0.81818,0.1,0.00056018,5598,0.00056997,5987.4,-0.00010934,883.35,-0.00022685,0.44936,0.0063763
26521,1.1879,0.72727,0.1,0.00056566,5652.7,0.00057448,5979.6,-0.00012504,723.69,-0.00022138,-0.19476,0.0073189
26522,1.0966,1,0.1,0.00055556,5551.8,0.00056605,6019.8,-8.8761e-05,1099.7,-0.00023504,0.6433,0.0066457
26523,1.1879,0.90909,0.1,0.00055872,5583.3,0.00056875,5994.9,-0.00010359,943.17,-0.00022911,0.022589,0.0076517
26524,1.0966,1.1818,0.1,0.00055381,5534.3,0.00056438,6064.4,-7.1646e-05,1285.5,-0.00024264,0.74958,0.0068652
26525,1.1879,1.0909,0.1,0.00055468,5543,0.0005652,6023.6,-8.5076e-05,1137.7,-0.00023647,0.12735,0.0079252
26526,1.0966,1.3636,0.1,0.00055417,5537.9,0.00056446,6116.4,-5.7854e-05,1440.5,-0.00024947,0.81528,0.0070441
26527,1.1879,1.2727,0.1,0.00055302,5526.4,0.00056354,6062,-6.9665e-05,1304.3,-0.00024324,0.19157,0.0081497
26528,1.0966,1.5455,0.1,0.00055591,5555.3,0.00056576,6171.2,-4.6977e-05,1567.3,-0.00025546,0.85607,0.0071896
26529,1.1879,1.4545,0.1,0.0005531,5527.1,0.00056333,6105.9,-5.7165e-05,1443.8,-0.00024929,0.22704,0.0083337
26530,1.0966,1.7273,0.1,0.0005584,5580.1,0.00056776,6225,-3.8525e-05,1669.6,-0.00026061,0.88352,0.0073076
26531,1.1879,1.6364,0.1,0.0005543,5539.2,0.00056412,6151.6,-4.7213e-05,1558.3,-0.00025458,0.2482,0.008484
26532,1.0966,1.9091,0.1,0.00056116,5607.8,0.00057008,6275,-3.2036e-05,1750.9,-0.00026495,0.90306,0.0074026
26533,1.1879,1.8182,0.1,0.00055614,5557.6,0.00056552,6196.2,-3.9407e-05,1651,-0.00025911,0.2613,0.008606
26534,1.0966,2.0909,0.1,0.00056388,5634.9,0.00057241,6319.3,-2.7119e-05,1814.7,-0.00026852,0.91763,0.0074781
26535,1.1879,2,0.1,0.00055822,5578.4,0.00056719,6237.3,-3.3369e-05,1724.9,-0.00026291,0.27007,0.0087041
26536,1.0966,2.2727,0.1,0.00056631,5659.2,0.00057454,6356.7,-2.3463e-05,1863.5,-0.00027136,0.92865,0.0075367
26537,1.1879,2.1818,0.1,0.00056027,5598.8,0.00056889,6273.3,-2.8781e-05,1782.7,-0.000266,0.27629,0.0087814
26538,1.0966,2.4545,0.1,0.00056832,5679.3,0.00057631,6386.3,-2.0836e-05,1899.6,-0.00027353,0.93681,0.0075805
26539,1.1879,2.3636,0.1,0.00056208,5617,0.00057042,6303.1,-2.5389e-05,1826.4,-0.00026843,0.28081,0.0088406
26540,1.0966,2.6364,0.1,0.00056981,5694.1,0.00057763,6407.7,-1.907e-05,1924.3,-0.00027505,0.94248,0.0076107
26541,1.1879,2.5455,0.1,0.00056354,5631.5,0.00057167,6325.9,-2.3e-05,1857.8,-0.00027022,0.28404,0.0088834
26542,1.0966,2.8182,0.1,0.00057072,5703.3,0.00057845,6420.6,-1.8052e-05,1938.7,-0.00027595,0.94583,0.0076285
26543,1.1879,2.7273,0.1,0.00056455,5641.6,0.00057254,6341.3,-2.1479e-05,1878.1,-0.0002714,0.28615,0.0089113
26544,1.0966,3,0.1,0.00057103,5706.3,0.00057873,6424.9,-1.772e-05,1943.5,-0.00027625,0.94694,0.0076344
26545,1.1879,2.9091,0.1,0.00056506,5646.7,0.00057299,6349.1,-2.074e-05,1888,-0.00027198,0.28719,0.008925
26546,1.0966,3.1818,0.1,0.00057072,5703.3,0.00057845,6420.6,-1.8052e-05,1938.7,-0.00027595,0.94583,0.0076285
26547,1.1879,3.0909,0.1,0.00056506,5646.7,0.00057299,6349.1,-2.074e-05,1888,-0.00027198,0.28719,0.008925
26548,1.0966,3.3636,0.1,0.00056981,5694.1,0.00057763,6407.7,-1.907e-05,1924.3,-0.00027505,0.94248,0.0076107
26549,1.1879,3.2727,0.1,0.00056455,5641.6,0.00057254,6341.3,-2.1479e-05,1878.1,-0.0002714,0.28615,0.0089113
26550,1.0966,3.5455,0.1,0.00056832,5679.3,0.00057631,6386.3,-2.0836e-05,1899.6,-0.00027353,0.93681,0.0075805
26551,1.1879,3.4545,0.1,0.00056354,5631.5,0.00057167,6325.9,-2.3e-05,1857.8,-0.00027022,0.28404,0.0088834
26552,1.0966,3.7273,0.1,0.00056631,5659.2,0.00057454,6356.7,-2.3463e-05,1863.5,-0.00027136,0.92865,0.0075367
26553,1.1879,3.6364,0.1,0.00056208,5617,0.00057042,6303.1,-2.5389e-05,1826.4,-0.00026843,0.28081,0.0088406
26554,1.0966,3.9091,0.1,0.00056388,5634.9,0.00057241,6319.3,-2.7119e-05,1814.7,-0.00026852,0.91763,0.0074781
26555,1.1879,3.8182,0.1,0.00056027,5598.8,0.00056889,6273.3,-2.8781e-05,1782.7,-0.000266,0.27629,0.0087814
26556,1.0966,4.0909,0.1,0.00056116,5607.8,0.00057008,6275,-3.2036e-05,1750.9,-0.00026495,0.90306,0.0074026
26557,1.1879,4,0.1,0.00055822,5578.4,0.00056719,6237.3,-3.3369e-05,1724.9,-0.00026291,0.27007,0.0087041
26558,1.0966,4.2727,0.1,0.0005584,5580.1,0.00056776,6225,-3.8525e-05,1669.6,-0.00026061,0.88352,0.0073076
26559,1.1879,4.1818,0.1,0.00055614,5557.6,0.00056552,6196.2,-3.9407e-05,1651,-0.00025911,0.2613,0.008606
26560,1.0966,4.4545,0.1,0.00055591,5555.3,0.00056576,6171.2,-4.6977e-05,1567.3,-0.00025546,0.85607,0.0071896
26561,1.1879,4.3636,0.1,0.0005543,5539.2,0.00056412,6151.6,-4.7213e-05,1558.3,-0.00025458,0.2482,0.008484
26562,1.0966,4.6364,0.1,0.00055417,5537.9,0.00056446,6116.4,-5.7854e-05,1440.5,-0.00024947,0.81528,0.0070441
26563,1.1879,4.5455,0.1,0.0005531,5527.1,0.00056333,6105.9,-5.7165e-05,1443.8,-0.00024929,0.22704,0.0083337
26564,1.0966,4.8182,0.1,0.00055381,5534.3,0.00056438,6064.4,-7.1646e-05,1285.5,-0.00024264,0.74958,0.0068652
26565,1.1879,4.7273,0.1,0.00055302,5526.4,0.00056354,6062,-6.9665e-05,1304.3,-0.00024324,0.19157,0.0081497
26566,1.0966,5,0.1,0.00055556,5551.8,0.00056605,6019.8,-8.8761e-05,1099.7,-0.00023504,0.6433,0.0066457
26567,1.1879,4.9091,0.1,0.00055468,5543,0.0005652,6023.6,-8.5076e-05,1137.7,-0.00023647,0.12735,0.0079252
26568,1.0966,5.1818,0.1,0.00056018,5598,0.00056997,5987.4,-0.00010934,883.35,-0.00022685,0.44936,0.0063763
26569,1.1879,5.0909,0.1,0.00055872,5583.3,0.00056875,5994.9,-0.00010359,943.17,-0.00022911,0.022589,0.0076517
26570,1.0966,5.3636,0.1,0.00056821,5678.1,0.0005764,5971.8,-0.00013301,641.53,-0.00021837,0.16658,0.0060455
26571,1.1879,5.2727,0.1,0.00056566,5652.7,0.00057448,5979.6,-0.00012504,723.69,-0.00022138,-0.19476,0.0073189
26572,1.0966,5.5455,0.1,0.00057977,5793.7,0.00058534,5976.2,-0.0001588,384.99,-0.00021014,-0.71959,0.0056401
26573,1.1879,5.4545,0.1,0.00057569,5752.9,0.00058242,5980.7,-0.00014875,487,-0.00021363,-0.45195,0.0069146
26574,1.0966,5.7273,0.1,0.00059596,5955.5,0.00059786,6013.2,-0.00018629,121.39,-0.00020299,-4.0343,0.0051449
26575,1.1879,5.6364,0.1,0.0005887,5883,0.00059244,6000.4,-0.00017362,244.49,-0.00020641,-1.8947,0.0064249
26576,1.1879,5.8182,0.1,0.00060687,6064.5,0.00060668,6059,-0.00019724,18.72,-0.00020365,-29.437,0.0058352
26577,1.0966,5.9091,0.1,0.00060102,6006,0.00060042,5988.5,-0.00019661,-0.016013,-0.00020124,-34.78,0.0045442
26578,1.2793,0.27273,0.1,0.00059947,5990.6,0.00060132,6046.7,-0.00018777,117.75,-0.00020394,-3.6923,0.0072383
26579,1.3707,0.18182,0.1,0.00060789,6074.7,0.00060794,6076.3,-0.00019776,22.603,-0.00020332,-19.126,0.0080799
26580,1.2793,0.090909,0.1,0.00060476,6043.5,0.0006044,6032.8,-0.0001985,0.13005,-0.00020136,-21.359,0.00655
26581,1.2793,0.45455,0.1,0.0005845,5841,0.00058958,6005.4,-0.00016367,345.75,-0.00020987,-1.361,0.0078172
26582,1.3707,0.36364,0.1,0.00059149,5910.8,0.00059497,6019.5,-0.00017612,225.8,-0.00020642,-1.875,0.008752
26583,1.2793,0.63636,0.1,0.00057299,5725.9,0.00058052,5988.7,-0.00014081,568.92,-0.00021663,-0.74839,0.008301
26584,1.3707,0.54545,0.1,0.00057911,5787.1,0.00058528,5992.7,-0.00015416,436.87,-0.00021239,-0.70142,0.0093202
26585,1.2793,0.81818,0.1,0.00056403,5636.4,0.00057324,5986.9,-0.00011927,783.64,-0.00022364,-0.59327,0.0087034
26586,1.3707,0.72727,0.1,0.00056886,5684.7,0.00057707,5979.5,-0.00013288,645.19,-0.00021882,-0.52779,0.0097977
26587,1.2793,1,0.1,0.00055769,5573.1,0.00056785,5998.3,-9.9849e-05,981.49,-0.00023054,-0.47806,0.0090372
26588,1.3707,0.90909,0.1,0.00056092,5605.3,0.00057047,5978.7,-0.0001131,842.68,-0.0002253,-0.36119,0.010197
26589,1.2793,1.1818,0.1,0.00055377,5533.9,0.00056429,6020.7,-8.3026e-05,1157,-0.00023707,-0.42161,0.0093134
26590,1.3707,1.0909,0.1,0.00055528,5549,0.00056555,5989,-9.5432e-05,1022.6,-0.00023157,-0.2829,0.010531
26591,1.2793,1.3636,0.1,0.00055186,5514.8,0.00056233,6050.9,-6.8905e-05,1308.1,-0.00024306,-0.39109,0.0095414
26592,1.3707,1.2727,0.1,0.00055173,5513.5,0.00056224,6008.2,-8.0185e-05,1181.3,-0.00023744,-0.23466,0.010809
26593,1.2793,1.5455,0.1,0.00055143,5510.5,0.00056163,6085.9,-5.7336e-05,1435.2,-0.00024841,-0.3773,0.009729
26594,1.3707,1.4545,0.1,0.00054986,5494.8,0.00056028,6033.7,-6.7374e-05,1317.8,-0.00024279,-0.21009,0.011039
26595,1.2793,1.7273,0.1,0.00055201,5516.3,0.00056182,6122.5,-4.8039e-05,1540.2,-0.00025308,-0.37172,0.0098826
26596,1.3707,1.6364,0.1,0.00054924,5488.7,0.00055939,6062.8,-5.6841e-05,1432.6,-0.00024754,-0.19769,0.011228
26597,1.2793,1.9091,0.1,0.00055318,5528,0.00056258,6158.2,-4.0693e-05,1625.4,-0.00025707,-0.37014,0.010007
26598,1.3707,1.8182,0.1,0.00054947,5491,0.00055927,6092.8,-4.8342e-05,1527.5,-0.00025166,-0.19217,0.011384
26599,1.2793,2.0909,0.1,0.0005546,5542.1,0.00056362,6191,-3.4992e-05,1693.2,-0.0002604,-0.37018,0.010107
26600,1.3707,2,0.1,0.0005502,5498.2,0.00055963,6121.8,-4.1607e-05,1604.4,-0.00025516,-0.19004,0.011509
26601,1.2793,2.2727,0.1,0.00055603,5556.4,0.00056473,6219.4,-3.0672e-05,1745.8,-0.00026307,-0.37074,0.010184
26602,1.3707,2.1818,0.1,0.00055116,5507.8,0.00056025,6148.1,-3.6386e-05,1665.2,-0.00025804,-0.18946,0.011609
26603,1.2793,2.4545,0.1,0.00055729,5569.1,0.00056574,6242.4,-2.752e-05,1784.9,-0.00026512,-0.37132,0.010243
26604,1.3707,2.3636,0.1,0.00055213,5517.5,0.00056095,6170.4,-3.2463e-05,1711.8,-0.00026031,-0.18951,0.011685
26605,1.2793,2.6364,0.1,0.00055827,5578.8,0.00056654,6259.3,-2.5379e-05,1811.8,-0.00026657,-0.37175,0.010283
26606,1.3707,2.5455,0.1,0.00055298,5526,0.00056158,6187.8,-2.9668e-05,1745.4,-0.000262,-0.18973,0.011741
26607,1.2793,2.8182,0.1,0.00055888,5585,0.00056705,6269.5,-2.4137e-05,1827.6,-0.00026743,-0.37201,0.010307
26608,1.3707,2.7273,0.1,0.0005536,5532.1,0.00056204,6199.7,-2.7873e-05,1767.3,-0.00026311,-0.18993,0.011777
26609,1.2793,3,0.1,0.00055909,5587.1,0.00056722,6273,-2.373e-05,1832.8,-0.00026771,-0.3721,0.010315
26610,1.3707,2.9091,0.1,0.00055392,5535.4,0.00056229,6205.8,-2.6995e-05,1778.1,-0.00026367,-0.19004,0.011795
26611,1.2793,3.1818,0.1,0.00055888,5585,0.00056705,6269.5,-2.4137e-05,1827.6,-0.00026743,-0.37201,0.010307
26612,1.3707,3.0909,0.1,0.00055392,5535.4,0.00056229,6205.8,-2.6995e-05,1778.1,-0.00026367,-0.19004,0.011795
26613,1.2793,3.3636,0.1,0.00055827,5578.8,0.00056654,6259.3,-2.5379e-05,1811.8,-0.00026657,-0.37175,0.010283
26614,1.3707,3.2727,0.1,0.0005536,5532.1,0.00056204,6199.7,-2.7873e-05,1767.3,-0.00026311,-0.18993,0.011777
26615,1.2793,3.5455,0.1,0.00055729,5569.1,0.00056574,6242.4,-2.752e-05,1784.9,-0.00026512,-0.37132,0.010243
26616,1.3707,3.4545,0.1,0.00055298,5526,0.00056158,6187.8,-2.9668e-05,1745.4,-0.000262,-0.18973,0.011741
26617,1.2793,3.7273,0.1,0.00055603,5556.4,0.00056473,6219.4,-3.0672e-05,1745.8,-0.00026307,-0.37074,0.010184
26618,1.3707,3.6364,0.1,0.00055213,5517.5,0.00056095,6170.4,-3.2463e-05,1711.8,-0.00026031,-0.18951,0.011685
26619,1.2793,3.9091,0.1,0.0005546,5542.1,0.00056362,6191,-3.4992e-05,1693.2,-0.0002604,-0.37018,0.010107
26620,1.3707,3.8182,0.1,0.00055116,5507.8,0.00056025,6148.1,-3.6386e-05,1665.2,-0.00025804,-0.18946,0.011609
26621,1.2793,4.0909,0.1,0.00055318,5528,0.00056258,6158.2,-4.0693e-05,1625.4,-0.00025707,-0.37014,0.010007
26622,1.3707,4,0.1,0.0005502,5498.2,0.00055963,6121.8,-4.1607e-05,1604.4,-0.00025516,-0.19004,0.011509
26623,1.2793,4.2727,0.1,0.00055201,5516.3,0.00056182,6122.5,-4.8039e-05,1540.2,-0.00025308,-0.37171,0.0098826
26624,1.3707,4.1818,0.1,0.00054947,5491,0.00055927,6092.8,-4.8342e-05,1527.5,-0.00025166,-0.19217,0.011384
26625,1.2793,4.4545,0.1,0.00055143,5510.5,0.00056163,6085.9,-5.7336e-05,1435.2,-0.00024841,-0.3773,0.009729
26626,1.3707,4.3636,0.1,0.00054924,5488.7,0.00055939,6062.8,-5.6841e-05,1432.6,-0.00024754,-0.19769,0.011228
26627,1.2793,4.6364,0.1,0.00055186,5514.8,0.00056233,6050.9,-6.8905e-05,1308.1,-0.00024306,-0.39109,0.0095414
26628,1.3707,4.5455,0.1,0.00054986,5494.8,0.00056028,6033.7,-6.7374e-05,1317.8,-0.00024279,-0.21009,0.011039
26629,1.2793,4.8182,0.1,0.00055377,5533.9,0.00056429,6020.7,-8.3026e-05,1157,-0.00023707,-0.42161,0.0093134
26630,1.3707,4.7273,0.1,0.00055173,5513.5,0.00056224,6008.2,-8.0185e-05,1181.3,-0.00023744,-0.23466,0.010809
26631,1.2793,5,0.1,0.00055769,5573.1,0.00056785,5998.3,-9.9849e-05,981.49,-0.00023054,-0.47806,0.0090372
26632,1.3707,4.9091,0.1,0.00055528,5549,0.00056555,5989,-9.5432e-05,1022.6,-0.00023157,-0.2829,0.010531
26633,1.2793,5.1818,0.1,0.00056403,5636.4,0.00057324,5986.9,-0.00011927,783.64,-0.00022364,-0.59327,0.0087034
26634,1.3707,5.0909,0.1,0.00056092,5605.3,0.00057047,5978.7,-0.0001131,842.68,-0.0002253,-0.36119,0.010197
26635,1.2793,5.3636,0.1,0.00057299,5725.9,0.00058052,5988.7,-0.00014081,568.92,-0.00021663,-0.74839,0.008301
26636,1.3707,5.2727,0.1,0.00056886,5684.7,0.00057707,5979.5,-0.00013288,645.19,-0.00021882,-0.52779,0.0097977
26637,1.2793,5.5455,0.1,0.0005845,5841,0.00058958,6005.4,-0.00016367,345.75,-0.00020987,-1.361,0.0078172
26638,1.3707,5.4545,0.1,0.00057911,5787.1,0.00058528,5992.7,-0.00015416,436.87,-0.00021239,-0.70142,0.0093202
26639,1.2793,5.7273,0.1,0.00059947,5990.6,0.00060132,6046.7,-0.00018777,117.75,-0.00020394,-3.6923,0.0072383
26640,1.3707,5.6364,0.1,0.00059149,5910.8,0.00059497,6019.5,-0.00017612,225.8,-0.00020642,-1.875,0.008752
26641,1.3707,5.8182,0.1,0.00060789,6074.7,0.00060794,6076.3,-0.00019776,22.603,-0.00020332,-19.126,0.0080799
26642,1.2793,5.9091,0.1,0.00060476,6043.5,0.0006044,6032.8,-0.0001985,0.13005,-0.00020136,-21.359,0.00655
26643,1.4621,0.27273,0.1,0.00059981,5993.9,0.00060164,6049.5,-0.00018809,115.83,-0.00020389,-2.8988,0.0097184
26644,1.5534,0.18182,0.1,0.00060637,6059.6,0.00060662,6067.1,-0.00019717,27.67,-0.00020251,-12.427,0.010717
26645,1.4621,0.090909,0.1,0.00060527,6048.6,0.0006051,6043.5,-0.00019912,0.85433,-0.0002007,-11.017,0.00895
26646,1.4621,0.45455,0.1,0.00058601,5856.1,0.00059073,6007.2,-0.00016669,316.26,-0.00020892,-1.0058,0.010375
26647,1.5534,0.36364,0.1,0.00059152,5911.1,0.0005948,6013.2,-0.00017735,211.54,-0.00020572,-1.5769,0.011464
26648,1.4621,0.63636,0.1,0.00057488,5744.8,0.00058187,5983.8,-0.00014627,512.82,-0.00021458,-0.42874,0.010932
26649,1.5534,0.54545,0.1,0.00057987,5794.7,0.0005856,5983,-0.00015775,397.85,-0.00021077,-0.53189,0.012105
26650,1.4621,0.81818,0.1,0.00056563,5652.4,0.0005743,5971.3,-0.00012672,704.18,-0.00022047,-0.27304,0.011403
26651,1.5534,0.72727,0.1,0.00056979,5694,0.00057746,5962.7,-0.00013858,582.71,-0.00021619,-0.37804,0.012652
26652,1.4621,1,0.1,0.0005584,5580.1,0.00056815,5969.2,-0.00010866,883.99,-0.00022633,-0.15359,0.011799
26653,1.5534,0.90909,0.1,0.00056145,5610.6,0.0005705,5951.9,-0.00012045,760.42,-0.00022168,-0.22382,0.013116
26654,1.4621,1.1818,0.1,0.00055314,5527.6,0.00056346,5976.3,-9.2547e-05,1047.3,-0.00023195,-0.088365,0.012132
26655,1.5534,1.0909,0.1,0.00055493,5545.5,0.00056485,5949.9,-0.00010386,925.5,-0.00022706,-0.14681,0.013507
26656,1.4621,1.3636,0.1,0.00054965,5492.7,0.00056013,5990.6,-7.86e-05,1191.4,-0.00023718,-0.048788,0.012409
26657,1.5534,1.2727,0.1,0.00055016,5497.8,0.0005605,5955.6,-8.9162e-05,1074.3,-0.00023216,-0.096163,0.013837
26658,1.4621,1.5455,0.1,0.00054761,5472.3,0.00055799,6010.2,-6.6823e-05,1315.6,-0.00024192,-0.027245,0.01264
26659,1.5534,1.4545,0.1,0.00054692,5465.4,0.00055736,5967.4,-7.6466e-05,1205.1,-0.00023686,-0.067797,0.014113
26660,1.4621,1.7273,0.1,0.00054666,5462.9,0.00055679,6032.7,-5.709e-05,1420.3,-0.00024612,-0.015942,0.01283
26661,1.5534,1.6364,0.1,0.00054492,5445.4,0.00055524,5983.3,-6.575e-05,1317.4,-0.00024109,-0.052035,0.014343
26662,1.4621,1.9091,0.1,0.00054647,5460.9,0.00055627,6056.1,-4.9206e-05,1506.8,-0.00024975,-0.010524,0.012986
26663,1.5534,1.8182,0.1,0.00054386,5434.8,0.00055393,6001.4,-5.6893e-05,1411.9,-0.00024481,-0.044112,0.014533
26664,1.4621,2.0909,0.1,0.00054674,5463.7,0.00055622,6078.6,-4.2956e-05,1576.7,-0.0002528,-0.0081924,0.013111
26665,1.5534,2,0.1,0.00054344,5430.7,0.00055323,6020,-4.9725e-05,1489.7,-0.000248,-0.040532,0.014687
26666,1.4621,2.2727,0.1,0.00054725,5468.7,0.00055643,6098.8,-3.8136e-05,1631.5,-0.00025528,-0.0073813,0.013209
26667,1.5534,2.1818,0.1,0.00054344,5430.7,0.00055293,6037.7,-4.4068e-05,1552,-0.00025064,-0.039256,0.01481
26668,1.4621,2.4545,0.1,0.00054781,5474.3,0.00055674,6115.5,-3.4572e-05,1672.6,-0.00025719,-0.0072351,0.013283
26669,1.5534,2.3636,0.1,0.00054365,5432.8,0.00055289,6053.1,-3.9756e-05,1600.2,-0.00025274,-0.039068,0.014904
26670,1.4621,2.6364,0.1,0.0005483,5479.2,0.00055704,6128,-3.2125e-05,1701.2,-0.00025854,-0.0073193,0.013334
26671,1.5534,2.5455,0.1,0.00054393,5435.6,0.00055297,6065.5,-3.6648e-05,1635.4,-0.00025431,-0.039298,0.014974
26672,1.4621,2.8182,0.1,0.00054862,5482.4,0.00055726,6135.7,-3.0696e-05,1718,-0.00025935,-0.0074269,0.013364
26673,1.5534,2.7273,0.1,0.00054418,5438,0.00055307,6074.1,-3.4637e-05,1658.3,-0.00025535,-0.03959,0.015019
26674,1.4621,3,0.1,0.00054873,5483.6,0.00055733,6138.3,-3.0226e-05,1723.6,-0.00025962,-0.0074706,0.013374
26675,1.5534,2.9091,0.1,0.00054432,5439.4,0.00055313,6078.5,-3.3649e-05,1669.6,-0.00025587,-0.039771,0.015041
26676,1.4621,3.1818,0.1,0.00054862,5482.4,0.00055726,6135.7,-3.0696e-05,1718,-0.00025935,-0.0074268,0.013364
26677,1.5534,3.0909,0.1,0.00054432,5439.4,0.00055313,6078.5,-3.3649e-05,1669.6,-0.00025587,-0.039771,0.015041
26678,1.4621,3.3636,0.1,0.0005483,5479.2,0.00055704,6128,-3.2125e-05,1701.2,-0.00025854,-0.0073193,0.013334
26679,1.5534,3.2727,0.1,0.00054418,5438,0.00055307,6074.1,-3.4637e-05,1658.3,-0.00025535,-0.03959,0.015019
26680,1.4621,3.5455,0.1,0.00054781,5474.3,0.00055674,6115.5,-3.4572e-05,1672.6,-0.00025719,-0.0072351,0.013283
26681,1.5534,3.4545,0.1,0.00054393,5435.6,0.00055297,6065.5,-3.6648e-05,1635.4,-0.00025431,-0.039298,0.014974
26682,1.4621,3.7273,0.1,0.00054725,5468.7,0.00055643,6098.8,-3.8136e-05,1631.5,-0.00025528,-0.0073811,0.013209
26683,1.5534,3.6364,0.1,0.00054365,5432.8,0.00055289,6053.1,-3.9756e-05,1600.2,-0.00025274,-0.039068,0.014904
26684,1.4621,3.9091,0.1,0.00054674,5463.7,0.00055622,6078.6,-4.2956e-05,1576.7,-0.0002528,-0.0081922,0.013111
26685,1.5534,3.8182,0.1,0.00054344,5430.7,0.00055293,6037.7,-4.4068e-05,1552,-0.00025064,-0.039256,0.01481
26686,1.4621,4.0909,0.1,0.00054647,5460.9,0.00055627,6056.1,-4.9206e-05,1506.8,-0.00024975,-0.010524,0.012986
26687,1.5534,4,0.1,0.00054344,5430.7,0.00055323,6020,-4.9725e-05,1489.7,-0.000248,-0.040532,0.014687
26688,1.4621,4.2727,0.1,0.00054666,5462.9,0.00055679,6032.7,-5.709e-05,1420.3,-0.00024612,-0.015942,0.01283
26689,1.5534,4.1818,0.1,0.00054386,5434.8,0.00055393,6001.4,-5.6893e-05,1411.9,-0.00024481,-0.044112,0.014533
26690,1.4621,4.4545,0.1,0.00054761,5472.3,0.00055799,6010.2,-6.6823e-05,1315.6,-0.00024192,-0.027245,0.01264
26691,1.5534,4.3636,0.1,0.00054492,5445.4,0.00055524,5983.3,-6.575e-05,1317.4,-0.00024109,-0.052035,0.014343
26692,1.4621,4.6364,0.1,0.00054965,5492.7,0.00056013,5990.6,-7.86e-05,1191.4,-0.00023718,-0.048788,0.012409
26693,1.5534,4.5455,0.1,0.00054692,5465.4,0.00055736,5967.4,-7.6466e-05,1205.1,-0.00023686,-0.067797,0.014113
26694,1.4621,4.8182,0.1,0.00055314,5527.6,0.00056346,5976.3,-9.2547e-05,1047.3,-0.00023195,-0.088365,0.012132
26695,1.5534,4.7273,0.1,0.00055016,5497.8,0.0005605,5955.6,-8.9162e-05,1074.3,-0.00023216,-0.096163,0.013837
26696,1.4621,5,0.1,0.0005584,5580.1,0.00056815,5969.2,-0.00010866,883.99,-0.00022633,-0.15359,0.011799
26697,1.5534,4.9091,0.1,0.00055493,5545.5,0.00056485,5949.9,-0.00010386,925.5,-0.00022706,-0.14681,0.013507
26698,1.4621,5.1818,0.1,0.00056563,5652.4,0.0005743,5971.3,-0.00012672,704.18,-0.00022047,-0.27304,0.011403
26699,1.5534,5.0909,0.1,0.00056145,5610.6,0.0005705,5951.9,-0.00012045,760.42,-0.00022168,-0.22382,0.013116
26700,1.4621,5.3636,0.1,0.00057488,5744.8,0.00058187,5983.8,-0.00014627,512.82,-0.00021458,-0.42874,0.010932
26701,1.5534,5.2727,0.1,0.00056979,5694,0.00057746,5962.7,-0.00013858,582.71,-0.00021619,-0.37804,0.012652
26702,1.4621,5.5455,0.1,0.00058601,5856.1,0.00059073,6007.2,-0.00016669,316.26,-0.00020892,-1.0058,0.010375
26703,1.5534,5.4545,0.1,0.00057987,5794.7,0.0005856,5983,-0.00015775,397.85,-0.00021077,-0.53189,0.012105
26704,1.4621,5.7273,0.1,0.00059981,5993.9,0.00060164,6049.5,-0.00018809,115.83,-0.00020389,-2.8988,0.0097184
26705,1.5534,5.6364,0.1,0.00059152,5911.1,0.0005948,6013.2,-0.00017735,211.54,-0.00020572,-1.5769,0.011464
26706,1.5534,5.8182,0.1,0.00060637,6059.6,0.00060662,6067.1,-0.00019717,27.67,-0.00020251,-12.427,0.010717
26707,1.4621,5.9091,0.1,0.00060527,6048.6,0.0006051,6043.5,-0.00019912,0.85433,-0.0002007,-11.017,0.00895
26708,1.6448,0.27273,0.1,0.00059801,5976,0.00059983,6031.1,-0.00018764,114.33,-0.00020318,-2.4133,0.012588
26709,1.7362,0.18182,0.1,0.00060314,6027.3,0.00060355,6039.5,-0.00019586,33.024,-0.00020137,-8.3601,0.013747
26710,1.6448,0.090909,0.1,0.00060358,6031.6,0.00060355,6030.9,-0.00019872,2.8992,-0.00019969,-4.3505,0.011747
26711,1.6448,0.45455,0.1,0.00058531,5849.1,0.00058972,5989.4,-0.00016848,292.56,-0.00020754,-0.93559,0.013316
26712,1.7362,0.36364,0.1,0.00058965,5892.4,0.00059277,5989.1,-0.00017774,199.77,-0.00020451,-1.4014,0.014564
26713,1.6448,0.63636,0.1,0.00057471,5743.1,0.00058122,5962.3,-0.0001501,467.41,-0.00021237,-0.43857,0.013942
26714,1.7362,0.54545,0.1,0.00057874,5783.4,0.00058408,5957.4,-0.00016009,365.98,-0.00020887,-0.4881,0.015272
26715,1.6448,0.81818,0.1,0.00056553,5651.4,0.00057367,5943.4,-0.00013233,638.8,-0.00021739,-0.31027,0.014477
26716,1.7362,0.72727,0.1,0.00056903,5686.4,0.00057619,5933.1,-0.00014275,531.26,-0.00021351,-0.3625,0.015883
26717,1.6448,1,0.1,0.0005579,5575.1,0.00056719,5932.6,-0.00011565,801.96,-0.00022241,-0.2068,0.014933
26718,1.7362,0.90909,0.1,0.00056064,5602.5,0.00056918,5916.1,-0.00012615,691.55,-0.00021822,-0.22756,0.016407
26719,1.6448,1.1818,0.1,0.00055187,5514.9,0.00056187,5929.1,-0.00010046,952.69,-0.00022727,-0.14826,0.01532
26720,1.7362,1.0909,0.1,0.00055369,5533.1,0.00056319,5905.9,-0.00011072,842.44,-0.00022287,-0.15845,0.016854
26721,1.6448,1.3636,0.1,0.00054736,5469.8,0.00055769,5932.1,-8.6991e-05,1088.2,-0.00023184,-0.11097,0.015646
26722,1.7362,1.2727,0.1,0.0005482,5478.2,0.00055825,5902.2,-9.6768e-05,980.68,-0.0002273,-0.11074,0.017234
26723,1.6448,1.5455,0.1,0.00054417,5438,0.00055456,5940.1,-7.5349e-05,1207.2,-0.00023603,-0.089703,0.015919
26724,1.7362,1.4545,0.1,0.00054404,5436.6,0.00055434,5903.9,-8.4461e-05,1104.2,-0.00023144,-0.082443,0.017556
26725,1.6448,1.7273,0.1,0.00054207,5416.9,0.00055233,5951.6,-6.5506e-05,1309.4,-0.00023978,-0.078168,0.016147
26726,1.7362,1.6364,0.1,0.00054104,5406.7,0.00055136,5909.8,-7.3854e-05,1212.2,-0.00023519,-0.065766,0.017825
26727,1.6448,1.9091,0.1,0.00054079,5404.2,0.00055084,5964.9,-5.7365e-05,1395.2,-0.00024306,-0.072642,0.016334
26728,1.7362,1.8182,0.1,0.00053899,5386.1,0.00054919,5918.5,-6.4911e-05,1304.4,-0.00023853,-0.056827,0.018049
26729,1.6448,2.0909,0.1,0.00054011,5397.4,0.0005499,5978.7,-5.0792e-05,1465.4,-0.00024583,-0.070489,0.016485
26730,1.7362,2,0.1,0.00053766,5372.9,0.00054766,5928.7,-5.7545e-05,1381.4,-0.0002414,-0.052515,0.018232
26731,1.6448,2.2727,0.1,0.00053982,5394.5,0.00054936,5991.7,-4.5645e-05,1521.1,-0.0002481,-0.070082,0.016604
26732,1.7362,2.1818,0.1,0.00053686,5364.9,0.00054664,5939,-5.164e-05,1443.8,-0.00024381,-0.050851,0.018379
26733,1.6448,2.4545,0.1,0.00053976,5393.9,0.00054907,6002.8,-4.1791e-05,1563.3,-0.00024986,-0.070431,0.016694
26734,1.7362,2.3636,0.1,0.00053642,5360.5,0.00054598,5948.6,-4.708e-05,1492.5,-0.00024573,-0.050544,0.018492
26735,1.6448,2.6364,0.1,0.0005398,5394.3,0.00054895,6011.3,-3.912e-05,1592.8,-0.00025111,-0.070969,0.016757
26736,1.7362,2.5455,0.1,0.00053621,5358.4,0.00054559,5956.5,-4.3761e-05,1528.3,-0.00024717,-0.050811,0.018575
26737,1.6448,2.8182,0.1,0.00053986,5394.9,0.0005489,6016.6,-3.755e-05,1610.2,-0.00025187,-0.071389,0.016794
26738,1.7362,2.7273,0.1,0.00053612,5357.5,0.00054538,5962.1,-4.1597e-05,1551.8,-0.00024813,-0.05119,0.018629
26739,1.6448,3,0.1,0.00053989,5395.1,0.00054889,6018.4,-3.7033e-05,1616,-0.00025212,-0.071543,0.016806
26740,1.7362,2.9091,0.1,0.0005361,5357.3,0.00054529,5965,-4.053e-05,1563.4,-0.00024861,-0.051434,0.018656
26741,1.6448,3.1818,0.1,0.00053986,5394.9,0.0005489,6016.6,-3.755e-05,1610.2,-0.00025187,-0.071389,0.016794
26742,1.7362,3.0909,0.1,0.0005361,5357.3,0.00054529,5965,-4.053e-05,1563.4,-0.00024861,-0.051434,0.018656
26743,1.6448,3.3636,0.1,0.0005398,5394.3,0.00054895,6011.3,-3.912e-05,1592.8,-0.00025111,-0.070969,0.016757
26744,1.7362,3.2727,0.1,0.00053612,5357.5,0.00054538,5962.1,-4.1597e-05,1551.8,-0.00024813,-0.05119,0.018629
26745,1.6448,3.5455,0.1,0.00053976,5393.9,0.00054907,6002.8,-4.1791e-05,1563.3,-0.00024986,-0.070431,0.016694
26746,1.7362,3.4545,0.1,0.00053621,5358.4,0.00054559,5956.5,-4.3761e-05,1528.3,-0.00024717,-0.050811,0.018575
26747,1.6448,3.7273,0.1,0.00053982,5394.5,0.00054936,5991.7,-4.5645e-05,1521.1,-0.0002481,-0.070082,0.016604
26748,1.7362,3.6364,0.1,0.00053642,5360.5,0.00054598,5948.6,-4.708e-05,1492.5,-0.00024573,-0.050544,0.018492
26749,1.6448,3.9091,0.1,0.00054011,5397.4,0.0005499,5978.7,-5.0792e-05,1465.4,-0.00024583,-0.070489,0.016485
26750,1.7362,3.8182,0.1,0.00053686,5364.9,0.00054664,5939,-5.164e-05,1443.8,-0.00024381,-0.05085,0.018379
26751,1.6448,4.0909,0.1,0.00054079,5404.2,0.00055084,5964.9,-5.7365e-05,1395.2,-0.00024306,-0.072641,0.016334
26752,1.7362,4,0.1,0.00053766,5372.9,0.00054766,5928.7,-5.7545e-05,1381.4,-0.0002414,-0.052515,0.018232
26753,1.6448,4.2727,0.1,0.00054207,5416.9,0.00055233,5951.6,-6.5506e-05,1309.4,-0.00023978,-0.078168,0.016147
26754,1.7362,4.1818,0.1,0.00053899,5386.1,0.00054919,5918.5,-6.4911e-05,1304.4,-0.00023853,-0.056827,0.018049
26755,1.6448,4.4545,0.1,0.00054417,5438,0.00055456,5940.1,-7.5349e-05,1207.2,-0.00023603,-0.089703,0.015919
26756,1.7362,4.3636,0.1,0.00054104,5406.7,0.00055136,5909.8,-7.3854e-05,1212.2,-0.00023519,-0.065765,0.017825
26757,1.6448,4.6364,0.1,0.00054736,5469.8,0.00055769,5932.1,-8.6991e-05,1088.2,-0.00023184,-0.11097,0.015646
26758,1.7362,4.5455,0.1,0.00054404,5436.6,0.00055434,5903.9,-8.4461e-05,1104.2,-0.00023144,-0.082443,0.017556
26759,1.6448,4.8182,0.1,0.00055187,5514.9,0.00056187,5929.1,-0.00010046,952.69,-0.00022727,-0.14826,0.01532
26760,1.7362,4.7273,0.1,0.0005482,5478.2,0.00055825,5902.2,-9.6768e-05,980.68,-0.0002273,-0.11074,0.017234
26761,1.6448,5,0.1,0.0005579,5575.1,0.00056719,5932.6,-0.00011565,801.96,-0.00022241,-0.2068,0.014933
26762,1.7362,4.9091,0.1,0.00055369,5533.1,0.00056319,5905.9,-0.00011072,842.44,-0.00022287,-0.15845,0.016854
26763,1.6448,5.1818,0.1,0.00056553,5651.4,0.00057367,5943.4,-0.00013233,638.8,-0.00021739,-0.31027,0.014477
26764,1.7362,5.0909,0.1,0.00056064,5602.5,0.00056918,5916.1,-0.00012615,691.55,-0.00021822,-0.22756,0.016407
26765,1.6448,5.3636,0.1,0.00057471,5743.1,0.00058122,5962.3,-0.0001501,467.41,-0.00021237,-0.43857,0.013942
26766,1.7362,5.2727,0.1,0.00056903,5686.4,0.00057619,5933.1,-0.00014275,531.26,-0.00021351,-0.3625,0.015883
26767,1.6448,5.5455,0.1,0.00058531,5849.1,0.00058972,5989.4,-0.00016848,292.56,-0.00020754,-0.93559,0.013316
26768,1.7362,5.4545,0.1,0.00057874,5783.4,0.00058408,5957.4,-0.00016009,365.98,-0.00020887,-0.4881,0.015272
26769,1.6448,5.7273,0.1,0.00059801,5976,0.00059983,6031.1,-0.00018764,114.33,-0.00020318,-2.4133,0.012588
26770,1.7362,5.6364,0.1,0.00058965,5892.4,0.00059277,5989.1,-0.00017774,199.77,-0.00020451,-1.4014,0.014564
26771,1.7362,5.8182,0.1,0.00060314,6027.3,0.00060355,6039.5,-0.00019586,33.024,-0.00020137,-8.3601,0.013747
26772,1.6448,5.9091,0.1,0.00060358,6031.6,0.00060355,6030.9,-0.00019872,2.8992,-0.00019969,-4.3505,0.011747
26773,1.8276,0.27273,0.1,0.00059473,5943.2,0.00059653,5997.8,-0.00018671,112.81,-0.00020199,-1.999,0.015848
26774,1.919,0.18182,0.1,0.00059873,5983.2,0.00059927,5999.1,-0.00019411,37.998,-0.00019995,-5.867,0.01717
26775,1.8276,0.090909,0.1,0.00060034,5999.2,0.00060043,6002,-0.0001974,7.4247,-0.00019864,-1.9399,0.01494
26776,1.8276,0.45455,0.1,0.00058303,5826.3,0.00058718,5957.4,-0.00016941,272.72,-0.00020582,-0.81875,0.016641
26777,1.919,0.36364,0.1,0.00058644,5860.4,0.00058941,5952.2,-0.00017755,189.53,-0.00020294,-1.2355,0.01805
26778,1.8276,0.63636,0.1,0.00057301,5726.1,0.00057909,5928.6,-0.00015278,429.53,-0.00021,-0.37663,0.01733
26779,1.919,0.54545,0.1,0.00057625,5758.5,0.00058125,5920.3,-0.00016156,339.04,-0.00020674,-0.42658,0.01882
26780,1.8276,0.81818,0.1,0.00056408,5636.9,0.00057173,5905.9,-0.0001366,583.82,-0.00021434,-0.26435,0.017926
26781,1.919,0.72727,0.1,0.00056699,5665.9,0.0005737,5893.9,-0.00014581,487.77,-0.00021077,-0.32075,0.01949
26782,1.8276,1,0.1,0.00055637,5559.8,0.00056519,5889.5,-0.00012123,731.97,-0.00021868,-0.17068,0.018439
26783,1.919,0.90909,0.1,0.00055875,5583.7,0.00056681,5873,-0.00013061,632.77,-0.00021486,-0.20061,0.020071
26784,1.8276,1.1818,0.1,0.00054995,5495.7,0.00055956,5879,-0.00010703,870.5,-0.0002229,-0.11559,0.018877
26785,1.919,1.0909,0.1,0.00055167,5512.9,0.00056072,5857.6,-0.00011632,770.54,-0.00021889,-0.1377,0.020571
26786,1.8276,1.3636,0.1,0.00054482,5444.4,0.00055488,5873.9,-9.4216e-05,996.85,-0.0002269,-0.07861,0.01925
26787,1.919,1.2727,0.1,0.00054579,5454.1,0.00055548,5847.4,-0.00010321,898.26,-0.00022277,-0.092401,0.021
26788,1.8276,1.5455,0.1,0.00054085,5404.8,0.00055111,5873.4,-8.2934e-05,1109.4,-0.0002306,-0.055972,0.019565
26789,1.919,1.4545,0.1,0.00054105,5406.8,0.00055112,5842,-9.1453e-05,1013.9,-0.00022641,-0.06397,0.021364
26790,1.8276,1.7273,0.1,0.00053791,5375.4,0.00054818,5876.5,-7.3221e-05,1207.5,-0.00023394,-0.042584,0.019829
26791,1.919,1.6364,0.1,0.00053737,5370,0.00054758,5840.4,-8.1154e-05,1116.3,-0.00022974,-0.046052,0.021673
26792,1.8276,1.9091,0.1,0.00053582,5354.5,0.00054597,5881.9,-6.505e-05,1291,-0.00023687,-0.035326,0.020048
26793,1.919,1.8182,0.1,0.0005346,5342.3,0.0005448,5841.9,-7.2331e-05,1205,-0.00023271,-0.035561,0.02193
26794,1.8276,2.0909,0.1,0.00053438,5340.1,0.00054436,5888.6,-5.835e-05,1360.1,-0.00023938,-0.03182,0.020225
26795,1.919,2,0.1,0.00053258,5322.1,0.00054267,5845.3,-6.4955e-05,1279.8,-0.0002353,-0.029829,0.022141
26796,1.8276,2.2727,0.1,0.00053344,5330.7,0.00054322,5895.6,-5.3033e-05,1415.6,-0.00024144,-0.030473,0.020366
26797,1.919,2.1818,0.1,0.00053115,5307.9,0.0005411,5849.8,-5.8965e-05,1341.2,-0.00023747,-0.027046,0.022312
26798,1.8276,2.4545,0.1,0.00053286,5324.9,0.00054246,5902,-4.9009e-05,1457.9,-0.00024305,-0.030229,0.020472
26799,1.919,2.3636,0.1,0.00053019,5298.2,0.00053997,5854.5,-5.4289e-05,1389.5,-0.00023922,-0.025948,0.022444
26800,1.8276,2.6364,0.1,0.00053252,5321.5,0.00054198,5907,-4.6197e-05,1487.6,-0.00024419,-0.030429,0.020546
26801,1.919,2.5455,0.1,0.00052957,5292,0.00053921,5858.6,-5.0854e-05,1425.2,-0.00024053,-0.025702,0.022541
26802,1.8276,2.8182,0.1,0.00053235,5319.8,0.00054172,5910.2,-4.4536e-05,1505.3,-0.00024488,-0.030682,0.02059
26803,1.919,2.7273,0.1,0.0005292,5288.3,0.00053874,5861.7,-4.86e-05,1448.7,-0.00024141,-0.025785,0.022604
26804,1.8276,3,0.1,0.00053229,5319.3,0.00054164,5911.3,-4.3986e-05,1511.2,-0.00024511,-0.030787,0.020604
26805,1.919,2.9091,0.1,0.00052903,5286.7,0.00053851,5863.3,-4.7485e-05,1460.4,-0.00024185,-0.025894,0.022636
26806,1.8276,3.1818,0.1,0.00053235,5319.8,0.00054172,5910.2,-4.4536e-05,1505.3,-0.00024488,-0.030682,0.02059
26807,1.919,3.0909,0.1,0.00052903,5286.7,0.00053851,5863.3,-4.7485e-05,1460.4,-0.00024185,-0.025894,0.022636
26808,1.8276,3.3636,0.1,0.00053252,5321.5,0.00054198,5907,-4.6197e-05,1487.6,-0.00024419,-0.030429,0.020546
26809,1.919,3.2727,0.1,0.0005292,5288.3,0.00053874,5861.7,-4.86e-05,1448.7,-0.00024141,-0.025785,0.022604
26810,1.8276,3.5455,0.1,0.00053286,5324.9,0.00054246,5902,-4.9009e-05,1457.9,-0.00024305,-0.030229,0.020472
26811,1.919,3.4545,0.1,0.00052957,5292,0.00053921,5858.6,-5.0854e-05,1425.2,-0.00024053,-0.025702,0.022541
26812,1.8276,3.7273,0.1,0.00053344,5330.7,0.00054322,5895.6,-5.3033e-05,1415.6,-0.00024144,-0.030472,0.020366
26813,1.919,3.6364,0.1,0.00053019,5298.2,0.00053997,5854.5,-5.4289e-05,1389.5,-0.00023922,-0.025948,0.022444
26814,1.8276,3.9091,0.1,0.00053438,5340.1,0.00054436,5888.6,-5.835e-05,1360.1,-0.00023938,-0.03182,0.020225
26815,1.919,3.8182,0.1,0.00053115,5307.9,0.0005411,5849.8,-5.8965e-05,1341.2,-0.00023747,-0.027046,0.022312
26816,1.8276,4.0909,0.1,0.00053582,5354.5,0.00054597,5881.9,-6.505e-05,1291,-0.00023687,-0.035326,0.020048
26817,1.919,4,0.1,0.00053258,5322.1,0.00054267,5845.3,-6.4955e-05,1279.8,-0.0002353,-0.029828,0.022141
26818,1.8276,4.2727,0.1,0.00053791,5375.4,0.00054818,5876.5,-7.3221e-05,1207.5,-0.00023394,-0.042584,0.019829
26819,1.919,4.1818,0.1,0.0005346,5342.3,0.0005448,5841.9,-7.2331e-05,1205,-0.00023271,-0.035561,0.02193
26820,1.8276,4.4545,0.1,0.00054085,5404.8,0.00055111,5873.4,-8.2934e-05,1109.4,-0.0002306,-0.055972,0.019565
26821,1.919,4.3636,0.1,0.00053737,5370,0.00054758,5840.4,-8.1154e-05,1116.3,-0.00022974,-0.046052,0.021673
26822,1.8276,4.6364,0.1,0.00054482,5444.4,0.00055488,5873.9,-9.4216e-05,996.85,-0.0002269,-0.07861,0.01925
26823,1.919,4.5455,0.1,0.00054105,5406.8,0.00055112,5842,-9.1453e-05,1013.9,-0.00022641,-0.063969,0.021364
26824,1.8276,4.8182,0.1,0.00054995,5495.7,0.00055956,5879,-0.00010703,870.5,-0.0002229,-0.11559,0.018877
26825,1.919,4.7273,0.1,0.00054579,5454.1,0.00055548,5847.4,-0.00010321,898.26,-0.00022277,-0.0924,0.021
26826,1.8276,5,0.1,0.00055637,5559.8,0.00056519,5889.5,-0.00012123,731.97,-0.00021868,-0.17068,0.018439
26827,1.919,4.9091,0.1,0.00055167,5512.9,0.00056072,5857.6,-0.00011632,770.54,-0.00021889,-0.1377,0.020571
26828,1.8276,5.1818,0.1,0.00056408,5636.9,0.00057173,5905.9,-0.0001366,583.82,-0.00021434,-0.26435,0.017926
26829,1.919,5.0909,0.1,0.00055875,5583.7,0.00056681,5873,-0.00013061,632.77,-0.00021486,-0.20061,0.020071
26830,1.8276,5.3636,0.1,0.00057301,5726.1,0.00057909,5928.6,-0.00015278,429.53,-0.00021,-0.37663,0.01733
26831,1.919,5.2727,0.1,0.00056699,5665.9,0.0005737,5893.9,-0.00014581,487.77,-0.00021077,-0.32075,0.01949
26832,1.8276,5.5455,0.1,0.00058303,5826.3,0.00058718,5957.4,-0.00016941,272.72,-0.00020582,-0.81875,0.016641
26833,1.919,5.4545,0.1,0.00057625,5758.5,0.00058125,5920.3,-0.00016156,339.04,-0.00020674,-0.42658,0.01882
26834,1.8276,5.7273,0.1,0.00059473,5943.2,0.00059653,5997.8,-0.00018671,112.81,-0.00020199,-1.999,0.015848
26835,1.919,5.6364,0.1,0.00058644,5860.4,0.00058941,5952.2,-0.00017755,189.53,-0.00020294,-1.2355,0.01805
26836,1.919,5.8182,0.1,0.00059873,5983.2,0.00059927,5999.1,-0.00019411,37.998,-0.00019995,-5.867,0.01717
26837,1.8276,5.9091,0.1,0.00060034,5999.2,0.00060043,6002,-0.0001974,7.4247,-0.00019864,-1.9399,0.01494
26838,2.0103,0.27273,0.1,0.0005904,5900,0.00059218,5953.8,-0.00018545,111.02,-0.00020045,-1.6798,0.019498
26839,2.1017,0.18182,0.1,0.0005935,5930.9,0.00059413,5949.7,-0.00019211,42.196,-0.0001983,-4.2875,0.020986
26840,2.0103,0.090909,0.1,0.00059601,5956,0.00059619,5961.4,-0.0001956,12.193,-0.00019739,-1.2474,0.01853
26841,2.0103,0.45455,0.1,0.00057962,5792.2,0.00058353,5915.3,-0.00016975,255.44,-0.00020385,-0.73303,0.020351
26842,2.1017,0.36364,0.1,0.00058228,5818.7,0.00058511,5906.2,-0.00017697,180.21,-0.0002011,-1.099,0.021923
26843,2.0103,0.63636,0.1,0.00057019,5697.9,0.00057589,5885.8,-0.00015463,396.99,-0.00020751,-0.34094,0.021098
26844,2.1017,0.54545,0.1,0.00057276,5723.7,0.00057747,5874.7,-0.00016241,315.54,-0.00020446,-0.38004,0.02275
26845,2.0103,0.81818,0.1,0.00056161,5612.3,0.00056881,5861.1,-0.00013985,536.52,-0.00021129,-0.24399,0.02175
26846,2.1017,0.72727,0.1,0.00056399,5636,0.00057029,5847.4,-0.00014805,450.1,-0.00020799,-0.29116,0.023475
26847,2.0103,1,0.1,0.00055401,5536.2,0.00056236,5841.2,-0.00012572,671.24,-0.00021507,-0.16043,0.022315
26848,2.1017,0.90909,0.1,0.00055603,5556.5,0.00056363,5824.3,-0.00013412,581.68,-0.00021156,-0.18442,0.024108
26849,2.0103,1.1818,0.1,0.00054746,5470.8,0.00055664,5826,-0.0001125,798.31,-0.00021876,-0.10998,0.022803
26850,2.1017,1.0909,0.1,0.000549,5486.2,0.0005576,5805.6,-0.00012091,707.49,-0.00021509,-0.12779,0.024657
26851,2.0103,1.3636,0.1,0.00054198,5416,0.00055171,5815.4,-0.00010043,915.43,-0.00022228,-0.074669,0.02322
26852,2.1017,1.2727,0.1,0.00054296,5425.9,0.00055227,5791.1,-0.00010867,825.12,-0.00021849,-0.085585,0.025131
26853,2.0103,1.5455,0.1,0.00053753,5371.6,0.00054757,5808.8,-8.965e-05,1021,-0.00022554,-0.051837,0.023576
26854,2.1017,1.4545,0.1,0.00053791,5375.4,0.00054767,5780.7,-9.7556e-05,932.72,-0.0002217,-0.057877,0.025537
26855,2.0103,1.7273,0.1,0.00053402,5336.6,0.00054418,5805.6,-8.0234e-05,1114.1,-0.00022851,-0.037387,0.023875
26856,2.1017,1.6364,0.1,0.0005338,5334.3,0.0005438,5773.8,-8.7695e-05,1029,-0.00022465,-0.039426,0.025883
26857,2.0103,1.9091,0.1,0.00053133,5309.7,0.00054147,5805,-7.2202e-05,1194.1,-0.00023113,-0.028809,0.024125
26858,2.1017,1.8182,0.1,0.00053053,5301.7,0.00054063,5769.9,-7.9139e-05,1113.2,-0.0002273,-0.02782,0.026172
26859,2.0103,2.0909,0.1,0.00052933,5289.6,0.00053938,5806.2,-6.5533e-05,1261.2,-0.00023339,-0.024068,0.024328
26860,2.1017,2,0.1,0.00052801,5276.5,0.00053809,5768.2,-7.1898e-05,1185,-0.00022962,-0.02085,0.026412
26861,2.0103,2.2727,0.1,0.00052788,5275.2,0.0005378,5808.4,-6.0181e-05,1315.4,-0.00023525,-0.021721,0.024489
26862,2.1017,2.1818,0.1,0.00052612,5257.5,0.00053611,5768.1,-6.5954e-05,1244.4,-0.00023157,-0.01695,0.026605
26863,2.0103,2.4545,0.1,0.00052688,5265.2,0.00053667,5810.8,-5.6093e-05,1357,-0.00023671,-0.020747,0.024611
26864,2.1017,2.3636,0.1,0.00052474,5243.8,0.00053464,5768.9,-6.1271e-05,1291.4,-0.00023315,-0.014956,0.026756
26865,2.0103,2.6364,0.1,0.00052623,5258.7,0.00053592,5813,-5.3217e-05,1386.5,-0.00023775,-0.020465,0.024697
26866,2.1017,2.5455,0.1,0.0005238,5234.4,0.00053359,5770,-5.7805e-05,1326.4,-0.00023434,-0.014062,0.026866
26867,2.0103,2.8182,0.1,0.00052587,5255.1,0.00053549,5814.5,-5.1509e-05,1404,-0.00023838,-0.020449,0.024748
26868,2.1017,2.7273,0.1,0.00052321,5228.5,0.00053293,5771,-5.5519e-05,1349.6,-0.00023514,-0.01373,0.026939
26869,2.0103,3,0.1,0.00052576,5254,0.00053535,5815,-5.0943e-05,1409.9,-0.00023859,-0.020468,0.024765
26870,2.1017,2.9091,0.1,0.00052293,5225.7,0.0005326,5771.5,-5.4383e-05,1361.1,-0.00023554,-0.01364,0.026975
26871,2.0103,3.1818,0.1,0.00052587,5255.1,0.00053549,5814.5,-5.1509e-05,1404,-0.00023838,-0.020449,0.024748
26872,2.1017,3.0909,0.1,0.00052293,5225.7,0.0005326,5771.5,-5.4383e-05,1361.1,-0.00023554,-0.01364,0.026975
26873,2.0103,3.3636,0.1,0.00052623,5258.7,0.00053592,5813,-5.3217e-05,1386.5,-0.00023775,-0.020465,0.024697
26874,2.1017,3.2727,0.1,0.00052321,5228.5,0.00053293,5771,-5.5519e-05,1349.6,-0.00023514,-0.01373,0.026939
26875,2.0103,3.5455,0.1,0.00052688,5265.2,0.00053667,5810.8,-5.6093e-05,1357,-0.00023671,-0.020747,0.024611
26876,2.1017,3.4545,0.1,0.0005238,5234.4,0.00053359,5770,-5.7805e-05,1326.4,-0.00023434,-0.014061,0.026866
26877,2.0103,3.7273,0.1,0.00052788,5275.2,0.0005378,5808.4,-6.0181e-05,1315.4,-0.00023525,-0.021721,0.024489
26878,2.1017,3.6364,0.1,0.00052474,5243.8,0.00053464,5768.9,-6.1271e-05,1291.4,-0.00023315,-0.014955,0.026756
26879,2.0103,3.9091,0.1,0.00052933,5289.6,0.00053938,5806.2,-6.5533e-05,1261.2,-0.00023339,-0.024068,0.024328
26880,2.1017,3.8182,0.1,0.00052612,5257.5,0.00053611,5768.1,-6.5954e-05,1244.4,-0.00023157,-0.016949,0.026605
26881,2.0103,4.0909,0.1,0.00053133,5309.7,0.00054147,5805,-7.2202e-05,1194.1,-0.00023113,-0.028809,0.024125
26882,2.1017,4,0.1,0.00052801,5276.5,0.00053809,5768.2,-7.1898e-05,1185,-0.00022962,-0.02085,0.026412
26883,2.0103,4.2727,0.1,0.00053402,5336.6,0.00054418,5805.6,-8.0234e-05,1114.1,-0.00022851,-0.037387,0.023875
26884,2.1017,4.1818,0.1,0.00053053,5301.7,0.00054063,5769.9,-7.9139e-05,1113.2,-0.0002273,-0.02782,0.026172
26885,2.0103,4.4545,0.1,0.00053753,5371.6,0.00054757,5808.8,-8.965e-05,1021,-0.00022554,-0.051836,0.023576
26886,2.1017,4.3636,0.1,0.0005338,5334.3,0.0005438,5773.8,-8.7695e-05,1029,-0.00022465,-0.039425,0.025883
26887,2.0103,4.6364,0.1,0.00054198,5416,0.00055171,5815.4,-0.00010043,915.43,-0.00022228,-0.074669,0.02322
26888,2.1017,4.5455,0.1,0.00053791,5375.4,0.00054767,5780.7,-9.7556e-05,932.72,-0.0002217,-0.057877,0.025537
26889,2.0103,4.8182,0.1,0.00054746,5470.8,0.00055664,5826,-0.0001125,798.31,-0.00021876,-0.10998,0.022803
26890,2.1017,4.7273,0.1,0.00054296,5425.9,0.00055227,5791.1,-0.00010867,825.12,-0.00021849,-0.085585,0.025131
26891,2.0103,5,0.1,0.00055401,5536.2,0.00056236,5841.2,-0.00012572,671.24,-0.00021507,-0.16043,0.022315
26892,2.1017,4.9091,0.1,0.000549,5486.2,0.0005576,5805.6,-0.00012091,707.49,-0.00021509,-0.12779,0.024657
26893,2.0103,5.1818,0.1,0.00056161,5612.3,0.00056881,5861.1,-0.00013985,536.52,-0.00021129,-0.24399,0.02175
26894,2.1017,5.0909,0.1,0.00055603,5556.5,0.00056363,5824.3,-0.00013412,581.68,-0.00021156,-0.18442,0.024108
26895,2.0103,5.3636,0.1,0.00057019,5697.9,0.00057589,5885.8,-0.00015463,396.99,-0.00020751,-0.34094,0.021098
26896,2.1017,5.2727,0.1,0.00056399,5636,0.00057029,5847.4,-0.00014805,450.1,-0.00020799,-0.29116,0.023475
26897,2.0103,5.5455,0.1,0.00057962,5792.2,0.00058353,5915.3,-0.00016975,255.44,-0.00020385,-0.73303,0.020351
26898,2.1017,5.4545,0.1,0.00057276,5723.7,0.00057747,5874.7,-0.00016241,315.54,-0.00020446,-0.38004,0.02275
26899,2.0103,5.7273,0.1,0.0005904,5900,0.00059218,5953.8,-0.00018545,111.02,-0.00020045,-1.6798,0.019498
26900,2.1017,5.6364,0.1,0.00058228,5818.7,0.00058511,5906.2,-0.00017697,180.21,-0.0002011,-1.099,0.021923
26901,2.1017,5.8182,0.1,0.0005935,5930.9,0.00059413,5949.7,-0.00019211,42.196,-0.0001983,-4.2875,0.020986
26902,2.0103,5.9091,0.1,0.00059601,5956,0.00059619,5961.4,-0.0001956,12.193,-0.00019739,-1.2474,0.01853
26903,2.1931,0.27273,0.1,0.00058535,5849.4,0.00058709,5902.4,-0.00018397,108.86,-0.00019865,-1.4221,0.023536
26904,2.2845,0.18182,0.1,0.00058771,5873.1,0.00058841,5894,-0.00018998,45.485,-0.00019646,-3.2388,0.025191
26905,2.1931,0.090909,0.1,0.00059091,5905,0.00059116,5912.6,-0.0001936,16.146,-0.00019588,-0.9496,0.022513
26906,2.1931,0.45455,0.1,0.0005754,5750,0.00057909,5865.9,-0.00016967,239.96,-0.0002017,-0.65509,0.024444
26907,2.2845,0.36364,0.1,0.00057744,5770.4,0.00058014,5853.7,-0.00017611,171.47,-0.00019907,-0.98064,0.026181
26908,2.1931,0.63636,0.1,0.00056654,5661.5,0.0005719,5836.5,-0.00015586,368.39,-0.00020493,-0.305,0.025245
26909,2.2845,0.54545,0.1,0.00056857,5681.7,0.000573,5823.1,-0.00016281,294.56,-0.00020206,-0.3381,0.027059
26910,2.1931,0.81818,0.1,0.00055838,5579.9,0.00056514,5810.8,-0.00014234,495.06,-0.00020826,-0.22049,0.025948
26911,2.2845,0.72727,0.1,0.00056029,5599.1,0.00056621,5795.7,-0.00014967,416.81,-0.00020518,-0.26291,0.027834
26912,2.1931,1,0.1,0.00055099,5506.1,0.00055889,5788.9,-0.00012934,617.8,-0.00021158,-0.14563,0.026562
26913,2.2845,0.90909,0.1,0.00055267,5522.9,0.00055984,5771.5,-0.00013689,536.55,-0.00020833,-0.16765,0.028516
26914,2.1931,1.1818,0.1,0.00054447,5440.9,0.00055323,5770.7,-0.00011709,734.25,-0.00021482,-0.099513,0.027095
26915,2.2845,1.0909,0.1,0.00054581,5454.3,0.00055396,5750.8,-0.00012471,651.51,-0.00021143,-0.11669,0.029111
26916,2.1931,1.3636,0.1,0.00053886,5384.9,0.00054822,5756.4,-0.00010579,842.44,-0.00021792,-0.066128,0.027555
26917,2.2845,1.2727,0.1,0.00053978,5394,0.00054867,5733.6,-0.00011332,759.66,-0.00021443,-0.077649,0.029628
26918,2.1931,1.5455,0.1,0.00053414,5337.7,0.00054389,5745.6,-9.5587e-05,940.82,-0.00022081,-0.043534,0.027949
26919,2.2845,1.4545,0.1,0.00053459,5342.2,0.000544,5719.8,-0.00010289,859.33,-0.00021727,-0.051067,0.030073
26920,2.1931,1.7273,0.1,0.00053028,5299.1,0.00054023,5737.9,-8.6577e-05,1028.3,-0.00022344,-0.028402,0.028282
26921,2.2845,1.6364,0.1,0.00053024,5298.7,0.00053996,5709.1,-9.3541e-05,949.25,-0.00021988,-0.03254,0.030453
26922,2.1931,1.9091,0.1,0.00052719,5268.2,0.00053721,5732.8,-7.8806e-05,1104.3,-0.00022578,-0.018728,0.028561
26923,2.2845,1.8182,0.1,0.00052666,5263,0.00053656,5701.3,-8.5348e-05,1028.5,-0.00022224,-0.02019,0.030774
26924,2.1931,2.0909,0.1,0.00052478,5244.1,0.00053479,5729.8,-7.2287e-05,1168.5,-0.0002278,-0.012823,0.028789
26925,2.2845,2,0.1,0.0005238,5234.4,0.00053376,5695.9,-7.8348e-05,1096.7,-0.00022431,-0.012212,0.03104
26926,2.1931,2.2727,0.1,0.00052296,5226,0.00053291,5728.3,-6.7008e-05,1220.7,-0.00022948,-0.0094333,0.028971
26927,2.2845,2.1818,0.1,0.00052158,5212.2,0.00053153,5692.3,-7.2551e-05,1153.4,-0.00022607,-0.007292,0.031255
26928,2.1931,2.4545,0.1,0.00052164,5212.8,0.00053152,5727.7,-6.2944e-05,1261.1,-0.00023079,-0.0076279,0.029109
26929,2.2845,2.3636,0.1,0.00051991,5195.5,0.00052981,5690,-6.7947e-05,1198.7,-0.00022749,-0.0044107,0.031424
26930,2.1931,2.6364,0.1,0.00052076,5204,0.00053056,5727.6,-6.0068e-05,1289.8,-0.00023174,-0.0067553,0.029206
26931,2.2845,2.5455,0.1,0.00051872,5183.6,0.00052857,5688.8,-6.4519e-05,1232.6,-0.00022856,-0.0028303,0.031548
26932,2.1931,2.8182,0.1,0.00052025,5198.9,0.00053,5727.7,-5.8353e-05,1307,-0.00023231,-0.0063897,0.029264
26933,2.2845,2.7273,0.1,0.00051796,5176,0.00052776,5688.2,-6.2248e-05,1255,-0.00022928,-0.0020384,0.03163
26934,2.1931,3,0.1,0.00052008,5197.2,0.00052982,5727.7,-5.7784e-05,1312.7,-0.0002325,-0.0062933,0.029283
26935,2.2845,2.9091,0.1,0.00051759,5172.4,0.00052737,5687.9,-6.1117e-05,1266.3,-0.00022965,-0.0017182,0.03167
26936,2.1931,3.1818,0.1,0.00052025,5198.9,0.00053,5727.7,-5.8353e-05,1307,-0.00023231,-0.0063897,0.029264
26937,2.2845,3.0909,0.1,0.00051759,5172.4,0.00052737,5687.9,-6.1117e-05,1266.3,-0.00022965,-0.0017181,0.03167
26938,2.1931,3.3636,0.1,0.00052076,5204,0.00053056,5727.6,-6.0068e-05,1289.8,-0.00023174,-0.0067552,0.029206
26939,2.2845,3.2727,0.1,0.00051796,5176,0.00052776,5688.2,-6.2248e-05,1255,-0.00022928,-0.0020383,0.03163
26940,2.1931,3.5455,0.1,0.00052164,5212.8,0.00053152,5727.7,-6.2944e-05,1261.1,-0.00023079,-0.0076278,0.029109
26941,2.2845,3.4545,0.1,0.00051872,5183.6,0.00052857,5688.8,-6.4519e-05,1232.6,-0.00022856,-0.0028302,0.031548
26942,2.1931,3.7273,0.1,0.00052296,5226,0.00053291,5728.3,-6.7008e-05,1220.7,-0.00022948,-0.0094332,0.028971
26943,2.2845,3.6364,0.1,0.00051991,5195.5,0.00052981,5690,-6.7947e-05,1198.7,-0.00022749,-0.0044106,0.031424
26944,2.1931,3.9091,0.1,0.00052478,5244.1,0.00053479,5729.8,-7.2287e-05,1168.5,-0.0002278,-0.012823,0.028789
26945,2.2845,3.8182,0.1,0.00052158,5212.2,0.00053153,5692.3,-7.2551e-05,1153.4,-0.00022607,-0.0072918,0.031255
26946,2.1931,4.0909,0.1,0.00052719,5268.2,0.00053721,5732.8,-7.8806e-05,1104.3,-0.00022578,-0.018728,0.028561
26947,2.2845,4,0.1,0.0005238,5234.4,0.00053376,5695.9,-7.8348e-05,1096.7,-0.00022431,-0.012212,0.03104
26948,2.1931,4.2727,0.1,0.00053028,5299.1,0.00054023,5737.9,-8.6577e-05,1028.3,-0.00022344,-0.028401,0.028282
26949,2.2845,4.1818,0.1,0.00052666,5263,0.00053656,5701.3,-8.5348e-05,1028.5,-0.00022224,-0.02019,0.030774
26950,2.1931,4.4545,0.1,0.00053414,5337.7,0.00054389,5745.6,-9.5587e-05,940.82,-0.00022081,-0.043534,0.027949
26951,2.2845,4.3636,0.1,0.00053024,5298.7,0.00053996,5709.1,-9.3541e-05,949.25,-0.00021988,-0.032539,0.030453
26952,2.1931,4.6364,0.1,0.00053886,5384.9,0.00054822,5756.4,-0.00010579,842.44,-0.00021792,-0.066128,0.027555
26953,2.2845,4.5455,0.1,0.00053459,5342.2,0.000544,5719.8,-0.00010289,859.33,-0.00021727,-0.051066,0.030073
26954,2.1931,4.8182,0.1,0.00054447,5440.9,0.00055323,5770.7,-0.00011709,734.25,-0.00021482,-0.099513,0.027095
26955,2.2845,4.7273,0.1,0.00053978,5394,0.00054867,5733.6,-0.00011332,759.66,-0.00021443,-0.077648,0.029628
26956,2.1931,5,0.1,0.00055099,5506.1,0.00055889,5788.9,-0.00012934,617.8,-0.00021158,-0.14563,0.026562
26957,2.2845,4.9091,0.1,0.00054581,5454.3,0.00055396,5750.8,-0.00012471,651.51,-0.00021143,-0.11669,0.029111
26958,2.1931,5.1818,0.1,0.00055838,5579.9,0.00056514,5810.8,-0.00014234,495.06,-0.00020826,-0.22049,0.025948
26959,2.2845,5.0909,0.1,0.00055267,5522.9,0.00055984,5771.5,-0.00013689,536.55,-0.00020833,-0.16765,0.028516
26960,2.1931,5.3636,0.1,0.00056654,5661.5,0.0005719,5836.5,-0.00015586,368.39,-0.00020493,-0.305,0.025245
26961,2.2845,5.2727,0.1,0.00056029,5599.1,0.00056621,5795.7,-0.00014967,416.81,-0.00020518,-0.26291,0.027834
26962,2.1931,5.5455,0.1,0.0005754,5750,0.00057909,5865.9,-0.00016967,239.96,-0.0002017,-0.65509,0.024444
26963,2.2845,5.4545,0.1,0.00056857,5681.7,0.000573,5823.1,-0.00016281,294.56,-0.00020206,-0.3381,0.027059
26964,2.1931,5.7273,0.1,0.00058535,5849.4,0.00058709,5902.4,-0.00018397,108.86,-0.00019865,-1.4221,0.023536
26965,2.2845,5.6364,0.1,0.00057744,5770.4,0.00058014,5853.7,-0.00017611,171.47,-0.00019907,-0.98064,0.026181
26966,2.2845,5.8182,0.1,0.00058771,5873.1,0.00058841,5894,-0.00018998,45.485,-0.00019646,-3.2388,0.025191
26967,2.1931,5.9091,0.1,0.00059091,5905,0.00059116,5912.6,-0.0001936,16.146,-0.00019588,-0.94959,0.022513
26968,2.3759,0.27273,0.1,0.00057978,5793.8,0.00058149,5845.6,-0.00018236,106.3,-0.00019667,-1.2141,0.027961
26969,2.4672,0.18182,0.1,0.00058154,5811.4,0.00058229,5833.9,-0.00018778,47.864,-0.00019448,-2.5127,0.029785
26970,2.3759,0.090909,0.1,0.00058526,5848.5,0.00058557,5857.7,-0.00019149,19.219,-0.00019415,-0.78061,0.026889
26971,2.3759,0.45455,0.1,0.00057059,5701.9,0.00057408,5811.2,-0.00016929,225.77,-0.00019942,-0.58801,0.028918
26972,2.4672,0.36364,0.1,0.00057212,5717.2,0.0005747,5796.6,-0.00017507,163.11,-0.00019689,-0.87852,0.030821
26973,2.3759,0.63636,0.1,0.0005623,5619.1,0.00056734,5782.5,-0.00015664,342.76,-0.0002023,-0.27438,0.029767
26974,2.4672,0.54545,0.1,0.00056385,5634.6,0.00056803,5767.2,-0.00016287,275.48,-0.00019957,-0.3019,0.031746
26975,2.3759,0.81818,0.1,0.00055456,5541.8,0.00056093,5756.5,-0.00014425,458.12,-0.00020524,-0.20052,0.030518
26976,2.4672,0.72727,0.1,0.00055607,5556.9,0.00056164,5740.1,-0.00015083,386.92,-0.00020236,-0.23805,0.032568
26977,2.3759,1,0.1,0.00054747,5470.9,0.00055493,5733.5,-0.00013228,570.14,-0.00020818,-0.13342,0.031177
26978,2.4672,0.90909,0.1,0.00054883,5484.5,0.00055558,5715.6,-0.00013909,496.15,-0.00020514,-0.15281,0.033293
26979,2.3759,1.1818,0.1,0.00054109,5407.2,0.00054941,5713.7,-0.00012095,676.86,-0.00021104,-0.091476,0.031753
26980,2.4672,1.0909,0.1,0.00054221,5418.4,0.00054993,5693.9,-0.00012785,601.29,-0.00020789,-0.10699,0.033931
26981,2.3759,1.3636,0.1,0.00053548,5351.1,0.00054445,5696.9,-0.00011042,776.56,-0.00021378,-0.060278,0.032253
26982,2.4672,1.2727,0.1,0.00053629,5359.2,0.00054476,5675,-0.00011729,700.63,-0.00021055,-0.071097,0.034487
26983,2.3759,1.5455,0.1,0.00053066,5302.9,0.00054006,5683.3,-0.00010083,867.82,-0.00021634,-0.038383,0.032682
26984,2.4672,1.4545,0.1,0.0005311,5307.3,0.00054012,5659.1,-0.00010755,792.68,-0.00021306,-0.04594,0.034969
26985,2.3759,1.7273,0.1,0.0005266,5262.3,0.00053628,5672.5,-9.2296e-05,949.59,-0.00021868,-0.023039,0.033048
26986,2.4672,1.6364,0.1,0.00052665,5262.8,0.00053605,5646,-9.8759e-05,876.24,-0.00021538,-0.02775,0.035382
26987,2.3759,1.9091,0.1,0.00052326,5229,0.00053309,5664.2,-8.4868e-05,1021.1,-0.00022077,-0.012657,0.033355
26988,2.4672,1.8182,0.1,0.00052291,5225.5,0.00053255,5635.4,-9.099e-05,950.42,-0.00021749,-0.015054,0.035732
26989,2.3759,2.0909,0.1,0.00052058,5202.3,0.00053048,5658.1,-7.8584e-05,1081.9,-0.00022257,-0.0058531,0.033607
26990,2.4672,2,0.1,0.00051984,5194.9,0.00052961,5627.3,-8.4302e-05,1014.6,-0.00021933,-0.0063854,0.036023
26991,2.3759,2.2727,0.1,0.00051851,5181.5,0.0005284,5653.8,-7.3458e-05,1131.7,-0.00022408,-0.0015749,0.033808
26992,2.4672,2.1818,0.1,0.0005174,5170.5,0.00052723,5621.2,-7.8722e-05,1068.3,-0.0002209,-0.00066476,0.03626
26993,2.3759,2.4545,0.1,0.00051697,5166.1,0.00052683,5650.9,-6.9488e-05,1170.4,-0.00022526,0.00098914,0.033962
26994,2.4672,2.3636,0.1,0.00051553,5151.7,0.00052536,5616.7,-7.4264e-05,1111.4,-0.00022218,0.0029714,0.036446
26995,2.3759,2.6364,0.1,0.00051591,5155.6,0.00052574,5649.1,-6.6664e-05,1198,-0.00022611,0.0024284,0.03407
26996,2.4672,2.5455,0.1,0.00051417,5138.2,0.00052399,5613.7,-7.0928e-05,1143.7,-0.00022315,0.0051692,0.036582
26997,2.3759,2.8182,0.1,0.00051529,5149.4,0.00052509,5648.1,-6.4975e-05,1214.6,-0.00022662,0.0031407,0.034134
26998,2.4672,2.7273,0.1,0.0005133,5129.4,0.00052309,5611.8,-6.8709e-05,1165.3,-0.0002238,0.0063915,0.036673
26999,2.3759,3,0.1,0.00051509,5147.4,0.00052488,5647.8,-6.4413e-05,1220.1,-0.0002268,0.0033535,0.034155
27000,2.4672,2.9091,0.1,0.00051287,5125.1,0.00052264,5610.9,-6.7602e-05,1176.1,-0.00022412,0.0069313,0.036717
27001,2.3759,3.1818,0.1,0.00051529,5149.4,0.00052509,5648.1,-6.4975e-05,1214.6,-0.00022662,0.0031408,0.034134
27002,2.4672,3.0909,0.1,0.00051287,5125.1,0.00052264,5610.9,-6.7602e-05,1176.1,-0.00022412,0.0069314,0.036717
27003,2.3759,3.3636,0.1,0.00051591,5155.6,0.00052574,5649.1,-6.6664e-05,1198,-0.00022611,0.0024285,0.03407
27004,2.4672,3.2727,0.1,0.0005133,5129.4,0.00052309,5611.8,-6.8709e-05,1165.3,-0.0002238,0.0063915,0.036673
27005,2.3759,3.5455,0.1,0.00051697,5166.1,0.00052683,5650.9,-6.9488e-05,1170.4,-0.00022526,0.00098924,0.033962
27006,2.4672,3.4545,0.1,0.00051417,5138.2,0.00052399,5613.7,-7.0928e-05,1143.7,-0.00022315,0.0051693,0.036582
27007,2.3759,3.7273,0.1,0.00051851,5181.5,0.0005284,5653.8,-7.3458e-05,1131.7,-0.00022408,-0.0015747,0.033808
27008,2.4672,3.6364,0.1,0.00051553,5151.7,0.00052536,5616.7,-7.4264e-05,1111.4,-0.00022218,0.0029715,0.036446
27009,2.3759,3.9091,0.1,0.00052058,5202.3,0.00053048,5658.1,-7.8584e-05,1081.9,-0.00022257,-0.0058529,0.033607
27010,2.4672,3.8182,0.1,0.0005174,5170.5,0.00052723,5621.2,-7.8722e-05,1068.3,-0.0002209,-0.00066454,0.03626
27011,2.3759,4.0909,0.1,0.00052326,5229,0.00053309,5664.2,-8.4868e-05,1021.1,-0.00022077,-0.012656,0.033355
27012,2.4672,4,0.1,0.00051984,5194.9,0.00052961,5627.3,-8.4302e-05,1014.6,-0.00021933,-0.0063852,0.036023
27013,2.3759,4.2727,0.1,0.0005266,5262.3,0.00053628,5672.5,-9.2296e-05,949.59,-0.00021868,-0.023039,0.033048
27014,2.4672,4.1818,0.1,0.00052291,5225.5,0.00053255,5635.4,-9.099e-05,950.42,-0.00021749,-0.015054,0.035732
27015,2.3759,4.4545,0.1,0.00053066,5302.9,0.00054006,5683.3,-0.00010083,867.82,-0.00021634,-0.038383,0.032682
27016,2.4672,4.3636,0.1,0.00052665,5262.8,0.00053605,5646,-9.8759e-05,876.24,-0.00021538,-0.027749,0.035382
27017,2.3759,4.6364,0.1,0.00053548,5351.1,0.00054445,5696.9,-0.00011042,776.56,-0.00021378,-0.060277,0.032253
27018,2.4672,4.5455,0.1,0.0005311,5307.3,0.00054012,5659.1,-0.00010755,792.68,-0.00021306,-0.04594,0.034969
27019,2.3759,4.8182,0.1,0.00054109,5407.2,0.00054941,5713.7,-0.00012095,676.86,-0.00021104,-0.091475,0.031753
27020,2.4672,4.7273,0.1,0.00053629,5359.2,0.00054476,5675,-0.00011729,700.63,-0.00021055,-0.071096,0.034487
27021,2.3759,5,0.1,0.00054747,5470.9,0.00055493,5733.5,-0.00013228,570.14,-0.00020818,-0.13342,0.031177
27022,2.4672,4.9091,0.1,0.00054221,5418.4,0.00054993,5693.9,-0.00012785,601.29,-0.00020789,-0.10699,0.033931
27023,2.3759,5.1818,0.1,0.00055456,5541.8,0.00056093,5756.5,-0.00014425,458.12,-0.00020524,-0.20052,0.030518
27024,2.4672,5.0909,0.1,0.00054883,5484.5,0.00055558,5715.6,-0.00013909,496.15,-0.00020514,-0.15281,0.033293
27025,2.3759,5.3636,0.1,0.0005623,5619.1,0.00056734,5782.5,-0.00015664,342.76,-0.0002023,-0.27438,0.029767
27026,2.4672,5.2727,0.1,0.00055607,5556.9,0.00056164,5740.1,-0.00015083,386.92,-0.00020236,-0.23805,0.032568
27027,2.3759,5.5455,0.1,0.00057059,5701.9,0.00057408,5811.2,-0.00016929,225.77,-0.00019942,-0.58801,0.028918
27028,2.4672,5.4545,0.1,0.00056385,5634.6,0.00056803,5767.2,-0.00016287,275.48,-0.00019957,-0.3019,0.031746
27029,2.3759,5.7273,0.1,0.00057978,5793.8,0.00058149,5845.6,-0.00018236,106.3,-0.00019667,-1.2141,0.027961
27030,2.4672,5.6364,0.1,0.00057212,5717.2,0.0005747,5796.6,-0.00017507,163.11,-0.00019689,-0.87852,0.030821
27031,2.4672,5.8182,0.1,0.00058154,5811.4,0.00058229,5833.9,-0.00018778,47.864,-0.00019448,-2.5127,0.029785
27032,2.3759,5.9091,0.1,0.00058526,5848.5,0.00058557,5857.7,-0.00019149,19.219,-0.00019415,-0.78061,0.026889
27033,2.5586,0.27273,0.1,0.00057386,5734.7,0.00057553,5785.1,-0.00018066,103.35,-0.00019456,-1.0438,0.032769
27034,2.65,0.18182,0.1,0.00057512,5747.2,0.00057591,5770.8,-0.00018556,49.4,-0.0001924,-1.9915,0.034763
27035,2.5586,0.090909,0.1,0.00057923,5788.3,0.00057958,5798.7,-0.00018931,21.506,-0.00019226,-0.66808,0.031653
27036,2.5586,0.45455,0.1,0.00056537,5649.8,0.00056867,5752.8,-0.00016869,212.55,-0.00019704,-0.52892,0.033771
27037,2.65,0.36364,0.1,0.00056647,5660.8,0.00056893,5736.3,-0.00017389,154.99,-0.00019463,-0.78944,0.035842
27038,2.5586,0.63636,0.1,0.00055761,5572.3,0.00056235,5725,-0.00015708,319.44,-0.00019963,-0.24693,0.034665
27039,2.65,0.54545,0.1,0.00055877,5583.8,0.0005627,5708.1,-0.00016269,257.86,-0.00019704,-0.27006,0.036809
27040,2.5586,0.81818,0.1,0.00055032,5499.4,0.00055631,5699.3,-0.0001457,424.77,-0.00020225,-0.18207,0.035458
27041,2.65,0.72727,0.1,0.00055147,5510.9,0.0005567,5681.8,-0.00015163,359.73,-0.00019953,-0.2156,0.037672
27042,2.5586,1,0.1,0.00054355,5431.8,0.00055059,5676.1,-0.00013468,527.17,-0.00020486,-0.12179,0.036159
27043,2.65,0.90909,0.1,0.00054462,5442.4,0.00055097,5657.5,-0.00014084,459.56,-0.00020202,-0.13909,0.038438
27044,2.5586,1.1818,0.1,0.00053739,5370.2,0.00054528,5655.3,-0.00012421,624.98,-0.0002074,-0.083702,0.036774
27045,2.65,1.0909,0.1,0.00053829,5379.2,0.00054558,5635.5,-0.00013048,555.81,-0.00020446,-0.097855,0.039114
27046,2.5586,1.3636,0.1,0.00053189,5315.2,0.00054044,5637.2,-0.00011443,716.73,-0.00020983,-0.054747,0.037311
27047,2.65,1.2727,0.1,0.00053256,5321.9,0.0005406,5615.8,-0.0001207,647.01,-0.00020682,-0.064966,0.039707
27048,2.5586,1.5455,0.1,0.00052707,5267.1,0.00053611,5621.7,-0.00010547,801.13,-0.0002121,-0.033826,0.037774
27049,2.65,1.4545,0.1,0.00052746,5270.9,0.00053608,5598.6,-0.00011164,731.86,-0.00020905,-0.041378,0.040223
27050,2.5586,1.7273,0.1,0.00052294,5225.8,0.00053231,5608.8,-9.7442e-05,877.16,-0.00021419,-0.018625,0.03817
27051,2.65,1.6364,0.1,0.00052301,5226.5,0.00053205,5583.9,-0.00010341,809.25,-0.00021112,-0.02381,0.040666
27052,2.5586,1.9091,0.1,0.00051948,5191.2,0.00052905,5598.4,-9.0407e-05,944.02,-0.00021605,-0.0078729,0.038503
27053,2.65,1.8182,0.1,0.00051921,5188.6,0.00052855,5571.6,-9.6102e-05,878.28,-0.000213,-0.011093,0.041044
27054,2.5586,2.0909,0.1,0.00051665,5162.9,0.00052634,5590.2,-8.4417e-05,1001.2,-0.00021766,-0.00044753,0.038778
27055,2.65,2,0.1,0.00051605,5156.9,0.00052556,5561.7,-8.9768e-05,938.28,-0.00021465,-0.0020309,0.041359
27056,2.5586,2.2727,0.1,0.00051441,5140.5,0.00052416,5583.9,-7.9501e-05,1048.2,-0.00021901,0.0045183,0.038998
27057,2.65,2.1818,0.1,0.00051349,5131.3,0.00052311,5553.8,-8.4456e-05,988.77,-0.00021605,0.0042513,0.041616
27058,2.5586,2.4545,0.1,0.00051272,5123.7,0.00052249,5579.3,-7.5675e-05,1084.9,-0.00022007,0.00771,0.039166
27059,2.65,2.3636,0.1,0.00051149,5111.4,0.00052116,5547.8,-8.0189e-05,1029.4,-0.0002172,0.008469,0.041818
27060,2.5586,2.6364,0.1,0.00051155,5112,0.00052131,5576.2,-7.2942e-05,1111.2,-0.00022084,0.0096393,0.039284
27061,2.65,2.5455,0.1,0.00051003,5096.8,0.00051972,5543.5,-7.6984e-05,1060,-0.00021807,0.01117,0.041967
27062,2.5586,2.8182,0.1,0.00051086,5105.1,0.00052061,5574.4,-7.1303e-05,1127,-0.0002213,0.01066,0.039355
27063,2.65,2.7273,0.1,0.00050908,5087.2,0.00051877,5540.7,-7.4845e-05,1080.5,-0.00021865,0.012755,0.042065
27064,2.5586,3,0.1,0.00051063,5102.8,0.00052038,5573.8,-7.0757e-05,1132.3,-0.00022145,0.010978,0.039378
27065,2.65,2.9091,0.1,0.0005086,5082.5,0.0005183,5539.4,-7.3776e-05,1090.7,-0.00021894,0.013485,0.042114
27066,2.5586,3.1818,0.1,0.00051086,5105.1,0.00052061,5574.4,-7.1303e-05,1127,-0.0002213,0.01066,0.039355
27067,2.65,3.0909,0.1,0.0005086,5082.5,0.0005183,5539.4,-7.3776e-05,1090.7,-0.00021894,0.013485,0.042114
27068,2.5586,3.3636,0.1,0.00051155,5112,0.00052131,5576.2,-7.2942e-05,1111.2,-0.00022084,0.0096394,0.039284
27069,2.65,3.2727,0.1,0.00050908,5087.2,0.00051877,5540.7,-7.4845e-05,1080.5,-0.00021865,0.012755,0.042065
27070,2.5586,3.5455,0.1,0.00051272,5123.7,0.00052249,5579.3,-7.5675e-05,1084.9,-0.00022007,0.0077101,0.039166
27071,2.65,3.4545,0.1,0.00051003,5096.8,0.00051972,5543.5,-7.6984e-05,1060,-0.00021807,0.01117,0.041967
27072,2.5586,3.7273,0.1,0.00051441,5140.5,0.00052416,5583.9,-7.9501e-05,1048.2,-0.00021901,0.0045185,0.038998
27073,2.65,3.6364,0.1,0.00051149,5111.4,0.00052116,5547.8,-8.0189e-05,1029.4,-0.0002172,0.0084692,0.041818
27074,2.5586,3.9091,0.1,0.00051665,5162.9,0.00052634,5590.2,-8.4417e-05,1001.2,-0.00021766,-0.00044723,0.038778
27075,2.65,3.8182,0.1,0.00051349,5131.3,0.00052311,5553.8,-8.4456e-05,988.77,-0.00021605,0.0042515,0.041616
27076,2.5586,4.0909,0.1,0.00051948,5191.2,0.00052905,5598.4,-9.0407e-05,944.02,-0.00021605,-0.0078725,0.038503
27077,2.65,4,0.1,0.00051605,5156.9,0.00052556,5561.7,-8.9768e-05,938.28,-0.00021465,-0.0020306,0.041359
27078,2.5586,4.2727,0.1,0.00052294,5225.8,0.00053231,5608.8,-9.7442e-05,877.16,-0.00021419,-0.018624,0.03817
27079,2.65,4.1818,0.1,0.00051921,5188.6,0.00052855,5571.6,-9.6102e-05,878.28,-0.000213,-0.011092,0.041044
27080,2.5586,4.4545,0.1,0.00052707,5267.1,0.00053611,5621.7,-0.00010547,801.13,-0.0002121,-0.033826,0.037774
27081,2.65,4.3636,0.1,0.00052301,5226.5,0.00053205,5583.9,-0.00010341,809.25,-0.00021112,-0.02381,0.040666
27082,2.5586,4.6364,0.1,0.00053189,5315.2,0.00054044,5637.2,-0.00011443,716.73,-0.00020983,-0.054746,0.037311
27083,2.65,4.5455,0.1,0.00052746,5270.9,0.00053608,5598.6,-0.00011164,731.86,-0.00020905,-0.041378,0.040223
27084,2.5586,4.8182,0.1,0.00053739,5370.2,0.00054528,5655.3,-0.00012421,624.98,-0.0002074,-0.083702,0.036774
27085,2.65,4.7273,0.1,0.00053256,5321.9,0.0005406,5615.8,-0.0001207,647.01,-0.00020682,-0.064965,0.039707
27086,2.5586,5,0.1,0.00054355,5431.8,0.00055059,5676.1,-0.00013468,527.17,-0.00020486,-0.12179,0.036159
27087,2.65,4.9091,0.1,0.00053829,5379.2,0.00054558,5635.5,-0.00013048,555.81,-0.00020446,-0.097855,0.039114
27088,2.5586,5.1818,0.1,0.00055032,5499.4,0.00055631,5699.3,-0.0001457,424.77,-0.00020225,-0.18206,0.035458
27089,2.65,5.0909,0.1,0.00054462,5442.4,0.00055097,5657.5,-0.00014084,459.56,-0.00020202,-0.13908,0.038438
27090,2.5586,5.3636,0.1,0.00055761,5572.3,0.00056235,5725,-0.00015708,319.44,-0.00019963,-0.24693,0.034665
27091,2.65,5.2727,0.1,0.00055147,5510.9,0.0005567,5681.8,-0.00015163,359.73,-0.00019953,-0.2156,0.037672
27092,2.5586,5.5455,0.1,0.00056537,5649.8,0.00056867,5752.8,-0.00016869,212.55,-0.00019704,-0.52892,0.033771
27093,2.65,5.4545,0.1,0.00055877,5583.8,0.0005627,5708.1,-0.00016269,257.86,-0.00019704,-0.27006,0.036809
27094,2.5586,5.7273,0.1,0.00057386,5734.7,0.00057553,5785.1,-0.00018066,103.35,-0.00019456,-1.0438,0.032769
27095,2.65,5.6364,0.1,0.00056647,5660.8,0.00056893,5736.3,-0.00017389,154.99,-0.00019463,-0.78944,0.035842
27096,2.65,5.8182,0.1,0.00057512,5747.2,0.00057591,5770.8,-0.00018556,49.4,-0.0001924,-1.9915,0.034763
27097,2.5586,5.9091,0.1,0.00057923,5788.3,0.00057958,5798.7,-0.00018931,21.506,-0.00019226,-0.66807,0.031653
27098,2.7414,0.27273,0.1,0.00056771,5673.2,0.00056933,5722.1,-0.00017892,100.04,-0.00019235,-0.90314,0.037958
27099,2.8328,0.18182,0.1,0.00056854,5681.5,0.00056935,5705.6,-0.00018334,50.183,-0.00019023,-1.6059,0.040122
27100,2.7414,0.090909,0.1,0.00057294,5725.4,0.00057332,5736.6,-0.00018711,23.115,-0.00019026,-0.58559,0.036802
27101,2.7414,0.45455,0.1,0.00055986,5594.7,0.00056298,5691.8,-0.00016792,200.08,-0.00019461,-0.47684,0.039
27102,2.8328,0.36364,0.1,0.00056059,5602.1,0.00056294,5673.8,-0.00017262,147.07,-0.00019229,-0.71129,0.041238
27103,2.7414,0.63636,0.1,0.00055261,5522.3,0.00055707,5665.2,-0.00015725,297.97,-0.00019694,-0.22255,0.039934
27104,2.8328,0.54545,0.1,0.00055342,5530.4,0.00055713,5647,-0.00016231,241.44,-0.00019448,-0.24204,0.042244
27105,2.7414,0.81818,0.1,0.00054575,5453.8,0.00055139,5640.2,-0.00014679,394.35,-0.00019929,-0.16539,0.040767
27106,2.8328,0.72727,0.1,0.00054659,5462.1,0.00055151,5621.7,-0.00015214,334.73,-0.00019672,-0.19542,0.043145
27107,2.7414,1,0.1,0.00053934,5389.7,0.00054598,5617,-0.00013665,488.07,-0.00020162,-0.11113,0.041505
27108,2.8328,0.90909,0.1,0.00054013,5397.6,0.00054611,5597.9,-0.00014221,426.12,-0.00019894,-0.12655,0.043948
27109,2.7414,1.1818,0.1,0.00053344,5330.7,0.00054091,5596,-0.00012698,577.75,-0.00020388,-0.076574,0.042157
27110,2.8328,1.0909,0.1,0.00053412,5337.5,0.00054101,5576,-0.00013267,514.31,-0.00020113,-0.08941,0.044659
27111,2.7414,1.3636,0.1,0.00052811,5277.4,0.00053624,5577.2,-0.00011792,662.11,-0.00020605,-0.049834,0.042727
27112,2.8328,1.2727,0.1,0.00052862,5282.6,0.00053625,5556.1,-0.00012363,598.03,-0.00020323,-0.059336,0.045286
27113,2.7414,1.5455,0.1,0.00052338,5230.2,0.00053202,5560.8,-0.00010958,739.99,-0.00020807,-0.030059,0.043221
27114,2.8328,1.4545,0.1,0.00052368,5233.1,0.00053189,5538.3,-0.00011523,676.13,-0.00020522,-0.03737,0.045832
27115,2.7414,1.7273,0.1,0.00051927,5189.1,0.00052828,5546.6,-0.00010207,810.42,-0.00020993,-0.015269,0.043645
27116,2.8328,1.6364,0.1,0.00051931,5189.5,0.00052797,5522.8,-0.00010756,747.61,-0.00020707,-0.020616,0.046305
27117,2.7414,1.9091,0.1,0.00051577,5154.2,0.00052504,5534.8,-9.545e-05,872.64,-0.00021159,-0.0044381,0.044003
27118,2.8328,1.8182,0.1,0.00051554,5151.8,0.00052453,5509.5,-0.00010072,811.61,-0.00020874,-0.0081288,0.046707
27119,2.7414,2.0909,0.1,0.00051288,5125.2,0.00052231,5525.1,-8.9789e-05,926.02,-0.00021303,0.003344,0.044299
27120,2.8328,2,0.1,0.00051236,5120,0.00052157,5498.3,-9.4766e-05,867.45,-0.00021022,0.001069,0.047045
27121,2.7414,2.2727,0.1,0.00051056,5102.1,0.00052009,5517.5,-8.5121e-05,970.15,-0.00021424,0.0087821,0.044536
27122,2.8328,2.1818,0.1,0.00050975,5094,0.00051911,5489.3,-8.9749e-05,914.61,-0.00021147,0.0076851,0.04732
27123,2.7414,2.4545,0.1,0.00050879,5084.4,0.00051838,5511.8,-8.1473e-05,1004.7,-0.00021519,0.012442,0.044718
27124,2.8328,2.3636,0.1,0.0005077,5073.4,0.00051714,5482.3,-8.5704e-05,952.71,-0.0002125,0.012303,0.047537
27125,2.7414,2.6364,0.1,0.00050755,5072,0.00051716,5507.8,-7.8859e-05,1029.5,-0.00021588,0.014756,0.044847
27126,2.8328,2.5455,0.1,0.00050618,5058.3,0.00051568,5477.1,-8.2655e-05,981.47,-0.00021328,0.015375,0.047698
27127,2.7414,2.8182,0.1,0.00050681,5064.6,0.00051643,5505.4,-7.7288e-05,1044.5,-0.00021629,0.016025,0.044923
27128,2.8328,2.7273,0.1,0.00050518,5048.3,0.0005147,5473.7,-8.0616e-05,1000.7,-0.0002138,0.01724,0.047804
27129,2.7414,3,0.1,0.00050657,5062.2,0.00051619,5504.7,-7.6764e-05,1049.4,-0.00021643,0.016428,0.044948
27130,2.8328,2.9091,0.1,0.00050468,5043.4,0.00051422,5472.1,-7.9594e-05,1010.4,-0.00021407,0.018118,0.047856
27131,2.7414,3.1818,0.1,0.00050681,5064.6,0.00051643,5505.4,-7.7288e-05,1044.5,-0.00021629,0.016025,0.044923
27132,2.8328,3.0909,0.1,0.00050468,5043.4,0.00051422,5472.1,-7.9594e-05,1010.4,-0.00021407,0.018118,0.047856
27133,2.7414,3.3636,0.1,0.00050755,5072,0.00051716,5507.8,-7.8859e-05,1029.5,-0.00021588,0.014756,0.044847
27134,2.8328,3.2727,0.1,0.00050518,5048.3,0.0005147,5473.7,-8.0616e-05,1000.7,-0.0002138,0.01724,0.047804
27135,2.7414,3.5455,0.1,0.00050879,5084.4,0.00051838,5511.8,-8.1473e-05,1004.7,-0.00021519,0.012443,0.044718
27136,2.8328,3.4545,0.1,0.00050618,5058.3,0.00051568,5477.1,-8.2655e-05,981.47,-0.00021328,0.015375,0.047698
27137,2.7414,3.7273,0.1,0.00051056,5102.1,0.00052009,5517.5,-8.5121e-05,970.15,-0.00021424,0.0087823,0.044536
27138,2.8328,3.6364,0.1,0.0005077,5073.4,0.00051714,5482.3,-8.5704e-05,952.71,-0.0002125,0.012303,0.047537
27139,2.7414,3.9091,0.1,0.00051288,5125.2,0.00052231,5525.1,-8.9789e-05,926.02,-0.00021303,0.0033442,0.044299
27140,2.8328,3.8182,0.1,0.00050975,5094,0.00051911,5489.3,-8.9749e-05,914.61,-0.00021147,0.0076853,0.04732
27141,2.7414,4.0909,0.1,0.00051577,5154.2,0.00052504,5534.8,-9.545e-05,872.64,-0.00021159,-0.0044378,0.044003
27142,2.8328,4,0.1,0.00051236,5120,0.00052157,5498.3,-9.4766e-05,867.45,-0.00021022,0.0010693,0.047045
27143,2.7414,4.2727,0.1,0.00051927,5189.1,0.00052828,5546.6,-0.00010207,810.42,-0.00020993,-0.015268,0.043645
27144,2.8328,4.1818,0.1,0.00051554,5151.8,0.00052453,5509.5,-0.00010072,811.61,-0.00020874,-0.0081284,0.046707
27145,2.7414,4.4545,0.1,0.00052338,5230.2,0.00053202,5560.8,-0.00010958,739.99,-0.00020807,-0.030059,0.043221
27146,2.8328,4.3636,0.1,0.00051931,5189.5,0.00052797,5522.8,-0.00010756,747.61,-0.00020707,-0.020615,0.046305
27147,2.7414,4.6364,0.1,0.00052811,5277.4,0.00053624,5577.2,-0.00011792,662.11,-0.00020605,-0.049833,0.042727
27148,2.8328,4.5455,0.1,0.00052368,5233.1,0.00053189,5538.3,-0.00011523,676.13,-0.00020522,-0.03737,0.045832
27149,2.7414,4.8182,0.1,0.00053344,5330.7,0.00054091,5596,-0.00012698,577.75,-0.00020388,-0.076574,0.042157
27150,2.8328,4.7273,0.1,0.00052862,5282.6,0.00053625,5556.1,-0.00012363,598.03,-0.00020323,-0.059336,0.045286
27151,2.7414,5,0.1,0.00053934,5389.7,0.00054598,5617,-0.00013665,488.07,-0.00020162,-0.11113,0.041505
27152,2.8328,4.9091,0.1,0.00053412,5337.5,0.00054101,5576,-0.00013267,514.31,-0.00020113,-0.089409,0.044659
27153,2.7414,5.1818,0.1,0.00054575,5453.8,0.00055139,5640.2,-0.00014679,394.35,-0.00019929,-0.16539,0.040767
27154,2.8328,5.0909,0.1,0.00054013,5397.6,0.00054611,5597.9,-0.00014221,426.12,-0.00019894,-0.12655,0.043948
27155,2.7414,5.3636,0.1,0.00055261,5522.3,0.00055707,5665.2,-0.00015725,297.97,-0.00019694,-0.22255,0.039934
27156,2.8328,5.2727,0.1,0.00054659,5462.1,0.00055151,5621.7,-0.00015214,334.73,-0.00019672,-0.19542,0.043145
27157,2.7414,5.5455,0.1,0.00055986,5594.7,0.00056298,5691.8,-0.00016792,200.08,-0.00019461,-0.47684,0.039
27158,2.8328,5.4545,0.1,0.00055342,5530.4,0.00055713,5647,-0.00016231,241.44,-0.00019448,-0.24204,0.042244
27159,2.7414,5.7273,0.1,0.00056771,5673.2,0.00056933,5722.1,-0.00017892,100.04,-0.00019235,-0.90314,0.037958
27160,2.8328,5.6364,0.1,0.00056059,5602.1,0.00056294,5673.8,-0.00017262,147.07,-0.00019229,-0.71129,0.041238
27161,2.8328,5.8182,0.1,0.00056854,5681.5,0.00056935,5705.6,-0.00018334,50.183,-0.00019023,-1.6059,0.040122
27162,2.7414,5.9091,0.1,0.00057294,5725.4,0.00057332,5736.6,-0.00018711,23.115,-0.00019026,-0.58559,0.036802
27163,2.9241,0.27273,0.1,0.00056142,5610.3,0.00056298,5657.5,-0.00017715,96.427,-0.00019009,-0.78578,0.043524
27164,3.0155,0.18182,0.1,0.00056188,5615,0.0005627,5639.3,-0.00018115,50.308,-0.00018802,-1.3136,0.045858
27165,2.9241,0.090909,0.1,0.00056647,5660.8,0.00056687,5672.6,-0.00018489,24.149,-0.00018818,-0.52119,0.042332
27166,2.9241,0.45455,0.1,0.00055415,5537.7,0.0005571,5629.2,-0.00016704,188.23,-0.00019215,-0.43068,0.044602
27167,3.0155,0.36364,0.1,0.00055457,5541.9,0.0005568,5609.9,-0.00017129,139.3,-0.00018992,-0.64234,0.047009
27168,2.9241,0.63636,0.1,0.00054739,5470.1,0.00055158,5603.7,-0.00015722,278.04,-0.00019425,-0.20078,0.045572
27169,3.0155,0.54545,0.1,0.0005479,5475.2,0.00055139,5584.6,-0.00016179,226,-0.0001919,-0.21728,0.048048
27170,2.9241,0.81818,0.1,0.00054096,5405.8,0.00054625,5579.6,-0.00014759,366.37,-0.00019637,-0.15023,0.04644
27171,3.0155,0.72727,0.1,0.00054151,5411.4,0.00054613,5560.3,-0.00015243,311.59,-0.00019392,-0.17724,0.048983
27172,2.9241,1,0.1,0.0005349,5345.3,0.00054116,5557,-0.00013825,452.24,-0.00019845,-0.10129,0.047214
27173,3.0155,0.90909,0.1,0.00053544,5350.7,0.00054107,5537.4,-0.00014329,395.36,-0.00019593,-0.1151,0.049819
27174,2.9241,1.1818,0.1,0.00052929,5289.3,0.00053635,5536.2,-0.00012933,534.5,-0.00020048,-0.069934,0.047898
27175,3.0155,1.0909,0.1,0.00052976,5294,0.00053625,5515.9,-0.0001345,476.21,-0.00019789,-0.081604,0.050563
27176,2.9241,1.3636,0.1,0.00052418,5238.2,0.0005319,5517.2,-0.00012095,612.01,-0.00020241,-0.04532,0.048499
27177,3.0155,1.2727,0.1,0.00052453,5241.6,0.00053174,5496.2,-0.00012615,553.05,-0.00019977,-0.054138,0.05122
27178,2.9241,1.5455,0.1,0.0005196,5192.4,0.00052784,5500.4,-0.00011321,683.75,-0.00020422,-0.026776,0.049022
27179,3.0155,1.4545,0.1,0.00051978,5194.2,0.00052758,5478.3,-0.00011838,624.88,-0.00020155,-0.03378,0.051795
27180,2.9241,1.7273,0.1,0.00051557,5152.1,0.00052421,5485.6,-0.00010621,748.83,-0.00020588,-0.01258,0.049472
27181,3.0155,1.6364,0.1,0.00051555,5151.9,0.00052381,5462.5,-0.00011126,690.77,-0.0002032,-0.017951,0.052294
27182,2.9241,1.9091,0.1,0.00051211,5117.6,0.00052104,5472.9,-0.00010003,806.5,-0.00020736,-0.001896,0.049852
27183,3.0155,1.8182,0.1,0.00051186,5115.1,0.00052047,5448.6,-0.00010488,749.94,-0.00020469,-0.0058764,0.05272
27184,2.9241,2.0909,0.1,0.00050922,5088.6,0.00051835,5462.4,-9.4711e-05,856.14,-0.00020866,0.0060185,0.050168
27185,3.0155,2,0.1,0.00050872,5083.6,0.00051759,5436.9,-9.9315e-05,801.71,-0.00020601,0.0032532,0.053078
27186,2.9241,2.2727,0.1,0.00050687,5065.2,0.00051614,5453.9,-9.0313e-05,897.3,-0.00020973,0.011732,0.050422
27187,3.0155,2.1818,0.1,0.00050612,5057.7,0.00051517,5427.2,-9.4608e-05,845.55,-0.00020714,0.010008,0.053371
27188,2.9241,2.4545,0.1,0.00050507,5047.3,0.00051442,5447.5,-8.6864e-05,929.63,-0.00021059,0.015705,0.050617
27189,3.0155,2.3636,0.1,0.00050406,5037.1,0.00051323,5419.5,-9.0801e-05,881.06,-0.00020806,0.01486,0.053602
27190,2.9241,2.6364,0.1,0.0005038,5034.5,0.0005132,5442.9,-8.4387e-05,952.87,-0.0002112,0.018292,0.050754
27191,3.0155,2.5455,0.1,0.00050253,5021.8,0.00051177,5413.8,-8.7925e-05,907.93,-0.00020876,0.018177,0.053773
27192,2.9241,2.8182,0.1,0.00050304,5027,0.00051247,5440.2,-8.2896e-05,966.88,-0.00021158,0.019744,0.050836
27193,3.0155,2.7273,0.1,0.00050151,5011.6,0.0005108,5410.1,-8.5997e-05,925.95,-0.00020923,0.020236,0.053886
27194,2.9241,3,0.1,0.00050279,5024.5,0.00051222,5439.3,-8.2398e-05,971.56,-0.0002117,0.020212,0.050864
27195,3.0155,2.9091,0.1,0.00050101,5006.6,0.00051032,5408.2,-8.503e-05,935,-0.00020947,0.02122,0.053943
27196,2.9241,3.1818,0.1,0.00050304,5027,0.00051247,5440.2,-8.2896e-05,966.88,-0.00021158,0.019744,0.050836
27197,3.0155,3.0909,0.1,0.00050101,5006.6,0.00051032,5408.2,-8.503e-05,935,-0.00020947,0.02122,0.053943
27198,2.9241,3.3636,0.1,0.0005038,5034.5,0.0005132,5442.9,-8.4387e-05,952.87,-0.0002112,0.018292,0.050754
27199,3.0155,3.2727,0.1,0.00050151,5011.6,0.0005108,5410.1,-8.5997e-05,925.95,-0.00020923,0.020236,0.053886
27200,2.9241,3.5455,0.1,0.00050507,5047.3,0.00051442,5447.5,-8.6864e-05,929.63,-0.00021059,0.015705,0.050617
27201,3.0155,3.4545,0.1,0.00050253,5021.8,0.00051177,5413.8,-8.7925e-05,907.93,-0.00020876,0.018177,0.053773
27202,2.9241,3.7273,0.1,0.00050687,5065.2,0.00051614,5453.9,-9.0313e-05,897.3,-0.00020973,0.011732,0.050422
27203,3.0155,3.6364,0.1,0.00050406,5037.1,0.00051323,5419.5,-9.0801e-05,881.06,-0.00020806,0.01486,0.053602
27204,2.9241,3.9091,0.1,0.00050922,5088.6,0.00051835,5462.4,-9.4711e-05,856.14,-0.00020866,0.0060188,0.050168
27205,3.0155,3.8182,0.1,0.00050612,5057.7,0.00051517,5427.2,-9.4608e-05,845.55,-0.00020714,0.010009,0.053371
27206,2.9241,4.0909,0.1,0.00051211,5117.6,0.00052104,5472.9,-0.00010003,806.5,-0.00020736,-0.0018956,0.049852
27207,3.0155,4,0.1,0.00050872,5083.6,0.00051759,5436.9,-9.9315e-05,801.71,-0.00020601,0.0032535,0.053078
27208,2.9241,4.2727,0.1,0.00051557,5152.1,0.00052421,5485.6,-0.00010621,748.83,-0.00020588,-0.01258,0.049472
27209,3.0155,4.1818,0.1,0.00051186,5115.1,0.00052047,5448.6,-0.00010488,749.94,-0.00020469,-0.0058759,0.05272
27210,2.9241,4.4545,0.1,0.0005196,5192.4,0.00052784,5500.4,-0.00011321,683.75,-0.00020422,-0.026776,0.049022
27211,3.0155,4.3636,0.1,0.00051555,5151.9,0.00052381,5462.5,-0.00011126,690.77,-0.0002032,-0.01795,0.052294
27212,2.9241,4.6364,0.1,0.00052418,5238.2,0.0005319,5517.2,-0.00012095,612.01,-0.00020241,-0.04532,0.048499
27213,3.0155,4.5455,0.1,0.00051978,5194.2,0.00052758,5478.3,-0.00011838,624.88,-0.00020155,-0.03378,0.051795
27214,2.9241,4.8182,0.1,0.00052929,5289.3,0.00053635,5536.2,-0.00012933,534.5,-0.00020048,-0.069934,0.047898
27215,3.0155,4.7273,0.1,0.00052453,5241.6,0.00053174,5496.2,-0.00012615,553.05,-0.00019977,-0.054137,0.05122
27216,2.9241,5,0.1,0.0005349,5345.3,0.00054116,5557,-0.00013825,452.24,-0.00019845,-0.10129,0.047214
27217,3.0155,4.9091,0.1,0.00052976,5294,0.00053625,5515.9,-0.0001345,476.21,-0.00019789,-0.081604,0.050563
27218,2.9241,5.1818,0.1,0.00054096,5405.8,0.00054625,5579.6,-0.00014759,366.37,-0.00019637,-0.15023,0.04644
27219,3.0155,5.0909,0.1,0.00053544,5350.7,0.00054107,5537.4,-0.00014329,395.36,-0.00019593,-0.1151,0.049819
27220,2.9241,5.3636,0.1,0.00054739,5470.1,0.00055158,5603.7,-0.00015722,278.04,-0.00019425,-0.20078,0.045572
27221,3.0155,5.2727,0.1,0.00054151,5411.4,0.00054613,5560.3,-0.00015243,311.59,-0.00019392,-0.17724,0.048983
27222,2.9241,5.5455,0.1,0.00055415,5537.7,0.0005571,5629.2,-0.00016704,188.23,-0.00019215,-0.43067,0.044602
27223,3.0155,5.4545,0.1,0.0005479,5475.2,0.00055139,5584.6,-0.00016179,226,-0.0001919,-0.21728,0.048048
27224,2.9241,5.7273,0.1,0.00056142,5610.3,0.00056298,5657.5,-0.00017715,96.427,-0.00019009,-0.78577,0.043524
27225,3.0155,5.6364,0.1,0.00055457,5541.9,0.0005568,5609.9,-0.00017129,139.3,-0.00018992,-0.64234,0.047009
27226,3.0155,5.8182,0.1,0.00056188,5615,0.0005627,5639.3,-0.00018115,50.308,-0.00018802,-1.3136,0.045858
27227,2.9241,5.9091,0.1,0.00056647,5660.8,0.00056687,5672.6,-0.00018489,24.149,-0.00018818,-0.52119,0.042332
27228,3.1069,0.27273,0.1,0.00055503,5546.5,0.00055654,5591.8,-0.00017537,92.559,-0.00018778,-0.68707,0.049464
27229,3.1983,0.18182,0.1,0.00055519,5548,0.000556,5572.3,-0.00017899,49.871,-0.00018577,-1.0873,0.051968
27230,3.1069,0.090909,0.1,0.00055991,5595.2,0.00056032,5607.3,-0.00018268,24.7,-0.00018603,-0.46874,0.04824
27231,3.1069,0.45455,0.1,0.00054831,5479.3,0.0005511,5565.4,-0.00016607,176.91,-0.00018967,-0.38963,0.050574
27232,3.1983,0.36364,0.1,0.00054845,5480.8,0.00055056,5545.1,-0.00016992,131.68,-0.00018752,-0.58118,0.053149
27233,3.1069,0.63636,0.1,0.00054201,5416.3,0.00054595,5541.3,-0.00015702,259.41,-0.00019157,-0.18136,0.051576
27234,3.1983,0.54545,0.1,0.00054225,5418.7,0.00054553,5521.2,-0.00016116,211.43,-0.00018933,-0.19537,0.054219
27235,3.1069,0.81818,0.1,0.00053599,5356.2,0.00054096,5518.2,-0.00014815,340.45,-0.00019348,-0.13651,0.052476
27236,3.1983,0.72727,0.1,0.00053629,5359.2,0.00054063,5498.2,-0.00015254,290.02,-0.00019116,-0.16086,0.055184
27237,3.1069,1,0.1,0.00053029,5299.3,0.00053618,5496.4,-0.00013955,419.21,-0.00019536,-0.092294,0.053281
27238,3.1983,0.90909,0.1,0.0005306,5302.4,0.00053589,5476.2,-0.00014412,366.88,-0.00019297,-0.10469,0.056051
27239,3.1069,1.1818,0.1,0.00052499,5246.3,0.00053165,5476,-0.00013133,494.68,-0.00019718,-0.063831,0.053995
27240,3.1983,1.0909,0.1,0.00052526,5248.9,0.00053136,5455.5,-0.00013602,441.05,-0.00019473,-0.074437,0.056823
27241,3.1069,1.3636,0.1,0.00052012,5197.6,0.00052743,5457.3,-0.00012359,565.88,-0.00019891,-0.041225,0.054624
27242,3.1983,1.2727,0.1,0.0005203,5199.4,0.00052711,5436.2,-0.00012832,511.59,-0.00019642,-0.049367,0.057508
27243,3.1069,1.5455,0.1,0.00051572,5153.6,0.00052355,5440.4,-0.00011643,631.89,-0.00020053,-0.023935,0.055173
27244,3.1983,1.4545,0.1,0.00051577,5154.2,0.00052316,5418.6,-0.00012114,577.61,-0.00019802,-0.030566,0.058109
27245,3.1069,1.7273,0.1,0.00051183,5114.7,0.00052007,5425.5,-0.00010993,691.9,-0.00020201,-0.010451,0.055647
27246,3.1983,1.6364,0.1,0.00051172,5113.6,0.00051958,5402.8,-0.00011454,638.27,-0.00019949,-0.015716,0.058632
27247,3.1069,1.9091,0.1,0.00050846,5081,0.00051701,5412.5,-0.00010416,745.2,-0.00020334,-7.8679e-05,0.056049
27248,3.1983,1.8182,0.1,0.00050815,5078,0.00051638,5388.9,-0.00010862,692.84,-0.00020083,-0.0041762,0.059079
27249,3.1069,2.0909,0.1,0.00050561,5052.6,0.0005144,5401.5,-9.92e-05,791.2,-0.0002045,0.0077898,0.056383
27250,3.1983,2,0.1,0.00050509,5047.4,0.0005136,5376.9,-0.00010344,740.7,-0.00020202,0.0047321,0.059456
27251,3.1069,2.2727,0.1,0.00050329,5029.5,0.00051224,5392.6,-9.508e-05,829.42,-0.00020547,0.013612,0.056652
27252,3.1983,2.1818,0.1,0.00050255,5022,0.00051126,5366.9,-9.9045e-05,781.31,-0.00020303,0.01147,0.059765
27253,3.1069,2.4545,0.1,0.0005015,5011.6,0.00051056,5385.7,-9.1843e-05,859.5,-0.00020623,0.017759,0.056859
27254,3.1983,2.3636,0.1,0.00050052,5001.7,0.00050937,5358.9,-9.5483e-05,814.27,-0.00020385,0.016416,0.060009
27255,3.1069,2.6364,0.1,0.00050023,4998.8,0.00050936,5380.8,-8.9513e-05,881.17,-0.00020679,0.020517,0.057005
27256,3.1983,2.5455,0.1,0.000499,4986.6,0.00050795,5352.9,-9.2787e-05,839.25,-0.00020448,0.019865,0.06019
27257,3.1069,2.8182,0.1,0.00049947,4991.2,0.00050863,5377.9,-8.8109e-05,894.24,-0.00020712,0.02209,0.057092
27258,3.1983,2.7273,0.1,0.00049799,4976.5,0.000507,5349,-9.0977e-05,856.03,-0.0002049,0.022041,0.06031
27259,3.1069,3,0.1,0.00049921,4988.7,0.00050839,5376.9,-8.7639e-05,898.6,-0.00020723,0.0226,0.057121
27260,3.1983,2.9091,0.1,0.00049749,4971.4,0.00050652,5347,-9.0069e-05,864.45,-0.00020512,0.023093,0.06037
27261,3.1069,3.1818,0.1,0.00049947,4991.2,0.00050863,5377.9,-8.8109e-05,894.24,-0.00020712,0.02209,0.057092
27262,3.1983,3.0909,0.1,0.00049749,4971.4,0.00050652,5347,-9.0069e-05,864.45,-0.00020512,0.023093,0.06037
27263,3.1069,3.3636,0.1,0.00050023,4998.8,0.00050936,5380.8,-8.9513e-05,881.17,-0.00020679,0.020517,0.057005
27264,3.1983,3.2727,0.1,0.00049799,4976.5,0.000507,5349,-9.0977e-05,856.03,-0.0002049,0.022042,0.06031
27265,3.1069,3.5455,0.1,0.0005015,5011.6,0.00051056,5385.7,-9.1843e-05,859.5,-0.00020623,0.017759,0.056859
27266,3.1983,3.4545,0.1,0.000499,4986.6,0.00050795,5352.9,-9.2787e-05,839.25,-0.00020448,0.019865,0.06019
27267,3.1069,3.7273,0.1,0.00050329,5029.5,0.00051224,5392.6,-9.508e-05,829.42,-0.00020547,0.013613,0.056652
27268,3.1983,3.6364,0.1,0.00050052,5001.7,0.00050937,5358.9,-9.5483e-05,814.27,-0.00020385,0.016416,0.060009
27269,3.1069,3.9091,0.1,0.00050561,5052.6,0.0005144,5401.5,-9.92e-05,791.2,-0.0002045,0.0077901,0.056383
27270,3.1983,3.8182,0.1,0.00050255,5022,0.00051126,5366.9,-9.9045e-05,781.31,-0.00020303,0.01147,0.059765
27271,3.1069,4.0909,0.1,0.00050846,5081,0.00051701,5412.5,-0.00010416,745.2,-0.00020334,-7.8257e-05,0.056049
27272,3.1983,4,0.1,0.00050509,5047.4,0.0005136,5376.9,-0.00010344,740.7,-0.00020202,0.0047323,0.059456
27273,3.1069,4.2727,0.1,0.00051183,5114.7,0.00052007,5425.5,-0.00010993,691.9,-0.00020201,-0.01045,0.055647
27274,3.1983,4.1818,0.1,0.00050815,5078,0.00051638,5388.9,-0.00010862,692.84,-0.00020083,-0.0041758,0.059079
27275,3.1069,4.4545,0.1,0.00051572,5153.6,0.00052355,5440.4,-0.00011643,631.89,-0.00020053,-0.023935,0.055173
27276,3.1983,4.3636,0.1,0.00051172,5113.6,0.00051958,5402.8,-0.00011454,638.27,-0.00019949,-0.015716,0.058632
27277,3.1069,4.6364,0.1,0.00052012,5197.6,0.00052743,5457.3,-0.00012359,565.88,-0.00019891,-0.041224,0.054624
27278,3.1983,4.5455,0.1,0.00051577,5154.2,0.00052316,5418.6,-0.00012114,577.61,-0.00019802,-0.030565,0.058109
27279,3.1069,4.8182,0.1,0.00052499,5246.3,0.00053165,5476,-0.00013133,494.68,-0.00019718,-0.06383,0.053995
27280,3.1983,4.7273,0.1,0.0005203,5199.4,0.00052711,5436.2,-0.00012832,511.59,-0.00019642,-0.049367,0.057508
27281,3.1069,5,0.1,0.00053029,5299.3,0.00053618,5496.4,-0.00013955,419.21,-0.00019536,-0.092293,0.053281
27282,3.1983,4.9091,0.1,0.00052526,5248.9,0.00053136,5455.5,-0.00013602,441.05,-0.00019473,-0.074437,0.056823
27283,3.1069,5.1818,0.1,0.00053599,5356.2,0.00054096,5518.2,-0.00014815,340.45,-0.00019348,-0.13651,0.052476
27284,3.1983,5.0909,0.1,0.0005306,5302.4,0.00053589,5476.2,-0.00014412,366.88,-0.00019297,-0.10469,0.056051
27285,3.1069,5.3636,0.1,0.00054201,5416.3,0.00054595,5541.3,-0.00015702,259.41,-0.00019157,-0.18136,0.051576
27286,3.1983,5.2727,0.1,0.00053629,5359.2,0.00054063,5498.2,-0.00015254,290.02,-0.00019116,-0.16086,0.055184
27287,3.1069,5.5455,0.1,0.00054831,5479.3,0.0005511,5565.4,-0.00016607,176.91,-0.00018967,-0.38963,0.050574
27288,3.1983,5.4545,0.1,0.00054225,5418.7,0.00054553,5521.2,-0.00016116,211.43,-0.00018933,-0.19537,0.054219
27289,3.1069,5.7273,0.1,0.00055503,5546.5,0.00055654,5591.8,-0.00017537,92.559,-0.00018778,-0.68707,0.049464
27290,3.1983,5.6364,0.1,0.00054845,5480.8,0.00055056,5545.1,-0.00016992,131.68,-0.00018752,-0.58118,0.053149
27291,3.1983,5.8182,0.1,0.00055519,5548,0.000556,5572.3,-0.00017899,49.871,-0.00018577,-1.0873,0.051968
27292,3.1069,5.9091,0.1,0.00055991,5595.2,0.00056032,5607.3,-0.00018268,24.7,-0.00018603,-0.46873,0.04824
27293,3.2897,0.27273,0.1,0.00054861,5482.3,0.00055005,5525.7,-0.0001736,88.488,-0.00018546,-0.60339,0.055773
27294,3.381,0.18182,0.1,0.00054849,5481.1,0.00054929,5505,-0.00017686,48.96,-0.0001835,-0.90924,0.058447
27295,3.2897,0.090909,0.1,0.00055329,5529,0.0005537,5541.2,-0.00018049,24.845,-0.00018385,-0.42467,0.054521
27296,3.2897,0.45455,0.1,0.00054239,5420.1,0.00054501,5501.1,-0.00016503,166.05,-0.00018718,-0.35297,0.056912
27297,3.381,0.36364,0.1,0.00054229,5419.2,0.00054429,5479.9,-0.00016852,124.2,-0.00018512,-0.52667,0.059654
27298,3.2897,0.63636,0.1,0.00053652,5361.5,0.00054022,5478.3,-0.00015669,241.92,-0.00018891,-0.16397,0.057943
27299,3.381,0.54545,0.1,0.00053652,5361.5,0.00053961,5457.5,-0.00016044,197.61,-0.00018676,-0.1759,0.060752
27300,3.2897,0.81818,0.1,0.0005309,5305.3,0.00053557,5456.3,-0.00014852,316.34,-0.00019064,-0.12408,0.058872
27301,3.381,0.72727,0.1,0.00053097,5306,0.00053504,5435.7,-0.00015249,269.85,-0.00018843,-0.14609,0.061745
27302,3.2897,1,0.1,0.00052556,5252,0.00053109,5435.4,-0.0001406,388.63,-0.00019234,-0.084067,0.059704
27303,3.381,0.90909,0.1,0.00052565,5252.9,0.00053061,5414.8,-0.00014474,340.42,-0.00019006,-0.095232,0.062638
27304,3.2897,1.1818,0.1,0.00052056,5202,0.00052683,5415.8,-0.00013302,457.89,-0.00019397,-0.058219,0.060446
27305,3.381,1.0909,0.1,0.00052064,5202.8,0.00052638,5394.9,-0.00013728,408.49,-0.00019165,-0.067874,0.063437
27306,3.2897,1.3636,0.1,0.00051595,5155.9,0.00052285,5397.6,-0.00012588,523.27,-0.00019553,-0.037488,0.061101
27307,3.381,1.2727,0.1,0.00051596,5156.1,0.00052238,5376.4,-0.00013018,473.25,-0.00019318,-0.044998,0.064147
27308,3.2897,1.5455,0.1,0.00051176,5114.1,0.00051919,5381,-0.00011926,583.96,-0.00019698,-0.021439,0.061673
27309,3.381,1.4545,0.1,0.00051168,5113.3,0.00051866,5359.2,-0.00012355,533.9,-0.00019461,-0.027677,0.064771
27310,3.2897,1.7273,0.1,0.00050803,5076.8,0.00051588,5366.2,-0.00011324,639.22,-0.00019832,-0.0087315,0.062169
27311,3.381,1.6364,0.1,0.00050782,5074.7,0.00051527,5343.7,-0.00011746,589.69,-0.00019594,-0.013822,0.065315
27312,3.2897,1.9091,0.1,0.00050478,5044.3,0.00051296,5353.2,-0.00010789,688.38,-0.00019951,0.0012148,0.06259
27313,3.381,1.8182,0.1,0.0005044,5040.6,0.00051223,5330,-0.00011197,639.95,-0.00019714,-0.0028914,0.065783
27314,3.2897,2.0909,0.1,0.00050202,5016.8,0.00051045,5342.1,-0.00010327,730.88,-0.00020055,0.0089034,0.062941
27315,3.381,2,0.1,0.00050146,5011.1,0.00050958,5318,-0.00010716,684.09,-0.00019821,0.0056878,0.066177
27316,3.2897,2.2727,0.1,0.00049977,4994.2,0.00050837,5333.1,-9.9435e-05,766.26,-0.00020142,0.014703,0.063224
27317,3.381,2.1818,0.1,0.000499,4986.5,0.00050734,5308,-0.00010308,721.61,-0.00019911,0.01229,0.066501
27318,3.2897,2.4545,0.1,0.00049801,4976.7,0.00050674,5326,-9.6411e-05,794.14,-0.0002021,0.018909,0.063441
27319,3.381,2.3636,0.1,0.00049702,4966.8,0.00050553,5300,-9.9759e-05,752.1,-0.00019986,0.017219,0.066756
27320,3.2897,2.6364,0.1,0.00049676,4964.1,0.00050557,5320.9,-9.4233e-05,814.24,-0.0002026,0.02175,0.063595
27321,3.381,2.5455,0.1,0.00049554,4952,0.00050416,5293.9,-9.7243e-05,775.24,-0.00020042,0.020709,0.066947
27322,3.2897,2.8182,0.1,0.00049601,4956.6,0.00050487,5317.9,-9.2918e-05,826.38,-0.0002029,0.023389,0.063687
27323,3.381,2.7273,0.1,0.00049456,4942.2,0.00050324,5289.9,-9.5553e-05,790.8,-0.0002008,0.022938,0.067072
27324,3.2897,3,0.1,0.00049576,4954.1,0.00050463,5316.9,-9.2478e-05,830.44,-0.000203,0.023925,0.063718
27325,3.381,2.9091,0.1,0.00049406,4937.2,0.00050278,5287.9,-9.4704e-05,798.61,-0.00020099,0.024023,0.067135
27326,3.2897,3.1818,0.1,0.00049601,4956.6,0.00050487,5317.9,-9.2918e-05,826.38,-0.0002029,0.023389,0.063687
27327,3.381,3.0909,0.1,0.00049406,4937.2,0.00050278,5287.9,-9.4704e-05,798.61,-0.00020099,0.024023,0.067135
27328,3.2897,3.3636,0.1,0.00049676,4964.1,0.00050557,5320.9,-9.4233e-05,814.24,-0.0002026,0.02175,0.063595
27329,3.381,3.2727,0.1,0.00049456,4942.2,0.00050324,5289.9,-9.5553e-05,790.8,-0.0002008,0.022938,0.067072
27330,3.2897,3.5455,0.1,0.00049801,4976.7,0.00050674,5326,-9.6411e-05,794.14,-0.0002021,0.018909,0.063441
27331,3.381,3.4545,0.1,0.00049554,4952,0.00050416,5293.9,-9.7243e-05,775.24,-0.00020042,0.020709,0.066947
27332,3.2897,3.7273,0.1,0.00049977,4994.2,0.00050837,5333.1,-9.9435e-05,766.26,-0.00020142,0.014703,0.063224
27333,3.381,3.6364,0.1,0.00049702,4966.8,0.00050553,5300,-9.9759e-05,752.1,-0.00019986,0.017219,0.066756
27334,3.2897,3.9091,0.1,0.00050202,5016.8,0.00051045,5342.1,-0.00010327,730.88,-0.00020055,0.0089036,0.062941
27335,3.381,3.8182,0.1,0.000499,4986.5,0.00050734,5308,-0.00010308,721.61,-0.00019911,0.01229,0.066501
27336,3.2897,4.0909,0.1,0.00050478,5044.3,0.00051296,5353.2,-0.00010789,688.38,-0.00019951,0.0012151,0.06259
27337,3.381,4,0.1,0.00050146,5011.1,0.00050958,5318,-0.00010716,684.09,-0.00019821,0.005688,0.066177
27338,3.2897,4.2727,0.1,0.00050803,5076.8,0.00051588,5366.2,-0.00011324,639.22,-0.00019832,-0.0087311,0.062169
27339,3.381,4.1818,0.1,0.0005044,5040.6,0.00051223,5330,-0.00011197,639.95,-0.00019714,-0.002891,0.065783
27340,3.2897,4.4545,0.1,0.00051176,5114.1,0.00051919,5381,-0.00011926,583.96,-0.00019698,-0.021439,0.061673
27341,3.381,4.3636,0.1,0.00050782,5074.7,0.00051527,5343.7,-0.00011746,589.69,-0.00019594,-0.013821,0.065315
27342,3.2897,4.6364,0.1,0.00051595,5155.9,0.00052285,5397.6,-0.00012588,523.27,-0.00019553,-0.037488,0.061101
27343,3.381,4.5455,0.1,0.00051168,5113.3,0.00051866,5359.2,-0.00012355,533.9,-0.00019461,-0.027677,0.064771
27344,3.2897,4.8182,0.1,0.00052056,5202,0.00052683,5415.8,-0.00013302,457.89,-0.00019397,-0.058218,0.060446
27345,3.381,4.7273,0.1,0.00051596,5156.1,0.00052238,5376.4,-0.00013018,473.25,-0.00019318,-0.044998,0.064147
27346,3.2897,5,0.1,0.00052556,5252,0.00053109,5435.4,-0.0001406,388.63,-0.00019234,-0.084066,0.059704
27347,3.381,4.9091,0.1,0.00052064,5202.8,0.00052638,5394.9,-0.00013728,408.49,-0.00019165,-0.067874,0.063437
27348,3.2897,5.1818,0.1,0.0005309,5305.3,0.00053557,5456.3,-0.00014852,316.34,-0.00019064,-0.12408,0.058872
27349,3.381,5.0909,0.1,0.00052565,5252.9,0.00053061,5414.8,-0.00014474,340.42,-0.00019006,-0.095231,0.062638
27350,3.2897,5.3636,0.1,0.00053652,5361.5,0.00054022,5478.3,-0.00015669,241.92,-0.00018891,-0.16397,0.057943
27351,3.381,5.2727,0.1,0.00053097,5306,0.00053504,5435.7,-0.00015249,269.85,-0.00018843,-0.14609,0.061745
27352,3.2897,5.5455,0.1,0.00054239,5420.1,0.00054501,5501.1,-0.00016503,166.05,-0.00018718,-0.35297,0.056912
27353,3.381,5.4545,0.1,0.00053652,5361.5,0.00053961,5457.5,-0.00016044,197.61,-0.00018676,-0.1759,0.060752
27354,3.2897,5.7273,0.1,0.00054861,5482.3,0.00055005,5525.7,-0.0001736,88.488,-0.00018546,-0.60339,0.055773
27355,3.381,5.6364,0.1,0.00054229,5419.2,0.00054429,5479.9,-0.00016852,124.2,-0.00018512,-0.52667,0.059654
27356,3.381,5.8182,0.1,0.00054849,5481.1,0.00054929,5505,-0.00017686,48.96,-0.0001835,-0.90924,0.058447
27357,3.2897,5.9091,0.1,0.00055329,5529,0.0005537,5541.2,-0.00018049,24.845,-0.00018385,-0.42467,0.054521
27358,3.4724,0.27273,0.1,0.00054217,5418,0.00054354,5459.3,-0.00017183,84.265,-0.00018312,-0.53196,0.062448
27359,3.5638,0.18182,0.1,0.00054182,5414.4,0.0005426,5437.7,-0.00017477,47.656,-0.00018122,-0.76704,0.065292
27360,3.4724,0.090909,0.1,0.00054664,5462.6,0.00054705,5474.7,-0.00017831,24.655,-0.00018164,-0.38682,0.061172
27361,3.4724,0.45455,0.1,0.00053642,5360.5,0.00053889,5436.4,-0.00016394,155.64,-0.0001847,-0.32013,0.063612
27362,3.5638,0.36364,0.1,0.0005361,5357.3,0.00053799,5414.6,-0.00016709,116.89,-0.00018271,-0.4779,0.066523
27363,3.4724,0.63636,0.1,0.00053096,5306,0.00053443,5415,-0.00015625,225.44,-0.00018628,-0.14839,0.064669
27364,3.5638,0.54545,0.1,0.00053075,5303.8,0.00053364,5393.6,-0.00015964,184.49,-0.00018422,-0.15859,0.067644
27365,3.4724,0.81818,0.1,0.00052572,5253.5,0.0005301,5394.2,-0.00014873,293.83,-0.00018785,-0.11284,0.065623
27366,3.5638,0.72727,0.1,0.00052558,5252.1,0.00052939,5373,-0.00015232,250.92,-0.00018573,-0.13278,0.068661
27367,3.4724,1,0.1,0.00052073,5203.7,0.00052592,5374.4,-0.00014143,360.2,-0.00018938,-0.076575,0.066481
27368,3.5638,0.90909,0.1,0.00052062,5202.6,0.00052527,5353.3,-0.00014518,315.75,-0.00018721,-0.086671,0.069578
27369,3.4724,1.1818,0.1,0.00051604,5156.8,0.00052193,5355.6,-0.00013445,423.79,-0.00019086,-0.05309,0.067247
27370,3.5638,1.0909,0.1,0.00051593,5155.7,0.00052132,5334.4,-0.0001383,378.25,-0.00018865,-0.061907,0.070401
27371,3.4724,1.3636,0.1,0.00051169,5113.4,0.0005182,5338.1,-0.00012786,483.83,-0.00019226,-0.0341,0.067925
27372,3.5638,1.2727,0.1,0.00051154,5111.9,0.00051758,5316.6,-0.00013177,437.7,-0.00019003,-0.041036,0.071133
27373,3.4724,1.5455,0.1,0.00050773,5073.8,0.00051475,5322,-0.00012175,539.59,-0.00019357,-0.019251,0.068519
27374,3.5638,1.4545,0.1,0.0005075,5071.5,0.00051409,5300.2,-0.00012565,493.4,-0.00019132,-0.025107,0.071779
27375,3.4724,1.7273,0.1,0.00050418,5038.3,0.00051162,5307.5,-0.00011619,590.42,-0.00019477,-0.0073473,0.069034
27376,3.5638,1.6364,0.1,0.00050385,5035,0.0005109,5285.2,-0.00012003,544.68,-0.00019252,-0.012232,0.072343
27377,3.4724,1.9091,0.1,0.00050108,5007.3,0.00050885,5294.8,-0.00011124,635.69,-0.00019584,0.0021015,0.069473
27378,3.5638,1.8182,0.1,0.00050061,5002.6,0.00050803,5271.8,-0.00011496,590.92,-0.0001936,-0.0019491,0.072828
27379,3.4724,2.0909,0.1,0.00049843,4980.9,0.00050647,5283.9,-0.00010695,674.88,-0.00019677,0.009516,0.069839
27380,3.5638,2,0.1,0.0004978,4974.5,0.00050552,5260.2,-0.0001105,631.57,-0.00019456,0.0062308,0.073237
27381,3.4724,2.2727,0.1,0.00049625,4959.1,0.00050449,5274.9,-0.00010339,707.54,-0.00019755,0.015194,0.070135
27382,3.5638,2.1818,0.1,0.00049544,4951,0.0005034,5250.3,-0.00010672,666.17,-0.00019538,0.012613,0.073574
27383,3.4724,2.4545,0.1,0.00049455,4942.1,0.00050293,5267.8,-0.00010058,733.31,-0.00019817,0.019369,0.070362
27384,3.5638,2.3636,0.1,0.00049354,4932,0.00050167,5242.4,-0.00010364,694.31,-0.00019604,0.017442,0.073841
27385,3.4724,2.6364,0.1,0.00049334,4930,0.00050181,5262.8,-9.8549e-05,751.91,-0.00019862,0.022224,0.070524
27386,3.5638,2.5455,0.1,0.00049211,4917.7,0.00050036,5236.4,-0.0001013,715.69,-0.00019655,0.020902,0.074039
27387,3.4724,2.8182,0.1,0.00049261,4922.7,0.00050113,5259.7,-9.7324e-05,763.15,-0.00019889,0.023885,0.07062
27388,3.5638,2.7273,0.1,0.00049116,4908.2,0.00049949,5232.4,-9.9731e-05,730.07,-0.00019689,0.023132,0.074171
27389,3.4724,3,0.1,0.00049237,4920.3,0.00050091,5258.7,-9.6914e-05,766.91,-0.00019898,0.02443,0.070652
27390,3.5638,2.9091,0.1,0.00049068,4903.4,0.00049905,5230.3,-9.8941e-05,737.3,-0.00019707,0.024225,0.074236
27391,3.4724,3.1818,0.1,0.00049261,4922.7,0.00050113,5259.7,-9.7324e-05,763.15,-0.00019889,0.023885,0.07062
27392,3.5638,3.0909,0.1,0.00049068,4903.4,0.00049905,5230.3,-9.8941e-05,737.3,-0.00019707,0.024225,0.074236
27393,3.4724,3.3636,0.1,0.00049334,4930,0.00050181,5262.8,-9.8549e-05,751.91,-0.00019862,0.022224,0.070524
27394,3.5638,3.2727,0.1,0.00049116,4908.2,0.00049949,5232.4,-9.9731e-05,730.07,-0.00019689,0.023132,0.074171
27395,3.4724,3.5455,0.1,0.00049455,4942.1,0.00050293,5267.8,-0.00010058,733.31,-0.00019817,0.01937,0.070362
27396,3.5638,3.4545,0.1,0.00049211,4917.7,0.00050036,5236.4,-0.0001013,715.69,-0.00019655,0.020902,0.074039
27397,3.4724,3.7273,0.1,0.00049625,4959.1,0.00050449,5274.9,-0.00010339,707.54,-0.00019755,0.015194,0.070135
27398,3.5638,3.6364,0.1,0.00049354,4932,0.00050167,5242.4,-0.00010364,694.31,-0.00019604,0.017442,0.073841
27399,3.4724,3.9091,0.1,0.00049843,4980.9,0.00050647,5283.9,-0.00010695,674.88,-0.00019677,0.0095164,0.069839
27400,3.5638,3.8182,0.1,0.00049544,4951,0.0005034,5250.3,-0.00010672,666.17,-0.00019538,0.012614,0.073574
27401,3.4724,4.0909,0.1,0.00050108,5007.3,0.00050885,5294.8,-0.00011124,635.69,-0.00019584,0.0021019,0.069473
27402,3.5638,4,0.1,0.0004978,4974.5,0.00050552,5260.2,-0.0001105,631.57,-0.00019456,0.0062312,0.073237
27403,3.4724,4.2727,0.1,0.00050418,5038.3,0.00051162,5307.5,-0.00011619,590.42,-0.00019477,-0.0073468,0.069034
27404,3.5638,4.1818,0.1,0.00050061,5002.6,0.00050803,5271.8,-0.00011496,590.92,-0.0001936,-0.0019486,0.072828
27405,3.4724,4.4545,0.1,0.00050773,5073.8,0.00051475,5322,-0.00012175,539.59,-0.00019357,-0.01925,0.068519
27406,3.5638,4.3636,0.1,0.00050385,5035,0.0005109,5285.2,-0.00012003,544.68,-0.00019252,-0.012232,0.072343
27407,3.4724,4.6364,0.1,0.00051169,5113.4,0.0005182,5338.1,-0.00012786,483.83,-0.00019226,-0.0341,0.067925
27408,3.5638,4.5455,0.1,0.0005075,5071.5,0.00051409,5300.2,-0.00012565,493.4,-0.00019132,-0.025107,0.071779
27409,3.4724,4.8182,0.1,0.00051604,5156.8,0.00052193,5355.6,-0.00013445,423.79,-0.00019086,-0.05309,0.067247
27410,3.5638,4.7273,0.1,0.00051154,5111.9,0.00051758,5316.6,-0.00013177,437.7,-0.00019003,-0.041035,0.071133
27411,3.4724,5,0.1,0.00052073,5203.7,0.00052592,5374.4,-0.00014143,360.2,-0.00018938,-0.076574,0.066481
27412,3.5638,4.9091,0.1,0.00051593,5155.7,0.00052132,5334.4,-0.0001383,378.25,-0.00018865,-0.061906,0.070401
27413,3.4724,5.1818,0.1,0.00052572,5253.5,0.0005301,5394.2,-0.00014873,293.83,-0.00018785,-0.11283,0.065623
27414,3.5638,5.0909,0.1,0.00052062,5202.6,0.00052527,5353.3,-0.00014518,315.75,-0.00018721,-0.08667,0.069578
27415,3.4724,5.3636,0.1,0.00053096,5306,0.00053443,5415,-0.00015625,225.44,-0.00018628,-0.14839,0.064669
27416,3.5638,5.2727,0.1,0.00052558,5252.1,0.00052939,5373,-0.00015232,250.92,-0.00018573,-0.13278,0.068661
27417,3.4724,5.5455,0.1,0.00053642,5360.5,0.00053889,5436.4,-0.00016394,155.64,-0.0001847,-0.32013,0.063612
27418,3.5638,5.4545,0.1,0.00053075,5303.8,0.00053364,5393.6,-0.00015964,184.49,-0.00018422,-0.15859,0.067644
27419,3.4724,5.7273,0.1,0.00054217,5418,0.00054354,5459.3,-0.00017183,84.265,-0.00018312,-0.53195,0.062448
27420,3.5638,5.6364,0.1,0.0005361,5357.3,0.00053799,5414.6,-0.00016709,116.89,-0.00018271,-0.4779,0.066523
27421,3.5638,5.8182,0.1,0.00054182,5414.4,0.0005426,5437.7,-0.00017477,47.656,-0.00018122,-0.76703,0.065292
27422,3.4724,5.9091,0.1,0.00054664,5462.6,0.00054705,5474.7,-0.00017831,24.655,-0.00018164,-0.38682,0.061172
27423,3.6552,0.27273,0.1,0.00053575,5353.8,0.00053705,5393.1,-0.00017008,79.938,-0.00018078,-0.47061,0.069485
27424,3.7466,0.18182,0.1,0.00053518,5348.1,0.00053594,5370.7,-0.00017273,46.031,-0.00017894,-0.65209,0.072498
27425,3.6552,0.090909,0.1,0.00054,5396.3,0.0005404,5408.2,-0.00017616,24.189,-0.00017943,-0.3538,0.068187
27426,3.6552,0.45455,0.1,0.00053043,5300.6,0.00053275,5371.8,-0.00016281,145.63,-0.00018223,-0.29064,0.070671
27427,3.7466,0.36364,0.1,0.00052992,5295.6,0.0005317,5349.4,-0.00016565,109.74,-0.00018032,-0.4341,0.073749
27428,3.6552,0.63636,0.1,0.00052536,5250,0.00052861,5351.7,-0.00015572,209.88,-0.00018367,-0.13444,0.07175
27429,3.7466,0.54545,0.1,0.00052495,5245.9,0.00052766,5329.7,-0.00015878,172,-0.0001817,-0.14318,0.074891
27430,3.6552,0.81818,0.1,0.00052048,5201.2,0.00052458,5332.1,-0.00014878,272.75,-0.0001851,-0.10269,0.072728
27431,3.7466,0.72727,0.1,0.00052015,5197.9,0.00052372,5310.4,-0.00015203,233.11,-0.00018308,-0.12079,0.07593
27432,3.6552,1,0.1,0.00051582,5154.6,0.00052068,5313.4,-0.00014206,333.72,-0.00018649,-0.069802,0.073608
27433,3.7466,0.90909,0.1,0.00051553,5151.7,0.00051988,5291.8,-0.00014546,292.69,-0.00018442,-0.078945,0.076868
27434,3.6552,1.1818,0.1,0.00051143,5110.8,0.00051697,5295.5,-0.00013563,392.1,-0.00018783,-0.048455,0.074395
27435,3.7466,1.0909,0.1,0.00051115,5108,0.0005162,5274,-0.00013913,350.09,-0.00018573,-0.05651,0.077712
27436,3.6552,1.3636,0.1,0.00050735,5070,0.00051348,5278.8,-0.00012957,447.23,-0.00018909,-0.031071,0.075094
27437,3.7466,1.2727,0.1,0.00050705,5067,0.00051271,5257.1,-0.00013311,404.68,-0.00018697,-0.037469,0.078464
27438,3.6552,1.5455,0.1,0.00050362,5032.7,0.00051024,5263.4,-0.00012393,498.46,-0.00019027,-0.017365,0.075708
27439,3.7466,1.4545,0.1,0.00050326,5029.1,0.00050946,5241.5,-0.00012747,455.83,-0.00018814,-0.022841,0.079129
27440,3.6552,1.7273,0.1,0.00050027,4999.2,0.00050731,5249.5,-0.0001188,545.18,-0.00019136,-0.0062654,0.07624
27441,3.7466,1.6364,0.1,0.00049981,4994.7,0.00050647,5227.1,-0.00012229,502.94,-0.00018922,-0.010913,0.07971
27442,3.6552,1.9091,0.1,0.00049732,4969.8,0.0005047,5237.2,-0.00011422,586.82,-0.00019232,0.0026469,0.076695
27443,3.7466,1.8182,0.1,0.00049675,4964.1,0.00050378,5214.3,-0.00011761,545.45,-0.0001902,-0.0012883,0.080211
27444,3.6552,2.0909,0.1,0.0004948,4944.6,0.00050245,5226.6,-0.00011026,622.9,-0.00019316,0.0097259,0.077075
27445,3.7466,2,0.1,0.00049409,4937.5,0.00050142,5203,-0.00011349,582.85,-0.00019107,0.0064522,0.080635
27446,3.6552,2.2727,0.1,0.00049272,4923.8,0.00050057,5217.8,-0.00010696,653,-0.00019387,0.015212,0.077382
27447,3.7466,2.1818,0.1,0.00049185,4915.1,0.00049941,5193.5,-0.00010999,614.7,-0.0001918,0.01256,0.080984
27448,3.6552,2.4545,0.1,0.0004911,4907.6,0.0004991,5210.9,-0.00010435,676.77,-0.00019442,0.019292,0.077619
27449,3.7466,2.3636,0.1,0.00049004,4897,0.00049778,5185.8,-0.00010714,640.64,-0.0001924,0.017231,0.081261
27450,3.6552,2.6364,0.1,0.00048993,4895.9,0.00049803,5205.9,-0.00010247,693.94,-0.00019483,0.022107,0.077787
27451,3.7466,2.5455,0.1,0.00048867,4883.4,0.00049655,5180,-0.00010498,660.35,-0.00019286,0.020608,0.081467
27452,3.6552,2.8182,0.1,0.00048923,4888.9,0.00049739,5202.9,-0.00010133,704.32,-0.00019507,0.023757,0.077887
27453,3.7466,2.7273,0.1,0.00048776,4874.2,0.00049572,5176,-0.00010352,673.62,-0.00019317,0.022802,0.081603
27454,3.6552,3,0.1,0.000489,4886.6,0.00049717,5201.9,-0.00010095,707.79,-0.00019515,0.0243,0.077921
27455,3.7466,2.9091,0.1,0.0004873,4869.7,0.0004953,5174.1,-0.00010279,680.29,-0.00019332,0.023882,0.081671
27456,3.6552,3.1818,0.1,0.00048923,4888.9,0.00049739,5202.9,-0.00010133,704.32,-0.00019507,0.023757,0.077887
27457,3.7466,3.0909,0.1,0.0004873,4869.7,0.0004953,5174.1,-0.00010279,680.29,-0.00019332,0.023882,0.081671
27458,3.6552,3.3636,0.1,0.00048993,4895.9,0.00049803,5205.9,-0.00010247,693.94,-0.00019483,0.022107,0.077787
27459,3.7466,3.2727,0.1,0.00048776,4874.2,0.00049572,5176,-0.00010352,673.62,-0.00019317,0.022802,0.081603
27460,3.6552,3.5455,0.1,0.0004911,4907.6,0.0004991,5210.9,-0.00010435,676.77,-0.00019442,0.019293,0.077619
27461,3.7466,3.4545,0.1,0.00048867,4883.4,0.00049655,5180,-0.00010498,660.35,-0.00019286,0.020609,0.081467
27462,3.6552,3.7273,0.1,0.00049272,4923.8,0.00050057,5217.8,-0.00010696,653,-0.00019387,0.015213,0.077382
27463,3.7466,3.6364,0.1,0.00049004,4897,0.00049778,5185.8,-0.00010714,640.64,-0.0001924,0.017231,0.081261
27464,3.6552,3.9091,0.1,0.0004948,4944.6,0.00050245,5226.6,-0.00011026,622.9,-0.00019316,0.0097263,0.077075
27465,3.7466,3.8182,0.1,0.00049185,4915.1,0.00049941,5193.5,-0.00010999,614.7,-0.0001918,0.012561,0.080984
27466,3.6552,4.0909,0.1,0.00049732,4969.8,0.0005047,5237.2,-0.00011422,586.82,-0.00019232,0.0026473,0.076695
27467,3.7466,4,0.1,0.00049409,4937.5,0.00050142,5203,-0.00011349,582.85,-0.00019107,0.0064526,0.080635
27468,3.6552,4.2727,0.1,0.00050027,4999.2,0.00050731,5249.5,-0.0001188,545.18,-0.00019136,-0.0062649,0.07624
27469,3.7466,4.1818,0.1,0.00049675,4964.1,0.00050378,5214.3,-0.00011761,545.45,-0.0001902,-0.0012879,0.080211
27470,3.6552,4.4545,0.1,0.00050362,5032.7,0.00051024,5263.4,-0.00012393,498.46,-0.00019027,-0.017365,0.075708
27471,3.7466,4.3636,0.1,0.00049981,4994.7,0.00050647,5227.1,-0.00012229,502.94,-0.00018922,-0.010912,0.07971
27472,3.6552,4.6364,0.1,0.00050735,5070,0.00051348,5278.8,-0.00012957,447.23,-0.00018909,-0.031071,0.075094
27473,3.7466,4.5455,0.1,0.00050326,5029.1,0.00050946,5241.5,-0.00012747,455.83,-0.00018814,-0.022841,0.079129
27474,3.6552,4.8182,0.1,0.00051143,5110.8,0.00051697,5295.5,-0.00013563,392.1,-0.00018783,-0.048454,0.074395
27475,3.7466,4.7273,0.1,0.00050705,5067,0.00051271,5257.1,-0.00013311,404.68,-0.00018697,-0.037469,0.078464
27476,3.6552,5,0.1,0.00051582,5154.6,0.00052068,5313.4,-0.00014206,333.72,-0.00018649,-0.069801,0.073608
27477,3.7466,4.9091,0.1,0.00051115,5108,0.0005162,5274,-0.00013913,350.09,-0.00018573,-0.056509,0.077712
27478,3.6552,5.1818,0.1,0.00052048,5201.2,0.00052458,5332.1,-0.00014878,272.75,-0.0001851,-0.10269,0.072728
27479,3.7466,5.0909,0.1,0.00051553,5151.7,0.00051988,5291.8,-0.00014546,292.69,-0.00018442,-0.078944,0.076868
27480,3.6552,5.3636,0.1,0.00052536,5250,0.00052861,5351.7,-0.00015572,209.88,-0.00018367,-0.13444,0.07175
27481,3.7466,5.2727,0.1,0.00052015,5197.9,0.00052372,5310.4,-0.00015203,233.11,-0.00018308,-0.12079,0.07593
27482,3.6552,5.5455,0.1,0.00053043,5300.6,0.00053275,5371.8,-0.00016281,145.63,-0.00018223,-0.29064,0.070671
27483,3.7466,5.4545,0.1,0.00052495,5245.9,0.00052766,5329.7,-0.00015878,172,-0.0001817,-0.14318,0.074891
27484,3.6552,5.7273,0.1,0.00053575,5353.8,0.00053705,5393.1,-0.00017008,79.938,-0.00018078,-0.4706,0.069485
27485,3.7466,5.6364,0.1,0.00052992,5295.6,0.0005317,5349.4,-0.00016565,109.74,-0.00018032,-0.43409,0.073749
27486,3.7466,5.8182,0.1,0.00053518,5348.1,0.00053594,5370.7,-0.00017273,46.031,-0.00017894,-0.65209,0.072498
27487,3.6552,5.9091,0.1,0.00054,5396.3,0.0005404,5408.2,-0.00017616,24.189,-0.00017943,-0.3538,0.068187
27488,3.8379,0.27273,0.1,0.00052935,5289.9,0.00053059,5327.1,-0.00016834,75.548,-0.00017845,-0.41759,0.076879
27489,3.9293,0.18182,0.1,0.0005286,5282.4,0.00052933,5304,-0.00017072,44.149,-0.00017667,-0.55819,0.080061
27490,3.8379,0.090909,0.1,0.00053339,5330.2,0.00053378,5341.8,-0.00017404,23.498,-0.00017721,-0.32461,0.075563
27491,3.8379,0.45455,0.1,0.00052444,5240.8,0.00052662,5307.3,-0.00016164,136.02,-0.00017978,-0.26409,0.078085
27492,3.9293,0.36364,0.1,0.00052375,5233.9,0.00052542,5284.4,-0.00016421,102.77,-0.00017794,-0.3946,0.08133
27493,3.8379,0.63636,0.1,0.00051973,5193.7,0.00052278,5288.5,-0.00015511,195.16,-0.0001811,-0.12193,0.079184
27494,3.9293,0.54545,0.1,0.00051915,5187.9,0.00052168,5266,-0.00015787,160.11,-0.0001792,-0.12942,0.082491
27495,3.8379,0.81818,0.1,0.0005152,5148.4,0.00051903,5270.2,-0.00014872,252.97,-0.0001824,-0.093534,0.080181
27496,3.9293,0.72727,0.1,0.00051469,5143.3,0.00051802,5248,-0.00015165,216.33,-0.00018046,-0.10997,0.083547
27497,3.8379,1,0.1,0.00051086,5105.1,0.00051541,5252.5,-0.00014253,308.99,-0.00018366,-0.063684,0.081081
27498,3.9293,0.90909,0.1,0.0005104,5100.4,0.00051447,5230.5,-0.0001456,271.09,-0.00018169,-0.071977,0.084505
27499,3.8379,1.1818,0.1,0.00050676,5064.1,0.00051195,5235.7,-0.00013661,362.61,-0.00018487,-0.044273,0.081888
27500,3.9293,1.0909,0.1,0.00050632,5059.7,0.00051105,5213.8,-0.00013977,323.82,-0.00018287,-0.051641,0.085366
27501,3.8379,1.3636,0.1,0.00050295,5026,0.0005087,5219.8,-0.00013102,413.23,-0.00018602,-0.028369,0.082605
27502,3.9293,1.2727,0.1,0.00050249,5021.4,0.0005078,5197.9,-0.00013423,373.95,-0.000184,-0.034271,0.086136
27503,3.8379,1.5455,0.1,0.00049945,4991,0.00050568,5205.2,-0.00012583,460.28,-0.00018709,-0.01574,0.083236
27504,3.9293,1.4545,0.1,0.00049894,4986,0.00050477,5183.1,-0.00012904,420.93,-0.00018506,-0.020849,0.086818
27505,3.8379,1.7273,0.1,0.00049629,4959.5,0.00050294,5191.9,-0.0001211,503.21,-0.00018807,-0.0054251,0.083785
27506,3.9293,1.6364,0.1,0.00049572,4953.7,0.00050198,5169.5,-0.00012426,464.2,-0.00018604,-0.0098216,0.087415
27507,3.8379,1.9091,0.1,0.00049351,4931.7,0.00050049,5180.1,-0.00011688,541.49,-0.00018894,0.0029368,0.084254
27508,3.9293,1.8182,0.1,0.00049284,4925,0.00049946,5157.3,-0.00011995,503.26,-0.00018693,-0.0008474,0.087931
27509,3.8379,2.0909,0.1,0.00049113,4907.9,0.00049838,5170,-0.00011322,574.68,-0.0001897,0.009645,0.084646
27510,3.9293,2,0.1,0.00049033,4899.9,0.00049725,5146.5,-0.00011615,537.65,-0.00018771,0.006437,0.088367
27511,3.8379,2.2727,0.1,0.00048916,4888.2,0.00049661,5161.5,-0.00011017,602.39,-0.00019034,0.014895,0.084964
27512,3.9293,2.1818,0.1,0.00048821,4878.7,0.00049537,5137.4,-0.00011292,566.96,-0.00018837,0.012239,0.088727
27513,3.8379,2.4545,0.1,0.00048761,4872.8,0.00049522,5154.8,-0.00010776,624.28,-0.00019084,0.018835,0.085209
27514,3.9293,2.3636,0.1,0.00048649,4861.6,0.00049384,5130,-0.00011028,590.83,-0.00018892,0.016714,0.089013
27515,3.8379,2.6364,0.1,0.0004865,4861.7,0.00049422,5150,-0.00010601,640.1,-0.0001912,0.021573,0.085383
27516,3.9293,2.5455,0.1,0.0004852,4848.7,0.00049268,5124.4,-0.00010828,608.99,-0.00018933,0.019975,0.089225
27517,3.8379,2.8182,0.1,0.00048583,4855,0.00049361,5147.1,-0.00010496,649.67,-0.00019142,0.023186,0.085487
27518,3.9293,2.7273,0.1,0.00048433,4840,0.0004919,5120.6,-0.00010693,621.21,-0.00018961,0.022105,0.089366
27519,3.8379,3,0.1,0.00048561,4852.8,0.00049341,5146.2,-0.00010461,652.87,-0.0001915,0.023719,0.085521
27520,3.9293,2.9091,0.1,0.0004839,4835.6,0.00049151,5118.7,-0.00010626,627.36,-0.00018975,0.023158,0.089437
27521,3.8379,3.1818,0.1,0.00048583,4855,0.00049361,5147.1,-0.00010496,649.67,-0.00019142,0.023186,0.085487
27522,3.9293,3.0909,0.1,0.0004839,4835.6,0.00049151,5118.7,-0.00010626,627.36,-0.00018975,0.023158,0.089437
27523,3.8379,3.3636,0.1,0.0004865,4861.7,0.00049422,5150,-0.00010601,640.1,-0.0001912,0.021573,0.085383
27524,3.9293,3.2727,0.1,0.00048433,4840,0.0004919,5120.6,-0.00010693,621.21,-0.00018961,0.022105,0.089366
27525,3.8379,3.5455,0.1,0.00048761,4872.8,0.00049522,5154.8,-0.00010776,624.28,-0.00019084,0.018835,0.085209
27526,3.9293,3.4545,0.1,0.0004852,4848.7,0.00049268,5124.4,-0.00010828,608.99,-0.00018933,0.019975,0.089225
27527,3.8379,3.7273,0.1,0.00048916,4888.2,0.00049661,5161.5,-0.00011017,602.39,-0.00019034,0.014896,0.084964
27528,3.9293,3.6364,0.1,0.00048649,4861.6,0.00049384,5130,-0.00011028,590.83,-0.00018892,0.016714,0.089013
27529,3.8379,3.9091,0.1,0.00049113,4907.9,0.00049838,5170,-0.00011322,574.68,-0.0001897,0.0096454,0.084646
27530,3.9293,3.8182,0.1,0.00048821,4878.7,0.00049537,5137.4,-0.00011292,566.96,-0.00018837,0.012239,0.088727
27531,3.8379,4.0909,0.1,0.00049351,4931.7,0.00050049,5180.1,-0.00011688,541.49,-0.00018894,0.0029371,0.084254
27532,3.9293,4,0.1,0.00049033,4899.9,0.00049725,5146.5,-0.00011615,537.65,-0.00018771,0.0064374,0.088367
27533,3.8379,4.2727,0.1,0.00049629,4959.5,0.00050294,5191.9,-0.0001211,503.21,-0.00018807,-0.0054247,0.083785
27534,3.9293,4.1818,0.1,0.00049284,4925,0.00049946,5157.3,-0.00011995,503.26,-0.00018693,-0.00084704,0.087931
27535,3.8379,4.4545,0.1,0.00049945,4991,0.00050568,5205.2,-0.00012583,460.28,-0.00018709,-0.01574,0.083236
27536,3.9293,4.3636,0.1,0.00049572,4953.7,0.00050198,5169.5,-0.00012426,464.2,-0.00018604,-0.0098211,0.087415
27537,3.8379,4.6364,0.1,0.00050295,5026,0.0005087,5219.8,-0.00013102,413.23,-0.00018602,-0.028368,0.082605
27538,3.9293,4.5455,0.1,0.00049894,4986,0.00050477,5183.1,-0.00012904,420.93,-0.00018506,-0.020849,0.086818
27539,3.8379,4.8182,0.1,0.00050676,5064.1,0.00051195,5235.7,-0.00013661,362.61,-0.00018487,-0.044272,0.081888
27540,3.9293,4.7273,0.1,0.00050249,5021.4,0.0005078,5197.9,-0.00013423,373.95,-0.000184,-0.03427,0.086136
27541,3.8379,5,0.1,0.00051086,5105.1,0.00051541,5252.5,-0.00014253,308.99,-0.00018366,-0.063683,0.081081
27542,3.9293,4.9091,0.1,0.00050632,5059.7,0.00051105,5213.8,-0.00013977,323.82,-0.00018287,-0.05164,0.085366
27543,3.8379,5.1818,0.1,0.0005152,5148.4,0.00051903,5270.2,-0.00014872,252.97,-0.0001824,-0.093533,0.080181
27544,3.9293,5.0909,0.1,0.0005104,5100.4,0.00051447,5230.5,-0.0001456,271.09,-0.00018169,-0.071976,0.084505
27545,3.8379,5.3636,0.1,0.00051973,5193.7,0.00052278,5288.5,-0.00015511,195.16,-0.0001811,-0.12193,0.079184
27546,3.9293,5.2727,0.1,0.00051469,5143.3,0.00051802,5248,-0.00015165,216.33,-0.00018046,-0.10997,0.083547
27547,3.8379,5.5455,0.1,0.00052444,5240.8,0.00052662,5307.3,-0.00016164,136.02,-0.00017978,-0.26409,0.078085
27548,3.9293,5.4545,0.1,0.00051915,5187.9,0.00052168,5266,-0.00015787,160.11,-0.0001792,-0.12942,0.082491
27549,3.8379,5.7273,0.1,0.00052935,5289.9,0.00053059,5327.1,-0.00016834,75.548,-0.00017845,-0.41759,0.076879
27550,3.9293,5.6364,0.1,0.00052375,5233.9,0.00052542,5284.4,-0.00016421,102.77,-0.00017794,-0.3946,0.08133
27551,3.9293,5.8182,0.1,0.0005286,5282.4,0.00052933,5304,-0.00017072,44.149,-0.00017667,-0.55819,0.080061
27552,3.8379,5.9091,0.1,0.00053339,5330.2,0.00053378,5341.8,-0.00017404,23.498,-0.00017721,-0.32461,0.075563
27553,4.0207,0.27273,0.1,0.000523,5226.4,0.00052417,5261.4,-0.00016662,71.132,-0.00017613,-0.37152,0.084628
27554,4.1121,0.18182,0.1,0.00052208,5217.2,0.00052277,5237.8,-0.00016874,42.065,-0.00017441,-0.48077,0.087978
27555,4.0207,0.090909,0.1,0.00052681,5264.5,0.00052718,5275.6,-0.00017194,22.627,-0.00017499,-0.29855,0.083296
27556,4.0207,0.45455,0.1,0.00051846,5181,0.0005205,5243.1,-0.00016045,126.78,-0.00017735,-0.2401,0.08585
27557,4.1121,0.36364,0.1,0.00051761,5172.6,0.00051917,5219.7,-0.00016275,95.99,-0.00017558,-0.35888,0.089261
27558,4.0207,0.63636,0.1,0.0005141,5137.4,0.00051694,5225.6,-0.00015443,181.22,-0.00017856,-0.11069,0.086966
27559,4.1121,0.54545,0.1,0.00051335,5129.9,0.00051571,5202.7,-0.00015691,148.79,-0.00017673,-0.11713,0.090437
27560,4.0207,0.81818,0.1,0.00050989,5095.3,0.00051347,5208.4,-0.00014854,234.39,-0.00017975,-0.085269,0.087981
27561,4.1121,0.72727,0.1,0.00050921,5088.6,0.00051233,5185.9,-0.00015118,200.51,-0.00017788,-0.10021,0.09151
27562,4.0207,1,0.1,0.00050585,5055,0.00051011,5191.9,-0.00014284,285.86,-0.0001809,-0.058168,0.088899
27563,4.1121,0.90909,0.1,0.00050523,5048.8,0.00050903,5169.5,-0.00014561,250.84,-0.000179,-0.065713,0.092484
27564,4.0207,1.1818,0.1,0.00050204,5016.9,0.0005069,5176.1,-0.00013739,335.11,-0.000182,-0.040515,0.089722
27565,4.1121,1.0909,0.1,0.00050144,5010.9,0.00050586,5153.9,-0.00014024,299.28,-0.00018008,-0.047273,0.093362
27566,4.0207,1.3636,0.1,0.00049848,4981.4,0.00050387,5161.2,-0.00013225,381.61,-0.00018304,-0.025969,0.090456
27567,4.1121,1.2727,0.1,0.00049787,4975.3,0.00050285,5139,-0.00013515,345.33,-0.00018111,-0.031429,0.094148
27568,4.0207,1.5455,0.1,0.00049521,4948.7,0.00050107,5147.4,-0.00012747,424.82,-0.00018401,-0.014348,0.091102
27569,4.1121,1.4545,0.1,0.00049457,4942.3,0.00050003,5125,-0.00013037,388.47,-0.00018207,-0.019122,0.094844
27570,4.0207,1.7273,0.1,0.00049226,4919.2,0.00049851,5134.8,-0.00012311,464.25,-0.0001849,-0.0047847,0.091665
27571,4.1121,1.6364,0.1,0.00049155,4912.1,0.00049743,5112.2,-0.00012597,428.22,-0.00018296,-0.0089413,0.095456
27572,4.0207,1.9091,0.1,0.00048965,4893.1,0.00049622,5123.6,-0.00011922,499.43,-0.00018569,0.003031,0.092147
27573,4.1121,1.8182,0.1,0.00048886,4885.2,0.00049509,5100.7,-0.00012199,464.12,-0.00018377,-0.00059452,0.095984
27574,4.0207,2.0909,0.1,0.0004874,4870.6,0.00049425,5114,-0.00011585,529.95,-0.00018638,0.0093541,0.09255
27575,4.1121,2,0.1,0.0004865,4861.6,0.00049303,5090.5,-0.0001185,495.73,-0.00018447,0.0062346,0.096431
27576,4.0207,2.2727,0.1,0.00048554,4852.1,0.0004926,5105.9,-0.00011303,555.44,-0.00018695,0.014344,0.092877
27577,4.1121,2.1818,0.1,0.00048451,4841.7,0.00049128,5081.9,-0.00011551,522.68,-0.00018508,0.011717,0.096801
27578,4.0207,2.4545,0.1,0.00048408,4837.5,0.0004913,5099.5,-0.0001108,575.59,-0.00018741,0.018115,0.093129
27579,4.1121,2.3636,0.1,0.0004829,4825.6,0.00048985,5074.9,-0.00011308,544.65,-0.00018557,0.015977,0.097094
27580,4.0207,2.6364,0.1,0.00048303,4827,0.00049036,5094.9,-0.00010919,590.15,-0.00018774,0.020752,0.093309
27581,4.1121,2.5455,0.1,0.00048168,4813.4,0.00048876,5069.5,-0.00011124,561.36,-0.00018594,0.019101,0.097313
27582,4.0207,2.8182,0.1,0.0004824,4820.7,0.00048979,5092.2,-0.00010822,598.96,-0.00018793,0.022312,0.093416
27583,4.1121,2.7273,0.1,0.00048086,4805.3,0.00048803,5065.9,-0.00010999,572.61,-0.0001862,0.021151,0.097458
27584,4.0207,3,0.1,0.00048219,4818.5,0.0004896,5091.2,-0.00010789,601.91,-0.000188,0.022829,0.093452
27585,4.1121,2.9091,0.1,0.00048045,4801.1,0.00048766,5064.1,-0.00010936,578.27,-0.00018632,0.022168,0.09753
27586,4.0207,3.1818,0.1,0.0004824,4820.7,0.00048979,5092.2,-0.00010822,598.96,-0.00018793,0.022312,0.093416
27587,4.1121,3.0909,0.1,0.00048045,4801.1,0.00048766,5064.1,-0.00010936,578.27,-0.00018632,0.022168,0.09753
27588,4.0207,3.3636,0.1,0.00048303,4827,0.00049036,5094.9,-0.00010919,590.15,-0.00018774,0.020752,0.093309
27589,4.1121,3.2727,0.1,0.00048086,4805.3,0.00048803,5065.9,-0.00010999,572.61,-0.0001862,0.021152,0.097458
27590,4.0207,3.5455,0.1,0.00048408,4837.5,0.0004913,5099.5,-0.0001108,575.59,-0.00018741,0.018115,0.093129
27591,4.1121,3.4545,0.1,0.00048168,4813.4,0.00048876,5069.5,-0.00011124,561.36,-0.00018594,0.019101,0.097313
27592,4.0207,3.7273,0.1,0.00048554,4852.1,0.0004926,5105.9,-0.00011303,555.44,-0.00018695,0.014344,0.092877
27593,4.1121,3.6364,0.1,0.0004829,4825.6,0.00048985,5074.9,-0.00011308,544.65,-0.00018557,0.015977,0.097094
27594,4.0207,3.9091,0.1,0.0004874,4870.6,0.00049425,5114,-0.00011585,529.95,-0.00018638,0.0093545,0.09255
27595,4.1121,3.8182,0.1,0.00048451,4841.7,0.00049128,5081.9,-0.00011551,522.68,-0.00018508,0.011717,0.096801
27596,4.0207,4.0909,0.1,0.00048965,4893.1,0.00049622,5123.6,-0.00011922,499.43,-0.00018569,0.0030314,0.092147
27597,4.1121,4,0.1,0.0004865,4861.6,0.00049303,5090.5,-0.0001185,495.73,-0.00018447,0.006235,0.096431
27598,4.0207,4.2727,0.1,0.00049226,4919.2,0.00049851,5134.8,-0.00012311,464.25,-0.0001849,-0.0047842,0.091665
27599,4.1121,4.1818,0.1,0.00048886,4885.2,0.00049509,5100.7,-0.00012199,464.12,-0.00018377,-0.00059405,0.095984
27600,4.0207,4.4545,0.1,0.00049521,4948.7,0.00050107,5147.4,-0.00012747,424.82,-0.00018401,-0.014347,0.091102
27601,4.1121,4.3636,0.1,0.00049155,4912.1,0.00049743,5112.2,-0.00012597,428.22,-0.00018296,-0.0089407,0.095456
27602,4.0207,4.6364,0.1,0.00049848,4981.4,0.00050387,5161.2,-0.00013225,381.61,-0.00018304,-0.025969,0.090456
27603,4.1121,4.5455,0.1,0.00049457,4942.3,0.00050003,5125,-0.00013037,388.47,-0.00018207,-0.019121,0.094844
27604,4.0207,4.8182,0.1,0.00050204,5016.9,0.0005069,5176.1,-0.00013739,335.11,-0.000182,-0.040514,0.089722
27605,4.1121,4.7273,0.1,0.00049787,4975.3,0.00050285,5139,-0.00013515,345.33,-0.00018111,-0.031428,0.094148
27606,4.0207,5,0.1,0.00050585,5055,0.00051011,5191.9,-0.00014284,285.86,-0.0001809,-0.058167,0.088899
27607,4.1121,4.9091,0.1,0.00050144,5010.9,0.00050586,5153.9,-0.00014024,299.28,-0.00018008,-0.047272,0.093362
27608,4.0207,5.1818,0.1,0.00050989,5095.3,0.00051347,5208.4,-0.00014854,234.39,-0.00017975,-0.085268,0.087981
27609,4.1121,5.0909,0.1,0.00050523,5048.8,0.00050903,5169.5,-0.00014561,250.84,-0.000179,-0.065712,0.092484
27610,4.0207,5.3636,0.1,0.0005141,5137.4,0.00051694,5225.6,-0.00015443,181.22,-0.00017856,-0.11069,0.086966
27611,4.1121,5.2727,0.1,0.00050921,5088.6,0.00051233,5185.9,-0.00015118,200.51,-0.00017788,-0.10021,0.09151
27612,4.0207,5.5455,0.1,0.00051846,5181,0.0005205,5243.1,-0.00016045,126.78,-0.00017735,-0.2401,0.08585
27613,4.1121,5.4545,0.1,0.00051335,5129.9,0.00051571,5202.7,-0.00015691,148.79,-0.00017673,-0.11713,0.090437
27614,4.0207,5.7273,0.1,0.000523,5226.4,0.00052417,5261.4,-0.00016662,71.132,-0.00017613,-0.37152,0.084628
27615,4.1121,5.6364,0.1,0.00051761,5172.6,0.00051917,5219.7,-0.00016275,95.99,-0.00017558,-0.35888,0.089261
27616,4.1121,5.8182,0.1,0.00052208,5217.2,0.00052277,5237.8,-0.00016874,42.065,-0.00017441,-0.48076,0.087978
27617,4.0207,5.9091,0.1,0.00052681,5264.5,0.00052718,5275.6,-0.00017194,22.627,-0.00017499,-0.29855,0.083296
27618,4.2034,0.27273,0.1,0.00051669,5163.3,0.00051779,5196.2,-0.00016491,66.722,-0.00017383,-0.33129,0.092725
27619,4.2948,0.18182,0.1,0.00051561,5152.6,0.00051627,5172.2,-0.0001668,39.826,-0.00017216,-0.41641,0.096243
27620,4.2034,0.090909,0.1,0.00052027,5199.1,0.00052063,5209.8,-0.00016987,21.612,-0.00017278,-0.27512,0.091381
27621,4.2034,0.45455,0.1,0.0005125,5121.5,0.0005144,5179.3,-0.00015923,117.92,-0.00017495,-0.21839,0.093962
27622,4.2948,0.36364,0.1,0.00051151,5111.5,0.00051296,5155.5,-0.00016129,89.407,-0.00017323,-0.32649,0.097539
27623,4.2034,0.63636,0.1,0.00050846,5081.1,0.00051111,5163,-0.00015368,168.01,-0.00017605,-0.1006,0.095093
27624,4.2948,0.54545,0.1,0.00050756,5072.1,0.00050976,5139.6,-0.00015591,138,-0.00017429,-0.10615,0.098728
27625,4.2034,0.81818,0.1,0.00050456,5042.1,0.0005079,5147,-0.00014826,216.9,-0.00017714,-0.077837,0.096123
27626,4.2948,0.72727,0.1,0.00050373,5033.9,0.00050663,5124,-0.00015064,185.56,-0.00017535,-0.091432,0.099815
27627,4.2034,1,0.1,0.00050082,5004.7,0.00050479,5131.6,-0.00014302,264.2,-0.00017819,-0.053231,0.097056
27628,4.2948,0.90909,0.1,0.00050004,4997,0.00050358,5108.8,-0.00014551,231.82,-0.00017637,-0.060114,0.1008
27629,4.2034,1.1818,0.1,0.00049727,4969.3,0.00050181,5116.8,-0.000138,309.45,-0.00017919,-0.037176,0.097894
27630,4.2948,1.0909,0.1,0.00049653,4961.9,0.00050065,5094.2,-0.00014057,276.32,-0.00017735,-0.043393,0.10169
27631,4.2034,1.3636,0.1,0.00049396,4936.2,0.00049901,5102.8,-0.00013327,352.15,-0.00018014,-0.023877,0.098642
27632,4.2948,1.2727,0.1,0.00049322,4928.8,0.00049786,5080.3,-0.00013588,318.62,-0.00017829,-0.028941,0.10249
27633,4.2034,1.5455,0.1,0.00049091,4905.7,0.0004964,5089.9,-0.00012887,391.85,-0.00018102,-0.01319,0.099302
27634,4.2948,1.4545,0.1,0.00049014,4898,0.00049525,5067.3,-0.00013149,358.26,-0.00017917,-0.01766,0.1032
27635,4.2034,1.7273,0.1,0.00048815,4878.2,0.00049402,5078.1,-0.00012486,428.07,-0.00018183,-0.004337,0.099877
27636,4.2948,1.6364,0.1,0.00048733,4869.9,0.00049284,5055.3,-0.00012743,394.78,-0.00017998,-0.0082692,0.10383
27637,4.2034,1.9091,0.1,0.00048571,4853.8,0.0004919,5067.6,-0.00012127,460.41,-0.00018255,0.0029507,0.10037
27638,4.2948,1.8182,0.1,0.00048481,4844.8,0.00049067,5044.5,-0.00012378,427.77,-0.00018071,-0.00051683,0.10437
27639,4.2034,2.0909,0.1,0.00048361,4832.7,0.00049006,5058.4,-0.00011816,488.47,-0.00018317,0.00889,0.10078
27640,4.2948,2,0.1,0.00048261,4822.8,0.00048876,5034.9,-0.00012055,456.84,-0.00018135,0.0058712,0.10482
27641,4.2034,2.2727,0.1,0.00048186,4815.3,0.00048852,5050.8,-0.00011557,511.91,-0.0001837,0.01361,0.10112
27642,4.2948,2.1818,0.1,0.00048074,4804.1,0.00048712,5026.8,-0.0001178,481.63,-0.0001819,0.011035,0.1052
27643,4.2034,2.4545,0.1,0.00048049,4801.6,0.00048731,5044.8,-0.00011351,530.45,-0.00018411,0.017199,0.10138
27644,4.2948,2.3636,0.1,0.00047923,4789,0.00048579,5020.2,-0.00011556,501.84,-0.00018235,0.015074,0.1055
27645,4.2034,2.6364,0.1,0.0004795,4791.7,0.00048643,5040.4,-0.00011203,543.86,-0.00018441,0.019722,0.10156
27646,4.2948,2.5455,0.1,0.00047809,4777.6,0.00048478,5015.1,-0.00011386,517.22,-0.00018269,0.018051,0.10573
27647,4.2034,2.8182,0.1,0.0004789,4785.7,0.0004859,5037.8,-0.00011113,551.97,-0.00018459,0.02122,0.10167
27648,4.2948,2.7273,0.1,0.00047732,4769.9,0.0004841,5011.7,-0.00011271,527.59,-0.00018292,0.020014,0.10588
27649,4.2034,3,0.1,0.00047871,4783.8,0.00048572,5036.9,-0.00011083,554.69,-0.00018465,0.021717,0.10171
27650,4.2948,2.9091,0.1,0.00047693,4766,0.00048375,5010,-0.00011213,532.8,-0.00018304,0.02099,0.10595
27651,4.2034,3.1818,0.1,0.0004789,4785.7,0.0004859,5037.8,-0.00011113,551.97,-0.00018459,0.021221,0.10167
27652,4.2948,3.0909,0.1,0.00047693,4766,0.00048375,5010,-0.00011213,532.8,-0.00018304,0.02099,0.10595
27653,4.2034,3.3636,0.1,0.0004795,4791.7,0.00048643,5040.4,-0.00011203,543.86,-0.00018441,0.019722,0.10156
27654,4.2948,3.2727,0.1,0.00047732,4769.9,0.0004841,5011.7,-0.00011271,527.59,-0.00018292,0.020015,0.10588
27655,4.2034,3.5455,0.1,0.00048049,4801.6,0.00048731,5044.8,-0.00011351,530.45,-0.00018411,0.0172,0.10138
27656,4.2948,3.4545,0.1,0.00047809,4777.6,0.00048478,5015.1,-0.00011386,517.22,-0.00018269,0.018052,0.10573
27657,4.2034,3.7273,0.1,0.00048186,4815.3,0.00048852,5050.8,-0.00011557,511.91,-0.0001837,0.01361,0.10112
27658,4.2948,3.6364,0.1,0.00047923,4789,0.00048579,5020.2,-0.00011556,501.84,-0.00018235,0.015074,0.1055
27659,4.2034,3.9091,0.1,0.00048361,4832.7,0.00049006,5058.4,-0.00011816,488.47,-0.00018317,0.0088904,0.10078
27660,4.2948,3.8182,0.1,0.00048074,4804.1,0.00048712,5026.8,-0.0001178,481.63,-0.0001819,0.011036,0.1052
27661,4.2034,4.0909,0.1,0.00048571,4853.8,0.0004919,5067.6,-0.00012127,460.41,-0.00018255,0.0029511,0.10037
27662,4.2948,4,0.1,0.00048261,4822.8,0.00048876,5034.9,-0.00012055,456.84,-0.00018135,0.0058717,0.10482
27663,4.2034,4.2727,0.1,0.00048815,4878.2,0.00049402,5078.1,-0.00012486,428.07,-0.00018183,-0.0043364,0.099877
27664,4.2948,4.1818,0.1,0.00048481,4844.8,0.00049067,5044.5,-0.00012378,427.77,-0.00018071,-0.00051631,0.10437
27665,4.2034,4.4545,0.1,0.00049091,4905.7,0.0004964,5089.9,-0.00012887,391.85,-0.00018102,-0.013189,0.099302
27666,4.2948,4.3636,0.1,0.00048733,4869.9,0.00049284,5055.3,-0.00012743,394.78,-0.00017998,-0.0082686,0.10383
27667,4.2034,4.6364,0.1,0.00049396,4936.2,0.00049901,5102.8,-0.00013327,352.15,-0.00018014,-0.023876,0.098642
27668,4.2948,4.5455,0.1,0.00049014,4898,0.00049525,5067.3,-0.00013149,358.26,-0.00017917,-0.017659,0.1032
27669,4.2034,4.8182,0.1,0.00049727,4969.3,0.00050181,5116.8,-0.000138,309.45,-0.00017919,-0.037175,0.097894
27670,4.2948,4.7273,0.1,0.00049322,4928.8,0.00049786,5080.3,-0.00013588,318.62,-0.00017829,-0.028941,0.10249
27671,4.2034,5,0.1,0.00050082,5004.7,0.00050479,5131.6,-0.00014302,264.2,-0.00017819,-0.05323,0.097056
27672,4.2948,4.9091,0.1,0.00049653,4961.9,0.00050065,5094.2,-0.00014057,276.32,-0.00017735,-0.043392,0.10169
27673,4.2034,5.1818,0.1,0.00050456,5042.1,0.0005079,5147,-0.00014826,216.9,-0.00017714,-0.077836,0.096123
27674,4.2948,5.0909,0.1,0.00050004,4997,0.00050358,5108.8,-0.00014551,231.82,-0.00017637,-0.060113,0.1008
27675,4.2034,5.3636,0.1,0.00050846,5081.1,0.00051111,5163,-0.00015368,168.01,-0.00017605,-0.1006,0.095093
27676,4.2948,5.2727,0.1,0.00050373,5033.9,0.00050663,5124,-0.00015064,185.56,-0.00017535,-0.091432,0.099815
27677,4.2034,5.5455,0.1,0.0005125,5121.5,0.0005144,5179.3,-0.00015923,117.92,-0.00017495,-0.21839,0.093962
27678,4.2948,5.4545,0.1,0.00050756,5072.1,0.00050976,5139.6,-0.00015591,138,-0.00017429,-0.10615,0.098728
27679,4.2034,5.7273,0.1,0.00051669,5163.3,0.00051779,5196.2,-0.00016491,66.722,-0.00017383,-0.33129,0.092725
27680,4.2948,5.6364,0.1,0.00051151,5111.5,0.00051296,5155.5,-0.00016129,89.407,-0.00017323,-0.32649,0.097539
27681,4.2948,5.8182,0.1,0.00051561,5152.6,0.00051627,5172.2,-0.0001668,39.826,-0.00017216,-0.41641,0.096243
27682,4.2034,5.9091,0.1,0.00052027,5199.1,0.00052063,5209.8,-0.00016987,21.612,-0.00017278,-0.27512,0.091381
27683,4.3862,0.27273,0.1,0.00051043,5100.8,0.00051145,5131.5,-0.00016321,62.343,-0.00017154,-0.29601,0.10117
27684,4.4776,0.18182,0.1,0.00050921,5088.6,0.00050983,5107,-0.00016489,37.473,-0.00016992,-0.36251,0.10485
27685,4.3862,0.090909,0.1,0.00051378,5134.3,0.00051412,5144.4,-0.00016782,20.486,-0.00017058,-0.25393,0.099813
27686,4.3862,0.45455,0.1,0.00050656,5062.1,0.00050833,5115.9,-0.00015798,109.42,-0.00017257,-0.19872,0.10242
27687,4.4776,0.36364,0.1,0.00050543,5050.8,0.00050679,5091.7,-0.00015982,83.025,-0.00017091,-0.29701,0.10616
27688,4.3862,0.63636,0.1,0.00050283,5024.8,0.00050529,5100.7,-0.00015288,155.49,-0.00017358,-0.091566,0.10356
27689,4.4776,0.54545,0.1,0.00050179,5014.4,0.00050384,5077,-0.00015487,127.7,-0.00017188,-0.096334,0.10736
27690,4.3862,0.81818,0.1,0.00049922,4988.7,0.00050232,5085.9,-0.00014789,200.42,-0.00017458,-0.07118,0.1046
27691,4.4776,0.72727,0.1,0.00049825,4979.1,0.00050095,5062.5,-0.00015002,171.42,-0.00017285,-0.083539,0.10846
27692,4.3862,1,0.1,0.00049575,4954.1,0.00049945,5071.5,-0.00014307,243.89,-0.00017554,-0.048848,0.10555
27693,4.4776,0.90909,0.1,0.00049484,4945,0.00049813,5048.5,-0.0001453,213.93,-0.00017378,-0.055127,0.10946
27694,4.3862,1.1818,0.1,0.00049247,4921.3,0.0004967,5057.8,-0.00013846,285.46,-0.00017645,-0.034248,0.1064
27695,4.4776,1.0909,0.1,0.00049159,4912.5,0.00049542,5034.9,-0.00014077,254.82,-0.00017469,-0.039968,0.11036
27696,4.3862,1.3636,0.1,0.00048939,4890.6,0.00049411,5044.8,-0.0001341,324.69,-0.00017732,-0.02209,0.10716
27697,4.4776,1.2727,0.1,0.00048852,4881.8,0.00049285,5022,-0.00013645,293.68,-0.00017554,-0.026789,0.11117
27698,4.3862,1.5455,0.1,0.00048656,4862.2,0.00049169,5032.7,-0.00013005,361.17,-0.00017812,-0.012265,0.10783
27699,4.4776,1.4545,0.1,0.00048566,4853.3,0.00049043,5009.9,-0.00013241,330.1,-0.00017634,-0.016448,0.11189
27700,4.3862,1.7273,0.1,0.00048399,4836.6,0.00048949,5021.7,-0.00012636,394.46,-0.00017886,-0.0040747,0.10842
27701,4.4776,1.6364,0.1,0.00048305,4827.2,0.00048821,4998.7,-0.00012868,363.68,-0.00017708,-0.0077865,0.11253
27702,4.3862,1.9091,0.1,0.00048171,4813.8,0.00048752,5011.9,-0.00012306,424.2,-0.00017951,0.0027129,0.10892
27703,4.4776,1.8182,0.1,0.0004807,4803.7,0.00048619,4988.6,-0.00012531,394.02,-0.00017775,-0.00058853,0.11308
27704,4.3862,2.0909,0.1,0.00047975,4794.2,0.00048581,5003.3,-0.00012019,450.01,-0.00018008,0.0082819,0.10934
27705,4.4776,2,0.1,0.00047865,4783.2,0.00048442,4979.7,-0.00012234,420.76,-0.00017834,0.0053825,0.11354
27706,4.3862,2.2727,0.1,0.00047811,4777.8,0.00048439,4996.2,-0.0001178,471.58,-0.00018056,0.012735,0.10969
27707,4.4776,2.1818,0.1,0.00047691,4765.8,0.00048291,4972.1,-0.0001198,443.58,-0.00017884,0.010241,0.11393
27708,4.3862,2.4545,0.1,0.00047683,4765,0.00048326,4990.5,-0.0001159,488.64,-0.00018093,0.016141,0.10995
27709,4.4776,2.3636,0.1,0.0004755,4751.7,0.00048167,4965.9,-0.00011774,462.19,-0.00017925,0.014063,0.11424
27710,4.3862,2.6364,0.1,0.0004759,4755.7,0.00048244,4986.4,-0.00011453,500.99,-0.00018121,0.018546,0.11014
27711,4.4776,2.5455,0.1,0.00047443,4741,0.00048073,4961.2,-0.00011616,476.36,-0.00017956,0.016894,0.11447
27712,4.3862,2.8182,0.1,0.00047534,4750.1,0.00048195,4983.9,-0.0001137,508.46,-0.00018137,0.019978,0.11025
27713,4.4776,2.7273,0.1,0.0004737,4733.8,0.0004801,4958,-0.0001151,485.9,-0.00017977,0.018768,0.11462
27714,4.3862,3,0.1,0.00047516,4748.3,0.00048178,4983.1,-0.00011343,510.96,-0.00018143,0.020454,0.11029
27715,4.4776,2.9091,0.1,0.00047334,4730.2,0.00047978,4956.4,-0.00011457,490.71,-0.00017988,0.019701,0.11469
27716,4.3862,3.1818,0.1,0.00047534,4750.1,0.00048195,4983.9,-0.0001137,508.46,-0.00018137,0.019978,0.11025
27717,4.4776,3.0909,0.1,0.00047334,4730.2,0.00047978,4956.4,-0.00011457,490.71,-0.00017988,0.019701,0.11469
27718,4.3862,3.3636,0.1,0.0004759,4755.7,0.00048244,4986.4,-0.00011453,500.99,-0.00018121,0.018546,0.11014
27719,4.4776,3.2727,0.1,0.0004737,4733.8,0.0004801,4958,-0.0001151,485.9,-0.00017977,0.018768,0.11462
27720,4.3862,3.5455,0.1,0.00047683,4765,0.00048326,4990.5,-0.0001159,488.64,-0.00018093,0.016141,0.10995
27721,4.4776,3.4545,0.1,0.00047443,4741,0.00048073,4961.2,-0.00011616,476.36,-0.00017956,0.016894,0.11447
27722,4.3862,3.7273,0.1,0.00047811,4777.8,0.00048439,4996.2,-0.0001178,471.58,-0.00018056,0.012736,0.10969
27723,4.4776,3.6364,0.1,0.0004755,4751.7,0.00048167,4965.9,-0.00011774,462.19,-0.00017925,0.014063,0.11424
27724,4.3862,3.9091,0.1,0.00047975,4794.2,0.00048581,5003.3,-0.00012019,450.01,-0.00018008,0.0082823,0.10934
27725,4.4776,3.8182,0.1,0.00047691,4765.8,0.0004829,4972.1,-0.0001198,443.58,-0.00017884,0.010241,0.11393
27726,4.3862,4.0909,0.1,0.00048171,4813.8,0.00048752,5011.9,-0.00012306,424.2,-0.00017951,0.0027134,0.10892
27727,4.4776,4,0.1,0.00047865,4783.2,0.00048442,4979.7,-0.00012234,420.76,-0.00017834,0.0053829,0.11354
27728,4.3862,4.2727,0.1,0.00048399,4836.6,0.00048949,5021.7,-0.00012636,394.46,-0.00017886,-0.0040742,0.10842
27729,4.4776,4.1818,0.1,0.0004807,4803.7,0.00048619,4988.6,-0.00012531,394.02,-0.00017775,-0.00058803,0.11308
27730,4.3862,4.4545,0.1,0.00048656,4862.2,0.00049169,5032.7,-0.00013005,361.17,-0.00017812,-0.012264,0.10783
27731,4.4776,4.3636,0.1,0.00048305,4827.2,0.00048821,4998.7,-0.00012868,363.68,-0.00017708,-0.0077859,0.11253
27732,4.3862,4.6364,0.1,0.00048939,4890.6,0.00049411,5044.8,-0.0001341,324.69,-0.00017732,-0.022089,0.10716
27733,4.4776,4.5455,0.1,0.00048566,4853.3,0.00049043,5009.9,-0.00013241,330.1,-0.00017634,-0.016447,0.11189
27734,4.3862,4.8182,0.1,0.00049247,4921.3,0.0004967,5057.8,-0.00013846,285.46,-0.00017645,-0.034247,0.1064
27735,4.4776,4.7273,0.1,0.00048852,4881.8,0.00049285,5022,-0.00013645,293.68,-0.00017554,-0.026789,0.11117
27736,4.3862,5,0.1,0.00049575,4954.1,0.00049945,5071.5,-0.00014307,243.89,-0.00017554,-0.048847,0.10555
27737,4.4776,4.9091,0.1,0.00049159,4912.5,0.00049542,5034.9,-0.00014077,254.82,-0.00017469,-0.039967,0.11036
27738,4.3862,5.1818,0.1,0.00049922,4988.7,0.00050232,5085.9,-0.00014789,200.42,-0.00017458,-0.071179,0.1046
27739,4.4776,5.0909,0.1,0.00049484,4945,0.00049813,5048.5,-0.0001453,213.93,-0.00017378,-0.055126,0.10946
27740,4.3862,5.3636,0.1,0.00050283,5024.8,0.00050529,5100.7,-0.00015288,155.49,-0.00017358,-0.091565,0.10356
27741,4.4776,5.2727,0.1,0.00049825,4979.1,0.00050095,5062.5,-0.00015002,171.42,-0.00017285,-0.083539,0.10846
27742,4.3862,5.5455,0.1,0.00050656,5062.1,0.00050833,5115.9,-0.00015798,109.42,-0.00017257,-0.19872,0.10242
27743,4.4776,5.4545,0.1,0.00050179,5014.4,0.00050384,5077,-0.00015487,127.7,-0.00017188,-0.096334,0.10736
27744,4.3862,5.7273,0.1,0.00051043,5100.8,0.00051145,5131.5,-0.00016321,62.343,-0.00017154,-0.29601,0.10117
27745,4.4776,5.6364,0.1,0.00050543,5050.8,0.00050679,5091.7,-0.00015982,83.025,-0.00017091,-0.29701,0.10616
27746,4.4776,5.8182,0.1,0.00050921,5088.6,0.00050983,5107,-0.00016489,37.473,-0.00016992,-0.36251,0.10485
27747,4.3862,5.9091,0.1,0.00051378,5134.3,0.00051412,5144.4,-0.00016782,20.486,-0.00017058,-0.25393,0.099813
27748,4.569,0.27273,0.1,0.00050421,5038.6,0.00050517,5067.3,-0.00016152,58.013,-0.00016928,-0.26489,0.10995
27749,4.6603,0.18182,0.1,0.00050286,5025.2,0.00050344,5042.4,-0.000163,35.039,-0.0001677,-0.31704,0.1138
27750,4.569,0.090909,0.1,0.00050734,5069.9,0.00050766,5079.4,-0.0001658,19.276,-0.0001684,-0.23465,0.10859
27751,4.569,0.45455,0.1,0.00050065,5003.1,0.0005023,5052.9,-0.00015672,101.26,-0.00017022,-0.18084,0.11121
27752,4.6603,0.36364,0.1,0.00049939,4990.5,0.00050065,5028.3,-0.00015835,76.842,-0.00016861,-0.27009,0.11512
27753,4.569,0.63636,0.1,0.00049721,4968.7,0.0004995,5038.9,-0.00015203,143.59,-0.00017115,-0.083459,0.11237
27754,4.6603,0.54545,0.1,0.00049604,4956.9,0.00049794,5014.8,-0.0001538,117.88,-0.0001695,-0.087556,0.11633
27755,4.569,0.81818,0.1,0.00049387,4935.3,0.00049676,5025.1,-0.00014744,184.88,-0.00017206,-0.065214,0.11342
27756,4.6603,0.72727,0.1,0.00049278,4924.4,0.00049527,5001.4,-0.00014934,158.04,-0.00017039,-0.076446,0.11744
27757,4.569,1,0.1,0.00049067,4903.3,0.00049411,5011.9,-0.00014301,224.82,-0.00017293,-0.044962,0.11438
27758,4.6603,0.90909,0.1,0.00048963,4892.9,0.00049268,4988.4,-0.00014501,197.08,-0.00017125,-0.050701,0.11845
27759,4.569,1.1818,0.1,0.00048763,4873,0.00049157,4999.1,-0.00013876,263.01,-0.00017377,-0.031688,0.11524
27760,4.6603,1.0909,0.1,0.00048662,4862.8,0.00049019,4975.9,-0.00014084,234.65,-0.00017207,-0.036966,0.11936
27761,4.569,1.3636,0.1,0.00048478,4844.5,0.00048918,4987.1,-0.00013476,299.07,-0.00017457,-0.020574,0.11601
27762,4.6603,1.2727,0.1,0.00048378,4834.5,0.00048781,4964,-0.00013687,270.36,-0.00017285,-0.024951,0.12018
27763,4.569,1.5455,0.1,0.00048215,4818.2,0.00048695,4975.9,-0.00013103,332.6,-0.0001753,-0.011541,0.11669
27764,4.6603,1.4545,0.1,0.00048114,4808,0.00048558,4952.8,-0.00013315,303.85,-0.00017359,-0.015469,0.12091
27765,4.569,1.7273,0.1,0.00047977,4794.3,0.00048491,4965.6,-0.00012763,363.22,-0.00017597,-0.0039611,0.11729
27766,4.6603,1.6364,0.1,0.00047871,4783.8,0.00048353,4942.4,-0.00012971,334.74,-0.00017427,-0.0074748,0.12156
27767,4.569,1.9091,0.1,0.00047765,4773.2,0.00048309,4956.5,-0.00012459,390.58,-0.00017657,0.0023617,0.1178
27768,4.6603,1.8182,0.1,0.00047654,4762.1,0.00048167,4933,-0.00012661,362.66,-0.00017488,-0.00078636,0.12211
27769,4.569,2.0909,0.1,0.00047582,4754.9,0.00048151,4948.5,-0.00012195,414.34,-0.0001771,0.0075828,0.11823
27770,4.6603,2,0.1,0.00047463,4743,0.00048003,4924.8,-0.00012387,387.29,-0.00017542,0.0047991,0.12259
27771,4.569,2.2727,0.1,0.00047429,4739.7,0.00048019,4941.8,-0.00011974,434.2,-0.00017753,0.011783,0.11858
27772,4.6603,2.1818,0.1,0.00047301,4726.8,0.00047863,4917.7,-0.00012154,408.31,-0.00017588,0.009373,0.12298
27773,4.569,2.4545,0.1,0.00047309,4727.7,0.00047914,4936.6,-0.000118,449.93,-0.00017788,0.015012,0.11885
27774,4.6603,2.3636,0.1,0.00047169,4713.6,0.00047748,4912,-0.00011963,425.47,-0.00017626,0.012991,0.12329
27775,4.569,2.6364,0.1,0.00047223,4719,0.00047838,4932.7,-0.00011673,461.3,-0.00017812,0.017301,0.11904
27776,4.6603,2.5455,0.1,0.00047069,4703.6,0.00047661,4907.6,-0.00011818,438.54,-0.00017654,0.015684,0.12352
27777,4.569,2.8182,0.1,0.00047171,4713.8,0.00047792,4930.4,-0.00011597,468.19,-0.00017828,0.018669,0.11916
27778,4.6603,2.7273,0.1,0.00047002,4696.9,0.00047603,4904.6,-0.0001172,447.35,-0.00017673,0.017473,0.12368
27779,4.569,3,0.1,0.00047153,4712.1,0.00047777,4929.7,-0.00011571,470.5,-0.00017833,0.019124,0.11919
27780,4.6603,2.9091,0.1,0.00046968,4693.5,0.00047573,4903.1,-0.00011671,451.78,-0.00017683,0.018365,0.12376
27781,4.569,3.1818,0.1,0.00047171,4713.8,0.00047792,4930.4,-0.00011597,468.19,-0.00017828,0.018669,0.11916
27782,4.6603,3.0909,0.1,0.00046968,4693.5,0.00047573,4903.1,-0.00011671,451.78,-0.00017683,0.018365,0.12376
27783,4.569,3.3636,0.1,0.00047223,4719,0.00047838,4932.7,-0.00011673,461.3,-0.00017812,0.017301,0.11904
27784,4.6603,3.2727,0.1,0.00047002,4696.9,0.00047603,4904.6,-0.0001172,447.35,-0.00017673,0.017473,0.12368
27785,4.569,3.5455,0.1,0.00047309,4727.7,0.00047914,4936.6,-0.000118,449.93,-0.00017788,0.015012,0.11885
27786,4.6603,3.4545,0.1,0.00047069,4703.6,0.00047661,4907.6,-0.00011818,438.54,-0.00017654,0.015684,0.12352
27787,4.569,3.7273,0.1,0.00047429,4739.7,0.00048019,4941.8,-0.00011974,434.2,-0.00017753,0.011783,0.11858
27788,4.6603,3.6364,0.1,0.00047169,4713.6,0.00047748,4912,-0.00011963,425.47,-0.00017626,0.012991,0.12329
27789,4.569,3.9091,0.1,0.00047582,4754.9,0.00048151,4948.5,-0.00012195,414.34,-0.0001771,0.0075831,0.11823
27790,4.6603,3.8182,0.1,0.00047301,4726.8,0.00047863,4917.7,-0.00012154,408.31,-0.00017588,0.0093733,0.12298
27791,4.569,4.0909,0.1,0.00047765,4773.2,0.00048309,4956.5,-0.00012459,390.58,-0.00017657,0.002362,0.1178
27792,4.6603,4,0.1,0.00047463,4743,0.00048003,4924.8,-0.00012387,387.29,-0.00017542,0.0047995,0.12259
27793,4.569,4.2727,0.1,0.00047977,4794.3,0.00048491,4965.6,-0.00012763,363.22,-0.00017597,-0.0039605,0.11729
27794,4.6603,4.1818,0.1,0.00047654,4762.1,0.00048167,4933,-0.00012661,362.66,-0.00017488,-0.00078593,0.12211
27795,4.569,4.4545,0.1,0.00048215,4818.2,0.00048695,4975.9,-0.00013103,332.6,-0.0001753,-0.01154,0.11669
27796,4.6603,4.3636,0.1,0.00047871,4783.8,0.00048353,4942.4,-0.00012971,334.74,-0.00017427,-0.0074741,0.12156
27797,4.569,4.6364,0.1,0.00048478,4844.5,0.00048918,4987.1,-0.00013476,299.07,-0.00017457,-0.020574,0.11601
27798,4.6603,4.5455,0.1,0.00048114,4808,0.00048558,4952.8,-0.00013315,303.85,-0.00017359,-0.015468,0.12091
27799,4.569,4.8182,0.1,0.00048763,4873,0.00049157,4999.1,-0.00013876,263.01,-0.00017377,-0.031688,0.11524
27800,4.6603,4.7273,0.1,0.00048378,4834.5,0.00048781,4964,-0.00013687,270.36,-0.00017285,-0.02495,0.12018
27801,4.569,5,0.1,0.00049067,4903.3,0.00049411,5011.9,-0.00014301,224.82,-0.00017293,-0.044961,0.11438
27802,4.6603,4.9091,0.1,0.00048662,4862.8,0.00049019,4975.9,-0.00014084,234.65,-0.00017207,-0.036965,0.11936
27803,4.569,5.1818,0.1,0.00049387,4935.3,0.00049676,5025.1,-0.00014744,184.88,-0.00017206,-0.065213,0.11342
27804,4.6603,5.0909,0.1,0.00048963,4892.9,0.00049268,4988.4,-0.00014501,197.08,-0.00017125,-0.0507,0.11845
27805,4.569,5.3636,0.1,0.00049721,4968.7,0.0004995,5038.9,-0.00015203,143.59,-0.00017115,-0.083459,0.11237
27806,4.6603,5.2727,0.1,0.00049278,4924.4,0.00049527,5001.4,-0.00014934,158.04,-0.00017039,-0.076445,0.11744
27807,4.569,5.5455,0.1,0.00050065,5003.1,0.0005023,5052.9,-0.00015672,101.26,-0.00017022,-0.18084,0.11121
27808,4.6603,5.4545,0.1,0.00049604,4956.9,0.00049794,5014.8,-0.0001538,117.88,-0.0001695,-0.087556,0.11633
27809,4.569,5.7273,0.1,0.00050421,5038.6,0.00050517,5067.3,-0.00016152,58.013,-0.00016928,-0.26488,0.10995
27810,4.6603,5.6364,0.1,0.00049939,4990.5,0.00050065,5028.3,-0.00015835,76.842,-0.00016861,-0.27009,0.11512
27811,4.6603,5.8182,0.1,0.00050286,5025.2,0.00050344,5042.4,-0.000163,35.039,-0.0001677,-0.31704,0.1138
27812,4.569,5.9091,0.1,0.00050734,5069.9,0.00050766,5079.4,-0.0001658,19.276,-0.0001684,-0.23465,0.10859
27813,4.7517,0.27273,0.1,0.00049804,4977,0.00049893,5003.5,-0.00015984,53.747,-0.00016703,-0.2373,0.11908
27814,4.8431,0.18182,0.1,0.00049657,4962.3,0.00049711,4978.3,-0.00016113,32.549,-0.0001655,-0.27841,0.12309
27815,4.7517,0.090909,0.1,0.00050095,5006,0.00050125,5014.9,-0.0001638,18.003,-0.00016622,-0.21703,0.1177
27816,4.7517,0.45455,0.1,0.00049477,4944.3,0.00049629,4990.3,-0.00015544,93.424,-0.00016789,-0.16454,0.12034
27817,4.8431,0.36364,0.1,0.00049339,4930.5,0.00049455,4965.4,-0.00015687,70.853,-0.00016634,-0.24543,0.12441
27818,4.7517,0.63636,0.1,0.0004916,4912.6,0.00049372,4977.4,-0.00015113,132.29,-0.00016874,-0.076199,0.1215
27819,4.8431,0.54545,0.1,0.0004903,4899.6,0.00049206,4953,-0.0001527,108.5,-0.00016715,-0.079726,0.12563
27820,4.7517,0.81818,0.1,0.00048853,4881.9,0.0004912,4964.7,-0.00014692,170.2,-0.00016958,-0.059891,0.12257
27821,4.8431,0.72727,0.1,0.0004873,4869.7,0.00048961,4940.7,-0.00014861,145.34,-0.00016796,-0.070103,0.12674
27822,4.7517,1,0.1,0.00048557,4852.4,0.00048876,4952.5,-0.00014284,206.88,-0.00017038,-0.041548,0.12353
27823,4.8431,0.90909,0.1,0.0004844,4840.7,0.00048723,4928.7,-0.00014463,181.18,-0.00016875,-0.046818,0.12776
27824,4.7517,1.1818,0.1,0.00048277,4824.3,0.00048643,4940.8,-0.00013894,241.97,-0.00017115,-0.029487,0.12441
27825,4.8431,1.0909,0.1,0.00048163,4813,0.00048494,4917.2,-0.00014079,215.69,-0.00016951,-0.034385,0.12868
27826,4.7517,1.3636,0.1,0.00048013,4798,0.00048422,4929.7,-0.00013526,275.12,-0.00017188,-0.019327,0.12519
27827,4.8431,1.2727,0.1,0.00047901,4786.8,0.00048275,4906.2,-0.00013715,248.52,-0.00017023,-0.023434,0.12951
27828,4.7517,1.5455,0.1,0.0004777,4773.7,0.00048217,4919.3,-0.00013183,305.97,-0.00017255,-0.011014,0.12588
27829,4.8431,1.4545,0.1,0.00047657,4762.4,0.00048071,4895.9,-0.00013372,279.33,-0.0001709,-0.014733,0.13025
27830,4.7517,1.7273,0.1,0.00047549,4751.6,0.00048029,4909.8,-0.0001287,334.16,-0.00017317,-0.0039919,0.12648
27831,4.8431,1.6364,0.1,0.00047433,4740,0.00047881,4886.4,-0.00013056,307.77,-0.00017153,-0.0073454,0.13091
27832,4.7517,1.9091,0.1,0.00047352,4731.9,0.00047861,4901.4,-0.0001259,359.36,-0.00017372,0.0019066,0.127
27833,4.8431,1.8182,0.1,0.00047231,4719.8,0.0004771,4877.7,-0.0001277,333.51,-0.00017209,-0.0011181,0.13147
27834,4.7517,2.0909,0.1,0.00047182,4714.9,0.00047715,4894,-0.00012346,381.27,-0.0001742,0.0068094,0.12744
27835,4.8431,2,0.1,0.00047054,4702.1,0.00047559,4870.1,-0.00012518,356.23,-0.00017259,0.0041193,0.13195
27836,4.7517,2.2727,0.1,0.0004704,4700.8,0.00047592,4887.8,-0.00012142,399.59,-0.0001746,0.010777,0.12779
27837,4.8431,2.1818,0.1,0.00046903,4687.1,0.00047429,4863.6,-0.00012302,375.63,-0.00017301,0.0084365,0.13235
27838,4.7517,2.4545,0.1,0.00046928,4689.6,0.00047496,4882.9,-0.00011981,414.1,-0.00017492,0.013843,0.12807
27839,4.8431,2.3636,0.1,0.00046781,4674.8,0.00047324,4858.3,-0.00012126,391.48,-0.00017336,0.011871,0.13267
27840,4.7517,2.6364,0.1,0.00046848,4681.5,0.00047425,4879.4,-0.00011864,424.6,-0.00017515,0.016025,0.12826
27841,4.8431,2.5455,0.1,0.00046688,4665.6,0.00047243,4854.2,-0.00011992,403.56,-0.00017363,0.01444,0.1329
27842,4.7517,2.8182,0.1,0.00046799,4676.7,0.00047383,4877.3,-0.00011794,430.96,-0.00017529,0.017333,0.12838
27843,4.8431,2.7273,0.1,0.00046625,4659.3,0.00047189,4851.5,-0.00011901,411.7,-0.0001738,0.016151,0.13306
27844,4.7517,3,0.1,0.00046783,4675.1,0.00047369,4876.5,-0.0001177,433.09,-0.00017534,0.017768,0.12842
27845,4.8431,2.9091,0.1,0.00046594,4656.2,0.00047161,4850.1,-0.00011856,415.8,-0.00017389,0.017008,0.13314
27846,4.7517,3.1818,0.1,0.00046799,4676.7,0.00047383,4877.3,-0.00011794,430.96,-0.00017529,0.017333,0.12838
27847,4.8431,3.0909,0.1,0.00046594,4656.2,0.00047161,4850.1,-0.00011856,415.8,-0.00017389,0.017008,0.13314
27848,4.7517,3.3636,0.1,0.00046848,4681.5,0.00047425,4879.4,-0.00011864,424.6,-0.00017515,0.016025,0.12826
27849,4.8431,3.2727,0.1,0.00046625,4659.3,0.00047189,4851.5,-0.00011901,411.7,-0.0001738,0.016152,0.13306
27850,4.7517,3.5455,0.1,0.00046928,4689.6,0.00047496,4882.9,-0.00011981,414.1,-0.00017492,0.013843,0.12807
27851,4.8431,3.4545,0.1,0.00046688,4665.6,0.00047243,4854.2,-0.00011992,403.56,-0.00017363,0.01444,0.1329
27852,4.7517,3.7273,0.1,0.0004704,4700.8,0.00047592,4887.8,-0.00012142,399.59,-0.0001746,0.010777,0.12779
27853,4.8431,3.6364,0.1,0.00046781,4674.8,0.00047324,4858.3,-0.00012126,391.48,-0.00017336,0.011871,0.13267
27854,4.7517,3.9091,0.1,0.00047182,4714.9,0.00047715,4894,-0.00012346,381.27,-0.0001742,0.0068098,0.12744
27855,4.8431,3.8182,0.1,0.00046903,4687.1,0.00047429,4863.6,-0.00012302,375.63,-0.00017301,0.0084368,0.13235
27856,4.7517,4.0909,0.1,0.00047352,4731.9,0.00047861,4901.4,-0.0001259,359.36,-0.00017372,0.001907,0.127
27857,4.8431,4,0.1,0.00047054,4702.1,0.00047559,4870.1,-0.00012518,356.23,-0.00017259,0.0041197,0.13195
27858,4.7517,4.2727,0.1,0.00047549,4751.6,0.00048029,4909.8,-0.0001287,334.16,-0.00017317,-0.0039913,0.12648
27859,4.8431,4.1818,0.1,0.00047231,4719.8,0.0004771,4877.7,-0.0001277,333.51,-0.00017209,-0.0011176,0.13147
27860,4.7517,4.4545,0.1,0.0004777,4773.7,0.00048217,4919.3,-0.00013183,305.97,-0.00017255,-0.011013,0.12588
27861,4.8431,4.3636,0.1,0.00047433,4740,0.00047881,4886.4,-0.00013056,307.77,-0.00017153,-0.0073448,0.13091
27862,4.7517,4.6364,0.1,0.00048013,4798,0.00048422,4929.7,-0.00013526,275.12,-0.00017188,-0.019326,0.12519
27863,4.8431,4.5455,0.1,0.00047657,4762.4,0.00048071,4895.9,-0.00013372,279.33,-0.0001709,-0.014733,0.13025
27864,4.7517,4.8182,0.1,0.00048277,4824.3,0.00048643,4940.8,-0.00013894,241.97,-0.00017115,-0.029487,0.12441
27865,4.8431,4.7273,0.1,0.00047901,4786.8,0.00048275,4906.2,-0.00013715,248.52,-0.00017023,-0.023433,0.12951
27866,4.7517,5,0.1,0.00048557,4852.4,0.00048876,4952.5,-0.00014284,206.88,-0.00017038,-0.041547,0.12353
27867,4.8431,4.9091,0.1,0.00048163,4813,0.00048494,4917.2,-0.00014079,215.69,-0.00016951,-0.034384,0.12868
27868,4.7517,5.1818,0.1,0.00048853,4881.9,0.0004912,4964.7,-0.00014692,170.2,-0.00016958,-0.05989,0.12257
27869,4.8431,5.0909,0.1,0.0004844,4840.7,0.00048723,4928.7,-0.00014463,181.18,-0.00016875,-0.046817,0.12776
27870,4.7517,5.3636,0.1,0.0004916,4912.6,0.00049372,4977.4,-0.00015113,132.29,-0.00016874,-0.076198,0.1215
27871,4.8431,5.2727,0.1,0.0004873,4869.7,0.00048961,4940.7,-0.00014861,145.34,-0.00016796,-0.070102,0.12674
27872,4.7517,5.5455,0.1,0.00049477,4944.3,0.00049629,4990.3,-0.00015544,93.424,-0.00016789,-0.16454,0.12034
27873,4.8431,5.4545,0.1,0.0004903,4899.6,0.00049206,4953,-0.0001527,108.5,-0.00016715,-0.079725,0.12563
27874,4.7517,5.7273,0.1,0.00049804,4977,0.00049893,5003.5,-0.00015984,53.747,-0.00016703,-0.2373,0.11908
27875,4.8431,5.6364,0.1,0.00049339,4930.5,0.00049455,4965.4,-0.00015687,70.853,-0.00016634,-0.24543,0.12441
27876,4.8431,5.8182,0.1,0.00049657,4962.3,0.00049711,4978.3,-0.00016113,32.549,-0.0001655,-0.27841,0.12309
27877,4.7517,5.9091,0.1,0.00050095,5006,0.00050125,5014.9,-0.0001638,18.003,-0.00016622,-0.21703,0.1177
27878,4.9345,0.27273,0.1,0.00049191,4915.7,0.00049273,4940.2,-0.00015817,49.554,-0.0001648,-0.21275,0.12853
27879,5.0259,0.18182,0.1,0.00049032,4899.9,0.00049082,4914.7,-0.00015928,30.025,-0.00016331,-0.24537,0.13271
27880,4.9345,0.090909,0.1,0.0004946,4942.6,0.00049488,4950.8,-0.00016181,16.685,-0.00016406,-0.20087,0.12715
27881,4.9345,0.45455,0.1,0.00048892,4885.8,0.00049032,4928.1,-0.00015414,85.893,-0.00016559,-0.14969,0.1298
27882,5.0259,0.36364,0.1,0.00048741,4870.8,0.00048848,4902.9,-0.00015539,65.049,-0.00016408,-0.22277,0.13403
27883,4.9345,0.63636,0.1,0.000486,4856.7,0.00048796,4916.3,-0.00015019,121.52,-0.00016637,-0.069738,0.13097
27884,5.0259,0.54545,0.1,0.00048459,4842.5,0.0004862,4891.5,-0.00015157,99.515,-0.00016482,-0.072759,0.13526
27885,4.9345,0.81818,0.1,0.00048318,4828.5,0.00048565,4904.7,-0.00014632,156.3,-0.00016713,-0.055195,0.13204
27886,5.0259,0.72727,0.1,0.00048184,4815,0.00048396,4880.3,-0.00014782,133.28,-0.00016557,-0.064459,0.13638
27887,4.9345,1,0.1,0.00048046,4801.3,0.00048341,4893.5,-0.00014258,189.97,-0.00016787,-0.038612,0.13302
27888,5.0259,0.90909,0.1,0.00047917,4788.4,0.00048178,4869.3,-0.00014417,166.15,-0.00016629,-0.043455,0.1374
27889,4.9345,1.1818,0.1,0.00047788,4775.5,0.00048127,4882.7,-0.000139,222.22,-0.00016858,-0.027662,0.1339
27890,5.0259,1.0909,0.1,0.00047663,4763,0.00047968,4858.8,-0.00014065,197.85,-0.00016699,-0.032216,0.13833
27891,4.9345,1.3636,0.1,0.00047545,4751.2,0.00047924,4872.5,-0.00013561,252.71,-0.00016925,-0.018371,0.13469
27892,5.0259,1.2727,0.1,0.00047422,4738.9,0.00047768,4848.8,-0.0001373,228.04,-0.00016765,-0.022238,0.13917
27893,4.9345,1.5455,0.1,0.0004732,4728.7,0.00047735,4863,-0.00013246,281.12,-0.00016987,-0.010712,0.13538
27894,5.0259,1.4545,0.1,0.00047196,4716.4,0.0004758,4839.3,-0.00013415,256.41,-0.00016828,-0.014246,0.13992
27895,4.9345,1.7273,0.1,0.00047115,4708.3,0.00047562,4854.3,-0.00012957,307.11,-0.00017044,-0.0041908,0.13599
27896,5.0259,1.6364,0.1,0.00046989,4695.7,0.00047406,4830.6,-0.00013124,282.63,-0.00016885,-0.007402,0.14057
27897,4.9345,1.9091,0.1,0.00046933,4690.1,0.00047408,4846.5,-0.00012699,330.37,-0.00017096,0.0013282,0.13652
27898,5.0259,1.8182,0.1,0.00046803,4677.1,0.00047249,4822.7,-0.0001286,306.39,-0.00016938,-0.0015844,0.14115
27899,4.9345,2.0909,0.1,0.00046775,4674.3,0.00047273,4839.7,-0.00012474,350.59,-0.0001714,0.0059483,0.13696
27900,5.0259,2,0.1,0.00046639,4660.7,0.00047109,4815.7,-0.00012627,327.39,-0.00016984,0.0033472,0.14163
27901,4.9345,2.2727,0.1,0.00046644,4661.2,0.0004716,4834.1,-0.00012286,367.53,-0.00017177,0.0097108,0.13732
27902,5.0259,2.1818,0.1,0.00046499,4646.7,0.0004699,4809.8,-0.00012427,345.35,-0.00017024,0.0074415,0.14203
27903,4.9345,2.4545,0.1,0.0004654,4650.8,0.00047071,4829.6,-0.00012136,380.95,-0.00017206,0.012633,0.1376
27904,5.0259,2.3636,0.1,0.00046386,4635.4,0.00046893,4804.9,-0.00012264,360.02,-0.00017056,0.010719,0.14236
27905,4.9345,2.6364,0.1,0.00046465,4643.3,0.00047006,4826.3,-0.00012028,390.67,-0.00017228,0.014722,0.1378
27906,5.0259,2.5455,0.1,0.00046299,4626.7,0.00046819,4801.2,-0.0001214,371.22,-0.00017081,0.013181,0.14259
27907,4.9345,2.8182,0.1,0.0004642,4638.8,0.00046967,4824.3,-0.00011963,396.56,-0.00017241,0.015977,0.13792
27908,5.0259,2.7273,0.1,0.00046241,4620.9,0.00046769,4798.6,-0.00012056,378.77,-0.00017097,0.014829,0.14275
27909,4.9345,3,0.1,0.00046405,4637.3,0.00046954,4823.7,-0.00011941,398.53,-0.00017245,0.016396,0.13796
27910,5.0259,2.9091,0.1,0.00046212,4618,0.00046744,4797.4,-0.00012014,382.57,-0.00017106,0.015655,0.14283
27911,4.9345,3.1818,0.1,0.0004642,4638.8,0.00046967,4824.3,-0.00011963,396.56,-0.00017241,0.015977,0.13792
27912,5.0259,3.0909,0.1,0.00046212,4618,0.00046744,4797.4,-0.00012014,382.57,-0.00017106,0.015655,0.14283
27913,4.9345,3.3636,0.1,0.00046465,4643.3,0.00047006,4826.3,-0.00012028,390.67,-0.00017228,0.014722,0.1378
27914,5.0259,3.2727,0.1,0.00046241,4620.9,0.00046769,4798.6,-0.00012056,378.77,-0.00017097,0.014829,0.14275
27915,4.9345,3.5455,0.1,0.0004654,4650.8,0.00047071,4829.6,-0.00012136,380.95,-0.00017206,0.012634,0.1376
27916,5.0259,3.4545,0.1,0.00046299,4626.7,0.00046819,4801.2,-0.0001214,371.22,-0.00017081,0.013182,0.14259
27917,4.9345,3.7273,0.1,0.00046644,4661.2,0.0004716,4834.1,-0.00012286,367.53,-0.00017177,0.0097111,0.13732
27918,5.0259,3.6364,0.1,0.00046386,4635.4,0.00046893,4804.9,-0.00012264,360.02,-0.00017056,0.010719,0.14236
27919,4.9345,3.9091,0.1,0.00046775,4674.3,0.00047273,4839.7,-0.00012474,350.59,-0.0001714,0.0059486,0.13696
27920,5.0259,3.8182,0.1,0.00046499,4646.7,0.0004699,4809.8,-0.00012427,345.35,-0.00017024,0.0074418,0.14203
27921,4.9345,4.0909,0.1,0.00046933,4690.1,0.00047408,4846.5,-0.00012699,330.37,-0.00017096,0.0013286,0.13652
27922,5.0259,4,0.1,0.00046639,4660.7,0.00047109,4815.7,-0.00012627,327.39,-0.00016984,0.0033476,0.14163
27923,4.9345,4.2727,0.1,0.00047115,4708.3,0.00047562,4854.3,-0.00012957,307.11,-0.00017044,-0.0041903,0.13599
27924,5.0259,4.1818,0.1,0.00046803,4677.1,0.00047249,4822.7,-0.0001286,306.39,-0.00016938,-0.0015839,0.14115
27925,4.9345,4.4545,0.1,0.0004732,4728.7,0.00047735,4863,-0.00013246,281.12,-0.00016987,-0.010711,0.13538
27926,5.0259,4.3636,0.1,0.00046989,4695.7,0.00047406,4830.6,-0.00013124,282.63,-0.00016885,-0.0074015,0.14057
27927,4.9345,4.6364,0.1,0.00047545,4751.2,0.00047924,4872.5,-0.00013561,252.71,-0.00016925,-0.01837,0.13469
27928,5.0259,4.5455,0.1,0.00047196,4716.4,0.0004758,4839.3,-0.00013415,256.41,-0.00016828,-0.014245,0.13992
27929,4.9345,4.8182,0.1,0.00047788,4775.5,0.00048127,4882.7,-0.000139,222.22,-0.00016858,-0.027662,0.1339
27930,5.0259,4.7273,0.1,0.00047422,4738.9,0.00047768,4848.8,-0.0001373,228.04,-0.00016765,-0.022238,0.13917
27931,4.9345,5,0.1,0.00048046,4801.3,0.00048341,4893.5,-0.00014258,189.97,-0.00016787,-0.038611,0.13302
27932,5.0259,4.9091,0.1,0.00047663,4763,0.00047968,4858.8,-0.00014065,197.85,-0.00016699,-0.032216,0.13833
27933,4.9345,5.1818,0.1,0.00048318,4828.5,0.00048565,4904.7,-0.00014632,156.3,-0.00016713,-0.055194,0.13204
27934,5.0259,5.0909,0.1,0.00047917,4788.4,0.00048178,4869.3,-0.00014417,166.15,-0.00016629,-0.043453,0.1374
27935,4.9345,5.3636,0.1,0.000486,4856.7,0.00048796,4916.3,-0.00015019,121.52,-0.00016637,-0.069737,0.13097
27936,5.0259,5.2727,0.1,0.00048184,4815,0.00048396,4880.3,-0.00014782,133.28,-0.00016557,-0.064458,0.13638
27937,4.9345,5.5455,0.1,0.00048892,4885.8,0.00049032,4928.1,-0.00015414,85.893,-0.00016559,-0.14969,0.1298
27938,5.0259,5.4545,0.1,0.00048459,4842.5,0.0004862,4891.5,-0.00015157,99.515,-0.00016482,-0.072759,0.13526
27939,4.9345,5.7273,0.1,0.00049191,4915.7,0.00049273,4940.2,-0.00015817,49.554,-0.0001648,-0.21275,0.12853
27940,5.0259,5.6364,0.1,0.00048741,4870.8,0.00048848,4902.9,-0.00015539,65.049,-0.00016408,-0.22277,0.13403
27941,5.0259,5.8182,0.1,0.00049032,4899.9,0.00049082,4914.7,-0.00015928,30.025,-0.00016331,-0.24536,0.13271
27942,4.9345,5.9091,0.1,0.0004946,4942.6,0.00049488,4950.8,-0.00016181,16.685,-0.00016406,-0.20087,0.12715
27943,5.1172,0.27273,0.1,0.00048582,4854.9,0.00048658,4877.3,-0.00015651,45.436,-0.00016258,-0.19077,0.13832
27944,5.2086,0.18182,0.1,0.00048412,4837.9,0.00048458,4851.4,-0.00015745,27.481,-0.00016114,-0.21687,0.14265
27945,5.1172,0.090909,0.1,0.00048829,4879.6,0.00048855,4887.1,-0.00015985,15.335,-0.00016191,-0.18598,0.13694
27946,5.1172,0.45455,0.1,0.00048308,4827.5,0.00048437,4866.3,-0.00015282,78.642,-0.00016331,-0.1361,0.13959
27947,5.2086,0.36364,0.1,0.00048147,4811.4,0.00048245,4840.7,-0.0001539,59.415,-0.00016184,-0.20184,0.14398
27948,5.1172,0.63636,0.1,0.00048042,4800.9,0.00048221,4855.5,-0.00014921,111.24,-0.00016402,-0.063995,0.14077
27949,5.2086,0.54545,0.1,0.00047889,4785.6,0.00048037,4830.3,-0.00015041,90.89,-0.00016252,-0.066575,0.14521
27950,5.1172,0.81818,0.1,0.00047783,4775,0.0004801,4844.9,-0.00014567,143.11,-0.00016472,-0.051071,0.14184
27951,5.2086,0.72727,0.1,0.00047637,4760.4,0.00047833,4820.1,-0.00014699,121.77,-0.0001632,-0.059461,0.14634
27952,5.1172,1,0.1,0.00047534,4750.1,0.00047806,4834.7,-0.00014224,174,-0.00016541,-0.03612,0.14282
27953,5.2086,0.90909,0.1,0.00047394,4736.1,0.00047634,4810.2,-0.00014365,151.9,-0.00016387,-0.040586,0.14737
27954,5.1172,1.1818,0.1,0.00047297,4726.4,0.0004761,4824.9,-0.00013895,203.64,-0.00016606,-0.026188,0.14371
27955,5.2086,1.0909,0.1,0.00047161,4712.8,0.00047442,4800.7,-0.00014042,181,-0.00016451,-0.030447,0.1483
27956,5.1172,1.3636,0.1,0.00047073,4704.1,0.00047424,4815.6,-0.00013584,231.71,-0.00016668,-0.017688,0.1445
27957,5.2086,1.2727,0.1,0.00046939,4690.7,0.0004726,4791.6,-0.00013734,208.78,-0.00016513,-0.021359,0.14915
27958,5.1172,1.5455,0.1,0.00046866,4683.4,0.00047251,4807,-0.00013293,257.9,-0.00016726,-0.010615,0.14521
27959,5.2086,1.4545,0.1,0.00046732,4670,0.00047088,4783,-0.00013444,234.93,-0.00016571,-0.014005,0.1499
27960,5.1172,1.7273,0.1,0.00046677,4664.5,0.00047093,4799,-0.00013027,281.9,-0.00016779,-0.004539,0.14583
27961,5.2086,1.6364,0.1,0.00046542,4651,0.00046928,4775.1,-0.00013175,259.16,-0.00016625,-0.0076433,0.15056
27962,5.1172,1.9091,0.1,0.00046509,4647.7,0.00046951,4791.9,-0.00012788,303.41,-0.00016826,0.00064904,0.14636
27963,5.2086,1.8182,0.1,0.0004637,4633.8,0.00046784,4768,-0.00012932,281.15,-0.00016674,-0.0021813,0.15114
27964,5.1172,2.0909,0.1,0.00046363,4633.1,0.00046827,4785.8,-0.0001258,322.14,-0.00016868,0.0050266,0.1468
27965,5.2086,2,0.1,0.00046218,4618.6,0.00046656,4761.6,-0.00012716,300.61,-0.00016717,0.0024912,0.15163
27966,5.1172,2.2727,0.1,0.00046241,4620.9,0.00046723,4780.6,-0.00012406,337.84,-0.00016902,0.0086165,0.14717
27967,5.2086,2.1818,0.1,0.00046089,4605.7,0.00046547,4756.2,-0.00012531,317.28,-0.00016754,0.0064016,0.15203
27968,5.1172,2.4545,0.1,0.00046145,4611.3,0.00046641,4776.5,-0.00012268,350.3,-0.0001693,0.011421,0.14745
27969,5.2086,2.3636,0.1,0.00045984,4595.2,0.00046457,4751.7,-0.0001238,330.92,-0.00016784,0.0095529,0.15236
27970,5.1172,2.6364,0.1,0.00046075,4604.3,0.00046581,4773.5,-0.00012168,359.33,-0.0001695,0.013434,0.14765
27971,5.2086,2.5455,0.1,0.00045904,4587.2,0.00046389,4748.4,-0.00012265,341.34,-0.00016807,0.011934,0.1526
27972,5.1172,2.8182,0.1,0.00046033,4600.1,0.00046545,4771.7,-0.00012107,364.79,-0.00016962,0.014647,0.14777
27973,5.2086,2.7273,0.1,0.0004585,4581.8,0.00046343,4746.1,-0.00012187,348.37,-0.00016823,0.013532,0.15276
27974,5.1172,3,0.1,0.00046019,4598.7,0.00046533,4771.1,-0.00012087,366.63,-0.00016966,0.015053,0.14781
27975,5.2086,2.9091,0.1,0.00045823,4579.1,0.0004632,4744.9,-0.00012148,351.91,-0.00016831,0.014336,0.15284
27976,5.1172,3.1818,0.1,0.00046033,4600.1,0.00046545,4771.7,-0.00012107,364.79,-0.00016962,0.014647,0.14777
27977,5.2086,3.0909,0.1,0.00045823,4579.1,0.0004632,4744.9,-0.00012148,351.91,-0.00016831,0.014336,0.15284
27978,5.1172,3.3636,0.1,0.00046075,4604.3,0.00046581,4773.5,-0.00012168,359.33,-0.0001695,0.013434,0.14765
27979,5.2086,3.2727,0.1,0.0004585,4581.8,0.00046343,4746.1,-0.00012187,348.37,-0.00016823,0.013532,0.15276
27980,5.1172,3.5455,0.1,0.00046145,4611.3,0.00046641,4776.5,-0.00012268,350.3,-0.0001693,0.011421,0.14745
27981,5.2086,3.4545,0.1,0.00045904,4587.2,0.00046389,4748.4,-0.00012265,341.34,-0.00016807,0.011934,0.1526
27982,5.1172,3.7273,0.1,0.00046241,4620.9,0.00046723,4780.6,-0.00012406,337.84,-0.00016902,0.0086169,0.14717
27983,5.2086,3.6364,0.1,0.00045984,4595.2,0.00046457,4751.7,-0.0001238,330.92,-0.00016784,0.0095533,0.15236
27984,5.1172,3.9091,0.1,0.00046363,4633.1,0.00046827,4785.8,-0.0001258,322.14,-0.00016868,0.005027,0.1468
27985,5.2086,3.8182,0.1,0.00046089,4605.7,0.00046547,4756.2,-0.00012531,317.28,-0.00016754,0.006402,0.15203
27986,5.1172,4.0909,0.1,0.00046509,4647.7,0.00046951,4791.9,-0.00012788,303.41,-0.00016826,0.00064952,0.14636
27987,5.2086,4,0.1,0.00046218,4618.6,0.00046656,4761.6,-0.00012716,300.61,-0.00016717,0.0024916,0.15163
27988,5.1172,4.2727,0.1,0.00046677,4664.5,0.00047093,4799,-0.00013027,281.9,-0.00016779,-0.0045384,0.14583
27989,5.2086,4.1818,0.1,0.0004637,4633.8,0.00046784,4768,-0.00012932,281.15,-0.00016674,-0.0021807,0.15114
27990,5.1172,4.4545,0.1,0.00046866,4683.4,0.00047251,4807,-0.00013293,257.9,-0.00016726,-0.010614,0.14521
27991,5.2086,4.3636,0.1,0.00046542,4651,0.00046928,4775.1,-0.00013175,259.16,-0.00016625,-0.0076427,0.15056
27992,5.1172,4.6364,0.1,0.00047073,4704.1,0.00047424,4815.6,-0.00013584,231.71,-0.00016668,-0.017687,0.1445
27993,5.2086,4.5455,0.1,0.00046732,4670,0.00047088,4783,-0.00013444,234.93,-0.00016571,-0.014004,0.1499
27994,5.1172,4.8182,0.1,0.00047297,4726.4,0.0004761,4824.9,-0.00013895,203.64,-0.00016606,-0.026187,0.14371
27995,5.2086,4.7273,0.1,0.00046939,4690.7,0.0004726,4791.6,-0.00013734,208.78,-0.00016513,-0.021359,0.14915
27996,5.1172,5,0.1,0.00047534,4750.1,0.00047806,4834.7,-0.00014224,174,-0.00016541,-0.036119,0.14282
27997,5.2086,4.9091,0.1,0.00047161,4712.8,0.00047442,4800.7,-0.00014042,181,-0.00016451,-0.030446,0.1483
27998,5.1172,5.1818,0.1,0.00047783,4775,0.0004801,4844.9,-0.00014567,143.11,-0.00016472,-0.05107,0.14184
27999,5.2086,5.0909,0.1,0.00047394,4736.1,0.00047634,4810.2,-0.00014365,151.9,-0.00016387,-0.040584,0.14737
28000,5.1172,5.3636,0.1,0.00048042,4800.9,0.00048221,4855.5,-0.00014921,111.24,-0.00016402,-0.063995,0.14077
28001,5.2086,5.2727,0.1,0.00047637,4760.4,0.00047833,4820.1,-0.00014699,121.77,-0.0001632,-0.05946,0.14634
28002,5.1172,5.5455,0.1,0.00048308,4827.5,0.00048437,4866.3,-0.00015282,78.642,-0.00016331,-0.1361,0.13959
28003,5.2086,5.4545,0.1,0.00047889,4785.6,0.00048037,4830.3,-0.00015041,90.89,-0.00016252,-0.066574,0.14521
28004,5.1172,5.7273,0.1,0.00048582,4854.9,0.00048658,4877.3,-0.00015651,45.436,-0.00016258,-0.19077,0.13832
28005,5.2086,5.6364,0.1,0.00048147,4811.4,0.00048245,4840.7,-0.0001539,59.415,-0.00016184,-0.20184,0.14398
28006,5.2086,5.8182,0.1,0.00048412,4837.9,0.00048458,4851.4,-0.00015745,27.482,-0.00016114,-0.21686,0.14265
28007,5.1172,5.9091,0.1,0.00048829,4879.6,0.00048855,4887.1,-0.00015985,15.335,-0.00016191,-0.18598,0.13694
28008,5.3,0.27273,0.1,0.00047976,4794.3,0.00048045,4814.8,-0.00015485,41.391,-0.00016038,-0.17096,0.14842
28009,5.3914,0.18182,0.1,0.00047795,4776.2,0.00047836,4788.5,-0.00015563,24.928,-0.00015897,-0.19208,0.15292
28010,5.3,0.090909,0.1,0.00048202,4816.9,0.00048225,4823.8,-0.00015789,13.964,-0.00015977,-0.17218,0.14704
28011,5.3,0.45455,0.1,0.00047727,4769.4,0.00047845,4804.8,-0.00015149,71.64,-0.00016104,-0.12364,0.1497
28012,5.3914,0.36364,0.1,0.00047554,4752.1,0.00047643,4778.8,-0.00015241,53.932,-0.00015961,-0.18243,0.15425
28013,5.3,0.63636,0.1,0.00047484,4745.1,0.00047648,4795,-0.0001482,101.4,-0.0001617,-0.058927,0.15088
28014,5.3914,0.54545,0.1,0.0004732,4728.7,0.00047455,4769.4,-0.00014923,82.581,-0.00016023,-0.061133,0.15548
28015,5.3,0.81818,0.1,0.00047248,4721.6,0.00047457,4785.5,-0.00014496,130.54,-0.00016234,-0.047499,0.15196
28016,5.3914,0.72727,0.1,0.00047091,4705.9,0.0004727,4760.3,-0.00014611,110.76,-0.00016086,-0.055096,0.15661
28017,5.3,1,0.1,0.00047021,4698.8,0.00047271,4776.2,-0.00014182,158.87,-0.00016297,-0.034068,0.15295
28018,5.3914,0.90909,0.1,0.0004687,4683.8,0.0004709,4751.4,-0.00014306,138.33,-0.00016148,-0.038221,0.15765
28019,5.3,1.1818,0.1,0.00046803,4677.1,0.00047092,4767.4,-0.00013881,186.12,-0.00016358,-0.025073,0.15384
28020,5.3914,1.0909,0.1,0.00046657,4662.5,0.00046916,4742.8,-0.0001401,165.04,-0.00016207,-0.0291,0.15859
28021,5.3,1.3636,0.1,0.00046599,4656.6,0.00046923,4759,-0.00013594,211.98,-0.00016416,-0.017291,0.15464
28022,5.3914,1.2727,0.1,0.00046455,4642.3,0.0004675,4734.7,-0.00013728,190.62,-0.00016265,-0.020827,0.15944
28023,5.3,1.5455,0.1,0.00046408,4637.6,0.00046765,4751.2,-0.00013326,236.17,-0.0001647,-0.01074,0.15535
28024,5.3914,1.4545,0.1,0.00046265,4623.3,0.00046593,4727,-0.00013461,214.77,-0.00016319,-0.014044,0.16019
28025,5.3,1.7273,0.1,0.00046235,4620.3,0.0004662,4744,-0.0001308,258.39,-0.00016519,-0.0050501,0.15597
28026,5.3914,1.6364,0.1,0.00046091,4605.9,0.00046448,4719.9,-0.00013213,237.2,-0.0001637,-0.0081014,0.16086
28027,5.3,1.9091,0.1,0.0004608,4604.8,0.0004649,4737.6,-0.0001286,278.34,-0.00016564,-0.00014117,0.15651
28028,5.3914,1.8182,0.1,0.00045932,4590.1,0.00046316,4713.5,-0.00012987,257.61,-0.00016416,-0.0029379,0.16144
28029,5.3,2.0909,0.1,0.00045945,4591.3,0.00046376,4732,-0.00012667,295.74,-0.00016603,0.0040391,0.15696
28030,5.3914,2,0.1,0.00045793,4576.1,0.000462,4707.8,-0.00012787,275.72,-0.00016457,0.0015266,0.16194
28031,5.3,2.2727,0.1,0.00045832,4580.1,0.00046281,4727.4,-0.00012505,310.36,-0.00016636,0.0074941,0.15732
28032,5.3914,2.1818,0.1,0.00045674,4564.2,0.00046099,4702.9,-0.00012616,291.26,-0.00016492,0.0052977,0.16235
28033,5.3,2.4545,0.1,0.00045743,4571.2,0.00046206,4723.6,-0.00012377,321.96,-0.00016662,0.01021,0.15761
28034,5.3914,2.3636,0.1,0.00045576,4554.5,0.00046017,4698.9,-0.00012475,304,-0.00016521,0.0083601,0.16267
28035,5.3,2.6364,0.1,0.00045679,4564.7,0.00046151,4720.9,-0.00012284,330.38,-0.00016681,0.012169,0.15781
28036,5.3914,2.5455,0.1,0.00045502,4547.1,0.00045955,4695.8,-0.00012367,313.74,-0.00016543,0.010687,0.16292
28037,5.3,2.8182,0.1,0.0004564,4560.8,0.00046118,4719.3,-0.00012227,335.49,-0.00016692,0.013354,0.15793
28038,5.3914,2.7273,0.1,0.00045452,4542.1,0.00045912,4693.8,-0.00012295,320.32,-0.00016558,0.012257,0.16308
28039,5.3,3,0.1,0.00045627,4559.5,0.00046107,4718.8,-0.00012208,337.2,-0.00016696,0.013751,0.15797
28040,5.3914,2.9091,0.1,0.00045427,4539.6,0.00045891,4692.7,-0.00012258,323.64,-0.00016565,0.013047,0.16316
28041,5.3,3.1818,0.1,0.0004564,4560.8,0.00046118,4719.3,-0.00012227,335.49,-0.00016692,0.013354,0.15793
28042,5.3914,3.0909,0.1,0.00045427,4539.6,0.00045891,4692.7,-0.00012258,323.64,-0.00016565,0.013047,0.16316
28043,5.3,3.3636,0.1,0.00045679,4564.7,0.00046151,4720.9,-0.00012284,330.38,-0.00016681,0.01217,0.15781
28044,5.3914,3.2727,0.1,0.00045452,4542.1,0.00045912,4693.8,-0.00012295,320.32,-0.00016558,0.012257,0.16308
28045,5.3,3.5455,0.1,0.00045743,4571.2,0.00046206,4723.6,-0.00012377,321.96,-0.00016662,0.010211,0.15761
28046,5.3914,3.4545,0.1,0.00045502,4547.1,0.00045955,4695.8,-0.00012367,313.74,-0.00016543,0.010687,0.16292
28047,5.3,3.7273,0.1,0.00045832,4580.1,0.00046281,4727.4,-0.00012505,310.36,-0.00016636,0.0074945,0.15732
28048,5.3914,3.6364,0.1,0.00045576,4554.5,0.00046017,4698.9,-0.00012475,304,-0.00016521,0.0083604,0.16267
28049,5.3,3.9091,0.1,0.00045945,4591.3,0.00046376,4732,-0.00012667,295.74,-0.00016603,0.0040395,0.15696
28050,5.3914,3.8182,0.1,0.00045674,4564.2,0.00046099,4702.9,-0.00012616,291.26,-0.00016492,0.0052981,0.16235
28051,5.3,4.0909,0.1,0.0004608,4604.8,0.0004649,4737.6,-0.0001286,278.34,-0.00016564,-0.00014071,0.15651
28052,5.3914,4,0.1,0.00045793,4576.1,0.000462,4707.8,-0.00012787,275.72,-0.00016457,0.0015271,0.16194
28053,5.3,4.2727,0.1,0.00046235,4620.3,0.0004662,4744,-0.0001308,258.39,-0.00016519,-0.0050496,0.15597
28054,5.3914,4.1818,0.1,0.00045932,4590.1,0.00046316,4713.5,-0.00012987,257.61,-0.00016416,-0.0029374,0.16144
28055,5.3,4.4545,0.1,0.00046408,4637.6,0.00046765,4751.2,-0.00013326,236.17,-0.0001647,-0.010739,0.15535
28056,5.3914,4.3636,0.1,0.00046091,4605.9,0.00046448,4719.9,-0.00013213,237.2,-0.0001637,-0.0081009,0.16086
28057,5.3,4.6364,0.1,0.00046599,4656.6,0.00046923,4759,-0.00013594,211.98,-0.00016416,-0.01729,0.15464
28058,5.3914,4.5455,0.1,0.00046265,4623.3,0.00046593,4727,-0.00013461,214.77,-0.00016319,-0.014043,0.16019
28059,5.3,4.8182,0.1,0.00046803,4677.1,0.00047092,4767.4,-0.00013881,186.12,-0.00016358,-0.025072,0.15384
28060,5.3914,4.7273,0.1,0.00046455,4642.3,0.0004675,4734.7,-0.00013728,190.62,-0.00016265,-0.020827,0.15944
28061,5.3,5,0.1,0.00047021,4698.8,0.00047271,4776.2,-0.00014182,158.87,-0.00016297,-0.034067,0.15295
28062,5.3914,4.9091,0.1,0.00046657,4662.5,0.00046916,4742.8,-0.0001401,165.04,-0.00016207,-0.029099,0.15859
28063,5.3,5.1818,0.1,0.00047248,4721.6,0.00047457,4785.5,-0.00014496,130.54,-0.00016234,-0.047498,0.15196
28064,5.3914,5.0909,0.1,0.0004687,4683.8,0.0004709,4751.4,-0.00014306,138.33,-0.00016148,-0.03822,0.15765
28065,5.3,5.3636,0.1,0.00047484,4745.1,0.00047648,4795,-0.0001482,101.4,-0.0001617,-0.058926,0.15088
28066,5.3914,5.2727,0.1,0.00047091,4705.9,0.0004727,4760.3,-0.00014611,110.76,-0.00016086,-0.055095,0.15661
28067,5.3,5.5455,0.1,0.00047727,4769.4,0.00047845,4804.8,-0.00015149,71.64,-0.00016104,-0.12364,0.1497
28068,5.3914,5.4545,0.1,0.0004732,4728.7,0.00047455,4769.4,-0.00014923,82.581,-0.00016023,-0.061133,0.15548
28069,5.3,5.7273,0.1,0.00047976,4794.3,0.00048045,4814.8,-0.00015485,41.391,-0.00016038,-0.17096,0.14842
28070,5.3914,5.6364,0.1,0.00047554,4752.1,0.00047643,4778.8,-0.00015241,53.932,-0.00015961,-0.18242,0.15425
28071,5.3914,5.8182,0.1,0.00047795,4776.2,0.00047836,4788.5,-0.00015563,24.928,-0.00015897,-0.19208,0.15292
28072,5.3,5.9091,0.1,0.00048202,4816.9,0.00048225,4823.8,-0.00015789,13.964,-0.00015977,-0.17218,0.14704
28073,5.4828,0.27273,0.1,0.00047372,4734,0.00047435,4752.5,-0.00015319,37.413,-0.00015819,-0.15302,0.15885
28074,5.5741,0.18182,0.1,0.0004718,4714.7,0.00047217,4725.8,-0.00015381,22.37,-0.00015681,-0.1703,0.16351
28075,5.4828,0.090909,0.1,0.00047577,4754.4,0.00047598,4760.6,-0.00015594,12.579,-0.00015764,-0.15936,0.15747
28076,5.4828,0.45455,0.1,0.00047147,4711.4,0.00047254,4743.5,-0.00015015,64.854,-0.0001588,-0.11221,0.16014
28077,5.5741,0.36364,0.1,0.00046963,4693,0.00047043,4717.1,-0.0001509,48.574,-0.00015739,-0.16432,0.16484
28078,5.4828,0.63636,0.1,0.00046927,4689.5,0.00047077,4734.7,-0.00014715,91.928,-0.0001594,-0.054528,0.16132
28079,5.5741,0.54545,0.1,0.00046752,4671.9,0.00046874,4708.7,-0.00014803,74.536,-0.00015796,-0.056398,0.16607
28080,5.4828,0.81818,0.1,0.00046713,4668.1,0.00046903,4726.2,-0.00014421,118.53,-0.00015999,-0.044498,0.1624
28081,5.5741,0.72727,0.1,0.00046546,4651.3,0.00046708,4700.6,-0.0001452,100.17,-0.00015854,-0.051351,0.16721
28082,5.4828,1,0.1,0.00046506,4647.4,0.00046735,4718,-0.00014134,144.49,-0.00016058,-0.032495,0.16339
28083,5.5741,0.90909,0.1,0.00046345,4631.3,0.00046546,4692.7,-0.00014242,125.36,-0.00015911,-0.036374,0.16824
28084,5.4828,1.1818,0.1,0.00046309,4627.7,0.00046574,4710.1,-0.00013857,169.53,-0.00016114,-0.024362,0.16428
28085,5.5741,1.0909,0.1,0.00046152,4612.1,0.00046389,4685.1,-0.00013972,149.87,-0.00015967,-0.0282,0.16919
28086,5.4828,1.3636,0.1,0.00046122,4609,0.0004642,4702.6,-0.00013594,193.39,-0.00016168,-0.01723,0.16509
28087,5.5741,1.2727,0.1,0.00045969,4593.7,0.00046239,4677.9,-0.00013712,173.44,-0.00016021,-0.020673,0.17004
28088,5.4828,1.5455,0.1,0.00045948,4591.6,0.00046277,4695.7,-0.00013347,215.78,-0.00016219,-0.011137,0.1658
28089,5.5741,1.4545,0.1,0.00045796,4576.4,0.00046098,4671.2,-0.00013466,195.78,-0.00016072,-0.014395,0.1708
28090,5.4828,1.7273,0.1,0.00045788,4575.7,0.00046145,4689.3,-0.0001312,236.41,-0.00016266,-0.0057724,0.16643
28091,5.5741,1.6364,0.1,0.00045636,4560.5,0.00045966,4664.9,-0.00013237,216.61,-0.0001612,-0.0088088,0.17147
28092,5.4828,1.9091,0.1,0.00045646,4561.4,0.00046026,4683.6,-0.00012915,254.99,-0.00016309,-0.0010862,0.16697
28093,5.5741,1.8182,0.1,0.00045491,4546,0.00045846,4659.2,-0.00013028,235.64,-0.00016164,-0.0038827,0.17205
28094,5.4828,2.0909,0.1,0.00045522,4549,0.00045923,4678.6,-0.00012736,271.24,-0.00016346,0.0029473,0.16742
28095,5.5741,2,0.1,0.00045363,4533.2,0.0004574,4654.2,-0.00012842,252.57,-0.00016203,0.00043068,0.17255
28096,5.4828,2.2727,0.1,0.00045418,4538.7,0.00045836,4674.4,-0.00012585,284.91,-0.00016377,0.0063111,0.16779
28097,5.5741,2.1818,0.1,0.00045254,4522.2,0.00045649,4649.9,-0.00012682,267.14,-0.00016237,0.0041133,0.17296
28098,5.4828,2.4545,0.1,0.00045336,4530.4,0.00045766,4671.1,-0.00012465,295.78,-0.00016402,0.0089746,0.16808
28099,5.5741,2.3636,0.1,0.00045164,4513.3,0.00045574,4646.3,-0.00012551,279.11,-0.00016265,0.0071297,0.17329
28100,5.4828,2.6364,0.1,0.00045276,4524.5,0.00045716,4668.7,-0.00012378,303.68,-0.0001642,0.010906,0.16828
28101,5.5741,2.5455,0.1,0.00045095,4506.4,0.00045517,4643.7,-0.0001245,288.27,-0.00016286,0.0094373,0.17354
28102,5.4828,2.8182,0.1,0.0004524,4520.9,0.00045686,4667.2,-0.00012326,308.48,-0.00016431,0.012078,0.1684
28103,5.5741,2.7273,0.1,0.00045049,4501.8,0.00045478,4641.8,-0.00012382,294.48,-0.00016301,0.011001,0.1737
28104,5.4828,3,0.1,0.00045228,4519.7,0.00045676,4666.7,-0.00012308,310.09,-0.00016435,0.012471,0.16844
28105,5.5741,2.9091,0.1,0.00045026,4499.5,0.00045458,4640.9,-0.00012348,297.61,-0.00016308,0.011791,0.17378
28106,5.4828,3.1818,0.1,0.0004524,4520.9,0.00045686,4667.2,-0.00012326,308.48,-0.00016431,0.012078,0.1684
28107,5.5741,3.0909,0.1,0.00045026,4499.5,0.00045458,4640.9,-0.00012348,297.61,-0.00016308,0.011791,0.17378
28108,5.4828,3.3636,0.1,0.00045276,4524.5,0.00045716,4668.7,-0.00012378,303.68,-0.0001642,0.010906,0.16828
28109,5.5741,3.2727,0.1,0.00045049,4501.8,0.00045478,4641.8,-0.00012382,294.48,-0.00016301,0.011001,0.1737
28110,5.4828,3.5455,0.1,0.00045336,4530.4,0.00045766,4671.1,-0.00012465,295.78,-0.00016402,0.0089748,0.16808
28111,5.5741,3.4545,0.1,0.00045095,4506.4,0.00045517,4643.7,-0.0001245,288.27,-0.00016286,0.0094374,0.17354
28112,5.4828,3.7273,0.1,0.00045418,4538.7,0.00045836,4674.4,-0.00012585,284.91,-0.00016377,0.0063114,0.16779
28113,5.5741,3.6364,0.1,0.00045164,4513.3,0.00045574,4646.3,-0.00012551,279.11,-0.00016265,0.00713,0.17329
28114,5.4828,3.9091,0.1,0.00045522,4549,0.00045923,4678.6,-0.00012736,271.24,-0.00016346,0.0029477,0.16742
28115,5.5741,3.8182,0.1,0.00045254,4522.2,0.00045649,4649.9,-0.00012682,267.14,-0.00016237,0.0041136,0.17296
28116,5.4828,4.0909,0.1,0.00045646,4561.4,0.00046026,4683.6,-0.00012915,254.99,-0.00016309,-0.0010858,0.16697
28117,5.5741,4,0.1,0.00045363,4533.2,0.0004574,4654.2,-0.00012842,252.57,-0.00016203,0.00043109,0.17255
28118,5.4828,4.2727,0.1,0.00045788,4575.7,0.00046145,4689.3,-0.0001312,236.41,-0.00016266,-0.0057718,0.16643
28119,5.5741,4.1818,0.1,0.00045491,4546,0.00045846,4659.2,-0.00013028,235.64,-0.00016164,-0.0038822,0.17205
28120,5.4828,4.4545,0.1,0.00045948,4591.6,0.00046277,4695.7,-0.00013347,215.78,-0.00016219,-0.011136,0.1658
28121,5.5741,4.3636,0.1,0.00045636,4560.5,0.00045966,4664.9,-0.00013237,216.61,-0.0001612,-0.0088082,0.17147
28122,5.4828,4.6364,0.1,0.00046122,4609,0.0004642,4702.6,-0.00013594,193.39,-0.00016168,-0.017229,0.16509
28123,5.5741,4.5455,0.1,0.00045796,4576.4,0.00046098,4671.2,-0.00013466,195.78,-0.00016072,-0.014394,0.1708
28124,5.4828,4.8182,0.1,0.00046309,4627.7,0.00046574,4710.1,-0.00013857,169.53,-0.00016114,-0.024361,0.16428
28125,5.5741,4.7273,0.1,0.00045969,4593.7,0.00046239,4677.9,-0.00013712,173.44,-0.00016021,-0.020673,0.17004
28126,5.4828,5,0.1,0.00046506,4647.4,0.00046735,4718,-0.00014134,144.49,-0.00016058,-0.032494,0.16339
28127,5.5741,4.9091,0.1,0.00046152,4612.1,0.00046389,4685.1,-0.00013972,149.87,-0.00015967,-0.028199,0.16919
28128,5.4828,5.1818,0.1,0.00046713,4668.1,0.00046903,4726.2,-0.00014421,118.53,-0.00015999,-0.044497,0.1624
28129,5.5741,5.0909,0.1,0.00046345,4631.3,0.00046546,4692.7,-0.00014242,125.36,-0.00015911,-0.036373,0.16824
28130,5.4828,5.3636,0.1,0.00046927,4689.5,0.00047077,4734.7,-0.00014715,91.928,-0.0001594,-0.054528,0.16132
28131,5.5741,5.2727,0.1,0.00046546,4651.3,0.00046708,4700.6,-0.0001452,100.17,-0.00015854,-0.05135,0.16721
28132,5.4828,5.5455,0.1,0.00047147,4711.4,0.00047254,4743.5,-0.00015015,64.854,-0.0001588,-0.11221,0.16014
28133,5.5741,5.4545,0.1,0.00046752,4671.9,0.00046874,4708.7,-0.00014803,74.536,-0.00015796,-0.056398,0.16607
28134,5.4828,5.7273,0.1,0.00047372,4734,0.00047435,4752.5,-0.00015319,37.413,-0.00015819,-0.15302,0.15885
28135,5.5741,5.6364,0.1,0.00046963,4693,0.00047043,4717.1,-0.0001509,48.574,-0.00015739,-0.16432,0.16484
28136,5.5741,5.8182,0.1,0.0004718,4714.7,0.00047217,4725.8,-0.00015381,22.37,-0.00015681,-0.1703,0.16351
28137,5.4828,5.9091,0.1,0.00047577,4754.4,0.00047598,4760.6,-0.00015594,12.579,-0.00015764,-0.15936,0.15747
28138,5.6655,0.27273,0.1,0.0004677,4673.8,0.00046826,4690.3,-0.00015153,33.487,-0.00015601,-0.13662,0.1696
28139,5.7569,0.18182,0.1,0.00046566,4653.4,0.00046599,4663.2,-0.000152,19.806,-0.00015466,-0.15093,0.17442
28140,5.6655,0.090909,0.1,0.00046953,4692.1,0.00046972,4697.6,-0.000154,11.184,-0.00015551,-0.14736,0.16822
28141,5.6655,0.45455,0.1,0.00046567,4653.5,0.00046664,4682.3,-0.00014879,58.243,-0.00015656,-0.10169,0.17088
28142,5.7569,0.36364,0.1,0.00046372,4634,0.00046444,4655.4,-0.0001494,43.311,-0.00015518,-0.14732,0.17575
28143,5.6655,0.63636,0.1,0.0004637,4633.8,0.00046505,4674.6,-0.00014608,82.77,-0.00015711,-0.050761,0.17207
28144,5.7569,0.54545,0.1,0.00046183,4615.2,0.00046293,4648.1,-0.00014682,66.701,-0.0001557,-0.052341,0.17698
28145,5.6655,0.81818,0.1,0.00046178,4614.6,0.0004635,4667.1,-0.00014341,106.99,-0.00015766,-0.042052,0.17315
28146,5.7569,0.72727,0.1,0.00045999,4596.7,0.00046146,4641,-0.00014426,89.931,-0.00015623,-0.04822,0.17811
28147,5.6655,1,0.1,0.00045991,4595.9,0.000462,4659.9,-0.0001408,130.73,-0.0001582,-0.031402,0.17414
28148,5.7569,0.90909,0.1,0.0004582,4578.8,0.00046001,4634.2,-0.00014174,112.89,-0.00015677,-0.035066,0.17915
28149,5.6655,1.1818,0.1,0.00045812,4578.1,0.00046055,4653,-0.00013827,153.76,-0.00015874,-0.024068,0.17504
28150,5.7569,1.0909,0.1,0.00045646,4561.5,0.00045862,4627.7,-0.00013927,135.37,-0.00015729,-0.027779,0.1801
28151,5.6655,1.3636,0.1,0.00045643,4561.1,0.00045917,4646.5,-0.00013585,175.81,-0.00015925,-0.017521,0.17585
28152,5.7569,1.2727,0.1,0.00045481,4544.9,0.00045728,4621.4,-0.00013689,157.1,-0.0001578,-0.020936,0.18095
28153,5.6655,1.5455,0.1,0.00045485,4545.3,0.00045787,4640.4,-0.00013357,196.6,-0.00015973,-0.011822,0.17656
28154,5.7569,1.4545,0.1,0.00045324,4529.3,0.00045601,4615.6,-0.00013462,177.83,-0.00015829,-0.015099,0.18171
28155,5.6655,1.7273,0.1,0.00045339,4530.8,0.00045668,4634.8,-0.00013146,215.83,-0.00016018,-0.0067189,0.17719
28156,5.7569,1.6364,0.1,0.00045179,4514.8,0.00045483,4610.2,-0.0001325,197.26,-0.00015876,-0.0098025,0.18239
28157,5.6655,1.9091,0.1,0.00045209,4517.8,0.0004556,4629.8,-0.00012955,233.21,-0.00016059,-0.002194,0.17774
28158,5.7569,1.8182,0.1,0.00045047,4501.6,0.00045375,4605.3,-0.00013056,215.08,-0.00015918,-0.0050475,0.18297
28159,5.6655,2.0909,0.1,0.00045095,4506.4,0.00045466,4625.5,-0.00012788,248.47,-0.00016095,0.0017499,0.17819
28160,5.7569,2,0.1,0.0004493,4489.9,0.00045279,4601,-0.00012882,231.01,-0.00015957,-0.00082131,0.18347
28161,5.6655,2.2727,0.1,0.00044999,4496.8,0.00045387,4621.8,-0.00012647,261.34,-0.00016125,0.0050729,0.17856
28162,5.7569,2.1818,0.1,0.0004483,4479.9,0.00045196,4597.2,-0.00012732,244.76,-0.0001599,0.0028317,0.18389
28163,5.6655,2.4545,0.1,0.00044924,4489.3,0.00045324,4618.9,-0.00012535,271.6,-0.0001615,0.0077253,0.17885
28164,5.7569,2.3636,0.1,0.00044747,4471.6,0.00045128,4594.2,-0.00012609,256.09,-0.00016017,0.0058531,0.18422
28165,5.6655,2.6364,0.1,0.00044869,4483.8,0.00045278,4616.8,-0.00012453,279.07,-0.00016167,0.0096601,0.17906
28166,5.7569,2.5455,0.1,0.00044684,4465.4,0.00045076,4591.9,-0.00012514,264.79,-0.00016038,0.0081816,0.18447
28167,5.6655,2.8182,0.1,0.00044835,4480.4,0.0004525,4615.5,-0.00012404,283.61,-0.00016178,0.010839,0.17918
28168,5.7569,2.7273,0.1,0.00044642,4461.1,0.00045041,4590.3,-0.0001245,270.68,-0.00016052,0.0097674,0.18463
28169,5.6655,3,0.1,0.00044824,4479.3,0.00045241,4615.1,-0.00012387,285.13,-0.00016182,0.011235,0.17922
28170,5.7569,2.9091,0.1,0.0004462,4459,0.00045023,4589.5,-0.00012417,273.66,-0.00016059,0.010571,0.18471
28171,5.6655,3.1818,0.1,0.00044835,4480.4,0.0004525,4615.5,-0.00012404,283.61,-0.00016178,0.010839,0.17918
28172,5.7569,3.0909,0.1,0.0004462,4459,0.00045023,4589.5,-0.00012417,273.66,-0.00016059,0.010571,0.18471
28173,5.6655,3.3636,0.1,0.00044869,4483.8,0.00045278,4616.8,-0.00012453,279.07,-0.00016167,0.0096603,0.17906
28174,5.7569,3.2727,0.1,0.00044642,4461.1,0.00045041,4590.3,-0.0001245,270.68,-0.00016052,0.0097675,0.18463
28175,5.6655,3.5455,0.1,0.00044924,4489.3,0.00045324,4618.9,-0.00012535,271.6,-0.0001615,0.0077256,0.17885
28176,5.7569,3.4545,0.1,0.00044684,4465.4,0.00045076,4591.9,-0.00012514,264.79,-0.00016038,0.0081818,0.18447
28177,5.6655,3.7273,0.1,0.00044999,4496.8,0.00045387,4621.8,-0.00012647,261.34,-0.00016125,0.0050731,0.17856
28178,5.7569,3.6364,0.1,0.00044747,4471.6,0.00045128,4594.2,-0.00012609,256.09,-0.00016017,0.0058534,0.18422
28179,5.6655,3.9091,0.1,0.00045095,4506.4,0.00045466,4625.5,-0.00012788,248.47,-0.00016095,0.0017502,0.17819
28180,5.7569,3.8182,0.1,0.0004483,4479.9,0.00045196,4597.2,-0.00012732,244.76,-0.0001599,0.0028321,0.18389
28181,5.6655,4.0909,0.1,0.00045209,4517.8,0.0004556,4629.8,-0.00012955,233.21,-0.00016059,-0.0021935,0.17774
28182,5.7569,4,0.1,0.0004493,4489.9,0.00045279,4601,-0.00012882,231.01,-0.00015957,-0.00082092,0.18347
28183,5.6655,4.2727,0.1,0.00045339,4530.8,0.00045668,4634.8,-0.00013146,215.83,-0.00016018,-0.0067182,0.17719
28184,5.7569,4.1818,0.1,0.00045047,4501.6,0.00045375,4605.3,-0.00013056,215.08,-0.00015918,-0.005047,0.18297
28185,5.6655,4.4545,0.1,0.00045485,4545.3,0.00045787,4640.4,-0.00013357,196.6,-0.00015973,-0.011821,0.17656
28186,5.7569,4.3636,0.1,0.00045179,4514.8,0.00045483,4610.2,-0.0001325,197.26,-0.00015876,-0.0098019,0.18239
28187,5.6655,4.6364,0.1,0.00045643,4561.1,0.00045917,4646.5,-0.00013585,175.81,-0.00015925,-0.01752,0.17585
28188,5.7569,4.5455,0.1,0.00045324,4529.3,0.00045601,4615.6,-0.00013462,177.83,-0.00015829,-0.015098,0.18171
28189,5.6655,4.8182,0.1,0.00045812,4578.1,0.00046055,4653,-0.00013827,153.76,-0.00015874,-0.024067,0.17504
28190,5.7569,4.7273,0.1,0.00045481,4544.9,0.00045728,4621.4,-0.00013689,157.1,-0.0001578,-0.020936,0.18095
28191,5.6655,5,0.1,0.00045991,4595.9,0.000462,4659.9,-0.0001408,130.73,-0.0001582,-0.031401,0.17414
28192,5.7569,4.9091,0.1,0.00045646,4561.5,0.00045862,4627.7,-0.00013927,135.37,-0.00015729,-0.027778,0.1801
28193,5.6655,5.1818,0.1,0.00046178,4614.6,0.0004635,4667.1,-0.00014341,106.99,-0.00015766,-0.042051,0.17315
28194,5.7569,5.0909,0.1,0.0004582,4578.8,0.00046001,4634.2,-0.00014174,112.89,-0.00015677,-0.035064,0.17915
28195,5.6655,5.3636,0.1,0.0004637,4633.8,0.00046505,4674.6,-0.00014608,82.77,-0.00015711,-0.050761,0.17207
28196,5.7569,5.2727,0.1,0.00045999,4596.7,0.00046146,4641,-0.00014426,89.931,-0.00015623,-0.04822,0.17811
28197,5.6655,5.5455,0.1,0.00046567,4653.5,0.00046664,4682.3,-0.00014879,58.243,-0.00015656,-0.10169,0.17088
28198,5.7569,5.4545,0.1,0.00046183,4615.2,0.00046293,4648.1,-0.00014682,66.701,-0.0001557,-0.05234,0.17698
28199,5.6655,5.7273,0.1,0.0004677,4673.8,0.00046826,4690.3,-0.00015153,33.487,-0.00015601,-0.13662,0.1696
28200,5.7569,5.6364,0.1,0.00046372,4634,0.00046444,4655.4,-0.0001494,43.311,-0.00015518,-0.14732,0.17575
28201,5.7569,5.8182,0.1,0.00046566,4653.4,0.00046599,4663.2,-0.000152,19.806,-0.00015466,-0.15093,0.17442
28202,5.6655,5.9091,0.1,0.00046953,4692.1,0.00046972,4697.6,-0.000154,11.184,-0.00015551,-0.14736,0.16822
28203,5.8483,0.27273,0.1,0.00046167,4613.6,0.00046217,4628.2,-0.00014987,29.597,-0.00015383,-0.1215,0.18066
28204,5.9397,0.18182,0.1,0.00045951,4591.9,0.0004598,4600.5,-0.00015019,17.233,-0.0001525,-0.13346,0.18563
28205,5.8483,0.090909,0.1,0.00046329,4629.7,0.00046346,4634.5,-0.00015206,9.7806,-0.00015338,-0.13604,0.17928
28206,5.8483,0.45455,0.1,0.00045988,4595.6,0.00046073,4621.2,-0.00014742,51.76,-0.00015432,-0.091977,0.18194
28207,5.9397,0.36364,0.1,0.0004578,4574.9,0.00045844,4593.7,-0.00014788,38.106,-0.00015297,-0.13125,0.18696
28208,5.8483,0.63636,0.1,0.00045813,4578.1,0.00045934,4614.5,-0.00014499,73.853,-0.00015483,-0.047634,0.18312
28209,5.9397,0.54545,0.1,0.00045614,4558.3,0.00045712,4587.5,-0.00014558,59.012,-0.00015345,-0.048981,0.18819
28210,5.8483,0.81818,0.1,0.00045641,4561,0.00045797,4608.1,-0.00014258,95.822,-0.00015534,-0.040195,0.18421
28211,5.9397,0.72727,0.1,0.00045452,4542.1,0.00045583,4581.5,-0.00014329,79.946,-0.00015394,-0.045749,0.18933
28212,5.8483,1,0.1,0.00045475,4544.4,0.00045663,4602,-0.00014021,117.51,-0.00015585,-0.030841,0.1852
28213,5.9397,0.90909,0.1,0.00045293,4526.2,0.00045456,4575.7,-0.00014101,100.81,-0.00015444,-0.034369,0.19037
28214,5.8483,1.1818,0.1,0.00045315,4528.4,0.00045535,4596.1,-0.0001379,138.7,-0.00015636,-0.024251,0.1861
28215,5.9397,1.0909,0.1,0.00045139,4510.8,0.00045334,4570.3,-0.00013877,121.41,-0.00015494,-0.027924,0.19131
28216,5.8483,1.3636,0.1,0.00045162,4513.1,0.00045412,4590.6,-0.00013567,159.11,-0.00015685,-0.018228,0.18691
28217,5.9397,1.2727,0.1,0.00044992,4496.1,0.00045216,4565.1,-0.00013659,141.5,-0.00015543,-0.021708,0.19217
28218,5.8483,1.5455,0.1,0.00045019,4498.8,0.00045296,4585.4,-0.00013356,178.48,-0.00015732,-0.012856,0.18763
28219,5.9397,1.4545,0.1,0.00044851,4482.1,0.00045103,4560.3,-0.0001345,160.79,-0.0001559,-0.016248,0.19293
28220,5.8483,1.7273,0.1,0.00044888,4485.7,0.0004519,4580.7,-0.0001316,196.5,-0.00015776,-0.0079461,0.18826
28221,5.9397,1.6364,0.1,0.00044721,4469,0.00044998,4555.8,-0.00013253,178.99,-0.00015636,-0.011169,0.19361
28222,5.8483,1.9091,0.1,0.00044769,4473.8,0.00045093,4576.4,-0.00012983,212.87,-0.00015816,-0.0035135,0.18881
28223,5.9397,1.8182,0.1,0.00044601,4457.1,0.00044902,4551.7,-0.00013072,195.8,-0.00015678,-0.0065103,0.19419
28224,5.8483,2.0909,0.1,0.00044665,4463.4,0.00045008,4572.7,-0.00012826,227.3,-0.00015851,0.00040679,0.18927
28225,5.9397,2,0.1,0.00044495,4446.4,0.00044816,4548.1,-0.00012909,210.89,-0.00015716,-0.0022966,0.1947
28226,5.8483,2.2727,0.1,0.00044578,4454.7,0.00044937,4569.6,-0.00012693,239.51,-0.00015881,0.0037488,0.18964
28227,5.9397,2.1818,0.1,0.00044403,4437.3,0.00044742,4545,-0.00012768,223.99,-0.00015749,0.0013969,0.19511
28228,5.8483,2.4545,0.1,0.00044508,4447.7,0.0004488,4567.1,-0.00012587,249.28,-0.00015905,0.0064404,0.18993
28229,5.9397,2.3636,0.1,0.00044328,4429.8,0.00044681,4542.5,-0.00012651,234.82,-0.00015776,0.0044851,0.19544
28230,5.8483,2.6364,0.1,0.00044458,4442.7,0.00044838,4565.3,-0.0001251,256.4,-0.00015923,0.0084165,0.19013
28231,5.9397,2.5455,0.1,0.0004427,4424,0.00044634,4540.6,-0.00012561,243.15,-0.00015797,0.0068842,0.19569
28232,5.8483,2.8182,0.1,0.00044427,4439.6,0.00044813,4564.3,-0.00012463,260.74,-0.00015933,0.0096254,0.19026
28233,5.9397,2.7273,0.1,0.00044231,4420.1,0.00044602,4539.2,-0.000125,248.81,-0.00015811,0.0085273,0.19586
28234,5.8483,3,0.1,0.00044417,4438.6,0.00044805,4563.9,-0.00012448,262.19,-0.00015937,0.010032,0.1903
28235,5.9397,2.9091,0.1,0.00044212,4418.1,0.00044586,4538.6,-0.00012469,251.67,-0.00015819,0.0093623,0.19594
28236,5.8483,3.1818,0.1,0.00044427,4439.6,0.00044813,4564.3,-0.00012463,260.74,-0.00015933,0.0096254,0.19026
28237,5.9397,3.0909,0.1,0.00044212,4418.1,0.00044586,4538.6,-0.00012469,251.67,-0.00015819,0.0093624,0.19594
28238,5.8483,3.3636,0.1,0.00044458,4442.7,0.00044838,4565.3,-0.0001251,256.4,-0.00015923,0.0084166,0.19013
28239,5.9397,3.2727,0.1,0.00044231,4420.1,0.00044602,4539.2,-0.000125,248.81,-0.00015811,0.0085273,0.19586
28240,5.8483,3.5455,0.1,0.00044508,4447.7,0.0004488,4567.1,-0.00012587,249.28,-0.00015905,0.0064406,0.18993
28241,5.9397,3.4545,0.1,0.0004427,4424,0.00044634,4540.6,-0.00012561,243.15,-0.00015797,0.0068844,0.19569
28242,5.8483,3.7273,0.1,0.00044578,4454.7,0.00044937,4569.6,-0.00012693,239.51,-0.00015881,0.0037492,0.18964
28243,5.9397,3.6364,0.1,0.00044328,4429.8,0.00044681,4542.5,-0.00012651,234.82,-0.00015776,0.0044853,0.19544
28244,5.8483,3.9091,0.1,0.00044665,4463.4,0.00045008,4572.7,-0.00012826,227.3,-0.00015851,0.00040721,0.18927
28245,5.9397,3.8182,0.1,0.00044403,4437.3,0.00044742,4545,-0.00012768,223.99,-0.00015749,0.0013973,0.19511
28246,5.8483,4.0909,0.1,0.00044769,4473.8,0.00045093,4576.4,-0.00012983,212.87,-0.00015816,-0.0035131,0.18881
28247,5.9397,4,0.1,0.00044495,4446.4,0.00044816,4548.1,-0.00012909,210.89,-0.00015716,-0.0022962,0.1947
28248,5.8483,4.2727,0.1,0.00044888,4485.7,0.0004519,4580.7,-0.0001316,196.5,-0.00015776,-0.0079456,0.18826
28249,5.9397,4.1818,0.1,0.00044601,4457.1,0.00044902,4551.7,-0.00013072,195.8,-0.00015678,-0.0065098,0.19419
28250,5.8483,4.4545,0.1,0.00045019,4498.8,0.00045296,4585.4,-0.00013356,178.48,-0.00015732,-0.012856,0.18763
28251,5.9397,4.3636,0.1,0.00044721,4469,0.00044998,4555.8,-0.00013253,178.99,-0.00015636,-0.011168,0.19361
28252,5.8483,4.6364,0.1,0.00045162,4513.1,0.00045412,4590.6,-0.00013567,159.11,-0.00015685,-0.018227,0.18691
28253,5.9397,4.5455,0.1,0.00044851,4482.1,0.00045103,4560.3,-0.0001345,160.79,-0.0001559,-0.016247,0.19293
28254,5.8483,4.8182,0.1,0.00045315,4528.4,0.00045535,4596.1,-0.0001379,138.7,-0.00015636,-0.024251,0.1861
28255,5.9397,4.7273,0.1,0.00044992,4496.1,0.00045216,4565.1,-0.00013659,141.5,-0.00015543,-0.021708,0.19217
28256,5.8483,5,0.1,0.00045475,4544.4,0.00045663,4602,-0.00014021,117.51,-0.00015585,-0.03084,0.1852
28257,5.9397,4.9091,0.1,0.00045139,4510.8,0.00045334,4570.3,-0.00013877,121.41,-0.00015494,-0.027923,0.19131
28258,5.8483,5.1818,0.1,0.00045641,4561,0.00045797,4608.1,-0.00014258,95.822,-0.00015534,-0.040194,0.18421
28259,5.9397,5.0909,0.1,0.00045293,4526.2,0.00045456,4575.7,-0.00014101,100.81,-0.00015444,-0.034367,0.19037
28260,5.8483,5.3636,0.1,0.00045813,4578.1,0.00045934,4614.5,-0.00014499,73.853,-0.00015483,-0.047634,0.18312
28261,5.9397,5.2727,0.1,0.00045452,4542.1,0.00045583,4581.5,-0.00014329,79.946,-0.00015394,-0.045748,0.18933
28262,5.8483,5.5455,0.1,0.00045988,4595.6,0.00046073,4621.2,-0.00014742,51.76,-0.00015432,-0.091976,0.18194
28263,5.9397,5.4545,0.1,0.00045614,4558.3,0.00045712,4587.5,-0.00014558,59.012,-0.00015345,-0.048981,0.18819
28264,5.8483,5.7273,0.1,0.00046167,4613.6,0.00046217,4628.2,-0.00014987,29.597,-0.00015383,-0.1215,0.18066
28265,5.9397,5.6364,0.1,0.0004578,4574.9,0.00045844,4593.7,-0.00014788,38.106,-0.00015297,-0.13125,0.18696
28266,5.9397,5.8182,0.1,0.00045951,4591.9,0.0004598,4600.5,-0.00015019,17.233,-0.0001525,-0.13346,0.18563
28267,5.8483,5.9091,0.1,0.00046329,4629.7,0.00046346,4634.5,-0.00015206,9.7806,-0.00015338,-0.13604,0.17928
28268,6.031,0.27273,0.1,0.00045563,4553.2,0.00045606,4565.9,-0.0001482,25.719,-0.00015164,-0.10747,0.19203
28269,6.1224,0.18182,0.1,0.00045334,4530.3,0.00045358,4537.5,-0.00014837,14.641,-0.00015034,-0.11745,0.19715
28270,6.031,0.090909,0.1,0.00045704,4567.2,0.00045718,4571.3,-0.00015012,8.3666,-0.00015125,-0.12533,0.19065
28271,6.031,0.45455,0.1,0.00045407,4537.5,0.00045482,4560,-0.00014604,45.353,-0.00015209,-0.083038,0.19331
28272,6.1224,0.36364,0.1,0.00045186,4515.5,0.00045241,4531.8,-0.00014636,32.916,-0.00015075,-0.11596,0.19848
28273,6.031,0.63636,0.1,0.00045254,4522.2,0.00045361,4554.4,-0.00014388,65.1,-0.00015255,-0.04521,0.19449
28274,6.1224,0.54545,0.1,0.00045043,4501.2,0.00045128,4526.7,-0.00014434,51.399,-0.00015119,-0.046365,0.19971
28275,6.031,0.81818,0.1,0.00045104,4507.3,0.00045242,4549.1,-0.00014172,84.932,-0.00015303,-0.039016,0.19558
28276,6.1224,0.72727,0.1,0.00044903,4487.2,0.00045018,4521.8,-0.0001423,70.128,-0.00015164,-0.044013,0.20084
28277,6.031,1,0.1,0.00044958,4492.7,0.00045126,4544.1,-0.00013958,104.71,-0.00015352,-0.030923,0.19657
28278,6.1224,0.90909,0.1,0.00044765,4473.4,0.0004491,4517.3,-0.00014026,89.021,-0.00015212,-0.034392,0.20188
28279,6.031,1.1818,0.1,0.00044816,4478.5,0.00045014,4539.3,-0.00013747,124.2,-0.000154,-0.025032,0.19747
28280,6.1224,1.0909,0.1,0.00044631,4460,0.00044805,4513,-0.00013823,107.89,-0.0001526,-0.028756,0.20283
28281,6.031,1.3636,0.1,0.00044681,4465,0.00044907,4534.8,-0.00013543,143.16,-0.00015448,-0.019474,0.19828
28282,6.1224,1.2727,0.1,0.00044501,4447,0.00044703,4508.9,-0.00013624,126.48,-0.00015308,-0.023117,0.20369
28283,6.031,1.5455,0.1,0.00044553,4452.2,0.00044805,4530.7,-0.00013347,161.29,-0.00015494,-0.014359,0.199
28284,6.1224,1.4545,0.1,0.00044377,4434.7,0.00044606,4505.2,-0.00013431,144.51,-0.00015355,-0.017965,0.20445
28285,6.031,1.7273,0.1,0.00044435,4440.4,0.00044711,4526.8,-0.00013165,178.29,-0.00015538,-0.0095634,0.19964
28286,6.1224,1.6364,0.1,0.00044261,4423.1,0.00044514,4501.7,-0.00013248,161.68,-0.000154,-0.013023,0.20513
28287,6.031,1.9091,0.1,0.00044328,4429.7,0.00044625,4523.4,-0.00012998,193.82,-0.00015578,-0.0051419,0.20018
28288,6.1224,1.8182,0.1,0.00044154,4412.4,0.0004443,4498.5,-0.00013078,177.65,-0.00015442,-0.0083718,0.20572
28289,6.031,2.0909,0.1,0.00044233,4420.3,0.0004455,4520.4,-0.0001285,207.58,-0.00015613,-0.0011656,0.20064
28290,6.1224,2,0.1,0.00044059,4402.8,0.00044354,4495.7,-0.00012924,192.09,-0.00015481,-0.0040797,0.20622
28291,6.031,2.2727,0.1,0.00044154,4412.4,0.00044486,4517.9,-0.00012725,219.29,-0.00015644,0.0022683,0.20101
28292,6.1224,2.1818,0.1,0.00043976,4394.6,0.00044289,4493.3,-0.0001279,204.69,-0.00015514,-0.00025849,0.20664
28293,6.031,2.4545,0.1,0.00044091,4406,0.00044435,4515.9,-0.00012624,228.69,-0.00015668,0.0050609,0.2013
28294,6.1224,2.3636,0.1,0.00043908,4387.8,0.00044234,4491.4,-0.00012679,215.15,-0.00015542,0.0029739,0.20697
28295,6.031,2.6364,0.1,0.00044044,4401.4,0.00044398,4514.5,-0.00012551,235.56,-0.00015686,0.0071255,0.20151
28296,6.1224,2.5455,0.1,0.00043855,4382.5,0.00044193,4489.9,-0.00012593,223.23,-0.00015564,0.0055066,0.20722
28297,6.031,2.8182,0.1,0.00044016,4398.6,0.00044375,4513.6,-0.00012506,239.74,-0.00015697,0.0083942,0.20164
28298,6.1224,2.7273,0.1,0.0004382,4379,0.00044164,4488.8,-0.00012535,228.73,-0.00015579,0.0072511,0.20738
28299,6.031,3,0.1,0.00044007,4397.7,0.00044368,4513.3,-0.00012491,241.15,-0.000157,0.0088222,0.20168
28300,6.1224,2.9091,0.1,0.00043802,4377.2,0.0004415,4488.3,-0.00012505,231.52,-0.00015586,0.0081407,0.20747
28301,6.031,3.1818,0.1,0.00044016,4398.6,0.00044375,4513.6,-0.00012506,239.74,-0.00015697,0.0083942,0.20164
28302,6.1224,3.0909,0.1,0.00043802,4377.2,0.0004415,4488.3,-0.00012505,231.52,-0.00015586,0.0081408,0.20747
28303,6.031,3.3636,0.1,0.00044044,4401.4,0.00044398,4514.5,-0.00012551,235.56,-0.00015686,0.0071257,0.20151
28304,6.1224,3.2727,0.1,0.0004382,4379,0.00044164,4488.8,-0.00012535,228.73,-0.00015579,0.0072512,0.20738
28305,6.031,3.5455,0.1,0.00044091,4406,0.00044435,4515.9,-0.00012624,228.69,-0.00015668,0.0050611,0.2013
28306,6.1224,3.4545,0.1,0.00043855,4382.5,0.00044193,4489.9,-0.00012593,223.23,-0.00015564,0.0055067,0.20722
28307,6.031,3.7273,0.1,0.00044154,4412.4,0.00044486,4517.9,-0.00012725,219.29,-0.00015644,0.0022685,0.20101
28308,6.1224,3.6364,0.1,0.00043908,4387.8,0.00044234,4491.4,-0.00012679,215.15,-0.00015542,0.0029741,0.20697
28309,6.031,3.9091,0.1,0.00044233,4420.3,0.0004455,4520.4,-0.0001285,207.58,-0.00015613,-0.0011652,0.20064
28310,6.1224,3.8182,0.1,0.00043976,4394.6,0.00044289,4493.3,-0.0001279,204.69,-0.00015514,-0.00025809,0.20664
28311,6.031,4.0909,0.1,0.00044328,4429.7,0.00044625,4523.4,-0.00012998,193.82,-0.00015578,-0.0051413,0.20018
28312,6.1224,4,0.1,0.00044059,4402.8,0.00044354,4495.7,-0.00012924,192.09,-0.00015481,-0.0040792,0.20622
28313,6.031,4.2727,0.1,0.00044435,4440.4,0.00044711,4526.8,-0.00013165,178.29,-0.00015538,-0.0095628,0.19964
28314,6.1224,4.1818,0.1,0.00044154,4412.4,0.0004443,4498.5,-0.00013078,177.65,-0.00015442,-0.0083712,0.20572
28315,6.031,4.4545,0.1,0.00044553,4452.2,0.00044805,4530.7,-0.00013347,161.29,-0.00015494,-0.014358,0.199
28316,6.1224,4.3636,0.1,0.00044261,4423.1,0.00044514,4501.7,-0.00013248,161.68,-0.000154,-0.013023,0.20513
28317,6.031,4.6364,0.1,0.00044681,4465,0.00044907,4534.8,-0.00013543,143.16,-0.00015448,-0.019473,0.19828
28318,6.1224,4.5455,0.1,0.00044377,4434.7,0.00044606,4505.2,-0.00013431,144.51,-0.00015355,-0.017964,0.20445
28319,6.031,4.8182,0.1,0.00044816,4478.5,0.00045014,4539.3,-0.00013747,124.2,-0.000154,-0.025031,0.19747
28320,6.1224,4.7273,0.1,0.00044501,4447,0.00044703,4508.9,-0.00013624,126.48,-0.00015308,-0.023117,0.20369
28321,6.031,5,0.1,0.00044958,4492.7,0.00045126,4544.1,-0.00013958,104.71,-0.00015352,-0.030922,0.19657
28322,6.1224,4.9091,0.1,0.00044631,4460,0.00044805,4513,-0.00013823,107.89,-0.0001526,-0.028755,0.20283
28323,6.031,5.1818,0.1,0.00045104,4507.3,0.00045242,4549.1,-0.00014172,84.932,-0.00015303,-0.039014,0.19558
28324,6.1224,5.0909,0.1,0.00044765,4473.4,0.0004491,4517.3,-0.00014026,89.021,-0.00015212,-0.03439,0.20188
28325,6.031,5.3636,0.1,0.00045254,4522.2,0.00045361,4554.4,-0.00014388,65.1,-0.00015255,-0.04521,0.19449
28326,6.1224,5.2727,0.1,0.00044903,4487.2,0.00045018,4521.8,-0.0001423,70.128,-0.00015164,-0.044012,0.20084
28327,6.031,5.5455,0.1,0.00045407,4537.5,0.00045482,4560,-0.00014604,45.353,-0.00015209,-0.083037,0.19331
28328,6.1224,5.4545,0.1,0.00045043,4501.2,0.00045128,4526.7,-0.00014434,51.399,-0.00015119,-0.046364,0.19971
28329,6.031,5.7273,0.1,0.00045563,4553.2,0.00045606,4565.9,-0.0001482,25.719,-0.00015164,-0.10747,0.19203
28330,6.1224,5.6364,0.1,0.00045186,4515.5,0.00045241,4531.8,-0.00014636,32.916,-0.00015075,-0.11596,0.19848
28331,6.1224,5.8182,0.1,0.00045334,4530.3,0.00045358,4537.5,-0.00014837,14.641,-0.00015034,-0.11745,0.19715
28332,6.031,5.9091,0.1,0.00045704,4567.2,0.00045718,4571.3,-0.00015012,8.3666,-0.00015125,-0.12533,0.19065
28333,6.2138,0.27273,0.1,0.00044956,4492.5,0.00044993,4503.3,-0.00014653,21.825,-0.00014944,-0.094291,0.2037
28334,6.3052,0.18182,0.1,0.00044712,4468.1,0.00044732,4474.1,-0.00014654,12.016,-0.00014815,-0.10253,0.20898
28335,6.2138,0.090909,0.1,0.00045075,4504.4,0.00045086,4507.8,-0.00014816,6.9382,-0.0001491,-0.11508,0.20233
28336,6.2138,0.45455,0.1,0.00044823,4479.2,0.00044888,4498.5,-0.00014465,38.962,-0.00014985,-0.074816,0.20498
28337,6.3052,0.36364,0.1,0.00044588,4455.7,0.00044634,4469.5,-0.00014482,27.693,-0.00014852,-0.10131,0.2103
28338,6.2138,0.63636,0.1,0.00044692,4466.2,0.00044786,4494.1,-0.00014276,56.426,-0.00015027,-0.043554,0.20616
28339,6.3052,0.54545,0.1,0.00044469,4443.8,0.00044542,4465.5,-0.00014308,43.785,-0.00014891,-0.044588,0.21153
28340,6.2138,0.81818,0.1,0.00044564,4453.4,0.00044686,4490,-0.00014084,74.214,-0.00015073,-0.038614,0.20725
28341,6.3052,0.72727,0.1,0.00044351,4432.1,0.00044451,4461.9,-0.0001413,60.375,-0.00014934,-0.04315,0.21266
28342,6.2138,1,0.1,0.00044439,4440.8,0.00044588,4486.2,-0.00013892,92.196,-0.00015119,-0.031775,0.20824
28343,6.3052,0.90909,0.1,0.00044235,4420.5,0.00044362,4458.6,-0.00013949,77.394,-0.0001498,-0.035315,0.2137
28344,6.2138,1.1818,0.1,0.00044316,4428.6,0.00044493,4482.6,-0.000137,110.15,-0.00015167,-0.026545,0.20914
28345,6.3052,1.0909,0.1,0.00044121,4409.1,0.00044274,4455.6,-0.00013766,94.655,-0.00015027,-0.030472,0.21465
28346,6.2138,1.3636,0.1,0.00044198,4416.7,0.00044402,4479.3,-0.00013513,127.82,-0.00015214,-0.021391,0.20995
28347,6.3052,1.2727,0.1,0.0004401,4398,0.0004419,4452.8,-0.00013585,111.91,-0.00015074,-0.02536,0.2155
28348,6.2138,1.5455,0.1,0.00044086,4405.5,0.00044314,4476.2,-0.00013332,144.9,-0.0001526,-0.016454,0.21067
28349,6.3052,1.4545,0.1,0.00043903,4387.3,0.00044108,4450.3,-0.00013406,128.87,-0.00015122,-0.020437,0.21627
28350,6.2138,1.7273,0.1,0.00043981,4395.1,0.00044233,4473.4,-0.00013161,161.04,-0.00015304,-0.011679,0.21131
28351,6.3052,1.6364,0.1,0.00043802,4377.1,0.0004403,4447.9,-0.00013235,145.18,-0.00015168,-0.015532,0.21695
28352,6.2138,1.9091,0.1,0.00043886,4385.6,0.00044159,4470.9,-0.00013004,175.92,-0.00015345,-0.0071683,0.21185
28353,6.3052,1.8182,0.1,0.00043708,4367.8,0.00043959,4445.8,-0.00013075,160.5,-0.00015211,-0.010775,0.21754
28354,6.2138,2.0909,0.1,0.00043802,4377.1,0.00044093,4468.7,-0.00012863,189.2,-0.00015382,-0.0030359,0.21231
28355,6.3052,2,0.1,0.00043623,4359.3,0.00043894,4443.9,-0.00012929,174.47,-0.00015251,-0.0062862,0.21804
28356,6.2138,2.2727,0.1,0.0004373,4370,0.00044037,4466.8,-0.00012744,200.55,-0.00015413,0.00058287,0.21269
28357,6.3052,2.1818,0.1,0.00043549,4351.9,0.00043837,4442.3,-0.00012801,186.74,-0.00015286,-0.0022235,0.21846
28358,6.2138,2.4545,0.1,0.00043673,4364.3,0.00043992,4465.3,-0.00012647,209.7,-0.00015438,0.0035562,0.21298
28359,6.3052,2.3636,0.1,0.00043488,4345.8,0.0004379,4441,-0.00012694,196.98,-0.00015316,0.001255,0.21879
28360,6.2138,2.6364,0.1,0.00043631,4360.1,0.00043959,4464.3,-0.00012577,216.41,-0.00015457,0.0057702,0.21319
28361,6.3052,2.5455,0.1,0.00043441,4341.1,0.00043754,4440,-0.00012611,204.92,-0.00015339,0.0040041,0.21904
28362,6.2138,2.8182,0.1,0.00043606,4357.5,0.00043939,4463.6,-0.00012534,220.51,-0.00015468,0.0071368,0.21331
28363,6.3052,2.7273,0.1,0.00043409,4337.9,0.00043729,4439.3,-0.00012555,210.34,-0.00015354,0.0059086,0.21921
28364,6.2138,3,0.1,0.00043597,4356.7,0.00043932,4463.4,-0.00012519,221.89,-0.00015472,0.0075989,0.21335
28365,6.3052,2.9091,0.1,0.00043393,4336.3,0.00043716,4438.9,-0.00012526,213.09,-0.00015362,0.0068828,0.21929
28366,6.2138,3.1818,0.1,0.00043606,4357.5,0.00043939,4463.6,-0.00012534,220.51,-0.00015468,0.007137,0.21331
28367,6.3052,3.0909,0.1,0.00043393,4336.3,0.00043716,4438.9,-0.00012526,213.09,-0.00015362,0.0068829,0.21929
28368,6.2138,3.3636,0.1,0.00043631,4360.1,0.00043959,4464.3,-0.00012577,216.41,-0.00015457,0.0057703,0.21319
28369,6.3052,3.2727,0.1,0.00043409,4337.9,0.00043729,4439.3,-0.00012555,210.34,-0.00015354,0.0059086,0.21921
28370,6.2138,3.5455,0.1,0.00043673,4364.3,0.00043992,4465.3,-0.00012647,209.7,-0.00015438,0.0035564,0.21298
28371,6.3052,3.4545,0.1,0.00043441,4341.1,0.00043754,4440,-0.00012611,204.92,-0.00015339,0.0040043,0.21904
28372,6.2138,3.7273,0.1,0.0004373,4370,0.00044037,4466.8,-0.00012744,200.55,-0.00015413,0.00058318,0.21269
28373,6.3052,3.6364,0.1,0.00043488,4345.8,0.0004379,4441,-0.00012694,196.98,-0.00015316,0.0012552,0.21879
28374,6.2138,3.9091,0.1,0.00043802,4377.1,0.00044093,4468.7,-0.00012863,189.2,-0.00015382,-0.0030354,0.21231
28375,6.3052,3.8182,0.1,0.00043549,4351.9,0.00043837,4442.3,-0.00012801,186.74,-0.00015286,-0.0022231,0.21846
28376,6.2138,4.0909,0.1,0.00043886,4385.6,0.00044159,4470.9,-0.00013004,175.92,-0.00015345,-0.0071678,0.21185
28377,6.3052,4,0.1,0.00043623,4359.3,0.00043894,4443.9,-0.00012929,174.47,-0.00015251,-0.0062857,0.21804
28378,6.2138,4.2727,0.1,0.00043981,4395.1,0.00044233,4473.4,-0.00013161,161.04,-0.00015304,-0.011679,0.21131
28379,6.3052,4.1818,0.1,0.00043708,4367.8,0.00043959,4445.8,-0.00013075,160.5,-0.00015211,-0.010774,0.21754
28380,6.2138,4.4545,0.1,0.00044086,4405.5,0.00044314,4476.2,-0.00013332,144.9,-0.0001526,-0.016453,0.21067
28381,6.3052,4.3636,0.1,0.00043802,4377.1,0.0004403,4447.9,-0.00013235,145.18,-0.00015168,-0.015532,0.21695
28382,6.2138,4.6364,0.1,0.00044198,4416.7,0.00044402,4479.3,-0.00013513,127.82,-0.00015214,-0.02139,0.20995
28383,6.3052,4.5455,0.1,0.00043903,4387.3,0.00044108,4450.3,-0.00013406,128.87,-0.00015122,-0.020436,0.21627
28384,6.2138,4.8182,0.1,0.00044316,4428.6,0.00044493,4482.6,-0.000137,110.15,-0.00015167,-0.026544,0.20914
28385,6.3052,4.7273,0.1,0.0004401,4398,0.0004419,4452.8,-0.00013585,111.91,-0.00015074,-0.025359,0.2155
28386,6.2138,5,0.1,0.00044439,4440.8,0.00044588,4486.2,-0.00013892,92.196,-0.00015119,-0.031774,0.20824
28387,6.3052,4.9091,0.1,0.00044121,4409.1,0.00044274,4455.6,-0.00013766,94.655,-0.00015027,-0.030471,0.21465
28388,6.2138,5.1818,0.1,0.00044564,4453.4,0.00044686,4490,-0.00014084,74.214,-0.00015073,-0.038613,0.20725
28389,6.3052,5.0909,0.1,0.00044235,4420.5,0.00044362,4458.6,-0.00013949,77.394,-0.0001498,-0.035314,0.2137
28390,6.2138,5.3636,0.1,0.00044692,4466.2,0.00044786,4494.1,-0.00014276,56.426,-0.00015027,-0.043554,0.20616
28391,6.3052,5.2727,0.1,0.00044351,4432.1,0.00044451,4461.9,-0.0001413,60.375,-0.00014934,-0.043149,0.21266
28392,6.2138,5.5455,0.1,0.00044823,4479.2,0.00044888,4498.5,-0.00014465,38.962,-0.00014985,-0.074815,0.20498
28393,6.3052,5.4545,0.1,0.00044469,4443.8,0.00044542,4465.5,-0.00014308,43.785,-0.00014891,-0.044588,0.21153
28394,6.2138,5.7273,0.1,0.00044956,4492.5,0.00044993,4503.3,-0.00014653,21.825,-0.00014944,-0.09429,0.2037
28395,6.3052,5.6364,0.1,0.00044588,4455.7,0.00044634,4469.5,-0.00014482,27.693,-0.00014852,-0.10131,0.2103
28396,6.3052,5.8182,0.1,0.00044712,4468.1,0.00044732,4474.1,-0.00014654,12.016,-0.00014815,-0.10253,0.20898
28397,6.2138,5.9091,0.1,0.00045075,4504.4,0.00045086,4507.8,-0.00014816,6.9382,-0.0001491,-0.11508,0.20233
28398,6.3966,0.27273,0.1,0.00044343,4431.3,0.00044373,4440.2,-0.00014483,17.88,-0.00014722,-0.08183,0.21568
28399,6.4879,0.18182,0.1,0.00044083,4405.2,0.00044098,4409.8,-0.00014469,9.3412,-0.00014594,-0.088481,0.2211
28400,6.3966,0.090909,0.1,0.00044439,4440.9,0.00044448,4443.6,-0.00014619,5.4888,-0.00014693,-0.10522,0.21431
28401,6.3966,0.45455,0.1,0.00044234,4420.4,0.00044288,4436.5,-0.00014325,32.518,-0.00014759,-0.067345,0.21695
28402,6.4879,0.36364,0.1,0.00043984,4395.3,0.00044021,4406.4,-0.00014327,22.378,-0.00014626,-0.087269,0.22242
28403,6.3966,0.63636,0.1,0.00044127,4409.7,0.00044207,4433.4,-0.00014162,47.735,-0.00014798,-0.042849,0.21813
28404,6.4879,0.54545,0.1,0.00043889,4385.9,0.00043949,4403.8,-0.00014181,36.08,-0.00014662,-0.043904,0.22365
28405,6.3966,0.81818,0.1,0.00044022,4399.2,0.00044127,4430.6,-0.00013995,63.554,-0.00014841,-0.03922,0.21921
28406,6.4879,0.72727,0.1,0.00043795,4376.5,0.00043879,4401.6,-0.00014029,50.575,-0.00014703,-0.043476,0.22478
28407,6.3966,1,0.1,0.00043918,4388.7,0.00044048,4428.1,-0.00013824,79.851,-0.00014887,-0.033655,0.22021
28408,6.4879,0.90909,0.1,0.00043702,4367.2,0.0004381,4399.7,-0.0001387,65.803,-0.00014747,-0.037504,0.22582
28409,6.3966,1.1818,0.1,0.00043815,4378.5,0.00043971,4425.9,-0.00013651,96.409,-0.00014934,-0.029057,0.22111
28410,6.4879,1.0909,0.1,0.00043609,4357.9,0.00043742,4398.1,-0.00013707,81.58,-0.00014794,-0.033449,0.22676
28411,6.3966,1.3636,0.1,0.00043715,4368.5,0.00043896,4423.8,-0.00013478,112.95,-0.00014982,-0.024238,0.22192
28412,6.4879,1.2727,0.1,0.00043518,4348.8,0.00043676,4396.8,-0.00013542,97.649,-0.00014842,-0.028804,0.22762
28413,6.3966,1.5455,0.1,0.00043619,4358.9,0.00043824,4422,-0.0001331,129.14,-0.00015029,-0.019376,0.22264
28414,6.4879,1.4545,0.1,0.00043429,4339.9,0.00043611,4395.6,-0.00013378,113.69,-0.00014891,-0.024004,0.22838
28415,6.3966,1.7273,0.1,0.00043528,4349.8,0.00043756,4420.3,-0.0001315,144.64,-0.00015075,-0.014499,0.22327
28416,6.4879,1.6364,0.1,0.00043343,4331.3,0.00043548,4394.5,-0.00013218,129.34,-0.00014939,-0.018997,0.22906
28417,6.3966,1.9091,0.1,0.00043445,4341.5,0.00043694,4418.9,-0.00013001,159.05,-0.00015118,-0.0097646,0.22382
28418,6.4879,1.8182,0.1,0.00043263,4323.3,0.0004349,4393.6,-0.00013066,144.21,-0.00014985,-0.013974,0.22965
28419,6.3966,2.0909,0.1,0.00043371,4334.1,0.00043638,4417.6,-0.00012867,172.01,-0.00015156,-0.0053415,0.22428
28420,6.4879,2,0.1,0.0004319,4316,0.00043437,4392.8,-0.00012926,157.89,-0.00015028,-0.0091251,0.23015
28421,6.3966,2.2727,0.1,0.00043308,4327.8,0.0004359,4416.5,-0.00012752,183.16,-0.00015189,-0.0014125,0.22465
28422,6.4879,2.1818,0.1,0.00043126,4309.6,0.0004339,4392.1,-0.00012803,170,-0.00015065,-0.0046625,0.23057
28423,6.3966,2.4545,0.1,0.00043257,4322.7,0.00043552,4415.6,-0.00012658,192.2,-0.00015216,0.0018485,0.22495
28424,6.4879,2.3636,0.1,0.00043072,4304.2,0.0004335,4391.5,-0.00012699,180.17,-0.00015097,-0.00079697,0.2309
28425,6.3966,2.6364,0.1,0.0004322,4319,0.00043524,4415,-0.0001259,198.85,-0.00015236,0.0042938,0.22515
28426,6.4879,2.5455,0.1,0.00043031,4300.1,0.0004332,4391,-0.00012618,188.1,-0.00015122,0.0022829,0.23115
28427,6.3966,2.8182,0.1,0.00043197,4316.7,0.00043506,4414.6,-0.00012548,202.92,-0.00015248,0.0058096,0.22528
28428,6.4879,2.7273,0.1,0.00043002,4297.3,0.00043299,4390.7,-0.00012563,193.53,-0.00015139,0.0044273,0.23132
28429,6.3966,3,0.1,0.00043189,4315.9,0.000435,4414.5,-0.00012533,204.3,-0.00015252,0.006323,0.22532
28430,6.4879,2.9091,0.1,0.00042988,4295.8,0.00043288,4390.6,-0.00012535,196.29,-0.00015147,0.0055276,0.2314
28431,6.3966,3.1818,0.1,0.00043197,4316.7,0.00043506,4414.6,-0.00012548,202.92,-0.00015248,0.0058095,0.22528
28432,6.4879,3.0909,0.1,0.00042988,4295.8,0.00043288,4390.6,-0.00012535,196.29,-0.00015147,0.0055277,0.2314
28433,6.3966,3.3636,0.1,0.0004322,4319,0.00043524,4415,-0.0001259,198.85,-0.00015236,0.0042939,0.22515
28434,6.4879,3.2727,0.1,0.00043002,4297.3,0.00043299,4390.7,-0.00012563,193.53,-0.00015139,0.0044274,0.23132
28435,6.3966,3.5455,0.1,0.00043257,4322.7,0.00043552,4415.6,-0.00012658,192.2,-0.00015216,0.0018488,0.22495
28436,6.4879,3.4545,0.1,0.00043031,4300.1,0.0004332,4391,-0.00012618,188.1,-0.00015122,0.0022831,0.23115
28437,6.3966,3.7273,0.1,0.00043308,4327.8,0.0004359,4416.5,-0.00012752,183.16,-0.00015189,-0.0014122,0.22465
28438,6.4879,3.6364,0.1,0.00043072,4304.2,0.0004335,4391.5,-0.00012699,180.17,-0.00015097,-0.00079673,0.2309
28439,6.3966,3.9091,0.1,0.00043371,4334.1,0.00043638,4417.6,-0.00012867,172.01,-0.00015156,-0.005341,0.22428
28440,6.4879,3.8182,0.1,0.00043126,4309.6,0.0004339,4392.1,-0.00012803,170,-0.00015065,-0.004662,0.23057
28441,6.3966,4.0909,0.1,0.00043445,4341.5,0.00043694,4418.9,-0.00013001,159.05,-0.00015118,-0.009764,0.22382
28442,6.4879,4,0.1,0.0004319,4316,0.00043437,4392.8,-0.00012926,157.89,-0.00015028,-0.0091246,0.23015
28443,6.3966,4.2727,0.1,0.00043528,4349.8,0.00043756,4420.3,-0.0001315,144.64,-0.00015075,-0.014498,0.22327
28444,6.4879,4.1818,0.1,0.00043263,4323.3,0.0004349,4393.6,-0.00013066,144.21,-0.00014985,-0.013974,0.22965
28445,6.3966,4.4545,0.1,0.00043619,4358.9,0.00043824,4422,-0.0001331,129.14,-0.00015029,-0.019375,0.22264
28446,6.4879,4.3636,0.1,0.00043343,4331.3,0.00043548,4394.5,-0.00013218,129.34,-0.00014939,-0.018997,0.22906
28447,6.3966,4.6364,0.1,0.00043715,4368.5,0.00043896,4423.8,-0.00013478,112.95,-0.00014982,-0.024237,0.22192
28448,6.4879,4.5455,0.1,0.00043429,4339.9,0.00043611,4395.6,-0.00013378,113.69,-0.00014891,-0.024004,0.22838
28449,6.3966,4.8182,0.1,0.00043815,4378.5,0.00043971,4425.9,-0.00013651,96.409,-0.00014934,-0.029056,0.22111
28450,6.4879,4.7273,0.1,0.00043518,4348.8,0.00043676,4396.8,-0.00013542,97.649,-0.00014842,-0.028803,0.22762
28451,6.3966,5,0.1,0.00043918,4388.7,0.00044048,4428.1,-0.00013824,79.851,-0.00014887,-0.033654,0.22021
28452,6.4879,4.9091,0.1,0.00043609,4357.9,0.00043742,4398.1,-0.00013707,81.58,-0.00014794,-0.033448,0.22676
28453,6.3966,5.1818,0.1,0.00044022,4399.2,0.00044127,4430.6,-0.00013995,63.554,-0.00014841,-0.039219,0.21921
28454,6.4879,5.0909,0.1,0.00043702,4367.2,0.0004381,4399.7,-0.0001387,65.803,-0.00014747,-0.037503,0.22582
28455,6.3966,5.3636,0.1,0.00044127,4409.7,0.00044207,4433.4,-0.00014162,47.735,-0.00014798,-0.042848,0.21813
28456,6.4879,5.2727,0.1,0.00043795,4376.5,0.00043879,4401.6,-0.00014029,50.575,-0.00014703,-0.043475,0.22478
28457,6.3966,5.5455,0.1,0.00044234,4420.4,0.00044288,4436.5,-0.00014325,32.518,-0.00014759,-0.067344,0.21695
28458,6.4879,5.4545,0.1,0.00043889,4385.9,0.00043949,4403.8,-0.00014181,36.08,-0.00014662,-0.043904,0.22365
28459,6.3966,5.7273,0.1,0.00044343,4431.3,0.00044373,4440.2,-0.00014483,17.88,-0.00014722,-0.081829,0.21568
28460,6.4879,5.6364,0.1,0.00043984,4395.3,0.00044021,4406.4,-0.00014327,22.378,-0.00014626,-0.087268,0.22242
28461,6.4879,5.8182,0.1,0.00044083,4405.2,0.00044098,4409.8,-0.00014469,9.3412,-0.00014594,-0.08848,0.2211
28462,6.3966,5.9091,0.1,0.00044439,4440.9,0.00044448,4443.6,-0.00014619,5.4888,-0.00014693,-0.10522,0.21431
28463,6.5793,0.27273,0.1,0.00043722,4369.2,0.00043746,4376.1,-0.00014312,13.844,-0.00014497,-0.070082,0.22795
28464,6.6707,0.18182,0.1,0.00043443,4341.3,0.00043454,4344.5,-0.00014281,6.5926,-0.00014369,-0.07541,0.23352
28465,6.5793,0.090909,0.1,0.00043795,4376.4,0.00043801,4378.4,-0.00014418,4.009,-0.00014473,-0.095784,0.22658
28466,6.5793,0.45455,0.1,0.00043639,4360.8,0.00043682,4373.7,-0.00014183,25.946,-0.0001453,-0.06084,0.22922
28467,6.6707,0.36364,0.1,0.0004337,4334,0.00043398,4342.4,-0.0001417,16.906,-0.00014396,-0.074036,0.23484
28468,6.5793,0.63636,0.1,0.00043557,4352.7,0.00043622,4372,-0.00014048,38.924,-0.00014567,-0.043508,0.23039
28469,6.6707,0.54545,0.1,0.00043302,4327.2,0.00043349,4341.2,-0.00014054,28.188,-0.00014429,-0.044886,0.23606
28470,6.5793,0.81818,0.1,0.00043476,4344.6,0.00043563,4370.7,-0.00013905,52.826,-0.00014608,-0.041316,0.23148
28471,6.6707,0.72727,0.1,0.00043234,4320.4,0.00043302,4340.5,-0.00013927,40.607,-0.00014468,-0.045664,0.23719
28472,6.5793,1,0.1,0.00043394,4336.4,0.00043505,4369.8,-0.00013754,67.532,-0.00014654,-0.037077,0.23247
28473,6.6707,0.90909,0.1,0.00043165,4313.5,0.00043255,4340.3,-0.00013791,54.108,-0.00014512,-0.041686,0.23822
28474,6.5793,1.1818,0.1,0.00043312,4328.2,0.00043447,4369,-0.00013599,82.818,-0.00014702,-0.033071,0.23337
28475,6.6707,1.0909,0.1,0.00043095,4306.6,0.00043208,4340.4,-0.00013648,68.508,-0.0001456,-0.038399,0.23917
28476,6.5793,1.3636,0.1,0.00043232,4320.2,0.0004339,4368.5,-0.00013441,98.388,-0.00014751,-0.028482,0.23418
28477,6.6707,1.2727,0.1,0.00043025,4299.5,0.00043161,4340.7,-0.00013498,83.532,-0.0001461,-0.03411,0.24002
28478,6.5793,1.5455,0.1,0.00043153,4312.3,0.00043335,4368.1,-0.00013285,113.89,-0.00014801,-0.023544,0.2349
28479,6.6707,1.4545,0.1,0.00042955,4292.5,0.00043114,4341.1,-0.00013346,98.835,-0.00014662,-0.029251,0.24079
28480,6.5793,1.7273,0.1,0.00043077,4304.8,0.00043282,4367.8,-0.00013134,128.91,-0.00014849,-0.018382,0.23553
28481,6.6707,1.6364,0.1,0.00042886,4285.7,0.00043069,4341.5,-0.00013196,114.01,-0.00014714,-0.023915,0.24146
28482,6.5793,1.9091,0.1,0.00043007,4297.8,0.00043233,4367.5,-0.00012991,143.05,-0.00014895,-0.013228,0.23608
28483,6.6707,1.8182,0.1,0.00042821,4279.2,0.00043025,4342,-0.00013051,128.63,-0.00014763,-0.018379,0.24205
28484,6.5793,2.0909,0.1,0.00042944,4291.5,0.00043188,4367.3,-0.00012862,155.89,-0.00014937,-0.00832,0.23654
28485,6.6707,2,0.1,0.00042761,4273.1,0.00042985,4342.4,-0.00012917,142.22,-0.0001481,-0.012918,0.24256
28486,6.5793,2.2727,0.1,0.0004289,4286,0.0004315,4367.1,-0.0001275,167.01,-0.00014973,-0.0039024,0.23691
28487,6.6707,2.1818,0.1,0.00042707,4267.8,0.00042949,4342.8,-0.00012797,154.36,-0.00014851,-0.0078203,0.24297
28488,6.5793,2.4545,0.1,0.00042846,4281.6,0.00043118,4366.9,-0.00012659,176.08,-0.00015002,-0.00020208,0.2372
28489,6.6707,2.3636,0.1,0.00042662,4263.2,0.00042918,4343.2,-0.00012695,164.63,-0.00014886,-0.0033618,0.24331
28490,6.5793,2.6364,0.1,0.00042813,4278.4,0.00043095,4366.8,-0.00012591,182.78,-0.00015024,0.0025891,0.23741
28491,6.6707,2.5455,0.1,0.00042626,4259.7,0.00042894,4343.4,-0.00012615,172.67,-0.00014913,0.00021332,0.24356
28492,6.5793,2.8182,0.1,0.00042793,4276.4,0.00043081,4366.8,-0.0001255,186.9,-0.00015037,0.0043256,0.23754
28493,6.6707,2.7273,0.1,0.00042602,4257.3,0.00042877,4343.6,-0.0001256,178.2,-0.00014932,0.0027123,0.24372
28494,6.5793,3,0.1,0.00042787,4275.7,0.00043076,4366.7,-0.00012536,188.28,-0.00015042,0.0049152,0.23758
28495,6.6707,2.9091,0.1,0.0004259,4256,0.00042869,4343.6,-0.00012533,181.02,-0.00014942,0.0039975,0.2438
28496,6.5793,3.1818,0.1,0.00042793,4276.4,0.00043081,4366.8,-0.0001255,186.9,-0.00015037,0.0043259,0.23754
28497,6.6707,3.0909,0.1,0.0004259,4256,0.00042869,4343.6,-0.00012533,181.02,-0.00014942,0.0039976,0.2438
28498,6.5793,3.3636,0.1,0.00042813,4278.4,0.00043095,4366.8,-0.00012591,182.78,-0.00015024,0.0025893,0.23741
28499,6.6707,3.2727,0.1,0.00042602,4257.3,0.00042877,4343.6,-0.0001256,178.2,-0.00014932,0.0027125,0.24372
28500,6.5793,3.5455,0.1,0.00042846,4281.6,0.00043118,4366.9,-0.00012659,176.08,-0.00015002,-0.00020193,0.2372
28501,6.6707,3.4545,0.1,0.00042626,4259.7,0.00042894,4343.4,-0.00012615,172.67,-0.00014913,0.00021344,0.24356
28502,6.5793,3.7273,0.1,0.0004289,4286,0.0004315,4367.1,-0.0001275,167.01,-0.00014973,-0.003902,0.23691
28503,6.6707,3.6364,0.1,0.00042662,4263.2,0.00042918,4343.2,-0.00012695,164.63,-0.00014886,-0.0033615,0.24331
28504,6.5793,3.9091,0.1,0.00042944,4291.5,0.00043188,4367.3,-0.00012862,155.89,-0.00014937,-0.0083196,0.23654
28505,6.6707,3.8182,0.1,0.00042707,4267.8,0.00042949,4342.8,-0.00012797,154.36,-0.00014851,-0.0078199,0.24297
28506,6.5793,4.0909,0.1,0.00043007,4297.8,0.00043233,4367.5,-0.00012991,143.05,-0.00014895,-0.013227,0.23608
28507,6.6707,4,0.1,0.00042761,4273.1,0.00042985,4342.4,-0.00012917,142.22,-0.0001481,-0.012918,0.24256
28508,6.5793,4.2727,0.1,0.00043077,4304.8,0.00043282,4367.8,-0.00013134,128.91,-0.00014849,-0.018381,0.23553
28509,6.6707,4.1818,0.1,0.00042821,4279.2,0.00043025,4342,-0.00013051,128.63,-0.00014763,-0.018379,0.24205
28510,6.5793,4.4545,0.1,0.00043153,4312.3,0.00043335,4368.1,-0.00013285,113.89,-0.00014801,-0.023543,0.2349
28511,6.6707,4.3636,0.1,0.00042886,4285.7,0.00043069,4341.5,-0.00013196,114.01,-0.00014714,-0.023914,0.24146
28512,6.5793,4.6364,0.1,0.00043232,4320.2,0.0004339,4368.5,-0.00013441,98.388,-0.00014751,-0.028481,0.23418
28513,6.6707,4.5455,0.1,0.00042955,4292.5,0.00043114,4341.1,-0.00013346,98.835,-0.00014662,-0.02925,0.24079
28514,6.5793,4.8182,0.1,0.00043312,4328.2,0.00043447,4369,-0.00013599,82.818,-0.00014702,-0.03307,0.23337
28515,6.6707,4.7273,0.1,0.00043025,4299.5,0.00043161,4340.7,-0.00013498,83.532,-0.0001461,-0.034109,0.24002
28516,6.5793,5,0.1,0.00043394,4336.4,0.00043505,4369.8,-0.00013754,67.532,-0.00014654,-0.037076,0.23247
28517,6.6707,4.9091,0.1,0.00043095,4306.6,0.00043208,4340.4,-0.00013648,68.508,-0.0001456,-0.038398,0.23917
28518,6.5793,5.1818,0.1,0.00043476,4344.6,0.00043563,4370.7,-0.00013905,52.826,-0.00014608,-0.041315,0.23148
28519,6.6707,5.0909,0.1,0.00043165,4313.5,0.00043255,4340.3,-0.00013791,54.108,-0.00014512,-0.041685,0.23822
28520,6.5793,5.3636,0.1,0.00043557,4352.7,0.00043622,4372,-0.00014048,38.924,-0.00014567,-0.043507,0.23039
28521,6.6707,5.2727,0.1,0.00043234,4320.4,0.00043302,4340.5,-0.00013927,40.607,-0.00014468,-0.045663,0.23719
28522,6.5793,5.5455,0.1,0.00043639,4360.8,0.00043682,4373.7,-0.00014183,25.946,-0.0001453,-0.060839,0.22922
28523,6.6707,5.4545,0.1,0.00043302,4327.2,0.00043349,4341.2,-0.00014054,28.188,-0.00014429,-0.044886,0.23606
28524,6.5793,5.7273,0.1,0.00043722,4369.2,0.00043746,4376.1,-0.00014312,13.844,-0.00014497,-0.07008,0.22795
28525,6.6707,5.6364,0.1,0.0004337,4334,0.00043398,4342.4,-0.0001417,16.906,-0.00014396,-0.074034,0.23484
28526,6.6707,5.8182,0.1,0.00043443,4341.3,0.00043454,4344.5,-0.00014281,6.5926,-0.00014369,-0.075408,0.23352
28527,6.5793,5.9091,0.1,0.00043795,4376.4,0.00043801,4378.4,-0.00014418,4.009,-0.00014473,-0.095782,0.22658
28528,6.7621,0.27273,0.1,0.0004309,4306,0.00043106,4310.8,-0.00014138,9.6685,-0.00014268,-0.059365,0.24051
28529,6.8534,0.18182,0.1,0.00042788,4275.8,0.00042794,4277.6,-0.00014088,3.7444,-0.00014139,-0.064966,0.24623
28530,6.7621,0.090909,0.1,0.00043137,4310.7,0.00043141,4311.9,-0.00014214,2.4872,-0.00014248,-0.087154,0.23915
28531,6.7621,0.45455,0.1,0.00043033,4300.4,0.00043065,4309.9,-0.0001404,19.159,-0.00014296,-0.055946,0.24178
28532,6.8534,0.36364,0.1,0.00042744,4271.4,0.00042763,4277,-0.00014011,11.206,-0.00014161,-0.06268,0.24754
28533,6.7621,0.63636,0.1,0.00042979,4294.9,0.00043029,4309.7,-0.00013933,29.878,-0.00014331,-0.046469,0.24295
28534,6.8534,0.54545,0.1,0.00042704,4267.5,0.00042738,4277.4,-0.00013925,20.003,-0.00014192,-0.049138,0.24876
28535,6.7621,0.81818,0.1,0.00042923,4289.4,0.00042993,4310.2,-0.00013814,41.893,-0.00014372,-0.045917,0.24403
28536,6.8534,0.72727,0.1,0.00042664,4263.5,0.00042715,4278.6,-0.00013825,30.338,-0.0001423,-0.051419,0.24988
28537,6.7621,1,0.1,0.00042867,4283.7,0.00042958,4311,-0.00013685,55.086,-0.00014418,-0.043046,0.24502
28538,6.8534,0.90909,0.1,0.00042623,4259.3,0.00042693,4280.2,-0.00013712,42.158,-0.00014274,-0.049515,0.25092
28539,6.7621,1.1818,0.1,0.00042808,4277.9,0.00042922,4312,-0.00013547,69.222,-0.00014468,-0.039515,0.24592
28540,6.8534,1.0909,0.1,0.00042578,4254.9,0.00042669,4282.2,-0.00013588,55.275,-0.00014324,-0.046816,0.25186
28541,6.7621,1.3636,0.1,0.00042748,4271.9,0.00042885,4313.2,-0.00013403,83.978,-0.00014521,-0.034941,0.24672
28542,6.8534,1.2727,0.1,0.00042531,4250.2,0.00042645,4284.4,-0.00013454,69.393,-0.00014378,-0.042565,0.25271
28543,6.7621,1.5455,0.1,0.00042689,4265.9,0.00042848,4314.5,-0.00013257,98.96,-0.00014575,-0.029647,0.24745
28544,6.8534,1.4545,0.1,0.00042483,4245.3,0.00042619,4286.8,-0.00013314,84.128,-0.00014434,-0.037246,0.25348
28545,6.7621,1.7273,0.1,0.0004263,4260.1,0.00042812,4315.8,-0.00013114,113.72,-0.00014628,-0.02389,0.24808
28546,6.8534,1.6364,0.1,0.00042433,4240.4,0.00042593,4289,-0.00013173,99.028,-0.00014491,-0.031146,0.25415
28547,6.7621,1.9091,0.1,0.00042574,4254.5,0.00042777,4317,-0.00012977,127.8,-0.00014678,-0.017999,0.24862
28548,6.8534,1.8182,0.1,0.00042385,4235.5,0.00042566,4291.2,-0.00013034,113.6,-0.00014546,-0.024659,0.25474
28549,6.7621,2.0909,0.1,0.00042523,4249.4,0.00042745,4318,-0.00012851,140.7,-0.00014724,-0.012304,0.24908
28550,6.8534,2,0.1,0.00042339,4230.9,0.00042541,4293.2,-0.00012903,127.32,-0.00014598,-0.01817,0.25525
28551,6.7621,2.2727,0.1,0.00042479,4245,0.00042717,4318.9,-0.00012741,151.98,-0.00014764,-0.0071267,0.24946
28552,6.8534,2.1818,0.1,0.00042297,4226.8,0.00042517,4294.9,-0.00012785,139.69,-0.00014644,-0.012062,0.25566
28553,6.7621,2.4545,0.1,0.00042442,4241.3,0.00042694,4319.6,-0.00012651,161.23,-0.00014797,-0.0027628,0.24975
28554,6.8534,2.3636,0.1,0.00042261,4223.2,0.00042496,4296.3,-0.00012684,150.23,-0.00014684,-0.0066934,0.256
28555,6.7621,2.6364,0.1,0.00042415,4238.6,0.00042676,4320.1,-0.00012584,168.1,-0.00014821,0.00054243,0.24996
28556,6.8534,2.5455,0.1,0.00042232,4220.3,0.0004248,4297.4,-0.00012605,158.54,-0.00014715,-0.0023753,0.25625
28557,6.7621,2.8182,0.1,0.00042398,4236.9,0.00042665,4320.5,-0.00012543,172.33,-0.00014836,0.0026036,0.25008
28558,6.8534,2.7273,0.1,0.00042213,4218.4,0.00042468,4298.1,-0.0001255,164.26,-0.00014736,0.00064802,0.25641
28559,6.7621,3,0.1,0.00042393,4236.4,0.00042662,4320.6,-0.00012529,173.75,-0.00014841,0.0033038,0.25012
28560,6.8534,2.9091,0.1,0.00042203,4217.4,0.00042462,4298.5,-0.00012522,167.19,-0.00014747,0.0022041,0.25649
28561,6.7621,3.1818,0.1,0.00042398,4236.9,0.00042665,4320.5,-0.00012543,172.33,-0.00014836,0.0026035,0.25008
28562,6.8534,3.0909,0.1,0.00042203,4217.4,0.00042462,4298.5,-0.00012522,167.19,-0.00014747,0.002204,0.25649
28563,6.7621,3.3636,0.1,0.00042415,4238.6,0.00042676,4320.1,-0.00012584,168.1,-0.00014821,0.00054255,0.24996
28564,6.8534,3.2727,0.1,0.00042213,4218.4,0.00042468,4298.1,-0.0001255,164.26,-0.00014736,0.00064811,0.25641
28565,6.7621,3.5455,0.1,0.00042442,4241.3,0.00042694,4319.6,-0.00012651,161.23,-0.00014797,-0.0027625,0.24975
28566,6.8534,3.4545,0.1,0.00042232,4220.3,0.0004248,4297.4,-0.00012605,158.54,-0.00014715,-0.0023751,0.25625
28567,6.7621,3.7273,0.1,0.00042479,4245,0.00042717,4318.9,-0.00012741,151.98,-0.00014764,-0.0071263,0.24946
28568,6.8534,3.6364,0.1,0.00042261,4223.2,0.00042496,4296.3,-0.00012684,150.23,-0.00014684,-0.0066932,0.256
28569,6.7621,3.9091,0.1,0.00042523,4249.4,0.00042745,4318,-0.00012851,140.7,-0.00014724,-0.012303,0.24908
28570,6.8534,3.8182,0.1,0.00042297,4226.8,0.00042517,4294.9,-0.00012785,139.69,-0.00014644,-0.012062,0.25566
28571,6.7621,4.0909,0.1,0.00042574,4254.5,0.00042777,4317,-0.00012977,127.8,-0.00014678,-0.017999,0.24862
28572,6.8534,4,0.1,0.00042339,4230.9,0.00042541,4293.2,-0.00012903,127.32,-0.00014598,-0.018169,0.25525
28573,6.7621,4.2727,0.1,0.0004263,4260.1,0.00042812,4315.8,-0.00013114,113.72,-0.00014628,-0.023889,0.24808
28574,6.8534,4.1818,0.1,0.00042385,4235.5,0.00042566,4291.2,-0.00013034,113.6,-0.00014546,-0.024658,0.25474
28575,6.7621,4.4545,0.1,0.00042689,4265.9,0.00042848,4314.5,-0.00013257,98.96,-0.00014575,-0.029646,0.24745
28576,6.8534,4.3636,0.1,0.00042433,4240.4,0.00042593,4289,-0.00013173,99.028,-0.00014491,-0.031146,0.25415
28577,6.7621,4.6364,0.1,0.00042748,4271.9,0.00042885,4313.2,-0.00013403,83.978,-0.00014521,-0.034941,0.24672
28578,6.8534,4.5455,0.1,0.00042483,4245.3,0.00042619,4286.8,-0.00013314,84.128,-0.00014434,-0.037245,0.25348
28579,6.7621,4.8182,0.1,0.00042808,4277.9,0.00042922,4312,-0.00013547,69.222,-0.00014468,-0.039514,0.24592
28580,6.8534,4.7273,0.1,0.00042531,4250.2,0.00042645,4284.4,-0.00013454,69.393,-0.00014378,-0.042564,0.25271
28581,6.7621,5,0.1,0.00042867,4283.7,0.00042958,4311,-0.00013685,55.086,-0.00014418,-0.043045,0.24502
28582,6.8534,4.9091,0.1,0.00042578,4254.9,0.00042669,4282.2,-0.00013588,55.275,-0.00014324,-0.046816,0.25186
28583,6.7621,5.1818,0.1,0.00042923,4289.4,0.00042993,4310.2,-0.00013814,41.893,-0.00014372,-0.045916,0.24403
28584,6.8534,5.0909,0.1,0.00042623,4259.3,0.00042693,4280.2,-0.00013712,42.158,-0.00014274,-0.049513,0.25092
28585,6.7621,5.3636,0.1,0.00042979,4294.9,0.00043029,4309.7,-0.00013933,29.878,-0.00014331,-0.046468,0.24295
28586,6.8534,5.2727,0.1,0.00042664,4263.5,0.00042715,4278.6,-0.00013825,30.338,-0.0001423,-0.051418,0.24988
28587,6.7621,5.5455,0.1,0.00043033,4300.4,0.00043065,4309.9,-0.0001404,19.159,-0.00014296,-0.055945,0.24178
28588,6.8534,5.4545,0.1,0.00042704,4267.5,0.00042738,4277.4,-0.00013925,20.003,-0.00014192,-0.049138,0.24876
28589,6.7621,5.7273,0.1,0.0004309,4306,0.00043106,4310.8,-0.00014138,9.6685,-0.00014268,-0.059363,0.24051
28590,6.8534,5.6364,0.1,0.00042744,4271.4,0.00042763,4277,-0.00014011,11.206,-0.00014161,-0.062678,0.24754
28591,6.8534,5.8182,0.1,0.00042788,4275.8,0.00042794,4277.6,-0.00014088,3.7444,-0.00014139,-0.064965,0.24623
28592,6.7621,5.9091,0.1,0.00043137,4310.7,0.00043141,4311.9,-0.00014214,2.4872,-0.00014248,-0.087152,0.23915
28593,6.9448,0.27273,0.1,0.00042441,4241.2,0.0004245,4243.8,-0.00013961,5.3032,-0.00014032,-0.051822,0.25336
28594,7.0362,0.18182,0.1,0.00042112,4208.3,0.00042114,4208.7,-0.0001389,0.79414,-0.00013902,-0.087807,0.25923
28595,6.9448,0.090909,0.1,0.00042461,4243.2,0.00042463,4243.6,-0.00014004,0.91262,-0.00014018,-0.083267,0.25201
28596,6.9448,0.45455,0.1,0.00042415,4238.5,0.00042435,4244.5,-0.00013896,12.064,-0.00014057,-0.05523,0.25462
28597,7.0362,0.36364,0.1,0.000421,4207.1,0.00042109,4209.7,-0.00013849,5.2044,-0.00013919,-0.060579,0.26053
28598,6.9448,0.63636,0.1,0.0004239,4236,0.00042424,4246.2,-0.00013817,20.472,-0.0001409,-0.054605,0.25579
28599,7.0362,0.54545,0.1,0.00042092,4206.3,0.00042112,4212,-0.00013795,11.413,-0.00013948,-0.063514,0.26175
28600,6.9448,0.81818,0.1,0.00042363,4233.4,0.00042414,4248.6,-0.00013724,30.608,-0.00014132,-0.055754,0.25687
28601,7.0362,0.72727,0.1,0.00042084,4205.5,0.00042117,4215.2,-0.00013723,19.626,-0.00013985,-0.066607,0.26287
28602,6.9448,1,0.1,0.00042334,4230.5,0.00042404,4251.5,-0.00013616,42.351,-0.0001418,-0.053973,0.25786
28603,7.0362,0.90909,0.1,0.00042072,4204.3,0.00042122,4219.1,-0.00013634,29.79,-0.00014032,-0.065774,0.2639
28604,6.9448,1.1818,0.1,0.00042301,4227.2,0.00042393,4254.7,-0.00013495,55.448,-0.00014234,-0.050418,0.25875
28605,7.0362,1.0909,0.1,0.00042057,4202.8,0.00042126,4223.4,-0.00013529,41.706,-0.00014085,-0.062466,0.26484
28606,6.9448,1.3636,0.1,0.00042266,4223.6,0.0004238,4258,-0.00013365,69.543,-0.00014291,-0.045264,0.25956
28607,7.0362,1.2727,0.1,0.00042037,4200.8,0.00042127,4228,-0.00013411,55.048,-0.00014144,-0.057075,0.26569
28608,6.9448,1.5455,0.1,0.00042227,4219.8,0.00042364,4261.3,-0.00013229,84.196,-0.0001435,-0.038989,0.26028
28609,7.0362,1.4545,0.1,0.00042013,4198.4,0.00042126,4232.6,-0.00013283,69.387,-0.00014207,-0.050197,0.26645
28610,6.9448,1.7273,0.1,0.00042188,4215.9,0.00042347,4264.5,-0.00013093,98.902,-0.00014409,-0.032025,0.26091
28611,7.0362,1.6364,0.1,0.00041985,4195.6,0.00042122,4237.1,-0.00013149,84.214,-0.00014271,-0.042341,0.26713
28612,6.9448,1.9091,0.1,0.00042149,4212,0.0004233,4267.4,-0.0001296,113.12,-0.00014466,-0.024827,0.26146
28613,7.0362,1.8182,0.1,0.00041956,4192.7,0.00042116,4241.3,-0.00013016,98.961,-0.00014333,-0.034025,0.26772
28614,6.9448,2.0909,0.1,0.00042112,4208.3,0.00042313,4270,-0.00012837,126.31,-0.00014518,-0.017835,0.26192
28615,7.0362,2,0.1,0.00041927,4189.8,0.00042108,4245.1,-0.00012887,113.04,-0.00014392,-0.025749,0.26822
28616,6.9448,2.2727,0.1,0.00042079,4205,0.00042296,4272.2,-0.00012728,137.94,-0.00014564,-0.011463,0.26229
28617,7.0362,2.1818,0.1,0.00041899,4187,0.00042099,4248.5,-0.0001277,125.85,-0.00014445,-0.017994,0.26864
28618,6.9448,2.4545,0.1,0.00042051,4202.2,0.00042283,4274,-0.00012638,147.54,-0.00014601,-0.0060863,0.26258
28619,7.0362,2.3636,0.1,0.00041874,4184.5,0.0004209,4251.3,-0.00012669,136.86,-0.00014491,-0.011202,0.26897
28620,6.9448,2.6364,0.1,0.0004203,4200.1,0.00042272,4275.3,-0.0001257,154.7,-0.00014629,-0.0020125,0.26279
28621,7.0362,2.5455,0.1,0.00041854,4182.5,0.00042082,4253.4,-0.00012589,145.58,-0.00014527,-0.0057533,0.26922
28622,6.9448,2.8182,0.1,0.00042017,4198.8,0.00042265,4276.1,-0.00012529,159.12,-0.00014646,0.00052782,0.26291
28623,7.0362,2.7273,0.1,0.0004184,4181.1,0.00042077,4254.8,-0.00012533,151.61,-0.00014551,-0.001947,0.26938
28624,6.9448,3,0.1,0.00042013,4198.4,0.00042263,4276.4,-0.00012514,160.62,-0.00014652,0.0013909,0.26296
28625,7.0362,2.9091,0.1,0.00041832,4180.3,0.00042074,4255.6,-0.00012505,154.7,-0.00014564,9.3144e-06,0.26947
28626,6.9448,3.1818,0.1,0.00042017,4198.8,0.00042265,4276.1,-0.00012529,159.12,-0.00014646,0.0005279,0.26291
28627,7.0362,3.0909,0.1,0.00041832,4180.3,0.00042074,4255.6,-0.00012505,154.7,-0.00014564,9.389e-06,0.26947
28628,6.9448,3.3636,0.1,0.0004203,4200.1,0.00042272,4275.3,-0.0001257,154.7,-0.00014629,-0.0020123,0.26279
28629,7.0362,3.2727,0.1,0.0004184,4181.1,0.00042077,4254.8,-0.00012533,151.61,-0.00014551,-0.0019469,0.26938
28630,6.9448,3.5455,0.1,0.00042051,4202.2,0.00042283,4274,-0.00012638,147.54,-0.00014601,-0.0060861,0.26258
28631,7.0362,3.4545,0.1,0.00041854,4182.5,0.00042082,4253.4,-0.00012589,145.58,-0.00014527,-0.005753,0.26922
28632,6.9448,3.7273,0.1,0.00042079,4205,0.00042296,4272.2,-0.00012728,137.94,-0.00014564,-0.011463,0.26229
28633,7.0362,3.6364,0.1,0.00041874,4184.5,0.0004209,4251.3,-0.00012669,136.86,-0.00014491,-0.011201,0.26897
28634,6.9448,3.9091,0.1,0.00042112,4208.3,0.00042313,4270,-0.00012837,126.31,-0.00014518,-0.017834,0.26192
28635,7.0362,3.8182,0.1,0.00041899,4187,0.00042099,4248.5,-0.0001277,125.85,-0.00014445,-0.017994,0.26864
28636,6.9448,4.0909,0.1,0.00042149,4212,0.0004233,4267.4,-0.0001296,113.12,-0.00014466,-0.024827,0.26146
28637,7.0362,4,0.1,0.00041927,4189.8,0.00042108,4245.1,-0.00012887,113.04,-0.00014392,-0.025749,0.26822
28638,6.9448,4.2727,0.1,0.00042188,4215.9,0.00042347,4264.5,-0.00013093,98.902,-0.00014409,-0.032025,0.26091
28639,7.0362,4.1818,0.1,0.00041956,4192.7,0.00042116,4241.3,-0.00013016,98.961,-0.00014333,-0.034024,0.26772
28640,6.9448,4.4545,0.1,0.00042227,4219.8,0.00042364,4261.3,-0.00013229,84.196,-0.0001435,-0.038988,0.26028
28641,7.0362,4.3636,0.1,0.00041985,4195.6,0.00042122,4237.1,-0.00013149,84.214,-0.00014271,-0.04234,0.26713
28642,6.9448,4.6364,0.1,0.00042266,4223.6,0.0004238,4258,-0.00013365,69.543,-0.00014291,-0.045263,0.25956
28643,7.0362,4.5455,0.1,0.00042013,4198.4,0.00042126,4232.6,-0.00013283,69.387,-0.00014207,-0.050196,0.26645
28644,6.9448,4.8182,0.1,0.00042301,4227.2,0.00042393,4254.7,-0.00013495,55.448,-0.00014234,-0.050417,0.25875
28645,7.0362,4.7273,0.1,0.00042037,4200.8,0.00042127,4228,-0.00013411,55.048,-0.00014144,-0.057075,0.26569
28646,6.9448,5,0.1,0.00042334,4230.5,0.00042404,4251.5,-0.00013616,42.351,-0.0001418,-0.053972,0.25786
28647,7.0362,4.9091,0.1,0.00042057,4202.8,0.00042126,4223.4,-0.00013529,41.706,-0.00014085,-0.062466,0.26484
28648,6.9448,5.1818,0.1,0.00042363,4233.4,0.00042414,4248.6,-0.00013724,30.608,-0.00014132,-0.055753,0.25687
28649,7.0362,5.0909,0.1,0.00042072,4204.3,0.00042122,4219.1,-0.00013634,29.79,-0.00014032,-0.065772,0.2639
28650,6.9448,5.3636,0.1,0.0004239,4236,0.00042424,4246.2,-0.00013817,20.472,-0.0001409,-0.054604,0.25579
28651,7.0362,5.2727,0.1,0.00042084,4205.5,0.00042117,4215.2,-0.00013723,19.626,-0.00013985,-0.066606,0.26287
28652,6.9448,5.5455,0.1,0.00042415,4238.5,0.00042435,4244.5,-0.00013896,12.064,-0.00014057,-0.055229,0.25462
28653,7.0362,5.4545,0.1,0.00042092,4206.3,0.00042112,4212,-0.00013795,11.413,-0.00013948,-0.063513,0.26175
28654,6.9448,5.7273,0.1,0.00042441,4241.2,0.0004245,4243.8,-0.00013961,5.3032,-0.00014032,-0.051821,0.25336
28655,7.0362,5.6364,0.1,0.000421,4207.1,0.00042109,4209.7,-0.00013849,5.2044,-0.00013919,-0.060577,0.26053
28656,7.0362,5.8182,0.1,0.00042112,4208.3,0.00042114,4208.7,-0.0001389,0.79415,-0.00013902,-0.087805,0.25923
28657,6.9448,5.9091,0.1,0.00042461,4243.2,0.00042463,4243.6,-0.00014004,0.91262,-0.00014018,-0.083266,0.25201
28658,7.1276,0.27273,0.1,0.00041771,4174.2,0.00041772,4174.6,-0.00013778,0.74528,-0.00013789,-0.10576,0.26649
28659,7.219,0.18182,0.1,0.00041411,4138.2,0.00041407,4137,-0.00013654,-0.0054599,-0.00013686,-2.4353,0.2725
28660,7.1276,0.090909,0.1,0.00041762,4173.4,0.00041761,4172.9,-0.00013778,-0.047789,-0.00013788,-0.76888,0.26515
28661,7.1276,0.45455,0.1,0.00041778,4174.9,0.00041786,4177.2,-0.00013748,4.5793,-0.0001381,-0.079611,0.26775
28662,7.219,0.36364,0.1,0.00041434,4140.6,0.00041432,4139.9,-0.00013666,0.082987,-0.00013685,-1.3398,0.2738
28663,7.1276,0.63636,0.1,0.00041786,4175.7,0.00041804,4181,-0.00013701,10.583,-0.00013843,-0.082384,0.26892
28664,7.219,0.54545,0.1,0.00041462,4143.3,0.00041465,4144.4,-0.00013661,2.4019,-0.00013696,-0.19959,0.27501
28665,7.1276,0.81818,0.1,0.00041793,4176.4,0.00041824,4185.7,-0.00013634,18.818,-0.00013885,-0.081134,0.26999
28666,7.219,0.72727,0.1,0.00041488,4146,0.00041502,4150.1,-0.00013621,8.3539,-0.00013734,-0.1307,0.27613
28667,7.1276,1,0.1,0.00041795,4176.6,0.00041843,4191,-0.00013548,29.152,-0.00013937,-0.077232,0.27098
28668,7.219,0.90909,0.1,0.00041511,4148.3,0.0004154,4156.6,-0.00013557,16.845,-0.00013783,-0.11123,0.27716
28669,7.1276,1.1818,0.1,0.00041792,4176.3,0.0004186,4196.7,-0.00013445,41.309,-0.00013996,-0.071056,0.27187
28670,7.219,1.0909,0.1,0.00041529,4150,0.00041575,4163.7,-0.00013473,27.616,-0.00013842,-0.097711,0.2781
28671,7.1276,1.3636,0.1,0.00041783,4175.5,0.00041874,4202.6,-0.00013329,54.894,-0.0001406,-0.063233,0.27268
28672,7.219,1.2727,0.1,0.0004154,4151.2,0.00041607,4171.1,-0.00013371,40.301,-0.00013908,-0.085456,0.27895
28673,7.1276,1.5455,0.1,0.0004177,4174.2,0.00041884,4208.4,-0.00013203,69.406,-0.00014127,-0.05428,0.2734
28674,7.219,1.4545,0.1,0.00041545,4151.6,0.00041635,4178.5,-0.00013254,54.414,-0.00013979,-0.073222,0.27971
28675,7.1276,1.7273,0.1,0.00041753,4172.5,0.0004189,4213.9,-0.00013072,84.273,-0.00014194,-0.04472,0.27403
28676,7.219,1.6364,0.1,0.00041544,4151.5,0.00041658,4185.8,-0.00013128,69.375,-0.00014052,-0.060918,0.28039
28677,7.1276,1.9091,0.1,0.00041734,4170.5,0.00041893,4219.1,-0.00012943,98.874,-0.00014259,-0.035074,0.27457
28678,7.219,1.8182,0.1,0.00041538,4151,0.00041676,4192.6,-0.00012999,84.533,-0.00014125,-0.048779,0.28097
28679,7.1276,2.0909,0.1,0.00041714,4168.5,0.00041894,4223.6,-0.00012821,112.58,-0.0001432,-0.025854,0.27503
28680,7.219,2,0.1,0.00041529,4150,0.00041689,4198.7,-0.00012873,99.202,-0.00014193,-0.037201,0.28148
28681,7.1276,2.2727,0.1,0.00041694,4166.5,0.00041892,4227.5,-0.00012712,124.77,-0.00014373,-0.017547,0.27541
28682,7.219,2.1818,0.1,0.00041518,4148.9,0.00041698,4204.1,-0.00012755,112.7,-0.00014256,-0.026641,0.28189
28683,7.1276,2.4545,0.1,0.00041677,4164.8,0.0004189,4230.6,-0.00012621,134.9,-0.00014416,-0.010592,0.2757
28684,7.219,2.3636,0.1,0.00041507,4147.8,0.00041704,4208.6,-0.00012653,124.38,-0.00014309,-0.01755,0.28222
28685,7.1276,2.6364,0.1,0.00041663,4163.5,0.00041888,4232.9,-0.00012552,142.49,-0.00014449,-0.0053507,0.2759
28686,7.219,2.5455,0.1,0.00041497,4146.8,0.00041708,4212,-0.00012571,133.68,-0.00014351,-0.010346,0.28247
28687,7.1276,2.8182,0.1,0.00041655,4162.6,0.00041886,4234.3,-0.0001251,147.19,-0.00014469,-0.0020942,0.27603
28688,7.219,2.7273,0.1,0.00041489,4146.1,0.0004171,4214.4,-0.00012515,140.15,-0.0001438,-0.0053521,0.28264
28689,7.1276,3,0.1,0.00041652,4162.3,0.00041885,4234.7,-0.00012495,148.79,-0.00014476,-0.00098976,0.27607
28690,7.219,2.9091,0.1,0.00041485,4145.7,0.00041711,4215.5,-0.00012485,143.46,-0.00014395,-0.0027971,0.28272
28691,7.1276,3.1818,0.1,0.00041655,4162.6,0.00041886,4234.3,-0.0001251,147.19,-0.00014469,-0.002094,0.27603
28692,7.219,3.0909,0.1,0.00041485,4145.7,0.00041711,4215.5,-0.00012485,143.46,-0.00014395,-0.002797,0.28272
28693,7.1276,3.3636,0.1,0.00041663,4163.5,0.00041888,4232.9,-0.00012552,142.49,-0.00014449,-0.0053504,0.2759
28694,7.219,3.2727,0.1,0.00041489,4146.1,0.0004171,4214.4,-0.00012515,140.15,-0.0001438,-0.005352,0.28264
28695,7.1276,3.5455,0.1,0.00041677,4164.8,0.0004189,4230.6,-0.00012621,134.9,-0.00014416,-0.010591,0.2757
28696,7.219,3.4545,0.1,0.00041497,4146.8,0.00041708,4212,-0.00012571,133.68,-0.00014351,-0.010346,0.28247
28697,7.1276,3.7273,0.1,0.00041694,4166.5,0.00041892,4227.5,-0.00012712,124.77,-0.00014373,-0.017546,0.27541
28698,7.219,3.6364,0.1,0.00041507,4147.8,0.00041704,4208.6,-0.00012653,124.38,-0.00014309,-0.01755,0.28222
28699,7.1276,3.9091,0.1,0.00041714,4168.5,0.00041894,4223.6,-0.00012821,112.58,-0.0001432,-0.025853,0.27503
28700,7.219,3.8182,0.1,0.00041518,4148.9,0.00041698,4204.1,-0.00012755,112.7,-0.00014256,-0.026641,0.28189
28701,7.1276,4.0909,0.1,0.00041734,4170.5,0.00041893,4219.1,-0.00012943,98.874,-0.00014259,-0.035073,0.27457
28702,7.219,4,0.1,0.00041529,4150,0.00041689,4198.7,-0.00012873,99.202,-0.00014193,-0.037201,0.28148
28703,7.1276,4.2727,0.1,0.00041753,4172.5,0.0004189,4213.9,-0.00013072,84.273,-0.00014194,-0.044719,0.27403
28704,7.219,4.1818,0.1,0.00041538,4151,0.00041676,4192.6,-0.00012999,84.533,-0.00014125,-0.048779,0.28097
28705,7.1276,4.4545,0.1,0.0004177,4174.2,0.00041884,4208.4,-0.00013203,69.406,-0.00014127,-0.054279,0.2734
28706,7.219,4.3636,0.1,0.00041544,4151.5,0.00041658,4185.8,-0.00013128,69.375,-0.00014052,-0.060918,0.28039
28707,7.1276,4.6364,0.1,0.00041783,4175.5,0.00041874,4202.6,-0.00013329,54.894,-0.0001406,-0.063233,0.27268
28708,7.219,4.5455,0.1,0.00041545,4151.6,0.00041635,4178.5,-0.00013254,54.414,-0.00013979,-0.073221,0.27971
28709,7.1276,4.8182,0.1,0.00041792,4176.3,0.0004186,4196.7,-0.00013445,41.309,-0.00013996,-0.071056,0.27187
28710,7.219,4.7273,0.1,0.0004154,4151.2,0.00041607,4171.1,-0.00013371,40.301,-0.00013908,-0.085456,0.27895
28711,7.1276,5,0.1,0.00041795,4176.6,0.00041843,4191,-0.00013548,29.152,-0.00013937,-0.077231,0.27098
28712,7.219,4.9091,0.1,0.00041529,4150,0.00041575,4163.7,-0.00013473,27.616,-0.00013842,-0.09771,0.2781
28713,7.1276,5.1818,0.1,0.00041793,4176.4,0.00041824,4185.7,-0.00013634,18.818,-0.00013885,-0.081133,0.26999
28714,7.219,5.0909,0.1,0.00041511,4148.3,0.0004154,4156.6,-0.00013557,16.845,-0.00013783,-0.11123,0.27716
28715,7.1276,5.3636,0.1,0.00041786,4175.7,0.00041804,4181,-0.00013701,10.583,-0.00013843,-0.082383,0.26892
28716,7.219,5.2727,0.1,0.00041488,4146,0.00041502,4150.1,-0.00013621,8.3539,-0.00013734,-0.1307,0.27613
28717,7.1276,5.5455,0.1,0.00041778,4174.9,0.00041786,4177.2,-0.00013748,4.5793,-0.0001381,-0.079611,0.26775
28718,7.219,5.4545,0.1,0.00041462,4143.3,0.00041465,4144.4,-0.00013661,2.4019,-0.00013696,-0.19959,0.27501
28719,7.1276,5.7273,0.1,0.00041771,4174.2,0.00041772,4174.6,-0.00013778,0.74529,-0.00013789,-0.10576,0.26649
28720,7.219,5.6364,0.1,0.00041434,4140.6,0.00041432,4139.9,-0.00013666,0.08299,-0.00013685,-1.3398,0.2738
28721,7.219,5.8182,0.1,0.00041411,4138.2,0.00041407,4137,-0.00013654,-0.0054583,-0.00013686,-2.4353,0.2725
28722,7.1276,5.9091,0.1,0.00041762,4173.4,0.00041761,4172.9,-0.00013778,-0.047788,-0.00013788,-0.76888,0.26515
28723,7.3103,0.27273,0.1,0.00041073,4104.5,0.00041066,4102.4,-0.00013533,-0.00067815,-0.0001359,-4.293,0.27991
28724,7.4017,0.18182,0.1,0.00040675,4064.7,0.00040666,4061.8,-0.00013394,0.0014544,-0.00013471,-5.8073,0.28606
28725,7.3103,0.090909,0.1,0.00041032,4100.4,0.00041028,4099.1,-0.00013529,-0.047092,-0.00013561,-2.5118,0.27856
28726,7.3103,0.45455,0.1,0.00041118,4108.9,0.00041112,4107.2,-0.00013551,0.048892,-0.00013599,-3.5877,0.28116
28727,7.4017,0.36364,0.1,0.00040738,4071,0.00040724,4066.9,-0.00013403,0.015069,-0.00013512,-8.1687,0.28735
28728,7.3103,0.63636,0.1,0.00041164,4113.5,0.00041164,4113.5,-0.00013573,0.76839,-0.00013595,-0.83548,0.28232
28729,7.4017,0.54545,0.1,0.00040806,4077.8,0.00040793,4074,-0.00013428,0.030635,-0.0001353,-7.6555,0.28856
28730,7.3103,0.81818,0.1,0.00041207,4117.9,0.00041218,4121,-0.00013543,6.4394,-0.00013632,-0.21516,0.28339
28731,7.4017,0.72727,0.1,0.00040873,4084.5,0.00040867,4082.6,-0.00013466,0.22238,-0.00013524,-4.1143,0.28967
28732,7.3103,1,0.1,0.00041246,4121.7,0.00041271,4129.3,-0.00013482,15.328,-0.00013688,-0.14883,0.28438
28733,7.4017,0.90909,0.1,0.00040936,4090.8,0.00040941,4092.3,-0.00013477,3.471,-0.00013531,-0.53062,0.2907
28734,7.3103,1.1818,0.1,0.00041277,4124.9,0.00041322,4138.1,-0.00013398,26.616,-0.00013754,-0.11964,0.28527
28735,7.4017,1.0909,0.1,0.00040993,4096.5,0.00041014,4102.8,-0.00013419,12.864,-0.00013593,-0.22524,0.29164
28736,7.3103,1.3636,0.1,0.00041302,4127.3,0.00041368,4147.1,-0.00013296,39.826,-0.00013827,-0.09921,0.28608
28737,7.4017,1.2727,0.1,0.00041042,4101.3,0.00041083,4113.7,-0.00013334,24.956,-0.00013668,-0.15669,0.29249
28738,7.3103,1.5455,0.1,0.00041319,4129,0.00041409,4155.9,-0.00013179,54.386,-0.00013904,-0.081808,0.28679
28739,7.4017,1.4545,0.1,0.00041081,4105.3,0.00041146,4124.6,-0.0001323,38.996,-0.0001375,-0.12069,0.29325
28740,7.3103,1.7273,0.1,0.00041329,4130,0.00041443,4164.4,-0.00013055,69.637,-0.00013983,-0.065935,0.28742
28741,7.4017,1.6364,0.1,0.00041112,4108.4,0.00041202,4135.2,-0.00013112,54.299,-0.00013836,-0.094827,0.29392
28742,7.3103,1.9091,0.1,0.00041333,4130.5,0.00041471,4172.2,-0.00012928,84.862,-0.00014059,-0.051279,0.28797
28743,7.4017,1.8182,0.1,0.00041135,4110.6,0.00041249,4145.2,-0.00012987,70.111,-0.00013921,-0.073593,0.29451
28744,7.3103,2.0909,0.1,0.00041333,4130.5,0.00041493,4179.2,-0.00012807,99.324,-0.00014129,-0.037995,0.28843
28745,7.4017,2,0.1,0.0004115,4112.2,0.00041289,4154.3,-0.00012862,85.631,-0.00014002,-0.055354,0.29501
28746,7.3103,2.2727,0.1,0.0004133,4130.2,0.0004151,4185.2,-0.00012697,112.31,-0.00014192,-0.026418,0.2888
28747,7.4017,2.1818,0.1,0.0004116,4113.2,0.00041321,4162.3,-0.00012744,100.06,-0.00014076,-0.039722,0.29543
28748,7.3103,2.4545,0.1,0.00041326,4129.8,0.00041522,4190,-0.00012604,123.17,-0.00014243,-0.016932,0.28909
28749,7.4017,2.3636,0.1,0.00041166,4113.7,0.00041346,4168.9,-0.0001264,112.64,-0.00014139,-0.026786,0.29576
28750,7.3103,2.6364,0.1,0.00041323,4129.4,0.0004153,4193.5,-0.00012534,131.34,-0.00014282,-0.0098835,0.2893
28751,7.4017,2.5455,0.1,0.00041169,4114,0.00041364,4174,-0.00012556,122.72,-0.00014189,-0.016783,0.29601
28752,7.3103,2.8182,0.1,0.0004132,4129.1,0.00041535,4195.6,-0.0001249,136.42,-0.00014306,-0.0055091,0.28942
28753,7.4017,2.7273,0.1,0.0004117,4114.2,0.00041375,4177.5,-0.00012497,129.74,-0.00014224,-0.0099561,0.29617
28754,7.3103,3,0.1,0.00041319,4129,0.00041536,4196.4,-0.00012475,138.14,-0.00014314,-0.0040747,0.28946
28755,7.4017,2.9091,0.1,0.0004117,4114.2,0.00041381,4179.3,-0.00012467,133.35,-0.00014241,-0.0064938,0.29625
28756,7.3103,3.1818,0.1,0.0004132,4129.1,0.00041535,4195.6,-0.0001249,136.42,-0.00014306,-0.0055091,0.28942
28757,7.4017,3.0909,0.1,0.0004117,4114.2,0.00041381,4179.3,-0.00012467,133.35,-0.00014241,-0.0064939,0.29625
28758,7.3103,3.3636,0.1,0.00041323,4129.4,0.0004153,4193.5,-0.00012534,131.34,-0.00014282,-0.0098833,0.2893
28759,7.4017,3.2727,0.1,0.0004117,4114.2,0.00041375,4177.5,-0.00012497,129.74,-0.00014224,-0.0099561,0.29617
28760,7.3103,3.5455,0.1,0.00041326,4129.8,0.00041522,4190,-0.00012604,123.17,-0.00014243,-0.016932,0.28909
28761,7.4017,3.4545,0.1,0.00041169,4114,0.00041364,4174,-0.00012556,122.72,-0.00014189,-0.016782,0.29601
28762,7.3103,3.7273,0.1,0.0004133,4130.2,0.0004151,4185.2,-0.00012697,112.31,-0.00014192,-0.026418,0.2888
28763,7.4017,3.6364,0.1,0.00041166,4113.7,0.00041346,4168.9,-0.0001264,112.64,-0.00014139,-0.026785,0.29576
28764,7.3103,3.9091,0.1,0.00041333,4130.5,0.00041493,4179.2,-0.00012807,99.324,-0.00014129,-0.037994,0.28843
28765,7.4017,3.8182,0.1,0.0004116,4113.2,0.00041321,4162.3,-0.00012744,100.06,-0.00014076,-0.039722,0.29543
28766,7.3103,4.0909,0.1,0.00041333,4130.5,0.00041471,4172.2,-0.00012928,84.862,-0.00014059,-0.051278,0.28797
28767,7.4017,4,0.1,0.0004115,4112.2,0.00041289,4154.3,-0.00012862,85.631,-0.00014002,-0.055353,0.29501
28768,7.3103,4.2727,0.1,0.00041329,4130,0.00041443,4164.4,-0.00013055,69.637,-0.00013983,-0.065934,0.28742
28769,7.4017,4.1818,0.1,0.00041135,4110.6,0.00041249,4145.2,-0.00012987,70.111,-0.00013921,-0.073593,0.29451
28770,7.3103,4.4545,0.1,0.00041319,4129,0.00041409,4155.9,-0.00013179,54.386,-0.00013904,-0.081807,0.28679
28771,7.4017,4.3636,0.1,0.00041112,4108.4,0.00041202,4135.2,-0.00013112,54.299,-0.00013836,-0.094826,0.29392
28772,7.3103,4.6364,0.1,0.00041302,4127.3,0.00041368,4147.1,-0.00013296,39.826,-0.00013827,-0.099209,0.28608
28773,7.4017,4.5455,0.1,0.00041081,4105.3,0.00041146,4124.6,-0.0001323,38.996,-0.0001375,-0.12069,0.29325
28774,7.3103,4.8182,0.1,0.00041277,4124.9,0.00041322,4138.1,-0.00013398,26.616,-0.00013754,-0.11964,0.28527
28775,7.4017,4.7273,0.1,0.00041042,4101.3,0.00041083,4113.7,-0.00013334,24.956,-0.00013668,-0.15669,0.29249
28776,7.3103,5,0.1,0.00041246,4121.7,0.00041271,4129.3,-0.00013482,15.328,-0.00013688,-0.14883,0.28438
28777,7.4017,4.9091,0.1,0.00040993,4096.5,0.00041014,4102.8,-0.00013419,12.864,-0.00013593,-0.22524,0.29164
28778,7.3103,5.1818,0.1,0.00041207,4117.9,0.00041218,4121,-0.00013543,6.4393,-0.00013632,-0.21516,0.28339
28779,7.4017,5.0909,0.1,0.00040936,4090.8,0.00040941,4092.3,-0.00013477,3.471,-0.00013531,-0.53062,0.2907
28780,7.3103,5.3636,0.1,0.00041164,4113.5,0.00041164,4113.5,-0.00013573,0.76839,-0.00013595,-0.83549,0.28232
28781,7.4017,5.2727,0.1,0.00040873,4084.5,0.00040867,4082.6,-0.00013466,0.22238,-0.00013524,-4.1143,0.28967
28782,7.3103,5.5455,0.1,0.00041118,4108.9,0.00041112,4107.2,-0.00013551,0.048893,-0.00013599,-3.5877,0.28116
28783,7.4017,5.4545,0.1,0.00040806,4077.8,0.00040793,4074,-0.00013428,0.030635,-0.0001353,-7.6556,0.28856
28784,7.3103,5.7273,0.1,0.00041073,4104.5,0.00041066,4102.4,-0.00013533,-0.00067659,-0.0001359,-4.293,0.27991
28785,7.4017,5.6364,0.1,0.00040738,4071,0.00040724,4066.9,-0.00013403,0.015071,-0.00013512,-8.1687,0.28735
28786,7.4017,5.8182,0.1,0.00040675,4064.7,0.00040666,4061.8,-0.00013394,0.0014559,-0.00013471,-5.8073,0.28606
28787,7.3103,5.9091,0.1,0.00041032,4100.4,0.00041028,4099.1,-0.00013529,-0.047091,-0.00013561,-2.5118,0.27856
28788,7.4931,0.27273,0.1,0.0004034,4031.2,0.00040323,4026.4,-0.00013264,0.0046581,-0.00013392,-9.6257,0.29359
28789,7.5845,0.18182,0.1,0.00039896,3986.9,0.0003988,3982.1,-0.00013119,0.015914,-0.00013245,-9.4543,0.29988
28790,7.4931,0.090909,0.1,0.00040263,4023.5,0.00040255,4021.3,-0.00013265,-0.037324,-0.00013323,-4.3839,0.29226
28791,7.4931,0.45455,0.1,0.00040426,4039.8,0.00040405,4033.7,-0.0001328,0.009389,-0.00013443,-12.235,0.29484
28792,7.5845,0.36364,0.1,0.00040004,3997.6,0.00039977,3989.8,-0.00013123,0.025334,-0.00013332,-15.671,0.30117
28793,7.4931,0.63636,0.1,0.00040516,4048.8,0.00040496,4043,-0.00013313,0.03684,-0.00013466,-11.48,0.296
28794,7.5845,0.54545,0.1,0.00040118,4009,0.00040086,3999.8,-0.00013148,-0.0011078,-0.00013391,-18.271,0.30238
28795,7.4931,0.81818,0.1,0.00040603,4057.5,0.0004059,4053.9,-0.00013361,0.17593,-0.00013461,-7.3501,0.29707
28796,7.5845,0.72727,0.1,0.00040232,4020.4,0.00040203,4011.9,-0.00013192,0.046359,-0.00013419,-17.009,0.30349
28797,7.4931,1,0.1,0.00040684,4065.6,0.00040685,4065.8,-0.00013404,1.7625,-0.00013446,-1.3637,0.29805
28798,7.5845,0.90909,0.1,0.00040343,4031.5,0.00040322,4025.5,-0.00013252,0.15743,-0.00013414,-12.021,0.30451
28799,7.4931,1.1818,0.1,0.00040757,4072.9,0.00040776,4078.4,-0.00013354,11.259,-0.00013508,-0.31921,0.29895
28800,7.5845,1.0909,0.1,0.00040446,4041.8,0.0004044,4040.2,-0.0001332,0.80714,-0.00013385,-4.0369,0.30545
28801,7.4931,1.3636,0.1,0.00040821,4079.3,0.00040861,4091.2,-0.00013268,24.139,-0.00013592,-0.19311,0.29975
28802,7.5845,1.2727,0.1,0.00040539,4051.1,0.00040554,4055.4,-0.000133,9.0023,-0.00013427,-0.51364,0.3063
28803,7.4931,1.5455,0.1,0.00040874,4084.6,0.00040939,4103.9,-0.00013162,38.913,-0.00013682,-0.1393,0.30047
28804,7.5845,1.4545,0.1,0.00040622,4059.3,0.0004066,4070.6,-0.00013212,22.93,-0.00013521,-0.25109,0.30706
28805,7.4931,1.7273,0.1,0.00040918,4089,0.00041008,4116,-0.00013044,54.774,-0.00013774,-0.10478,0.3011
28806,7.5845,1.6364,0.1,0.00040692,4066.4,0.00040756,4085.5,-0.00013103,38.751,-0.00013621,-0.16671,0.30773
28807,7.4931,1.9091,0.1,0.00040952,4092.3,0.00041067,4127.3,-0.0001292,70.879,-0.00013864,-0.078503,0.30164
28808,7.5845,1.8182,0.1,0.0004075,4072.2,0.00040841,4099.6,-0.00012983,55.459,-0.00013722,-0.11916,0.30832
28809,7.4931,2.0909,0.1,0.00040977,4094.9,0.00041117,4137.3,-0.00012798,86.365,-0.00013948,-0.057177,0.3021
28810,7.5845,2,0.1,0.00040797,4076.8,0.00040914,4112.4,-0.00012858,72.103,-0.00013819,-0.085798,0.30882
28811,7.4931,2.2727,0.1,0.00040995,4096.7,0.00041157,4146,-0.00012686,100.39,-0.00014023,-0.039781,0.30247
28812,7.5845,2.1818,0.1,0.00040833,4080.5,0.00040975,4123.6,-0.00012739,87.736,-0.00013908,-0.060318,0.30924
28813,7.4931,2.4545,0.1,0.00041008,4098,0.00041187,4152.9,-0.00012591,112.19,-0.00014085,-0.026097,0.30276
28814,7.5845,2.3636,0.1,0.00040861,4083.2,0.00041024,4133,-0.00012633,101.47,-0.00013984,-0.040629,0.30957
28815,7.4931,2.6364,0.1,0.00041016,4098.8,0.00041209,4158,-0.00012519,121.12,-0.00014131,-0.016186,0.30297
28816,7.5845,2.5455,0.1,0.0004088,4085.2,0.0004106,4140.3,-0.00012546,112.52,-0.00014044,-0.026033,0.30981
28817,7.4931,2.8182,0.1,0.00041021,4099.2,0.00041222,4161.1,-0.00012473,126.68,-0.0001416,-0.010172,0.30309
28818,7.5845,2.7273,0.1,0.00040892,4086.4,0.00041084,4145.2,-0.00012485,120.25,-0.00014086,-0.016326,0.30998
28819,7.4931,3,0.1,0.00041022,4099.4,0.00041226,4162.2,-0.00012458,128.57,-0.00014169,-0.0081559,0.30313
28820,7.5845,2.9091,0.1,0.00040899,4087,0.00041096,4147.7,-0.00012454,124.23,-0.00014107,-0.011472,0.31006
28821,7.4931,3.1818,0.1,0.00041021,4099.2,0.00041222,4161.1,-0.00012473,126.68,-0.0001416,-0.010172,0.30309
28822,7.5845,3.0909,0.1,0.00040899,4087,0.00041096,4147.7,-0.00012454,124.23,-0.00014107,-0.011472,0.31006
28823,7.4931,3.3636,0.1,0.00041016,4098.8,0.00041209,4158,-0.00012519,121.12,-0.00014131,-0.016186,0.30297
28824,7.5845,3.2727,0.1,0.00040892,4086.4,0.00041084,4145.2,-0.00012485,120.25,-0.00014086,-0.016326,0.30998
28825,7.4931,3.5455,0.1,0.00041008,4098,0.00041187,4152.9,-0.00012591,112.19,-0.00014085,-0.026097,0.30276
28826,7.5845,3.4545,0.1,0.0004088,4085.2,0.0004106,4140.3,-0.00012546,112.52,-0.00014044,-0.026033,0.30981
28827,7.4931,3.7273,0.1,0.00040995,4096.7,0.00041157,4146,-0.00012686,100.39,-0.00014023,-0.039781,0.30247
28828,7.5845,3.6364,0.1,0.00040861,4083.2,0.00041024,4133,-0.00012633,101.47,-0.00013984,-0.040628,0.30957
28829,7.4931,3.9091,0.1,0.00040977,4094.9,0.00041117,4137.3,-0.00012798,86.365,-0.00013948,-0.057177,0.3021
28830,7.5845,3.8182,0.1,0.00040833,4080.5,0.00040975,4123.6,-0.00012739,87.736,-0.00013908,-0.060317,0.30924
28831,7.4931,4.0909,0.1,0.00040952,4092.3,0.00041067,4127.3,-0.0001292,70.879,-0.00013864,-0.078502,0.30164
28832,7.5845,4,0.1,0.00040797,4076.8,0.00040914,4112.4,-0.00012858,72.103,-0.00013819,-0.085798,0.30882
28833,7.4931,4.2727,0.1,0.00040918,4089,0.00041008,4116,-0.00013044,54.774,-0.00013774,-0.10478,0.3011
28834,7.5845,4.1818,0.1,0.0004075,4072.2,0.00040841,4099.6,-0.00012983,55.459,-0.00013722,-0.11916,0.30832
28835,7.4931,4.4545,0.1,0.00040874,4084.6,0.00040939,4103.9,-0.00013162,38.913,-0.00013682,-0.1393,0.30047
28836,7.5845,4.3636,0.1,0.00040692,4066.4,0.00040756,4085.5,-0.00013103,38.751,-0.00013621,-0.16671,0.30773
28837,7.4931,4.6364,0.1,0.00040821,4079.3,0.00040861,4091.2,-0.00013268,24.139,-0.00013592,-0.19311,0.29975
28838,7.5845,4.5455,0.1,0.00040622,4059.3,0.0004066,4070.6,-0.00013212,22.93,-0.00013521,-0.25109,0.30706
28839,7.4931,4.8182,0.1,0.00040757,4072.9,0.00040776,4078.4,-0.00013354,11.259,-0.00013508,-0.31921,0.29895
28840,7.5845,4.7273,0.1,0.00040539,4051.1,0.00040554,4055.4,-0.000133,9.0023,-0.00013427,-0.51364,0.3063
28841,7.4931,5,0.1,0.00040684,4065.6,0.00040685,4065.8,-0.00013404,1.7625,-0.00013446,-1.3637,0.29805
28842,7.5845,4.9091,0.1,0.00040446,4041.8,0.0004044,4040.2,-0.0001332,0.80714,-0.00013385,-4.0369,0.30545
28843,7.4931,5.1818,0.1,0.00040603,4057.5,0.0004059,4053.9,-0.00013361,0.17593,-0.00013461,-7.3501,0.29707
28844,7.5845,5.0909,0.1,0.00040343,4031.5,0.00040322,4025.5,-0.00013252,0.15743,-0.00013414,-12.021,0.30451
28845,7.4931,5.3636,0.1,0.00040516,4048.8,0.00040496,4043,-0.00013313,0.036841,-0.00013466,-11.48,0.296
28846,7.5845,5.2727,0.1,0.00040232,4020.4,0.00040203,4011.9,-0.00013192,0.04636,-0.00013419,-17.009,0.30349
28847,7.4931,5.5455,0.1,0.00040426,4039.8,0.00040405,4033.7,-0.0001328,0.0093902,-0.00013443,-12.235,0.29484
28848,7.5845,5.4545,0.1,0.00040118,4009,0.00040086,3999.8,-0.00013148,-0.0011072,-0.00013391,-18.271,0.30238
28849,7.4931,5.7273,0.1,0.0004034,4031.2,0.00040323,4026.4,-0.00013264,0.0046596,-0.00013392,-9.6257,0.29359
28850,7.5845,5.6364,0.1,0.00040004,3997.6,0.00039977,3989.8,-0.00013123,0.025336,-0.00013332,-15.671,0.30117
28851,7.5845,5.8182,0.1,0.00039896,3986.9,0.0003988,3982.1,-0.00013119,0.015916,-0.00013245,-9.4543,0.29988
28852,7.4931,5.9091,0.1,0.00040263,4023.5,0.00040255,4021.3,-0.00013265,-0.037323,-0.00013323,-4.3839,0.29226
28853,7.6759,0.27273,0.1,0.0003956,3953.2,0.00039533,3945.5,-0.00012978,0.015438,-0.00013184,-15.434,0.30755
28854,7.7672,0.18182,0.1,0.00039061,3903.4,0.00039038,3896.7,-0.00012823,0.031458,-0.00013002,-13.424,0.31397
28855,7.6759,0.090909,0.1,0.00039443,3941.5,0.00039432,3938.3,-0.00012985,-0.025894,-0.00013069,-6.4046,0.30622
28856,7.6759,0.45455,0.1,0.00039695,3966.8,0.00039658,3955.9,-0.00012992,0.0095526,-0.00013281,-21.691,0.30879
28857,7.7672,0.36364,0.1,0.0003922,3919.3,0.00039179,3907.3,-0.00012824,0.041501,-0.00013142,-23.872,0.31526
28858,7.6759,0.63636,0.1,0.00039834,3980.7,0.00039793,3968.7,-0.00013027,0.0091086,-0.00013344,-23.799,0.30995
28859,7.7672,0.54545,0.1,0.00039387,3936,0.00039336,3921,-0.0001285,-0.0097986,-0.00013247,-29.869,0.31646
28860,7.6759,0.81818,0.1,0.00039972,3994.5,0.00039935,3983.6,-0.00013083,0.058854,-0.00013372,-21.715,0.31102
28861,7.7672,0.72727,0.1,0.00039557,3953,0.00039503,3937.3,-0.00012899,0.023791,-0.00013314,-31.192,0.31757
28862,7.6759,1,0.1,0.00040105,4007.7,0.00040078,3999.9,-0.00013155,0.17063,-0.00013366,-15.67,0.312
28863,7.7672,0.90909,0.1,0.00039724,3969.6,0.00039676,3955.6,-0.00012969,0.074465,-0.00013343,-27.974,0.3186
28864,7.6759,1.1818,0.1,0.00040228,4020,0.00040218,4017.2,-0.00013238,0.66879,-0.00013332,-6.3575,0.31289
28865,7.7672,1.0909,0.1,0.00039883,3985.6,0.00039848,3975.4,-0.00013058,0.18879,-0.00013334,-20.535,0.31953
28866,7.6759,1.3636,0.1,0.0004034,4031.2,0.00040352,4034.8,-0.00013242,7.9352,-0.00013358,-0.72094,0.3137
28867,7.7672,1.2727,0.1,0.00040032,4000.4,0.00040017,3995.9,-0.00013158,0.5958,-0.00013294,-9.5991,0.32038
28868,7.6759,1.5455,0.1,0.00040439,4041.1,0.00040477,4052.3,-0.00013153,22.782,-0.0001346,-0.29959,0.31441
28869,7.7672,1.4545,0.1,0.00040167,4013.9,0.00040176,4016.6,-0.00013195,6.5609,-0.00013297,-1.1136,0.32114
28870,7.6759,1.7273,0.1,0.00040524,4049.6,0.00040589,4069.1,-0.00013042,39.437,-0.00013569,-0.18687,0.31504
28871,7.7672,1.6364,0.1,0.00040286,4025.8,0.00040323,4036.9,-0.00013104,22.518,-0.00013409,-0.37091,0.32182
28872,7.6759,1.9091,0.1,0.00040595,4056.7,0.00040688,4084.7,-0.00012921,56.681,-0.00013677,-0.12813,0.31559
28873,7.7672,1.8182,0.1,0.00040389,4036.1,0.00040456,4056,-0.0001299,40.314,-0.00013529,-0.21507,0.3224
28874,7.6759,2.0909,0.1,0.00040653,4062.5,0.00040773,4098.7,-0.00012799,73.471,-0.00013778,-0.089091,0.31605
28875,7.7672,2,0.1,0.00040476,4044.8,0.00040572,4073.6,-0.00012868,58.356,-0.00013646,-0.14082,0.3229
28876,7.6759,2.2727,0.1,0.00040698,4067,0.00040842,4110.7,-0.00012686,88.81,-0.00013868,-0.060644,0.31642
28877,7.7672,2.1818,0.1,0.00040547,4051.9,0.0004067,4089,-0.00012747,75.483,-0.00013753,-0.094258,0.32332
28878,7.6759,2.4545,0.1,0.00040732,4070.4,0.00040896,4120.4,-0.00012588,101.79,-0.00013943,-0.039717,0.31671
28879,7.7672,2.3636,0.1,0.00040602,4057.4,0.00040749,4101.9,-0.00012639,90.631,-0.00013846,-0.062038,0.32365
28880,7.6759,2.6364,0.1,0.00040756,4072.8,0.00040935,4127.5,-0.00012513,111.64,-0.00013999,-0.025162,0.31691
28881,7.7672,2.5455,0.1,0.00040643,4061.5,0.00040808,4112,-0.00012549,102.87,-0.00013919,-0.039655,0.3239
28882,7.6759,2.8182,0.1,0.0004077,4074.2,0.00040958,4131.8,-0.00012466,117.8,-0.00014034,-0.016539,0.31704
28883,7.7672,2.7273,0.1,0.0004067,4064.2,0.00040849,4118.8,-0.00012486,111.46,-0.0001397,-0.025334,0.32406
28884,7.6759,3,0.1,0.00040775,4074.7,0.00040966,4133.3,-0.0001245,119.89,-0.00014045,-0.013678,0.31708
28885,7.7672,2.9091,0.1,0.00040684,4065.6,0.00040869,4122.3,-0.00012453,115.88,-0.00013996,-0.01832,0.32415
28886,7.6759,3.1818,0.1,0.0004077,4074.2,0.00040958,4131.8,-0.00012466,117.8,-0.00014034,-0.016538,0.31704
28887,7.7672,3.0909,0.1,0.00040684,4065.6,0.00040869,4122.3,-0.00012453,115.88,-0.00013996,-0.01832,0.32415
28888,7.6759,3.3636,0.1,0.00040756,4072.8,0.00040935,4127.5,-0.00012513,111.64,-0.00013999,-0.025162,0.31691
28889,7.7672,3.2727,0.1,0.0004067,4064.2,0.00040849,4118.8,-0.00012486,111.46,-0.0001397,-0.025334,0.32406
28890,7.6759,3.5455,0.1,0.00040732,4070.4,0.00040896,4120.4,-0.00012588,101.79,-0.00013943,-0.039716,0.31671
28891,7.7672,3.4545,0.1,0.00040643,4061.5,0.00040808,4112,-0.00012549,102.87,-0.00013919,-0.039655,0.3239
28892,7.6759,3.7273,0.1,0.00040698,4067,0.00040842,4110.7,-0.00012686,88.81,-0.00013868,-0.060643,0.31642
28893,7.7672,3.6364,0.1,0.00040602,4057.4,0.00040749,4101.9,-0.00012639,90.631,-0.00013846,-0.062037,0.32365
28894,7.6759,3.9091,0.1,0.00040653,4062.5,0.00040773,4098.7,-0.00012799,73.471,-0.00013778,-0.08909,0.31605
28895,7.7672,3.8182,0.1,0.00040547,4051.9,0.0004067,4089,-0.00012747,75.483,-0.00013753,-0.094257,0.32332
28896,7.6759,4.0909,0.1,0.00040595,4056.7,0.00040688,4084.7,-0.00012921,56.681,-0.00013677,-0.12813,0.31559
28897,7.7672,4,0.1,0.00040476,4044.8,0.00040572,4073.6,-0.00012868,58.356,-0.00013646,-0.14082,0.3229
28898,7.6759,4.2727,0.1,0.00040524,4049.6,0.00040589,4069.1,-0.00013042,39.437,-0.00013569,-0.18687,0.31504
28899,7.7672,4.1818,0.1,0.00040389,4036.1,0.00040456,4056,-0.0001299,40.314,-0.00013529,-0.21507,0.3224
28900,7.6759,4.4545,0.1,0.00040439,4041.1,0.00040477,4052.3,-0.00013153,22.782,-0.0001346,-0.29958,0.31441
28901,7.7672,4.3636,0.1,0.00040286,4025.8,0.00040323,4036.9,-0.00013104,22.518,-0.00013409,-0.37091,0.32182
28902,7.6759,4.6364,0.1,0.0004034,4031.2,0.00040352,4034.8,-0.00013242,7.9352,-0.00013358,-0.72094,0.3137
28903,7.7672,4.5455,0.1,0.00040167,4013.9,0.00040176,4016.6,-0.00013195,6.5609,-0.00013297,-1.1136,0.32114
28904,7.6759,4.8182,0.1,0.00040228,4020,0.00040218,4017.2,-0.00013238,0.66879,-0.00013332,-6.3575,0.31289
28905,7.7672,4.7273,0.1,0.00040032,4000.4,0.00040017,3995.9,-0.00013158,0.5958,-0.00013294,-9.5991,0.32038
28906,7.6759,5,0.1,0.00040105,4007.7,0.00040078,3999.9,-0.00013155,0.17063,-0.00013366,-15.67,0.312
28907,7.7672,4.9091,0.1,0.00039883,3985.6,0.00039848,3975.4,-0.00013058,0.18879,-0.00013334,-20.535,0.31953
28908,7.6759,5.1818,0.1,0.00039972,3994.5,0.00039935,3983.6,-0.00013083,0.058855,-0.00013372,-21.715,0.31102
28909,7.7672,5.0909,0.1,0.00039724,3969.6,0.00039676,3955.6,-0.00012969,0.074467,-0.00013343,-27.974,0.3186
28910,7.6759,5.3636,0.1,0.00039834,3980.7,0.00039793,3968.7,-0.00013027,0.0091093,-0.00013344,-23.799,0.30995
28911,7.7672,5.2727,0.1,0.00039557,3953,0.00039503,3937.3,-0.00012899,0.023792,-0.00013314,-31.192,0.31757
28912,7.6759,5.5455,0.1,0.00039695,3966.8,0.00039658,3955.9,-0.00012992,0.0095537,-0.00013281,-21.691,0.30879
28913,7.7672,5.4545,0.1,0.00039387,3936,0.00039336,3921,-0.0001285,-0.0097982,-0.00013247,-29.869,0.31646
28914,7.6759,5.7273,0.1,0.0003956,3953.2,0.00039533,3945.5,-0.00012978,0.015439,-0.00013184,-15.434,0.30755
28915,7.7672,5.6364,0.1,0.0003922,3919.3,0.00039179,3907.3,-0.00012824,0.041503,-0.00013142,-23.872,0.31526
28916,7.7672,5.8182,0.1,0.00039061,3903.4,0.00039038,3896.7,-0.00012823,0.03146,-0.00013002,-13.424,0.31397
28917,7.6759,5.9091,0.1,0.00039443,3941.5,0.00039432,3938.3,-0.00012985,-0.025893,-0.00013069,-6.4046,0.30622
28918,7.8586,0.27273,0.1,0.00038721,3869.4,0.00038683,3858.5,-0.00012669,0.026942,-0.0001296,-21.791,0.32177
28919,7.95,0.18182,0.1,0.00038156,3812.9,0.00038125,3804,-0.00012503,0.045797,-0.0001274,-17.771,0.32832
28920,7.8586,0.090909,0.1,0.00038558,3853.2,0.00038544,3848.9,-0.00012682,-0.013555,-0.00012796,-8.6025,0.32044
28921,7.8586,0.45455,0.1,0.00038912,3888.5,0.00038857,3872.4,-0.00012682,0.015105,-0.00013108,-32.039,0.32301
28922,7.95,0.36364,0.1,0.00038373,3834.7,0.00038316,3818.2,-0.00012499,0.059932,-0.00012938,-32.859,0.32961
28923,7.8586,0.63636,0.1,0.0003911,3908.3,0.00039045,3889.5,-0.00012721,0.00099985,-0.00013217,-37.266,0.32417
28924,7.95,0.54545,0.1,0.00038602,3857.6,0.00038528,3836.1,-0.00012528,-0.013719,-0.00013094,-42.558,0.33081
28925,7.8586,0.81818,0.1,0.00039309,3928.2,0.00039244,3909.3,-0.00012786,0.037284,-0.00013285,-37.465,0.32524
28926,7.95,0.72727,0.1,0.00038837,3881.1,0.00038756,3857.5,-0.00012584,0.017876,-0.00013206,-46.704,0.33192
28927,7.8586,1,0.1,0.00039503,3947.6,0.00039446,3931.1,-0.00012872,0.09705,-0.00013311,-32.863,0.32622
28928,7.95,0.90909,0.1,0.00039072,3904.5,0.00038993,3881.6,-0.00012668,0.055388,-0.00013273,-45.456,0.33294
28929,7.8586,1.1818,0.1,0.00039688,3966,0.00039647,3954.1,-0.00012976,0.2218,-0.00013298,-23.902,0.32711
28930,7.95,1.0909,0.1,0.00039301,3927.3,0.00039233,3907.7,-0.00012774,0.12556,-0.00013296,-39.126,0.33388
28931,7.8586,1.3636,0.1,0.00039859,3983.2,0.00039841,3977.8,-0.00013092,0.64011,-0.00013252,-11.428,0.32792
28932,7.95,1.2727,0.1,0.00039517,3949,0.00039469,3934.9,-0.00012898,0.26199,-0.00013278,-28.276,0.33473
28933,7.8586,1.5455,0.1,0.00040015,3998.7,0.00040023,4001.2,-0.00013144,6.4698,-0.00013248,-1.373,0.32863
28934,7.95,1.4545,0.1,0.00039718,3969.1,0.00039696,3962.5,-0.00013032,0.6925,-0.00013226,-13.879,0.33549
28935,7.8586,1.7273,0.1,0.00040152,4012.4,0.00040191,4023.9,-0.00013052,23.399,-0.00013369,-0.41537,0.32926
28936,7.95,1.6364,0.1,0.000399,3987.2,0.00039908,3989.5,-0.00013106,6.2859,-0.00013213,-1.7681,0.33617
28937,7.8586,1.9091,0.1,0.0004027,4024.3,0.0004034,4045,-0.00012937,41.983,-0.00013499,-0.23057,0.32981
28938,7.95,1.8182,0.1,0.0004006,4003.3,0.000401,4015.2,-0.00013013,24.424,-0.00013345,-0.4766,0.33676
28939,7.8586,2.0909,0.1,0.0004037,4034.2,0.00040469,4064,-0.00012816,60.361,-0.00013621,-0.14584,0.33026
28940,7.95,2,0.1,0.00040198,4017,0.00040271,4038.8,-0.00012895,44.077,-0.00013485,-0.25201,0.33726
28941,7.8586,2.2727,0.1,0.00040451,4042.3,0.00040576,4080.3,-0.00012701,77.299,-0.00013731,-0.094554,0.33064
28942,7.95,2.1818,0.1,0.00040313,4028.5,0.00040416,4059.6,-0.00012775,62.994,-0.00013615,-0.15352,0.33767
28943,7.8586,2.4545,0.1,0.00040513,4048.5,0.00040661,4093.6,-0.000126,91.708,-0.00013822,-0.060523,0.33093
28944,7.95,2.3636,0.1,0.00040405,4037.8,0.00040535,4077,-0.00012664,79.84,-0.00013728,-0.096279,0.33801
28945,7.8586,2.6364,0.1,0.00040557,4053,0.00040722,4103.3,-0.00012523,102.68,-0.0001389,-0.038233,0.33113
28946,7.95,2.5455,0.1,0.00040475,4044.7,0.00040626,4090.6,-0.00012572,93.501,-0.00013818,-0.060155,0.33825
28947,7.8586,2.8182,0.1,0.00040584,4055.6,0.00040759,4109.3,-0.00012474,109.55,-0.00013932,-0.025469,0.33126
28948,7.95,2.7273,0.1,0.00040522,4049.4,0.00040687,4099.9,-0.00012507,103.11,-0.0001388,-0.038281,0.33842
28949,7.8586,3,0.1,0.00040593,4056.5,0.00040772,4111.3,-0.00012457,111.88,-0.00013946,-0.021301,0.3313
28950,7.95,2.9091,0.1,0.00040545,4051.7,0.00040718,4104.6,-0.00012473,108.06,-0.00013912,-0.027875,0.3385
28951,7.8586,3.1818,0.1,0.00040584,4055.6,0.00040759,4109.3,-0.00012474,109.55,-0.00013932,-0.025469,0.33126
28952,7.95,3.0909,0.1,0.00040545,4051.7,0.00040718,4104.6,-0.00012473,108.06,-0.00013912,-0.027876,0.3385
28953,7.8586,3.3636,0.1,0.00040557,4053,0.00040722,4103.3,-0.00012523,102.68,-0.0001389,-0.038233,0.33113
28954,7.95,3.2727,0.1,0.00040522,4049.4,0.00040687,4099.9,-0.00012507,103.11,-0.0001388,-0.038281,0.33842
28955,7.8586,3.5455,0.1,0.00040513,4048.5,0.00040661,4093.6,-0.000126,91.708,-0.00013822,-0.060523,0.33093
28956,7.95,3.4545,0.1,0.00040475,4044.7,0.00040626,4090.6,-0.00012572,93.501,-0.00013818,-0.060155,0.33825
28957,7.8586,3.7273,0.1,0.00040451,4042.3,0.00040576,4080.3,-0.00012701,77.299,-0.00013731,-0.094554,0.33064
28958,7.95,3.6364,0.1,0.00040405,4037.8,0.00040535,4077,-0.00012664,79.84,-0.00013728,-0.096278,0.33801
28959,7.8586,3.9091,0.1,0.0004037,4034.2,0.00040469,4064,-0.00012816,60.361,-0.00013621,-0.14584,0.33026
28960,7.95,3.8182,0.1,0.00040313,4028.5,0.00040416,4059.6,-0.00012775,62.994,-0.00013615,-0.15352,0.33767
28961,7.8586,4.0909,0.1,0.0004027,4024.3,0.0004034,4045,-0.00012937,41.983,-0.00013499,-0.23057,0.32981
28962,7.95,4,0.1,0.00040198,4017,0.00040271,4038.8,-0.00012895,44.077,-0.00013485,-0.25201,0.33726
28963,7.8586,4.2727,0.1,0.00040152,4012.4,0.00040191,4023.9,-0.00013052,23.399,-0.00013369,-0.41536,0.32926
28964,7.95,4.1818,0.1,0.0004006,4003.3,0.000401,4015.2,-0.00013013,24.424,-0.00013345,-0.4766,0.33676
28965,7.8586,4.4545,0.1,0.00040015,3998.7,0.00040023,4001.2,-0.00013144,6.4698,-0.00013248,-1.373,0.32863
28966,7.95,4.3636,0.1,0.000399,3987.2,0.00039908,3989.5,-0.00013106,6.2859,-0.00013213,-1.7681,0.33617
28967,7.8586,4.6364,0.1,0.00039859,3983.2,0.00039841,3977.8,-0.00013092,0.64011,-0.00013252,-11.428,0.32792
28968,7.95,4.5455,0.1,0.00039718,3969.1,0.00039696,3962.5,-0.00013032,0.6925,-0.00013226,-13.879,0.33549
28969,7.8586,4.8182,0.1,0.00039688,3966,0.00039647,3954.1,-0.00012976,0.2218,-0.00013298,-23.902,0.32711
28970,7.95,4.7273,0.1,0.00039517,3949,0.00039469,3934.9,-0.00012898,0.26199,-0.00013278,-28.276,0.33473
28971,7.8586,5,0.1,0.00039503,3947.6,0.00039446,3931.1,-0.00012872,0.097051,-0.00013311,-32.863,0.32622
28972,7.95,4.9091,0.1,0.00039301,3927.3,0.00039233,3907.7,-0.00012774,0.12556,-0.00013296,-39.126,0.33388
28973,7.8586,5.1818,0.1,0.00039309,3928.2,0.00039244,3909.3,-0.00012786,0.037285,-0.00013285,-37.465,0.32524
28974,7.95,5.0909,0.1,0.00039072,3904.5,0.00038993,3881.6,-0.00012668,0.055389,-0.00013273,-45.456,0.33294
28975,7.8586,5.3636,0.1,0.0003911,3908.3,0.00039045,3889.5,-0.00012721,0.0010004,-0.00013217,-37.266,0.32417
28976,7.95,5.2727,0.1,0.00038837,3881.1,0.00038756,3857.5,-0.00012584,0.017877,-0.00013206,-46.704,0.33192
28977,7.8586,5.5455,0.1,0.00038912,3888.5,0.00038857,3872.4,-0.00012682,0.015106,-0.00013108,-32.039,0.32301
28978,7.95,5.4545,0.1,0.00038602,3857.6,0.00038528,3836.1,-0.00012528,-0.013719,-0.00013094,-42.558,0.33081
28979,7.8586,5.7273,0.1,0.00038721,3869.4,0.00038683,3858.5,-0.00012669,0.026943,-0.0001296,-21.791,0.32177
28980,7.95,5.6364,0.1,0.00038373,3834.7,0.00038316,3818.2,-0.00012499,0.059934,-0.00012938,-32.859,0.32961
28981,7.95,5.8182,0.1,0.00038156,3812.9,0.00038125,3804,-0.00012503,0.045799,-0.0001274,-17.771,0.32832
28982,7.8586,5.9091,0.1,0.00038558,3853.2,0.00038544,3848.9,-0.00012682,-0.013554,-0.00012796,-8.6025,0.32044
28983,8.0414,0.27273,0.1,0.00037808,3778.1,0.00037758,3763.7,-0.00012333,0.037618,-0.00012717,-28.764,0.33625
28984,8.1328,0.18182,0.1,0.00037163,3713.7,0.00037124,3702.4,-0.00012151,0.056352,-0.00012452,-22.549,0.34293
28985,8.0414,0.090909,0.1,0.00037594,3756.8,0.00037575,3751.3,-0.00012351,-0.00061095,-0.00012498,-11.008,0.33492
28986,8.0414,0.45455,0.1,0.00038063,3803.7,0.00037988,3781.9,-0.00012345,0.022683,-0.00012923,-43.377,0.33749
28987,8.1328,0.36364,0.1,0.00037447,3742.1,0.00037372,3720.6,-0.00012145,0.079485,-0.00012714,-42.696,0.34421
28988,8.0414,0.63636,0.1,0.0003833,3830.4,0.00038239,3804.1,-0.0001239,-0.0015074,-0.00013083,-52.016,0.33865
28989,8.1328,0.54545,0.1,0.00037748,3772.2,0.00037649,3743.6,-0.00012176,-0.015604,-0.00012927,-56.44,0.34541
28990,8.0414,0.81818,0.1,0.00038601,3857.5,0.00038505,3829.8,-0.00012466,0.03207,-0.00013195,-54.727,0.33971
28991,8.1328,0.72727,0.1,0.0003806,3803.4,0.00037948,3771.2,-0.00012243,0.018455,-0.00013091,-63.698,0.34653
28992,8.0414,1,0.1,0.00038871,3884.4,0.0003878,3858.3,-0.00012569,0.079558,-0.00013259,-51.754,0.3407
28993,8.1328,0.90909,0.1,0.00038377,3835.1,0.00038263,3802.4,-0.00012342,0.052235,-0.00013204,-64.661,0.34755
28994,8.0414,1.1818,0.1,0.00039131,3910.4,0.00039056,3888.5,-0.00012696,0.16019,-0.00013277,-43.534,0.34159
28995,8.1328,1.0909,0.1,0.00038691,3866.4,0.00038586,3836.3,-0.0001247,0.11111,-0.00013266,-59.632,0.34849
28996,8.0414,1.3636,0.1,0.00039377,3935,0.00039325,3919.7,-0.00012839,0.31637,-0.00013253,-30.765,0.3424
28997,8.1328,1.2727,0.1,0.00038993,3896.6,0.00038907,3871.9,-0.00012622,0.2039,-0.00013279,-49.153,0.34935
28998,8.0414,1.5455,0.1,0.00039604,3957.7,0.00039581,3950.8,-0.0001299,0.8161,-0.00013195,-14.613,0.34312
28999,8.1328,1.4545,0.1,0.00039277,3925,0.00039219,3908,-0.00012789,0.38356,-0.00013248,-34.065,0.35011
29000,8.0414,1.7273,0.1,0.00039809,3978.1,0.00039818,3980.8,-0.00013067,7.2639,-0.00013188,-1.8091,0.34375
29001,8.1328,1.6364,0.1,0.00039538,3951.1,0.00039513,3943.6,-0.00012961,0.96391,-0.00013184,-15.75,0.35079
29002,8.0414,1.9091,0.1,0.00039988,3996,0.00040032,4009,-0.00012972,26.497,-0.00013331,-0.49649,0.34429
29003,8.1328,1.8182,0.1,0.00039772,3974.4,0.00039782,3977.6,-0.00013046,8.327,-0.00013182,-1.9165,0.35138
29004,8.0414,2.0909,0.1,0.00040141,4011.4,0.00040218,4034.4,-0.00012855,46.693,-0.00013479,-0.2571,0.34475
29005,8.1328,2,0.1,0.00039976,3994.8,0.00040023,4008.9,-0.00012947,28.928,-0.00013339,-0.52738,0.35188
29006,8.0414,2.2727,0.1,0.00040268,4024,0.00040375,4056.3,-0.00012739,65.523,-0.00013613,-0.15248,0.34513
29007,8.1328,2.1818,0.1,0.00040148,4012.1,0.0004023,4036.6,-0.0001283,49.881,-0.00013497,-0.26627,0.3523
29008,8.0414,2.4545,0.1,0.00040367,4034,0.000405,4074.1,-0.00012637,81.625,-0.00013724,-0.093207,0.34542
29009,8.1328,2.3636,0.1,0.00040289,4026.1,0.00040401,4060,-0.00012719,68.712,-0.00013636,-0.15346,0.35263
29010,8.0414,2.6364,0.1,0.00040439,4041.1,0.00040591,4087.2,-0.00012557,93.921,-0.00013808,-0.057589,0.34563
29011,8.1328,2.5455,0.1,0.00040396,4036.8,0.00040533,4078.2,-0.00012626,84.033,-0.00013746,-0.091753,0.35288
29012,8.0414,2.8182,0.1,0.00040483,4045.5,0.00040646,4095.3,-0.00012507,101.62,-0.0001386,-0.03814,0.34575
29013,8.1328,2.7273,0.1,0.00040469,4044.1,0.00040622,4090.6,-0.00012559,94.814,-0.00013822,-0.057162,0.35305
29014,8.0414,3,0.1,0.00040497,4046.9,0.00040664,4098,-0.0001249,104.24,-0.00013877,-0.031926,0.34579
29015,8.1328,2.9091,0.1,0.00040506,4047.8,0.00040667,4097,-0.00012525,100.37,-0.00013861,-0.041352,0.35313
29016,8.0414,3.1818,0.1,0.00040483,4045.5,0.00040646,4095.3,-0.00012507,101.62,-0.0001386,-0.03814,0.34575
29017,8.1328,3.0909,0.1,0.00040506,4047.8,0.00040667,4097,-0.00012525,100.37,-0.00013861,-0.041352,0.35313
29018,8.0414,3.3636,0.1,0.00040439,4041.1,0.00040591,4087.2,-0.00012557,93.921,-0.00013808,-0.057589,0.34563
29019,8.1328,3.2727,0.1,0.00040469,4044.1,0.00040622,4090.6,-0.00012559,94.814,-0.00013822,-0.057162,0.35305
29020,8.0414,3.5455,0.1,0.00040367,4034,0.000405,4074.1,-0.00012637,81.625,-0.00013724,-0.093207,0.34542
29021,8.1328,3.4545,0.1,0.00040396,4036.8,0.00040533,4078.2,-0.00012626,84.033,-0.00013746,-0.091753,0.35288
29022,8.0414,3.7273,0.1,0.00040268,4024,0.00040375,4056.3,-0.00012739,65.523,-0.00013613,-0.15248,0.34513
29023,8.1328,3.6364,0.1,0.00040289,4026.1,0.00040401,4060,-0.00012719,68.712,-0.00013636,-0.15346,0.35263
29024,8.0414,3.9091,0.1,0.00040141,4011.4,0.00040218,4034.4,-0.00012855,46.693,-0.00013479,-0.2571,0.34475
29025,8.1328,3.8182,0.1,0.00040148,4012.1,0.0004023,4036.6,-0.0001283,49.881,-0.00013497,-0.26627,0.3523
29026,8.0414,4.0909,0.1,0.00039988,3996,0.00040032,4009,-0.00012972,26.497,-0.00013331,-0.49649,0.34429
29027,8.1328,4,0.1,0.00039976,3994.8,0.00040023,4008.9,-0.00012947,28.928,-0.00013339,-0.52738,0.35188
29028,8.0414,4.2727,0.1,0.00039809,3978.1,0.00039818,3980.8,-0.00013067,7.2639,-0.00013188,-1.8091,0.34375
29029,8.1328,4.1818,0.1,0.00039772,3974.4,0.00039782,3977.6,-0.00013046,8.327,-0.00013182,-1.9165,0.35138
29030,8.0414,4.4545,0.1,0.00039604,3957.7,0.00039581,3950.8,-0.0001299,0.8161,-0.00013195,-14.613,0.34312
29031,8.1328,4.3636,0.1,0.00039538,3951.1,0.00039513,3943.6,-0.00012961,0.96391,-0.00013184,-15.75,0.35079
29032,8.0414,4.6364,0.1,0.00039377,3935,0.00039325,3919.7,-0.00012839,0.31637,-0.00013253,-30.765,0.3424
29033,8.1328,4.5455,0.1,0.00039277,3925,0.00039219,3908,-0.00012789,0.38356,-0.00013248,-34.065,0.35011
29034,8.0414,4.8182,0.1,0.00039131,3910.4,0.00039056,3888.5,-0.00012696,0.16019,-0.00013277,-43.534,0.34159
29035,8.1328,4.7273,0.1,0.00038993,3896.6,0.00038907,3871.9,-0.00012622,0.2039,-0.00013279,-49.153,0.34935
29036,8.0414,5,0.1,0.00038871,3884.4,0.0003878,3858.3,-0.00012569,0.079559,-0.00013259,-51.754,0.3407
29037,8.1328,4.9091,0.1,0.00038691,3866.4,0.00038586,3836.3,-0.0001247,0.11111,-0.00013266,-59.632,0.34849
29038,8.0414,5.1818,0.1,0.00038601,3857.5,0.00038505,3829.8,-0.00012466,0.032072,-0.00013195,-54.727,0.33971
29039,8.1328,5.0909,0.1,0.00038377,3835.1,0.00038263,3802.4,-0.00012342,0.052236,-0.00013204,-64.661,0.34755
29040,8.0414,5.3636,0.1,0.0003833,3830.4,0.00038239,3804.1,-0.0001239,-0.0015067,-0.00013083,-52.016,0.33865
29041,8.1328,5.2727,0.1,0.0003806,3803.4,0.00037948,3771.2,-0.00012243,0.018456,-0.00013091,-63.698,0.34653
29042,8.0414,5.5455,0.1,0.00038063,3803.7,0.00037988,3781.9,-0.00012345,0.022684,-0.00012923,-43.377,0.33749
29043,8.1328,5.4545,0.1,0.00037748,3772.2,0.00037649,3743.6,-0.00012176,-0.015603,-0.00012927,-56.44,0.34541
29044,8.0414,5.7273,0.1,0.00037808,3778.1,0.00037758,3763.7,-0.00012333,0.037619,-0.00012717,-28.764,0.33625
29045,8.1328,5.6364,0.1,0.00037447,3742.1,0.00037372,3720.6,-0.00012145,0.079486,-0.00012714,-42.696,0.34421
29046,8.1328,5.8182,0.1,0.00037163,3713.7,0.00037124,3702.4,-0.00012151,0.056353,-0.00012452,-22.549,0.34293
29047,8.0414,5.9091,0.1,0.00037594,3756.8,0.00037575,3751.3,-0.00012351,-0.00060993,-0.00012498,-11.008,0.33492
29048,8.2241,0.27273,0.1,0.00036801,3677.6,0.00036738,3659.3,-0.00011963,0.045889,-0.00012448,-36.409,0.35098
29049,8.3155,0.18182,0.1,0.00036061,3603.6,0.00036013,3589.6,-0.00011762,0.059427,-0.00012132,-27.806,0.35778
29050,8.2241,0.090909,0.1,0.00036529,3650.3,0.00036505,3643.5,-0.00011987,0.012551,-0.00012168,-13.649,0.34965
29051,8.2241,0.45455,0.1,0.00037131,3710.6,0.00037033,3682.4,-0.00011976,0.031333,-0.00012718,-55.776,0.35222
29052,8.3155,0.36364,0.1,0.0003642,3639.5,0.00036326,3612.5,-0.00011752,0.099166,-0.00012464,-53.413,0.35907
29053,8.2241,0.63636,0.1,0.00037479,3745.3,0.00037358,3710.8,-0.00012029,-0.00079729,-0.00012936,-68.169,0.35338
29054,8.3155,0.54545,0.1,0.00036805,3677.9,0.00036678,3641.6,-0.00011789,-0.016003,-0.00012742,-71.571,0.36027
29055,8.2241,0.81818,0.1,0.00037838,3781.1,0.00037707,3743.8,-0.00012119,0.034426,-0.00013101,-73.697,0.35445
29056,8.3155,0.72727,0.1,0.0003721,3718.4,0.00037063,3676.6,-0.00011869,0.023699,-0.00012965,-82.308,0.36139
29057,8.2241,1,0.1,0.00038199,3817.2,0.0003807,3780.5,-0.00012244,0.07899,-0.00013211,-72.61,0.35544
29058,8.3155,0.90909,0.1,0.00037627,3760.1,0.00037474,3716.5,-0.00011989,0.057853,-0.00013132,-85.838,0.36242
29059,8.2241,1.1818,0.1,0.00038554,3852.7,0.00038439,3819.7,-0.00012397,0.14751,-0.00013268,-65.321,0.35633
29060,8.3155,1.0909,0.1,0.00038045,3801.9,0.00037899,3760.1,-0.00012144,0.11447,-0.00013242,-82.413,0.36336
29061,8.2241,1.3636,0.1,0.00038894,3886.7,0.00038802,3860.3,-0.00012572,0.25555,-0.00013274,-52.509,0.35714
29062,8.3155,1.2727,0.1,0.00038455,3842.8,0.00038327,3806.2,-0.00012328,0.19415,-0.00013295,-72.519,0.36422
29063,8.2241,1.5455,0.1,0.00039212,3918.5,0.00039151,3901,-0.00012761,0.46756,-0.00013236,-35.2,0.35787
29064,8.3155,1.4545,0.1,0.00038845,3881.8,0.00038746,3853.2,-0.00012533,0.32081,-0.00013295,-56.962,0.36499
29065,8.2241,1.7273,0.1,0.00039502,3947.4,0.00039478,3940.5,-0.00012951,1.2041,-0.00013167,-15.085,0.3585
29066,8.3155,1.6364,0.1,0.00039207,3918,0.00039144,3899.7,-0.0001275,0.5736,-0.0001325,-36.979,0.36567
29067,8.2241,1.9091,0.1,0.0003976,3973.2,0.00039774,3977.6,-0.00013024,10.504,-0.00013187,-1.7318,0.35905
29068,8.3155,1.8182,0.1,0.00039535,3950.8,0.00039513,3944.2,-0.00012961,1.5196,-0.00013177,-14.662,0.36626
29069,8.2241,2.0909,0.1,0.00039983,3995.5,0.00040036,4011.2,-0.00012924,32.069,-0.00013357,-0.51686,0.35951
29070,8.3155,2,0.1,0.00039825,3979.7,0.00039844,3985.4,-0.00013026,12.983,-0.0001322,-1.6365,0.36677
29071,8.2241,2.2727,0.1,0.0004017,4014.2,0.00040257,4040.3,-0.00012811,53.045,-0.0001352,-0.25916,0.35989
29072,8.3155,2.1818,0.1,0.00040073,4004.5,0.00040132,4022,-0.00012923,35.672,-0.00013405,-0.51579,0.36719
29073,8.2241,2.4545,0.1,0.00040318,4029,0.00040434,4064,-0.00012709,71.105,-0.00013657,-0.14655,0.36018
29074,8.3155,2.3636,0.1,0.00040277,4025,0.0004037,4052.9,-0.00012815,56.741,-0.00013574,-0.25546,0.36753
29075,8.2241,2.6364,0.1,0.00040426,4039.8,0.00040564,4081.6,-0.00012628,84.92,-0.0001376,-0.086869,0.36039
29076,8.3155,2.5455,0.1,0.00040435,4040.7,0.00040555,4077.1,-0.00012723,73.946,-0.00013709,-0.14209,0.36778
29077,8.2241,2.8182,0.1,0.00040492,4046.4,0.00040643,4092.4,-0.00012578,93.569,-0.00013824,-0.056357,0.36051
29078,8.3155,2.7273,0.1,0.00040542,4051.4,0.00040682,4093.7,-0.00012657,86.049,-0.00013804,-0.085178,0.36795
29079,8.2241,3,0.1,0.00040514,4048.6,0.0004067,4096,-0.0001256,96.511,-0.00013845,-0.046891,0.36056
29080,8.3155,2.9091,0.1,0.00040597,4056.9,0.00040746,4102.2,-0.00012623,92.283,-0.00013852,-0.060556,0.36803
29081,8.2241,3.1818,0.1,0.00040492,4046.4,0.00040643,4092.4,-0.00012578,93.569,-0.00013824,-0.056357,0.36051
29082,8.3155,3.0909,0.1,0.00040597,4056.9,0.00040746,4102.2,-0.00012623,92.283,-0.00013852,-0.060556,0.36803
29083,8.2241,3.3636,0.1,0.00040426,4039.8,0.00040564,4081.6,-0.00012628,84.92,-0.0001376,-0.086869,0.36039
29084,8.3155,3.2727,0.1,0.00040542,4051.4,0.00040682,4093.7,-0.00012657,86.049,-0.00013804,-0.085178,0.36795
29085,8.2241,3.5455,0.1,0.00040318,4029,0.00040434,4064,-0.00012709,71.105,-0.00013657,-0.14655,0.36018
29086,8.3155,3.4545,0.1,0.00040435,4040.7,0.00040555,4077.1,-0.00012723,73.946,-0.00013709,-0.14209,0.36778
29087,8.2241,3.7273,0.1,0.0004017,4014.2,0.00040257,4040.3,-0.00012811,53.045,-0.0001352,-0.25916,0.35989
29088,8.3155,3.6364,0.1,0.00040277,4025,0.0004037,4052.9,-0.00012815,56.741,-0.00013574,-0.25546,0.36753
29089,8.2241,3.9091,0.1,0.00039983,3995.5,0.00040036,4011.2,-0.00012924,32.069,-0.00013357,-0.51686,0.35951
29090,8.3155,3.8182,0.1,0.00040073,4004.5,0.00040132,4022,-0.00012923,35.672,-0.00013405,-0.51579,0.36719
29091,8.2241,4.0909,0.1,0.0003976,3973.2,0.00039774,3977.6,-0.00013024,10.504,-0.00013187,-1.7318,0.35905
29092,8.3155,4,0.1,0.00039825,3979.7,0.00039844,3985.4,-0.00013026,12.983,-0.0001322,-1.6365,0.36677
29093,8.2241,4.2727,0.1,0.00039502,3947.4,0.00039478,3940.5,-0.00012951,1.2041,-0.00013167,-15.085,0.3585
29094,8.3155,4.1818,0.1,0.00039535,3950.8,0.00039513,3944.2,-0.00012961,1.5196,-0.00013177,-14.662,0.36626
29095,8.2241,4.4545,0.1,0.00039212,3918.5,0.00039151,3901,-0.00012761,0.46756,-0.00013236,-35.2,0.35787
29096,8.3155,4.3636,0.1,0.00039207,3918,0.00039144,3899.7,-0.0001275,0.5736,-0.0001325,-36.979,0.36567
29097,8.2241,4.6364,0.1,0.00038894,3886.7,0.00038802,3860.3,-0.00012572,0.25555,-0.00013274,-52.509,0.35714
29098,8.3155,4.5455,0.1,0.00038845,3881.8,0.00038746,3853.2,-0.00012533,0.32081,-0.00013295,-56.962,0.36499
29099,8.2241,4.8182,0.1,0.00038554,3852.7,0.00038439,3819.7,-0.00012397,0.14751,-0.00013268,-65.321,0.35633
29100,8.3155,4.7273,0.1,0.00038455,3842.8,0.00038327,3806.2,-0.00012328,0.19415,-0.00013295,-72.519,0.36422
29101,8.2241,5,0.1,0.00038199,3817.2,0.0003807,3780.5,-0.00012244,0.078991,-0.00013211,-72.61,0.35544
29102,8.3155,4.9091,0.1,0.00038045,3801.9,0.00037899,3760.1,-0.00012144,0.11447,-0.00013242,-82.413,0.36336
29103,8.2241,5.1818,0.1,0.00037838,3781.1,0.00037707,3743.8,-0.00012119,0.034427,-0.00013101,-73.697,0.35445
29104,8.3155,5.0909,0.1,0.00037627,3760.1,0.00037474,3716.5,-0.00011989,0.057855,-0.00013132,-85.838,0.36242
29105,8.2241,5.3636,0.1,0.00037479,3745.3,0.00037358,3710.8,-0.00012029,-0.00079652,-0.00012936,-68.169,0.35338
29106,8.3155,5.2727,0.1,0.0003721,3718.4,0.00037063,3676.6,-0.00011869,0.0237,-0.00012965,-82.308,0.36139
29107,8.2241,5.5455,0.1,0.00037131,3710.6,0.00037033,3682.4,-0.00011976,0.031334,-0.00012718,-55.776,0.35222
29108,8.3155,5.4545,0.1,0.00036805,3677.9,0.00036678,3641.6,-0.00011789,-0.016003,-0.00012742,-71.571,0.36027
29109,8.2241,5.7273,0.1,0.00036801,3677.6,0.00036738,3659.3,-0.00011963,0.04589,-0.00012448,-36.409,0.35098
29110,8.3155,5.6364,0.1,0.0003642,3639.5,0.00036326,3612.5,-0.00011752,0.099167,-0.00012464,-53.413,0.35907
29111,8.3155,5.8182,0.1,0.00036061,3603.6,0.00036013,3589.6,-0.00011762,0.059428,-0.00012132,-27.806,0.35778
29112,8.2241,5.9091,0.1,0.00036529,3650.3,0.00036505,3643.5,-0.00011987,0.012552,-0.00012168,-13.649,0.34965
29113,8.4069,0.27273,0.1,0.00035679,3565.5,0.00035601,3542.9,-0.00011551,0.049604,-0.00012148,-44.749,0.36595
29114,8.4983,0.18182,0.1,0.00034825,3480.1,0.00034767,3463.2,-0.00011325,0.04985,-0.00011773,-33.571,0.37288
29115,8.4069,0.090909,0.1,0.0003534,3531.5,0.00035311,3523.2,-0.0001158,0.025296,-0.000118,-16.551,0.36463
29116,8.4069,0.45455,0.1,0.00036094,3606.9,0.00035971,3571.8,-0.00011566,0.040532,-0.00012488,-69.255,0.3672
29117,8.4983,0.36364,0.1,0.00035268,3524.3,0.00035153,3491.5,-0.00011314,0.11765,-0.0001218,-64.97,0.37417
29118,8.4069,0.63636,0.1,0.00036537,3651.2,0.00036383,3607.5,-0.0001163,0.0028933,-0.00012772,-85.802,0.36836
29119,8.4983,0.54545,0.1,0.00035749,3572.5,0.00035592,3527.7,-0.00011359,-0.014732,-0.00012529,-87.935,0.37537
29120,8.4069,0.81818,0.1,0.00037001,3697.6,0.00036831,3649.4,-0.00011739,0.042838,-0.00012998,-94.57,0.36944
29121,8.4983,0.72727,0.1,0.00036265,3624,0.0003608,3571.6,-0.00011455,0.033814,-0.00012822,-102.63,0.37649
29122,8.4069,1,0.1,0.00037476,3745,0.00037304,3696.2,-0.00011889,0.088687,-0.00013165,-95.775,0.37043
29123,8.4983,0.90909,0.1,0.00036805,3677.9,0.00036607,3622.1,-0.000116,0.07123,-0.00013055,-109.26,0.37753
29124,8.4069,1.1818,0.1,0.00037949,3792.3,0.00037789,3746.7,-0.00012075,0.15447,-0.00013271,-89.746,0.37133
29125,8.4983,1.0909,0.1,0.00037355,3732.9,0.0003716,3677.8,-0.00011787,0.12973,-0.00013226,-107.95,0.37848
29126,8.4069,1.3636,0.1,0.00038408,3838.2,0.00038272,3799.2,-0.00012289,0.2472,-0.00013318,-77.092,0.37215
29127,8.4983,1.2727,0.1,0.000379,3787.4,0.00037722,3737,-0.00012012,0.20586,-0.00013332,-99.036,0.37935
29128,8.4069,1.5455,0.1,0.00038842,3881.6,0.0003874,3852,-0.00012522,0.39514,-0.0001331,-58.824,0.37288
29129,8.4983,1.4545,0.1,0.00038425,3839.9,0.00038278,3797.8,-0.00012263,0.31437,-0.00013375,-83.211,0.38012
29130,8.4069,1.7273,0.1,0.00039242,3921.5,0.0003918,3903.5,-0.00012763,0.70144,-0.00013258,-36.461,0.37352
29131,8.4983,1.6364,0.1,0.00038918,3889.1,0.0003881,3858.1,-0.00012532,0.48931,-0.0001336,-61.719,0.38081
29132,8.4069,1.9091,0.1,0.00039602,3957.4,0.00039583,3952.1,-0.00012989,2.0168,-0.00013184,-12.657,0.37407
29133,8.4983,1.8182,0.1,0.00039367,3934,0.00039306,3916.1,-0.00012803,0.86654,-0.000133,-36.453,0.38141
29134,8.4069,2.0909,0.1,0.00039916,3988.8,0.00039941,3996.2,-0.00013029,16.318,-0.00013265,-1.4168,0.37454
29135,8.4983,2,0.1,0.00039768,3974,0.00039754,3969.9,-0.00013046,2.7458,-0.00013228,-10.898,0.38193
29136,8.4069,2.2727,0.1,0.00040181,4015.3,0.00040246,4034.6,-0.00012928,39.309,-0.00013458,-0.48329,0.37492
29137,8.4983,2.1818,0.1,0.00040114,4008.6,0.00040146,4018,-0.00013064,19.997,-0.00013347,-1.282,0.38235
29138,8.4069,2.4545,0.1,0.00040394,4036.6,0.00040492,4066,-0.0001283,59.556,-0.00013626,-0.23893,0.37521
29139,8.4983,2.3636,0.1,0.00040402,4037.4,0.00040473,4058.6,-0.00012968,43.262,-0.0001355,-0.45987,0.38269
29140,8.4069,2.6364,0.1,0.00040551,4052.3,0.00040673,4089.2,-0.00012752,75.067,-0.00013753,-0.13247,0.37542
29141,8.4983,2.5455,0.1,0.00040626,4059.8,0.00040728,4090.6,-0.00012882,62.526,-0.00013717,-0.2266,0.38295
29142,8.4069,2.8182,0.1,0.00040647,4061.9,0.00040784,4103.6,-0.00012703,84.765,-0.00013832,-0.082918,0.37555
29143,8.4983,2.7273,0.1,0.0004078,4075.2,0.00040904,4112.6,-0.0001282,76.052,-0.00013833,-0.12771,0.38312
29144,8.4069,3,0.1,0.00040679,4065.1,0.00040822,4108.4,-0.00012686,88.06,-0.00013859,-0.068154,0.37559
29145,8.4983,2.9091,0.1,0.00040859,4083.1,0.00040993,4123.9,-0.00012787,82.998,-0.00013893,-0.088134,0.3832
29146,8.4069,3.1818,0.1,0.00040647,4061.9,0.00040784,4103.6,-0.00012703,84.765,-0.00013832,-0.082917,0.37555
29147,8.4983,3.0909,0.1,0.00040859,4083.1,0.00040993,4123.9,-0.00012787,82.998,-0.00013893,-0.088134,0.3832
29148,8.4069,3.3636,0.1,0.00040551,4052.3,0.00040673,4089.2,-0.00012752,75.067,-0.00013753,-0.13247,0.37542
29149,8.4983,3.2727,0.1,0.0004078,4075.2,0.00040904,4112.6,-0.0001282,76.052,-0.00013833,-0.12771,0.38312
29150,8.4069,3.5455,0.1,0.00040394,4036.6,0.00040492,4066,-0.0001283,59.556,-0.00013626,-0.23893,0.37521
29151,8.4983,3.4545,0.1,0.00040626,4059.8,0.00040728,4090.6,-0.00012882,62.526,-0.00013717,-0.2266,0.38295
29152,8.4069,3.7273,0.1,0.00040181,4015.3,0.00040246,4034.6,-0.00012928,39.309,-0.00013458,-0.48328,0.37492
29153,8.4983,3.6364,0.1,0.00040402,4037.4,0.00040473,4058.6,-0.00012968,43.262,-0.0001355,-0.45987,0.38269
29154,8.4069,3.9091,0.1,0.00039916,3988.8,0.00039941,3996.2,-0.00013029,16.318,-0.00013265,-1.4168,0.37454
29155,8.4983,3.8182,0.1,0.00040114,4008.6,0.00040146,4018,-0.00013064,19.997,-0.00013347,-1.282,0.38235
29156,8.4069,4.0909,0.1,0.00039602,3957.4,0.00039583,3952.1,-0.00012989,2.0168,-0.00013184,-12.657,0.37407
29157,8.4983,4,0.1,0.00039768,3974,0.00039754,3969.9,-0.00013046,2.7458,-0.00013228,-10.898,0.38193
29158,8.4069,4.2727,0.1,0.00039242,3921.5,0.0003918,3903.5,-0.00012763,0.70145,-0.00013258,-36.461,0.37352
29159,8.4983,4.1818,0.1,0.00039367,3934,0.00039306,3916.1,-0.00012803,0.86654,-0.000133,-36.453,0.38141
29160,8.4069,4.4545,0.1,0.00038842,3881.6,0.0003874,3852,-0.00012522,0.39514,-0.0001331,-58.824,0.37288
29161,8.4983,4.3636,0.1,0.00038918,3889.1,0.0003881,3858.1,-0.00012532,0.48931,-0.0001336,-61.719,0.38081
29162,8.4069,4.6364,0.1,0.00038408,3838.2,0.00038272,3799.2,-0.00012289,0.2472,-0.00013318,-77.092,0.37215
29163,8.4983,4.5455,0.1,0.00038425,3839.9,0.00038278,3797.8,-0.00012263,0.31438,-0.00013375,-83.211,0.38012
29164,8.4069,4.8182,0.1,0.00037949,3792.3,0.00037789,3746.7,-0.00012075,0.15448,-0.00013271,-89.746,0.37133
29165,8.4983,4.7273,0.1,0.000379,3787.4,0.00037722,3737,-0.00012012,0.20586,-0.00013332,-99.036,0.37935
29166,8.4069,5,0.1,0.00037476,3745,0.00037304,3696.2,-0.00011889,0.088688,-0.00013165,-95.775,0.37043
29167,8.4983,4.9091,0.1,0.00037355,3732.9,0.0003716,3677.8,-0.00011787,0.12973,-0.00013226,-107.95,0.37848
29168,8.4069,5.1818,0.1,0.00037001,3697.6,0.00036831,3649.4,-0.00011739,0.04284,-0.00012998,-94.57,0.36944
29169,8.4983,5.0909,0.1,0.00036805,3677.9,0.00036607,3622.1,-0.000116,0.071232,-0.00013055,-109.26,0.37753
29170,8.4069,5.3636,0.1,0.00036537,3651.2,0.00036383,3607.5,-0.0001163,0.0028943,-0.00012772,-85.802,0.36836
29171,8.4983,5.2727,0.1,0.00036265,3624,0.0003608,3571.6,-0.00011455,0.033815,-0.00012822,-102.63,0.37649
29172,8.4069,5.5455,0.1,0.00036094,3606.9,0.00035971,3571.8,-0.00011566,0.040533,-0.00012488,-69.255,0.3672
29173,8.4983,5.4545,0.1,0.00035749,3572.5,0.00035592,3527.7,-0.00011359,-0.014731,-0.00012529,-87.935,0.37537
29174,8.4069,5.7273,0.1,0.00035679,3565.5,0.00035601,3542.9,-0.00011551,0.049605,-0.00012148,-44.749,0.36595
29175,8.4983,5.6364,0.1,0.00035268,3524.3,0.00035153,3491.5,-0.00011314,0.11765,-0.0001218,-64.97,0.37417
29176,8.4983,5.8182,0.1,0.00034825,3480.1,0.00034767,3463.2,-0.00011325,0.049852,-0.00011773,-33.571,0.37288
29177,8.4069,5.9091,0.1,0.0003534,3531.5,0.00035311,3523.2,-0.0001158,0.025297,-0.000118,-16.551,0.36463
29178,8.5897,0.27273,0.1,0.00034414,3439,0.00034319,3411.8,-0.00011089,0.045853,-0.00011805,-53.756,0.38117
29179,8.681,0.18182,0.1,0.00033426,3340.3,0.00033357,3320.2,-0.00010833,0.020847,-0.00011363,-39.84,0.38821
29180,8.5897,0.090909,0.1,0.00033999,3397.5,0.00033965,3387.6,-0.00011121,0.036681,-0.00011384,-19.724,0.37984
29181,8.5897,0.45455,0.1,0.00034925,3490.1,0.00034775,3447.5,-0.00011107,0.049838,-0.00012223,-83.746,0.38242
29182,8.681,0.36364,0.1,0.00033961,3393.7,0.00033823,3354.5,-0.00010821,0.13302,-0.00011851,-77.224,0.3895
29183,8.5897,0.63636,0.1,0.0003548,3545.6,0.0003529,3491.9,-0.00011185,0.010249,-0.00012581,-104.93,0.38358
29184,8.681,0.54545,0.1,0.00034554,3453,0.00034362,3399.1,-0.00010877,-0.011154,-0.00012279,-105.41,0.39071
29185,8.5897,0.81818,0.1,0.00036072,3604.7,0.00035858,3544.6,-0.00011316,0.057929,-0.00012881,-117.53,0.38467
29186,8.681,0.72727,0.1,0.00035201,3517.7,0.00034973,3453.7,-0.00010993,0.04997,-0.00012653,-124.7,0.39184
29187,8.5897,1,0.1,0.00036688,3666.3,0.00036466,3604,-0.00011498,0.10788,-0.00013119,-121.68,0.38567
29188,8.681,0.90909,0.1,0.00035892,3586.7,0.00035643,3517.2,-0.00011167,0.093426,-0.00012969,-135.24,0.39289
29189,8.5897,1.1818,0.1,0.0003731,3728.4,0.00037097,3668.4,-0.00011724,0.17515,-0.0001329,-117.49,0.38658
29190,8.681,1.0909,0.1,0.00036607,3658.2,0.00036355,3587.9,-0.00011395,0.15638,-0.00013219,-136.9,0.39385
29191,8.5897,1.3636,0.1,0.00037921,3789.5,0.00037731,3735.8,-0.00011986,0.26302,-0.00013392,-105.38,0.38741
29192,8.681,1.2727,0.1,0.00037325,3729.9,0.00037088,3663.5,-0.00011667,0.23307,-0.00013396,-129.67,0.39473
29193,8.5897,1.5455,0.1,0.00038504,3847.7,0.00038351,3804.1,-0.00012273,0.38776,-0.00013427,-86.291,0.38815
29194,8.681,1.4545,0.1,0.00038024,3799.7,0.00037817,3741.6,-0.00011976,0.33477,-0.00013498,-113.98,0.39552
29195,8.5897,1.7273,0.1,0.00039045,3901.8,0.00038937,3870.9,-0.00012573,0.59179,-0.00013403,-61.816,0.3888
29196,8.681,1.6364,0.1,0.00038683,3865.6,0.00038521,3819.6,-0.00012308,0.47974,-0.00013526,-91.035,0.39622
29197,8.5897,1.9091,0.1,0.00039535,3950.8,0.00039478,3934.1,-0.00012868,1.0574,-0.00013338,-34.284,0.38936
29198,8.681,1.8182,0.1,0.0003929,3926.2,0.0003918,3894.8,-0.00012647,0.72112,-0.00013493,-62.899,0.39683
29199,8.5897,2.0909,0.1,0.00039967,3994,0.0003996,3991.7,-0.00013115,3.8999,-0.00013278,-8.3267,0.38983
29200,8.681,2,0.1,0.00039833,3980.6,0.00039779,3964.8,-0.00012972,1.3063,-0.00013423,-32.544,0.39735
29201,8.5897,2.2727,0.1,0.00040336,4030.8,0.00040374,4042,-0.00013107,23.745,-0.00013437,-1.1057,0.39022
29202,8.681,2.1818,0.1,0.00040307,4027.9,0.00040306,4027.5,-0.00013223,5.622,-0.00013382,-6.3672,0.39778
29203,8.5897,2.4545,0.1,0.00040634,4060.6,0.0004071,4083.3,-0.00013021,46.182,-0.00013641,-0.41705,0.39052
29204,8.681,2.3636,0.1,0.00040705,4067.7,0.00040749,4080.8,-0.00013198,27.503,-0.00013577,-0.98531,0.39813
29205,8.5897,2.6364,0.1,0.00040855,4082.7,0.00040959,4114,-0.00012949,63.502,-0.00013797,-0.20699,0.39073
29206,8.681,2.5455,0.1,0.00041017,4098.9,0.00041097,4122.8,-0.00013125,48.786,-0.0001378,-0.38364,0.39839
29207,8.5897,2.8182,0.1,0.00040992,4096.3,0.00041113,4132.9,-0.00012904,74.298,-0.00013895,-0.12227,0.39086
29208,8.681,2.7273,0.1,0.00041233,4120.5,0.00041338,4151.9,-0.00013072,63.74,-0.00013923,-0.19495,0.39856
29209,8.5897,3,0.1,0.00041038,4101,0.00041165,4139.3,-0.00012889,77.956,-0.00013928,-0.098469,0.3909
29210,8.681,2.9091,0.1,0.00041345,4131.6,0.00041461,4166.8,-0.00013045,71.374,-0.00013997,-0.128,0.39865
29211,8.5897,3.1818,0.1,0.00040992,4096.3,0.00041113,4132.9,-0.00012904,74.298,-0.00013895,-0.12227,0.39086
29212,8.681,3.0909,0.1,0.00041345,4131.6,0.00041461,4166.8,-0.00013045,71.374,-0.00013997,-0.128,0.39865
29213,8.5897,3.3636,0.1,0.00040855,4082.7,0.00040959,4114,-0.00012949,63.502,-0.00013797,-0.20699,0.39073
29214,8.681,3.2727,0.1,0.00041233,4120.5,0.00041338,4151.9,-0.00013072,63.74,-0.00013923,-0.19495,0.39856
29215,8.5897,3.5455,0.1,0.00040634,4060.6,0.0004071,4083.3,-0.00013021,46.182,-0.00013641,-0.41705,0.39052
29216,8.681,3.4545,0.1,0.00041017,4098.9,0.00041097,4122.8,-0.00013125,48.786,-0.0001378,-0.38364,0.39839
29217,8.5897,3.7273,0.1,0.00040336,4030.8,0.00040374,4042,-0.00013107,23.745,-0.00013437,-1.1057,0.39022
29218,8.681,3.6364,0.1,0.00040705,4067.7,0.00040749,4080.8,-0.00013198,27.503,-0.00013577,-0.98531,0.39813
29219,8.5897,3.9091,0.1,0.00039967,3994,0.0003996,3991.7,-0.00013115,3.8999,-0.00013278,-8.3267,0.38983
29220,8.681,3.8182,0.1,0.00040307,4027.9,0.00040306,4027.5,-0.00013223,5.622,-0.00013382,-6.3672,0.39778
29221,8.5897,4.0909,0.1,0.00039535,3950.8,0.00039478,3934.1,-0.00012868,1.0574,-0.00013338,-34.284,0.38936
29222,8.681,4,0.1,0.00039833,3980.6,0.00039779,3964.8,-0.00012972,1.3063,-0.00013423,-32.544,0.39735
29223,8.5897,4.2727,0.1,0.00039045,3901.8,0.00038937,3870.9,-0.00012573,0.59179,-0.00013403,-61.816,0.3888
29224,8.681,4.1818,0.1,0.0003929,3926.2,0.0003918,3894.8,-0.00012647,0.72112,-0.00013493,-62.899,0.39683
29225,8.5897,4.4545,0.1,0.00038504,3847.7,0.00038351,3804.1,-0.00012273,0.38776,-0.00013427,-86.291,0.38815
29226,8.681,4.3636,0.1,0.00038683,3865.6,0.00038521,3819.6,-0.00012308,0.47974,-0.00013526,-91.035,0.39622
29227,8.5897,4.6364,0.1,0.00037921,3789.5,0.00037731,3735.8,-0.00011986,0.26302,-0.00013392,-105.38,0.38741
29228,8.681,4.5455,0.1,0.00038024,3799.7,0.00037817,3741.6,-0.00011976,0.33477,-0.00013498,-113.98,0.39552
29229,8.5897,4.8182,0.1,0.0003731,3728.4,0.00037097,3668.4,-0.00011724,0.17516,-0.0001329,-117.49,0.38658
29230,8.681,4.7273,0.1,0.00037325,3729.9,0.00037088,3663.5,-0.00011667,0.23307,-0.00013396,-129.67,0.39473
29231,8.5897,5,0.1,0.00036688,3666.3,0.00036466,3604,-0.00011498,0.10789,-0.00013119,-121.68,0.38567
29232,8.681,4.9091,0.1,0.00036607,3658.2,0.00036355,3587.9,-0.00011395,0.15639,-0.00013219,-136.9,0.39385
29233,8.5897,5.1818,0.1,0.00036072,3604.7,0.00035858,3544.6,-0.00011316,0.05793,-0.00012881,-117.53,0.38467
29234,8.681,5.0909,0.1,0.00035892,3586.7,0.00035643,3517.2,-0.00011167,0.093427,-0.00012969,-135.24,0.39289
29235,8.5897,5.3636,0.1,0.0003548,3545.6,0.0003529,3491.9,-0.00011185,0.01025,-0.00012581,-104.93,0.38358
29236,8.681,5.2727,0.1,0.00035201,3517.7,0.00034973,3453.7,-0.00010993,0.049971,-0.00012653,-124.7,0.39184
29237,8.5897,5.5455,0.1,0.00034925,3490.1,0.00034775,3447.5,-0.00011107,0.049839,-0.00012223,-83.746,0.38242
29238,8.681,5.4545,0.1,0.00034554,3453,0.00034362,3399.1,-0.00010877,-0.011153,-0.00012279,-105.41,0.39071
29239,8.5897,5.7273,0.1,0.00034414,3439,0.00034319,3411.8,-0.00011089,0.045855,-0.00011805,-53.756,0.38117
29240,8.681,5.6364,0.1,0.00033961,3393.7,0.00033823,3354.5,-0.00010821,0.13302,-0.00011851,-77.224,0.3895
29241,8.681,5.8182,0.1,0.00033426,3340.3,0.00033357,3320.2,-0.00010833,0.020849,-0.00011363,-39.84,0.38821
29242,8.5897,5.9091,0.1,0.00033999,3397.5,0.00033965,3387.6,-0.00011121,0.036683,-0.00011384,-19.724,0.37984
29243,8.7724,0.27273,0.1,0.00032974,3295.1,0.00032861,3263,-0.00010566,0.030827,-0.00011409,-63.319,0.39661
29244,8.8638,0.18182,0.1,0.0003183,3180.8,0.00031749,3157.3,-0.00010273,-0.035413,-0.00010892,-46.553,0.40376
29245,8.7724,0.090909,0.1,0.00032474,3245.1,0.00032434,3233.5,-0.00010601,0.045229,-0.0001091,-23.156,0.39528
29246,8.7724,0.45455,0.1,0.00033592,3356.9,0.00033413,3306.3,-0.00010591,0.058681,-0.0001191,-99.055,0.39787
29247,8.8638,0.36364,0.1,0.00032464,3244.1,0.00032301,3198.3,-0.00010263,0.14266,-0.00011462,-89.88,0.40505
29248,8.7724,0.63636,0.1,0.0003428,3425.6,0.00034049,3361.2,-0.00010685,0.022536,-0.00012355,-125.46,0.39904
29249,8.8638,0.54545,0.1,0.00033184,3316.1,0.00032956,3252.5,-0.00010332,-0.004147,-0.00011979,-123.7,0.40628
29250,8.7724,0.81818,0.1,0.00035027,3500.3,0.00034763,3426.8,-0.00010844,0.081402,-0.00012745,-142.77,0.40014
29251,8.8638,0.72727,0.1,0.00033989,3396.6,0.00033712,3319.9,-0.00010472,0.074119,-0.00012449,-148.48,0.40742
29252,8.7724,1,0.1,0.00035818,3579.3,0.00035538,3501.6,-0.00011064,0.13794,-0.00013074,-150.89,0.40115
29253,8.8638,0.90909,0.1,0.00034866,3484.1,0.00034557,3399.2,-0.00010682,0.12679,-0.00012869,-164.18,0.40849
29254,8.7724,1.1818,0.1,0.00036629,3660.4,0.00036352,3583.4,-0.00011338,0.20899,-0.0001333,-149.51,0.40208
29255,8.8638,1.0909,0.1,0.00035789,3576.4,0.00035469,3488.3,-0.00010956,0.19618,-0.00013223,-170.19,0.40946
29256,8.7724,1.3636,0.1,0.00037434,3740.8,0.00037179,3669.7,-0.00011657,0.2962,-0.00013507,-138.68,0.40292
29257,8.8638,1.2727,0.1,0.00036727,3670.2,0.00036417,3584.6,-0.00011287,0.2754,-0.00013498,-165.86,0.41036
29258,8.7724,1.5455,0.1,0.00038208,3818.2,0.00037993,3757.5,-0.00012011,0.41081,-0.00013601,-119.07,0.40367
29259,8.8638,1.4545,0.1,0.00037649,3762.3,0.0003737,3684.6,-0.00011665,0.37473,-0.00013681,-151.08,0.41116
29260,8.7724,1.7273,0.1,0.00038932,3890.5,0.00038767,3843.8,-0.00012382,0.57362,-0.00013619,-92.375,0.40433
29261,8.8638,1.6364,0.1,0.00038524,3849.8,0.00038294,3785,-0.00012075,0.50548,-0.0001377,-126.84,0.41188
29262,8.7724,1.9091,0.1,0.0003959,3956.3,0.00039484,3925.7,-0.00012753,0.8481,-0.0001358,-61.259,0.40491
29263,8.8638,1.8182,0.1,0.00039333,3930.6,0.00039163,3882.3,-0.00012498,0.69067,-0.00013778,-95.466,0.4125
29264,8.7724,2.0909,0.1,0.00040175,4014.7,0.00040127,4000.8,-0.00013099,1.5638,-0.0001351,-29.272,0.40539
29265,8.8638,2,0.1,0.00040061,4003.3,0.00039956,3973.2,-0.00012911,1.0048,-0.0001373,-60.555,0.41304
29266,8.7724,2.2727,0.1,0.00040677,4064.9,0.00040682,4066.4,-0.00013336,7.7212,-0.00013501,-4.6744,0.40579
29267,8.8638,2.1818,0.1,0.000407,4067.2,0.00040657,4054.8,-0.00013284,1.8783,-0.00013662,-26.543,0.41348
29268,8.7724,2.4545,0.1,0.00041088,4106,0.00041137,4120.4,-0.00013304,29.982,-0.00013714,-0.85318,0.40609
29269,8.8638,2.3636,0.1,0.00041241,4121.2,0.00041251,4124.3,-0.00013508,9.9161,-0.00013689,-3.655,0.41384
29270,8.7724,2.6364,0.1,0.00041395,4136.6,0.00041475,4160.7,-0.00013248,49.016,-0.00013905,-0.34171,0.40631
29271,8.8638,2.5455,0.1,0.00041669,4164.1,0.00041721,4179.3,-0.00013484,31.43,-0.00013913,-0.7558,0.4141
29272,8.7724,2.8182,0.1,0.00041585,4155.7,0.00041685,4185.7,-0.00013213,60.853,-0.00014025,-0.18245,0.40644
29273,8.8638,2.7273,0.1,0.00041969,4194,0.00042047,4217.4,-0.0001345,47.559,-0.00014087,-0.31219,0.41428
29274,8.7724,3,0.1,0.0004165,4162.1,0.00041756,4194.1,-0.00013201,64.844,-0.00014066,-0.14171,0.40649
29275,8.8638,2.9091,0.1,0.00042123,4209.4,0.00042215,4236.9,-0.00013433,55.736,-0.00014177,-0.18624,0.41437
29276,8.7724,3.1818,0.1,0.00041585,4155.7,0.00041685,4185.7,-0.00013213,60.853,-0.00014025,-0.18245,0.40644
29277,8.8638,3.0909,0.1,0.00042123,4209.4,0.00042215,4236.9,-0.00013433,55.736,-0.00014177,-0.18624,0.41437
29278,8.7724,3.3636,0.1,0.00041395,4136.6,0.00041475,4160.7,-0.00013248,49.016,-0.00013905,-0.34171,0.40631
29279,8.8638,3.2727,0.1,0.00041969,4194,0.00042047,4217.4,-0.0001345,47.559,-0.00014087,-0.31219,0.41428
29280,8.7724,3.5455,0.1,0.00041088,4106,0.00041137,4120.4,-0.00013304,29.982,-0.00013714,-0.85318,0.40609
29281,8.8638,3.4545,0.1,0.00041669,4164.1,0.00041721,4179.3,-0.00013484,31.43,-0.00013913,-0.7558,0.4141
29282,8.7724,3.7273,0.1,0.00040677,4064.9,0.00040682,4066.4,-0.00013336,7.7212,-0.00013501,-4.6744,0.40579
29283,8.8638,3.6364,0.1,0.00041241,4121.2,0.00041251,4124.3,-0.00013508,9.9161,-0.00013689,-3.655,0.41384
29284,8.7724,3.9091,0.1,0.00040175,4014.7,0.00040127,4000.8,-0.00013099,1.5638,-0.0001351,-29.272,0.40539
29285,8.8638,3.8182,0.1,0.000407,4067.2,0.00040657,4054.8,-0.00013284,1.8783,-0.00013662,-26.543,0.41348
29286,8.7724,4.0909,0.1,0.0003959,3956.3,0.00039484,3925.7,-0.00012753,0.8481,-0.0001358,-61.259,0.40491
29287,8.8638,4,0.1,0.00040061,4003.3,0.00039956,3973.2,-0.00012911,1.0048,-0.0001373,-60.555,0.41304
29288,8.7724,4.2727,0.1,0.00038932,3890.5,0.00038767,3843.8,-0.00012382,0.57362,-0.00013619,-92.375,0.40433
29289,8.8638,4.1818,0.1,0.00039333,3930.6,0.00039163,3882.3,-0.00012498,0.69067,-0.00013778,-95.466,0.4125
29290,8.7724,4.4545,0.1,0.00038208,3818.2,0.00037993,3757.5,-0.00012011,0.41081,-0.00013601,-119.07,0.40367
29291,8.8638,4.3636,0.1,0.00038524,3849.8,0.00038294,3785,-0.00012075,0.50548,-0.0001377,-126.84,0.41188
29292,8.7724,4.6364,0.1,0.00037434,3740.8,0.00037179,3669.7,-0.00011657,0.2962,-0.00013507,-138.68,0.40292
29293,8.8638,4.5455,0.1,0.00037649,3762.3,0.0003737,3684.6,-0.00011665,0.37473,-0.00013681,-151.08,0.41116
29294,8.7724,4.8182,0.1,0.00036629,3660.4,0.00036352,3583.4,-0.00011338,0.20899,-0.0001333,-149.51,0.40208
29295,8.8638,4.7273,0.1,0.00036727,3670.2,0.00036417,3584.6,-0.00011287,0.2754,-0.00013498,-165.86,0.41036
29296,8.7724,5,0.1,0.00035818,3579.3,0.00035538,3501.6,-0.00011064,0.13794,-0.00013074,-150.89,0.40115
29297,8.8638,4.9091,0.1,0.00035789,3576.4,0.00035469,3488.3,-0.00010956,0.19618,-0.00013223,-170.19,0.40946
29298,8.7724,5.1818,0.1,0.00035027,3500.3,0.00034763,3426.8,-0.00010844,0.081404,-0.00012745,-142.77,0.40014
29299,8.8638,5.0909,0.1,0.00034866,3484.1,0.00034557,3399.2,-0.00010682,0.12679,-0.00012869,-164.18,0.40849
29300,8.7724,5.3636,0.1,0.0003428,3425.6,0.00034049,3361.2,-0.00010685,0.022537,-0.00012355,-125.46,0.39904
29301,8.8638,5.2727,0.1,0.00033989,3396.6,0.00033712,3319.9,-0.00010472,0.07412,-0.00012449,-148.48,0.40742
29302,8.7724,5.5455,0.1,0.00033592,3356.9,0.00033413,3306.3,-0.00010591,0.058682,-0.0001191,-99.055,0.39787
29303,8.8638,5.4545,0.1,0.00033184,3316.1,0.00032956,3252.5,-0.00010332,-0.0041462,-0.00011979,-123.7,0.40628
29304,8.7724,5.7273,0.1,0.00032974,3295.1,0.00032861,3263,-0.00010566,0.030828,-0.00011409,-63.319,0.39661
29305,8.8638,5.6364,0.1,0.00032464,3244.1,0.00032301,3198.3,-0.00010263,0.14266,-0.00011462,-89.88,0.40505
29306,8.8638,5.8182,0.1,0.0003183,3180.8,0.00031749,3157.3,-0.00010273,-0.035412,-0.00010892,-46.553,0.40376
29307,8.7724,5.9091,0.1,0.00032474,3245.1,0.00032434,3233.5,-0.00010601,0.04523,-0.0001091,-23.156,0.39528
29308,8.9552,0.27273,0.1,0.00031322,3130,0.00031191,3092.8,-9.9715e-05,0.00033623,-0.00010946,-73.203,0.41227
29309,9.0466,0.18182,0.1,0.00030001,2998,0.00029906,2970.8,-9.6349e-05,-0.12605,-0.00010346,-53.559,0.41952
29310,8.9552,0.090909,0.1,0.00030728,3070.7,0.00030681,3057.2,-0.00010007,0.048962,-0.00010364,-26.793,0.41093
29311,8.9552,0.45455,0.1,0.00032059,3203.7,0.00031849,3144.8,-0.00010005,0.066579,-0.00011534,-114.82,0.41354
29312,9.0466,0.36364,0.1,0.00030736,3071.5,0.00030549,3019.1,-9.6301e-05,0.14339,-0.00010995,-102.44,0.42083
29313,8.9552,0.63636,0.1,0.00032901,3287.8,0.00032626,3211.8,-0.0001012,0.041807,-0.00012079,-147.19,0.41473
29314,9.0466,0.54545,0.1,0.00031601,3157.9,0.00031335,3084.3,-9.7151e-05,0.0079175,-0.0001161,-142.36,0.42207
29315,8.9552,0.81818,0.1,0.00033838,3381.4,0.00033516,3293,-0.0001031,0.11604,-0.00012581,-170.51,0.41584
29316,9.0466,0.72727,0.1,0.00032594,3257.1,0.00032263,3166.8,-9.8823e-05,0.10871,-0.00012198,-173.87,0.42323
29317,8.9552,1,0.1,0.00034848,3482.4,0.00034498,3386.7,-0.00010574,0.18175,-0.00013028,-184.2,0.41688
29318,9.0466,0.90909,0.1,0.00033699,3367.6,0.00033322,3265.1,-0.00010131,0.17453,-0.0001275,-196.63,0.42431
29319,8.9552,1.1818,0.1,0.00035899,3587.4,0.00035544,3490.2,-0.00010905,0.25809,-0.00013401,-187.28,0.41782
29320,9.0466,1.0909,0.1,0.00034885,3486.1,0.00034483,3376.9,-0.00010458,0.25237,-0.00013246,-209.2,0.42531
29321,8.9552,1.3636,0.1,0.00036954,3692.8,0.00036617,3600.2,-0.00011294,0.34643,-0.00013681,-178.97,0.41868
29322,9.0466,1.2727,0.1,0.00036108,3608.3,0.00035706,3499,-0.00010858,0.33478,-0.00013655,-209.82,0.42623
29323,8.9552,1.5455,0.1,0.00037975,3794.9,0.00037679,3712.8,-0.0001173,0.45605,-0.00013858,-159.46,0.41945
29324,9.0466,1.4545,0.1,0.00037318,3729.3,0.00036944,3626.9,-0.00011321,0.43245,-0.00013953,-197.34,0.42705
29325,8.9552,1.7273,0.1,0.00038933,3890.6,0.00038696,3824.1,-0.00012192,0.59726,-0.00013935,-130.4,0.42013
29326,9.0466,1.6364,0.1,0.00038474,3844.7,0.00038153,3756,-0.00011829,0.55321,-0.00014128,-172.16,0.42779
29327,8.9552,1.9091,0.1,0.00039809,3978.1,0.00039639,3930.1,-0.00012656,0.79167,-0.00013932,-95.083,0.42072
29328,9.0466,1.8182,0.1,0.00039542,3951.5,0.00039293,3881.6,-0.00012359,0.70584,-0.00014191,-136.94,0.42844
29329,8.9552,2.0909,0.1,0.00040589,4056.1,0.0004049,4027.4,-0.00013097,1.1172,-0.00013883,-57.877,0.42122
29330,9.0466,2,0.1,0.00040507,4047.9,0.00040336,3999.3,-0.00012879,0.90282,-0.00014175,-96.421,0.42899
29331,8.9552,2.2727,0.1,0.00041265,4123.7,0.00041228,4112.8,-0.00013483,2.0676,-0.00013825,-23.655,0.42163
29332,9.0466,2.1818,0.1,0.00041359,4133,0.00041262,4105.2,-0.00013358,1.2167,-0.00014124,-56.302,0.42945
29333,8.9552,2.4545,0.1,0.00041822,4179.4,0.00041836,4183.2,-0.00013696,10.803,-0.0001388,-3.027,0.42194
29334,9.0466,2.3636,0.1,0.00042085,4205.6,0.00042051,4195.6,-0.00013761,2.1235,-0.00014082,-21.991,0.42982
29335,8.9552,2.6364,0.1,0.00042242,4221.3,0.00042291,4235.9,-0.00013686,29.969,-0.00014094,-0.66202,0.42217
29336,9.0466,2.5455,0.1,0.00042665,4263.6,0.00042677,4267.1,-0.00013983,9.8932,-0.00014152,-2.8074,0.4301
29337,8.9552,2.8182,0.1,0.00042505,4247.5,0.00042575,4268.5,-0.00013669,42.532,-0.00014239,-0.28311,0.4223
29338,9.0466,2.7273,0.1,0.00043074,4304.4,0.00043115,4316.7,-0.00013999,25.355,-0.00014345,-0.5996,0.43028
29339,8.9552,3,0.1,0.00042594,4256.5,0.00042671,4279.6,-0.00013664,46.746,-0.00014289,-0.20297,0.42235
29340,9.0466,2.9091,0.1,0.00043285,4325.5,0.00043341,4342.1,-0.00014001,33.644,-0.00014453,-0.27551,0.43038
29341,8.9552,3.1818,0.1,0.00042505,4247.5,0.00042575,4268.5,-0.00013669,42.532,-0.00014239,-0.28311,0.4223
29342,9.0466,3.0909,0.1,0.00043285,4325.5,0.00043341,4342.1,-0.00014001,33.644,-0.00014453,-0.27551,0.43038
29343,8.9552,3.3636,0.1,0.00042242,4221.3,0.00042291,4235.9,-0.00013686,29.969,-0.00014094,-0.66202,0.42217
29344,9.0466,3.2727,0.1,0.00043074,4304.4,0.00043115,4316.7,-0.00013999,25.355,-0.00014345,-0.5996,0.43028
29345,8.9552,3.5455,0.1,0.00041822,4179.4,0.00041836,4183.2,-0.00013696,10.803,-0.0001388,-3.027,0.42194
29346,9.0466,3.4545,0.1,0.00042665,4263.6,0.00042677,4267.1,-0.00013983,9.8932,-0.00014152,-2.8074,0.4301
29347,8.9552,3.7273,0.1,0.00041265,4123.7,0.00041228,4112.8,-0.00013483,2.0676,-0.00013825,-23.655,0.42163
29348,9.0466,3.6364,0.1,0.00042085,4205.6,0.00042051,4195.6,-0.00013761,2.1235,-0.00014082,-21.991,0.42982
29349,8.9552,3.9091,0.1,0.00040589,4056.1,0.0004049,4027.4,-0.00013097,1.1172,-0.00013883,-57.877,0.42122
29350,9.0466,3.8182,0.1,0.00041359,4133,0.00041262,4105.2,-0.00013358,1.2167,-0.00014124,-56.302,0.42945
29351,8.9552,4.0909,0.1,0.00039809,3978.1,0.00039639,3930.1,-0.00012656,0.79167,-0.00013932,-95.083,0.42072
29352,9.0466,4,0.1,0.00040507,4047.9,0.00040336,3999.3,-0.00012879,0.90282,-0.00014175,-96.421,0.42899
29353,8.9552,4.2727,0.1,0.00038933,3890.6,0.00038696,3824.1,-0.00012192,0.59726,-0.00013935,-130.4,0.42013
29354,9.0466,4.1818,0.1,0.00039542,3951.5,0.00039293,3881.6,-0.00012359,0.70584,-0.00014191,-136.94,0.42844
29355,8.9552,4.4545,0.1,0.00037975,3794.9,0.00037679,3712.8,-0.0001173,0.45605,-0.00013858,-159.46,0.41945
29356,9.0466,4.3636,0.1,0.00038474,3844.7,0.00038153,3756,-0.00011829,0.55321,-0.00014128,-172.16,0.42779
29357,8.9552,4.6364,0.1,0.00036954,3692.8,0.00036617,3600.2,-0.00011294,0.34643,-0.00013681,-178.97,0.41868
29358,9.0466,4.5455,0.1,0.00037318,3729.3,0.00036944,3626.9,-0.00011321,0.43245,-0.00013953,-197.34,0.42705
29359,8.9552,4.8182,0.1,0.00035899,3587.4,0.00035544,3490.2,-0.00010905,0.25809,-0.00013401,-187.28,0.41782
29360,9.0466,4.7273,0.1,0.00036108,3608.3,0.00035706,3499,-0.00010858,0.33478,-0.00013655,-209.82,0.42623
29361,8.9552,5,0.1,0.00034848,3482.4,0.00034498,3386.7,-0.00010574,0.18176,-0.00013028,-184.2,0.41688
29362,9.0466,4.9091,0.1,0.00034885,3486.1,0.00034483,3376.9,-0.00010458,0.25237,-0.00013246,-209.2,0.42531
29363,8.9552,5.1818,0.1,0.00033838,3381.4,0.00033516,3293,-0.0001031,0.11604,-0.00012581,-170.51,0.41584
29364,9.0466,5.0909,0.1,0.00033699,3367.6,0.00033322,3265.1,-0.00010131,0.17454,-0.0001275,-196.63,0.42431
29365,8.9552,5.3636,0.1,0.00032901,3287.8,0.00032626,3211.8,-0.0001012,0.041808,-0.00012079,-147.19,0.41473
29366,9.0466,5.2727,0.1,0.00032594,3257.1,0.00032263,3166.8,-9.8823e-05,0.10871,-0.00012198,-173.87,0.42323
29367,8.9552,5.5455,0.1,0.00032059,3203.7,0.00031849,3144.8,-0.00010005,0.066581,-0.00011534,-114.82,0.41354
29368,9.0466,5.4545,0.1,0.00031601,3157.9,0.00031335,3084.3,-9.7151e-05,0.0079181,-0.0001161,-142.36,0.42207
29369,8.9552,5.7273,0.1,0.00031322,3130,0.00031191,3092.8,-9.9715e-05,0.00033757,-0.00010946,-73.203,0.41227
29370,9.0466,5.6364,0.1,0.00030736,3071.5,0.00030549,3019.1,-9.6301e-05,0.14339,-0.00010995,-102.44,0.42083
29371,9.0466,5.8182,0.1,0.00030001,2998,0.00029906,2970.8,-9.6349e-05,-0.12605,-0.00010346,-53.559,0.41952
29372,8.9552,5.9091,0.1,0.00030728,3070.7,0.00030681,3057.2,-0.00010007,0.048963,-0.00010364,-26.793,0.41093
29373,9.1379,0.27273,0.1,0.00029418,2939.8,0.00029268,2897.4,-9.2944e-05,-0.049174,-0.00010398,-83.005,0.42814
29374,9.2293,0.18182,0.1,0.00027899,2788,0.00027791,2757.1,-8.9071e-05,-0.25173,-9.71e-05,-60.583,0.43548
29375,9.1379,0.090909,0.1,0.00028722,2870.2,0.00028669,2854.8,-9.3263e-05,0.044868,-9.733e-05,-30.515,0.42679
29376,9.1379,0.45455,0.1,0.00030285,3026.4,0.00030042,2959.1,-9.3402e-05,0.073114,-0.00011077,-130.45,0.42942
29377,9.2293,0.36364,0.1,0.00028736,2871.6,0.00028525,2812.9,-8.9106e-05,0.1336,-0.00010432,-114.15,0.4368
29378,9.1379,0.63636,0.1,0.00031306,3128.4,0.00030982,3040.1,-9.4777e-05,0.070467,-0.00011739,-169.81,0.43063
29379,9.2293,0.54545,0.1,0.00029761,2974.1,0.00029456,2890.5,-9.0144e-05,0.028745,-0.00011153,-160.69,0.43806
29380,9.1379,0.81818,0.1,0.00032472,3245,0.00032084,3139.9,-9.7032e-05,0.16494,-0.00012381,-201.04,0.43177
29381,9.2293,0.72727,0.1,0.00030977,3095.6,0.00030587,2990.4,-9.2106e-05,0.15763,-0.00011885,-200.76,0.43925
29382,9.1379,1,0.1,0.00033757,3373.4,0.00033323,3256.5,-0.00010016,0.24305,-0.00012985,-222.87,0.43283
29383,9.2293,0.90909,0.1,0.00032366,3234.4,0.00031906,3111.4,-9.5013e-05,0.24157,-0.00012612,-233.48,0.44036
29384,9.1379,1.1818,0.1,0.00035116,3509.1,0.00034661,3386.9,-0.00010412,0.32572,-0.00013518,-233.04,0.4338
29385,9.2293,1.0909,0.1,0.00033885,3386.2,0.00033377,3251,-9.8868e-05,0.33052,-0.000133,-256.11,0.44139
29386,9.1379,1.3636,0.1,0.00036493,3646.8,0.00036049,3526.8,-0.00010885,0.41448,-0.00013944,-229.41,0.43468
29387,9.2293,1.2727,0.1,0.00035475,3545,0.0003495,3405.2,-0.00010365,0.4175,-0.00013899,-265.07,0.44233
29388,9.1379,1.5455,0.1,0.00037835,3780.8,0.00037432,3671.1,-0.00011421,0.51786,-0.00014237,-211.09,0.43548
29389,9.2293,1.4545,0.1,0.00037062,3703.7,0.00036558,3568.5,-0.0001093,0.51523,-0.00014361,-257.28,0.44319
29390,9.1379,1.7273,0.1,0.00039096,3906.9,0.00038761,3814.4,-0.00011997,0.64115,-0.00014395,-179.52,0.43619
29391,9.2293,1.6364,0.1,0.00038582,3855.5,0.00038136,3734.6,-0.00011561,0.63115,-0.00014656,-231.91,0.44396
29392,9.1379,1.9091,0.1,0.0004025,4022.3,0.00039997,3951.4,-0.00012582,0.7821,-0.00014441,-138.87,0.4368
29393,9.2293,1.8182,0.1,0.00039987,3996,0.00039627,3897,-0.00012228,0.75721,-0.00014791,-191.82,0.44463
29394,9.1379,2.0909,0.1,0.00041283,4125.4,0.00041114,4077.5,-0.00013141,0.94286,-0.00014421,-95.195,0.43732
29395,9.2293,2,0.1,0.00041255,4122.7,0.00040994,4049.4,-0.00012889,0.88557,-0.00014813,-143.66,0.44521
29396,9.1379,2.2727,0.1,0.00042182,4215.2,0.00042088,4188.2,-0.00013638,1.1681,-0.00014382,-54.742,0.43774
29397,9.2293,2.1818,0.1,0.00042378,4234.9,0.00042208,4186.6,-0.00013499,0.97465,-0.00014788,-95.857,0.4457
29398,9.1379,2.4545,0.1,0.00042928,4289.8,0.00042893,4279.5,-0.00014041,1.7326,-0.00014361,-22.312,0.43807
29399,9.2293,2.3636,0.1,0.00043341,4331.1,0.00043246,4303.6,-0.00014018,1.0038,-0.0001477,-55.511,0.44608
29400,9.1379,2.6364,0.1,0.00043495,4346.5,0.00043499,4347.8,-0.00014287,5.9905,-0.00014411,-3.3138,0.43831
29401,9.2293,2.5455,0.1,0.00044116,4408.5,0.00044072,4395.9,-0.0001442,1.0145,-0.00014782,-26.24,0.44638
29402,9.1379,2.8182,0.1,0.0004385,4382,0.00043877,4390,-0.00014328,16.688,-0.00014558,-0.55588,0.43845
29403,9.2293,2.7273,0.1,0.00044662,4463.1,0.0004465,4459.5,-0.00014688,1.1144,-0.00014813,-8.3055,0.44657
29404,9.1379,3,0.1,0.00043972,4394.1,0.00044006,4404.3,-0.00014335,20.779,-0.00014616,-0.28798,0.4385
29405,9.2293,2.9091,0.1,0.00044946,4491.5,0.00044948,4492,-0.00014811,2.0169,-0.00014849,-0.8613,0.44667
29406,9.1379,3.1818,0.1,0.0004385,4382,0.00043877,4390,-0.00014328,16.688,-0.00014558,-0.55588,0.43845
29407,9.2293,3.0909,0.1,0.00044946,4491.5,0.00044948,4492,-0.00014811,2.0169,-0.00014849,-0.86129,0.44667
29408,9.1379,3.3636,0.1,0.00043495,4346.5,0.00043499,4347.8,-0.00014287,5.9905,-0.00014411,-3.3138,0.43831
29409,9.2293,3.2727,0.1,0.00044662,4463.1,0.0004465,4459.5,-0.00014688,1.1144,-0.00014813,-8.3055,0.44657
29410,9.1379,3.5455,0.1,0.00042928,4289.8,0.00042893,4279.5,-0.00014041,1.7326,-0.00014361,-22.312,0.43807
29411,9.2293,3.4545,0.1,0.00044116,4408.5,0.00044072,4395.9,-0.0001442,1.0145,-0.00014782,-26.24,0.44638
29412,9.1379,3.7273,0.1,0.00042182,4215.2,0.00042088,4188.2,-0.00013638,1.1681,-0.00014382,-54.742,0.43774
29413,9.2293,3.6364,0.1,0.00043341,4331.1,0.00043246,4303.6,-0.00014018,1.0038,-0.0001477,-55.511,0.44608
29414,9.1379,3.9091,0.1,0.00041283,4125.4,0.00041114,4077.5,-0.00013141,0.94286,-0.00014421,-95.195,0.43732
29415,9.2293,3.8182,0.1,0.00042378,4234.9,0.00042208,4186.6,-0.00013499,0.97465,-0.00014788,-95.857,0.4457
29416,9.1379,4.0909,0.1,0.0004025,4022.3,0.00039997,3951.4,-0.00012582,0.7821,-0.00014441,-138.87,0.4368
29417,9.2293,4,0.1,0.00041255,4122.7,0.00040994,4049.4,-0.00012889,0.88557,-0.00014813,-143.66,0.44521
29418,9.1379,4.2727,0.1,0.00039096,3906.9,0.00038761,3814.4,-0.00011997,0.64115,-0.00014395,-179.52,0.43619
29419,9.2293,4.1818,0.1,0.00039987,3996,0.00039627,3897,-0.00012228,0.75721,-0.00014791,-191.82,0.44463
29420,9.1379,4.4545,0.1,0.00037835,3780.8,0.00037432,3671.1,-0.00011421,0.51786,-0.00014237,-211.09,0.43548
29421,9.2293,4.3636,0.1,0.00038582,3855.5,0.00038136,3734.6,-0.00011561,0.63115,-0.00014656,-231.91,0.44396
29422,9.1379,4.6364,0.1,0.00036493,3646.8,0.00036049,3526.8,-0.00010885,0.41448,-0.00013944,-229.41,0.43468
29423,9.2293,4.5455,0.1,0.00037062,3703.7,0.00036558,3568.5,-0.0001093,0.51523,-0.00014361,-257.28,0.44319
29424,9.1379,4.8182,0.1,0.00035116,3509.1,0.00034661,3386.9,-0.00010412,0.32572,-0.00013518,-233.04,0.4338
29425,9.2293,4.7273,0.1,0.00035475,3545,0.0003495,3405.2,-0.00010365,0.4175,-0.00013899,-265.07,0.44233
29426,9.1379,5,0.1,0.00033757,3373.4,0.00033323,3256.5,-0.00010016,0.24305,-0.00012985,-222.87,0.43283
29427,9.2293,4.9091,0.1,0.00033885,3386.2,0.00033377,3251,-9.8868e-05,0.33052,-0.000133,-256.11,0.44139
29428,9.1379,5.1818,0.1,0.00032472,3245,0.00032084,3139.9,-9.7032e-05,0.16494,-0.00012381,-201.04,0.43177
29429,9.2293,5.0909,0.1,0.00032366,3234.4,0.00031906,3111.4,-9.5013e-05,0.24157,-0.00012612,-233.48,0.44036
29430,9.1379,5.3636,0.1,0.00031306,3128.4,0.00030982,3040.1,-9.4777e-05,0.070468,-0.00011739,-169.81,0.43063
29431,9.2293,5.2727,0.1,0.00030977,3095.6,0.00030587,2990.4,-9.2106e-05,0.15764,-0.00011885,-200.76,0.43925
29432,9.1379,5.5455,0.1,0.00030285,3026.4,0.00030042,2959.1,-9.3402e-05,0.073115,-0.00011077,-130.45,0.42942
29433,9.2293,5.4545,0.1,0.00029761,2974.1,0.00029456,2890.5,-9.0144e-05,0.028745,-0.00011153,-160.69,0.43806
29434,9.1379,5.7273,0.1,0.00029418,2939.8,0.00029268,2897.4,-9.2944e-05,-0.049172,-0.00010398,-83.005,0.42814
29435,9.2293,5.6364,0.1,0.00028736,2871.6,0.00028525,2812.9,-8.9106e-05,0.1336,-0.00010432,-114.15,0.4368
29436,9.2293,5.8182,0.1,0.00027899,2788,0.00027791,2757.1,-8.9071e-05,-0.25173,-9.71e-05,-60.583,0.43548
29437,9.1379,5.9091,0.1,0.00028722,2870.2,0.00028669,2854.8,-9.3263e-05,0.044869,-9.733e-05,-30.515,0.42679
29438,9.3207,0.27273,0.1,0.00027221,2720.2,0.00027053,2673,-8.5238e-05,-0.11432,-9.7483e-05,-92.112,0.44421
29439,9.4121,0.18182,0.1,0.00025487,2546.9,0.00025365,2512.5,-8.079e-05,-0.39874,-8.9677e-05,-67.176,0.45163
29440,9.3207,0.090909,0.1,0.00026416,2639.8,0.00026356,2622.6,-8.5475e-05,0.031709,-9.0018e-05,-34.106,0.44284
29441,9.3207,0.45455,0.1,0.00028223,2820.4,0.00027949,2745.1,-8.5849e-05,0.081878,-0.00010518,-145.13,0.44551
29442,9.4121,0.36364,0.1,0.00026418,2640,0.00026186,2575.9,-8.0956e-05,0.1146,-9.7475e-05,-124,0.45297
29443,9.3207,0.63636,0.1,0.00029453,2943.3,0.00029077,2842.1,-8.7473e-05,0.1143,-0.00011316,-192.91,0.44674
29444,9.4121,0.54545,0.1,0.00027623,2760.4,0.00027278,2667.2,-8.2199e-05,0.062636,-0.00010588,-177.88,0.45425
29445,9.3207,0.81818,0.1,0.00030899,3087.8,0.00030433,2963.7,-9.0088e-05,0.2341,-0.00012139,-234.96,0.44791
29446,9.4121,0.72727,0.1,0.00029104,2908.4,0.00028647,2787.1,-8.4447e-05,0.22244,-0.00011498,-229.21,0.45547
29447,9.3207,1,0.1,0.00032529,3250.6,0.00031988,3108,-9.3725e-05,0.32879,-0.00012955,-268.83,0.44899
29448,9.4121,0.90909,0.1,0.00030842,3082,0.00030279,2934.8,-8.776e-05,0.32858,-0.00012457,-276.21,0.45661
29449,9.3207,1.1818,0.1,0.00034281,3425.8,0.00033695,3271.5,-9.8404e-05,0.42074,-0.0001371,-290.36,0.45
29450,9.4121,1.0909,0.1,0.00032783,3276.1,0.00032136,3107.8,-9.2205e-05,0.43401,-0.00013409,-314.3,0.45768
29451,9.3207,1.3636,0.1,0.00036079,3605.4,0.00035487,3449,-0.0001041,0.51353,-0.00014344,-295.03,0.45092
29452,9.4121,1.2727,0.1,0.00034847,3482.3,0.00034152,3301.7,-9.7847e-05,0.53274,-0.00014279,-337.12,0.45867
29453,9.3207,1.5455,0.1,0.00037839,3781.3,0.00037286,3633.9,-0.0001107,0.61803,-0.00014803,-279.87,0.45176
29454,9.4121,1.4545,0.1,0.00036932,3690.6,0.0003624,3510.1,-0.00010468,0.6228,-0.00014978,-338.28,0.45957
29455,9.3207,1.7273,0.1,0.00039495,3946.8,0.00039021,3818.6,-0.00011792,0.72857,-0.0001507,-245.57,0.4525
29456,9.4121,1.6364,0.1,0.00038933,3890.6,0.00038304,3724.3,-0.00011254,0.70398,-0.00015445,-314.22,0.46038
29457,9.3207,1.9091,0.1,0.00041008,4097.9,0.00040637,3996,-0.00012535,0.83409,-0.00015176,-197.58,0.45314
29458,9.4121,1.8182,0.1,0.00040777,4074.9,0.00040257,3934.9,-0.00012103,0.80746,-0.00015674,-267.5,0.46109
29459,9.3207,2.0909,0.1,0.0004236,4233.1,0.00042096,4159.2,-0.00013247,0.8918,-0.00015188,-144.93,0.45369
29460,9.4121,2,0.1,0.00042434,4240.4,0.00042043,4133,-0.00012953,0.81972,-0.00015732,-207.97,0.46171
29461,9.3207,2.2727,0.1,0.00043542,4351.2,0.0004337,4302.3,-0.00013879,0.83099,-0.0001518,-96.941,0.45414
29462,9.4121,2.1818,0.1,0.00043899,4386.8,0.00043627,4310.7,-0.00013735,0.72742,-0.0001573,-149.13,0.46222
29463,9.3207,2.4545,0.1,0.00044529,4449.8,0.00044425,4419.9,-0.00014392,0.63426,-0.00015196,-59.763,0.45449
29464,9.4121,2.3636,0.1,0.00045158,4512.7,0.00044977,4461.1,-0.0001439,0.52262,-0.00015753,-101.89,0.46264
29465,9.3207,2.6364,0.1,0.00045279,4524.8,0.00045219,4507.3,-0.00014765,0.30358,-0.00015237,-35.089,0.45474
29466,9.4121,2.5455,0.1,0.00046171,4614,0.00046048,4578.4,-0.00014885,0.15168,-0.00015825,-70.442,0.46295
29467,9.3207,2.8182,0.1,0.00045751,4571.9,0.00045714,4561.1,-0.00014992,-0.13715,-0.00015277,-21.521,0.45489
29468,9.4121,2.7273,0.1,0.00046883,4685.1,0.0004679,4658.2,-0.0001521,-0.22477,-0.00015912,-52.992,0.46316
29469,9.3207,3,0.1,0.00045912,4588,0.00045881,4579.2,-0.00015069,-0.4005,-0.00015292,-17.198,0.45494
29470,9.4121,2.9091,0.1,0.00047249,4721.7,0.00047169,4698.5,-0.00015369,-0.4402,-0.00015971,-45.633,0.46326
29471,9.3207,3.1818,0.1,0.00045751,4571.9,0.00045714,4561.1,-0.00014992,-0.13715,-0.00015277,-21.521,0.45489
29472,9.4121,3.0909,0.1,0.00047249,4721.7,0.00047169,4698.5,-0.00015369,-0.4402,-0.00015971,-45.633,0.46326
29473,9.3207,3.3636,0.1,0.00045279,4524.8,0.00045219,4507.3,-0.00014765,0.30358,-0.00015237,-35.089,0.45474
29474,9.4121,3.2727,0.1,0.00046883,4685.1,0.0004679,4658.2,-0.0001521,-0.22476,-0.00015912,-52.992,0.46316
29475,9.3207,3.5455,0.1,0.00044529,4449.8,0.00044425,4419.9,-0.00014392,0.63426,-0.00015196,-59.763,0.45449
29476,9.4121,3.4545,0.1,0.00046171,4614,0.00046048,4578.4,-0.00014885,0.15168,-0.00015825,-70.442,0.46295
29477,9.3207,3.7273,0.1,0.00043542,4351.2,0.0004337,4302.3,-0.00013879,0.831,-0.0001518,-96.941,0.45414
29478,9.4121,3.6364,0.1,0.00045158,4512.7,0.00044977,4461.1,-0.0001439,0.52262,-0.00015753,-101.89,0.46264
29479,9.3207,3.9091,0.1,0.0004236,4233.1,0.00042096,4159.2,-0.00013247,0.8918,-0.00015188,-144.93,0.45369
29480,9.4121,3.8182,0.1,0.00043899,4386.8,0.00043627,4310.7,-0.00013735,0.72742,-0.0001573,-149.13,0.46222
29481,9.3207,4.0909,0.1,0.00041008,4097.9,0.00040637,3996,-0.00012535,0.83409,-0.00015176,-197.58,0.45314
29482,9.4121,4,0.1,0.00042434,4240.4,0.00042043,4133,-0.00012953,0.81972,-0.00015732,-207.97,0.46171
29483,9.3207,4.2727,0.1,0.00039495,3946.8,0.00039021,3818.6,-0.00011792,0.72857,-0.0001507,-245.57,0.4525
29484,9.4121,4.1818,0.1,0.00040777,4074.9,0.00040257,3934.9,-0.00012103,0.80746,-0.00015674,-267.5,0.46109
29485,9.3207,4.4545,0.1,0.00037839,3781.3,0.00037286,3633.9,-0.0001107,0.61803,-0.00014803,-279.87,0.45176
29486,9.4121,4.3636,0.1,0.00038933,3890.6,0.00038304,3724.3,-0.00011254,0.70398,-0.00015445,-314.22,0.46038
29487,9.3207,4.6364,0.1,0.00036079,3605.4,0.00035487,3449,-0.0001041,0.51353,-0.00014344,-295.03,0.45092
29488,9.4121,4.5455,0.1,0.00036932,3690.6,0.0003624,3510.1,-0.00010468,0.6228,-0.00014978,-338.28,0.45957
29489,9.3207,4.8182,0.1,0.00034281,3425.8,0.00033695,3271.5,-9.8404e-05,0.42074,-0.0001371,-290.36,0.45
29490,9.4121,4.7273,0.1,0.00034847,3482.3,0.00034152,3301.7,-9.7847e-05,0.53274,-0.00014279,-337.12,0.45867
29491,9.3207,5,0.1,0.00032529,3250.6,0.00031988,3108,-9.3725e-05,0.32879,-0.00012955,-268.83,0.44899
29492,9.4121,4.9091,0.1,0.00032783,3276.1,0.00032136,3107.8,-9.2205e-05,0.43401,-0.00013409,-314.3,0.45768
29493,9.3207,5.1818,0.1,0.00030899,3087.8,0.00030433,2963.7,-9.0088e-05,0.2341,-0.00012139,-234.96,0.44791
29494,9.4121,5.0909,0.1,0.00030842,3082,0.00030279,2934.8,-8.776e-05,0.32858,-0.00012457,-276.21,0.45661
29495,9.3207,5.3636,0.1,0.00029453,2943.3,0.00029077,2842.1,-8.7473e-05,0.1143,-0.00011316,-192.91,0.44674
29496,9.4121,5.2727,0.1,0.00029104,2908.4,0.00028647,2787.1,-8.4447e-05,0.22244,-0.00011498,-229.21,0.45547
29497,9.3207,5.5455,0.1,0.00028223,2820.4,0.00027949,2745.1,-8.5849e-05,0.081879,-0.00010518,-145.13,0.44551
29498,9.4121,5.4545,0.1,0.00027623,2760.4,0.00027278,2667.2,-8.2199e-05,0.062637,-0.00010588,-177.88,0.45425
29499,9.3207,5.7273,0.1,0.00027221,2720.2,0.00027053,2673,-8.5238e-05,-0.11432,-9.7483e-05,-92.112,0.44421
29500,9.4121,5.6364,0.1,0.00026418,2640,0.00026186,2575.9,-8.0956e-05,0.11461,-9.7475e-05,-124,0.45297
29501,9.4121,5.8182,0.1,0.00025487,2546.9,0.00025365,2512.5,-8.079e-05,-0.39874,-8.9677e-05,-67.176,0.45163
29502,9.3207,5.9091,0.1,0.00026416,2639.8,0.00026356,2622.6,-8.5475e-05,0.03171,-9.0018e-05,-34.106,0.44284
29503,9.5034,0.27273,0.1,0.00024692,2467.4,0.00024507,2416,-7.6509e-05,-0.1825,-8.9754e-05,-99.698,0.46045
29504,9.5948,0.18182,0.1,0.00022731,2271.6,0.00022598,2234.1,-7.1427e-05,-0.50223,-8.1034e-05,-72.688,0.46794
29505,9.5034,0.090909,0.1,0.00023773,2375.7,0.00023708,2356.9,-7.6601e-05,0.0024029,-8.1554e-05,-37.218,0.45906
29506,9.5034,0.45455,0.1,0.00025835,2581.7,0.0002553,2499.2,-7.7306e-05,0.096712,-9.8338e-05,-157.93,0.46177
29507,9.5948,0.36364,0.1,0.00023748,2373.1,0.00023498,2305.1,-7.1787e-05,0.11599,-8.9216e-05,-130.84,0.46931
29508,9.5034,0.63636,0.1,0.00027307,2728.8,0.00026875,2614.3,-7.9173e-05,0.17414,-0.00010798,-216.26,0.46304
29509,9.5948,0.54545,0.1,0.00025155,2513.8,0.0002477,2411.6,-7.324e-05,0.13488,-9.8986e-05,-193.32,0.47062
29510,9.5034,0.81818,0.1,0.00029094,2907.4,0.00028532,2761.1,-8.2119e-05,0.31986,-0.00011855,-273.43,0.46424
29511,9.5948,0.72727,0.1,0.00026952,2693.3,0.00026416,2554.1,-7.573e-05,0.31708,-0.00011036,-259.88,0.47188
29512,9.5034,1,0.1,0.00031155,3113.4,0.00030474,2938.1,-8.624e-05,0.43597,-0.00012959,-325.29,0.46537
29513,9.5948,0.90909,0.1,0.00029117,2909.7,0.00028421,2732.3,-7.9368e-05,0.4491,-0.00012301,-327.47,0.47307
29514,9.5034,1.1818,0.1,0.00033413,3339,0.00032643,3141.8,-9.1647e-05,0.54697,-0.00014028,-364.89,0.46643
29515,9.5948,1.0909,0.1,0.00031589,3156.7,0.00030747,2944.3,-8.4324e-05,0.58356,-0.00013618,-389.08,0.47418
29516,9.5034,1.3636,0.1,0.00035761,3573.6,0.00034953,3366.4,-9.8425e-05,0.63978,-0.00014961,-383.95,0.4674
29517,9.5948,1.2727,0.1,0.00034267,3424.4,0.00033321,3186.6,-9.0808e-05,0.69809,-0.00014875,-434.62,0.47523
29518,9.5034,1.5455,0.1,0.00038076,3804.9,0.00037298,3603.5,-0.00010653,0.69987,-0.00015661,-375.59,0.46828
29519,9.5948,1.4545,0.1,0.00037013,3698.8,0.00036036,3452.1,-9.8979e-05,0.82052,-0.00015929,-452.35,0.47618
29520,9.5034,1.7273,0.1,0.00040252,4022.4,0.0003957,3842.8,-0.00011565,0.7647,-0.00016079,-338.35,0.46906
29521,9.5948,1.6364,0.1,0.00039663,3963.6,0.0003875,3729.8,-0.00010878,1.0136,-0.00016652,-432.82,0.47705
29522,9.5034,1.9091,0.1,0.00042227,4219.8,0.00041683,4073.5,-0.00012522,0.76908,-0.0001625,-279.38,0.46975
29523,9.5948,1.8182,0.1,0.00042092,4206.3,0.00041325,4005.7,-0.00011974,0.9748,-0.00017,-376.64,0.47781
29524,9.5034,2.0909,0.1,0.00043986,4395.5,0.00043585,4285.4,-0.00013442,0.64051,-0.00016286,-213.06,0.47034
29525,9.5948,2,0.1,0.00044247,4421.6,0.00043665,4265.3,-0.00013089,1.0212,-0.00017075,-298.48,0.47848
29526,9.5034,2.2727,0.1,0.0004552,4548.9,0.00045238,4469.9,-0.00014246,0.44295,-0.00016308,-154.46,0.47082
29527,9.5948,2.1818,0.1,0.0004614,4610.8,0.00045723,4496.1,-0.00014106,0.77612,-0.00017072,-222.06,0.47903
29528,9.5034,2.4545,0.1,0.00046799,4676.7,0.00046597,4619.5,-0.00014882,0.13532,-0.00016381,-112.49,0.4712
29529,9.5948,2.3636,0.1,0.00047759,4772.6,0.00047456,4687.6,-0.00014932,0.074266,-0.00017139,-165.73,0.47949
29530,9.5034,2.6364,0.1,0.00047766,4773.3,0.0004761,4728.7,-0.00015328,-0.23058,-0.00016494,-87.849,0.47147
29531,9.5948,2.5455,0.1,0.0004904,4900.7,0.00048799,4832.4,-0.0001552,-0.33876,-0.00017293,-133.49,0.47983
29532,9.5034,2.8182,0.1,0.00048368,4833.5,0.00048233,4794.7,-0.00015586,-0.46604,-0.00016594,-76.199,0.47164
29533,9.5948,2.7273,0.1,0.00049919,4988.4,0.00049704,4927.5,-0.00015884,-0.52408,-0.00017462,-119.1,0.48006
29534,9.5034,3,0.1,0.00048572,4853.8,0.00048443,4816.7,-0.00015671,-0.53489,-0.00016634,-72.932,0.47169
29535,9.5948,2.9091,0.1,0.00050361,5032.6,0.00050156,4974.2,-0.00016055,-0.59074,-0.00017568,-114.29,0.48017
29536,9.5034,3.1818,0.1,0.00048368,4833.5,0.00048233,4794.7,-0.00015586,-0.46604,-0.00016594,-76.199,0.47164
29537,9.5948,3.0909,0.1,0.00050361,5032.6,0.00050156,4974.2,-0.00016055,-0.59074,-0.00017568,-114.29,0.48017
29538,9.5034,3.3636,0.1,0.00047766,4773.3,0.0004761,4728.7,-0.00015328,-0.23058,-0.00016494,-87.849,0.47147
29539,9.5948,3.2727,0.1,0.00049919,4988.4,0.00049704,4927.5,-0.00015884,-0.52408,-0.00017462,-119.1,0.48006
29540,9.5034,3.5455,0.1,0.00046799,4676.7,0.00046597,4619.5,-0.00014882,0.13532,-0.00016381,-112.49,0.4712
29541,9.5948,3.4545,0.1,0.0004904,4900.7,0.00048799,4832.4,-0.0001552,-0.33876,-0.00017293,-133.49,0.47983
29542,9.5034,3.7273,0.1,0.0004552,4548.9,0.00045238,4469.9,-0.00014246,0.44295,-0.00016308,-154.46,0.47082
29543,9.5948,3.6364,0.1,0.00047759,4772.6,0.00047456,4687.6,-0.00014932,0.074266,-0.00017139,-165.73,0.47949
29544,9.5034,3.9091,0.1,0.00043986,4395.5,0.00043585,4285.4,-0.00013442,0.64051,-0.00016286,-213.06,0.47034
29545,9.5948,3.8182,0.1,0.0004614,4610.8,0.00045723,4496.1,-0.00014106,0.77612,-0.00017072,-222.06,0.47903
29546,9.5034,4.0909,0.1,0.00042227,4219.8,0.00041683,4073.5,-0.00012522,0.76908,-0.0001625,-279.38,0.46975
29547,9.5948,4,0.1,0.00044247,4421.6,0.00043665,4265.3,-0.00013089,1.0212,-0.00017075,-298.48,0.47848
29548,9.5034,4.2727,0.1,0.00040252,4022.4,0.0003957,3842.8,-0.00011565,0.76471,-0.00016079,-338.35,0.46906
29549,9.5948,4.1818,0.1,0.00042092,4206.3,0.00041325,4005.7,-0.00011974,0.9748,-0.00017,-376.64,0.47781
29550,9.5034,4.4545,0.1,0.00038076,3804.9,0.00037298,3603.5,-0.00010653,0.69987,-0.00015661,-375.59,0.46828
29551,9.5948,4.3636,0.1,0.00039663,3963.6,0.0003875,3729.8,-0.00010878,1.0136,-0.00016652,-432.82,0.47705
29552,9.5034,4.6364,0.1,0.00035761,3573.6,0.00034953,3366.4,-9.8425e-05,0.63978,-0.00014961,-383.95,0.4674
29553,9.5948,4.5455,0.1,0.00037013,3698.8,0.00036036,3452.1,-9.8979e-05,0.82052,-0.00015929,-452.35,0.47618
29554,9.5034,4.8182,0.1,0.00033413,3339,0.00032643,3141.8,-9.1647e-05,0.54697,-0.00014028,-364.89,0.46643
29555,9.5948,4.7273,0.1,0.00034267,3424.4,0.00033321,3186.6,-9.0808e-05,0.69809,-0.00014875,-434.62,0.47523
29556,9.5034,5,0.1,0.00031155,3113.4,0.00030474,2938.1,-8.624e-05,0.43598,-0.00012959,-325.29,0.46537
29557,9.5948,4.9091,0.1,0.00031589,3156.7,0.00030747,2944.3,-8.4324e-05,0.58356,-0.00013618,-389.08,0.47418
29558,9.5034,5.1818,0.1,0.00029094,2907.4,0.00028532,2761.1,-8.2119e-05,0.31986,-0.00011855,-273.43,0.46424
29559,9.5948,5.0909,0.1,0.00029117,2909.7,0.00028421,2732.3,-7.9368e-05,0.4491,-0.00012301,-327.47,0.47307
29560,9.5034,5.3636,0.1,0.00027307,2728.8,0.00026875,2614.3,-7.9173e-05,0.17414,-0.00010798,-216.26,0.46304
29561,9.5948,5.2727,0.1,0.00026952,2693.3,0.00026416,2554.1,-7.573e-05,0.31708,-0.00011036,-259.88,0.47188
29562,9.5034,5.5455,0.1,0.00025835,2581.7,0.0002553,2499.2,-7.7306e-05,0.096713,-9.8338e-05,-157.93,0.46177
29563,9.5948,5.4545,0.1,0.00025155,2513.8,0.0002477,2411.6,-7.324e-05,0.13488,-9.8986e-05,-193.32,0.47062
29564,9.5034,5.7273,0.1,0.00024692,2467.4,0.00024507,2416,-7.6509e-05,-0.1825,-8.9754e-05,-99.698,0.46045
29565,9.5948,5.6364,0.1,0.00023748,2373.1,0.00023498,2305.1,-7.1787e-05,0.116,-8.9216e-05,-130.84,0.46931
29566,9.5948,5.8182,0.1,0.00022731,2271.6,0.00022598,2234.1,-7.1427e-05,-0.50222,-8.1034e-05,-72.688,0.46794
29567,9.5034,5.9091,0.1,0.00023773,2375.7,0.00023708,2356.9,-7.6601e-05,0.0024037,-8.1554e-05,-37.218,0.45906
29568,9.6862,0.27273,0.1,0.000218,2178.5,0.00021603,2124.1,-6.6701e-05,-0.17147,-8.0626e-05,-104.8,0.47685
29569,9.7776,0.18182,0.1,0.00019613,1960,0.00019472,1920.5,-6.0945e-05,-0.44663,-7.104e-05,-76.296,0.4844
29570,9.6862,0.090909,0.1,0.00020766,2075.1,0.00020696,2055.2,-6.657e-05,-0.010908,-7.1802e-05,-39.322,0.47544
29571,9.6862,0.45455,0.1,0.00023095,2307.9,0.00022763,2219.3,-6.7719e-05,0.17155,-9.0116e-05,-168.11,0.47821
29572,9.7776,0.36364,0.1,0.00020709,2069.5,0.00020449,1999.4,-6.1591e-05,0.175,-7.9418e-05,-133.77,0.4858
29573,9.6862,0.63636,0.1,0.00024853,2483.6,0.00024357,2354.8,-6.9795e-05,0.28888,-0.00010183,-240.4,0.47951
29574,9.7776,0.54545,0.1,0.00022357,2234.2,0.00021932,2123.3,-6.3245e-05,0.24766,-9.0882e-05,-207.4,0.48715
29575,9.6862,0.81818,0.1,0.00027055,2703.7,0.00026371,2530.2,-7.2977e-05,0.45277,-0.00011549,-318.95,0.48076
29576,9.7776,0.72727,0.1,0.00024538,2452.2,0.00023903,2291.4,-6.5878e-05,0.41051,-0.00010522,-295.2,0.48845
29577,9.6862,1,0.1,0.00029652,2963.1,0.00028776,2744.6,-7.7451e-05,0.60116,-0.00013042,-397.41,0.48194
29578,9.7776,0.90909,0.1,0.00027222,2720.3,0.00026342,2503.2,-6.9662e-05,0.54935,-0.00012191,-392.04,0.4897
29579,9.6862,1.1818,0.1,0.00032554,3253.1,0.00031512,2995.7,-8.3484e-05,0.73857,-0.00014552,-465.37,0.48306
29580,9.7776,1.0909,0.1,0.00030345,3032.4,0.00029217,2758.8,-7.4902e-05,0.69781,-0.00014,-488.44,0.49088
29581,9.6862,1.3636,0.1,0.00035625,3560,0.00034485,3278.4,-9.1362e-05,0.88077,-0.00015924,-509.12,0.48409
29582,9.7776,1.2727,0.1,0.00033806,3378.3,0.00032473,3057.2,-8.203e-05,0.91248,-0.00015806,-570.35,0.49199
29583,9.6862,1.5455,0.1,0.00038686,3865.9,0.00037554,3583.4,-0.00010123,1.1289,-0.00016986,-514.5,0.48504
29584,9.7776,1.4545,0.1,0.00037442,3741.6,0.00036004,3394.1,-9.1533e-05,1.1654,-0.00017404,-618.75,0.49302
29585,9.6862,1.7273,0.1,0.00041562,4153.3,0.00040552,3896.2,-0.00011287,1.2052,-0.00017619,-474.56,0.48589
29586,9.7776,1.6364,0.1,0.00041011,4098.3,0.00039624,3757.8,-0.00010379,0.70388,-0.00018542,-612.67,0.49396
29587,9.6862,1.9091,0.1,0.00044146,4411.6,0.00043336,4199.7,-0.00012543,1.2016,-0.00017854,-397.88,0.48663
29588,9.7776,1.8182,0.1,0.00044248,4421.8,0.00043076,4125.9,-0.00011824,0.98393,-0.00019057,-542.47,0.4948
29589,9.6862,2.0909,0.1,0.00046419,4638.7,0.00045818,4477.1,-0.00013754,1.1432,-0.00017877,-308.63,0.48727
29590,9.7776,2,0.1,0.00047068,4703.5,0.00046185,4472.9,-0.00013347,-0.082836,-0.00019088,-431.48,0.49553
29591,9.6862,2.2727,0.1,0.00048383,4835,0.00047944,4714.1,-0.00014792,0.41738,-0.00017907,-233.62,0.4878
29592,9.7776,2.1818,0.1,0.0004949,4945.6,0.00048857,4774.9,-0.00014706,-0.93215,-0.00019012,-324.45,0.49615
29593,9.6862,2.4545,0.1,0.00049993,4995.9,0.0004965,4900,-0.0001557,-0.37444,-0.00018043,-186.17,0.48822
29594,9.7776,2.3636,0.1,0.00051497,5146.1,0.00051016,5014,-0.00015722,-0.38597,-0.00019102,-254.33,0.49665
29595,9.6862,2.6364,0.1,0.00051175,5113.9,0.00050876,5030,-0.00016077,-0.61169,-0.00018244,-163.47,0.48852
29596,9.7776,2.5455,0.1,0.00053009,5297.3,0.00052594,5181.9,-0.00016384,-0.79441,-0.0001934,-222.94,0.49703
29597,9.6862,2.8182,0.1,0.00051887,5185.1,0.00051604,5105.3,-0.00016352,-0.65154,-0.00018412,-155.44,0.48871
29598,9.7776,2.7273,0.1,0.00053972,5393.5,0.00053576,5283.2,-0.00016749,-0.73831,-0.00019581,-213.53,0.49729
29599,9.6862,3,0.1,0.00052123,5208.7,0.00051843,5129.8,-0.00016439,-0.66239,-0.00018476,-153.75,0.48877
29600,9.7776,2.9091,0.1,0.00054428,5439.1,0.00054036,5329.7,-0.00016907,-0.6713,-0.00019719,-211.96,0.49742
29601,9.6862,3.1818,0.1,0.00051887,5185.1,0.00051604,5105.3,-0.00016352,-0.65154,-0.00018412,-155.44,0.48871
29602,9.7776,3.0909,0.1,0.00054428,5439.1,0.00054036,5329.7,-0.00016907,-0.6713,-0.00019719,-211.96,0.49742
29603,9.6862,3.3636,0.1,0.00051175,5113.9,0.00050876,5030,-0.00016077,-0.61169,-0.00018244,-163.47,0.48852
29604,9.7776,3.2727,0.1,0.00053972,5393.5,0.00053576,5283.2,-0.00016749,-0.73831,-0.00019581,-213.53,0.49729
29605,9.6862,3.5455,0.1,0.00049993,4995.9,0.0004965,4900,-0.0001557,-0.37444,-0.00018043,-186.17,0.48822
29606,9.7776,3.4545,0.1,0.00053009,5297.3,0.00052594,5181.9,-0.00016384,-0.79441,-0.0001934,-222.94,0.49703
29607,9.6862,3.7273,0.1,0.00048383,4835,0.00047944,4714.1,-0.00014792,0.41738,-0.00017907,-233.62,0.4878
29608,9.7776,3.6364,0.1,0.00051497,5146.1,0.00051016,5014,-0.00015722,-0.38597,-0.00019102,-254.33,0.49665
29609,9.6862,3.9091,0.1,0.00046419,4638.7,0.00045818,4477.1,-0.00013754,1.1432,-0.00017877,-308.63,0.48727
29610,9.7776,3.8182,0.1,0.0004949,4945.6,0.00048857,4774.9,-0.00014706,-0.93215,-0.00019012,-324.45,0.49615
29611,9.6862,4.0909,0.1,0.00044146,4411.6,0.00043336,4199.7,-0.00012543,1.2016,-0.00017854,-397.88,0.48663
29612,9.7776,4,0.1,0.00047068,4703.5,0.00046185,4472.9,-0.00013347,-0.082835,-0.00019088,-431.48,0.49553
29613,9.6862,4.2727,0.1,0.00041562,4153.3,0.00040552,3896.2,-0.00011287,1.2052,-0.00017619,-474.56,0.48589
29614,9.7776,4.1818,0.1,0.00044248,4421.8,0.00043076,4125.9,-0.00011824,0.98393,-0.00019057,-542.47,0.4948
29615,9.6862,4.4545,0.1,0.00038686,3865.9,0.00037554,3583.4,-0.00010123,1.1289,-0.00016986,-514.5,0.48504
29616,9.7776,4.3636,0.1,0.00041011,4098.3,0.00039624,3757.8,-0.00010379,0.70388,-0.00018542,-612.67,0.49396
29617,9.6862,4.6364,0.1,0.00035625,3560,0.00034485,3278.4,-9.1362e-05,0.88077,-0.00015924,-509.12,0.48409
29618,9.7776,4.5455,0.1,0.00037442,3741.6,0.00036004,3394.1,-9.1533e-05,1.1654,-0.00017404,-618.75,0.49302
29619,9.6862,4.8182,0.1,0.00032554,3253.1,0.00031512,2995.7,-8.3484e-05,0.73857,-0.00014552,-465.37,0.48306
29620,9.7776,4.7273,0.1,0.00033806,3378.3,0.00032473,3057.2,-8.203e-05,0.91248,-0.00015806,-570.35,0.49199
29621,9.6862,5,0.1,0.00029652,2963.1,0.00028776,2744.6,-7.7451e-05,0.60116,-0.00013042,-397.41,0.48194
29622,9.7776,4.9091,0.1,0.00030345,3032.4,0.00029217,2758.8,-7.4902e-05,0.69781,-0.00014,-488.44,0.49088
29623,9.6862,5.1818,0.1,0.00027055,2703.7,0.00026371,2530.2,-7.2977e-05,0.45277,-0.00011549,-318.95,0.48076
29624,9.7776,5.0909,0.1,0.00027222,2720.3,0.00026342,2503.2,-6.9662e-05,0.54935,-0.00012191,-392.04,0.4897
29625,9.6862,5.3636,0.1,0.00024853,2483.6,0.00024357,2354.8,-6.9795e-05,0.28888,-0.00010183,-240.4,0.47951
29626,9.7776,5.2727,0.1,0.00024538,2452.2,0.00023903,2291.4,-6.5878e-05,0.41051,-0.00010522,-295.2,0.48845
29627,9.6862,5.5455,0.1,0.00023095,2307.9,0.00022763,2219.3,-6.7719e-05,0.17155,-9.0116e-05,-168.11,0.47821
29628,9.7776,5.4545,0.1,0.00022357,2234.2,0.00021932,2123.3,-6.3245e-05,0.24766,-9.0882e-05,-207.4,0.48715
29629,9.6862,5.7273,0.1,0.000218,2178.5,0.00021603,2124.1,-6.6701e-05,-0.17146,-8.0626e-05,-104.8,0.47685
29630,9.7776,5.6364,0.1,0.00020709,2069.5,0.00020449,1999.4,-6.1591e-05,0.175,-7.9418e-05,-133.77,0.4858
29631,9.7776,5.8182,0.1,0.00019613,1960,0.00019472,1920.5,-6.0945e-05,-0.44663,-7.104e-05,-76.296,0.4844
29632,9.6862,5.9091,0.1,0.00020766,2075.1,0.00020696,2055.2,-6.657e-05,-0.010907,-7.1802e-05,-39.322,0.47544
29633,9.869,0.27273,0.1,0.00018541,1852.9,0.00018337,1797.2,-5.5823e-05,-0.0055495,-7.0031e-05,-106.76,0.49339
29634,9.9603,0.18182,0.1,0.00016131,1612,0.00015987,1572.3,-4.9346e-05,0.29942,-5.9641e-05,-77.048,0.50099
29635,9.869,0.090909,0.1,0.00017381,1736.9,0.0001731,1716.6,-5.5383e-05,-0.069756,-6.0662e-05,-39.739,0.49196
29636,9.869,0.45455,0.1,0.00020018,2000.4,0.0001966,1906.6,-5.7111e-05,0.29354,-8.0608e-05,-176.25,0.49479
29637,9.9603,0.36364,0.1,0.00017335,1732.3,0.0001707,1662.1,-5.0418e-05,0.64653,-6.8251e-05,-133.34,0.50242
29638,9.869,0.63636,0.1,0.00022135,2211.9,0.00021556,2065.8,-5.9325e-05,0.38782,-9.5064e-05,-268.14,0.49614
29639,9.9603,0.54545,0.1,0.00019311,1929.7,0.00018833,1808.4,-5.2265e-05,0.63303,-8.2129e-05,-223.75,0.50381
29640,9.869,0.81818,0.1,0.00024843,2482.6,0.00023987,2272.8,-6.2561e-05,0.51481,-0.00011278,-376.8,0.49744
29641,9.9603,0.72727,0.1,0.00021975,2196,0.00021194,2005.5,-5.4882e-05,0.68947,-0.00010042,-341.47,0.50517
29642,9.869,1,0.1,0.00028088,2806.9,0.00026922,2527.7,-6.7112e-05,0.65081,-0.00013287,-493.42,0.49869
29643,9.9603,0.90909,0.1,0.00025271,2525.3,0.00024115,2252.3,-5.8505e-05,0.78912,-0.00012226,-478.25,0.50648
29644,9.869,1.1818,0.1,0.00031789,3176.7,0.00030326,2831.3,-7.3448e-05,0.87726,-0.00015402,-604.5,0.49988
29645,9.9603,1.0909,0.1,0.00029154,2913.4,0.00027588,2551.6,-6.3568e-05,1.0404,-0.00014668,-623.42,0.50775
29646,9.869,1.3636,0.1,0.00035807,3578.3,0.0003413,3183.2,-8.22e-05,1.2035,-0.00017424,-690.35,0.501
29647,9.9603,1.2727,0.1,0.00033572,3354.9,0.00031623,2909.4,-7.0809e-05,1.3298,-0.00017228,-761.11,0.50895
29648,9.869,1.5455,0.1,0.00039915,3988.7,0.00038183,3576.7,-9.4093e-05,0.74039,-0.0001907,-725.1,0.50203
29649,9.9603,1.4545,0.1,0.00038418,3839.2,0.00036203,3332.3,-8.1273e-05,1.5235,-0.00019681,-866.59,0.51008
29650,9.869,1.7273,0.1,0.00043791,4376.1,0.00042219,3992.8,-0.00010916,0.46552,-0.0002005,-685.85,0.50297
29651,9.9603,1.6364,0.1,0.00043333,4330.3,0.00041108,3813.5,-9.594e-05,3.9747,-0.00021574,-896.18,0.51112
29652,9.869,1.9091,0.1,0.00047215,4718.2,0.00045963,4402,-0.00012628,-0.33188,-0.00020328,-578.85,0.5038
29653,9.9603,1.8182,0.1,0.00047834,4780.1,0.00045938,4324.2,-0.00011578,2.6237,-0.00022396,-810.19,0.51206
29654,9.869,2.0909,0.1,0.00050154,5011.9,0.00049238,4771.8,-0.00014299,-2.1813,-0.00020237,-448.35,0.50451
29655,9.9603,2,0.1,0.00051596,5156,0.0005022,4809.9,-0.00013734,4.6845,-0.00022272,-636.85,0.51288
29656,9.869,2.2727,0.1,0.00052598,5256.2,0.00051925,5074.5,-0.00015636,-1.7522,-0.00020202,-344.81,0.5051
29657,9.9603,2.1818,0.1,0.00054618,5458,0.00053671,5209.3,-0.00015632,2.1229,-0.00021903,-469.02,0.51358
29658,9.869,2.4545,0.1,0.0005449,5445.2,0.00053939,5294.3,-0.00016536,-0.81244,-0.00020377,-289.46,0.50557
29659,9.9603,2.3636,0.1,0.0005698,5694,0.00056237,5494,-0.00016919,-2.7581,-0.00021924,-378.75,0.51415
29660,9.869,2.6364,0.1,0.00055771,5573.3,0.0005526,5432.7,-0.00017056,-0.90865,-0.00020644,-270.5,0.50591
29661,9.9603,2.5455,0.1,0.00058447,5840.6,0.00057772,5657.6,-0.00017538,-0.89379,-0.00022177,-349.46,0.51458
29662,9.869,2.8182,0.1,0.00056472,5643.4,0.0005597,5504.7,-0.00017303,-0.75434,-0.00020849,-267.13,0.50612
29663,9.9603,2.7273,0.1,0.00059195,5915.4,0.00058534,5735.8,-0.00017814,-0.78062,-0.00022377,-343.63,0.51487
29664,9.869,3,0.1,0.00056691,5665.2,0.00056188,5526.6,-0.00017375,-0.68264,-0.00020921,-267.15,0.50619
29665,9.9603,2.9091,0.1,0.00059488,5944.7,0.00058828,5765.1,-0.00017909,-0.57733,-0.00022476,-343.72,0.51502
29666,9.869,3.1818,0.1,0.00056472,5643.4,0.0005597,5504.7,-0.00017303,-0.75434,-0.00020849,-267.13,0.50612
29667,9.9603,3.0909,0.1,0.00059488,5944.7,0.00058828,5765.1,-0.00017909,-0.57733,-0.00022476,-343.72,0.51502
29668,9.869,3.3636,0.1,0.00055771,5573.3,0.0005526,5432.7,-0.00017056,-0.90865,-0.00020644,-270.5,0.50591
29669,9.9603,3.2727,0.1,0.00059195,5915.4,0.00058534,5735.8,-0.00017814,-0.78062,-0.00022377,-343.63,0.51487
29670,9.869,3.5455,0.1,0.0005449,5445.2,0.00053939,5294.3,-0.00016536,-0.81244,-0.00020377,-289.46,0.50557
29671,9.9603,3.4545,0.1,0.00058447,5840.6,0.00057772,5657.6,-0.00017538,-0.89379,-0.00022177,-349.46,0.51458
29672,9.869,3.7273,0.1,0.00052598,5256.2,0.00051925,5074.5,-0.00015636,-1.7522,-0.00020202,-344.81,0.5051
29673,9.9603,3.6364,0.1,0.0005698,5694,0.00056237,5494,-0.00016919,-2.7581,-0.00021924,-378.75,0.51415
29674,9.869,3.9091,0.1,0.00050154,5011.9,0.00049238,4771.8,-0.00014299,-2.1813,-0.00020237,-448.35,0.50451
29675,9.9603,3.8182,0.1,0.00054618,5458,0.00053671,5209.3,-0.00015632,2.1229,-0.00021903,-469.02,0.51358
29676,9.869,4.0909,0.1,0.00047215,4718.2,0.00045963,4402,-0.00012628,-0.33188,-0.00020328,-578.85,0.5038
29677,9.9603,4,0.1,0.00051596,5156,0.0005022,4809.9,-0.00013734,4.6845,-0.00022272,-636.85,0.51288
29678,9.869,4.2727,0.1,0.00043791,4376.1,0.00042219,3992.8,-0.00010916,0.46552,-0.0002005,-685.85,0.50297
29679,9.9603,4.1818,0.1,0.00047834,4780.1,0.00045938,4324.2,-0.00011578,2.6237,-0.00022396,-810.19,0.51206
29680,9.869,4.4545,0.1,0.00039915,3988.7,0.00038183,3576.7,-9.4093e-05,0.74039,-0.0001907,-725.1,0.50203
29681,9.9603,4.3636,0.1,0.00043333,4330.3,0.00041108,3813.5,-9.594e-05,3.9747,-0.00021574,-896.18,0.51112
29682,9.869,4.6364,0.1,0.00035807,3578.3,0.0003413,3183.2,-8.22e-05,1.2036,-0.00017424,-690.35,0.501
29683,9.9603,4.5455,0.1,0.00038418,3839.2,0.00036203,3332.3,-8.1273e-05,1.5235,-0.00019681,-866.59,0.51008
29684,9.869,4.8182,0.1,0.00031789,3176.7,0.00030326,2831.3,-7.3448e-05,0.87726,-0.00015402,-604.5,0.49988
29685,9.9603,4.7273,0.1,0.00033572,3354.9,0.00031623,2909.4,-7.0809e-05,1.3298,-0.00017228,-761.11,0.50895
29686,9.869,5,0.1,0.00028088,2806.9,0.00026922,2527.7,-6.7112e-05,0.65081,-0.00013287,-493.42,0.49869
29687,9.9603,4.9091,0.1,0.00029154,2913.4,0.00027588,2551.6,-6.3568e-05,1.0404,-0.00014668,-623.42,0.50775
29688,9.869,5.1818,0.1,0.00024843,2482.6,0.00023987,2272.8,-6.2561e-05,0.51481,-0.00011278,-376.8,0.49744
29689,9.9603,5.0909,0.1,0.00025271,2525.3,0.00024115,2252.3,-5.8505e-05,0.78912,-0.00012226,-478.25,0.50648
29690,9.869,5.3636,0.1,0.00022135,2211.9,0.00021556,2065.8,-5.9325e-05,0.38782,-9.5064e-05,-268.14,0.49614
29691,9.9603,5.2727,0.1,0.00021975,2196,0.00021194,2005.5,-5.4882e-05,0.68948,-0.00010042,-341.47,0.50517
29692,9.869,5.5455,0.1,0.00020018,2000.4,0.0001966,1906.6,-5.7111e-05,0.29354,-8.0608e-05,-176.25,0.49479
29693,9.9603,5.4545,0.1,0.00019311,1929.7,0.00018833,1808.4,-5.2265e-05,0.63303,-8.2129e-05,-223.75,0.50381
29694,9.869,5.7273,0.1,0.00018541,1852.9,0.00018337,1797.2,-5.5823e-05,-0.0055489,-7.0031e-05,-106.76,0.49339
29695,9.9603,5.6364,0.1,0.00017335,1732.3,0.0001707,1662.1,-5.0418e-05,0.64653,-6.8251e-05,-133.34,0.50242
29696,9.9603,5.8182,0.1,0.00016131,1612,0.00015987,1572.3,-4.9346e-05,0.29942,-5.9641e-05,-77.048,0.50099
29697,9.869,5.9091,0.1,0.00017381,1736.9,0.0001731,1716.6,-5.5383e-05,-0.069754,-6.0662e-05,-39.739,0.49196
29698,10.052,0.27273,0.1,0.00014959,1494.9,0.00014752,1439.5,-4.3917e-05,1.1398,-5.8196e-05,-106.15,0.51005
29699,10.143,0.18182,0.1,0.00012328,1231.9,0.00012184,1193.3,-3.6707e-05,2.0094,-4.7038e-05,-75.613,0.51768
29700,10.052,0.090909,0.1,0.00013627,1361.7,0.00013559,1342.8,-4.3065e-05,0.39557,-4.8105e-05,-37.472,0.50859
29701,10.052,0.45455,0.1,0.00016718,1670.7,0.00016323,1569.8,-4.5566e-05,1.0358,-7.0572e-05,-186.85,0.51148
29702,10.143,0.36364,0.1,0.00013791,1378.1,0.00013509,1305.4,-3.8479e-05,1.2382,-5.68e-05,-136.42,0.51914
29703,10.052,0.63636,0.1,0.00019319,1930.6,0.00018612,1758.6,-4.7821e-05,0.94147,-8.8894e-05,-307.66,0.51289
29704,10.143,0.54545,0.1,0.00016292,1628.1,0.00015706,1485.3,-4.0536e-05,0.68299,-7.4664e-05,-255.74,0.52059
29705,10.052,0.81818,0.1,0.0002264,2262.4,0.00021513,1999.2,-5.0826e-05,0.96354,-0.0001118,-457.19,0.51426
29706,10.143,0.72727,0.1,0.00019577,1956.4,0.00018539,1715.9,-4.2936e-05,0.33119,-9.8174e-05,-414.7,0.52201
29707,10.052,1,0.1,0.00026626,2660.8,0.00025006,2293,-5.4961e-05,1.179,-0.00013831,-625.09,0.51559
29708,10.143,0.90909,0.1,0.00023557,2354.1,0.00021948,1994.7,-4.597e-05,0.23218,-0.00012612,-601.95,0.5234
29709,10.052,1.1818,0.1,0.00031261,3123.9,0.00029127,2647.8,-6.0929e-05,1.4964,-0.00016736,-798.22,0.51687
29710,10.143,1.0909,0.1,0.00028248,2822.9,0.00025985,2329.7,-5.0169e-05,0.26039,-0.00015796,-809.64,0.52476
29711,10.052,1.3636,0.1,0.00036506,3648.1,0.0003393,3076.1,-6.988e-05,1.6578,-0.0001972,-954.96,0.5181
29712,10.143,1.2727,0.1,0.00033749,3372.6,0.00030801,2738.7,-5.6424e-05,0.49616,-0.00019338,-1028.5,0.52608
29713,10.052,1.5455,0.1,0.00042104,4207.5,0.00039315,3583.3,-8.312e-05,4.7625,-0.00022374,-1051.8,0.51925
29714,10.143,1.4545,0.1,0.00040116,4008.8,0.0003657,3247.9,-6.6468e-05,0.75754,-0.00023064,-1232.8,0.52734
29715,10.052,1.7273,0.1,0.00047523,4749,0.00044931,4152.6,-0.00010256,6.1461,-0.00024024,-1028.3,0.52031
29716,10.143,1.6364,0.1,0.00047318,4728.6,0.0004347,3892.4,-8.3077e-05,1.9869,-0.00026576,-1370.6,0.52852
29717,10.052,1.9091,0.1,0.0005226,5222.4,0.00050234,4735,-0.00012684,7.5965,-0.00024377,-870.99,0.52125
29718,10.143,1.8182,0.1,0.00054428,5439.1,0.00050964,4655.6,-0.00011054,-4.2638,-0.00028579,-1321,0.5296
29719,10.052,2.0909,0.1,0.0005605,5601.1,0.00054649,5247.2,-0.00015068,8.9143,-0.00023934,-657.2,0.52206
29720,10.143,2,0.1,0.00059555,5951.4,0.0005724,5385.5,-0.00014754,-23.741,-0.00027611,-989.78,0.53054
29721,10.052,2.2727,0.1,0.0005896,5891.9,0.0005795,5626.2,-0.00016918,0.96434,-0.00023589,-500.28,0.52274
29722,10.143,2.1818,0.1,0.00063326,6328.2,0.00061865,5951.4,-0.00017497,-11.482,-0.00026498,-687.8,0.53135
29723,10.052,2.4545,0.1,0.00060875,6083.3,0.00060016,5853.1,-0.00017922,-2.8208,-0.00023669,-434.63,0.52328
29724,10.143,2.3636,0.1,0.00065209,6516.4,0.00064082,6219.9,-0.00018704,-0.30509,-0.00026113,-557,0.53201
29725,10.052,2.6364,0.1,0.00061805,6176.3,0.00060987,5956.2,-0.00018296,-0.7397,-0.00023851,-418.11,0.52367
29726,10.143,2.5455,0.1,0.0006567,6562.4,0.00064623,6285.1,-0.0001904,-0.99887,-0.0002598,-522.5,0.53251
29727,10.052,2.8182,0.1,0.00062148,6210.5,0.00061335,5991.8,-0.00018419,-0.59818,-0.00023947,-415.91,0.52391
29728,10.143,2.7273,0.1,0.00065472,6542.7,0.00064458,6273.3,-0.00019039,-0.31832,-0.00025807,-508.89,0.53285
29729,10.052,3,0.1,0.00062224,6218.1,0.00061411,5999.4,-0.00018442,-0.47437,-0.00023974,-416.09,0.52399
29730,10.143,2.9091,0.1,0.00065259,6521.4,0.00064254,6254.4,-0.00018989,-0.14352,-0.00025702,-504.55,0.53302
29731,10.052,3.1818,0.1,0.00062148,6210.5,0.00061335,5991.8,-0.00018419,-0.59818,-0.00023947,-415.91,0.52391
29732,10.143,3.0909,0.1,0.00065259,6521.4,0.00064254,6254.4,-0.00018989,-0.14352,-0.00025702,-504.55,0.53302
29733,10.052,3.3636,0.1,0.00061805,6176.3,0.00060987,5956.2,-0.00018296,-0.7397,-0.00023851,-418.11,0.52367
29734,10.143,3.2727,0.1,0.00065472,6542.7,0.00064458,6273.3,-0.00019039,-0.31832,-0.00025807,-508.89,0.53285
29735,10.052,3.5455,0.1,0.00060875,6083.3,0.00060016,5853.1,-0.00017922,-2.8208,-0.00023669,-434.63,0.52328
29736,10.143,3.4545,0.1,0.0006567,6562.4,0.00064623,6285.1,-0.0001904,-0.99887,-0.0002598,-522.5,0.53251
29737,10.052,3.7273,0.1,0.0005896,5891.9,0.0005795,5626.2,-0.00016918,0.96434,-0.00023589,-500.28,0.52274
29738,10.143,3.6364,0.1,0.00065209,6516.4,0.00064082,6219.9,-0.00018704,-0.30509,-0.00026113,-557,0.53201
29739,10.052,3.9091,0.1,0.0005605,5601.1,0.00054649,5247.2,-0.00015068,8.9143,-0.00023934,-657.2,0.52206
29740,10.143,3.8182,0.1,0.00063326,6328.2,0.00061865,5951.4,-0.00017497,-11.482,-0.00026498,-687.8,0.53135
29741,10.052,4.0909,0.1,0.0005226,5222.4,0.00050234,4735,-0.00012684,7.5965,-0.00024377,-870.99,0.52125
29742,10.143,4,0.1,0.00059555,5951.4,0.0005724,5385.5,-0.00014754,-23.741,-0.00027611,-989.78,0.53054
29743,10.052,4.2727,0.1,0.00047523,4749,0.00044931,4152.6,-0.00010256,6.1461,-0.00024024,-1028.3,0.52031
29744,10.143,4.1818,0.1,0.00054428,5439.1,0.00050964,4655.6,-0.00011054,-4.2638,-0.00028579,-1321,0.5296
29745,10.052,4.4545,0.1,0.00042104,4207.5,0.00039315,3583.3,-8.312e-05,4.7625,-0.00022374,-1051.8,0.51925
29746,10.143,4.3636,0.1,0.00047318,4728.6,0.0004347,3892.4,-8.3077e-05,1.9869,-0.00026576,-1370.6,0.52852
29747,10.052,4.6364,0.1,0.00036506,3648.1,0.0003393,3076.1,-6.988e-05,1.6578,-0.0001972,-954.96,0.5181
29748,10.143,4.5455,0.1,0.00040116,4008.8,0.0003657,3247.9,-6.6468e-05,0.75754,-0.00023064,-1232.8,0.52734
29749,10.052,4.8182,0.1,0.00031261,3123.9,0.00029127,2647.8,-6.0929e-05,1.4964,-0.00016736,-798.22,0.51687
29750,10.143,4.7273,0.1,0.00033749,3372.6,0.00030801,2738.7,-5.6424e-05,0.49616,-0.00019338,-1028.5,0.52608
29751,10.052,5,0.1,0.00026626,2660.8,0.00025006,2293,-5.4961e-05,1.179,-0.00013831,-625.09,0.51559
29752,10.143,4.9091,0.1,0.00028248,2822.9,0.00025985,2329.7,-5.0169e-05,0.26039,-0.00015796,-809.64,0.52476
29753,10.052,5.1818,0.1,0.0002264,2262.4,0.00021513,1999.2,-5.0826e-05,0.96355,-0.0001118,-457.19,0.51426
29754,10.143,5.0909,0.1,0.00023557,2354.1,0.00021948,1994.7,-4.597e-05,0.23218,-0.00012612,-601.95,0.5234
29755,10.052,5.3636,0.1,0.00019319,1930.6,0.00018612,1758.6,-4.7821e-05,0.94148,-8.8894e-05,-307.66,0.51289
29756,10.143,5.2727,0.1,0.00019577,1956.4,0.00018539,1715.9,-4.2936e-05,0.33119,-9.8174e-05,-414.7,0.52201
29757,10.052,5.5455,0.1,0.00016718,1670.7,0.00016323,1569.8,-4.5566e-05,1.0358,-7.0572e-05,-186.85,0.51148
29758,10.143,5.4545,0.1,0.00016292,1628.1,0.00015706,1485.3,-4.0536e-05,0.683,-7.4664e-05,-255.74,0.52059
29759,10.052,5.7273,0.1,0.00014959,1494.9,0.00014752,1439.5,-4.3917e-05,1.1398,-5.8196e-05,-106.15,0.51005
29760,10.143,5.6364,0.1,0.00013791,1378.1,0.00013509,1305.4,-3.8479e-05,1.2383,-5.68e-05,-136.42,0.51914
29761,10.143,5.8182,0.1,0.00012328,1231.9,0.00012184,1193.3,-3.6707e-05,2.0094,-4.7038e-05,-75.613,0.51768
29762,10.052,5.9091,0.1,0.00013627,1361.7,0.00013559,1342.8,-4.3065e-05,0.39557,-4.8105e-05,-37.472,0.50859
29763,10.234,0.27273,0.1,0.00011243,1123.5,0.00011014,1064.6,-3.1244e-05,2.2999,-4.6387e-05,-111.48,0.52679
29764,10.326,0.18182,0.1,8.4266e-05,842.08,8.2632e-05,801.74,-2.2645e-05,10.725,-3.5184e-05,-83.487,0.53444
29765,10.234,0.090909,0.1,9.5522e-05,954.56,9.4912e-05,937.53,-2.9811e-05,0.40968,-3.4331e-05,-33.553,0.5253
29766,10.234,0.45455,0.1,0.00013574,1356.5,0.0001307,1234.3,-3.347e-05,0.7317,-6.2649e-05,-218.51,0.52827
29767,10.326,0.36364,0.1,0.00010784,1077.7,0.00010366,978.2,-2.585e-05,5.0782,-5.0485e-05,-180.02,0.53594
29768,10.234,0.63636,0.1,0.00016869,1685.7,0.00015891,1461.9,-3.5662e-05,-0.0067497,-8.6506e-05,-382.03,0.52973
29769,10.326,0.54545,0.1,0.00014238,1422.8,0.00013305,1214.3,-2.8118e-05,3.3438,-7.5505e-05,-352.71,0.53744
29770,10.234,0.81818,0.1,0.00020888,2087.4,0.00019279,1734.3,-3.8084e-05,-0.42988,-0.00011553,-582.33,0.53118
29771,10.326,0.72727,0.1,0.0001835,1833.7,0.00016713,1483.9,-3.0018e-05,2.5662,-0.00010583,-567.07,0.53893
29772,10.234,1,0.1,0.00025635,2561.8,0.00023269,2057,-4.1179e-05,-0.69228,-0.00014918,-812.16,0.53261
29773,10.326,0.90909,0.1,0.00023107,2309.1,0.00020607,1790.8,-3.1955e-05,2.3333,-0.00014087,-816.05,0.54041
29774,10.234,1.1818,0.1,0.00031256,3123.5,0.00028037,2448.9,-4.5665e-05,-0.73777,-0.00018776,-1068.4,0.53401
29775,10.326,1.0909,0.1,0.00028666,2864.6,0.00025151,2150.8,-3.436e-05,2.8732,-0.00018136,-1101.6,0.54189
29776,10.234,1.3636,0.1,0.00037932,3790.6,0.00033846,2941,-5.3012e-05,-0.40518,-0.00023088,-1336.9,0.53537
29777,10.326,1.2727,0.1,0.00035346,3532.2,0.00030659,2592.1,-3.813e-05,1.9652,-0.00022891,-1431.5,0.54334
29778,10.234,1.5455,0.1,0.00045847,4581.5,0.00041077,3583.4,-6.6422e-05,-1.9935,-0.00027619,-1578.1,0.53668
29779,10.326,1.4545,0.1,0.00043621,4359.1,0.00037646,3170.4,-4.4223e-05,9.4843,-0.00028538,-1802.4,0.54477
29780,10.234,1.7273,0.1,0.00054551,5451.4,0.00049722,4411.7,-9.1078e-05,-8.5507,-0.00031348,-1679.6,0.5379
29781,10.326,1.6364,0.1,0.00054381,5434.4,0.00047059,3963.8,-5.8295e-05,-10.019,-0.00035361,-2228.9,0.54613
29782,10.234,1.9091,0.1,0.00061655,6161.3,0.0005794,5303.9,-0.00013124,-35.616,-0.00031783,-1437.6,0.539
29783,10.326,1.8182,0.1,0.00069,6895.2,0.00061324,5328.3,-8.9379e-05,49.129,-0.00042503,-2472.9,0.54741
29784,10.234,2.0909,0.1,0.00066697,6665.1,0.00064367,6083.1,-0.00017185,-44.347,-0.00030084,-1013.6,0.53996
29785,10.326,2,0.1,0.00079733,7967.8,0.00075036,6965.4,-0.0001496,203.39,-0.00041873,-1818.7,0.54855
29786,10.234,2.2727,0.1,0.00069418,6937,0.00067865,6535.2,-0.00019286,-13.028,-0.00028886,-734.32,0.54076
29787,10.326,2.1818,0.1,0.00079606,7955.1,0.00077382,7390.5,-0.00021336,-26.833,-0.00034432,-1010.9,0.54951
29788,10.234,2.4545,0.1,0.00069872,6982.3,0.00068573,6643.1,-0.0001982,1.6212,-0.0002831,-636.23,0.54138
29789,10.326,2.3636,0.1,0.0007739,7733.7,0.00075688,7297.4,-0.00021315,9.0193,-0.00032288,-815.45,0.55029
29790,10.234,2.6364,0.1,0.00069242,6919.5,0.00068009,6595.8,-0.00019782,-0.54967,-0.00027853,-606.92,0.54184
29791,10.326,2.5455,0.1,0.00074196,7414.5,0.0007269,7023.4,-0.00020822,-2.7502,-0.00030453,-726.4,0.55087
29792,10.234,2.8182,0.1,0.0006851,6846.3,0.0006731,6530.8,-0.00019609,0.12702,-0.00027497,-592.55,0.54211
29793,10.326,2.7273,0.1,0.00072002,7195.3,0.0007059,6828,-0.00020266,1.4726,-0.00029423,-686.57,0.55125
29794,10.234,3,0.1,0.00068228,6818.1,0.00067036,6504.8,-0.00019536,0.17261,-0.0002737,-588.46,0.5422
29795,10.326,2.9091,0.1,0.00070893,7084.4,0.0006952,6726.8,-0.00020003,0.41826,-0.00028901,-668.15,0.55144
29796,10.234,3.1818,0.1,0.0006851,6846.3,0.0006731,6530.8,-0.00019609,0.12702,-0.00027497,-592.55,0.54211
29797,10.326,3.0909,0.1,0.00070893,7084.4,0.0006952,6726.8,-0.00020003,0.41826,-0.00028901,-668.15,0.55144
29798,10.234,3.3636,0.1,0.00069242,6919.5,0.00068009,6595.8,-0.00019782,-0.54967,-0.00027853,-606.92,0.54184
29799,10.326,3.2727,0.1,0.00072002,7195.3,0.0007059,6828,-0.00020266,1.4726,-0.00029423,-686.57,0.55125
29800,10.234,3.5455,0.1,0.00069872,6982.3,0.00068573,6643.1,-0.0001982,1.6212,-0.0002831,-636.23,0.54138
29801,10.326,3.4545,0.1,0.00074196,7414.5,0.0007269,7023.4,-0.00020822,-2.7502,-0.00030453,-726.4,0.55087
29802,10.234,3.7273,0.1,0.00069418,6937,0.00067865,6535.2,-0.00019286,-13.028,-0.00028886,-734.32,0.54076
29803,10.326,3.6364,0.1,0.0007739,7733.7,0.00075688,7297.4,-0.00021315,9.0193,-0.00032288,-815.45,0.55029
29804,10.234,3.9091,0.1,0.00066697,6665.1,0.00064367,6083.1,-0.00017185,-44.347,-0.00030084,-1013.6,0.53996
29805,10.326,3.8182,0.1,0.00079606,7955.1,0.00077382,7390.5,-0.00021336,-26.833,-0.00034432,-1010.9,0.54951
29806,10.234,4.0909,0.1,0.00061655,6161.3,0.0005794,5303.9,-0.00013124,-35.616,-0.00031783,-1437.6,0.539
29807,10.326,4,0.1,0.00079733,7967.8,0.00075036,6965.4,-0.0001496,203.39,-0.00041873,-1818.7,0.54855
29808,10.234,4.2727,0.1,0.00054551,5451.4,0.00049722,4411.7,-9.1078e-05,-8.5507,-0.00031348,-1679.6,0.5379
29809,10.326,4.1818,0.1,0.00069,6895.2,0.00061324,5328.3,-8.9379e-05,49.129,-0.00042503,-2472.9,0.54741
29810,10.234,4.4545,0.1,0.00045847,4581.5,0.00041077,3583.4,-6.6422e-05,-1.9935,-0.00027619,-1578.1,0.53668
29811,10.326,4.3636,0.1,0.00054381,5434.4,0.00047059,3963.8,-5.8295e-05,-10.019,-0.00035361,-2228.9,0.54613
29812,10.234,4.6364,0.1,0.00037932,3790.6,0.00033846,2941,-5.3012e-05,-0.40518,-0.00023088,-1336.9,0.53537
29813,10.326,4.5455,0.1,0.00043621,4359.1,0.00037646,3170.4,-4.4223e-05,9.4843,-0.00028538,-1802.4,0.54477
29814,10.234,4.8182,0.1,0.00031256,3123.5,0.00028037,2448.9,-4.5665e-05,-0.73777,-0.00018776,-1068.4,0.53401
29815,10.326,4.7273,0.1,0.00035346,3532.2,0.00030659,2592.1,-3.813e-05,1.9652,-0.00022891,-1431.5,0.54334
29816,10.234,5,0.1,0.00025635,2561.8,0.00023269,2057,-4.1179e-05,-0.69228,-0.00014918,-812.16,0.53261
29817,10.326,4.9091,0.1,0.00028666,2864.6,0.00025151,2150.8,-3.436e-05,2.8732,-0.00018136,-1101.6,0.54189
29818,10.234,5.1818,0.1,0.00020888,2087.4,0.00019279,1734.3,-3.8084e-05,-0.42988,-0.00011553,-582.33,0.53118
29819,10.326,5.0909,0.1,0.00023107,2309.1,0.00020607,1790.8,-3.1955e-05,2.3333,-0.00014087,-816.05,0.54041
29820,10.234,5.3636,0.1,0.00016869,1685.7,0.00015891,1461.9,-3.5662e-05,-0.0067478,-8.6506e-05,-382.03,0.52973
29821,10.326,5.2727,0.1,0.0001835,1833.7,0.00016713,1483.9,-3.0018e-05,2.5662,-0.00010583,-567.07,0.53893
29822,10.234,5.5455,0.1,0.00013574,1356.5,0.0001307,1234.3,-3.347e-05,0.7317,-6.2649e-05,-218.51,0.52827
29823,10.326,5.4545,0.1,0.00014238,1422.8,0.00013305,1214.3,-2.8118e-05,3.3438,-7.5505e-05,-352.71,0.53744
29824,10.234,5.7273,0.1,0.00011243,1123.5,0.00011014,1064.6,-3.1244e-05,2.2999,-4.6387e-05,-111.48,0.52679
29825,10.326,5.6364,0.1,0.00010784,1077.7,0.00010366,978.2,-2.585e-05,5.0782,-5.0485e-05,-180.02,0.53594
29826,10.326,5.8182,0.1,8.4266e-05,842.08,8.2632e-05,801.74,-2.2645e-05,10.725,-3.5184e-05,-83.487,0.53444
29827,10.234,5.9091,0.1,9.5522e-05,954.56,9.4912e-05,937.53,-2.9811e-05,0.40968,-3.4331e-05,-33.553,0.5253
29828,10.417,0.27273,0.1,8.3454e-05,833.97,7.9185e-05,738.08,-1.758e-05,11.033,-4.1979e-05,-172.3,0.5436
29829,10.509,0.18182,0.1,4.691e-05,468.77,4.5734e-05,438.53,-1.286e-05,-1.7253,-1.986e-05,-54.321,0.55124
29830,10.417,0.090909,0.1,5.3534e-05,534.97,5.2814e-05,517.56,-1.4642e-05,10.722,-2.1617e-05,-41.683,0.54208
29831,10.417,0.45455,0.1,0.00012005,1199.6,0.00011034,990.77,-2.0673e-05,6.3721,-6.7495e-05,-345.43,0.54512
29832,10.509,0.36364,0.1,7.7453e-05,774,7.2722e-05,665.6,-1.6235e-05,-2.7847,-4.0143e-05,-182.42,0.55278
29833,10.417,0.63636,0.1,0.00016316,1630.5,0.00014572,1269.6,-2.2544e-05,5.3935,-9.9208e-05,-570.63,0.54664
29834,10.509,0.54545,0.1,0.0001113,1112.2,0.00010101,892.29,-1.7987e-05,-1.8294,-6.4745e-05,-353.15,0.55433
29835,10.417,0.81818,0.1,0.00021193,2117.8,0.00018494,1574.4,-2.3923e-05,5.0779,-0.00013567,-834.54,0.54817
29836,10.509,0.72727,0.1,0.0001483,1482,0.00013091,1124.8,-1.9027e-05,-1.7943,-9.2527e-05,-554.04,0.55589
29837,10.417,1,0.1,0.00026823,2680.4,0.00022977,1921.2,-2.5151e-05,5.7822,-0.00017791,-1142,0.54971
29838,10.509,0.90909,0.1,0.00018996,1898.3,0.00016385,1376.3,-1.9612e-05,-2.1014,-0.00012432,-788.81,0.55748
29839,10.417,1.1818,0.1,0.00033564,3354.1,0.00028342,2336.6,-2.6823e-05,5.5911,-0.00022819,-1507.4,0.55124
29840,10.509,1.0909,0.1,0.00023866,2384.9,0.00020184,1664.3,-1.9778e-05,-0.80125,-0.00016179,-1067.8,0.55908
29841,10.417,1.3636,0.1,0.00042055,4202.6,0.00035166,2874.6,-2.933e-05,11.934,-0.00029048,-1950.2,0.55277
29842,10.509,1.2727,0.1,0.00029835,2981.5,0.00024832,2014.3,-2.0518e-05,-5.6041,-0.00020743,-1410,0.56069
29843,10.417,1.5455,0.1,0.00053651,5361.4,0.00044655,3627.8,-3.6052e-05,1.7837,-0.0003731,-2530.7,0.55427
29844,10.509,1.4545,0.1,0.0003773,3770.4,0.00030927,2482.1,-1.9182e-05,14.238,-0.00026837,-1858.1,0.56231
29845,10.417,1.7273,0.1,0.00070156,7010.8,0.00059515,4944.6,-5.6578e-05,47.792,-0.00047373,-3086.5,0.55573
29846,10.509,1.6364,0.1,0.00048294,4826,0.00039643,3149.6,-3.076e-05,-60.136,-0.00034222,-2400.4,0.56391
29847,10.417,1.9091,0.1,0.00086782,8672.2,0.00078114,6966.8,-0.00010717,292.46,-0.00052345,-2835.3,0.55708
29848,10.509,1.8182,0.1,0.00069355,6930.7,0.00054785,4360,2.7222e-06,264.08,-0.00051717,-3642.2,0.56549
29849,10.417,2.0909,0.1,0.00091421,9135.7,0.00087243,8211.9,-0.00019316,205.52,-0.00045207,-1739.8,0.55825
29850,10.509,2,0.1,0.0013495,13485,0.0012841,12046,-0.00027987,294.65,-0.00067548,-2677.9,0.56696
29851,10.417,2.2727,0.1,0.00087197,8713.7,0.00084882,8128.4,-0.00023341,-3.0617,-0.00037534,-1069.4,0.55921
29852,10.509,2.1818,0.1,0.0010457,10450,0.0010181,9734.2,-0.00028793,-78.486,-0.00044424,-1252.9,0.56815
29853,10.417,2.4545,0.1,0.00081582,8152.6,0.00079689,7668.9,-0.00022315,4.7485,-0.00034317,-897.06,0.55994
29854,10.509,2.3636,0.1,0.00090017,8995.5,0.00087816,8439.9,-0.00024221,21.897,-0.00038341,-1039,0.56905
29855,10.417,2.6364,0.1,0.00076895,7684.2,0.00075215,7251.5,-0.00021306,-0.77469,-0.00031968,-801.88,0.56045
29856,10.509,2.5455,0.1,0.00081586,8153,0.00079701,7669.6,-0.00022408,-2.4659,-0.0003424,-891.47,0.5697
29857,10.417,2.8182,0.1,0.00074337,7428.6,0.00072756,7020.7,-0.00020661,1.7296,-0.00030784,-758.89,0.56075
29858,10.509,2.7273,0.1,0.00076997,7694.4,0.00075281,7253.9,-0.00021221,3.1148,-0.00032152,-818.19,0.57013
29859,10.417,3,0.1,0.00073511,7346.1,0.00071961,6945.6,-0.00020471,0.62954,-0.0003039,-744.66,0.56085
29860,10.509,2.9091,0.1,0.00074946,7489.5,0.00073307,7067.5,-0.0002074,1.2144,-0.00031182,-783.42,0.57034
29861,10.417,3.1818,0.1,0.00074337,7428.6,0.00072756,7020.7,-0.00020661,1.7296,-0.00030784,-758.89,0.56075
29862,10.509,3.0909,0.1,0.00074946,7489.5,0.00073307,7067.5,-0.0002074,1.2144,-0.00031182,-783.42,0.57034
29863,10.417,3.3636,0.1,0.00076895,7684.2,0.00075215,7251.5,-0.00021306,-0.77469,-0.00031968,-801.89,0.56045
29864,10.509,3.2727,0.1,0.00076997,7694.4,0.00075281,7253.9,-0.00021221,3.1148,-0.00032152,-818.19,0.57013
29865,10.417,3.5455,0.1,0.00081582,8152.6,0.00079689,7668.9,-0.00022315,4.7485,-0.00034317,-897.06,0.55994
29866,10.509,3.4545,0.1,0.00081586,8153,0.00079701,7669.6,-0.00022408,-2.4659,-0.0003424,-891.47,0.5697
29867,10.417,3.7273,0.1,0.00087197,8713.7,0.00084882,8128.4,-0.00023341,-3.0617,-0.00037534,-1069.4,0.55921
29868,10.509,3.6364,0.1,0.00090017,8995.5,0.00087816,8439.9,-0.00024221,21.897,-0.00038341,-1039,0.56905
29869,10.417,3.9091,0.1,0.00091421,9135.7,0.00087243,8211.9,-0.00019316,205.52,-0.00045207,-1739.8,0.55825
29870,10.509,3.8182,0.1,0.0010457,10450,0.0010181,9734.2,-0.00028793,-78.486,-0.00044424,-1252.9,0.56815
29871,10.417,4.0909,0.1,0.00086782,8672.2,0.00078114,6966.8,-0.00010717,292.46,-0.00052345,-2835.3,0.55708
29872,10.509,4,0.1,0.0013495,13485,0.0012841,12046,-0.00027987,294.65,-0.00067548,-2677.9,0.56696
29873,10.417,4.2727,0.1,0.00070156,7010.8,0.00059515,4944.6,-5.6578e-05,47.792,-0.00047373,-3086.5,0.55573
29874,10.509,4.1818,0.1,0.00069355,6930.7,0.00054785,4360,2.7222e-06,264.08,-0.00051717,-3642.2,0.56549
29875,10.417,4.4545,0.1,0.00053651,5361.4,0.00044655,3627.8,-3.6052e-05,1.7837,-0.0003731,-2530.7,0.55427
29876,10.509,4.3636,0.1,0.00048294,4826,0.00039643,3149.6,-3.076e-05,-60.136,-0.00034222,-2400.4,0.56391
29877,10.417,4.6364,0.1,0.00042055,4202.6,0.00035166,2874.6,-2.933e-05,11.934,-0.00029048,-1950.2,0.55277
29878,10.509,4.5455,0.1,0.0003773,3770.4,0.00030927,2482.1,-1.9182e-05,14.238,-0.00026837,-1858.1,0.56231
29879,10.417,4.8182,0.1,0.00033564,3354.1,0.00028342,2336.6,-2.6823e-05,5.5911,-0.00022819,-1507.4,0.55124
29880,10.509,4.7273,0.1,0.00029835,2981.5,0.00024832,2014.3,-2.0518e-05,-5.6041,-0.00020743,-1410,0.56069
29881,10.417,5,0.1,0.00026823,2680.4,0.00022977,1921.2,-2.5151e-05,5.7822,-0.00017791,-1142,0.54971
29882,10.509,4.9091,0.1,0.00023866,2384.9,0.00020184,1664.3,-1.9778e-05,-0.80125,-0.00016179,-1067.8,0.55908
29883,10.417,5.1818,0.1,0.00021193,2117.8,0.00018494,1574.4,-2.3923e-05,5.0779,-0.00013567,-834.54,0.54817
29884,10.509,5.0909,0.1,0.00018996,1898.3,0.00016385,1376.3,-1.9612e-05,-2.1014,-0.00012432,-788.81,0.55748
29885,10.417,5.3636,0.1,0.00016316,1630.5,0.00014572,1269.6,-2.2544e-05,5.3935,-9.9208e-05,-570.63,0.54664
29886,10.509,5.2727,0.1,0.0001483,1482,0.00013091,1124.8,-1.9027e-05,-1.7943,-9.2527e-05,-554.04,0.55589
29887,10.417,5.5455,0.1,0.00012005,1199.6,0.00011034,990.77,-2.0673e-05,6.3721,-6.7495e-05,-345.43,0.54512
29888,10.509,5.4545,0.1,0.0001113,1112.2,0.00010101,892.29,-1.7987e-05,-1.8294,-6.4745e-05,-353.15,0.55433
29889,10.417,5.7273,0.1,8.3454e-05,833.97,7.9185e-05,738.08,-1.758e-05,11.033,-4.1979e-05,-172.3,0.5436
29890,10.509,5.6364,0.1,7.7453e-05,774,7.2722e-05,665.6,-1.6235e-05,-2.7847,-4.0143e-05,-182.42,0.55278
29891,10.509,5.8182,0.1,4.691e-05,468.77,4.5734e-05,438.53,-1.286e-05,-1.7253,-1.986e-05,-54.321,0.55124
29892,10.417,5.9091,0.1,5.3534e-05,534.97,5.2814e-05,517.56,-1.4642e-05,10.722,-2.1617e-05,-41.683,0.54208
29893,10.767,3.7273,0.1,0.0010742,10735,0.001051,10133,-0.00029989,-17.502,-0.00044454,-1104.3,0.59613
29894,10.683,3.8182,0.1,0.0011873,11865,0.0011613,11175,-0.00033921,-98.975,-0.00048616,-1203.1,0.58658
29895,10.767,3.9091,0.1,0.0014209,14199,0.0013932,13587,-0.0003507,484.25,-0.00061476,-1499.9,0.59506
29896,10.767,3.5455,0.1,0.00089743,8968.1,0.00087686,8444.1,-0.00024502,14.757,-0.00037738,-979.74,0.59691
29897,10.683,3.6364,0.1,0.00095208,9514.2,0.00092961,8946.8,-0.00025705,30.65,-0.00040352,-1069.8,0.58753
29898,10.767,3.3636,0.1,0.00081168,8111.2,0.00079355,7645.6,-0.00022387,1.0355,-0.00033888,-863.08,0.59745
29899,10.683,3.4545,0.1,0.00084273,8421.5,0.00082315,7920,-0.00023105,-0.86244,-0.00035416,-925.81,0.58821
29900,10.767,3.1818,0.1,0.00076995,7694.2,0.0007532,7263,-0.00021313,2.4228,-0.00032015,-801.67,0.59777
29901,10.683,3.2727,0.1,0.00078525,7847.1,0.00076758,7393.9,-0.00021605,3.35,-0.00032847,-841.35,0.58864
29902,10.767,3,0.1,0.00075745,7569.3,0.00074112,7148.5,-0.00021008,1.5742,-0.00031439,-782.16,0.59787
29903,10.683,3.0909,0.1,0.00076058,7600.6,0.00074378,7168.6,-0.00021008,1.6918,-0.00031702,-801.84,0.58885
29904,10.767,2.8182,0.1,0.00076995,7694.2,0.0007532,7263,-0.00021313,2.4228,-0.00032015,-801.67,0.59777
29905,10.683,2.9091,0.1,0.00076058,7600.6,0.00074378,7168.6,-0.00021008,1.6918,-0.00031702,-801.84,0.58885
29906,10.767,2.6364,0.1,0.00081168,8111.2,0.00079355,7645.6,-0.00022387,1.0355,-0.00033888,-863.08,0.59745
29907,10.683,2.7273,0.1,0.00078525,7847.1,0.00076758,7393.9,-0.00021605,3.35,-0.00032847,-841.35,0.58864
29908,10.767,2.4545,0.1,0.00089743,8968.1,0.00087686,8444.1,-0.00024502,14.757,-0.00037738,-979.74,0.59691
29909,10.683,2.5455,0.1,0.00084273,8421.5,0.00082315,7920,-0.00023105,-0.86245,-0.00035416,-925.81,0.58821
29910,10.767,2.2727,0.1,0.0010742,10735,0.001051,10133,-0.00029989,-17.502,-0.00044454,-1104.3,0.59613
29911,10.683,2.3636,0.1,0.00095208,9514.2,0.00092961,8946.8,-0.00025705,30.65,-0.00040352,-1069.8,0.58753
29912,10.683,2.1818,0.1,0.0011873,11865,0.0011613,11175,-0.00033921,-98.975,-0.00048616,-1203.1,0.58658
29913,10.767,2.0909,0.1,0.0014209,14199,0.0013932,13587,-0.0003507,484.25,-0.00061476,-1499.9,0.59506
29914,10.6,3.7273,0.1,0.0010855,10848,0.0010572,10119,-0.00029657,-52.378,-0.00046223,-1297.1,0.57821
29915,10.6,3.9091,0.1,0.0014641,14631,0.0014118,13433,-0.00033872,280.48,-0.00068558,-2325.7,0.5771
29916,10.6,3.5455,0.1,0.00090337,9027.5,0.00088095,8460.6,-0.00024316,14.48,-0.00038527,-1053.3,0.57901
29917,10.6,3.3636,0.1,0.00081785,8172.9,0.00079848,7678.2,-0.00022324,1.3502,-0.00034504,-913.78,0.57956
29918,10.6,3.1818,0.1,0.00077617,7756.4,0.0007584,7301.3,-0.00021301,2.5401,-0.00032558,-843.28,0.57988
29919,10.6,3,0.1,0.0007637,7631.8,0.00074642,7188.6,-0.00021009,1.7465,-0.00031964,-821.38,0.57999
29920,10.6,2.8182,0.1,0.00077617,7756.4,0.0007584,7301.3,-0.00021301,2.5401,-0.00032558,-843.28,0.57988
29921,10.6,2.6364,0.1,0.00081785,8172.9,0.00079848,7678.2,-0.00022324,1.3502,-0.00034504,-913.78,0.57956
29922,10.6,2.4545,0.1,0.00090337,9027.5,0.00088095,8460.6,-0.00024316,14.48,-0.00038527,-1053.3,0.57901
29923,10.6,2.2727,0.1,0.0010855,10848,0.0010572,10119,-0.00029657,-52.378,-0.00046223,-1297.1,0.57821
29924,10.6,2.0909,0.1,0.0014641,14631,0.0014118,13433,-0.00033872,280.48,-0.00068558,-2325.7,0.5771
29925,10.767,5.7273,0.1,4.6235e-05,462.03,4.3803e-05,402.46,-1.1102e-05,-10.066,-2.2643e-05,-96.785,0.5827
29926,10.767,5.9091,0.1,1.6685e-05,166.74,1.6345e-05,157.89,-4.6939e-06,-0.19277,-6.8417e-06,-16.331,0.58168
29927,10.767,5.8182,0.05,1.1694e-05,116.86,8.9796e-06,67.469,3.6046e-13,3.2658e-06,-8.9796e-06,-67.469,0.58216
29928,10.767,5.5455,0.1,7.2779e-05,727.29,6.7748e-05,611.05,-1.5114e-05,-11.544,-3.8645e-05,-188.34,0.58374
29929,10.767,5.6364,0.05,2.4991e-05,249.74,1.919e-05,144.19,2.2247e-13,1.8662e-06,-1.919e-05,-144.19,0.58318
29930,10.767,5.3636,0.1,9.9359e-05,992.9,9.1025e-05,807.89,-1.8135e-05,-12.298,-5.5891e-05,-295.98,0.58481
29931,10.767,5.4545,0.05,3.8131e-05,381.05,2.928e-05,220,-6.2108e-21,1.5466e-06,-2.928e-05,-220,0.58424
29932,10.767,5.1818,0.1,0.00012837,1282.8,0.00011593,1014.2,-2.0918e-05,-14.061,-7.5387e-05,-423.32,0.58591
29933,10.767,5.2727,0.05,5.2349e-05,523.13,4.0198e-05,302.03,-6.2378e-15,-6.4065e-14,-4.0198e-05,-302.03,0.58532
29934,10.767,5,0.1,0.00016184,1617.3,0.00014427,1246,-2.3697e-05,-16.118,-9.8372e-05,-577.19,0.58705
29935,10.767,5.0909,0.05,6.8414e-05,683.67,5.2533e-05,394.72,-1.1143e-20,-2.235e-06,-5.2533e-05,-394.71,0.58645
29936,10.767,4.8182,0.1,0.00020273,2025.9,0.00017859,1523.5,-2.6989e-05,-21.124,-0.00012669,-770.26,0.58824
29937,10.767,4.9091,0.05,8.7443e-05,873.82,6.7145e-05,504.5,-1.4242e-20,-1.0701e-13,-6.7145e-05,-504.5,0.58761
29938,10.767,4.6364,0.1,0.00025713,2569.5,0.00022371,1886,-3.0482e-05,-23.91,-0.0001651,-1035.4,0.58948
29939,10.767,4.7273,0.05,0.00011134,1112.6,8.5493e-05,642.36,-4.4335e-20,-1.3626e-13,-8.5493e-05,-642.36,0.58883
29940,10.767,4.4545,0.1,0.00032842,3281.9,0.00028487,2382.9,-3.9911e-05,-57.379,-0.00021171,-1348.2,0.59078
29941,10.767,4.5455,0.05,0.0001434,1433,0.00011011,827.33,-2.3356e-20,-1.7549e-13,-0.00011011,-827.33,0.59009
29942,10.767,4.2727,0.1,0.00050213,5017.8,0.00041687,3355.5,-3.6172e-05,-48.462,-0.00035007,-2407,0.59215
29943,10.767,4.3636,0.05,0.00019418,1940.4,0.0001491,1120.3,-2.3494e-14,-2.3763e-13,-0.0001491,-1120.3,0.59143
29944,10.767,4.0909,0.1,0.0010223,10216,0.00095996,9172.7,-0.00012633,1010.7,-0.00056488,-2284.4,0.59362
29945,10.767,4.1818,0.05,0.00032446,3242.3,0.00024914,1872,-5.2847e-20,-3.9707e-13,-0.00024914,-1872,0.59283
29946,10.683,4,0.1,0.0014869,14859,0.0014514,14400,-0.00025732,1561.7,-0.00071484,-1876,0.58527
29947,10.767,4,0.05,0.00027645,2762.5,0.00021228,1595,-4.823e-20,-1.723e-08,-0.00021228,-1595,0.59436
29948,10.6,4.0909,0.1,0.001082,10812,0.00096984,8830.4,-8.9753e-05,869.04,-0.00066844,-3479,0.5755
29949,10.6,4,0.05,0.00032961,3293.8,0.0002531,1901.7,-3.9916e-13,1.2319e-05,-0.0002531,-1901.7,0.57635
29950,10.6,4.2727,0.1,0.00055974,5593.6,0.00042521,3136.6,1.18e-06,-49.418,-0.00043439,-3322.1,0.57371
29951,10.6,4.1818,0.05,0.00036885,3685.9,0.00028323,2128.1,-1.7601e-14,-1.5749e-07,-0.00028323,-2128.1,0.57457
29952,10.6,4.4545,0.1,0.00036789,3676.3,0.0002939,2264.9,-1.5951e-05,-63.172,-0.00027017,-1973.3,0.57196
29953,10.6,4.3636,0.05,0.00022819,2280.3,0.00017522,1316.5,-1.9322e-14,-1.9401e-07,-0.00017522,-1316.5,0.57281
29954,10.6,4.6364,0.1,0.0002889,2887,0.00023324,1827.1,-1.3553e-05,-27.212,-0.00020946,-1499.2,0.57023
29955,10.6,4.5455,0.05,0.0001705,1703.9,0.00013093,983.72,-7.1641e-15,-8.013e-08,-0.00013093,-983.72,0.57107
29956,10.6,4.8182,0.1,0.00022842,2282.6,0.0001883,1504.1,-1.5162e-05,-24.683,-0.00016091,-1119.7,0.56852
29957,10.6,4.7273,0.05,0.00013398,1338.9,0.00010288,773.01,-5.733e-15,-6.4122e-08,-0.00010288,-773.01,0.56935
29958,10.6,5,0.1,0.00018249,1823.6,0.0001536,1252.4,-1.5642e-05,-19.227,-0.00012448,-836.99,0.56685
29959,10.6,4.9091,0.05,0.00010619,1061.2,8.1545e-05,612.69,-3.923e-15,-3.2909e-08,-8.1545e-05,-612.69,0.56766
29960,10.6,5.1818,0.1,0.00014458,1444.8,0.00012446,1036.8,-1.5795e-05,-17.076,-9.4737e-05,-610.22,0.5652
29961,10.6,5.0909,0.05,8.3652e-05,835.94,6.4234e-05,482.63,-1.3625e-20,-1.0237e-13,-6.4234e-05,-482.63,0.566
29962,10.6,5.3636,0.1,0.00011163,1115.5,9.8456e-05,839.47,-1.529e-05,-15.176,-6.9493e-05,-422.44,0.56358
29963,10.6,5.2727,0.05,6.43e-05,642.56,4.9374e-05,370.98,-1.0473e-20,-4.8498e-08,-4.9374e-05,-370.98,0.56436
29964,10.6,5.5455,0.1,8.1508e-05,814.52,7.3807e-05,645.37,-1.3996e-05,-14.35,-4.7358e-05,-265.02,0.56199
29965,10.6,5.4545,0.05,4.6953e-05,469.21,3.6054e-05,270.9,4.4137e-13,-1.5037e-06,-3.6054e-05,-270.9,0.56276
29966,10.6,5.7273,0.1,5.1712e-05,516.76,4.8143e-05,432.71,-1.1153e-05,-12.82,-2.7257e-05,-133.82,0.56042
29967,10.6,5.6364,0.05,3.0809e-05,307.88,2.3658e-05,177.75,-5.0181e-21,-2.9275e-07,-2.3658e-05,-177.75,0.56118
29968,10.6,5.9091,0.1,1.8686e-05,186.73,1.8161e-05,172.7,-5.3332e-06,-3.8249,-7.8574e-06,-22.791,0.55888
29969,10.6,5.8182,0.05,1.4565e-05,145.54,1.1184e-05,84.03,-1.4353e-13,2.3703e-06,-1.1184e-05,-84.03,0.55963
29970,10.767,0.27273,0.1,4.6235e-05,462.03,4.3803e-05,402.46,-1.1102e-05,-10.066,-2.2643e-05,-96.785,0.5827
29971,10.767,0.090909,0.1,1.6685e-05,166.74,1.6345e-05,157.89,-4.6939e-06,-0.19277,-6.8417e-06,-16.331,0.58168
29972,10.767,0.18182,0.05,1.1694e-05,116.86,8.9796e-06,67.469,-1.4345e-13,-2.2914e-06,-8.9796e-06,-67.469,0.58216
29973,10.767,0.45455,0.1,7.2779e-05,727.29,6.7748e-05,611.05,-1.5114e-05,-11.544,-3.8645e-05,-188.34,0.58374
29974,10.767,0.36364,0.05,2.4991e-05,249.74,1.919e-05,144.19,4.4494e-13,1.9349e-06,-1.919e-05,-144.19,0.58318
29975,10.767,0.63636,0.1,9.9359e-05,992.9,9.1025e-05,807.89,-1.8135e-05,-12.298,-5.5891e-05,-295.98,0.58481
29976,10.767,0.54545,0.05,3.8131e-05,381.05,2.928e-05,220,4.5003e-13,1.5466e-06,-2.928e-05,-220,0.58424
29977,10.767,0.81818,0.1,0.00012837,1282.8,0.00011593,1014.2,-2.0918e-05,-14.061,-7.5387e-05,-423.32,0.58591
29978,10.767,0.72727,0.05,5.2349e-05,523.13,4.0198e-05,302.03,4.4539e-13,-5.2327e-08,-4.0198e-05,-302.03,0.58532
29979,10.767,1,0.1,0.00016184,1617.3,0.00014427,1246,-2.3697e-05,-16.118,-9.8372e-05,-577.19,0.58705
29980,10.767,0.90909,0.05,6.8414e-05,683.67,5.2533e-05,394.71,-9.8095e-15,-2.3173e-06,-5.2533e-05,-394.72,0.58645
29981,10.767,1.1818,0.1,0.00020273,2025.9,0.00017859,1523.5,-2.6989e-05,-21.124,-0.00012669,-770.26,0.58824
29982,10.767,1.0909,0.05,8.7443e-05,873.82,6.7145e-05,504.5,8.8717e-13,-2.2828e-06,-6.7145e-05,-504.5,0.58761
29983,10.767,1.3636,0.1,0.00025713,2569.5,0.00022371,1886,-3.0482e-05,-23.91,-0.0001651,-1035.4,0.58948
29984,10.767,1.2727,0.05,0.00011134,1112.6,8.5493e-05,642.36,8.8706e-13,-7.5286e-08,-8.5493e-05,-642.36,0.58883
29985,10.767,1.5455,0.1,0.00032842,3281.9,0.00028487,2382.9,-3.9911e-05,-57.379,-0.00021171,-1348.2,0.59078
29986,10.767,1.4545,0.05,0.0001434,1433,0.00011011,827.33,-2.3356e-20,-9.4892e-08,-0.00011011,-827.33,0.59009
29987,10.767,1.7273,0.1,0.00050213,5017.8,0.00041687,3355.5,-3.6172e-05,-48.462,-0.00035007,-2407,0.59215
29988,10.767,1.6364,0.05,0.00019418,1940.4,0.0001491,1120.3,7.9806e-13,6.6946e-06,-0.0001491,-1120.3,0.59143
29989,10.767,1.9091,0.1,0.0010223,10216,0.00095996,9172.7,-0.00012633,1010.7,-0.00056488,-2284.4,0.59362
29990,10.767,1.8182,0.05,0.00032446,3242.3,0.00024914,1872,-4.1757e-12,-5.0176e-05,-0.00024914,-1872,0.59283
29991,10.683,2,0.1,0.0014869,14859,0.0014514,14400,-0.00025732,1561.7,-0.00071484,-1876,0.58527
29992,10.767,2,0.05,0.00027645,2762.5,0.00021228,1595,3.8799e-11,0.00048823,-0.00021228,-1595,0.59436
29993,10.6,1.9091,0.1,0.001082,10812,0.00096984,8830.4,-8.9753e-05,869.04,-0.00066844,-3479,0.5755
29994,10.6,2,0.05,0.00032961,3293.8,0.0002531,1901.7,-1.7863e-11,0.00038376,-0.0002531,-1901.7,0.57635
29995,10.6,1.7273,0.1,0.00055974,5593.6,0.00042521,3136.6,1.18e-06,-49.418,-0.00043439,-3322.1,0.57371
29996,10.6,1.8182,0.05,0.00036885,3685.9,0.00028323,2128.1,-8.1127e-12,-5.1777e-05,-0.00028323,-2128.1,0.57457
29997,10.6,1.5455,0.1,0.00036789,3676.3,0.0002939,2264.9,-1.5951e-05,-63.172,-0.00027017,-1973.3,0.57196
29998,10.6,1.6364,0.05,0.00022819,2280.3,0.00017522,1316.5,-3.7166e-20,-2.7925e-13,-0.00017522,-1316.5,0.57281
29999,10.6,1.3636,0.1,0.0002889,2887,0.00023324,1827.1,-1.3553e-05,-27.212,-0.00020946,-1499.2,0.57023
30000,10.6,1.4545,0.05,0.0001705,1703.9,0.00013093,983.72,-2.7771e-20,-2.0866e-13,-0.00013093,-983.72,0.57107
30001,10.6,1.1818,0.1,0.00022842,2282.6,0.0001883,1504.1,-1.5162e-05,-24.683,-0.00016091,-1119.7,0.56852
30002,10.6,1.2727,0.05,0.00013398,1338.9,0.00010288,773.01,-2.1823e-20,-1.6397e-13,-0.00010288,-773.01,0.56935
30003,10.6,1,0.1,0.00018249,1823.6,0.0001536,1252.4,-1.5642e-05,-19.227,-0.00012448,-836.99,0.56685
30004,10.6,1.0909,0.05,0.00010619,1061.2,8.1545e-05,612.69,-3.923e-15,1.9341e-06,-8.1545e-05,-612.69,0.56766
30005,10.6,0.81818,0.1,0.00014458,1444.8,0.00012446,1036.8,-1.5795e-05,-17.076,-9.4737e-05,-610.22,0.5652
30006,10.6,0.90909,0.05,8.3652e-05,835.94,6.4234e-05,482.63,-4.4311e-15,-3.7171e-08,-6.4234e-05,-482.63,0.566
30007,10.6,0.63636,0.1,0.00011163,1115.5,9.8456e-05,839.47,-1.529e-05,-15.177,-6.9493e-05,-422.44,0.56358
30008,10.6,0.72727,0.05,6.43e-05,642.56,4.9374e-05,370.98,-1.0473e-20,-9.6996e-08,-4.9374e-05,-370.98,0.56436
30009,10.6,0.45455,0.1,8.1508e-05,814.52,7.3807e-05,645.37,-1.3996e-05,-14.35,-4.7358e-05,-265.02,0.56199
30010,10.6,0.54545,0.05,4.6953e-05,469.21,3.6054e-05,270.9,-8.9204e-15,-7.483e-08,-3.6054e-05,-270.9,0.56276
30011,10.6,0.27273,0.1,5.1712e-05,516.76,4.8143e-05,432.71,-1.1153e-05,-12.82,-2.7257e-05,-133.82,0.56042
30012,10.6,0.36364,0.05,3.0809e-05,307.88,2.3658e-05,177.75,-5.0181e-21,2.3354e-06,-2.3658e-05,-177.75,0.56118
30013,10.6,0.090909,0.1,1.8686e-05,186.73,1.8161e-05,172.7,-5.3332e-06,-3.8249,-7.8574e-06,-22.791,0.55888
30014,10.6,0.18182,0.05,1.4565e-05,145.54,1.1184e-05,84.03,-2.3722e-21,6.173e-07,-1.1184e-05,-84.03,0.55963
30015,10.859,6,0.1,2.012e-05,201.06,2.0206e-05,204.79,-5.2593e-06,13.456,-7.6825e-06,-4.7509,0.59242
30016,10.767,6,0.05,3.6935e-06,36.909,2.8361e-06,21.31,-3.1458e-13,-6.8624e-08,-2.8361e-06,-21.31,0.58114
30017,11.042,6,0.1,5.7403e-05,573.64,5.7137e-05,566.08,-1.8243e-05,-0.30049,-2.0139e-05,-14.547,0.61492
30018,10.95,6,0.05,2.9519e-06,29.498,2.2667e-06,17.031,-1.8974e-13,-5.9687e-07,-2.2667e-06,-17.031,0.60364
30019,11.226,6,0.1,9.1928e-05,918.65,9.1592e-05,908.97,-2.9587e-05,-1.5219,-3.173e-05,-17.625,0.63747
30020,11.134,6,0.05,7.5546e-06,75.494,5.801e-06,43.587,9.3698e-14,2.1227e-06,-5.801e-06,-43.587,0.62616
30021,11.41,6,0.1,0.00012196,1218.7,0.00012162,1209.1,-3.9354e-05,-0.41497,-4.1778e-05,-18.625,0.66007
30022,11.318,6,0.05,9.922e-06,99.152,7.6189e-06,57.245,-1.6161e-21,2.1437e-06,-7.6189e-06,-57.245,0.64873
30023,11.594,6,0.1,0.00014785,1477.5,0.00014754,1468.5,-4.7894e-05,0.053886,-5.0292e-05,-17.963,0.68275
30024,11.502,6,0.05,1.1192e-05,111.84,8.594e-06,64.572,2.6503e-15,2.1235e-06,-8.594e-06,-64.572,0.67137
30025,11.778,6,0.1,0.00016962,1695,0.00016934,1687,-5.5122e-05,0.44107,-5.7364e-05,-16.401,0.70553
30026,11.686,6,0.05,1.1677e-05,116.69,8.9662e-06,67.368,9.0936e-13,2.3838e-06,-8.9662e-06,-67.368,0.6941
30027,11.961,6,0.1,0.00018742,1872.9,0.00018717,1865.9,-6.1074e-05,0.63669,-6.3089e-05,-14.506,0.72843
30028,11.869,6,0.05,1.1667e-05,116.59,8.9588e-06,67.313,-1.875e-14,2.0257e-06,-8.9588e-06,-67.313,0.71694
30029,12.145,6,0.1,0.00020154,2014,0.00020134,2008.1,-6.5826e-05,0.713,-6.7595e-05,-12.577,0.75145
30030,12.053,6,0.05,1.1365e-05,113.57,8.7266e-06,65.568,-1.851e-21,2.0499e-06,-8.7266e-06,-65.568,0.73989
30031,12.329,6,0.1,0.00021239,2122.5,0.00021222,2117.4,-6.9496e-05,0.70174,-7.1025e-05,-10.782,0.7746
30032,12.237,6,0.05,1.0917e-05,109.1,8.383e-06,62.987,2.3755e-14,2.4822e-06,-8.383e-06,-62.987,0.76298
30033,12.513,6,0.1,0.00022039,2202.4,0.00022025,2198.1,-7.222e-05,0.63829,-7.353e-05,-9.1982,0.7979
30034,12.421,6,0.05,1.0425e-05,104.18,8.0051e-06,60.147,-1.698e-21,2.5613e-06,-8.0051e-06,-60.147,0.78621
30035,12.697,6,0.1,0.00022597,2258.2,0.00022585,2254.5,-7.4136e-05,0.54719,-7.5253e-05,-7.8515,0.82134
30036,12.605,6,0.05,9.9523e-06,99.454,7.6421e-06,57.42,-1.621e-21,2.2043e-06,-7.6421e-06,-57.42,0.80958
30037,12.88,6,0.1,0.00022953,2293.7,0.00022942,2290.5,-7.5372e-05,0.44581,-7.6328e-05,-6.7379,0.84494
30038,12.788,6,0.05,9.5359e-06,95.293,7.3224e-06,55.018,1.5229e-15,3.2134e-06,-7.3224e-06,-55.018,0.8331
30039,13.064,6,0.1,0.00023141,2312.5,0.00023132,2309.8,-7.6048e-05,0.3452,-7.6871e-05,-5.8392,0.86869
30040,12.972,6,0.05,9.1938e-06,91.874,7.0597e-06,53.044,-1.4975e-21,3.0017e-06,-7.0597e-06,-53.044,0.85677
30041,13.248,6,0.1,0.00023194,2317.8,0.00023185,2315.3,-7.6264e-05,0.25193,-7.698e-05,-5.1314,0.8926
30042,13.156,6,0.05,8.9312e-06,89.251,6.8581e-06,51.529,-1.4547e-21,2.8903e-06,-6.8581e-06,-51.529,0.8806
30043,13.432,6,0.1,0.00023136,2312,0.00023129,2309.8,-7.6108e-05,0.16934,-7.6741e-05,-4.59,0.91667
30044,13.34,6,0.05,8.7457e-06,87.397,6.7156e-06,50.459,-1.4245e-21,2.338e-06,-6.7156e-06,-50.459,0.90459
30045,13.616,6,0.1,0.0002299,2297.5,0.00022983,2295.4,-7.5652e-05,0.098789,-7.6223e-05,-4.1917,0.94089
30046,13.524,6,0.05,8.6302e-06,86.243,6.627e-06,49.792,1.7791e-16,7.4024e-06,-6.627e-06,-49.792,0.92873
30047,13.799,6,0.1,0.00022774,2275.9,0.00022768,2273.9,-7.4958e-05,0.04033,-7.5484e-05,-3.9155,0.96526
30048,13.707,6,0.05,8.5756e-06,85.697,6.585e-06,49.477,6.7236e-17,3.5773e-06,-6.585e-06,-49.477,0.95303
30049,13.983,6,0.1,0.00022502,2248.7,0.00022496,2246.8,-7.4073e-05,-0.0067286,-7.457e-05,-3.7431,0.98979
30050,13.891,6,0.05,8.572e-06,85.661,6.5822e-06,49.456,1.5407e-17,-9.5367e-07,-6.5822e-06,-49.456,0.97748
30051,14.167,6,0.1,0.00022187,2217.1,0.0002218,2215.3,-7.3039e-05,-0.043472,-7.352e-05,-3.6583,1.0145
30052,14.075,6,0.05,8.6095e-06,86.036,6.611e-06,49.673,-5.2778e-21,4.2329e-06,-6.611e-06,-49.673,1.0021
30053,14.351,6,0.1,0.00021837,2182.2,0.0002183,2180.3,-7.1886e-05,-0.071173,-7.2362e-05,-3.6475,1.0393
30054,14.259,6,0.05,8.6792e-06,86.732,6.6646e-06,50.075,-1.4137e-21,2.4736e-06,-6.6646e-06,-50.075,1.0268
30055,14.534,6,0.1,0.0002146,2144.5,0.00021454,2142.6,-7.0643e-05,-0.09117,-7.1123e-05,-3.6986,1.0643
30056,14.443,6,0.05,8.773e-06,87.669,6.7366e-06,50.616,-9.4944e-16,3.8665e-06,-6.7366e-06,-50.616,1.0517
30057,14.718,6,0.1,0.00021063,2104.9,0.00021056,2102.9,-6.9329e-05,-0.10471,-6.9821e-05,-3.8014,1.0894
30058,14.626,6,0.05,8.8838e-06,88.777,6.8217e-06,51.255,2.9112e-17,3.2782e-06,-6.8217e-06,-51.255,1.0768
30059,14.902,6,0.1,0.0002065,2063.6,0.00020644,2061.6,-6.796e-05,-0.1129,-6.8471e-05,-3.9471,1.1147
30060,14.81,6,0.05,9.0057e-06,89.995,6.9153e-06,51.959,1.5319e-15,2.9802e-06,-6.9153e-06,-51.959,1.102
30061,15.086,6,0.1,0.00020226,2021.2,0.00020219,2019.1,-6.6551e-05,-0.11675,-6.7085e-05,-4.1281,1.1401
30062,14.994,6,0.05,9.1337e-06,91.274,7.0136e-06,52.697,-1.8173e-12,4.173e-06,-7.0136e-06,-52.697,1.1273
30063,15.27,6,0.1,0.00019793,1977.9,0.00019785,1975.7,-6.5112e-05,-0.11709,-6.5674e-05,-4.3377,1.1656
30064,15.178,6,0.05,9.2637e-06,92.573,7.1134e-06,53.447,9.5894e-17,3.5905e-06,-7.1134e-06,-53.447,1.1528
30065,15.453,6,0.1,0.00019354,1934.1,0.00019346,1931.7,-6.3651e-05,-0.11465,-6.4244e-05,-4.5706,1.1913
30066,15.362,6,0.05,9.3924e-06,93.859,7.2122e-06,54.19,1.6874e-15,4.6491e-06,-7.2122e-06,-54.19,1.1784
30067,15.637,6,0.1,0.0001891,1889.7,0.00018902,1887.3,-6.2174e-05,-0.11008,-6.2801e-05,-4.8219,1.2171
30068,15.545,6,0.05,9.5172e-06,95.106,7.308e-06,54.91,-1.819e-12,3.577e-06,-7.308e-06,-54.91,1.2041
30069,15.821,6,0.1,0.00018464,1845.1,0.00018455,1842.5,-6.0688e-05,-0.10389,-6.1351e-05,-5.0877,1.243
30070,15.729,6,0.05,9.636e-06,96.294,7.3993e-06,55.595,-1.8174e-12,4.2918e-06,-7.3993e-06,-55.595,1.23
30071,16.005,6,0.1,0.00018016,1800.3,0.00018007,1797.6,-5.9195e-05,-0.09649,-5.9896e-05,-5.3646,1.2691
30072,15.913,6,0.05,9.7473e-06,97.406,7.4847e-06,56.237,1.4057e-15,4.0649e-06,-7.4847e-06,-56.237,1.256
30073,16.189,6,0.1,0.00017567,1755.5,0.00017557,1752.6,-5.7699e-05,-0.088201,-5.8439e-05,-5.6499,1.2952
30074,16.097,6,0.05,9.8499e-06,98.432,7.5635e-06,56.829,-1.2601e-15,5.603e-06,-7.5635e-06,-56.829,1.2821
30075,16.372,6,0.1,0.00017118,1710.6,0.00017108,1707.6,-5.6202e-05,-0.079276,-5.6982e-05,-5.9413,1.3215
30076,16.281,6,0.05,9.9431e-06,99.362,7.6351e-06,57.367,-9.1063e-13,4.0435e-06,-7.6351e-06,-57.367,1.3083
30077,16.556,6,0.1,0.0001667,1665.8,0.00016659,1662.7,-5.4707e-05,-0.069925,-5.5527e-05,-6.2368,1.3479
30078,16.464,6,0.05,1.0026e-05,100.19,7.6989e-06,57.846,-9.0945e-13,4.3601e-06,-7.6989e-06,-57.846,1.3347
30079,16.74,6,0.1,0.00016222,1621.1,0.00016211,1617.8,-5.3214e-05,-0.060335,-5.4076e-05,-6.535,1.3745
30080,16.648,6,0.05,1.0099e-05,100.92,7.7546e-06,58.265,-1.819e-12,4.6494e-06,-7.7546e-06,-58.265,1.3612
30081,16.924,6,0.1,0.00015776,1576.5,0.00015764,1573,-5.1725e-05,-0.050631,-5.2628e-05,-6.8349,1.4011
30082,16.832,6,0.05,1.0161e-05,101.54,7.8022e-06,58.623,-7.6329e-16,4.5831e-06,-7.8022e-06,-58.623,1.3877
30083,17.108,6,0.1,0.00015331,1532,0.00015318,1528.4,-5.0241e-05,-0.040893,-5.1185e-05,-7.1353,1.4278
30084,17.016,6,0.05,1.0212e-05,102.05,7.8416e-06,58.918,-9.1012e-13,4.4651e-06,-7.8416e-06,-58.918,1.4144
30085,17.291,6,0.1,0.00014887,1487.7,0.00014875,1484,-4.8762e-05,-0.031179,-4.9748e-05,-7.4357,1.4547
30086,17.2,6,0.05,1.0253e-05,102.45,7.8727e-06,59.152,-1.819e-12,5.0068e-06,-7.8726e-06,-59.152,1.4412
30087,17.475,6,0.1,0.00014446,1443.6,0.00014433,1439.7,-4.7289e-05,-0.021515,-4.8316e-05,-7.7355,1.4816
30088,17.383,6,0.05,1.0282e-05,102.75,7.8955e-06,59.324,2.3062e-18,5.4867e-06,-7.8955e-06,-59.324,1.4681
30089,17.659,6,0.1,0.00014006,1399.6,0.00013992,1395.6,-4.5822e-05,-0.011919,-4.689e-05,-8.0344,1.5086
30090,17.567,6,0.05,1.0301e-05,102.94,7.9103e-06,59.435,-1.8188e-12,4.8299e-06,-7.9103e-06,-59.435,1.4951
30091,17.843,6,0.1,0.00013568,1355.9,0.00013554,1351.7,-4.4362e-05,-0.0024233,-4.547e-05,-8.332,1.5358
30092,17.751,6,0.05,1.031e-05,103.03,7.9169e-06,59.485,-9.0949e-13,5.1865e-06,-7.9169e-06,-59.485,1.5222
30093,18.027,6,0.1,0.00013132,1312.3,0.00013117,1308,-4.2907e-05,0.0069795,-4.4057e-05,-8.6284,1.563
30094,17.935,6,0.05,1.0308e-05,103.01,7.9156e-06,59.475,5.1369e-17,1.1325e-05,-7.9156e-06,-59.475,1.5493
30095,18.21,6,0.1,0.00012698,1268.9,0.00012683,1264.5,-4.1459e-05,0.016308,-4.2649e-05,-8.9233,1.5903
30096,18.119,6,0.05,1.0296e-05,102.89,7.9064e-06,59.406,-9.0949e-13,4.7684e-06,-7.9064e-06,-59.406,1.5766
30097,18.394,6,0.1,0.00012266,1225.7,0.0001225,1221.1,-4.0018e-05,0.025592,-4.1248e-05,-9.2168,1.6177
30098,18.302,6,0.05,1.0274e-05,102.67,7.8893e-06,59.277,-1.8193e-12,-1.6117e-06,-7.8893e-06,-59.277,1.6039
30099,18.578,6,0.1,0.00011836,1182.8,0.00011819,1178,-3.8583e-05,0.03487,-3.9853e-05,-9.5088,1.6451
30100,18.486,6,0.05,1.0242e-05,102.35,7.8645e-06,59.091,-9.0949e-13,6.5531e-06,-7.8645e-06,-59.091,1.6314
30101,18.762,6,0.1,0.00011407,1140,0.00011391,1135,-3.7154e-05,0.04418,-3.8465e-05,-9.7993,1.6727
30102,18.67,6,0.05,1.0199e-05,101.92,7.8319e-06,58.846,-9.0895e-13,5.7862e-06,-7.8319e-06,-58.845,1.6589
30103,18.946,6,0.1,0.00010981,1097.4,0.00010964,1092.3,-3.5732e-05,0.053546,-3.7082e-05,-10.088,1.7003
30104,18.854,6,0.05,1.0147e-05,101.4,7.7914e-06,58.542,-9.1016e-13,2.6823e-06,-7.7914e-06,-58.542,1.6865
30105,19.129,6,0.1,0.00010557,1054.9,0.00010539,1049.7,-3.4316e-05,0.063008,-3.5706e-05,-10.376,1.728
30106,19.038,6,0.05,1.0084e-05,100.77,7.7431e-06,58.179,-9.1029e-13,7.3247e-06,-7.7431e-06,-58.179,1.7142
30107,19.313,6,0.1,0.00010134,1012.7,0.00010116,1007.4,-3.2907e-05,0.072623,-3.4335e-05,-10.662,1.7558
30108,19.221,6,0.05,1.0011e-05,100.04,7.6869e-06,57.756,-1.8209e-12,5.5951e-06,-7.6869e-06,-57.756,1.7419
30109,19.497,6,0.1,9.7133e-05,970.66,9.6943e-05,965.18,-3.1503e-05,0.082444,-3.2971e-05,-10.946,1.7836
30110,19.405,6,0.05,9.9269e-06,99.2,7.6226e-06,57.273,-9.1056e-13,5.1766e-06,-7.6226e-06,-57.273,1.7697
30111,19.681,6,0.1,9.2943e-05,928.79,9.2748e-05,923.17,-3.0106e-05,0.092539,-3.1612e-05,-11.228,1.8115
30112,19.589,6,0.05,9.8324e-06,98.256,7.5501e-06,56.728,-9.1071e-13,6.9739e-06,-7.5501e-06,-56.728,1.7976
30113,19.865,6,0.1,8.8771e-05,887.1,8.8571e-05,881.34,-2.8714e-05,0.10297,-3.0259e-05,-11.509,1.8395
30114,19.773,6,0.05,9.727e-06,97.202,7.4691e-06,56.12,-4.7274e-21,6.7238e-06,-7.4691e-06,-56.12,1.8255
30115,20.048,6,0.1,8.4617e-05,845.58,8.4412e-05,839.68,-2.7328e-05,0.11379,-2.8912e-05,-11.786,1.8675
30116,19.956,6,0.05,9.6101e-06,96.035,7.3794e-06,55.446,-9.1102e-13,4.9937e-06,-7.3794e-06,-55.446,1.8535
30117,20.232,6,0.1,8.0479e-05,804.24,8.0269e-05,798.2,-2.5948e-05,0.12506,-2.757e-05,-12.061,1.8956
30118,20.14,6,0.05,9.4814e-06,94.749,7.2806e-06,54.703,-4.5645e-13,7.4957e-06,-7.2806e-06,-54.703,1.8816
30119,20.416,6,0.1,7.6358e-05,763.06,7.6143e-05,756.88,-2.4573e-05,0.13688,-2.6233e-05,-12.332,1.9237
30120,20.324,6,0.05,9.3404e-06,93.34,7.1723e-06,53.89,3.393e-17,5.7821e-06,-7.1723e-06,-53.89,1.9097
30121,20.6,6,0.1,7.2254e-05,722.04,7.2034e-05,715.73,-2.3204e-05,0.14932,-2.4901e-05,-12.599,1.9519
30122,20.508,6,0.05,9.1865e-06,91.802,7.0541e-06,53.002,-3.0466e-21,7.0931e-06,-7.0541e-06,-53.002,1.9378
30123,20.784,6,0.1,6.8166e-05,681.19,6.794e-05,674.75,-2.1841e-05,0.16249,-2.3574e-05,-12.86,1.9802
30124,20.692,6,0.05,9.019e-06,90.128,6.9255e-06,52.035,-2.3705e-15,4.9272e-06,-6.9255e-06,-52.035,1.966
30125,20.967,6,0.1,6.4094e-05,640.49,6.3863e-05,633.92,-2.0483e-05,0.17651,-2.2252e-05,-13.115,2.0084
30126,20.875,6,0.05,8.8371e-06,88.31,6.7858e-06,50.986,-4.5998e-13,8.1811e-06,-6.7858e-06,-50.986,1.9943
30127,21.151,6,0.1,6.0037e-05,599.96,5.9802e-05,593.26,-1.9131e-05,0.19147,-2.0935e-05,-13.362,2.0368
30128,21.059,6,0.05,8.6399e-06,86.339,6.6343e-06,49.848,-4.5755e-13,6.9504e-06,-6.6343e-06,-49.848,2.0226
30129,21.335,6,0.1,5.5997e-05,559.58,5.5756e-05,552.76,-1.7784e-05,0.20753,-1.9621e-05,-13.6,2.0651
30130,21.243,6,0.05,8.4262e-06,84.204,6.4703e-06,48.615,-9.0594e-13,8.7015e-06,-6.4703e-06,-48.615,2.0509
30131,21.519,6,0.1,5.1972e-05,519.36,5.1726e-05,512.42,-1.6442e-05,0.22485,-1.8312e-05,-13.825,2.0935
30132,21.427,6,0.05,8.195e-06,81.894,6.2928e-06,47.281,3.7553e-15,5.9911e-06,-6.2928e-06,-47.281,2.0793
30133,21.703,6,0.1,4.7963e-05,479.3,4.7713e-05,472.25,-1.5107e-05,0.24365,-1.7008e-05,-14.037,2.1219
30134,21.611,6,0.05,7.9448e-06,79.393,6.1006e-06,45.838,4.5891e-13,5.2746e-06,-6.1006e-06,-45.838,2.1077
30135,21.886,6,0.1,4.3971e-05,439.41,4.3716e-05,432.25,-1.3778e-05,0.26418,-1.5707e-05,-14.231,2.1504
30136,21.794,6,0.05,7.6739e-06,76.686,5.8926e-06,44.275,2.2744e-13,6.7777e-06,-5.8926e-06,-44.275,2.1361
30137,22.07,6,0.1,3.9997e-05,399.69,3.9736e-05,392.43,-1.2455e-05,0.28676,-1.441e-05,-14.403,2.1789
30138,21.978,6,0.05,7.3804e-06,73.754,5.6673e-06,42.582,4.3914e-13,9.2334e-06,-5.6673e-06,-42.582,2.1646
30139,22.254,6,0.1,3.6041e-05,360.16,3.5775e-05,352.81,-1.1139e-05,0.31179,-1.3117e-05,-14.55,2.2074
30140,22.162,6,0.05,7.0621e-06,70.572,5.4228e-06,40.745,-5.7732e-15,4.8694e-06,-5.4228e-06,-40.745,2.1931
30141,22.438,6,0.1,3.2105e-05,320.83,3.1835e-05,313.41,-9.8314e-06,0.33981,-1.1828e-05,-14.663,2.2359
30142,22.346,6,0.05,6.716e-06,67.114,5.157e-06,38.748,-4.712e-13,7.6084e-06,-5.157e-06,-38.748,2.2216
30143,22.622,6,0.1,2.8194e-05,281.74,2.7919e-05,274.26,-8.533e-06,0.37159,-1.0543e-05,-14.734,2.2645
30144,22.53,6,0.05,6.3388e-06,63.344,4.8674e-06,36.572,6.7605e-16,7.4552e-06,-4.8674e-06,-36.572,2.2502
30145,22.805,6,0.1,2.431e-05,242.93,2.403e-05,235.4,-7.2456e-06,0.40808,-9.2633e-06,-14.752,2.2931
30146,22.713,6,0.05,5.926e-06,59.219,4.5504e-06,34.19,4.6412e-13,7.5416e-06,-4.5504e-06,-34.19,2.2788
30147,22.989,6,0.1,2.0459e-05,204.45,2.0175e-05,196.91,-5.9719e-06,0.4512,-7.9882e-06,-14.698,2.3216
30148,22.897,6,0.05,5.472e-06,54.683,4.2018e-06,31.571,1.0372e-13,6.605e-06,-4.2018e-06,-31.571,2.3073
30149,23.173,6,0.1,1.6653e-05,166.41,1.6363e-05,158.88,-4.7161e-06,0.50186,-6.7187e-06,-14.545,2.3502
30150,23.081,6,0.05,4.969e-06,49.655,3.8156e-06,28.669,2.4174e-13,8.6416e-06,-3.8156e-06,-28.669,2.3359
30151,23.357,6,0.1,1.2904e-05,128.95,1.2608e-05,121.48,-3.4845e-06,0.57144,-5.4549e-06,-14.233,2.3789
30152,23.265,6,0.05,4.4054e-06,44.023,3.3828e-06,25.417,2.5437e-13,8.6892e-06,-3.3828e-06,-25.417,2.3645
30153,23.541,6,0.1,9.2454e-06,92.39,8.9391e-06,85.02,-2.2897e-06,0.65134,-4.201e-06,-13.71,2.4075
30154,23.449,6,0.05,3.7633e-06,37.607,2.8898e-06,21.713,8.432e-13,7.263e-06,-2.8898e-06,-21.713,2.3931
30155,23.724,6,0.1,5.704e-06,57,5.395e-06,50.148,-1.1635e-06,0.87036,-2.9133e-06,-12.277,2.4361
30156,23.632,6,0.05,3.0086e-06,30.065,2.3102e-06,17.358,2.7402e-13,5.7889e-06,-2.3102e-06,-17.358,2.4218
30157,23.908,6,0.1,2.3898e-06,23.882,2.1218e-06,18.617,-2.7003e-07,0.64602,-1.4849e-06,-8.4822,2.4647
30158,23.816,6,0.05,2.033e-06,20.316,1.5611e-06,11.73,3.2396e-13,5.488e-06,-1.5611e-06,-11.73,2.4504
30159,24,5.9091,0.1,2.3016e-06,23,1.3316e-06,5.8835,2.3091e-07,-2.3867,-2.1277e-06,-20.108,2.4791
30160,24,6,0.05,7.8648e-07,7.8594,6.0392e-07,4.5376,3.6751e-12,3.8421e-05,-6.0392e-07,-4.5376,2.479
30161,24,5.7273,0.1,5.2695e-06,52.658,2.4044e-06,6.897,1.1943e-06,-2.1957,-5.1302e-06,-49.716,2.4792
30162,24,5.8182,0.05,7.0104e-07,7.0055,5.3831e-07,4.0446,1.4012e-12,1.655e-05,-5.3831e-07,-4.0446,2.4792
30163,24,5.5455,0.1,7.6585e-06,76.533,3.2229e-06,7.1411,1.968e-06,-2.2872,-7.5323e-06,-73.669,2.4794
30164,24,5.6364,0.05,7.9813e-07,7.9758,6.1286e-07,4.6048,9.1527e-13,1.2181e-05,-6.1286e-07,-4.6048,2.4793
30165,24,5.3636,0.1,9.5551e-06,95.486,3.8633e-06,7.2183,2.5829e-06,-2.402,-9.4368e-06,-92.713,2.4795
30166,24,5.4545,0.05,8.8301e-07,8.824,6.7804e-07,5.0946,6.0577e-13,6.9222e-06,-6.7804e-07,-5.0945,2.4794
30167,24,5.1818,0.1,1.1148e-05,111.4,4.3929e-06,7.2256,3.107e-06,-2.4359,-1.1035e-05,-108.69,2.4797
30168,24,5.2727,0.05,9.2844e-07,9.278,7.1292e-07,5.3566,2.4783e-13,5.069e-06,-7.1292e-07,-5.3566,2.4796
30169,24,5,0.1,1.251e-05,125.02,4.8425e-06,7.1949,3.5569e-06,-2.4646,-1.2402e-05,-122.37,2.4798
30170,24,5.0909,0.05,9.4869e-07,9.4804,7.2848e-07,5.4735,2.1338e-13,4.8654e-06,-7.2848e-07,-5.4735,2.4797
30171,24,4.8182,0.1,1.3686e-05,136.77,5.2285e-06,7.1505,3.9463e-06,-2.4836,-1.3581e-05,-134.18,2.4799
30172,24,4.9091,0.05,9.5167e-07,9.5101,7.3076e-07,5.4907,4.3786e-14,4.8548e-06,-7.3076e-07,-5.4907,2.4798
30173,24,4.6364,0.1,1.4702e-05,146.92,5.561e-06,7.1004,4.2835e-06,-2.4982,-1.46e-05,-144.39,2.48
30174,24,4.7273,0.05,9.4269e-07,9.4203,7.2387e-07,5.4388,1.0254e-13,7.8003e-06,-7.2386e-07,-5.4388,2.4799
30175,24,4.4545,0.1,1.5578e-05,155.68,5.847e-06,7.0502,4.5747e-06,-2.5092,-1.5479e-05,-153.18,2.4801
30176,24,4.5455,0.05,9.2564e-07,9.25,7.1077e-07,5.3405,1.4532e-13,1.4956e-06,-7.1077e-07,-5.3405,2.48
30177,24,4.2727,0.1,1.6328e-05,163.17,6.0912e-06,7.0026,4.8241e-06,-2.5178,-1.6231e-05,-160.72,2.4802
30178,24,4.3636,0.05,9.035e-07,9.0288,6.9378e-07,5.2128,7.0873e-14,7.8282e-06,-6.9378e-07,-5.2128,2.4801
30179,24,4.0909,0.1,1.6961e-05,169.5,6.2972e-06,6.9595,5.035e-06,-2.5245,-1.6866e-05,-167.08,2.4803
30180,24,4.1818,0.05,8.7871e-07,8.7811,6.7474e-07,5.0698,5.5144e-14,7.7618e-06,-6.7474e-07,-5.0697,2.4802
30181,24,3.9091,0.1,1.7486e-05,174.74,6.4679e-06,6.922,5.2099e-06,-2.5297,-1.7393e-05,-172.36,2.4803
30182,24,4,0.05,8.5331e-07,8.5272,6.5524e-07,4.9232,4.5548e-13,8.063e-06,-6.5524e-07,-4.9232,2.4803
30183,24,3.7273,0.1,1.7909e-05,178.97,6.6051e-06,6.8907,5.3508e-06,-2.5337,-1.7816e-05,-176.6,2.4804
30184,24,3.8182,0.05,8.2908e-07,8.285,6.3663e-07,4.7834,5.7517e-13,8.8544e-06,-6.3663e-07,-4.7834,2.4804
30185,24,3.5455,0.1,1.8234e-05,182.21,6.7104e-06,6.866,5.459e-06,-2.5366,-1.8142e-05,-179.86,2.4804
30186,24,3.6364,0.05,8.0757e-07,8.0702,6.2012e-07,4.6593,1.0188e-12,5.6976e-06,-6.2012e-07,-4.6593,2.4804
30187,24,3.3636,0.1,1.8463e-05,184.51,6.7849e-06,6.8482,5.5356e-06,-2.5386,-1.8372e-05,-182.17,2.4805
30188,24,3.4545,0.05,7.9015e-07,7.896,6.0673e-07,4.5588,2.3229e-13,5.9507e-06,-6.0673e-07,-4.5588,2.4804
30189,24,3.1818,0.1,1.86e-05,185.87,6.8293e-06,6.8375,5.5813e-06,-2.5398,-1.8509e-05,-183.55,2.4805
30190,24,3.2727,0.05,7.7788e-07,7.7734,5.9731e-07,4.488,7.496e-13,1.026e-05,-5.9731e-07,-4.488,2.4805
30191,24,3,0.1,1.8646e-05,186.33,6.8441e-06,6.8339,5.5965e-06,-2.5402,-1.8555e-05,-184,2.4805
30192,24,3.0909,0.05,7.7154e-07,7.7101,5.9245e-07,4.4514,8.7031e-13,1.8768e-05,-5.9245e-07,-4.4514,2.4805
30193,24,2.8182,0.1,1.86e-05,185.87,6.8293e-06,6.8375,5.5813e-06,-2.5398,-1.8509e-05,-183.55,2.4805
30194,24,2.9091,0.05,7.7154e-07,7.7101,5.9245e-07,4.4514,9.4299e-13,1.9313e-05,-5.9245e-07,-4.4514,2.4805
30195,24,2.6364,0.1,1.8463e-05,184.51,6.7849e-06,6.8482,5.5356e-06,-2.5386,-1.8372e-05,-182.17,2.4805
30196,24,2.7273,0.05,7.7788e-07,7.7734,5.9731e-07,4.488,1.0231e-12,1.6049e-05,-5.9731e-07,-4.488,2.4805
30197,24,2.4545,0.1,1.8234e-05,182.21,6.7104e-06,6.866,5.459e-06,-2.5366,-1.8142e-05,-179.86,2.4804
30198,24,2.5455,0.05,7.9015e-07,7.896,6.0673e-07,4.5588,1.079e-12,1.6405e-05,-6.0673e-07,-4.5588,2.4804
30199,24,2.2727,0.1,1.7909e-05,178.97,6.6051e-06,6.8907,5.3508e-06,-2.5337,-1.7816e-05,-176.6,2.4804
30200,24,2.3636,0.05,8.0757e-07,8.0702,6.2012e-07,4.6593,1.1096e-12,1.2962e-05,-6.2012e-07,-4.6593,2.4804
30201,24,2.0909,0.1,1.7486e-05,174.74,6.4679e-06,6.922,5.2099e-06,-2.5297,-1.7393e-05,-172.36,2.4803
30202,24,2.1818,0.05,8.2907e-07,8.285,6.3663e-07,4.7834,1.1207e-12,1.6376e-05,-6.3663e-07,-4.7834,2.4804
30203,24,1.9091,0.1,1.6961e-05,169.5,6.2972e-06,6.9595,5.035e-06,-2.5245,-1.6866e-05,-167.08,2.4803
30204,24,2,0.05,8.5331e-07,8.5272,6.5523e-07,4.9232,1.4717e-12,1.6287e-05,-6.5524e-07,-4.9232,2.4803
30205,24,1.7273,0.1,1.6328e-05,163.17,6.0912e-06,7.0026,4.8241e-06,-2.5178,-1.6231e-05,-160.72,2.4802
30206,24,1.8182,0.05,8.7871e-07,8.7811,6.7474e-07,5.0698,1.4566e-12,1.6368e-05,-6.7474e-07,-5.0697,2.4802
30207,24,1.5455,0.1,1.5578e-05,155.68,5.847e-06,7.0502,4.5747e-06,-2.5092,-1.5479e-05,-153.18,2.4801
30208,24,1.6364,0.05,9.035e-07,9.0288,6.9378e-07,5.2128,1.427e-12,1.893e-05,-6.9378e-07,-5.2128,2.4801
30209,24,1.3636,0.1,1.4702e-05,146.92,5.561e-06,7.1004,4.2835e-06,-2.4982,-1.46e-05,-144.39,2.48
30210,24,1.4545,0.05,9.2564e-07,9.25,7.1077e-07,5.3405,1.408e-12,1.308e-05,-7.1077e-07,-5.3405,2.48
30211,24,1.1818,0.1,1.3686e-05,136.77,5.2285e-06,7.1505,3.9463e-06,-2.4836,-1.3581e-05,-134.18,2.4799
30212,24,1.2727,0.05,9.4268e-07,9.4203,7.2386e-07,5.4388,1.3333e-12,1.8067e-05,-7.2387e-07,-5.4388,2.4799
30213,24,1,0.1,1.251e-05,125.02,4.8425e-06,7.1949,3.5569e-06,-2.4646,-1.2402e-05,-122.37,2.4798
30214,24,1.0909,0.05,9.5167e-07,9.5101,7.3076e-07,5.4907,1.4602e-12,1.7856e-05,-7.3076e-07,-5.4906,2.4798
30215,24,0.81818,0.1,1.1148e-05,111.4,4.3929e-06,7.2256,3.107e-06,-2.4359,-1.1035e-05,-108.69,2.4797
30216,24,0.90909,0.05,9.4869e-07,9.4804,7.2848e-07,5.4735,1.4094e-12,1.6044e-05,-7.2848e-07,-5.4735,2.4797
30217,24,0.63636,0.1,9.5551e-06,95.486,3.8633e-06,7.2183,2.5829e-06,-2.402,-9.4368e-06,-92.713,2.4795
30218,24,0.72727,0.05,9.2844e-07,9.278,7.1292e-07,5.3566,1.3016e-12,1.4565e-05,-7.1293e-07,-5.3566,2.4796
30219,24,0.45455,0.1,7.6585e-06,76.533,3.2229e-06,7.1411,1.968e-06,-2.2872,-7.5323e-06,-73.669,2.4794
30220,24,0.54545,0.05,8.8301e-07,8.824,6.7804e-07,5.0946,7.9402e-13,9.7448e-06,-6.7804e-07,-5.0945,2.4794
30221,24,0.27273,0.1,5.2695e-06,52.658,2.4044e-06,6.897,1.1943e-06,-2.1957,-5.1302e-06,-49.716,2.4792
30222,24,0.36364,0.05,7.9813e-07,7.9758,6.1286e-07,4.6048,1.738e-13,5.6108e-06,-6.1286e-07,-4.6048,2.4793
30223,24,0.090909,0.1,2.3016e-06,23,1.3316e-06,5.8834,2.3091e-07,-2.3867,-2.1277e-06,-20.108,2.4791
30224,24,0.18182,0.05,7.0104e-07,7.0055,5.3831e-07,4.0446,1.0316e-12,1.0507e-05,-5.3831e-07,-4.0446,2.4792
30225,2.3842e-15,0.27273,0.1,0.00018308,1829.5,0.00024115,3540.2,4.5318e-06,1762.4,-8.6833e-06,1663.1,0
30226,7.9472e-16,0.090909,0.1,0.00013948,1393.8,0.00013571,1430.1,-4.8782e-06,373.8,-7.4544e-05,-149.64,0
30227,1.6109e-15,0.18182,0.05,1.6478e-05,164.66,1.2653e-05,95.068,9.0471e-13,7.7065e-05,-1.2653e-05,-95.068,0
30228,3.9736e-15,0.45455,0.1,0.00026237,2621.9,0.00034876,5161.7,3.316e-06,2566.2,-3.5981e-06,2514.3,0
30229,3.2219e-15,0.36364,0.05,8.6469e-06,86.409,6.6397e-06,49.888,1.9874e-12,5.2612e-05,-6.6397e-06,-49.888,0
30230,5.563e-15,0.63636,0.1,0.00030491,3047,0.00040574,6010.8,2.3239e-06,2979.7,-1.8736e-06,2948.1,0
30231,4.8328e-15,0.54545,0.05,7.8469e-06,78.415,6.0254e-06,45.273,1.1931e-12,1.0008e-05,-6.0254e-06,-45.273,0
30232,7.1525e-15,0.81818,0.1,0.00033238,3321.5,0.00044221,6549.7,1.4897e-06,3238.3,-1.1809e-06,3218.3,0
30233,6.4438e-15,0.72727,0.05,6.9216e-06,69.168,5.3149e-06,39.934,8.1282e-13,0.00012836,-5.3149e-06,-39.934,0
30234,8.7419e-15,1,0.1,0.00035122,3509.8,0.00046723,6919.5,1.0277e-06,3416.6,-8.1536e-07,3402.8,0
30235,8.0547e-15,0.90909,0.05,5.9063e-06,59.022,4.5353e-06,34.076,5.2981e-13,6.8438e-05,-4.5353e-06,-34.076,0
30236,1.0331e-14,1.1818,0.1,0.00036488,3646.3,0.00048536,7187.5,7.4463e-07,3546.3,-5.9276e-07,3536.2,0
30237,9.6657e-15,1.0909,0.05,5.0331e-06,50.296,3.8648e-06,29.038,3.8612e-13,7.4819e-06,-3.8648e-06,-29.038,0
30238,1.1921e-14,1.3636,0.1,0.00037509,3748.4,0.00049893,7388.1,5.5546e-07,3643.5,-4.4432e-07,3636,0
30239,1.1277e-14,1.2727,0.05,4.3247e-06,43.217,3.3209e-06,24.952,2.7963e-13,6.8288e-05,-3.3209e-06,-24.951,0
30240,1.351e-14,1.5455,0.1,0.00038289,3826.3,0.00050929,7541.3,4.2312e-07,3717.9,-3.3892e-07,3712.1,0
30241,1.2888e-14,1.4545,0.05,3.7492e-06,37.467,2.8789e-06,21.631,2.1317e-13,6.7712e-06,-2.8789e-06,-21.631,0
30242,1.51e-14,1.7273,0.1,0.00038892,3886.5,0.00051729,7659.6,3.2629e-07,3775.3,-2.6052e-07,3770.9,0
30243,1.4498e-14,1.6364,0.05,3.2832e-06,32.809,2.5211e-06,18.942,1.5535e-13,6.3189e-05,-2.5211e-06,-18.942,0
30244,1.6689e-14,1.9091,0.1,0.00039359,3933.1,0.0005235,7751.4,2.5278e-07,3819.9,-1.999e-07,3816.5,0
30245,1.6109e-14,1.8182,0.05,2.9073e-06,29.053,2.2325e-06,16.774,1.0749e-13,2.325e-06,-2.2325e-06,-16.774,0
30246,1.8279e-14,2.0909,0.1,0.00039719,3969.1,0.00052828,7822.2,1.9511e-07,3854.4,-1.5137e-07,3851.7,0
30247,1.772e-14,2,0.05,2.6068e-06,26.05,2.0017e-06,15.04,7.3433e-14,2.804e-06,-2.0017e-06,-15.04,0
30248,1.9868e-14,2.2727,0.1,0.00039992,3996.5,0.00053192,7876,1.4846e-07,3880.5,-1.1119e-07,3878.5,0
30249,1.9331e-14,2.1818,0.05,2.3705e-06,23.689,1.8202e-06,13.677,4.7679e-14,3.6187e-07,-1.8202e-06,-13.677,0
30250,2.1457e-14,2.4545,0.1,0.00040193,4016.5,0.00053458,7915.4,1.0957e-07,3899.6,-7.6801e-08,3898.2,0
30251,2.0942e-14,2.3636,0.05,2.19e-06,21.885,1.6817e-06,12.635,2.8841e-14,2.1169e-07,-1.6817e-06,-12.635,0
30252,2.3047e-14,2.6364,0.1,0.0004033,4030.2,0.0005364,7942.3,7.63e-08,3912.6,-4.6487e-08,3911.7,0
30253,2.2553e-14,2.5455,0.05,2.0594e-06,20.58,1.5814e-06,11.882,1.3768e-14,1.0174e-07,-1.5814e-06,-11.882,0
30254,2.4636e-14,2.8182,0.1,0.0004041,4038.2,0.00053747,7958.1,4.79e-08,3920.1,-1.9768e-08,3919.6,0
30255,2.4164e-14,2.7273,0.05,1.9746e-06,19.732,1.5162e-06,11.392,4.3862e-15,3.3449e-08,-1.5162e-06,-11.392,0
30256,2.6226e-14,3,0.1,0.00040436,4040.8,0.00053782,7963.2,3.1682e-08,3922.5,-4.0951e-09,3922.3,0
30257,2.5775e-14,2.9091,0.05,1.9327e-06,19.314,1.4841e-06,11.151,3.5144e-16,2.527e-09,-1.4841e-06,-11.151,0
30258,2.7815e-14,3.1818,0.1,0.0004041,4038.2,0.00053747,7958.1,4.79e-08,3920.1,-1.9768e-08,3919.6,0
30259,2.7386e-14,3.0909,0.05,1.9327e-06,19.314,1.4841e-06,11.151,7.3636e-16,5.3347e-09,-1.4841e-06,-11.151,0
30260,2.9405e-14,3.3636,0.1,0.0004033,4030.2,0.0005364,7942.3,7.63e-08,3912.6,-4.6487e-08,3911.7,0
30261,2.8997e-14,3.2727,0.05,1.9746e-06,19.732,1.5162e-06,11.392,5.084e-15,3.7631e-08,-1.5162e-06,-11.392,0
30262,3.0994e-14,3.5455,0.1,0.00040193,4016.5,0.00053458,7915.4,1.0957e-07,3899.6,-7.6801e-08,3898.2,0
30263,3.0608e-14,3.4545,0.05,2.0594e-06,20.58,1.5814e-06,11.882,1.2457e-14,9.6244e-08,-1.5814e-06,-11.882,0
30264,3.2583e-14,3.7273,0.1,0.00039992,3996.5,0.00053192,7876,1.4846e-07,3880.5,-1.1119e-07,3878.5,0
30265,3.2219e-14,3.6364,0.05,2.19e-06,21.885,1.6817e-06,12.635,2.163e-14,1.6633e-07,-1.6817e-06,-12.635,0
30266,3.4173e-14,3.9091,0.1,0.00039719,3969.1,0.00052828,7822.2,1.9511e-07,3854.4,-1.5137e-07,3851.7,0
30267,3.383e-14,3.8182,0.05,2.3705e-06,23.689,1.8202e-06,13.677,3.5192e-14,2.6664e-07,-1.8202e-06,-13.677,0
30268,3.5762e-14,4.0909,0.1,0.00039359,3933.1,0.0005235,7751.4,2.5278e-07,3819.9,-1.999e-07,3816.5,0
30269,3.5441e-14,4,0.05,2.6068e-06,26.05,2.0017e-06,15.04,4.8955e-14,3.6504e-07,-2.0017e-06,-15.04,0
30270,3.7352e-14,4.2727,0.1,0.00038892,3886.5,0.00051729,7659.6,3.2629e-07,3775.3,-2.6052e-07,3770.9,0
30271,3.7052e-14,4.1818,0.05,2.9073e-06,29.053,2.2325e-06,16.774,6.3228e-14,2.0068e-06,-2.2325e-06,-16.774,0
30272,3.8941e-14,4.4545,0.1,0.00038289,3826.3,0.00050929,7541.3,4.2312e-07,3717.9,-3.3892e-07,3712.1,0
30273,3.8663e-14,4.3636,0.05,3.2832e-06,32.809,2.5211e-06,18.942,7.5867e-14,6.0608e-05,-2.5211e-06,-18.942,0
30274,4.0531e-14,4.6364,0.1,0.00037509,3748.4,0.00049893,7388.1,5.5546e-07,3643.5,-4.4432e-07,3636,0
30275,4.0274e-14,4.5455,0.05,3.7492e-06,37.467,2.8789e-06,21.631,9.8386e-14,6.8777e-07,-2.8789e-06,-21.631,0
30276,4.212e-14,4.8182,0.1,0.00036488,3646.3,0.00048536,7187.5,7.4463e-07,3546.3,-5.9276e-07,3536.2,0
30277,4.1885e-14,4.7273,0.05,4.3247e-06,43.217,3.3209e-06,24.952,1.1185e-13,7.819e-07,-3.3209e-06,-24.952,0
30278,4.371e-14,5,0.1,0.00035122,3509.8,0.00046723,6919.5,1.0277e-06,3416.6,-8.1536e-07,3402.8,0
30279,4.3495e-14,4.9091,0.05,5.0331e-06,50.296,3.8648e-06,29.038,1.2871e-13,9.897e-07,-3.8648e-06,-29.038,0
30280,4.5299e-14,5.1818,0.1,0.00033238,3321.5,0.00044221,6549.7,1.4897e-06,3238.3,-1.1809e-06,3218.3,0
30281,4.5106e-14,5.0909,0.05,5.9063e-06,59.022,4.5353e-06,34.076,1.5137e-13,1.0582e-06,-4.5353e-06,-34.076,0
30282,4.6888e-14,5.3636,0.1,0.00030491,3047,0.00040574,6010.8,2.3239e-06,2979.7,-1.8736e-06,2948.1,0
30283,4.6717e-14,5.2727,0.05,6.9216e-06,69.168,5.3149e-06,39.934,1.8757e-13,1.5735e-06,-5.3149e-06,-39.934,0
30284,4.8478e-14,5.5455,0.1,0.00026237,2621.9,0.00034876,5161.7,3.316e-06,2566.2,-3.5981e-06,2514.3,0
30285,4.8328e-14,5.4545,0.05,7.8469e-06,78.415,6.0254e-06,45.273,1.7044e-13,1.4297e-06,-6.0254e-06,-45.273,0
30286,5.0067e-14,5.7273,0.1,0.00018308,1829.5,0.00024115,3540.2,4.5318e-06,1762.4,-8.6833e-06,1663.1,0
30287,4.9939e-14,5.6364,0.05,8.6469e-06,86.409,6.6397e-06,49.888,-1.4084e-21,3.7047e-06,-6.6397e-06,-49.888,0
30288,5.1657e-14,5.9091,0.1,0.00013948,1393.8,0.00013571,1430.1,-4.8782e-06,373.8,-7.4544e-05,-149.64,0
30289,5.155e-14,5.8182,0.05,1.6478e-05,164.66,1.2653e-05,95.068,-2.6839e-21,-2.0165e-14,-1.2653e-05,-95.068,0
30290,23.908,0,0.1,2.3898e-06,23.881,2.1218e-06,18.617,-2.7003e-07,0.64602,-1.4849e-06,-8.4822,2.4647
30291,24,0,0.05,7.8648e-07,7.8594,6.0392e-07,4.5376,3.3274e-12,2.9552e-05,-6.0392e-07,-4.5376,2.479
30292,23.724,0,0.1,5.704e-06,57,5.395e-06,50.148,-1.1635e-06,0.87036,-2.9133e-06,-12.277,2.4361
30293,23.816,0,0.05,2.033e-06,20.316,1.5611e-06,11.73,1.6543e-13,3.9124e-06,-1.5611e-06,-11.73,2.4504
30294,23.541,0,0.1,9.2454e-06,92.39,8.9391e-06,85.02,-2.2897e-06,0.65134,-4.201e-06,-13.71,2.4075
30295,23.632,0,0.05,3.0086e-06,30.065,2.3102e-06,17.358,7.2687e-13,8.9125e-06,-2.3102e-06,-17.358,2.4218
30296,23.357,0,0.1,1.2904e-05,128.95,1.2608e-05,121.48,-3.4845e-06,0.57143,-5.4549e-06,-14.233,2.3789
30297,23.449,0,0.05,3.7633e-06,37.607,2.8898e-06,21.713,4.6114e-13,8.4439e-06,-2.8898e-06,-21.713,2.3931
30298,23.173,0,0.1,1.6653e-05,166.41,1.6363e-05,158.88,-4.7161e-06,0.50186,-6.7187e-06,-14.545,2.3502
30299,23.265,0,0.05,4.4054e-06,44.023,3.3828e-06,25.417,4.6227e-13,6.2227e-06,-3.3828e-06,-25.417,2.3645
30300,22.989,0,0.1,2.0459e-05,204.45,2.0175e-05,196.91,-5.9719e-06,0.4512,-7.9882e-06,-14.698,2.3216
30301,23.081,0,0.05,4.969e-06,49.655,3.8156e-06,28.669,7.9551e-13,1.2033e-05,-3.8156e-06,-28.669,2.3359
30302,22.805,0,0.1,2.431e-05,242.93,2.403e-05,235.4,-7.2456e-06,0.40807,-9.2633e-06,-14.752,2.2931
30303,22.897,0,0.05,5.472e-06,54.683,4.2018e-06,31.571,8.9201e-13,8.2454e-06,-4.2018e-06,-31.571,2.3073
30304,22.622,0,0.1,2.8194e-05,281.74,2.7919e-05,274.26,-8.533e-06,0.37158,-1.0543e-05,-14.734,2.2645
30305,22.713,0,0.05,5.926e-06,59.219,4.5504e-06,34.19,6.7266e-13,7.0217e-06,-4.5504e-06,-34.19,2.2788
30306,22.438,0,0.1,3.2105e-05,320.83,3.1835e-05,313.41,-9.8314e-06,0.33981,-1.1828e-05,-14.663,2.2359
30307,22.53,0,0.05,6.3388e-06,63.344,4.8674e-06,36.572,4.5853e-13,6.9174e-06,-4.8674e-06,-36.572,2.2502
30308,22.254,0,0.1,3.6041e-05,360.16,3.5775e-05,352.81,-1.1139e-05,0.31179,-1.3117e-05,-14.549,2.2074
30309,22.346,0,0.05,6.716e-06,67.114,5.157e-06,38.748,4.5804e-13,5.9862e-06,-5.157e-06,-38.748,2.2216
30310,22.07,0,0.1,3.9997e-05,399.69,3.9736e-05,392.43,-1.2455e-05,0.28676,-1.441e-05,-14.403,2.1789
30311,22.162,0,0.05,7.0621e-06,70.572,5.4228e-06,40.745,9.0903e-13,6.6399e-06,-5.4228e-06,-40.745,2.1931
30312,21.886,0,0.1,4.3971e-05,439.41,4.3716e-05,432.25,-1.3778e-05,0.26418,-1.5707e-05,-14.231,2.1504
30313,21.978,0,0.05,7.3804e-06,73.754,5.6673e-06,42.582,4.6003e-13,7.6225e-06,-5.6673e-06,-42.582,2.1646
30314,21.703,0,0.1,4.7963e-05,479.3,4.7713e-05,472.25,-1.5107e-05,0.24365,-1.7008e-05,-14.037,2.1219
30315,21.794,0,0.05,7.6739e-06,76.686,5.8926e-06,44.275,2.3671e-13,6.5457e-06,-5.8926e-06,-44.275,2.1361
30316,21.519,0,0.1,5.1972e-05,519.36,5.1726e-05,512.42,-1.6442e-05,0.22485,-1.8312e-05,-13.825,2.0935
30317,21.611,0,0.05,7.9448e-06,79.393,6.1006e-06,45.838,1.4998e-16,6.7707e-06,-6.1006e-06,-45.838,2.1077
30318,21.335,0,0.1,5.5997e-05,559.58,5.5756e-05,552.76,-1.7784e-05,0.20753,-1.9621e-05,-13.6,2.0651
30319,21.427,0,0.05,8.195e-06,81.894,6.2928e-06,47.281,-4.509e-13,6.6497e-06,-6.2928e-06,-47.281,2.0793
30320,21.151,0,0.1,6.0037e-05,599.96,5.9802e-05,593.26,-1.9131e-05,0.19147,-2.0935e-05,-13.362,2.0368
30321,21.243,0,0.05,8.4262e-06,84.204,6.4703e-06,48.615,1.4516e-16,6.4366e-06,-6.4703e-06,-48.615,2.0509
30322,20.967,0,0.1,6.4094e-05,640.49,6.3863e-05,633.92,-2.0483e-05,0.17651,-2.2252e-05,-13.115,2.0084
30323,21.059,0,0.05,8.6399e-06,86.339,6.6343e-06,49.848,-4.5167e-13,7.69e-06,-6.6343e-06,-49.848,2.0226
30324,20.784,0,0.1,6.8166e-05,681.19,6.794e-05,674.75,-2.1841e-05,0.16249,-2.3574e-05,-12.86,1.9802
30325,20.875,0,0.05,8.8371e-06,88.31,6.7858e-06,50.986,-4.5192e-13,5.9911e-06,-6.7858e-06,-50.986,1.9943
30326,20.6,0,0.1,7.2254e-05,722.04,7.2034e-05,715.73,-2.3204e-05,0.14932,-2.4901e-05,-12.599,1.9519
30327,20.692,0,0.05,9.019e-06,90.128,6.9255e-06,52.035,-9.1421e-13,7.491e-06,-6.9255e-06,-52.035,1.966
30328,20.416,0,0.1,7.6358e-05,763.06,7.6143e-05,756.88,-2.4573e-05,0.13688,-2.6233e-05,-12.332,1.9237
30329,20.508,0,0.05,9.1865e-06,91.802,7.0541e-06,53.002,-9.1375e-13,6.7772e-06,-7.0541e-06,-53.002,1.9378
30330,20.232,0,0.1,8.0479e-05,804.24,8.0269e-05,798.2,-2.5948e-05,0.12506,-2.757e-05,-12.061,1.8956
30331,20.324,0,0.05,9.3404e-06,93.34,7.1723e-06,53.89,-9.0941e-13,6.4974e-06,-7.1723e-06,-53.89,1.9097
30332,20.048,0,0.1,8.4617e-05,845.58,8.4412e-05,839.68,-2.7328e-05,0.11379,-2.8912e-05,-11.786,1.8675
30333,20.14,0,0.05,9.4814e-06,94.749,7.2806e-06,54.703,-9.0595e-13,4.8434e-06,-7.2806e-06,-54.703,1.8816
30334,19.865,0,0.1,8.8771e-05,887.1,8.8571e-05,881.34,-2.8714e-05,0.10297,-3.0259e-05,-11.509,1.8395
30335,19.956,0,0.05,9.6101e-06,96.035,7.3794e-06,55.446,-9.0628e-13,5.8084e-06,-7.3794e-06,-55.446,1.8535
30336,19.681,0,0.1,9.2943e-05,928.79,9.2748e-05,923.17,-3.0106e-05,0.092541,-3.1612e-05,-11.228,1.8115
30337,19.773,0,0.05,9.727e-06,97.202,7.4691e-06,56.12,1.4411e-15,7.0455e-06,-7.4691e-06,-56.12,1.8255
30338,19.497,0,0.1,9.7133e-05,970.66,9.6943e-05,965.18,-3.1503e-05,0.082447,-3.2971e-05,-10.946,1.7836
30339,19.589,0,0.05,9.8324e-06,98.256,7.5501e-06,56.728,2.7246e-17,6.2691e-06,-7.5501e-06,-56.728,1.7976
30340,19.313,0,0.1,0.00010134,1012.7,0.00010116,1007.4,-3.2907e-05,0.072624,-3.4335e-05,-10.662,1.7558
30341,19.405,0,0.05,9.9269e-06,99.2,7.6226e-06,57.273,-9.1165e-13,7.084e-06,-7.6226e-06,-57.273,1.7697
30342,19.129,0,0.1,0.00010557,1054.9,0.00010539,1049.7,-3.4316e-05,0.063008,-3.5706e-05,-10.376,1.728
30343,19.221,0,0.05,1.0011e-05,100.04,7.6869e-06,57.756,9.6159e-16,4.6572e-06,-7.6869e-06,-57.756,1.7419
30344,18.946,0,0.1,0.00010981,1097.4,0.00010964,1092.3,-3.5732e-05,0.053547,-3.7082e-05,-10.088,1.7003
30345,19.038,0,0.05,1.0084e-05,100.77,7.7431e-06,58.179,-9.0867e-13,7.2056e-06,-7.7431e-06,-58.179,1.7142
30346,18.762,0,0.1,0.00011407,1140,0.00011391,1135,-3.7154e-05,0.044182,-3.8465e-05,-9.7993,1.6727
30347,18.854,0,0.05,1.0147e-05,101.4,7.7914e-06,58.542,-9.0948e-13,4.9473e-06,-7.7914e-06,-58.542,1.6865
30348,18.578,0,0.1,0.00011836,1182.8,0.00011819,1178,-3.8583e-05,0.034872,-3.9853e-05,-9.5088,1.6451
30349,18.67,0,0.05,1.0199e-05,101.92,7.8319e-06,58.846,5.0996e-18,6.0797e-06,-7.8319e-06,-58.846,1.6589
30350,18.394,0,0.1,0.00012266,1225.7,0.0001225,1221.1,-4.0018e-05,0.025594,-4.1248e-05,-9.2168,1.6177
30351,18.486,0,0.05,1.0242e-05,102.35,7.8645e-06,59.091,-9.099e-13,5.7221e-06,-7.8645e-06,-59.091,1.6314
30352,18.21,0,0.1,0.00012698,1268.9,0.00012683,1264.5,-4.1459e-05,0.016312,-4.2649e-05,-8.9233,1.5903
30353,18.302,0,0.05,1.0274e-05,102.67,7.8893e-06,59.277,2.8209e-16,4.6515e-06,-7.8893e-06,-59.277,1.6039
30354,18.027,0,0.1,0.00013132,1312.3,0.00013117,1308,-4.2907e-05,0.0069814,-4.4057e-05,-8.6284,1.563
30355,18.119,0,0.05,1.0296e-05,102.89,7.9064e-06,59.406,-1.5241e-16,7.391e-06,-7.9064e-06,-59.406,1.5766
30356,17.843,0,0.1,0.00013568,1355.9,0.00013554,1351.7,-4.4362e-05,-0.002425,-4.547e-05,-8.332,1.5358
30357,17.935,0,0.05,1.0308e-05,103.01,7.9156e-06,59.475,-1.819e-12,-3.3381e-06,-7.9156e-06,-59.475,1.5493
30358,17.659,0,0.1,0.00014006,1399.6,0.00013992,1395.6,-4.5822e-05,-0.01192,-4.689e-05,-8.0344,1.5086
30359,17.751,0,0.05,1.031e-05,103.03,7.9169e-06,59.485,9.0939e-13,1.2934e-05,-7.9169e-06,-59.485,1.5222
30360,17.475,0,0.1,0.00014446,1443.6,0.00014433,1439.7,-4.7289e-05,-0.021514,-4.8316e-05,-7.7355,1.4816
30361,17.567,0,0.05,1.0301e-05,102.94,7.9103e-06,59.435,-1.819e-12,3.7551e-06,-7.9103e-06,-59.435,1.4951
30362,17.291,0,0.1,0.00014887,1487.7,0.00014875,1484,-4.8762e-05,-0.03118,-4.9748e-05,-7.4357,1.4547
30363,17.383,0,0.05,1.0282e-05,102.75,7.8955e-06,59.324,-9.0949e-13,5.9605e-06,-7.8955e-06,-59.324,1.4681
30364,17.108,0,0.1,0.00015331,1532,0.00015318,1528.4,-5.0241e-05,-0.040894,-5.1185e-05,-7.1353,1.4278
30365,17.2,0,0.05,1.0253e-05,102.45,7.8726e-06,59.152,-1.819e-12,4.6451e-06,-7.8727e-06,-59.152,1.4412
30366,16.924,0,0.1,0.00015776,1576.5,0.00015764,1573,-5.1725e-05,-0.050631,-5.2628e-05,-6.8349,1.4011
30367,17.016,0,0.05,1.0212e-05,102.05,7.8416e-06,58.918,6.2846e-16,5.0718e-06,-7.8416e-06,-58.918,1.4144
30368,16.74,0,0.1,0.00016222,1621.1,0.00016211,1617.8,-5.3214e-05,-0.060335,-5.4076e-05,-6.535,1.3745
30369,16.832,0,0.05,1.0161e-05,101.54,7.8022e-06,58.623,-1.5266e-15,3.8083e-06,-7.8022e-06,-58.623,1.3877
30370,16.556,0,0.1,0.0001667,1665.8,0.00016659,1662.7,-5.4707e-05,-0.069925,-5.5527e-05,-6.2368,1.3479
30371,16.648,0,0.05,1.0099e-05,100.92,7.7546e-06,58.265,-1.8199e-12,4.8131e-06,-7.7546e-06,-58.265,1.3612
30372,16.372,0,0.1,0.00017118,1710.6,0.00017108,1707.6,-5.6202e-05,-0.079276,-5.6982e-05,-5.9413,1.3215
30373,16.464,0,0.05,1.0026e-05,100.19,7.6989e-06,57.846,-9.1048e-13,5.0665e-06,-7.6989e-06,-57.846,1.3347
30374,16.189,0,0.1,0.00017567,1755.5,0.00017557,1752.6,-5.7699e-05,-0.088201,-5.8439e-05,-5.6499,1.2952
30375,16.281,0,0.05,9.9431e-06,99.362,7.6351e-06,57.367,-9.1063e-13,4.0435e-06,-7.6351e-06,-57.367,1.3083
30376,16.005,0,0.1,0.00018016,1800.3,0.00018007,1797.6,-5.9195e-05,-0.09649,-5.9896e-05,-5.3646,1.2691
30377,16.097,0,0.05,9.8499e-06,98.432,7.5635e-06,56.829,-9.0946e-13,4.7794e-06,-7.5635e-06,-56.829,1.2821
30378,15.821,0,0.1,0.00018464,1845.1,0.00018455,1842.5,-6.0688e-05,-0.1039,-6.1351e-05,-5.0877,1.243
30379,15.913,0,0.05,9.7473e-06,97.406,7.4847e-06,56.237,-9.0808e-13,4.9474e-06,-7.4847e-06,-56.237,1.256
30380,15.637,0,0.1,0.0001891,1889.7,0.00018902,1887.3,-6.2174e-05,-0.11008,-6.2801e-05,-4.8219,1.2171
30381,15.729,0,0.05,9.636e-06,96.294,7.3993e-06,55.595,-1.8189e-12,3.1593e-06,-7.3993e-06,-55.595,1.23
30382,15.453,0,0.1,0.00019354,1934.1,0.00019346,1931.7,-6.3651e-05,-0.11465,-6.4244e-05,-4.5706,1.1913
30383,15.545,0,0.05,9.5172e-06,95.106,7.308e-06,54.91,-1.8189e-12,3.7558e-06,-7.308e-06,-54.91,1.2041
30384,15.27,0,0.1,0.00019793,1977.9,0.00019785,1975.7,-6.5112e-05,-0.11709,-6.5674e-05,-4.3377,1.1656
30385,15.362,0,0.05,9.3924e-06,93.859,7.2122e-06,54.19,4.7323e-17,3.9939e-06,-7.2122e-06,-54.19,1.1784
30386,15.086,0,0.1,0.00020226,2021.2,0.00020219,2019.1,-6.6551e-05,-0.11675,-6.7085e-05,-4.1281,1.1401
30387,15.178,0,0.05,9.2637e-06,92.573,7.1134e-06,53.447,-1.555e-15,3.4578e-06,-7.1134e-06,-53.447,1.1528
30388,14.902,0,0.1,0.0002065,2063.6,0.00020644,2061.6,-6.796e-05,-0.1129,-6.8471e-05,-3.9471,1.1147
30389,14.994,0,0.05,9.1337e-06,91.274,7.0136e-06,52.697,-1.8189e-12,3.9942e-06,-7.0136e-06,-52.697,1.1273
30390,14.718,0,0.1,0.00021063,2104.9,0.00021056,2102.9,-6.9329e-05,-0.10471,-6.9821e-05,-3.8014,1.0894
30391,14.81,0,0.05,9.0057e-06,89.995,6.9153e-06,51.959,-1.8189e-12,3.8624e-06,-6.9153e-06,-51.959,1.102
30392,14.534,0,0.1,0.0002146,2144.5,0.00021454,2142.6,-7.0643e-05,-0.09117,-7.1123e-05,-3.6986,1.0643
30393,14.626,0,0.05,8.8838e-06,88.777,6.8217e-06,51.255,-1.8177e-12,2.991e-06,-6.8217e-06,-51.255,1.0768
30394,14.351,0,0.1,0.00021837,2182.2,0.0002183,2180.3,-7.1886e-05,-0.071173,-7.2362e-05,-3.6475,1.0393
30395,14.443,0,0.05,8.773e-06,87.669,6.7366e-06,50.616,3.2817e-17,2.5037e-06,-6.7366e-06,-50.616,1.0517
30396,14.167,0,0.1,0.00022187,2217.1,0.0002218,2215.3,-7.3039e-05,-0.043472,-7.352e-05,-3.6583,1.0145
30397,14.259,0,0.05,8.6792e-06,86.732,6.6646e-06,50.075,-5.0521e-16,3.4826e-06,-6.6646e-06,-50.075,1.0268
30398,13.983,0,0.1,0.00022502,2248.7,0.00022496,2246.8,-7.4073e-05,-0.0067282,-7.457e-05,-3.7431,0.98979
30399,14.075,0,0.05,8.6095e-06,86.036,6.611e-06,49.673,-1.819e-12,3.3975e-06,-6.611e-06,-49.673,1.0021
30400,13.799,0,0.1,0.00022774,2275.9,0.00022768,2273.9,-7.4958e-05,0.040331,-7.5484e-05,-3.9155,0.96526
30401,13.891,0,0.05,8.572e-06,85.661,6.5822e-06,49.456,3.0822e-17,3.2189e-06,-6.5822e-06,-49.456,0.97748
30402,13.616,0,0.1,0.0002299,2297.5,0.00022983,2295.4,-7.5652e-05,0.098788,-7.6223e-05,-4.1917,0.94089
30403,13.707,0,0.05,8.5756e-06,85.697,6.585e-06,49.477,-1.8189e-12,3.1169e-06,-6.585e-06,-49.477,0.95303
30404,13.432,0,0.1,0.00023136,2312,0.00023129,2309.8,-7.6108e-05,0.16934,-7.6741e-05,-4.59,0.91667
30405,13.524,0,0.05,8.6302e-06,86.243,6.627e-06,49.792,-1.8155e-12,3.2526e-06,-6.627e-06,-49.792,0.92873
30406,13.248,0,0.1,0.00023194,2317.8,0.00023185,2315.3,-7.6264e-05,0.25193,-7.698e-05,-5.1314,0.8926
30407,13.34,0,0.05,8.7457e-06,87.397,6.7156e-06,50.459,-1.4245e-21,2.9862e-06,-6.7156e-06,-50.459,0.90459
30408,13.064,0,0.1,0.00023141,2312.5,0.00023132,2309.8,-7.6048e-05,0.34521,-7.6871e-05,-5.8392,0.86869
30409,13.156,0,0.05,8.9312e-06,89.251,6.8581e-06,51.529,6.6403e-16,3.7991e-06,-6.8581e-06,-51.529,0.8806
30410,12.88,0,0.1,0.00022953,2293.7,0.00022942,2290.5,-7.5372e-05,0.44581,-7.6328e-05,-6.7379,0.84494
30411,12.972,0,0.05,9.1938e-06,91.874,7.0597e-06,53.044,-1.8252e-12,3.5408e-06,-7.0597e-06,-53.044,0.85677
30412,12.697,0,0.1,0.00022597,2258.2,0.00022585,2254.5,-7.4136e-05,0.54719,-7.5253e-05,-7.8515,0.82134
30413,12.788,0,0.05,9.5359e-06,95.293,7.3224e-06,55.018,1.5229e-15,3.1169e-06,-7.3224e-06,-55.018,0.8331
30414,12.513,0,0.1,0.00022039,2202.4,0.00022025,2198.1,-7.222e-05,0.63829,-7.353e-05,-9.1982,0.7979
30415,12.605,0,0.05,9.9523e-06,99.454,7.6421e-06,57.42,-1.621e-21,2.4462e-06,-7.6421e-06,-57.42,0.80958
30416,12.329,0,0.1,0.00021239,2122.5,0.00021222,2117.4,-6.9496e-05,0.70174,-7.1025e-05,-10.782,0.7746
30417,12.421,0,0.05,1.0425e-05,104.18,8.0051e-06,60.147,-1.698e-21,2.4201e-06,-8.0051e-06,-60.147,0.78621
30418,12.145,0,0.1,0.00020154,2014,0.00020134,2008.1,-6.5826e-05,0.713,-6.7595e-05,-12.577,0.75145
30419,12.237,0,0.05,1.0917e-05,109.1,8.383e-06,62.987,-1.7782e-21,2.3826e-06,-8.383e-06,-62.987,0.76298
30420,11.961,0,0.1,0.00018742,1872.9,0.00018717,1865.9,-6.1074e-05,0.63669,-6.3089e-05,-14.506,0.72843
30421,12.053,0,0.05,1.1365e-05,113.57,8.7266e-06,65.568,-2.2547e-14,1.982e-06,-8.7266e-06,-65.568,0.73989
30422,11.778,0,0.1,0.00016962,1695,0.00016934,1687,-5.5122e-05,0.44107,-5.7364e-05,-16.401,0.70553
30423,11.869,0,0.05,1.1667e-05,116.59,8.9588e-06,67.313,-1.9003e-21,2.5405e-06,-8.9588e-06,-67.313,0.71694
30424,11.594,0,0.1,0.00014785,1477.5,0.00014754,1468.5,-4.7894e-05,0.053885,-5.0292e-05,-17.963,0.68275
30425,11.686,0,0.05,1.1677e-05,116.69,8.9662e-06,67.368,9.0936e-13,1.9024e-06,-8.9662e-06,-67.368,0.6941
30426,11.41,0,0.1,0.00012196,1218.7,0.00012162,1209.1,-3.9354e-05,-0.41497,-4.1778e-05,-18.625,0.66007
30427,11.502,0,0.05,1.1192e-05,111.84,8.594e-06,64.572,-1.8229e-21,2.3619e-06,-8.594e-06,-64.572,0.67137
30428,11.226,0,0.1,9.1928e-05,918.65,9.1592e-05,908.97,-2.9587e-05,-1.5219,-3.173e-05,-17.625,0.63747
30429,11.318,0,0.05,9.922e-06,99.152,7.6189e-06,57.245,-1.6161e-21,2.1408e-06,-7.6189e-06,-57.245,0.64873
30430,11.042,0,0.1,5.7403e-05,573.64,5.7137e-05,566.08,-1.8243e-05,-0.30049,-2.0139e-05,-14.547,0.61492
30431,11.134,0,0.05,7.5546e-06,75.494,5.801e-06,43.587,9.3698e-14,1.651e-06,-5.801e-06,-43.587,0.62616
30432,10.859,0,0.1,2.012e-05,201.06,2.0206e-05,204.79,-5.2593e-06,13.456,-7.6825e-06,-4.7509,0.59242
30433,10.95,0,0.05,2.9519e-06,29.498,2.2667e-06,17.031,1.298e-13,1.8597e-06,-2.2667e-06,-17.031,0.60364
30434,10.767,0,0.05,3.6935e-06,36.909,2.8361e-06,21.31,-3.5509e-13,-1.4663e-06,-2.8361e-06,-21.31,0.58114
30435,10.509,-1.4433e-30,0.1,2.3429e-05,234.12,2.3556e-05,239.07,-6.2108e-06,15.415,-8.8323e-06,-4.2824,0.54971
30436,10.6,-1.4558e-30,0.05,4.2048e-06,42.019,3.2288e-06,24.26,1.1982e-13,2.3615e-06,-3.2288e-06,-24.26,0.55809
30437,10.326,-1.4182e-30,0.1,6.8003e-05,679.56,6.7796e-05,673.65,-2.1783e-05,0.59169,-2.3489e-05,-12.228,0.53293
30438,10.417,0,0.05,1.971e-06,19.696,1.5135e-06,11.372,-4.7348e-13,-1.3928e-06,-1.5135e-06,-11.372,0.5413
30439,10.143,-1.3931e-30,0.1,0.00011125,1111.7,0.000111,1104.6,-3.612e-05,-0.83731,-3.7785e-05,-13.347,0.51619
30440,10.234,0,0.05,5.8438e-06,58.398,4.4873e-06,33.716,4.5044e-13,1.7446e-06,-4.4873e-06,-33.716,0.52453
30441,9.9603,-1.368e-30,0.1,0.00015073,1506.2,0.0001505,1499.8,-4.9049e-05,0.41808,-5.0862e-05,-13.2,0.49953
30442,10.052,0,0.05,7.1879e-06,71.83,5.5194e-06,41.471,-2.0668e-15,1.9073e-06,-5.5194e-06,-41.471,0.50783
30443,9.7776,-1.3429e-30,0.1,0.00018668,1865.5,0.00018649,1860,-6.093e-05,0.949,-6.2655e-05,-12.011,0.48296
30444,9.869,0,0.05,7.2971e-06,72.921,5.6033e-06,42.101,9.4462e-13,1.4282e-06,-5.6033e-06,-42.101,0.49121
30445,9.5948,-1.3178e-30,0.1,0.00021896,2188.1,0.00021881,2183.6,-7.1626e-05,1.385,-7.3195e-05,-10.41,0.46652
30446,9.6862,0,0.05,6.5528e-06,65.483,5.0317e-06,37.807,-3.3755e-14,1.4226e-06,-5.0317e-06,-37.807,0.4747
30447,9.4121,-1.2927e-30,0.1,0.00024758,2474.1,0.00024746,2470.5,-8.1132e-05,1.5912,-8.2518e-05,-8.8222,0.45022
30448,9.5034,0,0.05,5.3067e-06,53.03,4.0749e-06,30.617,-4.9934e-14,9.4203e-07,-4.0749e-06,-30.617,0.45833
30449,9.2293,-1.2676e-30,0.1,0.00027272,2725.3,0.00027262,2722.4,-8.9491e-05,1.6493,-9.0697e-05,-7.4076,0.43409
30450,9.3207,0,0.05,3.8041e-06,38.015,2.9211e-06,21.948,-6.1961e-22,1.3928e-06,-2.9211e-06,-21.948,0.44211
30451,9.0466,-1.2425e-30,0.1,0.00029467,2944.6,0.00029459,2942.3,-9.6798e-05,1.5954,-9.7839e-05,-6.2246,0.41814
30452,9.1379,0,0.05,2.2335e-06,22.32,1.7151e-06,12.886,4.7097e-13,1.3263e-06,-1.7151e-06,-12.886,0.42607
30453,8.8638,-1.2174e-30,0.1,0.0003138,3135.8,0.00031373,3133.9,-0.00010317,1.4713,-0.00010407,-5.2658,0.40239
30454,8.9552,0,0.05,8.0954e-07,8.0898,6.2162e-07,4.6706,1.1357e-13,5.611e-07,-6.2162e-07,-4.6706,0.41021
30455,8.681,-1.1923e-30,0.1,0.0003305,3302.7,0.00033045,3301.1,-0.00010873,1.3069,-0.00010951,-4.4976,0.38684
30456,8.7724,0,0.05,9.9933e-07,9.9864,7.6737e-07,5.7657,1.8164e-12,6.6063e-07,-7.6736e-07,-5.7657,0.39456
30457,8.4983,-1.1672e-30,0.1,0.00034515,3449.1,0.0003451,3447.7,-0.00011361,1.1244,-0.00011428,-3.8777,0.37152
30458,8.5897,0,0.05,2.202e-06,22.005,1.6908e-06,12.704,-1.4682e-12,1.0315e-06,-1.6908e-06,-12.704,0.37912
30459,8.3155,-1.1421e-30,0.1,0.00035808,3578.3,0.00035804,3577.1,-0.00011792,0.93841,-0.00011849,-3.3661,0.35642
30460,8.4069,0,0.05,3.2946e-06,32.923,2.5298e-06,19.008,-1.7967e-12,1.9893e-06,-2.5298e-06,-19.008,0.36391
30461,8.1328,-1.117e-30,0.1,0.0003696,3693.4,0.00036956,3692.4,-0.00012176,0.75797,-0.00012225,-2.9287,0.34156
30462,8.2241,0,0.05,4.2168e-06,42.139,3.238e-06,24.329,3.6481e-14,1.0001e-06,-3.238e-06,-24.329,0.34894
30463,7.95,-1.0919e-30,0.1,0.00037997,3797.1,0.00037994,3796.1,-0.00012522,0.58818,-0.00012563,-2.5389,0.32696
30464,8.0414,0,0.05,4.9644e-06,49.61,3.812e-06,28.642,2.2025e-14,1.3286e-06,-3.812e-06,-28.642,0.3342
30465,7.7672,-1.0668e-30,0.1,0.00038942,3891.5,0.00038939,3890.6,-0.00012836,0.43136,-0.00012871,-2.1769,0.3126
30466,7.8586,0,0.05,5.5444e-06,55.405,4.2574e-06,31.988,7.4104e-15,9.5004e-07,-4.2574e-06,-31.988,0.31972
30467,7.5845,-1.0417e-30,0.1,0.00039811,3978.4,0.00039809,3977.6,-0.00013126,0.28797,-0.00013154,-1.829,0.2985
30468,7.6759,0,0.05,5.9676e-06,59.635,4.5824e-06,34.43,-1.5031e-15,1.0705e-06,-4.5824e-06,-34.43,0.30549
30469,7.4017,-1.0166e-30,0.1,0.00040622,4059.4,0.0004062,4058.8,-0.00013397,0.15736,-0.00013419,-1.4859,0.28467
30470,7.4931,0,0.05,6.2462e-06,62.419,4.7963e-06,36.037,-3.6391e-12,9.535e-07,-4.7963e-06,-36.037,0.29153
30471,7.219,-9.9146e-31,0.1,0.00041386,4135.8,0.00041384,4135.2,-0.00013652,0.038267,-0.00013667,-1.1419,0.27111
30472,7.3103,0,0.05,6.3919e-06,63.875,4.9082e-06,36.879,2.1337e-15,9.616e-07,-4.9082e-06,-36.878,0.27783
30473,7.0362,-9.6636e-31,0.1,0.00042114,4208.5,0.00042112,4208.1,-0.00013894,-0.070937,-0.00013904,-0.79376,0.25783
30474,7.1276,0,0.05,6.4157e-06,64.113,4.9265e-06,37.016,7.3896e-18,8.3453e-07,-4.9265e-06,-37.015,0.26441
30475,6.8534,-9.4126e-31,0.1,0.00042813,4278.4,0.00042812,4278.1,-0.00014128,-0.17197,-0.00014131,-0.44031,0.24483
30476,6.9448,0,0.05,6.3268e-06,63.225,4.8582e-06,36.503,-9.0815e-16,8.2548e-07,-4.8582e-06,-36.503,0.25127
30477,6.6707,-9.1616e-31,0.1,0.00043491,4346.1,0.00043491,4346,-0.00014351,-0.081649,-0.00014354,-0.26658,0.23212
30478,6.7621,0,0.05,6.1331e-06,61.289,4.7095e-06,35.385,3.0058e-15,8.3438e-07,-4.7095e-06,-35.385,0.23841
30479,6.4879,-8.9106e-31,0.1,0.00044153,4412.3,0.00044153,4412.2,-0.00014566,0.28086,-0.00014575,-0.35635,0.21969
30480,6.5793,0,0.05,5.8407e-06,58.366,4.4849e-06,33.698,1.7663e-15,7.1508e-07,-4.4849e-06,-33.698,0.22584
30481,6.3052,-8.6596e-31,0.1,0.00044803,4477.3,0.00044804,4477.4,-0.00014778,0.64502,-0.00014792,-0.44286,0.20756
30482,6.3966,0,0.05,5.4541e-06,54.504,4.1881e-06,31.468,-3.6293e-12,7.3286e-07,-4.1881e-06,-31.468,0.21356
30483,6.1224,-8.4086e-31,0.1,0.00045446,4541.4,0.00045447,4541.7,-0.00014986,1.0077,-0.00015006,-0.52751,0.19573
30484,6.2138,0,0.05,4.9766e-06,49.732,3.8214e-06,28.713,-3.6223e-12,6.5152e-07,-3.8214e-06,-28.713,0.20158
30485,5.9397,-8.1576e-31,0.1,0.00046083,4605.1,0.00046084,4605.5,-0.00015193,1.3651,-0.00015219,-0.61159,0.1842
30486,6.031,0,0.05,4.4099e-06,44.068,3.3862e-06,25.443,8.8934e-15,8.7049e-07,-3.3862e-06,-25.443,0.1899
30487,5.7569,-7.9066e-31,0.1,0.00046717,4668.5,0.00046719,4669,-0.00015399,1.7122,-0.00015431,-0.69629,0.17298
30488,5.8483,0,0.05,3.7546e-06,37.52,2.8831e-06,21.662,-3.6278e-12,1.0492e-07,-2.8831e-06,-21.662,0.17852
30489,5.5741,-7.6556e-31,0.1,0.0004735,4731.8,0.00047352,4732.4,-0.00015605,2.0431,-0.00015642,-0.78272,0.16208
30490,5.6655,0,0.05,3.0107e-06,30.086,2.3118e-06,17.37,-3.536e-12,1.4818e-06,-2.3118e-06,-17.37,0.16746
30491,5.3914,-7.4046e-31,0.1,0.00047984,4795.1,0.00047987,4795.8,-0.00015811,2.3508,-0.00015854,-0.87189,0.15149
30492,5.4828,0,0.05,2.1779e-06,21.764,1.6724e-06,12.566,-3.5826e-12,3.5746e-06,-1.6724e-06,-12.566,0.15671
30493,5.2086,-7.1536e-31,0.1,0.0004862,4858.6,0.00048623,4859.5,-0.00016018,2.6268,-0.00016066,-0.9648,0.14122
30494,5.3,0,0.05,1.2611e-06,12.602,9.6835e-07,7.2758,7.1902e-13,3.9662e-07,-9.6834e-07,-7.2758,0.14628
30495,5.0259,-6.9026e-31,0.1,0.00049258,4922.4,0.00049261,4923.3,-0.00016226,2.8611,-0.00016278,-1.0624,0.13128
30496,5.1172,0,0.05,3.6678e-07,3.6652,2.8164e-07,2.1161,1.0372e-11,1.2058e-07,-2.8164e-07,-2.1161,0.13617
30497,4.8431,-6.6516e-31,0.1,0.00049901,4986.6,0.00049904,4987.6,-0.00016436,3.0419,-0.00016492,-1.1657,0.12166
30498,4.9345,0,0.05,9.9809e-07,9.974,7.6641e-07,5.7585,1.6846e-12,1.4805e-05,-7.664e-07,-5.7584,0.12639
30499,4.6603,-6.4006e-31,0.1,0.00050547,5051.2,0.0005055,5052.1,-0.00016648,3.1552,-0.00016707,-1.2756,0.11238
30500,4.7517,0,0.05,2.2146e-06,22.131,1.7006e-06,12.777,8.5663e-13,1.3192e-07,-1.7005e-06,-12.777,0.11695
30501,4.4776,-6.1496e-31,0.1,0.00051198,5116.2,0.00051201,5117.1,-0.00016862,3.1847,-0.00016923,-1.3933,0.10344
30502,4.569,0,0.05,3.5665e-06,35.64,2.7386e-06,20.577,-5.809e-22,5.0952e-07,-2.7386e-06,-20.577,0.10783
30503,4.2948,-5.8986e-31,0.1,0.00051853,5181.7,0.00051856,5182.5,-0.00017078,3.1114,-0.0001714,-1.5202,0.094837
30504,4.3862,0,0.05,5.0457e-06,50.422,3.8745e-06,29.111,1.1123e-13,-6.1749e-15,-3.8744e-06,-29.111,0.099061
30505,4.1121,-5.6476e-31,0.1,0.00052513,5247.7,0.00052515,5248.3,-0.00017297,2.9133,-0.00017358,-1.658,0.086583
30506,4.2034,0,0.05,6.6576e-06,66.53,5.1122e-06,38.411,-1.0844e-21,3.5878e-07,-5.1122e-06,-38.411,0.090633
30507,3.9293,-5.3966e-31,0.1,0.00053177,5314.1,0.00053179,5314.5,-0.00017518,2.5652,-0.00017576,-1.8092,0.078681
30508,4.0207,0,0.05,8.4106e-06,84.048,6.4583e-06,48.525,5.5632e-14,4.6668e-07,-6.4583e-06,-48.525,0.082554
30509,3.7466,-5.1456e-31,0.1,0.00053845,5380.8,0.00053845,5380.8,-0.00017742,2.039,-0.00017795,-1.9781,0.071134
30510,3.8379,0,0.05,1.0314e-05,103.07,7.9202e-06,59.509,-3.6271e-12,3.6443e-07,-7.9202e-06,-59.509,0.074829
30511,3.5638,-4.8946e-31,0.1,0.00054515,5447.7,0.00054513,5447.3,-0.00017968,1.3059,-0.00018015,-2.1735,0.063947
30512,3.6552,0,0.05,1.238e-05,123.72,9.5064e-06,71.427,3.5349e-14,2.9653e-07,-9.5063e-06,-71.427,0.067461
30513,3.381,-4.6436e-31,0.1,0.00055185,5514.7,0.00055182,5513.7,-0.00018196,0.34461,-0.00018233,-2.4185,0.057124
30514,3.4724,0,0.05,1.462e-05,146.1,1.1226e-05,84.349,-3.6306e-12,-1.7892e-14,-1.1226e-05,-84.349,0.060455
30515,3.1983,-4.3926e-31,0.1,0.00055854,5581.5,0.00055848,5579.7,-0.00018425,-0.8126,-0.00018451,-2.7972,0.050671
30516,3.2897,0,0.05,1.7047e-05,170.36,1.309e-05,98.356,-3.6316e-12,-2.0863e-14,-1.309e-05,-98.356,0.053816
30517,3.0155,-4.1416e-31,0.1,0.00056517,5647.8,0.00056507,5645,-0.00018648,-1.8733,-0.00018672,-3.6635,0.04459
30518,3.1069,0,0.05,1.9678e-05,196.65,1.511e-05,113.53,-3.2052e-21,1.8766e-07,-1.511e-05,-113.53,0.047548
30519,2.8328,-3.8906e-31,0.1,0.0005717,5713.1,0.00057157,5709.1,-0.0001886,-2.4559,-0.000189,-5.4718,0.038887
30520,2.9241,0,0.05,2.253e-05,225.14,1.73e-05,129.99,-3.6131e-12,-2.7572e-14,-1.73e-05,-129.99,0.041655
30521,2.65,-3.6396e-31,0.1,0.00057808,5776.8,0.00057789,5771.4,-0.0001906,-2.8127,-0.0001913,-8.0573,0.033565
30522,2.7414,0,0.05,2.5621e-05,256.04,1.9674e-05,147.82,-3.6155e-12,-3.1355e-14,-1.9674e-05,-147.82,0.036142
30523,2.4672,-3.3885e-31,0.1,0.00058422,5838.1,0.00058397,5830.9,-0.00019249,-3.1214,-0.00019358,-11.349,0.028629
30524,2.5586,0,0.05,2.8976e-05,289.56,2.225e-05,167.18,-3.601e-12,1.3792e-07,-2.225e-05,-167.18,0.031012
30525,2.2845,-3.1375e-31,0.1,0.00059,5896,0.00058968,5886.5,-0.00019422,-3.4296,-0.00019582,-15.43,0.024082
30526,2.3759,0,0.05,3.2619e-05,325.97,2.5048e-05,188.2,-1.2554e-20,-3.992e-14,-2.5048e-05,-188.2,0.02627
30527,2.1017,-2.8865e-31,0.1,0.00059529,5948.8,0.00059488,5936.7,-0.00019575,-3.7557,-0.00019797,-20.448,0.019928
30528,2.1931,0,0.05,3.6584e-05,365.59,2.8092e-05,211.07,1.4129e-14,-4.4771e-14,-2.8092e-05,-211.07,0.021919
30529,1.919,-2.6355e-31,0.1,0.00059988,5994.7,0.00059936,5979.3,-0.00019699,-4.1105,-0.00019998,-26.603,0.01617
30530,2.0103,0,0.05,4.0907e-05,408.79,3.1411e-05,236.01,-3.6214e-12,-5.0062e-14,-3.1411e-05,-236.01,0.017962
30531,1.7362,-2.3845e-31,0.1,0.0006035,6030.8,0.00060283,6011.4,-0.00019784,-4.5055,-0.00020178,-34.168,0.01281
30532,1.8276,0,0.05,4.5635e-05,456.04,3.5042e-05,263.29,-2.9775e-20,1.0531e-07,-3.5042e-05,-263.29,0.014403
30533,1.5534,-2.1335e-31,0.1,0.00060574,6053.2,0.0006049,6028.9,-0.00019815,-4.9479,-0.00020328,-43.515,0.00985
30534,1.6448,0,0.05,5.0829e-05,507.94,3.903e-05,293.26,-7.27e-12,-6.2204e-14,-3.903e-05,-293.26,0.011242
30535,1.3707,-1.8825e-31,0.1,0.00060604,6056.2,0.00060499,6025.7,-0.00019771,-5.4689,-0.00020433,-55.194,0.0072908
30536,1.4621,0,0.05,5.6565e-05,565.26,4.3435e-05,326.35,1.1475e-14,-6.9224e-14,-4.3435e-05,-326.35,0.0084825
30537,1.1879,-1.6315e-31,0.1,0.00060355,6031.3,0.00060223,5993,-0.0001962,-6.0349,-0.00020471,-69.982,0.0051312
30538,1.2793,0,0.05,6.2948e-05,629.04,4.8336e-05,363.18,-3.6241e-12,9.283e-08,-4.8336e-05,-363.18,0.0061232
30539,1.0052,-1.3805e-31,0.1,0.00059691,5965,0.00059524,5916.5,-0.00019312,-6.8431,-0.00020409,-89.313,0.0033683
30540,1.0966,0,0.05,7.0132e-05,700.83,5.3852e-05,404.63,-3.6246e-12,-8.5827e-14,-5.3852e-05,-404.63,0.0041623
30541,0.82241,-1.1295e-31,0.1,0.0005839,5835,0.00058174,5772.8,-0.00018757,-7.4542,-0.00020192,-115.27,0.001996
30542,0.91379,0,0.05,7.8329e-05,782.75,6.0147e-05,451.92,-1.2758e-20,-9.5859e-14,-6.0147e-05,-451.92,0.0025954
30543,0.63966,-8.7851e-32,0.1,0.00056029,5599,0.00055739,5516.6,-0.000178,-8.8541,-0.00019721,-153.18,0.0010034
30544,0.73103,0,0.05,8.7969e-05,879.08,6.7549e-05,507.54,-1.4328e-20,8.1522e-08,-6.7549e-05,-507.54,0.0014142
30545,0.4569,-6.2751e-32,0.1,0.00051824,5178.8,0.00051406,5061.6,-0.00016139,-13.404,-0.00018823,-215.14,0.00037313
30546,0.54828,0,0.05,9.9645e-05,995.76,7.6515e-05,574.9,-7.2714e-12,7.6227e-08,-7.6515e-05,-574.9,0.00060395
30547,0.27414,-3.7651e-32,0.1,0.00043235,4320.5,0.00042584,4150.7,-0.00012399,19.495,-0.00017143,-336.9,8.2663e-05
30548,0.36552,0,0.05,0.00011538,1153,8.8599e-05,665.69,8.3327e-15,6.99e-08,-8.8599e-05,-665.69,0.00013933
30549,0.091379,-1.255e-32,0.1,0.00025574,2555.6,0.00022938,1938.1,-5.0932e-05,-168.06,-0.00014902,-905.02,2.8627e-05
30550,0.18276,0,0.05,0.00014669,1465.9,0.00011264,846.33,-3.638e-12,-9.5367e-06,-0.00011264,-846.33,2.6628e-05
30551,0,0,0.05,0.00019391,1937.8,0.0001489,1118.8,-3.0851e-13,9.0273e-05,-0.0001489,-1118.8,0
30552,0.091379,6,0.1,0.00025574,2555.6,0.00022938,1938.1,-5.0932e-05,-168.06,-0.00014902,-905.02,2.8627e-05
30553,5.2451e-14,6,0.05,0.00019391,1937.8,0.0001489,1118.8,-8.5476e-16,-2.3731e-13,-0.0001489,-1118.8,0
30554,0.27414,6,0.1,0.00043235,4320.5,0.00042584,4150.7,-0.00012399,19.495,-0.00017143,-336.9,8.2663e-05
30555,0.18276,6,0.05,0.00014669,1465.9,0.00011264,846.33,-2.3892e-20,-1.7952e-13,-0.00011264,-846.33,2.6628e-05
30556,0.4569,6,0.1,0.00051824,5178.8,0.00051406,5061.6,-0.00016139,-13.404,-0.00018823,-215.14,0.00037313
30557,0.36552,6,0.05,0.00011538,1153,8.8599e-05,665.69,-1.8793e-20,-6.99e-08,-8.8599e-05,-665.69,0.00013933
30558,0.63966,6,0.1,0.00056029,5599,0.00055739,5516.6,-0.000178,-8.8541,-0.00019721,-153.18,0.0010034
30559,0.54828,6,0.05,9.9645e-05,995.76,7.6515e-05,574.9,-1.623e-20,-1.2195e-13,-7.6515e-05,-574.9,0.00060395
30560,0.82241,6,0.1,0.0005839,5835,0.00058174,5772.8,-0.00018757,-7.4542,-0.00020192,-115.27,0.001996
30561,0.73103,6,0.05,8.7969e-05,879.08,6.7549e-05,507.54,-1.4328e-20,-1.0766e-13,-6.7549e-05,-507.54,0.0014142
30562,1.0052,6,0.1,0.00059691,5965,0.00059524,5916.5,-0.00019312,-6.8431,-0.00020409,-89.313,0.0033683
30563,0.91379,6,0.05,7.8329e-05,782.75,6.0147e-05,451.92,-1.2758e-20,-9.5859e-14,-6.0147e-05,-451.92,0.0025954
30564,1.1879,6,0.1,0.00060355,6031.3,0.00060223,5993,-0.0001962,-6.0349,-0.00020471,-69.982,0.0051312
30565,1.0966,6,0.05,7.0132e-05,700.83,5.3852e-05,404.63,-1.1423e-20,-8.5827e-14,-5.3852e-05,-404.63,0.0041623
30566,1.3707,6,0.1,0.00060604,6056.2,0.00060499,6025.7,-0.00019771,-5.4689,-0.00020433,-55.194,0.0072908
30567,1.2793,6,0.05,6.2948e-05,629.04,4.8336e-05,363.18,-1.0253e-20,-7.7036e-14,-4.8336e-05,-363.18,0.0061232
30568,1.5534,6,0.1,0.00060574,6053.2,0.0006049,6028.9,-0.00019815,-4.9479,-0.00020328,-43.515,0.00985
30569,1.4621,6,0.05,5.6565e-05,565.26,4.3435e-05,326.35,-9.2132e-21,-6.9224e-14,-4.3435e-05,-326.35,0.0084825
30570,1.7362,6,0.1,0.0006035,6030.8,0.00060283,6011.4,-0.00019784,-4.5055,-0.00020178,-34.168,0.01281
30571,1.6448,6,0.05,5.0829e-05,507.94,3.903e-05,293.26,-8.2789e-21,-6.2204e-14,-3.903e-05,-293.26,0.011242
30572,1.919,6,0.1,0.00059988,5994.7,0.00059936,5979.3,-0.00019699,-4.1105,-0.00019998,-26.603,0.01617
30573,1.8276,6,0.05,4.5635e-05,456.04,3.5042e-05,263.29,-7.433e-21,-5.5849e-14,-3.5042e-05,-263.29,0.014403
30574,2.1017,6,0.1,0.00059529,5948.8,0.00059488,5936.7,-0.00019575,-3.7557,-0.00019797,-20.448,0.019928
30575,2.0103,6,0.05,4.0907e-05,408.79,3.1411e-05,236.01,-6.6628e-21,-5.0062e-14,-3.1411e-05,-236.01,0.017962
30576,2.2845,6,0.1,0.00059,5896,0.00058968,5886.5,-0.00019422,-3.4296,-0.00019582,-15.43,0.024082
30577,2.1931,6,0.05,3.6584e-05,365.59,2.8092e-05,211.07,-5.9587e-21,-4.4771e-14,-2.8092e-05,-211.07,0.021919
30578,2.4672,6,0.1,0.00058422,5838.1,0.00058397,5830.9,-0.00019249,-3.1214,-0.00019358,-11.349,0.028629
30579,2.3759,6,0.05,3.2619e-05,325.97,2.5048e-05,188.2,-5.313e-21,-3.992e-14,-2.5048e-05,-188.2,0.02627
30580,2.65,6,0.1,0.00057808,5776.8,0.00057789,5771.4,-0.0001906,-2.8127,-0.0001913,-8.0573,0.033565
30581,2.5586,6,0.05,2.8976e-05,289.56,2.225e-05,167.18,-4.7195e-21,-3.5461e-14,-2.225e-05,-167.18,0.031012
30582,2.8328,6,0.1,0.0005717,5713.1,0.00057157,5709.1,-0.0001886,-2.4559,-0.000189,-5.4718,0.038887
30583,2.7414,6,0.05,2.5621e-05,256.04,1.9674e-05,147.82,-4.1731e-21,-3.1355e-14,-1.9674e-05,-147.82,0.036142
30584,3.0155,6,0.1,0.00056517,5647.8,0.00056507,5645,-0.00018648,-1.8733,-0.00018672,-3.6635,0.04459
30585,2.9241,6,0.05,2.253e-05,225.14,1.73e-05,129.99,-3.6696e-21,-2.7572e-14,-1.73e-05,-129.99,0.041655
30586,3.1983,6,0.1,0.00055854,5581.5,0.00055848,5579.7,-0.00018425,-0.8126,-0.00018451,-2.7972,0.050671
30587,3.1069,6,0.05,1.9678e-05,196.65,1.511e-05,113.53,-3.2052e-21,-2.4082e-14,-1.511e-05,-113.53,0.047548
30588,3.381,6,0.1,0.00055185,5514.7,0.00055182,5513.7,-0.00018196,0.34461,-0.00018233,-2.4185,0.057124
30589,3.2897,6,0.05,1.7047e-05,170.36,1.309e-05,98.356,-2.7767e-21,-2.0863e-14,-1.309e-05,-98.356,0.053816
30590,3.5638,6,0.1,0.00054515,5447.7,0.00054513,5447.3,-0.00017968,1.3059,-0.00018015,-2.1735,0.063947
30591,3.4724,6,0.05,1.462e-05,146.1,1.1226e-05,84.349,-2.3812e-21,3.4415e-07,-1.1226e-05,-84.349,0.060455
30592,3.7466,6,0.1,0.00053845,5380.8,0.00053845,5380.8,-0.00017742,2.039,-0.00017795,-1.9781,0.071134
30593,3.6552,6,0.05,1.238e-05,123.72,9.5063e-06,71.427,-2.0164e-21,-1.5151e-14,-9.5063e-06,-71.427,0.067461
30594,3.9293,6,0.1,0.00053177,5314.1,0.00053179,5314.5,-0.00017518,2.5652,-0.00017576,-1.8092,0.078681
30595,3.8379,6,0.05,1.0314e-05,103.07,7.9202e-06,59.509,-1.68e-21,-1.2623e-14,-7.9202e-06,-59.509,0.074829
30596,4.1121,6,0.1,0.00052513,5247.7,0.00052515,5248.3,-0.00017297,2.9133,-0.00017358,-1.658,0.086583
30597,4.0207,6,0.05,8.4106e-06,84.048,6.4583e-06,48.525,-1.3699e-21,-1.0293e-14,-6.4583e-06,-48.525,0.082554
30598,4.2948,6,0.1,0.00051853,5181.7,0.00051856,5182.5,-0.00017078,3.1114,-0.0001714,-1.5202,0.094837
30599,4.2034,6,0.05,6.6576e-06,66.53,5.1122e-06,38.411,-1.0844e-21,-8.1476e-15,-5.1122e-06,-38.411,0.090633
30600,4.4776,6,0.1,0.00051198,5116.2,0.00051201,5117.1,-0.00016862,3.1847,-0.00016923,-1.3933,0.10344
30601,4.3862,6,0.05,5.0457e-06,50.422,3.8745e-06,29.111,-8.2183e-22,3.8447e-07,-3.8745e-06,-29.111,0.099061
30602,4.6603,6,0.1,0.00050547,5051.2,0.0005055,5052.1,-0.00016648,3.1552,-0.00016707,-1.2756,0.11238
30603,4.569,6,0.05,3.5665e-06,35.64,2.7386e-06,20.577,-5.809e-22,4.1184e-07,-2.7386e-06,-20.577,0.10783
30604,4.8431,6,0.1,0.00049901,4986.6,0.00049904,4987.6,-0.00016436,3.0419,-0.00016492,-1.1657,0.12166
30605,4.7517,6,0.05,2.2146e-06,22.131,1.7005e-06,12.777,-3.6071e-22,4.0549e-07,-1.7005e-06,-12.777,0.11695
30606,5.0259,6,0.1,0.00049258,4922.4,0.00049261,4923.3,-0.00016226,2.8611,-0.00016278,-1.0624,0.13128
30607,4.9345,6,0.05,9.9809e-07,9.974,7.6641e-07,5.7585,-3.6373e-14,6.7405e-07,-7.6641e-07,-5.7585,0.12639
30608,5.2086,6,0.1,0.0004862,4858.6,0.00048623,4859.5,-0.00016018,2.6268,-0.00016066,-0.9648,0.14122
30609,5.1172,6,0.05,3.6677e-07,3.6652,2.8164e-07,2.1161,-5.974e-23,9.4737e-08,-2.8164e-07,-2.1161,0.13617
30610,5.3914,6,0.1,0.00047984,4795.1,0.00047987,4795.8,-0.00015811,2.3508,-0.00015854,-0.87189,0.15149
30611,5.3,6,0.05,1.2611e-06,12.602,9.6834e-07,7.2757,-2.054e-22,4.5328e-07,-9.6834e-07,-7.2757,0.14628
30612,5.5741,6,0.1,0.0004735,4731.8,0.00047352,4732.4,-0.00015605,2.0431,-0.00015642,-0.78272,0.16208
30613,5.4828,6,0.05,2.1779e-06,21.764,1.6724e-06,12.566,-3.5474e-22,5.8804e-07,-1.6724e-06,-12.566,0.15671
30614,5.7569,6,0.1,0.00046717,4668.5,0.00046719,4669,-0.00015399,1.7122,-0.00015431,-0.69629,0.17298
30615,5.6655,6,0.05,3.0107e-06,30.086,2.3118e-06,17.37,-4.9038e-22,3.6756e-07,-2.3118e-06,-17.37,0.16746
30616,5.9397,6,0.1,0.00046083,4605.1,0.00046084,4605.5,-0.00015193,1.3651,-0.00015219,-0.61159,0.1842
30617,5.8483,6,0.05,3.7546e-06,37.52,2.8831e-06,21.662,6.015e-15,1.4265e-06,-2.8831e-06,-21.662,0.17852
30618,6.1224,6,0.1,0.00045446,4541.4,0.00045447,4541.7,-0.00014986,1.0077,-0.00015006,-0.52751,0.19573
30619,6.031,6,0.05,4.4099e-06,44.068,3.3862e-06,25.443,-7.1827e-22,7.3637e-07,-3.3862e-06,-25.443,0.1899
30620,6.3052,6,0.1,0.00044803,4477.3,0.00044804,4477.4,-0.00014778,0.64502,-0.00014792,-0.44286,0.20756
30621,6.2138,6,0.05,4.9766e-06,49.732,3.8214e-06,28.713,-8.1058e-22,-2.4178e-07,-3.8214e-06,-28.713,0.20158
30622,6.4879,6,0.1,0.00044153,4412.3,0.00044153,4412.2,-0.00014566,0.28086,-0.00014575,-0.35635,0.21969
30623,6.3966,6,0.05,5.4541e-06,54.504,4.1881e-06,31.468,4.9631e-15,8.9364e-07,-4.1881e-06,-31.468,0.21356
30624,6.6707,6,0.1,0.00043491,4346.1,0.00043491,4346,-0.00014351,-0.081648,-0.00014354,-0.26658,0.23212
30625,6.5793,6,0.05,5.8407e-06,58.366,4.4849e-06,33.698,3.5422e-15,7.1508e-07,-4.4849e-06,-33.698,0.22584
30626,6.8534,6,0.1,0.00042813,4278.4,0.00042812,4278.1,-0.00014128,-0.17197,-0.00014131,-0.4403,0.24483
30627,6.7621,6,0.05,6.1331e-06,61.289,4.7095e-06,35.385,-9.9895e-22,7.7478e-07,-4.7095e-06,-35.385,0.23841
30628,7.0362,6,0.1,0.00042114,4208.5,0.00042112,4208.1,-0.00013894,-0.070937,-0.00013904,-0.79376,0.25783
30629,6.9448,6,0.05,6.3268e-06,63.225,4.8582e-06,36.503,-1.0305e-21,8.2548e-07,-4.8582e-06,-36.503,0.25127
30630,7.219,6,0.1,0.00041386,4135.8,0.00041384,4135.2,-0.00013652,0.038268,-0.00013667,-1.1419,0.27111
30631,7.1276,6,0.05,6.4157e-06,64.113,4.9265e-06,37.016,-1.045e-21,7.1661e-07,-4.9265e-06,-37.016,0.26441
30632,7.4017,6,0.1,0.00040622,4059.4,0.0004062,4058.8,-0.00013397,0.15736,-0.00013419,-1.4859,0.28467
30633,7.3103,6,0.05,6.3919e-06,63.875,4.9082e-06,36.878,-1.5002e-15,7.8741e-07,-4.9082e-06,-36.878,0.27783
30634,7.5845,6,0.1,0.00039811,3978.4,0.00039809,3977.6,-0.00013126,0.28797,-0.00013154,-1.829,0.2985
30635,7.4931,6,0.05,6.2462e-06,62.419,4.7963e-06,36.037,-3.0464e-15,9.8754e-07,-4.7963e-06,-36.037,0.29153
30636,7.7672,6,0.1,0.00038942,3891.5,0.00038939,3890.6,-0.00012836,0.43136,-0.00012871,-2.1769,0.3126
30637,7.6759,6,0.05,5.9676e-06,59.635,4.5824e-06,34.43,4.942e-15,9.9468e-07,-4.5824e-06,-34.43,0.30549
30638,7.95,6,0.1,0.00037997,3797.1,0.00037994,3796.1,-0.00012522,0.58818,-0.00012563,-2.5389,0.32696
30639,7.8586,6,0.05,5.5444e-06,55.405,4.2574e-06,31.988,-9.0305e-22,1.0122e-06,-4.2574e-06,-31.988,0.31972
30640,8.1328,6,0.1,0.0003696,3693.4,0.00036956,3692.4,-0.00012176,0.75797,-0.00012225,-2.9287,0.34156
30641,8.0414,6,0.05,4.9644e-06,49.61,3.812e-06,28.642,-5.4241e-15,1.1299e-06,-3.812e-06,-28.642,0.3342
30642,8.3155,6,0.1,0.00035808,3578.3,0.00035804,3577.1,-0.00011792,0.93841,-0.00011849,-3.3661,0.35642
30643,8.2241,6,0.05,4.2168e-06,42.139,3.238e-06,24.329,-2.8451e-14,1.0163e-06,-3.238e-06,-24.329,0.34894
30644,8.4983,6,0.1,0.00034515,3449.1,0.0003451,3447.7,-0.00011361,1.1244,-0.00011428,-3.8777,0.37152
30645,8.4069,6,0.05,3.2946e-06,32.923,2.5298e-06,19.008,-5.3662e-22,1.413e-06,-2.5298e-06,-19.008,0.36391
30646,8.681,6,0.1,0.0003305,3302.7,0.00033045,3301.1,-0.00010873,1.3069,-0.00010951,-4.4976,0.38684
30647,8.5897,6,0.05,2.202e-06,22.005,1.6908e-06,12.704,-2.9975e-13,9.3953e-07,-1.6908e-06,-12.704,0.37912
30648,8.8638,6,0.1,0.0003138,3135.8,0.00031373,3133.9,-0.00010317,1.4713,-0.00010407,-5.2658,0.40239
30649,8.7724,6,0.05,9.9933e-07,9.9864,7.6736e-07,5.7657,-1.8656e-12,6.6063e-07,-7.6737e-07,-5.7657,0.39456
30650,9.0466,6,0.1,0.00029467,2944.6,0.00029459,2942.3,-9.6798e-05,1.5954,-9.7839e-05,-6.2246,0.41814
30651,8.9552,6,0.05,8.0954e-07,8.0898,6.2162e-07,4.6706,-1.3186e-22,6.8578e-07,-6.2162e-07,-4.6706,0.41021
30652,9.2293,6,0.1,0.00027272,2725.3,0.00027262,2722.4,-8.9491e-05,1.6493,-9.0697e-05,-7.4076,0.43409
30653,9.1379,6,0.05,2.2335e-06,22.32,1.7151e-06,12.886,-3.6379e-22,1.1052e-06,-1.7151e-06,-12.886,0.42607
30654,9.4121,6,0.1,0.00024758,2474.1,0.00024746,2470.5,-8.1132e-05,1.5912,-8.2518e-05,-8.8222,0.45022
30655,9.3207,6,0.05,3.8041e-06,38.015,2.9211e-06,21.948,1.5063e-12,3.1735e-07,-2.9211e-06,-21.948,0.44211
30656,9.5948,6,0.1,0.00021896,2188.1,0.00021881,2183.6,-7.1626e-05,1.385,-7.3195e-05,-10.41,0.46652
30657,9.5034,6,0.05,5.3067e-06,53.03,4.0749e-06,30.617,-8.6434e-22,1.6486e-06,-4.0749e-06,-30.617,0.45833
30658,9.7776,6,0.1,0.00018668,1865.5,0.00018649,1860,-6.093e-05,0.949,-6.2655e-05,-12.011,0.48296
30659,9.6862,6,0.05,6.5528e-06,65.483,5.0317e-06,37.807,1.8089e-12,1.4226e-06,-5.0317e-06,-37.807,0.4747
30660,9.9603,6,0.1,0.00015073,1506.2,0.0001505,1499.8,-4.9049e-05,0.41808,-5.0862e-05,-13.2,0.49953
30661,9.869,6,0.05,7.2971e-06,72.921,5.6033e-06,42.101,9.0802e-13,1.5817e-06,-5.6033e-06,-42.101,0.49121
30662,10.143,6,0.1,0.00011125,1111.7,0.000111,1104.6,-3.612e-05,-0.8373,-3.7785e-05,-13.347,0.51619
30663,10.052,6,0.05,7.1879e-06,71.83,5.5194e-06,41.471,-1.1708e-21,1.4478e-06,-5.5194e-06,-41.471,0.50783
30664,10.326,6,0.1,6.8003e-05,679.56,6.7796e-05,673.65,-2.1783e-05,0.59169,-2.3489e-05,-12.228,0.53293
30665,10.234,6,0.05,5.8438e-06,58.398,4.4873e-06,33.716,-9.5183e-22,1.5196e-06,-4.4873e-06,-33.716,0.52453
30666,10.509,6,0.1,2.3429e-05,234.12,2.3556e-05,239.07,-6.2108e-06,15.415,-8.8323e-06,-4.2824,0.54971
30667,10.417,6,0.05,1.971e-06,19.696,1.5135e-06,11.372,-4.5442e-22,5.3203e-06,-1.5135e-06,-11.372,0.5413
30668,10.6,6,0.05,4.2048e-06,42.019,3.2288e-06,24.26,-2.9199e-13,-4.6983e-08,-3.2288e-06,-24.26,0.55809
30669,10.326,6,0,6.8003e-05,679.56,2.3489e-05,12.228,2.1783e-05,-0.59169,-6.7796e-05,-673.65,0.53293
30670,10.509,6,0,2.3429e-05,234.12,8.8323e-06,4.2824,6.2108e-06,-15.415,-2.3556e-05,-239.07,0.54971
30671,10.143,6,0,0.00011125,1111.7,3.7785e-05,13.347,3.612e-05,0.8373,-0.000111,-1104.6,0.51619
30672,9.9603,6,0,0.00015073,1506.2,5.0862e-05,13.2,4.9049e-05,-0.41808,-0.0001505,-1499.8,0.49953
30673,9.7776,6,0,0.00018668,1865.5,6.2655e-05,12.011,6.093e-05,-0.949,-0.00018649,-1860,0.48296
30674,9.5948,6,0,0.00021896,2188.1,7.3195e-05,10.41,7.1626e-05,-1.385,-0.00021881,-2183.6,0.46652
30675,9.4121,6,0,0.00024758,2474.1,8.2518e-05,8.8222,8.1132e-05,-1.5912,-0.00024746,-2470.5,0.45022
30676,9.2293,6,0,0.00027272,2725.3,9.0697e-05,7.4076,8.9491e-05,-1.6493,-0.00027262,-2722.4,0.43409
30677,9.0466,6,0,0.00029467,2944.6,9.7839e-05,6.2246,9.6798e-05,-1.5954,-0.00029459,-2942.3,0.41814
30678,8.8638,6,0,0.0003138,3135.8,0.00010407,5.2658,0.00010317,-1.4713,-0.00031373,-3133.9,0.40239
30679,8.681,6,0,0.0003305,3302.7,0.00010951,4.4976,0.00010873,-1.3069,-0.00033045,-3301.1,0.38684
30680,8.4983,6,0,0.00034515,3449.1,0.00011428,3.8777,0.00011361,-1.1244,-0.0003451,-3447.7,0.37152
30681,8.3155,6,0,0.00035808,3578.3,0.00011849,3.3661,0.00011792,-0.93841,-0.00035804,-3577.1,0.35642
30682,8.1328,6,0,0.0003696,3693.4,0.00012225,2.9287,0.00012176,-0.75797,-0.00036956,-3692.4,0.34156
30683,7.95,6,0,0.00037997,3797.1,0.00012563,2.5389,0.00012522,-0.58818,-0.00037994,-3796.1,0.32696
30684,7.7672,6,0,0.00038942,3891.5,0.00012871,2.1769,0.00012836,-0.43136,-0.00038939,-3890.6,0.3126
30685,7.5845,6,0,0.00039811,3978.4,0.00013154,1.829,0.00013126,-0.28797,-0.00039809,-3977.6,0.2985
30686,7.4017,6,0,0.00040622,4059.4,0.00013419,1.4859,0.00013397,-0.15736,-0.0004062,-4058.8,0.28467
30687,7.219,6,0,0.00041386,4135.8,0.00013667,1.1419,0.00013652,-0.038267,-0.00041384,-4135.2,0.27111
30688,7.0362,6,0,0.00042114,4208.5,0.00013904,0.79376,0.00013894,0.070937,-0.00042112,-4208.1,0.25783
30689,6.8534,6,0,0.00042813,4278.4,0.00014131,0.44031,0.00014128,0.17197,-0.00042812,-4278.1,0.24483
30690,6.6707,6,0,0.00043491,4346.1,0.00014354,0.26658,0.00014351,0.081649,-0.00043491,-4346,0.23212
30691,6.4879,6,0,0.00044153,4412.3,0.00014575,0.35635,0.00014566,-0.28086,-0.00044153,-4412.2,0.21969
30692,6.3052,6,0,0.00044803,4477.3,0.00014792,0.44286,0.00014778,-0.64502,-0.00044804,-4477.4,0.20756
30693,6.1224,6,0,0.00045446,4541.4,0.00015006,0.52751,0.00014986,-1.0077,-0.00045447,-4541.7,0.19573
30694,5.9397,6,0,0.00046083,4605.1,0.00015219,0.61159,0.00015193,-1.3651,-0.00046084,-4605.5,0.1842
30695,5.7569,6,0,0.00046717,4668.5,0.00015431,0.69629,0.00015399,-1.7122,-0.00046719,-4669,0.17298
30696,5.5741,6,0,0.0004735,4731.8,0.00015642,0.78272,0.00015605,-2.0431,-0.00047352,-4732.4,0.16208
30697,5.3914,6,0,0.00047984,4795.1,0.00015854,0.87189,0.00015811,-2.3508,-0.00047987,-4795.8,0.15149
30698,5.2086,6,0,0.0004862,4858.6,0.00016066,0.9648,0.00016018,-2.6268,-0.00048623,-4859.5,0.14122
30699,5.0259,6,0,0.00049258,4922.4,0.00016278,1.0624,0.00016226,-2.8611,-0.00049261,-4923.3,0.13128
30700,4.8431,6,0,0.00049901,4986.6,0.00016492,1.1657,0.00016436,-3.0419,-0.00049904,-4987.6,0.12166
30701,4.6603,6,0,0.00050547,5051.2,0.00016707,1.2756,0.00016648,-3.1552,-0.0005055,-5052.1,0.11238
30702,4.4776,6,0,0.00051198,5116.2,0.00016923,1.3933,0.00016862,-3.1847,-0.00051201,-5117.1,0.10344
30703,4.2948,6,0,0.00051853,5181.7,0.0001714,1.5202,0.00017078,-3.1114,-0.00051856,-5182.5,0.094837
30704,4.1121,6,0,0.00052513,5247.7,0.00017358,1.658,0.00017297,-2.9133,-0.00052515,-5248.3,0.086583
30705,3.9293,6,0,0.00053177,5314.1,0.00017576,1.8092,0.00017518,-2.5652,-0.00053179,-5314.5,0.078681
30706,3.7466,6,0,0.00053845,5380.8,0.00017795,1.9781,0.00017742,-2.039,-0.00053845,-5380.8,0.071134
30707,3.5638,6,0,0.00054515,5447.7,0.00018015,2.1735,0.00017968,-1.3059,-0.00054513,-5447.3,0.063947
30708,3.381,6,0,0.00055185,5514.7,0.00018233,2.4185,0.00018196,-0.34461,-0.00055182,-5513.7,0.057124
30709,3.1983,6,0,0.00055854,5581.5,0.00018451,2.7972,0.00018425,0.8126,-0.00055848,-5579.7,0.050671
30710,3.0155,6,0,0.00056517,5647.8,0.00018672,3.6635,0.00018648,1.8733,-0.00056507,-5645,0.04459
30711,2.8328,6,0,0.0005717,5713.1,0.000189,5.4718,0.0001886,2.4559,-0.00057157,-5709.1,0.038887
30712,2.65,6,0,0.00057808,5776.8,0.0001913,8.0573,0.0001906,2.8127,-0.00057789,-5771.4,0.033565
30713,2.4672,6,0,0.00058422,5838.1,0.00019358,11.349,0.00019249,3.1214,-0.00058397,-5830.9,0.028629
30714,2.2845,6,0,0.00059,5896,0.00019582,15.43,0.00019422,3.4296,-0.00058968,-5886.5,0.024082
30715,2.1017,6,0,0.00059529,5948.8,0.00019797,20.448,0.00019575,3.7557,-0.00059488,-5936.7,0.019928
30716,1.919,6,0,0.00059988,5994.7,0.00019998,26.603,0.00019699,4.1105,-0.00059936,-5979.3,0.01617
30717,1.7362,6,0,0.0006035,6030.8,0.00020178,34.168,0.00019784,4.5055,-0.00060283,-6011.4,0.01281
30718,1.5534,6,0,0.00060574,6053.2,0.00020328,43.515,0.00019815,4.9479,-0.0006049,-6028.9,0.00985
30719,1.3707,6,0,0.00060604,6056.2,0.00020433,55.194,0.00019771,5.4689,-0.00060499,-6025.7,0.0072908
30720,1.1879,6,0,0.00060355,6031.3,0.00020471,69.982,0.0001962,6.0349,-0.00060223,-5993,0.0051312
30721,1.0052,6,0,0.00059691,5965,0.00020409,89.313,0.00019312,6.8431,-0.00059524,-5916.5,0.0033683
30722,0.82241,6,0,0.0005839,5835,0.00020192,115.27,0.00018757,7.4542,-0.00058174,-5772.8,0.001996
30723,0.63966,6,0,0.00056029,5599,0.00019721,153.18,0.000178,8.8541,-0.00055739,-5516.6,0.0010034
30724,0.4569,6,0,0.00051824,5178.8,0.00018823,215.14,0.00016139,13.404,-0.00051406,-5061.6,0.00037313
30725,0.27414,6,0,0.00043235,4320.5,0.00017143,336.9,0.00012399,-19.495,-0.00042584,-4150.7,8.2663e-05
30726,0.091379,6,0,0.00025574,2555.6,0.00014902,905.02,5.0932e-05,168.06,-0.00022938,-1938.1,2.8627e-05
30727,10.6,5.9091,0,1.8686e-05,186.73,7.8574e-06,22.791,5.3332e-06,3.8249,-1.8161e-05,-172.7,0.55888
30728,5.1657e-14,5.9091,0,0.00013948,1393.8,7.4544e-05,149.64,4.8782e-06,-373.8,-0.00013571,-1430.1,0
30729,0.27414,-3.7651e-32,0,0.00043235,4320.5,0.00017143,336.9,0.00012399,-19.495,-0.00042584,-4150.7,8.2663e-05
30730,0.091379,-1.255e-32,0,0.00025574,2555.6,0.00014902,905.02,5.0932e-05,168.06,-0.00022938,-1938.1,2.8627e-05
30731,0.4569,-6.2751e-32,0,0.00051824,5178.8,0.00018823,215.14,0.00016139,13.404,-0.00051406,-5061.6,0.00037313
30732,0.63966,-8.7851e-32,0,0.00056029,5599,0.00019721,153.18,0.000178,8.8541,-0.00055739,-5516.6,0.0010034
30733,0.82241,-1.1295e-31,0,0.0005839,5835,0.00020192,115.27,0.00018757,7.4542,-0.00058174,-5772.8,0.001996
30734,1.0052,-1.3805e-31,0,0.00059691,5965,0.00020409,89.313,0.00019312,6.8431,-0.00059524,-5916.5,0.0033683
30735,1.1879,-1.6315e-31,0,0.00060355,6031.3,0.00020471,69.982,0.0001962,6.0349,-0.00060223,-5993,0.0051312
30736,1.3707,-1.8825e-31,0,0.00060604,6056.2,0.00020433,55.194,0.00019771,5.4689,-0.00060499,-6025.7,0.0072908
30737,1.5534,-2.1335e-31,0,0.00060574,6053.2,0.00020328,43.515,0.00019815,4.9479,-0.0006049,-6028.9,0.00985
30738,1.7362,-2.3845e-31,0,0.0006035,6030.8,0.00020178,34.168,0.00019784,4.5055,-0.00060283,-6011.4,0.01281
30739,1.919,-2.6355e-31,0,0.00059988,5994.7,0.00019998,26.603,0.00019699,4.1105,-0.00059936,-5979.3,0.01617
30740,2.1017,-2.8865e-31,0,0.00059529,5948.8,0.00019797,20.448,0.00019575,3.7557,-0.00059488,-5936.7,0.019928
30741,2.2845,-3.1375e-31,0,0.00059,5896,0.00019582,15.43,0.00019422,3.4296,-0.00058968,-5886.5,0.024082
30742,2.4672,-3.3885e-31,0,0.00058422,5838.1,0.00019358,11.349,0.00019249,3.1214,-0.00058397,-5830.9,0.028629
30743,2.65,-3.6396e-31,0,0.00057808,5776.8,0.0001913,8.0573,0.0001906,2.8127,-0.00057789,-5771.4,0.033565
30744,2.8328,-3.8906e-31,0,0.0005717,5713.1,0.000189,5.4718,0.0001886,2.4559,-0.00057157,-5709.1,0.038887
30745,3.0155,-4.1416e-31,0,0.00056517,5647.8,0.00018672,3.6635,0.00018648,1.8733,-0.00056507,-5645,0.04459
30746,3.1983,-4.3926e-31,0,0.00055854,5581.5,0.00018451,2.7972,0.00018425,0.8126,-0.00055848,-5579.7,0.050671
30747,3.381,-4.6436e-31,0,0.00055185,5514.7,0.00018233,2.4185,0.00018196,-0.34461,-0.00055182,-5513.7,0.057124
30748,3.5638,-4.8946e-31,0,0.00054515,5447.7,0.00018015,2.1735,0.00017968,-1.3059,-0.00054513,-5447.3,0.063947
30749,3.7466,-5.1456e-31,0,0.00053845,5380.8,0.00017795,1.9781,0.00017742,-2.039,-0.00053845,-5380.8,0.071134
30750,3.9293,-5.3966e-31,0,0.00053177,5314.1,0.00017576,1.8092,0.00017518,-2.5652,-0.00053179,-5314.5,0.078681
30751,4.1121,-5.6476e-31,0,0.00052513,5247.7,0.00017358,1.658,0.00017297,-2.9133,-0.00052515,-5248.3,0.086583
30752,4.2948,-5.8986e-31,0,0.00051853,5181.7,0.0001714,1.5202,0.00017078,-3.1114,-0.00051856,-5182.5,0.094837
30753,4.4776,-6.1496e-31,0,0.00051198,5116.2,0.00016923,1.3933,0.00016862,-3.1847,-0.00051201,-5117.1,0.10344
30754,4.6603,-6.4006e-31,0,0.00050547,5051.2,0.00016707,1.2756,0.00016648,-3.1552,-0.0005055,-5052.1,0.11238
30755,4.8431,-6.6516e-31,0,0.00049901,4986.6,0.00016492,1.1657,0.00016436,-3.0419,-0.00049904,-4987.6,0.12166
30756,5.0259,-6.9026e-31,0,0.00049258,4922.4,0.00016278,1.0624,0.00016226,-2.8611,-0.00049261,-4923.3,0.13128
30757,5.2086,-7.1536e-31,0,0.0004862,4858.6,0.00016066,0.9648,0.00016018,-2.6268,-0.00048623,-4859.5,0.14122
30758,5.3914,-7.4046e-31,0,0.00047984,4795.1,0.00015854,0.87189,0.00015811,-2.3508,-0.00047987,-4795.8,0.15149
30759,5.5741,-7.6556e-31,0,0.0004735,4731.8,0.00015642,0.78272,0.00015605,-2.0431,-0.00047352,-4732.4,0.16208
30760,5.7569,-7.9066e-31,0,0.00046717,4668.5,0.00015431,0.69629,0.00015399,-1.7122,-0.00046719,-4669,0.17298
30761,5.9397,-8.1576e-31,0,0.00046083,4605.1,0.00015219,0.61159,0.00015193,-1.3651,-0.00046084,-4605.5,0.1842
30762,6.1224,-8.4086e-31,0,0.00045446,4541.4,0.00015006,0.52751,0.00014986,-1.0077,-0.00045447,-4541.7,0.19573
30763,6.3052,-8.6596e-31,0,0.00044803,4477.3,0.00014792,0.44286,0.00014778,-0.64502,-0.00044804,-4477.4,0.20756
30764,6.4879,-8.9106e-31,0,0.00044153,4412.3,0.00014575,0.35635,0.00014566,-0.28086,-0.00044153,-4412.2,0.21969
30765,6.6707,-9.1616e-31,0,0.00043491,4346.1,0.00014354,0.26658,0.00014351,0.08165,-0.00043491,-4346,0.23212
30766,6.8534,-9.4126e-31,0,0.00042813,4278.4,0.00014131,0.44031,0.00014128,0.17197,-0.00042812,-4278.1,0.24483
30767,7.0362,-9.6636e-31,0,0.00042114,4208.5,0.00013904,0.79376,0.00013894,0.070937,-0.00042112,-4208.1,0.25783
30768,7.219,-9.9146e-31,0,0.00041386,4135.8,0.00013667,1.1419,0.00013652,-0.038267,-0.00041384,-4135.2,0.27111
30769,7.4017,-1.0166e-30,0,0.00040622,4059.4,0.00013419,1.4859,0.00013397,-0.15736,-0.0004062,-4058.8,0.28467
30770,7.5845,-1.0417e-30,0,0.00039811,3978.4,0.00013154,1.829,0.00013126,-0.28797,-0.00039809,-3977.6,0.2985
30771,7.7672,-1.0668e-30,0,0.00038942,3891.5,0.00012871,2.1769,0.00012836,-0.43136,-0.00038939,-3890.6,0.3126
30772,7.95,-1.0919e-30,0,0.00037997,3797.1,0.00012563,2.5389,0.00012522,-0.58818,-0.00037994,-3796.1,0.32696
30773,8.1328,-1.117e-30,0,0.0003696,3693.4,0.00012225,2.9287,0.00012176,-0.75797,-0.00036956,-3692.4,0.34156
30774,8.3155,-1.1421e-30,0,0.00035808,3578.3,0.00011849,3.3661,0.00011792,-0.93841,-0.00035804,-3577.1,0.35642
30775,8.4983,-1.1672e-30,0,0.00034515,3449.1,0.00011428,3.8777,0.00011361,-1.1244,-0.0003451,-3447.7,0.37152
30776,8.681,-1.1923e-30,0,0.0003305,3302.7,0.00010951,4.4976,0.00010873,-1.3069,-0.00033045,-3301.1,0.38684
30777,8.8638,-1.2174e-30,0,0.0003138,3135.8,0.00010407,5.2658,0.00010317,-1.4713,-0.00031373,-3133.9,0.40239
30778,9.0466,-1.2425e-30,0,0.00029467,2944.6,9.7839e-05,6.2246,9.6798e-05,-1.5954,-0.00029459,-2942.3,0.41814
30779,9.2293,-1.2676e-30,0,0.00027272,2725.3,9.0697e-05,7.4076,8.9491e-05,-1.6493,-0.00027262,-2722.4,0.43409
30780,9.4121,-1.2927e-30,0,0.00024758,2474.1,8.2518e-05,8.8222,8.1132e-05,-1.5912,-0.00024746,-2470.5,0.45022
30781,9.5948,-1.3178e-30,0,0.00021896,2188.1,7.3195e-05,10.41,7.1626e-05,-1.385,-0.00021881,-2183.6,0.46652
30782,9.7776,-1.3429e-30,0,0.00018668,1865.5,6.2655e-05,12.011,6.093e-05,-0.949,-0.00018649,-1860,0.48296
30783,9.9603,-1.368e-30,0,0.00015073,1506.2,5.0862e-05,13.2,4.9049e-05,-0.41808,-0.0001505,-1499.8,0.49953
30784,10.143,-1.3931e-30,0,0.00011125,1111.7,3.7785e-05,13.347,3.612e-05,0.83731,-0.000111,-1104.6,0.51619
30785,10.326,-1.4182e-30,0,6.8003e-05,679.56,2.3489e-05,12.228,2.1783e-05,-0.59168,-6.7796e-05,-673.65,0.53293
30786,10.509,-1.4433e-30,0,2.3429e-05,234.12,8.8323e-06,4.2824,6.2108e-06,-15.415,-2.3556e-05,-239.07,0.54971
30787,10.6,0.090909,0,1.8686e-05,186.73,7.8574e-06,22.791,5.3332e-06,3.8249,-1.8161e-05,-172.7,0.55888
30788,7.9472e-16,0.090909,0,0.00013948,1393.8,7.4544e-05,149.64,4.8782e-06,-373.8,-0.00013571,-1430.1,0
30789,11.042,0,0,5.7403e-05,573.64,2.0139e-05,14.547,1.8243e-05,0.30049,-5.7137e-05,-566.08,0.61492
30790,10.859,0,0,2.012e-05,201.06,7.6825e-06,4.7509,5.2593e-06,-13.456,-2.0206e-05,-204.79,0.59242
30791,11.226,0,0,9.1928e-05,918.65,3.173e-05,17.625,2.9587e-05,1.5219,-9.1592e-05,-908.97,0.63747
30792,11.41,0,0,0.00012196,1218.7,4.1778e-05,18.625,3.9354e-05,0.41497,-0.00012162,-1209.1,0.66007
30793,11.594,0,0,0.00014785,1477.5,5.0292e-05,17.963,4.7894e-05,-0.053886,-0.00014754,-1468.5,0.68275
30794,11.778,0,0,0.00016962,1695,5.7364e-05,16.401,5.5122e-05,-0.44107,-0.00016934,-1687,0.70553
30795,11.961,0,0,0.00018742,1872.9,6.3089e-05,14.506,6.1074e-05,-0.63669,-0.00018717,-1865.9,0.72843
30796,12.145,0,0,0.00020154,2014,6.7595e-05,12.577,6.5826e-05,-0.713,-0.00020134,-2008.1,0.75145
30797,12.329,0,0,0.00021239,2122.5,7.1025e-05,10.782,6.9496e-05,-0.70174,-0.00021222,-2117.4,0.7746
30798,12.513,0,0,0.00022039,2202.4,7.353e-05,9.1982,7.222e-05,-0.63829,-0.00022025,-2198.1,0.7979
30799,12.697,0,0,0.00022597,2258.2,7.5253e-05,7.8516,7.4136e-05,-0.54719,-0.00022585,-2254.5,0.82134
30800,12.88,0,0,0.00022953,2293.7,7.6328e-05,6.7379,7.5372e-05,-0.44581,-0.00022942,-2290.5,0.84494
30801,13.064,0,0,0.00023141,2312.5,7.6871e-05,5.8392,7.6048e-05,-0.34521,-0.00023132,-2309.8,0.86869
30802,13.248,0,0,0.00023194,2317.8,7.698e-05,5.1314,7.6264e-05,-0.25193,-0.00023185,-2315.3,0.8926
30803,13.432,0,0,0.00023136,2312,7.6741e-05,4.59,7.6108e-05,-0.16934,-0.00023129,-2309.8,0.91667
30804,13.616,0,0,0.0002299,2297.5,7.6223e-05,4.1917,7.5652e-05,-0.098788,-0.00022983,-2295.4,0.94089
30805,13.799,0,0,0.00022774,2275.9,7.5484e-05,3.9155,7.4958e-05,-0.04033,-0.00022768,-2273.9,0.96526
30806,13.983,0,0,0.00022502,2248.7,7.457e-05,3.7431,7.4073e-05,0.0067289,-0.00022496,-2246.8,0.98979
30807,14.167,0,0,0.00022187,2217.1,7.352e-05,3.6583,7.3039e-05,0.043472,-0.0002218,-2215.3,1.0145
30808,14.351,0,0,0.00021837,2182.2,7.2362e-05,3.6475,7.1886e-05,0.071173,-0.0002183,-2180.3,1.0393
30809,14.534,0,0,0.0002146,2144.5,7.1123e-05,3.6986,7.0643e-05,0.091169,-0.00021454,-2142.6,1.0643
30810,14.718,0,0,0.00021063,2104.9,6.9821e-05,3.8014,6.9329e-05,0.10471,-0.00021056,-2102.9,1.0894
30811,14.902,0,0,0.0002065,2063.6,6.8471e-05,3.9471,6.796e-05,0.1129,-0.00020644,-2061.6,1.1147
30812,15.086,0,0,0.00020226,2021.2,6.7085e-05,4.1281,6.6551e-05,0.11675,-0.00020219,-2019.1,1.1401
30813,15.27,0,0,0.00019793,1977.9,6.5674e-05,4.3378,6.5112e-05,0.11709,-0.00019785,-1975.7,1.1656
30814,15.453,0,0,0.00019354,1934.1,6.4244e-05,4.5706,6.3651e-05,0.11465,-0.00019346,-1931.7,1.1913
30815,15.637,0,0,0.0001891,1889.7,6.2801e-05,4.8219,6.2174e-05,0.11008,-0.00018902,-1887.3,1.2171
30816,15.821,0,0,0.00018464,1845.1,6.1351e-05,5.0877,6.0688e-05,0.1039,-0.00018455,-1842.5,1.243
30817,16.005,0,0,0.00018016,1800.3,5.9896e-05,5.3646,5.9195e-05,0.096491,-0.00018007,-1797.6,1.2691
30818,16.189,0,0,0.00017567,1755.5,5.8439e-05,5.6499,5.7699e-05,0.088202,-0.00017557,-1752.6,1.2952
30819,16.372,0,0,0.00017118,1710.6,5.6982e-05,5.9413,5.6202e-05,0.079277,-0.00017108,-1707.6,1.3215
30820,16.556,0,0,0.0001667,1665.8,5.5527e-05,6.2368,5.4707e-05,0.069926,-0.00016659,-1662.7,1.3479
30821,16.74,0,0,0.00016222,1621.1,5.4076e-05,6.5351,5.3214e-05,0.060336,-0.00016211,-1617.8,1.3745
30822,16.924,0,0,0.00015776,1576.5,5.2628e-05,6.8349,5.1725e-05,0.050632,-0.00015764,-1573,1.4011
30823,17.108,0,0,0.00015331,1532,5.1185e-05,7.1353,5.0241e-05,0.040894,-0.00015318,-1528.4,1.4278
30824,17.291,0,0,0.00014887,1487.7,4.9748e-05,7.4357,4.8762e-05,0.03118,-0.00014875,-1484,1.4547
30825,17.475,0,0,0.00014446,1443.6,4.8316e-05,7.7355,4.7289e-05,0.021515,-0.00014433,-1439.7,1.4816
30826,17.659,0,0,0.00014006,1399.6,4.689e-05,8.0344,4.5822e-05,0.011922,-0.00013992,-1395.6,1.5086
30827,17.843,0,0,0.00013568,1355.9,4.547e-05,8.332,4.4362e-05,0.0024217,-0.00013554,-1351.7,1.5358
30828,18.027,0,0,0.00013132,1312.3,4.4057e-05,8.6284,4.2907e-05,-0.0069821,-0.00013117,-1308,1.563
30829,18.21,0,0,0.00012698,1268.9,4.2649e-05,8.9233,4.1459e-05,-0.01631,-0.00012683,-1264.5,1.5903
30830,18.394,0,0,0.00012266,1225.7,4.1248e-05,9.2168,4.0018e-05,-0.025592,-0.0001225,-1221.1,1.6177
30831,18.578,0,0,0.00011836,1182.8,3.9853e-05,9.5088,3.8583e-05,-0.03487,-0.00011819,-1178,1.6451
30832,18.762,0,0,0.00011407,1140,3.8465e-05,9.7994,3.7154e-05,-0.04418,-0.00011391,-1135,1.6727
30833,18.946,0,0,0.00010981,1097.4,3.7082e-05,10.088,3.5732e-05,-0.053545,-0.00010964,-1092.3,1.7003
30834,19.129,0,0,0.00010557,1054.9,3.5706e-05,10.376,3.4316e-05,-0.063007,-0.00010539,-1049.7,1.728
30835,19.313,0,0,0.00010134,1012.7,3.4335e-05,10.662,3.2907e-05,-0.072622,-0.00010116,-1007.4,1.7558
30836,19.497,0,0,9.7133e-05,970.66,3.2971e-05,10.946,3.1503e-05,-0.082446,-9.6943e-05,-965.18,1.7836
30837,19.681,0,0,9.2943e-05,928.79,3.1612e-05,11.229,3.0106e-05,-0.092541,-9.2748e-05,-923.17,1.8115
30838,19.865,0,0,8.8771e-05,887.1,3.0259e-05,11.509,2.8714e-05,-0.10297,-8.8571e-05,-881.34,1.8395
30839,20.048,0,0,8.4617e-05,845.58,2.8912e-05,11.786,2.7328e-05,-0.11379,-8.4412e-05,-839.68,1.8675
30840,20.232,0,0,8.0479e-05,804.23,2.757e-05,12.061,2.5948e-05,-0.12506,-8.0269e-05,-798.2,1.8956
30841,20.416,0,0,7.6358e-05,763.06,2.6233e-05,12.332,2.4573e-05,-0.13688,-7.6143e-05,-756.88,1.9237
30842,20.6,0,0,7.2254e-05,722.04,2.4901e-05,12.599,2.3204e-05,-0.14932,-7.2034e-05,-715.73,1.9519
30843,20.784,0,0,6.8166e-05,681.19,2.3574e-05,12.86,2.1841e-05,-0.16249,-6.794e-05,-674.75,1.9802
30844,20.967,0,0,6.4094e-05,640.49,2.2252e-05,13.115,2.0483e-05,-0.1765,-6.3863e-05,-633.92,2.0084
30845,21.151,0,0,6.0037e-05,599.96,2.0935e-05,13.362,1.9131e-05,-0.19147,-5.9802e-05,-593.26,2.0368
30846,21.335,0,0,5.5997e-05,559.58,1.9621e-05,13.6,1.7784e-05,-0.20753,-5.5756e-05,-552.76,2.0651
30847,21.519,0,0,5.1972e-05,519.36,1.8312e-05,13.825,1.6442e-05,-0.22485,-5.1726e-05,-512.42,2.0935
30848,21.703,0,0,4.7963e-05,479.3,1.7008e-05,14.037,1.5107e-05,-0.24365,-4.7713e-05,-472.25,2.1219
30849,21.886,0,0,4.3971e-05,439.41,1.5707e-05,14.231,1.3778e-05,-0.26418,-4.3716e-05,-432.25,2.1504
30850,22.07,0,0,3.9997e-05,399.69,1.441e-05,14.403,1.2455e-05,-0.28676,-3.9736e-05,-392.43,2.1789
30851,22.254,0,0,3.6041e-05,360.16,1.3117e-05,14.55,1.1139e-05,-0.31179,-3.5775e-05,-352.81,2.2074
30852,22.438,0,0,3.2105e-05,320.83,1.1828e-05,14.663,9.8314e-06,-0.33981,-3.1835e-05,-313.41,2.2359
30853,22.622,0,0,2.8194e-05,281.74,1.0543e-05,14.734,8.533e-06,-0.37158,-2.7919e-05,-274.26,2.2645
30854,22.805,0,0,2.431e-05,242.93,9.2633e-06,14.752,7.2456e-06,-0.40807,-2.403e-05,-235.4,2.2931
30855,22.989,0,0,2.0459e-05,204.45,7.9882e-06,14.698,5.9719e-06,-0.4512,-2.0175e-05,-196.91,2.3216
30856,23.173,0,0,1.6653e-05,166.41,6.7187e-06,14.545,4.7161e-06,-0.50186,-1.6363e-05,-158.88,2.3502
30857,23.357,0,0,1.2904e-05,128.95,5.4549e-06,14.233,3.4845e-06,-0.57143,-1.2608e-05,-121.48,2.3789
30858,23.541,0,0,9.2454e-06,92.39,4.201e-06,13.71,2.2897e-06,-0.65134,-8.9391e-06,-85.02,2.4075
30859,23.724,0,0,5.704e-06,57,2.9133e-06,12.277,1.1635e-06,-0.87036,-5.395e-06,-50.148,2.4361
30860,23.908,0,0,2.3898e-06,23.881,1.4849e-06,8.4822,2.7003e-07,-0.64601,-2.1218e-06,-18.617,2.4647
30861,10.767,0.090909,0,1.6685e-05,166.74,6.8417e-06,16.331,4.6939e-06,0.19277,-1.6345e-05,-157.89,0.58168
30862,24,0.090909,0,2.3016e-06,23,2.1277e-06,20.109,-2.3092e-07,2.3867,-1.3316e-06,-5.8834,2.4791
30863,5.0067e-14,5.7273,0,0.00018308,1829.5,8.6833e-06,-1663.1,-4.5318e-06,-1762.4,-0.00024115,-3540.2,0
30864,4.8478e-14,5.5455,0,0.00026237,2621.9,3.5981e-06,-2514.3,-3.316e-06,-2566.2,-0.00034876,-5161.7,0
30865,4.6888e-14,5.3636,0,0.00030491,3047,1.8736e-06,-2948.1,-2.3239e-06,-2979.7,-0.00040574,-6010.8,0
30866,4.5299e-14,5.1818,0,0.00033238,3321.5,1.1809e-06,-3218.3,-1.4897e-06,-3238.3,-0.00044221,-6549.7,0
30867,4.371e-14,5,0,0.00035122,3509.8,8.1536e-07,-3402.8,-1.0277e-06,-3416.6,-0.00046723,-6919.5,0
30868,4.212e-14,4.8182,0,0.00036488,3646.3,5.9276e-07,-3536.2,-7.4463e-07,-3546.3,-0.00048536,-7187.5,0
30869,4.0531e-14,4.6364,0,0.00037509,3748.4,4.4432e-07,-3636,-5.5546e-07,-3643.5,-0.00049893,-7388.1,0
30870,3.8941e-14,4.4545,0,0.00038289,3826.3,3.3892e-07,-3712.1,-4.2312e-07,-3717.9,-0.00050929,-7541.3,0
30871,3.7352e-14,4.2727,0,0.00038892,3886.5,2.6052e-07,-3770.9,-3.2629e-07,-3775.3,-0.00051729,-7659.6,0
30872,3.5762e-14,4.0909,0,0.00039359,3933.1,1.999e-07,-3816.5,-2.5278e-07,-3819.9,-0.0005235,-7751.4,0
30873,3.4173e-14,3.9091,0,0.00039719,3969.1,1.5137e-07,-3851.7,-1.9511e-07,-3854.4,-0.00052828,-7822.2,0
30874,3.2583e-14,3.7273,0,0.00039992,3996.5,1.1119e-07,-3878.5,-1.4846e-07,-3880.5,-0.00053192,-7876,0
30875,3.0994e-14,3.5455,0,0.00040193,4016.5,7.6801e-08,-3898.2,-1.0957e-07,-3899.6,-0.00053458,-7915.4,0
30876,2.9405e-14,3.3636,0,0.0004033,4030.2,4.6487e-08,-3911.7,-7.63e-08,-3912.6,-0.0005364,-7942.3,0
30877,2.7815e-14,3.1818,0,0.0004041,4038.2,1.9768e-08,-3919.6,-4.79e-08,-3920.1,-0.00053747,-7958.1,0
30878,2.6226e-14,3,0,0.00040436,4040.8,4.0951e-09,-3922.3,-3.1682e-08,-3922.5,-0.00053782,-7963.2,0
30879,2.4636e-14,2.8182,0,0.0004041,4038.2,1.9768e-08,-3919.6,-4.79e-08,-3920.1,-0.00053747,-7958.1,0
30880,2.3047e-14,2.6364,0,0.0004033,4030.2,4.6487e-08,-3911.7,-7.63e-08,-3912.6,-0.0005364,-7942.3,0
30881,2.1457e-14,2.4545,0,0.00040193,4016.5,7.6801e-08,-3898.2,-1.0957e-07,-3899.6,-0.00053458,-7915.4,0
30882,1.9868e-14,2.2727,0,0.00039992,3996.5,1.1119e-07,-3878.5,-1.4846e-07,-3880.5,-0.00053192,-7876,0
30883,1.8279e-14,2.0909,0,0.00039719,3969.1,1.5137e-07,-3851.7,-1.9511e-07,-3854.4,-0.00052828,-7822.2,0
30884,1.6689e-14,1.9091,0,0.00039359,3933.1,1.999e-07,-3816.5,-2.5278e-07,-3819.9,-0.0005235,-7751.4,0
30885,1.51e-14,1.7273,0,0.00038892,3886.5,2.6052e-07,-3770.9,-3.2629e-07,-3775.3,-0.00051729,-7659.6,0
30886,1.351e-14,1.5455,0,0.00038289,3826.3,3.3892e-07,-3712.1,-4.2312e-07,-3717.9,-0.00050929,-7541.3,0
30887,1.1921e-14,1.3636,0,0.00037509,3748.4,4.4432e-07,-3636,-5.5546e-07,-3643.5,-0.00049893,-7388.1,0
30888,1.0331e-14,1.1818,0,0.00036488,3646.3,5.9276e-07,-3536.2,-7.4463e-07,-3546.3,-0.00048536,-7187.5,0
30889,8.7419e-15,1,0,0.00035122,3509.8,8.1536e-07,-3402.8,-1.0277e-06,-3416.6,-0.00046723,-6919.5,0
30890,7.1525e-15,0.81818,0,0.00033238,3321.5,1.1809e-06,-3218.3,-1.4897e-06,-3238.3,-0.00044221,-6549.7,0
30891,5.563e-15,0.63636,0,0.00030491,3047,1.8736e-06,-2948.1,-2.3239e-06,-2979.7,-0.00040574,-6010.8,0
30892,3.9736e-15,0.45455,0,0.00026237,2621.9,3.5981e-06,-2514.3,-3.316e-06,-2566.2,-0.00034876,-5161.7,0
30893,2.3842e-15,0.27273,0,0.00018308,1829.5,8.6833e-06,-1663.1,-4.5318e-06,-1762.4,-0.00024115,-3540.2,0
30894,24,0.27273,0,5.2695e-06,52.658,5.1302e-06,49.716,-1.1943e-06,2.1957,-2.4044e-06,-6.8969,2.4792
30895,24,0.45455,0,7.6585e-06,76.533,7.5323e-06,73.669,-1.968e-06,2.2873,-3.2229e-06,-7.1411,2.4794
30896,24,0.63636,0,9.5551e-06,95.486,9.4368e-06,92.713,-2.5829e-06,2.402,-3.8633e-06,-7.2183,2.4795
30897,24,0.81818,0,1.1148e-05,111.4,1.1035e-05,108.69,-3.107e-06,2.4359,-4.3929e-06,-7.2256,2.4797
30898,24,1,0,1.251e-05,125.02,1.2402e-05,122.37,-3.5569e-06,2.4646,-4.8425e-06,-7.1949,2.4798
30899,24,1.1818,0,1.3686e-05,136.77,1.3581e-05,134.18,-3.9463e-06,2.4836,-5.2285e-06,-7.1505,2.4799
30900,24,1.3636,0,1.4702e-05,146.92,1.46e-05,144.39,-4.2835e-06,2.4982,-5.561e-06,-7.1004,2.48
30901,24,1.5455,0,1.5578e-05,155.68,1.5479e-05,153.18,-4.5747e-06,2.5092,-5.847e-06,-7.0502,2.4801
30902,24,1.7273,0,1.6328e-05,163.17,1.6231e-05,160.72,-4.8241e-06,2.5178,-6.0912e-06,-7.0026,2.4802
30903,24,1.9091,0,1.6961e-05,169.5,1.6866e-05,167.08,-5.035e-06,2.5245,-6.2972e-06,-6.9595,2.4803
30904,24,2.0909,0,1.7486e-05,174.74,1.7393e-05,172.36,-5.2099e-06,2.5297,-6.4679e-06,-6.922,2.4803
30905,24,2.2727,0,1.7909e-05,178.97,1.7816e-05,176.6,-5.3508e-06,2.5337,-6.6051e-06,-6.8907,2.4804
30906,24,2.4545,0,1.8234e-05,182.21,1.8142e-05,179.86,-5.459e-06,2.5366,-6.7104e-06,-6.866,2.4804
30907,24,2.6364,0,1.8463e-05,184.51,1.8372e-05,182.17,-5.5356e-06,2.5386,-6.7849e-06,-6.8482,2.4805
30908,24,2.8182,0,1.86e-05,185.87,1.8509e-05,183.55,-5.5813e-06,2.5398,-6.8293e-06,-6.8375,2.4805
30909,24,3,0,1.8646e-05,186.33,1.8555e-05,184,-5.5965e-06,2.5402,-6.8441e-06,-6.8339,2.4805
30910,24,3.1818,0,1.86e-05,185.87,1.8509e-05,183.55,-5.5813e-06,2.5398,-6.8293e-06,-6.8375,2.4805
30911,24,3.3636,0,1.8463e-05,184.51,1.8372e-05,182.17,-5.5356e-06,2.5386,-6.7849e-06,-6.8482,2.4805
30912,24,3.5455,0,1.8234e-05,182.21,1.8142e-05,179.86,-5.459e-06,2.5366,-6.7104e-06,-6.866,2.4804
30913,24,3.7273,0,1.7909e-05,178.97,1.7816e-05,176.6,-5.3508e-06,2.5337,-6.6051e-06,-6.8907,2.4804
30914,24,3.9091,0,1.7486e-05,174.74,1.7393e-05,172.36,-5.2099e-06,2.5297,-6.4679e-06,-6.922,2.4803
30915,24,4.0909,0,1.6961e-05,169.5,1.6866e-05,167.08,-5.035e-06,2.5245,-6.2972e-06,-6.9595,2.4803
30916,24,4.2727,0,1.6328e-05,163.17,1.6231e-05,160.72,-4.8241e-06,2.5178,-6.0912e-06,-7.0026,2.4802
30917,24,4.4545,0,1.5578e-05,155.68,1.5479e-05,153.18,-4.5747e-06,2.5092,-5.847e-06,-7.0502,2.4801
30918,24,4.6364,0,1.4702e-05,146.92,1.46e-05,144.39,-4.2835e-06,2.4982,-5.561e-06,-7.1004,2.48
30919,24,4.8182,0,1.3686e-05,136.77,1.3581e-05,134.18,-3.9463e-06,2.4836,-5.2285e-06,-7.1505,2.4799
30920,24,5,0,1.251e-05,125.02,1.2402e-05,122.37,-3.5569e-06,2.4646,-4.8425e-06,-7.1949,2.4798
30921,24,5.1818,0,1.1148e-05,111.4,1.1035e-05,108.69,-3.107e-06,2.4359,-4.3929e-06,-7.2256,2.4797
30922,24,5.3636,0,9.5552e-06,95.486,9.4368e-06,92.713,-2.5829e-06,2.402,-3.8633e-06,-7.2183,2.4795
30923,24,5.5455,0,7.6586e-06,76.533,7.5323e-06,73.669,-1.9681e-06,2.2873,-3.2229e-06,-7.1411,2.4794
30924,24,5.7273,0,5.2695e-06,52.658,5.1302e-06,49.716,-1.1943e-06,2.1957,-2.4044e-06,-6.8969,2.4792
30925,24,5.9091,0,2.3016e-06,23,2.1277e-06,20.109,-2.3092e-07,2.3867,-1.3316e-06,-5.8834,2.4791
30926,23.908,6,0,2.3898e-06,23.881,1.4849e-06,8.4822,2.7003e-07,-0.64602,-2.1218e-06,-18.617,2.4647
30927,23.724,6,0,5.704e-06,57,2.9133e-06,12.277,1.1635e-06,-0.87036,-5.395e-06,-50.148,2.4361
30928,23.541,6,0,9.2454e-06,92.39,4.201e-06,13.71,2.2897e-06,-0.65134,-8.9391e-06,-85.02,2.4075
30929,23.357,6,0,1.2904e-05,128.95,5.4549e-06,14.233,3.4845e-06,-0.57143,-1.2608e-05,-121.48,2.3789
30930,23.173,6,0,1.6653e-05,166.41,6.7187e-06,14.545,4.7161e-06,-0.50186,-1.6363e-05,-158.88,2.3502
30931,22.989,6,0,2.0459e-05,204.45,7.9882e-06,14.698,5.9719e-06,-0.4512,-2.0175e-05,-196.91,2.3216
30932,22.805,6,0,2.431e-05,242.93,9.2633e-06,14.752,7.2456e-06,-0.40807,-2.403e-05,-235.4,2.2931
30933,22.622,6,0,2.8194e-05,281.74,1.0543e-05,14.734,8.533e-06,-0.37158,-2.7919e-05,-274.26,2.2645
30934,22.438,6,0,3.2105e-05,320.83,1.1828e-05,14.663,9.8314e-06,-0.33981,-3.1835e-05,-313.41,2.2359
30935,22.254,6,0,3.6041e-05,360.16,1.3117e-05,14.55,1.1139e-05,-0.31179,-3.5775e-05,-352.81,2.2074
30936,22.07,6,0,3.9997e-05,399.69,1.441e-05,14.403,1.2455e-05,-0.28676,-3.9736e-05,-392.43,2.1789
30937,21.886,6,0,4.3971e-05,439.41,1.5707e-05,14.231,1.3778e-05,-0.26418,-4.3716e-05,-432.25,2.1504
30938,21.703,6,0,4.7963e-05,479.3,1.7008e-05,14.037,1.5107e-05,-0.24365,-4.7713e-05,-472.25,2.1219
30939,21.519,6,0,5.1972e-05,519.36,1.8312e-05,13.825,1.6442e-05,-0.22485,-5.1726e-05,-512.42,2.0935
30940,21.335,6,0,5.5997e-05,559.58,1.9621e-05,13.6,1.7784e-05,-0.20752,-5.5756e-05,-552.76,2.0651
30941,21.151,6,0,6.0037e-05,599.96,2.0935e-05,13.362,1.9131e-05,-0.19147,-5.9802e-05,-593.26,2.0368
30942,20.967,6,0,6.4094e-05,640.49,2.2252e-05,13.115,2.0483e-05,-0.1765,-6.3863e-05,-633.92,2.0084
30943,20.784,6,0,6.8166e-05,681.19,2.3574e-05,12.86,2.1841e-05,-0.16249,-6.794e-05,-674.75,1.9802
30944,20.6,6,0,7.2254e-05,722.04,2.4901e-05,12.599,2.3204e-05,-0.14932,-7.2034e-05,-715.73,1.9519
30945,20.416,6,0,7.6358e-05,763.06,2.6233e-05,12.332,2.4573e-05,-0.13688,-7.6143e-05,-756.88,1.9237
30946,20.232,6,0,8.0479e-05,804.23,2.757e-05,12.061,2.5948e-05,-0.12506,-8.0269e-05,-798.2,1.8956
30947,20.048,6,0,8.4617e-05,845.58,2.8912e-05,11.786,2.7328e-05,-0.11379,-8.4412e-05,-839.68,1.8675
30948,19.865,6,0,8.8771e-05,887.1,3.0259e-05,11.509,2.8714e-05,-0.10297,-8.8571e-05,-881.34,1.8395
30949,19.681,6,0,9.2943e-05,928.79,3.1612e-05,11.229,3.0106e-05,-0.092539,-9.2748e-05,-923.17,1.8115
30950,19.497,6,0,9.7133e-05,970.66,3.2971e-05,10.946,3.1503e-05,-0.082443,-9.6943e-05,-965.18,1.7836
30951,19.313,6,0,0.00010134,1012.7,3.4335e-05,10.662,3.2907e-05,-0.072622,-0.00010116,-1007.4,1.7558
30952,19.129,6,0,0.00010557,1054.9,3.5706e-05,10.376,3.4316e-05,-0.063007,-0.00010539,-1049.7,1.728
30953,18.946,6,0,0.00010981,1097.4,3.7082e-05,10.088,3.5732e-05,-0.053546,-0.00010964,-1092.3,1.7003
30954,18.762,6,0,0.00011407,1140,3.8465e-05,9.7994,3.7154e-05,-0.044181,-0.00011391,-1135,1.6727
30955,18.578,6,0,0.00011836,1182.8,3.9853e-05,9.5088,3.8583e-05,-0.034869,-0.00011819,-1178,1.6451
30956,18.394,6,0,0.00012266,1225.7,4.1248e-05,9.2168,4.0018e-05,-0.025592,-0.0001225,-1221.1,1.6177
30957,18.21,6,0,0.00012698,1268.9,4.2649e-05,8.9233,4.1459e-05,-0.016308,-0.00012683,-1264.5,1.5903
30958,18.027,6,0,0.00013132,1312.3,4.4057e-05,8.6284,4.2907e-05,-0.006978,-0.00013117,-1308,1.563
30959,17.843,6,0,0.00013568,1355.9,4.547e-05,8.332,4.4362e-05,0.0024196,-0.00013554,-1351.7,1.5358
30960,17.659,6,0,0.00014006,1399.6,4.689e-05,8.0344,4.5822e-05,0.01192,-0.00013992,-1395.6,1.5086
30961,17.475,6,0,0.00014446,1443.6,4.8316e-05,7.7355,4.7289e-05,0.021516,-0.00014433,-1439.7,1.4816
30962,17.291,6,0,0.00014887,1487.7,4.9748e-05,7.4357,4.8762e-05,0.03118,-0.00014875,-1484,1.4547
30963,17.108,6,0,0.00015331,1532,5.1185e-05,7.1353,5.0241e-05,0.040894,-0.00015318,-1528.4,1.4278
30964,16.924,6,0,0.00015776,1576.5,5.2628e-05,6.8349,5.1725e-05,0.050632,-0.00015764,-1573,1.4011
30965,16.74,6,0,0.00016222,1621.1,5.4076e-05,6.5351,5.3214e-05,0.060335,-0.00016211,-1617.8,1.3745
30966,16.556,6,0,0.0001667,1665.8,5.5527e-05,6.2368,5.4707e-05,0.069925,-0.00016659,-1662.7,1.3479
30967,16.372,6,0,0.00017118,1710.6,5.6982e-05,5.9413,5.6202e-05,0.079277,-0.00017108,-1707.6,1.3215
30968,16.189,6,0,0.00017567,1755.5,5.8439e-05,5.6499,5.7699e-05,0.088201,-0.00017557,-1752.6,1.2952
30969,16.005,6,0,0.00018016,1800.3,5.9896e-05,5.3646,5.9195e-05,0.096491,-0.00018007,-1797.6,1.2691
30970,15.821,6,0,0.00018464,1845.1,6.1351e-05,5.0877,6.0688e-05,0.1039,-0.00018455,-1842.5,1.243
30971,15.637,6,0,0.0001891,1889.7,6.2801e-05,4.8219,6.2174e-05,0.11008,-0.00018902,-1887.3,1.2171
30972,15.453,6,0,0.00019354,1934.1,6.4244e-05,4.5706,6.3651e-05,0.11465,-0.00019346,-1931.7,1.1913
30973,15.27,6,0,0.00019793,1977.9,6.5674e-05,4.3378,6.5112e-05,0.11709,-0.00019785,-1975.7,1.1656
30974,15.086,6,0,0.00020226,2021.2,6.7085e-05,4.1281,6.6551e-05,0.11675,-0.00020219,-2019.1,1.1401
30975,14.902,6,0,0.0002065,2063.6,6.8471e-05,3.9471,6.796e-05,0.1129,-0.00020644,-2061.6,1.1147
30976,14.718,6,0,0.00021063,2104.9,6.9821e-05,3.8014,6.9329e-05,0.10471,-0.00021056,-2102.9,1.0894
30977,14.534,6,0,0.0002146,2144.5,7.1123e-05,3.6986,7.0643e-05,0.09117,-0.00021454,-2142.6,1.0643
30978,14.351,6,0,0.00021837,2182.2,7.2362e-05,3.6475,7.1886e-05,0.071173,-0.0002183,-2180.3,1.0393
30979,14.167,6,0,0.00022187,2217.1,7.352e-05,3.6583,7.3039e-05,0.043472,-0.0002218,-2215.3,1.0145
30980,13.983,6,0,0.00022502,2248.7,7.457e-05,3.7431,7.4073e-05,0.0067292,-0.00022496,-2246.8,0.98979
30981,13.799,6,0,0.00022774,2275.9,7.5484e-05,3.9155,7.4958e-05,-0.04033,-0.00022768,-2273.9,0.96526
30982,13.616,6,0,0.0002299,2297.5,7.6223e-05,4.1917,7.5652e-05,-0.098788,-0.00022983,-2295.4,0.94089
30983,13.432,6,0,0.00023136,2312,7.6741e-05,4.59,7.6108e-05,-0.16934,-0.00023129,-2309.8,0.91667
30984,13.248,6,0,0.00023194,2317.8,7.698e-05,5.1314,7.6264e-05,-0.25193,-0.00023185,-2315.3,0.8926
30985,13.064,6,0,0.00023141,2312.5,7.6871e-05,5.8392,7.6048e-05,-0.3452,-0.00023132,-2309.8,0.86869
30986,12.88,6,0,0.00022953,2293.7,7.6328e-05,6.7379,7.5372e-05,-0.44581,-0.00022942,-2290.5,0.84494
30987,12.697,6,0,0.00022597,2258.2,7.5253e-05,7.8516,7.4136e-05,-0.54719,-0.00022585,-2254.5,0.82134
30988,12.513,6,0,0.00022039,2202.4,7.353e-05,9.1982,7.222e-05,-0.63829,-0.00022025,-2198.1,0.7979
30989,12.329,6,0,0.00021239,2122.5,7.1025e-05,10.782,6.9496e-05,-0.70174,-0.00021222,-2117.4,0.7746
30990,12.145,6,0,0.00020154,2014,6.7595e-05,12.577,6.5826e-05,-0.713,-0.00020134,-2008.1,0.75145
30991,11.961,6,0,0.00018742,1872.9,6.3089e-05,14.506,6.1074e-05,-0.63669,-0.00018717,-1865.9,0.72843
30992,11.778,6,0,0.00016962,1695,5.7364e-05,16.401,5.5122e-05,-0.44107,-0.00016934,-1687,0.70553
30993,11.594,6,0,0.00014785,1477.5,5.0292e-05,17.963,4.7894e-05,-0.053887,-0.00014754,-1468.5,0.68275
30994,11.41,6,0,0.00012196,1218.7,4.1778e-05,18.625,3.9354e-05,0.41497,-0.00012162,-1209.1,0.66007
30995,11.226,6,0,9.1928e-05,918.65,3.173e-05,17.625,2.9587e-05,1.5219,-9.1592e-05,-908.97,0.63747
30996,11.042,6,0,5.7403e-05,573.64,2.0139e-05,14.547,1.8243e-05,0.30049,-5.7137e-05,-566.08,0.61492
30997,10.859,6,0,2.012e-05,201.06,7.6825e-06,4.7509,5.2593e-06,-13.456,-2.0206e-05,-204.79,0.59242
30998,10.767,5.9091,0,1.6685e-05,166.74,6.8417e-06,16.331,4.6939e-06,0.19277,-1.6345e-05,-157.89,0.58168
30999,10.6,1.7273,0,0.00055974,5593.6,0.00043439,3322.1,-1.18e-06,49.418,-0.00042521,-3136.6,0.57371
31000,10.6,1.9091,0,0.001082,10812,0.00066844,3479,8.9753e-05,-869.04,-0.00096984,-8830.4,0.5755
31001,10.6,1.5455,0,0.00036789,3676.3,0.00027017,1973.3,1.5951e-05,63.172,-0.0002939,-2264.9,0.57196
31002,10.6,1.3636,0,0.0002889,2887,0.00020946,1499.2,1.3553e-05,27.212,-0.00023324,-1827.1,0.57023
31003,10.6,1.1818,0,0.00022842,2282.6,0.00016091,1119.7,1.5162e-05,24.683,-0.0001883,-1504.1,0.56852
31004,10.6,1,0,0.00018249,1823.6,0.00012448,836.99,1.5642e-05,19.227,-0.0001536,-1252.4,0.56685
31005,10.6,0.81818,0,0.00014458,1444.8,9.4737e-05,610.22,1.5795e-05,17.076,-0.00012446,-1036.8,0.5652
31006,10.6,0.63636,0,0.00011163,1115.5,6.9493e-05,422.44,1.529e-05,15.177,-9.8456e-05,-839.47,0.56358
31007,10.6,0.45455,0,8.1508e-05,814.52,4.7358e-05,265.02,1.3996e-05,14.35,-7.3807e-05,-645.37,0.56199
31008,10.6,0.27273,0,5.1712e-05,516.76,2.7257e-05,133.82,1.1153e-05,12.82,-4.8143e-05,-432.71,0.56042
31009,10.683,2,0,0.0014869,14859,0.00071484,1876,0.00025732,-1561.7,-0.0014514,-14400,0.58527
31010,10.767,0.27273,0,4.6235e-05,462.03,2.2643e-05,96.785,1.1102e-05,10.066,-4.3803e-05,-402.46,0.5827
31011,10.767,0.45455,0,7.2779e-05,727.29,3.8645e-05,188.34,1.5114e-05,11.544,-6.7748e-05,-611.05,0.58374
31012,10.767,0.63636,0,9.9359e-05,992.9,5.5891e-05,295.98,1.8135e-05,12.298,-9.1025e-05,-807.89,0.58481
31013,10.767,0.81818,0,0.00012837,1282.8,7.5387e-05,423.32,2.0918e-05,14.061,-0.00011593,-1014.2,0.58591
31014,10.767,1,0,0.00016184,1617.3,9.8372e-05,577.19,2.3697e-05,16.118,-0.00014427,-1246,0.58705
31015,10.767,1.1818,0,0.00020273,2025.9,0.00012669,770.26,2.6989e-05,21.124,-0.00017859,-1523.5,0.58824
31016,10.767,1.3636,0,0.00025713,2569.5,0.0001651,1035.4,3.0482e-05,23.91,-0.00022371,-1886,0.58948
31017,10.767,1.5455,0,0.00032842,3281.9,0.00021171,1348.2,3.9911e-05,57.379,-0.00028487,-2382.9,0.59078
31018,10.767,1.7273,0,0.00050213,5017.8,0.00035007,2407,3.6172e-05,48.462,-0.00041687,-3355.5,0.59215
31019,10.767,1.9091,0,0.0010223,10216,0.00056488,2284.4,0.00012633,-1010.7,-0.00095996,-9172.7,0.59362
31020,10.6,4.2727,0,0.00055974,5593.6,0.00043439,3322.1,-1.18e-06,49.418,-0.00042521,-3136.6,0.57371
31021,10.6,4.0909,0,0.001082,10812,0.00066844,3479,8.9753e-05,-869.04,-0.00096984,-8830.4,0.5755
31022,10.6,4.4545,0,0.00036789,3676.3,0.00027017,1973.3,1.5951e-05,63.172,-0.0002939,-2264.9,0.57196
31023,10.6,4.6364,0,0.0002889,2887,0.00020946,1499.2,1.3553e-05,27.212,-0.00023324,-1827.1,0.57023
31024,10.6,4.8182,0,0.00022842,2282.6,0.00016091,1119.7,1.5162e-05,24.683,-0.0001883,-1504.1,0.56852
31025,10.6,5,0,0.00018249,1823.6,0.00012448,836.99,1.5642e-05,19.227,-0.0001536,-1252.4,0.56685
31026,10.6,5.1818,0,0.00014458,1444.8,9.4737e-05,610.22,1.5795e-05,17.076,-0.00012446,-1036.8,0.5652
31027,10.6,5.3636,0,0.00011163,1115.5,6.9493e-05,422.44,1.529e-05,15.176,-9.8456e-05,-839.47,0.56358
31028,10.6,5.5455,0,8.1508e-05,814.52,4.7358e-05,265.02,1.3996e-05,14.35,-7.3807e-05,-645.37,0.56199
31029,10.6,5.7273,0,5.1712e-05,516.76,2.7257e-05,133.82,1.1153e-05,12.82,-4.8143e-05,-432.71,0.56042
31030,10.683,4,0,0.0014869,14859,0.00071484,1876,0.00025732,-1561.7,-0.0014514,-14400,0.58527
31031,10.767,5.7273,0,4.6235e-05,462.03,2.2643e-05,96.785,1.1102e-05,10.066,-4.3803e-05,-402.46,0.5827
31032,10.767,5.5455,0,7.2779e-05,727.29,3.8645e-05,188.34,1.5114e-05,11.544,-6.7748e-05,-611.05,0.58374
31033,10.767,5.3636,0,9.9359e-05,992.9,5.5891e-05,295.98,1.8135e-05,12.298,-9.1025e-05,-807.89,0.58481
31034,10.767,5.1818,0,0.00012837,1282.8,7.5387e-05,423.32,2.0918e-05,14.061,-0.00011593,-1014.2,0.58591
31035,10.767,5,0,0.00016184,1617.3,9.8372e-05,577.19,2.3697e-05,16.118,-0.00014427,-1246,0.58705
31036,10.767,4.8182,0,0.00020273,2025.9,0.00012669,770.26,2.6989e-05,21.124,-0.00017859,-1523.5,0.58824
31037,10.767,4.6364,0,0.00025713,2569.5,0.0001651,1035.4,3.0482e-05,23.91,-0.00022371,-1886,0.58948
31038,10.767,4.4545,0,0.00032842,3281.9,0.00021171,1348.2,3.9911e-05,57.379,-0.00028487,-2382.9,0.59078
31039,10.767,4.2727,0,0.00050213,5017.8,0.00035007,2407,3.6172e-05,48.462,-0.00041687,-3355.5,0.59215
31040,10.767,4.0909,0,0.0010223,10216,0.00056488,2284.4,0.00012633,-1010.7,-0.00095996,-9172.7,0.59362
