Node Number	X Location (in)	Y Location (in)	Z Location (in)	Middle Principal Stress (psi)
1	5.2745	3.5176	0.	47.353
2	4.3181	0.36625	0.	15.889
3	4.6072	1.0456	0.	-28.505
4	5.8461	1.6374	0.	-21.829
5	6.2363	1.0521	0.	-1.2067
6	4.1419	4.9227	0.	-6.0712
7	4.4958	4.3317	0.	-29.998
8	5.7285	4.205	0.	5.0055
9	5.8413	4.9709	0.	-16.631
10	5.7021	3.8489	0.	-85.532
11	3.862	4.4104	0.	-16.949
12	4.8308	3.0602	0.	28.355
13	3.7507	3.837	0.	-117.62
14	5.8279	3.3612	0.	-26.932
15	3.7963	2.8815	0.	-203.16
16	4.3203	5.5891	0.	-30.916
17	4.0209	0.92618	0.	47.131
18	6.4012	1.5445	0.	-8.9057
19	6.095	0.446	0.	-27.308
20	6.2769	4.0726	0.	-2.5284
21	3.1012	3.7343	0.	-208.15
22	3.9978	1.3734	0.	5.9075
23	4.3984	2.5404	0.	-27.518
24	6.8042	2.8904	0.	-157.98
25	7.0846	1.5185	0.	-26.831
26	7.0466	2.2324	0.	-71.451
27	3.8787	2.4744	0.	-145.26
28	7.6123	4.3217	0.	-39.785
29	1.6903	1.7322	0.	-369.44
30	7.8478	1.5049	0.	-35.584
31	8.6763	1.5299	0.	-27.745
32	9.5251	1.5428	0.	-17.576
33	10.38	1.5553	0.	-10.447
34	11.233	1.5733	0.	-4.4926
35	12.079	1.5826	0.	-0.59123
36	12.93	1.5826	0.	-0.36665
37	13.782	1.5826	0.	-0.49453
38	14.633	1.5826	0.	-0.5541
39	15.485	1.5826	0.	-0.52174
40	16.331	1.5745	0.	-0.54615
41	17.177	1.5512	0.	-0.70395
42	18.045	1.5451	0.	-0.62333
43	18.904	1.5987	0.	-0.42292
44	19.752	1.6718	0.	-0.60962
45	20.607	1.6939	0.	-0.60904
46	21.479	1.7015	0.	-0.5879
47	1.5778	3.4904	0.	-442.5
48	1.596	2.6169	0.	-447.13
49	22.33	2.5858	0.	-0.48234
50	22.311	3.4549	0.	-0.53238
51	21.45	4.3278	0.	-0.61534
52	20.583	4.3573	0.	-0.46814
53	19.745	4.3789	0.	-0.6664
54	18.893	4.4232	0.	-0.75607
55	18.025	4.4268	0.	-0.52483
56	17.176	4.4389	0.	-0.45055
57	16.328	4.4261	0.	-0.56802
58	15.485	4.4174	0.	-0.57286
59	14.633	4.4174	0.	-0.52041
60	13.782	4.4174	0.	-0.48072
61	12.93	4.4174	0.	-0.42197
62	12.079	4.4174	0.	-0.26478
63	11.227	4.4174	0.	-4.8285
64	10.379	4.426	0.	-10.81
65	9.5144	4.4245	0.	-20.162
66	8.6126	4.4195	0.	-38.709
67	2.35	3.5968	0.	-284.93
68	8.6566	2.9603	0.	-55.795
69	9.5179	2.95	0.	-33.821
70	10.372	2.9077	0.	-18.442
71	11.227	2.8348	0.	-8.3022
72	12.079	2.8348	0.	-1.8302
73	12.93	2.8348	0.	-0.36476
74	13.782	2.8348	0.	-0.3533
75	14.633	2.8348	0.	-0.41834
76	15.485	2.8348	0.	-0.38095
77	16.336	2.8348	0.	-0.59561
78	17.184	2.9126	0.	-0.36393
79	17.996	2.9813	0.	-0.37569
80	18.732	2.9825	0.	-1.0933
81	19.689	2.6066	0.	-1.3614
82	5.0069	3.5795	0.	103.9
83	5.2458	2.5448	0.	66.481
84	23.157	5.16	0.	-0.23245
85	22.309	5.1779	0.	-0.25966
86	21.449	5.169	0.	-0.20687
87	20.594	5.1937	0.	-0.22232
88	19.746	5.193	0.	-0.20024
89	18.891	5.2087	0.	-0.31974
90	18.039	5.2087	0.	-0.1849
91	17.188	5.2087	0.	-0.16102
92	16.336	5.2087	0.	-0.26781
93	15.485	5.2087	0.	-0.26664
94	14.633	5.2087	0.	-0.27388
95	13.782	5.2087	0.	-0.3083
96	12.93	5.2087	0.	-0.35353
97	12.079	5.2087	0.	-0.3919
98	11.227	5.2087	0.	-0.81712
99	10.376	5.2087	0.	-4.2105
100	9.5085	5.2082	0.	-8.2111
101	8.6396	5.1858	0.	-6.0572
102	7.8114	5.224	0.	1.1384
103	6.9895	5.3901	0.	15.31
104	6.1686	5.5762	0.	-8.1472
105	6.0572	5.2299	0.	21.296
106	5.7031	4.5825	0.	-30.231
107	23.164	0.84929	0.	-0.21255
108	23.179	1.7053	0.	-0.60997
109	23.163	2.5807	0.	-0.56295
110	23.155	3.4488	0.	-0.54407
111	23.158	4.3123	0.	-0.62153
112	6.9026	0.75847	0.	13.379
113	7.8195	0.75091	0.	-11.635
114	8.6784	0.76196	0.	-8.9572
115	9.5284	0.77143	0.	-6.5867
116	10.38	0.77863	0.	-3.7877
117	11.227	0.79129	0.	-0.82079
118	12.079	0.79129	0.	-0.33421
119	12.93	0.79129	0.	-0.34701
120	13.782	0.79129	0.	-0.31894
121	14.633	0.79129	0.	-0.26561
122	15.485	0.79129	0.	-0.32121
123	16.336	0.79129	0.	-0.20213
124	17.186	0.77837	0.	-0.11123
125	18.042	0.78135	0.	-0.26129
126	18.902	0.8022	0.	-0.40974
127	19.757	0.82977	0.	-0.16359
128	20.612	0.84667	0.	-7.1386e-002
129	21.466	0.85254	0.	-0.2285
130	22.322	0.84693	0.	-0.24262
131	4.4743	0.68781	0.	-22.009
132	4.564	1.3903	0.	1.5117
133	4.5138	1.734	0.	-3.5536
134	4.477	2.1066	0.	-113.09
135	0.85645	0.84811	0.	-205.91
136	1.7379	0.88189	0.	-203.08
137	2.6518	0.87464	0.	-69.537
138	3.4834	0.51299	0.	9.6835
139	0.83461	5.1505	0.	-201.92
140	0.81991	4.3081	0.	-342.46
141	0.80081	3.4501	0.	-381.51
142	0.81086	2.5729	0.	-382.6
143	0.84115	1.7123	0.	-348.91
144	3.4995	5.2269	0.	10.139
145	2.5425	5.2081	0.	-86.694
146	1.6711	5.1807	0.	-190.19
147	4.8234	5.2052	0.	68.477
148	4.6807	4.7015	0.	23.18
149	4.4309	3.9208	0.	-101.81
150	5.543	0.79466	0.	45.648
151	5.7139	1.2948	0.	16.639
152	5.7969	2.0829	0.	-52.246
153	5.581	3.5083	0.	-78.671
154	6.2041	4.7155	0.	34.72
155	22.302	4.3106	0.	-0.61369
156	22.326	1.7114	0.	-0.64122
157	4.1692	1.1031	0.	33.358
158	1.6286	4.3541	0.	-364.3
159	4.4358	3.4999	0.	-117.05
160	5.6567	2.5402	0.	-66.068
161	4.8281	2.5568	0.	62.065
162	6.8283	4.8819	0.	-3.7298
163	6.0731	4.4836	0.	-4.7317
164	6.2131	3.6863	0.	-77.04
165	3.9288	1.6956	0.	-25.909
166	2.5445	1.9011	0.	-236.59
167	3.2551	1.6505	0.	-44.127
168	3.2728	4.4566	0.	-114.23
169	2.4566	4.424	0.	-209.35
170	6.416	2.136	0.	-85.
171	5.7052	3.1111	0.	-155.94
172	21.445	3.4422	0.	-0.53018
173	21.45	2.5789	0.	-0.55301
174	3.9308	2.1033	0.	-64.099
175	3.094	2.4324	0.	-227.25
176	3.5407	2.0556	0.	-64.553
177	3.7129	3.3087	0.	-188.37
178	3.0119	3.0384	0.	-237.06
179	6.875	3.4228	0.	-90.181
180	20.576	2.5864	0.	-0.795
181	20.58	3.469	0.	-0.56982
182	5.2084	3.0191	0.	13.071
183	6.1381	2.6671	0.	-88.589
184	19.734	3.5256	0.	-0.46054
185	18.896	3.654	0.	-6.9157e-002
186	18.017	3.7038	0.	-0.59182
187	17.166	3.666	0.	-0.63334
188	16.325	3.6358	0.	-0.44342
189	15.485	3.6261	0.	-0.3759
190	14.633	3.6261	0.	-0.45809
191	13.782	3.6261	0.	-0.3773
192	12.93	3.6261	0.	-0.28736
193	12.079	3.6261	0.	-1.1797
194	11.233	3.6357	0.	-7.3637
195	10.383	3.6616	0.	-16.379
196	9.5088	3.6855	0.	-31.874
197	8.6269	3.6806	0.	-55.311
198	8.6554	2.2591	0.	-45.481
199	9.5163	2.2752	0.	-27.748
200	10.372	2.2966	0.	-16.258
201	11.227	2.3739	0.	-7.227
202	12.079	2.3739	0.	-1.3928
203	12.93	2.3739	0.	-0.36861
204	13.782	2.3739	0.	-0.35076
205	14.633	2.3739	0.	-0.39561
206	15.485	2.3739	0.	-0.32324
207	16.336	2.3739	0.	-0.46102
208	17.191	2.3068	0.	-0.38531
209	18.028	2.2593	0.	-0.92372
210	18.896	2.3673	0.	-0.20705
211	4.3449	3.0128	0.	-27.518
212	3.3178	2.2334	0.	-324.19
213	7.7911	2.2507	0.	-68.54
214	7.7747	3.592	0.	-81.418
215	7.7847	2.9143	0.	-89.724
216	5.4792	1.	0.	61.009
217	4.8875	5.	0.	70.15
218	5.4859	3.0451	0.	-2.7551
219	3.4029	1.2171	0.	-55.091
220	6.8726	4.1216	0.	-6.0193
221	2.3242	2.7556	0.	-294.11
222	2.3242	2.7556	0.1	294.11
223	6.8726	4.1216	0.1	6.0193
224	3.4029	1.2171	0.1	55.091
225	5.4859	3.0451	0.1	2.7551
226	4.8875	5.	0.1	-70.15
227	5.4792	1.	0.1	-61.009
228	7.7847	2.9143	0.1	89.724
229	7.7747	3.592	0.1	81.418
230	7.7911	2.2507	0.1	68.54
231	3.3178	2.2334	0.1	324.19
232	4.3449	3.0128	0.1	27.518
233	18.896	2.3673	0.1	0.20705
234	18.028	2.2593	0.1	0.92372
235	17.191	2.3068	0.1	0.38531
236	16.336	2.3739	0.1	0.46102
237	15.485	2.3739	0.1	0.32324
238	14.633	2.3739	0.1	0.39561
239	13.782	2.3739	0.1	0.35076
240	12.93	2.3739	0.1	0.36861
241	12.079	2.3739	0.1	1.3928
242	11.227	2.3739	0.1	7.227
243	10.372	2.2966	0.1	16.258
244	9.5163	2.2752	0.1	27.748
245	8.6554	2.2591	0.1	45.481
246	8.6269	3.6806	0.1	55.311
247	9.5088	3.6855	0.1	31.874
248	10.383	3.6616	0.1	16.379
249	11.233	3.6357	0.1	7.3637
250	12.079	3.6261	0.1	1.1797
251	12.93	3.6261	0.1	0.28736
252	13.782	3.6261	0.1	0.3773
253	14.633	3.6261	0.1	0.45809
254	15.485	3.6261	0.1	0.3759
255	16.325	3.6358	0.1	0.44342
256	17.166	3.666	0.1	0.63334
257	18.017	3.7038	0.1	0.59182
258	18.896	3.654	0.1	6.9157e-002
259	19.734	3.5256	0.1	0.46054
260	6.1381	2.6671	0.1	88.589
261	5.2084	3.0191	0.1	-13.071
262	20.58	3.469	0.1	0.56982
263	20.576	2.5864	0.1	0.795
264	6.875	3.4228	0.1	90.181
265	3.0119	3.0384	0.1	237.06
266	3.7129	3.3087	0.1	188.37
267	3.5407	2.0556	0.1	64.553
268	3.094	2.4324	0.1	227.25
269	3.9308	2.1033	0.1	64.099
270	21.45	2.5789	0.1	0.55301
271	21.445	3.4422	0.1	0.53018
272	5.7052	3.1111	0.1	155.94
273	6.416	2.136	0.1	85.
274	2.4566	4.424	0.1	209.35
275	3.2728	4.4566	0.1	114.23
276	3.2551	1.6505	0.1	44.127
277	2.5445	1.9011	0.1	236.59
278	3.9288	1.6956	0.1	25.909
279	6.2131	3.6863	0.1	77.04
280	6.0731	4.4836	0.1	4.7317
281	6.8283	4.8819	0.1	3.7298
282	4.8281	2.5568	0.1	-62.065
283	5.6567	2.5402	0.1	66.068
284	4.4358	3.4999	0.1	117.05
285	1.6286	4.3541	0.1	364.3
286	4.1692	1.1031	0.1	-33.358
287	22.326	1.7114	0.1	0.64122
288	22.302	4.3106	0.1	0.61369
289	6.2041	4.7155	0.1	-34.72
290	5.581	3.5083	0.1	78.671
291	5.7969	2.0829	0.1	52.246
292	5.7139	1.2948	0.1	-16.639
293	5.543	0.79466	0.1	-45.648
294	4.4309	3.9208	0.1	101.81
295	4.6807	4.7015	0.1	-23.18
296	4.8234	5.2052	0.1	-68.477
297	1.6711	5.1807	0.1	190.19
298	2.5425	5.2081	0.1	86.694
299	3.4995	5.2269	0.1	-10.139
300	0.84115	1.7123	0.1	348.91
301	0.81086	2.5729	0.1	382.6
302	0.80081	3.4501	0.1	381.51
303	0.81991	4.3081	0.1	342.46
304	0.83461	5.1505	0.1	201.92
305	3.4834	0.51299	0.1	-9.6835
306	2.6518	0.87464	0.1	69.537
307	1.7379	0.88189	0.1	203.08
308	0.85645	0.84811	0.1	205.91
309	4.477	2.1066	0.1	113.09
310	4.5138	1.734	0.1	3.5536
311	4.564	1.3903	0.1	-1.5117
312	4.4743	0.68781	0.1	22.009
313	22.322	0.84693	0.1	0.24262
314	21.466	0.85254	0.1	0.2285
315	20.612	0.84667	0.1	7.1386e-002
316	19.757	0.82977	0.1	0.16359
317	18.902	0.8022	0.1	0.40974
318	18.042	0.78135	0.1	0.26129
319	17.186	0.77837	0.1	0.11123
320	16.336	0.79129	0.1	0.20213
321	15.485	0.79129	0.1	0.32121
322	14.633	0.79129	0.1	0.26561
323	13.782	0.79129	0.1	0.31894
324	12.93	0.79129	0.1	0.34701
325	12.079	0.79129	0.1	0.33421
326	11.227	0.79129	0.1	0.82079
327	10.38	0.77863	0.1	3.7877
328	9.5284	0.77143	0.1	6.5867
329	8.6784	0.76196	0.1	8.9572
330	7.8195	0.75091	0.1	11.635
331	6.9026	0.75847	0.1	-13.379
332	23.158	4.3123	0.1	0.62153
333	23.155	3.4488	0.1	0.54407
334	23.163	2.5807	0.1	0.56295
335	23.179	1.7053	0.1	0.60997
336	23.164	0.84929	0.1	0.21255
337	5.7031	4.5825	0.1	30.231
338	6.0572	5.2299	0.1	-21.296
339	6.1686	5.5762	0.1	8.1472
340	6.9895	5.3901	0.1	-15.31
341	7.8114	5.224	0.1	-1.1384
342	8.6396	5.1858	0.1	6.0572
343	9.5085	5.2082	0.1	8.2111
344	10.376	5.2087	0.1	4.2105
345	11.227	5.2087	0.1	0.81712
346	12.079	5.2087	0.1	0.3919
347	12.93	5.2087	0.1	0.35353
348	13.782	5.2087	0.1	0.30831
349	14.633	5.2087	0.1	0.27388
350	15.485	5.2087	0.1	0.26664
351	16.336	5.2087	0.1	0.26781
352	17.188	5.2087	0.1	0.16102
353	18.039	5.2087	0.1	0.1849
354	18.891	5.2087	0.1	0.31974
355	19.746	5.193	0.1	0.20024
356	20.594	5.1937	0.1	0.22232
357	21.449	5.169	0.1	0.20687
358	22.309	5.1779	0.1	0.25966
359	23.157	5.16	0.1	0.23245
360	5.2458	2.5448	0.1	-66.481
361	5.0069	3.5795	0.1	-103.9
362	19.689	2.6066	0.1	1.3614
363	18.732	2.9825	0.1	1.0933
364	17.996	2.9813	0.1	0.37569
365	17.184	2.9126	0.1	0.36393
366	16.336	2.8348	0.1	0.59561
367	15.485	2.8348	0.1	0.38095
368	14.633	2.8348	0.1	0.41834
369	13.782	2.8348	0.1	0.3533
370	12.93	2.8348	0.1	0.36476
371	12.079	2.8348	0.1	1.8302
372	11.227	2.8348	0.1	8.3022
373	10.372	2.9077	0.1	18.442
374	9.5179	2.95	0.1	33.821
375	8.6566	2.9603	0.1	55.795
376	2.35	3.5968	0.1	284.93
377	8.6126	4.4195	0.1	38.709
378	9.5144	4.4245	0.1	20.162
379	10.379	4.426	0.1	10.81
380	11.227	4.4174	0.1	4.8285
381	12.079	4.4174	0.1	0.26478
382	12.93	4.4174	0.1	0.42197
383	13.782	4.4174	0.1	0.48072
384	14.633	4.4174	0.1	0.52041
385	15.485	4.4174	0.1	0.57286
386	16.328	4.4261	0.1	0.56802
387	17.176	4.4389	0.1	0.45055
388	18.025	4.4268	0.1	0.52483
389	18.893	4.4232	0.1	0.75607
390	19.745	4.3789	0.1	0.6664
391	20.583	4.3573	0.1	0.46814
392	21.45	4.3278	0.1	0.61534
393	22.311	3.4549	0.1	0.53238
394	22.33	2.5858	0.1	0.48234
395	1.596	2.6169	0.1	447.13
396	1.5778	3.4904	0.1	442.5
397	21.479	1.7015	0.1	0.5879
398	20.607	1.6939	0.1	0.60904
399	19.752	1.6718	0.1	0.60962
400	18.904	1.5987	0.1	0.42292
401	18.045	1.5451	0.1	0.62333
402	17.177	1.5512	0.1	0.70395
403	16.331	1.5745	0.1	0.54615
404	15.485	1.5826	0.1	0.52174
405	14.633	1.5826	0.1	0.5541
406	13.782	1.5826	0.1	0.49453
407	12.93	1.5826	0.1	0.36665
408	12.079	1.5826	0.1	0.59123
409	11.233	1.5733	0.1	4.4926
410	10.38	1.5553	0.1	10.447
411	9.5251	1.5428	0.1	17.576
412	8.6763	1.5299	0.1	27.745
413	7.8478	1.5049	0.1	35.584
414	1.6903	1.7322	0.1	369.44
415	7.6123	4.3217	0.1	39.785
416	3.8787	2.4744	0.1	145.26
417	7.0466	2.2324	0.1	71.451
418	7.0846	1.5185	0.1	26.831
419	6.8042	2.8904	0.1	157.98
420	4.3984	2.5404	0.1	27.518
421	3.9978	1.3734	0.1	-5.9075
422	3.1012	3.7343	0.1	208.15
423	6.2769	4.0726	0.1	2.5284
424	6.095	0.446	0.1	27.308
425	6.4012	1.5445	0.1	8.9057
426	4.0209	0.92618	0.1	-47.131
427	4.3203	5.5891	0.1	30.916
428	3.7963	2.8815	0.1	203.16
429	5.8279	3.3612	0.1	26.932
430	3.7507	3.837	0.1	117.62
431	4.8308	3.0602	0.1	-28.355
432	3.862	4.4104	0.1	16.949
433	5.7021	3.8489	0.1	85.532
434	5.8413	4.9709	0.1	16.631
435	5.7285	4.205	0.1	-5.0055
436	4.4958	4.3317	0.1	29.998
437	4.1419	4.9227	0.1	6.0712
438	6.2363	1.0521	0.1	1.2067
439	5.8461	1.6374	0.1	21.829
440	4.6072	1.0456	0.1	28.505
441	4.3181	0.36625	0.1	-15.889
442	5.2745	3.5176	0.1	-47.353
443	5.2667	5.6667	0.1	118.52
444	5.2667	5.3333	0.1	97.332
445	5.2667	5.	0.1	39.938
446	5.2667	4.6667	0.1	55.453
447	5.2667	4.3333	0.1	62.845
448	5.2667	4.	0.1	379.59
449	5.1	4.	0.1	425.26
450	5.1	4.3333	0.1	7.8652
451	5.1	4.6667	0.1	49.968
452	5.1	5.	0.1	82.911
453	5.1	5.3333	0.1	84.482
454	5.1	5.6667	0.1	65.461
455	5.2667	0.33333	0.1	47.073
456	5.2667	0.66667	0.1	60.457
457	5.2667	1.	0.1	77.679
458	5.2667	1.3333	0.1	31.528
459	5.2667	1.6667	0.1	3.1766
460	5.2667	2.	0.1	354.13
461	5.1	2.	0.1	223.78
462	5.1	1.6667	0.1	70.904
463	5.1	1.3333	0.1	72.919
464	5.1	1.	0.1	37.158
465	5.1	0.66667	0.1	50.297
466	5.1	0.33333	0.1	157.36
467	5.2667	6.	0.1	92.2
468	6.1182	6.	0.1	-1.3265
469	6.9697	6.	0.1	-25.363
470	7.8212	6.	0.1	-5.7409
471	8.6727	6.	0.1	3.3442
472	9.5242	6.	0.1	-1.1288
473	10.376	6.	0.1	1.4519
474	11.227	6.	0.1	0.45908
475	12.079	6.	0.1	0.38496
476	12.93	6.	0.1	0.18544
477	13.782	6.	0.1	3.2934e-002
478	14.633	6.	0.1	-5.6883e-002
479	15.485	6.	0.1	-0.1495
480	16.336	6.	0.1	-0.23474
481	17.188	6.	0.1	-0.17091
482	18.039	6.	0.1	-0.21396
483	18.891	6.	0.1	-0.29966
484	19.742	6.	0.1	-0.27951
485	20.594	6.	0.1	-0.30348
486	21.445	6.	0.1	-0.31807
487	22.297	6.	0.1	-0.29255
488	23.148	6.	0.1	-0.33613
489	24.	6.	0.1	-1.1215
490	24.	5.1429	0.1	0.15447
491	24.	4.2857	0.1	0.63421
492	24.	3.4286	0.1	0.59765
493	24.	2.5714	0.1	0.58218
494	24.	1.7143	0.1	0.63607
495	24.	0.85714	0.1	0.16125
496	7.4931e-015	0.85714	0.1	939.6
497	1.4986e-014	1.7143	0.1	1015.6
498	2.2479e-014	2.5714	0.1	1048.2
499	2.9972e-014	3.4286	0.1	1048.1
500	3.7465e-014	4.2857	0.1	1015.4
501	4.4958e-014	5.1429	0.1	939.33
502	24.	0.	0.1	-1.078
503	23.148	0.	0.1	-0.33427
504	22.297	0.	0.1	-0.29329
505	21.445	0.	0.1	-0.28147
506	20.594	0.	0.1	-0.29113
507	19.742	0.	0.1	-0.28164
508	18.891	0.	0.1	-0.24816
509	18.039	0.	0.1	-0.24877
510	17.188	0.	0.1	-0.18099
511	16.336	0.	0.1	-0.17309
512	15.485	0.	0.1	-0.15316
513	14.633	0.	0.1	-7.1385e-002
514	13.782	0.	0.1	4.0136e-002
515	12.93	0.	0.1	0.19917
516	12.079	0.	0.1	0.37969
517	11.227	0.	0.1	0.5913
518	10.376	0.	0.1	0.64068
519	9.5242	0.	0.1	0.90177
520	8.6727	0.	0.1	0.5762
521	7.8212	0.	0.1	-1.8124
522	6.9697	0.	0.1	-19.991
523	6.1182	0.	0.1	5.8826
524	5.2667	0.	0.1	112.04
525	5.1	0.	0.1	115.72
526	4.25	1.8198e-030	0.1	25.705
527	3.4	1.4558e-030	0.1	1.1759
528	2.55	1.0919e-030	0.1	22.935
529	1.7	7.2791e-031	0.1	85.677
530	0.85	3.6396e-031	0.1	16.352
531	0.	0.	0.1	556.64
532	3.937e-014	6.	0.1	545.36
533	0.85	6.	0.1	28.026
534	1.7	6.	0.1	80.373
535	2.55	6.	0.1	33.209
536	3.4	6.	0.1	-12.834
537	4.25	6.	0.1	27.085
538	5.1	6.	0.1	143.8
539	4.25	6.	0.	-27.085
540	3.4	6.	0.	12.834
541	2.55	6.	0.	-33.209
542	1.7	6.	0.	-80.373
543	0.85	6.	0.	-28.026
544	5.1	6.	0.	-143.8
545	3.937e-014	6.	0.	-545.36
546	0.85	3.6396e-031	0.	-16.352
547	1.7	7.2791e-031	0.	-85.677
548	2.55	1.0919e-030	0.	-22.935
549	3.4	1.4558e-030	0.	-1.1759
550	4.25	1.8198e-030	0.	-25.705
551	5.1	0.	0.	-115.72
552	0.	0.	0.	-556.64
553	6.1182	0.	0.	-5.8826
554	6.9697	0.	0.	19.991
555	7.8212	0.	0.	1.8124
556	8.6727	0.	0.	-0.57619
557	9.5242	0.	0.	-0.90177
558	10.376	0.	0.	-0.64068
559	11.227	0.	0.	-0.5913
560	12.079	0.	0.	-0.37969
561	12.93	0.	0.	-0.19917
562	13.782	0.	0.	-4.0136e-002
563	14.633	0.	0.	7.1385e-002
564	15.485	0.	0.	0.15316
565	16.336	0.	0.	0.17309
566	17.188	0.	0.	0.18099
567	18.039	0.	0.	0.24877
568	18.891	0.	0.	0.24816
569	19.742	0.	0.	0.28164
570	20.594	0.	0.	0.29113
571	21.445	0.	0.	0.28147
572	22.297	0.	0.	0.29329
573	23.148	0.	0.	0.33427
574	5.2667	0.	0.	-112.04
575	24.	0.	0.	1.078
576	4.4958e-014	5.1429	0.	-939.33
577	3.7465e-014	4.2857	0.	-1015.4
578	2.9972e-014	3.4286	0.	-1048.1
579	2.2479e-014	2.5714	0.	-1048.2
580	1.4986e-014	1.7143	0.	-1015.6
581	7.4931e-015	0.85714	0.	-939.6
582	24.	0.85714	0.	-0.16125
583	24.	1.7143	0.	-0.63607
584	24.	2.5714	0.	-0.58218
585	24.	3.4286	0.	-0.59765
586	24.	4.2857	0.	-0.63421
587	24.	5.1429	0.	-0.15447
588	24.	6.	0.	1.1215
589	23.148	6.	0.	0.33613
590	22.297	6.	0.	0.29255
591	21.445	6.	0.	0.31807
592	20.594	6.	0.	0.30348
593	19.742	6.	0.	0.27951
594	18.891	6.	0.	0.29966
595	18.039	6.	0.	0.21396
596	17.188	6.	0.	0.17091
597	16.336	6.	0.	0.23474
598	15.485	6.	0.	0.1495
599	14.633	6.	0.	5.6883e-002
600	13.782	6.	0.	-3.2934e-002
601	12.93	6.	0.	-0.18544
602	12.079	6.	0.	-0.38496
603	11.227	6.	0.	-0.45908
604	10.376	6.	0.	-1.4519
605	9.5242	6.	0.	1.1288
606	8.6727	6.	0.	-3.3442
607	7.8212	6.	0.	5.7409
608	6.9697	6.	0.	25.363
609	6.1182	6.	0.	1.3265
610	5.2667	6.	0.	-92.2
611	5.1	1.6667	0.	-70.904
612	5.1	1.3333	0.	-72.919
613	5.1	1.	0.	-37.158
614	5.1	0.66667	0.	-50.297
615	5.1	0.33333	0.	-157.36
616	5.1	2.	0.	-223.78
617	5.2667	0.33333	0.	-47.073
618	5.2667	0.66667	0.	-60.457
619	5.2667	1.	0.	-77.679
620	5.2667	1.3333	0.	-31.528
621	5.2667	1.6667	0.	-3.1766
622	5.2667	2.	0.	-354.13
623	5.1	4.3333	0.	-7.8652
624	5.1	4.6667	0.	-49.968
625	5.1	5.	0.	-82.911
626	5.1	5.3333	0.	-84.482
627	5.1	5.6667	0.	-65.461
628	5.1	4.	0.	-425.26
629	5.2667	5.6667	0.	-118.52
630	5.2667	5.3333	0.	-97.332
631	5.2667	5.	0.	-39.938
632	5.2667	4.6667	0.	-55.453
633	5.2667	4.3333	0.	-62.845
634	5.2667	4.	0.	-379.59
635	5.1407	3.5486	0.	75.681
636	5.4278	3.5129	0.	7.8384
637	5.2415	3.2683	0.	30.156
638	5.2745	3.5176	5.e-002	4.8975e-006
639	5.2706	3.7588	0.	-129.62
640	4.3962	0.52703	0.	-3.4534
641	3.9007	0.43962	0.	13.638
642	4.3181	0.36625	5.e-002	-6.4543e-015
643	4.284	0.18312	0.	-4.9335
644	4.709	0.34979	0.	-54.9
645	4.5407	0.8667	0.	-23.387
646	4.5856	1.2179	0.	-13.254
647	4.3882	1.0744	0.	6.5833
648	4.6072	1.0456	5.e-002	-8.97e-015
649	4.8536	1.0228	0.	-32.136
650	6.1237	1.591	0.	-14.014
651	5.78	1.4661	0.	-1.8265
652	5.8215	1.8602	0.	-34.54
653	5.8461	1.6374	5.e-002	1.8364e-006
654	5.5564	1.652	0.	-13.021
655	6.3188	1.2983	0.	-2.9292
656	6.5694	0.90528	0.	5.971
657	5.8896	0.92337	0.	22.218
658	5.9751	1.1735	0.	8.3023
659	6.2363	1.0521	5.e-002	2.1845e-006
660	4.0019	4.6665	0.	-5.5794
661	3.8207	5.0748	0.	2.6848
662	4.4826	5.0639	0.	31.034
663	4.4113	4.8121	0.	8.9469
664	4.1419	4.9227	5.e-002	6.9655e-006
665	4.1789	4.3711	0.	-16.725
666	4.5882	4.5166	0.	-3.3217
667	4.4633	4.1263	0.	-50.929
668	4.4958	4.3317	5.e-002	3.3221e-006
669	4.7979	4.3325	0.	-21.939
670	5.7153	4.027	0.	-40.456
671	6.0027	4.1388	0.	1.0694
672	5.7158	4.3938	0.	-10.078
673	5.7285	4.205	5.e-002	9.0891e-007
674	5.4976	4.2692	0.	-27.507
675	5.9492	5.1004	0.	1.4534
676	5.7722	4.7767	0.	-22.402
677	6.0227	4.8432	0.	5.9022
678	5.8413	4.9709	5.e-002	9.3531e-008
679	5.554	4.9855	0.	-26.413
680	5.6416	3.6786	0.	-54.818
681	5.9576	3.7676	0.	-34.791
682	5.7021	3.8489	5.e-002	-1.5362e-014
683	5.4844	3.9245	0.	-197.87
684	3.8064	4.1237	0.	-65.005
685	3.5674	4.4335	0.	-63.553
686	3.862	4.4104	5.e-002	-3.9163e-015
687	4.9188	3.3199	0.	66.683
688	4.8295	2.8085	0.	45.9
689	5.0196	3.0397	0.	20.879
690	4.5879	3.0365	0.	28.224
691	4.8308	3.0602	5.e-002	1.2148e-006
692	3.426	3.7857	0.	-162.98
693	4.0908	3.8789	0.	-103.17
694	3.7318	3.5729	0.	-153.13
695	3.7507	3.837	5.e-002	-3.051e-015
696	6.3161	3.1258	0.	-68.368
697	5.7044	3.4347	0.	-52.478
698	6.0205	3.5237	0.	-44.552
699	5.7665	3.2361	0.	-45.317
700	5.8279	3.3612	5.e-002	3.168e-008
701	3.8375	2.678	0.	-173.69
702	3.4452	2.6569	0.	-214.01
703	3.7546	3.0951	0.	-196.88
704	4.0706	2.9472	0.	-115.42
705	3.7963	2.8815	5.e-002	1.1567e-006
706	3.9099	5.408	0.	-10.447
707	4.5719	5.3972	0.	23.116
708	4.3203	5.5891	5.e-002	-8.0519e-015
709	4.2852	5.7945	0.	-30.271
710	4.7102	5.6279	0.	-35.106
711	4.2476	0.80699	0.	16.314
712	3.7521	0.71958	0.	31.
713	4.095	1.0147	0.	46.144
714	3.7119	1.0716	0.	12.075
715	4.0209	0.92618	5.e-002	-1.4119e-014
716	6.7429	1.5315	0.	-18.459
717	6.4086	1.8403	0.	-45.373
718	6.4012	1.5445	5.e-002	4.3492e-006
719	6.4988	0.60224	0.	-6.0648
720	5.819	0.62033	0.	12.256
721	6.095	0.446	5.e-002	5.3366e-007
722	6.1066	0.223	0.	-14.661
723	5.6808	0.38967	0.	-29.095
724	6.175	4.2781	0.	0.52665
725	6.245	3.8795	0.	-17.937
726	6.5748	4.0971	0.	-2.252
727	6.2769	4.0726	5.e-002	6.5213e-006
728	2.7256	3.6655	0.	-246.56
729	3.187	4.0954	0.	-161.65
730	3.0566	3.3863	0.	-223.39
731	3.1012	3.7343	5.e-002	2.2247e-005
732	4.2809	1.3818	0.	22.798
733	4.0835	1.2383	0.	18.41
734	3.9633	1.5345	0.	-2.9017
735	3.7003	1.2952	0.	-22.682
736	3.9978	1.3734	5.e-002	5.9972e-007
737	4.1386	2.5074	0.	-86.556
738	4.4377	2.3235	0.	-68.585
739	4.6132	2.5486	0.	32.22
740	4.3717	2.7766	0.	-33.335
741	4.3984	2.5404	5.e-002	-3.7105e-014
742	6.9254	2.5614	0.	-115.4
743	6.8396	3.1566	0.	-123.19
744	6.4712	2.7787	0.	-116.48
745	7.2945	2.9023	0.	-123.81
746	6.8042	2.8904	5.e-002	-3.3067e-007
747	7.0656	1.8754	0.	-48.999
748	7.4662	1.5117	0.	-31.463
749	6.9936	1.1385	0.	5.0867
750	7.0846	1.5185	5.e-002	3.4765e-007
751	6.7313	2.1842	0.	-78.913
752	7.4189	2.2416	0.	-69.977
753	7.0466	2.2324	5.e-002	6.8219e-006
754	3.9048	2.2888	0.	-105.48
755	3.5983	2.3539	0.	-235.2
756	3.8787	2.4744	5.e-002	-6.1344e-015
757	8.1124	4.3706	0.	-39.007
758	7.7118	4.7728	0.	-15.832
759	7.2203	4.6018	0.	-22.598
760	7.6935	3.9569	0.	-60.303
761	7.2424	4.2216	0.	-24.348
762	7.6123	4.3217	5.e-002	5.109e-006
763	1.6431	2.1745	0.	-408.87
764	1.7141	1.307	0.	-287.23
765	1.2657	1.7222	0.	-359.15
766	2.1174	1.8166	0.	-303.09
767	1.6903	1.7322	5.e-002	-2.8592e-015
768	8.2621	1.5174	0.	-31.679
769	7.8336	1.1279	0.	-23.627
770	7.8195	1.8778	0.	-52.165
771	7.8478	1.5049	5.e-002	-2.1817e-007
772	9.1007	1.5363	0.	-22.658
773	8.6773	1.1459	0.	-18.364
774	8.6659	1.8945	0.	-36.611
775	8.6763	1.5299	5.e-002	5.3089e-007
776	9.9527	1.549	0.	-14.02
777	9.5268	1.1571	0.	-12.142
778	9.5207	1.909	0.	-22.687
779	9.5251	1.5428	5.e-002	4.8604e-007
780	10.807	1.5643	0.	-7.4761
781	10.38	1.167	0.	-7.184
782	10.376	1.9259	0.	-13.396
783	10.38	1.5553	5.e-002	4.2454e-007
784	11.656	1.5779	0.	-2.1869
785	11.23	1.1823	0.	-2.6998
786	11.23	1.9736	0.	-5.902
787	11.233	1.5733	5.e-002	7.5606e-007
788	12.505	1.5826	0.	-0.46257
789	12.079	1.1869	0.	-0.45481
790	12.079	1.9782	0.	-0.78637
791	12.079	1.5826	5.e-002	7.1856e-007
792	13.356	1.5826	0.	-0.4305
793	12.93	1.1869	0.	-0.35683
794	12.93	1.9782	0.	-0.36709
795	12.93	1.5826	5.e-002	8.224e-007
796	14.208	1.5826	0.	-0.5243
797	13.782	1.1869	0.	-0.40613
798	13.782	1.9782	0.	-0.42176
799	13.782	1.5826	5.e-002	1.3828e-006
800	15.059	1.5826	0.	-0.53791
801	14.633	1.1869	0.	-0.40891
802	14.633	1.9782	0.	-0.47352
803	14.633	1.5826	5.e-002	1.7848e-006
804	15.908	1.5785	0.	-0.53397
805	15.485	1.1869	0.	-0.41989
806	15.485	1.9782	0.	-0.4217
807	15.485	1.5826	5.e-002	1.848e-006
808	16.754	1.5629	0.	-0.62516
809	16.334	1.1829	0.	-0.37333
810	16.334	1.9742	0.	-0.50318
811	16.331	1.5745	5.e-002	1.847e-006
812	17.611	1.5481	0.	-0.66356
813	17.181	1.1648	0.	-0.40734
814	17.184	1.929	0.	-0.54432
815	17.177	1.5512	5.e-002	1.8621e-006
816	18.474	1.5719	0.	-0.52288
817	18.044	1.1632	0.	-0.44238
818	18.036	1.9022	0.	-0.77053
819	18.045	1.5451	5.e-002	2.0537e-006
820	19.328	1.6352	0.	-0.51588
821	18.903	1.2004	0.	-0.41436
822	18.9	1.983	0.	-0.31499
823	18.904	1.5987	5.e-002	2.2415e-006
824	20.18	1.6829	0.	-0.6096
825	19.721	2.1392	0.	-0.98416
826	19.754	1.2508	0.	-0.38265
827	19.752	1.6718	5.e-002	1.6205e-006
828	21.043	1.6977	0.	-0.59888
829	20.609	1.2703	0.	-0.33821
830	20.591	2.1402	0.	-0.70006
831	20.607	1.6939	5.e-002	2.6564e-006
832	21.472	1.277	0.	-0.40676
833	21.903	1.7064	0.	-0.61481
834	21.464	2.1402	0.	-0.56895
835	21.479	1.7015	5.e-002	2.0071e-006
836	1.5869	3.0537	0.	-445.55
837	1.9639	3.5436	0.	-363.74
838	1.1893	3.4703	0.	-412.06
839	1.6032	3.9223	0.	-404.23
840	1.5778	3.4904	5.e-002	1.0034e-007
841	1.2034	2.5949	0.	-414.89
842	1.9601	2.6863	0.	-370.65
843	1.596	2.6169	5.e-002	-2.5072e-015
844	22.32	3.0204	0.	-0.50637
845	22.747	2.5832	0.	-0.52447
846	22.328	2.1486	0.	-0.56048
847	21.89	2.5823	0.	-0.518
848	22.33	2.5858	5.e-002	2.5003e-006
849	22.733	3.4519	0.	-0.53988
850	22.306	3.8828	0.	-0.57185
851	21.878	3.4486	0.	-0.53176
852	22.311	3.4549	5.e-002	2.7443e-006
853	21.016	4.3425	0.	-0.54198
854	21.45	4.7484	0.	-0.40938
855	21.876	4.3192	0.	-0.61494
856	21.448	3.885	0.	-0.57158
857	21.45	4.3278	5.e-002	2.499e-006
858	20.164	4.3681	0.	-0.56653
859	20.588	4.7755	0.	-0.34234
860	20.581	3.9131	0.	-0.51806
861	20.583	4.3573	5.e-002	2.5035e-006
862	19.319	4.401	0.	-0.71084
863	19.745	4.7859	0.	-0.43298
864	19.74	3.9522	0.	-0.55939
865	19.745	4.3789	5.e-002	2.333e-006
866	18.459	4.425	0.	-0.63923
867	18.892	4.816	0.	-0.53846
868	18.895	4.0386	0.	-0.40991
869	18.893	4.4232	5.e-002	2.3506e-006
870	17.6	4.4329	0.	-0.48758
871	18.032	4.8178	0.	-0.35343
872	18.021	4.0653	0.	-0.55699
873	18.025	4.4268	5.e-002	2.2172e-006
874	16.752	4.4325	0.	-0.5093
875	17.182	4.8238	0.	-0.30322
876	17.171	4.0525	0.	-0.54193
877	17.176	4.4389	5.e-002	1.9669e-006
878	15.906	4.4218	0.	-0.57033
879	16.332	4.8174	0.	-0.41576
880	16.326	4.0309	0.	-0.50517
881	16.328	4.4261	5.e-002	1.8854e-006
882	15.059	4.4174	0.	-0.54666
883	15.485	4.8131	0.	-0.41889
884	15.485	4.0218	0.	-0.47305
885	15.485	4.4174	5.e-002	1.0876e-006
886	14.208	4.4174	0.	-0.50054
887	14.633	4.8131	0.	-0.39612
888	14.633	4.0218	0.	-0.48826
889	14.633	4.4174	5.e-002	4.1725e-007
890	13.356	4.4174	0.	-0.45123
891	13.782	4.8131	0.	-0.39385
892	13.782	4.0218	0.	-0.42816
893	13.782	4.4174	5.e-002	1.154e-006
894	12.505	4.4174	0.	-0.32306
895	12.93	4.8131	0.	-0.3877
896	12.93	4.0218	0.	-0.35394
897	12.93	4.4174	5.e-002	2.5159e-006
898	11.653	4.4174	0.	-2.4235
899	12.079	4.8131	0.	-0.31446
900	12.079	4.0218	0.	-0.685
901	12.079	4.4174	5.e-002	1.5591e-006
902	10.803	4.4217	0.	-7.8262
903	11.227	4.8131	0.	-2.8928
904	11.23	4.0266	0.	-6.1472
905	11.227	4.4174	5.e-002	7.3105e-007
906	9.9468	4.4252	0.	-15.495
907	10.377	4.8173	0.	-7.5747
908	10.381	4.0438	0.	-13.629
909	10.379	4.426	5.e-002	1.1217e-006
910	9.0635	4.422	0.	-29.44
911	9.5115	4.8163	0.	-14.225
912	9.5116	4.055	0.	-26.041
913	9.5144	4.4245	5.e-002	5.6072e-007
914	8.6261	4.8026	0.	-22.418
915	8.6197	4.05	0.	-47.009
916	8.6126	4.4195	5.e-002	9.0894e-007
917	2.4033	4.0104	0.	-247.74
918	2.3371	3.1762	0.	-290.05
919	2.35	3.5968	5.e-002	7.4801e-006
920	9.0872	2.9552	0.	-44.808
921	8.6417	3.3205	0.	-55.519
922	8.656	2.6097	0.	-50.649
923	8.2207	2.9373	0.	-72.823
924	8.6566	2.9603	5.e-002	-2.139e-008
925	9.9448	2.9289	0.	-26.122
926	9.5133	3.3178	0.	-32.847
927	9.5171	2.6126	0.	-30.802
928	9.5179	2.95	5.e-002	2.8454e-007
929	10.8	2.8713	0.	-13.37
930	10.377	3.2847	0.	-17.435
931	10.372	2.6022	0.	-17.338
932	10.372	2.9077	5.e-002	3.0833e-007
933	11.653	2.8348	0.	-5.0558
934	11.23	3.2353	0.	-7.8653
935	11.227	2.6044	0.	-7.7543
936	11.227	2.8348	5.e-002	6.2298e-007
937	12.505	2.8348	0.	-0.31223
938	12.079	3.2305	0.	-1.5632
939	12.079	2.6044	0.	-1.6116
940	12.079	2.8348	5.e-002	5.7523e-007
941	13.356	2.8348	0.	-0.35908
942	12.93	3.2305	0.	-0.32556
943	12.93	2.6044	0.	-0.36626
944	12.93	2.8348	5.e-002	-1.1703e-007
945	14.208	2.8348	0.	-0.38585
946	13.782	3.2305	0.	-0.36462
947	13.782	2.6044	0.	-0.35167
948	13.782	2.8348	5.e-002	1.0735e-006
949	15.059	2.8348	0.	-0.39968
950	14.633	3.2305	0.	-0.43731
951	14.633	2.6044	0.	-0.40688
952	14.633	2.8348	5.e-002	2.4958e-006
953	15.911	2.8348	0.	-0.48824
954	15.485	3.2305	0.	-0.37769
955	15.485	2.6044	0.	-0.35168
956	15.485	2.8348	5.e-002	1.968e-006
957	16.76	2.8737	0.	-0.47977
958	16.331	3.2353	0.	-0.51915
959	16.336	2.6044	0.	-0.52651
960	16.336	2.8348	5.e-002	1.5714e-006
961	17.59	2.9469	0.	-0.37009
962	17.175	3.2893	0.	-0.49796
963	17.187	2.6097	0.	-0.3718
964	17.184	2.9126	5.e-002	1.904e-006
965	18.364	2.9819	0.	-0.7326
966	18.007	3.3425	0.	-0.48374
967	18.012	2.6203	0.	-0.64817
968	17.996	2.9813	5.e-002	2.1385e-006
969	19.211	2.7946	0.	-1.2269
970	18.814	3.3183	0.	-0.57609
971	18.814	2.6749	0.	-0.64919
972	18.732	2.9825	5.e-002	1.6725e-006
973	20.133	2.5965	0.	-1.0798
974	19.712	3.0661	0.	-0.91146
975	19.292	2.487	0.	-0.78051
976	19.689	2.6066	5.e-002	2.5844e-006
977	4.7213	3.5397	0.	41.524
978	5.0069	3.5795	5.e-002	1.5857e-006
979	5.0534	3.7898	0.	-159.45
980	5.4513	2.5425	0.	19.199
981	5.037	2.5508	0.	64.109
982	5.2271	2.782	0.	39.804
983	5.2458	2.5448	5.e-002	3.0987e-006
984	5.2563	2.2724	0.	-126.83
985	22.733	5.169	0.	-0.24611
986	23.157	4.7361	0.	-0.42554
987	23.157	5.16	5.e-002	3.2781e-006
988	23.578	5.1514	0.	-0.19634
989	23.153	5.58	0.	5.424e-002
990	21.879	5.1734	0.	-0.23327
991	22.305	4.7443	0.	-0.43505
992	22.309	5.1779	5.e-002	3.2584e-006
993	22.303	5.589	0.	2.0729e-002
994	21.021	5.1813	0.	-0.2146
995	21.449	5.169	5.e-002	2.9219e-006
996	21.447	5.5845	0.	6.1296e-002
997	20.17	5.1933	0.	-0.21132
998	20.594	5.1937	5.e-002	2.7442e-006
999	20.594	5.5968	0.	4.6669e-002
1000	19.318	5.2009	0.	-0.25999
1001	19.746	5.193	5.e-002	2.5812e-006
1002	19.744	5.5965	0.	4.4711e-002
1003	18.465	5.2087	0.	-0.25232
1004	18.891	5.2087	5.e-002	2.3607e-006
1005	18.891	5.6044	0.	-4.6454e-003
1006	17.614	5.2087	0.	-0.17297
1007	18.039	5.2087	5.e-002	2.3665e-006
1008	18.039	5.6044	0.	2.141e-002
1009	16.762	5.2087	0.	-0.2144
1010	17.188	5.2087	5.e-002	2.0979e-006
1011	17.188	5.6044	0.	1.126e-002
1012	15.911	5.2087	0.	-0.26722
1013	16.336	5.2087	5.e-002	1.9412e-006
1014	16.336	5.6044	0.	-1.301e-002
1015	15.059	5.2087	0.	-0.27025
1016	15.485	5.2087	5.e-002	1.6609e-006
1017	15.485	5.6044	0.	-5.5059e-002
1018	14.208	5.2087	0.	-0.29107
1019	14.633	5.2087	5.e-002	1.7047e-006
1020	14.633	5.6044	0.	-0.10535
1021	13.356	5.2087	0.	-0.33087
1022	13.782	5.2087	5.e-002	1.6302e-006
1023	13.782	5.6044	0.	-0.16829
1024	12.505	5.2087	0.	-0.37249
1025	12.93	5.2087	5.e-002	1.6997e-006
1026	12.93	5.6044	0.	-0.26881
1027	11.653	5.2087	0.	-0.5041
1028	12.079	5.2087	5.e-002	1.6709e-006
1029	12.079	5.6044	0.	-0.39052
1030	10.802	5.2087	0.	-2.5228
1031	11.227	5.2087	5.e-002	1.2345e-006
1032	11.227	5.6044	0.	-0.55129
1033	9.9422	5.2084	0.	-6.2201
1034	10.376	5.2087	5.e-002	8.3081e-007
1035	10.376	5.6044	0.	-2.4672
1036	9.0741	5.197	0.	-7.1455
1037	9.5085	5.2082	5.e-002	1.3803e-006
1038	9.5164	5.6041	0.	-3.0382
1039	8.2255	5.2049	0.	0.56362
1040	8.6396	5.1858	5.e-002	4.0558e-007
1041	8.6562	5.5929	0.	-1.3799
1042	7.4004	5.307	0.	8.2134
1043	7.8114	5.224	5.e-002	1.6272e-007
1044	7.8163	5.612	0.	4.1498
1045	6.579	5.4832	0.	3.6657
1046	6.9089	5.136	0.	7.6596
1047	6.9895	5.3901	5.e-002	9.8537e-007
1048	6.9796	5.695	0.	20.477
1049	6.1129	5.4031	0.	6.5883
1050	6.1686	5.5762	5.e-002	9.5359e-007
1051	6.1434	5.7881	0.	-3.4891
1052	5.7176	5.6214	0.	-45.438
1053	6.4428	5.0559	0.	11.967
1054	6.0572	5.2299	5.e-002	1.2406e-007
1055	5.6619	5.2816	0.	-23.876
1056	5.8881	4.5331	0.	22.758
1057	5.7031	4.5825	5.e-002	-8.4614e-015
1058	5.4849	4.6246	0.	-39.589
1059	23.172	1.2773	0.	-0.40964
1060	22.743	0.84811	0.	-0.22768
1061	23.164	0.84929	5.e-002	2.5393e-006
1062	23.156	0.42465	0.	6.3243e-002
1063	23.582	0.85322	0.	-0.19083
1064	23.171	2.143	0.	-0.58519
1065	22.753	1.7084	0.	-0.62646
1066	23.179	1.7053	5.e-002	3.0352e-006
1067	23.59	1.7098	0.	-0.62986
1068	23.159	3.0147	0.	-0.55231
1069	23.163	2.5807	5.e-002	2.7776e-006
1070	23.582	2.576	0.	-0.57594
1071	23.156	3.8806	0.	-0.58152
1072	23.155	3.4488	5.e-002	3.2157e-006
1073	23.577	3.4387	0.	-0.57433
1074	22.73	4.3115	0.	-0.61853
1075	23.158	4.3123	5.e-002	3.1294e-006
1076	23.579	4.299	0.	-0.63376
1077	7.361	0.75469	0.	8.4623
1078	6.9026	0.75847	5.e-002	1.6576e-006
1079	6.9361	0.37924	0.	16.632
1080	8.2489	0.75644	0.	-10.274
1081	7.8195	0.75091	5.e-002	-2.3271e-007
1082	7.8203	0.37545	0.	-3.5315
1083	9.1034	0.76669	0.	-7.7539
1084	8.6784	0.76196	5.e-002	1.3381e-007
1085	8.6755	0.38098	0.	-4.662
1086	9.9541	0.77503	0.	-5.2
1087	9.5284	0.77143	5.e-002	1.2276e-006
1088	9.5263	0.38571	0.	-3.7431
1089	10.803	0.78496	0.	-2.2862
1090	10.38	0.77863	5.e-002	8.0218e-007
1091	10.378	0.38932	0.	-1.8082
1092	11.653	0.79129	0.	-0.46628
1093	11.227	0.79129	5.e-002	9.5316e-007
1094	11.227	0.39565	0.	-0.6118
1095	12.505	0.79129	0.	-0.34028
1096	12.079	0.79129	5.e-002	9.5365e-007
1097	12.079	0.39565	0.	-0.35945
1098	13.356	0.79129	0.	-0.33295
1099	12.93	0.79129	5.e-002	1.4181e-006
1100	12.93	0.39565	0.	-0.27144
1101	14.208	0.79129	0.	-0.29226
1102	13.782	0.79129	5.e-002	1.5166e-006
1103	13.782	0.39565	0.	-0.17715
1104	15.059	0.79129	0.	-0.29341
1105	14.633	0.79129	5.e-002	1.7893e-006
1106	14.633	0.39565	0.	-9.4048e-002
1107	15.911	0.79129	0.	-0.26156
1108	15.485	0.79129	5.e-002	1.7704e-006
1109	15.485	0.39565	0.	-8.0765e-002
1110	16.761	0.78483	0.	-0.15664
1111	16.336	0.79129	5.e-002	1.836e-006
1112	16.336	0.39565	0.	-8.3428e-003
1113	17.614	0.77986	0.	-0.18618
1114	17.186	0.77837	5.e-002	2.2086e-006
1115	17.187	0.38919	0.	4.3749e-002
1116	18.472	0.79178	0.	-0.33542
1117	18.042	0.78135	5.e-002	2.4781e-006
1118	18.041	0.39067	0.	3.37e-004
1119	19.329	0.81598	0.	-0.28666
1120	18.902	0.8022	5.e-002	2.511e-006
1121	18.896	0.4011	0.	-7.6431e-002
1122	20.184	0.83822	0.	-0.11751
1123	19.757	0.82977	5.e-002	2.6572e-006
1124	19.75	0.41488	0.	6.1497e-002
1125	21.039	0.84961	0.	-0.14996
1126	20.612	0.84667	5.e-002	2.8171e-006
1127	20.603	0.42334	0.	0.11499
1128	21.894	0.84974	0.	-0.23556
1129	21.466	0.85254	5.e-002	2.6968e-006
1130	21.456	0.42627	0.	3.1609e-002
1131	22.324	1.2791	0.	-0.44022
1132	22.322	0.84693	5.e-002	2.5772e-006
1133	22.31	0.42347	0.	2.9016e-002
1134	4.4743	0.68781	5.e-002	-6.9271e-015
1135	4.7871	0.67724	0.	-32.242
1136	4.5389	1.5621	0.	-0.48392
1137	4.564	1.3903	5.e-002	-8.2688e-015
1138	4.832	1.3618	0.	-34.996
1139	4.4954	1.9203	0.	-49.948
1140	4.2213	1.7148	0.	-0.73385
1141	4.5138	1.734	5.e-002	1.2041e-005
1142	4.8069	1.7003	0.	-42.474
1143	4.2039	2.1049	0.	-84.502
1144	4.477	2.1066	5.e-002	-5.7663e-015
1145	4.7885	2.0533	0.	-153.48
1146	1.2972	0.865	0.	-204.38
1147	0.8488	1.2802	0.	-279.21
1148	0.85645	0.84811	5.e-002	-3.7723e-015
1149	0.85322	0.42406	0.	-115.04
1150	0.42822	0.85263	0.	-577.36
1151	2.1949	0.87827	0.	-136.36
1152	1.7379	0.88189	5.e-002	-3.0385e-015
1153	1.719	0.44095	0.	-143.96
1154	3.0676	0.69381	0.	-24.309
1155	2.5981	1.3879	0.	-154.36
1156	3.0274	1.0459	0.	-60.904
1157	2.6518	0.87464	5.e-002	-2.6371e-015
1158	2.6009	0.43732	0.	-45.494
1159	3.4834	0.51299	5.e-002	2.9293e-007
1160	3.4417	0.25649	0.	5.1008
1161	0.82726	4.7293	0.	-274.43
1162	1.2529	5.1656	0.	-196.
1163	0.83461	5.1505	5.e-002	3.7531e-007
1164	0.8423	5.5753	0.	-118.57
1165	0.4173	5.1467	0.	-575.82
1166	0.81036	3.8791	0.	-362.57
1167	1.2243	4.3311	0.	-353.45
1168	0.81991	4.3081	5.e-002	2.1534e-007
1169	0.40996	4.2969	0.	-678.29
1170	0.80583	3.0115	0.	-382.27
1171	0.80081	3.4501	5.e-002	1.6106e-007
1172	0.4004	3.4393	0.	-714.03
1173	0.826	2.1426	0.	-366.32
1174	0.81086	2.5729	5.e-002	-1.8294e-015
1175	0.40543	2.5722	0.	-714.69
1176	0.84115	1.7123	5.e-002	-1.6351e-015
1177	0.42057	1.7133	0.	-681.47
1178	3.021	5.2175	0.	-30.172
1179	3.3861	4.8417	0.	-44.026
1180	3.4995	5.2269	5.e-002	1.1511e-006
1181	3.4497	5.6135	0.	11.325
1182	2.1068	5.1944	0.	-138.74
1183	2.4995	4.816	0.	-148.09
1184	2.5425	5.2081	5.e-002	-1.4492e-015
1185	2.5462	5.6041	0.	-60.34
1186	1.6499	4.7674	0.	-277.94
1187	1.6711	5.1807	5.e-002	-2.7845e-015
1188	1.6856	5.5903	0.	-134.41
1189	4.8554	5.1026	0.	59.824
1190	4.8234	5.2052	5.e-002	-2.1035e-014
1191	4.9617	5.2693	0.	5.5646
1192	4.7841	4.8507	0.	41.97
1193	4.6807	4.7015	5.e-002	1.4835e-006
1194	4.8903	4.6841	0.	-1.3513
1195	4.4333	3.7104	0.	-95.512
1196	4.4309	3.9208	5.e-002	-4.8595e-006
1197	4.7654	3.9604	0.	-237.76
1198	5.5111	0.89733	0.	47.19
1199	5.543	0.79466	5.e-002	-1.4321e-014
1200	5.4048	0.73066	0.	6.0833
1201	5.5965	1.1474	0.	36.748
1202	5.7139	1.2948	5.e-002	4.3649e-006
1203	5.4903	1.3141	0.	-0.29153
1204	5.7268	2.3116	0.	-44.271
1205	6.1065	2.1095	0.	-60.755
1206	5.7969	2.0829	5.e-002	2.3113e-006
1207	5.5318	2.0415	0.	-185.94
1208	5.5335	3.2767	0.	-37.37
1209	5.581	3.5083	5.e-002	-3.8819e-006
1210	6.5162	4.7987	0.	17.606
1211	6.1386	4.5995	0.	26.797
1212	6.5383	4.4185	0.	17.693
1213	6.2041	4.7155	5.e-002	8.7428e-008
1214	22.302	4.3106	5.e-002	2.8188e-006
1215	22.326	1.7114	5.e-002	2.4333e-006
1216	4.1692	1.1031	5.e-002	2.8155e-007
1217	2.0426	4.389	0.	-286.83
1218	1.6286	4.3541	5.e-002	-3.6529e-015
1219	4.0743	3.4043	0.	-152.43
1220	4.3903	3.2564	0.	-74.502
1221	4.4358	3.4999	5.e-002	4.2038e-007
1222	5.8974	2.6037	0.	-73.078
1223	5.5713	2.7926	0.	-12.661
1224	5.6567	2.5402	5.e-002	9.0212e-007
1225	4.8281	2.5568	5.e-002	-1.8525e-006
1226	4.9641	2.2784	0.	-80.41
1227	6.8283	4.8819	5.e-002	7.1363e-007
1228	6.0731	4.4836	5.e-002	1.888e-005
1229	6.5441	3.5545	0.	-89.622
1230	6.2131	3.6863	5.e-002	-6.768e-015
1231	3.5919	1.673	0.	-33.603
1232	3.9298	1.8994	0.	-45.597
1233	3.9288	1.6956	5.e-002	-1.2868e-006
1234	2.8998	1.7758	0.	-138.03
1235	2.8192	2.1667	0.	-230.82
1236	2.4343	2.3284	0.	-265.72
1237	2.5445	1.9011	5.e-002	-8.5021e-007
1238	3.3979	1.853	0.	-47.313
1239	3.2865	1.9419	0.	-180.33
1240	3.329	1.4338	0.	-42.507
1241	3.2551	1.6505	5.e-002	-3.9337e-007
1242	2.8647	4.4403	0.	-161.79
1243	3.2728	4.4566	5.e-002	1.0752e-005
1244	2.4566	4.424	5.e-002	7.3335e-007
1245	6.2771	2.4016	0.	-82.862
1246	6.416	2.136	5.e-002	7.5537e-007
1247	5.9217	2.8891	0.	-121.57
1248	5.5956	3.0781	0.	-60.072
1249	5.7052	3.1111	5.e-002	1.1485e-006
1250	21.447	3.0106	0.	-0.54054
1251	21.013	3.4556	0.	-0.55103
1252	21.445	3.4422	5.e-002	2.4739e-006
1253	21.013	2.5827	0.	-0.67516
1254	21.45	2.5789	5.e-002	2.4937e-006
1255	3.7357	2.0794	0.	-62.158
1256	3.9308	2.1033	5.e-002	4.8272e-006
1257	3.053	2.7354	0.	-231.71
1258	3.2059	2.3329	0.	-275.67
1259	3.094	2.4324	5.e-002	2.7867e-007
1260	3.4293	2.1445	0.	-194.33
1261	3.5407	2.0556	5.e-002	-3.1556e-015
1262	3.3624	3.1736	0.	-213.02
1263	3.7129	3.3087	5.e-002	-8.9054e-007
1264	2.6681	2.897	0.	-265.58
1265	3.0119	3.0384	5.e-002	1.3009e-005
1266	7.3249	3.5074	0.	-84.97
1267	6.8738	3.7722	0.	-51.023
1268	6.875	3.4228	5.e-002	3.9334e-006
1269	20.578	3.0277	0.	-0.68196
1270	20.576	2.5864	5.e-002	1.9672e-006
1271	20.157	3.4973	0.	-0.51549
1272	20.58	3.469	5.e-002	2.7488e-006
1273	5.3472	3.0321	0.	7.7903
1274	5.2084	3.0191	5.e-002	1.4124e-009
1275	6.1381	2.6671	5.e-002	5.6658e-008
1276	19.315	3.5898	0.	-0.2639
1277	19.734	3.5256	5.e-002	2.5301e-006
1278	18.457	3.6789	0.	-0.33
1279	18.896	3.654	5.e-002	2.2476e-006
1280	17.591	3.6849	0.	-0.61263
1281	18.017	3.7038	5.e-002	2.0422e-006
1282	16.745	3.6509	0.	-0.53845
1283	17.166	3.666	5.e-002	2.1096e-006
1284	15.905	3.6309	0.	-0.40969
1285	16.325	3.6358	5.e-002	1.8118e-006
1286	15.059	3.6261	0.	-0.41702
1287	15.485	3.6261	5.e-002	1.7575e-006
1288	14.208	3.6261	0.	-0.41772
1289	14.633	3.6261	5.e-002	1.1289e-006
1290	13.356	3.6261	0.	-0.33235
1291	13.782	3.6261	5.e-002	1.155e-006
1292	12.505	3.6261	0.	-0.35916
1293	12.93	3.6261	5.e-002	9.5433e-007
1294	11.656	3.6309	0.	-4.2615
1295	12.079	3.6261	5.e-002	1.0388e-006
1296	10.808	3.6487	0.	-11.872
1297	11.233	3.6357	5.e-002	8.3122e-007
1298	9.946	3.6736	0.	-24.129
1299	10.383	3.6616	5.e-002	7.5148e-007
1300	9.0678	3.6831	0.	-43.578
1301	9.5088	3.6855	5.e-002	9.9695e-008
1302	8.2008	3.6363	0.	-68.369
1303	8.6269	3.6806	5.e-002	-2.1339e-007
1304	9.0859	2.2671	0.	-36.612
1305	8.2233	2.2549	0.	-56.937
1306	8.6554	2.2591	5.e-002	3.044e-007
1307	9.9442	2.2859	0.	-22.002
1308	9.5163	2.2752	5.e-002	-1.9504e-009
1309	10.8	2.3352	0.	-11.744
1310	10.372	2.2966	5.e-002	6.2532e-007
1311	11.653	2.3739	0.	-4.2859
1312	11.227	2.3739	5.e-002	3.9232e-007
1313	12.505	2.3739	0.	-0.36182
1314	12.079	2.3739	5.e-002	4.9168e-007
1315	13.356	2.3739	0.	-0.35967
1316	12.93	2.3739	5.e-002	4.7082e-007
1317	14.208	2.3739	0.	-0.37317
1318	13.782	2.3739	5.e-002	1.1642e-006
1319	15.059	2.3739	0.	-0.35945
1320	14.633	2.3739	5.e-002	2.017e-006
1321	15.911	2.3739	0.	-0.3921
1322	15.485	2.3739	5.e-002	1.9688e-006
1323	16.764	2.3403	0.	-0.42321
1324	16.336	2.3739	5.e-002	1.8278e-006
1325	17.609	2.283	0.	-0.65411
1326	17.191	2.3068	5.e-002	1.9241e-006
1327	18.462	2.3133	0.	-0.56411
1328	18.028	2.2593	5.e-002	1.77e-006
1329	18.896	2.3673	5.e-002	2.0505e-006
1330	4.3449	3.0128	5.e-002	2.4729e-006
1331	3.3178	2.2334	5.e-002	-7.3521e-007
1332	7.7879	2.5825	0.	-79.184
1333	7.7911	2.2507	5.e-002	-6.81e-007
1334	7.7797	3.2532	0.	-85.579
1335	7.7747	3.592	5.e-002	2.6376e-006
1336	7.7847	2.9143	5.e-002	-1.5298e-007
1337	5.4792	1.	5.e-002	-1.0455e-014
1338	5.3729	1.	0.	-11.55
1339	4.8875	5.	5.e-002	5.8901e-007
1340	4.9938	5.	0.	-19.412
1341	5.4859	3.0451	5.e-002	1.7404e-006
1342	3.4029	1.2171	5.e-002	-2.7822e-014
1343	6.8726	4.1216	5.e-002	3.4882e-006
1344	2.3242	2.7556	5.e-002	-1.4425e-006
1345	2.6681	2.897	0.1	265.58
1346	2.4343	2.3284	0.1	265.72
1347	2.3371	3.1762	0.1	290.05
1348	1.9601	2.6863	0.1	370.65
1349	6.8738	3.7722	0.1	51.023
1350	6.5383	4.4185	0.1	-17.693
1351	7.2424	4.2216	0.1	24.348
1352	6.5748	4.0971	0.1	2.252
1353	3.329	1.4338	0.1	42.507
1354	3.0274	1.0459	0.1	60.904
1355	3.7003	1.2952	0.1	22.682
1356	3.7119	1.0716	0.1	-12.075
1357	5.3472	3.0321	0.1	-7.7903
1358	5.5956	3.0781	0.1	60.072
1359	5.5713	2.7926	0.1	12.661
1360	5.5335	3.2767	0.1	37.37
1361	4.7841	4.8507	0.1	-41.97
1362	4.8554	5.1026	0.1	-59.824
1363	4.9938	5.	0.1	19.412
1364	5.5965	1.1474	0.1	-36.748
1365	5.5111	0.89733	0.1	-47.19
1366	5.3729	1.	0.1	11.55
1367	7.7797	3.2532	0.1	85.579
1368	7.7879	2.5825	0.1	79.184
1369	8.2207	2.9373	0.1	72.823
1370	7.2945	2.9023	0.1	123.81
1371	8.2008	3.6363	0.1	68.369
1372	7.3249	3.5074	0.1	84.97
1373	7.6935	3.9569	0.1	60.303
1374	8.2233	2.2549	0.1	56.937
1375	7.8195	1.8778	0.1	52.165
1376	7.4189	2.2416	0.1	69.977
1377	3.4293	2.1445	0.1	194.33
1378	3.2059	2.3329	0.1	275.67
1379	3.2865	1.9419	0.1	180.33
1380	3.5983	2.3539	0.1	235.2
1381	4.3903	3.2564	0.1	74.502
1382	4.3717	2.7766	0.1	33.335
1383	4.0706	2.9472	0.1	115.42
1384	4.5879	3.0365	0.1	-28.224
1385	18.462	2.3133	0.1	0.56411
1386	19.292	2.487	0.1	0.78051
1387	18.814	2.6749	0.1	0.64919
1388	18.9	1.983	0.1	0.31499
1389	17.609	2.283	0.1	0.65411
1390	18.012	2.6203	0.1	0.64817
1391	18.036	1.9022	0.1	0.77053
1392	16.764	2.3403	0.1	0.42321
1393	17.187	2.6097	0.1	0.3718
1394	17.184	1.929	0.1	0.54432
1395	15.911	2.3739	0.1	0.3921
1396	16.336	2.6044	0.1	0.52651
1397	16.334	1.9742	0.1	0.50318
1398	15.059	2.3739	0.1	0.35945
1399	15.485	2.6044	0.1	0.35168
1400	15.485	1.9782	0.1	0.4217
1401	14.208	2.3739	0.1	0.37317
1402	14.633	2.6044	0.1	0.40688
1403	14.633	1.9782	0.1	0.47352
1404	13.356	2.3739	0.1	0.35967
1405	13.782	2.6044	0.1	0.35167
1406	13.782	1.9782	0.1	0.42176
1407	12.505	2.3739	0.1	0.36182
1408	12.93	2.6044	0.1	0.36626
1409	12.93	1.9782	0.1	0.36709
1410	11.653	2.3739	0.1	4.2859
1411	12.079	2.6044	0.1	1.6116
1412	12.079	1.9782	0.1	0.78637
1413	10.8	2.3352	0.1	11.744
1414	11.227	2.6044	0.1	7.7543
1415	11.23	1.9736	0.1	5.902
1416	9.9442	2.2859	0.1	22.002
1417	10.372	2.6022	0.1	17.338
1418	10.376	1.9259	0.1	13.396
1419	9.0859	2.2671	0.1	36.612
1420	9.5171	2.6126	0.1	30.802
1421	9.5207	1.909	0.1	22.687
1422	8.656	2.6097	0.1	50.649
1423	8.6659	1.8945	0.1	36.611
1424	9.0678	3.6831	0.1	43.578
1425	8.6417	3.3205	0.1	55.519
1426	8.6197	4.05	0.1	47.009
1427	9.946	3.6736	0.1	24.129
1428	9.5133	3.3178	0.1	32.847
1429	9.5116	4.055	0.1	26.041
1430	10.808	3.6487	0.1	11.872
1431	10.377	3.2847	0.1	17.435
1432	10.381	4.0438	0.1	13.629
1433	11.656	3.6309	0.1	4.2615
1434	11.23	3.2353	0.1	7.8653
1435	11.23	4.0266	0.1	6.1472
1436	12.505	3.6261	0.1	0.35916
1437	12.079	3.2305	0.1	1.5632
1438	12.079	4.0218	0.1	0.685
1439	13.356	3.6261	0.1	0.33235
1440	12.93	3.2305	0.1	0.32556
1441	12.93	4.0218	0.1	0.35394
1442	14.208	3.6261	0.1	0.41772
1443	13.782	3.2305	0.1	0.36462
1444	13.782	4.0218	0.1	0.42816
1445	15.059	3.6261	0.1	0.41702
1446	14.633	3.2305	0.1	0.43731
1447	14.633	4.0218	0.1	0.48826
1448	15.905	3.6309	0.1	0.40969
1449	15.485	3.2305	0.1	0.37769
1450	15.485	4.0218	0.1	0.47305
1451	16.745	3.6509	0.1	0.53845
1452	16.331	3.2353	0.1	0.51915
1453	16.326	4.0309	0.1	0.50517
1454	17.591	3.6849	0.1	0.61263
1455	17.175	3.2893	0.1	0.49796
1456	17.171	4.0525	0.1	0.54193
1457	18.457	3.6789	0.1	0.33
1458	18.007	3.3425	0.1	0.48374
1459	18.021	4.0653	0.1	0.55699
1460	19.315	3.5898	0.1	0.2639
1461	18.814	3.3183	0.1	0.57609
1462	18.895	4.0386	0.1	0.40991
1463	20.157	3.4973	0.1	0.51549
1464	19.712	3.0661	0.1	0.91146
1465	19.74	3.9522	0.1	0.55939
1466	5.9217	2.8891	0.1	121.57
1467	6.2771	2.4016	0.1	82.862
1468	5.8974	2.6037	0.1	73.078
1469	6.4712	2.7787	0.1	116.48
1470	5.2271	2.782	0.1	-39.804
1471	5.0196	3.0397	0.1	-20.879
1472	5.2415	3.2683	0.1	-30.156
1473	20.578	3.0277	0.1	0.68196
1474	21.013	3.4556	0.1	0.55103
1475	20.581	3.9131	0.1	0.51806
1476	21.013	2.5827	0.1	0.67516
1477	20.133	2.5965	0.1	1.0798
1478	20.591	2.1402	0.1	0.70006
1479	6.5441	3.5545	0.1	89.622
1480	6.8396	3.1566	0.1	123.19
1481	3.3624	3.1736	0.1	213.02
1482	3.053	2.7354	0.1	231.71
1483	3.0566	3.3863	0.1	223.39
1484	4.0743	3.4043	0.1	152.43
1485	3.7546	3.0951	0.1	196.88
1486	3.7318	3.5729	0.1	153.13
1487	3.7357	2.0794	0.1	62.158
1488	3.3979	1.853	0.1	47.313
1489	2.8192	2.1667	0.1	230.82
1490	3.4452	2.6569	0.1	214.01
1491	3.9298	1.8994	0.1	45.597
1492	4.2039	2.1049	0.1	84.502
1493	3.9048	2.2888	0.1	105.48
1494	21.447	3.0106	0.1	0.54054
1495	21.89	2.5823	0.1	0.518
1496	21.464	2.1402	0.1	0.56895
1497	21.448	3.885	0.1	0.57158
1498	21.878	3.4486	0.1	0.53176
1499	5.7665	3.2361	0.1	45.317
1500	6.1065	2.1095	0.1	60.755
1501	6.7313	2.1842	0.1	78.913
1502	6.4086	1.8403	0.1	45.373
1503	2.8647	4.4403	0.1	161.79
1504	2.0426	4.389	0.1	286.83
1505	2.4995	4.816	0.1	148.09
1506	2.4033	4.0104	0.1	247.74
1507	3.3861	4.8417	0.1	44.026
1508	3.187	4.0954	0.1	161.65
1509	3.5674	4.4335	0.1	63.553
1510	2.8998	1.7758	0.1	138.03
1511	3.5919	1.673	0.1	33.603
1512	2.5981	1.3879	0.1	154.36
1513	2.1174	1.8166	0.1	303.09
1514	4.2213	1.7148	0.1	0.73385
1515	3.9633	1.5345	0.1	2.9017
1516	6.245	3.8795	0.1	17.937
1517	6.0205	3.5237	0.1	44.552
1518	5.9576	3.7676	0.1	34.791
1519	6.1386	4.5995	0.1	-26.797
1520	5.8881	4.5331	0.1	-22.758
1521	6.175	4.2781	0.1	-0.52665
1522	6.5162	4.7987	0.1	-17.606
1523	6.4428	5.0559	0.1	-11.967
1524	6.9089	5.136	0.1	-7.6596
1525	7.2203	4.6018	0.1	22.598
1526	5.037	2.5508	0.1	-64.109
1527	4.6132	2.5486	0.1	-32.22
1528	4.8295	2.8085	0.1	-45.9
1529	4.9641	2.2784	0.1	80.41
1530	5.7268	2.3116	0.1	44.271
1531	5.4513	2.5425	0.1	-19.199
1532	4.4333	3.7104	0.1	95.512
1533	4.7213	3.5397	0.1	-41.524
1534	1.6499	4.7674	0.1	277.94
1535	1.2243	4.3311	0.1	353.45
1536	1.6032	3.9223	0.1	404.23
1537	4.0835	1.2383	0.1	-18.41
1538	4.095	1.0147	0.1	-46.144
1539	4.3882	1.0744	0.1	-6.5833
1540	22.324	1.2791	0.1	0.44022
1541	22.753	1.7084	0.1	0.62646
1542	22.328	2.1486	0.1	0.56048
1543	21.903	1.7064	0.1	0.61481
1544	22.73	4.3115	0.1	0.61853
1545	22.305	4.7443	0.1	0.43505
1546	21.876	4.3192	0.1	0.61494
1547	22.306	3.8828	0.1	0.57185
1548	6.0227	4.8432	0.1	-5.9022
1549	5.7044	3.4347	0.1	52.478
1550	5.6416	3.6786	0.1	54.818
1551	5.4278	3.5129	0.1	-7.8384
1552	5.8215	1.8602	0.1	34.54
1553	5.5318	2.0415	0.1	185.94
1554	5.9751	1.1735	0.1	-8.3023
1555	5.78	1.4661	0.1	1.8265
1556	5.4903	1.3141	0.1	0.29153
1557	5.819	0.62033	0.1	-12.256
1558	5.8896	0.92337	0.1	-22.218
1559	5.4048	0.73066	0.1	-6.0833
1560	4.0908	3.8789	0.1	103.17
1561	4.4633	4.1263	0.1	50.929
1562	4.7654	3.9604	0.1	237.76
1563	4.5882	4.5166	0.1	3.3217
1564	4.4113	4.8121	0.1	-8.9469
1565	4.8903	4.6841	0.1	1.3513
1566	4.5719	5.3972	0.1	-23.116
1567	4.4826	5.0639	0.1	-31.034
1568	4.9617	5.2693	0.1	-5.5646
1569	2.1068	5.1944	0.1	138.74
1570	1.2529	5.1656	0.1	196.
1571	1.6856	5.5903	0.1	134.41
1572	3.021	5.2175	0.1	30.172
1573	2.5462	5.6041	0.1	60.34
1574	3.9099	5.408	0.1	10.447
1575	3.8207	5.0748	0.1	-2.6848
1576	3.4497	5.6135	0.1	-11.325
1577	0.826	2.1426	0.1	366.32
1578	0.8488	1.2802	0.1	279.21
1579	1.2657	1.7222	0.1	359.15
1580	0.42057	1.7133	0.1	681.47
1581	0.80583	3.0115	0.1	382.27
1582	1.2034	2.5949	0.1	414.89
1583	0.40543	2.5722	0.1	714.69
1584	0.81036	3.8791	0.1	362.57
1585	1.1893	3.4703	0.1	412.06
1586	0.4004	3.4393	0.1	714.03
1587	0.82726	4.7293	0.1	274.43
1588	0.40996	4.2969	0.1	678.29
1589	0.4173	5.1467	0.1	575.82
1590	0.8423	5.5753	0.1	118.57
1591	3.0676	0.69381	0.1	24.309
1592	3.7521	0.71958	0.1	-31.
1593	3.9007	0.43962	0.1	-13.638
1594	3.4417	0.25649	0.1	-5.1008
1595	2.1949	0.87827	0.1	136.36
1596	2.6009	0.43732	0.1	45.494
1597	1.2972	0.865	0.1	204.38
1598	1.7141	1.307	0.1	287.23
1599	1.719	0.44095	0.1	143.96
1600	0.42822	0.85263	0.1	577.36
1601	0.85322	0.42406	0.1	115.04
1602	4.4954	1.9203	0.1	49.948
1603	4.4377	2.3235	0.1	68.585
1604	4.7885	2.0533	0.1	153.48
1605	4.5389	1.5621	0.1	0.48392
1606	4.8069	1.7003	0.1	42.474
1607	4.2809	1.3818	0.1	-22.798
1608	4.5856	1.2179	0.1	13.254
1609	4.832	1.3618	0.1	34.996
1610	4.2476	0.80699	0.1	-16.314
1611	4.5407	0.8667	0.1	23.387
1612	4.3962	0.52703	0.1	3.4534
1613	4.7871	0.67724	0.1	32.242
1614	21.894	0.84974	0.1	0.23556
1615	22.743	0.84811	0.1	0.22768
1616	22.31	0.42347	0.1	-2.9016e-002
1617	21.039	0.84961	0.1	0.14996
1618	21.472	1.277	0.1	0.40676
1619	21.456	0.42627	0.1	-3.1609e-002
1620	20.184	0.83822	0.1	0.11751
1621	20.609	1.2703	0.1	0.33821
1622	20.603	0.42334	0.1	-0.11499
1623	19.329	0.81598	0.1	0.28666
1624	19.754	1.2508	0.1	0.38265
1625	19.75	0.41488	0.1	-6.1498e-002
1626	18.472	0.79178	0.1	0.33542
1627	18.903	1.2004	0.1	0.41436
1628	18.896	0.4011	0.1	7.6431e-002
1629	17.614	0.77986	0.1	0.18619
1630	18.044	1.1632	0.1	0.44238
1631	18.041	0.39067	0.1	-3.368e-004
1632	16.761	0.78483	0.1	0.15664
1633	17.181	1.1648	0.1	0.40734
1634	17.187	0.38919	0.1	-4.3749e-002
1635	15.911	0.79129	0.1	0.26156
1636	16.334	1.1829	0.1	0.37333
1637	16.336	0.39565	0.1	8.343e-003
1638	15.059	0.79129	0.1	0.29341
1639	15.485	1.1869	0.1	0.41989
1640	15.485	0.39565	0.1	8.0765e-002
1641	14.208	0.79129	0.1	0.29226
1642	14.633	1.1869	0.1	0.40891
1643	14.633	0.39565	0.1	9.4048e-002
1644	13.356	0.79129	0.1	0.33295
1645	13.782	1.1869	0.1	0.40613
1646	13.782	0.39565	0.1	0.17715
1647	12.505	0.79129	0.1	0.34028
1648	12.93	1.1869	0.1	0.35683
1649	12.93	0.39565	0.1	0.27144
1650	11.653	0.79129	0.1	0.46629
1651	12.079	1.1869	0.1	0.45481
1652	12.079	0.39565	0.1	0.35945
1653	10.803	0.78496	0.1	2.2862
1654	11.23	1.1823	0.1	2.6998
1655	11.227	0.39565	0.1	0.6118
1656	9.9541	0.77503	0.1	5.2
1657	10.38	1.167	0.1	7.184
1658	10.378	0.38932	0.1	1.8082
1659	9.1034	0.76669	0.1	7.7539
1660	9.5268	1.1571	0.1	12.142
1661	9.5263	0.38571	0.1	3.7431
1662	8.2489	0.75644	0.1	10.274
1663	8.6773	1.1459	0.1	18.364
1664	8.6755	0.38098	0.1	4.662
1665	7.361	0.75469	0.1	-8.4623
1666	7.8336	1.1279	0.1	23.627
1667	7.8203	0.37545	0.1	3.5315
1668	6.9936	1.1385	0.1	-5.0867
1669	6.4988	0.60224	0.1	6.0648
1670	6.5694	0.90528	0.1	-5.971
1671	6.9361	0.37924	0.1	-16.632
1672	23.156	3.8806	0.1	0.58152
1673	23.157	4.7361	0.1	0.42554
1674	23.579	4.299	0.1	0.63376
1675	23.159	3.0147	0.1	0.55231
1676	22.733	3.4519	0.1	0.53988
1677	23.577	3.4387	0.1	0.57433
1678	23.171	2.143	0.1	0.58519
1679	22.747	2.5832	0.1	0.52447
1680	23.582	2.576	0.1	0.57594
1681	23.172	1.2773	0.1	0.40964
1682	23.59	1.7098	0.1	0.62986
1683	23.582	0.85322	0.1	0.19083
1684	23.156	0.42465	0.1	-6.3243e-002
1685	5.7722	4.7767	0.1	22.402
1686	5.7158	4.3938	0.1	10.078
1687	5.4849	4.6246	0.1	39.589
1688	6.1129	5.4031	0.1	-6.5883
1689	5.9492	5.1004	0.1	-1.4534
1690	5.6619	5.2816	0.1	23.876
1691	6.579	5.4832	0.1	-3.6657
1692	5.7176	5.6214	0.1	45.438
1693	6.1434	5.7881	0.1	3.4891
1694	7.4004	5.307	0.1	-8.2134
1695	6.9796	5.695	0.1	-20.477
1696	8.2255	5.2049	0.1	-0.56362
1697	7.7118	4.7728	0.1	15.832
1698	7.8163	5.612	0.1	-4.1498
1699	9.0741	5.197	0.1	7.1455
1700	8.6261	4.8026	0.1	22.418
1701	8.6562	5.5929	0.1	1.3799
1702	9.9422	5.2084	0.1	6.2201
1703	9.5115	4.8163	0.1	14.225
1704	9.5164	5.6041	0.1	3.0382
1705	10.802	5.2087	0.1	2.5228
1706	10.377	4.8173	0.1	7.5747
1707	10.376	5.6044	0.1	2.4672
1708	11.653	5.2087	0.1	0.5041
1709	11.227	4.8131	0.1	2.8928
1710	11.227	5.6044	0.1	0.55129
1711	12.505	5.2087	0.1	0.37249
1712	12.079	4.8131	0.1	0.31446
1713	12.079	5.6044	0.1	0.39052
1714	13.356	5.2087	0.1	0.33086
1715	12.93	4.8131	0.1	0.3877
1716	12.93	5.6044	0.1	0.26881
1717	14.208	5.2087	0.1	0.29107
1718	13.782	4.8131	0.1	0.39385
1719	13.782	5.6044	0.1	0.16829
1720	15.059	5.2087	0.1	0.27025
1721	14.633	4.8131	0.1	0.39612
1722	14.633	5.6044	0.1	0.10535
1723	15.911	5.2087	0.1	0.26722
1724	15.485	4.8131	0.1	0.41889
1725	15.485	5.6044	0.1	5.5059e-002
1726	16.762	5.2087	0.1	0.2144
1727	16.332	4.8174	0.1	0.41576
1728	16.336	5.6044	0.1	1.301e-002
1729	17.614	5.2087	0.1	0.17297
1730	17.182	4.8238	0.1	0.30322
1731	17.188	5.6044	0.1	-1.126e-002
1732	18.465	5.2087	0.1	0.25232
1733	18.032	4.8178	0.1	0.35343
1734	18.039	5.6044	0.1	-2.141e-002
1735	19.318	5.2009	0.1	0.25999
1736	18.892	4.816	0.1	0.53846
1737	18.891	5.6044	0.1	4.6455e-003
1738	20.17	5.1933	0.1	0.21132
1739	19.745	4.7859	0.1	0.43298
1740	19.744	5.5965	0.1	-4.4711e-002
1741	21.021	5.1813	0.1	0.2146
1742	20.588	4.7755	0.1	0.34234
1743	20.594	5.5968	0.1	-4.6669e-002
1744	21.879	5.1734	0.1	0.23327
1745	21.45	4.7484	0.1	0.40937
1746	21.447	5.5845	0.1	-6.1296e-002
1747	22.733	5.169	0.1	0.24611
1748	22.303	5.589	0.1	-2.0729e-002
1749	23.153	5.58	0.1	-5.424e-002
1750	23.578	5.1514	0.1	0.19634
1751	5.2563	2.2724	0.1	126.83
1752	4.9188	3.3199	0.1	-66.683
1753	5.1407	3.5486	0.1	-75.681
1754	5.0534	3.7898	0.1	159.45
1755	19.211	2.7946	0.1	1.2269
1756	19.721	2.1392	0.1	0.98416
1757	18.364	2.9819	0.1	0.7326
1758	17.59	2.9469	0.1	0.37009
1759	16.76	2.8737	0.1	0.47977
1760	15.911	2.8348	0.1	0.48824
1761	15.059	2.8348	0.1	0.39968
1762	14.208	2.8348	0.1	0.38585
1763	13.356	2.8348	0.1	0.35908
1764	12.505	2.8348	0.1	0.31223
1765	11.653	2.8348	0.1	5.0558
1766	10.8	2.8713	0.1	13.37
1767	9.9448	2.9289	0.1	26.122
1768	9.0872	2.9552	0.1	44.808
1769	1.9639	3.5436	0.1	363.74
1770	2.7256	3.6655	0.1	246.56
1771	9.0635	4.422	0.1	29.44
1772	8.1124	4.3706	0.1	39.007
1773	9.9468	4.4252	0.1	15.495
1774	10.803	4.4217	0.1	7.8262
1775	11.653	4.4174	0.1	2.4235
1776	12.505	4.4174	0.1	0.32306
1777	13.356	4.4174	0.1	0.45123
1778	14.208	4.4174	0.1	0.50054
1779	15.059	4.4174	0.1	0.54666
1780	15.906	4.4218	0.1	0.57033
1781	16.752	4.4325	0.1	0.5093
1782	17.6	4.4329	0.1	0.48758
1783	18.459	4.425	0.1	0.63923
1784	19.319	4.401	0.1	0.71084
1785	20.164	4.3681	0.1	0.56653
1786	21.016	4.3425	0.1	0.54198
1787	22.32	3.0204	0.1	0.50637
1788	1.5869	3.0537	0.1	445.55
1789	1.6431	2.1745	0.1	408.87
1790	21.043	1.6977	0.1	0.59888
1791	20.18	1.6829	0.1	0.6096
1792	19.328	1.6352	0.1	0.51588
1793	18.474	1.5719	0.1	0.52288
1794	17.611	1.5481	0.1	0.66356
1795	16.754	1.5629	0.1	0.62516
1796	15.908	1.5785	0.1	0.53397
1797	15.059	1.5826	0.1	0.53791
1798	14.208	1.5826	0.1	0.5243
1799	13.356	1.5826	0.1	0.4305
1800	12.505	1.5826	0.1	0.46257
1801	11.656	1.5779	0.1	2.1869
1802	10.807	1.5643	0.1	7.4761
1803	9.9527	1.549	0.1	14.02
1804	9.1007	1.5363	0.1	22.658
1805	8.2621	1.5174	0.1	31.679
1806	7.4662	1.5117	0.1	31.463
1807	4.1386	2.5074	0.1	86.556
1808	3.8375	2.678	0.1	173.69
1809	7.0656	1.8754	0.1	48.999
1810	6.9254	2.5614	0.1	115.4
1811	6.7429	1.5315	0.1	18.459
1812	6.3161	3.1258	0.1	68.368
1813	3.426	3.7857	0.1	162.98
1814	6.0027	4.1388	0.1	-1.0694
1815	5.6808	0.38967	0.1	29.095
1816	6.1066	0.223	0.1	14.661
1817	6.3188	1.2983	0.1	2.9292
1818	6.1237	1.591	0.1	14.014
1819	4.7102	5.6279	0.1	35.106
1820	4.2852	5.7945	0.1	30.271
1821	3.8064	4.1237	0.1	65.005
1822	4.1789	4.3711	0.1	16.725
1823	4.0019	4.6665	0.1	5.5794
1824	5.7153	4.027	0.1	40.456
1825	5.4844	3.9245	0.1	197.87
1826	5.554	4.9855	0.1	26.413
1827	5.4976	4.2692	0.1	27.507
1828	4.7979	4.3325	0.1	21.939
1829	5.5564	1.652	0.1	13.021
1830	4.8536	1.0228	0.1	32.136
1831	4.709	0.34979	0.1	54.9
1832	4.284	0.18312	0.1	4.9335
1833	5.2706	3.7588	0.1	129.62
1834	5.2667	5.5	0.1	109.9
1835	5.2667	5.8333	0.1	109.75
1836	5.2667	5.6667	5.e-002	3.657e-006
1837	5.2667	5.1667	0.1	54.993
1838	5.2667	5.3333	5.e-002	-6.1789e-015
1839	5.2667	4.8333	0.1	47.535
1840	5.2667	5.	5.e-002	-1.3142e-014
1841	5.2667	4.5	0.1	56.124
1842	5.2667	4.6667	5.e-002	-3.3156e-014
1843	5.2667	4.1667	0.1	222.76
1844	5.2667	4.3333	5.e-002	-5.4431e-014
1845	5.1833	4.	0.1	414.78
1846	5.2667	4.	5.e-002	-2.5553e-013
1847	5.1	4.1667	0.1	234.67
1848	5.1	4.	5.e-002	1.7844e-005
1849	5.1	4.5	0.1	18.443
1850	5.1	4.3333	5.e-002	3.1494e-006
1851	5.1	4.8333	0.1	73.732
1852	5.1	4.6667	5.e-002	-4.8635e-014
1853	5.1	5.1667	0.1	87.306
1854	5.1	5.	5.e-002	-4.4676e-014
1855	5.1	5.5	0.1	78.568
1856	5.1	5.3333	5.e-002	-7.1264e-006
1857	5.1	5.8333	0.1	89.215
1858	5.1	5.6667	5.e-002	-1.6707e-014
1859	5.2667	0.5	0.1	61.529
1860	5.2667	0.16667	0.1	65.667
1861	5.2667	0.33333	5.e-002	-1.4149e-014
1862	5.2667	0.83333	0.1	69.404
1863	5.2667	0.66667	5.e-002	-1.35e-014
1864	5.2667	1.1667	0.1	60.141
1865	5.2667	1.	5.e-002	-3.4503e-014
1866	5.2667	1.5	0.1	6.8203
1867	5.2667	1.3333	5.e-002	-3.3817e-014
1868	5.2667	1.8333	0.1	180.54
1869	5.2667	1.6667	5.e-002	-3.8053e-014
1870	5.1833	2.	0.1	320.09
1871	5.2667	2.	5.e-002	5.5277e-007
1872	5.1	1.8333	0.1	167.64
1873	5.1	2.	5.e-002	1.8216e-005
1874	5.1	1.5	0.1	66.871
1875	5.1	1.6667	5.e-002	-5.6122e-014
1876	5.1	1.1667	0.1	54.828
1877	5.1	1.3333	5.e-002	-4.0613e-014
1878	5.1	0.83333	0.1	43.829
1879	5.1	1.	5.e-002	-2.3436e-014
1880	5.1	0.5	0.1	95.587
1881	5.1	0.66667	5.e-002	-1.1712e-014
1882	5.1	0.16667	0.1	144.06
1883	5.1	0.33333	5.e-002	-5.9898e-015
1884	5.6924	6.	0.1	34.364
1885	5.2667	6.	5.e-002	-5.281e-015
1886	6.5439	6.	0.1	-14.177
1887	6.1182	6.	5.e-002	-1.1651e-007
1888	7.3955	6.	0.1	-16.747
1889	6.9697	6.	5.e-002	1.5995e-006
1890	8.247	6.	0.1	-1.233
1891	7.8212	6.	5.e-002	6.7797e-007
1892	9.0985	6.	0.1	0.75703
1893	8.6727	6.	5.e-002	6.2556e-007
1894	9.95	6.	0.1	-5.8842e-002
1895	9.5242	6.	5.e-002	6.7178e-007
1896	10.802	6.	0.1	0.94121
1897	10.376	6.	5.e-002	9.5294e-007
1898	11.653	6.	0.1	0.41995
1899	11.227	6.	5.e-002	9.5346e-007
1900	12.505	6.	0.1	0.28506
1901	12.079	6.	5.e-002	9.5365e-007
1902	13.356	6.	0.1	0.10915
1903	12.93	6.	5.e-002	1.9073e-006
1904	14.208	6.	0.1	-1.1992e-002
1905	13.782	6.	5.e-002	1.6686e-006
1906	15.059	6.	0.1	-0.1032
1907	14.633	6.	5.e-002	1.9491e-006
1908	15.911	6.	0.1	-0.1921
1909	15.485	6.	5.e-002	1.9114e-006
1910	16.762	6.	0.1	-0.20283
1911	16.336	6.	5.e-002	2.3897e-006
1912	17.614	6.	0.1	-0.19242
1913	17.188	6.	5.e-002	2.453e-006
1914	18.465	6.	0.1	-0.25678
1915	18.039	6.	5.e-002	2.5013e-006
1916	19.317	6.	0.1	-0.28961
1917	18.891	6.	5.e-002	2.9191e-006
1918	20.168	6.	0.1	-0.29139
1919	19.742	6.	5.e-002	2.9203e-006
1920	21.02	6.	0.1	-0.31086
1921	20.594	6.	5.e-002	3.2838e-006
1922	21.871	6.	0.1	-0.30495
1923	21.445	6.	5.e-002	3.2165e-006
1924	22.723	6.	0.1	-0.3119
1925	22.297	6.	5.e-002	3.3192e-006
1926	23.574	6.	0.1	-0.38592
1927	23.148	6.	5.e-002	4.0407e-006
1928	24.	5.5714	0.1	-0.24966
1929	24.	6.	5.e-002	3.5652e-006
1930	24.	4.7143	0.1	0.39286
1931	24.	5.1429	5.e-002	4.0463e-006
1932	24.	3.8571	0.1	0.61531
1933	24.	4.2857	5.e-002	3.0536e-006
1934	24.	3.	0.1	0.58958
1935	24.	3.4286	5.e-002	3.3518e-006
1936	24.	2.1429	0.1	0.60866
1937	24.	2.5714	5.e-002	3.5754e-006
1938	24.	1.2857	0.1	0.39692
1939	24.	1.7143	5.e-002	3.6276e-006
1940	24.	0.42857	0.1	-0.22981
1941	24.	0.85714	5.e-002	5.5863e-006
1942	1.124e-014	1.2857	0.1	975.2
1943	3.7465e-015	0.42857	0.1	748.05
1944	7.5944e-015	0.85714	5.e-002	-9.4278e-008
1945	1.8733e-014	2.1429	0.1	1031.9
1946	1.5189e-014	1.7143	5.e-002	-2.5244e-007
1947	2.6226e-014	3.	0.1	1046.6
1948	2.2783e-014	2.5714	5.e-002	-6.3832e-008
1949	3.3719e-014	3.8571	0.1	1031.8
1950	3.0378e-014	3.4286	5.e-002	-1.5721e-007
1951	4.1212e-014	4.7143	0.1	975.07
1952	3.7972e-014	4.2857	5.e-002	-3.6403e-007
1953	4.8705e-014	5.5714	0.1	742.24
1954	4.5567e-014	5.1429	5.e-002	-1.1977e-007
1955	23.574	0.	0.1	-0.39016
1956	24.	0.	5.e-002	-1.6871e-006
1957	22.723	0.	0.1	-0.31108
1958	23.148	0.	5.e-002	2.7757e-006
1959	21.871	0.	0.1	-0.28697
1960	22.297	0.	5.e-002	3.1831e-006
1961	21.02	0.	0.1	-0.28616
1962	21.445	0.	5.e-002	3.3232e-006
1963	20.168	0.	0.1	-0.28637
1964	20.594	0.	5.e-002	3.1012e-006
1965	19.317	0.	0.1	-0.26504
1966	19.742	0.	5.e-002	3.1104e-006
1967	18.465	0.	0.1	-0.24848
1968	18.891	0.	5.e-002	2.7424e-006
1969	17.614	0.	0.1	-0.21486
1970	18.039	0.	5.e-002	2.5067e-006
1971	16.762	0.	0.1	-0.177
1972	17.188	0.	5.e-002	2.3418e-006
1973	15.911	0.	0.1	-0.16312
1974	16.336	0.	5.e-002	2.1094e-006
1975	15.059	0.	0.1	-0.11228
1976	15.485	0.	5.e-002	1.8562e-006
1977	14.208	0.	0.1	-1.5648e-002
1978	14.633	0.	5.e-002	1.8667e-006
1979	13.356	0.	0.1	0.11957
1980	13.782	0.	5.e-002	1.907e-006
1981	12.505	0.	0.1	0.28937
1982	12.93	0.	5.e-002	1.1813e-006
1983	11.653	0.	0.1	0.48525
1984	12.079	0.	5.e-002	1.442e-006
1985	10.802	0.	0.1	0.61128
1986	11.227	0.	5.e-002	1.43e-006
1987	9.95	0.	0.1	0.76694
1988	10.376	0.	5.e-002	1.0487e-006
1989	9.0985	0.	0.1	0.7119
1990	9.5242	0.	5.e-002	8.5164e-007
1991	8.247	0.	0.1	-0.94762
1992	8.6727	0.	5.e-002	7.6784e-007
1993	7.3955	0.	0.1	-11.634
1994	7.8212	0.	5.e-002	3.3687e-007
1995	6.5439	0.	0.1	-6.7257
1996	6.9697	0.	5.e-002	-8.2175e-007
1997	5.6924	0.	0.1	54.342
1998	6.1182	0.	5.e-002	-4.7247e-007
1999	5.2667	0.	5.e-002	-4.276e-015
2000	4.675	2.0018e-030	0.1	68.602
2001	5.1	2.1837e-030	5.e-002	-7.4925e-015
2002	3.825	1.6378e-030	0.1	13.385
2003	4.25	0.	5.e-002	-1.4055e-015
2004	2.975	1.2738e-030	0.1	5.9963
2005	3.4	0.	5.e-002	-2.3546e-016
2006	2.125	9.0989e-031	0.1	53.181
2007	2.55	0.	5.e-002	-4.4754e-015
2008	1.275	5.4593e-031	0.1	55.143
2009	1.7	0.	5.e-002	-5.197e-015
2010	0.425	1.8198e-031	0.1	287.42
2011	0.85	0.	5.e-002	-8.8575e-015
2012	0.	0.	5.e-002	-4.9907e-014
2013	0.425	6.	0.1	286.8
2014	5.2451e-014	6.	5.e-002	-1.4725e-013
2015	1.275	6.	0.1	57.394
2016	0.85	6.	5.e-002	-9.3099e-015
2017	2.125	6.	0.1	58.773
2018	1.7	6.	5.e-002	-6.3999e-015
2019	2.975	6.	0.1	3.7011
2020	2.55	6.	5.e-002	-1.3367e-016
2021	3.825	6.	0.1	8.6422
2022	3.4	6.	5.e-002	-4.9671e-015
2023	4.675	6.	0.1	87.338
2024	4.25	6.	5.e-002	-5.4493e-015
2025	5.1	6.	5.e-002	-5.6888e-015
2026	3.825	6.	0.	-8.6422
2027	4.675	6.	0.	-87.338
2028	2.975	6.	0.	-3.7011
2029	2.125	6.	0.	-58.773
2030	1.275	6.	0.	-57.394
2031	0.425	6.	0.	-286.8
2032	5.1	5.8333	0.	-89.215
2033	4.8705e-014	5.5714	0.	-742.24
2034	1.275	5.4593e-031	0.	-55.143
2035	0.425	1.8198e-031	0.	-287.42
2036	2.125	9.0989e-031	0.	-53.181
2037	2.975	1.2738e-030	0.	-5.9963
2038	3.825	1.6378e-030	0.	-13.385
2039	4.675	2.0018e-030	0.	-68.602
2040	5.1	0.16667	0.	-144.06
2041	3.7465e-015	0.42857	0.	-748.05
2042	6.5439	0.	0.	6.7257
2043	5.6924	0.	0.	-54.342
2044	7.3955	0.	0.	11.634
2045	8.247	0.	0.	0.94762
2046	9.0985	0.	0.	-0.7119
2047	9.95	0.	0.	-0.76694
2048	10.802	0.	0.	-0.61128
2049	11.653	0.	0.	-0.48525
2050	12.505	0.	0.	-0.28937
2051	13.356	0.	0.	-0.11957
2052	14.208	0.	0.	1.5648e-002
2053	15.059	0.	0.	0.11228
2054	15.911	0.	0.	0.16312
2055	16.762	0.	0.	0.177
2056	17.614	0.	0.	0.21486
2057	18.465	0.	0.	0.24848
2058	19.317	0.	0.	0.26504
2059	20.168	0.	0.	0.28637
2060	21.02	0.	0.	0.28616
2061	21.871	0.	0.	0.28697
2062	22.723	0.	0.	0.31108
2063	23.574	0.	0.	0.39016
2064	5.2667	0.16667	0.	-65.667
2065	24.	0.42857	0.	0.22981
2066	4.1212e-014	4.7143	0.	-975.07
2067	3.3719e-014	3.8571	0.	-1031.8
2068	2.6226e-014	3.	0.	-1046.6
2069	1.8733e-014	2.1429	0.	-1031.9
2070	1.124e-014	1.2857	0.	-975.2
2071	24.	1.2857	0.	-0.39692
2072	24.	2.1429	0.	-0.60866
2073	24.	3.	0.	-0.58958
2074	24.	3.8571	0.	-0.61531
2075	24.	4.7143	0.	-0.39286
2076	24.	5.5714	0.	0.24967
2077	23.574	6.	0.	0.38592
2078	22.723	6.	0.	0.3119
2079	21.871	6.	0.	0.30495
2080	21.02	6.	0.	0.31086
2081	20.168	6.	0.	0.29139
2082	19.317	6.	0.	0.28961
2083	18.465	6.	0.	0.25678
2084	17.614	6.	0.	0.19242
2085	16.762	6.	0.	0.20283
2086	15.911	6.	0.	0.1921
2087	15.059	6.	0.	0.1032
2088	14.208	6.	0.	1.1992e-002
2089	13.356	6.	0.	-0.10915
2090	12.505	6.	0.	-0.28506
2091	11.653	6.	0.	-0.41994
2092	10.802	6.	0.	-0.94121
2093	9.95	6.	0.	5.8842e-002
2094	9.0985	6.	0.	-0.75703
2095	8.247	6.	0.	1.233
2096	7.3955	6.	0.	16.747
2097	6.5439	6.	0.	14.177
2098	5.6924	6.	0.	-34.364
2099	5.2667	5.8333	0.	-109.75
2100	5.1	1.5	0.	-66.871
2101	5.1	1.8333	0.	-167.64
2102	5.1	1.1667	0.	-54.828
2103	5.1	0.83333	0.	-43.829
2104	5.1	0.5	0.	-95.587
2105	5.1833	2.	0.	-320.09
2106	5.2667	0.5	0.	-61.529
2107	5.2667	0.83333	0.	-69.404
2108	5.2667	1.1667	0.	-60.141
2109	5.2667	1.5	0.	-6.8203
2110	5.2667	1.8333	0.	-180.54
2111	5.1	4.5	0.	-18.443
2112	5.1	4.1667	0.	-234.67
2113	5.1	4.8333	0.	-73.732
2114	5.1	5.1667	0.	-87.306
2115	5.1	5.5	0.	-78.568
2116	5.1833	4.	0.	-414.78
2117	5.2667	5.5	0.	-109.9
2118	5.2667	5.1667	0.	-54.993
2119	5.2667	4.8333	0.	-47.535
2120	5.2667	4.5	0.	-56.124
2121	5.2667	4.1667	0.	-222.76
