Node Number	X Location (in)	Y Location (in)	Z Location (in)	Maximum Principal Stress (psi)
1	0.3	5.7	0.	506.27
2	0.6	5.7	0.	-91.977
3	0.9	5.7	0.	31.376
4	1.2	5.7	0.	-2.7701
5	1.5	5.7	0.	3.0838
6	1.8	5.7	0.	0.21385
7	2.1	5.7	0.	7.2342e-002
8	2.4	5.7	0.	-0.39029
9	2.7	5.7	0.	-0.56108
10	3.	5.7	0.	-0.66961
11	3.3	5.7	0.	-0.70812
12	3.6	5.7	0.	-0.70961
13	3.9	5.7	0.	-0.68621
14	4.2	5.7	0.	-0.64836
15	4.5	5.7	0.	-0.60244
16	4.8	5.7	0.	-0.55285
17	5.1	5.7	0.	-0.50247
18	5.4	5.7	0.	-0.45315
19	5.7	5.7	0.	-0.40603
20	6.	5.7	0.	-0.36178
21	6.3	5.7	0.	-0.3207
22	6.6	5.7	0.	-0.28287
23	6.9	5.7	0.	-0.2482
24	7.2	5.7	0.	-0.21647
25	7.5	5.7	0.	-0.18733
26	7.8	5.7	0.	-0.16031
27	8.1	5.7	0.	-0.13461
28	8.4	5.7	0.	-0.10873
29	8.7	5.7	0.	-7.8635e-002
30	9.	5.7	0.	-2.6148e-002
31	9.3	5.7	0.	0.30312
32	9.6	5.7	0.	1.711
33	9.9	5.7	0.	3.1905
34	10.2	5.7	0.	4.5435
35	10.5	5.7	0.	5.7712
36	10.8	5.7	0.	6.8857
37	11.1	5.7	0.	7.9001
38	11.4	5.7	0.	8.8266
39	11.7	5.7	0.	9.6765
40	12.	5.7	0.	10.46
41	12.3	5.7	0.	11.187
42	12.6	5.7	0.	11.865
43	12.9	5.7	0.	12.502
44	13.2	5.7	0.	13.106
45	13.5	5.7	0.	13.682
46	13.8	5.7	0.	14.236
47	14.1	5.7	0.	14.774
48	14.4	5.7	0.	15.301
49	14.7	5.7	0.	15.822
50	15.	5.7	0.	16.34
51	15.3	5.7	0.	16.861
52	15.6	5.7	0.	17.388
53	15.9	5.7	0.	17.924
54	16.2	5.7	0.	18.475
55	16.5	5.7	0.	19.042
56	16.8	5.7	0.	19.63
57	17.1	5.7	0.	20.243
58	17.4	5.7	0.	20.883
59	17.7	5.7	0.	21.554
60	18.	5.7	0.	22.258
61	18.3	5.7	0.	23.
62	18.6	5.7	0.	23.782
63	18.9	5.7	0.	24.606
64	19.2	5.7	0.	25.475
65	19.5	5.7	0.	26.39
66	19.8	5.7	0.	27.352
67	20.1	5.7	0.	28.362
68	20.4	5.7	0.	29.418
69	20.7	5.7	0.	30.52
70	21.	5.7	0.	31.662
71	21.3	5.7	0.	32.843
72	21.6	5.7	0.	34.054
73	21.9	5.7	0.	35.29
74	22.2	5.7	0.	36.546
75	22.5	5.7	0.	37.819
76	22.8	5.7	0.	39.136
77	23.1	5.7	0.	40.536
78	23.4	5.7	0.	42.428
79	23.7	5.7	0.	46.178
80	0.3	5.4	0.	824.81
81	0.6	5.4	0.	-185.19
82	0.9	5.4	0.	54.295
83	1.2	5.4	0.	-5.9517
84	1.5	5.4	0.	6.8347
85	1.8	5.4	0.	2.487
86	2.1	5.4	0.	2.6853
87	2.4	5.4	0.	2.0237
88	2.7	5.4	0.	1.7236
89	3.	5.4	0.	1.4396
90	3.3	5.4	0.	1.2244
91	3.6	5.4	0.	1.0455
92	3.9	5.4	0.	0.89754
93	4.2	5.4	0.	0.77284
94	4.5	5.4	0.	0.66686
95	4.8	5.4	0.	0.57603
96	5.1	5.4	0.	0.49773
97	5.4	5.4	0.	0.42993
98	5.7	5.4	0.	0.37102
99	6.	5.4	0.	0.31971
100	6.3	5.4	0.	0.27494
101	6.6	5.4	0.	0.23582
102	6.9	5.4	0.	0.2016
103	7.2	5.4	0.	0.17166
104	7.5	5.4	0.	0.14544
105	7.8	5.4	0.	0.12247
106	8.1	5.4	0.	0.10235
107	8.4	5.4	0.	8.4717e-002
108	8.7	5.4	0.	6.9267e-002
109	9.	5.4	0.	5.5734e-002
110	9.3	5.4	0.	4.3892e-002
111	9.6	5.4	0.	3.356e-002
112	9.9	5.4	0.	2.4629e-002
113	10.2	5.4	0.	1.7281e-002
114	10.5	5.4	0.	2.0858e-002
115	10.8	5.4	0.	1.4917
116	11.1	5.4	0.	3.045
117	11.4	5.4	0.	4.4402
118	11.7	5.4	0.	5.6971
119	12.	5.4	0.	6.8339
120	12.3	5.4	0.	7.8669
121	12.6	5.4	0.	8.8108
122	12.9	5.4	0.	9.6787
123	13.2	5.4	0.	10.483
124	13.5	5.4	0.	11.233
125	13.8	5.4	0.	11.94
126	14.1	5.4	0.	12.613
127	14.4	5.4	0.	13.259
128	14.7	5.4	0.	13.887
129	15.	5.4	0.	14.505
130	15.3	5.4	0.	15.118
131	15.6	5.4	0.	15.734
132	15.9	5.4	0.	16.36
133	16.2	5.4	0.	17.001
134	16.5	5.4	0.	17.665
135	16.8	5.4	0.	18.358
136	17.1	5.4	0.	19.087
137	17.4	5.4	0.	19.859
138	17.7	5.4	0.	20.681
139	18.	5.4	0.	21.56
140	18.3	5.4	0.	22.505
141	18.6	5.4	0.	23.524
142	18.9	5.4	0.	24.625
143	19.2	5.4	0.	25.819
144	19.5	5.4	0.	27.113
145	19.8	5.4	0.	28.521
146	20.1	5.4	0.	30.052
147	20.4	5.4	0.	31.721
148	20.7	5.4	0.	33.542
149	21.	5.4	0.	35.533
150	21.3	5.4	0.	37.719
151	21.6	5.4	0.	40.13
152	21.9	5.4	0.	42.814
153	22.2	5.4	0.	45.845
154	22.5	5.4	0.	49.345
155	22.8	5.4	0.	53.546
156	23.1	5.4	0.	58.85
157	23.4	5.4	0.	66.368
158	23.7	5.4	0.	77.248
159	0.3	5.1	0.	915.35
160	0.6	5.1	0.	-225.4
161	0.9	5.1	0.	58.243
162	1.2	5.1	0.	-10.907
163	1.5	5.1	0.	5.1398
164	1.8	5.1	0.	0.6105
165	2.1	5.1	0.	1.2384
166	2.4	5.1	0.	0.74586
167	2.7	5.1	0.	0.62489
168	3.	5.1	0.	0.48084
169	3.3	5.1	0.	0.38856
170	3.6	5.1	0.	0.31558
171	3.9	5.1	0.	0.26024
172	4.2	5.1	0.	0.21652
173	4.5	5.1	0.	0.18151
174	4.8	5.1	0.	0.15292
175	5.1	5.1	0.	0.12924
176	5.4	5.1	0.	0.10937
177	5.7	5.1	0.	9.2514e-002
178	6.	5.1	0.	7.811e-002
179	6.3	5.1	0.	6.5721e-002
180	6.6	5.1	0.	5.5016e-002
181	6.9	5.1	0.	4.5735e-002
182	7.2	5.1	0.	3.7671e-002
183	7.5	5.1	0.	3.0655e-002
184	7.8	5.1	0.	2.4548e-002
185	8.1	5.1	0.	1.9236e-002
186	8.4	5.1	0.	1.4622e-002
187	8.7	5.1	0.	1.0629e-002
188	9.	5.1	0.	7.194e-003
189	9.3	5.1	0.	4.273e-003
190	9.6	5.1	0.	1.8462e-003
191	9.9	5.1	0.	-6.577e-005
192	10.2	5.1	0.	-1.3592e-003
193	10.5	5.1	0.	-1.6838e-003
194	10.8	5.1	0.	3.7684e-004
195	11.1	5.1	0.	1.8295e-002
196	11.4	5.1	0.	1.0035
197	11.7	5.1	0.	2.6527
198	12.	5.1	0.	4.1425
199	12.3	5.1	0.	5.4859
200	12.6	5.1	0.	6.7024
201	12.9	5.1	0.	7.8099
202	13.2	5.1	0.	8.825
203	13.5	5.1	0.	9.7628
204	13.8	5.1	0.	10.637
205	14.1	5.1	0.	11.46
206	14.4	5.1	0.	12.243
207	14.7	5.1	0.	12.997
208	15.	5.1	0.	13.733
209	15.3	5.1	0.	14.461
210	15.6	5.1	0.	15.189
211	15.9	5.1	0.	15.927
212	16.2	5.1	0.	16.686
213	16.5	5.1	0.	17.473
214	16.8	5.1	0.	18.299
215	17.1	5.1	0.	19.174
216	17.4	5.1	0.	20.109
217	17.7	5.1	0.	21.114
218	18.	5.1	0.	22.203
219	18.3	5.1	0.	23.386
220	18.6	5.1	0.	24.679
221	18.9	5.1	0.	26.097
222	19.2	5.1	0.	27.656
223	19.5	5.1	0.	29.375
224	19.8	5.1	0.	31.274
225	20.1	5.1	0.	33.377
226	20.4	5.1	0.	35.711
227	20.7	5.1	0.	38.307
228	21.	5.1	0.	41.205
229	21.3	5.1	0.	44.455
230	21.6	5.1	0.	48.122
231	21.9	5.1	0.	52.299
232	22.2	5.1	0.	57.118
233	22.5	5.1	0.	62.778
234	22.8	5.1	0.	69.602
235	23.1	5.1	0.	78.033
236	23.4	5.1	0.	88.985
237	23.7	5.1	0.	102.49
238	0.3	4.8	0.	982.7
239	0.6	4.8	0.	-240.65
240	0.9	4.8	0.	59.583
241	1.2	4.8	0.	-12.55
242	1.5	4.8	0.	5.0943
243	1.8	4.8	0.	0.51653
244	2.1	4.8	0.	1.3135
245	2.4	4.8	0.	0.84831
246	2.7	4.8	0.	0.74524
247	3.	4.8	0.	0.60172
248	3.3	4.8	0.	0.50511
249	3.6	4.8	0.	0.42472
250	3.9	4.8	0.	0.36089
251	4.2	4.8	0.	0.30835
252	4.5	4.8	0.	0.26467
253	4.8	4.8	0.	0.22783
254	5.1	4.8	0.	0.19642
255	5.4	4.8	0.	0.16943
256	5.7	4.8	0.	0.14608
257	6.	4.8	0.	0.12579
258	6.3	4.8	0.	0.10811
259	6.6	4.8	0.	9.2666e-002
260	6.9	4.8	0.	7.9159e-002
261	7.2	4.8	0.	6.7336e-002
262	7.5	4.8	0.	5.6986e-002
263	7.8	4.8	0.	4.7927e-002
264	8.1	4.8	0.	4.0005e-002
265	8.4	4.8	0.	3.3085e-002
266	8.7	4.8	0.	2.7054e-002
267	9.	4.8	0.	2.1814e-002
268	9.3	4.8	0.	1.7287e-002
269	9.6	4.8	0.	1.3413e-002
270	9.9	4.8	0.	1.0154e-002
271	10.2	4.8	0.	7.5106e-003
272	10.5	4.8	0.	5.5491e-003
273	10.8	4.8	0.	4.5097e-003
274	11.1	4.8	0.	5.1939e-003
275	11.4	4.8	0.	1.1643e-002
276	11.7	4.8	0.	0.15266
277	12.	4.8	0.	1.7783
278	12.3	4.8	0.	3.4012
279	12.6	4.8	0.	4.8675
280	12.9	4.8	0.	6.196
281	13.2	4.8	0.	7.4068
282	13.5	4.8	0.	8.5187
283	13.8	4.8	0.	9.5486
284	14.1	4.8	0.	10.512
285	14.4	4.8	0.	11.425
286	14.7	4.8	0.	12.299
287	15.	4.8	0.	13.149
288	15.3	4.8	0.	13.986
289	15.6	4.8	0.	14.823
290	15.9	4.8	0.	15.672
291	16.2	4.8	0.	16.544
292	16.5	4.8	0.	17.453
293	16.8	4.8	0.	18.41
294	17.1	4.8	0.	19.429
295	17.4	4.8	0.	20.524
296	17.7	4.8	0.	21.711
297	18.	4.8	0.	23.005
298	18.3	4.8	0.	24.424
299	18.6	4.8	0.	25.988
300	18.9	4.8	0.	27.718
301	19.2	4.8	0.	29.637
302	19.5	4.8	0.	31.774
303	19.8	4.8	0.	34.156
304	20.1	4.8	0.	36.82
305	20.4	4.8	0.	39.805
306	20.7	4.8	0.	43.157
307	21.	4.8	0.	46.935
308	21.3	4.8	0.	51.207
309	21.6	4.8	0.	56.065
310	21.9	4.8	0.	61.624
311	22.2	4.8	0.	68.045
312	22.5	4.8	0.	75.537
313	22.8	4.8	0.	84.403
314	23.1	4.8	0.	94.957
315	23.4	4.8	0.	107.8
316	23.7	4.8	0.	122.45
317	0.3	4.5	0.	1021.5
318	0.6	4.5	0.	-250.8
319	0.9	4.5	0.	60.853
320	1.2	4.5	0.	-14.157
321	1.5	4.5	0.	4.5364
322	1.8	4.5	0.	3.2393e-002
323	2.1	4.5	0.	1.0374
324	2.4	4.5	0.	0.65663
325	2.7	4.5	0.	0.61662
326	3.	4.5	0.	0.51021
327	3.3	4.5	0.	0.43849
328	3.6	4.5	0.	0.37476
329	3.9	4.5	0.	0.32258
330	4.2	4.5	0.	0.27838
331	4.5	4.5	0.	0.24088
332	4.8	4.5	0.	0.20872
333	5.1	4.5	0.	0.18095
334	5.4	4.5	0.	0.15686
335	5.7	4.5	0.	0.13587
336	6.	4.5	0.	0.11753
337	6.3	4.5	0.	0.10148
338	6.6	4.5	0.	8.7429e-002
339	6.9	4.5	0.	7.511e-002
340	7.2	4.5	0.	6.4312e-002
341	7.5	4.5	0.	5.4849e-002
342	7.8	4.5	0.	4.6561e-002
343	8.1	4.5	0.	3.9308e-002
344	8.4	4.5	0.	3.2968e-002
345	8.7	4.5	0.	2.7436e-002
346	9.	4.5	0.	2.2624e-002
347	9.3	4.5	0.	1.8453e-002
348	9.6	4.5	0.	1.4861e-002
349	9.9	4.5	0.	1.1802e-002
350	10.2	4.5	0.	9.2484e-003
351	10.5	4.5	0.	7.2023e-003
352	10.8	4.5	0.	5.7217e-003
353	11.1	4.5	0.	5.003e-003
354	11.4	4.5	0.	5.6743e-003
355	11.7	4.5	0.	1.0629e-002
356	12.	4.5	0.	7.6677e-002
357	12.3	4.5	0.	1.5859
358	12.6	4.5	0.	3.2691
359	12.9	4.5	0.	4.7937
360	13.2	4.5	0.	6.1791
361	13.5	4.5	0.	7.4466
362	13.8	4.5	0.	8.6164
363	14.1	4.5	0.	9.7071
364	14.4	4.5	0.	10.736
365	14.7	4.5	0.	11.719
366	15.	4.5	0.	12.672
367	15.3	4.5	0.	13.61
368	15.6	4.5	0.	14.547
369	15.9	4.5	0.	15.497
370	16.2	4.5	0.	16.475
371	16.5	4.5	0.	17.496
372	16.8	4.5	0.	18.575
373	17.1	4.5	0.	19.729
374	17.4	4.5	0.	20.974
375	17.7	4.5	0.	22.33
376	18.	4.5	0.	23.816
377	18.3	4.5	0.	25.456
378	18.6	4.5	0.	27.273
379	18.9	4.5	0.	29.294
380	19.2	4.5	0.	31.551
381	19.5	4.5	0.	34.076
382	19.8	4.5	0.	36.91
383	20.1	4.5	0.	40.096
384	20.4	4.5	0.	43.683
385	20.7	4.5	0.	47.733
386	21.	4.5	0.	52.313
387	21.3	4.5	0.	57.508
388	21.6	4.5	0.	63.419
389	21.9	4.5	0.	70.17
390	22.2	4.5	0.	77.916
391	22.5	4.5	0.	86.844
392	22.8	4.5	0.	97.186
393	23.1	4.5	0.	109.13
394	23.4	4.5	0.	123.07
395	23.7	4.5	0.	138.31
396	0.3	4.2	0.	1047.6
397	0.6	4.2	0.	-256.94
398	0.9	4.2	0.	61.992
399	1.2	4.2	0.	-15.078
400	1.5	4.2	0.	4.1776
401	1.8	4.2	0.	-0.31119
402	2.1	4.2	0.	0.83774
403	2.4	4.2	0.	0.53157
404	2.7	4.2	0.	0.54698
405	3.	4.2	0.	0.47399
406	3.3	4.2	0.	0.42325
407	3.6	4.2	0.	0.37196
408	3.9	4.2	0.	0.32697
409	4.2	4.2	0.	0.28667
410	4.5	4.2	0.	0.25103
411	4.8	4.2	0.	0.21951
412	5.1	4.2	0.	0.19169
413	5.4	4.2	0.	0.16715
414	5.7	4.2	0.	0.14552
415	6.	4.2	0.	0.12648
416	6.3	4.2	0.	0.10971
417	6.6	4.2	0.	9.4973e-002
418	6.9	4.2	0.	8.2019e-002
419	7.2	4.2	0.	7.0643e-002
420	7.5	4.2	0.	6.0661e-002
421	7.8	4.2	0.	5.1909e-002
422	8.1	4.2	0.	4.4242e-002
423	8.4	4.2	0.	3.7535e-002
424	8.7	4.2	0.	3.1674e-002
425	9.	4.2	0.	2.6562e-002
426	9.3	4.2	0.	2.2115e-002
427	9.6	4.2	0.	1.8261e-002
428	9.9	4.2	0.	1.4941e-002
429	10.2	4.2	0.	1.211e-002
430	10.5	4.2	0.	9.7374e-003
431	10.8	4.2	0.	7.8222e-003
432	11.1	4.2	0.	6.4114e-003
433	11.4	4.2	0.	5.6773e-003
434	11.7	4.2	0.	6.2128e-003
435	12.	4.2	0.	1.1119e-002
436	12.3	4.2	0.	0.17119
437	12.6	4.2	0.	1.9264
438	12.9	4.2	0.	3.6167
439	13.2	4.2	0.	5.1508
440	13.5	4.2	0.	6.5515
441	13.8	4.2	0.	7.8411
442	14.1	4.2	0.	9.0408
443	14.4	4.2	0.	10.17
444	14.7	4.2	0.	11.247
445	15.	4.2	0.	12.29
446	15.3	4.2	0.	13.315
447	15.6	4.2	0.	14.339
448	15.9	4.2	0.	15.378
449	16.2	4.2	0.	16.448
450	16.5	4.2	0.	17.568
451	16.8	4.2	0.	18.755
452	17.1	4.2	0.	20.027
453	17.4	4.2	0.	21.404
454	17.7	4.2	0.	22.909
455	18.	4.2	0.	24.566
456	18.3	4.2	0.	26.4
457	18.6	4.2	0.	28.44
458	18.9	4.2	0.	30.719
459	19.2	4.2	0.	33.273
460	19.5	4.2	0.	36.143
461	19.8	4.2	0.	39.373
462	20.1	4.2	0.	43.015
463	20.4	4.2	0.	47.13
464	20.7	4.2	0.	51.783
465	21.	4.2	0.	57.052
466	21.3	4.2	0.	63.027
467	21.6	4.2	0.	69.81
468	21.9	4.2	0.	77.522
469	22.2	4.2	0.	86.3
470	22.5	4.2	0.	96.29
471	22.8	4.2	0.	107.66
472	23.1	4.2	0.	120.5
473	23.4	4.2	0.	135.1
474	23.7	4.2	0.	150.67
475	0.3	3.9	0.	1064.4
476	0.6	3.9	0.	-260.85
477	0.9	3.9	0.	62.839
478	1.2	3.9	0.	-15.637
479	1.5	3.9	0.	3.912
480	1.8	3.9	0.	-0.59354
481	2.1	3.9	0.	0.64611
482	2.4	3.9	0.	0.39965
483	2.7	3.9	0.	0.4643
484	3.	3.9	0.	0.42456
485	3.3	3.9	0.	0.39603
486	3.6	3.9	0.	0.35882
487	3.9	3.9	0.	0.32249
488	4.2	3.9	0.	0.28729
489	4.5	3.9	0.	0.2545
490	4.8	3.9	0.	0.22444
491	5.1	3.9	0.	0.19723
492	5.4	3.9	0.	0.17281
493	5.7	3.9	0.	0.15104
494	6.	3.9	0.	0.13171
495	6.3	3.9	0.	0.1146
496	6.6	3.9	0.	9.9505e-002
497	6.9	3.9	0.	8.621e-002
498	7.2	3.9	0.	7.4519e-002
499	7.5	3.9	0.	6.425e-002
500	7.8	3.9	0.	5.5243e-002
501	8.1	3.9	0.	4.7349e-002
502	8.4	3.9	0.	4.0439e-002
503	8.7	3.9	0.	3.4396e-002
504	9.	3.9	0.	2.9119e-002
505	9.3	3.9	0.	2.4519e-002
506	9.6	3.9	0.	2.0518e-002
507	9.9	3.9	0.	1.7051e-002
508	10.2	3.9	0.	1.406e-002
509	10.5	3.9	0.	1.1503e-002
510	10.8	3.9	0.	9.3516e-003
511	11.1	3.9	0.	7.599e-003
512	11.4	3.9	0.	6.2842e-003
513	11.7	3.9	0.	5.5704e-003
514	12.	3.9	0.	6.1212e-003
515	12.3	3.9	0.	1.334e-002
516	12.6	3.9	0.	0.86217
517	12.9	3.9	0.	2.6815
518	13.2	3.9	0.	4.3356
519	13.5	3.9	0.	5.8436
520	13.8	3.9	0.	7.2299
521	14.1	3.9	0.	8.5176
522	14.4	3.9	0.	9.7281
523	14.7	3.9	0.	10.882
524	15.	3.9	0.	11.997
525	15.3	3.9	0.	13.093
526	15.6	3.9	0.	14.188
527	15.9	3.9	0.	15.3
528	16.2	3.9	0.	16.446
529	16.5	3.9	0.	17.647
530	16.8	3.9	0.	18.922
531	17.1	3.9	0.	20.292
532	17.4	3.9	0.	21.778
533	17.7	3.9	0.	23.407
534	18.	3.9	0.	25.204
535	18.3	3.9	0.	27.198
536	18.6	3.9	0.	29.423
537	18.9	3.9	0.	31.914
538	19.2	3.9	0.	34.713
539	19.5	3.9	0.	37.864
540	19.8	3.9	0.	41.42
541	20.1	3.9	0.	45.436
542	20.4	3.9	0.	49.979
543	20.7	3.9	0.	55.119
544	21.	3.9	0.	60.939
545	21.3	3.9	0.	67.529
546	21.6	3.9	0.	74.989
547	21.9	3.9	0.	83.428
548	22.2	3.9	0.	92.962
549	22.5	3.9	0.	103.7
550	22.8	3.9	0.	115.76
551	23.1	3.9	0.	129.18
552	23.4	3.9	0.	144.2
553	23.7	3.9	0.	159.96
554	0.3	3.6	0.	1075.1
555	0.6	3.6	0.	-263.29
556	0.9	3.6	0.	63.427
557	1.2	3.6	0.	-15.942
558	1.5	3.6	0.	3.7579
559	1.8	3.6	0.	-0.78173
560	2.1	3.6	0.	0.50722
561	2.4	3.6	0.	0.29874
562	2.7	3.6	0.	0.39881
563	3.	3.6	0.	0.38492
564	3.3	3.6	0.	0.37444
565	3.6	3.6	0.	0.349
566	3.9	3.6	0.	0.31998
567	4.2	3.6	0.	0.28907
568	4.5	3.6	0.	0.25863
569	4.8	3.6	0.	0.22969
570	5.1	3.6	0.	0.20287
571	5.4	3.6	0.	0.17842
572	5.7	3.6	0.	0.15639
573	6.	3.6	0.	0.13669
574	6.3	3.6	0.	0.11918
575	6.6	3.6	0.	0.10369
576	6.9	3.6	0.	9.0018e-002
577	7.2	3.6	0.	7.7983e-002
578	7.5	3.6	0.	6.7405e-002
579	7.8	3.6	0.	5.8123e-002
580	8.1	3.6	0.	4.9986e-002
581	8.4	3.6	0.	4.2861e-002
582	8.7	3.6	0.	3.6627e-002
583	9.	3.6	0.	3.118e-002
584	9.3	3.6	0.	2.6425e-002
585	9.6	3.6	0.	2.2281e-002
586	9.9	3.6	0.	1.8676e-002
587	10.2	3.6	0.	1.5549e-002
588	10.5	3.6	0.	1.2847e-002
589	10.8	3.6	0.	1.0526e-002
590	11.1	3.6	0.	8.5589e-003
591	11.4	3.6	0.	6.9309e-003
592	11.7	3.6	0.	5.6715e-003
593	12.	3.6	0.	4.9394e-003
594	12.3	3.6	0.	5.6709e-003
595	12.6	3.6	0.	0.1267
596	12.9	3.6	0.	2.0021
597	13.2	3.6	0.	3.7445
598	13.5	3.6	0.	5.3314
599	13.8	3.6	0.	6.7888
600	14.1	3.6	0.	8.1412
601	14.4	3.6	0.	9.4115
602	14.7	3.6	0.	10.621
603	15.	3.6	0.	11.79
604	15.3	3.6	0.	12.939
605	15.6	3.6	0.	14.086
606	15.9	3.6	0.	15.252
607	16.2	3.6	0.	16.455
608	16.5	3.6	0.	17.717
609	16.8	3.6	0.	19.057
610	17.1	3.6	0.	20.499
611	17.4	3.6	0.	22.067
612	17.7	3.6	0.	23.788
613	18.	3.6	0.	25.689
614	18.3	3.6	0.	27.803
615	18.6	3.6	0.	30.165
616	18.9	3.6	0.	32.815
617	19.2	3.6	0.	35.795
618	19.5	3.6	0.	39.157
619	19.8	3.6	0.	42.953
620	20.1	3.6	0.	47.245
621	20.4	3.6	0.	52.103
622	20.7	3.6	0.	57.6
623	21.	3.6	0.	63.819
624	21.3	3.6	0.	70.85
625	21.6	3.6	0.	78.788
626	21.9	3.6	0.	87.731
627	22.2	3.6	0.	97.777
628	22.5	3.6	0.	109.01
629	22.8	3.6	0.	121.52
630	23.1	3.6	0.	135.29
631	23.4	3.6	0.	150.56
632	23.7	3.6	0.	166.44
633	0.3	3.3	0.	1081.
634	0.6	3.3	0.	-264.63
635	0.9	3.3	0.	63.772
636	1.2	3.3	0.	-16.097
637	1.5	3.3	0.	3.6778
638	1.8	3.3	0.	-0.88916
639	2.1	3.3	0.	0.42235
640	2.4	3.3	0.	0.23417
641	2.7	3.3	0.	0.3552
642	3.	3.3	0.	0.3576
643	3.3	3.3	0.	0.35896
644	3.6	3.3	0.	0.34146
645	3.9	3.3	0.	0.31748
646	4.2	3.3	0.	0.2896
647	4.5	3.3	0.	0.26083
648	4.8	3.3	0.	0.23273
649	5.1	3.3	0.	0.20624
650	5.4	3.3	0.	0.18182
651	5.7	3.3	0.	0.15965
652	6.	3.3	0.	0.13974
653	6.3	3.3	0.	0.12199
654	6.6	3.3	0.	0.10625
655	6.9	3.3	0.	9.234e-002
656	7.2	3.3	0.	8.0089e-002
657	7.5	3.3	0.	6.9319e-002
658	7.8	3.3	0.	5.9866e-002
659	8.1	3.3	0.	5.1577e-002
660	8.4	3.3	0.	4.4318e-002
661	8.7	3.3	0.	3.7967e-002
662	9.	3.3	0.	3.2415e-002
663	9.3	3.3	0.	2.7564e-002
664	9.6	3.3	0.	2.3333e-002
665	9.9	3.3	0.	1.9645e-002
666	10.2	3.3	0.	1.6436e-002
667	10.5	3.3	0.	1.3649e-002
668	10.8	3.3	0.	1.1235e-002
669	11.1	3.3	0.	9.1519e-003
670	11.4	3.3	0.	7.366e-003
671	11.7	3.3	0.	5.857e-003
672	12.	3.3	0.	4.6302e-003
673	12.3	3.3	0.	3.8184e-003
674	12.6	3.3	0.	6.7694e-003
675	12.9	3.3	0.	1.5891
676	13.2	3.3	0.	3.3862
677	13.5	3.3	0.	5.0214
678	13.8	3.3	0.	6.5223
679	14.1	3.3	0.	7.9142
680	14.4	3.3	0.	9.2211
681	14.7	3.3	0.	10.465
682	15.	3.3	0.	11.667
683	15.3	3.3	0.	12.848
684	15.6	3.3	0.	14.028
685	15.9	3.3	0.	15.227
686	16.2	3.3	0.	16.465
687	16.5	3.3	0.	17.763
688	16.8	3.3	0.	19.144
689	17.1	3.3	0.	20.631
690	17.4	3.3	0.	22.249
691	17.7	3.3	0.	24.026
692	18.	3.3	0.	25.992
693	18.3	3.3	0.	28.18
694	18.6	3.3	0.	30.627
695	18.9	3.3	0.	33.374
696	19.2	3.3	0.	36.467
697	19.5	3.3	0.	39.957
698	19.8	3.3	0.	43.901
699	20.1	3.3	0.	48.363
700	20.4	3.3	0.	53.412
701	20.7	3.3	0.	59.126
702	21.	3.3	0.	65.587
703	21.3	3.3	0.	72.883
704	21.6	3.3	0.	81.105
705	21.9	3.3	0.	90.343
706	22.2	3.3	0.	100.68
707	22.5	3.3	0.	112.2
708	22.8	3.3	0.	124.95
709	23.1	3.3	0.	138.92
710	23.4	3.3	0.	154.32
711	23.7	3.3	0.	170.26
712	0.3	3.	0.	1082.9
713	0.6	3.	0.	-265.06
714	0.9	3.	0.	63.885
715	1.2	3.	0.	-16.143
716	1.5	3.	0.	3.6537
717	1.8	3.	0.	-0.92361
718	2.1	3.	0.	0.39425
719	2.4	3.	0.	0.21231
720	2.7	3.	0.	0.34018
721	3.	3.	0.	0.34807
722	3.3	3.	0.	0.35352
723	3.6	3.	0.	0.33879
724	3.9	3.	0.	0.31659
725	4.2	3.	0.	0.28978
726	4.5	3.	0.	0.26161
727	4.8	3.	0.	0.23381
728	5.1	3.	0.	0.20743
729	5.4	3.	0.	0.18302
730	5.7	3.	0.	0.1608
731	6.	3.	0.	0.14081
732	6.3	3.	0.	0.12297
733	6.6	3.	0.	0.10714
734	6.9	3.	0.	9.3153e-002
735	7.2	3.	0.	8.0825e-002
736	7.5	3.	0.	6.9986e-002
737	7.8	3.	0.	6.047e-002
738	8.1	3.	0.	5.2128e-002
739	8.4	3.	0.	4.482e-002
740	8.7	3.	0.	3.8427e-002
741	9.	3.	0.	3.2837e-002
742	9.3	3.	0.	2.7953e-002
743	9.6	3.	0.	2.369e-002
744	9.9	3.	0.	1.9974e-002
745	10.2	3.	0.	1.6736e-002
746	10.5	3.	0.	1.392e-002
747	10.8	3.	0.	1.1475e-002
748	11.1	3.	0.	9.3545e-003
749	11.4	3.	0.	7.519e-003
750	11.7	3.	0.	5.9351e-003
751	12.	3.	0.	4.5723e-003
752	12.3	3.	0.	3.4029e-003
753	12.6	3.	0.	2.4032e-003
754	12.9	3.	0.	1.4504
755	13.2	3.	0.	3.2661
756	13.5	3.	0.	4.9176
757	13.8	3.	0.	6.4331
758	14.1	3.	0.	7.8384
759	14.4	3.	0.	9.1576
760	14.7	3.	0.	10.413
761	15.	3.	0.	11.626
762	15.3	3.	0.	12.818
763	15.6	3.	0.	14.009
764	15.9	3.	0.	15.219
765	16.2	3.	0.	16.469
766	16.5	3.	0.	17.78
767	16.8	3.	0.	19.174
768	17.1	3.	0.	20.676
769	17.4	3.	0.	22.312
770	17.7	3.	0.	24.108
771	18.	3.	0.	26.095
772	18.3	3.	0.	28.308
773	18.6	3.	0.	30.783
774	18.9	3.	0.	33.563
775	19.2	3.	0.	36.694
776	19.5	3.	0.	40.228
777	19.8	3.	0.	44.222
778	20.1	3.	0.	48.741
779	20.4	3.	0.	53.855
780	20.7	3.	0.	59.641
781	21.	3.	0.	66.183
782	21.3	3.	0.	73.567
783	21.6	3.	0.	81.883
784	21.9	3.	0.	91.218
785	22.2	3.	0.	101.66
786	22.5	3.	0.	113.26
787	22.8	3.	0.	126.09
788	23.1	3.	0.	140.13
789	23.4	3.	0.	155.57
790	23.7	3.	0.	171.53
791	0.3	2.7	0.	1081.
792	0.6	2.7	0.	-264.63
793	0.9	2.7	0.	63.772
794	1.2	2.7	0.	-16.097
795	1.5	2.7	0.	3.6778
796	1.8	2.7	0.	-0.88916
797	2.1	2.7	0.	0.42235
798	2.4	2.7	0.	0.23417
799	2.7	2.7	0.	0.3552
800	3.	2.7	0.	0.3576
801	3.3	2.7	0.	0.35896
802	3.6	2.7	0.	0.34146
803	3.9	2.7	0.	0.31748
804	4.2	2.7	0.	0.2896
805	4.5	2.7	0.	0.26083
806	4.8	2.7	0.	0.23273
807	5.1	2.7	0.	0.20624
808	5.4	2.7	0.	0.18182
809	5.7	2.7	0.	0.15965
810	6.	2.7	0.	0.13974
811	6.3	2.7	0.	0.12199
812	6.6	2.7	0.	0.10625
813	6.9	2.7	0.	9.234e-002
814	7.2	2.7	0.	8.009e-002
815	7.5	2.7	0.	6.932e-002
816	7.8	2.7	0.	5.9866e-002
817	8.1	2.7	0.	5.1578e-002
818	8.4	2.7	0.	4.4319e-002
819	8.7	2.7	0.	3.7967e-002
820	9.	2.7	0.	3.2414e-002
821	9.3	2.7	0.	2.7564e-002
822	9.6	2.7	0.	2.3333e-002
823	9.9	2.7	0.	1.9646e-002
824	10.2	2.7	0.	1.6436e-002
825	10.5	2.7	0.	1.3649e-002
826	10.8	2.7	0.	1.1235e-002
827	11.1	2.7	0.	9.1519e-003
828	11.4	2.7	0.	7.3658e-003
829	11.7	2.7	0.	5.8574e-003
830	12.	2.7	0.	4.63e-003
831	12.3	2.7	0.	3.8184e-003
832	12.6	2.7	0.	6.7703e-003
833	12.9	2.7	0.	1.5891
834	13.2	2.7	0.	3.3862
835	13.5	2.7	0.	5.0214
836	13.8	2.7	0.	6.5222
837	14.1	2.7	0.	7.9142
838	14.4	2.7	0.	9.2211
839	14.7	2.7	0.	10.465
840	15.	2.7	0.	11.667
841	15.3	2.7	0.	12.848
842	15.6	2.7	0.	14.028
843	15.9	2.7	0.	15.227
844	16.2	2.7	0.	16.465
845	16.5	2.7	0.	17.763
846	16.8	2.7	0.	19.144
847	17.1	2.7	0.	20.631
848	17.4	2.7	0.	22.249
849	17.7	2.7	0.	24.026
850	18.	2.7	0.	25.992
851	18.3	2.7	0.	28.18
852	18.6	2.7	0.	30.627
853	18.9	2.7	0.	33.374
854	19.2	2.7	0.	36.467
855	19.5	2.7	0.	39.957
856	19.8	2.7	0.	43.901
857	20.1	2.7	0.	48.363
858	20.4	2.7	0.	53.412
859	20.7	2.7	0.	59.126
860	21.	2.7	0.	65.587
861	21.3	2.7	0.	72.883
862	21.6	2.7	0.	81.105
863	21.9	2.7	0.	90.343
864	22.2	2.7	0.	100.68
865	22.5	2.7	0.	112.2
866	22.8	2.7	0.	124.95
867	23.1	2.7	0.	138.92
868	23.4	2.7	0.	154.32
869	23.7	2.7	0.	170.26
870	0.3	2.4	0.	1075.1
871	0.6	2.4	0.	-263.29
872	0.9	2.4	0.	63.427
873	1.2	2.4	0.	-15.942
874	1.5	2.4	0.	3.7579
875	1.8	2.4	0.	-0.78173
876	2.1	2.4	0.	0.50722
877	2.4	2.4	0.	0.29874
878	2.7	2.4	0.	0.39881
879	3.	2.4	0.	0.38492
880	3.3	2.4	0.	0.37444
881	3.6	2.4	0.	0.349
882	3.9	2.4	0.	0.31998
883	4.2	2.4	0.	0.28908
884	4.5	2.4	0.	0.25863
885	4.8	2.4	0.	0.22969
886	5.1	2.4	0.	0.20287
887	5.4	2.4	0.	0.17842
888	5.7	2.4	0.	0.15639
889	6.	2.4	0.	0.13669
890	6.3	2.4	0.	0.11918
891	6.6	2.4	0.	0.10369
892	6.9	2.4	0.	9.0018e-002
893	7.2	2.4	0.	7.7982e-002
894	7.5	2.4	0.	6.7406e-002
895	7.8	2.4	0.	5.8123e-002
896	8.1	2.4	0.	4.9986e-002
897	8.4	2.4	0.	4.2861e-002
898	8.7	2.4	0.	3.6628e-002
899	9.	2.4	0.	3.118e-002
900	9.3	2.4	0.	2.6425e-002
901	9.6	2.4	0.	2.2281e-002
902	9.9	2.4	0.	1.8676e-002
903	10.2	2.4	0.	1.5549e-002
904	10.5	2.4	0.	1.2846e-002
905	10.8	2.4	0.	1.0526e-002
906	11.1	2.4	0.	8.5591e-003
907	11.4	2.4	0.	6.9318e-003
908	11.7	2.4	0.	5.6715e-003
909	12.	2.4	0.	4.9392e-003
910	12.3	2.4	0.	5.67e-003
911	12.6	2.4	0.	0.12669
912	12.9	2.4	0.	2.002
913	13.2	2.4	0.	3.7445
914	13.5	2.4	0.	5.3314
915	13.8	2.4	0.	6.7888
916	14.1	2.4	0.	8.1412
917	14.4	2.4	0.	9.4114
918	14.7	2.4	0.	10.621
919	15.	2.4	0.	11.79
920	15.3	2.4	0.	12.939
921	15.6	2.4	0.	14.086
922	15.9	2.4	0.	15.252
923	16.2	2.4	0.	16.455
924	16.5	2.4	0.	17.717
925	16.8	2.4	0.	19.057
926	17.1	2.4	0.	20.499
927	17.4	2.4	0.	22.067
928	17.7	2.4	0.	23.787
929	18.	2.4	0.	25.689
930	18.3	2.4	0.	27.803
931	18.6	2.4	0.	30.165
932	18.9	2.4	0.	32.815
933	19.2	2.4	0.	35.795
934	19.5	2.4	0.	39.156
935	19.8	2.4	0.	42.953
936	20.1	2.4	0.	47.245
937	20.4	2.4	0.	52.103
938	20.7	2.4	0.	57.6
939	21.	2.4	0.	63.819
940	21.3	2.4	0.	70.85
941	21.6	2.4	0.	78.788
942	21.9	2.4	0.	87.731
943	22.2	2.4	0.	97.777
944	22.5	2.4	0.	109.01
945	22.8	2.4	0.	121.52
946	23.1	2.4	0.	135.29
947	23.4	2.4	0.	150.56
948	23.7	2.4	0.	166.44
949	0.3	2.1	0.	1064.4
950	0.6	2.1	0.	-260.85
951	0.9	2.1	0.	62.839
952	1.2	2.1	0.	-15.637
953	1.5	2.1	0.	3.912
954	1.8	2.1	0.	-0.59354
955	2.1	2.1	0.	0.64611
956	2.4	2.1	0.	0.39965
957	2.7	2.1	0.	0.46431
958	3.	2.1	0.	0.42456
959	3.3	2.1	0.	0.39603
960	3.6	2.1	0.	0.35882
961	3.9	2.1	0.	0.32249
962	4.2	2.1	0.	0.28729
963	4.5	2.1	0.	0.2545
964	4.8	2.1	0.	0.22444
965	5.1	2.1	0.	0.19723
966	5.4	2.1	0.	0.17281
967	5.7	2.1	0.	0.15104
968	6.	2.1	0.	0.13171
969	6.3	2.1	0.	0.1146
970	6.6	2.1	0.	9.9506e-002
971	6.9	2.1	0.	8.6211e-002
972	7.2	2.1	0.	7.452e-002
973	7.5	2.1	0.	6.4252e-002
974	7.8	2.1	0.	5.5244e-002
975	8.1	2.1	0.	4.735e-002
976	8.4	2.1	0.	4.044e-002
977	8.7	2.1	0.	3.4397e-002
978	9.	2.1	0.	2.912e-002
979	9.3	2.1	0.	2.452e-002
980	9.6	2.1	0.	2.052e-002
981	9.9	2.1	0.	1.7052e-002
982	10.2	2.1	0.	1.4062e-002
983	10.5	2.1	0.	1.1505e-002
984	10.8	2.1	0.	9.3537e-003
985	11.1	2.1	0.	7.6002e-003
986	11.4	2.1	0.	6.2859e-003
987	11.7	2.1	0.	5.5723e-003
988	12.	2.1	0.	6.1232e-003
989	12.3	2.1	0.	1.3341e-002
990	12.6	2.1	0.	0.86215
991	12.9	2.1	0.	2.6815
992	13.2	2.1	0.	4.3356
993	13.5	2.1	0.	5.8436
994	13.8	2.1	0.	7.2299
995	14.1	2.1	0.	8.5176
996	14.4	2.1	0.	9.7281
997	14.7	2.1	0.	10.881
998	15.	2.1	0.	11.997
999	15.3	2.1	0.	13.093
1000	15.6	2.1	0.	14.188
1001	15.9	2.1	0.	15.3
1002	16.2	2.1	0.	16.446
1003	16.5	2.1	0.	17.647
1004	16.8	2.1	0.	18.922
1005	17.1	2.1	0.	20.292
1006	17.4	2.1	0.	21.778
1007	17.7	2.1	0.	23.407
1008	18.	2.1	0.	25.204
1009	18.3	2.1	0.	27.198
1010	18.6	2.1	0.	29.423
1011	18.9	2.1	0.	31.914
1012	19.2	2.1	0.	34.713
1013	19.5	2.1	0.	37.864
1014	19.8	2.1	0.	41.42
1015	20.1	2.1	0.	45.436
1016	20.4	2.1	0.	49.979
1017	20.7	2.1	0.	55.119
1018	21.	2.1	0.	60.939
1019	21.3	2.1	0.	67.529
1020	21.6	2.1	0.	74.989
1021	21.9	2.1	0.	83.428
1022	22.2	2.1	0.	92.961
1023	22.5	2.1	0.	103.7
1024	22.8	2.1	0.	115.76
1025	23.1	2.1	0.	129.18
1026	23.4	2.1	0.	144.2
1027	23.7	2.1	0.	159.96
1028	0.3	1.8	0.	1047.6
1029	0.6	1.8	0.	-256.94
1030	0.9	1.8	0.	61.992
1031	1.2	1.8	0.	-15.078
1032	1.5	1.8	0.	4.1776
1033	1.8	1.8	0.	-0.31119
1034	2.1	1.8	0.	0.83774
1035	2.4	1.8	0.	0.53157
1036	2.7	1.8	0.	0.54698
1037	3.	1.8	0.	0.47399
1038	3.3	1.8	0.	0.42325
1039	3.6	1.8	0.	0.37196
1040	3.9	1.8	0.	0.32698
1041	4.2	1.8	0.	0.28667
1042	4.5	1.8	0.	0.25103
1043	4.8	1.8	0.	0.21951
1044	5.1	1.8	0.	0.19169
1045	5.4	1.8	0.	0.16715
1046	5.7	1.8	0.	0.14553
1047	6.	1.8	0.	0.12648
1048	6.3	1.8	0.	0.10972
1049	6.6	1.8	0.	9.4975e-002
1050	6.9	1.8	0.	8.202e-002
1051	7.2	1.8	0.	7.0644e-002
1052	7.5	1.8	0.	6.0662e-002
1053	7.8	1.8	0.	5.191e-002
1054	8.1	1.8	0.	4.4243e-002
1055	8.4	1.8	0.	3.7536e-002
1056	8.7	1.8	0.	3.1674e-002
1057	9.	1.8	0.	2.6563e-002
1058	9.3	1.8	0.	2.2116e-002
1059	9.6	1.8	0.	1.8263e-002
1060	9.9	1.8	0.	1.4943e-002
1061	10.2	1.8	0.	1.2111e-002
1062	10.5	1.8	0.	9.7393e-003
1063	10.8	1.8	0.	7.8239e-003
1064	11.1	1.8	0.	6.4126e-003
1065	11.4	1.8	0.	5.6792e-003
1066	11.7	1.8	0.	6.2146e-003
1067	12.	1.8	0.	1.1122e-002
1068	12.3	1.8	0.	0.17118
1069	12.6	1.8	0.	1.9264
1070	12.9	1.8	0.	3.6166
1071	13.2	1.8	0.	5.1508
1072	13.5	1.8	0.	6.5515
1073	13.8	1.8	0.	7.8411
1074	14.1	1.8	0.	9.0408
1075	14.4	1.8	0.	10.17
1076	14.7	1.8	0.	11.247
1077	15.	1.8	0.	12.29
1078	15.3	1.8	0.	13.315
1079	15.6	1.8	0.	14.339
1080	15.9	1.8	0.	15.378
1081	16.2	1.8	0.	16.448
1082	16.5	1.8	0.	17.568
1083	16.8	1.8	0.	18.755
1084	17.1	1.8	0.	20.027
1085	17.4	1.8	0.	21.404
1086	17.7	1.8	0.	22.909
1087	18.	1.8	0.	24.566
1088	18.3	1.8	0.	26.4
1089	18.6	1.8	0.	28.44
1090	18.9	1.8	0.	30.719
1091	19.2	1.8	0.	33.273
1092	19.5	1.8	0.	36.143
1093	19.8	1.8	0.	39.373
1094	20.1	1.8	0.	43.015
1095	20.4	1.8	0.	47.13
1096	20.7	1.8	0.	51.783
1097	21.	1.8	0.	57.052
1098	21.3	1.8	0.	63.026
1099	21.6	1.8	0.	69.81
1100	21.9	1.8	0.	77.522
1101	22.2	1.8	0.	86.299
1102	22.5	1.8	0.	96.29
1103	22.8	1.8	0.	107.66
1104	23.1	1.8	0.	120.5
1105	23.4	1.8	0.	135.1
1106	23.7	1.8	0.	150.67
1107	0.3	1.5	0.	1021.5
1108	0.6	1.5	0.	-250.8
1109	0.9	1.5	0.	60.853
1110	1.2	1.5	0.	-14.157
1111	1.5	1.5	0.	4.5364
1112	1.8	1.5	0.	3.2394e-002
1113	2.1	1.5	0.	1.0374
1114	2.4	1.5	0.	0.65664
1115	2.7	1.5	0.	0.61662
1116	3.	1.5	0.	0.51021
1117	3.3	1.5	0.	0.43849
1118	3.6	1.5	0.	0.37476
1119	3.9	1.5	0.	0.32258
1120	4.2	1.5	0.	0.27839
1121	4.5	1.5	0.	0.24088
1122	4.8	1.5	0.	0.20872
1123	5.1	1.5	0.	0.18095
1124	5.4	1.5	0.	0.15686
1125	5.7	1.5	0.	0.13587
1126	6.	1.5	0.	0.11753
1127	6.3	1.5	0.	0.10148
1128	6.6	1.5	0.	8.7429e-002
1129	6.9	1.5	0.	7.5111e-002
1130	7.2	1.5	0.	6.4313e-002
1131	7.5	1.5	0.	5.485e-002
1132	7.8	1.5	0.	4.6561e-002
1133	8.1	1.5	0.	3.9308e-002
1134	8.4	1.5	0.	3.2967e-002
1135	8.7	1.5	0.	2.7436e-002
1136	9.	1.5	0.	2.2623e-002
1137	9.3	1.5	0.	1.8453e-002
1138	9.6	1.5	0.	1.4861e-002
1139	9.9	1.5	0.	1.1803e-002
1140	10.2	1.5	0.	9.2484e-003
1141	10.5	1.5	0.	7.2023e-003
1142	10.8	1.5	0.	5.7222e-003
1143	11.1	1.5	0.	5.0033e-003
1144	11.4	1.5	0.	5.6748e-003
1145	11.7	1.5	0.	1.063e-002
1146	12.	1.5	0.	7.6677e-002
1147	12.3	1.5	0.	1.586
1148	12.6	1.5	0.	3.2691
1149	12.9	1.5	0.	4.7937
1150	13.2	1.5	0.	6.1791
1151	13.5	1.5	0.	7.4466
1152	13.8	1.5	0.	8.6164
1153	14.1	1.5	0.	9.7071
1154	14.4	1.5	0.	10.736
1155	14.7	1.5	0.	11.719
1156	15.	1.5	0.	12.672
1157	15.3	1.5	0.	13.61
1158	15.6	1.5	0.	14.547
1159	15.9	1.5	0.	15.497
1160	16.2	1.5	0.	16.475
1161	16.5	1.5	0.	17.496
1162	16.8	1.5	0.	18.575
1163	17.1	1.5	0.	19.729
1164	17.4	1.5	0.	20.974
1165	17.7	1.5	0.	22.33
1166	18.	1.5	0.	23.816
1167	18.3	1.5	0.	25.456
1168	18.6	1.5	0.	27.273
1169	18.9	1.5	0.	29.294
1170	19.2	1.5	0.	31.551
1171	19.5	1.5	0.	34.077
1172	19.8	1.5	0.	36.91
1173	20.1	1.5	0.	40.096
1174	20.4	1.5	0.	43.684
1175	20.7	1.5	0.	47.733
1176	21.	1.5	0.	52.313
1177	21.3	1.5	0.	57.508
1178	21.6	1.5	0.	63.419
1179	21.9	1.5	0.	70.17
1180	22.2	1.5	0.	77.916
1181	22.5	1.5	0.	86.844
1182	22.8	1.5	0.	97.186
1183	23.1	1.5	0.	109.13
1184	23.4	1.5	0.	123.07
1185	23.7	1.5	0.	138.31
1186	0.3	1.2	0.	982.7
1187	0.6	1.2	0.	-240.65
1188	0.9	1.2	0.	59.583
1189	1.2	1.2	0.	-12.55
1190	1.5	1.2	0.	5.0943
1191	1.8	1.2	0.	0.51653
1192	2.1	1.2	0.	1.3135
1193	2.4	1.2	0.	0.84831
1194	2.7	1.2	0.	0.74524
1195	3.	1.2	0.	0.60172
1196	3.3	1.2	0.	0.50511
1197	3.6	1.2	0.	0.42472
1198	3.9	1.2	0.	0.36089
1199	4.2	1.2	0.	0.30835
1200	4.5	1.2	0.	0.26468
1201	4.8	1.2	0.	0.22783
1202	5.1	1.2	0.	0.19642
1203	5.4	1.2	0.	0.16943
1204	5.7	1.2	0.	0.14608
1205	6.	1.2	0.	0.12579
1206	6.3	1.2	0.	0.10811
1207	6.6	1.2	0.	9.2667e-002
1208	6.9	1.2	0.	7.9159e-002
1209	7.2	1.2	0.	6.7337e-002
1210	7.5	1.2	0.	5.6987e-002
1211	7.8	1.2	0.	4.7928e-002
1212	8.1	1.2	0.	4.0006e-002
1213	8.4	1.2	0.	3.3086e-002
1214	8.7	1.2	0.	2.7055e-002
1215	9.	1.2	0.	2.1816e-002
1216	9.3	1.2	0.	1.7289e-002
1217	9.6	1.2	0.	1.3414e-002
1218	9.9	1.2	0.	1.0155e-002
1219	10.2	1.2	0.	7.5108e-003
1220	10.5	1.2	0.	5.5505e-003
1221	10.8	1.2	0.	4.5099e-003
1222	11.1	1.2	0.	5.1936e-003
1223	11.4	1.2	0.	1.1642e-002
1224	11.7	1.2	0.	0.15267
1225	12.	1.2	0.	1.7784
1226	12.3	1.2	0.	3.4012
1227	12.6	1.2	0.	4.8675
1228	12.9	1.2	0.	6.196
1229	13.2	1.2	0.	7.4069
1230	13.5	1.2	0.	8.5187
1231	13.8	1.2	0.	9.5486
1232	14.1	1.2	0.	10.512
1233	14.4	1.2	0.	11.425
1234	14.7	1.2	0.	12.299
1235	15.	1.2	0.	13.149
1236	15.3	1.2	0.	13.986
1237	15.6	1.2	0.	14.823
1238	15.9	1.2	0.	15.672
1239	16.2	1.2	0.	16.544
1240	16.5	1.2	0.	17.453
1241	16.8	1.2	0.	18.41
1242	17.1	1.2	0.	19.429
1243	17.4	1.2	0.	20.524
1244	17.7	1.2	0.	21.711
1245	18.	1.2	0.	23.005
1246	18.3	1.2	0.	24.424
1247	18.6	1.2	0.	25.988
1248	18.9	1.2	0.	27.718
1249	19.2	1.2	0.	29.638
1250	19.5	1.2	0.	31.774
1251	19.8	1.2	0.	34.156
1252	20.1	1.2	0.	36.82
1253	20.4	1.2	0.	39.805
1254	20.7	1.2	0.	43.157
1255	21.	1.2	0.	46.935
1256	21.3	1.2	0.	51.207
1257	21.6	1.2	0.	56.065
1258	21.9	1.2	0.	61.624
1259	22.2	1.2	0.	68.045
1260	22.5	1.2	0.	75.538
1261	22.8	1.2	0.	84.403
1262	23.1	1.2	0.	94.957
1263	23.4	1.2	0.	107.8
1264	23.7	1.2	0.	122.45
1265	0.3	0.9	0.	915.35
1266	0.6	0.9	0.	-225.4
1267	0.9	0.9	0.	58.243
1268	1.2	0.9	0.	-10.907
1269	1.5	0.9	0.	5.1398
1270	1.8	0.9	0.	0.6105
1271	2.1	0.9	0.	1.2384
1272	2.4	0.9	0.	0.74586
1273	2.7	0.9	0.	0.62489
1274	3.	0.9	0.	0.48084
1275	3.3	0.9	0.	0.38856
1276	3.6	0.9	0.	0.31558
1277	3.9	0.9	0.	0.26024
1278	4.2	0.9	0.	0.21652
1279	4.5	0.9	0.	0.18151
1280	4.8	0.9	0.	0.15292
1281	5.1	0.9	0.	0.12924
1282	5.4	0.9	0.	0.10937
1283	5.7	0.9	0.	9.2514e-002
1284	6.	0.9	0.	7.8111e-002
1285	6.3	0.9	0.	6.5721e-002
1286	6.6	0.9	0.	5.5016e-002
1287	6.9	0.9	0.	4.5735e-002
1288	7.2	0.9	0.	3.7671e-002
1289	7.5	0.9	0.	3.0654e-002
1290	7.8	0.9	0.	2.4548e-002
1291	8.1	0.9	0.	1.9236e-002
1292	8.4	0.9	0.	1.4622e-002
1293	8.7	0.9	0.	1.0628e-002
1294	9.	0.9	0.	7.1931e-003
1295	9.3	0.9	0.	4.272e-003
1296	9.6	0.9	0.	1.8452e-003
1297	9.9	0.9	0.	-6.7206e-005
1298	10.2	0.9	0.	-1.3606e-003
1299	10.5	0.9	0.	-1.6847e-003
1300	10.8	0.9	0.	3.7566e-004
1301	11.1	0.9	0.	1.8294e-002
1302	11.4	0.9	0.	1.0035
1303	11.7	0.9	0.	2.6528
1304	12.	0.9	0.	4.1426
1305	12.3	0.9	0.	5.486
1306	12.6	0.9	0.	6.7024
1307	12.9	0.9	0.	7.8099
1308	13.2	0.9	0.	8.8251
1309	13.5	0.9	0.	9.7628
1310	13.8	0.9	0.	10.637
1311	14.1	0.9	0.	11.46
1312	14.4	0.9	0.	12.243
1313	14.7	0.9	0.	12.997
1314	15.	0.9	0.	13.733
1315	15.3	0.9	0.	14.461
1316	15.6	0.9	0.	15.189
1317	15.9	0.9	0.	15.927
1318	16.2	0.9	0.	16.686
1319	16.5	0.9	0.	17.473
1320	16.8	0.9	0.	18.299
1321	17.1	0.9	0.	19.174
1322	17.4	0.9	0.	20.109
1323	17.7	0.9	0.	21.114
1324	18.	0.9	0.	22.203
1325	18.3	0.9	0.	23.386
1326	18.6	0.9	0.	24.679
1327	18.9	0.9	0.	26.097
1328	19.2	0.9	0.	27.656
1329	19.5	0.9	0.	29.375
1330	19.8	0.9	0.	31.274
1331	20.1	0.9	0.	33.377
1332	20.4	0.9	0.	35.711
1333	20.7	0.9	0.	38.307
1334	21.	0.9	0.	41.205
1335	21.3	0.9	0.	44.455
1336	21.6	0.9	0.	48.122
1337	21.9	0.9	0.	52.299
1338	22.2	0.9	0.	57.118
1339	22.5	0.9	0.	62.778
1340	22.8	0.9	0.	69.602
1341	23.1	0.9	0.	78.033
1342	23.4	0.9	0.	88.985
1343	23.7	0.9	0.	102.49
1344	0.3	0.6	0.	824.81
1345	0.6	0.6	0.	-185.19
1346	0.9	0.6	0.	54.295
1347	1.2	0.6	0.	-5.9517
1348	1.5	0.6	0.	6.8347
1349	1.8	0.6	0.	2.487
1350	2.1	0.6	0.	2.6853
1351	2.4	0.6	0.	2.0237
1352	2.7	0.6	0.	1.7236
1353	3.	0.6	0.	1.4396
1354	3.3	0.6	0.	1.2244
1355	3.6	0.6	0.	1.0455
1356	3.9	0.6	0.	0.89754
1357	4.2	0.6	0.	0.77284
1358	4.5	0.6	0.	0.66686
1359	4.8	0.6	0.	0.57603
1360	5.1	0.6	0.	0.49774
1361	5.4	0.6	0.	0.42993
1362	5.7	0.6	0.	0.37102
1363	6.	0.6	0.	0.31971
1364	6.3	0.6	0.	0.27494
1365	6.6	0.6	0.	0.23582
1366	6.9	0.6	0.	0.2016
1367	7.2	0.6	0.	0.17166
1368	7.5	0.6	0.	0.14544
1369	7.8	0.6	0.	0.12247
1370	8.1	0.6	0.	0.10235
1371	8.4	0.6	0.	8.4717e-002
1372	8.7	0.6	0.	6.9267e-002
1373	9.	0.6	0.	5.5735e-002
1374	9.3	0.6	0.	4.3893e-002
1375	9.6	0.6	0.	3.356e-002
1376	9.9	0.6	0.	2.463e-002
1377	10.2	0.6	0.	1.7282e-002
1378	10.5	0.6	0.	2.0861e-002
1379	10.8	0.6	0.	1.4917
1380	11.1	0.6	0.	3.045
1381	11.4	0.6	0.	4.4402
1382	11.7	0.6	0.	5.6971
1383	12.	0.6	0.	6.8339
1384	12.3	0.6	0.	7.867
1385	12.6	0.6	0.	8.8109
1386	12.9	0.6	0.	9.6788
1387	13.2	0.6	0.	10.483
1388	13.5	0.6	0.	11.233
1389	13.8	0.6	0.	11.94
1390	14.1	0.6	0.	12.613
1391	14.4	0.6	0.	13.259
1392	14.7	0.6	0.	13.887
1393	15.	0.6	0.	14.505
1394	15.3	0.6	0.	15.118
1395	15.6	0.6	0.	15.734
1396	15.9	0.6	0.	16.36
1397	16.2	0.6	0.	17.001
1398	16.5	0.6	0.	17.665
1399	16.8	0.6	0.	18.358
1400	17.1	0.6	0.	19.087
1401	17.4	0.6	0.	19.859
1402	17.7	0.6	0.	20.681
1403	18.	0.6	0.	21.561
1404	18.3	0.6	0.	22.505
1405	18.6	0.6	0.	23.524
1406	18.9	0.6	0.	24.625
1407	19.2	0.6	0.	25.819
1408	19.5	0.6	0.	27.113
1409	19.8	0.6	0.	28.521
1410	20.1	0.6	0.	30.052
1411	20.4	0.6	0.	31.721
1412	20.7	0.6	0.	33.542
1413	21.	0.6	0.	35.533
1414	21.3	0.6	0.	37.719
1415	21.6	0.6	0.	40.13
1416	21.9	0.6	0.	42.814
1417	22.2	0.6	0.	45.845
1418	22.5	0.6	0.	49.345
1419	22.8	0.6	0.	53.546
1420	23.1	0.6	0.	58.85
1421	23.4	0.6	0.	66.369
1422	23.7	0.6	0.	77.248
1423	0.3	0.3	0.	506.27
1424	0.6	0.3	0.	-91.977
1425	0.9	0.3	0.	31.376
1426	1.2	0.3	0.	-2.7701
1427	1.5	0.3	0.	3.0838
1428	1.8	0.3	0.	0.21385
1429	2.1	0.3	0.	7.2342e-002
1430	2.4	0.3	0.	-0.39029
1431	2.7	0.3	0.	-0.56108
1432	3.	0.3	0.	-0.66961
1433	3.3	0.3	0.	-0.70812
1434	3.6	0.3	0.	-0.70961
1435	3.9	0.3	0.	-0.68621
1436	4.2	0.3	0.	-0.64836
1437	4.5	0.3	0.	-0.60244
1438	4.8	0.3	0.	-0.55285
1439	5.1	0.3	0.	-0.50247
1440	5.4	0.3	0.	-0.45315
1441	5.7	0.3	0.	-0.40603
1442	6.	0.3	0.	-0.36178
1443	6.3	0.3	0.	-0.3207
1444	6.6	0.3	0.	-0.28287
1445	6.9	0.3	0.	-0.2482
1446	7.2	0.3	0.	-0.21646
1447	7.5	0.3	0.	-0.18733
1448	7.8	0.3	0.	-0.16031
1449	8.1	0.3	0.	-0.13461
1450	8.4	0.3	0.	-0.10873
1451	8.7	0.3	0.	-7.8632e-002
1452	9.	0.3	0.	-2.6145e-002
1453	9.3	0.3	0.	0.30313
1454	9.6	0.3	0.	1.711
1455	9.9	0.3	0.	3.1905
1456	10.2	0.3	0.	4.5435
1457	10.5	0.3	0.	5.7712
1458	10.8	0.3	0.	6.8857
1459	11.1	0.3	0.	7.9001
1460	11.4	0.3	0.	8.8266
1461	11.7	0.3	0.	9.6765
1462	12.	0.3	0.	10.46
1463	12.3	0.3	0.	11.187
1464	12.6	0.3	0.	11.865
1465	12.9	0.3	0.	12.502
1466	13.2	0.3	0.	13.106
1467	13.5	0.3	0.	13.682
1468	13.8	0.3	0.	14.236
1469	14.1	0.3	0.	14.774
1470	14.4	0.3	0.	15.301
1471	14.7	0.3	0.	15.822
1472	15.	0.3	0.	16.34
1473	15.3	0.3	0.	16.861
1474	15.6	0.3	0.	17.388
1475	15.9	0.3	0.	17.924
1476	16.2	0.3	0.	18.475
1477	16.5	0.3	0.	19.042
1478	16.8	0.3	0.	19.63
1479	17.1	0.3	0.	20.243
1480	17.4	0.3	0.	20.883
1481	17.7	0.3	0.	21.554
1482	18.	0.3	0.	22.259
1483	18.3	0.3	0.	23.
1484	18.6	0.3	0.	23.782
1485	18.9	0.3	0.	24.606
1486	19.2	0.3	0.	25.475
1487	19.5	0.3	0.	26.39
1488	19.8	0.3	0.	27.352
1489	20.1	0.3	0.	28.362
1490	20.4	0.3	0.	29.418
1491	20.7	0.3	0.	30.52
1492	21.	0.3	0.	31.663
1493	21.3	0.3	0.	32.843
1494	21.6	0.3	0.	34.054
1495	21.9	0.3	0.	35.29
1496	22.2	0.3	0.	36.546
1497	22.5	0.3	0.	37.819
1498	22.8	0.3	0.	39.136
1499	23.1	0.3	0.	40.536
1500	23.4	0.3	0.	42.428
1501	23.7	0.3	0.	46.178
1502	23.7	0.3	0.1	60.395
1503	23.4	0.3	0.1	119.6
1504	23.1	0.3	0.1	182.14
1505	22.8	0.3	0.1	245.67
1506	22.5	0.3	0.1	309.85
1507	22.2	0.3	0.1	374.47
1508	21.9	0.3	0.1	439.47
1509	21.6	0.3	0.1	504.82
1510	21.3	0.3	0.1	570.49
1511	21.	0.3	0.1	636.51
1512	20.7	0.3	0.1	702.89
1513	20.4	0.3	0.1	769.63
1514	20.1	0.3	0.1	836.76
1515	19.8	0.3	0.1	904.29
1516	19.5	0.3	0.1	972.25
1517	19.2	0.3	0.1	1040.6
1518	18.9	0.3	0.1	1109.5
1519	18.6	0.3	0.1	1178.8
1520	18.3	0.3	0.1	1248.6
1521	18.	0.3	0.1	1318.8
1522	17.7	0.3	0.1	1389.6
1523	17.4	0.3	0.1	1460.8
1524	17.1	0.3	0.1	1532.6
1525	16.8	0.3	0.1	1604.8
1526	16.5	0.3	0.1	1677.6
1527	16.2	0.3	0.1	1750.9
1528	15.9	0.3	0.1	1824.7
1529	15.6	0.3	0.1	1899.1
1530	15.3	0.3	0.1	1974.
1531	15.	0.3	0.1	2049.4
1532	14.7	0.3	0.1	2125.3
1533	14.4	0.3	0.1	2201.8
1534	14.1	0.3	0.1	2278.9
1535	13.8	0.3	0.1	2356.4
1536	13.5	0.3	0.1	2434.6
1537	13.2	0.3	0.1	2513.2
1538	12.9	0.3	0.1	2592.5
1539	12.6	0.3	0.1	2672.3
1540	12.3	0.3	0.1	2752.6
1541	12.	0.3	0.1	2833.5
1542	11.7	0.3	0.1	2915.
1543	11.4	0.3	0.1	2997.1
1544	11.1	0.3	0.1	3079.7
1545	10.8	0.3	0.1	3163.
1546	10.5	0.3	0.1	3246.9
1547	10.2	0.3	0.1	3331.3
1548	9.9	0.3	0.1	3416.5
1549	9.6	0.3	0.1	3502.2
1550	9.3	0.3	0.1	3588.7
1551	9.	0.3	0.1	3675.8
1552	8.7	0.3	0.1	3763.6
1553	8.4	0.3	0.1	3852.2
1554	8.1	0.3	0.1	3941.5
1555	7.8	0.3	0.1	4031.7
1556	7.5	0.3	0.1	4122.8
1557	7.2	0.3	0.1	4214.7
1558	6.9	0.3	0.1	4307.7
1559	6.6	0.3	0.1	4401.7
1560	6.3	0.3	0.1	4496.8
1561	6.	0.3	0.1	4593.1
1562	5.7	0.3	0.1	4690.8
1563	5.4	0.3	0.1	4789.9
1564	5.1	0.3	0.1	4890.4
1565	4.8	0.3	0.1	4992.5
1566	4.5	0.3	0.1	5096.3
1567	4.2	0.3	0.1	5201.6
1568	3.9	0.3	0.1	5308.5
1569	3.6	0.3	0.1	5416.4
1570	3.3	0.3	0.1	5525.
1571	3.	0.3	0.1	5633.1
1572	2.7	0.3	0.1	5739.1
1573	2.4	0.3	0.1	5839.9
1574	2.1	0.3	0.1	5930.8
1575	1.8	0.3	0.1	6004.3
1576	1.5	0.3	0.1	6045.7
1577	1.2	0.3	0.1	6034.8
1578	0.9	0.3	0.1	5908.6
1579	0.6	0.3	0.1	5632.5
1580	0.3	0.3	0.1	4606.4
1581	23.7	0.6	0.1	62.513
1582	23.4	0.6	0.1	121.47
1583	23.1	0.6	0.1	182.73
1584	22.8	0.6	0.1	245.24
1585	22.5	0.6	0.1	308.68
1586	22.2	0.6	0.1	372.76
1587	21.9	0.6	0.1	437.34
1588	21.6	0.6	0.1	502.35
1589	21.3	0.6	0.1	567.78
1590	21.	0.6	0.1	633.6
1591	20.7	0.6	0.1	699.81
1592	20.4	0.6	0.1	766.44
1593	20.1	0.6	0.1	833.47
1594	19.8	0.6	0.1	900.94
1595	19.5	0.6	0.1	968.85
1596	19.2	0.6	0.1	1037.2
1597	18.9	0.6	0.1	1106.
1598	18.6	0.6	0.1	1175.3
1599	18.3	0.6	0.1	1245.1
1600	18.	0.6	0.1	1315.4
1601	17.7	0.6	0.1	1386.2
1602	17.4	0.6	0.1	1457.4
1603	17.1	0.6	0.1	1529.2
1604	16.8	0.6	0.1	1601.5
1605	16.5	0.6	0.1	1674.3
1606	16.2	0.6	0.1	1747.7
1607	15.9	0.6	0.1	1821.5
1608	15.6	0.6	0.1	1895.9
1609	15.3	0.6	0.1	1970.8
1610	15.	0.6	0.1	2046.2
1611	14.7	0.6	0.1	2122.2
1612	14.4	0.6	0.1	2198.7
1613	14.1	0.6	0.1	2275.8
1614	13.8	0.6	0.1	2353.3
1615	13.5	0.6	0.1	2431.5
1616	13.2	0.6	0.1	2510.1
1617	12.9	0.6	0.1	2589.3
1618	12.6	0.6	0.1	2669.1
1619	12.3	0.6	0.1	2749.4
1620	12.	0.6	0.1	2830.2
1621	11.7	0.6	0.1	2911.7
1622	11.4	0.6	0.1	2993.6
1623	11.1	0.6	0.1	3076.2
1624	10.8	0.6	0.1	3159.3
1625	10.5	0.6	0.1	3243.
1626	10.2	0.6	0.1	3327.3
1627	9.9	0.6	0.1	3412.1
1628	9.6	0.6	0.1	3497.6
1629	9.3	0.6	0.1	3583.7
1630	9.	0.6	0.1	3670.5
1631	8.7	0.6	0.1	3757.9
1632	8.4	0.6	0.1	3845.9
1633	8.1	0.6	0.1	3934.7
1634	7.8	0.6	0.1	4024.2
1635	7.5	0.6	0.1	4114.5
1636	7.2	0.6	0.1	4205.5
1637	6.9	0.6	0.1	4297.5
1638	6.6	0.6	0.1	4390.3
1639	6.3	0.6	0.1	4484.
1640	6.	0.6	0.1	4578.8
1641	5.7	0.6	0.1	4674.7
1642	5.4	0.6	0.1	4771.7
1643	5.1	0.6	0.1	4870.
1644	4.8	0.6	0.1	4969.5
1645	4.5	0.6	0.1	5070.3
1646	4.2	0.6	0.1	5172.4
1647	3.9	0.6	0.1	5275.6
1648	3.6	0.6	0.1	5379.7
1649	3.3	0.6	0.1	5484.
1650	3.	0.6	0.1	5587.5
1651	2.7	0.6	0.1	5688.7
1652	2.4	0.6	0.1	5784.9
1653	2.1	0.6	0.1	5871.6
1654	1.8	0.6	0.1	5942.4
1655	1.5	0.6	0.1	5984.5
1656	1.2	0.6	0.1	5985.4
1657	0.9	0.6	0.1	5891.3
1658	0.6	0.6	0.1	5766.4
1659	0.3	0.6	0.1	5259.4
1660	23.7	0.9	0.1	63.535
1661	23.4	0.9	0.1	123.58
1662	23.1	0.9	0.1	184.82
1663	22.8	0.9	0.1	246.87
1664	22.5	0.9	0.1	309.76
1665	22.2	0.9	0.1	373.33
1666	21.9	0.9	0.1	437.47
1667	21.6	0.9	0.1	502.12
1668	21.3	0.9	0.1	567.22
1669	21.	0.9	0.1	632.77
1670	20.7	0.9	0.1	698.77
1671	20.4	0.9	0.1	765.2
1672	20.1	0.9	0.1	832.08
1673	19.8	0.9	0.1	899.42
1674	19.5	0.9	0.1	967.22
1675	19.2	0.9	0.1	1035.5
1676	18.9	0.9	0.1	1104.3
1677	18.6	0.9	0.1	1173.5
1678	18.3	0.9	0.1	1243.2
1679	18.	0.9	0.1	1313.5
1680	17.7	0.9	0.1	1384.2
1681	17.4	0.9	0.1	1455.5
1682	17.1	0.9	0.1	1527.3
1683	16.8	0.9	0.1	1599.6
1684	16.5	0.9	0.1	1672.4
1685	16.2	0.9	0.1	1745.7
1686	15.9	0.9	0.1	1819.5
1687	15.6	0.9	0.1	1893.9
1688	15.3	0.9	0.1	1968.8
1689	15.	0.9	0.1	2044.3
1690	14.7	0.9	0.1	2120.2
1691	14.4	0.9	0.1	2196.7
1692	14.1	0.9	0.1	2273.8
1693	13.8	0.9	0.1	2351.3
1694	13.5	0.9	0.1	2429.4
1695	13.2	0.9	0.1	2508.1
1696	12.9	0.9	0.1	2587.2
1697	12.6	0.9	0.1	2666.9
1698	12.3	0.9	0.1	2747.2
1699	12.	0.9	0.1	2827.9
1700	11.7	0.9	0.1	2909.3
1701	11.4	0.9	0.1	2991.1
1702	11.1	0.9	0.1	3073.5
1703	10.8	0.9	0.1	3156.5
1704	10.5	0.9	0.1	3240.
1705	10.2	0.9	0.1	3324.1
1706	9.9	0.9	0.1	3408.7
1707	9.6	0.9	0.1	3493.9
1708	9.3	0.9	0.1	3579.7
1709	9.	0.9	0.1	3666.
1710	8.7	0.9	0.1	3753.
1711	8.4	0.9	0.1	3840.6
1712	8.1	0.9	0.1	3928.8
1713	7.8	0.9	0.1	4017.6
1714	7.5	0.9	0.1	4107.1
1715	7.2	0.9	0.1	4197.3
1716	6.9	0.9	0.1	4288.2
1717	6.6	0.9	0.1	4379.8
1718	6.3	0.9	0.1	4472.3
1719	6.	0.9	0.1	4565.5
1720	5.7	0.9	0.1	4659.7
1721	5.4	0.9	0.1	4754.8
1722	5.1	0.9	0.1	4850.9
1723	4.8	0.9	0.1	4948.1
1724	4.5	0.9	0.1	5046.3
1725	4.2	0.9	0.1	5145.5
1726	3.9	0.9	0.1	5245.7
1727	3.6	0.9	0.1	5346.6
1728	3.3	0.9	0.1	5447.7
1729	3.	0.9	0.1	5548.3
1730	2.7	0.9	0.1	5647.2
1731	2.4	0.9	0.1	5742.3
1732	2.1	0.9	0.1	5830.2
1733	1.8	0.9	0.1	5906.6
1734	1.5	0.9	0.1	5962.8
1735	1.2	0.9	0.1	5997.4
1736	0.9	0.9	0.1	5976.7
1737	0.6	0.9	0.1	6048.1
1738	0.3	0.9	0.1	5863.7
1739	23.7	1.2	0.1	64.195
1740	23.4	1.2	0.1	125.17
1741	23.1	1.2	0.1	186.8
1742	22.8	1.2	0.1	248.79
1743	22.5	1.2	0.1	311.4
1744	22.2	1.2	0.1	374.6
1745	21.9	1.2	0.1	438.36
1746	21.6	1.2	0.1	502.64
1747	21.3	1.2	0.1	567.42
1748	21.	1.2	0.1	632.68
1749	20.7	1.2	0.1	698.42
1750	20.4	1.2	0.1	764.63
1751	20.1	1.2	0.1	831.33
1752	19.8	1.2	0.1	898.51
1753	19.5	1.2	0.1	966.18
1754	19.2	1.2	0.1	1034.3
1755	18.9	1.2	0.1	1103.
1756	18.6	1.2	0.1	1172.2
1757	18.3	1.2	0.1	1241.9
1758	18.	1.2	0.1	1312.1
1759	17.7	1.2	0.1	1382.8
1760	17.4	1.2	0.1	1454.
1761	17.1	1.2	0.1	1525.7
1762	16.8	1.2	0.1	1598.
1763	16.5	1.2	0.1	1670.8
1764	16.2	1.2	0.1	1744.1
1765	15.9	1.2	0.1	1818.
1766	15.6	1.2	0.1	1892.3
1767	15.3	1.2	0.1	1967.2
1768	15.	1.2	0.1	2042.7
1769	14.7	1.2	0.1	2118.6
1770	14.4	1.2	0.1	2195.1
1771	14.1	1.2	0.1	2272.1
1772	13.8	1.2	0.1	2349.7
1773	13.5	1.2	0.1	2427.7
1774	13.2	1.2	0.1	2506.3
1775	12.9	1.2	0.1	2585.4
1776	12.6	1.2	0.1	2665.1
1777	12.3	1.2	0.1	2745.3
1778	12.	1.2	0.1	2826.
1779	11.7	1.2	0.1	2907.2
1780	11.4	1.2	0.1	2988.9
1781	11.1	1.2	0.1	3071.2
1782	10.8	1.2	0.1	3154.
1783	10.5	1.2	0.1	3237.4
1784	10.2	1.2	0.1	3321.2
1785	9.9	1.2	0.1	3405.6
1786	9.6	1.2	0.1	3490.6
1787	9.3	1.2	0.1	3576.
1788	9.	1.2	0.1	3662.
1789	8.7	1.2	0.1	3748.6
1790	8.4	1.2	0.1	3835.6
1791	8.1	1.2	0.1	3923.3
1792	7.8	1.2	0.1	4011.5
1793	7.5	1.2	0.1	4100.2
1794	7.2	1.2	0.1	4189.5
1795	6.9	1.2	0.1	4279.5
1796	6.6	1.2	0.1	4370.
1797	6.3	1.2	0.1	4461.2
1798	6.	1.2	0.1	4553.
1799	5.7	1.2	0.1	4645.6
1800	5.4	1.2	0.1	4738.9
1801	5.1	1.2	0.1	4832.9
1802	4.8	1.2	0.1	4927.8
1803	4.5	1.2	0.1	5023.5
1804	4.2	1.2	0.1	5120.1
1805	3.9	1.2	0.1	5217.5
1806	3.6	1.2	0.1	5315.7
1807	3.3	1.2	0.1	5414.3
1808	3.	1.2	0.1	5513.1
1809	2.7	1.2	0.1	5611.2
1810	2.4	1.2	0.1	5707.7
1811	2.1	1.2	0.1	5800.6
1812	1.8	1.2	0.1	5888.6
1813	1.5	1.2	0.1	5968.
1814	1.2	1.2	0.1	6048.1
1815	0.9	1.2	0.1	6110.4
1816	0.6	1.2	0.1	6329.4
1817	0.3	1.2	0.1	6274.3
1818	23.7	1.5	0.1	64.53
1819	23.4	1.5	0.1	126.22
1820	23.1	1.5	0.1	188.32
1821	22.8	1.5	0.1	250.46
1822	22.5	1.5	0.1	313.
1823	22.2	1.5	0.1	375.98
1824	21.9	1.5	0.1	439.46
1825	21.6	1.5	0.1	503.45
1826	21.3	1.5	0.1	567.94
1827	21.	1.5	0.1	632.93
1828	20.7	1.5	0.1	698.42
1829	20.4	1.5	0.1	764.42
1830	20.1	1.5	0.1	830.93
1831	19.8	1.5	0.1	897.95
1832	19.5	1.5	0.1	965.48
1833	19.2	1.5	0.1	1033.5
1834	18.9	1.5	0.1	1102.1
1835	18.6	1.5	0.1	1171.2
1836	18.3	1.5	0.1	1240.8
1837	18.	1.5	0.1	1310.9
1838	17.7	1.5	0.1	1381.6
1839	17.4	1.5	0.1	1452.8
1840	17.1	1.5	0.1	1524.5
1841	16.8	1.5	0.1	1596.8
1842	16.5	1.5	0.1	1669.5
1843	16.2	1.5	0.1	1742.8
1844	15.9	1.5	0.1	1816.7
1845	15.6	1.5	0.1	1891.
1846	15.3	1.5	0.1	1965.9
1847	15.	1.5	0.1	2041.3
1848	14.7	1.5	0.1	2117.3
1849	14.4	1.5	0.1	2193.7
1850	14.1	1.5	0.1	2270.7
1851	13.8	1.5	0.1	2348.2
1852	13.5	1.5	0.1	2426.3
1853	13.2	1.5	0.1	2504.8
1854	12.9	1.5	0.1	2583.9
1855	12.6	1.5	0.1	2663.5
1856	12.3	1.5	0.1	2743.6
1857	12.	1.5	0.1	2824.3
1858	11.7	1.5	0.1	2905.4
1859	11.4	1.5	0.1	2987.1
1860	11.1	1.5	0.1	3069.2
1861	10.8	1.5	0.1	3151.9
1862	10.5	1.5	0.1	3235.1
1863	10.2	1.5	0.1	3318.8
1864	9.9	1.5	0.1	3403.
1865	9.6	1.5	0.1	3487.6
1866	9.3	1.5	0.1	3572.8
1867	9.	1.5	0.1	3658.5
1868	8.7	1.5	0.1	3744.6
1869	8.4	1.5	0.1	3831.3
1870	8.1	1.5	0.1	3918.4
1871	7.8	1.5	0.1	4006.
1872	7.5	1.5	0.1	4094.1
1873	7.2	1.5	0.1	4182.7
1874	6.9	1.5	0.1	4271.7
1875	6.6	1.5	0.1	4361.2
1876	6.3	1.5	0.1	4451.2
1877	6.	1.5	0.1	4541.8
1878	5.7	1.5	0.1	4632.8
1879	5.4	1.5	0.1	4724.4
1880	5.1	1.5	0.1	4816.6
1881	4.8	1.5	0.1	4909.4
1882	4.5	1.5	0.1	5002.9
1883	4.2	1.5	0.1	5097.2
1884	3.9	1.5	0.1	5192.2
1885	3.6	1.5	0.1	5288.2
1886	3.3	1.5	0.1	5385.1
1887	3.	1.5	0.1	5483.
1888	2.7	1.5	0.1	5581.9
1889	2.4	1.5	0.1	5681.8
1890	2.1	1.5	0.1	5782.9
1891	1.8	1.5	0.1	5886.3
1892	1.5	1.5	0.1	5993.2
1893	1.2	1.5	0.1	6119.6
1894	0.9	1.5	0.1	6252.1
1895	0.6	1.5	0.1	6563.8
1896	0.3	1.5	0.1	6559.8
1897	23.7	1.8	0.1	64.715
1898	23.4	1.8	0.1	126.94
1899	23.1	1.8	0.1	189.43
1900	22.8	1.8	0.1	251.79
1901	22.5	1.8	0.1	314.36
1902	22.2	1.8	0.1	377.25
1903	21.9	1.8	0.1	440.56
1904	21.6	1.8	0.1	504.32
1905	21.3	1.8	0.1	568.58
1906	21.	1.8	0.1	633.34
1907	20.7	1.8	0.1	698.62
1908	20.4	1.8	0.1	764.43
1909	20.1	1.8	0.1	830.76
1910	19.8	1.8	0.1	897.63
1911	19.5	1.8	0.1	965.03
1912	19.2	1.8	0.1	1033.
1913	18.9	1.8	0.1	1101.4
1914	18.6	1.8	0.1	1170.5
1915	18.3	1.8	0.1	1240.
1916	18.	1.8	0.1	1310.1
1917	17.7	1.8	0.1	1380.7
1918	17.4	1.8	0.1	1451.9
1919	17.1	1.8	0.1	1523.6
1920	16.8	1.8	0.1	1595.8
1921	16.5	1.8	0.1	1668.5
1922	16.2	1.8	0.1	1741.8
1923	15.9	1.8	0.1	1815.6
1924	15.6	1.8	0.1	1890.
1925	15.3	1.8	0.1	1964.9
1926	15.	1.8	0.1	2040.3
1927	14.7	1.8	0.1	2116.2
1928	14.4	1.8	0.1	2192.6
1929	14.1	1.8	0.1	2269.6
1930	13.8	1.8	0.1	2347.1
1931	13.5	1.8	0.1	2425.1
1932	13.2	1.8	0.1	2503.6
1933	12.9	1.8	0.1	2582.7
1934	12.6	1.8	0.1	2662.2
1935	12.3	1.8	0.1	2742.3
1936	12.	1.8	0.1	2822.9
1937	11.7	1.8	0.1	2903.9
1938	11.4	1.8	0.1	2985.5
1939	11.1	1.8	0.1	3067.6
1940	10.8	1.8	0.1	3150.1
1941	10.5	1.8	0.1	3233.2
1942	10.2	1.8	0.1	3316.7
1943	9.9	1.8	0.1	3400.7
1944	9.6	1.8	0.1	3485.2
1945	9.3	1.8	0.1	3570.1
1946	9.	1.8	0.1	3655.5
1947	8.7	1.8	0.1	3741.3
1948	8.4	1.8	0.1	3827.6
1949	8.1	1.8	0.1	3914.3
1950	7.8	1.8	0.1	4001.3
1951	7.5	1.8	0.1	4088.8
1952	7.2	1.8	0.1	4176.7
1953	6.9	1.8	0.1	4265.
1954	6.6	1.8	0.1	4353.6
1955	6.3	1.8	0.1	4442.7
1956	6.	1.8	0.1	4532.
1957	5.7	1.8	0.1	4621.8
1958	5.4	1.8	0.1	4711.9
1959	5.1	1.8	0.1	4802.4
1960	4.8	1.8	0.1	4893.5
1961	4.5	1.8	0.1	4985.1
1962	4.2	1.8	0.1	5077.3
1963	3.9	1.8	0.1	5170.5
1964	3.6	1.8	0.1	5264.8
1965	3.3	1.8	0.1	5360.6
1966	3.	1.8	0.1	5458.5
1967	2.7	1.8	0.1	5559.3
1968	2.4	1.8	0.1	5664.
1969	2.1	1.8	0.1	5774.6
1970	1.8	1.8	0.1	5894.8
1971	1.5	1.8	0.1	6028.4
1972	1.2	1.8	0.1	6194.6
1973	0.9	1.8	0.1	6378.
1974	0.6	1.8	0.1	6743.2
1975	0.3	1.8	0.1	6755.9
1976	23.7	2.1	0.1	64.811
1977	23.4	2.1	0.1	127.4
1978	23.1	2.1	0.1	190.21
1979	22.8	2.1	0.1	252.77
1980	22.5	2.1	0.1	315.42
1981	22.2	2.1	0.1	378.29
1982	21.9	2.1	0.1	441.49
1983	21.6	2.1	0.1	505.11
1984	21.3	2.1	0.1	569.2
1985	21.	2.1	0.1	633.79
1986	20.7	2.1	0.1	698.9
1987	20.4	2.1	0.1	764.54
1988	20.1	2.1	0.1	830.73
1989	19.8	2.1	0.1	897.47
1990	19.5	2.1	0.1	964.76
1991	19.2	2.1	0.1	1032.6
1992	18.9	2.1	0.1	1101.
1993	18.6	2.1	0.1	1169.9
1994	18.3	2.1	0.1	1239.4
1995	18.	2.1	0.1	1309.5
1996	17.7	2.1	0.1	1380.
1997	17.4	2.1	0.1	1451.2
1998	17.1	2.1	0.1	1522.8
1999	16.8	2.1	0.1	1595.
2000	16.5	2.1	0.1	1667.8
2001	16.2	2.1	0.1	1741.
2002	15.9	2.1	0.1	1814.8
2003	15.6	2.1	0.1	1889.2
2004	15.3	2.1	0.1	1964.
2005	15.	2.1	0.1	2039.4
2006	14.7	2.1	0.1	2115.3
2007	14.4	2.1	0.1	2191.8
2008	14.1	2.1	0.1	2268.7
2009	13.8	2.1	0.1	2346.2
2010	13.5	2.1	0.1	2424.2
2011	13.2	2.1	0.1	2502.7
2012	12.9	2.1	0.1	2581.7
2013	12.6	2.1	0.1	2661.2
2014	12.3	2.1	0.1	2741.2
2015	12.	2.1	0.1	2821.7
2016	11.7	2.1	0.1	2902.8
2017	11.4	2.1	0.1	2984.3
2018	11.1	2.1	0.1	3066.2
2019	10.8	2.1	0.1	3148.7
2020	10.5	2.1	0.1	3231.6
2021	10.2	2.1	0.1	3315.
2022	9.9	2.1	0.1	3398.9
2023	9.6	2.1	0.1	3483.2
2024	9.3	2.1	0.1	3567.9
2025	9.	2.1	0.1	3653.1
2026	8.7	2.1	0.1	3738.6
2027	8.4	2.1	0.1	3824.6
2028	8.1	2.1	0.1	3910.9
2029	7.8	2.1	0.1	3997.6
2030	7.5	2.1	0.1	4084.6
2031	7.2	2.1	0.1	4172.
2032	6.9	2.1	0.1	4259.6
2033	6.6	2.1	0.1	4347.5
2034	6.3	2.1	0.1	4435.7
2035	6.	2.1	0.1	4524.1
2036	5.7	2.1	0.1	4612.8
2037	5.4	2.1	0.1	4701.7
2038	5.1	2.1	0.1	4790.9
2039	4.8	2.1	0.1	4880.5
2040	4.5	2.1	0.1	4970.6
2041	4.2	2.1	0.1	5061.3
2042	3.9	2.1	0.1	5153.
2043	3.6	2.1	0.1	5246.1
2044	3.3	2.1	0.1	5341.4
2045	3.	2.1	0.1	5439.8
2046	2.7	2.1	0.1	5542.9
2047	2.4	2.1	0.1	5652.8
2048	2.1	2.1	0.1	5772.8
2049	1.8	2.1	0.1	5908.2
2050	1.5	2.1	0.1	6064.5
2051	1.2	2.1	0.1	6260.8
2052	0.9	2.1	0.1	6478.1
2053	0.6	2.1	0.1	6873.4
2054	0.3	2.1	0.1	6889.1
2055	23.7	2.4	0.1	64.859
2056	23.4	2.4	0.1	127.7
2057	23.1	2.4	0.1	190.72
2058	22.8	2.4	0.1	253.44
2059	22.5	2.4	0.1	316.17
2060	22.2	2.4	0.1	379.04
2061	21.9	2.4	0.1	442.2
2062	21.6	2.4	0.1	505.73
2063	21.3	2.4	0.1	569.7
2064	21.	2.4	0.1	634.16
2065	20.7	2.4	0.1	699.15
2066	20.4	2.4	0.1	764.68
2067	20.1	2.4	0.1	830.76
2068	19.8	2.4	0.1	897.4
2069	19.5	2.4	0.1	964.61
2070	19.2	2.4	0.1	1032.4
2071	18.9	2.4	0.1	1100.7
2072	18.6	2.4	0.1	1169.6
2073	18.3	2.4	0.1	1239.
2074	18.	2.4	0.1	1309.
2075	17.7	2.4	0.1	1379.6
2076	17.4	2.4	0.1	1450.7
2077	17.1	2.4	0.1	1522.3
2078	16.8	2.4	0.1	1594.5
2079	16.5	2.4	0.1	1667.2
2080	16.2	2.4	0.1	1740.5
2081	15.9	2.4	0.1	1814.3
2082	15.6	2.4	0.1	1888.6
2083	15.3	2.4	0.1	1963.4
2084	15.	2.4	0.1	2038.8
2085	14.7	2.4	0.1	2114.7
2086	14.4	2.4	0.1	2191.2
2087	14.1	2.4	0.1	2268.1
2088	13.8	2.4	0.1	2345.6
2089	13.5	2.4	0.1	2423.5
2090	13.2	2.4	0.1	2502.
2091	12.9	2.4	0.1	2581.
2092	12.6	2.4	0.1	2660.5
2093	12.3	2.4	0.1	2740.5
2094	12.	2.4	0.1	2820.9
2095	11.7	2.4	0.1	2901.9
2096	11.4	2.4	0.1	2983.4
2097	11.1	2.4	0.1	3065.3
2098	10.8	2.4	0.1	3147.7
2099	10.5	2.4	0.1	3230.5
2100	10.2	2.4	0.1	3313.9
2101	9.9	2.4	0.1	3397.6
2102	9.6	2.4	0.1	3481.8
2103	9.3	2.4	0.1	3566.3
2104	9.	2.4	0.1	3651.3
2105	8.7	2.4	0.1	3736.7
2106	8.4	2.4	0.1	3822.4
2107	8.1	2.4	0.1	3908.5
2108	7.8	2.4	0.1	3994.8
2109	7.5	2.4	0.1	4081.5
2110	7.2	2.4	0.1	4168.4
2111	6.9	2.4	0.1	4255.6
2112	6.6	2.4	0.1	4343.
2113	6.3	2.4	0.1	4430.6
2114	6.	2.4	0.1	4518.3
2115	5.7	2.4	0.1	4606.1
2116	5.4	2.4	0.1	4694.2
2117	5.1	2.4	0.1	4782.4
2118	4.8	2.4	0.1	4870.9
2119	4.5	2.4	0.1	4959.8
2120	4.2	2.4	0.1	5049.4
2121	3.9	2.4	0.1	5140.1
2122	3.6	2.4	0.1	5232.5
2123	3.3	2.4	0.1	5327.6
2124	3.	2.4	0.1	5426.7
2125	2.7	2.4	0.1	5532.
2126	2.4	2.4	0.1	5646.5
2127	2.1	2.4	0.1	5774.3
2128	1.8	2.4	0.1	5921.7
2129	1.5	2.4	0.1	6094.6
2130	1.2	2.4	0.1	6311.4
2131	0.9	2.4	0.1	6549.5
2132	0.6	2.4	0.1	6960.9
2133	0.3	2.4	0.1	6975.2
2134	23.7	2.7	0.1	64.881
2135	23.4	2.7	0.1	127.86
2136	23.1	2.7	0.1	191.01
2137	22.8	2.7	0.1	253.82
2138	22.5	2.7	0.1	316.61
2139	22.2	2.7	0.1	379.5
2140	21.9	2.7	0.1	442.63
2141	21.6	2.7	0.1	506.11
2142	21.3	2.7	0.1	570.02
2143	21.	2.7	0.1	634.41
2144	20.7	2.7	0.1	699.33
2145	20.4	2.7	0.1	764.78
2146	20.1	2.7	0.1	830.8
2147	19.8	2.7	0.1	897.38
2148	19.5	2.7	0.1	964.53
2149	19.2	2.7	0.1	1032.3
2150	18.9	2.7	0.1	1100.5
2151	18.6	2.7	0.1	1169.4
2152	18.3	2.7	0.1	1238.8
2153	18.	2.7	0.1	1308.8
2154	17.7	2.7	0.1	1379.3
2155	17.4	2.7	0.1	1450.4
2156	17.1	2.7	0.1	1522.
2157	16.8	2.7	0.1	1594.2
2158	16.5	2.7	0.1	1666.9
2159	16.2	2.7	0.1	1740.2
2160	15.9	2.7	0.1	1813.9
2161	15.6	2.7	0.1	1888.3
2162	15.3	2.7	0.1	1963.1
2163	15.	2.7	0.1	2038.5
2164	14.7	2.7	0.1	2114.4
2165	14.4	2.7	0.1	2190.8
2166	14.1	2.7	0.1	2267.7
2167	13.8	2.7	0.1	2345.2
2168	13.5	2.7	0.1	2423.1
2169	13.2	2.7	0.1	2501.6
2170	12.9	2.7	0.1	2580.6
2171	12.6	2.7	0.1	2660.
2172	12.3	2.7	0.1	2740.
2173	12.	2.7	0.1	2820.5
2174	11.7	2.7	0.1	2901.4
2175	11.4	2.7	0.1	2982.8
2176	11.1	2.7	0.1	3064.7
2177	10.8	2.7	0.1	3147.1
2178	10.5	2.7	0.1	3229.9
2179	10.2	2.7	0.1	3313.1
2180	9.9	2.7	0.1	3396.8
2181	9.6	2.7	0.1	3480.9
2182	9.3	2.7	0.1	3565.4
2183	9.	2.7	0.1	3650.3
2184	8.7	2.7	0.1	3735.5
2185	8.4	2.7	0.1	3821.1
2186	8.1	2.7	0.1	3907.
2187	7.8	2.7	0.1	3993.2
2188	7.5	2.7	0.1	4079.6
2189	7.2	2.7	0.1	4166.3
2190	6.9	2.7	0.1	4253.2
2191	6.6	2.7	0.1	4340.2
2192	6.3	2.7	0.1	4427.4
2193	6.	2.7	0.1	4514.7
2194	5.7	2.7	0.1	4602.1
2195	5.4	2.7	0.1	4689.6
2196	5.1	2.7	0.1	4777.2
2197	4.8	2.7	0.1	4865.
2198	4.5	2.7	0.1	4953.3
2199	4.2	2.7	0.1	5042.2
2200	3.9	2.7	0.1	5132.3
2201	3.6	2.7	0.1	5224.3
2202	3.3	2.7	0.1	5319.3
2203	3.	2.7	0.1	5419.
2204	2.7	2.7	0.1	5525.9
2205	2.4	2.7	0.1	5643.5
2206	2.1	2.7	0.1	5776.3
2207	1.8	2.7	0.1	5931.2
2208	1.5	2.7	0.1	6114.2
2209	1.2	2.7	0.1	6342.8
2210	0.9	2.7	0.1	6592.
2211	0.6	2.7	0.1	7011.3
2212	0.3	2.7	0.1	7023.5
2213	23.7	3.	0.1	64.887
2214	23.4	3.	0.1	127.91
2215	23.1	3.	0.1	191.1
2216	22.8	3.	0.1	253.95
2217	22.5	3.	0.1	316.76
2218	22.2	3.	0.1	379.65
2219	21.9	3.	0.1	442.78
2220	21.6	3.	0.1	506.24
2221	21.3	3.	0.1	570.13
2222	21.	3.	0.1	634.5
2223	20.7	3.	0.1	699.39
2224	20.4	3.	0.1	764.82
2225	20.1	3.	0.1	830.82
2226	19.8	3.	0.1	897.38
2227	19.5	3.	0.1	964.51
2228	19.2	3.	0.1	1032.2
2229	18.9	3.	0.1	1100.5
2230	18.6	3.	0.1	1169.3
2231	18.3	3.	0.1	1238.7
2232	18.	3.	0.1	1308.7
2233	17.7	3.	0.1	1379.2
2234	17.4	3.	0.1	1450.3
2235	17.1	3.	0.1	1521.9
2236	16.8	3.	0.1	1594.1
2237	16.5	3.	0.1	1666.8
2238	16.2	3.	0.1	1740.
2239	15.9	3.	0.1	1813.8
2240	15.6	3.	0.1	1888.1
2241	15.3	3.	0.1	1963.
2242	15.	3.	0.1	2038.4
2243	14.7	3.	0.1	2114.2
2244	14.4	3.	0.1	2190.7
2245	14.1	3.	0.1	2267.6
2246	13.8	3.	0.1	2345.
2247	13.5	3.	0.1	2423.
2248	13.2	3.	0.1	2501.5
2249	12.9	3.	0.1	2580.4
2250	12.6	3.	0.1	2659.9
2251	12.3	3.	0.1	2739.9
2252	12.	3.	0.1	2820.3
2253	11.7	3.	0.1	2901.2
2254	11.4	3.	0.1	2982.7
2255	11.1	3.	0.1	3064.5
2256	10.8	3.	0.1	3146.9
2257	10.5	3.	0.1	3229.7
2258	10.2	3.	0.1	3312.9
2259	9.9	3.	0.1	3396.5
2260	9.6	3.	0.1	3480.6
2261	9.3	3.	0.1	3565.1
2262	9.	3.	0.1	3649.9
2263	8.7	3.	0.1	3735.1
2264	8.4	3.	0.1	3820.6
2265	8.1	3.	0.1	3906.5
2266	7.8	3.	0.1	3992.6
2267	7.5	3.	0.1	4079.
2268	7.2	3.	0.1	4165.6
2269	6.9	3.	0.1	4252.4
2270	6.6	3.	0.1	4339.3
2271	6.3	3.	0.1	4426.3
2272	6.	3.	0.1	4513.5
2273	5.7	3.	0.1	4600.7
2274	5.4	3.	0.1	4688.
2275	5.1	3.	0.1	4775.4
2276	4.8	3.	0.1	4863.
2277	4.5	3.	0.1	4951.1
2278	4.2	3.	0.1	5039.8
2279	3.9	3.	0.1	5129.6
2280	3.6	3.	0.1	5221.5
2281	3.3	3.	0.1	5316.5
2282	3.	3.	0.1	5416.5
2283	2.7	3.	0.1	5524.
2284	2.4	3.	0.1	5642.6
2285	2.1	3.	0.1	5777.2
2286	1.8	3.	0.1	5934.7
2287	1.5	3.	0.1	6121.
2288	1.2	3.	0.1	6353.4
2289	0.9	3.	0.1	6606.1
2290	0.6	3.	0.1	7027.7
2291	0.3	3.	0.1	7039.1
2292	23.7	3.3	0.1	64.881
2293	23.4	3.3	0.1	127.86
2294	23.1	3.3	0.1	191.01
2295	22.8	3.3	0.1	253.82
2296	22.5	3.3	0.1	316.61
2297	22.2	3.3	0.1	379.5
2298	21.9	3.3	0.1	442.63
2299	21.6	3.3	0.1	506.11
2300	21.3	3.3	0.1	570.02
2301	21.	3.3	0.1	634.41
2302	20.7	3.3	0.1	699.33
2303	20.4	3.3	0.1	764.78
2304	20.1	3.3	0.1	830.8
2305	19.8	3.3	0.1	897.38
2306	19.5	3.3	0.1	964.53
2307	19.2	3.3	0.1	1032.3
2308	18.9	3.3	0.1	1100.5
2309	18.6	3.3	0.1	1169.4
2310	18.3	3.3	0.1	1238.8
2311	18.	3.3	0.1	1308.8
2312	17.7	3.3	0.1	1379.3
2313	17.4	3.3	0.1	1450.4
2314	17.1	3.3	0.1	1522.
2315	16.8	3.3	0.1	1594.2
2316	16.5	3.3	0.1	1666.9
2317	16.2	3.3	0.1	1740.2
2318	15.9	3.3	0.1	1813.9
2319	15.6	3.3	0.1	1888.3
2320	15.3	3.3	0.1	1963.1
2321	15.	3.3	0.1	2038.5
2322	14.7	3.3	0.1	2114.4
2323	14.4	3.3	0.1	2190.8
2324	14.1	3.3	0.1	2267.7
2325	13.8	3.3	0.1	2345.2
2326	13.5	3.3	0.1	2423.1
2327	13.2	3.3	0.1	2501.6
2328	12.9	3.3	0.1	2580.6
2329	12.6	3.3	0.1	2660.
2330	12.3	3.3	0.1	2740.
2331	12.	3.3	0.1	2820.5
2332	11.7	3.3	0.1	2901.4
2333	11.4	3.3	0.1	2982.8
2334	11.1	3.3	0.1	3064.7
2335	10.8	3.3	0.1	3147.1
2336	10.5	3.3	0.1	3229.9
2337	10.2	3.3	0.1	3313.1
2338	9.9	3.3	0.1	3396.8
2339	9.6	3.3	0.1	3480.9
2340	9.3	3.3	0.1	3565.4
2341	9.	3.3	0.1	3650.3
2342	8.7	3.3	0.1	3735.5
2343	8.4	3.3	0.1	3821.1
2344	8.1	3.3	0.1	3907.
2345	7.8	3.3	0.1	3993.2
2346	7.5	3.3	0.1	4079.6
2347	7.2	3.3	0.1	4166.3
2348	6.9	3.3	0.1	4253.2
2349	6.6	3.3	0.1	4340.2
2350	6.3	3.3	0.1	4427.4
2351	6.	3.3	0.1	4514.7
2352	5.7	3.3	0.1	4602.1
2353	5.4	3.3	0.1	4689.6
2354	5.1	3.3	0.1	4777.2
2355	4.8	3.3	0.1	4865.
2356	4.5	3.3	0.1	4953.3
2357	4.2	3.3	0.1	5042.2
2358	3.9	3.3	0.1	5132.3
2359	3.6	3.3	0.1	5224.3
2360	3.3	3.3	0.1	5319.3
2361	3.	3.3	0.1	5419.
2362	2.7	3.3	0.1	5525.9
2363	2.4	3.3	0.1	5643.5
2364	2.1	3.3	0.1	5776.3
2365	1.8	3.3	0.1	5931.2
2366	1.5	3.3	0.1	6114.2
2367	1.2	3.3	0.1	6342.8
2368	0.9	3.3	0.1	6592.
2369	0.6	3.3	0.1	7011.3
2370	0.3	3.3	0.1	7023.5
2371	23.7	3.6	0.1	64.859
2372	23.4	3.6	0.1	127.7
2373	23.1	3.6	0.1	190.72
2374	22.8	3.6	0.1	253.44
2375	22.5	3.6	0.1	316.17
2376	22.2	3.6	0.1	379.04
2377	21.9	3.6	0.1	442.2
2378	21.6	3.6	0.1	505.73
2379	21.3	3.6	0.1	569.7
2380	21.	3.6	0.1	634.16
2381	20.7	3.6	0.1	699.15
2382	20.4	3.6	0.1	764.68
2383	20.1	3.6	0.1	830.76
2384	19.8	3.6	0.1	897.4
2385	19.5	3.6	0.1	964.61
2386	19.2	3.6	0.1	1032.4
2387	18.9	3.6	0.1	1100.7
2388	18.6	3.6	0.1	1169.6
2389	18.3	3.6	0.1	1239.
2390	18.	3.6	0.1	1309.
2391	17.7	3.6	0.1	1379.6
2392	17.4	3.6	0.1	1450.7
2393	17.1	3.6	0.1	1522.3
2394	16.8	3.6	0.1	1594.5
2395	16.5	3.6	0.1	1667.2
2396	16.2	3.6	0.1	1740.5
2397	15.9	3.6	0.1	1814.3
2398	15.6	3.6	0.1	1888.6
2399	15.3	3.6	0.1	1963.4
2400	15.	3.6	0.1	2038.8
2401	14.7	3.6	0.1	2114.7
2402	14.4	3.6	0.1	2191.2
2403	14.1	3.6	0.1	2268.1
2404	13.8	3.6	0.1	2345.6
2405	13.5	3.6	0.1	2423.5
2406	13.2	3.6	0.1	2502.
2407	12.9	3.6	0.1	2581.
2408	12.6	3.6	0.1	2660.5
2409	12.3	3.6	0.1	2740.5
2410	12.	3.6	0.1	2820.9
2411	11.7	3.6	0.1	2901.9
2412	11.4	3.6	0.1	2983.4
2413	11.1	3.6	0.1	3065.3
2414	10.8	3.6	0.1	3147.7
2415	10.5	3.6	0.1	3230.5
2416	10.2	3.6	0.1	3313.9
2417	9.9	3.6	0.1	3397.6
2418	9.6	3.6	0.1	3481.8
2419	9.3	3.6	0.1	3566.3
2420	9.	3.6	0.1	3651.3
2421	8.7	3.6	0.1	3736.7
2422	8.4	3.6	0.1	3822.4
2423	8.1	3.6	0.1	3908.5
2424	7.8	3.6	0.1	3994.8
2425	7.5	3.6	0.1	4081.5
2426	7.2	3.6	0.1	4168.4
2427	6.9	3.6	0.1	4255.6
2428	6.6	3.6	0.1	4343.
2429	6.3	3.6	0.1	4430.6
2430	6.	3.6	0.1	4518.3
2431	5.7	3.6	0.1	4606.1
2432	5.4	3.6	0.1	4694.2
2433	5.1	3.6	0.1	4782.4
2434	4.8	3.6	0.1	4870.9
2435	4.5	3.6	0.1	4959.8
2436	4.2	3.6	0.1	5049.4
2437	3.9	3.6	0.1	5140.1
2438	3.6	3.6	0.1	5232.5
2439	3.3	3.6	0.1	5327.6
2440	3.	3.6	0.1	5426.7
2441	2.7	3.6	0.1	5532.
2442	2.4	3.6	0.1	5646.5
2443	2.1	3.6	0.1	5774.3
2444	1.8	3.6	0.1	5921.7
2445	1.5	3.6	0.1	6094.6
2446	1.2	3.6	0.1	6311.4
2447	0.9	3.6	0.1	6549.5
2448	0.6	3.6	0.1	6960.9
2449	0.3	3.6	0.1	6975.2
2450	23.7	3.9	0.1	64.811
2451	23.4	3.9	0.1	127.4
2452	23.1	3.9	0.1	190.21
2453	22.8	3.9	0.1	252.77
2454	22.5	3.9	0.1	315.42
2455	22.2	3.9	0.1	378.29
2456	21.9	3.9	0.1	441.49
2457	21.6	3.9	0.1	505.11
2458	21.3	3.9	0.1	569.2
2459	21.	3.9	0.1	633.79
2460	20.7	3.9	0.1	698.9
2461	20.4	3.9	0.1	764.54
2462	20.1	3.9	0.1	830.73
2463	19.8	3.9	0.1	897.47
2464	19.5	3.9	0.1	964.76
2465	19.2	3.9	0.1	1032.6
2466	18.9	3.9	0.1	1101.
2467	18.6	3.9	0.1	1169.9
2468	18.3	3.9	0.1	1239.4
2469	18.	3.9	0.1	1309.5
2470	17.7	3.9	0.1	1380.
2471	17.4	3.9	0.1	1451.2
2472	17.1	3.9	0.1	1522.8
2473	16.8	3.9	0.1	1595.
2474	16.5	3.9	0.1	1667.8
2475	16.2	3.9	0.1	1741.
2476	15.9	3.9	0.1	1814.8
2477	15.6	3.9	0.1	1889.2
2478	15.3	3.9	0.1	1964.
2479	15.	3.9	0.1	2039.4
2480	14.7	3.9	0.1	2115.3
2481	14.4	3.9	0.1	2191.8
2482	14.1	3.9	0.1	2268.7
2483	13.8	3.9	0.1	2346.2
2484	13.5	3.9	0.1	2424.2
2485	13.2	3.9	0.1	2502.7
2486	12.9	3.9	0.1	2581.7
2487	12.6	3.9	0.1	2661.2
2488	12.3	3.9	0.1	2741.2
2489	12.	3.9	0.1	2821.7
2490	11.7	3.9	0.1	2902.8
2491	11.4	3.9	0.1	2984.3
2492	11.1	3.9	0.1	3066.2
2493	10.8	3.9	0.1	3148.7
2494	10.5	3.9	0.1	3231.6
2495	10.2	3.9	0.1	3315.
2496	9.9	3.9	0.1	3398.9
2497	9.6	3.9	0.1	3483.2
2498	9.3	3.9	0.1	3567.9
2499	9.	3.9	0.1	3653.1
2500	8.7	3.9	0.1	3738.6
2501	8.4	3.9	0.1	3824.6
2502	8.1	3.9	0.1	3910.9
2503	7.8	3.9	0.1	3997.6
2504	7.5	3.9	0.1	4084.6
2505	7.2	3.9	0.1	4172.
2506	6.9	3.9	0.1	4259.6
2507	6.6	3.9	0.1	4347.5
2508	6.3	3.9	0.1	4435.7
2509	6.	3.9	0.1	4524.1
2510	5.7	3.9	0.1	4612.8
2511	5.4	3.9	0.1	4701.7
2512	5.1	3.9	0.1	4790.9
2513	4.8	3.9	0.1	4880.5
2514	4.5	3.9	0.1	4970.6
2515	4.2	3.9	0.1	5061.3
2516	3.9	3.9	0.1	5153.
2517	3.6	3.9	0.1	5246.1
2518	3.3	3.9	0.1	5341.4
2519	3.	3.9	0.1	5439.8
2520	2.7	3.9	0.1	5542.9
2521	2.4	3.9	0.1	5652.8
2522	2.1	3.9	0.1	5772.8
2523	1.8	3.9	0.1	5908.2
2524	1.5	3.9	0.1	6064.5
2525	1.2	3.9	0.1	6260.8
2526	0.9	3.9	0.1	6478.1
2527	0.6	3.9	0.1	6873.4
2528	0.3	3.9	0.1	6889.1
2529	23.7	4.2	0.1	64.715
2530	23.4	4.2	0.1	126.94
2531	23.1	4.2	0.1	189.43
2532	22.8	4.2	0.1	251.79
2533	22.5	4.2	0.1	314.36
2534	22.2	4.2	0.1	377.25
2535	21.9	4.2	0.1	440.56
2536	21.6	4.2	0.1	504.32
2537	21.3	4.2	0.1	568.58
2538	21.	4.2	0.1	633.34
2539	20.7	4.2	0.1	698.62
2540	20.4	4.2	0.1	764.43
2541	20.1	4.2	0.1	830.76
2542	19.8	4.2	0.1	897.63
2543	19.5	4.2	0.1	965.03
2544	19.2	4.2	0.1	1033.
2545	18.9	4.2	0.1	1101.4
2546	18.6	4.2	0.1	1170.5
2547	18.3	4.2	0.1	1240.
2548	18.	4.2	0.1	1310.1
2549	17.7	4.2	0.1	1380.7
2550	17.4	4.2	0.1	1451.9
2551	17.1	4.2	0.1	1523.6
2552	16.8	4.2	0.1	1595.8
2553	16.5	4.2	0.1	1668.5
2554	16.2	4.2	0.1	1741.8
2555	15.9	4.2	0.1	1815.6
2556	15.6	4.2	0.1	1890.
2557	15.3	4.2	0.1	1964.9
2558	15.	4.2	0.1	2040.3
2559	14.7	4.2	0.1	2116.2
2560	14.4	4.2	0.1	2192.6
2561	14.1	4.2	0.1	2269.6
2562	13.8	4.2	0.1	2347.1
2563	13.5	4.2	0.1	2425.1
2564	13.2	4.2	0.1	2503.6
2565	12.9	4.2	0.1	2582.7
2566	12.6	4.2	0.1	2662.2
2567	12.3	4.2	0.1	2742.3
2568	12.	4.2	0.1	2822.9
2569	11.7	4.2	0.1	2903.9
2570	11.4	4.2	0.1	2985.5
2571	11.1	4.2	0.1	3067.6
2572	10.8	4.2	0.1	3150.1
2573	10.5	4.2	0.1	3233.2
2574	10.2	4.2	0.1	3316.7
2575	9.9	4.2	0.1	3400.7
2576	9.6	4.2	0.1	3485.2
2577	9.3	4.2	0.1	3570.1
2578	9.	4.2	0.1	3655.5
2579	8.7	4.2	0.1	3741.3
2580	8.4	4.2	0.1	3827.6
2581	8.1	4.2	0.1	3914.3
2582	7.8	4.2	0.1	4001.3
2583	7.5	4.2	0.1	4088.8
2584	7.2	4.2	0.1	4176.7
2585	6.9	4.2	0.1	4265.
2586	6.6	4.2	0.1	4353.6
2587	6.3	4.2	0.1	4442.7
2588	6.	4.2	0.1	4532.
2589	5.7	4.2	0.1	4621.8
2590	5.4	4.2	0.1	4711.9
2591	5.1	4.2	0.1	4802.4
2592	4.8	4.2	0.1	4893.5
2593	4.5	4.2	0.1	4985.1
2594	4.2	4.2	0.1	5077.3
2595	3.9	4.2	0.1	5170.5
2596	3.6	4.2	0.1	5264.8
2597	3.3	4.2	0.1	5360.6
2598	3.	4.2	0.1	5458.5
2599	2.7	4.2	0.1	5559.3
2600	2.4	4.2	0.1	5664.
2601	2.1	4.2	0.1	5774.6
2602	1.8	4.2	0.1	5894.8
2603	1.5	4.2	0.1	6028.4
2604	1.2	4.2	0.1	6194.6
2605	0.9	4.2	0.1	6378.
2606	0.6	4.2	0.1	6743.2
2607	0.3	4.2	0.1	6755.9
2608	23.7	4.5	0.1	64.53
2609	23.4	4.5	0.1	126.22
2610	23.1	4.5	0.1	188.32
2611	22.8	4.5	0.1	250.46
2612	22.5	4.5	0.1	313.
2613	22.2	4.5	0.1	375.98
2614	21.9	4.5	0.1	439.46
2615	21.6	4.5	0.1	503.45
2616	21.3	4.5	0.1	567.94
2617	21.	4.5	0.1	632.93
2618	20.7	4.5	0.1	698.42
2619	20.4	4.5	0.1	764.42
2620	20.1	4.5	0.1	830.93
2621	19.8	4.5	0.1	897.95
2622	19.5	4.5	0.1	965.48
2623	19.2	4.5	0.1	1033.5
2624	18.9	4.5	0.1	1102.1
2625	18.6	4.5	0.1	1171.2
2626	18.3	4.5	0.1	1240.8
2627	18.	4.5	0.1	1310.9
2628	17.7	4.5	0.1	1381.6
2629	17.4	4.5	0.1	1452.8
2630	17.1	4.5	0.1	1524.5
2631	16.8	4.5	0.1	1596.8
2632	16.5	4.5	0.1	1669.5
2633	16.2	4.5	0.1	1742.8
2634	15.9	4.5	0.1	1816.7
2635	15.6	4.5	0.1	1891.
2636	15.3	4.5	0.1	1965.9
2637	15.	4.5	0.1	2041.3
2638	14.7	4.5	0.1	2117.3
2639	14.4	4.5	0.1	2193.7
2640	14.1	4.5	0.1	2270.7
2641	13.8	4.5	0.1	2348.2
2642	13.5	4.5	0.1	2426.3
2643	13.2	4.5	0.1	2504.8
2644	12.9	4.5	0.1	2583.9
2645	12.6	4.5	0.1	2663.5
2646	12.3	4.5	0.1	2743.6
2647	12.	4.5	0.1	2824.3
2648	11.7	4.5	0.1	2905.4
2649	11.4	4.5	0.1	2987.1
2650	11.1	4.5	0.1	3069.2
2651	10.8	4.5	0.1	3151.9
2652	10.5	4.5	0.1	3235.1
2653	10.2	4.5	0.1	3318.8
2654	9.9	4.5	0.1	3403.
2655	9.6	4.5	0.1	3487.6
2656	9.3	4.5	0.1	3572.8
2657	9.	4.5	0.1	3658.5
2658	8.7	4.5	0.1	3744.6
2659	8.4	4.5	0.1	3831.3
2660	8.1	4.5	0.1	3918.4
2661	7.8	4.5	0.1	4006.
2662	7.5	4.5	0.1	4094.1
2663	7.2	4.5	0.1	4182.7
2664	6.9	4.5	0.1	4271.7
2665	6.6	4.5	0.1	4361.2
2666	6.3	4.5	0.1	4451.2
2667	6.	4.5	0.1	4541.8
2668	5.7	4.5	0.1	4632.8
2669	5.4	4.5	0.1	4724.4
2670	5.1	4.5	0.1	4816.6
2671	4.8	4.5	0.1	4909.4
2672	4.5	4.5	0.1	5002.9
2673	4.2	4.5	0.1	5097.2
2674	3.9	4.5	0.1	5192.2
2675	3.6	4.5	0.1	5288.2
2676	3.3	4.5	0.1	5385.1
2677	3.	4.5	0.1	5483.
2678	2.7	4.5	0.1	5581.9
2679	2.4	4.5	0.1	5681.8
2680	2.1	4.5	0.1	5782.9
2681	1.8	4.5	0.1	5886.3
2682	1.5	4.5	0.1	5993.2
2683	1.2	4.5	0.1	6119.6
2684	0.9	4.5	0.1	6252.1
2685	0.6	4.5	0.1	6563.8
2686	0.3	4.5	0.1	6559.8
2687	23.7	4.8	0.1	64.195
2688	23.4	4.8	0.1	125.17
2689	23.1	4.8	0.1	186.8
2690	22.8	4.8	0.1	248.79
2691	22.5	4.8	0.1	311.4
2692	22.2	4.8	0.1	374.6
2693	21.9	4.8	0.1	438.36
2694	21.6	4.8	0.1	502.64
2695	21.3	4.8	0.1	567.42
2696	21.	4.8	0.1	632.68
2697	20.7	4.8	0.1	698.42
2698	20.4	4.8	0.1	764.63
2699	20.1	4.8	0.1	831.33
2700	19.8	4.8	0.1	898.51
2701	19.5	4.8	0.1	966.18
2702	19.2	4.8	0.1	1034.3
2703	18.9	4.8	0.1	1103.
2704	18.6	4.8	0.1	1172.2
2705	18.3	4.8	0.1	1241.9
2706	18.	4.8	0.1	1312.1
2707	17.7	4.8	0.1	1382.8
2708	17.4	4.8	0.1	1454.
2709	17.1	4.8	0.1	1525.7
2710	16.8	4.8	0.1	1598.
2711	16.5	4.8	0.1	1670.8
2712	16.2	4.8	0.1	1744.1
2713	15.9	4.8	0.1	1818.
2714	15.6	4.8	0.1	1892.3
2715	15.3	4.8	0.1	1967.2
2716	15.	4.8	0.1	2042.7
2717	14.7	4.8	0.1	2118.6
2718	14.4	4.8	0.1	2195.1
2719	14.1	4.8	0.1	2272.1
2720	13.8	4.8	0.1	2349.7
2721	13.5	4.8	0.1	2427.7
2722	13.2	4.8	0.1	2506.3
2723	12.9	4.8	0.1	2585.4
2724	12.6	4.8	0.1	2665.1
2725	12.3	4.8	0.1	2745.3
2726	12.	4.8	0.1	2826.
2727	11.7	4.8	0.1	2907.2
2728	11.4	4.8	0.1	2988.9
2729	11.1	4.8	0.1	3071.2
2730	10.8	4.8	0.1	3154.
2731	10.5	4.8	0.1	3237.4
2732	10.2	4.8	0.1	3321.2
2733	9.9	4.8	0.1	3405.6
2734	9.6	4.8	0.1	3490.6
2735	9.3	4.8	0.1	3576.
2736	9.	4.8	0.1	3662.
2737	8.7	4.8	0.1	3748.6
2738	8.4	4.8	0.1	3835.6
2739	8.1	4.8	0.1	3923.3
2740	7.8	4.8	0.1	4011.5
2741	7.5	4.8	0.1	4100.2
2742	7.2	4.8	0.1	4189.5
2743	6.9	4.8	0.1	4279.5
2744	6.6	4.8	0.1	4370.
2745	6.3	4.8	0.1	4461.2
2746	6.	4.8	0.1	4553.
2747	5.7	4.8	0.1	4645.6
2748	5.4	4.8	0.1	4738.9
2749	5.1	4.8	0.1	4832.9
2750	4.8	4.8	0.1	4927.8
2751	4.5	4.8	0.1	5023.5
2752	4.2	4.8	0.1	5120.1
2753	3.9	4.8	0.1	5217.5
2754	3.6	4.8	0.1	5315.7
2755	3.3	4.8	0.1	5414.3
2756	3.	4.8	0.1	5513.1
2757	2.7	4.8	0.1	5611.2
2758	2.4	4.8	0.1	5707.7
2759	2.1	4.8	0.1	5800.6
2760	1.8	4.8	0.1	5888.6
2761	1.5	4.8	0.1	5968.
2762	1.2	4.8	0.1	6048.1
2763	0.9	4.8	0.1	6110.4
2764	0.6	4.8	0.1	6329.4
2765	0.3	4.8	0.1	6274.3
2766	23.7	5.1	0.1	63.535
2767	23.4	5.1	0.1	123.58
2768	23.1	5.1	0.1	184.82
2769	22.8	5.1	0.1	246.87
2770	22.5	5.1	0.1	309.76
2771	22.2	5.1	0.1	373.33
2772	21.9	5.1	0.1	437.47
2773	21.6	5.1	0.1	502.12
2774	21.3	5.1	0.1	567.22
2775	21.	5.1	0.1	632.78
2776	20.7	5.1	0.1	698.77
2777	20.4	5.1	0.1	765.2
2778	20.1	5.1	0.1	832.08
2779	19.8	5.1	0.1	899.42
2780	19.5	5.1	0.1	967.22
2781	19.2	5.1	0.1	1035.5
2782	18.9	5.1	0.1	1104.3
2783	18.6	5.1	0.1	1173.5
2784	18.3	5.1	0.1	1243.2
2785	18.	5.1	0.1	1313.5
2786	17.7	5.1	0.1	1384.2
2787	17.4	5.1	0.1	1455.5
2788	17.1	5.1	0.1	1527.3
2789	16.8	5.1	0.1	1599.6
2790	16.5	5.1	0.1	1672.4
2791	16.2	5.1	0.1	1745.7
2792	15.9	5.1	0.1	1819.5
2793	15.6	5.1	0.1	1893.9
2794	15.3	5.1	0.1	1968.8
2795	15.	5.1	0.1	2044.3
2796	14.7	5.1	0.1	2120.2
2797	14.4	5.1	0.1	2196.7
2798	14.1	5.1	0.1	2273.8
2799	13.8	5.1	0.1	2351.3
2800	13.5	5.1	0.1	2429.4
2801	13.2	5.1	0.1	2508.1
2802	12.9	5.1	0.1	2587.2
2803	12.6	5.1	0.1	2666.9
2804	12.3	5.1	0.1	2747.2
2805	12.	5.1	0.1	2827.9
2806	11.7	5.1	0.1	2909.3
2807	11.4	5.1	0.1	2991.1
2808	11.1	5.1	0.1	3073.5
2809	10.8	5.1	0.1	3156.5
2810	10.5	5.1	0.1	3240.
2811	10.2	5.1	0.1	3324.1
2812	9.9	5.1	0.1	3408.7
2813	9.6	5.1	0.1	3493.9
2814	9.3	5.1	0.1	3579.7
2815	9.	5.1	0.1	3666.
2816	8.7	5.1	0.1	3753.
2817	8.4	5.1	0.1	3840.6
2818	8.1	5.1	0.1	3928.8
2819	7.8	5.1	0.1	4017.6
2820	7.5	5.1	0.1	4107.1
2821	7.2	5.1	0.1	4197.3
2822	6.9	5.1	0.1	4288.2
2823	6.6	5.1	0.1	4379.8
2824	6.3	5.1	0.1	4472.3
2825	6.	5.1	0.1	4565.5
2826	5.7	5.1	0.1	4659.7
2827	5.4	5.1	0.1	4754.8
2828	5.1	5.1	0.1	4850.9
2829	4.8	5.1	0.1	4948.1
2830	4.5	5.1	0.1	5046.3
2831	4.2	5.1	0.1	5145.5
2832	3.9	5.1	0.1	5245.7
2833	3.6	5.1	0.1	5346.6
2834	3.3	5.1	0.1	5447.7
2835	3.	5.1	0.1	5548.3
2836	2.7	5.1	0.1	5647.2
2837	2.4	5.1	0.1	5742.3
2838	2.1	5.1	0.1	5830.2
2839	1.8	5.1	0.1	5906.6
2840	1.5	5.1	0.1	5962.8
2841	1.2	5.1	0.1	5997.4
2842	0.9	5.1	0.1	5976.7
2843	0.6	5.1	0.1	6048.1
2844	0.3	5.1	0.1	5863.7
2845	23.7	5.4	0.1	62.513
2846	23.4	5.4	0.1	121.47
2847	23.1	5.4	0.1	182.73
2848	22.8	5.4	0.1	245.24
2849	22.5	5.4	0.1	308.68
2850	22.2	5.4	0.1	372.76
2851	21.9	5.4	0.1	437.34
2852	21.6	5.4	0.1	502.35
2853	21.3	5.4	0.1	567.78
2854	21.	5.4	0.1	633.6
2855	20.7	5.4	0.1	699.81
2856	20.4	5.4	0.1	766.44
2857	20.1	5.4	0.1	833.47
2858	19.8	5.4	0.1	900.94
2859	19.5	5.4	0.1	968.85
2860	19.2	5.4	0.1	1037.2
2861	18.9	5.4	0.1	1106.
2862	18.6	5.4	0.1	1175.3
2863	18.3	5.4	0.1	1245.1
2864	18.	5.4	0.1	1315.4
2865	17.7	5.4	0.1	1386.2
2866	17.4	5.4	0.1	1457.4
2867	17.1	5.4	0.1	1529.2
2868	16.8	5.4	0.1	1601.5
2869	16.5	5.4	0.1	1674.3
2870	16.2	5.4	0.1	1747.7
2871	15.9	5.4	0.1	1821.5
2872	15.6	5.4	0.1	1895.9
2873	15.3	5.4	0.1	1970.8
2874	15.	5.4	0.1	2046.2
2875	14.7	5.4	0.1	2122.2
2876	14.4	5.4	0.1	2198.7
2877	14.1	5.4	0.1	2275.8
2878	13.8	5.4	0.1	2353.3
2879	13.5	5.4	0.1	2431.5
2880	13.2	5.4	0.1	2510.1
2881	12.9	5.4	0.1	2589.3
2882	12.6	5.4	0.1	2669.1
2883	12.3	5.4	0.1	2749.4
2884	12.	5.4	0.1	2830.2
2885	11.7	5.4	0.1	2911.7
2886	11.4	5.4	0.1	2993.6
2887	11.1	5.4	0.1	3076.2
2888	10.8	5.4	0.1	3159.3
2889	10.5	5.4	0.1	3243.
2890	10.2	5.4	0.1	3327.3
2891	9.9	5.4	0.1	3412.1
2892	9.6	5.4	0.1	3497.6
2893	9.3	5.4	0.1	3583.7
2894	9.	5.4	0.1	3670.5
2895	8.7	5.4	0.1	3757.9
2896	8.4	5.4	0.1	3845.9
2897	8.1	5.4	0.1	3934.7
2898	7.8	5.4	0.1	4024.2
2899	7.5	5.4	0.1	4114.5
2900	7.2	5.4	0.1	4205.5
2901	6.9	5.4	0.1	4297.5
2902	6.6	5.4	0.1	4390.3
2903	6.3	5.4	0.1	4484.
2904	6.	5.4	0.1	4578.8
2905	5.7	5.4	0.1	4674.7
2906	5.4	5.4	0.1	4771.7
2907	5.1	5.4	0.1	4870.
2908	4.8	5.4	0.1	4969.5
2909	4.5	5.4	0.1	5070.3
2910	4.2	5.4	0.1	5172.4
2911	3.9	5.4	0.1	5275.6
2912	3.6	5.4	0.1	5379.7
2913	3.3	5.4	0.1	5484.
2914	3.	5.4	0.1	5587.5
2915	2.7	5.4	0.1	5688.7
2916	2.4	5.4	0.1	5784.9
2917	2.1	5.4	0.1	5871.6
2918	1.8	5.4	0.1	5942.4
2919	1.5	5.4	0.1	5984.5
2920	1.2	5.4	0.1	5985.4
2921	0.9	5.4	0.1	5891.3
2922	0.6	5.4	0.1	5766.4
2923	0.3	5.4	0.1	5259.4
2924	23.7	5.7	0.1	60.395
2925	23.4	5.7	0.1	119.6
2926	23.1	5.7	0.1	182.14
2927	22.8	5.7	0.1	245.67
2928	22.5	5.7	0.1	309.85
2929	22.2	5.7	0.1	374.47
2930	21.9	5.7	0.1	439.47
2931	21.6	5.7	0.1	504.82
2932	21.3	5.7	0.1	570.49
2933	21.	5.7	0.1	636.51
2934	20.7	5.7	0.1	702.89
2935	20.4	5.7	0.1	769.63
2936	20.1	5.7	0.1	836.76
2937	19.8	5.7	0.1	904.29
2938	19.5	5.7	0.1	972.25
2939	19.2	5.7	0.1	1040.6
2940	18.9	5.7	0.1	1109.5
2941	18.6	5.7	0.1	1178.8
2942	18.3	5.7	0.1	1248.6
2943	18.	5.7	0.1	1318.8
2944	17.7	5.7	0.1	1389.6
2945	17.4	5.7	0.1	1460.8
2946	17.1	5.7	0.1	1532.6
2947	16.8	5.7	0.1	1604.8
2948	16.5	5.7	0.1	1677.6
2949	16.2	5.7	0.1	1750.9
2950	15.9	5.7	0.1	1824.7
2951	15.6	5.7	0.1	1899.1
2952	15.3	5.7	0.1	1974.
2953	15.	5.7	0.1	2049.4
2954	14.7	5.7	0.1	2125.3
2955	14.4	5.7	0.1	2201.8
2956	14.1	5.7	0.1	2278.9
2957	13.8	5.7	0.1	2356.4
2958	13.5	5.7	0.1	2434.6
2959	13.2	5.7	0.1	2513.2
2960	12.9	5.7	0.1	2592.5
2961	12.6	5.7	0.1	2672.3
2962	12.3	5.7	0.1	2752.6
2963	12.	5.7	0.1	2833.5
2964	11.7	5.7	0.1	2915.
2965	11.4	5.7	0.1	2997.1
2966	11.1	5.7	0.1	3079.7
2967	10.8	5.7	0.1	3163.
2968	10.5	5.7	0.1	3246.9
2969	10.2	5.7	0.1	3331.3
2970	9.9	5.7	0.1	3416.5
2971	9.6	5.7	0.1	3502.2
2972	9.3	5.7	0.1	3588.7
2973	9.	5.7	0.1	3675.8
2974	8.7	5.7	0.1	3763.6
2975	8.4	5.7	0.1	3852.2
2976	8.1	5.7	0.1	3941.5
2977	7.8	5.7	0.1	4031.7
2978	7.5	5.7	0.1	4122.8
2979	7.2	5.7	0.1	4214.7
2980	6.9	5.7	0.1	4307.7
2981	6.6	5.7	0.1	4401.7
2982	6.3	5.7	0.1	4496.8
2983	6.	5.7	0.1	4593.1
2984	5.7	5.7	0.1	4690.8
2985	5.4	5.7	0.1	4789.9
2986	5.1	5.7	0.1	4890.4
2987	4.8	5.7	0.1	4992.5
2988	4.5	5.7	0.1	5096.3
2989	4.2	5.7	0.1	5201.6
2990	3.9	5.7	0.1	5308.5
2991	3.6	5.7	0.1	5416.4
2992	3.3	5.7	0.1	5525.
2993	3.	5.7	0.1	5633.1
2994	2.7	5.7	0.1	5739.1
2995	2.4	5.7	0.1	5839.9
2996	2.1	5.7	0.1	5930.8
2997	1.8	5.7	0.1	6004.3
2998	1.5	5.7	0.1	6045.7
2999	1.2	5.7	0.1	6034.8
3000	0.9	5.7	0.1	5908.6
3001	0.6	5.7	0.1	5632.5
3002	0.3	5.7	0.1	4606.4
3003	0.3	6.	0.1	4481.2
3004	0.6	6.	0.1	5577.8
3005	0.9	6.	0.1	5924.2
3006	1.2	6.	0.1	6065.4
3007	1.5	6.	0.1	6084.7
3008	1.8	6.	0.1	6046.5
3009	2.1	6.	0.1	5974.4
3010	2.4	6.	0.1	5883.3
3011	2.7	6.	0.1	5781.3
3012	3.	6.	0.1	5673.5
3013	3.3	6.	0.1	5563.
3014	3.6	6.	0.1	5451.9
3015	3.9	6.	0.1	5341.1
3016	4.2	6.	0.1	5231.5
3017	4.5	6.	0.1	5123.3
3018	4.8	6.	0.1	5016.9
3019	5.1	6.	0.1	4912.2
3020	5.4	6.	0.1	4809.2
3021	5.7	6.	0.1	4707.9
3022	6.	6.	0.1	4608.2
3023	6.3	6.	0.1	4509.9
3024	6.6	6.	0.1	4413.1
3025	6.9	6.	0.1	4317.5
3026	7.2	6.	0.1	4223.1
3027	7.5	6.	0.1	4129.9
3028	7.8	6.	0.1	4037.7
3029	8.1	6.	0.1	3946.5
3030	8.4	6.	0.1	3856.2
3031	8.7	6.	0.1	3766.8
3032	9.	6.	0.1	3678.2
3033	9.3	6.	0.1	3590.4
3034	9.6	6.	0.1	3503.4
3035	9.9	6.	0.1	3417.1
3036	10.2	6.	0.1	3331.5
3037	10.5	6.	0.1	3246.6
3038	10.8	6.	0.1	3162.4
3039	11.1	6.	0.1	3078.8
3040	11.4	6.	0.1	2995.8
3041	11.7	6.	0.1	2913.5
3042	12.	6.	0.1	2831.8
3043	12.3	6.	0.1	2750.6
3044	12.6	6.	0.1	2670.1
3045	12.9	6.	0.1	2590.1
3046	13.2	6.	0.1	2510.7
3047	13.5	6.	0.1	2431.8
3048	13.8	6.	0.1	2353.5
3049	14.1	6.	0.1	2275.8
3050	14.4	6.	0.1	2198.6
3051	14.7	6.	0.1	2122.
3052	15.	6.	0.1	2045.9
3053	15.3	6.	0.1	1970.4
3054	15.6	6.	0.1	1895.4
3055	15.9	6.	0.1	1820.9
3056	16.2	6.	0.1	1746.9
3057	16.5	6.	0.1	1673.5
3058	16.8	6.	0.1	1600.6
3059	17.1	6.	0.1	1528.1
3060	17.4	6.	0.1	1456.2
3061	17.7	6.	0.1	1384.8
3062	18.	6.	0.1	1313.9
3063	18.3	6.	0.1	1243.5
3064	18.6	6.	0.1	1173.6
3065	18.9	6.	0.1	1104.1
3066	19.2	6.	0.1	1035.1
3067	19.5	6.	0.1	966.48
3068	19.8	6.	0.1	898.34
3069	20.1	6.	0.1	830.61
3070	20.4	6.	0.1	763.29
3071	20.7	6.	0.1	696.37
3072	21.	6.	0.1	629.82
3073	21.3	6.	0.1	563.65
3074	21.6	6.	0.1	497.86
3075	21.9	6.	0.1	432.44
3076	22.2	6.	0.1	367.42
3077	22.5	6.	0.1	302.86
3078	22.8	6.	0.1	238.85
3079	23.1	6.	0.1	175.6
3080	23.4	6.	0.1	113.36
3081	23.7	6.	0.1	53.142
3082	24.	6.	0.1	8.2037
3083	24.	5.7	0.1	14.343
3084	24.	5.4	0.1	15.593
3085	24.	5.1	0.1	15.705
3086	24.	4.8	0.1	15.822
3087	24.	4.5	0.1	15.811
3088	24.	4.2	0.1	15.78
3089	24.	3.9	0.1	15.739
3090	24.	3.6	0.1	15.704
3091	24.	3.3	0.1	15.681
3092	24.	3.	0.1	15.673
3093	24.	2.7	0.1	15.681
3094	24.	2.4	0.1	15.704
3095	24.	2.1	0.1	15.739
3096	24.	1.8	0.1	15.78
3097	24.	1.5	0.1	15.811
3098	24.	1.2	0.1	15.822
3099	24.	0.9	0.1	15.705
3100	24.	0.6	0.1	15.593
3101	24.	0.3	0.1	14.343
3102	24.	0.	0.1	8.2036
3103	23.7	0.	0.1	53.142
3104	23.4	0.	0.1	113.36
3105	23.1	0.	0.1	175.6
3106	22.8	0.	0.1	238.85
3107	22.5	0.	0.1	302.86
3108	22.2	0.	0.1	367.42
3109	21.9	0.	0.1	432.44
3110	21.6	0.	0.1	497.86
3111	21.3	0.	0.1	563.65
3112	21.	0.	0.1	629.82
3113	20.7	0.	0.1	696.37
3114	20.4	0.	0.1	763.29
3115	20.1	0.	0.1	830.61
3116	19.8	0.	0.1	898.34
3117	19.5	0.	0.1	966.48
3118	19.2	0.	0.1	1035.1
3119	18.9	0.	0.1	1104.1
3120	18.6	0.	0.1	1173.6
3121	18.3	0.	0.1	1243.5
3122	18.	0.	0.1	1313.9
3123	17.7	0.	0.1	1384.8
3124	17.4	0.	0.1	1456.2
3125	17.1	0.	0.1	1528.1
3126	16.8	0.	0.1	1600.6
3127	16.5	0.	0.1	1673.5
3128	16.2	0.	0.1	1746.9
3129	15.9	0.	0.1	1820.9
3130	15.6	0.	0.1	1895.4
3131	15.3	0.	0.1	1970.4
3132	15.	0.	0.1	2045.9
3133	14.7	0.	0.1	2122.
3134	14.4	0.	0.1	2198.6
3135	14.1	0.	0.1	2275.8
3136	13.8	0.	0.1	2353.5
3137	13.5	0.	0.1	2431.8
3138	13.2	0.	0.1	2510.7
3139	12.9	0.	0.1	2590.1
3140	12.6	0.	0.1	2670.1
3141	12.3	0.	0.1	2750.6
3142	12.	0.	0.1	2831.8
3143	11.7	0.	0.1	2913.5
3144	11.4	0.	0.1	2995.8
3145	11.1	0.	0.1	3078.8
3146	10.8	0.	0.1	3162.4
3147	10.5	0.	0.1	3246.6
3148	10.2	0.	0.1	3331.5
3149	9.9	0.	0.1	3417.1
3150	9.6	0.	0.1	3503.4
3151	9.3	0.	0.1	3590.4
3152	9.	0.	0.1	3678.2
3153	8.7	0.	0.1	3766.8
3154	8.4	0.	0.1	3856.2
3155	8.1	0.	0.1	3946.5
3156	7.8	0.	0.1	4037.7
3157	7.5	0.	0.1	4129.9
3158	7.2	0.	0.1	4223.1
3159	6.9	0.	0.1	4317.5
3160	6.6	0.	0.1	4413.1
3161	6.3	0.	0.1	4509.9
3162	6.	0.	0.1	4608.2
3163	5.7	0.	0.1	4707.9
3164	5.4	0.	0.1	4809.2
3165	5.1	0.	0.1	4912.2
3166	4.8	0.	0.1	5016.9
3167	4.5	0.	0.1	5123.3
3168	4.2	0.	0.1	5231.5
3169	3.9	0.	0.1	5341.1
3170	3.6	0.	0.1	5451.9
3171	3.3	0.	0.1	5563.
3172	3.	0.	0.1	5673.5
3173	2.7	0.	0.1	5781.3
3174	2.4	0.	0.1	5883.3
3175	2.1	0.	0.1	5974.4
3176	1.8	0.	0.1	6046.5
3177	1.5	0.	0.1	6084.7
3178	1.2	0.	0.1	6065.4
3179	0.9	0.	0.1	5924.2
3180	0.6	0.	0.1	5577.8
3181	0.3	0.	0.1	4481.2
3182	0.	0.	0.1	1456.
3183	2.6226e-015	0.3	0.1	4305.5
3184	5.2451e-015	0.6	0.1	6099.
3185	7.8677e-015	0.9	0.1	6907.6
3186	1.049e-014	1.2	0.1	7393.9
3187	1.3113e-014	1.5	0.1	7697.2
3188	1.5735e-014	1.8	0.1	7896.3
3189	1.8358e-014	2.1	0.1	8027.5
3190	2.0981e-014	2.4	0.1	8110.7
3191	2.3603e-014	2.7	0.1	8156.9
3192	2.6226e-014	3.	0.1	8171.7
3193	2.8848e-014	3.3	0.1	8156.9
3194	3.1471e-014	3.6	0.1	8110.7
3195	3.4093e-014	3.9	0.1	8027.5
3196	3.6716e-014	4.2	0.1	7896.3
3197	3.9339e-014	4.5	0.1	7697.2
3198	4.1961e-014	4.8	0.1	7393.9
3199	4.4584e-014	5.1	0.1	6907.6
3200	4.7206e-014	5.4	0.1	6099.
3201	4.9829e-014	5.7	0.1	4305.5
3202	3.937e-014	6.	0.1	1456.
3203	4.9829e-014	5.7	0.	-2060.8
3204	4.7206e-014	5.4	0.	-2994.1
3205	4.4584e-014	5.1	0.	-3397.
3206	4.1961e-014	4.8	0.	-3638.9
3207	3.9339e-014	4.5	0.	-3789.5
3208	3.6716e-014	4.2	0.	-3888.1
3209	3.4093e-014	3.9	0.	-3953.2
3210	3.1471e-014	3.6	0.	-3994.6
3211	2.8848e-014	3.3	0.	-4017.6
3212	2.6226e-014	3.	0.	-4025.1
3213	2.3603e-014	2.7	0.	-4017.6
3214	2.0981e-014	2.4	0.	-3994.6
3215	1.8358e-014	2.1	0.	-3953.2
3216	1.5735e-014	1.8	0.	-3888.1
3217	1.3113e-014	1.5	0.	-3789.5
3218	1.049e-014	1.2	0.	-3638.9
3219	7.8677e-015	0.9	0.	-3397.
3220	5.2451e-015	0.6	0.	-2994.1
3221	2.6226e-015	0.3	0.	-2060.8
3222	3.937e-014	6.	0.	1016.9
3223	0.	0.	0.	1016.9
3224	0.3	0.	0.	474.72
3225	0.6	0.	0.	167.23
3226	0.9	0.	0.	93.845
3227	1.2	0.	0.	48.279
3228	1.5	0.	0.	24.443
3229	1.8	0.	0.	7.496
3230	2.1	0.	0.	-2.7126
3231	2.4	0.	0.	-3.3579
3232	2.7	0.	0.	-3.0307
3233	3.	0.	0.	-2.7214
3234	3.3	0.	0.	-2.4279
3235	3.6	0.	0.	-2.1601
3236	3.9	0.	0.	-1.9164
3237	4.2	0.	0.	-1.6962
3238	4.5	0.	0.	-1.498
3239	4.8	0.	0.	-1.3203
3240	5.1	0.	0.	-1.1614
3241	5.4	0.	0.	-1.0196
3242	5.7	0.	0.	-0.8934
3243	6.	0.	0.	-0.78111
3244	6.3	0.	0.	-0.68118
3245	6.6	0.	0.	-0.59194
3246	6.9	0.	0.	-0.5114
3247	7.2	0.	0.	-0.43587
3248	7.5	0.	0.	-0.34923
3249	7.8	0.	0.	4.3701e-002
3250	8.1	0.	0.	1.0066
3251	8.4	0.	0.	1.9426
3252	8.7	0.	0.	2.8068
3253	9.	0.	0.	3.6005
3254	9.3	0.	0.	4.3288
3255	9.6	0.	0.	4.9975
3256	9.9	0.	0.	5.6124
3257	10.2	0.	0.	6.1792
3258	10.5	0.	0.	6.7031
3259	10.8	0.	0.	7.1891
3260	11.1	0.	0.	7.642
3261	11.4	0.	0.	8.0661
3262	11.7	0.	0.	8.4653
3263	12.	0.	0.	8.8434
3264	12.3	0.	0.	9.2037
3265	12.6	0.	0.	9.5493
3266	12.9	0.	0.	9.8832
3267	13.2	0.	0.	10.208
3268	13.5	0.	0.	10.526
3269	13.8	0.	0.	10.84
3270	14.1	0.	0.	11.152
3271	14.4	0.	0.	11.464
3272	14.7	0.	0.	11.777
3273	15.	0.	0.	12.094
3274	15.3	0.	0.	12.417
3275	15.6	0.	0.	12.746
3276	15.9	0.	0.	13.085
3277	16.2	0.	0.	13.433
3278	16.5	0.	0.	13.793
3279	16.8	0.	0.	14.166
3280	17.1	0.	0.	14.553
3281	17.4	0.	0.	14.956
3282	17.7	0.	0.	15.375
3283	18.	0.	0.	15.812
3284	18.3	0.	0.	16.267
3285	18.6	0.	0.	16.741
3286	18.9	0.	0.	17.235
3287	19.2	0.	0.	17.747
3288	19.5	0.	0.	18.278
3289	19.8	0.	0.	18.827
3290	20.1	0.	0.	19.39
3291	20.4	0.	0.	19.966
3292	20.7	0.	0.	20.551
3293	21.	0.	0.	21.139
3294	21.3	0.	0.	21.722
3295	21.6	0.	0.	22.29
3296	21.9	0.	0.	22.829
3297	22.2	0.	0.	23.32
3298	22.5	0.	0.	23.733
3299	22.8	0.	0.	24.027
3300	23.1	0.	0.	24.104
3301	23.4	0.	0.	23.927
3302	23.7	0.	0.	21.214
3303	24.	0.	0.	15.029
3304	24.	0.3	0.	53.412
3305	24.	0.6	0.	88.334
3306	24.	0.9	0.	114.48
3307	24.	1.2	0.	134.89
3308	24.	1.5	0.	151.02
3309	24.	1.8	0.	163.56
3310	24.	2.1	0.	172.98
3311	24.	2.4	0.	179.54
3312	24.	2.7	0.	183.41
3313	24.	3.	0.	184.69
3314	24.	3.3	0.	183.41
3315	24.	3.6	0.	179.54
3316	24.	3.9	0.	172.98
3317	24.	4.2	0.	163.56
3318	24.	4.5	0.	151.02
3319	24.	4.8	0.	134.89
3320	24.	5.1	0.	114.48
3321	24.	5.4	0.	88.334
3322	24.	5.7	0.	53.412
3323	24.	6.	0.	15.029
3324	23.7	6.	0.	21.214
3325	23.4	6.	0.	23.927
3326	23.1	6.	0.	24.104
3327	22.8	6.	0.	24.027
3328	22.5	6.	0.	23.733
3329	22.2	6.	0.	23.32
3330	21.9	6.	0.	22.829
3331	21.6	6.	0.	22.29
3332	21.3	6.	0.	21.722
3333	21.	6.	0.	21.139
3334	20.7	6.	0.	20.551
3335	20.4	6.	0.	19.966
3336	20.1	6.	0.	19.39
3337	19.8	6.	0.	18.827
3338	19.5	6.	0.	18.278
3339	19.2	6.	0.	17.747
3340	18.9	6.	0.	17.235
3341	18.6	6.	0.	16.741
3342	18.3	6.	0.	16.267
3343	18.	6.	0.	15.812
3344	17.7	6.	0.	15.375
3345	17.4	6.	0.	14.956
3346	17.1	6.	0.	14.553
3347	16.8	6.	0.	14.166
3348	16.5	6.	0.	13.793
3349	16.2	6.	0.	13.433
3350	15.9	6.	0.	13.085
3351	15.6	6.	0.	12.746
3352	15.3	6.	0.	12.417
3353	15.	6.	0.	12.094
3354	14.7	6.	0.	11.777
3355	14.4	6.	0.	11.464
3356	14.1	6.	0.	11.152
3357	13.8	6.	0.	10.84
3358	13.5	6.	0.	10.526
3359	13.2	6.	0.	10.208
3360	12.9	6.	0.	9.8832
3361	12.6	6.	0.	9.5493
3362	12.3	6.	0.	9.2037
3363	12.	6.	0.	8.8434
3364	11.7	6.	0.	8.4653
3365	11.4	6.	0.	8.0661
3366	11.1	6.	0.	7.642
3367	10.8	6.	0.	7.1891
3368	10.5	6.	0.	6.703
3369	10.2	6.	0.	6.1791
3370	9.9	6.	0.	5.6124
3371	9.6	6.	0.	4.9975
3372	9.3	6.	0.	4.3288
3373	9.	6.	0.	3.6005
3374	8.7	6.	0.	2.8068
3375	8.4	6.	0.	1.9426
3376	8.1	6.	0.	1.0066
3377	7.8	6.	0.	4.3691e-002
3378	7.5	6.	0.	-0.34923
3379	7.2	6.	0.	-0.43587
3380	6.9	6.	0.	-0.5114
3381	6.6	6.	0.	-0.59194
3382	6.3	6.	0.	-0.68118
3383	6.	6.	0.	-0.78111
3384	5.7	6.	0.	-0.8934
3385	5.4	6.	0.	-1.0196
3386	5.1	6.	0.	-1.1614
3387	4.8	6.	0.	-1.3203
3388	4.5	6.	0.	-1.498
3389	4.2	6.	0.	-1.6962
3390	3.9	6.	0.	-1.9164
3391	3.6	6.	0.	-2.1601
3392	3.3	6.	0.	-2.4279
3393	3.	6.	0.	-2.7214
3394	2.7	6.	0.	-3.0307
3395	2.4	6.	0.	-3.3579
3396	2.1	6.	0.	-2.7126
3397	1.8	6.	0.	7.4961
3398	1.5	6.	0.	24.443
3399	1.2	6.	0.	48.279
3400	0.9	6.	0.	93.845
3401	0.6	6.	0.	167.23
3402	0.3	6.	0.	474.72
3403	0.45	5.7	0.	203.83
3404	0.3	5.55	0.	662.6
3405	0.3	5.7	5.e-002	140.6
3406	0.15	5.7	0.	-796.3
3407	0.3	5.85	0.	292.48
3408	0.75	5.7	0.	-31.44
3409	0.6	5.55	0.	-144.07
3410	0.6	5.7	5.e-002	64.43
3411	0.6	5.85	0.	-43.519
3412	1.05	5.7	0.	14.282
3413	0.9	5.55	0.	41.323
3414	0.9	5.7	5.e-002	38.594
3415	0.9	5.85	0.	15.734
3416	1.35	5.7	0.	0.10688
3417	1.2	5.55	0.	-5.7382
3418	1.2	5.7	5.e-002	31.255
3419	1.2	5.85	0.	-8.2815
3420	1.65	5.7	0.	1.625
3421	1.5	5.55	0.	4.0758
3422	1.5	5.7	5.e-002	27.294
3423	1.5	5.85	0.	-3.0976
3424	1.95	5.7	0.	0.12518
3425	1.8	5.55	0.	0.73571
3426	1.8	5.7	5.e-002	24.984
3427	1.8	5.85	0.	-4.3044
3428	2.25	5.7	0.	-0.17059
3429	2.1	5.55	0.	0.94769
3430	2.1	5.7	5.e-002	23.046
3431	2.1	5.85	0.	-3.6524
3432	2.55	5.7	0.	-0.48354
3433	2.4	5.55	0.	0.5058
3434	2.4	5.7	5.e-002	21.284
3435	2.4	5.85	0.	-3.4033
3436	2.85	5.7	0.	-0.62068
3437	2.7	5.55	0.	0.35199
3438	2.7	5.7	5.e-002	19.619
3439	2.7	5.85	0.	-3.0473
3440	3.15	5.7	0.	-0.69256
3441	3.	5.55	0.	0.21227
3442	3.	5.7	5.e-002	18.049
3443	3.	5.85	0.	-2.7363
3444	3.45	5.7	0.	-0.71146
3445	3.3	5.55	0.	0.12545
3446	3.3	5.7	5.e-002	16.581
3447	3.3	5.85	0.	-2.4408
3448	3.75	5.7	0.	-0.69976
3449	3.6	5.55	0.	6.4201e-002
3450	3.6	5.7	5.e-002	15.223
3451	3.6	5.85	0.	-2.1712
3452	4.05	5.7	0.	-0.66862
3453	3.9	5.55	0.	2.3265e-002
3454	3.9	5.7	5.e-002	13.978
3455	3.9	5.85	0.	-1.9253
3456	4.35	5.7	0.	-0.62638
3457	4.2	5.55	0.	-4.1833e-003
3458	4.2	5.7	5.e-002	12.847
3459	4.2	5.85	0.	-1.7027
3460	4.65	5.7	0.	-0.57837
3461	4.5	5.55	0.	-2.2085e-002
3462	4.5	5.7	5.e-002	11.827
3463	4.5	5.85	0.	-1.5021
3464	4.95	5.7	0.	-0.5282
3465	4.8	5.55	0.	-3.339e-002
3466	4.8	5.7	5.e-002	10.913
3467	4.8	5.85	0.	-1.3221
3468	5.25	5.7	0.	-0.47822
3469	5.1	5.55	0.	-4.0122e-002
3470	5.1	5.7	5.e-002	10.097
3471	5.1	5.85	0.	-1.161
3472	5.55	5.7	0.	-0.42991
3473	5.4	5.55	0.	-4.3719e-002
3474	5.4	5.7	5.e-002	9.3724
3475	5.4	5.85	0.	-1.0173
3476	5.85	5.7	0.	-0.38415
3477	5.7	5.55	0.	-4.5188e-002
3478	5.7	5.7	5.e-002	8.7315
3479	5.7	5.85	0.	-0.88927
3480	6.15	5.7	0.	-0.34144
3481	6.	5.55	0.	-4.5242e-002
3482	6.	5.7	5.e-002	8.1661
3483	6.	5.85	0.	-0.7754
3484	6.45	5.7	0.	-0.30195
3485	6.3	5.55	0.	-4.4376e-002
3486	6.3	5.7	5.e-002	7.6686
3487	6.3	5.85	0.	-0.67415
3488	6.75	5.7	0.	-0.26568
3489	6.6	5.55	0.	-4.2938e-002
3490	6.6	5.7	5.e-002	7.2313
3491	6.6	5.85	0.	-0.58406
3492	7.05	5.7	0.	-0.23248
3493	6.9	5.55	0.	-4.1166e-002
3494	6.9	5.7	5.e-002	6.8476
3495	6.9	5.85	0.	-0.50367
3496	7.35	5.7	0.	-0.20206
3497	7.2	5.55	0.	-3.9223e-002
3498	7.2	5.7	5.e-002	6.5109
3499	7.2	5.85	0.	-0.43149
3500	7.65	5.7	0.	-0.17403
3501	7.5	5.55	0.	-3.7217e-002
3502	7.5	5.7	5.e-002	6.2154
3503	7.5	5.85	0.	-0.36584
3504	7.95	5.7	0.	-0.14777
3505	7.8	5.55	0.	-3.5216e-002
3506	7.8	5.7	5.e-002	5.956
3507	7.8	5.85	0.	-0.30432
3508	8.25	5.7	0.	-0.12226
3509	8.1	5.55	0.	-3.3257e-002
3510	8.1	5.7	5.e-002	5.728
3511	8.1	5.85	0.	-0.24234
3512	8.55	5.7	0.	-9.5165e-002
3513	8.4	5.55	0.	-3.1349e-002
3514	8.4	5.7	5.e-002	5.5272
3515	8.4	5.85	0.	-0.16547
3516	8.85	5.7	0.	-5.8859e-002
3517	8.7	5.55	0.	-2.9476e-002
3518	8.7	5.7	5.e-002	5.3501
3519	8.7	5.85	0.	1.9795e-002
3520	9.15	5.7	0.	4.0886e-002
3521	9.	5.55	0.	-2.7567e-002
3522	9.	5.7	5.e-002	5.1933
3523	9.	5.85	0.	0.84718
3524	9.45	5.7	0.	0.92518
3525	9.3	5.55	0.	-2.542e-002
3526	9.3	5.7	5.e-002	5.0542
3527	9.3	5.85	0.	2.0334
3528	9.75	5.7	0.	2.4422
3529	9.6	5.55	0.	-2.2219e-002
3530	9.6	5.7	5.e-002	4.9304
3531	9.6	5.85	0.	3.1604
3532	10.05	5.7	0.	3.8626
3533	9.9	5.55	0.	-8.1009e-003
3534	9.9	5.7	5.e-002	4.8197
3535	9.9	5.85	0.	4.1924
3536	10.35	5.7	0.	5.1539
3537	10.2	5.55	0.	1.1259
3538	10.2	5.7	5.e-002	4.7205
3539	10.2	5.85	0.	5.1326
3540	10.65	5.7	0.	6.3254
3541	10.5	5.55	0.	2.7073
3542	10.5	5.7	5.e-002	4.6311
3543	10.5	5.85	0.	5.9896
3544	10.95	5.7	0.	7.3901
3545	10.8	5.55	0.	4.1314
3546	10.8	5.7	5.e-002	4.5502
3547	10.8	5.85	0.	6.7724
3548	11.25	5.7	0.	8.3607
3549	11.1	5.55	0.	5.4147
3550	11.1	5.7	5.e-002	4.4768
3551	11.1	5.85	0.	7.4897
3552	11.55	5.7	0.	9.249
3553	11.4	5.55	0.	6.5746
3554	11.4	5.7	5.e-002	4.4098
3555	11.4	5.85	0.	8.1498
3556	11.85	5.7	0.	10.066
3557	11.7	5.55	0.	7.6269
3558	11.7	5.7	5.e-002	4.3484
3559	11.7	5.85	0.	8.7601
3560	12.15	5.7	0.	10.821
3561	12.	5.55	0.	8.5859
3562	12.	5.7	5.e-002	4.2919
3563	12.	5.85	0.	9.3275
3564	12.45	5.7	0.	11.523
3565	12.3	5.55	0.	9.4645
3566	12.3	5.7	5.e-002	4.2398
3567	12.3	5.85	0.	9.8581
3568	12.75	5.7	0.	12.181
3569	12.6	5.55	0.	10.274
3570	12.6	5.7	5.e-002	4.1914
3571	12.6	5.85	0.	10.358
3572	13.05	5.7	0.	12.801
3573	12.9	5.55	0.	11.026
3574	12.9	5.7	5.e-002	4.1464
3575	12.9	5.85	0.	10.831
3576	13.35	5.7	0.	13.391
3577	13.2	5.55	0.	11.728
3578	13.2	5.7	5.e-002	4.1044
3579	13.2	5.85	0.	11.284
3580	13.65	5.7	0.	13.956
3581	13.5	5.55	0.	12.39
3582	13.5	5.7	5.e-002	4.0651
3583	13.5	5.85	0.	11.72
3584	13.95	5.7	0.	14.502
3585	13.8	5.55	0.	13.019
3586	13.8	5.7	5.e-002	4.0284
3587	13.8	5.85	0.	12.143
3588	14.25	5.7	0.	15.035
3589	14.1	5.55	0.	13.623
3590	14.1	5.7	5.e-002	3.9938
3591	14.1	5.85	0.	12.557
3592	14.55	5.7	0.	15.559
3593	14.4	5.55	0.	14.208
3594	14.4	5.7	5.e-002	3.9613
3595	14.4	5.85	0.	12.966
3596	14.85	5.7	0.	16.078
3597	14.7	5.55	0.	14.781
3598	14.7	5.7	5.e-002	3.9309
3599	14.7	5.85	0.	13.372
3600	15.15	5.7	0.	16.597
3601	15.	5.55	0.	15.347
3602	15.	5.7	5.e-002	3.9024
3603	15.	5.85	0.	13.779
3604	15.45	5.7	0.	17.121
3605	15.3	5.55	0.	15.912
3606	15.3	5.7	5.e-002	3.8757
3607	15.3	5.85	0.	14.189
3608	15.75	5.7	0.	17.652
3609	15.6	5.55	0.	16.482
3610	15.6	5.7	5.e-002	3.8509
3611	15.6	5.85	0.	14.606
3612	16.05	5.7	0.	18.195
3613	15.9	5.55	0.	17.061
3614	15.9	5.7	5.e-002	3.828
3615	15.9	5.85	0.	15.032
3616	16.35	5.7	0.	18.754
3617	16.2	5.55	0.	17.654
3618	16.2	5.7	5.e-002	3.8071
3619	16.2	5.85	0.	15.47
3620	16.65	5.7	0.	19.332
3621	16.5	5.55	0.	18.268
3622	16.5	5.7	5.e-002	3.7881
3623	16.5	5.85	0.	15.922
3624	16.95	5.7	0.	19.932
3625	16.8	5.55	0.	18.906
3626	16.8	5.7	5.e-002	3.7714
3627	16.8	5.85	0.	16.391
3628	17.25	5.7	0.	20.557
3629	17.1	5.55	0.	19.575
3630	17.1	5.7	5.e-002	3.757
3631	17.1	5.85	0.	16.878
3632	17.55	5.7	0.	21.212
3633	17.4	5.55	0.	20.278
3634	17.4	5.7	5.e-002	3.7452
3635	17.4	5.85	0.	17.387
3636	17.85	5.7	0.	21.9
3637	17.7	5.55	0.	21.021
3638	17.7	5.7	5.e-002	3.7362
3639	17.7	5.85	0.	17.919
3640	18.15	5.7	0.	22.623
3641	18.	5.55	0.	21.81
3642	18.	5.7	5.e-002	3.7303
3643	18.	5.85	0.	18.477
3644	18.45	5.7	0.	23.384
3645	18.3	5.55	0.	22.65
3646	18.3	5.7	5.e-002	3.728
3647	18.3	5.85	0.	19.063
3648	18.75	5.7	0.	24.187
3649	18.6	5.55	0.	23.547
3650	18.6	5.7	5.e-002	3.7295
3651	18.6	5.85	0.	19.677
3652	19.05	5.7	0.	25.032
3653	18.9	5.55	0.	24.505
3654	18.9	5.7	5.e-002	3.7355
3655	18.9	5.85	0.	20.323
3656	19.35	5.7	0.	25.924
3657	19.2	5.55	0.	25.531
3658	19.2	5.7	5.e-002	3.7465
3659	19.2	5.85	0.	21.
3660	19.65	5.7	0.	26.861
3661	19.5	5.55	0.	26.631
3662	19.5	5.7	5.e-002	3.7632
3663	19.5	5.85	0.	21.71
3664	19.95	5.7	0.	27.847
3665	19.8	5.55	0.	27.81
3666	19.8	5.7	5.e-002	3.7863
3667	19.8	5.85	0.	22.452
3668	20.25	5.7	0.	28.879
3669	20.1	5.55	0.	29.073
3670	20.1	5.7	5.e-002	3.8166
3671	20.1	5.85	0.	23.226
3672	20.55	5.7	0.	29.957
3673	20.4	5.55	0.	30.428
3674	20.4	5.7	5.e-002	3.855
3675	20.4	5.85	0.	24.031
3676	20.85	5.7	0.	31.078
3677	20.7	5.55	0.	31.88
3678	20.7	5.7	5.e-002	3.9027
3679	20.7	5.85	0.	24.864
3680	21.15	5.7	0.	32.238
3681	21.	5.55	0.	33.436
3682	21.	5.7	5.e-002	3.9607
3683	21.	5.85	0.	25.72
3684	21.45	5.7	0.	33.433
3685	21.3	5.55	0.	35.105
3686	21.3	5.7	5.e-002	4.0304
3687	21.3	5.85	0.	26.594
3688	21.75	5.7	0.	34.656
3689	21.6	5.55	0.	36.9
3690	21.6	5.7	5.e-002	4.1132
3691	21.6	5.85	0.	27.477
3692	22.05	5.7	0.	35.901
3693	21.9	5.55	0.	38.839
3694	21.9	5.7	5.e-002	4.2108
3695	21.9	5.85	0.	28.36
3696	22.35	5.7	0.	37.166
3697	22.2	5.55	0.	40.956
3698	22.2	5.7	5.e-002	4.3249
3699	22.2	5.85	0.	29.229
3700	22.65	5.7	0.	38.462
3701	22.5	5.55	0.	43.308
3702	22.5	5.7	5.e-002	4.4575
3703	22.5	5.85	0.	30.064
3704	22.95	5.7	0.	39.825
3705	22.8	5.55	0.	46.023
3706	22.8	5.7	5.e-002	4.6121
3707	22.8	5.85	0.	30.85
3708	23.25	5.7	0.	41.479
3709	23.1	5.55	0.	49.326
3710	23.1	5.7	5.e-002	4.7812
3711	23.1	5.85	0.	31.536
3712	23.55	5.7	0.	44.297
3713	23.4	5.55	0.	54.004
3714	23.4	5.7	5.e-002	5.0037
3715	23.4	5.85	0.	32.255
3716	23.7	5.55	0.	61.412
3717	23.7	5.7	5.e-002	5.4783
3718	23.85	5.7	0.	49.421
3719	23.7	5.85	0.	32.499
3720	0.45	5.4	0.	319.49
3721	0.3	5.25	0.	869.87
3722	0.3	5.4	5.e-002	65.886
3723	0.15	5.4	0.	-1091.1
3724	0.75	5.4	0.	-65.483
3725	0.6	5.25	0.	-205.61
3726	0.6	5.4	5.e-002	56.997
3727	1.05	5.4	0.	24.17
3728	0.9	5.25	0.	56.133
3729	0.9	5.4	5.e-002	41.783
3730	1.35	5.4	0.	0.44091
3731	1.2	5.25	0.	-8.5358
3732	1.2	5.4	5.e-002	31.528
3733	1.65	5.4	0.	4.6605
3734	1.5	5.25	0.	5.9102
3735	1.5	5.4	5.e-002	25.565
3736	1.95	5.4	0.	2.5855
3737	1.8	5.25	0.	1.4884
3738	1.8	5.4	5.e-002	21.867
3739	2.25	5.4	0.	2.3539
3740	2.1	5.25	0.	1.9148
3741	2.1	5.4	5.e-002	19.329
3742	2.55	5.4	0.	1.8731
3743	2.4	5.25	0.	1.3474
3744	2.4	5.4	5.e-002	17.468
3745	2.85	5.4	0.	1.5812
3746	2.7	5.25	0.	1.1442
3747	2.7	5.4	5.e-002	15.999
3748	3.15	5.4	0.	1.3317
3749	3.	5.25	0.	0.93589
3750	3.	5.4	5.e-002	14.785
3751	3.45	5.4	0.	1.1347
3752	3.3	5.25	0.	0.78654
3753	3.3	5.4	5.e-002	13.752
3754	3.75	5.4	0.	0.97128
3755	3.6	5.25	0.	0.66406
3756	3.6	5.4	5.e-002	12.859
3757	4.05	5.4	0.	0.83501
3758	3.9	5.25	0.	0.56519
3759	3.9	5.4	5.e-002	12.082
3760	4.35	5.4	0.	0.71971
3761	4.2	5.25	0.	0.48323
3762	4.2	5.4	5.e-002	11.406
3763	4.65	5.4	0.	0.62134
3764	4.5	5.25	0.	0.41456
3765	4.5	5.4	5.e-002	10.818
3766	4.95	5.4	0.	0.5368
3767	4.8	5.25	0.	0.35635
3768	4.8	5.4	5.e-002	10.307
3769	5.25	5.4	0.	0.46377
3770	5.1	5.25	0.	0.3066
3771	5.1	5.4	5.e-002	9.8642
3772	5.55	5.4	0.	0.40043
3773	5.4	5.25	0.	0.2638
3774	5.4	5.4	5.e-002	9.4811
3775	5.85	5.4	0.	0.34533
3776	5.7	5.25	0.	0.22678
3777	5.7	5.4	5.e-002	9.1496
3778	6.15	5.4	0.	0.29729
3779	6.	5.25	0.	0.19465
3780	6.	5.4	5.e-002	8.8628
3781	6.45	5.4	0.	0.25535
3782	6.3	5.25	0.	0.16669
3783	6.3	5.4	5.e-002	8.6142
3784	6.75	5.4	0.	0.21869
3785	6.6	5.25	0.	0.1423
3786	6.6	5.4	5.e-002	8.3981
3787	7.05	5.4	0.	0.18662
3788	6.9	5.25	0.	0.12099
3789	6.9	5.4	5.e-002	8.2095
3790	7.35	5.4	0.	0.15854
3791	7.2	5.25	0.	0.10237
3792	7.2	5.4	5.e-002	8.044
3793	7.65	5.4	0.	0.13395
3794	7.5	5.25	0.	8.6079e-002
3795	7.5	5.4	5.e-002	7.8979
3796	7.95	5.4	0.	0.1124
3797	7.8	5.25	0.	7.1825e-002
3798	7.8	5.4	5.e-002	7.7682
3799	8.25	5.4	0.	9.3527e-002
3800	8.1	5.25	0.	5.9355e-002
3801	8.1	5.4	5.e-002	7.6521
3802	8.55	5.4	0.	7.6987e-002
3803	8.4	5.25	0.	4.8449e-002
3804	8.4	5.4	5.e-002	7.5473
3805	8.85	5.4	0.	6.2495e-002
3806	8.7	5.25	0.	3.8923e-002
3807	8.7	5.4	5.e-002	7.4521
3808	9.15	5.4	0.	4.9806e-002
3809	9.	5.25	0.	3.0619e-002
3810	9.	5.4	5.e-002	7.3649
3811	9.45	5.4	0.	3.8714e-002
3812	9.3	5.25	0.	2.3412e-002
3813	9.3	5.4	5.e-002	7.2843
3814	9.75	5.4	0.	2.9065e-002
3815	9.6	5.25	0.	1.7215e-002
3816	9.6	5.4	5.e-002	7.2093
3817	10.05	5.4	0.	2.0833e-002
3818	9.9	5.25	0.	1.2005e-002
3819	9.9	5.4	5.e-002	7.1391
3820	10.35	5.4	0.	1.4887e-002
3821	10.2	5.25	0.	7.9261e-003
3822	10.2	5.4	5.e-002	7.0728
3823	10.65	5.4	0.	0.62441
3824	10.5	5.25	0.	5.8147e-003
3825	10.5	5.4	5.e-002	7.0099
3826	10.95	5.4	0.	2.266
3827	10.8	5.25	0.	1.5242e-002
3828	10.8	5.4	5.e-002	6.9499
3829	11.25	5.4	0.	3.7405
3830	11.1	5.25	0.	1.0619
3831	11.1	5.4	5.e-002	6.8922
3832	11.55	5.4	0.	5.0667
3833	11.4	5.25	0.	2.6814
3834	11.4	5.4	5.e-002	6.8368
3835	11.85	5.4	0.	6.2636
3836	11.7	5.25	0.	4.1393
3837	11.7	5.4	5.e-002	6.783
3838	12.15	5.4	0.	7.3485
3839	12.	5.25	0.	5.4526
3840	12.	5.4	5.e-002	6.7308
3841	12.45	5.4	0.	8.337
3842	12.3	5.25	0.	6.6402
3843	12.3	5.4	5.e-002	6.6799
3844	12.75	5.4	0.	9.2429
3845	12.6	5.25	0.	7.7196
3846	12.6	5.4	5.e-002	6.6302
3847	13.05	5.4	0.	10.079
3848	12.9	5.25	0.	8.7064
3849	12.9	5.4	5.e-002	6.5815
3850	13.35	5.4	0.	10.856
3851	13.2	5.25	0.	9.615
3852	13.2	5.4	5.e-002	6.5338
3853	13.65	5.4	0.	11.585
3854	13.5	5.25	0.	10.458
3855	13.5	5.4	5.e-002	6.4868
3856	13.95	5.4	0.	12.274
3857	13.8	5.25	0.	11.248
3858	13.8	5.4	5.e-002	6.4406
3859	14.25	5.4	0.	12.934
3860	14.1	5.25	0.	11.995
3861	14.1	5.4	5.e-002	6.395
3862	14.55	5.4	0.	13.571
3863	14.4	5.25	0.	12.708
3864	14.4	5.4	5.e-002	6.3501
3865	14.85	5.4	0.	14.194
3866	14.7	5.25	0.	13.399
3867	14.7	5.4	5.e-002	6.3057
3868	15.15	5.4	0.	14.809
3869	15.	5.25	0.	14.074
3870	15.	5.4	5.e-002	6.262
3871	15.45	5.4	0.	15.423
3872	15.3	5.25	0.	14.744
3873	15.3	5.4	5.e-002	6.2187
3874	15.75	5.4	0.	16.044
3875	15.6	5.25	0.	15.415
3876	15.6	5.4	5.e-002	6.1761
3877	16.05	5.4	0.	16.677
3878	15.9	5.25	0.	16.095
3879	15.9	5.4	5.e-002	6.134
3880	16.35	5.4	0.	17.33
3881	16.2	5.25	0.	16.794
3882	16.2	5.4	5.e-002	6.0925
3883	16.65	5.4	0.	18.008
3884	16.5	5.25	0.	17.518
3885	16.5	5.4	5.e-002	6.0516
3886	16.95	5.4	0.	18.719
3887	16.8	5.25	0.	18.276
3888	16.8	5.4	5.e-002	6.0114
3889	17.25	5.4	0.	19.469
3890	17.1	5.25	0.	19.077
3891	17.1	5.4	5.e-002	5.9718
3892	17.55	5.4	0.	20.266
3893	17.4	5.25	0.	19.929
3894	17.4	5.4	5.e-002	5.9331
3895	17.85	5.4	0.	21.117
3896	17.7	5.25	0.	20.841
3897	17.7	5.4	5.e-002	5.8953
3898	18.15	5.4	0.	22.028
3899	18.	5.25	0.	21.822
3900	18.	5.4	5.e-002	5.8585
3901	18.45	5.4	0.	23.01
3902	18.3	5.25	0.	22.885
3903	18.3	5.4	5.e-002	5.8227
3904	18.75	5.4	0.	24.07
3905	18.6	5.25	0.	24.038
3906	18.6	5.4	5.e-002	5.7882
3907	19.05	5.4	0.	25.217
3908	18.9	5.25	0.	25.295
3909	18.9	5.4	5.e-002	5.7551
3910	19.35	5.4	0.	26.46
3911	19.2	5.25	0.	26.668
3912	19.2	5.4	5.e-002	5.7236
3913	19.65	5.4	0.	27.811
3914	19.5	5.25	0.	28.172
3915	19.5	5.4	5.e-002	5.6939
3916	19.95	5.4	0.	29.28
3917	19.8	5.25	0.	29.822
3918	19.8	5.4	5.e-002	5.6662
3919	20.25	5.4	0.	30.88
3920	20.1	5.25	0.	31.635
3921	20.1	5.4	5.e-002	5.6407
3922	20.55	5.4	0.	32.625
3923	20.4	5.25	0.	33.631
3924	20.4	5.4	5.e-002	5.6177
3925	20.85	5.4	0.	34.531
3926	20.7	5.25	0.	35.835
3927	20.7	5.4	5.e-002	5.5975
3928	21.15	5.4	0.	36.619
3929	21.	5.25	0.	38.273
3930	21.	5.4	5.e-002	5.5804
3931	21.45	5.4	0.	38.918
3932	21.3	5.25	0.	40.984
3933	21.3	5.4	5.e-002	5.5666
3934	21.75	5.4	0.	41.466
3935	21.6	5.25	0.	44.015
3936	21.6	5.4	5.e-002	5.5563
3937	22.05	5.4	0.	44.325
3938	21.9	5.25	0.	47.436
3939	21.9	5.4	5.e-002	5.5498
3940	22.35	5.4	0.	47.592
3941	22.2	5.25	0.	51.351
3942	22.2	5.4	5.e-002	5.5472
3943	22.65	5.4	0.	51.444
3944	22.5	5.25	0.	55.921
3945	22.5	5.4	5.e-002	5.5487
3946	22.95	5.4	0.	56.198
3947	22.8	5.25	0.	61.427
3948	22.8	5.4	5.e-002	5.5554
3949	23.25	5.4	0.	62.606
3950	23.1	5.25	0.	68.298
3951	23.1	5.4	5.e-002	5.5714
3952	23.55	5.4	0.	71.8
3953	23.4	5.25	0.	77.56
3954	23.4	5.4	5.e-002	5.6541
3955	23.7	5.25	0.	89.797
3956	23.7	5.4	5.e-002	5.9195
3957	23.85	5.4	0.	82.634
3958	0.45	5.1	0.	344.84
3959	0.3	4.95	0.	949.
3960	0.3	5.1	5.e-002	38.721
3961	0.15	5.1	0.	-1245.5
3962	0.75	5.1	0.	-83.589
3963	0.6	4.95	0.	-233.1
3964	0.6	5.1	5.e-002	44.953
3965	1.05	5.1	0.	23.667
3966	0.9	4.95	0.	58.868
3967	0.9	5.1	5.e-002	34.472
3968	1.35	5.1	0.	-2.8837
3969	1.2	4.95	0.	-11.764
3970	1.2	5.1	5.e-002	29.014
3971	1.65	5.1	0.	2.8751
3972	1.5	4.95	0.	5.0905
3973	1.5	5.1	5.e-002	24.545
3974	1.95	5.1	0.	0.92439
3975	1.8	4.95	0.	0.54275
3976	1.8	5.1	5.e-002	21.277
3977	2.25	5.1	0.	0.99204
3978	2.1	4.95	0.	1.2595
3979	2.1	5.1	5.e-002	18.84
3980	2.55	5.1	0.	0.68526
3981	2.4	4.95	0.	0.78375
3982	2.4	5.1	5.e-002	16.973
3983	2.85	5.1	0.	0.55275
3984	2.7	4.95	0.	0.67419
3985	2.7	5.1	5.e-002	15.487
3986	3.15	5.1	0.	0.4346
3987	3.	4.95	0.	0.53232
3988	3.	5.1	5.e-002	14.274
3989	3.45	5.1	0.	0.35198
3990	3.3	4.95	0.	0.43939
3991	3.3	5.1	5.e-002	13.264
3992	3.75	5.1	0.	0.28784
3993	3.6	4.95	0.	0.36393
3994	3.6	5.1	5.e-002	12.411
3995	4.05	5.1	0.	0.23832
3996	3.9	4.95	0.	0.30535
3997	3.9	5.1	5.e-002	11.687
3998	4.35	5.1	0.	0.19896
3999	4.2	4.95	0.	0.25803
4000	4.2	5.1	5.e-002	11.071
4001	4.65	5.1	0.	0.16718
4002	4.5	4.95	0.	0.21937
4003	4.5	5.1	5.e-002	10.545
4004	4.95	5.1	0.	0.14105
4005	4.8	4.95	0.	0.18722
4006	4.8	5.1	5.e-002	10.096
4007	5.25	5.1	0.	0.11928
4008	5.1	4.95	0.	0.16015
4009	5.1	5.1	5.e-002	9.7124
4010	5.55	5.1	0.	0.10092
4011	5.4	4.95	0.	0.13712
4012	5.4	5.1	5.e-002	9.3847
4013	5.85	5.1	0.	8.5299e-002
4014	5.7	4.95	0.	0.11736
4015	5.7	5.1	5.e-002	9.1039
4016	6.15	5.1	0.	7.1905e-002
4017	6.	4.95	0.	0.1003
4018	6.	5.1	5.e-002	8.8626
4019	6.45	5.1	0.	6.036e-002
4020	6.3	4.95	0.	8.5519e-002
4021	6.3	5.1	5.e-002	8.6543
4022	6.75	5.1	0.	5.0369e-002
4023	6.6	4.95	0.	7.2659e-002
4024	6.6	5.1	5.e-002	8.4737
4025	7.05	5.1	0.	4.1697e-002
4026	6.9	4.95	0.	6.145e-002
4027	6.9	5.1	5.e-002	8.3159
4028	7.35	5.1	0.	3.4158e-002
4029	7.2	4.95	0.	5.1666e-002
4030	7.2	5.1	5.e-002	8.177
4031	7.65	5.1	0.	2.7597e-002
4032	7.5	4.95	0.	4.3122e-002
4033	7.5	5.1	5.e-002	8.0539
4034	7.95	5.1	0.	2.1887e-002
4035	7.8	4.95	0.	3.5661e-002
4036	7.8	5.1	5.e-002	7.9437
4037	8.25	5.1	0.	1.6923e-002
4038	8.1	4.95	0.	2.9149e-002
4039	8.1	5.1	5.e-002	7.8443
4040	8.55	5.1	0.	1.2618e-002
4041	8.4	4.95	0.	2.3477e-002
4042	8.4	5.1	5.e-002	7.7537
4043	8.85	5.1	0.	8.9017e-003
4044	8.7	4.95	0.	1.8548e-002
4045	8.7	5.1	5.e-002	7.6704
4046	9.15	5.1	0.	5.7198e-003
4047	9.	4.95	0.	1.4285e-002
4048	9.	5.1	5.e-002	7.5932
4049	9.45	5.1	0.	3.0386e-003
4050	9.3	4.95	0.	1.0629e-002
4051	9.3	5.1	5.e-002	7.5211
4052	9.75	5.1	0.	8.5502e-004
4053	9.6	4.95	0.	7.539e-003
4054	9.6	5.1	5.e-002	7.4531
4055	10.05	5.1	0.	-7.7931e-004
4056	9.9	4.95	0.	5.0065e-003
4057	9.9	5.1	5.e-002	7.3886
4058	10.35	5.1	0.	-1.6764e-003
4059	10.2	4.95	0.	3.0727e-003
4060	10.2	5.1	5.e-002	7.3271
4061	10.65	5.1	0.	-1.1789e-003
4062	10.5	4.95	0.	1.8999e-003
4063	10.5	5.1	5.e-002	7.2681
4064	10.95	5.1	0.	4.1853e-003
4065	10.8	4.95	0.	2.0191e-003
4066	10.8	5.1	5.e-002	7.211
4067	11.25	5.1	0.	0.17893
4068	11.1	4.95	0.	5.6895e-003
4069	11.1	5.1	5.e-002	7.1558
4070	11.55	5.1	0.	1.8232
4071	11.4	4.95	0.	4.1906e-002
4072	11.4	5.1	5.e-002	7.1021
4073	11.85	5.1	0.	3.3958
4074	11.7	4.95	0.	1.284
4075	11.7	5.1	5.e-002	7.0496
4076	12.15	5.1	0.	4.8127
4077	12.	4.95	0.	2.9264
4078	12.	5.1	5.e-002	6.9983
4079	12.45	5.1	0.	6.0927
4080	12.3	4.95	0.	4.4103
4081	12.3	5.1	5.e-002	6.9478
4082	12.75	5.1	0.	7.2546
4083	12.6	4.95	0.	5.751
4084	12.6	5.1	5.e-002	6.8982
4085	13.05	5.1	0.	8.316
4086	12.9	4.95	0.	6.9682
4087	12.9	5.1	5.e-002	6.8493
4088	13.35	5.1	0.	9.2924
4089	13.2	4.95	0.	8.0803
4090	13.2	5.1	5.e-002	6.8011
4091	13.65	5.1	0.	10.198
4092	13.5	4.95	0.	9.1042
4093	13.5	5.1	5.e-002	6.7534
4094	13.95	5.1	0.	11.047
4095	13.8	4.95	0.	10.055
4096	13.8	5.1	5.e-002	6.7063
4097	14.25	5.1	0.	11.85
4098	14.1	4.95	0.	10.948
4099	14.1	5.1	5.e-002	6.6596
4100	14.55	5.1	0.	12.618
4101	14.4	4.95	0.	11.794
4102	14.4	5.1	5.e-002	6.6133
4103	14.85	5.1	0.	13.363
4104	14.7	4.95	0.	12.608
4105	14.7	5.1	5.e-002	6.5674
4106	15.15	5.1	0.	14.095
4107	15.	4.95	0.	13.4
4108	15.	5.1	5.e-002	6.5219
4109	15.45	5.1	0.	14.823
4110	15.3	4.95	0.	14.181
4111	15.3	5.1	5.e-002	6.4768
4112	15.75	5.1	0.	15.556
4113	15.6	4.95	0.	14.963
4114	15.6	5.1	5.e-002	6.4322
4115	16.05	5.1	0.	16.304
4116	15.9	4.95	0.	15.755
4117	15.9	5.1	5.e-002	6.3879
4118	16.35	5.1	0.	17.077
4119	16.2	4.95	0.	16.569
4120	16.2	5.1	5.e-002	6.3439
4121	16.65	5.1	0.	17.884
4122	16.5	4.95	0.	17.416
4123	16.5	5.1	5.e-002	6.3005
4124	16.95	5.1	0.	18.734
4125	16.8	4.95	0.	18.306
4126	16.8	5.1	5.e-002	6.2575
4127	17.25	5.1	0.	19.639
4128	17.1	4.95	0.	19.252
4129	17.1	5.1	5.e-002	6.215
4130	17.55	5.1	0.	20.609
4131	17.4	4.95	0.	20.266
4132	17.4	5.1	5.e-002	6.1731
4133	17.85	5.1	0.	21.655
4134	17.7	4.95	0.	21.36
4135	17.7	5.1	5.e-002	6.1318
4136	18.15	5.1	0.	22.791
4137	18.	4.95	0.	22.55
4138	18.	5.1	5.e-002	6.0912
4139	18.45	5.1	0.	24.029
4140	18.3	4.95	0.	23.85
4141	18.3	5.1	5.e-002	6.0514
4142	18.75	5.1	0.	25.385
4143	18.6	4.95	0.	25.276
4144	18.6	5.1	5.e-002	6.0125
4145	19.05	5.1	0.	26.873
4146	18.9	4.95	0.	26.848
4147	18.9	5.1	5.e-002	5.9746
4148	19.35	5.1	0.	28.512
4149	19.2	4.95	0.	28.586
4150	19.2	5.1	5.e-002	5.9378
4151	19.65	5.1	0.	30.321
4152	19.5	4.95	0.	30.511
4153	19.5	5.1	5.e-002	5.9024
4154	19.95	5.1	0.	32.322
4155	19.8	4.95	0.	32.649
4156	19.8	5.1	5.e-002	5.8684
4157	20.25	5.1	0.	34.54
4158	20.1	4.95	0.	35.03
4159	20.1	5.1	5.e-002	5.836
4160	20.55	5.1	0.	37.005
4161	20.4	4.95	0.	37.686
4162	20.4	5.1	5.e-002	5.8056
4163	20.85	5.1	0.	39.752
4164	20.7	4.95	0.	40.657
4165	20.7	5.1	5.e-002	5.7771
4166	21.15	5.1	0.	42.827
4167	21.	4.95	0.	43.992
4168	21.	5.1	5.e-002	5.751
4169	21.45	5.1	0.	46.286
4170	21.3	4.95	0.	47.75
4171	21.3	5.1	5.e-002	5.7275
4172	21.75	5.1	0.	50.208
4173	21.6	4.95	0.	52.009
4174	21.6	5.1	5.e-002	5.7067
4175	22.05	5.1	0.	54.707
4176	21.9	4.95	0.	56.874
4177	21.9	5.1	5.e-002	5.6891
4178	22.35	5.1	0.	59.947
4179	22.2	4.95	0.	62.492
4180	22.2	5.1	5.e-002	5.6753
4181	22.65	5.1	0.	66.19
4182	22.5	4.95	0.	69.068
4183	22.5	5.1	5.e-002	5.6666
4184	22.95	5.1	0.	73.817
4185	22.8	4.95	0.	76.918
4186	22.8	5.1	5.e-002	5.6679
4187	23.25	5.1	0.	83.506
4188	23.1	4.95	0.	86.422
4189	23.1	5.1	5.e-002	5.6886
4190	23.55	5.1	0.	95.734
4191	23.4	4.95	0.	98.341
4192	23.4	5.1	5.e-002	5.7656
4193	23.7	4.95	0.	112.44
4194	23.7	5.1	5.e-002	5.9467
4195	23.85	5.1	0.	108.39
4196	0.45	4.8	0.	370.97
4197	0.3	4.65	0.	1002.1
4198	0.3	4.8	5.e-002	29.486
4199	0.15	4.8	0.	-1330.5
4200	0.75	4.8	0.	-90.544
4201	0.6	4.65	0.	-245.74
4202	0.6	4.8	5.e-002	41.29
4203	1.05	4.8	0.	23.515
4204	0.9	4.65	0.	60.201
4205	0.9	4.8	5.e-002	29.593
4206	1.35	4.8	0.	-3.7282
4207	1.2	4.65	0.	-13.369
4208	1.2	4.8	5.e-002	26.253
4209	1.65	4.8	0.	2.8053
4210	1.5	4.65	0.	4.8029
4211	1.5	4.8	5.e-002	22.841
4212	1.95	4.8	0.	0.915
4213	1.8	4.65	0.	0.26443
4214	1.8	4.8	5.e-002	20.276
4215	2.25	4.8	0.	1.0809
4216	2.1	4.65	0.	1.1673
4217	2.1	4.8	5.e-002	18.153
4218	2.55	4.8	0.	0.79673
4219	2.4	4.65	0.	0.74584
4220	2.4	4.8	5.e-002	16.438
4221	2.85	4.8	0.	0.67343
4222	2.7	4.65	0.	0.67547
4223	2.7	4.8	5.e-002	15.025
4224	3.15	4.8	0.	0.55337
4225	3.	4.65	0.	0.55143
4226	3.	4.8	5.e-002	13.856
4227	3.45	4.8	0.	0.46487
4228	3.3	4.65	0.	0.46801
4229	3.3	4.8	5.e-002	12.88
4230	3.75	4.8	0.	0.39277
4231	3.6	4.65	0.	0.39656
4232	3.6	4.8	5.e-002	12.061
4233	4.05	4.8	0.	0.3346
4234	3.9	4.65	0.	0.33906
4235	3.9	4.8	5.e-002	11.373
4236	4.35	4.8	0.	0.28649
4237	4.2	4.65	0.	0.2911
4238	4.2	4.8	5.e-002	10.793
4239	4.65	4.8	0.	0.24623
4240	4.5	4.65	0.	0.25086
4241	4.5	4.8	5.e-002	10.304
4242	4.95	4.8	0.	0.21211
4243	4.8	4.65	0.	0.21664
4244	4.8	4.8	5.e-002	9.89
4245	5.25	4.8	0.	0.18291
4246	5.1	4.65	0.	0.1873
4247	5.1	4.8	5.e-002	9.5396
4248	5.55	4.8	0.	0.15774
4249	5.4	4.65	0.	0.16197
4250	5.4	4.8	5.e-002	9.2419
4251	5.85	4.8	0.	0.13593
4252	5.7	4.65	0.	0.13997
4253	5.7	4.8	5.e-002	8.9879
4254	6.15	4.8	0.	0.11695
4255	6.	4.65	0.	0.12081
4256	6.	4.8	5.e-002	8.77
4257	6.45	4.8	0.	0.10038
4258	6.3	4.65	0.	0.10408
4259	6.3	4.8	5.e-002	8.5819
4260	6.75	4.8	0.	8.5909e-002
4261	6.6	4.65	0.	8.9444e-002
4262	6.6	4.8	5.e-002	8.4184
4263	7.05	4.8	0.	7.3244e-002
4264	6.9	4.65	0.	7.6628e-002
4265	6.9	4.8	5.e-002	8.2752
4266	7.35	4.8	0.	6.2158e-002
4267	7.2	4.65	0.	6.5402e-002
4268	7.2	4.8	5.e-002	8.1485
4269	7.65	4.8	0.	5.2454e-002
4270	7.5	4.65	0.	5.5568e-002
4271	7.5	4.8	5.e-002	8.0355
4272	7.95	4.8	0.	4.3963e-002
4273	7.8	4.65	0.	4.6959e-002
4274	7.8	4.8	5.e-002	7.9338
4275	8.25	4.8	0.	3.6541e-002
4276	8.1	4.65	0.	3.9426e-002
4277	8.1	4.8	5.e-002	7.8413
4278	8.55	4.8	0.	3.0064e-002
4279	8.4	4.65	0.	3.2846e-002
4280	8.4	4.8	5.e-002	7.7565
4281	8.85	4.8	0.	2.4427e-002
4282	8.7	4.65	0.	2.7107e-002
4283	8.7	4.8	5.e-002	7.678
4284	9.15	4.8	0.	1.9541e-002
4285	9.	4.65	0.	2.2118e-002
4286	9.	4.8	5.e-002	7.6047
4287	9.45	4.8	0.	1.5336e-002
4288	9.3	4.65	0.	1.7802e-002
4289	9.3	4.8	5.e-002	7.5358
4290	9.75	4.8	0.	1.1762e-002
4291	9.6	4.65	0.	1.4097e-002
4292	9.6	4.8	5.e-002	7.4705
4293	10.05	4.8	0.	8.7984e-003
4294	9.9	4.65	0.	1.0961e-002
4295	9.9	4.8	5.e-002	7.4082
4296	10.35	4.8	0.	6.4698e-003
4297	10.2	4.65	0.	8.3769e-003
4298	10.2	4.8	5.e-002	7.3484
4299	10.65	4.8	0.	4.9069e-003
4300	10.5	4.65	0.	6.3722e-003
4301	10.5	4.8	5.e-002	7.2908
4302	10.95	4.8	0.	4.5295e-003
4303	10.8	4.65	0.	5.069e-003
4304	10.8	4.8	5.e-002	7.235
4305	11.25	4.8	0.	6.9572e-003
4306	11.1	4.65	0.	4.8474e-003
4307	11.1	4.8	5.e-002	7.1808
4308	11.55	4.8	0.	2.541e-002
4309	11.4	4.65	0.	7.1142e-003
4310	11.4	4.8	5.e-002	7.1278
4311	11.85	4.8	0.	0.88595
4312	11.7	4.65	0.	2.2019e-002
4313	11.7	4.8	5.e-002	7.076
4314	12.15	4.8	0.	2.5872
4315	12.	4.65	0.	0.7341
4316	12.	4.8	5.e-002	7.0251
4317	12.45	4.8	0.	4.133
4318	12.3	4.65	0.	2.4603
4319	12.3	4.8	5.e-002	6.975
4320	12.75	4.8	0.	5.5305
4321	12.6	4.65	0.	4.0353
4322	12.6	4.8	5.e-002	6.9257
4323	13.05	4.8	0.	6.8003
4324	12.9	4.65	0.	5.461
4325	12.9	4.8	5.e-002	6.877
4326	13.35	4.8	0.	7.9616
4327	13.2	4.65	0.	6.7582
4328	13.2	4.8	5.e-002	6.8289
4329	13.65	4.8	0.	9.0325
4330	13.5	4.65	0.	7.9469
4331	13.5	4.8	5.e-002	6.7812
4332	13.95	4.8	0.	10.029
4333	13.8	4.65	0.	9.0459
4334	13.8	4.8	5.e-002	6.734
4335	14.25	4.8	0.	10.967
4336	14.1	4.65	0.	10.072
4337	14.1	4.8	5.e-002	6.6873
4338	14.55	4.8	0.	11.861
4339	14.4	4.65	0.	11.042
4340	14.4	4.8	5.e-002	6.6409
4341	14.85	4.8	0.	12.723
4342	14.7	4.65	0.	11.97
4343	14.7	4.8	5.e-002	6.5949
4344	15.15	4.8	0.	13.566
4345	15.	4.65	0.	12.87
4346	15.	4.8	5.e-002	6.5492
4347	15.45	4.8	0.	14.403
4348	15.3	4.65	0.	13.757
4349	15.3	4.8	5.e-002	6.5038
4350	15.75	4.8	0.	15.246
4351	15.6	4.65	0.	14.642
4352	15.6	4.8	5.e-002	6.4588
4353	16.05	4.8	0.	16.106
4354	15.9	4.65	0.	15.541
4355	15.9	4.8	5.e-002	6.4142
4356	16.35	4.8	0.	16.997
4357	16.2	4.65	0.	16.465
4358	16.2	4.8	5.e-002	6.3699
4359	16.65	4.8	0.	17.929
4360	16.5	4.65	0.	17.429
4361	16.5	4.8	5.e-002	6.326
4362	16.95	4.8	0.	18.918
4363	16.8	4.65	0.	18.446
4364	16.8	4.8	5.e-002	6.2825
4365	17.25	4.8	0.	19.975
4366	17.1	4.65	0.	19.531
4367	17.1	4.8	5.e-002	6.2395
4368	17.55	4.8	0.	21.116
4369	17.4	4.65	0.	20.7
4370	17.4	4.8	5.e-002	6.1969
4371	17.85	4.8	0.	22.356
4372	17.7	4.65	0.	21.97
4373	17.7	4.8	5.e-002	6.155
4374	18.15	4.8	0.	23.712
4375	18.	4.65	0.	23.359
4376	18.	4.8	5.e-002	6.1136
4377	18.45	4.8	0.	25.204
4378	18.3	4.65	0.	24.887
4379	18.3	4.8	5.e-002	6.0729
4380	18.75	4.8	0.	26.851
4381	18.6	4.65	0.	26.576
4382	18.6	4.8	5.e-002	6.033
4383	19.05	4.8	0.	28.675
4384	18.9	4.65	0.	28.45
4385	18.9	4.8	5.e-002	5.9941
4386	19.35	4.8	0.	30.703
4387	19.2	4.65	0.	30.537
4388	19.2	4.8	5.e-002	5.9561
4389	19.65	4.8	0.	32.963
4390	19.5	4.65	0.	32.866
4391	19.5	4.8	5.e-002	5.9194
4392	19.95	4.8	0.	35.486
4393	19.8	4.65	0.	35.473
4394	19.8	4.8	5.e-002	5.884
4395	20.25	4.8	0.	38.31
4396	20.1	4.65	0.	38.396
4397	20.1	4.8	5.e-002	5.8502
4398	20.55	4.8	0.	41.479
4399	20.4	4.65	0.	41.68
4400	20.4	4.8	5.e-002	5.8182
4401	20.85	4.8	0.	45.044
4402	20.7	4.65	0.	45.38
4403	20.7	4.8	5.e-002	5.7882
4404	21.15	4.8	0.	49.069
4405	21.	4.65	0.	49.557
4406	21.	4.8	5.e-002	5.7606
4407	21.45	4.8	0.	53.635
4408	21.3	4.65	0.	54.29
4409	21.3	4.8	5.e-002	5.7357
4410	21.75	4.8	0.	58.844
4411	21.6	4.65	0.	59.674
4412	21.6	4.8	5.e-002	5.7141
4413	22.05	4.8	0.	64.834
4414	21.9	4.65	0.	65.83
4415	21.9	4.8	5.e-002	5.6965
4416	22.35	4.8	0.	71.791
4417	22.2	4.65	0.	72.915
4418	22.2	4.8	5.e-002	5.6844
4419	22.65	4.8	0.	79.97
4420	22.5	4.65	0.	81.13
4421	22.5	4.8	5.e-002	5.68
4422	22.95	4.8	0.	89.679
4423	22.8	4.65	0.	90.74
4424	22.8	4.8	5.e-002	5.6894
4425	23.25	4.8	0.	101.38
4426	23.1	4.65	0.	102.
4427	23.1	4.8	5.e-002	5.7197
4428	23.55	4.8	0.	115.13
4429	23.4	4.65	0.	115.41
4430	23.4	4.8	5.e-002	5.7973
4431	23.7	4.65	0.	130.36
4432	23.7	4.8	5.e-002	5.9329
4433	23.85	4.8	0.	128.61
4434	0.45	4.5	0.	385.33
4435	0.3	4.35	0.	1034.6
4436	0.3	4.5	5.e-002	24.326
4437	0.15	4.5	0.	-1385.5
4438	0.75	4.5	0.	-94.982
4439	0.6	4.35	0.	-253.88
4440	0.6	4.5	5.e-002	41.21
4441	1.05	4.5	0.	23.346
4442	0.9	4.35	0.	61.415
4443	0.9	4.5	5.e-002	28.027
4444	1.35	4.5	0.	-4.811
4445	1.2	4.35	0.	-14.625
4446	1.2	4.5	5.e-002	24.985
4447	1.65	4.5	0.	2.2842
4448	1.5	4.35	0.	4.3504
4449	1.5	4.5	5.e-002	21.632
4450	1.95	4.5	0.	0.53481
4451	1.8	4.35	0.	-0.14504
4452	1.8	4.5	5.e-002	19.337
4453	2.25	4.5	0.	0.84696
4454	2.1	4.35	0.	0.93281
4455	2.1	4.5	5.e-002	17.397
4456	2.55	4.5	0.	0.6366
4457	2.4	4.35	0.	0.59014
4458	2.4	4.5	5.e-002	15.806
4459	2.85	4.5	0.	0.56339
4460	2.7	4.35	0.	0.57849
4461	2.7	4.5	5.e-002	14.475
4462	3.15	4.5	0.	0.47433
4463	3.	4.35	0.	0.48932
4464	3.	4.5	5.e-002	13.366
4465	3.45	4.5	0.	0.40661
4466	3.3	4.35	0.	0.42854
4467	3.3	4.5	5.e-002	12.441
4468	3.75	4.5	0.	0.34865
4469	3.6	4.35	0.	0.37139
4470	3.6	4.5	5.e-002	11.67
4471	4.05	4.5	0.	0.30047
4472	3.9	4.35	0.	0.32311
4473	3.9	4.5	5.e-002	11.028
4474	4.35	4.5	0.	0.25962
4475	4.2	4.35	0.	0.28112
4476	4.2	4.5	5.e-002	10.492
4477	4.65	4.5	0.	0.22479
4478	4.5	4.35	0.	0.24476
4479	4.5	4.5	5.e-002	10.044
4480	4.95	4.5	0.	0.19483
4481	4.8	4.35	0.	0.2131
4482	4.8	4.5	5.e-002	9.6686
4483	5.25	4.5	0.	0.1689
4484	5.1	4.35	0.	0.18546
4485	5.1	4.5	5.e-002	9.3528
4486	5.55	4.5	0.	0.14636
4487	5.4	4.35	0.	0.16127
4488	5.4	4.5	5.e-002	9.0856
4489	5.85	4.5	0.	0.1267
4490	5.7	4.35	0.	0.14007
4491	5.7	4.5	5.e-002	8.8581
4492	6.15	4.5	0.	0.10951
4493	6.	4.35	0.	0.12148
4494	6.	4.5	5.e-002	8.6629
4495	6.45	4.5	0.	9.4455e-002
4496	6.3	4.35	0.	0.10515
4497	6.3	4.5	5.e-002	8.494
4498	6.75	4.5	0.	8.1268e-002
4499	6.6	4.35	0.	9.0825e-002
4500	6.6	4.5	5.e-002	8.3466
4501	7.05	4.5	0.	6.971e-002
4502	6.9	4.35	0.	7.8249e-002
4503	6.9	4.5	5.e-002	8.2167
4504	7.35	4.5	0.	5.9579e-002
4505	7.2	4.35	0.	6.7215e-002
4506	7.2	4.5	5.e-002	8.101
4507	7.65	4.5	0.	5.0703e-002
4508	7.5	4.35	0.	5.7539e-002
4509	7.5	4.5	5.e-002	7.9971
4510	7.95	4.5	0.	4.2932e-002
4511	7.8	4.35	0.	4.9059e-002
4512	7.8	4.5	5.e-002	7.9028
4513	8.25	4.5	0.	3.6135e-002
4514	8.1	4.35	0.	4.1633e-002
4515	8.1	4.5	5.e-002	7.8164
4516	8.55	4.5	0.	3.0198e-002
4517	8.4	4.35	0.	3.514e-002
4518	8.4	4.5	5.e-002	7.7366
4519	8.85	4.5	0.	2.5025e-002
4520	8.7	4.35	0.	2.947e-002
4521	8.7	4.5	5.e-002	7.6621
4522	9.15	4.5	0.	2.0532e-002
4523	9.	4.35	0.	2.4531e-002
4524	9.	4.5	5.e-002	7.5921
4525	9.45	4.5	0.	1.6648e-002
4526	9.3	4.35	0.	2.0242e-002
4527	9.3	4.5	5.e-002	7.5259
4528	9.75	4.5	0.	1.3319e-002
4529	9.6	4.35	0.	1.6536e-002
4530	9.6	4.5	5.e-002	7.4628
4531	10.05	4.5	0.	1.0507e-002
4532	9.9	4.35	0.	1.336e-002
4533	9.9	4.5	5.e-002	7.4023
4534	10.35	4.5	0.	8.1955e-003
4535	10.2	4.35	0.	1.0676e-002
4536	10.2	4.5	5.e-002	7.344
4537	10.65	4.5	0.	6.4105e-003
4538	10.5	4.35	0.	8.4696e-003
4539	10.5	4.5	5.e-002	7.2876
4540	10.95	4.5	0.	5.2603e-003
4541	10.8	4.35	0.	6.7622e-003
4542	10.8	4.5	5.e-002	7.2328
4543	11.25	4.5	0.	5.0821e-003
4544	11.1	4.35	0.	5.6572e-003
4545	11.1	4.5	5.e-002	7.1794
4546	11.55	4.5	0.	7.1044e-003
4547	11.4	4.35	0.	5.4802e-003
4548	11.4	4.5	5.e-002	7.1271
4549	11.85	4.5	0.	1.9789e-002
4550	11.7	4.35	0.	7.4589e-003
4551	11.7	4.5	5.e-002	7.0758
4552	12.15	4.5	0.	0.66911
4553	12.	4.35	0.	2.0897e-002
4554	12.	4.5	5.e-002	7.0253
4555	12.45	4.5	0.	2.425
4556	12.3	4.35	0.	0.80191
4557	12.3	4.5	5.e-002	6.9756
4558	12.75	4.5	0.	4.0304
4559	12.6	4.35	0.	2.5653
4560	12.6	4.5	5.e-002	6.9266
4561	13.05	4.5	0.	5.4856
4562	12.9	4.35	0.	4.172
4563	12.9	4.5	5.e-002	6.8781
4564	13.35	4.5	0.	6.812
4565	13.2	4.35	0.	5.6307
4566	13.2	4.5	5.e-002	6.8301
4567	13.65	4.5	0.	8.0307
4568	13.5	4.35	0.	6.9639
4569	13.5	4.5	5.e-002	6.7826
4570	13.95	4.5	0.	9.161
4571	13.8	4.35	0.	8.1926
4572	13.8	4.5	5.e-002	6.7355
4573	14.25	4.5	0.	10.221
4574	14.1	4.35	0.	9.3369
4575	14.1	4.5	5.e-002	6.6888
4576	14.55	4.5	0.	11.227
4577	14.4	4.35	0.	10.415
4578	14.4	4.5	5.e-002	6.6425
4579	14.85	4.5	0.	12.195
4580	14.7	4.35	0.	11.444
4581	14.7	4.5	5.e-002	6.5964
4582	15.15	4.5	0.	13.14
4583	15.	4.35	0.	12.441
4584	15.	4.5	5.e-002	6.5507
4585	15.45	4.5	0.	14.077
4586	15.3	4.35	0.	13.422
4587	15.3	4.5	5.e-002	6.5053
4588	15.75	4.5	0.	15.021
4589	15.6	4.35	0.	14.401
4590	15.6	4.5	5.e-002	6.4602
4591	16.05	4.5	0.	15.985
4592	15.9	4.35	0.	15.394
4593	15.9	4.5	5.e-002	6.4155
4594	16.35	4.5	0.	16.984
4595	16.2	4.35	0.	16.418
4596	16.2	4.5	5.e-002	6.371
4597	16.65	4.5	0.	18.034
4598	16.5	4.35	0.	17.487
4599	16.5	4.5	5.e-002	6.3269
4600	16.95	4.5	0.	19.151
4601	16.8	4.35	0.	18.619
4602	16.8	4.5	5.e-002	6.2832
4603	17.25	4.5	0.	20.35
4604	17.1	4.35	0.	19.831
4605	17.1	4.5	5.e-002	6.2399
4606	17.55	4.5	0.	21.651
4607	17.4	4.35	0.	21.141
4608	17.4	4.5	5.e-002	6.197
4609	17.85	4.5	0.	23.072
4610	17.7	4.35	0.	22.57
4611	17.7	4.5	5.e-002	6.1546
4612	18.15	4.5	0.	24.635
4613	18.	4.35	0.	24.141
4614	18.	4.5	5.e-002	6.1128
4615	18.45	4.5	0.	26.363
4616	18.3	4.35	0.	25.876
4617	18.3	4.5	5.e-002	6.0717
4618	18.75	4.5	0.	28.282
4619	18.6	4.35	0.	27.804
4620	18.6	4.5	5.e-002	6.0313
4621	19.05	4.5	0.	30.421
4622	18.9	4.35	0.	29.953
4623	18.9	4.5	5.e-002	5.9917
4624	19.35	4.5	0.	32.812
4625	19.2	4.35	0.	32.357
4626	19.2	4.5	5.e-002	5.9531
4627	19.65	4.5	0.	35.492
4628	19.5	4.35	0.	35.054
4629	19.5	4.5	5.e-002	5.9156
4630	19.95	4.5	0.	38.501
4631	19.8	4.35	0.	38.085
4632	19.8	4.5	5.e-002	5.8795
4633	20.25	4.5	0.	41.888
4634	20.1	4.35	0.	41.498
4635	20.1	4.5	5.e-002	5.8449
4636	20.55	4.5	0.	45.707
4637	20.4	4.35	0.	45.349
4638	20.4	4.5	5.e-002	5.8122
4639	20.85	4.5	0.	50.022
4640	20.7	4.35	0.	49.7
4641	20.7	4.5	5.e-002	5.7816
4642	21.15	4.5	0.	54.91
4643	21.	4.35	0.	54.625
4644	21.	4.5	5.e-002	5.7536
4645	21.45	4.5	0.	60.463
4646	21.3	4.35	0.	60.21
4647	21.3	4.5	5.e-002	5.7289
4648	21.75	4.5	0.	66.794
4649	21.6	4.35	0.	66.559
4650	21.6	4.5	5.e-002	5.7081
4651	22.05	4.5	0.	74.043
4652	21.9	4.35	0.	73.793
4653	21.9	4.5	5.e-002	5.6925
4654	22.35	4.5	0.	82.38
4655	22.2	4.35	0.	82.058
4656	22.2	4.5	5.e-002	5.684
4657	22.65	4.5	0.	92.015
4658	22.5	4.35	0.	91.522
4659	22.5	4.5	5.e-002	5.6855
4660	22.95	4.5	0.	103.16
4661	22.8	4.35	0.	102.38
4662	22.8	4.5	5.e-002	5.7023
4663	23.25	4.5	0.	116.1
4664	23.1	4.35	0.	114.78
4665	23.1	4.5	5.e-002	5.7392
4666	23.55	4.5	0.	130.69
4667	23.4	4.35	0.	129.07
4668	23.4	4.5	5.e-002	5.8153
4669	23.7	4.35	0.	144.47
4670	23.7	4.5	5.e-002	5.9253
4671	23.85	4.5	0.	144.62
4672	0.45	4.2	0.	395.29
4673	0.3	4.05	0.	1056.
4674	0.3	4.2	5.e-002	20.573
4675	0.15	4.2	0.	-1421.2
4676	0.75	4.2	0.	-97.484
4677	0.6	4.05	0.	-258.9
4678	0.6	4.2	5.e-002	41.367
4679	1.05	4.2	0.	23.456
4680	0.9	4.05	0.	62.412
4681	0.9	4.2	5.e-002	28.016
4682	1.35	4.2	0.	-5.4507
4683	1.2	4.05	0.	-15.361
4684	1.2	4.2	5.e-002	24.943
4685	1.65	4.2	0.	1.9329
4686	1.5	4.05	0.	4.041
4687	1.5	4.2	5.e-002	21.216
4688	1.95	4.2	0.	0.26315
4689	1.8	4.05	0.	-0.45584
4690	1.8	4.2	5.e-002	18.793
4691	2.25	4.2	0.	0.6846
4692	2.1	4.05	0.	0.73887
4693	2.1	4.2	5.e-002	16.808
4694	2.55	4.2	0.	0.53924
4695	2.4	4.05	0.	0.46297
4696	2.4	4.2	5.e-002	15.227
4697	2.85	4.2	0.	0.51046
4698	2.7	4.05	0.	0.50338
4699	2.7	4.2	5.e-002	13.927
4700	3.15	4.2	0.	0.4486
4701	3.	4.05	0.	0.44735
4702	3.	4.2	5.e-002	12.86
4703	3.45	4.2	0.	0.39759
4704	3.3	4.05	0.	0.408
4705	3.3	4.2	5.e-002	11.983
4706	3.75	4.2	0.	0.34946
4707	3.6	4.05	0.	0.364
4708	3.6	4.2	5.e-002	11.262
4709	4.05	4.2	0.	0.30682
4710	3.9	4.05	0.	0.32355
4711	3.9	4.2	5.e-002	10.67
4712	4.35	4.2	0.	0.26884
4713	4.2	4.05	0.	0.28598
4714	4.2	4.2	5.e-002	10.183
4715	4.65	4.2	0.	0.23527
4716	4.5	4.05	0.	0.25191
4717	4.5	4.2	5.e-002	9.7802
4718	4.95	4.2	0.	0.2056
4719	4.8	4.05	0.	0.22125
4720	4.8	4.2	5.e-002	9.4459
4721	5.25	4.2	0.	0.17942
4722	5.1	4.05	0.	0.19384
4723	5.1	4.2	5.e-002	9.1663
4724	5.55	4.2	0.	0.15634
4725	5.4	4.05	0.	0.16946
4726	5.4	4.2	5.e-002	8.9307
4727	5.85	4.2	0.	0.136
4728	5.7	4.05	0.	0.14783
4729	5.7	4.2	5.e-002	8.7301
4730	6.15	4.2	0.	0.1181
4731	6.	4.05	0.	0.12871
4732	6.	4.2	5.e-002	8.5576
4733	6.45	4.2	0.	0.10234
4734	6.3	4.05	0.	0.11184
4735	6.3	4.2	5.e-002	8.4077
4736	6.75	4.2	0.	8.8495e-002
4737	6.6	4.05	0.	9.697e-002
4738	6.6	4.2	5.e-002	8.276
4739	7.05	4.2	0.	7.633e-002
4740	6.9	4.05	0.	8.3889e-002
4741	6.9	4.2	5.e-002	8.159
4742	7.35	4.2	0.	6.5651e-002
4743	7.2	4.05	0.	7.2393e-002
4744	7.2	4.2	5.e-002	8.054
4745	7.65	4.2	0.	5.6283e-002
4746	7.5	4.05	0.	6.2301e-002
4747	7.5	4.2	5.e-002	7.9587
4748	7.95	4.2	0.	4.8074e-002
4749	7.8	4.05	0.	5.345e-002
4750	7.8	4.2	5.e-002	7.8715
4751	8.25	4.2	0.	4.0886e-002
4752	8.1	4.05	0.	4.5694e-002
4753	8.1	4.2	5.e-002	7.7908
4754	8.55	4.2	0.	3.4602e-002
4755	8.4	4.05	0.	3.8907e-002
4756	8.4	4.2	5.e-002	7.7156
4757	8.85	4.2	0.	2.9114e-002
4758	8.7	4.05	0.	3.2974e-002
4759	8.7	4.2	5.e-002	7.6449
4760	9.15	4.2	0.	2.4334e-002
4761	9.	4.05	0.	2.7796e-002
4762	9.	4.2	5.e-002	7.578
4763	9.45	4.2	0.	2.0182e-002
4764	9.3	4.05	0.	2.3286e-002
4765	9.3	4.2	5.e-002	7.5142
4766	9.75	4.2	0.	1.6594e-002
4767	9.6	4.05	0.	1.937e-002
4768	9.6	4.2	5.e-002	7.4531
4769	10.05	4.2	0.	1.3515e-002
4770	9.9	4.05	0.	1.5986e-002
4771	9.9	4.2	5.e-002	7.3943
4772	10.35	4.2	0.	1.0908e-002
4773	10.2	4.05	0.	1.3081e-002
4774	10.2	4.2	5.e-002	7.3374
4775	10.65	4.2	0.	8.7548e-003
4776	10.5	4.05	0.	1.062e-002
4777	10.5	4.2	5.e-002	7.2821
4778	10.95	4.2	0.	7.0731e-003
4779	10.8	4.05	0.	8.5846e-003
4780	10.8	4.2	5.e-002	7.2282
4781	11.25	4.2	0.	5.9552e-003
4782	11.1	4.05	0.	6.9902e-003
4783	11.1	4.2	5.e-002	7.1754
4784	11.55	4.2	0.	5.7079e-003
4785	11.4	4.05	0.	5.9271e-003
4786	11.4	4.2	5.e-002	7.1237
4787	11.85	4.2	0.	7.5441e-003
4788	11.7	4.05	0.	5.7097e-003
4789	11.7	4.2	5.e-002	7.0729
4790	12.15	4.2	0.	2.2258e-002
4791	12.	4.05	0.	7.714e-003
4792	12.	4.2	5.e-002	7.0229
4793	12.45	4.2	0.	0.9956
4794	12.3	4.05	0.	3.0629e-002
4795	12.3	4.2	5.e-002	6.9735
4796	12.75	4.2	0.	2.7701
4797	12.6	4.05	0.	1.3618
4798	12.6	4.2	5.e-002	6.9248
4799	13.05	4.2	0.	4.3831
4800	12.9	4.05	0.	3.1163
4801	12.9	4.2	5.e-002	6.8765
4802	13.35	4.2	0.	5.8506
4803	13.2	4.05	0.	4.7094
4804	13.2	4.2	5.e-002	6.8287
4805	13.65	4.2	0.	7.1958
4806	13.5	4.05	0.	6.1627
4807	13.5	4.2	5.e-002	6.7813
4808	13.95	4.2	0.	8.4404
4809	13.8	4.05	0.	7.4997
4810	13.8	4.2	5.e-002	6.7344
4811	14.25	4.2	0.	9.6049
4812	14.1	4.05	0.	8.7424
4813	14.1	4.2	5.e-002	6.6877
4814	14.55	4.2	0.	10.708
4815	14.4	4.05	0.	9.9114
4816	14.4	4.2	5.e-002	6.6414
4817	14.85	4.2	0.	11.768
4818	14.7	4.05	0.	11.026
4819	14.7	4.2	5.e-002	6.5953
4820	15.15	4.2	0.	12.802
4821	15.	4.05	0.	12.104
4822	15.	4.2	5.e-002	6.5496
4823	15.45	4.2	0.	13.826
4824	15.3	4.05	0.	13.163
4825	15.3	4.2	5.e-002	6.5042
4826	15.75	4.2	0.	14.857
4827	15.6	4.05	0.	14.222
4828	15.6	4.2	5.e-002	6.459
4829	16.05	4.2	0.	15.912
4830	15.9	4.05	0.	15.296
4831	15.9	4.2	5.e-002	6.4141
4832	16.35	4.2	0.	17.008
4833	16.2	4.05	0.	16.404
4834	16.2	4.2	5.e-002	6.3696
4835	16.65	4.2	0.	18.161
4836	16.5	4.05	0.	17.563
4837	16.5	4.2	5.e-002	6.3253
4838	16.95	4.2	0.	19.39
4839	16.8	4.05	0.	18.793
4840	16.8	4.2	5.e-002	6.2814
4841	17.25	4.2	0.	20.715
4842	17.1	4.05	0.	20.113
4843	17.1	4.2	5.e-002	6.2379
4844	17.55	4.2	0.	22.156
4845	17.4	4.05	0.	21.544
4846	17.4	4.2	5.e-002	6.1948
4847	17.85	4.2	0.	23.737
4848	17.7	4.05	0.	23.11
4849	17.7	4.2	5.e-002	6.1521
4850	18.15	4.2	0.	25.482
4851	18.	4.05	0.	24.836
4852	18.	4.2	5.e-002	6.1099
4853	18.45	4.2	0.	27.419
4854	18.3	4.05	0.	26.749
4855	18.3	4.2	5.e-002	6.0684
4856	18.75	4.2	0.	29.579
4857	18.6	4.05	0.	28.881
4858	18.6	4.2	5.e-002	6.0275
4859	19.05	4.2	0.	31.996
4860	18.9	4.05	0.	31.265
4861	18.9	4.2	5.e-002	5.9874
4862	19.35	4.2	0.	34.707
4863	19.2	4.05	0.	33.941
4864	19.2	4.2	5.e-002	5.9483
4865	19.65	4.2	0.	37.757
4866	19.5	4.05	0.	36.951
4867	19.5	4.2	5.e-002	5.9103
4868	19.95	4.2	0.	41.193
4869	19.8	4.05	0.	40.343
4870	19.8	4.2	5.e-002	5.8736
4871	20.25	4.2	0.	45.072
4872	20.1	4.05	0.	44.173
4873	20.1	4.2	5.e-002	5.8385
4874	20.55	4.2	0.	49.456
4875	20.4	4.05	0.	48.501
4876	20.4	4.2	5.e-002	5.8053
4877	20.85	4.2	0.	54.417
4878	20.7	4.05	0.	53.399
4879	20.7	4.2	5.e-002	5.7744
4880	21.15	4.2	0.	60.039
4881	21.	4.05	0.	58.944
4882	21.	4.2	5.e-002	5.7466
4883	21.45	4.2	0.	66.418
4884	21.3	4.05	0.	65.228
4885	21.3	4.2	5.e-002	5.7224
4886	21.75	4.2	0.	73.666
4887	21.6	4.05	0.	72.353
4888	21.6	4.2	5.e-002	5.703
4889	22.05	4.2	0.	81.911
4890	21.9	4.05	0.	80.431
4891	21.9	4.2	5.e-002	5.6898
4892	22.35	4.2	0.	91.294
4893	22.2	4.05	0.	89.591
4894	22.2	4.2	5.e-002	5.6851
4895	22.65	4.2	0.	101.97
4896	22.5	4.05	0.	99.961
4897	22.5	4.2	5.e-002	5.6916
4898	22.95	4.2	0.	114.08
4899	22.8	4.05	0.	111.68
4900	22.8	4.2	5.e-002	5.7139
4901	23.25	4.2	0.	127.8
4902	23.1	4.05	0.	124.82
4903	23.1	4.2	5.e-002	5.7545
4904	23.55	4.2	0.	142.89
4905	23.4	4.05	0.	139.63
4906	23.4	4.2	5.e-002	5.828
4907	23.7	4.05	0.	155.3
4908	23.7	4.2	5.e-002	5.9174
4909	23.85	4.2	0.	157.09
4910	0.45	3.9	0.	401.74
4911	0.3	3.75	0.	1069.7
4912	0.3	3.9	5.e-002	17.887
4913	0.15	3.9	0.	-1445.
4914	0.75	3.9	0.	-99.014
4915	0.6	3.75	0.	-262.07
4916	0.6	3.9	5.e-002	41.376
4917	1.05	3.9	0.	23.601
4918	0.9	3.75	0.	63.131
4919	0.9	3.9	5.e-002	28.34
4920	1.35	3.9	0.	-5.8632
4921	1.2	3.75	0.	-15.792
4922	1.2	3.9	5.e-002	25.381
4923	1.65	3.9	0.	1.659
4924	1.5	3.75	0.	3.8326
4925	1.5	3.9	5.e-002	21.329
4926	1.95	3.9	0.	2.6129e-002
4927	1.8	3.75	0.	-0.68996
4928	1.8	3.9	5.e-002	18.645
4929	2.25	3.9	0.	0.5228
4930	2.1	3.75	0.	0.57451
4931	2.1	3.9	5.e-002	16.474
4932	2.55	3.9	0.	0.43193
4933	2.4	3.75	0.	0.34726
4934	2.4	3.9	5.e-002	14.799
4935	2.85	3.9	0.	0.44441
4936	2.7	3.75	0.	0.42986
4937	2.7	3.9	5.e-002	13.467
4938	3.15	3.9	0.	0.41028
4939	3.	3.75	0.	0.40327
4940	3.	3.9	5.e-002	12.407
4941	3.45	3.9	0.	0.37741
4942	3.3	3.75	0.	0.38397
4943	3.3	3.9	5.e-002	11.56
4944	3.75	3.9	0.	0.34065
4945	3.6	3.75	0.	0.35282
4946	3.6	3.9	5.e-002	10.882
4947	4.05	3.9	0.	0.30489
4948	3.9	3.75	0.	0.32031
4949	3.9	3.9	5.e-002	10.336
4950	4.35	3.9	0.	0.27089
4951	4.2	3.75	0.	0.28739
4952	4.2	3.9	5.e-002	9.8956
4953	4.65	3.9	0.	0.23947
4954	4.5	3.75	0.	0.25589
4955	4.5	3.9	5.e-002	9.5367
4956	4.95	3.9	0.	0.21083
4957	4.8	3.75	0.	0.22649
4958	4.8	3.9	5.e-002	9.2418
4959	5.25	3.9	0.	0.18502
4960	5.1	3.75	0.	0.19956
4961	5.1	3.9	5.e-002	8.9968
4962	5.55	3.9	0.	0.16192
4963	5.4	3.75	0.	0.1752
4964	5.4	3.9	5.e-002	8.7908
4965	5.85	3.9	0.	0.14137
4966	5.7	3.75	0.	0.15336
4967	5.7	3.9	5.e-002	8.6152
4968	6.15	3.9	0.	0.12315
4969	6.	3.75	0.	0.1339
4970	6.	3.9	5.e-002	8.4636
4971	6.45	3.9	0.	0.10705
4972	6.3	3.75	0.	0.11664
4973	6.3	3.9	5.e-002	8.331
4974	6.75	3.9	0.	9.2857e-002
4975	6.6	3.75	0.	0.10138
4976	6.6	3.9	5.e-002	8.2135
4977	7.05	3.9	0.	8.0364e-002
4978	6.9	3.75	0.	8.7935e-002
4979	6.9	3.9	5.e-002	8.1082
4980	7.35	3.9	0.	6.9384e-002
4981	7.2	3.75	0.	7.6102e-002
4982	7.2	3.9	5.e-002	8.0126
4983	7.65	3.9	0.	5.9746e-002
4984	7.5	3.75	0.	6.5705e-002
4985	7.5	3.9	5.e-002	7.925
4986	7.95	3.9	0.	5.1295e-002
4987	7.8	3.75	0.	5.6583e-002
4988	7.8	3.9	5.e-002	7.844
4989	8.25	3.9	0.	4.3893e-002
4990	8.1	3.75	0.	4.8587e-002
4991	8.1	3.9	5.e-002	7.7684
4992	8.55	3.9	0.	3.7415e-002
4993	8.4	3.75	0.	4.1586e-002
4994	8.4	3.9	5.e-002	7.6972
4995	8.85	3.9	0.	3.1755e-002
4996	8.7	3.75	0.	3.5463e-002
4997	8.7	3.9	5.e-002	7.6298
4998	9.15	3.9	0.	2.6816e-002
4999	9.	3.75	0.	3.0113e-002
5000	9.	3.9	5.e-002	7.5656
5001	9.45	3.9	0.	2.2515e-002
5002	9.3	3.75	0.	2.5447e-002
5003	9.3	3.9	5.e-002	7.504
5004	9.75	3.9	0.	1.878e-002
5005	9.6	3.75	0.	2.1383e-002
5006	9.6	3.9	5.e-002	7.4446
5007	10.05	3.9	0.	1.5549e-002
5008	9.9	3.75	0.	1.7854e-002
5009	9.9	3.9	5.e-002	7.3872
5010	10.35	3.9	0.	1.2773e-002
5011	10.2	3.75	0.	1.4801e-002
5012	10.2	3.9	5.e-002	7.3315
5013	10.65	3.9	0.	1.0415e-002
5014	10.5	3.75	0.	1.2175e-002
5015	10.5	3.9	5.e-002	7.2771
5016	10.95	3.9	0.	8.4553e-003
5017	10.8	3.75	0.	9.9385e-003
5018	10.8	3.9	5.e-002	7.224
5019	11.25	3.9	0.	6.9053e-003
5020	11.1	3.75	0.	8.0733e-003
5021	11.1	3.9	5.e-002	7.1719
5022	11.55	3.9	0.	5.847e-003
5023	11.4	3.75	0.	6.5868e-003
5024	11.4	3.9	5.e-002	7.1207
5025	11.85	3.9	0.	5.5923e-003
5026	11.7	3.75	0.	5.5594e-003
5027	11.7	3.9	5.e-002	7.0703
5028	12.15	3.9	0.	7.7074e-003
5029	12.	3.75	0.	5.3282e-003
5030	12.	3.9	5.e-002	7.0206
5031	12.45	3.9	0.	6.4642e-002
5032	12.3	3.75	0.	8.0726e-003
5033	12.3	3.9	5.e-002	6.9715
5034	12.75	3.9	0.	1.7684
5035	12.6	3.75	0.	0.44951
5036	12.6	3.9	5.e-002	6.923
5037	13.05	3.9	0.	3.508
5038	12.9	3.75	0.	2.3093
5039	12.9	3.9	5.e-002	6.8749
5040	13.35	3.9	0.	5.0892
5041	13.2	3.75	0.	4.0065
5042	13.2	3.9	5.e-002	6.8273
5043	13.65	3.9	0.	6.5364
5044	13.5	3.75	0.	5.5529
5045	13.5	3.9	5.e-002	6.78
5046	13.95	3.9	0.	7.8735
5047	13.8	3.75	0.	6.9738
5048	13.8	3.9	5.e-002	6.7331
5049	14.25	3.9	0.	9.1226
5050	14.1	3.75	0.	8.2929
5051	14.1	3.9	5.e-002	6.6865
5052	14.55	3.9	0.	10.305
5053	14.4	3.75	0.	9.5323
5054	14.4	3.9	5.e-002	6.6402
5055	14.85	3.9	0.	11.439
5056	14.7	3.75	0.	10.713
5057	14.7	3.9	5.e-002	6.5942
5058	15.15	3.9	0.	12.545
5059	15.	3.75	0.	11.854
5060	15.	3.9	5.e-002	6.5485
5061	15.45	3.9	0.	13.64
5062	15.3	3.75	0.	12.976
5063	15.3	3.9	5.e-002	6.503
5064	15.75	3.9	0.	14.743
5065	15.6	3.75	0.	14.096
5066	15.6	3.9	5.e-002	6.4578
5067	16.05	3.9	0.	15.873
5068	15.9	3.75	0.	15.234
5069	15.9	3.9	5.e-002	6.4128
5070	16.35	3.9	0.	17.047
5071	16.2	3.75	0.	16.408
5072	16.2	3.9	5.e-002	6.3681
5073	16.65	3.9	0.	18.284
5074	16.5	3.75	0.	17.638
5075	16.5	3.9	5.e-002	6.3238
5076	16.95	3.9	0.	19.606
5077	16.8	3.75	0.	18.945
5078	16.8	3.9	5.e-002	6.2797
5079	17.25	3.9	0.	21.035
5080	17.1	3.75	0.	20.35
5081	17.1	3.9	5.e-002	6.236
5082	17.55	3.9	0.	22.592
5083	17.4	3.75	0.	21.876
5084	17.4	3.9	5.e-002	6.1926
5085	17.85	3.9	0.	24.305
5086	17.7	3.75	0.	23.55
5087	17.7	3.9	5.e-002	6.1497
5088	18.15	3.9	0.	26.2
5089	18.	3.75	0.	25.398
5090	18.	3.9	5.e-002	6.1073
5091	18.45	3.9	0.	28.31
5092	18.3	3.75	0.	27.452
5093	18.3	3.9	5.e-002	6.0654
5094	18.75	3.9	0.	30.668
5095	18.6	3.75	0.	29.744
5096	18.6	3.9	5.e-002	6.0242
5097	19.05	3.9	0.	33.313
5098	18.9	3.75	0.	32.314
5099	18.9	3.9	5.e-002	5.9837
5100	19.35	3.9	0.	36.288
5101	19.2	3.75	0.	35.204
5102	19.2	3.9	5.e-002	5.9442
5103	19.65	3.9	0.	39.642
5104	19.5	3.75	0.	38.46
5105	19.5	3.9	5.e-002	5.9057
5106	19.95	3.9	0.	43.428
5107	19.8	3.75	0.	42.136
5108	19.8	3.9	5.e-002	5.8686
5109	20.25	3.9	0.	47.707
5110	20.1	3.75	0.	46.291
5111	20.1	3.9	5.e-002	5.8331
5112	20.55	3.9	0.	52.549
5113	20.4	3.75	0.	50.991
5114	20.4	3.9	5.e-002	5.7996
5115	20.85	3.9	0.	58.029
5116	20.7	3.75	0.	56.311
5117	20.7	3.9	5.e-002	5.7687
5118	21.15	3.9	0.	64.234
5119	21.	3.75	0.	62.333
5120	21.	3.9	5.e-002	5.7411
5121	21.45	3.9	0.	71.259
5122	21.3	3.75	0.	69.145
5123	21.3	3.9	5.e-002	5.7177
5124	21.75	3.9	0.	79.209
5125	21.6	3.75	0.	76.847
5126	21.6	3.9	5.e-002	5.6997
5127	22.05	3.9	0.	88.195
5128	21.9	3.75	0.	85.542
5129	21.9	3.9	5.e-002	5.6889
5130	22.35	3.9	0.	98.331
5131	22.2	3.75	0.	95.335
5132	22.2	3.9	5.e-002	5.6873
5133	22.65	3.9	0.	109.73
5134	22.5	3.75	0.	106.33
5135	22.5	3.9	5.e-002	5.6976
5136	22.95	3.9	0.	122.47
5137	22.8	3.75	0.	118.62
5138	22.8	3.9	5.e-002	5.7236
5139	23.25	3.9	0.	136.69
5140	23.1	3.75	0.	132.22
5141	23.1	3.9	5.e-002	5.7661
5142	23.55	3.9	0.	152.08
5143	23.4	3.75	0.	147.36
5144	23.4	3.9	5.e-002	5.8371
5145	23.7	3.75	0.	163.19
5146	23.7	3.9	5.e-002	5.9109
5147	23.85	3.9	0.	166.46
5148	0.45	3.6	0.	405.86
5149	0.3	3.45	0.	1078.
5150	0.3	3.6	5.e-002	16.073
5151	0.15	3.6	0.	-1460.1
5152	0.75	3.6	0.	-99.938
5153	0.6	3.45	0.	-263.96
5154	0.6	3.6	5.e-002	41.264
5155	1.05	3.6	0.	23.742
5156	0.9	3.45	0.	63.598
5157	0.9	3.6	5.e-002	28.613
5158	1.35	3.6	0.	-6.0924
5159	1.2	3.45	0.	-16.021
5160	1.2	3.6	5.e-002	25.845
5161	1.65	3.6	0.	1.4878
5162	1.5	3.45	0.	3.7162
5163	1.5	3.6	5.e-002	21.623
5164	1.95	3.6	0.	-0.13743
5165	1.8	3.45	0.	-0.83719
5166	1.8	3.6	5.e-002	18.718
5167	2.25	3.6	0.	0.40288
5168	2.1	3.45	0.	0.4631
5169	2.1	3.6	5.e-002	16.347
5170	2.55	3.6	0.	0.34872
5171	2.4	3.45	0.	0.2649
5172	2.4	3.6	5.e-002	14.54
5173	2.85	3.6	0.	0.39183
5174	2.7	3.45	0.	0.37561
5175	2.7	3.6	5.e-002	13.14
5176	3.15	3.6	0.	0.37966
5177	3.	3.45	0.	0.37003
5178	3.	3.6	5.e-002	12.06
5179	3.45	3.6	0.	0.36171
5180	3.3	3.45	0.	0.36563
5181	3.3	3.6	5.e-002	11.225
5182	3.75	3.6	0.	0.33448
5183	3.6	3.45	0.	0.3443
5184	3.6	3.6	5.e-002	10.575
5185	4.05	3.6	0.	0.30453
5186	3.9	3.45	0.	0.31794
5187	3.9	3.6	5.e-002	10.065
5188	4.35	3.6	0.	0.27385
5189	4.2	3.45	0.	0.28866
5190	4.2	3.6	5.e-002	9.6623
5191	4.65	3.6	0.	0.24416
5192	4.5	3.45	0.	0.25915
5193	4.5	3.6	5.e-002	9.3396
5194	4.95	3.6	0.	0.21628
5195	4.8	3.45	0.	0.23071
5196	4.8	3.6	5.e-002	9.0774
5197	5.25	3.6	0.	0.19064
5198	5.1	3.45	0.	0.20413
5199	5.1	3.6	5.e-002	8.8609
5200	5.55	3.6	0.	0.1674
5201	5.4	3.45	0.	0.17976
5202	5.4	3.6	5.e-002	8.6792
5203	5.85	3.6	0.	0.14654
5204	5.7	3.45	0.	0.15771
5205	5.7	3.6	5.e-002	8.5241
5206	6.15	3.6	0.	0.12794
5207	6.	3.45	0.	0.13795
5208	6.	3.6	5.e-002	8.3894
5209	6.45	3.6	0.	0.11144
5210	6.3	3.45	0.	0.12037
5211	6.3	3.6	5.e-002	8.2707
5212	6.75	3.6	0.	9.6853e-002
5213	6.6	3.45	0.	0.10478
5214	6.6	3.6	5.e-002	8.1646
5215	7.05	3.6	0.	8.4e-002
5216	6.9	3.45	0.	9.1024e-002
5217	6.9	3.6	5.e-002	8.0685
5218	7.35	3.6	0.	7.2693e-002
5219	7.2	3.45	0.	7.8907e-002
5220	7.2	3.6	5.e-002	7.9804
5221	7.65	3.6	0.	6.2763e-002
5222	7.5	3.45	0.	6.8256e-002
5223	7.5	3.6	5.e-002	7.8988
5224	7.95	3.6	0.	5.4054e-002
5225	7.8	3.45	0.	5.8907e-002
5226	7.8	3.6	5.e-002	7.8227
5227	8.25	3.6	0.	4.6422e-002
5228	8.1	3.45	0.	5.0712e-002
5229	8.1	3.6	5.e-002	7.751
5230	8.55	3.6	0.	3.9743e-002
5231	8.4	3.45	0.	4.3534e-002
5232	8.4	3.6	5.e-002	7.683
5233	8.85	3.6	0.	3.3902e-002
5234	8.7	3.45	0.	3.7254e-002
5235	8.7	3.6	5.e-002	7.6182
5236	9.15	3.6	0.	2.8801e-002
5237	9.	3.45	0.	3.1766e-002
5238	9.	3.6	5.e-002	7.556
5239	9.45	3.6	0.	2.4351e-002
5240	9.3	3.45	0.	2.6972e-002
5241	9.3	3.6	5.e-002	7.4961
5242	9.75	3.6	0.	2.0476e-002
5243	9.6	3.45	0.	2.2793e-002
5244	9.6	3.6	5.e-002	7.4381
5245	10.05	3.6	0.	1.7109e-002
5246	9.9	3.45	0.	1.9152e-002
5247	9.9	3.6	5.e-002	7.3818
5248	10.35	3.6	0.	1.4194e-002
5249	10.2	3.45	0.	1.5989e-002
5250	10.2	3.6	5.e-002	7.3269
5251	10.65	3.6	0.	1.1681e-002
5252	10.5	3.45	0.	1.3247e-002
5253	10.5	3.6	5.e-002	7.2733
5254	10.95	3.6	0.	9.5341e-003
5255	10.8	3.45	0.	1.0881e-002
5256	10.8	3.6	5.e-002	7.2207
5257	11.25	3.6	0.	7.7306e-003
5258	11.1	3.45	0.	8.8528e-003
5259	11.1	3.6	5.e-002	7.1691
5260	11.55	3.6	0.	6.2733e-003
5261	11.4	3.45	0.	7.1379e-003
5262	11.4	3.6	5.e-002	7.1183
5263	11.85	3.6	0.	5.2329e-003
5264	11.7	3.45	0.	5.7346e-003
5265	11.7	3.6	5.e-002	7.0683
5266	12.15	3.6	0.	4.9585e-003
5267	12.	3.45	0.	4.7046e-003
5268	12.	3.6	5.e-002	7.0189
5269	12.45	3.6	0.	8.9002e-003
5270	12.3	3.45	0.	4.4481e-003
5271	12.3	3.6	5.e-002	6.97
5272	12.75	3.6	0.	1.0401
5273	12.6	3.45	0.	2.1042e-002
5274	12.6	3.6	5.e-002	6.9216
5275	13.05	3.6	0.	2.8729
5276	12.9	3.45	0.	1.7632
5277	12.9	3.6	5.e-002	6.8737
5278	13.35	3.6	0.	4.5378
5279	13.2	3.45	0.	3.5319
5280	13.2	3.6	5.e-002	6.8262
5281	13.65	3.6	0.	6.0599
5282	13.5	3.45	0.	5.142
5283	13.5	3.6	5.e-002	6.779
5284	13.95	3.6	0.	7.4649
5285	13.8	3.45	0.	6.6201
5286	13.8	3.6	5.e-002	6.7321
5287	14.25	3.6	0.	8.7762
5288	14.1	3.45	0.	7.9914
5289	14.1	3.6	5.e-002	6.6856
5290	14.55	3.6	0.	10.016
5291	14.4	3.45	0.	9.279
5292	14.4	3.6	5.e-002	6.6393
5293	14.85	3.6	0.	11.206
5294	14.7	3.45	0.	10.505
5295	14.7	3.6	5.e-002	6.5933
5296	15.15	3.6	0.	12.364
5297	15.	3.45	0.	11.69
5298	15.	3.6	5.e-002	6.5476
5299	15.45	3.6	0.	13.513
5300	15.3	3.45	0.	12.854
5301	15.3	3.6	5.e-002	6.5021
5302	15.75	3.6	0.	14.669
5303	15.6	3.45	0.	14.016
5304	15.6	3.6	5.e-002	6.4568
5305	16.05	3.6	0.	15.854
5306	15.9	3.45	0.	15.198
5307	15.9	3.6	5.e-002	6.4118
5308	16.35	3.6	0.	17.086
5309	16.2	3.45	0.	16.417
5310	16.2	3.6	5.e-002	6.3671
5311	16.65	3.6	0.	18.387
5312	16.5	3.45	0.	17.696
5313	16.5	3.6	5.e-002	6.3226
5314	16.95	3.6	0.	19.778
5315	16.8	3.45	0.	19.056
5316	16.8	3.6	5.e-002	6.2784
5317	17.25	3.6	0.	21.283
5318	17.1	3.45	0.	20.52
5319	17.1	3.6	5.e-002	6.2346
5320	17.55	3.6	0.	22.927
5321	17.4	3.45	0.	22.112
5322	17.4	3.6	5.e-002	6.1911
5323	17.85	3.6	0.	24.738
5324	17.7	3.45	0.	23.86
5325	17.7	3.6	5.e-002	6.148
5326	18.15	3.6	0.	26.746
5327	18.	3.45	0.	25.793
5328	18.	3.6	5.e-002	6.1053
5329	18.45	3.6	0.	28.984
5330	18.3	3.45	0.	27.943
5331	18.3	3.6	5.e-002	6.0632
5332	18.75	3.6	0.	31.49
5333	18.6	3.45	0.	30.347
5334	18.6	3.6	5.e-002	6.0217
5335	19.05	3.6	0.	34.305
5336	18.9	3.45	0.	33.045
5337	18.9	3.6	5.e-002	5.9809
5338	19.35	3.6	0.	37.476
5339	19.2	3.45	0.	36.082
5340	19.2	3.6	5.e-002	5.9411
5341	19.65	3.6	0.	41.054
5342	19.5	3.45	0.	39.508
5343	19.5	3.6	5.e-002	5.9023
5344	19.95	3.6	0.	45.099
5345	19.8	3.45	0.	43.378
5346	19.8	3.6	5.e-002	5.8649
5347	20.25	3.6	0.	49.674
5348	20.1	3.45	0.	47.756
5349	20.1	3.6	5.e-002	5.8291
5350	20.55	3.6	0.	54.851
5351	20.4	3.45	0.	52.71
5352	20.4	3.6	5.e-002	5.7955
5353	20.85	3.6	0.	60.709
5354	20.7	3.45	0.	58.317
5355	20.7	3.6	5.e-002	5.7647
5356	21.15	3.6	0.	67.335
5357	21.	3.45	0.	64.659
5358	21.	3.6	5.e-002	5.7374
5359	21.45	3.6	0.	74.819
5360	21.3	3.45	0.	71.826
5361	21.3	3.6	5.e-002	5.7147
5362	21.75	3.6	0.	83.26
5363	21.6	3.45	0.	79.909
5364	21.6	3.6	5.e-002	5.6979
5365	22.05	3.6	0.	92.754
5366	21.9	3.45	0.	89.003
5367	21.9	3.6	5.e-002	5.6889
5368	22.35	3.6	0.	103.39
5369	22.2	3.45	0.	99.2
5370	22.2	3.6	5.e-002	5.6897
5371	22.65	3.6	0.	115.26
5372	22.5	3.45	0.	110.58
5373	22.5	3.6	5.e-002	5.7026
5374	22.95	3.6	0.	128.4
5375	22.8	3.45	0.	123.21
5376	22.8	3.6	5.e-002	5.7309
5377	23.25	3.6	0.	142.92
5378	23.1	3.45	0.	137.09
5379	23.1	3.6	5.e-002	5.7742
5380	23.55	3.6	0.	158.5
5381	23.4	3.45	0.	152.43
5382	23.4	3.6	5.e-002	5.843
5383	23.7	3.45	0.	168.34
5384	23.7	3.6	5.e-002	5.9059
5385	23.85	3.6	0.	172.98
5386	0.45	3.3	0.	408.14
5387	0.3	3.15	0.	1081.9
5388	0.3	3.3	5.e-002	15.018
5389	0.15	3.3	0.	-1468.5
5390	0.75	3.3	0.	-100.44
5391	0.6	3.15	0.	-264.85
5392	0.6	3.3	5.e-002	41.152
5393	1.05	3.3	0.	23.837
5394	0.9	3.15	0.	63.827
5395	0.9	3.3	5.e-002	28.768
5396	1.35	3.3	0.	-6.21
5397	1.2	3.15	0.	-16.121
5398	1.2	3.3	5.e-002	26.154
5399	1.65	3.3	0.	1.3941
5400	1.5	3.15	0.	3.6644
5401	1.5	3.3	5.e-002	21.869
5402	1.95	3.3	0.	-0.23359
5403	1.8	3.15	0.	-0.90788
5404	1.8	3.3	5.e-002	18.835
5405	2.25	3.3	0.	0.32815
5406	2.1	3.15	0.	0.40683
5407	2.1	3.3	5.e-002	16.325
5408	2.55	3.3	0.	0.29462
5409	2.4	3.15	0.	0.22185
5410	2.4	3.3	5.e-002	14.413
5411	2.85	3.3	0.	0.35637
5412	2.7	3.15	0.	0.34643
5413	2.7	3.3	5.e-002	12.951
5414	3.15	3.3	0.	0.35826
5415	3.	3.15	0.	0.35171
5416	3.	3.3	5.e-002	11.846
5417	3.45	3.3	0.	0.3502
5418	3.3	3.15	0.	0.35526
5419	3.3	3.3	5.e-002	11.01
5420	3.75	3.3	0.	0.32947
5421	3.6	3.15	0.	0.33927
5422	3.6	3.3	5.e-002	10.375
5423	4.05	3.3	0.	0.30354
5424	3.9	3.15	0.	0.3163
5425	3.9	3.3	5.e-002	9.8882
5426	4.35	3.3	0.	0.27521
5427	4.2	3.15	0.	0.28906
5428	4.2	3.3	5.e-002	9.5098
5429	4.65	3.3	0.	0.24678
5430	4.5	3.15	0.	0.26069
5431	4.5	3.3	5.e-002	9.211
5432	4.95	3.3	0.	0.21948
5433	4.8	3.15	0.	0.23281
5434	4.8	3.3	5.e-002	8.9705
5435	5.25	3.3	0.	0.19403
5436	5.1	3.15	0.	0.20644
5437	5.1	3.3	5.e-002	8.7729
5438	5.55	3.3	0.	0.17073
5439	5.4	3.15	0.	0.18208
5440	5.4	3.3	5.e-002	8.6072
5441	5.85	3.3	0.	0.14969
5442	5.7	3.15	0.	0.15994
5443	5.7	3.3	5.e-002	8.4655
5444	6.15	3.3	0.	0.13086
5445	6.	3.15	0.	0.14003
5446	6.	3.3	5.e-002	8.3419
5447	6.45	3.3	0.	0.11412
5448	6.3	3.15	0.	0.12228
5449	6.3	3.3	5.e-002	8.2322
5450	6.75	3.3	0.	9.9292e-002
5451	6.6	3.15	0.	0.10652
5452	6.6	3.3	5.e-002	8.1334
5453	7.05	3.3	0.	8.6214e-002
5454	6.9	3.15	0.	9.2602e-002
5455	6.9	3.3	5.e-002	8.0432
5456	7.35	3.3	0.	7.4704e-002
5457	7.2	3.15	0.	8.0337e-002
5458	7.2	3.3	5.e-002	7.9599
5459	7.65	3.3	0.	6.4592e-002
5460	7.5	3.15	0.	6.9553e-002
5461	7.5	3.3	5.e-002	7.8823
5462	7.95	3.3	0.	5.5721e-002
5463	7.8	3.15	0.	6.0086e-002
5464	7.8	3.3	5.e-002	7.8092
5465	8.25	3.3	0.	4.7947e-002
5466	8.1	3.15	0.	5.1787e-002
5467	8.1	3.3	5.e-002	7.74
5468	8.55	3.3	0.	4.1142e-002
5469	8.4	3.15	0.	4.4518e-002
5470	8.4	3.3	5.e-002	7.6741
5471	8.85	3.3	0.	3.519e-002
5472	8.7	3.15	0.	3.8157e-002
5473	8.7	3.3	5.e-002	7.6108
5474	9.15	3.3	0.	2.9988e-002
5475	9.	3.15	0.	3.2596e-002
5476	9.	3.3	5.e-002	7.55
5477	9.45	3.3	0.	2.5447e-002
5478	9.3	3.15	0.	2.7737e-002
5479	9.3	3.3	5.e-002	7.4911
5480	9.75	3.3	0.	2.1488e-002
5481	9.6	3.15	0.	2.3498e-002
5482	9.6	3.3	5.e-002	7.434
5483	10.05	3.3	0.	1.8039e-002
5484	9.9	3.15	0.	1.9801e-002
5485	9.9	3.3	5.e-002	7.3784
5486	10.35	3.3	0.	1.5041e-002
5487	10.2	3.15	0.	1.6583e-002
5488	10.2	3.3	5.e-002	7.3241
5489	10.65	3.3	0.	1.244e-002
5490	10.5	3.15	0.	1.3784e-002
5491	10.5	3.3	5.e-002	7.2709
5492	10.95	3.3	0.	1.019e-002
5493	10.8	3.15	0.	1.1355e-002
5494	10.8	3.3	5.e-002	7.2187
5495	11.25	3.3	0.	8.2545e-003
5496	11.1	3.15	0.	9.2515e-003
5497	11.1	3.3	5.e-002	7.1674
5498	11.55	3.3	0.	6.6041e-003
5499	11.4	3.15	0.	7.4353e-003
5500	11.4	3.3	5.e-002	7.1169
5501	11.85	3.3	0.	5.2276e-003
5502	11.7	3.15	0.	5.8759e-003
5503	11.7	3.3	5.e-002	7.067
5504	12.15	3.3	0.	4.1654e-003
5505	12.	3.15	0.	4.5515e-003
5506	12.	3.3	5.e-002	7.0178
5507	12.45	3.3	0.	3.8518e-003
5508	12.3	3.15	0.	3.4716e-003
5509	12.3	3.3	5.e-002	6.9691
5510	12.75	3.3	0.	0.59572
5511	12.6	3.15	0.	3.2396e-003
5512	12.6	3.3	5.e-002	6.9208
5513	13.05	3.3	0.	2.4875
5514	12.9	3.15	0.	1.4872
5515	12.9	3.3	5.e-002	6.8729
5516	13.35	3.3	0.	4.2038
5517	13.2	3.15	0.	3.2928
5518	13.2	3.3	5.e-002	6.8255
5519	13.65	3.3	0.	5.7718
5520	13.5	3.15	0.	4.9352
5521	13.5	3.3	5.e-002	6.7783
5522	13.95	3.3	0.	7.2182
5523	13.8	3.15	0.	6.4424
5524	13.8	3.3	5.e-002	6.7315
5525	14.25	3.3	0.	8.5676
5526	14.1	3.15	0.	7.8401
5527	14.1	3.3	5.e-002	6.685
5528	14.55	3.3	0.	9.843
5529	14.4	3.15	0.	9.1521
5530	14.4	3.3	5.e-002	6.6388
5531	14.85	3.3	0.	11.066
5532	14.7	3.15	0.	10.401
5533	14.7	3.3	5.e-002	6.5928
5534	15.15	3.3	0.	12.258
5535	15.	3.15	0.	11.608
5536	15.	3.3	5.e-002	6.547
5537	15.45	3.3	0.	13.438
5538	15.3	3.15	0.	12.793
5539	15.3	3.3	5.e-002	6.5015
5540	15.75	3.3	0.	14.627
5541	15.6	3.15	0.	13.978
5542	15.6	3.3	5.e-002	6.4562
5543	16.05	3.3	0.	15.846
5544	15.9	3.15	0.	15.181
5545	15.9	3.3	5.e-002	6.4112
5546	16.35	3.3	0.	17.114
5547	16.2	3.15	0.	16.424
5548	16.2	3.3	5.e-002	6.3664
5549	16.65	3.3	0.	18.454
5550	16.5	3.15	0.	17.728
5551	16.5	3.3	5.e-002	6.3219
5552	16.95	3.3	0.	19.888
5553	16.8	3.15	0.	19.115
5554	16.8	3.3	5.e-002	6.2776
5555	17.25	3.3	0.	21.44
5556	17.1	3.15	0.	20.609
5557	17.1	3.3	5.e-002	6.2337
5558	17.55	3.3	0.	23.138
5559	17.4	3.15	0.	22.235
5560	17.4	3.3	5.e-002	6.1901
5561	17.85	3.3	0.	25.009
5562	17.7	3.15	0.	24.02
5563	17.7	3.3	5.e-002	6.1469
5564	18.15	3.3	0.	27.086
5565	18.	3.15	0.	25.996
5566	18.	3.3	5.e-002	6.1041
5567	18.45	3.3	0.	29.403
5568	18.3	3.15	0.	28.196
5569	18.3	3.3	5.e-002	6.0618
5570	18.75	3.3	0.	32.
5571	18.6	3.15	0.	30.657
5572	18.6	3.3	5.e-002	6.0202
5573	19.05	3.3	0.	34.92
5574	18.9	3.15	0.	33.42
5575	18.9	3.3	5.e-002	5.9792
5576	19.35	3.3	0.	38.212
5577	19.2	3.15	0.	36.532
5578	19.2	3.3	5.e-002	5.9392
5579	19.65	3.3	0.	41.929
5580	19.5	3.15	0.	40.044
5581	19.5	3.3	5.e-002	5.9002
5582	19.95	3.3	0.	46.132
5583	19.8	3.15	0.	44.014
5584	19.8	3.3	5.e-002	5.8626
5585	20.25	3.3	0.	50.888
5586	20.1	3.15	0.	48.505
5587	20.1	3.3	5.e-002	5.8267
5588	20.55	3.3	0.	56.269
5589	20.4	3.15	0.	53.588
5590	20.4	3.3	5.e-002	5.7931
5591	20.85	3.3	0.	62.356
5592	20.7	3.15	0.	59.339
5593	20.7	3.3	5.e-002	5.7623
5594	21.15	3.3	0.	69.235
5595	21.	3.15	0.	65.843
5596	21.	3.3	5.e-002	5.7352
5597	21.45	3.3	0.	76.994
5598	21.3	3.15	0.	73.185
5599	21.3	3.3	5.e-002	5.713
5600	21.75	3.3	0.	85.724
5601	21.6	3.15	0.	81.457
5602	21.6	3.3	5.e-002	5.6971
5603	22.05	3.3	0.	95.513
5604	21.9	3.15	0.	90.748
5605	21.9	3.3	5.e-002	5.6892
5606	22.35	3.3	0.	106.44
5607	22.2	3.15	0.	101.14
5608	22.2	3.3	5.e-002	5.6914
5609	22.65	3.3	0.	118.57
5610	22.5	3.15	0.	112.7
5611	22.5	3.3	5.e-002	5.7058
5612	22.95	3.3	0.	131.94
5613	22.8	3.15	0.	125.5
5614	22.8	3.3	5.e-002	5.7353
5615	23.25	3.3	0.	146.62
5616	23.1	3.15	0.	139.51
5617	23.1	3.3	5.e-002	5.779
5618	23.55	3.3	0.	162.29
5619	23.4	3.15	0.	154.93
5620	23.4	3.3	5.e-002	5.8464
5621	23.7	3.15	0.	170.88
5622	23.7	3.3	5.e-002	5.9029
5623	23.85	3.3	0.	176.83
5624	0.45	3.	0.	408.87
5625	0.3	2.85	0.	1081.9
5626	0.3	3.	5.e-002	14.671
5627	0.15	3.	0.	-1471.2
5628	0.75	3.	0.	-100.59
5629	0.6	2.85	0.	-264.85
5630	0.6	3.	5.e-002	41.107
5631	1.05	3.	0.	23.87
5632	0.9	2.85	0.	63.827
5633	0.9	3.	5.e-002	28.817
5634	1.35	3.	0.	-6.2453
5635	1.2	2.85	0.	-16.121
5636	1.2	3.	5.e-002	26.26
5637	1.65	3.	0.	1.3648
5638	1.5	2.85	0.	3.6644
5639	1.5	3.	5.e-002	21.96
5640	1.95	3.	0.	-0.26487
5641	1.8	2.85	0.	-0.90788
5642	1.8	3.	5.e-002	18.886
5643	2.25	3.	0.	0.30317
5644	2.1	2.85	0.	0.40683
5645	2.1	3.	5.e-002	16.327
5646	2.55	3.	0.	0.27618
5647	2.4	2.85	0.	0.22185
5648	2.4	3.	5.e-002	14.377
5649	2.85	3.	0.	0.34409
5650	2.7	2.85	0.	0.34643
5651	2.7	3.	5.e-002	12.89
5652	3.15	3.	0.	0.35078
5653	3.	2.85	0.	0.35171
5654	3.	3.	5.e-002	11.774
5655	3.45	3.	0.	0.34614
5656	3.3	2.85	0.	0.35526
5657	3.3	3.	5.e-002	10.937
5658	3.75	3.	0.	0.32769
5659	3.6	2.85	0.	0.33927
5660	3.6	3.	5.e-002	10.306
5661	4.05	3.	0.	0.30318
5662	3.9	2.85	0.	0.3163
5663	3.9	3.	5.e-002	9.8267
5664	4.35	3.	0.	0.27569
5665	4.2	2.85	0.	0.28906
5666	4.2	3.	5.e-002	9.4568
5667	4.65	3.	0.	0.24771
5668	4.5	2.85	0.	0.26069
5669	4.5	3.	5.e-002	9.1663
5670	4.95	3.	0.	0.22062
5671	4.8	2.85	0.	0.23281
5672	4.8	3.	5.e-002	8.9334
5673	5.25	3.	0.	0.19522
5674	5.1	2.85	0.	0.20644
5675	5.1	3.	5.e-002	8.7424
5676	5.55	3.	0.	0.17191
5677	5.4	2.85	0.	0.18208
5678	5.4	3.	5.e-002	8.5823
5679	5.85	3.	0.	0.15081
5680	5.7	2.85	0.	0.15994
5681	5.7	3.	5.e-002	8.4453
5682	6.15	3.	0.	0.13189
5683	6.	2.85	0.	0.14003
5684	6.	3.	5.e-002	8.3255
5685	6.45	3.	0.	0.11506
5686	6.3	2.85	0.	0.12228
5687	6.3	3.	5.e-002	8.2189
5688	6.75	3.	0.	0.10015
5689	6.6	2.85	0.	0.10652
5690	6.6	3.	5.e-002	8.1227
5691	7.05	3.	0.	8.6989e-002
5692	6.9	2.85	0.	9.2602e-002
5693	6.9	3.	5.e-002	8.0345
5694	7.35	3.	0.	7.5405e-002
5695	7.2	2.85	0.	8.0337e-002
5696	7.2	3.	5.e-002	7.953
5697	7.65	3.	0.	6.5227e-002
5698	7.5	2.85	0.	6.9553e-002
5699	7.5	3.	5.e-002	7.8766
5700	7.95	3.	0.	5.6298e-002
5701	7.8	2.85	0.	6.0086e-002
5702	7.8	3.	5.e-002	7.8046
5703	8.25	3.	0.	4.8473e-002
5704	8.1	2.85	0.	5.1787e-002
5705	8.1	3.	5.e-002	7.7363
5706	8.55	3.	0.	4.1623e-002
5707	8.4	2.85	0.	4.4518e-002
5708	8.4	3.	5.e-002	7.671
5709	8.85	3.	0.	3.5631e-002
5710	8.7	2.85	0.	3.8157e-002
5711	8.7	3.	5.e-002	7.6083
5712	9.15	3.	0.	3.0394e-002
5713	9.	2.85	0.	3.2596e-002
5714	9.	3.	5.e-002	7.548
5715	9.45	3.	0.	2.582e-002
5716	9.3	2.85	0.	2.7737e-002
5717	9.3	3.	5.e-002	7.4894
5718	9.75	3.	0.	2.1831e-002
5719	9.6	2.85	0.	2.3498e-002
5720	9.6	3.	5.e-002	7.4326
5721	10.05	3.	0.	1.8354e-002
5722	9.9	2.85	0.	1.9801e-002
5723	9.9	3.	5.e-002	7.3772
5724	10.35	3.	0.	1.5327e-002
5725	10.2	2.85	0.	1.6583e-002
5726	10.2	3.	5.e-002	7.3231
5727	10.65	3.	0.	1.2696e-002
5728	10.5	2.85	0.	1.3784e-002
5729	10.5	3.	5.e-002	7.2701
5730	10.95	3.	0.	1.0413e-002
5731	10.8	2.85	0.	1.1355e-002
5732	10.8	3.	5.e-002	7.218
5733	11.25	3.	0.	8.4351e-003
5734	11.1	2.85	0.	9.2515e-003
5735	11.1	3.	5.e-002	7.1668
5736	11.55	3.	0.	6.7252e-003
5737	11.4	2.85	0.	7.4352e-003
5738	11.4	3.	5.e-002	7.1164
5739	11.85	3.	0.	5.2517e-003
5740	11.7	2.85	0.	5.8762e-003
5741	11.7	3.	5.e-002	7.0666
5742	12.15	3.	0.	3.9855e-003
5743	12.	2.85	0.	4.5514e-003
5744	12.	3.	5.e-002	7.0174
5745	12.45	3.	0.	2.9007e-003
5746	12.3	2.85	0.	3.4716e-003
5747	12.3	3.	5.e-002	6.9687
5748	12.75	3.	0.	0.44488
5749	12.6	2.85	0.	3.24e-003
5750	12.6	3.	5.e-002	6.9205
5751	13.05	3.	0.	2.3582
5752	12.9	2.85	0.	1.4872
5753	12.9	3.	5.e-002	6.8727
5754	13.35	3.	0.	4.0919
5755	13.2	2.85	0.	3.2928
5756	13.2	3.	5.e-002	6.8252
5757	13.65	3.	0.	5.6754
5758	13.5	2.85	0.	4.9352
5759	13.5	3.	5.e-002	6.7782
5760	13.95	3.	0.	7.1357
5761	13.8	2.85	0.	6.4424
5762	13.8	3.	5.e-002	6.7314
5763	14.25	3.	0.	8.498
5764	14.1	2.85	0.	7.8401
5765	14.1	3.	5.e-002	6.6848
5766	14.55	3.	0.	9.7853
5767	14.4	2.85	0.	9.1521
5768	14.4	3.	5.e-002	6.6386
5769	14.85	3.	0.	11.02
5770	14.7	2.85	0.	10.401
5771	14.7	3.	5.e-002	6.5926
5772	15.15	3.	0.	12.222
5773	15.	2.85	0.	11.608
5774	15.	3.	5.e-002	6.5468
5775	15.45	3.	0.	13.414
5776	15.3	2.85	0.	12.793
5777	15.3	3.	5.e-002	6.5013
5778	15.75	3.	0.	14.614
5779	15.6	2.85	0.	13.978
5780	15.6	3.	5.e-002	6.456
5781	16.05	3.	0.	15.844
5782	15.9	2.85	0.	15.181
5783	15.9	3.	5.e-002	6.411
5784	16.35	3.	0.	17.124
5785	16.2	2.85	0.	16.424
5786	16.2	3.	5.e-002	6.3662
5787	16.65	3.	0.	18.477
5788	16.5	2.85	0.	17.728
5789	16.5	3.	5.e-002	6.3216
5790	16.95	3.	0.	19.925
5791	16.8	2.85	0.	19.115
5792	16.8	3.	5.e-002	6.2773
5793	17.25	3.	0.	21.494
5794	17.1	2.85	0.	20.609
5795	17.1	3.	5.e-002	6.2334
5796	17.55	3.	0.	23.21
5797	17.4	2.85	0.	22.235
5798	17.4	3.	5.e-002	6.1898
5799	17.85	3.	0.	25.101
5800	17.7	2.85	0.	24.02
5801	17.7	3.	5.e-002	6.1465
5802	18.15	3.	0.	27.201
5803	18.	2.85	0.	25.996
5804	18.	3.	5.e-002	6.1037
5805	18.45	3.	0.	29.546
5806	18.3	2.85	0.	28.196
5807	18.3	3.	5.e-002	6.0614
5808	18.75	3.	0.	32.173
5809	18.6	2.85	0.	30.657
5810	18.6	3.	5.e-002	6.0196
5811	19.05	3.	0.	35.129
5812	18.9	2.85	0.	33.42
5813	18.9	3.	5.e-002	5.9786
5814	19.35	3.	0.	38.461
5815	19.2	2.85	0.	36.532
5816	19.2	3.	5.e-002	5.9385
5817	19.65	3.	0.	42.225
5818	19.5	2.85	0.	40.044
5819	19.5	3.	5.e-002	5.8995
5820	19.95	3.	0.	46.481
5821	19.8	2.85	0.	44.014
5822	19.8	3.	5.e-002	5.8619
5823	20.25	3.	0.	51.298
5824	20.1	2.85	0.	48.505
5825	20.1	3.	5.e-002	5.8259
5826	20.55	3.	0.	56.748
5827	20.4	2.85	0.	53.588
5828	20.4	3.	5.e-002	5.7923
5829	20.85	3.	0.	62.912
5830	20.7	2.85	0.	59.339
5831	20.7	3.	5.e-002	5.7615
5832	21.15	3.	0.	69.875
5833	21.	2.85	0.	65.843
5834	21.	3.	5.e-002	5.7345
5835	21.45	3.	0.	77.725
5836	21.3	2.85	0.	73.185
5837	21.3	3.	5.e-002	5.7125
5838	21.75	3.	0.	86.55
5839	21.6	2.85	0.	81.457
5840	21.6	3.	5.e-002	5.6968
5841	22.05	3.	0.	96.437
5842	21.9	2.85	0.	90.748
5843	21.9	3.	5.e-002	5.6893
5844	22.35	3.	0.	107.46
5845	22.2	2.85	0.	101.14
5846	22.2	3.	5.e-002	5.692
5847	22.65	3.	0.	119.68
5848	22.5	2.85	0.	112.7
5849	22.5	3.	5.e-002	5.707
5850	22.95	3.	0.	133.11
5851	22.8	2.85	0.	125.5
5852	22.8	3.	5.e-002	5.7368
5853	23.25	3.	0.	147.85
5854	23.1	2.85	0.	139.51
5855	23.1	3.	5.e-002	5.7805
5856	23.55	3.	0.	163.55
5857	23.4	2.85	0.	154.93
5858	23.4	3.	5.e-002	5.8475
5859	23.7	2.85	0.	170.88
5860	23.7	3.	5.e-002	5.9019
5861	23.85	3.	0.	178.11
5862	0.45	2.7	0.	408.14
5863	0.3	2.55	0.	1078.
5864	0.3	2.7	5.e-002	15.018
5865	0.15	2.7	0.	-1468.5
5866	0.75	2.7	0.	-100.44
5867	0.6	2.55	0.	-263.96
5868	0.6	2.7	5.e-002	41.152
5869	1.05	2.7	0.	23.837
5870	0.9	2.55	0.	63.598
5871	0.9	2.7	5.e-002	28.768
5872	1.35	2.7	0.	-6.21
5873	1.2	2.55	0.	-16.021
5874	1.2	2.7	5.e-002	26.154
5875	1.65	2.7	0.	1.3941
5876	1.5	2.55	0.	3.7162
5877	1.5	2.7	5.e-002	21.869
5878	1.95	2.7	0.	-0.23359
5879	1.8	2.55	0.	-0.83719
5880	1.8	2.7	5.e-002	18.835
5881	2.25	2.7	0.	0.32815
5882	2.1	2.55	0.	0.4631
5883	2.1	2.7	5.e-002	16.325
5884	2.55	2.7	0.	0.29462
5885	2.4	2.55	0.	0.2649
5886	2.4	2.7	5.e-002	14.413
5887	2.85	2.7	0.	0.35637
5888	2.7	2.55	0.	0.37561
5889	2.7	2.7	5.e-002	12.951
5890	3.15	2.7	0.	0.35826
5891	3.	2.55	0.	0.37003
5892	3.	2.7	5.e-002	11.846
5893	3.45	2.7	0.	0.3502
5894	3.3	2.55	0.	0.36563
5895	3.3	2.7	5.e-002	11.01
5896	3.75	2.7	0.	0.32947
5897	3.6	2.55	0.	0.3443
5898	3.6	2.7	5.e-002	10.375
5899	4.05	2.7	0.	0.30354
5900	3.9	2.55	0.	0.31794
5901	3.9	2.7	5.e-002	9.8882
5902	4.35	2.7	0.	0.27521
5903	4.2	2.55	0.	0.28866
5904	4.2	2.7	5.e-002	9.5098
5905	4.65	2.7	0.	0.24678
5906	4.5	2.55	0.	0.25915
5907	4.5	2.7	5.e-002	9.211
5908	4.95	2.7	0.	0.21948
5909	4.8	2.55	0.	0.23071
5910	4.8	2.7	5.e-002	8.9704
5911	5.25	2.7	0.	0.19403
5912	5.1	2.55	0.	0.20413
5913	5.1	2.7	5.e-002	8.7729
5914	5.55	2.7	0.	0.17073
5915	5.4	2.55	0.	0.17976
5916	5.4	2.7	5.e-002	8.6073
5917	5.85	2.7	0.	0.14969
5918	5.7	2.55	0.	0.15771
5919	5.7	2.7	5.e-002	8.4655
5920	6.15	2.7	0.	0.13086
5921	6.	2.55	0.	0.13795
5922	6.	2.7	5.e-002	8.3419
5923	6.45	2.7	0.	0.11412
5924	6.3	2.55	0.	0.12037
5925	6.3	2.7	5.e-002	8.2322
5926	6.75	2.7	0.	9.9293e-002
5927	6.6	2.55	0.	0.10478
5928	6.6	2.7	5.e-002	8.1334
5929	7.05	2.7	0.	8.6214e-002
5930	6.9	2.55	0.	9.1024e-002
5931	6.9	2.7	5.e-002	8.0432
5932	7.35	2.7	0.	7.4704e-002
5933	7.2	2.55	0.	7.8907e-002
5934	7.2	2.7	5.e-002	7.9599
5935	7.65	2.7	0.	6.4592e-002
5936	7.5	2.55	0.	6.8256e-002
5937	7.5	2.7	5.e-002	7.8823
5938	7.95	2.7	0.	5.5721e-002
5939	7.8	2.55	0.	5.8907e-002
5940	7.8	2.7	5.e-002	7.8092
5941	8.25	2.7	0.	4.7947e-002
5942	8.1	2.55	0.	5.0712e-002
5943	8.1	2.7	5.e-002	7.74
5944	8.55	2.7	0.	4.1142e-002
5945	8.4	2.55	0.	4.3535e-002
5946	8.4	2.7	5.e-002	7.6741
5947	8.85	2.7	0.	3.519e-002
5948	8.7	2.55	0.	3.7255e-002
5949	8.7	2.7	5.e-002	7.6108
5950	9.15	2.7	0.	2.9988e-002
5951	9.	2.55	0.	3.1766e-002
5952	9.	2.7	5.e-002	7.55
5953	9.45	2.7	0.	2.5447e-002
5954	9.3	2.55	0.	2.6972e-002
5955	9.3	2.7	5.e-002	7.4911
5956	9.75	2.7	0.	2.1488e-002
5957	9.6	2.55	0.	2.2792e-002
5958	9.6	2.7	5.e-002	7.434
5959	10.05	2.7	0.	1.8039e-002
5960	9.9	2.55	0.	1.9152e-002
5961	9.9	2.7	5.e-002	7.3784
5962	10.35	2.7	0.	1.5041e-002
5963	10.2	2.55	0.	1.5989e-002
5964	10.2	2.7	5.e-002	7.3241
5965	10.65	2.7	0.	1.244e-002
5966	10.5	2.55	0.	1.3247e-002
5967	10.5	2.7	5.e-002	7.2709
5968	10.95	2.7	0.	1.019e-002
5969	10.8	2.55	0.	1.0881e-002
5970	10.8	2.7	5.e-002	7.2187
5971	11.25	2.7	0.	8.2543e-003
5972	11.1	2.55	0.	8.8529e-003
5973	11.1	2.7	5.e-002	7.1674
5974	11.55	2.7	0.	6.6042e-003
5975	11.4	2.55	0.	7.1383e-003
5976	11.4	2.7	5.e-002	7.1169
5977	11.85	2.7	0.	5.2277e-003
5978	11.7	2.55	0.	5.7349e-003
5979	11.7	2.7	5.e-002	7.067
5980	12.15	2.7	0.	4.1653e-003
5981	12.	2.55	0.	4.7044e-003
5982	12.	2.7	5.e-002	7.0178
5983	12.45	2.7	0.	3.8522e-003
5984	12.3	2.55	0.	4.4477e-003
5985	12.3	2.7	5.e-002	6.9691
5986	12.75	2.7	0.	0.59571
5987	12.6	2.55	0.	2.1042e-002
5988	12.6	2.7	5.e-002	6.9208
5989	13.05	2.7	0.	2.4875
5990	12.9	2.55	0.	1.7632
5991	12.9	2.7	5.e-002	6.8729
5992	13.35	2.7	0.	4.2037
5993	13.2	2.55	0.	3.5319
5994	13.2	2.7	5.e-002	6.8255
5995	13.65	2.7	0.	5.7718
5996	13.5	2.55	0.	5.142
5997	13.5	2.7	5.e-002	6.7783
5998	13.95	2.7	0.	7.2182
5999	13.8	2.55	0.	6.6201
6000	13.8	2.7	5.e-002	6.7315
6001	14.25	2.7	0.	8.5676
6002	14.1	2.55	0.	7.9914
6003	14.1	2.7	5.e-002	6.685
6004	14.55	2.7	0.	9.843
6005	14.4	2.55	0.	9.279
6006	14.4	2.7	5.e-002	6.6388
6007	14.85	2.7	0.	11.066
6008	14.7	2.55	0.	10.505
6009	14.7	2.7	5.e-002	6.5928
6010	15.15	2.7	0.	12.258
6011	15.	2.55	0.	11.69
6012	15.	2.7	5.e-002	6.547
6013	15.45	2.7	0.	13.438
6014	15.3	2.55	0.	12.853
6015	15.3	2.7	5.e-002	6.5015
6016	15.75	2.7	0.	14.627
6017	15.6	2.55	0.	14.016
6018	15.6	2.7	5.e-002	6.4562
6019	16.05	2.7	0.	15.846
6020	15.9	2.55	0.	15.197
6021	15.9	2.7	5.e-002	6.4112
6022	16.35	2.7	0.	17.114
6023	16.2	2.55	0.	16.417
6024	16.2	2.7	5.e-002	6.3664
6025	16.65	2.7	0.	18.454
6026	16.5	2.55	0.	17.696
6027	16.5	2.7	5.e-002	6.3219
6028	16.95	2.7	0.	19.888
6029	16.8	2.55	0.	19.056
6030	16.8	2.7	5.e-002	6.2776
6031	17.25	2.7	0.	21.44
6032	17.1	2.55	0.	20.52
6033	17.1	2.7	5.e-002	6.2337
6034	17.55	2.7	0.	23.138
6035	17.4	2.55	0.	22.112
6036	17.4	2.7	5.e-002	6.1901
6037	17.85	2.7	0.	25.009
6038	17.7	2.55	0.	23.86
6039	17.7	2.7	5.e-002	6.1469
6040	18.15	2.7	0.	27.086
6041	18.	2.55	0.	25.793
6042	18.	2.7	5.e-002	6.1041
6043	18.45	2.7	0.	29.403
6044	18.3	2.55	0.	27.943
6045	18.3	2.7	5.e-002	6.0618
6046	18.75	2.7	0.	32.
6047	18.6	2.55	0.	30.347
6048	18.6	2.7	5.e-002	6.0202
6049	19.05	2.7	0.	34.92
6050	18.9	2.55	0.	33.045
6051	18.9	2.7	5.e-002	5.9792
6052	19.35	2.7	0.	38.212
6053	19.2	2.55	0.	36.082
6054	19.2	2.7	5.e-002	5.9392
6055	19.65	2.7	0.	41.929
6056	19.5	2.55	0.	39.507
6057	19.5	2.7	5.e-002	5.9002
6058	19.95	2.7	0.	46.132
6059	19.8	2.55	0.	43.378
6060	19.8	2.7	5.e-002	5.8626
6061	20.25	2.7	0.	50.888
6062	20.1	2.55	0.	47.756
6063	20.1	2.7	5.e-002	5.8267
6064	20.55	2.7	0.	56.269
6065	20.4	2.55	0.	52.71
6066	20.4	2.7	5.e-002	5.7931
6067	20.85	2.7	0.	62.356
6068	20.7	2.55	0.	58.317
6069	20.7	2.7	5.e-002	5.7623
6070	21.15	2.7	0.	69.235
6071	21.	2.55	0.	64.659
6072	21.	2.7	5.e-002	5.7352
6073	21.45	2.7	0.	76.994
6074	21.3	2.55	0.	71.826
6075	21.3	2.7	5.e-002	5.713
6076	21.75	2.7	0.	85.724
6077	21.6	2.55	0.	79.909
6078	21.6	2.7	5.e-002	5.6971
6079	22.05	2.7	0.	95.513
6080	21.9	2.55	0.	89.003
6081	21.9	2.7	5.e-002	5.6892
6082	22.35	2.7	0.	106.44
6083	22.2	2.55	0.	99.2
6084	22.2	2.7	5.e-002	5.6914
6085	22.65	2.7	0.	118.57
6086	22.5	2.55	0.	110.58
6087	22.5	2.7	5.e-002	5.7059
6088	22.95	2.7	0.	131.94
6089	22.8	2.55	0.	123.21
6090	22.8	2.7	5.e-002	5.7353
6091	23.25	2.7	0.	146.62
6092	23.1	2.55	0.	137.09
6093	23.1	2.7	5.e-002	5.779
6094	23.55	2.7	0.	162.29
6095	23.4	2.55	0.	152.43
6096	23.4	2.7	5.e-002	5.8464
6097	23.7	2.55	0.	168.34
6098	23.7	2.7	5.e-002	5.9029
6099	23.85	2.7	0.	176.83
6100	0.45	2.4	0.	405.86
6101	0.3	2.25	0.	1069.7
6102	0.3	2.4	5.e-002	16.073
6103	0.15	2.4	0.	-1460.1
6104	0.75	2.4	0.	-99.938
6105	0.6	2.25	0.	-262.07
6106	0.6	2.4	5.e-002	41.264
6107	1.05	2.4	0.	23.742
6108	0.9	2.25	0.	63.131
6109	0.9	2.4	5.e-002	28.613
6110	1.35	2.4	0.	-6.0924
6111	1.2	2.25	0.	-15.792
6112	1.2	2.4	5.e-002	25.845
6113	1.65	2.4	0.	1.4878
6114	1.5	2.25	0.	3.8326
6115	1.5	2.4	5.e-002	21.623
6116	1.95	2.4	0.	-0.13743
6117	1.8	2.25	0.	-0.68996
6118	1.8	2.4	5.e-002	18.718
6119	2.25	2.4	0.	0.40288
6120	2.1	2.25	0.	0.57451
6121	2.1	2.4	5.e-002	16.347
6122	2.55	2.4	0.	0.34872
6123	2.4	2.25	0.	0.34726
6124	2.4	2.4	5.e-002	14.54
6125	2.85	2.4	0.	0.39183
6126	2.7	2.25	0.	0.42986
6127	2.7	2.4	5.e-002	13.14
6128	3.15	2.4	0.	0.37966
6129	3.	2.25	0.	0.40327
6130	3.	2.4	5.e-002	12.06
6131	3.45	2.4	0.	0.36171
6132	3.3	2.25	0.	0.38397
6133	3.3	2.4	5.e-002	11.225
6134	3.75	2.4	0.	0.33448
6135	3.6	2.25	0.	0.35282
6136	3.6	2.4	5.e-002	10.575
6137	4.05	2.4	0.	0.30453
6138	3.9	2.25	0.	0.32031
6139	3.9	2.4	5.e-002	10.065
6140	4.35	2.4	0.	0.27385
6141	4.2	2.25	0.	0.28739
6142	4.2	2.4	5.e-002	9.6623
6143	4.65	2.4	0.	0.24416
6144	4.5	2.25	0.	0.25589
6145	4.5	2.4	5.e-002	9.3396
6146	4.95	2.4	0.	0.21628
6147	4.8	2.25	0.	0.22649
6148	4.8	2.4	5.e-002	9.0774
6149	5.25	2.4	0.	0.19064
6150	5.1	2.25	0.	0.19956
6151	5.1	2.4	5.e-002	8.8609
6152	5.55	2.4	0.	0.1674
6153	5.4	2.25	0.	0.1752
6154	5.4	2.4	5.e-002	8.6792
6155	5.85	2.4	0.	0.14654
6156	5.7	2.25	0.	0.15336
6157	5.7	2.4	5.e-002	8.5241
6158	6.15	2.4	0.	0.12794
6159	6.	2.25	0.	0.1339
6160	6.	2.4	5.e-002	8.3894
6161	6.45	2.4	0.	0.11144
6162	6.3	2.25	0.	0.11664
6163	6.3	2.4	5.e-002	8.2707
6164	6.75	2.4	0.	9.6854e-002
6165	6.6	2.25	0.	0.10138
6166	6.6	2.4	5.e-002	8.1646
6167	7.05	2.4	0.	8.4e-002
6168	6.9	2.25	0.	8.7936e-002
6169	6.9	2.4	5.e-002	8.0685
6170	7.35	2.4	0.	7.2693e-002
6171	7.2	2.25	0.	7.6102e-002
6172	7.2	2.4	5.e-002	7.9804
6173	7.65	2.4	0.	6.2764e-002
6174	7.5	2.25	0.	6.5706e-002
6175	7.5	2.4	5.e-002	7.8988
6176	7.95	2.4	0.	5.4054e-002
6177	7.8	2.25	0.	5.6583e-002
6178	7.8	2.4	5.e-002	7.8227
6179	8.25	2.4	0.	4.6423e-002
6180	8.1	2.25	0.	4.8588e-002
6181	8.1	2.4	5.e-002	7.751
6182	8.55	2.4	0.	3.9743e-002
6183	8.4	2.25	0.	4.1587e-002
6184	8.4	2.4	5.e-002	7.683
6185	8.85	2.4	0.	3.3903e-002
6186	8.7	2.25	0.	3.5464e-002
6187	8.7	2.4	5.e-002	7.6182
6188	9.15	2.4	0.	2.8801e-002
6189	9.	2.25	0.	3.0114e-002
6190	9.	2.4	5.e-002	7.556
6191	9.45	2.4	0.	2.4351e-002
6192	9.3	2.25	0.	2.5448e-002
6193	9.3	2.4	5.e-002	7.4961
6194	9.75	2.4	0.	2.0476e-002
6195	9.6	2.25	0.	2.1384e-002
6196	9.6	2.4	5.e-002	7.4381
6197	10.05	2.4	0.	1.7109e-002
6198	9.9	2.25	0.	1.7855e-002
6199	9.9	2.4	5.e-002	7.3818
6200	10.35	2.4	0.	1.4193e-002
6201	10.2	2.25	0.	1.4802e-002
6202	10.2	2.4	5.e-002	7.3269
6203	10.65	2.4	0.	1.1681e-002
6204	10.5	2.25	0.	1.2175e-002
6205	10.5	2.4	5.e-002	7.2733
6206	10.95	2.4	0.	9.5341e-003
6207	10.8	2.25	0.	9.9395e-003
6208	10.8	2.4	5.e-002	7.2207
6209	11.25	2.4	0.	7.7312e-003
6210	11.1	2.25	0.	8.074e-003
6211	11.1	2.4	5.e-002	7.1691
6212	11.55	2.4	0.	6.2738e-003
6213	11.4	2.25	0.	6.5881e-003
6214	11.4	2.4	5.e-002	7.1184
6215	11.85	2.4	0.	5.2328e-003
6216	11.7	2.25	0.	5.5604e-003
6217	11.7	2.4	5.e-002	7.0683
6218	12.15	2.4	0.	4.958e-003
6219	12.	2.25	0.	5.3291e-003
6220	12.	2.4	5.e-002	7.0189
6221	12.45	2.4	0.	8.8998e-003
6222	12.3	2.25	0.	8.0728e-003
6223	12.3	2.4	5.e-002	6.97
6224	12.75	2.4	0.	1.0401
6225	12.6	2.25	0.	0.4495
6226	12.6	2.4	5.e-002	6.9216
6227	13.05	2.4	0.	2.8729
6228	12.9	2.25	0.	2.3093
6229	12.9	2.4	5.e-002	6.8737
6230	13.35	2.4	0.	4.5378
6231	13.2	2.25	0.	4.0065
6232	13.2	2.4	5.e-002	6.8262
6233	13.65	2.4	0.	6.0599
6234	13.5	2.25	0.	5.5529
6235	13.5	2.4	5.e-002	6.779
6236	13.95	2.4	0.	7.4648
6237	13.8	2.25	0.	6.9738
6238	13.8	2.4	5.e-002	6.7321
6239	14.25	2.4	0.	8.7762
6240	14.1	2.25	0.	8.2929
6241	14.1	2.4	5.e-002	6.6856
6242	14.55	2.4	0.	10.016
6243	14.4	2.25	0.	9.5323
6244	14.4	2.4	5.e-002	6.6393
6245	14.85	2.4	0.	11.205
6246	14.7	2.25	0.	10.713
6247	14.7	2.4	5.e-002	6.5933
6248	15.15	2.4	0.	12.364
6249	15.	2.25	0.	11.854
6250	15.	2.4	5.e-002	6.5476
6251	15.45	2.4	0.	13.513
6252	15.3	2.25	0.	12.976
6253	15.3	2.4	5.e-002	6.5021
6254	15.75	2.4	0.	14.669
6255	15.6	2.25	0.	14.096
6256	15.6	2.4	5.e-002	6.4568
6257	16.05	2.4	0.	15.854
6258	15.9	2.25	0.	15.234
6259	15.9	2.4	5.e-002	6.4118
6260	16.35	2.4	0.	17.086
6261	16.2	2.25	0.	16.408
6262	16.2	2.4	5.e-002	6.3671
6263	16.65	2.4	0.	18.387
6264	16.5	2.25	0.	17.638
6265	16.5	2.4	5.e-002	6.3226
6266	16.95	2.4	0.	19.778
6267	16.8	2.25	0.	18.945
6268	16.8	2.4	5.e-002	6.2784
6269	17.25	2.4	0.	21.283
6270	17.1	2.25	0.	20.35
6271	17.1	2.4	5.e-002	6.2346
6272	17.55	2.4	0.	22.927
6273	17.4	2.25	0.	21.876
6274	17.4	2.4	5.e-002	6.1911
6275	17.85	2.4	0.	24.738
6276	17.7	2.25	0.	23.55
6277	17.7	2.4	5.e-002	6.148
6278	18.15	2.4	0.	26.746
6279	18.	2.25	0.	25.398
6280	18.	2.4	5.e-002	6.1053
6281	18.45	2.4	0.	28.984
6282	18.3	2.25	0.	27.451
6283	18.3	2.4	5.e-002	6.0632
6284	18.75	2.4	0.	31.49
6285	18.6	2.25	0.	29.744
6286	18.6	2.4	5.e-002	6.0217
6287	19.05	2.4	0.	34.305
6288	18.9	2.25	0.	32.314
6289	18.9	2.4	5.e-002	5.981
6290	19.35	2.4	0.	37.476
6291	19.2	2.25	0.	35.204
6292	19.2	2.4	5.e-002	5.9411
6293	19.65	2.4	0.	41.054
6294	19.5	2.25	0.	38.46
6295	19.5	2.4	5.e-002	5.9023
6296	19.95	2.4	0.	45.099
6297	19.8	2.25	0.	42.136
6298	19.8	2.4	5.e-002	5.8649
6299	20.25	2.4	0.	49.674
6300	20.1	2.25	0.	46.291
6301	20.1	2.4	5.e-002	5.8291
6302	20.55	2.4	0.	54.851
6303	20.4	2.25	0.	50.991
6304	20.4	2.4	5.e-002	5.7955
6305	20.85	2.4	0.	60.709
6306	20.7	2.25	0.	56.311
6307	20.7	2.4	5.e-002	5.7647
6308	21.15	2.4	0.	67.335
6309	21.	2.25	0.	62.333
6310	21.	2.4	5.e-002	5.7374
6311	21.45	2.4	0.	74.819
6312	21.3	2.25	0.	69.145
6313	21.3	2.4	5.e-002	5.7147
6314	21.75	2.4	0.	83.26
6315	21.6	2.25	0.	76.847
6316	21.6	2.4	5.e-002	5.6979
6317	22.05	2.4	0.	92.754
6318	21.9	2.25	0.	85.542
6319	21.9	2.4	5.e-002	5.6889
6320	22.35	2.4	0.	103.39
6321	22.2	2.25	0.	95.335
6322	22.2	2.4	5.e-002	5.6897
6323	22.65	2.4	0.	115.26
6324	22.5	2.25	0.	106.33
6325	22.5	2.4	5.e-002	5.7026
6326	22.95	2.4	0.	128.4
6327	22.8	2.25	0.	118.62
6328	22.8	2.4	5.e-002	5.7309
6329	23.25	2.4	0.	142.92
6330	23.1	2.25	0.	132.22
6331	23.1	2.4	5.e-002	5.7742
6332	23.55	2.4	0.	158.5
6333	23.4	2.25	0.	147.36
6334	23.4	2.4	5.e-002	5.843
6335	23.7	2.25	0.	163.19
6336	23.7	2.4	5.e-002	5.906
6337	23.85	2.4	0.	172.98
6338	0.45	2.1	0.	401.74
6339	0.3	1.95	0.	1056.
6340	0.3	2.1	5.e-002	17.887
6341	0.15	2.1	0.	-1445.
6342	0.75	2.1	0.	-99.014
6343	0.6	1.95	0.	-258.9
6344	0.6	2.1	5.e-002	41.376
6345	1.05	2.1	0.	23.601
6346	0.9	1.95	0.	62.412
6347	0.9	2.1	5.e-002	28.34
6348	1.35	2.1	0.	-5.8632
6349	1.2	1.95	0.	-15.361
6350	1.2	2.1	5.e-002	25.381
6351	1.65	2.1	0.	1.659
6352	1.5	1.95	0.	4.041
6353	1.5	2.1	5.e-002	21.329
6354	1.95	2.1	0.	2.6129e-002
6355	1.8	1.95	0.	-0.45584
6356	1.8	2.1	5.e-002	18.645
6357	2.25	2.1	0.	0.5228
6358	2.1	1.95	0.	0.73887
6359	2.1	2.1	5.e-002	16.474
6360	2.55	2.1	0.	0.43193
6361	2.4	1.95	0.	0.46297
6362	2.4	2.1	5.e-002	14.799
6363	2.85	2.1	0.	0.44441
6364	2.7	1.95	0.	0.50338
6365	2.7	2.1	5.e-002	13.467
6366	3.15	2.1	0.	0.41028
6367	3.	1.95	0.	0.44735
6368	3.	2.1	5.e-002	12.407
6369	3.45	2.1	0.	0.37741
6370	3.3	1.95	0.	0.408
6371	3.3	2.1	5.e-002	11.56
6372	3.75	2.1	0.	0.34065
6373	3.6	1.95	0.	0.364
6374	3.6	2.1	5.e-002	10.882
6375	4.05	2.1	0.	0.30489
6376	3.9	1.95	0.	0.32355
6377	3.9	2.1	5.e-002	10.336
6378	4.35	2.1	0.	0.27089
6379	4.2	1.95	0.	0.28598
6380	4.2	2.1	5.e-002	9.8956
6381	4.65	2.1	0.	0.23947
6382	4.5	1.95	0.	0.25191
6383	4.5	2.1	5.e-002	9.5368
6384	4.95	2.1	0.	0.21083
6385	4.8	1.95	0.	0.22125
6386	4.8	2.1	5.e-002	9.2418
6387	5.25	2.1	0.	0.18502
6388	5.1	1.95	0.	0.19384
6389	5.1	2.1	5.e-002	8.9968
6390	5.55	2.1	0.	0.16193
6391	5.4	1.95	0.	0.16946
6392	5.4	2.1	5.e-002	8.7907
6393	5.85	2.1	0.	0.14137
6394	5.7	1.95	0.	0.14784
6395	5.7	2.1	5.e-002	8.6152
6396	6.15	2.1	0.	0.12315
6397	6.	1.95	0.	0.12871
6398	6.	2.1	5.e-002	8.4636
6399	6.45	2.1	0.	0.10705
6400	6.3	1.95	0.	0.11184
6401	6.3	2.1	5.e-002	8.331
6402	6.75	2.1	0.	9.2858e-002
6403	6.6	1.95	0.	9.6971e-002
6404	6.6	2.1	5.e-002	8.2135
6405	7.05	2.1	0.	8.0365e-002
6406	6.9	1.95	0.	8.389e-002
6407	6.9	2.1	5.e-002	8.1082
6408	7.35	2.1	0.	6.9385e-002
6409	7.2	1.95	0.	7.2394e-002
6410	7.2	2.1	5.e-002	8.0126
6411	7.65	2.1	0.	5.9747e-002
6412	7.5	1.95	0.	6.2302e-002
6413	7.5	2.1	5.e-002	7.9251
6414	7.95	2.1	0.	5.1296e-002
6415	7.8	1.95	0.	5.3451e-002
6416	7.8	2.1	5.e-002	7.844
6417	8.25	2.1	0.	4.3894e-002
6418	8.1	1.95	0.	4.5696e-002
6419	8.1	2.1	5.e-002	7.7684
6420	8.55	2.1	0.	3.7417e-002
6421	8.4	1.95	0.	3.8909e-002
6422	8.4	2.1	5.e-002	7.6973
6423	8.85	2.1	0.	3.1757e-002
6424	8.7	1.95	0.	3.2975e-002
6425	8.7	2.1	5.e-002	7.6298
6426	9.15	2.1	0.	2.6818e-002
6427	9.	1.95	0.	2.7797e-002
6428	9.	2.1	5.e-002	7.5656
6429	9.45	2.1	0.	2.2517e-002
6430	9.3	1.95	0.	2.3288e-002
6431	9.3	2.1	5.e-002	7.504
6432	9.75	2.1	0.	1.8781e-002
6433	9.6	1.95	0.	1.9372e-002
6434	9.6	2.1	5.e-002	7.4447
6435	10.05	2.1	0.	1.5551e-002
6436	9.9	1.95	0.	1.5988e-002
6437	9.9	2.1	5.e-002	7.3872
6438	10.35	2.1	0.	1.2775e-002
6439	10.2	1.95	0.	1.3083e-002
6440	10.2	2.1	5.e-002	7.3315
6441	10.65	2.1	0.	1.0417e-002
6442	10.5	1.95	0.	1.0622e-002
6443	10.5	2.1	5.e-002	7.2771
6444	10.95	2.1	0.	8.457e-003
6445	10.8	1.95	0.	8.5865e-003
6446	10.8	2.1	5.e-002	7.224
6447	11.25	2.1	0.	6.9067e-003
6448	11.1	1.95	0.	6.9914e-003
6449	11.1	2.1	5.e-002	7.1719
6450	11.55	2.1	0.	5.8488e-003
6451	11.4	1.95	0.	5.9289e-003
6452	11.4	2.1	5.e-002	7.1207
6453	11.85	2.1	0.	5.5943e-003
6454	11.7	1.95	0.	5.7115e-003
6455	11.7	2.1	5.e-002	7.0703
6456	12.15	2.1	0.	7.709e-003
6457	12.	1.95	0.	7.7162e-003
6458	12.	2.1	5.e-002	7.0206
6459	12.45	2.1	0.	6.464e-002
6460	12.3	1.95	0.	3.0631e-002
6461	12.3	2.1	5.e-002	6.9716
6462	12.75	2.1	0.	1.7684
6463	12.6	1.95	0.	1.3618
6464	12.6	2.1	5.e-002	6.923
6465	13.05	2.1	0.	3.508
6466	12.9	1.95	0.	3.1163
6467	12.9	2.1	5.e-002	6.875
6468	13.35	2.1	0.	5.0892
6469	13.2	1.95	0.	4.7094
6470	13.2	2.1	5.e-002	6.8273
6471	13.65	2.1	0.	6.5364
6472	13.5	1.95	0.	6.1627
6473	13.5	2.1	5.e-002	6.78
6474	13.95	2.1	0.	7.8735
6475	13.8	1.95	0.	7.4997
6476	13.8	2.1	5.e-002	6.7331
6477	14.25	2.1	0.	9.1225
6478	14.1	1.95	0.	8.7424
6479	14.1	2.1	5.e-002	6.6865
6480	14.55	2.1	0.	10.304
6481	14.4	1.95	0.	9.9113
6482	14.4	2.1	5.e-002	6.6402
6483	14.85	2.1	0.	11.439
6484	14.7	1.95	0.	11.026
6485	14.7	2.1	5.e-002	6.5942
6486	15.15	2.1	0.	12.545
6487	15.	1.95	0.	12.104
6488	15.	2.1	5.e-002	6.5485
6489	15.45	2.1	0.	13.64
6490	15.3	1.95	0.	13.163
6491	15.3	2.1	5.e-002	6.503
6492	15.75	2.1	0.	14.743
6493	15.6	1.95	0.	14.222
6494	15.6	2.1	5.e-002	6.4578
6495	16.05	2.1	0.	15.873
6496	15.9	1.95	0.	15.296
6497	15.9	2.1	5.e-002	6.4128
6498	16.35	2.1	0.	17.047
6499	16.2	1.95	0.	16.404
6500	16.2	2.1	5.e-002	6.3682
6501	16.65	2.1	0.	18.284
6502	16.5	1.95	0.	17.563
6503	16.5	2.1	5.e-002	6.3238
6504	16.95	2.1	0.	19.606
6505	16.8	1.95	0.	18.793
6506	16.8	2.1	5.e-002	6.2797
6507	17.25	2.1	0.	21.035
6508	17.1	1.95	0.	20.113
6509	17.1	2.1	5.e-002	6.236
6510	17.55	2.1	0.	22.592
6511	17.4	1.95	0.	21.544
6512	17.4	2.1	5.e-002	6.1926
6513	17.85	2.1	0.	24.305
6514	17.7	1.95	0.	23.11
6515	17.7	2.1	5.e-002	6.1497
6516	18.15	2.1	0.	26.2
6517	18.	1.95	0.	24.836
6518	18.	2.1	5.e-002	6.1073
6519	18.45	2.1	0.	28.31
6520	18.3	1.95	0.	26.749
6521	18.3	2.1	5.e-002	6.0654
6522	18.75	2.1	0.	30.668
6523	18.6	1.95	0.	28.881
6524	18.6	2.1	5.e-002	6.0242
6525	19.05	2.1	0.	33.313
6526	18.9	1.95	0.	31.265
6527	18.9	2.1	5.e-002	5.9837
6528	19.35	2.1	0.	36.288
6529	19.2	1.95	0.	33.941
6530	19.2	2.1	5.e-002	5.9442
6531	19.65	2.1	0.	39.642
6532	19.5	1.95	0.	36.951
6533	19.5	2.1	5.e-002	5.9057
6534	19.95	2.1	0.	43.428
6535	19.8	1.95	0.	40.343
6536	19.8	2.1	5.e-002	5.8686
6537	20.25	2.1	0.	47.707
6538	20.1	1.95	0.	44.173
6539	20.1	2.1	5.e-002	5.8331
6540	20.55	2.1	0.	52.549
6541	20.4	1.95	0.	48.501
6542	20.4	2.1	5.e-002	5.7996
6543	20.85	2.1	0.	58.029
6544	20.7	1.95	0.	53.399
6545	20.7	2.1	5.e-002	5.7687
6546	21.15	2.1	0.	64.234
6547	21.	1.95	0.	58.944
6548	21.	2.1	5.e-002	5.7411
6549	21.45	2.1	0.	71.259
6550	21.3	1.95	0.	65.228
6551	21.3	2.1	5.e-002	5.7177
6552	21.75	2.1	0.	79.209
6553	21.6	1.95	0.	72.353
6554	21.6	2.1	5.e-002	5.6997
6555	22.05	2.1	0.	88.195
6556	21.9	1.95	0.	80.431
6557	21.9	2.1	5.e-002	5.6889
6558	22.35	2.1	0.	98.331
6559	22.2	1.95	0.	89.591
6560	22.2	2.1	5.e-002	5.6873
6561	22.65	2.1	0.	109.73
6562	22.5	1.95	0.	99.961
6563	22.5	2.1	5.e-002	5.6976
6564	22.95	2.1	0.	122.47
6565	22.8	1.95	0.	111.68
6566	22.8	2.1	5.e-002	5.7236
6567	23.25	2.1	0.	136.69
6568	23.1	1.95	0.	124.82
6569	23.1	2.1	5.e-002	5.7661
6570	23.55	2.1	0.	152.08
6571	23.4	1.95	0.	139.63
6572	23.4	2.1	5.e-002	5.8371
6573	23.7	1.95	0.	155.3
6574	23.7	2.1	5.e-002	5.9109
6575	23.85	2.1	0.	166.46
6576	0.45	1.8	0.	395.29
6577	0.3	1.65	0.	1034.6
6578	0.3	1.8	5.e-002	20.573
6579	0.15	1.8	0.	-1421.2
6580	0.75	1.8	0.	-97.484
6581	0.6	1.65	0.	-253.88
6582	0.6	1.8	5.e-002	41.367
6583	1.05	1.8	0.	23.456
6584	0.9	1.65	0.	61.415
6585	0.9	1.8	5.e-002	28.016
6586	1.35	1.8	0.	-5.4507
6587	1.2	1.65	0.	-14.625
6588	1.2	1.8	5.e-002	24.943
6589	1.65	1.8	0.	1.9329
6590	1.5	1.65	0.	4.3504
6591	1.5	1.8	5.e-002	21.216
6592	1.95	1.8	0.	0.26315
6593	1.8	1.65	0.	-0.14504
6594	1.8	1.8	5.e-002	18.793
6595	2.25	1.8	0.	0.6846
6596	2.1	1.65	0.	0.93281
6597	2.1	1.8	5.e-002	16.808
6598	2.55	1.8	0.	0.53924
6599	2.4	1.65	0.	0.59014
6600	2.4	1.8	5.e-002	15.227
6601	2.85	1.8	0.	0.51046
6602	2.7	1.65	0.	0.57849
6603	2.7	1.8	5.e-002	13.927
6604	3.15	1.8	0.	0.4486
6605	3.	1.65	0.	0.48932
6606	3.	1.8	5.e-002	12.86
6607	3.45	1.8	0.	0.39759
6608	3.3	1.65	0.	0.42854
6609	3.3	1.8	5.e-002	11.983
6610	3.75	1.8	0.	0.34946
6611	3.6	1.65	0.	0.37139
6612	3.6	1.8	5.e-002	11.262
6613	4.05	1.8	0.	0.30682
6614	3.9	1.65	0.	0.32311
6615	3.9	1.8	5.e-002	10.67
6616	4.35	1.8	0.	0.26885
6617	4.2	1.65	0.	0.28112
6618	4.2	1.8	5.e-002	10.183
6619	4.65	1.8	0.	0.23527
6620	4.5	1.65	0.	0.24476
6621	4.5	1.8	5.e-002	9.7802
6622	4.95	1.8	0.	0.2056
6623	4.8	1.65	0.	0.2131
6624	4.8	1.8	5.e-002	9.4459
6625	5.25	1.8	0.	0.17942
6626	5.1	1.65	0.	0.18546
6627	5.1	1.8	5.e-002	9.1664
6628	5.55	1.8	0.	0.15634
6629	5.4	1.65	0.	0.16127
6630	5.4	1.8	5.e-002	8.9307
6631	5.85	1.8	0.	0.136
6632	5.7	1.65	0.	0.14007
6633	5.7	1.8	5.e-002	8.7301
6634	6.15	1.8	0.	0.1181
6635	6.	1.65	0.	0.12148
6636	6.	1.8	5.e-002	8.5576
6637	6.45	1.8	0.	0.10234
6638	6.3	1.65	0.	0.10515
6639	6.3	1.8	5.e-002	8.4077
6640	6.75	1.8	0.	8.8496e-002
6641	6.6	1.65	0.	9.0826e-002
6642	6.6	1.8	5.e-002	8.276
6643	7.05	1.8	0.	7.6331e-002
6644	6.9	1.65	0.	7.825e-002
6645	6.9	1.8	5.e-002	8.159
6646	7.35	1.8	0.	6.5652e-002
6647	7.2	1.65	0.	6.7216e-002
6648	7.2	1.8	5.e-002	8.054
6649	7.65	1.8	0.	5.6285e-002
6650	7.5	1.65	0.	5.7539e-002
6651	7.5	1.8	5.e-002	7.9588
6652	7.95	1.8	0.	4.8075e-002
6653	7.8	1.65	0.	4.9059e-002
6654	7.8	1.8	5.e-002	7.8715
6655	8.25	1.8	0.	4.0888e-002
6656	8.1	1.65	0.	4.1634e-002
6657	8.1	1.8	5.e-002	7.7908
6658	8.55	1.8	0.	3.4603e-002
6659	8.4	1.65	0.	3.5141e-002
6660	8.4	1.8	5.e-002	7.7156
6661	8.85	1.8	0.	2.9116e-002
6662	8.7	1.65	0.	2.9471e-002
6663	8.7	1.8	5.e-002	7.6449
6664	9.15	1.8	0.	2.4336e-002
6665	9.	1.65	0.	2.4532e-002
6666	9.	1.8	5.e-002	7.578
6667	9.45	1.8	0.	2.0184e-002
6668	9.3	1.65	0.	2.0242e-002
6669	9.3	1.8	5.e-002	7.5143
6670	9.75	1.8	0.	1.6595e-002
6671	9.6	1.65	0.	1.6537e-002
6672	9.6	1.8	5.e-002	7.4531
6673	10.05	1.8	0.	1.3516e-002
6674	9.9	1.65	0.	1.3361e-002
6675	9.9	1.8	5.e-002	7.3943
6676	10.35	1.8	0.	1.0909e-002
6677	10.2	1.65	0.	1.0677e-002
6678	10.2	1.8	5.e-002	7.3374
6679	10.65	1.8	0.	8.7566e-003
6680	10.5	1.65	0.	8.4706e-003
6681	10.5	1.8	5.e-002	7.2821
6682	10.95	1.8	0.	7.0745e-003
6683	10.8	1.65	0.	6.7633e-003
6684	10.8	1.8	5.e-002	7.2282
6685	11.25	1.8	0.	5.9567e-003
6686	11.1	1.65	0.	5.6579e-003
6687	11.1	1.8	5.e-002	7.1755
6688	11.55	1.8	0.	5.7097e-003
6689	11.4	1.65	0.	5.4814e-003
6690	11.4	1.8	5.e-002	7.1238
6691	11.85	1.8	0.	7.5462e-003
6692	11.7	1.65	0.	7.4603e-003
6693	11.7	1.8	5.e-002	7.073
6694	12.15	1.8	0.	2.226e-002
6695	12.	1.65	0.	2.0898e-002
6696	12.	1.8	5.e-002	7.0229
6697	12.45	1.8	0.	0.99559
6698	12.3	1.65	0.	0.8019
6699	12.3	1.8	5.e-002	6.9736
6700	12.75	1.8	0.	2.7701
6701	12.6	1.65	0.	2.5653
6702	12.6	1.8	5.e-002	6.9248
6703	13.05	1.8	0.	4.3831
6704	12.9	1.65	0.	4.172
6705	12.9	1.8	5.e-002	6.8765
6706	13.35	1.8	0.	5.8506
6707	13.2	1.65	0.	5.6307
6708	13.2	1.8	5.e-002	6.8287
6709	13.65	1.8	0.	7.1958
6710	13.5	1.65	0.	6.9639
6711	13.5	1.8	5.e-002	6.7814
6712	13.95	1.8	0.	8.4404
6713	13.8	1.65	0.	8.1926
6714	13.8	1.8	5.e-002	6.7344
6715	14.25	1.8	0.	9.6049
6716	14.1	1.65	0.	9.3369
6717	14.1	1.8	5.e-002	6.6877
6718	14.55	1.8	0.	10.708
6719	14.4	1.65	0.	10.415
6720	14.4	1.8	5.e-002	6.6414
6721	14.85	1.8	0.	11.768
6722	14.7	1.65	0.	11.444
6723	14.7	1.8	5.e-002	6.5954
6724	15.15	1.8	0.	12.802
6725	15.	1.65	0.	12.441
6726	15.	1.8	5.e-002	6.5496
6727	15.45	1.8	0.	13.826
6728	15.3	1.65	0.	13.422
6729	15.3	1.8	5.e-002	6.5042
6730	15.75	1.8	0.	14.857
6731	15.6	1.65	0.	14.401
6732	15.6	1.8	5.e-002	6.459
6733	16.05	1.8	0.	15.912
6734	15.9	1.65	0.	15.394
6735	15.9	1.8	5.e-002	6.4141
6736	16.35	1.8	0.	17.008
6737	16.2	1.65	0.	16.418
6738	16.2	1.8	5.e-002	6.3696
6739	16.65	1.8	0.	18.161
6740	16.5	1.65	0.	17.487
6741	16.5	1.8	5.e-002	6.3253
6742	16.95	1.8	0.	19.39
6743	16.8	1.65	0.	18.619
6744	16.8	1.8	5.e-002	6.2814
6745	17.25	1.8	0.	20.715
6746	17.1	1.65	0.	19.831
6747	17.1	1.8	5.e-002	6.2379
6748	17.55	1.8	0.	22.156
6749	17.4	1.65	0.	21.141
6750	17.4	1.8	5.e-002	6.1948
6751	17.85	1.8	0.	23.737
6752	17.7	1.65	0.	22.57
6753	17.7	1.8	5.e-002	6.1521
6754	18.15	1.8	0.	25.482
6755	18.	1.65	0.	24.141
6756	18.	1.8	5.e-002	6.1099
6757	18.45	1.8	0.	27.419
6758	18.3	1.65	0.	25.876
6759	18.3	1.8	5.e-002	6.0684
6760	18.75	1.8	0.	29.579
6761	18.6	1.65	0.	27.804
6762	18.6	1.8	5.e-002	6.0275
6763	19.05	1.8	0.	31.996
6764	18.9	1.65	0.	29.953
6765	18.9	1.8	5.e-002	5.9875
6766	19.35	1.8	0.	34.707
6767	19.2	1.65	0.	32.357
6768	19.2	1.8	5.e-002	5.9483
6769	19.65	1.8	0.	37.757
6770	19.5	1.65	0.	35.054
6771	19.5	1.8	5.e-002	5.9103
6772	19.95	1.8	0.	41.193
6773	19.8	1.65	0.	38.085
6774	19.8	1.8	5.e-002	5.8736
6775	20.25	1.8	0.	45.072
6776	20.1	1.65	0.	41.498
6777	20.1	1.8	5.e-002	5.8385
6778	20.55	1.8	0.	49.456
6779	20.4	1.65	0.	45.349
6780	20.4	1.8	5.e-002	5.8053
6781	20.85	1.8	0.	54.417
6782	20.7	1.65	0.	49.7
6783	20.7	1.8	5.e-002	5.7744
6784	21.15	1.8	0.	60.039
6785	21.	1.65	0.	54.625
6786	21.	1.8	5.e-002	5.7466
6787	21.45	1.8	0.	66.418
6788	21.3	1.65	0.	60.21
6789	21.3	1.8	5.e-002	5.7224
6790	21.75	1.8	0.	73.666
6791	21.6	1.65	0.	66.559
6792	21.6	1.8	5.e-002	5.703
6793	22.05	1.8	0.	81.911
6794	21.9	1.65	0.	73.793
6795	21.9	1.8	5.e-002	5.6898
6796	22.35	1.8	0.	91.294
6797	22.2	1.65	0.	82.058
6798	22.2	1.8	5.e-002	5.6851
6799	22.65	1.8	0.	101.97
6800	22.5	1.65	0.	91.522
6801	22.5	1.8	5.e-002	5.6916
6802	22.95	1.8	0.	114.08
6803	22.8	1.65	0.	102.38
6804	22.8	1.8	5.e-002	5.7139
6805	23.25	1.8	0.	127.8
6806	23.1	1.65	0.	114.78
6807	23.1	1.8	5.e-002	5.7545
6808	23.55	1.8	0.	142.89
6809	23.4	1.65	0.	129.07
6810	23.4	1.8	5.e-002	5.828
6811	23.7	1.65	0.	144.47
6812	23.7	1.8	5.e-002	5.9174
6813	23.85	1.8	0.	157.09
6814	0.45	1.5	0.	385.33
6815	0.3	1.35	0.	1002.1
6816	0.3	1.5	5.e-002	24.326
6817	0.15	1.5	0.	-1385.5
6818	0.75	1.5	0.	-94.982
6819	0.6	1.35	0.	-245.74
6820	0.6	1.5	5.e-002	41.21
6821	1.05	1.5	0.	23.346
6822	0.9	1.35	0.	60.201
6823	0.9	1.5	5.e-002	28.027
6824	1.35	1.5	0.	-4.811
6825	1.2	1.35	0.	-13.369
6826	1.2	1.5	5.e-002	24.985
6827	1.65	1.5	0.	2.2842
6828	1.5	1.35	0.	4.8029
6829	1.5	1.5	5.e-002	21.632
6830	1.95	1.5	0.	0.53481
6831	1.8	1.35	0.	0.26443
6832	1.8	1.5	5.e-002	19.337
6833	2.25	1.5	0.	0.84696
6834	2.1	1.35	0.	1.1673
6835	2.1	1.5	5.e-002	17.397
6836	2.55	1.5	0.	0.6366
6837	2.4	1.35	0.	0.74584
6838	2.4	1.5	5.e-002	15.806
6839	2.85	1.5	0.	0.56339
6840	2.7	1.35	0.	0.67547
6841	2.7	1.5	5.e-002	14.475
6842	3.15	1.5	0.	0.47433
6843	3.	1.35	0.	0.55143
6844	3.	1.5	5.e-002	13.366
6845	3.45	1.5	0.	0.40661
6846	3.3	1.35	0.	0.46801
6847	3.3	1.5	5.e-002	12.441
6848	3.75	1.5	0.	0.34865
6849	3.6	1.35	0.	0.39656
6850	3.6	1.5	5.e-002	11.67
6851	4.05	1.5	0.	0.30047
6852	3.9	1.35	0.	0.33906
6853	3.9	1.5	5.e-002	11.028
6854	4.35	1.5	0.	0.25962
6855	4.2	1.35	0.	0.2911
6856	4.2	1.5	5.e-002	10.492
6857	4.65	1.5	0.	0.22479
6858	4.5	1.35	0.	0.25086
6859	4.5	1.5	5.e-002	10.044
6860	4.95	1.5	0.	0.19483
6861	4.8	1.35	0.	0.21664
6862	4.8	1.5	5.e-002	9.6686
6863	5.25	1.5	0.	0.1689
6864	5.1	1.35	0.	0.1873
6865	5.1	1.5	5.e-002	9.3528
6866	5.55	1.5	0.	0.14636
6867	5.4	1.35	0.	0.16197
6868	5.4	1.5	5.e-002	9.0856
6869	5.85	1.5	0.	0.1267
6870	5.7	1.35	0.	0.13997
6871	5.7	1.5	5.e-002	8.8581
6872	6.15	1.5	0.	0.10951
6873	6.	1.35	0.	0.12082
6874	6.	1.5	5.e-002	8.6629
6875	6.45	1.5	0.	9.4455e-002
6876	6.3	1.35	0.	0.10408
6877	6.3	1.5	5.e-002	8.494
6878	6.75	1.5	0.	8.1269e-002
6879	6.6	1.35	0.	8.9445e-002
6880	6.6	1.5	5.e-002	8.3466
6881	7.05	1.5	0.	6.971e-002
6882	6.9	1.35	0.	7.6628e-002
6883	6.9	1.5	5.e-002	8.2167
6884	7.35	1.5	0.	5.9579e-002
6885	7.2	1.35	0.	6.5402e-002
6886	7.2	1.5	5.e-002	8.1011
6887	7.65	1.5	0.	5.0703e-002
6888	7.5	1.35	0.	5.5569e-002
6889	7.5	1.5	5.e-002	7.9972
6890	7.95	1.5	0.	4.2932e-002
6891	7.8	1.35	0.	4.6959e-002
6892	7.8	1.5	5.e-002	7.9029
6893	8.25	1.5	0.	3.6135e-002
6894	8.1	1.35	0.	3.9427e-002
6895	8.1	1.5	5.e-002	7.8165
6896	8.55	1.5	0.	3.0198e-002
6897	8.4	1.35	0.	3.2846e-002
6898	8.4	1.5	5.e-002	7.7366
6899	8.85	1.5	0.	2.5025e-002
6900	8.7	1.35	0.	2.7107e-002
6901	8.7	1.5	5.e-002	7.6622
6902	9.15	1.5	0.	2.0531e-002
6903	9.	1.35	0.	2.2118e-002
6904	9.	1.5	5.e-002	7.5922
6905	9.45	1.5	0.	1.6648e-002
6906	9.3	1.35	0.	1.7802e-002
6907	9.3	1.5	5.e-002	7.5259
6908	9.75	1.5	0.	1.3319e-002
6909	9.6	1.35	0.	1.4098e-002
6910	9.6	1.5	5.e-002	7.4628
6911	10.05	1.5	0.	1.0507e-002
6912	9.9	1.35	0.	1.0961e-002
6913	9.9	1.5	5.e-002	7.4023
6914	10.35	1.5	0.	8.1955e-003
6915	10.2	1.35	0.	8.377e-003
6916	10.2	1.5	5.e-002	7.344
6917	10.65	1.5	0.	6.4108e-003
6918	10.5	1.35	0.	6.373e-003
6919	10.5	1.5	5.e-002	7.2877
6920	10.95	1.5	0.	5.2606e-003
6921	10.8	1.35	0.	5.0694e-003
6922	10.8	1.5	5.e-002	7.2328
6923	11.25	1.5	0.	5.0824e-003
6924	11.1	1.35	0.	4.8474e-003
6925	11.1	1.5	5.e-002	7.1794
6926	11.55	1.5	0.	7.1051e-003
6927	11.4	1.35	0.	7.1139e-003
6928	11.4	1.5	5.e-002	7.1271
6929	11.85	1.5	0.	1.979e-002
6930	11.7	1.35	0.	2.2021e-002
6931	11.7	1.5	5.e-002	7.0758
6932	12.15	1.5	0.	0.66912
6933	12.	1.35	0.	0.73411
6934	12.	1.5	5.e-002	7.0253
6935	12.45	1.5	0.	2.425
6936	12.3	1.35	0.	2.4603
6937	12.3	1.5	5.e-002	6.9756
6938	12.75	1.5	0.	4.0304
6939	12.6	1.35	0.	4.0353
6940	12.6	1.5	5.e-002	6.9266
6941	13.05	1.5	0.	5.4856
6942	12.9	1.35	0.	5.4611
6943	12.9	1.5	5.e-002	6.8781
6944	13.35	1.5	0.	6.8121
6945	13.2	1.35	0.	6.7582
6946	13.2	1.5	5.e-002	6.8302
6947	13.65	1.5	0.	8.0307
6948	13.5	1.35	0.	7.947
6949	13.5	1.5	5.e-002	6.7827
6950	13.95	1.5	0.	9.161
6951	13.8	1.35	0.	9.0459
6952	13.8	1.5	5.e-002	6.7355
6953	14.25	1.5	0.	10.221
6954	14.1	1.35	0.	10.072
6955	14.1	1.5	5.e-002	6.6888
6956	14.55	1.5	0.	11.227
6957	14.4	1.35	0.	11.042
6958	14.4	1.5	5.e-002	6.6425
6959	14.85	1.5	0.	12.195
6960	14.7	1.35	0.	11.97
6961	14.7	1.5	5.e-002	6.5965
6962	15.15	1.5	0.	13.14
6963	15.	1.35	0.	12.87
6964	15.	1.5	5.e-002	6.5507
6965	15.45	1.5	0.	14.077
6966	15.3	1.35	0.	13.757
6967	15.3	1.5	5.e-002	6.5053
6968	15.75	1.5	0.	15.021
6969	15.6	1.35	0.	14.642
6970	15.6	1.5	5.e-002	6.4603
6971	16.05	1.5	0.	15.985
6972	15.9	1.35	0.	15.541
6973	15.9	1.5	5.e-002	6.4155
6974	16.35	1.5	0.	16.985
6975	16.2	1.35	0.	16.465
6976	16.2	1.5	5.e-002	6.371
6977	16.65	1.5	0.	18.034
6978	16.5	1.35	0.	17.429
6979	16.5	1.5	5.e-002	6.3269
6980	16.95	1.5	0.	19.151
6981	16.8	1.35	0.	18.446
6982	16.8	1.5	5.e-002	6.2832
6983	17.25	1.5	0.	20.35
6984	17.1	1.35	0.	19.531
6985	17.1	1.5	5.e-002	6.2399
6986	17.55	1.5	0.	21.651
6987	17.4	1.35	0.	20.7
6988	17.4	1.5	5.e-002	6.197
6989	17.85	1.5	0.	23.072
6990	17.7	1.35	0.	21.97
6991	17.7	1.5	5.e-002	6.1546
6992	18.15	1.5	0.	24.635
6993	18.	1.35	0.	23.359
6994	18.	1.5	5.e-002	6.1129
6995	18.45	1.5	0.	26.363
6996	18.3	1.35	0.	24.887
6997	18.3	1.5	5.e-002	6.0717
6998	18.75	1.5	0.	28.282
6999	18.6	1.35	0.	26.576
7000	18.6	1.5	5.e-002	6.0313
7001	19.05	1.5	0.	30.421
7002	18.9	1.35	0.	28.45
7003	18.9	1.5	5.e-002	5.9917
7004	19.35	1.5	0.	32.812
7005	19.2	1.35	0.	30.537
7006	19.2	1.5	5.e-002	5.9531
7007	19.65	1.5	0.	35.492
7008	19.5	1.35	0.	32.866
7009	19.5	1.5	5.e-002	5.9156
7010	19.95	1.5	0.	38.502
7011	19.8	1.35	0.	35.473
7012	19.8	1.5	5.e-002	5.8795
7013	20.25	1.5	0.	41.888
7014	20.1	1.35	0.	38.396
7015	20.1	1.5	5.e-002	5.8449
7016	20.55	1.5	0.	45.707
7017	20.4	1.35	0.	41.68
7018	20.4	1.5	5.e-002	5.8122
7019	20.85	1.5	0.	50.022
7020	20.7	1.35	0.	45.38
7021	20.7	1.5	5.e-002	5.7816
7022	21.15	1.5	0.	54.91
7023	21.	1.35	0.	49.558
7024	21.	1.5	5.e-002	5.7536
7025	21.45	1.5	0.	60.463
7026	21.3	1.35	0.	54.29
7027	21.3	1.5	5.e-002	5.7289
7028	21.75	1.5	0.	66.794
7029	21.6	1.35	0.	59.674
7030	21.6	1.5	5.e-002	5.7081
7031	22.05	1.5	0.	74.043
7032	21.9	1.35	0.	65.83
7033	21.9	1.5	5.e-002	5.6925
7034	22.35	1.5	0.	82.38
7035	22.2	1.35	0.	72.915
7036	22.2	1.5	5.e-002	5.684
7037	22.65	1.5	0.	92.015
7038	22.5	1.35	0.	81.13
7039	22.5	1.5	5.e-002	5.6855
7040	22.95	1.5	0.	103.16
7041	22.8	1.35	0.	90.74
7042	22.8	1.5	5.e-002	5.7023
7043	23.25	1.5	0.	116.1
7044	23.1	1.35	0.	102.
7045	23.1	1.5	5.e-002	5.7392
7046	23.55	1.5	0.	130.69
7047	23.4	1.35	0.	115.41
7048	23.4	1.5	5.e-002	5.8153
7049	23.7	1.35	0.	130.36
7050	23.7	1.5	5.e-002	5.9253
7051	23.85	1.5	0.	144.62
7052	0.45	1.2	0.	370.97
7053	0.3	1.05	0.	949.
7054	0.3	1.2	5.e-002	29.486
7055	0.15	1.2	0.	-1330.5
7056	0.75	1.2	0.	-90.544
7057	0.6	1.05	0.	-233.1
7058	0.6	1.2	5.e-002	41.29
7059	1.05	1.2	0.	23.515
7060	0.9	1.05	0.	58.868
7061	0.9	1.2	5.e-002	29.593
7062	1.35	1.2	0.	-3.7282
7063	1.2	1.05	0.	-11.764
7064	1.2	1.2	5.e-002	26.253
7065	1.65	1.2	0.	2.8053
7066	1.5	1.05	0.	5.0905
7067	1.5	1.2	5.e-002	22.841
7068	1.95	1.2	0.	0.915
7069	1.8	1.05	0.	0.54275
7070	1.8	1.2	5.e-002	20.276
7071	2.25	1.2	0.	1.0809
7072	2.1	1.05	0.	1.2595
7073	2.1	1.2	5.e-002	18.153
7074	2.55	1.2	0.	0.79673
7075	2.4	1.05	0.	0.78376
7076	2.4	1.2	5.e-002	16.438
7077	2.85	1.2	0.	0.67343
7078	2.7	1.05	0.	0.67419
7079	2.7	1.2	5.e-002	15.025
7080	3.15	1.2	0.	0.55337
7081	3.	1.05	0.	0.53232
7082	3.	1.2	5.e-002	13.856
7083	3.45	1.2	0.	0.46487
7084	3.3	1.05	0.	0.43939
7085	3.3	1.2	5.e-002	12.88
7086	3.75	1.2	0.	0.39277
7087	3.6	1.05	0.	0.36393
7088	3.6	1.2	5.e-002	12.061
7089	4.05	1.2	0.	0.3346
7090	3.9	1.05	0.	0.30535
7091	3.9	1.2	5.e-002	11.373
7092	4.35	1.2	0.	0.28649
7093	4.2	1.05	0.	0.25803
7094	4.2	1.2	5.e-002	10.793
7095	4.65	1.2	0.	0.24624
7096	4.5	1.05	0.	0.21937
7097	4.5	1.2	5.e-002	10.304
7098	4.95	1.2	0.	0.21211
7099	4.8	1.05	0.	0.18722
7100	4.8	1.2	5.e-002	9.89
7101	5.25	1.2	0.	0.18291
7102	5.1	1.05	0.	0.16015
7103	5.1	1.2	5.e-002	9.5397
7104	5.55	1.2	0.	0.15774
7105	5.4	1.05	0.	0.13712
7106	5.4	1.2	5.e-002	9.242
7107	5.85	1.2	0.	0.13593
7108	5.7	1.05	0.	0.11736
7109	5.7	1.2	5.e-002	8.9879
7110	6.15	1.2	0.	0.11695
7111	6.	1.05	0.	0.10031
7112	6.	1.2	5.e-002	8.7701
7113	6.45	1.2	0.	0.10039
7114	6.3	1.05	0.	8.552e-002
7115	6.3	1.2	5.e-002	8.582
7116	6.75	1.2	0.	8.591e-002
7117	6.6	1.05	0.	7.266e-002
7118	6.6	1.2	5.e-002	8.4184
7119	7.05	1.2	0.	7.3245e-002
7120	6.9	1.05	0.	6.145e-002
7121	6.9	1.2	5.e-002	8.2752
7122	7.35	1.2	0.	6.2159e-002
7123	7.2	1.05	0.	5.1666e-002
7124	7.2	1.2	5.e-002	8.1486
7125	7.65	1.2	0.	5.2454e-002
7126	7.5	1.05	0.	4.3122e-002
7127	7.5	1.2	5.e-002	8.0356
7128	7.95	1.2	0.	4.3964e-002
7129	7.8	1.05	0.	3.5661e-002
7130	7.8	1.2	5.e-002	7.9338
7131	8.25	1.2	0.	3.6542e-002
7132	8.1	1.05	0.	2.915e-002
7133	8.1	1.2	5.e-002	7.8414
7134	8.55	1.2	0.	3.0065e-002
7135	8.4	1.05	0.	2.3477e-002
7136	8.4	1.2	5.e-002	7.7565
7137	8.85	1.2	0.	2.4428e-002
7138	8.7	1.05	0.	1.8548e-002
7139	8.7	1.2	5.e-002	7.678
7140	9.15	1.2	0.	1.9542e-002
7141	9.	1.05	0.	1.4285e-002
7142	9.	1.2	5.e-002	7.6048
7143	9.45	1.2	0.	1.5337e-002
7144	9.3	1.05	0.	1.0629e-002
7145	9.3	1.2	5.e-002	7.5358
7146	9.75	1.2	0.	1.1763e-002
7147	9.6	1.05	0.	7.5391e-003
7148	9.6	1.2	5.e-002	7.4705
7149	10.05	1.2	0.	8.7989e-003
7150	9.9	1.05	0.	5.0062e-003
7151	9.9	1.2	5.e-002	7.4082
7152	10.35	1.2	0.	6.4706e-003
7153	10.2	1.05	0.	3.0721e-003
7154	10.2	1.2	5.e-002	7.3485
7155	10.65	1.2	0.	4.9077e-003
7156	10.5	1.05	0.	1.9002e-003
7157	10.5	1.2	5.e-002	7.2909
7158	10.95	1.2	0.	4.5295e-003
7159	10.8	1.05	0.	2.0187e-003
7160	10.8	1.2	5.e-002	7.2351
7161	11.25	1.2	0.	6.9566e-003
7162	11.1	1.05	0.	5.6887e-003
7163	11.1	1.2	5.e-002	7.1808
7164	11.55	1.2	0.	2.541e-002
7165	11.4	1.05	0.	4.1907e-002
7166	11.4	1.2	5.e-002	7.1278
7167	11.85	1.2	0.	0.88597
7168	11.7	1.05	0.	1.2841
7169	11.7	1.2	5.e-002	7.076
7170	12.15	1.2	0.	2.5873
7171	12.	1.05	0.	2.9264
7172	12.	1.2	5.e-002	7.0251
7173	12.45	1.2	0.	4.133
7174	12.3	1.05	0.	4.4103
7175	12.3	1.2	5.e-002	6.9751
7176	12.75	1.2	0.	5.5306
7177	12.6	1.05	0.	5.7511
7178	12.6	1.2	5.e-002	6.9257
7179	13.05	1.2	0.	6.8003
7180	12.9	1.05	0.	6.9682
7181	12.9	1.2	5.e-002	6.877
7182	13.35	1.2	0.	7.9617
7183	13.2	1.05	0.	8.0804
7184	13.2	1.2	5.e-002	6.8289
7185	13.65	1.2	0.	9.0325
7186	13.5	1.05	0.	9.1042
7187	13.5	1.2	5.e-002	6.7813
7188	13.95	1.2	0.	10.029
7189	13.8	1.05	0.	10.055
7190	13.8	1.2	5.e-002	6.7341
7191	14.25	1.2	0.	10.967
7192	14.1	1.05	0.	10.948
7193	14.1	1.2	5.e-002	6.6873
7194	14.55	1.2	0.	11.861
7195	14.4	1.05	0.	11.795
7196	14.4	1.2	5.e-002	6.6409
7197	14.85	1.2	0.	12.723
7198	14.7	1.05	0.	12.608
7199	14.7	1.2	5.e-002	6.5949
7200	15.15	1.2	0.	13.566
7201	15.	1.05	0.	13.4
7202	15.	1.2	5.e-002	6.5492
7203	15.45	1.2	0.	14.403
7204	15.3	1.05	0.	14.181
7205	15.3	1.2	5.e-002	6.5039
7206	15.75	1.2	0.	15.246
7207	15.6	1.05	0.	14.963
7208	15.6	1.2	5.e-002	6.4589
7209	16.05	1.2	0.	16.106
7210	15.9	1.05	0.	15.755
7211	15.9	1.2	5.e-002	6.4142
7212	16.35	1.2	0.	16.997
7213	16.2	1.05	0.	16.569
7214	16.2	1.2	5.e-002	6.3699
7215	16.65	1.2	0.	17.93
7216	16.5	1.05	0.	17.416
7217	16.5	1.2	5.e-002	6.326
7218	16.95	1.2	0.	18.918
7219	16.8	1.05	0.	18.306
7220	16.8	1.2	5.e-002	6.2825
7221	17.25	1.2	0.	19.975
7222	17.1	1.05	0.	19.252
7223	17.1	1.2	5.e-002	6.2395
7224	17.55	1.2	0.	21.116
7225	17.4	1.05	0.	20.266
7226	17.4	1.2	5.e-002	6.197
7227	17.85	1.2	0.	22.356
7228	17.7	1.05	0.	21.36
7229	17.7	1.2	5.e-002	6.155
7230	18.15	1.2	0.	23.712
7231	18.	1.05	0.	22.55
7232	18.	1.2	5.e-002	6.1136
7233	18.45	1.2	0.	25.204
7234	18.3	1.05	0.	23.85
7235	18.3	1.2	5.e-002	6.0729
7236	18.75	1.2	0.	26.851
7237	18.6	1.05	0.	25.276
7238	18.6	1.2	5.e-002	6.0331
7239	19.05	1.2	0.	28.675
7240	18.9	1.05	0.	26.848
7241	18.9	1.2	5.e-002	5.9941
7242	19.35	1.2	0.	30.703
7243	19.2	1.05	0.	28.586
7244	19.2	1.2	5.e-002	5.9562
7245	19.65	1.2	0.	32.963
7246	19.5	1.05	0.	30.511
7247	19.5	1.2	5.e-002	5.9194
7248	19.95	1.2	0.	35.486
7249	19.8	1.05	0.	32.649
7250	19.8	1.2	5.e-002	5.884
7251	20.25	1.2	0.	38.31
7252	20.1	1.05	0.	35.03
7253	20.1	1.2	5.e-002	5.8502
7254	20.55	1.2	0.	41.479
7255	20.4	1.05	0.	37.686
7256	20.4	1.2	5.e-002	5.8182
7257	20.85	1.2	0.	45.044
7258	20.7	1.05	0.	40.657
7259	20.7	1.2	5.e-002	5.7882
7260	21.15	1.2	0.	49.07
7261	21.	1.05	0.	43.992
7262	21.	1.2	5.e-002	5.7606
7263	21.45	1.2	0.	53.635
7264	21.3	1.05	0.	47.75
7265	21.3	1.2	5.e-002	5.7357
7266	21.75	1.2	0.	58.844
7267	21.6	1.05	0.	52.009
7268	21.6	1.2	5.e-002	5.7141
7269	22.05	1.2	0.	64.835
7270	21.9	1.05	0.	56.874
7271	21.9	1.2	5.e-002	5.6965
7272	22.35	1.2	0.	71.791
7273	22.2	1.05	0.	62.492
7274	22.2	1.2	5.e-002	5.6844
7275	22.65	1.2	0.	79.97
7276	22.5	1.05	0.	69.068
7277	22.5	1.2	5.e-002	5.68
7278	22.95	1.2	0.	89.679
7279	22.8	1.05	0.	76.918
7280	22.8	1.2	5.e-002	5.6894
7281	23.25	1.2	0.	101.38
7282	23.1	1.05	0.	86.422
7283	23.1	1.2	5.e-002	5.7197
7284	23.55	1.2	0.	115.13
7285	23.4	1.05	0.	98.341
7286	23.4	1.2	5.e-002	5.7973
7287	23.7	1.05	0.	112.44
7288	23.7	1.2	5.e-002	5.9329
7289	23.85	1.2	0.	128.61
7290	0.45	0.9	0.	344.84
7291	0.3	0.75	0.	869.87
7292	0.3	0.9	5.e-002	38.721
7293	0.15	0.9	0.	-1245.5
7294	0.75	0.9	0.	-83.589
7295	0.6	0.75	0.	-205.61
7296	0.6	0.9	5.e-002	44.953
7297	1.05	0.9	0.	23.667
7298	0.9	0.75	0.	56.133
7299	0.9	0.9	5.e-002	34.472
7300	1.35	0.9	0.	-2.8837
7301	1.2	0.75	0.	-8.5358
7302	1.2	0.9	5.e-002	29.014
7303	1.65	0.9	0.	2.8751
7304	1.5	0.75	0.	5.9102
7305	1.5	0.9	5.e-002	24.545
7306	1.95	0.9	0.	0.92439
7307	1.8	0.75	0.	1.4884
7308	1.8	0.9	5.e-002	21.277
7309	2.25	0.9	0.	0.99204
7310	2.1	0.75	0.	1.9148
7311	2.1	0.9	5.e-002	18.84
7312	2.55	0.9	0.	0.68526
7313	2.4	0.75	0.	1.3474
7314	2.4	0.9	5.e-002	16.973
7315	2.85	0.9	0.	0.55275
7316	2.7	0.75	0.	1.1442
7317	2.7	0.9	5.e-002	15.487
7318	3.15	0.9	0.	0.4346
7319	3.	0.75	0.	0.93589
7320	3.	0.9	5.e-002	14.274
7321	3.45	0.9	0.	0.35198
7322	3.3	0.75	0.	0.78654
7323	3.3	0.9	5.e-002	13.264
7324	3.75	0.9	0.	0.28784
7325	3.6	0.75	0.	0.66406
7326	3.6	0.9	5.e-002	12.411
7327	4.05	0.9	0.	0.23832
7328	3.9	0.75	0.	0.5652
7329	3.9	0.9	5.e-002	11.687
7330	4.35	0.9	0.	0.19897
7331	4.2	0.75	0.	0.48323
7332	4.2	0.9	5.e-002	11.071
7333	4.65	0.9	0.	0.16718
7334	4.5	0.75	0.	0.41456
7335	4.5	0.9	5.e-002	10.545
7336	4.95	0.9	0.	0.14105
7337	4.8	0.75	0.	0.35635
7338	4.8	0.9	5.e-002	10.096
7339	5.25	0.9	0.	0.11928
7340	5.1	0.75	0.	0.3066
7341	5.1	0.9	5.e-002	9.7125
7342	5.55	0.9	0.	0.10092
7343	5.4	0.75	0.	0.2638
7344	5.4	0.9	5.e-002	9.3847
7345	5.85	0.9	0.	8.5299e-002
7346	5.7	0.75	0.	0.22678
7347	5.7	0.9	5.e-002	9.1039
7348	6.15	0.9	0.	7.1906e-002
7349	6.	0.75	0.	0.19465
7350	6.	0.9	5.e-002	8.8626
7351	6.45	0.9	0.	6.0361e-002
7352	6.3	0.75	0.	0.16669
7353	6.3	0.9	5.e-002	8.6544
7354	6.75	0.9	0.	5.0369e-002
7355	6.6	0.75	0.	0.1423
7356	6.6	0.9	5.e-002	8.4737
7357	7.05	0.9	0.	4.1697e-002
7358	6.9	0.75	0.	0.12099
7359	6.9	0.9	5.e-002	8.3159
7360	7.35	0.9	0.	3.4158e-002
7361	7.2	0.75	0.	0.10237
7362	7.2	0.9	5.e-002	8.1771
7363	7.65	0.9	0.	2.7596e-002
7364	7.5	0.75	0.	8.6079e-002
7365	7.5	0.9	5.e-002	8.0539
7366	7.95	0.9	0.	2.1887e-002
7367	7.8	0.75	0.	7.1825e-002
7368	7.8	0.9	5.e-002	7.9438
7369	8.25	0.9	0.	1.6923e-002
7370	8.1	0.75	0.	5.9355e-002
7371	8.1	0.9	5.e-002	7.8443
7372	8.55	0.9	0.	1.2618e-002
7373	8.4	0.75	0.	4.8449e-002
7374	8.4	0.9	5.e-002	7.7537
7375	8.85	0.9	0.	8.901e-003
7376	8.7	0.75	0.	3.8923e-002
7377	8.7	0.9	5.e-002	7.6705
7378	9.15	0.9	0.	5.7189e-003
7379	9.	0.75	0.	3.0619e-002
7380	9.	0.9	5.e-002	7.5933
7381	9.45	0.9	0.	3.0376e-003
7382	9.3	0.75	0.	2.3412e-002
7383	9.3	0.9	5.e-002	7.5211
7384	9.75	0.9	0.	8.5383e-004
7385	9.6	0.75	0.	1.7214e-002
7386	9.6	0.9	5.e-002	7.4531
7387	10.05	0.9	0.	-7.8074e-004
7388	9.9	0.75	0.	1.2005e-002
7389	9.9	0.9	5.e-002	7.3887
7390	10.35	0.9	0.	-1.6776e-003
7391	10.2	0.75	0.	7.9256e-003
7392	10.2	0.9	5.e-002	7.3272
7393	10.65	0.9	0.	-1.18e-003
7394	10.5	0.75	0.	5.8147e-003
7395	10.5	0.9	5.e-002	7.2681
7396	10.95	0.9	0.	4.1841e-003
7397	10.8	0.75	0.	1.5242e-002
7398	10.8	0.9	5.e-002	7.2111
7399	11.25	0.9	0.	0.17895
7400	11.1	0.75	0.	1.0619
7401	11.1	0.9	5.e-002	7.1559
7402	11.55	0.9	0.	1.8232
7403	11.4	0.75	0.	2.6814
7404	11.4	0.9	5.e-002	7.1021
7405	11.85	0.9	0.	3.3958
7406	11.7	0.75	0.	4.1393
7407	11.7	0.9	5.e-002	7.0496
7408	12.15	0.9	0.	4.8127
7409	12.	0.75	0.	5.4526
7410	12.	0.9	5.e-002	6.9983
7411	12.45	0.9	0.	6.0927
7412	12.3	0.75	0.	6.6402
7413	12.3	0.9	5.e-002	6.9479
7414	12.75	0.9	0.	7.2547
7415	12.6	0.75	0.	7.7196
7416	12.6	0.9	5.e-002	6.8983
7417	13.05	0.9	0.	8.316
7418	12.9	0.75	0.	8.7065
7419	12.9	0.9	5.e-002	6.8494
7420	13.35	0.9	0.	9.2925
7421	13.2	0.75	0.	9.6151
7422	13.2	0.9	5.e-002	6.8011
7423	13.65	0.9	0.	10.198
7424	13.5	0.75	0.	10.458
7425	13.5	0.9	5.e-002	6.7535
7426	13.95	0.9	0.	11.047
7427	13.8	0.75	0.	11.248
7428	13.8	0.9	5.e-002	6.7063
7429	14.25	0.9	0.	11.85
7430	14.1	0.75	0.	11.995
7431	14.1	0.9	5.e-002	6.6596
7432	14.55	0.9	0.	12.618
7433	14.4	0.75	0.	12.709
7434	14.4	0.9	5.e-002	6.6133
7435	14.85	0.9	0.	13.364
7436	14.7	0.75	0.	13.399
7437	14.7	0.9	5.e-002	6.5674
7438	15.15	0.9	0.	14.095
7439	15.	0.75	0.	14.074
7440	15.	0.9	5.e-002	6.5219
7441	15.45	0.9	0.	14.823
7442	15.3	0.75	0.	14.744
7443	15.3	0.9	5.e-002	6.4769
7444	15.75	0.9	0.	15.556
7445	15.6	0.75	0.	15.415
7446	15.6	0.9	5.e-002	6.4322
7447	16.05	0.9	0.	16.304
7448	15.9	0.75	0.	16.095
7449	15.9	0.9	5.e-002	6.3879
7450	16.35	0.9	0.	17.077
7451	16.2	0.75	0.	16.794
7452	16.2	0.9	5.e-002	6.344
7453	16.65	0.9	0.	17.884
7454	16.5	0.75	0.	17.518
7455	16.5	0.9	5.e-002	6.3005
7456	16.95	0.9	0.	18.734
7457	16.8	0.75	0.	18.277
7458	16.8	0.9	5.e-002	6.2575
7459	17.25	0.9	0.	19.639
7460	17.1	0.75	0.	19.077
7461	17.1	0.9	5.e-002	6.215
7462	17.55	0.9	0.	20.609
7463	17.4	0.75	0.	19.929
7464	17.4	0.9	5.e-002	6.1731
7465	17.85	0.9	0.	21.656
7466	17.7	0.75	0.	20.841
7467	17.7	0.9	5.e-002	6.1318
7468	18.15	0.9	0.	22.791
7469	18.	0.75	0.	21.822
7470	18.	0.9	5.e-002	6.0912
7471	18.45	0.9	0.	24.03
7472	18.3	0.75	0.	22.885
7473	18.3	0.9	5.e-002	6.0514
7474	18.75	0.9	0.	25.385
7475	18.6	0.75	0.	24.038
7476	18.6	0.9	5.e-002	6.0125
7477	19.05	0.9	0.	26.873
7478	18.9	0.75	0.	25.295
7479	18.9	0.9	5.e-002	5.9746
7480	19.35	0.9	0.	28.512
7481	19.2	0.75	0.	26.669
7482	19.2	0.9	5.e-002	5.9379
7483	19.65	0.9	0.	30.321
7484	19.5	0.75	0.	28.172
7485	19.5	0.9	5.e-002	5.9024
7486	19.95	0.9	0.	32.322
7487	19.8	0.75	0.	29.822
7488	19.8	0.9	5.e-002	5.8684
7489	20.25	0.9	0.	34.54
7490	20.1	0.75	0.	31.635
7491	20.1	0.9	5.e-002	5.836
7492	20.55	0.9	0.	37.005
7493	20.4	0.75	0.	33.632
7494	20.4	0.9	5.e-002	5.8056
7495	20.85	0.9	0.	39.752
7496	20.7	0.75	0.	35.835
7497	20.7	0.9	5.e-002	5.7771
7498	21.15	0.9	0.	42.827
7499	21.	0.75	0.	38.273
7500	21.	0.9	5.e-002	5.751
7501	21.45	0.9	0.	46.286
7502	21.3	0.75	0.	40.984
7503	21.3	0.9	5.e-002	5.7275
7504	21.75	0.9	0.	50.209
7505	21.6	0.75	0.	44.015
7506	21.6	0.9	5.e-002	5.7067
7507	22.05	0.9	0.	54.707
7508	21.9	0.75	0.	47.436
7509	21.9	0.9	5.e-002	5.6891
7510	22.35	0.9	0.	59.948
7511	22.2	0.75	0.	51.351
7512	22.2	0.9	5.e-002	5.6753
7513	22.65	0.9	0.	66.19
7514	22.5	0.75	0.	55.921
7515	22.5	0.9	5.e-002	5.6666
7516	22.95	0.9	0.	73.817
7517	22.8	0.75	0.	61.427
7518	22.8	0.9	5.e-002	5.6679
7519	23.25	0.9	0.	83.506
7520	23.1	0.75	0.	68.298
7521	23.1	0.9	5.e-002	5.6886
7522	23.55	0.9	0.	95.734
7523	23.4	0.75	0.	77.56
7524	23.4	0.9	5.e-002	5.7656
7525	23.7	0.75	0.	89.797
7526	23.7	0.9	5.e-002	5.9467
7527	23.85	0.9	0.	108.39
7528	0.45	0.6	0.	319.49
7529	0.3	0.45	0.	662.6
7530	0.3	0.6	5.e-002	65.886
7531	0.15	0.6	0.	-1091.1
7532	0.75	0.6	0.	-65.483
7533	0.6	0.45	0.	-144.07
7534	0.6	0.6	5.e-002	56.997
7535	1.05	0.6	0.	24.17
7536	0.9	0.45	0.	41.323
7537	0.9	0.6	5.e-002	41.783
7538	1.35	0.6	0.	0.44091
7539	1.2	0.45	0.	-5.7382
7540	1.2	0.6	5.e-002	31.528
7541	1.65	0.6	0.	4.6605
7542	1.5	0.45	0.	4.0758
7543	1.5	0.6	5.e-002	25.565
7544	1.95	0.6	0.	2.5855
7545	1.8	0.45	0.	0.73571
7546	1.8	0.6	5.e-002	21.867
7547	2.25	0.6	0.	2.3539
7548	2.1	0.45	0.	0.94769
7549	2.1	0.6	5.e-002	19.329
7550	2.55	0.6	0.	1.8731
7551	2.4	0.45	0.	0.5058
7552	2.4	0.6	5.e-002	17.468
7553	2.85	0.6	0.	1.5812
7554	2.7	0.45	0.	0.35199
7555	2.7	0.6	5.e-002	15.999
7556	3.15	0.6	0.	1.3317
7557	3.	0.45	0.	0.21227
7558	3.	0.6	5.e-002	14.785
7559	3.45	0.6	0.	1.1347
7560	3.3	0.45	0.	0.12545
7561	3.3	0.6	5.e-002	13.752
7562	3.75	0.6	0.	0.97128
7563	3.6	0.45	0.	6.4202e-002
7564	3.6	0.6	5.e-002	12.859
7565	4.05	0.6	0.	0.83501
7566	3.9	0.45	0.	2.3266e-002
7567	3.9	0.6	5.e-002	12.082
7568	4.35	0.6	0.	0.71971
7569	4.2	0.45	0.	-4.182e-003
7570	4.2	0.6	5.e-002	11.406
7571	4.65	0.6	0.	0.62134
7572	4.5	0.45	0.	-2.2084e-002
7573	4.5	0.6	5.e-002	10.818
7574	4.95	0.6	0.	0.5368
7575	4.8	0.45	0.	-3.3389e-002
7576	4.8	0.6	5.e-002	10.307
7577	5.25	0.6	0.	0.46377
7578	5.1	0.45	0.	-4.0121e-002
7579	5.1	0.6	5.e-002	9.8643
7580	5.55	0.6	0.	0.40043
7581	5.4	0.45	0.	-4.3717e-002
7582	5.4	0.6	5.e-002	9.4811
7583	5.85	0.6	0.	0.34533
7584	5.7	0.45	0.	-4.5187e-002
7585	5.7	0.6	5.e-002	9.1497
7586	6.15	0.6	0.	0.2973
7587	6.	0.45	0.	-4.5241e-002
7588	6.	0.6	5.e-002	8.8629
7589	6.45	0.6	0.	0.25535
7590	6.3	0.45	0.	-4.4375e-002
7591	6.3	0.6	5.e-002	8.6143
7592	6.75	0.6	0.	0.21869
7593	6.6	0.45	0.	-4.2936e-002
7594	6.6	0.6	5.e-002	8.3981
7595	7.05	0.6	0.	0.18662
7596	6.9	0.45	0.	-4.1164e-002
7597	6.9	0.6	5.e-002	8.2096
7598	7.35	0.6	0.	0.15854
7599	7.2	0.45	0.	-3.9222e-002
7600	7.2	0.6	5.e-002	8.044
7601	7.65	0.6	0.	0.13395
7602	7.5	0.45	0.	-3.7216e-002
7603	7.5	0.6	5.e-002	7.898
7604	7.95	0.6	0.	0.1124
7605	7.8	0.45	0.	-3.5215e-002
7606	7.8	0.6	5.e-002	7.7683
7607	8.25	0.6	0.	9.3528e-002
7608	8.1	0.45	0.	-3.3255e-002
7609	8.1	0.6	5.e-002	7.6521
7610	8.55	0.6	0.	7.6987e-002
7611	8.4	0.45	0.	-3.1348e-002
7612	8.4	0.6	5.e-002	7.5474
7613	8.85	0.6	0.	6.2495e-002
7614	8.7	0.45	0.	-2.9475e-002
7615	8.7	0.6	5.e-002	7.4522
7616	9.15	0.6	0.	4.9806e-002
7617	9.	0.45	0.	-2.7566e-002
7618	9.	0.6	5.e-002	7.3649
7619	9.45	0.6	0.	3.8714e-002
7620	9.3	0.45	0.	-2.5418e-002
7621	9.3	0.6	5.e-002	7.2843
7622	9.75	0.6	0.	2.9065e-002
7623	9.6	0.45	0.	-2.2218e-002
7624	9.6	0.6	5.e-002	7.2094
7625	10.05	0.6	0.	2.0834e-002
7626	9.9	0.45	0.	-8.0989e-003
7627	9.9	0.6	5.e-002	7.1392
7628	10.35	0.6	0.	1.4888e-002
7629	10.2	0.45	0.	1.126
7630	10.2	0.6	5.e-002	7.0729
7631	10.65	0.6	0.	0.62444
7632	10.5	0.45	0.	2.7073
7633	10.5	0.6	5.e-002	7.01
7634	10.95	0.6	0.	2.2661
7635	10.8	0.45	0.	4.1314
7636	10.8	0.6	5.e-002	6.9499
7637	11.25	0.6	0.	3.7406
7638	11.1	0.45	0.	5.4147
7639	11.1	0.6	5.e-002	6.8923
7640	11.55	0.6	0.	5.0667
7641	11.4	0.45	0.	6.5746
7642	11.4	0.6	5.e-002	6.8368
7643	11.85	0.6	0.	6.2636
7644	11.7	0.45	0.	7.6269
7645	11.7	0.6	5.e-002	6.783
7646	12.15	0.6	0.	7.3486
7647	12.	0.45	0.	8.586
7648	12.	0.6	5.e-002	6.7308
7649	12.45	0.6	0.	8.337
7650	12.3	0.45	0.	9.4646
7651	12.3	0.6	5.e-002	6.6799
7652	12.75	0.6	0.	9.2429
7653	12.6	0.45	0.	10.274
7654	12.6	0.6	5.e-002	6.6303
7655	13.05	0.6	0.	10.079
7656	12.9	0.45	0.	11.026
7657	12.9	0.6	5.e-002	6.5816
7658	13.35	0.6	0.	10.856
7659	13.2	0.45	0.	11.728
7660	13.2	0.6	5.e-002	6.5338
7661	13.65	0.6	0.	11.585
7662	13.5	0.45	0.	12.39
7663	13.5	0.6	5.e-002	6.4868
7664	13.95	0.6	0.	12.274
7665	13.8	0.45	0.	13.019
7666	13.8	0.6	5.e-002	6.4406
7667	14.25	0.6	0.	12.934
7668	14.1	0.45	0.	13.623
7669	14.1	0.6	5.e-002	6.3951
7670	14.55	0.6	0.	13.571
7671	14.4	0.45	0.	14.208
7672	14.4	0.6	5.e-002	6.3501
7673	14.85	0.6	0.	14.194
7674	14.7	0.45	0.	14.781
7675	14.7	0.6	5.e-002	6.3058
7676	15.15	0.6	0.	14.809
7677	15.	0.45	0.	15.347
7678	15.	0.6	5.e-002	6.262
7679	15.45	0.6	0.	15.423
7680	15.3	0.45	0.	15.912
7681	15.3	0.6	5.e-002	6.2188
7682	15.75	0.6	0.	16.044
7683	15.6	0.45	0.	16.482
7684	15.6	0.6	5.e-002	6.1761
7685	16.05	0.6	0.	16.677
7686	15.9	0.45	0.	17.061
7687	15.9	0.6	5.e-002	6.134
7688	16.35	0.6	0.	17.33
7689	16.2	0.45	0.	17.655
7690	16.2	0.6	5.e-002	6.0925
7691	16.65	0.6	0.	18.008
7692	16.5	0.45	0.	18.268
7693	16.5	0.6	5.e-002	6.0516
7694	16.95	0.6	0.	18.719
7695	16.8	0.45	0.	18.906
7696	16.8	0.6	5.e-002	6.0114
7697	17.25	0.6	0.	19.47
7698	17.1	0.45	0.	19.575
7699	17.1	0.6	5.e-002	5.9719
7700	17.55	0.6	0.	20.266
7701	17.4	0.45	0.	20.278
7702	17.4	0.6	5.e-002	5.9332
7703	17.85	0.6	0.	21.117
7704	17.7	0.45	0.	21.021
7705	17.7	0.6	5.e-002	5.8953
7706	18.15	0.6	0.	22.029
7707	18.	0.45	0.	21.81
7708	18.	0.6	5.e-002	5.8585
7709	18.45	0.6	0.	23.01
7710	18.3	0.45	0.	22.65
7711	18.3	0.6	5.e-002	5.8227
7712	18.75	0.6	0.	24.07
7713	18.6	0.45	0.	23.547
7714	18.6	0.6	5.e-002	5.7883
7715	19.05	0.6	0.	25.217
7716	18.9	0.45	0.	24.505
7717	18.9	0.6	5.e-002	5.7551
7718	19.35	0.6	0.	26.46
7719	19.2	0.45	0.	25.531
7720	19.2	0.6	5.e-002	5.7236
7721	19.65	0.6	0.	27.811
7722	19.5	0.45	0.	26.631
7723	19.5	0.6	5.e-002	5.6939
7724	19.95	0.6	0.	29.28
7725	19.8	0.45	0.	27.81
7726	19.8	0.6	5.e-002	5.6662
7727	20.25	0.6	0.	30.88
7728	20.1	0.45	0.	29.073
7729	20.1	0.6	5.e-002	5.6407
7730	20.55	0.6	0.	32.625
7731	20.4	0.45	0.	30.428
7732	20.4	0.6	5.e-002	5.6177
7733	20.85	0.6	0.	34.531
7734	20.7	0.45	0.	31.88
7735	20.7	0.6	5.e-002	5.5975
7736	21.15	0.6	0.	36.619
7737	21.	0.45	0.	33.436
7738	21.	0.6	5.e-002	5.5804
7739	21.45	0.6	0.	38.918
7740	21.3	0.45	0.	35.105
7741	21.3	0.6	5.e-002	5.5666
7742	21.75	0.6	0.	41.466
7743	21.6	0.45	0.	36.9
7744	21.6	0.6	5.e-002	5.5563
7745	22.05	0.6	0.	44.325
7746	21.9	0.45	0.	38.839
7747	21.9	0.6	5.e-002	5.5498
7748	22.35	0.6	0.	47.592
7749	22.2	0.45	0.	40.956
7750	22.2	0.6	5.e-002	5.5472
7751	22.65	0.6	0.	51.444
7752	22.5	0.45	0.	43.308
7753	22.5	0.6	5.e-002	5.5487
7754	22.95	0.6	0.	56.198
7755	22.8	0.45	0.	46.023
7756	22.8	0.6	5.e-002	5.5554
7757	23.25	0.6	0.	62.607
7758	23.1	0.45	0.	49.326
7759	23.1	0.6	5.e-002	5.5714
7760	23.55	0.6	0.	71.8
7761	23.4	0.45	0.	54.004
7762	23.4	0.6	5.e-002	5.6541
7763	23.7	0.45	0.	61.412
7764	23.7	0.6	5.e-002	5.9195
7765	23.85	0.6	0.	82.634
7766	0.45	0.3	0.	203.83
7767	0.3	0.3	5.e-002	140.6
7768	0.15	0.3	0.	-796.3
7769	0.3	0.15	0.	292.48
7770	0.75	0.3	0.	-31.44
7771	0.6	0.3	5.e-002	64.43
7772	0.6	0.15	0.	-43.519
7773	1.05	0.3	0.	14.282
7774	0.9	0.3	5.e-002	38.594
7775	0.9	0.15	0.	15.734
7776	1.35	0.3	0.	0.10688
7777	1.2	0.3	5.e-002	31.255
7778	1.2	0.15	0.	-8.2815
7779	1.65	0.3	0.	1.625
7780	1.5	0.3	5.e-002	27.294
7781	1.5	0.15	0.	-3.0976
7782	1.95	0.3	0.	0.12518
7783	1.8	0.3	5.e-002	24.984
7784	1.8	0.15	0.	-4.3044
7785	2.25	0.3	0.	-0.17059
7786	2.1	0.3	5.e-002	23.047
7787	2.1	0.15	0.	-3.6524
7788	2.55	0.3	0.	-0.48354
7789	2.4	0.3	5.e-002	21.284
7790	2.4	0.15	0.	-3.4032
7791	2.85	0.3	0.	-0.62068
7792	2.7	0.3	5.e-002	19.619
7793	2.7	0.15	0.	-3.0473
7794	3.15	0.3	0.	-0.69256
7795	3.	0.3	5.e-002	18.049
7796	3.	0.15	0.	-2.7363
7797	3.45	0.3	0.	-0.71146
7798	3.3	0.3	5.e-002	16.581
7799	3.3	0.15	0.	-2.4408
7800	3.75	0.3	0.	-0.69976
7801	3.6	0.3	5.e-002	15.223
7802	3.6	0.15	0.	-2.1712
7803	4.05	0.3	0.	-0.66862
7804	3.9	0.3	5.e-002	13.979
7805	3.9	0.15	0.	-1.9253
7806	4.35	0.3	0.	-0.62638
7807	4.2	0.3	5.e-002	12.848
7808	4.2	0.15	0.	-1.7027
7809	4.65	0.3	0.	-0.57837
7810	4.5	0.3	5.e-002	11.827
7811	4.5	0.15	0.	-1.5021
7812	4.95	0.3	0.	-0.5282
7813	4.8	0.3	5.e-002	10.913
7814	4.8	0.15	0.	-1.3221
7815	5.25	0.3	0.	-0.47822
7816	5.1	0.3	5.e-002	10.097
7817	5.1	0.15	0.	-1.161
7818	5.55	0.3	0.	-0.4299
7819	5.4	0.3	5.e-002	9.3724
7820	5.4	0.15	0.	-1.0173
7821	5.85	0.3	0.	-0.38415
7822	5.7	0.3	5.e-002	8.7316
7823	5.7	0.15	0.	-0.88927
7824	6.15	0.3	0.	-0.34144
7825	6.	0.3	5.e-002	8.1662
7826	6.	0.15	0.	-0.7754
7827	6.45	0.3	0.	-0.30195
7828	6.3	0.3	5.e-002	7.6686
7829	6.3	0.15	0.	-0.67415
7830	6.75	0.3	0.	-0.26568
7831	6.6	0.3	5.e-002	7.2314
7832	6.6	0.15	0.	-0.58406
7833	7.05	0.3	0.	-0.23248
7834	6.9	0.3	5.e-002	6.8476
7835	6.9	0.15	0.	-0.50367
7836	7.35	0.3	0.	-0.20206
7837	7.2	0.3	5.e-002	6.5109
7838	7.2	0.15	0.	-0.43149
7839	7.65	0.3	0.	-0.17402
7840	7.5	0.3	5.e-002	6.2154
7841	7.5	0.15	0.	-0.36583
7842	7.95	0.3	0.	-0.14777
7843	7.8	0.3	5.e-002	5.9561
7844	7.8	0.15	0.	-0.30432
7845	8.25	0.3	0.	-0.12225
7846	8.1	0.3	5.e-002	5.7281
7847	8.1	0.15	0.	-0.24234
7848	8.55	0.3	0.	-9.5163e-002
7849	8.4	0.3	5.e-002	5.5273
7850	8.4	0.15	0.	-0.16546
7851	8.85	0.3	0.	-5.8857e-002
7852	8.7	0.3	5.e-002	5.3501
7853	8.7	0.15	0.	1.98e-002
7854	9.15	0.3	0.	4.0891e-002
7855	9.	0.3	5.e-002	5.1934
7856	9.	0.15	0.	0.84719
7857	9.45	0.3	0.	0.9252
7858	9.3	0.3	5.e-002	5.0543
7859	9.3	0.15	0.	2.0335
7860	9.75	0.3	0.	2.4423
7861	9.6	0.3	5.e-002	4.9304
7862	9.6	0.15	0.	3.1604
7863	10.05	0.3	0.	3.8626
7864	9.9	0.3	5.e-002	4.8198
7865	9.9	0.15	0.	4.1924
7866	10.35	0.3	0.	5.1539
7867	10.2	0.3	5.e-002	4.7205
7868	10.2	0.15	0.	5.1326
7869	10.65	0.3	0.	6.3254
7870	10.5	0.3	5.e-002	4.6311
7871	10.5	0.15	0.	5.9896
7872	10.95	0.3	0.	7.3901
7873	10.8	0.3	5.e-002	4.5503
7874	10.8	0.15	0.	6.7724
7875	11.25	0.3	0.	8.3607
7876	11.1	0.3	5.e-002	4.4768
7877	11.1	0.15	0.	7.4898
7878	11.55	0.3	0.	9.249
7879	11.4	0.3	5.e-002	4.4098
7880	11.4	0.15	0.	8.1499
7881	11.85	0.3	0.	10.066
7882	11.7	0.3	5.e-002	4.3484
7883	11.7	0.15	0.	8.7602
7884	12.15	0.3	0.	10.821
7885	12.	0.3	5.e-002	4.2919
7886	12.	0.15	0.	9.3275
7887	12.45	0.3	0.	11.523
7888	12.3	0.3	5.e-002	4.2398
7889	12.3	0.15	0.	9.8581
7890	12.75	0.3	0.	12.181
7891	12.6	0.3	5.e-002	4.1914
7892	12.6	0.15	0.	10.358
7893	13.05	0.3	0.	12.801
7894	12.9	0.3	5.e-002	4.1464
7895	12.9	0.15	0.	10.831
7896	13.35	0.3	0.	13.391
7897	13.2	0.3	5.e-002	4.1045
7898	13.2	0.15	0.	11.284
7899	13.65	0.3	0.	13.956
7900	13.5	0.3	5.e-002	4.0652
7901	13.5	0.15	0.	11.72
7902	13.95	0.3	0.	14.502
7903	13.8	0.3	5.e-002	4.0284
7904	13.8	0.15	0.	12.143
7905	14.25	0.3	0.	15.035
7906	14.1	0.3	5.e-002	3.9938
7907	14.1	0.15	0.	12.557
7908	14.55	0.3	0.	15.559
7909	14.4	0.3	5.e-002	3.9614
7910	14.4	0.15	0.	12.966
7911	14.85	0.3	0.	16.078
7912	14.7	0.3	5.e-002	3.9309
7913	14.7	0.15	0.	13.372
7914	15.15	0.3	0.	16.597
7915	15.	0.3	5.e-002	3.9024
7916	15.	0.15	0.	13.779
7917	15.45	0.3	0.	17.121
7918	15.3	0.3	5.e-002	3.8758
7919	15.3	0.15	0.	14.189
7920	15.75	0.3	0.	17.652
7921	15.6	0.3	5.e-002	3.8509
7922	15.6	0.15	0.	14.606
7923	16.05	0.3	0.	18.196
7924	15.9	0.3	5.e-002	3.828
7925	15.9	0.15	0.	15.033
7926	16.35	0.3	0.	18.754
7927	16.2	0.3	5.e-002	3.8071
7928	16.2	0.15	0.	15.47
7929	16.65	0.3	0.	19.332
7930	16.5	0.3	5.e-002	3.7882
7931	16.5	0.15	0.	15.922
7932	16.95	0.3	0.	19.932
7933	16.8	0.3	5.e-002	3.7714
7934	16.8	0.15	0.	16.391
7935	17.25	0.3	0.	20.557
7936	17.1	0.3	5.e-002	3.757
7937	17.1	0.15	0.	16.878
7938	17.55	0.3	0.	21.213
7939	17.4	0.3	5.e-002	3.7452
7940	17.4	0.15	0.	17.387
7941	17.85	0.3	0.	21.9
7942	17.7	0.3	5.e-002	3.7362
7943	17.7	0.15	0.	17.919
7944	18.15	0.3	0.	22.623
7945	18.	0.3	5.e-002	3.7303
7946	18.	0.15	0.	18.477
7947	18.45	0.3	0.	23.384
7948	18.3	0.3	5.e-002	3.728
7949	18.3	0.15	0.	19.063
7950	18.75	0.3	0.	24.187
7951	18.6	0.3	5.e-002	3.7295
7952	18.6	0.15	0.	19.677
7953	19.05	0.3	0.	25.033
7954	18.9	0.3	5.e-002	3.7355
7955	18.9	0.15	0.	20.323
7956	19.35	0.3	0.	25.924
7957	19.2	0.3	5.e-002	3.7466
7958	19.2	0.15	0.	21.
7959	19.65	0.3	0.	26.861
7960	19.5	0.3	5.e-002	3.7632
7961	19.5	0.15	0.	21.71
7962	19.95	0.3	0.	27.847
7963	19.8	0.3	5.e-002	3.7863
7964	19.8	0.15	0.	22.452
7965	20.25	0.3	0.	28.879
7966	20.1	0.3	5.e-002	3.8166
7967	20.1	0.15	0.	23.226
7968	20.55	0.3	0.	29.957
7969	20.4	0.3	5.e-002	3.855
7970	20.4	0.15	0.	24.031
7971	20.85	0.3	0.	31.078
7972	20.7	0.3	5.e-002	3.9027
7973	20.7	0.15	0.	24.864
7974	21.15	0.3	0.	32.238
7975	21.	0.3	5.e-002	3.9607
7976	21.	0.15	0.	25.72
7977	21.45	0.3	0.	33.433
7978	21.3	0.3	5.e-002	4.0304
7979	21.3	0.15	0.	26.594
7980	21.75	0.3	0.	34.656
7981	21.6	0.3	5.e-002	4.1132
7982	21.6	0.15	0.	27.477
7983	22.05	0.3	0.	35.901
7984	21.9	0.3	5.e-002	4.2108
7985	21.9	0.15	0.	28.36
7986	22.35	0.3	0.	37.166
7987	22.2	0.3	5.e-002	4.3249
7988	22.2	0.15	0.	29.229
7989	22.65	0.3	0.	38.462
7990	22.5	0.3	5.e-002	4.4575
7991	22.5	0.15	0.	30.064
7992	22.95	0.3	0.	39.825
7993	22.8	0.3	5.e-002	4.6121
7994	22.8	0.15	0.	30.85
7995	23.25	0.3	0.	41.479
7996	23.1	0.3	5.e-002	4.7812
7997	23.1	0.15	0.	31.536
7998	23.55	0.3	0.	44.297
7999	23.4	0.3	5.e-002	5.0037
8000	23.4	0.15	0.	32.255
8001	23.7	0.3	5.e-002	5.4783
8002	23.7	0.15	0.	32.499
8003	23.85	0.3	0.	49.421
8004	23.55	0.3	0.1	89.976
8005	23.7	0.45	0.1	61.186
8006	23.85	0.3	0.1	36.368
8007	23.7	0.15	0.1	56.047
8008	23.25	0.3	0.1	150.87
8009	23.4	0.45	0.1	120.16
8010	23.4	0.15	0.1	115.91
8011	22.95	0.3	0.1	213.89
8012	23.1	0.45	0.1	182.07
8013	23.1	0.15	0.1	178.35
8014	22.65	0.3	0.1	277.74
8015	22.8	0.45	0.1	245.14
8016	22.8	0.15	0.1	241.73
8017	22.35	0.3	0.1	342.14
8018	22.5	0.45	0.1	308.99
8019	22.5	0.15	0.1	305.81
8020	22.05	0.3	0.1	406.96
8021	22.2	0.45	0.1	373.37
8022	22.2	0.15	0.1	370.38
8023	21.75	0.3	0.1	472.13
8024	21.9	0.45	0.1	438.19
8025	21.9	0.15	0.1	435.37
8026	21.45	0.3	0.1	537.64
8027	21.6	0.45	0.1	503.39
8028	21.6	0.15	0.1	500.74
8029	21.15	0.3	0.1	603.49
8030	21.3	0.45	0.1	568.96
8031	21.3	0.15	0.1	566.47
8032	20.85	0.3	0.1	669.69
8033	21.	0.45	0.1	634.89
8034	21.	0.15	0.1	632.56
8035	20.55	0.3	0.1	736.25
8036	20.7	0.45	0.1	701.2
8037	20.7	0.15	0.1	699.02
8038	20.25	0.3	0.1	803.18
8039	20.4	0.45	0.1	767.89
8040	20.4	0.15	0.1	765.86
8041	19.95	0.3	0.1	870.52
8042	20.1	0.45	0.1	834.98
8043	20.1	0.15	0.1	833.09
8044	19.65	0.3	0.1	938.26
8045	19.8	0.45	0.1	902.49
8046	19.8	0.15	0.1	900.73
8047	19.35	0.3	0.1	1006.4
8048	19.5	0.45	0.1	970.42
8049	19.5	0.15	0.1	968.78
8050	19.05	0.3	0.1	1075.1
8051	19.2	0.45	0.1	1038.8
8052	19.2	0.15	0.1	1037.3
8053	18.75	0.3	0.1	1144.1
8054	18.9	0.45	0.1	1107.6
8055	18.9	0.15	0.1	1106.2
8056	18.45	0.3	0.1	1213.7
8057	18.6	0.45	0.1	1176.9
8058	18.6	0.15	0.1	1175.6
8059	18.15	0.3	0.1	1283.7
8060	18.3	0.45	0.1	1246.7
8061	18.3	0.15	0.1	1245.5
8062	17.85	0.3	0.1	1354.2
8063	18.	0.45	0.1	1317.
8064	18.	0.15	0.1	1315.8
8065	17.55	0.3	0.1	1425.2
8066	17.7	0.45	0.1	1387.8
8067	17.7	0.15	0.1	1386.7
8068	17.25	0.3	0.1	1496.7
8069	17.4	0.45	0.1	1459.
8070	17.4	0.15	0.1	1458.
8071	16.95	0.3	0.1	1568.7
8072	17.1	0.45	0.1	1530.8
8073	17.1	0.15	0.1	1529.9
8074	16.65	0.3	0.1	1641.2
8075	16.8	0.45	0.1	1603.1
8076	16.8	0.15	0.1	1602.2
8077	16.35	0.3	0.1	1714.3
8078	16.5	0.45	0.1	1675.9
8079	16.5	0.15	0.1	1675.1
8080	16.05	0.3	0.1	1787.8
8081	16.2	0.45	0.1	1749.2
8082	16.2	0.15	0.1	1748.5
8083	15.75	0.3	0.1	1861.9
8084	15.9	0.45	0.1	1823.
8085	15.9	0.15	0.1	1822.4
8086	15.45	0.3	0.1	1936.5
8087	15.6	0.45	0.1	1897.4
8088	15.6	0.15	0.1	1896.8
8089	15.15	0.3	0.1	2011.7
8090	15.3	0.45	0.1	1972.3
8091	15.3	0.15	0.1	1971.7
8092	14.85	0.3	0.1	2087.4
8093	15.	0.45	0.1	2047.7
8094	15.	0.15	0.1	2047.2
8095	14.55	0.3	0.1	2163.6
8096	14.7	0.45	0.1	2123.7
8097	14.7	0.15	0.1	2123.3
8098	14.25	0.3	0.1	2240.4
8099	14.4	0.45	0.1	2200.2
8100	14.4	0.15	0.1	2199.8
8101	13.95	0.3	0.1	2317.7
8102	14.1	0.45	0.1	2277.2
8103	14.1	0.15	0.1	2276.9
8104	13.65	0.3	0.1	2395.5
8105	13.8	0.45	0.1	2354.8
8106	13.8	0.15	0.1	2354.6
8107	13.35	0.3	0.1	2473.9
8108	13.5	0.45	0.1	2432.9
8109	13.5	0.15	0.1	2432.8
8110	13.05	0.3	0.1	2552.9
8111	13.2	0.45	0.1	2511.6
8112	13.2	0.15	0.1	2511.6
8113	12.75	0.3	0.1	2632.4
8114	12.9	0.45	0.1	2590.8
8115	12.9	0.15	0.1	2590.9
8116	12.45	0.3	0.1	2712.4
8117	12.6	0.45	0.1	2670.6
8118	12.6	0.15	0.1	2670.8
8119	12.15	0.3	0.1	2793.1
8120	12.3	0.45	0.1	2750.9
8121	12.3	0.15	0.1	2751.3
8122	11.85	0.3	0.1	2874.3
8123	12.	0.45	0.1	2831.8
8124	12.	0.15	0.1	2832.3
8125	11.55	0.3	0.1	2956.1
8126	11.7	0.45	0.1	2913.3
8127	11.7	0.15	0.1	2913.9
8128	11.25	0.3	0.1	3038.4
8129	11.4	0.45	0.1	2995.3
8130	11.4	0.15	0.1	2996.2
8131	10.95	0.3	0.1	3121.4
8132	11.1	0.45	0.1	3077.9
8133	11.1	0.15	0.1	3079.
8134	10.65	0.3	0.1	3204.9
8135	10.8	0.45	0.1	3161.1
8136	10.8	0.15	0.1	3162.4
8137	10.35	0.3	0.1	3289.1
8138	10.5	0.45	0.1	3244.9
8139	10.5	0.15	0.1	3246.5
8140	10.05	0.3	0.1	3373.9
8141	10.2	0.45	0.1	3329.3
8142	10.2	0.15	0.1	3331.2
8143	9.75	0.3	0.1	3459.3
8144	9.9	0.45	0.1	3414.2
8145	9.9	0.15	0.1	3416.6
8146	9.45	0.3	0.1	3545.4
8147	9.6	0.45	0.1	3499.9
8148	9.6	0.15	0.1	3502.6
8149	9.15	0.3	0.1	3632.2
8150	9.3	0.45	0.1	3586.1
8151	9.3	0.15	0.1	3589.3
8152	8.85	0.3	0.1	3719.7
8153	9.	0.45	0.1	3673.1
8154	9.	0.15	0.1	3676.8
8155	8.55	0.3	0.1	3807.9
8156	8.7	0.45	0.1	3760.7
8157	8.7	0.15	0.1	3765.
8158	8.25	0.3	0.1	3896.9
8159	8.4	0.45	0.1	3849.
8160	8.4	0.15	0.1	3854.
8161	7.95	0.3	0.1	3986.6
8162	8.1	0.45	0.1	3938.1
8163	8.1	0.15	0.1	3943.9
8164	7.65	0.3	0.1	4077.2
8165	7.8	0.45	0.1	4027.9
8166	7.8	0.15	0.1	4034.6
8167	7.35	0.3	0.1	4168.7
8168	7.5	0.45	0.1	4118.6
8169	7.5	0.15	0.1	4126.2
8170	7.05	0.3	0.1	4261.2
8171	7.2	0.45	0.1	4210.1
8172	7.2	0.15	0.1	4218.8
8173	6.75	0.3	0.1	4354.7
8174	6.9	0.45	0.1	4302.5
8175	6.9	0.15	0.1	4312.5
8176	6.45	0.3	0.1	4449.2
8177	6.6	0.45	0.1	4395.9
8178	6.6	0.15	0.1	4407.3
8179	6.15	0.3	0.1	4544.9
8180	6.3	0.45	0.1	4490.4
8181	6.3	0.15	0.1	4503.3
8182	5.85	0.3	0.1	4641.9
8183	6.	0.45	0.1	4586.
8184	6.	0.15	0.1	4600.6
8185	5.55	0.3	0.1	4740.3
8186	5.7	0.45	0.1	4682.7
8187	5.7	0.15	0.1	4699.3
8188	5.25	0.3	0.1	4840.1
8189	5.4	0.45	0.1	4780.8
8190	5.4	0.15	0.1	4799.5
8191	4.95	0.3	0.1	4941.4
8192	5.1	0.45	0.1	4880.2
8193	5.1	0.15	0.1	4901.3
8194	4.65	0.3	0.1	5044.3
8195	4.8	0.45	0.1	4981.
8196	4.8	0.15	0.1	5004.7
8197	4.35	0.3	0.1	5148.9
8198	4.5	0.45	0.1	5083.3
8199	4.5	0.15	0.1	5109.7
8200	4.05	0.3	0.1	5254.9
8201	4.2	0.45	0.1	5187.
8202	4.2	0.15	0.1	5216.4
8203	3.75	0.3	0.1	5362.3
8204	3.9	0.45	0.1	5292.
8205	3.9	0.15	0.1	5324.5
8206	3.45	0.3	0.1	5470.6
8207	3.6	0.45	0.1	5398.1
8208	3.6	0.15	0.1	5433.7
8209	3.15	0.3	0.1	5578.9
8210	3.3	0.45	0.1	5504.5
8211	3.3	0.15	0.1	5543.3
8212	2.85	0.3	0.1	5685.9
8213	3.	0.45	0.1	5610.3
8214	3.	0.15	0.1	5652.3
8215	2.55	0.3	0.1	5789.2
8216	2.7	0.45	0.1	5713.9
8217	2.7	0.15	0.1	5758.7
8218	2.25	0.3	0.1	5885.
8219	2.4	0.45	0.1	5812.4
8220	2.4	0.15	0.1	5859.6
8221	1.95	0.3	0.1	5967.1
8222	2.1	0.45	0.1	5901.2
8223	2.1	0.15	0.1	5949.9
8224	1.65	0.3	0.1	6024.4
8225	1.8	0.45	0.1	5973.3
8226	1.8	0.15	0.1	6021.8
8227	1.35	0.3	0.1	6039.4
8228	1.5	0.45	0.1	6015.
8229	1.5	0.15	0.1	6060.5
8230	1.05	0.3	0.1	5970.5
8231	1.2	0.45	0.1	6009.9
8232	1.2	0.15	0.1	6044.
8233	0.75	0.3	0.1	5768.2
8234	0.9	0.45	0.1	5899.4
8235	0.9	0.15	0.1	5908.7
8236	0.45	0.3	0.1	5118.7
8237	0.6	0.45	0.1	5696.6
8238	0.6	0.15	0.1	5594.7
8239	0.3	0.45	0.1	4917.6
8240	0.3	0.15	0.1	4526.8
8241	0.15	0.3	0.1	4430.6
8242	23.55	0.6	0.1	91.955
8243	23.7	0.75	0.1	62.963
8244	23.85	0.6	0.1	38.277
8245	23.25	0.6	0.1	152.09
8246	23.4	0.75	0.1	122.42
8247	22.95	0.6	0.1	213.98
8248	23.1	0.75	0.1	183.63
8249	22.65	0.6	0.1	276.96
8250	22.8	0.75	0.1	245.91
8251	22.35	0.6	0.1	340.72
8252	22.5	0.75	0.1	309.08
8253	22.05	0.6	0.1	405.04
8254	22.2	0.75	0.1	372.92
8255	21.75	0.6	0.1	469.84
8256	21.9	0.75	0.1	437.29
8257	21.45	0.6	0.1	535.06
8258	21.6	0.75	0.1	502.13
8259	21.15	0.6	0.1	600.68
8260	21.3	0.75	0.1	567.4
8261	20.85	0.6	0.1	666.7
8262	21.	0.75	0.1	633.09
8263	20.55	0.6	0.1	733.12
8264	20.7	0.75	0.1	699.2
8265	20.25	0.6	0.1	799.95
8266	20.4	0.75	0.1	765.73
8267	19.95	0.6	0.1	867.2
8268	20.1	0.75	0.1	832.7
8269	19.65	0.6	0.1	934.89
8270	19.8	0.75	0.1	900.1
8271	19.35	0.6	0.1	1003.
8272	19.5	0.75	0.1	967.96
8273	19.05	0.6	0.1	1071.6
8274	19.2	0.75	0.1	1036.3
8275	18.75	0.6	0.1	1140.7
8276	18.9	0.75	0.1	1105.1
8277	18.45	0.6	0.1	1210.2
8278	18.6	0.75	0.1	1174.4
8279	18.15	0.6	0.1	1280.2
8280	18.3	0.75	0.1	1244.1
8281	17.85	0.6	0.1	1350.8
8282	18.	0.75	0.1	1314.4
8283	17.55	0.6	0.1	1421.8
8284	17.7	0.75	0.1	1385.1
8285	17.25	0.6	0.1	1493.3
8286	17.4	0.75	0.1	1456.4
8287	16.95	0.6	0.1	1565.4
8288	17.1	0.75	0.1	1528.2
8289	16.65	0.6	0.1	1637.9
8290	16.8	0.75	0.1	1600.5
8291	16.35	0.6	0.1	1711.
8292	16.5	0.75	0.1	1673.3
8293	16.05	0.6	0.1	1784.6
8294	16.2	0.75	0.1	1746.6
8295	15.75	0.6	0.1	1858.7
8296	15.9	0.75	0.1	1820.5
8297	15.45	0.6	0.1	1933.3
8298	15.6	0.75	0.1	1894.9
8299	15.15	0.6	0.1	2008.5
8300	15.3	0.75	0.1	1969.8
8301	14.85	0.6	0.1	2084.2
8302	15.	0.75	0.1	2045.2
8303	14.55	0.6	0.1	2160.5
8304	14.7	0.75	0.1	2121.2
8305	14.25	0.6	0.1	2237.2
8306	14.4	0.75	0.1	2197.7
8307	13.95	0.6	0.1	2314.5
8308	14.1	0.75	0.1	2274.7
8309	13.65	0.6	0.1	2392.4
8310	13.8	0.75	0.1	2352.3
8311	13.35	0.6	0.1	2470.8
8312	13.5	0.75	0.1	2430.4
8313	13.05	0.6	0.1	2549.7
8314	13.2	0.75	0.1	2509.
8315	12.75	0.6	0.1	2629.2
8316	12.9	0.75	0.1	2588.2
8317	12.45	0.6	0.1	2709.2
8318	12.6	0.75	0.1	2668.
8319	12.15	0.6	0.1	2789.8
8320	12.3	0.75	0.1	2748.2
8321	11.85	0.6	0.1	2870.9
8322	12.	0.75	0.1	2829.1
8323	11.55	0.6	0.1	2952.6
8324	11.7	0.75	0.1	2910.4
8325	11.25	0.6	0.1	3034.9
8326	11.4	0.75	0.1	2992.3
8327	10.95	0.6	0.1	3117.7
8328	11.1	0.75	0.1	3074.8
8329	10.65	0.6	0.1	3201.1
8330	10.8	0.75	0.1	3157.9
8331	10.35	0.6	0.1	3285.1
8332	10.5	0.75	0.1	3241.5
8333	10.05	0.6	0.1	3369.7
8334	10.2	0.75	0.1	3325.6
8335	9.75	0.6	0.1	3454.9
8336	9.9	0.75	0.1	3410.4
8337	9.45	0.6	0.1	3540.7
8338	9.6	0.75	0.1	3495.7
8339	9.15	0.6	0.1	3627.1
8340	9.3	0.75	0.1	3581.7
8341	8.85	0.6	0.1	3714.2
8342	9.	0.75	0.1	3668.2
8343	8.55	0.6	0.1	3801.9
8344	8.7	0.75	0.1	3755.4
8345	8.25	0.6	0.1	3890.3
8346	8.4	0.75	0.1	3843.2
8347	7.95	0.6	0.1	3979.5
8348	8.1	0.75	0.1	3931.7
8349	7.65	0.6	0.1	4069.3
8350	7.8	0.75	0.1	4020.9
8351	7.35	0.6	0.1	4160.
8352	7.5	0.75	0.1	4110.8
8353	7.05	0.6	0.1	4251.5
8354	7.2	0.75	0.1	4201.4
8355	6.75	0.6	0.1	4343.8
8356	6.9	0.75	0.1	4292.8
8357	6.45	0.6	0.1	4437.1
8358	6.6	0.75	0.1	4385.
8359	6.15	0.6	0.1	4531.4
8360	6.3	0.75	0.1	4478.1
8361	5.85	0.6	0.1	4626.7
8362	6.	0.75	0.1	4572.2
8363	5.55	0.6	0.1	4723.2
8364	5.7	0.75	0.1	4667.2
8365	5.25	0.6	0.1	4820.8
8366	5.4	0.75	0.1	4763.3
8367	4.95	0.6	0.1	4919.7
8368	5.1	0.75	0.1	4860.5
8369	4.65	0.6	0.1	5019.9
8370	4.8	0.75	0.1	4958.8
8371	4.35	0.6	0.1	5121.3
8372	4.5	0.75	0.1	5058.3
8373	4.05	0.6	0.1	5224.
8374	4.2	0.75	0.1	5159.
8375	3.75	0.6	0.1	5327.6
8376	3.9	0.75	0.1	5260.7
8377	3.45	0.6	0.1	5431.7
8378	3.6	0.75	0.1	5363.1
8379	3.15	0.6	0.1	5535.6
8380	3.3	0.75	0.1	5465.8
8381	2.85	0.6	0.1	5637.9
8382	3.	0.75	0.1	5567.9
8383	2.55	0.6	0.1	5736.6
8384	2.7	0.75	0.1	5668.
8385	2.25	0.6	0.1	5828.
8386	2.4	0.75	0.1	5763.6
8387	1.95	0.6	0.1	5906.6
8388	2.1	0.75	0.1	5850.9
8389	1.65	0.6	0.1	5963.
8390	1.8	0.75	0.1	5924.4
8391	1.35	0.6	0.1	5984.4
8392	1.5	0.75	0.1	5973.5
8393	1.05	0.6	0.1	5937.9
8394	1.2	0.75	0.1	5991.1
8395	0.75	0.6	0.1	5828.6
8396	0.9	0.75	0.1	5932.9
8397	0.45	0.6	0.1	5510.1
8398	0.6	0.75	0.1	5903.8
8399	0.3	0.75	0.1	5556.7
8400	0.15	0.6	0.1	5662.2
8401	23.55	0.9	0.1	93.518
8402	23.7	1.05	0.1	63.834
8403	23.85	0.9	0.1	38.892
8404	23.25	0.9	0.1	154.19
8405	23.4	1.05	0.1	124.32
8406	22.95	0.9	0.1	215.84
8407	23.1	1.05	0.1	185.74
8408	22.65	0.9	0.1	278.31
8409	22.8	1.05	0.1	247.75
8410	22.35	0.9	0.1	341.55
8411	22.5	1.05	0.1	310.5
8412	22.05	0.9	0.1	405.4
8413	22.2	1.05	0.1	373.88
8414	21.75	0.9	0.1	469.79
8415	21.9	1.05	0.1	437.83
8416	21.45	0.9	0.1	534.67
8417	21.6	1.05	0.1	502.29
8418	21.15	0.9	0.1	600.
8419	21.3	1.05	0.1	567.24
8420	20.85	0.9	0.1	665.77
8421	21.	1.05	0.1	632.65
8422	20.55	0.9	0.1	731.98
8423	20.7	1.05	0.1	698.52
8424	20.25	0.9	0.1	798.64
8425	20.4	1.05	0.1	764.85
8426	19.95	0.9	0.1	865.75
8427	20.1	1.05	0.1	831.64
8428	19.65	0.9	0.1	933.32
8429	19.8	1.05	0.1	898.9
8430	19.35	0.9	0.1	1001.4
8431	19.5	1.05	0.1	966.64
8432	19.05	0.9	0.1	1069.9
8433	19.2	1.05	0.1	1034.9
8434	18.75	0.9	0.1	1138.9
8435	18.9	1.05	0.1	1103.6
8436	18.45	0.9	0.1	1208.4
8437	18.6	1.05	0.1	1172.8
8438	18.15	0.9	0.1	1278.4
8439	18.3	1.05	0.1	1242.5
8440	17.85	0.9	0.1	1348.9
8441	18.	1.05	0.1	1312.7
8442	17.55	0.9	0.1	1419.9
8443	17.7	1.05	0.1	1383.4
8444	17.25	0.9	0.1	1491.4
8445	17.4	1.05	0.1	1454.7
8446	16.95	0.9	0.1	1563.4
8447	17.1	1.05	0.1	1526.5
8448	16.65	0.9	0.1	1636.
8449	16.8	1.05	0.1	1598.7
8450	16.35	0.9	0.1	1709.
8451	16.5	1.05	0.1	1671.5
8452	16.05	0.9	0.1	1782.6
8453	16.2	1.05	0.1	1744.9
8454	15.75	0.9	0.1	1856.7
8455	15.9	1.05	0.1	1818.7
8456	15.45	0.9	0.1	1931.4
8457	15.6	1.05	0.1	1893.1
8458	15.15	0.9	0.1	2006.6
8459	15.3	1.05	0.1	1968.
8460	14.85	0.9	0.1	2082.3
8461	15.	1.05	0.1	2043.4
8462	14.55	0.9	0.1	2158.5
8463	14.7	1.05	0.1	2119.4
8464	14.25	0.9	0.1	2235.3
8465	14.4	1.05	0.1	2195.9
8466	13.95	0.9	0.1	2312.5
8467	14.1	1.05	0.1	2272.9
8468	13.65	0.9	0.1	2390.4
8469	13.8	1.05	0.1	2350.5
8470	13.35	0.9	0.1	2468.7
8471	13.5	1.05	0.1	2428.5
8472	13.05	0.9	0.1	2547.6
8473	13.2	1.05	0.1	2507.1
8474	12.75	0.9	0.1	2627.1
8475	12.9	1.05	0.1	2586.3
8476	12.45	0.9	0.1	2707.
8477	12.6	1.05	0.1	2666.
8478	12.15	0.9	0.1	2787.5
8479	12.3	1.05	0.1	2746.2
8480	11.85	0.9	0.1	2868.6
8481	12.	1.05	0.1	2826.9
8482	11.55	0.9	0.1	2950.2
8483	11.7	1.05	0.1	2908.2
8484	11.25	0.9	0.1	3032.3
8485	11.4	1.05	0.1	2990.
8486	10.95	0.9	0.1	3115.
8487	11.1	1.05	0.1	3072.3
8488	10.65	0.9	0.1	3198.2
8489	10.8	1.05	0.1	3155.2
8490	10.35	0.9	0.1	3282.
8491	10.5	1.05	0.1	3238.7
8492	10.05	0.9	0.1	3366.4
8493	10.2	1.05	0.1	3322.6
8494	9.75	0.9	0.1	3451.3
8495	9.9	1.05	0.1	3407.1
8496	9.45	0.9	0.1	3536.8
8497	9.6	1.05	0.1	3492.2
8498	9.15	0.9	0.1	3622.9
8499	9.3	1.05	0.1	3577.8
8500	8.85	0.9	0.1	3709.5
8501	9.	1.05	0.1	3664.
8502	8.55	0.9	0.1	3796.8
8503	8.7	1.05	0.1	3750.8
8504	8.25	0.9	0.1	3884.7
8505	8.4	1.05	0.1	3838.1
8506	7.95	0.9	0.1	3973.2
8507	8.1	1.05	0.1	3926.
8508	7.65	0.9	0.1	4062.3
8509	7.8	1.05	0.1	4014.5
8510	7.35	0.9	0.1	4152.2
8511	7.5	1.05	0.1	4103.6
8512	7.05	0.9	0.1	4242.7
8513	7.2	1.05	0.1	4193.4
8514	6.75	0.9	0.1	4334.
8515	6.9	1.05	0.1	4283.8
8516	6.45	0.9	0.1	4426.
8517	6.6	1.05	0.1	4374.9
8518	6.15	0.9	0.1	4518.9
8519	6.3	1.05	0.1	4466.7
8520	5.85	0.9	0.1	4612.6
8521	6.	1.05	0.1	4559.3
8522	5.55	0.9	0.1	4707.3
8523	5.7	1.05	0.1	4652.6
8524	5.25	0.9	0.1	4802.9
8525	5.4	1.05	0.1	4746.8
8526	4.95	0.9	0.1	4899.5
8527	5.1	1.05	0.1	4841.9
8528	4.65	0.9	0.1	4997.1
8529	4.8	1.05	0.1	4937.9
8530	4.35	0.9	0.1	5095.8
8531	4.5	1.05	0.1	5034.9
8532	4.05	0.9	0.1	5195.5
8533	4.2	1.05	0.1	5132.8
8534	3.75	0.9	0.1	5296.
8535	3.9	1.05	0.1	5231.6
8536	3.45	0.9	0.1	5397.
8537	3.6	1.05	0.1	5331.1
8538	3.15	0.9	0.1	5497.9
8539	3.3	1.05	0.1	5431.
8540	2.85	0.9	0.1	5597.6
8541	3.	1.05	0.1	5530.7
8542	2.55	0.9	0.1	5694.5
8543	2.7	1.05	0.1	5629.2
8544	2.25	0.9	0.1	5786.
8545	2.4	1.05	0.1	5724.9
8546	1.95	0.9	0.1	5868.1
8547	2.1	1.05	0.1	5815.3
8548	1.65	0.9	0.1	5934.4
8549	1.8	1.05	0.1	5897.4
8550	1.35	0.9	0.1	5979.9
8551	1.5	1.05	0.1	5965.1
8552	1.05	0.9	0.1	5987.
8553	1.2	1.05	0.1	6022.1
8554	0.75	0.9	0.1	6012.3
8555	0.9	1.05	0.1	6042.2
8556	0.45	0.9	0.1	5951.5
8557	0.6	1.05	0.1	6186.6
8558	0.3	1.05	0.1	6067.9
8559	0.15	0.9	0.1	6380.3
8560	23.55	1.2	0.1	94.642
8561	23.7	1.35	0.1	64.342
8562	23.85	1.2	0.1	39.291
8563	23.25	1.2	0.1	155.98
8564	23.4	1.35	0.1	125.67
8565	22.95	1.2	0.1	217.79
8566	23.1	1.35	0.1	187.52
8567	22.65	1.2	0.1	280.1
8568	22.8	1.35	0.1	249.58
8569	22.35	1.2	0.1	343.
8570	22.5	1.35	0.1	312.14
8571	22.05	1.2	0.1	406.48
8572	22.2	1.35	0.1	375.23
8573	21.75	1.2	0.1	470.5
8574	21.9	1.35	0.1	438.85
8575	21.45	1.2	0.1	535.03
8576	21.6	1.35	0.1	502.98
8577	21.15	1.2	0.1	600.05
8578	21.3	1.35	0.1	567.61
8579	20.85	1.2	0.1	665.55
8580	21.	1.35	0.1	632.74
8581	20.55	1.2	0.1	731.52
8582	20.7	1.35	0.1	698.36
8583	20.25	1.2	0.1	797.98
8584	20.4	1.35	0.1	764.46
8585	19.95	1.2	0.1	864.92
8586	20.1	1.35	0.1	831.07
8587	19.65	1.2	0.1	932.34
8588	19.8	1.35	0.1	898.17
8589	19.35	1.2	0.1	1000.3
8590	19.5	1.35	0.1	965.77
8591	19.05	1.2	0.1	1068.7
8592	19.2	1.35	0.1	1033.9
8593	18.75	1.2	0.1	1137.6
8594	18.9	1.35	0.1	1102.5
8595	18.45	1.2	0.1	1207.
8596	18.6	1.35	0.1	1171.6
8597	18.15	1.2	0.1	1277.
8598	18.3	1.35	0.1	1241.3
8599	17.85	1.2	0.1	1347.4
8600	18.	1.35	0.1	1311.4
8601	17.55	1.2	0.1	1418.4
8602	17.7	1.35	0.1	1382.1
8603	17.25	1.2	0.1	1489.9
8604	17.4	1.35	0.1	1453.3
8605	16.95	1.2	0.1	1561.9
8606	17.1	1.35	0.1	1525.1
8607	16.65	1.2	0.1	1634.4
8608	16.8	1.35	0.1	1597.3
8609	16.35	1.2	0.1	1707.5
8610	16.5	1.35	0.1	1670.1
8611	16.05	1.2	0.1	1781.1
8612	16.2	1.35	0.1	1743.4
8613	15.75	1.2	0.1	1855.2
8614	15.9	1.35	0.1	1817.3
8615	15.45	1.2	0.1	1929.8
8616	15.6	1.35	0.1	1891.7
8617	15.15	1.2	0.1	2005.
8618	15.3	1.35	0.1	1966.5
8619	14.85	1.2	0.1	2080.7
8620	15.	1.35	0.1	2042.
8621	14.55	1.2	0.1	2156.9
8622	14.7	1.35	0.1	2117.9
8623	14.25	1.2	0.1	2233.6
8624	14.4	1.35	0.1	2194.4
8625	13.95	1.2	0.1	2310.9
8626	14.1	1.35	0.1	2271.4
8627	13.65	1.2	0.1	2388.7
8628	13.8	1.35	0.1	2348.9
8629	13.35	1.2	0.1	2467.
8630	13.5	1.35	0.1	2427.
8631	13.05	1.2	0.1	2545.9
8632	13.2	1.35	0.1	2505.5
8633	12.75	1.2	0.1	2625.3
8634	12.9	1.35	0.1	2584.6
8635	12.45	1.2	0.1	2705.2
8636	12.6	1.35	0.1	2664.3
8637	12.15	1.2	0.1	2785.6
8638	12.3	1.35	0.1	2744.4
8639	11.85	1.2	0.1	2866.6
8640	12.	1.35	0.1	2825.1
8641	11.55	1.2	0.1	2948.1
8642	11.7	1.35	0.1	2906.3
8643	11.25	1.2	0.1	3030.1
8644	11.4	1.35	0.1	2988.
8645	10.95	1.2	0.1	3112.6
8646	11.1	1.35	0.1	3070.2
8647	10.65	1.2	0.1	3195.7
8648	10.8	1.35	0.1	3152.9
8649	10.35	1.2	0.1	3279.3
8650	10.5	1.35	0.1	3236.2
8651	10.05	1.2	0.1	3363.4
8652	10.2	1.35	0.1	3320.
8653	9.75	1.2	0.1	3448.1
8654	9.9	1.35	0.1	3404.3
8655	9.45	1.2	0.1	3533.3
8656	9.6	1.35	0.1	3489.1
8657	9.15	1.2	0.1	3619.
8658	9.3	1.35	0.1	3574.4
8659	8.85	1.2	0.1	3705.3
8660	9.	1.35	0.1	3660.2
8661	8.55	1.2	0.1	3792.1
8662	8.7	1.35	0.1	3746.6
8663	8.25	1.2	0.1	3879.5
8664	8.4	1.35	0.1	3833.4
8665	7.95	1.2	0.1	3967.4
8666	8.1	1.35	0.1	3920.8
8667	7.65	1.2	0.1	4055.8
8668	7.8	1.35	0.1	4008.7
8669	7.35	1.2	0.1	4144.9
8670	7.5	1.35	0.1	4097.1
8671	7.05	1.2	0.1	4234.5
8672	7.2	1.35	0.1	4186.1
8673	6.75	1.2	0.1	4324.7
8674	6.9	1.35	0.1	4275.6
8675	6.45	1.2	0.1	4415.6
8676	6.6	1.35	0.1	4365.6
8677	6.15	1.2	0.1	4507.1
8678	6.3	1.35	0.1	4456.2
8679	5.85	1.2	0.1	4599.3
8680	6.	1.35	0.1	4547.4
8681	5.55	1.2	0.1	4692.2
8682	5.7	1.35	0.1	4639.2
8683	5.25	1.2	0.1	4785.9
8684	5.4	1.35	0.1	4731.6
8685	4.95	1.2	0.1	4880.3
8686	5.1	1.35	0.1	4824.8
8687	4.65	1.2	0.1	4975.6
8688	4.8	1.35	0.1	4918.6
8689	4.35	1.2	0.1	5071.7
8690	4.5	1.35	0.1	5013.2
8691	4.05	1.2	0.1	5168.7
8692	4.2	1.35	0.1	5108.6
8693	3.75	1.2	0.1	5266.5
8694	3.9	1.35	0.1	5204.9
8695	3.45	1.2	0.1	5364.9
8696	3.6	1.35	0.1	5301.9
8697	3.15	1.2	0.1	5463.6
8698	3.3	1.35	0.1	5399.7
8699	2.85	1.2	0.1	5562.
8700	3.	1.35	0.1	5498.
8701	2.55	1.2	0.1	5659.3
8702	2.7	1.35	0.1	5596.5
8703	2.25	1.2	0.1	5754.
8704	2.4	1.35	0.1	5694.6
8705	1.95	1.2	0.1	5844.5
8706	2.1	1.35	0.1	5791.6
8707	1.65	1.2	0.1	5928.2
8708	1.8	1.35	0.1	5887.2
8709	1.35	1.2	0.1	6008.
8710	1.5	1.35	0.1	5980.1
8711	1.05	1.2	0.1	6079.2
8712	1.2	1.35	0.1	6083.1
8713	0.75	1.2	0.1	6219.4
8714	0.9	1.35	0.1	6180.2
8715	0.45	1.2	0.1	6298.9
8716	0.6	1.35	0.1	6445.5
8717	0.3	1.35	0.1	6416.7
8718	0.15	1.2	0.1	6832.
8719	23.55	1.5	0.1	95.335
8720	23.7	1.65	0.1	64.607
8721	23.85	1.5	0.1	39.462
8722	23.25	1.5	0.1	157.26
8723	23.4	1.65	0.1	126.56
8724	22.95	1.5	0.1	219.39
8725	23.1	1.65	0.1	188.84
8726	22.65	1.5	0.1	281.73
8727	22.8	1.65	0.1	251.09
8728	22.35	1.5	0.1	344.49
8729	22.5	1.65	0.1	313.64
8730	22.05	1.5	0.1	407.72
8731	22.2	1.65	0.1	376.57
8732	21.75	1.5	0.1	471.46
8733	21.9	1.65	0.1	439.96
8734	21.45	1.5	0.1	535.69
8735	21.6	1.65	0.1	503.83
8736	21.15	1.5	0.1	600.43
8737	21.3	1.65	0.1	568.2
8738	20.85	1.5	0.1	665.67
8739	21.	1.65	0.1	633.08
8740	20.55	1.5	0.1	731.42
8741	20.7	1.65	0.1	698.47
8742	20.25	1.5	0.1	797.67
8743	20.4	1.65	0.1	764.37
8744	19.95	1.5	0.1	864.44
8745	20.1	1.65	0.1	830.79
8746	19.65	1.5	0.1	931.71
8747	19.8	1.65	0.1	897.73
8748	19.35	1.5	0.1	999.5
8749	19.5	1.65	0.1	965.2
8750	19.05	1.5	0.1	1067.8
8751	19.2	1.65	0.1	1033.2
8752	18.75	1.5	0.1	1136.6
8753	18.9	1.65	0.1	1101.7
8754	18.45	1.5	0.1	1206.
8755	18.6	1.65	0.1	1170.8
8756	18.15	1.5	0.1	1275.9
8757	18.3	1.65	0.1	1240.3
8758	17.85	1.5	0.1	1346.3
8759	18.	1.65	0.1	1310.5
8760	17.55	1.5	0.1	1417.2
8761	17.7	1.65	0.1	1381.1
8762	17.25	1.5	0.1	1488.7
8763	17.4	1.65	0.1	1452.3
8764	16.95	1.5	0.1	1560.6
8765	17.1	1.65	0.1	1524.
8766	16.65	1.5	0.1	1633.2
8767	16.8	1.65	0.1	1596.2
8768	16.35	1.5	0.1	1706.2
8769	16.5	1.65	0.1	1669.
8770	16.05	1.5	0.1	1779.8
8771	16.2	1.65	0.1	1742.3
8772	15.75	1.5	0.1	1853.9
8773	15.9	1.65	0.1	1816.1
8774	15.45	1.5	0.1	1928.5
8775	15.6	1.65	0.1	1890.5
8776	15.15	1.5	0.1	2003.6
8777	15.3	1.65	0.1	1965.3
8778	14.85	1.5	0.1	2079.3
8779	15.	1.65	0.1	2040.8
8780	14.55	1.5	0.1	2155.5
8781	14.7	1.65	0.1	2116.7
8782	14.25	1.5	0.1	2232.2
8783	14.4	1.65	0.1	2193.1
8784	13.95	1.5	0.1	2309.5
8785	14.1	1.65	0.1	2270.1
8786	13.65	1.5	0.1	2387.3
8787	13.8	1.65	0.1	2347.6
8788	13.35	1.5	0.1	2465.6
8789	13.5	1.65	0.1	2425.7
8790	13.05	1.5	0.1	2544.4
8791	13.2	1.65	0.1	2504.2
8792	12.75	1.5	0.1	2623.7
8793	12.9	1.65	0.1	2583.3
8794	12.45	1.5	0.1	2703.6
8795	12.6	1.65	0.1	2662.8
8796	12.15	1.5	0.1	2783.9
8797	12.3	1.65	0.1	2742.9
8798	11.85	1.5	0.1	2864.8
8799	12.	1.65	0.1	2823.5
8800	11.55	1.5	0.1	2946.2
8801	11.7	1.65	0.1	2904.6
8802	11.25	1.5	0.1	3028.1
8803	11.4	1.65	0.1	2986.3
8804	10.95	1.5	0.1	3110.6
8805	11.1	1.65	0.1	3068.4
8806	10.65	1.5	0.1	3193.5
8807	10.8	1.65	0.1	3151.
8808	10.35	1.5	0.1	3276.9
8809	10.5	1.65	0.1	3234.1
8810	10.05	1.5	0.1	3360.9
8811	10.2	1.65	0.1	3317.7
8812	9.75	1.5	0.1	3445.3
8813	9.9	1.65	0.1	3401.8
8814	9.45	1.5	0.1	3530.2
8815	9.6	1.65	0.1	3486.4
8816	9.15	1.5	0.1	3615.7
8817	9.3	1.65	0.1	3571.4
8818	8.85	1.5	0.1	3701.6
8819	9.	1.65	0.1	3657.
8820	8.55	1.5	0.1	3788.
8821	8.7	1.65	0.1	3743.
8822	8.25	1.5	0.1	3874.8
8823	8.4	1.65	0.1	3829.4
8824	7.95	1.5	0.1	3962.2
8825	8.1	1.65	0.1	3916.3
8826	7.65	1.5	0.1	4050.
8827	7.8	1.65	0.1	4003.7
8828	7.35	1.5	0.1	4138.4
8829	7.5	1.65	0.1	4091.5
8830	7.05	1.5	0.1	4227.2
8831	7.2	1.65	0.1	4179.7
8832	6.75	1.5	0.1	4316.4
8833	6.9	1.65	0.1	4268.3
8834	6.45	1.5	0.1	4406.2
8835	6.6	1.65	0.1	4357.4
8836	6.15	1.5	0.1	4496.5
8837	6.3	1.65	0.1	4446.9
8838	5.85	1.5	0.1	4587.3
8839	6.	1.65	0.1	4536.9
8840	5.55	1.5	0.1	4678.6
8841	5.7	1.65	0.1	4627.3
8842	5.25	1.5	0.1	4770.5
8843	5.4	1.65	0.1	4718.2
8844	4.95	1.5	0.1	4863.
8845	5.1	1.65	0.1	4809.5
8846	4.65	1.5	0.1	4956.1
8847	4.8	1.65	0.1	4901.4
8848	4.35	1.5	0.1	5050.
8849	4.5	1.65	0.1	4994.
8850	4.05	1.5	0.1	5144.6
8851	4.2	1.65	0.1	5087.2
8852	3.75	1.5	0.1	5240.1
8853	3.9	1.65	0.1	5181.3
8854	3.45	1.5	0.1	5336.6
8855	3.6	1.65	0.1	5276.5
8856	3.15	1.5	0.1	5434.
8857	3.3	1.65	0.1	5372.8
8858	2.85	1.5	0.1	5532.4
8859	3.	1.65	0.1	5470.7
8860	2.55	1.5	0.1	5631.8
8861	2.7	1.65	0.1	5570.5
8862	2.25	1.5	0.1	5732.3
8863	2.4	1.65	0.1	5672.8
8864	1.95	1.5	0.1	5834.5
8865	2.1	1.65	0.1	5778.5
8866	1.65	1.5	0.1	5939.8
8867	1.8	1.65	0.1	5890.2
8868	1.35	1.5	0.1	6056.4
8869	1.5	1.65	0.1	6010.3
8870	1.05	1.5	0.1	6185.7
8871	1.2	1.65	0.1	6156.4
8872	0.75	1.5	0.1	6407.4
8873	0.9	1.65	0.1	6314.3
8874	0.45	1.5	0.1	6560.2
8875	0.6	1.65	0.1	6653.
8876	0.3	1.65	0.1	6657.7
8877	0.15	1.5	0.1	7127.6
8878	23.55	1.8	0.1	95.781
8879	23.7	1.95	0.1	64.75
8880	23.85	1.8	0.1	39.545
8881	23.25	1.8	0.1	158.17
8882	23.4	1.95	0.1	127.15
8883	22.95	1.8	0.1	220.61
8884	23.1	1.95	0.1	189.79
8885	22.65	1.8	0.1	283.07
8886	22.8	1.95	0.1	252.25
8887	22.35	1.8	0.1	345.81
8888	22.5	1.95	0.1	314.86
8889	22.05	1.8	0.1	408.9
8890	22.2	1.95	0.1	377.73
8891	21.75	1.8	0.1	472.44
8892	21.9	1.95	0.1	440.98
8893	21.45	1.8	0.1	536.45
8894	21.6	1.95	0.1	504.67
8895	21.15	1.8	0.1	600.96
8896	21.3	1.95	0.1	568.84
8897	20.85	1.8	0.1	665.98
8898	21.	1.95	0.1	633.51
8899	20.55	1.8	0.1	731.53
8900	20.7	1.95	0.1	698.71
8901	20.25	1.8	0.1	797.59
8902	20.4	1.95	0.1	764.43
8903	19.95	1.8	0.1	864.2
8904	20.1	1.95	0.1	830.69
8905	19.65	1.8	0.1	931.33
8906	19.8	1.95	0.1	897.5
8907	19.35	1.8	0.1	999.
8908	19.5	1.95	0.1	964.84
8909	19.05	1.8	0.1	1067.2
8910	19.2	1.95	0.1	1032.7
8911	18.75	1.8	0.1	1135.9
8912	18.9	1.95	0.1	1101.2
8913	18.45	1.8	0.1	1205.2
8914	18.6	1.95	0.1	1170.1
8915	18.15	1.8	0.1	1275.
8916	18.3	1.95	0.1	1239.7
8917	17.85	1.8	0.1	1345.4
8918	18.	1.95	0.1	1309.7
8919	17.55	1.8	0.1	1416.3
8920	17.7	1.95	0.1	1380.3
8921	17.25	1.8	0.1	1487.7
8922	17.4	1.95	0.1	1451.5
8923	16.95	1.8	0.1	1559.7
8924	17.1	1.95	0.1	1523.1
8925	16.65	1.8	0.1	1632.2
8926	16.8	1.95	0.1	1595.4
8927	16.35	1.8	0.1	1705.2
8928	16.5	1.95	0.1	1668.1
8929	16.05	1.8	0.1	1778.7
8930	16.2	1.95	0.1	1741.4
8931	15.75	1.8	0.1	1852.8
8932	15.9	1.95	0.1	1815.2
8933	15.45	1.8	0.1	1927.4
8934	15.6	1.95	0.1	1889.5
8935	15.15	1.8	0.1	2002.6
8936	15.3	1.95	0.1	1964.4
8937	14.85	1.8	0.1	2078.2
8938	15.	1.95	0.1	2039.8
8939	14.55	1.8	0.1	2154.4
8940	14.7	1.95	0.1	2115.7
8941	14.25	1.8	0.1	2231.1
8942	14.4	1.95	0.1	2192.2
8943	13.95	1.8	0.1	2308.3
8944	14.1	1.95	0.1	2269.1
8945	13.65	1.8	0.1	2386.1
8946	13.8	1.95	0.1	2346.6
8947	13.35	1.8	0.1	2464.4
8948	13.5	1.95	0.1	2424.6
8949	13.05	1.8	0.1	2543.1
8950	13.2	1.95	0.1	2503.1
8951	12.75	1.8	0.1	2622.4
8952	12.9	1.95	0.1	2582.1
8953	12.45	1.8	0.1	2702.3
8954	12.6	1.95	0.1	2661.7
8955	12.15	1.8	0.1	2782.6
8956	12.3	1.95	0.1	2741.7
8957	11.85	1.8	0.1	2863.4
8958	12.	1.95	0.1	2822.3
8959	11.55	1.8	0.1	2944.7
8960	11.7	1.95	0.1	2903.3
8961	11.25	1.8	0.1	3026.5
8962	11.4	1.95	0.1	2984.9
8963	10.95	1.8	0.1	3108.8
8964	11.1	1.95	0.1	3066.9
8965	10.65	1.8	0.1	3191.6
8966	10.8	1.95	0.1	3149.4
8967	10.35	1.8	0.1	3274.9
8968	10.5	1.95	0.1	3232.4
8969	10.05	1.8	0.1	3358.7
8970	10.2	1.95	0.1	3315.9
8971	9.75	1.8	0.1	3442.9
8972	9.9	1.95	0.1	3399.8
8973	9.45	1.8	0.1	3527.6
8974	9.6	1.95	0.1	3484.2
8975	9.15	1.8	0.1	3612.8
8976	9.3	1.95	0.1	3569.
8977	8.85	1.8	0.1	3698.4
8978	9.	1.95	0.1	3654.3
8979	8.55	1.8	0.1	3784.4
8980	8.7	1.95	0.1	3740.
8981	8.25	1.8	0.1	3870.9
8982	8.4	1.95	0.1	3826.1
8983	7.95	1.8	0.1	3957.8
8984	8.1	1.95	0.1	3912.6
8985	7.65	1.8	0.1	4045.1
8986	7.8	1.95	0.1	3999.5
8987	7.35	1.8	0.1	4132.8
8988	7.5	1.95	0.1	4086.7
8989	7.05	1.8	0.1	4220.9
8990	7.2	1.95	0.1	4174.3
8991	6.75	1.8	0.1	4309.3
8992	6.9	1.95	0.1	4262.3
8993	6.45	1.8	0.1	4398.1
8994	6.6	1.95	0.1	4350.6
8995	6.15	1.8	0.1	4487.3
8996	6.3	1.95	0.1	4439.2
8997	5.85	1.8	0.1	4576.9
8998	6.	1.95	0.1	4528.1
8999	5.55	1.8	0.1	4666.8
9000	5.7	1.95	0.1	4617.3
9001	5.25	1.8	0.1	4757.2
9002	5.4	1.95	0.1	4706.8
9003	4.95	1.8	0.1	4847.9
9004	5.1	1.95	0.1	4796.7
9005	4.65	1.8	0.1	4939.2
9006	4.8	1.95	0.1	4887.
9007	4.35	1.8	0.1	5031.2
9008	4.5	1.95	0.1	4977.8
9009	4.05	1.8	0.1	5123.9
9010	4.2	1.95	0.1	5069.3
9011	3.75	1.8	0.1	5217.6
9012	3.9	1.95	0.1	5161.7
9013	3.45	1.8	0.1	5312.7
9014	3.6	1.95	0.1	5255.4
9015	3.15	1.8	0.1	5409.5
9016	3.3	1.95	0.1	5350.9
9017	2.85	1.8	0.1	5508.8
9018	3.	1.95	0.1	5449.
9019	2.55	1.8	0.1	5611.6
9020	2.7	1.95	0.1	5550.9
9021	2.25	1.8	0.1	5719.3
9022	2.4	1.95	0.1	5658.2
9023	1.95	1.8	0.1	5834.7
9024	2.1	1.95	0.1	5773.4
9025	1.65	1.8	0.1	5961.6
9026	1.8	1.95	0.1	5901.1
9027	1.35	1.8	0.1	6111.5
9028	1.5	1.95	0.1	6046.
9029	1.05	1.8	0.1	6286.1
9030	1.2	1.95	0.1	6227.2
9031	0.75	1.8	0.1	6560.2
9032	0.9	1.95	0.1	6427.6
9033	0.45	1.8	0.1	6748.8
9034	0.6	1.95	0.1	6808.
9035	0.3	1.95	0.1	6822.5
9036	0.15	1.8	0.1	7325.7
9037	23.55	2.1	0.1	96.062
9038	23.7	2.25	0.1	64.824
9039	23.85	2.1	0.1	39.577
9040	23.25	2.1	0.1	158.8
9041	23.4	2.25	0.1	127.54
9042	22.95	2.1	0.1	221.48
9043	23.1	2.25	0.1	190.44
9044	22.65	2.1	0.1	284.09
9045	22.8	2.25	0.1	253.08
9046	22.35	2.1	0.1	346.85
9047	22.5	2.25	0.1	315.77
9048	22.05	2.1	0.1	409.89
9049	22.2	2.25	0.1	378.63
9050	21.75	2.1	0.1	473.3
9051	21.9	2.25	0.1	441.81
9052	21.45	2.1	0.1	537.16
9053	21.6	2.25	0.1	505.38
9054	21.15	2.1	0.1	601.49
9055	21.3	2.25	0.1	569.41
9056	20.85	2.1	0.1	666.34
9057	21.	2.25	0.1	633.93
9058	20.55	2.1	0.1	731.72
9059	20.7	2.25	0.1	698.98
9060	20.25	2.1	0.1	797.64
9061	20.4	2.25	0.1	764.56
9062	19.95	2.1	0.1	864.1
9063	20.1	2.25	0.1	830.7
9064	19.65	2.1	0.1	931.11
9065	19.8	2.25	0.1	897.39
9066	19.35	2.1	0.1	998.68
9067	19.5	2.25	0.1	964.63
9068	19.05	2.1	0.1	1066.8
9069	19.2	2.25	0.1	1032.4
9070	18.75	2.1	0.1	1135.5
9071	18.9	2.25	0.1	1100.8
9072	18.45	2.1	0.1	1204.7
9073	18.6	2.25	0.1	1169.7
9074	18.15	2.1	0.1	1274.4
9075	18.3	2.25	0.1	1239.2
9076	17.85	2.1	0.1	1344.8
9077	18.	2.25	0.1	1309.2
9078	17.55	2.1	0.1	1415.6
9079	17.7	2.25	0.1	1379.8
9080	17.25	2.1	0.1	1487.
9081	17.4	2.25	0.1	1450.9
9082	16.95	2.1	0.1	1558.9
9083	17.1	2.25	0.1	1522.5
9084	16.65	2.1	0.1	1631.4
9085	16.8	2.25	0.1	1594.7
9086	16.35	2.1	0.1	1704.4
9087	16.5	2.25	0.1	1667.5
9088	16.05	2.1	0.1	1777.9
9089	16.2	2.25	0.1	1740.7
9090	15.75	2.1	0.1	1852.
9091	15.9	2.25	0.1	1814.5
9092	15.45	2.1	0.1	1926.6
9093	15.6	2.25	0.1	1888.8
9094	15.15	2.1	0.1	2001.7
9095	15.3	2.25	0.1	1963.7
9096	14.85	2.1	0.1	2077.4
9097	15.	2.25	0.1	2039.1
9098	14.55	2.1	0.1	2153.5
9099	14.7	2.25	0.1	2115.
9100	14.25	2.1	0.1	2230.2
9101	14.4	2.25	0.1	2191.4
9102	13.95	2.1	0.1	2307.5
9103	14.1	2.25	0.1	2268.4
9104	13.65	2.1	0.1	2385.2
9105	13.8	2.25	0.1	2345.8
9106	13.35	2.1	0.1	2463.4
9107	13.5	2.25	0.1	2423.8
9108	13.05	2.1	0.1	2542.2
9109	13.2	2.25	0.1	2502.3
9110	12.75	2.1	0.1	2621.4
9111	12.9	2.25	0.1	2581.3
9112	12.45	2.1	0.1	2701.2
9113	12.6	2.25	0.1	2660.8
9114	12.15	2.1	0.1	2781.5
9115	12.3	2.25	0.1	2740.8
9116	11.85	2.1	0.1	2862.3
9117	12.	2.25	0.1	2821.3
9118	11.55	2.1	0.1	2943.5
9119	11.7	2.25	0.1	2902.3
9120	11.25	2.1	0.1	3025.3
9121	11.4	2.25	0.1	2983.8
9122	10.95	2.1	0.1	3107.5
9123	11.1	2.25	0.1	3065.7
9124	10.65	2.1	0.1	3190.2
9125	10.8	2.25	0.1	3148.2
9126	10.35	2.1	0.1	3273.3
9127	10.5	2.25	0.1	3231.1
9128	10.05	2.1	0.1	3357.
9129	10.2	2.25	0.1	3314.4
9130	9.75	2.1	0.1	3441.
9131	9.9	2.25	0.1	3398.2
9132	9.45	2.1	0.1	3525.6
9133	9.6	2.25	0.1	3482.5
9134	9.15	2.1	0.1	3610.5
9135	9.3	2.25	0.1	3567.1
9136	8.85	2.1	0.1	3695.9
9137	9.	2.25	0.1	3652.2
9138	8.55	2.1	0.1	3781.6
9139	8.7	2.25	0.1	3737.6
9140	8.25	2.1	0.1	3867.7
9141	8.4	2.25	0.1	3823.5
9142	7.95	2.1	0.1	3954.3
9143	8.1	2.25	0.1	3909.7
9144	7.65	2.1	0.1	4041.1
9145	7.8	2.25	0.1	3996.2
9146	7.35	2.1	0.1	4128.3
9147	7.5	2.25	0.1	4083.1
9148	7.05	2.1	0.1	4215.8
9149	7.2	2.25	0.1	4170.2
9150	6.75	2.1	0.1	4303.5
9151	6.9	2.25	0.1	4257.6
9152	6.45	2.1	0.1	4391.6
9153	6.6	2.25	0.1	4345.2
9154	6.15	2.1	0.1	4479.9
9155	6.3	2.25	0.1	4433.1
9156	5.85	2.1	0.1	4568.4
9157	6.	2.25	0.1	4521.2
9158	5.55	2.1	0.1	4657.2
9159	5.7	2.25	0.1	4609.5
9160	5.25	2.1	0.1	4746.3
9161	5.4	2.25	0.1	4697.9
9162	4.95	2.1	0.1	4835.7
9163	5.1	2.25	0.1	4786.7
9164	4.65	2.1	0.1	4925.5
9165	4.8	2.25	0.1	4875.7
9166	4.35	2.1	0.1	5015.9
9167	4.5	2.25	0.1	4965.2
9168	4.05	2.1	0.1	5107.1
9169	4.2	2.25	0.1	5055.3
9170	3.75	2.1	0.1	5199.5
9171	3.9	2.25	0.1	5146.5
9172	3.45	2.1	0.1	5293.7
9173	3.6	2.25	0.1	5239.2
9174	3.15	2.1	0.1	5390.6
9175	3.3	2.25	0.1	5334.4
9176	2.85	2.1	0.1	5491.3
9177	3.	2.25	0.1	5433.1
9178	2.55	2.1	0.1	5597.8
9179	2.7	2.25	0.1	5537.2
9180	2.25	2.1	0.1	5712.8
9181	2.4	2.25	0.1	5649.4
9182	1.95	2.1	0.1	5840.5
9183	2.1	2.25	0.1	5773.2
9184	1.65	2.1	0.1	5986.4
9185	1.8	2.25	0.1	5914.5
9186	1.35	2.1	0.1	6162.6
9187	1.5	2.25	0.1	6079.1
9188	1.05	2.1	0.1	6369.3
9189	1.2	2.25	0.1	6285.7
9190	0.75	2.1	0.1	6675.5
9191	0.9	2.25	0.1	6513.5
9192	0.45	2.1	0.1	6880.9
9193	0.6	2.25	0.1	6917.
9194	0.3	2.25	0.1	6932.1
9195	0.15	2.1	0.1	7458.1
9196	23.55	2.4	0.1	96.232
9197	23.7	2.55	0.1	64.86
9198	23.85	2.4	0.1	39.586
9199	23.25	2.4	0.1	159.2
9200	23.4	2.55	0.1	127.77
9201	22.95	2.4	0.1	222.07
9202	23.1	2.55	0.1	190.85
9203	22.65	2.4	0.1	284.8
9204	22.8	2.55	0.1	253.61
9205	22.35	2.4	0.1	347.61
9206	22.5	2.55	0.1	316.36
9207	22.05	2.4	0.1	410.62
9208	22.2	2.55	0.1	379.24
9209	21.75	2.4	0.1	473.96
9210	21.9	2.55	0.1	442.38
9211	21.45	2.4	0.1	537.71
9212	21.6	2.55	0.1	505.88
9213	21.15	2.4	0.1	601.93
9214	21.3	2.55	0.1	569.82
9215	20.85	2.4	0.1	666.66
9216	21.	2.55	0.1	634.25
9217	20.55	2.4	0.1	731.92
9218	20.7	2.55	0.1	699.19
9219	20.25	2.4	0.1	797.72
9220	20.4	2.55	0.1	764.69
9221	19.95	2.4	0.1	864.08
9222	20.1	2.55	0.1	830.73
9223	19.65	2.4	0.1	931.01
9224	19.8	2.55	0.1	897.34
9225	19.35	2.4	0.1	998.49
9226	19.5	2.55	0.1	964.52
9227	19.05	2.4	0.1	1066.5
9228	19.2	2.55	0.1	1032.3
9229	18.75	2.4	0.1	1135.1
9230	18.9	2.55	0.1	1100.6
9231	18.45	2.4	0.1	1204.3
9232	18.6	2.55	0.1	1169.4
9233	18.15	2.4	0.1	1274.
9234	18.3	2.55	0.1	1238.9
9235	17.85	2.4	0.1	1344.3
9236	18.	2.55	0.1	1308.9
9237	17.55	2.4	0.1	1415.1
9238	17.7	2.55	0.1	1379.4
9239	17.25	2.4	0.1	1486.5
9240	17.4	2.55	0.1	1450.5
9241	16.95	2.4	0.1	1558.4
9242	17.1	2.55	0.1	1522.1
9243	16.65	2.4	0.1	1630.9
9244	16.8	2.55	0.1	1594.3
9245	16.35	2.4	0.1	1703.9
9246	16.5	2.55	0.1	1667.
9247	16.05	2.4	0.1	1777.4
9248	16.2	2.55	0.1	1740.3
9249	15.75	2.4	0.1	1851.4
9250	15.9	2.55	0.1	1814.1
9251	15.45	2.4	0.1	1926.
9252	15.6	2.55	0.1	1888.4
9253	15.15	2.4	0.1	2001.1
9254	15.3	2.55	0.1	1963.2
9255	14.85	2.4	0.1	2076.8
9256	15.	2.55	0.1	2038.6
9257	14.55	2.4	0.1	2152.9
9258	14.7	2.55	0.1	2114.5
9259	14.25	2.4	0.1	2229.6
9260	14.4	2.55	0.1	2190.9
9261	13.95	2.4	0.1	2306.8
9262	14.1	2.55	0.1	2267.9
9263	13.65	2.4	0.1	2384.5
9264	13.8	2.55	0.1	2345.3
9265	13.35	2.4	0.1	2462.8
9266	13.5	2.55	0.1	2423.3
9267	13.05	2.4	0.1	2541.5
9268	13.2	2.55	0.1	2501.8
9269	12.75	2.4	0.1	2620.7
9270	12.9	2.55	0.1	2580.7
9271	12.45	2.4	0.1	2700.5
9272	12.6	2.55	0.1	2660.2
9273	12.15	2.4	0.1	2780.7
9274	12.3	2.55	0.1	2740.2
9275	11.85	2.4	0.1	2861.4
9276	12.	2.55	0.1	2820.7
9277	11.55	2.4	0.1	2942.6
9278	11.7	2.55	0.1	2901.6
9279	11.25	2.4	0.1	3024.3
9280	11.4	2.55	0.1	2983.1
9281	10.95	2.4	0.1	3106.5
9282	11.1	2.55	0.1	3065.
9283	10.65	2.4	0.1	3189.1
9284	10.8	2.55	0.1	3147.4
9285	10.35	2.4	0.1	3272.2
9286	10.5	2.55	0.1	3230.2
9287	10.05	2.4	0.1	3355.7
9288	10.2	2.55	0.1	3313.5
9289	9.75	2.4	0.1	3439.7
9290	9.9	2.55	0.1	3397.2
9291	9.45	2.4	0.1	3524.1
9292	9.6	2.55	0.1	3481.3
9293	9.15	2.4	0.1	3608.8
9294	9.3	2.55	0.1	3565.8
9295	8.85	2.4	0.1	3694.
9296	9.	2.55	0.1	3650.8
9297	8.55	2.4	0.1	3779.5
9298	8.7	2.55	0.1	3736.1
9299	8.25	2.4	0.1	3865.4
9300	8.4	2.55	0.1	3821.7
9301	7.95	2.4	0.1	3951.7
9302	8.1	2.55	0.1	3907.7
9303	7.65	2.4	0.1	4038.2
9304	7.8	2.55	0.1	3994.
9305	7.35	2.4	0.1	4125.
9306	7.5	2.55	0.1	4080.6
9307	7.05	2.4	0.1	4212.
9308	7.2	2.55	0.1	4167.4
9309	6.75	2.4	0.1	4299.3
9310	6.9	2.55	0.1	4254.4
9311	6.45	2.4	0.1	4386.8
9312	6.6	2.55	0.1	4341.6
9313	6.15	2.4	0.1	4474.4
9314	6.3	2.55	0.1	4429.
9315	5.85	2.4	0.1	4562.2
9316	6.	2.55	0.1	4516.5
9317	5.55	2.4	0.1	4650.2
9318	5.7	2.55	0.1	4604.1
9319	5.25	2.4	0.1	4738.3
9320	5.4	2.55	0.1	4691.9
9321	4.95	2.4	0.1	4826.7
9322	5.1	2.55	0.1	4779.8
9323	4.65	2.4	0.1	4915.4
9324	4.8	2.55	0.1	4867.9
9325	4.35	2.4	0.1	5004.6
9326	4.5	2.55	0.1	4956.5
9327	4.05	2.4	0.1	5094.8
9328	4.2	2.55	0.1	5045.8
9329	3.75	2.4	0.1	5186.3
9330	3.9	2.55	0.1	5136.1
9331	3.45	2.4	0.1	5280.
9332	3.6	2.55	0.1	5228.3
9333	3.15	2.4	0.1	5377.1
9334	3.3	2.55	0.1	5323.3
9335	2.85	2.4	0.1	5479.4
9336	3.	2.55	0.1	5422.7
9337	2.55	2.4	0.1	5589.3
9338	2.7	2.55	0.1	5528.7
9339	2.25	2.4	0.1	5710.4
9340	2.4	2.55	0.1	5644.6
9341	1.95	2.4	0.1	5848.
9342	2.1	2.55	0.1	5774.9
9343	1.65	2.4	0.1	6008.1
9344	1.8	2.55	0.1	5926.
9345	1.35	2.4	0.1	6203.
9346	1.5	2.55	0.1	6104.
9347	1.05	2.4	0.1	6430.4
9348	1.2	2.55	0.1	6326.8
9349	0.75	2.4	0.1	6755.1
9350	0.9	2.55	0.1	6570.5
9351	0.45	2.4	0.1	6967.9
9352	0.6	2.55	0.1	6986.
9353	0.3	2.55	0.1	6999.3
9354	0.15	2.4	0.1	7542.8
9355	23.55	2.7	0.1	96.324
9356	23.7	2.85	0.1	64.874
9357	23.85	2.7	0.1	39.587
9358	23.25	2.7	0.1	159.43
9359	23.4	2.85	0.1	127.87
9360	22.95	2.7	0.1	222.41
9361	23.1	2.85	0.1	191.04
9362	22.65	2.7	0.1	285.22
9363	22.8	2.85	0.1	253.87
9364	22.35	2.7	0.1	348.05
9365	22.5	2.85	0.1	316.66
9366	22.05	2.7	0.1	411.07
9367	22.2	2.85	0.1	379.55
9368	21.75	2.7	0.1	474.37
9369	21.9	2.85	0.1	442.67
9370	21.45	2.7	0.1	538.07
9371	21.6	2.85	0.1	506.14
9372	21.15	2.7	0.1	602.22
9373	21.3	2.85	0.1	570.04
9374	20.85	2.7	0.1	666.87
9375	21.	2.85	0.1	634.42
9376	20.55	2.7	0.1	732.06
9377	20.7	2.85	0.1	699.31
9378	20.25	2.7	0.1	797.79
9379	20.4	2.85	0.1	764.76
9380	19.95	2.7	0.1	864.09
9381	20.1	2.85	0.1	830.76
9382	19.65	2.7	0.1	930.96
9383	19.8	2.85	0.1	897.33
9384	19.35	2.7	0.1	998.39
9385	19.5	2.85	0.1	964.48
9386	19.05	2.7	0.1	1066.4
9387	19.2	2.85	0.1	1032.2
9388	18.75	2.7	0.1	1135.
9389	18.9	2.85	0.1	1100.5
9390	18.45	2.7	0.1	1204.1
9391	18.6	2.85	0.1	1169.3
9392	18.15	2.7	0.1	1273.8
9393	18.3	2.85	0.1	1238.7
9394	17.85	2.7	0.1	1344.1
9395	18.	2.85	0.1	1308.7
9396	17.55	2.7	0.1	1414.9
9397	17.7	2.85	0.1	1379.2
9398	17.25	2.7	0.1	1486.2
9399	17.4	2.85	0.1	1450.3
9400	16.95	2.7	0.1	1558.1
9401	17.1	2.85	0.1	1521.9
9402	16.65	2.7	0.1	1630.5
9403	16.8	2.85	0.1	1594.1
9404	16.35	2.7	0.1	1703.5
9405	16.5	2.85	0.1	1666.8
9406	16.05	2.7	0.1	1777.
9407	16.2	2.85	0.1	1740.1
9408	15.75	2.7	0.1	1851.1
9409	15.9	2.85	0.1	1813.8
9410	15.45	2.7	0.1	1925.7
9411	15.6	2.85	0.1	1888.2
9412	15.15	2.7	0.1	2000.8
9413	15.3	2.85	0.1	1963.
9414	14.85	2.7	0.1	2076.4
9415	15.	2.85	0.1	2038.4
9416	14.55	2.7	0.1	2152.6
9417	14.7	2.85	0.1	2114.3
9418	14.25	2.7	0.1	2229.2
9419	14.4	2.85	0.1	2190.7
9420	13.95	2.7	0.1	2306.4
9421	14.1	2.85	0.1	2267.6
9422	13.65	2.7	0.1	2384.1
9423	13.8	2.85	0.1	2345.1
9424	13.35	2.7	0.1	2462.4
9425	13.5	2.85	0.1	2423.
9426	13.05	2.7	0.1	2541.1
9427	13.2	2.85	0.1	2501.5
9428	12.75	2.7	0.1	2620.3
9429	12.9	2.85	0.1	2580.5
9430	12.45	2.7	0.1	2700.
9431	12.6	2.85	0.1	2659.9
9432	12.15	2.7	0.1	2780.2
9433	12.3	2.85	0.1	2739.9
9434	11.85	2.7	0.1	2860.9
9435	12.	2.85	0.1	2820.4
9436	11.55	2.7	0.1	2942.1
9437	11.7	2.85	0.1	2901.3
9438	11.25	2.7	0.1	3023.8
9439	11.4	2.85	0.1	2982.7
9440	10.95	2.7	0.1	3105.9
9441	11.1	2.85	0.1	3064.6
9442	10.65	2.7	0.1	3188.5
9443	10.8	2.85	0.1	3146.9
9444	10.35	2.7	0.1	3271.5
9445	10.5	2.85	0.1	3229.7
9446	10.05	2.7	0.1	3355.
9447	10.2	2.85	0.1	3313.
9448	9.75	2.7	0.1	3438.8
9449	9.9	2.85	0.1	3396.6
9450	9.45	2.7	0.1	3523.1
9451	9.6	2.85	0.1	3480.7
9452	9.15	2.7	0.1	3607.8
9453	9.3	2.85	0.1	3565.2
9454	8.85	2.7	0.1	3692.9
9455	9.	2.85	0.1	3650.1
9456	8.55	2.7	0.1	3778.3
9457	8.7	2.85	0.1	3735.3
9458	8.25	2.7	0.1	3864.
9459	8.4	2.85	0.1	3820.8
9460	7.95	2.7	0.1	3950.1
9461	8.1	2.85	0.1	3906.7
9462	7.65	2.7	0.1	4036.4
9463	7.8	2.85	0.1	3992.9
9464	7.35	2.7	0.1	4123.
9465	7.5	2.85	0.1	4079.3
9466	7.05	2.7	0.1	4209.7
9467	7.2	2.85	0.1	4165.9
9468	6.75	2.7	0.1	4296.7
9469	6.9	2.85	0.1	4252.8
9470	6.45	2.7	0.1	4383.8
9471	6.6	2.85	0.1	4339.8
9472	6.15	2.7	0.1	4471.
9473	6.3	2.85	0.1	4426.9
9474	5.85	2.7	0.1	4558.4
9475	6.	2.85	0.1	4514.1
9476	5.55	2.7	0.1	4645.8
9477	5.7	2.85	0.1	4601.4
9478	5.25	2.7	0.1	4733.4
9479	5.4	2.85	0.1	4688.8
9480	4.95	2.7	0.1	4821.1
9481	5.1	2.85	0.1	4776.3
9482	4.65	2.7	0.1	4909.1
9483	4.8	2.85	0.1	4864.
9484	4.35	2.7	0.1	4997.7
9485	4.5	2.85	0.1	4952.1
9486	4.05	2.7	0.1	5087.2
9487	4.2	2.85	0.1	5040.9
9488	3.75	2.7	0.1	5178.3
9489	3.9	2.85	0.1	5130.9
9490	3.45	2.7	0.1	5271.8
9491	3.6	2.85	0.1	5222.8
9492	3.15	2.7	0.1	5369.2
9493	3.3	2.85	0.1	5317.7
9494	2.85	2.7	0.1	5472.5
9495	3.	2.85	0.1	5417.5
9496	2.55	2.7	0.1	5584.7
9497	2.7	2.85	0.1	5524.6
9498	2.25	2.7	0.1	5709.9
9499	2.4	2.85	0.1	5642.7
9500	1.95	2.7	0.1	5853.8
9501	2.1	2.85	0.1	5776.3
9502	1.65	2.7	0.1	6022.7
9503	1.8	2.85	0.1	5932.5
9504	1.35	2.7	0.1	6228.5
9505	1.5	2.85	0.1	6117.2
9506	1.05	2.7	0.1	6467.4
9507	1.2	2.85	0.1	6347.8
9508	0.75	2.7	0.1	6801.6
9509	0.9	2.85	0.1	6598.8
9510	0.45	2.7	0.1	7017.4
9511	0.6	2.85	0.1	7019.4
9512	0.3	2.85	0.1	7031.3
9513	0.15	2.7	0.1	7590.1
9514	23.55	3.	0.1	96.353
9515	23.7	3.15	0.1	64.874
9516	23.85	3.	0.1	39.587
9517	23.25	3.	0.1	159.5
9518	23.4	3.15	0.1	127.87
9519	22.95	3.	0.1	222.52
9520	23.1	3.15	0.1	191.04
9521	22.65	3.	0.1	285.35
9522	22.8	3.15	0.1	253.87
9523	22.35	3.	0.1	348.2
9524	22.5	3.15	0.1	316.66
9525	22.05	3.	0.1	411.21
9526	22.2	3.15	0.1	379.55
9527	21.75	3.	0.1	474.51
9528	21.9	3.15	0.1	442.67
9529	21.45	3.	0.1	538.19
9530	21.6	3.15	0.1	506.14
9531	21.15	3.	0.1	602.32
9532	21.3	3.15	0.1	570.04
9533	20.85	3.	0.1	666.95
9534	21.	3.15	0.1	634.42
9535	20.55	3.	0.1	732.11
9536	20.7	3.15	0.1	699.31
9537	20.25	3.	0.1	797.82
9538	20.4	3.15	0.1	764.76
9539	19.95	3.	0.1	864.1
9540	20.1	3.15	0.1	830.76
9541	19.65	3.	0.1	930.95
9542	19.8	3.15	0.1	897.33
9543	19.35	3.	0.1	998.36
9544	19.5	3.15	0.1	964.48
9545	19.05	3.	0.1	1066.4
9546	19.2	3.15	0.1	1032.2
9547	18.75	3.	0.1	1134.9
9548	18.9	3.15	0.1	1100.5
9549	18.45	3.	0.1	1204.
9550	18.6	3.15	0.1	1169.3
9551	18.15	3.	0.1	1273.7
9552	18.3	3.15	0.1	1238.7
9553	17.85	3.	0.1	1344.
9554	18.	3.15	0.1	1308.7
9555	17.55	3.	0.1	1414.8
9556	17.7	3.15	0.1	1379.2
9557	17.25	3.	0.1	1486.1
9558	17.4	3.15	0.1	1450.3
9559	16.95	3.	0.1	1558.
9560	17.1	3.15	0.1	1521.9
9561	16.65	3.	0.1	1630.4
9562	16.8	3.15	0.1	1594.1
9563	16.35	3.	0.1	1703.4
9564	16.5	3.15	0.1	1666.8
9565	16.05	3.	0.1	1776.9
9566	16.2	3.15	0.1	1740.1
9567	15.75	3.	0.1	1851.
9568	15.9	3.15	0.1	1813.8
9569	15.45	3.	0.1	1925.6
9570	15.6	3.15	0.1	1888.2
9571	15.15	3.	0.1	2000.7
9572	15.3	3.15	0.1	1963.
9573	14.85	3.	0.1	2076.3
9574	15.	3.15	0.1	2038.4
9575	14.55	3.	0.1	2152.5
9576	14.7	3.15	0.1	2114.3
9577	14.25	3.	0.1	2229.1
9578	14.4	3.15	0.1	2190.7
9579	13.95	3.	0.1	2306.3
9580	14.1	3.15	0.1	2267.6
9581	13.65	3.	0.1	2384.
9582	13.8	3.15	0.1	2345.1
9583	13.35	3.	0.1	2462.2
9584	13.5	3.15	0.1	2423.
9585	13.05	3.	0.1	2540.9
9586	13.2	3.15	0.1	2501.5
9587	12.75	3.	0.1	2620.2
9588	12.9	3.15	0.1	2580.5
9589	12.45	3.	0.1	2699.9
9590	12.6	3.15	0.1	2659.9
9591	12.15	3.	0.1	2780.1
9592	12.3	3.15	0.1	2739.9
9593	11.85	3.	0.1	2860.8
9594	12.	3.15	0.1	2820.4
9595	11.55	3.	0.1	2941.9
9596	11.7	3.15	0.1	2901.3
9597	11.25	3.	0.1	3023.6
9598	11.4	3.15	0.1	2982.7
9599	10.95	3.	0.1	3105.7
9600	11.1	3.15	0.1	3064.6
9601	10.65	3.	0.1	3188.3
9602	10.8	3.15	0.1	3146.9
9603	10.35	3.	0.1	3271.3
9604	10.5	3.15	0.1	3229.7
9605	10.05	3.	0.1	3354.7
9606	10.2	3.15	0.1	3313.
9607	9.75	3.	0.1	3438.6
9608	9.9	3.15	0.1	3396.6
9609	9.45	3.	0.1	3522.8
9610	9.6	3.15	0.1	3480.7
9611	9.15	3.	0.1	3607.5
9612	9.3	3.15	0.1	3565.2
9613	8.85	3.	0.1	3692.5
9614	9.	3.15	0.1	3650.1
9615	8.55	3.	0.1	3777.9
9616	8.7	3.15	0.1	3735.3
9617	8.25	3.	0.1	3863.6
9618	8.4	3.15	0.1	3820.8
9619	7.95	3.	0.1	3949.5
9620	8.1	3.15	0.1	3906.7
9621	7.65	3.	0.1	4035.8
9622	7.8	3.15	0.1	3992.9
9623	7.35	3.	0.1	4122.3
9624	7.5	3.15	0.1	4079.3
9625	7.05	3.	0.1	4209.
9626	7.2	3.15	0.1	4165.9
9627	6.75	3.	0.1	4295.8
9628	6.9	3.15	0.1	4252.8
9629	6.45	3.	0.1	4382.8
9630	6.6	3.15	0.1	4339.8
9631	6.15	3.	0.1	4469.9
9632	6.3	3.15	0.1	4426.9
9633	5.85	3.	0.1	4557.1
9634	6.	3.15	0.1	4514.1
9635	5.55	3.	0.1	4644.4
9636	5.7	3.15	0.1	4601.4
9637	5.25	3.	0.1	4731.7
9638	5.4	3.15	0.1	4688.8
9639	4.95	3.	0.1	4819.2
9640	5.1	3.15	0.1	4776.3
9641	4.65	3.	0.1	4907.
9642	4.8	3.15	0.1	4864.
9643	4.35	3.	0.1	4995.4
9644	4.5	3.15	0.1	4952.1
9645	4.05	3.	0.1	5084.7
9646	4.2	3.15	0.1	5040.9
9647	3.75	3.	0.1	5175.6
9648	3.9	3.15	0.1	5130.9
9649	3.45	3.	0.1	5269.
9650	3.6	3.15	0.1	5222.8
9651	3.15	3.	0.1	5366.5
9652	3.3	3.15	0.1	5317.7
9653	2.85	3.	0.1	5470.2
9654	3.	3.15	0.1	5417.5
9655	2.55	3.	0.1	5583.3
9656	2.7	3.15	0.1	5524.6
9657	2.25	3.	0.1	5709.9
9658	2.4	3.15	0.1	5642.7
9659	1.95	3.	0.1	5855.9
9660	2.1	3.15	0.1	5776.3
9661	1.65	3.	0.1	6027.8
9662	1.8	3.15	0.1	5932.5
9663	1.35	3.	0.1	6237.2
9664	1.5	3.15	0.1	6117.2
9665	1.05	3.	0.1	6479.7
9666	1.2	3.15	0.1	6347.8
9667	0.75	3.	0.1	6816.9
9668	0.9	3.15	0.1	6598.8
9669	0.45	3.	0.1	7033.4
9670	0.6	3.15	0.1	7019.4
9671	0.3	3.15	0.1	7031.3
9672	0.15	3.	0.1	7605.3
9673	23.55	3.3	0.1	96.324
9674	23.7	3.45	0.1	64.86
9675	23.85	3.3	0.1	39.587
9676	23.25	3.3	0.1	159.43
9677	23.4	3.45	0.1	127.77
9678	22.95	3.3	0.1	222.41
9679	23.1	3.45	0.1	190.85
9680	22.65	3.3	0.1	285.22
9681	22.8	3.45	0.1	253.61
9682	22.35	3.3	0.1	348.05
9683	22.5	3.45	0.1	316.36
9684	22.05	3.3	0.1	411.07
9685	22.2	3.45	0.1	379.24
9686	21.75	3.3	0.1	474.37
9687	21.9	3.45	0.1	442.38
9688	21.45	3.3	0.1	538.07
9689	21.6	3.45	0.1	505.88
9690	21.15	3.3	0.1	602.22
9691	21.3	3.45	0.1	569.82
9692	20.85	3.3	0.1	666.87
9693	21.	3.45	0.1	634.25
9694	20.55	3.3	0.1	732.06
9695	20.7	3.45	0.1	699.19
9696	20.25	3.3	0.1	797.79
9697	20.4	3.45	0.1	764.69
9698	19.95	3.3	0.1	864.09
9699	20.1	3.45	0.1	830.73
9700	19.65	3.3	0.1	930.96
9701	19.8	3.45	0.1	897.34
9702	19.35	3.3	0.1	998.39
9703	19.5	3.45	0.1	964.52
9704	19.05	3.3	0.1	1066.4
9705	19.2	3.45	0.1	1032.3
9706	18.75	3.3	0.1	1135.
9707	18.9	3.45	0.1	1100.6
9708	18.45	3.3	0.1	1204.1
9709	18.6	3.45	0.1	1169.4
9710	18.15	3.3	0.1	1273.8
9711	18.3	3.45	0.1	1238.9
9712	17.85	3.3	0.1	1344.1
9713	18.	3.45	0.1	1308.9
9714	17.55	3.3	0.1	1414.9
9715	17.7	3.45	0.1	1379.4
9716	17.25	3.3	0.1	1486.2
9717	17.4	3.45	0.1	1450.5
9718	16.95	3.3	0.1	1558.1
9719	17.1	3.45	0.1	1522.1
9720	16.65	3.3	0.1	1630.5
9721	16.8	3.45	0.1	1594.3
9722	16.35	3.3	0.1	1703.5
9723	16.5	3.45	0.1	1667.
9724	16.05	3.3	0.1	1777.
9725	16.2	3.45	0.1	1740.3
9726	15.75	3.3	0.1	1851.1
9727	15.9	3.45	0.1	1814.1
9728	15.45	3.3	0.1	1925.7
9729	15.6	3.45	0.1	1888.4
9730	15.15	3.3	0.1	2000.8
9731	15.3	3.45	0.1	1963.2
9732	14.85	3.3	0.1	2076.4
9733	15.	3.45	0.1	2038.6
9734	14.55	3.3	0.1	2152.6
9735	14.7	3.45	0.1	2114.5
9736	14.25	3.3	0.1	2229.2
9737	14.4	3.45	0.1	2190.9
9738	13.95	3.3	0.1	2306.4
9739	14.1	3.45	0.1	2267.9
9740	13.65	3.3	0.1	2384.1
9741	13.8	3.45	0.1	2345.3
9742	13.35	3.3	0.1	2462.4
9743	13.5	3.45	0.1	2423.3
9744	13.05	3.3	0.1	2541.1
9745	13.2	3.45	0.1	2501.8
9746	12.75	3.3	0.1	2620.3
9747	12.9	3.45	0.1	2580.7
9748	12.45	3.3	0.1	2700.
9749	12.6	3.45	0.1	2660.2
9750	12.15	3.3	0.1	2780.2
9751	12.3	3.45	0.1	2740.2
9752	11.85	3.3	0.1	2860.9
9753	12.	3.45	0.1	2820.7
9754	11.55	3.3	0.1	2942.1
9755	11.7	3.45	0.1	2901.6
9756	11.25	3.3	0.1	3023.8
9757	11.4	3.45	0.1	2983.1
9758	10.95	3.3	0.1	3105.9
9759	11.1	3.45	0.1	3065.
9760	10.65	3.3	0.1	3188.5
9761	10.8	3.45	0.1	3147.4
9762	10.35	3.3	0.1	3271.5
9763	10.5	3.45	0.1	3230.2
9764	10.05	3.3	0.1	3355.
9765	10.2	3.45	0.1	3313.5
9766	9.75	3.3	0.1	3438.8
9767	9.9	3.45	0.1	3397.2
9768	9.45	3.3	0.1	3523.1
9769	9.6	3.45	0.1	3481.3
9770	9.15	3.3	0.1	3607.8
9771	9.3	3.45	0.1	3565.8
9772	8.85	3.3	0.1	3692.9
9773	9.	3.45	0.1	3650.8
9774	8.55	3.3	0.1	3778.3
9775	8.7	3.45	0.1	3736.1
9776	8.25	3.3	0.1	3864.
9777	8.4	3.45	0.1	3821.7
9778	7.95	3.3	0.1	3950.1
9779	8.1	3.45	0.1	3907.7
9780	7.65	3.3	0.1	4036.4
9781	7.8	3.45	0.1	3994.
9782	7.35	3.3	0.1	4123.
9783	7.5	3.45	0.1	4080.6
9784	7.05	3.3	0.1	4209.7
9785	7.2	3.45	0.1	4167.4
9786	6.75	3.3	0.1	4296.7
9787	6.9	3.45	0.1	4254.4
9788	6.45	3.3	0.1	4383.8
9789	6.6	3.45	0.1	4341.6
9790	6.15	3.3	0.1	4471.
9791	6.3	3.45	0.1	4429.
9792	5.85	3.3	0.1	4558.4
9793	6.	3.45	0.1	4516.5
9794	5.55	3.3	0.1	4645.8
9795	5.7	3.45	0.1	4604.1
9796	5.25	3.3	0.1	4733.4
9797	5.4	3.45	0.1	4691.9
9798	4.95	3.3	0.1	4821.1
9799	5.1	3.45	0.1	4779.8
9800	4.65	3.3	0.1	4909.1
9801	4.8	3.45	0.1	4867.9
9802	4.35	3.3	0.1	4997.7
9803	4.5	3.45	0.1	4956.5
9804	4.05	3.3	0.1	5087.2
9805	4.2	3.45	0.1	5045.8
9806	3.75	3.3	0.1	5178.3
9807	3.9	3.45	0.1	5136.1
9808	3.45	3.3	0.1	5271.8
9809	3.6	3.45	0.1	5228.3
9810	3.15	3.3	0.1	5369.2
9811	3.3	3.45	0.1	5323.3
9812	2.85	3.3	0.1	5472.5
9813	3.	3.45	0.1	5422.7
9814	2.55	3.3	0.1	5584.7
9815	2.7	3.45	0.1	5528.7
9816	2.25	3.3	0.1	5709.9
9817	2.4	3.45	0.1	5644.6
9818	1.95	3.3	0.1	5853.8
9819	2.1	3.45	0.1	5774.9
9820	1.65	3.3	0.1	6022.7
9821	1.8	3.45	0.1	5926.
9822	1.35	3.3	0.1	6228.5
9823	1.5	3.45	0.1	6104.
9824	1.05	3.3	0.1	6467.4
9825	1.2	3.45	0.1	6326.8
9826	0.75	3.3	0.1	6801.6
9827	0.9	3.45	0.1	6570.5
9828	0.45	3.3	0.1	7017.4
9829	0.6	3.45	0.1	6986.
9830	0.3	3.45	0.1	6999.3
9831	0.15	3.3	0.1	7590.1
9832	23.55	3.6	0.1	96.232
9833	23.7	3.75	0.1	64.824
9834	23.85	3.6	0.1	39.586
9835	23.25	3.6	0.1	159.2
9836	23.4	3.75	0.1	127.54
9837	22.95	3.6	0.1	222.07
9838	23.1	3.75	0.1	190.44
9839	22.65	3.6	0.1	284.8
9840	22.8	3.75	0.1	253.08
9841	22.35	3.6	0.1	347.61
9842	22.5	3.75	0.1	315.77
9843	22.05	3.6	0.1	410.62
9844	22.2	3.75	0.1	378.63
9845	21.75	3.6	0.1	473.96
9846	21.9	3.75	0.1	441.81
9847	21.45	3.6	0.1	537.71
9848	21.6	3.75	0.1	505.38
9849	21.15	3.6	0.1	601.93
9850	21.3	3.75	0.1	569.41
9851	20.85	3.6	0.1	666.66
9852	21.	3.75	0.1	633.93
9853	20.55	3.6	0.1	731.92
9854	20.7	3.75	0.1	698.98
9855	20.25	3.6	0.1	797.72
9856	20.4	3.75	0.1	764.56
9857	19.95	3.6	0.1	864.08
9858	20.1	3.75	0.1	830.7
9859	19.65	3.6	0.1	931.01
9860	19.8	3.75	0.1	897.39
9861	19.35	3.6	0.1	998.49
9862	19.5	3.75	0.1	964.63
9863	19.05	3.6	0.1	1066.5
9864	19.2	3.75	0.1	1032.4
9865	18.75	3.6	0.1	1135.1
9866	18.9	3.75	0.1	1100.8
9867	18.45	3.6	0.1	1204.3
9868	18.6	3.75	0.1	1169.7
9869	18.15	3.6	0.1	1274.
9870	18.3	3.75	0.1	1239.2
9871	17.85	3.6	0.1	1344.3
9872	18.	3.75	0.1	1309.2
9873	17.55	3.6	0.1	1415.1
9874	17.7	3.75	0.1	1379.8
9875	17.25	3.6	0.1	1486.5
9876	17.4	3.75	0.1	1450.9
9877	16.95	3.6	0.1	1558.4
9878	17.1	3.75	0.1	1522.5
9879	16.65	3.6	0.1	1630.9
9880	16.8	3.75	0.1	1594.7
9881	16.35	3.6	0.1	1703.9
9882	16.5	3.75	0.1	1667.4
9883	16.05	3.6	0.1	1777.4
9884	16.2	3.75	0.1	1740.7
9885	15.75	3.6	0.1	1851.4
9886	15.9	3.75	0.1	1814.5
9887	15.45	3.6	0.1	1926.
9888	15.6	3.75	0.1	1888.8
9889	15.15	3.6	0.1	2001.1
9890	15.3	3.75	0.1	1963.7
9891	14.85	3.6	0.1	2076.8
9892	15.	3.75	0.1	2039.1
9893	14.55	3.6	0.1	2152.9
9894	14.7	3.75	0.1	2115.
9895	14.25	3.6	0.1	2229.6
9896	14.4	3.75	0.1	2191.4
9897	13.95	3.6	0.1	2306.8
9898	14.1	3.75	0.1	2268.4
9899	13.65	3.6	0.1	2384.5
9900	13.8	3.75	0.1	2345.8
9901	13.35	3.6	0.1	2462.8
9902	13.5	3.75	0.1	2423.8
9903	13.05	3.6	0.1	2541.5
9904	13.2	3.75	0.1	2502.3
9905	12.75	3.6	0.1	2620.7
9906	12.9	3.75	0.1	2581.3
9907	12.45	3.6	0.1	2700.5
9908	12.6	3.75	0.1	2660.8
9909	12.15	3.6	0.1	2780.7
9910	12.3	3.75	0.1	2740.8
9911	11.85	3.6	0.1	2861.4
9912	12.	3.75	0.1	2821.3
9913	11.55	3.6	0.1	2942.6
9914	11.7	3.75	0.1	2902.3
9915	11.25	3.6	0.1	3024.3
9916	11.4	3.75	0.1	2983.8
9917	10.95	3.6	0.1	3106.5
9918	11.1	3.75	0.1	3065.7
9919	10.65	3.6	0.1	3189.1
9920	10.8	3.75	0.1	3148.2
9921	10.35	3.6	0.1	3272.2
9922	10.5	3.75	0.1	3231.1
9923	10.05	3.6	0.1	3355.7
9924	10.2	3.75	0.1	3314.4
9925	9.75	3.6	0.1	3439.7
9926	9.9	3.75	0.1	3398.2
9927	9.45	3.6	0.1	3524.1
9928	9.6	3.75	0.1	3482.5
9929	9.15	3.6	0.1	3608.8
9930	9.3	3.75	0.1	3567.1
9931	8.85	3.6	0.1	3694.
9932	9.	3.75	0.1	3652.2
9933	8.55	3.6	0.1	3779.5
9934	8.7	3.75	0.1	3737.6
9935	8.25	3.6	0.1	3865.4
9936	8.4	3.75	0.1	3823.5
9937	7.95	3.6	0.1	3951.7
9938	8.1	3.75	0.1	3909.7
9939	7.65	3.6	0.1	4038.2
9940	7.8	3.75	0.1	3996.2
9941	7.35	3.6	0.1	4125.
9942	7.5	3.75	0.1	4083.1
9943	7.05	3.6	0.1	4212.
9944	7.2	3.75	0.1	4170.2
9945	6.75	3.6	0.1	4299.3
9946	6.9	3.75	0.1	4257.6
9947	6.45	3.6	0.1	4386.8
9948	6.6	3.75	0.1	4345.2
9949	6.15	3.6	0.1	4474.4
9950	6.3	3.75	0.1	4433.1
9951	5.85	3.6	0.1	4562.2
9952	6.	3.75	0.1	4521.2
9953	5.55	3.6	0.1	4650.2
9954	5.7	3.75	0.1	4609.5
9955	5.25	3.6	0.1	4738.3
9956	5.4	3.75	0.1	4697.9
9957	4.95	3.6	0.1	4826.7
9958	5.1	3.75	0.1	4786.7
9959	4.65	3.6	0.1	4915.4
9960	4.8	3.75	0.1	4875.7
9961	4.35	3.6	0.1	5004.6
9962	4.5	3.75	0.1	4965.2
9963	4.05	3.6	0.1	5094.8
9964	4.2	3.75	0.1	5055.3
9965	3.75	3.6	0.1	5186.3
9966	3.9	3.75	0.1	5146.5
9967	3.45	3.6	0.1	5280.
9968	3.6	3.75	0.1	5239.2
9969	3.15	3.6	0.1	5377.1
9970	3.3	3.75	0.1	5334.4
9971	2.85	3.6	0.1	5479.4
9972	3.	3.75	0.1	5433.1
9973	2.55	3.6	0.1	5589.3
9974	2.7	3.75	0.1	5537.2
9975	2.25	3.6	0.1	5710.4
9976	2.4	3.75	0.1	5649.4
9977	1.95	3.6	0.1	5848.
9978	2.1	3.75	0.1	5773.2
9979	1.65	3.6	0.1	6008.1
9980	1.8	3.75	0.1	5914.5
9981	1.35	3.6	0.1	6203.
9982	1.5	3.75	0.1	6079.1
9983	1.05	3.6	0.1	6430.4
9984	1.2	3.75	0.1	6285.7
9985	0.75	3.6	0.1	6755.1
9986	0.9	3.75	0.1	6513.5
9987	0.45	3.6	0.1	6967.9
9988	0.6	3.75	0.1	6917.
9989	0.3	3.75	0.1	6932.1
9990	0.15	3.6	0.1	7542.8
9991	23.55	3.9	0.1	96.062
9992	23.7	4.05	0.1	64.75
9993	23.85	3.9	0.1	39.577
9994	23.25	3.9	0.1	158.8
9995	23.4	4.05	0.1	127.15
9996	22.95	3.9	0.1	221.48
9997	23.1	4.05	0.1	189.79
9998	22.65	3.9	0.1	284.09
9999	22.8	4.05	0.1	252.25
10000	22.35	3.9	0.1	346.85
10001	22.5	4.05	0.1	314.86
10002	22.05	3.9	0.1	409.89
10003	22.2	4.05	0.1	377.73
10004	21.75	3.9	0.1	473.3
10005	21.9	4.05	0.1	440.98
10006	21.45	3.9	0.1	537.16
10007	21.6	4.05	0.1	504.67
10008	21.15	3.9	0.1	601.49
10009	21.3	4.05	0.1	568.84
10010	20.85	3.9	0.1	666.34
10011	21.	4.05	0.1	633.51
10012	20.55	3.9	0.1	731.72
10013	20.7	4.05	0.1	698.71
10014	20.25	3.9	0.1	797.64
10015	20.4	4.05	0.1	764.43
10016	19.95	3.9	0.1	864.1
10017	20.1	4.05	0.1	830.69
10018	19.65	3.9	0.1	931.11
10019	19.8	4.05	0.1	897.5
10020	19.35	3.9	0.1	998.68
10021	19.5	4.05	0.1	964.84
10022	19.05	3.9	0.1	1066.8
10023	19.2	4.05	0.1	1032.7
10024	18.75	3.9	0.1	1135.5
10025	18.9	4.05	0.1	1101.2
10026	18.45	3.9	0.1	1204.7
10027	18.6	4.05	0.1	1170.1
10028	18.15	3.9	0.1	1274.4
10029	18.3	4.05	0.1	1239.7
10030	17.85	3.9	0.1	1344.8
10031	18.	4.05	0.1	1309.7
10032	17.55	3.9	0.1	1415.6
10033	17.7	4.05	0.1	1380.3
10034	17.25	3.9	0.1	1487.
10035	17.4	4.05	0.1	1451.5
10036	16.95	3.9	0.1	1558.9
10037	17.1	4.05	0.1	1523.1
10038	16.65	3.9	0.1	1631.4
10039	16.8	4.05	0.1	1595.4
10040	16.35	3.9	0.1	1704.4
10041	16.5	4.05	0.1	1668.1
10042	16.05	3.9	0.1	1777.9
10043	16.2	4.05	0.1	1741.4
10044	15.75	3.9	0.1	1852.
10045	15.9	4.05	0.1	1815.2
10046	15.45	3.9	0.1	1926.6
10047	15.6	4.05	0.1	1889.5
10048	15.15	3.9	0.1	2001.7
10049	15.3	4.05	0.1	1964.4
10050	14.85	3.9	0.1	2077.4
10051	15.	4.05	0.1	2039.8
10052	14.55	3.9	0.1	2153.5
10053	14.7	4.05	0.1	2115.7
10054	14.25	3.9	0.1	2230.2
10055	14.4	4.05	0.1	2192.2
10056	13.95	3.9	0.1	2307.5
10057	14.1	4.05	0.1	2269.1
10058	13.65	3.9	0.1	2385.2
10059	13.8	4.05	0.1	2346.6
10060	13.35	3.9	0.1	2463.4
10061	13.5	4.05	0.1	2424.6
10062	13.05	3.9	0.1	2542.2
10063	13.2	4.05	0.1	2503.1
10064	12.75	3.9	0.1	2621.4
10065	12.9	4.05	0.1	2582.1
10066	12.45	3.9	0.1	2701.2
10067	12.6	4.05	0.1	2661.7
10068	12.15	3.9	0.1	2781.5
10069	12.3	4.05	0.1	2741.7
10070	11.85	3.9	0.1	2862.3
10071	12.	4.05	0.1	2822.3
10072	11.55	3.9	0.1	2943.5
10073	11.7	4.05	0.1	2903.3
10074	11.25	3.9	0.1	3025.3
10075	11.4	4.05	0.1	2984.9
10076	10.95	3.9	0.1	3107.5
10077	11.1	4.05	0.1	3066.9
10078	10.65	3.9	0.1	3190.2
10079	10.8	4.05	0.1	3149.4
10080	10.35	3.9	0.1	3273.3
10081	10.5	4.05	0.1	3232.4
10082	10.05	3.9	0.1	3357.
10083	10.2	4.05	0.1	3315.9
10084	9.75	3.9	0.1	3441.
10085	9.9	4.05	0.1	3399.8
10086	9.45	3.9	0.1	3525.6
10087	9.6	4.05	0.1	3484.2
10088	9.15	3.9	0.1	3610.5
10089	9.3	4.05	0.1	3569.
10090	8.85	3.9	0.1	3695.9
10091	9.	4.05	0.1	3654.3
10092	8.55	3.9	0.1	3781.6
10093	8.7	4.05	0.1	3740.
10094	8.25	3.9	0.1	3867.7
10095	8.4	4.05	0.1	3826.1
10096	7.95	3.9	0.1	3954.3
10097	8.1	4.05	0.1	3912.6
10098	7.65	3.9	0.1	4041.1
10099	7.8	4.05	0.1	3999.5
10100	7.35	3.9	0.1	4128.3
10101	7.5	4.05	0.1	4086.7
10102	7.05	3.9	0.1	4215.8
10103	7.2	4.05	0.1	4174.3
10104	6.75	3.9	0.1	4303.5
10105	6.9	4.05	0.1	4262.3
10106	6.45	3.9	0.1	4391.6
10107	6.6	4.05	0.1	4350.6
10108	6.15	3.9	0.1	4479.9
10109	6.3	4.05	0.1	4439.2
10110	5.85	3.9	0.1	4568.4
10111	6.	4.05	0.1	4528.1
10112	5.55	3.9	0.1	4657.2
10113	5.7	4.05	0.1	4617.3
10114	5.25	3.9	0.1	4746.3
10115	5.4	4.05	0.1	4706.8
10116	4.95	3.9	0.1	4835.7
10117	5.1	4.05	0.1	4796.7
10118	4.65	3.9	0.1	4925.5
10119	4.8	4.05	0.1	4887.
10120	4.35	3.9	0.1	5015.9
10121	4.5	4.05	0.1	4977.8
10122	4.05	3.9	0.1	5107.1
10123	4.2	4.05	0.1	5069.3
10124	3.75	3.9	0.1	5199.5
10125	3.9	4.05	0.1	5161.7
10126	3.45	3.9	0.1	5293.7
10127	3.6	4.05	0.1	5255.4
10128	3.15	3.9	0.1	5390.6
10129	3.3	4.05	0.1	5350.9
10130	2.85	3.9	0.1	5491.3
10131	3.	4.05	0.1	5449.
10132	2.55	3.9	0.1	5597.8
10133	2.7	4.05	0.1	5550.9
10134	2.25	3.9	0.1	5712.8
10135	2.4	4.05	0.1	5658.2
10136	1.95	3.9	0.1	5840.5
10137	2.1	4.05	0.1	5773.4
10138	1.65	3.9	0.1	5986.4
10139	1.8	4.05	0.1	5901.1
10140	1.35	3.9	0.1	6162.6
10141	1.5	4.05	0.1	6046.
10142	1.05	3.9	0.1	6369.3
10143	1.2	4.05	0.1	6227.2
10144	0.75	3.9	0.1	6675.5
10145	0.9	4.05	0.1	6427.6
10146	0.45	3.9	0.1	6880.9
10147	0.6	4.05	0.1	6808.
10148	0.3	4.05	0.1	6822.5
10149	0.15	3.9	0.1	7458.1
10150	23.55	4.2	0.1	95.781
10151	23.7	4.35	0.1	64.607
10152	23.85	4.2	0.1	39.545
10153	23.25	4.2	0.1	158.17
10154	23.4	4.35	0.1	126.56
10155	22.95	4.2	0.1	220.61
10156	23.1	4.35	0.1	188.84
10157	22.65	4.2	0.1	283.07
10158	22.8	4.35	0.1	251.09
10159	22.35	4.2	0.1	345.81
10160	22.5	4.35	0.1	313.64
10161	22.05	4.2	0.1	408.9
10162	22.2	4.35	0.1	376.57
10163	21.75	4.2	0.1	472.44
10164	21.9	4.35	0.1	439.96
10165	21.45	4.2	0.1	536.45
10166	21.6	4.35	0.1	503.83
10167	21.15	4.2	0.1	600.96
10168	21.3	4.35	0.1	568.2
10169	20.85	4.2	0.1	665.98
10170	21.	4.35	0.1	633.08
10171	20.55	4.2	0.1	731.53
10172	20.7	4.35	0.1	698.47
10173	20.25	4.2	0.1	797.59
10174	20.4	4.35	0.1	764.37
10175	19.95	4.2	0.1	864.2
10176	20.1	4.35	0.1	830.79
10177	19.65	4.2	0.1	931.33
10178	19.8	4.35	0.1	897.73
10179	19.35	4.2	0.1	999.
10180	19.5	4.35	0.1	965.2
10181	19.05	4.2	0.1	1067.2
10182	19.2	4.35	0.1	1033.2
10183	18.75	4.2	0.1	1135.9
10184	18.9	4.35	0.1	1101.7
10185	18.45	4.2	0.1	1205.2
10186	18.6	4.35	0.1	1170.8
10187	18.15	4.2	0.1	1275.
10188	18.3	4.35	0.1	1240.3
10189	17.85	4.2	0.1	1345.4
10190	18.	4.35	0.1	1310.5
10191	17.55	4.2	0.1	1416.3
10192	17.7	4.35	0.1	1381.1
10193	17.25	4.2	0.1	1487.7
10194	17.4	4.35	0.1	1452.3
10195	16.95	4.2	0.1	1559.7
10196	17.1	4.35	0.1	1524.
10197	16.65	4.2	0.1	1632.2
10198	16.8	4.35	0.1	1596.2
10199	16.35	4.2	0.1	1705.2
10200	16.5	4.35	0.1	1669.
10201	16.05	4.2	0.1	1778.7
10202	16.2	4.35	0.1	1742.3
10203	15.75	4.2	0.1	1852.8
10204	15.9	4.35	0.1	1816.1
10205	15.45	4.2	0.1	1927.4
10206	15.6	4.35	0.1	1890.5
10207	15.15	4.2	0.1	2002.6
10208	15.3	4.35	0.1	1965.3
10209	14.85	4.2	0.1	2078.2
10210	15.	4.35	0.1	2040.8
10211	14.55	4.2	0.1	2154.4
10212	14.7	4.35	0.1	2116.7
10213	14.25	4.2	0.1	2231.1
10214	14.4	4.35	0.1	2193.1
10215	13.95	4.2	0.1	2308.3
10216	14.1	4.35	0.1	2270.1
10217	13.65	4.2	0.1	2386.1
10218	13.8	4.35	0.1	2347.6
10219	13.35	4.2	0.1	2464.4
10220	13.5	4.35	0.1	2425.7
10221	13.05	4.2	0.1	2543.1
10222	13.2	4.35	0.1	2504.2
10223	12.75	4.2	0.1	2622.4
10224	12.9	4.35	0.1	2583.3
10225	12.45	4.2	0.1	2702.3
10226	12.6	4.35	0.1	2662.8
10227	12.15	4.2	0.1	2782.6
10228	12.3	4.35	0.1	2742.9
10229	11.85	4.2	0.1	2863.4
10230	12.	4.35	0.1	2823.5
10231	11.55	4.2	0.1	2944.7
10232	11.7	4.35	0.1	2904.6
10233	11.25	4.2	0.1	3026.5
10234	11.4	4.35	0.1	2986.3
10235	10.95	4.2	0.1	3108.8
10236	11.1	4.35	0.1	3068.4
10237	10.65	4.2	0.1	3191.6
10238	10.8	4.35	0.1	3151.
10239	10.35	4.2	0.1	3274.9
10240	10.5	4.35	0.1	3234.1
10241	10.05	4.2	0.1	3358.7
10242	10.2	4.35	0.1	3317.7
10243	9.75	4.2	0.1	3442.9
10244	9.9	4.35	0.1	3401.8
10245	9.45	4.2	0.1	3527.6
10246	9.6	4.35	0.1	3486.4
10247	9.15	4.2	0.1	3612.8
10248	9.3	4.35	0.1	3571.4
10249	8.85	4.2	0.1	3698.4
10250	9.	4.35	0.1	3657.
10251	8.55	4.2	0.1	3784.4
10252	8.7	4.35	0.1	3743.
10253	8.25	4.2	0.1	3870.9
10254	8.4	4.35	0.1	3829.4
10255	7.95	4.2	0.1	3957.8
10256	8.1	4.35	0.1	3916.3
10257	7.65	4.2	0.1	4045.1
10258	7.8	4.35	0.1	4003.7
10259	7.35	4.2	0.1	4132.8
10260	7.5	4.35	0.1	4091.5
10261	7.05	4.2	0.1	4220.9
10262	7.2	4.35	0.1	4179.7
10263	6.75	4.2	0.1	4309.3
10264	6.9	4.35	0.1	4268.3
10265	6.45	4.2	0.1	4398.1
10266	6.6	4.35	0.1	4357.4
10267	6.15	4.2	0.1	4487.3
10268	6.3	4.35	0.1	4446.9
10269	5.85	4.2	0.1	4576.9
10270	6.	4.35	0.1	4536.9
10271	5.55	4.2	0.1	4666.8
10272	5.7	4.35	0.1	4627.3
10273	5.25	4.2	0.1	4757.2
10274	5.4	4.35	0.1	4718.2
10275	4.95	4.2	0.1	4847.9
10276	5.1	4.35	0.1	4809.5
10277	4.65	4.2	0.1	4939.2
10278	4.8	4.35	0.1	4901.4
10279	4.35	4.2	0.1	5031.2
10280	4.5	4.35	0.1	4994.
10281	4.05	4.2	0.1	5123.9
10282	4.2	4.35	0.1	5087.2
10283	3.75	4.2	0.1	5217.6
10284	3.9	4.35	0.1	5181.3
10285	3.45	4.2	0.1	5312.7
10286	3.6	4.35	0.1	5276.5
10287	3.15	4.2	0.1	5409.5
10288	3.3	4.35	0.1	5372.8
10289	2.85	4.2	0.1	5508.8
10290	3.	4.35	0.1	5470.7
10291	2.55	4.2	0.1	5611.6
10292	2.7	4.35	0.1	5570.5
10293	2.25	4.2	0.1	5719.3
10294	2.4	4.35	0.1	5672.8
10295	1.95	4.2	0.1	5834.7
10296	2.1	4.35	0.1	5778.5
10297	1.65	4.2	0.1	5961.6
10298	1.8	4.35	0.1	5890.2
10299	1.35	4.2	0.1	6111.5
10300	1.5	4.35	0.1	6010.3
10301	1.05	4.2	0.1	6286.1
10302	1.2	4.35	0.1	6156.4
10303	0.75	4.2	0.1	6560.2
10304	0.9	4.35	0.1	6314.3
10305	0.45	4.2	0.1	6748.8
10306	0.6	4.35	0.1	6653.
10307	0.3	4.35	0.1	6657.7
10308	0.15	4.2	0.1	7325.7
10309	23.55	4.5	0.1	95.335
10310	23.7	4.65	0.1	64.342
10311	23.85	4.5	0.1	39.462
10312	23.25	4.5	0.1	157.26
10313	23.4	4.65	0.1	125.67
10314	22.95	4.5	0.1	219.39
10315	23.1	4.65	0.1	187.52
10316	22.65	4.5	0.1	281.73
10317	22.8	4.65	0.1	249.58
10318	22.35	4.5	0.1	344.49
10319	22.5	4.65	0.1	312.14
10320	22.05	4.5	0.1	407.72
10321	22.2	4.65	0.1	375.23
10322	21.75	4.5	0.1	471.46
10323	21.9	4.65	0.1	438.85
10324	21.45	4.5	0.1	535.69
10325	21.6	4.65	0.1	502.98
10326	21.15	4.5	0.1	600.43
10327	21.3	4.65	0.1	567.61
10328	20.85	4.5	0.1	665.67
10329	21.	4.65	0.1	632.74
10330	20.55	4.5	0.1	731.42
10331	20.7	4.65	0.1	698.36
10332	20.25	4.5	0.1	797.67
10333	20.4	4.65	0.1	764.46
10334	19.95	4.5	0.1	864.44
10335	20.1	4.65	0.1	831.07
10336	19.65	4.5	0.1	931.71
10337	19.8	4.65	0.1	898.17
10338	19.35	4.5	0.1	999.5
10339	19.5	4.65	0.1	965.77
10340	19.05	4.5	0.1	1067.8
10341	19.2	4.65	0.1	1033.9
10342	18.75	4.5	0.1	1136.6
10343	18.9	4.65	0.1	1102.5
10344	18.45	4.5	0.1	1206.
10345	18.6	4.65	0.1	1171.6
10346	18.15	4.5	0.1	1275.9
10347	18.3	4.65	0.1	1241.3
10348	17.85	4.5	0.1	1346.3
10349	18.	4.65	0.1	1311.4
10350	17.55	4.5	0.1	1417.2
10351	17.7	4.65	0.1	1382.1
10352	17.25	4.5	0.1	1488.7
10353	17.4	4.65	0.1	1453.3
10354	16.95	4.5	0.1	1560.6
10355	17.1	4.65	0.1	1525.1
10356	16.65	4.5	0.1	1633.2
10357	16.8	4.65	0.1	1597.3
10358	16.35	4.5	0.1	1706.2
10359	16.5	4.65	0.1	1670.1
10360	16.05	4.5	0.1	1779.8
10361	16.2	4.65	0.1	1743.4
10362	15.75	4.5	0.1	1853.9
10363	15.9	4.65	0.1	1817.3
10364	15.45	4.5	0.1	1928.5
10365	15.6	4.65	0.1	1891.7
10366	15.15	4.5	0.1	2003.6
10367	15.3	4.65	0.1	1966.5
10368	14.85	4.5	0.1	2079.3
10369	15.	4.65	0.1	2042.
10370	14.55	4.5	0.1	2155.5
10371	14.7	4.65	0.1	2117.9
10372	14.25	4.5	0.1	2232.2
10373	14.4	4.65	0.1	2194.4
10374	13.95	4.5	0.1	2309.5
10375	14.1	4.65	0.1	2271.4
10376	13.65	4.5	0.1	2387.3
10377	13.8	4.65	0.1	2348.9
10378	13.35	4.5	0.1	2465.6
10379	13.5	4.65	0.1	2427.
10380	13.05	4.5	0.1	2544.4
10381	13.2	4.65	0.1	2505.5
10382	12.75	4.5	0.1	2623.7
10383	12.9	4.65	0.1	2584.6
10384	12.45	4.5	0.1	2703.6
10385	12.6	4.65	0.1	2664.3
10386	12.15	4.5	0.1	2783.9
10387	12.3	4.65	0.1	2744.4
10388	11.85	4.5	0.1	2864.8
10389	12.	4.65	0.1	2825.1
10390	11.55	4.5	0.1	2946.2
10391	11.7	4.65	0.1	2906.3
10392	11.25	4.5	0.1	3028.1
10393	11.4	4.65	0.1	2988.
10394	10.95	4.5	0.1	3110.6
10395	11.1	4.65	0.1	3070.2
10396	10.65	4.5	0.1	3193.5
10397	10.8	4.65	0.1	3152.9
10398	10.35	4.5	0.1	3276.9
10399	10.5	4.65	0.1	3236.2
10400	10.05	4.5	0.1	3360.9
10401	10.2	4.65	0.1	3320.
10402	9.75	4.5	0.1	3445.3
10403	9.9	4.65	0.1	3404.3
10404	9.45	4.5	0.1	3530.2
10405	9.6	4.65	0.1	3489.1
10406	9.15	4.5	0.1	3615.7
10407	9.3	4.65	0.1	3574.4
10408	8.85	4.5	0.1	3701.6
10409	9.	4.65	0.1	3660.2
10410	8.55	4.5	0.1	3788.
10411	8.7	4.65	0.1	3746.6
10412	8.25	4.5	0.1	3874.8
10413	8.4	4.65	0.1	3833.4
10414	7.95	4.5	0.1	3962.2
10415	8.1	4.65	0.1	3920.8
10416	7.65	4.5	0.1	4050.
10417	7.8	4.65	0.1	4008.7
10418	7.35	4.5	0.1	4138.4
10419	7.5	4.65	0.1	4097.1
10420	7.05	4.5	0.1	4227.2
10421	7.2	4.65	0.1	4186.1
10422	6.75	4.5	0.1	4316.4
10423	6.9	4.65	0.1	4275.6
10424	6.45	4.5	0.1	4406.2
10425	6.6	4.65	0.1	4365.6
10426	6.15	4.5	0.1	4496.5
10427	6.3	4.65	0.1	4456.2
10428	5.85	4.5	0.1	4587.3
10429	6.	4.65	0.1	4547.4
10430	5.55	4.5	0.1	4678.6
10431	5.7	4.65	0.1	4639.2
10432	5.25	4.5	0.1	4770.5
10433	5.4	4.65	0.1	4731.6
10434	4.95	4.5	0.1	4863.
10435	5.1	4.65	0.1	4824.8
10436	4.65	4.5	0.1	4956.1
10437	4.8	4.65	0.1	4918.6
10438	4.35	4.5	0.1	5050.
10439	4.5	4.65	0.1	5013.2
10440	4.05	4.5	0.1	5144.6
10441	4.2	4.65	0.1	5108.6
10442	3.75	4.5	0.1	5240.1
10443	3.9	4.65	0.1	5204.9
10444	3.45	4.5	0.1	5336.6
10445	3.6	4.65	0.1	5301.9
10446	3.15	4.5	0.1	5434.
10447	3.3	4.65	0.1	5399.7
10448	2.85	4.5	0.1	5532.4
10449	3.	4.65	0.1	5498.
10450	2.55	4.5	0.1	5631.8
10451	2.7	4.65	0.1	5596.5
10452	2.25	4.5	0.1	5732.3
10453	2.4	4.65	0.1	5694.6
10454	1.95	4.5	0.1	5834.5
10455	2.1	4.65	0.1	5791.6
10456	1.65	4.5	0.1	5939.8
10457	1.8	4.65	0.1	5887.2
10458	1.35	4.5	0.1	6056.4
10459	1.5	4.65	0.1	5980.1
10460	1.05	4.5	0.1	6185.7
10461	1.2	4.65	0.1	6083.1
10462	0.75	4.5	0.1	6407.4
10463	0.9	4.65	0.1	6180.2
10464	0.45	4.5	0.1	6560.2
10465	0.6	4.65	0.1	6445.5
10466	0.3	4.65	0.1	6416.7
10467	0.15	4.5	0.1	7127.6
10468	23.55	4.8	0.1	94.642
10469	23.7	4.95	0.1	63.834
10470	23.85	4.8	0.1	39.291
10471	23.25	4.8	0.1	155.98
10472	23.4	4.95	0.1	124.32
10473	22.95	4.8	0.1	217.79
10474	23.1	4.95	0.1	185.74
10475	22.65	4.8	0.1	280.1
10476	22.8	4.95	0.1	247.75
10477	22.35	4.8	0.1	343.
10478	22.5	4.95	0.1	310.5
10479	22.05	4.8	0.1	406.48
10480	22.2	4.95	0.1	373.88
10481	21.75	4.8	0.1	470.5
10482	21.9	4.95	0.1	437.83
10483	21.45	4.8	0.1	535.03
10484	21.6	4.95	0.1	502.29
10485	21.15	4.8	0.1	600.05
10486	21.3	4.95	0.1	567.24
10487	20.85	4.8	0.1	665.55
10488	21.	4.95	0.1	632.65
10489	20.55	4.8	0.1	731.52
10490	20.7	4.95	0.1	698.52
10491	20.25	4.8	0.1	797.98
10492	20.4	4.95	0.1	764.85
10493	19.95	4.8	0.1	864.92
10494	20.1	4.95	0.1	831.64
10495	19.65	4.8	0.1	932.34
10496	19.8	4.95	0.1	898.9
10497	19.35	4.8	0.1	1000.3
10498	19.5	4.95	0.1	966.64
10499	19.05	4.8	0.1	1068.7
10500	19.2	4.95	0.1	1034.9
10501	18.75	4.8	0.1	1137.6
10502	18.9	4.95	0.1	1103.6
10503	18.45	4.8	0.1	1207.
10504	18.6	4.95	0.1	1172.8
10505	18.15	4.8	0.1	1277.
10506	18.3	4.95	0.1	1242.5
10507	17.85	4.8	0.1	1347.4
10508	18.	4.95	0.1	1312.7
10509	17.55	4.8	0.1	1418.4
10510	17.7	4.95	0.1	1383.4
10511	17.25	4.8	0.1	1489.9
10512	17.4	4.95	0.1	1454.7
10513	16.95	4.8	0.1	1561.9
10514	17.1	4.95	0.1	1526.5
10515	16.65	4.8	0.1	1634.4
10516	16.8	4.95	0.1	1598.7
10517	16.35	4.8	0.1	1707.5
10518	16.5	4.95	0.1	1671.5
10519	16.05	4.8	0.1	1781.1
10520	16.2	4.95	0.1	1744.9
10521	15.75	4.8	0.1	1855.2
10522	15.9	4.95	0.1	1818.7
10523	15.45	4.8	0.1	1929.8
10524	15.6	4.95	0.1	1893.1
10525	15.15	4.8	0.1	2005.
10526	15.3	4.95	0.1	1968.
10527	14.85	4.8	0.1	2080.7
10528	15.	4.95	0.1	2043.4
10529	14.55	4.8	0.1	2156.9
10530	14.7	4.95	0.1	2119.4
10531	14.25	4.8	0.1	2233.6
10532	14.4	4.95	0.1	2195.9
10533	13.95	4.8	0.1	2310.9
10534	14.1	4.95	0.1	2272.9
10535	13.65	4.8	0.1	2388.7
10536	13.8	4.95	0.1	2350.5
10537	13.35	4.8	0.1	2467.
10538	13.5	4.95	0.1	2428.5
10539	13.05	4.8	0.1	2545.9
10540	13.2	4.95	0.1	2507.1
10541	12.75	4.8	0.1	2625.3
10542	12.9	4.95	0.1	2586.3
10543	12.45	4.8	0.1	2705.2
10544	12.6	4.95	0.1	2666.
10545	12.15	4.8	0.1	2785.6
10546	12.3	4.95	0.1	2746.2
10547	11.85	4.8	0.1	2866.6
10548	12.	4.95	0.1	2826.9
10549	11.55	4.8	0.1	2948.1
10550	11.7	4.95	0.1	2908.2
10551	11.25	4.8	0.1	3030.1
10552	11.4	4.95	0.1	2990.
10553	10.95	4.8	0.1	3112.6
10554	11.1	4.95	0.1	3072.3
10555	10.65	4.8	0.1	3195.7
10556	10.8	4.95	0.1	3155.2
10557	10.35	4.8	0.1	3279.3
10558	10.5	4.95	0.1	3238.7
10559	10.05	4.8	0.1	3363.4
10560	10.2	4.95	0.1	3322.6
10561	9.75	4.8	0.1	3448.1
10562	9.9	4.95	0.1	3407.1
10563	9.45	4.8	0.1	3533.3
10564	9.6	4.95	0.1	3492.2
10565	9.15	4.8	0.1	3619.
10566	9.3	4.95	0.1	3577.8
10567	8.85	4.8	0.1	3705.3
10568	9.	4.95	0.1	3664.
10569	8.55	4.8	0.1	3792.1
10570	8.7	4.95	0.1	3750.8
10571	8.25	4.8	0.1	3879.5
10572	8.4	4.95	0.1	3838.1
10573	7.95	4.8	0.1	3967.4
10574	8.1	4.95	0.1	3926.
10575	7.65	4.8	0.1	4055.8
10576	7.8	4.95	0.1	4014.5
10577	7.35	4.8	0.1	4144.9
10578	7.5	4.95	0.1	4103.6
10579	7.05	4.8	0.1	4234.5
10580	7.2	4.95	0.1	4193.4
10581	6.75	4.8	0.1	4324.7
10582	6.9	4.95	0.1	4283.8
10583	6.45	4.8	0.1	4415.6
10584	6.6	4.95	0.1	4374.9
10585	6.15	4.8	0.1	4507.1
10586	6.3	4.95	0.1	4466.7
10587	5.85	4.8	0.1	4599.3
10588	6.	4.95	0.1	4559.3
10589	5.55	4.8	0.1	4692.2
10590	5.7	4.95	0.1	4652.6
10591	5.25	4.8	0.1	4785.9
10592	5.4	4.95	0.1	4746.8
10593	4.95	4.8	0.1	4880.3
10594	5.1	4.95	0.1	4841.9
10595	4.65	4.8	0.1	4975.6
10596	4.8	4.95	0.1	4937.9
10597	4.35	4.8	0.1	5071.7
10598	4.5	4.95	0.1	5034.9
10599	4.05	4.8	0.1	5168.7
10600	4.2	4.95	0.1	5132.8
10601	3.75	4.8	0.1	5266.5
10602	3.9	4.95	0.1	5231.6
10603	3.45	4.8	0.1	5364.9
10604	3.6	4.95	0.1	5331.1
10605	3.15	4.8	0.1	5463.6
10606	3.3	4.95	0.1	5431.
10607	2.85	4.8	0.1	5562.
10608	3.	4.95	0.1	5530.7
10609	2.55	4.8	0.1	5659.3
10610	2.7	4.95	0.1	5629.2
10611	2.25	4.8	0.1	5754.
10612	2.4	4.95	0.1	5724.9
10613	1.95	4.8	0.1	5844.5
10614	2.1	4.95	0.1	5815.3
10615	1.65	4.8	0.1	5928.2
10616	1.8	4.95	0.1	5897.4
10617	1.35	4.8	0.1	6008.
10618	1.5	4.95	0.1	5965.1
10619	1.05	4.8	0.1	6079.2
10620	1.2	4.95	0.1	6022.1
10621	0.75	4.8	0.1	6219.4
10622	0.9	4.95	0.1	6042.2
10623	0.45	4.8	0.1	6298.9
10624	0.6	4.95	0.1	6186.6
10625	0.3	4.95	0.1	6067.9
10626	0.15	4.8	0.1	6832.
10627	23.55	5.1	0.1	93.518
10628	23.7	5.25	0.1	62.963
10629	23.85	5.1	0.1	38.892
10630	23.25	5.1	0.1	154.19
10631	23.4	5.25	0.1	122.42
10632	22.95	5.1	0.1	215.84
10633	23.1	5.25	0.1	183.63
10634	22.65	5.1	0.1	278.31
10635	22.8	5.25	0.1	245.91
10636	22.35	5.1	0.1	341.55
10637	22.5	5.25	0.1	309.08
10638	22.05	5.1	0.1	405.4
10639	22.2	5.25	0.1	372.92
10640	21.75	5.1	0.1	469.79
10641	21.9	5.25	0.1	437.29
10642	21.45	5.1	0.1	534.67
10643	21.6	5.25	0.1	502.13
10644	21.15	5.1	0.1	600.
10645	21.3	5.25	0.1	567.4
10646	20.85	5.1	0.1	665.77
10647	21.	5.25	0.1	633.09
10648	20.55	5.1	0.1	731.98
10649	20.7	5.25	0.1	699.2
10650	20.25	5.1	0.1	798.64
10651	20.4	5.25	0.1	765.73
10652	19.95	5.1	0.1	865.75
10653	20.1	5.25	0.1	832.7
10654	19.65	5.1	0.1	933.32
10655	19.8	5.25	0.1	900.1
10656	19.35	5.1	0.1	1001.4
10657	19.5	5.25	0.1	967.96
10658	19.05	5.1	0.1	1069.9
10659	19.2	5.25	0.1	1036.3
10660	18.75	5.1	0.1	1138.9
10661	18.9	5.25	0.1	1105.1
10662	18.45	5.1	0.1	1208.4
10663	18.6	5.25	0.1	1174.4
10664	18.15	5.1	0.1	1278.4
10665	18.3	5.25	0.1	1244.1
10666	17.85	5.1	0.1	1348.9
10667	18.	5.25	0.1	1314.4
10668	17.55	5.1	0.1	1419.9
10669	17.7	5.25	0.1	1385.1
10670	17.25	5.1	0.1	1491.4
10671	17.4	5.25	0.1	1456.4
10672	16.95	5.1	0.1	1563.4
10673	17.1	5.25	0.1	1528.2
10674	16.65	5.1	0.1	1636.
10675	16.8	5.25	0.1	1600.5
10676	16.35	5.1	0.1	1709.
10677	16.5	5.25	0.1	1673.3
10678	16.05	5.1	0.1	1782.6
10679	16.2	5.25	0.1	1746.6
10680	15.75	5.1	0.1	1856.7
10681	15.9	5.25	0.1	1820.5
10682	15.45	5.1	0.1	1931.4
10683	15.6	5.25	0.1	1894.9
10684	15.15	5.1	0.1	2006.6
10685	15.3	5.25	0.1	1969.8
10686	14.85	5.1	0.1	2082.3
10687	15.	5.25	0.1	2045.2
10688	14.55	5.1	0.1	2158.5
10689	14.7	5.25	0.1	2121.2
10690	14.25	5.1	0.1	2235.3
10691	14.4	5.25	0.1	2197.7
10692	13.95	5.1	0.1	2312.5
10693	14.1	5.25	0.1	2274.7
10694	13.65	5.1	0.1	2390.4
10695	13.8	5.25	0.1	2352.3
10696	13.35	5.1	0.1	2468.7
10697	13.5	5.25	0.1	2430.4
10698	13.05	5.1	0.1	2547.6
10699	13.2	5.25	0.1	2509.
10700	12.75	5.1	0.1	2627.1
10701	12.9	5.25	0.1	2588.2
10702	12.45	5.1	0.1	2707.
10703	12.6	5.25	0.1	2668.
10704	12.15	5.1	0.1	2787.5
10705	12.3	5.25	0.1	2748.2
10706	11.85	5.1	0.1	2868.6
10707	12.	5.25	0.1	2829.1
10708	11.55	5.1	0.1	2950.2
10709	11.7	5.25	0.1	2910.4
10710	11.25	5.1	0.1	3032.3
10711	11.4	5.25	0.1	2992.3
10712	10.95	5.1	0.1	3115.
10713	11.1	5.25	0.1	3074.8
10714	10.65	5.1	0.1	3198.2
10715	10.8	5.25	0.1	3157.9
10716	10.35	5.1	0.1	3282.
10717	10.5	5.25	0.1	3241.5
10718	10.05	5.1	0.1	3366.4
10719	10.2	5.25	0.1	3325.6
10720	9.75	5.1	0.1	3451.3
10721	9.9	5.25	0.1	3410.4
10722	9.45	5.1	0.1	3536.8
10723	9.6	5.25	0.1	3495.7
10724	9.15	5.1	0.1	3622.9
10725	9.3	5.25	0.1	3581.7
10726	8.85	5.1	0.1	3709.5
10727	9.	5.25	0.1	3668.2
10728	8.55	5.1	0.1	3796.8
10729	8.7	5.25	0.1	3755.4
10730	8.25	5.1	0.1	3884.7
10731	8.4	5.25	0.1	3843.2
10732	7.95	5.1	0.1	3973.2
10733	8.1	5.25	0.1	3931.7
10734	7.65	5.1	0.1	4062.3
10735	7.8	5.25	0.1	4020.9
10736	7.35	5.1	0.1	4152.2
10737	7.5	5.25	0.1	4110.8
10738	7.05	5.1	0.1	4242.7
10739	7.2	5.25	0.1	4201.4
10740	6.75	5.1	0.1	4334.
10741	6.9	5.25	0.1	4292.8
10742	6.45	5.1	0.1	4426.
10743	6.6	5.25	0.1	4385.
10744	6.15	5.1	0.1	4518.9
10745	6.3	5.25	0.1	4478.1
10746	5.85	5.1	0.1	4612.6
10747	6.	5.25	0.1	4572.2
10748	5.55	5.1	0.1	4707.3
10749	5.7	5.25	0.1	4667.2
10750	5.25	5.1	0.1	4802.9
10751	5.4	5.25	0.1	4763.3
10752	4.95	5.1	0.1	4899.5
10753	5.1	5.25	0.1	4860.5
10754	4.65	5.1	0.1	4997.1
10755	4.8	5.25	0.1	4958.8
10756	4.35	5.1	0.1	5095.8
10757	4.5	5.25	0.1	5058.3
10758	4.05	5.1	0.1	5195.5
10759	4.2	5.25	0.1	5159.
10760	3.75	5.1	0.1	5296.
10761	3.9	5.25	0.1	5260.7
10762	3.45	5.1	0.1	5397.
10763	3.6	5.25	0.1	5363.1
10764	3.15	5.1	0.1	5497.9
10765	3.3	5.25	0.1	5465.8
10766	2.85	5.1	0.1	5597.6
10767	3.	5.25	0.1	5567.9
10768	2.55	5.1	0.1	5694.5
10769	2.7	5.25	0.1	5668.
10770	2.25	5.1	0.1	5786.
10771	2.4	5.25	0.1	5763.6
10772	1.95	5.1	0.1	5868.1
10773	2.1	5.25	0.1	5850.9
10774	1.65	5.1	0.1	5934.4
10775	1.8	5.25	0.1	5924.4
10776	1.35	5.1	0.1	5979.9
10777	1.5	5.25	0.1	5973.5
10778	1.05	5.1	0.1	5987.
10779	1.2	5.25	0.1	5991.1
10780	0.75	5.1	0.1	6012.3
10781	0.9	5.25	0.1	5932.9
10782	0.45	5.1	0.1	5951.5
10783	0.6	5.25	0.1	5903.8
10784	0.3	5.25	0.1	5556.7
10785	0.15	5.1	0.1	6380.3
10786	23.55	5.4	0.1	91.955
10787	23.7	5.55	0.1	61.186
10788	23.85	5.4	0.1	38.277
10789	23.25	5.4	0.1	152.09
10790	23.4	5.55	0.1	120.16
10791	22.95	5.4	0.1	213.98
10792	23.1	5.55	0.1	182.07
10793	22.65	5.4	0.1	276.96
10794	22.8	5.55	0.1	245.14
10795	22.35	5.4	0.1	340.72
10796	22.5	5.55	0.1	308.99
10797	22.05	5.4	0.1	405.04
10798	22.2	5.55	0.1	373.37
10799	21.75	5.4	0.1	469.84
10800	21.9	5.55	0.1	438.19
10801	21.45	5.4	0.1	535.06
10802	21.6	5.55	0.1	503.39
10803	21.15	5.4	0.1	600.68
10804	21.3	5.55	0.1	568.96
10805	20.85	5.4	0.1	666.7
10806	21.	5.55	0.1	634.89
10807	20.55	5.4	0.1	733.12
10808	20.7	5.55	0.1	701.2
10809	20.25	5.4	0.1	799.95
10810	20.4	5.55	0.1	767.89
10811	19.95	5.4	0.1	867.2
10812	20.1	5.55	0.1	834.98
10813	19.65	5.4	0.1	934.89
10814	19.8	5.55	0.1	902.49
10815	19.35	5.4	0.1	1003.
10816	19.5	5.55	0.1	970.42
10817	19.05	5.4	0.1	1071.6
10818	19.2	5.55	0.1	1038.8
10819	18.75	5.4	0.1	1140.7
10820	18.9	5.55	0.1	1107.6
10821	18.45	5.4	0.1	1210.2
10822	18.6	5.55	0.1	1176.9
10823	18.15	5.4	0.1	1280.2
10824	18.3	5.55	0.1	1246.7
10825	17.85	5.4	0.1	1350.8
10826	18.	5.55	0.1	1317.
10827	17.55	5.4	0.1	1421.8
10828	17.7	5.55	0.1	1387.8
10829	17.25	5.4	0.1	1493.3
10830	17.4	5.55	0.1	1459.
10831	16.95	5.4	0.1	1565.4
10832	17.1	5.55	0.1	1530.8
10833	16.65	5.4	0.1	1637.9
10834	16.8	5.55	0.1	1603.1
10835	16.35	5.4	0.1	1711.
10836	16.5	5.55	0.1	1675.9
10837	16.05	5.4	0.1	1784.6
10838	16.2	5.55	0.1	1749.2
10839	15.75	5.4	0.1	1858.7
10840	15.9	5.55	0.1	1823.
10841	15.45	5.4	0.1	1933.3
10842	15.6	5.55	0.1	1897.4
10843	15.15	5.4	0.1	2008.5
10844	15.3	5.55	0.1	1972.3
10845	14.85	5.4	0.1	2084.2
10846	15.	5.55	0.1	2047.7
10847	14.55	5.4	0.1	2160.5
10848	14.7	5.55	0.1	2123.7
10849	14.25	5.4	0.1	2237.2
10850	14.4	5.55	0.1	2200.2
10851	13.95	5.4	0.1	2314.5
10852	14.1	5.55	0.1	2277.2
10853	13.65	5.4	0.1	2392.4
10854	13.8	5.55	0.1	2354.8
10855	13.35	5.4	0.1	2470.8
10856	13.5	5.55	0.1	2432.9
10857	13.05	5.4	0.1	2549.7
10858	13.2	5.55	0.1	2511.6
10859	12.75	5.4	0.1	2629.2
10860	12.9	5.55	0.1	2590.8
10861	12.45	5.4	0.1	2709.2
10862	12.6	5.55	0.1	2670.6
10863	12.15	5.4	0.1	2789.8
10864	12.3	5.55	0.1	2750.9
10865	11.85	5.4	0.1	2870.9
10866	12.	5.55	0.1	2831.8
10867	11.55	5.4	0.1	2952.6
10868	11.7	5.55	0.1	2913.3
10869	11.25	5.4	0.1	3034.9
10870	11.4	5.55	0.1	2995.3
10871	10.95	5.4	0.1	3117.7
10872	11.1	5.55	0.1	3077.9
10873	10.65	5.4	0.1	3201.1
10874	10.8	5.55	0.1	3161.1
10875	10.35	5.4	0.1	3285.1
10876	10.5	5.55	0.1	3244.9
10877	10.05	5.4	0.1	3369.7
10878	10.2	5.55	0.1	3329.3
10879	9.75	5.4	0.1	3454.9
10880	9.9	5.55	0.1	3414.2
10881	9.45	5.4	0.1	3540.7
10882	9.6	5.55	0.1	3499.9
10883	9.15	5.4	0.1	3627.1
10884	9.3	5.55	0.1	3586.1
10885	8.85	5.4	0.1	3714.2
10886	9.	5.55	0.1	3673.1
10887	8.55	5.4	0.1	3801.9
10888	8.7	5.55	0.1	3760.7
10889	8.25	5.4	0.1	3890.3
10890	8.4	5.55	0.1	3849.
10891	7.95	5.4	0.1	3979.5
10892	8.1	5.55	0.1	3938.1
10893	7.65	5.4	0.1	4069.3
10894	7.8	5.55	0.1	4027.9
10895	7.35	5.4	0.1	4160.
10896	7.5	5.55	0.1	4118.6
10897	7.05	5.4	0.1	4251.5
10898	7.2	5.55	0.1	4210.1
10899	6.75	5.4	0.1	4343.8
10900	6.9	5.55	0.1	4302.5
10901	6.45	5.4	0.1	4437.1
10902	6.6	5.55	0.1	4395.9
10903	6.15	5.4	0.1	4531.4
10904	6.3	5.55	0.1	4490.4
10905	5.85	5.4	0.1	4626.7
10906	6.	5.55	0.1	4586.
10907	5.55	5.4	0.1	4723.2
10908	5.7	5.55	0.1	4682.7
10909	5.25	5.4	0.1	4820.8
10910	5.4	5.55	0.1	4780.8
10911	4.95	5.4	0.1	4919.7
10912	5.1	5.55	0.1	4880.2
10913	4.65	5.4	0.1	5019.9
10914	4.8	5.55	0.1	4981.
10915	4.35	5.4	0.1	5121.3
10916	4.5	5.55	0.1	5083.3
10917	4.05	5.4	0.1	5224.
10918	4.2	5.55	0.1	5187.
10919	3.75	5.4	0.1	5327.6
10920	3.9	5.55	0.1	5292.
10921	3.45	5.4	0.1	5431.7
10922	3.6	5.55	0.1	5398.1
10923	3.15	5.4	0.1	5535.6
10924	3.3	5.55	0.1	5504.5
10925	2.85	5.4	0.1	5637.9
10926	3.	5.55	0.1	5610.3
10927	2.55	5.4	0.1	5736.6
10928	2.7	5.55	0.1	5713.9
10929	2.25	5.4	0.1	5828.
10930	2.4	5.55	0.1	5812.4
10931	1.95	5.4	0.1	5906.6
10932	2.1	5.55	0.1	5901.2
10933	1.65	5.4	0.1	5963.
10934	1.8	5.55	0.1	5973.3
10935	1.35	5.4	0.1	5984.4
10936	1.5	5.55	0.1	6015.
10937	1.05	5.4	0.1	5937.9
10938	1.2	5.55	0.1	6009.9
10939	0.75	5.4	0.1	5828.6
10940	0.9	5.55	0.1	5899.4
10941	0.45	5.4	0.1	5510.1
10942	0.6	5.55	0.1	5696.6
10943	0.3	5.55	0.1	4917.6
10944	0.15	5.4	0.1	5662.2
10945	23.55	5.7	0.1	89.976
10946	23.7	5.85	0.1	56.047
10947	23.85	5.7	0.1	36.368
10948	23.25	5.7	0.1	150.87
10949	23.4	5.85	0.1	115.91
10950	22.95	5.7	0.1	213.89
10951	23.1	5.85	0.1	178.35
10952	22.65	5.7	0.1	277.74
10953	22.8	5.85	0.1	241.73
10954	22.35	5.7	0.1	342.14
10955	22.5	5.85	0.1	305.81
10956	22.05	5.7	0.1	406.96
10957	22.2	5.85	0.1	370.38
10958	21.75	5.7	0.1	472.13
10959	21.9	5.85	0.1	435.37
10960	21.45	5.7	0.1	537.64
10961	21.6	5.85	0.1	500.74
10962	21.15	5.7	0.1	603.49
10963	21.3	5.85	0.1	566.47
10964	20.85	5.7	0.1	669.69
10965	21.	5.85	0.1	632.56
10966	20.55	5.7	0.1	736.25
10967	20.7	5.85	0.1	699.02
10968	20.25	5.7	0.1	803.18
10969	20.4	5.85	0.1	765.86
10970	19.95	5.7	0.1	870.52
10971	20.1	5.85	0.1	833.09
10972	19.65	5.7	0.1	938.26
10973	19.8	5.85	0.1	900.73
10974	19.35	5.7	0.1	1006.4
10975	19.5	5.85	0.1	968.78
10976	19.05	5.7	0.1	1075.1
10977	19.2	5.85	0.1	1037.3
10978	18.75	5.7	0.1	1144.1
10979	18.9	5.85	0.1	1106.2
10980	18.45	5.7	0.1	1213.7
10981	18.6	5.85	0.1	1175.6
10982	18.15	5.7	0.1	1283.7
10983	18.3	5.85	0.1	1245.5
10984	17.85	5.7	0.1	1354.2
10985	18.	5.85	0.1	1315.8
10986	17.55	5.7	0.1	1425.2
10987	17.7	5.85	0.1	1386.7
10988	17.25	5.7	0.1	1496.7
10989	17.4	5.85	0.1	1458.
10990	16.95	5.7	0.1	1568.7
10991	17.1	5.85	0.1	1529.9
10992	16.65	5.7	0.1	1641.2
10993	16.8	5.85	0.1	1602.2
10994	16.35	5.7	0.1	1714.3
10995	16.5	5.85	0.1	1675.1
10996	16.05	5.7	0.1	1787.8
10997	16.2	5.85	0.1	1748.5
10998	15.75	5.7	0.1	1861.9
10999	15.9	5.85	0.1	1822.4
11000	15.45	5.7	0.1	1936.5
11001	15.6	5.85	0.1	1896.8
11002	15.15	5.7	0.1	2011.7
11003	15.3	5.85	0.1	1971.7
11004	14.85	5.7	0.1	2087.4
11005	15.	5.85	0.1	2047.2
11006	14.55	5.7	0.1	2163.6
11007	14.7	5.85	0.1	2123.3
11008	14.25	5.7	0.1	2240.4
11009	14.4	5.85	0.1	2199.8
11010	13.95	5.7	0.1	2317.7
11011	14.1	5.85	0.1	2276.9
11012	13.65	5.7	0.1	2395.5
11013	13.8	5.85	0.1	2354.6
11014	13.35	5.7	0.1	2473.9
11015	13.5	5.85	0.1	2432.8
11016	13.05	5.7	0.1	2552.9
11017	13.2	5.85	0.1	2511.6
11018	12.75	5.7	0.1	2632.4
11019	12.9	5.85	0.1	2590.9
11020	12.45	5.7	0.1	2712.4
11021	12.6	5.85	0.1	2670.8
11022	12.15	5.7	0.1	2793.1
11023	12.3	5.85	0.1	2751.3
11024	11.85	5.7	0.1	2874.3
11025	12.	5.85	0.1	2832.3
11026	11.55	5.7	0.1	2956.1
11027	11.7	5.85	0.1	2913.9
11028	11.25	5.7	0.1	3038.4
11029	11.4	5.85	0.1	2996.2
11030	10.95	5.7	0.1	3121.4
11031	11.1	5.85	0.1	3079.
11032	10.65	5.7	0.1	3204.9
11033	10.8	5.85	0.1	3162.4
11034	10.35	5.7	0.1	3289.1
11035	10.5	5.85	0.1	3246.5
11036	10.05	5.7	0.1	3373.9
11037	10.2	5.85	0.1	3331.2
11038	9.75	5.7	0.1	3459.3
11039	9.9	5.85	0.1	3416.6
11040	9.45	5.7	0.1	3545.4
11041	9.6	5.85	0.1	3502.6
11042	9.15	5.7	0.1	3632.2
11043	9.3	5.85	0.1	3589.3
11044	8.85	5.7	0.1	3719.7
11045	9.	5.85	0.1	3676.8
11046	8.55	5.7	0.1	3807.9
11047	8.7	5.85	0.1	3765.
11048	8.25	5.7	0.1	3896.9
11049	8.4	5.85	0.1	3854.
11050	7.95	5.7	0.1	3986.6
11051	8.1	5.85	0.1	3943.9
11052	7.65	5.7	0.1	4077.2
11053	7.8	5.85	0.1	4034.6
11054	7.35	5.7	0.1	4168.7
11055	7.5	5.85	0.1	4126.2
11056	7.05	5.7	0.1	4261.2
11057	7.2	5.85	0.1	4218.8
11058	6.75	5.7	0.1	4354.7
11059	6.9	5.85	0.1	4312.5
11060	6.45	5.7	0.1	4449.2
11061	6.6	5.85	0.1	4407.3
11062	6.15	5.7	0.1	4544.9
11063	6.3	5.85	0.1	4503.3
11064	5.85	5.7	0.1	4641.9
11065	6.	5.85	0.1	4600.6
11066	5.55	5.7	0.1	4740.3
11067	5.7	5.85	0.1	4699.3
11068	5.25	5.7	0.1	4840.1
11069	5.4	5.85	0.1	4799.5
11070	4.95	5.7	0.1	4941.4
11071	5.1	5.85	0.1	4901.3
11072	4.65	5.7	0.1	5044.3
11073	4.8	5.85	0.1	5004.7
11074	4.35	5.7	0.1	5148.9
11075	4.5	5.85	0.1	5109.7
11076	4.05	5.7	0.1	5254.9
11077	4.2	5.85	0.1	5216.4
11078	3.75	5.7	0.1	5362.3
11079	3.9	5.85	0.1	5324.5
11080	3.45	5.7	0.1	5470.6
11081	3.6	5.85	0.1	5433.7
11082	3.15	5.7	0.1	5578.9
11083	3.3	5.85	0.1	5543.3
11084	2.85	5.7	0.1	5685.9
11085	3.	5.85	0.1	5652.3
11086	2.55	5.7	0.1	5789.2
11087	2.7	5.85	0.1	5758.7
11088	2.25	5.7	0.1	5885.
11089	2.4	5.85	0.1	5859.6
11090	1.95	5.7	0.1	5967.1
11091	2.1	5.85	0.1	5949.9
11092	1.65	5.7	0.1	6024.4
11093	1.8	5.85	0.1	6021.8
11094	1.35	5.7	0.1	6039.4
11095	1.5	5.85	0.1	6060.5
11096	1.05	5.7	0.1	5970.5
11097	1.2	5.85	0.1	6044.
11098	0.75	5.7	0.1	5768.2
11099	0.9	5.85	0.1	5908.7
11100	0.45	5.7	0.1	5118.7
11101	0.6	5.85	0.1	5594.7
11102	0.3	5.85	0.1	4526.8
11103	0.15	5.7	0.1	4430.6
11104	0.45	6.	0.1	5015.1
11105	0.15	6.	0.1	2752.3
11106	0.3	6.	5.e-002	634.54
11107	0.75	6.	0.1	5747.8
11108	0.6	6.	5.e-002	453.87
11109	1.05	6.	0.1	5993.7
11110	0.9	6.	5.e-002	347.87
11111	1.35	6.	0.1	6074.3
11112	1.2	6.	5.e-002	286.53
11113	1.65	6.	0.1	6065.1
11114	1.5	6.	5.e-002	236.77
11115	1.95	6.	0.1	6010.1
11116	1.8	6.	5.e-002	196.41
11117	2.25	6.	0.1	5928.6
11118	2.1	6.	5.e-002	162.46
11119	2.55	6.	0.1	5832.1
11120	2.4	6.	5.e-002	133.45
11121	2.85	6.	0.1	5727.2
11122	2.7	6.	5.e-002	108.38
11123	3.15	6.	0.1	5618.1
11124	3.	6.	5.e-002	86.598
11125	3.45	6.	0.1	5507.4
11126	3.3	6.	5.e-002	67.593
11127	3.75	6.	0.1	5396.4
11128	3.6	6.	5.e-002	50.983
11129	4.05	6.	0.1	5286.2
11130	3.9	6.	5.e-002	36.468
11131	4.35	6.	0.1	5177.4
11132	4.2	6.	5.e-002	23.82
11133	4.65	6.	0.1	5070.1
11134	4.5	6.	5.e-002	12.954
11135	4.95	6.	0.1	4964.5
11136	4.8	6.	5.e-002	4.8796
11137	5.25	6.	0.1	4860.7
11138	5.1	6.	5.e-002	7.4493
11139	5.55	6.	0.1	4758.5
11140	5.4	6.	5.e-002	14.272
11141	5.85	6.	0.1	4658.
11142	5.7	6.	5.e-002	20.615
11143	6.15	6.	0.1	4559.
11144	6.	6.	5.e-002	26.225
11145	6.45	6.	0.1	4461.5
11146	6.3	6.	5.e-002	31.137
11147	6.75	6.	0.1	4365.3
11148	6.6	6.	5.e-002	35.417
11149	7.05	6.	0.1	4270.3
11150	6.9	6.	5.e-002	39.134
11151	7.35	6.	0.1	4176.5
11152	7.2	6.	5.e-002	42.355
11153	7.65	6.	0.1	4083.8
11154	7.5	6.	5.e-002	45.135
11155	7.95	6.	0.1	3992.1
11156	7.8	6.	5.e-002	47.529
11157	8.25	6.	0.1	3901.3
11158	8.1	6.	5.e-002	49.581
11159	8.55	6.	0.1	3811.5
11160	8.4	6.	5.e-002	51.334
11161	8.85	6.	0.1	3722.5
11162	8.7	6.	5.e-002	52.823
11163	9.15	6.	0.1	3634.3
11164	9.	6.	5.e-002	54.079
11165	9.45	6.	0.1	3546.9
11166	9.3	6.	5.e-002	55.131
11167	9.75	6.	0.1	3460.3
11168	9.6	6.	5.e-002	56.004
11169	10.05	6.	0.1	3374.3
11170	9.9	6.	5.e-002	56.719
11171	10.35	6.	0.1	3289.1
11172	10.2	6.	5.e-002	57.295
11173	10.65	6.	0.1	3204.5
11174	10.5	6.	5.e-002	57.748
11175	10.95	6.	0.1	3120.6
11176	10.8	6.	5.e-002	58.094
11177	11.25	6.	0.1	3037.3
11178	11.1	6.	5.e-002	58.345
11179	11.55	6.	0.1	2954.7
11180	11.4	6.	5.e-002	58.511
11181	11.85	6.	0.1	2872.6
11182	11.7	6.	5.e-002	58.604
11183	12.15	6.	0.1	2791.2
11184	12.	6.	5.e-002	58.631
11185	12.45	6.	0.1	2710.3
11186	12.3	6.	5.e-002	58.599
11187	12.75	6.	0.1	2630.1
11188	12.6	6.	5.e-002	58.516
11189	13.05	6.	0.1	2550.4
11190	12.9	6.	5.e-002	58.385
11191	13.35	6.	0.1	2471.2
11192	13.2	6.	5.e-002	58.213
11193	13.65	6.	0.1	2392.7
11194	13.5	6.	5.e-002	58.003
11195	13.95	6.	0.1	2314.7
11196	13.8	6.	5.e-002	57.758
11197	14.25	6.	0.1	2237.2
11198	14.1	6.	5.e-002	57.481
11199	14.55	6.	0.1	2160.3
11200	14.4	6.	5.e-002	57.174
11201	14.85	6.	0.1	2084.
11202	14.7	6.	5.e-002	56.839
11203	15.15	6.	0.1	2008.1
11204	15.	6.	5.e-002	56.477
11205	15.45	6.	0.1	1932.9
11206	15.3	6.	5.e-002	56.088
11207	15.75	6.	0.1	1858.1
11208	15.6	6.	5.e-002	55.674
11209	16.05	6.	0.1	1783.9
11210	15.9	6.	5.e-002	55.233
11211	16.35	6.	0.1	1710.2
11212	16.2	6.	5.e-002	54.765
11213	16.65	6.	0.1	1637.
11214	16.5	6.	5.e-002	54.269
11215	16.95	6.	0.1	1564.3
11216	16.8	6.	5.e-002	53.743
11217	17.25	6.	0.1	1492.2
11218	17.1	6.	5.e-002	53.186
11219	17.55	6.	0.1	1420.5
11220	17.4	6.	5.e-002	52.594
11221	17.85	6.	0.1	1349.4
11222	17.7	6.	5.e-002	51.965
11223	18.15	6.	0.1	1278.7
11224	18.	6.	5.e-002	51.294
11225	18.45	6.	0.1	1208.5
11226	18.3	6.	5.e-002	50.578
11227	18.75	6.	0.1	1138.8
11228	18.6	6.	5.e-002	49.81
11229	19.05	6.	0.1	1069.6
11230	18.9	6.	5.e-002	48.985
11231	19.35	6.	0.1	1000.8
11232	19.2	6.	5.e-002	48.095
11233	19.65	6.	0.1	932.4
11234	19.5	6.	5.e-002	47.133
11235	19.95	6.	0.1	864.46
11236	19.8	6.	5.e-002	46.088
11237	20.25	6.	0.1	796.94
11238	20.1	6.	5.e-002	44.949
11239	20.55	6.	0.1	729.81
11240	20.4	6.	5.e-002	43.703
11241	20.85	6.	0.1	663.08
11242	20.7	6.	5.e-002	42.336
11243	21.15	6.	0.1	596.72
11244	21.	6.	5.e-002	40.829
11245	21.45	6.	0.1	530.73
11246	21.3	6.	5.e-002	39.161
11247	21.75	6.	0.1	465.12
11248	21.6	6.	5.e-002	37.307
11249	22.05	6.	0.1	399.9
11250	21.9	6.	5.e-002	35.234
11251	22.35	6.	0.1	335.11
11252	22.2	6.	5.e-002	32.901
11253	22.65	6.	0.1	270.81
11254	22.5	6.	5.e-002	30.255
11255	22.95	6.	0.1	207.15
11256	22.8	6.	5.e-002	27.215
11257	23.25	6.	0.1	144.38
11258	23.1	6.	5.e-002	23.682
11259	23.55	6.	0.1	83.109
11260	23.4	6.	5.e-002	19.31
11261	23.85	6.	0.1	30.154
11262	23.7	6.	5.e-002	13.663
11263	24.	5.85	0.1	11.199
11264	24.	6.	5.e-002	5.6214
11265	24.	5.55	0.1	14.962
11266	24.	5.7	5.e-002	5.4958
11267	24.	5.25	0.1	15.639
11268	24.	5.4	5.e-002	5.6537
11269	24.	4.95	0.1	15.756
11270	24.	5.1	5.e-002	5.8919
11271	24.	4.65	0.1	15.811
11272	24.	4.8	5.e-002	6.0207
11273	24.	4.35	0.1	15.79
11274	24.	4.5	5.e-002	6.0492
11275	24.	4.05	0.1	15.755
11276	24.	4.2	5.e-002	6.0287
11277	24.	3.75	0.1	15.717
11278	24.	3.9	5.e-002	5.9855
11279	24.	3.45	0.1	15.688
11280	24.	3.6	5.e-002	5.9408
11281	24.	3.15	0.1	15.673
11282	24.	3.3	5.e-002	5.9085
11283	24.	2.85	0.1	15.673
11284	24.	3.	5.e-002	5.8968
11285	24.	2.55	0.1	15.688
11286	24.	2.7	5.e-002	5.9085
11287	24.	2.25	0.1	15.717
11288	24.	2.4	5.e-002	5.9408
11289	24.	1.95	0.1	15.755
11290	24.	2.1	5.e-002	5.9855
11291	24.	1.65	0.1	15.79
11292	24.	1.8	5.e-002	6.0287
11293	24.	1.35	0.1	15.811
11294	24.	1.5	5.e-002	6.0492
11295	24.	1.05	0.1	15.756
11296	24.	1.2	5.e-002	6.0207
11297	24.	0.75	0.1	15.639
11298	24.	0.9	5.e-002	5.8919
11299	24.	0.45	0.1	14.962
11300	24.	0.6	5.e-002	5.6537
11301	24.	0.15	0.1	11.199
11302	24.	0.3	5.e-002	5.4958
11303	23.85	0.	0.1	30.154
11304	24.	0.	5.e-002	5.6214
11305	23.55	0.	0.1	83.109
11306	23.7	0.	5.e-002	13.663
11307	23.25	0.	0.1	144.38
11308	23.4	0.	5.e-002	19.31
11309	22.95	0.	0.1	207.15
11310	23.1	0.	5.e-002	23.682
11311	22.65	0.	0.1	270.81
11312	22.8	0.	5.e-002	27.215
11313	22.35	0.	0.1	335.11
11314	22.5	0.	5.e-002	30.255
11315	22.05	0.	0.1	399.9
11316	22.2	0.	5.e-002	32.901
11317	21.75	0.	0.1	465.12
11318	21.9	0.	5.e-002	35.234
11319	21.45	0.	0.1	530.73
11320	21.6	0.	5.e-002	37.307
11321	21.15	0.	0.1	596.72
11322	21.3	0.	5.e-002	39.161
11323	20.85	0.	0.1	663.08
11324	21.	0.	5.e-002	40.829
11325	20.55	0.	0.1	729.81
11326	20.7	0.	5.e-002	42.336
11327	20.25	0.	0.1	796.94
11328	20.4	0.	5.e-002	43.703
11329	19.95	0.	0.1	864.46
11330	20.1	0.	5.e-002	44.949
11331	19.65	0.	0.1	932.4
11332	19.8	0.	5.e-002	46.088
11333	19.35	0.	0.1	1000.8
11334	19.5	0.	5.e-002	47.133
11335	19.05	0.	0.1	1069.6
11336	19.2	0.	5.e-002	48.095
11337	18.75	0.	0.1	1138.8
11338	18.9	0.	5.e-002	48.985
11339	18.45	0.	0.1	1208.5
11340	18.6	0.	5.e-002	49.81
11341	18.15	0.	0.1	1278.7
11342	18.3	0.	5.e-002	50.578
11343	17.85	0.	0.1	1349.4
11344	18.	0.	5.e-002	51.294
11345	17.55	0.	0.1	1420.5
11346	17.7	0.	5.e-002	51.965
11347	17.25	0.	0.1	1492.2
11348	17.4	0.	5.e-002	52.594
11349	16.95	0.	0.1	1564.3
11350	17.1	0.	5.e-002	53.186
11351	16.65	0.	0.1	1637.
11352	16.8	0.	5.e-002	53.743
11353	16.35	0.	0.1	1710.2
11354	16.5	0.	5.e-002	54.269
11355	16.05	0.	0.1	1783.9
11356	16.2	0.	5.e-002	54.765
11357	15.75	0.	0.1	1858.1
11358	15.9	0.	5.e-002	55.233
11359	15.45	0.	0.1	1932.9
11360	15.6	0.	5.e-002	55.674
11361	15.15	0.	0.1	2008.1
11362	15.3	0.	5.e-002	56.088
11363	14.85	0.	0.1	2084.
11364	15.	0.	5.e-002	56.477
11365	14.55	0.	0.1	2160.3
11366	14.7	0.	5.e-002	56.839
11367	14.25	0.	0.1	2237.2
11368	14.4	0.	5.e-002	57.174
11369	13.95	0.	0.1	2314.7
11370	14.1	0.	5.e-002	57.481
11371	13.65	0.	0.1	2392.7
11372	13.8	0.	5.e-002	57.758
11373	13.35	0.	0.1	2471.2
11374	13.5	0.	5.e-002	58.003
11375	13.05	0.	0.1	2550.4
11376	13.2	0.	5.e-002	58.213
11377	12.75	0.	0.1	2630.1
11378	12.9	0.	5.e-002	58.386
11379	12.45	0.	0.1	2710.3
11380	12.6	0.	5.e-002	58.516
11381	12.15	0.	0.1	2791.2
11382	12.3	0.	5.e-002	58.599
11383	11.85	0.	0.1	2872.6
11384	12.	0.	5.e-002	58.631
11385	11.55	0.	0.1	2954.7
11386	11.7	0.	5.e-002	58.604
11387	11.25	0.	0.1	3037.3
11388	11.4	0.	5.e-002	58.511
11389	10.95	0.	0.1	3120.6
11390	11.1	0.	5.e-002	58.345
11391	10.65	0.	0.1	3204.5
11392	10.8	0.	5.e-002	58.094
11393	10.35	0.	0.1	3289.1
11394	10.5	0.	5.e-002	57.748
11395	10.05	0.	0.1	3374.3
11396	10.2	0.	5.e-002	57.295
11397	9.75	0.	0.1	3460.3
11398	9.9	0.	5.e-002	56.719
11399	9.45	0.	0.1	3546.9
11400	9.6	0.	5.e-002	56.004
11401	9.15	0.	0.1	3634.3
11402	9.3	0.	5.e-002	55.131
11403	8.85	0.	0.1	3722.5
11404	9.	0.	5.e-002	54.079
11405	8.55	0.	0.1	3811.5
11406	8.7	0.	5.e-002	52.823
11407	8.25	0.	0.1	3901.3
11408	8.4	0.	5.e-002	51.334
11409	7.95	0.	0.1	3992.1
11410	8.1	0.	5.e-002	49.582
11411	7.65	0.	0.1	4083.8
11412	7.8	0.	5.e-002	47.529
11413	7.35	0.	0.1	4176.5
11414	7.5	0.	5.e-002	45.136
11415	7.05	0.	0.1	4270.3
11416	7.2	0.	5.e-002	42.355
11417	6.75	0.	0.1	4365.3
11418	6.9	0.	5.e-002	39.135
11419	6.45	0.	0.1	4461.5
11420	6.6	0.	5.e-002	35.417
11421	6.15	0.	0.1	4559.
11422	6.3	0.	5.e-002	31.137
11423	5.85	0.	0.1	4658.
11424	6.	0.	5.e-002	26.225
11425	5.55	0.	0.1	4758.5
11426	5.7	0.	5.e-002	20.615
11427	5.25	0.	0.1	4860.7
11428	5.4	0.	5.e-002	14.272
11429	4.95	0.	0.1	4964.5
11430	5.1	0.	5.e-002	7.4495
11431	4.65	0.	0.1	5070.1
11432	4.8	0.	5.e-002	4.8796
11433	4.35	0.	0.1	5177.4
11434	4.5	0.	5.e-002	12.954
11435	4.05	0.	0.1	5286.2
11436	4.2	0.	5.e-002	23.82
11437	3.75	0.	0.1	5396.4
11438	3.9	0.	5.e-002	36.468
11439	3.45	0.	0.1	5507.4
11440	3.6	0.	5.e-002	50.983
11441	3.15	0.	0.1	5618.1
11442	3.3	0.	5.e-002	67.593
11443	2.85	0.	0.1	5727.2
11444	3.	0.	5.e-002	86.598
11445	2.55	0.	0.1	5832.1
11446	2.7	0.	5.e-002	108.38
11447	2.25	0.	0.1	5928.6
11448	2.4	0.	5.e-002	133.45
11449	1.95	0.	0.1	6010.1
11450	2.1	0.	5.e-002	162.46
11451	1.65	0.	0.1	6065.1
11452	1.8	0.	5.e-002	196.41
11453	1.35	0.	0.1	6074.3
11454	1.5	0.	5.e-002	236.77
11455	1.05	0.	0.1	5993.7
11456	1.2	0.	5.e-002	286.53
11457	0.75	0.	0.1	5747.8
11458	0.9	0.	5.e-002	347.87
11459	0.45	0.	0.1	5015.1
11460	0.6	0.	5.e-002	453.87
11461	0.15	0.	0.1	2752.3
11462	0.3	0.	5.e-002	634.54
11463	1.3113e-015	0.15	0.1	2576.5
11464	0.	0.	5.e-002	1092.8
11465	3.9339e-015	0.45	0.1	5198.7
11466	2.6581e-015	0.3	5.e-002	59.034
11467	6.5564e-015	0.75	0.1	6503.3
11468	5.3161e-015	0.6	5.e-002	20.534
11469	9.179e-015	1.05	0.1	7150.7
11470	7.9742e-015	0.9	5.e-002	13.58
11471	1.1802e-014	1.35	0.1	7545.5
11472	1.0632e-014	1.2	5.e-002	8.4345
11473	1.4424e-014	1.65	0.1	7796.7
11474	1.329e-014	1.5	5.e-002	12.573
11475	1.7047e-014	1.95	0.1	7961.9
11476	1.5948e-014	1.8	5.e-002	16.862
11477	1.9669e-014	2.25	0.1	8069.1
11478	1.8606e-014	2.1	5.e-002	20.08
11479	2.2292e-014	2.55	0.1	8133.8
11480	2.1264e-014	2.4	5.e-002	22.31
11481	2.4914e-014	2.85	0.1	8164.3
11482	2.3923e-014	2.7	5.e-002	23.6
11483	2.7537e-014	3.15	0.1	8164.3
11484	2.6581e-014	3.	5.e-002	24.021
11485	3.016e-014	3.45	0.1	8133.8
11486	2.9239e-014	3.3	5.e-002	23.6
11487	3.2782e-014	3.75	0.1	8069.1
11488	3.1897e-014	3.6	5.e-002	22.31
11489	3.5405e-014	4.05	0.1	7961.9
11490	3.4555e-014	3.9	5.e-002	20.08
11491	3.8027e-014	4.35	0.1	7796.7
11492	3.7213e-014	4.2	5.e-002	16.862
11493	4.065e-014	4.65	0.1	7545.5
11494	3.9871e-014	4.5	5.e-002	12.573
11495	4.3272e-014	4.95	0.1	7150.7
11496	4.2529e-014	4.8	5.e-002	8.4344
11497	4.5895e-014	5.25	0.1	6503.3
11498	4.5187e-014	5.1	5.e-002	13.58
11499	4.8518e-014	5.55	0.1	5198.7
11500	4.7845e-014	5.4	5.e-002	20.533
11501	5.114e-014	5.85	0.1	2576.5
11502	5.0503e-014	5.7	5.e-002	59.034
11503	5.2451e-014	6.	5.e-002	1092.8
11504	4.8518e-014	5.55	0.	-2530.2
11505	5.114e-014	5.85	0.	-870.87
11506	4.5895e-014	5.25	0.	-3195.6
11507	4.3272e-014	4.95	0.	-3518.
11508	4.065e-014	4.65	0.	-3714.2
11509	3.8027e-014	4.35	0.	-3838.8
11510	3.5405e-014	4.05	0.	-3920.7
11511	3.2782e-014	3.75	0.	-3973.9
11512	3.016e-014	3.45	0.	-4006.1
11513	2.7537e-014	3.15	0.	-4021.4
11514	2.4914e-014	2.85	0.	-4021.4
11515	2.2292e-014	2.55	0.	-4006.1
11516	1.9669e-014	2.25	0.	-3973.9
11517	1.7047e-014	1.95	0.	-3920.7
11518	1.4424e-014	1.65	0.	-3838.8
11519	1.1802e-014	1.35	0.	-3714.2
11520	9.179e-015	1.05	0.	-3518.
11521	6.5564e-015	0.75	0.	-3195.6
11522	3.9339e-015	0.45	0.	-2530.2
11523	1.3113e-015	0.15	0.	-870.87
11524	0.15	6.	0.	525.34
11525	0.15	0.	0.	525.34
11526	0.45	0.	0.	306.84
11527	0.75	0.	0.	127.36
11528	1.05	0.	0.	69.877
11529	1.35	0.	0.	35.624
11530	1.65	0.	0.	15.487
11531	1.95	0.	0.	1.8152
11532	2.25	0.	0.	-3.4299
11533	2.55	0.	0.	-3.2012
11534	2.85	0.	0.	-2.8774
11535	3.15	0.	0.	-2.5752
11536	3.45	0.	0.	-2.2942
11537	3.75	0.	0.	-2.0384
11538	4.05	0.	0.	-1.8064
11539	4.35	0.	0.	-1.5972
11540	4.65	0.	0.	-1.4092
11541	4.95	0.	0.	-1.2409
11542	5.25	0.	0.	-1.0905
11543	5.55	0.	0.	-0.95656
11544	5.85	0.	0.	-0.83732
11545	6.15	0.	0.	-0.73123
11546	6.45	0.	0.	-0.63672
11547	6.75	0.	0.	-0.552
11548	7.05	0.	0.	-0.47459
11549	7.35	0.	0.	-0.39801
11550	7.65	0.	0.	-0.26265
11551	7.95	0.	0.	0.50196
11552	8.25	0.	0.	1.4684
11553	8.55	0.	0.	2.3702
11554	8.85	0.	0.	3.1999
11555	9.15	0.	0.	3.9613
11556	9.45	0.	0.	4.6602
11557	9.75	0.	0.	5.3023
11558	10.05	0.	0.	5.8933
11559	10.35	0.	0.	6.4388
11560	10.65	0.	0.	6.9439
11561	10.95	0.	0.	7.4135
11562	11.25	0.	0.	7.852
11563	11.55	0.	0.	8.2637
11564	11.85	0.	0.	8.6524
11565	12.15	0.	0.	9.0216
11566	12.45	0.	0.	9.3746
11567	12.75	0.	0.	9.7143
11568	13.05	0.	0.	10.044
11569	13.35	0.	0.	10.365
11570	13.65	0.	0.	10.681
11571	13.95	0.	0.	10.994
11572	14.25	0.	0.	11.306
11573	14.55	0.	0.	11.618
11574	14.85	0.	0.	11.933
11575	15.15	0.	0.	12.253
11576	15.45	0.	0.	12.579
11577	15.75	0.	0.	12.912
11578	16.05	0.	0.	13.255
11579	16.35	0.	0.	13.609
11580	16.65	0.	0.	13.975
11581	16.95	0.	0.	14.355
11582	17.25	0.	0.	14.75
11583	17.55	0.	0.	15.16
11584	17.85	0.	0.	15.588
11585	18.15	0.	0.	16.034
11586	18.45	0.	0.	16.498
11587	18.75	0.	0.	16.981
11588	19.05	0.	0.	17.483
11589	19.35	0.	0.	18.004
11590	19.65	0.	0.	18.543
11591	19.95	0.	0.	19.098
11592	20.25	0.	0.	19.666
11593	20.55	0.	0.	20.245
11594	20.85	0.	0.	20.829
11595	21.15	0.	0.	21.412
11596	21.45	0.	0.	21.985
11597	21.75	0.	0.	22.534
11598	22.05	0.	0.	23.044
11599	22.35	0.	0.	23.489
11600	22.65	0.	0.	23.831
11601	22.95	0.	0.	23.998
11602	23.25	0.	0.	23.916
11603	23.55	0.	0.	22.448
11604	23.85	0.	0.	17.958
11605	24.	0.15	0.	33.71
11606	24.	0.45	0.	70.843
11607	24.	0.75	0.	101.39
11608	24.	1.05	0.	124.68
11609	24.	1.35	0.	142.95
11610	24.	1.65	0.	157.28
11611	24.	1.95	0.	168.26
11612	24.	2.25	0.	176.25
11613	24.	2.55	0.	181.47
11614	24.	2.85	0.	184.05
11615	24.	3.15	0.	184.05
11616	24.	3.45	0.	181.47
11617	24.	3.75	0.	176.25
11618	24.	4.05	0.	168.26
11619	24.	4.35	0.	157.28
11620	24.	4.65	0.	142.95
11621	24.	4.95	0.	124.68
11622	24.	5.25	0.	101.39
11623	24.	5.55	0.	70.842
11624	24.	5.85	0.	33.71
11625	23.85	6.	0.	17.958
11626	23.55	6.	0.	22.448
11627	23.25	6.	0.	23.916
11628	22.95	6.	0.	23.998
11629	22.65	6.	0.	23.831
11630	22.35	6.	0.	23.489
11631	22.05	6.	0.	23.044
11632	21.75	6.	0.	22.534
11633	21.45	6.	0.	21.985
11634	21.15	6.	0.	21.412
11635	20.85	6.	0.	20.829
11636	20.55	6.	0.	20.245
11637	20.25	6.	0.	19.666
11638	19.95	6.	0.	19.098
11639	19.65	6.	0.	18.543
11640	19.35	6.	0.	18.004
11641	19.05	6.	0.	17.483
11642	18.75	6.	0.	16.981
11643	18.45	6.	0.	16.498
11644	18.15	6.	0.	16.034
11645	17.85	6.	0.	15.588
11646	17.55	6.	0.	15.16
11647	17.25	6.	0.	14.75
11648	16.95	6.	0.	14.355
11649	16.65	6.	0.	13.975
11650	16.35	6.	0.	13.609
11651	16.05	6.	0.	13.255
11652	15.75	6.	0.	12.912
11653	15.45	6.	0.	12.579
11654	15.15	6.	0.	12.253
11655	14.85	6.	0.	11.933
11656	14.55	6.	0.	11.618
11657	14.25	6.	0.	11.305
11658	13.95	6.	0.	10.994
11659	13.65	6.	0.	10.681
11660	13.35	6.	0.	10.365
11661	13.05	6.	0.	10.044
11662	12.75	6.	0.	9.7143
11663	12.45	6.	0.	9.3745
11664	12.15	6.	0.	9.0216
11665	11.85	6.	0.	8.6524
11666	11.55	6.	0.	8.2637
11667	11.25	6.	0.	7.852
11668	10.95	6.	0.	7.4135
11669	10.65	6.	0.	6.9439
11670	10.35	6.	0.	6.4388
11671	10.05	6.	0.	5.8933
11672	9.75	6.	0.	5.3023
11673	9.45	6.	0.	4.6602
11674	9.15	6.	0.	3.9613
11675	8.85	6.	0.	3.1998
11676	8.55	6.	0.	2.3702
11677	8.25	6.	0.	1.4684
11678	7.95	6.	0.	0.50195
11679	7.65	6.	0.	-0.26266
11680	7.35	6.	0.	-0.39801
11681	7.05	6.	0.	-0.47459
11682	6.75	6.	0.	-0.552
11683	6.45	6.	0.	-0.63672
11684	6.15	6.	0.	-0.73123
11685	5.85	6.	0.	-0.83732
11686	5.55	6.	0.	-0.95656
11687	5.25	6.	0.	-1.0905
11688	4.95	6.	0.	-1.2409
11689	4.65	6.	0.	-1.4092
11690	4.35	6.	0.	-1.5972
11691	4.05	6.	0.	-1.8064
11692	3.75	6.	0.	-2.0384
11693	3.45	6.	0.	-2.2942
11694	3.15	6.	0.	-2.5752
11695	2.85	6.	0.	-2.8774
11696	2.55	6.	0.	-3.2012
11697	2.25	6.	0.	-3.4299
11698	1.95	6.	0.	1.8152
11699	1.65	6.	0.	15.487
11700	1.35	6.	0.	35.624
11701	1.05	6.	0.	69.877
11702	0.75	6.	0.	127.36
11703	0.45	6.	0.	306.84
