Node Number	X Location (in)	Y Location (in)	Z Location (in)	Minimum Principal Stress (psi)
1	6.1642	2.7967	0.	-1297.5
2	5.9636	3.2035	0.	-1445.6
3	6.8932	1.4313	0.	-853.64
4	3.8116	3.3494	0.	-1315.1
5	7.1217	4.2694	0.	-1017.5
6	4.9013	0.39618	0.	-350.7
7	6.9422	0.55836	0.	-584.97
8	4.8377	4.6844	0.	-1130.3
9	6.7862	5.475	0.	-534.44
10	7.1973	3.6176	0.	-1117.3
11	4.9263	5.3979	0.	-810.84
12	4.4754	1.4743	0.	-971.02
13	3.3642	1.2492	0.	-1221.5
14	4.4686	2.3895	0.	-1257.2
15	8.1173	1.8052	0.	-738.5
16	3.9764	5.1975	0.	-1030.8
17	1.3572	4.7615	0.	-1322.9
18	1.1685	1.1942	0.	-1332.7
19	2.2983	1.1699	0.	-1406.2
20	7.8557	0.96271	0.	-674.84
21	9.1937	0.97906	0.	-626.9
22	10.349	1.0943	0.	-544.88
23	11.417	1.2123	0.	-461.59
24	12.591	1.1947	0.	-384.56
25	13.754	1.1794	0.	-311.19
26	14.914	1.173	0.	-245.92
27	16.058	1.1792	0.	-188.62
28	17.196	1.1827	0.	-139.51
29	18.325	1.1831	0.	-98.219
30	19.462	1.1924	0.	-64.186
31	20.59	1.1943	0.	-37.64
32	21.73	1.1926	0.	-18.467
33	22.864	1.1954	0.	-6.5642
34	1.3324	3.6043	0.	-1370.9
35	1.2253	2.4026	0.	-1390.7
36	22.855	2.3938	0.	-7.1438
37	22.852	3.6005	0.	-7.1678
38	22.858	4.796	0.	-6.5997
39	21.723	4.7975	0.	-18.568
40	20.585	4.7962	0.	-37.83
41	19.45	4.7988	0.	-64.493
42	18.319	4.7774	0.	-98.525
43	17.189	4.7382	0.	-140.12
44	16.03	4.7293	0.	-189.9
45	14.889	4.7505	0.	-247.16
46	13.72	4.7582	0.	-314.18
47	12.523	4.7599	0.	-391.82
48	11.265	4.7301	0.	-480.56
49	9.9817	4.7455	0.	-584.87
50	8.4588	4.7512	0.	-698.78
51	7.7606	5.301	0.	-692.24
52	3.4846	2.3366	0.	-1248.6
53	8.4076	3.7313	0.	-768.96
54	2.6641	3.4988	0.	-1355.1
55	2.37	2.3661	0.	-1391.3
56	9.1956	1.8956	0.	-638.56
57	10.184	2.2421	0.	-555.88
58	11.287	2.3853	0.	-472.46
59	12.494	2.3837	0.	-389.69
60	13.688	2.3626	0.	-313.97
61	14.878	2.3401	0.	-247.36
62	16.036	2.3557	0.	-189.44
63	17.188	2.3654	0.	-139.78
64	18.322	2.371	0.	-98.137
65	19.449	2.3877	0.	-64.412
66	20.574	2.3978	0.	-38.133
67	21.714	2.3908	0.	-19.048
68	21.714	3.5977	0.	-19.045
69	20.569	3.5955	0.	-38.262
70	19.438	3.587	0.	-64.703
71	18.319	3.5733	0.	-98.353
72	17.191	3.5484	0.	-139.72
73	16.031	3.5243	0.	-189.47
74	14.857	3.5462	0.	-248.57
75	13.674	3.5585	0.	-315.21
76	12.457	3.5685	0.	-392.54
77	9.6848	3.4476	0.	-605.62
78	6.58	5.0797	0.	-563.34
79	6.9304	4.7436	0.	-795.93
80	4.5574	0.79813	0.	-723.64
81	5.2795	2.3551	0.	-1368.9
82	2.918	4.717	0.	-1286.4
83	5.1162	5.0373	0.	-601.04
84	4.186	4.1026	0.	-1284.9
85	6.6263	0.99527	0.	-503.74
86	7.258	2.0443	0.	-1004.4
87	5.022	3.2484	0.	-1354.7
88	7.7896	2.7922	0.	-916.78
89	6.8499	2.8402	0.	-988.94
90	8.7715	2.6396	0.	-716.19
91	11.159	3.5511	0.	-489.48
92	11.159	3.5511	0.1	-1.4475
93	8.7715	2.6396	0.1	25.625
94	6.8499	2.8402	0.1	-205.15
95	7.7896	2.7922	0.1	30.675
96	5.022	3.2484	0.1	-100.04
97	7.258	2.0443	0.1	11.343
98	6.6263	0.99527	0.1	-128.04
99	4.186	4.1026	0.1	62.533
100	5.1162	5.0373	0.1	-215.46
101	2.918	4.717	0.1	50.54
102	5.2795	2.3551	0.1	-344.13
103	4.5574	0.79813	0.1	-326.78
104	6.9304	4.7436	0.1	-119.61
105	6.58	5.0797	0.1	-95.658
106	9.6848	3.4476	0.1	5.618
107	12.457	3.5685	0.1	2.0878
108	13.674	3.5585	0.1	-4.0081
109	14.857	3.5462	0.1	-6.54
110	16.031	3.5243	0.1	-8.4908
111	17.191	3.5484	0.1	-9.4708
112	18.319	3.5733	0.1	-9.9727
113	19.438	3.587	0.1	-10.334
114	20.569	3.5955	0.1	-10.495
115	21.714	3.5977	0.1	-10.617
116	21.714	2.3908	0.1	-10.598
117	20.574	2.3978	0.1	-10.545
118	19.449	2.3877	0.1	-10.408
119	18.322	2.371	0.1	-10.031
120	17.188	2.3654	0.1	-9.35
121	16.036	2.3557	0.1	-8.4564
122	14.878	2.3401	0.1	-6.757
123	13.688	2.3626	0.1	-4.7742
124	12.494	2.3837	0.1	0.5445
125	11.287	2.3853	0.1	-2.9232
126	10.184	2.2421	0.1	2.4409
127	9.1956	1.8956	0.1	-6.9301
128	2.37	2.3661	0.1	79.171
129	2.6641	3.4988	0.1	78.648
130	8.4076	3.7313	0.1	17.449
131	3.4846	2.3366	0.1	-41.017
132	7.7606	5.301	0.1	-12.625
133	8.4588	4.7512	0.1	-4.2766
134	9.9817	4.7455	0.1	-3.2884
135	11.265	4.7301	0.1	5.6121
136	12.523	4.7599	0.1	-1.1536
137	13.72	4.7582	0.1	-2.9305
138	14.889	4.7505	0.1	-5.6239
139	16.03	4.7293	0.1	-6.9836
140	17.189	4.7382	0.1	-7.812
141	18.319	4.7774	0.1	-8.288
142	19.45	4.7988	0.1	-8.41
143	20.585	4.7962	0.1	-8.4529
144	21.723	4.7975	0.1	-8.1795
145	22.858	4.796	0.1	-7.6315
146	22.852	3.6005	0.1	-10.632
147	22.855	2.3938	0.1	-10.625
148	1.2253	2.4026	0.1	-310.66
149	1.3324	3.6043	0.1	-302.54
150	22.864	1.1954	0.1	-7.6162
151	21.73	1.1926	0.1	-8.2062
152	20.59	1.1943	0.1	-8.4955
153	19.462	1.1924	0.1	-8.4997
154	18.325	1.1831	0.1	-8.3548
155	17.196	1.1827	0.1	-8.0573
156	16.058	1.1792	0.1	-7.3732
157	14.914	1.173	0.1	-6.2483
158	13.754	1.1794	0.1	-4.4959
159	12.591	1.1947	0.1	-2.2026
160	11.417	1.2123	0.1	-1.6322
161	10.349	1.0943	0.1	0.37351
162	9.1937	0.97906	0.1	-8.8568
163	7.8557	0.96271	0.1	-9.0376
164	2.2983	1.1699	0.1	46.654
165	1.1685	1.1942	0.1	-262.52
166	1.3572	4.7615	0.1	-253.16
167	3.9764	5.1975	0.1	0.84095
168	8.1173	1.8052	0.1	19.886
169	4.4686	2.3895	0.1	-51.363
170	3.3642	1.2492	0.1	2.9316
171	4.4754	1.4743	0.1	-28.489
172	4.9263	5.3979	0.1	-166.23
173	7.1973	3.6176	0.1	-8.2506
174	6.7862	5.475	0.1	-92.67
175	4.8377	4.6844	0.1	-206.44
176	6.9422	0.55836	0.1	-91.428
177	4.9013	0.39618	0.1	-127.4
178	7.1217	4.2694	0.1	76.723
179	3.8116	3.3494	0.1	24.234
180	6.8932	1.4313	0.1	-109.58
181	5.9636	3.2035	0.1	-227.04
182	6.1642	2.7967	0.1	-434.39
183	5.9067	5.5	0.1	67.217
184	5.9067	5.	0.1	-338.61
185	5.9067	4.5	0.1	-437.41
186	5.9067	4.	0.1	83.607
187	5.74	4.	0.1	88.4
188	5.74	4.5	0.1	-811.1
189	5.74	5.	0.1	-352.68
190	5.74	5.5	0.1	97.625
191	5.9067	0.5	0.1	79.714
192	5.9067	1.	0.1	-206.86
193	5.9067	1.5	0.1	-414.49
194	5.9067	2.	0.1	316.74
195	5.74	2.	0.1	99.049
196	5.74	1.5	0.1	-595.89
197	5.74	1.	0.1	-71.937
198	5.74	0.5	0.1	3.3074
199	5.9067	6.	0.1	39.726
200	7.0375	6.	0.1	8.3755
201	8.1683	6.	0.1	-57.517
202	9.2992	6.	0.1	-55.196
203	10.43	6.	0.1	-4.5199
204	11.561	6.	0.1	-13.558
205	12.692	6.	0.1	-12.65
206	13.823	6.	0.1	-10.223
207	14.953	6.	0.1	-10.628
208	16.084	6.	0.1	-11.008
209	17.215	6.	0.1	-10.848
210	18.346	6.	0.1	-11.025
211	19.477	6.	0.1	-10.707
212	20.608	6.	0.1	-10.149
213	21.738	6.	0.1	-9.2986
214	22.869	6.	0.1	-7.635
215	24.	6.	0.1	-5.1017
216	24.	4.8	0.1	-6.7375
217	24.	3.6	0.1	-10.047
218	24.	2.4	0.1	-10.063
219	24.	1.2	0.1	-6.7622
220	1.049e-014	1.2	0.1	970.01
221	2.0981e-014	2.4	0.1	1016.4
222	3.1471e-014	3.6	0.1	1016.2
223	4.1961e-014	4.8	0.1	957.77
224	24.	0.	0.1	-5.1048
225	22.869	0.	0.1	-7.5616
226	21.738	0.	0.1	-9.2182
227	20.608	0.	0.1	-10.155
228	19.477	0.	0.1	-10.41
229	18.346	0.	0.1	-10.674
230	17.215	0.	0.1	-10.482
231	16.084	0.	0.1	-10.127
232	14.953	0.	0.1	-9.8535
233	13.823	0.	0.1	-9.0628
234	12.692	0.	0.1	-8.9556
235	11.561	0.	0.1	-8.2817
236	10.43	0.	0.1	-1.4506
237	9.2992	0.	0.1	-3.8183
238	8.1683	0.	0.1	-39.725
239	7.0375	0.	0.1	-29.409
240	5.9067	0.	0.1	39.969
241	5.74	0.	0.1	88.912
242	4.592	-6.7938e-031	0.1	-354.98
243	3.444	-5.0954e-031	0.1	-38.665
244	2.296	-3.3969e-031	0.1	23.672
245	1.148	-1.6985e-031	0.1	-179.8
246	0.	0.	0.1	597.35
247	3.937e-014	6.	0.1	641.95
248	1.148	6.	0.1	-196.08
249	2.296	6.	0.1	-37.796
250	3.444	6.	0.1	-19.588
251	4.592	6.	0.1	49.904
252	5.74	6.	0.1	34.252
253	4.592	6.	0.	-820.07
254	3.444	6.	0.	-1138.
255	2.296	6.	0.	-1435.9
256	1.148	6.	0.	-1290.2
257	5.74	6.	0.	-588.71
258	3.937e-014	6.	0.	-1415.2
259	1.148	-1.6985e-031	0.	-1364.7
260	2.296	-3.3969e-031	0.	-1494.9
261	3.444	-5.0954e-031	0.	-1073.4
262	4.592	-6.7938e-031	0.	-708.76
263	5.74	0.	0.	-370.08
264	0.	0.	0.	-1408.1
265	7.0375	0.	0.	-502.97
266	8.1683	0.	0.	-627.81
267	9.2992	0.	0.	-619.28
268	10.43	0.	0.	-542.87
269	11.561	0.	0.	-454.19
270	12.692	0.	0.	-379.2
271	13.823	0.	0.	-307.34
272	14.953	0.	0.	-243.01
273	16.084	0.	0.	-186.52
274	17.215	0.	0.	-137.59
275	18.346	0.	0.	-96.188
276	19.477	0.	0.	-62.214
277	20.608	0.	0.	-35.64
278	21.738	0.	0.	-16.363
279	22.869	0.	0.	-4.1849
280	5.9067	0.	0.	-408.8
281	24.	0.	0.	0.29194
282	4.1961e-014	4.8	0.	-1951.6
283	3.1471e-014	3.6	0.	-2059.2
284	2.0981e-014	2.4	0.	-2061.2
285	1.049e-014	1.2	0.	-1974.3
286	24.	1.2	0.	-2.1817
287	24.	2.4	0.	-3.1045
288	24.	3.6	0.	-3.1222
289	24.	4.8	0.	-2.2458
290	24.	6.	0.	0.28194
291	22.869	6.	0.	-4.1631
292	21.738	6.	0.	-16.252
293	20.608	6.	0.	-35.553
294	19.477	6.	0.	-62.274
295	18.346	6.	0.	-96.345
296	17.215	6.	0.	-137.6
297	16.084	6.	0.	-185.92
298	14.953	6.	0.	-242.81
299	13.823	6.	0.	-307.58
300	12.692	6.	0.	-380.35
301	11.561	6.	0.	-463.12
302	10.43	6.	0.	-550.02
303	9.2992	6.	0.	-608.72
304	8.1683	6.	0.	-633.16
305	7.0375	6.	0.	-520.33
306	5.9067	6.	0.	-400.16
307	5.74	1.5	0.	-1473.1
308	5.74	1.	0.	-860.04
309	5.74	0.5	0.	-618.46
310	5.74	2.	0.	-3255.9
311	5.9067	0.5	0.	-486.04
312	5.9067	1.	0.	-894.92
313	5.9067	1.5	0.	-1198.6
314	5.9067	2.	0.	-2448.9
315	5.74	4.5	0.	-1222.3
316	5.74	5.	0.	-924.28
317	5.74	5.5	0.	-428.73
318	5.74	4.	0.	-2606.6
319	5.9067	5.5	0.	-437.72
320	5.9067	5.	0.	-903.77
321	5.9067	4.5	0.	-928.97
322	5.9067	4.	0.	-2503.8
323	6.0639	3.0001	0.	-1360.1
324	6.5071	2.8184	0.	-1136.5
325	6.1642	2.7967	5.e-002	-67.716
326	5.9521	2.3983	0.	-2269.7
327	6.5805	3.4106	0.	-1279.1
328	5.6215	2.7793	0.	-1403.2
329	5.4928	3.226	0.	-1390.7
330	5.9636	3.2035	5.e-002	-31.751
331	5.9351	3.6018	0.	-1968.9
332	7.3745	1.197	0.	-763.81
333	6.7598	1.2133	0.	-668.97
334	7.0756	1.7378	0.	-929.
335	6.8932	1.4313	5.e-002	-65.665
336	6.4	1.4657	0.	-955.94
337	3.6481	2.843	0.	-1281.4
338	3.2378	3.4241	0.	-1334.9
339	3.9988	3.726	0.	-1298.9
340	4.4168	3.2989	0.	-1334.3
341	3.8116	3.3494	5.e-002	-10.267
342	7.1595	3.9435	0.	-1061.5
343	7.7902	4.5103	0.	-854.98
344	7.026	4.5065	0.	-905.88
345	7.1217	4.2694	5.e-002	-32.915
346	6.5142	4.1347	0.	-1760.
347	4.7294	0.59716	0.	-535.43
348	4.9013	0.39618	5.e-002	-5.3443
349	4.7467	0.19809	0.	-529.6
350	5.3207	0.44809	0.	-474.08
351	7.399	0.76053	0.	-624.82
352	6.7843	0.77681	0.	-542.41
353	6.9422	0.55836	5.e-002	-28.11
354	6.9899	0.27918	0.	-542.23
355	6.4245	0.52918	0.	-520.22
356	4.4071	4.941	0.	-1079.2
357	4.977	4.8609	0.	-848.45
358	4.5119	4.3935	0.	-1207.
359	4.8377	4.6844	5.e-002	-117.9
360	5.2889	4.5922	0.	-1085.3
361	7.2734	5.388	0.	-605.84
362	6.6831	5.2773	0.	-548.03
363	6.7862	5.475	5.e-002	-29.736
364	6.9119	5.7375	0.	-523.45
365	6.3464	5.4875	0.	-474.54
366	7.8025	3.6745	0.	-943.05
367	7.0236	3.2289	0.	-1052.1
368	7.1973	3.6176	5.e-002	-57.932
369	4.4513	5.2977	0.	-905.99
370	5.0213	5.2176	0.	-703.88
371	4.9263	5.3979	5.e-002	-50.07
372	4.7591	5.6989	0.	-806.12
373	5.3331	5.4489	0.	-615.18
374	3.9198	1.3617	0.	-1092.5
375	4.472	1.9319	0.	-1113.1
376	4.5164	1.1362	0.	-846.78
377	4.8774	1.9147	0.	-1169.9
378	4.4754	1.4743	5.e-002	-52.432
379	5.1077	1.4871	0.	-1153.2
380	2.8312	1.2095	0.	-1313.
381	3.4244	1.7929	0.	-1234.5
382	3.3642	1.2492	5.e-002	-26.261
383	3.4041	0.62459	0.	-1146.9
384	3.9766	2.363	0.	-1250.1
385	4.874	2.3723	0.	-1310.9
386	4.7453	2.819	0.	-1295.3
387	4.4686	2.3895	5.e-002	-34.837
388	7.9865	1.384	0.	-706.22
389	8.6564	1.8504	0.	-688.5
390	7.6877	1.9248	0.	-869.76
391	8.4444	2.2224	0.	-727.34
392	8.1173	1.8052	5.e-002	-17.96
393	3.4472	4.9572	0.	-1158.5
394	3.9764	5.1975	5.e-002	-24.967
395	3.7102	5.5988	0.	-1084.
396	1.3448	4.1829	0.	-1345.4
397	2.1376	4.7392	0.	-1304.5
398	1.3572	4.7615	5.e-002	-15.73
399	1.2526	5.3808	0.	-1302.3
400	0.6786	4.7808	0.	-1633.8
401	1.7334	1.182	0.	-1369.2
402	1.1969	1.7984	0.	-1359.2
403	1.1685	1.1942	5.e-002	-16.295
404	1.1583	0.5971	0.	-1344.8
405	0.58427	1.1971	0.	-1649.2
406	2.3342	1.768	0.	-1397.8
407	2.2983	1.1699	5.e-002	-5.2585
408	2.2972	0.58494	0.	-1450.2
409	8.5247	0.97088	0.	-650.52
410	7.8557	0.96271	5.e-002	-7.77
411	8.012	0.48136	0.	-651.26
412	9.7715	1.0367	0.	-585.88
413	9.1946	1.4373	0.	-632.71
414	9.1937	0.97906	5.e-002	-2.4445
415	9.2464	0.48953	0.	-623.07
416	10.883	1.1533	0.	-503.23
417	10.267	1.6682	0.	-550.36
418	10.349	1.0943	5.e-002	-3.0779
419	10.39	0.54715	0.	-543.72
420	12.004	1.2035	0.	-423.05
421	11.352	1.7988	0.	-466.78
422	11.417	1.2123	5.e-002	-3.7524
423	11.489	0.60615	0.	-457.69
424	13.173	1.187	0.	-347.86
425	12.542	1.7892	0.	-386.92
426	12.591	1.1947	5.e-002	-3.5454
427	12.642	0.59735	0.	-381.68
428	14.334	1.1762	0.	-278.54
429	13.721	1.771	0.	-312.4
430	13.754	1.1794	5.e-002	-3.2752
431	13.788	0.58968	0.	-309.06
432	15.486	1.1761	0.	-217.26
433	14.896	1.7566	0.	-246.43
434	14.914	1.173	5.e-002	-2.6522
435	14.934	0.58652	0.	-244.25
436	16.627	1.181	0.	-164.05
437	16.047	1.7674	0.	-188.82
438	16.058	1.1792	5.e-002	-2.3141
439	16.071	0.58958	0.	-187.35
440	17.761	1.1829	0.	-118.85
441	17.192	1.7741	0.	-139.42
442	17.196	1.1827	5.e-002	-1.944
443	17.205	0.59137	0.	-138.32
444	18.894	1.1877	0.	-81.189
445	18.324	1.7771	0.	-97.946
446	18.325	1.1831	5.e-002	-1.6442
447	18.336	0.59155	0.	-96.97
448	20.026	1.1933	0.	-50.899
449	19.455	1.79	0.	-64.071
450	19.462	1.1924	5.e-002	-1.3335
451	19.469	0.5962	0.	-62.968
452	21.16	1.1934	0.	-28.043
453	20.582	1.7961	0.	-37.674
454	20.59	1.1943	5.e-002	-1.01
455	20.599	0.59714	0.	-36.399
456	22.297	1.194	0.	-12.514
457	21.722	1.7917	0.	-18.572
458	21.73	1.1926	5.e-002	-0.68767
459	21.734	0.59628	0.	-17.172
460	22.86	1.7946	0.	-6.7408
461	22.864	1.1954	5.e-002	-0.45207
462	22.867	0.59771	0.	-5.1525
463	23.432	1.1977	0.	-4.329
464	1.2789	3.0034	0.	-1379.6
465	1.9982	3.5515	0.	-1362.9
466	1.3324	3.6043	5.e-002	-14.446
467	0.66621	3.6021	0.	-1714.4
468	1.7977	2.3843	0.	-1391.
469	1.2253	2.4026	5.e-002	-11.193
470	0.61265	2.4013	0.	-1725.5
471	22.853	2.9971	0.	-7.0891
472	22.285	2.3923	0.	-13.094
473	22.855	2.3938	5.e-002	-0.43297
474	23.428	2.3969	0.	-5.1131
475	22.855	4.1983	0.	-6.7706
476	22.283	3.5991	0.	-13.104
477	22.852	3.6005	5.e-002	-0.43618
478	23.426	3.6003	0.	-5.1343
479	22.29	4.7968	0.	-12.583
480	22.858	4.796	5.e-002	-0.45178
481	23.429	4.798	0.	-4.3795
482	22.864	5.398	0.	-5.1596
483	21.154	4.7969	0.	-28.189
484	21.719	4.1976	0.	-18.623
485	21.723	4.7975	5.e-002	-0.69849
486	21.731	5.3988	0.	-17.167
487	20.017	4.7975	0.	-51.145
488	20.577	4.1959	0.	-37.829
489	20.585	4.7962	5.e-002	-1.0294
490	20.596	5.3981	0.	-36.452
491	18.885	4.7881	0.	-81.493
492	19.444	4.1929	0.	-64.373
493	19.45	4.7988	5.e-002	-1.3491
494	19.463	5.3994	0.	-63.134
495	17.754	4.7578	0.	-119.31
496	18.319	4.1754	0.	-98.207
497	18.319	4.7774	5.e-002	-1.6934
498	18.333	5.3887	0.	-97.182
499	16.609	4.7338	0.	-165.
500	17.19	4.1433	0.	-139.69
501	17.189	4.7382	5.e-002	-1.9739
502	17.202	5.3691	0.	-138.62
503	15.459	4.7399	0.	-218.53
504	16.031	4.1268	0.	-189.48
505	16.03	4.7293	5.e-002	-2.2796
506	16.057	5.3646	0.	-187.66
507	14.304	4.7543	0.	-280.66
508	14.873	4.1483	0.	-247.66
509	14.889	4.7505	5.e-002	-2.6181
510	14.921	5.3752	0.	-244.74
511	13.121	4.759	0.	-352.98
512	13.697	4.1583	0.	-314.53
513	13.72	4.7582	5.e-002	-3.2758
514	13.771	5.3791	0.	-310.63
515	11.894	4.745	0.	-436.15
516	12.49	4.1642	0.	-392.03
517	12.523	4.7599	5.e-002	-3.6247
518	12.607	5.3799	0.	-385.83
519	10.623	4.7378	0.	-532.7
520	11.212	4.1406	0.	-484.88
521	11.265	4.7301	5.e-002	-2.1007
522	11.413	5.365	0.	-471.58
523	9.2203	4.7484	0.	-641.82
524	9.8333	4.0966	0.	-595.2
525	9.9817	4.7455	5.e-002	-1.3956
526	10.206	5.3728	0.	-567.43
527	8.1097	5.0261	0.	-694.79
528	8.4332	4.2413	0.	-733.75
529	8.4588	4.7512	5.e-002	-14.055
530	8.879	5.3756	0.	-653.39
531	7.3455	5.0223	0.	-740.8
532	7.7606	5.301	5.e-002	-14.401
533	7.9645	5.6505	0.	-662.51
534	2.9273	2.3513	0.	-1319.5
535	3.4846	2.3366	5.e-002	-8.5311
536	9.0462	3.5894	0.	-687.27
537	8.0986	3.2618	0.	-841.67
538	8.4076	3.7313	5.e-002	-12.452
539	2.5171	2.9324	0.	-1372.5
540	2.7911	4.1079	0.	-1319.5
541	2.6641	3.4988	5.e-002	-11.059
542	2.37	2.3661	5.e-002	-14.554
543	9.6898	2.0689	0.	-597.21
544	8.9835	2.2676	0.	-677.37
545	9.1956	1.8956	5.e-002	-4.9052
546	10.735	2.3137	0.	-514.07
547	9.9344	2.8448	0.	-580.55
548	10.184	2.2421	5.e-002	-4.4676
549	11.89	2.3845	0.	-431.05
550	11.223	2.9682	0.	-480.97
551	11.287	2.3853	5.e-002	-2.8548
552	13.091	2.3732	0.	-351.82
553	12.475	2.9761	0.	-391.
554	12.494	2.3837	5.e-002	-2.0718
555	14.283	2.3514	0.	-280.67
556	13.681	2.9606	0.	-314.4
557	13.688	2.3626	5.e-002	-3.0182
558	15.457	2.3479	0.	-218.4
559	14.867	2.9432	0.	-247.76
560	14.878	2.3401	5.e-002	-2.5897
561	16.612	2.3606	0.	-164.61
562	16.033	2.94	0.	-189.24
563	16.036	2.3557	5.e-002	-2.4561
564	17.755	2.3682	0.	-118.96
565	17.189	2.9569	0.	-139.55
566	17.188	2.3654	5.e-002	-2.0241
567	18.885	2.3794	0.	-81.273
568	18.32	2.9722	0.	-98.039
569	18.322	2.371	5.e-002	-1.6294
570	20.011	2.3928	0.	-51.271
571	19.443	2.9873	0.	-64.355
572	19.449	2.3877	5.e-002	-1.3367
573	21.144	2.3943	0.	-28.59
574	20.571	2.9967	0.	-38.021
575	20.574	2.3978	5.e-002	-1.022
576	21.714	2.9943	0.	-18.916
577	21.714	2.3908	5.e-002	-0.68915
578	21.142	3.5966	0.	-28.653
579	21.714	3.5977	5.e-002	-0.69864
580	20.004	3.5913	0.	-51.481
581	20.569	3.5955	5.e-002	-1.0194
582	18.878	3.5802	0.	-81.526
583	19.438	3.587	5.e-002	-1.3184
584	17.755	3.5609	0.	-119.04
585	18.319	3.5733	5.e-002	-1.6554
586	16.611	3.5363	0.	-164.6
587	17.191	3.5484	5.e-002	-2.0813
588	15.444	3.5352	0.	-219.02
589	16.031	3.5243	5.e-002	-2.3934
590	14.265	3.5523	0.	-281.89
591	14.857	3.5462	5.e-002	-2.5321
592	13.065	3.5635	0.	-353.87
593	13.674	3.5585	5.e-002	-3.1133
594	11.808	3.5598	0.	-440.99
595	12.457	3.5685	5.e-002	-2.3089
596	9.2282	3.0436	0.	-660.71
597	10.422	3.4994	0.	-547.55
598	9.6848	3.4476	5.e-002	-2.5189
599	6.7552	4.9116	0.	-677.19
600	6.58	5.0797	5.e-002	-18.184
601	6.2433	5.0398	0.	-690.54
602	6.9304	4.7436	5.e-002	-71.358
603	6.4185	4.6218	0.	-824.35
604	4.5574	0.79813	5.e-002	-59.245
605	4.0007	0.39906	0.	-896.43
606	5.1487	0.89906	0.	-708.6
607	5.2795	2.3551	5.e-002	-35.78
608	5.5097	2.1775	0.	-2301.4
609	3.552	4.4098	0.	-1285.5
610	2.918	4.717	5.e-002	-13.996
611	2.607	5.3585	0.	-1360.2
612	5.1162	5.0373	5.e-002	-9.063
613	5.4281	5.0187	0.	-736.2
614	4.186	4.1026	5.e-002	-40.952
615	4.963	4.0513	0.	-1937.
616	6.6263	0.99527	5.e-002	-5.3133
617	6.2665	0.99763	0.	-674.88
618	7.5238	2.4183	0.	-960.08
619	7.258	2.0443	5.e-002	-21.181
620	6.5823	2.0222	0.	-1708.9
621	5.022	3.2484	5.e-002	-58.318
622	5.381	3.6242	0.	-1966.1
623	7.3198	2.8162	0.	-949.11
624	8.2805	2.7159	0.	-816.04
625	7.7896	2.7922	5.e-002	-10.014
626	6.8499	2.8402	5.e-002	-14.22
627	6.3783	2.4201	0.	-1651.8
628	8.7715	2.6396	5.e-002	-8.0514
629	11.159	3.5511	5.e-002	-3.4695
630	10.422	3.4994	0.1	2.1213
631	11.808	3.5598	0.1	0.79512
632	11.223	2.9682	0.1	-2.1535
633	11.212	4.1406	0.1	2.0965
634	8.2805	2.7159	0.1	28.243
635	9.2282	3.0436	0.1	15.636
636	8.9835	2.2676	0.1	9.3968
637	8.4444	2.2224	0.1	25.685
638	7.3198	2.8162	0.1	-36.752
639	7.0236	3.2289	0.1	-71.161
640	6.5071	2.8184	0.1	-314.39
641	6.3783	2.4201	0.1	111.24
642	7.5238	2.4183	0.1	21.769
643	8.0986	3.2618	0.1	24.129
644	4.7453	2.819	0.1	-64.85
645	4.4168	3.2989	0.1	-35.446
646	5.4928	3.226	0.1	-88.313
647	5.381	3.6242	0.1	94.291
648	7.6877	1.9248	0.1	19.625
649	7.0756	1.7378	0.1	-24.331
650	6.5823	2.0222	0.1	171.1
651	6.7843	0.77681	0.1	-107.82
652	6.7598	1.2133	0.1	-97.855
653	6.2665	0.99763	0.1	-142.21
654	3.552	4.4098	0.1	57.379
655	4.5119	4.3935	0.1	-54.651
656	3.9988	3.726	0.1	44.97
657	4.963	4.0513	0.1	162.27
658	5.0213	5.2176	0.1	-188.37
659	4.977	4.8609	0.1	-167.01
660	5.4281	5.0187	0.1	-257.91
661	2.7911	4.1079	0.1	64.671
662	2.1376	4.7392	0.1	-101.15
663	3.4472	4.9572	0.1	25.799
664	2.607	5.3585	0.1	37.607
665	4.874	2.3723	0.1	-186.4
666	4.8774	1.9147	0.1	-150.5
667	5.6215	2.7793	0.1	-279.47
668	5.5097	2.1775	0.1	-83.669
669	4.5164	1.1362	0.1	-153.76
670	4.7294	0.59716	0.1	-225.67
671	5.1487	0.89906	0.1	-113.02
672	4.0007	0.39906	0.1	-91.377
673	6.7552	4.9116	0.1	-93.051
674	7.3455	5.0223	0.1	-56.103
675	7.026	4.5065	0.1	-18.709
676	6.4185	4.6218	0.1	-215.93
677	6.6831	5.2773	0.1	-91.963
678	6.2433	5.0398	0.1	-175.97
679	9.9344	2.8448	0.1	4.1652
680	9.0462	3.5894	0.1	11.731
681	9.8333	4.0966	0.1	1.1661
682	13.065	3.5635	0.1	-0.84203
683	12.475	2.9761	0.1	1.6295
684	12.49	4.1642	0.1	0.85009
685	14.265	3.5523	0.1	-5.2713
686	13.681	2.9606	0.1	-4.1761
687	13.697	4.1583	0.1	-3.2926
688	15.444	3.5352	0.1	-7.5145
689	14.867	2.9432	0.1	-6.4448
690	14.873	4.1483	0.1	-5.8711
691	16.611	3.5363	0.1	-8.98
692	16.033	2.94	0.1	-8.2583
693	16.031	4.1268	0.1	-7.5241
694	17.755	3.5609	0.1	-9.7197
695	17.189	2.9569	0.1	-9.2033
696	17.19	4.1433	0.1	-8.4067
697	18.878	3.5802	0.1	-10.151
698	18.32	2.9722	0.1	-9.7916
699	18.319	4.1754	0.1	-8.8959
700	20.004	3.5913	0.1	-10.414
701	19.443	2.9873	0.1	-10.165
702	19.444	4.1929	0.1	-9.144
703	21.142	3.5966	0.1	-10.556
704	20.571	2.9967	0.1	-10.34
705	20.577	4.1959	0.1	-9.2539
706	21.714	2.9943	0.1	-10.474
707	21.719	4.1976	0.1	-9.2127
708	22.283	3.5991	0.1	-10.625
709	21.144	2.3943	0.1	-10.571
710	22.285	2.3923	0.1	-10.612
711	21.722	1.7917	0.1	-9.2141
712	20.011	2.3928	0.1	-10.476
713	20.582	1.7961	0.1	-9.3053
714	18.885	2.3794	0.1	-10.218
715	19.455	1.79	0.1	-9.2232
716	17.755	2.3682	0.1	-9.6894
717	18.324	1.7771	0.1	-8.9583
718	16.612	2.3606	0.1	-8.9025
719	17.192	1.7741	0.1	-8.478
720	15.457	2.3479	0.1	-7.6051
721	16.047	1.7674	0.1	-7.7034
722	14.283	2.3514	0.1	-5.7598
723	14.896	1.7566	0.1	-6.2948
724	13.091	2.3732	0.1	-2.1015
725	13.721	1.771	0.1	-4.447
726	11.89	2.3845	0.1	0.33648
727	12.542	1.7892	0.1	-0.62794
728	10.735	2.3137	0.1	-0.16271
729	11.352	1.7988	0.1	-0.80665
730	9.6898	2.0689	0.1	-2.1666
731	10.267	1.6682	0.1	1.4294
732	9.1946	1.4373	0.1	-7.835
733	8.6564	1.8504	0.1	10.355
734	2.5171	2.9324	0.1	79.155
735	2.9273	2.3513	0.1	19.199
736	1.7977	2.3843	0.1	-115.71
737	2.3342	1.768	0.1	62.926
738	1.9982	3.5515	0.1	-111.83
739	3.2378	3.4241	0.1	51.444
740	8.4332	4.2413	0.1	7.077
741	7.8025	3.6745	0.1	9.6989
742	3.9766	2.363	0.1	-26.744
743	3.4244	1.7929	0.1	-16.708
744	3.6481	2.843	0.1	-8.2231
745	8.1097	5.0261	0.1	0.63391
746	7.2734	5.388	0.1	-45.013
747	7.9645	5.6505	0.1	-35.069
748	9.2203	4.7484	0.1	-2.9591
749	7.7902	4.5103	0.1	37.007
750	8.879	5.3756	0.1	-4.07
751	10.623	4.7378	0.1	1.1944
752	10.206	5.3728	0.1	-3.8729
753	11.894	4.745	0.1	2.2422
754	11.413	5.365	0.1	-2.912
755	13.121	4.759	0.1	-1.1802
756	12.607	5.3799	0.1	-5.7269
757	14.304	4.7543	0.1	-4.2576
758	13.771	5.3791	0.1	-6.3328
759	15.459	4.7399	0.1	-6.2954
760	14.921	5.3752	0.1	-7.8744
761	16.609	4.7338	0.1	-7.384
762	16.057	5.3646	0.1	-8.7433
763	17.754	4.7578	0.1	-8.0349
764	17.202	5.3691	0.1	-9.0918
765	18.885	4.7881	0.1	-8.3327
766	18.333	5.3887	0.1	-9.4031
767	20.017	4.7975	0.1	-8.4155
768	19.463	5.3994	0.1	-9.3073
769	21.154	4.7969	0.1	-8.3069
770	20.596	5.3981	0.1	-9.0595
771	22.29	4.7968	0.1	-7.9054
772	21.731	5.3988	0.1	-8.4947
773	22.855	4.1983	0.1	-9.016
774	22.864	5.398	0.1	-7.4092
775	23.429	4.798	0.1	-7.1475
776	22.853	2.9971	0.1	-10.559
777	23.426	3.6003	0.1	-10.336
778	22.86	1.7946	0.1	-9.0045
779	23.428	2.3969	0.1	-10.341
780	1.2789	3.0034	0.1	-306.6
781	1.1969	1.7984	0.1	-286.51
782	0.61265	2.4013	0.1	353.59
783	1.3448	4.1829	0.1	-277.81
784	0.66621	3.6021	0.1	356.94
785	22.297	1.194	0.1	-7.9112
786	23.432	1.1977	0.1	-7.1516
787	22.867	0.59771	0.1	-7.3644
788	21.16	1.1934	0.1	-8.3405
789	21.734	0.59628	0.1	-8.4679
790	20.026	1.1933	0.1	-8.4838
791	20.599	0.59714	0.1	-9.0819
792	18.894	1.1877	0.1	-8.4133
793	19.469	0.5962	0.1	-9.221
794	17.761	1.1829	0.1	-8.1924
795	18.336	0.59155	0.1	-9.2798
796	16.627	1.181	0.1	-7.7038
797	17.205	0.59137	0.1	-9.041
798	15.486	1.1761	0.1	-6.8004
799	16.071	0.58958	0.1	-8.5255
800	14.334	1.1762	0.1	-5.3578
801	14.934	0.58652	0.1	-7.832
802	13.173	1.187	0.1	-3.3297
803	13.788	0.58968	0.1	-6.5715
804	12.004	1.2035	0.1	-1.8371
805	12.642	0.59735	0.1	-5.3684
806	10.883	1.1533	0.1	0.11568
807	11.489	0.60615	0.1	-4.4823
808	9.7715	1.0367	0.1	-3.868
809	10.39	0.54715	0.1	0.73763
810	8.5247	0.97088	0.1	-8.897
811	9.2464	0.48953	0.1	-6.2966
812	7.9865	1.384	0.1	9.3902
813	7.399	0.76053	0.1	-20.677
814	7.3745	1.197	0.1	-46.262
815	8.012	0.48136	0.1	-10.168
816	1.7334	1.182	0.1	-107.92
817	2.8312	1.2095	0.1	26.567
818	2.2972	0.58494	0.1	35.305
819	0.58427	1.1971	0.1	355.3
820	1.1583	0.5971	0.1	-220.73
821	0.6786	4.7808	0.1	355.09
822	1.2526	5.3808	0.1	-224.56
823	4.4513	5.2977	0.1	-39.169
824	4.4071	4.941	0.1	-91.192
825	3.7102	5.5988	0.1	-4.3441
826	4.472	1.9319	0.1	-3.7695
827	3.9198	1.3617	0.1	-8.6766
828	3.4041	0.62459	0.1	-17.352
829	5.1077	1.4871	0.1	-207.82
830	5.3331	5.4489	0.1	22.873
831	4.7591	5.6989	0.1	-41.765
832	7.1595	3.9435	0.1	50.243
833	6.5805	3.4106	0.1	-78.554
834	6.3464	5.4875	0.1	34.361
835	6.9119	5.7375	0.1	-28.735
836	5.2889	4.5922	0.1	-365.37
837	6.4245	0.52918	0.1	30.635
838	6.9899	0.27918	0.1	-58.684
839	5.3207	0.44809	0.1	-47.292
840	4.7467	0.19809	0.1	-229.41
841	6.5142	4.1347	0.1	112.28
842	6.4	1.4657	0.1	-174.07
843	6.0639	3.0001	0.1	-321.47
844	5.9351	3.6018	0.1	-65.645
845	5.9521	2.3983	0.1	-124.05
846	5.9067	5.25	0.1	-89.25
847	5.9067	5.75	0.1	55.278
848	5.9067	5.5	5.e-002	-25.781
849	5.9067	4.75	0.1	-363.42
850	5.9067	5.	5.e-002	-137.27
851	5.9067	4.25	0.1	-99.606
852	5.9067	4.5	5.e-002	-60.125
853	5.8233	4.	0.1	199.56
854	5.9067	4.	5.e-002	-59.659
855	5.74	4.25	0.1	-281.6
856	5.74	4.	5.e-002	-110.85
857	5.74	4.75	0.1	-572.78
858	5.74	4.5	5.e-002	-118.82
859	5.74	5.25	0.1	-73.773
860	5.74	5.	5.e-002	-172.96
861	5.74	5.75	0.1	67.624
862	5.74	5.5	5.e-002	-24.289
863	5.9067	0.75	0.1	-30.586
864	5.9067	0.25	0.1	63.386
865	5.9067	0.5	5.e-002	-30.642
866	5.9067	1.25	0.1	-296.64
867	5.9067	1.	5.e-002	-119.53
868	5.9067	1.75	0.1	-9.2775
869	5.9067	1.5	5.e-002	-71.947
870	5.8233	2.	0.1	266.12
871	5.9067	2.	5.e-002	-22.857
872	5.74	1.75	0.1	-37.286
873	5.74	2.	5.e-002	-178.77
874	5.74	1.25	0.1	-328.31
875	5.74	1.5	5.e-002	-108.74
876	5.74	0.75	0.1	-23.634
877	5.74	1.	5.e-002	-32.617
878	5.74	0.25	0.1	84.539
879	5.74	0.5	5.e-002	-50.965
880	6.4721	6.	0.1	24.32
881	5.9067	6.	5.e-002	-22.964
882	7.6029	6.	0.1	-16.231
883	7.0375	6.	5.e-002	-8.0363
884	8.7338	6.	0.1	-55.778
885	8.1683	6.	5.e-002	-28.041
886	9.8646	6.	0.1	-25.935
887	9.2992	6.	5.e-002	-19.702
888	10.995	6.	0.1	-4.5345
889	10.43	6.	5.e-002	-2.7019
890	12.126	6.	0.1	-13.042
891	11.561	6.	5.e-002	-4.4697
892	13.257	6.	0.1	-11.399
893	12.692	6.	5.e-002	-6.3857
894	14.388	6.	0.1	-10.396
895	13.823	6.	5.e-002	-5.9829
896	15.519	6.	0.1	-10.792
897	14.953	6.	5.e-002	-5.5913
898	16.65	6.	0.1	-10.897
899	16.084	6.	5.e-002	-4.7679
900	17.78	6.	0.1	-10.89
901	17.215	6.	5.e-002	-4.0688
902	18.911	6.	0.1	-10.818
903	18.346	6.	5.e-002	-3.6387
904	20.042	6.	0.1	-10.376
905	19.477	6.	5.e-002	-2.9902
906	21.173	6.	0.1	-9.6685
907	20.608	6.	5.e-002	-2.1987
908	22.304	6.	0.1	-8.4443
909	21.738	6.	5.e-002	-1.4197
910	23.435	6.	0.1	-6.3412
911	22.869	6.	5.e-002	-0.77855
912	24.	5.4	0.1	-5.8235
913	24.	6.	5.e-002	-0.15852
914	24.	4.2	0.1	-8.3734
915	24.	4.8	5.e-002	-0.30284
916	24.	3.	0.1	-10.039
917	24.	3.6	5.e-002	-0.32246
918	24.	1.8	0.1	-8.3941
919	24.	2.4	5.e-002	-0.32232
920	24.	0.6	0.1	-5.8368
921	24.	1.2	5.e-002	-0.29854
922	1.5735e-014	1.8	0.1	995.6
923	5.2451e-015	0.6	0.1	807.78
924	1.0632e-014	1.2	5.e-002	-38.743
925	2.6226e-014	3.	0.1	1016.5
926	2.1264e-014	2.4	5.e-002	-18.203
927	3.6716e-014	4.2	0.1	987.84
928	3.1897e-014	3.6	5.e-002	-10.558
929	4.7206e-014	5.4	0.1	815.99
930	4.2529e-014	4.8	5.e-002	-29.701
931	23.435	0.	0.1	-6.3053
932	24.	0.	5.e-002	-0.15589
933	22.304	0.	0.1	-8.3676
934	22.869	0.	5.e-002	-0.78662
935	21.173	0.	0.1	-9.6298
936	21.738	0.	5.e-002	-1.4394
937	20.042	0.	0.1	-10.226
938	20.608	0.	5.e-002	-2.1729
939	18.911	0.	0.1	-10.499
940	19.477	0.	5.e-002	-2.8968
941	17.78	0.	0.1	-10.537
942	18.346	0.	5.e-002	-3.677
943	16.65	0.	0.1	-10.272
944	17.215	0.	5.e-002	-4.3537
945	15.519	0.	0.1	-9.9629
946	16.084	0.	5.e-002	-5.0235
947	14.388	0.	0.1	-9.4291
948	14.953	0.	5.e-002	-5.7188
949	13.257	0.	0.1	-8.9751
950	13.823	0.	5.e-002	-6.285
951	12.126	0.	0.1	-8.5805
952	12.692	0.	5.e-002	-6.6377
953	10.995	0.	0.1	-4.8397
954	11.561	0.	5.e-002	-6.7321
955	9.8646	0.	0.1	-1.0999
956	10.43	0.	5.e-002	-7.7428
957	8.7338	0.	0.1	-18.391
958	9.2992	0.	5.e-002	-5.2493
959	7.6029	0.	0.1	-33.847
960	8.1683	0.	5.e-002	-12.181
961	6.4721	0.	0.1	29.693
962	7.0375	0.	5.e-002	-11.669
963	5.9067	0.	5.e-002	-35.499
964	5.166	-7.6431e-031	0.1	-94.611
965	5.74	-8.4923e-031	5.e-002	-11.617
966	4.018	-5.9446e-031	0.1	-107.24
967	4.592	0.	5.e-002	-167.82
968	2.87	-4.2461e-031	0.1	-4.9927
969	3.444	0.	5.e-002	-66.582
970	1.722	-2.5477e-031	0.1	-77.615
971	2.296	0.	5.e-002	-24.428
972	0.574	-8.4923e-032	0.1	231.32
973	1.148	0.	5.e-002	-27.942
974	0.	0.	5.e-002	-214.16
975	0.574	6.	0.1	235.39
976	5.2451e-014	6.	5.e-002	-167.64
977	1.722	6.	0.1	-85.83
978	1.148	6.	5.e-002	-14.762
979	2.87	6.	0.1	-21.416
980	2.296	6.	5.e-002	-29.931
981	4.018	6.	0.1	15.623
982	3.444	6.	5.e-002	-21.364
983	5.166	6.	0.1	47.969
984	4.592	6.	5.e-002	-14.937
985	5.74	6.	5.e-002	-38.456
986	4.018	6.	0.	-977.58
987	5.166	6.	0.	-704.14
988	2.87	6.	0.	-1283.6
989	1.722	6.	0.	-1360.
990	0.574	6.	0.	-1334.5
991	5.74	5.75	0.	-495.89
992	4.7206e-014	5.4	0.	-1668.7
993	1.722	-2.5477e-031	0.	-1425.1
994	0.574	-8.4923e-032	0.	-1361.8
995	2.87	-4.2461e-031	0.	-1282.4
996	4.018	-5.9446e-031	0.	-885.33
997	5.166	-7.6431e-031	0.	-534.3
998	5.74	0.25	0.	-473.43
999	5.2451e-015	0.6	0.	-1667.4
1000	7.6029	0.	0.	-564.65
1001	6.4721	0.	0.	-455.48
1002	8.7338	0.	0.	-623.31
1003	9.8646	0.	0.	-580.94
1004	10.995	0.	0.	-498.5
1005	12.126	0.	0.	-416.66
1006	13.257	0.	0.	-343.25
1007	14.388	0.	0.	-275.15
1008	15.519	0.	0.	-214.74
1009	16.65	0.	0.	-162.02
1010	17.78	0.	0.	-116.85
1011	18.911	0.	0.	-79.157
1012	20.042	0.	0.	-48.87
1013	21.173	0.	0.	-25.943
1014	22.304	0.	0.	-10.247
1015	23.435	0.	0.	-1.7362
1016	5.9067	0.25	0.	-430.86
1017	24.	0.6	0.	-0.68174
1018	3.6716e-014	4.2	0.	-2005.
1019	2.6226e-014	3.	0.	-2060.2
1020	1.5735e-014	1.8	0.	-2016.9
1021	24.	1.8	0.	-2.6264
1022	24.	3.	0.	-3.0996
1023	24.	4.2	0.	-2.6671
1024	24.	5.4	0.	-0.71261
1025	23.435	6.	0.	-1.7245
1026	22.304	6.	0.	-10.181
1027	21.173	6.	0.	-25.847
1028	20.042	6.	0.	-48.861
1029	18.911	6.	0.	-79.261
1030	17.78	6.	0.	-116.93
1031	16.65	6.	0.	-161.73
1032	15.519	6.	0.	-214.34
1033	14.388	6.	0.	-275.16
1034	13.257	6.	0.	-343.93
1035	12.126	6.	0.	-421.67
1036	10.995	6.	0.	-506.28
1037	9.8646	6.	0.	-579.13
1038	8.7338	6.	0.	-620.93
1039	7.6029	6.	0.	-576.14
1040	6.4721	6.	0.	-459.63
1041	5.9067	5.75	0.	-405.66
1042	5.74	1.25	0.	-1161.2
1043	5.74	1.75	0.	-2158.2
1044	5.74	0.75	0.	-730.09
1045	5.8233	2.	0.	-2749.5
1046	5.9067	0.75	0.	-689.71
1047	5.9067	1.25	0.	-1044.3
1048	5.9067	1.75	0.	-1795.7
1049	5.74	4.75	0.	-1069.4
1050	5.74	4.25	0.	-1833.7
1051	5.74	5.25	0.	-673.15
1052	5.8233	4.	0.	-2434.2
1053	5.9067	5.25	0.	-668.9
1054	5.9067	4.75	0.	-905.73
1055	5.9067	4.25	0.	-1640.9
